# vtk DataFile Version 5.1
vtk output
ASCII

DATASET UNSTRUCTURED_GRID
POINTS 2673 float
0 0 2.2
0.125 0 2.2
0.25 0 2.2
0.375 0 2.2
0.5 0 2.2
0.625 0 2.2
0.75 0 2.2
0.875 0 2.2
1 0 2.2
1.125 0 2.2
1.25 0 2.2
1.375 0 2.2
1.5 0 2.2
1.625 0 2.2
1.75 0 2.2
1.875 0 2.2
2 0 2.2
2.125 0 2.2
2.25 0 2.2
2.375 0 2.2
2.5 0 2.2
2.625 0 2.2
2.75 0 2.2
2.875 0 2.2
3 0 2.2
3.125 0 2.2
3.25 0 2.2
3.375 0 2.2
3.5 0 2.2
3.625 0 2.2
3.75 0 2.2
3.875 0 2.2
4 0 2.2
0 0.125 2.2
0.125 0.125 2.2
0.25 0.125 2.2
0.375 0.125 2.2
0.5 0.125 2.2
0.625 0.125 2.2
0.75 0.125 2.2
0.875 0.125 2.2
1 0.125 2.2
1.125 0.125 2.2
1.25 0.125 2.2
1.375 0.125 2.2
1.5 0.125 2.2
1.625 0.125 2.2
1.75 0.125 2.2
1.875 0.125 2.2
2 0.125 2.2
2.125 0.125 2.2
2.25 0.125 2.2
2.375 0.125 2.2
2.5 0.125 2.2
2.625 0.125 2.2
2.75 0.125 2.2
2.875 0.125 2.2
3 0.125 2.2
3.125 0.125 2.2
3.25 0.125 2.2
3.375 0.125 2.2
3.5 0.125 2.2
3.625 0.125 2.2
3.75 0.125 2.2
3.875 0.125 2.2
4 0.125 2.2
0 0.25 2.2
0.125 0.25 2.2
0.25 0.25 2.2
0.375 0.25 2.2
0.5 0.25 2.2
0.625 0.25 2.2
0.75 0.25 2.2
0.875 0.25 2.2
1 0.25 2.2
1.125 0.25 2.2
1.25 0.25 2.2
1.375 0.25 2.2
1.5 0.25 2.2
1.625 0.25 2.2
1.75 0.25 2.2
1.875 0.25 2.2
2 0.25 2.2
2.125 0.25 2.2
2.25 0.25 2.2
2.375 0.25 2.2
2.5 0.25 2.2
2.625 0.25 2.2
2.75 0.25 2.2
2.875 0.25 2.2
3 0.25 2.2
3.125 0.25 2.2
3.25 0.25 2.2
3.375 0.25 2.2
3.5 0.25 2.2
3.625 0.25 2.2
3.75 0.25 2.2
3.875 0.25 2.2
4 0.25 2.2
0 0.375 2.2
0.125 0.375 2.2
0.25 0.375 2.2
0.375 0.375 2.2
0.5 0.375 2.2
0.625 0.375 2.2
0.75 0.375 2.2
0.875 0.375 2.2
1 0.375 2.2
1.125 0.375 2.2
1.25 0.375 2.2
1.375 0.375 2.2
1.5 0.375 2.2
1.625 0.375 2.2
1.75 0.375 2.2
1.875 0.375 2.2
2 0.375 2.2
2.125 0.375 2.2
2.25 0.375 2.2
2.375 0.375 2.2
2.5 0.375 2.2
2.625 0.375 2.2
2.75 0.375 2.2
2.875 0.375 2.2
3 0.375 2.2
3.125 0.375 2.2
3.25 0.375 2.2
3.375 0.375 2.2
3.5 0.375 2.2
3.625 0.375 2.2
3.75 0.375 2.2
3.875 0.375 2.2
4 0.375 2.2
0 0.5 2.2
0.125 0.5 2.2
0.25 0.5 2.2
0.375 0.5 2.2
0.5 0.5 2.2
0.625 0.5 2.2
0.75 0.5 2.2
0.875 0.5 2.2
1 0.5 2.2
1.125 0.5 2.2
1.25 0.5 2.2
1.375 0.5 2.2
1.5 0.5 2.2
1.625 0.5 2.2
1.75 0.5 2.2
1.875 0.5 2.2
2 0.5 2.2
2.125 0.5 2.2
2.25 0.5 2.2
2.375 0.5 2.2
2.5 0.5 2.2
2.625 0.5 2.2
2.75 0.5 2.2
2.875 0.5 2.2
3 0.5 2.2
3.125 0.5 2.2
3.25 0.5 2.2
3.375 0.5 2.2
3.5 0.5 2.2
3.625 0.5 2.2
3.75 0.5 2.2
3.875 0.5 2.2
4 0.5 2.2
0 0.625 2.2
0.125 0.625 2.2
0.25 0.625 2.2
0.375 0.625 2.2
0.5 0.625 2.2
0.625 0.625 2.2
0.75 0.625 2.2
0.875 0.625 2.2
1 0.625 2.2
1.125 0.625 2.2
1.25 0.625 2.2
1.375 0.625 2.2
1.5 0.625 2.2
1.625 0.625 2.2
1.75 0.625 2.2
1.875 0.625 2.2
2 0.625 2.2
2.125 0.625 2.2
2.25 0.625 2.2
2.375 0.625 2.2
2.5 0.625 2.2
2.625 0.625 2.2
2.75 0.625 2.2
2.875 0.625 2.2
3 0.625 2.2
3.125 0.625 2.2
3.25 0.625 2.2
3.375 0.625 2.2
3.5 0.625 2.2
3.625 0.625 2.2
3.75 0.625 2.2
3.875 0.625 2.2
4 0.625 2.2
0 0.75 2.2
0.125 0.75 2.2
0.25 0.75 2.2
0.375 0.75 2.2
0.5 0.75 2.2
0.625 0.75 2.2
0.75 0.75 2.2
0.875 0.75 2.2
1 0.75 2.2
1.125 0.75 2.2
1.25 0.75 2.2
1.375 0.75 2.2
1.5 0.75 2.2
1.625 0.75 2.2
1.75 0.75 2.2
1.875 0.75 2.2
2 0.75 2.2
2.125 0.75 2.2
2.25 0.75 2.2
2.375 0.75 2.2
2.5 0.75 2.2
2.625 0.75 2.2
2.75 0.75 2.2
2.875 0.75 2.2
3 0.75 2.2
3.125 0.75 2.2
3.25 0.75 2.2
3.375 0.75 2.2
3.5 0.75 2.2
3.625 0.75 2.2
3.75 0.75 2.2
3.875 0.75 2.2
4 0.75 2.2
0 0.875 2.2
0.125 0.875 2.2
0.25 0.875 2.2
0.375 0.875 2.2
0.5 0.875 2.2
0.625 0.875 2.2
0.75 0.875 2.2
0.875 0.875 2.2
1 0.875 2.2
1.125 0.875 2.2
1.25 0.875 2.2
1.375 0.875 2.2
1.5 0.875 2.2
1.625 0.875 2.2
1.75 0.875 2.2
1.875 0.875 2.2
2 0.875 2.2
2.125 0.875 2.2
2.25 0.875 2.2
2.375 0.875 2.2
2.5 0.875 2.2
2.625 0.875 2.2
2.75 0.875 2.2
2.875 0.875 2.2
3 0.875 2.2
3.125 0.875 2.2
3.25 0.875 2.2
3.375 0.875 2.2
3.5 0.875 2.2
3.625 0.875 2.2
3.75 0.875 2.2
3.875 0.875 2.2
4 0.875 2.2
0 1 2.2
0.125 1 2.2
0.25 1 2.2
0.375 1 2.2
0.5 1 2.2
0.625 1 2.2
0.75 1 2.2
0.875 1 2.2
1 1 2.2
1.125 1 2.2
1.25 1 2.2
1.375 1 2.2
1.5 1 2.2
1.625 1 2.2
1.75 1 2.2
1.875 1 2.2
2 1 2.2
2.125 1 2.2
2.25 1 2.2
2.375 1 2.2
2.5 1 2.2
2.625 1 2.2
2.75 1 2.2
2.875 1 2.2
3 1 2.2
3.125 1 2.2
3.25 1 2.2
3.375 1 2.2
3.5 1 2.2
3.625 1 2.2
3.75 1 2.2
3.875 1 2.2
4 1 2.2
0 0 2.325
0.125 0 2.325
0.25 0 2.325
0.375 0 2.325
0.5 0 2.325
0.625 0 2.325
0.75 0 2.325
0.875 0 2.325
1 0 2.325
1.125 0 2.325
1.25 0 2.325
1.375 0 2.325
1.5 0 2.325
1.625 0 2.325
1.75 0 2.325
1.875 0 2.325
2 0 2.325
2.125 0 2.325
2.25 0 2.325
2.375 0 2.325
2.5 0 2.325
2.625 0 2.325
2.75 0 2.325
2.875 0 2.325
3 0 2.325
3.125 0 2.325
3.25 0 2.325
3.375 0 2.325
3.5 0 2.325
3.625 0 2.325
3.75 0 2.325
3.875 0 2.325
4 0 2.325
0 0.125 2.325
0.125 0.125 2.325
0.25 0.125 2.325
0.375 0.125 2.325
0.5 0.125 2.325
0.625 0.125 2.325
0.75 0.125 2.325
0.875 0.125 2.325
1 0.125 2.325
1.125 0.125 2.325
1.25 0.125 2.325
1.375 0.125 2.325
1.5 0.125 2.325
1.625 0.125 2.325
1.75 0.125 2.325
1.875 0.125 2.325
2 0.125 2.325
2.125 0.125 2.325
2.25 0.125 2.325
2.375 0.125 2.325
2.5 0.125 2.325
2.625 0.125 2.325
2.75 0.125 2.325
2.875 0.125 2.325
3 0.125 2.325
3.125 0.125 2.325
3.25 0.125 2.325
3.375 0.125 2.325
3.5 0.125 2.325
3.625 0.125 2.325
3.75 0.125 2.325
3.875 0.125 2.325
4 0.125 2.325
0 0.25 2.325
0.125 0.25 2.325
0.25 0.25 2.325
0.375 0.25 2.325
0.5 0.25 2.325
0.625 0.25 2.325
0.75 0.25 2.325
0.875 0.25 2.325
1 0.25 2.325
1.125 0.25 2.325
1.25 0.25 2.325
1.375 0.25 2.325
1.5 0.25 2.325
1.625 0.25 2.325
1.75 0.25 2.325
1.875 0.25 2.325
2 0.25 2.325
2.125 0.25 2.325
2.25 0.25 2.325
2.375 0.25 2.325
2.5 0.25 2.325
2.625 0.25 2.325
2.75 0.25 2.325
2.875 0.25 2.325
3 0.25 2.325
3.125 0.25 2.325
3.25 0.25 2.325
3.375 0.25 2.325
3.5 0.25 2.325
3.625 0.25 2.325
3.75 0.25 2.325
3.875 0.25 2.325
4 0.25 2.325
0 0.375 2.325
0.125 0.375 2.325
0.25 0.375 2.325
0.375 0.375 2.325
0.5 0.375 2.325
0.625 0.375 2.325
0.75 0.375 2.325
0.875 0.375 2.325
1 0.375 2.325
1.125 0.375 2.325
1.25 0.375 2.325
1.375 0.375 2.325
1.5 0.375 2.325
1.625 0.375 2.325
1.75 0.375 2.325
1.875 0.375 2.325
2 0.375 2.325
2.125 0.375 2.325
2.25 0.375 2.325
2.375 0.375 2.325
2.5 0.375 2.325
2.625 0.375 2.325
2.75 0.375 2.325
2.875 0.375 2.325
3 0.375 2.325
3.125 0.375 2.325
3.25 0.375 2.325
3.375 0.375 2.325
3.5 0.375 2.325
3.625 0.375 2.325
3.75 0.375 2.325
3.875 0.375 2.325
4 0.375 2.325
0 0.5 2.325
0.125 0.5 2.325
0.25 0.5 2.325
0.375 0.5 2.325
0.5 0.5 2.325
0.625 0.5 2.325
0.75 0.5 2.325
0.875 0.5 2.325
1 0.5 2.325
1.125 0.5 2.325
1.25 0.5 2.325
1.375 0.5 2.325
1.5 0.5 2.325
1.625 0.5 2.325
1.75 0.5 2.325
1.875 0.5 2.325
2 0.5 2.325
2.125 0.5 2.325
2.25 0.5 2.325
2.375 0.5 2.325
2.5 0.5 2.325
2.625 0.5 2.325
2.75 0.5 2.325
2.875 0.5 2.325
3 0.5 2.325
3.125 0.5 2.325
3.25 0.5 2.325
3.375 0.5 2.325
3.5 0.5 2.325
3.625 0.5 2.325
3.75 0.5 2.325
3.875 0.5 2.325
4 0.5 2.325
0 0.625 2.325
0.125 0.625 2.325
0.25 0.625 2.325
0.375 0.625 2.325
0.5 0.625 2.325
0.625 0.625 2.325
0.75 0.625 2.325
0.875 0.625 2.325
1 0.625 2.325
1.125 0.625 2.325
1.25 0.625 2.325
1.375 0.625 2.325
1.5 0.625 2.325
1.625 0.625 2.325
1.75 0.625 2.325
1.875 0.625 2.325
2 0.625 2.325
2.125 0.625 2.325
2.25 0.625 2.325
2.375 0.625 2.325
2.5 0.625 2.325
2.625 0.625 2.325
2.75 0.625 2.325
2.875 0.625 2.325
3 0.625 2.325
3.125 0.625 2.325
3.25 0.625 2.325
3.375 0.625 2.325
3.5 0.625 2.325
3.625 0.625 2.325
3.75 0.625 2.325
3.875 0.625 2.325
4 0.625 2.325
0 0.75 2.325
0.125 0.75 2.325
0.25 0.75 2.325
0.375 0.75 2.325
0.5 0.75 2.325
0.625 0.75 2.325
0.75 0.75 2.325
0.875 0.75 2.325
1 0.75 2.325
1.125 0.75 2.325
1.25 0.75 2.325
1.375 0.75 2.325
1.5 0.75 2.325
1.625 0.75 2.325
1.75 0.75 2.325
1.875 0.75 2.325
2 0.75 2.325
2.125 0.75 2.325
2.25 0.75 2.325
2.375 0.75 2.325
2.5 0.75 2.325
2.625 0.75 2.325
2.75 0.75 2.325
2.875 0.75 2.325
3 0.75 2.325
3.125 0.75 2.325
3.25 0.75 2.325
3.375 0.75 2.325
3.5 0.75 2.325
3.625 0.75 2.325
3.75 0.75 2.325
3.875 0.75 2.325
4 0.75 2.325
0 0.875 2.325
0.125 0.875 2.325
0.25 0.875 2.325
0.375 0.875 2.325
0.5 0.875 2.325
0.625 0.875 2.325
0.75 0.875 2.325
0.875 0.875 2.325
1 0.875 2.325
1.125 0.875 2.325
1.25 0.875 2.325
1.375 0.875 2.325
1.5 0.875 2.325
1.625 0.875 2.325
1.75 0.875 2.325
1.875 0.875 2.325
2 0.875 2.325
2.125 0.875 2.325
2.25 0.875 2.325
2.375 0.875 2.325
2.5 0.875 2.325
2.625 0.875 2.325
2.75 0.875 2.325
2.875 0.875 2.325
3 0.875 2.325
3.125 0.875 2.325
3.25 0.875 2.325
3.375 0.875 2.325
3.5 0.875 2.325
3.625 0.875 2.325
3.75 0.875 2.325
3.875 0.875 2.325
4 0.875 2.325
0 1 2.325
0.125 1 2.325
0.25 1 2.325
0.375 1 2.325
0.5 1 2.325
0.625 1 2.325
0.75 1 2.325
0.875 1 2.325
1 1 2.325
1.125 1 2.325
1.25 1 2.325
1.375 1 2.325
1.5 1 2.325
1.625 1 2.325
1.75 1 2.325
1.875 1 2.325
2 1 2.325
2.125 1 2.325
2.25 1 2.325
2.375 1 2.325
2.5 1 2.325
2.625 1 2.325
2.75 1 2.325
2.875 1 2.325
3 1 2.325
3.125 1 2.325
3.25 1 2.325
3.375 1 2.325
3.5 1 2.325
3.625 1 2.325
3.75 1 2.325
3.875 1 2.325
4 1 2.325
0 0 2.45
0.125 0 2.45
0.25 0 2.45
0.375 0 2.45
0.5 0 2.45
0.625 0 2.45
0.75 0 2.45
0.875 0 2.45
1 0 2.45
1.125 0 2.45
1.25 0 2.45
1.375 0 2.45
1.5 0 2.45
1.625 0 2.45
1.75 0 2.45
1.875 0 2.45
2 0 2.45
2.125 0 2.45
2.25 0 2.45
2.375 0 2.45
2.5 0 2.45
2.625 0 2.45
2.75 0 2.45
2.875 0 2.45
3 0 2.45
3.125 0 2.45
3.25 0 2.45
3.375 0 2.45
3.5 0 2.45
3.625 0 2.45
3.75 0 2.45
3.875 0 2.45
4 0 2.45
0 0.125 2.45
0.125 0.125 2.45
0.25 0.125 2.45
0.375 0.125 2.45
0.5 0.125 2.45
0.625 0.125 2.45
0.75 0.125 2.45
0.875 0.125 2.45
1 0.125 2.45
1.125 0.125 2.45
1.25 0.125 2.45
1.375 0.125 2.45
1.5 0.125 2.45
1.625 0.125 2.45
1.75 0.125 2.45
1.875 0.125 2.45
2 0.125 2.45
2.125 0.125 2.45
2.25 0.125 2.45
2.375 0.125 2.45
2.5 0.125 2.45
2.625 0.125 2.45
2.75 0.125 2.45
2.875 0.125 2.45
3 0.125 2.45
3.125 0.125 2.45
3.25 0.125 2.45
3.375 0.125 2.45
3.5 0.125 2.45
3.625 0.125 2.45
3.75 0.125 2.45
3.875 0.125 2.45
4 0.125 2.45
0 0.25 2.45
0.125 0.25 2.45
0.25 0.25 2.45
0.375 0.25 2.45
0.5 0.25 2.45
0.625 0.25 2.45
0.75 0.25 2.45
0.875 0.25 2.45
1 0.25 2.45
1.125 0.25 2.45
1.25 0.25 2.45
1.375 0.25 2.45
1.5 0.25 2.45
1.625 0.25 2.45
1.75 0.25 2.45
1.875 0.25 2.45
2 0.25 2.45
2.125 0.25 2.45
2.25 0.25 2.45
2.375 0.25 2.45
2.5 0.25 2.45
2.625 0.25 2.45
2.75 0.25 2.45
2.875 0.25 2.45
3 0.25 2.45
3.125 0.25 2.45
3.25 0.25 2.45
3.375 0.25 2.45
3.5 0.25 2.45
3.625 0.25 2.45
3.75 0.25 2.45
3.875 0.25 2.45
4 0.25 2.45
0 0.375 2.45
0.125 0.375 2.45
0.25 0.375 2.45
0.375 0.375 2.45
0.5 0.375 2.45
0.625 0.375 2.45
0.75 0.375 2.45
0.875 0.375 2.45
1 0.375 2.45
1.125 0.375 2.45
1.25 0.375 2.45
1.375 0.375 2.45
1.5 0.375 2.45
1.625 0.375 2.45
1.75 0.375 2.45
1.875 0.375 2.45
2 0.375 2.45
2.125 0.375 2.45
2.25 0.375 2.45
2.375 0.375 2.45
2.5 0.375 2.45
2.625 0.375 2.45
2.75 0.375 2.45
2.875 0.375 2.45
3 0.375 2.45
3.125 0.375 2.45
3.25 0.375 2.45
3.375 0.375 2.45
3.5 0.375 2.45
3.625 0.375 2.45
3.75 0.375 2.45
3.875 0.375 2.45
4 0.375 2.45
0 0.5 2.45
0.125 0.5 2.45
0.25 0.5 2.45
0.375 0.5 2.45
0.5 0.5 2.45
0.625 0.5 2.45
0.75 0.5 2.45
0.875 0.5 2.45
1 0.5 2.45
1.125 0.5 2.45
1.25 0.5 2.45
1.375 0.5 2.45
1.5 0.5 2.45
1.625 0.5 2.45
1.75 0.5 2.45
1.875 0.5 2.45
2 0.5 2.45
2.125 0.5 2.45
2.25 0.5 2.45
2.375 0.5 2.45
2.5 0.5 2.45
2.625 0.5 2.45
2.75 0.5 2.45
2.875 0.5 2.45
3 0.5 2.45
3.125 0.5 2.45
3.25 0.5 2.45
3.375 0.5 2.45
3.5 0.5 2.45
3.625 0.5 2.45
3.75 0.5 2.45
3.875 0.5 2.45
4 0.5 2.45
0 0.625 2.45
0.125 0.625 2.45
0.25 0.625 2.45
0.375 0.625 2.45
0.5 0.625 2.45
0.625 0.625 2.45
0.75 0.625 2.45
0.875 0.625 2.45
1 0.625 2.45
1.125 0.625 2.45
1.25 0.625 2.45
1.375 0.625 2.45
1.5 0.625 2.45
1.625 0.625 2.45
1.75 0.625 2.45
1.875 0.625 2.45
2 0.625 2.45
2.125 0.625 2.45
2.25 0.625 2.45
2.375 0.625 2.45
2.5 0.625 2.45
2.625 0.625 2.45
2.75 0.625 2.45
2.875 0.625 2.45
3 0.625 2.45
3.125 0.625 2.45
3.25 0.625 2.45
3.375 0.625 2.45
3.5 0.625 2.45
3.625 0.625 2.45
3.75 0.625 2.45
3.875 0.625 2.45
4 0.625 2.45
0 0.75 2.45
0.125 0.75 2.45
0.25 0.75 2.45
0.375 0.75 2.45
0.5 0.75 2.45
0.625 0.75 2.45
0.75 0.75 2.45
0.875 0.75 2.45
1 0.75 2.45
1.125 0.75 2.45
1.25 0.75 2.45
1.375 0.75 2.45
1.5 0.75 2.45
1.625 0.75 2.45
1.75 0.75 2.45
1.875 0.75 2.45
2 0.75 2.45
2.125 0.75 2.45
2.25 0.75 2.45
2.375 0.75 2.45
2.5 0.75 2.45
2.625 0.75 2.45
2.75 0.75 2.45
2.875 0.75 2.45
3 0.75 2.45
3.125 0.75 2.45
3.25 0.75 2.45
3.375 0.75 2.45
3.5 0.75 2.45
3.625 0.75 2.45
3.75 0.75 2.45
3.875 0.75 2.45
4 0.75 2.45
0 0.875 2.45
0.125 0.875 2.45
0.25 0.875 2.45
0.375 0.875 2.45
0.5 0.875 2.45
0.625 0.875 2.45
0.75 0.875 2.45
0.875 0.875 2.45
1 0.875 2.45
1.125 0.875 2.45
1.25 0.875 2.45
1.375 0.875 2.45
1.5 0.875 2.45
1.625 0.875 2.45
1.75 0.875 2.45
1.875 0.875 2.45
2 0.875 2.45
2.125 0.875 2.45
2.25 0.875 2.45
2.375 0.875 2.45
2.5 0.875 2.45
2.625 0.875 2.45
2.75 0.875 2.45
2.875 0.875 2.45
3 0.875 2.45
3.125 0.875 2.45
3.25 0.875 2.45
3.375 0.875 2.45
3.5 0.875 2.45
3.625 0.875 2.45
3.75 0.875 2.45
3.875 0.875 2.45
4 0.875 2.45
0 1 2.45
0.125 1 2.45
0.25 1 2.45
0.375 1 2.45
0.5 1 2.45
0.625 1 2.45
0.75 1 2.45
0.875 1 2.45
1 1 2.45
1.125 1 2.45
1.25 1 2.45
1.375 1 2.45
1.5 1 2.45
1.625 1 2.45
1.75 1 2.45
1.875 1 2.45
2 1 2.45
2.125 1 2.45
2.25 1 2.45
2.375 1 2.45
2.5 1 2.45
2.625 1 2.45
2.75 1 2.45
2.875 1 2.45
3 1 2.45
3.125 1 2.45
3.25 1 2.45
3.375 1 2.45
3.5 1 2.45
3.625 1 2.45
3.75 1 2.45
3.875 1 2.45
4 1 2.45
0 0 2.575
0.125 0 2.575
0.25 0 2.575
0.375 0 2.575
0.5 0 2.575
0.625 0 2.575
0.75 0 2.575
0.875 0 2.575
1 0 2.575
1.125 0 2.575
1.25 0 2.575
1.375 0 2.575
1.5 0 2.575
1.625 0 2.575
1.75 0 2.575
1.875 0 2.575
2 0 2.575
2.125 0 2.575
2.25 0 2.575
2.375 0 2.575
2.5 0 2.575
2.625 0 2.575
2.75 0 2.575
2.875 0 2.575
3 0 2.575
3.125 0 2.575
3.25 0 2.575
3.375 0 2.575
3.5 0 2.575
3.625 0 2.575
3.75 0 2.575
3.875 0 2.575
4 0 2.575
0 0.125 2.575
0.125 0.125 2.575
0.25 0.125 2.575
0.375 0.125 2.575
0.5 0.125 2.575
0.625 0.125 2.575
0.75 0.125 2.575
0.875 0.125 2.575
1 0.125 2.575
1.125 0.125 2.575
1.25 0.125 2.575
1.375 0.125 2.575
1.5 0.125 2.575
1.625 0.125 2.575
1.75 0.125 2.575
1.875 0.125 2.575
2 0.125 2.575
2.125 0.125 2.575
2.25 0.125 2.575
2.375 0.125 2.575
2.5 0.125 2.575
2.625 0.125 2.575
2.75 0.125 2.575
2.875 0.125 2.575
3 0.125 2.575
3.125 0.125 2.575
3.25 0.125 2.575
3.375 0.125 2.575
3.5 0.125 2.575
3.625 0.125 2.575
3.75 0.125 2.575
3.875 0.125 2.575
4 0.125 2.575
0 0.25 2.575
0.125 0.25 2.575
0.25 0.25 2.575
0.375 0.25 2.575
0.5 0.25 2.575
0.625 0.25 2.575
0.75 0.25 2.575
0.875 0.25 2.575
1 0.25 2.575
1.125 0.25 2.575
1.25 0.25 2.575
1.375 0.25 2.575
1.5 0.25 2.575
1.625 0.25 2.575
1.75 0.25 2.575
1.875 0.25 2.575
2 0.25 2.575
2.125 0.25 2.575
2.25 0.25 2.575
2.375 0.25 2.575
2.5 0.25 2.575
2.625 0.25 2.575
2.75 0.25 2.575
2.875 0.25 2.575
3 0.25 2.575
3.125 0.25 2.575
3.25 0.25 2.575
3.375 0.25 2.575
3.5 0.25 2.575
3.625 0.25 2.575
3.75 0.25 2.575
3.875 0.25 2.575
4 0.25 2.575
0 0.375 2.575
0.125 0.375 2.575
0.25 0.375 2.575
0.375 0.375 2.575
0.5 0.375 2.575
0.625 0.375 2.575
0.75 0.375 2.575
0.875 0.375 2.575
1 0.375 2.575
1.125 0.375 2.575
1.25 0.375 2.575
1.375 0.375 2.575
1.5 0.375 2.575
1.625 0.375 2.575
1.75 0.375 2.575
1.875 0.375 2.575
2 0.375 2.575
2.125 0.375 2.575
2.25 0.375 2.575
2.375 0.375 2.575
2.5 0.375 2.575
2.625 0.375 2.575
2.75 0.375 2.575
2.875 0.375 2.575
3 0.375 2.575
3.125 0.375 2.575
3.25 0.375 2.575
3.375 0.375 2.575
3.5 0.375 2.575
3.625 0.375 2.575
3.75 0.375 2.575
3.875 0.375 2.575
4 0.375 2.575
0 0.5 2.575
0.125 0.5 2.575
0.25 0.5 2.575
0.375 0.5 2.575
0.5 0.5 2.575
0.625 0.5 2.575
0.75 0.5 2.575
0.875 0.5 2.575
1 0.5 2.575
1.125 0.5 2.575
1.25 0.5 2.575
1.375 0.5 2.575
1.5 0.5 2.575
1.625 0.5 2.575
1.75 0.5 2.575
1.875 0.5 2.575
2 0.5 2.575
2.125 0.5 2.575
2.25 0.5 2.575
2.375 0.5 2.575
2.5 0.5 2.575
2.625 0.5 2.575
2.75 0.5 2.575
2.875 0.5 2.575
3 0.5 2.575
3.125 0.5 2.575
3.25 0.5 2.575
3.375 0.5 2.575
3.5 0.5 2.575
3.625 0.5 2.575
3.75 0.5 2.575
3.875 0.5 2.575
4 0.5 2.575
0 0.625 2.575
0.125 0.625 2.575
0.25 0.625 2.575
0.375 0.625 2.575
0.5 0.625 2.575
0.625 0.625 2.575
0.75 0.625 2.575
0.875 0.625 2.575
1 0.625 2.575
1.125 0.625 2.575
1.25 0.625 2.575
1.375 0.625 2.575
1.5 0.625 2.575
1.625 0.625 2.575
1.75 0.625 2.575
1.875 0.625 2.575
2 0.625 2.575
2.125 0.625 2.575
2.25 0.625 2.575
2.375 0.625 2.575
2.5 0.625 2.575
2.625 0.625 2.575
2.75 0.625 2.575
2.875 0.625 2.575
3 0.625 2.575
3.125 0.625 2.575
3.25 0.625 2.575
3.375 0.625 2.575
3.5 0.625 2.575
3.625 0.625 2.575
3.75 0.625 2.575
3.875 0.625 2.575
4 0.625 2.575
0 0.75 2.575
0.125 0.75 2.575
0.25 0.75 2.575
0.375 0.75 2.575
0.5 0.75 2.575
0.625 0.75 2.575
0.75 0.75 2.575
0.875 0.75 2.575
1 0.75 2.575
1.125 0.75 2.575
1.25 0.75 2.575
1.375 0.75 2.575
1.5 0.75 2.575
1.625 0.75 2.575
1.75 0.75 2.575
1.875 0.75 2.575
2 0.75 2.575
2.125 0.75 2.575
2.25 0.75 2.575
2.375 0.75 2.575
2.5 0.75 2.575
2.625 0.75 2.575
2.75 0.75 2.575
2.875 0.75 2.575
3 0.75 2.575
3.125 0.75 2.575
3.25 0.75 2.575
3.375 0.75 2.575
3.5 0.75 2.575
3.625 0.75 2.575
3.75 0.75 2.575
3.875 0.75 2.575
4 0.75 2.575
0 0.875 2.575
0.125 0.875 2.575
0.25 0.875 2.575
0.375 0.875 2.575
0.5 0.875 2.575
0.625 0.875 2.575
0.75 0.875 2.575
0.875 0.875 2.575
1 0.875 2.575
1.125 0.875 2.575
1.25 0.875 2.575
1.375 0.875 2.575
1.5 0.875 2.575
1.625 0.875 2.575
1.75 0.875 2.575
1.875 0.875 2.575
2 0.875 2.575
2.125 0.875 2.575
2.25 0.875 2.575
2.375 0.875 2.575
2.5 0.875 2.575
2.625 0.875 2.575
2.75 0.875 2.575
2.875 0.875 2.575
3 0.875 2.575
3.125 0.875 2.575
3.25 0.875 2.575
3.375 0.875 2.575
3.5 0.875 2.575
3.625 0.875 2.575
3.75 0.875 2.575
3.875 0.875 2.575
4 0.875 2.575
0 1 2.575
0.125 1 2.575
0.25 1 2.575
0.375 1 2.575
0.5 1 2.575
0.625 1 2.575
0.75 1 2.575
0.875 1 2.575
1 1 2.575
1.125 1 2.575
1.25 1 2.575
1.375 1 2.575
1.5 1 2.575
1.625 1 2.575
1.75 1 2.575
1.875 1 2.575
2 1 2.575
2.125 1 2.575
2.25 1 2.575
2.375 1 2.575
2.5 1 2.575
2.625 1 2.575
2.75 1 2.575
2.875 1 2.575
3 1 2.575
3.125 1 2.575
3.25 1 2.575
3.375 1 2.575
3.5 1 2.575
3.625 1 2.575
3.75 1 2.575
3.875 1 2.575
4 1 2.575
0 0 2.7
0.125 0 2.7
0.25 0 2.7
0.375 0 2.7
0.5 0 2.7
0.625 0 2.7
0.75 0 2.7
0.875 0 2.7
1 0 2.7
1.125 0 2.7
1.25 0 2.7
1.375 0 2.7
1.5 0 2.7
1.625 0 2.7
1.75 0 2.7
1.875 0 2.7
2 0 2.7
2.125 0 2.7
2.25 0 2.7
2.375 0 2.7
2.5 0 2.7
2.625 0 2.7
2.75 0 2.7
2.875 0 2.7
3 0 2.7
3.125 0 2.7
3.25 0 2.7
3.375 0 2.7
3.5 0 2.7
3.625 0 2.7
3.75 0 2.7
3.875 0 2.7
4 0 2.7
0 0.125 2.7
0.125 0.125 2.7
0.25 0.125 2.7
0.375 0.125 2.7
0.5 0.125 2.7
0.625 0.125 2.7
0.75 0.125 2.7
0.875 0.125 2.7
1 0.125 2.7
1.125 0.125 2.7
1.25 0.125 2.7
1.375 0.125 2.7
1.5 0.125 2.7
1.625 0.125 2.7
1.75 0.125 2.7
1.875 0.125 2.7
2 0.125 2.7
2.125 0.125 2.7
2.25 0.125 2.7
2.375 0.125 2.7
2.5 0.125 2.7
2.625 0.125 2.7
2.75 0.125 2.7
2.875 0.125 2.7
3 0.125 2.7
3.125 0.125 2.7
3.25 0.125 2.7
3.375 0.125 2.7
3.5 0.125 2.7
3.625 0.125 2.7
3.75 0.125 2.7
3.875 0.125 2.7
4 0.125 2.7
0 0.25 2.7
0.125 0.25 2.7
0.25 0.25 2.7
0.375 0.25 2.7
0.5 0.25 2.7
0.625 0.25 2.7
0.75 0.25 2.7
0.875 0.25 2.7
1 0.25 2.7
1.125 0.25 2.7
1.25 0.25 2.7
1.375 0.25 2.7
1.5 0.25 2.7
1.625 0.25 2.7
1.75 0.25 2.7
1.875 0.25 2.7
2 0.25 2.7
2.125 0.25 2.7
2.25 0.25 2.7
2.375 0.25 2.7
2.5 0.25 2.7
2.625 0.25 2.7
2.75 0.25 2.7
2.875 0.25 2.7
3 0.25 2.7
3.125 0.25 2.7
3.25 0.25 2.7
3.375 0.25 2.7
3.5 0.25 2.7
3.625 0.25 2.7
3.75 0.25 2.7
3.875 0.25 2.7
4 0.25 2.7
0 0.375 2.7
0.125 0.375 2.7
0.25 0.375 2.7
0.375 0.375 2.7
0.5 0.375 2.7
0.625 0.375 2.7
0.75 0.375 2.7
0.875 0.375 2.7
1 0.375 2.7
1.125 0.375 2.7
1.25 0.375 2.7
1.375 0.375 2.7
1.5 0.375 2.7
1.625 0.375 2.7
1.75 0.375 2.7
1.875 0.375 2.7
2 0.375 2.7
2.125 0.375 2.7
2.25 0.375 2.7
2.375 0.375 2.7
2.5 0.375 2.7
2.625 0.375 2.7
2.75 0.375 2.7
2.875 0.375 2.7
3 0.375 2.7
3.125 0.375 2.7
3.25 0.375 2.7
3.375 0.375 2.7
3.5 0.375 2.7
3.625 0.375 2.7
3.75 0.375 2.7
3.875 0.375 2.7
4 0.375 2.7
0 0.5 2.7
0.125 0.5 2.7
0.25 0.5 2.7
0.375 0.5 2.7
0.5 0.5 2.7
0.625 0.5 2.7
0.75 0.5 2.7
0.875 0.5 2.7
1 0.5 2.7
1.125 0.5 2.7
1.25 0.5 2.7
1.375 0.5 2.7
1.5 0.5 2.7
1.625 0.5 2.7
1.75 0.5 2.7
1.875 0.5 2.7
2 0.5 2.7
2.125 0.5 2.7
2.25 0.5 2.7
2.375 0.5 2.7
2.5 0.5 2.7
2.625 0.5 2.7
2.75 0.5 2.7
2.875 0.5 2.7
3 0.5 2.7
3.125 0.5 2.7
3.25 0.5 2.7
3.375 0.5 2.7
3.5 0.5 2.7
3.625 0.5 2.7
3.75 0.5 2.7
3.875 0.5 2.7
4 0.5 2.7
0 0.625 2.7
0.125 0.625 2.7
0.25 0.625 2.7
0.375 0.625 2.7
0.5 0.625 2.7
0.625 0.625 2.7
0.75 0.625 2.7
0.875 0.625 2.7
1 0.625 2.7
1.125 0.625 2.7
1.25 0.625 2.7
1.375 0.625 2.7
1.5 0.625 2.7
1.625 0.625 2.7
1.75 0.625 2.7
1.875 0.625 2.7
2 0.625 2.7
2.125 0.625 2.7
2.25 0.625 2.7
2.375 0.625 2.7
2.5 0.625 2.7
2.625 0.625 2.7
2.75 0.625 2.7
2.875 0.625 2.7
3 0.625 2.7
3.125 0.625 2.7
3.25 0.625 2.7
3.375 0.625 2.7
3.5 0.625 2.7
3.625 0.625 2.7
3.75 0.625 2.7
3.875 0.625 2.7
4 0.625 2.7
0 0.75 2.7
0.125 0.75 2.7
0.25 0.75 2.7
0.375 0.75 2.7
0.5 0.75 2.7
0.625 0.75 2.7
0.75 0.75 2.7
0.875 0.75 2.7
1 0.75 2.7
1.125 0.75 2.7
1.25 0.75 2.7
1.375 0.75 2.7
1.5 0.75 2.7
1.625 0.75 2.7
1.75 0.75 2.7
1.875 0.75 2.7
2 0.75 2.7
2.125 0.75 2.7
2.25 0.75 2.7
2.375 0.75 2.7
2.5 0.75 2.7
2.625 0.75 2.7
2.75 0.75 2.7
2.875 0.75 2.7
3 0.75 2.7
3.125 0.75 2.7
3.25 0.75 2.7
3.375 0.75 2.7
3.5 0.75 2.7
3.625 0.75 2.7
3.75 0.75 2.7
3.875 0.75 2.7
4 0.75 2.7
0 0.875 2.7
0.125 0.875 2.7
0.25 0.875 2.7
0.375 0.875 2.7
0.5 0.875 2.7
0.625 0.875 2.7
0.75 0.875 2.7
0.875 0.875 2.7
1 0.875 2.7
1.125 0.875 2.7
1.25 0.875 2.7
1.375 0.875 2.7
1.5 0.875 2.7
1.625 0.875 2.7
1.75 0.875 2.7
1.875 0.875 2.7
2 0.875 2.7
2.125 0.875 2.7
2.25 0.875 2.7
2.375 0.875 2.7
2.5 0.875 2.7
2.625 0.875 2.7
2.75 0.875 2.7
2.875 0.875 2.7
3 0.875 2.7
3.125 0.875 2.7
3.25 0.875 2.7
3.375 0.875 2.7
3.5 0.875 2.7
3.625 0.875 2.7
3.75 0.875 2.7
3.875 0.875 2.7
4 0.875 2.7
0 1 2.7
0.125 1 2.7
0.25 1 2.7
0.375 1 2.7
0.5 1 2.7
0.625 1 2.7
0.75 1 2.7
0.875 1 2.7
1 1 2.7
1.125 1 2.7
1.25 1 2.7
1.375 1 2.7
1.5 1 2.7
1.625 1 2.7
1.75 1 2.7
1.875 1 2.7
2 1 2.7
2.125 1 2.7
2.25 1 2.7
2.375 1 2.7
2.5 1 2.7
2.625 1 2.7
2.75 1 2.7
2.875 1 2.7
3 1 2.7
3.125 1 2.7
3.25 1 2.7
3.375 1 2.7
3.5 1 2.7
3.625 1 2.7
3.75 1 2.7
3.875 1 2.7
4 1 2.7
0 0 2.825
0.125 0 2.825
0.25 0 2.825
0.375 0 2.825
0.5 0 2.825
0.625 0 2.825
0.75 0 2.825
0.875 0 2.825
1 0 2.825
1.125 0 2.825
1.25 0 2.825
1.375 0 2.825
1.5 0 2.825
1.625 0 2.825
1.75 0 2.825
1.875 0 2.825
2 0 2.825
2.125 0 2.825
2.25 0 2.825
2.375 0 2.825
2.5 0 2.825
2.625 0 2.825
2.75 0 2.825
2.875 0 2.825
3 0 2.825
3.125 0 2.825
3.25 0 2.825
3.375 0 2.825
3.5 0 2.825
3.625 0 2.825
3.75 0 2.825
3.875 0 2.825
4 0 2.825
0 0.125 2.825
0.125 0.125 2.825
0.25 0.125 2.825
0.375 0.125 2.825
0.5 0.125 2.825
0.625 0.125 2.825
0.75 0.125 2.825
0.875 0.125 2.825
1 0.125 2.825
1.125 0.125 2.825
1.25 0.125 2.825
1.375 0.125 2.825
1.5 0.125 2.825
1.625 0.125 2.825
1.75 0.125 2.825
1.875 0.125 2.825
2 0.125 2.825
2.125 0.125 2.825
2.25 0.125 2.825
2.375 0.125 2.825
2.5 0.125 2.825
2.625 0.125 2.825
2.75 0.125 2.825
2.875 0.125 2.825
3 0.125 2.825
3.125 0.125 2.825
3.25 0.125 2.825
3.375 0.125 2.825
3.5 0.125 2.825
3.625 0.125 2.825
3.75 0.125 2.825
3.875 0.125 2.825
4 0.125 2.825
0 0.25 2.825
0.125 0.25 2.825
0.25 0.25 2.825
0.375 0.25 2.825
0.5 0.25 2.825
0.625 0.25 2.825
0.75 0.25 2.825
0.875 0.25 2.825
1 0.25 2.825
1.125 0.25 2.825
1.25 0.25 2.825
1.375 0.25 2.825
1.5 0.25 2.825
1.625 0.25 2.825
1.75 0.25 2.825
1.875 0.25 2.825
2 0.25 2.825
2.125 0.25 2.825
2.25 0.25 2.825
2.375 0.25 2.825
2.5 0.25 2.825
2.625 0.25 2.825
2.75 0.25 2.825
2.875 0.25 2.825
3 0.25 2.825
3.125 0.25 2.825
3.25 0.25 2.825
3.375 0.25 2.825
3.5 0.25 2.825
3.625 0.25 2.825
3.75 0.25 2.825
3.875 0.25 2.825
4 0.25 2.825
0 0.375 2.825
0.125 0.375 2.825
0.25 0.375 2.825
0.375 0.375 2.825
0.5 0.375 2.825
0.625 0.375 2.825
0.75 0.375 2.825
0.875 0.375 2.825
1 0.375 2.825
1.125 0.375 2.825
1.25 0.375 2.825
1.375 0.375 2.825
1.5 0.375 2.825
1.625 0.375 2.825
1.75 0.375 2.825
1.875 0.375 2.825
2 0.375 2.825
2.125 0.375 2.825
2.25 0.375 2.825
2.375 0.375 2.825
2.5 0.375 2.825
2.625 0.375 2.825
2.75 0.375 2.825
2.875 0.375 2.825
3 0.375 2.825
3.125 0.375 2.825
3.25 0.375 2.825
3.375 0.375 2.825
3.5 0.375 2.825
3.625 0.375 2.825
3.75 0.375 2.825
3.875 0.375 2.825
4 0.375 2.825
0 0.5 2.825
0.125 0.5 2.825
0.25 0.5 2.825
0.375 0.5 2.825
0.5 0.5 2.825
0.625 0.5 2.825
0.75 0.5 2.825
0.875 0.5 2.825
1 0.5 2.825
1.125 0.5 2.825
1.25 0.5 2.825
1.375 0.5 2.825
1.5 0.5 2.825
1.625 0.5 2.825
1.75 0.5 2.825
1.875 0.5 2.825
2 0.5 2.825
2.125 0.5 2.825
2.25 0.5 2.825
2.375 0.5 2.825
2.5 0.5 2.825
2.625 0.5 2.825
2.75 0.5 2.825
2.875 0.5 2.825
3 0.5 2.825
3.125 0.5 2.825
3.25 0.5 2.825
3.375 0.5 2.825
3.5 0.5 2.825
3.625 0.5 2.825
3.75 0.5 2.825
3.875 0.5 2.825
4 0.5 2.825
0 0.625 2.825
0.125 0.625 2.825
0.25 0.625 2.825
0.375 0.625 2.825
0.5 0.625 2.825
0.625 0.625 2.825
0.75 0.625 2.825
0.875 0.625 2.825
1 0.625 2.825
1.125 0.625 2.825
1.25 0.625 2.825
1.375 0.625 2.825
1.5 0.625 2.825
1.625 0.625 2.825
1.75 0.625 2.825
1.875 0.625 2.825
2 0.625 2.825
2.125 0.625 2.825
2.25 0.625 2.825
2.375 0.625 2.825
2.5 0.625 2.825
2.625 0.625 2.825
2.75 0.625 2.825
2.875 0.625 2.825
3 0.625 2.825
3.125 0.625 2.825
3.25 0.625 2.825
3.375 0.625 2.825
3.5 0.625 2.825
3.625 0.625 2.825
3.75 0.625 2.825
3.875 0.625 2.825
4 0.625 2.825
0 0.75 2.825
0.125 0.75 2.825
0.25 0.75 2.825
0.375 0.75 2.825
0.5 0.75 2.825
0.625 0.75 2.825
0.75 0.75 2.825
0.875 0.75 2.825
1 0.75 2.825
1.125 0.75 2.825
1.25 0.75 2.825
1.375 0.75 2.825
1.5 0.75 2.825
1.625 0.75 2.825
1.75 0.75 2.825
1.875 0.75 2.825
2 0.75 2.825
2.125 0.75 2.825
2.25 0.75 2.825
2.375 0.75 2.825
2.5 0.75 2.825
2.625 0.75 2.825
2.75 0.75 2.825
2.875 0.75 2.825
3 0.75 2.825
3.125 0.75 2.825
3.25 0.75 2.825
3.375 0.75 2.825
3.5 0.75 2.825
3.625 0.75 2.825
3.75 0.75 2.825
3.875 0.75 2.825
4 0.75 2.825
0 0.875 2.825
0.125 0.875 2.825
0.25 0.875 2.825
0.375 0.875 2.825
0.5 0.875 2.825
0.625 0.875 2.825
0.75 0.875 2.825
0.875 0.875 2.825
1 0.875 2.825
1.125 0.875 2.825
1.25 0.875 2.825
1.375 0.875 2.825
1.5 0.875 2.825
1.625 0.875 2.825
1.75 0.875 2.825
1.875 0.875 2.825
2 0.875 2.825
2.125 0.875 2.825
2.25 0.875 2.825
2.375 0.875 2.825
2.5 0.875 2.825
2.625 0.875 2.825
2.75 0.875 2.825
2.875 0.875 2.825
3 0.875 2.825
3.125 0.875 2.825
3.25 0.875 2.825
3.375 0.875 2.825
3.5 0.875 2.825
3.625 0.875 2.825
3.75 0.875 2.825
3.875 0.875 2.825
4 0.875 2.825
0 1 2.825
0.125 1 2.825
0.25 1 2.825
0.375 1 2.825
0.5 1 2.825
0.625 1 2.825
0.75 1 2.825
0.875 1 2.825
1 1 2.825
1.125 1 2.825
1.25 1 2.825
1.375 1 2.825
1.5 1 2.825
1.625 1 2.825
1.75 1 2.825
1.875 1 2.825
2 1 2.825
2.125 1 2.825
2.25 1 2.825
2.375 1 2.825
2.5 1 2.825
2.625 1 2.825
2.75 1 2.825
2.875 1 2.825
3 1 2.825
3.125 1 2.825
3.25 1 2.825
3.375 1 2.825
3.5 1 2.825
3.625 1 2.825
3.75 1 2.825
3.875 1 2.825
4 1 2.825
0 0 2.95
0.125 0 2.95
0.25 0 2.95
0.375 0 2.95
0.5 0 2.95
0.625 0 2.95
0.75 0 2.95
0.875 0 2.95
1 0 2.95
1.125 0 2.95
1.25 0 2.95
1.375 0 2.95
1.5 0 2.95
1.625 0 2.95
1.75 0 2.95
1.875 0 2.95
2 0 2.95
2.125 0 2.95
2.25 0 2.95
2.375 0 2.95
2.5 0 2.95
2.625 0 2.95
2.75 0 2.95
2.875 0 2.95
3 0 2.95
3.125 0 2.95
3.25 0 2.95
3.375 0 2.95
3.5 0 2.95
3.625 0 2.95
3.75 0 2.95
3.875 0 2.95
4 0 2.95
0 0.125 2.95
0.125 0.125 2.95
0.25 0.125 2.95
0.375 0.125 2.95
0.5 0.125 2.95
0.625 0.125 2.95
0.75 0.125 2.95
0.875 0.125 2.95
1 0.125 2.95
1.125 0.125 2.95
1.25 0.125 2.95
1.375 0.125 2.95
1.5 0.125 2.95
1.625 0.125 2.95
1.75 0.125 2.95
1.875 0.125 2.95
2 0.125 2.95
2.125 0.125 2.95
2.25 0.125 2.95
2.375 0.125 2.95
2.5 0.125 2.95
2.625 0.125 2.95
2.75 0.125 2.95
2.875 0.125 2.95
3 0.125 2.95
3.125 0.125 2.95
3.25 0.125 2.95
3.375 0.125 2.95
3.5 0.125 2.95
3.625 0.125 2.95
3.75 0.125 2.95
3.875 0.125 2.95
4 0.125 2.95
0 0.25 2.95
0.125 0.25 2.95
0.25 0.25 2.95
0.375 0.25 2.95
0.5 0.25 2.95
0.625 0.25 2.95
0.75 0.25 2.95
0.875 0.25 2.95
1 0.25 2.95
1.125 0.25 2.95
1.25 0.25 2.95
1.375 0.25 2.95
1.5 0.25 2.95
1.625 0.25 2.95
1.75 0.25 2.95
1.875 0.25 2.95
2 0.25 2.95
2.125 0.25 2.95
2.25 0.25 2.95
2.375 0.25 2.95
2.5 0.25 2.95
2.625 0.25 2.95
2.75 0.25 2.95
2.875 0.25 2.95
3 0.25 2.95
3.125 0.25 2.95
3.25 0.25 2.95
3.375 0.25 2.95
3.5 0.25 2.95
3.625 0.25 2.95
3.75 0.25 2.95
3.875 0.25 2.95
4 0.25 2.95
0 0.375 2.95
0.125 0.375 2.95
0.25 0.375 2.95
0.375 0.375 2.95
0.5 0.375 2.95
0.625 0.375 2.95
0.75 0.375 2.95
0.875 0.375 2.95
1 0.375 2.95
1.125 0.375 2.95
1.25 0.375 2.95
1.375 0.375 2.95
1.5 0.375 2.95
1.625 0.375 2.95
1.75 0.375 2.95
1.875 0.375 2.95
2 0.375 2.95
2.125 0.375 2.95
2.25 0.375 2.95
2.375 0.375 2.95
2.5 0.375 2.95
2.625 0.375 2.95
2.75 0.375 2.95
2.875 0.375 2.95
3 0.375 2.95
3.125 0.375 2.95
3.25 0.375 2.95
3.375 0.375 2.95
3.5 0.375 2.95
3.625 0.375 2.95
3.75 0.375 2.95
3.875 0.375 2.95
4 0.375 2.95
0 0.5 2.95
0.125 0.5 2.95
0.25 0.5 2.95
0.375 0.5 2.95
0.5 0.5 2.95
0.625 0.5 2.95
0.75 0.5 2.95
0.875 0.5 2.95
1 0.5 2.95
1.125 0.5 2.95
1.25 0.5 2.95
1.375 0.5 2.95
1.5 0.5 2.95
1.625 0.5 2.95
1.75 0.5 2.95
1.875 0.5 2.95
2 0.5 2.95
2.125 0.5 2.95
2.25 0.5 2.95
2.375 0.5 2.95
2.5 0.5 2.95
2.625 0.5 2.95
2.75 0.5 2.95
2.875 0.5 2.95
3 0.5 2.95
3.125 0.5 2.95
3.25 0.5 2.95
3.375 0.5 2.95
3.5 0.5 2.95
3.625 0.5 2.95
3.75 0.5 2.95
3.875 0.5 2.95
4 0.5 2.95
0 0.625 2.95
0.125 0.625 2.95
0.25 0.625 2.95
0.375 0.625 2.95
0.5 0.625 2.95
0.625 0.625 2.95
0.75 0.625 2.95
0.875 0.625 2.95
1 0.625 2.95
1.125 0.625 2.95
1.25 0.625 2.95
1.375 0.625 2.95
1.5 0.625 2.95
1.625 0.625 2.95
1.75 0.625 2.95
1.875 0.625 2.95
2 0.625 2.95
2.125 0.625 2.95
2.25 0.625 2.95
2.375 0.625 2.95
2.5 0.625 2.95
2.625 0.625 2.95
2.75 0.625 2.95
2.875 0.625 2.95
3 0.625 2.95
3.125 0.625 2.95
3.25 0.625 2.95
3.375 0.625 2.95
3.5 0.625 2.95
3.625 0.625 2.95
3.75 0.625 2.95
3.875 0.625 2.95
4 0.625 2.95
0 0.75 2.95
0.125 0.75 2.95
0.25 0.75 2.95
0.375 0.75 2.95
0.5 0.75 2.95
0.625 0.75 2.95
0.75 0.75 2.95
0.875 0.75 2.95
1 0.75 2.95
1.125 0.75 2.95
1.25 0.75 2.95
1.375 0.75 2.95
1.5 0.75 2.95
1.625 0.75 2.95
1.75 0.75 2.95
1.875 0.75 2.95
2 0.75 2.95
2.125 0.75 2.95
2.25 0.75 2.95
2.375 0.75 2.95
2.5 0.75 2.95
2.625 0.75 2.95
2.75 0.75 2.95
2.875 0.75 2.95
3 0.75 2.95
3.125 0.75 2.95
3.25 0.75 2.95
3.375 0.75 2.95
3.5 0.75 2.95
3.625 0.75 2.95
3.75 0.75 2.95
3.875 0.75 2.95
4 0.75 2.95
0 0.875 2.95
0.125 0.875 2.95
0.25 0.875 2.95
0.375 0.875 2.95
0.5 0.875 2.95
0.625 0.875 2.95
0.75 0.875 2.95
0.875 0.875 2.95
1 0.875 2.95
1.125 0.875 2.95
1.25 0.875 2.95
1.375 0.875 2.95
1.5 0.875 2.95
1.625 0.875 2.95
1.75 0.875 2.95
1.875 0.875 2.95
2 0.875 2.95
2.125 0.875 2.95
2.25 0.875 2.95
2.375 0.875 2.95
2.5 0.875 2.95
2.625 0.875 2.95
2.75 0.875 2.95
2.875 0.875 2.95
3 0.875 2.95
3.125 0.875 2.95
3.25 0.875 2.95
3.375 0.875 2.95
3.5 0.875 2.95
3.625 0.875 2.95
3.75 0.875 2.95
3.875 0.875 2.95
4 0.875 2.95
0 1 2.95
0.125 1 2.95
0.25 1 2.95
0.375 1 2.95
0.5 1 2.95
0.625 1 2.95
0.75 1 2.95
0.875 1 2.95
1 1 2.95
1.125 1 2.95
1.25 1 2.95
1.375 1 2.95
1.5 1 2.95
1.625 1 2.95
1.75 1 2.95
1.875 1 2.95
2 1 2.95
2.125 1 2.95
2.25 1 2.95
2.375 1 2.95
2.5 1 2.95
2.625 1 2.95
2.75 1 2.95
2.875 1 2.95
3 1 2.95
3.125 1 2.95
3.25 1 2.95
3.375 1 2.95
3.5 1 2.95
3.625 1 2.95
3.75 1 2.95
3.875 1 2.95
4 1 2.95
0 0 3.075
0.125 0 3.075
0.25 0 3.075
0.375 0 3.075
0.5 0 3.075
0.625 0 3.075
0.75 0 3.075
0.875 0 3.075
1 0 3.075
1.125 0 3.075
1.25 0 3.075
1.375 0 3.075
1.5 0 3.075
1.625 0 3.075
1.75 0 3.075
1.875 0 3.075
2 0 3.075
2.125 0 3.075
2.25 0 3.075
2.375 0 3.075
2.5 0 3.075
2.625 0 3.075
2.75 0 3.075
2.875 0 3.075
3 0 3.075
3.125 0 3.075
3.25 0 3.075
3.375 0 3.075
3.5 0 3.075
3.625 0 3.075
3.75 0 3.075
3.875 0 3.075
4 0 3.075
0 0.125 3.075
0.125 0.125 3.075
0.25 0.125 3.075
0.375 0.125 3.075
0.5 0.125 3.075
0.625 0.125 3.075
0.75 0.125 3.075
0.875 0.125 3.075
1 0.125 3.075
1.125 0.125 3.075
1.25 0.125 3.075
1.375 0.125 3.075
1.5 0.125 3.075
1.625 0.125 3.075
1.75 0.125 3.075
1.875 0.125 3.075
2 0.125 3.075
2.125 0.125 3.075
2.25 0.125 3.075
2.375 0.125 3.075
2.5 0.125 3.075
2.625 0.125 3.075
2.75 0.125 3.075
2.875 0.125 3.075
3 0.125 3.075
3.125 0.125 3.075
3.25 0.125 3.075
3.375 0.125 3.075
3.5 0.125 3.075
3.625 0.125 3.075
3.75 0.125 3.075
3.875 0.125 3.075
4 0.125 3.075
0 0.25 3.075
0.125 0.25 3.075
0.25 0.25 3.075
0.375 0.25 3.075
0.5 0.25 3.075
0.625 0.25 3.075
0.75 0.25 3.075
0.875 0.25 3.075
1 0.25 3.075
1.125 0.25 3.075
1.25 0.25 3.075
1.375 0.25 3.075
1.5 0.25 3.075
1.625 0.25 3.075
1.75 0.25 3.075
1.875 0.25 3.075
2 0.25 3.075
2.125 0.25 3.075
2.25 0.25 3.075
2.375 0.25 3.075
2.5 0.25 3.075
2.625 0.25 3.075
2.75 0.25 3.075
2.875 0.25 3.075
3 0.25 3.075
3.125 0.25 3.075
3.25 0.25 3.075
3.375 0.25 3.075
3.5 0.25 3.075
3.625 0.25 3.075
3.75 0.25 3.075
3.875 0.25 3.075
4 0.25 3.075
0 0.375 3.075
0.125 0.375 3.075
0.25 0.375 3.075
0.375 0.375 3.075
0.5 0.375 3.075
0.625 0.375 3.075
0.75 0.375 3.075
0.875 0.375 3.075
1 0.375 3.075
1.125 0.375 3.075
1.25 0.375 3.075
1.375 0.375 3.075
1.5 0.375 3.075
1.625 0.375 3.075
1.75 0.375 3.075
1.875 0.375 3.075
2 0.375 3.075
2.125 0.375 3.075
2.25 0.375 3.075
2.375 0.375 3.075
2.5 0.375 3.075
2.625 0.375 3.075
2.75 0.375 3.075
2.875 0.375 3.075
3 0.375 3.075
3.125 0.375 3.075
3.25 0.375 3.075
3.375 0.375 3.075
3.5 0.375 3.075
3.625 0.375 3.075
3.75 0.375 3.075
3.875 0.375 3.075
4 0.375 3.075
0 0.5 3.075
0.125 0.5 3.075
0.25 0.5 3.075
0.375 0.5 3.075
0.5 0.5 3.075
0.625 0.5 3.075
0.75 0.5 3.075
0.875 0.5 3.075
1 0.5 3.075
1.125 0.5 3.075
1.25 0.5 3.075
1.375 0.5 3.075
1.5 0.5 3.075
1.625 0.5 3.075
1.75 0.5 3.075
1.875 0.5 3.075
2 0.5 3.075
2.125 0.5 3.075
2.25 0.5 3.075
2.375 0.5 3.075
2.5 0.5 3.075
2.625 0.5 3.075
2.75 0.5 3.075
2.875 0.5 3.075
3 0.5 3.075
3.125 0.5 3.075
3.25 0.5 3.075
3.375 0.5 3.075
3.5 0.5 3.075
3.625 0.5 3.075
3.75 0.5 3.075
3.875 0.5 3.075
4 0.5 3.075
0 0.625 3.075
0.125 0.625 3.075
0.25 0.625 3.075
0.375 0.625 3.075
0.5 0.625 3.075
0.625 0.625 3.075
0.75 0.625 3.075
0.875 0.625 3.075
1 0.625 3.075
1.125 0.625 3.075
1.25 0.625 3.075
1.375 0.625 3.075
1.5 0.625 3.075
1.625 0.625 3.075
1.75 0.625 3.075
1.875 0.625 3.075
2 0.625 3.075
2.125 0.625 3.075
2.25 0.625 3.075
2.375 0.625 3.075
2.5 0.625 3.075
2.625 0.625 3.075
2.75 0.625 3.075
2.875 0.625 3.075
3 0.625 3.075
3.125 0.625 3.075
3.25 0.625 3.075
3.375 0.625 3.075
3.5 0.625 3.075
3.625 0.625 3.075
3.75 0.625 3.075
3.875 0.625 3.075
4 0.625 3.075
0 0.75 3.075
0.125 0.75 3.075
0.25 0.75 3.075
0.375 0.75 3.075
0.5 0.75 3.075
0.625 0.75 3.075
0.75 0.75 3.075
0.875 0.75 3.075
1 0.75 3.075
1.125 0.75 3.075
1.25 0.75 3.075
1.375 0.75 3.075
1.5 0.75 3.075
1.625 0.75 3.075
1.75 0.75 3.075
1.875 0.75 3.075
2 0.75 3.075
2.125 0.75 3.075
2.25 0.75 3.075
2.375 0.75 3.075
2.5 0.75 3.075
2.625 0.75 3.075
2.75 0.75 3.075
2.875 0.75 3.075
3 0.75 3.075
3.125 0.75 3.075
3.25 0.75 3.075
3.375 0.75 3.075
3.5 0.75 3.075
3.625 0.75 3.075
3.75 0.75 3.075
3.875 0.75 3.075
4 0.75 3.075
0 0.875 3.075
0.125 0.875 3.075
0.25 0.875 3.075
0.375 0.875 3.075
0.5 0.875 3.075
0.625 0.875 3.075
0.75 0.875 3.075
0.875 0.875 3.075
1 0.875 3.075
1.125 0.875 3.075
1.25 0.875 3.075
1.375 0.875 3.075
1.5 0.875 3.075
1.625 0.875 3.075
1.75 0.875 3.075
1.875 0.875 3.075
2 0.875 3.075
2.125 0.875 3.075
2.25 0.875 3.075
2.375 0.875 3.075
2.5 0.875 3.075
2.625 0.875 3.075
2.75 0.875 3.075
2.875 0.875 3.075
3 0.875 3.075
3.125 0.875 3.075
3.25 0.875 3.075
3.375 0.875 3.075
3.5 0.875 3.075
3.625 0.875 3.075
3.75 0.875 3.075
3.875 0.875 3.075
4 0.875 3.075
0 1 3.075
0.125 1 3.075
0.25 1 3.075
0.375 1 3.075
0.5 1 3.075
0.625 1 3.075
0.75 1 3.075
0.875 1 3.075
1 1 3.075
1.125 1 3.075
1.25 1 3.075
1.375 1 3.075
1.5 1 3.075
1.625 1 3.075
1.75 1 3.075
1.875 1 3.075
2 1 3.075
2.125 1 3.075
2.25 1 3.075
2.375 1 3.075
2.5 1 3.075
2.625 1 3.075
2.75 1 3.075
2.875 1 3.075
3 1 3.075
3.125 1 3.075
3.25 1 3.075
3.375 1 3.075
3.5 1 3.075
3.625 1 3.075
3.75 1 3.075
3.875 1 3.075
4 1 3.075
0 0 3.2
0.125 0 3.2
0.25 0 3.2
0.375 0 3.2
0.5 0 3.2
0.625 0 3.2
0.75 0 3.2
0.875 0 3.2
1 0 3.2
1.125 0 3.2
1.25 0 3.2
1.375 0 3.2
1.5 0 3.2
1.625 0 3.2
1.75 0 3.2
1.875 0 3.2
2 0 3.2
2.125 0 3.2
2.25 0 3.2
2.375 0 3.2
2.5 0 3.2
2.625 0 3.2
2.75 0 3.2
2.875 0 3.2
3 0 3.2
3.125 0 3.2
3.25 0 3.2
3.375 0 3.2
3.5 0 3.2
3.625 0 3.2
3.75 0 3.2
3.875 0 3.2
4 0 3.2
0 0.125 3.2
0.125 0.125 3.2
0.25 0.125 3.2
0.375 0.125 3.2
0.5 0.125 3.2
0.625 0.125 3.2
0.75 0.125 3.2
0.875 0.125 3.2
1 0.125 3.2
1.125 0.125 3.2
1.25 0.125 3.2
1.375 0.125 3.2
1.5 0.125 3.2
1.625 0.125 3.2
1.75 0.125 3.2
1.875 0.125 3.2
2 0.125 3.2
2.125 0.125 3.2
2.25 0.125 3.2
2.375 0.125 3.2
2.5 0.125 3.2
2.625 0.125 3.2
2.75 0.125 3.2
2.875 0.125 3.2
3 0.125 3.2
3.125 0.125 3.2
3.25 0.125 3.2
3.375 0.125 3.2
3.5 0.125 3.2
3.625 0.125 3.2
3.75 0.125 3.2
3.875 0.125 3.2
4 0.125 3.2
0 0.25 3.2
0.125 0.25 3.2
0.25 0.25 3.2
0.375 0.25 3.2
0.5 0.25 3.2
0.625 0.25 3.2
0.75 0.25 3.2
0.875 0.25 3.2
1 0.25 3.2
1.125 0.25 3.2
1.25 0.25 3.2
1.375 0.25 3.2
1.5 0.25 3.2
1.625 0.25 3.2
1.75 0.25 3.2
1.875 0.25 3.2
2 0.25 3.2
2.125 0.25 3.2
2.25 0.25 3.2
2.375 0.25 3.2
2.5 0.25 3.2
2.625 0.25 3.2
2.75 0.25 3.2
2.875 0.25 3.2
3 0.25 3.2
3.125 0.25 3.2
3.25 0.25 3.2
3.375 0.25 3.2
3.5 0.25 3.2
3.625 0.25 3.2
3.75 0.25 3.2
3.875 0.25 3.2
4 0.25 3.2
0 0.375 3.2
0.125 0.375 3.2
0.25 0.375 3.2
0.375 0.375 3.2
0.5 0.375 3.2
0.625 0.375 3.2
0.75 0.375 3.2
0.875 0.375 3.2
1 0.375 3.2
1.125 0.375 3.2
1.25 0.375 3.2
1.375 0.375 3.2
1.5 0.375 3.2
1.625 0.375 3.2
1.75 0.375 3.2
1.875 0.375 3.2
2 0.375 3.2
2.125 0.375 3.2
2.25 0.375 3.2
2.375 0.375 3.2
2.5 0.375 3.2
2.625 0.375 3.2
2.75 0.375 3.2
2.875 0.375 3.2
3 0.375 3.2
3.125 0.375 3.2
3.25 0.375 3.2
3.375 0.375 3.2
3.5 0.375 3.2
3.625 0.375 3.2
3.75 0.375 3.2
3.875 0.375 3.2
4 0.375 3.2
0 0.5 3.2
0.125 0.5 3.2
0.25 0.5 3.2
0.375 0.5 3.2
0.5 0.5 3.2
0.625 0.5 3.2
0.75 0.5 3.2
0.875 0.5 3.2
1 0.5 3.2
1.125 0.5 3.2
1.25 0.5 3.2
1.375 0.5 3.2
1.5 0.5 3.2
1.625 0.5 3.2
1.75 0.5 3.2
1.875 0.5 3.2
2 0.5 3.2
2.125 0.5 3.2
2.25 0.5 3.2
2.375 0.5 3.2
2.5 0.5 3.2
2.625 0.5 3.2
2.75 0.5 3.2
2.875 0.5 3.2
3 0.5 3.2
3.125 0.5 3.2
3.25 0.5 3.2
3.375 0.5 3.2
3.5 0.5 3.2
3.625 0.5 3.2
3.75 0.5 3.2
3.875 0.5 3.2
4 0.5 3.2
0 0.625 3.2
0.125 0.625 3.2
0.25 0.625 3.2
0.375 0.625 3.2
0.5 0.625 3.2
0.625 0.625 3.2
0.75 0.625 3.2
0.875 0.625 3.2
1 0.625 3.2
1.125 0.625 3.2
1.25 0.625 3.2
1.375 0.625 3.2
1.5 0.625 3.2
1.625 0.625 3.2
1.75 0.625 3.2
1.875 0.625 3.2
2 0.625 3.2
2.125 0.625 3.2
2.25 0.625 3.2
2.375 0.625 3.2
2.5 0.625 3.2
2.625 0.625 3.2
2.75 0.625 3.2
2.875 0.625 3.2
3 0.625 3.2
3.125 0.625 3.2
3.25 0.625 3.2
3.375 0.625 3.2
3.5 0.625 3.2
3.625 0.625 3.2
3.75 0.625 3.2
3.875 0.625 3.2
4 0.625 3.2
0 0.75 3.2
0.125 0.75 3.2
0.25 0.75 3.2
0.375 0.75 3.2
0.5 0.75 3.2
0.625 0.75 3.2
0.75 0.75 3.2
0.875 0.75 3.2
1 0.75 3.2
1.125 0.75 3.2
1.25 0.75 3.2
1.375 0.75 3.2
1.5 0.75 3.2
1.625 0.75 3.2
1.75 0.75 3.2
1.875 0.75 3.2
2 0.75 3.2
2.125 0.75 3.2
2.25 0.75 3.2
2.375 0.75 3.2
2.5 0.75 3.2
2.625 0.75 3.2
2.75 0.75 3.2
2.875 0.75 3.2
3 0.75 3.2
3.125 0.75 3.2
3.25 0.75 3.2
3.375 0.75 3.2
3.5 0.75 3.2
3.625 0.75 3.2
3.75 0.75 3.2
3.875 0.75 3.2
4 0.75 3.2
0 0.875 3.2
0.125 0.875 3.2
0.25 0.875 3.2
0.375 0.875 3.2
0.5 0.875 3.2
0.625 0.875 3.2
0.75 0.875 3.2
0.875 0.875 3.2
1 0.875 3.2
1.125 0.875 3.2
1.25 0.875 3.2
1.375 0.875 3.2
1.5 0.875 3.2
1.625 0.875 3.2
1.75 0.875 3.2
1.875 0.875 3.2
2 0.875 3.2
2.125 0.875 3.2
2.25 0.875 3.2
2.375 0.875 3.2
2.5 0.875 3.2
2.625 0.875 3.2
2.75 0.875 3.2
2.875 0.875 3.2
3 0.875 3.2
3.125 0.875 3.2
3.25 0.875 3.2
3.375 0.875 3.2
3.5 0.875 3.2
3.625 0.875 3.2
3.75 0.875 3.2
3.875 0.875 3.2
4 0.875 3.2
0 1 3.2
0.125 1 3.2
0.25 1 3.2
0.375 1 3.2
0.5 1 3.2
0.625 1 3.2
0.75 1 3.2
0.875 1 3.2
1 1 3.2
1.125 1 3.2
1.25 1 3.2
1.375 1 3.2
1.5 1 3.2
1.625 1 3.2
1.75 1 3.2
1.875 1 3.2
2 1 3.2
2.125 1 3.2
2.25 1 3.2
2.375 1 3.2
2.5 1 3.2
2.625 1 3.2
2.75 1 3.2
2.875 1 3.2
3 1 3.2
3.125 1 3.2
3.25 1 3.2
3.375 1 3.2
3.5 1 3.2
3.625 1 3.2
3.75 1 3.2
3.875 1 3.2
4 1 3.2

CELLS 12289 49152
OFFSETS vtktypeint64
0 4 8 12 16 20 24 28 32 36 40 44 48 52 56 60 64 68 72 76 80 84 88 92 96 100 104 108 112 116 120 124 128 132 136 140 144 148 152 156 160 164 168 172 176 180 184 188 192 196 200 204 208 212 216 220 224 228 232 236 240 244 248 252 256 260 264 268 272 276 280 284 288 292 296 300 304 308 312 316 320 324 328 332 336 340 344 348 352 356 360 364 368 372 376 380 384 388 392 396 400 404 408 412 416 420 424 428 432 436 440 444 448 452 456 460 464 468 472 476 480 484 488 492 496 500 504 508 512 516 520 524 528 532 536 540 544 548 552 556 560 564 568 572 576 580 584 588 592 596 600 604 608 612 616 620 624 628 632 636 640 644 648 652 656 660 664 668 672 676 680 684 688 692 696 700 704 708 712 716 720 724 728 732 736 740 744 748 752 756 760 764 768 772 776 780 784 788 792 796 800 804 808 812 816 820 824 828 832 836 840 844 848 852 856 860 864 868 872 876 880 884 888 892 896 900 904 908 912 916 920 924 928 932 936 940 944 948 952 956 960 964 968 972 976 980 984 988 992 996 1000 1004 1008 1012 1016 1020 1024 1028 1032 1036 1040 1044 1048 1052 1056 1060 1064 1068 1072 1076 1080 1084 1088 1092 1096 1100 1104 1108 1112 1116 1120 1124 1128 1132 1136 1140 1144 1148 1152 1156 1160 1164 1168 1172 1176 1180 1184 1188 1192 1196 1200 1204 1208 1212 1216 1220 1224 1228 1232 1236 1240 1244 1248 1252 1256 1260 1264 1268 1272 1276 1280 1284 1288 1292 1296 1300 1304 1308 1312 1316 1320 1324 1328 1332 1336 1340 1344 1348 1352 1356 1360 1364 1368 1372 1376 1380 1384 1388 1392 1396 1400 1404 1408 1412 1416 1420 1424 1428 1432 1436 1440 1444 1448 1452 1456 1460 1464 1468 1472 1476 1480 1484 1488 1492 1496 1500 1504 1508 1512 1516 1520 1524 1528 1532 1536 1540 1544 1548 1552 1556 1560 1564 1568 1572 1576 1580 1584 1588 1592 1596 1600 1604 1608 1612 1616 1620 1624 1628 1632 1636 1640 1644 1648 1652 1656 1660 1664 1668 1672 1676 1680 1684 1688 1692 1696 1700 1704 1708 1712 1716 1720 1724 1728 1732 1736 1740 1744 1748 1752 1756 1760 1764 1768 1772 1776 1780 1784 1788 1792 1796 1800 1804 1808 1812 1816 1820 1824 1828 1832 1836 1840 1844 1848 1852 1856 1860 1864 1868 1872 1876 1880 1884 1888 1892 1896 1900 1904 1908 1912 1916 1920 1924 1928 1932 1936 1940 1944 1948 1952 1956 1960 1964 1968 1972 1976 1980 1984 1988 1992 1996 2000 2004 2008 2012 2016 2020 2024 2028 2032 2036 2040 2044 2048 2052 2056 2060 2064 2068 2072 2076 2080 2084 2088 2092 2096 2100 2104 2108 2112 2116 2120 2124 2128 2132 2136 2140 2144 2148 2152 2156 2160 2164 2168 2172 2176 2180 2184 2188 2192 2196 2200 2204 2208 2212 2216 2220 2224 2228 2232 2236 2240 2244 2248 2252 2256 2260 2264 2268 2272 2276 2280 2284 2288 2292 2296 2300 2304 2308 2312 2316 2320 2324 2328 2332 2336 2340 2344 2348 2352 2356 2360 2364 2368 2372 2376 2380 2384 2388 2392 2396 2400 2404 2408 2412 2416 2420 2424 2428 2432 2436 2440 2444 2448 2452 2456 2460 2464 2468 2472 2476 2480 2484 2488 2492 2496 2500 2504 2508 2512 2516 2520 2524 2528 2532 2536 2540 2544 2548 2552 2556 2560 2564 2568 2572 2576 2580 2584 2588 2592 2596 2600 2604 2608 2612 2616 2620 2624 2628 2632 2636 2640 2644 2648 2652 2656 2660 2664 2668 2672 2676 2680 2684 2688 2692 2696 2700 2704 2708 2712 2716 2720 2724 2728 2732 2736 2740 2744 2748 2752 2756 2760 2764 2768 2772 2776 2780 2784 2788 2792 2796 2800 2804 2808 2812 2816 2820 2824 2828 2832 2836 2840 2844 2848 2852 2856 2860 2864 2868 2872 2876 2880 2884 2888 2892 2896 2900 2904 2908 2912 2916 2920 2924 2928 2932 2936 2940 2944 2948 2952 2956 2960 2964 2968 2972 2976 2980 2984 2988 2992 2996 3000 3004 3008 3012 3016 3020 3024 3028 3032 3036 3040 3044 3048 3052 3056 3060 3064 3068 3072 3076 3080 3084 3088 3092 3096 3100 3104 3108 3112 3116 3120 3124 3128 3132 3136 3140 3144 3148 3152 3156 3160 3164 3168 3172 3176 3180 3184 3188 3192 3196 3200 3204 3208 3212 3216 3220 3224 3228 3232 3236 3240 3244 3248 3252 3256 3260 3264 3268 3272 3276 3280 3284 3288 3292 3296 3300 3304 3308 3312 3316 3320 3324 3328 3332 3336 3340 3344 3348 3352 3356 3360 3364 3368 3372 3376 3380 3384 3388 3392 3396 3400 3404 3408 3412 3416 3420 3424 3428 3432 3436 3440 3444 3448 3452 3456 3460 3464 3468 3472 3476 3480 3484 3488 3492 3496 3500 3504 3508 3512 3516 3520 3524 3528 3532 3536 3540 3544 3548 3552 3556 3560 3564 3568 3572 3576 3580 3584 3588 3592 3596 3600 3604 3608 3612 3616 3620 3624 3628 3632 3636 3640 3644 3648 3652 3656 3660 3664 3668 3672 3676 3680 3684 3688 3692 3696 3700 3704 3708 3712 3716 3720 3724 3728 3732 3736 3740 3744 3748 3752 3756 3760 3764 3768 3772 3776 3780 3784 3788 3792 3796 3800 3804 3808 3812 3816 3820 3824 3828 3832 3836 3840 3844 3848 3852 3856 3860 3864 3868 3872 3876 3880 3884 3888 3892 3896 3900 3904 3908 3912 3916 3920 3924 3928 3932 3936 3940 3944 3948 3952 3956 3960 3964 3968 3972 3976 3980 3984 3988 3992 3996 4000 4004 4008 4012 4016 4020 4024 4028 4032 4036 4040 4044 4048 4052 4056 4060 4064 4068 4072 4076 4080 4084 4088 4092 4096 4100 4104 4108 4112 4116 4120 4124 4128 4132 4136 4140 4144 4148 4152 4156 4160 4164 4168 4172 4176 4180 4184 4188 4192 4196 4200 4204 4208 4212 4216 4220 4224 4228 4232 4236 4240 4244 4248 4252 4256 4260 4264 4268 4272 4276 4280 4284 4288 4292 4296 4300 4304 4308 4312 4316 4320 4324 4328 4332 4336 4340 4344 4348 4352 4356 4360 4364 4368 4372 4376 4380 4384 4388 4392 4396 4400 4404 4408 4412 4416 4420 4424 4428 4432 4436 4440 4444 4448 4452 4456 4460 4464 4468 4472 4476 4480 4484 4488 4492 4496 4500 4504 4508 4512 4516 4520 4524 4528 4532 4536 4540 4544 4548 4552 4556 4560 4564 4568 4572 4576 4580 4584 4588 4592 4596 4600 4604 4608 4612 4616 4620 4624 4628 4632 4636 4640 4644 4648 4652 4656 4660 4664 4668 4672 4676 4680 4684 4688 4692 4696 4700 4704 4708 4712 4716 4720 4724 4728 4732 4736 4740 4744 4748 4752 4756 4760 4764 4768 4772 4776 4780 4784 4788 4792 4796 4800 4804 4808 4812 4816 4820 4824 4828 4832 4836 4840 4844 4848 4852 4856 4860 4864 4868 4872 4876 4880 4884 4888 4892 4896 4900 4904 4908 4912 4916 4920 4924 4928 4932 4936 4940 4944 4948 4952 4956 4960 4964 4968 4972 4976 4980 4984 4988 4992 4996 5000 5004 5008 5012 5016 5020 5024 5028 5032 5036 5040 5044 5048 5052 5056 5060 5064 5068 5072 5076 5080 5084 5088 5092 5096 5100 5104 5108 5112 5116 5120 5124 5128 5132 5136 5140 5144 5148 5152 5156 5160 5164 5168 5172 5176 5180 5184 5188 5192 5196 5200 5204 5208 5212 5216 5220 5224 5228 5232 5236 5240 5244 5248 5252 5256 5260 5264 5268 5272 5276 5280 5284 5288 5292 5296 5300 5304 5308 5312 5316 5320 5324 5328 5332 5336 5340 5344 5348 5352 5356 5360 5364 5368 5372 5376 5380 5384 5388 5392 5396 5400 5404 5408 5412 5416 5420 5424 5428 5432 5436 5440 5444 5448 5452 5456 5460 5464 5468 5472 5476 5480 5484 5488 5492 5496 5500 5504 5508 5512 5516 5520 5524 5528 5532 5536 5540 5544 5548 5552 5556 5560 5564 5568 5572 5576 5580 5584 5588 5592 5596 5600 5604 5608 5612 5616 5620 5624 5628 5632 5636 5640 5644 5648 5652 5656 5660 5664 5668 5672 5676 5680 5684 5688 5692 5696 5700 5704 5708 5712 5716 5720 5724 5728 5732 5736 5740 5744 5748 5752 5756 5760 5764 5768 5772 5776 5780 5784 5788 5792 5796 5800 5804 5808 5812 5816 5820 5824 5828 5832 5836 5840 5844 5848 5852 5856 5860 5864 5868 5872 5876 5880 5884 5888 5892 5896 5900 5904 5908 5912 5916 5920 5924 5928 5932 5936 5940 5944 5948 5952 5956 5960 5964 5968 5972 5976 5980 5984 5988 5992 5996 6000 6004 6008 6012 6016 6020 6024 6028 6032 6036 6040 6044 6048 6052 6056 6060 6064 6068 6072 6076 6080 6084 6088 6092 6096 6100 6104 6108 6112 6116 6120 6124 6128 6132 6136 6140 6144 6148 6152 6156 6160 6164 6168 6172 6176 6180 6184 6188 6192 6196 6200 6204 6208 6212 6216 6220 6224 6228 6232 6236 6240 6244 6248 6252 6256 6260 6264 6268 6272 6276 6280 6284 6288 6292 6296 6300 6304 6308 6312 6316 6320 6324 6328 6332 6336 6340 6344 6348 6352 6356 6360 6364 6368 6372 6376 6380 6384 6388 6392 6396 6400 6404 6408 6412 6416 6420 6424 6428 6432 6436 6440 6444 6448 6452 6456 6460 6464 6468 6472 6476 6480 6484 6488 6492 6496 6500 6504 6508 6512 6516 6520 6524 6528 6532 6536 6540 6544 6548 6552 6556 6560 6564 6568 6572 6576 6580 6584 6588 6592 6596 6600 6604 6608 6612 6616 6620 6624 6628 6632 6636 6640 6644 6648 6652 6656 6660 6664 6668 6672 6676 6680 6684 6688 6692 6696 6700 6704 6708 6712 6716 6720 6724 6728 6732 6736 6740 6744 6748 6752 6756 6760 6764 6768 6772 6776 6780 6784 6788 6792 6796 6800 6804 6808 6812 6816 6820 6824 6828 6832 6836 6840 6844 6848 6852 6856 6860 6864 6868 6872 6876 6880 6884 6888 6892 6896 6900 6904 6908 6912 6916 6920 6924 6928 6932 6936 6940 6944 6948 6952 6956 6960 6964 6968 6972 6976 6980 6984 6988 6992 6996 7000 7004 7008 7012 7016 7020 7024 7028 7032 7036 7040 7044 7048 7052 7056 7060 7064 7068 7072 7076 7080 7084 7088 7092 7096 7100 7104 7108 7112 7116 7120 7124 7128 7132 7136 7140 7144 7148 7152 7156 7160 7164 7168 7172 7176 7180 7184 7188 7192 7196 7200 7204 7208 7212 7216 7220 7224 7228 7232 7236 7240 7244 7248 7252 7256 7260 7264 7268 7272 7276 7280 7284 7288 7292 7296 7300 7304 7308 7312 7316 7320 7324 7328 7332 7336 7340 7344 7348 7352 7356 7360 7364 7368 7372 7376 7380 7384 7388 7392 7396 7400 7404 7408 7412 7416 7420 7424 7428 7432 7436 7440 7444 7448 7452 7456 7460 7464 7468 7472 7476 7480 7484 7488 7492 7496 7500 7504 7508 7512 7516 7520 7524 7528 7532 7536 7540 7544 7548 7552 7556 7560 7564 7568 7572 7576 7580 7584 7588 7592 7596 7600 7604 7608 7612 7616 7620 7624 7628 7632 7636 7640 7644 7648 7652 7656 7660 7664 7668 7672 7676 7680 7684 7688 7692 7696 7700 7704 7708 7712 7716 7720 7724 7728 7732 7736 7740 7744 7748 7752 7756 7760 7764 7768 7772 7776 7780 7784 7788 7792 7796 7800 7804 7808 7812 7816 7820 7824 7828 7832 7836 7840 7844 7848 7852 7856 7860 7864 7868 7872 7876 7880 7884 7888 7892 7896 7900 7904 7908 7912 7916 7920 7924 7928 7932 7936 7940 7944 7948 7952 7956 7960 7964 7968 7972 7976 7980 7984 7988 7992 7996 8000 8004 8008 8012 8016 8020 8024 8028 8032 8036 8040 8044 8048 8052 8056 8060 8064 8068 8072 8076 8080 8084 8088 8092 8096 8100 8104 8108 8112 8116 8120 8124 8128 8132 8136 8140 8144 8148 8152 8156 8160 8164 8168 8172 8176 8180 8184 8188 8192 8196 8200 8204 8208 8212 8216 8220 8224 8228 8232 8236 8240 8244 8248 8252 8256 8260 8264 8268 8272 8276 8280 8284 8288 8292 8296 8300 8304 8308 8312 8316 8320 8324 8328 8332 8336 8340 8344 8348 8352 8356 8360 8364 8368 8372 8376 8380 8384 8388 8392 8396 8400 8404 8408 8412 8416 8420 8424 8428 8432 8436 8440 8444 8448 8452 8456 8460 8464 8468 8472 8476 8480 8484 8488 8492 8496 8500 8504 8508 8512 8516 8520 8524 8528 8532 8536 8540 8544 8548 8552 8556 8560 8564 8568 8572 8576 8580 8584 8588 8592 8596 8600 8604 8608 8612 8616 8620 8624 8628 8632 8636 8640 8644 8648 8652 8656 8660 8664 8668 8672 8676 8680 8684 8688 8692 8696 8700 8704 8708 8712 8716 8720 8724 8728 8732 8736 8740 8744 8748 8752 8756 8760 8764 8768 8772 8776 8780 8784 8788 8792 8796 8800 8804 8808 8812 8816 8820 8824 8828 8832 8836 8840 8844 8848 8852 8856 8860 8864 8868 8872 8876 8880 8884 8888 8892 8896 8900 8904 8908 8912 8916 8920 8924 8928 8932 8936 8940 8944 8948 8952 8956 8960 8964 8968 8972 8976 8980 8984 8988 8992 8996 9000 9004 9008 9012 9016 9020 9024 9028 9032 9036 9040 9044 9048 9052 9056 9060 9064 9068 9072 9076 9080 9084 9088 9092 9096 9100 9104 9108 9112 9116 9120 9124 9128 9132 9136 9140 9144 9148 9152 9156 9160 9164 9168 9172 9176 9180 9184 9188 9192 9196 9200 9204 9208 9212 9216 9220 9224 9228 9232 9236 9240 9244 9248 9252 9256 9260 9264 9268 9272 9276 9280 9284 9288 9292 9296 9300 9304 9308 9312 9316 9320 9324 9328 9332 9336 9340 9344 9348 9352 9356 9360 9364 9368 9372 9376 9380 9384 9388 9392 9396 9400 9404 9408 9412 9416 9420 9424 9428 9432 9436 9440 9444 9448 9452 9456 9460 9464 9468 9472 9476 9480 9484 9488 9492 9496 9500 9504 9508 9512 9516 9520 9524 9528 9532 9536 9540 9544 9548 9552 9556 9560 9564 9568 9572 9576 9580 9584 9588 9592 9596 9600 9604 9608 9612 9616 9620 9624 9628 9632 9636 9640 9644 9648 9652 9656 9660 9664 9668 9672 9676 9680 9684 9688 9692 9696 9700 9704 9708 9712 9716 9720 9724 9728 9732 9736 9740 9744 9748 9752 9756 9760 9764 9768 9772 9776 9780 9784 9788 9792 9796 9800 9804 9808 9812 9816 9820 9824 9828 9832 9836 9840 9844 9848 9852 9856 9860 9864 9868 9872 9876 9880 9884 9888 9892 9896 9900 9904 9908 9912 9916 9920 9924 9928 9932 9936 9940 9944 9948 9952 9956 9960 9964 9968 9972 9976 9980 9984 9988 9992 9996 10000 10004 10008 10012 10016 10020 10024 10028 10032 10036 10040 10044 10048 10052 10056 10060 10064 10068 10072 10076 10080 10084 10088 10092 10096 10100 10104 10108 10112 10116 10120 10124 10128 10132 10136 10140 10144 10148 10152 10156 10160 10164 10168 10172 10176 10180 10184 10188 10192 10196 10200 10204 10208 10212 10216 10220 10224 10228 10232 10236 10240 10244 10248 10252 10256 10260 10264 10268 10272 10276 10280 10284 10288 10292 10296 10300 10304 10308 10312 10316 10320 10324 10328 10332 10336 10340 10344 10348 10352 10356 10360 10364 10368 10372 10376 10380 10384 10388 10392 10396 10400 10404 10408 10412 10416 10420 10424 10428 10432 10436 10440 10444 10448 10452 10456 10460 10464 10468 10472 10476 10480 10484 10488 10492 10496 10500 10504 10508 10512 10516 10520 10524 10528 10532 10536 10540 10544 10548 10552 10556 10560 10564 10568 10572 10576 10580 10584 10588 10592 10596 10600 10604 10608 10612 10616 10620 10624 10628 10632 10636 10640 10644 10648 10652 10656 10660 10664 10668 10672 10676 10680 10684 10688 10692 10696 10700 10704 10708 10712 10716 10720 10724 10728 10732 10736 10740 10744 10748 10752 10756 10760 10764 10768 10772 10776 10780 10784 10788 10792 10796 10800 10804 10808 10812 10816 10820 10824 10828 10832 10836 10840 10844 10848 10852 10856 10860 10864 10868 10872 10876 10880 10884 10888 10892 10896 10900 10904 10908 10912 10916 10920 10924 10928 10932 10936 10940 10944 10948 10952 10956 10960 10964 10968 10972 10976 10980 10984 10988 10992 10996 11000 11004 11008 11012 11016 11020 11024 11028 11032 11036 11040 11044 11048 11052 11056 11060 11064 11068 11072 11076 11080 11084 11088 11092 11096 11100 11104 11108 11112 11116 11120 11124 11128 11132 11136 11140 11144 11148 11152 11156 11160 11164 11168 11172 11176 11180 11184 11188 11192 11196 11200 11204 11208 11212 11216 11220 11224 11228 11232 11236 11240 11244 11248 11252 11256 11260 11264 11268 11272 11276 11280 11284 11288 11292 11296 11300 11304 11308 11312 11316 11320 11324 11328 11332 11336 11340 11344 11348 11352 11356 11360 11364 11368 11372 11376 11380 11384 11388 11392 11396 11400 11404 11408 11412 11416 11420 11424 11428 11432 11436 11440 11444 11448 11452 11456 11460 11464 11468 11472 11476 11480 11484 11488 11492 11496 11500 11504 11508 11512 11516 11520 11524 11528 11532 11536 11540 11544 11548 11552 11556 11560 11564 11568 11572 11576 11580 11584 11588 11592 11596 11600 11604 11608 11612 11616 11620 11624 11628 11632 11636 11640 11644 11648 11652 11656 11660 11664 11668 11672 11676 11680 11684 11688 11692 11696 11700 11704 11708 11712 11716 11720 11724 11728 11732 11736 11740 11744 11748 11752 11756 11760 11764 11768 11772 11776 11780 11784 11788 11792 11796 11800 11804 11808 11812 11816 11820 11824 11828 11832 11836 11840 11844 11848 11852 11856 11860 11864 11868 11872 11876 11880 11884 11888 11892 11896 11900 11904 11908 11912 11916 11920 11924 11928 11932 11936 11940 11944 11948 11952 11956 11960 11964 11968 11972 11976 11980 11984 11988 11992 11996 12000 12004 12008 12012 12016 12020 12024 12028 12032 12036 12040 12044 12048 12052 12056 12060 12064 12068 12072 12076 12080 12084 12088 12092 12096 12100 12104 12108 12112 12116 12120 12124 12128 12132 12136 12140 12144 12148 12152 12156 12160 12164 12168 12172 12176 12180 12184 12188 12192 12196 12200 12204 12208 12212 12216 12220 12224 12228 12232 12236 12240 12244 12248 12252 12256 12260 12264 12268 12272 12276 12280 12284 12288 12292 12296 12300 12304 12308 12312 12316 12320 12324 12328 12332 12336 12340 12344 12348 12352 12356 12360 12364 12368 12372 12376 12380 12384 12388 12392 12396 12400 12404 12408 12412 12416 12420 12424 12428 12432 12436 12440 12444 12448 12452 12456 12460 12464 12468 12472 12476 12480 12484 12488 12492 12496 12500 12504 12508 12512 12516 12520 12524 12528 12532 12536 12540 12544 12548 12552 12556 12560 12564 12568 12572 12576 12580 12584 12588 12592 12596 12600 12604 12608 12612 12616 12620 12624 12628 12632 12636 12640 12644 12648 12652 12656 12660 12664 12668 12672 12676 12680 12684 12688 12692 12696 12700 12704 12708 12712 12716 12720 12724 12728 12732 12736 12740 12744 12748 12752 12756 12760 12764 12768 12772 12776 12780 12784 12788 12792 12796 12800 12804 12808 12812 12816 12820 12824 12828 12832 12836 12840 12844 12848 12852 12856 12860 12864 12868 12872 12876 12880 12884 12888 12892 12896 12900 12904 12908 12912 12916 12920 12924 12928 12932 12936 12940 12944 12948 12952 12956 12960 12964 12968 12972 12976 12980 12984 12988 12992 12996 13000 13004 13008 13012 13016 13020 13024 13028 13032 13036 13040 13044 13048 13052 13056 13060 13064 13068 13072 13076 13080 13084 13088 13092 13096 13100 13104 13108 13112 13116 13120 13124 13128 13132 13136 13140 13144 13148 13152 13156 13160 13164 13168 13172 13176 13180 13184 13188 13192 13196 13200 13204 13208 13212 13216 13220 13224 13228 13232 13236 13240 13244 13248 13252 13256 13260 13264 13268 13272 13276 13280 13284 13288 13292 13296 13300 13304 13308 13312 13316 13320 13324 13328 13332 13336 13340 13344 13348 13352 13356 13360 13364 13368 13372 13376 13380 13384 13388 13392 13396 13400 13404 13408 13412 13416 13420 13424 13428 13432 13436 13440 13444 13448 13452 13456 13460 13464 13468 13472 13476 13480 13484 13488 13492 13496 13500 13504 13508 13512 13516 13520 13524 13528 13532 13536 13540 13544 13548 13552 13556 13560 13564 13568 13572 13576 13580 13584 13588 13592 13596 13600 13604 13608 13612 13616 13620 13624 13628 13632 13636 13640 13644 13648 13652 13656 13660 13664 13668 13672 13676 13680 13684 13688 13692 13696 13700 13704 13708 13712 13716 13720 13724 13728 13732 13736 13740 13744 13748 13752 13756 13760 13764 13768 13772 13776 13780 13784 13788 13792 13796 13800 13804 13808 13812 13816 13820 13824 13828 13832 13836 13840 13844 13848 13852 13856 13860 13864 13868 13872 13876 13880 13884 13888 13892 13896 13900 13904 13908 13912 13916 13920 13924 13928 13932 13936 13940 13944 13948 13952 13956 13960 13964 13968 13972 13976 13980 13984 13988 13992 13996 14000 14004 14008 14012 14016 14020 14024 14028 14032 14036 14040 14044 14048 14052 14056 14060 14064 14068 14072 14076 14080 14084 14088 14092 14096 14100 14104 14108 14112 14116 14120 14124 14128 14132 14136 14140 14144 14148 14152 14156 14160 14164 14168 14172 14176 14180 14184 14188 14192 14196 14200 14204 14208 14212 14216 14220 14224 14228 14232 14236 14240 14244 14248 14252 14256 14260 14264 14268 14272 14276 14280 14284 14288 14292 14296 14300 14304 14308 14312 14316 14320 14324 14328 14332 14336 14340 14344 14348 14352 14356 14360 14364 14368 14372 14376 14380 14384 14388 14392 14396 14400 14404 14408 14412 14416 14420 14424 14428 14432 14436 14440 14444 14448 14452 14456 14460 14464 14468 14472 14476 14480 14484 14488 14492 14496 14500 14504 14508 14512 14516 14520 14524 14528 14532 14536 14540 14544 14548 14552 14556 14560 14564 14568 14572 14576 14580 14584 14588 14592 14596 14600 14604 14608 14612 14616 14620 14624 14628 14632 14636 14640 14644 14648 14652 14656 14660 14664 14668 14672 14676 14680 14684 14688 14692 14696 14700 14704 14708 14712 14716 14720 14724 14728 14732 14736 14740 14744 14748 14752 14756 14760 14764 14768 14772 14776 14780 14784 14788 14792 14796 14800 14804 14808 14812 14816 14820 14824 14828 14832 14836 14840 14844 14848 14852 14856 14860 14864 14868 14872 14876 14880 14884 14888 14892 14896 14900 14904 14908 14912 14916 14920 14924 14928 14932 14936 14940 14944 14948 14952 14956 14960 14964 14968 14972 14976 14980 14984 14988 14992 14996 15000 15004 15008 15012 15016 15020 15024 15028 15032 15036 15040 15044 15048 15052 15056 15060 15064 15068 15072 15076 15080 15084 15088 15092 15096 15100 15104 15108 15112 15116 15120 15124 15128 15132 15136 15140 15144 15148 15152 15156 15160 15164 15168 15172 15176 15180 15184 15188 15192 15196 15200 15204 15208 15212 15216 15220 15224 15228 15232 15236 15240 15244 15248 15252 15256 15260 15264 15268 15272 15276 15280 15284 15288 15292 15296 15300 15304 15308 15312 15316 15320 15324 15328 15332 15336 15340 15344 15348 15352 15356 15360 15364 15368 15372 15376 15380 15384 15388 15392 15396 15400 15404 15408 15412 15416 15420 15424 15428 15432 15436 15440 15444 15448 15452 15456 15460 15464 15468 15472 15476 15480 15484 15488 15492 15496 15500 15504 15508 15512 15516 15520 15524 15528 15532 15536 15540 15544 15548 15552 15556 15560 15564 15568 15572 15576 15580 15584 15588 15592 15596 15600 15604 15608 15612 15616 15620 15624 15628 15632 15636 15640 15644 15648 15652 15656 15660 15664 15668 15672 15676 15680 15684 15688 15692 15696 15700 15704 15708 15712 15716 15720 15724 15728 15732 15736 15740 15744 15748 15752 15756 15760 15764 15768 15772 15776 15780 15784 15788 15792 15796 15800 15804 15808 15812 15816 15820 15824 15828 15832 15836 15840 15844 15848 15852 15856 15860 15864 15868 15872 15876 15880 15884 15888 15892 15896 15900 15904 15908 15912 15916 15920 15924 15928 15932 15936 15940 15944 15948 15952 15956 15960 15964 15968 15972 15976 15980 15984 15988 15992 15996 16000 16004 16008 16012 16016 16020 16024 16028 16032 16036 16040 16044 16048 16052 16056 16060 16064 16068 16072 16076 16080 16084 16088 16092 16096 16100 16104 16108 16112 16116 16120 16124 16128 16132 16136 16140 16144 16148 16152 16156 16160 16164 16168 16172 16176 16180 16184 16188 16192 16196 16200 16204 16208 16212 16216 16220 16224 16228 16232 16236 16240 16244 16248 16252 16256 16260 16264 16268 16272 16276 16280 16284 16288 16292 16296 16300 16304 16308 16312 16316 16320 16324 16328 16332 16336 16340 16344 16348 16352 16356 16360 16364 16368 16372 16376 16380 16384 16388 16392 16396 16400 16404 16408 16412 16416 16420 16424 16428 16432 16436 16440 16444 16448 16452 16456 16460 16464 16468 16472 16476 16480 16484 16488 16492 16496 16500 16504 16508 16512 16516 16520 16524 16528 16532 16536 16540 16544 16548 16552 16556 16560 16564 16568 16572 16576 16580 16584 16588 16592 16596 16600 16604 16608 16612 16616 16620 16624 16628 16632 16636 16640 16644 16648 16652 16656 16660 16664 16668 16672 16676 16680 16684 16688 16692 16696 16700 16704 16708 16712 16716 16720 16724 16728 16732 16736 16740 16744 16748 16752 16756 16760 16764 16768 16772 16776 16780 16784 16788 16792 16796 16800 16804 16808 16812 16816 16820 16824 16828 16832 16836 16840 16844 16848 16852 16856 16860 16864 16868 16872 16876 16880 16884 16888 16892 16896 16900 16904 16908 16912 16916 16920 16924 16928 16932 16936 16940 16944 16948 16952 16956 16960 16964 16968 16972 16976 16980 16984 16988 16992 16996 17000 17004 17008 17012 17016 17020 17024 17028 17032 17036 17040 17044 17048 17052 17056 17060 17064 17068 17072 17076 17080 17084 17088 17092 17096 17100 17104 17108 17112 17116 17120 17124 17128 17132 17136 17140 17144 17148 17152 17156 17160 17164 17168 17172 17176 17180 17184 17188 17192 17196 17200 17204 17208 17212 17216 17220 17224 17228 17232 17236 17240 17244 17248 17252 17256 17260 17264 17268 17272 17276 17280 17284 17288 17292 17296 17300 17304 17308 17312 17316 17320 17324 17328 17332 17336 17340 17344 17348 17352 17356 17360 17364 17368 17372 17376 17380 17384 17388 17392 17396 17400 17404 17408 17412 17416 17420 17424 17428 17432 17436 17440 17444 17448 17452 17456 17460 17464 17468 17472 17476 17480 17484 17488 17492 17496 17500 17504 17508 17512 17516 17520 17524 17528 17532 17536 17540 17544 17548 17552 17556 17560 17564 17568 17572 17576 17580 17584 17588 17592 17596 17600 17604 17608 17612 17616 17620 17624 17628 17632 17636 17640 17644 17648 17652 17656 17660 17664 17668 17672 17676 17680 17684 17688 17692 17696 17700 17704 17708 17712 17716 17720 17724 17728 17732 17736 17740 17744 17748 17752 17756 17760 17764 17768 17772 17776 17780 17784 17788 17792 17796 17800 17804 17808 17812 17816 17820 17824 17828 17832 17836 17840 17844 17848 17852 17856 17860 17864 17868 17872 17876 17880 17884 17888 17892 17896 17900 17904 17908 17912 17916 17920 17924 17928 17932 17936 17940 17944 17948 17952 17956 17960 17964 17968 17972 17976 17980 17984 17988 17992 17996 18000 18004 18008 18012 18016 18020 18024 18028 18032 18036 18040 18044 18048 18052 18056 18060 18064 18068 18072 18076 18080 18084 18088 18092 18096 18100 18104 18108 18112 18116 18120 18124 18128 18132 18136 18140 18144 18148 18152 18156 18160 18164 18168 18172 18176 18180 18184 18188 18192 18196 18200 18204 18208 18212 18216 18220 18224 18228 18232 18236 18240 18244 18248 18252 18256 18260 18264 18268 18272 18276 18280 18284 18288 18292 18296 18300 18304 18308 18312 18316 18320 18324 18328 18332 18336 18340 18344 18348 18352 18356 18360 18364 18368 18372 18376 18380 18384 18388 18392 18396 18400 18404 18408 18412 18416 18420 18424 18428 18432 18436 18440 18444 18448 18452 18456 18460 18464 18468 18472 18476 18480 18484 18488 18492 18496 18500 18504 18508 18512 18516 18520 18524 18528 18532 18536 18540 18544 18548 18552 18556 18560 18564 18568 18572 18576 18580 18584 18588 18592 18596 18600 18604 18608 18612 18616 18620 18624 18628 18632 18636 18640 18644 18648 18652 18656 18660 18664 18668 18672 18676 18680 18684 18688 18692 18696 18700 18704 18708 18712 18716 18720 18724 18728 18732 18736 18740 18744 18748 18752 18756 18760 18764 18768 18772 18776 18780 18784 18788 18792 18796 18800 18804 18808 18812 18816 18820 18824 18828 18832 18836 18840 18844 18848 18852 18856 18860 18864 18868 18872 18876 18880 18884 18888 18892 18896 18900 18904 18908 18912 18916 18920 18924 18928 18932 18936 18940 18944 18948 18952 18956 18960 18964 18968 18972 18976 18980 18984 18988 18992 18996 19000 19004 19008 19012 19016 19020 19024 19028 19032 19036 19040 19044 19048 19052 19056 19060 19064 19068 19072 19076 19080 19084 19088 19092 19096 19100 19104 19108 19112 19116 19120 19124 19128 19132 19136 19140 19144 19148 19152 19156 19160 19164 19168 19172 19176 19180 19184 19188 19192 19196 19200 19204 19208 19212 19216 19220 19224 19228 19232 19236 19240 19244 19248 19252 19256 19260 19264 19268 19272 19276 19280 19284 19288 19292 19296 19300 19304 19308 19312 19316 19320 19324 19328 19332 19336 19340 19344 19348 19352 19356 19360 19364 19368 19372 19376 19380 19384 19388 19392 19396 19400 19404 19408 19412 19416 19420 19424 19428 19432 19436 19440 19444 19448 19452 19456 19460 19464 19468 19472 19476 19480 19484 19488 19492 19496 19500 19504 19508 19512 19516 19520 19524 19528 19532 19536 19540 19544 19548 19552 19556 19560 19564 19568 19572 19576 19580 19584 19588 19592 19596 19600 19604 19608 19612 19616 19620 19624 19628 19632 19636 19640 19644 19648 19652 19656 19660 19664 19668 19672 19676 19680 19684 19688 19692 19696 19700 19704 19708 19712 19716 19720 19724 19728 19732 19736 19740 19744 19748 19752 19756 19760 19764 19768 19772 19776 19780 19784 19788 19792 19796 19800 19804 19808 19812 19816 19820 19824 19828 19832 19836 19840 19844 19848 19852 19856 19860 19864 19868 19872 19876 19880 19884 19888 19892 19896 19900 19904 19908 19912 19916 19920 19924 19928 19932 19936 19940 19944 19948 19952 19956 19960 19964 19968 19972 19976 19980 19984 19988 19992 19996 20000 20004 20008 20012 20016 20020 20024 20028 20032 20036 20040 20044 20048 20052 20056 20060 20064 20068 20072 20076 20080 20084 20088 20092 20096 20100 20104 20108 20112 20116 20120 20124 20128 20132 20136 20140 20144 20148 20152 20156 20160 20164 20168 20172 20176 20180 20184 20188 20192 20196 20200 20204 20208 20212 20216 20220 20224 20228 20232 20236 20240 20244 20248 20252 20256 20260 20264 20268 20272 20276 20280 20284 20288 20292 20296 20300 20304 20308 20312 20316 20320 20324 20328 20332 20336 20340 20344 20348 20352 20356 20360 20364 20368 20372 20376 20380 20384 20388 20392 20396 20400 20404 20408 20412 20416 20420 20424 20428 20432 20436 20440 20444 20448 20452 20456 20460 20464 20468 20472 20476 20480 20484 20488 20492 20496 20500 20504 20508 20512 20516 20520 20524 20528 20532 20536 20540 20544 20548 20552 20556 20560 20564 20568 20572 20576 20580 20584 20588 20592 20596 20600 20604 20608 20612 20616 20620 20624 20628 20632 20636 20640 20644 20648 20652 20656 20660 20664 20668 20672 20676 20680 20684 20688 20692 20696 20700 20704 20708 20712 20716 20720 20724 20728 20732 20736 20740 20744 20748 20752 20756 20760 20764 20768 20772 20776 20780 20784 20788 20792 20796 20800 20804 20808 20812 20816 20820 20824 20828 20832 20836 20840 20844 20848 20852 20856 20860 20864 20868 20872 20876 20880 20884 20888 20892 20896 20900 20904 20908 20912 20916 20920 20924 20928 20932 20936 20940 20944 20948 20952 20956 20960 20964 20968 20972 20976 20980 20984 20988 20992 20996 21000 21004 21008 21012 21016 21020 21024 21028 21032 21036 21040 21044 21048 21052 21056 21060 21064 21068 21072 21076 21080 21084 21088 21092 21096 21100 21104 21108 21112 21116 21120 21124 21128 21132 21136 21140 21144 21148 21152 21156 21160 21164 21168 21172 21176 21180 21184 21188 21192 21196 21200 21204 21208 21212 21216 21220 21224 21228 21232 21236 21240 21244 21248 21252 21256 21260 21264 21268 21272 21276 21280 21284 21288 21292 21296 21300 21304 21308 21312 21316 21320 21324 21328 21332 21336 21340 21344 21348 21352 21356 21360 21364 21368 21372 21376 21380 21384 21388 21392 21396 21400 21404 21408 21412 21416 21420 21424 21428 21432 21436 21440 21444 21448 21452 21456 21460 21464 21468 21472 21476 21480 21484 21488 21492 21496 21500 21504 21508 21512 21516 21520 21524 21528 21532 21536 21540 21544 21548 21552 21556 21560 21564 21568 21572 21576 21580 21584 21588 21592 21596 21600 21604 21608 21612 21616 21620 21624 21628 21632 21636 21640 21644 21648 21652 21656 21660 21664 21668 21672 21676 21680 21684 21688 21692 21696 21700 21704 21708 21712 21716 21720 21724 21728 21732 21736 21740 21744 21748 21752 21756 21760 21764 21768 21772 21776 21780 21784 21788 21792 21796 21800 21804 21808 21812 21816 21820 21824 21828 21832 21836 21840 21844 21848 21852 21856 21860 21864 21868 21872 21876 21880 21884 21888 21892 21896 21900 21904 21908 21912 21916 21920 21924 21928 21932 21936 21940 21944 21948 21952 21956 21960 21964 21968 21972 21976 21980 21984 21988 21992 21996 22000 22004 22008 22012 22016 22020 22024 22028 22032 22036 22040 22044 22048 22052 22056 22060 22064 22068 22072 22076 22080 22084 22088 22092 22096 22100 22104 22108 22112 22116 22120 22124 22128 22132 22136 22140 22144 22148 22152 22156 22160 22164 22168 22172 22176 22180 22184 22188 22192 22196 22200 22204 22208 22212 22216 22220 22224 22228 22232 22236 22240 22244 22248 22252 22256 22260 22264 22268 22272 22276 22280 22284 22288 22292 22296 22300 22304 22308 22312 22316 22320 22324 22328 22332 22336 22340 22344 22348 22352 22356 22360 22364 22368 22372 22376 22380 22384 22388 22392 22396 22400 22404 22408 22412 22416 22420 22424 22428 22432 22436 22440 22444 22448 22452 22456 22460 22464 22468 22472 22476 22480 22484 22488 22492 22496 22500 22504 22508 22512 22516 22520 22524 22528 22532 22536 22540 22544 22548 22552 22556 22560 22564 22568 22572 22576 22580 22584 22588 22592 22596 22600 22604 22608 22612 22616 22620 22624 22628 22632 22636 22640 22644 22648 22652 22656 22660 22664 22668 22672 22676 22680 22684 22688 22692 22696 22700 22704 22708 22712 22716 22720 22724 22728 22732 22736 22740 22744 22748 22752 22756 22760 22764 22768 22772 22776 22780 22784 22788 22792 22796 22800 22804 22808 22812 22816 22820 22824 22828 22832 22836 22840 22844 22848 22852 22856 22860 22864 22868 22872 22876 22880 22884 22888 22892 22896 22900 22904 22908 22912 22916 22920 22924 22928 22932 22936 22940 22944 22948 22952 22956 22960 22964 22968 22972 22976 22980 22984 22988 22992 22996 23000 23004 23008 23012 23016 23020 23024 23028 23032 23036 23040 23044 23048 23052 23056 23060 23064 23068 23072 23076 23080 23084 23088 23092 23096 23100 23104 23108 23112 23116 23120 23124 23128 23132 23136 23140 23144 23148 23152 23156 23160 23164 23168 23172 23176 23180 23184 23188 23192 23196 23200 23204 23208 23212 23216 23220 23224 23228 23232 23236 23240 23244 23248 23252 23256 23260 23264 23268 23272 23276 23280 23284 23288 23292 23296 23300 23304 23308 23312 23316 23320 23324 23328 23332 23336 23340 23344 23348 23352 23356 23360 23364 23368 23372 23376 23380 23384 23388 23392 23396 23400 23404 23408 23412 23416 23420 23424 23428 23432 23436 23440 23444 23448 23452 23456 23460 23464 23468 23472 23476 23480 23484 23488 23492 23496 23500 23504 23508 23512 23516 23520 23524 23528 23532 23536 23540 23544 23548 23552 23556 23560 23564 23568 23572 23576 23580 23584 23588 23592 23596 23600 23604 23608 23612 23616 23620 23624 23628 23632 23636 23640 23644 23648 23652 23656 23660 23664 23668 23672 23676 23680 23684 23688 23692 23696 23700 23704 23708 23712 23716 23720 23724 23728 23732 23736 23740 23744 23748 23752 23756 23760 23764 23768 23772 23776 23780 23784 23788 23792 23796 23800 23804 23808 23812 23816 23820 23824 23828 23832 23836 23840 23844 23848 23852 23856 23860 23864 23868 23872 23876 23880 23884 23888 23892 23896 23900 23904 23908 23912 23916 23920 23924 23928 23932 23936 23940 23944 23948 23952 23956 23960 23964 23968 23972 23976 23980 23984 23988 23992 23996 24000 24004 24008 24012 24016 24020 24024 24028 24032 24036 24040 24044 24048 24052 24056 24060 24064 24068 24072 24076 24080 24084 24088 24092 24096 24100 24104 24108 24112 24116 24120 24124 24128 24132 24136 24140 24144 24148 24152 24156 24160 24164 24168 24172 24176 24180 24184 24188 24192 24196 24200 24204 24208 24212 24216 24220 24224 24228 24232 24236 24240 24244 24248 24252 24256 24260 24264 24268 24272 24276 24280 24284 24288 24292 24296 24300 24304 24308 24312 24316 24320 24324 24328 24332 24336 24340 24344 24348 24352 24356 24360 24364 24368 24372 24376 24380 24384 24388 24392 24396 24400 24404 24408 24412 24416 24420 24424 24428 24432 24436 24440 24444 24448 24452 24456 24460 24464 24468 24472 24476 24480 24484 24488 24492 24496 24500 24504 24508 24512 24516 24520 24524 24528 24532 24536 24540 24544 24548 24552 24556 24560 24564 24568 24572 24576 24580 24584 24588 24592 24596 24600 24604 24608 24612 24616 24620 24624 24628 24632 24636 24640 24644 24648 24652 24656 24660 24664 24668 24672 24676 24680 24684 24688 24692 24696 24700 24704 24708 24712 24716 24720 24724 24728 24732 24736 24740 24744 24748 24752 24756 24760 24764 24768 24772 24776 24780 24784 24788 24792 24796 24800 24804 24808 24812 24816 24820 24824 24828 24832 24836 24840 24844 24848 24852 24856 24860 24864 24868 24872 24876 24880 24884 24888 24892 24896 24900 24904 24908 24912 24916 24920 24924 24928 24932 24936 24940 24944 24948 24952 24956 24960 24964 24968 24972 24976 24980 24984 24988 24992 24996 25000 25004 25008 25012 25016 25020 25024 25028 25032 25036 25040 25044 25048 25052 25056 25060 25064 25068 25072 25076 25080 25084 25088 25092 25096 25100 25104 25108 25112 25116 25120 25124 25128 25132 25136 25140 25144 25148 25152 25156 25160 25164 25168 25172 25176 25180 25184 25188 25192 25196 25200 25204 25208 25212 25216 25220 25224 25228 25232 25236 25240 25244 25248 25252 25256 25260 25264 25268 25272 25276 25280 25284 25288 25292 25296 25300 25304 25308 25312 25316 25320 25324 25328 25332 25336 25340 25344 25348 25352 25356 25360 25364 25368 25372 25376 25380 25384 25388 25392 25396 25400 25404 25408 25412 25416 25420 25424 25428 25432 25436 25440 25444 25448 25452 25456 25460 25464 25468 25472 25476 25480 25484 25488 25492 25496 25500 25504 25508 25512 25516 25520 25524 25528 25532 25536 25540 25544 25548 25552 25556 25560 25564 25568 25572 25576 25580 25584 25588 25592 25596 25600 25604 25608 25612 25616 25620 25624 25628 25632 25636 25640 25644 25648 25652 25656 25660 25664 25668 25672 25676 25680 25684 25688 25692 25696 25700 25704 25708 25712 25716 25720 25724 25728 25732 25736 25740 25744 25748 25752 25756 25760 25764 25768 25772 25776 25780 25784 25788 25792 25796 25800 25804 25808 25812 25816 25820 25824 25828 25832 25836 25840 25844 25848 25852 25856 25860 25864 25868 25872 25876 25880 25884 25888 25892 25896 25900 25904 25908 25912 25916 25920 25924 25928 25932 25936 25940 25944 25948 25952 25956 25960 25964 25968 25972 25976 25980 25984 25988 25992 25996 26000 26004 26008 26012 26016 26020 26024 26028 26032 26036 26040 26044 26048 26052 26056 26060 26064 26068 26072 26076 26080 26084 26088 26092 26096 26100 26104 26108 26112 26116 26120 26124 26128 26132 26136 26140 26144 26148 26152 26156 26160 26164 26168 26172 26176 26180 26184 26188 26192 26196 26200 26204 26208 26212 26216 26220 26224 26228 26232 26236 26240 26244 26248 26252 26256 26260 26264 26268 26272 26276 26280 26284 26288 26292 26296 26300 26304 26308 26312 26316 26320 26324 26328 26332 26336 26340 26344 26348 26352 26356 26360 26364 26368 26372 26376 26380 26384 26388 26392 26396 26400 26404 26408 26412 26416 26420 26424 26428 26432 26436 26440 26444 26448 26452 26456 26460 26464 26468 26472 26476 26480 26484 26488 26492 26496 26500 26504 26508 26512 26516 26520 26524 26528 26532 26536 26540 26544 26548 26552 26556 26560 26564 26568 26572 26576 26580 26584 26588 26592 26596 26600 26604 26608 26612 26616 26620 26624 26628 26632 26636 26640 26644 26648 26652 26656 26660 26664 26668 26672 26676 26680 26684 26688 26692 26696 26700 26704 26708 26712 26716 26720 26724 26728 26732 26736 26740 26744 26748 26752 26756 26760 26764 26768 26772 26776 26780 26784 26788 26792 26796 26800 26804 26808 26812 26816 26820 26824 26828 26832 26836 26840 26844 26848 26852 26856 26860 26864 26868 26872 26876 26880 26884 26888 26892 26896 26900 26904 26908 26912 26916 26920 26924 26928 26932 26936 26940 26944 26948 26952 26956 26960 26964 26968 26972 26976 26980 26984 26988 26992 26996 27000 27004 27008 27012 27016 27020 27024 27028 27032 27036 27040 27044 27048 27052 27056 27060 27064 27068 27072 27076 27080 27084 27088 27092 27096 27100 27104 27108 27112 27116 27120 27124 27128 27132 27136 27140 27144 27148 27152 27156 27160 27164 27168 27172 27176 27180 27184 27188 27192 27196 27200 27204 27208 27212 27216 27220 27224 27228 27232 27236 27240 27244 27248 27252 27256 27260 27264 27268 27272 27276 27280 27284 27288 27292 27296 27300 27304 27308 27312 27316 27320 27324 27328 27332 27336 27340 27344 27348 27352 27356 27360 27364 27368 27372 27376 27380 27384 27388 27392 27396 27400 27404 27408 27412 27416 27420 27424 27428 27432 27436 27440 27444 27448 27452 27456 27460 27464 27468 27472 27476 27480 27484 27488 27492 27496 27500 27504 27508 27512 27516 27520 27524 27528 27532 27536 27540 27544 27548 27552 27556 27560 27564 27568 27572 27576 27580 27584 27588 27592 27596 27600 27604 27608 27612 27616 27620 27624 27628 27632 27636 27640 27644 27648 27652 27656 27660 27664 27668 27672 27676 27680 27684 27688 27692 27696 27700 27704 27708 27712 27716 27720 27724 27728 27732 27736 27740 27744 27748 27752 27756 27760 27764 27768 27772 27776 27780 27784 27788 27792 27796 27800 27804 27808 27812 27816 27820 27824 27828 27832 27836 27840 27844 27848 27852 27856 27860 27864 27868 27872 27876 27880 27884 27888 27892 27896 27900 27904 27908 27912 27916 27920 27924 27928 27932 27936 27940 27944 27948 27952 27956 27960 27964 27968 27972 27976 27980 27984 27988 27992 27996 28000 28004 28008 28012 28016 28020 28024 28028 28032 28036 28040 28044 28048 28052 28056 28060 28064 28068 28072 28076 28080 28084 28088 28092 28096 28100 28104 28108 28112 28116 28120 28124 28128 28132 28136 28140 28144 28148 28152 28156 28160 28164 28168 28172 28176 28180 28184 28188 28192 28196 28200 28204 28208 28212 28216 28220 28224 28228 28232 28236 28240 28244 28248 28252 28256 28260 28264 28268 28272 28276 28280 28284 28288 28292 28296 28300 28304 28308 28312 28316 28320 28324 28328 28332 28336 28340 28344 28348 28352 28356 28360 28364 28368 28372 28376 28380 28384 28388 28392 28396 28400 28404 28408 28412 28416 28420 28424 28428 28432 28436 28440 28444 28448 28452 28456 28460 28464 28468 28472 28476 28480 28484 28488 28492 28496 28500 28504 28508 28512 28516 28520 28524 28528 28532 28536 28540 28544 28548 28552 28556 28560 28564 28568 28572 28576 28580 28584 28588 28592 28596 28600 28604 28608 28612 28616 28620 28624 28628 28632 28636 28640 28644 28648 28652 28656 28660 28664 28668 28672 28676 28680 28684 28688 28692 28696 28700 28704 28708 28712 28716 28720 28724 28728 28732 28736 28740 28744 28748 28752 28756 28760 28764 28768 28772 28776 28780 28784 28788 28792 28796 28800 28804 28808 28812 28816 28820 28824 28828 28832 28836 28840 28844 28848 28852 28856 28860 28864 28868 28872 28876 28880 28884 28888 28892 28896 28900 28904 28908 28912 28916 28920 28924 28928 28932 28936 28940 28944 28948 28952 28956 28960 28964 28968 28972 28976 28980 28984 28988 28992 28996 29000 29004 29008 29012 29016 29020 29024 29028 29032 29036 29040 29044 29048 29052 29056 29060 29064 29068 29072 29076 29080 29084 29088 29092 29096 29100 29104 29108 29112 29116 29120 29124 29128 29132 29136 29140 29144 29148 29152 29156 29160 29164 29168 29172 29176 29180 29184 29188 29192 29196 29200 29204 29208 29212 29216 29220 29224 29228 29232 29236 29240 29244 29248 29252 29256 29260 29264 29268 29272 29276 29280 29284 29288 29292 29296 29300 29304 29308 29312 29316 29320 29324 29328 29332 29336 29340 29344 29348 29352 29356 29360 29364 29368 29372 29376 29380 29384 29388 29392 29396 29400 29404 29408 29412 29416 29420 29424 29428 29432 29436 29440 29444 29448 29452 29456 29460 29464 29468 29472 29476 29480 29484 29488 29492 29496 29500 29504 29508 29512 29516 29520 29524 29528 29532 29536 29540 29544 29548 29552 29556 29560 29564 29568 29572 29576 29580 29584 29588 29592 29596 29600 29604 29608 29612 29616 29620 29624 29628 29632 29636 29640 29644 29648 29652 29656 29660 29664 29668 29672 29676 29680 29684 29688 29692 29696 29700 29704 29708 29712 29716 29720 29724 29728 29732 29736 29740 29744 29748 29752 29756 29760 29764 29768 29772 29776 29780 29784 29788 29792 29796 29800 29804 29808 29812 29816 29820 29824 29828 29832 29836 29840 29844 29848 29852 29856 29860 29864 29868 29872 29876 29880 29884 29888 29892 29896 29900 29904 29908 29912 29916 29920 29924 29928 29932 29936 29940 29944 29948 29952 29956 29960 29964 29968 29972 29976 29980 29984 29988 29992 29996 30000 30004 30008 30012 30016 30020 30024 30028 30032 30036 30040 30044 30048 30052 30056 30060 30064 30068 30072 30076 30080 30084 30088 30092 30096 30100 30104 30108 30112 30116 30120 30124 30128 30132 30136 30140 30144 30148 30152 30156 30160 30164 30168 30172 30176 30180 30184 30188 30192 30196 30200 30204 30208 30212 30216 30220 30224 30228 30232 30236 30240 30244 30248 30252 30256 30260 30264 30268 30272 30276 30280 30284 30288 30292 30296 30300 30304 30308 30312 30316 30320 30324 30328 30332 30336 30340 30344 30348 30352 30356 30360 30364 30368 30372 30376 30380 30384 30388 30392 30396 30400 30404 30408 30412 30416 30420 30424 30428 30432 30436 30440 30444 30448 30452 30456 30460 30464 30468 30472 30476 30480 30484 30488 30492 30496 30500 30504 30508 30512 30516 30520 30524 30528 30532 30536 30540 30544 30548 30552 30556 30560 30564 30568 30572 30576 30580 30584 30588 30592 30596 30600 30604 30608 30612 30616 30620 30624 30628 30632 30636 30640 30644 30648 30652 30656 30660 30664 30668 30672 30676 30680 30684 30688 30692 30696 30700 30704 30708 30712 30716 30720 30724 30728 30732 30736 30740 30744 30748 30752 30756 30760 30764 30768 30772 30776 30780 30784 30788 30792 30796 30800 30804 30808 30812 30816 30820 30824 30828 30832 30836 30840 30844 30848 30852 30856 30860 30864 30868 30872 30876 30880 30884 30888 30892 30896 30900 30904 30908 30912 30916 30920 30924 30928 30932 30936 30940 30944 30948 30952 30956 30960 30964 30968 30972 30976 30980 30984 30988 30992 30996 31000 31004 31008 31012 31016 31020 31024 31028 31032 31036 31040 31044 31048 31052 31056 31060 31064 31068 31072 31076 31080 31084 31088 31092 31096 31100 31104 31108 31112 31116 31120 31124 31128 31132 31136 31140 31144 31148 31152 31156 31160 31164 31168 31172 31176 31180 31184 31188 31192 31196 31200 31204 31208 31212 31216 31220 31224 31228 31232 31236 31240 31244 31248 31252 31256 31260 31264 31268 31272 31276 31280 31284 31288 31292 31296 31300 31304 31308 31312 31316 31320 31324 31328 31332 31336 31340 31344 31348 31352 31356 31360 31364 31368 31372 31376 31380 31384 31388 31392 31396 31400 31404 31408 31412 31416 31420 31424 31428 31432 31436 31440 31444 31448 31452 31456 31460 31464 31468 31472 31476 31480 31484 31488 31492 31496 31500 31504 31508 31512 31516 31520 31524 31528 31532 31536 31540 31544 31548 31552 31556 31560 31564 31568 31572 31576 31580 31584 31588 31592 31596 31600 31604 31608 31612 31616 31620 31624 31628 31632 31636 31640 31644 31648 31652 31656 31660 31664 31668 31672 31676 31680 31684 31688 31692 31696 31700 31704 31708 31712 31716 31720 31724 31728 31732 31736 31740 31744 31748 31752 31756 31760 31764 31768 31772 31776 31780 31784 31788 31792 31796 31800 31804 31808 31812 31816 31820 31824 31828 31832 31836 31840 31844 31848 31852 31856 31860 31864 31868 31872 31876 31880 31884 31888 31892 31896 31900 31904 31908 31912 31916 31920 31924 31928 31932 31936 31940 31944 31948 31952 31956 31960 31964 31968 31972 31976 31980 31984 31988 31992 31996 32000 32004 32008 32012 32016 32020 32024 32028 32032 32036 32040 32044 32048 32052 32056 32060 32064 32068 32072 32076 32080 32084 32088 32092 32096 32100 32104 32108 32112 32116 32120 32124 32128 32132 32136 32140 32144 32148 32152 32156 32160 32164 32168 32172 32176 32180 32184 32188 32192 32196 32200 32204 32208 32212 32216 32220 32224 32228 32232 32236 32240 32244 32248 32252 32256 32260 32264 32268 32272 32276 32280 32284 32288 32292 32296 32300 32304 32308 32312 32316 32320 32324 32328 32332 32336 32340 32344 32348 32352 32356 32360 32364 32368 32372 32376 32380 32384 32388 32392 32396 32400 32404 32408 32412 32416 32420 32424 32428 32432 32436 32440 32444 32448 32452 32456 32460 32464 32468 32472 32476 32480 32484 32488 32492 32496 32500 32504 32508 32512 32516 32520 32524 32528 32532 32536 32540 32544 32548 32552 32556 32560 32564 32568 32572 32576 32580 32584 32588 32592 32596 32600 32604 32608 32612 32616 32620 32624 32628 32632 32636 32640 32644 32648 32652 32656 32660 32664 32668 32672 32676 32680 32684 32688 32692 32696 32700 32704 32708 32712 32716 32720 32724 32728 32732 32736 32740 32744 32748 32752 32756 32760 32764 32768 32772 32776 32780 32784 32788 32792 32796 32800 32804 32808 32812 32816 32820 32824 32828 32832 32836 32840 32844 32848 32852 32856 32860 32864 32868 32872 32876 32880 32884 32888 32892 32896 32900 32904 32908 32912 32916 32920 32924 32928 32932 32936 32940 32944 32948 32952 32956 32960 32964 32968 32972 32976 32980 32984 32988 32992 32996 33000 33004 33008 33012 33016 33020 33024 33028 33032 33036 33040 33044 33048 33052 33056 33060 33064 33068 33072 33076 33080 33084 33088 33092 33096 33100 33104 33108 33112 33116 33120 33124 33128 33132 33136 33140 33144 33148 33152 33156 33160 33164 33168 33172 33176 33180 33184 33188 33192 33196 33200 33204 33208 33212 33216 33220 33224 33228 33232 33236 33240 33244 33248 33252 33256 33260 33264 33268 33272 33276 33280 33284 33288 33292 33296 33300 33304 33308 33312 33316 33320 33324 33328 33332 33336 33340 33344 33348 33352 33356 33360 33364 33368 33372 33376 33380 33384 33388 33392 33396 33400 33404 33408 33412 33416 33420 33424 33428 33432 33436 33440 33444 33448 33452 33456 33460 33464 33468 33472 33476 33480 33484 33488 33492 33496 33500 33504 33508 33512 33516 33520 33524 33528 33532 33536 33540 33544 33548 33552 33556 33560 33564 33568 33572 33576 33580 33584 33588 33592 33596 33600 33604 33608 33612 33616 33620 33624 33628 33632 33636 33640 33644 33648 33652 33656 33660 33664 33668 33672 33676 33680 33684 33688 33692 33696 33700 33704 33708 33712 33716 33720 33724 33728 33732 33736 33740 33744 33748 33752 33756 33760 33764 33768 33772 33776 33780 33784 33788 33792 33796 33800 33804 33808 33812 33816 33820 33824 33828 33832 33836 33840 33844 33848 33852 33856 33860 33864 33868 33872 33876 33880 33884 33888 33892 33896 33900 33904 33908 33912 33916 33920 33924 33928 33932 33936 33940 33944 33948 33952 33956 33960 33964 33968 33972 33976 33980 33984 33988 33992 33996 34000 34004 34008 34012 34016 34020 34024 34028 34032 34036 34040 34044 34048 34052 34056 34060 34064 34068 34072 34076 34080 34084 34088 34092 34096 34100 34104 34108 34112 34116 34120 34124 34128 34132 34136 34140 34144 34148 34152 34156 34160 34164 34168 34172 34176 34180 34184 34188 34192 34196 34200 34204 34208 34212 34216 34220 34224 34228 34232 34236 34240 34244 34248 34252 34256 34260 34264 34268 34272 34276 34280 34284 34288 34292 34296 34300 34304 34308 34312 34316 34320 34324 34328 34332 34336 34340 34344 34348 34352 34356 34360 34364 34368 34372 34376 34380 34384 34388 34392 34396 34400 34404 34408 34412 34416 34420 34424 34428 34432 34436 34440 34444 34448 34452 34456 34460 34464 34468 34472 34476 34480 34484 34488 34492 34496 34500 34504 34508 34512 34516 34520 34524 34528 34532 34536 34540 34544 34548 34552 34556 34560 34564 34568 34572 34576 34580 34584 34588 34592 34596 34600 34604 34608 34612 34616 34620 34624 34628 34632 34636 34640 34644 34648 34652 34656 34660 34664 34668 34672 34676 34680 34684 34688 34692 34696 34700 34704 34708 34712 34716 34720 34724 34728 34732 34736 34740 34744 34748 34752 34756 34760 34764 34768 34772 34776 34780 34784 34788 34792 34796 34800 34804 34808 34812 34816 34820 34824 34828 34832 34836 34840 34844 34848 34852 34856 34860 34864 34868 34872 34876 34880 34884 34888 34892 34896 34900 34904 34908 34912 34916 34920 34924 34928 34932 34936 34940 34944 34948 34952 34956 34960 34964 34968 34972 34976 34980 34984 34988 34992 34996 35000 35004 35008 35012 35016 35020 35024 35028 35032 35036 35040 35044 35048 35052 35056 35060 35064 35068 35072 35076 35080 35084 35088 35092 35096 35100 35104 35108 35112 35116 35120 35124 35128 35132 35136 35140 35144 35148 35152 35156 35160 35164 35168 35172 35176 35180 35184 35188 35192 35196 35200 35204 35208 35212 35216 35220 35224 35228 35232 35236 35240 35244 35248 35252 35256 35260 35264 35268 35272 35276 35280 35284 35288 35292 35296 35300 35304 35308 35312 35316 35320 35324 35328 35332 35336 35340 35344 35348 35352 35356 35360 35364 35368 35372 35376 35380 35384 35388 35392 35396 35400 35404 35408 35412 35416 35420 35424 35428 35432 35436 35440 35444 35448 35452 35456 35460 35464 35468 35472 35476 35480 35484 35488 35492 35496 35500 35504 35508 35512 35516 35520 35524 35528 35532 35536 35540 35544 35548 35552 35556 35560 35564 35568 35572 35576 35580 35584 35588 35592 35596 35600 35604 35608 35612 35616 35620 35624 35628 35632 35636 35640 35644 35648 35652 35656 35660 35664 35668 35672 35676 35680 35684 35688 35692 35696 35700 35704 35708 35712 35716 35720 35724 35728 35732 35736 35740 35744 35748 35752 35756 35760 35764 35768 35772 35776 35780 35784 35788 35792 35796 35800 35804 35808 35812 35816 35820 35824 35828 35832 35836 35840 35844 35848 35852 35856 35860 35864 35868 35872 35876 35880 35884 35888 35892 35896 35900 35904 35908 35912 35916 35920 35924 35928 35932 35936 35940 35944 35948 35952 35956 35960 35964 35968 35972 35976 35980 35984 35988 35992 35996 36000 36004 36008 36012 36016 36020 36024 36028 36032 36036 36040 36044 36048 36052 36056 36060 36064 36068 36072 36076 36080 36084 36088 36092 36096 36100 36104 36108 36112 36116 36120 36124 36128 36132 36136 36140 36144 36148 36152 36156 36160 36164 36168 36172 36176 36180 36184 36188 36192 36196 36200 36204 36208 36212 36216 36220 36224 36228 36232 36236 36240 36244 36248 36252 36256 36260 36264 36268 36272 36276 36280 36284 36288 36292 36296 36300 36304 36308 36312 36316 36320 36324 36328 36332 36336 36340 36344 36348 36352 36356 36360 36364 36368 36372 36376 36380 36384 36388 36392 36396 36400 36404 36408 36412 36416 36420 36424 36428 36432 36436 36440 36444 36448 36452 36456 36460 36464 36468 36472 36476 36480 36484 36488 36492 36496 36500 36504 36508 36512 36516 36520 36524 36528 36532 36536 36540 36544 36548 36552 36556 36560 36564 36568 36572 36576 36580 36584 36588 36592 36596 36600 36604 36608 36612 36616 36620 36624 36628 36632 36636 36640 36644 36648 36652 36656 36660 36664 36668 36672 36676 36680 36684 36688 36692 36696 36700 36704 36708 36712 36716 36720 36724 36728 36732 36736 36740 36744 36748 36752 36756 36760 36764 36768 36772 36776 36780 36784 36788 36792 36796 36800 36804 36808 36812 36816 36820 36824 36828 36832 36836 36840 36844 36848 36852 36856 36860 36864 36868 36872 36876 36880 36884 36888 36892 36896 36900 36904 36908 36912 36916 36920 36924 36928 36932 36936 36940 36944 36948 36952 36956 36960 36964 36968 36972 36976 36980 36984 36988 36992 36996 37000 37004 37008 37012 37016 37020 37024 37028 37032 37036 37040 37044 37048 37052 37056 37060 37064 37068 37072 37076 37080 37084 37088 37092 37096 37100 37104 37108 37112 37116 37120 37124 37128 37132 37136 37140 37144 37148 37152 37156 37160 37164 37168 37172 37176 37180 37184 37188 37192 37196 37200 37204 37208 37212 37216 37220 37224 37228 37232 37236 37240 37244 37248 37252 37256 37260 37264 37268 37272 37276 37280 37284 37288 37292 37296 37300 37304 37308 37312 37316 37320 37324 37328 37332 37336 37340 37344 37348 37352 37356 37360 37364 37368 37372 37376 37380 37384 37388 37392 37396 37400 37404 37408 37412 37416 37420 37424 37428 37432 37436 37440 37444 37448 37452 37456 37460 37464 37468 37472 37476 37480 37484 37488 37492 37496 37500 37504 37508 37512 37516 37520 37524 37528 37532 37536 37540 37544 37548 37552 37556 37560 37564 37568 37572 37576 37580 37584 37588 37592 37596 37600 37604 37608 37612 37616 37620 37624 37628 37632 37636 37640 37644 37648 37652 37656 37660 37664 37668 37672 37676 37680 37684 37688 37692 37696 37700 37704 37708 37712 37716 37720 37724 37728 37732 37736 37740 37744 37748 37752 37756 37760 37764 37768 37772 37776 37780 37784 37788 37792 37796 37800 37804 37808 37812 37816 37820 37824 37828 37832 37836 37840 37844 37848 37852 37856 37860 37864 37868 37872 37876 37880 37884 37888 37892 37896 37900 37904 37908 37912 37916 37920 37924 37928 37932 37936 37940 37944 37948 37952 37956 37960 37964 37968 37972 37976 37980 37984 37988 37992 37996 38000 38004 38008 38012 38016 38020 38024 38028 38032 38036 38040 38044 38048 38052 38056 38060 38064 38068 38072 38076 38080 38084 38088 38092 38096 38100 38104 38108 38112 38116 38120 38124 38128 38132 38136 38140 38144 38148 38152 38156 38160 38164 38168 38172 38176 38180 38184 38188 38192 38196 38200 38204 38208 38212 38216 38220 38224 38228 38232 38236 38240 38244 38248 38252 38256 38260 38264 38268 38272 38276 38280 38284 38288 38292 38296 38300 38304 38308 38312 38316 38320 38324 38328 38332 38336 38340 38344 38348 38352 38356 38360 38364 38368 38372 38376 38380 38384 38388 38392 38396 38400 38404 38408 38412 38416 38420 38424 38428 38432 38436 38440 38444 38448 38452 38456 38460 38464 38468 38472 38476 38480 38484 38488 38492 38496 38500 38504 38508 38512 38516 38520 38524 38528 38532 38536 38540 38544 38548 38552 38556 38560 38564 38568 38572 38576 38580 38584 38588 38592 38596 38600 38604 38608 38612 38616 38620 38624 38628 38632 38636 38640 38644 38648 38652 38656 38660 38664 38668 38672 38676 38680 38684 38688 38692 38696 38700 38704 38708 38712 38716 38720 38724 38728 38732 38736 38740 38744 38748 38752 38756 38760 38764 38768 38772 38776 38780 38784 38788 38792 38796 38800 38804 38808 38812 38816 38820 38824 38828 38832 38836 38840 38844 38848 38852 38856 38860 38864 38868 38872 38876 38880 38884 38888 38892 38896 38900 38904 38908 38912 38916 38920 38924 38928 38932 38936 38940 38944 38948 38952 38956 38960 38964 38968 38972 38976 38980 38984 38988 38992 38996 39000 39004 39008 39012 39016 39020 39024 39028 39032 39036 39040 39044 39048 39052 39056 39060 39064 39068 39072 39076 39080 39084 39088 39092 39096 39100 39104 39108 39112 39116 39120 39124 39128 39132 39136 39140 39144 39148 39152 39156 39160 39164 39168 39172 39176 39180 39184 39188 39192 39196 39200 39204 39208 39212 39216 39220 39224 39228 39232 39236 39240 39244 39248 39252 39256 39260 39264 39268 39272 39276 39280 39284 39288 39292 39296 39300 39304 39308 39312 39316 39320 39324 39328 39332 39336 39340 39344 39348 39352 39356 39360 39364 39368 39372 39376 39380 39384 39388 39392 39396 39400 39404 39408 39412 39416 39420 39424 39428 39432 39436 39440 39444 39448 39452 39456 39460 39464 39468 39472 39476 39480 39484 39488 39492 39496 39500 39504 39508 39512 39516 39520 39524 39528 39532 39536 39540 39544 39548 39552 39556 39560 39564 39568 39572 39576 39580 39584 39588 39592 39596 39600 39604 39608 39612 39616 39620 39624 39628 39632 39636 39640 39644 39648 39652 39656 39660 39664 39668 39672 39676 39680 39684 39688 39692 39696 39700 39704 39708 39712 39716 39720 39724 39728 39732 39736 39740 39744 39748 39752 39756 39760 39764 39768 39772 39776 39780 39784 39788 39792 39796 39800 39804 39808 39812 39816 39820 39824 39828 39832 39836 39840 39844 39848 39852 39856 39860 39864 39868 39872 39876 39880 39884 39888 39892 39896 39900 39904 39908 39912 39916 39920 39924 39928 39932 39936 39940 39944 39948 39952 39956 39960 39964 39968 39972 39976 39980 39984 39988 39992 39996 40000 40004 40008 40012 40016 40020 40024 40028 40032 40036 40040 40044 40048 40052 40056 40060 40064 40068 40072 40076 40080 40084 40088 40092 40096 40100 40104 40108 40112 40116 40120 40124 40128 40132 40136 40140 40144 40148 40152 40156 40160 40164 40168 40172 40176 40180 40184 40188 40192 40196 40200 40204 40208 40212 40216 40220 40224 40228 40232 40236 40240 40244 40248 40252 40256 40260 40264 40268 40272 40276 40280 40284 40288 40292 40296 40300 40304 40308 40312 40316 40320 40324 40328 40332 40336 40340 40344 40348 40352 40356 40360 40364 40368 40372 40376 40380 40384 40388 40392 40396 40400 40404 40408 40412 40416 40420 40424 40428 40432 40436 40440 40444 40448 40452 40456 40460 40464 40468 40472 40476 40480 40484 40488 40492 40496 40500 40504 40508 40512 40516 40520 40524 40528 40532 40536 40540 40544 40548 40552 40556 40560 40564 40568 40572 40576 40580 40584 40588 40592 40596 40600 40604 40608 40612 40616 40620 40624 40628 40632 40636 40640 40644 40648 40652 40656 40660 40664 40668 40672 40676 40680 40684 40688 40692 40696 40700 40704 40708 40712 40716 40720 40724 40728 40732 40736 40740 40744 40748 40752 40756 40760 40764 40768 40772 40776 40780 40784 40788 40792 40796 40800 40804 40808 40812 40816 40820 40824 40828 40832 40836 40840 40844 40848 40852 40856 40860 40864 40868 40872 40876 40880 40884 40888 40892 40896 40900 40904 40908 40912 40916 40920 40924 40928 40932 40936 40940 40944 40948 40952 40956 40960 40964 40968 40972 40976 40980 40984 40988 40992 40996 41000 41004 41008 41012 41016 41020 41024 41028 41032 41036 41040 41044 41048 41052 41056 41060 41064 41068 41072 41076 41080 41084 41088 41092 41096 41100 41104 41108 41112 41116 41120 41124 41128 41132 41136 41140 41144 41148 41152 41156 41160 41164 41168 41172 41176 41180 41184 41188 41192 41196 41200 41204 41208 41212 41216 41220 41224 41228 41232 41236 41240 41244 41248 41252 41256 41260 41264 41268 41272 41276 41280 41284 41288 41292 41296 41300 41304 41308 41312 41316 41320 41324 41328 41332 41336 41340 41344 41348 41352 41356 41360 41364 41368 41372 41376 41380 41384 41388 41392 41396 41400 41404 41408 41412 41416 41420 41424 41428 41432 41436 41440 41444 41448 41452 41456 41460 41464 41468 41472 41476 41480 41484 41488 41492 41496 41500 41504 41508 41512 41516 41520 41524 41528 41532 41536 41540 41544 41548 41552 41556 41560 41564 41568 41572 41576 41580 41584 41588 41592 41596 41600 41604 41608 41612 41616 41620 41624 41628 41632 41636 41640 41644 41648 41652 41656 41660 41664 41668 41672 41676 41680 41684 41688 41692 41696 41700 41704 41708 41712 41716 41720 41724 41728 41732 41736 41740 41744 41748 41752 41756 41760 41764 41768 41772 41776 41780 41784 41788 41792 41796 41800 41804 41808 41812 41816 41820 41824 41828 41832 41836 41840 41844 41848 41852 41856 41860 41864 41868 41872 41876 41880 41884 41888 41892 41896 41900 41904 41908 41912 41916 41920 41924 41928 41932 41936 41940 41944 41948 41952 41956 41960 41964 41968 41972 41976 41980 41984 41988 41992 41996 42000 42004 42008 42012 42016 42020 42024 42028 42032 42036 42040 42044 42048 42052 42056 42060 42064 42068 42072 42076 42080 42084 42088 42092 42096 42100 42104 42108 42112 42116 42120 42124 42128 42132 42136 42140 42144 42148 42152 42156 42160 42164 42168 42172 42176 42180 42184 42188 42192 42196 42200 42204 42208 42212 42216 42220 42224 42228 42232 42236 42240 42244 42248 42252 42256 42260 42264 42268 42272 42276 42280 42284 42288 42292 42296 42300 42304 42308 42312 42316 42320 42324 42328 42332 42336 42340 42344 42348 42352 42356 42360 42364 42368 42372 42376 42380 42384 42388 42392 42396 42400 42404 42408 42412 42416 42420 42424 42428 42432 42436 42440 42444 42448 42452 42456 42460 42464 42468 42472 42476 42480 42484 42488 42492 42496 42500 42504 42508 42512 42516 42520 42524 42528 42532 42536 42540 42544 42548 42552 42556 42560 42564 42568 42572 42576 42580 42584 42588 42592 42596 42600 42604 42608 42612 42616 42620 42624 42628 42632 42636 42640 42644 42648 42652 42656 42660 42664 42668 42672 42676 42680 42684 42688 42692 42696 42700 42704 42708 42712 42716 42720 42724 42728 42732 42736 42740 42744 42748 42752 42756 42760 42764 42768 42772 42776 42780 42784 42788 42792 42796 42800 42804 42808 42812 42816 42820 42824 42828 42832 42836 42840 42844 42848 42852 42856 42860 42864 42868 42872 42876 42880 42884 42888 42892 42896 42900 42904 42908 42912 42916 42920 42924 42928 42932 42936 42940 42944 42948 42952 42956 42960 42964 42968 42972 42976 42980 42984 42988 42992 42996 43000 43004 43008 43012 43016 43020 43024 43028 43032 43036 43040 43044 43048 43052 43056 43060 43064 43068 43072 43076 43080 43084 43088 43092 43096 43100 43104 43108 43112 43116 43120 43124 43128 43132 43136 43140 43144 43148 43152 43156 43160 43164 43168 43172 43176 43180 43184 43188 43192 43196 43200 43204 43208 43212 43216 43220 43224 43228 43232 43236 43240 43244 43248 43252 43256 43260 43264 43268 43272 43276 43280 43284 43288 43292 43296 43300 43304 43308 43312 43316 43320 43324 43328 43332 43336 43340 43344 43348 43352 43356 43360 43364 43368 43372 43376 43380 43384 43388 43392 43396 43400 43404 43408 43412 43416 43420 43424 43428 43432 43436 43440 43444 43448 43452 43456 43460 43464 43468 43472 43476 43480 43484 43488 43492 43496 43500 43504 43508 43512 43516 43520 43524 43528 43532 43536 43540 43544 43548 43552 43556 43560 43564 43568 43572 43576 43580 43584 43588 43592 43596 43600 43604 43608 43612 43616 43620 43624 43628 43632 43636 43640 43644 43648 43652 43656 43660 43664 43668 43672 43676 43680 43684 43688 43692 43696 43700 43704 43708 43712 43716 43720 43724 43728 43732 43736 43740 43744 43748 43752 43756 43760 43764 43768 43772 43776 43780 43784 43788 43792 43796 43800 43804 43808 43812 43816 43820 43824 43828 43832 43836 43840 43844 43848 43852 43856 43860 43864 43868 43872 43876 43880 43884 43888 43892 43896 43900 43904 43908 43912 43916 43920 43924 43928 43932 43936 43940 43944 43948 43952 43956 43960 43964 43968 43972 43976 43980 43984 43988 43992 43996 44000 44004 44008 44012 44016 44020 44024 44028 44032 44036 44040 44044 44048 44052 44056 44060 44064 44068 44072 44076 44080 44084 44088 44092 44096 44100 44104 44108 44112 44116 44120 44124 44128 44132 44136 44140 44144 44148 44152 44156 44160 44164 44168 44172 44176 44180 44184 44188 44192 44196 44200 44204 44208 44212 44216 44220 44224 44228 44232 44236 44240 44244 44248 44252 44256 44260 44264 44268 44272 44276 44280 44284 44288 44292 44296 44300 44304 44308 44312 44316 44320 44324 44328 44332 44336 44340 44344 44348 44352 44356 44360 44364 44368 44372 44376 44380 44384 44388 44392 44396 44400 44404 44408 44412 44416 44420 44424 44428 44432 44436 44440 44444 44448 44452 44456 44460 44464 44468 44472 44476 44480 44484 44488 44492 44496 44500 44504 44508 44512 44516 44520 44524 44528 44532 44536 44540 44544 44548 44552 44556 44560 44564 44568 44572 44576 44580 44584 44588 44592 44596 44600 44604 44608 44612 44616 44620 44624 44628 44632 44636 44640 44644 44648 44652 44656 44660 44664 44668 44672 44676 44680 44684 44688 44692 44696 44700 44704 44708 44712 44716 44720 44724 44728 44732 44736 44740 44744 44748 44752 44756 44760 44764 44768 44772 44776 44780 44784 44788 44792 44796 44800 44804 44808 44812 44816 44820 44824 44828 44832 44836 44840 44844 44848 44852 44856 44860 44864 44868 44872 44876 44880 44884 44888 44892 44896 44900 44904 44908 44912 44916 44920 44924 44928 44932 44936 44940 44944 44948 44952 44956 44960 44964 44968 44972 44976 44980 44984 44988 44992 44996 45000 45004 45008 45012 45016 45020 45024 45028 45032 45036 45040 45044 45048 45052 45056 45060 45064 45068 45072 45076 45080 45084 45088 45092 45096 45100 45104 45108 45112 45116 45120 45124 45128 45132 45136 45140 45144 45148 45152 45156 45160 45164 45168 45172 45176 45180 45184 45188 45192 45196 45200 45204 45208 45212 45216 45220 45224 45228 45232 45236 45240 45244 45248 45252 45256 45260 45264 45268 45272 45276 45280 45284 45288 45292 45296 45300 45304 45308 45312 45316 45320 45324 45328 45332 45336 45340 45344 45348 45352 45356 45360 45364 45368 45372 45376 45380 45384 45388 45392 45396 45400 45404 45408 45412 45416 45420 45424 45428 45432 45436 45440 45444 45448 45452 45456 45460 45464 45468 45472 45476 45480 45484 45488 45492 45496 45500 45504 45508 45512 45516 45520 45524 45528 45532 45536 45540 45544 45548 45552 45556 45560 45564 45568 45572 45576 45580 45584 45588 45592 45596 45600 45604 45608 45612 45616 45620 45624 45628 45632 45636 45640 45644 45648 45652 45656 45660 45664 45668 45672 45676 45680 45684 45688 45692 45696 45700 45704 45708 45712 45716 45720 45724 45728 45732 45736 45740 45744 45748 45752 45756 45760 45764 45768 45772 45776 45780 45784 45788 45792 45796 45800 45804 45808 45812 45816 45820 45824 45828 45832 45836 45840 45844 45848 45852 45856 45860 45864 45868 45872 45876 45880 45884 45888 45892 45896 45900 45904 45908 45912 45916 45920 45924 45928 45932 45936 45940 45944 45948 45952 45956 45960 45964 45968 45972 45976 45980 45984 45988 45992 45996 46000 46004 46008 46012 46016 46020 46024 46028 46032 46036 46040 46044 46048 46052 46056 46060 46064 46068 46072 46076 46080 46084 46088 46092 46096 46100 46104 46108 46112 46116 46120 46124 46128 46132 46136 46140 46144 46148 46152 46156 46160 46164 46168 46172 46176 46180 46184 46188 46192 46196 46200 46204 46208 46212 46216 46220 46224 46228 46232 46236 46240 46244 46248 46252 46256 46260 46264 46268 46272 46276 46280 46284 46288 46292 46296 46300 46304 46308 46312 46316 46320 46324 46328 46332 46336 46340 46344 46348 46352 46356 46360 46364 46368 46372 46376 46380 46384 46388 46392 46396 46400 46404 46408 46412 46416 46420 46424 46428 46432 46436 46440 46444 46448 46452 46456 46460 46464 46468 46472 46476 46480 46484 46488 46492 46496 46500 46504 46508 46512 46516 46520 46524 46528 46532 46536 46540 46544 46548 46552 46556 46560 46564 46568 46572 46576 46580 46584 46588 46592 46596 46600 46604 46608 46612 46616 46620 46624 46628 46632 46636 46640 46644 46648 46652 46656 46660 46664 46668 46672 46676 46680 46684 46688 46692 46696 46700 46704 46708 46712 46716 46720 46724 46728 46732 46736 46740 46744 46748 46752 46756 46760 46764 46768 46772 46776 46780 46784 46788 46792 46796 46800 46804 46808 46812 46816 46820 46824 46828 46832 46836 46840 46844 46848 46852 46856 46860 46864 46868 46872 46876 46880 46884 46888 46892 46896 46900 46904 46908 46912 46916 46920 46924 46928 46932 46936 46940 46944 46948 46952 46956 46960 46964 46968 46972 46976 46980 46984 46988 46992 46996 47000 47004 47008 47012 47016 47020 47024 47028 47032 47036 47040 47044 47048 47052 47056 47060 47064 47068 47072 47076 47080 47084 47088 47092 47096 47100 47104 47108 47112 47116 47120 47124 47128 47132 47136 47140 47144 47148 47152 47156 47160 47164 47168 47172 47176 47180 47184 47188 47192 47196 47200 47204 47208 47212 47216 47220 47224 47228 47232 47236 47240 47244 47248 47252 47256 47260 47264 47268 47272 47276 47280 47284 47288 47292 47296 47300 47304 47308 47312 47316 47320 47324 47328 47332 47336 47340 47344 47348 47352 47356 47360 47364 47368 47372 47376 47380 47384 47388 47392 47396 47400 47404 47408 47412 47416 47420 47424 47428 47432 47436 47440 47444 47448 47452 47456 47460 47464 47468 47472 47476 47480 47484 47488 47492 47496 47500 47504 47508 47512 47516 47520 47524 47528 47532 47536 47540 47544 47548 47552 47556 47560 47564 47568 47572 47576 47580 47584 47588 47592 47596 47600 47604 47608 47612 47616 47620 47624 47628 47632 47636 47640 47644 47648 47652 47656 47660 47664 47668 47672 47676 47680 47684 47688 47692 47696 47700 47704 47708 47712 47716 47720 47724 47728 47732 47736 47740 47744 47748 47752 47756 47760 47764 47768 47772 47776 47780 47784 47788 47792 47796 47800 47804 47808 47812 47816 47820 47824 47828 47832 47836 47840 47844 47848 47852 47856 47860 47864 47868 47872 47876 47880 47884 47888 47892 47896 47900 47904 47908 47912 47916 47920 47924 47928 47932 47936 47940 47944 47948 47952 47956 47960 47964 47968 47972 47976 47980 47984 47988 47992 47996 48000 48004 48008 48012 48016 48020 48024 48028 48032 48036 48040 48044 48048 48052 48056 48060 48064 48068 48072 48076 48080 48084 48088 48092 48096 48100 48104 48108 48112 48116 48120 48124 48128 48132 48136 48140 48144 48148 48152 48156 48160 48164 48168 48172 48176 48180 48184 48188 48192 48196 48200 48204 48208 48212 48216 48220 48224 48228 48232 48236 48240 48244 48248 48252 48256 48260 48264 48268 48272 48276 48280 48284 48288 48292 48296 48300 48304 48308 48312 48316 48320 48324 48328 48332 48336 48340 48344 48348 48352 48356 48360 48364 48368 48372 48376 48380 48384 48388 48392 48396 48400 48404 48408 48412 48416 48420 48424 48428 48432 48436 48440 48444 48448 48452 48456 48460 48464 48468 48472 48476 48480 48484 48488 48492 48496 48500 48504 48508 48512 48516 48520 48524 48528 48532 48536 48540 48544 48548 48552 48556 48560 48564 48568 48572 48576 48580 48584 48588 48592 48596 48600 48604 48608 48612 48616 48620 48624 48628 48632 48636 48640 48644 48648 48652 48656 48660 48664 48668 48672 48676 48680 48684 48688 48692 48696 48700 48704 48708 48712 48716 48720 48724 48728 48732 48736 48740 48744 48748 48752 48756 48760 48764 48768 48772 48776 48780 48784 48788 48792 48796 48800 48804 48808 48812 48816 48820 48824 48828 48832 48836 48840 48844 48848 48852 48856 48860 48864 48868 48872 48876 48880 48884 48888 48892 48896 48900 48904 48908 48912 48916 48920 48924 48928 48932 48936 48940 48944 48948 48952 48956 48960 48964 48968 48972 48976 48980 48984 48988 48992 48996 49000 49004 49008 49012 49016 49020 49024 49028 49032 49036 49040 49044 49048 49052 49056 49060 49064 49068 49072 49076 49080 49084 49088 49092 49096 49100 49104 49108 49112 49116 49120 49124 49128 49132 49136 49140 49144 49148 49152 
CONNECTIVITY vtktypeint64
0 33 331 34 
297 331 298 0 
0 33 330 331 
297 331 0 330 
298 0 331 1 
331 0 34 1 
1 34 332 35 
298 332 299 1 
1 34 331 332 
298 332 1 331 
299 1 332 2 
332 1 35 2 
2 35 333 36 
299 333 300 2 
2 35 332 333 
299 333 2 332 
300 2 333 3 
333 2 36 3 
3 36 334 37 
300 334 301 3 
3 36 333 334 
300 334 3 333 
301 3 334 4 
334 3 37 4 
4 37 335 38 
301 335 302 4 
4 37 334 335 
301 335 4 334 
302 4 335 5 
335 4 38 5 
5 38 336 39 
302 336 303 5 
5 38 335 336 
302 336 5 335 
303 5 336 6 
336 5 39 6 
6 39 337 40 
303 337 304 6 
6 39 336 337 
303 337 6 336 
304 6 337 7 
337 6 40 7 
7 40 338 41 
304 338 305 7 
7 40 337 338 
304 338 7 337 
305 7 338 8 
338 7 41 8 
8 41 339 42 
305 339 306 8 
8 41 338 339 
305 339 8 338 
306 8 339 9 
339 8 42 9 
9 42 340 43 
306 340 307 9 
9 42 339 340 
306 340 9 339 
307 9 340 10 
340 9 43 10 
10 43 341 44 
307 341 308 10 
10 43 340 341 
307 341 10 340 
308 10 341 11 
341 10 44 11 
11 44 342 45 
308 342 309 11 
11 44 341 342 
308 342 11 341 
309 11 342 12 
342 11 45 12 
12 45 343 46 
309 343 310 12 
12 45 342 343 
309 343 12 342 
310 12 343 13 
343 12 46 13 
13 46 344 47 
310 344 311 13 
13 46 343 344 
310 344 13 343 
311 13 344 14 
344 13 47 14 
14 47 345 48 
311 345 312 14 
14 47 344 345 
311 345 14 344 
312 14 345 15 
345 14 48 15 
15 48 346 49 
312 346 313 15 
15 48 345 346 
312 346 15 345 
313 15 346 16 
346 15 49 16 
16 49 347 50 
313 347 314 16 
16 49 346 347 
313 347 16 346 
314 16 347 17 
347 16 50 17 
17 50 348 51 
314 348 315 17 
17 50 347 348 
314 348 17 347 
315 17 348 18 
348 17 51 18 
18 51 349 52 
315 349 316 18 
18 51 348 349 
315 349 18 348 
316 18 349 19 
349 18 52 19 
19 52 350 53 
316 350 317 19 
19 52 349 350 
316 350 19 349 
317 19 350 20 
350 19 53 20 
20 53 351 54 
317 351 318 20 
20 53 350 351 
317 351 20 350 
318 20 351 21 
351 20 54 21 
21 54 352 55 
318 352 319 21 
21 54 351 352 
318 352 21 351 
319 21 352 22 
352 21 55 22 
22 55 353 56 
319 353 320 22 
22 55 352 353 
319 353 22 352 
320 22 353 23 
353 22 56 23 
23 56 354 57 
320 354 321 23 
23 56 353 354 
320 354 23 353 
321 23 354 24 
354 23 57 24 
24 57 355 58 
321 355 322 24 
24 57 354 355 
321 355 24 354 
322 24 355 25 
355 24 58 25 
25 58 356 59 
322 356 323 25 
25 58 355 356 
322 356 25 355 
323 25 356 26 
356 25 59 26 
26 59 357 60 
323 357 324 26 
26 59 356 357 
323 357 26 356 
324 26 357 27 
357 26 60 27 
27 60 358 61 
324 358 325 27 
27 60 357 358 
324 358 27 357 
325 27 358 28 
358 27 61 28 
28 61 359 62 
325 359 326 28 
28 61 358 359 
325 359 28 358 
326 28 359 29 
359 28 62 29 
29 62 360 63 
326 360 327 29 
29 62 359 360 
326 360 29 359 
327 29 360 30 
360 29 63 30 
30 63 361 64 
327 361 328 30 
30 63 360 361 
327 361 30 360 
328 30 361 31 
361 30 64 31 
31 64 362 65 
328 362 329 31 
31 64 361 362 
328 362 31 361 
329 31 362 32 
362 31 65 32 
33 66 364 67 
330 364 331 33 
33 66 363 364 
330 364 33 363 
331 33 364 34 
364 33 67 34 
34 67 365 68 
331 365 332 34 
34 67 364 365 
331 365 34 364 
332 34 365 35 
365 34 68 35 
35 68 366 69 
332 366 333 35 
35 68 365 366 
332 366 35 365 
333 35 366 36 
366 35 69 36 
36 69 367 70 
333 367 334 36 
36 69 366 367 
333 367 36 366 
334 36 367 37 
367 36 70 37 
37 70 368 71 
334 368 335 37 
37 70 367 368 
334 368 37 367 
335 37 368 38 
368 37 71 38 
38 71 369 72 
335 369 336 38 
38 71 368 369 
335 369 38 368 
336 38 369 39 
369 38 72 39 
39 72 370 73 
336 370 337 39 
39 72 369 370 
336 370 39 369 
337 39 370 40 
370 39 73 40 
40 73 371 74 
337 371 338 40 
40 73 370 371 
337 371 40 370 
338 40 371 41 
371 40 74 41 
41 74 372 75 
338 372 339 41 
41 74 371 372 
338 372 41 371 
339 41 372 42 
372 41 75 42 
42 75 373 76 
339 373 340 42 
42 75 372 373 
339 373 42 372 
340 42 373 43 
373 42 76 43 
43 76 374 77 
340 374 341 43 
43 76 373 374 
340 374 43 373 
341 43 374 44 
374 43 77 44 
44 77 375 78 
341 375 342 44 
44 77 374 375 
341 375 44 374 
342 44 375 45 
375 44 78 45 
45 78 376 79 
342 376 343 45 
45 78 375 376 
342 376 45 375 
343 45 376 46 
376 45 79 46 
46 79 377 80 
343 377 344 46 
46 79 376 377 
343 377 46 376 
344 46 377 47 
377 46 80 47 
47 80 378 81 
344 378 345 47 
47 80 377 378 
344 378 47 377 
345 47 378 48 
378 47 81 48 
48 81 379 82 
345 379 346 48 
48 81 378 379 
345 379 48 378 
346 48 379 49 
379 48 82 49 
49 82 380 83 
346 380 347 49 
49 82 379 380 
346 380 49 379 
347 49 380 50 
380 49 83 50 
50 83 381 84 
347 381 348 50 
50 83 380 381 
347 381 50 380 
348 50 381 51 
381 50 84 51 
51 84 382 85 
348 382 349 51 
51 84 381 382 
348 382 51 381 
349 51 382 52 
382 51 85 52 
52 85 383 86 
349 383 350 52 
52 85 382 383 
349 383 52 382 
350 52 383 53 
383 52 86 53 
53 86 384 87 
350 384 351 53 
53 86 383 384 
350 384 53 383 
351 53 384 54 
384 53 87 54 
54 87 385 88 
351 385 352 54 
54 87 384 385 
351 385 54 384 
352 54 385 55 
385 54 88 55 
55 88 386 89 
352 386 353 55 
55 88 385 386 
352 386 55 385 
353 55 386 56 
386 55 89 56 
56 89 387 90 
353 387 354 56 
56 89 386 387 
353 387 56 386 
354 56 387 57 
387 56 90 57 
57 90 388 91 
354 388 355 57 
57 90 387 388 
354 388 57 387 
355 57 388 58 
388 57 91 58 
58 91 389 92 
355 389 356 58 
58 91 388 389 
355 389 58 388 
356 58 389 59 
389 58 92 59 
59 92 390 93 
356 390 357 59 
59 92 389 390 
356 390 59 389 
357 59 390 60 
390 59 93 60 
60 93 391 94 
357 391 358 60 
60 93 390 391 
357 391 60 390 
358 60 391 61 
391 60 94 61 
61 94 392 95 
358 392 359 61 
61 94 391 392 
358 392 61 391 
359 61 392 62 
392 61 95 62 
62 95 393 96 
359 393 360 62 
62 95 392 393 
359 393 62 392 
360 62 393 63 
393 62 96 63 
63 96 394 97 
360 394 361 63 
63 96 393 394 
360 394 63 393 
361 63 394 64 
394 63 97 64 
64 97 395 98 
361 395 362 64 
64 97 394 395 
361 395 64 394 
362 64 395 65 
395 64 98 65 
66 99 397 100 
363 397 364 66 
66 99 396 397 
363 397 66 396 
364 66 397 67 
397 66 100 67 
67 100 398 101 
364 398 365 67 
67 100 397 398 
364 398 67 397 
365 67 398 68 
398 67 101 68 
68 101 399 102 
365 399 366 68 
68 101 398 399 
365 399 68 398 
366 68 399 69 
399 68 102 69 
69 102 400 103 
366 400 367 69 
69 102 399 400 
366 400 69 399 
367 69 400 70 
400 69 103 70 
70 103 401 104 
367 401 368 70 
70 103 400 401 
367 401 70 400 
368 70 401 71 
401 70 104 71 
71 104 402 105 
368 402 369 71 
71 104 401 402 
368 402 71 401 
369 71 402 72 
402 71 105 72 
72 105 403 106 
369 403 370 72 
72 105 402 403 
369 403 72 402 
370 72 403 73 
403 72 106 73 
73 106 404 107 
370 404 371 73 
73 106 403 404 
370 404 73 403 
371 73 404 74 
404 73 107 74 
74 107 405 108 
371 405 372 74 
74 107 404 405 
371 405 74 404 
372 74 405 75 
405 74 108 75 
75 108 406 109 
372 406 373 75 
75 108 405 406 
372 406 75 405 
373 75 406 76 
406 75 109 76 
76 109 407 110 
373 407 374 76 
76 109 406 407 
373 407 76 406 
374 76 407 77 
407 76 110 77 
77 110 408 111 
374 408 375 77 
77 110 407 408 
374 408 77 407 
375 77 408 78 
408 77 111 78 
78 111 409 112 
375 409 376 78 
78 111 408 409 
375 409 78 408 
376 78 409 79 
409 78 112 79 
79 112 410 113 
376 410 377 79 
79 112 409 410 
376 410 79 409 
377 79 410 80 
410 79 113 80 
80 113 411 114 
377 411 378 80 
80 113 410 411 
377 411 80 410 
378 80 411 81 
411 80 114 81 
81 114 412 115 
378 412 379 81 
81 114 411 412 
378 412 81 411 
379 81 412 82 
412 81 115 82 
82 115 413 116 
379 413 380 82 
82 115 412 413 
379 413 82 412 
380 82 413 83 
413 82 116 83 
83 116 414 117 
380 414 381 83 
83 116 413 414 
380 414 83 413 
381 83 414 84 
414 83 117 84 
84 117 415 118 
381 415 382 84 
84 117 414 415 
381 415 84 414 
382 84 415 85 
415 84 118 85 
85 118 416 119 
382 416 383 85 
85 118 415 416 
382 416 85 415 
383 85 416 86 
416 85 119 86 
86 119 417 120 
383 417 384 86 
86 119 416 417 
383 417 86 416 
384 86 417 87 
417 86 120 87 
87 120 418 121 
384 418 385 87 
87 120 417 418 
384 418 87 417 
385 87 418 88 
418 87 121 88 
88 121 419 122 
385 419 386 88 
88 121 418 419 
385 419 88 418 
386 88 419 89 
419 88 122 89 
89 122 420 123 
386 420 387 89 
89 122 419 420 
386 420 89 419 
387 89 420 90 
420 89 123 90 
90 123 421 124 
387 421 388 90 
90 123 420 421 
387 421 90 420 
388 90 421 91 
421 90 124 91 
91 124 422 125 
388 422 389 91 
91 124 421 422 
388 422 91 421 
389 91 422 92 
422 91 125 92 
92 125 423 126 
389 423 390 92 
92 125 422 423 
389 423 92 422 
390 92 423 93 
423 92 126 93 
93 126 424 127 
390 424 391 93 
93 126 423 424 
390 424 93 423 
391 93 424 94 
424 93 127 94 
94 127 425 128 
391 425 392 94 
94 127 424 425 
391 425 94 424 
392 94 425 95 
425 94 128 95 
95 128 426 129 
392 426 393 95 
95 128 425 426 
392 426 95 425 
393 95 426 96 
426 95 129 96 
96 129 427 130 
393 427 394 96 
96 129 426 427 
393 427 96 426 
394 96 427 97 
427 96 130 97 
97 130 428 131 
394 428 395 97 
97 130 427 428 
394 428 97 427 
395 97 428 98 
428 97 131 98 
99 132 430 133 
396 430 397 99 
99 132 429 430 
396 430 99 429 
397 99 430 100 
430 99 133 100 
100 133 431 134 
397 431 398 100 
100 133 430 431 
397 431 100 430 
398 100 431 101 
431 100 134 101 
101 134 432 135 
398 432 399 101 
101 134 431 432 
398 432 101 431 
399 101 432 102 
432 101 135 102 
102 135 433 136 
399 433 400 102 
102 135 432 433 
399 433 102 432 
400 102 433 103 
433 102 136 103 
103 136 434 137 
400 434 401 103 
103 136 433 434 
400 434 103 433 
401 103 434 104 
434 103 137 104 
104 137 435 138 
401 435 402 104 
104 137 434 435 
401 435 104 434 
402 104 435 105 
435 104 138 105 
105 138 436 139 
402 436 403 105 
105 138 435 436 
402 436 105 435 
403 105 436 106 
436 105 139 106 
106 139 437 140 
403 437 404 106 
106 139 436 437 
403 437 106 436 
404 106 437 107 
437 106 140 107 
107 140 438 141 
404 438 405 107 
107 140 437 438 
404 438 107 437 
405 107 438 108 
438 107 141 108 
108 141 439 142 
405 439 406 108 
108 141 438 439 
405 439 108 438 
406 108 439 109 
439 108 142 109 
109 142 440 143 
406 440 407 109 
109 142 439 440 
406 440 109 439 
407 109 440 110 
440 109 143 110 
110 143 441 144 
407 441 408 110 
110 143 440 441 
407 441 110 440 
408 110 441 111 
441 110 144 111 
111 144 442 145 
408 442 409 111 
111 144 441 442 
408 442 111 441 
409 111 442 112 
442 111 145 112 
112 145 443 146 
409 443 410 112 
112 145 442 443 
409 443 112 442 
410 112 443 113 
443 112 146 113 
113 146 444 147 
410 444 411 113 
113 146 443 444 
410 444 113 443 
411 113 444 114 
444 113 147 114 
114 147 445 148 
411 445 412 114 
114 147 444 445 
411 445 114 444 
412 114 445 115 
445 114 148 115 
115 148 446 149 
412 446 413 115 
115 148 445 446 
412 446 115 445 
413 115 446 116 
446 115 149 116 
116 149 447 150 
413 447 414 116 
116 149 446 447 
413 447 116 446 
414 116 447 117 
447 116 150 117 
117 150 448 151 
414 448 415 117 
117 150 447 448 
414 448 117 447 
415 117 448 118 
448 117 151 118 
118 151 449 152 
415 449 416 118 
118 151 448 449 
415 449 118 448 
416 118 449 119 
449 118 152 119 
119 152 450 153 
416 450 417 119 
119 152 449 450 
416 450 119 449 
417 119 450 120 
450 119 153 120 
120 153 451 154 
417 451 418 120 
120 153 450 451 
417 451 120 450 
418 120 451 121 
451 120 154 121 
121 154 452 155 
418 452 419 121 
121 154 451 452 
418 452 121 451 
419 121 452 122 
452 121 155 122 
122 155 453 156 
419 453 420 122 
122 155 452 453 
419 453 122 452 
420 122 453 123 
453 122 156 123 
123 156 454 157 
420 454 421 123 
123 156 453 454 
420 454 123 453 
421 123 454 124 
454 123 157 124 
124 157 455 158 
421 455 422 124 
124 157 454 455 
421 455 124 454 
422 124 455 125 
455 124 158 125 
125 158 456 159 
422 456 423 125 
125 158 455 456 
422 456 125 455 
423 125 456 126 
456 125 159 126 
126 159 457 160 
423 457 424 126 
126 159 456 457 
423 457 126 456 
424 126 457 127 
457 126 160 127 
127 160 458 161 
424 458 425 127 
127 160 457 458 
424 458 127 457 
425 127 458 128 
458 127 161 128 
128 161 459 162 
425 459 426 128 
128 161 458 459 
425 459 128 458 
426 128 459 129 
459 128 162 129 
129 162 460 163 
426 460 427 129 
129 162 459 460 
426 460 129 459 
427 129 460 130 
460 129 163 130 
130 163 461 164 
427 461 428 130 
130 163 460 461 
427 461 130 460 
428 130 461 131 
461 130 164 131 
132 165 463 166 
429 463 430 132 
132 165 462 463 
429 463 132 462 
430 132 463 133 
463 132 166 133 
133 166 464 167 
430 464 431 133 
133 166 463 464 
430 464 133 463 
431 133 464 134 
464 133 167 134 
134 167 465 168 
431 465 432 134 
134 167 464 465 
431 465 134 464 
432 134 465 135 
465 134 168 135 
135 168 466 169 
432 466 433 135 
135 168 465 466 
432 466 135 465 
433 135 466 136 
466 135 169 136 
136 169 467 170 
433 467 434 136 
136 169 466 467 
433 467 136 466 
434 136 467 137 
467 136 170 137 
137 170 468 171 
434 468 435 137 
137 170 467 468 
434 468 137 467 
435 137 468 138 
468 137 171 138 
138 171 469 172 
435 469 436 138 
138 171 468 469 
435 469 138 468 
436 138 469 139 
469 138 172 139 
139 172 470 173 
436 470 437 139 
139 172 469 470 
436 470 139 469 
437 139 470 140 
470 139 173 140 
140 173 471 174 
437 471 438 140 
140 173 470 471 
437 471 140 470 
438 140 471 141 
471 140 174 141 
141 174 472 175 
438 472 439 141 
141 174 471 472 
438 472 141 471 
439 141 472 142 
472 141 175 142 
142 175 473 176 
439 473 440 142 
142 175 472 473 
439 473 142 472 
440 142 473 143 
473 142 176 143 
143 176 474 177 
440 474 441 143 
143 176 473 474 
440 474 143 473 
441 143 474 144 
474 143 177 144 
144 177 475 178 
441 475 442 144 
144 177 474 475 
441 475 144 474 
442 144 475 145 
475 144 178 145 
145 178 476 179 
442 476 443 145 
145 178 475 476 
442 476 145 475 
443 145 476 146 
476 145 179 146 
146 179 477 180 
443 477 444 146 
146 179 476 477 
443 477 146 476 
444 146 477 147 
477 146 180 147 
147 180 478 181 
444 478 445 147 
147 180 477 478 
444 478 147 477 
445 147 478 148 
478 147 181 148 
148 181 479 182 
445 479 446 148 
148 181 478 479 
445 479 148 478 
446 148 479 149 
479 148 182 149 
149 182 480 183 
446 480 447 149 
149 182 479 480 
446 480 149 479 
447 149 480 150 
480 149 183 150 
150 183 481 184 
447 481 448 150 
150 183 480 481 
447 481 150 480 
448 150 481 151 
481 150 184 151 
151 184 482 185 
448 482 449 151 
151 184 481 482 
448 482 151 481 
449 151 482 152 
482 151 185 152 
152 185 483 186 
449 483 450 152 
152 185 482 483 
449 483 152 482 
450 152 483 153 
483 152 186 153 
153 186 484 187 
450 484 451 153 
153 186 483 484 
450 484 153 483 
451 153 484 154 
484 153 187 154 
154 187 485 188 
451 485 452 154 
154 187 484 485 
451 485 154 484 
452 154 485 155 
485 154 188 155 
155 188 486 189 
452 486 453 155 
155 188 485 486 
452 486 155 485 
453 155 486 156 
486 155 189 156 
156 189 487 190 
453 487 454 156 
156 189 486 487 
453 487 156 486 
454 156 487 157 
487 156 190 157 
157 190 488 191 
454 488 455 157 
157 190 487 488 
454 488 157 487 
455 157 488 158 
488 157 191 158 
158 191 489 192 
455 489 456 158 
158 191 488 489 
455 489 158 488 
456 158 489 159 
489 158 192 159 
159 192 490 193 
456 490 457 159 
159 192 489 490 
456 490 159 489 
457 159 490 160 
490 159 193 160 
160 193 491 194 
457 491 458 160 
160 193 490 491 
457 491 160 490 
458 160 491 161 
491 160 194 161 
161 194 492 195 
458 492 459 161 
161 194 491 492 
458 492 161 491 
459 161 492 162 
492 161 195 162 
162 195 493 196 
459 493 460 162 
162 195 492 493 
459 493 162 492 
460 162 493 163 
493 162 196 163 
163 196 494 197 
460 494 461 163 
163 196 493 494 
460 494 163 493 
461 163 494 164 
494 163 197 164 
165 198 496 199 
462 496 463 165 
165 198 495 496 
462 496 165 495 
463 165 496 166 
496 165 199 166 
166 199 497 200 
463 497 464 166 
166 199 496 497 
463 497 166 496 
464 166 497 167 
497 166 200 167 
167 200 498 201 
464 498 465 167 
167 200 497 498 
464 498 167 497 
465 167 498 168 
498 167 201 168 
168 201 499 202 
465 499 466 168 
168 201 498 499 
465 499 168 498 
466 168 499 169 
499 168 202 169 
169 202 500 203 
466 500 467 169 
169 202 499 500 
466 500 169 499 
467 169 500 170 
500 169 203 170 
170 203 501 204 
467 501 468 170 
170 203 500 501 
467 501 170 500 
468 170 501 171 
501 170 204 171 
171 204 502 205 
468 502 469 171 
171 204 501 502 
468 502 171 501 
469 171 502 172 
502 171 205 172 
172 205 503 206 
469 503 470 172 
172 205 502 503 
469 503 172 502 
470 172 503 173 
503 172 206 173 
173 206 504 207 
470 504 471 173 
173 206 503 504 
470 504 173 503 
471 173 504 174 
504 173 207 174 
174 207 505 208 
471 505 472 174 
174 207 504 505 
471 505 174 504 
472 174 505 175 
505 174 208 175 
175 208 506 209 
472 506 473 175 
175 208 505 506 
472 506 175 505 
473 175 506 176 
506 175 209 176 
176 209 507 210 
473 507 474 176 
176 209 506 507 
473 507 176 506 
474 176 507 177 
507 176 210 177 
177 210 508 211 
474 508 475 177 
177 210 507 508 
474 508 177 507 
475 177 508 178 
508 177 211 178 
178 211 509 212 
475 509 476 178 
178 211 508 509 
475 509 178 508 
476 178 509 179 
509 178 212 179 
179 212 510 213 
476 510 477 179 
179 212 509 510 
476 510 179 509 
477 179 510 180 
510 179 213 180 
180 213 511 214 
477 511 478 180 
180 213 510 511 
477 511 180 510 
478 180 511 181 
511 180 214 181 
181 214 512 215 
478 512 479 181 
181 214 511 512 
478 512 181 511 
479 181 512 182 
512 181 215 182 
182 215 513 216 
479 513 480 182 
182 215 512 513 
479 513 182 512 
480 182 513 183 
513 182 216 183 
183 216 514 217 
480 514 481 183 
183 216 513 514 
480 514 183 513 
481 183 514 184 
514 183 217 184 
184 217 515 218 
481 515 482 184 
184 217 514 515 
481 515 184 514 
482 184 515 185 
515 184 218 185 
185 218 516 219 
482 516 483 185 
185 218 515 516 
482 516 185 515 
483 185 516 186 
516 185 219 186 
186 219 517 220 
483 517 484 186 
186 219 516 517 
483 517 186 516 
484 186 517 187 
517 186 220 187 
187 220 518 221 
484 518 485 187 
187 220 517 518 
484 518 187 517 
485 187 518 188 
518 187 221 188 
188 221 519 222 
485 519 486 188 
188 221 518 519 
485 519 188 518 
486 188 519 189 
519 188 222 189 
189 222 520 223 
486 520 487 189 
189 222 519 520 
486 520 189 519 
487 189 520 190 
520 189 223 190 
190 223 521 224 
487 521 488 190 
190 223 520 521 
487 521 190 520 
488 190 521 191 
521 190 224 191 
191 224 522 225 
488 522 489 191 
191 224 521 522 
488 522 191 521 
489 191 522 192 
522 191 225 192 
192 225 523 226 
489 523 490 192 
192 225 522 523 
489 523 192 522 
490 192 523 193 
523 192 226 193 
193 226 524 227 
490 524 491 193 
193 226 523 524 
490 524 193 523 
491 193 524 194 
524 193 227 194 
194 227 525 228 
491 525 492 194 
194 227 524 525 
491 525 194 524 
492 194 525 195 
525 194 228 195 
195 228 526 229 
492 526 493 195 
195 228 525 526 
492 526 195 525 
493 195 526 196 
526 195 229 196 
196 229 527 230 
493 527 494 196 
196 229 526 527 
493 527 196 526 
494 196 527 197 
527 196 230 197 
198 231 529 232 
495 529 496 198 
198 231 528 529 
495 529 198 528 
496 198 529 199 
529 198 232 199 
199 232 530 233 
496 530 497 199 
199 232 529 530 
496 530 199 529 
497 199 530 200 
530 199 233 200 
200 233 531 234 
497 531 498 200 
200 233 530 531 
497 531 200 530 
498 200 531 201 
531 200 234 201 
201 234 532 235 
498 532 499 201 
201 234 531 532 
498 532 201 531 
499 201 532 202 
532 201 235 202 
202 235 533 236 
499 533 500 202 
202 235 532 533 
499 533 202 532 
500 202 533 203 
533 202 236 203 
203 236 534 237 
500 534 501 203 
203 236 533 534 
500 534 203 533 
501 203 534 204 
534 203 237 204 
204 237 535 238 
501 535 502 204 
204 237 534 535 
501 535 204 534 
502 204 535 205 
535 204 238 205 
205 238 536 239 
502 536 503 205 
205 238 535 536 
502 536 205 535 
503 205 536 206 
536 205 239 206 
206 239 537 240 
503 537 504 206 
206 239 536 537 
503 537 206 536 
504 206 537 207 
537 206 240 207 
207 240 538 241 
504 538 505 207 
207 240 537 538 
504 538 207 537 
505 207 538 208 
538 207 241 208 
208 241 539 242 
505 539 506 208 
208 241 538 539 
505 539 208 538 
506 208 539 209 
539 208 242 209 
209 242 540 243 
506 540 507 209 
209 242 539 540 
506 540 209 539 
507 209 540 210 
540 209 243 210 
210 243 541 244 
507 541 508 210 
210 243 540 541 
507 541 210 540 
508 210 541 211 
541 210 244 211 
211 244 542 245 
508 542 509 211 
211 244 541 542 
508 542 211 541 
509 211 542 212 
542 211 245 212 
212 245 543 246 
509 543 510 212 
212 245 542 543 
509 543 212 542 
510 212 543 213 
543 212 246 213 
213 246 544 247 
510 544 511 213 
213 246 543 544 
510 544 213 543 
511 213 544 214 
544 213 247 214 
214 247 545 248 
511 545 512 214 
214 247 544 545 
511 545 214 544 
512 214 545 215 
545 214 248 215 
215 248 546 249 
512 546 513 215 
215 248 545 546 
512 546 215 545 
513 215 546 216 
546 215 249 216 
216 249 547 250 
513 547 514 216 
216 249 546 547 
513 547 216 546 
514 216 547 217 
547 216 250 217 
217 250 548 251 
514 548 515 217 
217 250 547 548 
514 548 217 547 
515 217 548 218 
548 217 251 218 
218 251 549 252 
515 549 516 218 
218 251 548 549 
515 549 218 548 
516 218 549 219 
549 218 252 219 
219 252 550 253 
516 550 517 219 
219 252 549 550 
516 550 219 549 
517 219 550 220 
550 219 253 220 
220 253 551 254 
517 551 518 220 
220 253 550 551 
517 551 220 550 
518 220 551 221 
551 220 254 221 
221 254 552 255 
518 552 519 221 
221 254 551 552 
518 552 221 551 
519 221 552 222 
552 221 255 222 
222 255 553 256 
519 553 520 222 
222 255 552 553 
519 553 222 552 
520 222 553 223 
553 222 256 223 
223 256 554 257 
520 554 521 223 
223 256 553 554 
520 554 223 553 
521 223 554 224 
554 223 257 224 
224 257 555 258 
521 555 522 224 
224 257 554 555 
521 555 224 554 
522 224 555 225 
555 224 258 225 
225 258 556 259 
522 556 523 225 
225 258 555 556 
522 556 225 555 
523 225 556 226 
556 225 259 226 
226 259 557 260 
523 557 524 226 
226 259 556 557 
523 557 226 556 
524 226 557 227 
557 226 260 227 
227 260 558 261 
524 558 525 227 
227 260 557 558 
524 558 227 557 
525 227 558 228 
558 227 261 228 
228 261 559 262 
525 559 526 228 
228 261 558 559 
525 559 228 558 
526 228 559 229 
559 228 262 229 
229 262 560 263 
526 560 527 229 
229 262 559 560 
526 560 229 559 
527 229 560 230 
560 229 263 230 
231 264 562 265 
528 562 529 231 
231 264 561 562 
528 562 231 561 
529 231 562 232 
562 231 265 232 
232 265 563 266 
529 563 530 232 
232 265 562 563 
529 563 232 562 
530 232 563 233 
563 232 266 233 
233 266 564 267 
530 564 531 233 
233 266 563 564 
530 564 233 563 
531 233 564 234 
564 233 267 234 
234 267 565 268 
531 565 532 234 
234 267 564 565 
531 565 234 564 
532 234 565 235 
565 234 268 235 
235 268 566 269 
532 566 533 235 
235 268 565 566 
532 566 235 565 
533 235 566 236 
566 235 269 236 
236 269 567 270 
533 567 534 236 
236 269 566 567 
533 567 236 566 
534 236 567 237 
567 236 270 237 
237 270 568 271 
534 568 535 237 
237 270 567 568 
534 568 237 567 
535 237 568 238 
568 237 271 238 
238 271 569 272 
535 569 536 238 
238 271 568 569 
535 569 238 568 
536 238 569 239 
569 238 272 239 
239 272 570 273 
536 570 537 239 
239 272 569 570 
536 570 239 569 
537 239 570 240 
570 239 273 240 
240 273 571 274 
537 571 538 240 
240 273 570 571 
537 571 240 570 
538 240 571 241 
571 240 274 241 
241 274 572 275 
538 572 539 241 
241 274 571 572 
538 572 241 571 
539 241 572 242 
572 241 275 242 
242 275 573 276 
539 573 540 242 
242 275 572 573 
539 573 242 572 
540 242 573 243 
573 242 276 243 
243 276 574 277 
540 574 541 243 
243 276 573 574 
540 574 243 573 
541 243 574 244 
574 243 277 244 
244 277 575 278 
541 575 542 244 
244 277 574 575 
541 575 244 574 
542 244 575 245 
575 244 278 245 
245 278 576 279 
542 576 543 245 
245 278 575 576 
542 576 245 575 
543 245 576 246 
576 245 279 246 
246 279 577 280 
543 577 544 246 
246 279 576 577 
543 577 246 576 
544 246 577 247 
577 246 280 247 
247 280 578 281 
544 578 545 247 
247 280 577 578 
544 578 247 577 
545 247 578 248 
578 247 281 248 
248 281 579 282 
545 579 546 248 
248 281 578 579 
545 579 248 578 
546 248 579 249 
579 248 282 249 
249 282 580 283 
546 580 547 249 
249 282 579 580 
546 580 249 579 
547 249 580 250 
580 249 283 250 
250 283 581 284 
547 581 548 250 
250 283 580 581 
547 581 250 580 
548 250 581 251 
581 250 284 251 
251 284 582 285 
548 582 549 251 
251 284 581 582 
548 582 251 581 
549 251 582 252 
582 251 285 252 
252 285 583 286 
549 583 550 252 
252 285 582 583 
549 583 252 582 
550 252 583 253 
583 252 286 253 
253 286 584 287 
550 584 551 253 
253 286 583 584 
550 584 253 583 
551 253 584 254 
584 253 287 254 
254 287 585 288 
551 585 552 254 
254 287 584 585 
551 585 254 584 
552 254 585 255 
585 254 288 255 
255 288 586 289 
552 586 553 255 
255 288 585 586 
552 586 255 585 
553 255 586 256 
586 255 289 256 
256 289 587 290 
553 587 554 256 
256 289 586 587 
553 587 256 586 
554 256 587 257 
587 256 290 257 
257 290 588 291 
554 588 555 257 
257 290 587 588 
554 588 257 587 
555 257 588 258 
588 257 291 258 
258 291 589 292 
555 589 556 258 
258 291 588 589 
555 589 258 588 
556 258 589 259 
589 258 292 259 
259 292 590 293 
556 590 557 259 
259 292 589 590 
556 590 259 589 
557 259 590 260 
590 259 293 260 
260 293 591 294 
557 591 558 260 
260 293 590 591 
557 591 260 590 
558 260 591 261 
591 260 294 261 
261 294 592 295 
558 592 559 261 
261 294 591 592 
558 592 261 591 
559 261 592 262 
592 261 295 262 
262 295 593 296 
559 593 560 262 
262 295 592 593 
559 593 262 592 
560 262 593 263 
593 262 296 263 
297 330 628 331 
594 628 595 297 
297 330 627 628 
594 628 297 627 
595 297 628 298 
628 297 331 298 
298 331 629 332 
595 629 596 298 
298 331 628 629 
595 629 298 628 
596 298 629 299 
629 298 332 299 
299 332 630 333 
596 630 597 299 
299 332 629 630 
596 630 299 629 
597 299 630 300 
630 299 333 300 
300 333 631 334 
597 631 598 300 
300 333 630 631 
597 631 300 630 
598 300 631 301 
631 300 334 301 
301 334 632 335 
598 632 599 301 
301 334 631 632 
598 632 301 631 
599 301 632 302 
632 301 335 302 
302 335 633 336 
599 633 600 302 
302 335 632 633 
599 633 302 632 
600 302 633 303 
633 302 336 303 
303 336 634 337 
600 634 601 303 
303 336 633 634 
600 634 303 633 
601 303 634 304 
634 303 337 304 
304 337 635 338 
601 635 602 304 
304 337 634 635 
601 635 304 634 
602 304 635 305 
635 304 338 305 
305 338 636 339 
602 636 603 305 
305 338 635 636 
602 636 305 635 
603 305 636 306 
636 305 339 306 
306 339 637 340 
603 637 604 306 
306 339 636 637 
603 637 306 636 
604 306 637 307 
637 306 340 307 
307 340 638 341 
604 638 605 307 
307 340 637 638 
604 638 307 637 
605 307 638 308 
638 307 341 308 
308 341 639 342 
605 639 606 308 
308 341 638 639 
605 639 308 638 
606 308 639 309 
639 308 342 309 
309 342 640 343 
606 640 607 309 
309 342 639 640 
606 640 309 639 
607 309 640 310 
640 309 343 310 
310 343 641 344 
607 641 608 310 
310 343 640 641 
607 641 310 640 
608 310 641 311 
641 310 344 311 
311 344 642 345 
608 642 609 311 
311 344 641 642 
608 642 311 641 
609 311 642 312 
642 311 345 312 
312 345 643 346 
609 643 610 312 
312 345 642 643 
609 643 312 642 
610 312 643 313 
643 312 346 313 
313 346 644 347 
610 644 611 313 
313 346 643 644 
610 644 313 643 
611 313 644 314 
644 313 347 314 
314 347 645 348 
611 645 612 314 
314 347 644 645 
611 645 314 644 
612 314 645 315 
645 314 348 315 
315 348 646 349 
612 646 613 315 
315 348 645 646 
612 646 315 645 
613 315 646 316 
646 315 349 316 
316 349 647 350 
613 647 614 316 
316 349 646 647 
613 647 316 646 
614 316 647 317 
647 316 350 317 
317 350 648 351 
614 648 615 317 
317 350 647 648 
614 648 317 647 
615 317 648 318 
648 317 351 318 
318 351 649 352 
615 649 616 318 
318 351 648 649 
615 649 318 648 
616 318 649 319 
649 318 352 319 
319 352 650 353 
616 650 617 319 
319 352 649 650 
616 650 319 649 
617 319 650 320 
650 319 353 320 
320 353 651 354 
617 651 618 320 
320 353 650 651 
617 651 320 650 
618 320 651 321 
651 320 354 321 
321 354 652 355 
618 652 619 321 
321 354 651 652 
618 652 321 651 
619 321 652 322 
652 321 355 322 
322 355 653 356 
619 653 620 322 
322 355 652 653 
619 653 322 652 
620 322 653 323 
653 322 356 323 
323 356 654 357 
620 654 621 323 
323 356 653 654 
620 654 323 653 
621 323 654 324 
654 323 357 324 
324 357 655 358 
621 655 622 324 
324 357 654 655 
621 655 324 654 
622 324 655 325 
655 324 358 325 
325 358 656 359 
622 656 623 325 
325 358 655 656 
622 656 325 655 
623 325 656 326 
656 325 359 326 
326 359 657 360 
623 657 624 326 
326 359 656 657 
623 657 326 656 
624 326 657 327 
657 326 360 327 
327 360 658 361 
624 658 625 327 
327 360 657 658 
624 658 327 657 
625 327 658 328 
658 327 361 328 
328 361 659 362 
625 659 626 328 
328 361 658 659 
625 659 328 658 
626 328 659 329 
659 328 362 329 
330 363 661 364 
627 661 628 330 
330 363 660 661 
627 661 330 660 
628 330 661 331 
661 330 364 331 
331 364 662 365 
628 662 629 331 
331 364 661 662 
628 662 331 661 
629 331 662 332 
662 331 365 332 
332 365 663 366 
629 663 630 332 
332 365 662 663 
629 663 332 662 
630 332 663 333 
663 332 366 333 
333 366 664 367 
630 664 631 333 
333 366 663 664 
630 664 333 663 
631 333 664 334 
664 333 367 334 
334 367 665 368 
631 665 632 334 
334 367 664 665 
631 665 334 664 
632 334 665 335 
665 334 368 335 
335 368 666 369 
632 666 633 335 
335 368 665 666 
632 666 335 665 
633 335 666 336 
666 335 369 336 
336 369 667 370 
633 667 634 336 
336 369 666 667 
633 667 336 666 
634 336 667 337 
667 336 370 337 
337 370 668 371 
634 668 635 337 
337 370 667 668 
634 668 337 667 
635 337 668 338 
668 337 371 338 
338 371 669 372 
635 669 636 338 
338 371 668 669 
635 669 338 668 
636 338 669 339 
669 338 372 339 
339 372 670 373 
636 670 637 339 
339 372 669 670 
636 670 339 669 
637 339 670 340 
670 339 373 340 
340 373 671 374 
637 671 638 340 
340 373 670 671 
637 671 340 670 
638 340 671 341 
671 340 374 341 
341 374 672 375 
638 672 639 341 
341 374 671 672 
638 672 341 671 
639 341 672 342 
672 341 375 342 
342 375 673 376 
639 673 640 342 
342 375 672 673 
639 673 342 672 
640 342 673 343 
673 342 376 343 
343 376 674 377 
640 674 641 343 
343 376 673 674 
640 674 343 673 
641 343 674 344 
674 343 377 344 
344 377 675 378 
641 675 642 344 
344 377 674 675 
641 675 344 674 
642 344 675 345 
675 344 378 345 
345 378 676 379 
642 676 643 345 
345 378 675 676 
642 676 345 675 
643 345 676 346 
676 345 379 346 
346 379 677 380 
643 677 644 346 
346 379 676 677 
643 677 346 676 
644 346 677 347 
677 346 380 347 
347 380 678 381 
644 678 645 347 
347 380 677 678 
644 678 347 677 
645 347 678 348 
678 347 381 348 
348 381 679 382 
645 679 646 348 
348 381 678 679 
645 679 348 678 
646 348 679 349 
679 348 382 349 
349 382 680 383 
646 680 647 349 
349 382 679 680 
646 680 349 679 
647 349 680 350 
680 349 383 350 
350 383 681 384 
647 681 648 350 
350 383 680 681 
647 681 350 680 
648 350 681 351 
681 350 384 351 
351 384 682 385 
648 682 649 351 
351 384 681 682 
648 682 351 681 
649 351 682 352 
682 351 385 352 
352 385 683 386 
649 683 650 352 
352 385 682 683 
649 683 352 682 
650 352 683 353 
683 352 386 353 
353 386 684 387 
650 684 651 353 
353 386 683 684 
650 684 353 683 
651 353 684 354 
684 353 387 354 
354 387 685 388 
651 685 652 354 
354 387 684 685 
651 685 354 684 
652 354 685 355 
685 354 388 355 
355 388 686 389 
652 686 653 355 
355 388 685 686 
652 686 355 685 
653 355 686 356 
686 355 389 356 
356 389 687 390 
653 687 654 356 
356 389 686 687 
653 687 356 686 
654 356 687 357 
687 356 390 357 
357 390 688 391 
654 688 655 357 
357 390 687 688 
654 688 357 687 
655 357 688 358 
688 357 391 358 
358 391 689 392 
655 689 656 358 
358 391 688 689 
655 689 358 688 
656 358 689 359 
689 358 392 359 
359 392 690 393 
656 690 657 359 
359 392 689 690 
656 690 359 689 
657 359 690 360 
690 359 393 360 
360 393 691 394 
657 691 658 360 
360 393 690 691 
657 691 360 690 
658 360 691 361 
691 360 394 361 
361 394 692 395 
658 692 659 361 
361 394 691 692 
658 692 361 691 
659 361 692 362 
692 361 395 362 
363 396 694 397 
660 694 661 363 
363 396 693 694 
660 694 363 693 
661 363 694 364 
694 363 397 364 
364 397 695 398 
661 695 662 364 
364 397 694 695 
661 695 364 694 
662 364 695 365 
695 364 398 365 
365 398 696 399 
662 696 663 365 
365 398 695 696 
662 696 365 695 
663 365 696 366 
696 365 399 366 
366 399 697 400 
663 697 664 366 
366 399 696 697 
663 697 366 696 
664 366 697 367 
697 366 400 367 
367 400 698 401 
664 698 665 367 
367 400 697 698 
664 698 367 697 
665 367 698 368 
698 367 401 368 
368 401 699 402 
665 699 666 368 
368 401 698 699 
665 699 368 698 
666 368 699 369 
699 368 402 369 
369 402 700 403 
666 700 667 369 
369 402 699 700 
666 700 369 699 
667 369 700 370 
700 369 403 370 
370 403 701 404 
667 701 668 370 
370 403 700 701 
667 701 370 700 
668 370 701 371 
701 370 404 371 
371 404 702 405 
668 702 669 371 
371 404 701 702 
668 702 371 701 
669 371 702 372 
702 371 405 372 
372 405 703 406 
669 703 670 372 
372 405 702 703 
669 703 372 702 
670 372 703 373 
703 372 406 373 
373 406 704 407 
670 704 671 373 
373 406 703 704 
670 704 373 703 
671 373 704 374 
704 373 407 374 
374 407 705 408 
671 705 672 374 
374 407 704 705 
671 705 374 704 
672 374 705 375 
705 374 408 375 
375 408 706 409 
672 706 673 375 
375 408 705 706 
672 706 375 705 
673 375 706 376 
706 375 409 376 
376 409 707 410 
673 707 674 376 
376 409 706 707 
673 707 376 706 
674 376 707 377 
707 376 410 377 
377 410 708 411 
674 708 675 377 
377 410 707 708 
674 708 377 707 
675 377 708 378 
708 377 411 378 
378 411 709 412 
675 709 676 378 
378 411 708 709 
675 709 378 708 
676 378 709 379 
709 378 412 379 
379 412 710 413 
676 710 677 379 
379 412 709 710 
676 710 379 709 
677 379 710 380 
710 379 413 380 
380 413 711 414 
677 711 678 380 
380 413 710 711 
677 711 380 710 
678 380 711 381 
711 380 414 381 
381 414 712 415 
678 712 679 381 
381 414 711 712 
678 712 381 711 
679 381 712 382 
712 381 415 382 
382 415 713 416 
679 713 680 382 
382 415 712 713 
679 713 382 712 
680 382 713 383 
713 382 416 383 
383 416 714 417 
680 714 681 383 
383 416 713 714 
680 714 383 713 
681 383 714 384 
714 383 417 384 
384 417 715 418 
681 715 682 384 
384 417 714 715 
681 715 384 714 
682 384 715 385 
715 384 418 385 
385 418 716 419 
682 716 683 385 
385 418 715 716 
682 716 385 715 
683 385 716 386 
716 385 419 386 
386 419 717 420 
683 717 684 386 
386 419 716 717 
683 717 386 716 
684 386 717 387 
717 386 420 387 
387 420 718 421 
684 718 685 387 
387 420 717 718 
684 718 387 717 
685 387 718 388 
718 387 421 388 
388 421 719 422 
685 719 686 388 
388 421 718 719 
685 719 388 718 
686 388 719 389 
719 388 422 389 
389 422 720 423 
686 720 687 389 
389 422 719 720 
686 720 389 719 
687 389 720 390 
720 389 423 390 
390 423 721 424 
687 721 688 390 
390 423 720 721 
687 721 390 720 
688 390 721 391 
721 390 424 391 
391 424 722 425 
688 722 689 391 
391 424 721 722 
688 722 391 721 
689 391 722 392 
722 391 425 392 
392 425 723 426 
689 723 690 392 
392 425 722 723 
689 723 392 722 
690 392 723 393 
723 392 426 393 
393 426 724 427 
690 724 691 393 
393 426 723 724 
690 724 393 723 
691 393 724 394 
724 393 427 394 
394 427 725 428 
691 725 692 394 
394 427 724 725 
691 725 394 724 
692 394 725 395 
725 394 428 395 
396 429 727 430 
693 727 694 396 
396 429 726 727 
693 727 396 726 
694 396 727 397 
727 396 430 397 
397 430 728 431 
694 728 695 397 
397 430 727 728 
694 728 397 727 
695 397 728 398 
728 397 431 398 
398 431 729 432 
695 729 696 398 
398 431 728 729 
695 729 398 728 
696 398 729 399 
729 398 432 399 
399 432 730 433 
696 730 697 399 
399 432 729 730 
696 730 399 729 
697 399 730 400 
730 399 433 400 
400 433 731 434 
697 731 698 400 
400 433 730 731 
697 731 400 730 
698 400 731 401 
731 400 434 401 
401 434 732 435 
698 732 699 401 
401 434 731 732 
698 732 401 731 
699 401 732 402 
732 401 435 402 
402 435 733 436 
699 733 700 402 
402 435 732 733 
699 733 402 732 
700 402 733 403 
733 402 436 403 
403 436 734 437 
700 734 701 403 
403 436 733 734 
700 734 403 733 
701 403 734 404 
734 403 437 404 
404 437 735 438 
701 735 702 404 
404 437 734 735 
701 735 404 734 
702 404 735 405 
735 404 438 405 
405 438 736 439 
702 736 703 405 
405 438 735 736 
702 736 405 735 
703 405 736 406 
736 405 439 406 
406 439 737 440 
703 737 704 406 
406 439 736 737 
703 737 406 736 
704 406 737 407 
737 406 440 407 
407 440 738 441 
704 738 705 407 
407 440 737 738 
704 738 407 737 
705 407 738 408 
738 407 441 408 
408 441 739 442 
705 739 706 408 
408 441 738 739 
705 739 408 738 
706 408 739 409 
739 408 442 409 
409 442 740 443 
706 740 707 409 
409 442 739 740 
706 740 409 739 
707 409 740 410 
740 409 443 410 
410 443 741 444 
707 741 708 410 
410 443 740 741 
707 741 410 740 
708 410 741 411 
741 410 444 411 
411 444 742 445 
708 742 709 411 
411 444 741 742 
708 742 411 741 
709 411 742 412 
742 411 445 412 
412 445 743 446 
709 743 710 412 
412 445 742 743 
709 743 412 742 
710 412 743 413 
743 412 446 413 
413 446 744 447 
710 744 711 413 
413 446 743 744 
710 744 413 743 
711 413 744 414 
744 413 447 414 
414 447 745 448 
711 745 712 414 
414 447 744 745 
711 745 414 744 
712 414 745 415 
745 414 448 415 
415 448 746 449 
712 746 713 415 
415 448 745 746 
712 746 415 745 
713 415 746 416 
746 415 449 416 
416 449 747 450 
713 747 714 416 
416 449 746 747 
713 747 416 746 
714 416 747 417 
747 416 450 417 
417 450 748 451 
714 748 715 417 
417 450 747 748 
714 748 417 747 
715 417 748 418 
748 417 451 418 
418 451 749 452 
715 749 716 418 
418 451 748 749 
715 749 418 748 
716 418 749 419 
749 418 452 419 
419 452 750 453 
716 750 717 419 
419 452 749 750 
716 750 419 749 
717 419 750 420 
750 419 453 420 
420 453 751 454 
717 751 718 420 
420 453 750 751 
717 751 420 750 
718 420 751 421 
751 420 454 421 
421 454 752 455 
718 752 719 421 
421 454 751 752 
718 752 421 751 
719 421 752 422 
752 421 455 422 
422 455 753 456 
719 753 720 422 
422 455 752 753 
719 753 422 752 
720 422 753 423 
753 422 456 423 
423 456 754 457 
720 754 721 423 
423 456 753 754 
720 754 423 753 
721 423 754 424 
754 423 457 424 
424 457 755 458 
721 755 722 424 
424 457 754 755 
721 755 424 754 
722 424 755 425 
755 424 458 425 
425 458 756 459 
722 756 723 425 
425 458 755 756 
722 756 425 755 
723 425 756 426 
756 425 459 426 
426 459 757 460 
723 757 724 426 
426 459 756 757 
723 757 426 756 
724 426 757 427 
757 426 460 427 
427 460 758 461 
724 758 725 427 
427 460 757 758 
724 758 427 757 
725 427 758 428 
758 427 461 428 
429 462 760 463 
726 760 727 429 
429 462 759 760 
726 760 429 759 
727 429 760 430 
760 429 463 430 
430 463 761 464 
727 761 728 430 
430 463 760 761 
727 761 430 760 
728 430 761 431 
761 430 464 431 
431 464 762 465 
728 762 729 431 
431 464 761 762 
728 762 431 761 
729 431 762 432 
762 431 465 432 
432 465 763 466 
729 763 730 432 
432 465 762 763 
729 763 432 762 
730 432 763 433 
763 432 466 433 
433 466 764 467 
730 764 731 433 
433 466 763 764 
730 764 433 763 
731 433 764 434 
764 433 467 434 
434 467 765 468 
731 765 732 434 
434 467 764 765 
731 765 434 764 
732 434 765 435 
765 434 468 435 
435 468 766 469 
732 766 733 435 
435 468 765 766 
732 766 435 765 
733 435 766 436 
766 435 469 436 
436 469 767 470 
733 767 734 436 
436 469 766 767 
733 767 436 766 
734 436 767 437 
767 436 470 437 
437 470 768 471 
734 768 735 437 
437 470 767 768 
734 768 437 767 
735 437 768 438 
768 437 471 438 
438 471 769 472 
735 769 736 438 
438 471 768 769 
735 769 438 768 
736 438 769 439 
769 438 472 439 
439 472 770 473 
736 770 737 439 
439 472 769 770 
736 770 439 769 
737 439 770 440 
770 439 473 440 
440 473 771 474 
737 771 738 440 
440 473 770 771 
737 771 440 770 
738 440 771 441 
771 440 474 441 
441 474 772 475 
738 772 739 441 
441 474 771 772 
738 772 441 771 
739 441 772 442 
772 441 475 442 
442 475 773 476 
739 773 740 442 
442 475 772 773 
739 773 442 772 
740 442 773 443 
773 442 476 443 
443 476 774 477 
740 774 741 443 
443 476 773 774 
740 774 443 773 
741 443 774 444 
774 443 477 444 
444 477 775 478 
741 775 742 444 
444 477 774 775 
741 775 444 774 
742 444 775 445 
775 444 478 445 
445 478 776 479 
742 776 743 445 
445 478 775 776 
742 776 445 775 
743 445 776 446 
776 445 479 446 
446 479 777 480 
743 777 744 446 
446 479 776 777 
743 777 446 776 
744 446 777 447 
777 446 480 447 
447 480 778 481 
744 778 745 447 
447 480 777 778 
744 778 447 777 
745 447 778 448 
778 447 481 448 
448 481 779 482 
745 779 746 448 
448 481 778 779 
745 779 448 778 
746 448 779 449 
779 448 482 449 
449 482 780 483 
746 780 747 449 
449 482 779 780 
746 780 449 779 
747 449 780 450 
780 449 483 450 
450 483 781 484 
747 781 748 450 
450 483 780 781 
747 781 450 780 
748 450 781 451 
781 450 484 451 
451 484 782 485 
748 782 749 451 
451 484 781 782 
748 782 451 781 
749 451 782 452 
782 451 485 452 
452 485 783 486 
749 783 750 452 
452 485 782 783 
749 783 452 782 
750 452 783 453 
783 452 486 453 
453 486 784 487 
750 784 751 453 
453 486 783 784 
750 784 453 783 
751 453 784 454 
784 453 487 454 
454 487 785 488 
751 785 752 454 
454 487 784 785 
751 785 454 784 
752 454 785 455 
785 454 488 455 
455 488 786 489 
752 786 753 455 
455 488 785 786 
752 786 455 785 
753 455 786 456 
786 455 489 456 
456 489 787 490 
753 787 754 456 
456 489 786 787 
753 787 456 786 
754 456 787 457 
787 456 490 457 
457 490 788 491 
754 788 755 457 
457 490 787 788 
754 788 457 787 
755 457 788 458 
788 457 491 458 
458 491 789 492 
755 789 756 458 
458 491 788 789 
755 789 458 788 
756 458 789 459 
789 458 492 459 
459 492 790 493 
756 790 757 459 
459 492 789 790 
756 790 459 789 
757 459 790 460 
790 459 493 460 
460 493 791 494 
757 791 758 460 
460 493 790 791 
757 791 460 790 
758 460 791 461 
791 460 494 461 
462 495 793 496 
759 793 760 462 
462 495 792 793 
759 793 462 792 
760 462 793 463 
793 462 496 463 
463 496 794 497 
760 794 761 463 
463 496 793 794 
760 794 463 793 
761 463 794 464 
794 463 497 464 
464 497 795 498 
761 795 762 464 
464 497 794 795 
761 795 464 794 
762 464 795 465 
795 464 498 465 
465 498 796 499 
762 796 763 465 
465 498 795 796 
762 796 465 795 
763 465 796 466 
796 465 499 466 
466 499 797 500 
763 797 764 466 
466 499 796 797 
763 797 466 796 
764 466 797 467 
797 466 500 467 
467 500 798 501 
764 798 765 467 
467 500 797 798 
764 798 467 797 
765 467 798 468 
798 467 501 468 
468 501 799 502 
765 799 766 468 
468 501 798 799 
765 799 468 798 
766 468 799 469 
799 468 502 469 
469 502 800 503 
766 800 767 469 
469 502 799 800 
766 800 469 799 
767 469 800 470 
800 469 503 470 
470 503 801 504 
767 801 768 470 
470 503 800 801 
767 801 470 800 
768 470 801 471 
801 470 504 471 
471 504 802 505 
768 802 769 471 
471 504 801 802 
768 802 471 801 
769 471 802 472 
802 471 505 472 
472 505 803 506 
769 803 770 472 
472 505 802 803 
769 803 472 802 
770 472 803 473 
803 472 506 473 
473 506 804 507 
770 804 771 473 
473 506 803 804 
770 804 473 803 
771 473 804 474 
804 473 507 474 
474 507 805 508 
771 805 772 474 
474 507 804 805 
771 805 474 804 
772 474 805 475 
805 474 508 475 
475 508 806 509 
772 806 773 475 
475 508 805 806 
772 806 475 805 
773 475 806 476 
806 475 509 476 
476 509 807 510 
773 807 774 476 
476 509 806 807 
773 807 476 806 
774 476 807 477 
807 476 510 477 
477 510 808 511 
774 808 775 477 
477 510 807 808 
774 808 477 807 
775 477 808 478 
808 477 511 478 
478 511 809 512 
775 809 776 478 
478 511 808 809 
775 809 478 808 
776 478 809 479 
809 478 512 479 
479 512 810 513 
776 810 777 479 
479 512 809 810 
776 810 479 809 
777 479 810 480 
810 479 513 480 
480 513 811 514 
777 811 778 480 
480 513 810 811 
777 811 480 810 
778 480 811 481 
811 480 514 481 
481 514 812 515 
778 812 779 481 
481 514 811 812 
778 812 481 811 
779 481 812 482 
812 481 515 482 
482 515 813 516 
779 813 780 482 
482 515 812 813 
779 813 482 812 
780 482 813 483 
813 482 516 483 
483 516 814 517 
780 814 781 483 
483 516 813 814 
780 814 483 813 
781 483 814 484 
814 483 517 484 
484 517 815 518 
781 815 782 484 
484 517 814 815 
781 815 484 814 
782 484 815 485 
815 484 518 485 
485 518 816 519 
782 816 783 485 
485 518 815 816 
782 816 485 815 
783 485 816 486 
816 485 519 486 
486 519 817 520 
783 817 784 486 
486 519 816 817 
783 817 486 816 
784 486 817 487 
817 486 520 487 
487 520 818 521 
784 818 785 487 
487 520 817 818 
784 818 487 817 
785 487 818 488 
818 487 521 488 
488 521 819 522 
785 819 786 488 
488 521 818 819 
785 819 488 818 
786 488 819 489 
819 488 522 489 
489 522 820 523 
786 820 787 489 
489 522 819 820 
786 820 489 819 
787 489 820 490 
820 489 523 490 
490 523 821 524 
787 821 788 490 
490 523 820 821 
787 821 490 820 
788 490 821 491 
821 490 524 491 
491 524 822 525 
788 822 789 491 
491 524 821 822 
788 822 491 821 
789 491 822 492 
822 491 525 492 
492 525 823 526 
789 823 790 492 
492 525 822 823 
789 823 492 822 
790 492 823 493 
823 492 526 493 
493 526 824 527 
790 824 791 493 
493 526 823 824 
790 824 493 823 
791 493 824 494 
824 493 527 494 
495 528 826 529 
792 826 793 495 
495 528 825 826 
792 826 495 825 
793 495 826 496 
826 495 529 496 
496 529 827 530 
793 827 794 496 
496 529 826 827 
793 827 496 826 
794 496 827 497 
827 496 530 497 
497 530 828 531 
794 828 795 497 
497 530 827 828 
794 828 497 827 
795 497 828 498 
828 497 531 498 
498 531 829 532 
795 829 796 498 
498 531 828 829 
795 829 498 828 
796 498 829 499 
829 498 532 499 
499 532 830 533 
796 830 797 499 
499 532 829 830 
796 830 499 829 
797 499 830 500 
830 499 533 500 
500 533 831 534 
797 831 798 500 
500 533 830 831 
797 831 500 830 
798 500 831 501 
831 500 534 501 
501 534 832 535 
798 832 799 501 
501 534 831 832 
798 832 501 831 
799 501 832 502 
832 501 535 502 
502 535 833 536 
799 833 800 502 
502 535 832 833 
799 833 502 832 
800 502 833 503 
833 502 536 503 
503 536 834 537 
800 834 801 503 
503 536 833 834 
800 834 503 833 
801 503 834 504 
834 503 537 504 
504 537 835 538 
801 835 802 504 
504 537 834 835 
801 835 504 834 
802 504 835 505 
835 504 538 505 
505 538 836 539 
802 836 803 505 
505 538 835 836 
802 836 505 835 
803 505 836 506 
836 505 539 506 
506 539 837 540 
803 837 804 506 
506 539 836 837 
803 837 506 836 
804 506 837 507 
837 506 540 507 
507 540 838 541 
804 838 805 507 
507 540 837 838 
804 838 507 837 
805 507 838 508 
838 507 541 508 
508 541 839 542 
805 839 806 508 
508 541 838 839 
805 839 508 838 
806 508 839 509 
839 508 542 509 
509 542 840 543 
806 840 807 509 
509 542 839 840 
806 840 509 839 
807 509 840 510 
840 509 543 510 
510 543 841 544 
807 841 808 510 
510 543 840 841 
807 841 510 840 
808 510 841 511 
841 510 544 511 
511 544 842 545 
808 842 809 511 
511 544 841 842 
808 842 511 841 
809 511 842 512 
842 511 545 512 
512 545 843 546 
809 843 810 512 
512 545 842 843 
809 843 512 842 
810 512 843 513 
843 512 546 513 
513 546 844 547 
810 844 811 513 
513 546 843 844 
810 844 513 843 
811 513 844 514 
844 513 547 514 
514 547 845 548 
811 845 812 514 
514 547 844 845 
811 845 514 844 
812 514 845 515 
845 514 548 515 
515 548 846 549 
812 846 813 515 
515 548 845 846 
812 846 515 845 
813 515 846 516 
846 515 549 516 
516 549 847 550 
813 847 814 516 
516 549 846 847 
813 847 516 846 
814 516 847 517 
847 516 550 517 
517 550 848 551 
814 848 815 517 
517 550 847 848 
814 848 517 847 
815 517 848 518 
848 517 551 518 
518 551 849 552 
815 849 816 518 
518 551 848 849 
815 849 518 848 
816 518 849 519 
849 518 552 519 
519 552 850 553 
816 850 817 519 
519 552 849 850 
816 850 519 849 
817 519 850 520 
850 519 553 520 
520 553 851 554 
817 851 818 520 
520 553 850 851 
817 851 520 850 
818 520 851 521 
851 520 554 521 
521 554 852 555 
818 852 819 521 
521 554 851 852 
818 852 521 851 
819 521 852 522 
852 521 555 522 
522 555 853 556 
819 853 820 522 
522 555 852 853 
819 853 522 852 
820 522 853 523 
853 522 556 523 
523 556 854 557 
820 854 821 523 
523 556 853 854 
820 854 523 853 
821 523 854 524 
854 523 557 524 
524 557 855 558 
821 855 822 524 
524 557 854 855 
821 855 524 854 
822 524 855 525 
855 524 558 525 
525 558 856 559 
822 856 823 525 
525 558 855 856 
822 856 525 855 
823 525 856 526 
856 525 559 526 
526 559 857 560 
823 857 824 526 
526 559 856 857 
823 857 526 856 
824 526 857 527 
857 526 560 527 
528 561 859 562 
825 859 826 528 
528 561 858 859 
825 859 528 858 
826 528 859 529 
859 528 562 529 
529 562 860 563 
826 860 827 529 
529 562 859 860 
826 860 529 859 
827 529 860 530 
860 529 563 530 
530 563 861 564 
827 861 828 530 
530 563 860 861 
827 861 530 860 
828 530 861 531 
861 530 564 531 
531 564 862 565 
828 862 829 531 
531 564 861 862 
828 862 531 861 
829 531 862 532 
862 531 565 532 
532 565 863 566 
829 863 830 532 
532 565 862 863 
829 863 532 862 
830 532 863 533 
863 532 566 533 
533 566 864 567 
830 864 831 533 
533 566 863 864 
830 864 533 863 
831 533 864 534 
864 533 567 534 
534 567 865 568 
831 865 832 534 
534 567 864 865 
831 865 534 864 
832 534 865 535 
865 534 568 535 
535 568 866 569 
832 866 833 535 
535 568 865 866 
832 866 535 865 
833 535 866 536 
866 535 569 536 
536 569 867 570 
833 867 834 536 
536 569 866 867 
833 867 536 866 
834 536 867 537 
867 536 570 537 
537 570 868 571 
834 868 835 537 
537 570 867 868 
834 868 537 867 
835 537 868 538 
868 537 571 538 
538 571 869 572 
835 869 836 538 
538 571 868 869 
835 869 538 868 
836 538 869 539 
869 538 572 539 
539 572 870 573 
836 870 837 539 
539 572 869 870 
836 870 539 869 
837 539 870 540 
870 539 573 540 
540 573 871 574 
837 871 838 540 
540 573 870 871 
837 871 540 870 
838 540 871 541 
871 540 574 541 
541 574 872 575 
838 872 839 541 
541 574 871 872 
838 872 541 871 
839 541 872 542 
872 541 575 542 
542 575 873 576 
839 873 840 542 
542 575 872 873 
839 873 542 872 
840 542 873 543 
873 542 576 543 
543 576 874 577 
840 874 841 543 
543 576 873 874 
840 874 543 873 
841 543 874 544 
874 543 577 544 
544 577 875 578 
841 875 842 544 
544 577 874 875 
841 875 544 874 
842 544 875 545 
875 544 578 545 
545 578 876 579 
842 876 843 545 
545 578 875 876 
842 876 545 875 
843 545 876 546 
876 545 579 546 
546 579 877 580 
843 877 844 546 
546 579 876 877 
843 877 546 876 
844 546 877 547 
877 546 580 547 
547 580 878 581 
844 878 845 547 
547 580 877 878 
844 878 547 877 
845 547 878 548 
878 547 581 548 
548 581 879 582 
845 879 846 548 
548 581 878 879 
845 879 548 878 
846 548 879 549 
879 548 582 549 
549 582 880 583 
846 880 847 549 
549 582 879 880 
846 880 549 879 
847 549 880 550 
880 549 583 550 
550 583 881 584 
847 881 848 550 
550 583 880 881 
847 881 550 880 
848 550 881 551 
881 550 584 551 
551 584 882 585 
848 882 849 551 
551 584 881 882 
848 882 551 881 
849 551 882 552 
882 551 585 552 
552 585 883 586 
849 883 850 552 
552 585 882 883 
849 883 552 882 
850 552 883 553 
883 552 586 553 
553 586 884 587 
850 884 851 553 
553 586 883 884 
850 884 553 883 
851 553 884 554 
884 553 587 554 
554 587 885 588 
851 885 852 554 
554 587 884 885 
851 885 554 884 
852 554 885 555 
885 554 588 555 
555 588 886 589 
852 886 853 555 
555 588 885 886 
852 886 555 885 
853 555 886 556 
886 555 589 556 
556 589 887 590 
853 887 854 556 
556 589 886 887 
853 887 556 886 
854 556 887 557 
887 556 590 557 
557 590 888 591 
854 888 855 557 
557 590 887 888 
854 888 557 887 
855 557 888 558 
888 557 591 558 
558 591 889 592 
855 889 856 558 
558 591 888 889 
855 889 558 888 
856 558 889 559 
889 558 592 559 
559 592 890 593 
856 890 857 559 
559 592 889 890 
856 890 559 889 
857 559 890 560 
890 559 593 560 
594 627 925 628 
891 925 892 594 
594 627 924 925 
891 925 594 924 
892 594 925 595 
925 594 628 595 
595 628 926 629 
892 926 893 595 
595 628 925 926 
892 926 595 925 
893 595 926 596 
926 595 629 596 
596 629 927 630 
893 927 894 596 
596 629 926 927 
893 927 596 926 
894 596 927 597 
927 596 630 597 
597 630 928 631 
894 928 895 597 
597 630 927 928 
894 928 597 927 
895 597 928 598 
928 597 631 598 
598 631 929 632 
895 929 896 598 
598 631 928 929 
895 929 598 928 
896 598 929 599 
929 598 632 599 
599 632 930 633 
896 930 897 599 
599 632 929 930 
896 930 599 929 
897 599 930 600 
930 599 633 600 
600 633 931 634 
897 931 898 600 
600 633 930 931 
897 931 600 930 
898 600 931 601 
931 600 634 601 
601 634 932 635 
898 932 899 601 
601 634 931 932 
898 932 601 931 
899 601 932 602 
932 601 635 602 
602 635 933 636 
899 933 900 602 
602 635 932 933 
899 933 602 932 
900 602 933 603 
933 602 636 603 
603 636 934 637 
900 934 901 603 
603 636 933 934 
900 934 603 933 
901 603 934 604 
934 603 637 604 
604 637 935 638 
901 935 902 604 
604 637 934 935 
901 935 604 934 
902 604 935 605 
935 604 638 605 
605 638 936 639 
902 936 903 605 
605 638 935 936 
902 936 605 935 
903 605 936 606 
936 605 639 606 
606 639 937 640 
903 937 904 606 
606 639 936 937 
903 937 606 936 
904 606 937 607 
937 606 640 607 
607 640 938 641 
904 938 905 607 
607 640 937 938 
904 938 607 937 
905 607 938 608 
938 607 641 608 
608 641 939 642 
905 939 906 608 
608 641 938 939 
905 939 608 938 
906 608 939 609 
939 608 642 609 
609 642 940 643 
906 940 907 609 
609 642 939 940 
906 940 609 939 
907 609 940 610 
940 609 643 610 
610 643 941 644 
907 941 908 610 
610 643 940 941 
907 941 610 940 
908 610 941 611 
941 610 644 611 
611 644 942 645 
908 942 909 611 
611 644 941 942 
908 942 611 941 
909 611 942 612 
942 611 645 612 
612 645 943 646 
909 943 910 612 
612 645 942 943 
909 943 612 942 
910 612 943 613 
943 612 646 613 
613 646 944 647 
910 944 911 613 
613 646 943 944 
910 944 613 943 
911 613 944 614 
944 613 647 614 
614 647 945 648 
911 945 912 614 
614 647 944 945 
911 945 614 944 
912 614 945 615 
945 614 648 615 
615 648 946 649 
912 946 913 615 
615 648 945 946 
912 946 615 945 
913 615 946 616 
946 615 649 616 
616 649 947 650 
913 947 914 616 
616 649 946 947 
913 947 616 946 
914 616 947 617 
947 616 650 617 
617 650 948 651 
914 948 915 617 
617 650 947 948 
914 948 617 947 
915 617 948 618 
948 617 651 618 
618 651 949 652 
915 949 916 618 
618 651 948 949 
915 949 618 948 
916 618 949 619 
949 618 652 619 
619 652 950 653 
916 950 917 619 
619 652 949 950 
916 950 619 949 
917 619 950 620 
950 619 653 620 
620 653 951 654 
917 951 918 620 
620 653 950 951 
917 951 620 950 
918 620 951 621 
951 620 654 621 
621 654 952 655 
918 952 919 621 
621 654 951 952 
918 952 621 951 
919 621 952 622 
952 621 655 622 
622 655 953 656 
919 953 920 622 
622 655 952 953 
919 953 622 952 
920 622 953 623 
953 622 656 623 
623 656 954 657 
920 954 921 623 
623 656 953 954 
920 954 623 953 
921 623 954 624 
954 623 657 624 
624 657 955 658 
921 955 922 624 
624 657 954 955 
921 955 624 954 
922 624 955 625 
955 624 658 625 
625 658 956 659 
922 956 923 625 
625 658 955 956 
922 956 625 955 
923 625 956 626 
956 625 659 626 
627 660 958 661 
924 958 925 627 
627 660 957 958 
924 958 627 957 
925 627 958 628 
958 627 661 628 
628 661 959 662 
925 959 926 628 
628 661 958 959 
925 959 628 958 
926 628 959 629 
959 628 662 629 
629 662 960 663 
926 960 927 629 
629 662 959 960 
926 960 629 959 
927 629 960 630 
960 629 663 630 
630 663 961 664 
927 961 928 630 
630 663 960 961 
927 961 630 960 
928 630 961 631 
961 630 664 631 
631 664 962 665 
928 962 929 631 
631 664 961 962 
928 962 631 961 
929 631 962 632 
962 631 665 632 
632 665 963 666 
929 963 930 632 
632 665 962 963 
929 963 632 962 
930 632 963 633 
963 632 666 633 
633 666 964 667 
930 964 931 633 
633 666 963 964 
930 964 633 963 
931 633 964 634 
964 633 667 634 
634 667 965 668 
931 965 932 634 
634 667 964 965 
931 965 634 964 
932 634 965 635 
965 634 668 635 
635 668 966 669 
932 966 933 635 
635 668 965 966 
932 966 635 965 
933 635 966 636 
966 635 669 636 
636 669 967 670 
933 967 934 636 
636 669 966 967 
933 967 636 966 
934 636 967 637 
967 636 670 637 
637 670 968 671 
934 968 935 637 
637 670 967 968 
934 968 637 967 
935 637 968 638 
968 637 671 638 
638 671 969 672 
935 969 936 638 
638 671 968 969 
935 969 638 968 
936 638 969 639 
969 638 672 639 
639 672 970 673 
936 970 937 639 
639 672 969 970 
936 970 639 969 
937 639 970 640 
970 639 673 640 
640 673 971 674 
937 971 938 640 
640 673 970 971 
937 971 640 970 
938 640 971 641 
971 640 674 641 
641 674 972 675 
938 972 939 641 
641 674 971 972 
938 972 641 971 
939 641 972 642 
972 641 675 642 
642 675 973 676 
939 973 940 642 
642 675 972 973 
939 973 642 972 
940 642 973 643 
973 642 676 643 
643 676 974 677 
940 974 941 643 
643 676 973 974 
940 974 643 973 
941 643 974 644 
974 643 677 644 
644 677 975 678 
941 975 942 644 
644 677 974 975 
941 975 644 974 
942 644 975 645 
975 644 678 645 
645 678 976 679 
942 976 943 645 
645 678 975 976 
942 976 645 975 
943 645 976 646 
976 645 679 646 
646 679 977 680 
943 977 944 646 
646 679 976 977 
943 977 646 976 
944 646 977 647 
977 646 680 647 
647 680 978 681 
944 978 945 647 
647 680 977 978 
944 978 647 977 
945 647 978 648 
978 647 681 648 
648 681 979 682 
945 979 946 648 
648 681 978 979 
945 979 648 978 
946 648 979 649 
979 648 682 649 
649 682 980 683 
946 980 947 649 
649 682 979 980 
946 980 649 979 
947 649 980 650 
980 649 683 650 
650 683 981 684 
947 981 948 650 
650 683 980 981 
947 981 650 980 
948 650 981 651 
981 650 684 651 
651 684 982 685 
948 982 949 651 
651 684 981 982 
948 982 651 981 
949 651 982 652 
982 651 685 652 
652 685 983 686 
949 983 950 652 
652 685 982 983 
949 983 652 982 
950 652 983 653 
983 652 686 653 
653 686 984 687 
950 984 951 653 
653 686 983 984 
950 984 653 983 
951 653 984 654 
984 653 687 654 
654 687 985 688 
951 985 952 654 
654 687 984 985 
951 985 654 984 
952 654 985 655 
985 654 688 655 
655 688 986 689 
952 986 953 655 
655 688 985 986 
952 986 655 985 
953 655 986 656 
986 655 689 656 
656 689 987 690 
953 987 954 656 
656 689 986 987 
953 987 656 986 
954 656 987 657 
987 656 690 657 
657 690 988 691 
954 988 955 657 
657 690 987 988 
954 988 657 987 
955 657 988 658 
988 657 691 658 
658 691 989 692 
955 989 956 658 
658 691 988 989 
955 989 658 988 
956 658 989 659 
989 658 692 659 
660 693 991 694 
957 991 958 660 
660 693 990 991 
957 991 660 990 
958 660 991 661 
991 660 694 661 
661 694 992 695 
958 992 959 661 
661 694 991 992 
958 992 661 991 
959 661 992 662 
992 661 695 662 
662 695 993 696 
959 993 960 662 
662 695 992 993 
959 993 662 992 
960 662 993 663 
993 662 696 663 
663 696 994 697 
960 994 961 663 
663 696 993 994 
960 994 663 993 
961 663 994 664 
994 663 697 664 
664 697 995 698 
961 995 962 664 
664 697 994 995 
961 995 664 994 
962 664 995 665 
995 664 698 665 
665 698 996 699 
962 996 963 665 
665 698 995 996 
962 996 665 995 
963 665 996 666 
996 665 699 666 
666 699 997 700 
963 997 964 666 
666 699 996 997 
963 997 666 996 
964 666 997 667 
997 666 700 667 
667 700 998 701 
964 998 965 667 
667 700 997 998 
964 998 667 997 
965 667 998 668 
998 667 701 668 
668 701 999 702 
965 999 966 668 
668 701 998 999 
965 999 668 998 
966 668 999 669 
999 668 702 669 
669 702 1000 703 
966 1000 967 669 
669 702 999 1000 
966 1000 669 999 
967 669 1000 670 
1000 669 703 670 
670 703 1001 704 
967 1001 968 670 
670 703 1000 1001 
967 1001 670 1000 
968 670 1001 671 
1001 670 704 671 
671 704 1002 705 
968 1002 969 671 
671 704 1001 1002 
968 1002 671 1001 
969 671 1002 672 
1002 671 705 672 
672 705 1003 706 
969 1003 970 672 
672 705 1002 1003 
969 1003 672 1002 
970 672 1003 673 
1003 672 706 673 
673 706 1004 707 
970 1004 971 673 
673 706 1003 1004 
970 1004 673 1003 
971 673 1004 674 
1004 673 707 674 
674 707 1005 708 
971 1005 972 674 
674 707 1004 1005 
971 1005 674 1004 
972 674 1005 675 
1005 674 708 675 
675 708 1006 709 
972 1006 973 675 
675 708 1005 1006 
972 1006 675 1005 
973 675 1006 676 
1006 675 709 676 
676 709 1007 710 
973 1007 974 676 
676 709 1006 1007 
973 1007 676 1006 
974 676 1007 677 
1007 676 710 677 
677 710 1008 711 
974 1008 975 677 
677 710 1007 1008 
974 1008 677 1007 
975 677 1008 678 
1008 677 711 678 
678 711 1009 712 
975 1009 976 678 
678 711 1008 1009 
975 1009 678 1008 
976 678 1009 679 
1009 678 712 679 
679 712 1010 713 
976 1010 977 679 
679 712 1009 1010 
976 1010 679 1009 
977 679 1010 680 
1010 679 713 680 
680 713 1011 714 
977 1011 978 680 
680 713 1010 1011 
977 1011 680 1010 
978 680 1011 681 
1011 680 714 681 
681 714 1012 715 
978 1012 979 681 
681 714 1011 1012 
978 1012 681 1011 
979 681 1012 682 
1012 681 715 682 
682 715 1013 716 
979 1013 980 682 
682 715 1012 1013 
979 1013 682 1012 
980 682 1013 683 
1013 682 716 683 
683 716 1014 717 
980 1014 981 683 
683 716 1013 1014 
980 1014 683 1013 
981 683 1014 684 
1014 683 717 684 
684 717 1015 718 
981 1015 982 684 
684 717 1014 1015 
981 1015 684 1014 
982 684 1015 685 
1015 684 718 685 
685 718 1016 719 
982 1016 983 685 
685 718 1015 1016 
982 1016 685 1015 
983 685 1016 686 
1016 685 719 686 
686 719 1017 720 
983 1017 984 686 
686 719 1016 1017 
983 1017 686 1016 
984 686 1017 687 
1017 686 720 687 
687 720 1018 721 
984 1018 985 687 
687 720 1017 1018 
984 1018 687 1017 
985 687 1018 688 
1018 687 721 688 
688 721 1019 722 
985 1019 986 688 
688 721 1018 1019 
985 1019 688 1018 
986 688 1019 689 
1019 688 722 689 
689 722 1020 723 
986 1020 987 689 
689 722 1019 1020 
986 1020 689 1019 
987 689 1020 690 
1020 689 723 690 
690 723 1021 724 
987 1021 988 690 
690 723 1020 1021 
987 1021 690 1020 
988 690 1021 691 
1021 690 724 691 
691 724 1022 725 
988 1022 989 691 
691 724 1021 1022 
988 1022 691 1021 
989 691 1022 692 
1022 691 725 692 
693 726 1024 727 
990 1024 991 693 
693 726 1023 1024 
990 1024 693 1023 
991 693 1024 694 
1024 693 727 694 
694 727 1025 728 
991 1025 992 694 
694 727 1024 1025 
991 1025 694 1024 
992 694 1025 695 
1025 694 728 695 
695 728 1026 729 
992 1026 993 695 
695 728 1025 1026 
992 1026 695 1025 
993 695 1026 696 
1026 695 729 696 
696 729 1027 730 
993 1027 994 696 
696 729 1026 1027 
993 1027 696 1026 
994 696 1027 697 
1027 696 730 697 
697 730 1028 731 
994 1028 995 697 
697 730 1027 1028 
994 1028 697 1027 
995 697 1028 698 
1028 697 731 698 
698 731 1029 732 
995 1029 996 698 
698 731 1028 1029 
995 1029 698 1028 
996 698 1029 699 
1029 698 732 699 
699 732 1030 733 
996 1030 997 699 
699 732 1029 1030 
996 1030 699 1029 
997 699 1030 700 
1030 699 733 700 
700 733 1031 734 
997 1031 998 700 
700 733 1030 1031 
997 1031 700 1030 
998 700 1031 701 
1031 700 734 701 
701 734 1032 735 
998 1032 999 701 
701 734 1031 1032 
998 1032 701 1031 
999 701 1032 702 
1032 701 735 702 
702 735 1033 736 
999 1033 1000 702 
702 735 1032 1033 
999 1033 702 1032 
1000 702 1033 703 
1033 702 736 703 
703 736 1034 737 
1000 1034 1001 703 
703 736 1033 1034 
1000 1034 703 1033 
1001 703 1034 704 
1034 703 737 704 
704 737 1035 738 
1001 1035 1002 704 
704 737 1034 1035 
1001 1035 704 1034 
1002 704 1035 705 
1035 704 738 705 
705 738 1036 739 
1002 1036 1003 705 
705 738 1035 1036 
1002 1036 705 1035 
1003 705 1036 706 
1036 705 739 706 
706 739 1037 740 
1003 1037 1004 706 
706 739 1036 1037 
1003 1037 706 1036 
1004 706 1037 707 
1037 706 740 707 
707 740 1038 741 
1004 1038 1005 707 
707 740 1037 1038 
1004 1038 707 1037 
1005 707 1038 708 
1038 707 741 708 
708 741 1039 742 
1005 1039 1006 708 
708 741 1038 1039 
1005 1039 708 1038 
1006 708 1039 709 
1039 708 742 709 
709 742 1040 743 
1006 1040 1007 709 
709 742 1039 1040 
1006 1040 709 1039 
1007 709 1040 710 
1040 709 743 710 
710 743 1041 744 
1007 1041 1008 710 
710 743 1040 1041 
1007 1041 710 1040 
1008 710 1041 711 
1041 710 744 711 
711 744 1042 745 
1008 1042 1009 711 
711 744 1041 1042 
1008 1042 711 1041 
1009 711 1042 712 
1042 711 745 712 
712 745 1043 746 
1009 1043 1010 712 
712 745 1042 1043 
1009 1043 712 1042 
1010 712 1043 713 
1043 712 746 713 
713 746 1044 747 
1010 1044 1011 713 
713 746 1043 1044 
1010 1044 713 1043 
1011 713 1044 714 
1044 713 747 714 
714 747 1045 748 
1011 1045 1012 714 
714 747 1044 1045 
1011 1045 714 1044 
1012 714 1045 715 
1045 714 748 715 
715 748 1046 749 
1012 1046 1013 715 
715 748 1045 1046 
1012 1046 715 1045 
1013 715 1046 716 
1046 715 749 716 
716 749 1047 750 
1013 1047 1014 716 
716 749 1046 1047 
1013 1047 716 1046 
1014 716 1047 717 
1047 716 750 717 
717 750 1048 751 
1014 1048 1015 717 
717 750 1047 1048 
1014 1048 717 1047 
1015 717 1048 718 
1048 717 751 718 
718 751 1049 752 
1015 1049 1016 718 
718 751 1048 1049 
1015 1049 718 1048 
1016 718 1049 719 
1049 718 752 719 
719 752 1050 753 
1016 1050 1017 719 
719 752 1049 1050 
1016 1050 719 1049 
1017 719 1050 720 
1050 719 753 720 
720 753 1051 754 
1017 1051 1018 720 
720 753 1050 1051 
1017 1051 720 1050 
1018 720 1051 721 
1051 720 754 721 
721 754 1052 755 
1018 1052 1019 721 
721 754 1051 1052 
1018 1052 721 1051 
1019 721 1052 722 
1052 721 755 722 
722 755 1053 756 
1019 1053 1020 722 
722 755 1052 1053 
1019 1053 722 1052 
1020 722 1053 723 
1053 722 756 723 
723 756 1054 757 
1020 1054 1021 723 
723 756 1053 1054 
1020 1054 723 1053 
1021 723 1054 724 
1054 723 757 724 
724 757 1055 758 
1021 1055 1022 724 
724 757 1054 1055 
1021 1055 724 1054 
1022 724 1055 725 
1055 724 758 725 
726 759 1057 760 
1023 1057 1024 726 
726 759 1056 1057 
1023 1057 726 1056 
1024 726 1057 727 
1057 726 760 727 
727 760 1058 761 
1024 1058 1025 727 
727 760 1057 1058 
1024 1058 727 1057 
1025 727 1058 728 
1058 727 761 728 
728 761 1059 762 
1025 1059 1026 728 
728 761 1058 1059 
1025 1059 728 1058 
1026 728 1059 729 
1059 728 762 729 
729 762 1060 763 
1026 1060 1027 729 
729 762 1059 1060 
1026 1060 729 1059 
1027 729 1060 730 
1060 729 763 730 
730 763 1061 764 
1027 1061 1028 730 
730 763 1060 1061 
1027 1061 730 1060 
1028 730 1061 731 
1061 730 764 731 
731 764 1062 765 
1028 1062 1029 731 
731 764 1061 1062 
1028 1062 731 1061 
1029 731 1062 732 
1062 731 765 732 
732 765 1063 766 
1029 1063 1030 732 
732 765 1062 1063 
1029 1063 732 1062 
1030 732 1063 733 
1063 732 766 733 
733 766 1064 767 
1030 1064 1031 733 
733 766 1063 1064 
1030 1064 733 1063 
1031 733 1064 734 
1064 733 767 734 
734 767 1065 768 
1031 1065 1032 734 
734 767 1064 1065 
1031 1065 734 1064 
1032 734 1065 735 
1065 734 768 735 
735 768 1066 769 
1032 1066 1033 735 
735 768 1065 1066 
1032 1066 735 1065 
1033 735 1066 736 
1066 735 769 736 
736 769 1067 770 
1033 1067 1034 736 
736 769 1066 1067 
1033 1067 736 1066 
1034 736 1067 737 
1067 736 770 737 
737 770 1068 771 
1034 1068 1035 737 
737 770 1067 1068 
1034 1068 737 1067 
1035 737 1068 738 
1068 737 771 738 
738 771 1069 772 
1035 1069 1036 738 
738 771 1068 1069 
1035 1069 738 1068 
1036 738 1069 739 
1069 738 772 739 
739 772 1070 773 
1036 1070 1037 739 
739 772 1069 1070 
1036 1070 739 1069 
1037 739 1070 740 
1070 739 773 740 
740 773 1071 774 
1037 1071 1038 740 
740 773 1070 1071 
1037 1071 740 1070 
1038 740 1071 741 
1071 740 774 741 
741 774 1072 775 
1038 1072 1039 741 
741 774 1071 1072 
1038 1072 741 1071 
1039 741 1072 742 
1072 741 775 742 
742 775 1073 776 
1039 1073 1040 742 
742 775 1072 1073 
1039 1073 742 1072 
1040 742 1073 743 
1073 742 776 743 
743 776 1074 777 
1040 1074 1041 743 
743 776 1073 1074 
1040 1074 743 1073 
1041 743 1074 744 
1074 743 777 744 
744 777 1075 778 
1041 1075 1042 744 
744 777 1074 1075 
1041 1075 744 1074 
1042 744 1075 745 
1075 744 778 745 
745 778 1076 779 
1042 1076 1043 745 
745 778 1075 1076 
1042 1076 745 1075 
1043 745 1076 746 
1076 745 779 746 
746 779 1077 780 
1043 1077 1044 746 
746 779 1076 1077 
1043 1077 746 1076 
1044 746 1077 747 
1077 746 780 747 
747 780 1078 781 
1044 1078 1045 747 
747 780 1077 1078 
1044 1078 747 1077 
1045 747 1078 748 
1078 747 781 748 
748 781 1079 782 
1045 1079 1046 748 
748 781 1078 1079 
1045 1079 748 1078 
1046 748 1079 749 
1079 748 782 749 
749 782 1080 783 
1046 1080 1047 749 
749 782 1079 1080 
1046 1080 749 1079 
1047 749 1080 750 
1080 749 783 750 
750 783 1081 784 
1047 1081 1048 750 
750 783 1080 1081 
1047 1081 750 1080 
1048 750 1081 751 
1081 750 784 751 
751 784 1082 785 
1048 1082 1049 751 
751 784 1081 1082 
1048 1082 751 1081 
1049 751 1082 752 
1082 751 785 752 
752 785 1083 786 
1049 1083 1050 752 
752 785 1082 1083 
1049 1083 752 1082 
1050 752 1083 753 
1083 752 786 753 
753 786 1084 787 
1050 1084 1051 753 
753 786 1083 1084 
1050 1084 753 1083 
1051 753 1084 754 
1084 753 787 754 
754 787 1085 788 
1051 1085 1052 754 
754 787 1084 1085 
1051 1085 754 1084 
1052 754 1085 755 
1085 754 788 755 
755 788 1086 789 
1052 1086 1053 755 
755 788 1085 1086 
1052 1086 755 1085 
1053 755 1086 756 
1086 755 789 756 
756 789 1087 790 
1053 1087 1054 756 
756 789 1086 1087 
1053 1087 756 1086 
1054 756 1087 757 
1087 756 790 757 
757 790 1088 791 
1054 1088 1055 757 
757 790 1087 1088 
1054 1088 757 1087 
1055 757 1088 758 
1088 757 791 758 
759 792 1090 793 
1056 1090 1057 759 
759 792 1089 1090 
1056 1090 759 1089 
1057 759 1090 760 
1090 759 793 760 
760 793 1091 794 
1057 1091 1058 760 
760 793 1090 1091 
1057 1091 760 1090 
1058 760 1091 761 
1091 760 794 761 
761 794 1092 795 
1058 1092 1059 761 
761 794 1091 1092 
1058 1092 761 1091 
1059 761 1092 762 
1092 761 795 762 
762 795 1093 796 
1059 1093 1060 762 
762 795 1092 1093 
1059 1093 762 1092 
1060 762 1093 763 
1093 762 796 763 
763 796 1094 797 
1060 1094 1061 763 
763 796 1093 1094 
1060 1094 763 1093 
1061 763 1094 764 
1094 763 797 764 
764 797 1095 798 
1061 1095 1062 764 
764 797 1094 1095 
1061 1095 764 1094 
1062 764 1095 765 
1095 764 798 765 
765 798 1096 799 
1062 1096 1063 765 
765 798 1095 1096 
1062 1096 765 1095 
1063 765 1096 766 
1096 765 799 766 
766 799 1097 800 
1063 1097 1064 766 
766 799 1096 1097 
1063 1097 766 1096 
1064 766 1097 767 
1097 766 800 767 
767 800 1098 801 
1064 1098 1065 767 
767 800 1097 1098 
1064 1098 767 1097 
1065 767 1098 768 
1098 767 801 768 
768 801 1099 802 
1065 1099 1066 768 
768 801 1098 1099 
1065 1099 768 1098 
1066 768 1099 769 
1099 768 802 769 
769 802 1100 803 
1066 1100 1067 769 
769 802 1099 1100 
1066 1100 769 1099 
1067 769 1100 770 
1100 769 803 770 
770 803 1101 804 
1067 1101 1068 770 
770 803 1100 1101 
1067 1101 770 1100 
1068 770 1101 771 
1101 770 804 771 
771 804 1102 805 
1068 1102 1069 771 
771 804 1101 1102 
1068 1102 771 1101 
1069 771 1102 772 
1102 771 805 772 
772 805 1103 806 
1069 1103 1070 772 
772 805 1102 1103 
1069 1103 772 1102 
1070 772 1103 773 
1103 772 806 773 
773 806 1104 807 
1070 1104 1071 773 
773 806 1103 1104 
1070 1104 773 1103 
1071 773 1104 774 
1104 773 807 774 
774 807 1105 808 
1071 1105 1072 774 
774 807 1104 1105 
1071 1105 774 1104 
1072 774 1105 775 
1105 774 808 775 
775 808 1106 809 
1072 1106 1073 775 
775 808 1105 1106 
1072 1106 775 1105 
1073 775 1106 776 
1106 775 809 776 
776 809 1107 810 
1073 1107 1074 776 
776 809 1106 1107 
1073 1107 776 1106 
1074 776 1107 777 
1107 776 810 777 
777 810 1108 811 
1074 1108 1075 777 
777 810 1107 1108 
1074 1108 777 1107 
1075 777 1108 778 
1108 777 811 778 
778 811 1109 812 
1075 1109 1076 778 
778 811 1108 1109 
1075 1109 778 1108 
1076 778 1109 779 
1109 778 812 779 
779 812 1110 813 
1076 1110 1077 779 
779 812 1109 1110 
1076 1110 779 1109 
1077 779 1110 780 
1110 779 813 780 
780 813 1111 814 
1077 1111 1078 780 
780 813 1110 1111 
1077 1111 780 1110 
1078 780 1111 781 
1111 780 814 781 
781 814 1112 815 
1078 1112 1079 781 
781 814 1111 1112 
1078 1112 781 1111 
1079 781 1112 782 
1112 781 815 782 
782 815 1113 816 
1079 1113 1080 782 
782 815 1112 1113 
1079 1113 782 1112 
1080 782 1113 783 
1113 782 816 783 
783 816 1114 817 
1080 1114 1081 783 
783 816 1113 1114 
1080 1114 783 1113 
1081 783 1114 784 
1114 783 817 784 
784 817 1115 818 
1081 1115 1082 784 
784 817 1114 1115 
1081 1115 784 1114 
1082 784 1115 785 
1115 784 818 785 
785 818 1116 819 
1082 1116 1083 785 
785 818 1115 1116 
1082 1116 785 1115 
1083 785 1116 786 
1116 785 819 786 
786 819 1117 820 
1083 1117 1084 786 
786 819 1116 1117 
1083 1117 786 1116 
1084 786 1117 787 
1117 786 820 787 
787 820 1118 821 
1084 1118 1085 787 
787 820 1117 1118 
1084 1118 787 1117 
1085 787 1118 788 
1118 787 821 788 
788 821 1119 822 
1085 1119 1086 788 
788 821 1118 1119 
1085 1119 788 1118 
1086 788 1119 789 
1119 788 822 789 
789 822 1120 823 
1086 1120 1087 789 
789 822 1119 1120 
1086 1120 789 1119 
1087 789 1120 790 
1120 789 823 790 
790 823 1121 824 
1087 1121 1088 790 
790 823 1120 1121 
1087 1121 790 1120 
1088 790 1121 791 
1121 790 824 791 
792 825 1123 826 
1089 1123 1090 792 
792 825 1122 1123 
1089 1123 792 1122 
1090 792 1123 793 
1123 792 826 793 
793 826 1124 827 
1090 1124 1091 793 
793 826 1123 1124 
1090 1124 793 1123 
1091 793 1124 794 
1124 793 827 794 
794 827 1125 828 
1091 1125 1092 794 
794 827 1124 1125 
1091 1125 794 1124 
1092 794 1125 795 
1125 794 828 795 
795 828 1126 829 
1092 1126 1093 795 
795 828 1125 1126 
1092 1126 795 1125 
1093 795 1126 796 
1126 795 829 796 
796 829 1127 830 
1093 1127 1094 796 
796 829 1126 1127 
1093 1127 796 1126 
1094 796 1127 797 
1127 796 830 797 
797 830 1128 831 
1094 1128 1095 797 
797 830 1127 1128 
1094 1128 797 1127 
1095 797 1128 798 
1128 797 831 798 
798 831 1129 832 
1095 1129 1096 798 
798 831 1128 1129 
1095 1129 798 1128 
1096 798 1129 799 
1129 798 832 799 
799 832 1130 833 
1096 1130 1097 799 
799 832 1129 1130 
1096 1130 799 1129 
1097 799 1130 800 
1130 799 833 800 
800 833 1131 834 
1097 1131 1098 800 
800 833 1130 1131 
1097 1131 800 1130 
1098 800 1131 801 
1131 800 834 801 
801 834 1132 835 
1098 1132 1099 801 
801 834 1131 1132 
1098 1132 801 1131 
1099 801 1132 802 
1132 801 835 802 
802 835 1133 836 
1099 1133 1100 802 
802 835 1132 1133 
1099 1133 802 1132 
1100 802 1133 803 
1133 802 836 803 
803 836 1134 837 
1100 1134 1101 803 
803 836 1133 1134 
1100 1134 803 1133 
1101 803 1134 804 
1134 803 837 804 
804 837 1135 838 
1101 1135 1102 804 
804 837 1134 1135 
1101 1135 804 1134 
1102 804 1135 805 
1135 804 838 805 
805 838 1136 839 
1102 1136 1103 805 
805 838 1135 1136 
1102 1136 805 1135 
1103 805 1136 806 
1136 805 839 806 
806 839 1137 840 
1103 1137 1104 806 
806 839 1136 1137 
1103 1137 806 1136 
1104 806 1137 807 
1137 806 840 807 
807 840 1138 841 
1104 1138 1105 807 
807 840 1137 1138 
1104 1138 807 1137 
1105 807 1138 808 
1138 807 841 808 
808 841 1139 842 
1105 1139 1106 808 
808 841 1138 1139 
1105 1139 808 1138 
1106 808 1139 809 
1139 808 842 809 
809 842 1140 843 
1106 1140 1107 809 
809 842 1139 1140 
1106 1140 809 1139 
1107 809 1140 810 
1140 809 843 810 
810 843 1141 844 
1107 1141 1108 810 
810 843 1140 1141 
1107 1141 810 1140 
1108 810 1141 811 
1141 810 844 811 
811 844 1142 845 
1108 1142 1109 811 
811 844 1141 1142 
1108 1142 811 1141 
1109 811 1142 812 
1142 811 845 812 
812 845 1143 846 
1109 1143 1110 812 
812 845 1142 1143 
1109 1143 812 1142 
1110 812 1143 813 
1143 812 846 813 
813 846 1144 847 
1110 1144 1111 813 
813 846 1143 1144 
1110 1144 813 1143 
1111 813 1144 814 
1144 813 847 814 
814 847 1145 848 
1111 1145 1112 814 
814 847 1144 1145 
1111 1145 814 1144 
1112 814 1145 815 
1145 814 848 815 
815 848 1146 849 
1112 1146 1113 815 
815 848 1145 1146 
1112 1146 815 1145 
1113 815 1146 816 
1146 815 849 816 
816 849 1147 850 
1113 1147 1114 816 
816 849 1146 1147 
1113 1147 816 1146 
1114 816 1147 817 
1147 816 850 817 
817 850 1148 851 
1114 1148 1115 817 
817 850 1147 1148 
1114 1148 817 1147 
1115 817 1148 818 
1148 817 851 818 
818 851 1149 852 
1115 1149 1116 818 
818 851 1148 1149 
1115 1149 818 1148 
1116 818 1149 819 
1149 818 852 819 
819 852 1150 853 
1116 1150 1117 819 
819 852 1149 1150 
1116 1150 819 1149 
1117 819 1150 820 
1150 819 853 820 
820 853 1151 854 
1117 1151 1118 820 
820 853 1150 1151 
1117 1151 820 1150 
1118 820 1151 821 
1151 820 854 821 
821 854 1152 855 
1118 1152 1119 821 
821 854 1151 1152 
1118 1152 821 1151 
1119 821 1152 822 
1152 821 855 822 
822 855 1153 856 
1119 1153 1120 822 
822 855 1152 1153 
1119 1153 822 1152 
1120 822 1153 823 
1153 822 856 823 
823 856 1154 857 
1120 1154 1121 823 
823 856 1153 1154 
1120 1154 823 1153 
1121 823 1154 824 
1154 823 857 824 
825 858 1156 859 
1122 1156 1123 825 
825 858 1155 1156 
1122 1156 825 1155 
1123 825 1156 826 
1156 825 859 826 
826 859 1157 860 
1123 1157 1124 826 
826 859 1156 1157 
1123 1157 826 1156 
1124 826 1157 827 
1157 826 860 827 
827 860 1158 861 
1124 1158 1125 827 
827 860 1157 1158 
1124 1158 827 1157 
1125 827 1158 828 
1158 827 861 828 
828 861 1159 862 
1125 1159 1126 828 
828 861 1158 1159 
1125 1159 828 1158 
1126 828 1159 829 
1159 828 862 829 
829 862 1160 863 
1126 1160 1127 829 
829 862 1159 1160 
1126 1160 829 1159 
1127 829 1160 830 
1160 829 863 830 
830 863 1161 864 
1127 1161 1128 830 
830 863 1160 1161 
1127 1161 830 1160 
1128 830 1161 831 
1161 830 864 831 
831 864 1162 865 
1128 1162 1129 831 
831 864 1161 1162 
1128 1162 831 1161 
1129 831 1162 832 
1162 831 865 832 
832 865 1163 866 
1129 1163 1130 832 
832 865 1162 1163 
1129 1163 832 1162 
1130 832 1163 833 
1163 832 866 833 
833 866 1164 867 
1130 1164 1131 833 
833 866 1163 1164 
1130 1164 833 1163 
1131 833 1164 834 
1164 833 867 834 
834 867 1165 868 
1131 1165 1132 834 
834 867 1164 1165 
1131 1165 834 1164 
1132 834 1165 835 
1165 834 868 835 
835 868 1166 869 
1132 1166 1133 835 
835 868 1165 1166 
1132 1166 835 1165 
1133 835 1166 836 
1166 835 869 836 
836 869 1167 870 
1133 1167 1134 836 
836 869 1166 1167 
1133 1167 836 1166 
1134 836 1167 837 
1167 836 870 837 
837 870 1168 871 
1134 1168 1135 837 
837 870 1167 1168 
1134 1168 837 1167 
1135 837 1168 838 
1168 837 871 838 
838 871 1169 872 
1135 1169 1136 838 
838 871 1168 1169 
1135 1169 838 1168 
1136 838 1169 839 
1169 838 872 839 
839 872 1170 873 
1136 1170 1137 839 
839 872 1169 1170 
1136 1170 839 1169 
1137 839 1170 840 
1170 839 873 840 
840 873 1171 874 
1137 1171 1138 840 
840 873 1170 1171 
1137 1171 840 1170 
1138 840 1171 841 
1171 840 874 841 
841 874 1172 875 
1138 1172 1139 841 
841 874 1171 1172 
1138 1172 841 1171 
1139 841 1172 842 
1172 841 875 842 
842 875 1173 876 
1139 1173 1140 842 
842 875 1172 1173 
1139 1173 842 1172 
1140 842 1173 843 
1173 842 876 843 
843 876 1174 877 
1140 1174 1141 843 
843 876 1173 1174 
1140 1174 843 1173 
1141 843 1174 844 
1174 843 877 844 
844 877 1175 878 
1141 1175 1142 844 
844 877 1174 1175 
1141 1175 844 1174 
1142 844 1175 845 
1175 844 878 845 
845 878 1176 879 
1142 1176 1143 845 
845 878 1175 1176 
1142 1176 845 1175 
1143 845 1176 846 
1176 845 879 846 
846 879 1177 880 
1143 1177 1144 846 
846 879 1176 1177 
1143 1177 846 1176 
1144 846 1177 847 
1177 846 880 847 
847 880 1178 881 
1144 1178 1145 847 
847 880 1177 1178 
1144 1178 847 1177 
1145 847 1178 848 
1178 847 881 848 
848 881 1179 882 
1145 1179 1146 848 
848 881 1178 1179 
1145 1179 848 1178 
1146 848 1179 849 
1179 848 882 849 
849 882 1180 883 
1146 1180 1147 849 
849 882 1179 1180 
1146 1180 849 1179 
1147 849 1180 850 
1180 849 883 850 
850 883 1181 884 
1147 1181 1148 850 
850 883 1180 1181 
1147 1181 850 1180 
1148 850 1181 851 
1181 850 884 851 
851 884 1182 885 
1148 1182 1149 851 
851 884 1181 1182 
1148 1182 851 1181 
1149 851 1182 852 
1182 851 885 852 
852 885 1183 886 
1149 1183 1150 852 
852 885 1182 1183 
1149 1183 852 1182 
1150 852 1183 853 
1183 852 886 853 
853 886 1184 887 
1150 1184 1151 853 
853 886 1183 1184 
1150 1184 853 1183 
1151 853 1184 854 
1184 853 887 854 
854 887 1185 888 
1151 1185 1152 854 
854 887 1184 1185 
1151 1185 854 1184 
1152 854 1185 855 
1185 854 888 855 
855 888 1186 889 
1152 1186 1153 855 
855 888 1185 1186 
1152 1186 855 1185 
1153 855 1186 856 
1186 855 889 856 
856 889 1187 890 
1153 1187 1154 856 
856 889 1186 1187 
1153 1187 856 1186 
1154 856 1187 857 
1187 856 890 857 
891 924 1222 925 
1188 1222 1189 891 
891 924 1221 1222 
1188 1222 891 1221 
1189 891 1222 892 
1222 891 925 892 
892 925 1223 926 
1189 1223 1190 892 
892 925 1222 1223 
1189 1223 892 1222 
1190 892 1223 893 
1223 892 926 893 
893 926 1224 927 
1190 1224 1191 893 
893 926 1223 1224 
1190 1224 893 1223 
1191 893 1224 894 
1224 893 927 894 
894 927 1225 928 
1191 1225 1192 894 
894 927 1224 1225 
1191 1225 894 1224 
1192 894 1225 895 
1225 894 928 895 
895 928 1226 929 
1192 1226 1193 895 
895 928 1225 1226 
1192 1226 895 1225 
1193 895 1226 896 
1226 895 929 896 
896 929 1227 930 
1193 1227 1194 896 
896 929 1226 1227 
1193 1227 896 1226 
1194 896 1227 897 
1227 896 930 897 
897 930 1228 931 
1194 1228 1195 897 
897 930 1227 1228 
1194 1228 897 1227 
1195 897 1228 898 
1228 897 931 898 
898 931 1229 932 
1195 1229 1196 898 
898 931 1228 1229 
1195 1229 898 1228 
1196 898 1229 899 
1229 898 932 899 
899 932 1230 933 
1196 1230 1197 899 
899 932 1229 1230 
1196 1230 899 1229 
1197 899 1230 900 
1230 899 933 900 
900 933 1231 934 
1197 1231 1198 900 
900 933 1230 1231 
1197 1231 900 1230 
1198 900 1231 901 
1231 900 934 901 
901 934 1232 935 
1198 1232 1199 901 
901 934 1231 1232 
1198 1232 901 1231 
1199 901 1232 902 
1232 901 935 902 
902 935 1233 936 
1199 1233 1200 902 
902 935 1232 1233 
1199 1233 902 1232 
1200 902 1233 903 
1233 902 936 903 
903 936 1234 937 
1200 1234 1201 903 
903 936 1233 1234 
1200 1234 903 1233 
1201 903 1234 904 
1234 903 937 904 
904 937 1235 938 
1201 1235 1202 904 
904 937 1234 1235 
1201 1235 904 1234 
1202 904 1235 905 
1235 904 938 905 
905 938 1236 939 
1202 1236 1203 905 
905 938 1235 1236 
1202 1236 905 1235 
1203 905 1236 906 
1236 905 939 906 
906 939 1237 940 
1203 1237 1204 906 
906 939 1236 1237 
1203 1237 906 1236 
1204 906 1237 907 
1237 906 940 907 
907 940 1238 941 
1204 1238 1205 907 
907 940 1237 1238 
1204 1238 907 1237 
1205 907 1238 908 
1238 907 941 908 
908 941 1239 942 
1205 1239 1206 908 
908 941 1238 1239 
1205 1239 908 1238 
1206 908 1239 909 
1239 908 942 909 
909 942 1240 943 
1206 1240 1207 909 
909 942 1239 1240 
1206 1240 909 1239 
1207 909 1240 910 
1240 909 943 910 
910 943 1241 944 
1207 1241 1208 910 
910 943 1240 1241 
1207 1241 910 1240 
1208 910 1241 911 
1241 910 944 911 
911 944 1242 945 
1208 1242 1209 911 
911 944 1241 1242 
1208 1242 911 1241 
1209 911 1242 912 
1242 911 945 912 
912 945 1243 946 
1209 1243 1210 912 
912 945 1242 1243 
1209 1243 912 1242 
1210 912 1243 913 
1243 912 946 913 
913 946 1244 947 
1210 1244 1211 913 
913 946 1243 1244 
1210 1244 913 1243 
1211 913 1244 914 
1244 913 947 914 
914 947 1245 948 
1211 1245 1212 914 
914 947 1244 1245 
1211 1245 914 1244 
1212 914 1245 915 
1245 914 948 915 
915 948 1246 949 
1212 1246 1213 915 
915 948 1245 1246 
1212 1246 915 1245 
1213 915 1246 916 
1246 915 949 916 
916 949 1247 950 
1213 1247 1214 916 
916 949 1246 1247 
1213 1247 916 1246 
1214 916 1247 917 
1247 916 950 917 
917 950 1248 951 
1214 1248 1215 917 
917 950 1247 1248 
1214 1248 917 1247 
1215 917 1248 918 
1248 917 951 918 
918 951 1249 952 
1215 1249 1216 918 
918 951 1248 1249 
1215 1249 918 1248 
1216 918 1249 919 
1249 918 952 919 
919 952 1250 953 
1216 1250 1217 919 
919 952 1249 1250 
1216 1250 919 1249 
1217 919 1250 920 
1250 919 953 920 
920 953 1251 954 
1217 1251 1218 920 
920 953 1250 1251 
1217 1251 920 1250 
1218 920 1251 921 
1251 920 954 921 
921 954 1252 955 
1218 1252 1219 921 
921 954 1251 1252 
1218 1252 921 1251 
1219 921 1252 922 
1252 921 955 922 
922 955 1253 956 
1219 1253 1220 922 
922 955 1252 1253 
1219 1253 922 1252 
1220 922 1253 923 
1253 922 956 923 
924 957 1255 958 
1221 1255 1222 924 
924 957 1254 1255 
1221 1255 924 1254 
1222 924 1255 925 
1255 924 958 925 
925 958 1256 959 
1222 1256 1223 925 
925 958 1255 1256 
1222 1256 925 1255 
1223 925 1256 926 
1256 925 959 926 
926 959 1257 960 
1223 1257 1224 926 
926 959 1256 1257 
1223 1257 926 1256 
1224 926 1257 927 
1257 926 960 927 
927 960 1258 961 
1224 1258 1225 927 
927 960 1257 1258 
1224 1258 927 1257 
1225 927 1258 928 
1258 927 961 928 
928 961 1259 962 
1225 1259 1226 928 
928 961 1258 1259 
1225 1259 928 1258 
1226 928 1259 929 
1259 928 962 929 
929 962 1260 963 
1226 1260 1227 929 
929 962 1259 1260 
1226 1260 929 1259 
1227 929 1260 930 
1260 929 963 930 
930 963 1261 964 
1227 1261 1228 930 
930 963 1260 1261 
1227 1261 930 1260 
1228 930 1261 931 
1261 930 964 931 
931 964 1262 965 
1228 1262 1229 931 
931 964 1261 1262 
1228 1262 931 1261 
1229 931 1262 932 
1262 931 965 932 
932 965 1263 966 
1229 1263 1230 932 
932 965 1262 1263 
1229 1263 932 1262 
1230 932 1263 933 
1263 932 966 933 
933 966 1264 967 
1230 1264 1231 933 
933 966 1263 1264 
1230 1264 933 1263 
1231 933 1264 934 
1264 933 967 934 
934 967 1265 968 
1231 1265 1232 934 
934 967 1264 1265 
1231 1265 934 1264 
1232 934 1265 935 
1265 934 968 935 
935 968 1266 969 
1232 1266 1233 935 
935 968 1265 1266 
1232 1266 935 1265 
1233 935 1266 936 
1266 935 969 936 
936 969 1267 970 
1233 1267 1234 936 
936 969 1266 1267 
1233 1267 936 1266 
1234 936 1267 937 
1267 936 970 937 
937 970 1268 971 
1234 1268 1235 937 
937 970 1267 1268 
1234 1268 937 1267 
1235 937 1268 938 
1268 937 971 938 
938 971 1269 972 
1235 1269 1236 938 
938 971 1268 1269 
1235 1269 938 1268 
1236 938 1269 939 
1269 938 972 939 
939 972 1270 973 
1236 1270 1237 939 
939 972 1269 1270 
1236 1270 939 1269 
1237 939 1270 940 
1270 939 973 940 
940 973 1271 974 
1237 1271 1238 940 
940 973 1270 1271 
1237 1271 940 1270 
1238 940 1271 941 
1271 940 974 941 
941 974 1272 975 
1238 1272 1239 941 
941 974 1271 1272 
1238 1272 941 1271 
1239 941 1272 942 
1272 941 975 942 
942 975 1273 976 
1239 1273 1240 942 
942 975 1272 1273 
1239 1273 942 1272 
1240 942 1273 943 
1273 942 976 943 
943 976 1274 977 
1240 1274 1241 943 
943 976 1273 1274 
1240 1274 943 1273 
1241 943 1274 944 
1274 943 977 944 
944 977 1275 978 
1241 1275 1242 944 
944 977 1274 1275 
1241 1275 944 1274 
1242 944 1275 945 
1275 944 978 945 
945 978 1276 979 
1242 1276 1243 945 
945 978 1275 1276 
1242 1276 945 1275 
1243 945 1276 946 
1276 945 979 946 
946 979 1277 980 
1243 1277 1244 946 
946 979 1276 1277 
1243 1277 946 1276 
1244 946 1277 947 
1277 946 980 947 
947 980 1278 981 
1244 1278 1245 947 
947 980 1277 1278 
1244 1278 947 1277 
1245 947 1278 948 
1278 947 981 948 
948 981 1279 982 
1245 1279 1246 948 
948 981 1278 1279 
1245 1279 948 1278 
1246 948 1279 949 
1279 948 982 949 
949 982 1280 983 
1246 1280 1247 949 
949 982 1279 1280 
1246 1280 949 1279 
1247 949 1280 950 
1280 949 983 950 
950 983 1281 984 
1247 1281 1248 950 
950 983 1280 1281 
1247 1281 950 1280 
1248 950 1281 951 
1281 950 984 951 
951 984 1282 985 
1248 1282 1249 951 
951 984 1281 1282 
1248 1282 951 1281 
1249 951 1282 952 
1282 951 985 952 
952 985 1283 986 
1249 1283 1250 952 
952 985 1282 1283 
1249 1283 952 1282 
1250 952 1283 953 
1283 952 986 953 
953 986 1284 987 
1250 1284 1251 953 
953 986 1283 1284 
1250 1284 953 1283 
1251 953 1284 954 
1284 953 987 954 
954 987 1285 988 
1251 1285 1252 954 
954 987 1284 1285 
1251 1285 954 1284 
1252 954 1285 955 
1285 954 988 955 
955 988 1286 989 
1252 1286 1253 955 
955 988 1285 1286 
1252 1286 955 1285 
1253 955 1286 956 
1286 955 989 956 
957 990 1288 991 
1254 1288 1255 957 
957 990 1287 1288 
1254 1288 957 1287 
1255 957 1288 958 
1288 957 991 958 
958 991 1289 992 
1255 1289 1256 958 
958 991 1288 1289 
1255 1289 958 1288 
1256 958 1289 959 
1289 958 992 959 
959 992 1290 993 
1256 1290 1257 959 
959 992 1289 1290 
1256 1290 959 1289 
1257 959 1290 960 
1290 959 993 960 
960 993 1291 994 
1257 1291 1258 960 
960 993 1290 1291 
1257 1291 960 1290 
1258 960 1291 961 
1291 960 994 961 
961 994 1292 995 
1258 1292 1259 961 
961 994 1291 1292 
1258 1292 961 1291 
1259 961 1292 962 
1292 961 995 962 
962 995 1293 996 
1259 1293 1260 962 
962 995 1292 1293 
1259 1293 962 1292 
1260 962 1293 963 
1293 962 996 963 
963 996 1294 997 
1260 1294 1261 963 
963 996 1293 1294 
1260 1294 963 1293 
1261 963 1294 964 
1294 963 997 964 
964 997 1295 998 
1261 1295 1262 964 
964 997 1294 1295 
1261 1295 964 1294 
1262 964 1295 965 
1295 964 998 965 
965 998 1296 999 
1262 1296 1263 965 
965 998 1295 1296 
1262 1296 965 1295 
1263 965 1296 966 
1296 965 999 966 
966 999 1297 1000 
1263 1297 1264 966 
966 999 1296 1297 
1263 1297 966 1296 
1264 966 1297 967 
1297 966 1000 967 
967 1000 1298 1001 
1264 1298 1265 967 
967 1000 1297 1298 
1264 1298 967 1297 
1265 967 1298 968 
1298 967 1001 968 
968 1001 1299 1002 
1265 1299 1266 968 
968 1001 1298 1299 
1265 1299 968 1298 
1266 968 1299 969 
1299 968 1002 969 
969 1002 1300 1003 
1266 1300 1267 969 
969 1002 1299 1300 
1266 1300 969 1299 
1267 969 1300 970 
1300 969 1003 970 
970 1003 1301 1004 
1267 1301 1268 970 
970 1003 1300 1301 
1267 1301 970 1300 
1268 970 1301 971 
1301 970 1004 971 
971 1004 1302 1005 
1268 1302 1269 971 
971 1004 1301 1302 
1268 1302 971 1301 
1269 971 1302 972 
1302 971 1005 972 
972 1005 1303 1006 
1269 1303 1270 972 
972 1005 1302 1303 
1269 1303 972 1302 
1270 972 1303 973 
1303 972 1006 973 
973 1006 1304 1007 
1270 1304 1271 973 
973 1006 1303 1304 
1270 1304 973 1303 
1271 973 1304 974 
1304 973 1007 974 
974 1007 1305 1008 
1271 1305 1272 974 
974 1007 1304 1305 
1271 1305 974 1304 
1272 974 1305 975 
1305 974 1008 975 
975 1008 1306 1009 
1272 1306 1273 975 
975 1008 1305 1306 
1272 1306 975 1305 
1273 975 1306 976 
1306 975 1009 976 
976 1009 1307 1010 
1273 1307 1274 976 
976 1009 1306 1307 
1273 1307 976 1306 
1274 976 1307 977 
1307 976 1010 977 
977 1010 1308 1011 
1274 1308 1275 977 
977 1010 1307 1308 
1274 1308 977 1307 
1275 977 1308 978 
1308 977 1011 978 
978 1011 1309 1012 
1275 1309 1276 978 
978 1011 1308 1309 
1275 1309 978 1308 
1276 978 1309 979 
1309 978 1012 979 
979 1012 1310 1013 
1276 1310 1277 979 
979 1012 1309 1310 
1276 1310 979 1309 
1277 979 1310 980 
1310 979 1013 980 
980 1013 1311 1014 
1277 1311 1278 980 
980 1013 1310 1311 
1277 1311 980 1310 
1278 980 1311 981 
1311 980 1014 981 
981 1014 1312 1015 
1278 1312 1279 981 
981 1014 1311 1312 
1278 1312 981 1311 
1279 981 1312 982 
1312 981 1015 982 
982 1015 1313 1016 
1279 1313 1280 982 
982 1015 1312 1313 
1279 1313 982 1312 
1280 982 1313 983 
1313 982 1016 983 
983 1016 1314 1017 
1280 1314 1281 983 
983 1016 1313 1314 
1280 1314 983 1313 
1281 983 1314 984 
1314 983 1017 984 
984 1017 1315 1018 
1281 1315 1282 984 
984 1017 1314 1315 
1281 1315 984 1314 
1282 984 1315 985 
1315 984 1018 985 
985 1018 1316 1019 
1282 1316 1283 985 
985 1018 1315 1316 
1282 1316 985 1315 
1283 985 1316 986 
1316 985 1019 986 
986 1019 1317 1020 
1283 1317 1284 986 
986 1019 1316 1317 
1283 1317 986 1316 
1284 986 1317 987 
1317 986 1020 987 
987 1020 1318 1021 
1284 1318 1285 987 
987 1020 1317 1318 
1284 1318 987 1317 
1285 987 1318 988 
1318 987 1021 988 
988 1021 1319 1022 
1285 1319 1286 988 
988 1021 1318 1319 
1285 1319 988 1318 
1286 988 1319 989 
1319 988 1022 989 
990 1023 1321 1024 
1287 1321 1288 990 
990 1023 1320 1321 
1287 1321 990 1320 
1288 990 1321 991 
1321 990 1024 991 
991 1024 1322 1025 
1288 1322 1289 991 
991 1024 1321 1322 
1288 1322 991 1321 
1289 991 1322 992 
1322 991 1025 992 
992 1025 1323 1026 
1289 1323 1290 992 
992 1025 1322 1323 
1289 1323 992 1322 
1290 992 1323 993 
1323 992 1026 993 
993 1026 1324 1027 
1290 1324 1291 993 
993 1026 1323 1324 
1290 1324 993 1323 
1291 993 1324 994 
1324 993 1027 994 
994 1027 1325 1028 
1291 1325 1292 994 
994 1027 1324 1325 
1291 1325 994 1324 
1292 994 1325 995 
1325 994 1028 995 
995 1028 1326 1029 
1292 1326 1293 995 
995 1028 1325 1326 
1292 1326 995 1325 
1293 995 1326 996 
1326 995 1029 996 
996 1029 1327 1030 
1293 1327 1294 996 
996 1029 1326 1327 
1293 1327 996 1326 
1294 996 1327 997 
1327 996 1030 997 
997 1030 1328 1031 
1294 1328 1295 997 
997 1030 1327 1328 
1294 1328 997 1327 
1295 997 1328 998 
1328 997 1031 998 
998 1031 1329 1032 
1295 1329 1296 998 
998 1031 1328 1329 
1295 1329 998 1328 
1296 998 1329 999 
1329 998 1032 999 
999 1032 1330 1033 
1296 1330 1297 999 
999 1032 1329 1330 
1296 1330 999 1329 
1297 999 1330 1000 
1330 999 1033 1000 
1000 1033 1331 1034 
1297 1331 1298 1000 
1000 1033 1330 1331 
1297 1331 1000 1330 
1298 1000 1331 1001 
1331 1000 1034 1001 
1001 1034 1332 1035 
1298 1332 1299 1001 
1001 1034 1331 1332 
1298 1332 1001 1331 
1299 1001 1332 1002 
1332 1001 1035 1002 
1002 1035 1333 1036 
1299 1333 1300 1002 
1002 1035 1332 1333 
1299 1333 1002 1332 
1300 1002 1333 1003 
1333 1002 1036 1003 
1003 1036 1334 1037 
1300 1334 1301 1003 
1003 1036 1333 1334 
1300 1334 1003 1333 
1301 1003 1334 1004 
1334 1003 1037 1004 
1004 1037 1335 1038 
1301 1335 1302 1004 
1004 1037 1334 1335 
1301 1335 1004 1334 
1302 1004 1335 1005 
1335 1004 1038 1005 
1005 1038 1336 1039 
1302 1336 1303 1005 
1005 1038 1335 1336 
1302 1336 1005 1335 
1303 1005 1336 1006 
1336 1005 1039 1006 
1006 1039 1337 1040 
1303 1337 1304 1006 
1006 1039 1336 1337 
1303 1337 1006 1336 
1304 1006 1337 1007 
1337 1006 1040 1007 
1007 1040 1338 1041 
1304 1338 1305 1007 
1007 1040 1337 1338 
1304 1338 1007 1337 
1305 1007 1338 1008 
1338 1007 1041 1008 
1008 1041 1339 1042 
1305 1339 1306 1008 
1008 1041 1338 1339 
1305 1339 1008 1338 
1306 1008 1339 1009 
1339 1008 1042 1009 
1009 1042 1340 1043 
1306 1340 1307 1009 
1009 1042 1339 1340 
1306 1340 1009 1339 
1307 1009 1340 1010 
1340 1009 1043 1010 
1010 1043 1341 1044 
1307 1341 1308 1010 
1010 1043 1340 1341 
1307 1341 1010 1340 
1308 1010 1341 1011 
1341 1010 1044 1011 
1011 1044 1342 1045 
1308 1342 1309 1011 
1011 1044 1341 1342 
1308 1342 1011 1341 
1309 1011 1342 1012 
1342 1011 1045 1012 
1012 1045 1343 1046 
1309 1343 1310 1012 
1012 1045 1342 1343 
1309 1343 1012 1342 
1310 1012 1343 1013 
1343 1012 1046 1013 
1013 1046 1344 1047 
1310 1344 1311 1013 
1013 1046 1343 1344 
1310 1344 1013 1343 
1311 1013 1344 1014 
1344 1013 1047 1014 
1014 1047 1345 1048 
1311 1345 1312 1014 
1014 1047 1344 1345 
1311 1345 1014 1344 
1312 1014 1345 1015 
1345 1014 1048 1015 
1015 1048 1346 1049 
1312 1346 1313 1015 
1015 1048 1345 1346 
1312 1346 1015 1345 
1313 1015 1346 1016 
1346 1015 1049 1016 
1016 1049 1347 1050 
1313 1347 1314 1016 
1016 1049 1346 1347 
1313 1347 1016 1346 
1314 1016 1347 1017 
1347 1016 1050 1017 
1017 1050 1348 1051 
1314 1348 1315 1017 
1017 1050 1347 1348 
1314 1348 1017 1347 
1315 1017 1348 1018 
1348 1017 1051 1018 
1018 1051 1349 1052 
1315 1349 1316 1018 
1018 1051 1348 1349 
1315 1349 1018 1348 
1316 1018 1349 1019 
1349 1018 1052 1019 
1019 1052 1350 1053 
1316 1350 1317 1019 
1019 1052 1349 1350 
1316 1350 1019 1349 
1317 1019 1350 1020 
1350 1019 1053 1020 
1020 1053 1351 1054 
1317 1351 1318 1020 
1020 1053 1350 1351 
1317 1351 1020 1350 
1318 1020 1351 1021 
1351 1020 1054 1021 
1021 1054 1352 1055 
1318 1352 1319 1021 
1021 1054 1351 1352 
1318 1352 1021 1351 
1319 1021 1352 1022 
1352 1021 1055 1022 
1023 1056 1354 1057 
1320 1354 1321 1023 
1023 1056 1353 1354 
1320 1354 1023 1353 
1321 1023 1354 1024 
1354 1023 1057 1024 
1024 1057 1355 1058 
1321 1355 1322 1024 
1024 1057 1354 1355 
1321 1355 1024 1354 
1322 1024 1355 1025 
1355 1024 1058 1025 
1025 1058 1356 1059 
1322 1356 1323 1025 
1025 1058 1355 1356 
1322 1356 1025 1355 
1323 1025 1356 1026 
1356 1025 1059 1026 
1026 1059 1357 1060 
1323 1357 1324 1026 
1026 1059 1356 1357 
1323 1357 1026 1356 
1324 1026 1357 1027 
1357 1026 1060 1027 
1027 1060 1358 1061 
1324 1358 1325 1027 
1027 1060 1357 1358 
1324 1358 1027 1357 
1325 1027 1358 1028 
1358 1027 1061 1028 
1028 1061 1359 1062 
1325 1359 1326 1028 
1028 1061 1358 1359 
1325 1359 1028 1358 
1326 1028 1359 1029 
1359 1028 1062 1029 
1029 1062 1360 1063 
1326 1360 1327 1029 
1029 1062 1359 1360 
1326 1360 1029 1359 
1327 1029 1360 1030 
1360 1029 1063 1030 
1030 1063 1361 1064 
1327 1361 1328 1030 
1030 1063 1360 1361 
1327 1361 1030 1360 
1328 1030 1361 1031 
1361 1030 1064 1031 
1031 1064 1362 1065 
1328 1362 1329 1031 
1031 1064 1361 1362 
1328 1362 1031 1361 
1329 1031 1362 1032 
1362 1031 1065 1032 
1032 1065 1363 1066 
1329 1363 1330 1032 
1032 1065 1362 1363 
1329 1363 1032 1362 
1330 1032 1363 1033 
1363 1032 1066 1033 
1033 1066 1364 1067 
1330 1364 1331 1033 
1033 1066 1363 1364 
1330 1364 1033 1363 
1331 1033 1364 1034 
1364 1033 1067 1034 
1034 1067 1365 1068 
1331 1365 1332 1034 
1034 1067 1364 1365 
1331 1365 1034 1364 
1332 1034 1365 1035 
1365 1034 1068 1035 
1035 1068 1366 1069 
1332 1366 1333 1035 
1035 1068 1365 1366 
1332 1366 1035 1365 
1333 1035 1366 1036 
1366 1035 1069 1036 
1036 1069 1367 1070 
1333 1367 1334 1036 
1036 1069 1366 1367 
1333 1367 1036 1366 
1334 1036 1367 1037 
1367 1036 1070 1037 
1037 1070 1368 1071 
1334 1368 1335 1037 
1037 1070 1367 1368 
1334 1368 1037 1367 
1335 1037 1368 1038 
1368 1037 1071 1038 
1038 1071 1369 1072 
1335 1369 1336 1038 
1038 1071 1368 1369 
1335 1369 1038 1368 
1336 1038 1369 1039 
1369 1038 1072 1039 
1039 1072 1370 1073 
1336 1370 1337 1039 
1039 1072 1369 1370 
1336 1370 1039 1369 
1337 1039 1370 1040 
1370 1039 1073 1040 
1040 1073 1371 1074 
1337 1371 1338 1040 
1040 1073 1370 1371 
1337 1371 1040 1370 
1338 1040 1371 1041 
1371 1040 1074 1041 
1041 1074 1372 1075 
1338 1372 1339 1041 
1041 1074 1371 1372 
1338 1372 1041 1371 
1339 1041 1372 1042 
1372 1041 1075 1042 
1042 1075 1373 1076 
1339 1373 1340 1042 
1042 1075 1372 1373 
1339 1373 1042 1372 
1340 1042 1373 1043 
1373 1042 1076 1043 
1043 1076 1374 1077 
1340 1374 1341 1043 
1043 1076 1373 1374 
1340 1374 1043 1373 
1341 1043 1374 1044 
1374 1043 1077 1044 
1044 1077 1375 1078 
1341 1375 1342 1044 
1044 1077 1374 1375 
1341 1375 1044 1374 
1342 1044 1375 1045 
1375 1044 1078 1045 
1045 1078 1376 1079 
1342 1376 1343 1045 
1045 1078 1375 1376 
1342 1376 1045 1375 
1343 1045 1376 1046 
1376 1045 1079 1046 
1046 1079 1377 1080 
1343 1377 1344 1046 
1046 1079 1376 1377 
1343 1377 1046 1376 
1344 1046 1377 1047 
1377 1046 1080 1047 
1047 1080 1378 1081 
1344 1378 1345 1047 
1047 1080 1377 1378 
1344 1378 1047 1377 
1345 1047 1378 1048 
1378 1047 1081 1048 
1048 1081 1379 1082 
1345 1379 1346 1048 
1048 1081 1378 1379 
1345 1379 1048 1378 
1346 1048 1379 1049 
1379 1048 1082 1049 
1049 1082 1380 1083 
1346 1380 1347 1049 
1049 1082 1379 1380 
1346 1380 1049 1379 
1347 1049 1380 1050 
1380 1049 1083 1050 
1050 1083 1381 1084 
1347 1381 1348 1050 
1050 1083 1380 1381 
1347 1381 1050 1380 
1348 1050 1381 1051 
1381 1050 1084 1051 
1051 1084 1382 1085 
1348 1382 1349 1051 
1051 1084 1381 1382 
1348 1382 1051 1381 
1349 1051 1382 1052 
1382 1051 1085 1052 
1052 1085 1383 1086 
1349 1383 1350 1052 
1052 1085 1382 1383 
1349 1383 1052 1382 
1350 1052 1383 1053 
1383 1052 1086 1053 
1053 1086 1384 1087 
1350 1384 1351 1053 
1053 1086 1383 1384 
1350 1384 1053 1383 
1351 1053 1384 1054 
1384 1053 1087 1054 
1054 1087 1385 1088 
1351 1385 1352 1054 
1054 1087 1384 1385 
1351 1385 1054 1384 
1352 1054 1385 1055 
1385 1054 1088 1055 
1056 1089 1387 1090 
1353 1387 1354 1056 
1056 1089 1386 1387 
1353 1387 1056 1386 
1354 1056 1387 1057 
1387 1056 1090 1057 
1057 1090 1388 1091 
1354 1388 1355 1057 
1057 1090 1387 1388 
1354 1388 1057 1387 
1355 1057 1388 1058 
1388 1057 1091 1058 
1058 1091 1389 1092 
1355 1389 1356 1058 
1058 1091 1388 1389 
1355 1389 1058 1388 
1356 1058 1389 1059 
1389 1058 1092 1059 
1059 1092 1390 1093 
1356 1390 1357 1059 
1059 1092 1389 1390 
1356 1390 1059 1389 
1357 1059 1390 1060 
1390 1059 1093 1060 
1060 1093 1391 1094 
1357 1391 1358 1060 
1060 1093 1390 1391 
1357 1391 1060 1390 
1358 1060 1391 1061 
1391 1060 1094 1061 
1061 1094 1392 1095 
1358 1392 1359 1061 
1061 1094 1391 1392 
1358 1392 1061 1391 
1359 1061 1392 1062 
1392 1061 1095 1062 
1062 1095 1393 1096 
1359 1393 1360 1062 
1062 1095 1392 1393 
1359 1393 1062 1392 
1360 1062 1393 1063 
1393 1062 1096 1063 
1063 1096 1394 1097 
1360 1394 1361 1063 
1063 1096 1393 1394 
1360 1394 1063 1393 
1361 1063 1394 1064 
1394 1063 1097 1064 
1064 1097 1395 1098 
1361 1395 1362 1064 
1064 1097 1394 1395 
1361 1395 1064 1394 
1362 1064 1395 1065 
1395 1064 1098 1065 
1065 1098 1396 1099 
1362 1396 1363 1065 
1065 1098 1395 1396 
1362 1396 1065 1395 
1363 1065 1396 1066 
1396 1065 1099 1066 
1066 1099 1397 1100 
1363 1397 1364 1066 
1066 1099 1396 1397 
1363 1397 1066 1396 
1364 1066 1397 1067 
1397 1066 1100 1067 
1067 1100 1398 1101 
1364 1398 1365 1067 
1067 1100 1397 1398 
1364 1398 1067 1397 
1365 1067 1398 1068 
1398 1067 1101 1068 
1068 1101 1399 1102 
1365 1399 1366 1068 
1068 1101 1398 1399 
1365 1399 1068 1398 
1366 1068 1399 1069 
1399 1068 1102 1069 
1069 1102 1400 1103 
1366 1400 1367 1069 
1069 1102 1399 1400 
1366 1400 1069 1399 
1367 1069 1400 1070 
1400 1069 1103 1070 
1070 1103 1401 1104 
1367 1401 1368 1070 
1070 1103 1400 1401 
1367 1401 1070 1400 
1368 1070 1401 1071 
1401 1070 1104 1071 
1071 1104 1402 1105 
1368 1402 1369 1071 
1071 1104 1401 1402 
1368 1402 1071 1401 
1369 1071 1402 1072 
1402 1071 1105 1072 
1072 1105 1403 1106 
1369 1403 1370 1072 
1072 1105 1402 1403 
1369 1403 1072 1402 
1370 1072 1403 1073 
1403 1072 1106 1073 
1073 1106 1404 1107 
1370 1404 1371 1073 
1073 1106 1403 1404 
1370 1404 1073 1403 
1371 1073 1404 1074 
1404 1073 1107 1074 
1074 1107 1405 1108 
1371 1405 1372 1074 
1074 1107 1404 1405 
1371 1405 1074 1404 
1372 1074 1405 1075 
1405 1074 1108 1075 
1075 1108 1406 1109 
1372 1406 1373 1075 
1075 1108 1405 1406 
1372 1406 1075 1405 
1373 1075 1406 1076 
1406 1075 1109 1076 
1076 1109 1407 1110 
1373 1407 1374 1076 
1076 1109 1406 1407 
1373 1407 1076 1406 
1374 1076 1407 1077 
1407 1076 1110 1077 
1077 1110 1408 1111 
1374 1408 1375 1077 
1077 1110 1407 1408 
1374 1408 1077 1407 
1375 1077 1408 1078 
1408 1077 1111 1078 
1078 1111 1409 1112 
1375 1409 1376 1078 
1078 1111 1408 1409 
1375 1409 1078 1408 
1376 1078 1409 1079 
1409 1078 1112 1079 
1079 1112 1410 1113 
1376 1410 1377 1079 
1079 1112 1409 1410 
1376 1410 1079 1409 
1377 1079 1410 1080 
1410 1079 1113 1080 
1080 1113 1411 1114 
1377 1411 1378 1080 
1080 1113 1410 1411 
1377 1411 1080 1410 
1378 1080 1411 1081 
1411 1080 1114 1081 
1081 1114 1412 1115 
1378 1412 1379 1081 
1081 1114 1411 1412 
1378 1412 1081 1411 
1379 1081 1412 1082 
1412 1081 1115 1082 
1082 1115 1413 1116 
1379 1413 1380 1082 
1082 1115 1412 1413 
1379 1413 1082 1412 
1380 1082 1413 1083 
1413 1082 1116 1083 
1083 1116 1414 1117 
1380 1414 1381 1083 
1083 1116 1413 1414 
1380 1414 1083 1413 
1381 1083 1414 1084 
1414 1083 1117 1084 
1084 1117 1415 1118 
1381 1415 1382 1084 
1084 1117 1414 1415 
1381 1415 1084 1414 
1382 1084 1415 1085 
1415 1084 1118 1085 
1085 1118 1416 1119 
1382 1416 1383 1085 
1085 1118 1415 1416 
1382 1416 1085 1415 
1383 1085 1416 1086 
1416 1085 1119 1086 
1086 1119 1417 1120 
1383 1417 1384 1086 
1086 1119 1416 1417 
1383 1417 1086 1416 
1384 1086 1417 1087 
1417 1086 1120 1087 
1087 1120 1418 1121 
1384 1418 1385 1087 
1087 1120 1417 1418 
1384 1418 1087 1417 
1385 1087 1418 1088 
1418 1087 1121 1088 
1089 1122 1420 1123 
1386 1420 1387 1089 
1089 1122 1419 1420 
1386 1420 1089 1419 
1387 1089 1420 1090 
1420 1089 1123 1090 
1090 1123 1421 1124 
1387 1421 1388 1090 
1090 1123 1420 1421 
1387 1421 1090 1420 
1388 1090 1421 1091 
1421 1090 1124 1091 
1091 1124 1422 1125 
1388 1422 1389 1091 
1091 1124 1421 1422 
1388 1422 1091 1421 
1389 1091 1422 1092 
1422 1091 1125 1092 
1092 1125 1423 1126 
1389 1423 1390 1092 
1092 1125 1422 1423 
1389 1423 1092 1422 
1390 1092 1423 1093 
1423 1092 1126 1093 
1093 1126 1424 1127 
1390 1424 1391 1093 
1093 1126 1423 1424 
1390 1424 1093 1423 
1391 1093 1424 1094 
1424 1093 1127 1094 
1094 1127 1425 1128 
1391 1425 1392 1094 
1094 1127 1424 1425 
1391 1425 1094 1424 
1392 1094 1425 1095 
1425 1094 1128 1095 
1095 1128 1426 1129 
1392 1426 1393 1095 
1095 1128 1425 1426 
1392 1426 1095 1425 
1393 1095 1426 1096 
1426 1095 1129 1096 
1096 1129 1427 1130 
1393 1427 1394 1096 
1096 1129 1426 1427 
1393 1427 1096 1426 
1394 1096 1427 1097 
1427 1096 1130 1097 
1097 1130 1428 1131 
1394 1428 1395 1097 
1097 1130 1427 1428 
1394 1428 1097 1427 
1395 1097 1428 1098 
1428 1097 1131 1098 
1098 1131 1429 1132 
1395 1429 1396 1098 
1098 1131 1428 1429 
1395 1429 1098 1428 
1396 1098 1429 1099 
1429 1098 1132 1099 
1099 1132 1430 1133 
1396 1430 1397 1099 
1099 1132 1429 1430 
1396 1430 1099 1429 
1397 1099 1430 1100 
1430 1099 1133 1100 
1100 1133 1431 1134 
1397 1431 1398 1100 
1100 1133 1430 1431 
1397 1431 1100 1430 
1398 1100 1431 1101 
1431 1100 1134 1101 
1101 1134 1432 1135 
1398 1432 1399 1101 
1101 1134 1431 1432 
1398 1432 1101 1431 
1399 1101 1432 1102 
1432 1101 1135 1102 
1102 1135 1433 1136 
1399 1433 1400 1102 
1102 1135 1432 1433 
1399 1433 1102 1432 
1400 1102 1433 1103 
1433 1102 1136 1103 
1103 1136 1434 1137 
1400 1434 1401 1103 
1103 1136 1433 1434 
1400 1434 1103 1433 
1401 1103 1434 1104 
1434 1103 1137 1104 
1104 1137 1435 1138 
1401 1435 1402 1104 
1104 1137 1434 1435 
1401 1435 1104 1434 
1402 1104 1435 1105 
1435 1104 1138 1105 
1105 1138 1436 1139 
1402 1436 1403 1105 
1105 1138 1435 1436 
1402 1436 1105 1435 
1403 1105 1436 1106 
1436 1105 1139 1106 
1106 1139 1437 1140 
1403 1437 1404 1106 
1106 1139 1436 1437 
1403 1437 1106 1436 
1404 1106 1437 1107 
1437 1106 1140 1107 
1107 1140 1438 1141 
1404 1438 1405 1107 
1107 1140 1437 1438 
1404 1438 1107 1437 
1405 1107 1438 1108 
1438 1107 1141 1108 
1108 1141 1439 1142 
1405 1439 1406 1108 
1108 1141 1438 1439 
1405 1439 1108 1438 
1406 1108 1439 1109 
1439 1108 1142 1109 
1109 1142 1440 1143 
1406 1440 1407 1109 
1109 1142 1439 1440 
1406 1440 1109 1439 
1407 1109 1440 1110 
1440 1109 1143 1110 
1110 1143 1441 1144 
1407 1441 1408 1110 
1110 1143 1440 1441 
1407 1441 1110 1440 
1408 1110 1441 1111 
1441 1110 1144 1111 
1111 1144 1442 1145 
1408 1442 1409 1111 
1111 1144 1441 1442 
1408 1442 1111 1441 
1409 1111 1442 1112 
1442 1111 1145 1112 
1112 1145 1443 1146 
1409 1443 1410 1112 
1112 1145 1442 1443 
1409 1443 1112 1442 
1410 1112 1443 1113 
1443 1112 1146 1113 
1113 1146 1444 1147 
1410 1444 1411 1113 
1113 1146 1443 1444 
1410 1444 1113 1443 
1411 1113 1444 1114 
1444 1113 1147 1114 
1114 1147 1445 1148 
1411 1445 1412 1114 
1114 1147 1444 1445 
1411 1445 1114 1444 
1412 1114 1445 1115 
1445 1114 1148 1115 
1115 1148 1446 1149 
1412 1446 1413 1115 
1115 1148 1445 1446 
1412 1446 1115 1445 
1413 1115 1446 1116 
1446 1115 1149 1116 
1116 1149 1447 1150 
1413 1447 1414 1116 
1116 1149 1446 1447 
1413 1447 1116 1446 
1414 1116 1447 1117 
1447 1116 1150 1117 
1117 1150 1448 1151 
1414 1448 1415 1117 
1117 1150 1447 1448 
1414 1448 1117 1447 
1415 1117 1448 1118 
1448 1117 1151 1118 
1118 1151 1449 1152 
1415 1449 1416 1118 
1118 1151 1448 1449 
1415 1449 1118 1448 
1416 1118 1449 1119 
1449 1118 1152 1119 
1119 1152 1450 1153 
1416 1450 1417 1119 
1119 1152 1449 1450 
1416 1450 1119 1449 
1417 1119 1450 1120 
1450 1119 1153 1120 
1120 1153 1451 1154 
1417 1451 1418 1120 
1120 1153 1450 1451 
1417 1451 1120 1450 
1418 1120 1451 1121 
1451 1120 1154 1121 
1122 1155 1453 1156 
1419 1453 1420 1122 
1122 1155 1452 1453 
1419 1453 1122 1452 
1420 1122 1453 1123 
1453 1122 1156 1123 
1123 1156 1454 1157 
1420 1454 1421 1123 
1123 1156 1453 1454 
1420 1454 1123 1453 
1421 1123 1454 1124 
1454 1123 1157 1124 
1124 1157 1455 1158 
1421 1455 1422 1124 
1124 1157 1454 1455 
1421 1455 1124 1454 
1422 1124 1455 1125 
1455 1124 1158 1125 
1125 1158 1456 1159 
1422 1456 1423 1125 
1125 1158 1455 1456 
1422 1456 1125 1455 
1423 1125 1456 1126 
1456 1125 1159 1126 
1126 1159 1457 1160 
1423 1457 1424 1126 
1126 1159 1456 1457 
1423 1457 1126 1456 
1424 1126 1457 1127 
1457 1126 1160 1127 
1127 1160 1458 1161 
1424 1458 1425 1127 
1127 1160 1457 1458 
1424 1458 1127 1457 
1425 1127 1458 1128 
1458 1127 1161 1128 
1128 1161 1459 1162 
1425 1459 1426 1128 
1128 1161 1458 1459 
1425 1459 1128 1458 
1426 1128 1459 1129 
1459 1128 1162 1129 
1129 1162 1460 1163 
1426 1460 1427 1129 
1129 1162 1459 1460 
1426 1460 1129 1459 
1427 1129 1460 1130 
1460 1129 1163 1130 
1130 1163 1461 1164 
1427 1461 1428 1130 
1130 1163 1460 1461 
1427 1461 1130 1460 
1428 1130 1461 1131 
1461 1130 1164 1131 
1131 1164 1462 1165 
1428 1462 1429 1131 
1131 1164 1461 1462 
1428 1462 1131 1461 
1429 1131 1462 1132 
1462 1131 1165 1132 
1132 1165 1463 1166 
1429 1463 1430 1132 
1132 1165 1462 1463 
1429 1463 1132 1462 
1430 1132 1463 1133 
1463 1132 1166 1133 
1133 1166 1464 1167 
1430 1464 1431 1133 
1133 1166 1463 1464 
1430 1464 1133 1463 
1431 1133 1464 1134 
1464 1133 1167 1134 
1134 1167 1465 1168 
1431 1465 1432 1134 
1134 1167 1464 1465 
1431 1465 1134 1464 
1432 1134 1465 1135 
1465 1134 1168 1135 
1135 1168 1466 1169 
1432 1466 1433 1135 
1135 1168 1465 1466 
1432 1466 1135 1465 
1433 1135 1466 1136 
1466 1135 1169 1136 
1136 1169 1467 1170 
1433 1467 1434 1136 
1136 1169 1466 1467 
1433 1467 1136 1466 
1434 1136 1467 1137 
1467 1136 1170 1137 
1137 1170 1468 1171 
1434 1468 1435 1137 
1137 1170 1467 1468 
1434 1468 1137 1467 
1435 1137 1468 1138 
1468 1137 1171 1138 
1138 1171 1469 1172 
1435 1469 1436 1138 
1138 1171 1468 1469 
1435 1469 1138 1468 
1436 1138 1469 1139 
1469 1138 1172 1139 
1139 1172 1470 1173 
1436 1470 1437 1139 
1139 1172 1469 1470 
1436 1470 1139 1469 
1437 1139 1470 1140 
1470 1139 1173 1140 
1140 1173 1471 1174 
1437 1471 1438 1140 
1140 1173 1470 1471 
1437 1471 1140 1470 
1438 1140 1471 1141 
1471 1140 1174 1141 
1141 1174 1472 1175 
1438 1472 1439 1141 
1141 1174 1471 1472 
1438 1472 1141 1471 
1439 1141 1472 1142 
1472 1141 1175 1142 
1142 1175 1473 1176 
1439 1473 1440 1142 
1142 1175 1472 1473 
1439 1473 1142 1472 
1440 1142 1473 1143 
1473 1142 1176 1143 
1143 1176 1474 1177 
1440 1474 1441 1143 
1143 1176 1473 1474 
1440 1474 1143 1473 
1441 1143 1474 1144 
1474 1143 1177 1144 
1144 1177 1475 1178 
1441 1475 1442 1144 
1144 1177 1474 1475 
1441 1475 1144 1474 
1442 1144 1475 1145 
1475 1144 1178 1145 
1145 1178 1476 1179 
1442 1476 1443 1145 
1145 1178 1475 1476 
1442 1476 1145 1475 
1443 1145 1476 1146 
1476 1145 1179 1146 
1146 1179 1477 1180 
1443 1477 1444 1146 
1146 1179 1476 1477 
1443 1477 1146 1476 
1444 1146 1477 1147 
1477 1146 1180 1147 
1147 1180 1478 1181 
1444 1478 1445 1147 
1147 1180 1477 1478 
1444 1478 1147 1477 
1445 1147 1478 1148 
1478 1147 1181 1148 
1148 1181 1479 1182 
1445 1479 1446 1148 
1148 1181 1478 1479 
1445 1479 1148 1478 
1446 1148 1479 1149 
1479 1148 1182 1149 
1149 1182 1480 1183 
1446 1480 1447 1149 
1149 1182 1479 1480 
1446 1480 1149 1479 
1447 1149 1480 1150 
1480 1149 1183 1150 
1150 1183 1481 1184 
1447 1481 1448 1150 
1150 1183 1480 1481 
1447 1481 1150 1480 
1448 1150 1481 1151 
1481 1150 1184 1151 
1151 1184 1482 1185 
1448 1482 1449 1151 
1151 1184 1481 1482 
1448 1482 1151 1481 
1449 1151 1482 1152 
1482 1151 1185 1152 
1152 1185 1483 1186 
1449 1483 1450 1152 
1152 1185 1482 1483 
1449 1483 1152 1482 
1450 1152 1483 1153 
1483 1152 1186 1153 
1153 1186 1484 1187 
1450 1484 1451 1153 
1153 1186 1483 1484 
1450 1484 1153 1483 
1451 1153 1484 1154 
1484 1153 1187 1154 
1188 1221 1519 1222 
1485 1519 1486 1188 
1188 1221 1518 1519 
1485 1519 1188 1518 
1486 1188 1519 1189 
1519 1188 1222 1189 
1189 1222 1520 1223 
1486 1520 1487 1189 
1189 1222 1519 1520 
1486 1520 1189 1519 
1487 1189 1520 1190 
1520 1189 1223 1190 
1190 1223 1521 1224 
1487 1521 1488 1190 
1190 1223 1520 1521 
1487 1521 1190 1520 
1488 1190 1521 1191 
1521 1190 1224 1191 
1191 1224 1522 1225 
1488 1522 1489 1191 
1191 1224 1521 1522 
1488 1522 1191 1521 
1489 1191 1522 1192 
1522 1191 1225 1192 
1192 1225 1523 1226 
1489 1523 1490 1192 
1192 1225 1522 1523 
1489 1523 1192 1522 
1490 1192 1523 1193 
1523 1192 1226 1193 
1193 1226 1524 1227 
1490 1524 1491 1193 
1193 1226 1523 1524 
1490 1524 1193 1523 
1491 1193 1524 1194 
1524 1193 1227 1194 
1194 1227 1525 1228 
1491 1525 1492 1194 
1194 1227 1524 1525 
1491 1525 1194 1524 
1492 1194 1525 1195 
1525 1194 1228 1195 
1195 1228 1526 1229 
1492 1526 1493 1195 
1195 1228 1525 1526 
1492 1526 1195 1525 
1493 1195 1526 1196 
1526 1195 1229 1196 
1196 1229 1527 1230 
1493 1527 1494 1196 
1196 1229 1526 1527 
1493 1527 1196 1526 
1494 1196 1527 1197 
1527 1196 1230 1197 
1197 1230 1528 1231 
1494 1528 1495 1197 
1197 1230 1527 1528 
1494 1528 1197 1527 
1495 1197 1528 1198 
1528 1197 1231 1198 
1198 1231 1529 1232 
1495 1529 1496 1198 
1198 1231 1528 1529 
1495 1529 1198 1528 
1496 1198 1529 1199 
1529 1198 1232 1199 
1199 1232 1530 1233 
1496 1530 1497 1199 
1199 1232 1529 1530 
1496 1530 1199 1529 
1497 1199 1530 1200 
1530 1199 1233 1200 
1200 1233 1531 1234 
1497 1531 1498 1200 
1200 1233 1530 1531 
1497 1531 1200 1530 
1498 1200 1531 1201 
1531 1200 1234 1201 
1201 1234 1532 1235 
1498 1532 1499 1201 
1201 1234 1531 1532 
1498 1532 1201 1531 
1499 1201 1532 1202 
1532 1201 1235 1202 
1202 1235 1533 1236 
1499 1533 1500 1202 
1202 1235 1532 1533 
1499 1533 1202 1532 
1500 1202 1533 1203 
1533 1202 1236 1203 
1203 1236 1534 1237 
1500 1534 1501 1203 
1203 1236 1533 1534 
1500 1534 1203 1533 
1501 1203 1534 1204 
1534 1203 1237 1204 
1204 1237 1535 1238 
1501 1535 1502 1204 
1204 1237 1534 1535 
1501 1535 1204 1534 
1502 1204 1535 1205 
1535 1204 1238 1205 
1205 1238 1536 1239 
1502 1536 1503 1205 
1205 1238 1535 1536 
1502 1536 1205 1535 
1503 1205 1536 1206 
1536 1205 1239 1206 
1206 1239 1537 1240 
1503 1537 1504 1206 
1206 1239 1536 1537 
1503 1537 1206 1536 
1504 1206 1537 1207 
1537 1206 1240 1207 
1207 1240 1538 1241 
1504 1538 1505 1207 
1207 1240 1537 1538 
1504 1538 1207 1537 
1505 1207 1538 1208 
1538 1207 1241 1208 
1208 1241 1539 1242 
1505 1539 1506 1208 
1208 1241 1538 1539 
1505 1539 1208 1538 
1506 1208 1539 1209 
1539 1208 1242 1209 
1209 1242 1540 1243 
1506 1540 1507 1209 
1209 1242 1539 1540 
1506 1540 1209 1539 
1507 1209 1540 1210 
1540 1209 1243 1210 
1210 1243 1541 1244 
1507 1541 1508 1210 
1210 1243 1540 1541 
1507 1541 1210 1540 
1508 1210 1541 1211 
1541 1210 1244 1211 
1211 1244 1542 1245 
1508 1542 1509 1211 
1211 1244 1541 1542 
1508 1542 1211 1541 
1509 1211 1542 1212 
1542 1211 1245 1212 
1212 1245 1543 1246 
1509 1543 1510 1212 
1212 1245 1542 1543 
1509 1543 1212 1542 
1510 1212 1543 1213 
1543 1212 1246 1213 
1213 1246 1544 1247 
1510 1544 1511 1213 
1213 1246 1543 1544 
1510 1544 1213 1543 
1511 1213 1544 1214 
1544 1213 1247 1214 
1214 1247 1545 1248 
1511 1545 1512 1214 
1214 1247 1544 1545 
1511 1545 1214 1544 
1512 1214 1545 1215 
1545 1214 1248 1215 
1215 1248 1546 1249 
1512 1546 1513 1215 
1215 1248 1545 1546 
1512 1546 1215 1545 
1513 1215 1546 1216 
1546 1215 1249 1216 
1216 1249 1547 1250 
1513 1547 1514 1216 
1216 1249 1546 1547 
1513 1547 1216 1546 
1514 1216 1547 1217 
1547 1216 1250 1217 
1217 1250 1548 1251 
1514 1548 1515 1217 
1217 1250 1547 1548 
1514 1548 1217 1547 
1515 1217 1548 1218 
1548 1217 1251 1218 
1218 1251 1549 1252 
1515 1549 1516 1218 
1218 1251 1548 1549 
1515 1549 1218 1548 
1516 1218 1549 1219 
1549 1218 1252 1219 
1219 1252 1550 1253 
1516 1550 1517 1219 
1219 1252 1549 1550 
1516 1550 1219 1549 
1517 1219 1550 1220 
1550 1219 1253 1220 
1221 1254 1552 1255 
1518 1552 1519 1221 
1221 1254 1551 1552 
1518 1552 1221 1551 
1519 1221 1552 1222 
1552 1221 1255 1222 
1222 1255 1553 1256 
1519 1553 1520 1222 
1222 1255 1552 1553 
1519 1553 1222 1552 
1520 1222 1553 1223 
1553 1222 1256 1223 
1223 1256 1554 1257 
1520 1554 1521 1223 
1223 1256 1553 1554 
1520 1554 1223 1553 
1521 1223 1554 1224 
1554 1223 1257 1224 
1224 1257 1555 1258 
1521 1555 1522 1224 
1224 1257 1554 1555 
1521 1555 1224 1554 
1522 1224 1555 1225 
1555 1224 1258 1225 
1225 1258 1556 1259 
1522 1556 1523 1225 
1225 1258 1555 1556 
1522 1556 1225 1555 
1523 1225 1556 1226 
1556 1225 1259 1226 
1226 1259 1557 1260 
1523 1557 1524 1226 
1226 1259 1556 1557 
1523 1557 1226 1556 
1524 1226 1557 1227 
1557 1226 1260 1227 
1227 1260 1558 1261 
1524 1558 1525 1227 
1227 1260 1557 1558 
1524 1558 1227 1557 
1525 1227 1558 1228 
1558 1227 1261 1228 
1228 1261 1559 1262 
1525 1559 1526 1228 
1228 1261 1558 1559 
1525 1559 1228 1558 
1526 1228 1559 1229 
1559 1228 1262 1229 
1229 1262 1560 1263 
1526 1560 1527 1229 
1229 1262 1559 1560 
1526 1560 1229 1559 
1527 1229 1560 1230 
1560 1229 1263 1230 
1230 1263 1561 1264 
1527 1561 1528 1230 
1230 1263 1560 1561 
1527 1561 1230 1560 
1528 1230 1561 1231 
1561 1230 1264 1231 
1231 1264 1562 1265 
1528 1562 1529 1231 
1231 1264 1561 1562 
1528 1562 1231 1561 
1529 1231 1562 1232 
1562 1231 1265 1232 
1232 1265 1563 1266 
1529 1563 1530 1232 
1232 1265 1562 1563 
1529 1563 1232 1562 
1530 1232 1563 1233 
1563 1232 1266 1233 
1233 1266 1564 1267 
1530 1564 1531 1233 
1233 1266 1563 1564 
1530 1564 1233 1563 
1531 1233 1564 1234 
1564 1233 1267 1234 
1234 1267 1565 1268 
1531 1565 1532 1234 
1234 1267 1564 1565 
1531 1565 1234 1564 
1532 1234 1565 1235 
1565 1234 1268 1235 
1235 1268 1566 1269 
1532 1566 1533 1235 
1235 1268 1565 1566 
1532 1566 1235 1565 
1533 1235 1566 1236 
1566 1235 1269 1236 
1236 1269 1567 1270 
1533 1567 1534 1236 
1236 1269 1566 1567 
1533 1567 1236 1566 
1534 1236 1567 1237 
1567 1236 1270 1237 
1237 1270 1568 1271 
1534 1568 1535 1237 
1237 1270 1567 1568 
1534 1568 1237 1567 
1535 1237 1568 1238 
1568 1237 1271 1238 
1238 1271 1569 1272 
1535 1569 1536 1238 
1238 1271 1568 1569 
1535 1569 1238 1568 
1536 1238 1569 1239 
1569 1238 1272 1239 
1239 1272 1570 1273 
1536 1570 1537 1239 
1239 1272 1569 1570 
1536 1570 1239 1569 
1537 1239 1570 1240 
1570 1239 1273 1240 
1240 1273 1571 1274 
1537 1571 1538 1240 
1240 1273 1570 1571 
1537 1571 1240 1570 
1538 1240 1571 1241 
1571 1240 1274 1241 
1241 1274 1572 1275 
1538 1572 1539 1241 
1241 1274 1571 1572 
1538 1572 1241 1571 
1539 1241 1572 1242 
1572 1241 1275 1242 
1242 1275 1573 1276 
1539 1573 1540 1242 
1242 1275 1572 1573 
1539 1573 1242 1572 
1540 1242 1573 1243 
1573 1242 1276 1243 
1243 1276 1574 1277 
1540 1574 1541 1243 
1243 1276 1573 1574 
1540 1574 1243 1573 
1541 1243 1574 1244 
1574 1243 1277 1244 
1244 1277 1575 1278 
1541 1575 1542 1244 
1244 1277 1574 1575 
1541 1575 1244 1574 
1542 1244 1575 1245 
1575 1244 1278 1245 
1245 1278 1576 1279 
1542 1576 1543 1245 
1245 1278 1575 1576 
1542 1576 1245 1575 
1543 1245 1576 1246 
1576 1245 1279 1246 
1246 1279 1577 1280 
1543 1577 1544 1246 
1246 1279 1576 1577 
1543 1577 1246 1576 
1544 1246 1577 1247 
1577 1246 1280 1247 
1247 1280 1578 1281 
1544 1578 1545 1247 
1247 1280 1577 1578 
1544 1578 1247 1577 
1545 1247 1578 1248 
1578 1247 1281 1248 
1248 1281 1579 1282 
1545 1579 1546 1248 
1248 1281 1578 1579 
1545 1579 1248 1578 
1546 1248 1579 1249 
1579 1248 1282 1249 
1249 1282 1580 1283 
1546 1580 1547 1249 
1249 1282 1579 1580 
1546 1580 1249 1579 
1547 1249 1580 1250 
1580 1249 1283 1250 
1250 1283 1581 1284 
1547 1581 1548 1250 
1250 1283 1580 1581 
1547 1581 1250 1580 
1548 1250 1581 1251 
1581 1250 1284 1251 
1251 1284 1582 1285 
1548 1582 1549 1251 
1251 1284 1581 1582 
1548 1582 1251 1581 
1549 1251 1582 1252 
1582 1251 1285 1252 
1252 1285 1583 1286 
1549 1583 1550 1252 
1252 1285 1582 1583 
1549 1583 1252 1582 
1550 1252 1583 1253 
1583 1252 1286 1253 
1254 1287 1585 1288 
1551 1585 1552 1254 
1254 1287 1584 1585 
1551 1585 1254 1584 
1552 1254 1585 1255 
1585 1254 1288 1255 
1255 1288 1586 1289 
1552 1586 1553 1255 
1255 1288 1585 1586 
1552 1586 1255 1585 
1553 1255 1586 1256 
1586 1255 1289 1256 
1256 1289 1587 1290 
1553 1587 1554 1256 
1256 1289 1586 1587 
1553 1587 1256 1586 
1554 1256 1587 1257 
1587 1256 1290 1257 
1257 1290 1588 1291 
1554 1588 1555 1257 
1257 1290 1587 1588 
1554 1588 1257 1587 
1555 1257 1588 1258 
1588 1257 1291 1258 
1258 1291 1589 1292 
1555 1589 1556 1258 
1258 1291 1588 1589 
1555 1589 1258 1588 
1556 1258 1589 1259 
1589 1258 1292 1259 
1259 1292 1590 1293 
1556 1590 1557 1259 
1259 1292 1589 1590 
1556 1590 1259 1589 
1557 1259 1590 1260 
1590 1259 1293 1260 
1260 1293 1591 1294 
1557 1591 1558 1260 
1260 1293 1590 1591 
1557 1591 1260 1590 
1558 1260 1591 1261 
1591 1260 1294 1261 
1261 1294 1592 1295 
1558 1592 1559 1261 
1261 1294 1591 1592 
1558 1592 1261 1591 
1559 1261 1592 1262 
1592 1261 1295 1262 
1262 1295 1593 1296 
1559 1593 1560 1262 
1262 1295 1592 1593 
1559 1593 1262 1592 
1560 1262 1593 1263 
1593 1262 1296 1263 
1263 1296 1594 1297 
1560 1594 1561 1263 
1263 1296 1593 1594 
1560 1594 1263 1593 
1561 1263 1594 1264 
1594 1263 1297 1264 
1264 1297 1595 1298 
1561 1595 1562 1264 
1264 1297 1594 1595 
1561 1595 1264 1594 
1562 1264 1595 1265 
1595 1264 1298 1265 
1265 1298 1596 1299 
1562 1596 1563 1265 
1265 1298 1595 1596 
1562 1596 1265 1595 
1563 1265 1596 1266 
1596 1265 1299 1266 
1266 1299 1597 1300 
1563 1597 1564 1266 
1266 1299 1596 1597 
1563 1597 1266 1596 
1564 1266 1597 1267 
1597 1266 1300 1267 
1267 1300 1598 1301 
1564 1598 1565 1267 
1267 1300 1597 1598 
1564 1598 1267 1597 
1565 1267 1598 1268 
1598 1267 1301 1268 
1268 1301 1599 1302 
1565 1599 1566 1268 
1268 1301 1598 1599 
1565 1599 1268 1598 
1566 1268 1599 1269 
1599 1268 1302 1269 
1269 1302 1600 1303 
1566 1600 1567 1269 
1269 1302 1599 1600 
1566 1600 1269 1599 
1567 1269 1600 1270 
1600 1269 1303 1270 
1270 1303 1601 1304 
1567 1601 1568 1270 
1270 1303 1600 1601 
1567 1601 1270 1600 
1568 1270 1601 1271 
1601 1270 1304 1271 
1271 1304 1602 1305 
1568 1602 1569 1271 
1271 1304 1601 1602 
1568 1602 1271 1601 
1569 1271 1602 1272 
1602 1271 1305 1272 
1272 1305 1603 1306 
1569 1603 1570 1272 
1272 1305 1602 1603 
1569 1603 1272 1602 
1570 1272 1603 1273 
1603 1272 1306 1273 
1273 1306 1604 1307 
1570 1604 1571 1273 
1273 1306 1603 1604 
1570 1604 1273 1603 
1571 1273 1604 1274 
1604 1273 1307 1274 
1274 1307 1605 1308 
1571 1605 1572 1274 
1274 1307 1604 1605 
1571 1605 1274 1604 
1572 1274 1605 1275 
1605 1274 1308 1275 
1275 1308 1606 1309 
1572 1606 1573 1275 
1275 1308 1605 1606 
1572 1606 1275 1605 
1573 1275 1606 1276 
1606 1275 1309 1276 
1276 1309 1607 1310 
1573 1607 1574 1276 
1276 1309 1606 1607 
1573 1607 1276 1606 
1574 1276 1607 1277 
1607 1276 1310 1277 
1277 1310 1608 1311 
1574 1608 1575 1277 
1277 1310 1607 1608 
1574 1608 1277 1607 
1575 1277 1608 1278 
1608 1277 1311 1278 
1278 1311 1609 1312 
1575 1609 1576 1278 
1278 1311 1608 1609 
1575 1609 1278 1608 
1576 1278 1609 1279 
1609 1278 1312 1279 
1279 1312 1610 1313 
1576 1610 1577 1279 
1279 1312 1609 1610 
1576 1610 1279 1609 
1577 1279 1610 1280 
1610 1279 1313 1280 
1280 1313 1611 1314 
1577 1611 1578 1280 
1280 1313 1610 1611 
1577 1611 1280 1610 
1578 1280 1611 1281 
1611 1280 1314 1281 
1281 1314 1612 1315 
1578 1612 1579 1281 
1281 1314 1611 1612 
1578 1612 1281 1611 
1579 1281 1612 1282 
1612 1281 1315 1282 
1282 1315 1613 1316 
1579 1613 1580 1282 
1282 1315 1612 1613 
1579 1613 1282 1612 
1580 1282 1613 1283 
1613 1282 1316 1283 
1283 1316 1614 1317 
1580 1614 1581 1283 
1283 1316 1613 1614 
1580 1614 1283 1613 
1581 1283 1614 1284 
1614 1283 1317 1284 
1284 1317 1615 1318 
1581 1615 1582 1284 
1284 1317 1614 1615 
1581 1615 1284 1614 
1582 1284 1615 1285 
1615 1284 1318 1285 
1285 1318 1616 1319 
1582 1616 1583 1285 
1285 1318 1615 1616 
1582 1616 1285 1615 
1583 1285 1616 1286 
1616 1285 1319 1286 
1287 1320 1618 1321 
1584 1618 1585 1287 
1287 1320 1617 1618 
1584 1618 1287 1617 
1585 1287 1618 1288 
1618 1287 1321 1288 
1288 1321 1619 1322 
1585 1619 1586 1288 
1288 1321 1618 1619 
1585 1619 1288 1618 
1586 1288 1619 1289 
1619 1288 1322 1289 
1289 1322 1620 1323 
1586 1620 1587 1289 
1289 1322 1619 1620 
1586 1620 1289 1619 
1587 1289 1620 1290 
1620 1289 1323 1290 
1290 1323 1621 1324 
1587 1621 1588 1290 
1290 1323 1620 1621 
1587 1621 1290 1620 
1588 1290 1621 1291 
1621 1290 1324 1291 
1291 1324 1622 1325 
1588 1622 1589 1291 
1291 1324 1621 1622 
1588 1622 1291 1621 
1589 1291 1622 1292 
1622 1291 1325 1292 
1292 1325 1623 1326 
1589 1623 1590 1292 
1292 1325 1622 1623 
1589 1623 1292 1622 
1590 1292 1623 1293 
1623 1292 1326 1293 
1293 1326 1624 1327 
1590 1624 1591 1293 
1293 1326 1623 1624 
1590 1624 1293 1623 
1591 1293 1624 1294 
1624 1293 1327 1294 
1294 1327 1625 1328 
1591 1625 1592 1294 
1294 1327 1624 1625 
1591 1625 1294 1624 
1592 1294 1625 1295 
1625 1294 1328 1295 
1295 1328 1626 1329 
1592 1626 1593 1295 
1295 1328 1625 1626 
1592 1626 1295 1625 
1593 1295 1626 1296 
1626 1295 1329 1296 
1296 1329 1627 1330 
1593 1627 1594 1296 
1296 1329 1626 1627 
1593 1627 1296 1626 
1594 1296 1627 1297 
1627 1296 1330 1297 
1297 1330 1628 1331 
1594 1628 1595 1297 
1297 1330 1627 1628 
1594 1628 1297 1627 
1595 1297 1628 1298 
1628 1297 1331 1298 
1298 1331 1629 1332 
1595 1629 1596 1298 
1298 1331 1628 1629 
1595 1629 1298 1628 
1596 1298 1629 1299 
1629 1298 1332 1299 
1299 1332 1630 1333 
1596 1630 1597 1299 
1299 1332 1629 1630 
1596 1630 1299 1629 
1597 1299 1630 1300 
1630 1299 1333 1300 
1300 1333 1631 1334 
1597 1631 1598 1300 
1300 1333 1630 1631 
1597 1631 1300 1630 
1598 1300 1631 1301 
1631 1300 1334 1301 
1301 1334 1632 1335 
1598 1632 1599 1301 
1301 1334 1631 1632 
1598 1632 1301 1631 
1599 1301 1632 1302 
1632 1301 1335 1302 
1302 1335 1633 1336 
1599 1633 1600 1302 
1302 1335 1632 1633 
1599 1633 1302 1632 
1600 1302 1633 1303 
1633 1302 1336 1303 
1303 1336 1634 1337 
1600 1634 1601 1303 
1303 1336 1633 1634 
1600 1634 1303 1633 
1601 1303 1634 1304 
1634 1303 1337 1304 
1304 1337 1635 1338 
1601 1635 1602 1304 
1304 1337 1634 1635 
1601 1635 1304 1634 
1602 1304 1635 1305 
1635 1304 1338 1305 
1305 1338 1636 1339 
1602 1636 1603 1305 
1305 1338 1635 1636 
1602 1636 1305 1635 
1603 1305 1636 1306 
1636 1305 1339 1306 
1306 1339 1637 1340 
1603 1637 1604 1306 
1306 1339 1636 1637 
1603 1637 1306 1636 
1604 1306 1637 1307 
1637 1306 1340 1307 
1307 1340 1638 1341 
1604 1638 1605 1307 
1307 1340 1637 1638 
1604 1638 1307 1637 
1605 1307 1638 1308 
1638 1307 1341 1308 
1308 1341 1639 1342 
1605 1639 1606 1308 
1308 1341 1638 1639 
1605 1639 1308 1638 
1606 1308 1639 1309 
1639 1308 1342 1309 
1309 1342 1640 1343 
1606 1640 1607 1309 
1309 1342 1639 1640 
1606 1640 1309 1639 
1607 1309 1640 1310 
1640 1309 1343 1310 
1310 1343 1641 1344 
1607 1641 1608 1310 
1310 1343 1640 1641 
1607 1641 1310 1640 
1608 1310 1641 1311 
1641 1310 1344 1311 
1311 1344 1642 1345 
1608 1642 1609 1311 
1311 1344 1641 1642 
1608 1642 1311 1641 
1609 1311 1642 1312 
1642 1311 1345 1312 
1312 1345 1643 1346 
1609 1643 1610 1312 
1312 1345 1642 1643 
1609 1643 1312 1642 
1610 1312 1643 1313 
1643 1312 1346 1313 
1313 1346 1644 1347 
1610 1644 1611 1313 
1313 1346 1643 1644 
1610 1644 1313 1643 
1611 1313 1644 1314 
1644 1313 1347 1314 
1314 1347 1645 1348 
1611 1645 1612 1314 
1314 1347 1644 1645 
1611 1645 1314 1644 
1612 1314 1645 1315 
1645 1314 1348 1315 
1315 1348 1646 1349 
1612 1646 1613 1315 
1315 1348 1645 1646 
1612 1646 1315 1645 
1613 1315 1646 1316 
1646 1315 1349 1316 
1316 1349 1647 1350 
1613 1647 1614 1316 
1316 1349 1646 1647 
1613 1647 1316 1646 
1614 1316 1647 1317 
1647 1316 1350 1317 
1317 1350 1648 1351 
1614 1648 1615 1317 
1317 1350 1647 1648 
1614 1648 1317 1647 
1615 1317 1648 1318 
1648 1317 1351 1318 
1318 1351 1649 1352 
1615 1649 1616 1318 
1318 1351 1648 1649 
1615 1649 1318 1648 
1616 1318 1649 1319 
1649 1318 1352 1319 
1320 1353 1651 1354 
1617 1651 1618 1320 
1320 1353 1650 1651 
1617 1651 1320 1650 
1618 1320 1651 1321 
1651 1320 1354 1321 
1321 1354 1652 1355 
1618 1652 1619 1321 
1321 1354 1651 1652 
1618 1652 1321 1651 
1619 1321 1652 1322 
1652 1321 1355 1322 
1322 1355 1653 1356 
1619 1653 1620 1322 
1322 1355 1652 1653 
1619 1653 1322 1652 
1620 1322 1653 1323 
1653 1322 1356 1323 
1323 1356 1654 1357 
1620 1654 1621 1323 
1323 1356 1653 1654 
1620 1654 1323 1653 
1621 1323 1654 1324 
1654 1323 1357 1324 
1324 1357 1655 1358 
1621 1655 1622 1324 
1324 1357 1654 1655 
1621 1655 1324 1654 
1622 1324 1655 1325 
1655 1324 1358 1325 
1325 1358 1656 1359 
1622 1656 1623 1325 
1325 1358 1655 1656 
1622 1656 1325 1655 
1623 1325 1656 1326 
1656 1325 1359 1326 
1326 1359 1657 1360 
1623 1657 1624 1326 
1326 1359 1656 1657 
1623 1657 1326 1656 
1624 1326 1657 1327 
1657 1326 1360 1327 
1327 1360 1658 1361 
1624 1658 1625 1327 
1327 1360 1657 1658 
1624 1658 1327 1657 
1625 1327 1658 1328 
1658 1327 1361 1328 
1328 1361 1659 1362 
1625 1659 1626 1328 
1328 1361 1658 1659 
1625 1659 1328 1658 
1626 1328 1659 1329 
1659 1328 1362 1329 
1329 1362 1660 1363 
1626 1660 1627 1329 
1329 1362 1659 1660 
1626 1660 1329 1659 
1627 1329 1660 1330 
1660 1329 1363 1330 
1330 1363 1661 1364 
1627 1661 1628 1330 
1330 1363 1660 1661 
1627 1661 1330 1660 
1628 1330 1661 1331 
1661 1330 1364 1331 
1331 1364 1662 1365 
1628 1662 1629 1331 
1331 1364 1661 1662 
1628 1662 1331 1661 
1629 1331 1662 1332 
1662 1331 1365 1332 
1332 1365 1663 1366 
1629 1663 1630 1332 
1332 1365 1662 1663 
1629 1663 1332 1662 
1630 1332 1663 1333 
1663 1332 1366 1333 
1333 1366 1664 1367 
1630 1664 1631 1333 
1333 1366 1663 1664 
1630 1664 1333 1663 
1631 1333 1664 1334 
1664 1333 1367 1334 
1334 1367 1665 1368 
1631 1665 1632 1334 
1334 1367 1664 1665 
1631 1665 1334 1664 
1632 1334 1665 1335 
1665 1334 1368 1335 
1335 1368 1666 1369 
1632 1666 1633 1335 
1335 1368 1665 1666 
1632 1666 1335 1665 
1633 1335 1666 1336 
1666 1335 1369 1336 
1336 1369 1667 1370 
1633 1667 1634 1336 
1336 1369 1666 1667 
1633 1667 1336 1666 
1634 1336 1667 1337 
1667 1336 1370 1337 
1337 1370 1668 1371 
1634 1668 1635 1337 
1337 1370 1667 1668 
1634 1668 1337 1667 
1635 1337 1668 1338 
1668 1337 1371 1338 
1338 1371 1669 1372 
1635 1669 1636 1338 
1338 1371 1668 1669 
1635 1669 1338 1668 
1636 1338 1669 1339 
1669 1338 1372 1339 
1339 1372 1670 1373 
1636 1670 1637 1339 
1339 1372 1669 1670 
1636 1670 1339 1669 
1637 1339 1670 1340 
1670 1339 1373 1340 
1340 1373 1671 1374 
1637 1671 1638 1340 
1340 1373 1670 1671 
1637 1671 1340 1670 
1638 1340 1671 1341 
1671 1340 1374 1341 
1341 1374 1672 1375 
1638 1672 1639 1341 
1341 1374 1671 1672 
1638 1672 1341 1671 
1639 1341 1672 1342 
1672 1341 1375 1342 
1342 1375 1673 1376 
1639 1673 1640 1342 
1342 1375 1672 1673 
1639 1673 1342 1672 
1640 1342 1673 1343 
1673 1342 1376 1343 
1343 1376 1674 1377 
1640 1674 1641 1343 
1343 1376 1673 1674 
1640 1674 1343 1673 
1641 1343 1674 1344 
1674 1343 1377 1344 
1344 1377 1675 1378 
1641 1675 1642 1344 
1344 1377 1674 1675 
1641 1675 1344 1674 
1642 1344 1675 1345 
1675 1344 1378 1345 
1345 1378 1676 1379 
1642 1676 1643 1345 
1345 1378 1675 1676 
1642 1676 1345 1675 
1643 1345 1676 1346 
1676 1345 1379 1346 
1346 1379 1677 1380 
1643 1677 1644 1346 
1346 1379 1676 1677 
1643 1677 1346 1676 
1644 1346 1677 1347 
1677 1346 1380 1347 
1347 1380 1678 1381 
1644 1678 1645 1347 
1347 1380 1677 1678 
1644 1678 1347 1677 
1645 1347 1678 1348 
1678 1347 1381 1348 
1348 1381 1679 1382 
1645 1679 1646 1348 
1348 1381 1678 1679 
1645 1679 1348 1678 
1646 1348 1679 1349 
1679 1348 1382 1349 
1349 1382 1680 1383 
1646 1680 1647 1349 
1349 1382 1679 1680 
1646 1680 1349 1679 
1647 1349 1680 1350 
1680 1349 1383 1350 
1350 1383 1681 1384 
1647 1681 1648 1350 
1350 1383 1680 1681 
1647 1681 1350 1680 
1648 1350 1681 1351 
1681 1350 1384 1351 
1351 1384 1682 1385 
1648 1682 1649 1351 
1351 1384 1681 1682 
1648 1682 1351 1681 
1649 1351 1682 1352 
1682 1351 1385 1352 
1353 1386 1684 1387 
1650 1684 1651 1353 
1353 1386 1683 1684 
1650 1684 1353 1683 
1651 1353 1684 1354 
1684 1353 1387 1354 
1354 1387 1685 1388 
1651 1685 1652 1354 
1354 1387 1684 1685 
1651 1685 1354 1684 
1652 1354 1685 1355 
1685 1354 1388 1355 
1355 1388 1686 1389 
1652 1686 1653 1355 
1355 1388 1685 1686 
1652 1686 1355 1685 
1653 1355 1686 1356 
1686 1355 1389 1356 
1356 1389 1687 1390 
1653 1687 1654 1356 
1356 1389 1686 1687 
1653 1687 1356 1686 
1654 1356 1687 1357 
1687 1356 1390 1357 
1357 1390 1688 1391 
1654 1688 1655 1357 
1357 1390 1687 1688 
1654 1688 1357 1687 
1655 1357 1688 1358 
1688 1357 1391 1358 
1358 1391 1689 1392 
1655 1689 1656 1358 
1358 1391 1688 1689 
1655 1689 1358 1688 
1656 1358 1689 1359 
1689 1358 1392 1359 
1359 1392 1690 1393 
1656 1690 1657 1359 
1359 1392 1689 1690 
1656 1690 1359 1689 
1657 1359 1690 1360 
1690 1359 1393 1360 
1360 1393 1691 1394 
1657 1691 1658 1360 
1360 1393 1690 1691 
1657 1691 1360 1690 
1658 1360 1691 1361 
1691 1360 1394 1361 
1361 1394 1692 1395 
1658 1692 1659 1361 
1361 1394 1691 1692 
1658 1692 1361 1691 
1659 1361 1692 1362 
1692 1361 1395 1362 
1362 1395 1693 1396 
1659 1693 1660 1362 
1362 1395 1692 1693 
1659 1693 1362 1692 
1660 1362 1693 1363 
1693 1362 1396 1363 
1363 1396 1694 1397 
1660 1694 1661 1363 
1363 1396 1693 1694 
1660 1694 1363 1693 
1661 1363 1694 1364 
1694 1363 1397 1364 
1364 1397 1695 1398 
1661 1695 1662 1364 
1364 1397 1694 1695 
1661 1695 1364 1694 
1662 1364 1695 1365 
1695 1364 1398 1365 
1365 1398 1696 1399 
1662 1696 1663 1365 
1365 1398 1695 1696 
1662 1696 1365 1695 
1663 1365 1696 1366 
1696 1365 1399 1366 
1366 1399 1697 1400 
1663 1697 1664 1366 
1366 1399 1696 1697 
1663 1697 1366 1696 
1664 1366 1697 1367 
1697 1366 1400 1367 
1367 1400 1698 1401 
1664 1698 1665 1367 
1367 1400 1697 1698 
1664 1698 1367 1697 
1665 1367 1698 1368 
1698 1367 1401 1368 
1368 1401 1699 1402 
1665 1699 1666 1368 
1368 1401 1698 1699 
1665 1699 1368 1698 
1666 1368 1699 1369 
1699 1368 1402 1369 
1369 1402 1700 1403 
1666 1700 1667 1369 
1369 1402 1699 1700 
1666 1700 1369 1699 
1667 1369 1700 1370 
1700 1369 1403 1370 
1370 1403 1701 1404 
1667 1701 1668 1370 
1370 1403 1700 1701 
1667 1701 1370 1700 
1668 1370 1701 1371 
1701 1370 1404 1371 
1371 1404 1702 1405 
1668 1702 1669 1371 
1371 1404 1701 1702 
1668 1702 1371 1701 
1669 1371 1702 1372 
1702 1371 1405 1372 
1372 1405 1703 1406 
1669 1703 1670 1372 
1372 1405 1702 1703 
1669 1703 1372 1702 
1670 1372 1703 1373 
1703 1372 1406 1373 
1373 1406 1704 1407 
1670 1704 1671 1373 
1373 1406 1703 1704 
1670 1704 1373 1703 
1671 1373 1704 1374 
1704 1373 1407 1374 
1374 1407 1705 1408 
1671 1705 1672 1374 
1374 1407 1704 1705 
1671 1705 1374 1704 
1672 1374 1705 1375 
1705 1374 1408 1375 
1375 1408 1706 1409 
1672 1706 1673 1375 
1375 1408 1705 1706 
1672 1706 1375 1705 
1673 1375 1706 1376 
1706 1375 1409 1376 
1376 1409 1707 1410 
1673 1707 1674 1376 
1376 1409 1706 1707 
1673 1707 1376 1706 
1674 1376 1707 1377 
1707 1376 1410 1377 
1377 1410 1708 1411 
1674 1708 1675 1377 
1377 1410 1707 1708 
1674 1708 1377 1707 
1675 1377 1708 1378 
1708 1377 1411 1378 
1378 1411 1709 1412 
1675 1709 1676 1378 
1378 1411 1708 1709 
1675 1709 1378 1708 
1676 1378 1709 1379 
1709 1378 1412 1379 
1379 1412 1710 1413 
1676 1710 1677 1379 
1379 1412 1709 1710 
1676 1710 1379 1709 
1677 1379 1710 1380 
1710 1379 1413 1380 
1380 1413 1711 1414 
1677 1711 1678 1380 
1380 1413 1710 1711 
1677 1711 1380 1710 
1678 1380 1711 1381 
1711 1380 1414 1381 
1381 1414 1712 1415 
1678 1712 1679 1381 
1381 1414 1711 1712 
1678 1712 1381 1711 
1679 1381 1712 1382 
1712 1381 1415 1382 
1382 1415 1713 1416 
1679 1713 1680 1382 
1382 1415 1712 1713 
1679 1713 1382 1712 
1680 1382 1713 1383 
1713 1382 1416 1383 
1383 1416 1714 1417 
1680 1714 1681 1383 
1383 1416 1713 1714 
1680 1714 1383 1713 
1681 1383 1714 1384 
1714 1383 1417 1384 
1384 1417 1715 1418 
1681 1715 1682 1384 
1384 1417 1714 1715 
1681 1715 1384 1714 
1682 1384 1715 1385 
1715 1384 1418 1385 
1386 1419 1717 1420 
1683 1717 1684 1386 
1386 1419 1716 1717 
1683 1717 1386 1716 
1684 1386 1717 1387 
1717 1386 1420 1387 
1387 1420 1718 1421 
1684 1718 1685 1387 
1387 1420 1717 1718 
1684 1718 1387 1717 
1685 1387 1718 1388 
1718 1387 1421 1388 
1388 1421 1719 1422 
1685 1719 1686 1388 
1388 1421 1718 1719 
1685 1719 1388 1718 
1686 1388 1719 1389 
1719 1388 1422 1389 
1389 1422 1720 1423 
1686 1720 1687 1389 
1389 1422 1719 1720 
1686 1720 1389 1719 
1687 1389 1720 1390 
1720 1389 1423 1390 
1390 1423 1721 1424 
1687 1721 1688 1390 
1390 1423 1720 1721 
1687 1721 1390 1720 
1688 1390 1721 1391 
1721 1390 1424 1391 
1391 1424 1722 1425 
1688 1722 1689 1391 
1391 1424 1721 1722 
1688 1722 1391 1721 
1689 1391 1722 1392 
1722 1391 1425 1392 
1392 1425 1723 1426 
1689 1723 1690 1392 
1392 1425 1722 1723 
1689 1723 1392 1722 
1690 1392 1723 1393 
1723 1392 1426 1393 
1393 1426 1724 1427 
1690 1724 1691 1393 
1393 1426 1723 1724 
1690 1724 1393 1723 
1691 1393 1724 1394 
1724 1393 1427 1394 
1394 1427 1725 1428 
1691 1725 1692 1394 
1394 1427 1724 1725 
1691 1725 1394 1724 
1692 1394 1725 1395 
1725 1394 1428 1395 
1395 1428 1726 1429 
1692 1726 1693 1395 
1395 1428 1725 1726 
1692 1726 1395 1725 
1693 1395 1726 1396 
1726 1395 1429 1396 
1396 1429 1727 1430 
1693 1727 1694 1396 
1396 1429 1726 1727 
1693 1727 1396 1726 
1694 1396 1727 1397 
1727 1396 1430 1397 
1397 1430 1728 1431 
1694 1728 1695 1397 
1397 1430 1727 1728 
1694 1728 1397 1727 
1695 1397 1728 1398 
1728 1397 1431 1398 
1398 1431 1729 1432 
1695 1729 1696 1398 
1398 1431 1728 1729 
1695 1729 1398 1728 
1696 1398 1729 1399 
1729 1398 1432 1399 
1399 1432 1730 1433 
1696 1730 1697 1399 
1399 1432 1729 1730 
1696 1730 1399 1729 
1697 1399 1730 1400 
1730 1399 1433 1400 
1400 1433 1731 1434 
1697 1731 1698 1400 
1400 1433 1730 1731 
1697 1731 1400 1730 
1698 1400 1731 1401 
1731 1400 1434 1401 
1401 1434 1732 1435 
1698 1732 1699 1401 
1401 1434 1731 1732 
1698 1732 1401 1731 
1699 1401 1732 1402 
1732 1401 1435 1402 
1402 1435 1733 1436 
1699 1733 1700 1402 
1402 1435 1732 1733 
1699 1733 1402 1732 
1700 1402 1733 1403 
1733 1402 1436 1403 
1403 1436 1734 1437 
1700 1734 1701 1403 
1403 1436 1733 1734 
1700 1734 1403 1733 
1701 1403 1734 1404 
1734 1403 1437 1404 
1404 1437 1735 1438 
1701 1735 1702 1404 
1404 1437 1734 1735 
1701 1735 1404 1734 
1702 1404 1735 1405 
1735 1404 1438 1405 
1405 1438 1736 1439 
1702 1736 1703 1405 
1405 1438 1735 1736 
1702 1736 1405 1735 
1703 1405 1736 1406 
1736 1405 1439 1406 
1406 1439 1737 1440 
1703 1737 1704 1406 
1406 1439 1736 1737 
1703 1737 1406 1736 
1704 1406 1737 1407 
1737 1406 1440 1407 
1407 1440 1738 1441 
1704 1738 1705 1407 
1407 1440 1737 1738 
1704 1738 1407 1737 
1705 1407 1738 1408 
1738 1407 1441 1408 
1408 1441 1739 1442 
1705 1739 1706 1408 
1408 1441 1738 1739 
1705 1739 1408 1738 
1706 1408 1739 1409 
1739 1408 1442 1409 
1409 1442 1740 1443 
1706 1740 1707 1409 
1409 1442 1739 1740 
1706 1740 1409 1739 
1707 1409 1740 1410 
1740 1409 1443 1410 
1410 1443 1741 1444 
1707 1741 1708 1410 
1410 1443 1740 1741 
1707 1741 1410 1740 
1708 1410 1741 1411 
1741 1410 1444 1411 
1411 1444 1742 1445 
1708 1742 1709 1411 
1411 1444 1741 1742 
1708 1742 1411 1741 
1709 1411 1742 1412 
1742 1411 1445 1412 
1412 1445 1743 1446 
1709 1743 1710 1412 
1412 1445 1742 1743 
1709 1743 1412 1742 
1710 1412 1743 1413 
1743 1412 1446 1413 
1413 1446 1744 1447 
1710 1744 1711 1413 
1413 1446 1743 1744 
1710 1744 1413 1743 
1711 1413 1744 1414 
1744 1413 1447 1414 
1414 1447 1745 1448 
1711 1745 1712 1414 
1414 1447 1744 1745 
1711 1745 1414 1744 
1712 1414 1745 1415 
1745 1414 1448 1415 
1415 1448 1746 1449 
1712 1746 1713 1415 
1415 1448 1745 1746 
1712 1746 1415 1745 
1713 1415 1746 1416 
1746 1415 1449 1416 
1416 1449 1747 1450 
1713 1747 1714 1416 
1416 1449 1746 1747 
1713 1747 1416 1746 
1714 1416 1747 1417 
1747 1416 1450 1417 
1417 1450 1748 1451 
1714 1748 1715 1417 
1417 1450 1747 1748 
1714 1748 1417 1747 
1715 1417 1748 1418 
1748 1417 1451 1418 
1419 1452 1750 1453 
1716 1750 1717 1419 
1419 1452 1749 1750 
1716 1750 1419 1749 
1717 1419 1750 1420 
1750 1419 1453 1420 
1420 1453 1751 1454 
1717 1751 1718 1420 
1420 1453 1750 1751 
1717 1751 1420 1750 
1718 1420 1751 1421 
1751 1420 1454 1421 
1421 1454 1752 1455 
1718 1752 1719 1421 
1421 1454 1751 1752 
1718 1752 1421 1751 
1719 1421 1752 1422 
1752 1421 1455 1422 
1422 1455 1753 1456 
1719 1753 1720 1422 
1422 1455 1752 1753 
1719 1753 1422 1752 
1720 1422 1753 1423 
1753 1422 1456 1423 
1423 1456 1754 1457 
1720 1754 1721 1423 
1423 1456 1753 1754 
1720 1754 1423 1753 
1721 1423 1754 1424 
1754 1423 1457 1424 
1424 1457 1755 1458 
1721 1755 1722 1424 
1424 1457 1754 1755 
1721 1755 1424 1754 
1722 1424 1755 1425 
1755 1424 1458 1425 
1425 1458 1756 1459 
1722 1756 1723 1425 
1425 1458 1755 1756 
1722 1756 1425 1755 
1723 1425 1756 1426 
1756 1425 1459 1426 
1426 1459 1757 1460 
1723 1757 1724 1426 
1426 1459 1756 1757 
1723 1757 1426 1756 
1724 1426 1757 1427 
1757 1426 1460 1427 
1427 1460 1758 1461 
1724 1758 1725 1427 
1427 1460 1757 1758 
1724 1758 1427 1757 
1725 1427 1758 1428 
1758 1427 1461 1428 
1428 1461 1759 1462 
1725 1759 1726 1428 
1428 1461 1758 1759 
1725 1759 1428 1758 
1726 1428 1759 1429 
1759 1428 1462 1429 
1429 1462 1760 1463 
1726 1760 1727 1429 
1429 1462 1759 1760 
1726 1760 1429 1759 
1727 1429 1760 1430 
1760 1429 1463 1430 
1430 1463 1761 1464 
1727 1761 1728 1430 
1430 1463 1760 1761 
1727 1761 1430 1760 
1728 1430 1761 1431 
1761 1430 1464 1431 
1431 1464 1762 1465 
1728 1762 1729 1431 
1431 1464 1761 1762 
1728 1762 1431 1761 
1729 1431 1762 1432 
1762 1431 1465 1432 
1432 1465 1763 1466 
1729 1763 1730 1432 
1432 1465 1762 1763 
1729 1763 1432 1762 
1730 1432 1763 1433 
1763 1432 1466 1433 
1433 1466 1764 1467 
1730 1764 1731 1433 
1433 1466 1763 1764 
1730 1764 1433 1763 
1731 1433 1764 1434 
1764 1433 1467 1434 
1434 1467 1765 1468 
1731 1765 1732 1434 
1434 1467 1764 1765 
1731 1765 1434 1764 
1732 1434 1765 1435 
1765 1434 1468 1435 
1435 1468 1766 1469 
1732 1766 1733 1435 
1435 1468 1765 1766 
1732 1766 1435 1765 
1733 1435 1766 1436 
1766 1435 1469 1436 
1436 1469 1767 1470 
1733 1767 1734 1436 
1436 1469 1766 1767 
1733 1767 1436 1766 
1734 1436 1767 1437 
1767 1436 1470 1437 
1437 1470 1768 1471 
1734 1768 1735 1437 
1437 1470 1767 1768 
1734 1768 1437 1767 
1735 1437 1768 1438 
1768 1437 1471 1438 
1438 1471 1769 1472 
1735 1769 1736 1438 
1438 1471 1768 1769 
1735 1769 1438 1768 
1736 1438 1769 1439 
1769 1438 1472 1439 
1439 1472 1770 1473 
1736 1770 1737 1439 
1439 1472 1769 1770 
1736 1770 1439 1769 
1737 1439 1770 1440 
1770 1439 1473 1440 
1440 1473 1771 1474 
1737 1771 1738 1440 
1440 1473 1770 1771 
1737 1771 1440 1770 
1738 1440 1771 1441 
1771 1440 1474 1441 
1441 1474 1772 1475 
1738 1772 1739 1441 
1441 1474 1771 1772 
1738 1772 1441 1771 
1739 1441 1772 1442 
1772 1441 1475 1442 
1442 1475 1773 1476 
1739 1773 1740 1442 
1442 1475 1772 1773 
1739 1773 1442 1772 
1740 1442 1773 1443 
1773 1442 1476 1443 
1443 1476 1774 1477 
1740 1774 1741 1443 
1443 1476 1773 1774 
1740 1774 1443 1773 
1741 1443 1774 1444 
1774 1443 1477 1444 
1444 1477 1775 1478 
1741 1775 1742 1444 
1444 1477 1774 1775 
1741 1775 1444 1774 
1742 1444 1775 1445 
1775 1444 1478 1445 
1445 1478 1776 1479 
1742 1776 1743 1445 
1445 1478 1775 1776 
1742 1776 1445 1775 
1743 1445 1776 1446 
1776 1445 1479 1446 
1446 1479 1777 1480 
1743 1777 1744 1446 
1446 1479 1776 1777 
1743 1777 1446 1776 
1744 1446 1777 1447 
1777 1446 1480 1447 
1447 1480 1778 1481 
1744 1778 1745 1447 
1447 1480 1777 1778 
1744 1778 1447 1777 
1745 1447 1778 1448 
1778 1447 1481 1448 
1448 1481 1779 1482 
1745 1779 1746 1448 
1448 1481 1778 1779 
1745 1779 1448 1778 
1746 1448 1779 1449 
1779 1448 1482 1449 
1449 1482 1780 1483 
1746 1780 1747 1449 
1449 1482 1779 1780 
1746 1780 1449 1779 
1747 1449 1780 1450 
1780 1449 1483 1450 
1450 1483 1781 1484 
1747 1781 1748 1450 
1450 1483 1780 1781 
1747 1781 1450 1780 
1748 1450 1781 1451 
1781 1450 1484 1451 
1485 1518 1816 1519 
1782 1816 1783 1485 
1485 1518 1815 1816 
1782 1816 1485 1815 
1783 1485 1816 1486 
1816 1485 1519 1486 
1486 1519 1817 1520 
1783 1817 1784 1486 
1486 1519 1816 1817 
1783 1817 1486 1816 
1784 1486 1817 1487 
1817 1486 1520 1487 
1487 1520 1818 1521 
1784 1818 1785 1487 
1487 1520 1817 1818 
1784 1818 1487 1817 
1785 1487 1818 1488 
1818 1487 1521 1488 
1488 1521 1819 1522 
1785 1819 1786 1488 
1488 1521 1818 1819 
1785 1819 1488 1818 
1786 1488 1819 1489 
1819 1488 1522 1489 
1489 1522 1820 1523 
1786 1820 1787 1489 
1489 1522 1819 1820 
1786 1820 1489 1819 
1787 1489 1820 1490 
1820 1489 1523 1490 
1490 1523 1821 1524 
1787 1821 1788 1490 
1490 1523 1820 1821 
1787 1821 1490 1820 
1788 1490 1821 1491 
1821 1490 1524 1491 
1491 1524 1822 1525 
1788 1822 1789 1491 
1491 1524 1821 1822 
1788 1822 1491 1821 
1789 1491 1822 1492 
1822 1491 1525 1492 
1492 1525 1823 1526 
1789 1823 1790 1492 
1492 1525 1822 1823 
1789 1823 1492 1822 
1790 1492 1823 1493 
1823 1492 1526 1493 
1493 1526 1824 1527 
1790 1824 1791 1493 
1493 1526 1823 1824 
1790 1824 1493 1823 
1791 1493 1824 1494 
1824 1493 1527 1494 
1494 1527 1825 1528 
1791 1825 1792 1494 
1494 1527 1824 1825 
1791 1825 1494 1824 
1792 1494 1825 1495 
1825 1494 1528 1495 
1495 1528 1826 1529 
1792 1826 1793 1495 
1495 1528 1825 1826 
1792 1826 1495 1825 
1793 1495 1826 1496 
1826 1495 1529 1496 
1496 1529 1827 1530 
1793 1827 1794 1496 
1496 1529 1826 1827 
1793 1827 1496 1826 
1794 1496 1827 1497 
1827 1496 1530 1497 
1497 1530 1828 1531 
1794 1828 1795 1497 
1497 1530 1827 1828 
1794 1828 1497 1827 
1795 1497 1828 1498 
1828 1497 1531 1498 
1498 1531 1829 1532 
1795 1829 1796 1498 
1498 1531 1828 1829 
1795 1829 1498 1828 
1796 1498 1829 1499 
1829 1498 1532 1499 
1499 1532 1830 1533 
1796 1830 1797 1499 
1499 1532 1829 1830 
1796 1830 1499 1829 
1797 1499 1830 1500 
1830 1499 1533 1500 
1500 1533 1831 1534 
1797 1831 1798 1500 
1500 1533 1830 1831 
1797 1831 1500 1830 
1798 1500 1831 1501 
1831 1500 1534 1501 
1501 1534 1832 1535 
1798 1832 1799 1501 
1501 1534 1831 1832 
1798 1832 1501 1831 
1799 1501 1832 1502 
1832 1501 1535 1502 
1502 1535 1833 1536 
1799 1833 1800 1502 
1502 1535 1832 1833 
1799 1833 1502 1832 
1800 1502 1833 1503 
1833 1502 1536 1503 
1503 1536 1834 1537 
1800 1834 1801 1503 
1503 1536 1833 1834 
1800 1834 1503 1833 
1801 1503 1834 1504 
1834 1503 1537 1504 
1504 1537 1835 1538 
1801 1835 1802 1504 
1504 1537 1834 1835 
1801 1835 1504 1834 
1802 1504 1835 1505 
1835 1504 1538 1505 
1505 1538 1836 1539 
1802 1836 1803 1505 
1505 1538 1835 1836 
1802 1836 1505 1835 
1803 1505 1836 1506 
1836 1505 1539 1506 
1506 1539 1837 1540 
1803 1837 1804 1506 
1506 1539 1836 1837 
1803 1837 1506 1836 
1804 1506 1837 1507 
1837 1506 1540 1507 
1507 1540 1838 1541 
1804 1838 1805 1507 
1507 1540 1837 1838 
1804 1838 1507 1837 
1805 1507 1838 1508 
1838 1507 1541 1508 
1508 1541 1839 1542 
1805 1839 1806 1508 
1508 1541 1838 1839 
1805 1839 1508 1838 
1806 1508 1839 1509 
1839 1508 1542 1509 
1509 1542 1840 1543 
1806 1840 1807 1509 
1509 1542 1839 1840 
1806 1840 1509 1839 
1807 1509 1840 1510 
1840 1509 1543 1510 
1510 1543 1841 1544 
1807 1841 1808 1510 
1510 1543 1840 1841 
1807 1841 1510 1840 
1808 1510 1841 1511 
1841 1510 1544 1511 
1511 1544 1842 1545 
1808 1842 1809 1511 
1511 1544 1841 1842 
1808 1842 1511 1841 
1809 1511 1842 1512 
1842 1511 1545 1512 
1512 1545 1843 1546 
1809 1843 1810 1512 
1512 1545 1842 1843 
1809 1843 1512 1842 
1810 1512 1843 1513 
1843 1512 1546 1513 
1513 1546 1844 1547 
1810 1844 1811 1513 
1513 1546 1843 1844 
1810 1844 1513 1843 
1811 1513 1844 1514 
1844 1513 1547 1514 
1514 1547 1845 1548 
1811 1845 1812 1514 
1514 1547 1844 1845 
1811 1845 1514 1844 
1812 1514 1845 1515 
1845 1514 1548 1515 
1515 1548 1846 1549 
1812 1846 1813 1515 
1515 1548 1845 1846 
1812 1846 1515 1845 
1813 1515 1846 1516 
1846 1515 1549 1516 
1516 1549 1847 1550 
1813 1847 1814 1516 
1516 1549 1846 1847 
1813 1847 1516 1846 
1814 1516 1847 1517 
1847 1516 1550 1517 
1518 1551 1849 1552 
1815 1849 1816 1518 
1518 1551 1848 1849 
1815 1849 1518 1848 
1816 1518 1849 1519 
1849 1518 1552 1519 
1519 1552 1850 1553 
1816 1850 1817 1519 
1519 1552 1849 1850 
1816 1850 1519 1849 
1817 1519 1850 1520 
1850 1519 1553 1520 
1520 1553 1851 1554 
1817 1851 1818 1520 
1520 1553 1850 1851 
1817 1851 1520 1850 
1818 1520 1851 1521 
1851 1520 1554 1521 
1521 1554 1852 1555 
1818 1852 1819 1521 
1521 1554 1851 1852 
1818 1852 1521 1851 
1819 1521 1852 1522 
1852 1521 1555 1522 
1522 1555 1853 1556 
1819 1853 1820 1522 
1522 1555 1852 1853 
1819 1853 1522 1852 
1820 1522 1853 1523 
1853 1522 1556 1523 
1523 1556 1854 1557 
1820 1854 1821 1523 
1523 1556 1853 1854 
1820 1854 1523 1853 
1821 1523 1854 1524 
1854 1523 1557 1524 
1524 1557 1855 1558 
1821 1855 1822 1524 
1524 1557 1854 1855 
1821 1855 1524 1854 
1822 1524 1855 1525 
1855 1524 1558 1525 
1525 1558 1856 1559 
1822 1856 1823 1525 
1525 1558 1855 1856 
1822 1856 1525 1855 
1823 1525 1856 1526 
1856 1525 1559 1526 
1526 1559 1857 1560 
1823 1857 1824 1526 
1526 1559 1856 1857 
1823 1857 1526 1856 
1824 1526 1857 1527 
1857 1526 1560 1527 
1527 1560 1858 1561 
1824 1858 1825 1527 
1527 1560 1857 1858 
1824 1858 1527 1857 
1825 1527 1858 1528 
1858 1527 1561 1528 
1528 1561 1859 1562 
1825 1859 1826 1528 
1528 1561 1858 1859 
1825 1859 1528 1858 
1826 1528 1859 1529 
1859 1528 1562 1529 
1529 1562 1860 1563 
1826 1860 1827 1529 
1529 1562 1859 1860 
1826 1860 1529 1859 
1827 1529 1860 1530 
1860 1529 1563 1530 
1530 1563 1861 1564 
1827 1861 1828 1530 
1530 1563 1860 1861 
1827 1861 1530 1860 
1828 1530 1861 1531 
1861 1530 1564 1531 
1531 1564 1862 1565 
1828 1862 1829 1531 
1531 1564 1861 1862 
1828 1862 1531 1861 
1829 1531 1862 1532 
1862 1531 1565 1532 
1532 1565 1863 1566 
1829 1863 1830 1532 
1532 1565 1862 1863 
1829 1863 1532 1862 
1830 1532 1863 1533 
1863 1532 1566 1533 
1533 1566 1864 1567 
1830 1864 1831 1533 
1533 1566 1863 1864 
1830 1864 1533 1863 
1831 1533 1864 1534 
1864 1533 1567 1534 
1534 1567 1865 1568 
1831 1865 1832 1534 
1534 1567 1864 1865 
1831 1865 1534 1864 
1832 1534 1865 1535 
1865 1534 1568 1535 
1535 1568 1866 1569 
1832 1866 1833 1535 
1535 1568 1865 1866 
1832 1866 1535 1865 
1833 1535 1866 1536 
1866 1535 1569 1536 
1536 1569 1867 1570 
1833 1867 1834 1536 
1536 1569 1866 1867 
1833 1867 1536 1866 
1834 1536 1867 1537 
1867 1536 1570 1537 
1537 1570 1868 1571 
1834 1868 1835 1537 
1537 1570 1867 1868 
1834 1868 1537 1867 
1835 1537 1868 1538 
1868 1537 1571 1538 
1538 1571 1869 1572 
1835 1869 1836 1538 
1538 1571 1868 1869 
1835 1869 1538 1868 
1836 1538 1869 1539 
1869 1538 1572 1539 
1539 1572 1870 1573 
1836 1870 1837 1539 
1539 1572 1869 1870 
1836 1870 1539 1869 
1837 1539 1870 1540 
1870 1539 1573 1540 
1540 1573 1871 1574 
1837 1871 1838 1540 
1540 1573 1870 1871 
1837 1871 1540 1870 
1838 1540 1871 1541 
1871 1540 1574 1541 
1541 1574 1872 1575 
1838 1872 1839 1541 
1541 1574 1871 1872 
1838 1872 1541 1871 
1839 1541 1872 1542 
1872 1541 1575 1542 
1542 1575 1873 1576 
1839 1873 1840 1542 
1542 1575 1872 1873 
1839 1873 1542 1872 
1840 1542 1873 1543 
1873 1542 1576 1543 
1543 1576 1874 1577 
1840 1874 1841 1543 
1543 1576 1873 1874 
1840 1874 1543 1873 
1841 1543 1874 1544 
1874 1543 1577 1544 
1544 1577 1875 1578 
1841 1875 1842 1544 
1544 1577 1874 1875 
1841 1875 1544 1874 
1842 1544 1875 1545 
1875 1544 1578 1545 
1545 1578 1876 1579 
1842 1876 1843 1545 
1545 1578 1875 1876 
1842 1876 1545 1875 
1843 1545 1876 1546 
1876 1545 1579 1546 
1546 1579 1877 1580 
1843 1877 1844 1546 
1546 1579 1876 1877 
1843 1877 1546 1876 
1844 1546 1877 1547 
1877 1546 1580 1547 
1547 1580 1878 1581 
1844 1878 1845 1547 
1547 1580 1877 1878 
1844 1878 1547 1877 
1845 1547 1878 1548 
1878 1547 1581 1548 
1548 1581 1879 1582 
1845 1879 1846 1548 
1548 1581 1878 1879 
1845 1879 1548 1878 
1846 1548 1879 1549 
1879 1548 1582 1549 
1549 1582 1880 1583 
1846 1880 1847 1549 
1549 1582 1879 1880 
1846 1880 1549 1879 
1847 1549 1880 1550 
1880 1549 1583 1550 
1551 1584 1882 1585 
1848 1882 1849 1551 
1551 1584 1881 1882 
1848 1882 1551 1881 
1849 1551 1882 1552 
1882 1551 1585 1552 
1552 1585 1883 1586 
1849 1883 1850 1552 
1552 1585 1882 1883 
1849 1883 1552 1882 
1850 1552 1883 1553 
1883 1552 1586 1553 
1553 1586 1884 1587 
1850 1884 1851 1553 
1553 1586 1883 1884 
1850 1884 1553 1883 
1851 1553 1884 1554 
1884 1553 1587 1554 
1554 1587 1885 1588 
1851 1885 1852 1554 
1554 1587 1884 1885 
1851 1885 1554 1884 
1852 1554 1885 1555 
1885 1554 1588 1555 
1555 1588 1886 1589 
1852 1886 1853 1555 
1555 1588 1885 1886 
1852 1886 1555 1885 
1853 1555 1886 1556 
1886 1555 1589 1556 
1556 1589 1887 1590 
1853 1887 1854 1556 
1556 1589 1886 1887 
1853 1887 1556 1886 
1854 1556 1887 1557 
1887 1556 1590 1557 
1557 1590 1888 1591 
1854 1888 1855 1557 
1557 1590 1887 1888 
1854 1888 1557 1887 
1855 1557 1888 1558 
1888 1557 1591 1558 
1558 1591 1889 1592 
1855 1889 1856 1558 
1558 1591 1888 1889 
1855 1889 1558 1888 
1856 1558 1889 1559 
1889 1558 1592 1559 
1559 1592 1890 1593 
1856 1890 1857 1559 
1559 1592 1889 1890 
1856 1890 1559 1889 
1857 1559 1890 1560 
1890 1559 1593 1560 
1560 1593 1891 1594 
1857 1891 1858 1560 
1560 1593 1890 1891 
1857 1891 1560 1890 
1858 1560 1891 1561 
1891 1560 1594 1561 
1561 1594 1892 1595 
1858 1892 1859 1561 
1561 1594 1891 1892 
1858 1892 1561 1891 
1859 1561 1892 1562 
1892 1561 1595 1562 
1562 1595 1893 1596 
1859 1893 1860 1562 
1562 1595 1892 1893 
1859 1893 1562 1892 
1860 1562 1893 1563 
1893 1562 1596 1563 
1563 1596 1894 1597 
1860 1894 1861 1563 
1563 1596 1893 1894 
1860 1894 1563 1893 
1861 1563 1894 1564 
1894 1563 1597 1564 
1564 1597 1895 1598 
1861 1895 1862 1564 
1564 1597 1894 1895 
1861 1895 1564 1894 
1862 1564 1895 1565 
1895 1564 1598 1565 
1565 1598 1896 1599 
1862 1896 1863 1565 
1565 1598 1895 1896 
1862 1896 1565 1895 
1863 1565 1896 1566 
1896 1565 1599 1566 
1566 1599 1897 1600 
1863 1897 1864 1566 
1566 1599 1896 1897 
1863 1897 1566 1896 
1864 1566 1897 1567 
1897 1566 1600 1567 
1567 1600 1898 1601 
1864 1898 1865 1567 
1567 1600 1897 1898 
1864 1898 1567 1897 
1865 1567 1898 1568 
1898 1567 1601 1568 
1568 1601 1899 1602 
1865 1899 1866 1568 
1568 1601 1898 1899 
1865 1899 1568 1898 
1866 1568 1899 1569 
1899 1568 1602 1569 
1569 1602 1900 1603 
1866 1900 1867 1569 
1569 1602 1899 1900 
1866 1900 1569 1899 
1867 1569 1900 1570 
1900 1569 1603 1570 
1570 1603 1901 1604 
1867 1901 1868 1570 
1570 1603 1900 1901 
1867 1901 1570 1900 
1868 1570 1901 1571 
1901 1570 1604 1571 
1571 1604 1902 1605 
1868 1902 1869 1571 
1571 1604 1901 1902 
1868 1902 1571 1901 
1869 1571 1902 1572 
1902 1571 1605 1572 
1572 1605 1903 1606 
1869 1903 1870 1572 
1572 1605 1902 1903 
1869 1903 1572 1902 
1870 1572 1903 1573 
1903 1572 1606 1573 
1573 1606 1904 1607 
1870 1904 1871 1573 
1573 1606 1903 1904 
1870 1904 1573 1903 
1871 1573 1904 1574 
1904 1573 1607 1574 
1574 1607 1905 1608 
1871 1905 1872 1574 
1574 1607 1904 1905 
1871 1905 1574 1904 
1872 1574 1905 1575 
1905 1574 1608 1575 
1575 1608 1906 1609 
1872 1906 1873 1575 
1575 1608 1905 1906 
1872 1906 1575 1905 
1873 1575 1906 1576 
1906 1575 1609 1576 
1576 1609 1907 1610 
1873 1907 1874 1576 
1576 1609 1906 1907 
1873 1907 1576 1906 
1874 1576 1907 1577 
1907 1576 1610 1577 
1577 1610 1908 1611 
1874 1908 1875 1577 
1577 1610 1907 1908 
1874 1908 1577 1907 
1875 1577 1908 1578 
1908 1577 1611 1578 
1578 1611 1909 1612 
1875 1909 1876 1578 
1578 1611 1908 1909 
1875 1909 1578 1908 
1876 1578 1909 1579 
1909 1578 1612 1579 
1579 1612 1910 1613 
1876 1910 1877 1579 
1579 1612 1909 1910 
1876 1910 1579 1909 
1877 1579 1910 1580 
1910 1579 1613 1580 
1580 1613 1911 1614 
1877 1911 1878 1580 
1580 1613 1910 1911 
1877 1911 1580 1910 
1878 1580 1911 1581 
1911 1580 1614 1581 
1581 1614 1912 1615 
1878 1912 1879 1581 
1581 1614 1911 1912 
1878 1912 1581 1911 
1879 1581 1912 1582 
1912 1581 1615 1582 
1582 1615 1913 1616 
1879 1913 1880 1582 
1582 1615 1912 1913 
1879 1913 1582 1912 
1880 1582 1913 1583 
1913 1582 1616 1583 
1584 1617 1915 1618 
1881 1915 1882 1584 
1584 1617 1914 1915 
1881 1915 1584 1914 
1882 1584 1915 1585 
1915 1584 1618 1585 
1585 1618 1916 1619 
1882 1916 1883 1585 
1585 1618 1915 1916 
1882 1916 1585 1915 
1883 1585 1916 1586 
1916 1585 1619 1586 
1586 1619 1917 1620 
1883 1917 1884 1586 
1586 1619 1916 1917 
1883 1917 1586 1916 
1884 1586 1917 1587 
1917 1586 1620 1587 
1587 1620 1918 1621 
1884 1918 1885 1587 
1587 1620 1917 1918 
1884 1918 1587 1917 
1885 1587 1918 1588 
1918 1587 1621 1588 
1588 1621 1919 1622 
1885 1919 1886 1588 
1588 1621 1918 1919 
1885 1919 1588 1918 
1886 1588 1919 1589 
1919 1588 1622 1589 
1589 1622 1920 1623 
1886 1920 1887 1589 
1589 1622 1919 1920 
1886 1920 1589 1919 
1887 1589 1920 1590 
1920 1589 1623 1590 
1590 1623 1921 1624 
1887 1921 1888 1590 
1590 1623 1920 1921 
1887 1921 1590 1920 
1888 1590 1921 1591 
1921 1590 1624 1591 
1591 1624 1922 1625 
1888 1922 1889 1591 
1591 1624 1921 1922 
1888 1922 1591 1921 
1889 1591 1922 1592 
1922 1591 1625 1592 
1592 1625 1923 1626 
1889 1923 1890 1592 
1592 1625 1922 1923 
1889 1923 1592 1922 
1890 1592 1923 1593 
1923 1592 1626 1593 
1593 1626 1924 1627 
1890 1924 1891 1593 
1593 1626 1923 1924 
1890 1924 1593 1923 
1891 1593 1924 1594 
1924 1593 1627 1594 
1594 1627 1925 1628 
1891 1925 1892 1594 
1594 1627 1924 1925 
1891 1925 1594 1924 
1892 1594 1925 1595 
1925 1594 1628 1595 
1595 1628 1926 1629 
1892 1926 1893 1595 
1595 1628 1925 1926 
1892 1926 1595 1925 
1893 1595 1926 1596 
1926 1595 1629 1596 
1596 1629 1927 1630 
1893 1927 1894 1596 
1596 1629 1926 1927 
1893 1927 1596 1926 
1894 1596 1927 1597 
1927 1596 1630 1597 
1597 1630 1928 1631 
1894 1928 1895 1597 
1597 1630 1927 1928 
1894 1928 1597 1927 
1895 1597 1928 1598 
1928 1597 1631 1598 
1598 1631 1929 1632 
1895 1929 1896 1598 
1598 1631 1928 1929 
1895 1929 1598 1928 
1896 1598 1929 1599 
1929 1598 1632 1599 
1599 1632 1930 1633 
1896 1930 1897 1599 
1599 1632 1929 1930 
1896 1930 1599 1929 
1897 1599 1930 1600 
1930 1599 1633 1600 
1600 1633 1931 1634 
1897 1931 1898 1600 
1600 1633 1930 1931 
1897 1931 1600 1930 
1898 1600 1931 1601 
1931 1600 1634 1601 
1601 1634 1932 1635 
1898 1932 1899 1601 
1601 1634 1931 1932 
1898 1932 1601 1931 
1899 1601 1932 1602 
1932 1601 1635 1602 
1602 1635 1933 1636 
1899 1933 1900 1602 
1602 1635 1932 1933 
1899 1933 1602 1932 
1900 1602 1933 1603 
1933 1602 1636 1603 
1603 1636 1934 1637 
1900 1934 1901 1603 
1603 1636 1933 1934 
1900 1934 1603 1933 
1901 1603 1934 1604 
1934 1603 1637 1604 
1604 1637 1935 1638 
1901 1935 1902 1604 
1604 1637 1934 1935 
1901 1935 1604 1934 
1902 1604 1935 1605 
1935 1604 1638 1605 
1605 1638 1936 1639 
1902 1936 1903 1605 
1605 1638 1935 1936 
1902 1936 1605 1935 
1903 1605 1936 1606 
1936 1605 1639 1606 
1606 1639 1937 1640 
1903 1937 1904 1606 
1606 1639 1936 1937 
1903 1937 1606 1936 
1904 1606 1937 1607 
1937 1606 1640 1607 
1607 1640 1938 1641 
1904 1938 1905 1607 
1607 1640 1937 1938 
1904 1938 1607 1937 
1905 1607 1938 1608 
1938 1607 1641 1608 
1608 1641 1939 1642 
1905 1939 1906 1608 
1608 1641 1938 1939 
1905 1939 1608 1938 
1906 1608 1939 1609 
1939 1608 1642 1609 
1609 1642 1940 1643 
1906 1940 1907 1609 
1609 1642 1939 1940 
1906 1940 1609 1939 
1907 1609 1940 1610 
1940 1609 1643 1610 
1610 1643 1941 1644 
1907 1941 1908 1610 
1610 1643 1940 1941 
1907 1941 1610 1940 
1908 1610 1941 1611 
1941 1610 1644 1611 
1611 1644 1942 1645 
1908 1942 1909 1611 
1611 1644 1941 1942 
1908 1942 1611 1941 
1909 1611 1942 1612 
1942 1611 1645 1612 
1612 1645 1943 1646 
1909 1943 1910 1612 
1612 1645 1942 1943 
1909 1943 1612 1942 
1910 1612 1943 1613 
1943 1612 1646 1613 
1613 1646 1944 1647 
1910 1944 1911 1613 
1613 1646 1943 1944 
1910 1944 1613 1943 
1911 1613 1944 1614 
1944 1613 1647 1614 
1614 1647 1945 1648 
1911 1945 1912 1614 
1614 1647 1944 1945 
1911 1945 1614 1944 
1912 1614 1945 1615 
1945 1614 1648 1615 
1615 1648 1946 1649 
1912 1946 1913 1615 
1615 1648 1945 1946 
1912 1946 1615 1945 
1913 1615 1946 1616 
1946 1615 1649 1616 
1617 1650 1948 1651 
1914 1948 1915 1617 
1617 1650 1947 1948 
1914 1948 1617 1947 
1915 1617 1948 1618 
1948 1617 1651 1618 
1618 1651 1949 1652 
1915 1949 1916 1618 
1618 1651 1948 1949 
1915 1949 1618 1948 
1916 1618 1949 1619 
1949 1618 1652 1619 
1619 1652 1950 1653 
1916 1950 1917 1619 
1619 1652 1949 1950 
1916 1950 1619 1949 
1917 1619 1950 1620 
1950 1619 1653 1620 
1620 1653 1951 1654 
1917 1951 1918 1620 
1620 1653 1950 1951 
1917 1951 1620 1950 
1918 1620 1951 1621 
1951 1620 1654 1621 
1621 1654 1952 1655 
1918 1952 1919 1621 
1621 1654 1951 1952 
1918 1952 1621 1951 
1919 1621 1952 1622 
1952 1621 1655 1622 
1622 1655 1953 1656 
1919 1953 1920 1622 
1622 1655 1952 1953 
1919 1953 1622 1952 
1920 1622 1953 1623 
1953 1622 1656 1623 
1623 1656 1954 1657 
1920 1954 1921 1623 
1623 1656 1953 1954 
1920 1954 1623 1953 
1921 1623 1954 1624 
1954 1623 1657 1624 
1624 1657 1955 1658 
1921 1955 1922 1624 
1624 1657 1954 1955 
1921 1955 1624 1954 
1922 1624 1955 1625 
1955 1624 1658 1625 
1625 1658 1956 1659 
1922 1956 1923 1625 
1625 1658 1955 1956 
1922 1956 1625 1955 
1923 1625 1956 1626 
1956 1625 1659 1626 
1626 1659 1957 1660 
1923 1957 1924 1626 
1626 1659 1956 1957 
1923 1957 1626 1956 
1924 1626 1957 1627 
1957 1626 1660 1627 
1627 1660 1958 1661 
1924 1958 1925 1627 
1627 1660 1957 1958 
1924 1958 1627 1957 
1925 1627 1958 1628 
1958 1627 1661 1628 
1628 1661 1959 1662 
1925 1959 1926 1628 
1628 1661 1958 1959 
1925 1959 1628 1958 
1926 1628 1959 1629 
1959 1628 1662 1629 
1629 1662 1960 1663 
1926 1960 1927 1629 
1629 1662 1959 1960 
1926 1960 1629 1959 
1927 1629 1960 1630 
1960 1629 1663 1630 
1630 1663 1961 1664 
1927 1961 1928 1630 
1630 1663 1960 1961 
1927 1961 1630 1960 
1928 1630 1961 1631 
1961 1630 1664 1631 
1631 1664 1962 1665 
1928 1962 1929 1631 
1631 1664 1961 1962 
1928 1962 1631 1961 
1929 1631 1962 1632 
1962 1631 1665 1632 
1632 1665 1963 1666 
1929 1963 1930 1632 
1632 1665 1962 1963 
1929 1963 1632 1962 
1930 1632 1963 1633 
1963 1632 1666 1633 
1633 1666 1964 1667 
1930 1964 1931 1633 
1633 1666 1963 1964 
1930 1964 1633 1963 
1931 1633 1964 1634 
1964 1633 1667 1634 
1634 1667 1965 1668 
1931 1965 1932 1634 
1634 1667 1964 1965 
1931 1965 1634 1964 
1932 1634 1965 1635 
1965 1634 1668 1635 
1635 1668 1966 1669 
1932 1966 1933 1635 
1635 1668 1965 1966 
1932 1966 1635 1965 
1933 1635 1966 1636 
1966 1635 1669 1636 
1636 1669 1967 1670 
1933 1967 1934 1636 
1636 1669 1966 1967 
1933 1967 1636 1966 
1934 1636 1967 1637 
1967 1636 1670 1637 
1637 1670 1968 1671 
1934 1968 1935 1637 
1637 1670 1967 1968 
1934 1968 1637 1967 
1935 1637 1968 1638 
1968 1637 1671 1638 
1638 1671 1969 1672 
1935 1969 1936 1638 
1638 1671 1968 1969 
1935 1969 1638 1968 
1936 1638 1969 1639 
1969 1638 1672 1639 
1639 1672 1970 1673 
1936 1970 1937 1639 
1639 1672 1969 1970 
1936 1970 1639 1969 
1937 1639 1970 1640 
1970 1639 1673 1640 
1640 1673 1971 1674 
1937 1971 1938 1640 
1640 1673 1970 1971 
1937 1971 1640 1970 
1938 1640 1971 1641 
1971 1640 1674 1641 
1641 1674 1972 1675 
1938 1972 1939 1641 
1641 1674 1971 1972 
1938 1972 1641 1971 
1939 1641 1972 1642 
1972 1641 1675 1642 
1642 1675 1973 1676 
1939 1973 1940 1642 
1642 1675 1972 1973 
1939 1973 1642 1972 
1940 1642 1973 1643 
1973 1642 1676 1643 
1643 1676 1974 1677 
1940 1974 1941 1643 
1643 1676 1973 1974 
1940 1974 1643 1973 
1941 1643 1974 1644 
1974 1643 1677 1644 
1644 1677 1975 1678 
1941 1975 1942 1644 
1644 1677 1974 1975 
1941 1975 1644 1974 
1942 1644 1975 1645 
1975 1644 1678 1645 
1645 1678 1976 1679 
1942 1976 1943 1645 
1645 1678 1975 1976 
1942 1976 1645 1975 
1943 1645 1976 1646 
1976 1645 1679 1646 
1646 1679 1977 1680 
1943 1977 1944 1646 
1646 1679 1976 1977 
1943 1977 1646 1976 
1944 1646 1977 1647 
1977 1646 1680 1647 
1647 1680 1978 1681 
1944 1978 1945 1647 
1647 1680 1977 1978 
1944 1978 1647 1977 
1945 1647 1978 1648 
1978 1647 1681 1648 
1648 1681 1979 1682 
1945 1979 1946 1648 
1648 1681 1978 1979 
1945 1979 1648 1978 
1946 1648 1979 1649 
1979 1648 1682 1649 
1650 1683 1981 1684 
1947 1981 1948 1650 
1650 1683 1980 1981 
1947 1981 1650 1980 
1948 1650 1981 1651 
1981 1650 1684 1651 
1651 1684 1982 1685 
1948 1982 1949 1651 
1651 1684 1981 1982 
1948 1982 1651 1981 
1949 1651 1982 1652 
1982 1651 1685 1652 
1652 1685 1983 1686 
1949 1983 1950 1652 
1652 1685 1982 1983 
1949 1983 1652 1982 
1950 1652 1983 1653 
1983 1652 1686 1653 
1653 1686 1984 1687 
1950 1984 1951 1653 
1653 1686 1983 1984 
1950 1984 1653 1983 
1951 1653 1984 1654 
1984 1653 1687 1654 
1654 1687 1985 1688 
1951 1985 1952 1654 
1654 1687 1984 1985 
1951 1985 1654 1984 
1952 1654 1985 1655 
1985 1654 1688 1655 
1655 1688 1986 1689 
1952 1986 1953 1655 
1655 1688 1985 1986 
1952 1986 1655 1985 
1953 1655 1986 1656 
1986 1655 1689 1656 
1656 1689 1987 1690 
1953 1987 1954 1656 
1656 1689 1986 1987 
1953 1987 1656 1986 
1954 1656 1987 1657 
1987 1656 1690 1657 
1657 1690 1988 1691 
1954 1988 1955 1657 
1657 1690 1987 1988 
1954 1988 1657 1987 
1955 1657 1988 1658 
1988 1657 1691 1658 
1658 1691 1989 1692 
1955 1989 1956 1658 
1658 1691 1988 1989 
1955 1989 1658 1988 
1956 1658 1989 1659 
1989 1658 1692 1659 
1659 1692 1990 1693 
1956 1990 1957 1659 
1659 1692 1989 1990 
1956 1990 1659 1989 
1957 1659 1990 1660 
1990 1659 1693 1660 
1660 1693 1991 1694 
1957 1991 1958 1660 
1660 1693 1990 1991 
1957 1991 1660 1990 
1958 1660 1991 1661 
1991 1660 1694 1661 
1661 1694 1992 1695 
1958 1992 1959 1661 
1661 1694 1991 1992 
1958 1992 1661 1991 
1959 1661 1992 1662 
1992 1661 1695 1662 
1662 1695 1993 1696 
1959 1993 1960 1662 
1662 1695 1992 1993 
1959 1993 1662 1992 
1960 1662 1993 1663 
1993 1662 1696 1663 
1663 1696 1994 1697 
1960 1994 1961 1663 
1663 1696 1993 1994 
1960 1994 1663 1993 
1961 1663 1994 1664 
1994 1663 1697 1664 
1664 1697 1995 1698 
1961 1995 1962 1664 
1664 1697 1994 1995 
1961 1995 1664 1994 
1962 1664 1995 1665 
1995 1664 1698 1665 
1665 1698 1996 1699 
1962 1996 1963 1665 
1665 1698 1995 1996 
1962 1996 1665 1995 
1963 1665 1996 1666 
1996 1665 1699 1666 
1666 1699 1997 1700 
1963 1997 1964 1666 
1666 1699 1996 1997 
1963 1997 1666 1996 
1964 1666 1997 1667 
1997 1666 1700 1667 
1667 1700 1998 1701 
1964 1998 1965 1667 
1667 1700 1997 1998 
1964 1998 1667 1997 
1965 1667 1998 1668 
1998 1667 1701 1668 
1668 1701 1999 1702 
1965 1999 1966 1668 
1668 1701 1998 1999 
1965 1999 1668 1998 
1966 1668 1999 1669 
1999 1668 1702 1669 
1669 1702 2000 1703 
1966 2000 1967 1669 
1669 1702 1999 2000 
1966 2000 1669 1999 
1967 1669 2000 1670 
2000 1669 1703 1670 
1670 1703 2001 1704 
1967 2001 1968 1670 
1670 1703 2000 2001 
1967 2001 1670 2000 
1968 1670 2001 1671 
2001 1670 1704 1671 
1671 1704 2002 1705 
1968 2002 1969 1671 
1671 1704 2001 2002 
1968 2002 1671 2001 
1969 1671 2002 1672 
2002 1671 1705 1672 
1672 1705 2003 1706 
1969 2003 1970 1672 
1672 1705 2002 2003 
1969 2003 1672 2002 
1970 1672 2003 1673 
2003 1672 1706 1673 
1673 1706 2004 1707 
1970 2004 1971 1673 
1673 1706 2003 2004 
1970 2004 1673 2003 
1971 1673 2004 1674 
2004 1673 1707 1674 
1674 1707 2005 1708 
1971 2005 1972 1674 
1674 1707 2004 2005 
1971 2005 1674 2004 
1972 1674 2005 1675 
2005 1674 1708 1675 
1675 1708 2006 1709 
1972 2006 1973 1675 
1675 1708 2005 2006 
1972 2006 1675 2005 
1973 1675 2006 1676 
2006 1675 1709 1676 
1676 1709 2007 1710 
1973 2007 1974 1676 
1676 1709 2006 2007 
1973 2007 1676 2006 
1974 1676 2007 1677 
2007 1676 1710 1677 
1677 1710 2008 1711 
1974 2008 1975 1677 
1677 1710 2007 2008 
1974 2008 1677 2007 
1975 1677 2008 1678 
2008 1677 1711 1678 
1678 1711 2009 1712 
1975 2009 1976 1678 
1678 1711 2008 2009 
1975 2009 1678 2008 
1976 1678 2009 1679 
2009 1678 1712 1679 
1679 1712 2010 1713 
1976 2010 1977 1679 
1679 1712 2009 2010 
1976 2010 1679 2009 
1977 1679 2010 1680 
2010 1679 1713 1680 
1680 1713 2011 1714 
1977 2011 1978 1680 
1680 1713 2010 2011 
1977 2011 1680 2010 
1978 1680 2011 1681 
2011 1680 1714 1681 
1681 1714 2012 1715 
1978 2012 1979 1681 
1681 1714 2011 2012 
1978 2012 1681 2011 
1979 1681 2012 1682 
2012 1681 1715 1682 
1683 1716 2014 1717 
1980 2014 1981 1683 
1683 1716 2013 2014 
1980 2014 1683 2013 
1981 1683 2014 1684 
2014 1683 1717 1684 
1684 1717 2015 1718 
1981 2015 1982 1684 
1684 1717 2014 2015 
1981 2015 1684 2014 
1982 1684 2015 1685 
2015 1684 1718 1685 
1685 1718 2016 1719 
1982 2016 1983 1685 
1685 1718 2015 2016 
1982 2016 1685 2015 
1983 1685 2016 1686 
2016 1685 1719 1686 
1686 1719 2017 1720 
1983 2017 1984 1686 
1686 1719 2016 2017 
1983 2017 1686 2016 
1984 1686 2017 1687 
2017 1686 1720 1687 
1687 1720 2018 1721 
1984 2018 1985 1687 
1687 1720 2017 2018 
1984 2018 1687 2017 
1985 1687 2018 1688 
2018 1687 1721 1688 
1688 1721 2019 1722 
1985 2019 1986 1688 
1688 1721 2018 2019 
1985 2019 1688 2018 
1986 1688 2019 1689 
2019 1688 1722 1689 
1689 1722 2020 1723 
1986 2020 1987 1689 
1689 1722 2019 2020 
1986 2020 1689 2019 
1987 1689 2020 1690 
2020 1689 1723 1690 
1690 1723 2021 1724 
1987 2021 1988 1690 
1690 1723 2020 2021 
1987 2021 1690 2020 
1988 1690 2021 1691 
2021 1690 1724 1691 
1691 1724 2022 1725 
1988 2022 1989 1691 
1691 1724 2021 2022 
1988 2022 1691 2021 
1989 1691 2022 1692 
2022 1691 1725 1692 
1692 1725 2023 1726 
1989 2023 1990 1692 
1692 1725 2022 2023 
1989 2023 1692 2022 
1990 1692 2023 1693 
2023 1692 1726 1693 
1693 1726 2024 1727 
1990 2024 1991 1693 
1693 1726 2023 2024 
1990 2024 1693 2023 
1991 1693 2024 1694 
2024 1693 1727 1694 
1694 1727 2025 1728 
1991 2025 1992 1694 
1694 1727 2024 2025 
1991 2025 1694 2024 
1992 1694 2025 1695 
2025 1694 1728 1695 
1695 1728 2026 1729 
1992 2026 1993 1695 
1695 1728 2025 2026 
1992 2026 1695 2025 
1993 1695 2026 1696 
2026 1695 1729 1696 
1696 1729 2027 1730 
1993 2027 1994 1696 
1696 1729 2026 2027 
1993 2027 1696 2026 
1994 1696 2027 1697 
2027 1696 1730 1697 
1697 1730 2028 1731 
1994 2028 1995 1697 
1697 1730 2027 2028 
1994 2028 1697 2027 
1995 1697 2028 1698 
2028 1697 1731 1698 
1698 1731 2029 1732 
1995 2029 1996 1698 
1698 1731 2028 2029 
1995 2029 1698 2028 
1996 1698 2029 1699 
2029 1698 1732 1699 
1699 1732 2030 1733 
1996 2030 1997 1699 
1699 1732 2029 2030 
1996 2030 1699 2029 
1997 1699 2030 1700 
2030 1699 1733 1700 
1700 1733 2031 1734 
1997 2031 1998 1700 
1700 1733 2030 2031 
1997 2031 1700 2030 
1998 1700 2031 1701 
2031 1700 1734 1701 
1701 1734 2032 1735 
1998 2032 1999 1701 
1701 1734 2031 2032 
1998 2032 1701 2031 
1999 1701 2032 1702 
2032 1701 1735 1702 
1702 1735 2033 1736 
1999 2033 2000 1702 
1702 1735 2032 2033 
1999 2033 1702 2032 
2000 1702 2033 1703 
2033 1702 1736 1703 
1703 1736 2034 1737 
2000 2034 2001 1703 
1703 1736 2033 2034 
2000 2034 1703 2033 
2001 1703 2034 1704 
2034 1703 1737 1704 
1704 1737 2035 1738 
2001 2035 2002 1704 
1704 1737 2034 2035 
2001 2035 1704 2034 
2002 1704 2035 1705 
2035 1704 1738 1705 
1705 1738 2036 1739 
2002 2036 2003 1705 
1705 1738 2035 2036 
2002 2036 1705 2035 
2003 1705 2036 1706 
2036 1705 1739 1706 
1706 1739 2037 1740 
2003 2037 2004 1706 
1706 1739 2036 2037 
2003 2037 1706 2036 
2004 1706 2037 1707 
2037 1706 1740 1707 
1707 1740 2038 1741 
2004 2038 2005 1707 
1707 1740 2037 2038 
2004 2038 1707 2037 
2005 1707 2038 1708 
2038 1707 1741 1708 
1708 1741 2039 1742 
2005 2039 2006 1708 
1708 1741 2038 2039 
2005 2039 1708 2038 
2006 1708 2039 1709 
2039 1708 1742 1709 
1709 1742 2040 1743 
2006 2040 2007 1709 
1709 1742 2039 2040 
2006 2040 1709 2039 
2007 1709 2040 1710 
2040 1709 1743 1710 
1710 1743 2041 1744 
2007 2041 2008 1710 
1710 1743 2040 2041 
2007 2041 1710 2040 
2008 1710 2041 1711 
2041 1710 1744 1711 
1711 1744 2042 1745 
2008 2042 2009 1711 
1711 1744 2041 2042 
2008 2042 1711 2041 
2009 1711 2042 1712 
2042 1711 1745 1712 
1712 1745 2043 1746 
2009 2043 2010 1712 
1712 1745 2042 2043 
2009 2043 1712 2042 
2010 1712 2043 1713 
2043 1712 1746 1713 
1713 1746 2044 1747 
2010 2044 2011 1713 
1713 1746 2043 2044 
2010 2044 1713 2043 
2011 1713 2044 1714 
2044 1713 1747 1714 
1714 1747 2045 1748 
2011 2045 2012 1714 
1714 1747 2044 2045 
2011 2045 1714 2044 
2012 1714 2045 1715 
2045 1714 1748 1715 
1716 1749 2047 1750 
2013 2047 2014 1716 
1716 1749 2046 2047 
2013 2047 1716 2046 
2014 1716 2047 1717 
2047 1716 1750 1717 
1717 1750 2048 1751 
2014 2048 2015 1717 
1717 1750 2047 2048 
2014 2048 1717 2047 
2015 1717 2048 1718 
2048 1717 1751 1718 
1718 1751 2049 1752 
2015 2049 2016 1718 
1718 1751 2048 2049 
2015 2049 1718 2048 
2016 1718 2049 1719 
2049 1718 1752 1719 
1719 1752 2050 1753 
2016 2050 2017 1719 
1719 1752 2049 2050 
2016 2050 1719 2049 
2017 1719 2050 1720 
2050 1719 1753 1720 
1720 1753 2051 1754 
2017 2051 2018 1720 
1720 1753 2050 2051 
2017 2051 1720 2050 
2018 1720 2051 1721 
2051 1720 1754 1721 
1721 1754 2052 1755 
2018 2052 2019 1721 
1721 1754 2051 2052 
2018 2052 1721 2051 
2019 1721 2052 1722 
2052 1721 1755 1722 
1722 1755 2053 1756 
2019 2053 2020 1722 
1722 1755 2052 2053 
2019 2053 1722 2052 
2020 1722 2053 1723 
2053 1722 1756 1723 
1723 1756 2054 1757 
2020 2054 2021 1723 
1723 1756 2053 2054 
2020 2054 1723 2053 
2021 1723 2054 1724 
2054 1723 1757 1724 
1724 1757 2055 1758 
2021 2055 2022 1724 
1724 1757 2054 2055 
2021 2055 1724 2054 
2022 1724 2055 1725 
2055 1724 1758 1725 
1725 1758 2056 1759 
2022 2056 2023 1725 
1725 1758 2055 2056 
2022 2056 1725 2055 
2023 1725 2056 1726 
2056 1725 1759 1726 
1726 1759 2057 1760 
2023 2057 2024 1726 
1726 1759 2056 2057 
2023 2057 1726 2056 
2024 1726 2057 1727 
2057 1726 1760 1727 
1727 1760 2058 1761 
2024 2058 2025 1727 
1727 1760 2057 2058 
2024 2058 1727 2057 
2025 1727 2058 1728 
2058 1727 1761 1728 
1728 1761 2059 1762 
2025 2059 2026 1728 
1728 1761 2058 2059 
2025 2059 1728 2058 
2026 1728 2059 1729 
2059 1728 1762 1729 
1729 1762 2060 1763 
2026 2060 2027 1729 
1729 1762 2059 2060 
2026 2060 1729 2059 
2027 1729 2060 1730 
2060 1729 1763 1730 
1730 1763 2061 1764 
2027 2061 2028 1730 
1730 1763 2060 2061 
2027 2061 1730 2060 
2028 1730 2061 1731 
2061 1730 1764 1731 
1731 1764 2062 1765 
2028 2062 2029 1731 
1731 1764 2061 2062 
2028 2062 1731 2061 
2029 1731 2062 1732 
2062 1731 1765 1732 
1732 1765 2063 1766 
2029 2063 2030 1732 
1732 1765 2062 2063 
2029 2063 1732 2062 
2030 1732 2063 1733 
2063 1732 1766 1733 
1733 1766 2064 1767 
2030 2064 2031 1733 
1733 1766 2063 2064 
2030 2064 1733 2063 
2031 1733 2064 1734 
2064 1733 1767 1734 
1734 1767 2065 1768 
2031 2065 2032 1734 
1734 1767 2064 2065 
2031 2065 1734 2064 
2032 1734 2065 1735 
2065 1734 1768 1735 
1735 1768 2066 1769 
2032 2066 2033 1735 
1735 1768 2065 2066 
2032 2066 1735 2065 
2033 1735 2066 1736 
2066 1735 1769 1736 
1736 1769 2067 1770 
2033 2067 2034 1736 
1736 1769 2066 2067 
2033 2067 1736 2066 
2034 1736 2067 1737 
2067 1736 1770 1737 
1737 1770 2068 1771 
2034 2068 2035 1737 
1737 1770 2067 2068 
2034 2068 1737 2067 
2035 1737 2068 1738 
2068 1737 1771 1738 
1738 1771 2069 1772 
2035 2069 2036 1738 
1738 1771 2068 2069 
2035 2069 1738 2068 
2036 1738 2069 1739 
2069 1738 1772 1739 
1739 1772 2070 1773 
2036 2070 2037 1739 
1739 1772 2069 2070 
2036 2070 1739 2069 
2037 1739 2070 1740 
2070 1739 1773 1740 
1740 1773 2071 1774 
2037 2071 2038 1740 
1740 1773 2070 2071 
2037 2071 1740 2070 
2038 1740 2071 1741 
2071 1740 1774 1741 
1741 1774 2072 1775 
2038 2072 2039 1741 
1741 1774 2071 2072 
2038 2072 1741 2071 
2039 1741 2072 1742 
2072 1741 1775 1742 
1742 1775 2073 1776 
2039 2073 2040 1742 
1742 1775 2072 2073 
2039 2073 1742 2072 
2040 1742 2073 1743 
2073 1742 1776 1743 
1743 1776 2074 1777 
2040 2074 2041 1743 
1743 1776 2073 2074 
2040 2074 1743 2073 
2041 1743 2074 1744 
2074 1743 1777 1744 
1744 1777 2075 1778 
2041 2075 2042 1744 
1744 1777 2074 2075 
2041 2075 1744 2074 
2042 1744 2075 1745 
2075 1744 1778 1745 
1745 1778 2076 1779 
2042 2076 2043 1745 
1745 1778 2075 2076 
2042 2076 1745 2075 
2043 1745 2076 1746 
2076 1745 1779 1746 
1746 1779 2077 1780 
2043 2077 2044 1746 
1746 1779 2076 2077 
2043 2077 1746 2076 
2044 1746 2077 1747 
2077 1746 1780 1747 
1747 1780 2078 1781 
2044 2078 2045 1747 
1747 1780 2077 2078 
2044 2078 1747 2077 
2045 1747 2078 1748 
2078 1747 1781 1748 
1782 1815 2113 1816 
2079 2113 2080 1782 
1782 1815 2112 2113 
2079 2113 1782 2112 
2080 1782 2113 1783 
2113 1782 1816 1783 
1783 1816 2114 1817 
2080 2114 2081 1783 
1783 1816 2113 2114 
2080 2114 1783 2113 
2081 1783 2114 1784 
2114 1783 1817 1784 
1784 1817 2115 1818 
2081 2115 2082 1784 
1784 1817 2114 2115 
2081 2115 1784 2114 
2082 1784 2115 1785 
2115 1784 1818 1785 
1785 1818 2116 1819 
2082 2116 2083 1785 
1785 1818 2115 2116 
2082 2116 1785 2115 
2083 1785 2116 1786 
2116 1785 1819 1786 
1786 1819 2117 1820 
2083 2117 2084 1786 
1786 1819 2116 2117 
2083 2117 1786 2116 
2084 1786 2117 1787 
2117 1786 1820 1787 
1787 1820 2118 1821 
2084 2118 2085 1787 
1787 1820 2117 2118 
2084 2118 1787 2117 
2085 1787 2118 1788 
2118 1787 1821 1788 
1788 1821 2119 1822 
2085 2119 2086 1788 
1788 1821 2118 2119 
2085 2119 1788 2118 
2086 1788 2119 1789 
2119 1788 1822 1789 
1789 1822 2120 1823 
2086 2120 2087 1789 
1789 1822 2119 2120 
2086 2120 1789 2119 
2087 1789 2120 1790 
2120 1789 1823 1790 
1790 1823 2121 1824 
2087 2121 2088 1790 
1790 1823 2120 2121 
2087 2121 1790 2120 
2088 1790 2121 1791 
2121 1790 1824 1791 
1791 1824 2122 1825 
2088 2122 2089 1791 
1791 1824 2121 2122 
2088 2122 1791 2121 
2089 1791 2122 1792 
2122 1791 1825 1792 
1792 1825 2123 1826 
2089 2123 2090 1792 
1792 1825 2122 2123 
2089 2123 1792 2122 
2090 1792 2123 1793 
2123 1792 1826 1793 
1793 1826 2124 1827 
2090 2124 2091 1793 
1793 1826 2123 2124 
2090 2124 1793 2123 
2091 1793 2124 1794 
2124 1793 1827 1794 
1794 1827 2125 1828 
2091 2125 2092 1794 
1794 1827 2124 2125 
2091 2125 1794 2124 
2092 1794 2125 1795 
2125 1794 1828 1795 
1795 1828 2126 1829 
2092 2126 2093 1795 
1795 1828 2125 2126 
2092 2126 1795 2125 
2093 1795 2126 1796 
2126 1795 1829 1796 
1796 1829 2127 1830 
2093 2127 2094 1796 
1796 1829 2126 2127 
2093 2127 1796 2126 
2094 1796 2127 1797 
2127 1796 1830 1797 
1797 1830 2128 1831 
2094 2128 2095 1797 
1797 1830 2127 2128 
2094 2128 1797 2127 
2095 1797 2128 1798 
2128 1797 1831 1798 
1798 1831 2129 1832 
2095 2129 2096 1798 
1798 1831 2128 2129 
2095 2129 1798 2128 
2096 1798 2129 1799 
2129 1798 1832 1799 
1799 1832 2130 1833 
2096 2130 2097 1799 
1799 1832 2129 2130 
2096 2130 1799 2129 
2097 1799 2130 1800 
2130 1799 1833 1800 
1800 1833 2131 1834 
2097 2131 2098 1800 
1800 1833 2130 2131 
2097 2131 1800 2130 
2098 1800 2131 1801 
2131 1800 1834 1801 
1801 1834 2132 1835 
2098 2132 2099 1801 
1801 1834 2131 2132 
2098 2132 1801 2131 
2099 1801 2132 1802 
2132 1801 1835 1802 
1802 1835 2133 1836 
2099 2133 2100 1802 
1802 1835 2132 2133 
2099 2133 1802 2132 
2100 1802 2133 1803 
2133 1802 1836 1803 
1803 1836 2134 1837 
2100 2134 2101 1803 
1803 1836 2133 2134 
2100 2134 1803 2133 
2101 1803 2134 1804 
2134 1803 1837 1804 
1804 1837 2135 1838 
2101 2135 2102 1804 
1804 1837 2134 2135 
2101 2135 1804 2134 
2102 1804 2135 1805 
2135 1804 1838 1805 
1805 1838 2136 1839 
2102 2136 2103 1805 
1805 1838 2135 2136 
2102 2136 1805 2135 
2103 1805 2136 1806 
2136 1805 1839 1806 
1806 1839 2137 1840 
2103 2137 2104 1806 
1806 1839 2136 2137 
2103 2137 1806 2136 
2104 1806 2137 1807 
2137 1806 1840 1807 
1807 1840 2138 1841 
2104 2138 2105 1807 
1807 1840 2137 2138 
2104 2138 1807 2137 
2105 1807 2138 1808 
2138 1807 1841 1808 
1808 1841 2139 1842 
2105 2139 2106 1808 
1808 1841 2138 2139 
2105 2139 1808 2138 
2106 1808 2139 1809 
2139 1808 1842 1809 
1809 1842 2140 1843 
2106 2140 2107 1809 
1809 1842 2139 2140 
2106 2140 1809 2139 
2107 1809 2140 1810 
2140 1809 1843 1810 
1810 1843 2141 1844 
2107 2141 2108 1810 
1810 1843 2140 2141 
2107 2141 1810 2140 
2108 1810 2141 1811 
2141 1810 1844 1811 
1811 1844 2142 1845 
2108 2142 2109 1811 
1811 1844 2141 2142 
2108 2142 1811 2141 
2109 1811 2142 1812 
2142 1811 1845 1812 
1812 1845 2143 1846 
2109 2143 2110 1812 
1812 1845 2142 2143 
2109 2143 1812 2142 
2110 1812 2143 1813 
2143 1812 1846 1813 
1813 1846 2144 1847 
2110 2144 2111 1813 
1813 1846 2143 2144 
2110 2144 1813 2143 
2111 1813 2144 1814 
2144 1813 1847 1814 
1815 1848 2146 1849 
2112 2146 2113 1815 
1815 1848 2145 2146 
2112 2146 1815 2145 
2113 1815 2146 1816 
2146 1815 1849 1816 
1816 1849 2147 1850 
2113 2147 2114 1816 
1816 1849 2146 2147 
2113 2147 1816 2146 
2114 1816 2147 1817 
2147 1816 1850 1817 
1817 1850 2148 1851 
2114 2148 2115 1817 
1817 1850 2147 2148 
2114 2148 1817 2147 
2115 1817 2148 1818 
2148 1817 1851 1818 
1818 1851 2149 1852 
2115 2149 2116 1818 
1818 1851 2148 2149 
2115 2149 1818 2148 
2116 1818 2149 1819 
2149 1818 1852 1819 
1819 1852 2150 1853 
2116 2150 2117 1819 
1819 1852 2149 2150 
2116 2150 1819 2149 
2117 1819 2150 1820 
2150 1819 1853 1820 
1820 1853 2151 1854 
2117 2151 2118 1820 
1820 1853 2150 2151 
2117 2151 1820 2150 
2118 1820 2151 1821 
2151 1820 1854 1821 
1821 1854 2152 1855 
2118 2152 2119 1821 
1821 1854 2151 2152 
2118 2152 1821 2151 
2119 1821 2152 1822 
2152 1821 1855 1822 
1822 1855 2153 1856 
2119 2153 2120 1822 
1822 1855 2152 2153 
2119 2153 1822 2152 
2120 1822 2153 1823 
2153 1822 1856 1823 
1823 1856 2154 1857 
2120 2154 2121 1823 
1823 1856 2153 2154 
2120 2154 1823 2153 
2121 1823 2154 1824 
2154 1823 1857 1824 
1824 1857 2155 1858 
2121 2155 2122 1824 
1824 1857 2154 2155 
2121 2155 1824 2154 
2122 1824 2155 1825 
2155 1824 1858 1825 
1825 1858 2156 1859 
2122 2156 2123 1825 
1825 1858 2155 2156 
2122 2156 1825 2155 
2123 1825 2156 1826 
2156 1825 1859 1826 
1826 1859 2157 1860 
2123 2157 2124 1826 
1826 1859 2156 2157 
2123 2157 1826 2156 
2124 1826 2157 1827 
2157 1826 1860 1827 
1827 1860 2158 1861 
2124 2158 2125 1827 
1827 1860 2157 2158 
2124 2158 1827 2157 
2125 1827 2158 1828 
2158 1827 1861 1828 
1828 1861 2159 1862 
2125 2159 2126 1828 
1828 1861 2158 2159 
2125 2159 1828 2158 
2126 1828 2159 1829 
2159 1828 1862 1829 
1829 1862 2160 1863 
2126 2160 2127 1829 
1829 1862 2159 2160 
2126 2160 1829 2159 
2127 1829 2160 1830 
2160 1829 1863 1830 
1830 1863 2161 1864 
2127 2161 2128 1830 
1830 1863 2160 2161 
2127 2161 1830 2160 
2128 1830 2161 1831 
2161 1830 1864 1831 
1831 1864 2162 1865 
2128 2162 2129 1831 
1831 1864 2161 2162 
2128 2162 1831 2161 
2129 1831 2162 1832 
2162 1831 1865 1832 
1832 1865 2163 1866 
2129 2163 2130 1832 
1832 1865 2162 2163 
2129 2163 1832 2162 
2130 1832 2163 1833 
2163 1832 1866 1833 
1833 1866 2164 1867 
2130 2164 2131 1833 
1833 1866 2163 2164 
2130 2164 1833 2163 
2131 1833 2164 1834 
2164 1833 1867 1834 
1834 1867 2165 1868 
2131 2165 2132 1834 
1834 1867 2164 2165 
2131 2165 1834 2164 
2132 1834 2165 1835 
2165 1834 1868 1835 
1835 1868 2166 1869 
2132 2166 2133 1835 
1835 1868 2165 2166 
2132 2166 1835 2165 
2133 1835 2166 1836 
2166 1835 1869 1836 
1836 1869 2167 1870 
2133 2167 2134 1836 
1836 1869 2166 2167 
2133 2167 1836 2166 
2134 1836 2167 1837 
2167 1836 1870 1837 
1837 1870 2168 1871 
2134 2168 2135 1837 
1837 1870 2167 2168 
2134 2168 1837 2167 
2135 1837 2168 1838 
2168 1837 1871 1838 
1838 1871 2169 1872 
2135 2169 2136 1838 
1838 1871 2168 2169 
2135 2169 1838 2168 
2136 1838 2169 1839 
2169 1838 1872 1839 
1839 1872 2170 1873 
2136 2170 2137 1839 
1839 1872 2169 2170 
2136 2170 1839 2169 
2137 1839 2170 1840 
2170 1839 1873 1840 
1840 1873 2171 1874 
2137 2171 2138 1840 
1840 1873 2170 2171 
2137 2171 1840 2170 
2138 1840 2171 1841 
2171 1840 1874 1841 
1841 1874 2172 1875 
2138 2172 2139 1841 
1841 1874 2171 2172 
2138 2172 1841 2171 
2139 1841 2172 1842 
2172 1841 1875 1842 
1842 1875 2173 1876 
2139 2173 2140 1842 
1842 1875 2172 2173 
2139 2173 1842 2172 
2140 1842 2173 1843 
2173 1842 1876 1843 
1843 1876 2174 1877 
2140 2174 2141 1843 
1843 1876 2173 2174 
2140 2174 1843 2173 
2141 1843 2174 1844 
2174 1843 1877 1844 
1844 1877 2175 1878 
2141 2175 2142 1844 
1844 1877 2174 2175 
2141 2175 1844 2174 
2142 1844 2175 1845 
2175 1844 1878 1845 
1845 1878 2176 1879 
2142 2176 2143 1845 
1845 1878 2175 2176 
2142 2176 1845 2175 
2143 1845 2176 1846 
2176 1845 1879 1846 
1846 1879 2177 1880 
2143 2177 2144 1846 
1846 1879 2176 2177 
2143 2177 1846 2176 
2144 1846 2177 1847 
2177 1846 1880 1847 
1848 1881 2179 1882 
2145 2179 2146 1848 
1848 1881 2178 2179 
2145 2179 1848 2178 
2146 1848 2179 1849 
2179 1848 1882 1849 
1849 1882 2180 1883 
2146 2180 2147 1849 
1849 1882 2179 2180 
2146 2180 1849 2179 
2147 1849 2180 1850 
2180 1849 1883 1850 
1850 1883 2181 1884 
2147 2181 2148 1850 
1850 1883 2180 2181 
2147 2181 1850 2180 
2148 1850 2181 1851 
2181 1850 1884 1851 
1851 1884 2182 1885 
2148 2182 2149 1851 
1851 1884 2181 2182 
2148 2182 1851 2181 
2149 1851 2182 1852 
2182 1851 1885 1852 
1852 1885 2183 1886 
2149 2183 2150 1852 
1852 1885 2182 2183 
2149 2183 1852 2182 
2150 1852 2183 1853 
2183 1852 1886 1853 
1853 1886 2184 1887 
2150 2184 2151 1853 
1853 1886 2183 2184 
2150 2184 1853 2183 
2151 1853 2184 1854 
2184 1853 1887 1854 
1854 1887 2185 1888 
2151 2185 2152 1854 
1854 1887 2184 2185 
2151 2185 1854 2184 
2152 1854 2185 1855 
2185 1854 1888 1855 
1855 1888 2186 1889 
2152 2186 2153 1855 
1855 1888 2185 2186 
2152 2186 1855 2185 
2153 1855 2186 1856 
2186 1855 1889 1856 
1856 1889 2187 1890 
2153 2187 2154 1856 
1856 1889 2186 2187 
2153 2187 1856 2186 
2154 1856 2187 1857 
2187 1856 1890 1857 
1857 1890 2188 1891 
2154 2188 2155 1857 
1857 1890 2187 2188 
2154 2188 1857 2187 
2155 1857 2188 1858 
2188 1857 1891 1858 
1858 1891 2189 1892 
2155 2189 2156 1858 
1858 1891 2188 2189 
2155 2189 1858 2188 
2156 1858 2189 1859 
2189 1858 1892 1859 
1859 1892 2190 1893 
2156 2190 2157 1859 
1859 1892 2189 2190 
2156 2190 1859 2189 
2157 1859 2190 1860 
2190 1859 1893 1860 
1860 1893 2191 1894 
2157 2191 2158 1860 
1860 1893 2190 2191 
2157 2191 1860 2190 
2158 1860 2191 1861 
2191 1860 1894 1861 
1861 1894 2192 1895 
2158 2192 2159 1861 
1861 1894 2191 2192 
2158 2192 1861 2191 
2159 1861 2192 1862 
2192 1861 1895 1862 
1862 1895 2193 1896 
2159 2193 2160 1862 
1862 1895 2192 2193 
2159 2193 1862 2192 
2160 1862 2193 1863 
2193 1862 1896 1863 
1863 1896 2194 1897 
2160 2194 2161 1863 
1863 1896 2193 2194 
2160 2194 1863 2193 
2161 1863 2194 1864 
2194 1863 1897 1864 
1864 1897 2195 1898 
2161 2195 2162 1864 
1864 1897 2194 2195 
2161 2195 1864 2194 
2162 1864 2195 1865 
2195 1864 1898 1865 
1865 1898 2196 1899 
2162 2196 2163 1865 
1865 1898 2195 2196 
2162 2196 1865 2195 
2163 1865 2196 1866 
2196 1865 1899 1866 
1866 1899 2197 1900 
2163 2197 2164 1866 
1866 1899 2196 2197 
2163 2197 1866 2196 
2164 1866 2197 1867 
2197 1866 1900 1867 
1867 1900 2198 1901 
2164 2198 2165 1867 
1867 1900 2197 2198 
2164 2198 1867 2197 
2165 1867 2198 1868 
2198 1867 1901 1868 
1868 1901 2199 1902 
2165 2199 2166 1868 
1868 1901 2198 2199 
2165 2199 1868 2198 
2166 1868 2199 1869 
2199 1868 1902 1869 
1869 1902 2200 1903 
2166 2200 2167 1869 
1869 1902 2199 2200 
2166 2200 1869 2199 
2167 1869 2200 1870 
2200 1869 1903 1870 
1870 1903 2201 1904 
2167 2201 2168 1870 
1870 1903 2200 2201 
2167 2201 1870 2200 
2168 1870 2201 1871 
2201 1870 1904 1871 
1871 1904 2202 1905 
2168 2202 2169 1871 
1871 1904 2201 2202 
2168 2202 1871 2201 
2169 1871 2202 1872 
2202 1871 1905 1872 
1872 1905 2203 1906 
2169 2203 2170 1872 
1872 1905 2202 2203 
2169 2203 1872 2202 
2170 1872 2203 1873 
2203 1872 1906 1873 
1873 1906 2204 1907 
2170 2204 2171 1873 
1873 1906 2203 2204 
2170 2204 1873 2203 
2171 1873 2204 1874 
2204 1873 1907 1874 
1874 1907 2205 1908 
2171 2205 2172 1874 
1874 1907 2204 2205 
2171 2205 1874 2204 
2172 1874 2205 1875 
2205 1874 1908 1875 
1875 1908 2206 1909 
2172 2206 2173 1875 
1875 1908 2205 2206 
2172 2206 1875 2205 
2173 1875 2206 1876 
2206 1875 1909 1876 
1876 1909 2207 1910 
2173 2207 2174 1876 
1876 1909 2206 2207 
2173 2207 1876 2206 
2174 1876 2207 1877 
2207 1876 1910 1877 
1877 1910 2208 1911 
2174 2208 2175 1877 
1877 1910 2207 2208 
2174 2208 1877 2207 
2175 1877 2208 1878 
2208 1877 1911 1878 
1878 1911 2209 1912 
2175 2209 2176 1878 
1878 1911 2208 2209 
2175 2209 1878 2208 
2176 1878 2209 1879 
2209 1878 1912 1879 
1879 1912 2210 1913 
2176 2210 2177 1879 
1879 1912 2209 2210 
2176 2210 1879 2209 
2177 1879 2210 1880 
2210 1879 1913 1880 
1881 1914 2212 1915 
2178 2212 2179 1881 
1881 1914 2211 2212 
2178 2212 1881 2211 
2179 1881 2212 1882 
2212 1881 1915 1882 
1882 1915 2213 1916 
2179 2213 2180 1882 
1882 1915 2212 2213 
2179 2213 1882 2212 
2180 1882 2213 1883 
2213 1882 1916 1883 
1883 1916 2214 1917 
2180 2214 2181 1883 
1883 1916 2213 2214 
2180 2214 1883 2213 
2181 1883 2214 1884 
2214 1883 1917 1884 
1884 1917 2215 1918 
2181 2215 2182 1884 
1884 1917 2214 2215 
2181 2215 1884 2214 
2182 1884 2215 1885 
2215 1884 1918 1885 
1885 1918 2216 1919 
2182 2216 2183 1885 
1885 1918 2215 2216 
2182 2216 1885 2215 
2183 1885 2216 1886 
2216 1885 1919 1886 
1886 1919 2217 1920 
2183 2217 2184 1886 
1886 1919 2216 2217 
2183 2217 1886 2216 
2184 1886 2217 1887 
2217 1886 1920 1887 
1887 1920 2218 1921 
2184 2218 2185 1887 
1887 1920 2217 2218 
2184 2218 1887 2217 
2185 1887 2218 1888 
2218 1887 1921 1888 
1888 1921 2219 1922 
2185 2219 2186 1888 
1888 1921 2218 2219 
2185 2219 1888 2218 
2186 1888 2219 1889 
2219 1888 1922 1889 
1889 1922 2220 1923 
2186 2220 2187 1889 
1889 1922 2219 2220 
2186 2220 1889 2219 
2187 1889 2220 1890 
2220 1889 1923 1890 
1890 1923 2221 1924 
2187 2221 2188 1890 
1890 1923 2220 2221 
2187 2221 1890 2220 
2188 1890 2221 1891 
2221 1890 1924 1891 
1891 1924 2222 1925 
2188 2222 2189 1891 
1891 1924 2221 2222 
2188 2222 1891 2221 
2189 1891 2222 1892 
2222 1891 1925 1892 
1892 1925 2223 1926 
2189 2223 2190 1892 
1892 1925 2222 2223 
2189 2223 1892 2222 
2190 1892 2223 1893 
2223 1892 1926 1893 
1893 1926 2224 1927 
2190 2224 2191 1893 
1893 1926 2223 2224 
2190 2224 1893 2223 
2191 1893 2224 1894 
2224 1893 1927 1894 
1894 1927 2225 1928 
2191 2225 2192 1894 
1894 1927 2224 2225 
2191 2225 1894 2224 
2192 1894 2225 1895 
2225 1894 1928 1895 
1895 1928 2226 1929 
2192 2226 2193 1895 
1895 1928 2225 2226 
2192 2226 1895 2225 
2193 1895 2226 1896 
2226 1895 1929 1896 
1896 1929 2227 1930 
2193 2227 2194 1896 
1896 1929 2226 2227 
2193 2227 1896 2226 
2194 1896 2227 1897 
2227 1896 1930 1897 
1897 1930 2228 1931 
2194 2228 2195 1897 
1897 1930 2227 2228 
2194 2228 1897 2227 
2195 1897 2228 1898 
2228 1897 1931 1898 
1898 1931 2229 1932 
2195 2229 2196 1898 
1898 1931 2228 2229 
2195 2229 1898 2228 
2196 1898 2229 1899 
2229 1898 1932 1899 
1899 1932 2230 1933 
2196 2230 2197 1899 
1899 1932 2229 2230 
2196 2230 1899 2229 
2197 1899 2230 1900 
2230 1899 1933 1900 
1900 1933 2231 1934 
2197 2231 2198 1900 
1900 1933 2230 2231 
2197 2231 1900 2230 
2198 1900 2231 1901 
2231 1900 1934 1901 
1901 1934 2232 1935 
2198 2232 2199 1901 
1901 1934 2231 2232 
2198 2232 1901 2231 
2199 1901 2232 1902 
2232 1901 1935 1902 
1902 1935 2233 1936 
2199 2233 2200 1902 
1902 1935 2232 2233 
2199 2233 1902 2232 
2200 1902 2233 1903 
2233 1902 1936 1903 
1903 1936 2234 1937 
2200 2234 2201 1903 
1903 1936 2233 2234 
2200 2234 1903 2233 
2201 1903 2234 1904 
2234 1903 1937 1904 
1904 1937 2235 1938 
2201 2235 2202 1904 
1904 1937 2234 2235 
2201 2235 1904 2234 
2202 1904 2235 1905 
2235 1904 1938 1905 
1905 1938 2236 1939 
2202 2236 2203 1905 
1905 1938 2235 2236 
2202 2236 1905 2235 
2203 1905 2236 1906 
2236 1905 1939 1906 
1906 1939 2237 1940 
2203 2237 2204 1906 
1906 1939 2236 2237 
2203 2237 1906 2236 
2204 1906 2237 1907 
2237 1906 1940 1907 
1907 1940 2238 1941 
2204 2238 2205 1907 
1907 1940 2237 2238 
2204 2238 1907 2237 
2205 1907 2238 1908 
2238 1907 1941 1908 
1908 1941 2239 1942 
2205 2239 2206 1908 
1908 1941 2238 2239 
2205 2239 1908 2238 
2206 1908 2239 1909 
2239 1908 1942 1909 
1909 1942 2240 1943 
2206 2240 2207 1909 
1909 1942 2239 2240 
2206 2240 1909 2239 
2207 1909 2240 1910 
2240 1909 1943 1910 
1910 1943 2241 1944 
2207 2241 2208 1910 
1910 1943 2240 2241 
2207 2241 1910 2240 
2208 1910 2241 1911 
2241 1910 1944 1911 
1911 1944 2242 1945 
2208 2242 2209 1911 
1911 1944 2241 2242 
2208 2242 1911 2241 
2209 1911 2242 1912 
2242 1911 1945 1912 
1912 1945 2243 1946 
2209 2243 2210 1912 
1912 1945 2242 2243 
2209 2243 1912 2242 
2210 1912 2243 1913 
2243 1912 1946 1913 
1914 1947 2245 1948 
2211 2245 2212 1914 
1914 1947 2244 2245 
2211 2245 1914 2244 
2212 1914 2245 1915 
2245 1914 1948 1915 
1915 1948 2246 1949 
2212 2246 2213 1915 
1915 1948 2245 2246 
2212 2246 1915 2245 
2213 1915 2246 1916 
2246 1915 1949 1916 
1916 1949 2247 1950 
2213 2247 2214 1916 
1916 1949 2246 2247 
2213 2247 1916 2246 
2214 1916 2247 1917 
2247 1916 1950 1917 
1917 1950 2248 1951 
2214 2248 2215 1917 
1917 1950 2247 2248 
2214 2248 1917 2247 
2215 1917 2248 1918 
2248 1917 1951 1918 
1918 1951 2249 1952 
2215 2249 2216 1918 
1918 1951 2248 2249 
2215 2249 1918 2248 
2216 1918 2249 1919 
2249 1918 1952 1919 
1919 1952 2250 1953 
2216 2250 2217 1919 
1919 1952 2249 2250 
2216 2250 1919 2249 
2217 1919 2250 1920 
2250 1919 1953 1920 
1920 1953 2251 1954 
2217 2251 2218 1920 
1920 1953 2250 2251 
2217 2251 1920 2250 
2218 1920 2251 1921 
2251 1920 1954 1921 
1921 1954 2252 1955 
2218 2252 2219 1921 
1921 1954 2251 2252 
2218 2252 1921 2251 
2219 1921 2252 1922 
2252 1921 1955 1922 
1922 1955 2253 1956 
2219 2253 2220 1922 
1922 1955 2252 2253 
2219 2253 1922 2252 
2220 1922 2253 1923 
2253 1922 1956 1923 
1923 1956 2254 1957 
2220 2254 2221 1923 
1923 1956 2253 2254 
2220 2254 1923 2253 
2221 1923 2254 1924 
2254 1923 1957 1924 
1924 1957 2255 1958 
2221 2255 2222 1924 
1924 1957 2254 2255 
2221 2255 1924 2254 
2222 1924 2255 1925 
2255 1924 1958 1925 
1925 1958 2256 1959 
2222 2256 2223 1925 
1925 1958 2255 2256 
2222 2256 1925 2255 
2223 1925 2256 1926 
2256 1925 1959 1926 
1926 1959 2257 1960 
2223 2257 2224 1926 
1926 1959 2256 2257 
2223 2257 1926 2256 
2224 1926 2257 1927 
2257 1926 1960 1927 
1927 1960 2258 1961 
2224 2258 2225 1927 
1927 1960 2257 2258 
2224 2258 1927 2257 
2225 1927 2258 1928 
2258 1927 1961 1928 
1928 1961 2259 1962 
2225 2259 2226 1928 
1928 1961 2258 2259 
2225 2259 1928 2258 
2226 1928 2259 1929 
2259 1928 1962 1929 
1929 1962 2260 1963 
2226 2260 2227 1929 
1929 1962 2259 2260 
2226 2260 1929 2259 
2227 1929 2260 1930 
2260 1929 1963 1930 
1930 1963 2261 1964 
2227 2261 2228 1930 
1930 1963 2260 2261 
2227 2261 1930 2260 
2228 1930 2261 1931 
2261 1930 1964 1931 
1931 1964 2262 1965 
2228 2262 2229 1931 
1931 1964 2261 2262 
2228 2262 1931 2261 
2229 1931 2262 1932 
2262 1931 1965 1932 
1932 1965 2263 1966 
2229 2263 2230 1932 
1932 1965 2262 2263 
2229 2263 1932 2262 
2230 1932 2263 1933 
2263 1932 1966 1933 
1933 1966 2264 1967 
2230 2264 2231 1933 
1933 1966 2263 2264 
2230 2264 1933 2263 
2231 1933 2264 1934 
2264 1933 1967 1934 
1934 1967 2265 1968 
2231 2265 2232 1934 
1934 1967 2264 2265 
2231 2265 1934 2264 
2232 1934 2265 1935 
2265 1934 1968 1935 
1935 1968 2266 1969 
2232 2266 2233 1935 
1935 1968 2265 2266 
2232 2266 1935 2265 
2233 1935 2266 1936 
2266 1935 1969 1936 
1936 1969 2267 1970 
2233 2267 2234 1936 
1936 1969 2266 2267 
2233 2267 1936 2266 
2234 1936 2267 1937 
2267 1936 1970 1937 
1937 1970 2268 1971 
2234 2268 2235 1937 
1937 1970 2267 2268 
2234 2268 1937 2267 
2235 1937 2268 1938 
2268 1937 1971 1938 
1938 1971 2269 1972 
2235 2269 2236 1938 
1938 1971 2268 2269 
2235 2269 1938 2268 
2236 1938 2269 1939 
2269 1938 1972 1939 
1939 1972 2270 1973 
2236 2270 2237 1939 
1939 1972 2269 2270 
2236 2270 1939 2269 
2237 1939 2270 1940 
2270 1939 1973 1940 
1940 1973 2271 1974 
2237 2271 2238 1940 
1940 1973 2270 2271 
2237 2271 1940 2270 
2238 1940 2271 1941 
2271 1940 1974 1941 
1941 1974 2272 1975 
2238 2272 2239 1941 
1941 1974 2271 2272 
2238 2272 1941 2271 
2239 1941 2272 1942 
2272 1941 1975 1942 
1942 1975 2273 1976 
2239 2273 2240 1942 
1942 1975 2272 2273 
2239 2273 1942 2272 
2240 1942 2273 1943 
2273 1942 1976 1943 
1943 1976 2274 1977 
2240 2274 2241 1943 
1943 1976 2273 2274 
2240 2274 1943 2273 
2241 1943 2274 1944 
2274 1943 1977 1944 
1944 1977 2275 1978 
2241 2275 2242 1944 
1944 1977 2274 2275 
2241 2275 1944 2274 
2242 1944 2275 1945 
2275 1944 1978 1945 
1945 1978 2276 1979 
2242 2276 2243 1945 
1945 1978 2275 2276 
2242 2276 1945 2275 
2243 1945 2276 1946 
2276 1945 1979 1946 
1947 1980 2278 1981 
2244 2278 2245 1947 
1947 1980 2277 2278 
2244 2278 1947 2277 
2245 1947 2278 1948 
2278 1947 1981 1948 
1948 1981 2279 1982 
2245 2279 2246 1948 
1948 1981 2278 2279 
2245 2279 1948 2278 
2246 1948 2279 1949 
2279 1948 1982 1949 
1949 1982 2280 1983 
2246 2280 2247 1949 
1949 1982 2279 2280 
2246 2280 1949 2279 
2247 1949 2280 1950 
2280 1949 1983 1950 
1950 1983 2281 1984 
2247 2281 2248 1950 
1950 1983 2280 2281 
2247 2281 1950 2280 
2248 1950 2281 1951 
2281 1950 1984 1951 
1951 1984 2282 1985 
2248 2282 2249 1951 
1951 1984 2281 2282 
2248 2282 1951 2281 
2249 1951 2282 1952 
2282 1951 1985 1952 
1952 1985 2283 1986 
2249 2283 2250 1952 
1952 1985 2282 2283 
2249 2283 1952 2282 
2250 1952 2283 1953 
2283 1952 1986 1953 
1953 1986 2284 1987 
2250 2284 2251 1953 
1953 1986 2283 2284 
2250 2284 1953 2283 
2251 1953 2284 1954 
2284 1953 1987 1954 
1954 1987 2285 1988 
2251 2285 2252 1954 
1954 1987 2284 2285 
2251 2285 1954 2284 
2252 1954 2285 1955 
2285 1954 1988 1955 
1955 1988 2286 1989 
2252 2286 2253 1955 
1955 1988 2285 2286 
2252 2286 1955 2285 
2253 1955 2286 1956 
2286 1955 1989 1956 
1956 1989 2287 1990 
2253 2287 2254 1956 
1956 1989 2286 2287 
2253 2287 1956 2286 
2254 1956 2287 1957 
2287 1956 1990 1957 
1957 1990 2288 1991 
2254 2288 2255 1957 
1957 1990 2287 2288 
2254 2288 1957 2287 
2255 1957 2288 1958 
2288 1957 1991 1958 
1958 1991 2289 1992 
2255 2289 2256 1958 
1958 1991 2288 2289 
2255 2289 1958 2288 
2256 1958 2289 1959 
2289 1958 1992 1959 
1959 1992 2290 1993 
2256 2290 2257 1959 
1959 1992 2289 2290 
2256 2290 1959 2289 
2257 1959 2290 1960 
2290 1959 1993 1960 
1960 1993 2291 1994 
2257 2291 2258 1960 
1960 1993 2290 2291 
2257 2291 1960 2290 
2258 1960 2291 1961 
2291 1960 1994 1961 
1961 1994 2292 1995 
2258 2292 2259 1961 
1961 1994 2291 2292 
2258 2292 1961 2291 
2259 1961 2292 1962 
2292 1961 1995 1962 
1962 1995 2293 1996 
2259 2293 2260 1962 
1962 1995 2292 2293 
2259 2293 1962 2292 
2260 1962 2293 1963 
2293 1962 1996 1963 
1963 1996 2294 1997 
2260 2294 2261 1963 
1963 1996 2293 2294 
2260 2294 1963 2293 
2261 1963 2294 1964 
2294 1963 1997 1964 
1964 1997 2295 1998 
2261 2295 2262 1964 
1964 1997 2294 2295 
2261 2295 1964 2294 
2262 1964 2295 1965 
2295 1964 1998 1965 
1965 1998 2296 1999 
2262 2296 2263 1965 
1965 1998 2295 2296 
2262 2296 1965 2295 
2263 1965 2296 1966 
2296 1965 1999 1966 
1966 1999 2297 2000 
2263 2297 2264 1966 
1966 1999 2296 2297 
2263 2297 1966 2296 
2264 1966 2297 1967 
2297 1966 2000 1967 
1967 2000 2298 2001 
2264 2298 2265 1967 
1967 2000 2297 2298 
2264 2298 1967 2297 
2265 1967 2298 1968 
2298 1967 2001 1968 
1968 2001 2299 2002 
2265 2299 2266 1968 
1968 2001 2298 2299 
2265 2299 1968 2298 
2266 1968 2299 1969 
2299 1968 2002 1969 
1969 2002 2300 2003 
2266 2300 2267 1969 
1969 2002 2299 2300 
2266 2300 1969 2299 
2267 1969 2300 1970 
2300 1969 2003 1970 
1970 2003 2301 2004 
2267 2301 2268 1970 
1970 2003 2300 2301 
2267 2301 1970 2300 
2268 1970 2301 1971 
2301 1970 2004 1971 
1971 2004 2302 2005 
2268 2302 2269 1971 
1971 2004 2301 2302 
2268 2302 1971 2301 
2269 1971 2302 1972 
2302 1971 2005 1972 
1972 2005 2303 2006 
2269 2303 2270 1972 
1972 2005 2302 2303 
2269 2303 1972 2302 
2270 1972 2303 1973 
2303 1972 2006 1973 
1973 2006 2304 2007 
2270 2304 2271 1973 
1973 2006 2303 2304 
2270 2304 1973 2303 
2271 1973 2304 1974 
2304 1973 2007 1974 
1974 2007 2305 2008 
2271 2305 2272 1974 
1974 2007 2304 2305 
2271 2305 1974 2304 
2272 1974 2305 1975 
2305 1974 2008 1975 
1975 2008 2306 2009 
2272 2306 2273 1975 
1975 2008 2305 2306 
2272 2306 1975 2305 
2273 1975 2306 1976 
2306 1975 2009 1976 
1976 2009 2307 2010 
2273 2307 2274 1976 
1976 2009 2306 2307 
2273 2307 1976 2306 
2274 1976 2307 1977 
2307 1976 2010 1977 
1977 2010 2308 2011 
2274 2308 2275 1977 
1977 2010 2307 2308 
2274 2308 1977 2307 
2275 1977 2308 1978 
2308 1977 2011 1978 
1978 2011 2309 2012 
2275 2309 2276 1978 
1978 2011 2308 2309 
2275 2309 1978 2308 
2276 1978 2309 1979 
2309 1978 2012 1979 
1980 2013 2311 2014 
2277 2311 2278 1980 
1980 2013 2310 2311 
2277 2311 1980 2310 
2278 1980 2311 1981 
2311 1980 2014 1981 
1981 2014 2312 2015 
2278 2312 2279 1981 
1981 2014 2311 2312 
2278 2312 1981 2311 
2279 1981 2312 1982 
2312 1981 2015 1982 
1982 2015 2313 2016 
2279 2313 2280 1982 
1982 2015 2312 2313 
2279 2313 1982 2312 
2280 1982 2313 1983 
2313 1982 2016 1983 
1983 2016 2314 2017 
2280 2314 2281 1983 
1983 2016 2313 2314 
2280 2314 1983 2313 
2281 1983 2314 1984 
2314 1983 2017 1984 
1984 2017 2315 2018 
2281 2315 2282 1984 
1984 2017 2314 2315 
2281 2315 1984 2314 
2282 1984 2315 1985 
2315 1984 2018 1985 
1985 2018 2316 2019 
2282 2316 2283 1985 
1985 2018 2315 2316 
2282 2316 1985 2315 
2283 1985 2316 1986 
2316 1985 2019 1986 
1986 2019 2317 2020 
2283 2317 2284 1986 
1986 2019 2316 2317 
2283 2317 1986 2316 
2284 1986 2317 1987 
2317 1986 2020 1987 
1987 2020 2318 2021 
2284 2318 2285 1987 
1987 2020 2317 2318 
2284 2318 1987 2317 
2285 1987 2318 1988 
2318 1987 2021 1988 
1988 2021 2319 2022 
2285 2319 2286 1988 
1988 2021 2318 2319 
2285 2319 1988 2318 
2286 1988 2319 1989 
2319 1988 2022 1989 
1989 2022 2320 2023 
2286 2320 2287 1989 
1989 2022 2319 2320 
2286 2320 1989 2319 
2287 1989 2320 1990 
2320 1989 2023 1990 
1990 2023 2321 2024 
2287 2321 2288 1990 
1990 2023 2320 2321 
2287 2321 1990 2320 
2288 1990 2321 1991 
2321 1990 2024 1991 
1991 2024 2322 2025 
2288 2322 2289 1991 
1991 2024 2321 2322 
2288 2322 1991 2321 
2289 1991 2322 1992 
2322 1991 2025 1992 
1992 2025 2323 2026 
2289 2323 2290 1992 
1992 2025 2322 2323 
2289 2323 1992 2322 
2290 1992 2323 1993 
2323 1992 2026 1993 
1993 2026 2324 2027 
2290 2324 2291 1993 
1993 2026 2323 2324 
2290 2324 1993 2323 
2291 1993 2324 1994 
2324 1993 2027 1994 
1994 2027 2325 2028 
2291 2325 2292 1994 
1994 2027 2324 2325 
2291 2325 1994 2324 
2292 1994 2325 1995 
2325 1994 2028 1995 
1995 2028 2326 2029 
2292 2326 2293 1995 
1995 2028 2325 2326 
2292 2326 1995 2325 
2293 1995 2326 1996 
2326 1995 2029 1996 
1996 2029 2327 2030 
2293 2327 2294 1996 
1996 2029 2326 2327 
2293 2327 1996 2326 
2294 1996 2327 1997 
2327 1996 2030 1997 
1997 2030 2328 2031 
2294 2328 2295 1997 
1997 2030 2327 2328 
2294 2328 1997 2327 
2295 1997 2328 1998 
2328 1997 2031 1998 
1998 2031 2329 2032 
2295 2329 2296 1998 
1998 2031 2328 2329 
2295 2329 1998 2328 
2296 1998 2329 1999 
2329 1998 2032 1999 
1999 2032 2330 2033 
2296 2330 2297 1999 
1999 2032 2329 2330 
2296 2330 1999 2329 
2297 1999 2330 2000 
2330 1999 2033 2000 
2000 2033 2331 2034 
2297 2331 2298 2000 
2000 2033 2330 2331 
2297 2331 2000 2330 
2298 2000 2331 2001 
2331 2000 2034 2001 
2001 2034 2332 2035 
2298 2332 2299 2001 
2001 2034 2331 2332 
2298 2332 2001 2331 
2299 2001 2332 2002 
2332 2001 2035 2002 
2002 2035 2333 2036 
2299 2333 2300 2002 
2002 2035 2332 2333 
2299 2333 2002 2332 
2300 2002 2333 2003 
2333 2002 2036 2003 
2003 2036 2334 2037 
2300 2334 2301 2003 
2003 2036 2333 2334 
2300 2334 2003 2333 
2301 2003 2334 2004 
2334 2003 2037 2004 
2004 2037 2335 2038 
2301 2335 2302 2004 
2004 2037 2334 2335 
2301 2335 2004 2334 
2302 2004 2335 2005 
2335 2004 2038 2005 
2005 2038 2336 2039 
2302 2336 2303 2005 
2005 2038 2335 2336 
2302 2336 2005 2335 
2303 2005 2336 2006 
2336 2005 2039 2006 
2006 2039 2337 2040 
2303 2337 2304 2006 
2006 2039 2336 2337 
2303 2337 2006 2336 
2304 2006 2337 2007 
2337 2006 2040 2007 
2007 2040 2338 2041 
2304 2338 2305 2007 
2007 2040 2337 2338 
2304 2338 2007 2337 
2305 2007 2338 2008 
2338 2007 2041 2008 
2008 2041 2339 2042 
2305 2339 2306 2008 
2008 2041 2338 2339 
2305 2339 2008 2338 
2306 2008 2339 2009 
2339 2008 2042 2009 
2009 2042 2340 2043 
2306 2340 2307 2009 
2009 2042 2339 2340 
2306 2340 2009 2339 
2307 2009 2340 2010 
2340 2009 2043 2010 
2010 2043 2341 2044 
2307 2341 2308 2010 
2010 2043 2340 2341 
2307 2341 2010 2340 
2308 2010 2341 2011 
2341 2010 2044 2011 
2011 2044 2342 2045 
2308 2342 2309 2011 
2011 2044 2341 2342 
2308 2342 2011 2341 
2309 2011 2342 2012 
2342 2011 2045 2012 
2013 2046 2344 2047 
2310 2344 2311 2013 
2013 2046 2343 2344 
2310 2344 2013 2343 
2311 2013 2344 2014 
2344 2013 2047 2014 
2014 2047 2345 2048 
2311 2345 2312 2014 
2014 2047 2344 2345 
2311 2345 2014 2344 
2312 2014 2345 2015 
2345 2014 2048 2015 
2015 2048 2346 2049 
2312 2346 2313 2015 
2015 2048 2345 2346 
2312 2346 2015 2345 
2313 2015 2346 2016 
2346 2015 2049 2016 
2016 2049 2347 2050 
2313 2347 2314 2016 
2016 2049 2346 2347 
2313 2347 2016 2346 
2314 2016 2347 2017 
2347 2016 2050 2017 
2017 2050 2348 2051 
2314 2348 2315 2017 
2017 2050 2347 2348 
2314 2348 2017 2347 
2315 2017 2348 2018 
2348 2017 2051 2018 
2018 2051 2349 2052 
2315 2349 2316 2018 
2018 2051 2348 2349 
2315 2349 2018 2348 
2316 2018 2349 2019 
2349 2018 2052 2019 
2019 2052 2350 2053 
2316 2350 2317 2019 
2019 2052 2349 2350 
2316 2350 2019 2349 
2317 2019 2350 2020 
2350 2019 2053 2020 
2020 2053 2351 2054 
2317 2351 2318 2020 
2020 2053 2350 2351 
2317 2351 2020 2350 
2318 2020 2351 2021 
2351 2020 2054 2021 
2021 2054 2352 2055 
2318 2352 2319 2021 
2021 2054 2351 2352 
2318 2352 2021 2351 
2319 2021 2352 2022 
2352 2021 2055 2022 
2022 2055 2353 2056 
2319 2353 2320 2022 
2022 2055 2352 2353 
2319 2353 2022 2352 
2320 2022 2353 2023 
2353 2022 2056 2023 
2023 2056 2354 2057 
2320 2354 2321 2023 
2023 2056 2353 2354 
2320 2354 2023 2353 
2321 2023 2354 2024 
2354 2023 2057 2024 
2024 2057 2355 2058 
2321 2355 2322 2024 
2024 2057 2354 2355 
2321 2355 2024 2354 
2322 2024 2355 2025 
2355 2024 2058 2025 
2025 2058 2356 2059 
2322 2356 2323 2025 
2025 2058 2355 2356 
2322 2356 2025 2355 
2323 2025 2356 2026 
2356 2025 2059 2026 
2026 2059 2357 2060 
2323 2357 2324 2026 
2026 2059 2356 2357 
2323 2357 2026 2356 
2324 2026 2357 2027 
2357 2026 2060 2027 
2027 2060 2358 2061 
2324 2358 2325 2027 
2027 2060 2357 2358 
2324 2358 2027 2357 
2325 2027 2358 2028 
2358 2027 2061 2028 
2028 2061 2359 2062 
2325 2359 2326 2028 
2028 2061 2358 2359 
2325 2359 2028 2358 
2326 2028 2359 2029 
2359 2028 2062 2029 
2029 2062 2360 2063 
2326 2360 2327 2029 
2029 2062 2359 2360 
2326 2360 2029 2359 
2327 2029 2360 2030 
2360 2029 2063 2030 
2030 2063 2361 2064 
2327 2361 2328 2030 
2030 2063 2360 2361 
2327 2361 2030 2360 
2328 2030 2361 2031 
2361 2030 2064 2031 
2031 2064 2362 2065 
2328 2362 2329 2031 
2031 2064 2361 2362 
2328 2362 2031 2361 
2329 2031 2362 2032 
2362 2031 2065 2032 
2032 2065 2363 2066 
2329 2363 2330 2032 
2032 2065 2362 2363 
2329 2363 2032 2362 
2330 2032 2363 2033 
2363 2032 2066 2033 
2033 2066 2364 2067 
2330 2364 2331 2033 
2033 2066 2363 2364 
2330 2364 2033 2363 
2331 2033 2364 2034 
2364 2033 2067 2034 
2034 2067 2365 2068 
2331 2365 2332 2034 
2034 2067 2364 2365 
2331 2365 2034 2364 
2332 2034 2365 2035 
2365 2034 2068 2035 
2035 2068 2366 2069 
2332 2366 2333 2035 
2035 2068 2365 2366 
2332 2366 2035 2365 
2333 2035 2366 2036 
2366 2035 2069 2036 
2036 2069 2367 2070 
2333 2367 2334 2036 
2036 2069 2366 2367 
2333 2367 2036 2366 
2334 2036 2367 2037 
2367 2036 2070 2037 
2037 2070 2368 2071 
2334 2368 2335 2037 
2037 2070 2367 2368 
2334 2368 2037 2367 
2335 2037 2368 2038 
2368 2037 2071 2038 
2038 2071 2369 2072 
2335 2369 2336 2038 
2038 2071 2368 2369 
2335 2369 2038 2368 
2336 2038 2369 2039 
2369 2038 2072 2039 
2039 2072 2370 2073 
2336 2370 2337 2039 
2039 2072 2369 2370 
2336 2370 2039 2369 
2337 2039 2370 2040 
2370 2039 2073 2040 
2040 2073 2371 2074 
2337 2371 2338 2040 
2040 2073 2370 2371 
2337 2371 2040 2370 
2338 2040 2371 2041 
2371 2040 2074 2041 
2041 2074 2372 2075 
2338 2372 2339 2041 
2041 2074 2371 2372 
2338 2372 2041 2371 
2339 2041 2372 2042 
2372 2041 2075 2042 
2042 2075 2373 2076 
2339 2373 2340 2042 
2042 2075 2372 2373 
2339 2373 2042 2372 
2340 2042 2373 2043 
2373 2042 2076 2043 
2043 2076 2374 2077 
2340 2374 2341 2043 
2043 2076 2373 2374 
2340 2374 2043 2373 
2341 2043 2374 2044 
2374 2043 2077 2044 
2044 2077 2375 2078 
2341 2375 2342 2044 
2044 2077 2374 2375 
2341 2375 2044 2374 
2342 2044 2375 2045 
2375 2044 2078 2045 
2079 2112 2410 2113 
2376 2410 2377 2079 
2079 2112 2409 2410 
2376 2410 2079 2409 
2377 2079 2410 2080 
2410 2079 2113 2080 
2080 2113 2411 2114 
2377 2411 2378 2080 
2080 2113 2410 2411 
2377 2411 2080 2410 
2378 2080 2411 2081 
2411 2080 2114 2081 
2081 2114 2412 2115 
2378 2412 2379 2081 
2081 2114 2411 2412 
2378 2412 2081 2411 
2379 2081 2412 2082 
2412 2081 2115 2082 
2082 2115 2413 2116 
2379 2413 2380 2082 
2082 2115 2412 2413 
2379 2413 2082 2412 
2380 2082 2413 2083 
2413 2082 2116 2083 
2083 2116 2414 2117 
2380 2414 2381 2083 
2083 2116 2413 2414 
2380 2414 2083 2413 
2381 2083 2414 2084 
2414 2083 2117 2084 
2084 2117 2415 2118 
2381 2415 2382 2084 
2084 2117 2414 2415 
2381 2415 2084 2414 
2382 2084 2415 2085 
2415 2084 2118 2085 
2085 2118 2416 2119 
2382 2416 2383 2085 
2085 2118 2415 2416 
2382 2416 2085 2415 
2383 2085 2416 2086 
2416 2085 2119 2086 
2086 2119 2417 2120 
2383 2417 2384 2086 
2086 2119 2416 2417 
2383 2417 2086 2416 
2384 2086 2417 2087 
2417 2086 2120 2087 
2087 2120 2418 2121 
2384 2418 2385 2087 
2087 2120 2417 2418 
2384 2418 2087 2417 
2385 2087 2418 2088 
2418 2087 2121 2088 
2088 2121 2419 2122 
2385 2419 2386 2088 
2088 2121 2418 2419 
2385 2419 2088 2418 
2386 2088 2419 2089 
2419 2088 2122 2089 
2089 2122 2420 2123 
2386 2420 2387 2089 
2089 2122 2419 2420 
2386 2420 2089 2419 
2387 2089 2420 2090 
2420 2089 2123 2090 
2090 2123 2421 2124 
2387 2421 2388 2090 
2090 2123 2420 2421 
2387 2421 2090 2420 
2388 2090 2421 2091 
2421 2090 2124 2091 
2091 2124 2422 2125 
2388 2422 2389 2091 
2091 2124 2421 2422 
2388 2422 2091 2421 
2389 2091 2422 2092 
2422 2091 2125 2092 
2092 2125 2423 2126 
2389 2423 2390 2092 
2092 2125 2422 2423 
2389 2423 2092 2422 
2390 2092 2423 2093 
2423 2092 2126 2093 
2093 2126 2424 2127 
2390 2424 2391 2093 
2093 2126 2423 2424 
2390 2424 2093 2423 
2391 2093 2424 2094 
2424 2093 2127 2094 
2094 2127 2425 2128 
2391 2425 2392 2094 
2094 2127 2424 2425 
2391 2425 2094 2424 
2392 2094 2425 2095 
2425 2094 2128 2095 
2095 2128 2426 2129 
2392 2426 2393 2095 
2095 2128 2425 2426 
2392 2426 2095 2425 
2393 2095 2426 2096 
2426 2095 2129 2096 
2096 2129 2427 2130 
2393 2427 2394 2096 
2096 2129 2426 2427 
2393 2427 2096 2426 
2394 2096 2427 2097 
2427 2096 2130 2097 
2097 2130 2428 2131 
2394 2428 2395 2097 
2097 2130 2427 2428 
2394 2428 2097 2427 
2395 2097 2428 2098 
2428 2097 2131 2098 
2098 2131 2429 2132 
2395 2429 2396 2098 
2098 2131 2428 2429 
2395 2429 2098 2428 
2396 2098 2429 2099 
2429 2098 2132 2099 
2099 2132 2430 2133 
2396 2430 2397 2099 
2099 2132 2429 2430 
2396 2430 2099 2429 
2397 2099 2430 2100 
2430 2099 2133 2100 
2100 2133 2431 2134 
2397 2431 2398 2100 
2100 2133 2430 2431 
2397 2431 2100 2430 
2398 2100 2431 2101 
2431 2100 2134 2101 
2101 2134 2432 2135 
2398 2432 2399 2101 
2101 2134 2431 2432 
2398 2432 2101 2431 
2399 2101 2432 2102 
2432 2101 2135 2102 
2102 2135 2433 2136 
2399 2433 2400 2102 
2102 2135 2432 2433 
2399 2433 2102 2432 
2400 2102 2433 2103 
2433 2102 2136 2103 
2103 2136 2434 2137 
2400 2434 2401 2103 
2103 2136 2433 2434 
2400 2434 2103 2433 
2401 2103 2434 2104 
2434 2103 2137 2104 
2104 2137 2435 2138 
2401 2435 2402 2104 
2104 2137 2434 2435 
2401 2435 2104 2434 
2402 2104 2435 2105 
2435 2104 2138 2105 
2105 2138 2436 2139 
2402 2436 2403 2105 
2105 2138 2435 2436 
2402 2436 2105 2435 
2403 2105 2436 2106 
2436 2105 2139 2106 
2106 2139 2437 2140 
2403 2437 2404 2106 
2106 2139 2436 2437 
2403 2437 2106 2436 
2404 2106 2437 2107 
2437 2106 2140 2107 
2107 2140 2438 2141 
2404 2438 2405 2107 
2107 2140 2437 2438 
2404 2438 2107 2437 
2405 2107 2438 2108 
2438 2107 2141 2108 
2108 2141 2439 2142 
2405 2439 2406 2108 
2108 2141 2438 2439 
2405 2439 2108 2438 
2406 2108 2439 2109 
2439 2108 2142 2109 
2109 2142 2440 2143 
2406 2440 2407 2109 
2109 2142 2439 2440 
2406 2440 2109 2439 
2407 2109 2440 2110 
2440 2109 2143 2110 
2110 2143 2441 2144 
2407 2441 2408 2110 
2110 2143 2440 2441 
2407 2441 2110 2440 
2408 2110 2441 2111 
2441 2110 2144 2111 
2112 2145 2443 2146 
2409 2443 2410 2112 
2112 2145 2442 2443 
2409 2443 2112 2442 
2410 2112 2443 2113 
2443 2112 2146 2113 
2113 2146 2444 2147 
2410 2444 2411 2113 
2113 2146 2443 2444 
2410 2444 2113 2443 
2411 2113 2444 2114 
2444 2113 2147 2114 
2114 2147 2445 2148 
2411 2445 2412 2114 
2114 2147 2444 2445 
2411 2445 2114 2444 
2412 2114 2445 2115 
2445 2114 2148 2115 
2115 2148 2446 2149 
2412 2446 2413 2115 
2115 2148 2445 2446 
2412 2446 2115 2445 
2413 2115 2446 2116 
2446 2115 2149 2116 
2116 2149 2447 2150 
2413 2447 2414 2116 
2116 2149 2446 2447 
2413 2447 2116 2446 
2414 2116 2447 2117 
2447 2116 2150 2117 
2117 2150 2448 2151 
2414 2448 2415 2117 
2117 2150 2447 2448 
2414 2448 2117 2447 
2415 2117 2448 2118 
2448 2117 2151 2118 
2118 2151 2449 2152 
2415 2449 2416 2118 
2118 2151 2448 2449 
2415 2449 2118 2448 
2416 2118 2449 2119 
2449 2118 2152 2119 
2119 2152 2450 2153 
2416 2450 2417 2119 
2119 2152 2449 2450 
2416 2450 2119 2449 
2417 2119 2450 2120 
2450 2119 2153 2120 
2120 2153 2451 2154 
2417 2451 2418 2120 
2120 2153 2450 2451 
2417 2451 2120 2450 
2418 2120 2451 2121 
2451 2120 2154 2121 
2121 2154 2452 2155 
2418 2452 2419 2121 
2121 2154 2451 2452 
2418 2452 2121 2451 
2419 2121 2452 2122 
2452 2121 2155 2122 
2122 2155 2453 2156 
2419 2453 2420 2122 
2122 2155 2452 2453 
2419 2453 2122 2452 
2420 2122 2453 2123 
2453 2122 2156 2123 
2123 2156 2454 2157 
2420 2454 2421 2123 
2123 2156 2453 2454 
2420 2454 2123 2453 
2421 2123 2454 2124 
2454 2123 2157 2124 
2124 2157 2455 2158 
2421 2455 2422 2124 
2124 2157 2454 2455 
2421 2455 2124 2454 
2422 2124 2455 2125 
2455 2124 2158 2125 
2125 2158 2456 2159 
2422 2456 2423 2125 
2125 2158 2455 2456 
2422 2456 2125 2455 
2423 2125 2456 2126 
2456 2125 2159 2126 
2126 2159 2457 2160 
2423 2457 2424 2126 
2126 2159 2456 2457 
2423 2457 2126 2456 
2424 2126 2457 2127 
2457 2126 2160 2127 
2127 2160 2458 2161 
2424 2458 2425 2127 
2127 2160 2457 2458 
2424 2458 2127 2457 
2425 2127 2458 2128 
2458 2127 2161 2128 
2128 2161 2459 2162 
2425 2459 2426 2128 
2128 2161 2458 2459 
2425 2459 2128 2458 
2426 2128 2459 2129 
2459 2128 2162 2129 
2129 2162 2460 2163 
2426 2460 2427 2129 
2129 2162 2459 2460 
2426 2460 2129 2459 
2427 2129 2460 2130 
2460 2129 2163 2130 
2130 2163 2461 2164 
2427 2461 2428 2130 
2130 2163 2460 2461 
2427 2461 2130 2460 
2428 2130 2461 2131 
2461 2130 2164 2131 
2131 2164 2462 2165 
2428 2462 2429 2131 
2131 2164 2461 2462 
2428 2462 2131 2461 
2429 2131 2462 2132 
2462 2131 2165 2132 
2132 2165 2463 2166 
2429 2463 2430 2132 
2132 2165 2462 2463 
2429 2463 2132 2462 
2430 2132 2463 2133 
2463 2132 2166 2133 
2133 2166 2464 2167 
2430 2464 2431 2133 
2133 2166 2463 2464 
2430 2464 2133 2463 
2431 2133 2464 2134 
2464 2133 2167 2134 
2134 2167 2465 2168 
2431 2465 2432 2134 
2134 2167 2464 2465 
2431 2465 2134 2464 
2432 2134 2465 2135 
2465 2134 2168 2135 
2135 2168 2466 2169 
2432 2466 2433 2135 
2135 2168 2465 2466 
2432 2466 2135 2465 
2433 2135 2466 2136 
2466 2135 2169 2136 
2136 2169 2467 2170 
2433 2467 2434 2136 
2136 2169 2466 2467 
2433 2467 2136 2466 
2434 2136 2467 2137 
2467 2136 2170 2137 
2137 2170 2468 2171 
2434 2468 2435 2137 
2137 2170 2467 2468 
2434 2468 2137 2467 
2435 2137 2468 2138 
2468 2137 2171 2138 
2138 2171 2469 2172 
2435 2469 2436 2138 
2138 2171 2468 2469 
2435 2469 2138 2468 
2436 2138 2469 2139 
2469 2138 2172 2139 
2139 2172 2470 2173 
2436 2470 2437 2139 
2139 2172 2469 2470 
2436 2470 2139 2469 
2437 2139 2470 2140 
2470 2139 2173 2140 
2140 2173 2471 2174 
2437 2471 2438 2140 
2140 2173 2470 2471 
2437 2471 2140 2470 
2438 2140 2471 2141 
2471 2140 2174 2141 
2141 2174 2472 2175 
2438 2472 2439 2141 
2141 2174 2471 2472 
2438 2472 2141 2471 
2439 2141 2472 2142 
2472 2141 2175 2142 
2142 2175 2473 2176 
2439 2473 2440 2142 
2142 2175 2472 2473 
2439 2473 2142 2472 
2440 2142 2473 2143 
2473 2142 2176 2143 
2143 2176 2474 2177 
2440 2474 2441 2143 
2143 2176 2473 2474 
2440 2474 2143 2473 
2441 2143 2474 2144 
2474 2143 2177 2144 
2145 2178 2476 2179 
2442 2476 2443 2145 
2145 2178 2475 2476 
2442 2476 2145 2475 
2443 2145 2476 2146 
2476 2145 2179 2146 
2146 2179 2477 2180 
2443 2477 2444 2146 
2146 2179 2476 2477 
2443 2477 2146 2476 
2444 2146 2477 2147 
2477 2146 2180 2147 
2147 2180 2478 2181 
2444 2478 2445 2147 
2147 2180 2477 2478 
2444 2478 2147 2477 
2445 2147 2478 2148 
2478 2147 2181 2148 
2148 2181 2479 2182 
2445 2479 2446 2148 
2148 2181 2478 2479 
2445 2479 2148 2478 
2446 2148 2479 2149 
2479 2148 2182 2149 
2149 2182 2480 2183 
2446 2480 2447 2149 
2149 2182 2479 2480 
2446 2480 2149 2479 
2447 2149 2480 2150 
2480 2149 2183 2150 
2150 2183 2481 2184 
2447 2481 2448 2150 
2150 2183 2480 2481 
2447 2481 2150 2480 
2448 2150 2481 2151 
2481 2150 2184 2151 
2151 2184 2482 2185 
2448 2482 2449 2151 
2151 2184 2481 2482 
2448 2482 2151 2481 
2449 2151 2482 2152 
2482 2151 2185 2152 
2152 2185 2483 2186 
2449 2483 2450 2152 
2152 2185 2482 2483 
2449 2483 2152 2482 
2450 2152 2483 2153 
2483 2152 2186 2153 
2153 2186 2484 2187 
2450 2484 2451 2153 
2153 2186 2483 2484 
2450 2484 2153 2483 
2451 2153 2484 2154 
2484 2153 2187 2154 
2154 2187 2485 2188 
2451 2485 2452 2154 
2154 2187 2484 2485 
2451 2485 2154 2484 
2452 2154 2485 2155 
2485 2154 2188 2155 
2155 2188 2486 2189 
2452 2486 2453 2155 
2155 2188 2485 2486 
2452 2486 2155 2485 
2453 2155 2486 2156 
2486 2155 2189 2156 
2156 2189 2487 2190 
2453 2487 2454 2156 
2156 2189 2486 2487 
2453 2487 2156 2486 
2454 2156 2487 2157 
2487 2156 2190 2157 
2157 2190 2488 2191 
2454 2488 2455 2157 
2157 2190 2487 2488 
2454 2488 2157 2487 
2455 2157 2488 2158 
2488 2157 2191 2158 
2158 2191 2489 2192 
2455 2489 2456 2158 
2158 2191 2488 2489 
2455 2489 2158 2488 
2456 2158 2489 2159 
2489 2158 2192 2159 
2159 2192 2490 2193 
2456 2490 2457 2159 
2159 2192 2489 2490 
2456 2490 2159 2489 
2457 2159 2490 2160 
2490 2159 2193 2160 
2160 2193 2491 2194 
2457 2491 2458 2160 
2160 2193 2490 2491 
2457 2491 2160 2490 
2458 2160 2491 2161 
2491 2160 2194 2161 
2161 2194 2492 2195 
2458 2492 2459 2161 
2161 2194 2491 2492 
2458 2492 2161 2491 
2459 2161 2492 2162 
2492 2161 2195 2162 
2162 2195 2493 2196 
2459 2493 2460 2162 
2162 2195 2492 2493 
2459 2493 2162 2492 
2460 2162 2493 2163 
2493 2162 2196 2163 
2163 2196 2494 2197 
2460 2494 2461 2163 
2163 2196 2493 2494 
2460 2494 2163 2493 
2461 2163 2494 2164 
2494 2163 2197 2164 
2164 2197 2495 2198 
2461 2495 2462 2164 
2164 2197 2494 2495 
2461 2495 2164 2494 
2462 2164 2495 2165 
2495 2164 2198 2165 
2165 2198 2496 2199 
2462 2496 2463 2165 
2165 2198 2495 2496 
2462 2496 2165 2495 
2463 2165 2496 2166 
2496 2165 2199 2166 
2166 2199 2497 2200 
2463 2497 2464 2166 
2166 2199 2496 2497 
2463 2497 2166 2496 
2464 2166 2497 2167 
2497 2166 2200 2167 
2167 2200 2498 2201 
2464 2498 2465 2167 
2167 2200 2497 2498 
2464 2498 2167 2497 
2465 2167 2498 2168 
2498 2167 2201 2168 
2168 2201 2499 2202 
2465 2499 2466 2168 
2168 2201 2498 2499 
2465 2499 2168 2498 
2466 2168 2499 2169 
2499 2168 2202 2169 
2169 2202 2500 2203 
2466 2500 2467 2169 
2169 2202 2499 2500 
2466 2500 2169 2499 
2467 2169 2500 2170 
2500 2169 2203 2170 
2170 2203 2501 2204 
2467 2501 2468 2170 
2170 2203 2500 2501 
2467 2501 2170 2500 
2468 2170 2501 2171 
2501 2170 2204 2171 
2171 2204 2502 2205 
2468 2502 2469 2171 
2171 2204 2501 2502 
2468 2502 2171 2501 
2469 2171 2502 2172 
2502 2171 2205 2172 
2172 2205 2503 2206 
2469 2503 2470 2172 
2172 2205 2502 2503 
2469 2503 2172 2502 
2470 2172 2503 2173 
2503 2172 2206 2173 
2173 2206 2504 2207 
2470 2504 2471 2173 
2173 2206 2503 2504 
2470 2504 2173 2503 
2471 2173 2504 2174 
2504 2173 2207 2174 
2174 2207 2505 2208 
2471 2505 2472 2174 
2174 2207 2504 2505 
2471 2505 2174 2504 
2472 2174 2505 2175 
2505 2174 2208 2175 
2175 2208 2506 2209 
2472 2506 2473 2175 
2175 2208 2505 2506 
2472 2506 2175 2505 
2473 2175 2506 2176 
2506 2175 2209 2176 
2176 2209 2507 2210 
2473 2507 2474 2176 
2176 2209 2506 2507 
2473 2507 2176 2506 
2474 2176 2507 2177 
2507 2176 2210 2177 
2178 2211 2509 2212 
2475 2509 2476 2178 
2178 2211 2508 2509 
2475 2509 2178 2508 
2476 2178 2509 2179 
2509 2178 2212 2179 
2179 2212 2510 2213 
2476 2510 2477 2179 
2179 2212 2509 2510 
2476 2510 2179 2509 
2477 2179 2510 2180 
2510 2179 2213 2180 
2180 2213 2511 2214 
2477 2511 2478 2180 
2180 2213 2510 2511 
2477 2511 2180 2510 
2478 2180 2511 2181 
2511 2180 2214 2181 
2181 2214 2512 2215 
2478 2512 2479 2181 
2181 2214 2511 2512 
2478 2512 2181 2511 
2479 2181 2512 2182 
2512 2181 2215 2182 
2182 2215 2513 2216 
2479 2513 2480 2182 
2182 2215 2512 2513 
2479 2513 2182 2512 
2480 2182 2513 2183 
2513 2182 2216 2183 
2183 2216 2514 2217 
2480 2514 2481 2183 
2183 2216 2513 2514 
2480 2514 2183 2513 
2481 2183 2514 2184 
2514 2183 2217 2184 
2184 2217 2515 2218 
2481 2515 2482 2184 
2184 2217 2514 2515 
2481 2515 2184 2514 
2482 2184 2515 2185 
2515 2184 2218 2185 
2185 2218 2516 2219 
2482 2516 2483 2185 
2185 2218 2515 2516 
2482 2516 2185 2515 
2483 2185 2516 2186 
2516 2185 2219 2186 
2186 2219 2517 2220 
2483 2517 2484 2186 
2186 2219 2516 2517 
2483 2517 2186 2516 
2484 2186 2517 2187 
2517 2186 2220 2187 
2187 2220 2518 2221 
2484 2518 2485 2187 
2187 2220 2517 2518 
2484 2518 2187 2517 
2485 2187 2518 2188 
2518 2187 2221 2188 
2188 2221 2519 2222 
2485 2519 2486 2188 
2188 2221 2518 2519 
2485 2519 2188 2518 
2486 2188 2519 2189 
2519 2188 2222 2189 
2189 2222 2520 2223 
2486 2520 2487 2189 
2189 2222 2519 2520 
2486 2520 2189 2519 
2487 2189 2520 2190 
2520 2189 2223 2190 
2190 2223 2521 2224 
2487 2521 2488 2190 
2190 2223 2520 2521 
2487 2521 2190 2520 
2488 2190 2521 2191 
2521 2190 2224 2191 
2191 2224 2522 2225 
2488 2522 2489 2191 
2191 2224 2521 2522 
2488 2522 2191 2521 
2489 2191 2522 2192 
2522 2191 2225 2192 
2192 2225 2523 2226 
2489 2523 2490 2192 
2192 2225 2522 2523 
2489 2523 2192 2522 
2490 2192 2523 2193 
2523 2192 2226 2193 
2193 2226 2524 2227 
2490 2524 2491 2193 
2193 2226 2523 2524 
2490 2524 2193 2523 
2491 2193 2524 2194 
2524 2193 2227 2194 
2194 2227 2525 2228 
2491 2525 2492 2194 
2194 2227 2524 2525 
2491 2525 2194 2524 
2492 2194 2525 2195 
2525 2194 2228 2195 
2195 2228 2526 2229 
2492 2526 2493 2195 
2195 2228 2525 2526 
2492 2526 2195 2525 
2493 2195 2526 2196 
2526 2195 2229 2196 
2196 2229 2527 2230 
2493 2527 2494 2196 
2196 2229 2526 2527 
2493 2527 2196 2526 
2494 2196 2527 2197 
2527 2196 2230 2197 
2197 2230 2528 2231 
2494 2528 2495 2197 
2197 2230 2527 2528 
2494 2528 2197 2527 
2495 2197 2528 2198 
2528 2197 2231 2198 
2198 2231 2529 2232 
2495 2529 2496 2198 
2198 2231 2528 2529 
2495 2529 2198 2528 
2496 2198 2529 2199 
2529 2198 2232 2199 
2199 2232 2530 2233 
2496 2530 2497 2199 
2199 2232 2529 2530 
2496 2530 2199 2529 
2497 2199 2530 2200 
2530 2199 2233 2200 
2200 2233 2531 2234 
2497 2531 2498 2200 
2200 2233 2530 2531 
2497 2531 2200 2530 
2498 2200 2531 2201 
2531 2200 2234 2201 
2201 2234 2532 2235 
2498 2532 2499 2201 
2201 2234 2531 2532 
2498 2532 2201 2531 
2499 2201 2532 2202 
2532 2201 2235 2202 
2202 2235 2533 2236 
2499 2533 2500 2202 
2202 2235 2532 2533 
2499 2533 2202 2532 
2500 2202 2533 2203 
2533 2202 2236 2203 
2203 2236 2534 2237 
2500 2534 2501 2203 
2203 2236 2533 2534 
2500 2534 2203 2533 
2501 2203 2534 2204 
2534 2203 2237 2204 
2204 2237 2535 2238 
2501 2535 2502 2204 
2204 2237 2534 2535 
2501 2535 2204 2534 
2502 2204 2535 2205 
2535 2204 2238 2205 
2205 2238 2536 2239 
2502 2536 2503 2205 
2205 2238 2535 2536 
2502 2536 2205 2535 
2503 2205 2536 2206 
2536 2205 2239 2206 
2206 2239 2537 2240 
2503 2537 2504 2206 
2206 2239 2536 2537 
2503 2537 2206 2536 
2504 2206 2537 2207 
2537 2206 2240 2207 
2207 2240 2538 2241 
2504 2538 2505 2207 
2207 2240 2537 2538 
2504 2538 2207 2537 
2505 2207 2538 2208 
2538 2207 2241 2208 
2208 2241 2539 2242 
2505 2539 2506 2208 
2208 2241 2538 2539 
2505 2539 2208 2538 
2506 2208 2539 2209 
2539 2208 2242 2209 
2209 2242 2540 2243 
2506 2540 2507 2209 
2209 2242 2539 2540 
2506 2540 2209 2539 
2507 2209 2540 2210 
2540 2209 2243 2210 
2211 2244 2542 2245 
2508 2542 2509 2211 
2211 2244 2541 2542 
2508 2542 2211 2541 
2509 2211 2542 2212 
2542 2211 2245 2212 
2212 2245 2543 2246 
2509 2543 2510 2212 
2212 2245 2542 2543 
2509 2543 2212 2542 
2510 2212 2543 2213 
2543 2212 2246 2213 
2213 2246 2544 2247 
2510 2544 2511 2213 
2213 2246 2543 2544 
2510 2544 2213 2543 
2511 2213 2544 2214 
2544 2213 2247 2214 
2214 2247 2545 2248 
2511 2545 2512 2214 
2214 2247 2544 2545 
2511 2545 2214 2544 
2512 2214 2545 2215 
2545 2214 2248 2215 
2215 2248 2546 2249 
2512 2546 2513 2215 
2215 2248 2545 2546 
2512 2546 2215 2545 
2513 2215 2546 2216 
2546 2215 2249 2216 
2216 2249 2547 2250 
2513 2547 2514 2216 
2216 2249 2546 2547 
2513 2547 2216 2546 
2514 2216 2547 2217 
2547 2216 2250 2217 
2217 2250 2548 2251 
2514 2548 2515 2217 
2217 2250 2547 2548 
2514 2548 2217 2547 
2515 2217 2548 2218 
2548 2217 2251 2218 
2218 2251 2549 2252 
2515 2549 2516 2218 
2218 2251 2548 2549 
2515 2549 2218 2548 
2516 2218 2549 2219 
2549 2218 2252 2219 
2219 2252 2550 2253 
2516 2550 2517 2219 
2219 2252 2549 2550 
2516 2550 2219 2549 
2517 2219 2550 2220 
2550 2219 2253 2220 
2220 2253 2551 2254 
2517 2551 2518 2220 
2220 2253 2550 2551 
2517 2551 2220 2550 
2518 2220 2551 2221 
2551 2220 2254 2221 
2221 2254 2552 2255 
2518 2552 2519 2221 
2221 2254 2551 2552 
2518 2552 2221 2551 
2519 2221 2552 2222 
2552 2221 2255 2222 
2222 2255 2553 2256 
2519 2553 2520 2222 
2222 2255 2552 2553 
2519 2553 2222 2552 
2520 2222 2553 2223 
2553 2222 2256 2223 
2223 2256 2554 2257 
2520 2554 2521 2223 
2223 2256 2553 2554 
2520 2554 2223 2553 
2521 2223 2554 2224 
2554 2223 2257 2224 
2224 2257 2555 2258 
2521 2555 2522 2224 
2224 2257 2554 2555 
2521 2555 2224 2554 
2522 2224 2555 2225 
2555 2224 2258 2225 
2225 2258 2556 2259 
2522 2556 2523 2225 
2225 2258 2555 2556 
2522 2556 2225 2555 
2523 2225 2556 2226 
2556 2225 2259 2226 
2226 2259 2557 2260 
2523 2557 2524 2226 
2226 2259 2556 2557 
2523 2557 2226 2556 
2524 2226 2557 2227 
2557 2226 2260 2227 
2227 2260 2558 2261 
2524 2558 2525 2227 
2227 2260 2557 2558 
2524 2558 2227 2557 
2525 2227 2558 2228 
2558 2227 2261 2228 
2228 2261 2559 2262 
2525 2559 2526 2228 
2228 2261 2558 2559 
2525 2559 2228 2558 
2526 2228 2559 2229 
2559 2228 2262 2229 
2229 2262 2560 2263 
2526 2560 2527 2229 
2229 2262 2559 2560 
2526 2560 2229 2559 
2527 2229 2560 2230 
2560 2229 2263 2230 
2230 2263 2561 2264 
2527 2561 2528 2230 
2230 2263 2560 2561 
2527 2561 2230 2560 
2528 2230 2561 2231 
2561 2230 2264 2231 
2231 2264 2562 2265 
2528 2562 2529 2231 
2231 2264 2561 2562 
2528 2562 2231 2561 
2529 2231 2562 2232 
2562 2231 2265 2232 
2232 2265 2563 2266 
2529 2563 2530 2232 
2232 2265 2562 2563 
2529 2563 2232 2562 
2530 2232 2563 2233 
2563 2232 2266 2233 
2233 2266 2564 2267 
2530 2564 2531 2233 
2233 2266 2563 2564 
2530 2564 2233 2563 
2531 2233 2564 2234 
2564 2233 2267 2234 
2234 2267 2565 2268 
2531 2565 2532 2234 
2234 2267 2564 2565 
2531 2565 2234 2564 
2532 2234 2565 2235 
2565 2234 2268 2235 
2235 2268 2566 2269 
2532 2566 2533 2235 
2235 2268 2565 2566 
2532 2566 2235 2565 
2533 2235 2566 2236 
2566 2235 2269 2236 
2236 2269 2567 2270 
2533 2567 2534 2236 
2236 2269 2566 2567 
2533 2567 2236 2566 
2534 2236 2567 2237 
2567 2236 2270 2237 
2237 2270 2568 2271 
2534 2568 2535 2237 
2237 2270 2567 2568 
2534 2568 2237 2567 
2535 2237 2568 2238 
2568 2237 2271 2238 
2238 2271 2569 2272 
2535 2569 2536 2238 
2238 2271 2568 2569 
2535 2569 2238 2568 
2536 2238 2569 2239 
2569 2238 2272 2239 
2239 2272 2570 2273 
2536 2570 2537 2239 
2239 2272 2569 2570 
2536 2570 2239 2569 
2537 2239 2570 2240 
2570 2239 2273 2240 
2240 2273 2571 2274 
2537 2571 2538 2240 
2240 2273 2570 2571 
2537 2571 2240 2570 
2538 2240 2571 2241 
2571 2240 2274 2241 
2241 2274 2572 2275 
2538 2572 2539 2241 
2241 2274 2571 2572 
2538 2572 2241 2571 
2539 2241 2572 2242 
2572 2241 2275 2242 
2242 2275 2573 2276 
2539 2573 2540 2242 
2242 2275 2572 2573 
2539 2573 2242 2572 
2540 2242 2573 2243 
2573 2242 2276 2243 
2244 2277 2575 2278 
2541 2575 2542 2244 
2244 2277 2574 2575 
2541 2575 2244 2574 
2542 2244 2575 2245 
2575 2244 2278 2245 
2245 2278 2576 2279 
2542 2576 2543 2245 
2245 2278 2575 2576 
2542 2576 2245 2575 
2543 2245 2576 2246 
2576 2245 2279 2246 
2246 2279 2577 2280 
2543 2577 2544 2246 
2246 2279 2576 2577 
2543 2577 2246 2576 
2544 2246 2577 2247 
2577 2246 2280 2247 
2247 2280 2578 2281 
2544 2578 2545 2247 
2247 2280 2577 2578 
2544 2578 2247 2577 
2545 2247 2578 2248 
2578 2247 2281 2248 
2248 2281 2579 2282 
2545 2579 2546 2248 
2248 2281 2578 2579 
2545 2579 2248 2578 
2546 2248 2579 2249 
2579 2248 2282 2249 
2249 2282 2580 2283 
2546 2580 2547 2249 
2249 2282 2579 2580 
2546 2580 2249 2579 
2547 2249 2580 2250 
2580 2249 2283 2250 
2250 2283 2581 2284 
2547 2581 2548 2250 
2250 2283 2580 2581 
2547 2581 2250 2580 
2548 2250 2581 2251 
2581 2250 2284 2251 
2251 2284 2582 2285 
2548 2582 2549 2251 
2251 2284 2581 2582 
2548 2582 2251 2581 
2549 2251 2582 2252 
2582 2251 2285 2252 
2252 2285 2583 2286 
2549 2583 2550 2252 
2252 2285 2582 2583 
2549 2583 2252 2582 
2550 2252 2583 2253 
2583 2252 2286 2253 
2253 2286 2584 2287 
2550 2584 2551 2253 
2253 2286 2583 2584 
2550 2584 2253 2583 
2551 2253 2584 2254 
2584 2253 2287 2254 
2254 2287 2585 2288 
2551 2585 2552 2254 
2254 2287 2584 2585 
2551 2585 2254 2584 
2552 2254 2585 2255 
2585 2254 2288 2255 
2255 2288 2586 2289 
2552 2586 2553 2255 
2255 2288 2585 2586 
2552 2586 2255 2585 
2553 2255 2586 2256 
2586 2255 2289 2256 
2256 2289 2587 2290 
2553 2587 2554 2256 
2256 2289 2586 2587 
2553 2587 2256 2586 
2554 2256 2587 2257 
2587 2256 2290 2257 
2257 2290 2588 2291 
2554 2588 2555 2257 
2257 2290 2587 2588 
2554 2588 2257 2587 
2555 2257 2588 2258 
2588 2257 2291 2258 
2258 2291 2589 2292 
2555 2589 2556 2258 
2258 2291 2588 2589 
2555 2589 2258 2588 
2556 2258 2589 2259 
2589 2258 2292 2259 
2259 2292 2590 2293 
2556 2590 2557 2259 
2259 2292 2589 2590 
2556 2590 2259 2589 
2557 2259 2590 2260 
2590 2259 2293 2260 
2260 2293 2591 2294 
2557 2591 2558 2260 
2260 2293 2590 2591 
2557 2591 2260 2590 
2558 2260 2591 2261 
2591 2260 2294 2261 
2261 2294 2592 2295 
2558 2592 2559 2261 
2261 2294 2591 2592 
2558 2592 2261 2591 
2559 2261 2592 2262 
2592 2261 2295 2262 
2262 2295 2593 2296 
2559 2593 2560 2262 
2262 2295 2592 2593 
2559 2593 2262 2592 
2560 2262 2593 2263 
2593 2262 2296 2263 
2263 2296 2594 2297 
2560 2594 2561 2263 
2263 2296 2593 2594 
2560 2594 2263 2593 
2561 2263 2594 2264 
2594 2263 2297 2264 
2264 2297 2595 2298 
2561 2595 2562 2264 
2264 2297 2594 2595 
2561 2595 2264 2594 
2562 2264 2595 2265 
2595 2264 2298 2265 
2265 2298 2596 2299 
2562 2596 2563 2265 
2265 2298 2595 2596 
2562 2596 2265 2595 
2563 2265 2596 2266 
2596 2265 2299 2266 
2266 2299 2597 2300 
2563 2597 2564 2266 
2266 2299 2596 2597 
2563 2597 2266 2596 
2564 2266 2597 2267 
2597 2266 2300 2267 
2267 2300 2598 2301 
2564 2598 2565 2267 
2267 2300 2597 2598 
2564 2598 2267 2597 
2565 2267 2598 2268 
2598 2267 2301 2268 
2268 2301 2599 2302 
2565 2599 2566 2268 
2268 2301 2598 2599 
2565 2599 2268 2598 
2566 2268 2599 2269 
2599 2268 2302 2269 
2269 2302 2600 2303 
2566 2600 2567 2269 
2269 2302 2599 2600 
2566 2600 2269 2599 
2567 2269 2600 2270 
2600 2269 2303 2270 
2270 2303 2601 2304 
2567 2601 2568 2270 
2270 2303 2600 2601 
2567 2601 2270 2600 
2568 2270 2601 2271 
2601 2270 2304 2271 
2271 2304 2602 2305 
2568 2602 2569 2271 
2271 2304 2601 2602 
2568 2602 2271 2601 
2569 2271 2602 2272 
2602 2271 2305 2272 
2272 2305 2603 2306 
2569 2603 2570 2272 
2272 2305 2602 2603 
2569 2603 2272 2602 
2570 2272 2603 2273 
2603 2272 2306 2273 
2273 2306 2604 2307 
2570 2604 2571 2273 
2273 2306 2603 2604 
2570 2604 2273 2603 
2571 2273 2604 2274 
2604 2273 2307 2274 
2274 2307 2605 2308 
2571 2605 2572 2274 
2274 2307 2604 2605 
2571 2605 2274 2604 
2572 2274 2605 2275 
2605 2274 2308 2275 
2275 2308 2606 2309 
2572 2606 2573 2275 
2275 2308 2605 2606 
2572 2606 2275 2605 
2573 2275 2606 2276 
2606 2275 2309 2276 
2277 2310 2608 2311 
2574 2608 2575 2277 
2277 2310 2607 2608 
2574 2608 2277 2607 
2575 2277 2608 2278 
2608 2277 2311 2278 
2278 2311 2609 2312 
2575 2609 2576 2278 
2278 2311 2608 2609 
2575 2609 2278 2608 
2576 2278 2609 2279 
2609 2278 2312 2279 
2279 2312 2610 2313 
2576 2610 2577 2279 
2279 2312 2609 2610 
2576 2610 2279 2609 
2577 2279 2610 2280 
2610 2279 2313 2280 
2280 2313 2611 2314 
2577 2611 2578 2280 
2280 2313 2610 2611 
2577 2611 2280 2610 
2578 2280 2611 2281 
2611 2280 2314 2281 
2281 2314 2612 2315 
2578 2612 2579 2281 
2281 2314 2611 2612 
2578 2612 2281 2611 
2579 2281 2612 2282 
2612 2281 2315 2282 
2282 2315 2613 2316 
2579 2613 2580 2282 
2282 2315 2612 2613 
2579 2613 2282 2612 
2580 2282 2613 2283 
2613 2282 2316 2283 
2283 2316 2614 2317 
2580 2614 2581 2283 
2283 2316 2613 2614 
2580 2614 2283 2613 
2581 2283 2614 2284 
2614 2283 2317 2284 
2284 2317 2615 2318 
2581 2615 2582 2284 
2284 2317 2614 2615 
2581 2615 2284 2614 
2582 2284 2615 2285 
2615 2284 2318 2285 
2285 2318 2616 2319 
2582 2616 2583 2285 
2285 2318 2615 2616 
2582 2616 2285 2615 
2583 2285 2616 2286 
2616 2285 2319 2286 
2286 2319 2617 2320 
2583 2617 2584 2286 
2286 2319 2616 2617 
2583 2617 2286 2616 
2584 2286 2617 2287 
2617 2286 2320 2287 
2287 2320 2618 2321 
2584 2618 2585 2287 
2287 2320 2617 2618 
2584 2618 2287 2617 
2585 2287 2618 2288 
2618 2287 2321 2288 
2288 2321 2619 2322 
2585 2619 2586 2288 
2288 2321 2618 2619 
2585 2619 2288 2618 
2586 2288 2619 2289 
2619 2288 2322 2289 
2289 2322 2620 2323 
2586 2620 2587 2289 
2289 2322 2619 2620 
2586 2620 2289 2619 
2587 2289 2620 2290 
2620 2289 2323 2290 
2290 2323 2621 2324 
2587 2621 2588 2290 
2290 2323 2620 2621 
2587 2621 2290 2620 
2588 2290 2621 2291 
2621 2290 2324 2291 
2291 2324 2622 2325 
2588 2622 2589 2291 
2291 2324 2621 2622 
2588 2622 2291 2621 
2589 2291 2622 2292 
2622 2291 2325 2292 
2292 2325 2623 2326 
2589 2623 2590 2292 
2292 2325 2622 2623 
2589 2623 2292 2622 
2590 2292 2623 2293 
2623 2292 2326 2293 
2293 2326 2624 2327 
2590 2624 2591 2293 
2293 2326 2623 2624 
2590 2624 2293 2623 
2591 2293 2624 2294 
2624 2293 2327 2294 
2294 2327 2625 2328 
2591 2625 2592 2294 
2294 2327 2624 2625 
2591 2625 2294 2624 
2592 2294 2625 2295 
2625 2294 2328 2295 
2295 2328 2626 2329 
2592 2626 2593 2295 
2295 2328 2625 2626 
2592 2626 2295 2625 
2593 2295 2626 2296 
2626 2295 2329 2296 
2296 2329 2627 2330 
2593 2627 2594 2296 
2296 2329 2626 2627 
2593 2627 2296 2626 
2594 2296 2627 2297 
2627 2296 2330 2297 
2297 2330 2628 2331 
2594 2628 2595 2297 
2297 2330 2627 2628 
2594 2628 2297 2627 
2595 2297 2628 2298 
2628 2297 2331 2298 
2298 2331 2629 2332 
2595 2629 2596 2298 
2298 2331 2628 2629 
2595 2629 2298 2628 
2596 2298 2629 2299 
2629 2298 2332 2299 
2299 2332 2630 2333 
2596 2630 2597 2299 
2299 2332 2629 2630 
2596 2630 2299 2629 
2597 2299 2630 2300 
2630 2299 2333 2300 
2300 2333 2631 2334 
2597 2631 2598 2300 
2300 2333 2630 2631 
2597 2631 2300 2630 
2598 2300 2631 2301 
2631 2300 2334 2301 
2301 2334 2632 2335 
2598 2632 2599 2301 
2301 2334 2631 2632 
2598 2632 2301 2631 
2599 2301 2632 2302 
2632 2301 2335 2302 
2302 2335 2633 2336 
2599 2633 2600 2302 
2302 2335 2632 2633 
2599 2633 2302 2632 
2600 2302 2633 2303 
2633 2302 2336 2303 
2303 2336 2634 2337 
2600 2634 2601 2303 
2303 2336 2633 2634 
2600 2634 2303 2633 
2601 2303 2634 2304 
2634 2303 2337 2304 
2304 2337 2635 2338 
2601 2635 2602 2304 
2304 2337 2634 2635 
2601 2635 2304 2634 
2602 2304 2635 2305 
2635 2304 2338 2305 
2305 2338 2636 2339 
2602 2636 2603 2305 
2305 2338 2635 2636 
2602 2636 2305 2635 
2603 2305 2636 2306 
2636 2305 2339 2306 
2306 2339 2637 2340 
2603 2637 2604 2306 
2306 2339 2636 2637 
2603 2637 2306 2636 
2604 2306 2637 2307 
2637 2306 2340 2307 
2307 2340 2638 2341 
2604 2638 2605 2307 
2307 2340 2637 2638 
2604 2638 2307 2637 
2605 2307 2638 2308 
2638 2307 2341 2308 
2308 2341 2639 2342 
2605 2639 2606 2308 
2308 2341 2638 2639 
2605 2639 2308 2638 
2606 2308 2639 2309 
2639 2308 2342 2309 
2310 2343 2641 2344 
2607 2641 2608 2310 
2310 2343 2640 2641 
2607 2641 2310 2640 
2608 2310 2641 2311 
2641 2310 2344 2311 
2311 2344 2642 2345 
2608 2642 2609 2311 
2311 2344 2641 2642 
2608 2642 2311 2641 
2609 2311 2642 2312 
2642 2311 2345 2312 
2312 2345 2643 2346 
2609 2643 2610 2312 
2312 2345 2642 2643 
2609 2643 2312 2642 
2610 2312 2643 2313 
2643 2312 2346 2313 
2313 2346 2644 2347 
2610 2644 2611 2313 
2313 2346 2643 2644 
2610 2644 2313 2643 
2611 2313 2644 2314 
2644 2313 2347 2314 
2314 2347 2645 2348 
2611 2645 2612 2314 
2314 2347 2644 2645 
2611 2645 2314 2644 
2612 2314 2645 2315 
2645 2314 2348 2315 
2315 2348 2646 2349 
2612 2646 2613 2315 
2315 2348 2645 2646 
2612 2646 2315 2645 
2613 2315 2646 2316 
2646 2315 2349 2316 
2316 2349 2647 2350 
2613 2647 2614 2316 
2316 2349 2646 2647 
2613 2647 2316 2646 
2614 2316 2647 2317 
2647 2316 2350 2317 
2317 2350 2648 2351 
2614 2648 2615 2317 
2317 2350 2647 2648 
2614 2648 2317 2647 
2615 2317 2648 2318 
2648 2317 2351 2318 
2318 2351 2649 2352 
2615 2649 2616 2318 
2318 2351 2648 2649 
2615 2649 2318 2648 
2616 2318 2649 2319 
2649 2318 2352 2319 
2319 2352 2650 2353 
2616 2650 2617 2319 
2319 2352 2649 2650 
2616 2650 2319 2649 
2617 2319 2650 2320 
2650 2319 2353 2320 
2320 2353 2651 2354 
2617 2651 2618 2320 
2320 2353 2650 2651 
2617 2651 2320 2650 
2618 2320 2651 2321 
2651 2320 2354 2321 
2321 2354 2652 2355 
2618 2652 2619 2321 
2321 2354 2651 2652 
2618 2652 2321 2651 
2619 2321 2652 2322 
2652 2321 2355 2322 
2322 2355 2653 2356 
2619 2653 2620 2322 
2322 2355 2652 2653 
2619 2653 2322 2652 
2620 2322 2653 2323 
2653 2322 2356 2323 
2323 2356 2654 2357 
2620 2654 2621 2323 
2323 2356 2653 2654 
2620 2654 2323 2653 
2621 2323 2654 2324 
2654 2323 2357 2324 
2324 2357 2655 2358 
2621 2655 2622 2324 
2324 2357 2654 2655 
2621 2655 2324 2654 
2622 2324 2655 2325 
2655 2324 2358 2325 
2325 2358 2656 2359 
2622 2656 2623 2325 
2325 2358 2655 2656 
2622 2656 2325 2655 
2623 2325 2656 2326 
2656 2325 2359 2326 
2326 2359 2657 2360 
2623 2657 2624 2326 
2326 2359 2656 2657 
2623 2657 2326 2656 
2624 2326 2657 2327 
2657 2326 2360 2327 
2327 2360 2658 2361 
2624 2658 2625 2327 
2327 2360 2657 2658 
2624 2658 2327 2657 
2625 2327 2658 2328 
2658 2327 2361 2328 
2328 2361 2659 2362 
2625 2659 2626 2328 
2328 2361 2658 2659 
2625 2659 2328 2658 
2626 2328 2659 2329 
2659 2328 2362 2329 
2329 2362 2660 2363 
2626 2660 2627 2329 
2329 2362 2659 2660 
2626 2660 2329 2659 
2627 2329 2660 2330 
2660 2329 2363 2330 
2330 2363 2661 2364 
2627 2661 2628 2330 
2330 2363 2660 2661 
2627 2661 2330 2660 
2628 2330 2661 2331 
2661 2330 2364 2331 
2331 2364 2662 2365 
2628 2662 2629 2331 
2331 2364 2661 2662 
2628 2662 2331 2661 
2629 2331 2662 2332 
2662 2331 2365 2332 
2332 2365 2663 2366 
2629 2663 2630 2332 
2332 2365 2662 2663 
2629 2663 2332 2662 
2630 2332 2663 2333 
2663 2332 2366 2333 
2333 2366 2664 2367 
2630 2664 2631 2333 
2333 2366 2663 2664 
2630 2664 2333 2663 
2631 2333 2664 2334 
2664 2333 2367 2334 
2334 2367 2665 2368 
2631 2665 2632 2334 
2334 2367 2664 2665 
2631 2665 2334 2664 
2632 2334 2665 2335 
2665 2334 2368 2335 
2335 2368 2666 2369 
2632 2666 2633 2335 
2335 2368 2665 2666 
2632 2666 2335 2665 
2633 2335 2666 2336 
2666 2335 2369 2336 
2336 2369 2667 2370 
2633 2667 2634 2336 
2336 2369 2666 2667 
2633 2667 2336 2666 
2634 2336 2667 2337 
2667 2336 2370 2337 
2337 2370 2668 2371 
2634 2668 2635 2337 
2337 2370 2667 2668 
2634 2668 2337 2667 
2635 2337 2668 2338 
2668 2337 2371 2338 
2338 2371 2669 2372 
2635 2669 2636 2338 
2338 2371 2668 2669 
2635 2669 2338 2668 
2636 2338 2669 2339 
2669 2338 2372 2339 
2339 2372 2670 2373 
2636 2670 2637 2339 
2339 2372 2669 2670 
2636 2670 2339 2669 
2637 2339 2670 2340 
2670 2339 2373 2340 
2340 2373 2671 2374 
2637 2671 2638 2340 
2340 2373 2670 2671 
2637 2671 2340 2670 
2638 2340 2671 2341 
2671 2340 2374 2341 
2341 2374 2672 2375 
2638 2672 2639 2341 
2341 2374 2671 2672 
2638 2672 2341 2671 
2639 2341 2672 2342 
2672 2341 2375 2342 
CELL_TYPES 12288
10 10 10 10 10 10 10 10 10 10 10 10 10 10 10 10 10 10 10 10 10 10 10 10 10 10 10 10 10 10 10 10 10 10 10 10 10 10 10 10 10 10 10 10 10 10 10 10 10 10 10 10 10 10 10 10 10 10 10 10 10 10 10 10 10 10 10 10 10 10 10 10 10 10 10 10 10 10 10 10 10 10 10 10 10 10 10 10 10 10 10 10 10 10 10 10 10 10 10 10 10 10 10 10 10 10 10 10 10 10 10 10 10 10 10 10 10 10 10 10 10 10 10 10 10 10 10 10 10 10 10 10 10 10 10 10 10 10 10 10 10 10 10 10 10 10 10 10 10 10 10 10 10 10 10 10 10 10 10 10 10 10 10 10 10 10 10 10 10 10 10 10 10 10 10 10 10 10 10 10 10 10 10 10 10 10 10 10 10 10 10 10 10 10 10 10 10 10 10 10 10 10 10 10 10 10 10 10 10 10 10 10 10 10 10 10 10 10 10 10 10 10 10 10 10 10 10 10 10 10 10 10 10 10 10 10 10 10 10 10 10 10 10 10 10 10 10 10 10 10 10 10 10 10 10 10 10 10 10 10 10 10 10 10 10 10 10 10 10 10 10 10 10 10 10 10 10 10 10 10 10 10 10 10 10 10 10 10 10 10 10 10 10 10 10 10 10 10 10 10 10 10 10 10 10 10 10 10 10 10 10 10 10 10 10 10 10 10 10 10 10 10 10 10 10 10 10 10 10 10 10 10 10 10 10 10 10 10 10 10 10 10 10 10 10 10 10 10 10 10 10 10 10 10 10 10 10 10 10 10 10 10 10 10 10 10 10 10 10 10 10 10 10 10 10 10 10 10 10 10 10 10 10 10 10 10 10 10 10 10 10 10 10 10 10 10 10 10 10 10 10 10 10 10 10 10 10 10 10 10 10 10 10 10 10 10 10 10 10 10 10 10 10 10 10 10 10 10 10 10 10 10 10 10 10 10 10 10 10 10 10 10 10 10 10 10 10 10 10 10 10 10 10 10 10 10 10 10 10 10 10 10 10 10 10 10 10 10 10 10 10 10 10 10 10 10 10 10 10 10 10 10 10 10 10 10 10 10 10 10 10 10 10 10 10 10 10 10 10 10 10 10 10 10 10 10 10 10 10 10 10 10 10 10 10 10 10 10 10 10 10 10 10 10 10 10 10 10 10 10 10 10 10 10 10 10 10 10 10 10 10 10 10 10 10 10 10 10 10 10 10 10 10 10 10 10 10 10 10 10 10 10 10 10 10 10 10 10 10 10 10 10 10 10 10 10 10 10 10 10 10 10 10 10 10 10 10 10 10 10 10 10 10 10 10 10 10 10 10 10 10 10 10 10 10 10 10 10 10 10 10 10 10 10 10 10 10 10 10 10 10 10 10 10 10 10 10 10 10 10 10 10 10 10 10 10 10 10 10 10 10 10 10 10 10 10 10 10 10 10 10 10 10 10 10 10 10 10 10 10 10 10 10 10 10 10 10 10 10 10 10 10 10 10 10 10 10 10 10 10 10 10 10 10 10 10 10 10 10 10 10 10 10 10 10 10 10 10 10 10 10 10 10 10 10 10 10 10 10 10 10 10 10 10 10 10 10 10 10 10 10 10 10 10 10 10 10 10 10 10 10 10 10 10 10 10 10 10 10 10 10 10 10 10 10 10 10 10 10 10 10 10 10 10 10 10 10 10 10 10 10 10 10 10 10 10 10 10 10 10 10 10 10 10 10 10 10 10 10 10 10 10 10 10 10 10 10 10 10 10 10 10 10 10 10 10 10 10 10 10 10 10 10 10 10 10 10 10 10 10 10 10 10 10 10 10 10 10 10 10 10 10 10 10 10 10 10 10 10 10 10 10 10 10 10 10 10 10 10 10 10 10 10 10 10 10 10 10 10 10 10 10 10 10 10 10 10 10 10 10 10 10 10 10 10 10 10 10 10 10 10 10 10 10 10 10 10 10 10 10 10 10 10 10 10 10 10 10 10 10 10 10 10 10 10 10 10 10 10 10 10 10 10 10 10 10 10 10 10 10 10 10 10 10 10 10 10 10 10 10 10 10 10 10 10 10 10 10 10 10 10 10 10 10 10 10 10 10 10 10 10 10 10 10 10 10 10 10 10 10 10 10 10 10 10 10 10 10 10 10 10 10 10 10 10 10 10 10 10 10 10 10 10 10 10 10 10 10 10 10 10 10 10 10 10 10 10 10 10 10 10 10 10 10 10 10 10 10 10 10 10 10 10 10 10 10 10 10 10 10 10 10 10 10 10 10 10 10 10 10 10 10 10 10 10 10 10 10 10 10 10 10 10 10 10 10 10 10 10 10 10 10 10 10 10 10 10 10 10 10 10 10 10 10 10 10 10 10 10 10 10 10 10 10 10 10 10 10 10 10 10 10 10 10 10 10 10 10 10 10 10 10 10 10 10 10 10 10 10 10 10 10 10 10 10 10 10 10 10 10 10 10 10 10 10 10 10 10 10 10 10 10 10 10 10 10 10 10 10 10 10 10 10 10 10 10 10 10 10 10 10 10 10 10 10 10 10 10 10 10 10 10 10 10 10 10 10 10 10 10 10 10 10 10 10 10 10 10 10 10 10 10 10 10 10 10 10 10 10 10 10 10 10 10 10 10 10 10 10 10 10 10 10 10 10 10 10 10 10 10 10 10 10 10 10 10 10 10 10 10 10 10 10 10 10 10 10 10 10 10 10 10 10 10 10 10 10 10 10 10 10 10 10 10 10 10 10 10 10 10 10 10 10 10 10 10 10 10 10 10 10 10 10 10 10 10 10 10 10 10 10 10 10 10 10 10 10 10 10 10 10 10 10 10 10 10 10 10 10 10 10 10 10 10 10 10 10 10 10 10 10 10 10 10 10 10 10 10 10 10 10 10 10 10 10 10 10 10 10 10 10 10 10 10 10 10 10 10 10 10 10 10 10 10 10 10 10 10 10 10 10 10 10 10 10 10 10 10 10 10 10 10 10 10 10 10 10 10 10 10 10 10 10 10 10 10 10 10 10 10 10 10 10 10 10 10 10 10 10 10 10 10 10 10 10 10 10 10 10 10 10 10 10 10 10 10 10 10 10 10 10 10 10 10 10 10 10 10 10 10 10 10 10 10 10 10 10 10 10 10 10 10 10 10 10 10 10 10 10 10 10 10 10 10 10 10 10 10 10 10 10 10 10 10 10 10 10 10 10 10 10 10 10 10 10 10 10 10 10 10 10 10 10 10 10 10 10 10 10 10 10 10 10 10 10 10 10 10 10 10 10 10 10 10 10 10 10 10 10 10 10 10 10 10 10 10 10 10 10 10 10 10 10 10 10 10 10 10 10 10 10 10 10 10 10 10 10 10 10 10 10 10 10 10 10 10 10 10 10 10 10 10 10 10 10 10 10 10 10 10 10 10 10 10 10 10 10 10 10 10 10 10 10 10 10 10 10 10 10 10 10 10 10 10 10 10 10 10 10 10 10 10 10 10 10 10 10 10 10 10 10 10 10 10 10 10 10 10 10 10 10 10 10 10 10 10 10 10 10 10 10 10 10 10 10 10 10 10 10 10 10 10 10 10 10 10 10 10 10 10 10 10 10 10 10 10 10 10 10 10 10 10 10 10 10 10 10 10 10 10 10 10 10 10 10 10 10 10 10 10 10 10 10 10 10 10 10 10 10 10 10 10 10 10 10 10 10 10 10 10 10 10 10 10 10 10 10 10 10 10 10 10 10 10 10 10 10 10 10 10 10 10 10 10 10 10 10 10 10 10 10 10 10 10 10 10 10 10 10 10 10 10 10 10 10 10 10 10 10 10 10 10 10 10 10 10 10 10 10 10 10 10 10 10 10 10 10 10 10 10 10 10 10 10 10 10 10 10 10 10 10 10 10 10 10 10 10 10 10 10 10 10 10 10 10 10 10 10 10 10 10 10 10 10 10 10 10 10 10 10 10 10 10 10 10 10 10 10 10 10 10 10 10 10 10 10 10 10 10 10 10 10 10 10 10 10 10 10 10 10 10 10 10 10 10 10 10 10 10 10 10 10 10 10 10 10 10 10 10 10 10 10 10 10 10 10 10 10 10 10 10 10 10 10 10 10 10 10 10 10 10 10 10 10 10 10 10 10 10 10 10 10 10 10 10 10 10 10 10 10 10 10 10 10 10 10 10 10 10 10 10 10 10 10 10 10 10 10 10 10 10 10 10 10 10 10 10 10 10 10 10 10 10 10 10 10 10 10 10 10 10 10 10 10 10 10 10 10 10 10 10 10 10 10 10 10 10 10 10 10 10 10 10 10 10 10 10 10 10 10 10 10 10 10 10 10 10 10 10 10 10 10 10 10 10 10 10 10 10 10 10 10 10 10 10 10 10 10 10 10 10 10 10 10 10 10 10 10 10 10 10 10 10 10 10 10 10 10 10 10 10 10 10 10 10 10 10 10 10 10 10 10 10 10 10 10 10 10 10 10 10 10 10 10 10 10 10 10 10 10 10 10 10 10 10 10 10 10 10 10 10 10 10 10 10 10 10 10 10 10 10 10 10 10 10 10 10 10 10 10 10 10 10 10 10 10 10 10 10 10 10 10 10 10 10 10 10 10 10 10 10 10 10 10 10 10 10 10 10 10 10 10 10 10 10 10 10 10 10 10 10 10 10 10 10 10 10 10 10 10 10 10 10 10 10 10 10 10 10 10 10 10 10 10 10 10 10 10 10 10 10 10 10 10 10 10 10 10 10 10 10 10 10 10 10 10 10 10 10 10 10 10 10 10 10 10 10 10 10 10 10 10 10 10 10 10 10 10 10 10 10 10 10 10 10 10 10 10 10 10 10 10 10 10 10 10 10 10 10 10 10 10 10 10 10 10 10 10 10 10 10 10 10 10 10 10 10 10 10 10 10 10 10 10 10 10 10 10 10 10 10 10 10 10 10 10 10 10 10 10 10 10 10 10 10 10 10 10 10 10 10 10 10 10 10 10 10 10 10 10 10 10 10 10 10 10 10 10 10 10 10 10 10 10 10 10 10 10 10 10 10 10 10 10 10 10 10 10 10 10 10 10 10 10 10 10 10 10 10 10 10 10 10 10 10 10 10 10 10 10 10 10 10 10 10 10 10 10 10 10 10 10 10 10 10 10 10 10 10 10 10 10 10 10 10 10 10 10 10 10 10 10 10 10 10 10 10 10 10 10 10 10 10 10 10 10 10 10 10 10 10 10 10 10 10 10 10 10 10 10 10 10 10 10 10 10 10 10 10 10 10 10 10 10 10 10 10 10 10 10 10 10 10 10 10 10 10 10 10 10 10 10 10 10 10 10 10 10 10 10 10 10 10 10 10 10 10 10 10 10 10 10 10 10 10 10 10 10 10 10 10 10 10 10 10 10 10 10 10 10 10 10 10 10 10 10 10 10 10 10 10 10 10 10 10 10 10 10 10 10 10 10 10 10 10 10 10 10 10 10 10 10 10 10 10 10 10 10 10 10 10 10 10 10 10 10 10 10 10 10 10 10 10 10 10 10 10 10 10 10 10 10 10 10 10 10 10 10 10 10 10 10 10 10 10 10 10 10 10 10 10 10 10 10 10 10 10 10 10 10 10 10 10 10 10 10 10 10 10 10 10 10 10 10 10 10 10 10 10 10 10 10 10 10 10 10 10 10 10 10 10 10 10 10 10 10 10 10 10 10 10 10 10 10 10 10 10 10 10 10 10 10 10 10 10 10 10 10 10 10 10 10 10 10 10 10 10 10 10 10 10 10 10 10 10 10 10 10 10 10 10 10 10 10 10 10 10 10 10 10 10 10 10 10 10 10 10 10 10 10 10 10 10 10 10 10 10 10 10 10 10 10 10 10 10 10 10 10 10 10 10 10 10 10 10 10 10 10 10 10 10 10 10 10 10 10 10 10 10 10 10 10 10 10 10 10 10 10 10 10 10 10 10 10 10 10 10 10 10 10 10 10 10 10 10 10 10 10 10 10 10 10 10 10 10 10 10 10 10 10 10 10 10 10 10 10 10 10 10 10 10 10 10 10 10 10 10 10 10 10 10 10 10 10 10 10 10 10 10 10 10 10 10 10 10 10 10 10 10 10 10 10 10 10 10 10 10 10 10 10 10 10 10 10 10 10 10 10 10 10 10 10 10 10 10 10 10 10 10 10 10 10 10 10 10 10 10 10 10 10 10 10 10 10 10 10 10 10 10 10 10 10 10 10 10 10 10 10 10 10 10 10 10 10 10 10 10 10 10 10 10 10 10 10 10 10 10 10 10 10 10 10 10 10 10 10 10 10 10 10 10 10 10 10 10 10 10 10 10 10 10 10 10 10 10 10 10 10 10 10 10 10 10 10 10 10 10 10 10 10 10 10 10 10 10 10 10 10 10 10 10 10 10 10 10 10 10 10 10 10 10 10 10 10 10 10 10 10 10 10 10 10 10 10 10 10 10 10 10 10 10 10 10 10 10 10 10 10 10 10 10 10 10 10 10 10 10 10 10 10 10 10 10 10 10 10 10 10 10 10 10 10 10 10 10 10 10 10 10 10 10 10 10 10 10 10 10 10 10 10 10 10 10 10 10 10 10 10 10 10 10 10 10 10 10 10 10 10 10 10 10 10 10 10 10 10 10 10 10 10 10 10 10 10 10 10 10 10 10 10 10 10 10 10 10 10 10 10 10 10 10 10 10 10 10 10 10 10 10 10 10 10 10 10 10 10 10 10 10 10 10 10 10 10 10 10 10 10 10 10 10 10 10 10 10 10 10 10 10 10 10 10 10 10 10 10 10 10 10 10 10 10 10 10 10 10 10 10 10 10 10 10 10 10 10 10 10 10 10 10 10 10 10 10 10 10 10 10 10 10 10 10 10 10 10 10 10 10 10 10 10 10 10 10 10 10 10 10 10 10 10 10 10 10 10 10 10 10 10 10 10 10 10 10 10 10 10 10 10 10 10 10 10 10 10 10 10 10 10 10 10 10 10 10 10 10 10 10 10 10 10 10 10 10 10 10 10 10 10 10 10 10 10 10 10 10 10 10 10 10 10 10 10 10 10 10 10 10 10 10 10 10 10 10 10 10 10 10 10 10 10 10 10 10 10 10 10 10 10 10 10 10 10 10 10 10 10 10 10 10 10 10 10 10 10 10 10 10 10 10 10 10 10 10 10 10 10 10 10 10 10 10 10 10 10 10 10 10 10 10 10 10 10 10 10 10 10 10 10 10 10 10 10 10 10 10 10 10 10 10 10 10 10 10 10 10 10 10 10 10 10 10 10 10 10 10 10 10 10 10 10 10 10 10 10 10 10 10 10 10 10 10 10 10 10 10 10 10 10 10 10 10 10 10 10 10 10 10 10 10 10 10 10 10 10 10 10 10 10 10 10 10 10 10 10 10 10 10 10 10 10 10 10 10 10 10 10 10 10 10 10 10 10 10 10 10 10 10 10 10 10 10 10 10 10 10 10 10 10 10 10 10 10 10 10 10 10 10 10 10 10 10 10 10 10 10 10 10 10 10 10 10 10 10 10 10 10 10 10 10 10 10 10 10 10 10 10 10 10 10 10 10 10 10 10 10 10 10 10 10 10 10 10 10 10 10 10 10 10 10 10 10 10 10 10 10 10 10 10 10 10 10 10 10 10 10 10 10 10 10 10 10 10 10 10 10 10 10 10 10 10 10 10 10 10 10 10 10 10 10 10 10 10 10 10 10 10 10 10 10 10 10 10 10 10 10 10 10 10 10 10 10 10 10 10 10 10 10 10 10 10 10 10 10 10 10 10 10 10 10 10 10 10 10 10 10 10 10 10 10 10 10 10 10 10 10 10 10 10 10 10 10 10 10 10 10 10 10 10 10 10 10 10 10 10 10 10 10 10 10 10 10 10 10 10 10 10 10 10 10 10 10 10 10 10 10 10 10 10 10 10 10 10 10 10 10 10 10 10 10 10 10 10 10 10 10 10 10 10 10 10 10 10 10 10 10 10 10 10 10 10 10 10 10 10 10 10 10 10 10 10 10 10 10 10 10 10 10 10 10 10 10 10 10 10 10 10 10 10 10 10 10 10 10 10 10 10 10 10 10 10 10 10 10 10 10 10 10 10 10 10 10 10 10 10 10 10 10 10 10 10 10 10 10 10 10 10 10 10 10 10 10 10 10 10 10 10 10 10 10 10 10 10 10 10 10 10 10 10 10 10 10 10 10 10 10 10 10 10 10 10 10 10 10 10 10 10 10 10 10 10 10 10 10 10 10 10 10 10 10 10 10 10 10 10 10 10 10 10 10 10 10 10 10 10 10 10 10 10 10 10 10 10 10 10 10 10 10 10 10 10 10 10 10 10 10 10 10 10 10 10 10 10 10 10 10 10 10 10 10 10 10 10 10 10 10 10 10 10 10 10 10 10 10 10 10 10 10 10 10 10 10 10 10 10 10 10 10 10 10 10 10 10 10 10 10 10 10 10 10 10 10 10 10 10 10 10 10 10 10 10 10 10 10 10 10 10 10 10 10 10 10 10 10 10 10 10 10 10 10 10 10 10 10 10 10 10 10 10 10 10 10 10 10 10 10 10 10 10 10 10 10 10 10 10 10 10 10 10 10 10 10 10 10 10 10 10 10 10 10 10 10 10 10 10 10 10 10 10 10 10 10 10 10 10 10 10 10 10 10 10 10 10 10 10 10 10 10 10 10 10 10 10 10 10 10 10 10 10 10 10 10 10 10 10 10 10 10 10 10 10 10 10 10 10 10 10 10 10 10 10 10 10 10 10 10 10 10 10 10 10 10 10 10 10 10 10 10 10 10 10 10 10 10 10 10 10 10 10 10 10 10 10 10 10 10 10 10 10 10 10 10 10 10 10 10 10 10 10 10 10 10 10 10 10 10 10 10 10 10 10 10 10 10 10 10 10 10 10 10 10 10 10 10 10 10 10 10 10 10 10 10 10 10 10 10 10 10 10 10 10 10 10 10 10 10 10 10 10 10 10 10 10 10 10 10 10 10 10 10 10 10 10 10 10 10 10 10 10 10 10 10 10 10 10 10 10 10 10 10 10 10 10 10 10 10 10 10 10 10 10 10 10 10 10 10 10 10 10 10 10 10 10 10 10 10 10 10 10 10 10 10 10 10 10 10 10 10 10 10 10 10 10 10 10 10 10 10 10 10 10 10 10 10 10 10 10 10 10 10 10 10 10 10 10 10 10 10 10 10 10 10 10 10 10 10 10 10 10 10 10 10 10 10 10 10 10 10 10 10 10 10 10 10 10 10 10 10 10 10 10 10 10 10 10 10 10 10 10 10 10 10 10 10 10 10 10 10 10 10 10 10 10 10 10 10 10 10 10 10 10 10 10 10 10 10 10 10 10 10 10 10 10 10 10 10 10 10 10 10 10 10 10 10 10 10 10 10 10 10 10 10 10 10 10 10 10 10 10 10 10 10 10 10 10 10 10 10 10 10 10 10 10 10 10 10 10 10 10 10 10 10 10 10 10 10 10 10 10 10 10 10 10 10 10 10 10 10 10 10 10 10 10 10 10 10 10 10 10 10 10 10 10 10 10 10 10 10 10 10 10 10 10 10 10 10 10 10 10 10 10 10 10 10 10 10 10 10 10 10 10 10 10 10 10 10 10 10 10 10 10 10 10 10 10 10 10 10 10 10 10 10 10 10 10 10 10 10 10 10 10 10 10 10 10 10 10 10 10 10 10 10 10 10 10 10 10 10 10 10 10 10 10 10 10 10 10 10 10 10 10 10 10 10 10 10 10 10 10 10 10 10 10 10 10 10 10 10 10 10 10 10 10 10 10 10 10 10 10 10 10 10 10 10 10 10 10 10 10 10 10 10 10 10 10 10 10 10 10 10 10 10 10 10 10 10 10 10 10 10 10 10 10 10 10 10 10 10 10 10 10 10 10 10 10 10 10 10 10 10 10 10 10 10 10 10 10 10 10 10 10 10 10 10 10 10 10 10 10 10 10 10 10 10 10 10 10 10 10 10 10 10 10 10 10 10 10 10 10 10 10 10 10 10 10 10 10 10 10 10 10 10 10 10 10 10 10 10 10 10 10 10 10 10 10 10 10 10 10 10 10 10 10 10 10 10 10 10 10 10 10 10 10 10 10 10 10 10 10 10 10 10 10 10 10 10 10 10 10 10 10 10 10 10 10 10 10 10 10 10 10 10 10 10 10 10 10 10 10 10 10 10 10 10 10 10 10 10 10 10 10 10 10 10 10 10 10 10 10 10 10 10 10 10 10 10 10 10 10 10 10 10 10 10 10 10 10 10 10 10 10 10 10 10 10 10 10 10 10 10 10 10 10 10 10 10 10 10 10 10 10 10 10 10 10 10 10 10 10 10 10 10 10 10 10 10 10 10 10 10 10 10 10 10 10 10 10 10 10 10 10 10 10 10 10 10 10 10 10 10 10 10 10 10 10 10 10 10 10 10 10 10 10 10 10 10 10 10 10 10 10 10 10 10 10 10 10 10 10 10 10 10 10 10 10 10 10 10 10 10 10 10 10 10 10 10 10 10 10 10 10 10 10 10 10 10 10 10 10 10 10 10 10 10 10 10 10 10 10 10 10 10 10 10 10 10 10 10 10 10 10 10 10 10 10 10 10 10 10 10 10 10 10 10 10 10 10 10 10 10 10 10 10 10 10 10 10 10 10 10 10 10 10 10 10 10 10 10 10 10 10 10 10 10 10 10 10 10 10 10 10 10 10 10 10 10 10 10 10 10 10 10 10 10 10 10 10 10 10 10 10 10 10 10 10 10 10 10 10 10 10 10 10 10 10 10 10 10 10 10 10 10 10 10 10 10 10 10 10 10 10 10 10 10 10 10 10 10 10 10 10 10 10 10 10 10 10 10 10 10 10 10 10 10 10 10 10 10 10 10 10 10 10 10 10 10 10 10 10 10 10 10 10 10 10 10 10 10 10 10 10 10 10 10 10 10 10 10 10 10 10 10 10 10 10 10 10 10 10 10 10 10 10 10 10 10 10 10 10 10 10 10 10 10 10 10 10 10 10 10 10 10 10 10 10 10 10 10 10 10 10 10 10 10 10 10 10 10 10 10 10 10 10 10 10 10 10 10 10 10 10 10 10 10 10 10 10 10 10 10 10 10 10 10 10 10 10 10 10 10 10 10 10 10 10 10 10 10 10 10 10 10 10 10 10 10 10 10 10 10 10 10 10 10 10 10 10 10 10 10 10 10 10 10 10 10 10 10 10 10 10 10 10 10 10 10 10 10 10 10 10 10 10 10 10 10 10 10 10 10 10 10 10 10 10 10 10 10 10 10 10 10 10 10 10 10 10 10 10 10 10 10 10 10 10 10 10 10 10 10 10 10 10 10 10 10 10 10 10 10 10 10 10 10 10 10 10 10 10 10 10 10 10 10 10 10 10 10 10 10 10 10 10 10 10 10 10 10 10 10 10 10 10 10 10 10 10 10 10 10 10 10 10 10 10 10 10 10 10 10 10 10 10 10 10 10 10 10 10 10 10 10 10 10 10 10 10 10 10 10 10 10 10 10 10 10 10 10 10 10 10 10 10 10 10 10 10 10 10 10 10 10 10 10 10 10 10 10 10 10 10 10 10 10 10 10 10 10 10 10 10 10 10 10 10 10 10 10 10 10 10 10 10 10 10 10 10 10 10 10 10 10 10 10 10 10 10 10 10 10 10 10 10 10 10 10 10 10 10 10 10 10 10 10 10 10 10 10 10 10 10 10 10 10 10 10 10 10 10 10 10 10 10 10 10 10 10 10 10 10 10 10 10 10 10 10 10 10 10 10 10 10 10 10 10 10 10 10 10 10 10 10 10 10 10 10 10 10 10 10 10 10 10 10 10 10 10 10 10 10 10 10 10 10 10 10 10 10 10 10 10 10 10 10 10 10 10 10 10 10 10 10 10 10 10 10 10 10 10 10 10 10 10 10 10 10 10 10 10 10 10 10 10 10 10 10 10 10 10 10 10 10 10 10 10 10 10 10 10 10 10 10 10 10 10 10 10 10 10 10 10 10 10 10 10 10 10 10 10 10 10 10 10 10 10 10 10 10 10 10 10 10 10 10 10 10 10 10 10 10 10 10 10 10 10 10 10 10 10 10 10 10 10 10 10 10 10 10 10 10 10 10 10 10 10 10 10 10 10 10 10 10 10 10 10 10 10 10 10 10 10 10 10 10 10 10 10 10 10 10 10 10 10 10 10 10 10 10 10 10 10 10 10 10 10 10 10 10 10 10 10 10 10 10 10 10 10 10 10 10 10 10 10 10 10 10 10 10 10 10 10 10 10 10 10 10 10 10 10 10 10 10 10 10 10 10 10 10 10 10 10 10 10 10 10 10 10 10 10 10 10 10 10 10 10 10 10 10 10 10 10 10 10 10 10 10 10 10 10 10 10 10 10 10 10 10 10 10 10 10 10 10 10 10 10 10 10 10 10 10 10 10 10 10 10 10 10 10 10 10 10 10 10 10 10 10 10 10 10 10 10 10 10 10 10 10 10 10 10 10 10 10 10 10 10 10 10 10 10 10 10 10 10 10 10 10 10 10 10 10 10 10 10 10 10 10 10 10 10 10 10 10 10 10 10 10 10 10 10 10 10 10 10 10 10 10 10 10 10 10 10 10 10 10 10 10 10 10 10 10 10 10 10 10 10 10 10 10 10 10 10 10 10 10 10 10 10 10 10 10 10 10 10 10 10 10 10 10 10 10 10 10 10 10 10 10 10 10 10 10 10 10 10 10 10 10 10 10 10 10 10 10 10 10 10 10 10 10 10 10 10 10 10 10 10 10 10 10 10 10 10 10 10 10 10 10 10 10 10 10 10 10 10 10 10 10 10 10 10 10 10 10 10 10 10 10 10 10 10 10 10 10 10 10 10 10 10 10 10 10 10 10 10 10 10 10 10 10 10 10 10 10 10 10 10 10 10 10 10 10 10 10 10 10 10 10 10 10 10 10 10 10 10 10 10 10 10 10 10 10 10 10 10 10 10 10 10 10 10 10 10 10 10 10 10 10 10 10 10 10 10 10 10 10 10 10 10 10 10 10 10 10 10 10 10 10 10 10 10 10 10 10 10 10 10 10 10 10 10 10 10 10 10 10 10 10 10 10 10 10 10 10 10 10 10 10 10 10 10 10 10 10 10 10 10 10 10 10 10 10 10 10 10 10 10 10 10 10 10 10 10 10 10 10 10 10 10 10 10 10 10 10 10 10 10 10 10 10 10 10 10 10 10 10 10 10 10 10 10 10 10 10 10 10 10 10 10 10 10 10 10 10 10 10 10 10 10 10 10 10 10 10 10 10 10 10 10 10 10 10 10 10 10 10 10 10 10 10 10 10 10 10 10 10 10 10 10 10 10 10 10 10 10 10 10 10 10 10 10 10 10 10 10 10 10 10 10 10 10 10 10 10 10 10 10 10 10 10 10 10 10 10 10 10 10 10 10 10 10 10 10 10 10 10 10 10 10 10 10 10 10 10 10 10 10 10 10 10 10 10 10 10 10 10 10 10 10 10 10 10 10 10 10 10 10 10 10 10 10 10 10 10 10 10 10 10 10 10 10 10 10 10 10 10 10 10 10 10 10 10 10 10 10 10 10 10 10 10 10 10 10 10 10 10 10 10 10 10 10 10 10 10 10 10 10 10 10 10 10 10 10 10 10 10 10 10 10 10 10 10 10 10 10 10 10 10 10 10 10 10 10 10 10 10 10 10 10 10 10 10 10 10 10 10 10 10 10 10 10 10 10 10 10 10 10 10 10 10 10 10 10 10 10 10 10 10 10 10 10 10 10 10 10 10 10 10 10 10 10 10 10 10 10 10 10 10 10 10 10 10 10 10 10 10 10 10 10 10 10 10 10 10 10 10 10 10 10 10 10 10 10 10 10 10 10 10 10 10 10 10 10 10 10 10 10 10 10 10 10 10 10 10 10 10 10 10 10 10 10 10 10 10 10 10 10 10 10 10 10 10 10 10 10 10 10 10 10 10 10 10 10 10 10 10 10 10 10 10 10 10 10 10 10 10 10 10 10 10 10 10 10 10 10 10 10 10 10 10 10 10 10 10 10 10 10 10 10 10 10 10 10 10 10 10 10 10 10 10 10 10 10 10 10 10 10 10 10 10 10 10 10 10 10 10 10 10 10 10 10 10 10 10 10 10 10 10 10 10 10 10 10 10 10 10 10 10 10 10 10 10 10 10 10 10 10 10 10 10 10 10 10 10 10 10 10 10 10 10 10 10 10 10 10 10 10 10 10 10 10 10 10 10 10 10 10 10 10 10 10 10 10 10 10 10 10 10 10 10 10 10 10 10 10 10 10 10 10 10 10 10 10 10 10 10 10 10 10 10 10 10 10 10 10 10 10 10 10 10 10 10 10 10 10 10 10 10 10 10 10 10 10 10 10 10 10 10 10 10 10 10 10 10 10 10 10 10 10 10 10 10 10 10 10 10 10 10 10 10 10 10 10 10 10 10 10 10 10 10 10 10 10 10 10 10 10 10 10 10 10 10 10 10 10 10 10 10 10 10 10 10 10 10 10 10 10 10 10 10 10 10 10 10 10 10 10 10 10 10 10 10 10 10 10 10 10 10 10 10 10 10 10 10 10 10 10 10 10 10 10 10 10 10 10 10 10 10 10 10 10 10 10 10 10 10 10 10 10 10 10 10 10 10 10 10 10 10 10 10 10 10 10 10 10 10 10 10 10 10 10 10 10 10 10 10 10 10 10 10 10 10 10 10 10 10 10 10 10 10 10 10 10 10 10 10 10 10 10 10 10 10 10 10 10 10 10 10 10 10 10 10 10 10 10 10 10 10 10 10 10 10 10 10 10 10 10 10 10 10 10 10 10 10 10 10 10 10 10 10 10 10 10 10 10 10 10 10 10 10 10 10 10 10 10 10 10 10 10 10 10 10 10 10 10 10 10 10 10 10 10 10 10 10 10 10 10 10 10 10 10 10 10 10 10 10 10 10 10 10 10 10 10 10 10 10 10 10 10 10 10 10 10 10 10 10 10 10 10 10 10 10 10 10 10 10 10 10 10 10 10 10 10 10 10 10 10 10 10 10 10 10 10 10 10 10 10 10 10 10 10 10 10 10 10 10 10 10 10 10 10 10 10 10 10 10 10 10 10 10 10 10 10 10 10 10 10 10 10 10 10 10 10 10 10 10 10 10 10 10 10 10 10 10 10 10 10 10 10 10 10 10 10 10 10 10 10 10 10 10 10 10 10 10 10 10 10 10 10 10 10 10 10 10 10 10 10 10 10 10 10 10 10 10 10 10 10 10 10 10 10 10 10 10 10 10 10 10 10 10 10 10 10 10 10 10 10 10 10 10 10 10 10 10 10 10 10 10 10 10 10 10 10 10 10 10 10 10 10 10 10 10 10 10 10 10 10 10 10 10 10 10 10 10 10 10 10 10 10 10 10 10 10 10 10 10 10 10 10 10 10 10 10 10 10 10 10 10 10 10 10 10 10 10 10 10 10 10 10 10 10 10 10 10 10 10 10 10 10 10 10 10 10 10 10 10 10 10 10 10 10 10 10 10 10 10 10 10 10 10 10 10 10 10 10 10 10 10 10 10 10 10 10 10 10 10 10 10 10 10 10 10 10 10 10 10 10 10 10 10 10 10 10 10 10 10 10 10 10 10 10 10 10 10 10 10 10 10 10 10 10 10 10 10 10 10 10 10 10 10 10 10 10 10 10 10 10 10 10 10 10 10 10 10 10 10 10 10 10 10 10 10 10 10 10 10 10 10 10 10 10 10 10 10 10 10 10 10 10 10 10 10 10 10 10 10 10 10 10 10 10 10 10 10 10 10 10 10 10 10 10 10 10 10 10 10 10 10 10 10 10 10 10 10 10 10 10 10 10 10 10 10 10 10 10 10 10 10 10 10 10 10 10 10 10 10 10 10 10 10 10 10 10 10 10 10 10 10 10 10 10 10 10 10 10 10 10 10 10 10 10 10 10 10 10 10 10 10 10 10 10 10 10 10 10 10 10 10 10 10 10 10 10 10 10 10 10 10 10 10 10 10 10 10 10 10 10 10 10 10 10 10 10 10 10 10 10 10 10 10 10 10 10 10 10 10 10 10 10 10 10 10 10 10 10 10 10 10 10 10 10 10 10 10 10 10 10 10 10 10 10 10 10 10 10 10 10 10 10 10 10 10 10 10 10 10 10 10 10 10 10 10 10 10 10 10 10 10 10 10 10 10 10 10 10 10 10 10 10 10 10 10 10 10 10 10 10 10 10 10 10 10 10 10 10 10 10 10 10 10 10 10 10 10 10 10 10 10 10 10 10 10 10 10 10 10 10 10 10 10 10 10 10 10 10 10 10 10 10 10 10 10 10 10 10 10 10 10 10 10 10 10 10 10 10 10 10 10 10 10 10 10 10 10 10 10 10 10 10 10 10 10 10 10 10 10 10 10 10 10 10 10 10 10 10 10 10 10 10 10 10 10 10 10 10 10 10 10 10 10 10 10 10 10 10 10 10 10 10 10 10 10 10 10 10 10 10 10 10 10 10 10 10 10 10 10 10 10 10 10 10 10 10 10 10 10 10 10 10 10 10 10 10 10 10 10 10 10 10 10 10 10 10 10 10 10 10 10 10 10 10 10 10 10 10 10 10 10 10 10 10 10 10 10 10 10 10 10 10 10 10 10 10 10 10 10 10 10 10 10 10 10 10 10 10 10 10 10 10 10 10 10 10 10 10 10 10 10 10 10 10 10 10 10 10 10 10 10 10 10 10 10 10 10 10 10 10 10 10 10 10 10 10 10 10 10 10 10 10 10 10 10 10 10 10 10 10 10 10 10 10 10 10 10 10 10 10 10 10 10 10 10 10 10 10 10 10 10 10 10 10 10 10 10 10 10 10 10 10 10 10 10 10 10 10 10 10 10 10 10 10 10 10 10 10 10 10 10 10 10 10 10 10 10 10 10 10 10 10 10 10 10 10 10 10 10 10 10 10 10 10 10 10 10 10 10 10 10 10 10 10 10 10 10 10 10 10 10 10 10 10 10 10 10 10 10 10 10 10 10 10 10 10 10 10 10 10 10 10 10 10 10 10 10 10 10 10 10 10 10 10 10 10 10 10 10 10 10 10 10 10 10 10 10 10 10 10 10 10 10 10 10 10 10 10 10 10 10 10 10 10 10 10 10 10 10 10 10 10 10 10 10 10 10 10 10 10 10 10 10 10 10 10 10 10 10 10 10 10 10 10 10 10 10 10 10 10 10 10 10 10 10 10 10 10 10 10 10 10 10 10 10 10 10 10 10 10 10 10 10 10 10 10 10 10 10 10 10 10 10 10 10 10 10 10 10 10 10 10 10 10 10 10 10 10 10 10 10 10 10 10 10 10 10 10 10 10 10 10 10 10 10 10 10 10 10 10 10 10 10 10 10 10 10 10 10 10 10 10 10 10 10 10 10 10 10 10 10 10 10 10 10 10 10 10 10 10 10 10 10 10 10 10 10 10 10 10 10 10 10 10 10 10 10 10 10 10 10 10 10 10 10 10 10 10 10 10 10 10 10 10 10 10 10 10 10 10 10 10 10 10 10 10 10 10 10 10 10 10 10 10 10 10 10 10 10 10 10 10 10 10 10 10 10 10 10 10 10 10 10 10 10 10 10 10 10 10 10 10 10 10 10 10 10 10 10 10 10 10 10 10 10 10 10 10 10 10 10 10 10 10 10 10 10 10 10 10 10 10 10 10 10 10 10 10 10 10 10 10 10 10 10 10 10 10 10 10 10 10 10 10 10 10 10 10 10 10 10 10 10 10 10 10 10 10 10 10 10 10 10 10 10 10 10 10 10 10 10 10 10 10 10 10 10 10 10 10 10 10 10 10 10 10 10 10 10 10 10 10 10 10 10 10 10 10 10 10 10 10 10 10 10 10 10 10 10 10 10 10 10 10 10 10 10 10 10 10 10 10 10 10 10 10 10 10 10 10 10 10 10 10 10 10 10 10 10 10 10 10 10 10 10 10 10 10 10 10 10 10 10 10 10 10 10 10 10 10 10 10 10 10 10 10 10 10 10 10 10 10 10 10 10 10 10 10 10 10 10 10 10 10 10 10 10 10 10 10 10 10 10 10 10 10 10 10 10 10 10 10 10 10 10 10 10 10 10 10 10 10 10 10 10 10 10 10 10 10 10 10 10 10 10 10 10 10 10 10 10 10 10 10 10 10 10 10 10 10 10 10 10 10 10 10 10 10 10 10 10 10 10 10 10 10 10 10 10 10 10 10 10 10 10 10 10 10 10 10 10 10 10 10 10 10 10 10 10 10 10 10 10 10 10 10 10 10 10 10 10 10 10 10 10 10 10 10 10 10 10 10 10 10 10 10 10 10 10 10 10 10 10 10 10 10 10 10 10 10 10 10 10 10 10 10 10 10 10 10 10 10 10 10 10 10 10 10 10 10 10 10 10 10 10 10 10 10 10 10 10 10 10 10 10 10 10 10 10 10 10 10 10 10 10 10 10 10 10 10 10 10 10 10 10 10 10 10 10 10 10 10 10 10 10 10 10 10 10 10 10 10 10 10 10 10 10 10 10 10 10 10 10 10 10 10 10 10 10 10 10 10 10 10 10 10 10 10 10 10 10 10 10 10 10 10 10 10 10 10 10 10 10 10 10 10 10 10 10 10 10 10 10 10 10 10 10 10 10 10 10 10 10 10 10 10 10 10 10 10 10 10 10 10 10 10 10 10 10 10 10 10 10 10 10 10 10 10 10 10 10 10 10 10 10 10 10 10 10 10 10 10 10 10 10 10 10 10 10 10 10 10 10 10 10 10 10 10 10 10 10 10 10 10 10 10 10 10 10 10 10 10 10 10 10 10 10 10 10 10 10 10 10 10 10 10 10 10 10 10 10 10 10 10 10 10 10 10 10 10 10 10 10 10 10 10 10 10 10 10 10 10 10 10 10 10 10 10 10 10 10 10 10 10 10 10 10 10 10 10 10 10 10 10 10 10 10 10 10 10 10 10 10 10 10 10 10 10 10 10 10 10 10 10 10 10 10 10 10 10 10 10 10 10 10 10 10 10 10 10 10 10 10 10 10 10 10 10 10 10 10 10 10 10 10 10 10 10 10 10 10 10 10 10 10 10 10 10 10 10 10 10 10 10 10 10 10 10 10 10 10 10 10 10 10 10 10 10 10 10 10 10 10 10 10 10 10 10 10 10 10 10 10 10 10 10 10 10 10 10 10 10 10 10 10 10 10 10 10 10 10 10 10 10 10 10 10 10 10 10 10 10 10 10 10 10 10 10 10 10 10 10 10 10 10 10 10 10 10 10 10 10 10 10 10 10 10 10 10 10 10 10 10 10 10 10 10 10 10 10 10 10 10 10 10 10 10 10 10 10 10 10 10 10 10 10 10 10 10 10 10 10 10 10 10 10 10 10 10 10 10 10 10 10 10 10 10 10 10 10 10 10 10 10 10 10 10 10 10 10 10 10 10 10 10 10 10 10 10 10 10 10 10 10 10 10 10 10 10 10 10 10 10 10 10 10 10 10 10 10 10 10 10 10 10 10 10 10 10 10 10 10 10 10 10 10 10 10 10 10 10 10 10 10 10 10 10 10 10 10 10 10 10 10 10 10 10 10 10 10 10 10 10 10 10 10 10 10 10 10 10 10 10 10 10 10 10 10 10 10 10 10 10 10 10 10 10 10 10 10 10 10 10 10 10 10 10 10 10 10 10 10 10 10 10 10 10 10 10 10 10 10 10 10 10 10 10 10 10 10 10 10 10 10 10 10 10 10 10 10 10 10 10 10 10 10 10 10 10 10 10 10 10 10 10 10 10 10 10 10 10 10 10 10 10 10 10 10 10 10 10 10 10 10 10 10 10 10 10 10 10 10 10 10 10 10 10 10 10 10 10 10 10 10 10 10 10 10 10 10 10 10 10 10 10 10 10 10 10 10 10 10 10 10 10 10 10 10 10 10 10 10 10 10 10 10 10 10 10 10 10 10 10 10 10 10 10 10 10 10 10 10 10 10 10 10 10 10 10 10 10 10 10 10 10 10 10 10 10 10 10 10 10 10 10 10 10 10 10 10 10 10 10 10 10 10 10 10 10 10 10 10 10 10 10 10 10 10 10 10 10 10 10 10 10 10 10 10 10 10 10 10 10 10 10 10 10 10 10 10 10 10 10 10 10 10 10 10 10 10 10 10 10 10 10 10 10 10 10 10 10 10 10 10 10 10 10 10 10 10 10 10 10 10 10 10 10 10 10 10 10 10 10 10 10 10 10 10 10 10 10 10 10 10 10 10 10 10 10 10 10 10 10 10 10 10 10 10 10 10 10 10 10 10 10 10 10 10 10 10 10 10 10 10 10 10 10 10 10 10 10 10 10 10 10 10 10 10 10 10 10 10 10 10 10 10 10 10 10 10 10 10 10 10 10 10 10 10 10 10 10 10 10 10 10 10 10 10 10 10 10 10 10 10 10 10 10 10 10 10 10 10 10 10 10 10 10 10 10 10 10 10 10 10 10 10 10 10 10 10 10 10 10 10 10 10 10 10 10 10 10 10 10 10 10 10 10 10 10 10 10 10 10 10 10 10 10 10 10 10 10 10 10 10 10 10 10 10 10 10 10 10 10 10 10 10 10 10 10 10 10 10 10 10 10 10 10 10 10 10 10 10 10 10 10 10 10 10 10 10 10 10 10 10 10 10 10 10 10 10 10 10 10 10 10 10 10 10 10 10 10 10 10 10 10 10 10 10 10 10 10 10 10 10 10 10 10 10 10 10 10 10 10 10 10 10 10 10 10 10 10 10 10 10 10 10 10 10 10 10 10 10 10 10 10 10 10 10 10 10 10 10 10 10 10 10 10 10 10 10 10 10 10 10 10 10 10 10 10 10 10 10 10 10 10 10 10 10 10 10 10 10 10 10 10 10 10 10 10 10 10 10 10 10 10 10 10 10 10 10 10 10 10 10 10 10 10 10 10 10 10 10 10 10 10 10 10 10 10 10 10 10 10 10 10 10 10 10 10 10 10 10 10 10 10 10 10 10 10 10 10 10 10 10 10 10 10 10 10 10 10 10 10 10 10 10 10 10 10 10 10 10 10 10 10 10 10 10 10 10 10 10 10 10 10 10 10 10 10 10 10 10 10 10 10 10 10 10 10 10 10 10 10 10 10 10 10 10 10 10 10 10 10 10 10 10 10 10 10 10 10 10 10 10 10 10 10 10 10 10 10 10 10 10 10 10 10 10 10 10 10 10 10 10 10 10 10 10 10 10 10 10 10 10 10 10 10 10 10 10 10 10 10 10 10 10 10 10 10 10 10 10 10 10 10 10 10 10 10 10 10 10 10 10 10 10 10 10 10 10 10 10 10 10 10 10 10 10 10 10 10 10 10 10 10 10 10 10 10 10 10 10 10 10 10 10 10 10 10 10 10 10 10 10 10 10 10 10 10 10 10 10 10 10 10 10 10 10 10 10 10 10 10 10 10 10 10 10 10 10 10 10 10 10 10 10 10 10 10 10 10 10 10 10 10 10 10 10 10 10 10 10 10 10 10 10 10 10 10 10 10 10 10 10 10 10 10 10 10 10 10 10 10 10 10 10 10 10 10 10 10 10 10 10 10 10 10 10 10 10 10 10 10 10 10 10 10 10 10 10 10 10 10 10 10 10 10 10 10 10 10 10 10 10 10 10 10 10 10 10 10 10 10 10 10 10 10 10 10 10 10 10 10 10 10 10 10 10 10 10 10 10 10 10 10 10 10 10 10 10 10 10 10 10 10 10 10 10 10 10 10 10 10 10 10 10 10 10 10 10 10 10 10 10 10 10 10 10 10 10 10 10 10 10 10 10 10 10 10 10 10 10 10 10 10 10 10 10 10 10 10 10 10 10 10 10 10 10 10 10 10 10 10 10 10 10 10 10 10 10 10 10 10 10 10 10 10 10 10 10 10 10 10 10 10 10 10 10 10 10 10 10 10 10 10 10 10 10 10 10 10 10 10 10 10 10 10 10 10 10 10 10 10 10 10 10 10 10 10 10 10 10 10 10 10 10 10 10 10 10 10 10 10 10 10 10 10 10 10 10 10 10 10 10 10 10 10 10 10 10 10 10 10 10 10 10 10 10 10 10 10 10 10 10 10 10 10 10 10 10 10 10 10 10 10 10 10 10 10 10 10 10 10 10 10 10 10 10 10 10 10 10 10 10 10 10 10 10 10 10 10 10 10 10 10 10 10 10 10 10 10 10 10 10 10 10 10 10 10 10 10 10 10 10 10 10 10 10 10 10 10 10 10 10 10 10 10 10 10 10 10 10 10 10 10 10 10 10 10 10 10 10 10 10 10 10 10 10 10 10 10 10 10 10 10 10 10 10 10 10 10 10 10 10 10 10 10 10 10 10 10 10 10 10 10 10 10 10 10 10 10 10 10 10 10 10 10 10 10 10 10 10 10 10 10 10 10 10 10 10 10 10 10 10 10 10 10 10 10 10 10 10 10 10 10 10 10 10 10 10 10 10 10 10 10 10 10 10 10 10 10 10 10 10 10 10 10 10 10 10 10 10 10 10 10 10 10 10 10 10 10 10 10 10 10 10 10 10 10 10 10 10 10 10 10 10 10 10 10 10 10 10 10 10 10 10 10 10 10 10 10 10 10 10 10 10 10 10 10 10 10 10 10 10 10 10 10 10 10 10 10 10 10 10 10 10 10 10 10 10 10 10 10 10 10 10 10 10 10 10 10 10 10 10 10 10 10 10 10 10 10 10 10 10 10 10 10 10 10 10 10 10 10 10 10 10 10 10 10 10 10 10 10 10 10 10 10 10 10 10 10 10 10 10 10 10 10 10 10 10 10 10 10 10 10 10 10 10 10 10 10 10 10 10 10 10 10 10 10 10 10 10 10 10 10 10 10 10 10 10 10 10 10 10 10 10 10 10 10 10 10 10 10 10 10 10 10 10 10 10 10 10 10 10 10 10 10 10 10 10 10 10 10 10 10 10 10 10 10 10 10 10 10 10 10 10 10 10 10 10 10 10 10 10 10 10 10 10 10 10 10 10 10 10 10 10 10 10 10 10 10 10 10 10 10 10 10 10 10 10 10 10 10 10 10 10 10 10 10 10 10 10 10 10 10 10 10 10 10 10 10 10 10 10 10 10 10 10 10 10 10 10 10 10 10 10 10 10 10 10 10 10 10 10 10 10 10 10 10 10 10 10 10 10 10 10 10 10 10 10 10 10 10 10 10 10 10 10 10 10 10 10 10 10 10 10 10 10 10 10 10 10 10 10 10 10 10 10 10 10 10 10 10 10 10 10 10 10 10 10 10 10 10 10 10 10 10 10 10 10 10 10 10 10 10 10 10 10 10 10 10 10 10 10 10 10 10 10 10 10 10 10 10 10 10 10 10 10 10 10 10 10 10 10 10 10 10 10 10 10 10 10 10 10 10 10 10 10 10 10 10 10 10 10 10 10 10 10 10 10 10 10 10 10 10 10 10 10 10 10 10 10 10 10 10 10 10 10 10 10 10 10 10 10 10 10 10 10 10 10 10 10 10 10 10 10 10 10 10 10 10 10 10 10 10 10 10 10 10 10 10 10 10 10 10 10 10 10 10 10 10 10 10 10 10 10 10 10 10 10 10 10 10 10 10 10 10 10 10 10 10 10 10 10 10 10 10 10 10 10 10 10 10 10 10 10 10 10 10 10 10 10 10 10 10 10 10 10 10 10 10 10 10 10 10 10 10 10 10 10 10 10 10 10 10 10 10 10 10 10 10 10 10 10 10 10 10 10 10 10 10 10 10 10 10 10 10 10 10 10 10 10 10 10 10 10 10 10 10 10 10 10 10 10 10 10 10 10 10 10 10 10 10 10 10 10 10 10 10 10 10 10 10 10 10 10 10 10 10 10 10 10 10 10 10 10 10 10 10 10 10 10 10 10 10 10 10 10 10 10 10 10 10 10 10 10 10 10 10 10 10 10 10 10 10 10 10 10 10 10 10 10 10 10 10 10 10 10 10 10 10 10 10 10 10 10 10 10 10 10 10 10 10 10 10 10 10 10 10 10 10 10 10 10 10 10 10 10 10 10 10 10 10 10 10 10 10 10 10 10 10 10 10 10 10 10 10 10 10 10 10 10 10 10 10 10 10 10 10 10 10 10 10 10 10 10 10 10 10 10 10 10 10 10 10 10 10 10 10 10 10 10 10 10 10 10 10 10 10 10 10 10 10 10 10 10 10 10 10 10 10 10 10 10 10 10 10 10 10 10 10 10 10 10 10 10 10 10 10 10 10 10 10 10 10 10 10 10 10 10 10 10 10 10 10 10 10 10 10 10 10 10 10 10 10 10 10 10 10 10 10 10 10 10 10 10 10 10 10 10 10 10 10 10 10 10 10 10 10 10 10 10 10 10 10 10 10 10 10 10 10 10 10 10 10 10 10 10 10 10 10 10 10 10 10 10 10 10 10 10 10 10 10 10 10 10 10 10 10 10 10 10 10 10 10 10 10 10 10 10 10 10 10 10 10 10 10 10 10 10 10 10 10 10 10 10 10 10 10 10 10 10 10 10 10 10 10 10 10 10 10 10 10 10 10 10 10 10 10 10 10 10 10 10 10 10 10 10 10 10 10 10 10 10 10 10 10 10 10 10 10 10 10 10 10 10 10 10 10 10 10 10 10 10 10 10 10 10 10 10 10 10 10 10 10 10 10 10 10 10 10 10 10 10 10 10 10 10 10 10 10 10 10 10 10 10 10 10 10 10 10 10 10 10 10 10 10 10 10 10 10 10 10 10 10 10 10 10 10 10 10 10 10 10 10 10 10 10 10 10 10 10 10 10 10 10 10 10 10 10 10 10 10 10 10 10 10 10 10 10 10 10 10 10 10 10 10 10 10 10 10 10 10 10 10 10 10 10 10 10 10 10 10 10 10 10 10 10 10 10 10 10 10 10 10 10 10 10 10 10 10 10 10 10 10 10 10 10 10 10 10 10 10 10 10 10 10 10 10 10 10 10 10 10 10 10 10 10 10 10 10 10 10 10 10 10 10 10 10 10 10 10 10 10 10 10 10 10 10 10 10 10 10 10 10 10 10 10 10 10 10 10 10 10 10 10 10 10 10 10 10 10 10 10 10 10 10 10 10 10 10 10 10 10 10 10 10 10 10 10 10 10 10 10 10 10 10 10 10 10 10 10 10 10 10 10 10 10 10 10 10 10 10 10 10 10 10 10 10 10 10 10 10 10 10 10 10 10 10 10 10 10 10 10 10 10 10 10 10 10 10 10 10 10 10 10 10 10 10 10 10 10 10 10 10 10 10 10 10 10 10 10 10 10 10 10 10 10 10 10 10 10 10 10 10 10 10 10 10 10 10 10 10 10 10 10 10 10 10 10 10 10 10 10 10 10 10 10 10 10 10 10 10 10 10 10 10 10 10 10 10 10 10 10 10 10 10 10 10 10 10 10 10 10 10 10 10 10 10 10 10 10 10 10 10 10 10 10 10 10 10 10 10 10 10 10 10 10 10 10 10 10 10 10 10 10 10 10 10 10 10 10 10 10 10 10 10 10 10 10 10 10 10 10 10 10 10 10 10 10 10 10 10 10 10 10 10 10 10 10 10 10 10 10 10 10 10 10 10 10 10 10 10 10 10 10 10 10 10 10 10 10 10 10 10 10 10 10 10 10 10 10 10 10 10 10 10 10 10 10 10 10 10 10 10 10 10 10 10 10 10 10 10 10 10 10 10 10 10 10 10 10 10 10 10 10 10 10 10 10 10 10 10 10 10 10 10 10 10 10 10 10 10 10 10 10 10 10 10 10 10 10 10 10 10 10 10 10 10 10 10 10 10 10 10 10 10 10 10 10 10 10 10 10 10 10 10 10 10 10 10 10 10 10 10 10 10 10 10 10 10 10 10 10 10 10 10 10 10 10 10 10 10 10 10 10 10 10 10 10 10 10 10 10 10 10 10 10 10 10 10 10 10 10 10 10 10 10 10 10 10 10 10 10 10 10 10 10 10 10 10 10 10 10 10 10 10 10 10 10 10 10 10 10 10 10 10 10 10 10 10 10 10 10 10 10 10 10 10 10 10 10 10 10 10 10 10 10 10 10 10 10 10 10 10 10 10 10 10 10 10 10 10 10 10 10 10 10 10 10 10 10 10 10 10 10 10 10 10 10 10 10 10 10 10 10 10 10 10 10 10 10 10 10 10 10 10 10 10 10 10 10 10 10 10 10 10 10 10 10 10 10 10 10 10 10 10 10 10 10 10 10 10 10 10 10 10 10 10 10 10 10 10 10 10 10 10 10 10 10 10 10 10 10 10 10 10 10 10 10 10 10 10 10 10 10 10 10 10 10 10 10 10 10 10 10 10 10 10 10 10 10 10 10 10 10 10 10 10 10 10 10 10 10 10 10 10 10 10 10 10 10 10 10 10 10 10 10 10 10 10 10 10 10 10 10 10 10 10 10 10 10 10 10 10 10 10 10 10 10 10 10 10 10 10 10 10 10 10 10 10 10 10 10 10 10 10 10 10 10 10 10 10 10 10 10 10 10 10 10 10 10 10 10 10 10 10 10 10 10 10 10 10 10 10 10 10 10 10 10 10 10 10 10 10 10 10 10 10 10 10 10 10 10 10 10 10 10 10 10 10 10 10 10 10 10 10 10 10 10 10 10 10 10 10 10 10 10 10 10 10 10 10 10 10 10 10 10 10 10 10 10 10 10 10 10 10 10 10 10 10 10 10 10 10 10 10 10 10 10 10 10 10 10 10 10 10 10 10 10 10 10 10 10 10 10 10 10 10 10 10 10 10 10 10 10 10 10 10 10 10 10 10 10 10 10 10 10 10 10 10 10 10 10 10 10 10 10 10 10 10 10 10 10 10 10 10 10 10 10 10 10 10 10 10 10 10 10 10 10 10 10 10 10 10 10 10 10 10 10 10 10 10 10 10 10 10 10 10 10 10 10 10 10 10 10 10 10 10 10 10 10 10 10 10 10 10 10 10 10 10 10 10 10 10 10 10 10 10 10 10 10 10 10 10 10 10 10 10 10 10 10 10 10 10 10 10 10 10 10 10 10 10 10 10 10 10 10 10 10 10 10 10 10 10 10 10 10 10 10 10 10 10 10 10 10 10 10 10 10 10 10 10 10 10 10 10 10 10 10 10 10 10 10 10 10 10 10 10 10 10 10 10 10 10 10 10 10 10 10 10 10 10 10 10 10 10 10 10 10 10 10 10 10 10 10 10 10 10 10 10 10 10 10 10 10 10 10 10 10 10 10 10 10 10 10 10 10 10 10 10 10 10 10 10 10 10 10 10 10 10 10 10 10 10 10 10 10 10 10 10 10 10 10 10 10 10 10 10 10 10 10 10 10 10 10 10 10 10 10 10 10 10 10 10 10 10 10 10 10 10 10 10 10 10 10 10 10 10 10 10 10 10 10 10 10 10 10 10 10 10 10 10 10 10 10 10 10 10 10 10 10 10 10 10 10 10 10 10 10 10 10 10 10 10 10 10 10 10 10 10 10 10 10 10 10 10 10 10 10 10 10 10 10 10 10 10 10 10 10 10 10 10 10 10 10 10 10 10 10 10 10 10 10 10 10 10 10 10 10 10 10 10 10 10 10 10 10 10 10 10 10 10 

POINT_DATA 2673
SCALARS weights float 1
LOOKUP_TABLE default
0.488281 0.651042 0.651042 0.651042 0.651042 0.651042 0.651042 0.651042 0.651042 0.651042 0.651042 0.651042 0.651042 0.651042 0.651042 0.651042 0.651042 0.651042 0.651042 0.651042 0.651042 0.651042 0.651042 0.651042 0.651042 0.651042 0.651042 0.651042 0.651042 0.651042 0.651042 0.651042 0.16276 0.651042 0.976562 0.976562 0.976562 0.976562 0.976562 0.976562 0.976562 0.976562 0.976562 0.976562 0.976562 0.976562 0.976562 0.976562 0.976562 0.976562 0.976562 0.976562 0.976562 0.976562 0.976562 0.976562 0.976562 0.976562 0.976562 0.976562 0.976562 0.976562 0.976562 0.976562 0.976562 0.325521 0.651042 0.976562 0.976562 0.976562 0.976562 0.976562 0.976562 0.976562 0.976562 0.976562 0.976562 0.976562 0.976562 0.976562 0.976562 0.976562 0.976562 0.976562 0.976562 0.976562 0.976562 0.976562 0.976562 0.976562 0.976562 0.976562 0.976562 0.976562 0.976562 0.976562 0.976562 0.976562 0.325521 0.651042 0.976562 0.976562 0.976562 0.976562 0.976562 0.976562 0.976562 0.976562 0.976562 0.976562 0.976562 0.976562 0.976562 0.976562 0.976562 0.976562 0.976562 0.976562 0.976562 0.976562 0.976562 0.976562 0.976562 0.976562 0.976562 0.976562 0.976562 0.976562 0.976562 0.976562 0.976562 0.325521 0.651042 0.976562 0.976562 0.976562 0.976562 0.976562 0.976562 0.976562 0.976562 0.976562 0.976562 0.976562 0.976562 0.976562 0.976562 0.976562 0.976562 0.976562 0.976562 0.976562 0.976562 0.976562 0.976562 0.976562 0.976562 0.976562 0.976562 0.976562 0.976562 0.976562 0.976562 0.976562 0.325521 0.651042 0.976562 0.976562 0.976562 0.976562 0.976562 0.976562 0.976562 0.976562 0.976562 0.976562 0.976562 0.976562 0.976562 0.976562 0.976562 0.976562 0.976562 0.976562 0.976562 0.976562 0.976562 0.976562 0.976562 0.976562 0.976562 0.976562 0.976562 0.976562 0.976562 0.976562 0.976562 0.325521 0.651042 0.976562 0.976562 0.976562 0.976562 0.976562 0.976562 0.976562 0.976562 0.976562 0.976562 0.976562 0.976562 0.976562 0.976562 0.976562 0.976562 0.976562 0.976562 0.976562 0.976562 0.976562 0.976562 0.976562 0.976562 0.976562 0.976562 0.976562 0.976562 0.976562 0.976562 0.976562 0.325521 0.651042 0.976562 0.976562 0.976562 0.976562 0.976562 0.976562 0.976562 0.976562 0.976562 0.976562 0.976562 0.976562 0.976562 0.976562 0.976562 0.976562 0.976562 0.976562 0.976562 0.976562 0.976562 0.976562 0.976562 0.976562 0.976562 0.976562 0.976562 0.976562 0.976562 0.976562 0.976562 0.325521 0.16276 0.325521 0.325521 0.325521 0.325521 0.325521 0.325521 0.325521 0.325521 0.325521 0.325521 0.325521 0.325521 0.325521 0.325521 0.325521 0.325521 0.325521 0.325521 0.325521 0.325521 0.325521 0.325521 0.325521 0.325521 0.325521 0.325521 0.325521 0.325521 0.325521 0.325521 0.325521 0.16276 0.651042 0.976562 0.976562 0.976562 0.976562 0.976562 0.976562 0.976562 0.976562 0.976562 0.976562 0.976562 0.976562 0.976562 0.976562 0.976562 0.976562 0.976562 0.976562 0.976562 0.976562 0.976562 0.976562 0.976562 0.976562 0.976562 0.976562 0.976562 0.976562 0.976562 0.976562 0.976562 0.325521 0.976562 1.95313 1.95313 1.95313 1.95313 1.95313 1.95313 1.95313 1.95313 1.95313 1.95313 1.95313 1.95313 1.95313 1.95313 1.95313 1.95313 1.95313 1.95313 1.95313 1.95313 1.95313 1.95313 1.95313 1.95313 1.95313 1.95313 1.95313 1.95313 1.95313 1.95313 1.95313 0.976562 0.976562 1.95313 1.95313 1.95313 1.95313 1.95313 1.95313 1.95313 1.95313 1.95313 1.95313 1.95313 1.95313 1.95313 1.95313 1.95313 1.95313 1.95313 1.95313 1.95313 1.95313 1.95313 1.95313 1.95313 1.95313 1.95313 1.95313 1.95313 1.95313 1.95313 1.95313 1.95313 0.976562 0.976562 1.95313 1.95313 1.95313 1.95313 1.95313 1.95313 1.95313 1.95313 1.95313 1.95313 1.95313 1.95313 1.95313 1.95313 1.95313 1.95313 1.95313 1.95313 1.95313 1.95313 1.95313 1.95313 1.95313 1.95313 1.95313 1.95313 1.95313 1.95313 1.95313 1.95313 1.95313 0.976562 0.976562 1.95313 1.95313 1.95313 1.95313 1.95313 1.95313 1.95313 1.95313 1.95313 1.95313 1.95313 1.95313 1.95313 1.95313 1.95313 1.95313 1.95313 1.95313 1.95313 1.95313 1.95313 1.95313 1.95313 1.95313 1.95313 1.95313 1.95313 1.95313 1.95313 1.95313 1.95313 0.976562 0.976562 1.95313 1.95313 1.95313 1.95313 1.95313 1.95313 1.95313 1.95313 1.95313 1.95313 1.95313 1.95313 1.95313 1.95313 1.95313 1.95313 1.95313 1.95313 1.95313 1.95313 1.95313 1.95313 1.95313 1.95313 1.95313 1.95313 1.95313 1.95313 1.95313 1.95313 1.95313 0.976562 0.976562 1.95313 1.95313 1.95313 1.95313 1.95313 1.95313 1.95313 1.95313 1.95313 1.95313 1.95313 1.95313 1.95313 1.95313 1.95313 1.95313 1.95313 1.95313 1.95313 1.95313 1.95313 1.95313 1.95313 1.95313 1.95313 1.95313 1.95313 1.95313 1.95313 1.95313 1.95313 0.976562 0.976562 1.95313 1.95313 1.95313 1.95313 1.95313 1.95313 1.95313 1.95313 1.95313 1.95313 1.95313 1.95313 1.95313 1.95313 1.95313 1.95313 1.95313 1.95313 1.95313 1.95313 1.95313 1.95313 1.95313 1.95313 1.95313 1.95313 1.95313 1.95313 1.95313 1.95313 1.95313 0.976562 0.325521 0.976562 0.976562 0.976562 0.976562 0.976562 0.976562 0.976562 0.976562 0.976562 0.976562 0.976562 0.976562 0.976562 0.976562 0.976562 0.976562 0.976562 0.976562 0.976562 0.976562 0.976562 0.976562 0.976562 0.976562 0.976562 0.976562 0.976562 0.976562 0.976562 0.976562 0.976562 0.651042 0.651042 0.976562 0.976562 0.976562 0.976562 0.976562 0.976562 0.976562 0.976562 0.976562 0.976562 0.976562 0.976562 0.976562 0.976562 0.976562 0.976562 0.976562 0.976562 0.976562 0.976562 0.976562 0.976562 0.976562 0.976562 0.976562 0.976562 0.976562 0.976562 0.976562 0.976562 0.976562 0.325521 0.976562 1.95313 1.95313 1.95313 1.95313 1.95313 1.95313 1.95313 1.95313 1.95313 1.95313 1.95313 1.95313 1.95313 1.95313 1.95313 1.95313 1.95313 1.95313 1.95313 1.95313 1.95313 1.95313 1.95313 1.95313 1.95313 1.95313 1.95313 1.95313 1.95313 1.95313 1.95313 0.976562 0.976562 1.95313 1.95313 1.95313 1.95313 1.95313 1.95313 1.95313 1.95313 1.95313 1.95313 1.95313 1.95313 1.95313 1.95313 1.95313 1.95313 1.95313 1.95313 1.95313 1.95313 1.95313 1.95313 1.95313 1.95313 1.95313 1.95313 1.95313 1.95313 1.95313 1.95313 1.95313 0.976562 0.976562 1.95313 1.95313 1.95313 1.95313 1.95313 1.95313 1.95313 1.95313 1.95313 1.95313 1.95313 1.95313 1.95313 1.95313 1.95313 1.95313 1.95313 1.95313 1.95313 1.95313 1.95313 1.95313 1.95313 1.95313 1.95313 1.95313 1.95313 1.95313 1.95313 1.95313 1.95313 0.976562 0.976562 1.95313 1.95313 1.95313 1.95313 1.95313 1.95313 1.95313 1.95313 1.95313 1.95313 1.95313 1.95313 1.95313 1.95313 1.95313 1.95313 1.95313 1.95313 1.95313 1.95313 1.95313 1.95313 1.95313 1.95313 1.95313 1.95313 1.95313 1.95313 1.95313 1.95313 1.95313 0.976562 0.976562 1.95313 1.95313 1.95313 1.95313 1.95313 1.95313 1.95313 1.95313 1.95313 1.95313 1.95313 1.95313 1.95313 1.95313 1.95313 1.95313 1.95313 1.95313 1.95313 1.95313 1.95313 1.95313 1.95313 1.95313 1.95313 1.95313 1.95313 1.95313 1.95313 1.95313 1.95313 0.976562 0.976562 1.95313 1.95313 1.95313 1.95313 1.95313 1.95313 1.95313 1.95313 1.95313 1.95313 1.95313 1.95313 1.95313 1.95313 1.95313 1.95313 1.95313 1.95313 1.95313 1.95313 1.95313 1.95313 1.95313 1.95313 1.95313 1.95313 1.95313 1.95313 1.95313 1.95313 1.95313 0.976562 0.976562 1.95313 1.95313 1.95313 1.95313 1.95313 1.95313 1.95313 1.95313 1.95313 1.95313 1.95313 1.95313 1.95313 1.95313 1.95313 1.95313 1.95313 1.95313 1.95313 1.95313 1.95313 1.95313 1.95313 1.95313 1.95313 1.95313 1.95313 1.95313 1.95313 1.95313 1.95313 0.976562 0.325521 0.976562 0.976562 0.976562 0.976562 0.976562 0.976562 0.976562 0.976562 0.976562 0.976562 0.976562 0.976562 0.976562 0.976562 0.976562 0.976562 0.976562 0.976562 0.976562 0.976562 0.976562 0.976562 0.976562 0.976562 0.976562 0.976562 0.976562 0.976562 0.976562 0.976562 0.976562 0.651042 0.651042 0.976562 0.976562 0.976562 0.976562 0.976562 0.976562 0.976562 0.976562 0.976562 0.976562 0.976562 0.976562 0.976562 0.976562 0.976562 0.976562 0.976562 0.976562 0.976562 0.976562 0.976562 0.976562 0.976562 0.976562 0.976562 0.976562 0.976562 0.976562 0.976562 0.976562 0.976562 0.325521 0.976562 1.95313 1.95313 1.95313 1.95313 1.95313 1.95313 1.95313 1.95313 1.95313 1.95313 1.95313 1.95313 1.95313 1.95313 1.95313 1.95313 1.95313 1.95313 1.95313 1.95313 1.95313 1.95313 1.95313 1.95313 1.95313 1.95313 1.95313 1.95313 1.95313 1.95313 1.95313 0.976562 0.976562 1.95313 1.95313 1.95313 1.95313 1.95313 1.95313 1.95313 1.95313 1.95313 1.95313 1.95313 1.95313 1.95313 1.95313 1.95313 1.95313 1.95313 1.95313 1.95313 1.95313 1.95313 1.95313 1.95313 1.95313 1.95313 1.95313 1.95313 1.95313 1.95313 1.95313 1.95313 0.976562 0.976562 1.95313 1.95313 1.95313 1.95313 1.95313 1.95313 1.95313 1.95313 1.95313 1.95313 1.95313 1.95313 1.95313 1.95313 1.95313 1.95313 1.95313 1.95313 1.95313 1.95313 1.95313 1.95313 1.95313 1.95313 1.95313 1.95313 1.95313 1.95313 1.95313 1.95313 1.95313 0.976562 0.976562 1.95313 1.95313 1.95313 1.95313 1.95313 1.95313 1.95313 1.95313 1.95313 1.95313 1.95313 1.95313 1.95313 1.95313 1.95313 1.95313 1.95313 1.95313 1.95313 1.95313 1.95313 1.95313 1.95313 1.95313 1.95313 1.95313 1.95313 1.95313 1.95313 1.95313 1.95313 0.976562 0.976562 1.95313 1.95313 1.95313 1.95313 1.95313 1.95313 1.95313 1.95313 1.95313 1.95313 1.95313 1.95313 1.95313 1.95313 1.95313 1.95313 1.95313 1.95313 1.95313 1.95313 1.95313 1.95313 1.95313 1.95313 1.95313 1.95313 1.95313 1.95313 1.95313 1.95313 1.95313 0.976562 0.976562 1.95313 1.95313 1.95313 1.95313 1.95313 1.95313 1.95313 1.95313 1.95313 1.95313 1.95313 1.95313 1.95313 1.95313 1.95313 1.95313 1.95313 1.95313 1.95313 1.95313 1.95313 1.95313 1.95313 1.95313 1.95313 1.95313 1.95313 1.95313 1.95313 1.95313 1.95313 0.976562 0.976562 1.95313 1.95313 1.95313 1.95313 1.95313 1.95313 1.95313 1.95313 1.95313 1.95313 1.95313 1.95313 1.95313 1.95313 1.95313 1.95313 1.95313 1.95313 1.95313 1.95313 1.95313 1.95313 1.95313 1.95313 1.95313 1.95313 1.95313 1.95313 1.95313 1.95313 1.95313 0.976562 0.325521 0.976562 0.976562 0.976562 0.976562 0.976562 0.976562 0.976562 0.976562 0.976562 0.976562 0.976562 0.976562 0.976562 0.976562 0.976562 0.976562 0.976562 0.976562 0.976562 0.976562 0.976562 0.976562 0.976562 0.976562 0.976562 0.976562 0.976562 0.976562 0.976562 0.976562 0.976562 0.651042 0.651042 0.976562 0.976562 0.976562 0.976562 0.976562 0.976562 0.976562 0.976562 0.976562 0.976562 0.976562 0.976562 0.976562 0.976562 0.976562 0.976562 0.976562 0.976562 0.976562 0.976562 0.976562 0.976562 0.976562 0.976562 0.976562 0.976562 0.976562 0.976562 0.976562 0.976562 0.976562 0.325521 0.976562 1.95313 1.95313 1.95313 1.95313 1.95313 1.95313 1.95313 1.95313 1.95313 1.95313 1.95313 1.95313 1.95313 1.95313 1.95313 1.95313 1.95313 1.95313 1.95313 1.95313 1.95313 1.95313 1.95313 1.95313 1.95313 1.95313 1.95313 1.95313 1.95313 1.95313 1.95313 0.976562 0.976562 1.95313 1.95313 1.95313 1.95313 1.95313 1.95313 1.95313 1.95313 1.95313 1.95313 1.95313 1.95313 1.95313 1.95313 1.95313 1.95313 1.95313 1.95313 1.95313 1.95313 1.95313 1.95313 1.95313 1.95313 1.95313 1.95313 1.95313 1.95313 1.95313 1.95313 1.95313 0.976562 0.976562 1.95313 1.95313 1.95313 1.95313 1.95313 1.95313 1.95313 1.95313 1.95313 1.95313 1.95313 1.95313 1.95313 1.95313 1.95313 1.95313 1.95313 1.95313 1.95313 1.95313 1.95313 1.95313 1.95313 1.95313 1.95313 1.95313 1.95313 1.95313 1.95313 1.95313 1.95313 0.976562 0.976562 1.95313 1.95313 1.95313 1.95313 1.95313 1.95313 1.95313 1.95313 1.95313 1.95313 1.95313 1.95313 1.95313 1.95313 1.95313 1.95313 1.95313 1.95313 1.95313 1.95313 1.95313 1.95313 1.95313 1.95313 1.95313 1.95313 1.95313 1.95313 1.95313 1.95313 1.95313 0.976562 0.976562 1.95313 1.95313 1.95313 1.95313 1.95313 1.95313 1.95313 1.95313 1.95313 1.95313 1.95313 1.95313 1.95313 1.95313 1.95313 1.95313 1.95313 1.95313 1.95313 1.95313 1.95313 1.95313 1.95313 1.95313 1.95313 1.95313 1.95313 1.95313 1.95313 1.95313 1.95313 0.976562 0.976562 1.95313 1.95313 1.95313 1.95313 1.95313 1.95313 1.95313 1.95313 1.95313 1.95313 1.95313 1.95313 1.95313 1.95313 1.95313 1.95313 1.95313 1.95313 1.95313 1.95313 1.95313 1.95313 1.95313 1.95313 1.95313 1.95313 1.95313 1.95313 1.95313 1.95313 1.95313 0.976562 0.976562 1.95313 1.95313 1.95313 1.95313 1.95313 1.95313 1.95313 1.95313 1.95313 1.95313 1.95313 1.95313 1.95313 1.95313 1.95313 1.95313 1.95313 1.95313 1.95313 1.95313 1.95313 1.95313 1.95313 1.95313 1.95313 1.95313 1.95313 1.95313 1.95313 1.95313 1.95313 0.976562 0.325521 0.976562 0.976562 0.976562 0.976562 0.976562 0.976562 0.976562 0.976562 0.976562 0.976562 0.976562 0.976562 0.976562 0.976562 0.976562 0.976562 0.976562 0.976562 0.976562 0.976562 0.976562 0.976562 0.976562 0.976562 0.976562 0.976562 0.976562 0.976562 0.976562 0.976562 0.976562 0.651042 0.651042 0.976562 0.976562 0.976562 0.976562 0.976562 0.976562 0.976562 0.976562 0.976562 0.976562 0.976562 0.976562 0.976562 0.976562 0.976562 0.976562 0.976562 0.976562 0.976562 0.976562 0.976562 0.976562 0.976562 0.976562 0.976562 0.976562 0.976562 0.976562 0.976562 0.976562 0.976562 0.325521 0.976562 1.95313 1.95313 1.95313 1.95313 1.95313 1.95313 1.95313 1.95313 1.95313 1.95313 1.95313 1.95313 1.95313 1.95313 1.95313 1.95313 1.95313 1.95313 1.95313 1.95313 1.95313 1.95313 1.95313 1.95313 1.95313 1.95313 1.95313 1.95313 1.95313 1.95313 1.95313 0.976562 0.976562 1.95313 1.95313 1.95313 1.95313 1.95313 1.95313 1.95313 1.95313 1.95313 1.95313 1.95313 1.95313 1.95313 1.95313 1.95313 1.95313 1.95313 1.95313 1.95313 1.95313 1.95313 1.95313 1.95313 1.95313 1.95313 1.95313 1.95313 1.95313 1.95313 1.95313 1.95313 0.976562 0.976562 1.95313 1.95313 1.95313 1.95313 1.95313 1.95313 1.95313 1.95313 1.95313 1.95313 1.95313 1.95313 1.95313 1.95313 1.95313 1.95313 1.95313 1.95313 1.95313 1.95313 1.95313 1.95313 1.95313 1.95313 1.95313 1.95313 1.95313 1.95313 1.95313 1.95313 1.95313 0.976562 0.976562 1.95313 1.95313 1.95313 1.95313 1.95313 1.95313 1.95313 1.95313 1.95313 1.95313 1.95313 1.95313 1.95313 1.95313 1.95313 1.95313 1.95313 1.95313 1.95313 1.95313 1.95313 1.95313 1.95313 1.95313 1.95313 1.95313 1.95313 1.95313 1.95313 1.95313 1.95313 0.976562 0.976562 1.95313 1.95313 1.95313 1.95313 1.95313 1.95313 1.95313 1.95313 1.95313 1.95313 1.95313 1.95313 1.95313 1.95313 1.95313 1.95313 1.95313 1.95313 1.95313 1.95313 1.95313 1.95313 1.95313 1.95313 1.95313 1.95313 1.95313 1.95313 1.95313 1.95313 1.95313 0.976562 0.976562 1.95313 1.95313 1.95313 1.95313 1.95313 1.95313 1.95313 1.95313 1.95313 1.95313 1.95313 1.95313 1.95313 1.95313 1.95313 1.95313 1.95313 1.95313 1.95313 1.95313 1.95313 1.95313 1.95313 1.95313 1.95313 1.95313 1.95313 1.95313 1.95313 1.95313 1.95313 0.976562 0.976562 1.95313 1.95313 1.95313 1.95313 1.95313 1.95313 1.95313 1.95313 1.95313 1.95313 1.95313 1.95313 1.95313 1.95313 1.95313 1.95313 1.95313 1.95313 1.95313 1.95313 1.95313 1.95313 1.95313 1.95313 1.95313 1.95313 1.95313 1.95313 1.95313 1.95313 1.95313 0.976562 0.325521 0.976562 0.976562 0.976562 0.976562 0.976562 0.976562 0.976562 0.976562 0.976562 0.976562 0.976562 0.976562 0.976562 0.976562 0.976562 0.976562 0.976562 0.976562 0.976562 0.976562 0.976562 0.976562 0.976562 0.976562 0.976562 0.976562 0.976562 0.976562 0.976562 0.976562 0.976562 0.651042 0.651042 0.976562 0.976562 0.976562 0.976562 0.976562 0.976562 0.976562 0.976562 0.976562 0.976562 0.976562 0.976562 0.976562 0.976562 0.976562 0.976562 0.976562 0.976562 0.976562 0.976562 0.976562 0.976562 0.976562 0.976562 0.976562 0.976562 0.976562 0.976562 0.976562 0.976562 0.976562 0.325521 0.976562 1.95313 1.95313 1.95313 1.95313 1.95313 1.95313 1.95313 1.95313 1.95313 1.95313 1.95313 1.95313 1.95313 1.95313 1.95313 1.95313 1.95313 1.95313 1.95313 1.95313 1.95313 1.95313 1.95313 1.95313 1.95313 1.95313 1.95313 1.95313 1.95313 1.95313 1.95313 0.976562 0.976562 1.95313 1.95313 1.95313 1.95313 1.95313 1.95313 1.95313 1.95313 1.95313 1.95313 1.95313 1.95313 1.95313 1.95313 1.95313 1.95313 1.95313 1.95313 1.95313 1.95313 1.95313 1.95313 1.95313 1.95313 1.95313 1.95313 1.95313 1.95313 1.95313 1.95313 1.95313 0.976562 0.976562 1.95313 1.95313 1.95313 1.95313 1.95313 1.95313 1.95313 1.95313 1.95313 1.95313 1.95313 1.95313 1.95313 1.95313 1.95313 1.95313 1.95313 1.95313 1.95313 1.95313 1.95313 1.95313 1.95313 1.95313 1.95313 1.95313 1.95313 1.95313 1.95313 1.95313 1.95313 0.976562 0.976562 1.95313 1.95313 1.95313 1.95313 1.95313 1.95313 1.95313 1.95313 1.95313 1.95313 1.95313 1.95313 1.95313 1.95313 1.95313 1.95313 1.95313 1.95313 1.95313 1.95313 1.95313 1.95313 1.95313 1.95313 1.95313 1.95313 1.95313 1.95313 1.95313 1.95313 1.95313 0.976562 0.976562 1.95313 1.95313 1.95313 1.95313 1.95313 1.95313 1.95313 1.95313 1.95313 1.95313 1.95313 1.95313 1.95313 1.95313 1.95313 1.95313 1.95313 1.95313 1.95313 1.95313 1.95313 1.95313 1.95313 1.95313 1.95313 1.95313 1.95313 1.95313 1.95313 1.95313 1.95313 0.976562 0.976562 1.95313 1.95313 1.95313 1.95313 1.95313 1.95313 1.95313 1.95313 1.95313 1.95313 1.95313 1.95313 1.95313 1.95313 1.95313 1.95313 1.95313 1.95313 1.95313 1.95313 1.95313 1.95313 1.95313 1.95313 1.95313 1.95313 1.95313 1.95313 1.95313 1.95313 1.95313 0.976562 0.976562 1.95313 1.95313 1.95313 1.95313 1.95313 1.95313 1.95313 1.95313 1.95313 1.95313 1.95313 1.95313 1.95313 1.95313 1.95313 1.95313 1.95313 1.95313 1.95313 1.95313 1.95313 1.95313 1.95313 1.95313 1.95313 1.95313 1.95313 1.95313 1.95313 1.95313 1.95313 0.976562 0.325521 0.976562 0.976562 0.976562 0.976562 0.976562 0.976562 0.976562 0.976562 0.976562 0.976562 0.976562 0.976562 0.976562 0.976562 0.976562 0.976562 0.976562 0.976562 0.976562 0.976562 0.976562 0.976562 0.976562 0.976562 0.976562 0.976562 0.976562 0.976562 0.976562 0.976562 0.976562 0.651042 0.651042 0.976562 0.976562 0.976562 0.976562 0.976562 0.976562 0.976562 0.976562 0.976562 0.976562 0.976562 0.976562 0.976562 0.976562 0.976562 0.976562 0.976562 0.976562 0.976562 0.976562 0.976562 0.976562 0.976562 0.976562 0.976562 0.976562 0.976562 0.976562 0.976562 0.976562 0.976562 0.325521 0.976562 1.95313 1.95313 1.95313 1.95313 1.95313 1.95313 1.95313 1.95313 1.95313 1.95313 1.95313 1.95313 1.95313 1.95313 1.95313 1.95313 1.95313 1.95313 1.95313 1.95313 1.95313 1.95313 1.95313 1.95313 1.95313 1.95313 1.95313 1.95313 1.95313 1.95313 1.95313 0.976562 0.976562 1.95313 1.95313 1.95313 1.95313 1.95313 1.95313 1.95313 1.95313 1.95313 1.95313 1.95313 1.95313 1.95313 1.95313 1.95313 1.95313 1.95313 1.95313 1.95313 1.95313 1.95313 1.95313 1.95313 1.95313 1.95313 1.95313 1.95313 1.95313 1.95313 1.95313 1.95313 0.976562 0.976562 1.95313 1.95313 1.95313 1.95313 1.95313 1.95313 1.95313 1.95313 1.95313 1.95313 1.95313 1.95313 1.95313 1.95313 1.95313 1.95313 1.95313 1.95313 1.95313 1.95313 1.95313 1.95313 1.95313 1.95313 1.95313 1.95313 1.95313 1.95313 1.95313 1.95313 1.95313 0.976562 0.976562 1.95313 1.95313 1.95313 1.95313 1.95313 1.95313 1.95313 1.95313 1.95313 1.95313 1.95313 1.95313 1.95313 1.95313 1.95313 1.95313 1.95313 1.95313 1.95313 1.95313 1.95313 1.95313 1.95313 1.95313 1.95313 1.95313 1.95313 1.95313 1.95313 1.95313 1.95313 0.976562 0.976562 1.95313 1.95313 1.95313 1.95313 1.95313 1.95313 1.95313 1.95313 1.95313 1.95313 1.95313 1.95313 1.95313 1.95313 1.95313 1.95313 1.95313 1.95313 1.95313 1.95313 1.95313 1.95313 1.95313 1.95313 1.95313 1.95313 1.95313 1.95313 1.95313 1.95313 1.95313 0.976562 0.976562 1.95313 1.95313 1.95313 1.95313 1.95313 1.95313 1.95313 1.95313 1.95313 1.95313 1.95313 1.95313 1.95313 1.95313 1.95313 1.95313 1.95313 1.95313 1.95313 1.95313 1.95313 1.95313 1.95313 1.95313 1.95313 1.95313 1.95313 1.95313 1.95313 1.95313 1.95313 0.976562 0.976562 1.95313 1.95313 1.95313 1.95313 1.95313 1.95313 1.95313 1.95313 1.95313 1.95313 1.95313 1.95313 1.95313 1.95313 1.95313 1.95313 1.95313 1.95313 1.95313 1.95313 1.95313 1.95313 1.95313 1.95313 1.95313 1.95313 1.95313 1.95313 1.95313 1.95313 1.95313 0.976562 0.325521 0.976562 0.976562 0.976562 0.976562 0.976562 0.976562 0.976562 0.976562 0.976562 0.976562 0.976562 0.976562 0.976562 0.976562 0.976562 0.976562 0.976562 0.976562 0.976562 0.976562 0.976562 0.976562 0.976562 0.976562 0.976562 0.976562 0.976562 0.976562 0.976562 0.976562 0.976562 0.651042 0.16276 0.325521 0.325521 0.325521 0.325521 0.325521 0.325521 0.325521 0.325521 0.325521 0.325521 0.325521 0.325521 0.325521 0.325521 0.325521 0.325521 0.325521 0.325521 0.325521 0.325521 0.325521 0.325521 0.325521 0.325521 0.325521 0.325521 0.325521 0.325521 0.325521 0.325521 0.325521 0.16276 0.325521 0.976562 0.976562 0.976562 0.976562 0.976562 0.976562 0.976562 0.976562 0.976562 0.976562 0.976562 0.976562 0.976562 0.976562 0.976562 0.976562 0.976562 0.976562 0.976562 0.976562 0.976562 0.976562 0.976562 0.976562 0.976562 0.976562 0.976562 0.976562 0.976562 0.976562 0.976562 0.651042 0.325521 0.976562 0.976562 0.976562 0.976562 0.976562 0.976562 0.976562 0.976562 0.976562 0.976562 0.976562 0.976562 0.976562 0.976562 0.976562 0.976562 0.976562 0.976562 0.976562 0.976562 0.976562 0.976562 0.976562 0.976562 0.976562 0.976562 0.976562 0.976562 0.976562 0.976562 0.976562 0.651042 0.325521 0.976562 0.976562 0.976562 0.976562 0.976562 0.976562 0.976562 0.976562 0.976562 0.976562 0.976562 0.976562 0.976562 0.976562 0.976562 0.976562 0.976562 0.976562 0.976562 0.976562 0.976562 0.976562 0.976562 0.976562 0.976562 0.976562 0.976562 0.976562 0.976562 0.976562 0.976562 0.651042 0.325521 0.976562 0.976562 0.976562 0.976562 0.976562 0.976562 0.976562 0.976562 0.976562 0.976562 0.976562 0.976562 0.976562 0.976562 0.976562 0.976562 0.976562 0.976562 0.976562 0.976562 0.976562 0.976562 0.976562 0.976562 0.976562 0.976562 0.976562 0.976562 0.976562 0.976562 0.976562 0.651042 0.325521 0.976562 0.976562 0.976562 0.976562 0.976562 0.976562 0.976562 0.976562 0.976562 0.976562 0.976562 0.976562 0.976562 0.976562 0.976562 0.976562 0.976562 0.976562 0.976562 0.976562 0.976562 0.976562 0.976562 0.976562 0.976562 0.976562 0.976562 0.976562 0.976562 0.976562 0.976562 0.651042 0.325521 0.976562 0.976562 0.976562 0.976562 0.976562 0.976562 0.976562 0.976562 0.976562 0.976562 0.976562 0.976562 0.976562 0.976562 0.976562 0.976562 0.976562 0.976562 0.976562 0.976562 0.976562 0.976562 0.976562 0.976562 0.976562 0.976562 0.976562 0.976562 0.976562 0.976562 0.976562 0.651042 0.325521 0.976562 0.976562 0.976562 0.976562 0.976562 0.976562 0.976562 0.976562 0.976562 0.976562 0.976562 0.976562 0.976562 0.976562 0.976562 0.976562 0.976562 0.976562 0.976562 0.976562 0.976562 0.976562 0.976562 0.976562 0.976562 0.976562 0.976562 0.976562 0.976562 0.976562 0.976562 0.651042 0.16276 0.651042 0.651042 0.651042 0.651042 0.651042 0.651042 0.651042 0.651042 0.651042 0.651042 0.651042 0.651042 0.651042 0.651042 0.651042 0.651042 0.651042 0.651042 0.651042 0.651042 0.651042 0.651042 0.651042 0.651042 0.651042 0.651042 0.651042 0.651042 0.651042 0.651042 0.651042 0.488281 
VECTORS u float
0 0 0  -0.00340015 -0.00233773 -0.00353074  -0.00627525 -0.00515486 -0.00436926  -0.00896603 -0.00897064 -0.00414586  -0.0115411 -0.0137863 -0.00329757  -0.0140219 -0.019538 -0.00199747  -0.0164157 -0.0261566 -0.000350237  -0.0187256 -0.0335738 0.00158858  -0.0209526 -0.0417263 0.0037744  -0.0230967 -0.0505504 0.00618196  -0.0251576 -0.0599871 0.00878477  -0.0271356 -0.0699786 0.0115614  -0.0290307 -0.0804713 0.0144868  -0.0308431 -0.0914141 0.0175502  -0.0325736 -0.102758 0.0207348  -0.0342228 -0.114456 0.0240266  -0.0357926 -0.126462 0.0274048  -0.0372841 -0.138737 0.0308623  -0.0386989 -0.151238 0.034384  -0.0400403 -0.163932 0.0379615  -0.0413091 -0.17678 0.0415802  -0.04251 -0.189754 0.0452342  -0.0436444 -0.202821 0.0489118  -0.0447171 -0.215954 0.0526054  -0.0457306 -0.22913 0.0563061  -0.0466897 -0.242324 0.0600104  -0.0475981 -0.25552 0.0637124  -0.04846 -0.268697 0.0674081  -0.0492814 -0.281842 0.071089  -0.0500686 -0.29494 0.0747597  -0.0508277 -0.307984 0.0784161  -0.0515664 -0.320966 0.0820622  -0.0522895 -0.333871 0.0857079  0 0 0  -0.00131939 -0.000800326 -0.00298023  -0.00318176 -0.0036063 -0.00302196  -0.00496307 -0.00750859 -0.00254178  -0.00667903 -0.012429 -0.00160336  -0.00834656 -0.0182937 -0.000286102  -0.00997168 -0.025029 0.00133538  -0.0115605 -0.0325664 0.00322866  -0.0131134 -0.0408393 0.00535345  -0.0146326 -0.0497841 0.00769734  -0.0161161 -0.0593389 0.0102267  -0.0175653 -0.0694464 0.012933  -0.0189779 -0.080051 0.0157857  -0.0203543 -0.0911021 0.0187805  -0.0216923 -0.102549 0.0218918  -0.0229927 -0.114344 0.0251186  -0.0242537 -0.126443 0.0284302  -0.0254762 -0.138804 0.0318282  -0.0266576 -0.151385 0.0352881  -0.0277994 -0.164152 0.0388107  -0.0289006 -0.177068 0.0423741  -0.0299628 -0.190103 0.0459805  -0.0309863 -0.203225 0.0496099  -0.0319722 -0.216408 0.0532634  -0.0329204 -0.229626 0.0569236  -0.0338347 -0.24286 0.0605974  -0.0347145 -0.256088 0.0642679  -0.035562 -0.269294 0.0679412  -0.0363786 -0.282461 0.0716014  -0.037168 -0.295578 0.0752597  -0.0379326 -0.308634 0.0789051  -0.0386763 -0.321621 0.082551  -0.0394046 -0.33453 0.0861902  0 0 0  -0.000277102 -0.000305623 -0.00120997  -0.000757128 -0.00260231 -0.00171733  -0.00155666 -0.00650334 -0.000878096  -0.00238663 -0.0114862 0.000195742  -0.00322706 -0.0174311 0.00154042  -0.00407737 -0.0242564 0.00313997  -0.00493634 -0.0318861 0.00498223  -0.00580704 -0.040254 0.00703979  -0.00668836 -0.0492925 0.0093081  -0.00758183 -0.0589409 0.0117598  -0.00848484 -0.0691388 0.0143831  -0.00939846 -0.0798329 0.017158  -0.0103178 -0.0909682 0.0200715  -0.0112437 -0.102497 0.0231082  -0.012172 -0.114369 0.0262589  -0.0131022 -0.126541 0.0295002  -0.0140297 -0.138969 0.0328298  -0.0149548 -0.151615 0.0362267  -0.0158722 -0.16444 0.0396876  -0.016782 -0.17741 0.0431945  -0.0176809 -0.190493 0.0467477  -0.0185695 -0.20366 0.0503287  -0.0194435 -0.216882 0.0539365  -0.0203042 -0.230136 0.0575581  -0.0211487 -0.2434 0.0611949  -0.0219784 -0.256657 0.0648358  -0.0227897 -0.269887 0.0684805  -0.0235844 -0.283076 0.0721209  -0.0243587 -0.296209 0.0757599  -0.0251157 -0.309279 0.0793924  -0.025852 -0.322271 0.0830271  -0.0265753 -0.335178 0.0866628  0 0 0  0.000573099 -0.000218391 0.000237226  0.00106144 -0.00234324 0.000318289  0.00138241 -0.00601506 0.000832319  0.00147408 -0.0109966 0.00201535  0.00148135 -0.0169836 0.00338769  0.00142515 -0.0238659 0.00496197  0.0013091 -0.031562 0.00675488  0.0011363 -0.0399975 0.00874472  0.000905275 -0.0491054 0.010936  0.000617981 -0.0588211 0.0133057  0.000273943 -0.0690864 0.0158482  -0.000123382 -0.0798444 0.0185394  -0.000572681 -0.091043 0.0213752  -0.00106919 -0.10263 0.024333  -0.00161111 -0.11456 0.0274081  -0.00219285 -0.126784 0.0305772  -0.00281143 -0.139263 0.0338395  -0.00346184 -0.151954 0.0371709  -0.00414085 -0.164822 0.0405712  -0.00484276 -0.17783 0.0440214  -0.00556469 -0.190949 0.0475214  -0.0063014 -0.204147 0.051053  -0.00705051 -0.217398 0.0546167  -0.00780725 -0.230677 0.0581975  -0.00857043 -0.243964 0.0617995  -0.00933504 -0.25724 0.0654068  -0.0100996 -0.270488 0.0690246  -0.01086 -0.283694 0.0726388  -0.0116131 -0.296843 0.076257  -0.0123539 -0.309923 0.0798702  -0.0130816 -0.322925 0.0834899  -0.0137928 -0.335829 0.0871112  0 0 0  0.00136466 -0.000444382 0.00152421  0.00272253 -0.00255933 0.00219059  0.00397161 -0.00613713 0.00288439  0.0050512 -0.0110003 0.0038588  0.00593275 -0.0169818 0.00522304  0.00668925 -0.0238889 0.00676584  0.00733584 -0.0316203 0.00850034  0.00787449 -0.0400984 0.0104246  0.00830972 -0.0492486 0.0125365  0.00863957 -0.0590083 0.0148256  0.00886893 -0.069315 0.0172873  0.0089972 -0.0801151 0.0198998  0.00903165 -0.091352 0.0226557  0.008973 -0.102977 0.0255404  0.00882936 -0.114941 0.0285406  0.00860357 -0.127198 0.0316417  0.0083046 -0.139707 0.0348351  0.00793552 -0.152427 0.0381048  0.00750613 -0.165319 0.0414438  0.00701952 -0.178352 0.0448401  0.00648522 -0.19149 0.0482874  0.00590587 -0.204708 0.0517721  0.00529099 -0.217974 0.0552917  0.00464416 -0.231267 0.0588343  0.00397182 -0.244567 0.0623994  0.00327706 -0.257855 0.0659769  0.00256729 -0.271113 0.0695653  0.00184464 -0.284329 0.0731549  0.00111866 -0.297489 0.0767486  0.000392437 -0.310581 0.0803423  -0.000322104 -0.32359 0.0839405  -0.00102472 -0.336501 0.0875418  0 0 0  0.00214607 -0.000970364 0.00269318  0.00435358 -0.00319558 0.0039103  0.00648361 -0.00674868 0.00482917  0.00846642 -0.0115433 0.00583005  0.0102607 -0.0174513 0.00704384  0.0118524 -0.024344 0.00852919  0.0132772 -0.0320817 0.0102005  0.014545 -0.0405722 0.012049  0.0156572 -0.0497398 0.0140872  0.0166178 -0.0595157 0.0162964  0.0174276 -0.0698406 0.018681  0.0180917 -0.0806563 0.0212159  0.0186138 -0.0919099 0.023901  0.0190012 -0.103549 0.0267107  0.0192585 -0.115526 0.0296445  0.0193951 -0.127794 0.0326767  0.0194175 -0.140314 0.0358083  0.019335 -0.153042 0.0390153  0.019155 -0.165943 0.0423012  0.018888 -0.178982 0.0456429  0.0185406 -0.192126 0.0490427  0.0181229 -0.205347 0.0524802  0.0176415 -0.218617 0.0559602  0.0171063 -0.231913 0.059464  0.0165236 -0.245214 0.0629973  0.0159018 -0.258503 0.0665429  0.0152462 -0.271764 0.0701072  0.0145655 -0.284983 0.0736704  0.013865 -0.298148 0.0772443  0.013154 -0.311248 0.080812  0.0124443 -0.32427 0.084389  0.0117507 -0.337189 0.0879602  0 0 0  0.00294551 -0.00181139 0.00377536  0.00601581 -0.0042482 0.00550938  0.00903246 -0.00782436 0.00665569  0.0119088 -0.0125779 0.00771117  0.0145926 -0.0184239 0.0088799  0.0170539 -0.0252562 0.0102394  0.0192812 -0.0329659 0.0118258  0.0212934 -0.0414416 0.0135975  0.0230988 -0.0505968 0.0155566  0.0246974 -0.0603646 0.017693  0.0260973 -0.0706797 0.0200024  0.0272996 -0.0814878 0.0224671  0.0283144 -0.0927318 0.0250814  0.0291464 -0.104362 0.0278263  0.0298069 -0.116329 0.0306935  0.030302 -0.128588 0.0336664  0.0306463 -0.141096 0.0367372  0.0308459 -0.153814 0.0398922  0.0309141 -0.166704 0.0431232  0.0308592 -0.179732 0.0464187  0.0306971 -0.192865 0.0497711  0.0304341 -0.206076 0.0531693  0.0300837 -0.219334 0.0566099  0.0296531 -0.232621 0.0600815  0.0291567 -0.245913 0.0635829  0.0286012 -0.259195 0.0671015  0.0279973 -0.272448 0.0706375  0.0273528 -0.285662 0.0741835  0.0266783 -0.298824 0.0777357  0.0259793 -0.311929 0.0812869  0.0252705 -0.324962 0.084837  0.0245714 -0.337901 0.0883825  0 0 0  0.00373873 -0.0029701 0.00479698  0.00768706 -0.00572437 0.0070374  0.0116256 -0.00937569 0.00838017  0.0154379 -0.0141063 0.00948095  0.0190412 -0.0198939 0.0106089  0.0223923 -0.0266553 0.0118828  0.025464 -0.034296 0.0133536  0.0282488 -0.0427224 0.0150392  0.0307618 -0.0518374 0.016923  0.0330122 -0.0615658 0.0189853  0.0350052 -0.0718459 0.0212295  0.0367504 -0.0826172 0.0236278  0.0382546 -0.0938274 0.0261819  0.0395303 -0.105422 0.0288639  0.0405862 -0.117356 0.0316782  0.0414355 -0.129582 0.034595  0.0420904 -0.142059 0.0376163  0.0425656 -0.154744 0.0407202  0.0428705 -0.167604 0.0439081  0.0430212 -0.180602 0.047157  0.0430307 -0.193708 0.0504725  0.0429142 -0.206891 0.0538328  0.0426822 -0.220126 0.0572424  0.0423491 -0.233389 0.0606806  0.0419261 -0.246662 0.064157  0.0414279 -0.259924 0.0676491  0.0408645 -0.273163 0.0711651  0.0402486 -0.286364 0.0746891  0.0395899 -0.299518 0.0782297  0.0389009 -0.312617 0.0817654  0.0381896 -0.325656 0.0853021  0.0374765 -0.338618 0.0888221  0 0 0  0.0042177 -0.00439626 0.00595593  0.00901556 -0.00770479 0.00861549  0.0140028 -0.0115057 0.010056  0.0188991 -0.0162274 0.011127  0.0235577 -0.021941 0.0121758  0.0279026 -0.0286067 0.0133493  0.0318964 -0.0361463 0.01472  0.0355253 -0.0444757 0.0163057  0.0387914 -0.0535102 0.018115  0.0417178 -0.0631657 0.0201175  0.0443211 -0.0733751 0.0223024  0.0466121 -0.08408 0.0246518  0.048607 -0.0952247 0.0271525  0.0503182 -0.106757 0.0297894  0.0517625 -0.118629 0.0325575  0.0529521 -0.130796 0.0354335  0.0539055 -0.143216 0.0384111  0.0546377 -0.155847 0.0414791  0.0551655 -0.168652 0.0446284  0.0555022 -0.181601 0.0478442  0.0556672 -0.19466 0.0511246  0.0556755 -0.2078 0.0544579  0.0555451 -0.220993 0.057838  0.0552888 -0.23422 0.0612531  0.0549238 -0.247459 0.0647035  0.0544641 -0.260693 0.0681787  0.0539262 -0.273905 0.0716779  0.0533218 -0.287087 0.0751901  0.0526669 -0.300226 0.0787179  0.0519731 -0.313317 0.0822477  0.0512559 -0.326355 0.085778  0.0505257 -0.339333 0.0892887  0 0 0  -0.00319278 -0.00317578 -0.00255799  -0.006484 -0.00644835 -0.0034337  -0.00958791 -0.0105027 -0.00327897  -0.0125421 -0.0154017 -0.00249386  -0.015366 -0.0211506 -0.00125027  -0.0180713 -0.0277202 0.000341892  -0.020662 -0.0350639 0.0022285  -0.0231431 -0.0431303 0.00436163  -0.025514 -0.0518612 0.00671935  -0.0277791 -0.0612027 0.00927091  -0.0299375 -0.0710987 0.0120001  -0.0319933 -0.0814989 0.0148778  -0.0339463 -0.0923502 0.0178967  -0.0358006 -0.103607 0.0210366  -0.0375562 -0.115222 0.0242872  -0.039217 -0.12715 0.0276263  -0.0407848 -0.13935 0.0310483  -0.0422649 -0.151783 0.0345349  -0.0436583 -0.164412 0.0380819  -0.04497 -0.177202 0.0416698  -0.0462022 -0.190121 0.0452988  -0.0473609 -0.203141 0.0489519  -0.0484483 -0.216229 0.0526259  -0.0494723 -0.229367 0.0563071  -0.0504346 -0.242528 0.0599973  -0.0513437 -0.255695 0.0636857  -0.0522025 -0.268849 0.0673714  -0.0530193 -0.281975 0.071044  -0.0538003 -0.295059 0.0747099  -0.0545557 -0.308095 0.078361  -0.0552905 -0.32107 0.0820055  -0.0560117 -0.333981 0.0856495  0 0 0  -0.000509672 -0.000952132 -0.00177598  -0.00322048 -0.0046946 -0.00234365  -0.00551242 -0.00891815 -0.00200224  -0.00764361 -0.0139469 -0.0011313  -0.00967139 -0.019821 0.000140667  -0.0116165 -0.0265156 0.00172424  -0.0134897 -0.0339862 0.00358438  -0.0152971 -0.0421785 0.00567746  -0.0170431 -0.0510363 0.00799108  -0.0187292 -0.0605013 0.0104904  -0.0203578 -0.0705189 0.0131676  -0.0219295 -0.0810363 0.0159919  -0.0234456 -0.0920012 0.0189593  -0.0249059 -0.103365 0.0220439  -0.026312 -0.115082 0.0252457  -0.0276631 -0.127107 0.0285339  -0.0289617 -0.139397 0.0319102  -0.0302069 -0.151913 0.0353491  -0.0314007 -0.164619 0.0388534  -0.0325444 -0.17748 0.0423992  -0.0336387 -0.190463 0.0459902  -0.0346863 -0.20354 0.0496056  -0.0356882 -0.21668 0.0532479  -0.0366468 -0.229862 0.0568976  -0.0375655 -0.243064 0.0605636  -0.0384457 -0.256265 0.0642271  -0.0392914 -0.269449 0.0678945  -0.0401034 -0.282598 0.0715506  -0.0408878 -0.295701 0.0752063  -0.0416481 -0.308748 0.0788488  -0.0423899 -0.321731 0.0824916  -0.0431173 -0.334646 0.0861294  0 0 0  -9.98378e-05 -0.000772089 -0.000836849  -0.000971362 -0.00361921 -0.00147915  -0.00223857 -0.0078602 -0.000769615  -0.00344747 -0.0129625 0.000253201  -0.0046162 -0.0189246 0.00157309  -0.00575817 -0.0257142 0.00315809  -0.00687951 -0.0332819 0.00499058  -0.00798625 -0.041573 0.00704074  -0.00908124 -0.0505284 0.00930238  -0.0101663 -0.06009 0.0117478  -0.0112416 -0.0702012 0.0143647  -0.0123078 -0.0808096 0.0171344  -0.013364 -0.0918617 0.0200417  -0.0144093 -0.103309 0.0230734  -0.0154424 -0.115105 0.0262187  -0.0164621 -0.127203 0.0294559  -0.0174673 -0.139563 0.0327809  -0.0184567 -0.152144 0.0361745  -0.0194283 -0.164908 0.0396323  -0.0203819 -0.177823 0.0431366  -0.0213161 -0.190855 0.0466874  -0.0222299 -0.203976 0.0502682  -0.0231237 -0.217157 0.0538745  -0.0239971 -0.230374 0.0574961  -0.0248494 -0.243606 0.0611334  -0.0256824 -0.256835 0.0647752  -0.0264945 -0.270042 0.0684206  -0.0272865 -0.283212 0.0720634  -0.0280585 -0.296331 0.0757034  -0.0288129 -0.30939 0.0793369  -0.0295517 -0.32238 0.0829685  -0.0302784 -0.335297 0.0866013  0 0 0  0.000224039 -0.000866771 -4.98295e-05  0.000460267 -0.00345555 1.81198e-05  0.000510842 -0.00733867 0.00051713  0.000286341 -0.0124379 0.00167108  1.23978e-05 -0.0184434 0.00303984  -0.000298679 -0.0252927 0.00462151  -0.000648439 -0.0329299 0.00642633  -0.00103486 -0.041292 0.00843143  -0.00146222 -0.0503202 0.0106382  -0.00192833 -0.0599527 0.0130239  -0.00243497 -0.0701343 0.0155816  -0.00297856 -0.0808099 0.0182886  -0.00355971 -0.0919277 0.0211387  -0.00417268 -0.103436 0.0241113  -0.00481796 -0.115291 0.0272002  -0.00548923 -0.127444 0.0303833  -0.00618625 -0.139854 0.0336578  -0.00690246 -0.152482 0.0370028  -0.0076375 -0.165291 0.0404148  -0.00838518 -0.178245 0.0438771  -0.00914478 -0.191314 0.0473878  -0.00991035 -0.204467 0.0509305  -0.0106823 -0.217676 0.0545039  -0.0114551 -0.230919 0.0580943  -0.012229 -0.244174 0.0617056  -0.0129995 -0.257422 0.0653217  -0.0137672 -0.270647 0.0689473  -0.0145268 -0.283833 0.0725701  -0.0152793 -0.296966 0.0761945  -0.0160193 -0.310036 0.0798125  -0.0167496 -0.323033 0.0834327  -0.0174665 -0.335949 0.0870523  0 0 0  0.000530794 -0.00121295 0.000640869  0.00174734 -0.00374347 0.0013926  0.00282604 -0.00749743 0.00212193  0.00371087 -0.0124182 0.00312304  0.00436777 -0.0184121 0.00450468  0.00491124 -0.0252837 0.00607586  0.00535583 -0.0329564 0.00784373  0.00570536 -0.0413626 0.00980449  0.00596261 -0.0504356 0.0119534  0.00612819 -0.0601147 0.0142803  0.00620484 -0.070341 0.0167782  0.00619459 -0.081061 0.0194271  0.00610209 -0.0922198 0.0222175  0.0059303 -0.103769 0.0251362  0.00568497 -0.11566 0.0281684  0.00537038 -0.127848 0.0313013  0.00499272 -0.14029 0.034524  0.00455713 -0.152948 0.037823  0.00406909 -0.165783 0.0411887  0.00353456 -0.178763 0.044611  0.00295973 -0.191852 0.0480816  0.0023489 -0.205025 0.0515895  0.00170851 -0.21825 0.0551295  0.00104237 -0.231509 0.058691  0.000356197 -0.244776 0.062274  -0.000346661 -0.258037 0.0658681  -0.0010612 -0.271271 0.0694714  -0.00178456 -0.284467 0.0730755  -0.00251079 -0.29761 0.0766807  -0.00323558 -0.310691 0.0802848  -0.00395274 -0.323694 0.0838878  -0.00466037 -0.336615 0.087491  0 0 0  0.00083828 -0.0018329 0.00124288  0.00301123 -0.00443584 0.00263834  0.00506225 -0.00814557 0.00363827  0.00693023 -0.0129772 0.00469398  0.00858366 -0.0188653 0.00595975  0.0100093 -0.0257156 0.00749302  0.0112675 -0.0333908 0.00921845  0.0123723 -0.041809 0.0111246  0.0133263 -0.0509006 0.0132205  0.0141373 -0.0605985 0.0154881  0.0148054 -0.0708453 0.0179296  0.0153391 -0.0815834 0.0205214  0.0157397 -0.0927616 0.0232604  0.0160176 -0.104326 0.0261235  0.0161753 -0.116233 0.029108  0.0162237 -0.128435 0.0321894  0.0161672 -0.14089 0.035367  0.0160172 -0.153557 0.0386188  0.0157778 -0.166403 0.0419459  0.015461 -0.179389 0.0453274  0.0150712 -0.192486 0.0487633  0.0146198 -0.205663 0.0522356  0.0141108 -0.218894 0.0557466  0.0135548 -0.232155 0.0592794  0.0129564 -0.245426 0.0628386  0.0123241 -0.258688 0.0664082  0.011662 -0.271926 0.069994  0.0109792 -0.285124 0.0735772  0.0102782 -0.298272 0.0771677  0.00957084 -0.311359 0.0807519  0.00886178 -0.324372 0.0843399  0.00816536 -0.3373 0.0879178  0 0 0  0.00114325 -0.0027746 0.00176072  0.00430369 -0.00554651 0.00377107  0.00733435 -0.00926369 0.00504279  0.0101706 -0.0140377 0.006181  0.012776 -0.0198462 0.00742507  0.015129 -0.0266142 0.00885963  0.0172269 -0.0342536 0.0105217  0.0191035 -0.0426534 0.0123727  0.020771 -0.0517318 0.014411  0.0222356 -0.0614219 0.0166276  0.0235052 -0.0716604 0.0190146  0.0245854 -0.0823928 0.0215566  0.0254848 -0.0935633 0.0242448  0.0262114 -0.105122 0.0270619  0.0267749 -0.11702 0.0299978  0.0271838 -0.129214 0.0330377  0.0274491 -0.14166 0.0361702  0.0275803 -0.154319 0.0393851  0.0275884 -0.167155 0.0426724  0.0274835 -0.180133 0.0460212  0.027277 -0.193219 0.0494215  0.0269783 -0.206388 0.0528657  0.0265982 -0.219608 0.0563481  0.0261457 -0.232861 0.0598588  0.0256314 -0.246123 0.0633941  0.025064 -0.259378 0.0669441  0.0244527 -0.272609 0.0705082  0.0238049 -0.285804 0.0740788  0.0231299 -0.298949 0.0776525  0.0224359 -0.312039 0.0812244  0.0217323 -0.325061 0.0847917  0.0210352 -0.338004 0.0883498  0 0 0  0.00137617 -0.00409383 0.00217152  0.00560132 -0.00710273 0.00481558  0.00965542 -0.0108683 0.00634241  0.013496 -0.0156017 0.00755715  0.0170752 -0.0213354 0.00878501  0.0203631 -0.0280173 0.0101573  0.0233451 -0.0355737 0.0117292  0.0260216 -0.0439181 0.0135169  0.0284179 -0.0529531 0.0155027  0.0305501 -0.0626031 0.0176675  0.0324243 -0.0728068 0.0200107  0.0340561 -0.0835038 0.0225067  0.0354513 -0.094642 0.0251544  0.0366259 -0.106167 0.0279272  0.037588 -0.118035 0.0308278  0.0383534 -0.130197 0.0338287  0.0389309 -0.142613 0.0369279  0.0393384 -0.155241 0.0401068  0.0395839 -0.168048 0.0433652  0.0396836 -0.180997 0.0466807  0.0396476 -0.194058 0.050056  0.0394945 -0.207201 0.0534732  0.0392323 -0.220398 0.0569344  0.0388761 -0.233629 0.0604208  0.0384345 -0.246872 0.0639391  0.0379245 -0.260109 0.0674698  0.0373533 -0.273326 0.0710196  0.0367339 -0.286508 0.0745733  0.0360756 -0.299646 0.0781393  0.0353916 -0.312732 0.0816979  0.034688 -0.325759 0.0852551  0.0339832 -0.338719 0.088793  0 0 0  0.00132033 -0.00574255 0.0026207  0.00666091 -0.0091064 0.00592828  0.0118336 -0.0130024 0.00762534  0.0167921 -0.0177214 0.00884199  0.0214527 -0.023373 0.0100145  0.0257556 -0.0299515 0.0113087  0.0296802 -0.0373982 0.0128043  0.0332191 -0.0456378 0.0145171  0.0363827 -0.054589 0.0164523  0.0392007 -0.0641663 0.0185785  0.0416933 -0.0743004 0.0208824  0.0438771 -0.0849336 0.0233474  0.0457691 -0.0960082 0.02596  0.0473835 -0.107474 0.0287042  0.0487378 -0.119282 0.0315742  0.0498464 -0.131389 0.034549  0.0507257 -0.14375 0.0376189  0.0513923 -0.156328 0.0407746  0.0518634 -0.169083 0.0440063  0.0521514 -0.181986 0.0472996  0.0522742 -0.195 0.0506513  0.0522482 -0.208102 0.0540509  0.0520899 -0.22126 0.0574915  0.0518124 -0.234456 0.0609627  0.0514312 -0.247666 0.0644627  0.0509605 -0.260876 0.067982  0.050416 -0.274069 0.0715196  0.0498099 -0.287232 0.0750661  0.0491569 -0.300356 0.0786226  0.0484695 -0.313434 0.0821772  0.0477614 -0.326459 0.0857282  0.0470433 -0.339433 0.0892589  0 0 0  -0.00339743 -0.00390929 -0.00181341  -0.00685701 -0.00762014 -0.00240612  -0.0102527 -0.011795 -0.00224352  -0.0135067 -0.0167548 -0.00150228  -0.0166202 -0.0225112 -0.000320435  -0.0195944 -0.0290506 0.00120759  -0.0224366 -0.0363423 0.00302744  -0.0251473 -0.0443423 0.0050962  -0.0277312 -0.0530009 0.00738859  -0.0301881 -0.0622654 0.00987864  -0.0325229 -0.0720844 0.0125465  -0.0347357 -0.0824069 0.0153673  -0.0368316 -0.0931835 0.0183296  -0.0388108 -0.104366 0.0214171  -0.0406797 -0.115911 0.0246162  -0.0424379 -0.127772 0.0279086  -0.0440922 -0.139909 0.0312853  -0.0456443 -0.152282 0.0347319  -0.0471015 -0.164856 0.0382392  -0.0484648 -0.177594 0.0417933  -0.0497422 -0.190466 0.0453894  -0.0509355 -0.203442 0.049015  -0.0520527 -0.216493 0.0526621  -0.0530972 -0.229596 0.0563223  -0.0540774 -0.242728 0.0599923  -0.0549965 -0.25587 0.0636663  -0.055865 -0.269003 0.0673385  -0.0566862 -0.282112 0.071003  -0.0574725 -0.295185 0.074661  -0.0582294 -0.308212 0.0783086  -0.058969 -0.321189 0.0819476  -0.0596945 -0.33411 0.0855858  0 0 0  -0.000577703 -0.00154278 -0.00123572  -0.00334179 -0.00558185 -0.00147533  -0.00602138 -0.0100093 -0.00120807  -0.00851575 -0.0151428 -0.000411034  -0.0108717 -0.0210465 0.000795126  -0.0131119 -0.0277255 0.00232172  -0.0152529 -0.0351538 0.00412846  -0.0173022 -0.0432892 0.00617242  -0.019268 -0.0520822 0.00843787  -0.0211514 -0.0614783 0.0108931  -0.0229588 -0.0714262 0.013526  -0.0246897 -0.0818735 0.0163095  -0.0263487 -0.0927701 0.019237  -0.0279351 -0.104068 0.0222845  -0.0294532 -0.115721 0.0254498  -0.0309018 -0.127684 0.0287049  -0.032285 -0.139917 0.0320501  -0.0336022 -0.152378 0.0354612  -0.0348587 -0.165034 0.038938  -0.0360534 -0.177847 0.0424604  -0.0371916 -0.190787 0.0460286  -0.0382733 -0.203825 0.0496252  -0.0393031 -0.21693 0.0532491  -0.0402815 -0.230081 0.0568852  -0.0412159 -0.243256 0.0605378  -0.0421054 -0.256434 0.0641925  -0.0429578 -0.269598 0.0678513  -0.0437739 -0.282733 0.0715022  -0.0445607 -0.295825 0.0751536  -0.0453215 -0.308865 0.0787945  -0.0460649 -0.321848 0.0824349  -0.0467925 -0.334771 0.086071  0 0 0  -0.000210419 -0.0013108 -0.000596523  -0.000854865 -0.00404596 -0.000715494  -0.00270167 -0.00874943 -0.000304461  -0.00431445 -0.0140203 0.00061059  -0.00582021 -0.020036 0.00187206  -0.00725788 -0.0268238 0.00341654  -0.0086444 -0.0343594 0.0052166  -0.00998962 -0.042602 0.00723934  -0.0113002 -0.0514998 0.00947642  -0.0125798 -0.0610001 0.0118988  -0.0138308 -0.0710481 0.0144939  -0.0150545 -0.081593 0.0172429  -0.0162514 -0.0925824 0.0201311  -0.0174221 -0.103969 0.0231438  -0.0185661 -0.115705 0.0262716  -0.0196831 -0.127748 0.0294924  -0.0207727 -0.140054 0.0328026  -0.0218349 -0.152585 0.0361826  -0.0228686 -0.165303 0.0396278  -0.023874 -0.178175 0.0431216  -0.024852 -0.191167 0.0466619  -0.0258014 -0.204251 0.0502338  -0.0267229 -0.217399 0.053833  -0.0276167 -0.230588 0.0574491  -0.0284848 -0.243795 0.0610821  -0.0293279 -0.257002 0.0647211  -0.0301468 -0.270191 0.0683639  -0.0309434 -0.283347 0.0720053  -0.0317178 -0.296456 0.0756452  -0.0324736 -0.30951 0.0792787  -0.0332141 -0.3225 0.0829101  -0.0339429 -0.335426 0.0865412  0 0 0  0.000111535 -0.00137058 -8.08239e-05  0.000222951 -0.00397217 0.000106335  -5.81145e-05 -0.00812152 0.000519753  -0.000652075 -0.01341 0.00159931  -0.00124115 -0.0194819 0.00293112  -0.00183058 -0.0263382 0.0044961  -0.00242984 -0.0339495 0.00629377  -0.00304294 -0.0422691 0.00829673  -0.00367558 -0.0512447 0.010504  -0.0043292 -0.0608213 0.0128913  -0.005005 -0.0709442 0.0154512  -0.00570214 -0.0815607 0.0181606  -0.00642037 -0.0926192 0.021014  -0.00715744 -0.104071 0.023989  -0.00791168 -0.115869 0.0270813  -0.00868058 -0.127969 0.030267  -0.0094614 -0.140329 0.0335448  -0.0102518 -0.15291 0.0368929  -0.011049 -0.165674 0.0403082  -0.0118499 -0.178587 0.0437751  -0.0126534 -0.191617 0.0472894  -0.0134559 -0.204735 0.0508354  -0.0142553 -0.217913 0.0544136  -0.0150506 -0.231128 0.0580082  -0.015841 -0.24436 0.0616238  -0.0166237 -0.257587 0.0652449  -0.0173991 -0.270794 0.0688748  -0.0181642 -0.283966 0.0725024  -0.0189185 -0.297089 0.0761318  -0.0196612 -0.310153 0.0797534  -0.0203924 -0.323151 0.0833766  -0.0211143 -0.336079 0.0869954  0 0 0  0.000405535 -0.00167584 0.000375509  0.00119641 -0.00432363 0.000879765  0.00201628 -0.00828826 0.00161052  0.00265431 -0.0133233 0.00261378  0.003039 -0.019387 0.0039916  0.00333422 -0.0262698 0.00557208  0.00355184 -0.033921 0.00735807  0.00369203 -0.0422895 0.009341  0.00375748 -0.051315 0.0115151  0.00374579 -0.0609427 0.0138676  0.0036608 -0.0711149 0.0163915  0.00350285 -0.0817799 0.0190651  0.00327647 -0.0928839 0.0218804  0.00298345 -0.104379 0.024822  0.00263059 -0.116218 0.0278776  0.00221968 -0.128356 0.0310314  0.00175834 -0.140751 0.0342758  0.0012486 -0.153363 0.0375943  0.000697613 -0.166156 0.0409799  0.000108719 -0.179096 0.04442  -0.000511408 -0.192149 0.0479081  -0.00116014 -0.205289 0.0514317  -0.00183034 -0.218485 0.0549872  -0.0025208 -0.231717 0.0585625  -0.00322485 -0.244962 0.0621591  -0.00394154 -0.258202 0.0657654  -0.00466514 -0.271419 0.0693803  -0.00539422 -0.284602 0.0729949  -0.00612307 -0.297734 0.0766108  -0.00685024 -0.310809 0.0802226  -0.00756931 -0.323813 0.0838325  -0.00828218 -0.336746 0.0874376  0 0 0  0.000696614 -0.00223768 0.000772476  0.00215736 -0.00507319 0.00157404  0.00401241 -0.00895607 0.0026319  0.00569427 -0.0138701 0.0037365  0.00715482 -0.0197881 0.00504518  0.00837088 -0.0266474 0.00661731  0.0094291 -0.0343023 0.00838637  0.0103445 -0.0426853 0.01034  0.0111217 -0.0517328 0.0124855  0.0117668 -0.061383 0.0148025  0.0122819 -0.0715796 0.017293  0.0126734 -0.0822667 0.0199316  0.0129449 -0.093393 0.022717  0.0131044 -0.104908 0.0256238  0.0131563 -0.116766 0.0286505  0.0131097 -0.12892 0.0317719  0.0129697 -0.14133 0.0349877  0.0127454 -0.153956 0.0382755  0.0124428 -0.166761 0.0416374  0.0120707 -0.179711 0.0450511  0.0116348 -0.192773 0.0485172  0.0111444 -0.205919 0.0520175  0.0106044 -0.219121 0.0555549  0.0100226 -0.232358 0.0591114  0.00940418 -0.245607 0.0626922  0.00875711 -0.25885 0.0662818  0.00808525 -0.272071 0.0698855  0.00739598 -0.285256 0.0734851  0.00669289 -0.298394 0.077091  0.00598335 -0.311474 0.0806878  0.00527334 -0.324488 0.0842867  0.00457144 -0.337427 0.0878706  0 0 0  0.000984579 -0.00309503 0.00111794  0.00313601 -0.00626063 0.00217938  0.00604138 -0.0101082 0.00355697  0.0087533 -0.0149354 0.00478268  0.0112178 -0.0207515 0.00610495  0.0134165 -0.0275061 0.00761437  0.0153447 -0.0351222 0.0093472  0.0170544 -0.0434863 0.0112715  0.0185611 -0.0525226 0.0133839  0.0198717 -0.0621677 0.0156732  0.0209968 -0.0723593 0.0181317  0.0219412 -0.0830437 0.0207427  0.0227162 -0.0941654 0.0234983  0.0233272 -0.105677 0.0263789  0.0237868 -0.11753 0.0293765  0.0241015 -0.12968 0.0324743  0.0242839 -0.142083 0.0356624  0.0243409 -0.154703 0.038929  0.0242856 -0.1675 0.0422661  0.0241244 -0.180444 0.0456603  0.0238709 -0.193497 0.0491042  0.0235319 -0.206636 0.0525875  0.0231199 -0.219831 0.0561073  0.0226409 -0.23306 0.0596507  0.0221069 -0.246302 0.0632167  0.0215237 -0.25954 0.0667937  0.0209017 -0.272755 0.0703821  0.0202475 -0.285937 0.0739739  0.0195701 -0.299072 0.0775673  0.0188746 -0.312155 0.0811553  0.018173 -0.325175 0.0847385  0.0174737 -0.338128 0.0883076  0 0 0  0.00122675 -0.00428057 0.00141358  0.00407165 -0.00796127 0.00266933  0.00811613 -0.0117765 0.0043714  0.0119057 -0.0165227 0.00572181  0.0153948 -0.02224 0.00706387  0.0185667 -0.0288917 0.00854373  0.0214148 -0.0364093 0.0102186  0.0239457 -0.0447137 0.0121074  0.026196 -0.0537055 0.0141928  0.0281841 -0.0633114 0.0164547  0.0299215 -0.0734695 0.018893  0.0314225 -0.0841208 0.0214798  0.0326968 -0.0952127 0.0242155  0.0337583 -0.106694 0.0270717  0.0346179 -0.118518 0.0300522  0.0352898 -0.130638 0.0331285  0.0357847 -0.143015 0.0363004  0.0361173 -0.155606 0.039546  0.0362988 -0.168378 0.0428679  0.0363429 -0.181294 0.046243  0.0362606 -0.194324 0.049674  0.0360663 -0.207439 0.0531409  0.0357709 -0.220613 0.0566487  0.0353875 -0.233821 0.0601776  0.0349264 -0.247046 0.0637348  0.0344002 -0.260266 0.0672991  0.0338182 -0.273468 0.0708792  0.0331929 -0.286639 0.0744593  0.0325322 -0.299768 0.078048  0.0318477 -0.312847 0.0816259  0.031148 -0.325872 0.0852015  0.0304456 -0.338839 0.0887549  0 0 0  0.0013358 -0.0057205 0.00179148  0.00469595 -0.0102576 0.00305176  0.0100839 -0.0140088 0.0051291  0.0150756 -0.0186821 0.00656414  0.0196881 -0.0242915 0.00789618  0.0239035 -0.0308218 0.00933433  0.0277138 -0.0382165 0.0109661  0.0311238 -0.0464058 0.0128112  0.0341491 -0.0553101 0.0148737  0.0368282 -0.0648417 0.0171227  0.0391867 -0.0749305 0.0195453  0.0412408 -0.0855193 0.0221224  0.0430121 -0.0965495 0.0248432  0.0445133 -0.107973 0.0276895  0.0457648 -0.119741 0.0306568  0.0467794 -0.131809 0.0337234  0.0475764 -0.144132 0.0368817  0.0481682 -0.156675 0.0401182  0.0485747 -0.169398 0.0434268  0.0488071 -0.182269 0.0467923  0.0488832 -0.195256 0.0502112  0.048816 -0.208331 0.0536704  0.048625 -0.221466 0.0571675  0.0483203 -0.234642 0.060689  0.047919 -0.247835 0.064235  0.0474329 -0.26103 0.0677938  0.0468791 -0.274209 0.071367  0.0462675 -0.287362 0.0749443  0.0456126 -0.300478 0.078526  0.0449262 -0.31355 0.0821018  0.0442226 -0.326573 0.0856717  0.0435095 -0.339553 0.0892193  0 0 0  -0.00364361 -0.00449594 -0.00105691  -0.00731491 -0.00849456 -0.00134325  -0.0109302 -0.0128403 -0.00107741  -0.014441 -0.0178255 -0.000354528  -0.0178105 -0.0235794 0.000774384  -0.0210351 -0.0300964 0.00223136  -0.0241119 -0.0373501 0.00397825  -0.0270442 -0.0453031 0.00597119  -0.029832 -0.053908 0.00818992  -0.0324792 -0.0631169 0.0106056  -0.034986 -0.0728775 0.0132043  -0.0373582 -0.0831427 0.0159559  -0.0395962 -0.0938605 0.0188549  -0.0417062 -0.104988 0.0218782  -0.0436891 -0.116478 0.0250196  -0.0455511 -0.128287 0.0282552  -0.0472949 -0.140374 0.0315812  -0.0489271 -0.152701 0.0349779  -0.0504515 -0.16523 0.0384419  -0.0518744 -0.177929 0.0419536  -0.0532002 -0.190763 0.0455139  -0.0544362 -0.203705 0.0491049  -0.0555873 -0.216725 0.0527229  -0.0566614 -0.229802 0.0563552  -0.057663 -0.24291 0.060004  -0.0586011 -0.256032 0.0636578  -0.0594814 -0.269148 0.0673168  -0.0603137 -0.282244 0.0709689  -0.061106 -0.295306 0.074621  -0.0618699 -0.308329 0.0782619  -0.0626132 -0.321304 0.0818992  -0.0633457 -0.334232 0.08553  0 0 0  -0.000656337 -0.00194813 -0.000650406  -0.00365211 -0.00630098 -0.000668526  -0.00656232 -0.010897 -0.000303984  -0.00935444 -0.0160782 0.000458241  -0.012 -0.0219962 0.00160694  -0.0145144 -0.0286639 0.00306916  -0.0169073 -0.0360628 0.00481462  -0.0191907 -0.044159 0.00679731  -0.0213692 -0.052905 0.00900602  -0.0234494 -0.0622524 0.0114043  -0.0254335 -0.0721483 0.0139854  -0.0273271 -0.0825446 0.016717  -0.0291306 -0.0933884 0.0195971  -0.0308486 -0.104637 0.0225976  -0.0324817 -0.11624 0.0257204  -0.0340346 -0.128158 0.0289333  -0.0355072 -0.140345 0.0322413  -0.0369041 -0.152765 0.0356162  -0.0382271 -0.165381 0.0390618  -0.0394807 -0.178158 0.0425532  -0.0406661 -0.191064 0.0460958  -0.0417895 -0.204071 0.0496674  -0.0428512 -0.217149 0.0532708  -0.0438578 -0.230277 0.0568871  -0.0448115 -0.24343 0.0605257  -0.0457184 -0.256591 0.0641656  -0.0465808 -0.269739 0.067816  -0.0474067 -0.282863 0.0714586  -0.0481982 -0.295946 0.0751061  -0.048965 -0.308984 0.0787425  -0.049711 -0.321966 0.0823817  -0.0504444 -0.334896 0.0860126  0 0 0  -0.000290848 -0.00165708 -0.00027895  -0.00110361 -0.00460999 -0.00019908  -0.00313854 -0.00941435 0.00032258  -0.00509277 -0.0147772 0.00116396  -0.006917 -0.0208384 0.00235939  -0.00864351 -0.0276332 0.00384855  -0.0102908 -0.0351534 0.00560188  -0.0118735 -0.0433668 0.00758314  -0.0133996 -0.0522277 0.00978327  -0.0148761 -0.0616874 0.0121696  -0.0163045 -0.0716918 0.0147328  -0.0176897 -0.0821929 0.0174499  -0.0190313 -0.0931372 0.0203094  -0.0203323 -0.104481 0.0232935  -0.021592 -0.116175 0.0263956  -0.0228119 -0.128177 0.0295916  -0.0239916 -0.140444 0.0328794  -0.0251324 -0.152938 0.0362384  -0.0262334 -0.165621 0.039665  -0.0272973 -0.178461 0.0431414  -0.0283234 -0.191423 0.0466669  -0.029314 -0.204481 0.0502243  -0.0302684 -0.217605 0.053812  -0.0311899 -0.230773 0.0574174  -0.032078 -0.243961 0.061043  -0.0329375 -0.257152 0.0646749  -0.0337675 -0.270328 0.0683138  -0.0345726 -0.283474 0.0719516  -0.0353529 -0.296576 0.0755906  -0.0361135 -0.309627 0.0792232  -0.0368567 -0.322618 0.082855  -0.0375888 -0.335551 0.0864847  0 0 0  1.84774e-05 -0.00165462 -2.38419e-07  -7.27773e-05 -0.00444567 0.0002563  -0.000403196 -0.00848758 0.000866652  -0.00142694 -0.0139965 0.00178003  -0.00234938 -0.0201532 0.00304031  -0.00322723 -0.0270348 0.00456595  -0.00408381 -0.0346433 0.00633764  -0.00492978 -0.0429434 0.00832272  -0.00577354 -0.0518912 0.0105164  -0.00661933 -0.0614341 0.0128927  -0.00746989 -0.0715213 0.0154426  -0.00832546 -0.0821002 0.0181437  -0.00918663 -0.0931205 0.0209887  -0.0100521 -0.104535 0.0239565  -0.0109214 -0.116296 0.0270417  -0.0117921 -0.128361 0.0302219  -0.0126631 -0.140687 0.0334933  -0.0135317 -0.153235 0.0368373  -0.0143971 -0.165969 0.0402482  -0.0152564 -0.178853 0.0437117  -0.0161088 -0.191857 0.0472238  -0.0169525 -0.204951 0.0507679  -0.0177865 -0.218108 0.0543439  -0.0186093 -0.231305 0.0579383  -0.0194204 -0.24452 0.0615542  -0.0202193 -0.257732 0.0651765  -0.0210061 -0.270928 0.0688078  -0.0217798 -0.284091 0.0724378  -0.022541 -0.297208 0.0760689  -0.023288 -0.31027 0.079694  -0.0240233 -0.32327 0.0833192  -0.024749 -0.336207 0.0869393  0 0 0  0.000312164 -0.00190404 0.000234604  0.000883341 -0.00472474 0.00066328  0.00146425 -0.00865072 0.00138974  0.00180501 -0.0138006 0.00233984  0.00188017 -0.0199608 0.0036819  0.00190246 -0.0268796 0.00524998  0.00187463 -0.0345363 0.00703645  0.00179231 -0.0428921 0.00902772  0.00165415 -0.0518966 0.0112147  0.00145733 -0.0614967 0.0135822  0.00120223 -0.071639 0.0161209  0.000890136 -0.0822715 0.0188096  0.000523329 -0.0933425 0.0216396  0.000104427 -0.104805 0.0245957  -0.000362635 -0.116611 0.0276647  -0.000873804 -0.128718 0.0308323  -0.00142574 -0.141082 0.0340891  -0.00201344 -0.153665 0.03742  -0.00263309 -0.166431 0.0408173  -0.00328016 -0.179345 0.0442691  -0.00394988 -0.192375 0.0477681  -0.00463986 -0.205493 0.0513024  -0.00534511 -0.218671 0.0548673  -0.00606251 -0.231885 0.0584528  -0.00678897 -0.245116 0.0620584  -0.00752211 -0.258342 0.0656734  -0.00825834 -0.27155 0.0692966  -0.00899577 -0.284724 0.0729191  -0.00973105 -0.297851 0.0765424  -0.010462 -0.310922 0.0801613  -0.0111861 -0.323931 0.0837765  -0.0119019 -0.336872 0.0873866  0 0 0  0.000599787 -0.00240672 0.000435114  0.00181976 -0.00540304 0.00102091  0.00326794 -0.0093174 0.00187778  0.00469381 -0.0143132 0.00298405  0.00591886 -0.020283 0.00431085  0.00688958 -0.0271816 0.00590396  0.00772196 -0.0348464 0.00770259  0.00842893 -0.0432224 0.00969243  0.00901353 -0.0522544 0.0118763  0.00948119 -0.0618828 0.0142341  0.00983238 -0.0720544 0.0167634  0.0100744 -0.0827143 0.0194409  0.0102092 -0.093812 0.0222628  0.0102447 -0.105299 0.0252054  0.0101845 -0.117128 0.0282655  0.0100381 -0.129255 0.0314198  0.00980878 -0.141639 0.0346656  0.0095067 -0.154238 0.0379834  0.00913501 -0.167019 0.0413721  0.00870395 -0.179946 0.044812  0.00821781 -0.192988 0.0483022  0.00768471 -0.206114 0.051825  0.0071094 -0.2193 0.055383  0.00649977 -0.232521 0.0589595  0.00585842 -0.245758 0.0625575  0.00519443 -0.258989 0.066164  0.00450945 -0.272201 0.069782  0.00381112 -0.285378 0.0733955  0.00310183 -0.29851 0.0770133  0.00238848 -0.311588 0.0806215  0.00167513 -0.324605 0.0842297  0.00096941 -0.337554 0.087822  0 0 0  0.00088805 -0.00319427 0.000611305  0.00277361 -0.00650924 0.00132465  0.00510484 -0.0104815 0.00229859  0.00759959 -0.0153641 0.00356174  0.00986916 -0.0212088 0.00494289  0.0118735 -0.0279769 0.00651455  0.0136005 -0.0356023 0.0083096  0.0151184 -0.0439619 0.0102987  0.0164438 -0.0529863 0.0124762  0.017586 -0.0626138 0.0148313  0.0185534 -0.0727847 0.0173531  0.0193528 -0.0834462 0.0200262  0.0199937 -0.0945436 0.0228403  0.0204834 -0.106031 0.0257776  0.0208318 -0.117859 0.0288286  0.0210474 -0.129985 0.0319772  0.0211408 -0.142365 0.035213  0.0211196 -0.154962 0.0385253  0.0209947 -0.167739 0.041904  0.0207751 -0.180661 0.0453382  0.0204706 -0.193698 0.0488193  0.0200891 -0.20682 0.0523374  0.0196404 -0.219999 0.0558882  0.0191331 -0.233215 0.0594606  0.0185754 -0.246446 0.0630524  0.0179749 -0.259673 0.066653  0.0173395 -0.272881 0.0702624  0.0166764 -0.286056 0.0738728  0.0159926 -0.299186 0.0774827  0.0152948 -0.312267 0.0810862  0.0145903 -0.32529 0.0846813  0.0138888 -0.338251 0.0882623  0 0 0  0.00114977 -0.0042991 0.000760317  0.00371343 -0.00810552 0.00155592  0.00697824 -0.0122043 0.00261045  0.0106061 -0.0169655 0.00403738  0.0139453 -0.0226837 0.00547957  0.0169583 -0.0293301 0.00706077  0.0196399 -0.0368416 0.0088346  0.0219958 -0.0451403 0.0108178  0.0240763 -0.0541208 0.012996  0.0259029 -0.0637119 0.0153491  0.0274875 -0.0738522 0.0178745  0.0288465 -0.0844842 0.0205462  0.0299885 -0.0955552 0.0233617  0.0309298 -0.107015 0.0262952  0.0316786 -0.118818 0.0293472  0.0322511 -0.130918 0.0324922  0.0326567 -0.143274 0.0357287  0.0329111 -0.155846 0.0390353  0.0330224 -0.168599 0.0424135  0.0330069 -0.181498 0.0458422  0.0328727 -0.194512 0.0493221  0.032635 -0.207612 0.0528347  0.0323024 -0.220773 0.0563838  0.0318897 -0.23397 0.0599511  0.031404 -0.247185 0.0635414  0.0308602 -0.260396 0.0671368  0.0302646 -0.273592 0.0707436  0.0296299 -0.286757 0.0743468  0.0289636 -0.299882 0.0779555  0.0282769 -0.312959 0.0815513  0.0275757 -0.325986 0.0851414  0.0268741 -0.33896 0.0887098  0 0 0  0.00131378 -0.00568038 0.00094986  0.0044848 -0.0102359 0.00172949  0.00871342 -0.0145962 0.00277042  0.0136598 -0.0191815 0.00439692  0.0181783 -0.0247471 0.00589561  0.0222654 -0.0312485 0.00748014  0.025929 -0.038622 0.0092485  0.0291806 -0.0467929 0.0112224  0.0320419 -0.0556828 0.0134075  0.0345613 -0.0651994 0.0157743  0.0367663 -0.0752718 0.0183079  0.0386776 -0.0858428 0.0209918  0.0403147 -0.0968548 0.0238128  0.0416939 -0.10826 0.0267553  0.0428327 -0.120009 0.0298119  0.0437467 -0.132059 0.0329642  0.0444527 -0.144365 0.036202  0.0449653 -0.156891 0.0395145  0.0453002 -0.169598 0.042892  0.0454717 -0.182455 0.0463235  0.0454953 -0.195428 0.0498028  0.0453849 -0.208491 0.0533185  0.0451555 -0.221615 0.056865  0.044821 -0.234781 0.0604329  0.0443957 -0.247966 0.0640197  0.0438924 -0.261153 0.0676155  0.0433247 -0.274327 0.0712199  0.0427041 -0.287476 0.074825  0.0420444 -0.300588 0.0784299  0.0413563 -0.313659 0.0820255  0.0406518 -0.326685 0.0856104  0.0399413 -0.33967 0.0891743  0 0 0  -0.00388269 -0.00491464 -0.000223875  -0.00777854 -0.00911378 -0.000179291  -0.0116182 -0.0135569 0.000206709  -0.0153587 -0.0185906 0.000942945  -0.0189696 -0.0243348 0.00202227  -0.0224305 -0.0308327 0.00340843  -0.0257372 -0.0380607 0.00507307  -0.0288846 -0.045983 0.00698304  -0.0318763 -0.054555 0.00911641  -0.0347105 -0.0637277 0.0114505  -0.0373924 -0.0734511 0.0139678  -0.0399221 -0.0836779 0.0166438  -0.0423063 -0.0943585 0.0194674  -0.0445458 -0.105448 0.0224214  -0.0466484 -0.116901 0.0254936  -0.0486145 -0.128675 0.0286667  -0.0504529 -0.140728 0.0319319  -0.0521662 -0.153023 0.0352743  -0.0537636 -0.165523 0.038686  -0.0552471 -0.178192 0.0421519  -0.0566278 -0.191001 0.0456676  -0.0579073 -0.203919 0.0492213  -0.0590971 -0.216918 0.0528038  -0.0602012 -0.229976 0.056407  -0.0612295 -0.243067 0.0600288  -0.062187 -0.256175 0.0636613  -0.0630846 -0.26928 0.067301  -0.0639274 -0.282367 0.0709412  -0.0647287 -0.295423 0.0745847  -0.0654967 -0.308441 0.078222  -0.066246 -0.321414 0.0818558  -0.0669823 -0.334343 0.0854845  0 0 0  -0.000737697 -0.00220472 1.66893e-06  -0.00399479 -0.00680029 0.000214815  -0.00714958 -0.0115011 0.000684261  -0.010188 -0.0167311 0.00146365  -0.0130981 -0.0226464 0.00256491  -0.0158674 -0.029301 0.00396514  -0.0185049 -0.0366801 0.00564051  -0.0210146 -0.0447513 0.00755572  -0.023405 -0.0534698 0.00969601  -0.0256788 -0.0627869 0.0120304  -0.0278426 -0.0726514 0.0145478  -0.0298975 -0.083015 0.017221  -0.0318497 -0.0938273 0.0200424  -0.0336999 -0.105043 0.0229897  -0.0354536 -0.116615 0.0260596  -0.0371114 -0.128501 0.0292258  -0.0386791 -0.14066 0.0324872  -0.0401578 -0.153053 0.0358207  -0.0415533 -0.165642 0.0392268  -0.0428677 -0.178395 0.0426841  -0.0441067 -0.191279 0.0461936  -0.0452731 -0.204265 0.0497377  -0.0463727 -0.217325 0.0533144  -0.0474086 -0.230436 0.0569096  -0.0483882 -0.243576 0.0605273  -0.0493135 -0.256724 0.0641525  -0.0501921 -0.269863 0.0677886  -0.0510273 -0.28298 0.0714238  -0.0518279 -0.296058 0.0750639  -0.0525994 -0.309093 0.0786979  -0.0533514 -0.322076 0.082334  -0.0540884 -0.335008 0.0859637  0 0 0  -0.000367299 -0.00186476 0.000109434  -0.00135137 -0.00495912 0.000415564  -0.00364652 -0.00987312 0.000998735  -0.00585917 -0.0152865 0.00184774  -0.00797004 -0.0213597 0.00299072  -0.00996858 -0.0281554 0.0044241  -0.0118711 -0.0356666 0.00612187  -0.0136871 -0.0438642 0.00805354  -0.0154296 -0.0527061 0.0102053  -0.017102 -0.062143 0.0125487  -0.0187117 -0.0721235 0.0150685  -0.0202593 -0.0825985 0.0177469  -0.0217505 -0.0935178 0.0205677  -0.0231838 -0.104835 0.0235167  -0.024564 -0.116503 0.0265841  -0.0258892 -0.12848 0.0297499  -0.0271645 -0.140724 0.0330071  -0.0283864 -0.153194 0.0363395  -0.0295599 -0.165856 0.0397403  -0.0306842 -0.178675 0.0431955  -0.0317643 -0.191619 0.0466995  -0.0327976 -0.204659 0.05024  -0.0337899 -0.217768 0.0538104  -0.0347402 -0.230922 0.0574033  -0.0356543 -0.244099 0.0610161  -0.0365312 -0.25728 0.0646398  -0.0373771 -0.270448 0.0682702  -0.0381913 -0.283589 0.0719047  -0.038981 -0.296688 0.0755396  -0.039746 -0.309737 0.0791724  -0.0404954 -0.32273 0.0828028  -0.0412307 -0.335667 0.0864329  0 0 0  -5.9925e-05 -0.00181419 0.000152111  -0.000325754 -0.00471345 0.000522614  -0.000880063 -0.00880516 0.0011847  -0.00214845 -0.0143352 0.00211573  -0.00337774 -0.0205279 0.00331545  -0.0045405 -0.027431 0.00479245  -0.00565702 -0.035044 0.00652552  -0.00673878 -0.0433404 0.00848126  -0.00779831 -0.0522778 0.0106502  -0.00883996 -0.0618077 0.0130055  -0.00987005 -0.0718781 0.0155356  -0.0108875 -0.0824391 0.0182192  -0.0118965 -0.0934404 0.0210474  -0.012894 -0.104835 0.0239997  -0.0138822 -0.116577 0.0270698  -0.0148581 -0.128622 0.030237  -0.0158231 -0.140929 0.0334957  -0.0167739 -0.153459 0.0368285  -0.0177114 -0.166176 0.0402291  -0.0186322 -0.179044 0.0436835  -0.0195379 -0.192033 0.0471878  -0.0204258 -0.205114 0.0507255  -0.0212972 -0.218259 0.0542955  -0.0221498 -0.231445 0.0578859  -0.0229859 -0.244649 0.0614974  -0.0238032 -0.257855 0.0651183  -0.0246053 -0.271044 0.0687482  -0.0253894 -0.284203 0.0723782  -0.026159 -0.297318 0.0760107  -0.026912 -0.31038 0.079638  -0.0276527 -0.323383 0.0832651  -0.0283821 -0.336325 0.0868878  0 0 0  0.000228673 -0.00200301 0.000171661  0.000614077 -0.00490159 0.000590563  0.000948578 -0.00886402 0.00130534  0.00111473 -0.0139342 0.00231695  0.0008412 -0.0201938 0.00356674  0.000573277 -0.0271574 0.00509787  0.000288069 -0.0348324 0.00686789  -2.65837e-05 -0.0431955 0.00885391  -0.000376463 -0.0521988 0.0110421  -0.000766039 -0.061794 0.0134134  -0.00119686 -0.0719267 0.0159574  -0.00166881 -0.0825486 0.018651  -0.00218058 -0.0936065 0.0214875  -0.00273037 -0.105056 0.0244491  -0.00331485 -0.116847 0.0275242  -0.00393105 -0.12894 0.0306966  -0.00457597 -0.14129 0.0339594  -0.00524569 -0.153861 0.0372951  -0.00593662 -0.166613 0.0406983  -0.00664592 -0.179515 0.0441549  -0.0073688 -0.192533 0.0476592  -0.00810313 -0.205641 0.051199  -0.00884557 -0.218809 0.054769  -0.00959349 -0.232016 0.0583596  -0.0103445 -0.245238 0.0619707  -0.0110962 -0.25846 0.0655913  -0.011847 -0.271662 0.0692201  -0.0125952 -0.284833 0.0728478  -0.013339 -0.297959 0.0764766  -0.0140767 -0.311032 0.0801003  -0.0148058 -0.324044 0.0837212  -0.0155263 -0.336992 0.0873353  0 0 0  0.000518471 -0.00243801 0.00017786  0.00154513 -0.00548589 0.000627279  0.00272971 -0.00943369 0.00139451  0.00387961 -0.0143936 0.00246263  0.00482756 -0.0204092 0.00376511  0.00552386 -0.0273594 0.00535536  0.0061096 -0.0350518 0.00716591  0.00659227 -0.0434428 0.00917935  0.00697219 -0.0524809 0.0113907  0.0072521 -0.0621114 0.0137789  0.00743246 -0.0722799 0.0163386  0.00751734 -0.0829353 0.0190458  0.00751042 -0.0940253 0.0218964  0.00741649 -0.105504 0.0248666  0.00724065 -0.117324 0.0279529  0.00698924 -0.129442 0.0311317  0.00666857 -0.141815 0.0344017  0.00628376 -0.154406 0.0377414  0.00584173 -0.167177 0.0411513  0.00534797 -0.180095 0.044611  0.00480914 -0.193128 0.0481195  0.00423121 -0.206248 0.0516605  0.00361896 -0.219426 0.0552342  0.00297809 -0.232642 0.058826  0.00231314 -0.245872 0.0624385  0.00162888 -0.2591 0.0660579  0.000929832 -0.272309 0.0696874  0.000220299 -0.285485 0.0733118  -0.000496387 -0.298616 0.0769393  -0.0012157 -0.311695 0.0805571  -0.00193286 -0.324715 0.0841739  -0.00264382 -0.337672 0.087774  0 0 0  0.000811145 -0.00315464 0.000180483  0.00249812 -0.00649267 0.000639915  0.0045456 -0.0105029 0.00144172  0.00666934 -0.0154035 0.00256228  0.00868607 -0.0212767 0.00395799  0.010461 -0.0280727 0.0055697  0.011959 -0.0357291 0.00741124  0.0132654 -0.0441086 0.00945354  0.0143949 -0.0531452 0.0116863  0.0153556 -0.0627806 0.0140979  0.0161564 -0.0729542 0.0166752  0.0168025 -0.0836164 0.0194018  0.0173038 -0.0947118 0.0222673  0.0176662 -0.106196 0.0252526  0.0179 -0.118019 0.0283499  0.018012 -0.13014 0.0315416  0.0180135 -0.142515 0.0348189  0.0179107 -0.155107 0.0381696  0.017715 -0.167876 0.0415854  0.0174327 -0.180794 0.0450523  0.0170751 -0.193824 0.0485654  0.0166485 -0.206942 0.0521128  0.0161624 -0.220117 0.0556903  0.015624 -0.23333 0.0592866  0.0150421 -0.246557 0.0629017  0.0144215 -0.259782 0.0665216  0.013772 -0.272988 0.0701497  0.0130975 -0.286162 0.0737755  0.0124061 -0.299293 0.0774  0.0117028 -0.312374 0.0810158  0.0109944 -0.325401 0.0846224  0.0102892 -0.338369 0.0882142  0 0 0  0.00108896 -0.00418997 0.000169039  0.00346449 -0.00798005 0.000611067  0.00642362 -0.012125 0.00141597  0.00956917 -0.0169907 0.0025773  0.0126828 -0.0227193 0.00406671  0.0154938 -0.0293775 0.00572753  0.0179779 -0.0369037 0.00758696  0.0201358 -0.0452228 0.00965571  0.0220284 -0.0542185 0.0119174  0.0236787 -0.0638218 0.0143535  0.0251002 -0.073969 0.016959  0.0263072 -0.0846059 0.0197072  0.0273105 -0.0956792 0.0225956  0.0281243 -0.10714 0.0255978  0.0287589 -0.118942 0.0287144  0.0292277 -0.131041 0.0319207  0.0295413 -0.143395 0.0352151  0.0297129 -0.155965 0.0385759  0.0297523 -0.168715 0.0420051  0.0296729 -0.181611 0.0454798  0.0294852 -0.194623 0.0490036  0.0292015 -0.207721 0.0525565  0.0288312 -0.220879 0.0561428  0.0283864 -0.234075 0.0597432  0.0278761 -0.247288 0.0633636  0.0273118 -0.2605 0.0669854  0.0267015 -0.273695 0.070616  0.0260553 -0.28686 0.0742397  0.0253818 -0.299985 0.0778663  0.0246897 -0.313064 0.0814774  0.0239863 -0.326094 0.0850813  0.0232811 -0.339074 0.0886614  0 0 0  0.00128135 -0.00552934 0.000155449  0.00432298 -0.0100052 0.000522614  0.00825557 -0.0143968 0.00128031  0.0125243 -0.0192552 0.00245285  0.0168667 -0.0247888 0.00406003  0.0207841 -0.0312769 0.00577331  0.0242714 -0.0386498 0.0076673  0.0273436 -0.0468292 0.00976253  0.0300213 -0.0557335 0.0120609  0.0323657 -0.0652632 0.0145366  0.0344064 -0.0753455 0.0171742  0.0361643 -0.0859244 0.0199559  0.0376605 -0.0969418 0.0228703  0.0389099 -0.108352 0.0259001  0.0399321 -0.120103 0.0290396  0.04074 -0.132155 0.0322692  0.0413516 -0.144462 0.0355802  0.041779 -0.156989 0.0389605  0.0420406 -0.169696 0.042402  0.0421469 -0.182553 0.0458922  0.0421157 -0.195525 0.0494266  0.0419581 -0.208588 0.0529923  0.0416896 -0.221713 0.0565851  0.0413218 -0.234879 0.0601943  0.0408707 -0.248064 0.0638185  0.0403461 -0.261253 0.0674462  0.0397632 -0.274427 0.0710795  0.0391314 -0.287577 0.0747092  0.0384638 -0.300691 0.0783343  0.0377715 -0.313765 0.0819466  0.0370657 -0.326794 0.0855467  0.0363541 -0.339784 0.089123  0 0 0  -0.00410053 -0.0051519 0.000730991  -0.00822552 -0.00945922 0.00112534  -0.0122926 -0.0139489 0.0016377  -0.0162643 -0.0190015 0.00238895  -0.0201075 -0.0247513 0.00342631  -0.0238029 -0.0312367 0.00473666  -0.0273356 -0.0384521 0.00631452  -0.0307008 -0.0463607 0.00813079  -0.0338951 -0.0549188 0.0101721  -0.0369203 -0.0640767 0.0124128  -0.0397764 -0.0737842 0.0148418  -0.0424683 -0.0839935 0.0174301  -0.0449983 -0.0946566 0.0201721  -0.0473722 -0.105729 0.0230448  -0.0495931 -0.117163 0.0260429  -0.0516676 -0.128919 0.0291433  -0.0536003 -0.140956 0.0323427  -0.0553989 -0.153234 0.0356209  -0.0570683 -0.165718 0.0389764  -0.0586169 -0.178372 0.0423872  -0.0600505 -0.191167 0.0458562  -0.0613782 -0.204073 0.0493639  -0.0626056 -0.217062 0.0529089  -0.0637431 -0.23011 0.0564773  -0.0647972 -0.243193 0.0600703  -0.0657771 -0.256294 0.0636756  -0.0666904 -0.269393 0.067296  -0.0675468 -0.282476 0.070919  -0.0683548 -0.295529 0.074554  -0.0691278 -0.308544 0.078186  -0.0698783 -0.321515 0.0818212  -0.0706184 -0.334442 0.085449  0 0 0  -0.00081221 -0.00231259 0.000749588  -0.00433542 -0.0070533 0.00122046  -0.00773841 -0.011806 0.00180244  -0.0110222 -0.017053 0.00260258  -0.0141764 -0.0229734 0.00367165  -0.0171924 -0.0296177 0.00500703  -0.0200661 -0.0369875 0.00660944  -0.0228021 -0.0450496 0.00844598  -0.0254017 -0.0537591 0.0105112  -0.027872 -0.0630668 0.0127697  -0.0302145 -0.0729207 0.0152166  -0.0324353 -0.0832725 0.0178192  -0.0345359 -0.0940723 0.020576  -0.0365227 -0.105275 0.0234592  -0.0383967 -0.116834 0.0264709  -0.0401647 -0.128707 0.0295792  -0.0418277 -0.140854 0.0327892  -0.0433927 -0.153234 0.0360727  -0.0448613 -0.165811 0.0394349  -0.046241 -0.178553 0.0428495  -0.0475335 -0.191426 0.0463235  -0.048748 -0.204403 0.0498319  -0.0498855 -0.217455 0.0533795  -0.0509548 -0.230559 0.0569475  -0.0519595 -0.243692 0.0605438  -0.052907 -0.256835 0.0641484  -0.0538008 -0.26997 0.0677702  -0.0546503 -0.283085 0.0713921  -0.0554583 -0.296162 0.0750258  -0.056236 -0.309196 0.0786555  -0.0569906 -0.322178 0.0822926  -0.0577331 -0.335112 0.0859203  0 0 0  -0.000434965 -0.00194788 0.000579596  -0.00158684 -0.00508249 0.00115705  -0.00415716 -0.0100649 0.00179839  -0.00663373 -0.0154976 0.00265312  -0.00900221 -0.0215777 0.00376725  -0.0112621 -0.0283698 0.00514364  -0.0134112 -0.0358782 0.00678325  -0.0154608 -0.0440736 0.00865459  -0.0174177 -0.0529131 0.0107515  -0.0192896 -0.0623467 0.0130401  -0.0210803 -0.0723227 0.0155101  -0.0227953 -0.0827922 0.0181379  -0.0244358 -0.0937048 0.0209141  -0.0260067 -0.105015 0.0238173  -0.027508 -0.116676 0.0268445  -0.0289435 -0.128644 0.0299695  -0.0303137 -0.140879 0.0331922  -0.0316222 -0.153343 0.036489  -0.0328693 -0.165996 0.0398598  -0.0340595 -0.178808 0.0432854  -0.0351927 -0.191745 0.0467653  -0.0362737 -0.204779 0.0502813  -0.0373034 -0.217882 0.053833  -0.0382869 -0.231031 0.0574069  -0.0392261 -0.244204 0.0610061  -0.0401251 -0.257383 0.0646157  -0.0409858 -0.270548 0.0682378  -0.0418139 -0.283688 0.0718634  -0.0426109 -0.296786 0.0754957  -0.0433834 -0.309837 0.0791252  -0.0441363 -0.322832 0.0827577  -0.0448775 -0.335771 0.0863869  0 0 0  -0.000129469 -0.00186589 0.000379562  -0.000558376 -0.00477862 0.000910759  -0.00133562 -0.00887212 0.00164294  -0.00288081 -0.0144207 0.00256419  -0.00437927 -0.020624 0.00373602  -0.00581646 -0.0275339 0.00516295  -0.00718898 -0.0351553 0.00685167  -0.0085091 -0.0434589 0.00876737  -0.00978553 -0.0524024 0.0109031  -0.0110279 -0.061937 0.0132265  -0.0122387 -0.0720097 0.0157297  -0.0134233 -0.082572 0.0183852  -0.0145811 -0.0935726 0.0211899  -0.0157157 -0.104967 0.0241168  -0.0168244 -0.116706 0.0271661  -0.0179104 -0.128748 0.0303113  -0.0189705 -0.141052 0.0335522  -0.0200074 -0.153579 0.0368652  -0.0210171 -0.166291 0.0402513  -0.0220027 -0.179156 0.04369  -0.0229619 -0.192141 0.0471823  -0.0238972 -0.205219 0.0507071  -0.0248055 -0.218361 0.0542688  -0.025691 -0.231545 0.0578492  -0.0265512 -0.244747 0.061456  -0.0273907 -0.257953 0.0650694  -0.0282071 -0.27114 0.0686977  -0.0290046 -0.2843 0.072324  -0.0297818 -0.297416 0.0759578  -0.0305431 -0.310481 0.0795848  -0.0312877 -0.323486 0.083216  -0.0320234 -0.336433 0.0868402  0 0 0  0.000151932 -0.00201306 0.000171661  0.000368446 -0.00490206 0.000625849  0.000478446 -0.00884926 0.00136018  0.000391543 -0.0138997 0.0023694  -0.000148594 -0.020159 0.00360465  -0.000701547 -0.0271425 0.00509548  -0.00124943 -0.0348403 0.0068388  -0.00180382 -0.0432208 0.00880766  -0.00237119 -0.0522396 0.0109868  -0.00295961 -0.0618469 0.0133517  -0.00357091 -0.0719901 0.0158925  -0.00420773 -0.0826195 0.0185823  -0.00486779 -0.0936835 0.0214174  -0.00555241 -0.105137 0.0243759  -0.00625706 -0.116932 0.0274498  -0.00698125 -0.129027 0.0306201  -0.00772142 -0.141378 0.0338821  -0.00847578 -0.15395 0.0372162  -0.00923944 -0.166702 0.0406191  -0.0100121 -0.179604 0.0440755  -0.0107892 -0.192622 0.04758  -0.0115695 -0.20573 0.05112  -0.0123501 -0.218898 0.0546918  -0.0131299 -0.232105 0.0582831  -0.0139058 -0.245328 0.0618968  -0.0146782 -0.258551 0.0655191  -0.0154438 -0.271753 0.0691512  -0.0162039 -0.284927 0.0727818  -0.0169561 -0.298054 0.0764151  -0.0177007 -0.311131 0.0800426  -0.0184348 -0.324146 0.0836692  -0.019161 -0.3371 0.0872874  0 0 0  0.00043714 -0.00238317 -2.67029e-05  0.00128642 -0.00539339 0.000334978  0.00223711 -0.00931519 0.00105715  0.0031203 -0.0142546 0.00209546  0.00383925 -0.0202212 0.00341773  0.00423151 -0.0272248 0.00496697  0.00455326 -0.034955 0.00677109  0.00479901 -0.043375 0.00879431  0.00496423 -0.0524381 0.0110219  0.00504887 -0.0620885 0.0134306  0.00505114 -0.0722755 0.0160115  0.00497437 -0.0829448 0.0187402  0.00482047 -0.0940481 0.0216105  0.00459433 -0.105537 0.024601  0.00429964 -0.117366 0.0277059  0.00394225 -0.12949 0.0309031  0.00352645 -0.14187 0.034189  0.00305867 -0.154466 0.0375454  0.00254369 -0.167241 0.0409698  0.00198746 -0.180162 0.0444446  0.00139403 -0.193199 0.0479662  0.00077033 -0.206322 0.0515203  0.000119925 -0.219504 0.0551054  -0.000552177 -0.232721 0.0587091  -0.00124264 -0.245955 0.0623317  -0.00194621 -0.259186 0.0659618  -0.00266027 -0.272397 0.0696001  -0.00338054 -0.285575 0.0732336  -0.00410557 -0.29871 0.0768688  -0.00483108 -0.311792 0.0804946  -0.0055542 -0.324818 0.0841179  -0.00626969 -0.33778 0.0877266  0 0 0  0.000735462 -0.00301647 -0.000201941  0.00224349 -0.00628275 5.67436e-05  0.00404739 -0.010262 0.000743389  0.00588936 -0.0151511 0.00179505  0.00762272 -0.0210104 0.00316691  0.00913316 -0.0278336 0.00478673  0.0103778 -0.0355346 0.00665474  0.0114541 -0.0439514 0.0087359  0.0123745 -0.0530212 0.0110135  0.013144 -0.0626845 0.0134721  0.01377 -0.072883 0.0160956  0.0142571 -0.0835655 0.0188675  0.0146129 -0.0946803 0.0217764  0.0148448 -0.106179 0.0248029  0.0149599 -0.118017 0.0279388  0.0149665 -0.130149 0.0311675  0.014873 -0.142535 0.0344787  0.0146883 -0.155136 0.0378625  0.0144193 -0.167915 0.0413084  0.0140748 -0.180838 0.0448039  0.0136623 -0.193876 0.0483425  0.0131903 -0.207 0.0519145  0.0126657 -0.220182 0.0555148  0.0120966 -0.233399 0.0591316  0.0114887 -0.246632 0.0627656  0.0108492 -0.259861 0.0664032  0.0101838 -0.273071 0.0700457  0.00949883 -0.28625 0.0736852  0.00879955 -0.299385 0.0773222  0.00809073 -0.312469 0.0809486  0.0073781 -0.3255 0.0845652  0.00666952 -0.338474 0.0881672  0 0 0  0.00102623 -0.00397319 -0.000379801  0.00323471 -0.0076499 -0.00023818  0.00594687 -0.0117574 0.000391006  0.00879252 -0.0166284 0.00144315  0.0115634 -0.0223919 0.00285602  0.0141251 -0.0290719 0.00455785  0.0163836 -0.03663 0.0064826  0.0183219 -0.0449906 0.00862217  0.020012 -0.0540252 0.0109568  0.0214747 -0.0636624 0.0134666  0.0227237 -0.0738402 0.0161426  0.0237728 -0.0845031 0.0189595  0.0246316 -0.0956005 0.0219126  0.0253146 -0.107082 0.024976  0.0258305 -0.118902 0.0281498  0.0261929 -0.131017 0.0314102  0.0264113 -0.143386 0.0347552  0.0264995 -0.15597 0.0381644  0.0264652 -0.168732 0.0416377  0.0263226 -0.181638 0.0451543  0.0260797 -0.19466 0.0487156  0.0257502 -0.207767 0.0523038  0.0253413 -0.220935 0.0559223  0.0248644 -0.234138 0.059552  0.0243287 -0.247358 0.0631986  0.0237443 -0.260576 0.0668445  0.023118 -0.273777 0.0704949  0.0224617 -0.286948 0.0741379  0.02178 -0.300078 0.0777793  0.0210831 -0.31316 0.0814042  0.0203762 -0.326194 0.0850196  0.0196686 -0.339179 0.0886118  0 0 0  0.00123964 -0.00525838 -0.000594139  0.00415504 -0.00957054 -0.000597477  0.00786293 -0.0139042 -4.1008e-05  0.0118178 -0.0187837 0.000997543  0.0157202 -0.024441 0.0024457  0.0194101 -0.0309363 0.00424004  0.0226906 -0.0383297 0.0062387  0.025562 -0.0465398 0.00844073  0.0280415 -0.0554835 0.0108416  0.0301986 -0.06505 0.0134158  0.0320649 -0.0751669 0.0161481  0.033663 -0.0857754 0.0190194  0.0350119 -0.0968214 0.0220182  0.0361278 -0.108255 0.0251276  0.0370287 -0.120029 0.0283413  0.0377281 -0.1321 0.0316415  0.0382419 -0.144427 0.0350177  0.038584 -0.15697 0.03846  0.038769 -0.169692 0.0419586  0.03881 -0.182562 0.0455024  0.0387211 -0.195548 0.0490847  0.0385156 -0.208622 0.0526953  0.0382071 -0.221758 0.0563293  0.0378067 -0.234933 0.0599759  0.0373282 -0.248128 0.0636325  0.036783 -0.261324 0.0672898  0.0361831 -0.274506 0.0709479  0.0355396 -0.287662 0.0745995  0.0348637 -0.300782 0.0782428  0.0341666 -0.313859 0.0818701  0.0334575 -0.326892 0.0854826  0.0327449 -0.339886 0.0890715  0 0 0  -0.0042939 -0.00518541 0.00183606  -0.00863746 -0.00950051 0.00260115  -0.0129354 -0.0139895 0.0032351  -0.0171415 -0.0190421 0.00399971  -0.0212243 -0.024796 0.00498915  -0.0251566 -0.0312888 0.00622106  -0.0289217 -0.0385077 0.00770283  -0.0325073 -0.0464225 0.00941801  -0.0359114 -0.054987 0.0113547  -0.0391294 -0.064151 0.0134943  -0.0421664 -0.0738646 0.0158222  -0.0450212 -0.0840783 0.0183158  -0.0477024 -0.0947452 0.0209639  -0.0502104 -0.105819 0.0237491  -0.0525545 -0.117256 0.0266616  -0.0547364 -0.129012 0.0296841  -0.0567672 -0.141049 0.0328069  -0.05865 -0.153327 0.0360167  -0.0603952 -0.16581 0.0393062  -0.062007 -0.178465 0.0426588  -0.0634973 -0.191259 0.046072  -0.0648699 -0.204165 0.0495322  -0.0661378 -0.217153 0.0530324  -0.0673063 -0.2302 0.0565634  -0.0683873 -0.243285 0.0601223  -0.0693874 -0.256386 0.0637  -0.0703187 -0.269486 0.0672956  -0.0711868 -0.282571 0.0709009  -0.072005 -0.295625 0.0745213  -0.0727804 -0.30864 0.0781488  -0.0735304 -0.32161 0.081785  -0.0742676 -0.334534 0.0854194  0 0 0  -0.000858948 -0.00223909 0.00162649  -0.00465178 -0.00702234 0.00238299  -0.00830829 -0.0117759 0.0030787  -0.0118383 -0.0170189 0.0038991  -0.0152386 -0.0229389 0.00493336  -0.0184971 -0.0295883 0.0062058  -0.0216099 -0.0369632 0.00772667  -0.0245723 -0.0450344 0.00947881  -0.0273871 -0.0537543 0.0114565  -0.0300553 -0.0630727 0.0136318  -0.0325826 -0.0729375 0.0159955  -0.0349702 -0.0832989 0.0185206  -0.0372248 -0.0941071 0.0212007  -0.0393487 -0.105317 0.0240133  -0.0413482 -0.116882 0.0269551  -0.0432259 -0.128761 0.0300004  -0.0449884 -0.140911 0.033149  -0.0466387 -0.153295 0.0363779  -0.0481844 -0.165876 0.0396867  -0.0496285 -0.178621 0.0430551  -0.0509784 -0.191496 0.046484  -0.0522387 -0.204476 0.0499549  -0.0534172 -0.21753 0.0534661  -0.0545182 -0.230636 0.0570052  -0.0555503 -0.243771 0.0605741  -0.0565186 -0.256917 0.0641572  -0.0574303 -0.270055 0.067759  -0.0582914 -0.283172 0.0713677  -0.0591099 -0.296252 0.07499  -0.0598915 -0.309287 0.0786161  -0.0606484 -0.322271 0.082253  -0.0613906 -0.335204 0.0858855  0 0 0  -0.000480801 -0.00189286 0.00114489  -0.00178181 -0.0049406 0.0020628  -0.00464535 -0.00993925 0.00275707  -0.0073939 -0.0153723 0.00361252  -0.0100247 -0.0214535 0.00469279  -0.0125378 -0.0282537 0.00601721  -0.0149348 -0.0357713 0.00759029  -0.0172174 -0.0439806 0.00939536  -0.0193938 -0.0528359 0.011425  -0.0214666 -0.0622856 0.0136511  -0.0234442 -0.0722783 0.0160582  -0.0253274 -0.0827628 0.0186286  -0.0271231 -0.0936894 0.0213478  -0.0288315 -0.105011 0.0241997  -0.0304589 -0.116683 0.0271752  -0.0320041 -0.128661 0.0302544  -0.0334742 -0.140905 0.0334313  -0.034868 -0.153376 0.0366883  -0.0361922 -0.166037 0.04002  -0.037446 -0.178855 0.0434129  -0.0386367 -0.191797 0.0468595  -0.039763 -0.204837 0.0503492  -0.0408337 -0.217945 0.0538743  -0.0418482 -0.231098 0.0574279  -0.0428145 -0.244276 0.0610073  -0.0437336 -0.257458 0.0646024  -0.0446117 -0.270628 0.0682106  -0.0454509 -0.283771 0.0718281  -0.0462592 -0.296874 0.0754523  -0.0470369 -0.309927 0.0790799  -0.0477943 -0.322926 0.0827127  -0.0485368 -0.335867 0.0863469  0 0 0  -0.000186794 -0.00180492 0.000686407  -0.000760704 -0.00461748 0.00143957  -0.00175554 -0.00863588 0.00227451  -0.003598 -0.0141893 0.0031724  -0.00537801 -0.0203975 0.00430608  -0.00708097 -0.0273203 0.00568914  -0.00871158 -0.0349581 0.00732541  -0.0102707 -0.0432824 0.0091939  -0.0117699 -0.0522487 0.0112844  -0.0132149 -0.0618058 0.0135682  -0.0146128 -0.071901 0.0160315  -0.0159653 -0.0824837 0.0186524  -0.0172777 -0.0935039 0.0214212  -0.018549 -0.104915 0.0243173  -0.0197833 -0.11667 0.027334  -0.0209783 -0.128727 0.030452  -0.0221372 -0.141043 0.0336645  -0.0232582 -0.153582 0.0369542  -0.0243437 -0.166304 0.0403161  -0.025393 -0.179179 0.0437353  -0.0264089 -0.192174 0.0472074  -0.027389 -0.20526 0.0507171  -0.0283372 -0.218409 0.0542631  -0.0292528 -0.231599 0.0578327  -0.0301402 -0.244809 0.0614276  -0.0309985 -0.258019 0.0650337  -0.031832 -0.271213 0.0686543  -0.0326405 -0.284377 0.0722775  -0.0334275 -0.297498 0.0759079  -0.0341935 -0.310567 0.0795362  -0.0349438 -0.323578 0.0831685  -0.035682 -0.336527 0.0867989  0 0 0  8.04365e-05 -0.00192505 0.000244141  0.000140011 -0.00470388 0.000787497  3.51071e-05 -0.0085628 0.00157666  -0.000306308 -0.0135638 0.00259686  -0.00113863 -0.0198261 0.00379539  -0.00196767 -0.0268289 0.00525188  -0.00278223 -0.034552 0.00695896  -0.00358063 -0.0429626 0.00890136  -0.0043726 -0.0520125 0.0110586  -0.00516403 -0.06165 0.0134072  -0.0059613 -0.0718225 0.015933  -0.00676429 -0.0824781 0.0186119  -0.00757742 -0.0935674 0.0214338  -0.00839686 -0.105043 0.0243828  -0.00922513 -0.116859 0.0274448  -0.0100569 -0.128972 0.030607  -0.0108941 -0.141341 0.033859  -0.0117314 -0.153928 0.0371866  -0.0125704 -0.166695 0.0405807  -0.0134046 -0.17961 0.0440323  -0.0142367 -0.19264 0.0475304  -0.0150614 -0.205758 0.0510669  -0.0158808 -0.218937 0.0546339  -0.01669 -0.232152 0.0582242  -0.0174921 -0.245384 0.0618351  -0.0182824 -0.258613 0.0654581  -0.0190647 -0.271823 0.0690882  -0.0198345 -0.285002 0.0727217  -0.020596 -0.298135 0.0763562  -0.0213459 -0.311216 0.0799882  -0.0220864 -0.324238 0.0836179  -0.0228152 -0.337196 0.087244  0 0 0  0.000348762 -0.00225008 -0.000179291  0.00102401 -0.00513798 0.000136852  0.00175124 -0.00896794 0.000848293  0.00238132 -0.0138516 0.00188136  0.00283235 -0.0197934 0.00319552  0.00294977 -0.0268124 0.00473142  0.00300115 -0.0345775 0.00651813  0.00300062 -0.043038 0.00853896  0.00294316 -0.0521405 0.010771  0.00282657 -0.0618289 0.01319  0.00264633 -0.0720507 0.0157828  0.00240469 -0.0827534 0.0185242  0.0021013 -0.0938866 0.0214062  0.00174165 -0.105403 0.0244088  0.00132632 -0.117256 0.0275242  0.000862598 -0.129404 0.0307329  0.000352144 -0.141805 0.0340281  -0.000198364 -0.15442 0.0373945  -0.000786066 -0.167212 0.0408275  -0.00140405 -0.180151 0.0443113  -0.00205064 -0.193201 0.0478415  -0.00271869 -0.206338 0.051404  -0.00340605 -0.219532 0.0549967  -0.00410795 -0.232761 0.0586081  -0.00482249 -0.246005 0.0622375  -0.00554419 -0.259244 0.0658755  -0.00627303 -0.272463 0.0695198  -0.00700283 -0.285648 0.0731604  -0.00773549 -0.298789 0.076802  -0.00846648 -0.311877 0.0804348  -0.00919485 -0.324908 0.0840645  -0.0099144 -0.337876 0.0876813  0 0 0  0.000640079 -0.00280046 -0.000552893  0.0019615 -0.00592095 -0.000460625  0.00353053 -0.00980598 0.000147581  0.00511134 -0.014645 0.00116587  0.0065704 -0.0204859 0.00252604  0.00783241 -0.0273026 0.00416994  0.00879949 -0.0350565 0.00603724  0.00963104 -0.0435258 0.00814128  0.0103314 -0.0526448 0.0104516  0.0109029 -0.0623541 0.0129473  0.0113496 -0.0725953 0.0156083  0.0116742 -0.0833182 0.0184166  0.0118835 -0.0944685 0.0213616  0.0119833 -0.106001 0.0244212  0.0119804 -0.117868 0.0275891  0.0118821 -0.130029 0.030848  0.0116954 -0.14244 0.0341873  0.0114279 -0.155064 0.0375967  0.0110877 -0.167863 0.0410676  0.0106819 -0.180808 0.0445859  0.0102174 -0.193863 0.048147  0.00970101 -0.207003 0.0517383  0.00914049 -0.2202 0.0553575  0.00854206 -0.233431 0.0589912  0.00791097 -0.246675 0.0626416  0.00725293 -0.259916 0.066293  0.00657415 -0.273135 0.0699492  0.00587964 -0.286322 0.0735998  0.00517344 -0.299463 0.0772479  0.00445986 -0.312554 0.0808835  0.00374317 -0.32559 0.0845089  0.0030303 -0.33857 0.0881195  0 0 0  0.000944167 -0.00365025 -0.000896454  0.00296995 -0.00714076 -0.00102234  0.00544167 -0.0111492 -0.000528336  0.00801504 -0.0159819 0.000458717  0.010498 -0.0217474 0.00184751  0.012781 -0.0284511 0.0035603  0.0147862 -0.0360532 0.00552511  0.0164866 -0.0444733 0.00771785  0.0179619 -0.053566 0.0101125  0.0192299 -0.0632572 0.0126858  0.0203021 -0.073486 0.0154233  0.0211906 -0.0841955 0.0183003  0.0219047 -0.0953346 0.0213099  0.022456 -0.106856 0.0244267  0.022855 -0.118711 0.0276511  0.0231121 -0.130859 0.0309591  0.0232375 -0.143257 0.034348  0.0232427 -0.155869 0.0377989  0.023138 -0.168655 0.041311  0.0229332 -0.181586 0.0448639  0.0226383 -0.194629 0.0484583  0.0222635 -0.207756 0.0520768  0.0218182 -0.220941 0.055723  0.0213115 -0.234161 0.0593789  0.0207529 -0.247395 0.0630484  0.0201497 -0.260626 0.0667152  0.0195107 -0.273837 0.070384  0.0188432 -0.287018 0.0740421  0.0181553 -0.300156 0.0776973  0.0174537 -0.313244 0.0813344  0.0167439 -0.326282 0.0849597  0.0160336 -0.339272 0.0885627  0 0 0  0.00118233 -0.00485516 -0.00130653  0.00394762 -0.00893199 -0.00164795  0.0074313 -0.0131506 -0.00125217  0.0111114 -0.0180008 -0.000290394  0.0147091 -0.0236841 0.00112414  0.0180731 -0.0302535 0.00290179  0.0211097 -0.0376912 0.00497103  0.023761 -0.0459535 0.0072608  0.0260288 -0.0549597 0.00974846  0.0279919 -0.0645863 0.0124104  0.0296804 -0.0747602 0.0152273  0.0311165 -0.0854208 0.0181782  0.0323185 -0.0965137 0.0212531  0.0333014 -0.107992 0.0244339  0.0340824 -0.119805 0.0277138  0.0346744 -0.131914 0.0310767  0.0350926 -0.144273 0.0345118  0.0353498 -0.156848 0.0380082  0.0354612 -0.169598 0.0415585  0.0354378 -0.182496 0.0451491  0.0352945 -0.195505 0.0487754  0.0350423 -0.208602 0.0524247  0.0346954 -0.221757 0.0560949  0.0342638 -0.234951 0.0597749  0.0337598 -0.248163 0.0634604  0.033195 -0.261374 0.0671437  0.0325804 -0.274566 0.0708246  0.0319252 -0.287734 0.0744946  0.0312424 -0.300861 0.0781548  0.0305398 -0.313944 0.0817945  0.0298276 -0.326982 0.085418  0.0291133 -0.339979 0.0890176  0 0 0  -0.00441778 -0.00497747 0.00307941  -0.008939 -0.00920646 0.00424576  -0.0134595 -0.0136518 0.00501347  -0.0179153 -0.0186917 0.00578713  -0.0222538 -0.0244534 0.00672603  -0.0264436 -0.0309662 0.00787067  -0.0304571 -0.0382115 0.00924969  -0.0342821 -0.0461542 0.0108511  -0.0379078 -0.0547474 0.0126743  -0.0413332 -0.0639404 0.0146983  -0.0445577 -0.0736816 0.0169172  -0.0475861 -0.0839215 0.0193021  -0.0504221 -0.0946136 0.0218489  -0.053072 -0.105711 0.024534  -0.0555409 -0.11717 0.027354  -0.0578361 -0.128946 0.0302863  -0.0599639 -0.141001 0.0333285  -0.0619345 -0.153296 0.0364602  -0.0637541 -0.165794 0.0396791  -0.0654321 -0.178463 0.042964  -0.0669763 -0.191271 0.046319  -0.0683968 -0.204188 0.0497229  -0.0697012 -0.217187 0.0531774  -0.0709033 -0.230245 0.0566638  -0.0720088 -0.243339 0.0601866  -0.0730295 -0.256449 0.0637321  -0.0739751 -0.269558 0.0673025  -0.0748553 -0.282648 0.0708857  -0.0756798 -0.295707 0.0744927  -0.0764625 -0.308727 0.0781083  -0.0772104 -0.321698 0.0817449  -0.0779419 -0.33462 0.0853877  0 0 0  -0.000800632 -0.00190657 0.00265479  -0.00487363 -0.00665165 0.00371313  -0.0087803 -0.0113707 0.00453329  -0.012566 -0.0165976 0.00537324  -0.0162232 -0.0225211 0.00637197  -0.0197399 -0.0291883 0.00757384  -0.0231031 -0.0365914 0.00900769  -0.0263063 -0.0446927 0.0106633  -0.029346 -0.0534456 0.0125442  -0.0322245 -0.0627979 0.0146215  -0.0349424 -0.0726955 0.0168934  -0.0375062 -0.0830883 0.0193267  -0.0399179 -0.0939265 0.0219221  -0.0421863 -0.105165 0.0246511  -0.0443125 -0.116756 0.0275166  -0.0463054 -0.128659 0.0304871  -0.048167 -0.140831 0.0335681  -0.0499072 -0.153236 0.036732  -0.0515289 -0.165836 0.0399823  -0.0530403 -0.178598 0.0432954  -0.054446 -0.19149 0.0466762  -0.0557559 -0.204484 0.050101  -0.0569723 -0.217552 0.0535741  -0.0581071 -0.230671 0.0570767  -0.0591648 -0.243818 0.0606165  -0.0601547 -0.256974 0.0641735  -0.0610821 -0.270121 0.067755  -0.0619569 -0.283245 0.0713453  -0.0627835 -0.296331 0.0749564  -0.0635729 -0.309372 0.0785732  -0.0643301 -0.322359 0.0822103  -0.0650702 -0.335291 0.0858488  0 0 0  -0.000466354 -0.00165918 0.00179887  -0.00183848 -0.00443457 0.00318003  -0.00503981 -0.00943378 0.00390315  -0.00808421 -0.014867 0.00474858  -0.0109915 -0.0209568 0.00579238  -0.0137726 -0.0277762 0.00705862  -0.0164257 -0.0353234 0.00856256  -0.0189538 -0.0435664 0.0102899  -0.0213578 -0.0524586 0.0122433  -0.0236427 -0.0619467 0.0143926  -0.0258119 -0.0719772 0.0167282  -0.027872 -0.0824981 0.019227  -0.0298249 -0.0934594 0.0218813  -0.031677 -0.104814 0.0246689  -0.0334307 -0.116516 0.027586  -0.0350908 -0.128523 0.0306072  -0.0366595 -0.140793 0.0337327  -0.038142 -0.153288 0.0369399  -0.039541 -0.165971 0.0402279  -0.0408618 -0.178809 0.0435779  -0.0421071 -0.191771 0.0469885  -0.0432825 -0.204828 0.0504429  -0.0443909 -0.217952 0.0539396  -0.045439 -0.231121 0.0574651  -0.0464296 -0.244311 0.0610235  -0.04737 -0.257506 0.064599  -0.0482633 -0.270686 0.0681925  -0.0491159 -0.283837 0.0717967  -0.0499318 -0.296947 0.0754135  -0.0507169 -0.310006 0.0790346  -0.0514758 -0.323009 0.0826688  -0.0522189 -0.335952 0.0863078  0 0 0  -0.000216305 -0.00159663 0.00106454  -0.000884056 -0.00416085 0.00212741  -0.002069 -0.00800818 0.00312829  -0.00425628 -0.0135764 0.00397253  -0.00634265 -0.0198071 0.00505424  -0.00832975 -0.0267579 0.00638318  -0.010225 -0.0344329 0.0079639  -0.0120342 -0.0427969 0.00977325  -0.0137631 -0.0518061 0.0118084  -0.0154197 -0.0614072 0.0140383  -0.0170081 -0.0715455 0.0164528  -0.0185355 -0.0821701 0.0190244  -0.0200032 -0.0932301 0.0217493  -0.0214162 -0.104679 0.0246012  -0.0227745 -0.116468 0.0275791  -0.0240819 -0.128558 0.0306578  -0.025337 -0.140904 0.0338366  -0.026545 -0.15347 0.0370922  -0.0277042 -0.166218 0.0404251  -0.0288186 -0.179116 0.0438151  -0.029887 -0.192132 0.0472643  -0.0309143 -0.205239 0.05075  -0.0318987 -0.218406 0.0542786  -0.0328467 -0.231614 0.0578296  -0.0337567 -0.244838 0.0614116  -0.0346351 -0.258062 0.0650048  -0.0354824 -0.271267 0.0686171  -0.0363026 -0.28444 0.0722327  -0.0370967 -0.297568 0.0758603  -0.0378702 -0.310644 0.0794852  -0.0386233 -0.32366 0.0831203  -0.0393639 -0.336614 0.0867565  0 0 0  1.50949e-05 -0.00170243 0.000389338  -6.18249e-05 -0.00424659 0.00108743  -0.000361949 -0.00793403 0.00198412  -0.000955552 -0.0128441 0.00304413  -0.00211859 -0.0191355 0.00417924  -0.00324756 -0.0261769 0.00558329  -0.00433505 -0.0339461 0.00724864  -0.00538832 -0.0424052 0.00915027  -0.00641036 -0.0515052 0.0112746  -0.00741148 -0.061193 0.0135937  -0.00839722 -0.0714144 0.0160944  -0.00937164 -0.0821166 0.018748  -0.0103365 -0.0932503 0.021549  -0.0112945 -0.104768 0.0244756  -0.0122434 -0.116622 0.0275195  -0.0131851 -0.128772 0.0306611  -0.0141163 -0.141174 0.0338972  -0.0150378 -0.153791 0.0372081  -0.0159471 -0.166587 0.0405893  -0.0168443 -0.179528 0.0440261  -0.0177271 -0.192582 0.0475142  -0.0185969 -0.205724 0.0510387  -0.0194502 -0.218922 0.054599  -0.0202892 -0.232157 0.0581808  -0.021112 -0.245405 0.0617881  -0.0219207 -0.258649 0.0654051  -0.0227144 -0.271871 0.0690343  -0.0234952 -0.285059 0.072665  -0.0242624 -0.298201 0.0763009  -0.0250173 -0.311288 0.0799344  -0.0257597 -0.324315 0.0835695  -0.0264926 -0.33728 0.0872014  0 0 0  0.000252008 -0.00198871 -0.000253677  0.000750095 -0.00464678 7.03335e-05  0.00125808 -0.00831485 0.000813961  0.00163835 -0.0131066 0.00186968  0.00181556 -0.0190184 0.00318527  0.00162601 -0.0260782 0.00468016  0.00139922 -0.0338978 0.0064404  0.00114238 -0.0424154 0.0084424  0.000855923 -0.0515766 0.0106654  0.000532508 -0.0613227 0.0130799  0.000167727 -0.0715998 0.0156724  -0.000240326 -0.0823542 0.0184138  -0.000690699 -0.0935359 0.0212989  -0.00118446 -0.105099 0.0243013  -0.00171614 -0.116994 0.02742  -0.00228596 -0.129182 0.0306287  -0.00288677 -0.141618 0.033927  -0.00351834 -0.154267 0.0372937  -0.00417423 -0.167091 0.0407302  -0.00485301 -0.180058 0.044214  -0.00554752 -0.193135 0.0477486  -0.00625801 -0.206296 0.0513117  -0.00697803 -0.219512 0.0549088  -0.00770807 -0.232761 0.0585217  -0.00844193 -0.246022 0.0621562  -0.00918078 -0.259278 0.0657966  -0.0099194 -0.272509 0.0694463  -0.010659 -0.285706 0.0730891  -0.011395 -0.298854 0.0767374  -0.0121298 -0.311949 0.0803752  -0.0128596 -0.324985 0.0840125  -0.0135839 -0.33796 0.0876355  0 0 0  0.000509411 -0.00247914 -0.000850916  0.0016166 -0.00537205 -0.000891685  0.00294295 -0.00910962 -0.000328064  0.00426501 -0.0138676 0.000683308  0.00545728 -0.0196806 0.0020504  0.00645 -0.0265067 0.00370455  0.00714505 -0.0343158 0.00557327  0.00772285 -0.0428491 0.00768447  0.00819683 -0.0520346 0.0100131  0.00856626 -0.0618069 0.0125337  0.00883281 -0.0721089 0.0152216  0.00899613 -0.082887 0.0180569  0.00906134 -0.0940905 0.0210283  0.00903165 -0.105672 0.0241122  0.00891483 -0.117585 0.0273049  0.00871444 -0.129788 0.0305853  0.00843954 -0.142237 0.0339463  0.00809431 -0.154897 0.037375  0.00768757 -0.16773 0.0408647  0.00722384 -0.180704 0.0443995  0.0067122 -0.193788 0.0479777  0.00615597 -0.206954 0.051584  0.00556374 -0.220174 0.0552177  0.00493979 -0.233426 0.0588644  0.00428987 -0.24669 0.0625279  0.00361776 -0.259947 0.0661905  0.0029304 -0.27318 0.0698581  0.00222898 -0.286378 0.0735171  0.00152063 -0.299528 0.0771759  0.000804901 -0.312625 0.0808198  8.65459e-05 -0.325666 0.0844543  -0.000629902 -0.338652 0.0880725  0 0 0  0.000805795 -0.00321156 -0.00138259  0.00259343 -0.00646013 -0.0017612  0.00480276 -0.0103344 -0.00137687  0.00710434 -0.015103 -0.000426769  0.0093146 -0.0208559 0.000964642  0.0113294 -0.0275819 0.00269961  0.013091 -0.0352246 0.00471115  0.0145396 -0.0437213 0.00693536  0.0157933 -0.0528891 0.00937533  0.0168648 -0.0626521 0.0120006  0.0177612 -0.0729485 0.0147908  0.0184927 -0.0837199 0.0177195  0.019066 -0.0949175 0.0207767  0.0194918 -0.106492 0.0239406  0.0197783 -0.118398 0.0272076  0.0199363 -0.130591 0.0305572  0.0199749 -0.143032 0.0339837  0.0199044 -0.155681 0.0374713  0.0197332 -0.168506 0.0410159  0.0194728 -0.181469 0.0446002  0.0191314 -0.194544 0.048223  0.0187182 -0.207698 0.0518687  0.0182416 -0.22091 0.0555382  0.0177112 -0.234152 0.059217  0.0171342 -0.247408 0.0629065  0.0165186 -0.260656 0.0665925  0.0158706 -0.273883 0.070277  0.0151985 -0.287075 0.0739503  0.0145082 -0.300222 0.0776176  0.0138056 -0.313317 0.0812666  0.0130949 -0.32636 0.0849006  0.012383 -0.339353 0.0885127  0 0 0  0.00109065 -0.00428426 -0.00197697  0.00364169 -0.00806963 -0.00263429  0.00686032 -0.0121514 -0.00237727  0.0102559 -0.0169544 -0.00146413  0.0135652 -0.0226493 -5.10216e-05  0.0166447 -0.0292686 0.00174975  0.0194172 -0.0367774 0.00386572  0.0218313 -0.0451152 0.00621986  0.0238804 -0.0542059 0.00877738  0.0256482 -0.063912 0.0115139  0.0271617 -0.0741616 0.014405  0.02844 -0.0848911 0.0174265  0.0295002 -0.0960486 0.0205686  0.0303565 -0.107585 0.023813  0.0310236 -0.119454 0.0271513  0.0315154 -0.131613 0.03057  0.0318446 -0.144019 0.0340569  0.0320246 -0.156636 0.0376019  0.0320683 -0.169428 0.0411971  0.0319881 -0.182361 0.0448298  0.0317965 -0.195406 0.0484943  0.0315049 -0.208533 0.0521789  0.0311246 -0.221718 0.0558808  0.0306678 -0.234937 0.0595896  0.0301442 -0.248171 0.0633013  0.0295658 -0.261401 0.0670083  0.0289407 -0.274612 0.0707095  0.0282798 -0.28779 0.0743968  0.0275924 -0.300929 0.0780706  0.0268884 -0.314019 0.0817223  0.0261748 -0.32706 0.0853555  0.0254598 -0.340059 0.0889645  0 0 0  -0.00423704 -0.00456629 0.00432587  -0.00883518 -0.0086016 0.00602245  -0.0135933 -0.0129595 0.00697041  -0.0183478 -0.0179753 0.00776458  -0.0230048 -0.0237506 0.00864363  -0.027507 -0.0302977 0.00969172  -0.0318214 -0.0375888 0.010952  -0.0359264 -0.0455814 0.0124276  -0.0398117 -0.0542243 0.0141208  -0.0434729 -0.0634674 0.016017  -0.0469112 -0.0732567 0.0181112  -0.0501305 -0.0835434 0.0203774  -0.053138 -0.0942789 0.02281  -0.0559403 -0.10542 0.0253868  -0.0585449 -0.116917 0.0281043  -0.0609592 -0.128732 0.0309403  -0.0631926 -0.14082 0.0338919  -0.0652537 -0.153148 0.0369399  -0.0671525 -0.165677 0.0400805  -0.0688975 -0.178374 0.0432947  -0.0704994 -0.191208 0.0465837  -0.0719669 -0.204149 0.0499296  -0.073312 -0.217171 0.0533304  -0.0745435 -0.230249 0.0567729  -0.075675 -0.24336 0.0602555  -0.076714 -0.256486 0.0637679  -0.0776744 -0.269607 0.0673103  -0.0785649 -0.282709 0.0708716  -0.0793977 -0.295777 0.0744612  -0.080183 -0.308803 0.0780678  -0.0809348 -0.321778 0.0816977  -0.0816629 -0.334704 0.0853453  0 0 0  -0.000482343 -0.0012551 0.0037396  -0.00478521 -0.00592662 0.00516152  -0.00893956 -0.0105764 0.00617313  -0.0130146 -0.0157761 0.00705886  -0.0169798 -0.0217085 0.00802135  -0.0208002 -0.028408 0.00914717  -0.0244583 -0.0358582 0.0104809  -0.0279377 -0.0440126 0.0120282  -0.0312355 -0.0528219 0.0137944  -0.0343478 -0.0622307 0.0157609  -0.0372792 -0.0721842 0.0179229  -0.0400329 -0.0826303 0.0202534  -0.042617 -0.09352 0.0227482  -0.0450364 -0.104807 0.0253844  -0.0472994 -0.116445 0.0281594  -0.0494108 -0.128392 0.0310471  -0.0513787 -0.140604 0.0340486  -0.0532091 -0.153047 0.0371416  -0.0549109 -0.165683 0.0403237  -0.0564897 -0.178477 0.043576  -0.0579545 -0.1914 0.0468991  -0.0593112 -0.204422 0.0502753  -0.060569 -0.217515 0.0537016  -0.0617344 -0.230657 0.0571671  -0.0628197 -0.243825 0.0606706  -0.0638289 -0.257 0.0641997  -0.0647728 -0.270162 0.0677564  -0.0656586 -0.283299 0.0713282  -0.0664947 -0.296396 0.0749235  -0.0672879 -0.309443 0.0785327  -0.0680509 -0.322436 0.0821624  -0.0687878 -0.335373 0.0858066  0 0 0  -0.000363611 -0.00117947 0.00244117  -0.00153422 -0.00340317 0.00453091  -0.00517237 -0.00849958 0.00523615  -0.00855815 -0.0139517 0.00609016  -0.0117908 -0.0200637 0.00710034  -0.0148819 -0.0269199 0.00830531  -0.0178313 -0.0345174 0.00972772  -0.0206351 -0.0428183 0.0113661  -0.0232946 -0.0517708 0.0132263  -0.0258105 -0.0613205 0.015285  -0.0281903 -0.0714121 0.0175307  -0.0304363 -0.0819912 0.0199471  -0.032558 -0.0930091 0.0225198  -0.0345575 -0.104417 0.0252337  -0.0364445 -0.11617 0.0280781  -0.0382195 -0.128225 0.031034  -0.0398915 -0.140538 0.0340955  -0.0414612 -0.153075 0.0372462  -0.0429382 -0.165797 0.0404794  -0.0443237 -0.178671 0.043782  -0.0456257 -0.191666 0.047147  -0.0468462 -0.204753 0.0505631  -0.0479944 -0.217906 0.0540228  -0.0490716 -0.231099 0.057519  -0.0500882 -0.244312 0.061049  -0.0510464 -0.257526 0.0646033  -0.0519552 -0.270723 0.0681775  -0.0528181 -0.283888 0.071768  -0.053643 -0.297009 0.0753732  -0.0544324 -0.310077 0.0789888  -0.0551965 -0.323084 0.0826185  -0.0559382 -0.336034 0.0862629  0 0 0  -0.000208385 -0.0011397 0.0014677  -0.000858128 -0.00327885 0.00294852  -0.00210783 -0.00683144 0.00426388  -0.00474986 -0.0125216 0.00499487  -0.00720268 -0.0188164 0.00601292  -0.00951564 -0.0258222 0.00728154  -0.0117114 -0.0335563 0.00879526  -0.0137953 -0.0419842 0.0105352  -0.0157769 -0.0510592 0.0124984  -0.01766 -0.0607271 0.0146604  -0.0194533 -0.0709315 0.0170081  -0.0211612 -0.0816192 0.0195189  -0.0227916 -0.09274 0.0221839  -0.0243465 -0.104246 0.0249827  -0.0258324 -0.11609 0.0279074  -0.0272498 -0.12823 0.0309391  -0.0286038 -0.140623 0.034071  -0.0298948 -0.153234 0.0372865  -0.0311277 -0.166024 0.04058  -0.0323029 -0.17896 0.0439365  -0.0334249 -0.192011 0.0473526  -0.0344942 -0.20515 0.0508118  -0.0355155 -0.218348 0.0543137  -0.0364904 -0.231582 0.0578444  -0.0374246 -0.244831 0.0614059  -0.0383182 -0.258075 0.0649855  -0.0391784 -0.271298 0.0685849  -0.0400066 -0.284485 0.0721924  -0.0408082 -0.297625 0.0758123  -0.0415852 -0.310709 0.0794349  -0.0423424 -0.32373 0.0830686  -0.0430825 -0.336691 0.0867116  0 0 0  -4.00841e-05 -0.00122833 0.000596762  -0.000216931 -0.00339568 0.00151968  -0.000660241 -0.00683466 0.00260496  -0.00146517 -0.0116227 0.00377464  -0.00304669 -0.0180303 0.00479364  -0.00452352 -0.0251561 0.00612617  -0.00591797 -0.0330008 0.00773263  -0.00724506 -0.041535 0.00958204  -0.00851536 -0.0507084 0.0116553  -0.00973666 -0.0604693 0.0139296  -0.0109192 -0.0707619 0.0163879  -0.0120667 -0.0815319 0.0190041  -0.0131871 -0.0927305 0.0217679  -0.0142801 -0.104309 0.0246625  -0.0153505 -0.116221 0.0276737  -0.0163963 -0.128425 0.0307877  -0.0174208 -0.140876 0.0339954  -0.0184202 -0.153541 0.0372832  -0.0193987 -0.16638 0.0406404  -0.0203528 -0.179361 0.0440578  -0.0212853 -0.192453 0.0475259  -0.0221932 -0.205627 0.0510359  -0.0230803 -0.218858 0.0545807  -0.0239427 -0.23212 0.0581524  -0.0247867 -0.245394 0.0617476  -0.0256081 -0.258659 0.0653584  -0.0264125 -0.2719 0.0689809  -0.0271986 -0.285103 0.0726089  -0.0279703 -0.298257 0.0762424  -0.0287261 -0.311351 0.0798779  -0.0294714 -0.324383 0.0835145  -0.0302041 -0.337355 0.0871544  0 0 0  0.000140503 -0.00147378 -0.000233412  0.000449836 -0.00378066 0.000155926  0.000745565 -0.00723451 0.000984907  0.000888228 -0.0119198 0.00210428  0.000799477 -0.0178071 0.00344777  0.000244677 -0.0249771 0.00485849  -0.000294209 -0.0328903 0.006567  -0.000822723 -0.0414951 0.00853443  -0.00135267 -0.0507389 0.0107276  -0.0018878 -0.060564 0.0131218  -0.00244009 -0.0709166 0.0156977  -0.0030129 -0.0817429 0.0184259  -0.00361013 -0.0929924 0.0212982  -0.00423133 -0.104618 0.0242913  -0.00487781 -0.116574 0.0273986  -0.00554526 -0.128817 0.0306001  -0.00623417 -0.141305 0.0338883  -0.00693893 -0.154004 0.0372488  -0.00765896 -0.166872 0.040678  -0.00838971 -0.179881 0.0441577  -0.00912952 -0.192996 0.0476859  -0.00987434 -0.206192 0.0512464  -0.0106242 -0.219442 0.0548389  -0.0113738 -0.23272 0.0584517  -0.0121245 -0.246007 0.0620832  -0.0128717 -0.259284 0.0657253  -0.0136175 -0.272535 0.0693748  -0.014359 -0.285746 0.0730209  -0.0150974 -0.298906 0.0766706  -0.0158305 -0.312009 0.0803142  -0.0165596 -0.325048 0.083957  -0.0172827 -0.33803 0.0875897  0 0 0  0.000338137 -0.00189877 -0.0010252  0.0011768 -0.00446755 -0.00115037  0.00223401 -0.00802594 -0.000593185  0.00328946 -0.0127004 0.000439405  0.00421482 -0.0184954 0.00182819  0.00493896 -0.0253539 0.00349498  0.00532609 -0.0332674 0.00532508  0.00564039 -0.0418975 0.00742269  0.00588167 -0.0511723 0.00974703  0.00604987 -0.0610301 0.0122736  0.00613928 -0.0714124 0.0149708  0.00614786 -0.0822659 0.0178185  0.00607562 -0.0935395 0.0208018  0.00592709 -0.105186 0.0239  0.00570285 -0.11716 0.0271034  0.00541139 -0.12942 0.0303972  0.00505471 -0.141922 0.0337675  0.00464201 -0.154631 0.0372083  0.00417566 -0.167511 0.0407066  0.00366449 -0.180527 0.0442526  0.00311089 -0.19365 0.0478382  0.00252485 -0.206852 0.051455  0.00190711 -0.220106 0.0550954  0.00126648 -0.233387 0.0587518  0.000602961 -0.246677 0.0624218  -7.4625e-05 -0.259956 0.0660939  -0.000766516 -0.273208 0.0697672  -0.00146651 -0.28642 0.0734355  -0.00217485 -0.299582 0.0770996  -0.0028851 -0.312686 0.0807533  -0.00360012 -0.325729 0.0843961  -0.00431418 -0.33872 0.0880249  0 0 0  0.000561938 -0.00253367 -0.00177407  0.00200427 -0.00549984 -0.00238538  0.00389829 -0.00924003 -0.00209188  0.00591278 -0.0139561 -0.001158  0.00785351 -0.0197072 0.000249386  0.00961387 -0.0264683 0.00201416  0.0111349 -0.0341716 0.00406098  0.0123389 -0.0427655 0.00630331  0.0133754 -0.0520263 0.00876999  0.0142586 -0.0618772 0.011431  0.0149909 -0.0722558 0.0142605  0.0155785 -0.0831033 0.0172296  0.0160245 -0.0943713 0.0203252  0.016338 -0.106012 0.0235264  0.016525 -0.117978 0.0268278  0.016597 -0.130229 0.030211  0.0165598 -0.142722 0.0336676  0.0164254 -0.155422 0.0371842  0.0161998 -0.168292 0.0407555  0.0158951 -0.181298 0.0443656  0.0155165 -0.194411 0.0480106  0.0150759 -0.207602 0.0516789  0.0145776 -0.220846 0.0553675  0.0140328 -0.234119 0.0590653  0.0134463 -0.247398 0.0627711  0.0128269 -0.26067 0.066473  0.0121787 -0.273915 0.0701714  0.0115106 -0.287121 0.0738583  0.0108244 -0.300279 0.0775356  0.0101292 -0.31338 0.0811965  0.00942492 -0.326424 0.084841  0.00871611 -0.339422 0.0884624  0 0 0  0.000869736 -0.00342572 -0.00256324  0.00304121 -0.0069415 -0.00354457  0.00590008 -0.0109315 -0.00343299  0.00897634 -0.0157192 -0.00255919  0.0119966 -0.02144 -0.00113344  0.0148129 -0.0281129 0.000707865  0.0173443 -0.0356957 0.00287676  0.0195501 -0.0441143 0.00530005  0.0213895 -0.0533057 0.00790787  0.0229777 -0.0631066 0.010705  0.0243349 -0.0734425 0.0136595  0.0254759 -0.0842533 0.0167429  0.026415 -0.0954845 0.0199449  0.0271643 -0.107091 0.0232456  0.0277373 -0.119022 0.0266364  0.028146 -0.131242 0.0301039  0.028404 -0.143702 0.033637  0.0285232 -0.156371 0.0372255  0.0285158 -0.169209 0.0408609  0.028393 -0.182188 0.0445304  0.0281672 -0.195272 0.0482287  0.0278502 -0.208438 0.051945  0.027451 -0.221656 0.055676  0.0269811 -0.234907 0.0594101  0.0264506 -0.248166 0.0631461  0.0258696 -0.26142 0.0668738  0.0252469 -0.274648 0.0705945  0.024591 -0.287843 0.0742979  0.0239108 -0.30099 0.077986  0.0232148 -0.314086 0.0816498  0.0225086 -0.327127 0.0852935  0.0217977 -0.34013 0.0889111  
SCALARS smooth_stress float 1
LOOKUP_TABLE default
402.221 634.567 541.937 504.475 476.242 450.183 424.76 399.48 374.287 349.207 324.427 300.078 276.265 253.136 230.795 209.3 188.858 169.345 150.952 133.699 117.51 102.626 88.6385 75.9978 64.3769 53.9334 44.3526 35.5999 27.4698 20.1407 12.963 7.33008 1.38054 280.299 669.392 615.173 582.603 556.497 532.396 508.651 484.752 460.458 435.707 410.754 385.812 360.981 336.473 312.438 288.917 266.189 244.078 222.751 202.434 182.852 164.377 146.453 129.582 113.552 98.4452 83.8988 69.8126 56.0733 42.8802 29.5835 17.2648 3.95917 148.444 366.385 398.151 408.466 408.65 404.838 398.62 390.337 380.231 368.401 355.296 341.246 326.323 310.83 294.94 278.642 262.239 245.694 229.09 212.618 196.255 180.104 163.87 147.907 132.237 116.883 101.684 86.5256 71.3723 56.2704 40.7472 25.253 6.21107 172.561 340.125 374.321 391.012 393.067 396.488 395.89 391.762 384.883 375.437 364.293 351.74 338.095 323.515 308.407 292.595 276.518 260.116 243.53 226.802 210.042 193.348 176.448 159.724 143.205 126.866 110.787 94.8152 78.9054 62.9586 46.4419 29.6163 7.76795 304.791 540.745 549.02 551.57 535.681 518.244 505.001 489.9 472.69 453.826 433.652 412.852 391.485 369.907 348.172 326.569 305.131 284.079 263.213 242.853 222.745 203.262 183.853 165.195 147.007 129.367 112.181 95.478 79.1429 63.2041 46.9552 30.534 8.3258 463.971 807.67 793.948 782.168 755.748 717.773 680.653 646.869 612.603 577.867 542.937 508.216 473.892 440.293 407.46 375.563 344.873 315.413 287.09 260.213 234.537 210.206 186.82 164.844 144.221 124.734 106.266 88.7119 72.0809 56.3514 41.3546 27.5318 8.2108 646.287 1104.64 1068.33 1044.65 1005.08 953.367 894.737 837.152 782.711 729.329 676.881 625.86 576.042 528.054 481.732 437.36 395.051 355.111 316.986 281.348 248.03 217.21 188.104 161.371 136.861 114.637 94.1853 75.5532 58.6991 43.4289 30.0782 21.2053 7.16948 855.298 1434.06 1375.33 1343.79 1290.28 1219.75 1140.48 1057.66 977.677 902.586 830.31 761.051 694.259 630.371 569.263 511.084 455.873 404.173 355.217 309.384 266.916 228.114 192.162 159.354 129.691 103.388 80.1276 59.6918 42.7072 29.2394 21.799 20.904 7.01499 240.514 540.628 515.306 510.402 493.709 468.039 437.992 405.975 373.888 343.685 315.299 288.179 262.324 237.555 214.053 191.632 170.434 150.524 131.856 114.241 97.9759 83.035 69.374 56.8481 45.5801 35.5538 26.8061 19.2004 12.934 8.2224 5.88007 6.3297 3.79493 505.595 1040 923.624 855.324 803.341 755.997 710.614 665.868 621.845 578.115 535.438 493.443 452.812 413.293 375.511 338.937 304.408 271.527 240.82 211.791 184.906 159.996 137.008 116.066 97.339 80.2921 65.3019 51.549 39.2133 28.0709 17.4891 8.65476 2.33702 343.964 1453.58 1590.3 1417.4 1323.48 1247.63 1177.93 1110.7 1044.99 979.76 915.613 852.424 790.68 730.364 672.11 615.56 561.461 509.6 460.254 413.45 369.255 327.722 288.573 251.825 218.102 186.48 157.253 129.416 102.852 77.8068 53.7276 31.4545 10.1423 220.567 772.418 1070.52 1022.25 963.915 921.294 884.294 848.877 813.801 778.016 741.499 704.636 667.43 630.074 592.897 555.906 519.307 483.318 447.765 413.008 379.03 345.867 313.303 281.459 250.753 220.817 191.625 162.671 133.76 105.241 76.7018 48.9855 17.0358 225.581 609.106 798.725 831.66 809.337 791.225 775.406 758.512 739.567 717.93 694.109 668.544 641.555 613.139 583.974 553.925 523.259 492.256 460.934 429.467 397.841 366.439 334.802 303.254 272.16 241.265 210.738 180.31 149.85 119.476 88.5621 58.1222 21.4518 348.602 856.375 1029.15 1027.59 991.203 946.373 916.705 887.654 856.707 823.726 788.795 752.942 716.178 678.926 641.359 603.888 566.337 529.267 492.344 455.961 419.76 384.374 349.131 314.555 280.809 247.679 215.188 183.289 151.793 120.842 89.6323 59.1281 22.3509 525.282 1292.64 1507.09 1466.41 1404.58 1321.69 1244.4 1179.91 1116.95 1054.15 991.718 929.897 869.212 809.677 751.788 695.426 640.997 588.652 538.368 490.078 443.779 399.6 357.201 316.51 278.205 241.467 206.543 172.93 140.613 109.61 79.866 53.0523 21.4313 745.599 1811.11 2078.6 1999.25 1906.39 1796.12 1674.96 1560.92 1457.02 1356.71 1259.27 1164.9 1073.47 985.353 900.78 819.776 742.408 669.316 599.992 534.751 473.554 416.603 363.203 313.434 267.751 225.67 186.812 150.952 117.859 87.3082 60.0735 41.2032 18.6272 1013.34 2412.75 2733.88 2608.21 2480.54 2332.39 2172.09 2007.99 1852.44 1708.63 1571.49 1440.46 1315.1 1195.06 1080.92 972.31 869.292 772.447 681.534 595.956 516.485 443.588 376.634 314.824 259.036 209.008 164.757 125.327 91.7421 64.1186 45.4726 37.9774 18.3338 390.851 1400.78 1590.89 1527.94 1463.96 1381.79 1288.95 1191.95 1095.45 1005.2 921.308 841.546 766.076 693.835 625.525 560.498 499.122 441.22 387.324 336.409 289.188 245.684 206.233 169.843 137.123 107.799 82.3138 60.09 41.4872 27.335 19.0646 18.9416 15.5078 519.062 1077.33 1010.11 950.376 893.759 840.407 788.671 737.97 688.056 638.741 590.533 543.379 497.619 453.386 410.945 370.202 331.439 294.788 260.547 228.316 198.465 170.885 145.482 122.347 101.747 83.1356 66.8058 52.2164 39.2944 27.7867 17.1958 7.90994 1.69631 354.401 1434.11 1795.27 1639.37 1519 1420.88 1332.3 1249.01 1168.67 1090.31 1013.64 939.198 866.507 796.44 728.757 663.886 601.524 542.492 486.56 433.972 384.405 338.365 295.113 255.005 218.393 184.752 153.664 125.2 98.0859 73.065 49.4789 27.8042 7.56361 267.195 725.654 1240.05 1286.78 1151.56 1068.69 1004.43 948.229 896.258 846.566 797.898 750.6 704.029 658.704 614.399 571.267 529.156 488.545 449.09 411.075 374.318 339.027 304.757 271.724 240.304 210.198 180.957 152.684 124.498 96.852 69.9003 44.5295 15.4648 277.432 628.289 892.81 1015.92 928.267 863.121 819.344 784.061 752.202 721.398 690.745 659.899 628.912 597.648 566.336 534.772 503.159 471.594 440.174 408.81 377.581 346.621 315.741 285.066 255.15 225.399 196.053 166.883 137.661 108.491 79.551 51.7497 19.3073 371.212 780.543 1016.22 1062.24 1002.87 926.027 877.449 838.403 802.499 767.422 732.396 697.495 662.548 627.678 592.925 558.348 523.895 489.731 455.921 422.458 389.209 356.361 323.846 291.626 260.322 229.207 198.534 168.21 138.182 108.55 79.2226 51.4315 19.6968 521.09 1091.55 1396.08 1441.11 1360.89 1258.61 1165.61 1094.97 1030.55 968.782 908.985 850.764 794.42 739.667 686.891 635.775 586.57 539.129 493.769 450.044 408.09 367.666 329.133 291.774 256.452 222.246 189.52 157.818 127.097 97.376 69.1607 44.7238 18.2072 720.078 1495.63 1900.12 1972.73 1857.36 1728.96 1592.66 1469.56 1363.65 1264.21 1169.56 1078.99 992.252 909.353 830.346 755.168 683.728 616.156 552.468 492.586 436.342 383.707 334.827 289.105 246.99 207.78 171.41 137.815 106.527 77.3356 51.5434 34.8554 15.9693 965.802 1978.63 2507.74 2614.05 2446.66 2273.44 2096.92 1921.73 1761.29 1617.17 1482.27 1354.8 1234 1119.23 1010.69 908.045 811.195 719.996 634.828 555.123 481.016 412.564 350.133 292.726 241.003 194.355 152.878 116.063 84.5617 58.3876 40.6715 34.1355 17.0078 373.577 1136.74 1460.26 1563.31 1461.44 1360.84 1257.4 1153.94 1053.6 962.053 878.582 800.156 726.632 656.87 591.2 529.12 470.811 415.78 364.648 316.746 272.239 231.054 193.866 159.758 129.085 101.654 77.755 57.0129 39.6048 26.3527 18.6211 18.4672 14.935 547.08 1140.58 1075.64 1026.78 973.345 917.466 861.682 806.225 751.426 697.288 644.197 592.32 542.014 493.37 446.676 401.858 359.295 319.024 281.325 245.971 213.215 183.003 155.29 130.138 107.598 87.4045 69.6881 54.0934 40.6179 28.9606 18.6605 9.44714 2.02698 379.092 1522.9 1930.08 1805.58 1690.35 1582.26 1481.74 1386.13 1294.16 1204.6 1117.27 1032.47 950.152 870.657 794.251 721.009 651.061 584.583 521.946 463.277 408.236 357.25 309.75 265.981 226.069 189.701 156.499 126.46 98.7176 73.4554 50.2427 29.1914 8.31215 306.465 798.749 1318.7 1453.43 1324.35 1221.33 1138.13 1065.35 999.302 936.847 876.921 819.03 763.124 708.87 656.772 606.253 557.736 510.973 466.369 423.731 383.138 344.396 307.477 272.184 238.952 207.37 177.313 148.502 120.583 93.2743 67.1831 42.9992 15.19 310.799 694.32 906.259 1126.71 1071.13 967.069 898.898 846.513 801.71 760.741 721.817 684.011 647.129 610.862 575.413 540.319 505.707 471.583 438.085 405.099 372.606 340.622 309.046 277.907 247.666 217.93 188.802 160.015 131.445 102.971 75.0768 48.7057 18.2099 383.777 800.821 974.274 1068.68 1043.64 937.656 870.032 820.698 778.991 740.91 704.384 669.147 634.321 600.32 566.715 533.527 500.48 467.845 435.542 403.707 372.004 340.678 309.477 278.573 248.33 218.446 188.814 159.577 130.451 101.702 73.4551 47.0718 17.8764 512.792 1060.51 1263.94 1359.79 1312.23 1201.03 1095.73 1021.15 956.541 896.907 840.133 785.921 733.782 683.72 635.593 589.226 544.526 501.475 460.153 420.432 382.116 345.087 309.392 274.92 241.779 209.721 178.6 148.348 118.789 90.2254 63.0989 40.0054 16.0427 694.398 1424.58 1680.46 1831.33 1781.34 1648.69 1503.58 1375.05 1269.84 1173.71 1083.3 997.839 916.574 839.632 766.562 697.427 631.862 569.983 511.579 456.935 405.612 357.447 312.33 270.461 231.535 195.112 161.015 129.278 99.4528 71.5474 46.7702 31.1809 14.0754 926.96 1879.34 2192.96 2430.4 2376.15 2193.51 2007.98 1825.36 1662.22 1520.66 1389.86 1267.68 1152.56 1044.07 941.839 845.591 755.06 670.146 590.696 516.629 448.088 384.595 326.393 273.307 225.351 182.086 143.395 108.912 79.3625 54.7171 37.8805 32.0065 16.1062 359.383 1082.75 1256.89 1453.84 1442.47 1328.83 1217.32 1109.09 1005.67 914.012 831.952 755.922 685.086 618.383 555.885 497.037 441.927 390.151 341.955 296.927 255.355 216.874 181.788 149.907 121.306 95.7614 73.3682 53.9766 37.7397 25.364 18.0169 17.7716 14.2238 582.38 1209.36 1142.65 1096.2 1046.25 990.478 932.23 873.042 813.916 755.315 697.63 641.165 586.399 533.437 482.571 433.825 387.466 343.658 302.553 264.09 228.434 195.669 165.512 138.335 113.936 92.1569 73.0893 56.4324 42.1229 30.1571 20.1398 11.4734 2.72549 414.026 1630.31 2077.16 1947.96 1840 1731.95 1624.9 1520.55 1418.82 1319.45 1222.41 1127.94 1036.36 948.037 863.037 781.668 704.122 630.56 561.146 496.254 435.532 379.477 327.407 279.78 236.502 197.182 161.567 129.65 100.658 74.9028 51.903 31.3785 9.44707 338.733 871.083 1439.5 1588.06 1469.15 1365.26 1272.28 1188.24 1110.65 1037.3 966.832 899.048 833.721 770.847 710.272 652.156 596.613 543.513 492.73 444.849 399.553 356.821 316.315 278.188 242.462 208.932 177.262 147.545 119.069 91.8676 66.0627 42.2602 14.923 330.523 746.26 965.044 1191.08 1178.5 1076.75 996.272 931.314 875.167 824.502 776.631 731 686.906 644.423 602.941 562.808 523.605 485.605 448.263 412.345 377.247 343.276 309.831 277.433 245.929 215.443 185.558 156.629 127.981 99.9274 72.4427 46.5237 17.1226 384.467 805.972 958.388 1040.7 1066.78 970.448 890.556 832.7 785.404 743.402 704.141 666.723 630.507 595.406 561.092 527.383 494.289 461.546 429.168 397.344 365.849 334.778 303.834 273.159 243.082 213.465 184.153 155.294 126.5 98.1333 70.3648 44.1343 16.4087 495.925 1020.78 1185.33 1255.56 1245.06 1149.42 1037.42 961.518 898.216 841.093 787.696 736.966 688.777 642.521 598.425 555.78 514.959 475.431 437.307 400.53 365.018 330.561 297.069 264.403 232.858 202.107 172.167 142.879 114.061 85.9748 59.3243 36.2876 14.0959 663.572 1353.42 1563.25 1662.73 1657.77 1552.8 1408.4 1279.07 1177.75 1086.58 1001.92 922.314 847.266 776.38 709.477 646.144 586.373 530.025 476.812 426.895 380.066 336.126 294.682 255.859 219.803 185.631 153.468 123.221 94.4159 67.1932 42.9873 27.8862 12.3697 886.685 1789.41 2051.13 2199.14 2217.46 2087.45 1904.61 1720 1557.48 1420.68 1295.99 1180.17 1071.83 970.115 874.885 785.214 701.245 622.511 548.983 480.409 417.219 358.838 305.155 255.909 211.651 171.43 135.309 103.051 74.9139 51.3963 35.486 30.2104 15.135 345.259 1037.78 1186.31 1307.87 1351.28 1281.96 1168.77 1058.59 953.499 862.642 783.155 710.126 642.608 579.283 520.352 464.925 413.179 364.628 319.553 277.412 238.602 202.845 170.128 140.326 113.723 89.9226 69.0199 50.9346 35.6088 24.0255 17.2569 17.2745 13.7839 625.281 1280.03 1211.01 1165.92 1117.27 1062.01 1002.26 940.023 876.89 813.907 751.674 690.636 631.364 574.071 518.929 466.194 416.051 368.693 324.168 282.599 243.983 208.6 176.09 146.751 120.487 97.1411 76.5968 58.8714 43.5324 30.7695 20.4765 12.3812 3.34073 461.294 1747 2223.31 2089.32 1982.17 1875.52 1765.57 1654.93 1544.91 1436.47 1330.15 1226.32 1125.48 1028.3 934.749 845.233 759.988 679.263 603.136 531.899 465.358 404.048 347.418 295.544 248.687 206.325 168.029 134.135 103.577 76.5804 53.2015 33.2121 11.0392 368.473 942.599 1555.29 1727.07 1605.73 1502.94 1406.67 1315.19 1228.47 1145.35 1065.16 987.802 913.156 841.467 772.633 706.519 643.558 583.727 526.705 472.998 422.462 375.016 330.538 288.878 250.291 214.359 180.636 149.421 119.899 92.0654 66.1336 42.4441 15.2178 339.475 784.58 1017.87 1277.38 1284.3 1186.27 1103.48 1030.84 965.858 906.102 849.495 795.434 743.581 693.755 645.621 599.052 554.194 511.09 469.156 428.917 390.207 353.044 316.98 282.306 249.012 216.936 185.827 155.933 126.765 98.4926 71.1076 45.2148 16.3776 375.013 797.446 945.491 1035.6 1084.17 1009.57 932.518 870.74 818.696 772.147 728.976 687.826 648.446 610.411 573.604 537.455 502.402 467.963 434.069 400.768 368.256 336.234 304.59 273.181 242.609 212.446 182.674 153.371 124.451 95.9448 68.2988 42.0346 15.2396 471.509 967.61 1107.66 1169.85 1167.98 1099.7 992.812 920.325 859.733 805.346 754.814 706.958 661.539 618.177 576.793 536.888 498.488 461.46 425.38 390.568 356.721 323.818 291.699 260.049 229.304 199.284 169.711 140.8 112.227 84.1089 57.2996 33.7743 12.3965 626.746 1270.18 1446.33 1526.77 1517.52 1442.17 1308.91 1184.36 1090.16 1005.84 927.831 854.777 786.029 721.371 660.392 602.89 548.492 497.45 449.039 403.528 360.583 320.243 282.065 245.94 212.032 179.752 148.907 119.759 91.6325 64.5994 40.1328 25.1984 10.7183 842.047 1691.21 1917.28 2035.82 2031.39 1942.8 1784.76 1605.68 1447.8 1318.47 1201.35 1093.25 992.407 898.077 809.961 727.173 649.651 577.35 509.799 446.91 388.748 335.178 285.953 240.476 199.359 162.087 128.012 97.594 70.5961 47.6015 32.1963 27.9388 14.1217 330.218 990.743 1123.18 1222.82 1239.98 1201.3 1109.41 1001.95 897.315 808.574 732.425 663.192 599.419 539.907 484.632 432.893 384.501 339.334 297.352 258.2 222.108 188.953 158.752 131.15 106.249 84.2075 64.5628 47.5409 33.1153 21.9254 15.6033 16.2602 13.3283 680.235 1355 1280.83 1237.94 1190.8 1135.89 1074.82 1009.64 942.592 875.026 808.005 742.229 678.231 616.453 556.914 500.069 445.952 395.054 347.085 302.309 260.773 222.652 187.651 156.296 128.046 103.152 81.2465 62.4121 46.0256 32.3556 20.9173 12.4331 3.44068 527.329 1880.03 2371.48 2234.38 2127.75 2021.33 1909.49 1793.66 1676.13 1558.72 1442.92 1329.57 1219.23 1112.95 1010.59 912.742 819.493 731.412 648.42 570.706 498.308 431.456 369.94 313.872 263.12 217.6 176.6 140.342 108.03 79.3956 54.5482 33.9547 11.7087 401.059 1019.8 1671.21 1873.67 1749.55 1645.08 1546.43 1449.47 1354.88 1262.44 1172.62 1085.58 1001.43 920.501 842.974 768.647 697.833 630.729 567.155 507.286 451.191 398.624 349.646 304.116 262.041 223.332 187.218 153.897 123.069 94.0912 67.3873 43.3505 15.6719 339.456 814.486 1068.12 1376.07 1407.95 1309.08 1224.37 1146.64 1073.9 1005.3 939.7 876.69 816.266 758.223 702.397 648.764 597.118 547.831 500.438 455.137 411.916 370.652 331.006 293.261 257.351 223.147 190.165 158.694 128.498 99.2955 71.5404 45.4611 16.3224 351.82 774.318 934.308 1047.25 1131.98 1075.48 1000.27 936.695 880.106 828.196 779.524 732.947 688.462 645.699 604.333 564.208 525.216 487.362 450.529 414.486 379.503 345.259 311.634 278.603 246.597 215.184 184.234 153.877 124.176 95.0128 67.1865 41.0248 14.6475 437.483 902.326 1032.93 1101.82 1113.86 1068.1 971.604 904.811 847.476 795.1 746.024 699.503 655.272 613.036 572.552 533.615 495.977 459.678 424.379 390.058 356.694 324.103 292.183 260.598 229.761 199.559 169.599 140.161 111.218 82.6482 55.4459 31.7799 11.2508 583.529 1174.03 1324.88 1398.78 1393.46 1332.96 1215.66 1097.57 1013.73 937.686 866.898 800.368 737.718 678.693 623.143 570.668 521.114 474.238 430.056 388.131 348.622 310.875 275.233 241.137 208.759 177.571 147.536 118.626 90.9577 63.6674 38.7284 23.5088 9.54112 790.016 1575.74 1771.76 1874.64 1866.76 1784.66 1652.49 1484.16 1335.49 1216.71 1109.06 1009.62 916.936 830.291 749.423 673.639 602.67 536.443 474.893 417.441 364.386 315.101 269.874 228.115 190.07 155.25 123.046 93.7331 67.7609 44.9107 29.6736 25.9485 13.2424 313.332 937.225 1054.61 1141.02 1150.89 1109.16 1035.1 938.288 836.984 752.144 680.579 615.766 556.261 500.85 449.389 401.408 356.51 314.629 275.861 239.747 206.494 175.808 147.9 122.445 99.3364 78.8578 60.4636 44.2708 30.57 19.6598 13.7713 15.3251 13.0745 750.086 1440.44 1355.45 1317.99 1273.86 1218.92 1155.8 1086.88 1015.06 942.073 869.313 798.065 728.715 662.009 597.669 536.451 478 423.273 371.713 323.72 279.067 238.201 200.597 167.064 137.024 110.396 87.1026 67.3042 49.9375 35.6967 23.4794 14.0864 3.69671 616.391 2047.08 2537.69 2393.09 2288.47 2182.26 2067.84 1945.96 1819.93 1692.54 1565.9 1441.81 1321.09 1204.86 1093.1 986.322 884.622 788.687 698.603 614.132 535.553 463.161 396.512 335.845 281.36 232.274 188.546 149.972 115.767 85.5645 59.2477 37.0473 12.7094 436.32 1110.61 1810.14 2049.51 1915.13 1805.99 1703.02 1599.86 1496.72 1394.26 1293.59 1195.75 1101.17 1010.17 923.232 839.995 760.786 685.769 615.127 548.647 486.454 428.503 374.615 324.726 278.813 236.641 197.9 162.139 129.401 99.0988 71.2456 46.5048 16.8647 328.058 840.07 1124.8 1510.96 1568.88 1461.98 1370.84 1286.2 1204.75 1126.16 1050.01 976.719 906.384 838.904 774.172 712.31 652.905 596.456 542.667 491.386 442.712 396.712 352.787 311.145 271.743 234.544 199.141 165.402 133.424 102.971 74.2071 48.028 17.4218 305.352 732.639 929.3 1089.56 1229.22 1188.57 1109.55 1040.84 977.541 917.834 861.199 806.839 754.832 705.07 657.081 610.875 566.221 523.165 481.653 441.356 402.432 364.756 328.049 292.116 257.438 223.762 190.808 158.567 127.325 96.9239 68.1229 42.4718 15.2854 379.833 815.091 962.994 1062.83 1104.64 1088.56 999.862 934.323 876.818 823.456 772.944 724.715 678.667 634.824 592.625 552.062 512.831 475.004 438.291 402.677 368.001 334.261 301.098 268.265 236.06 204.675 173.433 142.645 112.382 82.7491 54.6789 32.0213 11.2669 525.821 1065.2 1208.26 1293.69 1304.23 1258.95 1155.22 1041.44 965.562 896.844 831.984 770.49 712.236 657.44 605.52 556.541 509.947 465.967 424.164 384.503 346.648 310.56 276.001 242.73 210.514 179.521 149.161 119.667 91.0843 63.3159 38.0735 23.9403 9.44384 724.556 1442.49 1616.28 1718.86 1718.63 1647.47 1531.31 1373.61 1232.47 1126.46 1029.28 938.886 854.231 775.044 700.791 631.527 566.441 505.863 449.199 396.691 347.808 302.57 260.423 221.677 185.791 152.844 121.768 93.248 67.2371 44.6474 28.9393 25.0687 12.8013 292.521 873.475 974.1 1053.65 1063.04 1024.46 957.013 871.306 774.573 695.666 629.949 570.252 515.323 464.242 416.713 372.424 331.055 292.498 256.749 223.599 192.987 164.87 139.007 115.528 94.1976 75.1521 57.8748 42.4779 29.1368 18.5267 12.5927 14.2936 12.6245 192.767 503.477 470.428 462.544 450.645 433.154 411.983 388.089 362.924 336.985 311.118 285.587 260.871 236.981 214.09 192.178 171.392 151.759 133.416 116.227 100.347 85.6457 72.2906 60.1367 49.4701 39.8887 31.5721 24.4509 18.34 13.1526 8.94235 5.45689 2.02084 225.584 1110.31 1361.17 1292.13 1246.78 1195.93 1137.63 1073.12 1005.06 935.11 865.239 796.159 729.269 664.488 602.638 543.17 486.916 433.411 383.602 336.665 293.263 252.892 216.175 182.349 152.468 125.38 101.529 80.4809 62.3206 46.0573 32.549 20.6679 9.33724 154.887 595.546 978.173 1138.13 1063.06 1006.65 952.679 897.091 840.199 782.662 725.74 669.813 615.982 563.949 514.555 467.085 422.233 379.517 339.643 301.982 266.995 234.29 204.296 176.331 151.018 127.704 106.656 87.2829 69.9155 53.7989 39.3662 26.3016 12.3656 107.454 426.935 586.989 842.805 895.586 832.334 781.144 733.588 687.108 641.437 596.831 553.438 511.991 472.128 434.236 397.95 363.477 330.558 299.608 270.125 242.443 216.24 191.729 168.416 146.753 126.208 107.103 88.9576 72.0194 55.9476 41.0744 27.4059 12.8391 86.661 335.735 461.805 579.127 692.684 682.365 635.092 594.891 557.752 522.304 488.411 455.744 424.7 394.989 366.697 339.427 313.466 288.386 264.616 241.538 219.5 198.243 177.994 158.096 139.15 120.726 103.082 85.8225 69.3292 53.3142 38.2838 24.7166 11.2903 103.25 342.212 439.914 521.016 569.484 585.58 543.783 507.82 476.093 446.621 418.71 392.157 366.785 342.637 319.59 297.349 276.049 255.421 235.632 216.348 197.697 179.542 161.872 144.316 127.167 110.363 93.901 77.5494 61.6233 45.9873 31.1729 18.7706 8.43964 149.232 446.655 527.06 591.945 617.623 611.165 569.057 513.14 476.98 444.64 414.156 385.167 357.514 331.482 306.796 283.321 261.013 239.739 219.536 200.091 181.471 163.59 146.381 129.551 113.086 97.0563 81.4432 65.938 50.8578 36.1487 22.6474 13.382 7.02574 211.849 617.008 699.673 767.61 784.38 762.83 715.817 642.842 575.307 528.31 485.245 444.785 406.587 370.702 337.05 305.491 275.943 248.207 222.364 198.148 175.545 154.409 134.624 116.116 98.7373 82.4131 66.9553 52.2571 38.5103 26.0049 16.1218 11.6237 8.92383 132.751 524.385 584.595 643.633 657.686 638.673 599.408 548.221 485.907 435.487 395.439 358.764 324.858 293.194 263.682 236.062 210.429 186.427 164.233 143.54 124.531 106.99 90.8818 76.0626 62.6407 50.4608 39.4627 29.3798 20.5706 13.2838 9.00405 9.55746 9.47801 
CELL_DATA 12288
SCALARS stress float 1
LOOKUP_TABLE default
51.8637 92.1596 31.8214 31.8214 101.731 92.824 54.9219 82.4332 75.5007 78.7672 76.2576 72.131 52.8134 76.3768 63.2282 65.841 69.2366 66.052 50.7472 71.9169 58.4712 60.9533 64.9741 62.1236 48.7679 67.8303 55.0437 57.4347 61.3526 58.7154 46.7047 63.8704 51.9607 54.2363 57.8968 55.4463 44.6041 59.9012 49.0382 51.17 54.4882 52.2156 42.39 56.0055 46.1561 48.1297 51.0955 48.9993 40.1293 52.0819 43.3337 45.1389 47.7114 45.7971 37.789 48.2895 40.5049 42.1362 44.3571 42.6219 35.4491 44.507 37.7389 39.1968 41.0602 39.4959 33.0878 40.8786 35.0042 36.2992 37.8241 36.4285 30.768 37.3136 32.3414 33.4756 34.6719 33.442 28.46 33.9365 29.7345 30.714 31.6263 30.551 26.2253 30.6368 27.2318 28.0679 28.69 27.7663 24.0349 27.5244 24.7915 25.4906 25.8917 25.1106 21.9513 24.5462 22.4883 23.0595 23.2269 22.5835 19.8998 21.7935 20.2603 20.7114 20.6941 20.1757 17.9711 19.1577 18.1612 18.5019 18.3447 17.9456 16.1173 16.7478 16.182 16.4244 16.1136 15.8233 14.3702 14.465 14.2974 14.4507 14.091 13.8992 12.7212 12.4298 12.5739 12.6522 12.182 12.0771 11.153 10.5067 10.9104 10.9227 10.4616 10.4251 9.67936 8.8585 9.40521 9.37255 8.88312 8.91231 8.32131 7.29998 8.00988 7.93071 7.46982 7.54973 7.04071 6.00601 6.72753 6.61935 6.196 6.32426 5.82734 4.81331 5.54594 5.40726 5.044 5.19449 4.67653 3.80078 4.42583 4.28544 4.00335 4.16946 3.57884 2.86043 3.3685 3.22211 3.05397 3.21316 2.54303 2.0953 2.42508 2.3095 2.17712 2.32356 1.50791 1.31194 1.46624 1.39394 1.34957 1.43274 0.737299 0.774399 0.784305 0.871217 0.725612 0.654932 20.3104 33.3793 17.3271 17.3271 52.2495 56.0204 28.9882 71.4869 41.3801 49.6561 48.8596 45.6414 35.3242 57.238 45.2226 49.2796 46.5214 43.9918 36.6076 52.344 42.8466 45.6514 44.3613 42.1946 36.8457 49.0424 41.1559 43.1988 42.4435 40.5723 36.6359 46.16 39.7253 41.209 40.5424 38.9585 36.0592 43.4957 38.3481 39.3767 38.6995 37.3775 35.2715 40.9245 36.9471 37.618 36.8142 35.7343 34.2273 38.4594 35.4849 35.8646 34.9428 34.0779 33.0456 36.0164 33.932 34.0877 33.0237 32.3609 31.7099 33.6645 32.3257 32.2888 31.1369 30.6445 30.3121 31.3481 30.685 30.5097 29.2361 28.9025 28.8103 29.1224 29.0028 28.7053 27.388 27.1884 27.2928 26.9438 27.3086 26.9307 25.5444 25.4722 25.7213 24.8726 25.6167 25.1617 23.7744 23.8067 24.1441 22.847 23.9227 23.4249 22.0278 22.1508 22.5603 20.9486 22.2577 21.7203 20.3726 20.5662 20.9821 19.0999 20.604 20.0582 18.7197 18.9802 19.4056 17.3682 18.9875 18.4232 17.1755 17.4833 17.8686 15.7283 17.4123 16.8583 15.6716 16.02 16.3438 14.1596 15.867 15.3135 14.2483 14.6198 14.8675 12.7089 14.3772 13.8488 12.8746 13.2677 13.3714 11.2901 12.9058 12.3908 11.5506 11.9406 11.9572 9.99303 11.4989 11.025 10.2823 10.6713 10.5544 8.7619 10.1359 9.685 9.08366 9.45469 9.21754 7.60593 8.82759 8.42486 7.92281 8.26888 7.8771 6.49393 7.54391 7.18094 6.77521 7.09775 6.57816 5.40084 6.28231 5.96462 5.64883 5.94065 5.26772 4.31869 5.03652 4.75682 4.52565 4.78513 3.9899 3.30776 3.83352 3.60601 3.42578 3.6463 2.64581 2.24515 2.60746 2.43113 2.29377 2.44731 1.34142 1.3219 1.45066 1.38054 1.25024 1.3167 16.8669 18.7919 13.7037 13.7037 19.2714 28.4686 24.438 34.0472 30.3971 35.4246 21.9317 25.7077 32.1834 37.6796 35.2912 37.9873 26.9299 25.2636 33.716 34.5777 36.1838 37.9701 27.9646 27.0899 35.1635 32.8319 36.1037 36.7344 28.1685 27.7901 35.7971 31.5391 35.8616 35.7473 28.0831 28.0718 35.8882 30.397 35.4996 34.8953 27.7517 28.0316 35.591 29.3179 34.9071 33.9535 27.314 27.8147 34.9555 28.2573 34.1377 32.9561 26.7041 27.3737 34.0768 27.1614 33.1576 31.8244 26.0149 26.8051 33.0069 26.0418 32.0564 30.6387 25.2014 26.0882 31.811 24.922 30.8411 29.3752 24.3598 25.2958 30.4897 23.7625 29.5239 28.0586 23.4089 24.3959 29.102 22.601 28.1374 26.6765 22.451 23.4568 27.6418 21.4333 26.7115 25.2838 21.424 22.4349 26.1188 20.2499 25.2225 23.8468 20.379 21.3715 24.5875 19.0762 23.7233 22.4107 19.3001 20.2776 23.0194 17.8882 22.1978 20.9526 18.2018 19.1442 21.4418 16.7109 20.673 19.5024 17.0739 17.9868 19.8736 15.5404 19.1464 18.05 15.9509 16.8264 18.3156 14.3712 17.6318 16.6035 14.8079 15.6484 16.7578 13.2199 16.1415 15.1867 13.6753 14.4583 15.1919 12.0488 14.6274 13.7523 12.4839 13.2197 13.6702 10.9029 13.1556 12.3576 11.3342 12.0147 12.1662 9.75817 11.7153 10.9848 10.1535 10.7917 10.7102 8.6344 10.3021 9.63981 9.00296 9.59405 9.26597 7.49889 8.92101 8.31431 7.81399 8.36546 7.85007 6.34948 7.54453 6.99782 6.62896 7.13996 6.4297 5.18697 6.1888 5.68801 5.40272 5.88412 5.01533 4.03395 4.85592 4.4078 4.17731 4.61692 3.53621 2.82955 3.47537 3.07523 2.86306 3.28408 2.00963 1.69725 2.1385 1.82234 1.6222 1.93075 38.2111 16.0365 22.7082 22.7082 15.7346 26.592 39.558 24.7215 42.6391 43.4516 20.5256 26.732 43.9902 25.4838 44.4411 44.5731 23.7818 27.1726 45.7366 26.5082 44.7619 44.3849 24.8074 26.5114 44.6062 26.149 43.1392 42.1843 25.836 27.7606 44.2781 25.9389 42.3964 40.8693 26.3562 28.44 43.6107 25.7744 41.5706 39.6819 26.5275 28.6717 42.6052 25.4834 40.5333 38.4422 26.452 28.6284 41.3442 25.1086 39.3139 37.1048 26.1431 28.2894 39.8448 24.5881 37.9 35.6618 25.6743 27.7726 38.219 23.993 36.3778 34.1506 25.0684 27.0919 36.4843 23.3116 34.7589 32.5886 24.3749 26.3146 34.6864 22.5516 33.074 30.9742 23.5807 25.4185 32.8164 21.7223 31.3284 29.3298 22.7274 24.4664 30.9482 20.8581 29.572 27.6753 21.8077 23.4401 29.0302 19.922 27.7899 26.0092 20.8257 22.3519 27.167 18.9621 26.0096 24.343 19.8183 21.2389 25.2688 17.9516 24.2337 22.6889 18.7573 20.0758 23.416 16.9279 22.4791 21.046 17.6731 18.8768 21.5698 15.8564 20.7299 19.4286 16.5568 17.6625 19.7673 14.7612 19.0005 17.8077 15.4129 16.4254 17.9864 13.6652 17.3247 16.244 14.2514 15.1742 16.2366 12.5106 15.642 14.6602 13.0448 13.8924 14.5437 11.3637 14.0322 13.1428 11.8499 12.6167 12.8965 10.2111 12.4494 11.6461 10.6351 11.3333 11.2978 9.04022 10.9082 10.1895 9.42421 10.0677 9.75009 7.87205 9.42091 8.76119 8.1964 8.80308 8.26064 6.68397 7.97036 7.36486 6.97089 7.53896 6.79822 5.47926 6.55835 5.99389 5.7042 6.25314 5.35397 4.26168 5.18018 4.65046 4.41027 4.95962 3.8445 2.96596 3.77126 3.25005 3.02161 3.57479 2.24828 1.72397 2.35995 1.89174 1.66933 2.15825 61.7754 25.8503 36.4958 36.4958 38.9332 44.3208 59.7281 40.8856 63.702 62.6902 39.3635 44.1217 61.9926 39.7582 62.8242 61.4624 40.565 44.2116 62.4727 38.0333 61.5573 60.0121 39.9684 43.088 61.147 35.6806 59.3617 57.5059 38.0212 40.9147 58.4777 34.493 56.2425 54.0071 37.0452 40.0016 56.2851 33.4285 53.927 51.4326 36.0084 38.9728 53.9879 32.3266 51.6279 48.9868 34.8342 37.7342 51.4682 31.1623 49.1689 46.4926 33.5599 36.3777 48.8746 29.9153 46.6856 44.0201 32.1579 34.8567 46.1683 28.6357 44.0977 41.4964 30.7266 33.2984 43.468 27.3175 41.5502 39.0375 29.2386 31.6613 40.7345 25.9881 38.9507 36.5533 27.7602 30.0391 38.056 24.6355 36.4221 34.1484 26.2383 28.358 35.3769 23.2864 33.888 31.7541 24.7494 26.7183 32.779 21.9386 31.4443 29.4521 23.2347 25.0445 30.2531 20.5959 29.0261 27.1812 21.7855 23.451 27.7978 19.262 26.7229 25.021 20.3055 21.8248 25.4139 17.9329 24.4577 22.8947 18.871 20.2728 23.1531 16.6182 22.3142 20.8723 17.443 18.7159 20.9455 15.3051 20.1924 18.8772 16.0501 17.2161 18.8533 14.023 18.2223 17.0222 14.6559 15.7154 16.8048 12.711 16.2484 15.1526 13.2756 14.2496 14.8962 11.4479 14.4306 13.4311 11.9298 12.8292 13.0721 10.1902 12.6756 11.7491 10.6074 11.4476 11.3545 8.95174 11.0148 10.1594 9.31116 10.0851 9.69428 7.72323 9.41889 8.6266 8.02699 8.75842 8.14275 6.49333 7.8983 7.16596 6.75864 7.44944 6.64797 5.27189 6.44426 5.74544 5.49357 6.17548 5.2535 4.05945 5.07928 4.40989 4.2172 4.93022 3.83133 2.78495 3.73701 3.03239 2.85322 3.63957 2.32696 1.59611 2.42793 1.74341 1.58186 2.33742 86.9015 40.9757 53.4347 53.4347 64.0128 66.9403 81.6215 64.3853 87.92 86.3004 61.5238 65.4401 82.6129 61.5769 84.8674 82.7959 61.4851 64.9796 81.9275 58.5591 82.0765 79.9084 59.9003 63.097 79.557 55.0262 78.5606 76.2572 57.0985 60.1819 76.0131 51.1375 74.3392 71.8545 53.6588 56.7071 71.7314 48.2907 69.7465 67.0795 50.8664 53.8812 67.7331 45.6331 65.6728 62.9309 48.1693 51.1086 63.7558 42.9538 61.6823 58.9396 45.4054 48.2292 59.6911 40.366 57.7022 55.018 42.6791 45.3704 55.7251 37.7538 53.8041 51.2087 39.9282 42.4699 51.7393 35.2616 49.9573 47.4804 37.2554 39.6391 47.8938 32.7593 46.2185 43.8735 34.606 36.8323 44.0967 30.388 42.5729 40.3671 32.0563 34.1218 40.4732 28.0423 39.0696 37.0087 29.5493 31.46 36.9092 25.819 35.6758 33.7609 27.1566 28.9134 33.5962 23.653 32.443 30.671 24.8643 26.4732 30.3394 21.6267 29.3531 27.7257 22.6718 24.1337 27.2998 19.6524 26.4268 24.9399 20.5724 21.8993 24.3914 17.813 23.6558 22.3047 18.6049 19.8176 21.7204 16.0109 21.0498 19.8086 16.7095 17.808 19.1415 14.3623 18.607 17.4835 14.9347 15.9223 16.7526 12.7155 16.2846 15.2676 13.2121 14.1086 14.5073 11.2128 14.1414 13.2219 11.6195 12.4394 12.4791 9.76371 12.1674 11.3211 10.1025 10.8552 10.5754 8.39132 10.3227 9.55323 8.67393 9.37075 8.81992 7.06898 8.62704 7.90919 7.28848 7.95486 7.19716 5.78359 7.04215 6.36512 5.97613 6.61069 5.7172 4.54014 5.58407 4.92924 4.69765 5.34135 4.35568 3.34492 4.24196 3.59096 3.47456 4.14806 3.10891 2.20947 3.00508 2.31261 2.26674 3.0771 1.87858 1.37585 1.953 1.20838 1.38621 2.16021 114.331 60.2744 73.8838 73.8838 91.2146 92.3631 104.906 90.5687 115.112 113.397 85.1168 88.5787 105.405 86.0167 109.666 107.157 84.2501 87.6021 104.051 81.8177 105.512 102.973 81.8444 85.0048 100.428 77.0698 100.484 97.9232 78.0746 81.1133 95.4901 71.8791 94.685 92.0753 73.4965 76.4619 89.6908 66.6286 88.444 85.7869 68.5745 71.4552 83.5642 62.0896 82.072 79.4019 64.1015 66.8742 77.7533 57.7628 76.1698 73.5486 59.7908 62.4303 72.1306 53.5553 70.5603 68.0259 55.4877 57.9696 66.6086 49.5031 65.0388 62.6274 51.3663 53.6886 61.2904 45.56 59.8206 57.5436 47.2728 49.4264 56.089 41.7727 54.6891 52.56 43.3752 45.3663 51.1295 38.1219 49.8494 47.8689 39.5604 41.3862 46.327 34.6388 45.1541 43.3265 35.9514 37.6262 41.7598 31.3012 40.7458 39.0624 32.4359 33.9587 37.4332 28.149 36.4838 34.9443 29.2005 30.5838 33.3566 25.1637 32.5586 31.1552 26.0414 27.2891 29.4532 22.3596 28.772 27.4989 23.1206 24.2515 25.8535 19.7429 25.2854 24.1288 20.3564 21.3627 22.4888 17.3042 21.976 20.9415 17.8597 18.761 19.4042 15.0463 19.0279 18.1004 15.4628 16.2706 16.5032 12.9257 16.1985 15.3614 13.2739 14.0067 13.8806 10.9912 13.6731 12.9156 11.2316 11.888 11.4851 9.23025 11.3293 10.6439 9.42706 10.0326 9.36551 7.60545 9.27731 8.65073 7.73585 8.30975 7.4429 6.12834 7.40985 6.808 6.20087 6.75669 5.75214 4.76289 5.74894 5.17199 4.79729 5.34831 4.2847 3.50241 4.31269 3.72867 3.51492 4.10095 3.00898 2.36308 3.05092 2.44079 2.33357 2.95949 1.97818 1.41832 1.99852 1.34263 1.36636 2.06337 1.20196 1.3569 1.26725 0.80118 1.3434 1.78729 142.535 84.8709 97.9785 97.9785 121.42 122.3 129.67 120.051 146.122 143.475 110.376 113.931 132.843 113.249 138.862 135.521 109.312 112.677 131.303 107.812 133.58 130.541 106.432 109.566 126.063 101.618 126.777 123.938 101.474 104.447 118.872 94.8538 118.656 115.937 95.4818 98.3096 110.739 87.8431 110.072 107.466 88.8972 91.5803 102.309 80.9134 101.347 98.8535 82.2301 84.7483 93.9712 74.6126 92.8596 90.5006 76.0286 78.3649 86.2628 68.7098 85.0859 82.8848 70.1128 72.2619 78.9968 62.9642 77.7775 75.7484 64.3697 66.3317 72.0031 57.5717 70.8475 68.9889 58.8726 60.6576 65.3781 52.3053 64.285 62.5919 53.5337 55.1397 59.0202 47.3645 58.017 56.489 48.4671 49.9058 53.0198 42.5895 52.107 50.7383 43.5801 44.8585 47.2593 38.1261 46.4944 45.2749 38.953 40.0789 41.8976 33.8292 41.1986 40.1248 34.5864 35.5688 36.8107 29.8865 36.247 35.3074 30.4924 31.3414 32.0747 26.1018 31.6295 30.8175 26.5822 27.3068 27.5953 22.6256 27.2643 26.5682 22.9921 23.6057 23.5187 19.3551 23.2563 22.6656 19.6663 20.1756 19.7396 16.4604 19.601 19.1064 16.6318 17.0507 16.3234 13.7171 16.2603 15.8507 13.8081 14.1438 13.1709 11.2797 13.21 12.8781 11.2676 11.5327 10.3916 9.0481 10.485 10.2206 8.9793 9.18281 7.90489 7.12817 8.07443 7.8678 6.96869 7.12111 5.7723 5.40515 6.00778 5.85081 5.17813 5.29566 3.90184 3.91701 4.23058 4.10744 3.63321 3.72725 2.45322 2.75028 2.85166 2.75573 2.3763 2.4617 1.41529 1.87788 1.8922 1.82373 1.43426 1.51248 1.30475 1.6743 1.64755 1.62742 1.3118 1.34121 1.80588 2.11033 1.87786 1.92047 2.03668 1.98905 36.2525 93.9434 31.6293 31.6293 95.4925 92.6672 78.868 87.5483 79.3381 81.2225 87.212 82.5582 65.0898 84.1538 72.6942 75.7627 79.4956 75.7487 59.9465 79.7236 66.95 69.7592 74.2767 70.9397 56.3777 75.3508 62.508 65.2576 69.7873 66.6867 53.2339 70.8968 58.56 61.2639 65.5964 62.6826 50.247 66.5205 54.9417 57.5735 61.4782 58.7353 47.302 62.1044 51.4195 53.9482 57.4629 54.8929 44.3986 57.7737 48.0561 50.4608 53.4376 51.0404 41.4862 53.4576 44.6739 46.9338 49.5442 47.3225 38.6253 49.284 41.4535 43.5623 45.6728 43.6235 35.7994 45.1556 38.2387 40.1862 41.9491 40.0722 33.0444 41.2203 35.179 36.9675 38.2985 36.5896 30.3453 37.3727 32.1564 33.7815 34.8289 33.2843 27.7574 33.7502 29.315 30.7872 31.4529 30.0673 25.2333 30.2108 26.5173 27.8304 28.2586 27.0247 22.8533 26.9267 23.91 25.0796 25.2112 24.1222 20.5463 23.7837 21.37 22.3952 22.389 21.4311 18.3788 20.9101 19.0519 19.9544 19.6949 18.8628 16.3286 18.1488 16.7891 17.5683 17.22 16.5044 14.3928 15.675 14.7442 15.4149 14.8915 14.2862 12.6097 13.3345 12.7902 13.3525 12.8023 12.2912 10.9019 11.2478 11.0041 11.4796 10.8271 10.4132 9.35063 9.32963 9.32733 9.70712 9.1231 8.78873 7.928 7.67259 7.87365 8.18245 7.52784 7.27039 6.60443 6.16099 6.46188 6.69583 6.18793 5.98762 5.39321 4.89555 5.24511 5.42885 4.93286 4.80823 4.22647 3.73485 4.0887 4.2002 3.85109 3.76309 3.14792 2.77081 3.03407 3.11447 2.83853 2.80664 2.14774 1.8812 2.06192 2.09162 1.96242 1.96163 1.1435 1.0521 1.15501 1.15893 1.01858 1.05864 0.364299 0.348073 0.350855 0.370169 0.442021 0.394985 20.8453 30.3962 22.1193 22.1193 33.435 32.8179 45.7924 72.0504 38.8346 40.3099 72.0005 67.951 47.4035 67.3281 61.5478 63.3292 59.6081 55.9771 44.4884 61.6759 52.4049 55.0003 54.5314 51.2545 42.4239 57.3251 48.033 50.5559 50.9835 47.9878 40.6822 53.504 45.0009 47.3192 47.9182 45.1782 39.0246 50.0673 42.4876 44.5774 45.0831 42.5929 37.3874 46.7724 40.1978 42.0539 42.3624 40.107 35.7136 43.6822 38.0345 39.6728 39.7392 37.7207 33.9922 40.6082 35.9126 37.3332 37.1572 35.3581 32.2388 37.7298 33.8255 35.0541 34.6604 33.0738 30.4836 34.8661 31.7721 32.8198 32.2172 30.8331 28.7089 32.1789 29.741 30.6223 29.863 28.6691 26.946 29.5319 27.7578 28.4867 27.5715 26.5558 25.1997 27.0693 25.8202 26.4101 25.3915 24.5458 23.4656 24.6389 23.9112 24.3755 23.265 22.5717 21.7731 22.397 22.0708 22.4231 21.2776 20.7262 20.1102 20.21 20.277 20.5308 19.3489 18.9208 18.4847 18.2303 18.5524 18.7224 17.5409 17.2365 16.9119 16.2888 16.8747 16.9613 15.831 15.6267 15.3724 14.5405 15.2797 15.3027 14.2056 14.0966 13.898 12.8585 13.7429 13.7058 12.705 12.6655 12.4371 11.3087 12.241 12.1651 11.2383 11.2716 11.0546 9.83912 10.829 10.7094 9.89552 9.97879 9.71292 8.55178 9.49436 9.34549 8.63791 8.77007 8.43463 7.28029 8.20292 8.02967 7.44741 7.60766 7.18176 6.14974 6.96645 6.77929 6.31697 6.5025 5.93967 5.03635 5.77545 5.57906 5.18765 5.38324 4.71283 3.96975 4.57989 4.37894 4.09158 4.29961 3.5215 2.95824 3.44631 3.24748 3.04623 3.24193 2.30622 1.97962 2.32273 2.13615 1.97099 2.17225 1.22415 1.09379 1.31428 1.13948 1.04213 1.22095 15.9189 19.4695 20.8666 20.8666 16.8208 16.5105 34.9129 29.2882 34.9016 34.721 37.6659 34.1222 38.61 54.7694 44.2994 49.7694 39.8071 36.6247 37.8926 44.8958 43.271 45.4079 36.5961 34.2522 37.0844 40.526 40.1377 41.4377 34.5229 32.6894 36.328 37.6839 38.1541 38.9331 32.9363 31.4721 35.562 35.4337 36.6535 37.0833 31.5299 30.3807 34.6554 33.4655 35.2942 35.4378 30.2333 29.336 33.6404 31.6831 33.977 33.9268 28.9694 28.2876 32.4689 29.9786 32.6242 32.4197 27.7062 27.1987 31.2309 28.3301 31.2308 30.9279 26.432 26.0901 29.9172 26.7444 29.8088 29.4138 25.1866 24.9691 28.5427 25.1771 28.3448 27.9033 23.9155 23.8199 27.1137 23.6723 26.8649 26.3749 22.6672 22.6589 25.672 22.1977 25.3643 24.8626 21.416 21.4968 24.186 20.7504 23.8574 23.3357 20.1752 20.3113 22.7105 19.348 22.3465 21.8332 18.9464 19.1436 21.2106 17.9747 20.8436 20.3283 17.7267 17.9528 19.7274 16.6438 19.3443 18.8529 16.5119 16.7788 18.2364 15.3304 17.8575 17.3729 15.3197 15.6037 16.7654 14.0653 16.3904 15.9301 14.1208 14.4386 15.3159 12.8284 14.9562 14.5012 12.9551 13.2779 13.8596 11.5858 13.5049 13.074 11.7605 12.1064 12.4344 10.4064 12.1275 11.7013 10.6156 10.9483 11.0484 9.26428 10.762 10.3688 9.47062 9.80564 9.67546 8.13524 9.4235 9.04921 8.35566 8.66676 8.33813 7.01454 8.10346 7.76539 7.22004 7.52705 6.99217 5.90967 6.82 6.50079 6.06717 6.35913 5.66764 4.76056 5.52574 5.22863 4.88668 5.18655 4.34968 3.65881 4.28515 3.9941 3.72889 4.00933 3.00313 2.5248 3.01798 2.74745 2.51121 2.80275 1.73011 1.54051 1.8587 1.60154 1.48275 1.72706 24.4719 18.9145 26.9144 26.9144 12.0695 13.3587 44.5449 26.0109 40.899 40.001 26.4878 26.9181 46.4333 33.0678 47.6502 49.2863 27.8874 28.5202 46.4425 33.0152 46.7482 47.2232 27.7175 28.0601 43.6321 29.7111 43.5955 42.9367 26.75 27.5785 42.2877 27.8792 41.5405 40.3724 26.116 27.2507 41.0485 26.7188 39.9576 38.4754 25.6506 26.926 39.7126 25.7801 38.4881 36.8462 25.1509 26.514 38.2748 24.9672 37.0136 35.2859 24.6196 25.9918 36.7086 24.1618 35.4747 33.7395 23.9931 25.3518 35.0802 23.35 33.8996 32.1899 23.3274 24.6465 33.4102 22.5142 32.2813 30.63 22.5992 23.8773 31.6981 21.6555 30.6429 29.0547 21.8235 23.031 29.9601 20.763 28.9749 27.4826 20.9843 22.1409 28.2261 19.8507 27.3197 25.9051 20.1252 21.2099 26.4834 18.8964 25.6462 24.3315 19.1966 20.2286 24.7518 17.9251 23.9944 22.7568 18.2564 19.2197 23.0307 16.9247 22.3378 21.1974 17.2633 18.1706 21.3362 15.9159 20.7157 19.6545 16.2687 17.112 19.6665 14.8738 19.1047 18.1324 15.2258 16.0121 18.0074 13.8183 17.507 16.6103 14.1652 14.8939 16.4036 12.7561 15.9511 15.1352 13.0921 13.7761 14.7903 11.6486 14.4009 13.644 11.9794 12.6055 13.2408 10.573 12.9034 12.2236 10.8614 11.4395 11.7237 9.46933 11.4368 10.8133 9.73741 10.2787 10.2436 8.35495 9.99798 9.42786 8.59204 9.09215 8.80199 7.22958 8.58813 8.06383 7.45012 7.91983 7.38311 6.10036 7.22051 6.74097 6.26255 6.71547 5.99866 4.93893 5.87704 5.41691 5.07117 5.50877 4.6385 3.78493 4.57619 4.14362 3.84568 4.27828 3.22678 2.59268 3.26407 2.83792 2.58122 3.00958 1.90817 1.54422 2.03283 1.64318 1.49624 1.8844 38.6407 26.9049 37.7716 37.7716 23.5069 24.8575 64.2074 35.6721 53.0776 51.8028 40.5494 42.986 63.5249 39.6266 63.4049 62.7317 39.898 42.7747 62.2756 37.23 61.3017 59.9038 38.1412 40.9649 59.6861 33.9609 58.1254 56.3073 35.0898 37.9749 55.7766 31.8858 53.9433 51.5839 33.5048 36.4321 53.0215 30.4313 51.0206 48.4917 32.22 35.108 50.4159 29.1938 48.4064 45.8157 30.9937 33.7621 47.7535 28.0368 45.8279 43.274 29.7687 32.3967 45.1338 26.8696 43.3038 40.8248 28.499 30.9561 42.4641 25.7287 40.7734 38.4125 27.2305 29.5152 39.8796 24.5642 38.2937 36.0637 25.9558 28.0557 37.2754 23.4063 35.8363 33.7584 24.6721 26.6107 34.7734 22.2323 33.4536 31.5134 23.3841 25.1464 32.2836 21.0805 31.1094 29.3263 22.1114 23.7175 29.9022 19.9022 28.8411 27.2024 20.8342 22.284 27.5577 18.7508 26.6297 25.1369 19.5706 20.8825 25.3333 17.5768 24.4986 23.1404 18.3127 19.4855 23.1492 16.4151 22.4393 21.2153 17.0585 18.1193 21.08 15.2434 20.4509 19.3405 15.8157 16.7617 19.0446 14.0691 18.5116 17.5163 14.5682 15.4238 17.1525 12.9036 16.6824 15.7838 13.3475 14.1117 15.255 11.7199 14.8804 14.0741 12.0952 12.7859 13.508 10.5631 13.1842 12.4608 10.8856 11.5048 11.8081 9.41717 11.5581 10.9074 9.68641 10.2397 10.2011 8.25571 9.98739 9.41211 8.48411 8.99039 8.66479 7.09137 8.49129 7.96398 7.28769 7.76574 7.18739 5.93227 7.06178 6.57377 6.07937 6.52667 5.77011 4.75733 5.67756 5.21821 4.86491 5.31383 4.419 3.60525 4.37433 3.92535 3.65802 4.10673 3.06234 2.43088 3.108 2.65762 2.39762 2.87194 1.80787 1.46025 1.92313 1.50352 1.46265 1.86618 56.0364 39.8925 52.5589 52.5589 39.5805 40.8406 87.8709 51.3908 68.989 67.4914 63.6733 66.0825 84.8643 59.7137 85.0479 83.5466 60.8737 64.102 82.1139 55.9864 81.4287 79.2012 57.7682 61.1469 78.3691 51.7637 76.9729 74.3989 53.9956 57.3732 73.7572 47.1868 72.0036 69.2321 49.6896 53.0786 68.6561 44.0851 66.6493 63.6781 46.6229 49.8991 64.2747 41.3884 62.2484 59.2962 43.8497 46.9842 60.0906 38.8231 58.1331 55.252 41.1256 44.0754 55.9895 36.3742 54.1186 51.3651 38.535 41.2985 52.0313 33.982 50.2912 47.6803 35.9497 38.511 48.1631 31.6843 46.5309 44.0863 33.5113 35.8733 44.4405 29.4472 42.9611 40.6855 31.0774 33.2418 40.8281 27.3074 39.4674 37.3661 28.7927 30.7664 37.3824 25.24 36.1824 34.2524 26.5413 28.3221 34.0547 23.2641 32.9772 31.2244 24.4264 26.0307 30.9024 21.3619 29.9692 28.3791 22.36 23.7935 27.8957 19.5503 27.0718 25.6428 20.4371 21.7226 25.0663 17.8259 24.3811 23.0901 18.5591 19.7017 22.3894 16.1804 21.7857 20.6331 16.8215 17.8361 19.8635 14.5884 19.3808 18.3498 15.114 16.0036 17.5091 13.1018 17.0894 16.1827 13.5569 14.3421 15.2766 11.6419 14.9723 14.165 11.9903 12.6834 13.2179 10.2626 12.964 12.2516 10.56 11.1816 11.3127 8.94029 11.1386 10.4945 9.15914 9.73265 9.53749 7.66315 9.39891 8.80844 7.84231 8.36225 7.89932 6.43725 7.80329 7.26382 6.57088 7.05043 6.35858 5.22841 6.30872 5.81706 5.31874 5.77824 4.9392 4.05459 4.92246 4.44449 4.10672 4.5596 3.61279 2.91428 3.62309 3.16219 2.92747 3.38511 2.36679 1.87229 2.4459 1.97762 1.80768 2.32653 1.3855 1.22397 1.48863 1.06298 1.315 1.66649 76.7569 57.0901 71.2943 71.2943 58.915 60.6257 115.177 70.8393 87.9388 85.9523 90.3453 92.2096 109.323 84.729 111.24 109.662 85.1663 88.3457 105.086 79.5484 105.545 102.952 80.6519 84.0844 99.8558 73.9595 99.2383 96.3186 75.6519 79.0868 93.7614 68.218 92.5725 89.5398 70.2272 73.581 87.2068 62.463 85.6646 82.6205 64.7326 67.9925 80.524 57.837 78.8284 75.7915 60.0764 63.161 74.4465 53.58 72.7459 69.8322 55.7146 58.6059 68.7334 49.4915 67.0593 64.2997 51.5163 54.1915 63.1692 45.6402 61.6106 59.0385 47.5066 49.9732 57.9516 41.8908 56.4594 54.0725 43.6271 45.8811 52.851 38.369 51.5024 49.31 39.9231 41.9776 48.0661 34.9412 46.814 44.8069 36.3662 38.218 43.4371 31.7495 42.3432 40.5267 32.9909 34.6603 39.1136 28.6586 38.1248 36.4817 29.7637 31.2529 34.9357 25.7899 34.1108 32.6396 26.7302 28.0491 31.1042 23.0397 30.3577 29.0501 23.8593 25.0147 27.409 20.5145 26.8188 25.6692 21.1746 22.1858 24.0163 18.0885 23.5244 22.5154 18.6618 19.5386 20.8032 15.8832 20.4379 19.5565 16.3198 17.0922 17.9557 13.7968 17.6271 16.8467 14.1641 14.8267 15.2091 11.9063 15.0063 14.3316 12.146 12.7127 12.7664 10.1172 12.6165 12.0379 10.3049 10.7796 10.4966 8.52514 10.4472 9.95749 8.62234 9.03893 8.51521 7.00617 8.48228 8.05201 7.0669 7.42589 6.6857 5.64358 6.71662 6.34122 5.65319 5.97584 5.07317 4.37385 5.14233 4.80674 4.33403 4.63577 3.65258 3.20497 3.76907 3.45133 3.11694 3.41594 2.39711 2.1182 2.52757 2.22031 2.0008 2.31285 1.34945 1.30691 1.55659 1.2554 1.11011 1.43938 0.915594 1.31296 0.994264 0.866706 1.40424 1.50844 101.513 78.248 93.3818 93.3818 81.6981 86.4499 146.891 94.4743 109.243 104.865 121.272 123.087 138.069 114.042 144.83 142.759 112.403 115.765 132.601 106.683 134.921 131.795 106.398 109.844 125.616 99.1844 125.953 122.733 99.8947 103.244 117.266 91.6453 116.749 113.579 92.8928 96.1049 108.478 84.1313 107.449 104.375 85.7148 88.7686 99.584 76.9147 98.3211 95.3733 78.6617 81.5401 90.9776 70.6004 89.5817 86.78 72.3375 74.9999 83.1618 64.7529 81.7495 79.1488 66.4563 68.903 75.8727 59.203 74.5264 72.1312 60.7699 62.9941 68.9847 53.9695 67.6694 65.4896 55.4596 57.479 62.4912 48.9627 61.3029 59.3242 50.2882 52.1018 56.304 44.2342 55.1986 53.4226 45.4586 47.0828 50.4929 39.7449 49.5368 47.9484 40.7979 42.2383 44.9788 35.5224 44.1258 42.7182 36.4609 37.7294 39.7923 31.521 39.1115 37.8737 32.2795 33.3857 34.9464 27.7871 34.3358 33.2565 28.4657 29.426 30.4423 24.2895 29.9767 29.0401 24.7971 25.6159 26.1775 21.0462 25.8287 25.0305 21.4434 22.1332 22.2681 18.0262 22.0364 21.364 18.2823 18.8494 18.7081 15.2787 18.5131 17.9605 15.5014 15.9687 15.4574 12.7657 15.3981 14.9421 12.8506 13.2205 12.4903 10.4935 12.4831 12.1206 10.5167 10.8028 9.84553 8.46881 9.93989 9.65915 8.37089 8.57284 7.49834 6.64944 7.63274 7.43244 6.53661 6.6819 5.49233 5.06718 5.71757 5.5726 4.86384 4.96581 3.74866 3.69611 4.03535 3.93036 3.43634 3.49829 2.38669 2.61728 2.72887 2.66445 2.28281 2.31765 1.44346 1.7941 1.82244 1.78527 1.44535 1.47011 1.33158 1.62228 1.58866 1.57578 1.3581 1.3529 1.78543 1.97696 1.76636 1.7814 2.02271 1.98209 35.7902 98.7045 33.1992 33.1992 97.7556 94.8408 81.5245 92.6208 85.5111 87.6003 91.2275 88.0461 75.1961 89.7748 79.143 81.5435 86.9429 83.564 68.7553 86.3886 74.2261 76.9104 81.8114 78.6448 64.0553 81.9604 69.4763 72.1408 77.03 74.0308 60.014 77.3421 65.1285 67.7648 72.3232 69.4743 56.3374 72.5666 60.9759 63.5496 67.7773 65.0792 52.7733 67.8144 57.0334 59.5187 63.2327 60.6897 49.3565 63.0507 53.1672 55.5416 58.7975 56.4182 45.9189 58.3845 49.4103 51.6526 54.3857 52.1704 42.6312 53.7584 45.7111 47.8145 50.1334 48.0804 39.3437 49.3042 42.146 44.1064 45.9295 44.0372 36.206 44.9359 38.6419 40.4569 41.9268 40.1921 33.1068 40.7876 35.3002 36.9686 38.0041 36.4265 30.1859 36.743 32.0513 33.5718 34.3238 32.8993 27.3117 32.9257 28.9763 30.3501 30.7262 29.4443 24.6318 29.2763 25.9978 27.2375 27.3956 26.2538 22.0226 25.8784 23.2132 24.3155 24.2011 23.1906 19.6432 22.666 20.5714 21.5484 21.2879 20.4013 17.3217 19.692 18.1164 18.971 18.4867 17.717 15.2245 16.9286 15.7972 16.5403 15.9887 15.3231 13.2162 14.4161 13.6889 14.3282 13.6182 13.0523 11.3864 12.098 11.6867 12.2306 11.5098 11.036 9.65564 10.0448 9.89605 10.3471 9.56746 9.1786 8.16699 8.17135 8.25174 8.62289 7.89409 7.58658 6.70733 6.56924 6.77749 7.06721 6.35743 6.11895 5.46204 5.13631 5.42596 5.65056 5.08119 4.90007 4.24131 3.93724 4.23191 4.40057 3.89444 3.76618 3.169 2.88811 3.117 3.23934 2.9201 2.82899 2.13277 2.01138 2.14644 2.23225 1.99589 1.9367 1.22231 1.17382 1.2477 1.30613 1.14569 1.11292 0.452886 0.488103 0.493502 0.521694 0.43818 0.468039 24.2382 30.3501 25.959 25.959 32.2406 30.8909 40.4673 78.7913 43.675 44.8719 74.9542 72.1822 62.2494 73.2749 65.629 67.6683 69.5298 65.962 53.622 69.1222 59.9654 62.4704 63.576 60.1117 49.2622 64.5853 54.8671 57.4848 59.0108 55.7254 46.1819 60.3589 50.927 53.5231 55.0372 51.9592 43.5831 56.3374 47.6173 50.0896 51.4653 48.5938 41.1982 52.5622 44.672 46.9974 48.0536 45.4004 38.9248 48.9061 41.928 44.0722 44.8478 42.4119 36.6904 45.3997 39.3174 41.2821 41.6668 39.4474 34.4986 41.9873 36.748 38.5232 38.683 36.6679 32.3429 38.7306 34.3056 35.9075 35.7203 33.9166 30.2231 35.5572 31.8762 33.2918 32.9354 31.3255 28.1479 32.5507 29.5752 30.8279 30.1949 28.7792 26.1347 29.6518 27.3151 28.3991 27.6502 26.4073 24.1556 26.9153 25.1377 26.0826 25.1376 24.0733 22.2552 24.2822 23.0322 23.825 22.8288 21.9158 20.4043 21.8269 21.0265 21.7009 20.5725 19.8107 18.6381 19.5083 19.0883 19.6378 18.5393 17.9043 16.9112 17.3584 17.2561 17.7101 16.542 16.0361 15.2836 15.3339 15.5027 15.8548 14.7584 14.3515 13.7114 13.4933 13.8493 14.1306 13.0316 12.7285 12.192 11.7389 12.2457 12.4462 11.4596 11.2274 10.7467 10.1648 10.7617 10.9148 9.95339 9.79863 9.39627 8.70536 9.33904 9.43344 8.65174 8.54742 8.08225 7.38222 8.01703 8.07859 7.34346 7.29873 6.8332 6.14745 6.74407 6.75962 6.20877 6.18529 5.6251 5.02351 5.55364 5.55904 5.05743 5.07671 4.42053 3.9303 4.36811 4.33808 3.99801 4.01764 3.26975 2.94229 3.25789 3.23382 2.9441 2.99131 2.15367 1.98728 2.18624 2.13848 1.97109 2.02657 1.17817 1.14544 1.26251 1.21077 1.06847 1.16789 21.3898 21.8834 25.0461 25.0461 19.9554 19.1026 34.6328 34.445 37.6908 38.1008 31.7993 29.4792 47.7355 57.6019 45.9843 47.4165 54.449 51.7454 44.3427 52.8983 51.7875 52.6563 46.305 43.3126 40.9206 48 45.3656 46.9943 42.0801 39.3139 38.7216 44.2498 41.7971 43.3364 39.1365 36.6625 37.0323 41.1528 39.3488 40.6731 36.731 34.5439 35.5027 38.4751 37.281 38.3878 34.6148 32.6937 34.0417 36.0454 35.4661 36.3795 32.6741 30.9941 32.5647 33.7919 33.6968 34.4448 30.8221 29.373 31.0799 31.6053 32.005 32.5985 29.0468 27.7994 29.575 29.575 30.3034 30.7754 27.3358 26.2798 28.0573 27.5575 28.6334 28.9932 25.6623 24.784 26.5323 25.6863 26.9758 27.2351 24.0521 23.3371 25.012 23.8476 25.3557 25.5256 22.4923 21.9197 23.4811 22.0903 23.7166 23.8166 20.965 20.5272 21.9728 20.3894 22.1286 22.1601 19.4951 19.1736 20.463 18.7748 20.5398 20.5173 18.0624 17.8444 18.9811 17.2079 19.0071 18.9362 16.6871 16.5521 17.4943 15.7257 17.47 17.3689 15.3303 15.2747 16.0466 14.2892 15.9925 15.8552 14.0343 14.0396 14.6098 12.9273 14.513 14.3556 12.7639 12.8261 13.1739 11.5823 13.0859 12.9053 11.5127 11.6046 11.7908 10.3288 11.6721 11.4913 10.305 10.436 10.4517 9.10045 10.3333 10.1353 9.15174 9.3081 9.12 7.93831 8.99692 8.79463 8.00051 8.18066 7.82788 6.78251 7.733 7.52085 6.86971 7.06479 6.54895 5.68093 6.46614 6.25183 5.75169 5.956 5.26708 4.55106 5.23233 5.01685 4.60311 4.80364 4.01205 3.46789 4.00198 3.79829 3.4812 3.69145 2.76722 2.39577 2.82967 2.61838 2.36872 2.56639 1.63055 1.48775 1.73279 1.54187 1.42878 1.63193 27.351 21.3991 29.5219 29.5219 17.5856 18.0542 40.2508 28.4418 41.2452 40.5019 25.92 26.4023 49.755 33.9579 48.0267 47.1506 35.8273 33.4047 48.2796 41.8529 49.1532 51.0631 34.0512 32.9195 43.8597 35.344 45.1462 45.0513 30.6371 30.0454 41.4219 31.9479 41.8188 41.3133 28.6094 28.3762 39.5579 29.827 39.5192 38.7769 27.2535 27.2245 37.8893 28.1652 37.6099 36.755 26.1493 26.2833 36.26 26.8384 35.8913 34.9629 25.1993 25.4032 34.6178 25.5985 34.1828 33.2593 24.2764 24.5467 32.9733 24.4678 32.5345 31.618 23.3768 23.6796 31.327 23.3377 30.8716 29.9917 22.4671 22.8037 29.6692 22.254 29.2297 28.3811 21.5546 21.8957 28.0176 21.1643 27.5966 26.8057 20.6187 20.978 26.375 20.1109 25.9883 25.237 19.6805 20.0282 24.7354 19.008 24.3564 23.6697 18.7016 19.0565 23.1073 17.9401 22.7676 22.121 17.7238 18.0604 21.4964 16.8417 21.1683 20.587 16.7167 17.0468 19.9111 15.7741 19.6219 19.0853 15.7082 16.0225 18.3478 14.6664 18.0713 17.5872 14.6593 14.9696 16.7945 13.5831 16.5658 16.1157 13.6113 13.9041 15.2873 12.4689 15.0615 14.6568 12.5446 12.8351 13.7724 11.3683 13.5946 13.215 11.441 11.7201 12.3269 10.2493 12.1485 11.8021 10.3554 10.6364 10.8989 9.16584 10.7673 10.4331 9.27348 9.52662 9.49521 8.04455 9.36277 9.07276 8.15888 8.40601 8.11981 6.96208 8.0387 7.76344 7.05092 7.27705 6.78156 5.83673 6.70353 6.4607 5.91445 6.14029 5.44751 4.71242 5.41857 5.18077 4.74487 4.97598 4.16232 3.5683 4.16103 3.9272 3.57801 3.81516 2.85497 2.46413 2.93633 2.69787 2.41077 2.64079 1.68824 1.46004 1.7878 1.57247 1.40838 1.65536 38.9524 27.8536 38.4132 38.4132 25.5731 26.6283 52.8379 34.7506 51.1247 49.9118 34.6805 36.7044 64.1249 38.0577 58.9177 57.0242 40.2865 41.6128 61.7914 37.5182 60.2664 59.4395 37.6765 39.5778 58.2859 33.938 56.8867 55.4253 33.5636 35.9322 53.3197 30.8551 51.9365 49.7003 31.2181 33.7186 50.0922 28.901 48.5807 46.2157 29.5779 32.0769 47.2729 27.4291 45.7553 43.3687 28.2421 30.627 44.566 26.2012 43.1273 40.819 27.0241 29.2779 41.968 25.0354 40.6174 38.4046 25.8468 27.9169 39.407 23.9542 38.1543 36.0917 24.7108 26.6133 36.9299 22.8625 35.7882 33.8653 23.5777 25.3041 34.5026 21.7992 33.4612 31.6934 22.4525 24.0332 32.1598 20.7453 31.2379 29.6026 21.3351 22.745 29.8694 19.7027 29.0504 27.5748 20.2279 21.5072 27.6672 18.6351 26.9466 25.5962 19.1158 20.2455 25.5202 17.5866 24.8857 23.6816 18.0073 19.0275 23.4584 16.5079 22.9156 21.822 16.8912 17.7903 21.4707 15.4588 21.0057 20.0351 15.7892 16.5894 19.5529 14.3755 19.1569 18.2903 14.6763 15.3773 17.6822 13.3087 17.3721 16.6094 13.5538 14.1743 15.9163 12.2144 15.644 14.9705 12.4457 12.9812 14.1746 11.1157 13.9697 13.386 11.2974 11.7822 12.5372 10.0059 12.3683 11.8446 10.1801 10.608 10.9652 8.93483 10.8425 10.3807 9.06238 9.45387 9.45387 7.80041 9.3542 8.93651 7.92513 8.28099 7.99587 6.70944 7.94195 7.56372 6.7844 7.11662 6.59567 5.57762 6.55113 6.20463 5.64758 5.95003 5.23543 4.45574 5.23058 4.91421 4.47933 4.77688 3.93602 3.33882 3.96461 3.66236 3.33595 3.62495 2.67768 2.22637 2.76551 2.47131 2.15818 2.47292 1.55135 1.34261 1.65482 1.37803 1.3312 1.59008 54.539 39.0367 51.4937 51.4937 38.9678 40.1983 69.3559 48.1523 65.2512 63.7633 50.5953 53.0332 85.0553 52.9185 75.3801 73.0019 59.0823 61.6673 81.1864 52.7198 79.0636 77.0195 55.2412 58.3927 76.467 48.4943 74.5965 72.0448 50.8033 54.1376 71.1752 43.4308 69.2699 66.4596 45.7549 49.2588 65.3466 40.1861 63.4198 60.3113 42.4864 45.8583 60.733 37.5225 58.8453 55.8063 39.7129 42.9013 56.4942 35.11 54.7051 51.7969 37.1341 40.0953 52.4235 32.8511 50.7753 48.0438 34.7076 37.4474 48.5865 30.6719 47.0489 44.4975 32.3664 34.868 44.8465 28.6238 43.4636 41.1126 30.1447 32.416 41.3221 26.6282 40.0505 37.8982 27.9924 30.0344 37.8943 24.748 36.779 34.8299 25.9466 27.7843 34.6827 22.9293 33.689 31.9214 23.9784 25.603 31.5672 21.2006 30.7065 29.1315 22.1075 23.5475 28.6523 19.517 27.9031 26.4963 20.3017 21.5625 25.8424 17.9373 25.2199 23.9785 18.593 19.6901 23.2427 16.4117 22.707 21.6184 16.9651 17.9108 20.7384 14.9483 20.3182 19.3721 15.4037 16.2314 18.4172 13.5465 18.0933 17.2575 13.8972 14.5987 16.214 12.1853 15.9551 15.2414 12.4807 13.09 14.1751 10.8879 13.9836 13.3577 11.103 11.6114 12.2448 9.62447 12.1167 11.5919 9.79011 10.2275 10.4783 8.41111 10.3977 9.94197 8.52552 8.89731 8.78393 7.21382 8.74184 8.3541 7.29591 7.61915 7.23724 6.07239 7.23524 6.89585 6.10739 6.39176 5.78711 4.90318 5.79736 5.50125 4.92518 5.19144 4.42023 3.79311 4.46798 4.18775 3.77448 4.02225 3.14049 2.68291 3.21689 2.96261 2.63175 2.89228 1.97228 1.70818 2.08657 1.8211 1.61777 1.88062 1.13021 1.10622 1.20231 1.00482 1.17476 1.32842 73.9695 54.5821 68.8638 68.8638 56.3756 57.8889 88.5946 65.8177 82.7386 80.937 70.2037 72.9872 111.126 73.1957 96.3503 93.5063 83.8114 86.4454 104.818 75.5875 103.156 100.815 78.2919 81.6551 98.1943 70.0687 96.7657 93.7971 72.4473 76.0069 91.251 64.0925 89.6593 86.457 66.4853 70.0336 84.0961 58.0269 82.4089 79.1574 60.4759 63.9697 76.9895 53.4272 75.1971 71.9263 55.7689 59.0581 70.8082 49.31 69.078 65.9692 51.5029 54.5663 65.0889 45.4555 63.4661 60.5486 47.4547 50.2691 59.6647 41.8192 58.1394 55.4451 43.6697 46.2512 54.5622 38.3475 53.1808 50.6983 40.0026 42.3444 49.6786 35.0706 48.4047 46.1447 36.5811 38.6976 45.0796 31.9423 43.9629 41.9143 33.2614 35.1568 40.7078 29.0058 39.699 37.8588 30.1789 31.8809 36.6003 26.201 35.7386 34.0826 27.2091 28.7141 32.6889 23.589 31.9524 30.484 24.4602 25.7829 29.0543 21.0999 28.4471 27.1532 21.8163 22.9749 25.6241 18.7914 25.1142 23.9763 19.4038 20.4104 22.4425 16.6288 22.0535 21.0611 17.0921 17.9479 19.4469 14.6317 19.158 18.3106 14.9881 15.7194 16.727 12.7397 16.5176 15.7904 13.0046 13.6168 14.1898 11.0103 14.0597 13.4466 11.2024 11.7157 11.8952 9.40141 11.8389 11.3218 9.50696 9.92234 9.80446 7.94064 9.79319 9.37056 7.99321 8.33442 7.90671 6.5412 7.95167 7.60191 6.54062 6.81787 6.19253 5.27809 6.27983 5.99164 5.23202 5.46401 4.67154 4.08264 4.77473 4.53241 4.01268 4.20334 3.30942 2.97238 3.459 3.25652 2.86146 3.04427 2.09187 1.95208 2.27383 2.08443 1.79348 1.96157 1.11684 1.16836 1.3237 1.16679 1.02764 1.16358 0.860422 1.23876 0.893259 0.890337 1.34003 1.31085 96.9596 74.4352 89.8535 89.8535 77.7773 79.8714 108.571 87.1803 102.558 100.196 92.8065 97.3229 144.727 98.1413 122.216 117.769 113.659 116.133 133.598 103.312 134.269 131.857 105.22 108.571 124.296 95.6885 124.045 120.864 97.3339 100.788 114.872 87.7558 113.929 110.614 89.5656 92.9449 105.394 79.9776 104.126 100.85 81.9018 85.14 96.1354 72.5007 94.6631 91.4988 74.5561 77.6439 87.3066 66.28 85.7571 82.7135 68.2456 71.0992 79.4873 60.6189 77.9845 75.1628 62.4505 65.0642 72.3275 55.2792 70.8734 68.2858 56.9859 59.3575 65.5652 50.3159 64.2493 61.9029 51.8547 54.0048 59.3085 45.5545 58.0751 55.949 46.9616 48.8915 53.3227 41.1305 52.2546 50.3496 42.3573 44.0817 47.7915 36.8898 46.8177 45.1186 37.994 39.5254 42.5038 32.9622 41.6962 40.1902 33.8995 35.2482 37.6229 29.2226 36.915 35.5906 30.0177 31.1997 32.9728 25.771 32.4283 31.27 26.416 27.4402 28.7382 22.4997 28.2623 27.2599 23.0348 23.913 24.7023 19.5211 24.3714 23.5136 19.9117 20.6498 21.0282 16.717 20.7984 20.0795 17.0022 17.6147 17.6154 14.1807 17.4962 16.8994 14.3619 14.8682 14.5974 11.8469 14.5142 14.0197 11.9421 12.3466 11.7734 9.76747 11.8029 11.408 9.76736 10.0816 9.32064 7.87508 9.40356 9.09714 7.82193 8.05547 7.09751 6.21576 7.25791 7.02746 6.08025 6.25794 5.24333 4.74267 5.43462 5.25912 4.55451 4.67623 3.59822 3.46481 3.85004 3.72828 3.24394 3.32128 2.32519 2.46004 2.62169 2.5457 2.17504 2.22506 1.44477 1.69699 1.75218 1.70947 1.39828 1.42827 1.34196 1.50919 1.48089 1.46854 1.36014 1.36394 1.71381 1.86058 1.67047 1.68026 1.9285 1.9062 37.2749 104.279 35.8521 35.8521 102.128 99.7896 87.9736 97.9514 92.4166 94.2632 96.0668 93.3079 81.202 95.4008 85.194 87.4314 92.4186 89.4498 75.9356 92.2317 80.2674 82.7837 88.3516 85.3272 70.8841 88.1674 75.7912 78.4278 83.5115 80.5824 66.3959 83.3942 71.2028 73.8255 78.6348 75.8215 62.157 78.4316 66.8033 69.3681 73.6816 71.0034 58.1607 73.2953 62.4394 64.9145 68.793 66.2605 54.229 68.2295 58.2303 60.5941 63.9128 61.5372 50.4206 63.1317 54.0438 56.2759 59.148 56.9322 46.6569 58.1899 50.0107 52.1058 54.4312 52.3793 43.0359 53.2951 46.0086 47.9572 49.9024 48.0076 39.4629 48.6285 42.2008 44.0074 45.4572 43.7208 36.0617 44.054 38.4526 40.112 41.2387 39.654 32.742 39.7505 34.9151 36.436 37.1311 35.7016 29.6128 35.5388 31.4617 32.8336 33.262 31.9743 26.5695 31.6342 28.2396 29.478 29.5599 28.4123 23.732 27.8863 25.1236 26.2266 26.1202 25.0973 21.0343 24.4546 22.2481 23.2348 22.8696 21.9723 18.5333 21.1615 19.5052 20.3683 19.8644 19.08 16.1646 18.2324 17.0014 17.759 17.0695 16.396 14.0165 15.4365 14.6413 15.2885 14.5391 13.9544 11.9703 12.9791 12.5007 13.0638 12.2091 11.711 10.145 10.7033 10.5098 10.9879 10.1454 9.72732 8.46226 8.73273 8.76401 9.16777 8.27105 7.92054 6.95328 6.94929 7.11852 7.45461 6.66316 6.37214 5.56581 5.4599 5.7038 5.98511 5.23132 4.99338 4.34639 4.1099 4.38216 4.61057 4.02698 3.8374 3.20155 3.05658 3.26349 3.45044 2.99537 2.82689 2.20982 2.13458 2.23185 2.39695 2.13883 1.97441 1.29076 1.38069 1.36978 1.54003 1.31986 1.1589 0.508828 0.695102 0.585843 0.748601 0.626586 0.474108 27.7428 32.4621 29.0236 29.0236 33.3692 31.6363 45.0917 85.7023 47.4526 48.846 81.4891 79.0031 67.0201 79.4805 71.6985 73.5285 75.6648 72.6117 61.2159 75.2194 65.7012 68.042 70.9196 67.6545 56.0597 71.1159 61.0012 63.5731 66.0856 62.881 52.1098 66.6569 56.7479 59.3475 61.6832 58.6215 48.763 62.3604 53.0276 55.557 57.5176 54.6366 45.7768 58.1164 49.5691 51.9703 53.634 50.9447 42.9531 54.0743 46.411 48.6605 49.8637 47.3772 40.272 50.0884 43.3077 45.3899 46.2623 43.9814 37.6128 46.3024 40.3702 42.2753 42.7503 40.6676 35.0873 42.568 37.476 39.2091 39.4125 37.5261 32.5653 39.0584 34.7273 36.2903 36.1493 34.45 30.1826 35.6142 32.0174 33.4185 33.0711 31.556 27.836 32.3975 29.4626 30.7036 30.0866 28.7512 25.5951 29.2579 26.9478 28.032 27.2946 26.124 23.4093 26.3602 24.615 25.5592 24.5929 23.5797 21.3503 23.5519 22.2948 23.1064 22.0844 21.2247 19.3512 20.9865 20.1597 20.8389 19.7145 18.9878 17.4776 18.5342 18.0879 18.6564 17.5244 16.9274 15.6739 16.3188 16.1921 16.6535 15.4596 14.9754 13.9913 14.2213 14.3404 14.7104 13.5904 13.2073 12.3463 12.3301 12.6402 12.9293 11.8052 11.5118 10.8448 10.5621 11.0109 11.2287 10.2131 9.99964 9.39103 9.01069 9.53175 9.68679 8.73203 8.58408 8.05401 7.52761 8.09836 8.20299 7.38736 7.30403 6.75312 6.24811 6.80817 6.86066 6.13681 6.09863 5.55795 5.02106 5.55256 5.57071 5.00677 5.0002 4.34406 3.95096 4.3829 4.3769 3.91008 3.91956 3.23823 2.92419 3.25288 3.23695 2.91683 2.94097 2.14303 2.01661 2.21823 2.1913 1.95949 1.99001 1.21557 1.15737 1.28219 1.25115 1.1012 1.1517 25.2717 24.6441 27.5813 27.5813 23.5401 22.2329 37.8689 38.8209 39.9622 40.641 36.8371 34.353 46.6011 63.9483 48.5986 50.0133 59.3956 56.6405 51.573 58.66 54.6781 56.3697 54.1363 51.0735 45.9214 54.4579 50.0579 51.8591 49.2543 46.2381 42.4489 50.4154 46.0916 47.9303 45.4727 42.6306 39.9521 46.8784 43.0217 44.7826 42.2842 39.6771 37.811 43.629 40.4245 42.0239 39.5121 37.1428 35.8997 40.7332 38.1516 39.5926 36.9592 34.826 34.039 37.9308 35.9853 37.2573 34.6012 32.6921 32.2544 35.3336 33.9368 35.0611 32.2987 30.614 30.4825 32.8042 31.9225 32.8876 30.1679 28.6847 28.7407 30.4361 29.9896 30.8262 28.0504 26.7695 27.0258 28.119 28.0797 28.7753 26.0896 24.9924 25.3519 25.9559 26.2316 26.8129 24.1578 23.2412 23.677 23.8277 24.4138 24.8723 22.334 21.574 22.0494 21.8772 22.6643 23.0278 20.5538 19.9484 20.4339 19.933 20.93 21.1899 18.8948 18.4114 18.877 18.1549 19.2597 19.4552 17.2723 16.9085 17.3294 16.4243 17.6235 17.7457 15.7605 15.4904 15.8353 14.8381 16.0557 16.1279 14.28 14.1069 14.3499 13.2757 14.5135 14.5267 12.9009 12.7901 12.9112 11.8357 13.0196 13.0059 11.5252 11.4876 11.5062 10.436 11.5711 11.5129 10.2616 10.2677 10.1575 9.14732 10.1884 10.1107 9.00264 9.06663 8.81924 7.88055 8.83825 8.72211 7.83516 7.92355 7.54631 6.71334 7.55413 7.42976 6.66003 6.78336 6.27526 5.55892 6.28877 6.14293 5.56613 5.68829 5.03611 4.45139 5.05588 4.91878 4.41638 4.56276 3.81104 3.35794 3.8565 3.70439 3.34649 3.47934 2.62899 2.32424 2.70157 2.56457 2.25886 2.41146 1.55586 1.4045 1.64182 1.49219 1.35492 1.51804 29.5779 23.4035 30.6727 30.6727 21.4281 21.1773 40.499 30.7209 41.0248 40.7645 29.0011 28.2246 47.1769 36.8999 47.1088 47.0232 34.9106 33.4737 50.7452 44.7823 49.5636 49.9342 41.5718 40.1565 45.1198 40.5625 47.4915 47.1553 36.0574 34.4294 41.6511 36.8031 43.0671 43.1682 32.7802 31.3624 39.243 34.0197 40.1689 40.214 30.5728 29.3961 37.2528 31.7688 37.9509 37.8938 28.8156 27.8458 35.4533 29.926 35.9783 35.8472 27.3645 26.5579 33.707 28.2444 34.1349 33.9599 26.0309 25.3533 32.0175 26.7095 32.3428 32.1504 24.7884 24.2446 30.3485 25.2275 30.6186 30.3947 23.5868 23.1407 28.691 23.8373 28.903 28.6775 22.4147 22.069 27.0699 22.469 27.2518 27.013 21.2732 21.0085 25.4679 21.158 25.5936 25.3561 20.1571 19.9658 23.8652 19.8571 23.9777 23.7409 19.0258 18.8903 22.2881 18.6048 22.3769 22.1509 17.9131 17.8358 20.7287 17.3465 20.8006 20.5753 16.7916 16.7603 19.2053 16.1209 19.2413 19.0224 15.6909 15.7074 17.6879 14.9055 17.7236 17.5033 14.5776 14.618 16.2015 13.7204 16.2135 16.0091 13.4737 13.5453 14.7267 12.535 14.7454 14.5439 12.3549 12.4459 13.2754 11.3608 13.2769 13.0837 11.24 11.3543 11.8509 10.1976 11.8602 11.668 10.1253 10.2459 10.4744 9.0624 10.4644 10.2849 9.02556 9.16675 9.10347 7.92556 9.11335 8.93075 7.90444 8.05006 7.78891 6.81546 7.79282 7.61671 6.80624 6.9704 6.47774 5.69444 6.50222 6.31884 5.68109 5.84365 5.19097 4.57442 5.22656 5.05066 4.55555 4.71726 3.92965 3.46184 3.99518 3.82687 3.4199 3.5711 2.69834 2.36923 2.78383 2.62786 2.3051 2.47123 1.57682 1.38473 1.6742 1.51331 1.33032 1.48358 39.1921 28.0033 38.0418 38.0418 27.0876 27.8494 50.6855 33.6517 49.0642 47.9706 33.7398 35.2233 57.9296 36.4642 55.6071 53.9036 37.129 38.8155 60.6322 37.022 57.6831 55.8138 38.3007 38.6841 56.858 35.5549 55.3567 54.6672 33.6607 34.9656 51.0692 31.4452 50.1463 48.3602 30.4546 32.014 47.5444 28.9549 46.56 44.6563 28.4036 30.0454 44.6001 27.2358 43.6694 41.7645 26.8744 28.461 41.9204 25.8301 41.0402 39.2275 25.6002 27.1092 39.3813 24.5977 38.596 36.8788 24.4292 25.8016 36.9376 23.4448 36.2149 34.642 23.3375 24.5939 34.5965 22.3557 33.9573 32.5059 22.2745 23.3901 32.3138 21.278 31.7422 30.4396 21.2209 22.2366 30.1349 20.2576 29.65 28.4576 20.2053 21.0895 28.0153 19.2122 27.584 26.532 19.1888 19.9836 25.9685 18.1995 25.6143 24.6646 18.1727 18.8505 23.9821 17.1675 23.6872 22.8678 17.1443 17.7521 22.0676 16.14 21.837 21.1005 16.1212 16.6295 20.2261 15.093 20.0272 19.4047 15.0941 15.5534 18.4436 14.0575 18.3029 17.7441 14.0517 14.4397 16.7258 12.9976 16.6132 16.1395 13.0061 13.3563 15.0569 11.948 14.9946 14.5728 11.9446 12.2396 13.4475 10.8575 13.3962 13.0407 10.8653 11.1352 11.8868 9.78669 11.8772 11.5585 9.78448 10.0127 10.4073 8.70193 10.3922 10.1249 8.71406 8.9364 8.95034 7.62613 8.9831 8.73102 7.61786 7.79457 7.56951 6.53472 7.59289 7.3928 6.53033 6.70491 6.20476 5.43842 6.25828 6.06749 5.41401 5.56768 4.90866 4.3159 4.95706 4.79063 4.27982 4.44671 3.65231 3.21868 3.72842 3.55502 3.15652 3.32634 2.46315 2.10785 2.55874 2.38419 2.03276 2.22393 1.37862 1.21871 1.46463 1.29233 1.19824 1.37161 53.1716 37.6274 49.7773 49.7773 38.3598 39.4874 65.4272 44.927 61.8684 60.4145 47.0212 49.423 74.6069 48.4681 70.4055 67.9355 51.5304 54.4844 78.6413 48.4441 73.1928 70.3235 51.9911 54.6557 73.8465 45.0298 71.187 68.8239 47.5347 50.549 68.2124 39.9632 66.1407 63.4804 41.9585 45.2973 61.8727 36.6976 60.0313 56.9852 38.6156 41.8524 57.1723 34.146 55.5031 52.5493 35.9018 38.976 52.9903 31.9016 51.4644 48.648 33.5046 36.349 49.0595 29.8563 47.6964 45.0726 31.2864 33.899 45.369 27.9036 44.1402 41.7143 29.1813 31.5408 41.841 26.075 40.7477 38.54 27.2078 29.343 38.5064 24.3172 37.5466 35.5332 25.3046 27.2034 35.3302 22.6635 34.4897 32.6856 23.5131 25.214 32.3289 21.0619 31.6049 29.9751 21.7899 23.285 29.453 19.5345 28.8445 27.3993 20.1477 21.476 26.7477 18.0781 26.2537 24.9583 18.5722 19.7087 24.1607 16.6664 23.7618 22.6437 17.0695 18.0724 21.7497 15.3159 21.4407 20.4445 15.6366 16.4863 19.4581 14.0098 19.2155 18.3632 14.252 14.9915 17.3081 12.7467 17.1489 16.4004 12.9286 13.5508 15.2571 11.5222 15.1702 14.535 11.6355 12.1691 13.3542 10.3205 13.3135 12.7636 10.4031 10.8529 11.5723 9.15458 11.5701 11.1039 9.18615 9.58441 9.91033 8.00529 9.94573 9.52946 8.02414 8.35967 8.31517 6.88592 8.37924 8.02816 6.8571 7.1596 6.85395 5.77584 6.93461 6.61609 5.7457 6.015 5.45404 4.66605 5.55157 5.27008 4.60576 4.85051 4.14427 3.57674 4.24723 3.98829 3.51561 3.74145 2.91866 2.50295 3.02962 2.7959 2.41645 2.63645 1.7848 1.56107 1.92008 1.69447 1.46986 1.67169 0.994944 0.969337 1.05227 0.911785 1.04566 1.11771 71.3628 51.8896 66.0765 66.0765 54.139 55.4714 83.4431 61.2303 78.483 76.7965 64.8518 67.7508 95.6455 67.0846 89.9941 86.9939 71.8042 75.2153 102.366 68.0375 94.0944 90.6896 74.2131 77.3861 95.4667 65.112 92.6883 89.756 68.4403 71.9372 88.0364 59.4958 85.9144 82.708 62.2519 65.8171 80.55 53.3178 78.6279 75.3399 55.9127 59.5016 73.08 48.9326 71.2713 67.9108 51.2803 54.6484 66.9266 45.0614 65.2359 62.0648 47.1988 50.3234 61.3256 41.4861 59.7948 56.8405 43.4065 46.2634 56.0672 38.1378 54.6841 51.973 39.8599 42.4675 51.1917 34.9531 49.9313 47.4491 36.4931 38.8441 46.5235 31.9806 45.4175 43.1755 33.3331 35.4478 42.1985 29.1359 41.2142 39.1938 30.3298 32.2058 38.0593 26.4862 37.2182 35.4232 27.5108 29.1892 34.217 23.9551 33.5038 31.8941 24.8307 26.3044 30.5498 21.6111 29.9747 28.5579 22.3307 23.6295 27.1707 19.3725 26.6913 25.4393 19.9615 21.0756 23.9428 17.3166 23.5837 22.5073 17.771 18.7263 20.9984 15.3556 20.7108 19.7856 15.7228 16.5236 18.2132 13.5767 18.0477 17.2697 13.8234 14.5018 15.6772 11.8795 15.5837 14.9206 12.0312 12.5863 13.3135 10.3103 13.2973 12.7514 10.3895 10.8475 11.183 8.85196 11.2132 10.7591 8.87581 9.22844 9.22423 7.52286 9.30712 8.9548 7.48248 7.77153 7.46074 6.22298 7.57611 7.28372 6.15249 6.37277 5.84737 5.05696 5.99675 5.77095 4.94788 5.11495 4.39699 3.92053 4.55779 4.38422 3.79503 3.92249 3.11717 2.85307 3.29493 3.16077 2.70633 2.82147 1.95467 1.86447 2.13169 2.01144 1.70749 1.8002 1.03416 1.09212 1.23362 1.14805 0.947307 1.03195 0.855943 1.14426 0.821092 0.820681 1.22886 1.20835 93.2833 70.9445 86.3929 86.3929 74.4974 75.993 103.734 81.7937 98.2326 96.3058 86.3481 89.8675 120.414 90.5981 114.253 110.63 96.4857 100.496 133.315 92.9495 120.841 116.731 101.949 104.936 122.197 90.6398 120.289 117.385 93.761 97.1199 111.753 83.0763 110.199 106.946 85.5647 88.9502 101.774 75.316 100.182 96.88 77.6425 80.9401 92.2024 67.7757 90.6174 87.3766 70.0425 73.2211 83.2111 61.7433 81.5706 78.4165 63.8597 66.7955 75.4925 56.3419 73.9632 71.0411 58.2695 60.9646 68.4886 51.3042 67.0784 64.3908 53.0377 55.481 61.9954 46.6061 60.6961 58.2593 48.1897 50.4067 55.9578 42.1623 54.8096 52.5982 43.554 45.5446 50.2832 38.0198 49.2529 47.2691 39.2664 41.0473 44.9976 34.0983 44.1247 42.3511 35.1603 36.7401 40.0154 30.4445 39.2606 37.69 31.361 32.7616 35.3778 26.9983 34.7666 33.3761 27.746 28.9696 31.0254 23.7939 30.5115 29.299 24.4263 25.4942 26.9916 20.788 26.6229 25.5667 21.2666 22.1842 23.2222 18.0122 22.9365 22.0293 18.4062 19.1892 19.7777 15.4713 19.6181 18.8435 15.7083 16.3666 16.5857 13.1273 16.5079 15.8568 13.2773 13.827 13.7057 10.9969 13.7139 13.1695 11.0362 11.4808 11.0899 9.06783 11.1526 10.7121 9.05424 9.40673 8.78579 7.3501 8.92239 8.57255 7.24654 7.51208 6.7185 5.80375 6.88585 6.62128 5.66598 5.86878 4.96054 4.45943 5.18983 4.98699 4.25514 4.4016 3.43313 3.25432 3.69252 3.54491 3.0337 3.14408 2.25931 2.33049 2.52921 2.41945 2.06835 2.13904 1.45135 1.59582 1.69998 1.63595 1.37485 1.42392 1.31185 1.45911 1.4504 1.43032 1.34956 1.33707 1.64191 1.80682 1.60536 1.64272 1.89714 1.82206 40.124 110.242 39.5335 39.5335 107.287 105.527 94.711 103.496 99.0582 100.623 101.271 98.7667 87.1591 101.102 91.11 93.257 97.965 95.1733 81.9062 98.1124 86.1465 88.6067 94.1597 91.2953 77.1727 94.068 81.6782 84.2473 89.6452 86.8078 72.4286 89.3602 77.1404 79.7154 84.6105 81.8715 67.9268 84.1598 72.506 75.0112 79.4638 76.8517 63.4906 78.7874 67.9114 70.3155 74.1844 71.7142 59.2099 73.322 63.3023 65.5842 68.9992 66.6875 54.9627 67.9143 58.8117 60.954 63.7921 61.6433 50.8601 62.5387 54.3503 56.346 58.7553 56.769 46.7953 57.3285 50.0344 51.8827 53.7747 51.9513 42.9178 52.2383 45.7985 47.4968 49.0277 47.3609 39.1087 47.369 41.7633 43.3157 44.3745 42.8656 35.5033 42.6472 37.8223 39.2274 40.0031 38.648 31.9955 38.1769 34.1137 35.3753 35.7337 34.5253 28.7138 33.9108 30.5291 31.653 31.7789 30.7088 25.5509 29.925 27.1838 28.1768 27.9814 27.0453 22.6274 26.1511 23.9863 24.8536 24.5149 23.6975 19.8409 22.671 21.043 21.7997 21.1841 20.4845 17.2971 19.4303 18.2527 18.8983 18.232 17.6381 14.8999 16.4976 15.7502 16.2971 15.4105 14.9165 12.7273 13.773 13.3704 13.8237 12.942 12.5306 10.7168 11.3797 11.2619 11.6382 10.6614 10.3254 8.93933 9.21387 9.319 9.62646 8.68242 8.41909 7.27923 7.33662 7.60315 7.84181 6.89462 6.69227 5.84233 5.68233 6.03317 6.21776 5.41121 5.25815 4.50655 4.29397 4.68773 4.82722 4.08057 3.95528 3.3594 3.11575 3.43707 3.55595 3.04435 2.93059 2.32503 2.1899 2.39077 2.50049 2.15542 2.03704 1.45867 1.43883 1.49296 1.61663 1.44905 1.29709 0.65318 0.854328 0.756244 0.915482 0.805556 0.598249 30.8822 36.4606 31.7255 31.7255 36.2385 34.1458 49.2057 92.2424 50.4163 52.1302 88.2273 86.0431 72.9788 85.5689 77.6805 79.3756 81.7772 78.9584 66.9405 81.2902 71.3761 73.6422 77.0646 73.9762 62.121 77.145 66.5683 69.1247 72.5689 69.4367 57.8202 72.7673 62.3907 65.0273 67.914 64.8739 54.0591 68.2086 58.3835 60.9744 63.4711 60.5788 50.5553 63.7052 54.6467 57.1296 59.1131 56.4023 47.3356 59.2227 51.057 53.3912 54.9624 52.4416 44.1695 54.9033 47.6064 49.7804 50.8847 48.5603 41.1559 50.6558 44.2324 46.2341 47.0052 44.8689 38.1836 46.5836 41.0002 42.8377 43.186 41.246 35.3639 42.6143 37.8285 39.491 39.5896 37.8354 32.5817 38.8657 34.8291 36.3267 36.0744 34.501 29.9539 35.2207 31.8896 33.2266 32.7813 31.3787 27.3707 31.8104 29.1019 30.2893 29.5804 28.3496 24.9792 28.5275 26.4252 27.4597 26.6206 25.5433 22.6035 25.4805 23.8981 24.7965 23.7674 22.838 20.4098 22.5767 21.4656 22.2348 21.1552 20.3581 18.2927 19.9173 19.2117 19.8686 18.6653 17.9976 16.3529 17.4045 17.0543 17.6014 16.417 15.8597 14.4659 15.1613 15.0703 15.5235 14.289 13.8418 12.7338 13.0222 13.1748 13.5342 12.3709 12.0145 11.0754 11.1349 11.4488 11.733 10.5915 10.317 9.57017 9.39358 9.82478 10.0419 9.02357 8.81565 8.11911 7.84634 8.34064 8.50511 7.53748 7.38902 6.80344 6.41922 6.91983 7.03724 6.24549 6.14431 5.52965 5.17681 5.65003 5.7306 5.01561 4.95425 4.34639 3.99975 4.40975 4.45841 3.93587 3.89701 3.21162 2.97881 3.28954 3.32264 2.92776 2.88842 2.16931 2.0535 2.22681 2.26524 2.03013 1.983 1.22019 1.23748 1.30697 1.35849 1.17154 1.12647 27.8194 27.8712 28.9205 28.9205 27.0382 25.2833 40.3668 42.6574 41.2868 42.4085 41.5433 38.646 48.9863 70.2052 50.6425 52.5537 65.6037 62.9801 55.2688 64.6641 59.0564 60.7931 60.1631 57.1537 50.5493 60.3163 54.2768 56.3274 55.706 52.6091 46.6726 56.4081 50.4596 52.603 51.583 48.5829 43.6283 52.554 47.1423 49.2437 47.9695 45.1413 41.0092 48.9871 44.2143 46.2093 44.633 42.0227 38.6821 45.6069 41.5436 43.3807 41.6403 39.2449 36.4514 42.4158 39.0397 40.7222 38.7417 36.5685 34.3348 39.3375 36.6026 38.1215 36.045 34.0882 32.2486 36.439 34.2929 35.6487 33.4169 31.6726 30.2512 33.6095 32.017 33.2147 30.9652 29.4204 28.2759 30.9742 29.8633 30.913 28.5604 27.2075 26.3706 28.3979 27.7157 28.6247 26.3206 25.1447 24.4938 25.978 25.6818 26.463 24.1195 23.1179 22.6983 23.6621 23.6847 24.3405 22.1148 21.2579 20.9147 21.4902 21.7863 22.3437 20.1077 19.4019 19.2255 19.3947 19.9032 20.3521 18.2713 17.7075 17.5604 17.4616 18.1548 18.4986 16.4887 16.0537 15.9755 15.6096 16.4347 16.6845 14.871 14.5338 14.4138 13.9056 14.8061 14.9922 13.2726 13.0328 12.9157 12.263 13.1963 13.3158 11.8061 11.6473 11.4512 10.7668 11.6952 11.7593 10.3828 10.2942 10.0641 9.32747 10.2224 10.2383 9.06872 9.04354 8.69411 8.01218 8.85424 8.8258 7.78961 7.80795 7.40922 6.72554 7.48835 7.43115 6.61052 6.66618 6.1325 5.5573 6.23087 6.14964 5.43976 5.5267 4.90677 4.3916 4.9719 4.86798 4.33208 4.4275 3.69296 3.31795 3.785 3.68105 3.24531 3.33676 2.54901 2.26545 2.61652 2.51935 2.21571 2.30559 1.47133 1.35109 1.56762 1.47981 1.27954 1.37822 30.5968 25.0068 30.6843 30.6843 24.2552 23.3163 40.5183 32.7764 40.2445 40.5144 32.0029 30.1037 46.5483 39.8188 46.35 47.0984 38.0032 35.7371 49.3686 49.7262 49.4803 50.4512 45.7553 43.4966 46.7008 45.3076 48.2043 49.0134 41.2887 39.0099 42.8193 41.783 44.6737 45.4175 37.6053 35.4599 39.9987 38.7004 41.7476 42.4568 34.8162 32.8505 37.7691 36.0617 39.2877 39.9508 32.5137 30.7716 35.7678 33.7561 37.1301 37.6986 30.5945 29.0316 33.9018 31.6768 35.0973 35.6113 28.8193 27.452 32.0896 29.7057 33.167 33.6003 27.2072 25.9937 30.3459 27.8832 31.2802 31.6708 25.634 24.5913 28.6189 26.1126 29.453 29.7736 24.1771 23.2614 26.9564 24.4618 27.6856 27.973 22.7268 21.9682 25.2994 22.8232 25.943 26.1595 21.3605 20.7078 23.6875 21.2794 24.2399 24.428 19.9925 19.4711 22.0945 19.7637 22.5819 22.7096 18.7021 18.2654 20.5258 18.3243 20.9459 21.0526 17.3927 17.0582 18.9742 16.8682 19.3254 19.3861 16.1469 15.8766 17.4627 15.517 17.7663 17.8132 14.89 14.7068 15.9716 14.1765 16.2285 16.2318 13.696 13.5517 14.5133 12.8869 14.7271 14.7277 12.4799 12.407 13.0561 11.5965 13.2456 13.2065 11.3085 11.2553 11.6465 10.3741 11.7955 11.7638 10.1255 10.1185 10.2629 9.1504 10.3914 10.3346 8.99143 8.9978 8.9126 7.99115 9.02925 8.97631 7.83169 7.87914 7.59875 6.80068 7.68187 7.60122 6.7232 6.77708 6.30369 5.67577 6.39422 6.31732 5.57998 5.66566 5.03114 4.52763 5.11684 5.01592 4.46564 4.5451 3.806 3.41795 3.89079 3.80291 3.33121 3.43468 2.60166 2.30944 2.69606 2.58671 2.24974 2.33729 1.48261 1.3135 1.57224 1.48814 1.24357 1.34705 38.651 27.6919 36.8327 36.8327 27.7938 27.9929 48.5357 32.6501 46.358 45.6508 33.227 33.6533 54.444 35.5502 52.2085 51.2153 36.0154 36.4279 56.4231 36.7897 54.2708 53.2376 36.8378 37.0447 55.3321 36.3881 53.5345 52.638 34.9414 35.3471 49.1539 33.0451 48.6751 47.1547 31.2367 31.6182 45.4968 30.4533 45.1154 43.8355 28.7833 29.265 42.573 28.4626 42.256 41.0311 27.035 27.5703 39.9561 26.8619 39.7235 38.5611 25.6015 26.1346 37.5268 25.4391 37.3287 36.2479 24.3432 24.8526 35.1892 24.1566 35.0667 34.0758 23.1757 23.6342 32.9734 22.9197 32.8577 31.9671 22.0733 22.5016 30.8219 21.7522 30.7701 29.9604 20.9976 21.3759 28.7798 20.6287 28.7325 28.0153 19.9687 20.314 26.7819 19.5095 26.7932 26.1492 18.9272 19.2387 24.871 18.4138 24.8859 24.3131 17.9138 18.2028 23.0196 17.3408 23.0765 22.5624 16.8984 17.1473 21.2173 16.2536 21.2827 20.8391 15.8722 16.1063 19.4797 15.1649 19.5698 19.171 14.8449 15.0502 17.7987 14.096 17.8923 17.5496 13.8185 14.0101 16.1666 13.0159 16.2807 15.9753 12.7805 12.9467 14.5866 11.9428 14.6977 14.4393 11.7465 11.8966 13.037 10.843 13.1666 12.9428 10.6682 10.808 11.5473 9.7401 11.6554 11.4572 9.6021 9.73968 10.1021 8.65389 10.2325 10.0501 8.53372 8.65361 8.70546 7.5587 8.81991 8.666 7.44896 7.58056 7.36064 6.44477 7.46891 7.31181 6.36576 6.491 6.03793 5.3478 6.13958 5.99627 5.26162 5.39733 4.75456 4.22265 4.86385 4.71426 4.14035 4.27411 3.52061 3.11688 3.61554 3.47331 3.03695 3.17564 2.34022 2.02332 2.45598 2.31093 1.94123 2.0587 1.25004 1.06457 1.3189 1.21327 1.03897 1.16011 51.3353 35.6333 47.4392 47.4392 37.0426 38.0632 61.9606 41.3239 58.0358 56.603 43.7252 45.908 69.3582 44.1793 65.5129 63.1371 46.8973 49.5756 71.6946 44.071 67.9279 65.184 46.857 49.6724 70.2321 41.9522 66.8185 64.0296 44.2001 46.5192 64.8929 36.9988 62.5234 60.2922 38.5471 41.3605 58.2891 33.8942 56.5589 53.8306 35.2272 38.0167 53.7039 31.5018 52.2588 49.6132 32.6747 35.3242 49.6587 29.466 48.4534 45.9647 30.4714 32.9104 45.9298 27.6073 44.8886 42.5981 28.4918 30.7117 42.4447 25.8797 41.5507 39.4612 26.6132 28.6056 39.1466 24.227 38.373 36.4861 24.8728 26.6535 36.0293 22.6919 35.3947 33.6982 23.2088 24.7656 33.0856 21.2076 32.5338 31.0378 21.6459 23.016 30.2896 19.8229 29.8625 28.5347 20.1451 21.3147 27.6369 18.4558 27.2891 26.1434 18.7162 19.7207 25.1343 17.1725 24.8788 23.8857 17.3477 18.1899 22.7575 15.8951 22.5864 21.7432 16.0128 16.7329 20.5119 14.6846 20.4136 19.6846 14.7413 15.3285 18.3897 13.4901 18.345 17.7426 13.5075 13.9936 16.3981 12.3388 16.4066 15.9018 12.3123 12.702 14.5046 11.1926 14.5577 14.1472 11.1449 11.4636 12.7139 10.0822 12.8197 12.4807 9.99906 10.2433 11.0409 8.94941 11.1412 10.8767 8.87037 9.07403 9.45448 7.87467 9.60347 9.38195 7.76461 7.914 7.95169 6.77832 8.0899 7.92463 6.67327 6.79523 6.53605 5.70607 6.68482 6.54885 5.60205 5.68118 5.18838 4.61526 5.32609 5.23588 4.51354 4.5792 3.9056 3.5382 4.05091 3.9756 3.4267 3.48277 2.71346 2.45318 2.82783 2.76571 2.3544 2.41252 1.61133 1.47385 1.73016 1.66785 1.37573 1.45088 0.838475 0.800092 0.859722 0.808578 0.855882 0.890788 68.5187 48.7998 62.851 62.851 51.493 52.7628 79.2424 56.3995 74.0527 72.3627 60.1598 63.0101 89.0493 61.2173 84.142 81.1406 65.3566 68.8556 92.3993 61.7363 87.528 83.9948 66.0462 69.6939 91.1724 59.3122 86.1515 82.5621 63.3415 66.6962 84.0666 54.342 81.218 78.071 57.5531 60.9987 76.553 48.4017 74.3954 71.1946 51.0948 54.6285 68.9305 44.3759 67.0746 63.7646 46.7093 50.0386 62.9091 40.8719 61.3148 58.194 42.8952 45.9815 57.5223 37.6217 56.1175 53.2186 39.4058 42.2205 52.5163 34.5982 51.2801 48.6307 36.1695 38.7301 47.8798 31.7309 46.7969 44.3826 33.108 35.4098 43.4964 29.0631 42.5654 40.3918 30.2497 32.3214 39.4344 26.5171 38.6253 36.6645 27.5452 29.3778 35.5736 24.1506 34.9067 33.1703 25.0102 26.6372 31.9849 21.8955 31.4263 29.8811 22.6098 24.0331 28.5826 19.799 28.1516 26.7982 20.3797 21.6271 25.4195 17.8348 25.107 23.9173 18.2672 19.3264 22.4358 15.9894 22.2158 21.2037 16.3139 17.2263 19.6902 14.2515 19.566 18.6908 14.4701 15.2306 17.1362 12.6449 17.0804 16.3481 12.7815 13.4221 14.7774 11.1268 14.802 14.181 11.1773 11.7071 12.5848 9.71406 12.6827 12.1651 9.68474 10.1253 10.5891 8.36968 10.7097 10.2753 8.31554 8.65736 8.76749 7.14705 8.94186 8.60184 7.02958 7.31766 7.10607 5.94077 7.29468 7.0042 5.80985 6.02449 5.58604 4.82596 5.77881 5.5588 4.67999 4.85718 4.2068 3.72905 4.41451 4.22992 3.57864 3.72047 2.97144 2.69477 3.16618 3.01519 2.52903 2.65319 1.83182 1.682 2.01317 1.88057 1.5441 1.65526 0.93814 0.899749 1.10103 0.994722 0.796375 0.863767 0.73748 1.0316 0.708248 0.742358 1.12579 1.04979 89.7538 67.2236 82.7189 82.7189 71.0224 72.3869 99.6943 76.5411 93.907 92.0379 81.1078 84.2959 113.158 83.9533 107.998 104.626 88.8751 92.7595 118.497 85.5216 113.005 108.998 90.7465 94.6185 118.466 82.9746 111.301 107.329 88.6048 91.8508 107.875 77.3948 105.235 102.042 80.7611 84.09 97.6306 70.1195 95.621 92.3543 72.8565 76.1334 87.9433 62.6779 86.1536 82.9233 65.1904 68.3907 78.8134 57.0012 77.1289 73.9448 59.222 62.1888 71.2944 51.9281 69.7448 66.7828 53.9133 56.6405 64.533 47.2348 63.145 60.418 49.0082 51.4733 58.3096 42.875 57.0737 54.6076 44.4441 46.6812 52.5748 38.7591 51.4814 49.2428 40.142 42.1465 47.1826 34.9321 46.2304 44.2263 36.1449 37.9419 42.2133 31.3184 41.4002 39.6045 32.3574 33.957 37.5006 27.9476 36.8313 35.235 28.8337 30.2515 33.1532 24.7859 32.5983 31.1833 25.5129 26.7562 29.0399 21.8627 28.6335 27.3946 22.432 23.5217 25.2862 19.1007 24.9655 23.8795 19.545 20.4782 21.7275 16.5812 21.5339 20.6061 16.8905 17.6884 18.5278 14.2402 18.4009 17.6081 14.4555 15.1224 15.5333 12.1255 15.5118 14.8502 12.223 12.778 12.841 10.1827 12.9101 12.3602 10.181 10.629 10.3812 8.39795 10.5067 10.0622 8.3402 8.70705 8.24462 6.84097 8.41185 8.04543 6.70496 6.98212 6.29175 5.40788 6.5075 6.23049 5.22985 5.44493 4.65871 4.13849 4.88358 4.66715 3.94234 4.0962 3.21535 3.04541 3.47337 3.31826 2.79787 2.90728 2.09149 2.12769 2.34337 2.23446 1.90371 1.9724 1.33669 1.43667 1.54312 1.48398 1.23904 1.28362 1.25243 1.32044 1.32158 1.30257 1.26391 1.26438 1.60379 1.72688 1.56748 1.58461 1.80051 1.76407 44.4483 117.065 44.6097 44.6097 113.043 111.729 101.164 109.057 105.409 106.791 106.781 104.406 93.0131 106.971 97.019 99.1597 103.613 100.918 87.7678 104.089 92.0138 94.4678 100.02 97.2443 83.0634 100.168 87.6295 90.1782 95.5666 92.8097 78.3572 95.3773 83.0403 85.5797 90.5883 87.907 73.5948 90.0543 78.3322 80.8018 85.1991 82.6381 68.9083 84.3663 73.4424 75.803 79.6811 77.2586 64.2057 78.6131 68.5545 70.7876 74.0882 71.8234 59.6377 72.7635 63.6432 65.7306 68.5687 66.4626 55.0905 67.0722 58.8547 60.7967 63.0902 61.1472 50.7034 61.404 54.0986 55.8896 57.7919 56.0059 46.3871 56.012 49.5386 51.1846 52.6164 50.9888 42.2865 50.6995 45.0862 46.5839 47.6648 46.1938 38.2694 45.6999 40.85 42.2033 42.8747 41.5547 34.5054 40.8266 36.754 37.9657 38.346 37.1649 30.8559 36.3194 32.8998 33.9831 34.0224 32.9847 27.4681 31.9731 29.2159 30.164 29.9907 29.0825 24.2146 27.9827 25.7978 26.6246 26.1744 25.3896 21.2398 24.1819 22.5565 23.2673 22.6628 21.9894 18.4036 20.7663 19.5754 20.1836 19.3919 18.8264 15.8764 17.5332 16.8022 17.3091 16.4379 15.9664 13.4654 14.6932 14.2868 14.7088 13.7066 13.3198 11.345 12.0673 11.9664 12.3097 11.3083 10.9945 9.37454 9.79328 9.91351 10.1926 9.13855 8.88993 7.64843 7.74682 8.04222 8.2624 7.26503 7.07306 6.05965 6.02543 6.39004 6.56179 5.61773 5.47271 4.71381 4.49762 4.92552 5.05503 4.24005 4.13418 3.45298 3.25863 3.63517 3.73323 3.05629 2.97562 2.41694 2.19238 2.48766 2.56443 2.15146 2.07421 1.50515 1.40887 1.54991 1.63099 1.43352 1.32161 0.827541 0.799695 0.77416 0.886083 0.920277 0.760571 34.0142 42.581 34.5694 34.5694 40.9088 38.3397 52.7622 98.4958 52.525 54.7832 94.6482 92.79 78.9257 91.7024 83.7288 85.237 87.826 85.146 72.5943 87.3828 77.1714 79.408 83.1372 80.142 67.7185 83.272 72.3149 74.8877 78.6378 75.5776 63.4682 78.7968 68.0414 70.7109 74.0128 71.0216 59.406 74.1609 63.9553 66.5821 69.2933 66.4361 55.6177 69.3371 59.9186 62.4372 64.6702 61.9794 51.9618 64.5611 56.0335 58.4085 60.0738 57.5729 48.4483 59.7958 52.1585 54.3645 55.6571 53.3501 44.9992 55.2045 48.4567 50.4877 51.3076 49.1892 41.6962 50.6713 44.7823 46.6424 47.1518 45.2232 38.4507 46.3669 41.2898 42.977 43.0932 41.3514 35.3813 42.1806 37.8647 39.3821 39.2694 37.7118 32.3687 38.2304 34.644 35.9932 35.5425 34.1552 29.5221 34.4159 31.4753 32.6692 32.0744 30.8529 26.7795 30.8564 28.5442 29.5872 28.7248 27.6623 24.2004 27.4537 25.6836 26.5829 25.6334 24.7168 21.716 24.321 23.0436 23.8122 22.6726 21.8949 19.4262 21.3489 20.501 21.1454 19.982 19.3362 17.2254 18.6373 18.1819 18.7085 17.4229 16.8933 15.2094 16.1091 15.9446 16.369 15.1549 14.7344 13.2803 13.8323 13.9313 14.2621 12.9899 12.6651 11.5318 11.7229 12.0071 12.2566 11.0918 10.8544 9.88206 9.87032 10.3015 10.4767 9.3279 9.16348 8.38351 8.1646 8.67578 8.79113 7.7741 7.67571 6.9484 6.65436 7.19401 7.25495 6.33182 6.28594 5.66497 5.29737 5.82407 5.84375 5.09447 5.08875 4.40936 4.08426 4.5697 4.55825 3.91457 3.9264 3.28358 2.98483 3.36994 3.34966 2.92046 2.92631 2.22354 2.0491 2.30557 2.29589 2.01087 1.99001 1.32013 1.21452 1.32977 1.35485 1.25475 1.20425 29.3851 32.0165 29.4259 29.4259 30.8571 28.5361 42.1537 46.0829 41.7335 43.5017 45.9839 42.4093 51.3704 76.574 52.3108 55.045 71.8113 69.3003 59.6049 70.8805 63.8842 65.689 66.2201 63.217 54.9238 66.4577 59.0844 61.3371 61.713 58.5506 51.1282 62.3994 55.1584 57.5932 57.6559 54.5212 47.825 58.4592 51.7735 54.2186 53.7097 50.7152 44.897 54.5509 48.5517 50.9055 50.0598 47.25 42.1782 50.8396 45.5805 47.7965 46.5811 43.9845 39.6299 47.182 42.6908 44.7378 43.3009 40.9163 37.1251 43.742 39.9364 41.8161 40.1199 37.957 34.7554 40.3652 37.2363 38.9323 37.1315 35.1767 32.4052 37.193 34.6722 36.2011 34.2141 32.4657 30.1968 34.1007 32.1536 33.5114 31.4952 29.9411 27.9809 31.2255 29.7649 30.967 28.8358 27.4649 25.9006 28.4003 27.4171 28.4706 26.3522 25.1544 23.8476 25.8133 25.1953 26.1132 23.9612 22.9348 21.9203 23.2837 23.0371 23.8148 21.7315 20.8574 19.9879 20.9665 20.9847 21.642 19.5791 18.8502 18.1962 18.7333 19.0182 19.558 17.6156 17.0028 16.4292 16.7082 17.1456 17.6009 15.7141 15.223 14.7883 14.7449 15.3388 15.6983 13.9867 13.5876 13.1483 12.9788 13.6266 13.9191 12.3086 12.0091 11.6319 11.2741 11.9868 12.2001 10.7888 10.5667 10.1323 9.76112 10.4648 10.6202 9.33489 9.16975 8.75004 8.29609 8.97227 9.08692 8.0016 7.89322 7.36901 6.95124 7.575 7.64657 6.7049 6.63977 6.10792 5.68897 6.24951 6.28946 5.53156 5.49227 4.83054 4.50022 4.96072 4.9842 4.3435 4.34171 3.65427 3.34433 3.73889 3.73182 3.2624 3.27707 2.48707 2.2925 2.59564 2.57721 2.21846 2.22535 1.46419 1.32363 1.50276 1.49917 1.32233 1.31932 30.5873 26.5657 29.3996 29.3996 26.401 24.7788 39.9886 34.7169 38.682 39.5868 34.8333 31.6832 46.1194 42.8563 45.4004 47.296 41.5072 38.1252 49.2989 55.266 49.6169 51.6949 50.7581 48.1375 48.0727 50.8036 50.4375 51.82 46.3476 43.5835 44.5082 47.1098 46.9977 48.4729 42.78 40.0633 41.6723 43.9483 44.1242 45.5973 39.6833 37.1187 39.2718 40.9488 41.5608 42.9742 37.014 34.652 37.1108 38.2818 39.2209 40.5405 34.6264 32.4761 35.0864 35.7482 36.9863 38.1965 32.4716 30.528 33.1262 33.4032 34.862 35.9656 30.3982 28.6673 31.2483 31.1333 32.7727 33.7546 28.4909 26.9572 29.3882 29.0355 30.7874 31.6597 26.6237 25.2756 27.6232 26.9717 28.8341 29.5997 24.8978 23.7291 25.8502 25.055 26.9519 27.6151 23.1666 22.1654 24.1507 23.1593 25.0998 25.6613 21.5647 20.7104 22.4636 21.3886 23.3144 23.7934 19.9727 19.2638 20.8386 19.6533 21.5548 21.9455 18.4877 17.9033 19.1994 18.0206 19.857 20.1776 16.9847 16.5042 17.6509 16.433 18.1866 18.4493 15.5861 15.2166 16.0942 14.9267 16.5785 16.7697 14.1905 13.9188 14.6092 13.4467 15.003 15.1305 12.8866 12.6849 13.1097 12.0474 13.4581 13.5471 11.5618 11.4286 11.6828 10.6825 11.9573 12.0031 10.3262 10.2456 10.2633 9.40597 10.5262 10.541 9.07315 9.04024 8.91611 8.12356 9.10387 9.08784 7.90272 7.90984 7.55036 6.90117 7.73161 7.68928 6.69691 6.73005 6.27488 5.70167 6.40316 6.34486 5.56341 5.62347 4.97575 4.52685 5.10528 5.0274 4.4 4.47568 3.76628 3.38719 3.86087 3.77546 3.30753 3.37619 2.54979 2.29848 2.66912 2.59411 2.20015 2.25792 1.46759 1.2473 1.51371 1.45946 1.2344 1.27505 37.3554 26.9679 34.6739 34.6739 28.0193 27.4424 45.9113 32.0017 42.9818 42.8839 33.1203 31.9595 51.242 35.4874 48.6864 48.8862 36.0685 34.5978 53.1886 37.6707 51.2191 51.5952 37.2378 35.7858 52.6189 39.1966 51.3302 51.6493 36.6978 35.5534 47.3333 35.8698 47.2352 47.0322 33.2518 32.2887 44.0612 33.2486 44.2532 43.9461 30.679 29.8879 41.2773 31.0542 41.6414 41.3175 28.6975 28.023 38.7934 29.1845 39.1991 38.9075 27.0398 26.4921 36.4509 27.4883 36.8893 36.5959 25.5812 25.1123 34.2316 25.9588 34.6686 34.4061 24.2302 23.8442 32.0884 24.4851 32.5326 32.2767 22.9817 22.6393 30.0422 23.1244 30.4613 30.2481 21.7488 21.4812 28.0695 21.7928 28.4892 28.2734 20.6108 20.3757 26.1704 20.5156 26.5558 26.3762 19.4419 19.2732 24.3177 19.2549 24.7137 24.5272 18.3371 18.1978 22.5457 18.0483 22.9062 22.746 17.226 17.1356 20.8105 16.835 21.1653 21.0022 16.1476 16.0726 19.1261 15.6505 19.4583 19.3238 15.0189 14.9995 17.5007 14.4737 17.8317 17.6784 13.9627 13.9492 15.917 13.3201 16.2148 16.0893 12.8574 12.8832 14.3821 12.169 14.6717 14.534 11.7945 11.8274 12.8809 11.004 13.1304 13.0097 10.6717 10.7403 11.3993 9.84733 11.6515 11.5138 9.5865 9.65545 9.99116 8.72121 10.2095 10.0882 8.46999 8.57333 8.60945 7.56662 8.81164 8.66775 7.38752 7.48945 7.25559 6.42304 7.42279 7.29078 6.24893 6.38061 5.94846 5.2807 6.10347 5.95011 5.15861 5.29296 4.66282 4.13324 4.79172 4.63992 4.00942 4.16713 3.4282 3.00287 3.5485 3.38112 2.91536 3.06451 2.25988 1.90386 2.36597 2.20857 1.80259 1.9623 1.18994 0.91234 1.24449 1.10393 0.934105 1.01226 49.04 33.2752 44.5566 44.5566 35.3544 35.9593 58.0827 37.8079 53.4616 52.3039 40.6031 41.9399 64.3519 40.4364 60.2387 58.515 43.1528 44.7586 66.226 40.6096 62.7005 60.8177 42.9905 44.6459 64.9809 39.0954 61.9804 60.1147 40.9671 42.5949 61.2388 34.9207 59.0687 57.2683 35.7444 37.7016 54.7468 32.1465 53.1305 50.9091 32.7512 34.6398 50.4385 29.9823 49.297 47.2771 30.3936 32.2042 46.6879 28.0981 45.8133 43.9405 28.4087 30.0745 43.2023 26.3887 42.5331 40.8322 26.6022 28.1208 39.9671 24.7896 39.4375 37.8956 24.932 26.285 36.8972 23.2886 36.4973 35.1176 23.3596 24.5545 34.0209 21.8507 33.7134 32.49 21.8783 22.9276 31.287 20.5099 31.0768 29.9914 20.4752 21.3771 28.7172 19.1995 28.5705 27.6289 19.1401 19.9211 26.2637 17.9641 26.2158 25.389 17.8431 18.5101 23.9601 16.7495 23.9558 23.242 16.6158 17.1748 21.7709 15.5834 21.8265 21.2186 15.4137 15.8737 19.6794 14.426 19.784 19.278 14.2424 14.6263 17.7076 13.3178 17.8717 17.4429 13.1051 13.4157 15.8413 12.1931 16.0245 15.6729 11.9858 12.2413 14.0713 11.1129 14.2818 13.9884 10.8935 11.0959 12.3929 10.0074 12.609 12.3739 9.80816 9.97839 10.7838 8.9218 11.0223 10.8235 8.70692 8.84623 9.28119 7.84086 9.50988 9.3472 7.64715 7.76788 7.82801 6.77201 8.05451 7.91423 6.58598 6.67495 6.45024 5.6675 6.64109 6.53614 5.51125 5.59971 5.14188 4.59499 5.32952 5.22836 4.44598 4.52216 3.88033 3.48828 4.03976 3.95262 3.36207 3.43828 2.67645 2.39769 2.81449 2.7309 2.28102 2.35899 1.58322 1.36314 1.69279 1.60972 1.27741 1.35966 0.757351 0.655227 0.752163 0.702573 0.759597 0.732897 65.389 45.1464 59.0918 59.0918 48.278 49.6235 74.8292 50.9599 68.9582 67.1261 55.1937 58.0231 83.1165 55.151 78.026 75.0048 59.3419 62.7391 85.5624 55.6283 81.0971 77.6527 59.5572 63.082 83.8265 53.4419 79.8722 76.3953 57.0916 60.5126 79.1538 49.5368 75.8655 72.5689 52.4068 55.518 72.1494 43.4048 69.6999 66.8036 46.1852 49.4303 64.5691 39.9595 62.6789 59.6528 42.1827 45.2529 58.8539 36.8909 57.334 54.4908 38.7616 41.6018 53.7443 34.0393 52.4925 49.8672 35.6166 38.2012 49.0382 31.3694 47.993 45.6052 32.7248 35.0595 44.693 28.8332 43.8116 41.653 29.9841 32.0754 40.6118 26.4651 39.8744 37.9388 27.4355 29.3123 36.82 24.2267 36.2159 34.4737 25.0353 26.6844 33.2508 22.1242 32.7708 31.2381 22.7848 24.2445 29.9076 20.164 29.5546 28.1931 20.6633 21.9213 26.7741 18.2968 26.5132 25.3381 18.6841 19.7825 23.8544 16.5622 23.699 22.6694 16.8362 17.7605 21.0996 14.9246 21.0456 20.176 15.0843 15.8827 18.5632 13.408 18.5953 17.8386 13.4625 14.1106 16.1933 11.961 16.2825 15.6657 11.9421 12.4853 14.0156 10.6008 14.1586 13.6374 10.5223 10.9466 11.983 9.31528 12.1647 11.7549 9.18791 9.52748 10.0951 8.10143 10.3363 10.0054 7.92854 8.18014 8.41347 6.94571 8.65595 8.40855 6.75296 6.95358 6.82676 5.81463 7.08734 6.88616 5.61372 5.75563 5.38353 4.7145 5.61679 5.47149 4.52743 4.64747 4.06813 3.68224 4.29963 4.17391 3.49473 3.5583 2.84585 2.63345 3.04929 2.97958 2.46309 2.52155 1.72549 1.61213 1.90103 1.83442 1.46673 1.50575 0.821788 0.754549 0.942948 0.899807 0.677401 0.706723 0.731289 0.873568 0.637036 0.654681 1.02804 0.989103 86.1569 62.9179 78.6235 78.6235 67.0632 68.5362 95.3577 70.6067 88.9226 86.8925 75.6369 78.8781 107.024 77.1021 101.709 98.2449 82.0264 85.9226 110.651 78.3552 105.853 101.822 83.0441 86.9963 108.424 75.8457 103.892 99.8367 80.2901 84.0327 102.732 70.9626 98.3062 94.5023 74.8943 78.1767 92.8814 64.3123 90.2465 87.0038 67.528 70.7271 83.2909 57.1936 81.2582 78.1056 59.9567 63.1104 74.1776 52.02 72.3826 69.2515 54.3746 57.3004 66.8941 47.4014 65.3753 62.4628 49.4293 52.1011 60.4396 43.1208 59.1237 56.4572 44.8902 47.301 54.5566 39.1341 53.4015 50.9916 40.6821 42.8653 49.1346 35.3801 48.1472 45.9615 36.7209 38.6745 44.0667 31.876 43.2284 41.2716 33.0444 34.7977 39.4071 28.6004 38.6981 36.938 29.5747 31.1333 34.9991 25.5225 34.4362 32.873 26.3362 27.7256 30.9191 22.643 30.4758 29.0813 23.3051 24.5181 27.1054 19.9827 26.7731 25.5562 20.5048 21.576 23.5719 17.5097 23.3695 22.2933 17.8685 18.779 20.2822 15.2179 20.1722 19.2598 15.465 16.2496 17.2747 13.1009 17.2644 16.4773 13.2321 13.8868 14.514 11.1661 14.561 13.9044 11.2171 11.7765 12.0215 9.4044 12.1484 11.585 9.36191 9.81783 9.7192 7.79327 9.91908 9.45908 7.66211 8.03665 7.70964 6.36932 7.93147 7.5509 6.19375 6.47558 5.89844 5.03962 6.15592 5.86937 4.82765 5.05641 4.33986 3.85586 4.60494 4.36895 3.62701 3.78774 2.99182 2.79972 3.24341 3.0765 2.5834 2.70991 1.90995 1.91921 2.16825 2.03708 1.69742 1.78308 1.19202 1.22884 1.3401 1.2666 1.0873 1.13663 1.14528 1.16931 1.18211 1.16882 1.16182 1.14762 1.57245 1.67337 1.51744 1.55037 1.77014 1.70849 51.1605 125.101 51.533 51.533 120.103 119.129 107.499 114.352 111.991 113.385 112.512 110.072 98.9546 112.829 102.925 105.231 109.517 106.823 93.7039 110.491 98.1802 100.718 106.043 103.317 89.1052 106.678 93.9242 96.4888 101.737 99.053 84.3496 101.917 89.4283 91.9439 96.6818 94.0862 79.5007 96.346 84.5653 86.9818 91.1538 88.6789 74.4965 90.4237 79.4469 81.7397 85.3088 82.9723 69.4992 84.2199 74.1679 76.3187 79.4191 77.2378 64.4924 78.0075 68.9039 70.9042 73.4421 71.4239 59.6132 71.8058 63.6236 65.4659 67.6434 65.7863 54.7752 65.788 58.5185 60.2081 61.8756 60.1784 50.1306 59.9134 53.4814 55.0179 56.3911 54.8501 45.6065 54.2799 48.7122 50.1009 50.9933 49.6075 41.294 48.842 44.0325 45.2739 45.9177 44.6853 37.1421 43.6796 39.6563 40.753 40.9791 39.8889 33.224 38.7535 35.398 36.3603 36.4141 35.4585 29.4971 34.1801 31.4828 32.3196 32.024 31.1983 26.0213 29.8474 27.7206 28.4369 27.9854 27.2797 22.7498 25.8479 24.257 24.8627 24.1549 23.5652 19.7282 22.1116 20.9944 21.4909 20.7111 20.222 16.9333 18.7307 18.0624 18.4692 17.4554 17.0671 14.39 15.5998 15.2741 15.5906 14.6048 14.2963 12.0575 12.9028 12.8493 13.0958 11.9716 11.7414 9.98735 10.401 10.591 10.7658 9.69492 9.5311 8.11931 8.26168 8.63736 8.7565 7.65926 7.55054 6.45654 6.3943 6.83851 6.91285 5.95194 5.88354 5.002 4.82151 5.31905 5.36507 4.45637 4.41675 3.70012 3.44587 3.90375 3.92943 3.23635 3.20742 2.56861 2.39387 2.73791 2.76113 2.19795 2.18066 1.6125 1.4206 1.6474 1.66403 1.42239 1.38802 0.910223 0.759368 0.834479 0.869703 0.910024 0.810687 37.776 51.3906 37.9781 37.9781 48.4666 44.6766 56.2079 105.234 53.4495 57.0599 101.12 99.5674 85.0044 98.0002 90.7746 92.0947 94.1422 91.453 78.4611 93.845 83.6339 85.9796 89.3606 86.3439 73.5609 89.7804 78.5567 81.2754 84.9056 81.8299 69.221 85.3509 74.2219 77.0417 80.1887 77.1807 65.0454 80.5268 69.9423 72.7157 75.3679 72.4884 60.941 75.4722 65.7007 68.3596 70.4148 67.6988 56.9742 70.2899 61.4183 63.9276 65.514 62.9796 53.0223 65.1641 57.1893 59.5278 60.6428 58.3036 49.239 60.0628 53.0099 55.1637 55.9494 53.7925 45.4853 55.1711 48.9748 50.9566 51.322 49.3594 41.9162 50.3738 45.0184 46.816 46.9261 45.1456 38.4176 45.864 41.2606 42.8855 42.6616 41.0648 35.1171 41.4539 37.6157 39.0653 38.6279 37.2006 31.8883 37.3527 34.1656 35.4537 34.7531 33.4929 28.8893 33.3738 30.84 31.9714 31.1244 30.0157 25.9765 29.7321 27.728 28.7163 27.6757 26.7177 23.282 26.2422 24.7679 25.614 24.4825 23.6638 20.6949 23.0431 22.0166 22.7311 21.4808 20.79 18.3288 20.0344 19.4156 20.0134 18.7245 18.1492 16.0598 17.3447 17.0281 17.5182 16.1775 15.7112 14.0117 14.7863 14.7721 15.1647 13.8743 13.4986 12.0641 12.574 12.7353 13.0487 11.76 11.4653 10.3267 10.5002 10.8213 11.0652 9.88274 9.66259 8.68772 8.70929 9.11839 9.29603 8.18296 8.0239 7.18559 7.04719 7.50845 7.63525 6.66259 6.55151 5.80747 5.63385 6.06755 6.15508 5.31877 5.24843 4.54197 4.29396 4.71702 4.77253 4.09388 4.05231 3.35579 3.16317 3.49884 3.53219 3.003 2.98501 2.30355 2.09424 2.36092 2.37622 2.05904 2.03878 1.37908 1.24639 1.38677 1.40957 1.2983 1.25191 30.4103 37.5022 29.309 29.309 35.682 32.5107 43.4685 49.1865 41.26 44.0685 50.9258 45.8387 53.9129 84.1373 53.7254 58.1742 78.3359 75.9498 64.5596 77.9155 70.1015 71.9236 72.6572 69.572 59.9228 73.2062 64.9526 67.4785 68.1024 64.799 56.0795 69.0299 60.7926 63.6004 63.9049 60.6144 52.6956 64.8452 57.1649 60.0107 59.8249 56.6587 49.4694 60.7103 53.7017 56.4587 55.818 52.8367 46.4535 56.5622 50.3569 52.9591 51.9943 49.2189 43.5131 52.5175 47.1114 49.5325 48.2302 45.6843 40.6951 48.5623 43.9266 46.1402 44.6826 42.3626 37.9276 44.7976 40.8878 42.8961 41.2006 39.1062 35.2905 41.1265 37.9112 39.715 37.9313 36.0483 32.707 37.6816 35.0838 36.6959 34.7481 33.0694 30.2431 34.3539 32.3144 33.7444 31.7779 30.2915 27.8419 31.227 29.7076 30.9641 28.8751 27.5793 25.5602 28.2185 27.1455 28.232 26.2055 25.0862 23.3484 25.4275 24.7746 25.7033 23.6191 22.6613 21.2391 22.7729 22.4542 23.2438 21.2431 20.4265 19.2277 20.3204 20.2805 20.9497 18.9574 18.2798 17.3205 17.9916 18.186 18.7357 16.8761 16.3271 15.483 15.8658 16.2546 16.692 14.8723 14.439 13.7411 13.8467 14.352 14.6914 13.0697 12.7345 12.0732 12.0253 12.6148 12.8727 11.3391 11.0902 10.5177 10.2942 10.9186 11.1066 9.79128 9.61834 9.02157 8.74716 9.37877 9.50272 8.3106 8.19789 7.59603 7.26911 7.86281 7.93867 6.94306 6.88458 6.26755 5.9259 6.4724 6.50372 5.66426 5.65152 4.96776 4.64434 5.11883 5.11194 4.47026 4.47929 3.73813 3.46384 3.87089 3.85048 3.32366 3.34373 2.58372 2.34186 2.65885 2.63244 2.29014 2.29493 1.53423 1.3653 1.57551 1.57224 1.36756 1.34909 29.4837 28.4166 26.4344 26.4344 28.276 25.8744 38.7823 36.7761 36.1652 37.9323 37.9009 32.9764 45.8312 46.3655 44.4302 48.1551 45.8816 40.7076 50.0717 62.4074 50.4299 54.4789 56.6096 53.6517 50.5485 57.5466 54.3528 56.3716 52.2803 49.0163 47.2336 53.5475 50.8008 53.1249 48.607 45.3206 44.4323 50.0613 47.7515 50.1492 45.3883 42.2206 41.924 46.7754 45.0168 47.359 42.3426 39.3763 39.6002 43.6533 42.403 44.6159 39.5779 36.8386 37.3611 40.6954 39.9173 41.9661 36.9445 34.4572 35.2113 37.8498 37.515 39.3767 34.4904 32.2373 33.0952 35.1885 35.175 36.8632 32.1113 30.1017 31.0677 32.6108 32.9206 34.4249 29.8966 28.1069 29.0806 30.1999 30.7606 32.0975 27.7369 26.1673 27.159 27.8528 28.6266 29.7993 25.7149 24.3359 25.2686 25.6703 26.6012 27.6296 23.7441 22.5462 23.4487 23.5213 24.5903 25.4878 21.8922 20.8507 21.6567 21.5514 22.6773 23.4604 20.0858 19.2093 19.9308 19.6121 20.8086 21.4684 18.3715 17.6378 18.2441 17.8042 19.0153 19.5638 16.7274 16.1252 16.6003 16.0478 17.263 17.7141 15.1706 14.6673 14.9967 14.4293 15.5868 15.966 13.6458 13.2518 13.4392 12.8101 13.9227 14.2199 12.1956 11.8874 11.9228 11.3348 12.3485 12.5782 10.7883 10.5695 10.4742 9.87009 10.8104 10.969 9.46791 9.31242 9.04122 8.52471 9.34556 9.45445 8.16524 8.06633 7.65476 7.16771 7.88788 7.95227 6.90052 6.854 6.32435 5.90423 6.51022 6.53118 5.69888 5.68008 5.01352 4.64735 5.16049 5.16153 4.49837 4.508 3.77175 3.47084 3.88175 3.86083 3.34028 3.38656 2.59826 2.30158 2.67117 2.61851 2.23483 2.29584 1.49473 1.2591 1.55736 1.50132 1.24836 1.2776 35.213 25.4998 30.6437 30.6437 27.3753 26.085 42.6734 31.5447 38.6154 39.177 33.1193 30.1484 48.1705 36.4427 45.2062 46.9409 37.2393 33.3379 50.7261 40.1771 48.864 51.3204 39.4693 35.6414 50.8249 44.1848 50.0988 52.5238 40.1481 37.6809 46.5201 40.6692 47.4899 48.6156 36.9036 34.5168 43.5274 37.7729 44.6917 45.7914 34.3107 32.0478 40.9825 35.3041 42.1328 43.2124 32.0937 30.0388 38.6239 33.0342 39.7572 40.7609 30.1607 28.3068 36.3557 30.9869 37.434 38.3608 28.39 26.7359 34.18 29.0824 35.2054 36.0513 26.7632 25.2921 32.0814 27.2745 33.0245 33.7856 25.1909 23.9149 30.0558 25.5693 30.947 31.6113 23.7271 22.6173 28.1064 23.9715 28.9405 29.5187 22.3052 21.3532 26.2084 22.3867 26.9787 27.4771 20.9405 20.1325 24.3859 20.9135 25.108 25.528 19.6004 18.9297 22.6081 19.4359 23.2613 23.6077 18.3183 17.761 20.8827 18.0436 21.4943 21.7785 17.0464 16.5956 19.2038 16.6667 19.7751 20.0022 15.8137 15.4456 17.5811 15.3426 18.0965 18.2815 14.5912 14.3051 15.9916 14.028 16.4656 16.6069 13.3867 13.1783 14.4577 12.7651 14.8943 14.9856 12.1918 12.0556 12.9347 11.4725 13.3326 13.377 11.0057 10.9102 11.4552 10.2377 11.8113 11.8353 9.82376 9.77574 10.0298 8.99732 10.3314 10.3255 8.67213 8.65627 8.62104 7.80064 8.89955 8.87352 7.5033 7.51725 7.24579 6.56433 7.47271 7.42801 6.33816 6.38142 5.92178 5.36633 6.10286 6.03605 5.18573 5.25117 4.60917 4.14991 4.75654 4.67236 4.00877 4.10686 3.36417 2.97657 3.47961 3.36959 2.87419 2.98413 2.19324 1.84301 2.26858 2.15041 1.78801 1.88983 1.14237 0.873564 1.18335 1.10476 0.910347 0.920907 46.3132 30.2279 40.6065 40.6065 33.4148 33.2773 53.6252 34.7334 47.9221 47.3981 37.9554 37.6728 59.2986 38.0168 54.7781 54.4279 40.6985 40.09 61.2934 39.0253 57.7811 57.7749 41.0366 40.2241 60.4354 38.3377 57.7823 57.9844 39.5014 38.7799 57.5482 35.1947 55.6018 55.7236 34.8387 34.8273 51.3179 32.4923 50.2307 49.5914 31.9638 32.1546 47.6487 30.2952 46.8735 46.1527 29.778 30.0618 44.2728 28.4324 43.8001 43.0963 27.9069 28.1936 41.1042 26.6985 40.8038 40.1721 26.1883 26.4826 38.1174 25.1026 37.9661 37.3849 24.5912 24.8453 35.2911 23.5772 35.2099 34.7021 23.0952 23.3365 32.6105 22.1686 32.6388 32.1795 21.6778 21.8635 30.0827 20.8176 30.1551 29.7734 20.3387 20.5086 27.6716 19.5175 27.8239 27.4837 19.0446 19.1603 25.4055 18.2731 25.5826 25.3137 17.8105 17.9228 23.2311 17.0519 23.4631 23.2192 16.6098 16.6845 21.1825 15.8743 21.4368 21.2465 15.4403 15.5151 19.2199 14.7208 19.5258 19.3538 14.2909 14.3388 17.3772 13.5793 17.6726 17.54 13.1814 13.2346 15.5883 12.4581 15.9266 15.804 12.0723 12.096 13.902 11.3553 14.2266 14.1444 10.9905 11.0258 12.2776 10.2377 12.6195 12.5378 9.8913 9.91569 10.7343 9.1116 11.0494 10.9863 8.79559 8.83902 9.24819 7.99654 9.56124 9.48732 7.71929 7.75335 7.82886 6.88524 8.1002 8.04163 6.6268 6.69033 6.44957 5.73414 6.70636 6.62201 5.51807 5.58704 5.15715 4.59983 5.34661 5.26117 4.42929 4.53282 3.87946 3.45192 4.06448 3.94518 3.30731 3.42122 2.67544 2.3273 2.80126 2.67814 2.21896 2.34595 1.5687 1.25343 1.65626 1.52426 1.19859 1.30296 0.740148 0.540148 0.704058 0.659703 0.708311 0.667278 62.0268 40.9781 54.6514 54.6514 44.9274 46.0232 69.8444 45.4054 62.7646 61.0614 50.3409 52.5076 76.9875 49.6449 71.3654 68.9449 54.0173 56.4384 79.087 50.4558 74.5688 72.0881 54.2647 56.6504 77.4494 48.7099 73.7998 71.466 52.0069 54.2729 73.3778 45.2485 70.3835 68.2332 48.0961 50.2688 67.4821 39.3752 65.2943 63.2772 41.6822 44.1218 60.2264 36.2696 58.3091 56.0189 38.2712 40.576 54.9597 33.6431 53.5309 51.4157 35.2657 37.4138 50.2361 31.155 49.1434 47.1909 32.5023 34.4575 45.8806 28.8348 45.0219 43.2506 29.936 31.7015 41.8565 26.5833 41.1658 39.5663 27.5101 29.0825 38.0746 24.5115 37.534 36.1078 25.2404 26.6407 34.5621 22.5074 34.1521 32.8768 23.1075 24.3443 31.2633 20.6814 30.9796 29.8484 21.1097 22.1808 28.1797 18.9094 27.9978 27.0144 19.2386 20.1697 25.2821 17.2746 25.2042 24.3428 17.4653 18.2684 22.5832 15.7054 22.5878 21.8407 15.807 16.4893 20.0523 14.2745 20.1507 19.5119 14.2606 14.819 17.703 12.8662 17.8508 17.325 12.8084 13.283 15.5051 11.5827 15.7373 15.2846 11.4248 11.8139 13.4755 10.3118 13.7345 13.3587 10.1263 10.4457 11.577 9.1333 11.8886 11.5756 8.89217 9.14904 9.83336 7.9637 10.1461 9.89031 7.72055 7.93886 8.22956 6.86575 8.56376 8.34245 6.59637 6.77344 6.72419 5.74457 7.03126 6.84788 5.50051 5.66028 5.31364 4.68573 5.62417 5.4551 4.43798 4.56249 4.03817 3.60118 4.27583 4.14239 3.41707 3.54866 2.84237 2.57795 3.07648 2.93388 2.38172 2.50037 1.72064 1.50734 1.89314 1.76815 1.37689 1.492 0.788952 0.624438 0.898834 0.798294 0.577752 0.62959 0.682025 0.837282 0.593803 0.699313 1.00937 0.862909 82.3701 57.4325 73.7147 73.7147 62.2558 64.1246 90.3151 63.1983 82.6785 80.1812 69.2599 72.8784 100.586 69.4968 94.5832 90.714 74.8806 78.9405 103.36 70.9612 98.4263 94.2328 75.6694 79.6565 100.797 68.8359 96.6305 92.5717 72.9809 76.7068 95.0726 64.4186 91.4549 87.7086 68.1344 71.5257 87.3098 58.6395 84.3677 81.0045 61.6582 64.7024 78.2693 51.4164 75.9437 72.9887 54.4595 57.4378 69.3108 46.9331 67.4164 64.5137 49.4211 52.1595 62.4292 42.8726 60.8993 58.2283 44.9462 47.4458 56.3573 39.069 55.1017 52.6606 40.8319 43.0836 50.8405 35.4996 49.7589 47.5549 37.0141 39.0409 45.7678 32.128 44.8725 42.8874 33.4284 35.2282 41.0382 28.9904 40.2971 38.533 30.0835 31.6871 36.6767 26.0303 36.066 34.4933 26.9457 28.3669 32.5841 23.2714 32.1196 30.7265 24.0072 25.2644 28.7763 20.6916 28.435 27.2025 21.2663 22.3523 25.2282 18.2972 25.0001 23.9375 18.7236 19.6721 21.9538 16.0718 21.8455 20.918 16.3674 17.1719 18.9083 14.0169 18.8889 18.1014 14.1859 14.8728 16.1224 12.1383 16.2016 15.5285 12.1792 12.7416 13.5492 10.3862 13.6931 13.1424 10.34 10.8106 11.2288 8.80876 11.4395 10.9773 8.67445 9.0343 9.10841 7.34969 9.35626 9.00333 7.15345 7.43614 7.21165 6.05603 7.50842 7.23056 5.80832 6.01232 5.53851 4.82459 5.83935 5.63734 4.55556 4.69992 4.04641 3.7242 4.35751 4.21324 3.44073 3.52172 2.76627 2.7025 3.03216 2.94956 2.44463 2.49151 1.73531 1.84516 1.96684 1.91567 1.60292 1.608 1.02284 1.1257 1.172 1.14532 0.955144 0.981902 1.08154 1.01355 1.08263 1.02967 1.0177 1.06845 1.58547 1.56349 1.54684 1.48212 1.64348 1.69676 61.1891 132.381 60.3865 60.3865 130.55 128.56 114.603 119.367 118.565 121.179 118.901 115.772 105.376 119.734 109.311 112.427 116.003 113.004 100.272 118.381 105.409 108.425 112.899 110.045 95.7192 114.886 101.62 104.48 108.615 105.891 90.9836 109.898 97.0514 99.755 103.527 100.927 85.9217 104.013 91.9932 94.5449 97.7091 95.2422 80.6345 97.5594 86.41 88.8072 91.5915 89.2653 75.201 90.8402 80.6921 82.9326 85.2162 83.0465 69.8095 84.0286 74.8241 76.9 78.8527 76.8448 64.4088 77.2825 69.0485 70.9543 72.5228 70.6773 59.2005 70.688 63.3525 65.0934 66.386 64.6997 54.0642 64.3337 57.8846 59.4629 60.4082 58.8807 49.2134 58.2216 52.5959 54.0172 54.6801 53.3068 44.4485 52.3675 47.5555 48.8203 49.1629 47.9379 40.0068 46.7975 42.7307 43.8505 43.927 42.8459 35.6839 41.5296 38.1619 39.138 38.9432 37.9977 31.7197 36.5891 33.8534 34.6974 34.3109 33.4944 27.9033 31.9648 29.835 30.5518 29.9296 29.2347 24.4055 27.6672 26.0642 26.6651 25.8972 25.3136 21.1013 23.7019 22.5868 23.0806 22.1298 21.6503 18.1527 20.0554 19.361 19.7586 18.7277 18.3434 15.3393 16.7668 16.4338 16.7407 15.5843 15.2848 12.9077 13.8009 13.7551 13.9846 12.8845 12.6591 10.6315 11.2116 11.4087 11.5731 10.388 10.2266 8.68766 8.90731 9.27032 9.38177 8.26228 8.15771 6.8908 6.94491 7.39288 7.45758 6.41321 6.35511 5.40462 5.28895 5.77177 5.80383 4.87878 4.85512 4.0071 3.85481 4.31195 4.31748 3.53079 3.52828 2.89513 2.70823 3.06025 3.05875 2.53585 2.54223 1.83089 1.72593 1.97723 1.97234 1.60624 1.61221 1.13277 1.007 1.11107 1.11773 1.01384 1.01348 42.2221 63.241 41.5698 41.5698 60.4881 53.2895 60.7835 113.358 52.7158 60.0223 109.712 107.705 92.3802 105.094 100.979 102.883 101.303 98.1608 85.3264 101.534 91.5541 94.5102 96.4088 93.084 80.1662 97.8255 86.2424 89.4857 91.8801 88.5908 75.7192 93.2647 81.6852 84.9459 87.131 83.9631 71.3149 88.2193 77.1797 80.34 82.0672 79.0591 66.9622 82.6864 72.5071 75.5087 76.8247 74.0018 62.5712 77.0629 67.7764 70.5928 71.4773 68.8552 58.2441 71.321 62.9915 65.5962 66.2141 63.7975 53.9647 65.7156 58.3332 60.7262 60.9821 58.7628 49.8434 60.2176 53.7158 55.9032 55.9767 53.9625 45.7962 54.9806 49.3502 51.3268 51.0707 49.2487 41.9597 49.9341 45.0787 46.8555 46.4687 44.8396 38.2302 45.1554 41.0882 42.6687 41.965 40.5121 34.7114 40.5897 37.1888 38.5865 37.7899 36.512 31.3156 36.2888 33.5678 34.7892 33.736 32.6156 28.1475 32.2407 30.081 31.1405 30.0421 29.0716 25.1237 28.488 26.8691 27.7801 26.4932 25.6591 22.3235 24.9681 23.7929 24.5676 23.2536 22.5566 19.6782 21.7356 20.9853 21.6253 20.1986 19.6182 17.2525 18.7375 18.3263 18.8499 17.4871 17.0138 14.9642 16.0295 15.9247 16.3473 14.8969 14.5232 12.9062 13.5521 13.654 13.9811 12.6754 12.385 10.9705 11.3845 11.6312 11.8827 10.5825 10.3664 9.25053 9.39385 9.74686 9.92784 8.7936 8.64319 7.63153 7.63963 8.0614 8.18414 7.12696 7.02547 6.18903 6.10735 6.4971 6.5769 5.73335 5.67253 4.84107 4.70291 5.09808 5.14446 4.39832 4.36423 3.63872 3.47134 3.7907 3.81533 3.30684 3.2831 2.51202 2.37873 2.62277 2.64202 2.24084 2.22767 1.59158 1.46913 1.61324 1.62557 1.47222 1.45176 31.282 43.3689 28.3783 28.3783 41.0099 37.3437 44.6096 52.3387 40.069 43.7105 58.3639 48.9429 57.7601 95.5507 54.6733 63.7612 86.9168 84.3948 71.1304 86.7013 80.0586 82.0984 80.4532 76.9415 66.2384 81.63 72.9202 76.132 75.4975 71.786 62.1713 77.143 68.0152 71.5587 71.1094 67.4402 58.5321 72.6697 63.9617 67.528 66.7287 63.2165 55.0181 68.0453 60.0225 63.4516 62.4236 59.123 51.5987 63.4092 56.2351 59.4604 58.1221 55.0519 48.2803 58.759 52.4583 55.4477 53.9353 51.1145 44.9974 54.2816 48.8014 51.5399 49.8366 47.2724 41.8735 49.8872 45.2302 47.7044 45.9464 43.6224 38.7976 45.7735 41.8448 44.0784 42.1504 40.0655 35.89 41.7752 38.555 40.5423 38.5972 36.7326 33.0275 38.0731 35.447 37.2164 35.1557 33.5023 30.3455 34.4666 32.4423 33.9953 31.9379 30.4844 27.6959 31.1416 29.592 30.9514 28.838 27.5682 25.2576 27.9478 26.8795 28.0551 25.9728 24.8765 22.8681 25.0246 24.3144 25.325 23.2384 22.304 20.6468 22.2255 21.8691 22.7201 20.7239 19.934 18.4905 19.6764 19.5803 20.2958 18.3384 17.6805 16.514 17.2638 17.406 17.9945 16.167 15.6259 14.5566 15.0856 15.3577 15.8403 14.103 13.6712 12.79 13.0154 13.4276 13.8067 12.2514 11.9068 11.0551 11.1639 11.6157 11.9197 10.4878 10.2204 9.49126 9.42091 9.90648 10.1386 8.9143 8.71817 7.94591 7.84792 8.30138 8.47136 7.40943 7.27731 6.5451 6.36551 6.8071 6.91689 6.05191 5.96788 5.16912 5.01902 5.39178 5.46024 4.76002 4.71353 3.94678 3.74917 4.0805 4.1156 3.59818 3.56873 2.74991 2.58968 2.83392 2.85833 2.48315 2.4701 1.75116 1.57645 1.77484 1.78949 1.56565 1.55084 27.373 30.0129 20.6847 20.6847 29.45 26.7238 37.0567 38.7343 32.8272 35.197 41.1917 34.1325 46.3868 50.4572 44.0544 50.1363 52.7163 43.8912 52.6903 73.5779 52.7666 60.84 64.4879 61.252 55.0836 66.6076 61.8917 64.4765 59.7993 55.9508 51.7794 61.7776 57.0478 60.3717 55.8124 51.8797 48.8405 57.78 53.3477 56.847 52.2316 48.432 46.1379 53.927 50.1287 53.5387 48.8149 45.2577 43.5124 50.2832 47.1044 50.3039 45.5434 42.2584 40.9856 46.7025 44.1827 47.1244 42.4391 39.4511 38.5084 43.303 41.3818 44.05 39.4209 36.74 36.1134 40.0307 38.6465 41.0191 36.6114 34.219 33.7733 36.9856 36.0666 38.1762 33.8796 31.757 31.5373 34.0487 33.5489 35.4063 31.3391 29.4711 29.323 31.3177 31.146 32.7747 28.8538 27.2163 27.2292 28.6863 28.8164 30.2329 26.557 25.1365 25.1504 26.2158 26.5757 27.8029 24.2859 23.0669 23.1839 23.8637 24.427 25.4704 22.2204 21.1852 21.2467 21.6508 22.3599 23.2446 20.1827 19.3102 19.3903 19.5361 20.3516 21.0913 18.2987 17.575 17.5844 17.5623 18.4357 19.0498 16.4573 15.8663 15.8725 15.6771 16.5851 17.0805 14.7765 14.3078 14.1593 13.9021 14.8124 15.2041 13.0901 12.7248 12.545 12.2059 13.0678 13.3688 11.562 11.2934 10.9539 10.6079 11.4245 11.6435 10.0385 9.84917 9.46124 9.07988 9.82627 9.9738 8.65889 8.53765 7.97313 7.62582 8.28608 8.37594 7.26364 7.19254 6.56981 6.23887 6.80679 6.85195 5.97357 5.95536 5.211 4.9088 5.39337 5.39179 4.68341 4.70467 3.92874 3.64594 4.03531 3.9996 3.51309 3.55938 2.71408 2.43434 2.78428 2.72982 2.35516 2.40436 1.66389 1.40924 1.69671 1.65771 1.42144 1.42693 31.8555 22.5813 22.7104 22.7104 25.1303 23.2937 38.6282 30.927 32.9283 34.1427 32.963 28.031 45.4883 38.7135 42.24 45.8714 40.1355 33.061 49.6651 45.3209 48.1733 53.7086 44.9327 37.3681 51.0133 53.1969 51.0482 57.2503 46.1885 42.576 47.6536 48.3132 50.8166 53.4373 42.9141 39.1499 44.9679 44.6615 47.5169 50.3405 40.0589 36.4165 42.4982 41.566 44.6835 47.4587 37.5154 34.1296 40.1619 38.7632 42.0928 44.6943 35.13 32.0351 37.8626 36.1334 39.5762 41.9644 32.9258 30.1521 35.6235 33.7042 37.1842 39.3306 30.8334 28.3741 33.4375 31.3852 34.8541 36.7513 28.8714 26.6991 31.3124 29.2609 32.6126 34.2995 26.9866 25.0911 29.2793 27.2201 30.4589 31.9284 25.238 23.5791 27.2673 25.3034 28.3686 29.6639 23.5043 22.0699 25.3668 23.4595 26.356 27.4786 21.9014 20.6653 23.4727 21.7029 24.3882 25.3651 20.2994 19.2384 21.6779 20.0237 22.5228 23.3652 18.809 17.8957 19.9123 18.4134 20.677 21.4146 17.3195 16.5587 18.2214 16.838 18.9125 19.5289 15.8983 15.2671 16.5555 15.3297 17.1894 17.7055 14.4922 13.9826 14.961 13.8566 15.5273 15.9431 13.1588 12.7449 13.3585 12.4303 13.8899 14.2321 11.7869 11.4697 11.8329 11.0014 12.2888 12.5477 10.4876 10.2512 10.3246 9.63467 10.7217 10.9148 9.16763 9.01308 8.88249 8.26927 9.21963 9.3369 7.90804 7.82711 7.43837 6.92719 7.7264 7.77778 6.61556 6.59505 6.06511 5.61602 6.29269 6.28781 5.38193 5.40678 4.69968 4.32227 4.87307 4.82747 4.14278 4.19648 3.41949 3.06141 3.52825 3.45976 2.96214 3.03722 2.21281 1.88887 2.25684 2.17525 1.83569 1.9217 1.27698 0.972538 1.28244 1.24302 1.04184 1.03032 42.9633 24.6662 33.1631 33.1631 29.8608 29.3295 48.5363 31.2252 41.1014 41.1068 35.0646 33.1331 54.5208 37.0207 49.5953 50.8719 39.6426 36.1991 57.3941 40.2543 54.1081 56.7071 41.7583 37.3387 57.4418 41.2896 55.275 58.7146 41.5813 36.9395 55.208 39.6132 53.9515 57.5693 36.9144 34.3949 49.4314 36.3115 49.1957 50.8021 34.2478 31.9599 46.0693 33.6683 46.0123 47.4883 31.976 29.944 43.0681 31.419 43.0643 44.3911 29.9704 28.2181 40.1646 29.361 40.3023 41.4531 28.1093 26.5922 37.4013 27.4997 37.6042 38.6111 26.3686 25.0403 34.7262 25.7493 34.9981 35.8839 24.724 23.5778 32.1999 24.1197 32.507 33.2814 23.1672 22.178 29.7976 22.5797 30.1534 30.8206 21.7054 20.8563 27.495 21.1135 27.8748 28.4549 20.2766 19.5457 25.3205 19.7101 25.7357 26.2366 18.9464 18.3223 23.2237 18.3386 23.6386 24.0733 17.6145 17.0915 21.2401 17.0435 21.7046 22.0701 16.3563 15.9238 19.3402 15.7502 19.7902 20.0963 15.1137 14.7501 17.5247 14.5005 17.9887 18.2469 13.913 13.6186 15.7825 13.2761 16.2337 16.4463 12.724 12.4807 14.1221 12.0684 14.5711 14.7484 11.5641 11.3886 12.5114 10.854 12.9469 13.0723 10.3696 10.2562 10.9652 9.63493 11.3827 11.4536 9.21065 9.13587 9.45844 8.4107 9.82164 9.86472 8.03403 8.007 8.02413 7.21641 8.36927 8.369 6.89063 6.89685 6.60487 5.97949 6.89543 6.86683 5.69999 5.74068 5.25548 4.76732 5.50148 5.44176 4.54329 4.62155 3.93949 3.52978 4.12814 4.03203 3.35901 3.46545 2.69335 2.33654 2.82872 2.7122 2.23094 2.36148 1.5667 1.20509 1.62398 1.50001 1.18193 1.29124 0.822441 0.722257 0.815935 0.844737 0.87025 0.705544 58.6109 35.1384 47.7673 47.7673 41.5139 42.0547 64.3588 40.2712 55.4367 54.3773 46.2868 46.835 70.9379 45.9584 64.5732 63.9087 50.5777 50.544 73.2628 47.9979 68.6815 68.7451 51.5903 50.9921 72.1628 47.1436 68.6865 69.3408 50.0011 49.0623 68.6722 44.2826 66.0057 66.9753 46.513 45.5515 63.5857 38.1036 61.5448 62.509 39.7882 39.8377 56.406 35.1071 54.7524 54.6922 36.5063 36.7591 51.7554 32.528 50.4451 50.2248 33.7692 34.1222 47.4815 30.2305 46.5216 46.2263 31.2143 31.5922 43.4895 28.0403 42.7844 42.4734 28.849 29.2356 39.769 25.9464 39.249 38.9242 26.5711 26.9393 36.2656 23.9749 35.8851 35.5737 24.4643 24.8074 33.0031 22.1523 32.7633 32.4629 22.486 22.7687 29.9254 20.388 29.7712 29.527 20.6205 20.8812 27.0638 18.773 27.0402 26.807 18.8696 19.0757 24.3553 17.1847 24.3858 24.2015 17.2132 17.4004 21.8321 15.7642 21.9921 21.822 15.6587 15.7953 19.4695 14.3457 19.666 19.5423 14.1963 14.322 17.2685 13.0343 17.5582 17.4381 12.8012 12.8917 15.2082 11.7428 15.5074 15.4207 11.4826 11.5767 13.2766 10.5438 13.6543 13.5581 10.2255 10.2912 11.4795 9.3502 11.8483 11.7796 9.01849 9.09074 9.7955 8.20721 10.2074 10.128 7.85426 7.91845 8.23931 7.02721 8.59951 8.52763 6.71106 6.79857 6.75975 5.93385 7.14828 7.04936 5.60754 5.69126 5.36777 4.78031 5.68856 5.59292 4.50257 4.62176 4.07116 3.671 4.38417 4.25355 3.41552 3.5524 2.86475 2.53606 3.09289 2.94419 2.34566 2.52151 1.72565 1.48937 1.94585 1.78278 1.3173 1.47669 0.783155 0.677062 0.937679 0.876436 0.615873 0.609273 0.762155 1.06639 0.740943 0.993055 1.17819 0.871374 78.716 49.939 66.3754 66.3754 57.1934 59.1284 84.4835 55.2271 74.6752 71.9822 63.0445 66.1384 93.501 62.4776 86.1683 82.8761 68.7212 71.7422 95.9883 64.8973 90.5586 87.5875 69.8266 72.4887 93.6491 63.4289 89.4086 86.93 67.5418 69.8318 88.3402 59.5545 84.9564 82.9265 63.079 65.071 81.3343 54.23 78.5812 76.8995 57.3 59.0889 73.1498 46.8302 71.1186 69.6684 49.8272 51.7791 64.6028 42.8192 62.5957 60.9379 45.3903 47.2075 58.2431 39.305 56.7306 55.2031 41.4124 43.0668 52.6237 35.9568 51.4315 50.0468 37.6988 39.1909 47.4865 32.8014 46.5328 45.2825 34.2582 35.579 42.7795 29.7615 42.0092 40.9081 30.9895 32.1513 38.3878 26.9404 37.7812 36.8136 27.9499 28.9726 34.3217 24.2309 33.8426 32.9938 25.0722 25.9635 30.5255 21.7781 30.1889 29.449 22.4148 23.1748 26.983 19.3969 26.7613 26.1363 19.9085 20.5556 23.6893 17.2698 23.6088 23.0768 17.588 18.1278 20.6531 15.2171 20.6562 20.2163 15.4228 15.8684 17.8239 13.3989 17.9346 17.5712 13.4506 13.8005 15.2435 11.6386 15.4152 15.1366 11.6211 11.8982 12.8517 10.0914 13.1299 12.9073 9.92948 10.1379 10.6801 8.59093 10.9989 10.8353 8.3878 8.53833 8.71097 7.27982 9.07623 8.95504 6.98226 7.08463 6.93956 6.00153 7.31613 7.23565 5.71223 5.77743 5.36439 4.88684 5.76676 5.71154 4.53275 4.56924 3.94358 3.76466 4.33162 4.29956 3.44452 3.46888 2.70303 2.80623 3.0769 3.05011 2.4635 2.47565 1.68346 1.86605 2.00555 1.98962 1.60829 1.62217 0.978155 1.23995 1.25174 1.25692 0.978277 0.960998 0.993949 1.15824 1.14444 1.19358 1.0374 0.969907 1.5166 1.62531 1.49064 1.56931 1.68641 1.58973 
SCALARS volume float 1
LOOKUP_TABLE default
0.000325238 0.000323027 0.000324194 0.000324194 0.000324969 0.000323814 0.000326511 0.000324145 0.000325659 0.000326876 0.000325128 0.000323933 0.000326557 0.000324249 0.00032557 0.00032678 0.000325157 0.000323999 0.000326515 0.000324312 0.000325588 0.000326755 0.000325156 0.000324053 0.000326461 0.000324376 0.000325616 0.000326725 0.000325151 0.000324109 0.000326405 0.000324445 0.000325643 0.000326689 0.000325145 0.000324169 0.000326347 0.000324514 0.000325664 0.000326644 0.000325144 0.000324234 0.00032629 0.000324586 0.00032568 0.000326594 0.000325146 0.000324304 0.000326233 0.000324656 0.00032569 0.000326536 0.000325153 0.000324376 0.000326177 0.000324728 0.000325697 0.000326478 0.000325162 0.000324452 0.000326122 0.000324795 0.0003257 0.000326413 0.000325176 0.000324528 0.00032607 0.000324862 0.0003257 0.000326352 0.000325191 0.000324604 0.000326019 0.000324925 0.000325698 0.000326287 0.000325209 0.000324679 0.00032597 0.000324988 0.000325693 0.000326225 0.000325227 0.000324753 0.000325923 0.000325046 0.000325687 0.000326161 0.000325246 0.000324825 0.000325878 0.000325102 0.00032568 0.000326101 0.000325265 0.000324896 0.000325836 0.000325153 0.000325671 0.000326042 0.000325286 0.000324963 0.000325796 0.000325203 0.000325663 0.000325987 0.000325306 0.000325027 0.000325759 0.000325248 0.000325652 0.000325932 0.000325327 0.000325088 0.000325725 0.000325293 0.000325642 0.000325882 0.000325345 0.000325146 0.000325692 0.00032533 0.000325632 0.000325831 0.000325365 0.0003252 0.000325663 0.000325367 0.000325622 0.000325787 0.000325383 0.00032525 0.000325636 0.000325399 0.000325611 0.000325744 0.000325401 0.000325296 0.000325612 0.00032543 0.000325601 0.000325707 0.000325418 0.00032534 0.00032559 0.000325453 0.00032559 0.000325669 0.000325435 0.000325378 0.000325572 0.000325476 0.000325581 0.000325638 0.000325451 0.000325413 0.000325556 0.000325493 0.00032557 0.000325607 0.000325466 0.000325442 0.000325543 0.000325508 0.000325561 0.000325584 0.000325479 0.000325468 0.000325534 0.000325517 0.00032555 0.000325562 0.000325492 0.000325489 0.000325526 0.000325525 0.000325542 0.000325546 0.000325503 0.000325506 0.000325521 0.000325526 0.000325533 0.000325531 0.000325513 0.000325516 0.000325518 0.000325528 0.000325526 0.000325524 0.000325517 0.000325523 0.000325773 0.000324669 0.000325261 0.000325261 0.000325716 0.000324371 0.00032626 0.000324485 0.000325581 0.000326874 0.000325336 0.000324032 0.000326566 0.000324323 0.000325673 0.000326976 0.000325303 0.000324074 0.000326539 0.000324374 0.000325671 0.000326901 0.000325297 0.000324139 0.000326484 0.000324446 0.000325677 0.000326837 0.000325287 0.0003242 0.000326426 0.00032452 0.000325685 0.000326776 0.000325279 0.000324261 0.00032637 0.000324591 0.000325691 0.000326713 0.000325273 0.000324323 0.000326314 0.000324661 0.000325696 0.000326649 0.00032527 0.000324388 0.000326259 0.000324728 0.000325697 0.000326582 0.00032527 0.000324455 0.000326205 0.000324795 0.000325697 0.000326516 0.000325274 0.000324525 0.000326152 0.000324858 0.000325695 0.000326448 0.000325279 0.000324593 0.0003261 0.000324918 0.000325691 0.00032638 0.000325287 0.000324662 0.000326049 0.000324975 0.000325685 0.000326312 0.000325296 0.000324731 0.000326001 0.000325031 0.00032568 0.000326247 0.000325307 0.0003248 0.000325954 0.000325082 0.000325672 0.000326181 0.000325318 0.000324865 0.000325909 0.000325133 0.000325665 0.00032612 0.000325331 0.000324929 0.000325867 0.000325179 0.000325656 0.000326059 0.000325343 0.000324989 0.000325826 0.000325223 0.000325648 0.000326002 0.000325356 0.000325048 0.000325789 0.000325263 0.000325638 0.000325947 0.00032537 0.000325105 0.000325752 0.000325301 0.000325629 0.000325895 0.000325383 0.000325157 0.00032572 0.000325336 0.000325619 0.000325846 0.000325396 0.000325206 0.000325689 0.000325368 0.000325611 0.000325801 0.000325408 0.000325252 0.000325661 0.000325396 0.000325602 0.000325758 0.000325421 0.000325294 0.000325636 0.000325422 0.000325593 0.00032572 0.000325433 0.000325333 0.000325614 0.000325444 0.000325584 0.000325684 0.000325444 0.000325368 0.000325594 0.000325465 0.000325575 0.000325651 0.000325456 0.000325399 0.000325577 0.000325481 0.000325567 0.000325624 0.000325467 0.000325427 0.000325563 0.000325495 0.000325559 0.000325599 0.000325477 0.000325451 0.000325552 0.000325504 0.000325552 0.000325578 0.000325487 0.00032547 0.000325542 0.000325514 0.000325544 0.000325561 0.000325497 0.000325487 0.000325535 0.00032552 0.000325535 0.000325545 0.000325508 0.000325503 0.000325527 0.000325526 0.000325528 0.000325532 0.000325518 0.00032552 0.000326264 0.00032502 0.000326104 0.000326104 0.000325536 0.000324296 0.000326308 0.000324743 0.00032568 0.000326887 0.000325412 0.000324291 0.000326414 0.000324455 0.000325745 0.00032685 0.000325342 0.000324184 0.000326517 0.000324458 0.000325763 0.00032692 0.000325321 0.000324213 0.000326485 0.000324517 0.000325753 0.000326862 0.00032532 0.000324266 0.000326437 0.000324583 0.000325742 0.000326799 0.000325321 0.000324326 0.000326385 0.000324646 0.000325731 0.000326729 0.000325324 0.000324388 0.000326332 0.00032471 0.00032572 0.00032666 0.000325327 0.000324453 0.000326279 0.00032477 0.00032571 0.000326587 0.000325332 0.00032452 0.000326227 0.000324831 0.0003257 0.000326516 0.000325338 0.000324588 0.000326174 0.000324888 0.000325691 0.000326444 0.000325344 0.000324655 0.000326123 0.000324943 0.000325681 0.000326373 0.000325351 0.000324721 0.000326073 0.000324995 0.000325672 0.000326304 0.00032536 0.000324787 0.000326024 0.000325047 0.000325662 0.000326237 0.000325369 0.000324851 0.000325977 0.000325095 0.000325652 0.000326172 0.000325377 0.000324913 0.000325932 0.000325142 0.000325644 0.00032611 0.000325386 0.000324972 0.000325888 0.000325185 0.000325634 0.000326049 0.000325396 0.000325029 0.000325849 0.000325225 0.000325625 0.000325993 0.000325404 0.000325083 0.000325809 0.000325264 0.000325616 0.000325937 0.000325414 0.000325135 0.000325773 0.000325299 0.000325607 0.000325887 0.000325423 0.000325184 0.000325738 0.000325331 0.000325598 0.000325837 0.000325432 0.000325229 0.000325707 0.000325362 0.000325592 0.000325794 0.00032544 0.000325271 0.000325679 0.000325389 0.000325583 0.000325753 0.000325449 0.00032531 0.000325653 0.000325413 0.000325577 0.000325716 0.000325456 0.000325345 0.000325629 0.000325435 0.000325569 0.000325681 0.000325465 0.000325377 0.000325608 0.000325453 0.000325563 0.000325651 0.000325472 0.000325405 0.00032559 0.00032547 0.000325556 0.000325623 0.000325479 0.00032543 0.000325575 0.000325483 0.00032555 0.0003256 0.000325487 0.000325451 0.000325562 0.000325493 0.000325544 0.00032558 0.000325493 0.000325469 0.000325553 0.000325501 0.00032554 0.000325564 0.000325499 0.000325485 0.000325543 0.000325508 0.000325534 0.000325548 0.000325508 0.0003255 0.000325536 0.000325516 0.000325528 0.000325536 0.000325515 0.000325515 0.000326776 0.000325207 0.000326903 0.000326903 0.000325371 0.000324144 0.000326446 0.000324726 0.000325852 0.000327057 0.000325347 0.000324267 0.000326397 0.000324689 0.000325861 0.000326929 0.000325351 0.000324318 0.000326432 0.000324592 0.000325855 0.000326883 0.000325341 0.00032429 0.000326468 0.000324616 0.000325834 0.000326887 0.000325344 0.000324326 0.000326438 0.000324665 0.000325803 0.000326823 0.000325357 0.000324382 0.000326394 0.000324717 0.000325773 0.000326751 0.00032537 0.000324445 0.000326345 0.000324771 0.000325747 0.000326675 0.000325383 0.000324512 0.000326294 0.000324825 0.000325722 0.000326596 0.000325394 0.00032458 0.000326243 0.000324878 0.000325702 0.000326519 0.000325404 0.00032465 0.000326192 0.000324929 0.000325684 0.000326441 0.000325412 0.000324717 0.00032614 0.000324979 0.000325668 0.000326366 0.000325421 0.000324782 0.00032609 0.000325027 0.000325653 0.000326294 0.000325428 0.000324846 0.000326041 0.000325074 0.00032564 0.000326224 0.000325436 0.000324909 0.000325992 0.000325118 0.000325627 0.000326156 0.000325443 0.000324968 0.000325946 0.00032516 0.000325616 0.000326093 0.000325449 0.000325025 0.000325903 0.0003252 0.000325606 0.000326031 0.000325455 0.000325078 0.000325861 0.000325237 0.000325596 0.000325973 0.000325461 0.000325129 0.000325822 0.000325273 0.000325585 0.000325919 0.000325466 0.000325176 0.000325785 0.000325305 0.000325579 0.000325869 0.000325471 0.000325221 0.00032575 0.000325336 0.000325571 0.000325821 0.000325476 0.000325262 0.000325717 0.000325365 0.000325564 0.000325778 0.00032548 0.0003253 0.000325687 0.000325389 0.000325557 0.000325738 0.000325485 0.000325335 0.00032566 0.000325412 0.000325552 0.000325702 0.000325488 0.000325367 0.000325637 0.000325432 0.000325546 0.000325668 0.000325492 0.000325394 0.000325614 0.000325451 0.000325543 0.000325641 0.000325496 0.00032542 0.000325595 0.000325466 0.000325538 0.000325615 0.0003255 0.000325443 0.000325578 0.000325478 0.000325534 0.000325592 0.000325503 0.000325461 0.000325566 0.000325488 0.000325532 0.000325574 0.000325506 0.000325475 0.000325555 0.000325495 0.000325529 0.00032556 0.000325508 0.000325488 0.000325548 0.0003255 0.000325528 0.000325548 0.000325509 0.000325498 0.000325543 0.000325506 0.000325527 0.000325539 0.000325514 0.000325507 0.000327341 0.00032529 0.000327704 0.000327704 0.000325168 0.000323958 0.00032662 0.000324658 0.000326061 0.000327259 0.000325245 0.000324186 0.000326443 0.000324769 0.000326027 0.000327078 0.0003253 0.000324313 0.000326417 0.000324766 0.000325977 0.000326961 0.000325339 0.00032437 0.000326428 0.000324731 0.000325926 0.000326895 0.000325362 0.000324391 0.000326433 0.000324754 0.000325874 0.000326848 0.000325387 0.000324442 0.000326402 0.000324792 0.000325822 0.00032677 0.000325413 0.000324506 0.00032636 0.000324836 0.000325777 0.000326687 0.000325435 0.000324577 0.000326311 0.000324881 0.000325739 0.0003266 0.000325454 0.000324648 0.00032626 0.000324927 0.000325707 0.000326515 0.000325469 0.000324719 0.000326208 0.000324973 0.000325679 0.000326431 0.000325481 0.000324787 0.000326157 0.000325019 0.000325655 0.000326352 0.000325491 0.000324854 0.000326106 0.000325061 0.000325634 0.000326273 0.000325499 0.000324917 0.000326056 0.000325104 0.000325617 0.0003262 0.000325505 0.000324978 0.000326007 0.000325144 0.000325601 0.00032613 0.00032551 0.000325035 0.000325959 0.000325183 0.000325587 0.000326063 0.000325514 0.000325089 0.000325915 0.00032522 0.000325575 0.000326001 0.000325518 0.000325139 0.000325871 0.000325255 0.000325565 0.000325944 0.00032552 0.000325186 0.00032583 0.000325286 0.000325555 0.000325889 0.000325523 0.000325231 0.000325793 0.000325317 0.000325547 0.00032584 0.000325523 0.000325271 0.000325756 0.000325345 0.00032554 0.000325792 0.000325524 0.000325309 0.000325723 0.000325371 0.000325535 0.000325751 0.000325524 0.000325343 0.000325692 0.000325395 0.00032553 0.000325711 0.000325525 0.000325374 0.000325663 0.000325417 0.000325526 0.000325677 0.000325525 0.000325402 0.000325638 0.000325435 0.000325523 0.000325645 0.000325525 0.000325426 0.000325616 0.000325453 0.00032552 0.000325619 0.000325524 0.000325446 0.000325596 0.000325467 0.000325518 0.000325596 0.000325523 0.000325464 0.00032558 0.000325478 0.000325518 0.000325577 0.000325522 0.000325479 0.000325565 0.000325487 0.000325517 0.00032556 0.000325521 0.000325491 0.000325555 0.000325492 0.000325519 0.000325549 0.000325518 0.000325498 0.000325549 0.000325494 0.000325521 0.000325541 0.000325515 0.000325502 0.000325548 0.000325496 0.000325526 0.000325538 0.000325511 0.000325505 0.000327963 0.000325247 0.000328498 0.000328498 0.000324891 0.00032372 0.000326797 0.000324557 0.000326306 0.000327475 0.000325108 0.000324076 0.000326517 0.000324805 0.000326225 0.000327253 0.000325216 0.000324259 0.00032645 0.000324861 0.000326131 0.000327086 0.000325298 0.000324368 0.000326438 0.00032486 0.000326038 0.000326967 0.00032536 0.000324441 0.000326432 0.000324851 0.000325954 0.000326874 0.000325409 0.000324497 0.000326416 0.00032487 0.000325878 0.000326793 0.00032545 0.000324567 0.000326378 0.000324903 0.000325813 0.000326698 0.000325485 0.000324643 0.00032633 0.00032494 0.000325758 0.000326602 0.000325512 0.00032472 0.000326279 0.000324981 0.000325712 0.000326507 0.000325534 0.000324795 0.000326226 0.000325021 0.000325674 0.000326415 0.00032555 0.000324866 0.000326173 0.00032506 0.000325642 0.000326327 0.000325563 0.000324934 0.00032612 0.0003251 0.000325615 0.000326245 0.000325572 0.000324997 0.000326067 0.000325138 0.000325592 0.000326167 0.000325578 0.000325057 0.000326017 0.000325175 0.000325572 0.000326094 0.000325582 0.000325112 0.000325968 0.000325211 0.000325556 0.000326027 0.000325584 0.000325163 0.000325921 0.000325245 0.000325541 0.000325963 0.000325586 0.000325211 0.000325875 0.000325278 0.000325529 0.000325904 0.000325585 0.000325254 0.000325833 0.000325308 0.000325519 0.000325849 0.000325583 0.000325295 0.000325793 0.000325336 0.000325512 0.0003258 0.000325582 0.000325333 0.000325756 0.000325362 0.000325505 0.000325754 0.000325578 0.000325365 0.000325722 0.000325387 0.0003255 0.000325713 0.000325575 0.000325396 0.00032569 0.000325408 0.000325496 0.000325676 0.000325571 0.000325422 0.00032566 0.000325429 0.000325494 0.000325643 0.000325566 0.000325445 0.000325634 0.000325446 0.000325493 0.000325614 0.000325561 0.000325464 0.000325611 0.00032546 0.000325493 0.000325589 0.000325556 0.00032548 0.00032559 0.000325473 0.000325493 0.000325569 0.000325551 0.000325494 0.000325573 0.000325484 0.000325497 0.000325554 0.000325545 0.000325503 0.000325559 0.00032549 0.000325499 0.000325542 0.000325538 0.000325509 0.000325548 0.000325496 0.000325505 0.000325535 0.000325532 0.000325512 0.000325542 0.000325495 0.00032551 0.00032553 0.000325523 0.000325509 0.000325545 0.000325491 0.000325519 0.000325533 0.000325513 0.000325502 0.000328452 0.000325045 0.000329105 0.000329105 0.000324519 0.000323408 0.000326949 0.000324454 0.000326605 0.000327727 0.000324939 0.000323923 0.000326633 0.000324815 0.000326447 0.000327463 0.000325102 0.000324165 0.00032654 0.000324909 0.000326315 0.000327251 0.000325226 0.000324321 0.000326505 0.000324929 0.00032618 0.000327085 0.000325329 0.000324441 0.000326481 0.000324933 0.000326058 0.000326947 0.000325411 0.000324541 0.000326452 0.000324938 0.000325952 0.000326824 0.000325476 0.000324629 0.000326414 0.000324961 0.000325861 0.00032671 0.000325526 0.000324718 0.000326362 0.000324993 0.000325786 0.000326596 0.000325566 0.000324804 0.000326308 0.000325028 0.000325725 0.000326489 0.000325595 0.000324887 0.000326251 0.000325064 0.000325675 0.000326386 0.000325617 0.000324962 0.000326194 0.000325101 0.000325634 0.000326291 0.000325632 0.000325031 0.000326137 0.000325137 0.000325599 0.000326201 0.000325643 0.000325095 0.000326082 0.000325173 0.000325571 0.00032612 0.00032565 0.000325153 0.000326028 0.000325208 0.000325547 0.000326044 0.000325653 0.000325206 0.000325976 0.000325241 0.000325527 0.000325975 0.000325653 0.000325255 0.000325927 0.000325272 0.00032551 0.000325909 0.000325652 0.000325299 0.000325879 0.000325301 0.000325497 0.00032585 0.000325648 0.000325339 0.000325835 0.00032533 0.000325486 0.000325795 0.000325645 0.000325375 0.000325793 0.000325358 0.000325477 0.000325747 0.000325639 0.000325408 0.000325754 0.000325381 0.00032547 0.000325701 0.000325632 0.000325436 0.000325718 0.000325403 0.000325466 0.000325663 0.000325626 0.000325461 0.000325684 0.000325423 0.000325463 0.000325629 0.000325618 0.000325481 0.000325654 0.000325442 0.000325462 0.000325599 0.000325608 0.000325499 0.000325626 0.000325458 0.000325463 0.000325572 0.000325599 0.000325513 0.000325601 0.000325471 0.000325466 0.000325551 0.00032559 0.000325525 0.000325582 0.000325483 0.000325469 0.000325534 0.00032558 0.000325533 0.000325564 0.000325493 0.000325475 0.000325522 0.000325569 0.000325537 0.00032555 0.000325497 0.000325482 0.000325514 0.000325557 0.000325536 0.000325539 0.000325502 0.000325491 0.000325513 0.000325545 0.000325532 0.000325535 0.000325499 0.0003255 0.000325513 0.000325531 0.000325524 0.000325537 0.00032549 0.000325514 0.000325521 0.000325516 0.000325506 0.000327885 0.000324759 0.000328959 0.000328959 0.000324127 0.000322939 0.000327173 0.000324395 0.000326868 0.000328085 0.000324736 0.000323609 0.000326887 0.000324741 0.000326686 0.00032782 0.000324923 0.00032393 0.000326762 0.000324867 0.000326538 0.000327535 0.000325091 0.000324166 0.000326687 0.000324918 0.000326366 0.000327295 0.000325243 0.000324358 0.000326627 0.000324946 0.0003262 0.000327087 0.00032537 0.000324522 0.000326566 0.000324969 0.000326055 0.000326905 0.000325471 0.000324661 0.000326502 0.000324996 0.000325931 0.000326743 0.000325549 0.000324783 0.000326433 0.000325028 0.000325831 0.000326599 0.000325605 0.00032489 0.000326363 0.000325064 0.000325751 0.000326467 0.000325647 0.000324987 0.000326293 0.0003251 0.000325687 0.000326348 0.000325677 0.000325071 0.000326225 0.000325137 0.000325635 0.000326242 0.000325698 0.000325144 0.00032616 0.000325172 0.000325592 0.000326145 0.000325711 0.000325209 0.000326098 0.000325207 0.000325556 0.000326058 0.000325719 0.000325268 0.000326038 0.00032524 0.000325527 0.000325978 0.000325722 0.000325318 0.000325981 0.000325272 0.000325503 0.000325906 0.000325722 0.000325364 0.000325927 0.000325301 0.000325483 0.000325841 0.000325719 0.000325404 0.000325876 0.00032533 0.000325467 0.000325782 0.000325713 0.00032544 0.000325827 0.000325357 0.000325455 0.000325729 0.000325707 0.000325471 0.000325782 0.000325382 0.000325445 0.000325681 0.000325699 0.000325497 0.000325741 0.000325404 0.000325437 0.000325638 0.000325688 0.00032552 0.000325703 0.000325426 0.000325434 0.000325602 0.000325678 0.00032554 0.000325668 0.000325445 0.000325431 0.00032557 0.000325666 0.000325554 0.000325637 0.000325462 0.000325431 0.000325542 0.000325654 0.000325567 0.000325609 0.000325476 0.000325433 0.00032552 0.00032564 0.000325574 0.000325584 0.00032549 0.000325437 0.000325503 0.000325626 0.000325578 0.000325563 0.000325499 0.000325443 0.00032549 0.000325612 0.000325579 0.000325547 0.000325507 0.00032545 0.000325483 0.000325596 0.000325576 0.000325533 0.000325511 0.000325461 0.000325481 0.000325579 0.000325568 0.000325524 0.000325513 0.000325474 0.000325485 0.000325561 0.000325556 0.000325519 0.000325509 0.000325488 0.000325493 0.000325544 0.000325539 0.000325523 0.000325501 0.000325503 0.000325508 0.000325524 0.000325518 0.000325592 0.000322898 0.000324016 0.000324016 0.000325323 0.000324429 0.000326602 0.000323874 0.000325622 0.000326528 0.000325024 0.000323871 0.000326411 0.000324239 0.000325579 0.00032675 0.00032503 0.000323881 0.000326371 0.000324355 0.000325597 0.000326758 0.000325039 0.00032393 0.000326333 0.000324428 0.000325626 0.000326744 0.000325046 0.000323987 0.000326295 0.000324493 0.000325649 0.000326715 0.000325055 0.000324054 0.000326253 0.000324554 0.000325667 0.000326674 0.000325067 0.000324127 0.00032621 0.000324617 0.00032568 0.000326624 0.000325081 0.000324206 0.000326165 0.000324679 0.000325688 0.000326567 0.000325097 0.000324287 0.00032612 0.000324744 0.000325692 0.000326506 0.000325116 0.000324373 0.000326073 0.000324805 0.000325694 0.000326441 0.000325138 0.000324457 0.000326029 0.000324868 0.000325692 0.000326376 0.00032516 0.000324541 0.000325984 0.000324928 0.000325688 0.000326309 0.000325184 0.000324624 0.000325941 0.000324988 0.000325683 0.000326245 0.000325207 0.000324706 0.000325898 0.000325043 0.000325677 0.000326179 0.000325232 0.000324784 0.000325859 0.000325098 0.000325668 0.000326117 0.000325256 0.00032486 0.00032582 0.000325148 0.000325659 0.000326055 0.00032528 0.000324933 0.000325785 0.000325197 0.00032565 0.000325998 0.000325304 0.000325002 0.00032575 0.000325242 0.00032564 0.000325942 0.000325326 0.000325067 0.000325719 0.000325284 0.000325629 0.000325889 0.00032535 0.00032513 0.000325689 0.000325322 0.000325618 0.000325838 0.000325372 0.000325188 0.000325661 0.000325358 0.000325608 0.000325792 0.000325393 0.000325242 0.000325634 0.00032539 0.000325597 0.000325748 0.000325412 0.00032529 0.000325613 0.000325419 0.000325587 0.000325708 0.00032543 0.000325336 0.000325592 0.000325444 0.000325577 0.000325671 0.000325448 0.000325376 0.000325575 0.000325467 0.000325567 0.000325638 0.000325465 0.000325413 0.000325558 0.000325483 0.000325557 0.000325609 0.00032548 0.000325444 0.000325548 0.000325499 0.000325547 0.000325583 0.000325494 0.000325472 0.000325537 0.000325509 0.000325539 0.000325561 0.000325506 0.000325492 0.00032553 0.000325518 0.000325531 0.000325545 0.000325515 0.000325508 0.000325523 0.000325521 0.000325524 0.000325531 0.00032552 0.000325518 0.000325516 0.000325524 0.000325522 0.000325523 0.000325519 0.00032552 0.000325884 0.00032463 0.000324973 0.000324973 0.000326212 0.000325299 0.000325729 0.000323846 0.000324966 0.000325875 0.000324822 0.000323349 0.000326425 0.000324314 0.000325675 0.000327168 0.000325142 0.000323771 0.000326425 0.000324418 0.000325639 0.000327018 0.000325188 0.0003239 0.000326382 0.000324496 0.00032564 0.000326935 0.0003252 0.000323993 0.000326332 0.000324563 0.000325648 0.000326861 0.000325207 0.000324079 0.000326282 0.000324628 0.000325656 0.000326789 0.000325213 0.000324164 0.000326233 0.000324691 0.000325662 0.000326715 0.00032522 0.000324248 0.000326184 0.000324753 0.000325664 0.000326641 0.000325228 0.000324333 0.000326136 0.000324813 0.000325666 0.000326565 0.00032524 0.000324417 0.000326089 0.000324872 0.000325665 0.00032649 0.00032525 0.000324501 0.000326043 0.000324928 0.000325664 0.000326415 0.000325264 0.000324583 0.000325999 0.000324982 0.00032566 0.000326343 0.000325278 0.000324664 0.000325955 0.000325036 0.000325656 0.000326273 0.000325294 0.00032474 0.000325914 0.000325086 0.000325649 0.000326204 0.000325307 0.000324816 0.000325874 0.000325133 0.000325644 0.000326137 0.000325324 0.000324888 0.000325836 0.000325178 0.000325636 0.000326073 0.000325339 0.000324956 0.0003258 0.000325221 0.000325629 0.000326013 0.000325356 0.000325021 0.000325766 0.00032526 0.000325621 0.000325956 0.000325371 0.000325083 0.000325735 0.000325297 0.000325613 0.000325901 0.000325386 0.000325142 0.000325705 0.00032533 0.000325605 0.00032585 0.0003254 0.000325195 0.000325678 0.000325361 0.000325596 0.000325802 0.000325415 0.000325245 0.000325653 0.00032539 0.000325589 0.00032576 0.000325427 0.000325291 0.00032563 0.000325415 0.000325582 0.000325718 0.000325441 0.000325333 0.000325611 0.000325438 0.000325573 0.000325682 0.000325453 0.000325371 0.000325592 0.000325457 0.000325567 0.000325648 0.000325466 0.000325405 0.000325576 0.000325474 0.000325559 0.00032562 0.000325475 0.000325433 0.000325563 0.000325487 0.000325551 0.000325593 0.000325488 0.000325459 0.000325554 0.000325497 0.000325545 0.000325574 0.000325496 0.000325479 0.000325544 0.000325507 0.000325539 0.000325555 0.000325506 0.000325497 0.000325536 0.000325513 0.000325532 0.000325541 0.000325512 0.00032551 0.000325527 0.000325521 0.000325528 0.000325529 0.000325516 0.000325521 0.000326023 0.000324826 0.000325811 0.000325811 0.000325739 0.000324945 0.000326145 0.000324727 0.00032551 0.000326305 0.000325491 0.000324001 0.000326232 0.000324558 0.000325586 0.000327066 0.000325301 0.000323844 0.000326446 0.000324522 0.00032567 0.000327131 0.000325304 0.000323986 0.000326421 0.00032457 0.000325687 0.00032701 0.000325309 0.000324078 0.000326377 0.000324632 0.000325684 0.00032692 0.000325313 0.000324165 0.000326327 0.000324692 0.000325682 0.000326835 0.000325317 0.000324247 0.000326277 0.000324752 0.000325677 0.000326752 0.000325322 0.00032433 0.000326225 0.000324809 0.000325672 0.000326668 0.000325328 0.000324411 0.000326176 0.000324866 0.000325666 0.000326587 0.000325335 0.000324494 0.000326126 0.000324919 0.000325662 0.000326506 0.000325343 0.000324572 0.000326079 0.000324972 0.000325654 0.000326428 0.000325351 0.00032465 0.000326032 0.000325021 0.000325648 0.000326351 0.00032536 0.000324725 0.000325987 0.000325071 0.00032564 0.000326278 0.000325369 0.000324798 0.000325943 0.000325115 0.000325633 0.000326206 0.00032538 0.000324868 0.000325903 0.000325159 0.000325625 0.000326138 0.000325389 0.000324936 0.000325861 0.0003252 0.000325618 0.000326073 0.0003254 0.000324998 0.000325826 0.000325238 0.000325609 0.000326012 0.000325409 0.000325058 0.000325788 0.000325274 0.000325603 0.000325954 0.000325419 0.000325114 0.000325757 0.000325308 0.000325594 0.0003259 0.00032543 0.000325169 0.000325724 0.000325337 0.000325588 0.000325849 0.000325438 0.000325218 0.000325696 0.000325365 0.000325581 0.000325801 0.000325447 0.000325264 0.000325668 0.000325391 0.000325575 0.000325758 0.000325455 0.000325304 0.000325646 0.000325415 0.000325568 0.000325719 0.000325463 0.000325344 0.000325623 0.000325435 0.000325562 0.000325682 0.000325472 0.000325377 0.000325605 0.000325454 0.000325555 0.00032565 0.000325479 0.000325408 0.000325586 0.000325469 0.00032555 0.000325622 0.000325486 0.000325433 0.000325574 0.000325481 0.000325544 0.000325597 0.000325493 0.000325457 0.000325561 0.000325491 0.000325541 0.000325577 0.0003255 0.000325475 0.000325552 0.000325499 0.000325535 0.00032556 0.000325504 0.00032549 0.000325543 0.000325505 0.000325532 0.000325547 0.000325509 0.000325502 0.000325537 0.000325514 0.000325529 0.000325535 0.000325513 0.000325516 0.000326211 0.000325024 0.000326577 0.000326577 0.000325237 0.000324523 0.000326467 0.000324876 0.000326005 0.000326722 0.00032551 0.000324137 0.000326369 0.000324778 0.000325691 0.000327058 0.000325417 0.00032413 0.000326365 0.000324599 0.000325716 0.000327 0.000325369 0.000324079 0.000326435 0.000324635 0.000325733 0.000327027 0.000325365 0.000324167 0.000326404 0.000324683 0.000325728 0.000326931 0.000325373 0.000324249 0.00032636 0.000324737 0.000325714 0.000326842 0.00032538 0.00032433 0.000326311 0.000324791 0.000325698 0.000326753 0.00032539 0.000324411 0.00032626 0.000324844 0.000325683 0.000326665 0.000325396 0.000324491 0.000326209 0.000324895 0.000325668 0.000326576 0.000325405 0.000324571 0.000326158 0.000324947 0.000325656 0.000326493 0.000325411 0.000324648 0.000326108 0.000324995 0.000325645 0.00032641 0.00032542 0.000324723 0.000326061 0.000325042 0.000325633 0.000326332 0.000325426 0.000324795 0.000326013 0.000325088 0.000325623 0.000326256 0.000325435 0.000324864 0.000325968 0.000325131 0.000325613 0.000326185 0.000325441 0.000324931 0.000325924 0.00032517 0.000325604 0.000326115 0.000325448 0.000324992 0.000325882 0.00032521 0.000325595 0.000326052 0.000325453 0.000325052 0.000325844 0.000325245 0.000325587 0.000325989 0.000325461 0.000325108 0.000325806 0.00032528 0.000325578 0.000325932 0.000325464 0.00032516 0.000325772 0.000325309 0.000325573 0.000325877 0.000325472 0.000325209 0.000325739 0.00032534 0.000325565 0.000325829 0.000325476 0.000325253 0.000325709 0.000325366 0.000325559 0.000325782 0.000325482 0.000325295 0.00032568 0.000325391 0.000325554 0.000325741 0.000325484 0.000325332 0.000325656 0.000325412 0.000325549 0.000325702 0.000325491 0.000325366 0.000325633 0.000325432 0.000325545 0.00032567 0.000325493 0.000325396 0.000325613 0.000325449 0.00032554 0.000325637 0.000325499 0.000325423 0.000325594 0.000325465 0.000325536 0.000325613 0.0003255 0.000325446 0.000325579 0.000325476 0.000325533 0.000325588 0.000325506 0.000325465 0.000325567 0.000325486 0.00032553 0.000325571 0.000325506 0.000325481 0.000325557 0.000325492 0.00032553 0.000325555 0.000325509 0.000325492 0.000325551 0.000325498 0.000325528 0.000325545 0.000325508 0.000325503 0.000325545 0.000325502 0.00032553 0.000325535 0.00032551 0.000325512 0.000326474 0.000325119 0.000327335 0.000327335 0.000324756 0.000324072 0.000326781 0.000324986 0.000326484 0.000327172 0.000325445 0.000324182 0.000326521 0.000324753 0.000325862 0.000327122 0.000325425 0.000324214 0.000326435 0.000324772 0.000325826 0.000327035 0.000325416 0.000324243 0.000326411 0.000324717 0.000325799 0.000326972 0.000325415 0.000324252 0.000326422 0.000324753 0.000325774 0.00032694 0.000325427 0.000324331 0.000326385 0.000324796 0.000325747 0.000326846 0.00032544 0.00032441 0.00032634 0.000324842 0.000325718 0.000326752 0.000325454 0.000324492 0.000326289 0.000324889 0.000325692 0.000326656 0.000325465 0.000324572 0.000326238 0.000324935 0.000325668 0.000326564 0.000325476 0.000324652 0.000326184 0.000324982 0.000325648 0.000326474 0.000325484 0.000324728 0.000326133 0.000325029 0.00032563 0.000326389 0.000325492 0.000324801 0.000326082 0.000325072 0.000325614 0.000326306 0.000325499 0.000324871 0.000326033 0.000325115 0.0003256 0.00032623 0.000325505 0.000324938 0.000325985 0.000325154 0.000325587 0.000326155 0.000325509 0.000325 0.00032594 0.000325193 0.000325576 0.000326087 0.000325512 0.00032506 0.000325895 0.000325228 0.000325567 0.00032602 0.000325516 0.000325114 0.000325855 0.000325262 0.000325557 0.000325959 0.000325519 0.000325166 0.000325815 0.000325292 0.000325549 0.000325902 0.00032552 0.000325212 0.00032578 0.000325323 0.000325543 0.000325851 0.000325522 0.000325257 0.000325744 0.00032535 0.000325536 0.000325801 0.000325523 0.000325297 0.000325714 0.000325375 0.000325531 0.000325758 0.000325524 0.000325334 0.000325684 0.000325398 0.000325527 0.000325717 0.000325524 0.000325367 0.000325658 0.000325419 0.000325523 0.00032568 0.000325525 0.000325397 0.000325633 0.000325437 0.000325519 0.000325648 0.000325525 0.000325423 0.000325613 0.000325453 0.000325518 0.00032562 0.000325525 0.000325446 0.000325593 0.000325466 0.000325517 0.000325596 0.000325525 0.000325464 0.000325578 0.000325478 0.000325516 0.000325577 0.000325523 0.00032548 0.000325564 0.000325486 0.000325517 0.00032556 0.000325523 0.00032549 0.000325556 0.000325492 0.000325516 0.000325549 0.00032552 0.000325499 0.000325549 0.000325493 0.000325519 0.00032554 0.000325515 0.000325502 0.00032555 0.000325494 0.000325523 0.000325536 0.00032551 0.000325507 0.000326815 0.000325103 0.000328085 0.000328085 0.000324249 0.000323582 0.000327093 0.000325034 0.000326966 0.00032764 0.000325326 0.000324178 0.000326677 0.000324714 0.000326077 0.000327224 0.000325367 0.000324231 0.000326523 0.000324809 0.000325975 0.00032711 0.000325413 0.000324301 0.000326465 0.000324834 0.000325898 0.000327011 0.000325444 0.000324362 0.000326434 0.000324823 0.000325838 0.000326922 0.000325469 0.000324415 0.000326416 0.000324855 0.00032579 0.000326846 0.000325491 0.000324496 0.000326374 0.000324891 0.000325746 0.000326743 0.000325513 0.000324581 0.000326322 0.000324933 0.000325706 0.000326641 0.000325529 0.000324663 0.000326268 0.000324976 0.000325672 0.000326541 0.000325545 0.000324744 0.000326212 0.000325019 0.000325642 0.000326446 0.000325556 0.000324819 0.000326158 0.000325062 0.000325617 0.000326355 0.000325565 0.000324892 0.000326104 0.000325102 0.000325595 0.000326269 0.000325571 0.00032496 0.000326052 0.000325142 0.000325577 0.000326189 0.000325576 0.000325024 0.000326001 0.00032518 0.00032556 0.000326114 0.000325577 0.000325083 0.000325953 0.000325215 0.000325547 0.000326043 0.000325579 0.000325138 0.000325906 0.00032525 0.000325536 0.000325977 0.000325578 0.000325189 0.000325863 0.00032528 0.000325526 0.000325916 0.000325579 0.000325237 0.000325821 0.000325311 0.000325518 0.00032586 0.000325577 0.00032528 0.000325783 0.000325339 0.00032551 0.000325807 0.000325576 0.000325319 0.000325747 0.000325364 0.000325504 0.000325761 0.000325572 0.000325355 0.000325714 0.000325388 0.0003255 0.000325717 0.000325571 0.000325388 0.000325683 0.000325409 0.000325497 0.00032568 0.000325566 0.000325416 0.000325655 0.000325428 0.000325496 0.000325645 0.000325563 0.000325441 0.000325631 0.000325445 0.000325495 0.000325617 0.000325558 0.000325462 0.000325609 0.000325459 0.000325494 0.00032559 0.000325554 0.00032548 0.00032559 0.000325472 0.000325495 0.00032557 0.000325548 0.000325493 0.000325573 0.000325481 0.000325499 0.000325554 0.000325544 0.000325503 0.000325561 0.000325489 0.000325501 0.000325542 0.000325536 0.000325509 0.000325552 0.000325493 0.000325506 0.000325532 0.000325532 0.000325513 0.000325546 0.000325492 0.00032551 0.000325529 0.000325522 0.000325511 0.000325549 0.000325486 0.000325518 0.00032553 0.000325513 0.000325507 0.000327116 0.000324989 0.000328716 0.000328716 0.000323731 0.000323081 0.000327361 0.000325007 0.000327442 0.000328101 0.000325128 0.000324093 0.000326831 0.000324667 0.000326346 0.000327382 0.000325261 0.000324187 0.000326645 0.00032482 0.000326159 0.000327234 0.000325364 0.000324306 0.000326562 0.000324875 0.000326032 0.000327092 0.00032544 0.000324409 0.00032651 0.000324899 0.00032593 0.000326963 0.000325493 0.0003245 0.000326465 0.000324911 0.000325848 0.000326843 0.000325536 0.000324582 0.00032642 0.000324943 0.000325777 0.000326734 0.00032557 0.000324674 0.000326363 0.000324981 0.000325721 0.000326619 0.000325596 0.000324761 0.000326304 0.00032502 0.000325673 0.00032651 0.000325617 0.000324846 0.000326243 0.000325061 0.000325634 0.000326406 0.000325631 0.000324922 0.000326184 0.0003251 0.000325601 0.00032631 0.000325641 0.000324995 0.000326124 0.000325138 0.000325573 0.00032622 0.000325647 0.00032506 0.000326068 0.000325176 0.000325549 0.000326137 0.000325651 0.000325122 0.000326013 0.000325211 0.00032553 0.00032606 0.000325652 0.000325177 0.000325962 0.000325246 0.000325514 0.00032599 0.000325652 0.000325228 0.000325912 0.000325277 0.0003255 0.000325924 0.000325648 0.000325275 0.000325866 0.000325307 0.00032549 0.000325863 0.000325644 0.000325318 0.000325821 0.000325335 0.000325481 0.000325808 0.000325639 0.000325355 0.000325781 0.000325361 0.000325474 0.000325758 0.000325634 0.000325392 0.000325741 0.000325385 0.000325469 0.000325711 0.000325628 0.000325422 0.000325708 0.000325407 0.000325465 0.000325672 0.000325621 0.000325448 0.000325675 0.000325427 0.000325462 0.000325635 0.000325613 0.00032547 0.000325647 0.000325446 0.000325461 0.000325605 0.000325605 0.00032549 0.000325619 0.00032546 0.000325464 0.000325578 0.000325596 0.000325506 0.000325598 0.000325473 0.000325466 0.000325556 0.000325588 0.000325518 0.000325578 0.000325484 0.000325469 0.000325539 0.000325578 0.000325527 0.000325562 0.000325494 0.000325476 0.000325527 0.000325568 0.000325532 0.000325549 0.000325498 0.000325482 0.000325518 0.000325557 0.000325532 0.000325541 0.000325501 0.000325489 0.000325515 0.000325547 0.000325531 0.000325536 0.000325498 0.000325499 0.000325515 0.000325534 0.000325522 0.00032554 0.000325489 0.000325509 0.000325522 0.00032552 0.000325509 0.000326776 0.000324939 0.000328999 0.000328999 0.000323358 0.000322604 0.000327385 0.000324885 0.000327668 0.000328433 0.000324798 0.000323709 0.000327067 0.000324606 0.000326614 0.000327711 0.000325087 0.000323994 0.000326875 0.000324766 0.000326384 0.000327482 0.00032525 0.000324212 0.000326758 0.000324848 0.000326215 0.000327257 0.000325376 0.000324385 0.00032667 0.000324898 0.000326067 0.000327061 0.000325478 0.000324532 0.000326592 0.000324938 0.000325939 0.000326888 0.000325554 0.000324659 0.000326515 0.000324971 0.000325834 0.000326732 0.000325614 0.00032477 0.000326442 0.000325012 0.000325748 0.000326594 0.000325654 0.000324872 0.000326367 0.000325052 0.000325683 0.000326466 0.000325684 0.000324964 0.000326293 0.000325093 0.00032563 0.000326351 0.000325702 0.000325045 0.000326223 0.000325133 0.000325589 0.000326246 0.000325716 0.000325118 0.000326155 0.000325171 0.000325554 0.000326152 0.000325722 0.000325182 0.000326092 0.000325207 0.000325525 0.000326066 0.000325727 0.000325241 0.00032603 0.000325242 0.000325503 0.000325989 0.000325725 0.000325292 0.000325973 0.000325274 0.000325483 0.000325916 0.000325722 0.000325339 0.000325919 0.000325304 0.000325468 0.000325852 0.000325716 0.00032538 0.000325868 0.000325333 0.000325456 0.000325793 0.00032571 0.000325417 0.00032582 0.000325362 0.000325446 0.00032574 0.000325701 0.000325448 0.000325777 0.000325385 0.000325439 0.000325691 0.000325692 0.000325478 0.000325736 0.000325409 0.000325434 0.000325648 0.000325681 0.000325502 0.000325699 0.00032543 0.000325431 0.00032561 0.000325672 0.000325523 0.000325665 0.000325448 0.000325429 0.000325578 0.000325661 0.00032554 0.000325634 0.000325463 0.000325429 0.00032555 0.000325649 0.000325554 0.000325606 0.000325479 0.000325432 0.000325527 0.000325634 0.000325563 0.000325583 0.00032549 0.000325437 0.000325509 0.000325622 0.00032557 0.000325562 0.000325499 0.000325444 0.000325496 0.000325608 0.000325571 0.000325547 0.000325507 0.000325452 0.000325489 0.000325593 0.00032557 0.000325534 0.00032551 0.000325462 0.000325485 0.000325576 0.000325564 0.000325526 0.00032551 0.000325474 0.000325486 0.000325562 0.000325555 0.000325524 0.000325508 0.000325488 0.000325495 0.000325545 0.00032554 0.00032553 0.000325497 0.000325502 0.000325506 0.000325528 0.000325522 0.000325532 0.000322754 0.000323812 0.000323812 0.000325324 0.000324412 0.000326689 0.000323764 0.000325512 0.000326435 0.000325097 0.000324033 0.000326425 0.000324165 0.000325567 0.000326642 0.000325004 0.000323916 0.000326323 0.000324354 0.000325618 0.000326716 0.000324993 0.000323922 0.000326273 0.000324446 0.000325645 0.000326725 0.000324999 0.000323961 0.000326238 0.000324514 0.000325666 0.000326711 0.000325009 0.000324019 0.000326205 0.000324573 0.000325682 0.000326677 0.000325024 0.000324088 0.000326169 0.000324632 0.000325692 0.000326633 0.000325042 0.000324166 0.000326132 0.000324692 0.000325699 0.000326579 0.000325062 0.000324248 0.000326093 0.000324752 0.000325702 0.00032652 0.000325085 0.000324333 0.000326054 0.000324811 0.000325701 0.000326456 0.000325109 0.00032442 0.000326013 0.00032487 0.000325699 0.00032639 0.000325135 0.000324507 0.000325971 0.000324929 0.000325693 0.000326324 0.000325163 0.000324591 0.000325932 0.000324988 0.000325687 0.00032626 0.000325189 0.000324676 0.000325892 0.000325042 0.00032568 0.000326194 0.000325215 0.000324757 0.000325854 0.000325095 0.000325671 0.00032613 0.000325242 0.000324835 0.000325817 0.000325145 0.000325661 0.000326068 0.000325269 0.00032491 0.000325783 0.000325194 0.000325652 0.000326011 0.000325294 0.000324983 0.000325749 0.000325237 0.00032564 0.000325952 0.000325319 0.00032505 0.000325719 0.00032528 0.000325631 0.0003259 0.000325342 0.000325114 0.00032569 0.000325318 0.000325619 0.000325848 0.000325366 0.000325173 0.000325663 0.000325353 0.000325607 0.000325801 0.000325389 0.00032523 0.000325638 0.000325385 0.000325597 0.000325756 0.00032541 0.00032528 0.000325616 0.000325414 0.000325585 0.000325715 0.000325429 0.000325328 0.000325597 0.000325438 0.000325575 0.000325677 0.000325449 0.00032537 0.000325579 0.000325461 0.000325565 0.000325644 0.000325466 0.000325408 0.000325565 0.000325479 0.000325555 0.000325613 0.000325481 0.000325439 0.000325553 0.000325494 0.000325545 0.000325587 0.000325496 0.000325468 0.000325542 0.000325504 0.000325537 0.000325564 0.000325508 0.00032549 0.000325535 0.000325513 0.000325529 0.000325547 0.000325516 0.000325507 0.000325527 0.000325516 0.000325523 0.000325532 0.000325522 0.000325517 0.00032552 0.000325521 0.00032552 0.000325525 0.000325519 0.000325521 0.000325797 0.00032458 0.000324763 0.000324763 0.000326305 0.000325457 0.000325812 0.000323761 0.000324855 0.000325701 0.000324933 0.000323783 0.00032654 0.000324131 0.000325757 0.000326915 0.000324985 0.00032369 0.000326392 0.000324372 0.000325678 0.000326984 0.000325074 0.000323795 0.000326327 0.000324485 0.000325652 0.000326939 0.00032511 0.000323892 0.00032628 0.000324562 0.000325652 0.000326877 0.000325132 0.000323986 0.000326234 0.000324627 0.000325657 0.000326808 0.000325149 0.000324078 0.000326191 0.000324689 0.00032566 0.000326736 0.000325165 0.000324171 0.000326148 0.000324748 0.000325662 0.000326661 0.000325181 0.000324263 0.000326104 0.000324807 0.000325663 0.000326584 0.000325198 0.000324355 0.000326061 0.000324864 0.000325661 0.000326507 0.000325216 0.000324445 0.000326018 0.00032492 0.00032566 0.000326433 0.000325234 0.000324533 0.000325978 0.000324974 0.000325655 0.000326358 0.000325252 0.000324619 0.000325936 0.000325027 0.000325652 0.000326286 0.000325271 0.000324702 0.000325897 0.000325078 0.000325645 0.000326216 0.000325289 0.000324781 0.00032586 0.000325126 0.000325639 0.000326149 0.000325308 0.000324858 0.000325825 0.000325171 0.000325632 0.000326083 0.000325326 0.00032493 0.00032579 0.000325214 0.000325625 0.000326022 0.000325345 0.000324999 0.000325758 0.000325253 0.000325617 0.000325964 0.000325362 0.000325062 0.000325729 0.000325292 0.000325609 0.000325909 0.00032538 0.000325125 0.0003257 0.000325325 0.000325601 0.000325856 0.000325396 0.000325181 0.000325673 0.000325356 0.000325593 0.000325809 0.000325412 0.000325233 0.000325651 0.000325387 0.000325585 0.000325765 0.000325427 0.000325281 0.000325629 0.000325411 0.000325577 0.000325723 0.000325443 0.000325326 0.000325609 0.000325434 0.000325569 0.000325686 0.000325456 0.000325365 0.000325591 0.000325455 0.000325562 0.000325653 0.000325469 0.000325401 0.000325576 0.000325471 0.000325553 0.000325622 0.000325481 0.000325431 0.000325563 0.000325485 0.000325547 0.000325597 0.000325493 0.000325457 0.000325555 0.000325496 0.000325539 0.000325575 0.000325502 0.000325479 0.000325545 0.000325505 0.000325534 0.000325557 0.00032551 0.000325497 0.000325536 0.000325511 0.000325528 0.000325542 0.000325515 0.000325509 0.000325528 0.000325518 0.000325524 0.00032553 0.000325518 0.00032552 0.000326021 0.00032478 0.000325569 0.000325569 0.000325814 0.000325038 0.00032607 0.000324719 0.00032536 0.000326136 0.000325672 0.000324491 0.000325985 0.000324212 0.000325345 0.000326526 0.000324991 0.000323486 0.000326392 0.000324478 0.000325694 0.000327211 0.000325188 0.000323786 0.000326362 0.000324566 0.000325669 0.000327079 0.000325238 0.000323926 0.00032632 0.000324635 0.000325659 0.000326977 0.00032526 0.000324037 0.000326273 0.000324695 0.000325656 0.000326886 0.000325272 0.000324134 0.000326227 0.000324754 0.000325652 0.000326795 0.000325284 0.000324231 0.00032618 0.000324809 0.00032565 0.000326707 0.000325294 0.000324324 0.000326133 0.000324865 0.000325645 0.00032662 0.000325305 0.000324416 0.000326087 0.000324917 0.000325642 0.000326535 0.000325316 0.000324503 0.000326044 0.00032497 0.000325636 0.000326453 0.000325328 0.00032459 0.000325999 0.000325018 0.000325633 0.000326373 0.00032534 0.000324671 0.000325957 0.000325068 0.000325626 0.000326296 0.000325352 0.000324752 0.000325917 0.000325111 0.000325621 0.000326222 0.000325364 0.000324827 0.000325879 0.000325156 0.000325614 0.000326152 0.000325377 0.000324902 0.000325841 0.000325195 0.000325609 0.000326085 0.000325388 0.000324968 0.000325807 0.000325235 0.000325601 0.000326022 0.0003254 0.000325034 0.000325773 0.00032527 0.000325596 0.000325963 0.000325411 0.000325094 0.000325743 0.000325304 0.000325589 0.000325907 0.000325424 0.000325151 0.000325714 0.000325334 0.000325583 0.000325856 0.000325432 0.000325202 0.000325688 0.000325364 0.000325577 0.000325807 0.000325444 0.000325253 0.000325663 0.000325388 0.000325571 0.000325762 0.000325453 0.000325296 0.000325642 0.000325412 0.000325564 0.000325721 0.000325464 0.000325338 0.000325619 0.000325432 0.000325559 0.000325685 0.000325472 0.000325373 0.000325602 0.000325451 0.000325552 0.000325651 0.000325481 0.000325406 0.000325585 0.000325465 0.000325548 0.000325623 0.000325488 0.000325433 0.000325574 0.00032548 0.000325542 0.000325598 0.000325496 0.000325458 0.000325562 0.000325487 0.000325538 0.000325576 0.000325502 0.000325476 0.000325554 0.000325497 0.000325533 0.00032556 0.000325508 0.000325493 0.000325546 0.000325502 0.000325531 0.000325546 0.00032551 0.000325505 0.000325539 0.00032551 0.000325528 0.000325533 0.000325513 0.000325518 0.00032621 0.000324929 0.000326334 0.000326334 0.00032538 0.00032466 0.000326238 0.000324825 0.000325862 0.000326586 0.000325531 0.000324393 0.000326252 0.000324792 0.00032564 0.000326782 0.000325434 0.000323975 0.000326276 0.000324641 0.000325639 0.000327099 0.000325332 0.000323881 0.000326402 0.000324655 0.000325686 0.000327143 0.000325344 0.000324015 0.00032637 0.000324699 0.000325686 0.00032702 0.000325358 0.000324125 0.000326325 0.000324754 0.000325677 0.000326915 0.000325369 0.000324224 0.000326277 0.000324805 0.000325666 0.000326816 0.000325379 0.000324318 0.000326229 0.000324858 0.000325655 0.00032672 0.000325387 0.00032441 0.000326178 0.000324908 0.000325646 0.000326626 0.000325395 0.0003245 0.00032613 0.000324958 0.000325636 0.000326535 0.000325403 0.000324586 0.000326081 0.000325005 0.000325628 0.000326448 0.000325412 0.000324668 0.000326035 0.000325053 0.000325618 0.000326365 0.000325419 0.000324747 0.000325988 0.000325096 0.00032561 0.000326285 0.000325427 0.000324821 0.000325946 0.000325138 0.000325602 0.000326209 0.000325434 0.000324893 0.000325904 0.000325178 0.000325595 0.000326138 0.000325443 0.00032496 0.000325866 0.000325217 0.000325587 0.000326071 0.000325448 0.000325025 0.000325827 0.00032525 0.000325581 0.000326005 0.000325456 0.000325083 0.000325792 0.000325285 0.000325573 0.000325947 0.000325462 0.00032514 0.000325759 0.000325314 0.000325568 0.000325891 0.000325468 0.000325191 0.000325728 0.000325343 0.000325562 0.00032584 0.000325475 0.000325239 0.000325699 0.000325369 0.000325557 0.000325792 0.00032548 0.000325284 0.000325674 0.000325393 0.000325552 0.000325749 0.000325485 0.000325324 0.000325649 0.000325413 0.000325546 0.000325708 0.00032549 0.00032536 0.000325629 0.000325433 0.000325543 0.000325674 0.000325494 0.000325392 0.000325608 0.000325449 0.000325539 0.000325641 0.000325499 0.000325419 0.000325592 0.000325465 0.000325535 0.000325614 0.000325502 0.000325444 0.000325577 0.000325475 0.000325533 0.00032559 0.000325507 0.000325464 0.000325567 0.000325485 0.000325529 0.000325572 0.000325509 0.000325481 0.000325557 0.00032549 0.000325528 0.000325555 0.000325511 0.000325493 0.000325551 0.000325496 0.000325526 0.000325544 0.000325511 0.000325504 0.000325546 0.000325499 0.000325528 0.000325535 0.00032551 0.000325513 0.000326453 0.000325033 0.000327083 0.000327083 0.000324909 0.000324244 0.000326419 0.000324925 0.000326358 0.000327027 0.000325296 0.000324236 0.000326489 0.000324882 0.000325958 0.000327023 0.000325494 0.000324123 0.000326399 0.000324821 0.000325731 0.000327104 0.000325453 0.000324139 0.000326377 0.000324712 0.000325718 0.000327034 0.000325424 0.000324127 0.000326409 0.00032475 0.000325716 0.000327018 0.000325432 0.000324227 0.000326369 0.000324796 0.000325702 0.000326911 0.000325442 0.000324323 0.000326323 0.000324843 0.000325682 0.000326806 0.000325451 0.000324417 0.000326271 0.00032489 0.000325664 0.000326702 0.000325462 0.000324506 0.00032622 0.000324938 0.000325645 0.000326605 0.00032547 0.000324594 0.000326166 0.000324986 0.00032563 0.000326509 0.000325478 0.000324676 0.000326115 0.000325032 0.000325616 0.00032642 0.000325484 0.000324756 0.000326063 0.000325075 0.000325603 0.000326333 0.000325491 0.00032483 0.000326016 0.000325118 0.000325591 0.000326254 0.000325496 0.000324902 0.000325968 0.000325157 0.000325581 0.000326176 0.000325501 0.000324968 0.000325925 0.000325196 0.000325571 0.000326105 0.000325504 0.000325032 0.000325882 0.00032523 0.000325563 0.000326036 0.00032551 0.000325091 0.000325844 0.000325265 0.000325555 0.000325975 0.000325511 0.000325146 0.000325805 0.000325295 0.000325548 0.000325913 0.000325514 0.000325195 0.000325771 0.000325324 0.000325542 0.00032586 0.000325515 0.000325243 0.000325737 0.000325352 0.000325537 0.00032581 0.000325517 0.000325286 0.000325708 0.000325376 0.000325532 0.000325764 0.000325518 0.000325325 0.000325679 0.000325399 0.000325529 0.000325723 0.00032552 0.00032536 0.000325654 0.000325418 0.000325525 0.000325685 0.00032552 0.000325392 0.00032563 0.000325436 0.000325522 0.00032565 0.000325522 0.000325419 0.000325611 0.000325452 0.00032552 0.000325623 0.000325521 0.000325444 0.000325593 0.000325465 0.000325519 0.000325597 0.000325523 0.000325463 0.000325579 0.000325477 0.000325518 0.000325577 0.000325522 0.00032548 0.000325566 0.000325485 0.000325518 0.00032556 0.000325522 0.000325492 0.000325557 0.000325489 0.000325517 0.000325547 0.000325518 0.0003255 0.000325552 0.00032549 0.00032552 0.000325538 0.000325516 0.000325506 0.000325553 0.00032549 0.000325524 0.000325534 0.000325508 0.00032551 0.000326757 0.000325036 0.000327833 0.000327833 0.00032441 0.000323788 0.000326632 0.000324971 0.000326857 0.000327485 0.00032503 0.000324033 0.000326711 0.00032494 0.000326287 0.000327291 0.000325468 0.000324203 0.00032654 0.000324819 0.000325882 0.00032715 0.000325482 0.000324241 0.000326466 0.000324834 0.000325809 0.000327053 0.00032549 0.000324292 0.000326428 0.000324806 0.000325763 0.000326963 0.000325496 0.000324334 0.000326415 0.000324844 0.000325731 0.000326897 0.000325509 0.000324427 0.000326369 0.000324884 0.0003257 0.000326786 0.000325523 0.00032452 0.000326314 0.000324929 0.000325671 0.000326677 0.000325535 0.000324609 0.000326258 0.000324972 0.000325644 0.000326573 0.000325547 0.000324695 0.0003262 0.000325019 0.00032562 0.000326474 0.000325554 0.000324775 0.000326144 0.000325062 0.0003256 0.00032638 0.00032556 0.000324853 0.00032609 0.000325104 0.000325582 0.000326292 0.000325564 0.000324924 0.000326037 0.000325144 0.000325567 0.000326209 0.000325569 0.000324991 0.000325988 0.000325182 0.000325553 0.000326131 0.00032557 0.000325054 0.000325939 0.000325218 0.000325542 0.000326059 0.000325572 0.000325112 0.000325894 0.000325252 0.000325532 0.000325992 0.000325572 0.000325167 0.000325852 0.000325283 0.000325523 0.000325929 0.000325572 0.000325217 0.000325811 0.000325313 0.000325516 0.000325871 0.000325571 0.000325262 0.000325772 0.00032534 0.00032551 0.000325819 0.000325569 0.000325304 0.000325739 0.000325366 0.000325505 0.000325771 0.000325566 0.000325342 0.000325707 0.00032539 0.000325501 0.000325726 0.000325566 0.000325378 0.000325678 0.000325411 0.000325498 0.000325686 0.000325561 0.000325406 0.00032565 0.000325429 0.000325497 0.000325652 0.000325558 0.000325432 0.000325626 0.000325446 0.000325495 0.000325622 0.000325554 0.000325454 0.000325605 0.00032546 0.000325496 0.000325595 0.000325551 0.000325474 0.000325587 0.000325472 0.000325496 0.000325573 0.000325546 0.000325489 0.000325572 0.000325482 0.0003255 0.000325557 0.000325543 0.0003255 0.00032556 0.000325489 0.0003255 0.000325544 0.000325537 0.000325507 0.000325552 0.000325493 0.000325506 0.000325535 0.000325532 0.000325512 0.000325547 0.000325492 0.00032551 0.000325529 0.000325524 0.00032551 0.00032555 0.000325486 0.000325517 0.000325531 0.000325514 0.000325507 0.000327 0.000324953 0.000328515 0.000328515 0.000323886 0.000323292 0.000326863 0.000324956 0.000327347 0.000327949 0.00032473 0.00032378 0.000326929 0.000324948 0.000326632 0.000327591 0.000325367 0.000324215 0.000326701 0.000324795 0.000326086 0.00032724 0.000325448 0.00032429 0.000326592 0.000324851 0.000325945 0.000327106 0.000325504 0.000324378 0.000326525 0.000324878 0.000325851 0.00032698 0.00032554 0.000324464 0.000326471 0.000324885 0.000325783 0.000326862 0.000325567 0.000324542 0.000326426 0.000324923 0.000325726 0.000326755 0.00032559 0.000324637 0.000326364 0.000324966 0.000325681 0.000326637 0.000325608 0.000324727 0.000326301 0.000325009 0.000325642 0.000326526 0.000325622 0.000324813 0.000326237 0.000325053 0.00032561 0.000326421 0.000325632 0.000324892 0.000326176 0.000325094 0.000325583 0.000326324 0.000325638 0.000324967 0.000326116 0.000325135 0.00032556 0.000326233 0.000325642 0.000325035 0.000326059 0.000325174 0.000325541 0.000326149 0.000325643 0.000325098 0.000326004 0.00032521 0.000325524 0.00032607 0.000325645 0.000325155 0.000325952 0.000325245 0.00032551 0.000326 0.000325642 0.000325208 0.000325903 0.000325277 0.000325498 0.000325933 0.000325639 0.000325257 0.000325857 0.000325307 0.00032549 0.000325872 0.000325636 0.000325301 0.000325814 0.000325336 0.000325481 0.000325816 0.000325631 0.000325341 0.000325774 0.000325362 0.000325475 0.000325765 0.000325624 0.000325377 0.000325736 0.000325386 0.00032547 0.000325717 0.00032562 0.00032541 0.000325702 0.000325408 0.000325467 0.000325677 0.000325613 0.000325438 0.000325672 0.000325427 0.000325465 0.00032564 0.000325606 0.000325463 0.000325643 0.000325445 0.000325465 0.000325609 0.000325598 0.000325484 0.000325618 0.000325459 0.000325466 0.00032558 0.00032559 0.0003255 0.000325597 0.000325473 0.000325469 0.000325559 0.000325581 0.000325513 0.000325578 0.000325483 0.000325472 0.00032554 0.000325573 0.000325523 0.000325563 0.000325492 0.000325478 0.000325528 0.000325564 0.00032553 0.000325551 0.000325495 0.000325484 0.000325519 0.000325555 0.000325531 0.000325543 0.000325499 0.000325491 0.000325516 0.000325545 0.000325529 0.000325539 0.000325497 0.000325499 0.000325515 0.000325534 0.000325523 0.000325544 0.000325486 0.000325509 0.000325521 0.00032552 0.000325511 0.000326785 0.0003249 0.000328942 0.000328942 0.000323401 0.000322751 0.000326941 0.000324891 0.000327723 0.000328382 0.000324409 0.000323409 0.000327136 0.000324868 0.000326917 0.000327928 0.000325156 0.000324035 0.000326949 0.00032473 0.000326328 0.000327453 0.000325342 0.000324238 0.000326808 0.00032481 0.000326129 0.000327236 0.000325454 0.000324402 0.000326699 0.000324867 0.000325986 0.000327042 0.000325539 0.000324539 0.000326605 0.000324915 0.00032587 0.000326873 0.000325601 0.000324657 0.000326519 0.000324952 0.000325775 0.000326721 0.00032565 0.00032476 0.00032644 0.000324998 0.000325696 0.000326588 0.000325679 0.000324859 0.000326362 0.000325042 0.000325641 0.000326463 0.0003257 0.000324949 0.000326285 0.000325087 0.000325596 0.00032635 0.000325712 0.000325028 0.000326212 0.000325129 0.000325562 0.000326248 0.000325722 0.000325099 0.000326144 0.000325169 0.000325532 0.000326155 0.000325724 0.000325163 0.00032608 0.000325207 0.000325509 0.000326071 0.000325725 0.000325221 0.000326018 0.000325243 0.00032549 0.000325994 0.000325722 0.000325272 0.000325962 0.000325275 0.000325474 0.000325924 0.000325717 0.00032532 0.000325908 0.000325306 0.000325461 0.000325859 0.000325711 0.00032536 0.000325858 0.000325337 0.000325451 0.000325802 0.000325704 0.000325399 0.000325811 0.000325363 0.000325442 0.000325747 0.000325696 0.000325432 0.000325769 0.000325388 0.000325436 0.0003257 0.000325687 0.000325463 0.000325728 0.00032541 0.000325432 0.000325656 0.000325676 0.000325488 0.000325692 0.000325431 0.00032543 0.000325618 0.000325667 0.000325511 0.000325659 0.000325449 0.000325429 0.000325584 0.000325656 0.000325528 0.000325629 0.000325465 0.00032543 0.000325557 0.000325644 0.000325543 0.000325602 0.000325479 0.000325432 0.000325533 0.000325631 0.000325554 0.000325579 0.000325491 0.000325438 0.000325515 0.000325619 0.00032556 0.00032556 0.0003255 0.000325443 0.000325502 0.000325606 0.000325563 0.000325546 0.000325507 0.00032545 0.000325493 0.000325592 0.000325564 0.000325533 0.00032551 0.000325461 0.000325489 0.000325577 0.000325559 0.000325528 0.000325512 0.000325473 0.000325491 0.000325563 0.000325551 0.000325525 0.000325508 0.000325485 0.000325497 0.000325548 0.000325538 0.000325531 0.000325497 0.000325498 0.000325509 0.000325531 0.000325521 0.0003255 0.00032257 0.0003236 0.0003236 0.000325329 0.000324438 0.000326763 0.00032369 0.000325478 0.000326377 0.000325125 0.000324089 0.000326446 0.000324125 0.000325527 0.000326571 0.000325025 0.00032397 0.000326296 0.000324336 0.000325595 0.000326659 0.000324982 0.000323937 0.000326231 0.000324452 0.000325642 0.000326695 0.000324976 0.000323955 0.000326194 0.000324524 0.000325666 0.000326693 0.000324983 0.000324001 0.000326164 0.000324583 0.000325683 0.00032667 0.000324997 0.000324063 0.000326134 0.000324641 0.000325694 0.000326633 0.000325015 0.000324137 0.0003261 0.000324698 0.000325701 0.000326584 0.000325036 0.000324216 0.000326067 0.000324756 0.000325704 0.000326528 0.00032506 0.000324301 0.000326031 0.000324814 0.000325704 0.000326466 0.000325086 0.000324389 0.000325994 0.000324873 0.000325702 0.000326402 0.000325113 0.000324476 0.000325955 0.000324931 0.000325698 0.000326337 0.000325141 0.000324561 0.000325917 0.000324988 0.000325691 0.000326272 0.000325169 0.000324646 0.00032588 0.000325043 0.000325683 0.000326208 0.000325198 0.00032473 0.000325845 0.000325096 0.000325675 0.000326144 0.000325226 0.00032481 0.000325808 0.000325145 0.000325665 0.000326081 0.000325253 0.000324886 0.000325776 0.000325193 0.000325654 0.000326022 0.000325281 0.00032496 0.000325744 0.000325236 0.000325643 0.000325965 0.000325307 0.000325029 0.000325715 0.000325279 0.000325633 0.000325911 0.000325333 0.000325096 0.000325687 0.000325316 0.000325622 0.000325859 0.000325357 0.000325157 0.000325661 0.000325353 0.00032561 0.000325811 0.000325381 0.000325214 0.000325637 0.000325384 0.000325598 0.000325766 0.000325403 0.000325266 0.000325616 0.000325413 0.000325587 0.000325725 0.000325425 0.000325315 0.000325596 0.000325438 0.000325576 0.000325686 0.000325445 0.000325358 0.00032558 0.000325461 0.000325565 0.000325652 0.000325463 0.000325397 0.000325565 0.000325479 0.000325555 0.000325621 0.000325479 0.00032543 0.000325553 0.000325493 0.000325545 0.000325594 0.000325494 0.00032546 0.000325543 0.000325504 0.000325536 0.00032557 0.000325508 0.000325483 0.000325536 0.000325514 0.000325528 0.000325553 0.000325517 0.000325502 0.000325529 0.000325516 0.000325521 0.000325537 0.000325523 0.000325514 0.000325524 0.000325519 0.000325518 0.000325528 0.000325524 0.00032552 0.000325772 0.000324497 0.000324564 0.000324564 0.000326401 0.000325589 0.000325777 0.000323643 0.000324742 0.000325551 0.000324921 0.000323836 0.000326576 0.000324061 0.000325728 0.000326821 0.000324976 0.000323793 0.000326411 0.000324309 0.000325705 0.000326897 0.000325007 0.000323803 0.000326321 0.000324461 0.000325691 0.000326903 0.000325047 0.000323871 0.000326263 0.00032455 0.00032568 0.000326864 0.000325076 0.000323952 0.000326218 0.000324619 0.000325677 0.000326807 0.000325099 0.000324041 0.000326176 0.000324682 0.000325677 0.00032674 0.00032512 0.000324133 0.000326135 0.000324741 0.000325676 0.000326668 0.000325139 0.000324226 0.000326095 0.000324798 0.000325676 0.000326594 0.00032516 0.00032432 0.000326053 0.000324855 0.000325674 0.000326518 0.000325181 0.000324412 0.000326013 0.000324912 0.000325672 0.000326443 0.000325203 0.000324502 0.000325972 0.000324966 0.000325666 0.000326369 0.000325223 0.00032459 0.000325932 0.000325019 0.000325662 0.000326297 0.000325246 0.000324675 0.000325894 0.00032507 0.000325653 0.000326226 0.000325266 0.000324757 0.000325859 0.000325119 0.000325648 0.000326158 0.000325289 0.000324836 0.000325823 0.000325164 0.000325639 0.000326093 0.000325307 0.000324911 0.000325789 0.000325207 0.000325634 0.000326031 0.000325329 0.000324981 0.000325758 0.000325248 0.000325624 0.000325972 0.000325348 0.000325048 0.000325729 0.000325286 0.000325616 0.000325917 0.000325369 0.000325112 0.0003257 0.000325321 0.000325606 0.000325863 0.000325386 0.00032517 0.000325675 0.000325353 0.000325599 0.000325816 0.000325404 0.000325223 0.000325651 0.000325382 0.00032559 0.000325771 0.000325421 0.000325273 0.00032563 0.000325409 0.000325581 0.000325729 0.000325438 0.000325318 0.000325611 0.000325431 0.000325571 0.000325691 0.000325452 0.000325359 0.000325593 0.000325452 0.000325564 0.000325657 0.000325467 0.000325396 0.000325578 0.000325469 0.000325555 0.000325626 0.000325478 0.000325427 0.000325566 0.000325482 0.000325549 0.0003256 0.00032549 0.000325454 0.000325556 0.000325494 0.00032554 0.000325577 0.000325501 0.000325477 0.000325548 0.000325503 0.000325535 0.000325559 0.00032551 0.000325496 0.000325541 0.000325508 0.000325529 0.000325543 0.000325516 0.00032551 0.000325534 0.000325514 0.000325525 0.000325531 0.00032552 0.000325521 0.000325966 0.000324708 0.000325365 0.000325365 0.000325915 0.000325177 0.000326004 0.000324666 0.000325251 0.000325989 0.000325698 0.000324586 0.000326011 0.000324148 0.000325289 0.000326403 0.00032499 0.0003237 0.000326455 0.000324367 0.000325762 0.000327061 0.000325069 0.000323727 0.000326356 0.000324521 0.000325701 0.000327052 0.000325148 0.000323848 0.0003263 0.000324608 0.00032567 0.000326978 0.000325189 0.000323962 0.000326251 0.000324674 0.00032566 0.000326894 0.000325214 0.000324065 0.000326206 0.000324736 0.000325653 0.000326807 0.000325233 0.000324168 0.000326162 0.000324792 0.000325649 0.000326719 0.000325249 0.000324267 0.000326116 0.000324848 0.000325646 0.000326632 0.000325265 0.000324364 0.000326073 0.000324902 0.000325642 0.000326546 0.00032528 0.000324458 0.000326029 0.000324955 0.000325639 0.000326464 0.000325295 0.000324549 0.000325988 0.000325004 0.000325633 0.000326382 0.00032531 0.000324635 0.000325946 0.000325054 0.000325629 0.000326306 0.000325325 0.000324719 0.000325907 0.000325099 0.000325624 0.000326232 0.000325339 0.000324797 0.000325869 0.000325145 0.000325618 0.000326161 0.000325356 0.000324874 0.000325834 0.000325186 0.000325611 0.000326094 0.00032537 0.000324944 0.0003258 0.000325229 0.000325604 0.000326031 0.000325383 0.000325013 0.000325768 0.000325263 0.000325598 0.000325969 0.000325397 0.000325076 0.000325737 0.000325298 0.000325592 0.000325913 0.000325411 0.000325134 0.00032571 0.000325329 0.000325584 0.000325861 0.000325423 0.000325189 0.000325683 0.00032536 0.000325579 0.000325813 0.000325435 0.00032524 0.000325661 0.000325385 0.000325573 0.000325768 0.000325446 0.000325286 0.000325639 0.000325409 0.000325567 0.000325727 0.000325458 0.000325329 0.000325619 0.00032543 0.000325561 0.00032569 0.000325469 0.000325366 0.000325601 0.00032545 0.000325554 0.000325657 0.000325478 0.0003254 0.000325588 0.000325464 0.000325549 0.000325627 0.000325487 0.00032543 0.000325572 0.000325478 0.000325543 0.000325601 0.000325495 0.000325454 0.000325564 0.000325487 0.000325537 0.000325579 0.000325502 0.000325474 0.000325555 0.000325496 0.000325534 0.000325562 0.000325509 0.000325492 0.000325549 0.0003255 0.00032553 0.000325547 0.000325513 0.000325505 0.000325542 0.000325507 0.000325527 0.000325535 0.000325515 0.000325518 0.00032617 0.000324884 0.000326116 0.000326116 0.000325483 0.000324766 0.000326186 0.000324793 0.000325728 0.000326447 0.000325542 0.000324427 0.000326171 0.000324775 0.000325558 0.000326677 0.000325494 0.000324184 0.000326138 0.000324461 0.000325519 0.000326833 0.000325151 0.000323687 0.000326373 0.000324614 0.000325699 0.000327173 0.000325267 0.000323891 0.00032634 0.000324681 0.000325673 0.000327056 0.000325308 0.000324023 0.000326294 0.00032474 0.000325658 0.000326949 0.000325329 0.000324138 0.000326249 0.000324792 0.000325649 0.000326845 0.000325343 0.000324242 0.000326203 0.000324844 0.000325639 0.000326744 0.000325355 0.000324344 0.000326155 0.000324897 0.000325633 0.000326648 0.000325366 0.000324439 0.000326106 0.000324946 0.000325625 0.000326554 0.000325375 0.000324532 0.000326059 0.000324996 0.000325619 0.000326466 0.000325386 0.000324618 0.000326014 0.000325042 0.00032561 0.00032638 0.000325396 0.000324704 0.00032597 0.000325089 0.000325606 0.0003263 0.000325405 0.000324783 0.000325929 0.00032513 0.000325598 0.000326222 0.000325413 0.000324859 0.000325889 0.000325172 0.000325594 0.000326149 0.000325423 0.00032493 0.000325851 0.000325209 0.000325586 0.00032608 0.000325431 0.000324998 0.000325815 0.000325245 0.000325582 0.000326016 0.000325441 0.000325061 0.000325782 0.000325278 0.000325574 0.000325955 0.000325448 0.000325121 0.00032575 0.000325311 0.00032557 0.000325898 0.000325456 0.000325174 0.000325722 0.000325337 0.000325564 0.000325846 0.000325464 0.000325225 0.000325694 0.000325366 0.000325559 0.000325798 0.00032547 0.000325271 0.000325669 0.000325389 0.000325554 0.000325754 0.000325477 0.000325313 0.000325646 0.000325412 0.00032555 0.000325714 0.000325484 0.000325351 0.000325627 0.00032543 0.000325545 0.000325678 0.000325489 0.000325387 0.000325608 0.000325447 0.000325542 0.000325645 0.000325494 0.000325416 0.000325592 0.000325461 0.000325538 0.000325617 0.0003255 0.000325443 0.000325578 0.000325475 0.000325536 0.000325593 0.000325504 0.000325464 0.000325568 0.000325481 0.000325531 0.000325571 0.000325508 0.000325481 0.000325559 0.00032549 0.00032553 0.000325556 0.000325511 0.000325494 0.000325554 0.000325492 0.000325527 0.000325544 0.000325511 0.000325506 0.000325551 0.000325496 0.000325529 0.000325535 0.000325511 0.000325514 0.00032641 0.000324994 0.000326871 0.000326871 0.000325046 0.000324364 0.000326367 0.000324892 0.000326221 0.000326907 0.000325348 0.000324268 0.000326326 0.000324867 0.000325875 0.00032696 0.000325477 0.000324188 0.000326319 0.000324839 0.000325699 0.000326993 0.00032546 0.00032404 0.000326324 0.000324728 0.000325666 0.00032709 0.000325397 0.000324007 0.000326393 0.000324751 0.000325686 0.000327081 0.000325415 0.00032413 0.00032635 0.000324794 0.000325675 0.000326964 0.000325427 0.00032424 0.000326306 0.000324841 0.000325657 0.000326849 0.00032544 0.000324346 0.000326253 0.000324888 0.000325644 0.000326741 0.000325451 0.000324443 0.000326202 0.000324938 0.000325629 0.00032664 0.000325459 0.000324538 0.000326147 0.000324985 0.000325617 0.000326541 0.000325465 0.000324625 0.000326098 0.000325033 0.000325605 0.000326447 0.000325471 0.000324711 0.000326046 0.000325075 0.000325596 0.000326358 0.000325479 0.000324789 0.000326 0.00032512 0.000325585 0.000326276 0.000325484 0.000324866 0.000325953 0.000325158 0.000325577 0.000326197 0.000325489 0.000324935 0.000325911 0.000325198 0.000325568 0.000326123 0.000325493 0.000325003 0.000325869 0.000325232 0.000325563 0.000326053 0.000325498 0.000325064 0.000325832 0.000325268 0.000325554 0.000325989 0.000325501 0.000325123 0.000325793 0.000325297 0.00032555 0.000325929 0.000325505 0.000325175 0.000325762 0.000325327 0.000325542 0.000325873 0.000325507 0.000325226 0.000325728 0.000325352 0.000325539 0.000325821 0.00032551 0.00032527 0.000325701 0.000325377 0.000325534 0.000325774 0.000325512 0.000325312 0.000325672 0.0003254 0.000325532 0.000325732 0.000325514 0.000325348 0.00032565 0.00032542 0.000325527 0.000325693 0.000325516 0.000325383 0.000325626 0.000325436 0.000325525 0.000325658 0.000325518 0.000325412 0.000325609 0.000325452 0.000325522 0.000325627 0.000325518 0.000325438 0.00032559 0.000325466 0.000325522 0.000325602 0.000325519 0.000325458 0.000325577 0.000325477 0.000325519 0.00032558 0.00032552 0.000325477 0.000325564 0.000325484 0.00032552 0.000325562 0.000325521 0.00032549 0.000325557 0.000325489 0.000325518 0.000325549 0.000325519 0.000325499 0.000325552 0.000325489 0.000325521 0.000325541 0.000325516 0.000325504 0.000325555 0.00032549 0.000325523 0.000325536 0.000325511 0.000325511 0.000326705 0.000325012 0.000327633 0.000327633 0.000324554 0.000323917 0.000326574 0.000324942 0.000326726 0.000327369 0.000325086 0.000324067 0.000326494 0.000324922 0.000326212 0.000327239 0.00032537 0.000324148 0.000326506 0.000324901 0.00032592 0.000327148 0.00032552 0.000324178 0.000326442 0.000324858 0.00032575 0.000327095 0.000325513 0.000324227 0.00032641 0.000324794 0.000325712 0.000327001 0.000325498 0.000324257 0.000326412 0.000324832 0.000325697 0.000326942 0.000325505 0.000324362 0.000326363 0.000324872 0.000325675 0.000326822 0.000325519 0.000324464 0.000326306 0.00032492 0.000325651 0.00032671 0.000325527 0.000324559 0.00032625 0.000324965 0.000325629 0.0003266 0.000325537 0.000324651 0.00032619 0.000325013 0.00032561 0.000326498 0.000325541 0.000324736 0.000326135 0.000325057 0.000325594 0.000326401 0.000325548 0.000324817 0.000326079 0.000325101 0.000325579 0.000326312 0.00032555 0.000324893 0.000326026 0.000325141 0.000325567 0.000326226 0.000325555 0.000324963 0.000325977 0.000325181 0.000325554 0.000326148 0.000325556 0.000325028 0.00032593 0.000325216 0.000325545 0.000326074 0.000325559 0.000325089 0.000325885 0.000325252 0.000325535 0.000326006 0.000325558 0.000325146 0.000325844 0.000325283 0.000325528 0.000325941 0.00032556 0.000325198 0.000325804 0.000325314 0.00032552 0.000325883 0.000325557 0.000325247 0.000325767 0.000325339 0.000325516 0.000325827 0.000325558 0.000325289 0.000325734 0.000325367 0.00032551 0.00032578 0.000325556 0.00032533 0.000325702 0.000325389 0.000325507 0.000325733 0.000325556 0.000325366 0.000325673 0.000325411 0.000325504 0.000325694 0.000325551 0.000325398 0.000325647 0.000325428 0.000325503 0.000325656 0.000325551 0.000325424 0.000325625 0.000325445 0.0003255 0.000325627 0.000325546 0.00032545 0.000325605 0.000325458 0.000325502 0.000325599 0.000325545 0.000325469 0.000325587 0.000325472 0.000325501 0.000325578 0.00032554 0.000325486 0.000325573 0.00032548 0.000325503 0.000325557 0.000325538 0.000325498 0.000325562 0.000325487 0.000325504 0.000325544 0.000325532 0.000325507 0.000325554 0.000325491 0.000325509 0.000325534 0.00032553 0.000325512 0.000325549 0.00032549 0.000325511 0.000325529 0.000325521 0.000325511 0.000325554 0.000325484 0.000325518 0.000325528 0.000325516 0.000325509 0.000326962 0.000324938 0.000328357 0.000328357 0.000324017 0.000323417 0.000326796 0.000324933 0.000327241 0.000327848 0.000324781 0.000323813 0.000326698 0.000324931 0.000326569 0.000327546 0.000325211 0.000324061 0.000326707 0.000324914 0.000326169 0.000327326 0.000325498 0.000324265 0.000326598 0.000324853 0.000325895 0.000327131 0.000325542 0.000324346 0.000326528 0.000324869 0.0003258 0.000326998 0.000325564 0.000324428 0.000326472 0.000324867 0.00032574 0.000326879 0.000325579 0.000324498 0.000326428 0.000324909 0.000325694 0.000326778 0.000325594 0.000324599 0.000326361 0.000324954 0.000325657 0.000326656 0.000325606 0.000324691 0.000326297 0.000324998 0.000325624 0.000326542 0.000325617 0.000324782 0.00032623 0.000325045 0.000325598 0.000326435 0.000325624 0.000324863 0.000326169 0.00032509 0.000325574 0.000326337 0.000325629 0.00032494 0.000326106 0.000325131 0.000325555 0.000326246 0.000325631 0.000325009 0.000326049 0.000325173 0.000325538 0.000326162 0.000325632 0.000325074 0.000325992 0.000325209 0.000325525 0.000326083 0.000325631 0.000325132 0.000325942 0.000325245 0.000325512 0.000326012 0.000325629 0.000325187 0.000325893 0.000325277 0.000325502 0.000325944 0.000325627 0.000325237 0.000325849 0.000325308 0.000325492 0.000325882 0.000325623 0.000325284 0.000325806 0.000325336 0.000325485 0.000325825 0.00032562 0.000325326 0.000325767 0.000325364 0.00032548 0.000325774 0.000325615 0.000325364 0.000325729 0.000325386 0.000325475 0.000325726 0.00032561 0.000325397 0.000325697 0.000325409 0.000325472 0.000325684 0.000325604 0.000325427 0.000325666 0.000325429 0.000325471 0.000325648 0.000325598 0.000325452 0.000325639 0.000325447 0.00032547 0.000325615 0.00032559 0.000325476 0.000325613 0.00032546 0.000325471 0.000325586 0.000325585 0.000325492 0.000325594 0.000325474 0.000325472 0.000325564 0.000325577 0.000325507 0.000325576 0.000325484 0.000325476 0.000325545 0.000325569 0.000325518 0.000325562 0.000325491 0.00032548 0.000325531 0.000325561 0.000325525 0.00032555 0.000325496 0.000325486 0.000325522 0.000325553 0.000325527 0.000325544 0.000325499 0.000325491 0.000325517 0.000325545 0.000325528 0.000325539 0.000325497 0.0003255 0.000325517 0.000325535 0.000325521 0.000325545 0.000325487 0.000325507 0.00032552 0.000325523 0.00032551 0.000326852 0.000324855 0.000328858 0.000328858 0.000323476 0.000322835 0.00032692 0.000324858 0.000327676 0.000328327 0.000324417 0.000323445 0.000326932 0.000324859 0.000326925 0.000327908 0.000324985 0.000323881 0.000326966 0.000324846 0.000326443 0.000327558 0.000325378 0.000324245 0.000326833 0.000324798 0.000326097 0.000327235 0.000325498 0.000324409 0.000326715 0.000324847 0.000325943 0.000327036 0.000325572 0.000324543 0.000326612 0.000324893 0.000325831 0.000326864 0.000325623 0.000324655 0.00032652 0.00032493 0.000325743 0.000326713 0.000325661 0.000324753 0.000326439 0.000324981 0.000325672 0.000326583 0.000325682 0.000324849 0.000326357 0.000325028 0.000325623 0.000326458 0.000325699 0.000324937 0.000326278 0.000325076 0.000325584 0.000326347 0.000325707 0.000325015 0.000326205 0.00032512 0.000325554 0.000326246 0.000325713 0.000325086 0.000326135 0.000325163 0.000325527 0.000326156 0.000325713 0.000325149 0.000326071 0.000325203 0.000325508 0.000326073 0.000325713 0.000325207 0.000326009 0.00032524 0.000325491 0.000325997 0.000325706 0.000325257 0.000325953 0.000325273 0.000325477 0.000325927 0.000325703 0.000325305 0.000325901 0.000325305 0.000325465 0.000325863 0.000325696 0.000325348 0.000325852 0.000325334 0.000325455 0.000325804 0.000325691 0.000325386 0.000325805 0.000325361 0.000325447 0.000325752 0.000325682 0.000325421 0.000325763 0.000325387 0.000325442 0.000325704 0.000325674 0.000325452 0.000325723 0.00032541 0.000325438 0.00032566 0.000325664 0.000325477 0.000325688 0.000325431 0.000325436 0.000325622 0.000325656 0.000325501 0.000325655 0.00032545 0.000325434 0.000325588 0.000325645 0.00032552 0.000325628 0.000325465 0.000325434 0.00032556 0.000325635 0.000325536 0.000325601 0.00032548 0.000325438 0.000325537 0.000325622 0.000325547 0.000325579 0.000325491 0.000325442 0.000325517 0.000325612 0.000325556 0.000325561 0.000325499 0.000325447 0.000325504 0.000325599 0.000325559 0.000325546 0.000325506 0.000325454 0.000325495 0.000325588 0.00032556 0.000325535 0.000325509 0.000325463 0.000325491 0.000325573 0.000325556 0.000325528 0.000325509 0.000325475 0.000325492 0.000325562 0.000325548 0.000325527 0.000325507 0.000325486 0.000325499 0.000325546 0.000325537 0.000325533 0.000325495 0.000325499 0.000325508 0.000325533 0.000325521 0.000325536 0.000322347 0.000323406 0.000323406 0.000325377 0.0003245 0.000326824 0.000323642 0.000325452 0.000326332 0.000325145 0.000324133 0.000326451 0.000324108 0.000325498 0.000326518 0.000325038 0.000324005 0.000326282 0.000324326 0.00032557 0.00032661 0.000324984 0.000323961 0.000326201 0.000324442 0.000325627 0.000326657 0.000324961 0.000323961 0.000326161 0.00032452 0.000325662 0.000326668 0.000324961 0.000323995 0.000326133 0.00032458 0.000325683 0.000326654 0.000324971 0.00032405 0.000326106 0.000324637 0.000325697 0.000326623 0.000324988 0.000324118 0.000326078 0.000324694 0.000325704 0.000326579 0.000325009 0.000324195 0.000326047 0.000324752 0.00032571 0.000326528 0.000325033 0.000324278 0.000326013 0.00032481 0.00032571 0.000326468 0.000325059 0.000324364 0.000325979 0.000324869 0.000325709 0.000326407 0.000325087 0.000324452 0.000325942 0.000324927 0.000325705 0.000326343 0.000325117 0.000324538 0.000325906 0.000324985 0.000325699 0.00032628 0.000325145 0.000324624 0.00032587 0.00032504 0.000325692 0.000326215 0.000325174 0.000324707 0.000325836 0.000325093 0.000325684 0.000326153 0.000325205 0.000324789 0.000325802 0.000325143 0.000325673 0.00032609 0.000325234 0.000324866 0.00032577 0.000325191 0.000325662 0.000326031 0.000325262 0.000324942 0.00032574 0.000325235 0.000325652 0.000325973 0.00032529 0.000325012 0.000325711 0.000325278 0.000325641 0.00032592 0.000325317 0.000325079 0.000325685 0.000325316 0.000325629 0.000325867 0.000325343 0.000325142 0.000325659 0.000325352 0.000325618 0.000325819 0.000325368 0.000325201 0.000325635 0.000325383 0.000325605 0.000325772 0.000325392 0.000325254 0.000325616 0.000325411 0.000325593 0.000325731 0.000325415 0.000325304 0.000325596 0.000325438 0.000325582 0.000325693 0.000325436 0.000325348 0.000325579 0.000325461 0.00032557 0.000325658 0.000325454 0.000325388 0.000325565 0.000325478 0.00032556 0.000325625 0.000325473 0.000325423 0.000325554 0.000325494 0.000325549 0.000325598 0.000325488 0.000325453 0.000325544 0.000325505 0.00032554 0.000325575 0.000325502 0.000325478 0.000325538 0.000325513 0.000325532 0.000325556 0.000325514 0.000325499 0.000325533 0.000325515 0.000325524 0.000325539 0.000325523 0.000325512 0.000325529 0.000325517 0.000325519 0.000325529 0.000325525 0.00032552 0.000325785 0.000324367 0.000324388 0.000324388 0.000326503 0.000325718 0.000325783 0.00032353 0.00032464 0.000325423 0.000324895 0.000323873 0.000326604 0.000324014 0.000325722 0.000326751 0.000324962 0.000323846 0.000326423 0.000324278 0.000325704 0.000326829 0.000324987 0.000323838 0.000326311 0.000324436 0.000325697 0.000326853 0.000325008 0.000323873 0.000326248 0.000324538 0.000325694 0.000326836 0.000325035 0.000323938 0.000326201 0.00032461 0.00032569 0.000326793 0.000325059 0.000324018 0.000326161 0.000324673 0.000325689 0.000326736 0.000325081 0.000324106 0.000326122 0.000324731 0.000325687 0.000326668 0.000325104 0.000324197 0.000326083 0.00032479 0.000325687 0.000326598 0.000325126 0.00032429 0.000326043 0.000324847 0.000325684 0.000326524 0.00032515 0.000324383 0.000326003 0.000324904 0.000325682 0.000326451 0.000325173 0.000324474 0.000325964 0.000324959 0.000325676 0.000326378 0.000325196 0.000324564 0.000325925 0.000325013 0.000325672 0.000326306 0.00032522 0.00032465 0.000325888 0.000325064 0.000325664 0.000326236 0.000325243 0.000324733 0.000325852 0.000325114 0.000325658 0.000326169 0.000325266 0.000324813 0.000325817 0.00032516 0.000325649 0.000326103 0.000325289 0.000324889 0.000325784 0.000325204 0.000325641 0.000326041 0.000325312 0.000324961 0.000325754 0.000325246 0.000325631 0.000325982 0.000325334 0.000325031 0.000325724 0.000325283 0.000325622 0.000325926 0.000325353 0.000325094 0.000325697 0.000325319 0.000325614 0.000325873 0.000325375 0.000325154 0.000325671 0.000325352 0.000325604 0.000325825 0.000325393 0.000325209 0.000325649 0.000325382 0.000325594 0.000325779 0.000325412 0.00032526 0.000325626 0.000325408 0.000325585 0.000325737 0.000325431 0.000325307 0.000325608 0.000325432 0.000325574 0.000325699 0.000325446 0.000325348 0.000325591 0.000325453 0.000325567 0.000325665 0.000325461 0.000325386 0.000325577 0.00032547 0.000325558 0.000325633 0.000325476 0.00032542 0.000325565 0.000325484 0.00032555 0.000325606 0.000325489 0.000325447 0.000325554 0.000325496 0.000325541 0.000325583 0.000325499 0.000325471 0.000325547 0.000325504 0.000325536 0.000325564 0.00032551 0.00032549 0.000325542 0.000325509 0.000325528 0.000325548 0.000325519 0.000325507 0.000325536 0.000325513 0.000325523 0.000325534 0.000325523 0.000325519 0.000325957 0.000324613 0.000325184 0.000325184 0.000326011 0.000325299 0.00032599 0.000324589 0.000325145 0.000325857 0.000325731 0.000324666 0.000325999 0.000324076 0.000325231 0.000326298 0.000324953 0.000323746 0.000326471 0.000324315 0.000325762 0.000326978 0.000325031 0.000323782 0.000326371 0.00032447 0.000325729 0.000326986 0.000325082 0.000323845 0.000326304 0.000324577 0.000325703 0.000326948 0.000325128 0.000323938 0.00032625 0.00032465 0.000325683 0.00032688 0.00032516 0.000324035 0.000326204 0.000324714 0.000325673 0.000326804 0.000325184 0.000324136 0.000326159 0.000324772 0.000325666 0.000326719 0.000325205 0.000324235 0.000326115 0.000324829 0.000325662 0.000326636 0.000325223 0.000324333 0.000326071 0.000324884 0.000325657 0.000326551 0.000325242 0.000324428 0.000326027 0.000324939 0.000325653 0.00032647 0.000325259 0.00032452 0.000325986 0.00032499 0.000325648 0.000326389 0.000325278 0.000324609 0.000325944 0.000325041 0.000325643 0.000326313 0.000325295 0.000324693 0.000325906 0.000325089 0.000325636 0.000326239 0.000325313 0.000324775 0.000325869 0.000325135 0.00032563 0.000326169 0.000325329 0.000324853 0.000325833 0.000325178 0.000325623 0.000326099 0.000325346 0.000324926 0.000325797 0.000325219 0.000325617 0.000326038 0.000325362 0.000324996 0.000325766 0.000325256 0.000325609 0.000325976 0.000325379 0.000325061 0.000325736 0.000325291 0.000325602 0.000325921 0.000325394 0.000325121 0.000325708 0.000325325 0.000325595 0.000325868 0.000325408 0.000325176 0.000325682 0.000325355 0.000325588 0.00032582 0.000325421 0.000325229 0.000325659 0.000325381 0.000325581 0.000325773 0.000325436 0.000325277 0.000325637 0.000325406 0.000325574 0.000325733 0.000325448 0.000325319 0.00032562 0.000325427 0.000325567 0.000325695 0.000325461 0.000325359 0.000325601 0.000325447 0.00032556 0.000325662 0.000325472 0.000325393 0.000325587 0.000325464 0.000325552 0.000325631 0.000325483 0.000325425 0.000325574 0.000325477 0.000325547 0.000325606 0.000325492 0.000325451 0.000325563 0.000325487 0.00032554 0.000325581 0.0003255 0.000325472 0.000325556 0.000325496 0.000325535 0.000325564 0.000325507 0.00032549 0.000325551 0.0003255 0.000325532 0.000325548 0.000325514 0.000325505 0.000325547 0.000325504 0.000325527 0.000325536 0.000325517 0.000325519 0.000326117 0.000324812 0.000325917 0.000325917 0.000325584 0.000324884 0.000326143 0.00032473 0.00032561 0.000326311 0.000325573 0.00032449 0.000326128 0.000324719 0.00032549 0.000326576 0.000325486 0.000324229 0.000326145 0.000324408 0.000325486 0.000326747 0.000325114 0.000323777 0.000326401 0.000324539 0.000325735 0.000327079 0.000325179 0.000323848 0.000326338 0.00032464 0.00032569 0.000327029 0.000325238 0.000323968 0.000326288 0.000324705 0.000325664 0.000326941 0.00032527 0.000324083 0.000326241 0.000324763 0.000325652 0.000326844 0.000325292 0.000324191 0.000326193 0.000324819 0.000325641 0.000326747 0.00032531 0.000324296 0.000326144 0.000324873 0.000325635 0.000326652 0.000325325 0.000324396 0.000326098 0.000324925 0.000325628 0.00032656 0.000325337 0.000324491 0.000326051 0.000324977 0.000325623 0.000326472 0.00032535 0.000324583 0.000326006 0.000325026 0.000325617 0.000326386 0.000325363 0.00032467 0.000325962 0.000325074 0.000325612 0.000326307 0.000325374 0.000324752 0.000325921 0.000325118 0.000325605 0.000326229 0.000325387 0.00032483 0.000325882 0.00032516 0.0003256 0.000326158 0.000325399 0.000324905 0.000325844 0.000325201 0.000325593 0.000326088 0.00032541 0.000324974 0.000325808 0.000325239 0.000325587 0.000326024 0.000325419 0.000325039 0.000325775 0.000325273 0.000325582 0.000325963 0.00032543 0.000325099 0.000325744 0.000325306 0.000325576 0.000325907 0.00032544 0.000325157 0.000325716 0.000325336 0.000325571 0.000325854 0.000325449 0.000325208 0.000325689 0.000325363 0.000325565 0.000325807 0.000325458 0.000325257 0.000325665 0.000325388 0.00032556 0.000325761 0.000325466 0.000325301 0.000325643 0.000325411 0.000325556 0.000325721 0.000325474 0.00032534 0.000325623 0.00032543 0.000325551 0.000325684 0.000325482 0.000325376 0.000325605 0.000325448 0.000325546 0.000325653 0.000325488 0.000325408 0.00032559 0.000325461 0.000325542 0.000325623 0.000325496 0.000325434 0.000325577 0.000325475 0.000325538 0.0003256 0.000325502 0.000325459 0.000325567 0.000325484 0.000325533 0.000325576 0.000325507 0.000325477 0.000325558 0.000325491 0.000325531 0.000325561 0.000325511 0.000325492 0.000325555 0.000325495 0.000325528 0.000325548 0.000325514 0.000325503 0.000325551 0.000325495 0.000325527 0.000325538 0.000325515 0.000325513 0.000326336 0.000324963 0.000326659 0.000326659 0.000325163 0.000324462 0.000326308 0.000324859 0.000326076 0.000326781 0.00032539 0.000324296 0.000326271 0.000324833 0.00032578 0.000326878 0.00032547 0.000324181 0.000326258 0.00032481 0.000325639 0.000326933 0.000325468 0.000324108 0.000326248 0.000324628 0.000325595 0.00032696 0.000325291 0.000323891 0.000326373 0.000324714 0.000325685 0.000327093 0.000325359 0.000324047 0.000326336 0.000324767 0.000325662 0.00032698 0.000325389 0.000324169 0.00032629 0.000324817 0.000325644 0.000326868 0.000325404 0.000324285 0.000326238 0.000324867 0.000325634 0.000326757 0.000325417 0.000324388 0.000326187 0.000324919 0.000325622 0.000326654 0.000325427 0.000324488 0.000326134 0.000324967 0.000325612 0.000326553 0.000325436 0.00032458 0.000326083 0.000325018 0.000325603 0.00032646 0.000325444 0.00032467 0.000326032 0.000325062 0.000325595 0.000326371 0.000325451 0.000324751 0.000325987 0.000325109 0.000325586 0.000326288 0.000325458 0.000324831 0.000325941 0.000325149 0.00032558 0.000326209 0.000325464 0.000324903 0.000325899 0.00032519 0.000325572 0.000326134 0.000325471 0.000324975 0.000325858 0.000325225 0.000325566 0.000326063 0.000325476 0.000325037 0.000325821 0.000325261 0.000325559 0.000325999 0.000325482 0.0003251 0.000325786 0.000325293 0.000325556 0.000325938 0.000325486 0.000325154 0.000325753 0.000325323 0.000325549 0.000325881 0.000325491 0.000325207 0.000325723 0.00032535 0.000325545 0.00032583 0.000325495 0.000325254 0.000325695 0.000325375 0.000325541 0.000325781 0.000325499 0.000325299 0.000325668 0.000325396 0.000325539 0.000325738 0.000325502 0.000325336 0.000325646 0.000325419 0.000325534 0.0003257 0.000325506 0.000325374 0.000325624 0.000325435 0.000325532 0.000325664 0.000325508 0.000325403 0.000325607 0.000325452 0.000325529 0.000325634 0.000325511 0.000325432 0.00032559 0.000325464 0.000325528 0.000325607 0.000325512 0.000325453 0.000325577 0.000325476 0.000325526 0.000325585 0.000325515 0.000325474 0.000325565 0.000325483 0.000325524 0.000325565 0.000325516 0.000325486 0.000325558 0.00032549 0.000325522 0.000325552 0.000325517 0.000325499 0.000325554 0.000325489 0.000325523 0.000325542 0.000325516 0.000325503 0.000325556 0.000325489 0.000325524 0.000325537 0.000325513 0.000325511 0.000326631 0.000325019 0.000327436 0.000327436 0.000324698 0.000324018 0.000326515 0.000324929 0.000326577 0.000327263 0.000325161 0.000324095 0.000326442 0.000324903 0.000326113 0.000327186 0.000325394 0.000324131 0.000326407 0.000324887 0.000325857 0.000327126 0.000325504 0.000324165 0.000326394 0.000324861 0.000325719 0.000327065 0.000325513 0.00032416 0.000326385 0.000324795 0.000325678 0.000327035 0.000325478 0.000324182 0.000326403 0.00032482 0.000325677 0.000326979 0.000325491 0.000324297 0.000326354 0.000324861 0.000325656 0.000326855 0.000325504 0.000324407 0.000326298 0.000324909 0.000325638 0.000326739 0.000325512 0.00032451 0.00032624 0.000324955 0.00032562 0.000326625 0.000325518 0.000324606 0.00032618 0.000325005 0.000325605 0.000326519 0.000325526 0.000324696 0.000326122 0.000325052 0.00032559 0.000326423 0.000325531 0.000324779 0.000326068 0.000325097 0.000325577 0.00032633 0.000325533 0.000324858 0.000326015 0.000325138 0.000325567 0.000326243 0.000325537 0.000324931 0.000325966 0.000325179 0.000325556 0.000326164 0.000325539 0.000324999 0.000325919 0.000325215 0.000325548 0.000326089 0.000325541 0.000325062 0.000325875 0.000325251 0.00032554 0.00032602 0.000325543 0.000325122 0.000325834 0.000325282 0.000325534 0.000325955 0.000325544 0.000325176 0.000325796 0.000325315 0.000325527 0.000325896 0.000325544 0.000325227 0.000325759 0.000325341 0.000325523 0.00032584 0.000325544 0.000325272 0.000325726 0.000325367 0.000325518 0.00032579 0.000325544 0.000325313 0.000325695 0.00032539 0.000325514 0.000325745 0.000325545 0.000325351 0.000325668 0.000325412 0.00032551 0.000325703 0.000325541 0.000325385 0.000325643 0.000325429 0.00032551 0.000325666 0.000325542 0.000325414 0.000325622 0.000325446 0.000325507 0.000325635 0.000325538 0.00032544 0.000325602 0.000325459 0.000325508 0.000325606 0.000325537 0.000325461 0.000325585 0.000325473 0.000325507 0.000325583 0.000325534 0.00032548 0.00032557 0.000325482 0.000325509 0.000325563 0.000325532 0.000325493 0.000325561 0.000325489 0.000325509 0.000325549 0.000325529 0.000325504 0.000325552 0.000325492 0.000325512 0.000325537 0.000325528 0.000325509 0.000325549 0.000325492 0.000325513 0.000325532 0.000325522 0.00032551 0.000325552 0.000325484 0.000325519 0.000325531 0.000325517 0.000325508 0.000326915 0.000324948 0.000328193 0.000328193 0.000324151 0.000323511 0.000326749 0.000324916 0.000327107 0.000327754 0.000324856 0.000323843 0.000326653 0.000324908 0.000326479 0.000327501 0.000325236 0.000324046 0.000326601 0.000324897 0.000326116 0.000327315 0.000325445 0.000324194 0.00032658 0.000324886 0.000325899 0.000327157 0.000325558 0.000324305 0.000326517 0.000324868 0.000325768 0.000327025 0.000325573 0.000324391 0.000326465 0.000324849 0.000325713 0.000326899 0.000325572 0.000324456 0.000326429 0.000324889 0.000325679 0.000326799 0.000325584 0.000324561 0.000326359 0.000324937 0.000325648 0.000326674 0.000325594 0.000324659 0.000326294 0.000324985 0.000325619 0.000326557 0.000325602 0.000324752 0.000326225 0.000325034 0.000325596 0.000326448 0.000325607 0.000324835 0.000326161 0.00032508 0.000325575 0.000326348 0.00032561 0.000324914 0.000326099 0.000325123 0.000325558 0.000326255 0.000325613 0.000324985 0.000326041 0.000325166 0.000325543 0.000326172 0.000325613 0.000325052 0.000325986 0.000325204 0.000325531 0.000326092 0.000325613 0.000325113 0.000325935 0.000325241 0.000325519 0.00032602 0.000325611 0.000325168 0.000325887 0.000325274 0.00032551 0.000325953 0.000325609 0.000325219 0.000325843 0.000325307 0.000325502 0.000325892 0.000325606 0.000325269 0.0003258 0.000325335 0.000325495 0.000325833 0.000325604 0.000325311 0.000325761 0.000325363 0.000325489 0.000325782 0.000325599 0.000325351 0.000325725 0.000325386 0.000325486 0.000325733 0.000325594 0.000325385 0.000325691 0.000325408 0.000325483 0.000325692 0.00032559 0.000325416 0.000325662 0.000325428 0.00032548 0.000325654 0.000325586 0.000325443 0.000325636 0.000325446 0.000325478 0.000325621 0.000325579 0.000325467 0.000325612 0.000325459 0.00032548 0.000325591 0.000325575 0.000325486 0.000325592 0.000325473 0.00032548 0.000325568 0.000325567 0.000325502 0.000325574 0.000325483 0.000325483 0.000325548 0.000325561 0.000325513 0.000325562 0.000325492 0.000325487 0.000325535 0.000325553 0.000325522 0.00032555 0.000325496 0.000325492 0.000325524 0.000325548 0.000325524 0.000325544 0.0003255 0.000325497 0.000325521 0.00032554 0.000325526 0.000325541 0.000325497 0.000325503 0.000325518 0.000325532 0.00032552 0.000325546 0.000325487 0.00032551 0.000325522 0.000325521 0.000325512 0.000326886 0.000324837 0.000328749 0.000328749 0.000323574 0.000322907 0.000326932 0.000324822 0.000327585 0.000328261 0.000324468 0.000323478 0.000326915 0.00032482 0.000326871 0.000327872 0.000324994 0.000323877 0.000326873 0.000324826 0.000326426 0.000327553 0.000325308 0.000324166 0.000326831 0.000324833 0.000326131 0.000327282 0.00032551 0.000324397 0.000326722 0.000324838 0.000325927 0.000327044 0.000325584 0.000324535 0.000326617 0.000324877 0.000325814 0.000326867 0.000325625 0.000324647 0.000326523 0.000324909 0.00032573 0.000326712 0.000325655 0.00032474 0.000326438 0.000324964 0.000325663 0.000326581 0.000325673 0.000324836 0.000326353 0.000325015 0.000325617 0.000326456 0.000325687 0.000324924 0.000326273 0.000325065 0.00032558 0.000326346 0.000325691 0.000325002 0.000326198 0.000325111 0.000325555 0.000326246 0.000325695 0.000325072 0.000326128 0.000325155 0.000325531 0.000326156 0.000325695 0.000325135 0.000326063 0.000325197 0.000325513 0.000326074 0.000325693 0.000325192 0.000326001 0.000325236 0.000325497 0.000325999 0.00032569 0.000325244 0.000325946 0.000325271 0.000325484 0.000325931 0.000325686 0.000325292 0.000325893 0.000325303 0.000325473 0.000325866 0.00032568 0.000325335 0.000325844 0.000325334 0.000325464 0.000325809 0.000325674 0.000325374 0.000325799 0.000325361 0.000325455 0.000325756 0.000325666 0.000325408 0.000325757 0.000325388 0.000325451 0.000325708 0.000325659 0.00032544 0.000325718 0.000325411 0.000325446 0.000325665 0.00032565 0.000325468 0.000325682 0.000325433 0.000325444 0.000325627 0.000325642 0.000325491 0.00032565 0.000325451 0.000325442 0.000325593 0.000325633 0.000325512 0.000325622 0.000325467 0.000325443 0.000325564 0.000325624 0.000325527 0.000325597 0.000325481 0.000325444 0.000325541 0.000325614 0.00032554 0.000325576 0.000325492 0.000325448 0.000325521 0.000325605 0.000325549 0.000325558 0.000325502 0.000325452 0.000325507 0.000325593 0.000325553 0.000325544 0.000325508 0.000325459 0.000325498 0.000325583 0.000325555 0.000325533 0.000325512 0.000325466 0.000325494 0.000325569 0.000325551 0.000325527 0.000325511 0.000325477 0.000325495 0.000325558 0.000325543 0.000325526 0.000325508 0.000325487 0.000325502 0.000325545 0.000325534 0.000325532 0.000325497 0.000325499 0.000325511 0.000325533 0.000325519 0.000325675 0.000322119 0.000323284 0.000323284 0.000325487 0.000324609 0.000326871 0.000323636 0.000325409 0.000326288 0.000325174 0.000324176 0.000326445 0.000324115 0.00032547 0.000326473 0.000325047 0.000324036 0.000326264 0.000324319 0.000325549 0.000326567 0.000324985 0.000323981 0.000326183 0.00032443 0.000325609 0.000326619 0.000324954 0.000323971 0.000326141 0.000324506 0.000325649 0.000326637 0.000324945 0.000323996 0.000326113 0.000324567 0.000325677 0.000326632 0.00032495 0.000324042 0.000326089 0.000324625 0.000325695 0.000326608 0.000324963 0.000324105 0.000326061 0.000324682 0.000325706 0.000326569 0.000324982 0.000324178 0.000326033 0.000324743 0.000325713 0.000326521 0.000325005 0.00032426 0.000326 0.000324801 0.000325716 0.000326465 0.000325031 0.000324344 0.000325967 0.000324861 0.000325716 0.000326407 0.00032506 0.000324431 0.000325931 0.000324921 0.000325713 0.000326345 0.00032509 0.000324517 0.000325896 0.00032498 0.000325708 0.000326283 0.000325119 0.000324603 0.000325861 0.000325036 0.000325702 0.00032622 0.00032515 0.000324687 0.000325827 0.00032509 0.000325693 0.000326158 0.000325182 0.000324769 0.000325794 0.000325141 0.000325683 0.000326097 0.000325212 0.000324847 0.000325763 0.000325189 0.000325673 0.000326038 0.000325242 0.000324924 0.000325732 0.000325235 0.000325662 0.000325981 0.000325271 0.000324995 0.000325705 0.000325277 0.00032565 0.000325927 0.0003253 0.000325063 0.000325678 0.000325316 0.000325639 0.000325876 0.000325327 0.000325127 0.000325653 0.000325353 0.000325626 0.000325827 0.000325353 0.000325186 0.000325631 0.000325384 0.000325614 0.00032578 0.000325379 0.000325241 0.000325612 0.000325414 0.0003256 0.000325739 0.000325403 0.000325292 0.000325592 0.00032544 0.000325589 0.0003257 0.000325425 0.000325337 0.000325576 0.000325461 0.000325576 0.000325664 0.000325446 0.000325379 0.000325562 0.00032548 0.000325566 0.000325632 0.000325465 0.000325414 0.000325551 0.000325496 0.000325554 0.000325604 0.000325482 0.000325446 0.000325542 0.000325506 0.000325544 0.000325579 0.000325496 0.000325472 0.000325536 0.000325515 0.000325535 0.000325559 0.00032551 0.000325493 0.000325532 0.000325518 0.000325526 0.000325543 0.00032552 0.000325508 0.00032553 0.000325517 0.000325519 0.000325531 0.000325528 0.000325518 0.000325856 0.000324197 0.000324269 0.000324269 0.000326596 0.000325835 0.000325834 0.000323441 0.000324559 0.000325317 0.000324895 0.000323937 0.000326632 0.000323995 0.000325711 0.000326674 0.000324966 0.000323895 0.000326421 0.000324268 0.00032569 0.000326768 0.00032498 0.000323873 0.000326305 0.00032442 0.000325689 0.000326804 0.000324992 0.000323891 0.000326238 0.000324517 0.000325693 0.0003268 0.000325007 0.000323943 0.000326191 0.000324592 0.000325697 0.000326768 0.000325026 0.000324011 0.000326151 0.000324654 0.000325698 0.000326718 0.000325047 0.000324092 0.000326113 0.000324714 0.000325698 0.000326658 0.000325068 0.00032418 0.000326076 0.000324774 0.000325699 0.000326592 0.000325092 0.000324271 0.000326036 0.000324832 0.000325698 0.000326522 0.000325115 0.000324361 0.000325997 0.000324891 0.000325695 0.000326452 0.000325141 0.000324452 0.000325959 0.000324948 0.00032569 0.000326381 0.000325165 0.000324542 0.000325921 0.000325003 0.000325685 0.00032631 0.00032519 0.00032463 0.000325883 0.000325056 0.000325679 0.000326241 0.000325215 0.000324713 0.000325848 0.000325107 0.000325672 0.000326175 0.00032524 0.000324794 0.000325813 0.000325154 0.000325663 0.000326111 0.000325265 0.000324871 0.00032578 0.0003252 0.000325654 0.000326049 0.000325289 0.000324944 0.000325749 0.000325242 0.000325644 0.00032599 0.000325312 0.000325014 0.000325721 0.000325281 0.000325635 0.000325934 0.000325336 0.00032508 0.000325693 0.000325317 0.000325625 0.000325881 0.000325357 0.000325139 0.000325669 0.00032535 0.000325615 0.000325833 0.000325377 0.000325196 0.000325645 0.000325381 0.000325605 0.000325786 0.000325397 0.000325248 0.000325625 0.000325407 0.000325595 0.000325744 0.000325419 0.000325297 0.000325606 0.000325432 0.000325585 0.000325706 0.000325435 0.000325339 0.00032559 0.000325452 0.000325575 0.00032567 0.000325452 0.000325378 0.000325575 0.000325471 0.000325565 0.000325639 0.000325467 0.000325412 0.000325564 0.000325484 0.000325556 0.000325611 0.000325482 0.000325442 0.000325554 0.000325496 0.000325546 0.000325586 0.000325494 0.000325467 0.000325547 0.000325505 0.000325539 0.000325566 0.000325506 0.000325487 0.000325542 0.00032551 0.000325531 0.000325549 0.000325515 0.000325504 0.000325539 0.000325512 0.000325524 0.000325535 0.000325523 0.000325518 0.000325982 0.000324508 0.000325034 0.000325034 0.000326097 0.000325411 0.000326011 0.000324493 0.000325054 0.000325739 0.000325769 0.000324744 0.000326017 0.000324016 0.000325175 0.000326202 0.000324932 0.000323797 0.000326486 0.000324284 0.000325756 0.0003269 0.000325011 0.000323826 0.000326381 0.00032444 0.00032573 0.000326922 0.000325053 0.000323869 0.000326305 0.000324545 0.00032571 0.000326902 0.000325088 0.000323938 0.00032625 0.000324625 0.000325698 0.000326854 0.000325117 0.000324024 0.000326202 0.00032469 0.000325688 0.000326787 0.000325142 0.000324116 0.000326157 0.00032475 0.000325681 0.000326712 0.000325163 0.000324213 0.000326114 0.000324809 0.000325677 0.000326632 0.000325184 0.000324309 0.000326068 0.000324866 0.000325674 0.000326552 0.000325203 0.000324403 0.000326026 0.000324922 0.000325669 0.000326472 0.000325224 0.000324497 0.000325983 0.000324976 0.000325665 0.000326394 0.000325244 0.000324586 0.000325943 0.000325029 0.000325659 0.000326319 0.000325264 0.000324672 0.000325902 0.000325079 0.000325653 0.000326246 0.000325283 0.000324753 0.000325865 0.000325127 0.000325646 0.000326177 0.000325302 0.000324832 0.000325828 0.000325171 0.000325639 0.00032611 0.00032532 0.000324907 0.000325794 0.000325213 0.000325631 0.000326046 0.000325339 0.000324976 0.000325762 0.000325252 0.000325623 0.000325987 0.000325358 0.000325043 0.000325733 0.000325289 0.000325615 0.000325931 0.000325375 0.000325104 0.000325704 0.000325323 0.000325606 0.000325878 0.000325391 0.000325162 0.000325679 0.000325354 0.000325599 0.000325829 0.000325407 0.000325214 0.000325655 0.000325381 0.000325591 0.000325784 0.000325422 0.000325263 0.000325635 0.000325407 0.000325583 0.000325743 0.000325437 0.000325308 0.000325615 0.000325429 0.000325575 0.000325704 0.00032545 0.000325347 0.000325597 0.000325449 0.000325567 0.000325671 0.000325464 0.000325383 0.000325583 0.000325466 0.000325558 0.000325639 0.000325476 0.000325416 0.000325571 0.000325479 0.000325551 0.000325612 0.000325487 0.000325443 0.00032556 0.000325489 0.000325544 0.000325589 0.000325498 0.000325466 0.000325553 0.000325498 0.000325538 0.00032557 0.000325506 0.000325485 0.000325549 0.000325502 0.000325532 0.000325554 0.000325514 0.0003255 0.000325548 0.000325504 0.000325526 0.00032554 0.00032552 0.000325515 0.000326106 0.000324732 0.00032573 0.00032573 0.00032568 0.000325001 0.000326142 0.000324652 0.000325499 0.000326178 0.00032561 0.000324563 0.000326134 0.000324642 0.000325426 0.000326476 0.000325484 0.00032428 0.000326154 0.00032435 0.000325454 0.000326662 0.000325077 0.000323818 0.000326416 0.000324491 0.000325739 0.000327005 0.000325139 0.00032388 0.00032635 0.00032459 0.000325709 0.000326975 0.000325182 0.000323965 0.000326299 0.000324667 0.000325688 0.000326911 0.000325216 0.000324067 0.000326249 0.00032473 0.000325673 0.000326828 0.000325241 0.000324171 0.000326199 0.000324788 0.000325663 0.000326738 0.000325261 0.000324274 0.000326149 0.000324844 0.000325655 0.000326647 0.000325279 0.000324372 0.000326101 0.0003249 0.000325649 0.000326559 0.000325293 0.000324468 0.000326054 0.000324954 0.000325644 0.000326472 0.00032531 0.00032456 0.000326007 0.000325007 0.000325638 0.000326389 0.000325323 0.000324648 0.000325963 0.000325056 0.000325633 0.00032631 0.000325339 0.000324731 0.00032592 0.000325104 0.000325625 0.000326235 0.000325352 0.00032481 0.000325881 0.000325148 0.000325619 0.000326163 0.000325367 0.000324885 0.000325842 0.000325191 0.000325612 0.000326095 0.000325379 0.000324955 0.000325807 0.00032523 0.000325606 0.00032603 0.000325393 0.000325022 0.000325774 0.000325266 0.000325599 0.00032597 0.000325405 0.000325085 0.000325743 0.0003253 0.000325594 0.000325915 0.000325418 0.000325142 0.000325713 0.00032533 0.000325586 0.000325862 0.000325428 0.000325196 0.000325688 0.00032536 0.000325581 0.000325814 0.00032544 0.000325244 0.000325662 0.000325386 0.000325573 0.000325769 0.00032545 0.00032529 0.000325641 0.000325409 0.000325568 0.000325729 0.000325461 0.000325331 0.000325622 0.00032543 0.000325562 0.000325692 0.00032547 0.000325368 0.000325605 0.000325448 0.000325557 0.000325659 0.000325478 0.0003254 0.000325589 0.000325462 0.000325551 0.000325629 0.000325487 0.000325427 0.000325578 0.000325475 0.000325546 0.000325605 0.000325495 0.000325453 0.000325566 0.000325485 0.000325539 0.000325582 0.000325502 0.000325473 0.000325559 0.000325492 0.000325535 0.000325563 0.000325507 0.000325489 0.000325554 0.000325495 0.000325531 0.000325549 0.000325512 0.000325501 0.000325555 0.000325494 0.000325529 0.000325539 0.000325515 0.000325512 0.00032626 0.000324894 0.000326429 0.000326429 0.00032527 0.000324568 0.000326265 0.000324786 0.00032593 0.000326635 0.000325431 0.000324347 0.000326246 0.000324758 0.000325689 0.000326776 0.000325466 0.000324205 0.000326239 0.000324739 0.000325589 0.000326855 0.000325439 0.00032412 0.000326252 0.000324567 0.00032557 0.000326893 0.000325242 0.000323924 0.000326389 0.00032465 0.000325702 0.000327026 0.000325288 0.000324015 0.000326336 0.000324718 0.000325673 0.000326952 0.000325326 0.000324127 0.000326288 0.000324776 0.00032565 0.000326853 0.000325349 0.000324241 0.000326234 0.000324831 0.00032564 0.000326752 0.000325365 0.000324347 0.000326182 0.000324886 0.000325629 0.00032665 0.000325378 0.00032445 0.000326129 0.000324939 0.000325621 0.000326553 0.000325389 0.000324545 0.000326077 0.000324992 0.000325614 0.00032646 0.0003254 0.000324636 0.000326028 0.000325041 0.000325607 0.000326373 0.000325409 0.00032472 0.00032598 0.000325089 0.0003256 0.00032629 0.000325419 0.000324802 0.000325935 0.000325133 0.000325593 0.000326212 0.000325427 0.000324876 0.000325893 0.000325176 0.000325586 0.000326138 0.000325437 0.000324949 0.000325852 0.000325215 0.000325581 0.000326069 0.000325444 0.000325014 0.000325815 0.000325252 0.000325574 0.000326004 0.000325453 0.000325077 0.00032578 0.000325286 0.000325569 0.000325945 0.00032546 0.000325135 0.000325747 0.000325318 0.000325563 0.000325889 0.000325467 0.000325188 0.000325717 0.000325346 0.000325557 0.000325836 0.000325473 0.000325238 0.00032569 0.000325373 0.000325554 0.00032579 0.00032548 0.000325284 0.000325665 0.000325395 0.00032555 0.000325747 0.000325484 0.000325323 0.000325641 0.000325417 0.000325546 0.000325707 0.000325491 0.000325361 0.000325622 0.000325435 0.000325543 0.000325673 0.000325496 0.000325392 0.000325604 0.000325453 0.000325539 0.000325642 0.0003255 0.000325422 0.000325588 0.000325465 0.000325536 0.000325614 0.000325503 0.000325445 0.000325575 0.000325477 0.000325534 0.000325592 0.000325509 0.000325467 0.000325565 0.000325485 0.00032553 0.000325572 0.000325512 0.000325483 0.000325558 0.000325491 0.000325527 0.000325556 0.000325515 0.000325496 0.000325555 0.000325492 0.000325526 0.000325545 0.000325515 0.000325502 0.000325556 0.00032549 0.000325526 0.000325539 0.000325515 0.000325508 0.000326516 0.000325005 0.000327188 0.000327188 0.000324839 0.000324107 0.000326445 0.000324891 0.000326397 0.000327134 0.000325227 0.000324118 0.000326395 0.000324853 0.00032599 0.000327105 0.000325411 0.000324119 0.000326369 0.000324835 0.000325777 0.000327075 0.000325484 0.000324135 0.000326357 0.000324817 0.000325673 0.000327028 0.000325498 0.000324158 0.000326341 0.000324722 0.00032563 0.000326974 0.000325406 0.000324104 0.00032639 0.000324783 0.000325672 0.000326979 0.000325444 0.000324235 0.000326344 0.000324828 0.000325649 0.000326862 0.000325463 0.000324352 0.000326288 0.00032488 0.000325632 0.000326747 0.000325472 0.000324461 0.000326229 0.000324931 0.00032562 0.000326634 0.000325481 0.000324561 0.000326168 0.000324983 0.000325606 0.000326529 0.000325489 0.000324655 0.000326111 0.000325033 0.000325596 0.000326432 0.000325494 0.000324741 0.000326056 0.00032508 0.000325584 0.000326339 0.000325499 0.000324823 0.000326004 0.000325126 0.000325577 0.000326254 0.000325504 0.000324899 0.000325955 0.000325166 0.000325567 0.000326173 0.000325508 0.00032497 0.000325909 0.000325207 0.00032556 0.000326099 0.000325512 0.000325036 0.000325865 0.000325243 0.000325552 0.000326029 0.000325514 0.000325097 0.000325825 0.000325276 0.000325546 0.000325963 0.000325517 0.000325152 0.000325787 0.000325308 0.000325539 0.000325904 0.000325519 0.000325205 0.000325752 0.000325338 0.000325536 0.00032585 0.000325521 0.000325253 0.000325721 0.000325362 0.00032553 0.000325798 0.000325522 0.000325297 0.00032569 0.000325388 0.000325528 0.000325753 0.000325524 0.000325336 0.000325663 0.000325409 0.000325523 0.000325711 0.000325524 0.000325372 0.00032564 0.000325429 0.000325523 0.000325675 0.000325525 0.000325403 0.000325619 0.000325445 0.000325519 0.000325641 0.000325524 0.000325431 0.0003256 0.000325459 0.000325519 0.000325612 0.000325525 0.000325454 0.000325584 0.000325471 0.000325517 0.000325588 0.000325524 0.000325474 0.00032557 0.000325483 0.000325519 0.000325569 0.000325524 0.000325489 0.000325561 0.000325488 0.000325516 0.000325552 0.000325523 0.0003255 0.000325553 0.000325493 0.000325518 0.000325541 0.000325523 0.000325508 0.00032555 0.000325491 0.000325518 0.000325534 0.00032552 0.000325509 0.000325554 0.000325486 0.000325523 0.000325533 0.000325516 0.000325507 0.000326836 0.000324981 0.00032798 0.00032798 0.000324317 0.000323606 0.000326699 0.000324905 0.00032693 0.000327648 0.000324957 0.000323872 0.000326621 0.000324878 0.000326355 0.000327449 0.000325284 0.000324036 0.000326571 0.000324867 0.000326038 0.000327294 0.000325459 0.000324158 0.000326533 0.000324861 0.000325853 0.00032716 0.000325543 0.000324266 0.000326494 0.000324858 0.000325746 0.000327029 0.000325567 0.00032434 0.000326453 0.000324836 0.000325695 0.000326926 0.000325551 0.000324405 0.000326423 0.000324873 0.000325673 0.000326823 0.000325564 0.000324515 0.000326354 0.00032492 0.000325646 0.000326698 0.000325572 0.000324619 0.000326286 0.000324972 0.000325621 0.000326578 0.000325579 0.000324715 0.000326216 0.000325022 0.000325603 0.000326469 0.000325581 0.000324802 0.000326152 0.000325072 0.000325584 0.000326365 0.000325585 0.000324883 0.000326087 0.000325117 0.00032557 0.000326273 0.000325588 0.000324956 0.00032603 0.000325162 0.000325555 0.000326188 0.000325588 0.000325024 0.000325974 0.000325202 0.000325544 0.000326108 0.000325588 0.000325087 0.000325925 0.00032524 0.000325533 0.000326035 0.000325588 0.000325146 0.000325875 0.000325275 0.000325524 0.000325967 0.000325587 0.000325197 0.000325834 0.000325307 0.000325515 0.000325905 0.000325585 0.000325249 0.000325789 0.000325335 0.00032551 0.000325846 0.000325583 0.000325292 0.000325754 0.000325364 0.000325503 0.000325794 0.00032558 0.000325335 0.000325717 0.000325387 0.0003255 0.000325745 0.000325577 0.000325369 0.000325687 0.000325411 0.000325495 0.000325704 0.000325574 0.000325403 0.000325656 0.000325431 0.000325493 0.000325664 0.000325571 0.00032543 0.000325632 0.000325448 0.00032549 0.000325631 0.000325566 0.000325456 0.000325607 0.000325462 0.000325492 0.000325601 0.000325562 0.000325475 0.00032559 0.000325476 0.00032549 0.000325577 0.000325557 0.000325494 0.000325571 0.000325485 0.000325493 0.000325556 0.000325553 0.000325506 0.000325559 0.000325495 0.000325494 0.000325541 0.000325546 0.000325515 0.000325548 0.000325498 0.000325498 0.000325529 0.000325542 0.00032552 0.000325543 0.000325502 0.000325501 0.000325523 0.000325536 0.000325522 0.000325539 0.000325499 0.000325507 0.000325521 0.000325531 0.000325518 0.000325544 0.000325491 0.000325512 0.000325525 0.000325523 0.00032551 0.000326875 0.000324836 0.0003286 0.0003286 0.000323708 0.000322987 0.000326939 0.000324783 0.000327444 0.000328175 0.000324558 0.000323516 0.000326922 0.000324769 0.00032677 0.000327824 0.000325037 0.00032388 0.000326867 0.000324782 0.000326366 0.000327533 0.000325313 0.000324146 0.000326798 0.000324803 0.000326107 0.000327282 0.000325481 0.000324352 0.000326719 0.000324831 0.000325932 0.000327067 0.000325576 0.000324513 0.000326619 0.000324859 0.000325811 0.000326878 0.000325612 0.000324631 0.000326524 0.000324889 0.000325733 0.000326719 0.000325635 0.000324722 0.000326436 0.000324946 0.00032567 0.000326587 0.000325651 0.000324819 0.000326349 0.000324999 0.000325627 0.000326462 0.00032566 0.000324908 0.000326268 0.000325052 0.000325596 0.00032635 0.000325662 0.000324987 0.000326192 0.000325101 0.000325573 0.00032625 0.000325666 0.000325057 0.000326121 0.000325148 0.00032555 0.00032616 0.000325664 0.00032512 0.000326056 0.00032519 0.000325533 0.000326077 0.000325664 0.000325179 0.000325994 0.000325231 0.000325517 0.000326003 0.00032566 0.00032523 0.000325939 0.000325267 0.000325504 0.000325934 0.000325659 0.000325279 0.000325886 0.000325303 0.000325492 0.000325872 0.000325653 0.000325323 0.000325838 0.000325332 0.000325484 0.000325813 0.00032565 0.000325362 0.000325793 0.000325363 0.000325473 0.000325761 0.000325641 0.000325398 0.000325751 0.000325387 0.000325469 0.000325713 0.000325638 0.000325431 0.000325713 0.000325412 0.000325463 0.00032567 0.000325629 0.000325459 0.000325677 0.000325433 0.000325461 0.000325631 0.000325625 0.000325483 0.000325646 0.000325453 0.000325457 0.000325599 0.000325615 0.000325504 0.000325619 0.000325469 0.000325457 0.000325568 0.00032561 0.000325522 0.000325594 0.000325484 0.000325458 0.000325546 0.000325599 0.000325534 0.000325573 0.000325493 0.00032546 0.000325524 0.000325593 0.000325544 0.000325556 0.000325504 0.000325462 0.00032551 0.000325582 0.00032555 0.000325542 0.000325509 0.000325468 0.0003255 0.000325574 0.000325552 0.000325533 0.000325513 0.000325473 0.000325495 0.000325563 0.00032555 0.000325527 0.000325512 0.000325483 0.000325495 0.000325554 0.000325543 0.000325526 0.00032551 0.000325491 0.000325502 0.000325541 0.000325532 0.000325533 0.000325498 0.000325502 0.000325511 0.000325531 0.000325519 0.000325941 0.000322106 0.000323436 0.000323436 0.000325666 0.000324768 0.000326873 0.000323711 0.000325331 0.000326226 0.000325228 0.000324216 0.000326422 0.000324124 0.000325423 0.00032644 0.000325072 0.000324063 0.000326252 0.000324298 0.00032551 0.000326525 0.000324997 0.000324006 0.000326179 0.000324395 0.000325577 0.000326574 0.000324956 0.000323992 0.000326139 0.000324468 0.000325625 0.000326595 0.000324939 0.000324011 0.000326112 0.000324528 0.000325662 0.000326596 0.000324935 0.00032405 0.000326087 0.00032459 0.000325688 0.000326578 0.000324943 0.000324108 0.00032606 0.000324652 0.000325705 0.000326545 0.000324958 0.000324176 0.000326029 0.000324716 0.000325717 0.000326503 0.000324978 0.000324253 0.000325997 0.000324778 0.000325723 0.000326451 0.000325002 0.000324335 0.000325963 0.000324842 0.000325727 0.000326398 0.00032503 0.00032442 0.000325928 0.000324904 0.000325726 0.000326338 0.000325059 0.000324505 0.000325892 0.000324966 0.000325722 0.000326279 0.00032509 0.00032459 0.000325857 0.000325024 0.000325716 0.000326217 0.000325121 0.000324674 0.000325823 0.000325081 0.000325709 0.000326157 0.000325153 0.000324756 0.000325789 0.000325132 0.000325699 0.000326097 0.000325185 0.000324834 0.000325759 0.000325183 0.000325687 0.00032604 0.000325217 0.000324911 0.000325727 0.00032523 0.000325676 0.000325983 0.000325247 0.000324982 0.000325701 0.000325275 0.000325665 0.000325931 0.000325278 0.000325051 0.000325675 0.000325313 0.000325651 0.000325878 0.000325307 0.000325115 0.000325651 0.000325351 0.000325638 0.000325831 0.000325334 0.000325177 0.000325628 0.000325383 0.000325627 0.000325784 0.000325362 0.000325232 0.000325608 0.000325413 0.000325613 0.000325742 0.000325387 0.000325284 0.00032559 0.000325439 0.000325598 0.000325702 0.000325411 0.00032533 0.000325574 0.000325461 0.000325585 0.000325666 0.000325432 0.000325372 0.000325561 0.000325481 0.000325573 0.000325634 0.000325453 0.000325409 0.00032555 0.000325497 0.000325562 0.000325606 0.000325472 0.000325441 0.000325541 0.000325508 0.00032555 0.00032558 0.000325489 0.000325468 0.000325535 0.000325515 0.000325539 0.00032556 0.000325504 0.00032549 0.000325531 0.00032552 0.000325531 0.000325544 0.000325515 0.000325506 0.000325531 0.000325519 0.000325522 0.000325531 0.000325526 0.000325518 0.000325965 0.000324089 0.000324306 0.000324306 0.000326608 0.000325895 0.000325942 0.000323441 0.000324552 0.000325262 0.000324974 0.000324061 0.000326636 0.000324022 0.000325654 0.000326572 0.000325016 0.000323957 0.000326411 0.000324264 0.000325643 0.000326709 0.000325003 0.000323913 0.000326301 0.000324398 0.000325653 0.00032675 0.000324997 0.00032392 0.000326238 0.000324487 0.000325669 0.000326753 0.000324999 0.000323957 0.00032619 0.00032456 0.000325683 0.000326729 0.000325008 0.000324017 0.00032615 0.000324625 0.000325694 0.00032669 0.000325023 0.00032409 0.000326112 0.000324687 0.000325701 0.000326638 0.00032504 0.000324171 0.000326073 0.00032475 0.000325706 0.000326579 0.000325061 0.000324258 0.000326034 0.000324811 0.000325708 0.000326515 0.000325084 0.000324346 0.000325994 0.000324873 0.000325708 0.000326449 0.000325108 0.000324435 0.000325955 0.000324932 0.000325705 0.00032638 0.000325133 0.000324524 0.000325917 0.00032499 0.000325701 0.000326313 0.000325159 0.00032461 0.000325879 0.000325045 0.000325695 0.000326246 0.000325186 0.000324694 0.000325843 0.000325098 0.000325688 0.000326181 0.000325212 0.000324775 0.000325807 0.000325148 0.00032568 0.000326118 0.000325238 0.000324852 0.000325775 0.000325194 0.00032567 0.000326056 0.000325265 0.000324927 0.000325744 0.000325238 0.00032566 0.000325999 0.000325289 0.000324997 0.000325715 0.000325279 0.00032565 0.000325943 0.000325315 0.000325063 0.000325688 0.000325315 0.000325638 0.000325891 0.000325339 0.000325125 0.000325665 0.000325349 0.000325627 0.000325841 0.000325361 0.000325182 0.000325641 0.000325381 0.000325616 0.000325796 0.000325383 0.000325235 0.00032562 0.000325409 0.000325605 0.000325753 0.000325403 0.000325283 0.000325602 0.000325432 0.000325594 0.000325714 0.000325424 0.000325328 0.000325586 0.000325454 0.000325582 0.000325678 0.000325442 0.000325367 0.000325572 0.000325472 0.000325571 0.000325646 0.000325461 0.000325404 0.000325561 0.000325488 0.000325561 0.000325618 0.000325476 0.000325434 0.00032555 0.000325498 0.00032555 0.000325592 0.00032549 0.000325461 0.000325543 0.000325507 0.000325541 0.000325571 0.000325503 0.000325483 0.000325539 0.000325513 0.000325533 0.000325553 0.000325514 0.0003255 0.000325539 0.000325515 0.000325525 0.000325539 0.000325525 0.000325515 0.000326018 0.000324477 0.000324958 0.000324958 0.000326142 0.000325493 0.000326062 0.000324401 0.000325008 0.000325655 0.000325797 0.000324816 0.000326076 0.00032399 0.000325138 0.000326119 0.000324966 0.000323889 0.000326496 0.000324266 0.000325716 0.000326801 0.000325031 0.000323883 0.000326383 0.000324408 0.000325702 0.000326857 0.000325053 0.000323904 0.000326311 0.000324506 0.000325695 0.00032685 0.000325072 0.000323958 0.000326255 0.000324583 0.000325695 0.000326814 0.000325087 0.00032403 0.000326208 0.000324653 0.000325696 0.000326759 0.000325107 0.000324114 0.000326161 0.000324716 0.000325695 0.000326692 0.000325124 0.000324202 0.000326116 0.000324778 0.000325695 0.000326621 0.000325144 0.000324295 0.000326071 0.000324839 0.000325694 0.000326546 0.000325164 0.000324387 0.000326026 0.000324899 0.000325692 0.000326471 0.000325184 0.000324479 0.000325983 0.000324956 0.000325687 0.000326395 0.000325205 0.000324567 0.000325942 0.000325012 0.000325682 0.000326322 0.000325226 0.000324652 0.0003259 0.000325064 0.000325675 0.00032625 0.000325247 0.000324734 0.000325862 0.000325115 0.000325669 0.000326183 0.000325269 0.000324813 0.000325826 0.000325162 0.000325661 0.000326117 0.000325289 0.000324888 0.000325792 0.000325206 0.000325652 0.000326054 0.000325311 0.00032496 0.00032576 0.000325247 0.000325643 0.000325995 0.000325331 0.000325026 0.000325729 0.000325285 0.000325634 0.00032594 0.000325351 0.000325088 0.000325701 0.000325319 0.000325624 0.000325887 0.000325369 0.000325146 0.000325675 0.000325351 0.000325615 0.000325838 0.000325388 0.000325201 0.000325653 0.00032538 0.000325605 0.000325792 0.000325405 0.00032525 0.000325632 0.000325406 0.000325597 0.000325751 0.000325421 0.000325296 0.000325612 0.000325428 0.000325588 0.000325712 0.000325437 0.000325337 0.000325596 0.000325449 0.000325579 0.000325678 0.000325453 0.000325374 0.00032558 0.000325466 0.000325568 0.000325646 0.000325467 0.000325407 0.000325568 0.00032548 0.000325559 0.000325618 0.00032548 0.000325436 0.000325559 0.000325491 0.000325549 0.000325593 0.000325491 0.000325459 0.000325552 0.0003255 0.000325542 0.000325574 0.000325502 0.00032548 0.000325548 0.000325505 0.000325534 0.000325556 0.000325511 0.000325497 0.000325548 0.000325506 0.000325529 0.000325543 0.000325519 0.000325513 0.000326109 0.00032469 0.00032556 0.00032556 0.000325754 0.000325112 0.000326166 0.000324588 0.000325403 0.000326044 0.000325646 0.000324641 0.00032617 0.000324553 0.000325373 0.000326378 0.000325493 0.000324339 0.000326195 0.000324299 0.000325423 0.000326579 0.000325075 0.000323884 0.000326433 0.000324445 0.000325723 0.00032692 0.000325123 0.000323923 0.000326367 0.000324538 0.00032571 0.000326917 0.000325152 0.000323985 0.000326309 0.000324617 0.000325697 0.000326868 0.000325174 0.000324069 0.000326257 0.000324686 0.000325691 0.000326801 0.000325195 0.000324162 0.000326205 0.000324749 0.000325685 0.000326722 0.000325213 0.000324257 0.000326155 0.000324811 0.00032568 0.000326639 0.00032523 0.000324354 0.000326105 0.000324871 0.000325675 0.000326554 0.000325247 0.000324447 0.000326055 0.000324931 0.000325672 0.000326473 0.000325263 0.000324538 0.000326007 0.000324986 0.000325665 0.000326392 0.00032528 0.000324626 0.000325962 0.000325039 0.000325659 0.000326315 0.000325297 0.00032471 0.000325919 0.000325089 0.000325652 0.00032624 0.000325313 0.000324789 0.000325878 0.000325137 0.000325645 0.00032617 0.00032533 0.000324864 0.000325839 0.000325181 0.000325637 0.000326103 0.000325346 0.000324935 0.000325804 0.000325223 0.000325629 0.000326041 0.000325362 0.000325004 0.00032577 0.000325261 0.000325622 0.000325981 0.000325377 0.000325066 0.000325738 0.000325297 0.000325614 0.000325926 0.000325391 0.000325124 0.000325709 0.000325329 0.000325605 0.000325873 0.000325405 0.000325178 0.000325682 0.000325358 0.000325598 0.000325826 0.000325418 0.000325228 0.000325658 0.000325385 0.00032559 0.00032578 0.000325433 0.000325275 0.000325636 0.00032541 0.000325583 0.000325741 0.000325445 0.000325317 0.000325617 0.000325432 0.000325575 0.000325703 0.000325456 0.000325354 0.000325599 0.000325451 0.000325569 0.00032567 0.000325468 0.000325387 0.000325585 0.000325465 0.00032556 0.00032564 0.000325478 0.000325418 0.000325573 0.000325479 0.000325553 0.000325614 0.000325489 0.000325443 0.000325562 0.000325488 0.000325545 0.00032559 0.000325497 0.000325465 0.000325555 0.000325496 0.000325539 0.000325572 0.000325505 0.000325484 0.000325552 0.000325498 0.000325534 0.000325556 0.000325512 0.000325497 0.000325553 0.000325498 0.00032553 0.000325545 0.000325518 0.000325508 0.000326234 0.000324823 0.000326177 0.000326177 0.000325375 0.000324704 0.000326277 0.000324704 0.000325792 0.000326465 0.000325471 0.000324433 0.000326275 0.000324666 0.000325614 0.000326654 0.000325466 0.00032426 0.000326273 0.000324639 0.000325555 0.000326764 0.000325411 0.000324161 0.000326288 0.000324497 0.000325564 0.000326817 0.000325203 0.000323964 0.00032641 0.000324585 0.000325711 0.000326956 0.000325239 0.000324037 0.000326357 0.000324655 0.000325697 0.000326904 0.000325264 0.000324126 0.000326304 0.000324723 0.000325683 0.000326825 0.000325287 0.000324229 0.000326249 0.000324784 0.000325675 0.000326735 0.000325302 0.00032433 0.000326192 0.000324846 0.000325665 0.00032664 0.000325318 0.00032443 0.000326136 0.000324903 0.000325657 0.000326547 0.000325331 0.000324524 0.000326083 0.000324961 0.000325651 0.000326459 0.000325343 0.000324615 0.000326031 0.000325015 0.000325643 0.000326372 0.000325356 0.0003247 0.000325981 0.000325066 0.000325635 0.000326292 0.000325369 0.000324781 0.000325936 0.000325115 0.000325627 0.000326215 0.000325381 0.000324858 0.000325892 0.00032516 0.000325619 0.000326144 0.000325393 0.00032493 0.000325852 0.000325203 0.000325611 0.000326075 0.000325404 0.000324997 0.000325812 0.000325242 0.000325604 0.000326011 0.000325416 0.00032506 0.000325778 0.000325278 0.000325595 0.000325952 0.000325426 0.000325119 0.000325745 0.000325312 0.00032559 0.000325897 0.000325436 0.000325174 0.000325714 0.000325342 0.000325582 0.000325844 0.000325445 0.000325224 0.000325685 0.00032537 0.000325577 0.000325798 0.000325454 0.000325269 0.000325662 0.000325395 0.00032557 0.000325755 0.000325463 0.000325311 0.000325638 0.000325417 0.000325564 0.000325716 0.00032547 0.000325349 0.000325619 0.000325437 0.000325559 0.000325681 0.000325479 0.000325382 0.000325601 0.000325455 0.000325554 0.000325651 0.000325485 0.000325412 0.000325585 0.000325467 0.000325548 0.000325622 0.000325492 0.000325436 0.000325573 0.000325479 0.000325544 0.0003256 0.000325499 0.000325458 0.000325562 0.000325487 0.000325539 0.00032558 0.000325504 0.000325476 0.000325556 0.000325493 0.000325535 0.000325563 0.000325509 0.000325491 0.000325553 0.000325495 0.000325531 0.000325549 0.000325513 0.0003255 0.000325555 0.000325492 0.000325529 0.000325542 0.000325515 0.000325505 0.000326406 0.000324908 0.000326847 0.000326847 0.00032497 0.000324233 0.000326408 0.000324782 0.000326198 0.00032694 0.000325271 0.000324173 0.000326388 0.000324737 0.000325871 0.000326973 0.000325401 0.000324142 0.000326371 0.000324723 0.000325713 0.000326975 0.000325441 0.000324136 0.000326359 0.000324711 0.000325644 0.000326952 0.000325434 0.000324152 0.000326355 0.000324643 0.000325626 0.000326912 0.000325338 0.000324105 0.000326399 0.000324708 0.000325688 0.000326925 0.000325364 0.000324206 0.000326347 0.000324768 0.00032567 0.000326832 0.000325386 0.000324315 0.000326287 0.000324829 0.000325653 0.000326728 0.0003254 0.000324422 0.000326227 0.000324889 0.000325641 0.000326621 0.000325413 0.000324525 0.000326165 0.000324946 0.000325631 0.000326521 0.000325423 0.00032462 0.000326106 0.000325002 0.000325621 0.000326426 0.000325432 0.000324708 0.000326049 0.000325055 0.000325611 0.000326336 0.000325442 0.00032479 0.000325996 0.000325105 0.000325601 0.000326253 0.000325449 0.000324868 0.000325948 0.00032515 0.000325592 0.000326174 0.000325457 0.000324941 0.000325901 0.000325193 0.000325585 0.000326102 0.000325465 0.000325009 0.000325857 0.000325232 0.000325576 0.000326033 0.000325472 0.000325072 0.000325816 0.000325269 0.000325569 0.00032597 0.000325477 0.00032513 0.000325779 0.000325302 0.000325563 0.000325911 0.000325485 0.000325183 0.000325744 0.000325334 0.000325556 0.000325858 0.000325488 0.000325232 0.000325713 0.000325362 0.000325551 0.000325807 0.000325493 0.000325277 0.000325683 0.000325389 0.000325546 0.000325762 0.000325497 0.000325319 0.000325657 0.00032541 0.000325542 0.00032572 0.000325502 0.000325355 0.000325633 0.000325431 0.000325538 0.000325685 0.000325504 0.000325388 0.000325613 0.000325448 0.000325535 0.000325652 0.000325508 0.000325417 0.000325595 0.000325463 0.000325533 0.000325623 0.00032551 0.000325442 0.000325579 0.000325476 0.000325531 0.0003256 0.000325513 0.000325463 0.000325566 0.000325486 0.000325529 0.000325579 0.000325515 0.00032548 0.000325557 0.000325493 0.000325527 0.000325562 0.000325516 0.000325493 0.000325551 0.000325498 0.000325526 0.000325549 0.000325519 0.000325503 0.000325549 0.000325496 0.000325523 0.000325539 0.000325518 0.000325506 0.000325551 0.00032549 0.000325524 0.000325536 0.000325516 0.000325504 0.000326701 0.000324948 0.000327619 0.000327619 0.000324514 0.000323719 0.000326631 0.000324834 0.000326679 0.000327481 0.000325048 0.0003239 0.000326586 0.000324789 0.000326195 0.000327349 0.000325308 0.000324025 0.000326546 0.000324782 0.000325939 0.000327228 0.00032544 0.000324125 0.00032651 0.000324786 0.000325797 0.000327118 0.000325499 0.000324215 0.00032647 0.000324792 0.000325719 0.000327007 0.000325519 0.000324301 0.000326428 0.000324773 0.000325677 0.000326898 0.000325479 0.00032434 0.000326409 0.00032483 0.000325681 0.000326824 0.000325502 0.000324461 0.000326343 0.000324885 0.000325658 0.000326702 0.000325515 0.000324566 0.000326273 0.00032494 0.000325636 0.000326587 0.000325523 0.000324669 0.000326205 0.000324997 0.00032562 0.000326476 0.000325528 0.000324759 0.000326138 0.00032505 0.000325604 0.000326375 0.000325533 0.000324845 0.000326074 0.000325101 0.000325593 0.000326282 0.000325537 0.000324919 0.000326018 0.000325148 0.000325578 0.000326197 0.000325541 0.000324992 0.000325962 0.00032519 0.000325567 0.000326117 0.000325544 0.000325055 0.000325913 0.000325232 0.000325556 0.000326045 0.000325546 0.000325118 0.000325863 0.000325268 0.000325547 0.000325977 0.000325547 0.00032517 0.000325822 0.000325303 0.000325537 0.000325914 0.000325549 0.000325224 0.000325781 0.000325332 0.000325531 0.000325857 0.000325548 0.000325269 0.000325744 0.000325361 0.000325525 0.000325803 0.000325549 0.000325314 0.000325708 0.000325386 0.000325521 0.000325756 0.000325548 0.00032535 0.000325678 0.000325411 0.000325514 0.000325712 0.000325548 0.000325386 0.000325648 0.000325431 0.000325513 0.000325675 0.000325546 0.000325415 0.000325625 0.00032545 0.000325509 0.00032564 0.000325545 0.000325442 0.000325602 0.000325464 0.000325508 0.000325611 0.000325542 0.000325463 0.000325584 0.000325479 0.000325507 0.000325586 0.00032554 0.000325483 0.000325567 0.000325488 0.000325508 0.000325565 0.000325536 0.000325497 0.000325556 0.000325497 0.000325508 0.000325548 0.000325534 0.00032551 0.000325546 0.000325501 0.000325512 0.000325536 0.000325531 0.000325515 0.000325542 0.000325504 0.000325511 0.000325528 0.00032553 0.000325521 0.000325538 0.0003255 0.000325515 0.000325524 0.000325527 0.000325516 0.000325542 0.000325494 0.000325516 0.000325526 0.000325522 0.000325508 0.000326835 0.000324827 0.000328361 0.000328361 0.000323925 0.000323097 0.00032694 0.000324735 0.00032722 0.000328059 0.000324694 0.000323564 0.000326933 0.000324711 0.000326616 0.000327758 0.000325106 0.000323888 0.000326875 0.000324729 0.000326272 0.0003275 0.000325336 0.00032413 0.000326796 0.000324762 0.000326061 0.000327275 0.000325472 0.00032432 0.000326707 0.0003248 0.000325919 0.000327078 0.000325548 0.000324473 0.000326613 0.000324839 0.000325817 0.000326897 0.000325585 0.000324595 0.000326518 0.000324874 0.000325746 0.000326741 0.000325598 0.000324688 0.00032643 0.000324929 0.000325694 0.000326606 0.00032561 0.000324789 0.000326343 0.000324986 0.000325655 0.000326478 0.00032562 0.00032488 0.000326259 0.000325041 0.000325624 0.000326367 0.000325623 0.00032496 0.000326181 0.000325096 0.0003256 0.000326265 0.000325627 0.000325032 0.00032611 0.000325146 0.000325579 0.000326175 0.000325625 0.000325098 0.000326045 0.000325187 0.000325562 0.00032609 0.000325626 0.000325157 0.000325983 0.000325232 0.000325546 0.000326015 0.000325625 0.00032521 0.000325927 0.000325268 0.000325532 0.000325947 0.000325624 0.00032526 0.000325875 0.000325305 0.000325519 0.000325884 0.00032562 0.000325305 0.000325827 0.000325334 0.000325509 0.000325825 0.000325619 0.000325345 0.000325782 0.000325365 0.0003255 0.000325773 0.000325614 0.000325383 0.000325741 0.000325391 0.000325493 0.000325723 0.00032561 0.000325416 0.000325703 0.000325417 0.000325487 0.000325681 0.000325604 0.000325445 0.000325668 0.000325437 0.000325482 0.000325641 0.000325601 0.00032547 0.000325639 0.000325458 0.000325478 0.000325608 0.000325593 0.000325493 0.000325611 0.000325474 0.000325477 0.000325578 0.000325589 0.000325511 0.000325587 0.000325488 0.000325475 0.000325553 0.000325582 0.000325525 0.000325567 0.000325499 0.000325476 0.000325533 0.000325576 0.000325536 0.000325551 0.000325509 0.000325476 0.000325516 0.000325568 0.000325544 0.000325537 0.000325514 0.00032548 0.000325504 0.000325562 0.000325546 0.000325528 0.000325519 0.000325485 0.0003255 0.000325553 0.000325546 0.000325523 0.000325516 0.000325491 0.000325498 0.000325547 0.00032554 0.000325523 0.000325514 0.000325496 0.000325503 0.000325536 0.000325531 0.00032553 0.000325503 0.000325505 0.000325511 0.000325529 0.000325517 0.000326225 0.000323175 0.000324265 0.000324265 0.000325936 0.000324887 0.000326756 0.000323795 0.000325184 0.000326228 0.000325386 0.000324238 0.000326431 0.000324072 0.00032526 0.000326412 0.000325187 0.000324115 0.00032629 0.000324216 0.000325387 0.000326462 0.00032508 0.000324064 0.000326222 0.000324306 0.000325484 0.000326503 0.000325013 0.000324045 0.000326178 0.00032438 0.000325556 0.000326528 0.000324975 0.000324053 0.000326147 0.000324449 0.000325612 0.000326538 0.000324954 0.000324081 0.000326114 0.000324519 0.000325653 0.00032653 0.000324949 0.000324129 0.00032608 0.00032459 0.000325684 0.000326508 0.000324954 0.000324188 0.000326045 0.000324663 0.000325706 0.000326474 0.000324966 0.00032426 0.000326008 0.000324733 0.000325721 0.000326431 0.000324985 0.000324336 0.00032597 0.000324804 0.00032573 0.000326382 0.000325009 0.000324417 0.000325932 0.000324872 0.000325733 0.000326328 0.000325036 0.000324499 0.000325894 0.000324938 0.000325733 0.000326272 0.000325065 0.000324583 0.000325857 0.000325 0.000325729 0.000326214 0.000325097 0.000324665 0.000325822 0.000325061 0.000325723 0.000326157 0.00032513 0.000324746 0.000325788 0.000325116 0.000325714 0.000326098 0.000325163 0.000324825 0.000325756 0.000325171 0.000325703 0.000326042 0.000325194 0.0003249 0.000325725 0.000325219 0.000325692 0.000325986 0.000325226 0.000324972 0.000325698 0.000325265 0.000325679 0.000325933 0.000325258 0.000325042 0.000325671 0.000325307 0.000325666 0.000325883 0.000325288 0.000325106 0.000325647 0.000325345 0.000325652 0.000325834 0.000325318 0.000325167 0.000325625 0.000325378 0.000325639 0.000325789 0.000325346 0.000325224 0.000325605 0.00032541 0.000325624 0.000325746 0.000325372 0.000325276 0.000325586 0.000325436 0.000325609 0.000325706 0.000325399 0.000325323 0.000325571 0.000325462 0.000325595 0.000325671 0.000325423 0.000325366 0.000325557 0.000325479 0.00032558 0.000325637 0.000325445 0.000325404 0.000325546 0.000325496 0.000325567 0.000325608 0.000325465 0.000325438 0.000325537 0.000325508 0.000325555 0.000325582 0.000325483 0.000325465 0.000325532 0.000325516 0.000325543 0.000325561 0.000325499 0.000325487 0.000325528 0.00032552 0.000325532 0.000325544 0.000325512 0.000325503 0.000325528 0.000325521 0.000325523 0.000325532 0.000325523 0.000325517 0.000325969 0.000324464 0.000324574 0.000324574 0.000326445 0.000325757 0.0003261 0.000323762 0.000324791 0.000325477 0.000325327 0.000324271 0.000326584 0.000324019 0.000325461 0.00032652 0.000325186 0.000324035 0.000326424 0.000324204 0.000325485 0.000326641 0.000325104 0.000323981 0.000326328 0.000324323 0.000325542 0.00032667 0.000325059 0.000323979 0.000326266 0.000324411 0.000325594 0.000326678 0.000325031 0.000324002 0.000326215 0.000324487 0.000325633 0.000326666 0.00032502 0.000324048 0.000326171 0.000324558 0.000325666 0.000326641 0.000325018 0.000324109 0.000326129 0.00032463 0.000325689 0.000326601 0.000325024 0.00032418 0.000326086 0.0003247 0.000325706 0.000326553 0.000325037 0.000324259 0.000326042 0.000324769 0.000325716 0.000326497 0.000325054 0.000324341 0.000326001 0.000324836 0.000325722 0.000326438 0.000325076 0.000324426 0.000325958 0.000324901 0.000325723 0.000326375 0.000325099 0.000324511 0.000325919 0.000324964 0.000325721 0.000326311 0.000325125 0.000324597 0.000325879 0.000325024 0.000325717 0.000326247 0.000325151 0.000324679 0.000325842 0.000325081 0.000325711 0.000326184 0.000325179 0.00032476 0.000325807 0.000325133 0.000325702 0.000326122 0.000325207 0.000324838 0.000325773 0.000325182 0.000325693 0.000326063 0.000325235 0.000324911 0.000325741 0.000325228 0.000325681 0.000326005 0.000325262 0.000324981 0.000325713 0.000325271 0.000325669 0.000325951 0.000325289 0.000325049 0.000325686 0.00032531 0.000325657 0.000325898 0.000325314 0.000325111 0.000325661 0.000325345 0.000325645 0.000325849 0.00032534 0.000325169 0.000325638 0.000325377 0.000325633 0.000325804 0.000325363 0.000325224 0.000325618 0.000325405 0.000325621 0.00032576 0.000325387 0.000325274 0.000325599 0.000325431 0.000325607 0.000325721 0.000325408 0.000325318 0.000325583 0.000325453 0.000325594 0.000325685 0.000325429 0.000325359 0.000325569 0.000325471 0.000325581 0.000325651 0.000325448 0.000325395 0.000325558 0.000325487 0.000325568 0.000325621 0.000325466 0.000325428 0.000325549 0.000325498 0.000325557 0.000325595 0.000325481 0.000325455 0.000325542 0.000325507 0.000325547 0.000325573 0.000325496 0.000325478 0.000325537 0.000325513 0.000325536 0.000325554 0.000325508 0.000325497 0.000325536 0.000325515 0.000325528 0.000325539 0.00032552 0.000325513 0.000326005 0.000324681 0.000324978 0.000324978 0.000326088 0.000325531 0.000326098 0.000324495 0.000325054 0.00032561 0.000325815 0.000324846 0.00032618 0.000324071 0.000325183 0.000326149 0.000325188 0.000324048 0.000326491 0.000324204 0.000325577 0.000326724 0.000325138 0.000323959 0.000326409 0.000324325 0.000325599 0.000326784 0.000325108 0.000323963 0.000326341 0.000324423 0.000325631 0.00032678 0.000325093 0.000324001 0.000326284 0.000324506 0.000325659 0.000326755 0.000325085 0.000324055 0.000326228 0.000324585 0.00032568 0.000326713 0.000325088 0.000324125 0.000326178 0.000324658 0.000325695 0.000326661 0.000325096 0.000324203 0.000326128 0.00032473 0.000325706 0.000326602 0.000325108 0.000324287 0.000326079 0.000324798 0.000325712 0.000326535 0.000325123 0.000324374 0.000326031 0.000324864 0.000325715 0.000326466 0.000325142 0.000324461 0.000325985 0.000324928 0.000325714 0.000326396 0.000325162 0.000324547 0.000325942 0.000324989 0.00032571 0.000326326 0.000325185 0.000324633 0.000325898 0.000325046 0.000325704 0.000326257 0.000325208 0.000324713 0.00032586 0.0003251 0.000325697 0.000326192 0.000325231 0.000324792 0.000325822 0.00032515 0.000325687 0.000326127 0.000325255 0.000324867 0.000325788 0.000325198 0.000325678 0.000326066 0.000325278 0.00032494 0.000325754 0.00032524 0.000325667 0.000326006 0.0003253 0.000325006 0.000325724 0.00032528 0.000325656 0.000325951 0.000325323 0.00032507 0.000325696 0.000325316 0.000325646 0.000325899 0.000325344 0.000325128 0.000325671 0.00032535 0.000325634 0.000325851 0.000325365 0.000325184 0.000325647 0.00032538 0.000325624 0.000325805 0.000325385 0.000325235 0.000325626 0.000325407 0.000325612 0.000325763 0.000325404 0.000325281 0.000325607 0.00032543 0.0003256 0.000325724 0.000325422 0.000325323 0.000325591 0.00032545 0.00032559 0.000325689 0.000325439 0.000325361 0.000325575 0.000325468 0.000325578 0.000325656 0.000325456 0.000325395 0.000325565 0.000325482 0.000325567 0.000325628 0.000325472 0.000325426 0.000325554 0.000325494 0.000325557 0.000325602 0.000325485 0.000325452 0.000325547 0.000325503 0.000325546 0.000325579 0.000325498 0.000325473 0.000325542 0.000325507 0.000325536 0.000325561 0.000325508 0.000325491 0.000325544 0.00032551 0.000325529 0.000325547 0.000325519 0.000325506 0.000326101 0.000324752 0.000325416 0.000325416 0.000325788 0.000325237 0.000326196 0.000324612 0.000325342 0.000325893 0.000325664 0.000324745 0.000326221 0.000324513 0.000325346 0.000326264 0.000325514 0.000324399 0.000326277 0.000324271 0.000325428 0.000326542 0.000325178 0.000323996 0.000326453 0.000324353 0.000325652 0.00032684 0.000325159 0.000323981 0.0003264 0.000324444 0.000325669 0.000326851 0.00032515 0.000324024 0.00032634 0.00032453 0.000325684 0.000326814 0.000325152 0.000324091 0.000326282 0.00032461 0.000325697 0.00032676 0.000325155 0.00032417 0.000326225 0.000324685 0.000325705 0.000326693 0.000325165 0.000324254 0.00032617 0.000324758 0.000325709 0.000326622 0.000325178 0.000324343 0.000326114 0.000324826 0.00032571 0.000326546 0.000325191 0.000324433 0.000326062 0.000324893 0.000325709 0.000326469 0.000325208 0.000324521 0.000326012 0.000324955 0.000325705 0.000326393 0.000325225 0.000324606 0.000325965 0.000325014 0.000325699 0.000326318 0.000325245 0.00032469 0.000325919 0.00032507 0.000325691 0.000326247 0.000325264 0.000324768 0.000325877 0.000325121 0.000325682 0.000326178 0.000325284 0.000324844 0.000325838 0.000325169 0.000325672 0.000326112 0.000325303 0.000324916 0.000325801 0.000325212 0.000325663 0.00032605 0.000325322 0.000324984 0.000325766 0.000325253 0.000325653 0.000325992 0.00032534 0.000325047 0.000325735 0.000325291 0.000325642 0.000325936 0.000325358 0.000325107 0.000325705 0.000325325 0.000325633 0.000325885 0.000325376 0.000325161 0.000325679 0.000325356 0.000325622 0.000325837 0.000325393 0.000325212 0.000325655 0.000325384 0.000325612 0.000325793 0.000325408 0.000325259 0.000325633 0.00032541 0.000325603 0.000325752 0.000325424 0.000325303 0.000325612 0.000325431 0.000325593 0.000325714 0.000325437 0.00032534 0.000325596 0.000325451 0.000325583 0.00032568 0.000325452 0.000325376 0.000325581 0.000325467 0.000325574 0.00032565 0.000325464 0.000325406 0.000325568 0.00032548 0.000325565 0.000325624 0.000325477 0.000325434 0.000325559 0.000325491 0.000325556 0.000325599 0.000325488 0.000325456 0.000325552 0.000325498 0.000325547 0.000325579 0.0003255 0.000325476 0.000325548 0.000325502 0.000325538 0.000325562 0.000325508 0.00032549 0.00032555 0.000325502 0.000325532 0.000325549 0.000325516 0.000325504 0.000326229 0.000324782 0.000325887 0.000325887 0.000325475 0.000324883 0.000326319 0.000324642 0.000325651 0.000326243 0.000325502 0.000324567 0.000326336 0.00032458 0.000325551 0.000326486 0.000325459 0.000324353 0.000326334 0.00032454 0.00032554 0.000326645 0.000325389 0.000324213 0.000326358 0.000324419 0.000325584 0.00032676 0.000325215 0.000324038 0.000326441 0.000324484 0.000325705 0.000326886 0.000325211 0.000324073 0.000326391 0.000324563 0.000325711 0.000326852 0.000325215 0.000324145 0.000326332 0.000324642 0.000325714 0.000326786 0.000325223 0.000324232 0.000326271 0.000324717 0.000325715 0.000326708 0.000325233 0.000324322 0.000326209 0.000324791 0.000325712 0.000326625 0.000325248 0.000324416 0.000326149 0.00032486 0.000325707 0.000326541 0.000325261 0.000324506 0.000326091 0.000324925 0.000325701 0.000326457 0.000325277 0.000324595 0.000326036 0.000324986 0.000325692 0.000326375 0.000325292 0.000324679 0.000325985 0.000325044 0.000325683 0.000326296 0.000325309 0.00032476 0.000325936 0.000325097 0.000325673 0.000326222 0.000325324 0.000324836 0.000325892 0.000325146 0.000325663 0.000326151 0.000325341 0.000324909 0.000325849 0.000325191 0.000325652 0.000326084 0.000325356 0.000324977 0.00032581 0.000325234 0.000325642 0.000326022 0.000325372 0.00032504 0.000325773 0.000325273 0.000325632 0.000325963 0.000325386 0.0003251 0.00032574 0.000325307 0.000325622 0.000325908 0.0003254 0.000325155 0.000325708 0.00032534 0.000325613 0.000325859 0.000325412 0.000325205 0.00032568 0.000325369 0.000325604 0.000325812 0.000325425 0.000325251 0.000325654 0.000325395 0.000325595 0.000325769 0.000325438 0.000325294 0.000325632 0.000325419 0.000325588 0.000325731 0.000325449 0.000325333 0.00032561 0.000325439 0.000325579 0.000325695 0.000325459 0.000325366 0.000325593 0.000325457 0.000325572 0.000325665 0.00032547 0.000325398 0.000325578 0.000325472 0.000325565 0.000325637 0.000325479 0.000325423 0.000325566 0.000325484 0.000325557 0.000325612 0.000325487 0.000325446 0.000325557 0.000325493 0.00032555 0.000325591 0.000325496 0.000325464 0.000325551 0.000325499 0.000325543 0.000325575 0.000325505 0.000325481 0.000325547 0.000325501 0.000325536 0.000325559 0.000325511 0.000325493 0.00032555 0.000325498 0.000325531 0.000325549 0.000325516 0.0003255 0.000326389 0.000324785 0.000326401 0.000326401 0.000325137 0.000324461 0.000326465 0.000324636 0.000325985 0.000326662 0.00032531 0.000324318 0.00032647 0.000324588 0.000325781 0.000326775 0.000325376 0.000324242 0.000326449 0.000324584 0.000325695 0.000326829 0.000325379 0.000324202 0.000326426 0.000324586 0.000325671 0.000326847 0.000325358 0.000324188 0.000326416 0.000324544 0.000325683 0.000326852 0.000325275 0.000324148 0.000326435 0.000324606 0.000325739 0.000326867 0.000325282 0.00032422 0.000326377 0.00032468 0.000325731 0.000326795 0.000325294 0.000324314 0.00032631 0.000324757 0.000325721 0.000326703 0.000325309 0.000324413 0.000326243 0.000324829 0.000325711 0.000326609 0.000325322 0.000324511 0.000326178 0.000324897 0.000325701 0.000326513 0.000325336 0.000324604 0.000326115 0.000324962 0.000325689 0.000326422 0.00032535 0.000324692 0.000326056 0.000325021 0.000325675 0.000326334 0.000325363 0.000324774 0.000326001 0.000325077 0.000325663 0.000326252 0.000325377 0.000324852 0.000325949 0.000325128 0.00032565 0.000326176 0.00032539 0.000324925 0.000325901 0.000325174 0.000325638 0.000326104 0.000325403 0.000324992 0.000325855 0.000325218 0.000325627 0.000326038 0.000325414 0.000325055 0.000325814 0.000325258 0.000325616 0.000325975 0.000325425 0.000325114 0.000325776 0.000325295 0.000325607 0.000325918 0.000325435 0.000325167 0.000325741 0.000325328 0.000325597 0.000325865 0.000325445 0.000325217 0.000325709 0.000325359 0.000325588 0.000325816 0.000325453 0.000325263 0.000325678 0.000325386 0.000325582 0.000325772 0.000325462 0.000325305 0.000325651 0.00032541 0.000325575 0.000325732 0.000325469 0.000325341 0.000325629 0.000325433 0.000325568 0.000325696 0.000325477 0.000325374 0.000325607 0.000325451 0.000325561 0.000325664 0.000325482 0.000325403 0.000325589 0.000325468 0.000325556 0.000325636 0.000325488 0.000325429 0.000325573 0.000325481 0.000325552 0.000325611 0.000325494 0.00032545 0.000325562 0.00032549 0.000325546 0.000325591 0.0003255 0.000325469 0.000325552 0.000325498 0.000325542 0.000325573 0.000325505 0.000325483 0.000325546 0.000325502 0.000325538 0.000325559 0.000325511 0.000325495 0.000325544 0.000325503 0.000325533 0.000325548 0.000325514 0.000325502 0.000325549 0.000325495 0.00032553 0.000325542 0.000325515 0.000325503 0.000326586 0.000324752 0.000326984 0.000326984 0.000324751 0.000323933 0.000326628 0.000324604 0.000326345 0.000327168 0.000325091 0.000323995 0.000326618 0.000324569 0.000326038 0.000327136 0.00032526 0.000324066 0.000326578 0.000324588 0.000325876 0.00032707 0.000325342 0.000324138 0.000326532 0.000324622 0.000325792 0.000326996 0.000325375 0.000324204 0.000326485 0.000324657 0.000325749 0.000326919 0.000325386 0.000324272 0.000326442 0.000324667 0.000325731 0.000326845 0.000325358 0.000324318 0.000326412 0.000324735 0.000325738 0.00032678 0.000325375 0.000324418 0.000326341 0.000324807 0.000325718 0.000326676 0.000325391 0.000324525 0.000326271 0.000324879 0.0003257 0.000326567 0.000325408 0.000324625 0.000326198 0.000324945 0.00032568 0.000326464 0.000325419 0.000324718 0.00032613 0.000325009 0.000325663 0.000326364 0.000325433 0.000324806 0.000326066 0.000325066 0.000325646 0.000326274 0.000325444 0.000324885 0.000326008 0.000325119 0.00032563 0.00032619 0.000325455 0.00032496 0.000325953 0.000325167 0.000325616 0.000326112 0.000325464 0.000325026 0.000325902 0.000325212 0.000325602 0.000326041 0.000325474 0.000325089 0.000325855 0.000325253 0.00032559 0.000325975 0.00032548 0.000325146 0.000325811 0.00032529 0.00032558 0.000325914 0.000325488 0.000325199 0.000325771 0.000325324 0.00032557 0.000325859 0.000325493 0.000325246 0.000325734 0.000325355 0.000325562 0.000325809 0.000325498 0.000325292 0.0003257 0.000325383 0.000325555 0.000325762 0.000325503 0.00032533 0.000325669 0.00032541 0.000325548 0.000325721 0.000325507 0.000325367 0.000325641 0.000325433 0.000325544 0.000325683 0.000325509 0.000325397 0.000325617 0.000325452 0.000325538 0.000325651 0.000325513 0.000325427 0.000325595 0.000325468 0.000325535 0.000325622 0.000325514 0.000325448 0.000325576 0.000325483 0.000325532 0.000325598 0.000325516 0.000325469 0.000325561 0.000325495 0.000325531 0.000325577 0.000325517 0.000325485 0.000325549 0.000325503 0.000325529 0.000325561 0.000325519 0.000325498 0.00032554 0.000325509 0.000325528 0.000325549 0.000325519 0.000325505 0.000325535 0.000325511 0.000325526 0.000325539 0.000325519 0.000325511 0.000325536 0.000325509 0.000325526 0.000325535 0.000325521 0.000325512 0.000325538 0.0003255 0.000325524 0.000325533 0.000325519 0.000325506 0.000326812 0.000324667 0.000327786 0.000327786 0.000324287 0.000323308 0.000326944 0.000324537 0.000326821 0.000327811 0.000324827 0.000323638 0.000326935 0.000324539 0.000326394 0.000327593 0.000325121 0.000323899 0.00032687 0.000324585 0.000326154 0.000327382 0.000325286 0.000324105 0.000326782 0.000324646 0.000326008 0.000327193 0.000325384 0.000324272 0.000326688 0.00032471 0.00032591 0.000327024 0.000325442 0.000324412 0.00032659 0.000324771 0.000325838 0.00032687 0.000325477 0.000324532 0.000326493 0.000324816 0.000325785 0.000326731 0.000325484 0.000324626 0.000326408 0.000324886 0.000325748 0.000326607 0.000325505 0.00032473 0.000326319 0.000324952 0.000325711 0.000326486 0.000325519 0.000324827 0.000326237 0.000325015 0.000325682 0.000326374 0.00032553 0.000324911 0.000326158 0.000325073 0.000325656 0.000326274 0.000325537 0.000324989 0.000326089 0.000325126 0.000325633 0.000326182 0.000325543 0.000325059 0.000326025 0.000325174 0.000325615 0.000326099 0.00032555 0.000325121 0.000325963 0.000325219 0.000325595 0.000326023 0.000325554 0.000325178 0.000325909 0.000325258 0.00032558 0.000325956 0.000325557 0.00032523 0.000325857 0.000325295 0.000325564 0.000325891 0.000325559 0.000325277 0.000325811 0.00032533 0.000325553 0.000325834 0.00032556 0.00032532 0.000325767 0.000325361 0.000325541 0.000325781 0.000325561 0.000325359 0.000325727 0.00032539 0.000325532 0.000325734 0.000325561 0.000325394 0.000325689 0.000325415 0.000325523 0.00032569 0.00032556 0.000325425 0.000325656 0.000325439 0.000325519 0.000325654 0.000325559 0.000325452 0.000325627 0.00032546 0.000325512 0.000325619 0.000325557 0.000325477 0.0003256 0.000325477 0.00032551 0.00032559 0.000325556 0.000325496 0.000325578 0.000325492 0.000325505 0.000325564 0.000325552 0.000325513 0.000325558 0.000325505 0.000325505 0.000325544 0.000325549 0.000325525 0.000325542 0.000325514 0.000325503 0.000325528 0.000325545 0.000325534 0.000325529 0.000325521 0.000325506 0.000325517 0.00032554 0.000325539 0.000325522 0.000325524 0.000325507 0.000325508 0.000325536 0.00032554 0.000325518 0.000325524 0.000325511 0.000325507 0.000325532 0.000325537 0.000325519 0.000325519 0.000325512 0.000325508 0.000325529 0.00032553 0.000325527 0.000325508 0.000325517 0.000325516 0.000325522 0.000325518 
SCALARS volume_diff float 1
LOOKUP_TABLE default
-2.82676e-07 -2.49418e-06 -1.32727e-06 -1.32727e-06 -5.51459e-07 -1.70717e-06 9.90151e-07 -1.37611e-06 1.38146e-07 1.35488e-06 -3.92882e-07 -1.5879e-06 1.0359e-06 -1.27213e-06 4.95153e-08 1.25954e-06 -3.63429e-07 -1.5223e-06 9.94459e-07 -1.20862e-06 6.72493e-08 1.23435e-06 -3.64535e-07 -1.4674e-06 9.39937e-07 -1.14442e-06 9.49561e-08 1.20412e-06 -3.70317e-07 -1.41189e-06 8.83709e-07 -1.07562e-06 1.21809e-07 1.16858e-06 -3.75789e-07 -1.35135e-06 8.26394e-07 -1.00639e-06 1.42958e-07 1.12314e-06 -3.7705e-07 -1.28678e-06 7.69156e-07 -9.34737e-07 1.58946e-07 1.07273e-06 -3.74411e-07 -1.21693e-06 7.1188e-07 -8.64442e-07 1.69384e-07 1.01545e-06 -3.67523e-07 -1.14456e-06 6.56505e-07 -7.93099e-07 1.76602e-07 9.56779e-07 -3.58637e-07 -1.06858e-06 6.01557e-07 -7.26063e-07 1.79435e-07 8.92052e-07 -3.44512e-07 -9.93333e-07 5.49403e-07 -6.58367e-07 1.7959e-07 8.30817e-07 -3.29766e-07 -9.16945e-07 4.98219e-07 -5.95445e-07 1.76951e-07 7.6609e-07 -3.12207e-07 -8.41935e-07 4.49208e-07 -5.32542e-07 1.72566e-07 7.04002e-07 -2.94279e-07 -7.67449e-07 4.01982e-07 -4.74528e-07 1.65737e-07 6.40323e-07 -2.74934e-07 -6.95465e-07 3.57434e-07 -4.18843e-07 1.58907e-07 5.80602e-07 -2.55376e-07 -6.25053e-07 3.15097e-07 -3.67368e-07 1.50253e-07 5.20842e-07 -2.3481e-07 -5.57959e-07 2.75012e-07 -3.17814e-07 1.41755e-07 4.65661e-07 -2.1467e-07 -4.94183e-07 2.38457e-07 -2.72373e-07 1.31122e-07 4.11179e-07 -1.9422e-07 -4.33046e-07 2.04076e-07 -2.28155e-07 1.2146e-07 3.60732e-07 -1.76272e-07 -3.75245e-07 1.71441e-07 -1.90688e-07 1.10905e-07 3.10208e-07 -1.56094e-07 -3.20782e-07 1.41833e-07 -1.53532e-07 1.01475e-07 2.66358e-07 -1.38224e-07 -2.70782e-07 1.15212e-07 -1.21538e-07 8.9989e-08 2.22703e-07 -1.19772e-07 -2.24953e-07 9.14636e-08 -9.11144e-08 8.0443e-08 1.8576e-07 -1.02504e-07 -1.81142e-07 6.92671e-08 -6.79865e-08 6.92671e-08 1.47925e-07 -8.62055e-08 -1.43307e-07 5.09123e-08 -4.51497e-08 5.99539e-08 1.17036e-07 -7.00626e-08 -1.07587e-07 3.48082e-08 -2.77068e-08 4.90885e-08 8.6613e-08 -5.5045e-08 -7.84833e-08 2.23905e-08 -1.31937e-08 4.00081e-08 6.34852e-08 -4.15215e-08 -5.2872e-08 1.35042e-08 -4.17155e-09 2.96471e-08 4.09394e-08 -2.87158e-08 -3.22859e-08 5.27749e-09 3.8029e-09 2.15756e-08 2.51069e-08 -1.73459e-08 -1.52504e-08 5.04466e-10 5.3163e-09 1.2146e-08 1.00505e-08 -7.48939e-09 -5.19988e-09 -2.42532e-09 7.21775e-09 5.54913e-09 3.18202e-09 -3.72529e-09 1.82384e-09 2.52388e-07 -8.5218e-07 -2.59994e-07 -2.59994e-07 1.95539e-07 -1.15028e-06 7.38888e-07 -1.03621e-06 5.97987e-08 1.35267e-06 -1.84557e-07 -1.4892e-06 1.04467e-06 -1.19813e-06 1.52e-07 1.45515e-06 -2.17658e-07 -1.44683e-06 1.01801e-06 -1.1469e-06 1.50137e-07 1.38045e-06 -2.24235e-07 -1.38218e-06 9.62832e-07 -1.07513e-06 1.56152e-07 1.31662e-06 -2.33471e-07 -1.32079e-06 9.04896e-07 -1.00106e-06 1.64456e-07 1.25503e-06 -2.41581e-07 -1.25992e-06 8.48978e-07 -9.2977e-07 1.70238e-07 1.19221e-06 -2.481e-07 -1.19793e-06 7.93099e-07 -8.59591e-07 1.75166e-07 1.12865e-06 -2.50739e-07 -1.13276e-06 7.38616e-07 -7.92439e-07 1.75865e-07 1.06144e-06 -2.50856e-07 -1.06578e-06 6.83707e-07 -7.26005e-07 1.76563e-07 9.94847e-07 -2.46839e-07 -9.96302e-07 6.30738e-07 -6.63335e-07 1.74235e-07 9.26666e-07 -2.41756e-07 -9.27597e-07 5.78739e-07 -6.02993e-07 1.70548e-07 8.59029e-07 -2.33607e-07 -8.58447e-07 5.28642e-07 -5.4558e-07 1.64107e-07 7.91236e-07 -2.24604e-07 -7.8949e-07 4.80562e-07 -4.90128e-07 1.58868e-07 7.25694e-07 -2.137e-07 -7.21018e-07 4.32987e-07 -4.38575e-07 1.51573e-07 6.60541e-07 -2.02524e-07 -6.56e-07 3.8809e-07 -3.88342e-07 1.43889e-07 5.98763e-07 -1.8997e-07 -5.91739e-07 3.46374e-07 -3.42164e-07 1.35469e-07 5.38382e-07 -1.77436e-07 -5.31339e-07 3.04892e-07 -2.98023e-07 1.26776e-07 4.8161e-07 -1.64844e-07 -4.72685e-07 2.67794e-07 -2.57802e-07 1.17153e-07 4.25731e-07 -1.50564e-07 -4.16282e-07 2.3155e-07 -2.20025e-07 1.07839e-07 3.74081e-07 -1.37467e-07 -3.63701e-07 1.9907e-07 -1.85197e-07 9.83709e-08 3.25032e-07 -1.2472e-07 -3.14865e-07 1.68531e-07 -1.52698e-07 9.01831e-08 2.806e-07 -1.1238e-07 -2.68648e-07 1.40552e-07 -1.24894e-07 8.09863e-08 2.37448e-07 -9.96903e-08 -2.26641e-07 1.15096e-07 -9.83709e-08 7.19447e-08 1.98993e-07 -8.73891e-08 -1.87409e-07 9.32099e-08 -7.63685e-08 6.28643e-08 1.62904e-07 -7.64461e-08 -1.52795e-07 7.27984e-08 -5.60152e-08 5.42495e-08 1.30657e-07 -6.50568e-08 -1.21402e-07 5.60346e-08 -3.98528e-08 4.64109e-08 1.02756e-07 -5.41525e-08 -9.39472e-08 4.21035e-08 -2.62323e-08 3.8029e-08 7.78042e-08 -4.38692e-08 -7.02372e-08 3.06948e-08 -1.72101e-08 3.07725e-08 5.70823e-08 -3.3353e-08 -5.07571e-08 2.0916e-08 -7.06253e-09 2.28562e-08 4.02021e-08 -2.34383e-08 -3.36828e-08 1.40474e-08 -1.10595e-09 1.40474e-08 2.4292e-08 -1.27863e-08 -1.73847e-08 5.70435e-09 5.3551e-09 6.67448e-09 1.12923e-08 -2.63875e-09 -1.22236e-09 7.43195e-07 -5.01149e-07 5.83435e-07 5.83435e-07 1.5328e-08 -1.22514e-06 7.87006e-07 -7.78256e-07 1.59334e-07 1.36582e-06 -1.08615e-07 -1.2302e-06 8.92906e-07 -1.06572e-06 2.23867e-07 1.3295e-06 -1.79008e-07 -1.33658e-06 9.96321e-07 -1.06272e-06 2.42183e-07 1.39935e-06 -1.9973e-07 -1.30736e-06 9.63725e-07 -1.00418e-06 2.31938e-07 1.3413e-06 -2.00836e-07 -1.25436e-06 9.15801e-07 -9.37958e-07 2.21344e-07 1.27766e-06 -1.99749e-07 -1.19454e-06 8.63802e-07 -8.74493e-07 2.1013e-07 1.2082e-06 -1.97266e-07 -1.13311e-06 8.11609e-07 -8.10988e-07 1.99497e-07 1.13889e-06 -1.94026e-07 -1.06759e-06 7.58213e-07 -7.50471e-07 1.88787e-07 1.06578e-06 -1.8836e-07 -1.00067e-06 7.0571e-07 -6.89683e-07 1.79512e-07 9.95002e-07 -1.82927e-07 -9.33011e-07 6.52896e-07 -6.32659e-07 1.69928e-07 9.22902e-07 -1.76408e-07 -8.66033e-07 6.02333e-07 -5.7775e-07 1.60343e-07 8.52587e-07 -1.69578e-07 -7.99676e-07 5.51692e-07 -5.25382e-07 1.50719e-07 7.83165e-07 -1.60847e-07 -7.33824e-07 5.03496e-07 -4.73927e-07 1.41561e-07 7.16536e-07 -1.52174e-07 -6.6964e-07 4.56464e-07 -4.25343e-07 1.31511e-07 6.50684e-07 -1.43851e-07 -6.08115e-07 4.11645e-07 -3.79262e-07 1.22973e-07 5.88674e-07 -1.34964e-07 -5.4851e-07 3.67601e-07 -3.35897e-07 1.13311e-07 5.27982e-07 -1.24817e-07 -4.92029e-07 3.27787e-07 -2.95559e-07 1.03959e-07 4.72103e-07 -1.17308e-07 -4.37566e-07 2.87895e-07 -2.57336e-07 9.55382e-08 4.16456e-07 -1.06578e-07 -3.85548e-07 2.52e-07 -2.22082e-07 8.6419e-08 3.65932e-07 -9.82157e-08 -3.36596e-07 2.17231e-07 -1.89893e-07 7.7455e-08 3.16223e-07 -8.91353e-08 -2.91679e-07 1.86303e-07 -1.59062e-07 7.06641e-08 2.7346e-07 -8.06564e-08 -2.50021e-07 1.58286e-07 -1.31782e-07 6.23986e-08 2.31899e-07 -7.21387e-08 -2.10983e-07 1.31666e-07 -1.07568e-07 5.57629e-08 1.94685e-07 -6.43777e-08 -1.76233e-07 1.08305e-07 -8.63026e-08 4.80795e-08 1.59955e-07 -5.58988e-08 -1.43986e-07 8.71175e-08 -6.73851e-08 4.17155e-08 1.29842e-07 -4.87974e-08 -1.16047e-07 6.93447e-08 -5.10869e-08 3.50798e-08 1.0229e-07 -4.14051e-08 -9.11338e-08 5.44436e-08 -3.83394e-08 2.94143e-08 7.91236e-08 -3.42649e-08 -6.97716e-08 4.14439e-08 -2.76098e-08 2.35547e-08 5.89838e-08 -2.76292e-08 -5.15138e-08 3.1859e-08 -1.96548e-08 1.89757e-08 4.27632e-08 -2.1595e-08 -3.57589e-08 2.24294e-08 -1.31937e-08 1.31161e-08 2.72412e-08 -1.32325e-08 -2.09742e-08 1.55997e-08 -5.04466e-09 7.64461e-09 1.54056e-08 -6.01479e-09 -5.76256e-09 1.2548e-06 -3.14166e-07 1.38228e-06 1.38228e-06 -1.49613e-07 -1.37712e-06 9.24959e-07 -7.94709e-07 3.3093e-07 1.53618e-06 -1.73847e-07 -1.25412e-06 8.76646e-07 -8.32195e-07 3.40476e-07 1.40824e-06 -1.69578e-07 -1.203e-06 9.10833e-07 -9.28936e-07 3.33996e-07 1.36245e-06 -1.79571e-07 -1.23084e-06 9.46728e-07 -9.05304e-07 3.13468e-07 1.36582e-06 -1.7666e-07 -1.19438e-06 9.16965e-07 -8.56138e-07 2.82462e-07 1.30257e-06 -1.63661e-07 -1.13883e-06 8.7327e-07 -8.0344e-07 2.5169e-07 1.22981e-06 -1.50932e-07 -1.0756e-06 8.24453e-07 -7.49404e-07 2.25846e-07 1.15371e-06 -1.37972e-07 -1.00909e-06 7.73619e-07 -6.95717e-07 2.00894e-07 1.07521e-06 -1.2664e-07 -9.40461e-07 7.22085e-07 -6.42904e-07 1.80987e-07 9.97835e-07 -1.16745e-07 -8.71097e-07 6.70824e-07 -5.91953e-07 1.6302e-07 9.20108e-07 -1.08907e-07 -8.04139e-07 6.18786e-07 -5.42107e-07 1.47149e-07 8.44865e-07 -9.99232e-08 -7.39043e-07 5.69581e-07 -4.93834e-07 1.3186e-07 7.73114e-07 -9.26084e-08 -6.74452e-07 5.19678e-07 -4.47171e-07 1.19093e-07 7.02761e-07 -8.49444e-08 -6.12112e-07 4.71288e-07 -4.03263e-07 1.06132e-07 6.3489e-07 -7.80565e-08 -5.53303e-07 4.25537e-07 -3.6048e-07 9.51501e-08 5.71716e-07 -7.15178e-08 -4.96162e-07 3.82308e-07 -3.20608e-07 8.47504e-08 5.10442e-07 -6.60463e-08 -4.42766e-07 3.39739e-07 -2.83588e-07 7.48551e-08 4.5239e-07 -5.94882e-08 -3.92203e-07 3.0136e-07 -2.47829e-07 6.46493e-08 3.98024e-07 -5.52585e-08 -3.44686e-07 2.6372e-07 -2.1595e-07 5.78972e-08 3.4781e-07 -5.00974e-08 -3.00332e-07 2.28834e-07 -1.84887e-07 4.99422e-08 3.00507e-07 -4.49363e-08 -2.58811e-07 1.96199e-07 -1.56288e-07 4.30349e-08 2.57084e-07 -4.04543e-08 -2.20452e-07 1.66357e-07 -1.31433e-07 3.65544e-08 2.16688e-07 -3.53903e-08 -1.8543e-07 1.39233e-07 -1.08383e-07 3.12769e-08 1.81414e-07 -3.23635e-08 -1.54309e-07 1.15717e-07 -8.87861e-08 2.56114e-08 1.47576e-07 -2.85024e-08 -1.26446e-07 9.30158e-08 -7.01596e-08 2.20801e-08 1.20063e-07 -2.46995e-08 -1.00971e-07 7.37297e-08 -5.49868e-08 1.75787e-08 9.37919e-08 -2.06831e-08 -7.82893e-08 5.75868e-08 -4.24722e-08 1.3543e-08 7.11298e-08 -1.74041e-08 -6.00315e-08 4.48975e-08 -3.27515e-08 1.09818e-08 5.35899e-08 -1.48236e-08 -4.55572e-08 3.45365e-08 -2.53591e-08 8.65354e-09 3.93484e-08 -1.24564e-08 -3.27903e-08 2.7474e-08 -2.06831e-08 7.10133e-09 2.73576e-08 -1.13505e-08 -2.28756e-08 2.19249e-08 -1.49012e-08 6.40284e-09 1.78892e-08 -6.94611e-09 -1.33878e-08 1.82043e-06 -2.31259e-07 2.18302e-06 2.18302e-06 -3.53321e-07 -1.56321e-06 1.09896e-06 -8.62793e-07 5.40478e-07 1.73812e-06 -2.75419e-07 -1.33495e-06 9.22359e-07 -7.51655e-07 5.06368e-07 1.55709e-06 -2.20743e-07 -1.20833e-06 8.9632e-07 -7.55089e-07 4.56542e-07 1.4399e-06 -1.81724e-07 -1.15096e-06 9.07108e-07 -7.89374e-07 4.05513e-07 1.37405e-06 -1.58771e-07 -1.13024e-06 9.12619e-07 -7.66867e-07 3.53243e-07 1.32671e-06 -1.33858e-07 -1.07872e-06 8.81148e-07 -7.28643e-07 3.01399e-07 1.2489e-06 -1.07878e-07 -1.0147e-06 8.38772e-07 -6.84503e-07 2.56579e-07 1.16637e-06 -8.62444e-08 -9.44031e-07 7.89956e-07 -6.39877e-07 2.18279e-07 1.07894e-06 -6.72493e-08 -8.72766e-07 7.39043e-07 -5.93408e-07 1.86148e-07 9.94459e-07 -5.21541e-08 -8.02024e-07 6.87394e-07 -5.47579e-07 1.58208e-07 9.10562e-07 -3.95036e-08 -7.33824e-07 6.35977e-07 -5.02119e-07 1.34343e-07 8.30934e-07 -3.00934e-08 -6.67137e-07 5.84754e-07 -4.5986e-07 1.13466e-07 7.5247e-07 -2.17697e-08 -6.03827e-07 5.34773e-07 -4.16456e-07 9.56546e-08 6.79361e-07 -1.54056e-08 -5.43252e-07 4.86073e-07 -3.76526e-07 7.97445e-08 6.09007e-07 -1.09818e-08 -4.86073e-07 4.38381e-07 -3.37682e-07 6.62403e-08 5.42457e-07 -6.88791e-09 -4.32211e-07 3.94027e-07 -3.00895e-07 5.41331e-08 4.80368e-07 -2.94919e-09 -3.81435e-07 3.50177e-07 -2.66242e-07 4.40826e-08 4.23286e-07 -9.70128e-10 -3.34578e-07 3.09122e-07 -2.3481e-07 3.41097e-08 3.6826e-07 2.21189e-09 -2.90165e-07 2.7183e-07 -2.03688e-07 2.63487e-08 3.19172e-07 2.44472e-09 -2.49536e-07 2.3481e-07 -1.75574e-07 1.91309e-08 2.71403e-07 3.57007e-09 -2.12148e-07 2.02019e-07 -1.5004e-07 1.38922e-08 2.29881e-07 3.29843e-09 -1.78271e-07 1.70742e-07 -1.25729e-07 8.84756e-09 1.90572e-07 4.30737e-09 -1.47071e-07 1.42531e-07 -1.04231e-07 5.00586e-09 1.56423e-07 3.91932e-09 -1.18569e-07 1.16803e-07 -8.59533e-08 1.90145e-09 1.24409e-07 4.26856e-09 -9.50725e-08 9.49949e-08 -6.8006e-08 -8.53712e-10 9.84486e-08 3.0268e-09 -7.46416e-08 7.47386e-08 -5.39585e-08 -2.71636e-09 7.49715e-08 2.2895e-09 -5.64808e-08 5.86733e-08 -4.27826e-08 -2.98799e-09 5.56853e-08 1.28057e-09 -4.19095e-08 4.41214e-08 -3.38575e-08 -3.8029e-09 3.93872e-08 7.76102e-11 -2.99381e-08 3.39545e-08 -2.85218e-08 -1.78504e-09 2.81725e-08 -2.63875e-09 -2.28562e-08 2.80949e-08 -2.65427e-08 1.16415e-10 2.02563e-08 -6.13121e-09 -1.90921e-08 2.71248e-08 -2.52233e-08 4.73422e-09 1.75787e-08 -9.74008e-09 -1.60653e-08 2.44228e-06 -2.741e-07 2.97721e-06 2.97721e-06 -6.30079e-07 -1.80126e-06 1.27665e-06 -9.64249e-07 7.85221e-07 1.95442e-06 -4.12615e-07 -1.44524e-06 9.95817e-07 -7.15877e-07 7.04584e-07 1.73214e-06 -3.04562e-07 -1.26167e-06 9.2915e-07 -6.60327e-07 6.10521e-07 1.56489e-06 -2.23032e-07 -1.1524e-06 9.16887e-07 -6.61317e-07 5.16962e-07 1.44584e-06 -1.60964e-07 -1.07964e-06 9.11338e-07 -6.70087e-07 4.3291e-07 1.35271e-06 -1.11565e-07 -1.02383e-06 8.94691e-07 -6.50762e-07 3.5755e-07 1.27211e-06 -7.1285e-08 -9.54179e-07 8.57205e-07 -6.18262e-07 2.92086e-07 1.17754e-06 -3.60499e-08 -8.77519e-07 8.09203e-07 -5.80486e-07 2.36672e-07 1.08068e-06 -8.53712e-09 -8.00743e-07 7.57747e-07 -5.40245e-07 1.9127e-07 9.85844e-07 1.30773e-08 -7.2583e-07 7.04972e-07 -5.00314e-07 1.52931e-07 8.93953e-07 2.93755e-08 -6.5439e-07 6.51771e-07 -4.60403e-07 1.20956e-07 8.06642e-07 4.17931e-08 -5.86694e-07 5.98724e-07 -4.21055e-07 9.37919e-08 7.23948e-07 5.08347e-08 -5.23461e-07 5.4657e-07 -3.82502e-07 7.09357e-08 6.4661e-07 5.71987e-08 -4.63469e-07 4.95813e-07 -3.45851e-07 5.14944e-08 5.73268e-07 6.1118e-08 -4.09297e-07 4.46957e-07 -3.09587e-07 3.4847e-08 5.06174e-07 6.30971e-08 -3.57453e-07 3.99925e-07 -2.75671e-07 2.05667e-08 4.41874e-07 6.47269e-08 -3.09936e-07 3.54562e-07 -2.42881e-07 8.22668e-09 3.83472e-07 6.36792e-08 -2.6661e-07 3.12575e-07 -2.13079e-07 -2.13428e-09 3.2864e-07 6.23598e-08 -2.25399e-07 2.71752e-07 -1.84615e-07 -8.61473e-09 2.79436e-07 6.12345e-08 -1.8803e-07 2.34693e-07 -1.58635e-07 -1.58907e-08 2.33646e-07 5.7354e-08 -1.55958e-07 2.00816e-07 -1.34013e-07 -2.11294e-08 1.92318e-07 5.44048e-08 -1.25321e-07 1.69074e-07 -1.12418e-07 -2.49323e-08 1.5491e-07 4.96705e-08 -9.91665e-08 1.39233e-07 -9.22203e-08 -2.68531e-08 1.22042e-07 4.55184e-08 -7.55924e-08 1.13117e-07 -7.49909e-08 -2.78233e-08 9.32875e-08 4.00469e-08 -5.67137e-08 9.00667e-08 -6.04972e-08 -2.82889e-08 6.84134e-08 3.55067e-08 -4.04931e-08 6.94223e-08 -4.77303e-08 -2.7377e-08 4.8584e-08 2.97635e-08 -2.73188e-08 5.20376e-08 -3.71947e-08 -2.41174e-08 3.29455e-08 2.45636e-08 -1.80444e-08 3.80678e-08 -3.05784e-08 -2.18667e-08 2.06831e-08 1.73847e-08 -1.20102e-08 2.73576e-08 -2.47965e-08 -1.56579e-08 1.36982e-08 1.10207e-08 -8.94458e-09 2.15368e-08 -2.62323e-08 -1.0943e-08 8.92518e-09 1.78504e-09 -1.19714e-08 2.42532e-08 -3.01128e-08 -1.62981e-09 1.20296e-08 -7.78042e-09 -1.86265e-08 2.93076e-06 -4.76236e-07 3.58377e-06 3.58377e-06 -1.00181e-06 -2.11333e-06 1.42787e-06 -1.06671e-06 1.08394e-06 2.20623e-06 -5.81689e-07 -1.59778e-06 1.11177e-06 -7.05826e-07 9.26627e-07 1.942e-06 -4.1861e-07 -1.35612e-06 1.0191e-06 -6.11821e-07 7.93681e-07 1.73059e-06 -2.94919e-07 -1.19952e-06 9.83748e-07 -5.91817e-07 6.5926e-07 1.56423e-06 -1.92279e-07 -1.07967e-06 9.60543e-07 -5.88169e-07 5.37102e-07 1.4257e-06 -1.0945e-07 -9.80314e-07 9.31129e-07 -5.82814e-07 4.30814e-07 1.30342e-06 -4.53244e-08 -8.91897e-07 8.92789e-07 -5.60171e-07 3.40049e-07 1.18868e-06 5.47152e-09 -8.02684e-07 8.41411e-07 -5.28293e-07 2.65388e-07 1.07556e-06 4.48587e-08 -7.16439e-07 7.86968e-07 -4.92689e-07 2.04581e-07 9.67683e-07 7.45058e-08 -6.34153e-07 7.30584e-07 -4.56678e-07 1.54406e-07 8.64694e-07 9.60815e-08 -5.59298e-07 6.73191e-07 -4.19949e-07 1.13117e-07 7.69932e-07 1.11565e-07 -4.8941e-07 6.16342e-07 -3.8386e-07 7.83863e-08 6.80603e-07 1.21809e-07 -4.26255e-07 5.61083e-07 -3.47597e-07 4.99422e-08 5.98996e-07 1.28794e-07 -3.67562e-07 5.06717e-07 -3.13118e-07 2.5883e-08 5.23015e-07 1.31937e-07 -3.14884e-07 4.55184e-07 -2.80289e-07 6.20882e-09 4.53709e-07 1.32481e-07 -2.66087e-07 4.05901e-07 -2.48954e-07 -1.06908e-08 3.88362e-07 1.31006e-07 -2.21888e-07 3.58443e-07 -2.19365e-07 -2.39039e-08 3.29339e-07 1.27514e-07 -1.81918e-07 3.13895e-07 -1.90999e-07 -3.52156e-08 2.74507e-07 1.24254e-07 -1.45383e-07 2.7214e-07 -1.6304e-07 -4.37916e-08 2.25962e-07 1.17735e-07 -1.13117e-07 2.32869e-07 -1.39446e-07 -5.10675e-08 1.799e-07 1.11526e-07 -8.51384e-08 1.96858e-07 -1.17502e-07 -5.47152e-08 1.42027e-07 1.04735e-07 -6.03031e-08 1.63059e-07 -9.74784e-08 -5.74316e-08 1.07684e-07 9.67799e-08 -3.962e-08 1.33296e-07 -7.8852e-08 -5.86151e-08 7.78042e-08 8.74279e-08 -2.13816e-08 1.05511e-07 -6.28643e-08 -5.78002e-08 5.10287e-08 7.82699e-08 -7.45058e-09 8.0637e-08 -4.94183e-08 -5.50644e-08 3.06172e-08 6.90731e-08 4.19095e-09 6.07688e-08 -3.76216e-08 -5.16302e-08 1.32713e-08 5.92942e-08 1.17968e-08 4.31901e-08 -2.81725e-08 -4.60617e-08 1.35818e-09 4.80407e-08 1.60265e-08 2.89098e-08 -2.34577e-08 -3.87275e-08 -6.71328e-09 3.65156e-08 1.52116e-08 1.85488e-08 -1.88981e-08 -2.95695e-08 -8.3237e-09 2.41368e-08 1.15251e-08 1.43579e-08 -2.20219e-08 -2.05667e-08 -7.99385e-09 1.04774e-08 2.71636e-09 1.62205e-08 -3.0656e-08 -7.21775e-09 5.04466e-10 -4.81183e-09 -1.46683e-08 2.36451e-06 -7.61802e-07 3.43837e-06 3.43837e-06 -1.39343e-06 -2.58227e-06 1.65189e-06 -1.12541e-06 1.34731e-06 2.56393e-06 -7.84678e-07 -1.91146e-06 1.36641e-06 -7.80021e-07 1.16508e-06 2.2994e-06 -5.9756e-07 -1.59085e-06 1.24072e-06 -6.53963e-07 1.01669e-06 2.01418e-06 -4.29534e-07 -1.35515e-06 1.16652e-06 -6.0276e-07 8.45641e-07 1.77417e-06 -2.77961e-07 -1.1627e-06 1.10653e-06 -5.75228e-07 6.79245e-07 1.56629e-06 -1.50777e-07 -9.98999e-07 1.04498e-06 -5.51421e-07 5.34502e-07 1.38453e-06 -4.9981e-08 -8.5996e-07 9.81498e-07 -5.25285e-07 4.10597e-07 1.22201e-06 2.84053e-08 -7.38287e-07 9.11842e-07 -4.92805e-07 3.10635e-07 1.07847e-06 8.41683e-08 -6.30641e-07 8.42226e-07 -4.57279e-07 2.30619e-07 9.46379e-07 1.26039e-07 -5.33861e-07 7.72648e-07 -4.21152e-07 1.6659e-07 8.27131e-07 1.55958e-07 -4.501e-07 7.03963e-07 -3.84326e-07 1.14553e-07 7.21038e-07 1.7668e-07 -3.76642e-07 6.39547e-07 -3.49071e-07 7.07029e-08 6.24297e-07 1.89796e-07 -3.11489e-07 5.76993e-07 -3.14108e-07 3.54291e-08 5.36869e-07 1.97906e-07 -2.53048e-07 5.16884e-07 -2.80561e-07 6.24762e-09 4.57318e-07 2.01127e-07 -2.02563e-07 4.60035e-07 -2.48915e-07 -1.80444e-08 3.85645e-07 2.00816e-07 -1.56753e-07 4.06251e-07 -2.19656e-07 -3.7738e-08 3.19793e-07 1.97712e-07 -1.16997e-07 3.553e-07 -1.90378e-07 -5.37257e-08 2.60964e-07 1.92629e-07 -8.11221e-08 3.0656e-07 -1.63952e-07 -6.5503e-08 2.08189e-07 1.8576e-07 -5.02138e-08 2.61508e-07 -1.38806e-07 -7.567e-08 1.60226e-07 1.77689e-07 -2.34771e-08 2.20064e-07 -1.16784e-07 -8.3916e-08 1.17153e-07 1.67599e-07 -6.79089e-10 1.81724e-07 -9.45681e-08 -8.73503e-08 8.0831e-08 1.57355e-07 1.87817e-08 1.4711e-07 -7.61744e-08 -8.9795e-08 4.87392e-08 1.44665e-07 3.33336e-08 1.16299e-07 -5.9236e-08 -9.02801e-08 2.09936e-08 1.32985e-07 4.579e-08 8.80488e-08 -4.46065e-08 -8.81846e-08 -1.00893e-09 1.18938e-07 5.30466e-08 6.34075e-08 -3.11023e-08 -8.39549e-08 -1.8122e-08 1.04735e-07 5.7354e-08 4.24528e-08 -2.1498e-08 -7.80565e-08 -3.06754e-08 9.10368e-08 5.78972e-08 2.5689e-08 -1.41251e-08 -7.05477e-08 -3.74469e-08 7.52819e-08 5.52585e-08 1.1952e-08 -9.72068e-09 -5.96629e-08 -3.96394e-08 5.80136e-08 4.72258e-08 2.71636e-09 -7.54759e-09 -4.64303e-08 -3.56425e-08 4.06289e-08 3.51186e-08 -1.5328e-09 -1.15639e-08 -3.3256e-08 -2.77262e-08 2.33995e-08 1.84712e-08 1.66862e-09 -2.00622e-08 -1.76563e-08 -1.27281e-08 3.37604e-09 -3.22082e-09 7.14014e-08 -2.62255e-06 -1.50444e-06 -1.50444e-06 -1.97848e-07 -1.09167e-06 1.08096e-06 -1.64706e-06 1.00738e-07 1.0068e-06 -4.96919e-07 -1.64955e-06 8.90616e-07 -1.2816e-06 5.83629e-08 1.22884e-06 -4.91195e-07 -1.64012e-06 8.50065e-07 -1.16621e-06 7.64849e-08 1.2368e-06 -4.81339e-07 -1.59103e-06 8.11686e-07 -1.0925e-06 1.04735e-07 1.22275e-06 -4.74354e-07 -1.53426e-06 7.74123e-07 -1.02768e-06 1.28173e-07 1.19465e-06 -4.65875e-07 -1.4672e-06 7.32485e-07 -9.66694e-07 1.46645e-07 1.15333e-06 -4.54253e-07 -1.39413e-06 6.89567e-07 -9.03499e-07 1.5914e-07 1.10354e-06 -4.40244e-07 -1.31501e-06 6.4366e-07 -8.41489e-07 1.67366e-07 1.04588e-06 -4.23383e-07 -1.23367e-06 5.99345e-07 -7.77344e-07 1.71519e-07 9.8499e-07 -4.04446e-07 -1.14815e-06 5.52158e-07 -7.15857e-07 1.73575e-07 9.19992e-07 -3.82735e-07 -1.06386e-06 5.07804e-07 -6.53187e-07 1.71325e-07 8.5476e-07 -3.60402e-07 -9.79557e-07 4.63139e-07 -5.93e-07 1.67522e-07 7.8852e-07 -3.36654e-07 -8.96786e-07 4.19949e-07 -5.32872e-07 1.62399e-07 7.24142e-07 -3.14108e-07 -8.15276e-07 3.7703e-07 -4.77904e-07 1.55686e-07 6.58173e-07 -2.88535e-07 -7.36715e-07 3.38148e-07 -4.23306e-07 1.47188e-07 5.96435e-07 -2.64437e-07 -6.60405e-07 2.99343e-07 -3.72548e-07 1.37797e-07 5.34579e-07 -2.40378e-07 -5.8813e-07 2.63991e-07 -3.23635e-07 1.28872e-07 4.77264e-07 -2.17173e-07 -5.18921e-07 2.29416e-07 -2.79164e-07 1.18821e-07 4.20997e-07 -1.94452e-07 -4.53748e-07 1.97673e-07 -2.36847e-07 1.08538e-07 3.68222e-07 -1.71266e-07 -3.90903e-07 1.67793e-07 -1.99012e-07 9.7556e-08 3.17503e-07 -1.48915e-07 -3.32812e-07 1.40513e-07 -1.62652e-07 8.67682e-08 2.70898e-07 -1.28037e-07 -2.79261e-07 1.13311e-07 -1.30696e-07 7.62132e-08 2.27553e-07 -1.09198e-07 -2.30813e-07 9.23562e-08 -1.01456e-07 6.56582e-08 1.87351e-07 -9.04935e-08 -1.84421e-07 7.12074e-08 -7.68729e-08 5.59958e-08 1.50021e-07 -7.2876e-08 -1.44724e-07 5.44436e-08 -5.37645e-08 4.57124e-08 1.17579e-07 -5.6248e-08 -1.07684e-07 3.76021e-08 -3.78544e-08 3.62828e-08 8.7816e-08 -4.05319e-08 -7.66983e-08 2.7474e-08 -2.21189e-08 2.60382e-08 6.22434e-08 -2.66203e-08 -4.92243e-08 1.60653e-08 -1.20296e-08 1.77339e-08 4.02797e-08 -1.50564e-08 -2.90844e-08 8.84756e-09 -3.25963e-09 9.97291e-09 2.39816e-08 -5.76256e-09 -1.24758e-08 1.66862e-09 1.5522e-10 3.29843e-09 1.00117e-08 -1.22236e-09 -3.0656e-09 -4.85064e-09 3.41485e-09 6.59687e-10 2.48353e-09 -2.09548e-09 -8.92518e-10 3.6341e-07 -8.91295e-07 -5.47967e-07 -5.47967e-07 6.90847e-07 -2.215e-07 2.07918e-07 -1.67512e-06 -5.54622e-07 3.53747e-07 -6.99229e-07 -2.172e-06 9.03693e-07 -1.20711e-06 1.54056e-07 1.64666e-06 -3.79184e-07 -1.74968e-06 9.04586e-07 -1.10259e-06 1.17774e-07 1.49745e-06 -3.32754e-07 -1.62106e-06 8.61551e-07 -1.02521e-06 1.1886e-07 1.41406e-06 -3.21112e-07 -1.52743e-06 8.10949e-07 -9.57458e-07 1.27552e-07 1.33975e-06 -3.137e-07 -1.442e-06 7.6155e-07 -8.92479e-07 1.3477e-07 1.26831e-06 -3.08287e-07 -1.35725e-06 7.12268e-07 -8.29653e-07 1.40863e-07 1.19446e-06 -3.00371e-07 -1.2729e-06 6.63218e-07 -7.68341e-07 1.43113e-07 1.11976e-06 -2.92979e-07 -1.18784e-06 6.14828e-07 -7.08038e-07 1.45442e-07 1.0439e-06 -2.80949e-07 -1.1035e-06 5.68068e-07 -6.48938e-07 1.43928e-07 9.69584e-07 -2.71015e-07 -1.01974e-06 5.21851e-07 -5.93e-07 1.42958e-07 8.94458e-07 -2.56987e-07 -9.38269e-07 4.77963e-07 -5.38382e-07 1.38689e-07 8.2228e-07 -2.43114e-07 -8.57341e-07 4.3388e-07 -4.84618e-07 1.35585e-07 7.51694e-07 -2.27282e-07 -7.80623e-07 3.92747e-07 -4.34811e-07 1.28212e-07 6.83086e-07 -2.137e-07 -7.05263e-07 3.53204e-07 -3.87702e-07 1.22935e-07 6.15837e-07 -1.96858e-07 -6.3297e-07 3.15175e-07 -3.43251e-07 1.15212e-07 5.52391e-07 -1.81783e-07 -5.64653e-07 2.79591e-07 -2.99983e-07 1.08189e-07 4.91894e-07 -1.64922e-07 -4.99461e-07 2.45598e-07 -2.60693e-07 1.0035e-07 4.35549e-07 -1.50156e-07 -4.37547e-07 2.14631e-07 -2.23808e-07 9.24338e-08 3.80329e-07 -1.34712e-07 -3.79126e-07 1.84518e-07 -1.90514e-07 8.40519e-08 3.28834e-07 -1.20335e-07 -3.25536e-07 1.57238e-07 -1.5947e-07 7.55535e-08 2.80988e-07 -1.05822e-07 -2.75943e-07 1.32403e-07 -1.30831e-07 6.84134e-08 2.3869e-07 -9.37531e-08 -2.29765e-07 1.09392e-07 -1.05996e-07 6.10792e-08 1.97208e-07 -7.93564e-08 -1.87953e-07 8.99114e-08 -8.32758e-08 5.23869e-08 1.61041e-07 -6.81418e-08 -1.494e-07 7.11686e-08 -6.35434e-08 4.59841e-08 1.27281e-07 -5.47928e-08 -1.15465e-07 5.49868e-08 -4.67796e-08 3.83394e-08 9.90694e-08 -4.54602e-08 -8.75831e-08 4.23752e-08 -3.40321e-08 3.03844e-08 7.24879e-08 -3.26351e-08 -6.16225e-08 3.27903e-08 -2.34189e-08 2.37875e-08 5.27749e-08 -2.50875e-08 -4.15021e-08 2.32443e-08 -1.41445e-08 1.7928e-08 3.43425e-08 -1.52504e-08 -2.39816e-08 1.46683e-08 -7.46998e-09 1.10207e-08 1.97906e-08 -9.06099e-09 -1.07296e-08 5.70435e-09 4.65661e-10 6.67448e-09 8.3431e-09 -4.98646e-09 -2.13428e-10 5.02449e-07 -6.94592e-07 2.90456e-07 2.90456e-07 2.1855e-07 -5.75402e-07 6.24491e-07 -7.93584e-07 -1.10789e-08 7.84135e-07 -2.96277e-08 -1.51992e-06 7.11569e-07 -9.62561e-07 6.49597e-08 1.54506e-06 -2.19947e-07 -1.67648e-06 9.24803e-07 -9.9896e-07 1.48662e-07 1.61018e-06 -2.17289e-07 -1.53527e-06 9.00317e-07 -9.50686e-07 1.66319e-07 1.48918e-06 -2.11488e-07 -1.44252e-06 8.56506e-07 -8.88521e-07 1.6337e-07 1.3992e-06 -2.07491e-07 -1.35612e-06 8.05905e-07 -8.28567e-07 1.60925e-07 1.3141e-06 -2.03455e-07 -1.27372e-06 7.56428e-07 -7.6871e-07 1.56268e-07 1.23082e-06 -1.9843e-07 -1.19056e-06 7.03963e-07 -7.11841e-07 1.51379e-07 1.14735e-06 -1.92473e-07 -1.10963e-06 6.55185e-07 -6.54642e-07 1.45015e-07 1.06567e-06 -1.85857e-07 -1.02719e-06 6.0501e-07 -6.01712e-07 1.40785e-07 9.85223e-07 -1.7798e-07 -9.48552e-07 5.57823e-07 -5.48471e-07 1.33451e-07 9.06759e-07 -1.69831e-07 -8.70767e-07 5.10792e-07 -4.99519e-07 1.26815e-07 8.30041e-07 -1.60382e-07 -7.96242e-07 4.66631e-07 -4.49771e-07 1.19287e-07 7.57126e-07 -1.51553e-07 -7.22571e-07 4.22626e-07 -4.05494e-07 1.12612e-07 6.85259e-07 -1.40998e-07 -6.52411e-07 3.81881e-07 -3.6178e-07 1.03959e-07 6.1673e-07 -1.31491e-07 -5.85259e-07 3.40554e-07 -3.21073e-07 9.75948e-08 5.52468e-07 -1.21111e-07 -5.22685e-07 3.04698e-07 -2.83044e-07 8.84756e-08 4.90923e-07 -1.11565e-07 -4.6244e-07 2.66708e-07 -2.46626e-07 8.19176e-08 4.33414e-07 -1.01398e-07 -4.06716e-07 2.36207e-07 -2.13215e-07 7.307e-08 3.79009e-07 -9.09786e-08 -3.51458e-07 2.02873e-07 -1.83529e-07 6.75597e-08 3.28446e-07 -8.30429e-08 -3.03029e-07 1.7536e-07 -1.55356e-07 5.97987e-08 2.80056e-07 -7.36327e-08 -2.57006e-07 1.47149e-07 -1.29745e-07 5.39779e-08 2.37565e-07 -6.56971e-08 -2.16416e-07 1.25185e-07 -1.05705e-07 4.70706e-08 1.97906e-07 -5.73734e-08 -1.77029e-07 1.02019e-07 -8.60115e-08 4.10946e-08 1.60808e-07 -4.84288e-08 -1.44219e-07 8.41295e-08 -6.68806e-08 3.36828e-08 1.29493e-07 -4.16961e-08 -1.13097e-07 6.56194e-08 -5.14944e-08 2.96471e-08 1.01087e-07 -3.4847e-08 -8.77189e-08 5.33958e-08 -3.95812e-08 2.32055e-08 7.61356e-08 -2.75904e-08 -6.40866e-08 4.04737e-08 -3.01322e-08 1.99458e-08 5.63838e-08 -2.10906e-08 -4.61199e-08 3.15097e-08 -2.20025e-08 1.40863e-08 3.91155e-08 -1.66862e-08 -3.09277e-08 2.18473e-08 -1.57355e-08 1.16027e-08 2.58442e-08 -1.21072e-08 -1.85876e-08 1.58325e-08 -7.29536e-09 8.07146e-09 1.45131e-08 -8.26549e-09 -4.59841e-09 6.89955e-07 -4.96822e-07 1.05608e-06 1.05608e-06 -2.83607e-07 -9.9799e-07 9.46301e-07 -6.45154e-07 4.83783e-07 1.20079e-06 -1.10012e-08 -1.38412e-06 8.4859e-07 -7.42982e-07 1.70548e-07 1.53688e-06 -1.04095e-07 -1.39046e-06 8.43895e-07 -9.21583e-07 1.95267e-07 1.4796e-06 -1.51553e-07 -1.44176e-06 9.13705e-07 -8.85513e-07 2.12148e-07 1.50599e-06 -1.55453e-07 -1.35428e-06 8.83631e-07 -8.38268e-07 2.07607e-07 1.41045e-06 -1.47712e-07 -1.27209e-06 8.39122e-07 -7.83786e-07 1.92939e-07 1.32131e-06 -1.40474e-07 -1.19114e-06 7.9046e-07 -7.30176e-07 1.77611e-07 1.23218e-06 -1.31122e-07 -1.10998e-06 7.3881e-07 -6.76839e-07 1.61856e-07 1.14432e-06 -1.24972e-07 -1.0296e-06 6.88325e-07 -6.25655e-07 1.47421e-07 1.05534e-06 -1.15969e-07 -9.50221e-07 6.37413e-07 -5.73966e-07 1.35003e-07 9.72223e-07 -1.10051e-07 -8.72824e-07 5.87548e-07 -5.25499e-07 1.23944e-07 8.89258e-07 -1.0134e-07 -7.97852e-07 5.39857e-07 -4.787e-07 1.1203e-07 8.10755e-07 -9.47621e-08 -7.25753e-07 4.92243e-07 -4.33317e-07 1.02174e-07 7.35008e-07 -8.59533e-08 -6.56563e-07 4.47074e-07 -3.90185e-07 9.16965e-08 6.63878e-07 -8.01714e-08 -5.90187e-07 4.02836e-07 -3.50488e-07 8.31593e-08 5.94494e-07 -7.25267e-08 -5.28661e-07 3.61625e-07 -3.10732e-07 7.36909e-08 5.30854e-07 -6.76761e-08 -4.68863e-07 3.23091e-07 -2.75866e-07 6.61239e-08 4.68145e-07 -5.95658e-08 -4.1244e-07 2.85062e-07 -2.4129e-07 5.76256e-08 4.11179e-07 -5.6442e-08 -3.60461e-07 2.51224e-07 -2.11779e-07 5.19212e-08 3.56425e-07 -4.86034e-08 -3.12284e-07 2.17813e-07 -1.80444e-07 4.43542e-08 3.08384e-07 -4.49945e-08 -2.67367e-07 1.877e-07 -1.546e-07 3.86499e-08 2.61275e-07 -3.89409e-08 -2.25574e-07 1.59334e-07 -1.29687e-07 3.3256e-08 2.20103e-07 -3.63992e-08 -1.8869e-07 1.34848e-07 -1.08344e-07 2.84053e-08 1.80832e-07 -3.0171e-08 -1.54891e-07 1.11875e-07 -8.8398e-08 2.39039e-08 1.48701e-07 -2.74352e-08 -1.24526e-07 9.20457e-08 -7.21581e-08 1.92861e-08 1.16415e-07 -2.17115e-08 -9.81575e-08 7.35357e-08 -5.62868e-08 1.52892e-08 9.17353e-08 -2.03339e-08 -7.52237e-08 5.7936e-08 -4.53244e-08 1.26117e-08 6.75209e-08 -1.5134e-08 -5.56465e-08 4.62945e-08 -3.5235e-08 9.39084e-09 4.98646e-08 -1.46489e-08 -4.00469e-08 3.60499e-08 -2.91426e-08 8.76995e-09 3.41097e-08 -1.17191e-08 -2.86188e-08 2.98411e-08 -2.33025e-08 7.567e-09 2.4486e-08 -1.30579e-08 -1.81802e-08 2.43308e-08 -1.89757e-08 8.76995e-09 1.38534e-08 -1.12341e-08 -8.42071e-09 9.5348e-07 -4.01594e-07 1.8141e-06 1.8141e-06 -7.65062e-07 -1.4484e-06 1.25992e-06 -5.35045e-07 9.63143e-07 1.65096e-06 -7.57282e-08 -1.33916e-06 1.00024e-06 -7.67352e-07 3.41291e-07 1.60083e-06 -9.61008e-08 -1.30703e-06 9.14054e-07 -7.48997e-07 3.05086e-07 1.51437e-06 -1.05336e-07 -1.27795e-06 8.90112e-07 -8.03673e-07 2.77728e-07 1.45108e-06 -1.06171e-07 -1.26848e-06 9.00705e-07 -7.67798e-07 2.53165e-07 1.41868e-06 -9.43352e-08 -1.18951e-06 8.64112e-07 -7.25015e-07 2.26583e-07 1.32519e-06 -8.04818e-08 -1.11052e-06 8.19642e-07 -6.78876e-07 1.97402e-07 1.23086e-06 -6.7094e-08 -1.02849e-06 7.67953e-07 -6.32135e-07 1.70898e-07 1.13548e-06 -5.58794e-08 -9.48552e-07 7.1708e-07 -5.85433e-07 1.47498e-07 1.04312e-06 -4.49751e-08 -8.6873e-07 6.63645e-07 -5.38712e-07 1.27009e-07 9.53364e-07 -3.65738e-08 -7.92827e-07 6.12267e-07 -4.92262e-07 1.09198e-07 8.67721e-07 -2.87546e-08 -7.19369e-07 5.61355e-07 -4.49247e-07 9.27054e-08 7.85221e-07 -2.1401e-08 -6.49869e-07 5.1246e-07 -4.06115e-07 7.86968e-08 7.08775e-07 -1.59877e-08 -5.82406e-07 4.6376e-07 -3.67174e-07 6.62791e-08 6.34037e-07 -1.16997e-08 -5.21036e-07 4.18746e-07 -3.28155e-07 5.52585e-08 5.65701e-07 -8.3431e-09 -4.60811e-07 3.73771e-07 -2.93211e-07 4.57512e-08 4.99111e-07 -5.12227e-09 -4.07066e-07 3.34306e-07 -2.59276e-07 3.58947e-08 4.38575e-07 -2.19249e-09 -3.54834e-07 2.93832e-07 -2.2864e-07 2.84053e-08 3.81571e-07 -1.02834e-09 -3.08966e-07 2.59141e-07 -1.98081e-07 2.16921e-08 3.30037e-07 1.35818e-09 -2.63506e-07 2.22741e-07 -1.71189e-07 1.52892e-08 2.80445e-07 2.40592e-09 -2.24158e-07 1.93094e-07 -1.45616e-07 1.05938e-08 2.37332e-07 3.53126e-09 -1.8675e-07 1.62671e-07 -1.22585e-07 6.0924e-09 1.9647e-07 3.57007e-09 -1.53571e-07 1.36749e-07 -1.02193e-07 2.09548e-09 1.59334e-07 4.26856e-09 -1.23905e-07 1.12341e-07 -8.40713e-08 -1.35818e-09 1.26815e-07 3.91932e-09 -9.80023e-08 9.21233e-08 -6.82582e-08 -2.89098e-09 9.90694e-08 4.579e-09 -7.437e-08 7.19059e-08 -5.45406e-08 -3.7641e-09 7.51655e-08 3.7641e-09 -5.69853e-08 5.71599e-08 -4.32483e-08 -5.00586e-09 5.57629e-08 2.13428e-09 -4.13274e-08 4.28408e-08 -3.48858e-08 -4.34617e-09 3.91155e-08 2.05667e-09 -3.03844e-08 3.49246e-08 -2.85024e-08 -4.48199e-09 2.79397e-08 -1.24176e-09 -2.18085e-08 2.84829e-08 -2.77068e-08 -1.80444e-09 1.87041e-08 -5.41331e-09 -1.83742e-08 2.91038e-08 -2.67949e-08 2.63875e-09 1.55608e-08 -1.12535e-08 -1.36982e-08 1.2938e-06 -4.17601e-07 2.56401e-06 2.56401e-06 -1.2719e-06 -1.93903e-06 1.57223e-06 -4.86868e-07 1.4453e-06 2.11903e-06 -1.94899e-07 -1.34318e-06 1.15585e-06 -8.06622e-07 5.56194e-07 1.70327e-06 -1.54037e-07 -1.28988e-06 1.00222e-06 -7.12287e-07 4.54253e-07 1.58942e-06 -1.07665e-07 -1.21996e-06 9.44322e-07 -6.86792e-07 3.7703e-07 1.49008e-06 -7.73192e-08 -1.15921e-06 9.13123e-07 -6.97405e-07 3.1762e-07 1.40141e-06 -5.23093e-08 -1.10564e-06 8.95195e-07 -6.66264e-07 2.68997e-07 1.32523e-06 -3.02292e-08 -1.02451e-06 8.52936e-07 -6.2938e-07 2.25031e-07 1.22221e-06 -8.11027e-09 -9.40325e-07 8.01209e-07 -5.87994e-07 1.84906e-07 1.11988e-06 8.45951e-09 -8.57806e-07 7.47464e-07 -5.4494e-07 1.51068e-07 1.01984e-06 2.4292e-08 -7.76878e-07 6.91391e-07 -5.01537e-07 1.21615e-07 9.24997e-07 3.48858e-08 -7.01402e-07 6.37102e-07 -4.58987e-07 9.57322e-08 8.33999e-07 4.4005e-08 -6.28759e-07 5.82814e-07 -4.18649e-07 7.38849e-08 7.4824e-07 5.00586e-08 -5.61238e-07 5.31203e-07 -3.78389e-07 5.57241e-08 6.6834e-07 5.54913e-08 -4.97171e-07 4.8033e-07 -3.41272e-07 3.91544e-08 5.92903e-07 5.63838e-08 -4.38168e-07 4.32367e-07 -3.05765e-07 2.65815e-08 5.22006e-07 5.78972e-08 -3.82929e-07 3.85257e-07 -2.7086e-07 1.50176e-08 4.56581e-07 5.7354e-08 -3.31958e-07 3.42028e-07 -2.40592e-07 5.00586e-09 3.94842e-07 5.80136e-08 -2.84073e-07 3.00429e-07 -2.09645e-07 -3.16262e-09 3.39312e-07 5.60346e-08 -2.41096e-07 2.61973e-07 -1.82015e-07 -1.0749e-08 2.86653e-07 5.56077e-08 -2.01981e-07 2.26156e-07 -1.56579e-07 -1.71519e-08 2.4063e-07 5.10287e-08 -1.65989e-07 1.92978e-07 -1.32752e-07 -2.06637e-08 1.96548e-07 4.99034e-08 -1.33257e-07 1.62477e-07 -1.11817e-07 -2.39622e-08 1.59217e-07 4.48587e-08 -1.04832e-07 1.34033e-07 -9.30352e-08 -2.51069e-08 1.24642e-07 4.16767e-08 -8.02684e-08 1.09663e-07 -7.62326e-08 -2.6174e-08 9.58098e-08 3.75633e-08 -5.86345e-08 8.79324e-08 -6.14673e-08 -2.67561e-08 6.94223e-08 3.36052e-08 -4.09588e-08 6.88015e-08 -4.88944e-08 -2.54367e-08 4.90885e-08 2.68143e-08 -2.74934e-08 5.25809e-08 -3.95424e-08 -2.15174e-08 3.27903e-08 2.26622e-08 -1.75399e-08 3.97364e-08 -3.21306e-08 -1.94026e-08 2.08383e-08 1.50952e-08 -1.15251e-08 3.10053e-08 -2.80367e-08 -1.50176e-08 1.15639e-08 1.13699e-08 -7.50879e-09 2.51457e-08 -2.86576e-08 -1.0652e-08 8.18788e-09 1.59101e-09 -1.00117e-08 2.84829e-08 -3.44395e-08 -2.34771e-09 9.23562e-09 -8.01325e-09 -1.36594e-08 1.59501e-06 -5.32018e-07 3.19467e-06 3.19467e-06 -1.78987e-06 -2.44008e-06 1.83983e-06 -5.13683e-07 1.92078e-06 2.57984e-06 -3.9329e-07 -1.42748e-06 1.30979e-06 -8.54353e-07 8.25423e-07 1.86152e-06 -2.60343e-07 -1.33416e-06 1.12372e-06 -7.00801e-07 6.37917e-07 1.71266e-06 -1.56423e-07 -1.21493e-06 1.04091e-06 -6.46105e-07 5.10869e-07 1.57091e-06 -8.09669e-08 -1.11136e-06 9.89608e-07 -6.21774e-07 4.09277e-07 1.44173e-06 -2.78039e-08 -1.02071e-06 9.43895e-07 -6.09512e-07 3.27088e-07 1.32236e-06 1.54056e-08 -9.39045e-07 8.99502e-07 -5.77827e-07 2.56308e-07 1.21332e-06 4.92437e-08 -8.46941e-07 8.42265e-07 -5.40342e-07 1.99924e-07 1.09842e-06 7.54759e-08 -7.59688e-07 7.83592e-07 -5.00411e-07 1.51728e-07 9.88948e-07 9.57322e-08 -6.75248e-07 7.2193e-07 -4.59957e-07 1.12884e-07 8.8561e-07 1.09663e-07 -5.98375e-07 6.63024e-07 -4.21191e-07 7.97057e-08 7.89179e-07 1.20179e-07 -5.25964e-07 6.03031e-07 -3.8256e-07 5.19988e-08 6.99307e-07 1.26505e-07 -4.60752e-07 5.47385e-07 -3.45113e-07 2.79009e-08 6.1607e-07 1.30579e-07 -3.98645e-07 4.92165e-07 -3.09801e-07 9.35203e-09 5.39313e-07 1.31588e-07 -3.436e-07 4.40826e-07 -2.75303e-07 -7.04313e-09 4.68727e-07 1.30734e-07 -2.92785e-07 3.90845e-07 -2.43618e-07 -2.11682e-08 4.02797e-07 1.26854e-07 -2.46199e-07 3.4521e-07 -2.13797e-07 -3.12187e-08 3.42106e-07 1.23478e-07 -2.03281e-07 2.99886e-07 -1.85391e-07 -3.94454e-08 2.87507e-07 1.18433e-07 -1.65523e-07 2.60111e-07 -1.59858e-07 -4.65855e-08 2.37487e-07 1.13078e-07 -1.28833e-07 2.20297e-07 -1.35993e-07 -5.1669e-08 1.90339e-07 1.0749e-07 -9.90694e-08 1.8673e-07 -1.13505e-07 -5.55689e-08 1.51029e-07 1.0035e-07 -7.27596e-08 1.54212e-07 -9.40636e-08 -5.85375e-08 1.14591e-07 9.25114e-08 -5.09123e-08 1.26117e-07 -7.53207e-08 -5.93912e-08 8.40519e-08 8.39354e-08 -3.05008e-08 9.86426e-08 -6.04778e-08 -5.68495e-08 5.7548e-08 7.54371e-08 -1.5231e-08 7.75326e-08 -4.75363e-08 -5.5045e-08 3.56231e-08 6.72493e-08 -2.44472e-09 5.70435e-08 -3.71753e-08 -5.196e-08 1.76951e-08 5.70823e-08 6.20882e-09 4.07842e-08 -2.73188e-08 -4.5208e-08 5.70435e-09 4.68378e-08 1.12147e-08 2.7668e-08 -2.30114e-08 -3.84171e-08 -2.83277e-09 3.61276e-08 1.09042e-08 2.05279e-08 -1.96936e-08 -3.13739e-08 -6.15061e-09 2.63487e-08 9.8953e-09 1.47071e-08 -2.24099e-08 -2.22547e-08 -5.85957e-09 1.33878e-08 6.98492e-10 1.90921e-08 -3.18784e-08 -1.20102e-08 6.98492e-10 -1.08654e-09 -1.20684e-08 1.25527e-06 -5.82212e-07 3.47865e-06 3.47865e-06 -2.16241e-06 -2.9171e-06 1.86435e-06 -6.3619e-07 2.14732e-06 2.91197e-06 -7.22823e-07 -1.81171e-06 1.54611e-06 -9.14501e-07 1.09306e-06 2.19059e-06 -4.33725e-07 -1.52644e-06 1.35368e-06 -7.54429e-07 8.63375e-07 1.96071e-06 -2.71092e-07 -1.30897e-06 1.23684e-06 -6.73133e-07 6.9465e-07 1.73637e-06 -1.44588e-07 -1.13559e-06 1.14914e-06 -6.22667e-07 5.45755e-07 1.5401e-06 -4.33259e-08 -9.88696e-07 1.07083e-06 -5.82678e-07 4.18552e-07 1.36683e-06 3.34888e-08 -8.62308e-07 9.94459e-07 -5.49577e-07 3.13002e-07 1.21122e-06 9.30547e-08 -7.50665e-07 9.20962e-07 -5.09162e-07 2.27592e-07 1.07343e-06 1.32869e-07 -6.48938e-07 8.46184e-07 -4.68649e-07 1.6205e-07 9.45525e-07 1.6302e-07 -5.56485e-07 7.71834e-07 -4.27788e-07 1.09547e-07 8.3039e-07 1.8122e-07 -4.75692e-07 7.02062e-07 -3.87973e-07 6.77537e-08 7.25617e-07 1.95461e-07 -4.02797e-07 6.34347e-07 -3.49634e-07 3.26739e-08 6.31631e-07 2.01631e-07 -3.38575e-07 5.70746e-07 -3.13992e-07 3.99693e-09 5.44746e-07 2.05706e-07 -2.80018e-07 5.08968e-07 -2.78485e-07 -1.82772e-08 4.67796e-07 2.04619e-07 -2.28698e-07 4.5239e-07 -2.46859e-07 -3.80872e-08 3.95385e-07 2.01321e-07 -1.82054e-07 3.98257e-07 -2.16785e-07 -5.27943e-08 3.30697e-07 1.95617e-07 -1.41076e-07 3.47189e-07 -1.87448e-07 -6.44941e-08 2.72218e-07 1.8933e-07 -1.04075e-07 2.99614e-07 -1.59314e-07 -7.45058e-08 2.189e-07 1.80327e-07 -7.24297e-08 2.56075e-07 -1.35352e-07 -8.23056e-08 1.70432e-07 1.71596e-07 -4.29379e-08 2.14786e-07 -1.1203e-07 -8.70593e-08 1.27397e-07 1.60149e-07 -1.90921e-08 1.77766e-07 -9.10174e-08 -8.96398e-08 8.95622e-08 1.51495e-07 2.32831e-09 1.44239e-07 -7.30894e-08 -9.17741e-08 5.73151e-08 1.39815e-07 1.94026e-08 1.13311e-07 -5.77226e-08 -9.17159e-08 2.8677e-08 1.2794e-07 3.31008e-08 8.54877e-08 -4.20259e-08 -8.89801e-08 5.82077e-09 1.13583e-07 4.19871e-08 6.20494e-08 -3.11217e-08 -8.33922e-08 -1.18162e-08 1.01553e-07 4.90497e-08 4.12498e-08 -2.15756e-08 -7.70475e-08 -2.45442e-08 8.75443e-08 5.04854e-08 2.63099e-08 -1.40086e-08 -6.89179e-08 -3.1859e-08 7.20223e-08 4.96317e-08 1.28057e-08 -1.05938e-08 -5.83823e-08 -3.59917e-08 5.55689e-08 4.27244e-08 5.58794e-09 -1.0943e-08 -4.72258e-08 -3.44201e-08 4.09782e-08 3.36828e-08 3.0268e-09 -1.31743e-08 -3.3062e-08 -2.58054e-08 2.37875e-08 1.92085e-08 8.92518e-09 -2.41562e-08 -1.91697e-08 -1.45713e-08 6.94611e-09 1.59101e-09 1.0749e-08 -2.76723e-06 -1.70921e-06 -1.70921e-06 -1.96587e-07 -1.10847e-06 1.16772e-06 -1.75657e-06 -8.88637e-09 9.1386e-07 -4.24179e-07 -1.48833e-06 9.04392e-07 -1.35581e-06 4.62557e-08 1.12096e-06 -5.17253e-07 -1.60453e-06 8.01752e-07 -1.16681e-06 9.74008e-08 1.19473e-06 -5.27478e-07 -1.59863e-06 7.52392e-07 -1.07506e-06 1.24603e-07 1.20397e-06 -5.22259e-07 -1.55979e-06 7.17506e-07 -1.00672e-06 1.45442e-07 1.18973e-06 -5.1182e-07 -1.50151e-06 6.83862e-07 -9.47912e-07 1.60886e-07 1.15624e-06 -4.97093e-07 -1.4328e-06 6.48627e-07 -8.88967e-07 1.71325e-07 1.11188e-06 -4.78583e-07 -1.35525e-06 6.1118e-07 -8.29168e-07 1.77689e-07 1.05841e-06 -4.5856e-07 -1.27333e-06 5.72143e-07 -7.69175e-07 1.80793e-07 9.99115e-07 -4.36169e-07 -1.18744e-06 5.32755e-07 -7.09959e-07 1.80483e-07 9.34699e-07 -4.11431e-07 -1.10075e-06 4.91816e-07 -6.50471e-07 1.77805e-07 8.69584e-07 -3.85587e-07 -1.01409e-06 4.50411e-07 -5.91933e-07 1.72605e-07 8.03149e-07 -3.5821e-07 -9.29421e-07 4.10713e-07 -5.33299e-07 1.66513e-07 7.39354e-07 -3.32269e-07 -8.44748e-07 3.70744e-07 -4.78758e-07 1.59023e-07 6.72919e-07 -3.05823e-07 -7.64092e-07 3.33103e-07 -4.26119e-07 1.50059e-07 6.09395e-07 -2.79261e-07 -6.85647e-07 2.95889e-07 -3.75944e-07 1.39815e-07 5.47036e-07 -2.51981e-07 -6.10404e-07 2.61973e-07 -3.26875e-07 1.30696e-07 4.89798e-07 -2.26932e-07 -5.38266e-07 2.28601e-07 -2.83821e-07 1.19636e-07 4.31513e-07 -2.02097e-07 -4.71055e-07 1.97984e-07 -2.40902e-07 1.09896e-07 3.79281e-07 -1.78368e-07 -4.06697e-07 1.68841e-07 -2.03281e-07 9.84874e-08 3.27088e-07 -1.54444e-07 -3.47364e-07 1.42609e-07 -1.67987e-07 8.65742e-08 2.79707e-07 -1.32306e-07 -2.90747e-07 1.17191e-07 -1.36187e-07 7.64849e-08 2.3512e-07 -1.11196e-07 -2.4096e-07 9.55382e-08 -1.06869e-07 6.43389e-08 1.9422e-07 -9.14636e-08 -1.93152e-07 7.61744e-08 -8.24027e-08 5.4366e-08 1.56113e-07 -7.22745e-08 -1.50622e-07 5.80136e-08 -5.99927e-08 4.4393e-08 1.22779e-07 -5.5045e-08 -1.13272e-07 4.3811e-08 -4.21035e-08 3.40321e-08 9.23174e-08 -3.94842e-08 -8.18012e-08 3.19366e-08 -2.7086e-08 2.4098e-08 6.64731e-08 -2.51263e-08 -5.24063e-08 2.12652e-08 -1.6531e-08 1.58325e-08 4.31125e-08 -1.29609e-08 -3.10635e-08 1.36982e-08 -7.50879e-09 8.3431e-09 2.65039e-08 -4.63721e-09 -1.35624e-08 6.01479e-09 -4.69542e-09 2.01787e-09 1.0943e-08 1.5522e-09 -3.8029e-09 -7.95505e-10 1.94026e-10 -7.567e-10 4.579e-09 -1.86265e-09 1.94026e-10 2.76642e-07 -9.40403e-07 -7.57418e-07 -7.57418e-07 7.83669e-07 -6.39896e-08 2.91116e-07 -1.75948e-06 -6.65837e-07 1.80172e-07 -5.88208e-07 -1.73793e-06 1.01902e-06 -1.38948e-06 2.36013e-07 1.39446e-06 -5.35937e-07 -1.83086e-06 8.70864e-07 -1.14851e-06 1.56967e-07 1.46287e-06 -4.47248e-07 -1.72553e-06 8.06642e-07 -1.03633e-06 1.31122e-07 1.41813e-06 -4.11063e-07 -1.62865e-06 7.58795e-07 -9.59088e-07 1.31006e-07 1.35581e-06 -3.89021e-07 -1.53447e-06 7.13626e-07 -8.93429e-07 1.35701e-07 1.28724e-06 -3.71986e-07 -1.44332e-06 6.7063e-07 -8.31749e-07 1.38845e-07 1.21538e-06 -3.55668e-07 -1.34993e-06 6.27479e-07 -7.7261e-07 1.41057e-07 1.13974e-06 -3.40127e-07 -1.25734e-06 5.8328e-07 -7.13684e-07 1.4257e-07 1.06361e-06 -3.23072e-07 -1.16578e-06 5.40594e-07 -6.56951e-07 1.40513e-07 9.86465e-07 -3.05319e-07 -1.07543e-06 4.97598e-07 -6.0049e-07 1.39155e-07 9.12114e-07 -2.86983e-07 -9.87668e-07 4.56969e-07 -5.4657e-07 1.3446e-07 8.37492e-07 -2.69133e-07 -9.0185e-07 4.15447e-07 -4.93543e-07 1.30773e-07 7.65431e-07 -2.49614e-07 -8.19253e-07 3.76565e-07 -4.43096e-07 1.23749e-07 6.94999e-07 -2.31589e-07 -7.40052e-07 3.39583e-07 -3.95308e-07 1.1855e-07 6.28293e-07 -2.12419e-07 -6.62908e-07 3.03999e-07 -3.50333e-07 1.10866e-07 5.62364e-07 -1.94394e-07 -5.90788e-07 2.69424e-07 -3.06638e-07 1.03804e-07 5.0109e-07 -1.75496e-07 -5.21773e-07 2.37254e-07 -2.67484e-07 9.61979e-08 4.43154e-07 -1.58558e-07 -4.58521e-07 2.07995e-07 -2.28989e-07 8.8204e-08 3.88633e-07 -1.4096e-07 -3.95735e-07 1.78814e-07 -1.95461e-07 8.02878e-08 3.35431e-07 -1.25146e-07 -3.40224e-07 1.52659e-07 -1.64437e-07 7.24879e-08 2.87895e-07 -1.0846e-07 -2.87643e-07 1.29648e-07 -1.34091e-07 6.45717e-08 2.4389e-07 -9.34233e-08 -2.39757e-07 1.08072e-07 -1.09372e-07 5.60346e-08 2.02446e-07 -7.82117e-08 -1.95054e-07 8.81652e-08 -8.6516e-08 4.839e-08 1.65349e-07 -6.46881e-08 -1.56113e-07 7.06253e-08 -6.53672e-08 4.06678e-08 1.32131e-07 -5.17466e-08 -1.2016e-07 5.56077e-08 -4.95929e-08 3.25187e-08 1.00971e-07 -3.98334e-08 -9.01637e-08 4.22976e-08 -3.61664e-08 2.58054e-08 7.61744e-08 -2.83083e-08 -6.42419e-08 3.38769e-08 -2.4486e-08 1.85876e-08 5.456e-08 -1.90727e-08 -4.22976e-08 2.43696e-08 -1.59877e-08 1.32325e-08 3.64768e-08 -1.06326e-08 -2.41174e-08 1.55608e-08 -9.48785e-09 7.6058e-09 2.111e-08 -5.45212e-09 -1.16609e-08 6.71328e-09 -3.0268e-09 3.37604e-09 9.58486e-09 -3.0268e-09 -1.12535e-09 5.00353e-07 -7.40343e-07 4.81183e-08 4.81183e-08 2.93561e-07 -4.83298e-07 5.48821e-07 -8.01752e-07 -1.61313e-07 6.15643e-07 1.50835e-07 -1.02936e-06 4.64497e-07 -1.30851e-06 -1.76253e-07 1.00505e-06 -5.30252e-07 -2.0348e-06 8.70864e-07 -1.04264e-06 1.73459e-07 1.69054e-06 -3.32773e-07 -1.73437e-06 8.41217e-07 -9.55304e-07 1.48158e-07 1.55779e-06 -2.82928e-07 -1.59464e-06 7.99424e-07 -8.86018e-07 1.38107e-07 1.45636e-06 -2.60557e-07 -1.48416e-06 7.51771e-07 -8.2554e-07 1.3543e-07 1.36474e-06 -2.49323e-07 -1.38711e-06 7.06137e-07 -7.66983e-07 1.31278e-07 1.27413e-06 -2.36478e-07 -1.28982e-06 6.58794e-07 -7.12016e-07 1.28755e-07 1.1865e-06 -2.26564e-07 -1.1972e-06 6.12577e-07 -6.55496e-07 1.24564e-07 1.099e-06 -2.15504e-07 -1.10486e-06 5.66477e-07 -6.04234e-07 1.2115e-07 1.01382e-06 -2.04736e-07 -1.01805e-06 5.22821e-07 -5.50664e-07 1.15639e-07 9.31827e-07 -1.92629e-07 -9.30391e-07 4.78389e-07 -5.03263e-07 1.11798e-07 8.51927e-07 -1.81065e-07 -8.49386e-07 4.36519e-07 -4.53147e-07 1.05201e-07 7.7552e-07 -1.68705e-07 -7.68884e-07 3.95735e-07 -4.09569e-07 9.97291e-08 7.01635e-07 -1.56947e-07 -6.93835e-07 3.5821e-07 -3.64981e-07 9.30547e-08 6.31282e-07 -1.44083e-07 -6.1933e-07 3.19987e-07 -3.26118e-07 8.80488e-08 5.64381e-07 -1.33043e-07 -5.52759e-07 2.86343e-07 -2.86032e-07 8.05206e-08 5.01129e-07 -1.20451e-07 -4.87004e-07 2.52388e-07 -2.50759e-07 7.48162e-08 4.42107e-07 -1.09741e-07 -4.27186e-07 2.2212e-07 -2.16959e-07 6.79089e-08 3.85878e-07 -9.72068e-08 -3.69677e-07 1.93327e-07 -1.86982e-07 6.20494e-08 3.34888e-07 -8.84368e-08 -3.18357e-07 1.6725e-07 -1.57199e-07 5.5957e-08 2.86188e-07 -7.70669e-08 -2.67949e-07 1.42221e-07 -1.33121e-07 5.02526e-08 2.4129e-07 -6.80642e-08 -2.24953e-07 1.20684e-07 -1.0912e-07 4.31901e-08 2.00234e-07 -5.70435e-08 -1.82869e-07 9.8565e-08 -8.88831e-08 3.83394e-08 1.64262e-07 -4.91467e-08 -1.48197e-07 8.16071e-08 -6.99462e-08 3.15097e-08 1.30618e-07 -3.99305e-08 -1.14727e-07 6.45329e-08 -5.56853e-08 2.7474e-08 1.02329e-07 -3.25769e-08 -8.80294e-08 5.27749e-08 -4.11916e-08 2.14592e-08 7.68729e-08 -2.47189e-08 -6.29419e-08 4.13274e-08 -3.38187e-08 1.73071e-08 5.54913e-08 -1.84906e-08 -4.52274e-08 3.35276e-08 -2.43114e-08 1.22624e-08 3.89603e-08 -1.31743e-08 -2.76292e-08 2.54173e-08 -1.86071e-08 1.0555e-08 2.49129e-08 -1.06714e-08 -1.61429e-08 1.86653e-08 -1.11371e-08 7.02372e-09 1.24952e-08 -7.76102e-09 -3.18202e-09 6.88674e-07 -5.9137e-07 8.12928e-07 8.12928e-07 -1.40397e-07 -8.61163e-07 7.17002e-07 -6.96086e-07 3.41407e-07 1.06481e-06 9.8565e-09 -1.12814e-06 7.31515e-07 -7.28838e-07 1.19287e-07 1.26097e-06 -8.67682e-08 -1.54576e-06 7.55419e-07 -8.79964e-07 1.17968e-07 1.57785e-06 -1.89117e-07 -1.63938e-06 8.81613e-07 -8.65626e-07 1.65193e-07 1.62167e-06 -1.7668e-07 -1.50577e-06 8.49056e-07 -8.21407e-07 1.64766e-07 1.49943e-06 -1.62865e-07 -1.39584e-06 8.04508e-07 -7.66459e-07 1.56346e-07 1.39435e-06 -1.52077e-07 -1.29702e-06 7.56001e-07 -7.15527e-07 1.45519e-07 1.29493e-06 -1.42085e-07 -1.20307e-06 7.07805e-07 -6.63043e-07 1.33722e-07 1.19869e-06 -1.34072e-07 -1.11049e-06 6.57242e-07 -6.13082e-07 1.24758e-07 1.10466e-06 -1.25864e-07 -1.02125e-06 6.08736e-07 -5.62655e-07 1.15484e-07 1.0139e-06 -1.17968e-07 -9.3532e-07 5.59686e-07 -5.15371e-07 1.07024e-07 9.26976e-07 -1.08674e-07 -8.53305e-07 5.13741e-07 -4.68106e-07 9.72844e-08 8.44127e-07 -1.01805e-07 -7.74181e-07 4.67408e-07 -4.24974e-07 8.9601e-08 7.63801e-07 -9.38307e-08 -6.99656e-07 4.25032e-07 -3.82657e-07 8.10251e-08 6.88364e-07 -8.68458e-08 -6.28022e-07 3.83006e-07 -3.43115e-07 7.44282e-08 6.16846e-07 -7.80371e-08 -5.61141e-07 3.449e-07 -3.04232e-07 6.57747e-08 5.49868e-07 -7.23521e-08 -4.96026e-07 3.05823e-07 -2.70452e-07 6.01479e-08 4.84598e-07 -6.46687e-08 -4.37683e-07 2.71209e-07 -2.36304e-07 5.24257e-08 4.26041e-07 -5.87315e-08 -3.80853e-07 2.38186e-07 -2.0656e-07 4.74198e-08 3.69968e-07 -5.23481e-08 -3.29727e-07 2.06909e-07 -1.77592e-07 4.14827e-08 3.19211e-07 -4.63139e-08 -2.81725e-07 1.78426e-07 -1.51903e-07 3.58559e-08 2.71519e-07 -4.06095e-08 -2.37293e-07 1.52698e-07 -1.27572e-07 3.11993e-08 2.28058e-07 -3.56037e-08 -1.96878e-07 1.27902e-07 -1.07975e-07 2.55338e-08 1.87002e-07 -3.05008e-08 -1.61274e-07 1.08227e-07 -8.73697e-08 2.18473e-08 1.52698e-07 -2.7183e-08 -1.28852e-07 8.71563e-08 -7.21581e-08 1.80444e-08 1.19791e-07 -2.20607e-08 -1.01359e-07 7.12462e-08 -5.63256e-08 1.38922e-08 9.32099e-08 -1.92667e-08 -7.67759e-08 5.64226e-08 -4.54408e-08 1.19908e-08 6.95388e-08 -1.41057e-08 -5.63838e-08 4.57512e-08 -3.59141e-08 8.53712e-09 5.07959e-08 -1.18744e-08 -3.93484e-08 3.57395e-08 -3.07142e-08 6.79089e-09 3.42261e-08 -9.48785e-09 -2.75128e-08 3.0656e-08 -2.50681e-08 5.04466e-09 2.30502e-08 -1.01863e-08 -1.71713e-08 2.51069e-08 -2.21383e-08 7.10133e-09 1.40474e-08 -1.0555e-08 -7.68341e-09 9.32215e-07 -4.87994e-07 1.56194e-06 1.56194e-06 -6.1217e-07 -1.2769e-06 8.9861e-07 -5.96143e-07 8.3722e-07 1.50618e-06 -2.24391e-07 -1.28445e-06 9.67993e-07 -6.38693e-07 4.37256e-07 1.50211e-06 -2.72024e-08 -1.39828e-06 8.78354e-07 -6.99967e-07 2.10479e-07 1.58274e-06 -6.75403e-08 -1.3816e-06 8.55691e-07 -8.0864e-07 1.96936e-07 1.51344e-06 -9.6974e-08 -1.39392e-06 8.88637e-07 -7.70475e-07 1.9519e-07 1.49675e-06 -8.93294e-08 -1.29401e-06 8.48629e-07 -7.24375e-07 1.81142e-07 1.39012e-06 -7.84445e-08 -1.19824e-06 8.02412e-07 -6.78313e-07 1.60925e-07 1.28472e-06 -6.94223e-08 -1.1043e-06 7.50374e-07 -6.31223e-07 1.42958e-07 1.18146e-06 -5.83823e-08 -1.01473e-06 6.99307e-07 -5.82542e-07 1.24293e-07 1.08379e-06 -5.09705e-08 -9.27015e-07 6.45213e-07 -5.35219e-07 1.09314e-07 9.88094e-07 -4.26468e-08 -8.45039e-07 5.93757e-07 -4.8875e-07 9.48785e-08 8.99619e-07 -3.65738e-08 -7.64655e-07 5.42263e-07 -4.45521e-07 8.22668e-08 8.12307e-07 -2.94337e-08 -6.90964e-07 4.94765e-07 -4.02816e-07 6.99268e-08 7.33106e-07 -2.52233e-08 -6.19116e-07 4.47656e-07 -3.6341e-07 5.99539e-08 6.55147e-07 -1.9616e-08 -5.52721e-07 4.04349e-07 -3.24993e-07 5.00974e-08 5.84327e-07 -1.64728e-08 -4.88809e-07 3.6147e-07 -2.90417e-07 4.18707e-08 5.1506e-07 -1.13311e-08 -4.3031e-07 3.22781e-07 -2.55706e-07 3.40709e-08 4.53748e-07 -1.00505e-08 -3.74644e-07 2.8448e-07 -2.26098e-07 2.728e-08 3.92436e-07 -7.33417e-09 -3.2542e-07 2.4975e-07 -1.9649e-07 2.10712e-08 3.39545e-07 -5.66555e-09 -2.78155e-07 2.16261e-07 -1.68899e-07 1.64534e-08 2.89214e-07 -3.41485e-09 -2.35256e-07 1.86808e-07 -1.45248e-07 1.10207e-08 2.43036e-07 -2.65815e-09 -1.96005e-07 1.58325e-07 -1.22314e-07 8.26549e-09 2.01748e-07 -7.37297e-10 -1.60653e-07 1.32946e-07 -1.02698e-07 3.99693e-09 1.6399e-07 -3.49246e-10 -1.28523e-07 1.0912e-07 -8.4731e-08 1.39698e-09 1.29609e-07 1.62981e-09 -1.01747e-07 9.00667e-08 -6.89179e-08 -9.8953e-10 1.02368e-07 1.94026e-10 -7.72416e-08 7.17118e-08 -5.57047e-08 -1.74623e-09 7.567e-08 1.66862e-09 -5.79166e-08 5.7936e-08 -4.36557e-08 -3.25963e-09 5.62674e-08 8.14907e-10 -4.1017e-08 4.50915e-08 -3.59723e-08 -2.92979e-09 3.88827e-08 1.24176e-09 -2.88904e-08 3.59335e-08 -3.18202e-08 -3.7641e-09 2.63099e-08 -2.85218e-09 -2.05085e-08 3.11217e-08 -3.07725e-08 -5.62674e-10 1.70742e-08 -5.14168e-09 -1.52892e-08 3.1859e-08 -3.08501e-08 3.18202e-09 1.3349e-08 -1.28445e-08 -1.05356e-08 1.23649e-06 -4.84365e-07 2.31263e-06 2.31263e-06 -1.11058e-06 -1.73302e-06 1.11161e-06 -5.4948e-07 1.33583e-06 1.96416e-06 -4.90943e-07 -1.48827e-06 1.18992e-06 -5.80796e-07 7.6609e-07 1.76967e-06 -5.27749e-08 -1.31829e-06 1.01875e-06 -7.01965e-07 3.61625e-07 1.62888e-06 -3.85141e-08 -1.28006e-06 9.44672e-07 -6.86385e-07 2.88012e-07 1.53175e-06 -3.12963e-08 -1.22855e-06 9.07419e-07 -7.14615e-07 2.42299e-07 1.44235e-06 -2.45442e-08 -1.1873e-06 8.94147e-07 -6.77169e-07 2.09742e-07 1.37611e-06 -1.20684e-08 -1.09419e-06 8.48163e-07 -6.37238e-07 1.79241e-07 1.26474e-06 2.52233e-09 -1.00082e-06 7.93409e-07 -5.92185e-07 1.50021e-07 1.15647e-06 1.38922e-08 -9.12269e-07 7.37025e-07 -5.48355e-07 1.23633e-07 1.05247e-06 2.5689e-08 -8.25967e-07 6.79361e-07 -5.02235e-07 9.96515e-08 9.53597e-07 3.29455e-08 -7.45679e-07 6.23482e-07 -4.58948e-07 7.86968e-08 8.59261e-07 3.9426e-08 -6.68302e-07 5.68961e-07 -4.16476e-07 6.16225e-08 7.70902e-07 4.31513e-08 -5.96997e-07 5.1638e-07 -3.76739e-07 4.62945e-08 6.87782e-07 4.78467e-08 -5.29632e-07 4.66787e-07 -3.38672e-07 3.19754e-08 6.1056e-07 4.88556e-08 -4.66748e-07 4.18591e-07 -3.03145e-07 2.16144e-08 5.3811e-07 5.10287e-08 -4.08754e-07 3.73189e-07 -2.68396e-07 1.10983e-08 4.71521e-07 5.11451e-08 -3.53883e-07 3.31473e-07 -2.37565e-07 2.59994e-09 4.08113e-07 5.11063e-08 -3.03669e-07 2.90301e-07 -2.0753e-07 -4.71482e-09 3.50488e-07 4.96705e-08 -2.58403e-07 2.51302e-07 -1.80366e-07 -1.0458e-08 2.97907e-07 4.83512e-08 -2.17212e-07 2.18279e-07 -1.54367e-07 -1.59683e-08 2.49827e-07 4.54796e-08 -1.78814e-07 1.85915e-07 -1.31161e-07 -1.95772e-08 2.0493e-07 4.46647e-08 -1.43327e-07 1.56695e-07 -1.09663e-07 -2.32249e-08 1.64883e-07 4.04349e-08 -1.14339e-07 1.28755e-07 -9.16771e-08 -2.39039e-08 1.30967e-07 3.72917e-08 -8.88831e-08 1.05433e-07 -7.49133e-08 -2.55144e-08 1.00699e-07 3.28679e-08 -6.6512e-08 8.39354e-08 -6.09046e-08 -2.48159e-08 7.46222e-08 3.01516e-08 -4.69542e-08 6.60075e-08 -4.84482e-08 -2.46995e-08 5.24257e-08 2.50293e-08 -3.19754e-08 5.15332e-08 -3.89991e-08 -2.09548e-08 3.60887e-08 2.22353e-08 -2.07801e-08 3.95812e-08 -3.20918e-08 -2.03533e-08 2.26622e-08 1.59489e-08 -1.3349e-08 3.10053e-08 -2.83277e-08 -1.5231e-08 1.40863e-08 1.13699e-08 -8.61473e-09 2.58054e-08 -2.89098e-08 -1.12923e-08 8.65354e-09 2.75516e-09 -1.10207e-08 2.94531e-08 -3.50798e-08 -4.05513e-09 9.70128e-09 -6.46105e-09 -1.42027e-08 1.47902e-06 -5.67544e-07 2.9942e-06 2.9942e-06 -1.63447e-06 -2.22856e-06 1.34227e-06 -5.64964e-07 1.82636e-06 2.42804e-06 -7.90382e-07 -1.74107e-06 1.40851e-06 -5.72511e-07 1.11149e-06 2.07056e-06 -1.53998e-07 -1.30537e-06 1.17991e-06 -7.25558e-07 5.65041e-07 1.71903e-06 -7.25462e-08 -1.23061e-06 1.07094e-06 -6.69893e-07 4.24179e-07 1.58484e-06 -1.63564e-08 -1.14271e-06 1.00385e-06 -6.42981e-07 3.2996e-07 1.45911e-06 1.95966e-08 -1.05645e-06 9.49716e-07 -6.35802e-07 2.6174e-07 1.34068e-06 4.61393e-08 -9.79092e-07 9.04896e-07 -5.9756e-07 2.05395e-07 1.23369e-06 6.95776e-08 -8.84e-07 8.43196e-07 -5.54428e-07 1.60304e-07 1.11654e-06 8.75055e-08 -7.93836e-07 7.80293e-07 -5.11451e-07 1.21266e-07 1.00497e-06 1.00854e-07 -7.07708e-07 7.1576e-07 -4.68106e-07 8.93294e-08 8.99852e-07 1.10827e-07 -6.28798e-07 6.55302e-07 -4.2672e-07 6.1933e-08 8.03149e-07 1.17502e-07 -5.54234e-07 5.95038e-07 -3.86072e-07 3.89215e-08 7.11919e-07 1.20839e-07 -4.86247e-07 5.37994e-07 -3.47286e-07 1.99846e-08 6.28099e-07 1.22508e-07 -4.22723e-07 4.8293e-07 -3.10577e-07 3.64768e-09 5.49636e-07 1.24021e-07 -3.65874e-07 4.30698e-07 -2.75342e-07 -1.10595e-08 4.79437e-07 1.21499e-07 -3.1308e-07 3.82424e-07 -2.44084e-07 -2.30308e-08 4.11994e-07 1.17929e-07 -2.63855e-07 3.3613e-07 -2.14068e-07 -3.06948e-08 3.51419e-07 1.14824e-07 -2.19656e-07 2.93483e-07 -1.85294e-07 -3.96976e-08 2.94996e-07 1.0978e-07 -1.79396e-07 2.53359e-07 -1.58965e-07 -4.53632e-08 2.43968e-07 1.02834e-07 -1.43928e-07 2.15446e-07 -1.35119e-07 -5.0369e-08 1.9647e-07 9.91471e-08 -1.10847e-07 1.81647e-07 -1.13097e-07 -5.35705e-08 1.56501e-07 9.24338e-08 -8.28683e-08 1.50719e-07 -9.43352e-08 -5.59764e-08 1.19365e-07 8.56041e-08 -5.79554e-08 1.22547e-07 -7.55924e-08 -5.57241e-08 8.78548e-08 7.71446e-08 -3.6826e-08 9.7168e-08 -6.13703e-08 -5.46182e-08 5.93718e-08 6.96164e-08 -2.08189e-08 7.57476e-08 -4.81377e-08 -5.20376e-08 3.83394e-08 6.06524e-08 -7.37297e-09 5.71211e-08 -3.8223e-08 -4.84676e-08 1.95578e-08 5.25421e-08 2.2507e-09 4.19095e-08 -2.91426e-08 -4.29185e-08 7.37297e-09 4.33453e-08 8.88637e-09 3.02292e-08 -2.57084e-08 -3.6729e-08 -2.2895e-09 3.42649e-08 1.00505e-08 2.19249e-08 -2.19637e-08 -2.94531e-08 -5.27749e-09 2.42532e-08 8.42071e-09 1.85488e-08 -2.36711e-08 -2.15756e-08 -5.76256e-09 1.34266e-08 1.97906e-09 2.2701e-08 -3.44395e-08 -1.14863e-08 -7.76102e-11 -9.31323e-10 -9.8953e-09 1.26435e-06 -6.2127e-07 3.42129e-06 3.42129e-06 -2.11975e-06 -2.76968e-06 1.42011e-06 -6.29826e-07 2.20184e-06 2.86126e-06 -1.11215e-06 -2.11195e-06 1.61503e-06 -6.52818e-07 1.3957e-06 2.40762e-06 -3.64749e-07 -1.48556e-06 1.42826e-06 -7.90945e-07 8.06836e-07 1.93238e-06 -1.79221e-07 -1.28288e-06 1.28705e-06 -7.10696e-07 6.07804e-07 1.71561e-06 -6.64149e-08 -1.11896e-06 1.17785e-06 -6.53556e-07 4.64924e-07 1.52128e-06 1.81996e-08 -9.81963e-07 1.08383e-06 -6.06078e-07 3.48819e-07 1.35236e-06 7.99385e-08 -8.63433e-07 9.98611e-07 -5.68786e-07 2.53669e-07 1.20001e-06 1.28872e-07 -7.60503e-07 9.19565e-07 -5.23035e-07 1.75593e-07 1.06753e-06 1.58402e-07 -6.61918e-07 8.41178e-07 -4.78506e-07 1.19791e-07 9.42188e-07 1.79435e-07 -5.72278e-07 7.64499e-07 -4.3421e-07 7.55535e-08 8.28838e-07 1.91387e-07 -4.93135e-07 6.91662e-07 -3.92126e-07 4.09006e-08 7.26664e-07 2.00661e-07 -4.21618e-07 6.23016e-07 -3.52137e-07 1.12147e-08 6.34386e-07 2.03533e-07 -3.57958e-07 5.58755e-07 -3.13797e-07 -1.16609e-08 5.5045e-07 2.03921e-07 -2.99808e-07 4.97404e-07 -2.78271e-07 -3.0656e-08 4.735e-07 2.00816e-07 -2.48818e-07 4.40981e-07 -2.45539e-07 -4.71676e-08 4.02758e-07 1.96121e-07 -2.01263e-07 3.87042e-07 -2.14903e-07 -5.95852e-08 3.38031e-07 1.90494e-07 -1.60382e-07 3.3741e-07 -1.84014e-07 -6.94805e-08 2.81492e-07 1.82811e-07 -1.22236e-07 2.8968e-07 -1.57685e-07 -7.85415e-08 2.26544e-07 1.75477e-07 -8.84756e-08 2.48042e-07 -1.32675e-07 -8.51966e-08 1.78775e-07 1.66125e-07 -5.77614e-08 2.0687e-07 -1.10478e-07 -8.86503e-08 1.35158e-07 1.55376e-07 -3.25963e-08 1.70742e-07 -8.9504e-08 -9.06099e-08 9.72844e-08 1.45791e-07 -9.83709e-09 1.37758e-07 -7.19253e-08 -9.19293e-08 6.36016e-08 1.34809e-07 7.37297e-09 1.08344e-07 -5.53555e-08 -9.12502e-08 3.61276e-08 1.23012e-07 2.19637e-08 8.09863e-08 -4.15603e-08 -8.8495e-08 1.24952e-08 1.10323e-07 3.31396e-08 5.82077e-08 -2.97247e-08 -8.31787e-08 -5.99539e-09 9.81381e-08 3.89215e-08 3.91155e-08 -2.07607e-08 -7.80953e-08 -1.88787e-08 8.4828e-08 4.21035e-08 2.54562e-08 -1.35236e-08 -7.05477e-08 -2.78427e-08 7.1285e-08 4.33453e-08 1.25341e-08 -1.0458e-08 -5.9527e-08 -3.1568e-08 5.6539e-08 3.79902e-08 6.67448e-09 -9.02219e-09 -4.81377e-08 -2.95695e-08 4.23752e-08 3.01516e-08 4.11334e-09 -1.31161e-08 -3.58171e-08 -2.35547e-08 2.69696e-08 1.67638e-08 9.8565e-09 -2.36129e-08 -2.2507e-08 -1.22818e-08 1.05938e-08 3.10441e-10 -2.111e-08 -2.95128e-06 -1.92109e-06 -1.92109e-06 -1.92046e-07 -1.08315e-06 1.24231e-06 -1.831e-06 -4.2414e-08 8.55963e-07 -3.95812e-07 -1.43175e-06 9.25036e-07 -1.39611e-06 5.89838e-09 1.04995e-06 -4.95541e-07 -1.55104e-06 7.75287e-07 -1.18513e-06 7.41954e-08 1.1378e-06 -5.38615e-07 -1.58358e-06 7.09978e-07 -1.06904e-06 1.21033e-07 1.17366e-06 -5.45018e-07 -1.56571e-06 6.73036e-07 -9.96593e-07 1.45286e-07 1.17265e-06 -5.38343e-07 -1.51984e-06 6.42807e-07 -9.37628e-07 1.62089e-07 1.14945e-06 -5.24082e-07 -1.45793e-06 6.13315e-07 -8.79615e-07 1.73342e-07 1.11223e-06 -5.0596e-07 -1.38424e-06 5.79632e-07 -8.23134e-07 1.80211e-07 1.06287e-06 -4.84967e-07 -1.30502e-06 5.46066e-07 -7.64364e-07 1.83199e-07 1.00695e-06 -4.60869e-07 -1.21943e-06 5.09938e-07 -7.06854e-07 1.82966e-07 9.44749e-07 -4.35238e-07 -1.13231e-06 4.72801e-07 -6.4789e-07 1.8153e-07 8.81342e-07 -4.07395e-07 -1.045e-06 4.33802e-07 -5.90109e-07 1.7668e-07 8.16576e-07 -3.79824e-07 -9.59476e-07 3.96627e-07 -5.32775e-07 1.69966e-07 7.515e-07 -3.51865e-07 -8.74395e-07 3.59219e-07 -4.78331e-07 1.62632e-07 6.86695e-07 -3.23305e-07 -7.91178e-07 3.23984e-07 -4.24994e-07 1.53901e-07 6.23016e-07 -2.94764e-07 -7.10386e-07 2.87468e-07 -3.7606e-07 1.44122e-07 5.60656e-07 -2.67736e-07 -6.34638e-07 2.54794e-07 -3.27981e-07 1.33334e-07 5.00974e-07 -2.39971e-07 -5.61102e-07 2.22858e-07 -2.84752e-07 1.22547e-07 4.4428e-07 -2.137e-07 -4.91874e-07 1.94569e-07 -2.41833e-07 1.11836e-07 3.90418e-07 -1.87894e-07 -4.25168e-07 1.66319e-07 -2.046e-07 1.00932e-07 3.38536e-07 -1.63855e-07 -3.6374e-07 1.40358e-07 -1.67968e-07 8.9601e-08 2.89719e-07 -1.39757e-07 -3.07104e-07 1.1595e-07 -1.36497e-07 7.7455e-08 2.45015e-07 -1.17521e-07 -2.55144e-07 9.53053e-08 -1.07781e-07 6.63179e-08 2.04076e-07 -9.59262e-08 -2.05648e-07 7.55924e-08 -8.31399e-08 5.4948e-08 1.64766e-07 -7.55147e-08 -1.62826e-07 5.88674e-08 -5.97987e-08 4.39662e-08 1.31316e-07 -5.80718e-08 -1.23866e-07 4.36946e-08 -4.21423e-08 3.41485e-08 1.00001e-07 -4.16379e-08 -9.06875e-08 3.25575e-08 -2.75516e-08 2.43696e-08 7.34193e-08 -2.7183e-08 -6.09628e-08 2.21577e-08 -1.71131e-08 1.55997e-08 4.93601e-08 -1.29221e-08 -3.75245e-08 1.47459e-08 -6.94611e-09 7.29536e-09 3.19366e-08 -3.8223e-09 -1.92279e-08 8.45951e-09 -4.94765e-09 5.82077e-10 1.60265e-08 2.21189e-09 -7.17894e-09 3.33724e-09 -1.5328e-09 -2.48353e-09 6.94611e-09 2.87158e-09 -1.10595e-09 2.51185e-07 -1.02399e-06 -9.56507e-07 -9.56507e-07 8.79828e-07 6.86462e-08 2.56114e-07 -1.87821e-06 -7.79207e-07 3.0074e-08 -6.00043e-07 -1.68443e-06 1.05476e-06 -1.45963e-06 2.0687e-07 1.29982e-06 -5.45095e-07 -1.72772e-06 8.90189e-07 -1.21212e-06 1.84091e-07 1.37568e-06 -5.14265e-07 -1.71748e-06 8.00084e-07 -1.06008e-06 1.70626e-07 1.38247e-06 -4.73384e-07 -1.65026e-06 7.42225e-07 -9.70807e-07 1.58674e-07 1.34304e-06 -4.44862e-07 -1.5685e-06 6.96823e-07 -9.01578e-07 1.55803e-07 1.28585e-06 -4.22335e-07 -1.47981e-06 6.55612e-07 -8.39083e-07 1.56617e-07 1.21957e-06 -4.0043e-07 -1.3879e-06 6.13703e-07 -7.80177e-07 1.55376e-07 1.14751e-06 -3.81823e-07 -1.29533e-06 5.73734e-07 -7.22454e-07 1.55376e-07 1.07292e-06 -3.60441e-07 -1.20067e-06 5.32057e-07 -6.66128e-07 1.53164e-07 9.96787e-07 -3.39855e-07 -1.1088e-06 4.91777e-07 -6.08561e-07 1.5068e-07 9.22553e-07 -3.17872e-07 -1.01867e-06 4.51226e-07 -5.54486e-07 1.44704e-07 8.47892e-07 -2.97829e-07 -9.30954e-07 4.11295e-07 -5.01537e-07 1.40746e-07 7.75831e-07 -2.75245e-07 -8.46126e-07 3.72956e-07 -4.51129e-07 1.32636e-07 7.05128e-07 -2.54833e-07 -7.6382e-07 3.37721e-07 -4.02157e-07 1.27203e-07 6.37529e-07 -2.32287e-07 -6.84833e-07 3.01904e-07 -3.56813e-07 1.18317e-07 5.7191e-07 -2.13603e-07 -6.099e-07 2.67678e-07 -3.13448e-07 1.13e-07 5.10171e-07 -1.92105e-07 -5.39449e-07 2.36711e-07 -2.72858e-07 1.02989e-07 4.50915e-07 -1.72683e-07 -4.73286e-07 2.08073e-07 -2.34732e-07 9.47621e-08 3.95929e-07 -1.52077e-07 -4.09142e-07 1.79512e-07 -2.00079e-07 8.5216e-08 3.4261e-07 -1.34712e-07 -3.51089e-07 1.54056e-07 -1.67696e-07 7.84639e-08 2.95074e-07 -1.16997e-07 -2.98062e-07 1.29764e-07 -1.38515e-07 6.88403e-08 2.5006e-07 -1.00001e-07 -2.48042e-07 1.09275e-07 -1.11856e-07 5.99927e-08 2.08151e-07 -8.29071e-08 -2.02446e-07 9.00279e-08 -8.9601e-08 5.02138e-08 1.6985e-07 -6.89567e-08 -1.6174e-07 7.22939e-08 -6.90537e-08 4.35781e-08 1.364e-07 -5.41913e-08 -1.25166e-07 5.71599e-08 -5.19212e-08 3.43813e-08 1.05433e-07 -4.23946e-08 -9.33845e-08 4.53632e-08 -3.85723e-08 2.79785e-08 7.89684e-08 -3.0365e-08 -6.69582e-08 3.48858e-08 -2.67755e-08 1.96354e-08 5.62674e-08 -2.01981e-08 -4.4102e-08 2.73576e-08 -1.81996e-08 1.42415e-08 3.81454e-08 -1.07878e-08 -2.50681e-08 2.0101e-08 -1.25923e-08 7.79983e-09 2.20801e-08 -4.69542e-09 -1.0458e-08 1.29609e-08 -6.65508e-09 4.46259e-09 1.02057e-08 -8.14907e-10 3.49246e-10 4.44939e-07 -8.13258e-07 -1.56055e-07 -1.56055e-07 3.93833e-07 -3.44027e-07 4.82697e-07 -8.55265e-07 -2.69734e-07 4.68261e-07 1.7699e-07 -9.34951e-07 4.89682e-07 -1.37327e-06 -2.32016e-07 8.82157e-07 -5.30796e-07 -1.82095e-06 9.33806e-07 -1.15371e-06 2.40708e-07 1.53975e-06 -4.51381e-07 -1.79386e-06 8.35241e-07 -9.99484e-07 1.79862e-07 1.53144e-06 -3.72665e-07 -1.67308e-06 7.78702e-07 -9.13298e-07 1.49128e-07 1.45725e-06 -3.319e-07 -1.55921e-06 7.30312e-07 -8.46417e-07 1.39078e-07 1.37285e-06 -3.07142e-07 -1.45577e-06 6.84949e-07 -7.85124e-07 1.32481e-07 1.28666e-06 -2.87565e-07 -1.35236e-06 6.40944e-07 -7.2907e-07 1.28639e-07 1.19815e-06 -2.71927e-07 -1.25422e-06 5.95193e-07 -6.73113e-07 1.25108e-07 1.11149e-06 -2.55726e-07 -1.15643e-06 5.52236e-07 -6.1931e-07 1.21499e-07 1.02566e-06 -2.41213e-07 -1.0633e-06 5.08114e-07 -5.66128e-07 1.17696e-07 9.42731e-07 -2.25671e-07 -9.72204e-07 4.6733e-07 -5.16748e-07 1.12535e-07 8.61551e-07 -2.10712e-07 -8.86115e-07 4.24955e-07 -4.66437e-07 1.08189e-07 7.85609e-07 -1.96257e-07 -8.02237e-07 3.86227e-07 -4.21385e-07 1.02989e-07 7.10677e-07 -1.81336e-07 -7.23735e-07 3.48547e-07 -3.75614e-07 9.67799e-08 6.40595e-07 -1.65271e-07 -6.46707e-07 3.1308e-07 -3.34655e-07 9.02607e-08 5.72763e-07 -1.51204e-07 -5.76625e-07 2.78737e-07 -2.92202e-07 8.35474e-08 5.0986e-07 -1.37661e-07 -5.07765e-07 2.4746e-07 -2.57588e-07 7.70281e-08 4.47811e-07 -1.23905e-07 -4.44881e-07 2.15912e-07 -2.23129e-07 7.07805e-08 3.92242e-07 -1.09857e-07 -3.86576e-07 1.89524e-07 -1.9193e-07 6.30971e-08 3.40204e-07 -9.76919e-08 -3.32075e-07 1.62361e-07 -1.61196e-07 5.7742e-08 2.92435e-07 -8.56235e-08 -2.80833e-07 1.3966e-07 -1.35624e-07 5.16884e-08 2.47111e-07 -7.4661e-08 -2.34635e-07 1.17657e-07 -1.11681e-07 4.57124e-08 2.05822e-07 -6.23986e-08 -1.916e-07 9.82933e-08 -9.12696e-08 3.97752e-08 1.69113e-07 -5.14556e-08 -1.54794e-07 8.00937e-08 -7.13044e-08 3.28291e-08 1.36206e-07 -4.26662e-08 -1.20373e-07 6.66672e-08 -5.65584e-08 2.78621e-08 1.05666e-07 -3.3741e-08 -9.13278e-08 5.11451e-08 -4.27438e-08 2.22353e-08 7.97833e-08 -2.53397e-08 -6.69388e-08 4.28408e-08 -3.40321e-08 1.62593e-08 5.78584e-08 -1.88011e-08 -4.65079e-08 3.43813e-08 -2.50681e-08 1.31549e-08 4.09006e-08 -1.1952e-08 -2.89292e-08 2.78621e-08 -2.06443e-08 9.1192e-09 2.6077e-08 -8.3237e-09 -1.57161e-08 2.10712e-08 -1.40863e-08 6.36404e-09 1.3737e-08 -5.56853e-09 -2.56114e-09 6.49015e-07 -6.36656e-07 5.95503e-07 5.95503e-07 -3.74663e-08 -7.54488e-07 6.65624e-07 -7.28217e-07 2.06986e-07 9.25967e-07 2.12264e-08 -1.09411e-06 6.5018e-07 -7.4566e-07 3.74081e-08 1.15604e-06 -2.64263e-08 -1.33697e-06 6.17428e-07 -1.05944e-06 -2.05667e-09 1.31262e-06 -3.69716e-07 -1.83348e-06 8.5216e-07 -9.06468e-07 1.78348e-07 1.6517e-06 -2.5429e-07 -1.63014e-06 8.19098e-07 -8.39801e-07 1.5231e-07 1.5354e-06 -2.12904e-07 -1.49737e-06 7.73386e-07 -7.81186e-07 1.37564e-07 1.42799e-06 -1.92008e-07 -1.38331e-06 7.28255e-07 -7.28449e-07 1.27979e-07 1.32438e-06 -1.77611e-07 -1.27867e-06 6.82e-07 -6.76722e-07 1.18084e-07 1.22353e-06 -1.65737e-07 -1.17655e-06 6.33687e-07 -6.242e-07 1.12224e-07 1.12675e-06 -1.5524e-07 -1.0814e-06 5.85414e-07 -5.75169e-07 1.04231e-07 1.03357e-06 -1.45345e-07 -9.88832e-07 5.378e-07 -5.24956e-07 9.86426e-08 9.44866e-07 -1.35275e-07 -9.02646e-07 4.93523e-07 -4.79204e-07 8.94458e-08 8.59067e-07 -1.25011e-07 -8.1708e-07 4.49247e-07 -4.32172e-07 8.47116e-08 7.78663e-07 -1.15853e-07 -7.38209e-07 4.08501e-07 -3.90651e-07 7.7261e-08 7.01169e-07 -1.07723e-07 -6.61452e-07 3.6795e-07 -3.49265e-07 7.33417e-08 6.28332e-07 -9.77501e-08 -5.91196e-07 3.30581e-07 -3.1209e-07 6.47657e-08 5.5922e-07 -8.93876e-08 -5.22841e-07 2.94298e-07 -2.75342e-07 6.07688e-08 4.94998e-07 -8.03072e-08 -4.60229e-07 2.61585e-07 -2.42707e-07 5.32794e-08 4.33841e-07 -7.23521e-08 -4.00333e-07 2.29571e-07 -2.10343e-07 4.8778e-08 3.77224e-07 -6.5309e-08 -3.46646e-07 2.00972e-07 -1.83509e-07 4.29961e-08 3.24682e-07 -5.71211e-08 -2.95598e-07 1.72954e-07 -1.55085e-07 3.83783e-08 2.77107e-07 -5.04854e-08 -2.50293e-07 1.47925e-07 -1.31685e-07 3.3062e-08 2.33063e-07 -4.37722e-08 -2.07627e-07 1.25224e-07 -1.09101e-07 2.92591e-08 1.93249e-07 -3.71365e-08 -1.69637e-07 1.05705e-07 -9.07263e-08 2.4292e-08 1.56889e-07 -3.22082e-08 -1.34304e-07 8.70011e-08 -7.37685e-08 2.15368e-08 1.23672e-07 -2.65039e-08 -1.04968e-07 7.15178e-08 -5.98763e-08 1.75787e-08 9.60426e-08 -2.111e-08 -7.79983e-08 5.76644e-08 -4.60035e-08 1.51728e-08 7.20999e-08 -1.70548e-08 -5.72375e-08 4.71094e-08 -3.962e-08 9.97291e-09 5.01362e-08 -1.30579e-08 -3.96394e-08 3.86111e-08 -3.08695e-08 9.1192e-09 3.56619e-08 -9.64307e-09 -2.63681e-08 3.3062e-08 -2.86188e-08 6.13121e-09 2.28174e-08 -9.8953e-09 -1.5037e-08 2.96859e-08 -2.45636e-08 8.61473e-09 1.3737e-08 -9.81769e-09 -6.51926e-09 8.89529e-07 -5.27284e-07 1.35018e-06 1.35018e-06 -4.74548e-07 -1.15639e-06 8.45874e-07 -6.29322e-07 7.00199e-07 1.38596e-06 -1.73265e-07 -1.25325e-06 8.04857e-07 -6.54138e-07 3.54368e-07 1.43948e-06 -4.3714e-08 -1.33266e-06 7.97949e-07 -6.81359e-07 1.77999e-07 1.47227e-06 -6.12151e-08 -1.48092e-06 8.03111e-07 -7.93118e-07 1.4517e-07 1.56881e-06 -1.24041e-07 -1.51355e-06 8.72494e-07 -7.69583e-07 1.64689e-07 1.5602e-06 -1.06113e-07 -1.39052e-06 8.29576e-07 -7.26839e-07 1.53785e-07 1.44343e-06 -9.35203e-08 -1.28127e-06 7.84989e-07 -6.79633e-07 1.35973e-07 1.32826e-06 -8.13161e-08 -1.17486e-06 7.32136e-07 -6.32581e-07 1.23206e-07 1.22061e-06 -7.02372e-08 -1.07787e-06 6.81107e-07 -5.82368e-07 1.07723e-07 1.11871e-06 -6.21658e-08 -9.82972e-07 6.25694e-07 -5.35899e-07 9.63143e-08 1.01999e-06 -5.57241e-08 -8.95719e-07 5.7676e-07 -4.88188e-07 8.41683e-08 9.2655e-07 -4.99034e-08 -8.10037e-07 5.25111e-07 -4.45386e-07 7.53207e-08 8.37414e-07 -4.19871e-08 -7.31437e-07 4.79592e-07 -4.01206e-07 6.44553e-08 7.55574e-07 -3.71753e-08 -6.55282e-07 4.32134e-07 -3.62401e-07 5.65002e-08 6.75985e-07 -3.15292e-08 -5.85608e-07 3.90457e-07 -3.22354e-07 4.72646e-08 6.02411e-07 -2.80561e-08 -5.18203e-07 3.47849e-07 -2.88477e-07 4.16767e-08 5.32639e-07 -2.28756e-08 -4.57182e-07 3.11139e-07 -2.53126e-07 3.35664e-08 4.68572e-07 -1.97906e-08 -3.97888e-07 2.72567e-07 -2.23731e-07 2.92202e-08 4.07803e-07 -1.55026e-08 -3.45618e-07 2.40669e-07 -1.94123e-07 2.15756e-08 3.52079e-07 -1.34072e-08 -2.95152e-07 2.07569e-07 -1.68589e-07 1.85876e-08 3.00623e-07 -1.06908e-08 -2.50429e-07 1.79745e-07 -1.4356e-07 1.27281e-08 2.52699e-07 -9.00279e-09 -2.08422e-07 1.5134e-07 -1.21324e-07 1.12147e-08 2.10712e-07 -6.48045e-09 -1.72663e-07 1.28872e-07 -1.00796e-07 5.74316e-09 1.72023e-07 -4.81183e-09 -1.37739e-07 1.05511e-07 -8.44787e-08 4.15215e-09 1.37137e-07 -3.0656e-09 -1.0881e-07 8.80876e-08 -6.84328e-08 7.37297e-10 1.06559e-07 -2.98799e-09 -8.31982e-08 6.8685e-08 -5.53361e-08 1.31937e-09 8.15683e-08 -1.39698e-09 -6.26703e-08 5.61122e-08 -4.3811e-08 -1.84324e-09 5.94882e-08 -1.28057e-09 -4.38886e-08 4.35781e-08 -3.70589e-08 -1.20296e-09 4.14051e-08 3.88051e-11 -3.12963e-08 3.65544e-08 -3.13545e-08 -3.08501e-09 2.82501e-08 -1.90145e-09 -2.1595e-08 3.10829e-08 -3.14127e-08 1.16415e-10 1.97518e-08 -4.48199e-09 -1.67832e-08 3.41485e-08 -3.10829e-08 2.40592e-09 1.47071e-08 -1.00117e-08 -1.00311e-08 1.18371e-06 -5.0891e-07 2.11236e-06 2.11236e-06 -9.6714e-07 -1.60409e-06 1.05364e-06 -5.78604e-07 1.20521e-06 1.84774e-06 -4.34501e-07 -1.45397e-06 9.73387e-07 -5.98666e-07 6.91468e-07 1.71767e-06 -1.50525e-07 -1.37254e-06 9.85106e-07 -6.20144e-07 3.98955e-07 1.62706e-06 -1.02834e-09 -1.34268e-06 9.20884e-07 -6.62345e-07 2.29222e-07 1.57452e-06 -7.79983e-09 -1.29361e-06 8.89452e-07 -7.27014e-07 1.90999e-07 1.48053e-06 -2.29726e-08 -1.26346e-06 8.91004e-07 -6.88674e-07 1.76214e-07 1.42108e-06 -1.58131e-08 -1.15901e-06 8.42381e-07 -6.48763e-07 1.54289e-07 1.30141e-06 -2.03727e-09 -1.05699e-06 7.84833e-07 -6.01246e-07 1.30346e-07 1.18868e-06 5.82077e-09 -9.61571e-07 7.29109e-07 -5.56058e-07 1.08538e-07 1.07886e-06 1.57549e-08 -8.70011e-07 6.69505e-07 -5.0792e-07 8.93294e-08 9.77501e-07 2.02175e-08 -7.84853e-07 6.13703e-07 -4.63954e-07 7.30312e-08 8.80216e-07 2.76292e-08 -7.0342e-07 5.58638e-07 -4.19697e-07 5.82465e-08 7.91003e-07 2.93367e-08 -6.27808e-07 5.05592e-07 -3.80038e-07 4.62557e-08 7.04778e-07 3.44977e-08 -5.58211e-07 4.55844e-07 -3.39913e-07 3.33724e-08 6.27207e-07 3.53126e-08 -4.92786e-07 4.08851e-07 -3.04562e-07 2.38263e-08 5.52856e-07 3.82618e-08 -4.31959e-07 3.64574e-07 -2.68919e-07 1.38534e-08 4.84753e-07 3.69425e-08 -3.74974e-07 3.2282e-07 -2.38186e-07 7.6058e-09 4.20065e-07 3.91544e-08 -3.22664e-07 2.83588e-07 -2.07083e-07 -5.04466e-10 3.61702e-07 3.62052e-08 -2.74236e-07 2.46374e-07 -1.81356e-07 -4.48199e-09 3.06211e-07 3.75633e-08 -2.31822e-07 2.12885e-07 -1.54231e-07 -1.09042e-08 2.58752e-07 3.46918e-08 -1.91135e-07 1.81453e-07 -1.32054e-07 -1.3834e-08 2.12109e-07 3.48858e-08 -1.54541e-07 1.5165e-07 -1.09954e-07 -1.66862e-08 1.72916e-07 3.01516e-08 -1.22799e-07 1.26194e-07 -9.33263e-08 -1.75593e-08 1.35469e-07 2.98023e-08 -9.63919e-08 1.04463e-07 -7.59998e-08 -2.04891e-08 1.05783e-07 2.53397e-08 -7.11492e-08 8.37802e-08 -6.29031e-08 -1.88593e-08 7.76878e-08 2.44084e-08 -5.1766e-08 6.57747e-08 -4.85064e-08 -1.93443e-08 5.68107e-08 1.88593e-08 -3.5138e-08 5.23481e-08 -4.06872e-08 -1.73847e-08 3.65932e-08 1.72295e-08 -2.26622e-08 4.07454e-08 -3.345e-08 -1.64728e-08 2.33995e-08 1.12923e-08 -1.39504e-08 3.33724e-08 -3.01322e-08 -1.23012e-08 1.29221e-08 9.50725e-09 -9.04159e-09 2.79785e-08 -3.0462e-08 -1.00893e-08 8.42071e-09 4.65661e-10 -9.58486e-09 3.27903e-08 -3.70395e-08 -2.75516e-09 7.29536e-09 -5.3163e-09 -1.20102e-08 1.44122e-06 -5.83047e-07 2.83584e-06 2.83584e-06 -1.50385e-06 -2.10423e-06 1.27552e-06 -5.88305e-07 1.72004e-06 2.32765e-06 -7.39587e-07 -1.70764e-06 1.17673e-06 -5.89644e-07 1.04816e-06 2.02489e-06 -3.10092e-07 -1.45996e-06 1.18647e-06 -6.0664e-07 6.48162e-07 1.80552e-06 -2.33025e-08 -1.25564e-06 1.07727e-06 -6.6772e-07 3.74081e-07 1.61022e-06 2.07219e-08 -1.17448e-06 1.00676e-06 -6.51712e-07 2.78659e-07 1.47735e-06 4.35781e-08 -1.09236e-06 9.51074e-07 -6.53944e-07 2.18706e-07 1.35798e-06 5.77032e-08 -1.02265e-06 9.06914e-07 -6.12248e-07 1.72954e-07 1.25674e-06 7.32252e-08 -9.2232e-07 8.39743e-07 -5.67078e-07 1.36516e-07 1.13501e-06 8.52936e-08 -8.29692e-07 7.75986e-07 -5.22627e-07 1.03299e-07 1.02077e-06 9.61591e-08 -7.39237e-07 7.09202e-07 -4.75731e-07 7.72222e-08 9.14636e-07 1.03028e-07 -6.57882e-07 6.47968e-07 -4.31241e-07 5.35899e-08 8.16188e-07 1.08227e-07 -5.81126e-07 5.85336e-07 -3.89409e-07 3.39933e-08 7.24685e-07 1.10129e-07 -5.12189e-07 5.28564e-07 -3.47927e-07 1.75787e-08 6.40944e-07 1.10672e-07 -4.46395e-07 4.70784e-07 -3.11586e-07 4.19095e-09 5.62092e-07 1.10284e-07 -3.89138e-07 4.21113e-07 -2.76273e-07 -9.35203e-09 4.90729e-07 1.08305e-07 -3.33472e-07 3.72219e-07 -2.44104e-07 -1.92279e-08 4.23014e-07 1.06326e-07 -2.83724e-07 3.2833e-07 -2.12361e-07 -2.89292e-08 3.6147e-07 1.02601e-07 -2.3706e-07 2.8545e-07 -1.84693e-07 -3.59141e-08 3.0396e-07 9.92635e-08 -1.94782e-07 2.45986e-07 -1.56928e-07 -4.09976e-08 2.53203e-07 9.37919e-08 -1.56889e-07 2.08228e-07 -1.34809e-07 -4.56154e-08 2.05163e-07 8.89413e-08 -1.23361e-07 1.76059e-07 -1.11642e-07 -4.8875e-08 1.63486e-07 8.35862e-08 -9.34815e-08 1.44898e-07 -9.15995e-08 -5.02332e-08 1.26893e-07 7.67177e-08 -6.88209e-08 1.18666e-07 -7.4176e-08 -5.11451e-08 9.44516e-08 6.95388e-08 -4.47423e-08 9.2395e-08 -6.11374e-08 -4.95541e-08 6.47657e-08 6.37568e-08 -2.83471e-08 7.31088e-08 -4.6799e-08 -4.84676e-08 4.36169e-08 5.57629e-08 -1.34072e-08 5.4754e-08 -3.69037e-08 -4.50915e-08 2.40592e-08 4.81571e-08 -3.0268e-09 4.11722e-08 -2.95113e-08 -4.09782e-08 1.02445e-08 4.02409e-08 4.65661e-09 2.95307e-08 -2.52233e-08 -3.47306e-08 8.53712e-10 3.19754e-08 6.0924e-09 2.33607e-08 -2.16532e-08 -2.94531e-08 -3.58947e-09 2.40204e-08 6.67448e-09 1.85488e-08 -2.42338e-08 -2.12846e-08 -3.91932e-09 1.38534e-08 6.20882e-10 2.36711e-08 -3.37992e-08 -1.38146e-08 -6.01479e-10 1.70742e-09 -1.07102e-08 1.3314e-06 -6.65702e-07 3.33685e-06 3.33685e-06 -2.04501e-06 -2.68619e-06 1.39962e-06 -6.63121e-07 2.15543e-06 2.80607e-06 -1.10422e-06 -2.07578e-06 1.41138e-06 -6.61763e-07 1.40377e-06 2.38667e-06 -5.35375e-07 -1.63955e-06 1.44479e-06 -6.75054e-07 9.22475e-07 2.037e-06 -1.42842e-07 -1.27587e-06 1.31208e-06 -7.22454e-07 5.76295e-07 1.71391e-06 -2.23711e-08 -1.11161e-06 1.19438e-06 -6.73598e-07 4.21695e-07 1.51503e-06 5.1572e-08 -9.7818e-07 1.09124e-06 -6.27595e-07 3.1013e-07 1.34351e-06 1.0198e-07 -8.6549e-07 9.99542e-07 -5.90924e-07 2.21926e-07 1.1926e-06 1.40164e-07 -7.67972e-07 9.1809e-07 -5.39857e-07 1.50913e-07 1.0619e-06 1.61002e-07 -6.71658e-07 8.36483e-07 -4.92592e-07 1.02019e-07 9.36988e-07 1.78154e-07 -5.83726e-07 7.57165e-07 -4.44745e-07 6.26703e-08 8.26355e-07 1.85682e-07 -5.05553e-07 6.83824e-07 -4.00643e-07 3.28679e-08 7.25539e-07 1.92473e-07 -4.34811e-07 6.14518e-07 -3.57802e-07 6.55806e-09 6.35007e-07 1.92512e-07 -3.71947e-07 5.50256e-07 -3.18338e-07 -1.30579e-08 5.52236e-07 1.91814e-07 -3.14011e-07 4.8844e-07 -2.80406e-07 -3.00546e-08 4.76333e-07 1.85566e-07 -2.6337e-07 4.32638e-07 -2.47499e-07 -4.36752e-08 4.05669e-07 1.825e-07 -2.15659e-07 3.79669e-07 -2.15485e-07 -5.58794e-08 3.42571e-07 1.75632e-07 -1.73304e-07 3.31124e-07 -1.86672e-07 -6.59881e-08 2.83122e-07 1.70316e-07 -1.34421e-07 2.84131e-07 -1.59547e-07 -7.33805e-08 2.31434e-07 1.61623e-07 -1.00137e-07 2.42338e-07 -1.33781e-07 -7.9143e-08 1.82694e-07 1.53086e-07 -6.91507e-08 2.02213e-07 -1.10827e-07 -8.3237e-08 1.39e-07 1.42997e-07 -4.35005e-08 1.67134e-07 -9.01637e-08 -8.50608e-08 1.01398e-07 1.34731e-07 -1.9713e-08 1.34421e-07 -7.11492e-08 -8.69234e-08 6.74821e-08 1.23944e-07 -1.14475e-09 1.06675e-07 -5.56659e-08 -8.63414e-08 3.87275e-08 1.14126e-07 1.52116e-08 8.03266e-08 -4.07648e-08 -8.30817e-08 1.58325e-08 1.01243e-07 2.62323e-08 5.84405e-08 -3.00352e-08 -7.85027e-08 -3.55067e-09 9.15024e-08 3.47694e-08 3.9814e-08 -2.14204e-08 -7.36521e-08 -1.69384e-08 7.84251e-08 3.79514e-08 2.51069e-08 -1.48624e-08 -6.64149e-08 -2.59606e-08 6.72881e-08 3.93872e-08 1.38146e-08 -1.18744e-08 -5.79554e-08 -3.0074e-08 5.23869e-08 3.49246e-08 6.98492e-09 -1.20102e-08 -4.61393e-08 -2.86964e-08 4.07454e-08 2.75516e-08 6.0924e-09 -1.41833e-08 -3.46724e-08 -2.14786e-08 2.56114e-08 1.65698e-08 1.17968e-08 -2.57278e-08 -2.14398e-08 -1.24176e-08 1.17191e-08 4.26856e-10 1.5134e-08 -3.17404e-06 -2.11513e-06 -2.11513e-06 -1.44336e-07 -1.02106e-06 1.30339e-06 -1.87863e-06 -6.93059e-08 8.11531e-07 -3.75381e-07 -1.38818e-06 9.30314e-07 -1.41274e-06 -2.2604e-08 9.96787e-07 -4.82794e-07 -1.51559e-06 7.61123e-07 -1.19518e-06 4.94765e-08 1.0893e-06 -5.36675e-07 -1.55958e-06 6.79904e-07 -1.07841e-06 1.0652e-07 1.13629e-06 -5.60113e-07 -1.55956e-06 6.4044e-07 -1.00084e-06 1.41251e-07 1.14723e-06 -5.59958e-07 -1.52535e-06 6.12577e-07 -9.40888e-07 1.61662e-07 1.13303e-06 -5.49888e-07 -1.47112e-06 5.85336e-07 -8.8433e-07 1.75748e-07 1.10222e-06 -5.32852e-07 -1.40325e-06 5.56931e-07 -8.27344e-07 1.83393e-07 1.05853e-06 -5.12053e-07 -1.32615e-06 5.2612e-07 -7.68768e-07 1.8867e-07 1.00672e-06 -4.88091e-07 -1.24254e-06 4.92631e-07 -7.11084e-07 1.89291e-07 9.47116e-07 -4.61761e-07 -1.15659e-06 4.57745e-07 -6.51887e-07 1.88399e-07 8.86153e-07 -4.33763e-07 -1.06931e-06 4.2154e-07 -5.94145e-07 1.84208e-07 8.22241e-07 -4.04272e-07 -9.83341e-07 3.85412e-07 -5.35685e-07 1.77999e-07 7.59144e-07 -3.75692e-07 -8.97252e-07 3.49634e-07 -4.81145e-07 1.71053e-07 6.9434e-07 -3.4653e-07 -8.14131e-07 3.14671e-07 -4.27904e-07 1.62787e-07 6.31786e-07 -3.16262e-07 -7.32175e-07 2.81221e-07 -3.7771e-07 1.52582e-07 5.69543e-07 -2.86886e-07 -6.54642e-07 2.49012e-07 -3.29746e-07 1.41406e-07 5.10093e-07 -2.58811e-07 -5.79244e-07 2.19249e-07 -2.85606e-07 1.31045e-07 4.52157e-07 -2.30638e-07 -5.09278e-07 1.89757e-07 -2.43192e-07 1.20024e-07 3.99111e-07 -2.04231e-07 -4.42029e-07 1.64107e-07 -2.05104e-07 1.08344e-07 3.46568e-07 -1.77921e-07 -3.78621e-07 1.37875e-07 -1.69093e-07 9.71292e-08 2.98178e-07 -1.5328e-07 -3.1956e-07 1.14514e-07 -1.38224e-07 8.45563e-08 2.5103e-07 -1.2924e-07 -2.66824e-07 9.49561e-08 -1.0943e-07 7.26044e-08 2.10324e-07 -1.05628e-07 -2.16785e-07 7.51655e-08 -8.31011e-08 6.08076e-08 1.72062e-07 -8.50026e-08 -1.72663e-07 5.82077e-08 -6.00703e-08 4.96317e-08 1.37331e-07 -6.7191e-08 -1.32888e-07 4.45871e-08 -4.30349e-08 3.88439e-08 1.04541e-07 -4.82736e-08 -9.75172e-08 3.32948e-08 -2.69501e-08 2.83665e-08 7.7649e-08 -3.30814e-08 -6.76373e-08 2.32831e-08 -1.62593e-08 1.94414e-08 5.39779e-08 -1.92085e-08 -4.31901e-08 1.68026e-08 -8.07146e-09 1.09042e-08 3.48858e-08 -7.14014e-09 -2.20413e-08 1.25729e-08 -5.70435e-09 3.10441e-09 1.80056e-08 1.74623e-09 -8.40131e-09 7.83863e-09 -3.64768e-09 -1.80444e-09 8.30429e-09 4.61781e-09 -6.40284e-10 2.64418e-07 -1.15337e-06 -1.13272e-06 -1.13272e-06 9.82002e-07 1.96742e-07 2.624e-07 -1.99103e-06 -8.80837e-07 -9.80023e-08 -6.2614e-07 -1.64774e-06 1.08348e-06 -1.50686e-06 2.0136e-07 1.23051e-06 -5.58522e-07 -1.6752e-06 9.02296e-07 -1.2426e-06 1.83277e-07 1.30804e-06 -5.33978e-07 -1.68255e-06 7.90499e-07 -1.08439e-06 1.76136e-07 1.33261e-06 -5.13178e-07 -1.64807e-06 7.2713e-07 -9.83224e-07 1.7342e-07 1.31565e-06 -4.85821e-07 -1.58267e-06 6.80448e-07 -9.1126e-07 1.68802e-07 1.27215e-06 -4.61858e-07 -1.50308e-06 6.39974e-07 -8.47756e-07 1.68104e-07 1.21495e-06 -4.39526e-07 -1.41507e-06 6.01091e-07 -7.89626e-07 1.6659e-07 1.147e-06 -4.1731e-07 -1.32341e-06 5.61976e-07 -7.30855e-07 1.66513e-07 1.07669e-06 -3.94396e-07 -1.23059e-06 5.22433e-07 -6.73851e-07 1.63641e-07 1.00334e-06 -3.71287e-07 -1.13798e-06 4.8227e-07 -6.1638e-07 1.61002e-07 9.30624e-07 -3.47733e-07 -1.04675e-06 4.43348e-07 -5.61626e-07 1.55453e-07 8.56972e-07 -3.24876e-07 -9.57167e-07 4.04582e-07 -5.07765e-07 1.50874e-07 7.85221e-07 -3.00837e-07 -8.7133e-07 3.67058e-07 -4.56367e-07 1.43268e-07 7.1545e-07 -2.78136e-07 -7.8786e-07 3.30736e-07 -4.07007e-07 1.3671e-07 6.4789e-07 -2.55338e-07 -7.07902e-07 2.96393e-07 -3.60538e-07 1.28057e-07 5.81727e-07 -2.32035e-07 -6.31534e-07 2.6337e-07 -3.1665e-07 1.19947e-07 5.20299e-07 -2.09179e-07 -5.59589e-07 2.32908e-07 -2.75031e-07 1.09896e-07 4.60966e-07 -1.86905e-07 -4.90341e-07 2.03649e-07 -2.37429e-07 1.00738e-07 4.04698e-07 -1.67716e-07 -4.26682e-07 1.75904e-07 -2.01457e-07 9.29382e-08 3.52273e-07 -1.45733e-07 -3.66456e-07 1.50409e-07 -1.68453e-07 8.35086e-08 3.04504e-07 -1.27708e-07 -3.12168e-07 1.27979e-07 -1.38767e-07 7.35357e-08 2.58209e-07 -1.08868e-07 -2.60421e-07 1.05628e-07 -1.1236e-07 6.41837e-08 2.15873e-07 -9.00861e-08 -2.14301e-07 8.68846e-08 -8.89995e-08 5.3357e-08 1.77689e-07 -7.46804e-08 -1.72411e-07 7.06253e-08 -6.81806e-08 4.64109e-08 1.44239e-07 -5.96046e-08 -1.34809e-07 5.61122e-08 -5.08153e-08 3.69813e-08 1.12224e-07 -4.50721e-08 -1.01204e-07 4.37722e-08 -3.71753e-08 2.89874e-08 8.51384e-08 -3.2247e-08 -7.37491e-08 3.33724e-08 -2.52621e-08 2.02175e-08 6.17389e-08 -2.14204e-08 -4.96899e-08 2.5689e-08 -1.6725e-08 1.47847e-08 4.30349e-08 -1.08266e-08 -3.06948e-08 2.1304e-08 -1.16803e-08 6.8297e-09 2.66591e-08 -2.19249e-09 -1.33684e-08 1.50564e-08 -7.87744e-09 2.2507e-09 1.34266e-08 1.70742e-09 -1.84324e-09 4.36208e-07 -9.07574e-07 -3.37158e-07 -3.37158e-07 4.89682e-07 -2.22217e-07 4.68727e-07 -9.31808e-07 -3.75672e-07 3.35819e-07 2.10324e-07 -8.55187e-07 4.7804e-07 -1.44448e-06 -2.9034e-07 7.77072e-07 -5.67738e-07 -1.77529e-06 9.50376e-07 -1.20567e-06 2.41562e-07 1.45764e-06 -4.90147e-07 -1.73917e-06 8.50569e-07 -1.05104e-06 2.07801e-07 1.46516e-06 -4.39274e-07 -1.67574e-06 7.83087e-07 -9.43992e-07 1.82578e-07 1.42667e-06 -3.92378e-07 -1.58298e-06 7.28915e-07 -8.7069e-07 1.62089e-07 1.3593e-06 -3.60926e-07 -1.48626e-06 6.83242e-07 -8.06797e-07 1.51806e-07 1.2829e-06 -3.36518e-07 -1.38493e-06 6.37723e-07 -7.49152e-07 1.45131e-07 1.19834e-06 -3.16048e-07 -1.28623e-06 5.93951e-07 -6.9174e-07 1.40863e-07 1.11522e-06 -2.97499e-07 -1.18784e-06 5.49713e-07 -6.36637e-07 1.36594e-07 1.03039e-06 -2.78834e-07 -1.09283e-06 5.06407e-07 -5.82096e-07 1.32209e-07 9.49134e-07 -2.61682e-07 -1.00042e-06 4.6473e-07 -5.30524e-07 1.26854e-07 8.68031e-07 -2.43308e-07 -9.11881e-07 4.23247e-07 -4.7936e-07 1.21926e-07 7.92556e-07 -2.26214e-07 -8.27364e-07 3.85257e-07 -4.3161e-07 1.15523e-07 7.1836e-07 -2.0817e-07 -7.45601e-07 3.47694e-07 -3.85936e-07 1.08926e-07 6.47735e-07 -1.92299e-07 -6.67506e-07 3.11799e-07 -3.43037e-07 1.02251e-07 5.78545e-07 -1.74953e-07 -5.94844e-07 2.7637e-07 -3.01787e-07 9.60815e-08 5.16806e-07 -1.58577e-07 -5.25072e-07 2.45559e-07 -2.64534e-07 8.83204e-08 4.55533e-07 -1.41677e-07 -4.59394e-07 2.1564e-07 -2.29746e-07 8.15295e-08 3.9977e-07 -1.2697e-07 -3.99363e-07 1.87429e-07 -1.95558e-07 7.4079e-08 3.46918e-07 -1.12612e-07 -3.44454e-07 1.61584e-07 -1.66241e-07 6.68224e-08 2.98955e-07 -9.93799e-08 -2.91834e-07 1.38301e-07 -1.3964e-07 5.99927e-08 2.5266e-07 -8.51772e-08 -2.44336e-07 1.15911e-07 -1.14436e-07 5.2969e-08 2.12225e-07 -7.30118e-08 -2.01496e-07 9.87202e-08 -9.35785e-08 4.58676e-08 1.74468e-07 -6.00315e-08 -1.61584e-07 7.98609e-08 -7.34775e-08 3.93872e-08 1.41018e-07 -4.92631e-08 -1.27669e-07 6.58523e-08 -5.71987e-08 3.13933e-08 1.0978e-07 -3.80484e-08 -9.63143e-08 5.28526e-08 -4.36946e-08 2.65039e-08 8.47892e-08 -2.89098e-08 -6.9694e-08 4.2608e-08 -3.39545e-08 1.94414e-08 6.01867e-08 -2.07995e-08 -4.92631e-08 3.54679e-08 -2.50681e-08 1.45907e-08 4.29961e-08 -1.41833e-08 -3.0462e-08 3.06172e-08 -2.12458e-08 1.08654e-08 2.71248e-08 -6.75209e-09 -1.61235e-08 2.5689e-08 -1.69384e-08 6.13121e-09 1.5522e-08 -4.17155e-09 -2.11488e-09 5.95775e-07 -7.09066e-07 3.95657e-07 3.95657e-07 6.28643e-08 -6.36404e-07 6.22007e-07 -7.90809e-07 8.93682e-08 7.89956e-07 5.21153e-08 -1.0309e-06 6.07416e-07 -8.01908e-07 -3.10247e-08 1.05499e-06 -3.50022e-08 -1.29157e-06 6.24374e-07 -1.11237e-06 -3.44589e-08 1.22655e-06 -4.07104e-07 -1.74355e-06 8.80177e-07 -9.81381e-07 2.14049e-07 1.55857e-06 -3.41427e-07 -1.67248e-06 8.17274e-07 -8.80682e-07 1.69617e-07 1.50835e-06 -2.8254e-07 -1.55323e-06 7.67293e-07 -8.15625e-07 1.43268e-07 1.4205e-06 -2.50972e-07 -1.43775e-06 7.19874e-07 -7.58e-07 1.30928e-07 1.32318e-06 -2.28465e-07 -1.32942e-06 6.72066e-07 -7.02217e-07 1.20567e-07 1.22613e-06 -2.11255e-07 -1.2251e-06 6.23288e-07 -6.47715e-07 1.13777e-07 1.13148e-06 -1.96063e-07 -1.12502e-06 5.7676e-07 -5.9562e-07 1.06908e-07 1.0392e-06 -1.83665e-07 -1.02969e-06 5.2969e-07 -5.44067e-07 1.02445e-07 9.5123e-07 -1.70859e-07 -9.38269e-07 4.85452e-07 -4.95192e-07 9.57322e-08 8.65432e-07 -1.58131e-07 -8.51287e-07 4.40787e-07 -4.47132e-07 9.07263e-08 7.85765e-07 -1.46412e-07 -7.68749e-07 4.00275e-07 -4.03049e-07 8.40519e-08 7.0796e-07 -1.33858e-07 -6.90459e-07 3.60693e-07 -3.60674e-07 7.8852e-08 6.36714e-07 -1.22275e-07 -6.1607e-07 3.23518e-07 -3.20239e-07 7.18283e-08 5.66671e-07 -1.11002e-07 -5.47094e-07 2.87507e-07 -2.82133e-07 6.63955e-08 5.03225e-07 -1.02077e-07 -4.82309e-07 2.54445e-07 -2.47906e-07 6.12345e-08 4.42068e-07 -9.08816e-08 -4.21656e-07 2.23479e-07 -2.15213e-07 5.50256e-08 3.86266e-07 -8.12773e-08 -3.63798e-07 1.94802e-07 -1.8512e-07 4.98258e-08 3.32754e-07 -7.19059e-08 -3.13235e-07 1.67871e-07 -1.57704e-07 4.45095e-08 2.8611e-07 -6.30001e-08 -2.64185e-07 1.44588e-07 -1.32655e-07 3.87275e-08 2.40087e-07 -5.44048e-08 -2.20064e-07 1.2177e-07 -1.09954e-07 3.47694e-08 2.00584e-07 -4.70512e-08 -1.80502e-07 1.02445e-07 -9.12502e-08 2.98023e-08 1.63331e-07 -3.84365e-08 -1.45073e-07 8.44399e-08 -7.28566e-08 2.52233e-08 1.31937e-07 -3.23829e-08 -1.12923e-07 6.90343e-08 -5.94494e-08 2.12652e-08 1.01786e-07 -2.50099e-08 -8.6904e-08 5.59958e-08 -4.55572e-08 1.74623e-08 7.93176e-08 -1.92085e-08 -6.21076e-08 4.57512e-08 -3.71171e-08 1.26117e-08 5.54913e-08 -1.39504e-08 -4.40438e-08 3.73693e-08 -3.02292e-08 1.00505e-08 4.01633e-08 -9.37143e-09 -2.92008e-08 3.37216e-08 -2.63487e-08 6.98492e-09 2.68143e-08 -6.57747e-09 -1.77145e-08 3.0268e-08 -2.57472e-08 6.28643e-09 1.73847e-08 -6.15061e-09 -8.01325e-09 8.15567e-07 -5.57397e-07 1.13839e-06 1.13839e-06 -3.57977e-07 -1.05882e-06 7.87472e-07 -6.61957e-07 5.55456e-07 1.25969e-06 -1.30424e-07 -1.22438e-06 7.50219e-07 -6.87995e-07 2.58869e-07 1.35744e-06 -5.06407e-08 -1.33949e-06 7.36948e-07 -7.10502e-07 1.18511e-07 1.41251e-06 -5.27361e-08 -1.41239e-06 7.26936e-07 -8.93235e-07 7.41178e-08 1.43897e-06 -2.29687e-07 -1.62945e-06 8.51927e-07 -8.06545e-07 1.64378e-07 1.57176e-06 -1.61662e-07 -1.47335e-06 8.15024e-07 -7.53712e-07 1.41212e-07 1.45892e-06 -1.32248e-07 -1.35141e-06 7.68729e-07 -7.03401e-07 1.22857e-07 1.34696e-06 -1.16706e-07 -1.2359e-06 7.17545e-07 -6.53672e-07 1.12806e-07 1.23621e-06 -1.04134e-07 -1.13292e-06 6.66323e-07 -6.01421e-07 1.00854e-07 1.13315e-06 -9.35203e-08 -1.03243e-06 6.13237e-07 -5.53729e-07 9.0804e-08 1.03264e-06 -8.5313e-08 -9.40713e-07 5.6217e-07 -5.03089e-07 8.16848e-08 9.39549e-07 -7.70087e-08 -8.50996e-07 5.11645e-07 -4.58579e-07 7.40401e-08 8.50026e-07 -6.98492e-08 -7.69913e-07 4.657e-07 -4.11955e-07 6.5115e-08 7.66867e-07 -6.26314e-08 -6.90091e-07 4.20065e-07 -3.72257e-07 5.90226e-08 6.87859e-07 -5.65973e-08 -6.17545e-07 3.77884e-07 -3.31163e-07 5.09899e-08 6.13004e-07 -4.98258e-08 -5.4626e-07 3.37022e-07 -2.96025e-07 4.50527e-08 5.4234e-07 -4.47229e-08 -4.83647e-07 3.00468e-07 -2.59606e-07 3.84947e-08 4.78079e-07 -3.88051e-08 -4.20841e-07 2.64767e-07 -2.2798e-07 3.4847e-08 4.17427e-07 -3.49828e-08 -3.66456e-07 2.32249e-07 -1.98061e-07 2.86382e-08 3.60499e-07 -2.97635e-08 -3.13778e-07 2.02058e-07 -1.71131e-07 2.43696e-08 3.08695e-07 -2.63487e-08 -2.66979e-07 1.74196e-07 -1.455e-07 1.97518e-08 2.60615e-07 -2.22353e-08 -2.21907e-07 1.47421e-07 -1.24526e-07 1.77339e-08 2.1758e-07 -1.87429e-08 -1.84615e-07 1.25651e-07 -1.01611e-07 1.27281e-08 1.78698e-07 -1.46683e-08 -1.47071e-07 1.03532e-07 -8.58175e-08 1.10595e-08 1.4354e-07 -1.31937e-08 -1.18084e-07 8.61861e-08 -6.92477e-08 8.18788e-09 1.13117e-07 -1.00505e-08 -8.87473e-08 6.90731e-08 -5.69271e-08 7.37297e-09 8.60697e-08 -9.15801e-09 -6.77925e-08 5.59958e-08 -4.45289e-08 5.16108e-09 6.38344e-08 -6.03419e-09 -4.73034e-08 4.4005e-08 -3.7835e-08 3.41485e-09 4.46259e-08 -4.71482e-09 -3.44589e-08 3.74857e-08 -3.07142e-08 1.24176e-09 3.10053e-08 -3.43425e-09 -2.21383e-08 3.33336e-08 -3.1665e-08 2.59994e-09 2.12652e-08 -4.92825e-09 -1.78698e-08 3.56619e-08 -3.1665e-08 3.25963e-09 1.61817e-08 -7.6252e-09 -1.01281e-08 1.11029e-06 -5.01789e-07 1.91526e-06 1.91526e-06 -8.22474e-07 -1.50296e-06 9.94109e-07 -5.91797e-07 1.05655e-06 1.7425e-06 -3.59917e-07 -1.42601e-06 9.21117e-07 -6.177e-07 5.9205e-07 1.66486e-06 -1.27184e-07 -1.3899e-06 8.86386e-07 -6.34153e-07 3.36285e-07 1.60548e-06 -1.68414e-08 -1.35628e-06 8.72727e-07 -6.599e-07 1.98527e-07 1.54374e-06 -7.43118e-09 -1.36037e-06 8.64151e-07 -7.26238e-07 1.56656e-07 1.51406e-06 -4.2511e-08 -1.33934e-06 8.82157e-07 -7.00723e-07 1.55958e-07 1.45783e-06 -3.00352e-08 -1.22432e-06 8.3365e-07 -6.60172e-07 1.35391e-07 1.334e-06 -1.69578e-08 -1.11388e-06 7.76995e-07 -6.11607e-07 1.17308e-07 1.21786e-06 -9.17741e-09 -1.01078e-06 7.18826e-07 -5.66031e-07 9.95739e-08 1.10416e-06 -2.46412e-09 -9.14404e-07 6.58911e-07 -5.15545e-07 8.37802e-08 9.98223e-07 5.23869e-09 -8.25132e-07 6.01052e-07 -4.69328e-07 6.91895e-08 9.01675e-07 9.81769e-09 -7.41973e-07 5.47385e-07 -4.24276e-07 5.59958e-08 8.09513e-07 1.21848e-08 -6.62423e-07 4.94105e-07 -3.83084e-07 4.65273e-08 7.22512e-07 1.65698e-08 -5.90032e-07 4.44978e-07 -3.41854e-07 3.55843e-08 6.43311e-07 1.83936e-08 -5.21579e-07 3.98412e-07 -3.05804e-07 2.71636e-08 5.67952e-07 2.04891e-08 -4.58638e-07 3.54213e-07 -2.69657e-07 1.89757e-08 4.98762e-07 2.18473e-08 -3.99149e-07 3.12847e-07 -2.38477e-07 1.28833e-08 4.34346e-07 2.31278e-08 -3.4523e-07 2.75167e-07 -2.06249e-07 6.55806e-09 3.75323e-07 2.33995e-08 -2.93502e-07 2.38535e-07 -1.79881e-07 2.13428e-09 3.19288e-07 2.35159e-08 -2.48993e-07 2.05512e-07 -1.53979e-07 -3.24023e-09 2.69424e-07 2.35547e-08 -2.07413e-07 1.74623e-07 -1.30599e-07 -7.27596e-09 2.23828e-07 2.37099e-08 -1.69559e-07 1.47382e-07 -1.08945e-07 -1.10595e-08 1.82306e-07 2.06055e-08 -1.35449e-07 1.22003e-07 -9.19293e-08 -1.07296e-08 1.45364e-07 2.09548e-08 -1.06792e-07 1.01281e-07 -7.48162e-08 -1.40669e-08 1.13699e-07 1.75787e-08 -8.05206e-08 8.08698e-08 -6.14479e-08 -1.29027e-08 8.5216e-08 1.6531e-08 -5.97017e-08 6.40672e-08 -4.83512e-08 -1.39504e-08 6.22822e-08 1.32713e-08 -4.12304e-08 4.91661e-08 -3.92902e-08 -1.2146e-08 4.23752e-08 1.15251e-08 -2.80949e-08 4.00857e-08 -3.22664e-08 -1.17191e-08 2.79397e-08 8.3431e-09 -1.67444e-08 3.13545e-08 -2.91814e-08 -8.94458e-09 1.61817e-08 7.06253e-09 -1.17385e-08 2.79785e-08 -2.9162e-08 -7.6058e-09 1.11759e-08 1.5522e-09 -1.0943e-08 3.11217e-08 -3.64768e-08 -2.32831e-09 1.01281e-08 -4.11334e-09 -1.32131e-08 1.39435e-06 -5.72569e-07 2.67247e-06 2.67247e-06 -1.37009e-06 -2.0095e-06 1.22787e-06 -6.04487e-07 1.58639e-06 2.233e-06 -6.65197e-07 -1.67811e-06 1.1321e-06 -6.13295e-07 9.58176e-07 1.97972e-06 -2.84752e-07 -1.47527e-06 1.07998e-06 -6.23967e-07 5.95309e-07 1.79392e-06 -7.54953e-08 -1.32723e-06 1.05891e-06 -6.35026e-07 3.77962e-07 1.63626e-06 3.74857e-08 -1.21611e-06 9.96127e-07 -6.52527e-07 2.46762e-07 1.50463e-06 5.18436e-08 -1.13024e-06 9.44128e-07 -6.71503e-07 1.92357e-07 1.37824e-06 5.10287e-08 -1.06528e-06 9.07651e-07 -6.31456e-07 1.57782e-07 1.27785e-06 6.36404e-08 -9.59437e-07 8.38617e-07 -5.83765e-07 1.2697e-07 1.15329e-06 7.31864e-08 -8.62114e-07 7.73075e-07 -5.36248e-07 9.79441e-08 1.03594e-06 8.07146e-08 -7.69292e-07 7.04196e-07 -4.87237e-07 7.53595e-08 9.2752e-07 8.59921e-08 -6.85415e-07 6.40284e-07 -4.41253e-07 5.41719e-08 8.27364e-07 8.89801e-08 -6.06563e-07 5.78235e-07 -3.97655e-07 3.72141e-08 7.34193e-07 9.23562e-08 -5.35491e-07 5.19988e-07 -3.54756e-07 2.24294e-08 6.51421e-07 9.18129e-08 -4.68591e-07 4.6539e-07 -3.16436e-07 1.02834e-08 5.71522e-07 9.20457e-08 -4.08172e-07 4.14322e-07 -2.80153e-07 -1.494e-09 4.99383e-07 9.03771e-08 -3.52525e-07 3.65699e-07 -2.46412e-07 -1.13117e-08 4.32095e-07 8.82428e-08 -3.01399e-07 3.21772e-07 -2.14243e-07 -1.92861e-08 3.70744e-07 8.52548e-08 -2.52e-07 2.78815e-07 -1.85488e-07 -2.57278e-08 3.11799e-07 8.27325e-08 -2.09819e-07 2.40126e-07 -1.58325e-07 -3.15486e-08 2.61158e-07 7.78042e-08 -1.70063e-07 2.04037e-07 -1.34906e-07 -3.53321e-08 2.12613e-07 7.36133e-08 -1.35876e-07 1.70626e-07 -1.12671e-07 -3.82424e-08 1.71325e-07 6.91119e-08 -1.04541e-07 1.41057e-07 -9.32681e-08 -4.08618e-08 1.32791e-07 6.5115e-08 -7.74356e-08 1.15057e-07 -7.4758e-08 -4.23752e-08 1.00234e-07 5.78972e-08 -5.35899e-08 9.1192e-08 -6.14285e-08 -4.1114e-08 7.03537e-08 5.38615e-08 -3.47306e-08 7.16342e-08 -4.7478e-08 -4.09588e-08 4.76139e-08 4.62557e-08 -1.88205e-08 5.30078e-08 -3.74275e-08 -3.79514e-08 2.71248e-08 4.05513e-08 -7.97445e-09 4.07842e-08 -2.89292e-08 -3.41679e-08 1.43967e-08 3.23635e-08 1.00893e-09 2.92979e-08 -2.49129e-08 -2.83859e-08 2.98799e-09 2.68919e-08 3.18202e-09 2.27398e-08 -2.10906e-08 -2.40204e-08 -3.10441e-10 1.92085e-08 4.69542e-09 1.97906e-08 -2.40398e-08 -1.75787e-08 -3.08501e-09 1.15251e-08 -5.23869e-10 2.48353e-08 -3.37992e-08 -1.09818e-08 1.08654e-09 -3.10441e-10 -8.3431e-09 1.36493e-06 -6.84192e-07 3.22824e-06 3.22824e-06 -1.94734e-06 -2.61354e-06 1.41138e-06 -6.98938e-07 2.06397e-06 2.73972e-06 -1.05267e-06 -2.04235e-06 1.39454e-06 -7.00723e-07 1.35057e-06 2.35136e-06 -5.26818e-07 -1.64409e-06 1.35185e-06 -6.94631e-07 9.04663e-07 2.0323e-06 -2.124e-07 -1.35453e-06 1.31025e-06 -6.87956e-07 6.10521e-07 1.76098e-06 -1.10207e-08 -1.12422e-06 1.20082e-06 -6.83261e-07 4.05785e-07 1.52349e-06 6.27091e-08 -9.86057e-07 1.09632e-06 -6.43816e-07 2.93095e-07 1.34572e-06 1.04425e-07 -8.73542e-07 1.00222e-06 -6.12112e-07 2.09548e-07 1.19089e-06 1.3411e-07 -7.8039e-07 9.16887e-07 -5.56795e-07 1.42609e-07 1.06019e-06 1.5165e-07 -6.84386e-07 8.32059e-07 -5.06329e-07 9.61591e-08 9.34737e-07 1.66163e-07 -5.97308e-07 7.5247e-07 -4.56057e-07 5.94882e-08 8.24997e-07 1.70548e-07 -5.18514e-07 6.76916e-07 -4.09607e-07 3.40709e-08 7.24763e-07 1.74662e-07 -4.49286e-07 6.07028e-07 -3.65428e-07 9.8953e-09 6.35046e-07 1.74119e-07 -3.85723e-07 5.41758e-07 -3.23926e-07 -7.89684e-09 5.52895e-07 1.7245e-07 -3.28893e-07 4.80136e-07 -2.84791e-07 -2.37487e-08 4.78273e-07 1.69307e-07 -2.76758e-07 4.24877e-07 -2.50157e-07 -3.68649e-08 4.09666e-07 1.64922e-07 -2.28484e-07 3.72102e-07 -2.17561e-07 -4.81765e-08 3.45559e-07 1.58829e-07 -1.86051e-07 3.22897e-07 -1.87176e-07 -5.66167e-08 2.88555e-07 1.53397e-07 -1.47013e-07 2.78349e-07 -1.5945e-07 -6.53866e-08 2.35159e-07 1.44743e-07 -1.12748e-07 2.36051e-07 -1.33257e-07 -7.00238e-08 1.87545e-07 1.38146e-07 -8.054e-08 1.96897e-07 -1.09683e-07 -7.44476e-08 1.44277e-07 1.29493e-07 -5.2969e-08 1.61429e-07 -8.79518e-08 -7.66013e-08 1.05899e-07 1.20761e-07 -3.02098e-08 1.29531e-07 -6.9597e-08 -7.84445e-08 7.25656e-08 1.12186e-07 -9.1386e-09 1.0101e-07 -5.41913e-08 -7.77654e-08 4.35781e-08 1.03144e-07 6.59687e-09 7.59028e-08 -3.95618e-08 -7.64849e-08 2.00234e-08 9.27054e-08 1.92861e-08 5.50256e-08 -2.85412e-08 -7.29924e-08 3.88051e-10 8.39743e-08 2.84829e-08 3.70201e-08 -1.92279e-08 -6.88403e-08 -1.33684e-08 7.17118e-08 3.25187e-08 2.27786e-08 -1.30191e-08 -6.21464e-08 -2.29532e-08 6.18941e-08 3.38381e-08 1.21848e-08 -9.04159e-09 -5.44242e-08 -2.64069e-08 4.8584e-08 3.03844e-08 5.89838e-09 -9.48785e-09 -4.37916e-08 -2.5592e-08 3.72529e-08 2.25846e-08 5.51033e-09 -1.27281e-08 -3.3547e-08 -1.89175e-08 2.46412e-08 1.28445e-08 1.14087e-08 -2.39233e-08 -2.20801e-08 -1.02834e-08 1.19132e-08 -1.92085e-09 1.54367e-07 -3.40181e-06 -2.23684e-06 -2.23684e-06 -3.36828e-08 -9.12017e-07 1.3505e-06 -1.88476e-06 -1.12147e-07 7.67216e-07 -3.46355e-07 -1.34464e-06 9.24376e-07 -1.40624e-06 -5.10869e-08 9.52627e-07 -4.73519e-07 -1.48528e-06 7.43195e-07 -1.20137e-06 2.79009e-08 1.04588e-06 -5.35375e-07 -1.53938e-06 6.62248e-07 -1.09114e-06 8.78548e-08 1.09834e-06 -5.67234e-07 -1.54949e-06 6.19873e-07 -1.01495e-06 1.28134e-07 1.11662e-06 -5.75848e-07 -1.52492e-06 5.917e-07 -9.53771e-07 1.56113e-07 1.11103e-06 -5.71017e-07 -1.47888e-06 5.67758e-07 -8.95389e-07 1.73769e-07 1.08697e-06 -5.57707e-07 -1.41573e-06 5.40594e-07 -8.38734e-07 1.85139e-07 1.04793e-06 -5.38906e-07 -1.34237e-06 5.11956e-07 -7.78236e-07 1.92318e-07 1.00001e-06 -5.1539e-07 -1.26095e-06 4.79127e-07 -7.20223e-07 1.94879e-07 9.43973e-07 -4.8974e-07 -1.17678e-06 4.45987e-07 -6.59473e-07 1.95617e-07 8.85727e-07 -4.60714e-07 -1.09002e-06 4.10442e-07 -6.00296e-07 1.92551e-07 8.24453e-07 -4.3128e-07 -1.0042e-06 3.75595e-07 -5.40788e-07 1.87312e-07 7.62404e-07 -4.01749e-07 -9.17741e-07 3.40243e-07 -4.85297e-07 1.81297e-07 6.99074e-07 -3.70511e-07 -8.33999e-07 3.06444e-07 -4.30562e-07 1.72566e-07 6.37529e-07 -3.39157e-07 -7.52198e-07 2.72916e-07 -3.79456e-07 1.62322e-07 5.76566e-07 -3.09238e-07 -6.73482e-07 2.42066e-07 -3.31706e-07 1.52155e-07 5.17311e-07 -2.78621e-07 -5.97075e-07 2.11565e-07 -2.85935e-07 1.41134e-07 4.60267e-07 -2.494e-07 -5.25615e-07 1.8413e-07 -2.43541e-07 1.29531e-07 4.06289e-07 -2.21189e-07 -4.57764e-07 1.57161e-07 -2.04988e-07 1.1789e-07 3.54873e-07 -1.93735e-07 -3.94182e-07 1.32442e-07 -1.68201e-07 1.05278e-07 3.06017e-07 -1.67968e-07 -3.34558e-07 1.09663e-07 -1.36652e-07 9.2783e-08 2.59567e-07 -1.41367e-07 -2.79436e-07 9.08428e-08 -1.06423e-07 7.95505e-08 2.17774e-07 -1.18142e-07 -2.28814e-07 7.14402e-08 -8.13161e-08 6.8297e-08 1.79047e-07 -9.57322e-08 -1.83645e-07 5.55689e-08 -5.93718e-08 5.50256e-08 1.43036e-07 -7.52431e-08 -1.41794e-07 4.10946e-08 -4.08618e-08 4.46647e-08 1.11215e-07 -5.60734e-08 -1.06481e-07 3.00352e-08 -2.52621e-08 3.26739e-08 8.30429e-08 -3.90379e-08 -7.4564e-08 2.10324e-08 -1.4843e-08 2.27398e-08 5.82853e-08 -2.46995e-08 -4.91661e-08 1.47847e-08 -6.18941e-09 1.40863e-08 3.86111e-08 -1.12729e-08 -2.82307e-08 1.07102e-08 -2.77457e-09 5.3551e-09 2.23129e-08 -1.28057e-09 -1.30191e-08 9.58486e-09 -3.33724e-09 -2.07607e-09 9.70128e-09 6.8297e-09 -2.36711e-09 3.3481e-07 -1.32378e-06 -1.25209e-06 -1.25209e-06 1.07548e-06 3.14399e-07 3.12769e-07 -2.08005e-06 -9.61979e-07 -2.0394e-07 -6.26159e-07 -1.5834e-06 1.11134e-06 -1.52611e-06 1.90029e-07 1.1536e-06 -5.55146e-07 -1.6256e-06 8.99929e-07 -1.25315e-06 1.69578e-07 1.24755e-06 -5.40691e-07 -1.64817e-06 7.84057e-07 -1.10123e-06 1.68143e-07 1.28294e-06 -5.29011e-07 -1.62937e-06 7.16808e-07 -1.00414e-06 1.72178e-07 1.2794e-06 -5.14245e-07 -1.57828e-06 6.69737e-07 -9.29266e-07 1.76369e-07 1.24665e-06 -4.95308e-07 -1.50998e-06 6.30389e-07 -8.66421e-07 1.76874e-07 1.1971e-06 -4.73907e-07 -1.4289e-06 5.92554e-07 -8.06525e-07 1.77456e-07 1.1373e-06 -4.52429e-07 -1.34109e-06 5.55146e-07 -7.47309e-07 1.78154e-07 1.07102e-06 -4.28758e-07 -1.24978e-06 5.15215e-07 -6.88926e-07 1.76951e-07 1.00148e-06 -4.05707e-07 -1.15955e-06 4.76449e-07 -6.29826e-07 1.74274e-07 9.31245e-07 -3.80329e-07 -1.06858e-06 4.37916e-07 -5.73326e-07 1.69229e-07 8.60076e-07 -3.56095e-07 -9.78936e-07 4.00546e-07 -5.18223e-07 1.6465e-07 7.89645e-07 -3.30523e-07 -8.91062e-07 3.62517e-07 -4.64808e-07 1.5817e-07 7.20456e-07 -3.06289e-07 -8.08e-07 3.26778e-07 -4.14167e-07 1.51185e-07 6.54409e-07 -2.80619e-07 -7.27111e-07 2.91737e-07 -3.66631e-07 1.42104e-07 5.8976e-07 -2.5625e-07 -6.49733e-07 2.59567e-07 -3.2119e-07 1.33645e-07 5.28021e-07 -2.31472e-07 -5.76799e-07 2.28213e-07 -2.79067e-07 1.22896e-07 4.68843e-07 -2.08733e-07 -5.0728e-07 2.00506e-07 -2.39583e-07 1.14475e-07 4.13507e-07 -1.85042e-07 -4.41233e-07 1.71751e-07 -2.03494e-07 1.03998e-07 3.60616e-07 -1.6432e-07 -3.81668e-07 1.47692e-07 -1.70626e-07 9.42964e-08 3.11915e-07 -1.43482e-07 -3.2507e-07 1.24448e-07 -1.40261e-07 8.36638e-08 2.65505e-07 -1.23381e-07 -2.72354e-07 1.0458e-07 -1.1366e-07 7.41566e-08 2.23285e-07 -1.02329e-07 -2.23537e-07 8.51772e-08 -8.86891e-08 6.40284e-08 1.85372e-07 -8.55459e-08 -1.81433e-07 6.93835e-08 -6.92865e-08 5.37451e-08 1.49632e-07 -6.87627e-08 -1.42958e-07 5.44824e-08 -5.00004e-08 4.39662e-08 1.182e-07 -5.35316e-08 -1.08615e-07 4.31901e-08 -3.66126e-08 3.46918e-08 8.97562e-08 -3.92514e-08 -7.90654e-08 3.32172e-08 -2.48159e-08 2.49517e-08 6.48045e-08 -2.65233e-08 -5.38033e-08 2.61546e-08 -1.55997e-08 1.78504e-08 4.51303e-08 -1.49012e-08 -3.35664e-08 2.1498e-08 -1.08266e-08 9.74008e-09 2.84053e-08 -5.45212e-09 -1.68996e-08 1.86653e-08 -9.33263e-09 3.14321e-09 1.45907e-08 2.2895e-09 -2.67755e-09 4.61548e-07 -1.01235e-06 -4.86441e-07 -4.86441e-07 5.76566e-07 -1.09741e-07 4.90613e-07 -1.02806e-06 -4.67019e-07 2.18356e-07 2.48353e-07 -7.77208e-07 4.96511e-07 -1.50463e-06 -3.45404e-07 6.81301e-07 -5.8846e-07 -1.72401e-06 9.65588e-07 -1.2372e-06 2.35159e-07 1.37875e-06 -5.10171e-07 -1.69456e-06 8.60193e-07 -1.08103e-06 2.09121e-07 1.40129e-06 -4.6766e-07 -1.65207e-06 7.83669e-07 -9.75405e-07 1.89524e-07 1.381e-06 -4.33046e-07 -1.5829e-06 7.28876e-07 -8.95505e-07 1.77145e-07 1.33327e-06 -4.04078e-07 -1.49733e-06 6.81379e-07 -8.30895e-07 1.67444e-07 1.26617e-06 -3.79242e-07 -1.40486e-06 6.3621e-07 -7.71038e-07 1.60576e-07 1.19085e-06 -3.5757e-07 -1.30829e-06 5.92787e-07 -7.12171e-07 1.56229e-07 1.11091e-06 -3.36576e-07 -1.21151e-06 5.47036e-07 -6.54894e-07 1.52815e-07 1.03109e-06 -3.17872e-07 -1.11778e-06 5.05242e-07 -5.98433e-07 1.48274e-07 9.51036e-07 -2.97286e-07 -1.02407e-06 4.61742e-07 -5.44843e-07 1.44006e-07 8.73231e-07 -2.7703e-07 -9.353e-07 4.21773e-07 -4.92049e-07 1.38301e-07 7.98493e-07 -2.56793e-07 -8.48784e-07 3.8126e-07 -4.41699e-07 1.31899e-07 7.255e-07 -2.37875e-07 -7.67526e-07 3.4424e-07 -3.93911e-07 1.24875e-07 6.55845e-07 -2.18744e-07 -6.88519e-07 3.06832e-07 -3.49634e-07 1.17968e-07 5.8879e-07 -2.0037e-07 -6.1411e-07 2.73615e-07 -3.07414e-07 1.10556e-07 5.2515e-07 -1.81802e-07 -5.44416e-07 2.41562e-07 -2.68454e-07 1.02601e-07 4.65855e-07 -1.63272e-07 -4.78098e-07 2.12497e-07 -2.31375e-07 9.44128e-08 4.09743e-07 -1.45442e-07 -4.16728e-07 1.83199e-07 -1.97828e-07 8.52548e-08 3.56929e-07 -1.30172e-07 -3.59005e-07 1.58325e-07 -1.66746e-07 7.86192e-08 3.07725e-07 -1.13408e-07 -3.06696e-07 1.34421e-07 -1.39485e-07 6.98104e-08 2.63293e-07 -9.87202e-08 -2.57705e-07 1.13971e-07 -1.13912e-07 6.25538e-08 2.21694e-07 -8.34698e-08 -2.12613e-07 9.44128e-08 -9.15413e-08 5.39391e-08 1.8316e-07 -7.03537e-08 -1.73575e-07 7.66401e-08 -7.20029e-08 4.64497e-08 1.4971e-07 -5.6345e-08 -1.37816e-07 6.18553e-08 -5.48898e-08 3.6826e-08 1.18356e-07 -4.44124e-08 -1.05142e-07 5.02138e-08 -4.21229e-08 2.99964e-08 9.07263e-08 -3.3644e-08 -7.83087e-08 3.95812e-08 -3.1568e-08 2.32055e-08 6.78701e-08 -2.32831e-08 -5.45794e-08 3.21306e-08 -2.26816e-08 1.74623e-08 4.87392e-08 -1.44161e-08 -3.59335e-08 2.79009e-08 -1.88593e-08 1.10983e-08 3.26739e-08 -7.08193e-09 -2.04503e-08 2.67755e-08 -1.66474e-08 5.58794e-09 1.89369e-08 -1.10595e-09 -5.68495e-09 5.84909e-07 -7.88772e-07 2.0947e-07 2.0947e-07 1.59217e-07 -5.19775e-07 6.21076e-07 -8.6906e-07 -2.21965e-08 6.57514e-07 8.95234e-08 -9.58234e-07 6.13198e-07 -8.78625e-07 -9.46651e-08 9.55149e-07 -3.63798e-08 -1.24118e-06 6.32989e-07 -1.17124e-06 -6.6997e-08 1.14157e-06 -4.44318e-07 -1.70269e-06 8.95234e-07 -1.03e-06 2.17735e-07 1.48379e-06 -3.81784e-07 -1.64035e-06 8.29382e-07 -9.30935e-07 1.88632e-07 1.45434e-06 -3.39331e-07 -1.55546e-06 7.78198e-07 -8.5379e-07 1.67328e-07 1.38969e-06 -3.04387e-07 -1.45411e-06 7.27945e-07 -7.91139e-07 1.52116e-07 1.30715e-06 -2.79377e-07 -1.35001e-06 6.78313e-07 -7.33029e-07 1.42415e-07 1.21747e-06 -2.59354e-07 -1.24714e-06 6.27905e-07 -6.76858e-07 1.34499e-07 1.12605e-06 -2.42027e-07 -1.14883e-06 5.79671e-07 -6.2063e-07 1.28328e-07 1.03831e-06 -2.27902e-07 -1.05305e-06 5.33143e-07 -5.66846e-07 1.23594e-07 9.51385e-07 -2.11139e-07 -9.60465e-07 4.8615e-07 -5.14148e-07 1.16881e-07 8.68381e-07 -1.97402e-07 -8.73037e-07 4.42145e-07 -4.64458e-07 1.1172e-07 7.89141e-07 -1.8188e-07 -7.89626e-07 3.99227e-07 -4.1731e-07 1.04541e-07 7.13742e-07 -1.68608e-07 -7.10793e-07 3.60383e-07 -3.72723e-07 9.84486e-08 6.41836e-07 -1.53959e-07 -6.36249e-07 3.20724e-07 -3.30328e-07 9.1386e-08 5.74665e-07 -1.41891e-07 -5.65584e-07 2.86498e-07 -2.91058e-07 8.50608e-08 5.09472e-07 -1.28309e-07 -4.98432e-07 2.5332e-07 -2.54872e-07 7.83087e-08 4.49053e-07 -1.16163e-07 -4.36305e-07 2.22314e-07 -2.20801e-07 7.34193e-08 3.93988e-07 -1.02931e-07 -3.78912e-07 1.92357e-07 -1.90552e-07 6.48433e-08 3.41213e-07 -9.27442e-08 -3.25303e-07 1.66862e-07 -1.60614e-07 6.03419e-08 2.93134e-07 -8.10251e-08 -2.76797e-07 1.41367e-07 -1.35178e-07 5.23869e-08 2.48314e-07 -7.06447e-08 -2.31278e-07 1.20567e-07 -1.1139e-07 4.6993e-08 2.07724e-07 -5.99927e-08 -1.89873e-07 1.01475e-07 -9.13278e-08 4.11722e-08 1.71131e-07 -5.09317e-08 -1.53028e-07 8.39743e-08 -7.32058e-08 3.62052e-08 1.38418e-07 -4.30543e-08 -1.2082e-07 6.77149e-08 -5.92942e-08 2.98799e-08 1.07723e-07 -3.43037e-08 -9.35397e-08 5.66555e-08 -4.56736e-08 2.47577e-08 8.40519e-08 -2.5495e-08 -6.82388e-08 4.49363e-08 -3.55067e-08 1.86653e-08 6.13897e-08 -1.91503e-08 -4.76527e-08 3.81066e-08 -2.86964e-08 1.38922e-08 4.23752e-08 -1.40086e-08 -3.22664e-08 3.33336e-08 -2.60576e-08 1.00893e-08 2.83277e-08 -9.25502e-09 -1.981e-08 3.37216e-08 -2.66203e-08 7.95505e-09 1.851e-08 -5.45212e-09 -9.35203e-09 7.39587e-07 -6.26722e-07 9.08234e-07 9.08234e-07 -2.51011e-07 -9.53228e-07 7.44204e-07 -7.34503e-07 4.09355e-07 1.11413e-06 -9.02995e-08 -1.17352e-06 7.24879e-07 -7.63258e-07 1.68531e-07 1.25538e-06 -5.4754e-08 -1.31635e-06 7.17739e-07 -7.81496e-07 6.79865e-08 1.33385e-06 -8.19564e-08 -1.401e-06 7.31127e-07 -9.53946e-07 4.8778e-08 1.37261e-06 -2.79242e-07 -1.59712e-06 8.67721e-07 -8.70903e-07 1.80793e-07 1.50537e-06 -2.33044e-07 -1.50616e-06 8.15412e-07 -8.03149e-07 1.51767e-07 1.4309e-06 -1.94996e-07 -1.39349e-06 7.6741e-07 -7.45272e-07 1.28794e-07 1.3323e-06 -1.72081e-07 -1.27981e-06 7.1351e-07 -6.898e-07 1.19054e-07 1.23098e-06 -1.56229e-07 -1.1737e-06 6.61045e-07 -6.34425e-07 1.08305e-07 1.12931e-06 -1.43016e-07 -1.07135e-06 6.08464e-07 -5.81572e-07 1.00466e-07 1.03167e-06 -1.32015e-07 -9.76201e-07 5.56232e-07 -5.2903e-07 9.2977e-08 9.39549e-07 -1.20936e-07 -8.8497e-07 5.06872e-07 -4.79767e-07 8.61085e-08 8.52121e-07 -1.11739e-07 -8.00569e-07 4.58676e-07 -4.31377e-07 7.8852e-08 7.6935e-07 -1.0196e-07 -7.19156e-07 4.14633e-07 -3.87547e-07 7.25267e-08 6.9108e-07 -9.36949e-08 -6.44689e-07 3.7218e-07 -3.45152e-07 6.55418e-08 6.17622e-07 -8.38966e-08 -5.71405e-07 3.30775e-07 -3.06114e-07 6.00315e-08 5.48394e-07 -7.73192e-08 -5.07144e-07 2.93793e-07 -2.68861e-07 5.26973e-08 4.8324e-07 -6.78119e-08 -4.43562e-07 2.59218e-07 -2.35081e-07 4.79631e-08 4.24217e-07 -6.0439e-08 -3.85936e-07 2.25846e-07 -2.02466e-07 4.25304e-08 3.68416e-07 -5.38227e-08 -3.3256e-07 1.96354e-07 -1.75069e-07 3.64768e-08 3.15524e-07 -4.77303e-08 -2.83316e-07 1.68763e-07 -1.47576e-07 3.29843e-08 2.68803e-07 -4.11722e-08 -2.37235e-07 1.44355e-07 -1.25399e-07 2.94919e-08 2.25729e-07 -3.64962e-08 -1.97693e-07 1.20412e-07 -1.03532e-07 2.47577e-08 1.8607e-07 -2.99964e-08 -1.59858e-07 1.00854e-07 -8.54488e-08 2.17309e-08 1.51728e-07 -2.51651e-08 -1.28523e-07 8.35862e-08 -6.80642e-08 1.77727e-08 1.21188e-07 -2.03533e-08 -9.87784e-08 6.72881e-08 -5.56465e-08 1.47847e-08 9.32099e-08 -1.78504e-08 -7.57282e-08 5.45988e-08 -4.3811e-08 1.29609e-08 7.08193e-08 -1.19132e-08 -5.38033e-08 4.43542e-08 -3.54097e-08 9.27442e-09 5.11451e-08 -9.15801e-09 -3.81066e-08 3.67484e-08 -2.99575e-08 6.17001e-09 3.51574e-08 -5.72375e-09 -2.50099e-08 3.37216e-08 -2.89292e-08 4.92825e-09 2.42144e-08 -5.66555e-09 -1.92279e-08 3.47306e-08 -3.12963e-08 5.04466e-09 1.86265e-08 -5.52973e-09 -1.30773e-08 9.95545e-07 -5.15429e-07 1.66687e-06 1.66687e-06 -6.81495e-07 -1.41359e-06 9.24415e-07 -6.29982e-07 8.75948e-07 1.61305e-06 -2.93599e-07 -1.40296e-06 8.74357e-07 -6.67428e-07 4.69193e-07 1.58449e-06 -1.10245e-07 -1.40213e-06 8.48551e-07 -6.86113e-07 2.56191e-07 1.55387e-06 -3.6535e-08 -1.38598e-06 8.36483e-07 -7.04235e-07 1.52426e-07 1.50715e-06 -2.31084e-08 -1.36297e-06 8.19913e-07 -7.99191e-07 1.08848e-07 1.4536e-06 -1.15174e-07 -1.41644e-06 8.69584e-07 -7.37743e-07 1.50758e-07 1.45779e-06 -7.72416e-08 -1.28579e-06 8.2294e-07 -6.93234e-07 1.28328e-07 1.34138e-06 -5.75868e-08 -1.16865e-06 7.67061e-07 -6.40517e-07 1.11603e-07 1.22636e-06 -4.87392e-08 -1.06029e-06 7.08504e-07 -5.89973e-07 9.88366e-08 1.11344e-06 -3.962e-08 -9.60097e-07 6.46804e-07 -5.37839e-07 8.53324e-08 1.00831e-06 -3.18396e-08 -8.65626e-07 5.89954e-07 -4.87916e-07 7.49715e-08 9.10795e-07 -2.63875e-08 -7.79944e-07 5.35549e-07 -4.41098e-07 6.30971e-08 8.18322e-07 -2.18085e-08 -6.97386e-07 4.83046e-07 -3.95211e-07 5.58406e-08 7.32796e-07 -1.65504e-08 -6.21929e-07 4.33841e-07 -3.54465e-07 4.59841e-08 6.52391e-07 -1.33102e-08 -5.508e-07 3.88439e-07 -3.14302e-07 3.9426e-08 5.77769e-07 -8.45951e-09 -4.84986e-07 3.44124e-07 -2.7736e-07 3.08501e-08 5.07998e-07 -7.23715e-09 -4.24004e-07 3.03999e-07 -2.44356e-07 2.49905e-08 4.42262e-07 -3.8029e-09 -3.68668e-07 2.66087e-07 -2.12633e-07 1.80056e-08 3.83278e-07 -1.78504e-09 -3.15369e-07 2.31084e-07 -1.82985e-07 1.51728e-08 3.29029e-07 3.88051e-11 -2.68046e-07 1.99808e-07 -1.58577e-07 9.04159e-09 2.77263e-07 1.04774e-09 -2.23556e-07 1.69656e-07 -1.32384e-07 7.06253e-09 2.31783e-07 3.22082e-09 -1.84732e-07 1.42337e-07 -1.11565e-07 2.44472e-09 1.90494e-07 3.18202e-09 -1.48856e-07 1.19093e-07 -9.17741e-08 1.82384e-09 1.53979e-07 3.7641e-09 -1.182e-07 9.86426e-08 -7.56894e-08 -1.57161e-09 1.20451e-07 3.37604e-09 -8.9892e-08 7.95505e-08 -6.15837e-08 -1.92085e-09 9.13472e-08 4.15215e-09 -6.70746e-08 6.36404e-08 -4.93989e-08 -4.13274e-09 6.7094e-08 3.10441e-09 -4.69736e-08 4.95929e-08 -3.7932e-08 -1.88205e-09 4.81959e-08 3.64768e-09 -3.21306e-08 3.97752e-08 -3.30231e-08 -4.65661e-09 3.11217e-08 2.05667e-09 -2.03921e-08 3.2053e-08 -2.79785e-08 -2.52233e-09 1.9907e-08 2.52233e-09 -1.32907e-08 2.87934e-08 -2.97441e-08 -2.91038e-09 1.28833e-08 -9.70128e-10 -1.15445e-08 3.31784e-08 -3.46918e-08 1.74623e-09 1.234e-08 -5.02526e-09 -1.34266e-08 1.31534e-06 -5.39701e-07 2.45877e-06 2.45877e-06 -1.2036e-06 -1.9148e-06 1.17836e-06 -6.15488e-07 1.4089e-06 2.12757e-06 -5.63955e-07 -1.64862e-06 1.10059e-06 -6.42807e-07 8.34504e-07 1.9278e-06 -2.36556e-07 -1.48463e-06 1.04972e-06 -6.54274e-07 5.1735e-07 1.77335e-06 -6.2321e-08 -1.36256e-06 1.01231e-06 -6.60172e-07 3.32016e-07 1.63893e-06 2.23517e-08 -1.25502e-06 9.73581e-07 -6.63335e-07 2.25535e-07 1.50828e-06 4.579e-08 -1.18103e-06 9.31827e-07 -6.846e-07 1.74468e-07 1.40525e-06 3.0268e-08 -1.11565e-06 9.0218e-07 -6.4822e-07 1.52232e-07 1.30199e-06 4.2802e-08 -1.00552e-06 8.33611e-07 -6.01052e-07 1.25185e-07 1.17673e-06 5.12615e-08 -9.02219e-07 7.65198e-07 -5.48821e-07 1.00583e-07 1.05674e-06 5.80912e-08 -8.06079e-07 6.94922e-07 -4.99053e-07 8.17236e-08 9.48048e-07 6.00703e-08 -7.19194e-07 6.30777e-07 -4.49033e-07 6.31359e-08 8.44166e-07 6.40284e-08 -6.37413e-07 5.66593e-07 -4.03767e-07 4.90109e-08 7.5181e-07 6.70552e-08 -5.64925e-07 5.09628e-07 -3.58676e-07 3.42649e-08 6.67331e-07 6.71716e-08 -4.96356e-07 4.53477e-07 -3.1925e-07 2.30114e-08 5.87354e-07 6.75209e-08 -4.34326e-07 4.04427e-07 -2.80619e-07 1.17579e-08 5.14245e-07 6.74821e-08 -3.75032e-07 3.54601e-07 -2.46199e-07 3.45365e-09 4.46492e-07 6.63179e-08 -3.23926e-07 3.13041e-07 -2.13894e-07 -6.20882e-09 3.84442e-07 6.44941e-08 -2.71849e-07 2.68415e-07 -1.85663e-07 -1.0943e-08 3.25652e-07 6.1933e-08 -2.28931e-07 2.33219e-07 -1.56831e-07 -1.78309e-08 2.73188e-07 5.87509e-08 -1.86303e-07 1.95811e-07 -1.33994e-07 -2.111e-08 2.24061e-07 5.65002e-08 -1.51747e-07 1.66319e-07 -1.0943e-07 -2.56502e-08 1.82694e-07 5.2969e-08 -1.17774e-07 1.35197e-07 -9.00279e-08 -2.75322e-08 1.4323e-07 4.97481e-08 -9.0901e-08 1.10672e-07 -7.24491e-08 -3.0559e-08 1.10129e-07 4.47035e-08 -6.43389e-08 8.64578e-08 -5.86345e-08 -2.8774e-08 8.0249e-08 4.14827e-08 -4.53632e-08 6.87627e-08 -4.50333e-08 -3.08695e-08 5.59958e-08 3.63992e-08 -2.63681e-08 4.96705e-08 -3.54679e-08 -2.79009e-08 3.48858e-08 3.22859e-08 -1.49012e-08 3.77574e-08 -2.59412e-08 -2.71442e-08 2.00622e-08 2.5495e-08 -5.54913e-09 2.66979e-08 -2.32443e-08 -2.29338e-08 8.07146e-09 2.11488e-08 -1.24176e-09 2.18861e-08 -1.92667e-08 -1.98488e-08 2.56114e-09 1.52892e-08 1.12535e-09 1.76951e-08 -2.14204e-08 -1.4028e-08 1.5522e-10 1.02445e-08 -3.25963e-09 2.35547e-08 -2.97053e-08 -9.31323e-09 4.15215e-09 1.70742e-09 -1.12729e-08 1.35395e-06 -6.846e-07 3.07899e-06 3.07899e-06 -1.81274e-06 -2.53415e-06 1.41852e-06 -7.37627e-07 1.92306e-06 2.65442e-06 -9.62367e-07 -2.00459e-06 1.40114e-06 -7.51674e-07 1.24918e-06 2.30277e-06 -4.84152e-07 -1.64107e-06 1.34627e-06 -7.39121e-07 8.44787e-07 2.01216e-06 -2.07879e-07 -1.37457e-06 1.2768e-06 -7.17797e-07 5.86151e-07 1.76144e-06 -4.01827e-08 -1.16883e-06 1.19807e-06 -6.898e-07 4.11179e-07 1.54642e-06 5.4754e-08 -1.00746e-06 1.09861e-06 -6.61685e-07 2.90611e-07 1.35709e-06 9.16577e-08 -8.9015e-07 1.00327e-06 -6.31883e-07 2.12458e-07 1.19776e-06 1.13777e-07 -7.9923e-07 9.14947e-07 -5.74665e-07 1.49632e-07 1.06582e-06 1.29958e-07 -7.01868e-07 8.2845e-07 -5.22142e-07 1.06559e-07 9.40985e-07 1.39233e-07 -6.12655e-07 7.47386e-07 -4.68999e-07 7.50491e-08 8.28994e-07 1.41445e-07 -5.33706e-07 6.70669e-07 -4.20065e-07 5.18824e-08 7.28721e-07 1.45248e-07 -4.63857e-07 6.00005e-07 -3.72839e-07 2.91426e-08 6.39547e-07 1.4288e-07 -4.00624e-07 5.34851e-07 -3.30891e-07 1.20684e-08 5.56582e-07 1.42842e-07 -3.42164e-07 4.72801e-07 -2.90068e-07 -3.35664e-09 4.82464e-07 1.39155e-07 -2.90456e-07 4.1797e-07 -2.53611e-07 -1.67638e-08 4.1343e-07 1.37991e-07 -2.42066e-07 3.65622e-07 -2.18318e-07 -2.91038e-08 3.5138e-07 1.31976e-07 -1.97634e-07 3.17348e-07 -1.89272e-07 -3.72723e-08 2.92591e-07 1.29337e-07 -1.58538e-07 2.72024e-07 -1.58267e-07 -4.75945e-08 2.40514e-07 1.20567e-07 -1.22682e-07 2.3058e-07 -1.33781e-07 -5.17272e-08 1.91736e-07 1.16881e-07 -9.02995e-08 1.92318e-07 -1.08344e-07 -5.77808e-08 1.49438e-07 1.08266e-07 -6.17195e-08 1.56385e-07 -8.77578e-08 -5.97017e-08 1.10362e-07 1.03959e-07 -3.74857e-08 1.24952e-07 -6.8103e-08 -6.37568e-08 7.77266e-08 9.44128e-08 -1.71713e-08 9.8565e-08 -5.23287e-08 -6.40478e-08 4.75751e-08 8.87861e-08 7.37297e-10 7.3264e-08 -3.70201e-08 -6.32523e-08 2.47965e-08 7.81535e-08 1.36594e-08 5.25809e-08 -2.73576e-08 -6.13121e-08 3.18202e-09 7.21775e-08 2.35935e-08 3.52738e-08 -1.65116e-08 -5.89644e-08 -1.0361e-08 6.10016e-08 2.93755e-08 2.16532e-08 -1.14863e-08 -5.28914e-08 -2.12846e-08 5.33958e-08 3.15486e-08 1.17191e-08 -7.89684e-09 -4.75169e-08 -2.5689e-08 4.16767e-08 2.9065e-08 6.0924e-09 -8.55653e-09 -3.80484e-08 -2.54562e-08 3.31784e-08 2.21965e-08 5.19988e-09 -1.13117e-08 -2.96083e-08 -1.86653e-08 2.03727e-08 1.14087e-08 1.17968e-08 -2.23905e-08 -1.88399e-08 -9.81769e-09 1.04774e-08 -1.82384e-09 4.20647e-07 -3.41504e-06 -2.08498e-06 -2.08498e-06 1.45325e-07 -7.52431e-07 1.35193e-06 -1.80979e-06 -1.89718e-07 7.04972e-07 -2.92455e-07 -1.30471e-06 9.00899e-07 -1.39634e-06 -9.79053e-08 9.18827e-07 -4.48529e-07 -1.4582e-06 7.31166e-07 -1.22246e-06 -1.06908e-08 1.00439e-06 -5.23403e-07 -1.51451e-06 6.57941e-07 -1.12587e-06 5.6151e-08 1.05302e-06 -5.64653e-07 -1.529e-06 6.18359e-07 -1.05329e-06 1.04114e-07 1.07424e-06 -5.81863e-07 -1.51029e-06 5.91273e-07 -9.92557e-07 1.41406e-07 1.07541e-06 -5.86132e-07 -1.47064e-06 5.66399e-07 -9.31167e-07 1.67056e-07 1.05674e-06 -5.77653e-07 -1.41309e-06 5.38887e-07 -8.69118e-07 1.8413e-07 1.02434e-06 -5.63217e-07 -1.34518e-06 5.08386e-07 -8.04837e-07 1.96082e-07 9.82312e-07 -5.43155e-07 -1.26741e-06 4.76604e-07 -7.43137e-07 2.02446e-07 9.30391e-07 -5.18417e-07 -1.18553e-06 4.42339e-07 -6.7843e-07 2.06521e-07 8.76918e-07 -4.90885e-07 -1.10106e-06 4.06794e-07 -6.16652e-07 2.04658e-07 8.17546e-07 -4.61393e-07 -1.01633e-06 3.71054e-07 -5.54738e-07 2.00933e-07 7.58135e-07 -4.30853e-07 -9.3074e-07 3.3644e-07 -4.96802e-07 1.94802e-07 6.96629e-07 -3.9977e-07 -8.46708e-07 3.02292e-07 -4.39934e-07 1.87778e-07 6.36287e-07 -3.67969e-07 -7.64829e-07 2.68143e-07 -3.88381e-07 1.78115e-07 5.76217e-07 -3.35587e-07 -6.87122e-07 2.38108e-07 -3.37585e-07 1.6659e-07 5.19135e-07 -3.0365e-07 -6.10307e-07 2.0656e-07 -2.90728e-07 1.5522e-07 4.62596e-07 -2.7346e-07 -5.39178e-07 1.79862e-07 -2.4616e-07 1.43851e-07 4.1017e-07 -2.43114e-07 -4.696e-07 1.5394e-07 -2.07588e-07 1.3054e-07 3.57434e-07 -2.13622e-07 -4.05591e-07 1.29997e-07 -1.70063e-07 1.17424e-07 3.09665e-07 -1.86905e-07 -3.43968e-07 1.07296e-07 -1.38243e-07 1.05938e-07 2.63215e-07 -1.59179e-07 -2.88788e-07 8.67294e-08 -1.08092e-07 9.18129e-08 2.21577e-07 -1.33742e-07 -2.37351e-07 6.93059e-08 -8.21116e-08 7.76102e-08 1.81375e-07 -1.09974e-07 -1.9096e-07 5.3357e-08 -5.95076e-08 6.45717e-08 1.45597e-07 -8.84174e-08 -1.48953e-07 4.05125e-08 -4.00081e-08 5.21153e-08 1.12729e-07 -6.77343e-08 -1.11584e-07 2.87546e-08 -2.39039e-08 4.0823e-08 8.47116e-08 -4.91273e-08 -7.95699e-08 2.04891e-08 -1.32907e-08 2.88322e-08 5.92942e-08 -3.18202e-08 -5.26585e-08 1.42415e-08 -5.45212e-09 1.80832e-08 3.89215e-08 -1.71131e-08 -3.05202e-08 1.02057e-08 -1.20296e-09 9.70128e-09 2.3089e-08 -6.01479e-09 -1.4843e-08 1.05162e-08 -1.47459e-09 1.31937e-09 1.01281e-08 4.88944e-09 -2.50293e-09 4.44086e-07 -1.43162e-06 -1.21446e-06 -1.21446e-06 1.08736e-06 3.74198e-07 4.21656e-07 -2.07972e-06 -9.68575e-07 -2.58597e-07 -5.47074e-07 -1.45946e-06 1.11538e-06 -1.49931e-06 1.33606e-07 1.05092e-06 -5.04719e-07 -1.564e-06 8.90306e-07 -1.25686e-06 1.21926e-07 1.18794e-06 -5.17815e-07 -1.60804e-06 7.79866e-07 -1.1229e-06 1.32209e-07 1.22904e-06 -5.23423e-07 -1.60112e-06 7.1673e-07 -1.03429e-06 1.48507e-07 1.2323e-06 -5.22103e-07 -1.5635e-06 6.68651e-07 -9.6095e-07 1.6174e-07 1.20862e-06 -5.13023e-07 -1.50395e-06 6.29458e-07 -8.9568e-07 1.73265e-07 1.1692e-06 -4.98064e-07 -1.43098e-06 5.91002e-07 -8.33728e-07 1.80172e-07 1.11747e-06 -4.80485e-07 -1.34997e-06 5.52624e-07 -7.7098e-07 1.85178e-07 1.0586e-06 -4.60054e-07 -1.26318e-06 5.13392e-07 -7.09765e-07 1.87506e-07 9.93993e-07 -4.36732e-07 -1.17484e-06 4.73189e-07 -6.47851e-07 1.87429e-07 9.28335e-07 -4.12983e-07 -1.086e-06 4.34501e-07 -5.89003e-07 1.84247e-07 8.59611e-07 -3.87624e-07 -9.97272e-07 3.95851e-07 -5.31067e-07 1.80444e-07 7.9209e-07 -3.61528e-07 -9.10659e-07 3.57705e-07 -4.761e-07 1.74041e-07 7.24841e-07 -3.34946e-07 -8.26355e-07 3.22044e-07 -4.22801e-07 1.67289e-07 6.60075e-07 -3.08598e-07 -7.45601e-07 2.86537e-07 -3.72956e-07 1.58868e-07 5.96978e-07 -2.832e-07 -6.69097e-07 2.54445e-07 -3.26991e-07 1.48818e-07 5.35588e-07 -2.55726e-07 -5.94145e-07 2.23207e-07 -2.82947e-07 1.38689e-07 4.77846e-07 -2.31764e-07 -5.24296e-07 1.94491e-07 -2.4226e-07 1.28794e-07 4.21928e-07 -2.06327e-07 -4.5823e-07 1.6756e-07 -2.05667e-07 1.17424e-07 3.69813e-07 -1.82306e-07 -3.96297e-07 1.43695e-07 -1.72004e-07 1.06132e-07 3.20453e-07 -1.5947e-07 -3.38652e-07 1.20257e-07 -1.39485e-07 9.5577e-08 2.74973e-07 -1.38146e-07 -2.85353e-07 9.92247e-08 -1.12302e-07 8.44399e-08 2.31822e-07 -1.17424e-07 -2.37565e-07 8.12191e-08 -8.87861e-08 7.27208e-08 1.92978e-07 -9.71098e-08 -1.92726e-07 6.55806e-08 -6.73075e-08 6.15061e-08 1.57199e-07 -7.85027e-08 -1.53358e-07 5.10675e-08 -4.84676e-08 5.05242e-08 1.25379e-07 -6.00897e-08 -1.17075e-07 3.96976e-08 -3.31784e-08 4.00081e-08 9.70128e-08 -4.52274e-08 -8.66906e-08 2.93367e-08 -2.2507e-08 2.95695e-08 7.09745e-08 -3.08889e-08 -6.03031e-08 2.24294e-08 -1.41833e-08 2.04891e-08 4.99422e-08 -1.8025e-08 -3.82618e-08 1.85488e-08 -7.54759e-09 1.21848e-08 3.24023e-08 -7.02372e-09 -2.06443e-08 1.76563e-08 -5.52973e-09 4.42378e-09 1.80444e-08 3.68649e-09 -6.24762e-09 4.9721e-07 -1.04351e-06 -5.63295e-07 -5.63295e-07 6.20688e-07 -2.79979e-08 5.41292e-07 -1.11999e-06 -5.12596e-07 1.34576e-07 2.76098e-07 -7.0472e-07 5.54991e-07 -1.53098e-06 -3.82696e-07 5.9787e-07 -5.54389e-07 -1.63177e-06 9.75405e-07 -1.25478e-06 1.95423e-07 1.27999e-06 -4.89837e-07 -1.63775e-06 8.62366e-07 -1.11264e-06 1.80832e-07 1.33575e-06 -4.67757e-07 -1.61652e-06 7.9046e-07 -1.01466e-06 1.74002e-07 1.32896e-06 -4.48975e-07 -1.56237e-06 7.34348e-07 -9.38133e-07 1.74507e-07 1.29337e-06 -4.33511e-07 -1.49103e-06 6.86967e-07 -8.68225e-07 1.75438e-07 1.23777e-06 -4.14206e-07 -1.40709e-06 6.40478e-07 -8.05322e-07 1.74429e-07 1.17149e-06 -3.96375e-07 -1.31871e-06 5.9527e-07 -7.42807e-07 1.74274e-07 1.10012e-06 -3.7705e-07 -1.22547e-06 5.50606e-07 -6.81689e-07 1.73381e-07 1.0248e-06 -3.5724e-07 -1.13336e-06 5.05475e-07 -6.216e-07 1.71286e-07 9.49988e-07 -3.37081e-07 -1.04227e-06 4.62596e-07 -5.6508e-07 1.6659e-07 8.73891e-07 -3.15835e-07 -9.53985e-07 4.20803e-07 -5.09104e-07 1.61584e-07 8.01519e-07 -2.9457e-07 -8.68517e-07 3.79398e-07 -4.56639e-07 1.54017e-07 7.29458e-07 -2.73595e-07 -7.86812e-07 3.41291e-07 -4.06076e-07 1.47809e-07 6.62248e-07 -2.51865e-07 -7.07689e-07 3.05125e-07 -3.58714e-07 1.39892e-07 5.96629e-07 -2.31453e-07 -6.32659e-07 2.71054e-07 -3.1502e-07 1.31355e-07 5.33415e-07 -2.09683e-07 -5.61025e-07 2.39001e-07 -2.74313e-07 1.22081e-07 4.74004e-07 -1.90067e-07 -4.9494e-07 2.08112e-07 -2.35722e-07 1.13466e-07 4.18862e-07 -1.70219e-07 -4.32716e-07 1.79939e-07 -2.01884e-07 1.03183e-07 3.66049e-07 -1.51883e-07 -3.74566e-07 1.54212e-07 -1.70316e-07 9.42188e-08 3.17193e-07 -1.3281e-07 -3.20084e-07 1.32131e-07 -1.40921e-07 8.41683e-08 2.71636e-07 -1.16338e-07 -2.7053e-07 1.11021e-07 -1.14805e-07 7.59028e-08 2.30231e-07 -1.00059e-07 -2.24526e-07 9.11532e-08 -9.2395e-08 6.70164e-08 1.9162e-07 -8.38578e-08 -1.83509e-07 7.51267e-08 -7.20999e-08 5.78584e-08 1.57588e-07 -6.80836e-08 -1.46547e-07 5.94494e-08 -5.48122e-08 4.67214e-08 1.25224e-07 -5.42301e-08 -1.13757e-07 4.75751e-08 -4.09006e-08 3.79902e-08 9.7556e-08 -4.12498e-08 -8.53324e-08 3.8029e-08 -2.96083e-08 2.82113e-08 7.22939e-08 -2.98799e-08 -6.13703e-08 3.10441e-08 -2.111e-08 2.1498e-08 5.30078e-08 -1.91891e-08 -4.04349e-08 2.71636e-08 -1.62205e-08 1.36206e-08 3.4847e-08 -9.83709e-09 -2.43308e-08 2.75516e-08 -1.47653e-08 7.99385e-09 2.2507e-08 -1.57161e-09 -7.99385e-09 5.88169e-07 -8.30643e-07 3.93096e-08 3.93096e-08 2.32947e-07 -4.08598e-07 6.44824e-07 -9.33011e-07 -1.18317e-07 5.23287e-07 1.25185e-07 -8.79363e-07 6.49093e-07 -9.68226e-07 -1.4808e-07 8.5705e-07 -2.80561e-08 -1.18231e-06 6.74278e-07 -1.22226e-06 -9.81575e-08 1.05798e-06 -4.46201e-07 -1.63688e-06 9.11998e-07 -1.07609e-06 2.01825e-07 1.39935e-06 -3.97869e-07 -1.59825e-06 8.46262e-07 -9.82798e-07 1.89563e-07 1.39613e-06 -3.69308e-07 -1.5355e-06 7.88093e-07 -9.04043e-07 1.75942e-07 1.34743e-06 -3.46937e-07 -1.45213e-06 7.36521e-07 -8.34853e-07 1.70122e-07 1.27979e-06 -3.25905e-07 -1.35899e-06 6.84328e-07 -7.7164e-07 1.6399e-07 1.20086e-06 -3.0786e-07 -1.26367e-06 6.33804e-07 -7.09474e-07 1.59411e-07 1.1184e-06 -2.90514e-07 -1.16695e-06 5.83784e-07 -6.49423e-07 1.54289e-07 1.03342e-06 -2.73925e-07 -1.07339e-06 5.34269e-07 -5.90109e-07 1.5068e-07 9.52394e-07 -2.57375e-07 -9.82468e-07 4.8615e-07 -5.35336e-07 1.43812e-07 8.70825e-07 -2.40611e-07 -8.95117e-07 4.41641e-07 -4.81882e-07 1.37991e-07 7.93991e-07 -2.23692e-07 -8.10988e-07 3.98451e-07 -4.3192e-07 1.31084e-07 7.19602e-07 -2.07394e-07 -7.31806e-07 3.57395e-07 -3.83841e-07 1.24138e-07 6.49597e-07 -1.90999e-07 -6.56485e-07 3.18551e-07 -3.39603e-07 1.16066e-07 5.82387e-07 -1.74895e-07 -5.8588e-07 2.82967e-07 -2.98081e-07 1.08033e-07 5.19678e-07 -1.5881e-07 -5.17214e-07 2.48935e-07 -2.60014e-07 1.00816e-07 4.59724e-07 -1.43462e-07 -4.5466e-07 2.17309e-07 -2.24274e-07 9.31711e-08 4.04737e-07 -1.29919e-07 -3.97325e-07 1.88438e-07 -1.92279e-07 8.44011e-08 3.52156e-07 -1.15697e-07 -3.43134e-07 1.61313e-07 -1.6238e-07 7.70281e-08 3.04737e-07 -1.02484e-07 -2.92358e-07 1.37448e-07 -1.36128e-07 6.92283e-08 2.59257e-07 -8.82234e-08 -2.46005e-07 1.14708e-07 -1.10983e-07 6.17777e-08 2.19676e-07 -7.5961e-08 -2.04348e-07 9.60815e-08 -8.91741e-08 5.39391e-08 1.82423e-07 -6.5115e-08 -1.66377e-07 7.81923e-08 -7.01984e-08 4.82736e-08 1.49632e-07 -5.29496e-08 -1.33393e-07 6.3718e-08 -5.59182e-08 3.88827e-08 1.19326e-07 -4.32095e-08 -1.0326e-07 5.19988e-08 -4.17349e-08 3.25575e-08 9.26666e-08 -3.21694e-08 -7.76878e-08 4.07066e-08 -3.32172e-08 2.4098e-08 6.96164e-08 -2.33995e-08 -5.6151e-08 3.37992e-08 -2.52427e-08 1.851e-08 5.12615e-08 -1.56967e-08 -3.72917e-08 3.06948e-08 -2.25652e-08 1.30773e-08 3.4653e-08 -9.02219e-09 -2.37099e-08 3.25575e-08 -2.26622e-08 9.00279e-09 2.36711e-08 -3.08501e-09 -1.26311e-08 7.13626e-07 -6.9789e-07 6.56272e-07 6.56272e-07 -1.46218e-07 -8.17274e-07 7.56001e-07 -8.16421e-07 2.71131e-07 9.43895e-07 -4.95347e-08 -1.08773e-06 7.53712e-07 -8.54488e-07 9.28606e-08 1.13315e-06 -5.47734e-08 -1.26056e-06 7.51655e-07 -8.82098e-07 3.46142e-08 1.24281e-06 -1.09353e-07 -1.36e-06 7.67487e-07 -1.02399e-06 4.29573e-08 1.29663e-06 -3.17484e-07 -1.55641e-06 8.89141e-07 -9.35494e-07 1.90106e-07 1.43486e-06 -2.82249e-07 -1.48367e-06 8.36134e-07 -8.65664e-07 1.76369e-07 1.38282e-06 -2.56851e-07 -1.39481e-06 7.83514e-07 -7.976e-07 1.6205e-07 1.30428e-06 -2.34266e-07 -1.29149e-06 7.27829e-07 -7.36502e-07 1.53668e-07 1.21444e-06 -2.189e-07 -1.19081e-06 6.71445e-07 -6.75228e-07 1.44433e-07 1.11926e-06 -2.03261e-07 -1.09048e-06 6.15216e-07 -6.17545e-07 1.36128e-07 1.02574e-06 -1.90145e-07 -9.96573e-07 5.61782e-07 -5.59376e-07 1.29764e-07 9.38191e-07 -1.77572e-07 -9.05575e-07 5.10442e-07 -5.05922e-07 1.21693e-07 8.51384e-07 -1.65096e-07 -8.20515e-07 4.605e-07 -4.54582e-07 1.14242e-07 7.71058e-07 -1.52194e-07 -7.3949e-07 4.14904e-07 -4.05727e-07 1.06093e-07 6.94495e-07 -1.39369e-07 -6.63063e-07 3.71637e-07 -3.60538e-07 9.83321e-08 6.22938e-07 -1.28134e-07 -5.90672e-07 3.30697e-07 -3.18241e-07 9.04935e-08 5.53788e-07 -1.16415e-07 -5.23481e-07 2.9131e-07 -2.7897e-07 8.28489e-08 4.90574e-07 -1.0456e-07 -4.6052e-07 2.57472e-07 -2.42338e-07 7.43118e-08 4.30737e-07 -9.46069e-08 -4.01691e-07 2.2375e-07 -2.09101e-07 6.88791e-08 3.76254e-07 -8.52936e-08 -3.47053e-07 1.93482e-07 -1.79338e-07 6.14673e-08 3.23479e-07 -7.55535e-08 -2.97014e-07 1.64495e-07 -1.51165e-07 5.58794e-08 2.77573e-07 -6.71134e-08 -2.51787e-07 1.41095e-07 -1.26117e-07 4.88944e-08 2.33723e-07 -5.80718e-08 -2.10013e-07 1.17424e-07 -1.03435e-07 4.34617e-08 1.95539e-07 -5.05825e-08 -1.72159e-07 9.78277e-08 -8.40907e-08 3.81454e-08 1.59761e-07 -4.20453e-08 -1.39272e-07 8.02878e-08 -6.54642e-08 3.27515e-08 1.30075e-07 -3.55843e-08 -1.08965e-07 6.41837e-08 -5.37839e-08 2.76292e-08 1.01048e-07 -2.8968e-08 -8.46921e-08 5.18048e-08 -4.15603e-08 2.31278e-08 7.88908e-08 -2.21383e-08 -6.28643e-08 4.15603e-08 -3.36634e-08 1.80056e-08 5.87121e-08 -1.70354e-08 -4.49945e-08 3.5041e-08 -2.73964e-08 1.40863e-08 4.20259e-08 -1.2146e-08 -3.00546e-08 3.18978e-08 -2.56696e-08 1.00505e-08 2.79397e-08 -8.09086e-09 -2.12458e-08 3.42261e-08 -2.92008e-08 7.76102e-09 2.0916e-08 -5.66555e-09 -1.56967e-08 8.853e-07 -6.12791e-07 1.32659e-06 1.32659e-06 -5.51033e-07 -1.28829e-06 8.87124e-07 -7.38675e-07 6.77654e-07 1.41883e-06 -2.49944e-07 -1.34784e-06 8.66712e-07 -7.83533e-07 3.49673e-07 1.45166e-06 -1.20199e-07 -1.37857e-06 8.50414e-07 -7.97755e-07 1.92163e-07 1.45422e-06 -8.01714e-08 -1.38441e-06 8.38384e-07 -8.0963e-07 1.23323e-07 1.4309e-06 -8.64966e-08 -1.36908e-06 8.34465e-07 -8.78004e-07 1.04968e-07 1.39085e-06 -1.82791e-07 -1.41549e-06 8.7781e-07 -8.12967e-07 1.67056e-07 1.40432e-06 -1.57005e-07 -1.31474e-06 8.26316e-07 -7.52994e-07 1.49555e-07 1.31126e-06 -1.35022e-07 -1.20604e-06 7.65741e-07 -6.91914e-07 1.32481e-07 1.20672e-06 -1.20956e-07 -1.09929e-06 7.05826e-07 -6.3231e-07 1.19675e-07 1.10063e-06 -1.08092e-07 -9.96205e-07 6.44048e-07 -5.74781e-07 1.10129e-07 1.0004e-06 -9.80993e-08 -9.00977e-07 5.85297e-07 -5.18572e-07 1.00428e-07 9.05013e-07 -8.85727e-08 -8.1256e-07 5.28332e-07 -4.6634e-07 8.99502e-08 8.15334e-07 -7.93176e-08 -7.30429e-07 4.74975e-07 -4.16282e-07 8.0249e-08 7.32524e-07 -7.14984e-08 -6.52469e-07 4.26817e-07 -3.71287e-07 7.13626e-08 6.53245e-07 -6.3621e-08 -5.7969e-07 3.79863e-07 -3.28252e-07 6.39896e-08 5.80757e-07 -5.59182e-08 -5.11956e-07 3.35858e-07 -2.88361e-07 5.54137e-08 5.12033e-07 -4.8972e-08 -4.49286e-07 2.95229e-07 -2.51515e-07 4.81571e-08 4.48936e-07 -4.37528e-08 -3.91233e-07 2.58287e-07 -2.18744e-07 4.18707e-08 3.8972e-07 -3.61276e-08 -3.37527e-07 2.23595e-07 -1.86905e-07 3.5235e-08 3.36945e-07 -3.24217e-08 -2.88419e-07 1.91969e-07 -1.59217e-07 3.00352e-08 2.86226e-07 -2.74934e-08 -2.43851e-07 1.62322e-07 -1.32267e-07 2.47965e-08 2.41329e-07 -2.38651e-08 -2.01825e-07 1.36284e-07 -1.10963e-07 2.12652e-08 1.99303e-07 -1.89369e-08 -1.65814e-07 1.12574e-07 -9.02413e-08 1.75399e-08 1.64495e-07 -1.64534e-08 -1.33199e-07 9.25114e-08 -7.29342e-08 1.41639e-08 1.30928e-07 -1.33296e-08 -1.0361e-07 7.38073e-08 -5.79748e-08 1.22624e-08 1.02562e-07 -1.04968e-08 -7.9143e-08 5.82465e-08 -4.45289e-08 1.01669e-08 7.88132e-08 -8.07146e-09 -5.83047e-08 4.49363e-08 -3.46724e-08 8.22668e-09 5.85181e-08 -6.073e-09 -4.12304e-08 3.65544e-08 -2.81531e-08 6.17001e-09 4.13274e-08 -4.61781e-09 -2.75904e-08 2.99187e-08 -2.31084e-08 4.81183e-09 2.77457e-08 -2.13428e-09 -1.80444e-08 2.81337e-08 -2.4389e-08 2.09548e-09 1.80056e-08 -2.56114e-09 -1.44937e-08 3.05396e-08 -3.08501e-08 3.25963e-09 1.52116e-08 -4.38498e-09 -1.64728e-08 1.18065e-06 -5.73229e-07 2.09843e-06 2.09843e-06 -1.00645e-06 -1.80203e-06 1.11049e-06 -6.87064e-07 1.15787e-06 1.96063e-06 -4.73015e-07 -1.62062e-06 1.06563e-06 -7.32311e-07 6.73657e-07 1.82865e-06 -2.12924e-07 -1.49621e-06 1.02527e-06 -7.39082e-07 4.17659e-07 1.70719e-06 -8.05012e-08 -1.39613e-06 9.89103e-07 -7.35085e-07 2.7606e-07 1.59668e-06 -2.14204e-08 -1.30577e-06 9.49445e-07 -7.28741e-07 1.97984e-07 1.48635e-06 -1.86265e-09 -1.21935e-06 9.07069e-07 -7.48163e-07 1.56501e-07 1.37731e-06 -4.14827e-08 -1.18072e-06 8.88598e-07 -6.91255e-07 1.59955e-07 1.30288e-06 -1.84712e-08 -1.06016e-06 8.22241e-07 -6.35841e-07 1.37021e-07 1.18154e-06 -6.18941e-09 -9.5445e-07 7.52664e-07 -5.80815e-07 1.15251e-07 1.06578e-06 2.21189e-09 -8.52063e-07 6.84289e-07 -5.24121e-07 9.93411e-08 9.55459e-07 7.02372e-09 -7.62307e-07 6.17234e-07 -4.70687e-07 8.29653e-08 8.53829e-07 1.19132e-08 -6.75519e-07 5.53516e-07 -4.19949e-07 7.22551e-08 7.60852e-07 1.6531e-08 -6.01809e-07 4.96861e-07 -3.7249e-07 5.67331e-08 6.76024e-07 2.06443e-08 -5.28972e-07 4.40942e-07 -3.31105e-07 4.59452e-08 5.96318e-07 2.30114e-08 -4.65564e-07 3.91815e-07 -2.89214e-07 3.4653e-08 5.2383e-07 2.56114e-08 -4.0303e-07 3.423e-07 -2.53262e-07 2.66203e-08 4.55688e-07 2.63099e-08 -3.50391e-07 3.01593e-07 -2.17813e-07 1.64534e-08 3.93445e-07 2.85994e-08 -2.96743e-07 2.59917e-07 -1.8869e-07 1.04386e-08 3.36013e-07 2.71248e-08 -2.51496e-07 2.23168e-07 -1.59702e-07 3.84171e-09 2.82618e-07 2.82113e-08 -2.06928e-07 1.87312e-07 -1.34731e-07 -9.70128e-11 2.35198e-07 2.68531e-08 -1.7082e-07 1.57355e-07 -1.10342e-07 -6.48045e-09 1.9127e-07 2.68919e-08 -1.34809e-07 1.27552e-07 -9.00279e-08 -7.5864e-09 1.54173e-07 2.48353e-08 -1.05763e-07 1.04036e-07 -7.10328e-08 -1.14863e-08 1.19093e-07 2.38263e-08 -7.85415e-08 8.14519e-08 -5.70241e-08 -1.2437e-08 8.99114e-08 2.11876e-08 -5.7451e-08 6.31359e-08 -4.18901e-08 -1.36788e-08 6.49986e-08 1.95578e-08 -3.7835e-08 4.62945e-08 -3.24605e-08 -1.31549e-08 4.42766e-08 1.5522e-08 -2.40398e-08 3.51962e-08 -2.33607e-08 -1.28057e-08 2.67367e-08 1.32713e-08 -1.0846e-08 2.51457e-08 -1.98488e-08 -9.1386e-09 1.50176e-08 1.05162e-08 -6.24762e-09 2.16144e-08 -1.63952e-08 -9.46845e-09 7.29536e-09 8.69234e-09 -2.13428e-10 1.70354e-08 -2.03533e-08 -5.87897e-09 2.98799e-09 5.66555e-09 -4.5208e-09 2.1498e-08 -2.66009e-08 -4.90885e-09 5.3163e-09 6.59687e-10 -1.24176e-08 1.31406e-06 -6.94029e-07 2.84022e-06 2.84022e-06 -1.596e-06 -2.42369e-06 1.4193e-06 -7.86036e-07 1.69955e-06 2.53809e-06 -8.2682e-07 -1.95657e-06 1.41196e-06 -8.09358e-07 1.09558e-06 2.23735e-06 -4.15195e-07 -1.63247e-06 1.3543e-06 -7.92226e-07 7.51267e-07 1.97906e-06 -1.85081e-07 -1.39085e-06 1.27502e-06 -7.5928e-07 5.39934e-07 1.75418e-06 -4.85064e-08 -1.20077e-06 1.1865e-06 -7.21212e-07 3.98373e-07 1.55709e-06 2.68531e-08 -1.04799e-06 1.09229e-06 -6.82058e-07 2.96587e-07 1.3763e-06 6.46493e-08 -9.26103e-07 9.97136e-07 -6.47056e-07 2.25535e-07 1.21968e-06 7.67953e-08 -8.32389e-07 9.0901e-07 -5.92069e-07 1.72838e-07 1.08503e-06 8.88249e-08 -7.31554e-07 8.22086e-07 -5.34599e-07 1.33916e-07 9.5674e-07 9.91082e-08 -6.41274e-07 7.37763e-07 -4.79398e-07 1.03416e-07 8.45719e-07 1.02407e-07 -5.6052e-07 6.60618e-07 -4.25149e-07 7.93952e-08 7.43855e-07 1.0652e-07 -4.88479e-07 5.89411e-07 -3.75071e-07 5.84405e-08 6.54642e-07 1.04036e-07 -4.23228e-07 5.24335e-07 -3.3353e-07 4.12886e-08 5.69504e-07 1.04774e-07 -3.63429e-07 4.62402e-07 -2.89331e-07 2.55726e-08 4.94494e-07 1.04153e-07 -3.10383e-07 4.06134e-07 -2.52427e-07 1.10207e-08 4.26041e-07 1.03493e-07 -2.61158e-07 3.53709e-07 -2.15853e-07 -1.64922e-09 3.6341e-07 9.88366e-08 -2.16241e-07 3.06405e-07 -1.86594e-07 -1.13893e-08 3.0396e-07 9.77889e-08 -1.75671e-07 2.61352e-07 -1.55589e-07 -2.13428e-08 2.5235e-07 9.32099e-08 -1.37584e-07 2.20297e-07 -1.29628e-07 -2.83083e-08 2.0264e-07 8.92129e-08 -1.05317e-07 1.81996e-07 -1.03959e-07 -3.40321e-08 1.60576e-07 8.30429e-08 -7.58834e-08 1.47576e-07 -8.37026e-08 -3.84559e-08 1.20529e-07 7.98997e-08 -5.06601e-08 1.17735e-07 -6.25538e-08 -4.32871e-08 8.72727e-08 7.23327e-08 -2.81725e-08 8.98726e-08 -4.7187e-08 -4.3811e-08 5.66555e-08 6.81806e-08 -1.00893e-08 6.62791e-08 -3.25187e-08 -4.58676e-08 3.24023e-08 6.12345e-08 4.46259e-09 4.58288e-08 -2.1401e-08 -4.51109e-08 1.16803e-08 5.53749e-08 1.52504e-08 2.97635e-08 -1.19714e-08 -4.44901e-08 -4.40438e-09 4.7381e-08 2.35935e-08 1.57937e-08 -7.14014e-09 -4.04737e-08 -1.6628e-08 4.07842e-08 2.55726e-08 7.17894e-09 -2.2701e-09 -3.60305e-08 -2.08189e-08 3.19754e-08 2.49517e-08 2.05667e-09 -4.77303e-09 -3.03068e-08 -2.32443e-08 2.62711e-08 1.89369e-08 2.36711e-09 -7.27596e-09 -2.50293e-08 -1.76757e-08 1.56385e-08 9.70128e-09 9.15801e-09 -1.8316e-08 -1.59489e-08 -1.00117e-08 8.07146e-09 -3.43425e-09 7.04352e-07 -2.34618e-06 -1.2561e-06 -1.2561e-06 4.14749e-07 -6.33687e-07 1.23482e-06 -1.72599e-06 -3.37081e-07 7.06796e-07 -1.34654e-07 -1.28328e-06 9.09747e-07 -1.44896e-06 -2.60751e-07 8.91353e-07 -3.33821e-07 -1.40568e-06 7.69234e-07 -1.30525e-06 -1.33916e-07 9.41645e-07 -4.40748e-07 -1.45655e-06 7.01402e-07 -1.2153e-06 -3.72529e-08 9.82545e-07 -5.07493e-07 -1.47566e-06 6.57242e-07 -1.14039e-06 3.4847e-08 1.0073e-06 -5.456e-07 -1.46809e-06 6.25694e-07 -1.07228e-06 9.0804e-08 1.01759e-06 -5.67214e-07 -1.43994e-06 5.93408e-07 -1.00135e-06 1.31821e-07 1.00878e-06 -5.71774e-07 -1.39221e-06 5.5891e-07 -9.30682e-07 1.63098e-07 9.87551e-07 -5.67292e-07 -1.33233e-06 5.23869e-07 -8.58311e-07 1.84868e-07 9.53636e-07 -5.54544e-07 -1.26113e-06 4.86965e-07 -7.87608e-07 2.00467e-07 9.10368e-07 -5.35491e-07 -1.1847e-06 4.4948e-07 -7.1675e-07 2.09354e-07 8.61435e-07 -5.12072e-07 -1.10418e-06 4.11024e-07 -6.49015e-07 2.12574e-07 8.07185e-07 -4.84831e-07 -1.02172e-06 3.73577e-07 -5.82484e-07 2.12419e-07 7.51461e-07 -4.55436e-07 -9.38016e-07 3.36479e-07 -5.20338e-07 2.08655e-07 6.93059e-07 -4.23383e-07 -8.55982e-07 3.01011e-07 -4.59491e-07 2.02136e-07 6.3621e-07 -3.91311e-07 -7.74356e-07 2.676e-07 -4.04407e-07 1.93172e-07 5.77498e-07 -3.58035e-07 -6.96241e-07 2.35469e-07 -3.50274e-07 1.82112e-07 5.21308e-07 -3.26817e-07 -6.20668e-07 2.04425e-07 -3.02175e-07 1.7082e-07 4.65467e-07 -2.94841e-07 -5.4851e-07 1.76835e-07 -2.5623e-07 1.58092e-07 4.12382e-07 -2.62769e-07 -4.79127e-07 1.49671e-07 -2.14204e-07 1.45015e-07 3.61896e-07 -2.33102e-07 -4.15098e-07 1.26155e-07 -1.76272e-07 1.31239e-07 3.13623e-07 -2.03281e-07 -3.53418e-07 1.03998e-07 -1.42725e-07 1.17812e-07 2.68221e-07 -1.74875e-07 -2.97305e-07 8.42459e-08 -1.10808e-07 1.02717e-07 2.25302e-07 -1.48449e-07 -2.45326e-07 6.53478e-08 -8.45563e-08 8.85921e-08 1.85527e-07 -1.21499e-07 -1.981e-07 5.02914e-08 -5.93524e-08 7.39625e-08 1.50641e-07 -9.81963e-08 -1.54774e-07 3.63216e-08 -4.14827e-08 5.92942e-08 1.1595e-07 -7.5961e-08 -1.16396e-07 2.54173e-08 -2.50681e-08 4.65661e-08 8.70399e-08 -5.60928e-08 -8.31982e-08 1.65698e-08 -1.32131e-08 3.37604e-08 6.08464e-08 -3.73693e-08 -5.59764e-08 1.09042e-08 -4.5208e-09 2.19249e-08 4.05513e-08 -2.19831e-08 -3.34306e-08 6.79089e-09 -1.12535e-09 1.16415e-08 2.3089e-08 -8.86697e-09 -1.75011e-08 7.41178e-09 3.88051e-10 2.40592e-09 1.10595e-08 2.32831e-09 -4.15215e-09 4.48083e-07 -1.0568e-06 -9.46903e-07 -9.46903e-07 9.24182e-07 2.36595e-07 5.79244e-07 -1.75882e-06 -7.30332e-07 -4.37722e-08 -1.93987e-07 -1.24937e-06 1.06334e-06 -1.50145e-06 -5.98181e-08 9.99309e-07 -3.35257e-07 -1.48604e-06 9.0284e-07 -1.31658e-06 -3.59723e-08 1.1203e-06 -4.1667e-07 -1.53981e-06 8.07612e-07 -1.19735e-06 2.14204e-08 1.14933e-06 -4.61529e-07 -1.54171e-06 7.45252e-07 -1.10981e-06 7.27984e-08 1.15732e-06 -4.89953e-07 -1.51858e-06 6.94029e-07 -1.03367e-06 1.12302e-07 1.14487e-06 -5.01149e-07 -1.47293e-06 6.50335e-07 -9.62464e-07 1.44782e-07 1.11999e-06 -5.02953e-07 -1.41198e-06 6.07804e-07 -8.9114e-07 1.68026e-07 1.08026e-06 -4.9719e-07 -1.34112e-06 5.65158e-07 -8.21291e-07 1.85411e-07 1.03222e-06 -4.83822e-07 -1.26233e-06 5.21579e-07 -7.51907e-07 1.95617e-07 9.76647e-07 -4.66748e-07 -1.18022e-06 4.79903e-07 -6.84347e-07 2.01243e-07 9.17042e-07 -4.45308e-07 -1.09471e-06 4.37411e-07 -6.19465e-07 2.02601e-07 8.53868e-07 -4.21889e-07 -1.00983e-06 3.9783e-07 -5.56426e-07 2.00545e-07 7.90111e-07 -3.95909e-07 -9.24163e-07 3.58443e-07 -4.96802e-07 1.96121e-07 7.25772e-07 -3.69541e-07 -8.41469e-07 3.21462e-07 -4.40244e-07 1.89873e-07 6.63024e-07 -3.41776e-07 -7.606e-07 2.86071e-07 -3.87973e-07 1.81142e-07 6.00858e-07 -3.13778e-07 -6.83145e-07 2.52388e-07 -3.38943e-07 1.71713e-07 5.41875e-07 -2.85761e-07 -6.09609e-07 2.20491e-07 -2.92416e-07 1.60032e-07 4.84521e-07 -2.58908e-07 -5.39837e-07 1.92279e-07 -2.50118e-07 1.48352e-07 4.29728e-07 -2.31414e-07 -4.7156e-07 1.64883e-07 -2.11177e-07 1.36594e-07 3.7703e-07 -2.0656e-07 -4.10306e-07 1.40164e-07 -1.76253e-07 1.24564e-07 3.28563e-07 -1.81317e-07 -3.52079e-07 1.17618e-07 -1.43695e-07 1.11914e-07 2.82889e-07 -1.5751e-07 -2.96743e-07 9.67411e-08 -1.15426e-07 9.97291e-08 2.39117e-07 -1.33878e-07 -2.47305e-07 7.84251e-08 -8.98532e-08 8.65742e-08 2.00118e-07 -1.13059e-07 -2.03242e-07 6.25538e-08 -6.82776e-08 7.35745e-08 1.63874e-07 -9.19487e-08 -1.61953e-07 4.82736e-08 -4.96511e-08 6.03031e-08 1.30308e-07 -7.26044e-08 -1.25554e-07 3.69037e-08 -3.39545e-08 4.74975e-08 1.00466e-07 -5.50644e-08 -9.32875e-08 2.79397e-08 -2.24682e-08 3.63216e-08 7.45446e-08 -3.96006e-08 -6.56194e-08 2.14592e-08 -1.35624e-08 2.59606e-08 5.196e-08 -2.45442e-08 -4.26856e-08 1.61817e-08 -7.85803e-09 1.50564e-08 3.31784e-08 -1.27281e-08 -2.37875e-08 1.5328e-08 -5.41331e-09 6.79089e-09 1.78504e-08 -4.07454e-10 -8.22668e-09 4.84637e-07 -8.3982e-07 -5.4267e-07 -5.4267e-07 5.66943e-07 9.70128e-09 5.77381e-07 -1.02628e-06 -4.67078e-07 8.90189e-08 2.94492e-07 -6.74646e-07 6.59648e-07 -1.4503e-06 -3.3743e-07 6.28643e-07 -3.33103e-07 -1.47327e-06 9.70089e-07 -1.31714e-06 5.64614e-08 1.20331e-06 -3.82444e-07 -1.56216e-06 8.879e-07 -1.19584e-06 7.82311e-08 1.26342e-06 -4.13061e-07 -1.5575e-06 8.20456e-07 -1.09745e-06 1.10051e-07 1.25888e-06 -4.28098e-07 -1.52025e-06 7.63064e-07 -1.01487e-06 1.38224e-07 1.23408e-06 -4.35956e-07 -1.46573e-06 7.07611e-07 -9.3627e-07 1.58985e-07 1.19186e-06 -4.33259e-07 -1.39594e-06 6.5666e-07 -8.6256e-07 1.74429e-07 1.1399e-06 -4.25052e-07 -1.3179e-06 6.07145e-07 -7.90848e-07 1.85372e-07 1.08072e-06 -4.13061e-07 -1.23383e-06 5.57785e-07 -7.22512e-07 1.91115e-07 1.01398e-06 -3.98218e-07 -1.14702e-06 5.10404e-07 -6.56408e-07 1.93987e-07 9.4471e-07 -3.79126e-07 -1.05971e-06 4.64109e-07 -5.92593e-07 1.92861e-07 8.75094e-07 -3.59005e-07 -9.7364e-07 4.21346e-07 -5.32173e-07 1.88748e-07 8.0474e-07 -3.35839e-07 -8.88268e-07 3.77651e-07 -4.74897e-07 1.82772e-07 7.36327e-07 -3.13293e-07 -8.07612e-07 3.39157e-07 -4.20609e-07 1.7571e-07 6.7094e-07 -2.89641e-07 -7.28391e-07 3.01205e-07 -3.70375e-07 1.66552e-07 6.06097e-07 -2.65931e-07 -6.53633e-07 2.66708e-07 -3.22917e-07 1.56967e-07 5.45289e-07 -2.4259e-07 -5.81281e-07 2.33646e-07 -2.80619e-07 1.46295e-07 4.85491e-07 -2.20413e-07 -5.14342e-07 2.03572e-07 -2.41154e-07 1.35585e-07 4.29961e-07 -1.97343e-07 -4.50741e-07 1.75283e-07 -2.04581e-07 1.24681e-07 3.7835e-07 -1.76389e-07 -3.92436e-07 1.50331e-07 -1.71111e-07 1.13389e-07 3.29727e-07 -1.5555e-07 -3.37022e-07 1.26233e-07 -1.41095e-07 1.02872e-07 2.84519e-07 -1.35469e-07 -2.86207e-07 1.05162e-07 -1.13389e-07 9.15024e-08 2.42377e-07 -1.16435e-07 -2.39777e-07 8.56817e-08 -9.08816e-08 7.95117e-08 2.0299e-07 -9.905e-08 -1.98255e-07 7.02372e-08 -7.06059e-08 6.91895e-08 1.68453e-07 -8.16071e-08 -1.59431e-07 5.46376e-08 -5.29496e-08 5.75092e-08 1.35352e-07 -6.49015e-08 -1.2536e-07 4.3811e-08 -3.87275e-08 4.64497e-08 1.06908e-07 -4.93213e-08 -9.46651e-08 3.29843e-08 -2.71248e-08 3.57783e-08 8.11027e-08 -3.54679e-08 -6.89373e-08 2.64651e-08 -1.81802e-08 2.51069e-08 5.85957e-08 -2.27204e-08 -4.76721e-08 2.10712e-08 -1.3446e-08 1.52504e-08 4.02409e-08 -1.23594e-08 -3.00158e-08 2.28174e-08 -1.06132e-08 8.26549e-09 2.59606e-08 -2.05667e-09 -1.44161e-08 5.79981e-07 -7.69098e-07 -1.04386e-07 -1.04386e-07 2.67367e-07 -2.83937e-07 6.7486e-07 -9.09165e-07 -1.78542e-07 3.72451e-07 1.43501e-07 -7.76238e-07 7.00199e-07 -1.00821e-06 -1.7503e-07 7.43079e-07 -6.51926e-09 -1.12234e-06 7.56544e-07 -1.25003e-06 -9.24726e-08 1.02096e-06 -3.42339e-07 -1.525e-06 9.32603e-07 -1.16753e-06 1.31122e-07 1.31937e-06 -3.62304e-07 -1.53996e-06 8.79557e-07 -1.07698e-06 1.47964e-07 1.33005e-06 -3.70356e-07 -1.49662e-06 8.19447e-07 -9.90714e-07 1.63292e-07 1.29299e-06 -3.69289e-07 -1.4295e-06 7.61279e-07 -9.11319e-07 1.76447e-07 1.23959e-06 -3.65738e-07 -1.35116e-06 7.03886e-07 -8.35726e-07 1.84285e-07 1.17219e-06 -3.56231e-07 -1.2667e-06 6.48744e-07 -7.62773e-07 1.88554e-07 1.10109e-06 -3.43348e-07 -1.17748e-06 5.93291e-07 -6.94379e-07 1.89447e-07 1.02546e-06 -3.29727e-07 -1.08817e-06 5.41486e-07 -6.27711e-07 1.8805e-07 9.48048e-07 -3.13041e-07 -9.99833e-07 4.90768e-07 -5.65759e-07 1.83665e-07 8.71834e-07 -2.95908e-07 -9.14345e-07 4.44124e-07 -5.07202e-07 1.77727e-07 7.9729e-07 -2.75769e-07 -8.31011e-07 3.9849e-07 -4.51226e-07 1.69772e-07 7.25966e-07 -2.57317e-07 -7.52392e-07 3.56503e-07 -4.00042e-07 1.61041e-07 6.56893e-07 -2.37313e-07 -6.76373e-07 3.16805e-07 -3.52292e-07 1.51107e-07 5.90847e-07 -2.1824e-07 -6.04778e-07 2.80212e-07 -3.08345e-07 1.41988e-07 5.2903e-07 -1.9907e-07 -5.37179e-07 2.45209e-07 -2.67445e-07 1.32209e-07 4.70784e-07 -1.80444e-07 -4.74295e-07 2.14553e-07 -2.30231e-07 1.21382e-07 4.15564e-07 -1.62555e-07 -4.14283e-07 1.84441e-07 -1.95675e-07 1.12069e-07 3.64108e-07 -1.45267e-07 -3.5982e-07 1.57782e-07 -1.64961e-07 1.01398e-07 3.16106e-07 -1.28193e-07 -3.09238e-07 1.33684e-07 -1.36458e-07 9.0804e-08 2.71985e-07 -1.13175e-07 -2.61663e-07 1.12418e-07 -1.10769e-07 8.26549e-08 2.31201e-07 -9.71874e-08 -2.18221e-07 9.10756e-08 -8.95234e-08 7.18283e-08 1.92939e-07 -8.33922e-08 -1.80502e-07 7.48939e-08 -7.00432e-08 6.24762e-08 1.59605e-07 -6.90537e-08 -1.44898e-07 6.01091e-08 -5.36675e-08 5.32406e-08 1.29105e-07 -5.65778e-08 -1.15174e-07 4.76527e-08 -4.07648e-08 4.42766e-08 1.02911e-07 -4.33841e-08 -8.67294e-08 3.77186e-08 -3.00934e-08 3.47306e-08 7.81147e-08 -3.28873e-08 -6.5115e-08 3.13157e-08 -2.25458e-08 2.59606e-08 5.81689e-08 -2.12264e-08 -4.51691e-08 2.67755e-08 -1.90533e-08 1.68802e-08 4.09006e-08 -1.32713e-08 -3.0462e-08 2.91814e-08 -1.89951e-08 1.10983e-08 2.82889e-08 -4.44318e-09 -1.71131e-08 7.08581e-07 -7.38772e-07 3.65893e-07 3.65893e-07 -4.57512e-08 -6.37471e-07 7.9857e-07 -8.79266e-07 1.30152e-07 7.2259e-07 -1.89175e-08 -9.54101e-07 8.1483e-07 -9.40713e-07 3.01516e-08 9.65044e-07 -6.15837e-08 -1.16784e-06 8.13627e-07 -9.81148e-07 1.94802e-08 1.12438e-06 -1.31588e-07 -1.30826e-06 8.37259e-07 -1.10185e-06 6.36016e-08 1.23897e-06 -3.06211e-07 -1.48313e-06 9.19914e-07 -1.03637e-06 1.8382e-07 1.3647e-06 -3.0951e-07 -1.44801e-06 8.70593e-07 -9.57671e-07 1.89679e-07 1.33125e-06 -3.0561e-07 -1.37564e-06 8.11415e-07 -8.78528e-07 1.92745e-07 1.26536e-06 -2.97383e-07 -1.28862e-06 7.50491e-07 -8.03984e-07 1.94064e-07 1.18728e-06 -2.87585e-07 -1.19883e-06 6.88131e-07 -7.30002e-07 1.91426e-07 1.10443e-06 -2.72625e-07 -1.10505e-06 6.27828e-07 -6.60929e-07 1.86109e-07 1.01995e-06 -2.59529e-07 -1.01438e-06 5.7059e-07 -5.9562e-07 1.80017e-07 9.36173e-07 -2.44239e-07 -9.26181e-07 5.15215e-07 -5.34346e-07 1.71169e-07 8.541e-07 -2.28931e-07 -8.41411e-07 4.64226e-07 -4.76973e-07 1.62283e-07 7.75559e-07 -2.11992e-07 -7.60832e-07 4.15098e-07 -4.24062e-07 1.51883e-07 7.0148e-07 -1.96567e-07 -6.84658e-07 3.70938e-07 -3.74819e-07 1.41716e-07 6.30428e-07 -1.80269e-07 -6.12228e-07 3.27826e-07 -3.29494e-07 1.30734e-07 5.63179e-07 -1.64534e-07 -5.43931e-07 2.88788e-07 -2.86789e-07 1.21266e-07 5.01013e-07 -1.49109e-07 -4.80524e-07 2.51923e-07 -2.47771e-07 1.10789e-07 4.42456e-07 -1.35275e-07 -4.20977e-07 2.1921e-07 -2.13622e-07 1.01281e-07 3.87236e-07 -1.20839e-07 -3.66068e-07 1.86963e-07 -1.80502e-07 9.22397e-08 3.37682e-07 -1.08421e-07 -3.15815e-07 1.59101e-07 -1.51553e-07 8.31982e-08 2.90767e-07 -9.53636e-08 -2.69579e-07 1.33451e-07 -1.25826e-07 7.41178e-08 2.4843e-07 -8.30623e-08 -2.26408e-07 1.10944e-07 -1.01592e-07 6.70164e-08 2.1044e-07 -7.19641e-08 -1.87991e-07 8.91353e-08 -8.14131e-08 5.79748e-08 1.7408e-07 -6.2224e-08 -1.54697e-07 7.21775e-08 -6.3621e-08 5.14944e-08 1.44006e-07 -5.13198e-08 -1.23323e-07 5.71987e-08 -4.8972e-08 4.37722e-08 1.15833e-07 -4.21229e-08 -9.76337e-08 4.55184e-08 -3.70007e-08 3.59335e-08 9.14636e-08 -3.36634e-08 -7.49715e-08 3.58559e-08 -2.74352e-08 2.89486e-08 7.02761e-08 -2.44666e-08 -5.6539e-08 2.97247e-08 -2.15562e-08 2.16921e-08 5.37839e-08 -1.62011e-08 -3.96976e-08 2.57666e-08 -1.9519e-08 1.47847e-08 3.82618e-08 -9.68187e-09 -2.78621e-08 2.96471e-08 -2.31861e-08 9.77889e-09 2.79397e-08 -5.08347e-09 -2.04309e-08 8.67837e-07 -7.35997e-07 8.80565e-07 8.80565e-07 -3.83899e-07 -1.0595e-06 9.44206e-07 -8.85164e-07 4.63721e-07 1.14165e-06 -2.10401e-07 -1.20267e-06 9.48785e-07 -9.32952e-07 2.60305e-07 1.25383e-06 -1.45209e-07 -1.27907e-06 9.28102e-07 -9.36755e-07 1.74119e-07 1.30781e-06 -1.42318e-07 -1.3192e-06 9.05052e-07 -9.34893e-07 1.50486e-07 1.32655e-06 -1.63331e-07 -1.33266e-06 8.9535e-07 -9.76686e-07 1.62477e-07 1.33113e-06 -2.46335e-07 -1.37273e-06 9.14598e-07 -9.15257e-07 2.17735e-07 1.34642e-06 -2.39292e-07 -1.30092e-06 8.55769e-07 -8.41062e-07 2.10479e-07 1.27397e-06 -2.26758e-07 -1.20703e-06 7.89374e-07 -7.64208e-07 2.00622e-07 1.18251e-06 -2.11527e-07 -1.10812e-06 7.22318e-07 -6.91953e-07 1.90184e-07 1.08806e-06 -1.98488e-07 -1.00983e-06 6.57553e-07 -6.23909e-07 1.80017e-07 9.92479e-07 -1.84926e-07 -9.16965e-07 5.943e-07 -5.59298e-07 1.67677e-07 9.00667e-07 -1.71053e-07 -8.28819e-07 5.34734e-07 -4.99965e-07 1.54444e-07 8.12967e-07 -1.57898e-07 -7.4661e-07 4.79903e-07 -4.44066e-07 1.42182e-07 7.31515e-07 -1.43715e-07 -6.68651e-07 4.28059e-07 -3.93096e-07 1.29337e-07 6.54836e-07 -1.31219e-07 -5.96337e-07 3.80329e-07 -3.46374e-07 1.17463e-07 5.83047e-07 -1.18259e-07 -5.28603e-07 3.34422e-07 -3.03107e-07 1.06054e-07 5.16729e-07 -1.06908e-07 -4.65894e-07 2.93599e-07 -2.62575e-07 9.5383e-08 4.54641e-07 -9.57904e-08 -4.06872e-07 2.54756e-07 -2.26311e-07 8.58369e-08 3.97054e-07 -8.57011e-08 -3.53689e-07 2.20491e-07 -1.92881e-07 7.64073e-08 3.44551e-07 -7.53789e-08 -3.03378e-07 1.877e-07 -1.62031e-07 6.74045e-08 2.9554e-07 -6.76761e-08 -2.57763e-07 1.57665e-07 -1.34693e-07 6.08852e-08 2.5103e-07 -5.9042e-08 -2.15912e-07 1.30036e-07 -1.10827e-07 5.39003e-08 2.10867e-07 -5.16496e-08 -1.80308e-07 1.08266e-07 -8.78936e-08 4.68378e-08 1.75554e-07 -4.41214e-08 -1.46509e-07 8.60697e-08 -6.95194e-08 4.03573e-08 1.42764e-07 -3.84559e-08 -1.17871e-07 6.84134e-08 -5.326e-08 3.55843e-08 1.15018e-07 -3.26739e-08 -9.21427e-08 5.24257e-08 -3.99887e-08 3.09665e-08 9.04159e-08 -2.66009e-08 -7.09357e-08 4.11334e-08 -3.03456e-08 2.53397e-08 6.9694e-08 -2.08577e-08 -5.20376e-08 3.13157e-08 -2.31278e-08 2.11488e-08 5.23481e-08 -1.62787e-08 -3.81842e-08 2.51069e-08 -1.8413e-08 1.6725e-08 3.86499e-08 -1.03416e-08 -2.57472e-08 2.34771e-08 -1.8025e-08 1.1952e-08 2.73576e-08 -7.06253e-09 -1.88787e-08 2.78621e-08 -2.5786e-08 9.1192e-09 2.09548e-08 -5.91778e-09 -1.81996e-08 1.06536e-06 -7.68458e-07 1.46338e-06 1.46338e-06 -7.69408e-07 -1.58775e-06 1.10754e-06 -9.16693e-07 8.24182e-07 1.64755e-06 -4.30174e-07 -1.52555e-06 1.09671e-06 -9.51637e-07 5.16845e-07 1.6155e-06 -2.60906e-07 -1.45434e-06 1.05709e-06 -9.32487e-07 3.54679e-07 1.54937e-06 -1.7893e-07 -1.38282e-06 1.01142e-06 -8.98455e-07 2.71287e-07 1.47518e-06 -1.46179e-07 -1.31646e-06 9.63764e-07 -8.64248e-07 2.28562e-07 1.39838e-06 -1.35081e-07 -1.24904e-06 9.21389e-07 -8.54217e-07 2.10324e-07 1.32395e-06 -1.6302e-07 -1.20329e-06 8.90694e-07 -7.86075e-07 2.1758e-07 1.25911e-06 -1.45655e-07 -1.10238e-06 8.20612e-07 -7.14208e-07 1.97091e-07 1.15492e-06 -1.29687e-07 -9.96049e-07 7.49986e-07 -6.41662e-07 1.78892e-07 1.04626e-06 -1.13195e-07 -8.96165e-07 6.76916e-07 -5.75868e-07 1.59411e-07 9.43158e-07 -1.01475e-07 -8.02431e-07 6.09046e-07 -5.11684e-07 1.41794e-07 8.43429e-07 -8.77189e-08 -7.15236e-07 5.44863e-07 -4.54621e-07 1.25457e-07 7.53556e-07 -7.66013e-08 -6.35899e-07 4.87276e-07 -4.01575e-07 1.09547e-07 6.69311e-07 -6.56582e-08 -5.61199e-07 4.32367e-07 -3.53476e-07 9.55382e-08 5.91429e-07 -5.6345e-08 -4.95076e-07 3.81415e-07 -3.08753e-07 8.12967e-08 5.20338e-07 -4.71288e-08 -4.31687e-07 3.34267e-07 -2.67969e-07 6.93835e-08 4.54175e-07 -4.05319e-08 -3.7476e-07 2.89797e-07 -2.30425e-07 5.89062e-08 3.93329e-07 -3.3062e-08 -3.21578e-07 2.50138e-07 -1.96587e-07 4.92049e-08 3.37837e-07 -2.82695e-08 -2.74643e-07 2.13312e-07 -1.66066e-07 4.1211e-08 2.87662e-07 -2.24682e-08 -2.29105e-07 1.79357e-07 -1.37661e-07 3.41873e-08 2.40863e-07 -1.77533e-08 -1.9065e-07 1.48313e-07 -1.10459e-07 2.75128e-08 2.00467e-07 -1.39698e-08 -1.53397e-07 1.20451e-07 -8.76413e-08 2.29338e-08 1.62361e-07 -1.17774e-08 -1.23808e-07 9.58874e-08 -6.88985e-08 1.76175e-08 1.29648e-07 -7.66401e-09 -9.42964e-08 7.41566e-08 -5.23481e-08 1.42415e-08 1.00932e-07 -6.75209e-09 -7.27984e-08 5.55301e-08 -3.73693e-08 1.12923e-08 7.73774e-08 -4.61781e-09 -5.13974e-08 4.05901e-08 -2.5689e-08 9.66247e-09 5.64614e-08 -4.30737e-09 -3.61664e-08 2.7668e-08 -1.7928e-08 8.14907e-09 4.00469e-08 -2.13428e-09 -2.24488e-08 1.94026e-08 -1.22236e-08 7.6058e-09 2.79397e-08 -2.13428e-09 -1.5425e-08 1.40474e-08 -9.79829e-09 5.3551e-09 1.86265e-08 -1.39698e-09 -9.64307e-09 1.47071e-08 -1.16609e-08 5.51033e-09 1.3737e-08 -1.5522e-10 -8.67294e-09 1.72683e-08 -2.08771e-08 3.37604e-09 1.18744e-08 -2.17309e-09 -1.46877e-08 1.29105e-06 -8.53848e-07 2.26494e-06 2.26494e-06 -1.23371e-06 -2.21327e-06 1.42283e-06 -9.83748e-07 1.29989e-06 2.29039e-06 -6.94088e-07 -1.88335e-06 1.41445e-06 -9.81381e-07 8.72727e-07 2.07177e-06 -4.00255e-07 -1.62159e-06 1.34945e-06 -9.35921e-07 6.33144e-07 1.86125e-06 -2.34926e-07 -1.41555e-06 1.26097e-06 -8.74454e-07 4.86965e-07 1.6718e-06 -1.37292e-07 -1.24892e-06 1.16741e-06 -8.10445e-07 3.88788e-07 1.50288e-06 -7.924e-08 -1.10911e-06 1.06955e-06 -7.50064e-07 3.17542e-07 1.34875e-06 -4.35199e-08 -9.88366e-07 9.72456e-07 -7.05011e-07 2.64418e-07 1.20994e-06 -3.72335e-08 -8.94574e-07 8.87046e-07 -6.35104e-07 2.27398e-07 1.08584e-06 -1.62205e-08 -7.90441e-07 7.98182e-07 -5.69038e-07 1.90029e-07 9.65044e-07 -1.90145e-09 -6.93661e-07 7.16226e-07 -5.05359e-07 1.60808e-07 8.53091e-07 8.80876e-09 -6.09376e-07 6.37413e-07 -4.4816e-07 1.34887e-07 7.5344e-07 1.62981e-08 -5.31999e-07 5.68107e-07 -3.9492e-07 1.12496e-07 6.61045e-07 2.21577e-08 -4.61955e-07 5.03923e-07 -3.4715e-07 9.42188e-08 5.78545e-07 2.8677e-08 -3.99518e-07 4.41757e-07 -3.01826e-07 7.41954e-08 5.02487e-07 3.34112e-08 -3.42455e-07 3.87896e-07 -2.62361e-07 5.88674e-08 4.34811e-07 3.6438e-08 -2.90922e-07 3.36091e-07 -2.25807e-07 4.31513e-08 3.70511e-07 3.79902e-08 -2.43444e-07 2.89913e-07 -1.90824e-07 3.19754e-08 3.1339e-07 3.9232e-08 -2.00797e-07 2.46063e-07 -1.60187e-07 2.03339e-08 2.60382e-07 4.00469e-08 -1.6207e-07 2.05861e-07 -1.31316e-07 1.14475e-08 2.13583e-07 4.02409e-08 -1.26582e-07 1.68531e-07 -1.05783e-07 2.56114e-09 1.69345e-07 3.89215e-08 -9.61203e-08 1.35624e-07 -8.18982e-08 -2.32831e-09 1.32675e-07 3.85723e-08 -6.86656e-08 1.05899e-07 -6.11374e-08 -8.98338e-09 9.82545e-08 3.61276e-08 -4.4005e-08 7.8852e-08 -4.33647e-08 -1.12923e-08 6.88791e-08 3.47694e-08 -2.50293e-08 5.70435e-08 -2.85218e-08 -1.62593e-08 4.35005e-08 3.12769e-08 -7.93565e-09 3.69425e-08 -1.62205e-08 -1.58131e-08 2.33607e-08 2.79785e-08 3.84171e-09 2.09936e-08 -7.19835e-09 -1.74041e-08 6.71328e-09 2.36711e-08 1.3349e-08 8.22668e-09 -7.76102e-11 -1.44355e-08 -4.11334e-09 1.94026e-08 1.77339e-08 6.59687e-10 3.41485e-09 -1.41445e-08 -1.24176e-08 1.52116e-08 1.92085e-08 -2.59994e-09 2.75516e-09 -1.00311e-08 -1.40474e-08 1.14863e-08 1.58713e-08 -1.41639e-09 -1.45519e-09 -8.3625e-09 -1.27475e-08 7.72222e-09 9.00279e-09 5.89838e-09 -1.24758e-08 -3.93872e-09 -5.23869e-09 1.39698e-09 -2.42532e-09 
