# vtk DataFile Version 5.1
vtk output
ASCII

DATASET UNSTRUCTURED_GRID
POINTS 18785 float
0 0 3.3
0.125 0 3.3
0.25 0 3.3
0.375 0 3.3
0.5 0 3.3
0.625 0 3.3
0.75 0 3.3
0.875 0 3.3
1 0 3.3
1.125 0 3.3
1.25 0 3.3
1.375 0 3.3
1.5 0 3.3
1.625 0 3.3
1.75 0 3.3
1.875 0 3.3
2 0 3.3
2.125 0 3.3
2.25 0 3.3
2.375 0 3.3
2.5 0 3.3
2.625 0 3.3
2.75 0 3.3
2.875 0 3.3
3 0 3.3
3.125 0 3.3
3.25 0 3.3
3.375 0 3.3
3.5 0 3.3
3.625 0 3.3
3.75 0 3.3
3.875 0 3.3
4 0 3.3
0 0.125 3.3
0.125 0.125 3.3
0.25 0.125 3.3
0.375 0.125 3.3
0.5 0.125 3.3
0.625 0.125 3.3
0.75 0.125 3.3
0.875 0.125 3.3
1 0.125 3.3
1.125 0.125 3.3
1.25 0.125 3.3
1.375 0.125 3.3
1.5 0.125 3.3
1.625 0.125 3.3
1.75 0.125 3.3
1.875 0.125 3.3
2 0.125 3.3
2.125 0.125 3.3
2.25 0.125 3.3
2.375 0.125 3.3
2.5 0.125 3.3
2.625 0.125 3.3
2.75 0.125 3.3
2.875 0.125 3.3
3 0.125 3.3
3.125 0.125 3.3
3.25 0.125 3.3
3.375 0.125 3.3
3.5 0.125 3.3
3.625 0.125 3.3
3.75 0.125 3.3
3.875 0.125 3.3
4 0.125 3.3
0 0.25 3.3
0.125 0.25 3.3
0.25 0.25 3.3
0.375 0.25 3.3
0.5 0.25 3.3
0.625 0.25 3.3
0.75 0.25 3.3
0.875 0.25 3.3
1 0.25 3.3
1.125 0.25 3.3
1.25 0.25 3.3
1.375 0.25 3.3
1.5 0.25 3.3
1.625 0.25 3.3
1.75 0.25 3.3
1.875 0.25 3.3
2 0.25 3.3
2.125 0.25 3.3
2.25 0.25 3.3
2.375 0.25 3.3
2.5 0.25 3.3
2.625 0.25 3.3
2.75 0.25 3.3
2.875 0.25 3.3
3 0.25 3.3
3.125 0.25 3.3
3.25 0.25 3.3
3.375 0.25 3.3
3.5 0.25 3.3
3.625 0.25 3.3
3.75 0.25 3.3
3.875 0.25 3.3
4 0.25 3.3
0 0.375 3.3
0.125 0.375 3.3
0.25 0.375 3.3
0.375 0.375 3.3
0.5 0.375 3.3
0.625 0.375 3.3
0.75 0.375 3.3
0.875 0.375 3.3
1 0.375 3.3
1.125 0.375 3.3
1.25 0.375 3.3
1.375 0.375 3.3
1.5 0.375 3.3
1.625 0.375 3.3
1.75 0.375 3.3
1.875 0.375 3.3
2 0.375 3.3
2.125 0.375 3.3
2.25 0.375 3.3
2.375 0.375 3.3
2.5 0.375 3.3
2.625 0.375 3.3
2.75 0.375 3.3
2.875 0.375 3.3
3 0.375 3.3
3.125 0.375 3.3
3.25 0.375 3.3
3.375 0.375 3.3
3.5 0.375 3.3
3.625 0.375 3.3
3.75 0.375 3.3
3.875 0.375 3.3
4 0.375 3.3
0 0.5 3.3
0.125 0.5 3.3
0.25 0.5 3.3
0.375 0.5 3.3
0.5 0.5 3.3
0.625 0.5 3.3
0.75 0.5 3.3
0.875 0.5 3.3
1 0.5 3.3
1.125 0.5 3.3
1.25 0.5 3.3
1.375 0.5 3.3
1.5 0.5 3.3
1.625 0.5 3.3
1.75 0.5 3.3
1.875 0.5 3.3
2 0.5 3.3
2.125 0.5 3.3
2.25 0.5 3.3
2.375 0.5 3.3
2.5 0.5 3.3
2.625 0.5 3.3
2.75 0.5 3.3
2.875 0.5 3.3
3 0.5 3.3
3.125 0.5 3.3
3.25 0.5 3.3
3.375 0.5 3.3
3.5 0.5 3.3
3.625 0.5 3.3
3.75 0.5 3.3
3.875 0.5 3.3
4 0.5 3.3
0 0.625 3.3
0.125 0.625 3.3
0.25 0.625 3.3
0.375 0.625 3.3
0.5 0.625 3.3
0.625 0.625 3.3
0.75 0.625 3.3
0.875 0.625 3.3
1 0.625 3.3
1.125 0.625 3.3
1.25 0.625 3.3
1.375 0.625 3.3
1.5 0.625 3.3
1.625 0.625 3.3
1.75 0.625 3.3
1.875 0.625 3.3
2 0.625 3.3
2.125 0.625 3.3
2.25 0.625 3.3
2.375 0.625 3.3
2.5 0.625 3.3
2.625 0.625 3.3
2.75 0.625 3.3
2.875 0.625 3.3
3 0.625 3.3
3.125 0.625 3.3
3.25 0.625 3.3
3.375 0.625 3.3
3.5 0.625 3.3
3.625 0.625 3.3
3.75 0.625 3.3
3.875 0.625 3.3
4 0.625 3.3
0 0.75 3.3
0.125 0.75 3.3
0.25 0.75 3.3
0.375 0.75 3.3
0.5 0.75 3.3
0.625 0.75 3.3
0.75 0.75 3.3
0.875 0.75 3.3
1 0.75 3.3
1.125 0.75 3.3
1.25 0.75 3.3
1.375 0.75 3.3
1.5 0.75 3.3
1.625 0.75 3.3
1.75 0.75 3.3
1.875 0.75 3.3
2 0.75 3.3
2.125 0.75 3.3
2.25 0.75 3.3
2.375 0.75 3.3
2.5 0.75 3.3
2.625 0.75 3.3
2.75 0.75 3.3
2.875 0.75 3.3
3 0.75 3.3
3.125 0.75 3.3
3.25 0.75 3.3
3.375 0.75 3.3
3.5 0.75 3.3
3.625 0.75 3.3
3.75 0.75 3.3
3.875 0.75 3.3
4 0.75 3.3
0 0.875 3.3
0.125 0.875 3.3
0.25 0.875 3.3
0.375 0.875 3.3
0.5 0.875 3.3
0.625 0.875 3.3
0.75 0.875 3.3
0.875 0.875 3.3
1 0.875 3.3
1.125 0.875 3.3
1.25 0.875 3.3
1.375 0.875 3.3
1.5 0.875 3.3
1.625 0.875 3.3
1.75 0.875 3.3
1.875 0.875 3.3
2 0.875 3.3
2.125 0.875 3.3
2.25 0.875 3.3
2.375 0.875 3.3
2.5 0.875 3.3
2.625 0.875 3.3
2.75 0.875 3.3
2.875 0.875 3.3
3 0.875 3.3
3.125 0.875 3.3
3.25 0.875 3.3
3.375 0.875 3.3
3.5 0.875 3.3
3.625 0.875 3.3
3.75 0.875 3.3
3.875 0.875 3.3
4 0.875 3.3
0 1 3.3
0.125 1 3.3
0.25 1 3.3
0.375 1 3.3
0.5 1 3.3
0.625 1 3.3
0.75 1 3.3
0.875 1 3.3
1 1 3.3
1.125 1 3.3
1.25 1 3.3
1.375 1 3.3
1.5 1 3.3
1.625 1 3.3
1.75 1 3.3
1.875 1 3.3
2 1 3.3
2.125 1 3.3
2.25 1 3.3
2.375 1 3.3
2.5 1 3.3
2.625 1 3.3
2.75 1 3.3
2.875 1 3.3
3 1 3.3
3.125 1 3.3
3.25 1 3.3
3.375 1 3.3
3.5 1 3.3
3.625 1 3.3
3.75 1 3.3
3.875 1 3.3
4 1 3.3
0 0 3.425
0.125 0 3.425
0.25 0 3.425
0.375 0 3.425
0.5 0 3.425
0.625 0 3.425
0.75 0 3.425
0.875 0 3.425
1 0 3.425
1.125 0 3.425
1.25 0 3.425
1.375 0 3.425
1.5 0 3.425
1.625 0 3.425
1.75 0 3.425
1.875 0 3.425
2 0 3.425
2.125 0 3.425
2.25 0 3.425
2.375 0 3.425
2.5 0 3.425
2.625 0 3.425
2.75 0 3.425
2.875 0 3.425
3 0 3.425
3.125 0 3.425
3.25 0 3.425
3.375 0 3.425
3.5 0 3.425
3.625 0 3.425
3.75 0 3.425
3.875 0 3.425
4 0 3.425
0 0.125 3.425
0.125 0.125 3.425
0.25 0.125 3.425
0.375 0.125 3.425
0.5 0.125 3.425
0.625 0.125 3.425
0.75 0.125 3.425
0.875 0.125 3.425
1 0.125 3.425
1.125 0.125 3.425
1.25 0.125 3.425
1.375 0.125 3.425
1.5 0.125 3.425
1.625 0.125 3.425
1.75 0.125 3.425
1.875 0.125 3.425
2 0.125 3.425
2.125 0.125 3.425
2.25 0.125 3.425
2.375 0.125 3.425
2.5 0.125 3.425
2.625 0.125 3.425
2.75 0.125 3.425
2.875 0.125 3.425
3 0.125 3.425
3.125 0.125 3.425
3.25 0.125 3.425
3.375 0.125 3.425
3.5 0.125 3.425
3.625 0.125 3.425
3.75 0.125 3.425
3.875 0.125 3.425
4 0.125 3.425
0 0.25 3.425
0.125 0.25 3.425
0.25 0.25 3.425
0.375 0.25 3.425
0.5 0.25 3.425
0.625 0.25 3.425
0.75 0.25 3.425
0.875 0.25 3.425
1 0.25 3.425
1.125 0.25 3.425
1.25 0.25 3.425
1.375 0.25 3.425
1.5 0.25 3.425
1.625 0.25 3.425
1.75 0.25 3.425
1.875 0.25 3.425
2 0.25 3.425
2.125 0.25 3.425
2.25 0.25 3.425
2.375 0.25 3.425
2.5 0.25 3.425
2.625 0.25 3.425
2.75 0.25 3.425
2.875 0.25 3.425
3 0.25 3.425
3.125 0.25 3.425
3.25 0.25 3.425
3.375 0.25 3.425
3.5 0.25 3.425
3.625 0.25 3.425
3.75 0.25 3.425
3.875 0.25 3.425
4 0.25 3.425
0 0.375 3.425
0.125 0.375 3.425
0.25 0.375 3.425
0.375 0.375 3.425
0.5 0.375 3.425
0.625 0.375 3.425
0.75 0.375 3.425
0.875 0.375 3.425
1 0.375 3.425
1.125 0.375 3.425
1.25 0.375 3.425
1.375 0.375 3.425
1.5 0.375 3.425
1.625 0.375 3.425
1.75 0.375 3.425
1.875 0.375 3.425
2 0.375 3.425
2.125 0.375 3.425
2.25 0.375 3.425
2.375 0.375 3.425
2.5 0.375 3.425
2.625 0.375 3.425
2.75 0.375 3.425
2.875 0.375 3.425
3 0.375 3.425
3.125 0.375 3.425
3.25 0.375 3.425
3.375 0.375 3.425
3.5 0.375 3.425
3.625 0.375 3.425
3.75 0.375 3.425
3.875 0.375 3.425
4 0.375 3.425
0 0.5 3.425
0.125 0.5 3.425
0.25 0.5 3.425
0.375 0.5 3.425
0.5 0.5 3.425
0.625 0.5 3.425
0.75 0.5 3.425
0.875 0.5 3.425
1 0.5 3.425
1.125 0.5 3.425
1.25 0.5 3.425
1.375 0.5 3.425
1.5 0.5 3.425
1.625 0.5 3.425
1.75 0.5 3.425
1.875 0.5 3.425
2 0.5 3.425
2.125 0.5 3.425
2.25 0.5 3.425
2.375 0.5 3.425
2.5 0.5 3.425
2.625 0.5 3.425
2.75 0.5 3.425
2.875 0.5 3.425
3 0.5 3.425
3.125 0.5 3.425
3.25 0.5 3.425
3.375 0.5 3.425
3.5 0.5 3.425
3.625 0.5 3.425
3.75 0.5 3.425
3.875 0.5 3.425
4 0.5 3.425
0 0.625 3.425
0.125 0.625 3.425
0.25 0.625 3.425
0.375 0.625 3.425
0.5 0.625 3.425
0.625 0.625 3.425
0.75 0.625 3.425
0.875 0.625 3.425
1 0.625 3.425
1.125 0.625 3.425
1.25 0.625 3.425
1.375 0.625 3.425
1.5 0.625 3.425
1.625 0.625 3.425
1.75 0.625 3.425
1.875 0.625 3.425
2 0.625 3.425
2.125 0.625 3.425
2.25 0.625 3.425
2.375 0.625 3.425
2.5 0.625 3.425
2.625 0.625 3.425
2.75 0.625 3.425
2.875 0.625 3.425
3 0.625 3.425
3.125 0.625 3.425
3.25 0.625 3.425
3.375 0.625 3.425
3.5 0.625 3.425
3.625 0.625 3.425
3.75 0.625 3.425
3.875 0.625 3.425
4 0.625 3.425
0 0.75 3.425
0.125 0.75 3.425
0.25 0.75 3.425
0.375 0.75 3.425
0.5 0.75 3.425
0.625 0.75 3.425
0.75 0.75 3.425
0.875 0.75 3.425
1 0.75 3.425
1.125 0.75 3.425
1.25 0.75 3.425
1.375 0.75 3.425
1.5 0.75 3.425
1.625 0.75 3.425
1.75 0.75 3.425
1.875 0.75 3.425
2 0.75 3.425
2.125 0.75 3.425
2.25 0.75 3.425
2.375 0.75 3.425
2.5 0.75 3.425
2.625 0.75 3.425
2.75 0.75 3.425
2.875 0.75 3.425
3 0.75 3.425
3.125 0.75 3.425
3.25 0.75 3.425
3.375 0.75 3.425
3.5 0.75 3.425
3.625 0.75 3.425
3.75 0.75 3.425
3.875 0.75 3.425
4 0.75 3.425
0 0.875 3.425
0.125 0.875 3.425
0.25 0.875 3.425
0.375 0.875 3.425
0.5 0.875 3.425
0.625 0.875 3.425
0.75 0.875 3.425
0.875 0.875 3.425
1 0.875 3.425
1.125 0.875 3.425
1.25 0.875 3.425
1.375 0.875 3.425
1.5 0.875 3.425
1.625 0.875 3.425
1.75 0.875 3.425
1.875 0.875 3.425
2 0.875 3.425
2.125 0.875 3.425
2.25 0.875 3.425
2.375 0.875 3.425
2.5 0.875 3.425
2.625 0.875 3.425
2.75 0.875 3.425
2.875 0.875 3.425
3 0.875 3.425
3.125 0.875 3.425
3.25 0.875 3.425
3.375 0.875 3.425
3.5 0.875 3.425
3.625 0.875 3.425
3.75 0.875 3.425
3.875 0.875 3.425
4 0.875 3.425
0 1 3.425
0.125 1 3.425
0.25 1 3.425
0.375 1 3.425
0.5 1 3.425
0.625 1 3.425
0.75 1 3.425
0.875 1 3.425
1 1 3.425
1.125 1 3.425
1.25 1 3.425
1.375 1 3.425
1.5 1 3.425
1.625 1 3.425
1.75 1 3.425
1.875 1 3.425
2 1 3.425
2.125 1 3.425
2.25 1 3.425
2.375 1 3.425
2.5 1 3.425
2.625 1 3.425
2.75 1 3.425
2.875 1 3.425
3 1 3.425
3.125 1 3.425
3.25 1 3.425
3.375 1 3.425
3.5 1 3.425
3.625 1 3.425
3.75 1 3.425
3.875 1 3.425
4 1 3.425
0 0 3.55
0.125 0 3.55
0.25 0 3.55
0.375 0 3.55
0.5 0 3.55
0.625 0 3.55
0.75 0 3.55
0.875 0 3.55
1 0 3.55
1.125 0 3.55
1.25 0 3.55
1.375 0 3.55
1.5 0 3.55
1.625 0 3.55
1.75 0 3.55
1.875 0 3.55
2 0 3.55
2.125 0 3.55
2.25 0 3.55
2.375 0 3.55
2.5 0 3.55
2.625 0 3.55
2.75 0 3.55
2.875 0 3.55
3 0 3.55
3.125 0 3.55
3.25 0 3.55
3.375 0 3.55
3.5 0 3.55
3.625 0 3.55
3.75 0 3.55
3.875 0 3.55
4 0 3.55
0 0.125 3.55
0.125 0.125 3.55
0.25 0.125 3.55
0.375 0.125 3.55
0.5 0.125 3.55
0.625 0.125 3.55
0.75 0.125 3.55
0.875 0.125 3.55
1 0.125 3.55
1.125 0.125 3.55
1.25 0.125 3.55
1.375 0.125 3.55
1.5 0.125 3.55
1.625 0.125 3.55
1.75 0.125 3.55
1.875 0.125 3.55
2 0.125 3.55
2.125 0.125 3.55
2.25 0.125 3.55
2.375 0.125 3.55
2.5 0.125 3.55
2.625 0.125 3.55
2.75 0.125 3.55
2.875 0.125 3.55
3 0.125 3.55
3.125 0.125 3.55
3.25 0.125 3.55
3.375 0.125 3.55
3.5 0.125 3.55
3.625 0.125 3.55
3.75 0.125 3.55
3.875 0.125 3.55
4 0.125 3.55
0 0.25 3.55
0.125 0.25 3.55
0.25 0.25 3.55
0.375 0.25 3.55
0.5 0.25 3.55
0.625 0.25 3.55
0.75 0.25 3.55
0.875 0.25 3.55
1 0.25 3.55
1.125 0.25 3.55
1.25 0.25 3.55
1.375 0.25 3.55
1.5 0.25 3.55
1.625 0.25 3.55
1.75 0.25 3.55
1.875 0.25 3.55
2 0.25 3.55
2.125 0.25 3.55
2.25 0.25 3.55
2.375 0.25 3.55
2.5 0.25 3.55
2.625 0.25 3.55
2.75 0.25 3.55
2.875 0.25 3.55
3 0.25 3.55
3.125 0.25 3.55
3.25 0.25 3.55
3.375 0.25 3.55
3.5 0.25 3.55
3.625 0.25 3.55
3.75 0.25 3.55
3.875 0.25 3.55
4 0.25 3.55
0 0.375 3.55
0.125 0.375 3.55
0.25 0.375 3.55
0.375 0.375 3.55
0.5 0.375 3.55
0.625 0.375 3.55
0.75 0.375 3.55
0.875 0.375 3.55
1 0.375 3.55
1.125 0.375 3.55
1.25 0.375 3.55
1.375 0.375 3.55
1.5 0.375 3.55
1.625 0.375 3.55
1.75 0.375 3.55
1.875 0.375 3.55
2 0.375 3.55
2.125 0.375 3.55
2.25 0.375 3.55
2.375 0.375 3.55
2.5 0.375 3.55
2.625 0.375 3.55
2.75 0.375 3.55
2.875 0.375 3.55
3 0.375 3.55
3.125 0.375 3.55
3.25 0.375 3.55
3.375 0.375 3.55
3.5 0.375 3.55
3.625 0.375 3.55
3.75 0.375 3.55
3.875 0.375 3.55
4 0.375 3.55
0 0.5 3.55
0.125 0.5 3.55
0.25 0.5 3.55
0.375 0.5 3.55
0.5 0.5 3.55
0.625 0.5 3.55
0.75 0.5 3.55
0.875 0.5 3.55
1 0.5 3.55
1.125 0.5 3.55
1.25 0.5 3.55
1.375 0.5 3.55
1.5 0.5 3.55
1.625 0.5 3.55
1.75 0.5 3.55
1.875 0.5 3.55
2 0.5 3.55
2.125 0.5 3.55
2.25 0.5 3.55
2.375 0.5 3.55
2.5 0.5 3.55
2.625 0.5 3.55
2.75 0.5 3.55
2.875 0.5 3.55
3 0.5 3.55
3.125 0.5 3.55
3.25 0.5 3.55
3.375 0.5 3.55
3.5 0.5 3.55
3.625 0.5 3.55
3.75 0.5 3.55
3.875 0.5 3.55
4 0.5 3.55
0 0.625 3.55
0.125 0.625 3.55
0.25 0.625 3.55
0.375 0.625 3.55
0.5 0.625 3.55
0.625 0.625 3.55
0.75 0.625 3.55
0.875 0.625 3.55
1 0.625 3.55
1.125 0.625 3.55
1.25 0.625 3.55
1.375 0.625 3.55
1.5 0.625 3.55
1.625 0.625 3.55
1.75 0.625 3.55
1.875 0.625 3.55
2 0.625 3.55
2.125 0.625 3.55
2.25 0.625 3.55
2.375 0.625 3.55
2.5 0.625 3.55
2.625 0.625 3.55
2.75 0.625 3.55
2.875 0.625 3.55
3 0.625 3.55
3.125 0.625 3.55
3.25 0.625 3.55
3.375 0.625 3.55
3.5 0.625 3.55
3.625 0.625 3.55
3.75 0.625 3.55
3.875 0.625 3.55
4 0.625 3.55
0 0.75 3.55
0.125 0.75 3.55
0.25 0.75 3.55
0.375 0.75 3.55
0.5 0.75 3.55
0.625 0.75 3.55
0.75 0.75 3.55
0.875 0.75 3.55
1 0.75 3.55
1.125 0.75 3.55
1.25 0.75 3.55
1.375 0.75 3.55
1.5 0.75 3.55
1.625 0.75 3.55
1.75 0.75 3.55
1.875 0.75 3.55
2 0.75 3.55
2.125 0.75 3.55
2.25 0.75 3.55
2.375 0.75 3.55
2.5 0.75 3.55
2.625 0.75 3.55
2.75 0.75 3.55
2.875 0.75 3.55
3 0.75 3.55
3.125 0.75 3.55
3.25 0.75 3.55
3.375 0.75 3.55
3.5 0.75 3.55
3.625 0.75 3.55
3.75 0.75 3.55
3.875 0.75 3.55
4 0.75 3.55
0 0.875 3.55
0.125 0.875 3.55
0.25 0.875 3.55
0.375 0.875 3.55
0.5 0.875 3.55
0.625 0.875 3.55
0.75 0.875 3.55
0.875 0.875 3.55
1 0.875 3.55
1.125 0.875 3.55
1.25 0.875 3.55
1.375 0.875 3.55
1.5 0.875 3.55
1.625 0.875 3.55
1.75 0.875 3.55
1.875 0.875 3.55
2 0.875 3.55
2.125 0.875 3.55
2.25 0.875 3.55
2.375 0.875 3.55
2.5 0.875 3.55
2.625 0.875 3.55
2.75 0.875 3.55
2.875 0.875 3.55
3 0.875 3.55
3.125 0.875 3.55
3.25 0.875 3.55
3.375 0.875 3.55
3.5 0.875 3.55
3.625 0.875 3.55
3.75 0.875 3.55
3.875 0.875 3.55
4 0.875 3.55
0 1 3.55
0.125 1 3.55
0.25 1 3.55
0.375 1 3.55
0.5 1 3.55
0.625 1 3.55
0.75 1 3.55
0.875 1 3.55
1 1 3.55
1.125 1 3.55
1.25 1 3.55
1.375 1 3.55
1.5 1 3.55
1.625 1 3.55
1.75 1 3.55
1.875 1 3.55
2 1 3.55
2.125 1 3.55
2.25 1 3.55
2.375 1 3.55
2.5 1 3.55
2.625 1 3.55
2.75 1 3.55
2.875 1 3.55
3 1 3.55
3.125 1 3.55
3.25 1 3.55
3.375 1 3.55
3.5 1 3.55
3.625 1 3.55
3.75 1 3.55
3.875 1 3.55
4 1 3.55
0 0 3.675
0.125 0 3.675
0.25 0 3.675
0.375 0 3.675
0.5 0 3.675
0.625 0 3.675
0.75 0 3.675
0.875 0 3.675
1 0 3.675
1.125 0 3.675
1.25 0 3.675
1.375 0 3.675
1.5 0 3.675
1.625 0 3.675
1.75 0 3.675
1.875 0 3.675
2 0 3.675
2.125 0 3.675
2.25 0 3.675
2.375 0 3.675
2.5 0 3.675
2.625 0 3.675
2.75 0 3.675
2.875 0 3.675
3 0 3.675
3.125 0 3.675
3.25 0 3.675
3.375 0 3.675
3.5 0 3.675
3.625 0 3.675
3.75 0 3.675
3.875 0 3.675
4 0 3.675
0 0.125 3.675
0.125 0.125 3.675
0.25 0.125 3.675
0.375 0.125 3.675
0.5 0.125 3.675
0.625 0.125 3.675
0.75 0.125 3.675
0.875 0.125 3.675
1 0.125 3.675
1.125 0.125 3.675
1.25 0.125 3.675
1.375 0.125 3.675
1.5 0.125 3.675
1.625 0.125 3.675
1.75 0.125 3.675
1.875 0.125 3.675
2 0.125 3.675
2.125 0.125 3.675
2.25 0.125 3.675
2.375 0.125 3.675
2.5 0.125 3.675
2.625 0.125 3.675
2.75 0.125 3.675
2.875 0.125 3.675
3 0.125 3.675
3.125 0.125 3.675
3.25 0.125 3.675
3.375 0.125 3.675
3.5 0.125 3.675
3.625 0.125 3.675
3.75 0.125 3.675
3.875 0.125 3.675
4 0.125 3.675
0 0.25 3.675
0.125 0.25 3.675
0.25 0.25 3.675
0.375 0.25 3.675
0.5 0.25 3.675
0.625 0.25 3.675
0.75 0.25 3.675
0.875 0.25 3.675
1 0.25 3.675
1.125 0.25 3.675
1.25 0.25 3.675
1.375 0.25 3.675
1.5 0.25 3.675
1.625 0.25 3.675
1.75 0.25 3.675
1.875 0.25 3.675
2 0.25 3.675
2.125 0.25 3.675
2.25 0.25 3.675
2.375 0.25 3.675
2.5 0.25 3.675
2.625 0.25 3.675
2.75 0.25 3.675
2.875 0.25 3.675
3 0.25 3.675
3.125 0.25 3.675
3.25 0.25 3.675
3.375 0.25 3.675
3.5 0.25 3.675
3.625 0.25 3.675
3.75 0.25 3.675
3.875 0.25 3.675
4 0.25 3.675
0 0.375 3.675
0.125 0.375 3.675
0.25 0.375 3.675
0.375 0.375 3.675
0.5 0.375 3.675
0.625 0.375 3.675
0.75 0.375 3.675
0.875 0.375 3.675
1 0.375 3.675
1.125 0.375 3.675
1.25 0.375 3.675
1.375 0.375 3.675
1.5 0.375 3.675
1.625 0.375 3.675
1.75 0.375 3.675
1.875 0.375 3.675
2 0.375 3.675
2.125 0.375 3.675
2.25 0.375 3.675
2.375 0.375 3.675
2.5 0.375 3.675
2.625 0.375 3.675
2.75 0.375 3.675
2.875 0.375 3.675
3 0.375 3.675
3.125 0.375 3.675
3.25 0.375 3.675
3.375 0.375 3.675
3.5 0.375 3.675
3.625 0.375 3.675
3.75 0.375 3.675
3.875 0.375 3.675
4 0.375 3.675
0 0.5 3.675
0.125 0.5 3.675
0.25 0.5 3.675
0.375 0.5 3.675
0.5 0.5 3.675
0.625 0.5 3.675
0.75 0.5 3.675
0.875 0.5 3.675
1 0.5 3.675
1.125 0.5 3.675
1.25 0.5 3.675
1.375 0.5 3.675
1.5 0.5 3.675
1.625 0.5 3.675
1.75 0.5 3.675
1.875 0.5 3.675
2 0.5 3.675
2.125 0.5 3.675
2.25 0.5 3.675
2.375 0.5 3.675
2.5 0.5 3.675
2.625 0.5 3.675
2.75 0.5 3.675
2.875 0.5 3.675
3 0.5 3.675
3.125 0.5 3.675
3.25 0.5 3.675
3.375 0.5 3.675
3.5 0.5 3.675
3.625 0.5 3.675
3.75 0.5 3.675
3.875 0.5 3.675
4 0.5 3.675
0 0.625 3.675
0.125 0.625 3.675
0.25 0.625 3.675
0.375 0.625 3.675
0.5 0.625 3.675
0.625 0.625 3.675
0.75 0.625 3.675
0.875 0.625 3.675
1 0.625 3.675
1.125 0.625 3.675
1.25 0.625 3.675
1.375 0.625 3.675
1.5 0.625 3.675
1.625 0.625 3.675
1.75 0.625 3.675
1.875 0.625 3.675
2 0.625 3.675
2.125 0.625 3.675
2.25 0.625 3.675
2.375 0.625 3.675
2.5 0.625 3.675
2.625 0.625 3.675
2.75 0.625 3.675
2.875 0.625 3.675
3 0.625 3.675
3.125 0.625 3.675
3.25 0.625 3.675
3.375 0.625 3.675
3.5 0.625 3.675
3.625 0.625 3.675
3.75 0.625 3.675
3.875 0.625 3.675
4 0.625 3.675
0 0.75 3.675
0.125 0.75 3.675
0.25 0.75 3.675
0.375 0.75 3.675
0.5 0.75 3.675
0.625 0.75 3.675
0.75 0.75 3.675
0.875 0.75 3.675
1 0.75 3.675
1.125 0.75 3.675
1.25 0.75 3.675
1.375 0.75 3.675
1.5 0.75 3.675
1.625 0.75 3.675
1.75 0.75 3.675
1.875 0.75 3.675
2 0.75 3.675
2.125 0.75 3.675
2.25 0.75 3.675
2.375 0.75 3.675
2.5 0.75 3.675
2.625 0.75 3.675
2.75 0.75 3.675
2.875 0.75 3.675
3 0.75 3.675
3.125 0.75 3.675
3.25 0.75 3.675
3.375 0.75 3.675
3.5 0.75 3.675
3.625 0.75 3.675
3.75 0.75 3.675
3.875 0.75 3.675
4 0.75 3.675
0 0.875 3.675
0.125 0.875 3.675
0.25 0.875 3.675
0.375 0.875 3.675
0.5 0.875 3.675
0.625 0.875 3.675
0.75 0.875 3.675
0.875 0.875 3.675
1 0.875 3.675
1.125 0.875 3.675
1.25 0.875 3.675
1.375 0.875 3.675
1.5 0.875 3.675
1.625 0.875 3.675
1.75 0.875 3.675
1.875 0.875 3.675
2 0.875 3.675
2.125 0.875 3.675
2.25 0.875 3.675
2.375 0.875 3.675
2.5 0.875 3.675
2.625 0.875 3.675
2.75 0.875 3.675
2.875 0.875 3.675
3 0.875 3.675
3.125 0.875 3.675
3.25 0.875 3.675
3.375 0.875 3.675
3.5 0.875 3.675
3.625 0.875 3.675
3.75 0.875 3.675
3.875 0.875 3.675
4 0.875 3.675
0 1 3.675
0.125 1 3.675
0.25 1 3.675
0.375 1 3.675
0.5 1 3.675
0.625 1 3.675
0.75 1 3.675
0.875 1 3.675
1 1 3.675
1.125 1 3.675
1.25 1 3.675
1.375 1 3.675
1.5 1 3.675
1.625 1 3.675
1.75 1 3.675
1.875 1 3.675
2 1 3.675
2.125 1 3.675
2.25 1 3.675
2.375 1 3.675
2.5 1 3.675
2.625 1 3.675
2.75 1 3.675
2.875 1 3.675
3 1 3.675
3.125 1 3.675
3.25 1 3.675
3.375 1 3.675
3.5 1 3.675
3.625 1 3.675
3.75 1 3.675
3.875 1 3.675
4 1 3.675
0 0 3.8
0.125 0 3.8
0.25 0 3.8
0.375 0 3.8
0.5 0 3.8
0.625 0 3.8
0.75 0 3.8
0.875 0 3.8
1 0 3.8
1.125 0 3.8
1.25 0 3.8
1.375 0 3.8
1.5 0 3.8
1.625 0 3.8
1.75 0 3.8
1.875 0 3.8
2 0 3.8
2.125 0 3.8
2.25 0 3.8
2.375 0 3.8
2.5 0 3.8
2.625 0 3.8
2.75 0 3.8
2.875 0 3.8
3 0 3.8
3.125 0 3.8
3.25 0 3.8
3.375 0 3.8
3.5 0 3.8
3.625 0 3.8
3.75 0 3.8
3.875 0 3.8
4 0 3.8
0 0.125 3.8
0.125 0.125 3.8
0.25 0.125 3.8
0.375 0.125 3.8
0.5 0.125 3.8
0.625 0.125 3.8
0.75 0.125 3.8
0.875 0.125 3.8
1 0.125 3.8
1.125 0.125 3.8
1.25 0.125 3.8
1.375 0.125 3.8
1.5 0.125 3.8
1.625 0.125 3.8
1.75 0.125 3.8
1.875 0.125 3.8
2 0.125 3.8
2.125 0.125 3.8
2.25 0.125 3.8
2.375 0.125 3.8
2.5 0.125 3.8
2.625 0.125 3.8
2.75 0.125 3.8
2.875 0.125 3.8
3 0.125 3.8
3.125 0.125 3.8
3.25 0.125 3.8
3.375 0.125 3.8
3.5 0.125 3.8
3.625 0.125 3.8
3.75 0.125 3.8
3.875 0.125 3.8
4 0.125 3.8
0 0.25 3.8
0.125 0.25 3.8
0.25 0.25 3.8
0.375 0.25 3.8
0.5 0.25 3.8
0.625 0.25 3.8
0.75 0.25 3.8
0.875 0.25 3.8
1 0.25 3.8
1.125 0.25 3.8
1.25 0.25 3.8
1.375 0.25 3.8
1.5 0.25 3.8
1.625 0.25 3.8
1.75 0.25 3.8
1.875 0.25 3.8
2 0.25 3.8
2.125 0.25 3.8
2.25 0.25 3.8
2.375 0.25 3.8
2.5 0.25 3.8
2.625 0.25 3.8
2.75 0.25 3.8
2.875 0.25 3.8
3 0.25 3.8
3.125 0.25 3.8
3.25 0.25 3.8
3.375 0.25 3.8
3.5 0.25 3.8
3.625 0.25 3.8
3.75 0.25 3.8
3.875 0.25 3.8
4 0.25 3.8
0 0.375 3.8
0.125 0.375 3.8
0.25 0.375 3.8
0.375 0.375 3.8
0.5 0.375 3.8
0.625 0.375 3.8
0.75 0.375 3.8
0.875 0.375 3.8
1 0.375 3.8
1.125 0.375 3.8
1.25 0.375 3.8
1.375 0.375 3.8
1.5 0.375 3.8
1.625 0.375 3.8
1.75 0.375 3.8
1.875 0.375 3.8
2 0.375 3.8
2.125 0.375 3.8
2.25 0.375 3.8
2.375 0.375 3.8
2.5 0.375 3.8
2.625 0.375 3.8
2.75 0.375 3.8
2.875 0.375 3.8
3 0.375 3.8
3.125 0.375 3.8
3.25 0.375 3.8
3.375 0.375 3.8
3.5 0.375 3.8
3.625 0.375 3.8
3.75 0.375 3.8
3.875 0.375 3.8
4 0.375 3.8
0 0.5 3.8
0.125 0.5 3.8
0.25 0.5 3.8
0.375 0.5 3.8
0.5 0.5 3.8
0.625 0.5 3.8
0.75 0.5 3.8
0.875 0.5 3.8
1 0.5 3.8
1.125 0.5 3.8
1.25 0.5 3.8
1.375 0.5 3.8
1.5 0.5 3.8
1.625 0.5 3.8
1.75 0.5 3.8
1.875 0.5 3.8
2 0.5 3.8
2.125 0.5 3.8
2.25 0.5 3.8
2.375 0.5 3.8
2.5 0.5 3.8
2.625 0.5 3.8
2.75 0.5 3.8
2.875 0.5 3.8
3 0.5 3.8
3.125 0.5 3.8
3.25 0.5 3.8
3.375 0.5 3.8
3.5 0.5 3.8
3.625 0.5 3.8
3.75 0.5 3.8
3.875 0.5 3.8
4 0.5 3.8
0 0.625 3.8
0.125 0.625 3.8
0.25 0.625 3.8
0.375 0.625 3.8
0.5 0.625 3.8
0.625 0.625 3.8
0.75 0.625 3.8
0.875 0.625 3.8
1 0.625 3.8
1.125 0.625 3.8
1.25 0.625 3.8
1.375 0.625 3.8
1.5 0.625 3.8
1.625 0.625 3.8
1.75 0.625 3.8
1.875 0.625 3.8
2 0.625 3.8
2.125 0.625 3.8
2.25 0.625 3.8
2.375 0.625 3.8
2.5 0.625 3.8
2.625 0.625 3.8
2.75 0.625 3.8
2.875 0.625 3.8
3 0.625 3.8
3.125 0.625 3.8
3.25 0.625 3.8
3.375 0.625 3.8
3.5 0.625 3.8
3.625 0.625 3.8
3.75 0.625 3.8
3.875 0.625 3.8
4 0.625 3.8
0 0.75 3.8
0.125 0.75 3.8
0.25 0.75 3.8
0.375 0.75 3.8
0.5 0.75 3.8
0.625 0.75 3.8
0.75 0.75 3.8
0.875 0.75 3.8
1 0.75 3.8
1.125 0.75 3.8
1.25 0.75 3.8
1.375 0.75 3.8
1.5 0.75 3.8
1.625 0.75 3.8
1.75 0.75 3.8
1.875 0.75 3.8
2 0.75 3.8
2.125 0.75 3.8
2.25 0.75 3.8
2.375 0.75 3.8
2.5 0.75 3.8
2.625 0.75 3.8
2.75 0.75 3.8
2.875 0.75 3.8
3 0.75 3.8
3.125 0.75 3.8
3.25 0.75 3.8
3.375 0.75 3.8
3.5 0.75 3.8
3.625 0.75 3.8
3.75 0.75 3.8
3.875 0.75 3.8
4 0.75 3.8
0 0.875 3.8
0.125 0.875 3.8
0.25 0.875 3.8
0.375 0.875 3.8
0.5 0.875 3.8
0.625 0.875 3.8
0.75 0.875 3.8
0.875 0.875 3.8
1 0.875 3.8
1.125 0.875 3.8
1.25 0.875 3.8
1.375 0.875 3.8
1.5 0.875 3.8
1.625 0.875 3.8
1.75 0.875 3.8
1.875 0.875 3.8
2 0.875 3.8
2.125 0.875 3.8
2.25 0.875 3.8
2.375 0.875 3.8
2.5 0.875 3.8
2.625 0.875 3.8
2.75 0.875 3.8
2.875 0.875 3.8
3 0.875 3.8
3.125 0.875 3.8
3.25 0.875 3.8
3.375 0.875 3.8
3.5 0.875 3.8
3.625 0.875 3.8
3.75 0.875 3.8
3.875 0.875 3.8
4 0.875 3.8
0 1 3.8
0.125 1 3.8
0.25 1 3.8
0.375 1 3.8
0.5 1 3.8
0.625 1 3.8
0.75 1 3.8
0.875 1 3.8
1 1 3.8
1.125 1 3.8
1.25 1 3.8
1.375 1 3.8
1.5 1 3.8
1.625 1 3.8
1.75 1 3.8
1.875 1 3.8
2 1 3.8
2.125 1 3.8
2.25 1 3.8
2.375 1 3.8
2.5 1 3.8
2.625 1 3.8
2.75 1 3.8
2.875 1 3.8
3 1 3.8
3.125 1 3.8
3.25 1 3.8
3.375 1 3.8
3.5 1 3.8
3.625 1 3.8
3.75 1 3.8
3.875 1 3.8
4 1 3.8
0 0 3.925
0.125 0 3.925
0.25 0 3.925
0.375 0 3.925
0.5 0 3.925
0.625 0 3.925
0.75 0 3.925
0.875 0 3.925
1 0 3.925
1.125 0 3.925
1.25 0 3.925
1.375 0 3.925
1.5 0 3.925
1.625 0 3.925
1.75 0 3.925
1.875 0 3.925
2 0 3.925
2.125 0 3.925
2.25 0 3.925
2.375 0 3.925
2.5 0 3.925
2.625 0 3.925
2.75 0 3.925
2.875 0 3.925
3 0 3.925
3.125 0 3.925
3.25 0 3.925
3.375 0 3.925
3.5 0 3.925
3.625 0 3.925
3.75 0 3.925
3.875 0 3.925
4 0 3.925
0 0.125 3.925
0.125 0.125 3.925
0.25 0.125 3.925
0.375 0.125 3.925
0.5 0.125 3.925
0.625 0.125 3.925
0.75 0.125 3.925
0.875 0.125 3.925
1 0.125 3.925
1.125 0.125 3.925
1.25 0.125 3.925
1.375 0.125 3.925
1.5 0.125 3.925
1.625 0.125 3.925
1.75 0.125 3.925
1.875 0.125 3.925
2 0.125 3.925
2.125 0.125 3.925
2.25 0.125 3.925
2.375 0.125 3.925
2.5 0.125 3.925
2.625 0.125 3.925
2.75 0.125 3.925
2.875 0.125 3.925
3 0.125 3.925
3.125 0.125 3.925
3.25 0.125 3.925
3.375 0.125 3.925
3.5 0.125 3.925
3.625 0.125 3.925
3.75 0.125 3.925
3.875 0.125 3.925
4 0.125 3.925
0 0.25 3.925
0.125 0.25 3.925
0.25 0.25 3.925
0.375 0.25 3.925
0.5 0.25 3.925
0.625 0.25 3.925
0.75 0.25 3.925
0.875 0.25 3.925
1 0.25 3.925
1.125 0.25 3.925
1.25 0.25 3.925
1.375 0.25 3.925
1.5 0.25 3.925
1.625 0.25 3.925
1.75 0.25 3.925
1.875 0.25 3.925
2 0.25 3.925
2.125 0.25 3.925
2.25 0.25 3.925
2.375 0.25 3.925
2.5 0.25 3.925
2.625 0.25 3.925
2.75 0.25 3.925
2.875 0.25 3.925
3 0.25 3.925
3.125 0.25 3.925
3.25 0.25 3.925
3.375 0.25 3.925
3.5 0.25 3.925
3.625 0.25 3.925
3.75 0.25 3.925
3.875 0.25 3.925
4 0.25 3.925
0 0.375 3.925
0.125 0.375 3.925
0.25 0.375 3.925
0.375 0.375 3.925
0.5 0.375 3.925
0.625 0.375 3.925
0.75 0.375 3.925
0.875 0.375 3.925
1 0.375 3.925
1.125 0.375 3.925
1.25 0.375 3.925
1.375 0.375 3.925
1.5 0.375 3.925
1.625 0.375 3.925
1.75 0.375 3.925
1.875 0.375 3.925
2 0.375 3.925
2.125 0.375 3.925
2.25 0.375 3.925
2.375 0.375 3.925
2.5 0.375 3.925
2.625 0.375 3.925
2.75 0.375 3.925
2.875 0.375 3.925
3 0.375 3.925
3.125 0.375 3.925
3.25 0.375 3.925
3.375 0.375 3.925
3.5 0.375 3.925
3.625 0.375 3.925
3.75 0.375 3.925
3.875 0.375 3.925
4 0.375 3.925
0 0.5 3.925
0.125 0.5 3.925
0.25 0.5 3.925
0.375 0.5 3.925
0.5 0.5 3.925
0.625 0.5 3.925
0.75 0.5 3.925
0.875 0.5 3.925
1 0.5 3.925
1.125 0.5 3.925
1.25 0.5 3.925
1.375 0.5 3.925
1.5 0.5 3.925
1.625 0.5 3.925
1.75 0.5 3.925
1.875 0.5 3.925
2 0.5 3.925
2.125 0.5 3.925
2.25 0.5 3.925
2.375 0.5 3.925
2.5 0.5 3.925
2.625 0.5 3.925
2.75 0.5 3.925
2.875 0.5 3.925
3 0.5 3.925
3.125 0.5 3.925
3.25 0.5 3.925
3.375 0.5 3.925
3.5 0.5 3.925
3.625 0.5 3.925
3.75 0.5 3.925
3.875 0.5 3.925
4 0.5 3.925
0 0.625 3.925
0.125 0.625 3.925
0.25 0.625 3.925
0.375 0.625 3.925
0.5 0.625 3.925
0.625 0.625 3.925
0.75 0.625 3.925
0.875 0.625 3.925
1 0.625 3.925
1.125 0.625 3.925
1.25 0.625 3.925
1.375 0.625 3.925
1.5 0.625 3.925
1.625 0.625 3.925
1.75 0.625 3.925
1.875 0.625 3.925
2 0.625 3.925
2.125 0.625 3.925
2.25 0.625 3.925
2.375 0.625 3.925
2.5 0.625 3.925
2.625 0.625 3.925
2.75 0.625 3.925
2.875 0.625 3.925
3 0.625 3.925
3.125 0.625 3.925
3.25 0.625 3.925
3.375 0.625 3.925
3.5 0.625 3.925
3.625 0.625 3.925
3.75 0.625 3.925
3.875 0.625 3.925
4 0.625 3.925
0 0.75 3.925
0.125 0.75 3.925
0.25 0.75 3.925
0.375 0.75 3.925
0.5 0.75 3.925
0.625 0.75 3.925
0.75 0.75 3.925
0.875 0.75 3.925
1 0.75 3.925
1.125 0.75 3.925
1.25 0.75 3.925
1.375 0.75 3.925
1.5 0.75 3.925
1.625 0.75 3.925
1.75 0.75 3.925
1.875 0.75 3.925
2 0.75 3.925
2.125 0.75 3.925
2.25 0.75 3.925
2.375 0.75 3.925
2.5 0.75 3.925
2.625 0.75 3.925
2.75 0.75 3.925
2.875 0.75 3.925
3 0.75 3.925
3.125 0.75 3.925
3.25 0.75 3.925
3.375 0.75 3.925
3.5 0.75 3.925
3.625 0.75 3.925
3.75 0.75 3.925
3.875 0.75 3.925
4 0.75 3.925
0 0.875 3.925
0.125 0.875 3.925
0.25 0.875 3.925
0.375 0.875 3.925
0.5 0.875 3.925
0.625 0.875 3.925
0.75 0.875 3.925
0.875 0.875 3.925
1 0.875 3.925
1.125 0.875 3.925
1.25 0.875 3.925
1.375 0.875 3.925
1.5 0.875 3.925
1.625 0.875 3.925
1.75 0.875 3.925
1.875 0.875 3.925
2 0.875 3.925
2.125 0.875 3.925
2.25 0.875 3.925
2.375 0.875 3.925
2.5 0.875 3.925
2.625 0.875 3.925
2.75 0.875 3.925
2.875 0.875 3.925
3 0.875 3.925
3.125 0.875 3.925
3.25 0.875 3.925
3.375 0.875 3.925
3.5 0.875 3.925
3.625 0.875 3.925
3.75 0.875 3.925
3.875 0.875 3.925
4 0.875 3.925
0 1 3.925
0.125 1 3.925
0.25 1 3.925
0.375 1 3.925
0.5 1 3.925
0.625 1 3.925
0.75 1 3.925
0.875 1 3.925
1 1 3.925
1.125 1 3.925
1.25 1 3.925
1.375 1 3.925
1.5 1 3.925
1.625 1 3.925
1.75 1 3.925
1.875 1 3.925
2 1 3.925
2.125 1 3.925
2.25 1 3.925
2.375 1 3.925
2.5 1 3.925
2.625 1 3.925
2.75 1 3.925
2.875 1 3.925
3 1 3.925
3.125 1 3.925
3.25 1 3.925
3.375 1 3.925
3.5 1 3.925
3.625 1 3.925
3.75 1 3.925
3.875 1 3.925
4 1 3.925
0 0 4.05
0.125 0 4.05
0.25 0 4.05
0.375 0 4.05
0.5 0 4.05
0.625 0 4.05
0.75 0 4.05
0.875 0 4.05
1 0 4.05
1.125 0 4.05
1.25 0 4.05
1.375 0 4.05
1.5 0 4.05
1.625 0 4.05
1.75 0 4.05
1.875 0 4.05
2 0 4.05
2.125 0 4.05
2.25 0 4.05
2.375 0 4.05
2.5 0 4.05
2.625 0 4.05
2.75 0 4.05
2.875 0 4.05
3 0 4.05
3.125 0 4.05
3.25 0 4.05
3.375 0 4.05
3.5 0 4.05
3.625 0 4.05
3.75 0 4.05
3.875 0 4.05
4 0 4.05
0 0.125 4.05
0.125 0.125 4.05
0.25 0.125 4.05
0.375 0.125 4.05
0.5 0.125 4.05
0.625 0.125 4.05
0.75 0.125 4.05
0.875 0.125 4.05
1 0.125 4.05
1.125 0.125 4.05
1.25 0.125 4.05
1.375 0.125 4.05
1.5 0.125 4.05
1.625 0.125 4.05
1.75 0.125 4.05
1.875 0.125 4.05
2 0.125 4.05
2.125 0.125 4.05
2.25 0.125 4.05
2.375 0.125 4.05
2.5 0.125 4.05
2.625 0.125 4.05
2.75 0.125 4.05
2.875 0.125 4.05
3 0.125 4.05
3.125 0.125 4.05
3.25 0.125 4.05
3.375 0.125 4.05
3.5 0.125 4.05
3.625 0.125 4.05
3.75 0.125 4.05
3.875 0.125 4.05
4 0.125 4.05
0 0.25 4.05
0.125 0.25 4.05
0.25 0.25 4.05
0.375 0.25 4.05
0.5 0.25 4.05
0.625 0.25 4.05
0.75 0.25 4.05
0.875 0.25 4.05
1 0.25 4.05
1.125 0.25 4.05
1.25 0.25 4.05
1.375 0.25 4.05
1.5 0.25 4.05
1.625 0.25 4.05
1.75 0.25 4.05
1.875 0.25 4.05
2 0.25 4.05
2.125 0.25 4.05
2.25 0.25 4.05
2.375 0.25 4.05
2.5 0.25 4.05
2.625 0.25 4.05
2.75 0.25 4.05
2.875 0.25 4.05
3 0.25 4.05
3.125 0.25 4.05
3.25 0.25 4.05
3.375 0.25 4.05
3.5 0.25 4.05
3.625 0.25 4.05
3.75 0.25 4.05
3.875 0.25 4.05
4 0.25 4.05
0 0.375 4.05
0.125 0.375 4.05
0.25 0.375 4.05
0.375 0.375 4.05
0.5 0.375 4.05
0.625 0.375 4.05
0.75 0.375 4.05
0.875 0.375 4.05
1 0.375 4.05
1.125 0.375 4.05
1.25 0.375 4.05
1.375 0.375 4.05
1.5 0.375 4.05
1.625 0.375 4.05
1.75 0.375 4.05
1.875 0.375 4.05
2 0.375 4.05
2.125 0.375 4.05
2.25 0.375 4.05
2.375 0.375 4.05
2.5 0.375 4.05
2.625 0.375 4.05
2.75 0.375 4.05
2.875 0.375 4.05
3 0.375 4.05
3.125 0.375 4.05
3.25 0.375 4.05
3.375 0.375 4.05
3.5 0.375 4.05
3.625 0.375 4.05
3.75 0.375 4.05
3.875 0.375 4.05
4 0.375 4.05
0 0.5 4.05
0.125 0.5 4.05
0.25 0.5 4.05
0.375 0.5 4.05
0.5 0.5 4.05
0.625 0.5 4.05
0.75 0.5 4.05
0.875 0.5 4.05
1 0.5 4.05
1.125 0.5 4.05
1.25 0.5 4.05
1.375 0.5 4.05
1.5 0.5 4.05
1.625 0.5 4.05
1.75 0.5 4.05
1.875 0.5 4.05
2 0.5 4.05
2.125 0.5 4.05
2.25 0.5 4.05
2.375 0.5 4.05
2.5 0.5 4.05
2.625 0.5 4.05
2.75 0.5 4.05
2.875 0.5 4.05
3 0.5 4.05
3.125 0.5 4.05
3.25 0.5 4.05
3.375 0.5 4.05
3.5 0.5 4.05
3.625 0.5 4.05
3.75 0.5 4.05
3.875 0.5 4.05
4 0.5 4.05
0 0.625 4.05
0.125 0.625 4.05
0.25 0.625 4.05
0.375 0.625 4.05
0.5 0.625 4.05
0.625 0.625 4.05
0.75 0.625 4.05
0.875 0.625 4.05
1 0.625 4.05
1.125 0.625 4.05
1.25 0.625 4.05
1.375 0.625 4.05
1.5 0.625 4.05
1.625 0.625 4.05
1.75 0.625 4.05
1.875 0.625 4.05
2 0.625 4.05
2.125 0.625 4.05
2.25 0.625 4.05
2.375 0.625 4.05
2.5 0.625 4.05
2.625 0.625 4.05
2.75 0.625 4.05
2.875 0.625 4.05
3 0.625 4.05
3.125 0.625 4.05
3.25 0.625 4.05
3.375 0.625 4.05
3.5 0.625 4.05
3.625 0.625 4.05
3.75 0.625 4.05
3.875 0.625 4.05
4 0.625 4.05
0 0.75 4.05
0.125 0.75 4.05
0.25 0.75 4.05
0.375 0.75 4.05
0.5 0.75 4.05
0.625 0.75 4.05
0.75 0.75 4.05
0.875 0.75 4.05
1 0.75 4.05
1.125 0.75 4.05
1.25 0.75 4.05
1.375 0.75 4.05
1.5 0.75 4.05
1.625 0.75 4.05
1.75 0.75 4.05
1.875 0.75 4.05
2 0.75 4.05
2.125 0.75 4.05
2.25 0.75 4.05
2.375 0.75 4.05
2.5 0.75 4.05
2.625 0.75 4.05
2.75 0.75 4.05
2.875 0.75 4.05
3 0.75 4.05
3.125 0.75 4.05
3.25 0.75 4.05
3.375 0.75 4.05
3.5 0.75 4.05
3.625 0.75 4.05
3.75 0.75 4.05
3.875 0.75 4.05
4 0.75 4.05
0 0.875 4.05
0.125 0.875 4.05
0.25 0.875 4.05
0.375 0.875 4.05
0.5 0.875 4.05
0.625 0.875 4.05
0.75 0.875 4.05
0.875 0.875 4.05
1 0.875 4.05
1.125 0.875 4.05
1.25 0.875 4.05
1.375 0.875 4.05
1.5 0.875 4.05
1.625 0.875 4.05
1.75 0.875 4.05
1.875 0.875 4.05
2 0.875 4.05
2.125 0.875 4.05
2.25 0.875 4.05
2.375 0.875 4.05
2.5 0.875 4.05
2.625 0.875 4.05
2.75 0.875 4.05
2.875 0.875 4.05
3 0.875 4.05
3.125 0.875 4.05
3.25 0.875 4.05
3.375 0.875 4.05
3.5 0.875 4.05
3.625 0.875 4.05
3.75 0.875 4.05
3.875 0.875 4.05
4 0.875 4.05
0 1 4.05
0.125 1 4.05
0.25 1 4.05
0.375 1 4.05
0.5 1 4.05
0.625 1 4.05
0.75 1 4.05
0.875 1 4.05
1 1 4.05
1.125 1 4.05
1.25 1 4.05
1.375 1 4.05
1.5 1 4.05
1.625 1 4.05
1.75 1 4.05
1.875 1 4.05
2 1 4.05
2.125 1 4.05
2.25 1 4.05
2.375 1 4.05
2.5 1 4.05
2.625 1 4.05
2.75 1 4.05
2.875 1 4.05
3 1 4.05
3.125 1 4.05
3.25 1 4.05
3.375 1 4.05
3.5 1 4.05
3.625 1 4.05
3.75 1 4.05
3.875 1 4.05
4 1 4.05
0 0 4.175
0.125 0 4.175
0.25 0 4.175
0.375 0 4.175
0.5 0 4.175
0.625 0 4.175
0.75 0 4.175
0.875 0 4.175
1 0 4.175
1.125 0 4.175
1.25 0 4.175
1.375 0 4.175
1.5 0 4.175
1.625 0 4.175
1.75 0 4.175
1.875 0 4.175
2 0 4.175
2.125 0 4.175
2.25 0 4.175
2.375 0 4.175
2.5 0 4.175
2.625 0 4.175
2.75 0 4.175
2.875 0 4.175
3 0 4.175
3.125 0 4.175
3.25 0 4.175
3.375 0 4.175
3.5 0 4.175
3.625 0 4.175
3.75 0 4.175
3.875 0 4.175
4 0 4.175
0 0.125 4.175
0.125 0.125 4.175
0.25 0.125 4.175
0.375 0.125 4.175
0.5 0.125 4.175
0.625 0.125 4.175
0.75 0.125 4.175
0.875 0.125 4.175
1 0.125 4.175
1.125 0.125 4.175
1.25 0.125 4.175
1.375 0.125 4.175
1.5 0.125 4.175
1.625 0.125 4.175
1.75 0.125 4.175
1.875 0.125 4.175
2 0.125 4.175
2.125 0.125 4.175
2.25 0.125 4.175
2.375 0.125 4.175
2.5 0.125 4.175
2.625 0.125 4.175
2.75 0.125 4.175
2.875 0.125 4.175
3 0.125 4.175
3.125 0.125 4.175
3.25 0.125 4.175
3.375 0.125 4.175
3.5 0.125 4.175
3.625 0.125 4.175
3.75 0.125 4.175
3.875 0.125 4.175
4 0.125 4.175
0 0.25 4.175
0.125 0.25 4.175
0.25 0.25 4.175
0.375 0.25 4.175
0.5 0.25 4.175
0.625 0.25 4.175
0.75 0.25 4.175
0.875 0.25 4.175
1 0.25 4.175
1.125 0.25 4.175
1.25 0.25 4.175
1.375 0.25 4.175
1.5 0.25 4.175
1.625 0.25 4.175
1.75 0.25 4.175
1.875 0.25 4.175
2 0.25 4.175
2.125 0.25 4.175
2.25 0.25 4.175
2.375 0.25 4.175
2.5 0.25 4.175
2.625 0.25 4.175
2.75 0.25 4.175
2.875 0.25 4.175
3 0.25 4.175
3.125 0.25 4.175
3.25 0.25 4.175
3.375 0.25 4.175
3.5 0.25 4.175
3.625 0.25 4.175
3.75 0.25 4.175
3.875 0.25 4.175
4 0.25 4.175
0 0.375 4.175
0.125 0.375 4.175
0.25 0.375 4.175
0.375 0.375 4.175
0.5 0.375 4.175
0.625 0.375 4.175
0.75 0.375 4.175
0.875 0.375 4.175
1 0.375 4.175
1.125 0.375 4.175
1.25 0.375 4.175
1.375 0.375 4.175
1.5 0.375 4.175
1.625 0.375 4.175
1.75 0.375 4.175
1.875 0.375 4.175
2 0.375 4.175
2.125 0.375 4.175
2.25 0.375 4.175
2.375 0.375 4.175
2.5 0.375 4.175
2.625 0.375 4.175
2.75 0.375 4.175
2.875 0.375 4.175
3 0.375 4.175
3.125 0.375 4.175
3.25 0.375 4.175
3.375 0.375 4.175
3.5 0.375 4.175
3.625 0.375 4.175
3.75 0.375 4.175
3.875 0.375 4.175
4 0.375 4.175
0 0.5 4.175
0.125 0.5 4.175
0.25 0.5 4.175
0.375 0.5 4.175
0.5 0.5 4.175
0.625 0.5 4.175
0.75 0.5 4.175
0.875 0.5 4.175
1 0.5 4.175
1.125 0.5 4.175
1.25 0.5 4.175
1.375 0.5 4.175
1.5 0.5 4.175
1.625 0.5 4.175
1.75 0.5 4.175
1.875 0.5 4.175
2 0.5 4.175
2.125 0.5 4.175
2.25 0.5 4.175
2.375 0.5 4.175
2.5 0.5 4.175
2.625 0.5 4.175
2.75 0.5 4.175
2.875 0.5 4.175
3 0.5 4.175
3.125 0.5 4.175
3.25 0.5 4.175
3.375 0.5 4.175
3.5 0.5 4.175
3.625 0.5 4.175
3.75 0.5 4.175
3.875 0.5 4.175
4 0.5 4.175
0 0.625 4.175
0.125 0.625 4.175
0.25 0.625 4.175
0.375 0.625 4.175
0.5 0.625 4.175
0.625 0.625 4.175
0.75 0.625 4.175
0.875 0.625 4.175
1 0.625 4.175
1.125 0.625 4.175
1.25 0.625 4.175
1.375 0.625 4.175
1.5 0.625 4.175
1.625 0.625 4.175
1.75 0.625 4.175
1.875 0.625 4.175
2 0.625 4.175
2.125 0.625 4.175
2.25 0.625 4.175
2.375 0.625 4.175
2.5 0.625 4.175
2.625 0.625 4.175
2.75 0.625 4.175
2.875 0.625 4.175
3 0.625 4.175
3.125 0.625 4.175
3.25 0.625 4.175
3.375 0.625 4.175
3.5 0.625 4.175
3.625 0.625 4.175
3.75 0.625 4.175
3.875 0.625 4.175
4 0.625 4.175
0 0.75 4.175
0.125 0.75 4.175
0.25 0.75 4.175
0.375 0.75 4.175
0.5 0.75 4.175
0.625 0.75 4.175
0.75 0.75 4.175
0.875 0.75 4.175
1 0.75 4.175
1.125 0.75 4.175
1.25 0.75 4.175
1.375 0.75 4.175
1.5 0.75 4.175
1.625 0.75 4.175
1.75 0.75 4.175
1.875 0.75 4.175
2 0.75 4.175
2.125 0.75 4.175
2.25 0.75 4.175
2.375 0.75 4.175
2.5 0.75 4.175
2.625 0.75 4.175
2.75 0.75 4.175
2.875 0.75 4.175
3 0.75 4.175
3.125 0.75 4.175
3.25 0.75 4.175
3.375 0.75 4.175
3.5 0.75 4.175
3.625 0.75 4.175
3.75 0.75 4.175
3.875 0.75 4.175
4 0.75 4.175
0 0.875 4.175
0.125 0.875 4.175
0.25 0.875 4.175
0.375 0.875 4.175
0.5 0.875 4.175
0.625 0.875 4.175
0.75 0.875 4.175
0.875 0.875 4.175
1 0.875 4.175
1.125 0.875 4.175
1.25 0.875 4.175
1.375 0.875 4.175
1.5 0.875 4.175
1.625 0.875 4.175
1.75 0.875 4.175
1.875 0.875 4.175
2 0.875 4.175
2.125 0.875 4.175
2.25 0.875 4.175
2.375 0.875 4.175
2.5 0.875 4.175
2.625 0.875 4.175
2.75 0.875 4.175
2.875 0.875 4.175
3 0.875 4.175
3.125 0.875 4.175
3.25 0.875 4.175
3.375 0.875 4.175
3.5 0.875 4.175
3.625 0.875 4.175
3.75 0.875 4.175
3.875 0.875 4.175
4 0.875 4.175
0 1 4.175
0.125 1 4.175
0.25 1 4.175
0.375 1 4.175
0.5 1 4.175
0.625 1 4.175
0.75 1 4.175
0.875 1 4.175
1 1 4.175
1.125 1 4.175
1.25 1 4.175
1.375 1 4.175
1.5 1 4.175
1.625 1 4.175
1.75 1 4.175
1.875 1 4.175
2 1 4.175
2.125 1 4.175
2.25 1 4.175
2.375 1 4.175
2.5 1 4.175
2.625 1 4.175
2.75 1 4.175
2.875 1 4.175
3 1 4.175
3.125 1 4.175
3.25 1 4.175
3.375 1 4.175
3.5 1 4.175
3.625 1 4.175
3.75 1 4.175
3.875 1 4.175
4 1 4.175
0 0 4.3
0.125 0 4.3
0.25 0 4.3
0.375 0 4.3
0.5 0 4.3
0.625 0 4.3
0.75 0 4.3
0.875 0 4.3
1 0 4.3
1.125 0 4.3
1.25 0 4.3
1.375 0 4.3
1.5 0 4.3
1.625 0 4.3
1.75 0 4.3
1.875 0 4.3
2 0 4.3
2.125 0 4.3
2.25 0 4.3
2.375 0 4.3
2.5 0 4.3
2.625 0 4.3
2.75 0 4.3
2.875 0 4.3
3 0 4.3
3.125 0 4.3
3.25 0 4.3
3.375 0 4.3
3.5 0 4.3
3.625 0 4.3
3.75 0 4.3
3.875 0 4.3
4 0 4.3
0 0.125 4.3
0.125 0.125 4.3
0.25 0.125 4.3
0.375 0.125 4.3
0.5 0.125 4.3
0.625 0.125 4.3
0.75 0.125 4.3
0.875 0.125 4.3
1 0.125 4.3
1.125 0.125 4.3
1.25 0.125 4.3
1.375 0.125 4.3
1.5 0.125 4.3
1.625 0.125 4.3
1.75 0.125 4.3
1.875 0.125 4.3
2 0.125 4.3
2.125 0.125 4.3
2.25 0.125 4.3
2.375 0.125 4.3
2.5 0.125 4.3
2.625 0.125 4.3
2.75 0.125 4.3
2.875 0.125 4.3
3 0.125 4.3
3.125 0.125 4.3
3.25 0.125 4.3
3.375 0.125 4.3
3.5 0.125 4.3
3.625 0.125 4.3
3.75 0.125 4.3
3.875 0.125 4.3
4 0.125 4.3
0 0.25 4.3
0.125 0.25 4.3
0.25 0.25 4.3
0.375 0.25 4.3
0.5 0.25 4.3
0.625 0.25 4.3
0.75 0.25 4.3
0.875 0.25 4.3
1 0.25 4.3
1.125 0.25 4.3
1.25 0.25 4.3
1.375 0.25 4.3
1.5 0.25 4.3
1.625 0.25 4.3
1.75 0.25 4.3
1.875 0.25 4.3
2 0.25 4.3
2.125 0.25 4.3
2.25 0.25 4.3
2.375 0.25 4.3
2.5 0.25 4.3
2.625 0.25 4.3
2.75 0.25 4.3
2.875 0.25 4.3
3 0.25 4.3
3.125 0.25 4.3
3.25 0.25 4.3
3.375 0.25 4.3
3.5 0.25 4.3
3.625 0.25 4.3
3.75 0.25 4.3
3.875 0.25 4.3
4 0.25 4.3
0 0.375 4.3
0.125 0.375 4.3
0.25 0.375 4.3
0.375 0.375 4.3
0.5 0.375 4.3
0.625 0.375 4.3
0.75 0.375 4.3
0.875 0.375 4.3
1 0.375 4.3
1.125 0.375 4.3
1.25 0.375 4.3
1.375 0.375 4.3
1.5 0.375 4.3
1.625 0.375 4.3
1.75 0.375 4.3
1.875 0.375 4.3
2 0.375 4.3
2.125 0.375 4.3
2.25 0.375 4.3
2.375 0.375 4.3
2.5 0.375 4.3
2.625 0.375 4.3
2.75 0.375 4.3
2.875 0.375 4.3
3 0.375 4.3
3.125 0.375 4.3
3.25 0.375 4.3
3.375 0.375 4.3
3.5 0.375 4.3
3.625 0.375 4.3
3.75 0.375 4.3
3.875 0.375 4.3
4 0.375 4.3
0 0.5 4.3
0.125 0.5 4.3
0.25 0.5 4.3
0.375 0.5 4.3
0.5 0.5 4.3
0.625 0.5 4.3
0.75 0.5 4.3
0.875 0.5 4.3
1 0.5 4.3
1.125 0.5 4.3
1.25 0.5 4.3
1.375 0.5 4.3
1.5 0.5 4.3
1.625 0.5 4.3
1.75 0.5 4.3
1.875 0.5 4.3
2 0.5 4.3
2.125 0.5 4.3
2.25 0.5 4.3
2.375 0.5 4.3
2.5 0.5 4.3
2.625 0.5 4.3
2.75 0.5 4.3
2.875 0.5 4.3
3 0.5 4.3
3.125 0.5 4.3
3.25 0.5 4.3
3.375 0.5 4.3
3.5 0.5 4.3
3.625 0.5 4.3
3.75 0.5 4.3
3.875 0.5 4.3
4 0.5 4.3
0 0.625 4.3
0.125 0.625 4.3
0.25 0.625 4.3
0.375 0.625 4.3
0.5 0.625 4.3
0.625 0.625 4.3
0.75 0.625 4.3
0.875 0.625 4.3
1 0.625 4.3
1.125 0.625 4.3
1.25 0.625 4.3
1.375 0.625 4.3
1.5 0.625 4.3
1.625 0.625 4.3
1.75 0.625 4.3
1.875 0.625 4.3
2 0.625 4.3
2.125 0.625 4.3
2.25 0.625 4.3
2.375 0.625 4.3
2.5 0.625 4.3
2.625 0.625 4.3
2.75 0.625 4.3
2.875 0.625 4.3
3 0.625 4.3
3.125 0.625 4.3
3.25 0.625 4.3
3.375 0.625 4.3
3.5 0.625 4.3
3.625 0.625 4.3
3.75 0.625 4.3
3.875 0.625 4.3
4 0.625 4.3
0 0.75 4.3
0.125 0.75 4.3
0.25 0.75 4.3
0.375 0.75 4.3
0.5 0.75 4.3
0.625 0.75 4.3
0.75 0.75 4.3
0.875 0.75 4.3
1 0.75 4.3
1.125 0.75 4.3
1.25 0.75 4.3
1.375 0.75 4.3
1.5 0.75 4.3
1.625 0.75 4.3
1.75 0.75 4.3
1.875 0.75 4.3
2 0.75 4.3
2.125 0.75 4.3
2.25 0.75 4.3
2.375 0.75 4.3
2.5 0.75 4.3
2.625 0.75 4.3
2.75 0.75 4.3
2.875 0.75 4.3
3 0.75 4.3
3.125 0.75 4.3
3.25 0.75 4.3
3.375 0.75 4.3
3.5 0.75 4.3
3.625 0.75 4.3
3.75 0.75 4.3
3.875 0.75 4.3
4 0.75 4.3
0 0.875 4.3
0.125 0.875 4.3
0.25 0.875 4.3
0.375 0.875 4.3
0.5 0.875 4.3
0.625 0.875 4.3
0.75 0.875 4.3
0.875 0.875 4.3
1 0.875 4.3
1.125 0.875 4.3
1.25 0.875 4.3
1.375 0.875 4.3
1.5 0.875 4.3
1.625 0.875 4.3
1.75 0.875 4.3
1.875 0.875 4.3
2 0.875 4.3
2.125 0.875 4.3
2.25 0.875 4.3
2.375 0.875 4.3
2.5 0.875 4.3
2.625 0.875 4.3
2.75 0.875 4.3
2.875 0.875 4.3
3 0.875 4.3
3.125 0.875 4.3
3.25 0.875 4.3
3.375 0.875 4.3
3.5 0.875 4.3
3.625 0.875 4.3
3.75 0.875 4.3
3.875 0.875 4.3
4 0.875 4.3
0 1 4.3
0.125 1 4.3
0.25 1 4.3
0.375 1 4.3
0.5 1 4.3
0.625 1 4.3
0.75 1 4.3
0.875 1 4.3
1 1 4.3
1.125 1 4.3
1.25 1 4.3
1.375 1 4.3
1.5 1 4.3
1.625 1 4.3
1.75 1 4.3
1.875 1 4.3
2 1 4.3
2.125 1 4.3
2.25 1 4.3
2.375 1 4.3
2.5 1 4.3
2.625 1 4.3
2.75 1 4.3
2.875 1 4.3
3 1 4.3
3.125 1 4.3
3.25 1 4.3
3.375 1 4.3
3.5 1 4.3
3.625 1 4.3
3.75 1 4.3
3.875 1 4.3
4 1 4.3
0.0625 0 3.3
0.125 0 3.3625
0.0625 0 3.425
0 0 3.3625
0 0.0625 3.3
0.125 0.0625 3.3
0.125 0.0625 3.425
0 0.0625 3.425
0.0625 0.125 3.3
0.125 0.125 3.3625
0.0625 0.125 3.425
0 0.125 3.3625
0.0625 0 3.3625
0.0625 0.0625 3.3
0.125 0.0625 3.3625
0.0625 0.0625 3.425
0 0.0625 3.3625
0.0625 0.125 3.3625
0.0625 0.0625 3.3625
0.1875 0 3.3
0.25 0 3.3625
0.1875 0 3.425
0.25 0.0625 3.3
0.25 0.0625 3.425
0.1875 0.125 3.3
0.25 0.125 3.3625
0.1875 0.125 3.425
0.1875 0 3.3625
0.1875 0.0625 3.3
0.25 0.0625 3.3625
0.1875 0.0625 3.425
0.1875 0.125 3.3625
0.1875 0.0625 3.3625
0.3125 0 3.3
0.375 0 3.3625
0.3125 0 3.425
0.375 0.0625 3.3
0.375 0.0625 3.425
0.3125 0.125 3.3
0.375 0.125 3.3625
0.3125 0.125 3.425
0.3125 0 3.3625
0.3125 0.0625 3.3
0.375 0.0625 3.3625
0.3125 0.0625 3.425
0.3125 0.125 3.3625
0.3125 0.0625 3.3625
0.4375 0 3.3
0.5 0 3.3625
0.4375 0 3.425
0.5 0.0625 3.3
0.5 0.0625 3.425
0.4375 0.125 3.3
0.5 0.125 3.3625
0.4375 0.125 3.425
0.4375 0 3.3625
0.4375 0.0625 3.3
0.5 0.0625 3.3625
0.4375 0.0625 3.425
0.4375 0.125 3.3625
0.4375 0.0625 3.3625
0.5625 0 3.3
0.625 0 3.3625
0.5625 0 3.425
0.625 0.0625 3.3
0.625 0.0625 3.425
0.5625 0.125 3.3
0.625 0.125 3.3625
0.5625 0.125 3.425
0.5625 0 3.3625
0.5625 0.0625 3.3
0.625 0.0625 3.3625
0.5625 0.0625 3.425
0.5625 0.125 3.3625
0.5625 0.0625 3.3625
0.6875 0 3.3
0.75 0 3.3625
0.6875 0 3.425
0.75 0.0625 3.3
0.75 0.0625 3.425
0.6875 0.125 3.3
0.75 0.125 3.3625
0.6875 0.125 3.425
0.6875 0 3.3625
0.6875 0.0625 3.3
0.75 0.0625 3.3625
0.6875 0.0625 3.425
0.6875 0.125 3.3625
0.6875 0.0625 3.3625
0.8125 0 3.3
0.875 0 3.3625
0.8125 0 3.425
0.875 0.0625 3.3
0.875 0.0625 3.425
0.8125 0.125 3.3
0.875 0.125 3.3625
0.8125 0.125 3.425
0.8125 0 3.3625
0.8125 0.0625 3.3
0.875 0.0625 3.3625
0.8125 0.0625 3.425
0.8125 0.125 3.3625
0.8125 0.0625 3.3625
0.9375 0 3.3
1 0 3.3625
0.9375 0 3.425
1 0.0625 3.3
1 0.0625 3.425
0.9375 0.125 3.3
1 0.125 3.3625
0.9375 0.125 3.425
0.9375 0 3.3625
0.9375 0.0625 3.3
1 0.0625 3.3625
0.9375 0.0625 3.425
0.9375 0.125 3.3625
0.9375 0.0625 3.3625
1.0625 0 3.3
1.125 0 3.3625
1.0625 0 3.425
1.125 0.0625 3.3
1.125 0.0625 3.425
1.0625 0.125 3.3
1.125 0.125 3.3625
1.0625 0.125 3.425
1.0625 0 3.3625
1.0625 0.0625 3.3
1.125 0.0625 3.3625
1.0625 0.0625 3.425
1.0625 0.125 3.3625
1.0625 0.0625 3.3625
1.1875 0 3.3
1.25 0 3.3625
1.1875 0 3.425
1.25 0.0625 3.3
1.25 0.0625 3.425
1.1875 0.125 3.3
1.25 0.125 3.3625
1.1875 0.125 3.425
1.1875 0 3.3625
1.1875 0.0625 3.3
1.25 0.0625 3.3625
1.1875 0.0625 3.425
1.1875 0.125 3.3625
1.1875 0.0625 3.3625
1.3125 0 3.3
1.375 0 3.3625
1.3125 0 3.425
1.375 0.0625 3.3
1.375 0.0625 3.425
1.3125 0.125 3.3
1.375 0.125 3.3625
1.3125 0.125 3.425
1.3125 0 3.3625
1.3125 0.0625 3.3
1.375 0.0625 3.3625
1.3125 0.0625 3.425
1.3125 0.125 3.3625
1.3125 0.0625 3.3625
1.4375 0 3.3
1.5 0 3.3625
1.4375 0 3.425
1.5 0.0625 3.3
1.5 0.0625 3.425
1.4375 0.125 3.3
1.5 0.125 3.3625
1.4375 0.125 3.425
1.4375 0 3.3625
1.4375 0.0625 3.3
1.5 0.0625 3.3625
1.4375 0.0625 3.425
1.4375 0.125 3.3625
1.4375 0.0625 3.3625
1.5625 0 3.3
1.625 0 3.3625
1.5625 0 3.425
1.625 0.0625 3.3
1.625 0.0625 3.425
1.5625 0.125 3.3
1.625 0.125 3.3625
1.5625 0.125 3.425
1.5625 0 3.3625
1.5625 0.0625 3.3
1.625 0.0625 3.3625
1.5625 0.0625 3.425
1.5625 0.125 3.3625
1.5625 0.0625 3.3625
1.6875 0 3.3
1.75 0 3.3625
1.6875 0 3.425
1.75 0.0625 3.3
1.75 0.0625 3.425
1.6875 0.125 3.3
1.75 0.125 3.3625
1.6875 0.125 3.425
1.6875 0 3.3625
1.6875 0.0625 3.3
1.75 0.0625 3.3625
1.6875 0.0625 3.425
1.6875 0.125 3.3625
1.6875 0.0625 3.3625
1.8125 0 3.3
1.875 0 3.3625
1.8125 0 3.425
1.875 0.0625 3.3
1.875 0.0625 3.425
1.8125 0.125 3.3
1.875 0.125 3.3625
1.8125 0.125 3.425
1.8125 0 3.3625
1.8125 0.0625 3.3
1.875 0.0625 3.3625
1.8125 0.0625 3.425
1.8125 0.125 3.3625
1.8125 0.0625 3.3625
1.9375 0 3.3
2 0 3.3625
1.9375 0 3.425
2 0.0625 3.3
2 0.0625 3.425
1.9375 0.125 3.3
2 0.125 3.3625
1.9375 0.125 3.425
1.9375 0 3.3625
1.9375 0.0625 3.3
2 0.0625 3.3625
1.9375 0.0625 3.425
1.9375 0.125 3.3625
1.9375 0.0625 3.3625
2.0625 0 3.3
2.125 0 3.3625
2.0625 0 3.425
2.125 0.0625 3.3
2.125 0.0625 3.425
2.0625 0.125 3.3
2.125 0.125 3.3625
2.0625 0.125 3.425
2.0625 0 3.3625
2.0625 0.0625 3.3
2.125 0.0625 3.3625
2.0625 0.0625 3.425
2.0625 0.125 3.3625
2.0625 0.0625 3.3625
2.1875 0 3.3
2.25 0 3.3625
2.1875 0 3.425
2.25 0.0625 3.3
2.25 0.0625 3.425
2.1875 0.125 3.3
2.25 0.125 3.3625
2.1875 0.125 3.425
2.1875 0 3.3625
2.1875 0.0625 3.3
2.25 0.0625 3.3625
2.1875 0.0625 3.425
2.1875 0.125 3.3625
2.1875 0.0625 3.3625
2.3125 0 3.3
2.375 0 3.3625
2.3125 0 3.425
2.375 0.0625 3.3
2.375 0.0625 3.425
2.3125 0.125 3.3
2.375 0.125 3.3625
2.3125 0.125 3.425
2.3125 0 3.3625
2.3125 0.0625 3.3
2.375 0.0625 3.3625
2.3125 0.0625 3.425
2.3125 0.125 3.3625
2.3125 0.0625 3.3625
2.4375 0 3.3
2.5 0 3.3625
2.4375 0 3.425
2.5 0.0625 3.3
2.5 0.0625 3.425
2.4375 0.125 3.3
2.5 0.125 3.3625
2.4375 0.125 3.425
2.4375 0 3.3625
2.4375 0.0625 3.3
2.5 0.0625 3.3625
2.4375 0.0625 3.425
2.4375 0.125 3.3625
2.4375 0.0625 3.3625
2.5625 0 3.3
2.625 0 3.3625
2.5625 0 3.425
2.625 0.0625 3.3
2.625 0.0625 3.425
2.5625 0.125 3.3
2.625 0.125 3.3625
2.5625 0.125 3.425
2.5625 0 3.3625
2.5625 0.0625 3.3
2.625 0.0625 3.3625
2.5625 0.0625 3.425
2.5625 0.125 3.3625
2.5625 0.0625 3.3625
2.6875 0 3.3
2.75 0 3.3625
2.6875 0 3.425
2.75 0.0625 3.3
2.75 0.0625 3.425
2.6875 0.125 3.3
2.75 0.125 3.3625
2.6875 0.125 3.425
2.6875 0 3.3625
2.6875 0.0625 3.3
2.75 0.0625 3.3625
2.6875 0.0625 3.425
2.6875 0.125 3.3625
2.6875 0.0625 3.3625
2.8125 0 3.3
2.875 0 3.3625
2.8125 0 3.425
2.875 0.0625 3.3
2.875 0.0625 3.425
2.8125 0.125 3.3
2.875 0.125 3.3625
2.8125 0.125 3.425
2.8125 0 3.3625
2.8125 0.0625 3.3
2.875 0.0625 3.3625
2.8125 0.0625 3.425
2.8125 0.125 3.3625
2.8125 0.0625 3.3625
2.9375 0 3.3
3 0 3.3625
2.9375 0 3.425
3 0.0625 3.3
3 0.0625 3.425
2.9375 0.125 3.3
3 0.125 3.3625
2.9375 0.125 3.425
2.9375 0 3.3625
2.9375 0.0625 3.3
3 0.0625 3.3625
2.9375 0.0625 3.425
2.9375 0.125 3.3625
2.9375 0.0625 3.3625
3.0625 0 3.3
3.125 0 3.3625
3.0625 0 3.425
3.125 0.0625 3.3
3.125 0.0625 3.425
3.0625 0.125 3.3
3.125 0.125 3.3625
3.0625 0.125 3.425
3.0625 0 3.3625
3.0625 0.0625 3.3
3.125 0.0625 3.3625
3.0625 0.0625 3.425
3.0625 0.125 3.3625
3.0625 0.0625 3.3625
3.1875 0 3.3
3.25 0 3.3625
3.1875 0 3.425
3.25 0.0625 3.3
3.25 0.0625 3.425
3.1875 0.125 3.3
3.25 0.125 3.3625
3.1875 0.125 3.425
3.1875 0 3.3625
3.1875 0.0625 3.3
3.25 0.0625 3.3625
3.1875 0.0625 3.425
3.1875 0.125 3.3625
3.1875 0.0625 3.3625
3.3125 0 3.3
3.375 0 3.3625
3.3125 0 3.425
3.375 0.0625 3.3
3.375 0.0625 3.425
3.3125 0.125 3.3
3.375 0.125 3.3625
3.3125 0.125 3.425
3.3125 0 3.3625
3.3125 0.0625 3.3
3.375 0.0625 3.3625
3.3125 0.0625 3.425
3.3125 0.125 3.3625
3.3125 0.0625 3.3625
3.4375 0 3.3
3.5 0 3.3625
3.4375 0 3.425
3.5 0.0625 3.3
3.5 0.0625 3.425
3.4375 0.125 3.3
3.5 0.125 3.3625
3.4375 0.125 3.425
3.4375 0 3.3625
3.4375 0.0625 3.3
3.5 0.0625 3.3625
3.4375 0.0625 3.425
3.4375 0.125 3.3625
3.4375 0.0625 3.3625
3.5625 0 3.3
3.625 0 3.3625
3.5625 0 3.425
3.625 0.0625 3.3
3.625 0.0625 3.425
3.5625 0.125 3.3
3.625 0.125 3.3625
3.5625 0.125 3.425
3.5625 0 3.3625
3.5625 0.0625 3.3
3.625 0.0625 3.3625
3.5625 0.0625 3.425
3.5625 0.125 3.3625
3.5625 0.0625 3.3625
3.6875 0 3.3
3.75 0 3.3625
3.6875 0 3.425
3.75 0.0625 3.3
3.75 0.0625 3.425
3.6875 0.125 3.3
3.75 0.125 3.3625
3.6875 0.125 3.425
3.6875 0 3.3625
3.6875 0.0625 3.3
3.75 0.0625 3.3625
3.6875 0.0625 3.425
3.6875 0.125 3.3625
3.6875 0.0625 3.3625
3.8125 0 3.3
3.875 0 3.3625
3.8125 0 3.425
3.875 0.0625 3.3
3.875 0.0625 3.425
3.8125 0.125 3.3
3.875 0.125 3.3625
3.8125 0.125 3.425
3.8125 0 3.3625
3.8125 0.0625 3.3
3.875 0.0625 3.3625
3.8125 0.0625 3.425
3.8125 0.125 3.3625
3.8125 0.0625 3.3625
3.9375 0 3.3
4 0 3.3625
3.9375 0 3.425
4 0.0625 3.3
4 0.0625 3.425
3.9375 0.125 3.3
4 0.125 3.3625
3.9375 0.125 3.425
3.9375 0 3.3625
3.9375 0.0625 3.3
4 0.0625 3.3625
3.9375 0.0625 3.425
3.9375 0.125 3.3625
3.9375 0.0625 3.3625
0 0.1875 3.3
0.125 0.1875 3.3
0.125 0.1875 3.425
0 0.1875 3.425
0.0625 0.25 3.3
0.125 0.25 3.3625
0.0625 0.25 3.425
0 0.25 3.3625
0.0625 0.1875 3.3
0.125 0.1875 3.3625
0.0625 0.1875 3.425
0 0.1875 3.3625
0.0625 0.25 3.3625
0.0625 0.1875 3.3625
0.25 0.1875 3.3
0.25 0.1875 3.425
0.1875 0.25 3.3
0.25 0.25 3.3625
0.1875 0.25 3.425
0.1875 0.1875 3.3
0.25 0.1875 3.3625
0.1875 0.1875 3.425
0.1875 0.25 3.3625
0.1875 0.1875 3.3625
0.375 0.1875 3.3
0.375 0.1875 3.425
0.3125 0.25 3.3
0.375 0.25 3.3625
0.3125 0.25 3.425
0.3125 0.1875 3.3
0.375 0.1875 3.3625
0.3125 0.1875 3.425
0.3125 0.25 3.3625
0.3125 0.1875 3.3625
0.5 0.1875 3.3
0.5 0.1875 3.425
0.4375 0.25 3.3
0.5 0.25 3.3625
0.4375 0.25 3.425
0.4375 0.1875 3.3
0.5 0.1875 3.3625
0.4375 0.1875 3.425
0.4375 0.25 3.3625
0.4375 0.1875 3.3625
0.625 0.1875 3.3
0.625 0.1875 3.425
0.5625 0.25 3.3
0.625 0.25 3.3625
0.5625 0.25 3.425
0.5625 0.1875 3.3
0.625 0.1875 3.3625
0.5625 0.1875 3.425
0.5625 0.25 3.3625
0.5625 0.1875 3.3625
0.75 0.1875 3.3
0.75 0.1875 3.425
0.6875 0.25 3.3
0.75 0.25 3.3625
0.6875 0.25 3.425
0.6875 0.1875 3.3
0.75 0.1875 3.3625
0.6875 0.1875 3.425
0.6875 0.25 3.3625
0.6875 0.1875 3.3625
0.875 0.1875 3.3
0.875 0.1875 3.425
0.8125 0.25 3.3
0.875 0.25 3.3625
0.8125 0.25 3.425
0.8125 0.1875 3.3
0.875 0.1875 3.3625
0.8125 0.1875 3.425
0.8125 0.25 3.3625
0.8125 0.1875 3.3625
1 0.1875 3.3
1 0.1875 3.425
0.9375 0.25 3.3
1 0.25 3.3625
0.9375 0.25 3.425
0.9375 0.1875 3.3
1 0.1875 3.3625
0.9375 0.1875 3.425
0.9375 0.25 3.3625
0.9375 0.1875 3.3625
1.125 0.1875 3.3
1.125 0.1875 3.425
1.0625 0.25 3.3
1.125 0.25 3.3625
1.0625 0.25 3.425
1.0625 0.1875 3.3
1.125 0.1875 3.3625
1.0625 0.1875 3.425
1.0625 0.25 3.3625
1.0625 0.1875 3.3625
1.25 0.1875 3.3
1.25 0.1875 3.425
1.1875 0.25 3.3
1.25 0.25 3.3625
1.1875 0.25 3.425
1.1875 0.1875 3.3
1.25 0.1875 3.3625
1.1875 0.1875 3.425
1.1875 0.25 3.3625
1.1875 0.1875 3.3625
1.375 0.1875 3.3
1.375 0.1875 3.425
1.3125 0.25 3.3
1.375 0.25 3.3625
1.3125 0.25 3.425
1.3125 0.1875 3.3
1.375 0.1875 3.3625
1.3125 0.1875 3.425
1.3125 0.25 3.3625
1.3125 0.1875 3.3625
1.5 0.1875 3.3
1.5 0.1875 3.425
1.4375 0.25 3.3
1.5 0.25 3.3625
1.4375 0.25 3.425
1.4375 0.1875 3.3
1.5 0.1875 3.3625
1.4375 0.1875 3.425
1.4375 0.25 3.3625
1.4375 0.1875 3.3625
1.625 0.1875 3.3
1.625 0.1875 3.425
1.5625 0.25 3.3
1.625 0.25 3.3625
1.5625 0.25 3.425
1.5625 0.1875 3.3
1.625 0.1875 3.3625
1.5625 0.1875 3.425
1.5625 0.25 3.3625
1.5625 0.1875 3.3625
1.75 0.1875 3.3
1.75 0.1875 3.425
1.6875 0.25 3.3
1.75 0.25 3.3625
1.6875 0.25 3.425
1.6875 0.1875 3.3
1.75 0.1875 3.3625
1.6875 0.1875 3.425
1.6875 0.25 3.3625
1.6875 0.1875 3.3625
1.875 0.1875 3.3
1.875 0.1875 3.425
1.8125 0.25 3.3
1.875 0.25 3.3625
1.8125 0.25 3.425
1.8125 0.1875 3.3
1.875 0.1875 3.3625
1.8125 0.1875 3.425
1.8125 0.25 3.3625
1.8125 0.1875 3.3625
2 0.1875 3.3
2 0.1875 3.425
1.9375 0.25 3.3
2 0.25 3.3625
1.9375 0.25 3.425
1.9375 0.1875 3.3
2 0.1875 3.3625
1.9375 0.1875 3.425
1.9375 0.25 3.3625
1.9375 0.1875 3.3625
2.125 0.1875 3.3
2.125 0.1875 3.425
2.0625 0.25 3.3
2.125 0.25 3.3625
2.0625 0.25 3.425
2.0625 0.1875 3.3
2.125 0.1875 3.3625
2.0625 0.1875 3.425
2.0625 0.25 3.3625
2.0625 0.1875 3.3625
2.25 0.1875 3.3
2.25 0.1875 3.425
2.1875 0.25 3.3
2.25 0.25 3.3625
2.1875 0.25 3.425
2.1875 0.1875 3.3
2.25 0.1875 3.3625
2.1875 0.1875 3.425
2.1875 0.25 3.3625
2.1875 0.1875 3.3625
2.375 0.1875 3.3
2.375 0.1875 3.425
2.3125 0.25 3.3
2.375 0.25 3.3625
2.3125 0.25 3.425
2.3125 0.1875 3.3
2.375 0.1875 3.3625
2.3125 0.1875 3.425
2.3125 0.25 3.3625
2.3125 0.1875 3.3625
2.5 0.1875 3.3
2.5 0.1875 3.425
2.4375 0.25 3.3
2.5 0.25 3.3625
2.4375 0.25 3.425
2.4375 0.1875 3.3
2.5 0.1875 3.3625
2.4375 0.1875 3.425
2.4375 0.25 3.3625
2.4375 0.1875 3.3625
2.625 0.1875 3.3
2.625 0.1875 3.425
2.5625 0.25 3.3
2.625 0.25 3.3625
2.5625 0.25 3.425
2.5625 0.1875 3.3
2.625 0.1875 3.3625
2.5625 0.1875 3.425
2.5625 0.25 3.3625
2.5625 0.1875 3.3625
2.75 0.1875 3.3
2.75 0.1875 3.425
2.6875 0.25 3.3
2.75 0.25 3.3625
2.6875 0.25 3.425
2.6875 0.1875 3.3
2.75 0.1875 3.3625
2.6875 0.1875 3.425
2.6875 0.25 3.3625
2.6875 0.1875 3.3625
2.875 0.1875 3.3
2.875 0.1875 3.425
2.8125 0.25 3.3
2.875 0.25 3.3625
2.8125 0.25 3.425
2.8125 0.1875 3.3
2.875 0.1875 3.3625
2.8125 0.1875 3.425
2.8125 0.25 3.3625
2.8125 0.1875 3.3625
3 0.1875 3.3
3 0.1875 3.425
2.9375 0.25 3.3
3 0.25 3.3625
2.9375 0.25 3.425
2.9375 0.1875 3.3
3 0.1875 3.3625
2.9375 0.1875 3.425
2.9375 0.25 3.3625
2.9375 0.1875 3.3625
3.125 0.1875 3.3
3.125 0.1875 3.425
3.0625 0.25 3.3
3.125 0.25 3.3625
3.0625 0.25 3.425
3.0625 0.1875 3.3
3.125 0.1875 3.3625
3.0625 0.1875 3.425
3.0625 0.25 3.3625
3.0625 0.1875 3.3625
3.25 0.1875 3.3
3.25 0.1875 3.425
3.1875 0.25 3.3
3.25 0.25 3.3625
3.1875 0.25 3.425
3.1875 0.1875 3.3
3.25 0.1875 3.3625
3.1875 0.1875 3.425
3.1875 0.25 3.3625
3.1875 0.1875 3.3625
3.375 0.1875 3.3
3.375 0.1875 3.425
3.3125 0.25 3.3
3.375 0.25 3.3625
3.3125 0.25 3.425
3.3125 0.1875 3.3
3.375 0.1875 3.3625
3.3125 0.1875 3.425
3.3125 0.25 3.3625
3.3125 0.1875 3.3625
3.5 0.1875 3.3
3.5 0.1875 3.425
3.4375 0.25 3.3
3.5 0.25 3.3625
3.4375 0.25 3.425
3.4375 0.1875 3.3
3.5 0.1875 3.3625
3.4375 0.1875 3.425
3.4375 0.25 3.3625
3.4375 0.1875 3.3625
3.625 0.1875 3.3
3.625 0.1875 3.425
3.5625 0.25 3.3
3.625 0.25 3.3625
3.5625 0.25 3.425
3.5625 0.1875 3.3
3.625 0.1875 3.3625
3.5625 0.1875 3.425
3.5625 0.25 3.3625
3.5625 0.1875 3.3625
3.75 0.1875 3.3
3.75 0.1875 3.425
3.6875 0.25 3.3
3.75 0.25 3.3625
3.6875 0.25 3.425
3.6875 0.1875 3.3
3.75 0.1875 3.3625
3.6875 0.1875 3.425
3.6875 0.25 3.3625
3.6875 0.1875 3.3625
3.875 0.1875 3.3
3.875 0.1875 3.425
3.8125 0.25 3.3
3.875 0.25 3.3625
3.8125 0.25 3.425
3.8125 0.1875 3.3
3.875 0.1875 3.3625
3.8125 0.1875 3.425
3.8125 0.25 3.3625
3.8125 0.1875 3.3625
4 0.1875 3.3
4 0.1875 3.425
3.9375 0.25 3.3
4 0.25 3.3625
3.9375 0.25 3.425
3.9375 0.1875 3.3
4 0.1875 3.3625
3.9375 0.1875 3.425
3.9375 0.25 3.3625
3.9375 0.1875 3.3625
0 0.3125 3.3
0.125 0.3125 3.3
0.125 0.3125 3.425
0 0.3125 3.425
0.0625 0.375 3.3
0.125 0.375 3.3625
0.0625 0.375 3.425
0 0.375 3.3625
0.0625 0.3125 3.3
0.125 0.3125 3.3625
0.0625 0.3125 3.425
0 0.3125 3.3625
0.0625 0.375 3.3625
0.0625 0.3125 3.3625
0.25 0.3125 3.3
0.25 0.3125 3.425
0.1875 0.375 3.3
0.25 0.375 3.3625
0.1875 0.375 3.425
0.1875 0.3125 3.3
0.25 0.3125 3.3625
0.1875 0.3125 3.425
0.1875 0.375 3.3625
0.1875 0.3125 3.3625
0.375 0.3125 3.3
0.375 0.3125 3.425
0.3125 0.375 3.3
0.375 0.375 3.3625
0.3125 0.375 3.425
0.3125 0.3125 3.3
0.375 0.3125 3.3625
0.3125 0.3125 3.425
0.3125 0.375 3.3625
0.3125 0.3125 3.3625
0.5 0.3125 3.3
0.5 0.3125 3.425
0.4375 0.375 3.3
0.5 0.375 3.3625
0.4375 0.375 3.425
0.4375 0.3125 3.3
0.5 0.3125 3.3625
0.4375 0.3125 3.425
0.4375 0.375 3.3625
0.4375 0.3125 3.3625
0.625 0.3125 3.3
0.625 0.3125 3.425
0.5625 0.375 3.3
0.625 0.375 3.3625
0.5625 0.375 3.425
0.5625 0.3125 3.3
0.625 0.3125 3.3625
0.5625 0.3125 3.425
0.5625 0.375 3.3625
0.5625 0.3125 3.3625
0.75 0.3125 3.3
0.75 0.3125 3.425
0.6875 0.375 3.3
0.75 0.375 3.3625
0.6875 0.375 3.425
0.6875 0.3125 3.3
0.75 0.3125 3.3625
0.6875 0.3125 3.425
0.6875 0.375 3.3625
0.6875 0.3125 3.3625
0.875 0.3125 3.3
0.875 0.3125 3.425
0.8125 0.375 3.3
0.875 0.375 3.3625
0.8125 0.375 3.425
0.8125 0.3125 3.3
0.875 0.3125 3.3625
0.8125 0.3125 3.425
0.8125 0.375 3.3625
0.8125 0.3125 3.3625
1 0.3125 3.3
1 0.3125 3.425
0.9375 0.375 3.3
1 0.375 3.3625
0.9375 0.375 3.425
0.9375 0.3125 3.3
1 0.3125 3.3625
0.9375 0.3125 3.425
0.9375 0.375 3.3625
0.9375 0.3125 3.3625
1.125 0.3125 3.3
1.125 0.3125 3.425
1.0625 0.375 3.3
1.125 0.375 3.3625
1.0625 0.375 3.425
1.0625 0.3125 3.3
1.125 0.3125 3.3625
1.0625 0.3125 3.425
1.0625 0.375 3.3625
1.0625 0.3125 3.3625
1.25 0.3125 3.3
1.25 0.3125 3.425
1.1875 0.375 3.3
1.25 0.375 3.3625
1.1875 0.375 3.425
1.1875 0.3125 3.3
1.25 0.3125 3.3625
1.1875 0.3125 3.425
1.1875 0.375 3.3625
1.1875 0.3125 3.3625
1.375 0.3125 3.3
1.375 0.3125 3.425
1.3125 0.375 3.3
1.375 0.375 3.3625
1.3125 0.375 3.425
1.3125 0.3125 3.3
1.375 0.3125 3.3625
1.3125 0.3125 3.425
1.3125 0.375 3.3625
1.3125 0.3125 3.3625
1.5 0.3125 3.3
1.5 0.3125 3.425
1.4375 0.375 3.3
1.5 0.375 3.3625
1.4375 0.375 3.425
1.4375 0.3125 3.3
1.5 0.3125 3.3625
1.4375 0.3125 3.425
1.4375 0.375 3.3625
1.4375 0.3125 3.3625
1.625 0.3125 3.3
1.625 0.3125 3.425
1.5625 0.375 3.3
1.625 0.375 3.3625
1.5625 0.375 3.425
1.5625 0.3125 3.3
1.625 0.3125 3.3625
1.5625 0.3125 3.425
1.5625 0.375 3.3625
1.5625 0.3125 3.3625
1.75 0.3125 3.3
1.75 0.3125 3.425
1.6875 0.375 3.3
1.75 0.375 3.3625
1.6875 0.375 3.425
1.6875 0.3125 3.3
1.75 0.3125 3.3625
1.6875 0.3125 3.425
1.6875 0.375 3.3625
1.6875 0.3125 3.3625
1.875 0.3125 3.3
1.875 0.3125 3.425
1.8125 0.375 3.3
1.875 0.375 3.3625
1.8125 0.375 3.425
1.8125 0.3125 3.3
1.875 0.3125 3.3625
1.8125 0.3125 3.425
1.8125 0.375 3.3625
1.8125 0.3125 3.3625
2 0.3125 3.3
2 0.3125 3.425
1.9375 0.375 3.3
2 0.375 3.3625
1.9375 0.375 3.425
1.9375 0.3125 3.3
2 0.3125 3.3625
1.9375 0.3125 3.425
1.9375 0.375 3.3625
1.9375 0.3125 3.3625
2.125 0.3125 3.3
2.125 0.3125 3.425
2.0625 0.375 3.3
2.125 0.375 3.3625
2.0625 0.375 3.425
2.0625 0.3125 3.3
2.125 0.3125 3.3625
2.0625 0.3125 3.425
2.0625 0.375 3.3625
2.0625 0.3125 3.3625
2.25 0.3125 3.3
2.25 0.3125 3.425
2.1875 0.375 3.3
2.25 0.375 3.3625
2.1875 0.375 3.425
2.1875 0.3125 3.3
2.25 0.3125 3.3625
2.1875 0.3125 3.425
2.1875 0.375 3.3625
2.1875 0.3125 3.3625
2.375 0.3125 3.3
2.375 0.3125 3.425
2.3125 0.375 3.3
2.375 0.375 3.3625
2.3125 0.375 3.425
2.3125 0.3125 3.3
2.375 0.3125 3.3625
2.3125 0.3125 3.425
2.3125 0.375 3.3625
2.3125 0.3125 3.3625
2.5 0.3125 3.3
2.5 0.3125 3.425
2.4375 0.375 3.3
2.5 0.375 3.3625
2.4375 0.375 3.425
2.4375 0.3125 3.3
2.5 0.3125 3.3625
2.4375 0.3125 3.425
2.4375 0.375 3.3625
2.4375 0.3125 3.3625
2.625 0.3125 3.3
2.625 0.3125 3.425
2.5625 0.375 3.3
2.625 0.375 3.3625
2.5625 0.375 3.425
2.5625 0.3125 3.3
2.625 0.3125 3.3625
2.5625 0.3125 3.425
2.5625 0.375 3.3625
2.5625 0.3125 3.3625
2.75 0.3125 3.3
2.75 0.3125 3.425
2.6875 0.375 3.3
2.75 0.375 3.3625
2.6875 0.375 3.425
2.6875 0.3125 3.3
2.75 0.3125 3.3625
2.6875 0.3125 3.425
2.6875 0.375 3.3625
2.6875 0.3125 3.3625
2.875 0.3125 3.3
2.875 0.3125 3.425
2.8125 0.375 3.3
2.875 0.375 3.3625
2.8125 0.375 3.425
2.8125 0.3125 3.3
2.875 0.3125 3.3625
2.8125 0.3125 3.425
2.8125 0.375 3.3625
2.8125 0.3125 3.3625
3 0.3125 3.3
3 0.3125 3.425
2.9375 0.375 3.3
3 0.375 3.3625
2.9375 0.375 3.425
2.9375 0.3125 3.3
3 0.3125 3.3625
2.9375 0.3125 3.425
2.9375 0.375 3.3625
2.9375 0.3125 3.3625
3.125 0.3125 3.3
3.125 0.3125 3.425
3.0625 0.375 3.3
3.125 0.375 3.3625
3.0625 0.375 3.425
3.0625 0.3125 3.3
3.125 0.3125 3.3625
3.0625 0.3125 3.425
3.0625 0.375 3.3625
3.0625 0.3125 3.3625
3.25 0.3125 3.3
3.25 0.3125 3.425
3.1875 0.375 3.3
3.25 0.375 3.3625
3.1875 0.375 3.425
3.1875 0.3125 3.3
3.25 0.3125 3.3625
3.1875 0.3125 3.425
3.1875 0.375 3.3625
3.1875 0.3125 3.3625
3.375 0.3125 3.3
3.375 0.3125 3.425
3.3125 0.375 3.3
3.375 0.375 3.3625
3.3125 0.375 3.425
3.3125 0.3125 3.3
3.375 0.3125 3.3625
3.3125 0.3125 3.425
3.3125 0.375 3.3625
3.3125 0.3125 3.3625
3.5 0.3125 3.3
3.5 0.3125 3.425
3.4375 0.375 3.3
3.5 0.375 3.3625
3.4375 0.375 3.425
3.4375 0.3125 3.3
3.5 0.3125 3.3625
3.4375 0.3125 3.425
3.4375 0.375 3.3625
3.4375 0.3125 3.3625
3.625 0.3125 3.3
3.625 0.3125 3.425
3.5625 0.375 3.3
3.625 0.375 3.3625
3.5625 0.375 3.425
3.5625 0.3125 3.3
3.625 0.3125 3.3625
3.5625 0.3125 3.425
3.5625 0.375 3.3625
3.5625 0.3125 3.3625
3.75 0.3125 3.3
3.75 0.3125 3.425
3.6875 0.375 3.3
3.75 0.375 3.3625
3.6875 0.375 3.425
3.6875 0.3125 3.3
3.75 0.3125 3.3625
3.6875 0.3125 3.425
3.6875 0.375 3.3625
3.6875 0.3125 3.3625
3.875 0.3125 3.3
3.875 0.3125 3.425
3.8125 0.375 3.3
3.875 0.375 3.3625
3.8125 0.375 3.425
3.8125 0.3125 3.3
3.875 0.3125 3.3625
3.8125 0.3125 3.425
3.8125 0.375 3.3625
3.8125 0.3125 3.3625
4 0.3125 3.3
4 0.3125 3.425
3.9375 0.375 3.3
4 0.375 3.3625
3.9375 0.375 3.425
3.9375 0.3125 3.3
4 0.3125 3.3625
3.9375 0.3125 3.425
3.9375 0.375 3.3625
3.9375 0.3125 3.3625
0 0.4375 3.3
0.125 0.4375 3.3
0.125 0.4375 3.425
0 0.4375 3.425
0.0625 0.5 3.3
0.125 0.5 3.3625
0.0625 0.5 3.425
0 0.5 3.3625
0.0625 0.4375 3.3
0.125 0.4375 3.3625
0.0625 0.4375 3.425
0 0.4375 3.3625
0.0625 0.5 3.3625
0.0625 0.4375 3.3625
0.25 0.4375 3.3
0.25 0.4375 3.425
0.1875 0.5 3.3
0.25 0.5 3.3625
0.1875 0.5 3.425
0.1875 0.4375 3.3
0.25 0.4375 3.3625
0.1875 0.4375 3.425
0.1875 0.5 3.3625
0.1875 0.4375 3.3625
0.375 0.4375 3.3
0.375 0.4375 3.425
0.3125 0.5 3.3
0.375 0.5 3.3625
0.3125 0.5 3.425
0.3125 0.4375 3.3
0.375 0.4375 3.3625
0.3125 0.4375 3.425
0.3125 0.5 3.3625
0.3125 0.4375 3.3625
0.5 0.4375 3.3
0.5 0.4375 3.425
0.4375 0.5 3.3
0.5 0.5 3.3625
0.4375 0.5 3.425
0.4375 0.4375 3.3
0.5 0.4375 3.3625
0.4375 0.4375 3.425
0.4375 0.5 3.3625
0.4375 0.4375 3.3625
0.625 0.4375 3.3
0.625 0.4375 3.425
0.5625 0.5 3.3
0.625 0.5 3.3625
0.5625 0.5 3.425
0.5625 0.4375 3.3
0.625 0.4375 3.3625
0.5625 0.4375 3.425
0.5625 0.5 3.3625
0.5625 0.4375 3.3625
0.75 0.4375 3.3
0.75 0.4375 3.425
0.6875 0.5 3.3
0.75 0.5 3.3625
0.6875 0.5 3.425
0.6875 0.4375 3.3
0.75 0.4375 3.3625
0.6875 0.4375 3.425
0.6875 0.5 3.3625
0.6875 0.4375 3.3625
0.875 0.4375 3.3
0.875 0.4375 3.425
0.8125 0.5 3.3
0.875 0.5 3.3625
0.8125 0.5 3.425
0.8125 0.4375 3.3
0.875 0.4375 3.3625
0.8125 0.4375 3.425
0.8125 0.5 3.3625
0.8125 0.4375 3.3625
1 0.4375 3.3
1 0.4375 3.425
0.9375 0.5 3.3
1 0.5 3.3625
0.9375 0.5 3.425
0.9375 0.4375 3.3
1 0.4375 3.3625
0.9375 0.4375 3.425
0.9375 0.5 3.3625
0.9375 0.4375 3.3625
1.125 0.4375 3.3
1.125 0.4375 3.425
1.0625 0.5 3.3
1.125 0.5 3.3625
1.0625 0.5 3.425
1.0625 0.4375 3.3
1.125 0.4375 3.3625
1.0625 0.4375 3.425
1.0625 0.5 3.3625
1.0625 0.4375 3.3625
1.25 0.4375 3.3
1.25 0.4375 3.425
1.1875 0.5 3.3
1.25 0.5 3.3625
1.1875 0.5 3.425
1.1875 0.4375 3.3
1.25 0.4375 3.3625
1.1875 0.4375 3.425
1.1875 0.5 3.3625
1.1875 0.4375 3.3625
1.375 0.4375 3.3
1.375 0.4375 3.425
1.3125 0.5 3.3
1.375 0.5 3.3625
1.3125 0.5 3.425
1.3125 0.4375 3.3
1.375 0.4375 3.3625
1.3125 0.4375 3.425
1.3125 0.5 3.3625
1.3125 0.4375 3.3625
1.5 0.4375 3.3
1.5 0.4375 3.425
1.4375 0.5 3.3
1.5 0.5 3.3625
1.4375 0.5 3.425
1.4375 0.4375 3.3
1.5 0.4375 3.3625
1.4375 0.4375 3.425
1.4375 0.5 3.3625
1.4375 0.4375 3.3625
1.625 0.4375 3.3
1.625 0.4375 3.425
1.5625 0.5 3.3
1.625 0.5 3.3625
1.5625 0.5 3.425
1.5625 0.4375 3.3
1.625 0.4375 3.3625
1.5625 0.4375 3.425
1.5625 0.5 3.3625
1.5625 0.4375 3.3625
1.75 0.4375 3.3
1.75 0.4375 3.425
1.6875 0.5 3.3
1.75 0.5 3.3625
1.6875 0.5 3.425
1.6875 0.4375 3.3
1.75 0.4375 3.3625
1.6875 0.4375 3.425
1.6875 0.5 3.3625
1.6875 0.4375 3.3625
1.875 0.4375 3.3
1.875 0.4375 3.425
1.8125 0.5 3.3
1.875 0.5 3.3625
1.8125 0.5 3.425
1.8125 0.4375 3.3
1.875 0.4375 3.3625
1.8125 0.4375 3.425
1.8125 0.5 3.3625
1.8125 0.4375 3.3625
2 0.4375 3.3
2 0.4375 3.425
1.9375 0.5 3.3
2 0.5 3.3625
1.9375 0.5 3.425
1.9375 0.4375 3.3
2 0.4375 3.3625
1.9375 0.4375 3.425
1.9375 0.5 3.3625
1.9375 0.4375 3.3625
2.125 0.4375 3.3
2.125 0.4375 3.425
2.0625 0.5 3.3
2.125 0.5 3.3625
2.0625 0.5 3.425
2.0625 0.4375 3.3
2.125 0.4375 3.3625
2.0625 0.4375 3.425
2.0625 0.5 3.3625
2.0625 0.4375 3.3625
2.25 0.4375 3.3
2.25 0.4375 3.425
2.1875 0.5 3.3
2.25 0.5 3.3625
2.1875 0.5 3.425
2.1875 0.4375 3.3
2.25 0.4375 3.3625
2.1875 0.4375 3.425
2.1875 0.5 3.3625
2.1875 0.4375 3.3625
2.375 0.4375 3.3
2.375 0.4375 3.425
2.3125 0.5 3.3
2.375 0.5 3.3625
2.3125 0.5 3.425
2.3125 0.4375 3.3
2.375 0.4375 3.3625
2.3125 0.4375 3.425
2.3125 0.5 3.3625
2.3125 0.4375 3.3625
2.5 0.4375 3.3
2.5 0.4375 3.425
2.4375 0.5 3.3
2.5 0.5 3.3625
2.4375 0.5 3.425
2.4375 0.4375 3.3
2.5 0.4375 3.3625
2.4375 0.4375 3.425
2.4375 0.5 3.3625
2.4375 0.4375 3.3625
2.625 0.4375 3.3
2.625 0.4375 3.425
2.5625 0.5 3.3
2.625 0.5 3.3625
2.5625 0.5 3.425
2.5625 0.4375 3.3
2.625 0.4375 3.3625
2.5625 0.4375 3.425
2.5625 0.5 3.3625
2.5625 0.4375 3.3625
2.75 0.4375 3.3
2.75 0.4375 3.425
2.6875 0.5 3.3
2.75 0.5 3.3625
2.6875 0.5 3.425
2.6875 0.4375 3.3
2.75 0.4375 3.3625
2.6875 0.4375 3.425
2.6875 0.5 3.3625
2.6875 0.4375 3.3625
2.875 0.4375 3.3
2.875 0.4375 3.425
2.8125 0.5 3.3
2.875 0.5 3.3625
2.8125 0.5 3.425
2.8125 0.4375 3.3
2.875 0.4375 3.3625
2.8125 0.4375 3.425
2.8125 0.5 3.3625
2.8125 0.4375 3.3625
3 0.4375 3.3
3 0.4375 3.425
2.9375 0.5 3.3
3 0.5 3.3625
2.9375 0.5 3.425
2.9375 0.4375 3.3
3 0.4375 3.3625
2.9375 0.4375 3.425
2.9375 0.5 3.3625
2.9375 0.4375 3.3625
3.125 0.4375 3.3
3.125 0.4375 3.425
3.0625 0.5 3.3
3.125 0.5 3.3625
3.0625 0.5 3.425
3.0625 0.4375 3.3
3.125 0.4375 3.3625
3.0625 0.4375 3.425
3.0625 0.5 3.3625
3.0625 0.4375 3.3625
3.25 0.4375 3.3
3.25 0.4375 3.425
3.1875 0.5 3.3
3.25 0.5 3.3625
3.1875 0.5 3.425
3.1875 0.4375 3.3
3.25 0.4375 3.3625
3.1875 0.4375 3.425
3.1875 0.5 3.3625
3.1875 0.4375 3.3625
3.375 0.4375 3.3
3.375 0.4375 3.425
3.3125 0.5 3.3
3.375 0.5 3.3625
3.3125 0.5 3.425
3.3125 0.4375 3.3
3.375 0.4375 3.3625
3.3125 0.4375 3.425
3.3125 0.5 3.3625
3.3125 0.4375 3.3625
3.5 0.4375 3.3
3.5 0.4375 3.425
3.4375 0.5 3.3
3.5 0.5 3.3625
3.4375 0.5 3.425
3.4375 0.4375 3.3
3.5 0.4375 3.3625
3.4375 0.4375 3.425
3.4375 0.5 3.3625
3.4375 0.4375 3.3625
3.625 0.4375 3.3
3.625 0.4375 3.425
3.5625 0.5 3.3
3.625 0.5 3.3625
3.5625 0.5 3.425
3.5625 0.4375 3.3
3.625 0.4375 3.3625
3.5625 0.4375 3.425
3.5625 0.5 3.3625
3.5625 0.4375 3.3625
3.75 0.4375 3.3
3.75 0.4375 3.425
3.6875 0.5 3.3
3.75 0.5 3.3625
3.6875 0.5 3.425
3.6875 0.4375 3.3
3.75 0.4375 3.3625
3.6875 0.4375 3.425
3.6875 0.5 3.3625
3.6875 0.4375 3.3625
3.875 0.4375 3.3
3.875 0.4375 3.425
3.8125 0.5 3.3
3.875 0.5 3.3625
3.8125 0.5 3.425
3.8125 0.4375 3.3
3.875 0.4375 3.3625
3.8125 0.4375 3.425
3.8125 0.5 3.3625
3.8125 0.4375 3.3625
4 0.4375 3.3
4 0.4375 3.425
3.9375 0.5 3.3
4 0.5 3.3625
3.9375 0.5 3.425
3.9375 0.4375 3.3
4 0.4375 3.3625
3.9375 0.4375 3.425
3.9375 0.5 3.3625
3.9375 0.4375 3.3625
0 0.5625 3.3
0.125 0.5625 3.3
0.125 0.5625 3.425
0 0.5625 3.425
0.0625 0.625 3.3
0.125 0.625 3.3625
0.0625 0.625 3.425
0 0.625 3.3625
0.0625 0.5625 3.3
0.125 0.5625 3.3625
0.0625 0.5625 3.425
0 0.5625 3.3625
0.0625 0.625 3.3625
0.0625 0.5625 3.3625
0.25 0.5625 3.3
0.25 0.5625 3.425
0.1875 0.625 3.3
0.25 0.625 3.3625
0.1875 0.625 3.425
0.1875 0.5625 3.3
0.25 0.5625 3.3625
0.1875 0.5625 3.425
0.1875 0.625 3.3625
0.1875 0.5625 3.3625
0.375 0.5625 3.3
0.375 0.5625 3.425
0.3125 0.625 3.3
0.375 0.625 3.3625
0.3125 0.625 3.425
0.3125 0.5625 3.3
0.375 0.5625 3.3625
0.3125 0.5625 3.425
0.3125 0.625 3.3625
0.3125 0.5625 3.3625
0.5 0.5625 3.3
0.5 0.5625 3.425
0.4375 0.625 3.3
0.5 0.625 3.3625
0.4375 0.625 3.425
0.4375 0.5625 3.3
0.5 0.5625 3.3625
0.4375 0.5625 3.425
0.4375 0.625 3.3625
0.4375 0.5625 3.3625
0.625 0.5625 3.3
0.625 0.5625 3.425
0.5625 0.625 3.3
0.625 0.625 3.3625
0.5625 0.625 3.425
0.5625 0.5625 3.3
0.625 0.5625 3.3625
0.5625 0.5625 3.425
0.5625 0.625 3.3625
0.5625 0.5625 3.3625
0.75 0.5625 3.3
0.75 0.5625 3.425
0.6875 0.625 3.3
0.75 0.625 3.3625
0.6875 0.625 3.425
0.6875 0.5625 3.3
0.75 0.5625 3.3625
0.6875 0.5625 3.425
0.6875 0.625 3.3625
0.6875 0.5625 3.3625
0.875 0.5625 3.3
0.875 0.5625 3.425
0.8125 0.625 3.3
0.875 0.625 3.3625
0.8125 0.625 3.425
0.8125 0.5625 3.3
0.875 0.5625 3.3625
0.8125 0.5625 3.425
0.8125 0.625 3.3625
0.8125 0.5625 3.3625
1 0.5625 3.3
1 0.5625 3.425
0.9375 0.625 3.3
1 0.625 3.3625
0.9375 0.625 3.425
0.9375 0.5625 3.3
1 0.5625 3.3625
0.9375 0.5625 3.425
0.9375 0.625 3.3625
0.9375 0.5625 3.3625
1.125 0.5625 3.3
1.125 0.5625 3.425
1.0625 0.625 3.3
1.125 0.625 3.3625
1.0625 0.625 3.425
1.0625 0.5625 3.3
1.125 0.5625 3.3625
1.0625 0.5625 3.425
1.0625 0.625 3.3625
1.0625 0.5625 3.3625
1.25 0.5625 3.3
1.25 0.5625 3.425
1.1875 0.625 3.3
1.25 0.625 3.3625
1.1875 0.625 3.425
1.1875 0.5625 3.3
1.25 0.5625 3.3625
1.1875 0.5625 3.425
1.1875 0.625 3.3625
1.1875 0.5625 3.3625
1.375 0.5625 3.3
1.375 0.5625 3.425
1.3125 0.625 3.3
1.375 0.625 3.3625
1.3125 0.625 3.425
1.3125 0.5625 3.3
1.375 0.5625 3.3625
1.3125 0.5625 3.425
1.3125 0.625 3.3625
1.3125 0.5625 3.3625
1.5 0.5625 3.3
1.5 0.5625 3.425
1.4375 0.625 3.3
1.5 0.625 3.3625
1.4375 0.625 3.425
1.4375 0.5625 3.3
1.5 0.5625 3.3625
1.4375 0.5625 3.425
1.4375 0.625 3.3625
1.4375 0.5625 3.3625
1.625 0.5625 3.3
1.625 0.5625 3.425
1.5625 0.625 3.3
1.625 0.625 3.3625
1.5625 0.625 3.425
1.5625 0.5625 3.3
1.625 0.5625 3.3625
1.5625 0.5625 3.425
1.5625 0.625 3.3625
1.5625 0.5625 3.3625
1.75 0.5625 3.3
1.75 0.5625 3.425
1.6875 0.625 3.3
1.75 0.625 3.3625
1.6875 0.625 3.425
1.6875 0.5625 3.3
1.75 0.5625 3.3625
1.6875 0.5625 3.425
1.6875 0.625 3.3625
1.6875 0.5625 3.3625
1.875 0.5625 3.3
1.875 0.5625 3.425
1.8125 0.625 3.3
1.875 0.625 3.3625
1.8125 0.625 3.425
1.8125 0.5625 3.3
1.875 0.5625 3.3625
1.8125 0.5625 3.425
1.8125 0.625 3.3625
1.8125 0.5625 3.3625
2 0.5625 3.3
2 0.5625 3.425
1.9375 0.625 3.3
2 0.625 3.3625
1.9375 0.625 3.425
1.9375 0.5625 3.3
2 0.5625 3.3625
1.9375 0.5625 3.425
1.9375 0.625 3.3625
1.9375 0.5625 3.3625
2.125 0.5625 3.3
2.125 0.5625 3.425
2.0625 0.625 3.3
2.125 0.625 3.3625
2.0625 0.625 3.425
2.0625 0.5625 3.3
2.125 0.5625 3.3625
2.0625 0.5625 3.425
2.0625 0.625 3.3625
2.0625 0.5625 3.3625
2.25 0.5625 3.3
2.25 0.5625 3.425
2.1875 0.625 3.3
2.25 0.625 3.3625
2.1875 0.625 3.425
2.1875 0.5625 3.3
2.25 0.5625 3.3625
2.1875 0.5625 3.425
2.1875 0.625 3.3625
2.1875 0.5625 3.3625
2.375 0.5625 3.3
2.375 0.5625 3.425
2.3125 0.625 3.3
2.375 0.625 3.3625
2.3125 0.625 3.425
2.3125 0.5625 3.3
2.375 0.5625 3.3625
2.3125 0.5625 3.425
2.3125 0.625 3.3625
2.3125 0.5625 3.3625
2.5 0.5625 3.3
2.5 0.5625 3.425
2.4375 0.625 3.3
2.5 0.625 3.3625
2.4375 0.625 3.425
2.4375 0.5625 3.3
2.5 0.5625 3.3625
2.4375 0.5625 3.425
2.4375 0.625 3.3625
2.4375 0.5625 3.3625
2.625 0.5625 3.3
2.625 0.5625 3.425
2.5625 0.625 3.3
2.625 0.625 3.3625
2.5625 0.625 3.425
2.5625 0.5625 3.3
2.625 0.5625 3.3625
2.5625 0.5625 3.425
2.5625 0.625 3.3625
2.5625 0.5625 3.3625
2.75 0.5625 3.3
2.75 0.5625 3.425
2.6875 0.625 3.3
2.75 0.625 3.3625
2.6875 0.625 3.425
2.6875 0.5625 3.3
2.75 0.5625 3.3625
2.6875 0.5625 3.425
2.6875 0.625 3.3625
2.6875 0.5625 3.3625
2.875 0.5625 3.3
2.875 0.5625 3.425
2.8125 0.625 3.3
2.875 0.625 3.3625
2.8125 0.625 3.425
2.8125 0.5625 3.3
2.875 0.5625 3.3625
2.8125 0.5625 3.425
2.8125 0.625 3.3625
2.8125 0.5625 3.3625
3 0.5625 3.3
3 0.5625 3.425
2.9375 0.625 3.3
3 0.625 3.3625
2.9375 0.625 3.425
2.9375 0.5625 3.3
3 0.5625 3.3625
2.9375 0.5625 3.425
2.9375 0.625 3.3625
2.9375 0.5625 3.3625
3.125 0.5625 3.3
3.125 0.5625 3.425
3.0625 0.625 3.3
3.125 0.625 3.3625
3.0625 0.625 3.425
3.0625 0.5625 3.3
3.125 0.5625 3.3625
3.0625 0.5625 3.425
3.0625 0.625 3.3625
3.0625 0.5625 3.3625
3.25 0.5625 3.3
3.25 0.5625 3.425
3.1875 0.625 3.3
3.25 0.625 3.3625
3.1875 0.625 3.425
3.1875 0.5625 3.3
3.25 0.5625 3.3625
3.1875 0.5625 3.425
3.1875 0.625 3.3625
3.1875 0.5625 3.3625
3.375 0.5625 3.3
3.375 0.5625 3.425
3.3125 0.625 3.3
3.375 0.625 3.3625
3.3125 0.625 3.425
3.3125 0.5625 3.3
3.375 0.5625 3.3625
3.3125 0.5625 3.425
3.3125 0.625 3.3625
3.3125 0.5625 3.3625
3.5 0.5625 3.3
3.5 0.5625 3.425
3.4375 0.625 3.3
3.5 0.625 3.3625
3.4375 0.625 3.425
3.4375 0.5625 3.3
3.5 0.5625 3.3625
3.4375 0.5625 3.425
3.4375 0.625 3.3625
3.4375 0.5625 3.3625
3.625 0.5625 3.3
3.625 0.5625 3.425
3.5625 0.625 3.3
3.625 0.625 3.3625
3.5625 0.625 3.425
3.5625 0.5625 3.3
3.625 0.5625 3.3625
3.5625 0.5625 3.425
3.5625 0.625 3.3625
3.5625 0.5625 3.3625
3.75 0.5625 3.3
3.75 0.5625 3.425
3.6875 0.625 3.3
3.75 0.625 3.3625
3.6875 0.625 3.425
3.6875 0.5625 3.3
3.75 0.5625 3.3625
3.6875 0.5625 3.425
3.6875 0.625 3.3625
3.6875 0.5625 3.3625
3.875 0.5625 3.3
3.875 0.5625 3.425
3.8125 0.625 3.3
3.875 0.625 3.3625
3.8125 0.625 3.425
3.8125 0.5625 3.3
3.875 0.5625 3.3625
3.8125 0.5625 3.425
3.8125 0.625 3.3625
3.8125 0.5625 3.3625
4 0.5625 3.3
4 0.5625 3.425
3.9375 0.625 3.3
4 0.625 3.3625
3.9375 0.625 3.425
3.9375 0.5625 3.3
4 0.5625 3.3625
3.9375 0.5625 3.425
3.9375 0.625 3.3625
3.9375 0.5625 3.3625
0 0.6875 3.3
0.125 0.6875 3.3
0.125 0.6875 3.425
0 0.6875 3.425
0.0625 0.75 3.3
0.125 0.75 3.3625
0.0625 0.75 3.425
0 0.75 3.3625
0.0625 0.6875 3.3
0.125 0.6875 3.3625
0.0625 0.6875 3.425
0 0.6875 3.3625
0.0625 0.75 3.3625
0.0625 0.6875 3.3625
0.25 0.6875 3.3
0.25 0.6875 3.425
0.1875 0.75 3.3
0.25 0.75 3.3625
0.1875 0.75 3.425
0.1875 0.6875 3.3
0.25 0.6875 3.3625
0.1875 0.6875 3.425
0.1875 0.75 3.3625
0.1875 0.6875 3.3625
0.375 0.6875 3.3
0.375 0.6875 3.425
0.3125 0.75 3.3
0.375 0.75 3.3625
0.3125 0.75 3.425
0.3125 0.6875 3.3
0.375 0.6875 3.3625
0.3125 0.6875 3.425
0.3125 0.75 3.3625
0.3125 0.6875 3.3625
0.5 0.6875 3.3
0.5 0.6875 3.425
0.4375 0.75 3.3
0.5 0.75 3.3625
0.4375 0.75 3.425
0.4375 0.6875 3.3
0.5 0.6875 3.3625
0.4375 0.6875 3.425
0.4375 0.75 3.3625
0.4375 0.6875 3.3625
0.625 0.6875 3.3
0.625 0.6875 3.425
0.5625 0.75 3.3
0.625 0.75 3.3625
0.5625 0.75 3.425
0.5625 0.6875 3.3
0.625 0.6875 3.3625
0.5625 0.6875 3.425
0.5625 0.75 3.3625
0.5625 0.6875 3.3625
0.75 0.6875 3.3
0.75 0.6875 3.425
0.6875 0.75 3.3
0.75 0.75 3.3625
0.6875 0.75 3.425
0.6875 0.6875 3.3
0.75 0.6875 3.3625
0.6875 0.6875 3.425
0.6875 0.75 3.3625
0.6875 0.6875 3.3625
0.875 0.6875 3.3
0.875 0.6875 3.425
0.8125 0.75 3.3
0.875 0.75 3.3625
0.8125 0.75 3.425
0.8125 0.6875 3.3
0.875 0.6875 3.3625
0.8125 0.6875 3.425
0.8125 0.75 3.3625
0.8125 0.6875 3.3625
1 0.6875 3.3
1 0.6875 3.425
0.9375 0.75 3.3
1 0.75 3.3625
0.9375 0.75 3.425
0.9375 0.6875 3.3
1 0.6875 3.3625
0.9375 0.6875 3.425
0.9375 0.75 3.3625
0.9375 0.6875 3.3625
1.125 0.6875 3.3
1.125 0.6875 3.425
1.0625 0.75 3.3
1.125 0.75 3.3625
1.0625 0.75 3.425
1.0625 0.6875 3.3
1.125 0.6875 3.3625
1.0625 0.6875 3.425
1.0625 0.75 3.3625
1.0625 0.6875 3.3625
1.25 0.6875 3.3
1.25 0.6875 3.425
1.1875 0.75 3.3
1.25 0.75 3.3625
1.1875 0.75 3.425
1.1875 0.6875 3.3
1.25 0.6875 3.3625
1.1875 0.6875 3.425
1.1875 0.75 3.3625
1.1875 0.6875 3.3625
1.375 0.6875 3.3
1.375 0.6875 3.425
1.3125 0.75 3.3
1.375 0.75 3.3625
1.3125 0.75 3.425
1.3125 0.6875 3.3
1.375 0.6875 3.3625
1.3125 0.6875 3.425
1.3125 0.75 3.3625
1.3125 0.6875 3.3625
1.5 0.6875 3.3
1.5 0.6875 3.425
1.4375 0.75 3.3
1.5 0.75 3.3625
1.4375 0.75 3.425
1.4375 0.6875 3.3
1.5 0.6875 3.3625
1.4375 0.6875 3.425
1.4375 0.75 3.3625
1.4375 0.6875 3.3625
1.625 0.6875 3.3
1.625 0.6875 3.425
1.5625 0.75 3.3
1.625 0.75 3.3625
1.5625 0.75 3.425
1.5625 0.6875 3.3
1.625 0.6875 3.3625
1.5625 0.6875 3.425
1.5625 0.75 3.3625
1.5625 0.6875 3.3625
1.75 0.6875 3.3
1.75 0.6875 3.425
1.6875 0.75 3.3
1.75 0.75 3.3625
1.6875 0.75 3.425
1.6875 0.6875 3.3
1.75 0.6875 3.3625
1.6875 0.6875 3.425
1.6875 0.75 3.3625
1.6875 0.6875 3.3625
1.875 0.6875 3.3
1.875 0.6875 3.425
1.8125 0.75 3.3
1.875 0.75 3.3625
1.8125 0.75 3.425
1.8125 0.6875 3.3
1.875 0.6875 3.3625
1.8125 0.6875 3.425
1.8125 0.75 3.3625
1.8125 0.6875 3.3625
2 0.6875 3.3
2 0.6875 3.425
1.9375 0.75 3.3
2 0.75 3.3625
1.9375 0.75 3.425
1.9375 0.6875 3.3
2 0.6875 3.3625
1.9375 0.6875 3.425
1.9375 0.75 3.3625
1.9375 0.6875 3.3625
2.125 0.6875 3.3
2.125 0.6875 3.425
2.0625 0.75 3.3
2.125 0.75 3.3625
2.0625 0.75 3.425
2.0625 0.6875 3.3
2.125 0.6875 3.3625
2.0625 0.6875 3.425
2.0625 0.75 3.3625
2.0625 0.6875 3.3625
2.25 0.6875 3.3
2.25 0.6875 3.425
2.1875 0.75 3.3
2.25 0.75 3.3625
2.1875 0.75 3.425
2.1875 0.6875 3.3
2.25 0.6875 3.3625
2.1875 0.6875 3.425
2.1875 0.75 3.3625
2.1875 0.6875 3.3625
2.375 0.6875 3.3
2.375 0.6875 3.425
2.3125 0.75 3.3
2.375 0.75 3.3625
2.3125 0.75 3.425
2.3125 0.6875 3.3
2.375 0.6875 3.3625
2.3125 0.6875 3.425
2.3125 0.75 3.3625
2.3125 0.6875 3.3625
2.5 0.6875 3.3
2.5 0.6875 3.425
2.4375 0.75 3.3
2.5 0.75 3.3625
2.4375 0.75 3.425
2.4375 0.6875 3.3
2.5 0.6875 3.3625
2.4375 0.6875 3.425
2.4375 0.75 3.3625
2.4375 0.6875 3.3625
2.625 0.6875 3.3
2.625 0.6875 3.425
2.5625 0.75 3.3
2.625 0.75 3.3625
2.5625 0.75 3.425
2.5625 0.6875 3.3
2.625 0.6875 3.3625
2.5625 0.6875 3.425
2.5625 0.75 3.3625
2.5625 0.6875 3.3625
2.75 0.6875 3.3
2.75 0.6875 3.425
2.6875 0.75 3.3
2.75 0.75 3.3625
2.6875 0.75 3.425
2.6875 0.6875 3.3
2.75 0.6875 3.3625
2.6875 0.6875 3.425
2.6875 0.75 3.3625
2.6875 0.6875 3.3625
2.875 0.6875 3.3
2.875 0.6875 3.425
2.8125 0.75 3.3
2.875 0.75 3.3625
2.8125 0.75 3.425
2.8125 0.6875 3.3
2.875 0.6875 3.3625
2.8125 0.6875 3.425
2.8125 0.75 3.3625
2.8125 0.6875 3.3625
3 0.6875 3.3
3 0.6875 3.425
2.9375 0.75 3.3
3 0.75 3.3625
2.9375 0.75 3.425
2.9375 0.6875 3.3
3 0.6875 3.3625
2.9375 0.6875 3.425
2.9375 0.75 3.3625
2.9375 0.6875 3.3625
3.125 0.6875 3.3
3.125 0.6875 3.425
3.0625 0.75 3.3
3.125 0.75 3.3625
3.0625 0.75 3.425
3.0625 0.6875 3.3
3.125 0.6875 3.3625
3.0625 0.6875 3.425
3.0625 0.75 3.3625
3.0625 0.6875 3.3625
3.25 0.6875 3.3
3.25 0.6875 3.425
3.1875 0.75 3.3
3.25 0.75 3.3625
3.1875 0.75 3.425
3.1875 0.6875 3.3
3.25 0.6875 3.3625
3.1875 0.6875 3.425
3.1875 0.75 3.3625
3.1875 0.6875 3.3625
3.375 0.6875 3.3
3.375 0.6875 3.425
3.3125 0.75 3.3
3.375 0.75 3.3625
3.3125 0.75 3.425
3.3125 0.6875 3.3
3.375 0.6875 3.3625
3.3125 0.6875 3.425
3.3125 0.75 3.3625
3.3125 0.6875 3.3625
3.5 0.6875 3.3
3.5 0.6875 3.425
3.4375 0.75 3.3
3.5 0.75 3.3625
3.4375 0.75 3.425
3.4375 0.6875 3.3
3.5 0.6875 3.3625
3.4375 0.6875 3.425
3.4375 0.75 3.3625
3.4375 0.6875 3.3625
3.625 0.6875 3.3
3.625 0.6875 3.425
3.5625 0.75 3.3
3.625 0.75 3.3625
3.5625 0.75 3.425
3.5625 0.6875 3.3
3.625 0.6875 3.3625
3.5625 0.6875 3.425
3.5625 0.75 3.3625
3.5625 0.6875 3.3625
3.75 0.6875 3.3
3.75 0.6875 3.425
3.6875 0.75 3.3
3.75 0.75 3.3625
3.6875 0.75 3.425
3.6875 0.6875 3.3
3.75 0.6875 3.3625
3.6875 0.6875 3.425
3.6875 0.75 3.3625
3.6875 0.6875 3.3625
3.875 0.6875 3.3
3.875 0.6875 3.425
3.8125 0.75 3.3
3.875 0.75 3.3625
3.8125 0.75 3.425
3.8125 0.6875 3.3
3.875 0.6875 3.3625
3.8125 0.6875 3.425
3.8125 0.75 3.3625
3.8125 0.6875 3.3625
4 0.6875 3.3
4 0.6875 3.425
3.9375 0.75 3.3
4 0.75 3.3625
3.9375 0.75 3.425
3.9375 0.6875 3.3
4 0.6875 3.3625
3.9375 0.6875 3.425
3.9375 0.75 3.3625
3.9375 0.6875 3.3625
0 0.8125 3.3
0.125 0.8125 3.3
0.125 0.8125 3.425
0 0.8125 3.425
0.0625 0.875 3.3
0.125 0.875 3.3625
0.0625 0.875 3.425
0 0.875 3.3625
0.0625 0.8125 3.3
0.125 0.8125 3.3625
0.0625 0.8125 3.425
0 0.8125 3.3625
0.0625 0.875 3.3625
0.0625 0.8125 3.3625
0.25 0.8125 3.3
0.25 0.8125 3.425
0.1875 0.875 3.3
0.25 0.875 3.3625
0.1875 0.875 3.425
0.1875 0.8125 3.3
0.25 0.8125 3.3625
0.1875 0.8125 3.425
0.1875 0.875 3.3625
0.1875 0.8125 3.3625
0.375 0.8125 3.3
0.375 0.8125 3.425
0.3125 0.875 3.3
0.375 0.875 3.3625
0.3125 0.875 3.425
0.3125 0.8125 3.3
0.375 0.8125 3.3625
0.3125 0.8125 3.425
0.3125 0.875 3.3625
0.3125 0.8125 3.3625
0.5 0.8125 3.3
0.5 0.8125 3.425
0.4375 0.875 3.3
0.5 0.875 3.3625
0.4375 0.875 3.425
0.4375 0.8125 3.3
0.5 0.8125 3.3625
0.4375 0.8125 3.425
0.4375 0.875 3.3625
0.4375 0.8125 3.3625
0.625 0.8125 3.3
0.625 0.8125 3.425
0.5625 0.875 3.3
0.625 0.875 3.3625
0.5625 0.875 3.425
0.5625 0.8125 3.3
0.625 0.8125 3.3625
0.5625 0.8125 3.425
0.5625 0.875 3.3625
0.5625 0.8125 3.3625
0.75 0.8125 3.3
0.75 0.8125 3.425
0.6875 0.875 3.3
0.75 0.875 3.3625
0.6875 0.875 3.425
0.6875 0.8125 3.3
0.75 0.8125 3.3625
0.6875 0.8125 3.425
0.6875 0.875 3.3625
0.6875 0.8125 3.3625
0.875 0.8125 3.3
0.875 0.8125 3.425
0.8125 0.875 3.3
0.875 0.875 3.3625
0.8125 0.875 3.425
0.8125 0.8125 3.3
0.875 0.8125 3.3625
0.8125 0.8125 3.425
0.8125 0.875 3.3625
0.8125 0.8125 3.3625
1 0.8125 3.3
1 0.8125 3.425
0.9375 0.875 3.3
1 0.875 3.3625
0.9375 0.875 3.425
0.9375 0.8125 3.3
1 0.8125 3.3625
0.9375 0.8125 3.425
0.9375 0.875 3.3625
0.9375 0.8125 3.3625
1.125 0.8125 3.3
1.125 0.8125 3.425
1.0625 0.875 3.3
1.125 0.875 3.3625
1.0625 0.875 3.425
1.0625 0.8125 3.3
1.125 0.8125 3.3625
1.0625 0.8125 3.425
1.0625 0.875 3.3625
1.0625 0.8125 3.3625
1.25 0.8125 3.3
1.25 0.8125 3.425
1.1875 0.875 3.3
1.25 0.875 3.3625
1.1875 0.875 3.425
1.1875 0.8125 3.3
1.25 0.8125 3.3625
1.1875 0.8125 3.425
1.1875 0.875 3.3625
1.1875 0.8125 3.3625
1.375 0.8125 3.3
1.375 0.8125 3.425
1.3125 0.875 3.3
1.375 0.875 3.3625
1.3125 0.875 3.425
1.3125 0.8125 3.3
1.375 0.8125 3.3625
1.3125 0.8125 3.425
1.3125 0.875 3.3625
1.3125 0.8125 3.3625
1.5 0.8125 3.3
1.5 0.8125 3.425
1.4375 0.875 3.3
1.5 0.875 3.3625
1.4375 0.875 3.425
1.4375 0.8125 3.3
1.5 0.8125 3.3625
1.4375 0.8125 3.425
1.4375 0.875 3.3625
1.4375 0.8125 3.3625
1.625 0.8125 3.3
1.625 0.8125 3.425
1.5625 0.875 3.3
1.625 0.875 3.3625
1.5625 0.875 3.425
1.5625 0.8125 3.3
1.625 0.8125 3.3625
1.5625 0.8125 3.425
1.5625 0.875 3.3625
1.5625 0.8125 3.3625
1.75 0.8125 3.3
1.75 0.8125 3.425
1.6875 0.875 3.3
1.75 0.875 3.3625
1.6875 0.875 3.425
1.6875 0.8125 3.3
1.75 0.8125 3.3625
1.6875 0.8125 3.425
1.6875 0.875 3.3625
1.6875 0.8125 3.3625
1.875 0.8125 3.3
1.875 0.8125 3.425
1.8125 0.875 3.3
1.875 0.875 3.3625
1.8125 0.875 3.425
1.8125 0.8125 3.3
1.875 0.8125 3.3625
1.8125 0.8125 3.425
1.8125 0.875 3.3625
1.8125 0.8125 3.3625
2 0.8125 3.3
2 0.8125 3.425
1.9375 0.875 3.3
2 0.875 3.3625
1.9375 0.875 3.425
1.9375 0.8125 3.3
2 0.8125 3.3625
1.9375 0.8125 3.425
1.9375 0.875 3.3625
1.9375 0.8125 3.3625
2.125 0.8125 3.3
2.125 0.8125 3.425
2.0625 0.875 3.3
2.125 0.875 3.3625
2.0625 0.875 3.425
2.0625 0.8125 3.3
2.125 0.8125 3.3625
2.0625 0.8125 3.425
2.0625 0.875 3.3625
2.0625 0.8125 3.3625
2.25 0.8125 3.3
2.25 0.8125 3.425
2.1875 0.875 3.3
2.25 0.875 3.3625
2.1875 0.875 3.425
2.1875 0.8125 3.3
2.25 0.8125 3.3625
2.1875 0.8125 3.425
2.1875 0.875 3.3625
2.1875 0.8125 3.3625
2.375 0.8125 3.3
2.375 0.8125 3.425
2.3125 0.875 3.3
2.375 0.875 3.3625
2.3125 0.875 3.425
2.3125 0.8125 3.3
2.375 0.8125 3.3625
2.3125 0.8125 3.425
2.3125 0.875 3.3625
2.3125 0.8125 3.3625
2.5 0.8125 3.3
2.5 0.8125 3.425
2.4375 0.875 3.3
2.5 0.875 3.3625
2.4375 0.875 3.425
2.4375 0.8125 3.3
2.5 0.8125 3.3625
2.4375 0.8125 3.425
2.4375 0.875 3.3625
2.4375 0.8125 3.3625
2.625 0.8125 3.3
2.625 0.8125 3.425
2.5625 0.875 3.3
2.625 0.875 3.3625
2.5625 0.875 3.425
2.5625 0.8125 3.3
2.625 0.8125 3.3625
2.5625 0.8125 3.425
2.5625 0.875 3.3625
2.5625 0.8125 3.3625
2.75 0.8125 3.3
2.75 0.8125 3.425
2.6875 0.875 3.3
2.75 0.875 3.3625
2.6875 0.875 3.425
2.6875 0.8125 3.3
2.75 0.8125 3.3625
2.6875 0.8125 3.425
2.6875 0.875 3.3625
2.6875 0.8125 3.3625
2.875 0.8125 3.3
2.875 0.8125 3.425
2.8125 0.875 3.3
2.875 0.875 3.3625
2.8125 0.875 3.425
2.8125 0.8125 3.3
2.875 0.8125 3.3625
2.8125 0.8125 3.425
2.8125 0.875 3.3625
2.8125 0.8125 3.3625
3 0.8125 3.3
3 0.8125 3.425
2.9375 0.875 3.3
3 0.875 3.3625
2.9375 0.875 3.425
2.9375 0.8125 3.3
3 0.8125 3.3625
2.9375 0.8125 3.425
2.9375 0.875 3.3625
2.9375 0.8125 3.3625
3.125 0.8125 3.3
3.125 0.8125 3.425
3.0625 0.875 3.3
3.125 0.875 3.3625
3.0625 0.875 3.425
3.0625 0.8125 3.3
3.125 0.8125 3.3625
3.0625 0.8125 3.425
3.0625 0.875 3.3625
3.0625 0.8125 3.3625
3.25 0.8125 3.3
3.25 0.8125 3.425
3.1875 0.875 3.3
3.25 0.875 3.3625
3.1875 0.875 3.425
3.1875 0.8125 3.3
3.25 0.8125 3.3625
3.1875 0.8125 3.425
3.1875 0.875 3.3625
3.1875 0.8125 3.3625
3.375 0.8125 3.3
3.375 0.8125 3.425
3.3125 0.875 3.3
3.375 0.875 3.3625
3.3125 0.875 3.425
3.3125 0.8125 3.3
3.375 0.8125 3.3625
3.3125 0.8125 3.425
3.3125 0.875 3.3625
3.3125 0.8125 3.3625
3.5 0.8125 3.3
3.5 0.8125 3.425
3.4375 0.875 3.3
3.5 0.875 3.3625
3.4375 0.875 3.425
3.4375 0.8125 3.3
3.5 0.8125 3.3625
3.4375 0.8125 3.425
3.4375 0.875 3.3625
3.4375 0.8125 3.3625
3.625 0.8125 3.3
3.625 0.8125 3.425
3.5625 0.875 3.3
3.625 0.875 3.3625
3.5625 0.875 3.425
3.5625 0.8125 3.3
3.625 0.8125 3.3625
3.5625 0.8125 3.425
3.5625 0.875 3.3625
3.5625 0.8125 3.3625
3.75 0.8125 3.3
3.75 0.8125 3.425
3.6875 0.875 3.3
3.75 0.875 3.3625
3.6875 0.875 3.425
3.6875 0.8125 3.3
3.75 0.8125 3.3625
3.6875 0.8125 3.425
3.6875 0.875 3.3625
3.6875 0.8125 3.3625
3.875 0.8125 3.3
3.875 0.8125 3.425
3.8125 0.875 3.3
3.875 0.875 3.3625
3.8125 0.875 3.425
3.8125 0.8125 3.3
3.875 0.8125 3.3625
3.8125 0.8125 3.425
3.8125 0.875 3.3625
3.8125 0.8125 3.3625
4 0.8125 3.3
4 0.8125 3.425
3.9375 0.875 3.3
4 0.875 3.3625
3.9375 0.875 3.425
3.9375 0.8125 3.3
4 0.8125 3.3625
3.9375 0.8125 3.425
3.9375 0.875 3.3625
3.9375 0.8125 3.3625
0 0.9375 3.3
0.125 0.9375 3.3
0.125 0.9375 3.425
0 0.9375 3.425
0.0625 1 3.3
0.125 1 3.3625
0.0625 1 3.425
0 1 3.3625
0.0625 0.9375 3.3
0.125 0.9375 3.3625
0.0625 0.9375 3.425
0 0.9375 3.3625
0.0625 1 3.3625
0.0625 0.9375 3.3625
0.25 0.9375 3.3
0.25 0.9375 3.425
0.1875 1 3.3
0.25 1 3.3625
0.1875 1 3.425
0.1875 0.9375 3.3
0.25 0.9375 3.3625
0.1875 0.9375 3.425
0.1875 1 3.3625
0.1875 0.9375 3.3625
0.375 0.9375 3.3
0.375 0.9375 3.425
0.3125 1 3.3
0.375 1 3.3625
0.3125 1 3.425
0.3125 0.9375 3.3
0.375 0.9375 3.3625
0.3125 0.9375 3.425
0.3125 1 3.3625
0.3125 0.9375 3.3625
0.5 0.9375 3.3
0.5 0.9375 3.425
0.4375 1 3.3
0.5 1 3.3625
0.4375 1 3.425
0.4375 0.9375 3.3
0.5 0.9375 3.3625
0.4375 0.9375 3.425
0.4375 1 3.3625
0.4375 0.9375 3.3625
0.625 0.9375 3.3
0.625 0.9375 3.425
0.5625 1 3.3
0.625 1 3.3625
0.5625 1 3.425
0.5625 0.9375 3.3
0.625 0.9375 3.3625
0.5625 0.9375 3.425
0.5625 1 3.3625
0.5625 0.9375 3.3625
0.75 0.9375 3.3
0.75 0.9375 3.425
0.6875 1 3.3
0.75 1 3.3625
0.6875 1 3.425
0.6875 0.9375 3.3
0.75 0.9375 3.3625
0.6875 0.9375 3.425
0.6875 1 3.3625
0.6875 0.9375 3.3625
0.875 0.9375 3.3
0.875 0.9375 3.425
0.8125 1 3.3
0.875 1 3.3625
0.8125 1 3.425
0.8125 0.9375 3.3
0.875 0.9375 3.3625
0.8125 0.9375 3.425
0.8125 1 3.3625
0.8125 0.9375 3.3625
1 0.9375 3.3
1 0.9375 3.425
0.9375 1 3.3
1 1 3.3625
0.9375 1 3.425
0.9375 0.9375 3.3
1 0.9375 3.3625
0.9375 0.9375 3.425
0.9375 1 3.3625
0.9375 0.9375 3.3625
1.125 0.9375 3.3
1.125 0.9375 3.425
1.0625 1 3.3
1.125 1 3.3625
1.0625 1 3.425
1.0625 0.9375 3.3
1.125 0.9375 3.3625
1.0625 0.9375 3.425
1.0625 1 3.3625
1.0625 0.9375 3.3625
1.25 0.9375 3.3
1.25 0.9375 3.425
1.1875 1 3.3
1.25 1 3.3625
1.1875 1 3.425
1.1875 0.9375 3.3
1.25 0.9375 3.3625
1.1875 0.9375 3.425
1.1875 1 3.3625
1.1875 0.9375 3.3625
1.375 0.9375 3.3
1.375 0.9375 3.425
1.3125 1 3.3
1.375 1 3.3625
1.3125 1 3.425
1.3125 0.9375 3.3
1.375 0.9375 3.3625
1.3125 0.9375 3.425
1.3125 1 3.3625
1.3125 0.9375 3.3625
1.5 0.9375 3.3
1.5 0.9375 3.425
1.4375 1 3.3
1.5 1 3.3625
1.4375 1 3.425
1.4375 0.9375 3.3
1.5 0.9375 3.3625
1.4375 0.9375 3.425
1.4375 1 3.3625
1.4375 0.9375 3.3625
1.625 0.9375 3.3
1.625 0.9375 3.425
1.5625 1 3.3
1.625 1 3.3625
1.5625 1 3.425
1.5625 0.9375 3.3
1.625 0.9375 3.3625
1.5625 0.9375 3.425
1.5625 1 3.3625
1.5625 0.9375 3.3625
1.75 0.9375 3.3
1.75 0.9375 3.425
1.6875 1 3.3
1.75 1 3.3625
1.6875 1 3.425
1.6875 0.9375 3.3
1.75 0.9375 3.3625
1.6875 0.9375 3.425
1.6875 1 3.3625
1.6875 0.9375 3.3625
1.875 0.9375 3.3
1.875 0.9375 3.425
1.8125 1 3.3
1.875 1 3.3625
1.8125 1 3.425
1.8125 0.9375 3.3
1.875 0.9375 3.3625
1.8125 0.9375 3.425
1.8125 1 3.3625
1.8125 0.9375 3.3625
2 0.9375 3.3
2 0.9375 3.425
1.9375 1 3.3
2 1 3.3625
1.9375 1 3.425
1.9375 0.9375 3.3
2 0.9375 3.3625
1.9375 0.9375 3.425
1.9375 1 3.3625
1.9375 0.9375 3.3625
2.125 0.9375 3.3
2.125 0.9375 3.425
2.0625 1 3.3
2.125 1 3.3625
2.0625 1 3.425
2.0625 0.9375 3.3
2.125 0.9375 3.3625
2.0625 0.9375 3.425
2.0625 1 3.3625
2.0625 0.9375 3.3625
2.25 0.9375 3.3
2.25 0.9375 3.425
2.1875 1 3.3
2.25 1 3.3625
2.1875 1 3.425
2.1875 0.9375 3.3
2.25 0.9375 3.3625
2.1875 0.9375 3.425
2.1875 1 3.3625
2.1875 0.9375 3.3625
2.375 0.9375 3.3
2.375 0.9375 3.425
2.3125 1 3.3
2.375 1 3.3625
2.3125 1 3.425
2.3125 0.9375 3.3
2.375 0.9375 3.3625
2.3125 0.9375 3.425
2.3125 1 3.3625
2.3125 0.9375 3.3625
2.5 0.9375 3.3
2.5 0.9375 3.425
2.4375 1 3.3
2.5 1 3.3625
2.4375 1 3.425
2.4375 0.9375 3.3
2.5 0.9375 3.3625
2.4375 0.9375 3.425
2.4375 1 3.3625
2.4375 0.9375 3.3625
2.625 0.9375 3.3
2.625 0.9375 3.425
2.5625 1 3.3
2.625 1 3.3625
2.5625 1 3.425
2.5625 0.9375 3.3
2.625 0.9375 3.3625
2.5625 0.9375 3.425
2.5625 1 3.3625
2.5625 0.9375 3.3625
2.75 0.9375 3.3
2.75 0.9375 3.425
2.6875 1 3.3
2.75 1 3.3625
2.6875 1 3.425
2.6875 0.9375 3.3
2.75 0.9375 3.3625
2.6875 0.9375 3.425
2.6875 1 3.3625
2.6875 0.9375 3.3625
2.875 0.9375 3.3
2.875 0.9375 3.425
2.8125 1 3.3
2.875 1 3.3625
2.8125 1 3.425
2.8125 0.9375 3.3
2.875 0.9375 3.3625
2.8125 0.9375 3.425
2.8125 1 3.3625
2.8125 0.9375 3.3625
3 0.9375 3.3
3 0.9375 3.425
2.9375 1 3.3
3 1 3.3625
2.9375 1 3.425
2.9375 0.9375 3.3
3 0.9375 3.3625
2.9375 0.9375 3.425
2.9375 1 3.3625
2.9375 0.9375 3.3625
3.125 0.9375 3.3
3.125 0.9375 3.425
3.0625 1 3.3
3.125 1 3.3625
3.0625 1 3.425
3.0625 0.9375 3.3
3.125 0.9375 3.3625
3.0625 0.9375 3.425
3.0625 1 3.3625
3.0625 0.9375 3.3625
3.25 0.9375 3.3
3.25 0.9375 3.425
3.1875 1 3.3
3.25 1 3.3625
3.1875 1 3.425
3.1875 0.9375 3.3
3.25 0.9375 3.3625
3.1875 0.9375 3.425
3.1875 1 3.3625
3.1875 0.9375 3.3625
3.375 0.9375 3.3
3.375 0.9375 3.425
3.3125 1 3.3
3.375 1 3.3625
3.3125 1 3.425
3.3125 0.9375 3.3
3.375 0.9375 3.3625
3.3125 0.9375 3.425
3.3125 1 3.3625
3.3125 0.9375 3.3625
3.5 0.9375 3.3
3.5 0.9375 3.425
3.4375 1 3.3
3.5 1 3.3625
3.4375 1 3.425
3.4375 0.9375 3.3
3.5 0.9375 3.3625
3.4375 0.9375 3.425
3.4375 1 3.3625
3.4375 0.9375 3.3625
3.625 0.9375 3.3
3.625 0.9375 3.425
3.5625 1 3.3
3.625 1 3.3625
3.5625 1 3.425
3.5625 0.9375 3.3
3.625 0.9375 3.3625
3.5625 0.9375 3.425
3.5625 1 3.3625
3.5625 0.9375 3.3625
3.75 0.9375 3.3
3.75 0.9375 3.425
3.6875 1 3.3
3.75 1 3.3625
3.6875 1 3.425
3.6875 0.9375 3.3
3.75 0.9375 3.3625
3.6875 0.9375 3.425
3.6875 1 3.3625
3.6875 0.9375 3.3625
3.875 0.9375 3.3
3.875 0.9375 3.425
3.8125 1 3.3
3.875 1 3.3625
3.8125 1 3.425
3.8125 0.9375 3.3
3.875 0.9375 3.3625
3.8125 0.9375 3.425
3.8125 1 3.3625
3.8125 0.9375 3.3625
4 0.9375 3.3
4 0.9375 3.425
3.9375 1 3.3
4 1 3.3625
3.9375 1 3.425
3.9375 0.9375 3.3
4 0.9375 3.3625
3.9375 0.9375 3.425
3.9375 1 3.3625
3.9375 0.9375 3.3625
0.125 0 3.4875
0.0625 0 3.55
0 0 3.4875
0.125 0.0625 3.55
0 0.0625 3.55
0.125 0.125 3.4875
0.0625 0.125 3.55
0 0.125 3.4875
0.0625 0 3.4875
0.125 0.0625 3.4875
0.0625 0.0625 3.55
0 0.0625 3.4875
0.0625 0.125 3.4875
0.0625 0.0625 3.4875
0.25 0 3.4875
0.1875 0 3.55
0.25 0.0625 3.55
0.25 0.125 3.4875
0.1875 0.125 3.55
0.1875 0 3.4875
0.25 0.0625 3.4875
0.1875 0.0625 3.55
0.1875 0.125 3.4875
0.1875 0.0625 3.4875
0.375 0 3.4875
0.3125 0 3.55
0.375 0.0625 3.55
0.375 0.125 3.4875
0.3125 0.125 3.55
0.3125 0 3.4875
0.375 0.0625 3.4875
0.3125 0.0625 3.55
0.3125 0.125 3.4875
0.3125 0.0625 3.4875
0.5 0 3.4875
0.4375 0 3.55
0.5 0.0625 3.55
0.5 0.125 3.4875
0.4375 0.125 3.55
0.4375 0 3.4875
0.5 0.0625 3.4875
0.4375 0.0625 3.55
0.4375 0.125 3.4875
0.4375 0.0625 3.4875
0.625 0 3.4875
0.5625 0 3.55
0.625 0.0625 3.55
0.625 0.125 3.4875
0.5625 0.125 3.55
0.5625 0 3.4875
0.625 0.0625 3.4875
0.5625 0.0625 3.55
0.5625 0.125 3.4875
0.5625 0.0625 3.4875
0.75 0 3.4875
0.6875 0 3.55
0.75 0.0625 3.55
0.75 0.125 3.4875
0.6875 0.125 3.55
0.6875 0 3.4875
0.75 0.0625 3.4875
0.6875 0.0625 3.55
0.6875 0.125 3.4875
0.6875 0.0625 3.4875
0.875 0 3.4875
0.8125 0 3.55
0.875 0.0625 3.55
0.875 0.125 3.4875
0.8125 0.125 3.55
0.8125 0 3.4875
0.875 0.0625 3.4875
0.8125 0.0625 3.55
0.8125 0.125 3.4875
0.8125 0.0625 3.4875
1 0 3.4875
0.9375 0 3.55
1 0.0625 3.55
1 0.125 3.4875
0.9375 0.125 3.55
0.9375 0 3.4875
1 0.0625 3.4875
0.9375 0.0625 3.55
0.9375 0.125 3.4875
0.9375 0.0625 3.4875
1.125 0 3.4875
1.0625 0 3.55
1.125 0.0625 3.55
1.125 0.125 3.4875
1.0625 0.125 3.55
1.0625 0 3.4875
1.125 0.0625 3.4875
1.0625 0.0625 3.55
1.0625 0.125 3.4875
1.0625 0.0625 3.4875
1.25 0 3.4875
1.1875 0 3.55
1.25 0.0625 3.55
1.25 0.125 3.4875
1.1875 0.125 3.55
1.1875 0 3.4875
1.25 0.0625 3.4875
1.1875 0.0625 3.55
1.1875 0.125 3.4875
1.1875 0.0625 3.4875
1.375 0 3.4875
1.3125 0 3.55
1.375 0.0625 3.55
1.375 0.125 3.4875
1.3125 0.125 3.55
1.3125 0 3.4875
1.375 0.0625 3.4875
1.3125 0.0625 3.55
1.3125 0.125 3.4875
1.3125 0.0625 3.4875
1.5 0 3.4875
1.4375 0 3.55
1.5 0.0625 3.55
1.5 0.125 3.4875
1.4375 0.125 3.55
1.4375 0 3.4875
1.5 0.0625 3.4875
1.4375 0.0625 3.55
1.4375 0.125 3.4875
1.4375 0.0625 3.4875
1.625 0 3.4875
1.5625 0 3.55
1.625 0.0625 3.55
1.625 0.125 3.4875
1.5625 0.125 3.55
1.5625 0 3.4875
1.625 0.0625 3.4875
1.5625 0.0625 3.55
1.5625 0.125 3.4875
1.5625 0.0625 3.4875
1.75 0 3.4875
1.6875 0 3.55
1.75 0.0625 3.55
1.75 0.125 3.4875
1.6875 0.125 3.55
1.6875 0 3.4875
1.75 0.0625 3.4875
1.6875 0.0625 3.55
1.6875 0.125 3.4875
1.6875 0.0625 3.4875
1.875 0 3.4875
1.8125 0 3.55
1.875 0.0625 3.55
1.875 0.125 3.4875
1.8125 0.125 3.55
1.8125 0 3.4875
1.875 0.0625 3.4875
1.8125 0.0625 3.55
1.8125 0.125 3.4875
1.8125 0.0625 3.4875
2 0 3.4875
1.9375 0 3.55
2 0.0625 3.55
2 0.125 3.4875
1.9375 0.125 3.55
1.9375 0 3.4875
2 0.0625 3.4875
1.9375 0.0625 3.55
1.9375 0.125 3.4875
1.9375 0.0625 3.4875
2.125 0 3.4875
2.0625 0 3.55
2.125 0.0625 3.55
2.125 0.125 3.4875
2.0625 0.125 3.55
2.0625 0 3.4875
2.125 0.0625 3.4875
2.0625 0.0625 3.55
2.0625 0.125 3.4875
2.0625 0.0625 3.4875
2.25 0 3.4875
2.1875 0 3.55
2.25 0.0625 3.55
2.25 0.125 3.4875
2.1875 0.125 3.55
2.1875 0 3.4875
2.25 0.0625 3.4875
2.1875 0.0625 3.55
2.1875 0.125 3.4875
2.1875 0.0625 3.4875
2.375 0 3.4875
2.3125 0 3.55
2.375 0.0625 3.55
2.375 0.125 3.4875
2.3125 0.125 3.55
2.3125 0 3.4875
2.375 0.0625 3.4875
2.3125 0.0625 3.55
2.3125 0.125 3.4875
2.3125 0.0625 3.4875
2.5 0 3.4875
2.4375 0 3.55
2.5 0.0625 3.55
2.5 0.125 3.4875
2.4375 0.125 3.55
2.4375 0 3.4875
2.5 0.0625 3.4875
2.4375 0.0625 3.55
2.4375 0.125 3.4875
2.4375 0.0625 3.4875
2.625 0 3.4875
2.5625 0 3.55
2.625 0.0625 3.55
2.625 0.125 3.4875
2.5625 0.125 3.55
2.5625 0 3.4875
2.625 0.0625 3.4875
2.5625 0.0625 3.55
2.5625 0.125 3.4875
2.5625 0.0625 3.4875
2.75 0 3.4875
2.6875 0 3.55
2.75 0.0625 3.55
2.75 0.125 3.4875
2.6875 0.125 3.55
2.6875 0 3.4875
2.75 0.0625 3.4875
2.6875 0.0625 3.55
2.6875 0.125 3.4875
2.6875 0.0625 3.4875
2.875 0 3.4875
2.8125 0 3.55
2.875 0.0625 3.55
2.875 0.125 3.4875
2.8125 0.125 3.55
2.8125 0 3.4875
2.875 0.0625 3.4875
2.8125 0.0625 3.55
2.8125 0.125 3.4875
2.8125 0.0625 3.4875
3 0 3.4875
2.9375 0 3.55
3 0.0625 3.55
3 0.125 3.4875
2.9375 0.125 3.55
2.9375 0 3.4875
3 0.0625 3.4875
2.9375 0.0625 3.55
2.9375 0.125 3.4875
2.9375 0.0625 3.4875
3.125 0 3.4875
3.0625 0 3.55
3.125 0.0625 3.55
3.125 0.125 3.4875
3.0625 0.125 3.55
3.0625 0 3.4875
3.125 0.0625 3.4875
3.0625 0.0625 3.55
3.0625 0.125 3.4875
3.0625 0.0625 3.4875
3.25 0 3.4875
3.1875 0 3.55
3.25 0.0625 3.55
3.25 0.125 3.4875
3.1875 0.125 3.55
3.1875 0 3.4875
3.25 0.0625 3.4875
3.1875 0.0625 3.55
3.1875 0.125 3.4875
3.1875 0.0625 3.4875
3.375 0 3.4875
3.3125 0 3.55
3.375 0.0625 3.55
3.375 0.125 3.4875
3.3125 0.125 3.55
3.3125 0 3.4875
3.375 0.0625 3.4875
3.3125 0.0625 3.55
3.3125 0.125 3.4875
3.3125 0.0625 3.4875
3.5 0 3.4875
3.4375 0 3.55
3.5 0.0625 3.55
3.5 0.125 3.4875
3.4375 0.125 3.55
3.4375 0 3.4875
3.5 0.0625 3.4875
3.4375 0.0625 3.55
3.4375 0.125 3.4875
3.4375 0.0625 3.4875
3.625 0 3.4875
3.5625 0 3.55
3.625 0.0625 3.55
3.625 0.125 3.4875
3.5625 0.125 3.55
3.5625 0 3.4875
3.625 0.0625 3.4875
3.5625 0.0625 3.55
3.5625 0.125 3.4875
3.5625 0.0625 3.4875
3.75 0 3.4875
3.6875 0 3.55
3.75 0.0625 3.55
3.75 0.125 3.4875
3.6875 0.125 3.55
3.6875 0 3.4875
3.75 0.0625 3.4875
3.6875 0.0625 3.55
3.6875 0.125 3.4875
3.6875 0.0625 3.4875
3.875 0 3.4875
3.8125 0 3.55
3.875 0.0625 3.55
3.875 0.125 3.4875
3.8125 0.125 3.55
3.8125 0 3.4875
3.875 0.0625 3.4875
3.8125 0.0625 3.55
3.8125 0.125 3.4875
3.8125 0.0625 3.4875
4 0 3.4875
3.9375 0 3.55
4 0.0625 3.55
4 0.125 3.4875
3.9375 0.125 3.55
3.9375 0 3.4875
4 0.0625 3.4875
3.9375 0.0625 3.55
3.9375 0.125 3.4875
3.9375 0.0625 3.4875
0.125 0.1875 3.55
0 0.1875 3.55
0.125 0.25 3.4875
0.0625 0.25 3.55
0 0.25 3.4875
0.125 0.1875 3.4875
0.0625 0.1875 3.55
0 0.1875 3.4875
0.0625 0.25 3.4875
0.0625 0.1875 3.4875
0.25 0.1875 3.55
0.25 0.25 3.4875
0.1875 0.25 3.55
0.25 0.1875 3.4875
0.1875 0.1875 3.55
0.1875 0.25 3.4875
0.1875 0.1875 3.4875
0.375 0.1875 3.55
0.375 0.25 3.4875
0.3125 0.25 3.55
0.375 0.1875 3.4875
0.3125 0.1875 3.55
0.3125 0.25 3.4875
0.3125 0.1875 3.4875
0.5 0.1875 3.55
0.5 0.25 3.4875
0.4375 0.25 3.55
0.5 0.1875 3.4875
0.4375 0.1875 3.55
0.4375 0.25 3.4875
0.4375 0.1875 3.4875
0.625 0.1875 3.55
0.625 0.25 3.4875
0.5625 0.25 3.55
0.625 0.1875 3.4875
0.5625 0.1875 3.55
0.5625 0.25 3.4875
0.5625 0.1875 3.4875
0.75 0.1875 3.55
0.75 0.25 3.4875
0.6875 0.25 3.55
0.75 0.1875 3.4875
0.6875 0.1875 3.55
0.6875 0.25 3.4875
0.6875 0.1875 3.4875
0.875 0.1875 3.55
0.875 0.25 3.4875
0.8125 0.25 3.55
0.875 0.1875 3.4875
0.8125 0.1875 3.55
0.8125 0.25 3.4875
0.8125 0.1875 3.4875
1 0.1875 3.55
1 0.25 3.4875
0.9375 0.25 3.55
1 0.1875 3.4875
0.9375 0.1875 3.55
0.9375 0.25 3.4875
0.9375 0.1875 3.4875
1.125 0.1875 3.55
1.125 0.25 3.4875
1.0625 0.25 3.55
1.125 0.1875 3.4875
1.0625 0.1875 3.55
1.0625 0.25 3.4875
1.0625 0.1875 3.4875
1.25 0.1875 3.55
1.25 0.25 3.4875
1.1875 0.25 3.55
1.25 0.1875 3.4875
1.1875 0.1875 3.55
1.1875 0.25 3.4875
1.1875 0.1875 3.4875
1.375 0.1875 3.55
1.375 0.25 3.4875
1.3125 0.25 3.55
1.375 0.1875 3.4875
1.3125 0.1875 3.55
1.3125 0.25 3.4875
1.3125 0.1875 3.4875
1.5 0.1875 3.55
1.5 0.25 3.4875
1.4375 0.25 3.55
1.5 0.1875 3.4875
1.4375 0.1875 3.55
1.4375 0.25 3.4875
1.4375 0.1875 3.4875
1.625 0.1875 3.55
1.625 0.25 3.4875
1.5625 0.25 3.55
1.625 0.1875 3.4875
1.5625 0.1875 3.55
1.5625 0.25 3.4875
1.5625 0.1875 3.4875
1.75 0.1875 3.55
1.75 0.25 3.4875
1.6875 0.25 3.55
1.75 0.1875 3.4875
1.6875 0.1875 3.55
1.6875 0.25 3.4875
1.6875 0.1875 3.4875
1.875 0.1875 3.55
1.875 0.25 3.4875
1.8125 0.25 3.55
1.875 0.1875 3.4875
1.8125 0.1875 3.55
1.8125 0.25 3.4875
1.8125 0.1875 3.4875
2 0.1875 3.55
2 0.25 3.4875
1.9375 0.25 3.55
2 0.1875 3.4875
1.9375 0.1875 3.55
1.9375 0.25 3.4875
1.9375 0.1875 3.4875
2.125 0.1875 3.55
2.125 0.25 3.4875
2.0625 0.25 3.55
2.125 0.1875 3.4875
2.0625 0.1875 3.55
2.0625 0.25 3.4875
2.0625 0.1875 3.4875
2.25 0.1875 3.55
2.25 0.25 3.4875
2.1875 0.25 3.55
2.25 0.1875 3.4875
2.1875 0.1875 3.55
2.1875 0.25 3.4875
2.1875 0.1875 3.4875
2.375 0.1875 3.55
2.375 0.25 3.4875
2.3125 0.25 3.55
2.375 0.1875 3.4875
2.3125 0.1875 3.55
2.3125 0.25 3.4875
2.3125 0.1875 3.4875
2.5 0.1875 3.55
2.5 0.25 3.4875
2.4375 0.25 3.55
2.5 0.1875 3.4875
2.4375 0.1875 3.55
2.4375 0.25 3.4875
2.4375 0.1875 3.4875
2.625 0.1875 3.55
2.625 0.25 3.4875
2.5625 0.25 3.55
2.625 0.1875 3.4875
2.5625 0.1875 3.55
2.5625 0.25 3.4875
2.5625 0.1875 3.4875
2.75 0.1875 3.55
2.75 0.25 3.4875
2.6875 0.25 3.55
2.75 0.1875 3.4875
2.6875 0.1875 3.55
2.6875 0.25 3.4875
2.6875 0.1875 3.4875
2.875 0.1875 3.55
2.875 0.25 3.4875
2.8125 0.25 3.55
2.875 0.1875 3.4875
2.8125 0.1875 3.55
2.8125 0.25 3.4875
2.8125 0.1875 3.4875
3 0.1875 3.55
3 0.25 3.4875
2.9375 0.25 3.55
3 0.1875 3.4875
2.9375 0.1875 3.55
2.9375 0.25 3.4875
2.9375 0.1875 3.4875
3.125 0.1875 3.55
3.125 0.25 3.4875
3.0625 0.25 3.55
3.125 0.1875 3.4875
3.0625 0.1875 3.55
3.0625 0.25 3.4875
3.0625 0.1875 3.4875
3.25 0.1875 3.55
3.25 0.25 3.4875
3.1875 0.25 3.55
3.25 0.1875 3.4875
3.1875 0.1875 3.55
3.1875 0.25 3.4875
3.1875 0.1875 3.4875
3.375 0.1875 3.55
3.375 0.25 3.4875
3.3125 0.25 3.55
3.375 0.1875 3.4875
3.3125 0.1875 3.55
3.3125 0.25 3.4875
3.3125 0.1875 3.4875
3.5 0.1875 3.55
3.5 0.25 3.4875
3.4375 0.25 3.55
3.5 0.1875 3.4875
3.4375 0.1875 3.55
3.4375 0.25 3.4875
3.4375 0.1875 3.4875
3.625 0.1875 3.55
3.625 0.25 3.4875
3.5625 0.25 3.55
3.625 0.1875 3.4875
3.5625 0.1875 3.55
3.5625 0.25 3.4875
3.5625 0.1875 3.4875
3.75 0.1875 3.55
3.75 0.25 3.4875
3.6875 0.25 3.55
3.75 0.1875 3.4875
3.6875 0.1875 3.55
3.6875 0.25 3.4875
3.6875 0.1875 3.4875
3.875 0.1875 3.55
3.875 0.25 3.4875
3.8125 0.25 3.55
3.875 0.1875 3.4875
3.8125 0.1875 3.55
3.8125 0.25 3.4875
3.8125 0.1875 3.4875
4 0.1875 3.55
4 0.25 3.4875
3.9375 0.25 3.55
4 0.1875 3.4875
3.9375 0.1875 3.55
3.9375 0.25 3.4875
3.9375 0.1875 3.4875
0.125 0.3125 3.55
0 0.3125 3.55
0.125 0.375 3.4875
0.0625 0.375 3.55
0 0.375 3.4875
0.125 0.3125 3.4875
0.0625 0.3125 3.55
0 0.3125 3.4875
0.0625 0.375 3.4875
0.0625 0.3125 3.4875
0.25 0.3125 3.55
0.25 0.375 3.4875
0.1875 0.375 3.55
0.25 0.3125 3.4875
0.1875 0.3125 3.55
0.1875 0.375 3.4875
0.1875 0.3125 3.4875
0.375 0.3125 3.55
0.375 0.375 3.4875
0.3125 0.375 3.55
0.375 0.3125 3.4875
0.3125 0.3125 3.55
0.3125 0.375 3.4875
0.3125 0.3125 3.4875
0.5 0.3125 3.55
0.5 0.375 3.4875
0.4375 0.375 3.55
0.5 0.3125 3.4875
0.4375 0.3125 3.55
0.4375 0.375 3.4875
0.4375 0.3125 3.4875
0.625 0.3125 3.55
0.625 0.375 3.4875
0.5625 0.375 3.55
0.625 0.3125 3.4875
0.5625 0.3125 3.55
0.5625 0.375 3.4875
0.5625 0.3125 3.4875
0.75 0.3125 3.55
0.75 0.375 3.4875
0.6875 0.375 3.55
0.75 0.3125 3.4875
0.6875 0.3125 3.55
0.6875 0.375 3.4875
0.6875 0.3125 3.4875
0.875 0.3125 3.55
0.875 0.375 3.4875
0.8125 0.375 3.55
0.875 0.3125 3.4875
0.8125 0.3125 3.55
0.8125 0.375 3.4875
0.8125 0.3125 3.4875
1 0.3125 3.55
1 0.375 3.4875
0.9375 0.375 3.55
1 0.3125 3.4875
0.9375 0.3125 3.55
0.9375 0.375 3.4875
0.9375 0.3125 3.4875
1.125 0.3125 3.55
1.125 0.375 3.4875
1.0625 0.375 3.55
1.125 0.3125 3.4875
1.0625 0.3125 3.55
1.0625 0.375 3.4875
1.0625 0.3125 3.4875
1.25 0.3125 3.55
1.25 0.375 3.4875
1.1875 0.375 3.55
1.25 0.3125 3.4875
1.1875 0.3125 3.55
1.1875 0.375 3.4875
1.1875 0.3125 3.4875
1.375 0.3125 3.55
1.375 0.375 3.4875
1.3125 0.375 3.55
1.375 0.3125 3.4875
1.3125 0.3125 3.55
1.3125 0.375 3.4875
1.3125 0.3125 3.4875
1.5 0.3125 3.55
1.5 0.375 3.4875
1.4375 0.375 3.55
1.5 0.3125 3.4875
1.4375 0.3125 3.55
1.4375 0.375 3.4875
1.4375 0.3125 3.4875
1.625 0.3125 3.55
1.625 0.375 3.4875
1.5625 0.375 3.55
1.625 0.3125 3.4875
1.5625 0.3125 3.55
1.5625 0.375 3.4875
1.5625 0.3125 3.4875
1.75 0.3125 3.55
1.75 0.375 3.4875
1.6875 0.375 3.55
1.75 0.3125 3.4875
1.6875 0.3125 3.55
1.6875 0.375 3.4875
1.6875 0.3125 3.4875
1.875 0.3125 3.55
1.875 0.375 3.4875
1.8125 0.375 3.55
1.875 0.3125 3.4875
1.8125 0.3125 3.55
1.8125 0.375 3.4875
1.8125 0.3125 3.4875
2 0.3125 3.55
2 0.375 3.4875
1.9375 0.375 3.55
2 0.3125 3.4875
1.9375 0.3125 3.55
1.9375 0.375 3.4875
1.9375 0.3125 3.4875
2.125 0.3125 3.55
2.125 0.375 3.4875
2.0625 0.375 3.55
2.125 0.3125 3.4875
2.0625 0.3125 3.55
2.0625 0.375 3.4875
2.0625 0.3125 3.4875
2.25 0.3125 3.55
2.25 0.375 3.4875
2.1875 0.375 3.55
2.25 0.3125 3.4875
2.1875 0.3125 3.55
2.1875 0.375 3.4875
2.1875 0.3125 3.4875
2.375 0.3125 3.55
2.375 0.375 3.4875
2.3125 0.375 3.55
2.375 0.3125 3.4875
2.3125 0.3125 3.55
2.3125 0.375 3.4875
2.3125 0.3125 3.4875
2.5 0.3125 3.55
2.5 0.375 3.4875
2.4375 0.375 3.55
2.5 0.3125 3.4875
2.4375 0.3125 3.55
2.4375 0.375 3.4875
2.4375 0.3125 3.4875
2.625 0.3125 3.55
2.625 0.375 3.4875
2.5625 0.375 3.55
2.625 0.3125 3.4875
2.5625 0.3125 3.55
2.5625 0.375 3.4875
2.5625 0.3125 3.4875
2.75 0.3125 3.55
2.75 0.375 3.4875
2.6875 0.375 3.55
2.75 0.3125 3.4875
2.6875 0.3125 3.55
2.6875 0.375 3.4875
2.6875 0.3125 3.4875
2.875 0.3125 3.55
2.875 0.375 3.4875
2.8125 0.375 3.55
2.875 0.3125 3.4875
2.8125 0.3125 3.55
2.8125 0.375 3.4875
2.8125 0.3125 3.4875
3 0.3125 3.55
3 0.375 3.4875
2.9375 0.375 3.55
3 0.3125 3.4875
2.9375 0.3125 3.55
2.9375 0.375 3.4875
2.9375 0.3125 3.4875
3.125 0.3125 3.55
3.125 0.375 3.4875
3.0625 0.375 3.55
3.125 0.3125 3.4875
3.0625 0.3125 3.55
3.0625 0.375 3.4875
3.0625 0.3125 3.4875
3.25 0.3125 3.55
3.25 0.375 3.4875
3.1875 0.375 3.55
3.25 0.3125 3.4875
3.1875 0.3125 3.55
3.1875 0.375 3.4875
3.1875 0.3125 3.4875
3.375 0.3125 3.55
3.375 0.375 3.4875
3.3125 0.375 3.55
3.375 0.3125 3.4875
3.3125 0.3125 3.55
3.3125 0.375 3.4875
3.3125 0.3125 3.4875
3.5 0.3125 3.55
3.5 0.375 3.4875
3.4375 0.375 3.55
3.5 0.3125 3.4875
3.4375 0.3125 3.55
3.4375 0.375 3.4875
3.4375 0.3125 3.4875
3.625 0.3125 3.55
3.625 0.375 3.4875
3.5625 0.375 3.55
3.625 0.3125 3.4875
3.5625 0.3125 3.55
3.5625 0.375 3.4875
3.5625 0.3125 3.4875
3.75 0.3125 3.55
3.75 0.375 3.4875
3.6875 0.375 3.55
3.75 0.3125 3.4875
3.6875 0.3125 3.55
3.6875 0.375 3.4875
3.6875 0.3125 3.4875
3.875 0.3125 3.55
3.875 0.375 3.4875
3.8125 0.375 3.55
3.875 0.3125 3.4875
3.8125 0.3125 3.55
3.8125 0.375 3.4875
3.8125 0.3125 3.4875
4 0.3125 3.55
4 0.375 3.4875
3.9375 0.375 3.55
4 0.3125 3.4875
3.9375 0.3125 3.55
3.9375 0.375 3.4875
3.9375 0.3125 3.4875
0.125 0.4375 3.55
0 0.4375 3.55
0.125 0.5 3.4875
0.0625 0.5 3.55
0 0.5 3.4875
0.125 0.4375 3.4875
0.0625 0.4375 3.55
0 0.4375 3.4875
0.0625 0.5 3.4875
0.0625 0.4375 3.4875
0.25 0.4375 3.55
0.25 0.5 3.4875
0.1875 0.5 3.55
0.25 0.4375 3.4875
0.1875 0.4375 3.55
0.1875 0.5 3.4875
0.1875 0.4375 3.4875
0.375 0.4375 3.55
0.375 0.5 3.4875
0.3125 0.5 3.55
0.375 0.4375 3.4875
0.3125 0.4375 3.55
0.3125 0.5 3.4875
0.3125 0.4375 3.4875
0.5 0.4375 3.55
0.5 0.5 3.4875
0.4375 0.5 3.55
0.5 0.4375 3.4875
0.4375 0.4375 3.55
0.4375 0.5 3.4875
0.4375 0.4375 3.4875
0.625 0.4375 3.55
0.625 0.5 3.4875
0.5625 0.5 3.55
0.625 0.4375 3.4875
0.5625 0.4375 3.55
0.5625 0.5 3.4875
0.5625 0.4375 3.4875
0.75 0.4375 3.55
0.75 0.5 3.4875
0.6875 0.5 3.55
0.75 0.4375 3.4875
0.6875 0.4375 3.55
0.6875 0.5 3.4875
0.6875 0.4375 3.4875
0.875 0.4375 3.55
0.875 0.5 3.4875
0.8125 0.5 3.55
0.875 0.4375 3.4875
0.8125 0.4375 3.55
0.8125 0.5 3.4875
0.8125 0.4375 3.4875
1 0.4375 3.55
1 0.5 3.4875
0.9375 0.5 3.55
1 0.4375 3.4875
0.9375 0.4375 3.55
0.9375 0.5 3.4875
0.9375 0.4375 3.4875
1.125 0.4375 3.55
1.125 0.5 3.4875
1.0625 0.5 3.55
1.125 0.4375 3.4875
1.0625 0.4375 3.55
1.0625 0.5 3.4875
1.0625 0.4375 3.4875
1.25 0.4375 3.55
1.25 0.5 3.4875
1.1875 0.5 3.55
1.25 0.4375 3.4875
1.1875 0.4375 3.55
1.1875 0.5 3.4875
1.1875 0.4375 3.4875
1.375 0.4375 3.55
1.375 0.5 3.4875
1.3125 0.5 3.55
1.375 0.4375 3.4875
1.3125 0.4375 3.55
1.3125 0.5 3.4875
1.3125 0.4375 3.4875
1.5 0.4375 3.55
1.5 0.5 3.4875
1.4375 0.5 3.55
1.5 0.4375 3.4875
1.4375 0.4375 3.55
1.4375 0.5 3.4875
1.4375 0.4375 3.4875
1.625 0.4375 3.55
1.625 0.5 3.4875
1.5625 0.5 3.55
1.625 0.4375 3.4875
1.5625 0.4375 3.55
1.5625 0.5 3.4875
1.5625 0.4375 3.4875
1.75 0.4375 3.55
1.75 0.5 3.4875
1.6875 0.5 3.55
1.75 0.4375 3.4875
1.6875 0.4375 3.55
1.6875 0.5 3.4875
1.6875 0.4375 3.4875
1.875 0.4375 3.55
1.875 0.5 3.4875
1.8125 0.5 3.55
1.875 0.4375 3.4875
1.8125 0.4375 3.55
1.8125 0.5 3.4875
1.8125 0.4375 3.4875
2 0.4375 3.55
2 0.5 3.4875
1.9375 0.5 3.55
2 0.4375 3.4875
1.9375 0.4375 3.55
1.9375 0.5 3.4875
1.9375 0.4375 3.4875
2.125 0.4375 3.55
2.125 0.5 3.4875
2.0625 0.5 3.55
2.125 0.4375 3.4875
2.0625 0.4375 3.55
2.0625 0.5 3.4875
2.0625 0.4375 3.4875
2.25 0.4375 3.55
2.25 0.5 3.4875
2.1875 0.5 3.55
2.25 0.4375 3.4875
2.1875 0.4375 3.55
2.1875 0.5 3.4875
2.1875 0.4375 3.4875
2.375 0.4375 3.55
2.375 0.5 3.4875
2.3125 0.5 3.55
2.375 0.4375 3.4875
2.3125 0.4375 3.55
2.3125 0.5 3.4875
2.3125 0.4375 3.4875
2.5 0.4375 3.55
2.5 0.5 3.4875
2.4375 0.5 3.55
2.5 0.4375 3.4875
2.4375 0.4375 3.55
2.4375 0.5 3.4875
2.4375 0.4375 3.4875
2.625 0.4375 3.55
2.625 0.5 3.4875
2.5625 0.5 3.55
2.625 0.4375 3.4875
2.5625 0.4375 3.55
2.5625 0.5 3.4875
2.5625 0.4375 3.4875
2.75 0.4375 3.55
2.75 0.5 3.4875
2.6875 0.5 3.55
2.75 0.4375 3.4875
2.6875 0.4375 3.55
2.6875 0.5 3.4875
2.6875 0.4375 3.4875
2.875 0.4375 3.55
2.875 0.5 3.4875
2.8125 0.5 3.55
2.875 0.4375 3.4875
2.8125 0.4375 3.55
2.8125 0.5 3.4875
2.8125 0.4375 3.4875
3 0.4375 3.55
3 0.5 3.4875
2.9375 0.5 3.55
3 0.4375 3.4875
2.9375 0.4375 3.55
2.9375 0.5 3.4875
2.9375 0.4375 3.4875
3.125 0.4375 3.55
3.125 0.5 3.4875
3.0625 0.5 3.55
3.125 0.4375 3.4875
3.0625 0.4375 3.55
3.0625 0.5 3.4875
3.0625 0.4375 3.4875
3.25 0.4375 3.55
3.25 0.5 3.4875
3.1875 0.5 3.55
3.25 0.4375 3.4875
3.1875 0.4375 3.55
3.1875 0.5 3.4875
3.1875 0.4375 3.4875
3.375 0.4375 3.55
3.375 0.5 3.4875
3.3125 0.5 3.55
3.375 0.4375 3.4875
3.3125 0.4375 3.55
3.3125 0.5 3.4875
3.3125 0.4375 3.4875
3.5 0.4375 3.55
3.5 0.5 3.4875
3.4375 0.5 3.55
3.5 0.4375 3.4875
3.4375 0.4375 3.55
3.4375 0.5 3.4875
3.4375 0.4375 3.4875
3.625 0.4375 3.55
3.625 0.5 3.4875
3.5625 0.5 3.55
3.625 0.4375 3.4875
3.5625 0.4375 3.55
3.5625 0.5 3.4875
3.5625 0.4375 3.4875
3.75 0.4375 3.55
3.75 0.5 3.4875
3.6875 0.5 3.55
3.75 0.4375 3.4875
3.6875 0.4375 3.55
3.6875 0.5 3.4875
3.6875 0.4375 3.4875
3.875 0.4375 3.55
3.875 0.5 3.4875
3.8125 0.5 3.55
3.875 0.4375 3.4875
3.8125 0.4375 3.55
3.8125 0.5 3.4875
3.8125 0.4375 3.4875
4 0.4375 3.55
4 0.5 3.4875
3.9375 0.5 3.55
4 0.4375 3.4875
3.9375 0.4375 3.55
3.9375 0.5 3.4875
3.9375 0.4375 3.4875
0.125 0.5625 3.55
0 0.5625 3.55
0.125 0.625 3.4875
0.0625 0.625 3.55
0 0.625 3.4875
0.125 0.5625 3.4875
0.0625 0.5625 3.55
0 0.5625 3.4875
0.0625 0.625 3.4875
0.0625 0.5625 3.4875
0.25 0.5625 3.55
0.25 0.625 3.4875
0.1875 0.625 3.55
0.25 0.5625 3.4875
0.1875 0.5625 3.55
0.1875 0.625 3.4875
0.1875 0.5625 3.4875
0.375 0.5625 3.55
0.375 0.625 3.4875
0.3125 0.625 3.55
0.375 0.5625 3.4875
0.3125 0.5625 3.55
0.3125 0.625 3.4875
0.3125 0.5625 3.4875
0.5 0.5625 3.55
0.5 0.625 3.4875
0.4375 0.625 3.55
0.5 0.5625 3.4875
0.4375 0.5625 3.55
0.4375 0.625 3.4875
0.4375 0.5625 3.4875
0.625 0.5625 3.55
0.625 0.625 3.4875
0.5625 0.625 3.55
0.625 0.5625 3.4875
0.5625 0.5625 3.55
0.5625 0.625 3.4875
0.5625 0.5625 3.4875
0.75 0.5625 3.55
0.75 0.625 3.4875
0.6875 0.625 3.55
0.75 0.5625 3.4875
0.6875 0.5625 3.55
0.6875 0.625 3.4875
0.6875 0.5625 3.4875
0.875 0.5625 3.55
0.875 0.625 3.4875
0.8125 0.625 3.55
0.875 0.5625 3.4875
0.8125 0.5625 3.55
0.8125 0.625 3.4875
0.8125 0.5625 3.4875
1 0.5625 3.55
1 0.625 3.4875
0.9375 0.625 3.55
1 0.5625 3.4875
0.9375 0.5625 3.55
0.9375 0.625 3.4875
0.9375 0.5625 3.4875
1.125 0.5625 3.55
1.125 0.625 3.4875
1.0625 0.625 3.55
1.125 0.5625 3.4875
1.0625 0.5625 3.55
1.0625 0.625 3.4875
1.0625 0.5625 3.4875
1.25 0.5625 3.55
1.25 0.625 3.4875
1.1875 0.625 3.55
1.25 0.5625 3.4875
1.1875 0.5625 3.55
1.1875 0.625 3.4875
1.1875 0.5625 3.4875
1.375 0.5625 3.55
1.375 0.625 3.4875
1.3125 0.625 3.55
1.375 0.5625 3.4875
1.3125 0.5625 3.55
1.3125 0.625 3.4875
1.3125 0.5625 3.4875
1.5 0.5625 3.55
1.5 0.625 3.4875
1.4375 0.625 3.55
1.5 0.5625 3.4875
1.4375 0.5625 3.55
1.4375 0.625 3.4875
1.4375 0.5625 3.4875
1.625 0.5625 3.55
1.625 0.625 3.4875
1.5625 0.625 3.55
1.625 0.5625 3.4875
1.5625 0.5625 3.55
1.5625 0.625 3.4875
1.5625 0.5625 3.4875
1.75 0.5625 3.55
1.75 0.625 3.4875
1.6875 0.625 3.55
1.75 0.5625 3.4875
1.6875 0.5625 3.55
1.6875 0.625 3.4875
1.6875 0.5625 3.4875
1.875 0.5625 3.55
1.875 0.625 3.4875
1.8125 0.625 3.55
1.875 0.5625 3.4875
1.8125 0.5625 3.55
1.8125 0.625 3.4875
1.8125 0.5625 3.4875
2 0.5625 3.55
2 0.625 3.4875
1.9375 0.625 3.55
2 0.5625 3.4875
1.9375 0.5625 3.55
1.9375 0.625 3.4875
1.9375 0.5625 3.4875
2.125 0.5625 3.55
2.125 0.625 3.4875
2.0625 0.625 3.55
2.125 0.5625 3.4875
2.0625 0.5625 3.55
2.0625 0.625 3.4875
2.0625 0.5625 3.4875
2.25 0.5625 3.55
2.25 0.625 3.4875
2.1875 0.625 3.55
2.25 0.5625 3.4875
2.1875 0.5625 3.55
2.1875 0.625 3.4875
2.1875 0.5625 3.4875
2.375 0.5625 3.55
2.375 0.625 3.4875
2.3125 0.625 3.55
2.375 0.5625 3.4875
2.3125 0.5625 3.55
2.3125 0.625 3.4875
2.3125 0.5625 3.4875
2.5 0.5625 3.55
2.5 0.625 3.4875
2.4375 0.625 3.55
2.5 0.5625 3.4875
2.4375 0.5625 3.55
2.4375 0.625 3.4875
2.4375 0.5625 3.4875
2.625 0.5625 3.55
2.625 0.625 3.4875
2.5625 0.625 3.55
2.625 0.5625 3.4875
2.5625 0.5625 3.55
2.5625 0.625 3.4875
2.5625 0.5625 3.4875
2.75 0.5625 3.55
2.75 0.625 3.4875
2.6875 0.625 3.55
2.75 0.5625 3.4875
2.6875 0.5625 3.55
2.6875 0.625 3.4875
2.6875 0.5625 3.4875
2.875 0.5625 3.55
2.875 0.625 3.4875
2.8125 0.625 3.55
2.875 0.5625 3.4875
2.8125 0.5625 3.55
2.8125 0.625 3.4875
2.8125 0.5625 3.4875
3 0.5625 3.55
3 0.625 3.4875
2.9375 0.625 3.55
3 0.5625 3.4875
2.9375 0.5625 3.55
2.9375 0.625 3.4875
2.9375 0.5625 3.4875
3.125 0.5625 3.55
3.125 0.625 3.4875
3.0625 0.625 3.55
3.125 0.5625 3.4875
3.0625 0.5625 3.55
3.0625 0.625 3.4875
3.0625 0.5625 3.4875
3.25 0.5625 3.55
3.25 0.625 3.4875
3.1875 0.625 3.55
3.25 0.5625 3.4875
3.1875 0.5625 3.55
3.1875 0.625 3.4875
3.1875 0.5625 3.4875
3.375 0.5625 3.55
3.375 0.625 3.4875
3.3125 0.625 3.55
3.375 0.5625 3.4875
3.3125 0.5625 3.55
3.3125 0.625 3.4875
3.3125 0.5625 3.4875
3.5 0.5625 3.55
3.5 0.625 3.4875
3.4375 0.625 3.55
3.5 0.5625 3.4875
3.4375 0.5625 3.55
3.4375 0.625 3.4875
3.4375 0.5625 3.4875
3.625 0.5625 3.55
3.625 0.625 3.4875
3.5625 0.625 3.55
3.625 0.5625 3.4875
3.5625 0.5625 3.55
3.5625 0.625 3.4875
3.5625 0.5625 3.4875
3.75 0.5625 3.55
3.75 0.625 3.4875
3.6875 0.625 3.55
3.75 0.5625 3.4875
3.6875 0.5625 3.55
3.6875 0.625 3.4875
3.6875 0.5625 3.4875
3.875 0.5625 3.55
3.875 0.625 3.4875
3.8125 0.625 3.55
3.875 0.5625 3.4875
3.8125 0.5625 3.55
3.8125 0.625 3.4875
3.8125 0.5625 3.4875
4 0.5625 3.55
4 0.625 3.4875
3.9375 0.625 3.55
4 0.5625 3.4875
3.9375 0.5625 3.55
3.9375 0.625 3.4875
3.9375 0.5625 3.4875
0.125 0.6875 3.55
0 0.6875 3.55
0.125 0.75 3.4875
0.0625 0.75 3.55
0 0.75 3.4875
0.125 0.6875 3.4875
0.0625 0.6875 3.55
0 0.6875 3.4875
0.0625 0.75 3.4875
0.0625 0.6875 3.4875
0.25 0.6875 3.55
0.25 0.75 3.4875
0.1875 0.75 3.55
0.25 0.6875 3.4875
0.1875 0.6875 3.55
0.1875 0.75 3.4875
0.1875 0.6875 3.4875
0.375 0.6875 3.55
0.375 0.75 3.4875
0.3125 0.75 3.55
0.375 0.6875 3.4875
0.3125 0.6875 3.55
0.3125 0.75 3.4875
0.3125 0.6875 3.4875
0.5 0.6875 3.55
0.5 0.75 3.4875
0.4375 0.75 3.55
0.5 0.6875 3.4875
0.4375 0.6875 3.55
0.4375 0.75 3.4875
0.4375 0.6875 3.4875
0.625 0.6875 3.55
0.625 0.75 3.4875
0.5625 0.75 3.55
0.625 0.6875 3.4875
0.5625 0.6875 3.55
0.5625 0.75 3.4875
0.5625 0.6875 3.4875
0.75 0.6875 3.55
0.75 0.75 3.4875
0.6875 0.75 3.55
0.75 0.6875 3.4875
0.6875 0.6875 3.55
0.6875 0.75 3.4875
0.6875 0.6875 3.4875
0.875 0.6875 3.55
0.875 0.75 3.4875
0.8125 0.75 3.55
0.875 0.6875 3.4875
0.8125 0.6875 3.55
0.8125 0.75 3.4875
0.8125 0.6875 3.4875
1 0.6875 3.55
1 0.75 3.4875
0.9375 0.75 3.55
1 0.6875 3.4875
0.9375 0.6875 3.55
0.9375 0.75 3.4875
0.9375 0.6875 3.4875
1.125 0.6875 3.55
1.125 0.75 3.4875
1.0625 0.75 3.55
1.125 0.6875 3.4875
1.0625 0.6875 3.55
1.0625 0.75 3.4875
1.0625 0.6875 3.4875
1.25 0.6875 3.55
1.25 0.75 3.4875
1.1875 0.75 3.55
1.25 0.6875 3.4875
1.1875 0.6875 3.55
1.1875 0.75 3.4875
1.1875 0.6875 3.4875
1.375 0.6875 3.55
1.375 0.75 3.4875
1.3125 0.75 3.55
1.375 0.6875 3.4875
1.3125 0.6875 3.55
1.3125 0.75 3.4875
1.3125 0.6875 3.4875
1.5 0.6875 3.55
1.5 0.75 3.4875
1.4375 0.75 3.55
1.5 0.6875 3.4875
1.4375 0.6875 3.55
1.4375 0.75 3.4875
1.4375 0.6875 3.4875
1.625 0.6875 3.55
1.625 0.75 3.4875
1.5625 0.75 3.55
1.625 0.6875 3.4875
1.5625 0.6875 3.55
1.5625 0.75 3.4875
1.5625 0.6875 3.4875
1.75 0.6875 3.55
1.75 0.75 3.4875
1.6875 0.75 3.55
1.75 0.6875 3.4875
1.6875 0.6875 3.55
1.6875 0.75 3.4875
1.6875 0.6875 3.4875
1.875 0.6875 3.55
1.875 0.75 3.4875
1.8125 0.75 3.55
1.875 0.6875 3.4875
1.8125 0.6875 3.55
1.8125 0.75 3.4875
1.8125 0.6875 3.4875
2 0.6875 3.55
2 0.75 3.4875
1.9375 0.75 3.55
2 0.6875 3.4875
1.9375 0.6875 3.55
1.9375 0.75 3.4875
1.9375 0.6875 3.4875
2.125 0.6875 3.55
2.125 0.75 3.4875
2.0625 0.75 3.55
2.125 0.6875 3.4875
2.0625 0.6875 3.55
2.0625 0.75 3.4875
2.0625 0.6875 3.4875
2.25 0.6875 3.55
2.25 0.75 3.4875
2.1875 0.75 3.55
2.25 0.6875 3.4875
2.1875 0.6875 3.55
2.1875 0.75 3.4875
2.1875 0.6875 3.4875
2.375 0.6875 3.55
2.375 0.75 3.4875
2.3125 0.75 3.55
2.375 0.6875 3.4875
2.3125 0.6875 3.55
2.3125 0.75 3.4875
2.3125 0.6875 3.4875
2.5 0.6875 3.55
2.5 0.75 3.4875
2.4375 0.75 3.55
2.5 0.6875 3.4875
2.4375 0.6875 3.55
2.4375 0.75 3.4875
2.4375 0.6875 3.4875
2.625 0.6875 3.55
2.625 0.75 3.4875
2.5625 0.75 3.55
2.625 0.6875 3.4875
2.5625 0.6875 3.55
2.5625 0.75 3.4875
2.5625 0.6875 3.4875
2.75 0.6875 3.55
2.75 0.75 3.4875
2.6875 0.75 3.55
2.75 0.6875 3.4875
2.6875 0.6875 3.55
2.6875 0.75 3.4875
2.6875 0.6875 3.4875
2.875 0.6875 3.55
2.875 0.75 3.4875
2.8125 0.75 3.55
2.875 0.6875 3.4875
2.8125 0.6875 3.55
2.8125 0.75 3.4875
2.8125 0.6875 3.4875
3 0.6875 3.55
3 0.75 3.4875
2.9375 0.75 3.55
3 0.6875 3.4875
2.9375 0.6875 3.55
2.9375 0.75 3.4875
2.9375 0.6875 3.4875
3.125 0.6875 3.55
3.125 0.75 3.4875
3.0625 0.75 3.55
3.125 0.6875 3.4875
3.0625 0.6875 3.55
3.0625 0.75 3.4875
3.0625 0.6875 3.4875
3.25 0.6875 3.55
3.25 0.75 3.4875
3.1875 0.75 3.55
3.25 0.6875 3.4875
3.1875 0.6875 3.55
3.1875 0.75 3.4875
3.1875 0.6875 3.4875
3.375 0.6875 3.55
3.375 0.75 3.4875
3.3125 0.75 3.55
3.375 0.6875 3.4875
3.3125 0.6875 3.55
3.3125 0.75 3.4875
3.3125 0.6875 3.4875
3.5 0.6875 3.55
3.5 0.75 3.4875
3.4375 0.75 3.55
3.5 0.6875 3.4875
3.4375 0.6875 3.55
3.4375 0.75 3.4875
3.4375 0.6875 3.4875
3.625 0.6875 3.55
3.625 0.75 3.4875
3.5625 0.75 3.55
3.625 0.6875 3.4875
3.5625 0.6875 3.55
3.5625 0.75 3.4875
3.5625 0.6875 3.4875
3.75 0.6875 3.55
3.75 0.75 3.4875
3.6875 0.75 3.55
3.75 0.6875 3.4875
3.6875 0.6875 3.55
3.6875 0.75 3.4875
3.6875 0.6875 3.4875
3.875 0.6875 3.55
3.875 0.75 3.4875
3.8125 0.75 3.55
3.875 0.6875 3.4875
3.8125 0.6875 3.55
3.8125 0.75 3.4875
3.8125 0.6875 3.4875
4 0.6875 3.55
4 0.75 3.4875
3.9375 0.75 3.55
4 0.6875 3.4875
3.9375 0.6875 3.55
3.9375 0.75 3.4875
3.9375 0.6875 3.4875
0.125 0.8125 3.55
0 0.8125 3.55
0.125 0.875 3.4875
0.0625 0.875 3.55
0 0.875 3.4875
0.125 0.8125 3.4875
0.0625 0.8125 3.55
0 0.8125 3.4875
0.0625 0.875 3.4875
0.0625 0.8125 3.4875
0.25 0.8125 3.55
0.25 0.875 3.4875
0.1875 0.875 3.55
0.25 0.8125 3.4875
0.1875 0.8125 3.55
0.1875 0.875 3.4875
0.1875 0.8125 3.4875
0.375 0.8125 3.55
0.375 0.875 3.4875
0.3125 0.875 3.55
0.375 0.8125 3.4875
0.3125 0.8125 3.55
0.3125 0.875 3.4875
0.3125 0.8125 3.4875
0.5 0.8125 3.55
0.5 0.875 3.4875
0.4375 0.875 3.55
0.5 0.8125 3.4875
0.4375 0.8125 3.55
0.4375 0.875 3.4875
0.4375 0.8125 3.4875
0.625 0.8125 3.55
0.625 0.875 3.4875
0.5625 0.875 3.55
0.625 0.8125 3.4875
0.5625 0.8125 3.55
0.5625 0.875 3.4875
0.5625 0.8125 3.4875
0.75 0.8125 3.55
0.75 0.875 3.4875
0.6875 0.875 3.55
0.75 0.8125 3.4875
0.6875 0.8125 3.55
0.6875 0.875 3.4875
0.6875 0.8125 3.4875
0.875 0.8125 3.55
0.875 0.875 3.4875
0.8125 0.875 3.55
0.875 0.8125 3.4875
0.8125 0.8125 3.55
0.8125 0.875 3.4875
0.8125 0.8125 3.4875
1 0.8125 3.55
1 0.875 3.4875
0.9375 0.875 3.55
1 0.8125 3.4875
0.9375 0.8125 3.55
0.9375 0.875 3.4875
0.9375 0.8125 3.4875
1.125 0.8125 3.55
1.125 0.875 3.4875
1.0625 0.875 3.55
1.125 0.8125 3.4875
1.0625 0.8125 3.55
1.0625 0.875 3.4875
1.0625 0.8125 3.4875
1.25 0.8125 3.55
1.25 0.875 3.4875
1.1875 0.875 3.55
1.25 0.8125 3.4875
1.1875 0.8125 3.55
1.1875 0.875 3.4875
1.1875 0.8125 3.4875
1.375 0.8125 3.55
1.375 0.875 3.4875
1.3125 0.875 3.55
1.375 0.8125 3.4875
1.3125 0.8125 3.55
1.3125 0.875 3.4875
1.3125 0.8125 3.4875
1.5 0.8125 3.55
1.5 0.875 3.4875
1.4375 0.875 3.55
1.5 0.8125 3.4875
1.4375 0.8125 3.55
1.4375 0.875 3.4875
1.4375 0.8125 3.4875
1.625 0.8125 3.55
1.625 0.875 3.4875
1.5625 0.875 3.55
1.625 0.8125 3.4875
1.5625 0.8125 3.55
1.5625 0.875 3.4875
1.5625 0.8125 3.4875
1.75 0.8125 3.55
1.75 0.875 3.4875
1.6875 0.875 3.55
1.75 0.8125 3.4875
1.6875 0.8125 3.55
1.6875 0.875 3.4875
1.6875 0.8125 3.4875
1.875 0.8125 3.55
1.875 0.875 3.4875
1.8125 0.875 3.55
1.875 0.8125 3.4875
1.8125 0.8125 3.55
1.8125 0.875 3.4875
1.8125 0.8125 3.4875
2 0.8125 3.55
2 0.875 3.4875
1.9375 0.875 3.55
2 0.8125 3.4875
1.9375 0.8125 3.55
1.9375 0.875 3.4875
1.9375 0.8125 3.4875
2.125 0.8125 3.55
2.125 0.875 3.4875
2.0625 0.875 3.55
2.125 0.8125 3.4875
2.0625 0.8125 3.55
2.0625 0.875 3.4875
2.0625 0.8125 3.4875
2.25 0.8125 3.55
2.25 0.875 3.4875
2.1875 0.875 3.55
2.25 0.8125 3.4875
2.1875 0.8125 3.55
2.1875 0.875 3.4875
2.1875 0.8125 3.4875
2.375 0.8125 3.55
2.375 0.875 3.4875
2.3125 0.875 3.55
2.375 0.8125 3.4875
2.3125 0.8125 3.55
2.3125 0.875 3.4875
2.3125 0.8125 3.4875
2.5 0.8125 3.55
2.5 0.875 3.4875
2.4375 0.875 3.55
2.5 0.8125 3.4875
2.4375 0.8125 3.55
2.4375 0.875 3.4875
2.4375 0.8125 3.4875
2.625 0.8125 3.55
2.625 0.875 3.4875
2.5625 0.875 3.55
2.625 0.8125 3.4875
2.5625 0.8125 3.55
2.5625 0.875 3.4875
2.5625 0.8125 3.4875
2.75 0.8125 3.55
2.75 0.875 3.4875
2.6875 0.875 3.55
2.75 0.8125 3.4875
2.6875 0.8125 3.55
2.6875 0.875 3.4875
2.6875 0.8125 3.4875
2.875 0.8125 3.55
2.875 0.875 3.4875
2.8125 0.875 3.55
2.875 0.8125 3.4875
2.8125 0.8125 3.55
2.8125 0.875 3.4875
2.8125 0.8125 3.4875
3 0.8125 3.55
3 0.875 3.4875
2.9375 0.875 3.55
3 0.8125 3.4875
2.9375 0.8125 3.55
2.9375 0.875 3.4875
2.9375 0.8125 3.4875
3.125 0.8125 3.55
3.125 0.875 3.4875
3.0625 0.875 3.55
3.125 0.8125 3.4875
3.0625 0.8125 3.55
3.0625 0.875 3.4875
3.0625 0.8125 3.4875
3.25 0.8125 3.55
3.25 0.875 3.4875
3.1875 0.875 3.55
3.25 0.8125 3.4875
3.1875 0.8125 3.55
3.1875 0.875 3.4875
3.1875 0.8125 3.4875
3.375 0.8125 3.55
3.375 0.875 3.4875
3.3125 0.875 3.55
3.375 0.8125 3.4875
3.3125 0.8125 3.55
3.3125 0.875 3.4875
3.3125 0.8125 3.4875
3.5 0.8125 3.55
3.5 0.875 3.4875
3.4375 0.875 3.55
3.5 0.8125 3.4875
3.4375 0.8125 3.55
3.4375 0.875 3.4875
3.4375 0.8125 3.4875
3.625 0.8125 3.55
3.625 0.875 3.4875
3.5625 0.875 3.55
3.625 0.8125 3.4875
3.5625 0.8125 3.55
3.5625 0.875 3.4875
3.5625 0.8125 3.4875
3.75 0.8125 3.55
3.75 0.875 3.4875
3.6875 0.875 3.55
3.75 0.8125 3.4875
3.6875 0.8125 3.55
3.6875 0.875 3.4875
3.6875 0.8125 3.4875
3.875 0.8125 3.55
3.875 0.875 3.4875
3.8125 0.875 3.55
3.875 0.8125 3.4875
3.8125 0.8125 3.55
3.8125 0.875 3.4875
3.8125 0.8125 3.4875
4 0.8125 3.55
4 0.875 3.4875
3.9375 0.875 3.55
4 0.8125 3.4875
3.9375 0.8125 3.55
3.9375 0.875 3.4875
3.9375 0.8125 3.4875
0.125 0.9375 3.55
0 0.9375 3.55
0.125 1 3.4875
0.0625 1 3.55
0 1 3.4875
0.125 0.9375 3.4875
0.0625 0.9375 3.55
0 0.9375 3.4875
0.0625 1 3.4875
0.0625 0.9375 3.4875
0.25 0.9375 3.55
0.25 1 3.4875
0.1875 1 3.55
0.25 0.9375 3.4875
0.1875 0.9375 3.55
0.1875 1 3.4875
0.1875 0.9375 3.4875
0.375 0.9375 3.55
0.375 1 3.4875
0.3125 1 3.55
0.375 0.9375 3.4875
0.3125 0.9375 3.55
0.3125 1 3.4875
0.3125 0.9375 3.4875
0.5 0.9375 3.55
0.5 1 3.4875
0.4375 1 3.55
0.5 0.9375 3.4875
0.4375 0.9375 3.55
0.4375 1 3.4875
0.4375 0.9375 3.4875
0.625 0.9375 3.55
0.625 1 3.4875
0.5625 1 3.55
0.625 0.9375 3.4875
0.5625 0.9375 3.55
0.5625 1 3.4875
0.5625 0.9375 3.4875
0.75 0.9375 3.55
0.75 1 3.4875
0.6875 1 3.55
0.75 0.9375 3.4875
0.6875 0.9375 3.55
0.6875 1 3.4875
0.6875 0.9375 3.4875
0.875 0.9375 3.55
0.875 1 3.4875
0.8125 1 3.55
0.875 0.9375 3.4875
0.8125 0.9375 3.55
0.8125 1 3.4875
0.8125 0.9375 3.4875
1 0.9375 3.55
1 1 3.4875
0.9375 1 3.55
1 0.9375 3.4875
0.9375 0.9375 3.55
0.9375 1 3.4875
0.9375 0.9375 3.4875
1.125 0.9375 3.55
1.125 1 3.4875
1.0625 1 3.55
1.125 0.9375 3.4875
1.0625 0.9375 3.55
1.0625 1 3.4875
1.0625 0.9375 3.4875
1.25 0.9375 3.55
1.25 1 3.4875
1.1875 1 3.55
1.25 0.9375 3.4875
1.1875 0.9375 3.55
1.1875 1 3.4875
1.1875 0.9375 3.4875
1.375 0.9375 3.55
1.375 1 3.4875
1.3125 1 3.55
1.375 0.9375 3.4875
1.3125 0.9375 3.55
1.3125 1 3.4875
1.3125 0.9375 3.4875
1.5 0.9375 3.55
1.5 1 3.4875
1.4375 1 3.55
1.5 0.9375 3.4875
1.4375 0.9375 3.55
1.4375 1 3.4875
1.4375 0.9375 3.4875
1.625 0.9375 3.55
1.625 1 3.4875
1.5625 1 3.55
1.625 0.9375 3.4875
1.5625 0.9375 3.55
1.5625 1 3.4875
1.5625 0.9375 3.4875
1.75 0.9375 3.55
1.75 1 3.4875
1.6875 1 3.55
1.75 0.9375 3.4875
1.6875 0.9375 3.55
1.6875 1 3.4875
1.6875 0.9375 3.4875
1.875 0.9375 3.55
1.875 1 3.4875
1.8125 1 3.55
1.875 0.9375 3.4875
1.8125 0.9375 3.55
1.8125 1 3.4875
1.8125 0.9375 3.4875
2 0.9375 3.55
2 1 3.4875
1.9375 1 3.55
2 0.9375 3.4875
1.9375 0.9375 3.55
1.9375 1 3.4875
1.9375 0.9375 3.4875
2.125 0.9375 3.55
2.125 1 3.4875
2.0625 1 3.55
2.125 0.9375 3.4875
2.0625 0.9375 3.55
2.0625 1 3.4875
2.0625 0.9375 3.4875
2.25 0.9375 3.55
2.25 1 3.4875
2.1875 1 3.55
2.25 0.9375 3.4875
2.1875 0.9375 3.55
2.1875 1 3.4875
2.1875 0.9375 3.4875
2.375 0.9375 3.55
2.375 1 3.4875
2.3125 1 3.55
2.375 0.9375 3.4875
2.3125 0.9375 3.55
2.3125 1 3.4875
2.3125 0.9375 3.4875
2.5 0.9375 3.55
2.5 1 3.4875
2.4375 1 3.55
2.5 0.9375 3.4875
2.4375 0.9375 3.55
2.4375 1 3.4875
2.4375 0.9375 3.4875
2.625 0.9375 3.55
2.625 1 3.4875
2.5625 1 3.55
2.625 0.9375 3.4875
2.5625 0.9375 3.55
2.5625 1 3.4875
2.5625 0.9375 3.4875
2.75 0.9375 3.55
2.75 1 3.4875
2.6875 1 3.55
2.75 0.9375 3.4875
2.6875 0.9375 3.55
2.6875 1 3.4875
2.6875 0.9375 3.4875
2.875 0.9375 3.55
2.875 1 3.4875
2.8125 1 3.55
2.875 0.9375 3.4875
2.8125 0.9375 3.55
2.8125 1 3.4875
2.8125 0.9375 3.4875
3 0.9375 3.55
3 1 3.4875
2.9375 1 3.55
3 0.9375 3.4875
2.9375 0.9375 3.55
2.9375 1 3.4875
2.9375 0.9375 3.4875
3.125 0.9375 3.55
3.125 1 3.4875
3.0625 1 3.55
3.125 0.9375 3.4875
3.0625 0.9375 3.55
3.0625 1 3.4875
3.0625 0.9375 3.4875
3.25 0.9375 3.55
3.25 1 3.4875
3.1875 1 3.55
3.25 0.9375 3.4875
3.1875 0.9375 3.55
3.1875 1 3.4875
3.1875 0.9375 3.4875
3.375 0.9375 3.55
3.375 1 3.4875
3.3125 1 3.55
3.375 0.9375 3.4875
3.3125 0.9375 3.55
3.3125 1 3.4875
3.3125 0.9375 3.4875
3.5 0.9375 3.55
3.5 1 3.4875
3.4375 1 3.55
3.5 0.9375 3.4875
3.4375 0.9375 3.55
3.4375 1 3.4875
3.4375 0.9375 3.4875
3.625 0.9375 3.55
3.625 1 3.4875
3.5625 1 3.55
3.625 0.9375 3.4875
3.5625 0.9375 3.55
3.5625 1 3.4875
3.5625 0.9375 3.4875
3.75 0.9375 3.55
3.75 1 3.4875
3.6875 1 3.55
3.75 0.9375 3.4875
3.6875 0.9375 3.55
3.6875 1 3.4875
3.6875 0.9375 3.4875
3.875 0.9375 3.55
3.875 1 3.4875
3.8125 1 3.55
3.875 0.9375 3.4875
3.8125 0.9375 3.55
3.8125 1 3.4875
3.8125 0.9375 3.4875
4 0.9375 3.55
4 1 3.4875
3.9375 1 3.55
4 0.9375 3.4875
3.9375 0.9375 3.55
3.9375 1 3.4875
3.9375 0.9375 3.4875
0.125 0 3.6125
0.0625 0 3.675
0 0 3.6125
0.125 0.0625 3.675
0 0.0625 3.675
0.125 0.125 3.6125
0.0625 0.125 3.675
0 0.125 3.6125
0.0625 0 3.6125
0.125 0.0625 3.6125
0.0625 0.0625 3.675
0 0.0625 3.6125
0.0625 0.125 3.6125
0.0625 0.0625 3.6125
0.25 0 3.6125
0.1875 0 3.675
0.25 0.0625 3.675
0.25 0.125 3.6125
0.1875 0.125 3.675
0.1875 0 3.6125
0.25 0.0625 3.6125
0.1875 0.0625 3.675
0.1875 0.125 3.6125
0.1875 0.0625 3.6125
0.375 0 3.6125
0.3125 0 3.675
0.375 0.0625 3.675
0.375 0.125 3.6125
0.3125 0.125 3.675
0.3125 0 3.6125
0.375 0.0625 3.6125
0.3125 0.0625 3.675
0.3125 0.125 3.6125
0.3125 0.0625 3.6125
0.5 0 3.6125
0.4375 0 3.675
0.5 0.0625 3.675
0.5 0.125 3.6125
0.4375 0.125 3.675
0.4375 0 3.6125
0.5 0.0625 3.6125
0.4375 0.0625 3.675
0.4375 0.125 3.6125
0.4375 0.0625 3.6125
0.625 0 3.6125
0.5625 0 3.675
0.625 0.0625 3.675
0.625 0.125 3.6125
0.5625 0.125 3.675
0.5625 0 3.6125
0.625 0.0625 3.6125
0.5625 0.0625 3.675
0.5625 0.125 3.6125
0.5625 0.0625 3.6125
0.75 0 3.6125
0.6875 0 3.675
0.75 0.0625 3.675
0.75 0.125 3.6125
0.6875 0.125 3.675
0.6875 0 3.6125
0.75 0.0625 3.6125
0.6875 0.0625 3.675
0.6875 0.125 3.6125
0.6875 0.0625 3.6125
0.875 0 3.6125
0.8125 0 3.675
0.875 0.0625 3.675
0.875 0.125 3.6125
0.8125 0.125 3.675
0.8125 0 3.6125
0.875 0.0625 3.6125
0.8125 0.0625 3.675
0.8125 0.125 3.6125
0.8125 0.0625 3.6125
1 0 3.6125
0.9375 0 3.675
1 0.0625 3.675
1 0.125 3.6125
0.9375 0.125 3.675
0.9375 0 3.6125
1 0.0625 3.6125
0.9375 0.0625 3.675
0.9375 0.125 3.6125
0.9375 0.0625 3.6125
1.125 0 3.6125
1.0625 0 3.675
1.125 0.0625 3.675
1.125 0.125 3.6125
1.0625 0.125 3.675
1.0625 0 3.6125
1.125 0.0625 3.6125
1.0625 0.0625 3.675
1.0625 0.125 3.6125
1.0625 0.0625 3.6125
1.25 0 3.6125
1.1875 0 3.675
1.25 0.0625 3.675
1.25 0.125 3.6125
1.1875 0.125 3.675
1.1875 0 3.6125
1.25 0.0625 3.6125
1.1875 0.0625 3.675
1.1875 0.125 3.6125
1.1875 0.0625 3.6125
1.375 0 3.6125
1.3125 0 3.675
1.375 0.0625 3.675
1.375 0.125 3.6125
1.3125 0.125 3.675
1.3125 0 3.6125
1.375 0.0625 3.6125
1.3125 0.0625 3.675
1.3125 0.125 3.6125
1.3125 0.0625 3.6125
1.5 0 3.6125
1.4375 0 3.675
1.5 0.0625 3.675
1.5 0.125 3.6125
1.4375 0.125 3.675
1.4375 0 3.6125
1.5 0.0625 3.6125
1.4375 0.0625 3.675
1.4375 0.125 3.6125
1.4375 0.0625 3.6125
1.625 0 3.6125
1.5625 0 3.675
1.625 0.0625 3.675
1.625 0.125 3.6125
1.5625 0.125 3.675
1.5625 0 3.6125
1.625 0.0625 3.6125
1.5625 0.0625 3.675
1.5625 0.125 3.6125
1.5625 0.0625 3.6125
1.75 0 3.6125
1.6875 0 3.675
1.75 0.0625 3.675
1.75 0.125 3.6125
1.6875 0.125 3.675
1.6875 0 3.6125
1.75 0.0625 3.6125
1.6875 0.0625 3.675
1.6875 0.125 3.6125
1.6875 0.0625 3.6125
1.875 0 3.6125
1.8125 0 3.675
1.875 0.0625 3.675
1.875 0.125 3.6125
1.8125 0.125 3.675
1.8125 0 3.6125
1.875 0.0625 3.6125
1.8125 0.0625 3.675
1.8125 0.125 3.6125
1.8125 0.0625 3.6125
2 0 3.6125
1.9375 0 3.675
2 0.0625 3.675
2 0.125 3.6125
1.9375 0.125 3.675
1.9375 0 3.6125
2 0.0625 3.6125
1.9375 0.0625 3.675
1.9375 0.125 3.6125
1.9375 0.0625 3.6125
2.125 0 3.6125
2.0625 0 3.675
2.125 0.0625 3.675
2.125 0.125 3.6125
2.0625 0.125 3.675
2.0625 0 3.6125
2.125 0.0625 3.6125
2.0625 0.0625 3.675
2.0625 0.125 3.6125
2.0625 0.0625 3.6125
2.25 0 3.6125
2.1875 0 3.675
2.25 0.0625 3.675
2.25 0.125 3.6125
2.1875 0.125 3.675
2.1875 0 3.6125
2.25 0.0625 3.6125
2.1875 0.0625 3.675
2.1875 0.125 3.6125
2.1875 0.0625 3.6125
2.375 0 3.6125
2.3125 0 3.675
2.375 0.0625 3.675
2.375 0.125 3.6125
2.3125 0.125 3.675
2.3125 0 3.6125
2.375 0.0625 3.6125
2.3125 0.0625 3.675
2.3125 0.125 3.6125
2.3125 0.0625 3.6125
2.5 0 3.6125
2.4375 0 3.675
2.5 0.0625 3.675
2.5 0.125 3.6125
2.4375 0.125 3.675
2.4375 0 3.6125
2.5 0.0625 3.6125
2.4375 0.0625 3.675
2.4375 0.125 3.6125
2.4375 0.0625 3.6125
2.625 0 3.6125
2.5625 0 3.675
2.625 0.0625 3.675
2.625 0.125 3.6125
2.5625 0.125 3.675
2.5625 0 3.6125
2.625 0.0625 3.6125
2.5625 0.0625 3.675
2.5625 0.125 3.6125
2.5625 0.0625 3.6125
2.75 0 3.6125
2.6875 0 3.675
2.75 0.0625 3.675
2.75 0.125 3.6125
2.6875 0.125 3.675
2.6875 0 3.6125
2.75 0.0625 3.6125
2.6875 0.0625 3.675
2.6875 0.125 3.6125
2.6875 0.0625 3.6125
2.875 0 3.6125
2.8125 0 3.675
2.875 0.0625 3.675
2.875 0.125 3.6125
2.8125 0.125 3.675
2.8125 0 3.6125
2.875 0.0625 3.6125
2.8125 0.0625 3.675
2.8125 0.125 3.6125
2.8125 0.0625 3.6125
3 0 3.6125
2.9375 0 3.675
3 0.0625 3.675
3 0.125 3.6125
2.9375 0.125 3.675
2.9375 0 3.6125
3 0.0625 3.6125
2.9375 0.0625 3.675
2.9375 0.125 3.6125
2.9375 0.0625 3.6125
3.125 0 3.6125
3.0625 0 3.675
3.125 0.0625 3.675
3.125 0.125 3.6125
3.0625 0.125 3.675
3.0625 0 3.6125
3.125 0.0625 3.6125
3.0625 0.0625 3.675
3.0625 0.125 3.6125
3.0625 0.0625 3.6125
3.25 0 3.6125
3.1875 0 3.675
3.25 0.0625 3.675
3.25 0.125 3.6125
3.1875 0.125 3.675
3.1875 0 3.6125
3.25 0.0625 3.6125
3.1875 0.0625 3.675
3.1875 0.125 3.6125
3.1875 0.0625 3.6125
3.375 0 3.6125
3.3125 0 3.675
3.375 0.0625 3.675
3.375 0.125 3.6125
3.3125 0.125 3.675
3.3125 0 3.6125
3.375 0.0625 3.6125
3.3125 0.0625 3.675
3.3125 0.125 3.6125
3.3125 0.0625 3.6125
3.5 0 3.6125
3.4375 0 3.675
3.5 0.0625 3.675
3.5 0.125 3.6125
3.4375 0.125 3.675
3.4375 0 3.6125
3.5 0.0625 3.6125
3.4375 0.0625 3.675
3.4375 0.125 3.6125
3.4375 0.0625 3.6125
3.625 0 3.6125
3.5625 0 3.675
3.625 0.0625 3.675
3.625 0.125 3.6125
3.5625 0.125 3.675
3.5625 0 3.6125
3.625 0.0625 3.6125
3.5625 0.0625 3.675
3.5625 0.125 3.6125
3.5625 0.0625 3.6125
3.75 0 3.6125
3.6875 0 3.675
3.75 0.0625 3.675
3.75 0.125 3.6125
3.6875 0.125 3.675
3.6875 0 3.6125
3.75 0.0625 3.6125
3.6875 0.0625 3.675
3.6875 0.125 3.6125
3.6875 0.0625 3.6125
3.875 0 3.6125
3.8125 0 3.675
3.875 0.0625 3.675
3.875 0.125 3.6125
3.8125 0.125 3.675
3.8125 0 3.6125
3.875 0.0625 3.6125
3.8125 0.0625 3.675
3.8125 0.125 3.6125
3.8125 0.0625 3.6125
4 0 3.6125
3.9375 0 3.675
4 0.0625 3.675
4 0.125 3.6125
3.9375 0.125 3.675
3.9375 0 3.6125
4 0.0625 3.6125
3.9375 0.0625 3.675
3.9375 0.125 3.6125
3.9375 0.0625 3.6125
0.125 0.1875 3.675
0 0.1875 3.675
0.125 0.25 3.6125
0.0625 0.25 3.675
0 0.25 3.6125
0.125 0.1875 3.6125
0.0625 0.1875 3.675
0 0.1875 3.6125
0.0625 0.25 3.6125
0.0625 0.1875 3.6125
0.25 0.1875 3.675
0.25 0.25 3.6125
0.1875 0.25 3.675
0.25 0.1875 3.6125
0.1875 0.1875 3.675
0.1875 0.25 3.6125
0.1875 0.1875 3.6125
0.375 0.1875 3.675
0.375 0.25 3.6125
0.3125 0.25 3.675
0.375 0.1875 3.6125
0.3125 0.1875 3.675
0.3125 0.25 3.6125
0.3125 0.1875 3.6125
0.5 0.1875 3.675
0.5 0.25 3.6125
0.4375 0.25 3.675
0.5 0.1875 3.6125
0.4375 0.1875 3.675
0.4375 0.25 3.6125
0.4375 0.1875 3.6125
0.625 0.1875 3.675
0.625 0.25 3.6125
0.5625 0.25 3.675
0.625 0.1875 3.6125
0.5625 0.1875 3.675
0.5625 0.25 3.6125
0.5625 0.1875 3.6125
0.75 0.1875 3.675
0.75 0.25 3.6125
0.6875 0.25 3.675
0.75 0.1875 3.6125
0.6875 0.1875 3.675
0.6875 0.25 3.6125
0.6875 0.1875 3.6125
0.875 0.1875 3.675
0.875 0.25 3.6125
0.8125 0.25 3.675
0.875 0.1875 3.6125
0.8125 0.1875 3.675
0.8125 0.25 3.6125
0.8125 0.1875 3.6125
1 0.1875 3.675
1 0.25 3.6125
0.9375 0.25 3.675
1 0.1875 3.6125
0.9375 0.1875 3.675
0.9375 0.25 3.6125
0.9375 0.1875 3.6125
1.125 0.1875 3.675
1.125 0.25 3.6125
1.0625 0.25 3.675
1.125 0.1875 3.6125
1.0625 0.1875 3.675
1.0625 0.25 3.6125
1.0625 0.1875 3.6125
1.25 0.1875 3.675
1.25 0.25 3.6125
1.1875 0.25 3.675
1.25 0.1875 3.6125
1.1875 0.1875 3.675
1.1875 0.25 3.6125
1.1875 0.1875 3.6125
1.375 0.1875 3.675
1.375 0.25 3.6125
1.3125 0.25 3.675
1.375 0.1875 3.6125
1.3125 0.1875 3.675
1.3125 0.25 3.6125
1.3125 0.1875 3.6125
1.5 0.1875 3.675
1.5 0.25 3.6125
1.4375 0.25 3.675
1.5 0.1875 3.6125
1.4375 0.1875 3.675
1.4375 0.25 3.6125
1.4375 0.1875 3.6125
1.625 0.1875 3.675
1.625 0.25 3.6125
1.5625 0.25 3.675
1.625 0.1875 3.6125
1.5625 0.1875 3.675
1.5625 0.25 3.6125
1.5625 0.1875 3.6125
1.75 0.1875 3.675
1.75 0.25 3.6125
1.6875 0.25 3.675
1.75 0.1875 3.6125
1.6875 0.1875 3.675
1.6875 0.25 3.6125
1.6875 0.1875 3.6125
1.875 0.1875 3.675
1.875 0.25 3.6125
1.8125 0.25 3.675
1.875 0.1875 3.6125
1.8125 0.1875 3.675
1.8125 0.25 3.6125
1.8125 0.1875 3.6125
2 0.1875 3.675
2 0.25 3.6125
1.9375 0.25 3.675
2 0.1875 3.6125
1.9375 0.1875 3.675
1.9375 0.25 3.6125
1.9375 0.1875 3.6125
2.125 0.1875 3.675
2.125 0.25 3.6125
2.0625 0.25 3.675
2.125 0.1875 3.6125
2.0625 0.1875 3.675
2.0625 0.25 3.6125
2.0625 0.1875 3.6125
2.25 0.1875 3.675
2.25 0.25 3.6125
2.1875 0.25 3.675
2.25 0.1875 3.6125
2.1875 0.1875 3.675
2.1875 0.25 3.6125
2.1875 0.1875 3.6125
2.375 0.1875 3.675
2.375 0.25 3.6125
2.3125 0.25 3.675
2.375 0.1875 3.6125
2.3125 0.1875 3.675
2.3125 0.25 3.6125
2.3125 0.1875 3.6125
2.5 0.1875 3.675
2.5 0.25 3.6125
2.4375 0.25 3.675
2.5 0.1875 3.6125
2.4375 0.1875 3.675
2.4375 0.25 3.6125
2.4375 0.1875 3.6125
2.625 0.1875 3.675
2.625 0.25 3.6125
2.5625 0.25 3.675
2.625 0.1875 3.6125
2.5625 0.1875 3.675
2.5625 0.25 3.6125
2.5625 0.1875 3.6125
2.75 0.1875 3.675
2.75 0.25 3.6125
2.6875 0.25 3.675
2.75 0.1875 3.6125
2.6875 0.1875 3.675
2.6875 0.25 3.6125
2.6875 0.1875 3.6125
2.875 0.1875 3.675
2.875 0.25 3.6125
2.8125 0.25 3.675
2.875 0.1875 3.6125
2.8125 0.1875 3.675
2.8125 0.25 3.6125
2.8125 0.1875 3.6125
3 0.1875 3.675
3 0.25 3.6125
2.9375 0.25 3.675
3 0.1875 3.6125
2.9375 0.1875 3.675
2.9375 0.25 3.6125
2.9375 0.1875 3.6125
3.125 0.1875 3.675
3.125 0.25 3.6125
3.0625 0.25 3.675
3.125 0.1875 3.6125
3.0625 0.1875 3.675
3.0625 0.25 3.6125
3.0625 0.1875 3.6125
3.25 0.1875 3.675
3.25 0.25 3.6125
3.1875 0.25 3.675
3.25 0.1875 3.6125
3.1875 0.1875 3.675
3.1875 0.25 3.6125
3.1875 0.1875 3.6125
3.375 0.1875 3.675
3.375 0.25 3.6125
3.3125 0.25 3.675
3.375 0.1875 3.6125
3.3125 0.1875 3.675
3.3125 0.25 3.6125
3.3125 0.1875 3.6125
3.5 0.1875 3.675
3.5 0.25 3.6125
3.4375 0.25 3.675
3.5 0.1875 3.6125
3.4375 0.1875 3.675
3.4375 0.25 3.6125
3.4375 0.1875 3.6125
3.625 0.1875 3.675
3.625 0.25 3.6125
3.5625 0.25 3.675
3.625 0.1875 3.6125
3.5625 0.1875 3.675
3.5625 0.25 3.6125
3.5625 0.1875 3.6125
3.75 0.1875 3.675
3.75 0.25 3.6125
3.6875 0.25 3.675
3.75 0.1875 3.6125
3.6875 0.1875 3.675
3.6875 0.25 3.6125
3.6875 0.1875 3.6125
3.875 0.1875 3.675
3.875 0.25 3.6125
3.8125 0.25 3.675
3.875 0.1875 3.6125
3.8125 0.1875 3.675
3.8125 0.25 3.6125
3.8125 0.1875 3.6125
4 0.1875 3.675
4 0.25 3.6125
3.9375 0.25 3.675
4 0.1875 3.6125
3.9375 0.1875 3.675
3.9375 0.25 3.6125
3.9375 0.1875 3.6125
0.125 0.3125 3.675
0 0.3125 3.675
0.125 0.375 3.6125
0.0625 0.375 3.675
0 0.375 3.6125
0.125 0.3125 3.6125
0.0625 0.3125 3.675
0 0.3125 3.6125
0.0625 0.375 3.6125
0.0625 0.3125 3.6125
0.25 0.3125 3.675
0.25 0.375 3.6125
0.1875 0.375 3.675
0.25 0.3125 3.6125
0.1875 0.3125 3.675
0.1875 0.375 3.6125
0.1875 0.3125 3.6125
0.375 0.3125 3.675
0.375 0.375 3.6125
0.3125 0.375 3.675
0.375 0.3125 3.6125
0.3125 0.3125 3.675
0.3125 0.375 3.6125
0.3125 0.3125 3.6125
0.5 0.3125 3.675
0.5 0.375 3.6125
0.4375 0.375 3.675
0.5 0.3125 3.6125
0.4375 0.3125 3.675
0.4375 0.375 3.6125
0.4375 0.3125 3.6125
0.625 0.3125 3.675
0.625 0.375 3.6125
0.5625 0.375 3.675
0.625 0.3125 3.6125
0.5625 0.3125 3.675
0.5625 0.375 3.6125
0.5625 0.3125 3.6125
0.75 0.3125 3.675
0.75 0.375 3.6125
0.6875 0.375 3.675
0.75 0.3125 3.6125
0.6875 0.3125 3.675
0.6875 0.375 3.6125
0.6875 0.3125 3.6125
0.875 0.3125 3.675
0.875 0.375 3.6125
0.8125 0.375 3.675
0.875 0.3125 3.6125
0.8125 0.3125 3.675
0.8125 0.375 3.6125
0.8125 0.3125 3.6125
1 0.3125 3.675
1 0.375 3.6125
0.9375 0.375 3.675
1 0.3125 3.6125
0.9375 0.3125 3.675
0.9375 0.375 3.6125
0.9375 0.3125 3.6125
1.125 0.3125 3.675
1.125 0.375 3.6125
1.0625 0.375 3.675
1.125 0.3125 3.6125
1.0625 0.3125 3.675
1.0625 0.375 3.6125
1.0625 0.3125 3.6125
1.25 0.3125 3.675
1.25 0.375 3.6125
1.1875 0.375 3.675
1.25 0.3125 3.6125
1.1875 0.3125 3.675
1.1875 0.375 3.6125
1.1875 0.3125 3.6125
1.375 0.3125 3.675
1.375 0.375 3.6125
1.3125 0.375 3.675
1.375 0.3125 3.6125
1.3125 0.3125 3.675
1.3125 0.375 3.6125
1.3125 0.3125 3.6125
1.5 0.3125 3.675
1.5 0.375 3.6125
1.4375 0.375 3.675
1.5 0.3125 3.6125
1.4375 0.3125 3.675
1.4375 0.375 3.6125
1.4375 0.3125 3.6125
1.625 0.3125 3.675
1.625 0.375 3.6125
1.5625 0.375 3.675
1.625 0.3125 3.6125
1.5625 0.3125 3.675
1.5625 0.375 3.6125
1.5625 0.3125 3.6125
1.75 0.3125 3.675
1.75 0.375 3.6125
1.6875 0.375 3.675
1.75 0.3125 3.6125
1.6875 0.3125 3.675
1.6875 0.375 3.6125
1.6875 0.3125 3.6125
1.875 0.3125 3.675
1.875 0.375 3.6125
1.8125 0.375 3.675
1.875 0.3125 3.6125
1.8125 0.3125 3.675
1.8125 0.375 3.6125
1.8125 0.3125 3.6125
2 0.3125 3.675
2 0.375 3.6125
1.9375 0.375 3.675
2 0.3125 3.6125
1.9375 0.3125 3.675
1.9375 0.375 3.6125
1.9375 0.3125 3.6125
2.125 0.3125 3.675
2.125 0.375 3.6125
2.0625 0.375 3.675
2.125 0.3125 3.6125
2.0625 0.3125 3.675
2.0625 0.375 3.6125
2.0625 0.3125 3.6125
2.25 0.3125 3.675
2.25 0.375 3.6125
2.1875 0.375 3.675
2.25 0.3125 3.6125
2.1875 0.3125 3.675
2.1875 0.375 3.6125
2.1875 0.3125 3.6125
2.375 0.3125 3.675
2.375 0.375 3.6125
2.3125 0.375 3.675
2.375 0.3125 3.6125
2.3125 0.3125 3.675
2.3125 0.375 3.6125
2.3125 0.3125 3.6125
2.5 0.3125 3.675
2.5 0.375 3.6125
2.4375 0.375 3.675
2.5 0.3125 3.6125
2.4375 0.3125 3.675
2.4375 0.375 3.6125
2.4375 0.3125 3.6125
2.625 0.3125 3.675
2.625 0.375 3.6125
2.5625 0.375 3.675
2.625 0.3125 3.6125
2.5625 0.3125 3.675
2.5625 0.375 3.6125
2.5625 0.3125 3.6125
2.75 0.3125 3.675
2.75 0.375 3.6125
2.6875 0.375 3.675
2.75 0.3125 3.6125
2.6875 0.3125 3.675
2.6875 0.375 3.6125
2.6875 0.3125 3.6125
2.875 0.3125 3.675
2.875 0.375 3.6125
2.8125 0.375 3.675
2.875 0.3125 3.6125
2.8125 0.3125 3.675
2.8125 0.375 3.6125
2.8125 0.3125 3.6125
3 0.3125 3.675
3 0.375 3.6125
2.9375 0.375 3.675
3 0.3125 3.6125
2.9375 0.3125 3.675
2.9375 0.375 3.6125
2.9375 0.3125 3.6125
3.125 0.3125 3.675
3.125 0.375 3.6125
3.0625 0.375 3.675
3.125 0.3125 3.6125
3.0625 0.3125 3.675
3.0625 0.375 3.6125
3.0625 0.3125 3.6125
3.25 0.3125 3.675
3.25 0.375 3.6125
3.1875 0.375 3.675
3.25 0.3125 3.6125
3.1875 0.3125 3.675
3.1875 0.375 3.6125
3.1875 0.3125 3.6125
3.375 0.3125 3.675
3.375 0.375 3.6125
3.3125 0.375 3.675
3.375 0.3125 3.6125
3.3125 0.3125 3.675
3.3125 0.375 3.6125
3.3125 0.3125 3.6125
3.5 0.3125 3.675
3.5 0.375 3.6125
3.4375 0.375 3.675
3.5 0.3125 3.6125
3.4375 0.3125 3.675
3.4375 0.375 3.6125
3.4375 0.3125 3.6125
3.625 0.3125 3.675
3.625 0.375 3.6125
3.5625 0.375 3.675
3.625 0.3125 3.6125
3.5625 0.3125 3.675
3.5625 0.375 3.6125
3.5625 0.3125 3.6125
3.75 0.3125 3.675
3.75 0.375 3.6125
3.6875 0.375 3.675
3.75 0.3125 3.6125
3.6875 0.3125 3.675
3.6875 0.375 3.6125
3.6875 0.3125 3.6125
3.875 0.3125 3.675
3.875 0.375 3.6125
3.8125 0.375 3.675
3.875 0.3125 3.6125
3.8125 0.3125 3.675
3.8125 0.375 3.6125
3.8125 0.3125 3.6125
4 0.3125 3.675
4 0.375 3.6125
3.9375 0.375 3.675
4 0.3125 3.6125
3.9375 0.3125 3.675
3.9375 0.375 3.6125
3.9375 0.3125 3.6125
0.125 0.4375 3.675
0 0.4375 3.675
0.125 0.5 3.6125
0.0625 0.5 3.675
0 0.5 3.6125
0.125 0.4375 3.6125
0.0625 0.4375 3.675
0 0.4375 3.6125
0.0625 0.5 3.6125
0.0625 0.4375 3.6125
0.25 0.4375 3.675
0.25 0.5 3.6125
0.1875 0.5 3.675
0.25 0.4375 3.6125
0.1875 0.4375 3.675
0.1875 0.5 3.6125
0.1875 0.4375 3.6125
0.375 0.4375 3.675
0.375 0.5 3.6125
0.3125 0.5 3.675
0.375 0.4375 3.6125
0.3125 0.4375 3.675
0.3125 0.5 3.6125
0.3125 0.4375 3.6125
0.5 0.4375 3.675
0.5 0.5 3.6125
0.4375 0.5 3.675
0.5 0.4375 3.6125
0.4375 0.4375 3.675
0.4375 0.5 3.6125
0.4375 0.4375 3.6125
0.625 0.4375 3.675
0.625 0.5 3.6125
0.5625 0.5 3.675
0.625 0.4375 3.6125
0.5625 0.4375 3.675
0.5625 0.5 3.6125
0.5625 0.4375 3.6125
0.75 0.4375 3.675
0.75 0.5 3.6125
0.6875 0.5 3.675
0.75 0.4375 3.6125
0.6875 0.4375 3.675
0.6875 0.5 3.6125
0.6875 0.4375 3.6125
0.875 0.4375 3.675
0.875 0.5 3.6125
0.8125 0.5 3.675
0.875 0.4375 3.6125
0.8125 0.4375 3.675
0.8125 0.5 3.6125
0.8125 0.4375 3.6125
1 0.4375 3.675
1 0.5 3.6125
0.9375 0.5 3.675
1 0.4375 3.6125
0.9375 0.4375 3.675
0.9375 0.5 3.6125
0.9375 0.4375 3.6125
1.125 0.4375 3.675
1.125 0.5 3.6125
1.0625 0.5 3.675
1.125 0.4375 3.6125
1.0625 0.4375 3.675
1.0625 0.5 3.6125
1.0625 0.4375 3.6125
1.25 0.4375 3.675
1.25 0.5 3.6125
1.1875 0.5 3.675
1.25 0.4375 3.6125
1.1875 0.4375 3.675
1.1875 0.5 3.6125
1.1875 0.4375 3.6125
1.375 0.4375 3.675
1.375 0.5 3.6125
1.3125 0.5 3.675
1.375 0.4375 3.6125
1.3125 0.4375 3.675
1.3125 0.5 3.6125
1.3125 0.4375 3.6125
1.5 0.4375 3.675
1.5 0.5 3.6125
1.4375 0.5 3.675
1.5 0.4375 3.6125
1.4375 0.4375 3.675
1.4375 0.5 3.6125
1.4375 0.4375 3.6125
1.625 0.4375 3.675
1.625 0.5 3.6125
1.5625 0.5 3.675
1.625 0.4375 3.6125
1.5625 0.4375 3.675
1.5625 0.5 3.6125
1.5625 0.4375 3.6125
1.75 0.4375 3.675
1.75 0.5 3.6125
1.6875 0.5 3.675
1.75 0.4375 3.6125
1.6875 0.4375 3.675
1.6875 0.5 3.6125
1.6875 0.4375 3.6125
1.875 0.4375 3.675
1.875 0.5 3.6125
1.8125 0.5 3.675
1.875 0.4375 3.6125
1.8125 0.4375 3.675
1.8125 0.5 3.6125
1.8125 0.4375 3.6125
2 0.4375 3.675
2 0.5 3.6125
1.9375 0.5 3.675
2 0.4375 3.6125
1.9375 0.4375 3.675
1.9375 0.5 3.6125
1.9375 0.4375 3.6125
2.125 0.4375 3.675
2.125 0.5 3.6125
2.0625 0.5 3.675
2.125 0.4375 3.6125
2.0625 0.4375 3.675
2.0625 0.5 3.6125
2.0625 0.4375 3.6125
2.25 0.4375 3.675
2.25 0.5 3.6125
2.1875 0.5 3.675
2.25 0.4375 3.6125
2.1875 0.4375 3.675
2.1875 0.5 3.6125
2.1875 0.4375 3.6125
2.375 0.4375 3.675
2.375 0.5 3.6125
2.3125 0.5 3.675
2.375 0.4375 3.6125
2.3125 0.4375 3.675
2.3125 0.5 3.6125
2.3125 0.4375 3.6125
2.5 0.4375 3.675
2.5 0.5 3.6125
2.4375 0.5 3.675
2.5 0.4375 3.6125
2.4375 0.4375 3.675
2.4375 0.5 3.6125
2.4375 0.4375 3.6125
2.625 0.4375 3.675
2.625 0.5 3.6125
2.5625 0.5 3.675
2.625 0.4375 3.6125
2.5625 0.4375 3.675
2.5625 0.5 3.6125
2.5625 0.4375 3.6125
2.75 0.4375 3.675
2.75 0.5 3.6125
2.6875 0.5 3.675
2.75 0.4375 3.6125
2.6875 0.4375 3.675
2.6875 0.5 3.6125
2.6875 0.4375 3.6125
2.875 0.4375 3.675
2.875 0.5 3.6125
2.8125 0.5 3.675
2.875 0.4375 3.6125
2.8125 0.4375 3.675
2.8125 0.5 3.6125
2.8125 0.4375 3.6125
3 0.4375 3.675
3 0.5 3.6125
2.9375 0.5 3.675
3 0.4375 3.6125
2.9375 0.4375 3.675
2.9375 0.5 3.6125
2.9375 0.4375 3.6125
3.125 0.4375 3.675
3.125 0.5 3.6125
3.0625 0.5 3.675
3.125 0.4375 3.6125
3.0625 0.4375 3.675
3.0625 0.5 3.6125
3.0625 0.4375 3.6125
3.25 0.4375 3.675
3.25 0.5 3.6125
3.1875 0.5 3.675
3.25 0.4375 3.6125
3.1875 0.4375 3.675
3.1875 0.5 3.6125
3.1875 0.4375 3.6125
3.375 0.4375 3.675
3.375 0.5 3.6125
3.3125 0.5 3.675
3.375 0.4375 3.6125
3.3125 0.4375 3.675
3.3125 0.5 3.6125
3.3125 0.4375 3.6125
3.5 0.4375 3.675
3.5 0.5 3.6125
3.4375 0.5 3.675
3.5 0.4375 3.6125
3.4375 0.4375 3.675
3.4375 0.5 3.6125
3.4375 0.4375 3.6125
3.625 0.4375 3.675
3.625 0.5 3.6125
3.5625 0.5 3.675
3.625 0.4375 3.6125
3.5625 0.4375 3.675
3.5625 0.5 3.6125
3.5625 0.4375 3.6125
3.75 0.4375 3.675
3.75 0.5 3.6125
3.6875 0.5 3.675
3.75 0.4375 3.6125
3.6875 0.4375 3.675
3.6875 0.5 3.6125
3.6875 0.4375 3.6125
3.875 0.4375 3.675
3.875 0.5 3.6125
3.8125 0.5 3.675
3.875 0.4375 3.6125
3.8125 0.4375 3.675
3.8125 0.5 3.6125
3.8125 0.4375 3.6125
4 0.4375 3.675
4 0.5 3.6125
3.9375 0.5 3.675
4 0.4375 3.6125
3.9375 0.4375 3.675
3.9375 0.5 3.6125
3.9375 0.4375 3.6125
0.125 0.5625 3.675
0 0.5625 3.675
0.125 0.625 3.6125
0.0625 0.625 3.675
0 0.625 3.6125
0.125 0.5625 3.6125
0.0625 0.5625 3.675
0 0.5625 3.6125
0.0625 0.625 3.6125
0.0625 0.5625 3.6125
0.25 0.5625 3.675
0.25 0.625 3.6125
0.1875 0.625 3.675
0.25 0.5625 3.6125
0.1875 0.5625 3.675
0.1875 0.625 3.6125
0.1875 0.5625 3.6125
0.375 0.5625 3.675
0.375 0.625 3.6125
0.3125 0.625 3.675
0.375 0.5625 3.6125
0.3125 0.5625 3.675
0.3125 0.625 3.6125
0.3125 0.5625 3.6125
0.5 0.5625 3.675
0.5 0.625 3.6125
0.4375 0.625 3.675
0.5 0.5625 3.6125
0.4375 0.5625 3.675
0.4375 0.625 3.6125
0.4375 0.5625 3.6125
0.625 0.5625 3.675
0.625 0.625 3.6125
0.5625 0.625 3.675
0.625 0.5625 3.6125
0.5625 0.5625 3.675
0.5625 0.625 3.6125
0.5625 0.5625 3.6125
0.75 0.5625 3.675
0.75 0.625 3.6125
0.6875 0.625 3.675
0.75 0.5625 3.6125
0.6875 0.5625 3.675
0.6875 0.625 3.6125
0.6875 0.5625 3.6125
0.875 0.5625 3.675
0.875 0.625 3.6125
0.8125 0.625 3.675
0.875 0.5625 3.6125
0.8125 0.5625 3.675
0.8125 0.625 3.6125
0.8125 0.5625 3.6125
1 0.5625 3.675
1 0.625 3.6125
0.9375 0.625 3.675
1 0.5625 3.6125
0.9375 0.5625 3.675
0.9375 0.625 3.6125
0.9375 0.5625 3.6125
1.125 0.5625 3.675
1.125 0.625 3.6125
1.0625 0.625 3.675
1.125 0.5625 3.6125
1.0625 0.5625 3.675
1.0625 0.625 3.6125
1.0625 0.5625 3.6125
1.25 0.5625 3.675
1.25 0.625 3.6125
1.1875 0.625 3.675
1.25 0.5625 3.6125
1.1875 0.5625 3.675
1.1875 0.625 3.6125
1.1875 0.5625 3.6125
1.375 0.5625 3.675
1.375 0.625 3.6125
1.3125 0.625 3.675
1.375 0.5625 3.6125
1.3125 0.5625 3.675
1.3125 0.625 3.6125
1.3125 0.5625 3.6125
1.5 0.5625 3.675
1.5 0.625 3.6125
1.4375 0.625 3.675
1.5 0.5625 3.6125
1.4375 0.5625 3.675
1.4375 0.625 3.6125
1.4375 0.5625 3.6125
1.625 0.5625 3.675
1.625 0.625 3.6125
1.5625 0.625 3.675
1.625 0.5625 3.6125
1.5625 0.5625 3.675
1.5625 0.625 3.6125
1.5625 0.5625 3.6125
1.75 0.5625 3.675
1.75 0.625 3.6125
1.6875 0.625 3.675
1.75 0.5625 3.6125
1.6875 0.5625 3.675
1.6875 0.625 3.6125
1.6875 0.5625 3.6125
1.875 0.5625 3.675
1.875 0.625 3.6125
1.8125 0.625 3.675
1.875 0.5625 3.6125
1.8125 0.5625 3.675
1.8125 0.625 3.6125
1.8125 0.5625 3.6125
2 0.5625 3.675
2 0.625 3.6125
1.9375 0.625 3.675
2 0.5625 3.6125
1.9375 0.5625 3.675
1.9375 0.625 3.6125
1.9375 0.5625 3.6125
2.125 0.5625 3.675
2.125 0.625 3.6125
2.0625 0.625 3.675
2.125 0.5625 3.6125
2.0625 0.5625 3.675
2.0625 0.625 3.6125
2.0625 0.5625 3.6125
2.25 0.5625 3.675
2.25 0.625 3.6125
2.1875 0.625 3.675
2.25 0.5625 3.6125
2.1875 0.5625 3.675
2.1875 0.625 3.6125
2.1875 0.5625 3.6125
2.375 0.5625 3.675
2.375 0.625 3.6125
2.3125 0.625 3.675
2.375 0.5625 3.6125
2.3125 0.5625 3.675
2.3125 0.625 3.6125
2.3125 0.5625 3.6125
2.5 0.5625 3.675
2.5 0.625 3.6125
2.4375 0.625 3.675
2.5 0.5625 3.6125
2.4375 0.5625 3.675
2.4375 0.625 3.6125
2.4375 0.5625 3.6125
2.625 0.5625 3.675
2.625 0.625 3.6125
2.5625 0.625 3.675
2.625 0.5625 3.6125
2.5625 0.5625 3.675
2.5625 0.625 3.6125
2.5625 0.5625 3.6125
2.75 0.5625 3.675
2.75 0.625 3.6125
2.6875 0.625 3.675
2.75 0.5625 3.6125
2.6875 0.5625 3.675
2.6875 0.625 3.6125
2.6875 0.5625 3.6125
2.875 0.5625 3.675
2.875 0.625 3.6125
2.8125 0.625 3.675
2.875 0.5625 3.6125
2.8125 0.5625 3.675
2.8125 0.625 3.6125
2.8125 0.5625 3.6125
3 0.5625 3.675
3 0.625 3.6125
2.9375 0.625 3.675
3 0.5625 3.6125
2.9375 0.5625 3.675
2.9375 0.625 3.6125
2.9375 0.5625 3.6125
3.125 0.5625 3.675
3.125 0.625 3.6125
3.0625 0.625 3.675
3.125 0.5625 3.6125
3.0625 0.5625 3.675
3.0625 0.625 3.6125
3.0625 0.5625 3.6125
3.25 0.5625 3.675
3.25 0.625 3.6125
3.1875 0.625 3.675
3.25 0.5625 3.6125
3.1875 0.5625 3.675
3.1875 0.625 3.6125
3.1875 0.5625 3.6125
3.375 0.5625 3.675
3.375 0.625 3.6125
3.3125 0.625 3.675
3.375 0.5625 3.6125
3.3125 0.5625 3.675
3.3125 0.625 3.6125
3.3125 0.5625 3.6125
3.5 0.5625 3.675
3.5 0.625 3.6125
3.4375 0.625 3.675
3.5 0.5625 3.6125
3.4375 0.5625 3.675
3.4375 0.625 3.6125
3.4375 0.5625 3.6125
3.625 0.5625 3.675
3.625 0.625 3.6125
3.5625 0.625 3.675
3.625 0.5625 3.6125
3.5625 0.5625 3.675
3.5625 0.625 3.6125
3.5625 0.5625 3.6125
3.75 0.5625 3.675
3.75 0.625 3.6125
3.6875 0.625 3.675
3.75 0.5625 3.6125
3.6875 0.5625 3.675
3.6875 0.625 3.6125
3.6875 0.5625 3.6125
3.875 0.5625 3.675
3.875 0.625 3.6125
3.8125 0.625 3.675
3.875 0.5625 3.6125
3.8125 0.5625 3.675
3.8125 0.625 3.6125
3.8125 0.5625 3.6125
4 0.5625 3.675
4 0.625 3.6125
3.9375 0.625 3.675
4 0.5625 3.6125
3.9375 0.5625 3.675
3.9375 0.625 3.6125
3.9375 0.5625 3.6125
0.125 0.6875 3.675
0 0.6875 3.675
0.125 0.75 3.6125
0.0625 0.75 3.675
0 0.75 3.6125
0.125 0.6875 3.6125
0.0625 0.6875 3.675
0 0.6875 3.6125
0.0625 0.75 3.6125
0.0625 0.6875 3.6125
0.25 0.6875 3.675
0.25 0.75 3.6125
0.1875 0.75 3.675
0.25 0.6875 3.6125
0.1875 0.6875 3.675
0.1875 0.75 3.6125
0.1875 0.6875 3.6125
0.375 0.6875 3.675
0.375 0.75 3.6125
0.3125 0.75 3.675
0.375 0.6875 3.6125
0.3125 0.6875 3.675
0.3125 0.75 3.6125
0.3125 0.6875 3.6125
0.5 0.6875 3.675
0.5 0.75 3.6125
0.4375 0.75 3.675
0.5 0.6875 3.6125
0.4375 0.6875 3.675
0.4375 0.75 3.6125
0.4375 0.6875 3.6125
0.625 0.6875 3.675
0.625 0.75 3.6125
0.5625 0.75 3.675
0.625 0.6875 3.6125
0.5625 0.6875 3.675
0.5625 0.75 3.6125
0.5625 0.6875 3.6125
0.75 0.6875 3.675
0.75 0.75 3.6125
0.6875 0.75 3.675
0.75 0.6875 3.6125
0.6875 0.6875 3.675
0.6875 0.75 3.6125
0.6875 0.6875 3.6125
0.875 0.6875 3.675
0.875 0.75 3.6125
0.8125 0.75 3.675
0.875 0.6875 3.6125
0.8125 0.6875 3.675
0.8125 0.75 3.6125
0.8125 0.6875 3.6125
1 0.6875 3.675
1 0.75 3.6125
0.9375 0.75 3.675
1 0.6875 3.6125
0.9375 0.6875 3.675
0.9375 0.75 3.6125
0.9375 0.6875 3.6125
1.125 0.6875 3.675
1.125 0.75 3.6125
1.0625 0.75 3.675
1.125 0.6875 3.6125
1.0625 0.6875 3.675
1.0625 0.75 3.6125
1.0625 0.6875 3.6125
1.25 0.6875 3.675
1.25 0.75 3.6125
1.1875 0.75 3.675
1.25 0.6875 3.6125
1.1875 0.6875 3.675
1.1875 0.75 3.6125
1.1875 0.6875 3.6125
1.375 0.6875 3.675
1.375 0.75 3.6125
1.3125 0.75 3.675
1.375 0.6875 3.6125
1.3125 0.6875 3.675
1.3125 0.75 3.6125
1.3125 0.6875 3.6125
1.5 0.6875 3.675
1.5 0.75 3.6125
1.4375 0.75 3.675
1.5 0.6875 3.6125
1.4375 0.6875 3.675
1.4375 0.75 3.6125
1.4375 0.6875 3.6125
1.625 0.6875 3.675
1.625 0.75 3.6125
1.5625 0.75 3.675
1.625 0.6875 3.6125
1.5625 0.6875 3.675
1.5625 0.75 3.6125
1.5625 0.6875 3.6125
1.75 0.6875 3.675
1.75 0.75 3.6125
1.6875 0.75 3.675
1.75 0.6875 3.6125
1.6875 0.6875 3.675
1.6875 0.75 3.6125
1.6875 0.6875 3.6125
1.875 0.6875 3.675
1.875 0.75 3.6125
1.8125 0.75 3.675
1.875 0.6875 3.6125
1.8125 0.6875 3.675
1.8125 0.75 3.6125
1.8125 0.6875 3.6125
2 0.6875 3.675
2 0.75 3.6125
1.9375 0.75 3.675
2 0.6875 3.6125
1.9375 0.6875 3.675
1.9375 0.75 3.6125
1.9375 0.6875 3.6125
2.125 0.6875 3.675
2.125 0.75 3.6125
2.0625 0.75 3.675
2.125 0.6875 3.6125
2.0625 0.6875 3.675
2.0625 0.75 3.6125
2.0625 0.6875 3.6125
2.25 0.6875 3.675
2.25 0.75 3.6125
2.1875 0.75 3.675
2.25 0.6875 3.6125
2.1875 0.6875 3.675
2.1875 0.75 3.6125
2.1875 0.6875 3.6125
2.375 0.6875 3.675
2.375 0.75 3.6125
2.3125 0.75 3.675
2.375 0.6875 3.6125
2.3125 0.6875 3.675
2.3125 0.75 3.6125
2.3125 0.6875 3.6125
2.5 0.6875 3.675
2.5 0.75 3.6125
2.4375 0.75 3.675
2.5 0.6875 3.6125
2.4375 0.6875 3.675
2.4375 0.75 3.6125
2.4375 0.6875 3.6125
2.625 0.6875 3.675
2.625 0.75 3.6125
2.5625 0.75 3.675
2.625 0.6875 3.6125
2.5625 0.6875 3.675
2.5625 0.75 3.6125
2.5625 0.6875 3.6125
2.75 0.6875 3.675
2.75 0.75 3.6125
2.6875 0.75 3.675
2.75 0.6875 3.6125
2.6875 0.6875 3.675
2.6875 0.75 3.6125
2.6875 0.6875 3.6125
2.875 0.6875 3.675
2.875 0.75 3.6125
2.8125 0.75 3.675
2.875 0.6875 3.6125
2.8125 0.6875 3.675
2.8125 0.75 3.6125
2.8125 0.6875 3.6125
3 0.6875 3.675
3 0.75 3.6125
2.9375 0.75 3.675
3 0.6875 3.6125
2.9375 0.6875 3.675
2.9375 0.75 3.6125
2.9375 0.6875 3.6125
3.125 0.6875 3.675
3.125 0.75 3.6125
3.0625 0.75 3.675
3.125 0.6875 3.6125
3.0625 0.6875 3.675
3.0625 0.75 3.6125
3.0625 0.6875 3.6125
3.25 0.6875 3.675
3.25 0.75 3.6125
3.1875 0.75 3.675
3.25 0.6875 3.6125
3.1875 0.6875 3.675
3.1875 0.75 3.6125
3.1875 0.6875 3.6125
3.375 0.6875 3.675
3.375 0.75 3.6125
3.3125 0.75 3.675
3.375 0.6875 3.6125
3.3125 0.6875 3.675
3.3125 0.75 3.6125
3.3125 0.6875 3.6125
3.5 0.6875 3.675
3.5 0.75 3.6125
3.4375 0.75 3.675
3.5 0.6875 3.6125
3.4375 0.6875 3.675
3.4375 0.75 3.6125
3.4375 0.6875 3.6125
3.625 0.6875 3.675
3.625 0.75 3.6125
3.5625 0.75 3.675
3.625 0.6875 3.6125
3.5625 0.6875 3.675
3.5625 0.75 3.6125
3.5625 0.6875 3.6125
3.75 0.6875 3.675
3.75 0.75 3.6125
3.6875 0.75 3.675
3.75 0.6875 3.6125
3.6875 0.6875 3.675
3.6875 0.75 3.6125
3.6875 0.6875 3.6125
3.875 0.6875 3.675
3.875 0.75 3.6125
3.8125 0.75 3.675
3.875 0.6875 3.6125
3.8125 0.6875 3.675
3.8125 0.75 3.6125
3.8125 0.6875 3.6125
4 0.6875 3.675
4 0.75 3.6125
3.9375 0.75 3.675
4 0.6875 3.6125
3.9375 0.6875 3.675
3.9375 0.75 3.6125
3.9375 0.6875 3.6125
0.125 0.8125 3.675
0 0.8125 3.675
0.125 0.875 3.6125
0.0625 0.875 3.675
0 0.875 3.6125
0.125 0.8125 3.6125
0.0625 0.8125 3.675
0 0.8125 3.6125
0.0625 0.875 3.6125
0.0625 0.8125 3.6125
0.25 0.8125 3.675
0.25 0.875 3.6125
0.1875 0.875 3.675
0.25 0.8125 3.6125
0.1875 0.8125 3.675
0.1875 0.875 3.6125
0.1875 0.8125 3.6125
0.375 0.8125 3.675
0.375 0.875 3.6125
0.3125 0.875 3.675
0.375 0.8125 3.6125
0.3125 0.8125 3.675
0.3125 0.875 3.6125
0.3125 0.8125 3.6125
0.5 0.8125 3.675
0.5 0.875 3.6125
0.4375 0.875 3.675
0.5 0.8125 3.6125
0.4375 0.8125 3.675
0.4375 0.875 3.6125
0.4375 0.8125 3.6125
0.625 0.8125 3.675
0.625 0.875 3.6125
0.5625 0.875 3.675
0.625 0.8125 3.6125
0.5625 0.8125 3.675
0.5625 0.875 3.6125
0.5625 0.8125 3.6125
0.75 0.8125 3.675
0.75 0.875 3.6125
0.6875 0.875 3.675
0.75 0.8125 3.6125
0.6875 0.8125 3.675
0.6875 0.875 3.6125
0.6875 0.8125 3.6125
0.875 0.8125 3.675
0.875 0.875 3.6125
0.8125 0.875 3.675
0.875 0.8125 3.6125
0.8125 0.8125 3.675
0.8125 0.875 3.6125
0.8125 0.8125 3.6125
1 0.8125 3.675
1 0.875 3.6125
0.9375 0.875 3.675
1 0.8125 3.6125
0.9375 0.8125 3.675
0.9375 0.875 3.6125
0.9375 0.8125 3.6125
1.125 0.8125 3.675
1.125 0.875 3.6125
1.0625 0.875 3.675
1.125 0.8125 3.6125
1.0625 0.8125 3.675
1.0625 0.875 3.6125
1.0625 0.8125 3.6125
1.25 0.8125 3.675
1.25 0.875 3.6125
1.1875 0.875 3.675
1.25 0.8125 3.6125
1.1875 0.8125 3.675
1.1875 0.875 3.6125
1.1875 0.8125 3.6125
1.375 0.8125 3.675
1.375 0.875 3.6125
1.3125 0.875 3.675
1.375 0.8125 3.6125
1.3125 0.8125 3.675
1.3125 0.875 3.6125
1.3125 0.8125 3.6125
1.5 0.8125 3.675
1.5 0.875 3.6125
1.4375 0.875 3.675
1.5 0.8125 3.6125
1.4375 0.8125 3.675
1.4375 0.875 3.6125
1.4375 0.8125 3.6125
1.625 0.8125 3.675
1.625 0.875 3.6125
1.5625 0.875 3.675
1.625 0.8125 3.6125
1.5625 0.8125 3.675
1.5625 0.875 3.6125
1.5625 0.8125 3.6125
1.75 0.8125 3.675
1.75 0.875 3.6125
1.6875 0.875 3.675
1.75 0.8125 3.6125
1.6875 0.8125 3.675
1.6875 0.875 3.6125
1.6875 0.8125 3.6125
1.875 0.8125 3.675
1.875 0.875 3.6125
1.8125 0.875 3.675
1.875 0.8125 3.6125
1.8125 0.8125 3.675
1.8125 0.875 3.6125
1.8125 0.8125 3.6125
2 0.8125 3.675
2 0.875 3.6125
1.9375 0.875 3.675
2 0.8125 3.6125
1.9375 0.8125 3.675
1.9375 0.875 3.6125
1.9375 0.8125 3.6125
2.125 0.8125 3.675
2.125 0.875 3.6125
2.0625 0.875 3.675
2.125 0.8125 3.6125
2.0625 0.8125 3.675
2.0625 0.875 3.6125
2.0625 0.8125 3.6125
2.25 0.8125 3.675
2.25 0.875 3.6125
2.1875 0.875 3.675
2.25 0.8125 3.6125
2.1875 0.8125 3.675
2.1875 0.875 3.6125
2.1875 0.8125 3.6125
2.375 0.8125 3.675
2.375 0.875 3.6125
2.3125 0.875 3.675
2.375 0.8125 3.6125
2.3125 0.8125 3.675
2.3125 0.875 3.6125
2.3125 0.8125 3.6125
2.5 0.8125 3.675
2.5 0.875 3.6125
2.4375 0.875 3.675
2.5 0.8125 3.6125
2.4375 0.8125 3.675
2.4375 0.875 3.6125
2.4375 0.8125 3.6125
2.625 0.8125 3.675
2.625 0.875 3.6125
2.5625 0.875 3.675
2.625 0.8125 3.6125
2.5625 0.8125 3.675
2.5625 0.875 3.6125
2.5625 0.8125 3.6125
2.75 0.8125 3.675
2.75 0.875 3.6125
2.6875 0.875 3.675
2.75 0.8125 3.6125
2.6875 0.8125 3.675
2.6875 0.875 3.6125
2.6875 0.8125 3.6125
2.875 0.8125 3.675
2.875 0.875 3.6125
2.8125 0.875 3.675
2.875 0.8125 3.6125
2.8125 0.8125 3.675
2.8125 0.875 3.6125
2.8125 0.8125 3.6125
3 0.8125 3.675
3 0.875 3.6125
2.9375 0.875 3.675
3 0.8125 3.6125
2.9375 0.8125 3.675
2.9375 0.875 3.6125
2.9375 0.8125 3.6125
3.125 0.8125 3.675
3.125 0.875 3.6125
3.0625 0.875 3.675
3.125 0.8125 3.6125
3.0625 0.8125 3.675
3.0625 0.875 3.6125
3.0625 0.8125 3.6125
3.25 0.8125 3.675
3.25 0.875 3.6125
3.1875 0.875 3.675
3.25 0.8125 3.6125
3.1875 0.8125 3.675
3.1875 0.875 3.6125
3.1875 0.8125 3.6125
3.375 0.8125 3.675
3.375 0.875 3.6125
3.3125 0.875 3.675
3.375 0.8125 3.6125
3.3125 0.8125 3.675
3.3125 0.875 3.6125
3.3125 0.8125 3.6125
3.5 0.8125 3.675
3.5 0.875 3.6125
3.4375 0.875 3.675
3.5 0.8125 3.6125
3.4375 0.8125 3.675
3.4375 0.875 3.6125
3.4375 0.8125 3.6125
3.625 0.8125 3.675
3.625 0.875 3.6125
3.5625 0.875 3.675
3.625 0.8125 3.6125
3.5625 0.8125 3.675
3.5625 0.875 3.6125
3.5625 0.8125 3.6125
3.75 0.8125 3.675
3.75 0.875 3.6125
3.6875 0.875 3.675
3.75 0.8125 3.6125
3.6875 0.8125 3.675
3.6875 0.875 3.6125
3.6875 0.8125 3.6125
3.875 0.8125 3.675
3.875 0.875 3.6125
3.8125 0.875 3.675
3.875 0.8125 3.6125
3.8125 0.8125 3.675
3.8125 0.875 3.6125
3.8125 0.8125 3.6125
4 0.8125 3.675
4 0.875 3.6125
3.9375 0.875 3.675
4 0.8125 3.6125
3.9375 0.8125 3.675
3.9375 0.875 3.6125
3.9375 0.8125 3.6125
0.125 0.9375 3.675
0 0.9375 3.675
0.125 1 3.6125
0.0625 1 3.675
0 1 3.6125
0.125 0.9375 3.6125
0.0625 0.9375 3.675
0 0.9375 3.6125
0.0625 1 3.6125
0.0625 0.9375 3.6125
0.25 0.9375 3.675
0.25 1 3.6125
0.1875 1 3.675
0.25 0.9375 3.6125
0.1875 0.9375 3.675
0.1875 1 3.6125
0.1875 0.9375 3.6125
0.375 0.9375 3.675
0.375 1 3.6125
0.3125 1 3.675
0.375 0.9375 3.6125
0.3125 0.9375 3.675
0.3125 1 3.6125
0.3125 0.9375 3.6125
0.5 0.9375 3.675
0.5 1 3.6125
0.4375 1 3.675
0.5 0.9375 3.6125
0.4375 0.9375 3.675
0.4375 1 3.6125
0.4375 0.9375 3.6125
0.625 0.9375 3.675
0.625 1 3.6125
0.5625 1 3.675
0.625 0.9375 3.6125
0.5625 0.9375 3.675
0.5625 1 3.6125
0.5625 0.9375 3.6125
0.75 0.9375 3.675
0.75 1 3.6125
0.6875 1 3.675
0.75 0.9375 3.6125
0.6875 0.9375 3.675
0.6875 1 3.6125
0.6875 0.9375 3.6125
0.875 0.9375 3.675
0.875 1 3.6125
0.8125 1 3.675
0.875 0.9375 3.6125
0.8125 0.9375 3.675
0.8125 1 3.6125
0.8125 0.9375 3.6125
1 0.9375 3.675
1 1 3.6125
0.9375 1 3.675
1 0.9375 3.6125
0.9375 0.9375 3.675
0.9375 1 3.6125
0.9375 0.9375 3.6125
1.125 0.9375 3.675
1.125 1 3.6125
1.0625 1 3.675
1.125 0.9375 3.6125
1.0625 0.9375 3.675
1.0625 1 3.6125
1.0625 0.9375 3.6125
1.25 0.9375 3.675
1.25 1 3.6125
1.1875 1 3.675
1.25 0.9375 3.6125
1.1875 0.9375 3.675
1.1875 1 3.6125
1.1875 0.9375 3.6125
1.375 0.9375 3.675
1.375 1 3.6125
1.3125 1 3.675
1.375 0.9375 3.6125
1.3125 0.9375 3.675
1.3125 1 3.6125
1.3125 0.9375 3.6125
1.5 0.9375 3.675
1.5 1 3.6125
1.4375 1 3.675
1.5 0.9375 3.6125
1.4375 0.9375 3.675
1.4375 1 3.6125
1.4375 0.9375 3.6125
1.625 0.9375 3.675
1.625 1 3.6125
1.5625 1 3.675
1.625 0.9375 3.6125
1.5625 0.9375 3.675
1.5625 1 3.6125
1.5625 0.9375 3.6125
1.75 0.9375 3.675
1.75 1 3.6125
1.6875 1 3.675
1.75 0.9375 3.6125
1.6875 0.9375 3.675
1.6875 1 3.6125
1.6875 0.9375 3.6125
1.875 0.9375 3.675
1.875 1 3.6125
1.8125 1 3.675
1.875 0.9375 3.6125
1.8125 0.9375 3.675
1.8125 1 3.6125
1.8125 0.9375 3.6125
2 0.9375 3.675
2 1 3.6125
1.9375 1 3.675
2 0.9375 3.6125
1.9375 0.9375 3.675
1.9375 1 3.6125
1.9375 0.9375 3.6125
2.125 0.9375 3.675
2.125 1 3.6125
2.0625 1 3.675
2.125 0.9375 3.6125
2.0625 0.9375 3.675
2.0625 1 3.6125
2.0625 0.9375 3.6125
2.25 0.9375 3.675
2.25 1 3.6125
2.1875 1 3.675
2.25 0.9375 3.6125
2.1875 0.9375 3.675
2.1875 1 3.6125
2.1875 0.9375 3.6125
2.375 0.9375 3.675
2.375 1 3.6125
2.3125 1 3.675
2.375 0.9375 3.6125
2.3125 0.9375 3.675
2.3125 1 3.6125
2.3125 0.9375 3.6125
2.5 0.9375 3.675
2.5 1 3.6125
2.4375 1 3.675
2.5 0.9375 3.6125
2.4375 0.9375 3.675
2.4375 1 3.6125
2.4375 0.9375 3.6125
2.625 0.9375 3.675
2.625 1 3.6125
2.5625 1 3.675
2.625 0.9375 3.6125
2.5625 0.9375 3.675
2.5625 1 3.6125
2.5625 0.9375 3.6125
2.75 0.9375 3.675
2.75 1 3.6125
2.6875 1 3.675
2.75 0.9375 3.6125
2.6875 0.9375 3.675
2.6875 1 3.6125
2.6875 0.9375 3.6125
2.875 0.9375 3.675
2.875 1 3.6125
2.8125 1 3.675
2.875 0.9375 3.6125
2.8125 0.9375 3.675
2.8125 1 3.6125
2.8125 0.9375 3.6125
3 0.9375 3.675
3 1 3.6125
2.9375 1 3.675
3 0.9375 3.6125
2.9375 0.9375 3.675
2.9375 1 3.6125
2.9375 0.9375 3.6125
3.125 0.9375 3.675
3.125 1 3.6125
3.0625 1 3.675
3.125 0.9375 3.6125
3.0625 0.9375 3.675
3.0625 1 3.6125
3.0625 0.9375 3.6125
3.25 0.9375 3.675
3.25 1 3.6125
3.1875 1 3.675
3.25 0.9375 3.6125
3.1875 0.9375 3.675
3.1875 1 3.6125
3.1875 0.9375 3.6125
3.375 0.9375 3.675
3.375 1 3.6125
3.3125 1 3.675
3.375 0.9375 3.6125
3.3125 0.9375 3.675
3.3125 1 3.6125
3.3125 0.9375 3.6125
3.5 0.9375 3.675
3.5 1 3.6125
3.4375 1 3.675
3.5 0.9375 3.6125
3.4375 0.9375 3.675
3.4375 1 3.6125
3.4375 0.9375 3.6125
3.625 0.9375 3.675
3.625 1 3.6125
3.5625 1 3.675
3.625 0.9375 3.6125
3.5625 0.9375 3.675
3.5625 1 3.6125
3.5625 0.9375 3.6125
3.75 0.9375 3.675
3.75 1 3.6125
3.6875 1 3.675
3.75 0.9375 3.6125
3.6875 0.9375 3.675
3.6875 1 3.6125
3.6875 0.9375 3.6125
3.875 0.9375 3.675
3.875 1 3.6125
3.8125 1 3.675
3.875 0.9375 3.6125
3.8125 0.9375 3.675
3.8125 1 3.6125
3.8125 0.9375 3.6125
4 0.9375 3.675
4 1 3.6125
3.9375 1 3.675
4 0.9375 3.6125
3.9375 0.9375 3.675
3.9375 1 3.6125
3.9375 0.9375 3.6125
0.125 0 3.7375
0.0625 0 3.8
0 0 3.7375
0.125 0.0625 3.8
0 0.0625 3.8
0.125 0.125 3.7375
0.0625 0.125 3.8
0 0.125 3.7375
0.0625 0 3.7375
0.125 0.0625 3.7375
0.0625 0.0625 3.8
0 0.0625 3.7375
0.0625 0.125 3.7375
0.0625 0.0625 3.7375
0.25 0 3.7375
0.1875 0 3.8
0.25 0.0625 3.8
0.25 0.125 3.7375
0.1875 0.125 3.8
0.1875 0 3.7375
0.25 0.0625 3.7375
0.1875 0.0625 3.8
0.1875 0.125 3.7375
0.1875 0.0625 3.7375
0.375 0 3.7375
0.3125 0 3.8
0.375 0.0625 3.8
0.375 0.125 3.7375
0.3125 0.125 3.8
0.3125 0 3.7375
0.375 0.0625 3.7375
0.3125 0.0625 3.8
0.3125 0.125 3.7375
0.3125 0.0625 3.7375
0.5 0 3.7375
0.4375 0 3.8
0.5 0.0625 3.8
0.5 0.125 3.7375
0.4375 0.125 3.8
0.4375 0 3.7375
0.5 0.0625 3.7375
0.4375 0.0625 3.8
0.4375 0.125 3.7375
0.4375 0.0625 3.7375
0.625 0 3.7375
0.5625 0 3.8
0.625 0.0625 3.8
0.625 0.125 3.7375
0.5625 0.125 3.8
0.5625 0 3.7375
0.625 0.0625 3.7375
0.5625 0.0625 3.8
0.5625 0.125 3.7375
0.5625 0.0625 3.7375
0.75 0 3.7375
0.6875 0 3.8
0.75 0.0625 3.8
0.75 0.125 3.7375
0.6875 0.125 3.8
0.6875 0 3.7375
0.75 0.0625 3.7375
0.6875 0.0625 3.8
0.6875 0.125 3.7375
0.6875 0.0625 3.7375
0.875 0 3.7375
0.8125 0 3.8
0.875 0.0625 3.8
0.875 0.125 3.7375
0.8125 0.125 3.8
0.8125 0 3.7375
0.875 0.0625 3.7375
0.8125 0.0625 3.8
0.8125 0.125 3.7375
0.8125 0.0625 3.7375
1 0 3.7375
0.9375 0 3.8
1 0.0625 3.8
1 0.125 3.7375
0.9375 0.125 3.8
0.9375 0 3.7375
1 0.0625 3.7375
0.9375 0.0625 3.8
0.9375 0.125 3.7375
0.9375 0.0625 3.7375
1.125 0 3.7375
1.0625 0 3.8
1.125 0.0625 3.8
1.125 0.125 3.7375
1.0625 0.125 3.8
1.0625 0 3.7375
1.125 0.0625 3.7375
1.0625 0.0625 3.8
1.0625 0.125 3.7375
1.0625 0.0625 3.7375
1.25 0 3.7375
1.1875 0 3.8
1.25 0.0625 3.8
1.25 0.125 3.7375
1.1875 0.125 3.8
1.1875 0 3.7375
1.25 0.0625 3.7375
1.1875 0.0625 3.8
1.1875 0.125 3.7375
1.1875 0.0625 3.7375
1.375 0 3.7375
1.3125 0 3.8
1.375 0.0625 3.8
1.375 0.125 3.7375
1.3125 0.125 3.8
1.3125 0 3.7375
1.375 0.0625 3.7375
1.3125 0.0625 3.8
1.3125 0.125 3.7375
1.3125 0.0625 3.7375
1.5 0 3.7375
1.4375 0 3.8
1.5 0.0625 3.8
1.5 0.125 3.7375
1.4375 0.125 3.8
1.4375 0 3.7375
1.5 0.0625 3.7375
1.4375 0.0625 3.8
1.4375 0.125 3.7375
1.4375 0.0625 3.7375
1.625 0 3.7375
1.5625 0 3.8
1.625 0.0625 3.8
1.625 0.125 3.7375
1.5625 0.125 3.8
1.5625 0 3.7375
1.625 0.0625 3.7375
1.5625 0.0625 3.8
1.5625 0.125 3.7375
1.5625 0.0625 3.7375
1.75 0 3.7375
1.6875 0 3.8
1.75 0.0625 3.8
1.75 0.125 3.7375
1.6875 0.125 3.8
1.6875 0 3.7375
1.75 0.0625 3.7375
1.6875 0.0625 3.8
1.6875 0.125 3.7375
1.6875 0.0625 3.7375
1.875 0 3.7375
1.8125 0 3.8
1.875 0.0625 3.8
1.875 0.125 3.7375
1.8125 0.125 3.8
1.8125 0 3.7375
1.875 0.0625 3.7375
1.8125 0.0625 3.8
1.8125 0.125 3.7375
1.8125 0.0625 3.7375
2 0 3.7375
1.9375 0 3.8
2 0.0625 3.8
2 0.125 3.7375
1.9375 0.125 3.8
1.9375 0 3.7375
2 0.0625 3.7375
1.9375 0.0625 3.8
1.9375 0.125 3.7375
1.9375 0.0625 3.7375
2.125 0 3.7375
2.0625 0 3.8
2.125 0.0625 3.8
2.125 0.125 3.7375
2.0625 0.125 3.8
2.0625 0 3.7375
2.125 0.0625 3.7375
2.0625 0.0625 3.8
2.0625 0.125 3.7375
2.0625 0.0625 3.7375
2.25 0 3.7375
2.1875 0 3.8
2.25 0.0625 3.8
2.25 0.125 3.7375
2.1875 0.125 3.8
2.1875 0 3.7375
2.25 0.0625 3.7375
2.1875 0.0625 3.8
2.1875 0.125 3.7375
2.1875 0.0625 3.7375
2.375 0 3.7375
2.3125 0 3.8
2.375 0.0625 3.8
2.375 0.125 3.7375
2.3125 0.125 3.8
2.3125 0 3.7375
2.375 0.0625 3.7375
2.3125 0.0625 3.8
2.3125 0.125 3.7375
2.3125 0.0625 3.7375
2.5 0 3.7375
2.4375 0 3.8
2.5 0.0625 3.8
2.5 0.125 3.7375
2.4375 0.125 3.8
2.4375 0 3.7375
2.5 0.0625 3.7375
2.4375 0.0625 3.8
2.4375 0.125 3.7375
2.4375 0.0625 3.7375
2.625 0 3.7375
2.5625 0 3.8
2.625 0.0625 3.8
2.625 0.125 3.7375
2.5625 0.125 3.8
2.5625 0 3.7375
2.625 0.0625 3.7375
2.5625 0.0625 3.8
2.5625 0.125 3.7375
2.5625 0.0625 3.7375
2.75 0 3.7375
2.6875 0 3.8
2.75 0.0625 3.8
2.75 0.125 3.7375
2.6875 0.125 3.8
2.6875 0 3.7375
2.75 0.0625 3.7375
2.6875 0.0625 3.8
2.6875 0.125 3.7375
2.6875 0.0625 3.7375
2.875 0 3.7375
2.8125 0 3.8
2.875 0.0625 3.8
2.875 0.125 3.7375
2.8125 0.125 3.8
2.8125 0 3.7375
2.875 0.0625 3.7375
2.8125 0.0625 3.8
2.8125 0.125 3.7375
2.8125 0.0625 3.7375
3 0 3.7375
2.9375 0 3.8
3 0.0625 3.8
3 0.125 3.7375
2.9375 0.125 3.8
2.9375 0 3.7375
3 0.0625 3.7375
2.9375 0.0625 3.8
2.9375 0.125 3.7375
2.9375 0.0625 3.7375
3.125 0 3.7375
3.0625 0 3.8
3.125 0.0625 3.8
3.125 0.125 3.7375
3.0625 0.125 3.8
3.0625 0 3.7375
3.125 0.0625 3.7375
3.0625 0.0625 3.8
3.0625 0.125 3.7375
3.0625 0.0625 3.7375
3.25 0 3.7375
3.1875 0 3.8
3.25 0.0625 3.8
3.25 0.125 3.7375
3.1875 0.125 3.8
3.1875 0 3.7375
3.25 0.0625 3.7375
3.1875 0.0625 3.8
3.1875 0.125 3.7375
3.1875 0.0625 3.7375
3.375 0 3.7375
3.3125 0 3.8
3.375 0.0625 3.8
3.375 0.125 3.7375
3.3125 0.125 3.8
3.3125 0 3.7375
3.375 0.0625 3.7375
3.3125 0.0625 3.8
3.3125 0.125 3.7375
3.3125 0.0625 3.7375
3.5 0 3.7375
3.4375 0 3.8
3.5 0.0625 3.8
3.5 0.125 3.7375
3.4375 0.125 3.8
3.4375 0 3.7375
3.5 0.0625 3.7375
3.4375 0.0625 3.8
3.4375 0.125 3.7375
3.4375 0.0625 3.7375
3.625 0 3.7375
3.5625 0 3.8
3.625 0.0625 3.8
3.625 0.125 3.7375
3.5625 0.125 3.8
3.5625 0 3.7375
3.625 0.0625 3.7375
3.5625 0.0625 3.8
3.5625 0.125 3.7375
3.5625 0.0625 3.7375
3.75 0 3.7375
3.6875 0 3.8
3.75 0.0625 3.8
3.75 0.125 3.7375
3.6875 0.125 3.8
3.6875 0 3.7375
3.75 0.0625 3.7375
3.6875 0.0625 3.8
3.6875 0.125 3.7375
3.6875 0.0625 3.7375
3.875 0 3.7375
3.8125 0 3.8
3.875 0.0625 3.8
3.875 0.125 3.7375
3.8125 0.125 3.8
3.8125 0 3.7375
3.875 0.0625 3.7375
3.8125 0.0625 3.8
3.8125 0.125 3.7375
3.8125 0.0625 3.7375
4 0 3.7375
3.9375 0 3.8
4 0.0625 3.8
4 0.125 3.7375
3.9375 0.125 3.8
3.9375 0 3.7375
4 0.0625 3.7375
3.9375 0.0625 3.8
3.9375 0.125 3.7375
3.9375 0.0625 3.7375
0.125 0.1875 3.8
0 0.1875 3.8
0.125 0.25 3.7375
0.0625 0.25 3.8
0 0.25 3.7375
0.125 0.1875 3.7375
0.0625 0.1875 3.8
0 0.1875 3.7375
0.0625 0.25 3.7375
0.0625 0.1875 3.7375
0.25 0.1875 3.8
0.25 0.25 3.7375
0.1875 0.25 3.8
0.25 0.1875 3.7375
0.1875 0.1875 3.8
0.1875 0.25 3.7375
0.1875 0.1875 3.7375
0.375 0.1875 3.8
0.375 0.25 3.7375
0.3125 0.25 3.8
0.375 0.1875 3.7375
0.3125 0.1875 3.8
0.3125 0.25 3.7375
0.3125 0.1875 3.7375
0.5 0.1875 3.8
0.5 0.25 3.7375
0.4375 0.25 3.8
0.5 0.1875 3.7375
0.4375 0.1875 3.8
0.4375 0.25 3.7375
0.4375 0.1875 3.7375
0.625 0.1875 3.8
0.625 0.25 3.7375
0.5625 0.25 3.8
0.625 0.1875 3.7375
0.5625 0.1875 3.8
0.5625 0.25 3.7375
0.5625 0.1875 3.7375
0.75 0.1875 3.8
0.75 0.25 3.7375
0.6875 0.25 3.8
0.75 0.1875 3.7375
0.6875 0.1875 3.8
0.6875 0.25 3.7375
0.6875 0.1875 3.7375
0.875 0.1875 3.8
0.875 0.25 3.7375
0.8125 0.25 3.8
0.875 0.1875 3.7375
0.8125 0.1875 3.8
0.8125 0.25 3.7375
0.8125 0.1875 3.7375
1 0.1875 3.8
1 0.25 3.7375
0.9375 0.25 3.8
1 0.1875 3.7375
0.9375 0.1875 3.8
0.9375 0.25 3.7375
0.9375 0.1875 3.7375
1.125 0.1875 3.8
1.125 0.25 3.7375
1.0625 0.25 3.8
1.125 0.1875 3.7375
1.0625 0.1875 3.8
1.0625 0.25 3.7375
1.0625 0.1875 3.7375
1.25 0.1875 3.8
1.25 0.25 3.7375
1.1875 0.25 3.8
1.25 0.1875 3.7375
1.1875 0.1875 3.8
1.1875 0.25 3.7375
1.1875 0.1875 3.7375
1.375 0.1875 3.8
1.375 0.25 3.7375
1.3125 0.25 3.8
1.375 0.1875 3.7375
1.3125 0.1875 3.8
1.3125 0.25 3.7375
1.3125 0.1875 3.7375
1.5 0.1875 3.8
1.5 0.25 3.7375
1.4375 0.25 3.8
1.5 0.1875 3.7375
1.4375 0.1875 3.8
1.4375 0.25 3.7375
1.4375 0.1875 3.7375
1.625 0.1875 3.8
1.625 0.25 3.7375
1.5625 0.25 3.8
1.625 0.1875 3.7375
1.5625 0.1875 3.8
1.5625 0.25 3.7375
1.5625 0.1875 3.7375
1.75 0.1875 3.8
1.75 0.25 3.7375
1.6875 0.25 3.8
1.75 0.1875 3.7375
1.6875 0.1875 3.8
1.6875 0.25 3.7375
1.6875 0.1875 3.7375
1.875 0.1875 3.8
1.875 0.25 3.7375
1.8125 0.25 3.8
1.875 0.1875 3.7375
1.8125 0.1875 3.8
1.8125 0.25 3.7375
1.8125 0.1875 3.7375
2 0.1875 3.8
2 0.25 3.7375
1.9375 0.25 3.8
2 0.1875 3.7375
1.9375 0.1875 3.8
1.9375 0.25 3.7375
1.9375 0.1875 3.7375
2.125 0.1875 3.8
2.125 0.25 3.7375
2.0625 0.25 3.8
2.125 0.1875 3.7375
2.0625 0.1875 3.8
2.0625 0.25 3.7375
2.0625 0.1875 3.7375
2.25 0.1875 3.8
2.25 0.25 3.7375
2.1875 0.25 3.8
2.25 0.1875 3.7375
2.1875 0.1875 3.8
2.1875 0.25 3.7375
2.1875 0.1875 3.7375
2.375 0.1875 3.8
2.375 0.25 3.7375
2.3125 0.25 3.8
2.375 0.1875 3.7375
2.3125 0.1875 3.8
2.3125 0.25 3.7375
2.3125 0.1875 3.7375
2.5 0.1875 3.8
2.5 0.25 3.7375
2.4375 0.25 3.8
2.5 0.1875 3.7375
2.4375 0.1875 3.8
2.4375 0.25 3.7375
2.4375 0.1875 3.7375
2.625 0.1875 3.8
2.625 0.25 3.7375
2.5625 0.25 3.8
2.625 0.1875 3.7375
2.5625 0.1875 3.8
2.5625 0.25 3.7375
2.5625 0.1875 3.7375
2.75 0.1875 3.8
2.75 0.25 3.7375
2.6875 0.25 3.8
2.75 0.1875 3.7375
2.6875 0.1875 3.8
2.6875 0.25 3.7375
2.6875 0.1875 3.7375
2.875 0.1875 3.8
2.875 0.25 3.7375
2.8125 0.25 3.8
2.875 0.1875 3.7375
2.8125 0.1875 3.8
2.8125 0.25 3.7375
2.8125 0.1875 3.7375
3 0.1875 3.8
3 0.25 3.7375
2.9375 0.25 3.8
3 0.1875 3.7375
2.9375 0.1875 3.8
2.9375 0.25 3.7375
2.9375 0.1875 3.7375
3.125 0.1875 3.8
3.125 0.25 3.7375
3.0625 0.25 3.8
3.125 0.1875 3.7375
3.0625 0.1875 3.8
3.0625 0.25 3.7375
3.0625 0.1875 3.7375
3.25 0.1875 3.8
3.25 0.25 3.7375
3.1875 0.25 3.8
3.25 0.1875 3.7375
3.1875 0.1875 3.8
3.1875 0.25 3.7375
3.1875 0.1875 3.7375
3.375 0.1875 3.8
3.375 0.25 3.7375
3.3125 0.25 3.8
3.375 0.1875 3.7375
3.3125 0.1875 3.8
3.3125 0.25 3.7375
3.3125 0.1875 3.7375
3.5 0.1875 3.8
3.5 0.25 3.7375
3.4375 0.25 3.8
3.5 0.1875 3.7375
3.4375 0.1875 3.8
3.4375 0.25 3.7375
3.4375 0.1875 3.7375
3.625 0.1875 3.8
3.625 0.25 3.7375
3.5625 0.25 3.8
3.625 0.1875 3.7375
3.5625 0.1875 3.8
3.5625 0.25 3.7375
3.5625 0.1875 3.7375
3.75 0.1875 3.8
3.75 0.25 3.7375
3.6875 0.25 3.8
3.75 0.1875 3.7375
3.6875 0.1875 3.8
3.6875 0.25 3.7375
3.6875 0.1875 3.7375
3.875 0.1875 3.8
3.875 0.25 3.7375
3.8125 0.25 3.8
3.875 0.1875 3.7375
3.8125 0.1875 3.8
3.8125 0.25 3.7375
3.8125 0.1875 3.7375
4 0.1875 3.8
4 0.25 3.7375
3.9375 0.25 3.8
4 0.1875 3.7375
3.9375 0.1875 3.8
3.9375 0.25 3.7375
3.9375 0.1875 3.7375
0.125 0.3125 3.8
0 0.3125 3.8
0.125 0.375 3.7375
0.0625 0.375 3.8
0 0.375 3.7375
0.125 0.3125 3.7375
0.0625 0.3125 3.8
0 0.3125 3.7375
0.0625 0.375 3.7375
0.0625 0.3125 3.7375
0.25 0.3125 3.8
0.25 0.375 3.7375
0.1875 0.375 3.8
0.25 0.3125 3.7375
0.1875 0.3125 3.8
0.1875 0.375 3.7375
0.1875 0.3125 3.7375
0.375 0.3125 3.8
0.375 0.375 3.7375
0.3125 0.375 3.8
0.375 0.3125 3.7375
0.3125 0.3125 3.8
0.3125 0.375 3.7375
0.3125 0.3125 3.7375
0.5 0.3125 3.8
0.5 0.375 3.7375
0.4375 0.375 3.8
0.5 0.3125 3.7375
0.4375 0.3125 3.8
0.4375 0.375 3.7375
0.4375 0.3125 3.7375
0.625 0.3125 3.8
0.625 0.375 3.7375
0.5625 0.375 3.8
0.625 0.3125 3.7375
0.5625 0.3125 3.8
0.5625 0.375 3.7375
0.5625 0.3125 3.7375
0.75 0.3125 3.8
0.75 0.375 3.7375
0.6875 0.375 3.8
0.75 0.3125 3.7375
0.6875 0.3125 3.8
0.6875 0.375 3.7375
0.6875 0.3125 3.7375
0.875 0.3125 3.8
0.875 0.375 3.7375
0.8125 0.375 3.8
0.875 0.3125 3.7375
0.8125 0.3125 3.8
0.8125 0.375 3.7375
0.8125 0.3125 3.7375
1 0.3125 3.8
1 0.375 3.7375
0.9375 0.375 3.8
1 0.3125 3.7375
0.9375 0.3125 3.8
0.9375 0.375 3.7375
0.9375 0.3125 3.7375
1.125 0.3125 3.8
1.125 0.375 3.7375
1.0625 0.375 3.8
1.125 0.3125 3.7375
1.0625 0.3125 3.8
1.0625 0.375 3.7375
1.0625 0.3125 3.7375
1.25 0.3125 3.8
1.25 0.375 3.7375
1.1875 0.375 3.8
1.25 0.3125 3.7375
1.1875 0.3125 3.8
1.1875 0.375 3.7375
1.1875 0.3125 3.7375
1.375 0.3125 3.8
1.375 0.375 3.7375
1.3125 0.375 3.8
1.375 0.3125 3.7375
1.3125 0.3125 3.8
1.3125 0.375 3.7375
1.3125 0.3125 3.7375
1.5 0.3125 3.8
1.5 0.375 3.7375
1.4375 0.375 3.8
1.5 0.3125 3.7375
1.4375 0.3125 3.8
1.4375 0.375 3.7375
1.4375 0.3125 3.7375
1.625 0.3125 3.8
1.625 0.375 3.7375
1.5625 0.375 3.8
1.625 0.3125 3.7375
1.5625 0.3125 3.8
1.5625 0.375 3.7375
1.5625 0.3125 3.7375
1.75 0.3125 3.8
1.75 0.375 3.7375
1.6875 0.375 3.8
1.75 0.3125 3.7375
1.6875 0.3125 3.8
1.6875 0.375 3.7375
1.6875 0.3125 3.7375
1.875 0.3125 3.8
1.875 0.375 3.7375
1.8125 0.375 3.8
1.875 0.3125 3.7375
1.8125 0.3125 3.8
1.8125 0.375 3.7375
1.8125 0.3125 3.7375
2 0.3125 3.8
2 0.375 3.7375
1.9375 0.375 3.8
2 0.3125 3.7375
1.9375 0.3125 3.8
1.9375 0.375 3.7375
1.9375 0.3125 3.7375
2.125 0.3125 3.8
2.125 0.375 3.7375
2.0625 0.375 3.8
2.125 0.3125 3.7375
2.0625 0.3125 3.8
2.0625 0.375 3.7375
2.0625 0.3125 3.7375
2.25 0.3125 3.8
2.25 0.375 3.7375
2.1875 0.375 3.8
2.25 0.3125 3.7375
2.1875 0.3125 3.8
2.1875 0.375 3.7375
2.1875 0.3125 3.7375
2.375 0.3125 3.8
2.375 0.375 3.7375
2.3125 0.375 3.8
2.375 0.3125 3.7375
2.3125 0.3125 3.8
2.3125 0.375 3.7375
2.3125 0.3125 3.7375
2.5 0.3125 3.8
2.5 0.375 3.7375
2.4375 0.375 3.8
2.5 0.3125 3.7375
2.4375 0.3125 3.8
2.4375 0.375 3.7375
2.4375 0.3125 3.7375
2.625 0.3125 3.8
2.625 0.375 3.7375
2.5625 0.375 3.8
2.625 0.3125 3.7375
2.5625 0.3125 3.8
2.5625 0.375 3.7375
2.5625 0.3125 3.7375
2.75 0.3125 3.8
2.75 0.375 3.7375
2.6875 0.375 3.8
2.75 0.3125 3.7375
2.6875 0.3125 3.8
2.6875 0.375 3.7375
2.6875 0.3125 3.7375
2.875 0.3125 3.8
2.875 0.375 3.7375
2.8125 0.375 3.8
2.875 0.3125 3.7375
2.8125 0.3125 3.8
2.8125 0.375 3.7375
2.8125 0.3125 3.7375
3 0.3125 3.8
3 0.375 3.7375
2.9375 0.375 3.8
3 0.3125 3.7375
2.9375 0.3125 3.8
2.9375 0.375 3.7375
2.9375 0.3125 3.7375
3.125 0.3125 3.8
3.125 0.375 3.7375
3.0625 0.375 3.8
3.125 0.3125 3.7375
3.0625 0.3125 3.8
3.0625 0.375 3.7375
3.0625 0.3125 3.7375
3.25 0.3125 3.8
3.25 0.375 3.7375
3.1875 0.375 3.8
3.25 0.3125 3.7375
3.1875 0.3125 3.8
3.1875 0.375 3.7375
3.1875 0.3125 3.7375
3.375 0.3125 3.8
3.375 0.375 3.7375
3.3125 0.375 3.8
3.375 0.3125 3.7375
3.3125 0.3125 3.8
3.3125 0.375 3.7375
3.3125 0.3125 3.7375
3.5 0.3125 3.8
3.5 0.375 3.7375
3.4375 0.375 3.8
3.5 0.3125 3.7375
3.4375 0.3125 3.8
3.4375 0.375 3.7375
3.4375 0.3125 3.7375
3.625 0.3125 3.8
3.625 0.375 3.7375
3.5625 0.375 3.8
3.625 0.3125 3.7375
3.5625 0.3125 3.8
3.5625 0.375 3.7375
3.5625 0.3125 3.7375
3.75 0.3125 3.8
3.75 0.375 3.7375
3.6875 0.375 3.8
3.75 0.3125 3.7375
3.6875 0.3125 3.8
3.6875 0.375 3.7375
3.6875 0.3125 3.7375
3.875 0.3125 3.8
3.875 0.375 3.7375
3.8125 0.375 3.8
3.875 0.3125 3.7375
3.8125 0.3125 3.8
3.8125 0.375 3.7375
3.8125 0.3125 3.7375
4 0.3125 3.8
4 0.375 3.7375
3.9375 0.375 3.8
4 0.3125 3.7375
3.9375 0.3125 3.8
3.9375 0.375 3.7375
3.9375 0.3125 3.7375
0.125 0.4375 3.8
0 0.4375 3.8
0.125 0.5 3.7375
0.0625 0.5 3.8
0 0.5 3.7375
0.125 0.4375 3.7375
0.0625 0.4375 3.8
0 0.4375 3.7375
0.0625 0.5 3.7375
0.0625 0.4375 3.7375
0.25 0.4375 3.8
0.25 0.5 3.7375
0.1875 0.5 3.8
0.25 0.4375 3.7375
0.1875 0.4375 3.8
0.1875 0.5 3.7375
0.1875 0.4375 3.7375
0.375 0.4375 3.8
0.375 0.5 3.7375
0.3125 0.5 3.8
0.375 0.4375 3.7375
0.3125 0.4375 3.8
0.3125 0.5 3.7375
0.3125 0.4375 3.7375
0.5 0.4375 3.8
0.5 0.5 3.7375
0.4375 0.5 3.8
0.5 0.4375 3.7375
0.4375 0.4375 3.8
0.4375 0.5 3.7375
0.4375 0.4375 3.7375
0.625 0.4375 3.8
0.625 0.5 3.7375
0.5625 0.5 3.8
0.625 0.4375 3.7375
0.5625 0.4375 3.8
0.5625 0.5 3.7375
0.5625 0.4375 3.7375
0.75 0.4375 3.8
0.75 0.5 3.7375
0.6875 0.5 3.8
0.75 0.4375 3.7375
0.6875 0.4375 3.8
0.6875 0.5 3.7375
0.6875 0.4375 3.7375
0.875 0.4375 3.8
0.875 0.5 3.7375
0.8125 0.5 3.8
0.875 0.4375 3.7375
0.8125 0.4375 3.8
0.8125 0.5 3.7375
0.8125 0.4375 3.7375
1 0.4375 3.8
1 0.5 3.7375
0.9375 0.5 3.8
1 0.4375 3.7375
0.9375 0.4375 3.8
0.9375 0.5 3.7375
0.9375 0.4375 3.7375
1.125 0.4375 3.8
1.125 0.5 3.7375
1.0625 0.5 3.8
1.125 0.4375 3.7375
1.0625 0.4375 3.8
1.0625 0.5 3.7375
1.0625 0.4375 3.7375
1.25 0.4375 3.8
1.25 0.5 3.7375
1.1875 0.5 3.8
1.25 0.4375 3.7375
1.1875 0.4375 3.8
1.1875 0.5 3.7375
1.1875 0.4375 3.7375
1.375 0.4375 3.8
1.375 0.5 3.7375
1.3125 0.5 3.8
1.375 0.4375 3.7375
1.3125 0.4375 3.8
1.3125 0.5 3.7375
1.3125 0.4375 3.7375
1.5 0.4375 3.8
1.5 0.5 3.7375
1.4375 0.5 3.8
1.5 0.4375 3.7375
1.4375 0.4375 3.8
1.4375 0.5 3.7375
1.4375 0.4375 3.7375
1.625 0.4375 3.8
1.625 0.5 3.7375
1.5625 0.5 3.8
1.625 0.4375 3.7375
1.5625 0.4375 3.8
1.5625 0.5 3.7375
1.5625 0.4375 3.7375
1.75 0.4375 3.8
1.75 0.5 3.7375
1.6875 0.5 3.8
1.75 0.4375 3.7375
1.6875 0.4375 3.8
1.6875 0.5 3.7375
1.6875 0.4375 3.7375
1.875 0.4375 3.8
1.875 0.5 3.7375
1.8125 0.5 3.8
1.875 0.4375 3.7375
1.8125 0.4375 3.8
1.8125 0.5 3.7375
1.8125 0.4375 3.7375
2 0.4375 3.8
2 0.5 3.7375
1.9375 0.5 3.8
2 0.4375 3.7375
1.9375 0.4375 3.8
1.9375 0.5 3.7375
1.9375 0.4375 3.7375
2.125 0.4375 3.8
2.125 0.5 3.7375
2.0625 0.5 3.8
2.125 0.4375 3.7375
2.0625 0.4375 3.8
2.0625 0.5 3.7375
2.0625 0.4375 3.7375
2.25 0.4375 3.8
2.25 0.5 3.7375
2.1875 0.5 3.8
2.25 0.4375 3.7375
2.1875 0.4375 3.8
2.1875 0.5 3.7375
2.1875 0.4375 3.7375
2.375 0.4375 3.8
2.375 0.5 3.7375
2.3125 0.5 3.8
2.375 0.4375 3.7375
2.3125 0.4375 3.8
2.3125 0.5 3.7375
2.3125 0.4375 3.7375
2.5 0.4375 3.8
2.5 0.5 3.7375
2.4375 0.5 3.8
2.5 0.4375 3.7375
2.4375 0.4375 3.8
2.4375 0.5 3.7375
2.4375 0.4375 3.7375
2.625 0.4375 3.8
2.625 0.5 3.7375
2.5625 0.5 3.8
2.625 0.4375 3.7375
2.5625 0.4375 3.8
2.5625 0.5 3.7375
2.5625 0.4375 3.7375
2.75 0.4375 3.8
2.75 0.5 3.7375
2.6875 0.5 3.8
2.75 0.4375 3.7375
2.6875 0.4375 3.8
2.6875 0.5 3.7375
2.6875 0.4375 3.7375
2.875 0.4375 3.8
2.875 0.5 3.7375
2.8125 0.5 3.8
2.875 0.4375 3.7375
2.8125 0.4375 3.8
2.8125 0.5 3.7375
2.8125 0.4375 3.7375
3 0.4375 3.8
3 0.5 3.7375
2.9375 0.5 3.8
3 0.4375 3.7375
2.9375 0.4375 3.8
2.9375 0.5 3.7375
2.9375 0.4375 3.7375
3.125 0.4375 3.8
3.125 0.5 3.7375
3.0625 0.5 3.8
3.125 0.4375 3.7375
3.0625 0.4375 3.8
3.0625 0.5 3.7375
3.0625 0.4375 3.7375
3.25 0.4375 3.8
3.25 0.5 3.7375
3.1875 0.5 3.8
3.25 0.4375 3.7375
3.1875 0.4375 3.8
3.1875 0.5 3.7375
3.1875 0.4375 3.7375
3.375 0.4375 3.8
3.375 0.5 3.7375
3.3125 0.5 3.8
3.375 0.4375 3.7375
3.3125 0.4375 3.8
3.3125 0.5 3.7375
3.3125 0.4375 3.7375
3.5 0.4375 3.8
3.5 0.5 3.7375
3.4375 0.5 3.8
3.5 0.4375 3.7375
3.4375 0.4375 3.8
3.4375 0.5 3.7375
3.4375 0.4375 3.7375
3.625 0.4375 3.8
3.625 0.5 3.7375
3.5625 0.5 3.8
3.625 0.4375 3.7375
3.5625 0.4375 3.8
3.5625 0.5 3.7375
3.5625 0.4375 3.7375
3.75 0.4375 3.8
3.75 0.5 3.7375
3.6875 0.5 3.8
3.75 0.4375 3.7375
3.6875 0.4375 3.8
3.6875 0.5 3.7375
3.6875 0.4375 3.7375
3.875 0.4375 3.8
3.875 0.5 3.7375
3.8125 0.5 3.8
3.875 0.4375 3.7375
3.8125 0.4375 3.8
3.8125 0.5 3.7375
3.8125 0.4375 3.7375
4 0.4375 3.8
4 0.5 3.7375
3.9375 0.5 3.8
4 0.4375 3.7375
3.9375 0.4375 3.8
3.9375 0.5 3.7375
3.9375 0.4375 3.7375
0.125 0.5625 3.8
0 0.5625 3.8
0.125 0.625 3.7375
0.0625 0.625 3.8
0 0.625 3.7375
0.125 0.5625 3.7375
0.0625 0.5625 3.8
0 0.5625 3.7375
0.0625 0.625 3.7375
0.0625 0.5625 3.7375
0.25 0.5625 3.8
0.25 0.625 3.7375
0.1875 0.625 3.8
0.25 0.5625 3.7375
0.1875 0.5625 3.8
0.1875 0.625 3.7375
0.1875 0.5625 3.7375
0.375 0.5625 3.8
0.375 0.625 3.7375
0.3125 0.625 3.8
0.375 0.5625 3.7375
0.3125 0.5625 3.8
0.3125 0.625 3.7375
0.3125 0.5625 3.7375
0.5 0.5625 3.8
0.5 0.625 3.7375
0.4375 0.625 3.8
0.5 0.5625 3.7375
0.4375 0.5625 3.8
0.4375 0.625 3.7375
0.4375 0.5625 3.7375
0.625 0.5625 3.8
0.625 0.625 3.7375
0.5625 0.625 3.8
0.625 0.5625 3.7375
0.5625 0.5625 3.8
0.5625 0.625 3.7375
0.5625 0.5625 3.7375
0.75 0.5625 3.8
0.75 0.625 3.7375
0.6875 0.625 3.8
0.75 0.5625 3.7375
0.6875 0.5625 3.8
0.6875 0.625 3.7375
0.6875 0.5625 3.7375
0.875 0.5625 3.8
0.875 0.625 3.7375
0.8125 0.625 3.8
0.875 0.5625 3.7375
0.8125 0.5625 3.8
0.8125 0.625 3.7375
0.8125 0.5625 3.7375
1 0.5625 3.8
1 0.625 3.7375
0.9375 0.625 3.8
1 0.5625 3.7375
0.9375 0.5625 3.8
0.9375 0.625 3.7375
0.9375 0.5625 3.7375
1.125 0.5625 3.8
1.125 0.625 3.7375
1.0625 0.625 3.8
1.125 0.5625 3.7375
1.0625 0.5625 3.8
1.0625 0.625 3.7375
1.0625 0.5625 3.7375
1.25 0.5625 3.8
1.25 0.625 3.7375
1.1875 0.625 3.8
1.25 0.5625 3.7375
1.1875 0.5625 3.8
1.1875 0.625 3.7375
1.1875 0.5625 3.7375
1.375 0.5625 3.8
1.375 0.625 3.7375
1.3125 0.625 3.8
1.375 0.5625 3.7375
1.3125 0.5625 3.8
1.3125 0.625 3.7375
1.3125 0.5625 3.7375
1.5 0.5625 3.8
1.5 0.625 3.7375
1.4375 0.625 3.8
1.5 0.5625 3.7375
1.4375 0.5625 3.8
1.4375 0.625 3.7375
1.4375 0.5625 3.7375
1.625 0.5625 3.8
1.625 0.625 3.7375
1.5625 0.625 3.8
1.625 0.5625 3.7375
1.5625 0.5625 3.8
1.5625 0.625 3.7375
1.5625 0.5625 3.7375
1.75 0.5625 3.8
1.75 0.625 3.7375
1.6875 0.625 3.8
1.75 0.5625 3.7375
1.6875 0.5625 3.8
1.6875 0.625 3.7375
1.6875 0.5625 3.7375
1.875 0.5625 3.8
1.875 0.625 3.7375
1.8125 0.625 3.8
1.875 0.5625 3.7375
1.8125 0.5625 3.8
1.8125 0.625 3.7375
1.8125 0.5625 3.7375
2 0.5625 3.8
2 0.625 3.7375
1.9375 0.625 3.8
2 0.5625 3.7375
1.9375 0.5625 3.8
1.9375 0.625 3.7375
1.9375 0.5625 3.7375
2.125 0.5625 3.8
2.125 0.625 3.7375
2.0625 0.625 3.8
2.125 0.5625 3.7375
2.0625 0.5625 3.8
2.0625 0.625 3.7375
2.0625 0.5625 3.7375
2.25 0.5625 3.8
2.25 0.625 3.7375
2.1875 0.625 3.8
2.25 0.5625 3.7375
2.1875 0.5625 3.8
2.1875 0.625 3.7375
2.1875 0.5625 3.7375
2.375 0.5625 3.8
2.375 0.625 3.7375
2.3125 0.625 3.8
2.375 0.5625 3.7375
2.3125 0.5625 3.8
2.3125 0.625 3.7375
2.3125 0.5625 3.7375
2.5 0.5625 3.8
2.5 0.625 3.7375
2.4375 0.625 3.8
2.5 0.5625 3.7375
2.4375 0.5625 3.8
2.4375 0.625 3.7375
2.4375 0.5625 3.7375
2.625 0.5625 3.8
2.625 0.625 3.7375
2.5625 0.625 3.8
2.625 0.5625 3.7375
2.5625 0.5625 3.8
2.5625 0.625 3.7375
2.5625 0.5625 3.7375
2.75 0.5625 3.8
2.75 0.625 3.7375
2.6875 0.625 3.8
2.75 0.5625 3.7375
2.6875 0.5625 3.8
2.6875 0.625 3.7375
2.6875 0.5625 3.7375
2.875 0.5625 3.8
2.875 0.625 3.7375
2.8125 0.625 3.8
2.875 0.5625 3.7375
2.8125 0.5625 3.8
2.8125 0.625 3.7375
2.8125 0.5625 3.7375
3 0.5625 3.8
3 0.625 3.7375
2.9375 0.625 3.8
3 0.5625 3.7375
2.9375 0.5625 3.8
2.9375 0.625 3.7375
2.9375 0.5625 3.7375
3.125 0.5625 3.8
3.125 0.625 3.7375
3.0625 0.625 3.8
3.125 0.5625 3.7375
3.0625 0.5625 3.8
3.0625 0.625 3.7375
3.0625 0.5625 3.7375
3.25 0.5625 3.8
3.25 0.625 3.7375
3.1875 0.625 3.8
3.25 0.5625 3.7375
3.1875 0.5625 3.8
3.1875 0.625 3.7375
3.1875 0.5625 3.7375
3.375 0.5625 3.8
3.375 0.625 3.7375
3.3125 0.625 3.8
3.375 0.5625 3.7375
3.3125 0.5625 3.8
3.3125 0.625 3.7375
3.3125 0.5625 3.7375
3.5 0.5625 3.8
3.5 0.625 3.7375
3.4375 0.625 3.8
3.5 0.5625 3.7375
3.4375 0.5625 3.8
3.4375 0.625 3.7375
3.4375 0.5625 3.7375
3.625 0.5625 3.8
3.625 0.625 3.7375
3.5625 0.625 3.8
3.625 0.5625 3.7375
3.5625 0.5625 3.8
3.5625 0.625 3.7375
3.5625 0.5625 3.7375
3.75 0.5625 3.8
3.75 0.625 3.7375
3.6875 0.625 3.8
3.75 0.5625 3.7375
3.6875 0.5625 3.8
3.6875 0.625 3.7375
3.6875 0.5625 3.7375
3.875 0.5625 3.8
3.875 0.625 3.7375
3.8125 0.625 3.8
3.875 0.5625 3.7375
3.8125 0.5625 3.8
3.8125 0.625 3.7375
3.8125 0.5625 3.7375
4 0.5625 3.8
4 0.625 3.7375
3.9375 0.625 3.8
4 0.5625 3.7375
3.9375 0.5625 3.8
3.9375 0.625 3.7375
3.9375 0.5625 3.7375
0.125 0.6875 3.8
0 0.6875 3.8
0.125 0.75 3.7375
0.0625 0.75 3.8
0 0.75 3.7375
0.125 0.6875 3.7375
0.0625 0.6875 3.8
0 0.6875 3.7375
0.0625 0.75 3.7375
0.0625 0.6875 3.7375
0.25 0.6875 3.8
0.25 0.75 3.7375
0.1875 0.75 3.8
0.25 0.6875 3.7375
0.1875 0.6875 3.8
0.1875 0.75 3.7375
0.1875 0.6875 3.7375
0.375 0.6875 3.8
0.375 0.75 3.7375
0.3125 0.75 3.8
0.375 0.6875 3.7375
0.3125 0.6875 3.8
0.3125 0.75 3.7375
0.3125 0.6875 3.7375
0.5 0.6875 3.8
0.5 0.75 3.7375
0.4375 0.75 3.8
0.5 0.6875 3.7375
0.4375 0.6875 3.8
0.4375 0.75 3.7375
0.4375 0.6875 3.7375
0.625 0.6875 3.8
0.625 0.75 3.7375
0.5625 0.75 3.8
0.625 0.6875 3.7375
0.5625 0.6875 3.8
0.5625 0.75 3.7375
0.5625 0.6875 3.7375
0.75 0.6875 3.8
0.75 0.75 3.7375
0.6875 0.75 3.8
0.75 0.6875 3.7375
0.6875 0.6875 3.8
0.6875 0.75 3.7375
0.6875 0.6875 3.7375
0.875 0.6875 3.8
0.875 0.75 3.7375
0.8125 0.75 3.8
0.875 0.6875 3.7375
0.8125 0.6875 3.8
0.8125 0.75 3.7375
0.8125 0.6875 3.7375
1 0.6875 3.8
1 0.75 3.7375
0.9375 0.75 3.8
1 0.6875 3.7375
0.9375 0.6875 3.8
0.9375 0.75 3.7375
0.9375 0.6875 3.7375
1.125 0.6875 3.8
1.125 0.75 3.7375
1.0625 0.75 3.8
1.125 0.6875 3.7375
1.0625 0.6875 3.8
1.0625 0.75 3.7375
1.0625 0.6875 3.7375
1.25 0.6875 3.8
1.25 0.75 3.7375
1.1875 0.75 3.8
1.25 0.6875 3.7375
1.1875 0.6875 3.8
1.1875 0.75 3.7375
1.1875 0.6875 3.7375
1.375 0.6875 3.8
1.375 0.75 3.7375
1.3125 0.75 3.8
1.375 0.6875 3.7375
1.3125 0.6875 3.8
1.3125 0.75 3.7375
1.3125 0.6875 3.7375
1.5 0.6875 3.8
1.5 0.75 3.7375
1.4375 0.75 3.8
1.5 0.6875 3.7375
1.4375 0.6875 3.8
1.4375 0.75 3.7375
1.4375 0.6875 3.7375
1.625 0.6875 3.8
1.625 0.75 3.7375
1.5625 0.75 3.8
1.625 0.6875 3.7375
1.5625 0.6875 3.8
1.5625 0.75 3.7375
1.5625 0.6875 3.7375
1.75 0.6875 3.8
1.75 0.75 3.7375
1.6875 0.75 3.8
1.75 0.6875 3.7375
1.6875 0.6875 3.8
1.6875 0.75 3.7375
1.6875 0.6875 3.7375
1.875 0.6875 3.8
1.875 0.75 3.7375
1.8125 0.75 3.8
1.875 0.6875 3.7375
1.8125 0.6875 3.8
1.8125 0.75 3.7375
1.8125 0.6875 3.7375
2 0.6875 3.8
2 0.75 3.7375
1.9375 0.75 3.8
2 0.6875 3.7375
1.9375 0.6875 3.8
1.9375 0.75 3.7375
1.9375 0.6875 3.7375
2.125 0.6875 3.8
2.125 0.75 3.7375
2.0625 0.75 3.8
2.125 0.6875 3.7375
2.0625 0.6875 3.8
2.0625 0.75 3.7375
2.0625 0.6875 3.7375
2.25 0.6875 3.8
2.25 0.75 3.7375
2.1875 0.75 3.8
2.25 0.6875 3.7375
2.1875 0.6875 3.8
2.1875 0.75 3.7375
2.1875 0.6875 3.7375
2.375 0.6875 3.8
2.375 0.75 3.7375
2.3125 0.75 3.8
2.375 0.6875 3.7375
2.3125 0.6875 3.8
2.3125 0.75 3.7375
2.3125 0.6875 3.7375
2.5 0.6875 3.8
2.5 0.75 3.7375
2.4375 0.75 3.8
2.5 0.6875 3.7375
2.4375 0.6875 3.8
2.4375 0.75 3.7375
2.4375 0.6875 3.7375
2.625 0.6875 3.8
2.625 0.75 3.7375
2.5625 0.75 3.8
2.625 0.6875 3.7375
2.5625 0.6875 3.8
2.5625 0.75 3.7375
2.5625 0.6875 3.7375
2.75 0.6875 3.8
2.75 0.75 3.7375
2.6875 0.75 3.8
2.75 0.6875 3.7375
2.6875 0.6875 3.8
2.6875 0.75 3.7375
2.6875 0.6875 3.7375
2.875 0.6875 3.8
2.875 0.75 3.7375
2.8125 0.75 3.8
2.875 0.6875 3.7375
2.8125 0.6875 3.8
2.8125 0.75 3.7375
2.8125 0.6875 3.7375
3 0.6875 3.8
3 0.75 3.7375
2.9375 0.75 3.8
3 0.6875 3.7375
2.9375 0.6875 3.8
2.9375 0.75 3.7375
2.9375 0.6875 3.7375
3.125 0.6875 3.8
3.125 0.75 3.7375
3.0625 0.75 3.8
3.125 0.6875 3.7375
3.0625 0.6875 3.8
3.0625 0.75 3.7375
3.0625 0.6875 3.7375
3.25 0.6875 3.8
3.25 0.75 3.7375
3.1875 0.75 3.8
3.25 0.6875 3.7375
3.1875 0.6875 3.8
3.1875 0.75 3.7375
3.1875 0.6875 3.7375
3.375 0.6875 3.8
3.375 0.75 3.7375
3.3125 0.75 3.8
3.375 0.6875 3.7375
3.3125 0.6875 3.8
3.3125 0.75 3.7375
3.3125 0.6875 3.7375
3.5 0.6875 3.8
3.5 0.75 3.7375
3.4375 0.75 3.8
3.5 0.6875 3.7375
3.4375 0.6875 3.8
3.4375 0.75 3.7375
3.4375 0.6875 3.7375
3.625 0.6875 3.8
3.625 0.75 3.7375
3.5625 0.75 3.8
3.625 0.6875 3.7375
3.5625 0.6875 3.8
3.5625 0.75 3.7375
3.5625 0.6875 3.7375
3.75 0.6875 3.8
3.75 0.75 3.7375
3.6875 0.75 3.8
3.75 0.6875 3.7375
3.6875 0.6875 3.8
3.6875 0.75 3.7375
3.6875 0.6875 3.7375
3.875 0.6875 3.8
3.875 0.75 3.7375
3.8125 0.75 3.8
3.875 0.6875 3.7375
3.8125 0.6875 3.8
3.8125 0.75 3.7375
3.8125 0.6875 3.7375
4 0.6875 3.8
4 0.75 3.7375
3.9375 0.75 3.8
4 0.6875 3.7375
3.9375 0.6875 3.8
3.9375 0.75 3.7375
3.9375 0.6875 3.7375
0.125 0.8125 3.8
0 0.8125 3.8
0.125 0.875 3.7375
0.0625 0.875 3.8
0 0.875 3.7375
0.125 0.8125 3.7375
0.0625 0.8125 3.8
0 0.8125 3.7375
0.0625 0.875 3.7375
0.0625 0.8125 3.7375
0.25 0.8125 3.8
0.25 0.875 3.7375
0.1875 0.875 3.8
0.25 0.8125 3.7375
0.1875 0.8125 3.8
0.1875 0.875 3.7375
0.1875 0.8125 3.7375
0.375 0.8125 3.8
0.375 0.875 3.7375
0.3125 0.875 3.8
0.375 0.8125 3.7375
0.3125 0.8125 3.8
0.3125 0.875 3.7375
0.3125 0.8125 3.7375
0.5 0.8125 3.8
0.5 0.875 3.7375
0.4375 0.875 3.8
0.5 0.8125 3.7375
0.4375 0.8125 3.8
0.4375 0.875 3.7375
0.4375 0.8125 3.7375
0.625 0.8125 3.8
0.625 0.875 3.7375
0.5625 0.875 3.8
0.625 0.8125 3.7375
0.5625 0.8125 3.8
0.5625 0.875 3.7375
0.5625 0.8125 3.7375
0.75 0.8125 3.8
0.75 0.875 3.7375
0.6875 0.875 3.8
0.75 0.8125 3.7375
0.6875 0.8125 3.8
0.6875 0.875 3.7375
0.6875 0.8125 3.7375
0.875 0.8125 3.8
0.875 0.875 3.7375
0.8125 0.875 3.8
0.875 0.8125 3.7375
0.8125 0.8125 3.8
0.8125 0.875 3.7375
0.8125 0.8125 3.7375
1 0.8125 3.8
1 0.875 3.7375
0.9375 0.875 3.8
1 0.8125 3.7375
0.9375 0.8125 3.8
0.9375 0.875 3.7375
0.9375 0.8125 3.7375
1.125 0.8125 3.8
1.125 0.875 3.7375
1.0625 0.875 3.8
1.125 0.8125 3.7375
1.0625 0.8125 3.8
1.0625 0.875 3.7375
1.0625 0.8125 3.7375
1.25 0.8125 3.8
1.25 0.875 3.7375
1.1875 0.875 3.8
1.25 0.8125 3.7375
1.1875 0.8125 3.8
1.1875 0.875 3.7375
1.1875 0.8125 3.7375
1.375 0.8125 3.8
1.375 0.875 3.7375
1.3125 0.875 3.8
1.375 0.8125 3.7375
1.3125 0.8125 3.8
1.3125 0.875 3.7375
1.3125 0.8125 3.7375
1.5 0.8125 3.8
1.5 0.875 3.7375
1.4375 0.875 3.8
1.5 0.8125 3.7375
1.4375 0.8125 3.8
1.4375 0.875 3.7375
1.4375 0.8125 3.7375
1.625 0.8125 3.8
1.625 0.875 3.7375
1.5625 0.875 3.8
1.625 0.8125 3.7375
1.5625 0.8125 3.8
1.5625 0.875 3.7375
1.5625 0.8125 3.7375
1.75 0.8125 3.8
1.75 0.875 3.7375
1.6875 0.875 3.8
1.75 0.8125 3.7375
1.6875 0.8125 3.8
1.6875 0.875 3.7375
1.6875 0.8125 3.7375
1.875 0.8125 3.8
1.875 0.875 3.7375
1.8125 0.875 3.8
1.875 0.8125 3.7375
1.8125 0.8125 3.8
1.8125 0.875 3.7375
1.8125 0.8125 3.7375
2 0.8125 3.8
2 0.875 3.7375
1.9375 0.875 3.8
2 0.8125 3.7375
1.9375 0.8125 3.8
1.9375 0.875 3.7375
1.9375 0.8125 3.7375
2.125 0.8125 3.8
2.125 0.875 3.7375
2.0625 0.875 3.8
2.125 0.8125 3.7375
2.0625 0.8125 3.8
2.0625 0.875 3.7375
2.0625 0.8125 3.7375
2.25 0.8125 3.8
2.25 0.875 3.7375
2.1875 0.875 3.8
2.25 0.8125 3.7375
2.1875 0.8125 3.8
2.1875 0.875 3.7375
2.1875 0.8125 3.7375
2.375 0.8125 3.8
2.375 0.875 3.7375
2.3125 0.875 3.8
2.375 0.8125 3.7375
2.3125 0.8125 3.8
2.3125 0.875 3.7375
2.3125 0.8125 3.7375
2.5 0.8125 3.8
2.5 0.875 3.7375
2.4375 0.875 3.8
2.5 0.8125 3.7375
2.4375 0.8125 3.8
2.4375 0.875 3.7375
2.4375 0.8125 3.7375
2.625 0.8125 3.8
2.625 0.875 3.7375
2.5625 0.875 3.8
2.625 0.8125 3.7375
2.5625 0.8125 3.8
2.5625 0.875 3.7375
2.5625 0.8125 3.7375
2.75 0.8125 3.8
2.75 0.875 3.7375
2.6875 0.875 3.8
2.75 0.8125 3.7375
2.6875 0.8125 3.8
2.6875 0.875 3.7375
2.6875 0.8125 3.7375
2.875 0.8125 3.8
2.875 0.875 3.7375
2.8125 0.875 3.8
2.875 0.8125 3.7375
2.8125 0.8125 3.8
2.8125 0.875 3.7375
2.8125 0.8125 3.7375
3 0.8125 3.8
3 0.875 3.7375
2.9375 0.875 3.8
3 0.8125 3.7375
2.9375 0.8125 3.8
2.9375 0.875 3.7375
2.9375 0.8125 3.7375
3.125 0.8125 3.8
3.125 0.875 3.7375
3.0625 0.875 3.8
3.125 0.8125 3.7375
3.0625 0.8125 3.8
3.0625 0.875 3.7375
3.0625 0.8125 3.7375
3.25 0.8125 3.8
3.25 0.875 3.7375
3.1875 0.875 3.8
3.25 0.8125 3.7375
3.1875 0.8125 3.8
3.1875 0.875 3.7375
3.1875 0.8125 3.7375
3.375 0.8125 3.8
3.375 0.875 3.7375
3.3125 0.875 3.8
3.375 0.8125 3.7375
3.3125 0.8125 3.8
3.3125 0.875 3.7375
3.3125 0.8125 3.7375
3.5 0.8125 3.8
3.5 0.875 3.7375
3.4375 0.875 3.8
3.5 0.8125 3.7375
3.4375 0.8125 3.8
3.4375 0.875 3.7375
3.4375 0.8125 3.7375
3.625 0.8125 3.8
3.625 0.875 3.7375
3.5625 0.875 3.8
3.625 0.8125 3.7375
3.5625 0.8125 3.8
3.5625 0.875 3.7375
3.5625 0.8125 3.7375
3.75 0.8125 3.8
3.75 0.875 3.7375
3.6875 0.875 3.8
3.75 0.8125 3.7375
3.6875 0.8125 3.8
3.6875 0.875 3.7375
3.6875 0.8125 3.7375
3.875 0.8125 3.8
3.875 0.875 3.7375
3.8125 0.875 3.8
3.875 0.8125 3.7375
3.8125 0.8125 3.8
3.8125 0.875 3.7375
3.8125 0.8125 3.7375
4 0.8125 3.8
4 0.875 3.7375
3.9375 0.875 3.8
4 0.8125 3.7375
3.9375 0.8125 3.8
3.9375 0.875 3.7375
3.9375 0.8125 3.7375
0.125 0.9375 3.8
0 0.9375 3.8
0.125 1 3.7375
0.0625 1 3.8
0 1 3.7375
0.125 0.9375 3.7375
0.0625 0.9375 3.8
0 0.9375 3.7375
0.0625 1 3.7375
0.0625 0.9375 3.7375
0.25 0.9375 3.8
0.25 1 3.7375
0.1875 1 3.8
0.25 0.9375 3.7375
0.1875 0.9375 3.8
0.1875 1 3.7375
0.1875 0.9375 3.7375
0.375 0.9375 3.8
0.375 1 3.7375
0.3125 1 3.8
0.375 0.9375 3.7375
0.3125 0.9375 3.8
0.3125 1 3.7375
0.3125 0.9375 3.7375
0.5 0.9375 3.8
0.5 1 3.7375
0.4375 1 3.8
0.5 0.9375 3.7375
0.4375 0.9375 3.8
0.4375 1 3.7375
0.4375 0.9375 3.7375
0.625 0.9375 3.8
0.625 1 3.7375
0.5625 1 3.8
0.625 0.9375 3.7375
0.5625 0.9375 3.8
0.5625 1 3.7375
0.5625 0.9375 3.7375
0.75 0.9375 3.8
0.75 1 3.7375
0.6875 1 3.8
0.75 0.9375 3.7375
0.6875 0.9375 3.8
0.6875 1 3.7375
0.6875 0.9375 3.7375
0.875 0.9375 3.8
0.875 1 3.7375
0.8125 1 3.8
0.875 0.9375 3.7375
0.8125 0.9375 3.8
0.8125 1 3.7375
0.8125 0.9375 3.7375
1 0.9375 3.8
1 1 3.7375
0.9375 1 3.8
1 0.9375 3.7375
0.9375 0.9375 3.8
0.9375 1 3.7375
0.9375 0.9375 3.7375
1.125 0.9375 3.8
1.125 1 3.7375
1.0625 1 3.8
1.125 0.9375 3.7375
1.0625 0.9375 3.8
1.0625 1 3.7375
1.0625 0.9375 3.7375
1.25 0.9375 3.8
1.25 1 3.7375
1.1875 1 3.8
1.25 0.9375 3.7375
1.1875 0.9375 3.8
1.1875 1 3.7375
1.1875 0.9375 3.7375
1.375 0.9375 3.8
1.375 1 3.7375
1.3125 1 3.8
1.375 0.9375 3.7375
1.3125 0.9375 3.8
1.3125 1 3.7375
1.3125 0.9375 3.7375
1.5 0.9375 3.8
1.5 1 3.7375
1.4375 1 3.8
1.5 0.9375 3.7375
1.4375 0.9375 3.8
1.4375 1 3.7375
1.4375 0.9375 3.7375
1.625 0.9375 3.8
1.625 1 3.7375
1.5625 1 3.8
1.625 0.9375 3.7375
1.5625 0.9375 3.8
1.5625 1 3.7375
1.5625 0.9375 3.7375
1.75 0.9375 3.8
1.75 1 3.7375
1.6875 1 3.8
1.75 0.9375 3.7375
1.6875 0.9375 3.8
1.6875 1 3.7375
1.6875 0.9375 3.7375
1.875 0.9375 3.8
1.875 1 3.7375
1.8125 1 3.8
1.875 0.9375 3.7375
1.8125 0.9375 3.8
1.8125 1 3.7375
1.8125 0.9375 3.7375
2 0.9375 3.8
2 1 3.7375
1.9375 1 3.8
2 0.9375 3.7375
1.9375 0.9375 3.8
1.9375 1 3.7375
1.9375 0.9375 3.7375
2.125 0.9375 3.8
2.125 1 3.7375
2.0625 1 3.8
2.125 0.9375 3.7375
2.0625 0.9375 3.8
2.0625 1 3.7375
2.0625 0.9375 3.7375
2.25 0.9375 3.8
2.25 1 3.7375
2.1875 1 3.8
2.25 0.9375 3.7375
2.1875 0.9375 3.8
2.1875 1 3.7375
2.1875 0.9375 3.7375
2.375 0.9375 3.8
2.375 1 3.7375
2.3125 1 3.8
2.375 0.9375 3.7375
2.3125 0.9375 3.8
2.3125 1 3.7375
2.3125 0.9375 3.7375
2.5 0.9375 3.8
2.5 1 3.7375
2.4375 1 3.8
2.5 0.9375 3.7375
2.4375 0.9375 3.8
2.4375 1 3.7375
2.4375 0.9375 3.7375
2.625 0.9375 3.8
2.625 1 3.7375
2.5625 1 3.8
2.625 0.9375 3.7375
2.5625 0.9375 3.8
2.5625 1 3.7375
2.5625 0.9375 3.7375
2.75 0.9375 3.8
2.75 1 3.7375
2.6875 1 3.8
2.75 0.9375 3.7375
2.6875 0.9375 3.8
2.6875 1 3.7375
2.6875 0.9375 3.7375
2.875 0.9375 3.8
2.875 1 3.7375
2.8125 1 3.8
2.875 0.9375 3.7375
2.8125 0.9375 3.8
2.8125 1 3.7375
2.8125 0.9375 3.7375
3 0.9375 3.8
3 1 3.7375
2.9375 1 3.8
3 0.9375 3.7375
2.9375 0.9375 3.8
2.9375 1 3.7375
2.9375 0.9375 3.7375
3.125 0.9375 3.8
3.125 1 3.7375
3.0625 1 3.8
3.125 0.9375 3.7375
3.0625 0.9375 3.8
3.0625 1 3.7375
3.0625 0.9375 3.7375
3.25 0.9375 3.8
3.25 1 3.7375
3.1875 1 3.8
3.25 0.9375 3.7375
3.1875 0.9375 3.8
3.1875 1 3.7375
3.1875 0.9375 3.7375
3.375 0.9375 3.8
3.375 1 3.7375
3.3125 1 3.8
3.375 0.9375 3.7375
3.3125 0.9375 3.8
3.3125 1 3.7375
3.3125 0.9375 3.7375
3.5 0.9375 3.8
3.5 1 3.7375
3.4375 1 3.8
3.5 0.9375 3.7375
3.4375 0.9375 3.8
3.4375 1 3.7375
3.4375 0.9375 3.7375
3.625 0.9375 3.8
3.625 1 3.7375
3.5625 1 3.8
3.625 0.9375 3.7375
3.5625 0.9375 3.8
3.5625 1 3.7375
3.5625 0.9375 3.7375
3.75 0.9375 3.8
3.75 1 3.7375
3.6875 1 3.8
3.75 0.9375 3.7375
3.6875 0.9375 3.8
3.6875 1 3.7375
3.6875 0.9375 3.7375
3.875 0.9375 3.8
3.875 1 3.7375
3.8125 1 3.8
3.875 0.9375 3.7375
3.8125 0.9375 3.8
3.8125 1 3.7375
3.8125 0.9375 3.7375
4 0.9375 3.8
4 1 3.7375
3.9375 1 3.8
4 0.9375 3.7375
3.9375 0.9375 3.8
3.9375 1 3.7375
3.9375 0.9375 3.7375
0.125 0 3.8625
0.0625 0 3.925
0 0 3.8625
0.125 0.0625 3.925
0 0.0625 3.925
0.125 0.125 3.8625
0.0625 0.125 3.925
0 0.125 3.8625
0.0625 0 3.8625
0.125 0.0625 3.8625
0.0625 0.0625 3.925
0 0.0625 3.8625
0.0625 0.125 3.8625
0.0625 0.0625 3.8625
0.25 0 3.8625
0.1875 0 3.925
0.25 0.0625 3.925
0.25 0.125 3.8625
0.1875 0.125 3.925
0.1875 0 3.8625
0.25 0.0625 3.8625
0.1875 0.0625 3.925
0.1875 0.125 3.8625
0.1875 0.0625 3.8625
0.375 0 3.8625
0.3125 0 3.925
0.375 0.0625 3.925
0.375 0.125 3.8625
0.3125 0.125 3.925
0.3125 0 3.8625
0.375 0.0625 3.8625
0.3125 0.0625 3.925
0.3125 0.125 3.8625
0.3125 0.0625 3.8625
0.5 0 3.8625
0.4375 0 3.925
0.5 0.0625 3.925
0.5 0.125 3.8625
0.4375 0.125 3.925
0.4375 0 3.8625
0.5 0.0625 3.8625
0.4375 0.0625 3.925
0.4375 0.125 3.8625
0.4375 0.0625 3.8625
0.625 0 3.8625
0.5625 0 3.925
0.625 0.0625 3.925
0.625 0.125 3.8625
0.5625 0.125 3.925
0.5625 0 3.8625
0.625 0.0625 3.8625
0.5625 0.0625 3.925
0.5625 0.125 3.8625
0.5625 0.0625 3.8625
0.75 0 3.8625
0.6875 0 3.925
0.75 0.0625 3.925
0.75 0.125 3.8625
0.6875 0.125 3.925
0.6875 0 3.8625
0.75 0.0625 3.8625
0.6875 0.0625 3.925
0.6875 0.125 3.8625
0.6875 0.0625 3.8625
0.875 0 3.8625
0.8125 0 3.925
0.875 0.0625 3.925
0.875 0.125 3.8625
0.8125 0.125 3.925
0.8125 0 3.8625
0.875 0.0625 3.8625
0.8125 0.0625 3.925
0.8125 0.125 3.8625
0.8125 0.0625 3.8625
1 0 3.8625
0.9375 0 3.925
1 0.0625 3.925
1 0.125 3.8625
0.9375 0.125 3.925
0.9375 0 3.8625
1 0.0625 3.8625
0.9375 0.0625 3.925
0.9375 0.125 3.8625
0.9375 0.0625 3.8625
1.125 0 3.8625
1.0625 0 3.925
1.125 0.0625 3.925
1.125 0.125 3.8625
1.0625 0.125 3.925
1.0625 0 3.8625
1.125 0.0625 3.8625
1.0625 0.0625 3.925
1.0625 0.125 3.8625
1.0625 0.0625 3.8625
1.25 0 3.8625
1.1875 0 3.925
1.25 0.0625 3.925
1.25 0.125 3.8625
1.1875 0.125 3.925
1.1875 0 3.8625
1.25 0.0625 3.8625
1.1875 0.0625 3.925
1.1875 0.125 3.8625
1.1875 0.0625 3.8625
1.375 0 3.8625
1.3125 0 3.925
1.375 0.0625 3.925
1.375 0.125 3.8625
1.3125 0.125 3.925
1.3125 0 3.8625
1.375 0.0625 3.8625
1.3125 0.0625 3.925
1.3125 0.125 3.8625
1.3125 0.0625 3.8625
1.5 0 3.8625
1.4375 0 3.925
1.5 0.0625 3.925
1.5 0.125 3.8625
1.4375 0.125 3.925
1.4375 0 3.8625
1.5 0.0625 3.8625
1.4375 0.0625 3.925
1.4375 0.125 3.8625
1.4375 0.0625 3.8625
1.625 0 3.8625
1.5625 0 3.925
1.625 0.0625 3.925
1.625 0.125 3.8625
1.5625 0.125 3.925
1.5625 0 3.8625
1.625 0.0625 3.8625
1.5625 0.0625 3.925
1.5625 0.125 3.8625
1.5625 0.0625 3.8625
1.75 0 3.8625
1.6875 0 3.925
1.75 0.0625 3.925
1.75 0.125 3.8625
1.6875 0.125 3.925
1.6875 0 3.8625
1.75 0.0625 3.8625
1.6875 0.0625 3.925
1.6875 0.125 3.8625
1.6875 0.0625 3.8625
1.875 0 3.8625
1.8125 0 3.925
1.875 0.0625 3.925
1.875 0.125 3.8625
1.8125 0.125 3.925
1.8125 0 3.8625
1.875 0.0625 3.8625
1.8125 0.0625 3.925
1.8125 0.125 3.8625
1.8125 0.0625 3.8625
2 0 3.8625
1.9375 0 3.925
2 0.0625 3.925
2 0.125 3.8625
1.9375 0.125 3.925
1.9375 0 3.8625
2 0.0625 3.8625
1.9375 0.0625 3.925
1.9375 0.125 3.8625
1.9375 0.0625 3.8625
2.125 0 3.8625
2.0625 0 3.925
2.125 0.0625 3.925
2.125 0.125 3.8625
2.0625 0.125 3.925
2.0625 0 3.8625
2.125 0.0625 3.8625
2.0625 0.0625 3.925
2.0625 0.125 3.8625
2.0625 0.0625 3.8625
2.25 0 3.8625
2.1875 0 3.925
2.25 0.0625 3.925
2.25 0.125 3.8625
2.1875 0.125 3.925
2.1875 0 3.8625
2.25 0.0625 3.8625
2.1875 0.0625 3.925
2.1875 0.125 3.8625
2.1875 0.0625 3.8625
2.375 0 3.8625
2.3125 0 3.925
2.375 0.0625 3.925
2.375 0.125 3.8625
2.3125 0.125 3.925
2.3125 0 3.8625
2.375 0.0625 3.8625
2.3125 0.0625 3.925
2.3125 0.125 3.8625
2.3125 0.0625 3.8625
2.5 0 3.8625
2.4375 0 3.925
2.5 0.0625 3.925
2.5 0.125 3.8625
2.4375 0.125 3.925
2.4375 0 3.8625
2.5 0.0625 3.8625
2.4375 0.0625 3.925
2.4375 0.125 3.8625
2.4375 0.0625 3.8625
2.625 0 3.8625
2.5625 0 3.925
2.625 0.0625 3.925
2.625 0.125 3.8625
2.5625 0.125 3.925
2.5625 0 3.8625
2.625 0.0625 3.8625
2.5625 0.0625 3.925
2.5625 0.125 3.8625
2.5625 0.0625 3.8625
2.75 0 3.8625
2.6875 0 3.925
2.75 0.0625 3.925
2.75 0.125 3.8625
2.6875 0.125 3.925
2.6875 0 3.8625
2.75 0.0625 3.8625
2.6875 0.0625 3.925
2.6875 0.125 3.8625
2.6875 0.0625 3.8625
2.875 0 3.8625
2.8125 0 3.925
2.875 0.0625 3.925
2.875 0.125 3.8625
2.8125 0.125 3.925
2.8125 0 3.8625
2.875 0.0625 3.8625
2.8125 0.0625 3.925
2.8125 0.125 3.8625
2.8125 0.0625 3.8625
3 0 3.8625
2.9375 0 3.925
3 0.0625 3.925
3 0.125 3.8625
2.9375 0.125 3.925
2.9375 0 3.8625
3 0.0625 3.8625
2.9375 0.0625 3.925
2.9375 0.125 3.8625
2.9375 0.0625 3.8625
3.125 0 3.8625
3.0625 0 3.925
3.125 0.0625 3.925
3.125 0.125 3.8625
3.0625 0.125 3.925
3.0625 0 3.8625
3.125 0.0625 3.8625
3.0625 0.0625 3.925
3.0625 0.125 3.8625
3.0625 0.0625 3.8625
3.25 0 3.8625
3.1875 0 3.925
3.25 0.0625 3.925
3.25 0.125 3.8625
3.1875 0.125 3.925
3.1875 0 3.8625
3.25 0.0625 3.8625
3.1875 0.0625 3.925
3.1875 0.125 3.8625
3.1875 0.0625 3.8625
3.375 0 3.8625
3.3125 0 3.925
3.375 0.0625 3.925
3.375 0.125 3.8625
3.3125 0.125 3.925
3.3125 0 3.8625
3.375 0.0625 3.8625
3.3125 0.0625 3.925
3.3125 0.125 3.8625
3.3125 0.0625 3.8625
3.5 0 3.8625
3.4375 0 3.925
3.5 0.0625 3.925
3.5 0.125 3.8625
3.4375 0.125 3.925
3.4375 0 3.8625
3.5 0.0625 3.8625
3.4375 0.0625 3.925
3.4375 0.125 3.8625
3.4375 0.0625 3.8625
3.625 0 3.8625
3.5625 0 3.925
3.625 0.0625 3.925
3.625 0.125 3.8625
3.5625 0.125 3.925
3.5625 0 3.8625
3.625 0.0625 3.8625
3.5625 0.0625 3.925
3.5625 0.125 3.8625
3.5625 0.0625 3.8625
3.75 0 3.8625
3.6875 0 3.925
3.75 0.0625 3.925
3.75 0.125 3.8625
3.6875 0.125 3.925
3.6875 0 3.8625
3.75 0.0625 3.8625
3.6875 0.0625 3.925
3.6875 0.125 3.8625
3.6875 0.0625 3.8625
3.875 0 3.8625
3.8125 0 3.925
3.875 0.0625 3.925
3.875 0.125 3.8625
3.8125 0.125 3.925
3.8125 0 3.8625
3.875 0.0625 3.8625
3.8125 0.0625 3.925
3.8125 0.125 3.8625
3.8125 0.0625 3.8625
4 0 3.8625
3.9375 0 3.925
4 0.0625 3.925
4 0.125 3.8625
3.9375 0.125 3.925
3.9375 0 3.8625
4 0.0625 3.8625
3.9375 0.0625 3.925
3.9375 0.125 3.8625
3.9375 0.0625 3.8625
0.125 0.1875 3.925
0 0.1875 3.925
0.125 0.25 3.8625
0.0625 0.25 3.925
0 0.25 3.8625
0.125 0.1875 3.8625
0.0625 0.1875 3.925
0 0.1875 3.8625
0.0625 0.25 3.8625
0.0625 0.1875 3.8625
0.25 0.1875 3.925
0.25 0.25 3.8625
0.1875 0.25 3.925
0.25 0.1875 3.8625
0.1875 0.1875 3.925
0.1875 0.25 3.8625
0.1875 0.1875 3.8625
0.375 0.1875 3.925
0.375 0.25 3.8625
0.3125 0.25 3.925
0.375 0.1875 3.8625
0.3125 0.1875 3.925
0.3125 0.25 3.8625
0.3125 0.1875 3.8625
0.5 0.1875 3.925
0.5 0.25 3.8625
0.4375 0.25 3.925
0.5 0.1875 3.8625
0.4375 0.1875 3.925
0.4375 0.25 3.8625
0.4375 0.1875 3.8625
0.625 0.1875 3.925
0.625 0.25 3.8625
0.5625 0.25 3.925
0.625 0.1875 3.8625
0.5625 0.1875 3.925
0.5625 0.25 3.8625
0.5625 0.1875 3.8625
0.75 0.1875 3.925
0.75 0.25 3.8625
0.6875 0.25 3.925
0.75 0.1875 3.8625
0.6875 0.1875 3.925
0.6875 0.25 3.8625
0.6875 0.1875 3.8625
0.875 0.1875 3.925
0.875 0.25 3.8625
0.8125 0.25 3.925
0.875 0.1875 3.8625
0.8125 0.1875 3.925
0.8125 0.25 3.8625
0.8125 0.1875 3.8625
1 0.1875 3.925
1 0.25 3.8625
0.9375 0.25 3.925
1 0.1875 3.8625
0.9375 0.1875 3.925
0.9375 0.25 3.8625
0.9375 0.1875 3.8625
1.125 0.1875 3.925
1.125 0.25 3.8625
1.0625 0.25 3.925
1.125 0.1875 3.8625
1.0625 0.1875 3.925
1.0625 0.25 3.8625
1.0625 0.1875 3.8625
1.25 0.1875 3.925
1.25 0.25 3.8625
1.1875 0.25 3.925
1.25 0.1875 3.8625
1.1875 0.1875 3.925
1.1875 0.25 3.8625
1.1875 0.1875 3.8625
1.375 0.1875 3.925
1.375 0.25 3.8625
1.3125 0.25 3.925
1.375 0.1875 3.8625
1.3125 0.1875 3.925
1.3125 0.25 3.8625
1.3125 0.1875 3.8625
1.5 0.1875 3.925
1.5 0.25 3.8625
1.4375 0.25 3.925
1.5 0.1875 3.8625
1.4375 0.1875 3.925
1.4375 0.25 3.8625
1.4375 0.1875 3.8625
1.625 0.1875 3.925
1.625 0.25 3.8625
1.5625 0.25 3.925
1.625 0.1875 3.8625
1.5625 0.1875 3.925
1.5625 0.25 3.8625
1.5625 0.1875 3.8625
1.75 0.1875 3.925
1.75 0.25 3.8625
1.6875 0.25 3.925
1.75 0.1875 3.8625
1.6875 0.1875 3.925
1.6875 0.25 3.8625
1.6875 0.1875 3.8625
1.875 0.1875 3.925
1.875 0.25 3.8625
1.8125 0.25 3.925
1.875 0.1875 3.8625
1.8125 0.1875 3.925
1.8125 0.25 3.8625
1.8125 0.1875 3.8625
2 0.1875 3.925
2 0.25 3.8625
1.9375 0.25 3.925
2 0.1875 3.8625
1.9375 0.1875 3.925
1.9375 0.25 3.8625
1.9375 0.1875 3.8625
2.125 0.1875 3.925
2.125 0.25 3.8625
2.0625 0.25 3.925
2.125 0.1875 3.8625
2.0625 0.1875 3.925
2.0625 0.25 3.8625
2.0625 0.1875 3.8625
2.25 0.1875 3.925
2.25 0.25 3.8625
2.1875 0.25 3.925
2.25 0.1875 3.8625
2.1875 0.1875 3.925
2.1875 0.25 3.8625
2.1875 0.1875 3.8625
2.375 0.1875 3.925
2.375 0.25 3.8625
2.3125 0.25 3.925
2.375 0.1875 3.8625
2.3125 0.1875 3.925
2.3125 0.25 3.8625
2.3125 0.1875 3.8625
2.5 0.1875 3.925
2.5 0.25 3.8625
2.4375 0.25 3.925
2.5 0.1875 3.8625
2.4375 0.1875 3.925
2.4375 0.25 3.8625
2.4375 0.1875 3.8625
2.625 0.1875 3.925
2.625 0.25 3.8625
2.5625 0.25 3.925
2.625 0.1875 3.8625
2.5625 0.1875 3.925
2.5625 0.25 3.8625
2.5625 0.1875 3.8625
2.75 0.1875 3.925
2.75 0.25 3.8625
2.6875 0.25 3.925
2.75 0.1875 3.8625
2.6875 0.1875 3.925
2.6875 0.25 3.8625
2.6875 0.1875 3.8625
2.875 0.1875 3.925
2.875 0.25 3.8625
2.8125 0.25 3.925
2.875 0.1875 3.8625
2.8125 0.1875 3.925
2.8125 0.25 3.8625
2.8125 0.1875 3.8625
3 0.1875 3.925
3 0.25 3.8625
2.9375 0.25 3.925
3 0.1875 3.8625
2.9375 0.1875 3.925
2.9375 0.25 3.8625
2.9375 0.1875 3.8625
3.125 0.1875 3.925
3.125 0.25 3.8625
3.0625 0.25 3.925
3.125 0.1875 3.8625
3.0625 0.1875 3.925
3.0625 0.25 3.8625
3.0625 0.1875 3.8625
3.25 0.1875 3.925
3.25 0.25 3.8625
3.1875 0.25 3.925
3.25 0.1875 3.8625
3.1875 0.1875 3.925
3.1875 0.25 3.8625
3.1875 0.1875 3.8625
3.375 0.1875 3.925
3.375 0.25 3.8625
3.3125 0.25 3.925
3.375 0.1875 3.8625
3.3125 0.1875 3.925
3.3125 0.25 3.8625
3.3125 0.1875 3.8625
3.5 0.1875 3.925
3.5 0.25 3.8625
3.4375 0.25 3.925
3.5 0.1875 3.8625
3.4375 0.1875 3.925
3.4375 0.25 3.8625
3.4375 0.1875 3.8625
3.625 0.1875 3.925
3.625 0.25 3.8625
3.5625 0.25 3.925
3.625 0.1875 3.8625
3.5625 0.1875 3.925
3.5625 0.25 3.8625
3.5625 0.1875 3.8625
3.75 0.1875 3.925
3.75 0.25 3.8625
3.6875 0.25 3.925
3.75 0.1875 3.8625
3.6875 0.1875 3.925
3.6875 0.25 3.8625
3.6875 0.1875 3.8625
3.875 0.1875 3.925
3.875 0.25 3.8625
3.8125 0.25 3.925
3.875 0.1875 3.8625
3.8125 0.1875 3.925
3.8125 0.25 3.8625
3.8125 0.1875 3.8625
4 0.1875 3.925
4 0.25 3.8625
3.9375 0.25 3.925
4 0.1875 3.8625
3.9375 0.1875 3.925
3.9375 0.25 3.8625
3.9375 0.1875 3.8625
0.125 0.3125 3.925
0 0.3125 3.925
0.125 0.375 3.8625
0.0625 0.375 3.925
0 0.375 3.8625
0.125 0.3125 3.8625
0.0625 0.3125 3.925
0 0.3125 3.8625
0.0625 0.375 3.8625
0.0625 0.3125 3.8625
0.25 0.3125 3.925
0.25 0.375 3.8625
0.1875 0.375 3.925
0.25 0.3125 3.8625
0.1875 0.3125 3.925
0.1875 0.375 3.8625
0.1875 0.3125 3.8625
0.375 0.3125 3.925
0.375 0.375 3.8625
0.3125 0.375 3.925
0.375 0.3125 3.8625
0.3125 0.3125 3.925
0.3125 0.375 3.8625
0.3125 0.3125 3.8625
0.5 0.3125 3.925
0.5 0.375 3.8625
0.4375 0.375 3.925
0.5 0.3125 3.8625
0.4375 0.3125 3.925
0.4375 0.375 3.8625
0.4375 0.3125 3.8625
0.625 0.3125 3.925
0.625 0.375 3.8625
0.5625 0.375 3.925
0.625 0.3125 3.8625
0.5625 0.3125 3.925
0.5625 0.375 3.8625
0.5625 0.3125 3.8625
0.75 0.3125 3.925
0.75 0.375 3.8625
0.6875 0.375 3.925
0.75 0.3125 3.8625
0.6875 0.3125 3.925
0.6875 0.375 3.8625
0.6875 0.3125 3.8625
0.875 0.3125 3.925
0.875 0.375 3.8625
0.8125 0.375 3.925
0.875 0.3125 3.8625
0.8125 0.3125 3.925
0.8125 0.375 3.8625
0.8125 0.3125 3.8625
1 0.3125 3.925
1 0.375 3.8625
0.9375 0.375 3.925
1 0.3125 3.8625
0.9375 0.3125 3.925
0.9375 0.375 3.8625
0.9375 0.3125 3.8625
1.125 0.3125 3.925
1.125 0.375 3.8625
1.0625 0.375 3.925
1.125 0.3125 3.8625
1.0625 0.3125 3.925
1.0625 0.375 3.8625
1.0625 0.3125 3.8625
1.25 0.3125 3.925
1.25 0.375 3.8625
1.1875 0.375 3.925
1.25 0.3125 3.8625
1.1875 0.3125 3.925
1.1875 0.375 3.8625
1.1875 0.3125 3.8625
1.375 0.3125 3.925
1.375 0.375 3.8625
1.3125 0.375 3.925
1.375 0.3125 3.8625
1.3125 0.3125 3.925
1.3125 0.375 3.8625
1.3125 0.3125 3.8625
1.5 0.3125 3.925
1.5 0.375 3.8625
1.4375 0.375 3.925
1.5 0.3125 3.8625
1.4375 0.3125 3.925
1.4375 0.375 3.8625
1.4375 0.3125 3.8625
1.625 0.3125 3.925
1.625 0.375 3.8625
1.5625 0.375 3.925
1.625 0.3125 3.8625
1.5625 0.3125 3.925
1.5625 0.375 3.8625
1.5625 0.3125 3.8625
1.75 0.3125 3.925
1.75 0.375 3.8625
1.6875 0.375 3.925
1.75 0.3125 3.8625
1.6875 0.3125 3.925
1.6875 0.375 3.8625
1.6875 0.3125 3.8625
1.875 0.3125 3.925
1.875 0.375 3.8625
1.8125 0.375 3.925
1.875 0.3125 3.8625
1.8125 0.3125 3.925
1.8125 0.375 3.8625
1.8125 0.3125 3.8625
2 0.3125 3.925
2 0.375 3.8625
1.9375 0.375 3.925
2 0.3125 3.8625
1.9375 0.3125 3.925
1.9375 0.375 3.8625
1.9375 0.3125 3.8625
2.125 0.3125 3.925
2.125 0.375 3.8625
2.0625 0.375 3.925
2.125 0.3125 3.8625
2.0625 0.3125 3.925
2.0625 0.375 3.8625
2.0625 0.3125 3.8625
2.25 0.3125 3.925
2.25 0.375 3.8625
2.1875 0.375 3.925
2.25 0.3125 3.8625
2.1875 0.3125 3.925
2.1875 0.375 3.8625
2.1875 0.3125 3.8625
2.375 0.3125 3.925
2.375 0.375 3.8625
2.3125 0.375 3.925
2.375 0.3125 3.8625
2.3125 0.3125 3.925
2.3125 0.375 3.8625
2.3125 0.3125 3.8625
2.5 0.3125 3.925
2.5 0.375 3.8625
2.4375 0.375 3.925
2.5 0.3125 3.8625
2.4375 0.3125 3.925
2.4375 0.375 3.8625
2.4375 0.3125 3.8625
2.625 0.3125 3.925
2.625 0.375 3.8625
2.5625 0.375 3.925
2.625 0.3125 3.8625
2.5625 0.3125 3.925
2.5625 0.375 3.8625
2.5625 0.3125 3.8625
2.75 0.3125 3.925
2.75 0.375 3.8625
2.6875 0.375 3.925
2.75 0.3125 3.8625
2.6875 0.3125 3.925
2.6875 0.375 3.8625
2.6875 0.3125 3.8625
2.875 0.3125 3.925
2.875 0.375 3.8625
2.8125 0.375 3.925
2.875 0.3125 3.8625
2.8125 0.3125 3.925
2.8125 0.375 3.8625
2.8125 0.3125 3.8625
3 0.3125 3.925
3 0.375 3.8625
2.9375 0.375 3.925
3 0.3125 3.8625
2.9375 0.3125 3.925
2.9375 0.375 3.8625
2.9375 0.3125 3.8625
3.125 0.3125 3.925
3.125 0.375 3.8625
3.0625 0.375 3.925
3.125 0.3125 3.8625
3.0625 0.3125 3.925
3.0625 0.375 3.8625
3.0625 0.3125 3.8625
3.25 0.3125 3.925
3.25 0.375 3.8625
3.1875 0.375 3.925
3.25 0.3125 3.8625
3.1875 0.3125 3.925
3.1875 0.375 3.8625
3.1875 0.3125 3.8625
3.375 0.3125 3.925
3.375 0.375 3.8625
3.3125 0.375 3.925
3.375 0.3125 3.8625
3.3125 0.3125 3.925
3.3125 0.375 3.8625
3.3125 0.3125 3.8625
3.5 0.3125 3.925
3.5 0.375 3.8625
3.4375 0.375 3.925
3.5 0.3125 3.8625
3.4375 0.3125 3.925
3.4375 0.375 3.8625
3.4375 0.3125 3.8625
3.625 0.3125 3.925
3.625 0.375 3.8625
3.5625 0.375 3.925
3.625 0.3125 3.8625
3.5625 0.3125 3.925
3.5625 0.375 3.8625
3.5625 0.3125 3.8625
3.75 0.3125 3.925
3.75 0.375 3.8625
3.6875 0.375 3.925
3.75 0.3125 3.8625
3.6875 0.3125 3.925
3.6875 0.375 3.8625
3.6875 0.3125 3.8625
3.875 0.3125 3.925
3.875 0.375 3.8625
3.8125 0.375 3.925
3.875 0.3125 3.8625
3.8125 0.3125 3.925
3.8125 0.375 3.8625
3.8125 0.3125 3.8625
4 0.3125 3.925
4 0.375 3.8625
3.9375 0.375 3.925
4 0.3125 3.8625
3.9375 0.3125 3.925
3.9375 0.375 3.8625
3.9375 0.3125 3.8625
0.125 0.4375 3.925
0 0.4375 3.925
0.125 0.5 3.8625
0.0625 0.5 3.925
0 0.5 3.8625
0.125 0.4375 3.8625
0.0625 0.4375 3.925
0 0.4375 3.8625
0.0625 0.5 3.8625
0.0625 0.4375 3.8625
0.25 0.4375 3.925
0.25 0.5 3.8625
0.1875 0.5 3.925
0.25 0.4375 3.8625
0.1875 0.4375 3.925
0.1875 0.5 3.8625
0.1875 0.4375 3.8625
0.375 0.4375 3.925
0.375 0.5 3.8625
0.3125 0.5 3.925
0.375 0.4375 3.8625
0.3125 0.4375 3.925
0.3125 0.5 3.8625
0.3125 0.4375 3.8625
0.5 0.4375 3.925
0.5 0.5 3.8625
0.4375 0.5 3.925
0.5 0.4375 3.8625
0.4375 0.4375 3.925
0.4375 0.5 3.8625
0.4375 0.4375 3.8625
0.625 0.4375 3.925
0.625 0.5 3.8625
0.5625 0.5 3.925
0.625 0.4375 3.8625
0.5625 0.4375 3.925
0.5625 0.5 3.8625
0.5625 0.4375 3.8625
0.75 0.4375 3.925
0.75 0.5 3.8625
0.6875 0.5 3.925
0.75 0.4375 3.8625
0.6875 0.4375 3.925
0.6875 0.5 3.8625
0.6875 0.4375 3.8625
0.875 0.4375 3.925
0.875 0.5 3.8625
0.8125 0.5 3.925
0.875 0.4375 3.8625
0.8125 0.4375 3.925
0.8125 0.5 3.8625
0.8125 0.4375 3.8625
1 0.4375 3.925
1 0.5 3.8625
0.9375 0.5 3.925
1 0.4375 3.8625
0.9375 0.4375 3.925
0.9375 0.5 3.8625
0.9375 0.4375 3.8625
1.125 0.4375 3.925
1.125 0.5 3.8625
1.0625 0.5 3.925
1.125 0.4375 3.8625
1.0625 0.4375 3.925
1.0625 0.5 3.8625
1.0625 0.4375 3.8625
1.25 0.4375 3.925
1.25 0.5 3.8625
1.1875 0.5 3.925
1.25 0.4375 3.8625
1.1875 0.4375 3.925
1.1875 0.5 3.8625
1.1875 0.4375 3.8625
1.375 0.4375 3.925
1.375 0.5 3.8625
1.3125 0.5 3.925
1.375 0.4375 3.8625
1.3125 0.4375 3.925
1.3125 0.5 3.8625
1.3125 0.4375 3.8625
1.5 0.4375 3.925
1.5 0.5 3.8625
1.4375 0.5 3.925
1.5 0.4375 3.8625
1.4375 0.4375 3.925
1.4375 0.5 3.8625
1.4375 0.4375 3.8625
1.625 0.4375 3.925
1.625 0.5 3.8625
1.5625 0.5 3.925
1.625 0.4375 3.8625
1.5625 0.4375 3.925
1.5625 0.5 3.8625
1.5625 0.4375 3.8625
1.75 0.4375 3.925
1.75 0.5 3.8625
1.6875 0.5 3.925
1.75 0.4375 3.8625
1.6875 0.4375 3.925
1.6875 0.5 3.8625
1.6875 0.4375 3.8625
1.875 0.4375 3.925
1.875 0.5 3.8625
1.8125 0.5 3.925
1.875 0.4375 3.8625
1.8125 0.4375 3.925
1.8125 0.5 3.8625
1.8125 0.4375 3.8625
2 0.4375 3.925
2 0.5 3.8625
1.9375 0.5 3.925
2 0.4375 3.8625
1.9375 0.4375 3.925
1.9375 0.5 3.8625
1.9375 0.4375 3.8625
2.125 0.4375 3.925
2.125 0.5 3.8625
2.0625 0.5 3.925
2.125 0.4375 3.8625
2.0625 0.4375 3.925
2.0625 0.5 3.8625
2.0625 0.4375 3.8625
2.25 0.4375 3.925
2.25 0.5 3.8625
2.1875 0.5 3.925
2.25 0.4375 3.8625
2.1875 0.4375 3.925
2.1875 0.5 3.8625
2.1875 0.4375 3.8625
2.375 0.4375 3.925
2.375 0.5 3.8625
2.3125 0.5 3.925
2.375 0.4375 3.8625
2.3125 0.4375 3.925
2.3125 0.5 3.8625
2.3125 0.4375 3.8625
2.5 0.4375 3.925
2.5 0.5 3.8625
2.4375 0.5 3.925
2.5 0.4375 3.8625
2.4375 0.4375 3.925
2.4375 0.5 3.8625
2.4375 0.4375 3.8625
2.625 0.4375 3.925
2.625 0.5 3.8625
2.5625 0.5 3.925
2.625 0.4375 3.8625
2.5625 0.4375 3.925
2.5625 0.5 3.8625
2.5625 0.4375 3.8625
2.75 0.4375 3.925
2.75 0.5 3.8625
2.6875 0.5 3.925
2.75 0.4375 3.8625
2.6875 0.4375 3.925
2.6875 0.5 3.8625
2.6875 0.4375 3.8625
2.875 0.4375 3.925
2.875 0.5 3.8625
2.8125 0.5 3.925
2.875 0.4375 3.8625
2.8125 0.4375 3.925
2.8125 0.5 3.8625
2.8125 0.4375 3.8625
3 0.4375 3.925
3 0.5 3.8625
2.9375 0.5 3.925
3 0.4375 3.8625
2.9375 0.4375 3.925
2.9375 0.5 3.8625
2.9375 0.4375 3.8625
3.125 0.4375 3.925
3.125 0.5 3.8625
3.0625 0.5 3.925
3.125 0.4375 3.8625
3.0625 0.4375 3.925
3.0625 0.5 3.8625
3.0625 0.4375 3.8625
3.25 0.4375 3.925
3.25 0.5 3.8625
3.1875 0.5 3.925
3.25 0.4375 3.8625
3.1875 0.4375 3.925
3.1875 0.5 3.8625
3.1875 0.4375 3.8625
3.375 0.4375 3.925
3.375 0.5 3.8625
3.3125 0.5 3.925
3.375 0.4375 3.8625
3.3125 0.4375 3.925
3.3125 0.5 3.8625
3.3125 0.4375 3.8625
3.5 0.4375 3.925
3.5 0.5 3.8625
3.4375 0.5 3.925
3.5 0.4375 3.8625
3.4375 0.4375 3.925
3.4375 0.5 3.8625
3.4375 0.4375 3.8625
3.625 0.4375 3.925
3.625 0.5 3.8625
3.5625 0.5 3.925
3.625 0.4375 3.8625
3.5625 0.4375 3.925
3.5625 0.5 3.8625
3.5625 0.4375 3.8625
3.75 0.4375 3.925
3.75 0.5 3.8625
3.6875 0.5 3.925
3.75 0.4375 3.8625
3.6875 0.4375 3.925
3.6875 0.5 3.8625
3.6875 0.4375 3.8625
3.875 0.4375 3.925
3.875 0.5 3.8625
3.8125 0.5 3.925
3.875 0.4375 3.8625
3.8125 0.4375 3.925
3.8125 0.5 3.8625
3.8125 0.4375 3.8625
4 0.4375 3.925
4 0.5 3.8625
3.9375 0.5 3.925
4 0.4375 3.8625
3.9375 0.4375 3.925
3.9375 0.5 3.8625
3.9375 0.4375 3.8625
0.125 0.5625 3.925
0 0.5625 3.925
0.125 0.625 3.8625
0.0625 0.625 3.925
0 0.625 3.8625
0.125 0.5625 3.8625
0.0625 0.5625 3.925
0 0.5625 3.8625
0.0625 0.625 3.8625
0.0625 0.5625 3.8625
0.25 0.5625 3.925
0.25 0.625 3.8625
0.1875 0.625 3.925
0.25 0.5625 3.8625
0.1875 0.5625 3.925
0.1875 0.625 3.8625
0.1875 0.5625 3.8625
0.375 0.5625 3.925
0.375 0.625 3.8625
0.3125 0.625 3.925
0.375 0.5625 3.8625
0.3125 0.5625 3.925
0.3125 0.625 3.8625
0.3125 0.5625 3.8625
0.5 0.5625 3.925
0.5 0.625 3.8625
0.4375 0.625 3.925
0.5 0.5625 3.8625
0.4375 0.5625 3.925
0.4375 0.625 3.8625
0.4375 0.5625 3.8625
0.625 0.5625 3.925
0.625 0.625 3.8625
0.5625 0.625 3.925
0.625 0.5625 3.8625
0.5625 0.5625 3.925
0.5625 0.625 3.8625
0.5625 0.5625 3.8625
0.75 0.5625 3.925
0.75 0.625 3.8625
0.6875 0.625 3.925
0.75 0.5625 3.8625
0.6875 0.5625 3.925
0.6875 0.625 3.8625
0.6875 0.5625 3.8625
0.875 0.5625 3.925
0.875 0.625 3.8625
0.8125 0.625 3.925
0.875 0.5625 3.8625
0.8125 0.5625 3.925
0.8125 0.625 3.8625
0.8125 0.5625 3.8625
1 0.5625 3.925
1 0.625 3.8625
0.9375 0.625 3.925
1 0.5625 3.8625
0.9375 0.5625 3.925
0.9375 0.625 3.8625
0.9375 0.5625 3.8625
1.125 0.5625 3.925
1.125 0.625 3.8625
1.0625 0.625 3.925
1.125 0.5625 3.8625
1.0625 0.5625 3.925
1.0625 0.625 3.8625
1.0625 0.5625 3.8625
1.25 0.5625 3.925
1.25 0.625 3.8625
1.1875 0.625 3.925
1.25 0.5625 3.8625
1.1875 0.5625 3.925
1.1875 0.625 3.8625
1.1875 0.5625 3.8625
1.375 0.5625 3.925
1.375 0.625 3.8625
1.3125 0.625 3.925
1.375 0.5625 3.8625
1.3125 0.5625 3.925
1.3125 0.625 3.8625
1.3125 0.5625 3.8625
1.5 0.5625 3.925
1.5 0.625 3.8625
1.4375 0.625 3.925
1.5 0.5625 3.8625
1.4375 0.5625 3.925
1.4375 0.625 3.8625
1.4375 0.5625 3.8625
1.625 0.5625 3.925
1.625 0.625 3.8625
1.5625 0.625 3.925
1.625 0.5625 3.8625
1.5625 0.5625 3.925
1.5625 0.625 3.8625
1.5625 0.5625 3.8625
1.75 0.5625 3.925
1.75 0.625 3.8625
1.6875 0.625 3.925
1.75 0.5625 3.8625
1.6875 0.5625 3.925
1.6875 0.625 3.8625
1.6875 0.5625 3.8625
1.875 0.5625 3.925
1.875 0.625 3.8625
1.8125 0.625 3.925
1.875 0.5625 3.8625
1.8125 0.5625 3.925
1.8125 0.625 3.8625
1.8125 0.5625 3.8625
2 0.5625 3.925
2 0.625 3.8625
1.9375 0.625 3.925
2 0.5625 3.8625
1.9375 0.5625 3.925
1.9375 0.625 3.8625
1.9375 0.5625 3.8625
2.125 0.5625 3.925
2.125 0.625 3.8625
2.0625 0.625 3.925
2.125 0.5625 3.8625
2.0625 0.5625 3.925
2.0625 0.625 3.8625
2.0625 0.5625 3.8625
2.25 0.5625 3.925
2.25 0.625 3.8625
2.1875 0.625 3.925
2.25 0.5625 3.8625
2.1875 0.5625 3.925
2.1875 0.625 3.8625
2.1875 0.5625 3.8625
2.375 0.5625 3.925
2.375 0.625 3.8625
2.3125 0.625 3.925
2.375 0.5625 3.8625
2.3125 0.5625 3.925
2.3125 0.625 3.8625
2.3125 0.5625 3.8625
2.5 0.5625 3.925
2.5 0.625 3.8625
2.4375 0.625 3.925
2.5 0.5625 3.8625
2.4375 0.5625 3.925
2.4375 0.625 3.8625
2.4375 0.5625 3.8625
2.625 0.5625 3.925
2.625 0.625 3.8625
2.5625 0.625 3.925
2.625 0.5625 3.8625
2.5625 0.5625 3.925
2.5625 0.625 3.8625
2.5625 0.5625 3.8625
2.75 0.5625 3.925
2.75 0.625 3.8625
2.6875 0.625 3.925
2.75 0.5625 3.8625
2.6875 0.5625 3.925
2.6875 0.625 3.8625
2.6875 0.5625 3.8625
2.875 0.5625 3.925
2.875 0.625 3.8625
2.8125 0.625 3.925
2.875 0.5625 3.8625
2.8125 0.5625 3.925
2.8125 0.625 3.8625
2.8125 0.5625 3.8625
3 0.5625 3.925
3 0.625 3.8625
2.9375 0.625 3.925
3 0.5625 3.8625
2.9375 0.5625 3.925
2.9375 0.625 3.8625
2.9375 0.5625 3.8625
3.125 0.5625 3.925
3.125 0.625 3.8625
3.0625 0.625 3.925
3.125 0.5625 3.8625
3.0625 0.5625 3.925
3.0625 0.625 3.8625
3.0625 0.5625 3.8625
3.25 0.5625 3.925
3.25 0.625 3.8625
3.1875 0.625 3.925
3.25 0.5625 3.8625
3.1875 0.5625 3.925
3.1875 0.625 3.8625
3.1875 0.5625 3.8625
3.375 0.5625 3.925
3.375 0.625 3.8625
3.3125 0.625 3.925
3.375 0.5625 3.8625
3.3125 0.5625 3.925
3.3125 0.625 3.8625
3.3125 0.5625 3.8625
3.5 0.5625 3.925
3.5 0.625 3.8625
3.4375 0.625 3.925
3.5 0.5625 3.8625
3.4375 0.5625 3.925
3.4375 0.625 3.8625
3.4375 0.5625 3.8625
3.625 0.5625 3.925
3.625 0.625 3.8625
3.5625 0.625 3.925
3.625 0.5625 3.8625
3.5625 0.5625 3.925
3.5625 0.625 3.8625
3.5625 0.5625 3.8625
3.75 0.5625 3.925
3.75 0.625 3.8625
3.6875 0.625 3.925
3.75 0.5625 3.8625
3.6875 0.5625 3.925
3.6875 0.625 3.8625
3.6875 0.5625 3.8625
3.875 0.5625 3.925
3.875 0.625 3.8625
3.8125 0.625 3.925
3.875 0.5625 3.8625
3.8125 0.5625 3.925
3.8125 0.625 3.8625
3.8125 0.5625 3.8625
4 0.5625 3.925
4 0.625 3.8625
3.9375 0.625 3.925
4 0.5625 3.8625
3.9375 0.5625 3.925
3.9375 0.625 3.8625
3.9375 0.5625 3.8625
0.125 0.6875 3.925
0 0.6875 3.925
0.125 0.75 3.8625
0.0625 0.75 3.925
0 0.75 3.8625
0.125 0.6875 3.8625
0.0625 0.6875 3.925
0 0.6875 3.8625
0.0625 0.75 3.8625
0.0625 0.6875 3.8625
0.25 0.6875 3.925
0.25 0.75 3.8625
0.1875 0.75 3.925
0.25 0.6875 3.8625
0.1875 0.6875 3.925
0.1875 0.75 3.8625
0.1875 0.6875 3.8625
0.375 0.6875 3.925
0.375 0.75 3.8625
0.3125 0.75 3.925
0.375 0.6875 3.8625
0.3125 0.6875 3.925
0.3125 0.75 3.8625
0.3125 0.6875 3.8625
0.5 0.6875 3.925
0.5 0.75 3.8625
0.4375 0.75 3.925
0.5 0.6875 3.8625
0.4375 0.6875 3.925
0.4375 0.75 3.8625
0.4375 0.6875 3.8625
0.625 0.6875 3.925
0.625 0.75 3.8625
0.5625 0.75 3.925
0.625 0.6875 3.8625
0.5625 0.6875 3.925
0.5625 0.75 3.8625
0.5625 0.6875 3.8625
0.75 0.6875 3.925
0.75 0.75 3.8625
0.6875 0.75 3.925
0.75 0.6875 3.8625
0.6875 0.6875 3.925
0.6875 0.75 3.8625
0.6875 0.6875 3.8625
0.875 0.6875 3.925
0.875 0.75 3.8625
0.8125 0.75 3.925
0.875 0.6875 3.8625
0.8125 0.6875 3.925
0.8125 0.75 3.8625
0.8125 0.6875 3.8625
1 0.6875 3.925
1 0.75 3.8625
0.9375 0.75 3.925
1 0.6875 3.8625
0.9375 0.6875 3.925
0.9375 0.75 3.8625
0.9375 0.6875 3.8625
1.125 0.6875 3.925
1.125 0.75 3.8625
1.0625 0.75 3.925
1.125 0.6875 3.8625
1.0625 0.6875 3.925
1.0625 0.75 3.8625
1.0625 0.6875 3.8625
1.25 0.6875 3.925
1.25 0.75 3.8625
1.1875 0.75 3.925
1.25 0.6875 3.8625
1.1875 0.6875 3.925
1.1875 0.75 3.8625
1.1875 0.6875 3.8625
1.375 0.6875 3.925
1.375 0.75 3.8625
1.3125 0.75 3.925
1.375 0.6875 3.8625
1.3125 0.6875 3.925
1.3125 0.75 3.8625
1.3125 0.6875 3.8625
1.5 0.6875 3.925
1.5 0.75 3.8625
1.4375 0.75 3.925
1.5 0.6875 3.8625
1.4375 0.6875 3.925
1.4375 0.75 3.8625
1.4375 0.6875 3.8625
1.625 0.6875 3.925
1.625 0.75 3.8625
1.5625 0.75 3.925
1.625 0.6875 3.8625
1.5625 0.6875 3.925
1.5625 0.75 3.8625
1.5625 0.6875 3.8625
1.75 0.6875 3.925
1.75 0.75 3.8625
1.6875 0.75 3.925
1.75 0.6875 3.8625
1.6875 0.6875 3.925
1.6875 0.75 3.8625
1.6875 0.6875 3.8625
1.875 0.6875 3.925
1.875 0.75 3.8625
1.8125 0.75 3.925
1.875 0.6875 3.8625
1.8125 0.6875 3.925
1.8125 0.75 3.8625
1.8125 0.6875 3.8625
2 0.6875 3.925
2 0.75 3.8625
1.9375 0.75 3.925
2 0.6875 3.8625
1.9375 0.6875 3.925
1.9375 0.75 3.8625
1.9375 0.6875 3.8625
2.125 0.6875 3.925
2.125 0.75 3.8625
2.0625 0.75 3.925
2.125 0.6875 3.8625
2.0625 0.6875 3.925
2.0625 0.75 3.8625
2.0625 0.6875 3.8625
2.25 0.6875 3.925
2.25 0.75 3.8625
2.1875 0.75 3.925
2.25 0.6875 3.8625
2.1875 0.6875 3.925
2.1875 0.75 3.8625
2.1875 0.6875 3.8625
2.375 0.6875 3.925
2.375 0.75 3.8625
2.3125 0.75 3.925
2.375 0.6875 3.8625
2.3125 0.6875 3.925
2.3125 0.75 3.8625
2.3125 0.6875 3.8625
2.5 0.6875 3.925
2.5 0.75 3.8625
2.4375 0.75 3.925
2.5 0.6875 3.8625
2.4375 0.6875 3.925
2.4375 0.75 3.8625
2.4375 0.6875 3.8625
2.625 0.6875 3.925
2.625 0.75 3.8625
2.5625 0.75 3.925
2.625 0.6875 3.8625
2.5625 0.6875 3.925
2.5625 0.75 3.8625
2.5625 0.6875 3.8625
2.75 0.6875 3.925
2.75 0.75 3.8625
2.6875 0.75 3.925
2.75 0.6875 3.8625
2.6875 0.6875 3.925
2.6875 0.75 3.8625
2.6875 0.6875 3.8625
2.875 0.6875 3.925
2.875 0.75 3.8625
2.8125 0.75 3.925
2.875 0.6875 3.8625
2.8125 0.6875 3.925
2.8125 0.75 3.8625
2.8125 0.6875 3.8625
3 0.6875 3.925
3 0.75 3.8625
2.9375 0.75 3.925
3 0.6875 3.8625
2.9375 0.6875 3.925
2.9375 0.75 3.8625
2.9375 0.6875 3.8625
3.125 0.6875 3.925
3.125 0.75 3.8625
3.0625 0.75 3.925
3.125 0.6875 3.8625
3.0625 0.6875 3.925
3.0625 0.75 3.8625
3.0625 0.6875 3.8625
3.25 0.6875 3.925
3.25 0.75 3.8625
3.1875 0.75 3.925
3.25 0.6875 3.8625
3.1875 0.6875 3.925
3.1875 0.75 3.8625
3.1875 0.6875 3.8625
3.375 0.6875 3.925
3.375 0.75 3.8625
3.3125 0.75 3.925
3.375 0.6875 3.8625
3.3125 0.6875 3.925
3.3125 0.75 3.8625
3.3125 0.6875 3.8625
3.5 0.6875 3.925
3.5 0.75 3.8625
3.4375 0.75 3.925
3.5 0.6875 3.8625
3.4375 0.6875 3.925
3.4375 0.75 3.8625
3.4375 0.6875 3.8625
3.625 0.6875 3.925
3.625 0.75 3.8625
3.5625 0.75 3.925
3.625 0.6875 3.8625
3.5625 0.6875 3.925
3.5625 0.75 3.8625
3.5625 0.6875 3.8625
3.75 0.6875 3.925
3.75 0.75 3.8625
3.6875 0.75 3.925
3.75 0.6875 3.8625
3.6875 0.6875 3.925
3.6875 0.75 3.8625
3.6875 0.6875 3.8625
3.875 0.6875 3.925
3.875 0.75 3.8625
3.8125 0.75 3.925
3.875 0.6875 3.8625
3.8125 0.6875 3.925
3.8125 0.75 3.8625
3.8125 0.6875 3.8625
4 0.6875 3.925
4 0.75 3.8625
3.9375 0.75 3.925
4 0.6875 3.8625
3.9375 0.6875 3.925
3.9375 0.75 3.8625
3.9375 0.6875 3.8625
0.125 0.8125 3.925
0 0.8125 3.925
0.125 0.875 3.8625
0.0625 0.875 3.925
0 0.875 3.8625
0.125 0.8125 3.8625
0.0625 0.8125 3.925
0 0.8125 3.8625
0.0625 0.875 3.8625
0.0625 0.8125 3.8625
0.25 0.8125 3.925
0.25 0.875 3.8625
0.1875 0.875 3.925
0.25 0.8125 3.8625
0.1875 0.8125 3.925
0.1875 0.875 3.8625
0.1875 0.8125 3.8625
0.375 0.8125 3.925
0.375 0.875 3.8625
0.3125 0.875 3.925
0.375 0.8125 3.8625
0.3125 0.8125 3.925
0.3125 0.875 3.8625
0.3125 0.8125 3.8625
0.5 0.8125 3.925
0.5 0.875 3.8625
0.4375 0.875 3.925
0.5 0.8125 3.8625
0.4375 0.8125 3.925
0.4375 0.875 3.8625
0.4375 0.8125 3.8625
0.625 0.8125 3.925
0.625 0.875 3.8625
0.5625 0.875 3.925
0.625 0.8125 3.8625
0.5625 0.8125 3.925
0.5625 0.875 3.8625
0.5625 0.8125 3.8625
0.75 0.8125 3.925
0.75 0.875 3.8625
0.6875 0.875 3.925
0.75 0.8125 3.8625
0.6875 0.8125 3.925
0.6875 0.875 3.8625
0.6875 0.8125 3.8625
0.875 0.8125 3.925
0.875 0.875 3.8625
0.8125 0.875 3.925
0.875 0.8125 3.8625
0.8125 0.8125 3.925
0.8125 0.875 3.8625
0.8125 0.8125 3.8625
1 0.8125 3.925
1 0.875 3.8625
0.9375 0.875 3.925
1 0.8125 3.8625
0.9375 0.8125 3.925
0.9375 0.875 3.8625
0.9375 0.8125 3.8625
1.125 0.8125 3.925
1.125 0.875 3.8625
1.0625 0.875 3.925
1.125 0.8125 3.8625
1.0625 0.8125 3.925
1.0625 0.875 3.8625
1.0625 0.8125 3.8625
1.25 0.8125 3.925
1.25 0.875 3.8625
1.1875 0.875 3.925
1.25 0.8125 3.8625
1.1875 0.8125 3.925
1.1875 0.875 3.8625
1.1875 0.8125 3.8625
1.375 0.8125 3.925
1.375 0.875 3.8625
1.3125 0.875 3.925
1.375 0.8125 3.8625
1.3125 0.8125 3.925
1.3125 0.875 3.8625
1.3125 0.8125 3.8625
1.5 0.8125 3.925
1.5 0.875 3.8625
1.4375 0.875 3.925
1.5 0.8125 3.8625
1.4375 0.8125 3.925
1.4375 0.875 3.8625
1.4375 0.8125 3.8625
1.625 0.8125 3.925
1.625 0.875 3.8625
1.5625 0.875 3.925
1.625 0.8125 3.8625
1.5625 0.8125 3.925
1.5625 0.875 3.8625
1.5625 0.8125 3.8625
1.75 0.8125 3.925
1.75 0.875 3.8625
1.6875 0.875 3.925
1.75 0.8125 3.8625
1.6875 0.8125 3.925
1.6875 0.875 3.8625
1.6875 0.8125 3.8625
1.875 0.8125 3.925
1.875 0.875 3.8625
1.8125 0.875 3.925
1.875 0.8125 3.8625
1.8125 0.8125 3.925
1.8125 0.875 3.8625
1.8125 0.8125 3.8625
2 0.8125 3.925
2 0.875 3.8625
1.9375 0.875 3.925
2 0.8125 3.8625
1.9375 0.8125 3.925
1.9375 0.875 3.8625
1.9375 0.8125 3.8625
2.125 0.8125 3.925
2.125 0.875 3.8625
2.0625 0.875 3.925
2.125 0.8125 3.8625
2.0625 0.8125 3.925
2.0625 0.875 3.8625
2.0625 0.8125 3.8625
2.25 0.8125 3.925
2.25 0.875 3.8625
2.1875 0.875 3.925
2.25 0.8125 3.8625
2.1875 0.8125 3.925
2.1875 0.875 3.8625
2.1875 0.8125 3.8625
2.375 0.8125 3.925
2.375 0.875 3.8625
2.3125 0.875 3.925
2.375 0.8125 3.8625
2.3125 0.8125 3.925
2.3125 0.875 3.8625
2.3125 0.8125 3.8625
2.5 0.8125 3.925
2.5 0.875 3.8625
2.4375 0.875 3.925
2.5 0.8125 3.8625
2.4375 0.8125 3.925
2.4375 0.875 3.8625
2.4375 0.8125 3.8625
2.625 0.8125 3.925
2.625 0.875 3.8625
2.5625 0.875 3.925
2.625 0.8125 3.8625
2.5625 0.8125 3.925
2.5625 0.875 3.8625
2.5625 0.8125 3.8625
2.75 0.8125 3.925
2.75 0.875 3.8625
2.6875 0.875 3.925
2.75 0.8125 3.8625
2.6875 0.8125 3.925
2.6875 0.875 3.8625
2.6875 0.8125 3.8625
2.875 0.8125 3.925
2.875 0.875 3.8625
2.8125 0.875 3.925
2.875 0.8125 3.8625
2.8125 0.8125 3.925
2.8125 0.875 3.8625
2.8125 0.8125 3.8625
3 0.8125 3.925
3 0.875 3.8625
2.9375 0.875 3.925
3 0.8125 3.8625
2.9375 0.8125 3.925
2.9375 0.875 3.8625
2.9375 0.8125 3.8625
3.125 0.8125 3.925
3.125 0.875 3.8625
3.0625 0.875 3.925
3.125 0.8125 3.8625
3.0625 0.8125 3.925
3.0625 0.875 3.8625
3.0625 0.8125 3.8625
3.25 0.8125 3.925
3.25 0.875 3.8625
3.1875 0.875 3.925
3.25 0.8125 3.8625
3.1875 0.8125 3.925
3.1875 0.875 3.8625
3.1875 0.8125 3.8625
3.375 0.8125 3.925
3.375 0.875 3.8625
3.3125 0.875 3.925
3.375 0.8125 3.8625
3.3125 0.8125 3.925
3.3125 0.875 3.8625
3.3125 0.8125 3.8625
3.5 0.8125 3.925
3.5 0.875 3.8625
3.4375 0.875 3.925
3.5 0.8125 3.8625
3.4375 0.8125 3.925
3.4375 0.875 3.8625
3.4375 0.8125 3.8625
3.625 0.8125 3.925
3.625 0.875 3.8625
3.5625 0.875 3.925
3.625 0.8125 3.8625
3.5625 0.8125 3.925
3.5625 0.875 3.8625
3.5625 0.8125 3.8625
3.75 0.8125 3.925
3.75 0.875 3.8625
3.6875 0.875 3.925
3.75 0.8125 3.8625
3.6875 0.8125 3.925
3.6875 0.875 3.8625
3.6875 0.8125 3.8625
3.875 0.8125 3.925
3.875 0.875 3.8625
3.8125 0.875 3.925
3.875 0.8125 3.8625
3.8125 0.8125 3.925
3.8125 0.875 3.8625
3.8125 0.8125 3.8625
4 0.8125 3.925
4 0.875 3.8625
3.9375 0.875 3.925
4 0.8125 3.8625
3.9375 0.8125 3.925
3.9375 0.875 3.8625
3.9375 0.8125 3.8625
0.125 0.9375 3.925
0 0.9375 3.925
0.125 1 3.8625
0.0625 1 3.925
0 1 3.8625
0.125 0.9375 3.8625
0.0625 0.9375 3.925
0 0.9375 3.8625
0.0625 1 3.8625
0.0625 0.9375 3.8625
0.25 0.9375 3.925
0.25 1 3.8625
0.1875 1 3.925
0.25 0.9375 3.8625
0.1875 0.9375 3.925
0.1875 1 3.8625
0.1875 0.9375 3.8625
0.375 0.9375 3.925
0.375 1 3.8625
0.3125 1 3.925
0.375 0.9375 3.8625
0.3125 0.9375 3.925
0.3125 1 3.8625
0.3125 0.9375 3.8625
0.5 0.9375 3.925
0.5 1 3.8625
0.4375 1 3.925
0.5 0.9375 3.8625
0.4375 0.9375 3.925
0.4375 1 3.8625
0.4375 0.9375 3.8625
0.625 0.9375 3.925
0.625 1 3.8625
0.5625 1 3.925
0.625 0.9375 3.8625
0.5625 0.9375 3.925
0.5625 1 3.8625
0.5625 0.9375 3.8625
0.75 0.9375 3.925
0.75 1 3.8625
0.6875 1 3.925
0.75 0.9375 3.8625
0.6875 0.9375 3.925
0.6875 1 3.8625
0.6875 0.9375 3.8625
0.875 0.9375 3.925
0.875 1 3.8625
0.8125 1 3.925
0.875 0.9375 3.8625
0.8125 0.9375 3.925
0.8125 1 3.8625
0.8125 0.9375 3.8625
1 0.9375 3.925
1 1 3.8625
0.9375 1 3.925
1 0.9375 3.8625
0.9375 0.9375 3.925
0.9375 1 3.8625
0.9375 0.9375 3.8625
1.125 0.9375 3.925
1.125 1 3.8625
1.0625 1 3.925
1.125 0.9375 3.8625
1.0625 0.9375 3.925
1.0625 1 3.8625
1.0625 0.9375 3.8625
1.25 0.9375 3.925
1.25 1 3.8625
1.1875 1 3.925
1.25 0.9375 3.8625
1.1875 0.9375 3.925
1.1875 1 3.8625
1.1875 0.9375 3.8625
1.375 0.9375 3.925
1.375 1 3.8625
1.3125 1 3.925
1.375 0.9375 3.8625
1.3125 0.9375 3.925
1.3125 1 3.8625
1.3125 0.9375 3.8625
1.5 0.9375 3.925
1.5 1 3.8625
1.4375 1 3.925
1.5 0.9375 3.8625
1.4375 0.9375 3.925
1.4375 1 3.8625
1.4375 0.9375 3.8625
1.625 0.9375 3.925
1.625 1 3.8625
1.5625 1 3.925
1.625 0.9375 3.8625
1.5625 0.9375 3.925
1.5625 1 3.8625
1.5625 0.9375 3.8625
1.75 0.9375 3.925
1.75 1 3.8625
1.6875 1 3.925
1.75 0.9375 3.8625
1.6875 0.9375 3.925
1.6875 1 3.8625
1.6875 0.9375 3.8625
1.875 0.9375 3.925
1.875 1 3.8625
1.8125 1 3.925
1.875 0.9375 3.8625
1.8125 0.9375 3.925
1.8125 1 3.8625
1.8125 0.9375 3.8625
2 0.9375 3.925
2 1 3.8625
1.9375 1 3.925
2 0.9375 3.8625
1.9375 0.9375 3.925
1.9375 1 3.8625
1.9375 0.9375 3.8625
2.125 0.9375 3.925
2.125 1 3.8625
2.0625 1 3.925
2.125 0.9375 3.8625
2.0625 0.9375 3.925
2.0625 1 3.8625
2.0625 0.9375 3.8625
2.25 0.9375 3.925
2.25 1 3.8625
2.1875 1 3.925
2.25 0.9375 3.8625
2.1875 0.9375 3.925
2.1875 1 3.8625
2.1875 0.9375 3.8625
2.375 0.9375 3.925
2.375 1 3.8625
2.3125 1 3.925
2.375 0.9375 3.8625
2.3125 0.9375 3.925
2.3125 1 3.8625
2.3125 0.9375 3.8625
2.5 0.9375 3.925
2.5 1 3.8625
2.4375 1 3.925
2.5 0.9375 3.8625
2.4375 0.9375 3.925
2.4375 1 3.8625
2.4375 0.9375 3.8625
2.625 0.9375 3.925
2.625 1 3.8625
2.5625 1 3.925
2.625 0.9375 3.8625
2.5625 0.9375 3.925
2.5625 1 3.8625
2.5625 0.9375 3.8625
2.75 0.9375 3.925
2.75 1 3.8625
2.6875 1 3.925
2.75 0.9375 3.8625
2.6875 0.9375 3.925
2.6875 1 3.8625
2.6875 0.9375 3.8625
2.875 0.9375 3.925
2.875 1 3.8625
2.8125 1 3.925
2.875 0.9375 3.8625
2.8125 0.9375 3.925
2.8125 1 3.8625
2.8125 0.9375 3.8625
3 0.9375 3.925
3 1 3.8625
2.9375 1 3.925
3 0.9375 3.8625
2.9375 0.9375 3.925
2.9375 1 3.8625
2.9375 0.9375 3.8625
3.125 0.9375 3.925
3.125 1 3.8625
3.0625 1 3.925
3.125 0.9375 3.8625
3.0625 0.9375 3.925
3.0625 1 3.8625
3.0625 0.9375 3.8625
3.25 0.9375 3.925
3.25 1 3.8625
3.1875 1 3.925
3.25 0.9375 3.8625
3.1875 0.9375 3.925
3.1875 1 3.8625
3.1875 0.9375 3.8625
3.375 0.9375 3.925
3.375 1 3.8625
3.3125 1 3.925
3.375 0.9375 3.8625
3.3125 0.9375 3.925
3.3125 1 3.8625
3.3125 0.9375 3.8625
3.5 0.9375 3.925
3.5 1 3.8625
3.4375 1 3.925
3.5 0.9375 3.8625
3.4375 0.9375 3.925
3.4375 1 3.8625
3.4375 0.9375 3.8625
3.625 0.9375 3.925
3.625 1 3.8625
3.5625 1 3.925
3.625 0.9375 3.8625
3.5625 0.9375 3.925
3.5625 1 3.8625
3.5625 0.9375 3.8625
3.75 0.9375 3.925
3.75 1 3.8625
3.6875 1 3.925
3.75 0.9375 3.8625
3.6875 0.9375 3.925
3.6875 1 3.8625
3.6875 0.9375 3.8625
3.875 0.9375 3.925
3.875 1 3.8625
3.8125 1 3.925
3.875 0.9375 3.8625
3.8125 0.9375 3.925
3.8125 1 3.8625
3.8125 0.9375 3.8625
4 0.9375 3.925
4 1 3.8625
3.9375 1 3.925
4 0.9375 3.8625
3.9375 0.9375 3.925
3.9375 1 3.8625
3.9375 0.9375 3.8625
0.125 0 3.9875
0.0625 0 4.05
0 0 3.9875
0.125 0.0625 4.05
0 0.0625 4.05
0.125 0.125 3.9875
0.0625 0.125 4.05
0 0.125 3.9875
0.0625 0 3.9875
0.125 0.0625 3.9875
0.0625 0.0625 4.05
0 0.0625 3.9875
0.0625 0.125 3.9875
0.0625 0.0625 3.9875
0.25 0 3.9875
0.1875 0 4.05
0.25 0.0625 4.05
0.25 0.125 3.9875
0.1875 0.125 4.05
0.1875 0 3.9875
0.25 0.0625 3.9875
0.1875 0.0625 4.05
0.1875 0.125 3.9875
0.1875 0.0625 3.9875
0.375 0 3.9875
0.3125 0 4.05
0.375 0.0625 4.05
0.375 0.125 3.9875
0.3125 0.125 4.05
0.3125 0 3.9875
0.375 0.0625 3.9875
0.3125 0.0625 4.05
0.3125 0.125 3.9875
0.3125 0.0625 3.9875
0.5 0 3.9875
0.4375 0 4.05
0.5 0.0625 4.05
0.5 0.125 3.9875
0.4375 0.125 4.05
0.4375 0 3.9875
0.5 0.0625 3.9875
0.4375 0.0625 4.05
0.4375 0.125 3.9875
0.4375 0.0625 3.9875
0.625 0 3.9875
0.5625 0 4.05
0.625 0.0625 4.05
0.625 0.125 3.9875
0.5625 0.125 4.05
0.5625 0 3.9875
0.625 0.0625 3.9875
0.5625 0.0625 4.05
0.5625 0.125 3.9875
0.5625 0.0625 3.9875
0.75 0 3.9875
0.6875 0 4.05
0.75 0.0625 4.05
0.75 0.125 3.9875
0.6875 0.125 4.05
0.6875 0 3.9875
0.75 0.0625 3.9875
0.6875 0.0625 4.05
0.6875 0.125 3.9875
0.6875 0.0625 3.9875
0.875 0 3.9875
0.8125 0 4.05
0.875 0.0625 4.05
0.875 0.125 3.9875
0.8125 0.125 4.05
0.8125 0 3.9875
0.875 0.0625 3.9875
0.8125 0.0625 4.05
0.8125 0.125 3.9875
0.8125 0.0625 3.9875
1 0 3.9875
0.9375 0 4.05
1 0.0625 4.05
1 0.125 3.9875
0.9375 0.125 4.05
0.9375 0 3.9875
1 0.0625 3.9875
0.9375 0.0625 4.05
0.9375 0.125 3.9875
0.9375 0.0625 3.9875
1.125 0 3.9875
1.0625 0 4.05
1.125 0.0625 4.05
1.125 0.125 3.9875
1.0625 0.125 4.05
1.0625 0 3.9875
1.125 0.0625 3.9875
1.0625 0.0625 4.05
1.0625 0.125 3.9875
1.0625 0.0625 3.9875
1.25 0 3.9875
1.1875 0 4.05
1.25 0.0625 4.05
1.25 0.125 3.9875
1.1875 0.125 4.05
1.1875 0 3.9875
1.25 0.0625 3.9875
1.1875 0.0625 4.05
1.1875 0.125 3.9875
1.1875 0.0625 3.9875
1.375 0 3.9875
1.3125 0 4.05
1.375 0.0625 4.05
1.375 0.125 3.9875
1.3125 0.125 4.05
1.3125 0 3.9875
1.375 0.0625 3.9875
1.3125 0.0625 4.05
1.3125 0.125 3.9875
1.3125 0.0625 3.9875
1.5 0 3.9875
1.4375 0 4.05
1.5 0.0625 4.05
1.5 0.125 3.9875
1.4375 0.125 4.05
1.4375 0 3.9875
1.5 0.0625 3.9875
1.4375 0.0625 4.05
1.4375 0.125 3.9875
1.4375 0.0625 3.9875
1.625 0 3.9875
1.5625 0 4.05
1.625 0.0625 4.05
1.625 0.125 3.9875
1.5625 0.125 4.05
1.5625 0 3.9875
1.625 0.0625 3.9875
1.5625 0.0625 4.05
1.5625 0.125 3.9875
1.5625 0.0625 3.9875
1.75 0 3.9875
1.6875 0 4.05
1.75 0.0625 4.05
1.75 0.125 3.9875
1.6875 0.125 4.05
1.6875 0 3.9875
1.75 0.0625 3.9875
1.6875 0.0625 4.05
1.6875 0.125 3.9875
1.6875 0.0625 3.9875
1.875 0 3.9875
1.8125 0 4.05
1.875 0.0625 4.05
1.875 0.125 3.9875
1.8125 0.125 4.05
1.8125 0 3.9875
1.875 0.0625 3.9875
1.8125 0.0625 4.05
1.8125 0.125 3.9875
1.8125 0.0625 3.9875
2 0 3.9875
1.9375 0 4.05
2 0.0625 4.05
2 0.125 3.9875
1.9375 0.125 4.05
1.9375 0 3.9875
2 0.0625 3.9875
1.9375 0.0625 4.05
1.9375 0.125 3.9875
1.9375 0.0625 3.9875
2.125 0 3.9875
2.0625 0 4.05
2.125 0.0625 4.05
2.125 0.125 3.9875
2.0625 0.125 4.05
2.0625 0 3.9875
2.125 0.0625 3.9875
2.0625 0.0625 4.05
2.0625 0.125 3.9875
2.0625 0.0625 3.9875
2.25 0 3.9875
2.1875 0 4.05
2.25 0.0625 4.05
2.25 0.125 3.9875
2.1875 0.125 4.05
2.1875 0 3.9875
2.25 0.0625 3.9875
2.1875 0.0625 4.05
2.1875 0.125 3.9875
2.1875 0.0625 3.9875
2.375 0 3.9875
2.3125 0 4.05
2.375 0.0625 4.05
2.375 0.125 3.9875
2.3125 0.125 4.05
2.3125 0 3.9875
2.375 0.0625 3.9875
2.3125 0.0625 4.05
2.3125 0.125 3.9875
2.3125 0.0625 3.9875
2.5 0 3.9875
2.4375 0 4.05
2.5 0.0625 4.05
2.5 0.125 3.9875
2.4375 0.125 4.05
2.4375 0 3.9875
2.5 0.0625 3.9875
2.4375 0.0625 4.05
2.4375 0.125 3.9875
2.4375 0.0625 3.9875
2.625 0 3.9875
2.5625 0 4.05
2.625 0.0625 4.05
2.625 0.125 3.9875
2.5625 0.125 4.05
2.5625 0 3.9875
2.625 0.0625 3.9875
2.5625 0.0625 4.05
2.5625 0.125 3.9875
2.5625 0.0625 3.9875
2.75 0 3.9875
2.6875 0 4.05
2.75 0.0625 4.05
2.75 0.125 3.9875
2.6875 0.125 4.05
2.6875 0 3.9875
2.75 0.0625 3.9875
2.6875 0.0625 4.05
2.6875 0.125 3.9875
2.6875 0.0625 3.9875
2.875 0 3.9875
2.8125 0 4.05
2.875 0.0625 4.05
2.875 0.125 3.9875
2.8125 0.125 4.05
2.8125 0 3.9875
2.875 0.0625 3.9875
2.8125 0.0625 4.05
2.8125 0.125 3.9875
2.8125 0.0625 3.9875
3 0 3.9875
2.9375 0 4.05
3 0.0625 4.05
3 0.125 3.9875
2.9375 0.125 4.05
2.9375 0 3.9875
3 0.0625 3.9875
2.9375 0.0625 4.05
2.9375 0.125 3.9875
2.9375 0.0625 3.9875
3.125 0 3.9875
3.0625 0 4.05
3.125 0.0625 4.05
3.125 0.125 3.9875
3.0625 0.125 4.05
3.0625 0 3.9875
3.125 0.0625 3.9875
3.0625 0.0625 4.05
3.0625 0.125 3.9875
3.0625 0.0625 3.9875
3.25 0 3.9875
3.1875 0 4.05
3.25 0.0625 4.05
3.25 0.125 3.9875
3.1875 0.125 4.05
3.1875 0 3.9875
3.25 0.0625 3.9875
3.1875 0.0625 4.05
3.1875 0.125 3.9875
3.1875 0.0625 3.9875
3.375 0 3.9875
3.3125 0 4.05
3.375 0.0625 4.05
3.375 0.125 3.9875
3.3125 0.125 4.05
3.3125 0 3.9875
3.375 0.0625 3.9875
3.3125 0.0625 4.05
3.3125 0.125 3.9875
3.3125 0.0625 3.9875
3.5 0 3.9875
3.4375 0 4.05
3.5 0.0625 4.05
3.5 0.125 3.9875
3.4375 0.125 4.05
3.4375 0 3.9875
3.5 0.0625 3.9875
3.4375 0.0625 4.05
3.4375 0.125 3.9875
3.4375 0.0625 3.9875
3.625 0 3.9875
3.5625 0 4.05
3.625 0.0625 4.05
3.625 0.125 3.9875
3.5625 0.125 4.05
3.5625 0 3.9875
3.625 0.0625 3.9875
3.5625 0.0625 4.05
3.5625 0.125 3.9875
3.5625 0.0625 3.9875
3.75 0 3.9875
3.6875 0 4.05
3.75 0.0625 4.05
3.75 0.125 3.9875
3.6875 0.125 4.05
3.6875 0 3.9875
3.75 0.0625 3.9875
3.6875 0.0625 4.05
3.6875 0.125 3.9875
3.6875 0.0625 3.9875
3.875 0 3.9875
3.8125 0 4.05
3.875 0.0625 4.05
3.875 0.125 3.9875
3.8125 0.125 4.05
3.8125 0 3.9875
3.875 0.0625 3.9875
3.8125 0.0625 4.05
3.8125 0.125 3.9875
3.8125 0.0625 3.9875
4 0 3.9875
3.9375 0 4.05
4 0.0625 4.05
4 0.125 3.9875
3.9375 0.125 4.05
3.9375 0 3.9875
4 0.0625 3.9875
3.9375 0.0625 4.05
3.9375 0.125 3.9875
3.9375 0.0625 3.9875
0.125 0.1875 4.05
0 0.1875 4.05
0.125 0.25 3.9875
0.0625 0.25 4.05
0 0.25 3.9875
0.125 0.1875 3.9875
0.0625 0.1875 4.05
0 0.1875 3.9875
0.0625 0.25 3.9875
0.0625 0.1875 3.9875
0.25 0.1875 4.05
0.25 0.25 3.9875
0.1875 0.25 4.05
0.25 0.1875 3.9875
0.1875 0.1875 4.05
0.1875 0.25 3.9875
0.1875 0.1875 3.9875
0.375 0.1875 4.05
0.375 0.25 3.9875
0.3125 0.25 4.05
0.375 0.1875 3.9875
0.3125 0.1875 4.05
0.3125 0.25 3.9875
0.3125 0.1875 3.9875
0.5 0.1875 4.05
0.5 0.25 3.9875
0.4375 0.25 4.05
0.5 0.1875 3.9875
0.4375 0.1875 4.05
0.4375 0.25 3.9875
0.4375 0.1875 3.9875
0.625 0.1875 4.05
0.625 0.25 3.9875
0.5625 0.25 4.05
0.625 0.1875 3.9875
0.5625 0.1875 4.05
0.5625 0.25 3.9875
0.5625 0.1875 3.9875
0.75 0.1875 4.05
0.75 0.25 3.9875
0.6875 0.25 4.05
0.75 0.1875 3.9875
0.6875 0.1875 4.05
0.6875 0.25 3.9875
0.6875 0.1875 3.9875
0.875 0.1875 4.05
0.875 0.25 3.9875
0.8125 0.25 4.05
0.875 0.1875 3.9875
0.8125 0.1875 4.05
0.8125 0.25 3.9875
0.8125 0.1875 3.9875
1 0.1875 4.05
1 0.25 3.9875
0.9375 0.25 4.05
1 0.1875 3.9875
0.9375 0.1875 4.05
0.9375 0.25 3.9875
0.9375 0.1875 3.9875
1.125 0.1875 4.05
1.125 0.25 3.9875
1.0625 0.25 4.05
1.125 0.1875 3.9875
1.0625 0.1875 4.05
1.0625 0.25 3.9875
1.0625 0.1875 3.9875
1.25 0.1875 4.05
1.25 0.25 3.9875
1.1875 0.25 4.05
1.25 0.1875 3.9875
1.1875 0.1875 4.05
1.1875 0.25 3.9875
1.1875 0.1875 3.9875
1.375 0.1875 4.05
1.375 0.25 3.9875
1.3125 0.25 4.05
1.375 0.1875 3.9875
1.3125 0.1875 4.05
1.3125 0.25 3.9875
1.3125 0.1875 3.9875
1.5 0.1875 4.05
1.5 0.25 3.9875
1.4375 0.25 4.05
1.5 0.1875 3.9875
1.4375 0.1875 4.05
1.4375 0.25 3.9875
1.4375 0.1875 3.9875
1.625 0.1875 4.05
1.625 0.25 3.9875
1.5625 0.25 4.05
1.625 0.1875 3.9875
1.5625 0.1875 4.05
1.5625 0.25 3.9875
1.5625 0.1875 3.9875
1.75 0.1875 4.05
1.75 0.25 3.9875
1.6875 0.25 4.05
1.75 0.1875 3.9875
1.6875 0.1875 4.05
1.6875 0.25 3.9875
1.6875 0.1875 3.9875
1.875 0.1875 4.05
1.875 0.25 3.9875
1.8125 0.25 4.05
1.875 0.1875 3.9875
1.8125 0.1875 4.05
1.8125 0.25 3.9875
1.8125 0.1875 3.9875
2 0.1875 4.05
2 0.25 3.9875
1.9375 0.25 4.05
2 0.1875 3.9875
1.9375 0.1875 4.05
1.9375 0.25 3.9875
1.9375 0.1875 3.9875
2.125 0.1875 4.05
2.125 0.25 3.9875
2.0625 0.25 4.05
2.125 0.1875 3.9875
2.0625 0.1875 4.05
2.0625 0.25 3.9875
2.0625 0.1875 3.9875
2.25 0.1875 4.05
2.25 0.25 3.9875
2.1875 0.25 4.05
2.25 0.1875 3.9875
2.1875 0.1875 4.05
2.1875 0.25 3.9875
2.1875 0.1875 3.9875
2.375 0.1875 4.05
2.375 0.25 3.9875
2.3125 0.25 4.05
2.375 0.1875 3.9875
2.3125 0.1875 4.05
2.3125 0.25 3.9875
2.3125 0.1875 3.9875
2.5 0.1875 4.05
2.5 0.25 3.9875
2.4375 0.25 4.05
2.5 0.1875 3.9875
2.4375 0.1875 4.05
2.4375 0.25 3.9875
2.4375 0.1875 3.9875
2.625 0.1875 4.05
2.625 0.25 3.9875
2.5625 0.25 4.05
2.625 0.1875 3.9875
2.5625 0.1875 4.05
2.5625 0.25 3.9875
2.5625 0.1875 3.9875
2.75 0.1875 4.05
2.75 0.25 3.9875
2.6875 0.25 4.05
2.75 0.1875 3.9875
2.6875 0.1875 4.05
2.6875 0.25 3.9875
2.6875 0.1875 3.9875
2.875 0.1875 4.05
2.875 0.25 3.9875
2.8125 0.25 4.05
2.875 0.1875 3.9875
2.8125 0.1875 4.05
2.8125 0.25 3.9875
2.8125 0.1875 3.9875
3 0.1875 4.05
3 0.25 3.9875
2.9375 0.25 4.05
3 0.1875 3.9875
2.9375 0.1875 4.05
2.9375 0.25 3.9875
2.9375 0.1875 3.9875
3.125 0.1875 4.05
3.125 0.25 3.9875
3.0625 0.25 4.05
3.125 0.1875 3.9875
3.0625 0.1875 4.05
3.0625 0.25 3.9875
3.0625 0.1875 3.9875
3.25 0.1875 4.05
3.25 0.25 3.9875
3.1875 0.25 4.05
3.25 0.1875 3.9875
3.1875 0.1875 4.05
3.1875 0.25 3.9875
3.1875 0.1875 3.9875
3.375 0.1875 4.05
3.375 0.25 3.9875
3.3125 0.25 4.05
3.375 0.1875 3.9875
3.3125 0.1875 4.05
3.3125 0.25 3.9875
3.3125 0.1875 3.9875
3.5 0.1875 4.05
3.5 0.25 3.9875
3.4375 0.25 4.05
3.5 0.1875 3.9875
3.4375 0.1875 4.05
3.4375 0.25 3.9875
3.4375 0.1875 3.9875
3.625 0.1875 4.05
3.625 0.25 3.9875
3.5625 0.25 4.05
3.625 0.1875 3.9875
3.5625 0.1875 4.05
3.5625 0.25 3.9875
3.5625 0.1875 3.9875
3.75 0.1875 4.05
3.75 0.25 3.9875
3.6875 0.25 4.05
3.75 0.1875 3.9875
3.6875 0.1875 4.05
3.6875 0.25 3.9875
3.6875 0.1875 3.9875
3.875 0.1875 4.05
3.875 0.25 3.9875
3.8125 0.25 4.05
3.875 0.1875 3.9875
3.8125 0.1875 4.05
3.8125 0.25 3.9875
3.8125 0.1875 3.9875
4 0.1875 4.05
4 0.25 3.9875
3.9375 0.25 4.05
4 0.1875 3.9875
3.9375 0.1875 4.05
3.9375 0.25 3.9875
3.9375 0.1875 3.9875
0.125 0.3125 4.05
0 0.3125 4.05
0.125 0.375 3.9875
0.0625 0.375 4.05
0 0.375 3.9875
0.125 0.3125 3.9875
0.0625 0.3125 4.05
0 0.3125 3.9875
0.0625 0.375 3.9875
0.0625 0.3125 3.9875
0.25 0.3125 4.05
0.25 0.375 3.9875
0.1875 0.375 4.05
0.25 0.3125 3.9875
0.1875 0.3125 4.05
0.1875 0.375 3.9875
0.1875 0.3125 3.9875
0.375 0.3125 4.05
0.375 0.375 3.9875
0.3125 0.375 4.05
0.375 0.3125 3.9875
0.3125 0.3125 4.05
0.3125 0.375 3.9875
0.3125 0.3125 3.9875
0.5 0.3125 4.05
0.5 0.375 3.9875
0.4375 0.375 4.05
0.5 0.3125 3.9875
0.4375 0.3125 4.05
0.4375 0.375 3.9875
0.4375 0.3125 3.9875
0.625 0.3125 4.05
0.625 0.375 3.9875
0.5625 0.375 4.05
0.625 0.3125 3.9875
0.5625 0.3125 4.05
0.5625 0.375 3.9875
0.5625 0.3125 3.9875
0.75 0.3125 4.05
0.75 0.375 3.9875
0.6875 0.375 4.05
0.75 0.3125 3.9875
0.6875 0.3125 4.05
0.6875 0.375 3.9875
0.6875 0.3125 3.9875
0.875 0.3125 4.05
0.875 0.375 3.9875
0.8125 0.375 4.05
0.875 0.3125 3.9875
0.8125 0.3125 4.05
0.8125 0.375 3.9875
0.8125 0.3125 3.9875
1 0.3125 4.05
1 0.375 3.9875
0.9375 0.375 4.05
1 0.3125 3.9875
0.9375 0.3125 4.05
0.9375 0.375 3.9875
0.9375 0.3125 3.9875
1.125 0.3125 4.05
1.125 0.375 3.9875
1.0625 0.375 4.05
1.125 0.3125 3.9875
1.0625 0.3125 4.05
1.0625 0.375 3.9875
1.0625 0.3125 3.9875
1.25 0.3125 4.05
1.25 0.375 3.9875
1.1875 0.375 4.05
1.25 0.3125 3.9875
1.1875 0.3125 4.05
1.1875 0.375 3.9875
1.1875 0.3125 3.9875
1.375 0.3125 4.05
1.375 0.375 3.9875
1.3125 0.375 4.05
1.375 0.3125 3.9875
1.3125 0.3125 4.05
1.3125 0.375 3.9875
1.3125 0.3125 3.9875
1.5 0.3125 4.05
1.5 0.375 3.9875
1.4375 0.375 4.05
1.5 0.3125 3.9875
1.4375 0.3125 4.05
1.4375 0.375 3.9875
1.4375 0.3125 3.9875
1.625 0.3125 4.05
1.625 0.375 3.9875
1.5625 0.375 4.05
1.625 0.3125 3.9875
1.5625 0.3125 4.05
1.5625 0.375 3.9875
1.5625 0.3125 3.9875
1.75 0.3125 4.05
1.75 0.375 3.9875
1.6875 0.375 4.05
1.75 0.3125 3.9875
1.6875 0.3125 4.05
1.6875 0.375 3.9875
1.6875 0.3125 3.9875
1.875 0.3125 4.05
1.875 0.375 3.9875
1.8125 0.375 4.05
1.875 0.3125 3.9875
1.8125 0.3125 4.05
1.8125 0.375 3.9875
1.8125 0.3125 3.9875
2 0.3125 4.05
2 0.375 3.9875
1.9375 0.375 4.05
2 0.3125 3.9875
1.9375 0.3125 4.05
1.9375 0.375 3.9875
1.9375 0.3125 3.9875
2.125 0.3125 4.05
2.125 0.375 3.9875
2.0625 0.375 4.05
2.125 0.3125 3.9875
2.0625 0.3125 4.05
2.0625 0.375 3.9875
2.0625 0.3125 3.9875
2.25 0.3125 4.05
2.25 0.375 3.9875
2.1875 0.375 4.05
2.25 0.3125 3.9875
2.1875 0.3125 4.05
2.1875 0.375 3.9875
2.1875 0.3125 3.9875
2.375 0.3125 4.05
2.375 0.375 3.9875
2.3125 0.375 4.05
2.375 0.3125 3.9875
2.3125 0.3125 4.05
2.3125 0.375 3.9875
2.3125 0.3125 3.9875
2.5 0.3125 4.05
2.5 0.375 3.9875
2.4375 0.375 4.05
2.5 0.3125 3.9875
2.4375 0.3125 4.05
2.4375 0.375 3.9875
2.4375 0.3125 3.9875
2.625 0.3125 4.05
2.625 0.375 3.9875
2.5625 0.375 4.05
2.625 0.3125 3.9875
2.5625 0.3125 4.05
2.5625 0.375 3.9875
2.5625 0.3125 3.9875
2.75 0.3125 4.05
2.75 0.375 3.9875
2.6875 0.375 4.05
2.75 0.3125 3.9875
2.6875 0.3125 4.05
2.6875 0.375 3.9875
2.6875 0.3125 3.9875
2.875 0.3125 4.05
2.875 0.375 3.9875
2.8125 0.375 4.05
2.875 0.3125 3.9875
2.8125 0.3125 4.05
2.8125 0.375 3.9875
2.8125 0.3125 3.9875
3 0.3125 4.05
3 0.375 3.9875
2.9375 0.375 4.05
3 0.3125 3.9875
2.9375 0.3125 4.05
2.9375 0.375 3.9875
2.9375 0.3125 3.9875
3.125 0.3125 4.05
3.125 0.375 3.9875
3.0625 0.375 4.05
3.125 0.3125 3.9875
3.0625 0.3125 4.05
3.0625 0.375 3.9875
3.0625 0.3125 3.9875
3.25 0.3125 4.05
3.25 0.375 3.9875
3.1875 0.375 4.05
3.25 0.3125 3.9875
3.1875 0.3125 4.05
3.1875 0.375 3.9875
3.1875 0.3125 3.9875
3.375 0.3125 4.05
3.375 0.375 3.9875
3.3125 0.375 4.05
3.375 0.3125 3.9875
3.3125 0.3125 4.05
3.3125 0.375 3.9875
3.3125 0.3125 3.9875
3.5 0.3125 4.05
3.5 0.375 3.9875
3.4375 0.375 4.05
3.5 0.3125 3.9875
3.4375 0.3125 4.05
3.4375 0.375 3.9875
3.4375 0.3125 3.9875
3.625 0.3125 4.05
3.625 0.375 3.9875
3.5625 0.375 4.05
3.625 0.3125 3.9875
3.5625 0.3125 4.05
3.5625 0.375 3.9875
3.5625 0.3125 3.9875
3.75 0.3125 4.05
3.75 0.375 3.9875
3.6875 0.375 4.05
3.75 0.3125 3.9875
3.6875 0.3125 4.05
3.6875 0.375 3.9875
3.6875 0.3125 3.9875
3.875 0.3125 4.05
3.875 0.375 3.9875
3.8125 0.375 4.05
3.875 0.3125 3.9875
3.8125 0.3125 4.05
3.8125 0.375 3.9875
3.8125 0.3125 3.9875
4 0.3125 4.05
4 0.375 3.9875
3.9375 0.375 4.05
4 0.3125 3.9875
3.9375 0.3125 4.05
3.9375 0.375 3.9875
3.9375 0.3125 3.9875
0.125 0.4375 4.05
0 0.4375 4.05
0.125 0.5 3.9875
0.0625 0.5 4.05
0 0.5 3.9875
0.125 0.4375 3.9875
0.0625 0.4375 4.05
0 0.4375 3.9875
0.0625 0.5 3.9875
0.0625 0.4375 3.9875
0.25 0.4375 4.05
0.25 0.5 3.9875
0.1875 0.5 4.05
0.25 0.4375 3.9875
0.1875 0.4375 4.05
0.1875 0.5 3.9875
0.1875 0.4375 3.9875
0.375 0.4375 4.05
0.375 0.5 3.9875
0.3125 0.5 4.05
0.375 0.4375 3.9875
0.3125 0.4375 4.05
0.3125 0.5 3.9875
0.3125 0.4375 3.9875
0.5 0.4375 4.05
0.5 0.5 3.9875
0.4375 0.5 4.05
0.5 0.4375 3.9875
0.4375 0.4375 4.05
0.4375 0.5 3.9875
0.4375 0.4375 3.9875
0.625 0.4375 4.05
0.625 0.5 3.9875
0.5625 0.5 4.05
0.625 0.4375 3.9875
0.5625 0.4375 4.05
0.5625 0.5 3.9875
0.5625 0.4375 3.9875
0.75 0.4375 4.05
0.75 0.5 3.9875
0.6875 0.5 4.05
0.75 0.4375 3.9875
0.6875 0.4375 4.05
0.6875 0.5 3.9875
0.6875 0.4375 3.9875
0.875 0.4375 4.05
0.875 0.5 3.9875
0.8125 0.5 4.05
0.875 0.4375 3.9875
0.8125 0.4375 4.05
0.8125 0.5 3.9875
0.8125 0.4375 3.9875
1 0.4375 4.05
1 0.5 3.9875
0.9375 0.5 4.05
1 0.4375 3.9875
0.9375 0.4375 4.05
0.9375 0.5 3.9875
0.9375 0.4375 3.9875
1.125 0.4375 4.05
1.125 0.5 3.9875
1.0625 0.5 4.05
1.125 0.4375 3.9875
1.0625 0.4375 4.05
1.0625 0.5 3.9875
1.0625 0.4375 3.9875
1.25 0.4375 4.05
1.25 0.5 3.9875
1.1875 0.5 4.05
1.25 0.4375 3.9875
1.1875 0.4375 4.05
1.1875 0.5 3.9875
1.1875 0.4375 3.9875
1.375 0.4375 4.05
1.375 0.5 3.9875
1.3125 0.5 4.05
1.375 0.4375 3.9875
1.3125 0.4375 4.05
1.3125 0.5 3.9875
1.3125 0.4375 3.9875
1.5 0.4375 4.05
1.5 0.5 3.9875
1.4375 0.5 4.05
1.5 0.4375 3.9875
1.4375 0.4375 4.05
1.4375 0.5 3.9875
1.4375 0.4375 3.9875
1.625 0.4375 4.05
1.625 0.5 3.9875
1.5625 0.5 4.05
1.625 0.4375 3.9875
1.5625 0.4375 4.05
1.5625 0.5 3.9875
1.5625 0.4375 3.9875
1.75 0.4375 4.05
1.75 0.5 3.9875
1.6875 0.5 4.05
1.75 0.4375 3.9875
1.6875 0.4375 4.05
1.6875 0.5 3.9875
1.6875 0.4375 3.9875
1.875 0.4375 4.05
1.875 0.5 3.9875
1.8125 0.5 4.05
1.875 0.4375 3.9875
1.8125 0.4375 4.05
1.8125 0.5 3.9875
1.8125 0.4375 3.9875
2 0.4375 4.05
2 0.5 3.9875
1.9375 0.5 4.05
2 0.4375 3.9875
1.9375 0.4375 4.05
1.9375 0.5 3.9875
1.9375 0.4375 3.9875
2.125 0.4375 4.05
2.125 0.5 3.9875
2.0625 0.5 4.05
2.125 0.4375 3.9875
2.0625 0.4375 4.05
2.0625 0.5 3.9875
2.0625 0.4375 3.9875
2.25 0.4375 4.05
2.25 0.5 3.9875
2.1875 0.5 4.05
2.25 0.4375 3.9875
2.1875 0.4375 4.05
2.1875 0.5 3.9875
2.1875 0.4375 3.9875
2.375 0.4375 4.05
2.375 0.5 3.9875
2.3125 0.5 4.05
2.375 0.4375 3.9875
2.3125 0.4375 4.05
2.3125 0.5 3.9875
2.3125 0.4375 3.9875
2.5 0.4375 4.05
2.5 0.5 3.9875
2.4375 0.5 4.05
2.5 0.4375 3.9875
2.4375 0.4375 4.05
2.4375 0.5 3.9875
2.4375 0.4375 3.9875
2.625 0.4375 4.05
2.625 0.5 3.9875
2.5625 0.5 4.05
2.625 0.4375 3.9875
2.5625 0.4375 4.05
2.5625 0.5 3.9875
2.5625 0.4375 3.9875
2.75 0.4375 4.05
2.75 0.5 3.9875
2.6875 0.5 4.05
2.75 0.4375 3.9875
2.6875 0.4375 4.05
2.6875 0.5 3.9875
2.6875 0.4375 3.9875
2.875 0.4375 4.05
2.875 0.5 3.9875
2.8125 0.5 4.05
2.875 0.4375 3.9875
2.8125 0.4375 4.05
2.8125 0.5 3.9875
2.8125 0.4375 3.9875
3 0.4375 4.05
3 0.5 3.9875
2.9375 0.5 4.05
3 0.4375 3.9875
2.9375 0.4375 4.05
2.9375 0.5 3.9875
2.9375 0.4375 3.9875
3.125 0.4375 4.05
3.125 0.5 3.9875
3.0625 0.5 4.05
3.125 0.4375 3.9875
3.0625 0.4375 4.05
3.0625 0.5 3.9875
3.0625 0.4375 3.9875
3.25 0.4375 4.05
3.25 0.5 3.9875
3.1875 0.5 4.05
3.25 0.4375 3.9875
3.1875 0.4375 4.05
3.1875 0.5 3.9875
3.1875 0.4375 3.9875
3.375 0.4375 4.05
3.375 0.5 3.9875
3.3125 0.5 4.05
3.375 0.4375 3.9875
3.3125 0.4375 4.05
3.3125 0.5 3.9875
3.3125 0.4375 3.9875
3.5 0.4375 4.05
3.5 0.5 3.9875
3.4375 0.5 4.05
3.5 0.4375 3.9875
3.4375 0.4375 4.05
3.4375 0.5 3.9875
3.4375 0.4375 3.9875
3.625 0.4375 4.05
3.625 0.5 3.9875
3.5625 0.5 4.05
3.625 0.4375 3.9875
3.5625 0.4375 4.05
3.5625 0.5 3.9875
3.5625 0.4375 3.9875
3.75 0.4375 4.05
3.75 0.5 3.9875
3.6875 0.5 4.05
3.75 0.4375 3.9875
3.6875 0.4375 4.05
3.6875 0.5 3.9875
3.6875 0.4375 3.9875
3.875 0.4375 4.05
3.875 0.5 3.9875
3.8125 0.5 4.05
3.875 0.4375 3.9875
3.8125 0.4375 4.05
3.8125 0.5 3.9875
3.8125 0.4375 3.9875
4 0.4375 4.05
4 0.5 3.9875
3.9375 0.5 4.05
4 0.4375 3.9875
3.9375 0.4375 4.05
3.9375 0.5 3.9875
3.9375 0.4375 3.9875
0.125 0.5625 4.05
0 0.5625 4.05
0.125 0.625 3.9875
0.0625 0.625 4.05
0 0.625 3.9875
0.125 0.5625 3.9875
0.0625 0.5625 4.05
0 0.5625 3.9875
0.0625 0.625 3.9875
0.0625 0.5625 3.9875
0.25 0.5625 4.05
0.25 0.625 3.9875
0.1875 0.625 4.05
0.25 0.5625 3.9875
0.1875 0.5625 4.05
0.1875 0.625 3.9875
0.1875 0.5625 3.9875
0.375 0.5625 4.05
0.375 0.625 3.9875
0.3125 0.625 4.05
0.375 0.5625 3.9875
0.3125 0.5625 4.05
0.3125 0.625 3.9875
0.3125 0.5625 3.9875
0.5 0.5625 4.05
0.5 0.625 3.9875
0.4375 0.625 4.05
0.5 0.5625 3.9875
0.4375 0.5625 4.05
0.4375 0.625 3.9875
0.4375 0.5625 3.9875
0.625 0.5625 4.05
0.625 0.625 3.9875
0.5625 0.625 4.05
0.625 0.5625 3.9875
0.5625 0.5625 4.05
0.5625 0.625 3.9875
0.5625 0.5625 3.9875
0.75 0.5625 4.05
0.75 0.625 3.9875
0.6875 0.625 4.05
0.75 0.5625 3.9875
0.6875 0.5625 4.05
0.6875 0.625 3.9875
0.6875 0.5625 3.9875
0.875 0.5625 4.05
0.875 0.625 3.9875
0.8125 0.625 4.05
0.875 0.5625 3.9875
0.8125 0.5625 4.05
0.8125 0.625 3.9875
0.8125 0.5625 3.9875
1 0.5625 4.05
1 0.625 3.9875
0.9375 0.625 4.05
1 0.5625 3.9875
0.9375 0.5625 4.05
0.9375 0.625 3.9875
0.9375 0.5625 3.9875
1.125 0.5625 4.05
1.125 0.625 3.9875
1.0625 0.625 4.05
1.125 0.5625 3.9875
1.0625 0.5625 4.05
1.0625 0.625 3.9875
1.0625 0.5625 3.9875
1.25 0.5625 4.05
1.25 0.625 3.9875
1.1875 0.625 4.05
1.25 0.5625 3.9875
1.1875 0.5625 4.05
1.1875 0.625 3.9875
1.1875 0.5625 3.9875
1.375 0.5625 4.05
1.375 0.625 3.9875
1.3125 0.625 4.05
1.375 0.5625 3.9875
1.3125 0.5625 4.05
1.3125 0.625 3.9875
1.3125 0.5625 3.9875
1.5 0.5625 4.05
1.5 0.625 3.9875
1.4375 0.625 4.05
1.5 0.5625 3.9875
1.4375 0.5625 4.05
1.4375 0.625 3.9875
1.4375 0.5625 3.9875
1.625 0.5625 4.05
1.625 0.625 3.9875
1.5625 0.625 4.05
1.625 0.5625 3.9875
1.5625 0.5625 4.05
1.5625 0.625 3.9875
1.5625 0.5625 3.9875
1.75 0.5625 4.05
1.75 0.625 3.9875
1.6875 0.625 4.05
1.75 0.5625 3.9875
1.6875 0.5625 4.05
1.6875 0.625 3.9875
1.6875 0.5625 3.9875
1.875 0.5625 4.05
1.875 0.625 3.9875
1.8125 0.625 4.05
1.875 0.5625 3.9875
1.8125 0.5625 4.05
1.8125 0.625 3.9875
1.8125 0.5625 3.9875
2 0.5625 4.05
2 0.625 3.9875
1.9375 0.625 4.05
2 0.5625 3.9875
1.9375 0.5625 4.05
1.9375 0.625 3.9875
1.9375 0.5625 3.9875
2.125 0.5625 4.05
2.125 0.625 3.9875
2.0625 0.625 4.05
2.125 0.5625 3.9875
2.0625 0.5625 4.05
2.0625 0.625 3.9875
2.0625 0.5625 3.9875
2.25 0.5625 4.05
2.25 0.625 3.9875
2.1875 0.625 4.05
2.25 0.5625 3.9875
2.1875 0.5625 4.05
2.1875 0.625 3.9875
2.1875 0.5625 3.9875
2.375 0.5625 4.05
2.375 0.625 3.9875
2.3125 0.625 4.05
2.375 0.5625 3.9875
2.3125 0.5625 4.05
2.3125 0.625 3.9875
2.3125 0.5625 3.9875
2.5 0.5625 4.05
2.5 0.625 3.9875
2.4375 0.625 4.05
2.5 0.5625 3.9875
2.4375 0.5625 4.05
2.4375 0.625 3.9875
2.4375 0.5625 3.9875
2.625 0.5625 4.05
2.625 0.625 3.9875
2.5625 0.625 4.05
2.625 0.5625 3.9875
2.5625 0.5625 4.05
2.5625 0.625 3.9875
2.5625 0.5625 3.9875
2.75 0.5625 4.05
2.75 0.625 3.9875
2.6875 0.625 4.05
2.75 0.5625 3.9875
2.6875 0.5625 4.05
2.6875 0.625 3.9875
2.6875 0.5625 3.9875
2.875 0.5625 4.05
2.875 0.625 3.9875
2.8125 0.625 4.05
2.875 0.5625 3.9875
2.8125 0.5625 4.05
2.8125 0.625 3.9875
2.8125 0.5625 3.9875
3 0.5625 4.05
3 0.625 3.9875
2.9375 0.625 4.05
3 0.5625 3.9875
2.9375 0.5625 4.05
2.9375 0.625 3.9875
2.9375 0.5625 3.9875
3.125 0.5625 4.05
3.125 0.625 3.9875
3.0625 0.625 4.05
3.125 0.5625 3.9875
3.0625 0.5625 4.05
3.0625 0.625 3.9875
3.0625 0.5625 3.9875
3.25 0.5625 4.05
3.25 0.625 3.9875
3.1875 0.625 4.05
3.25 0.5625 3.9875
3.1875 0.5625 4.05
3.1875 0.625 3.9875
3.1875 0.5625 3.9875
3.375 0.5625 4.05
3.375 0.625 3.9875
3.3125 0.625 4.05
3.375 0.5625 3.9875
3.3125 0.5625 4.05
3.3125 0.625 3.9875
3.3125 0.5625 3.9875
3.5 0.5625 4.05
3.5 0.625 3.9875
3.4375 0.625 4.05
3.5 0.5625 3.9875
3.4375 0.5625 4.05
3.4375 0.625 3.9875
3.4375 0.5625 3.9875
3.625 0.5625 4.05
3.625 0.625 3.9875
3.5625 0.625 4.05
3.625 0.5625 3.9875
3.5625 0.5625 4.05
3.5625 0.625 3.9875
3.5625 0.5625 3.9875
3.75 0.5625 4.05
3.75 0.625 3.9875
3.6875 0.625 4.05
3.75 0.5625 3.9875
3.6875 0.5625 4.05
3.6875 0.625 3.9875
3.6875 0.5625 3.9875
3.875 0.5625 4.05
3.875 0.625 3.9875
3.8125 0.625 4.05
3.875 0.5625 3.9875
3.8125 0.5625 4.05
3.8125 0.625 3.9875
3.8125 0.5625 3.9875
4 0.5625 4.05
4 0.625 3.9875
3.9375 0.625 4.05
4 0.5625 3.9875
3.9375 0.5625 4.05
3.9375 0.625 3.9875
3.9375 0.5625 3.9875
0.125 0.6875 4.05
0 0.6875 4.05
0.125 0.75 3.9875
0.0625 0.75 4.05
0 0.75 3.9875
0.125 0.6875 3.9875
0.0625 0.6875 4.05
0 0.6875 3.9875
0.0625 0.75 3.9875
0.0625 0.6875 3.9875
0.25 0.6875 4.05
0.25 0.75 3.9875
0.1875 0.75 4.05
0.25 0.6875 3.9875
0.1875 0.6875 4.05
0.1875 0.75 3.9875
0.1875 0.6875 3.9875
0.375 0.6875 4.05
0.375 0.75 3.9875
0.3125 0.75 4.05
0.375 0.6875 3.9875
0.3125 0.6875 4.05
0.3125 0.75 3.9875
0.3125 0.6875 3.9875
0.5 0.6875 4.05
0.5 0.75 3.9875
0.4375 0.75 4.05
0.5 0.6875 3.9875
0.4375 0.6875 4.05
0.4375 0.75 3.9875
0.4375 0.6875 3.9875
0.625 0.6875 4.05
0.625 0.75 3.9875
0.5625 0.75 4.05
0.625 0.6875 3.9875
0.5625 0.6875 4.05
0.5625 0.75 3.9875
0.5625 0.6875 3.9875
0.75 0.6875 4.05
0.75 0.75 3.9875
0.6875 0.75 4.05
0.75 0.6875 3.9875
0.6875 0.6875 4.05
0.6875 0.75 3.9875
0.6875 0.6875 3.9875
0.875 0.6875 4.05
0.875 0.75 3.9875
0.8125 0.75 4.05
0.875 0.6875 3.9875
0.8125 0.6875 4.05
0.8125 0.75 3.9875
0.8125 0.6875 3.9875
1 0.6875 4.05
1 0.75 3.9875
0.9375 0.75 4.05
1 0.6875 3.9875
0.9375 0.6875 4.05
0.9375 0.75 3.9875
0.9375 0.6875 3.9875
1.125 0.6875 4.05
1.125 0.75 3.9875
1.0625 0.75 4.05
1.125 0.6875 3.9875
1.0625 0.6875 4.05
1.0625 0.75 3.9875
1.0625 0.6875 3.9875
1.25 0.6875 4.05
1.25 0.75 3.9875
1.1875 0.75 4.05
1.25 0.6875 3.9875
1.1875 0.6875 4.05
1.1875 0.75 3.9875
1.1875 0.6875 3.9875
1.375 0.6875 4.05
1.375 0.75 3.9875
1.3125 0.75 4.05
1.375 0.6875 3.9875
1.3125 0.6875 4.05
1.3125 0.75 3.9875
1.3125 0.6875 3.9875
1.5 0.6875 4.05
1.5 0.75 3.9875
1.4375 0.75 4.05
1.5 0.6875 3.9875
1.4375 0.6875 4.05
1.4375 0.75 3.9875
1.4375 0.6875 3.9875
1.625 0.6875 4.05
1.625 0.75 3.9875
1.5625 0.75 4.05
1.625 0.6875 3.9875
1.5625 0.6875 4.05
1.5625 0.75 3.9875
1.5625 0.6875 3.9875
1.75 0.6875 4.05
1.75 0.75 3.9875
1.6875 0.75 4.05
1.75 0.6875 3.9875
1.6875 0.6875 4.05
1.6875 0.75 3.9875
1.6875 0.6875 3.9875
1.875 0.6875 4.05
1.875 0.75 3.9875
1.8125 0.75 4.05
1.875 0.6875 3.9875
1.8125 0.6875 4.05
1.8125 0.75 3.9875
1.8125 0.6875 3.9875
2 0.6875 4.05
2 0.75 3.9875
1.9375 0.75 4.05
2 0.6875 3.9875
1.9375 0.6875 4.05
1.9375 0.75 3.9875
1.9375 0.6875 3.9875
2.125 0.6875 4.05
2.125 0.75 3.9875
2.0625 0.75 4.05
2.125 0.6875 3.9875
2.0625 0.6875 4.05
2.0625 0.75 3.9875
2.0625 0.6875 3.9875
2.25 0.6875 4.05
2.25 0.75 3.9875
2.1875 0.75 4.05
2.25 0.6875 3.9875
2.1875 0.6875 4.05
2.1875 0.75 3.9875
2.1875 0.6875 3.9875
2.375 0.6875 4.05
2.375 0.75 3.9875
2.3125 0.75 4.05
2.375 0.6875 3.9875
2.3125 0.6875 4.05
2.3125 0.75 3.9875
2.3125 0.6875 3.9875
2.5 0.6875 4.05
2.5 0.75 3.9875
2.4375 0.75 4.05
2.5 0.6875 3.9875
2.4375 0.6875 4.05
2.4375 0.75 3.9875
2.4375 0.6875 3.9875
2.625 0.6875 4.05
2.625 0.75 3.9875
2.5625 0.75 4.05
2.625 0.6875 3.9875
2.5625 0.6875 4.05
2.5625 0.75 3.9875
2.5625 0.6875 3.9875
2.75 0.6875 4.05
2.75 0.75 3.9875
2.6875 0.75 4.05
2.75 0.6875 3.9875
2.6875 0.6875 4.05
2.6875 0.75 3.9875
2.6875 0.6875 3.9875
2.875 0.6875 4.05
2.875 0.75 3.9875
2.8125 0.75 4.05
2.875 0.6875 3.9875
2.8125 0.6875 4.05
2.8125 0.75 3.9875
2.8125 0.6875 3.9875
3 0.6875 4.05
3 0.75 3.9875
2.9375 0.75 4.05
3 0.6875 3.9875
2.9375 0.6875 4.05
2.9375 0.75 3.9875
2.9375 0.6875 3.9875
3.125 0.6875 4.05
3.125 0.75 3.9875
3.0625 0.75 4.05
3.125 0.6875 3.9875
3.0625 0.6875 4.05
3.0625 0.75 3.9875
3.0625 0.6875 3.9875
3.25 0.6875 4.05
3.25 0.75 3.9875
3.1875 0.75 4.05
3.25 0.6875 3.9875
3.1875 0.6875 4.05
3.1875 0.75 3.9875
3.1875 0.6875 3.9875
3.375 0.6875 4.05
3.375 0.75 3.9875
3.3125 0.75 4.05
3.375 0.6875 3.9875
3.3125 0.6875 4.05
3.3125 0.75 3.9875
3.3125 0.6875 3.9875
3.5 0.6875 4.05
3.5 0.75 3.9875
3.4375 0.75 4.05
3.5 0.6875 3.9875
3.4375 0.6875 4.05
3.4375 0.75 3.9875
3.4375 0.6875 3.9875
3.625 0.6875 4.05
3.625 0.75 3.9875
3.5625 0.75 4.05
3.625 0.6875 3.9875
3.5625 0.6875 4.05
3.5625 0.75 3.9875
3.5625 0.6875 3.9875
3.75 0.6875 4.05
3.75 0.75 3.9875
3.6875 0.75 4.05
3.75 0.6875 3.9875
3.6875 0.6875 4.05
3.6875 0.75 3.9875
3.6875 0.6875 3.9875
3.875 0.6875 4.05
3.875 0.75 3.9875
3.8125 0.75 4.05
3.875 0.6875 3.9875
3.8125 0.6875 4.05
3.8125 0.75 3.9875
3.8125 0.6875 3.9875
4 0.6875 4.05
4 0.75 3.9875
3.9375 0.75 4.05
4 0.6875 3.9875
3.9375 0.6875 4.05
3.9375 0.75 3.9875
3.9375 0.6875 3.9875
0.125 0.8125 4.05
0 0.8125 4.05
0.125 0.875 3.9875
0.0625 0.875 4.05
0 0.875 3.9875
0.125 0.8125 3.9875
0.0625 0.8125 4.05
0 0.8125 3.9875
0.0625 0.875 3.9875
0.0625 0.8125 3.9875
0.25 0.8125 4.05
0.25 0.875 3.9875
0.1875 0.875 4.05
0.25 0.8125 3.9875
0.1875 0.8125 4.05
0.1875 0.875 3.9875
0.1875 0.8125 3.9875
0.375 0.8125 4.05
0.375 0.875 3.9875
0.3125 0.875 4.05
0.375 0.8125 3.9875
0.3125 0.8125 4.05
0.3125 0.875 3.9875
0.3125 0.8125 3.9875
0.5 0.8125 4.05
0.5 0.875 3.9875
0.4375 0.875 4.05
0.5 0.8125 3.9875
0.4375 0.8125 4.05
0.4375 0.875 3.9875
0.4375 0.8125 3.9875
0.625 0.8125 4.05
0.625 0.875 3.9875
0.5625 0.875 4.05
0.625 0.8125 3.9875
0.5625 0.8125 4.05
0.5625 0.875 3.9875
0.5625 0.8125 3.9875
0.75 0.8125 4.05
0.75 0.875 3.9875
0.6875 0.875 4.05
0.75 0.8125 3.9875
0.6875 0.8125 4.05
0.6875 0.875 3.9875
0.6875 0.8125 3.9875
0.875 0.8125 4.05
0.875 0.875 3.9875
0.8125 0.875 4.05
0.875 0.8125 3.9875
0.8125 0.8125 4.05
0.8125 0.875 3.9875
0.8125 0.8125 3.9875
1 0.8125 4.05
1 0.875 3.9875
0.9375 0.875 4.05
1 0.8125 3.9875
0.9375 0.8125 4.05
0.9375 0.875 3.9875
0.9375 0.8125 3.9875
1.125 0.8125 4.05
1.125 0.875 3.9875
1.0625 0.875 4.05
1.125 0.8125 3.9875
1.0625 0.8125 4.05
1.0625 0.875 3.9875
1.0625 0.8125 3.9875
1.25 0.8125 4.05
1.25 0.875 3.9875
1.1875 0.875 4.05
1.25 0.8125 3.9875
1.1875 0.8125 4.05
1.1875 0.875 3.9875
1.1875 0.8125 3.9875
1.375 0.8125 4.05
1.375 0.875 3.9875
1.3125 0.875 4.05
1.375 0.8125 3.9875
1.3125 0.8125 4.05
1.3125 0.875 3.9875
1.3125 0.8125 3.9875
1.5 0.8125 4.05
1.5 0.875 3.9875
1.4375 0.875 4.05
1.5 0.8125 3.9875
1.4375 0.8125 4.05
1.4375 0.875 3.9875
1.4375 0.8125 3.9875
1.625 0.8125 4.05
1.625 0.875 3.9875
1.5625 0.875 4.05
1.625 0.8125 3.9875
1.5625 0.8125 4.05
1.5625 0.875 3.9875
1.5625 0.8125 3.9875
1.75 0.8125 4.05
1.75 0.875 3.9875
1.6875 0.875 4.05
1.75 0.8125 3.9875
1.6875 0.8125 4.05
1.6875 0.875 3.9875
1.6875 0.8125 3.9875
1.875 0.8125 4.05
1.875 0.875 3.9875
1.8125 0.875 4.05
1.875 0.8125 3.9875
1.8125 0.8125 4.05
1.8125 0.875 3.9875
1.8125 0.8125 3.9875
2 0.8125 4.05
2 0.875 3.9875
1.9375 0.875 4.05
2 0.8125 3.9875
1.9375 0.8125 4.05
1.9375 0.875 3.9875
1.9375 0.8125 3.9875
2.125 0.8125 4.05
2.125 0.875 3.9875
2.0625 0.875 4.05
2.125 0.8125 3.9875
2.0625 0.8125 4.05
2.0625 0.875 3.9875
2.0625 0.8125 3.9875
2.25 0.8125 4.05
2.25 0.875 3.9875
2.1875 0.875 4.05
2.25 0.8125 3.9875
2.1875 0.8125 4.05
2.1875 0.875 3.9875
2.1875 0.8125 3.9875
2.375 0.8125 4.05
2.375 0.875 3.9875
2.3125 0.875 4.05
2.375 0.8125 3.9875
2.3125 0.8125 4.05
2.3125 0.875 3.9875
2.3125 0.8125 3.9875
2.5 0.8125 4.05
2.5 0.875 3.9875
2.4375 0.875 4.05
2.5 0.8125 3.9875
2.4375 0.8125 4.05
2.4375 0.875 3.9875
2.4375 0.8125 3.9875
2.625 0.8125 4.05
2.625 0.875 3.9875
2.5625 0.875 4.05
2.625 0.8125 3.9875
2.5625 0.8125 4.05
2.5625 0.875 3.9875
2.5625 0.8125 3.9875
2.75 0.8125 4.05
2.75 0.875 3.9875
2.6875 0.875 4.05
2.75 0.8125 3.9875
2.6875 0.8125 4.05
2.6875 0.875 3.9875
2.6875 0.8125 3.9875
2.875 0.8125 4.05
2.875 0.875 3.9875
2.8125 0.875 4.05
2.875 0.8125 3.9875
2.8125 0.8125 4.05
2.8125 0.875 3.9875
2.8125 0.8125 3.9875
3 0.8125 4.05
3 0.875 3.9875
2.9375 0.875 4.05
3 0.8125 3.9875
2.9375 0.8125 4.05
2.9375 0.875 3.9875
2.9375 0.8125 3.9875
3.125 0.8125 4.05
3.125 0.875 3.9875
3.0625 0.875 4.05
3.125 0.8125 3.9875
3.0625 0.8125 4.05
3.0625 0.875 3.9875
3.0625 0.8125 3.9875
3.25 0.8125 4.05
3.25 0.875 3.9875
3.1875 0.875 4.05
3.25 0.8125 3.9875
3.1875 0.8125 4.05
3.1875 0.875 3.9875
3.1875 0.8125 3.9875
3.375 0.8125 4.05
3.375 0.875 3.9875
3.3125 0.875 4.05
3.375 0.8125 3.9875
3.3125 0.8125 4.05
3.3125 0.875 3.9875
3.3125 0.8125 3.9875
3.5 0.8125 4.05
3.5 0.875 3.9875
3.4375 0.875 4.05
3.5 0.8125 3.9875
3.4375 0.8125 4.05
3.4375 0.875 3.9875
3.4375 0.8125 3.9875
3.625 0.8125 4.05
3.625 0.875 3.9875
3.5625 0.875 4.05
3.625 0.8125 3.9875
3.5625 0.8125 4.05
3.5625 0.875 3.9875
3.5625 0.8125 3.9875
3.75 0.8125 4.05
3.75 0.875 3.9875
3.6875 0.875 4.05
3.75 0.8125 3.9875
3.6875 0.8125 4.05
3.6875 0.875 3.9875
3.6875 0.8125 3.9875
3.875 0.8125 4.05
3.875 0.875 3.9875
3.8125 0.875 4.05
3.875 0.8125 3.9875
3.8125 0.8125 4.05
3.8125 0.875 3.9875
3.8125 0.8125 3.9875
4 0.8125 4.05
4 0.875 3.9875
3.9375 0.875 4.05
4 0.8125 3.9875
3.9375 0.8125 4.05
3.9375 0.875 3.9875
3.9375 0.8125 3.9875
0.125 0.9375 4.05
0 0.9375 4.05
0.125 1 3.9875
0.0625 1 4.05
0 1 3.9875
0.125 0.9375 3.9875
0.0625 0.9375 4.05
0 0.9375 3.9875
0.0625 1 3.9875
0.0625 0.9375 3.9875
0.25 0.9375 4.05
0.25 1 3.9875
0.1875 1 4.05
0.25 0.9375 3.9875
0.1875 0.9375 4.05
0.1875 1 3.9875
0.1875 0.9375 3.9875
0.375 0.9375 4.05
0.375 1 3.9875
0.3125 1 4.05
0.375 0.9375 3.9875
0.3125 0.9375 4.05
0.3125 1 3.9875
0.3125 0.9375 3.9875
0.5 0.9375 4.05
0.5 1 3.9875
0.4375 1 4.05
0.5 0.9375 3.9875
0.4375 0.9375 4.05
0.4375 1 3.9875
0.4375 0.9375 3.9875
0.625 0.9375 4.05
0.625 1 3.9875
0.5625 1 4.05
0.625 0.9375 3.9875
0.5625 0.9375 4.05
0.5625 1 3.9875
0.5625 0.9375 3.9875
0.75 0.9375 4.05
0.75 1 3.9875
0.6875 1 4.05
0.75 0.9375 3.9875
0.6875 0.9375 4.05
0.6875 1 3.9875
0.6875 0.9375 3.9875
0.875 0.9375 4.05
0.875 1 3.9875
0.8125 1 4.05
0.875 0.9375 3.9875
0.8125 0.9375 4.05
0.8125 1 3.9875
0.8125 0.9375 3.9875
1 0.9375 4.05
1 1 3.9875
0.9375 1 4.05
1 0.9375 3.9875
0.9375 0.9375 4.05
0.9375 1 3.9875
0.9375 0.9375 3.9875
1.125 0.9375 4.05
1.125 1 3.9875
1.0625 1 4.05
1.125 0.9375 3.9875
1.0625 0.9375 4.05
1.0625 1 3.9875
1.0625 0.9375 3.9875
1.25 0.9375 4.05
1.25 1 3.9875
1.1875 1 4.05
1.25 0.9375 3.9875
1.1875 0.9375 4.05
1.1875 1 3.9875
1.1875 0.9375 3.9875
1.375 0.9375 4.05
1.375 1 3.9875
1.3125 1 4.05
1.375 0.9375 3.9875
1.3125 0.9375 4.05
1.3125 1 3.9875
1.3125 0.9375 3.9875
1.5 0.9375 4.05
1.5 1 3.9875
1.4375 1 4.05
1.5 0.9375 3.9875
1.4375 0.9375 4.05
1.4375 1 3.9875
1.4375 0.9375 3.9875
1.625 0.9375 4.05
1.625 1 3.9875
1.5625 1 4.05
1.625 0.9375 3.9875
1.5625 0.9375 4.05
1.5625 1 3.9875
1.5625 0.9375 3.9875
1.75 0.9375 4.05
1.75 1 3.9875
1.6875 1 4.05
1.75 0.9375 3.9875
1.6875 0.9375 4.05
1.6875 1 3.9875
1.6875 0.9375 3.9875
1.875 0.9375 4.05
1.875 1 3.9875
1.8125 1 4.05
1.875 0.9375 3.9875
1.8125 0.9375 4.05
1.8125 1 3.9875
1.8125 0.9375 3.9875
2 0.9375 4.05
2 1 3.9875
1.9375 1 4.05
2 0.9375 3.9875
1.9375 0.9375 4.05
1.9375 1 3.9875
1.9375 0.9375 3.9875
2.125 0.9375 4.05
2.125 1 3.9875
2.0625 1 4.05
2.125 0.9375 3.9875
2.0625 0.9375 4.05
2.0625 1 3.9875
2.0625 0.9375 3.9875
2.25 0.9375 4.05
2.25 1 3.9875
2.1875 1 4.05
2.25 0.9375 3.9875
2.1875 0.9375 4.05
2.1875 1 3.9875
2.1875 0.9375 3.9875
2.375 0.9375 4.05
2.375 1 3.9875
2.3125 1 4.05
2.375 0.9375 3.9875
2.3125 0.9375 4.05
2.3125 1 3.9875
2.3125 0.9375 3.9875
2.5 0.9375 4.05
2.5 1 3.9875
2.4375 1 4.05
2.5 0.9375 3.9875
2.4375 0.9375 4.05
2.4375 1 3.9875
2.4375 0.9375 3.9875
2.625 0.9375 4.05
2.625 1 3.9875
2.5625 1 4.05
2.625 0.9375 3.9875
2.5625 0.9375 4.05
2.5625 1 3.9875
2.5625 0.9375 3.9875
2.75 0.9375 4.05
2.75 1 3.9875
2.6875 1 4.05
2.75 0.9375 3.9875
2.6875 0.9375 4.05
2.6875 1 3.9875
2.6875 0.9375 3.9875
2.875 0.9375 4.05
2.875 1 3.9875
2.8125 1 4.05
2.875 0.9375 3.9875
2.8125 0.9375 4.05
2.8125 1 3.9875
2.8125 0.9375 3.9875
3 0.9375 4.05
3 1 3.9875
2.9375 1 4.05
3 0.9375 3.9875
2.9375 0.9375 4.05
2.9375 1 3.9875
2.9375 0.9375 3.9875
3.125 0.9375 4.05
3.125 1 3.9875
3.0625 1 4.05
3.125 0.9375 3.9875
3.0625 0.9375 4.05
3.0625 1 3.9875
3.0625 0.9375 3.9875
3.25 0.9375 4.05
3.25 1 3.9875
3.1875 1 4.05
3.25 0.9375 3.9875
3.1875 0.9375 4.05
3.1875 1 3.9875
3.1875 0.9375 3.9875
3.375 0.9375 4.05
3.375 1 3.9875
3.3125 1 4.05
3.375 0.9375 3.9875
3.3125 0.9375 4.05
3.3125 1 3.9875
3.3125 0.9375 3.9875
3.5 0.9375 4.05
3.5 1 3.9875
3.4375 1 4.05
3.5 0.9375 3.9875
3.4375 0.9375 4.05
3.4375 1 3.9875
3.4375 0.9375 3.9875
3.625 0.9375 4.05
3.625 1 3.9875
3.5625 1 4.05
3.625 0.9375 3.9875
3.5625 0.9375 4.05
3.5625 1 3.9875
3.5625 0.9375 3.9875
3.75 0.9375 4.05
3.75 1 3.9875
3.6875 1 4.05
3.75 0.9375 3.9875
3.6875 0.9375 4.05
3.6875 1 3.9875
3.6875 0.9375 3.9875
3.875 0.9375 4.05
3.875 1 3.9875
3.8125 1 4.05
3.875 0.9375 3.9875
3.8125 0.9375 4.05
3.8125 1 3.9875
3.8125 0.9375 3.9875
4 0.9375 4.05
4 1 3.9875
3.9375 1 4.05
4 0.9375 3.9875
3.9375 0.9375 4.05
3.9375 1 3.9875
3.9375 0.9375 3.9875
0.125 0 4.1125
0.0625 0 4.175
0 0 4.1125
0.125 0.0625 4.175
0 0.0625 4.175
0.125 0.125 4.1125
0.0625 0.125 4.175
0 0.125 4.1125
0.0625 0 4.1125
0.125 0.0625 4.1125
0.0625 0.0625 4.175
0 0.0625 4.1125
0.0625 0.125 4.1125
0.0625 0.0625 4.1125
0.25 0 4.1125
0.1875 0 4.175
0.25 0.0625 4.175
0.25 0.125 4.1125
0.1875 0.125 4.175
0.1875 0 4.1125
0.25 0.0625 4.1125
0.1875 0.0625 4.175
0.1875 0.125 4.1125
0.1875 0.0625 4.1125
0.375 0 4.1125
0.3125 0 4.175
0.375 0.0625 4.175
0.375 0.125 4.1125
0.3125 0.125 4.175
0.3125 0 4.1125
0.375 0.0625 4.1125
0.3125 0.0625 4.175
0.3125 0.125 4.1125
0.3125 0.0625 4.1125
0.5 0 4.1125
0.4375 0 4.175
0.5 0.0625 4.175
0.5 0.125 4.1125
0.4375 0.125 4.175
0.4375 0 4.1125
0.5 0.0625 4.1125
0.4375 0.0625 4.175
0.4375 0.125 4.1125
0.4375 0.0625 4.1125
0.625 0 4.1125
0.5625 0 4.175
0.625 0.0625 4.175
0.625 0.125 4.1125
0.5625 0.125 4.175
0.5625 0 4.1125
0.625 0.0625 4.1125
0.5625 0.0625 4.175
0.5625 0.125 4.1125
0.5625 0.0625 4.1125
0.75 0 4.1125
0.6875 0 4.175
0.75 0.0625 4.175
0.75 0.125 4.1125
0.6875 0.125 4.175
0.6875 0 4.1125
0.75 0.0625 4.1125
0.6875 0.0625 4.175
0.6875 0.125 4.1125
0.6875 0.0625 4.1125
0.875 0 4.1125
0.8125 0 4.175
0.875 0.0625 4.175
0.875 0.125 4.1125
0.8125 0.125 4.175
0.8125 0 4.1125
0.875 0.0625 4.1125
0.8125 0.0625 4.175
0.8125 0.125 4.1125
0.8125 0.0625 4.1125
1 0 4.1125
0.9375 0 4.175
1 0.0625 4.175
1 0.125 4.1125
0.9375 0.125 4.175
0.9375 0 4.1125
1 0.0625 4.1125
0.9375 0.0625 4.175
0.9375 0.125 4.1125
0.9375 0.0625 4.1125
1.125 0 4.1125
1.0625 0 4.175
1.125 0.0625 4.175
1.125 0.125 4.1125
1.0625 0.125 4.175
1.0625 0 4.1125
1.125 0.0625 4.1125
1.0625 0.0625 4.175
1.0625 0.125 4.1125
1.0625 0.0625 4.1125
1.25 0 4.1125
1.1875 0 4.175
1.25 0.0625 4.175
1.25 0.125 4.1125
1.1875 0.125 4.175
1.1875 0 4.1125
1.25 0.0625 4.1125
1.1875 0.0625 4.175
1.1875 0.125 4.1125
1.1875 0.0625 4.1125
1.375 0 4.1125
1.3125 0 4.175
1.375 0.0625 4.175
1.375 0.125 4.1125
1.3125 0.125 4.175
1.3125 0 4.1125
1.375 0.0625 4.1125
1.3125 0.0625 4.175
1.3125 0.125 4.1125
1.3125 0.0625 4.1125
1.5 0 4.1125
1.4375 0 4.175
1.5 0.0625 4.175
1.5 0.125 4.1125
1.4375 0.125 4.175
1.4375 0 4.1125
1.5 0.0625 4.1125
1.4375 0.0625 4.175
1.4375 0.125 4.1125
1.4375 0.0625 4.1125
1.625 0 4.1125
1.5625 0 4.175
1.625 0.0625 4.175
1.625 0.125 4.1125
1.5625 0.125 4.175
1.5625 0 4.1125
1.625 0.0625 4.1125
1.5625 0.0625 4.175
1.5625 0.125 4.1125
1.5625 0.0625 4.1125
1.75 0 4.1125
1.6875 0 4.175
1.75 0.0625 4.175
1.75 0.125 4.1125
1.6875 0.125 4.175
1.6875 0 4.1125
1.75 0.0625 4.1125
1.6875 0.0625 4.175
1.6875 0.125 4.1125
1.6875 0.0625 4.1125
1.875 0 4.1125
1.8125 0 4.175
1.875 0.0625 4.175
1.875 0.125 4.1125
1.8125 0.125 4.175
1.8125 0 4.1125
1.875 0.0625 4.1125
1.8125 0.0625 4.175
1.8125 0.125 4.1125
1.8125 0.0625 4.1125
2 0 4.1125
1.9375 0 4.175
2 0.0625 4.175
2 0.125 4.1125
1.9375 0.125 4.175
1.9375 0 4.1125
2 0.0625 4.1125
1.9375 0.0625 4.175
1.9375 0.125 4.1125
1.9375 0.0625 4.1125
2.125 0 4.1125
2.0625 0 4.175
2.125 0.0625 4.175
2.125 0.125 4.1125
2.0625 0.125 4.175
2.0625 0 4.1125
2.125 0.0625 4.1125
2.0625 0.0625 4.175
2.0625 0.125 4.1125
2.0625 0.0625 4.1125
2.25 0 4.1125
2.1875 0 4.175
2.25 0.0625 4.175
2.25 0.125 4.1125
2.1875 0.125 4.175
2.1875 0 4.1125
2.25 0.0625 4.1125
2.1875 0.0625 4.175
2.1875 0.125 4.1125
2.1875 0.0625 4.1125
2.375 0 4.1125
2.3125 0 4.175
2.375 0.0625 4.175
2.375 0.125 4.1125
2.3125 0.125 4.175
2.3125 0 4.1125
2.375 0.0625 4.1125
2.3125 0.0625 4.175
2.3125 0.125 4.1125
2.3125 0.0625 4.1125
2.5 0 4.1125
2.4375 0 4.175
2.5 0.0625 4.175
2.5 0.125 4.1125
2.4375 0.125 4.175
2.4375 0 4.1125
2.5 0.0625 4.1125
2.4375 0.0625 4.175
2.4375 0.125 4.1125
2.4375 0.0625 4.1125
2.625 0 4.1125
2.5625 0 4.175
2.625 0.0625 4.175
2.625 0.125 4.1125
2.5625 0.125 4.175
2.5625 0 4.1125
2.625 0.0625 4.1125
2.5625 0.0625 4.175
2.5625 0.125 4.1125
2.5625 0.0625 4.1125
2.75 0 4.1125
2.6875 0 4.175
2.75 0.0625 4.175
2.75 0.125 4.1125
2.6875 0.125 4.175
2.6875 0 4.1125
2.75 0.0625 4.1125
2.6875 0.0625 4.175
2.6875 0.125 4.1125
2.6875 0.0625 4.1125
2.875 0 4.1125
2.8125 0 4.175
2.875 0.0625 4.175
2.875 0.125 4.1125
2.8125 0.125 4.175
2.8125 0 4.1125
2.875 0.0625 4.1125
2.8125 0.0625 4.175
2.8125 0.125 4.1125
2.8125 0.0625 4.1125
3 0 4.1125
2.9375 0 4.175
3 0.0625 4.175
3 0.125 4.1125
2.9375 0.125 4.175
2.9375 0 4.1125
3 0.0625 4.1125
2.9375 0.0625 4.175
2.9375 0.125 4.1125
2.9375 0.0625 4.1125
3.125 0 4.1125
3.0625 0 4.175
3.125 0.0625 4.175
3.125 0.125 4.1125
3.0625 0.125 4.175
3.0625 0 4.1125
3.125 0.0625 4.1125
3.0625 0.0625 4.175
3.0625 0.125 4.1125
3.0625 0.0625 4.1125
3.25 0 4.1125
3.1875 0 4.175
3.25 0.0625 4.175
3.25 0.125 4.1125
3.1875 0.125 4.175
3.1875 0 4.1125
3.25 0.0625 4.1125
3.1875 0.0625 4.175
3.1875 0.125 4.1125
3.1875 0.0625 4.1125
3.375 0 4.1125
3.3125 0 4.175
3.375 0.0625 4.175
3.375 0.125 4.1125
3.3125 0.125 4.175
3.3125 0 4.1125
3.375 0.0625 4.1125
3.3125 0.0625 4.175
3.3125 0.125 4.1125
3.3125 0.0625 4.1125
3.5 0 4.1125
3.4375 0 4.175
3.5 0.0625 4.175
3.5 0.125 4.1125
3.4375 0.125 4.175
3.4375 0 4.1125
3.5 0.0625 4.1125
3.4375 0.0625 4.175
3.4375 0.125 4.1125
3.4375 0.0625 4.1125
3.625 0 4.1125
3.5625 0 4.175
3.625 0.0625 4.175
3.625 0.125 4.1125
3.5625 0.125 4.175
3.5625 0 4.1125
3.625 0.0625 4.1125
3.5625 0.0625 4.175
3.5625 0.125 4.1125
3.5625 0.0625 4.1125
3.75 0 4.1125
3.6875 0 4.175
3.75 0.0625 4.175
3.75 0.125 4.1125
3.6875 0.125 4.175
3.6875 0 4.1125
3.75 0.0625 4.1125
3.6875 0.0625 4.175
3.6875 0.125 4.1125
3.6875 0.0625 4.1125
3.875 0 4.1125
3.8125 0 4.175
3.875 0.0625 4.175
3.875 0.125 4.1125
3.8125 0.125 4.175
3.8125 0 4.1125
3.875 0.0625 4.1125
3.8125 0.0625 4.175
3.8125 0.125 4.1125
3.8125 0.0625 4.1125
4 0 4.1125
3.9375 0 4.175
4 0.0625 4.175
4 0.125 4.1125
3.9375 0.125 4.175
3.9375 0 4.1125
4 0.0625 4.1125
3.9375 0.0625 4.175
3.9375 0.125 4.1125
3.9375 0.0625 4.1125
0.125 0.1875 4.175
0 0.1875 4.175
0.125 0.25 4.1125
0.0625 0.25 4.175
0 0.25 4.1125
0.125 0.1875 4.1125
0.0625 0.1875 4.175
0 0.1875 4.1125
0.0625 0.25 4.1125
0.0625 0.1875 4.1125
0.25 0.1875 4.175
0.25 0.25 4.1125
0.1875 0.25 4.175
0.25 0.1875 4.1125
0.1875 0.1875 4.175
0.1875 0.25 4.1125
0.1875 0.1875 4.1125
0.375 0.1875 4.175
0.375 0.25 4.1125
0.3125 0.25 4.175
0.375 0.1875 4.1125
0.3125 0.1875 4.175
0.3125 0.25 4.1125
0.3125 0.1875 4.1125
0.5 0.1875 4.175
0.5 0.25 4.1125
0.4375 0.25 4.175
0.5 0.1875 4.1125
0.4375 0.1875 4.175
0.4375 0.25 4.1125
0.4375 0.1875 4.1125
0.625 0.1875 4.175
0.625 0.25 4.1125
0.5625 0.25 4.175
0.625 0.1875 4.1125
0.5625 0.1875 4.175
0.5625 0.25 4.1125
0.5625 0.1875 4.1125
0.75 0.1875 4.175
0.75 0.25 4.1125
0.6875 0.25 4.175
0.75 0.1875 4.1125
0.6875 0.1875 4.175
0.6875 0.25 4.1125
0.6875 0.1875 4.1125
0.875 0.1875 4.175
0.875 0.25 4.1125
0.8125 0.25 4.175
0.875 0.1875 4.1125
0.8125 0.1875 4.175
0.8125 0.25 4.1125
0.8125 0.1875 4.1125
1 0.1875 4.175
1 0.25 4.1125
0.9375 0.25 4.175
1 0.1875 4.1125
0.9375 0.1875 4.175
0.9375 0.25 4.1125
0.9375 0.1875 4.1125
1.125 0.1875 4.175
1.125 0.25 4.1125
1.0625 0.25 4.175
1.125 0.1875 4.1125
1.0625 0.1875 4.175
1.0625 0.25 4.1125
1.0625 0.1875 4.1125
1.25 0.1875 4.175
1.25 0.25 4.1125
1.1875 0.25 4.175
1.25 0.1875 4.1125
1.1875 0.1875 4.175
1.1875 0.25 4.1125
1.1875 0.1875 4.1125
1.375 0.1875 4.175
1.375 0.25 4.1125
1.3125 0.25 4.175
1.375 0.1875 4.1125
1.3125 0.1875 4.175
1.3125 0.25 4.1125
1.3125 0.1875 4.1125
1.5 0.1875 4.175
1.5 0.25 4.1125
1.4375 0.25 4.175
1.5 0.1875 4.1125
1.4375 0.1875 4.175
1.4375 0.25 4.1125
1.4375 0.1875 4.1125
1.625 0.1875 4.175
1.625 0.25 4.1125
1.5625 0.25 4.175
1.625 0.1875 4.1125
1.5625 0.1875 4.175
1.5625 0.25 4.1125
1.5625 0.1875 4.1125
1.75 0.1875 4.175
1.75 0.25 4.1125
1.6875 0.25 4.175
1.75 0.1875 4.1125
1.6875 0.1875 4.175
1.6875 0.25 4.1125
1.6875 0.1875 4.1125
1.875 0.1875 4.175
1.875 0.25 4.1125
1.8125 0.25 4.175
1.875 0.1875 4.1125
1.8125 0.1875 4.175
1.8125 0.25 4.1125
1.8125 0.1875 4.1125
2 0.1875 4.175
2 0.25 4.1125
1.9375 0.25 4.175
2 0.1875 4.1125
1.9375 0.1875 4.175
1.9375 0.25 4.1125
1.9375 0.1875 4.1125
2.125 0.1875 4.175
2.125 0.25 4.1125
2.0625 0.25 4.175
2.125 0.1875 4.1125
2.0625 0.1875 4.175
2.0625 0.25 4.1125
2.0625 0.1875 4.1125
2.25 0.1875 4.175
2.25 0.25 4.1125
2.1875 0.25 4.175
2.25 0.1875 4.1125
2.1875 0.1875 4.175
2.1875 0.25 4.1125
2.1875 0.1875 4.1125
2.375 0.1875 4.175
2.375 0.25 4.1125
2.3125 0.25 4.175
2.375 0.1875 4.1125
2.3125 0.1875 4.175
2.3125 0.25 4.1125
2.3125 0.1875 4.1125
2.5 0.1875 4.175
2.5 0.25 4.1125
2.4375 0.25 4.175
2.5 0.1875 4.1125
2.4375 0.1875 4.175
2.4375 0.25 4.1125
2.4375 0.1875 4.1125
2.625 0.1875 4.175
2.625 0.25 4.1125
2.5625 0.25 4.175
2.625 0.1875 4.1125
2.5625 0.1875 4.175
2.5625 0.25 4.1125
2.5625 0.1875 4.1125
2.75 0.1875 4.175
2.75 0.25 4.1125
2.6875 0.25 4.175
2.75 0.1875 4.1125
2.6875 0.1875 4.175
2.6875 0.25 4.1125
2.6875 0.1875 4.1125
2.875 0.1875 4.175
2.875 0.25 4.1125
2.8125 0.25 4.175
2.875 0.1875 4.1125
2.8125 0.1875 4.175
2.8125 0.25 4.1125
2.8125 0.1875 4.1125
3 0.1875 4.175
3 0.25 4.1125
2.9375 0.25 4.175
3 0.1875 4.1125
2.9375 0.1875 4.175
2.9375 0.25 4.1125
2.9375 0.1875 4.1125
3.125 0.1875 4.175
3.125 0.25 4.1125
3.0625 0.25 4.175
3.125 0.1875 4.1125
3.0625 0.1875 4.175
3.0625 0.25 4.1125
3.0625 0.1875 4.1125
3.25 0.1875 4.175
3.25 0.25 4.1125
3.1875 0.25 4.175
3.25 0.1875 4.1125
3.1875 0.1875 4.175
3.1875 0.25 4.1125
3.1875 0.1875 4.1125
3.375 0.1875 4.175
3.375 0.25 4.1125
3.3125 0.25 4.175
3.375 0.1875 4.1125
3.3125 0.1875 4.175
3.3125 0.25 4.1125
3.3125 0.1875 4.1125
3.5 0.1875 4.175
3.5 0.25 4.1125
3.4375 0.25 4.175
3.5 0.1875 4.1125
3.4375 0.1875 4.175
3.4375 0.25 4.1125
3.4375 0.1875 4.1125
3.625 0.1875 4.175
3.625 0.25 4.1125
3.5625 0.25 4.175
3.625 0.1875 4.1125
3.5625 0.1875 4.175
3.5625 0.25 4.1125
3.5625 0.1875 4.1125
3.75 0.1875 4.175
3.75 0.25 4.1125
3.6875 0.25 4.175
3.75 0.1875 4.1125
3.6875 0.1875 4.175
3.6875 0.25 4.1125
3.6875 0.1875 4.1125
3.875 0.1875 4.175
3.875 0.25 4.1125
3.8125 0.25 4.175
3.875 0.1875 4.1125
3.8125 0.1875 4.175
3.8125 0.25 4.1125
3.8125 0.1875 4.1125
4 0.1875 4.175
4 0.25 4.1125
3.9375 0.25 4.175
4 0.1875 4.1125
3.9375 0.1875 4.175
3.9375 0.25 4.1125
3.9375 0.1875 4.1125
0.125 0.3125 4.175
0 0.3125 4.175
0.125 0.375 4.1125
0.0625 0.375 4.175
0 0.375 4.1125
0.125 0.3125 4.1125
0.0625 0.3125 4.175
0 0.3125 4.1125
0.0625 0.375 4.1125
0.0625 0.3125 4.1125
0.25 0.3125 4.175
0.25 0.375 4.1125
0.1875 0.375 4.175
0.25 0.3125 4.1125
0.1875 0.3125 4.175
0.1875 0.375 4.1125
0.1875 0.3125 4.1125
0.375 0.3125 4.175
0.375 0.375 4.1125
0.3125 0.375 4.175
0.375 0.3125 4.1125
0.3125 0.3125 4.175
0.3125 0.375 4.1125
0.3125 0.3125 4.1125
0.5 0.3125 4.175
0.5 0.375 4.1125
0.4375 0.375 4.175
0.5 0.3125 4.1125
0.4375 0.3125 4.175
0.4375 0.375 4.1125
0.4375 0.3125 4.1125
0.625 0.3125 4.175
0.625 0.375 4.1125
0.5625 0.375 4.175
0.625 0.3125 4.1125
0.5625 0.3125 4.175
0.5625 0.375 4.1125
0.5625 0.3125 4.1125
0.75 0.3125 4.175
0.75 0.375 4.1125
0.6875 0.375 4.175
0.75 0.3125 4.1125
0.6875 0.3125 4.175
0.6875 0.375 4.1125
0.6875 0.3125 4.1125
0.875 0.3125 4.175
0.875 0.375 4.1125
0.8125 0.375 4.175
0.875 0.3125 4.1125
0.8125 0.3125 4.175
0.8125 0.375 4.1125
0.8125 0.3125 4.1125
1 0.3125 4.175
1 0.375 4.1125
0.9375 0.375 4.175
1 0.3125 4.1125
0.9375 0.3125 4.175
0.9375 0.375 4.1125
0.9375 0.3125 4.1125
1.125 0.3125 4.175
1.125 0.375 4.1125
1.0625 0.375 4.175
1.125 0.3125 4.1125
1.0625 0.3125 4.175
1.0625 0.375 4.1125
1.0625 0.3125 4.1125
1.25 0.3125 4.175
1.25 0.375 4.1125
1.1875 0.375 4.175
1.25 0.3125 4.1125
1.1875 0.3125 4.175
1.1875 0.375 4.1125
1.1875 0.3125 4.1125
1.375 0.3125 4.175
1.375 0.375 4.1125
1.3125 0.375 4.175
1.375 0.3125 4.1125
1.3125 0.3125 4.175
1.3125 0.375 4.1125
1.3125 0.3125 4.1125
1.5 0.3125 4.175
1.5 0.375 4.1125
1.4375 0.375 4.175
1.5 0.3125 4.1125
1.4375 0.3125 4.175
1.4375 0.375 4.1125
1.4375 0.3125 4.1125
1.625 0.3125 4.175
1.625 0.375 4.1125
1.5625 0.375 4.175
1.625 0.3125 4.1125
1.5625 0.3125 4.175
1.5625 0.375 4.1125
1.5625 0.3125 4.1125
1.75 0.3125 4.175
1.75 0.375 4.1125
1.6875 0.375 4.175
1.75 0.3125 4.1125
1.6875 0.3125 4.175
1.6875 0.375 4.1125
1.6875 0.3125 4.1125
1.875 0.3125 4.175
1.875 0.375 4.1125
1.8125 0.375 4.175
1.875 0.3125 4.1125
1.8125 0.3125 4.175
1.8125 0.375 4.1125
1.8125 0.3125 4.1125
2 0.3125 4.175
2 0.375 4.1125
1.9375 0.375 4.175
2 0.3125 4.1125
1.9375 0.3125 4.175
1.9375 0.375 4.1125
1.9375 0.3125 4.1125
2.125 0.3125 4.175
2.125 0.375 4.1125
2.0625 0.375 4.175
2.125 0.3125 4.1125
2.0625 0.3125 4.175
2.0625 0.375 4.1125
2.0625 0.3125 4.1125
2.25 0.3125 4.175
2.25 0.375 4.1125
2.1875 0.375 4.175
2.25 0.3125 4.1125
2.1875 0.3125 4.175
2.1875 0.375 4.1125
2.1875 0.3125 4.1125
2.375 0.3125 4.175
2.375 0.375 4.1125
2.3125 0.375 4.175
2.375 0.3125 4.1125
2.3125 0.3125 4.175
2.3125 0.375 4.1125
2.3125 0.3125 4.1125
2.5 0.3125 4.175
2.5 0.375 4.1125
2.4375 0.375 4.175
2.5 0.3125 4.1125
2.4375 0.3125 4.175
2.4375 0.375 4.1125
2.4375 0.3125 4.1125
2.625 0.3125 4.175
2.625 0.375 4.1125
2.5625 0.375 4.175
2.625 0.3125 4.1125
2.5625 0.3125 4.175
2.5625 0.375 4.1125
2.5625 0.3125 4.1125
2.75 0.3125 4.175
2.75 0.375 4.1125
2.6875 0.375 4.175
2.75 0.3125 4.1125
2.6875 0.3125 4.175
2.6875 0.375 4.1125
2.6875 0.3125 4.1125
2.875 0.3125 4.175
2.875 0.375 4.1125
2.8125 0.375 4.175
2.875 0.3125 4.1125
2.8125 0.3125 4.175
2.8125 0.375 4.1125
2.8125 0.3125 4.1125
3 0.3125 4.175
3 0.375 4.1125
2.9375 0.375 4.175
3 0.3125 4.1125
2.9375 0.3125 4.175
2.9375 0.375 4.1125
2.9375 0.3125 4.1125
3.125 0.3125 4.175
3.125 0.375 4.1125
3.0625 0.375 4.175
3.125 0.3125 4.1125
3.0625 0.3125 4.175
3.0625 0.375 4.1125
3.0625 0.3125 4.1125
3.25 0.3125 4.175
3.25 0.375 4.1125
3.1875 0.375 4.175
3.25 0.3125 4.1125
3.1875 0.3125 4.175
3.1875 0.375 4.1125
3.1875 0.3125 4.1125
3.375 0.3125 4.175
3.375 0.375 4.1125
3.3125 0.375 4.175
3.375 0.3125 4.1125
3.3125 0.3125 4.175
3.3125 0.375 4.1125
3.3125 0.3125 4.1125
3.5 0.3125 4.175
3.5 0.375 4.1125
3.4375 0.375 4.175
3.5 0.3125 4.1125
3.4375 0.3125 4.175
3.4375 0.375 4.1125
3.4375 0.3125 4.1125
3.625 0.3125 4.175
3.625 0.375 4.1125
3.5625 0.375 4.175
3.625 0.3125 4.1125
3.5625 0.3125 4.175
3.5625 0.375 4.1125
3.5625 0.3125 4.1125
3.75 0.3125 4.175
3.75 0.375 4.1125
3.6875 0.375 4.175
3.75 0.3125 4.1125
3.6875 0.3125 4.175
3.6875 0.375 4.1125
3.6875 0.3125 4.1125
3.875 0.3125 4.175
3.875 0.375 4.1125
3.8125 0.375 4.175
3.875 0.3125 4.1125
3.8125 0.3125 4.175
3.8125 0.375 4.1125
3.8125 0.3125 4.1125
4 0.3125 4.175
4 0.375 4.1125
3.9375 0.375 4.175
4 0.3125 4.1125
3.9375 0.3125 4.175
3.9375 0.375 4.1125
3.9375 0.3125 4.1125
0.125 0.4375 4.175
0 0.4375 4.175
0.125 0.5 4.1125
0.0625 0.5 4.175
0 0.5 4.1125
0.125 0.4375 4.1125
0.0625 0.4375 4.175
0 0.4375 4.1125
0.0625 0.5 4.1125
0.0625 0.4375 4.1125
0.25 0.4375 4.175
0.25 0.5 4.1125
0.1875 0.5 4.175
0.25 0.4375 4.1125
0.1875 0.4375 4.175
0.1875 0.5 4.1125
0.1875 0.4375 4.1125
0.375 0.4375 4.175
0.375 0.5 4.1125
0.3125 0.5 4.175
0.375 0.4375 4.1125
0.3125 0.4375 4.175
0.3125 0.5 4.1125
0.3125 0.4375 4.1125
0.5 0.4375 4.175
0.5 0.5 4.1125
0.4375 0.5 4.175
0.5 0.4375 4.1125
0.4375 0.4375 4.175
0.4375 0.5 4.1125
0.4375 0.4375 4.1125
0.625 0.4375 4.175
0.625 0.5 4.1125
0.5625 0.5 4.175
0.625 0.4375 4.1125
0.5625 0.4375 4.175
0.5625 0.5 4.1125
0.5625 0.4375 4.1125
0.75 0.4375 4.175
0.75 0.5 4.1125
0.6875 0.5 4.175
0.75 0.4375 4.1125
0.6875 0.4375 4.175
0.6875 0.5 4.1125
0.6875 0.4375 4.1125
0.875 0.4375 4.175
0.875 0.5 4.1125
0.8125 0.5 4.175
0.875 0.4375 4.1125
0.8125 0.4375 4.175
0.8125 0.5 4.1125
0.8125 0.4375 4.1125
1 0.4375 4.175
1 0.5 4.1125
0.9375 0.5 4.175
1 0.4375 4.1125
0.9375 0.4375 4.175
0.9375 0.5 4.1125
0.9375 0.4375 4.1125
1.125 0.4375 4.175
1.125 0.5 4.1125
1.0625 0.5 4.175
1.125 0.4375 4.1125
1.0625 0.4375 4.175
1.0625 0.5 4.1125
1.0625 0.4375 4.1125
1.25 0.4375 4.175
1.25 0.5 4.1125
1.1875 0.5 4.175
1.25 0.4375 4.1125
1.1875 0.4375 4.175
1.1875 0.5 4.1125
1.1875 0.4375 4.1125
1.375 0.4375 4.175
1.375 0.5 4.1125
1.3125 0.5 4.175
1.375 0.4375 4.1125
1.3125 0.4375 4.175
1.3125 0.5 4.1125
1.3125 0.4375 4.1125
1.5 0.4375 4.175
1.5 0.5 4.1125
1.4375 0.5 4.175
1.5 0.4375 4.1125
1.4375 0.4375 4.175
1.4375 0.5 4.1125
1.4375 0.4375 4.1125
1.625 0.4375 4.175
1.625 0.5 4.1125
1.5625 0.5 4.175
1.625 0.4375 4.1125
1.5625 0.4375 4.175
1.5625 0.5 4.1125
1.5625 0.4375 4.1125
1.75 0.4375 4.175
1.75 0.5 4.1125
1.6875 0.5 4.175
1.75 0.4375 4.1125
1.6875 0.4375 4.175
1.6875 0.5 4.1125
1.6875 0.4375 4.1125
1.875 0.4375 4.175
1.875 0.5 4.1125
1.8125 0.5 4.175
1.875 0.4375 4.1125
1.8125 0.4375 4.175
1.8125 0.5 4.1125
1.8125 0.4375 4.1125
2 0.4375 4.175
2 0.5 4.1125
1.9375 0.5 4.175
2 0.4375 4.1125
1.9375 0.4375 4.175
1.9375 0.5 4.1125
1.9375 0.4375 4.1125
2.125 0.4375 4.175
2.125 0.5 4.1125
2.0625 0.5 4.175
2.125 0.4375 4.1125
2.0625 0.4375 4.175
2.0625 0.5 4.1125
2.0625 0.4375 4.1125
2.25 0.4375 4.175
2.25 0.5 4.1125
2.1875 0.5 4.175
2.25 0.4375 4.1125
2.1875 0.4375 4.175
2.1875 0.5 4.1125
2.1875 0.4375 4.1125
2.375 0.4375 4.175
2.375 0.5 4.1125
2.3125 0.5 4.175
2.375 0.4375 4.1125
2.3125 0.4375 4.175
2.3125 0.5 4.1125
2.3125 0.4375 4.1125
2.5 0.4375 4.175
2.5 0.5 4.1125
2.4375 0.5 4.175
2.5 0.4375 4.1125
2.4375 0.4375 4.175
2.4375 0.5 4.1125
2.4375 0.4375 4.1125
2.625 0.4375 4.175
2.625 0.5 4.1125
2.5625 0.5 4.175
2.625 0.4375 4.1125
2.5625 0.4375 4.175
2.5625 0.5 4.1125
2.5625 0.4375 4.1125
2.75 0.4375 4.175
2.75 0.5 4.1125
2.6875 0.5 4.175
2.75 0.4375 4.1125
2.6875 0.4375 4.175
2.6875 0.5 4.1125
2.6875 0.4375 4.1125
2.875 0.4375 4.175
2.875 0.5 4.1125
2.8125 0.5 4.175
2.875 0.4375 4.1125
2.8125 0.4375 4.175
2.8125 0.5 4.1125
2.8125 0.4375 4.1125
3 0.4375 4.175
3 0.5 4.1125
2.9375 0.5 4.175
3 0.4375 4.1125
2.9375 0.4375 4.175
2.9375 0.5 4.1125
2.9375 0.4375 4.1125
3.125 0.4375 4.175
3.125 0.5 4.1125
3.0625 0.5 4.175
3.125 0.4375 4.1125
3.0625 0.4375 4.175
3.0625 0.5 4.1125
3.0625 0.4375 4.1125
3.25 0.4375 4.175
3.25 0.5 4.1125
3.1875 0.5 4.175
3.25 0.4375 4.1125
3.1875 0.4375 4.175
3.1875 0.5 4.1125
3.1875 0.4375 4.1125
3.375 0.4375 4.175
3.375 0.5 4.1125
3.3125 0.5 4.175
3.375 0.4375 4.1125
3.3125 0.4375 4.175
3.3125 0.5 4.1125
3.3125 0.4375 4.1125
3.5 0.4375 4.175
3.5 0.5 4.1125
3.4375 0.5 4.175
3.5 0.4375 4.1125
3.4375 0.4375 4.175
3.4375 0.5 4.1125
3.4375 0.4375 4.1125
3.625 0.4375 4.175
3.625 0.5 4.1125
3.5625 0.5 4.175
3.625 0.4375 4.1125
3.5625 0.4375 4.175
3.5625 0.5 4.1125
3.5625 0.4375 4.1125
3.75 0.4375 4.175
3.75 0.5 4.1125
3.6875 0.5 4.175
3.75 0.4375 4.1125
3.6875 0.4375 4.175
3.6875 0.5 4.1125
3.6875 0.4375 4.1125
3.875 0.4375 4.175
3.875 0.5 4.1125
3.8125 0.5 4.175
3.875 0.4375 4.1125
3.8125 0.4375 4.175
3.8125 0.5 4.1125
3.8125 0.4375 4.1125
4 0.4375 4.175
4 0.5 4.1125
3.9375 0.5 4.175
4 0.4375 4.1125
3.9375 0.4375 4.175
3.9375 0.5 4.1125
3.9375 0.4375 4.1125
0.125 0.5625 4.175
0 0.5625 4.175
0.125 0.625 4.1125
0.0625 0.625 4.175
0 0.625 4.1125
0.125 0.5625 4.1125
0.0625 0.5625 4.175
0 0.5625 4.1125
0.0625 0.625 4.1125
0.0625 0.5625 4.1125
0.25 0.5625 4.175
0.25 0.625 4.1125
0.1875 0.625 4.175
0.25 0.5625 4.1125
0.1875 0.5625 4.175
0.1875 0.625 4.1125
0.1875 0.5625 4.1125
0.375 0.5625 4.175
0.375 0.625 4.1125
0.3125 0.625 4.175
0.375 0.5625 4.1125
0.3125 0.5625 4.175
0.3125 0.625 4.1125
0.3125 0.5625 4.1125
0.5 0.5625 4.175
0.5 0.625 4.1125
0.4375 0.625 4.175
0.5 0.5625 4.1125
0.4375 0.5625 4.175
0.4375 0.625 4.1125
0.4375 0.5625 4.1125
0.625 0.5625 4.175
0.625 0.625 4.1125
0.5625 0.625 4.175
0.625 0.5625 4.1125
0.5625 0.5625 4.175
0.5625 0.625 4.1125
0.5625 0.5625 4.1125
0.75 0.5625 4.175
0.75 0.625 4.1125
0.6875 0.625 4.175
0.75 0.5625 4.1125
0.6875 0.5625 4.175
0.6875 0.625 4.1125
0.6875 0.5625 4.1125
0.875 0.5625 4.175
0.875 0.625 4.1125
0.8125 0.625 4.175
0.875 0.5625 4.1125
0.8125 0.5625 4.175
0.8125 0.625 4.1125
0.8125 0.5625 4.1125
1 0.5625 4.175
1 0.625 4.1125
0.9375 0.625 4.175
1 0.5625 4.1125
0.9375 0.5625 4.175
0.9375 0.625 4.1125
0.9375 0.5625 4.1125
1.125 0.5625 4.175
1.125 0.625 4.1125
1.0625 0.625 4.175
1.125 0.5625 4.1125
1.0625 0.5625 4.175
1.0625 0.625 4.1125
1.0625 0.5625 4.1125
1.25 0.5625 4.175
1.25 0.625 4.1125
1.1875 0.625 4.175
1.25 0.5625 4.1125
1.1875 0.5625 4.175
1.1875 0.625 4.1125
1.1875 0.5625 4.1125
1.375 0.5625 4.175
1.375 0.625 4.1125
1.3125 0.625 4.175
1.375 0.5625 4.1125
1.3125 0.5625 4.175
1.3125 0.625 4.1125
1.3125 0.5625 4.1125
1.5 0.5625 4.175
1.5 0.625 4.1125
1.4375 0.625 4.175
1.5 0.5625 4.1125
1.4375 0.5625 4.175
1.4375 0.625 4.1125
1.4375 0.5625 4.1125
1.625 0.5625 4.175
1.625 0.625 4.1125
1.5625 0.625 4.175
1.625 0.5625 4.1125
1.5625 0.5625 4.175
1.5625 0.625 4.1125
1.5625 0.5625 4.1125
1.75 0.5625 4.175
1.75 0.625 4.1125
1.6875 0.625 4.175
1.75 0.5625 4.1125
1.6875 0.5625 4.175
1.6875 0.625 4.1125
1.6875 0.5625 4.1125
1.875 0.5625 4.175
1.875 0.625 4.1125
1.8125 0.625 4.175
1.875 0.5625 4.1125
1.8125 0.5625 4.175
1.8125 0.625 4.1125
1.8125 0.5625 4.1125
2 0.5625 4.175
2 0.625 4.1125
1.9375 0.625 4.175
2 0.5625 4.1125
1.9375 0.5625 4.175
1.9375 0.625 4.1125
1.9375 0.5625 4.1125
2.125 0.5625 4.175
2.125 0.625 4.1125
2.0625 0.625 4.175
2.125 0.5625 4.1125
2.0625 0.5625 4.175
2.0625 0.625 4.1125
2.0625 0.5625 4.1125
2.25 0.5625 4.175
2.25 0.625 4.1125
2.1875 0.625 4.175
2.25 0.5625 4.1125
2.1875 0.5625 4.175
2.1875 0.625 4.1125
2.1875 0.5625 4.1125
2.375 0.5625 4.175
2.375 0.625 4.1125
2.3125 0.625 4.175
2.375 0.5625 4.1125
2.3125 0.5625 4.175
2.3125 0.625 4.1125
2.3125 0.5625 4.1125
2.5 0.5625 4.175
2.5 0.625 4.1125
2.4375 0.625 4.175
2.5 0.5625 4.1125
2.4375 0.5625 4.175
2.4375 0.625 4.1125
2.4375 0.5625 4.1125
2.625 0.5625 4.175
2.625 0.625 4.1125
2.5625 0.625 4.175
2.625 0.5625 4.1125
2.5625 0.5625 4.175
2.5625 0.625 4.1125
2.5625 0.5625 4.1125
2.75 0.5625 4.175
2.75 0.625 4.1125
2.6875 0.625 4.175
2.75 0.5625 4.1125
2.6875 0.5625 4.175
2.6875 0.625 4.1125
2.6875 0.5625 4.1125
2.875 0.5625 4.175
2.875 0.625 4.1125
2.8125 0.625 4.175
2.875 0.5625 4.1125
2.8125 0.5625 4.175
2.8125 0.625 4.1125
2.8125 0.5625 4.1125
3 0.5625 4.175
3 0.625 4.1125
2.9375 0.625 4.175
3 0.5625 4.1125
2.9375 0.5625 4.175
2.9375 0.625 4.1125
2.9375 0.5625 4.1125
3.125 0.5625 4.175
3.125 0.625 4.1125
3.0625 0.625 4.175
3.125 0.5625 4.1125
3.0625 0.5625 4.175
3.0625 0.625 4.1125
3.0625 0.5625 4.1125
3.25 0.5625 4.175
3.25 0.625 4.1125
3.1875 0.625 4.175
3.25 0.5625 4.1125
3.1875 0.5625 4.175
3.1875 0.625 4.1125
3.1875 0.5625 4.1125
3.375 0.5625 4.175
3.375 0.625 4.1125
3.3125 0.625 4.175
3.375 0.5625 4.1125
3.3125 0.5625 4.175
3.3125 0.625 4.1125
3.3125 0.5625 4.1125
3.5 0.5625 4.175
3.5 0.625 4.1125
3.4375 0.625 4.175
3.5 0.5625 4.1125
3.4375 0.5625 4.175
3.4375 0.625 4.1125
3.4375 0.5625 4.1125
3.625 0.5625 4.175
3.625 0.625 4.1125
3.5625 0.625 4.175
3.625 0.5625 4.1125
3.5625 0.5625 4.175
3.5625 0.625 4.1125
3.5625 0.5625 4.1125
3.75 0.5625 4.175
3.75 0.625 4.1125
3.6875 0.625 4.175
3.75 0.5625 4.1125
3.6875 0.5625 4.175
3.6875 0.625 4.1125
3.6875 0.5625 4.1125
3.875 0.5625 4.175
3.875 0.625 4.1125
3.8125 0.625 4.175
3.875 0.5625 4.1125
3.8125 0.5625 4.175
3.8125 0.625 4.1125
3.8125 0.5625 4.1125
4 0.5625 4.175
4 0.625 4.1125
3.9375 0.625 4.175
4 0.5625 4.1125
3.9375 0.5625 4.175
3.9375 0.625 4.1125
3.9375 0.5625 4.1125
0.125 0.6875 4.175
0 0.6875 4.175
0.125 0.75 4.1125
0.0625 0.75 4.175
0 0.75 4.1125
0.125 0.6875 4.1125
0.0625 0.6875 4.175
0 0.6875 4.1125
0.0625 0.75 4.1125
0.0625 0.6875 4.1125
0.25 0.6875 4.175
0.25 0.75 4.1125
0.1875 0.75 4.175
0.25 0.6875 4.1125
0.1875 0.6875 4.175
0.1875 0.75 4.1125
0.1875 0.6875 4.1125
0.375 0.6875 4.175
0.375 0.75 4.1125
0.3125 0.75 4.175
0.375 0.6875 4.1125
0.3125 0.6875 4.175
0.3125 0.75 4.1125
0.3125 0.6875 4.1125
0.5 0.6875 4.175
0.5 0.75 4.1125
0.4375 0.75 4.175
0.5 0.6875 4.1125
0.4375 0.6875 4.175
0.4375 0.75 4.1125
0.4375 0.6875 4.1125
0.625 0.6875 4.175
0.625 0.75 4.1125
0.5625 0.75 4.175
0.625 0.6875 4.1125
0.5625 0.6875 4.175
0.5625 0.75 4.1125
0.5625 0.6875 4.1125
0.75 0.6875 4.175
0.75 0.75 4.1125
0.6875 0.75 4.175
0.75 0.6875 4.1125
0.6875 0.6875 4.175
0.6875 0.75 4.1125
0.6875 0.6875 4.1125
0.875 0.6875 4.175
0.875 0.75 4.1125
0.8125 0.75 4.175
0.875 0.6875 4.1125
0.8125 0.6875 4.175
0.8125 0.75 4.1125
0.8125 0.6875 4.1125
1 0.6875 4.175
1 0.75 4.1125
0.9375 0.75 4.175
1 0.6875 4.1125
0.9375 0.6875 4.175
0.9375 0.75 4.1125
0.9375 0.6875 4.1125
1.125 0.6875 4.175
1.125 0.75 4.1125
1.0625 0.75 4.175
1.125 0.6875 4.1125
1.0625 0.6875 4.175
1.0625 0.75 4.1125
1.0625 0.6875 4.1125
1.25 0.6875 4.175
1.25 0.75 4.1125
1.1875 0.75 4.175
1.25 0.6875 4.1125
1.1875 0.6875 4.175
1.1875 0.75 4.1125
1.1875 0.6875 4.1125
1.375 0.6875 4.175
1.375 0.75 4.1125
1.3125 0.75 4.175
1.375 0.6875 4.1125
1.3125 0.6875 4.175
1.3125 0.75 4.1125
1.3125 0.6875 4.1125
1.5 0.6875 4.175
1.5 0.75 4.1125
1.4375 0.75 4.175
1.5 0.6875 4.1125
1.4375 0.6875 4.175
1.4375 0.75 4.1125
1.4375 0.6875 4.1125
1.625 0.6875 4.175
1.625 0.75 4.1125
1.5625 0.75 4.175
1.625 0.6875 4.1125
1.5625 0.6875 4.175
1.5625 0.75 4.1125
1.5625 0.6875 4.1125
1.75 0.6875 4.175
1.75 0.75 4.1125
1.6875 0.75 4.175
1.75 0.6875 4.1125
1.6875 0.6875 4.175
1.6875 0.75 4.1125
1.6875 0.6875 4.1125
1.875 0.6875 4.175
1.875 0.75 4.1125
1.8125 0.75 4.175
1.875 0.6875 4.1125
1.8125 0.6875 4.175
1.8125 0.75 4.1125
1.8125 0.6875 4.1125
2 0.6875 4.175
2 0.75 4.1125
1.9375 0.75 4.175
2 0.6875 4.1125
1.9375 0.6875 4.175
1.9375 0.75 4.1125
1.9375 0.6875 4.1125
2.125 0.6875 4.175
2.125 0.75 4.1125
2.0625 0.75 4.175
2.125 0.6875 4.1125
2.0625 0.6875 4.175
2.0625 0.75 4.1125
2.0625 0.6875 4.1125
2.25 0.6875 4.175
2.25 0.75 4.1125
2.1875 0.75 4.175
2.25 0.6875 4.1125
2.1875 0.6875 4.175
2.1875 0.75 4.1125
2.1875 0.6875 4.1125
2.375 0.6875 4.175
2.375 0.75 4.1125
2.3125 0.75 4.175
2.375 0.6875 4.1125
2.3125 0.6875 4.175
2.3125 0.75 4.1125
2.3125 0.6875 4.1125
2.5 0.6875 4.175
2.5 0.75 4.1125
2.4375 0.75 4.175
2.5 0.6875 4.1125
2.4375 0.6875 4.175
2.4375 0.75 4.1125
2.4375 0.6875 4.1125
2.625 0.6875 4.175
2.625 0.75 4.1125
2.5625 0.75 4.175
2.625 0.6875 4.1125
2.5625 0.6875 4.175
2.5625 0.75 4.1125
2.5625 0.6875 4.1125
2.75 0.6875 4.175
2.75 0.75 4.1125
2.6875 0.75 4.175
2.75 0.6875 4.1125
2.6875 0.6875 4.175
2.6875 0.75 4.1125
2.6875 0.6875 4.1125
2.875 0.6875 4.175
2.875 0.75 4.1125
2.8125 0.75 4.175
2.875 0.6875 4.1125
2.8125 0.6875 4.175
2.8125 0.75 4.1125
2.8125 0.6875 4.1125
3 0.6875 4.175
3 0.75 4.1125
2.9375 0.75 4.175
3 0.6875 4.1125
2.9375 0.6875 4.175
2.9375 0.75 4.1125
2.9375 0.6875 4.1125
3.125 0.6875 4.175
3.125 0.75 4.1125
3.0625 0.75 4.175
3.125 0.6875 4.1125
3.0625 0.6875 4.175
3.0625 0.75 4.1125
3.0625 0.6875 4.1125
3.25 0.6875 4.175
3.25 0.75 4.1125
3.1875 0.75 4.175
3.25 0.6875 4.1125
3.1875 0.6875 4.175
3.1875 0.75 4.1125
3.1875 0.6875 4.1125
3.375 0.6875 4.175
3.375 0.75 4.1125
3.3125 0.75 4.175
3.375 0.6875 4.1125
3.3125 0.6875 4.175
3.3125 0.75 4.1125
3.3125 0.6875 4.1125
3.5 0.6875 4.175
3.5 0.75 4.1125
3.4375 0.75 4.175
3.5 0.6875 4.1125
3.4375 0.6875 4.175
3.4375 0.75 4.1125
3.4375 0.6875 4.1125
3.625 0.6875 4.175
3.625 0.75 4.1125
3.5625 0.75 4.175
3.625 0.6875 4.1125
3.5625 0.6875 4.175
3.5625 0.75 4.1125
3.5625 0.6875 4.1125
3.75 0.6875 4.175
3.75 0.75 4.1125
3.6875 0.75 4.175
3.75 0.6875 4.1125
3.6875 0.6875 4.175
3.6875 0.75 4.1125
3.6875 0.6875 4.1125
3.875 0.6875 4.175
3.875 0.75 4.1125
3.8125 0.75 4.175
3.875 0.6875 4.1125
3.8125 0.6875 4.175
3.8125 0.75 4.1125
3.8125 0.6875 4.1125
4 0.6875 4.175
4 0.75 4.1125
3.9375 0.75 4.175
4 0.6875 4.1125
3.9375 0.6875 4.175
3.9375 0.75 4.1125
3.9375 0.6875 4.1125
0.125 0.8125 4.175
0 0.8125 4.175
0.125 0.875 4.1125
0.0625 0.875 4.175
0 0.875 4.1125
0.125 0.8125 4.1125
0.0625 0.8125 4.175
0 0.8125 4.1125
0.0625 0.875 4.1125
0.0625 0.8125 4.1125
0.25 0.8125 4.175
0.25 0.875 4.1125
0.1875 0.875 4.175
0.25 0.8125 4.1125
0.1875 0.8125 4.175
0.1875 0.875 4.1125
0.1875 0.8125 4.1125
0.375 0.8125 4.175
0.375 0.875 4.1125
0.3125 0.875 4.175
0.375 0.8125 4.1125
0.3125 0.8125 4.175
0.3125 0.875 4.1125
0.3125 0.8125 4.1125
0.5 0.8125 4.175
0.5 0.875 4.1125
0.4375 0.875 4.175
0.5 0.8125 4.1125
0.4375 0.8125 4.175
0.4375 0.875 4.1125
0.4375 0.8125 4.1125
0.625 0.8125 4.175
0.625 0.875 4.1125
0.5625 0.875 4.175
0.625 0.8125 4.1125
0.5625 0.8125 4.175
0.5625 0.875 4.1125
0.5625 0.8125 4.1125
0.75 0.8125 4.175
0.75 0.875 4.1125
0.6875 0.875 4.175
0.75 0.8125 4.1125
0.6875 0.8125 4.175
0.6875 0.875 4.1125
0.6875 0.8125 4.1125
0.875 0.8125 4.175
0.875 0.875 4.1125
0.8125 0.875 4.175
0.875 0.8125 4.1125
0.8125 0.8125 4.175
0.8125 0.875 4.1125
0.8125 0.8125 4.1125
1 0.8125 4.175
1 0.875 4.1125
0.9375 0.875 4.175
1 0.8125 4.1125
0.9375 0.8125 4.175
0.9375 0.875 4.1125
0.9375 0.8125 4.1125
1.125 0.8125 4.175
1.125 0.875 4.1125
1.0625 0.875 4.175
1.125 0.8125 4.1125
1.0625 0.8125 4.175
1.0625 0.875 4.1125
1.0625 0.8125 4.1125
1.25 0.8125 4.175
1.25 0.875 4.1125
1.1875 0.875 4.175
1.25 0.8125 4.1125
1.1875 0.8125 4.175
1.1875 0.875 4.1125
1.1875 0.8125 4.1125
1.375 0.8125 4.175
1.375 0.875 4.1125
1.3125 0.875 4.175
1.375 0.8125 4.1125
1.3125 0.8125 4.175
1.3125 0.875 4.1125
1.3125 0.8125 4.1125
1.5 0.8125 4.175
1.5 0.875 4.1125
1.4375 0.875 4.175
1.5 0.8125 4.1125
1.4375 0.8125 4.175
1.4375 0.875 4.1125
1.4375 0.8125 4.1125
1.625 0.8125 4.175
1.625 0.875 4.1125
1.5625 0.875 4.175
1.625 0.8125 4.1125
1.5625 0.8125 4.175
1.5625 0.875 4.1125
1.5625 0.8125 4.1125
1.75 0.8125 4.175
1.75 0.875 4.1125
1.6875 0.875 4.175
1.75 0.8125 4.1125
1.6875 0.8125 4.175
1.6875 0.875 4.1125
1.6875 0.8125 4.1125
1.875 0.8125 4.175
1.875 0.875 4.1125
1.8125 0.875 4.175
1.875 0.8125 4.1125
1.8125 0.8125 4.175
1.8125 0.875 4.1125
1.8125 0.8125 4.1125
2 0.8125 4.175
2 0.875 4.1125
1.9375 0.875 4.175
2 0.8125 4.1125
1.9375 0.8125 4.175
1.9375 0.875 4.1125
1.9375 0.8125 4.1125
2.125 0.8125 4.175
2.125 0.875 4.1125
2.0625 0.875 4.175
2.125 0.8125 4.1125
2.0625 0.8125 4.175
2.0625 0.875 4.1125
2.0625 0.8125 4.1125
2.25 0.8125 4.175
2.25 0.875 4.1125
2.1875 0.875 4.175
2.25 0.8125 4.1125
2.1875 0.8125 4.175
2.1875 0.875 4.1125
2.1875 0.8125 4.1125
2.375 0.8125 4.175
2.375 0.875 4.1125
2.3125 0.875 4.175
2.375 0.8125 4.1125
2.3125 0.8125 4.175
2.3125 0.875 4.1125
2.3125 0.8125 4.1125
2.5 0.8125 4.175
2.5 0.875 4.1125
2.4375 0.875 4.175
2.5 0.8125 4.1125
2.4375 0.8125 4.175
2.4375 0.875 4.1125
2.4375 0.8125 4.1125
2.625 0.8125 4.175
2.625 0.875 4.1125
2.5625 0.875 4.175
2.625 0.8125 4.1125
2.5625 0.8125 4.175
2.5625 0.875 4.1125
2.5625 0.8125 4.1125
2.75 0.8125 4.175
2.75 0.875 4.1125
2.6875 0.875 4.175
2.75 0.8125 4.1125
2.6875 0.8125 4.175
2.6875 0.875 4.1125
2.6875 0.8125 4.1125
2.875 0.8125 4.175
2.875 0.875 4.1125
2.8125 0.875 4.175
2.875 0.8125 4.1125
2.8125 0.8125 4.175
2.8125 0.875 4.1125
2.8125 0.8125 4.1125
3 0.8125 4.175
3 0.875 4.1125
2.9375 0.875 4.175
3 0.8125 4.1125
2.9375 0.8125 4.175
2.9375 0.875 4.1125
2.9375 0.8125 4.1125
3.125 0.8125 4.175
3.125 0.875 4.1125
3.0625 0.875 4.175
3.125 0.8125 4.1125
3.0625 0.8125 4.175
3.0625 0.875 4.1125
3.0625 0.8125 4.1125
3.25 0.8125 4.175
3.25 0.875 4.1125
3.1875 0.875 4.175
3.25 0.8125 4.1125
3.1875 0.8125 4.175
3.1875 0.875 4.1125
3.1875 0.8125 4.1125
3.375 0.8125 4.175
3.375 0.875 4.1125
3.3125 0.875 4.175
3.375 0.8125 4.1125
3.3125 0.8125 4.175
3.3125 0.875 4.1125
3.3125 0.8125 4.1125
3.5 0.8125 4.175
3.5 0.875 4.1125
3.4375 0.875 4.175
3.5 0.8125 4.1125
3.4375 0.8125 4.175
3.4375 0.875 4.1125
3.4375 0.8125 4.1125
3.625 0.8125 4.175
3.625 0.875 4.1125
3.5625 0.875 4.175
3.625 0.8125 4.1125
3.5625 0.8125 4.175
3.5625 0.875 4.1125
3.5625 0.8125 4.1125
3.75 0.8125 4.175
3.75 0.875 4.1125
3.6875 0.875 4.175
3.75 0.8125 4.1125
3.6875 0.8125 4.175
3.6875 0.875 4.1125
3.6875 0.8125 4.1125
3.875 0.8125 4.175
3.875 0.875 4.1125
3.8125 0.875 4.175
3.875 0.8125 4.1125
3.8125 0.8125 4.175
3.8125 0.875 4.1125
3.8125 0.8125 4.1125
4 0.8125 4.175
4 0.875 4.1125
3.9375 0.875 4.175
4 0.8125 4.1125
3.9375 0.8125 4.175
3.9375 0.875 4.1125
3.9375 0.8125 4.1125
0.125 0.9375 4.175
0 0.9375 4.175
0.125 1 4.1125
0.0625 1 4.175
0 1 4.1125
0.125 0.9375 4.1125
0.0625 0.9375 4.175
0 0.9375 4.1125
0.0625 1 4.1125
0.0625 0.9375 4.1125
0.25 0.9375 4.175
0.25 1 4.1125
0.1875 1 4.175
0.25 0.9375 4.1125
0.1875 0.9375 4.175
0.1875 1 4.1125
0.1875 0.9375 4.1125
0.375 0.9375 4.175
0.375 1 4.1125
0.3125 1 4.175
0.375 0.9375 4.1125
0.3125 0.9375 4.175
0.3125 1 4.1125
0.3125 0.9375 4.1125
0.5 0.9375 4.175
0.5 1 4.1125
0.4375 1 4.175
0.5 0.9375 4.1125
0.4375 0.9375 4.175
0.4375 1 4.1125
0.4375 0.9375 4.1125
0.625 0.9375 4.175
0.625 1 4.1125
0.5625 1 4.175
0.625 0.9375 4.1125
0.5625 0.9375 4.175
0.5625 1 4.1125
0.5625 0.9375 4.1125
0.75 0.9375 4.175
0.75 1 4.1125
0.6875 1 4.175
0.75 0.9375 4.1125
0.6875 0.9375 4.175
0.6875 1 4.1125
0.6875 0.9375 4.1125
0.875 0.9375 4.175
0.875 1 4.1125
0.8125 1 4.175
0.875 0.9375 4.1125
0.8125 0.9375 4.175
0.8125 1 4.1125
0.8125 0.9375 4.1125
1 0.9375 4.175
1 1 4.1125
0.9375 1 4.175
1 0.9375 4.1125
0.9375 0.9375 4.175
0.9375 1 4.1125
0.9375 0.9375 4.1125
1.125 0.9375 4.175
1.125 1 4.1125
1.0625 1 4.175
1.125 0.9375 4.1125
1.0625 0.9375 4.175
1.0625 1 4.1125
1.0625 0.9375 4.1125
1.25 0.9375 4.175
1.25 1 4.1125
1.1875 1 4.175
1.25 0.9375 4.1125
1.1875 0.9375 4.175
1.1875 1 4.1125
1.1875 0.9375 4.1125
1.375 0.9375 4.175
1.375 1 4.1125
1.3125 1 4.175
1.375 0.9375 4.1125
1.3125 0.9375 4.175
1.3125 1 4.1125
1.3125 0.9375 4.1125
1.5 0.9375 4.175
1.5 1 4.1125
1.4375 1 4.175
1.5 0.9375 4.1125
1.4375 0.9375 4.175
1.4375 1 4.1125
1.4375 0.9375 4.1125
1.625 0.9375 4.175
1.625 1 4.1125
1.5625 1 4.175
1.625 0.9375 4.1125
1.5625 0.9375 4.175
1.5625 1 4.1125
1.5625 0.9375 4.1125
1.75 0.9375 4.175
1.75 1 4.1125
1.6875 1 4.175
1.75 0.9375 4.1125
1.6875 0.9375 4.175
1.6875 1 4.1125
1.6875 0.9375 4.1125
1.875 0.9375 4.175
1.875 1 4.1125
1.8125 1 4.175
1.875 0.9375 4.1125
1.8125 0.9375 4.175
1.8125 1 4.1125
1.8125 0.9375 4.1125
2 0.9375 4.175
2 1 4.1125
1.9375 1 4.175
2 0.9375 4.1125
1.9375 0.9375 4.175
1.9375 1 4.1125
1.9375 0.9375 4.1125
2.125 0.9375 4.175
2.125 1 4.1125
2.0625 1 4.175
2.125 0.9375 4.1125
2.0625 0.9375 4.175
2.0625 1 4.1125
2.0625 0.9375 4.1125
2.25 0.9375 4.175
2.25 1 4.1125
2.1875 1 4.175
2.25 0.9375 4.1125
2.1875 0.9375 4.175
2.1875 1 4.1125
2.1875 0.9375 4.1125
2.375 0.9375 4.175
2.375 1 4.1125
2.3125 1 4.175
2.375 0.9375 4.1125
2.3125 0.9375 4.175
2.3125 1 4.1125
2.3125 0.9375 4.1125
2.5 0.9375 4.175
2.5 1 4.1125
2.4375 1 4.175
2.5 0.9375 4.1125
2.4375 0.9375 4.175
2.4375 1 4.1125
2.4375 0.9375 4.1125
2.625 0.9375 4.175
2.625 1 4.1125
2.5625 1 4.175
2.625 0.9375 4.1125
2.5625 0.9375 4.175
2.5625 1 4.1125
2.5625 0.9375 4.1125
2.75 0.9375 4.175
2.75 1 4.1125
2.6875 1 4.175
2.75 0.9375 4.1125
2.6875 0.9375 4.175
2.6875 1 4.1125
2.6875 0.9375 4.1125
2.875 0.9375 4.175
2.875 1 4.1125
2.8125 1 4.175
2.875 0.9375 4.1125
2.8125 0.9375 4.175
2.8125 1 4.1125
2.8125 0.9375 4.1125
3 0.9375 4.175
3 1 4.1125
2.9375 1 4.175
3 0.9375 4.1125
2.9375 0.9375 4.175
2.9375 1 4.1125
2.9375 0.9375 4.1125
3.125 0.9375 4.175
3.125 1 4.1125
3.0625 1 4.175
3.125 0.9375 4.1125
3.0625 0.9375 4.175
3.0625 1 4.1125
3.0625 0.9375 4.1125
3.25 0.9375 4.175
3.25 1 4.1125
3.1875 1 4.175
3.25 0.9375 4.1125
3.1875 0.9375 4.175
3.1875 1 4.1125
3.1875 0.9375 4.1125
3.375 0.9375 4.175
3.375 1 4.1125
3.3125 1 4.175
3.375 0.9375 4.1125
3.3125 0.9375 4.175
3.3125 1 4.1125
3.3125 0.9375 4.1125
3.5 0.9375 4.175
3.5 1 4.1125
3.4375 1 4.175
3.5 0.9375 4.1125
3.4375 0.9375 4.175
3.4375 1 4.1125
3.4375 0.9375 4.1125
3.625 0.9375 4.175
3.625 1 4.1125
3.5625 1 4.175
3.625 0.9375 4.1125
3.5625 0.9375 4.175
3.5625 1 4.1125
3.5625 0.9375 4.1125
3.75 0.9375 4.175
3.75 1 4.1125
3.6875 1 4.175
3.75 0.9375 4.1125
3.6875 0.9375 4.175
3.6875 1 4.1125
3.6875 0.9375 4.1125
3.875 0.9375 4.175
3.875 1 4.1125
3.8125 1 4.175
3.875 0.9375 4.1125
3.8125 0.9375 4.175
3.8125 1 4.1125
3.8125 0.9375 4.1125
4 0.9375 4.175
4 1 4.1125
3.9375 1 4.175
4 0.9375 4.1125
3.9375 0.9375 4.175
3.9375 1 4.1125
3.9375 0.9375 4.1125
0.125 0 4.2375
0.0625 0 4.3
0 0 4.2375
0.125 0.0625 4.3
0 0.0625 4.3
0.125 0.125 4.2375
0.0625 0.125 4.3
0 0.125 4.2375
0.0625 0 4.2375
0.125 0.0625 4.2375
0.0625 0.0625 4.3
0 0.0625 4.2375
0.0625 0.125 4.2375
0.0625 0.0625 4.2375
0.25 0 4.2375
0.1875 0 4.3
0.25 0.0625 4.3
0.25 0.125 4.2375
0.1875 0.125 4.3
0.1875 0 4.2375
0.25 0.0625 4.2375
0.1875 0.0625 4.3
0.1875 0.125 4.2375
0.1875 0.0625 4.2375
0.375 0 4.2375
0.3125 0 4.3
0.375 0.0625 4.3
0.375 0.125 4.2375
0.3125 0.125 4.3
0.3125 0 4.2375
0.375 0.0625 4.2375
0.3125 0.0625 4.3
0.3125 0.125 4.2375
0.3125 0.0625 4.2375
0.5 0 4.2375
0.4375 0 4.3
0.5 0.0625 4.3
0.5 0.125 4.2375
0.4375 0.125 4.3
0.4375 0 4.2375
0.5 0.0625 4.2375
0.4375 0.0625 4.3
0.4375 0.125 4.2375
0.4375 0.0625 4.2375
0.625 0 4.2375
0.5625 0 4.3
0.625 0.0625 4.3
0.625 0.125 4.2375
0.5625 0.125 4.3
0.5625 0 4.2375
0.625 0.0625 4.2375
0.5625 0.0625 4.3
0.5625 0.125 4.2375
0.5625 0.0625 4.2375
0.75 0 4.2375
0.6875 0 4.3
0.75 0.0625 4.3
0.75 0.125 4.2375
0.6875 0.125 4.3
0.6875 0 4.2375
0.75 0.0625 4.2375
0.6875 0.0625 4.3
0.6875 0.125 4.2375
0.6875 0.0625 4.2375
0.875 0 4.2375
0.8125 0 4.3
0.875 0.0625 4.3
0.875 0.125 4.2375
0.8125 0.125 4.3
0.8125 0 4.2375
0.875 0.0625 4.2375
0.8125 0.0625 4.3
0.8125 0.125 4.2375
0.8125 0.0625 4.2375
1 0 4.2375
0.9375 0 4.3
1 0.0625 4.3
1 0.125 4.2375
0.9375 0.125 4.3
0.9375 0 4.2375
1 0.0625 4.2375
0.9375 0.0625 4.3
0.9375 0.125 4.2375
0.9375 0.0625 4.2375
1.125 0 4.2375
1.0625 0 4.3
1.125 0.0625 4.3
1.125 0.125 4.2375
1.0625 0.125 4.3
1.0625 0 4.2375
1.125 0.0625 4.2375
1.0625 0.0625 4.3
1.0625 0.125 4.2375
1.0625 0.0625 4.2375
1.25 0 4.2375
1.1875 0 4.3
1.25 0.0625 4.3
1.25 0.125 4.2375
1.1875 0.125 4.3
1.1875 0 4.2375
1.25 0.0625 4.2375
1.1875 0.0625 4.3
1.1875 0.125 4.2375
1.1875 0.0625 4.2375
1.375 0 4.2375
1.3125 0 4.3
1.375 0.0625 4.3
1.375 0.125 4.2375
1.3125 0.125 4.3
1.3125 0 4.2375
1.375 0.0625 4.2375
1.3125 0.0625 4.3
1.3125 0.125 4.2375
1.3125 0.0625 4.2375
1.5 0 4.2375
1.4375 0 4.3
1.5 0.0625 4.3
1.5 0.125 4.2375
1.4375 0.125 4.3
1.4375 0 4.2375
1.5 0.0625 4.2375
1.4375 0.0625 4.3
1.4375 0.125 4.2375
1.4375 0.0625 4.2375
1.625 0 4.2375
1.5625 0 4.3
1.625 0.0625 4.3
1.625 0.125 4.2375
1.5625 0.125 4.3
1.5625 0 4.2375
1.625 0.0625 4.2375
1.5625 0.0625 4.3
1.5625 0.125 4.2375
1.5625 0.0625 4.2375
1.75 0 4.2375
1.6875 0 4.3
1.75 0.0625 4.3
1.75 0.125 4.2375
1.6875 0.125 4.3
1.6875 0 4.2375
1.75 0.0625 4.2375
1.6875 0.0625 4.3
1.6875 0.125 4.2375
1.6875 0.0625 4.2375
1.875 0 4.2375
1.8125 0 4.3
1.875 0.0625 4.3
1.875 0.125 4.2375
1.8125 0.125 4.3
1.8125 0 4.2375
1.875 0.0625 4.2375
1.8125 0.0625 4.3
1.8125 0.125 4.2375
1.8125 0.0625 4.2375
2 0 4.2375
1.9375 0 4.3
2 0.0625 4.3
2 0.125 4.2375
1.9375 0.125 4.3
1.9375 0 4.2375
2 0.0625 4.2375
1.9375 0.0625 4.3
1.9375 0.125 4.2375
1.9375 0.0625 4.2375
2.125 0 4.2375
2.0625 0 4.3
2.125 0.0625 4.3
2.125 0.125 4.2375
2.0625 0.125 4.3
2.0625 0 4.2375
2.125 0.0625 4.2375
2.0625 0.0625 4.3
2.0625 0.125 4.2375
2.0625 0.0625 4.2375
2.25 0 4.2375
2.1875 0 4.3
2.25 0.0625 4.3
2.25 0.125 4.2375
2.1875 0.125 4.3
2.1875 0 4.2375
2.25 0.0625 4.2375
2.1875 0.0625 4.3
2.1875 0.125 4.2375
2.1875 0.0625 4.2375
2.375 0 4.2375
2.3125 0 4.3
2.375 0.0625 4.3
2.375 0.125 4.2375
2.3125 0.125 4.3
2.3125 0 4.2375
2.375 0.0625 4.2375
2.3125 0.0625 4.3
2.3125 0.125 4.2375
2.3125 0.0625 4.2375
2.5 0 4.2375
2.4375 0 4.3
2.5 0.0625 4.3
2.5 0.125 4.2375
2.4375 0.125 4.3
2.4375 0 4.2375
2.5 0.0625 4.2375
2.4375 0.0625 4.3
2.4375 0.125 4.2375
2.4375 0.0625 4.2375
2.625 0 4.2375
2.5625 0 4.3
2.625 0.0625 4.3
2.625 0.125 4.2375
2.5625 0.125 4.3
2.5625 0 4.2375
2.625 0.0625 4.2375
2.5625 0.0625 4.3
2.5625 0.125 4.2375
2.5625 0.0625 4.2375
2.75 0 4.2375
2.6875 0 4.3
2.75 0.0625 4.3
2.75 0.125 4.2375
2.6875 0.125 4.3
2.6875 0 4.2375
2.75 0.0625 4.2375
2.6875 0.0625 4.3
2.6875 0.125 4.2375
2.6875 0.0625 4.2375
2.875 0 4.2375
2.8125 0 4.3
2.875 0.0625 4.3
2.875 0.125 4.2375
2.8125 0.125 4.3
2.8125 0 4.2375
2.875 0.0625 4.2375
2.8125 0.0625 4.3
2.8125 0.125 4.2375
2.8125 0.0625 4.2375
3 0 4.2375
2.9375 0 4.3
3 0.0625 4.3
3 0.125 4.2375
2.9375 0.125 4.3
2.9375 0 4.2375
3 0.0625 4.2375
2.9375 0.0625 4.3
2.9375 0.125 4.2375
2.9375 0.0625 4.2375
3.125 0 4.2375
3.0625 0 4.3
3.125 0.0625 4.3
3.125 0.125 4.2375
3.0625 0.125 4.3
3.0625 0 4.2375
3.125 0.0625 4.2375
3.0625 0.0625 4.3
3.0625 0.125 4.2375
3.0625 0.0625 4.2375
3.25 0 4.2375
3.1875 0 4.3
3.25 0.0625 4.3
3.25 0.125 4.2375
3.1875 0.125 4.3
3.1875 0 4.2375
3.25 0.0625 4.2375
3.1875 0.0625 4.3
3.1875 0.125 4.2375
3.1875 0.0625 4.2375
3.375 0 4.2375
3.3125 0 4.3
3.375 0.0625 4.3
3.375 0.125 4.2375
3.3125 0.125 4.3
3.3125 0 4.2375
3.375 0.0625 4.2375
3.3125 0.0625 4.3
3.3125 0.125 4.2375
3.3125 0.0625 4.2375
3.5 0 4.2375
3.4375 0 4.3
3.5 0.0625 4.3
3.5 0.125 4.2375
3.4375 0.125 4.3
3.4375 0 4.2375
3.5 0.0625 4.2375
3.4375 0.0625 4.3
3.4375 0.125 4.2375
3.4375 0.0625 4.2375
3.625 0 4.2375
3.5625 0 4.3
3.625 0.0625 4.3
3.625 0.125 4.2375
3.5625 0.125 4.3
3.5625 0 4.2375
3.625 0.0625 4.2375
3.5625 0.0625 4.3
3.5625 0.125 4.2375
3.5625 0.0625 4.2375
3.75 0 4.2375
3.6875 0 4.3
3.75 0.0625 4.3
3.75 0.125 4.2375
3.6875 0.125 4.3
3.6875 0 4.2375
3.75 0.0625 4.2375
3.6875 0.0625 4.3
3.6875 0.125 4.2375
3.6875 0.0625 4.2375
3.875 0 4.2375
3.8125 0 4.3
3.875 0.0625 4.3
3.875 0.125 4.2375
3.8125 0.125 4.3
3.8125 0 4.2375
3.875 0.0625 4.2375
3.8125 0.0625 4.3
3.8125 0.125 4.2375
3.8125 0.0625 4.2375
4 0 4.2375
3.9375 0 4.3
4 0.0625 4.3
4 0.125 4.2375
3.9375 0.125 4.3
3.9375 0 4.2375
4 0.0625 4.2375
3.9375 0.0625 4.3
3.9375 0.125 4.2375
3.9375 0.0625 4.2375
0.125 0.1875 4.3
0 0.1875 4.3
0.125 0.25 4.2375
0.0625 0.25 4.3
0 0.25 4.2375
0.125 0.1875 4.2375
0.0625 0.1875 4.3
0 0.1875 4.2375
0.0625 0.25 4.2375
0.0625 0.1875 4.2375
0.25 0.1875 4.3
0.25 0.25 4.2375
0.1875 0.25 4.3
0.25 0.1875 4.2375
0.1875 0.1875 4.3
0.1875 0.25 4.2375
0.1875 0.1875 4.2375
0.375 0.1875 4.3
0.375 0.25 4.2375
0.3125 0.25 4.3
0.375 0.1875 4.2375
0.3125 0.1875 4.3
0.3125 0.25 4.2375
0.3125 0.1875 4.2375
0.5 0.1875 4.3
0.5 0.25 4.2375
0.4375 0.25 4.3
0.5 0.1875 4.2375
0.4375 0.1875 4.3
0.4375 0.25 4.2375
0.4375 0.1875 4.2375
0.625 0.1875 4.3
0.625 0.25 4.2375
0.5625 0.25 4.3
0.625 0.1875 4.2375
0.5625 0.1875 4.3
0.5625 0.25 4.2375
0.5625 0.1875 4.2375
0.75 0.1875 4.3
0.75 0.25 4.2375
0.6875 0.25 4.3
0.75 0.1875 4.2375
0.6875 0.1875 4.3
0.6875 0.25 4.2375
0.6875 0.1875 4.2375
0.875 0.1875 4.3
0.875 0.25 4.2375
0.8125 0.25 4.3
0.875 0.1875 4.2375
0.8125 0.1875 4.3
0.8125 0.25 4.2375
0.8125 0.1875 4.2375
1 0.1875 4.3
1 0.25 4.2375
0.9375 0.25 4.3
1 0.1875 4.2375
0.9375 0.1875 4.3
0.9375 0.25 4.2375
0.9375 0.1875 4.2375
1.125 0.1875 4.3
1.125 0.25 4.2375
1.0625 0.25 4.3
1.125 0.1875 4.2375
1.0625 0.1875 4.3
1.0625 0.25 4.2375
1.0625 0.1875 4.2375
1.25 0.1875 4.3
1.25 0.25 4.2375
1.1875 0.25 4.3
1.25 0.1875 4.2375
1.1875 0.1875 4.3
1.1875 0.25 4.2375
1.1875 0.1875 4.2375
1.375 0.1875 4.3
1.375 0.25 4.2375
1.3125 0.25 4.3
1.375 0.1875 4.2375
1.3125 0.1875 4.3
1.3125 0.25 4.2375
1.3125 0.1875 4.2375
1.5 0.1875 4.3
1.5 0.25 4.2375
1.4375 0.25 4.3
1.5 0.1875 4.2375
1.4375 0.1875 4.3
1.4375 0.25 4.2375
1.4375 0.1875 4.2375
1.625 0.1875 4.3
1.625 0.25 4.2375
1.5625 0.25 4.3
1.625 0.1875 4.2375
1.5625 0.1875 4.3
1.5625 0.25 4.2375
1.5625 0.1875 4.2375
1.75 0.1875 4.3
1.75 0.25 4.2375
1.6875 0.25 4.3
1.75 0.1875 4.2375
1.6875 0.1875 4.3
1.6875 0.25 4.2375
1.6875 0.1875 4.2375
1.875 0.1875 4.3
1.875 0.25 4.2375
1.8125 0.25 4.3
1.875 0.1875 4.2375
1.8125 0.1875 4.3
1.8125 0.25 4.2375
1.8125 0.1875 4.2375
2 0.1875 4.3
2 0.25 4.2375
1.9375 0.25 4.3
2 0.1875 4.2375
1.9375 0.1875 4.3
1.9375 0.25 4.2375
1.9375 0.1875 4.2375
2.125 0.1875 4.3
2.125 0.25 4.2375
2.0625 0.25 4.3
2.125 0.1875 4.2375
2.0625 0.1875 4.3
2.0625 0.25 4.2375
2.0625 0.1875 4.2375
2.25 0.1875 4.3
2.25 0.25 4.2375
2.1875 0.25 4.3
2.25 0.1875 4.2375
2.1875 0.1875 4.3
2.1875 0.25 4.2375
2.1875 0.1875 4.2375
2.375 0.1875 4.3
2.375 0.25 4.2375
2.3125 0.25 4.3
2.375 0.1875 4.2375
2.3125 0.1875 4.3
2.3125 0.25 4.2375
2.3125 0.1875 4.2375
2.5 0.1875 4.3
2.5 0.25 4.2375
2.4375 0.25 4.3
2.5 0.1875 4.2375
2.4375 0.1875 4.3
2.4375 0.25 4.2375
2.4375 0.1875 4.2375
2.625 0.1875 4.3
2.625 0.25 4.2375
2.5625 0.25 4.3
2.625 0.1875 4.2375
2.5625 0.1875 4.3
2.5625 0.25 4.2375
2.5625 0.1875 4.2375
2.75 0.1875 4.3
2.75 0.25 4.2375
2.6875 0.25 4.3
2.75 0.1875 4.2375
2.6875 0.1875 4.3
2.6875 0.25 4.2375
2.6875 0.1875 4.2375
2.875 0.1875 4.3
2.875 0.25 4.2375
2.8125 0.25 4.3
2.875 0.1875 4.2375
2.8125 0.1875 4.3
2.8125 0.25 4.2375
2.8125 0.1875 4.2375
3 0.1875 4.3
3 0.25 4.2375
2.9375 0.25 4.3
3 0.1875 4.2375
2.9375 0.1875 4.3
2.9375 0.25 4.2375
2.9375 0.1875 4.2375
3.125 0.1875 4.3
3.125 0.25 4.2375
3.0625 0.25 4.3
3.125 0.1875 4.2375
3.0625 0.1875 4.3
3.0625 0.25 4.2375
3.0625 0.1875 4.2375
3.25 0.1875 4.3
3.25 0.25 4.2375
3.1875 0.25 4.3
3.25 0.1875 4.2375
3.1875 0.1875 4.3
3.1875 0.25 4.2375
3.1875 0.1875 4.2375
3.375 0.1875 4.3
3.375 0.25 4.2375
3.3125 0.25 4.3
3.375 0.1875 4.2375
3.3125 0.1875 4.3
3.3125 0.25 4.2375
3.3125 0.1875 4.2375
3.5 0.1875 4.3
3.5 0.25 4.2375
3.4375 0.25 4.3
3.5 0.1875 4.2375
3.4375 0.1875 4.3
3.4375 0.25 4.2375
3.4375 0.1875 4.2375
3.625 0.1875 4.3
3.625 0.25 4.2375
3.5625 0.25 4.3
3.625 0.1875 4.2375
3.5625 0.1875 4.3
3.5625 0.25 4.2375
3.5625 0.1875 4.2375
3.75 0.1875 4.3
3.75 0.25 4.2375
3.6875 0.25 4.3
3.75 0.1875 4.2375
3.6875 0.1875 4.3
3.6875 0.25 4.2375
3.6875 0.1875 4.2375
3.875 0.1875 4.3
3.875 0.25 4.2375
3.8125 0.25 4.3
3.875 0.1875 4.2375
3.8125 0.1875 4.3
3.8125 0.25 4.2375
3.8125 0.1875 4.2375
4 0.1875 4.3
4 0.25 4.2375
3.9375 0.25 4.3
4 0.1875 4.2375
3.9375 0.1875 4.3
3.9375 0.25 4.2375
3.9375 0.1875 4.2375
0.125 0.3125 4.3
0 0.3125 4.3
0.125 0.375 4.2375
0.0625 0.375 4.3
0 0.375 4.2375
0.125 0.3125 4.2375
0.0625 0.3125 4.3
0 0.3125 4.2375
0.0625 0.375 4.2375
0.0625 0.3125 4.2375
0.25 0.3125 4.3
0.25 0.375 4.2375
0.1875 0.375 4.3
0.25 0.3125 4.2375
0.1875 0.3125 4.3
0.1875 0.375 4.2375
0.1875 0.3125 4.2375
0.375 0.3125 4.3
0.375 0.375 4.2375
0.3125 0.375 4.3
0.375 0.3125 4.2375
0.3125 0.3125 4.3
0.3125 0.375 4.2375
0.3125 0.3125 4.2375
0.5 0.3125 4.3
0.5 0.375 4.2375
0.4375 0.375 4.3
0.5 0.3125 4.2375
0.4375 0.3125 4.3
0.4375 0.375 4.2375
0.4375 0.3125 4.2375
0.625 0.3125 4.3
0.625 0.375 4.2375
0.5625 0.375 4.3
0.625 0.3125 4.2375
0.5625 0.3125 4.3
0.5625 0.375 4.2375
0.5625 0.3125 4.2375
0.75 0.3125 4.3
0.75 0.375 4.2375
0.6875 0.375 4.3
0.75 0.3125 4.2375
0.6875 0.3125 4.3
0.6875 0.375 4.2375
0.6875 0.3125 4.2375
0.875 0.3125 4.3
0.875 0.375 4.2375
0.8125 0.375 4.3
0.875 0.3125 4.2375
0.8125 0.3125 4.3
0.8125 0.375 4.2375
0.8125 0.3125 4.2375
1 0.3125 4.3
1 0.375 4.2375
0.9375 0.375 4.3
1 0.3125 4.2375
0.9375 0.3125 4.3
0.9375 0.375 4.2375
0.9375 0.3125 4.2375
1.125 0.3125 4.3
1.125 0.375 4.2375
1.0625 0.375 4.3
1.125 0.3125 4.2375
1.0625 0.3125 4.3
1.0625 0.375 4.2375
1.0625 0.3125 4.2375
1.25 0.3125 4.3
1.25 0.375 4.2375
1.1875 0.375 4.3
1.25 0.3125 4.2375
1.1875 0.3125 4.3
1.1875 0.375 4.2375
1.1875 0.3125 4.2375
1.375 0.3125 4.3
1.375 0.375 4.2375
1.3125 0.375 4.3
1.375 0.3125 4.2375
1.3125 0.3125 4.3
1.3125 0.375 4.2375
1.3125 0.3125 4.2375
1.5 0.3125 4.3
1.5 0.375 4.2375
1.4375 0.375 4.3
1.5 0.3125 4.2375
1.4375 0.3125 4.3
1.4375 0.375 4.2375
1.4375 0.3125 4.2375
1.625 0.3125 4.3
1.625 0.375 4.2375
1.5625 0.375 4.3
1.625 0.3125 4.2375
1.5625 0.3125 4.3
1.5625 0.375 4.2375
1.5625 0.3125 4.2375
1.75 0.3125 4.3
1.75 0.375 4.2375
1.6875 0.375 4.3
1.75 0.3125 4.2375
1.6875 0.3125 4.3
1.6875 0.375 4.2375
1.6875 0.3125 4.2375
1.875 0.3125 4.3
1.875 0.375 4.2375
1.8125 0.375 4.3
1.875 0.3125 4.2375
1.8125 0.3125 4.3
1.8125 0.375 4.2375
1.8125 0.3125 4.2375
2 0.3125 4.3
2 0.375 4.2375
1.9375 0.375 4.3
2 0.3125 4.2375
1.9375 0.3125 4.3
1.9375 0.375 4.2375
1.9375 0.3125 4.2375
2.125 0.3125 4.3
2.125 0.375 4.2375
2.0625 0.375 4.3
2.125 0.3125 4.2375
2.0625 0.3125 4.3
2.0625 0.375 4.2375
2.0625 0.3125 4.2375
2.25 0.3125 4.3
2.25 0.375 4.2375
2.1875 0.375 4.3
2.25 0.3125 4.2375
2.1875 0.3125 4.3
2.1875 0.375 4.2375
2.1875 0.3125 4.2375
2.375 0.3125 4.3
2.375 0.375 4.2375
2.3125 0.375 4.3
2.375 0.3125 4.2375
2.3125 0.3125 4.3
2.3125 0.375 4.2375
2.3125 0.3125 4.2375
2.5 0.3125 4.3
2.5 0.375 4.2375
2.4375 0.375 4.3
2.5 0.3125 4.2375
2.4375 0.3125 4.3
2.4375 0.375 4.2375
2.4375 0.3125 4.2375
2.625 0.3125 4.3
2.625 0.375 4.2375
2.5625 0.375 4.3
2.625 0.3125 4.2375
2.5625 0.3125 4.3
2.5625 0.375 4.2375
2.5625 0.3125 4.2375
2.75 0.3125 4.3
2.75 0.375 4.2375
2.6875 0.375 4.3
2.75 0.3125 4.2375
2.6875 0.3125 4.3
2.6875 0.375 4.2375
2.6875 0.3125 4.2375
2.875 0.3125 4.3
2.875 0.375 4.2375
2.8125 0.375 4.3
2.875 0.3125 4.2375
2.8125 0.3125 4.3
2.8125 0.375 4.2375
2.8125 0.3125 4.2375
3 0.3125 4.3
3 0.375 4.2375
2.9375 0.375 4.3
3 0.3125 4.2375
2.9375 0.3125 4.3
2.9375 0.375 4.2375
2.9375 0.3125 4.2375
3.125 0.3125 4.3
3.125 0.375 4.2375
3.0625 0.375 4.3
3.125 0.3125 4.2375
3.0625 0.3125 4.3
3.0625 0.375 4.2375
3.0625 0.3125 4.2375
3.25 0.3125 4.3
3.25 0.375 4.2375
3.1875 0.375 4.3
3.25 0.3125 4.2375
3.1875 0.3125 4.3
3.1875 0.375 4.2375
3.1875 0.3125 4.2375
3.375 0.3125 4.3
3.375 0.375 4.2375
3.3125 0.375 4.3
3.375 0.3125 4.2375
3.3125 0.3125 4.3
3.3125 0.375 4.2375
3.3125 0.3125 4.2375
3.5 0.3125 4.3
3.5 0.375 4.2375
3.4375 0.375 4.3
3.5 0.3125 4.2375
3.4375 0.3125 4.3
3.4375 0.375 4.2375
3.4375 0.3125 4.2375
3.625 0.3125 4.3
3.625 0.375 4.2375
3.5625 0.375 4.3
3.625 0.3125 4.2375
3.5625 0.3125 4.3
3.5625 0.375 4.2375
3.5625 0.3125 4.2375
3.75 0.3125 4.3
3.75 0.375 4.2375
3.6875 0.375 4.3
3.75 0.3125 4.2375
3.6875 0.3125 4.3
3.6875 0.375 4.2375
3.6875 0.3125 4.2375
3.875 0.3125 4.3
3.875 0.375 4.2375
3.8125 0.375 4.3
3.875 0.3125 4.2375
3.8125 0.3125 4.3
3.8125 0.375 4.2375
3.8125 0.3125 4.2375
4 0.3125 4.3
4 0.375 4.2375
3.9375 0.375 4.3
4 0.3125 4.2375
3.9375 0.3125 4.3
3.9375 0.375 4.2375
3.9375 0.3125 4.2375
0.125 0.4375 4.3
0 0.4375 4.3
0.125 0.5 4.2375
0.0625 0.5 4.3
0 0.5 4.2375
0.125 0.4375 4.2375
0.0625 0.4375 4.3
0 0.4375 4.2375
0.0625 0.5 4.2375
0.0625 0.4375 4.2375
0.25 0.4375 4.3
0.25 0.5 4.2375
0.1875 0.5 4.3
0.25 0.4375 4.2375
0.1875 0.4375 4.3
0.1875 0.5 4.2375
0.1875 0.4375 4.2375
0.375 0.4375 4.3
0.375 0.5 4.2375
0.3125 0.5 4.3
0.375 0.4375 4.2375
0.3125 0.4375 4.3
0.3125 0.5 4.2375
0.3125 0.4375 4.2375
0.5 0.4375 4.3
0.5 0.5 4.2375
0.4375 0.5 4.3
0.5 0.4375 4.2375
0.4375 0.4375 4.3
0.4375 0.5 4.2375
0.4375 0.4375 4.2375
0.625 0.4375 4.3
0.625 0.5 4.2375
0.5625 0.5 4.3
0.625 0.4375 4.2375
0.5625 0.4375 4.3
0.5625 0.5 4.2375
0.5625 0.4375 4.2375
0.75 0.4375 4.3
0.75 0.5 4.2375
0.6875 0.5 4.3
0.75 0.4375 4.2375
0.6875 0.4375 4.3
0.6875 0.5 4.2375
0.6875 0.4375 4.2375
0.875 0.4375 4.3
0.875 0.5 4.2375
0.8125 0.5 4.3
0.875 0.4375 4.2375
0.8125 0.4375 4.3
0.8125 0.5 4.2375
0.8125 0.4375 4.2375
1 0.4375 4.3
1 0.5 4.2375
0.9375 0.5 4.3
1 0.4375 4.2375
0.9375 0.4375 4.3
0.9375 0.5 4.2375
0.9375 0.4375 4.2375
1.125 0.4375 4.3
1.125 0.5 4.2375
1.0625 0.5 4.3
1.125 0.4375 4.2375
1.0625 0.4375 4.3
1.0625 0.5 4.2375
1.0625 0.4375 4.2375
1.25 0.4375 4.3
1.25 0.5 4.2375
1.1875 0.5 4.3
1.25 0.4375 4.2375
1.1875 0.4375 4.3
1.1875 0.5 4.2375
1.1875 0.4375 4.2375
1.375 0.4375 4.3
1.375 0.5 4.2375
1.3125 0.5 4.3
1.375 0.4375 4.2375
1.3125 0.4375 4.3
1.3125 0.5 4.2375
1.3125 0.4375 4.2375
1.5 0.4375 4.3
1.5 0.5 4.2375
1.4375 0.5 4.3
1.5 0.4375 4.2375
1.4375 0.4375 4.3
1.4375 0.5 4.2375
1.4375 0.4375 4.2375
1.625 0.4375 4.3
1.625 0.5 4.2375
1.5625 0.5 4.3
1.625 0.4375 4.2375
1.5625 0.4375 4.3
1.5625 0.5 4.2375
1.5625 0.4375 4.2375
1.75 0.4375 4.3
1.75 0.5 4.2375
1.6875 0.5 4.3
1.75 0.4375 4.2375
1.6875 0.4375 4.3
1.6875 0.5 4.2375
1.6875 0.4375 4.2375
1.875 0.4375 4.3
1.875 0.5 4.2375
1.8125 0.5 4.3
1.875 0.4375 4.2375
1.8125 0.4375 4.3
1.8125 0.5 4.2375
1.8125 0.4375 4.2375
2 0.4375 4.3
2 0.5 4.2375
1.9375 0.5 4.3
2 0.4375 4.2375
1.9375 0.4375 4.3
1.9375 0.5 4.2375
1.9375 0.4375 4.2375
2.125 0.4375 4.3
2.125 0.5 4.2375
2.0625 0.5 4.3
2.125 0.4375 4.2375
2.0625 0.4375 4.3
2.0625 0.5 4.2375
2.0625 0.4375 4.2375
2.25 0.4375 4.3
2.25 0.5 4.2375
2.1875 0.5 4.3
2.25 0.4375 4.2375
2.1875 0.4375 4.3
2.1875 0.5 4.2375
2.1875 0.4375 4.2375
2.375 0.4375 4.3
2.375 0.5 4.2375
2.3125 0.5 4.3
2.375 0.4375 4.2375
2.3125 0.4375 4.3
2.3125 0.5 4.2375
2.3125 0.4375 4.2375
2.5 0.4375 4.3
2.5 0.5 4.2375
2.4375 0.5 4.3
2.5 0.4375 4.2375
2.4375 0.4375 4.3
2.4375 0.5 4.2375
2.4375 0.4375 4.2375
2.625 0.4375 4.3
2.625 0.5 4.2375
2.5625 0.5 4.3
2.625 0.4375 4.2375
2.5625 0.4375 4.3
2.5625 0.5 4.2375
2.5625 0.4375 4.2375
2.75 0.4375 4.3
2.75 0.5 4.2375
2.6875 0.5 4.3
2.75 0.4375 4.2375
2.6875 0.4375 4.3
2.6875 0.5 4.2375
2.6875 0.4375 4.2375
2.875 0.4375 4.3
2.875 0.5 4.2375
2.8125 0.5 4.3
2.875 0.4375 4.2375
2.8125 0.4375 4.3
2.8125 0.5 4.2375
2.8125 0.4375 4.2375
3 0.4375 4.3
3 0.5 4.2375
2.9375 0.5 4.3
3 0.4375 4.2375
2.9375 0.4375 4.3
2.9375 0.5 4.2375
2.9375 0.4375 4.2375
3.125 0.4375 4.3
3.125 0.5 4.2375
3.0625 0.5 4.3
3.125 0.4375 4.2375
3.0625 0.4375 4.3
3.0625 0.5 4.2375
3.0625 0.4375 4.2375
3.25 0.4375 4.3
3.25 0.5 4.2375
3.1875 0.5 4.3
3.25 0.4375 4.2375
3.1875 0.4375 4.3
3.1875 0.5 4.2375
3.1875 0.4375 4.2375
3.375 0.4375 4.3
3.375 0.5 4.2375
3.3125 0.5 4.3
3.375 0.4375 4.2375
3.3125 0.4375 4.3
3.3125 0.5 4.2375
3.3125 0.4375 4.2375
3.5 0.4375 4.3
3.5 0.5 4.2375
3.4375 0.5 4.3
3.5 0.4375 4.2375
3.4375 0.4375 4.3
3.4375 0.5 4.2375
3.4375 0.4375 4.2375
3.625 0.4375 4.3
3.625 0.5 4.2375
3.5625 0.5 4.3
3.625 0.4375 4.2375
3.5625 0.4375 4.3
3.5625 0.5 4.2375
3.5625 0.4375 4.2375
3.75 0.4375 4.3
3.75 0.5 4.2375
3.6875 0.5 4.3
3.75 0.4375 4.2375
3.6875 0.4375 4.3
3.6875 0.5 4.2375
3.6875 0.4375 4.2375
3.875 0.4375 4.3
3.875 0.5 4.2375
3.8125 0.5 4.3
3.875 0.4375 4.2375
3.8125 0.4375 4.3
3.8125 0.5 4.2375
3.8125 0.4375 4.2375
4 0.4375 4.3
4 0.5 4.2375
3.9375 0.5 4.3
4 0.4375 4.2375
3.9375 0.4375 4.3
3.9375 0.5 4.2375
3.9375 0.4375 4.2375
0.125 0.5625 4.3
0 0.5625 4.3
0.125 0.625 4.2375
0.0625 0.625 4.3
0 0.625 4.2375
0.125 0.5625 4.2375
0.0625 0.5625 4.3
0 0.5625 4.2375
0.0625 0.625 4.2375
0.0625 0.5625 4.2375
0.25 0.5625 4.3
0.25 0.625 4.2375
0.1875 0.625 4.3
0.25 0.5625 4.2375
0.1875 0.5625 4.3
0.1875 0.625 4.2375
0.1875 0.5625 4.2375
0.375 0.5625 4.3
0.375 0.625 4.2375
0.3125 0.625 4.3
0.375 0.5625 4.2375
0.3125 0.5625 4.3
0.3125 0.625 4.2375
0.3125 0.5625 4.2375
0.5 0.5625 4.3
0.5 0.625 4.2375
0.4375 0.625 4.3
0.5 0.5625 4.2375
0.4375 0.5625 4.3
0.4375 0.625 4.2375
0.4375 0.5625 4.2375
0.625 0.5625 4.3
0.625 0.625 4.2375
0.5625 0.625 4.3
0.625 0.5625 4.2375
0.5625 0.5625 4.3
0.5625 0.625 4.2375
0.5625 0.5625 4.2375
0.75 0.5625 4.3
0.75 0.625 4.2375
0.6875 0.625 4.3
0.75 0.5625 4.2375
0.6875 0.5625 4.3
0.6875 0.625 4.2375
0.6875 0.5625 4.2375
0.875 0.5625 4.3
0.875 0.625 4.2375
0.8125 0.625 4.3
0.875 0.5625 4.2375
0.8125 0.5625 4.3
0.8125 0.625 4.2375
0.8125 0.5625 4.2375
1 0.5625 4.3
1 0.625 4.2375
0.9375 0.625 4.3
1 0.5625 4.2375
0.9375 0.5625 4.3
0.9375 0.625 4.2375
0.9375 0.5625 4.2375
1.125 0.5625 4.3
1.125 0.625 4.2375
1.0625 0.625 4.3
1.125 0.5625 4.2375
1.0625 0.5625 4.3
1.0625 0.625 4.2375
1.0625 0.5625 4.2375
1.25 0.5625 4.3
1.25 0.625 4.2375
1.1875 0.625 4.3
1.25 0.5625 4.2375
1.1875 0.5625 4.3
1.1875 0.625 4.2375
1.1875 0.5625 4.2375
1.375 0.5625 4.3
1.375 0.625 4.2375
1.3125 0.625 4.3
1.375 0.5625 4.2375
1.3125 0.5625 4.3
1.3125 0.625 4.2375
1.3125 0.5625 4.2375
1.5 0.5625 4.3
1.5 0.625 4.2375
1.4375 0.625 4.3
1.5 0.5625 4.2375
1.4375 0.5625 4.3
1.4375 0.625 4.2375
1.4375 0.5625 4.2375
1.625 0.5625 4.3
1.625 0.625 4.2375
1.5625 0.625 4.3
1.625 0.5625 4.2375
1.5625 0.5625 4.3
1.5625 0.625 4.2375
1.5625 0.5625 4.2375
1.75 0.5625 4.3
1.75 0.625 4.2375
1.6875 0.625 4.3
1.75 0.5625 4.2375
1.6875 0.5625 4.3
1.6875 0.625 4.2375
1.6875 0.5625 4.2375
1.875 0.5625 4.3
1.875 0.625 4.2375
1.8125 0.625 4.3
1.875 0.5625 4.2375
1.8125 0.5625 4.3
1.8125 0.625 4.2375
1.8125 0.5625 4.2375
2 0.5625 4.3
2 0.625 4.2375
1.9375 0.625 4.3
2 0.5625 4.2375
1.9375 0.5625 4.3
1.9375 0.625 4.2375
1.9375 0.5625 4.2375
2.125 0.5625 4.3
2.125 0.625 4.2375
2.0625 0.625 4.3
2.125 0.5625 4.2375
2.0625 0.5625 4.3
2.0625 0.625 4.2375
2.0625 0.5625 4.2375
2.25 0.5625 4.3
2.25 0.625 4.2375
2.1875 0.625 4.3
2.25 0.5625 4.2375
2.1875 0.5625 4.3
2.1875 0.625 4.2375
2.1875 0.5625 4.2375
2.375 0.5625 4.3
2.375 0.625 4.2375
2.3125 0.625 4.3
2.375 0.5625 4.2375
2.3125 0.5625 4.3
2.3125 0.625 4.2375
2.3125 0.5625 4.2375
2.5 0.5625 4.3
2.5 0.625 4.2375
2.4375 0.625 4.3
2.5 0.5625 4.2375
2.4375 0.5625 4.3
2.4375 0.625 4.2375
2.4375 0.5625 4.2375
2.625 0.5625 4.3
2.625 0.625 4.2375
2.5625 0.625 4.3
2.625 0.5625 4.2375
2.5625 0.5625 4.3
2.5625 0.625 4.2375
2.5625 0.5625 4.2375
2.75 0.5625 4.3
2.75 0.625 4.2375
2.6875 0.625 4.3
2.75 0.5625 4.2375
2.6875 0.5625 4.3
2.6875 0.625 4.2375
2.6875 0.5625 4.2375
2.875 0.5625 4.3
2.875 0.625 4.2375
2.8125 0.625 4.3
2.875 0.5625 4.2375
2.8125 0.5625 4.3
2.8125 0.625 4.2375
2.8125 0.5625 4.2375
3 0.5625 4.3
3 0.625 4.2375
2.9375 0.625 4.3
3 0.5625 4.2375
2.9375 0.5625 4.3
2.9375 0.625 4.2375
2.9375 0.5625 4.2375
3.125 0.5625 4.3
3.125 0.625 4.2375
3.0625 0.625 4.3
3.125 0.5625 4.2375
3.0625 0.5625 4.3
3.0625 0.625 4.2375
3.0625 0.5625 4.2375
3.25 0.5625 4.3
3.25 0.625 4.2375
3.1875 0.625 4.3
3.25 0.5625 4.2375
3.1875 0.5625 4.3
3.1875 0.625 4.2375
3.1875 0.5625 4.2375
3.375 0.5625 4.3
3.375 0.625 4.2375
3.3125 0.625 4.3
3.375 0.5625 4.2375
3.3125 0.5625 4.3
3.3125 0.625 4.2375
3.3125 0.5625 4.2375
3.5 0.5625 4.3
3.5 0.625 4.2375
3.4375 0.625 4.3
3.5 0.5625 4.2375
3.4375 0.5625 4.3
3.4375 0.625 4.2375
3.4375 0.5625 4.2375
3.625 0.5625 4.3
3.625 0.625 4.2375
3.5625 0.625 4.3
3.625 0.5625 4.2375
3.5625 0.5625 4.3
3.5625 0.625 4.2375
3.5625 0.5625 4.2375
3.75 0.5625 4.3
3.75 0.625 4.2375
3.6875 0.625 4.3
3.75 0.5625 4.2375
3.6875 0.5625 4.3
3.6875 0.625 4.2375
3.6875 0.5625 4.2375
3.875 0.5625 4.3
3.875 0.625 4.2375
3.8125 0.625 4.3
3.875 0.5625 4.2375
3.8125 0.5625 4.3
3.8125 0.625 4.2375
3.8125 0.5625 4.2375
4 0.5625 4.3
4 0.625 4.2375
3.9375 0.625 4.3
4 0.5625 4.2375
3.9375 0.5625 4.3
3.9375 0.625 4.2375
3.9375 0.5625 4.2375
0.125 0.6875 4.3
0 0.6875 4.3
0.125 0.75 4.2375
0.0625 0.75 4.3
0 0.75 4.2375
0.125 0.6875 4.2375
0.0625 0.6875 4.3
0 0.6875 4.2375
0.0625 0.75 4.2375
0.0625 0.6875 4.2375
0.25 0.6875 4.3
0.25 0.75 4.2375
0.1875 0.75 4.3
0.25 0.6875 4.2375
0.1875 0.6875 4.3
0.1875 0.75 4.2375
0.1875 0.6875 4.2375
0.375 0.6875 4.3
0.375 0.75 4.2375
0.3125 0.75 4.3
0.375 0.6875 4.2375
0.3125 0.6875 4.3
0.3125 0.75 4.2375
0.3125 0.6875 4.2375
0.5 0.6875 4.3
0.5 0.75 4.2375
0.4375 0.75 4.3
0.5 0.6875 4.2375
0.4375 0.6875 4.3
0.4375 0.75 4.2375
0.4375 0.6875 4.2375
0.625 0.6875 4.3
0.625 0.75 4.2375
0.5625 0.75 4.3
0.625 0.6875 4.2375
0.5625 0.6875 4.3
0.5625 0.75 4.2375
0.5625 0.6875 4.2375
0.75 0.6875 4.3
0.75 0.75 4.2375
0.6875 0.75 4.3
0.75 0.6875 4.2375
0.6875 0.6875 4.3
0.6875 0.75 4.2375
0.6875 0.6875 4.2375
0.875 0.6875 4.3
0.875 0.75 4.2375
0.8125 0.75 4.3
0.875 0.6875 4.2375
0.8125 0.6875 4.3
0.8125 0.75 4.2375
0.8125 0.6875 4.2375
1 0.6875 4.3
1 0.75 4.2375
0.9375 0.75 4.3
1 0.6875 4.2375
0.9375 0.6875 4.3
0.9375 0.75 4.2375
0.9375 0.6875 4.2375
1.125 0.6875 4.3
1.125 0.75 4.2375
1.0625 0.75 4.3
1.125 0.6875 4.2375
1.0625 0.6875 4.3
1.0625 0.75 4.2375
1.0625 0.6875 4.2375
1.25 0.6875 4.3
1.25 0.75 4.2375
1.1875 0.75 4.3
1.25 0.6875 4.2375
1.1875 0.6875 4.3
1.1875 0.75 4.2375
1.1875 0.6875 4.2375
1.375 0.6875 4.3
1.375 0.75 4.2375
1.3125 0.75 4.3
1.375 0.6875 4.2375
1.3125 0.6875 4.3
1.3125 0.75 4.2375
1.3125 0.6875 4.2375
1.5 0.6875 4.3
1.5 0.75 4.2375
1.4375 0.75 4.3
1.5 0.6875 4.2375
1.4375 0.6875 4.3
1.4375 0.75 4.2375
1.4375 0.6875 4.2375
1.625 0.6875 4.3
1.625 0.75 4.2375
1.5625 0.75 4.3
1.625 0.6875 4.2375
1.5625 0.6875 4.3
1.5625 0.75 4.2375
1.5625 0.6875 4.2375
1.75 0.6875 4.3
1.75 0.75 4.2375
1.6875 0.75 4.3
1.75 0.6875 4.2375
1.6875 0.6875 4.3
1.6875 0.75 4.2375
1.6875 0.6875 4.2375
1.875 0.6875 4.3
1.875 0.75 4.2375
1.8125 0.75 4.3
1.875 0.6875 4.2375
1.8125 0.6875 4.3
1.8125 0.75 4.2375
1.8125 0.6875 4.2375
2 0.6875 4.3
2 0.75 4.2375
1.9375 0.75 4.3
2 0.6875 4.2375
1.9375 0.6875 4.3
1.9375 0.75 4.2375
1.9375 0.6875 4.2375
2.125 0.6875 4.3
2.125 0.75 4.2375
2.0625 0.75 4.3
2.125 0.6875 4.2375
2.0625 0.6875 4.3
2.0625 0.75 4.2375
2.0625 0.6875 4.2375
2.25 0.6875 4.3
2.25 0.75 4.2375
2.1875 0.75 4.3
2.25 0.6875 4.2375
2.1875 0.6875 4.3
2.1875 0.75 4.2375
2.1875 0.6875 4.2375
2.375 0.6875 4.3
2.375 0.75 4.2375
2.3125 0.75 4.3
2.375 0.6875 4.2375
2.3125 0.6875 4.3
2.3125 0.75 4.2375
2.3125 0.6875 4.2375
2.5 0.6875 4.3
2.5 0.75 4.2375
2.4375 0.75 4.3
2.5 0.6875 4.2375
2.4375 0.6875 4.3
2.4375 0.75 4.2375
2.4375 0.6875 4.2375
2.625 0.6875 4.3
2.625 0.75 4.2375
2.5625 0.75 4.3
2.625 0.6875 4.2375
2.5625 0.6875 4.3
2.5625 0.75 4.2375
2.5625 0.6875 4.2375
2.75 0.6875 4.3
2.75 0.75 4.2375
2.6875 0.75 4.3
2.75 0.6875 4.2375
2.6875 0.6875 4.3
2.6875 0.75 4.2375
2.6875 0.6875 4.2375
2.875 0.6875 4.3
2.875 0.75 4.2375
2.8125 0.75 4.3
2.875 0.6875 4.2375
2.8125 0.6875 4.3
2.8125 0.75 4.2375
2.8125 0.6875 4.2375
3 0.6875 4.3
3 0.75 4.2375
2.9375 0.75 4.3
3 0.6875 4.2375
2.9375 0.6875 4.3
2.9375 0.75 4.2375
2.9375 0.6875 4.2375
3.125 0.6875 4.3
3.125 0.75 4.2375
3.0625 0.75 4.3
3.125 0.6875 4.2375
3.0625 0.6875 4.3
3.0625 0.75 4.2375
3.0625 0.6875 4.2375
3.25 0.6875 4.3
3.25 0.75 4.2375
3.1875 0.75 4.3
3.25 0.6875 4.2375
3.1875 0.6875 4.3
3.1875 0.75 4.2375
3.1875 0.6875 4.2375
3.375 0.6875 4.3
3.375 0.75 4.2375
3.3125 0.75 4.3
3.375 0.6875 4.2375
3.3125 0.6875 4.3
3.3125 0.75 4.2375
3.3125 0.6875 4.2375
3.5 0.6875 4.3
3.5 0.75 4.2375
3.4375 0.75 4.3
3.5 0.6875 4.2375
3.4375 0.6875 4.3
3.4375 0.75 4.2375
3.4375 0.6875 4.2375
3.625 0.6875 4.3
3.625 0.75 4.2375
3.5625 0.75 4.3
3.625 0.6875 4.2375
3.5625 0.6875 4.3
3.5625 0.75 4.2375
3.5625 0.6875 4.2375
3.75 0.6875 4.3
3.75 0.75 4.2375
3.6875 0.75 4.3
3.75 0.6875 4.2375
3.6875 0.6875 4.3
3.6875 0.75 4.2375
3.6875 0.6875 4.2375
3.875 0.6875 4.3
3.875 0.75 4.2375
3.8125 0.75 4.3
3.875 0.6875 4.2375
3.8125 0.6875 4.3
3.8125 0.75 4.2375
3.8125 0.6875 4.2375
4 0.6875 4.3
4 0.75 4.2375
3.9375 0.75 4.3
4 0.6875 4.2375
3.9375 0.6875 4.3
3.9375 0.75 4.2375
3.9375 0.6875 4.2375
0.125 0.8125 4.3
0 0.8125 4.3
0.125 0.875 4.2375
0.0625 0.875 4.3
0 0.875 4.2375
0.125 0.8125 4.2375
0.0625 0.8125 4.3
0 0.8125 4.2375
0.0625 0.875 4.2375
0.0625 0.8125 4.2375
0.25 0.8125 4.3
0.25 0.875 4.2375
0.1875 0.875 4.3
0.25 0.8125 4.2375
0.1875 0.8125 4.3
0.1875 0.875 4.2375
0.1875 0.8125 4.2375
0.375 0.8125 4.3
0.375 0.875 4.2375
0.3125 0.875 4.3
0.375 0.8125 4.2375
0.3125 0.8125 4.3
0.3125 0.875 4.2375
0.3125 0.8125 4.2375
0.5 0.8125 4.3
0.5 0.875 4.2375
0.4375 0.875 4.3
0.5 0.8125 4.2375
0.4375 0.8125 4.3
0.4375 0.875 4.2375
0.4375 0.8125 4.2375
0.625 0.8125 4.3
0.625 0.875 4.2375
0.5625 0.875 4.3
0.625 0.8125 4.2375
0.5625 0.8125 4.3
0.5625 0.875 4.2375
0.5625 0.8125 4.2375
0.75 0.8125 4.3
0.75 0.875 4.2375
0.6875 0.875 4.3
0.75 0.8125 4.2375
0.6875 0.8125 4.3
0.6875 0.875 4.2375
0.6875 0.8125 4.2375
0.875 0.8125 4.3
0.875 0.875 4.2375
0.8125 0.875 4.3
0.875 0.8125 4.2375
0.8125 0.8125 4.3
0.8125 0.875 4.2375
0.8125 0.8125 4.2375
1 0.8125 4.3
1 0.875 4.2375
0.9375 0.875 4.3
1 0.8125 4.2375
0.9375 0.8125 4.3
0.9375 0.875 4.2375
0.9375 0.8125 4.2375
1.125 0.8125 4.3
1.125 0.875 4.2375
1.0625 0.875 4.3
1.125 0.8125 4.2375
1.0625 0.8125 4.3
1.0625 0.875 4.2375
1.0625 0.8125 4.2375
1.25 0.8125 4.3
1.25 0.875 4.2375
1.1875 0.875 4.3
1.25 0.8125 4.2375
1.1875 0.8125 4.3
1.1875 0.875 4.2375
1.1875 0.8125 4.2375
1.375 0.8125 4.3
1.375 0.875 4.2375
1.3125 0.875 4.3
1.375 0.8125 4.2375
1.3125 0.8125 4.3
1.3125 0.875 4.2375
1.3125 0.8125 4.2375
1.5 0.8125 4.3
1.5 0.875 4.2375
1.4375 0.875 4.3
1.5 0.8125 4.2375
1.4375 0.8125 4.3
1.4375 0.875 4.2375
1.4375 0.8125 4.2375
1.625 0.8125 4.3
1.625 0.875 4.2375
1.5625 0.875 4.3
1.625 0.8125 4.2375
1.5625 0.8125 4.3
1.5625 0.875 4.2375
1.5625 0.8125 4.2375
1.75 0.8125 4.3
1.75 0.875 4.2375
1.6875 0.875 4.3
1.75 0.8125 4.2375
1.6875 0.8125 4.3
1.6875 0.875 4.2375
1.6875 0.8125 4.2375
1.875 0.8125 4.3
1.875 0.875 4.2375
1.8125 0.875 4.3
1.875 0.8125 4.2375
1.8125 0.8125 4.3
1.8125 0.875 4.2375
1.8125 0.8125 4.2375
2 0.8125 4.3
2 0.875 4.2375
1.9375 0.875 4.3
2 0.8125 4.2375
1.9375 0.8125 4.3
1.9375 0.875 4.2375
1.9375 0.8125 4.2375
2.125 0.8125 4.3
2.125 0.875 4.2375
2.0625 0.875 4.3
2.125 0.8125 4.2375
2.0625 0.8125 4.3
2.0625 0.875 4.2375
2.0625 0.8125 4.2375
2.25 0.8125 4.3
2.25 0.875 4.2375
2.1875 0.875 4.3
2.25 0.8125 4.2375
2.1875 0.8125 4.3
2.1875 0.875 4.2375
2.1875 0.8125 4.2375
2.375 0.8125 4.3
2.375 0.875 4.2375
2.3125 0.875 4.3
2.375 0.8125 4.2375
2.3125 0.8125 4.3
2.3125 0.875 4.2375
2.3125 0.8125 4.2375
2.5 0.8125 4.3
2.5 0.875 4.2375
2.4375 0.875 4.3
2.5 0.8125 4.2375
2.4375 0.8125 4.3
2.4375 0.875 4.2375
2.4375 0.8125 4.2375
2.625 0.8125 4.3
2.625 0.875 4.2375
2.5625 0.875 4.3
2.625 0.8125 4.2375
2.5625 0.8125 4.3
2.5625 0.875 4.2375
2.5625 0.8125 4.2375
2.75 0.8125 4.3
2.75 0.875 4.2375
2.6875 0.875 4.3
2.75 0.8125 4.2375
2.6875 0.8125 4.3
2.6875 0.875 4.2375
2.6875 0.8125 4.2375
2.875 0.8125 4.3
2.875 0.875 4.2375
2.8125 0.875 4.3
2.875 0.8125 4.2375
2.8125 0.8125 4.3
2.8125 0.875 4.2375
2.8125 0.8125 4.2375
3 0.8125 4.3
3 0.875 4.2375
2.9375 0.875 4.3
3 0.8125 4.2375
2.9375 0.8125 4.3
2.9375 0.875 4.2375
2.9375 0.8125 4.2375
3.125 0.8125 4.3
3.125 0.875 4.2375
3.0625 0.875 4.3
3.125 0.8125 4.2375
3.0625 0.8125 4.3
3.0625 0.875 4.2375
3.0625 0.8125 4.2375
3.25 0.8125 4.3
3.25 0.875 4.2375
3.1875 0.875 4.3
3.25 0.8125 4.2375
3.1875 0.8125 4.3
3.1875 0.875 4.2375
3.1875 0.8125 4.2375
3.375 0.8125 4.3
3.375 0.875 4.2375
3.3125 0.875 4.3
3.375 0.8125 4.2375
3.3125 0.8125 4.3
3.3125 0.875 4.2375
3.3125 0.8125 4.2375
3.5 0.8125 4.3
3.5 0.875 4.2375
3.4375 0.875 4.3
3.5 0.8125 4.2375
3.4375 0.8125 4.3
3.4375 0.875 4.2375
3.4375 0.8125 4.2375
3.625 0.8125 4.3
3.625 0.875 4.2375
3.5625 0.875 4.3
3.625 0.8125 4.2375
3.5625 0.8125 4.3
3.5625 0.875 4.2375
3.5625 0.8125 4.2375
3.75 0.8125 4.3
3.75 0.875 4.2375
3.6875 0.875 4.3
3.75 0.8125 4.2375
3.6875 0.8125 4.3
3.6875 0.875 4.2375
3.6875 0.8125 4.2375
3.875 0.8125 4.3
3.875 0.875 4.2375
3.8125 0.875 4.3
3.875 0.8125 4.2375
3.8125 0.8125 4.3
3.8125 0.875 4.2375
3.8125 0.8125 4.2375
4 0.8125 4.3
4 0.875 4.2375
3.9375 0.875 4.3
4 0.8125 4.2375
3.9375 0.8125 4.3
3.9375 0.875 4.2375
3.9375 0.8125 4.2375
0.125 0.9375 4.3
0 0.9375 4.3
0.125 1 4.2375
0.0625 1 4.3
0 1 4.2375
0.125 0.9375 4.2375
0.0625 0.9375 4.3
0 0.9375 4.2375
0.0625 1 4.2375
0.0625 0.9375 4.2375
0.25 0.9375 4.3
0.25 1 4.2375
0.1875 1 4.3
0.25 0.9375 4.2375
0.1875 0.9375 4.3
0.1875 1 4.2375
0.1875 0.9375 4.2375
0.375 0.9375 4.3
0.375 1 4.2375
0.3125 1 4.3
0.375 0.9375 4.2375
0.3125 0.9375 4.3
0.3125 1 4.2375
0.3125 0.9375 4.2375
0.5 0.9375 4.3
0.5 1 4.2375
0.4375 1 4.3
0.5 0.9375 4.2375
0.4375 0.9375 4.3
0.4375 1 4.2375
0.4375 0.9375 4.2375
0.625 0.9375 4.3
0.625 1 4.2375
0.5625 1 4.3
0.625 0.9375 4.2375
0.5625 0.9375 4.3
0.5625 1 4.2375
0.5625 0.9375 4.2375
0.75 0.9375 4.3
0.75 1 4.2375
0.6875 1 4.3
0.75 0.9375 4.2375
0.6875 0.9375 4.3
0.6875 1 4.2375
0.6875 0.9375 4.2375
0.875 0.9375 4.3
0.875 1 4.2375
0.8125 1 4.3
0.875 0.9375 4.2375
0.8125 0.9375 4.3
0.8125 1 4.2375
0.8125 0.9375 4.2375
1 0.9375 4.3
1 1 4.2375
0.9375 1 4.3
1 0.9375 4.2375
0.9375 0.9375 4.3
0.9375 1 4.2375
0.9375 0.9375 4.2375
1.125 0.9375 4.3
1.125 1 4.2375
1.0625 1 4.3
1.125 0.9375 4.2375
1.0625 0.9375 4.3
1.0625 1 4.2375
1.0625 0.9375 4.2375
1.25 0.9375 4.3
1.25 1 4.2375
1.1875 1 4.3
1.25 0.9375 4.2375
1.1875 0.9375 4.3
1.1875 1 4.2375
1.1875 0.9375 4.2375
1.375 0.9375 4.3
1.375 1 4.2375
1.3125 1 4.3
1.375 0.9375 4.2375
1.3125 0.9375 4.3
1.3125 1 4.2375
1.3125 0.9375 4.2375
1.5 0.9375 4.3
1.5 1 4.2375
1.4375 1 4.3
1.5 0.9375 4.2375
1.4375 0.9375 4.3
1.4375 1 4.2375
1.4375 0.9375 4.2375
1.625 0.9375 4.3
1.625 1 4.2375
1.5625 1 4.3
1.625 0.9375 4.2375
1.5625 0.9375 4.3
1.5625 1 4.2375
1.5625 0.9375 4.2375
1.75 0.9375 4.3
1.75 1 4.2375
1.6875 1 4.3
1.75 0.9375 4.2375
1.6875 0.9375 4.3
1.6875 1 4.2375
1.6875 0.9375 4.2375
1.875 0.9375 4.3
1.875 1 4.2375
1.8125 1 4.3
1.875 0.9375 4.2375
1.8125 0.9375 4.3
1.8125 1 4.2375
1.8125 0.9375 4.2375
2 0.9375 4.3
2 1 4.2375
1.9375 1 4.3
2 0.9375 4.2375
1.9375 0.9375 4.3
1.9375 1 4.2375
1.9375 0.9375 4.2375
2.125 0.9375 4.3
2.125 1 4.2375
2.0625 1 4.3
2.125 0.9375 4.2375
2.0625 0.9375 4.3
2.0625 1 4.2375
2.0625 0.9375 4.2375
2.25 0.9375 4.3
2.25 1 4.2375
2.1875 1 4.3
2.25 0.9375 4.2375
2.1875 0.9375 4.3
2.1875 1 4.2375
2.1875 0.9375 4.2375
2.375 0.9375 4.3
2.375 1 4.2375
2.3125 1 4.3
2.375 0.9375 4.2375
2.3125 0.9375 4.3
2.3125 1 4.2375
2.3125 0.9375 4.2375
2.5 0.9375 4.3
2.5 1 4.2375
2.4375 1 4.3
2.5 0.9375 4.2375
2.4375 0.9375 4.3
2.4375 1 4.2375
2.4375 0.9375 4.2375
2.625 0.9375 4.3
2.625 1 4.2375
2.5625 1 4.3
2.625 0.9375 4.2375
2.5625 0.9375 4.3
2.5625 1 4.2375
2.5625 0.9375 4.2375
2.75 0.9375 4.3
2.75 1 4.2375
2.6875 1 4.3
2.75 0.9375 4.2375
2.6875 0.9375 4.3
2.6875 1 4.2375
2.6875 0.9375 4.2375
2.875 0.9375 4.3
2.875 1 4.2375
2.8125 1 4.3
2.875 0.9375 4.2375
2.8125 0.9375 4.3
2.8125 1 4.2375
2.8125 0.9375 4.2375
3 0.9375 4.3
3 1 4.2375
2.9375 1 4.3
3 0.9375 4.2375
2.9375 0.9375 4.3
2.9375 1 4.2375
2.9375 0.9375 4.2375
3.125 0.9375 4.3
3.125 1 4.2375
3.0625 1 4.3
3.125 0.9375 4.2375
3.0625 0.9375 4.3
3.0625 1 4.2375
3.0625 0.9375 4.2375
3.25 0.9375 4.3
3.25 1 4.2375
3.1875 1 4.3
3.25 0.9375 4.2375
3.1875 0.9375 4.3
3.1875 1 4.2375
3.1875 0.9375 4.2375
3.375 0.9375 4.3
3.375 1 4.2375
3.3125 1 4.3
3.375 0.9375 4.2375
3.3125 0.9375 4.3
3.3125 1 4.2375
3.3125 0.9375 4.2375
3.5 0.9375 4.3
3.5 1 4.2375
3.4375 1 4.3
3.5 0.9375 4.2375
3.4375 0.9375 4.3
3.4375 1 4.2375
3.4375 0.9375 4.2375
3.625 0.9375 4.3
3.625 1 4.2375
3.5625 1 4.3
3.625 0.9375 4.2375
3.5625 0.9375 4.3
3.5625 1 4.2375
3.5625 0.9375 4.2375
3.75 0.9375 4.3
3.75 1 4.2375
3.6875 1 4.3
3.75 0.9375 4.2375
3.6875 0.9375 4.3
3.6875 1 4.2375
3.6875 0.9375 4.2375
3.875 0.9375 4.3
3.875 1 4.2375
3.8125 1 4.3
3.875 0.9375 4.2375
3.8125 0.9375 4.3
3.8125 1 4.2375
3.8125 0.9375 4.2375
4 0.9375 4.3
4 1 4.2375
3.9375 1 4.3
4 0.9375 4.2375
3.9375 0.9375 4.3
3.9375 1 4.2375
3.9375 0.9375 4.2375

CELLS 2049 55296
OFFSETS vtktypeint64
0 27 54 81 108 135 162 189 216 243 270 297 324 351 378 405 432 459 486 513 540 567 594 621 648 675 702 729 756 783 810 837 864 891 918 945 972 999 1026 1053 1080 1107 1134 1161 1188 1215 1242 1269 1296 1323 1350 1377 1404 1431 1458 1485 1512 1539 1566 1593 1620 1647 1674 1701 1728 1755 1782 1809 1836 1863 1890 1917 1944 1971 1998 2025 2052 2079 2106 2133 2160 2187 2214 2241 2268 2295 2322 2349 2376 2403 2430 2457 2484 2511 2538 2565 2592 2619 2646 2673 2700 2727 2754 2781 2808 2835 2862 2889 2916 2943 2970 2997 3024 3051 3078 3105 3132 3159 3186 3213 3240 3267 3294 3321 3348 3375 3402 3429 3456 3483 3510 3537 3564 3591 3618 3645 3672 3699 3726 3753 3780 3807 3834 3861 3888 3915 3942 3969 3996 4023 4050 4077 4104 4131 4158 4185 4212 4239 4266 4293 4320 4347 4374 4401 4428 4455 4482 4509 4536 4563 4590 4617 4644 4671 4698 4725 4752 4779 4806 4833 4860 4887 4914 4941 4968 4995 5022 5049 5076 5103 5130 5157 5184 5211 5238 5265 5292 5319 5346 5373 5400 5427 5454 5481 5508 5535 5562 5589 5616 5643 5670 5697 5724 5751 5778 5805 5832 5859 5886 5913 5940 5967 5994 6021 6048 6075 6102 6129 6156 6183 6210 6237 6264 6291 6318 6345 6372 6399 6426 6453 6480 6507 6534 6561 6588 6615 6642 6669 6696 6723 6750 6777 6804 6831 6858 6885 6912 6939 6966 6993 7020 7047 7074 7101 7128 7155 7182 7209 7236 7263 7290 7317 7344 7371 7398 7425 7452 7479 7506 7533 7560 7587 7614 7641 7668 7695 7722 7749 7776 7803 7830 7857 7884 7911 7938 7965 7992 8019 8046 8073 8100 8127 8154 8181 8208 8235 8262 8289 8316 8343 8370 8397 8424 8451 8478 8505 8532 8559 8586 8613 8640 8667 8694 8721 8748 8775 8802 8829 8856 8883 8910 8937 8964 8991 9018 9045 9072 9099 9126 9153 9180 9207 9234 9261 9288 9315 9342 9369 9396 9423 9450 9477 9504 9531 9558 9585 9612 9639 9666 9693 9720 9747 9774 9801 9828 9855 9882 9909 9936 9963 9990 10017 10044 10071 10098 10125 10152 10179 10206 10233 10260 10287 10314 10341 10368 10395 10422 10449 10476 10503 10530 10557 10584 10611 10638 10665 10692 10719 10746 10773 10800 10827 10854 10881 10908 10935 10962 10989 11016 11043 11070 11097 11124 11151 11178 11205 11232 11259 11286 11313 11340 11367 11394 11421 11448 11475 11502 11529 11556 11583 11610 11637 11664 11691 11718 11745 11772 11799 11826 11853 11880 11907 11934 11961 11988 12015 12042 12069 12096 12123 12150 12177 12204 12231 12258 12285 12312 12339 12366 12393 12420 12447 12474 12501 12528 12555 12582 12609 12636 12663 12690 12717 12744 12771 12798 12825 12852 12879 12906 12933 12960 12987 13014 13041 13068 13095 13122 13149 13176 13203 13230 13257 13284 13311 13338 13365 13392 13419 13446 13473 13500 13527 13554 13581 13608 13635 13662 13689 13716 13743 13770 13797 13824 13851 13878 13905 13932 13959 13986 14013 14040 14067 14094 14121 14148 14175 14202 14229 14256 14283 14310 14337 14364 14391 14418 14445 14472 14499 14526 14553 14580 14607 14634 14661 14688 14715 14742 14769 14796 14823 14850 14877 14904 14931 14958 14985 15012 15039 15066 15093 15120 15147 15174 15201 15228 15255 15282 15309 15336 15363 15390 15417 15444 15471 15498 15525 15552 15579 15606 15633 15660 15687 15714 15741 15768 15795 15822 15849 15876 15903 15930 15957 15984 16011 16038 16065 16092 16119 16146 16173 16200 16227 16254 16281 16308 16335 16362 16389 16416 16443 16470 16497 16524 16551 16578 16605 16632 16659 16686 16713 16740 16767 16794 16821 16848 16875 16902 16929 16956 16983 17010 17037 17064 17091 17118 17145 17172 17199 17226 17253 17280 17307 17334 17361 17388 17415 17442 17469 17496 17523 17550 17577 17604 17631 17658 17685 17712 17739 17766 17793 17820 17847 17874 17901 17928 17955 17982 18009 18036 18063 18090 18117 18144 18171 18198 18225 18252 18279 18306 18333 18360 18387 18414 18441 18468 18495 18522 18549 18576 18603 18630 18657 18684 18711 18738 18765 18792 18819 18846 18873 18900 18927 18954 18981 19008 19035 19062 19089 19116 19143 19170 19197 19224 19251 19278 19305 19332 19359 19386 19413 19440 19467 19494 19521 19548 19575 19602 19629 19656 19683 19710 19737 19764 19791 19818 19845 19872 19899 19926 19953 19980 20007 20034 20061 20088 20115 20142 20169 20196 20223 20250 20277 20304 20331 20358 20385 20412 20439 20466 20493 20520 20547 20574 20601 20628 20655 20682 20709 20736 20763 20790 20817 20844 20871 20898 20925 20952 20979 21006 21033 21060 21087 21114 21141 21168 21195 21222 21249 21276 21303 21330 21357 21384 21411 21438 21465 21492 21519 21546 21573 21600 21627 21654 21681 21708 21735 21762 21789 21816 21843 21870 21897 21924 21951 21978 22005 22032 22059 22086 22113 22140 22167 22194 22221 22248 22275 22302 22329 22356 22383 22410 22437 22464 22491 22518 22545 22572 22599 22626 22653 22680 22707 22734 22761 22788 22815 22842 22869 22896 22923 22950 22977 23004 23031 23058 23085 23112 23139 23166 23193 23220 23247 23274 23301 23328 23355 23382 23409 23436 23463 23490 23517 23544 23571 23598 23625 23652 23679 23706 23733 23760 23787 23814 23841 23868 23895 23922 23949 23976 24003 24030 24057 24084 24111 24138 24165 24192 24219 24246 24273 24300 24327 24354 24381 24408 24435 24462 24489 24516 24543 24570 24597 24624 24651 24678 24705 24732 24759 24786 24813 24840 24867 24894 24921 24948 24975 25002 25029 25056 25083 25110 25137 25164 25191 25218 25245 25272 25299 25326 25353 25380 25407 25434 25461 25488 25515 25542 25569 25596 25623 25650 25677 25704 25731 25758 25785 25812 25839 25866 25893 25920 25947 25974 26001 26028 26055 26082 26109 26136 26163 26190 26217 26244 26271 26298 26325 26352 26379 26406 26433 26460 26487 26514 26541 26568 26595 26622 26649 26676 26703 26730 26757 26784 26811 26838 26865 26892 26919 26946 26973 27000 27027 27054 27081 27108 27135 27162 27189 27216 27243 27270 27297 27324 27351 27378 27405 27432 27459 27486 27513 27540 27567 27594 27621 27648 27675 27702 27729 27756 27783 27810 27837 27864 27891 27918 27945 27972 27999 28026 28053 28080 28107 28134 28161 28188 28215 28242 28269 28296 28323 28350 28377 28404 28431 28458 28485 28512 28539 28566 28593 28620 28647 28674 28701 28728 28755 28782 28809 28836 28863 28890 28917 28944 28971 28998 29025 29052 29079 29106 29133 29160 29187 29214 29241 29268 29295 29322 29349 29376 29403 29430 29457 29484 29511 29538 29565 29592 29619 29646 29673 29700 29727 29754 29781 29808 29835 29862 29889 29916 29943 29970 29997 30024 30051 30078 30105 30132 30159 30186 30213 30240 30267 30294 30321 30348 30375 30402 30429 30456 30483 30510 30537 30564 30591 30618 30645 30672 30699 30726 30753 30780 30807 30834 30861 30888 30915 30942 30969 30996 31023 31050 31077 31104 31131 31158 31185 31212 31239 31266 31293 31320 31347 31374 31401 31428 31455 31482 31509 31536 31563 31590 31617 31644 31671 31698 31725 31752 31779 31806 31833 31860 31887 31914 31941 31968 31995 32022 32049 32076 32103 32130 32157 32184 32211 32238 32265 32292 32319 32346 32373 32400 32427 32454 32481 32508 32535 32562 32589 32616 32643 32670 32697 32724 32751 32778 32805 32832 32859 32886 32913 32940 32967 32994 33021 33048 33075 33102 33129 33156 33183 33210 33237 33264 33291 33318 33345 33372 33399 33426 33453 33480 33507 33534 33561 33588 33615 33642 33669 33696 33723 33750 33777 33804 33831 33858 33885 33912 33939 33966 33993 34020 34047 34074 34101 34128 34155 34182 34209 34236 34263 34290 34317 34344 34371 34398 34425 34452 34479 34506 34533 34560 34587 34614 34641 34668 34695 34722 34749 34776 34803 34830 34857 34884 34911 34938 34965 34992 35019 35046 35073 35100 35127 35154 35181 35208 35235 35262 35289 35316 35343 35370 35397 35424 35451 35478 35505 35532 35559 35586 35613 35640 35667 35694 35721 35748 35775 35802 35829 35856 35883 35910 35937 35964 35991 36018 36045 36072 36099 36126 36153 36180 36207 36234 36261 36288 36315 36342 36369 36396 36423 36450 36477 36504 36531 36558 36585 36612 36639 36666 36693 36720 36747 36774 36801 36828 36855 36882 36909 36936 36963 36990 37017 37044 37071 37098 37125 37152 37179 37206 37233 37260 37287 37314 37341 37368 37395 37422 37449 37476 37503 37530 37557 37584 37611 37638 37665 37692 37719 37746 37773 37800 37827 37854 37881 37908 37935 37962 37989 38016 38043 38070 38097 38124 38151 38178 38205 38232 38259 38286 38313 38340 38367 38394 38421 38448 38475 38502 38529 38556 38583 38610 38637 38664 38691 38718 38745 38772 38799 38826 38853 38880 38907 38934 38961 38988 39015 39042 39069 39096 39123 39150 39177 39204 39231 39258 39285 39312 39339 39366 39393 39420 39447 39474 39501 39528 39555 39582 39609 39636 39663 39690 39717 39744 39771 39798 39825 39852 39879 39906 39933 39960 39987 40014 40041 40068 40095 40122 40149 40176 40203 40230 40257 40284 40311 40338 40365 40392 40419 40446 40473 40500 40527 40554 40581 40608 40635 40662 40689 40716 40743 40770 40797 40824 40851 40878 40905 40932 40959 40986 41013 41040 41067 41094 41121 41148 41175 41202 41229 41256 41283 41310 41337 41364 41391 41418 41445 41472 41499 41526 41553 41580 41607 41634 41661 41688 41715 41742 41769 41796 41823 41850 41877 41904 41931 41958 41985 42012 42039 42066 42093 42120 42147 42174 42201 42228 42255 42282 42309 42336 42363 42390 42417 42444 42471 42498 42525 42552 42579 42606 42633 42660 42687 42714 42741 42768 42795 42822 42849 42876 42903 42930 42957 42984 43011 43038 43065 43092 43119 43146 43173 43200 43227 43254 43281 43308 43335 43362 43389 43416 43443 43470 43497 43524 43551 43578 43605 43632 43659 43686 43713 43740 43767 43794 43821 43848 43875 43902 43929 43956 43983 44010 44037 44064 44091 44118 44145 44172 44199 44226 44253 44280 44307 44334 44361 44388 44415 44442 44469 44496 44523 44550 44577 44604 44631 44658 44685 44712 44739 44766 44793 44820 44847 44874 44901 44928 44955 44982 45009 45036 45063 45090 45117 45144 45171 45198 45225 45252 45279 45306 45333 45360 45387 45414 45441 45468 45495 45522 45549 45576 45603 45630 45657 45684 45711 45738 45765 45792 45819 45846 45873 45900 45927 45954 45981 46008 46035 46062 46089 46116 46143 46170 46197 46224 46251 46278 46305 46332 46359 46386 46413 46440 46467 46494 46521 46548 46575 46602 46629 46656 46683 46710 46737 46764 46791 46818 46845 46872 46899 46926 46953 46980 47007 47034 47061 47088 47115 47142 47169 47196 47223 47250 47277 47304 47331 47358 47385 47412 47439 47466 47493 47520 47547 47574 47601 47628 47655 47682 47709 47736 47763 47790 47817 47844 47871 47898 47925 47952 47979 48006 48033 48060 48087 48114 48141 48168 48195 48222 48249 48276 48303 48330 48357 48384 48411 48438 48465 48492 48519 48546 48573 48600 48627 48654 48681 48708 48735 48762 48789 48816 48843 48870 48897 48924 48951 48978 49005 49032 49059 49086 49113 49140 49167 49194 49221 49248 49275 49302 49329 49356 49383 49410 49437 49464 49491 49518 49545 49572 49599 49626 49653 49680 49707 49734 49761 49788 49815 49842 49869 49896 49923 49950 49977 50004 50031 50058 50085 50112 50139 50166 50193 50220 50247 50274 50301 50328 50355 50382 50409 50436 50463 50490 50517 50544 50571 50598 50625 50652 50679 50706 50733 50760 50787 50814 50841 50868 50895 50922 50949 50976 51003 51030 51057 51084 51111 51138 51165 51192 51219 51246 51273 51300 51327 51354 51381 51408 51435 51462 51489 51516 51543 51570 51597 51624 51651 51678 51705 51732 51759 51786 51813 51840 51867 51894 51921 51948 51975 52002 52029 52056 52083 52110 52137 52164 52191 52218 52245 52272 52299 52326 52353 52380 52407 52434 52461 52488 52515 52542 52569 52596 52623 52650 52677 52704 52731 52758 52785 52812 52839 52866 52893 52920 52947 52974 53001 53028 53055 53082 53109 53136 53163 53190 53217 53244 53271 53298 53325 53352 53379 53406 53433 53460 53487 53514 53541 53568 53595 53622 53649 53676 53703 53730 53757 53784 53811 53838 53865 53892 53919 53946 53973 54000 54027 54054 54081 54108 54135 54162 54189 54216 54243 54270 54297 54324 54351 54378 54405 54432 54459 54486 54513 54540 54567 54594 54621 54648 54675 54702 54729 54756 54783 54810 54837 54864 54891 54918 54945 54972 54999 55026 55053 55080 55107 55134 55161 55188 55215 55242 55269 55296 
CONNECTIVITY vtktypeint64
0 1 298 297 33 34 331 330 2673 2674 2675 2676 2681 2682 2683 2684 2677 2678 2679 2680 2689 2687 2686 2688 2685 2690 2691 
1 2 299 298 34 35 332 331 2692 2693 2694 2674 2697 2698 2699 2682 2678 2695 2696 2679 2687 2702 2701 2703 2700 2704 2705 
2 3 300 299 35 36 333 332 2706 2707 2708 2693 2711 2712 2713 2698 2695 2709 2710 2696 2702 2716 2715 2717 2714 2718 2719 
3 4 301 300 36 37 334 333 2720 2721 2722 2707 2725 2726 2727 2712 2709 2723 2724 2710 2716 2730 2729 2731 2728 2732 2733 
4 5 302 301 37 38 335 334 2734 2735 2736 2721 2739 2740 2741 2726 2723 2737 2738 2724 2730 2744 2743 2745 2742 2746 2747 
5 6 303 302 38 39 336 335 2748 2749 2750 2735 2753 2754 2755 2740 2737 2751 2752 2738 2744 2758 2757 2759 2756 2760 2761 
6 7 304 303 39 40 337 336 2762 2763 2764 2749 2767 2768 2769 2754 2751 2765 2766 2752 2758 2772 2771 2773 2770 2774 2775 
7 8 305 304 40 41 338 337 2776 2777 2778 2763 2781 2782 2783 2768 2765 2779 2780 2766 2772 2786 2785 2787 2784 2788 2789 
8 9 306 305 41 42 339 338 2790 2791 2792 2777 2795 2796 2797 2782 2779 2793 2794 2780 2786 2800 2799 2801 2798 2802 2803 
9 10 307 306 42 43 340 339 2804 2805 2806 2791 2809 2810 2811 2796 2793 2807 2808 2794 2800 2814 2813 2815 2812 2816 2817 
10 11 308 307 43 44 341 340 2818 2819 2820 2805 2823 2824 2825 2810 2807 2821 2822 2808 2814 2828 2827 2829 2826 2830 2831 
11 12 309 308 44 45 342 341 2832 2833 2834 2819 2837 2838 2839 2824 2821 2835 2836 2822 2828 2842 2841 2843 2840 2844 2845 
12 13 310 309 45 46 343 342 2846 2847 2848 2833 2851 2852 2853 2838 2835 2849 2850 2836 2842 2856 2855 2857 2854 2858 2859 
13 14 311 310 46 47 344 343 2860 2861 2862 2847 2865 2866 2867 2852 2849 2863 2864 2850 2856 2870 2869 2871 2868 2872 2873 
14 15 312 311 47 48 345 344 2874 2875 2876 2861 2879 2880 2881 2866 2863 2877 2878 2864 2870 2884 2883 2885 2882 2886 2887 
15 16 313 312 48 49 346 345 2888 2889 2890 2875 2893 2894 2895 2880 2877 2891 2892 2878 2884 2898 2897 2899 2896 2900 2901 
16 17 314 313 49 50 347 346 2902 2903 2904 2889 2907 2908 2909 2894 2891 2905 2906 2892 2898 2912 2911 2913 2910 2914 2915 
17 18 315 314 50 51 348 347 2916 2917 2918 2903 2921 2922 2923 2908 2905 2919 2920 2906 2912 2926 2925 2927 2924 2928 2929 
18 19 316 315 51 52 349 348 2930 2931 2932 2917 2935 2936 2937 2922 2919 2933 2934 2920 2926 2940 2939 2941 2938 2942 2943 
19 20 317 316 52 53 350 349 2944 2945 2946 2931 2949 2950 2951 2936 2933 2947 2948 2934 2940 2954 2953 2955 2952 2956 2957 
20 21 318 317 53 54 351 350 2958 2959 2960 2945 2963 2964 2965 2950 2947 2961 2962 2948 2954 2968 2967 2969 2966 2970 2971 
21 22 319 318 54 55 352 351 2972 2973 2974 2959 2977 2978 2979 2964 2961 2975 2976 2962 2968 2982 2981 2983 2980 2984 2985 
22 23 320 319 55 56 353 352 2986 2987 2988 2973 2991 2992 2993 2978 2975 2989 2990 2976 2982 2996 2995 2997 2994 2998 2999 
23 24 321 320 56 57 354 353 3000 3001 3002 2987 3005 3006 3007 2992 2989 3003 3004 2990 2996 3010 3009 3011 3008 3012 3013 
24 25 322 321 57 58 355 354 3014 3015 3016 3001 3019 3020 3021 3006 3003 3017 3018 3004 3010 3024 3023 3025 3022 3026 3027 
25 26 323 322 58 59 356 355 3028 3029 3030 3015 3033 3034 3035 3020 3017 3031 3032 3018 3024 3038 3037 3039 3036 3040 3041 
26 27 324 323 59 60 357 356 3042 3043 3044 3029 3047 3048 3049 3034 3031 3045 3046 3032 3038 3052 3051 3053 3050 3054 3055 
27 28 325 324 60 61 358 357 3056 3057 3058 3043 3061 3062 3063 3048 3045 3059 3060 3046 3052 3066 3065 3067 3064 3068 3069 
28 29 326 325 61 62 359 358 3070 3071 3072 3057 3075 3076 3077 3062 3059 3073 3074 3060 3066 3080 3079 3081 3078 3082 3083 
29 30 327 326 62 63 360 359 3084 3085 3086 3071 3089 3090 3091 3076 3073 3087 3088 3074 3080 3094 3093 3095 3092 3096 3097 
30 31 328 327 63 64 361 360 3098 3099 3100 3085 3103 3104 3105 3090 3087 3101 3102 3088 3094 3108 3107 3109 3106 3110 3111 
31 32 329 328 64 65 362 361 3112 3113 3114 3099 3117 3118 3119 3104 3101 3115 3116 3102 3108 3122 3121 3123 3120 3124 3125 
33 34 331 330 66 67 364 363 2681 2682 2683 2684 3130 3131 3132 3133 3126 3127 3128 3129 3137 3135 3134 3136 2690 3138 3139 
34 35 332 331 67 68 365 364 2697 2698 2699 2682 3142 3143 3144 3131 3127 3140 3141 3128 3135 3146 3145 3147 2704 3148 3149 
35 36 333 332 68 69 366 365 2711 2712 2713 2698 3152 3153 3154 3143 3140 3150 3151 3141 3146 3156 3155 3157 2718 3158 3159 
36 37 334 333 69 70 367 366 2725 2726 2727 2712 3162 3163 3164 3153 3150 3160 3161 3151 3156 3166 3165 3167 2732 3168 3169 
37 38 335 334 70 71 368 367 2739 2740 2741 2726 3172 3173 3174 3163 3160 3170 3171 3161 3166 3176 3175 3177 2746 3178 3179 
38 39 336 335 71 72 369 368 2753 2754 2755 2740 3182 3183 3184 3173 3170 3180 3181 3171 3176 3186 3185 3187 2760 3188 3189 
39 40 337 336 72 73 370 369 2767 2768 2769 2754 3192 3193 3194 3183 3180 3190 3191 3181 3186 3196 3195 3197 2774 3198 3199 
40 41 338 337 73 74 371 370 2781 2782 2783 2768 3202 3203 3204 3193 3190 3200 3201 3191 3196 3206 3205 3207 2788 3208 3209 
41 42 339 338 74 75 372 371 2795 2796 2797 2782 3212 3213 3214 3203 3200 3210 3211 3201 3206 3216 3215 3217 2802 3218 3219 
42 43 340 339 75 76 373 372 2809 2810 2811 2796 3222 3223 3224 3213 3210 3220 3221 3211 3216 3226 3225 3227 2816 3228 3229 
43 44 341 340 76 77 374 373 2823 2824 2825 2810 3232 3233 3234 3223 3220 3230 3231 3221 3226 3236 3235 3237 2830 3238 3239 
44 45 342 341 77 78 375 374 2837 2838 2839 2824 3242 3243 3244 3233 3230 3240 3241 3231 3236 3246 3245 3247 2844 3248 3249 
45 46 343 342 78 79 376 375 2851 2852 2853 2838 3252 3253 3254 3243 3240 3250 3251 3241 3246 3256 3255 3257 2858 3258 3259 
46 47 344 343 79 80 377 376 2865 2866 2867 2852 3262 3263 3264 3253 3250 3260 3261 3251 3256 3266 3265 3267 2872 3268 3269 
47 48 345 344 80 81 378 377 2879 2880 2881 2866 3272 3273 3274 3263 3260 3270 3271 3261 3266 3276 3275 3277 2886 3278 3279 
48 49 346 345 81 82 379 378 2893 2894 2895 2880 3282 3283 3284 3273 3270 3280 3281 3271 3276 3286 3285 3287 2900 3288 3289 
49 50 347 346 82 83 380 379 2907 2908 2909 2894 3292 3293 3294 3283 3280 3290 3291 3281 3286 3296 3295 3297 2914 3298 3299 
50 51 348 347 83 84 381 380 2921 2922 2923 2908 3302 3303 3304 3293 3290 3300 3301 3291 3296 3306 3305 3307 2928 3308 3309 
51 52 349 348 84 85 382 381 2935 2936 2937 2922 3312 3313 3314 3303 3300 3310 3311 3301 3306 3316 3315 3317 2942 3318 3319 
52 53 350 349 85 86 383 382 2949 2950 2951 2936 3322 3323 3324 3313 3310 3320 3321 3311 3316 3326 3325 3327 2956 3328 3329 
53 54 351 350 86 87 384 383 2963 2964 2965 2950 3332 3333 3334 3323 3320 3330 3331 3321 3326 3336 3335 3337 2970 3338 3339 
54 55 352 351 87 88 385 384 2977 2978 2979 2964 3342 3343 3344 3333 3330 3340 3341 3331 3336 3346 3345 3347 2984 3348 3349 
55 56 353 352 88 89 386 385 2991 2992 2993 2978 3352 3353 3354 3343 3340 3350 3351 3341 3346 3356 3355 3357 2998 3358 3359 
56 57 354 353 89 90 387 386 3005 3006 3007 2992 3362 3363 3364 3353 3350 3360 3361 3351 3356 3366 3365 3367 3012 3368 3369 
57 58 355 354 90 91 388 387 3019 3020 3021 3006 3372 3373 3374 3363 3360 3370 3371 3361 3366 3376 3375 3377 3026 3378 3379 
58 59 356 355 91 92 389 388 3033 3034 3035 3020 3382 3383 3384 3373 3370 3380 3381 3371 3376 3386 3385 3387 3040 3388 3389 
59 60 357 356 92 93 390 389 3047 3048 3049 3034 3392 3393 3394 3383 3380 3390 3391 3381 3386 3396 3395 3397 3054 3398 3399 
60 61 358 357 93 94 391 390 3061 3062 3063 3048 3402 3403 3404 3393 3390 3400 3401 3391 3396 3406 3405 3407 3068 3408 3409 
61 62 359 358 94 95 392 391 3075 3076 3077 3062 3412 3413 3414 3403 3400 3410 3411 3401 3406 3416 3415 3417 3082 3418 3419 
62 63 360 359 95 96 393 392 3089 3090 3091 3076 3422 3423 3424 3413 3410 3420 3421 3411 3416 3426 3425 3427 3096 3428 3429 
63 64 361 360 96 97 394 393 3103 3104 3105 3090 3432 3433 3434 3423 3420 3430 3431 3421 3426 3436 3435 3437 3110 3438 3439 
64 65 362 361 97 98 395 394 3117 3118 3119 3104 3442 3443 3444 3433 3430 3440 3441 3431 3436 3446 3445 3447 3124 3448 3449 
66 67 364 363 99 100 397 396 3130 3131 3132 3133 3454 3455 3456 3457 3450 3451 3452 3453 3461 3459 3458 3460 3138 3462 3463 
67 68 365 364 100 101 398 397 3142 3143 3144 3131 3466 3467 3468 3455 3451 3464 3465 3452 3459 3470 3469 3471 3148 3472 3473 
68 69 366 365 101 102 399 398 3152 3153 3154 3143 3476 3477 3478 3467 3464 3474 3475 3465 3470 3480 3479 3481 3158 3482 3483 
69 70 367 366 102 103 400 399 3162 3163 3164 3153 3486 3487 3488 3477 3474 3484 3485 3475 3480 3490 3489 3491 3168 3492 3493 
70 71 368 367 103 104 401 400 3172 3173 3174 3163 3496 3497 3498 3487 3484 3494 3495 3485 3490 3500 3499 3501 3178 3502 3503 
71 72 369 368 104 105 402 401 3182 3183 3184 3173 3506 3507 3508 3497 3494 3504 3505 3495 3500 3510 3509 3511 3188 3512 3513 
72 73 370 369 105 106 403 402 3192 3193 3194 3183 3516 3517 3518 3507 3504 3514 3515 3505 3510 3520 3519 3521 3198 3522 3523 
73 74 371 370 106 107 404 403 3202 3203 3204 3193 3526 3527 3528 3517 3514 3524 3525 3515 3520 3530 3529 3531 3208 3532 3533 
74 75 372 371 107 108 405 404 3212 3213 3214 3203 3536 3537 3538 3527 3524 3534 3535 3525 3530 3540 3539 3541 3218 3542 3543 
75 76 373 372 108 109 406 405 3222 3223 3224 3213 3546 3547 3548 3537 3534 3544 3545 3535 3540 3550 3549 3551 3228 3552 3553 
76 77 374 373 109 110 407 406 3232 3233 3234 3223 3556 3557 3558 3547 3544 3554 3555 3545 3550 3560 3559 3561 3238 3562 3563 
77 78 375 374 110 111 408 407 3242 3243 3244 3233 3566 3567 3568 3557 3554 3564 3565 3555 3560 3570 3569 3571 3248 3572 3573 
78 79 376 375 111 112 409 408 3252 3253 3254 3243 3576 3577 3578 3567 3564 3574 3575 3565 3570 3580 3579 3581 3258 3582 3583 
79 80 377 376 112 113 410 409 3262 3263 3264 3253 3586 3587 3588 3577 3574 3584 3585 3575 3580 3590 3589 3591 3268 3592 3593 
80 81 378 377 113 114 411 410 3272 3273 3274 3263 3596 3597 3598 3587 3584 3594 3595 3585 3590 3600 3599 3601 3278 3602 3603 
81 82 379 378 114 115 412 411 3282 3283 3284 3273 3606 3607 3608 3597 3594 3604 3605 3595 3600 3610 3609 3611 3288 3612 3613 
82 83 380 379 115 116 413 412 3292 3293 3294 3283 3616 3617 3618 3607 3604 3614 3615 3605 3610 3620 3619 3621 3298 3622 3623 
83 84 381 380 116 117 414 413 3302 3303 3304 3293 3626 3627 3628 3617 3614 3624 3625 3615 3620 3630 3629 3631 3308 3632 3633 
84 85 382 381 117 118 415 414 3312 3313 3314 3303 3636 3637 3638 3627 3624 3634 3635 3625 3630 3640 3639 3641 3318 3642 3643 
85 86 383 382 118 119 416 415 3322 3323 3324 3313 3646 3647 3648 3637 3634 3644 3645 3635 3640 3650 3649 3651 3328 3652 3653 
86 87 384 383 119 120 417 416 3332 3333 3334 3323 3656 3657 3658 3647 3644 3654 3655 3645 3650 3660 3659 3661 3338 3662 3663 
87 88 385 384 120 121 418 417 3342 3343 3344 3333 3666 3667 3668 3657 3654 3664 3665 3655 3660 3670 3669 3671 3348 3672 3673 
88 89 386 385 121 122 419 418 3352 3353 3354 3343 3676 3677 3678 3667 3664 3674 3675 3665 3670 3680 3679 3681 3358 3682 3683 
89 90 387 386 122 123 420 419 3362 3363 3364 3353 3686 3687 3688 3677 3674 3684 3685 3675 3680 3690 3689 3691 3368 3692 3693 
90 91 388 387 123 124 421 420 3372 3373 3374 3363 3696 3697 3698 3687 3684 3694 3695 3685 3690 3700 3699 3701 3378 3702 3703 
91 92 389 388 124 125 422 421 3382 3383 3384 3373 3706 3707 3708 3697 3694 3704 3705 3695 3700 3710 3709 3711 3388 3712 3713 
92 93 390 389 125 126 423 422 3392 3393 3394 3383 3716 3717 3718 3707 3704 3714 3715 3705 3710 3720 3719 3721 3398 3722 3723 
93 94 391 390 126 127 424 423 3402 3403 3404 3393 3726 3727 3728 3717 3714 3724 3725 3715 3720 3730 3729 3731 3408 3732 3733 
94 95 392 391 127 128 425 424 3412 3413 3414 3403 3736 3737 3738 3727 3724 3734 3735 3725 3730 3740 3739 3741 3418 3742 3743 
95 96 393 392 128 129 426 425 3422 3423 3424 3413 3746 3747 3748 3737 3734 3744 3745 3735 3740 3750 3749 3751 3428 3752 3753 
96 97 394 393 129 130 427 426 3432 3433 3434 3423 3756 3757 3758 3747 3744 3754 3755 3745 3750 3760 3759 3761 3438 3762 3763 
97 98 395 394 130 131 428 427 3442 3443 3444 3433 3766 3767 3768 3757 3754 3764 3765 3755 3760 3770 3769 3771 3448 3772 3773 
99 100 397 396 132 133 430 429 3454 3455 3456 3457 3778 3779 3780 3781 3774 3775 3776 3777 3785 3783 3782 3784 3462 3786 3787 
100 101 398 397 133 134 431 430 3466 3467 3468 3455 3790 3791 3792 3779 3775 3788 3789 3776 3783 3794 3793 3795 3472 3796 3797 
101 102 399 398 134 135 432 431 3476 3477 3478 3467 3800 3801 3802 3791 3788 3798 3799 3789 3794 3804 3803 3805 3482 3806 3807 
102 103 400 399 135 136 433 432 3486 3487 3488 3477 3810 3811 3812 3801 3798 3808 3809 3799 3804 3814 3813 3815 3492 3816 3817 
103 104 401 400 136 137 434 433 3496 3497 3498 3487 3820 3821 3822 3811 3808 3818 3819 3809 3814 3824 3823 3825 3502 3826 3827 
104 105 402 401 137 138 435 434 3506 3507 3508 3497 3830 3831 3832 3821 3818 3828 3829 3819 3824 3834 3833 3835 3512 3836 3837 
105 106 403 402 138 139 436 435 3516 3517 3518 3507 3840 3841 3842 3831 3828 3838 3839 3829 3834 3844 3843 3845 3522 3846 3847 
106 107 404 403 139 140 437 436 3526 3527 3528 3517 3850 3851 3852 3841 3838 3848 3849 3839 3844 3854 3853 3855 3532 3856 3857 
107 108 405 404 140 141 438 437 3536 3537 3538 3527 3860 3861 3862 3851 3848 3858 3859 3849 3854 3864 3863 3865 3542 3866 3867 
108 109 406 405 141 142 439 438 3546 3547 3548 3537 3870 3871 3872 3861 3858 3868 3869 3859 3864 3874 3873 3875 3552 3876 3877 
109 110 407 406 142 143 440 439 3556 3557 3558 3547 3880 3881 3882 3871 3868 3878 3879 3869 3874 3884 3883 3885 3562 3886 3887 
110 111 408 407 143 144 441 440 3566 3567 3568 3557 3890 3891 3892 3881 3878 3888 3889 3879 3884 3894 3893 3895 3572 3896 3897 
111 112 409 408 144 145 442 441 3576 3577 3578 3567 3900 3901 3902 3891 3888 3898 3899 3889 3894 3904 3903 3905 3582 3906 3907 
112 113 410 409 145 146 443 442 3586 3587 3588 3577 3910 3911 3912 3901 3898 3908 3909 3899 3904 3914 3913 3915 3592 3916 3917 
113 114 411 410 146 147 444 443 3596 3597 3598 3587 3920 3921 3922 3911 3908 3918 3919 3909 3914 3924 3923 3925 3602 3926 3927 
114 115 412 411 147 148 445 444 3606 3607 3608 3597 3930 3931 3932 3921 3918 3928 3929 3919 3924 3934 3933 3935 3612 3936 3937 
115 116 413 412 148 149 446 445 3616 3617 3618 3607 3940 3941 3942 3931 3928 3938 3939 3929 3934 3944 3943 3945 3622 3946 3947 
116 117 414 413 149 150 447 446 3626 3627 3628 3617 3950 3951 3952 3941 3938 3948 3949 3939 3944 3954 3953 3955 3632 3956 3957 
117 118 415 414 150 151 448 447 3636 3637 3638 3627 3960 3961 3962 3951 3948 3958 3959 3949 3954 3964 3963 3965 3642 3966 3967 
118 119 416 415 151 152 449 448 3646 3647 3648 3637 3970 3971 3972 3961 3958 3968 3969 3959 3964 3974 3973 3975 3652 3976 3977 
119 120 417 416 152 153 450 449 3656 3657 3658 3647 3980 3981 3982 3971 3968 3978 3979 3969 3974 3984 3983 3985 3662 3986 3987 
120 121 418 417 153 154 451 450 3666 3667 3668 3657 3990 3991 3992 3981 3978 3988 3989 3979 3984 3994 3993 3995 3672 3996 3997 
121 122 419 418 154 155 452 451 3676 3677 3678 3667 4000 4001 4002 3991 3988 3998 3999 3989 3994 4004 4003 4005 3682 4006 4007 
122 123 420 419 155 156 453 452 3686 3687 3688 3677 4010 4011 4012 4001 3998 4008 4009 3999 4004 4014 4013 4015 3692 4016 4017 
123 124 421 420 156 157 454 453 3696 3697 3698 3687 4020 4021 4022 4011 4008 4018 4019 4009 4014 4024 4023 4025 3702 4026 4027 
124 125 422 421 157 158 455 454 3706 3707 3708 3697 4030 4031 4032 4021 4018 4028 4029 4019 4024 4034 4033 4035 3712 4036 4037 
125 126 423 422 158 159 456 455 3716 3717 3718 3707 4040 4041 4042 4031 4028 4038 4039 4029 4034 4044 4043 4045 3722 4046 4047 
126 127 424 423 159 160 457 456 3726 3727 3728 3717 4050 4051 4052 4041 4038 4048 4049 4039 4044 4054 4053 4055 3732 4056 4057 
127 128 425 424 160 161 458 457 3736 3737 3738 3727 4060 4061 4062 4051 4048 4058 4059 4049 4054 4064 4063 4065 3742 4066 4067 
128 129 426 425 161 162 459 458 3746 3747 3748 3737 4070 4071 4072 4061 4058 4068 4069 4059 4064 4074 4073 4075 3752 4076 4077 
129 130 427 426 162 163 460 459 3756 3757 3758 3747 4080 4081 4082 4071 4068 4078 4079 4069 4074 4084 4083 4085 3762 4086 4087 
130 131 428 427 163 164 461 460 3766 3767 3768 3757 4090 4091 4092 4081 4078 4088 4089 4079 4084 4094 4093 4095 3772 4096 4097 
132 133 430 429 165 166 463 462 3778 3779 3780 3781 4102 4103 4104 4105 4098 4099 4100 4101 4109 4107 4106 4108 3786 4110 4111 
133 134 431 430 166 167 464 463 3790 3791 3792 3779 4114 4115 4116 4103 4099 4112 4113 4100 4107 4118 4117 4119 3796 4120 4121 
134 135 432 431 167 168 465 464 3800 3801 3802 3791 4124 4125 4126 4115 4112 4122 4123 4113 4118 4128 4127 4129 3806 4130 4131 
135 136 433 432 168 169 466 465 3810 3811 3812 3801 4134 4135 4136 4125 4122 4132 4133 4123 4128 4138 4137 4139 3816 4140 4141 
136 137 434 433 169 170 467 466 3820 3821 3822 3811 4144 4145 4146 4135 4132 4142 4143 4133 4138 4148 4147 4149 3826 4150 4151 
137 138 435 434 170 171 468 467 3830 3831 3832 3821 4154 4155 4156 4145 4142 4152 4153 4143 4148 4158 4157 4159 3836 4160 4161 
138 139 436 435 171 172 469 468 3840 3841 3842 3831 4164 4165 4166 4155 4152 4162 4163 4153 4158 4168 4167 4169 3846 4170 4171 
139 140 437 436 172 173 470 469 3850 3851 3852 3841 4174 4175 4176 4165 4162 4172 4173 4163 4168 4178 4177 4179 3856 4180 4181 
140 141 438 437 173 174 471 470 3860 3861 3862 3851 4184 4185 4186 4175 4172 4182 4183 4173 4178 4188 4187 4189 3866 4190 4191 
141 142 439 438 174 175 472 471 3870 3871 3872 3861 4194 4195 4196 4185 4182 4192 4193 4183 4188 4198 4197 4199 3876 4200 4201 
142 143 440 439 175 176 473 472 3880 3881 3882 3871 4204 4205 4206 4195 4192 4202 4203 4193 4198 4208 4207 4209 3886 4210 4211 
143 144 441 440 176 177 474 473 3890 3891 3892 3881 4214 4215 4216 4205 4202 4212 4213 4203 4208 4218 4217 4219 3896 4220 4221 
144 145 442 441 177 178 475 474 3900 3901 3902 3891 4224 4225 4226 4215 4212 4222 4223 4213 4218 4228 4227 4229 3906 4230 4231 
145 146 443 442 178 179 476 475 3910 3911 3912 3901 4234 4235 4236 4225 4222 4232 4233 4223 4228 4238 4237 4239 3916 4240 4241 
146 147 444 443 179 180 477 476 3920 3921 3922 3911 4244 4245 4246 4235 4232 4242 4243 4233 4238 4248 4247 4249 3926 4250 4251 
147 148 445 444 180 181 478 477 3930 3931 3932 3921 4254 4255 4256 4245 4242 4252 4253 4243 4248 4258 4257 4259 3936 4260 4261 
148 149 446 445 181 182 479 478 3940 3941 3942 3931 4264 4265 4266 4255 4252 4262 4263 4253 4258 4268 4267 4269 3946 4270 4271 
149 150 447 446 182 183 480 479 3950 3951 3952 3941 4274 4275 4276 4265 4262 4272 4273 4263 4268 4278 4277 4279 3956 4280 4281 
150 151 448 447 183 184 481 480 3960 3961 3962 3951 4284 4285 4286 4275 4272 4282 4283 4273 4278 4288 4287 4289 3966 4290 4291 
151 152 449 448 184 185 482 481 3970 3971 3972 3961 4294 4295 4296 4285 4282 4292 4293 4283 4288 4298 4297 4299 3976 4300 4301 
152 153 450 449 185 186 483 482 3980 3981 3982 3971 4304 4305 4306 4295 4292 4302 4303 4293 4298 4308 4307 4309 3986 4310 4311 
153 154 451 450 186 187 484 483 3990 3991 3992 3981 4314 4315 4316 4305 4302 4312 4313 4303 4308 4318 4317 4319 3996 4320 4321 
154 155 452 451 187 188 485 484 4000 4001 4002 3991 4324 4325 4326 4315 4312 4322 4323 4313 4318 4328 4327 4329 4006 4330 4331 
155 156 453 452 188 189 486 485 4010 4011 4012 4001 4334 4335 4336 4325 4322 4332 4333 4323 4328 4338 4337 4339 4016 4340 4341 
156 157 454 453 189 190 487 486 4020 4021 4022 4011 4344 4345 4346 4335 4332 4342 4343 4333 4338 4348 4347 4349 4026 4350 4351 
157 158 455 454 190 191 488 487 4030 4031 4032 4021 4354 4355 4356 4345 4342 4352 4353 4343 4348 4358 4357 4359 4036 4360 4361 
158 159 456 455 191 192 489 488 4040 4041 4042 4031 4364 4365 4366 4355 4352 4362 4363 4353 4358 4368 4367 4369 4046 4370 4371 
159 160 457 456 192 193 490 489 4050 4051 4052 4041 4374 4375 4376 4365 4362 4372 4373 4363 4368 4378 4377 4379 4056 4380 4381 
160 161 458 457 193 194 491 490 4060 4061 4062 4051 4384 4385 4386 4375 4372 4382 4383 4373 4378 4388 4387 4389 4066 4390 4391 
161 162 459 458 194 195 492 491 4070 4071 4072 4061 4394 4395 4396 4385 4382 4392 4393 4383 4388 4398 4397 4399 4076 4400 4401 
162 163 460 459 195 196 493 492 4080 4081 4082 4071 4404 4405 4406 4395 4392 4402 4403 4393 4398 4408 4407 4409 4086 4410 4411 
163 164 461 460 196 197 494 493 4090 4091 4092 4081 4414 4415 4416 4405 4402 4412 4413 4403 4408 4418 4417 4419 4096 4420 4421 
165 166 463 462 198 199 496 495 4102 4103 4104 4105 4426 4427 4428 4429 4422 4423 4424 4425 4433 4431 4430 4432 4110 4434 4435 
166 167 464 463 199 200 497 496 4114 4115 4116 4103 4438 4439 4440 4427 4423 4436 4437 4424 4431 4442 4441 4443 4120 4444 4445 
167 168 465 464 200 201 498 497 4124 4125 4126 4115 4448 4449 4450 4439 4436 4446 4447 4437 4442 4452 4451 4453 4130 4454 4455 
168 169 466 465 201 202 499 498 4134 4135 4136 4125 4458 4459 4460 4449 4446 4456 4457 4447 4452 4462 4461 4463 4140 4464 4465 
169 170 467 466 202 203 500 499 4144 4145 4146 4135 4468 4469 4470 4459 4456 4466 4467 4457 4462 4472 4471 4473 4150 4474 4475 
170 171 468 467 203 204 501 500 4154 4155 4156 4145 4478 4479 4480 4469 4466 4476 4477 4467 4472 4482 4481 4483 4160 4484 4485 
171 172 469 468 204 205 502 501 4164 4165 4166 4155 4488 4489 4490 4479 4476 4486 4487 4477 4482 4492 4491 4493 4170 4494 4495 
172 173 470 469 205 206 503 502 4174 4175 4176 4165 4498 4499 4500 4489 4486 4496 4497 4487 4492 4502 4501 4503 4180 4504 4505 
173 174 471 470 206 207 504 503 4184 4185 4186 4175 4508 4509 4510 4499 4496 4506 4507 4497 4502 4512 4511 4513 4190 4514 4515 
174 175 472 471 207 208 505 504 4194 4195 4196 4185 4518 4519 4520 4509 4506 4516 4517 4507 4512 4522 4521 4523 4200 4524 4525 
175 176 473 472 208 209 506 505 4204 4205 4206 4195 4528 4529 4530 4519 4516 4526 4527 4517 4522 4532 4531 4533 4210 4534 4535 
176 177 474 473 209 210 507 506 4214 4215 4216 4205 4538 4539 4540 4529 4526 4536 4537 4527 4532 4542 4541 4543 4220 4544 4545 
177 178 475 474 210 211 508 507 4224 4225 4226 4215 4548 4549 4550 4539 4536 4546 4547 4537 4542 4552 4551 4553 4230 4554 4555 
178 179 476 475 211 212 509 508 4234 4235 4236 4225 4558 4559 4560 4549 4546 4556 4557 4547 4552 4562 4561 4563 4240 4564 4565 
179 180 477 476 212 213 510 509 4244 4245 4246 4235 4568 4569 4570 4559 4556 4566 4567 4557 4562 4572 4571 4573 4250 4574 4575 
180 181 478 477 213 214 511 510 4254 4255 4256 4245 4578 4579 4580 4569 4566 4576 4577 4567 4572 4582 4581 4583 4260 4584 4585 
181 182 479 478 214 215 512 511 4264 4265 4266 4255 4588 4589 4590 4579 4576 4586 4587 4577 4582 4592 4591 4593 4270 4594 4595 
182 183 480 479 215 216 513 512 4274 4275 4276 4265 4598 4599 4600 4589 4586 4596 4597 4587 4592 4602 4601 4603 4280 4604 4605 
183 184 481 480 216 217 514 513 4284 4285 4286 4275 4608 4609 4610 4599 4596 4606 4607 4597 4602 4612 4611 4613 4290 4614 4615 
184 185 482 481 217 218 515 514 4294 4295 4296 4285 4618 4619 4620 4609 4606 4616 4617 4607 4612 4622 4621 4623 4300 4624 4625 
185 186 483 482 218 219 516 515 4304 4305 4306 4295 4628 4629 4630 4619 4616 4626 4627 4617 4622 4632 4631 4633 4310 4634 4635 
186 187 484 483 219 220 517 516 4314 4315 4316 4305 4638 4639 4640 4629 4626 4636 4637 4627 4632 4642 4641 4643 4320 4644 4645 
187 188 485 484 220 221 518 517 4324 4325 4326 4315 4648 4649 4650 4639 4636 4646 4647 4637 4642 4652 4651 4653 4330 4654 4655 
188 189 486 485 221 222 519 518 4334 4335 4336 4325 4658 4659 4660 4649 4646 4656 4657 4647 4652 4662 4661 4663 4340 4664 4665 
189 190 487 486 222 223 520 519 4344 4345 4346 4335 4668 4669 4670 4659 4656 4666 4667 4657 4662 4672 4671 4673 4350 4674 4675 
190 191 488 487 223 224 521 520 4354 4355 4356 4345 4678 4679 4680 4669 4666 4676 4677 4667 4672 4682 4681 4683 4360 4684 4685 
191 192 489 488 224 225 522 521 4364 4365 4366 4355 4688 4689 4690 4679 4676 4686 4687 4677 4682 4692 4691 4693 4370 4694 4695 
192 193 490 489 225 226 523 522 4374 4375 4376 4365 4698 4699 4700 4689 4686 4696 4697 4687 4692 4702 4701 4703 4380 4704 4705 
193 194 491 490 226 227 524 523 4384 4385 4386 4375 4708 4709 4710 4699 4696 4706 4707 4697 4702 4712 4711 4713 4390 4714 4715 
194 195 492 491 227 228 525 524 4394 4395 4396 4385 4718 4719 4720 4709 4706 4716 4717 4707 4712 4722 4721 4723 4400 4724 4725 
195 196 493 492 228 229 526 525 4404 4405 4406 4395 4728 4729 4730 4719 4716 4726 4727 4717 4722 4732 4731 4733 4410 4734 4735 
196 197 494 493 229 230 527 526 4414 4415 4416 4405 4738 4739 4740 4729 4726 4736 4737 4727 4732 4742 4741 4743 4420 4744 4745 
198 199 496 495 231 232 529 528 4426 4427 4428 4429 4750 4751 4752 4753 4746 4747 4748 4749 4757 4755 4754 4756 4434 4758 4759 
199 200 497 496 232 233 530 529 4438 4439 4440 4427 4762 4763 4764 4751 4747 4760 4761 4748 4755 4766 4765 4767 4444 4768 4769 
200 201 498 497 233 234 531 530 4448 4449 4450 4439 4772 4773 4774 4763 4760 4770 4771 4761 4766 4776 4775 4777 4454 4778 4779 
201 202 499 498 234 235 532 531 4458 4459 4460 4449 4782 4783 4784 4773 4770 4780 4781 4771 4776 4786 4785 4787 4464 4788 4789 
202 203 500 499 235 236 533 532 4468 4469 4470 4459 4792 4793 4794 4783 4780 4790 4791 4781 4786 4796 4795 4797 4474 4798 4799 
203 204 501 500 236 237 534 533 4478 4479 4480 4469 4802 4803 4804 4793 4790 4800 4801 4791 4796 4806 4805 4807 4484 4808 4809 
204 205 502 501 237 238 535 534 4488 4489 4490 4479 4812 4813 4814 4803 4800 4810 4811 4801 4806 4816 4815 4817 4494 4818 4819 
205 206 503 502 238 239 536 535 4498 4499 4500 4489 4822 4823 4824 4813 4810 4820 4821 4811 4816 4826 4825 4827 4504 4828 4829 
206 207 504 503 239 240 537 536 4508 4509 4510 4499 4832 4833 4834 4823 4820 4830 4831 4821 4826 4836 4835 4837 4514 4838 4839 
207 208 505 504 240 241 538 537 4518 4519 4520 4509 4842 4843 4844 4833 4830 4840 4841 4831 4836 4846 4845 4847 4524 4848 4849 
208 209 506 505 241 242 539 538 4528 4529 4530 4519 4852 4853 4854 4843 4840 4850 4851 4841 4846 4856 4855 4857 4534 4858 4859 
209 210 507 506 242 243 540 539 4538 4539 4540 4529 4862 4863 4864 4853 4850 4860 4861 4851 4856 4866 4865 4867 4544 4868 4869 
210 211 508 507 243 244 541 540 4548 4549 4550 4539 4872 4873 4874 4863 4860 4870 4871 4861 4866 4876 4875 4877 4554 4878 4879 
211 212 509 508 244 245 542 541 4558 4559 4560 4549 4882 4883 4884 4873 4870 4880 4881 4871 4876 4886 4885 4887 4564 4888 4889 
212 213 510 509 245 246 543 542 4568 4569 4570 4559 4892 4893 4894 4883 4880 4890 4891 4881 4886 4896 4895 4897 4574 4898 4899 
213 214 511 510 246 247 544 543 4578 4579 4580 4569 4902 4903 4904 4893 4890 4900 4901 4891 4896 4906 4905 4907 4584 4908 4909 
214 215 512 511 247 248 545 544 4588 4589 4590 4579 4912 4913 4914 4903 4900 4910 4911 4901 4906 4916 4915 4917 4594 4918 4919 
215 216 513 512 248 249 546 545 4598 4599 4600 4589 4922 4923 4924 4913 4910 4920 4921 4911 4916 4926 4925 4927 4604 4928 4929 
216 217 514 513 249 250 547 546 4608 4609 4610 4599 4932 4933 4934 4923 4920 4930 4931 4921 4926 4936 4935 4937 4614 4938 4939 
217 218 515 514 250 251 548 547 4618 4619 4620 4609 4942 4943 4944 4933 4930 4940 4941 4931 4936 4946 4945 4947 4624 4948 4949 
218 219 516 515 251 252 549 548 4628 4629 4630 4619 4952 4953 4954 4943 4940 4950 4951 4941 4946 4956 4955 4957 4634 4958 4959 
219 220 517 516 252 253 550 549 4638 4639 4640 4629 4962 4963 4964 4953 4950 4960 4961 4951 4956 4966 4965 4967 4644 4968 4969 
220 221 518 517 253 254 551 550 4648 4649 4650 4639 4972 4973 4974 4963 4960 4970 4971 4961 4966 4976 4975 4977 4654 4978 4979 
221 222 519 518 254 255 552 551 4658 4659 4660 4649 4982 4983 4984 4973 4970 4980 4981 4971 4976 4986 4985 4987 4664 4988 4989 
222 223 520 519 255 256 553 552 4668 4669 4670 4659 4992 4993 4994 4983 4980 4990 4991 4981 4986 4996 4995 4997 4674 4998 4999 
223 224 521 520 256 257 554 553 4678 4679 4680 4669 5002 5003 5004 4993 4990 5000 5001 4991 4996 5006 5005 5007 4684 5008 5009 
224 225 522 521 257 258 555 554 4688 4689 4690 4679 5012 5013 5014 5003 5000 5010 5011 5001 5006 5016 5015 5017 4694 5018 5019 
225 226 523 522 258 259 556 555 4698 4699 4700 4689 5022 5023 5024 5013 5010 5020 5021 5011 5016 5026 5025 5027 4704 5028 5029 
226 227 524 523 259 260 557 556 4708 4709 4710 4699 5032 5033 5034 5023 5020 5030 5031 5021 5026 5036 5035 5037 4714 5038 5039 
227 228 525 524 260 261 558 557 4718 4719 4720 4709 5042 5043 5044 5033 5030 5040 5041 5031 5036 5046 5045 5047 4724 5048 5049 
228 229 526 525 261 262 559 558 4728 4729 4730 4719 5052 5053 5054 5043 5040 5050 5051 5041 5046 5056 5055 5057 4734 5058 5059 
229 230 527 526 262 263 560 559 4738 4739 4740 4729 5062 5063 5064 5053 5050 5060 5061 5051 5056 5066 5065 5067 4744 5068 5069 
231 232 529 528 264 265 562 561 4750 4751 4752 4753 5074 5075 5076 5077 5070 5071 5072 5073 5081 5079 5078 5080 4758 5082 5083 
232 233 530 529 265 266 563 562 4762 4763 4764 4751 5086 5087 5088 5075 5071 5084 5085 5072 5079 5090 5089 5091 4768 5092 5093 
233 234 531 530 266 267 564 563 4772 4773 4774 4763 5096 5097 5098 5087 5084 5094 5095 5085 5090 5100 5099 5101 4778 5102 5103 
234 235 532 531 267 268 565 564 4782 4783 4784 4773 5106 5107 5108 5097 5094 5104 5105 5095 5100 5110 5109 5111 4788 5112 5113 
235 236 533 532 268 269 566 565 4792 4793 4794 4783 5116 5117 5118 5107 5104 5114 5115 5105 5110 5120 5119 5121 4798 5122 5123 
236 237 534 533 269 270 567 566 4802 4803 4804 4793 5126 5127 5128 5117 5114 5124 5125 5115 5120 5130 5129 5131 4808 5132 5133 
237 238 535 534 270 271 568 567 4812 4813 4814 4803 5136 5137 5138 5127 5124 5134 5135 5125 5130 5140 5139 5141 4818 5142 5143 
238 239 536 535 271 272 569 568 4822 4823 4824 4813 5146 5147 5148 5137 5134 5144 5145 5135 5140 5150 5149 5151 4828 5152 5153 
239 240 537 536 272 273 570 569 4832 4833 4834 4823 5156 5157 5158 5147 5144 5154 5155 5145 5150 5160 5159 5161 4838 5162 5163 
240 241 538 537 273 274 571 570 4842 4843 4844 4833 5166 5167 5168 5157 5154 5164 5165 5155 5160 5170 5169 5171 4848 5172 5173 
241 242 539 538 274 275 572 571 4852 4853 4854 4843 5176 5177 5178 5167 5164 5174 5175 5165 5170 5180 5179 5181 4858 5182 5183 
242 243 540 539 275 276 573 572 4862 4863 4864 4853 5186 5187 5188 5177 5174 5184 5185 5175 5180 5190 5189 5191 4868 5192 5193 
243 244 541 540 276 277 574 573 4872 4873 4874 4863 5196 5197 5198 5187 5184 5194 5195 5185 5190 5200 5199 5201 4878 5202 5203 
244 245 542 541 277 278 575 574 4882 4883 4884 4873 5206 5207 5208 5197 5194 5204 5205 5195 5200 5210 5209 5211 4888 5212 5213 
245 246 543 542 278 279 576 575 4892 4893 4894 4883 5216 5217 5218 5207 5204 5214 5215 5205 5210 5220 5219 5221 4898 5222 5223 
246 247 544 543 279 280 577 576 4902 4903 4904 4893 5226 5227 5228 5217 5214 5224 5225 5215 5220 5230 5229 5231 4908 5232 5233 
247 248 545 544 280 281 578 577 4912 4913 4914 4903 5236 5237 5238 5227 5224 5234 5235 5225 5230 5240 5239 5241 4918 5242 5243 
248 249 546 545 281 282 579 578 4922 4923 4924 4913 5246 5247 5248 5237 5234 5244 5245 5235 5240 5250 5249 5251 4928 5252 5253 
249 250 547 546 282 283 580 579 4932 4933 4934 4923 5256 5257 5258 5247 5244 5254 5255 5245 5250 5260 5259 5261 4938 5262 5263 
250 251 548 547 283 284 581 580 4942 4943 4944 4933 5266 5267 5268 5257 5254 5264 5265 5255 5260 5270 5269 5271 4948 5272 5273 
251 252 549 548 284 285 582 581 4952 4953 4954 4943 5276 5277 5278 5267 5264 5274 5275 5265 5270 5280 5279 5281 4958 5282 5283 
252 253 550 549 285 286 583 582 4962 4963 4964 4953 5286 5287 5288 5277 5274 5284 5285 5275 5280 5290 5289 5291 4968 5292 5293 
253 254 551 550 286 287 584 583 4972 4973 4974 4963 5296 5297 5298 5287 5284 5294 5295 5285 5290 5300 5299 5301 4978 5302 5303 
254 255 552 551 287 288 585 584 4982 4983 4984 4973 5306 5307 5308 5297 5294 5304 5305 5295 5300 5310 5309 5311 4988 5312 5313 
255 256 553 552 288 289 586 585 4992 4993 4994 4983 5316 5317 5318 5307 5304 5314 5315 5305 5310 5320 5319 5321 4998 5322 5323 
256 257 554 553 289 290 587 586 5002 5003 5004 4993 5326 5327 5328 5317 5314 5324 5325 5315 5320 5330 5329 5331 5008 5332 5333 
257 258 555 554 290 291 588 587 5012 5013 5014 5003 5336 5337 5338 5327 5324 5334 5335 5325 5330 5340 5339 5341 5018 5342 5343 
258 259 556 555 291 292 589 588 5022 5023 5024 5013 5346 5347 5348 5337 5334 5344 5345 5335 5340 5350 5349 5351 5028 5352 5353 
259 260 557 556 292 293 590 589 5032 5033 5034 5023 5356 5357 5358 5347 5344 5354 5355 5345 5350 5360 5359 5361 5038 5362 5363 
260 261 558 557 293 294 591 590 5042 5043 5044 5033 5366 5367 5368 5357 5354 5364 5365 5355 5360 5370 5369 5371 5048 5372 5373 
261 262 559 558 294 295 592 591 5052 5053 5054 5043 5376 5377 5378 5367 5364 5374 5375 5365 5370 5380 5379 5381 5058 5382 5383 
262 263 560 559 295 296 593 592 5062 5063 5064 5053 5386 5387 5388 5377 5374 5384 5385 5375 5380 5390 5389 5391 5068 5392 5393 
297 298 595 594 330 331 628 627 2675 5394 5395 5396 2683 5399 5400 5401 2680 2679 5397 5398 5405 5403 2688 5404 5402 5406 5407 
298 299 596 595 331 332 629 628 2694 5408 5409 5394 2699 5411 5412 5399 2679 2696 5410 5397 5403 5414 2703 5415 5413 5416 5417 
299 300 597 596 332 333 630 629 2708 5418 5419 5408 2713 5421 5422 5411 2696 2710 5420 5410 5414 5424 2717 5425 5423 5426 5427 
300 301 598 597 333 334 631 630 2722 5428 5429 5418 2727 5431 5432 5421 2710 2724 5430 5420 5424 5434 2731 5435 5433 5436 5437 
301 302 599 598 334 335 632 631 2736 5438 5439 5428 2741 5441 5442 5431 2724 2738 5440 5430 5434 5444 2745 5445 5443 5446 5447 
302 303 600 599 335 336 633 632 2750 5448 5449 5438 2755 5451 5452 5441 2738 2752 5450 5440 5444 5454 2759 5455 5453 5456 5457 
303 304 601 600 336 337 634 633 2764 5458 5459 5448 2769 5461 5462 5451 2752 2766 5460 5450 5454 5464 2773 5465 5463 5466 5467 
304 305 602 601 337 338 635 634 2778 5468 5469 5458 2783 5471 5472 5461 2766 2780 5470 5460 5464 5474 2787 5475 5473 5476 5477 
305 306 603 602 338 339 636 635 2792 5478 5479 5468 2797 5481 5482 5471 2780 2794 5480 5470 5474 5484 2801 5485 5483 5486 5487 
306 307 604 603 339 340 637 636 2806 5488 5489 5478 2811 5491 5492 5481 2794 2808 5490 5480 5484 5494 2815 5495 5493 5496 5497 
307 308 605 604 340 341 638 637 2820 5498 5499 5488 2825 5501 5502 5491 2808 2822 5500 5490 5494 5504 2829 5505 5503 5506 5507 
308 309 606 605 341 342 639 638 2834 5508 5509 5498 2839 5511 5512 5501 2822 2836 5510 5500 5504 5514 2843 5515 5513 5516 5517 
309 310 607 606 342 343 640 639 2848 5518 5519 5508 2853 5521 5522 5511 2836 2850 5520 5510 5514 5524 2857 5525 5523 5526 5527 
310 311 608 607 343 344 641 640 2862 5528 5529 5518 2867 5531 5532 5521 2850 2864 5530 5520 5524 5534 2871 5535 5533 5536 5537 
311 312 609 608 344 345 642 641 2876 5538 5539 5528 2881 5541 5542 5531 2864 2878 5540 5530 5534 5544 2885 5545 5543 5546 5547 
312 313 610 609 345 346 643 642 2890 5548 5549 5538 2895 5551 5552 5541 2878 2892 5550 5540 5544 5554 2899 5555 5553 5556 5557 
313 314 611 610 346 347 644 643 2904 5558 5559 5548 2909 5561 5562 5551 2892 2906 5560 5550 5554 5564 2913 5565 5563 5566 5567 
314 315 612 611 347 348 645 644 2918 5568 5569 5558 2923 5571 5572 5561 2906 2920 5570 5560 5564 5574 2927 5575 5573 5576 5577 
315 316 613 612 348 349 646 645 2932 5578 5579 5568 2937 5581 5582 5571 2920 2934 5580 5570 5574 5584 2941 5585 5583 5586 5587 
316 317 614 613 349 350 647 646 2946 5588 5589 5578 2951 5591 5592 5581 2934 2948 5590 5580 5584 5594 2955 5595 5593 5596 5597 
317 318 615 614 350 351 648 647 2960 5598 5599 5588 2965 5601 5602 5591 2948 2962 5600 5590 5594 5604 2969 5605 5603 5606 5607 
318 319 616 615 351 352 649 648 2974 5608 5609 5598 2979 5611 5612 5601 2962 2976 5610 5600 5604 5614 2983 5615 5613 5616 5617 
319 320 617 616 352 353 650 649 2988 5618 5619 5608 2993 5621 5622 5611 2976 2990 5620 5610 5614 5624 2997 5625 5623 5626 5627 
320 321 618 617 353 354 651 650 3002 5628 5629 5618 3007 5631 5632 5621 2990 3004 5630 5620 5624 5634 3011 5635 5633 5636 5637 
321 322 619 618 354 355 652 651 3016 5638 5639 5628 3021 5641 5642 5631 3004 3018 5640 5630 5634 5644 3025 5645 5643 5646 5647 
322 323 620 619 355 356 653 652 3030 5648 5649 5638 3035 5651 5652 5641 3018 3032 5650 5640 5644 5654 3039 5655 5653 5656 5657 
323 324 621 620 356 357 654 653 3044 5658 5659 5648 3049 5661 5662 5651 3032 3046 5660 5650 5654 5664 3053 5665 5663 5666 5667 
324 325 622 621 357 358 655 654 3058 5668 5669 5658 3063 5671 5672 5661 3046 3060 5670 5660 5664 5674 3067 5675 5673 5676 5677 
325 326 623 622 358 359 656 655 3072 5678 5679 5668 3077 5681 5682 5671 3060 3074 5680 5670 5674 5684 3081 5685 5683 5686 5687 
326 327 624 623 359 360 657 656 3086 5688 5689 5678 3091 5691 5692 5681 3074 3088 5690 5680 5684 5694 3095 5695 5693 5696 5697 
327 328 625 624 360 361 658 657 3100 5698 5699 5688 3105 5701 5702 5691 3088 3102 5700 5690 5694 5704 3109 5705 5703 5706 5707 
328 329 626 625 361 362 659 658 3114 5708 5709 5698 3119 5711 5712 5701 3102 3116 5710 5700 5704 5714 3123 5715 5713 5716 5717 
330 331 628 627 363 364 661 660 2683 5399 5400 5401 3132 5720 5721 5722 3129 3128 5718 5719 5725 5723 3136 5724 5406 5726 5727 
331 332 629 628 364 365 662 661 2699 5411 5412 5399 3144 5729 5730 5720 3128 3141 5728 5718 5723 5731 3147 5732 5416 5733 5734 
332 333 630 629 365 366 663 662 2713 5421 5422 5411 3154 5736 5737 5729 3141 3151 5735 5728 5731 5738 3157 5739 5426 5740 5741 
333 334 631 630 366 367 664 663 2727 5431 5432 5421 3164 5743 5744 5736 3151 3161 5742 5735 5738 5745 3167 5746 5436 5747 5748 
334 335 632 631 367 368 665 664 2741 5441 5442 5431 3174 5750 5751 5743 3161 3171 5749 5742 5745 5752 3177 5753 5446 5754 5755 
335 336 633 632 368 369 666 665 2755 5451 5452 5441 3184 5757 5758 5750 3171 3181 5756 5749 5752 5759 3187 5760 5456 5761 5762 
336 337 634 633 369 370 667 666 2769 5461 5462 5451 3194 5764 5765 5757 3181 3191 5763 5756 5759 5766 3197 5767 5466 5768 5769 
337 338 635 634 370 371 668 667 2783 5471 5472 5461 3204 5771 5772 5764 3191 3201 5770 5763 5766 5773 3207 5774 5476 5775 5776 
338 339 636 635 371 372 669 668 2797 5481 5482 5471 3214 5778 5779 5771 3201 3211 5777 5770 5773 5780 3217 5781 5486 5782 5783 
339 340 637 636 372 373 670 669 2811 5491 5492 5481 3224 5785 5786 5778 3211 3221 5784 5777 5780 5787 3227 5788 5496 5789 5790 
340 341 638 637 373 374 671 670 2825 5501 5502 5491 3234 5792 5793 5785 3221 3231 5791 5784 5787 5794 3237 5795 5506 5796 5797 
341 342 639 638 374 375 672 671 2839 5511 5512 5501 3244 5799 5800 5792 3231 3241 5798 5791 5794 5801 3247 5802 5516 5803 5804 
342 343 640 639 375 376 673 672 2853 5521 5522 5511 3254 5806 5807 5799 3241 3251 5805 5798 5801 5808 3257 5809 5526 5810 5811 
343 344 641 640 376 377 674 673 2867 5531 5532 5521 3264 5813 5814 5806 3251 3261 5812 5805 5808 5815 3267 5816 5536 5817 5818 
344 345 642 641 377 378 675 674 2881 5541 5542 5531 3274 5820 5821 5813 3261 3271 5819 5812 5815 5822 3277 5823 5546 5824 5825 
345 346 643 642 378 379 676 675 2895 5551 5552 5541 3284 5827 5828 5820 3271 3281 5826 5819 5822 5829 3287 5830 5556 5831 5832 
346 347 644 643 379 380 677 676 2909 5561 5562 5551 3294 5834 5835 5827 3281 3291 5833 5826 5829 5836 3297 5837 5566 5838 5839 
347 348 645 644 380 381 678 677 2923 5571 5572 5561 3304 5841 5842 5834 3291 3301 5840 5833 5836 5843 3307 5844 5576 5845 5846 
348 349 646 645 381 382 679 678 2937 5581 5582 5571 3314 5848 5849 5841 3301 3311 5847 5840 5843 5850 3317 5851 5586 5852 5853 
349 350 647 646 382 383 680 679 2951 5591 5592 5581 3324 5855 5856 5848 3311 3321 5854 5847 5850 5857 3327 5858 5596 5859 5860 
350 351 648 647 383 384 681 680 2965 5601 5602 5591 3334 5862 5863 5855 3321 3331 5861 5854 5857 5864 3337 5865 5606 5866 5867 
351 352 649 648 384 385 682 681 2979 5611 5612 5601 3344 5869 5870 5862 3331 3341 5868 5861 5864 5871 3347 5872 5616 5873 5874 
352 353 650 649 385 386 683 682 2993 5621 5622 5611 3354 5876 5877 5869 3341 3351 5875 5868 5871 5878 3357 5879 5626 5880 5881 
353 354 651 650 386 387 684 683 3007 5631 5632 5621 3364 5883 5884 5876 3351 3361 5882 5875 5878 5885 3367 5886 5636 5887 5888 
354 355 652 651 387 388 685 684 3021 5641 5642 5631 3374 5890 5891 5883 3361 3371 5889 5882 5885 5892 3377 5893 5646 5894 5895 
355 356 653 652 388 389 686 685 3035 5651 5652 5641 3384 5897 5898 5890 3371 3381 5896 5889 5892 5899 3387 5900 5656 5901 5902 
356 357 654 653 389 390 687 686 3049 5661 5662 5651 3394 5904 5905 5897 3381 3391 5903 5896 5899 5906 3397 5907 5666 5908 5909 
357 358 655 654 390 391 688 687 3063 5671 5672 5661 3404 5911 5912 5904 3391 3401 5910 5903 5906 5913 3407 5914 5676 5915 5916 
358 359 656 655 391 392 689 688 3077 5681 5682 5671 3414 5918 5919 5911 3401 3411 5917 5910 5913 5920 3417 5921 5686 5922 5923 
359 360 657 656 392 393 690 689 3091 5691 5692 5681 3424 5925 5926 5918 3411 3421 5924 5917 5920 5927 3427 5928 5696 5929 5930 
360 361 658 657 393 394 691 690 3105 5701 5702 5691 3434 5932 5933 5925 3421 3431 5931 5924 5927 5934 3437 5935 5706 5936 5937 
361 362 659 658 394 395 692 691 3119 5711 5712 5701 3444 5939 5940 5932 3431 3441 5938 5931 5934 5941 3447 5942 5716 5943 5944 
363 364 661 660 396 397 694 693 3132 5720 5721 5722 3456 5947 5948 5949 3453 3452 5945 5946 5952 5950 3460 5951 5726 5953 5954 
364 365 662 661 397 398 695 694 3144 5729 5730 5720 3468 5956 5957 5947 3452 3465 5955 5945 5950 5958 3471 5959 5733 5960 5961 
365 366 663 662 398 399 696 695 3154 5736 5737 5729 3478 5963 5964 5956 3465 3475 5962 5955 5958 5965 3481 5966 5740 5967 5968 
366 367 664 663 399 400 697 696 3164 5743 5744 5736 3488 5970 5971 5963 3475 3485 5969 5962 5965 5972 3491 5973 5747 5974 5975 
367 368 665 664 400 401 698 697 3174 5750 5751 5743 3498 5977 5978 5970 3485 3495 5976 5969 5972 5979 3501 5980 5754 5981 5982 
368 369 666 665 401 402 699 698 3184 5757 5758 5750 3508 5984 5985 5977 3495 3505 5983 5976 5979 5986 3511 5987 5761 5988 5989 
369 370 667 666 402 403 700 699 3194 5764 5765 5757 3518 5991 5992 5984 3505 3515 5990 5983 5986 5993 3521 5994 5768 5995 5996 
370 371 668 667 403 404 701 700 3204 5771 5772 5764 3528 5998 5999 5991 3515 3525 5997 5990 5993 6000 3531 6001 5775 6002 6003 
371 372 669 668 404 405 702 701 3214 5778 5779 5771 3538 6005 6006 5998 3525 3535 6004 5997 6000 6007 3541 6008 5782 6009 6010 
372 373 670 669 405 406 703 702 3224 5785 5786 5778 3548 6012 6013 6005 3535 3545 6011 6004 6007 6014 3551 6015 5789 6016 6017 
373 374 671 670 406 407 704 703 3234 5792 5793 5785 3558 6019 6020 6012 3545 3555 6018 6011 6014 6021 3561 6022 5796 6023 6024 
374 375 672 671 407 408 705 704 3244 5799 5800 5792 3568 6026 6027 6019 3555 3565 6025 6018 6021 6028 3571 6029 5803 6030 6031 
375 376 673 672 408 409 706 705 3254 5806 5807 5799 3578 6033 6034 6026 3565 3575 6032 6025 6028 6035 3581 6036 5810 6037 6038 
376 377 674 673 409 410 707 706 3264 5813 5814 5806 3588 6040 6041 6033 3575 3585 6039 6032 6035 6042 3591 6043 5817 6044 6045 
377 378 675 674 410 411 708 707 3274 5820 5821 5813 3598 6047 6048 6040 3585 3595 6046 6039 6042 6049 3601 6050 5824 6051 6052 
378 379 676 675 411 412 709 708 3284 5827 5828 5820 3608 6054 6055 6047 3595 3605 6053 6046 6049 6056 3611 6057 5831 6058 6059 
379 380 677 676 412 413 710 709 3294 5834 5835 5827 3618 6061 6062 6054 3605 3615 6060 6053 6056 6063 3621 6064 5838 6065 6066 
380 381 678 677 413 414 711 710 3304 5841 5842 5834 3628 6068 6069 6061 3615 3625 6067 6060 6063 6070 3631 6071 5845 6072 6073 
381 382 679 678 414 415 712 711 3314 5848 5849 5841 3638 6075 6076 6068 3625 3635 6074 6067 6070 6077 3641 6078 5852 6079 6080 
382 383 680 679 415 416 713 712 3324 5855 5856 5848 3648 6082 6083 6075 3635 3645 6081 6074 6077 6084 3651 6085 5859 6086 6087 
383 384 681 680 416 417 714 713 3334 5862 5863 5855 3658 6089 6090 6082 3645 3655 6088 6081 6084 6091 3661 6092 5866 6093 6094 
384 385 682 681 417 418 715 714 3344 5869 5870 5862 3668 6096 6097 6089 3655 3665 6095 6088 6091 6098 3671 6099 5873 6100 6101 
385 386 683 682 418 419 716 715 3354 5876 5877 5869 3678 6103 6104 6096 3665 3675 6102 6095 6098 6105 3681 6106 5880 6107 6108 
386 387 684 683 419 420 717 716 3364 5883 5884 5876 3688 6110 6111 6103 3675 3685 6109 6102 6105 6112 3691 6113 5887 6114 6115 
387 388 685 684 420 421 718 717 3374 5890 5891 5883 3698 6117 6118 6110 3685 3695 6116 6109 6112 6119 3701 6120 5894 6121 6122 
388 389 686 685 421 422 719 718 3384 5897 5898 5890 3708 6124 6125 6117 3695 3705 6123 6116 6119 6126 3711 6127 5901 6128 6129 
389 390 687 686 422 423 720 719 3394 5904 5905 5897 3718 6131 6132 6124 3705 3715 6130 6123 6126 6133 3721 6134 5908 6135 6136 
390 391 688 687 423 424 721 720 3404 5911 5912 5904 3728 6138 6139 6131 3715 3725 6137 6130 6133 6140 3731 6141 5915 6142 6143 
391 392 689 688 424 425 722 721 3414 5918 5919 5911 3738 6145 6146 6138 3725 3735 6144 6137 6140 6147 3741 6148 5922 6149 6150 
392 393 690 689 425 426 723 722 3424 5925 5926 5918 3748 6152 6153 6145 3735 3745 6151 6144 6147 6154 3751 6155 5929 6156 6157 
393 394 691 690 426 427 724 723 3434 5932 5933 5925 3758 6159 6160 6152 3745 3755 6158 6151 6154 6161 3761 6162 5936 6163 6164 
394 395 692 691 427 428 725 724 3444 5939 5940 5932 3768 6166 6167 6159 3755 3765 6165 6158 6161 6168 3771 6169 5943 6170 6171 
396 397 694 693 429 430 727 726 3456 5947 5948 5949 3780 6174 6175 6176 3777 3776 6172 6173 6179 6177 3784 6178 5953 6180 6181 
397 398 695 694 430 431 728 727 3468 5956 5957 5947 3792 6183 6184 6174 3776 3789 6182 6172 6177 6185 3795 6186 5960 6187 6188 
398 399 696 695 431 432 729 728 3478 5963 5964 5956 3802 6190 6191 6183 3789 3799 6189 6182 6185 6192 3805 6193 5967 6194 6195 
399 400 697 696 432 433 730 729 3488 5970 5971 5963 3812 6197 6198 6190 3799 3809 6196 6189 6192 6199 3815 6200 5974 6201 6202 
400 401 698 697 433 434 731 730 3498 5977 5978 5970 3822 6204 6205 6197 3809 3819 6203 6196 6199 6206 3825 6207 5981 6208 6209 
401 402 699 698 434 435 732 731 3508 5984 5985 5977 3832 6211 6212 6204 3819 3829 6210 6203 6206 6213 3835 6214 5988 6215 6216 
402 403 700 699 435 436 733 732 3518 5991 5992 5984 3842 6218 6219 6211 3829 3839 6217 6210 6213 6220 3845 6221 5995 6222 6223 
403 404 701 700 436 437 734 733 3528 5998 5999 5991 3852 6225 6226 6218 3839 3849 6224 6217 6220 6227 3855 6228 6002 6229 6230 
404 405 702 701 437 438 735 734 3538 6005 6006 5998 3862 6232 6233 6225 3849 3859 6231 6224 6227 6234 3865 6235 6009 6236 6237 
405 406 703 702 438 439 736 735 3548 6012 6013 6005 3872 6239 6240 6232 3859 3869 6238 6231 6234 6241 3875 6242 6016 6243 6244 
406 407 704 703 439 440 737 736 3558 6019 6020 6012 3882 6246 6247 6239 3869 3879 6245 6238 6241 6248 3885 6249 6023 6250 6251 
407 408 705 704 440 441 738 737 3568 6026 6027 6019 3892 6253 6254 6246 3879 3889 6252 6245 6248 6255 3895 6256 6030 6257 6258 
408 409 706 705 441 442 739 738 3578 6033 6034 6026 3902 6260 6261 6253 3889 3899 6259 6252 6255 6262 3905 6263 6037 6264 6265 
409 410 707 706 442 443 740 739 3588 6040 6041 6033 3912 6267 6268 6260 3899 3909 6266 6259 6262 6269 3915 6270 6044 6271 6272 
410 411 708 707 443 444 741 740 3598 6047 6048 6040 3922 6274 6275 6267 3909 3919 6273 6266 6269 6276 3925 6277 6051 6278 6279 
411 412 709 708 444 445 742 741 3608 6054 6055 6047 3932 6281 6282 6274 3919 3929 6280 6273 6276 6283 3935 6284 6058 6285 6286 
412 413 710 709 445 446 743 742 3618 6061 6062 6054 3942 6288 6289 6281 3929 3939 6287 6280 6283 6290 3945 6291 6065 6292 6293 
413 414 711 710 446 447 744 743 3628 6068 6069 6061 3952 6295 6296 6288 3939 3949 6294 6287 6290 6297 3955 6298 6072 6299 6300 
414 415 712 711 447 448 745 744 3638 6075 6076 6068 3962 6302 6303 6295 3949 3959 6301 6294 6297 6304 3965 6305 6079 6306 6307 
415 416 713 712 448 449 746 745 3648 6082 6083 6075 3972 6309 6310 6302 3959 3969 6308 6301 6304 6311 3975 6312 6086 6313 6314 
416 417 714 713 449 450 747 746 3658 6089 6090 6082 3982 6316 6317 6309 3969 3979 6315 6308 6311 6318 3985 6319 6093 6320 6321 
417 418 715 714 450 451 748 747 3668 6096 6097 6089 3992 6323 6324 6316 3979 3989 6322 6315 6318 6325 3995 6326 6100 6327 6328 
418 419 716 715 451 452 749 748 3678 6103 6104 6096 4002 6330 6331 6323 3989 3999 6329 6322 6325 6332 4005 6333 6107 6334 6335 
419 420 717 716 452 453 750 749 3688 6110 6111 6103 4012 6337 6338 6330 3999 4009 6336 6329 6332 6339 4015 6340 6114 6341 6342 
420 421 718 717 453 454 751 750 3698 6117 6118 6110 4022 6344 6345 6337 4009 4019 6343 6336 6339 6346 4025 6347 6121 6348 6349 
421 422 719 718 454 455 752 751 3708 6124 6125 6117 4032 6351 6352 6344 4019 4029 6350 6343 6346 6353 4035 6354 6128 6355 6356 
422 423 720 719 455 456 753 752 3718 6131 6132 6124 4042 6358 6359 6351 4029 4039 6357 6350 6353 6360 4045 6361 6135 6362 6363 
423 424 721 720 456 457 754 753 3728 6138 6139 6131 4052 6365 6366 6358 4039 4049 6364 6357 6360 6367 4055 6368 6142 6369 6370 
424 425 722 721 457 458 755 754 3738 6145 6146 6138 4062 6372 6373 6365 4049 4059 6371 6364 6367 6374 4065 6375 6149 6376 6377 
425 426 723 722 458 459 756 755 3748 6152 6153 6145 4072 6379 6380 6372 4059 4069 6378 6371 6374 6381 4075 6382 6156 6383 6384 
426 427 724 723 459 460 757 756 3758 6159 6160 6152 4082 6386 6387 6379 4069 4079 6385 6378 6381 6388 4085 6389 6163 6390 6391 
427 428 725 724 460 461 758 757 3768 6166 6167 6159 4092 6393 6394 6386 4079 4089 6392 6385 6388 6395 4095 6396 6170 6397 6398 
429 430 727 726 462 463 760 759 3780 6174 6175 6176 4104 6401 6402 6403 4101 4100 6399 6400 6406 6404 4108 6405 6180 6407 6408 
430 431 728 727 463 464 761 760 3792 6183 6184 6174 4116 6410 6411 6401 4100 4113 6409 6399 6404 6412 4119 6413 6187 6414 6415 
431 432 729 728 464 465 762 761 3802 6190 6191 6183 4126 6417 6418 6410 4113 4123 6416 6409 6412 6419 4129 6420 6194 6421 6422 
432 433 730 729 465 466 763 762 3812 6197 6198 6190 4136 6424 6425 6417 4123 4133 6423 6416 6419 6426 4139 6427 6201 6428 6429 
433 434 731 730 466 467 764 763 3822 6204 6205 6197 4146 6431 6432 6424 4133 4143 6430 6423 6426 6433 4149 6434 6208 6435 6436 
434 435 732 731 467 468 765 764 3832 6211 6212 6204 4156 6438 6439 6431 4143 4153 6437 6430 6433 6440 4159 6441 6215 6442 6443 
435 436 733 732 468 469 766 765 3842 6218 6219 6211 4166 6445 6446 6438 4153 4163 6444 6437 6440 6447 4169 6448 6222 6449 6450 
436 437 734 733 469 470 767 766 3852 6225 6226 6218 4176 6452 6453 6445 4163 4173 6451 6444 6447 6454 4179 6455 6229 6456 6457 
437 438 735 734 470 471 768 767 3862 6232 6233 6225 4186 6459 6460 6452 4173 4183 6458 6451 6454 6461 4189 6462 6236 6463 6464 
438 439 736 735 471 472 769 768 3872 6239 6240 6232 4196 6466 6467 6459 4183 4193 6465 6458 6461 6468 4199 6469 6243 6470 6471 
439 440 737 736 472 473 770 769 3882 6246 6247 6239 4206 6473 6474 6466 4193 4203 6472 6465 6468 6475 4209 6476 6250 6477 6478 
440 441 738 737 473 474 771 770 3892 6253 6254 6246 4216 6480 6481 6473 4203 4213 6479 6472 6475 6482 4219 6483 6257 6484 6485 
441 442 739 738 474 475 772 771 3902 6260 6261 6253 4226 6487 6488 6480 4213 4223 6486 6479 6482 6489 4229 6490 6264 6491 6492 
442 443 740 739 475 476 773 772 3912 6267 6268 6260 4236 6494 6495 6487 4223 4233 6493 6486 6489 6496 4239 6497 6271 6498 6499 
443 444 741 740 476 477 774 773 3922 6274 6275 6267 4246 6501 6502 6494 4233 4243 6500 6493 6496 6503 4249 6504 6278 6505 6506 
444 445 742 741 477 478 775 774 3932 6281 6282 6274 4256 6508 6509 6501 4243 4253 6507 6500 6503 6510 4259 6511 6285 6512 6513 
445 446 743 742 478 479 776 775 3942 6288 6289 6281 4266 6515 6516 6508 4253 4263 6514 6507 6510 6517 4269 6518 6292 6519 6520 
446 447 744 743 479 480 777 776 3952 6295 6296 6288 4276 6522 6523 6515 4263 4273 6521 6514 6517 6524 4279 6525 6299 6526 6527 
447 448 745 744 480 481 778 777 3962 6302 6303 6295 4286 6529 6530 6522 4273 4283 6528 6521 6524 6531 4289 6532 6306 6533 6534 
448 449 746 745 481 482 779 778 3972 6309 6310 6302 4296 6536 6537 6529 4283 4293 6535 6528 6531 6538 4299 6539 6313 6540 6541 
449 450 747 746 482 483 780 779 3982 6316 6317 6309 4306 6543 6544 6536 4293 4303 6542 6535 6538 6545 4309 6546 6320 6547 6548 
450 451 748 747 483 484 781 780 3992 6323 6324 6316 4316 6550 6551 6543 4303 4313 6549 6542 6545 6552 4319 6553 6327 6554 6555 
451 452 749 748 484 485 782 781 4002 6330 6331 6323 4326 6557 6558 6550 4313 4323 6556 6549 6552 6559 4329 6560 6334 6561 6562 
452 453 750 749 485 486 783 782 4012 6337 6338 6330 4336 6564 6565 6557 4323 4333 6563 6556 6559 6566 4339 6567 6341 6568 6569 
453 454 751 750 486 487 784 783 4022 6344 6345 6337 4346 6571 6572 6564 4333 4343 6570 6563 6566 6573 4349 6574 6348 6575 6576 
454 455 752 751 487 488 785 784 4032 6351 6352 6344 4356 6578 6579 6571 4343 4353 6577 6570 6573 6580 4359 6581 6355 6582 6583 
455 456 753 752 488 489 786 785 4042 6358 6359 6351 4366 6585 6586 6578 4353 4363 6584 6577 6580 6587 4369 6588 6362 6589 6590 
456 457 754 753 489 490 787 786 4052 6365 6366 6358 4376 6592 6593 6585 4363 4373 6591 6584 6587 6594 4379 6595 6369 6596 6597 
457 458 755 754 490 491 788 787 4062 6372 6373 6365 4386 6599 6600 6592 4373 4383 6598 6591 6594 6601 4389 6602 6376 6603 6604 
458 459 756 755 491 492 789 788 4072 6379 6380 6372 4396 6606 6607 6599 4383 4393 6605 6598 6601 6608 4399 6609 6383 6610 6611 
459 460 757 756 492 493 790 789 4082 6386 6387 6379 4406 6613 6614 6606 4393 4403 6612 6605 6608 6615 4409 6616 6390 6617 6618 
460 461 758 757 493 494 791 790 4092 6393 6394 6386 4416 6620 6621 6613 4403 4413 6619 6612 6615 6622 4419 6623 6397 6624 6625 
462 463 760 759 495 496 793 792 4104 6401 6402 6403 4428 6628 6629 6630 4425 4424 6626 6627 6633 6631 4432 6632 6407 6634 6635 
463 464 761 760 496 497 794 793 4116 6410 6411 6401 4440 6637 6638 6628 4424 4437 6636 6626 6631 6639 4443 6640 6414 6641 6642 
464 465 762 761 497 498 795 794 4126 6417 6418 6410 4450 6644 6645 6637 4437 4447 6643 6636 6639 6646 4453 6647 6421 6648 6649 
465 466 763 762 498 499 796 795 4136 6424 6425 6417 4460 6651 6652 6644 4447 4457 6650 6643 6646 6653 4463 6654 6428 6655 6656 
466 467 764 763 499 500 797 796 4146 6431 6432 6424 4470 6658 6659 6651 4457 4467 6657 6650 6653 6660 4473 6661 6435 6662 6663 
467 468 765 764 500 501 798 797 4156 6438 6439 6431 4480 6665 6666 6658 4467 4477 6664 6657 6660 6667 4483 6668 6442 6669 6670 
468 469 766 765 501 502 799 798 4166 6445 6446 6438 4490 6672 6673 6665 4477 4487 6671 6664 6667 6674 4493 6675 6449 6676 6677 
469 470 767 766 502 503 800 799 4176 6452 6453 6445 4500 6679 6680 6672 4487 4497 6678 6671 6674 6681 4503 6682 6456 6683 6684 
470 471 768 767 503 504 801 800 4186 6459 6460 6452 4510 6686 6687 6679 4497 4507 6685 6678 6681 6688 4513 6689 6463 6690 6691 
471 472 769 768 504 505 802 801 4196 6466 6467 6459 4520 6693 6694 6686 4507 4517 6692 6685 6688 6695 4523 6696 6470 6697 6698 
472 473 770 769 505 506 803 802 4206 6473 6474 6466 4530 6700 6701 6693 4517 4527 6699 6692 6695 6702 4533 6703 6477 6704 6705 
473 474 771 770 506 507 804 803 4216 6480 6481 6473 4540 6707 6708 6700 4527 4537 6706 6699 6702 6709 4543 6710 6484 6711 6712 
474 475 772 771 507 508 805 804 4226 6487 6488 6480 4550 6714 6715 6707 4537 4547 6713 6706 6709 6716 4553 6717 6491 6718 6719 
475 476 773 772 508 509 806 805 4236 6494 6495 6487 4560 6721 6722 6714 4547 4557 6720 6713 6716 6723 4563 6724 6498 6725 6726 
476 477 774 773 509 510 807 806 4246 6501 6502 6494 4570 6728 6729 6721 4557 4567 6727 6720 6723 6730 4573 6731 6505 6732 6733 
477 478 775 774 510 511 808 807 4256 6508 6509 6501 4580 6735 6736 6728 4567 4577 6734 6727 6730 6737 4583 6738 6512 6739 6740 
478 479 776 775 511 512 809 808 4266 6515 6516 6508 4590 6742 6743 6735 4577 4587 6741 6734 6737 6744 4593 6745 6519 6746 6747 
479 480 777 776 512 513 810 809 4276 6522 6523 6515 4600 6749 6750 6742 4587 4597 6748 6741 6744 6751 4603 6752 6526 6753 6754 
480 481 778 777 513 514 811 810 4286 6529 6530 6522 4610 6756 6757 6749 4597 4607 6755 6748 6751 6758 4613 6759 6533 6760 6761 
481 482 779 778 514 515 812 811 4296 6536 6537 6529 4620 6763 6764 6756 4607 4617 6762 6755 6758 6765 4623 6766 6540 6767 6768 
482 483 780 779 515 516 813 812 4306 6543 6544 6536 4630 6770 6771 6763 4617 4627 6769 6762 6765 6772 4633 6773 6547 6774 6775 
483 484 781 780 516 517 814 813 4316 6550 6551 6543 4640 6777 6778 6770 4627 4637 6776 6769 6772 6779 4643 6780 6554 6781 6782 
484 485 782 781 517 518 815 814 4326 6557 6558 6550 4650 6784 6785 6777 4637 4647 6783 6776 6779 6786 4653 6787 6561 6788 6789 
485 486 783 782 518 519 816 815 4336 6564 6565 6557 4660 6791 6792 6784 4647 4657 6790 6783 6786 6793 4663 6794 6568 6795 6796 
486 487 784 783 519 520 817 816 4346 6571 6572 6564 4670 6798 6799 6791 4657 4667 6797 6790 6793 6800 4673 6801 6575 6802 6803 
487 488 785 784 520 521 818 817 4356 6578 6579 6571 4680 6805 6806 6798 4667 4677 6804 6797 6800 6807 4683 6808 6582 6809 6810 
488 489 786 785 521 522 819 818 4366 6585 6586 6578 4690 6812 6813 6805 4677 4687 6811 6804 6807 6814 4693 6815 6589 6816 6817 
489 490 787 786 522 523 820 819 4376 6592 6593 6585 4700 6819 6820 6812 4687 4697 6818 6811 6814 6821 4703 6822 6596 6823 6824 
490 491 788 787 523 524 821 820 4386 6599 6600 6592 4710 6826 6827 6819 4697 4707 6825 6818 6821 6828 4713 6829 6603 6830 6831 
491 492 789 788 524 525 822 821 4396 6606 6607 6599 4720 6833 6834 6826 4707 4717 6832 6825 6828 6835 4723 6836 6610 6837 6838 
492 493 790 789 525 526 823 822 4406 6613 6614 6606 4730 6840 6841 6833 4717 4727 6839 6832 6835 6842 4733 6843 6617 6844 6845 
493 494 791 790 526 527 824 823 4416 6620 6621 6613 4740 6847 6848 6840 4727 4737 6846 6839 6842 6849 4743 6850 6624 6851 6852 
495 496 793 792 528 529 826 825 4428 6628 6629 6630 4752 6855 6856 6857 4749 4748 6853 6854 6860 6858 4756 6859 6634 6861 6862 
496 497 794 793 529 530 827 826 4440 6637 6638 6628 4764 6864 6865 6855 4748 4761 6863 6853 6858 6866 4767 6867 6641 6868 6869 
497 498 795 794 530 531 828 827 4450 6644 6645 6637 4774 6871 6872 6864 4761 4771 6870 6863 6866 6873 4777 6874 6648 6875 6876 
498 499 796 795 531 532 829 828 4460 6651 6652 6644 4784 6878 6879 6871 4771 4781 6877 6870 6873 6880 4787 6881 6655 6882 6883 
499 500 797 796 532 533 830 829 4470 6658 6659 6651 4794 6885 6886 6878 4781 4791 6884 6877 6880 6887 4797 6888 6662 6889 6890 
500 501 798 797 533 534 831 830 4480 6665 6666 6658 4804 6892 6893 6885 4791 4801 6891 6884 6887 6894 4807 6895 6669 6896 6897 
501 502 799 798 534 535 832 831 4490 6672 6673 6665 4814 6899 6900 6892 4801 4811 6898 6891 6894 6901 4817 6902 6676 6903 6904 
502 503 800 799 535 536 833 832 4500 6679 6680 6672 4824 6906 6907 6899 4811 4821 6905 6898 6901 6908 4827 6909 6683 6910 6911 
503 504 801 800 536 537 834 833 4510 6686 6687 6679 4834 6913 6914 6906 4821 4831 6912 6905 6908 6915 4837 6916 6690 6917 6918 
504 505 802 801 537 538 835 834 4520 6693 6694 6686 4844 6920 6921 6913 4831 4841 6919 6912 6915 6922 4847 6923 6697 6924 6925 
505 506 803 802 538 539 836 835 4530 6700 6701 6693 4854 6927 6928 6920 4841 4851 6926 6919 6922 6929 4857 6930 6704 6931 6932 
506 507 804 803 539 540 837 836 4540 6707 6708 6700 4864 6934 6935 6927 4851 4861 6933 6926 6929 6936 4867 6937 6711 6938 6939 
507 508 805 804 540 541 838 837 4550 6714 6715 6707 4874 6941 6942 6934 4861 4871 6940 6933 6936 6943 4877 6944 6718 6945 6946 
508 509 806 805 541 542 839 838 4560 6721 6722 6714 4884 6948 6949 6941 4871 4881 6947 6940 6943 6950 4887 6951 6725 6952 6953 
509 510 807 806 542 543 840 839 4570 6728 6729 6721 4894 6955 6956 6948 4881 4891 6954 6947 6950 6957 4897 6958 6732 6959 6960 
510 511 808 807 543 544 841 840 4580 6735 6736 6728 4904 6962 6963 6955 4891 4901 6961 6954 6957 6964 4907 6965 6739 6966 6967 
511 512 809 808 544 545 842 841 4590 6742 6743 6735 4914 6969 6970 6962 4901 4911 6968 6961 6964 6971 4917 6972 6746 6973 6974 
512 513 810 809 545 546 843 842 4600 6749 6750 6742 4924 6976 6977 6969 4911 4921 6975 6968 6971 6978 4927 6979 6753 6980 6981 
513 514 811 810 546 547 844 843 4610 6756 6757 6749 4934 6983 6984 6976 4921 4931 6982 6975 6978 6985 4937 6986 6760 6987 6988 
514 515 812 811 547 548 845 844 4620 6763 6764 6756 4944 6990 6991 6983 4931 4941 6989 6982 6985 6992 4947 6993 6767 6994 6995 
515 516 813 812 548 549 846 845 4630 6770 6771 6763 4954 6997 6998 6990 4941 4951 6996 6989 6992 6999 4957 7000 6774 7001 7002 
516 517 814 813 549 550 847 846 4640 6777 6778 6770 4964 7004 7005 6997 4951 4961 7003 6996 6999 7006 4967 7007 6781 7008 7009 
517 518 815 814 550 551 848 847 4650 6784 6785 6777 4974 7011 7012 7004 4961 4971 7010 7003 7006 7013 4977 7014 6788 7015 7016 
518 519 816 815 551 552 849 848 4660 6791 6792 6784 4984 7018 7019 7011 4971 4981 7017 7010 7013 7020 4987 7021 6795 7022 7023 
519 520 817 816 552 553 850 849 4670 6798 6799 6791 4994 7025 7026 7018 4981 4991 7024 7017 7020 7027 4997 7028 6802 7029 7030 
520 521 818 817 553 554 851 850 4680 6805 6806 6798 5004 7032 7033 7025 4991 5001 7031 7024 7027 7034 5007 7035 6809 7036 7037 
521 522 819 818 554 555 852 851 4690 6812 6813 6805 5014 7039 7040 7032 5001 5011 7038 7031 7034 7041 5017 7042 6816 7043 7044 
522 523 820 819 555 556 853 852 4700 6819 6820 6812 5024 7046 7047 7039 5011 5021 7045 7038 7041 7048 5027 7049 6823 7050 7051 
523 524 821 820 556 557 854 853 4710 6826 6827 6819 5034 7053 7054 7046 5021 5031 7052 7045 7048 7055 5037 7056 6830 7057 7058 
524 525 822 821 557 558 855 854 4720 6833 6834 6826 5044 7060 7061 7053 5031 5041 7059 7052 7055 7062 5047 7063 6837 7064 7065 
525 526 823 822 558 559 856 855 4730 6840 6841 6833 5054 7067 7068 7060 5041 5051 7066 7059 7062 7069 5057 7070 6844 7071 7072 
526 527 824 823 559 560 857 856 4740 6847 6848 6840 5064 7074 7075 7067 5051 5061 7073 7066 7069 7076 5067 7077 6851 7078 7079 
528 529 826 825 561 562 859 858 4752 6855 6856 6857 5076 7082 7083 7084 5073 5072 7080 7081 7087 7085 5080 7086 6861 7088 7089 
529 530 827 826 562 563 860 859 4764 6864 6865 6855 5088 7091 7092 7082 5072 5085 7090 7080 7085 7093 5091 7094 6868 7095 7096 
530 531 828 827 563 564 861 860 4774 6871 6872 6864 5098 7098 7099 7091 5085 5095 7097 7090 7093 7100 5101 7101 6875 7102 7103 
531 532 829 828 564 565 862 861 4784 6878 6879 6871 5108 7105 7106 7098 5095 5105 7104 7097 7100 7107 5111 7108 6882 7109 7110 
532 533 830 829 565 566 863 862 4794 6885 6886 6878 5118 7112 7113 7105 5105 5115 7111 7104 7107 7114 5121 7115 6889 7116 7117 
533 534 831 830 566 567 864 863 4804 6892 6893 6885 5128 7119 7120 7112 5115 5125 7118 7111 7114 7121 5131 7122 6896 7123 7124 
534 535 832 831 567 568 865 864 4814 6899 6900 6892 5138 7126 7127 7119 5125 5135 7125 7118 7121 7128 5141 7129 6903 7130 7131 
535 536 833 832 568 569 866 865 4824 6906 6907 6899 5148 7133 7134 7126 5135 5145 7132 7125 7128 7135 5151 7136 6910 7137 7138 
536 537 834 833 569 570 867 866 4834 6913 6914 6906 5158 7140 7141 7133 5145 5155 7139 7132 7135 7142 5161 7143 6917 7144 7145 
537 538 835 834 570 571 868 867 4844 6920 6921 6913 5168 7147 7148 7140 5155 5165 7146 7139 7142 7149 5171 7150 6924 7151 7152 
538 539 836 835 571 572 869 868 4854 6927 6928 6920 5178 7154 7155 7147 5165 5175 7153 7146 7149 7156 5181 7157 6931 7158 7159 
539 540 837 836 572 573 870 869 4864 6934 6935 6927 5188 7161 7162 7154 5175 5185 7160 7153 7156 7163 5191 7164 6938 7165 7166 
540 541 838 837 573 574 871 870 4874 6941 6942 6934 5198 7168 7169 7161 5185 5195 7167 7160 7163 7170 5201 7171 6945 7172 7173 
541 542 839 838 574 575 872 871 4884 6948 6949 6941 5208 7175 7176 7168 5195 5205 7174 7167 7170 7177 5211 7178 6952 7179 7180 
542 543 840 839 575 576 873 872 4894 6955 6956 6948 5218 7182 7183 7175 5205 5215 7181 7174 7177 7184 5221 7185 6959 7186 7187 
543 544 841 840 576 577 874 873 4904 6962 6963 6955 5228 7189 7190 7182 5215 5225 7188 7181 7184 7191 5231 7192 6966 7193 7194 
544 545 842 841 577 578 875 874 4914 6969 6970 6962 5238 7196 7197 7189 5225 5235 7195 7188 7191 7198 5241 7199 6973 7200 7201 
545 546 843 842 578 579 876 875 4924 6976 6977 6969 5248 7203 7204 7196 5235 5245 7202 7195 7198 7205 5251 7206 6980 7207 7208 
546 547 844 843 579 580 877 876 4934 6983 6984 6976 5258 7210 7211 7203 5245 5255 7209 7202 7205 7212 5261 7213 6987 7214 7215 
547 548 845 844 580 581 878 877 4944 6990 6991 6983 5268 7217 7218 7210 5255 5265 7216 7209 7212 7219 5271 7220 6994 7221 7222 
548 549 846 845 581 582 879 878 4954 6997 6998 6990 5278 7224 7225 7217 5265 5275 7223 7216 7219 7226 5281 7227 7001 7228 7229 
549 550 847 846 582 583 880 879 4964 7004 7005 6997 5288 7231 7232 7224 5275 5285 7230 7223 7226 7233 5291 7234 7008 7235 7236 
550 551 848 847 583 584 881 880 4974 7011 7012 7004 5298 7238 7239 7231 5285 5295 7237 7230 7233 7240 5301 7241 7015 7242 7243 
551 552 849 848 584 585 882 881 4984 7018 7019 7011 5308 7245 7246 7238 5295 5305 7244 7237 7240 7247 5311 7248 7022 7249 7250 
552 553 850 849 585 586 883 882 4994 7025 7026 7018 5318 7252 7253 7245 5305 5315 7251 7244 7247 7254 5321 7255 7029 7256 7257 
553 554 851 850 586 587 884 883 5004 7032 7033 7025 5328 7259 7260 7252 5315 5325 7258 7251 7254 7261 5331 7262 7036 7263 7264 
554 555 852 851 587 588 885 884 5014 7039 7040 7032 5338 7266 7267 7259 5325 5335 7265 7258 7261 7268 5341 7269 7043 7270 7271 
555 556 853 852 588 589 886 885 5024 7046 7047 7039 5348 7273 7274 7266 5335 5345 7272 7265 7268 7275 5351 7276 7050 7277 7278 
556 557 854 853 589 590 887 886 5034 7053 7054 7046 5358 7280 7281 7273 5345 5355 7279 7272 7275 7282 5361 7283 7057 7284 7285 
557 558 855 854 590 591 888 887 5044 7060 7061 7053 5368 7287 7288 7280 5355 5365 7286 7279 7282 7289 5371 7290 7064 7291 7292 
558 559 856 855 591 592 889 888 5054 7067 7068 7060 5378 7294 7295 7287 5365 5375 7293 7286 7289 7296 5381 7297 7071 7298 7299 
559 560 857 856 592 593 890 889 5064 7074 7075 7067 5388 7301 7302 7294 5375 5385 7300 7293 7296 7303 5391 7304 7078 7305 7306 
594 595 892 891 627 628 925 924 5395 7307 7308 7309 5400 7312 7313 7314 5398 5397 7310 7311 7318 7316 5404 7317 7315 7319 7320 
595 596 893 892 628 629 926 925 5409 7321 7322 7307 5412 7324 7325 7312 5397 5410 7323 7310 7316 7327 5415 7328 7326 7329 7330 
596 597 894 893 629 630 927 926 5419 7331 7332 7321 5422 7334 7335 7324 5410 5420 7333 7323 7327 7337 5425 7338 7336 7339 7340 
597 598 895 894 630 631 928 927 5429 7341 7342 7331 5432 7344 7345 7334 5420 5430 7343 7333 7337 7347 5435 7348 7346 7349 7350 
598 599 896 895 631 632 929 928 5439 7351 7352 7341 5442 7354 7355 7344 5430 5440 7353 7343 7347 7357 5445 7358 7356 7359 7360 
599 600 897 896 632 633 930 929 5449 7361 7362 7351 5452 7364 7365 7354 5440 5450 7363 7353 7357 7367 5455 7368 7366 7369 7370 
600 601 898 897 633 634 931 930 5459 7371 7372 7361 5462 7374 7375 7364 5450 5460 7373 7363 7367 7377 5465 7378 7376 7379 7380 
601 602 899 898 634 635 932 931 5469 7381 7382 7371 5472 7384 7385 7374 5460 5470 7383 7373 7377 7387 5475 7388 7386 7389 7390 
602 603 900 899 635 636 933 932 5479 7391 7392 7381 5482 7394 7395 7384 5470 5480 7393 7383 7387 7397 5485 7398 7396 7399 7400 
603 604 901 900 636 637 934 933 5489 7401 7402 7391 5492 7404 7405 7394 5480 5490 7403 7393 7397 7407 5495 7408 7406 7409 7410 
604 605 902 901 637 638 935 934 5499 7411 7412 7401 5502 7414 7415 7404 5490 5500 7413 7403 7407 7417 5505 7418 7416 7419 7420 
605 606 903 902 638 639 936 935 5509 7421 7422 7411 5512 7424 7425 7414 5500 5510 7423 7413 7417 7427 5515 7428 7426 7429 7430 
606 607 904 903 639 640 937 936 5519 7431 7432 7421 5522 7434 7435 7424 5510 5520 7433 7423 7427 7437 5525 7438 7436 7439 7440 
607 608 905 904 640 641 938 937 5529 7441 7442 7431 5532 7444 7445 7434 5520 5530 7443 7433 7437 7447 5535 7448 7446 7449 7450 
608 609 906 905 641 642 939 938 5539 7451 7452 7441 5542 7454 7455 7444 5530 5540 7453 7443 7447 7457 5545 7458 7456 7459 7460 
609 610 907 906 642 643 940 939 5549 7461 7462 7451 5552 7464 7465 7454 5540 5550 7463 7453 7457 7467 5555 7468 7466 7469 7470 
610 611 908 907 643 644 941 940 5559 7471 7472 7461 5562 7474 7475 7464 5550 5560 7473 7463 7467 7477 5565 7478 7476 7479 7480 
611 612 909 908 644 645 942 941 5569 7481 7482 7471 5572 7484 7485 7474 5560 5570 7483 7473 7477 7487 5575 7488 7486 7489 7490 
612 613 910 909 645 646 943 942 5579 7491 7492 7481 5582 7494 7495 7484 5570 5580 7493 7483 7487 7497 5585 7498 7496 7499 7500 
613 614 911 910 646 647 944 943 5589 7501 7502 7491 5592 7504 7505 7494 5580 5590 7503 7493 7497 7507 5595 7508 7506 7509 7510 
614 615 912 911 647 648 945 944 5599 7511 7512 7501 5602 7514 7515 7504 5590 5600 7513 7503 7507 7517 5605 7518 7516 7519 7520 
615 616 913 912 648 649 946 945 5609 7521 7522 7511 5612 7524 7525 7514 5600 5610 7523 7513 7517 7527 5615 7528 7526 7529 7530 
616 617 914 913 649 650 947 946 5619 7531 7532 7521 5622 7534 7535 7524 5610 5620 7533 7523 7527 7537 5625 7538 7536 7539 7540 
617 618 915 914 650 651 948 947 5629 7541 7542 7531 5632 7544 7545 7534 5620 5630 7543 7533 7537 7547 5635 7548 7546 7549 7550 
618 619 916 915 651 652 949 948 5639 7551 7552 7541 5642 7554 7555 7544 5630 5640 7553 7543 7547 7557 5645 7558 7556 7559 7560 
619 620 917 916 652 653 950 949 5649 7561 7562 7551 5652 7564 7565 7554 5640 5650 7563 7553 7557 7567 5655 7568 7566 7569 7570 
620 621 918 917 653 654 951 950 5659 7571 7572 7561 5662 7574 7575 7564 5650 5660 7573 7563 7567 7577 5665 7578 7576 7579 7580 
621 622 919 918 654 655 952 951 5669 7581 7582 7571 5672 7584 7585 7574 5660 5670 7583 7573 7577 7587 5675 7588 7586 7589 7590 
622 623 920 919 655 656 953 952 5679 7591 7592 7581 5682 7594 7595 7584 5670 5680 7593 7583 7587 7597 5685 7598 7596 7599 7600 
623 624 921 920 656 657 954 953 5689 7601 7602 7591 5692 7604 7605 7594 5680 5690 7603 7593 7597 7607 5695 7608 7606 7609 7610 
624 625 922 921 657 658 955 954 5699 7611 7612 7601 5702 7614 7615 7604 5690 5700 7613 7603 7607 7617 5705 7618 7616 7619 7620 
625 626 923 922 658 659 956 955 5709 7621 7622 7611 5712 7624 7625 7614 5700 5710 7623 7613 7617 7627 5715 7628 7626 7629 7630 
627 628 925 924 660 661 958 957 5400 7312 7313 7314 5721 7633 7634 7635 5719 5718 7631 7632 7638 7636 5724 7637 7319 7639 7640 
628 629 926 925 661 662 959 958 5412 7324 7325 7312 5730 7642 7643 7633 5718 5728 7641 7631 7636 7644 5732 7645 7329 7646 7647 
629 630 927 926 662 663 960 959 5422 7334 7335 7324 5737 7649 7650 7642 5728 5735 7648 7641 7644 7651 5739 7652 7339 7653 7654 
630 631 928 927 663 664 961 960 5432 7344 7345 7334 5744 7656 7657 7649 5735 5742 7655 7648 7651 7658 5746 7659 7349 7660 7661 
631 632 929 928 664 665 962 961 5442 7354 7355 7344 5751 7663 7664 7656 5742 5749 7662 7655 7658 7665 5753 7666 7359 7667 7668 
632 633 930 929 665 666 963 962 5452 7364 7365 7354 5758 7670 7671 7663 5749 5756 7669 7662 7665 7672 5760 7673 7369 7674 7675 
633 634 931 930 666 667 964 963 5462 7374 7375 7364 5765 7677 7678 7670 5756 5763 7676 7669 7672 7679 5767 7680 7379 7681 7682 
634 635 932 931 667 668 965 964 5472 7384 7385 7374 5772 7684 7685 7677 5763 5770 7683 7676 7679 7686 5774 7687 7389 7688 7689 
635 636 933 932 668 669 966 965 5482 7394 7395 7384 5779 7691 7692 7684 5770 5777 7690 7683 7686 7693 5781 7694 7399 7695 7696 
636 637 934 933 669 670 967 966 5492 7404 7405 7394 5786 7698 7699 7691 5777 5784 7697 7690 7693 7700 5788 7701 7409 7702 7703 
637 638 935 934 670 671 968 967 5502 7414 7415 7404 5793 7705 7706 7698 5784 5791 7704 7697 7700 7707 5795 7708 7419 7709 7710 
638 639 936 935 671 672 969 968 5512 7424 7425 7414 5800 7712 7713 7705 5791 5798 7711 7704 7707 7714 5802 7715 7429 7716 7717 
639 640 937 936 672 673 970 969 5522 7434 7435 7424 5807 7719 7720 7712 5798 5805 7718 7711 7714 7721 5809 7722 7439 7723 7724 
640 641 938 937 673 674 971 970 5532 7444 7445 7434 5814 7726 7727 7719 5805 5812 7725 7718 7721 7728 5816 7729 7449 7730 7731 
641 642 939 938 674 675 972 971 5542 7454 7455 7444 5821 7733 7734 7726 5812 5819 7732 7725 7728 7735 5823 7736 7459 7737 7738 
642 643 940 939 675 676 973 972 5552 7464 7465 7454 5828 7740 7741 7733 5819 5826 7739 7732 7735 7742 5830 7743 7469 7744 7745 
643 644 941 940 676 677 974 973 5562 7474 7475 7464 5835 7747 7748 7740 5826 5833 7746 7739 7742 7749 5837 7750 7479 7751 7752 
644 645 942 941 677 678 975 974 5572 7484 7485 7474 5842 7754 7755 7747 5833 5840 7753 7746 7749 7756 5844 7757 7489 7758 7759 
645 646 943 942 678 679 976 975 5582 7494 7495 7484 5849 7761 7762 7754 5840 5847 7760 7753 7756 7763 5851 7764 7499 7765 7766 
646 647 944 943 679 680 977 976 5592 7504 7505 7494 5856 7768 7769 7761 5847 5854 7767 7760 7763 7770 5858 7771 7509 7772 7773 
647 648 945 944 680 681 978 977 5602 7514 7515 7504 5863 7775 7776 7768 5854 5861 7774 7767 7770 7777 5865 7778 7519 7779 7780 
648 649 946 945 681 682 979 978 5612 7524 7525 7514 5870 7782 7783 7775 5861 5868 7781 7774 7777 7784 5872 7785 7529 7786 7787 
649 650 947 946 682 683 980 979 5622 7534 7535 7524 5877 7789 7790 7782 5868 5875 7788 7781 7784 7791 5879 7792 7539 7793 7794 
650 651 948 947 683 684 981 980 5632 7544 7545 7534 5884 7796 7797 7789 5875 5882 7795 7788 7791 7798 5886 7799 7549 7800 7801 
651 652 949 948 684 685 982 981 5642 7554 7555 7544 5891 7803 7804 7796 5882 5889 7802 7795 7798 7805 5893 7806 7559 7807 7808 
652 653 950 949 685 686 983 982 5652 7564 7565 7554 5898 7810 7811 7803 5889 5896 7809 7802 7805 7812 5900 7813 7569 7814 7815 
653 654 951 950 686 687 984 983 5662 7574 7575 7564 5905 7817 7818 7810 5896 5903 7816 7809 7812 7819 5907 7820 7579 7821 7822 
654 655 952 951 687 688 985 984 5672 7584 7585 7574 5912 7824 7825 7817 5903 5910 7823 7816 7819 7826 5914 7827 7589 7828 7829 
655 656 953 952 688 689 986 985 5682 7594 7595 7584 5919 7831 7832 7824 5910 5917 7830 7823 7826 7833 5921 7834 7599 7835 7836 
656 657 954 953 689 690 987 986 5692 7604 7605 7594 5926 7838 7839 7831 5917 5924 7837 7830 7833 7840 5928 7841 7609 7842 7843 
657 658 955 954 690 691 988 987 5702 7614 7615 7604 5933 7845 7846 7838 5924 5931 7844 7837 7840 7847 5935 7848 7619 7849 7850 
658 659 956 955 691 692 989 988 5712 7624 7625 7614 5940 7852 7853 7845 5931 5938 7851 7844 7847 7854 5942 7855 7629 7856 7857 
660 661 958 957 693 694 991 990 5721 7633 7634 7635 5948 7860 7861 7862 5946 5945 7858 7859 7865 7863 5951 7864 7639 7866 7867 
661 662 959 958 694 695 992 991 5730 7642 7643 7633 5957 7869 7870 7860 5945 5955 7868 7858 7863 7871 5959 7872 7646 7873 7874 
662 663 960 959 695 696 993 992 5737 7649 7650 7642 5964 7876 7877 7869 5955 5962 7875 7868 7871 7878 5966 7879 7653 7880 7881 
663 664 961 960 696 697 994 993 5744 7656 7657 7649 5971 7883 7884 7876 5962 5969 7882 7875 7878 7885 5973 7886 7660 7887 7888 
664 665 962 961 697 698 995 994 5751 7663 7664 7656 5978 7890 7891 7883 5969 5976 7889 7882 7885 7892 5980 7893 7667 7894 7895 
665 666 963 962 698 699 996 995 5758 7670 7671 7663 5985 7897 7898 7890 5976 5983 7896 7889 7892 7899 5987 7900 7674 7901 7902 
666 667 964 963 699 700 997 996 5765 7677 7678 7670 5992 7904 7905 7897 5983 5990 7903 7896 7899 7906 5994 7907 7681 7908 7909 
667 668 965 964 700 701 998 997 5772 7684 7685 7677 5999 7911 7912 7904 5990 5997 7910 7903 7906 7913 6001 7914 7688 7915 7916 
668 669 966 965 701 702 999 998 5779 7691 7692 7684 6006 7918 7919 7911 5997 6004 7917 7910 7913 7920 6008 7921 7695 7922 7923 
669 670 967 966 702 703 1000 999 5786 7698 7699 7691 6013 7925 7926 7918 6004 6011 7924 7917 7920 7927 6015 7928 7702 7929 7930 
670 671 968 967 703 704 1001 1000 5793 7705 7706 7698 6020 7932 7933 7925 6011 6018 7931 7924 7927 7934 6022 7935 7709 7936 7937 
671 672 969 968 704 705 1002 1001 5800 7712 7713 7705 6027 7939 7940 7932 6018 6025 7938 7931 7934 7941 6029 7942 7716 7943 7944 
672 673 970 969 705 706 1003 1002 5807 7719 7720 7712 6034 7946 7947 7939 6025 6032 7945 7938 7941 7948 6036 7949 7723 7950 7951 
673 674 971 970 706 707 1004 1003 5814 7726 7727 7719 6041 7953 7954 7946 6032 6039 7952 7945 7948 7955 6043 7956 7730 7957 7958 
674 675 972 971 707 708 1005 1004 5821 7733 7734 7726 6048 7960 7961 7953 6039 6046 7959 7952 7955 7962 6050 7963 7737 7964 7965 
675 676 973 972 708 709 1006 1005 5828 7740 7741 7733 6055 7967 7968 7960 6046 6053 7966 7959 7962 7969 6057 7970 7744 7971 7972 
676 677 974 973 709 710 1007 1006 5835 7747 7748 7740 6062 7974 7975 7967 6053 6060 7973 7966 7969 7976 6064 7977 7751 7978 7979 
677 678 975 974 710 711 1008 1007 5842 7754 7755 7747 6069 7981 7982 7974 6060 6067 7980 7973 7976 7983 6071 7984 7758 7985 7986 
678 679 976 975 711 712 1009 1008 5849 7761 7762 7754 6076 7988 7989 7981 6067 6074 7987 7980 7983 7990 6078 7991 7765 7992 7993 
679 680 977 976 712 713 1010 1009 5856 7768 7769 7761 6083 7995 7996 7988 6074 6081 7994 7987 7990 7997 6085 7998 7772 7999 8000 
680 681 978 977 713 714 1011 1010 5863 7775 7776 7768 6090 8002 8003 7995 6081 6088 8001 7994 7997 8004 6092 8005 7779 8006 8007 
681 682 979 978 714 715 1012 1011 5870 7782 7783 7775 6097 8009 8010 8002 6088 6095 8008 8001 8004 8011 6099 8012 7786 8013 8014 
682 683 980 979 715 716 1013 1012 5877 7789 7790 7782 6104 8016 8017 8009 6095 6102 8015 8008 8011 8018 6106 8019 7793 8020 8021 
683 684 981 980 716 717 1014 1013 5884 7796 7797 7789 6111 8023 8024 8016 6102 6109 8022 8015 8018 8025 6113 8026 7800 8027 8028 
684 685 982 981 717 718 1015 1014 5891 7803 7804 7796 6118 8030 8031 8023 6109 6116 8029 8022 8025 8032 6120 8033 7807 8034 8035 
685 686 983 982 718 719 1016 1015 5898 7810 7811 7803 6125 8037 8038 8030 6116 6123 8036 8029 8032 8039 6127 8040 7814 8041 8042 
686 687 984 983 719 720 1017 1016 5905 7817 7818 7810 6132 8044 8045 8037 6123 6130 8043 8036 8039 8046 6134 8047 7821 8048 8049 
687 688 985 984 720 721 1018 1017 5912 7824 7825 7817 6139 8051 8052 8044 6130 6137 8050 8043 8046 8053 6141 8054 7828 8055 8056 
688 689 986 985 721 722 1019 1018 5919 7831 7832 7824 6146 8058 8059 8051 6137 6144 8057 8050 8053 8060 6148 8061 7835 8062 8063 
689 690 987 986 722 723 1020 1019 5926 7838 7839 7831 6153 8065 8066 8058 6144 6151 8064 8057 8060 8067 6155 8068 7842 8069 8070 
690 691 988 987 723 724 1021 1020 5933 7845 7846 7838 6160 8072 8073 8065 6151 6158 8071 8064 8067 8074 6162 8075 7849 8076 8077 
691 692 989 988 724 725 1022 1021 5940 7852 7853 7845 6167 8079 8080 8072 6158 6165 8078 8071 8074 8081 6169 8082 7856 8083 8084 
693 694 991 990 726 727 1024 1023 5948 7860 7861 7862 6175 8087 8088 8089 6173 6172 8085 8086 8092 8090 6178 8091 7866 8093 8094 
694 695 992 991 727 728 1025 1024 5957 7869 7870 7860 6184 8096 8097 8087 6172 6182 8095 8085 8090 8098 6186 8099 7873 8100 8101 
695 696 993 992 728 729 1026 1025 5964 7876 7877 7869 6191 8103 8104 8096 6182 6189 8102 8095 8098 8105 6193 8106 7880 8107 8108 
696 697 994 993 729 730 1027 1026 5971 7883 7884 7876 6198 8110 8111 8103 6189 6196 8109 8102 8105 8112 6200 8113 7887 8114 8115 
697 698 995 994 730 731 1028 1027 5978 7890 7891 7883 6205 8117 8118 8110 6196 6203 8116 8109 8112 8119 6207 8120 7894 8121 8122 
698 699 996 995 731 732 1029 1028 5985 7897 7898 7890 6212 8124 8125 8117 6203 6210 8123 8116 8119 8126 6214 8127 7901 8128 8129 
699 700 997 996 732 733 1030 1029 5992 7904 7905 7897 6219 8131 8132 8124 6210 6217 8130 8123 8126 8133 6221 8134 7908 8135 8136 
700 701 998 997 733 734 1031 1030 5999 7911 7912 7904 6226 8138 8139 8131 6217 6224 8137 8130 8133 8140 6228 8141 7915 8142 8143 
701 702 999 998 734 735 1032 1031 6006 7918 7919 7911 6233 8145 8146 8138 6224 6231 8144 8137 8140 8147 6235 8148 7922 8149 8150 
702 703 1000 999 735 736 1033 1032 6013 7925 7926 7918 6240 8152 8153 8145 6231 6238 8151 8144 8147 8154 6242 8155 7929 8156 8157 
703 704 1001 1000 736 737 1034 1033 6020 7932 7933 7925 6247 8159 8160 8152 6238 6245 8158 8151 8154 8161 6249 8162 7936 8163 8164 
704 705 1002 1001 737 738 1035 1034 6027 7939 7940 7932 6254 8166 8167 8159 6245 6252 8165 8158 8161 8168 6256 8169 7943 8170 8171 
705 706 1003 1002 738 739 1036 1035 6034 7946 7947 7939 6261 8173 8174 8166 6252 6259 8172 8165 8168 8175 6263 8176 7950 8177 8178 
706 707 1004 1003 739 740 1037 1036 6041 7953 7954 7946 6268 8180 8181 8173 6259 6266 8179 8172 8175 8182 6270 8183 7957 8184 8185 
707 708 1005 1004 740 741 1038 1037 6048 7960 7961 7953 6275 8187 8188 8180 6266 6273 8186 8179 8182 8189 6277 8190 7964 8191 8192 
708 709 1006 1005 741 742 1039 1038 6055 7967 7968 7960 6282 8194 8195 8187 6273 6280 8193 8186 8189 8196 6284 8197 7971 8198 8199 
709 710 1007 1006 742 743 1040 1039 6062 7974 7975 7967 6289 8201 8202 8194 6280 6287 8200 8193 8196 8203 6291 8204 7978 8205 8206 
710 711 1008 1007 743 744 1041 1040 6069 7981 7982 7974 6296 8208 8209 8201 6287 6294 8207 8200 8203 8210 6298 8211 7985 8212 8213 
711 712 1009 1008 744 745 1042 1041 6076 7988 7989 7981 6303 8215 8216 8208 6294 6301 8214 8207 8210 8217 6305 8218 7992 8219 8220 
712 713 1010 1009 745 746 1043 1042 6083 7995 7996 7988 6310 8222 8223 8215 6301 6308 8221 8214 8217 8224 6312 8225 7999 8226 8227 
713 714 1011 1010 746 747 1044 1043 6090 8002 8003 7995 6317 8229 8230 8222 6308 6315 8228 8221 8224 8231 6319 8232 8006 8233 8234 
714 715 1012 1011 747 748 1045 1044 6097 8009 8010 8002 6324 8236 8237 8229 6315 6322 8235 8228 8231 8238 6326 8239 8013 8240 8241 
715 716 1013 1012 748 749 1046 1045 6104 8016 8017 8009 6331 8243 8244 8236 6322 6329 8242 8235 8238 8245 6333 8246 8020 8247 8248 
716 717 1014 1013 749 750 1047 1046 6111 8023 8024 8016 6338 8250 8251 8243 6329 6336 8249 8242 8245 8252 6340 8253 8027 8254 8255 
717 718 1015 1014 750 751 1048 1047 6118 8030 8031 8023 6345 8257 8258 8250 6336 6343 8256 8249 8252 8259 6347 8260 8034 8261 8262 
718 719 1016 1015 751 752 1049 1048 6125 8037 8038 8030 6352 8264 8265 8257 6343 6350 8263 8256 8259 8266 6354 8267 8041 8268 8269 
719 720 1017 1016 752 753 1050 1049 6132 8044 8045 8037 6359 8271 8272 8264 6350 6357 8270 8263 8266 8273 6361 8274 8048 8275 8276 
720 721 1018 1017 753 754 1051 1050 6139 8051 8052 8044 6366 8278 8279 8271 6357 6364 8277 8270 8273 8280 6368 8281 8055 8282 8283 
721 722 1019 1018 754 755 1052 1051 6146 8058 8059 8051 6373 8285 8286 8278 6364 6371 8284 8277 8280 8287 6375 8288 8062 8289 8290 
722 723 1020 1019 755 756 1053 1052 6153 8065 8066 8058 6380 8292 8293 8285 6371 6378 8291 8284 8287 8294 6382 8295 8069 8296 8297 
723 724 1021 1020 756 757 1054 1053 6160 8072 8073 8065 6387 8299 8300 8292 6378 6385 8298 8291 8294 8301 6389 8302 8076 8303 8304 
724 725 1022 1021 757 758 1055 1054 6167 8079 8080 8072 6394 8306 8307 8299 6385 6392 8305 8298 8301 8308 6396 8309 8083 8310 8311 
726 727 1024 1023 759 760 1057 1056 6175 8087 8088 8089 6402 8314 8315 8316 6400 6399 8312 8313 8319 8317 6405 8318 8093 8320 8321 
727 728 1025 1024 760 761 1058 1057 6184 8096 8097 8087 6411 8323 8324 8314 6399 6409 8322 8312 8317 8325 6413 8326 8100 8327 8328 
728 729 1026 1025 761 762 1059 1058 6191 8103 8104 8096 6418 8330 8331 8323 6409 6416 8329 8322 8325 8332 6420 8333 8107 8334 8335 
729 730 1027 1026 762 763 1060 1059 6198 8110 8111 8103 6425 8337 8338 8330 6416 6423 8336 8329 8332 8339 6427 8340 8114 8341 8342 
730 731 1028 1027 763 764 1061 1060 6205 8117 8118 8110 6432 8344 8345 8337 6423 6430 8343 8336 8339 8346 6434 8347 8121 8348 8349 
731 732 1029 1028 764 765 1062 1061 6212 8124 8125 8117 6439 8351 8352 8344 6430 6437 8350 8343 8346 8353 6441 8354 8128 8355 8356 
732 733 1030 1029 765 766 1063 1062 6219 8131 8132 8124 6446 8358 8359 8351 6437 6444 8357 8350 8353 8360 6448 8361 8135 8362 8363 
733 734 1031 1030 766 767 1064 1063 6226 8138 8139 8131 6453 8365 8366 8358 6444 6451 8364 8357 8360 8367 6455 8368 8142 8369 8370 
734 735 1032 1031 767 768 1065 1064 6233 8145 8146 8138 6460 8372 8373 8365 6451 6458 8371 8364 8367 8374 6462 8375 8149 8376 8377 
735 736 1033 1032 768 769 1066 1065 6240 8152 8153 8145 6467 8379 8380 8372 6458 6465 8378 8371 8374 8381 6469 8382 8156 8383 8384 
736 737 1034 1033 769 770 1067 1066 6247 8159 8160 8152 6474 8386 8387 8379 6465 6472 8385 8378 8381 8388 6476 8389 8163 8390 8391 
737 738 1035 1034 770 771 1068 1067 6254 8166 8167 8159 6481 8393 8394 8386 6472 6479 8392 8385 8388 8395 6483 8396 8170 8397 8398 
738 739 1036 1035 771 772 1069 1068 6261 8173 8174 8166 6488 8400 8401 8393 6479 6486 8399 8392 8395 8402 6490 8403 8177 8404 8405 
739 740 1037 1036 772 773 1070 1069 6268 8180 8181 8173 6495 8407 8408 8400 6486 6493 8406 8399 8402 8409 6497 8410 8184 8411 8412 
740 741 1038 1037 773 774 1071 1070 6275 8187 8188 8180 6502 8414 8415 8407 6493 6500 8413 8406 8409 8416 6504 8417 8191 8418 8419 
741 742 1039 1038 774 775 1072 1071 6282 8194 8195 8187 6509 8421 8422 8414 6500 6507 8420 8413 8416 8423 6511 8424 8198 8425 8426 
742 743 1040 1039 775 776 1073 1072 6289 8201 8202 8194 6516 8428 8429 8421 6507 6514 8427 8420 8423 8430 6518 8431 8205 8432 8433 
743 744 1041 1040 776 777 1074 1073 6296 8208 8209 8201 6523 8435 8436 8428 6514 6521 8434 8427 8430 8437 6525 8438 8212 8439 8440 
744 745 1042 1041 777 778 1075 1074 6303 8215 8216 8208 6530 8442 8443 8435 6521 6528 8441 8434 8437 8444 6532 8445 8219 8446 8447 
745 746 1043 1042 778 779 1076 1075 6310 8222 8223 8215 6537 8449 8450 8442 6528 6535 8448 8441 8444 8451 6539 8452 8226 8453 8454 
746 747 1044 1043 779 780 1077 1076 6317 8229 8230 8222 6544 8456 8457 8449 6535 6542 8455 8448 8451 8458 6546 8459 8233 8460 8461 
747 748 1045 1044 780 781 1078 1077 6324 8236 8237 8229 6551 8463 8464 8456 6542 6549 8462 8455 8458 8465 6553 8466 8240 8467 8468 
748 749 1046 1045 781 782 1079 1078 6331 8243 8244 8236 6558 8470 8471 8463 6549 6556 8469 8462 8465 8472 6560 8473 8247 8474 8475 
749 750 1047 1046 782 783 1080 1079 6338 8250 8251 8243 6565 8477 8478 8470 6556 6563 8476 8469 8472 8479 6567 8480 8254 8481 8482 
750 751 1048 1047 783 784 1081 1080 6345 8257 8258 8250 6572 8484 8485 8477 6563 6570 8483 8476 8479 8486 6574 8487 8261 8488 8489 
751 752 1049 1048 784 785 1082 1081 6352 8264 8265 8257 6579 8491 8492 8484 6570 6577 8490 8483 8486 8493 6581 8494 8268 8495 8496 
752 753 1050 1049 785 786 1083 1082 6359 8271 8272 8264 6586 8498 8499 8491 6577 6584 8497 8490 8493 8500 6588 8501 8275 8502 8503 
753 754 1051 1050 786 787 1084 1083 6366 8278 8279 8271 6593 8505 8506 8498 6584 6591 8504 8497 8500 8507 6595 8508 8282 8509 8510 
754 755 1052 1051 787 788 1085 1084 6373 8285 8286 8278 6600 8512 8513 8505 6591 6598 8511 8504 8507 8514 6602 8515 8289 8516 8517 
755 756 1053 1052 788 789 1086 1085 6380 8292 8293 8285 6607 8519 8520 8512 6598 6605 8518 8511 8514 8521 6609 8522 8296 8523 8524 
756 757 1054 1053 789 790 1087 1086 6387 8299 8300 8292 6614 8526 8527 8519 6605 6612 8525 8518 8521 8528 6616 8529 8303 8530 8531 
757 758 1055 1054 790 791 1088 1087 6394 8306 8307 8299 6621 8533 8534 8526 6612 6619 8532 8525 8528 8535 6623 8536 8310 8537 8538 
759 760 1057 1056 792 793 1090 1089 6402 8314 8315 8316 6629 8541 8542 8543 6627 6626 8539 8540 8546 8544 6632 8545 8320 8547 8548 
760 761 1058 1057 793 794 1091 1090 6411 8323 8324 8314 6638 8550 8551 8541 6626 6636 8549 8539 8544 8552 6640 8553 8327 8554 8555 
761 762 1059 1058 794 795 1092 1091 6418 8330 8331 8323 6645 8557 8558 8550 6636 6643 8556 8549 8552 8559 6647 8560 8334 8561 8562 
762 763 1060 1059 795 796 1093 1092 6425 8337 8338 8330 6652 8564 8565 8557 6643 6650 8563 8556 8559 8566 6654 8567 8341 8568 8569 
763 764 1061 1060 796 797 1094 1093 6432 8344 8345 8337 6659 8571 8572 8564 6650 6657 8570 8563 8566 8573 6661 8574 8348 8575 8576 
764 765 1062 1061 797 798 1095 1094 6439 8351 8352 8344 6666 8578 8579 8571 6657 6664 8577 8570 8573 8580 6668 8581 8355 8582 8583 
765 766 1063 1062 798 799 1096 1095 6446 8358 8359 8351 6673 8585 8586 8578 6664 6671 8584 8577 8580 8587 6675 8588 8362 8589 8590 
766 767 1064 1063 799 800 1097 1096 6453 8365 8366 8358 6680 8592 8593 8585 6671 6678 8591 8584 8587 8594 6682 8595 8369 8596 8597 
767 768 1065 1064 800 801 1098 1097 6460 8372 8373 8365 6687 8599 8600 8592 6678 6685 8598 8591 8594 8601 6689 8602 8376 8603 8604 
768 769 1066 1065 801 802 1099 1098 6467 8379 8380 8372 6694 8606 8607 8599 6685 6692 8605 8598 8601 8608 6696 8609 8383 8610 8611 
769 770 1067 1066 802 803 1100 1099 6474 8386 8387 8379 6701 8613 8614 8606 6692 6699 8612 8605 8608 8615 6703 8616 8390 8617 8618 
770 771 1068 1067 803 804 1101 1100 6481 8393 8394 8386 6708 8620 8621 8613 6699 6706 8619 8612 8615 8622 6710 8623 8397 8624 8625 
771 772 1069 1068 804 805 1102 1101 6488 8400 8401 8393 6715 8627 8628 8620 6706 6713 8626 8619 8622 8629 6717 8630 8404 8631 8632 
772 773 1070 1069 805 806 1103 1102 6495 8407 8408 8400 6722 8634 8635 8627 6713 6720 8633 8626 8629 8636 6724 8637 8411 8638 8639 
773 774 1071 1070 806 807 1104 1103 6502 8414 8415 8407 6729 8641 8642 8634 6720 6727 8640 8633 8636 8643 6731 8644 8418 8645 8646 
774 775 1072 1071 807 808 1105 1104 6509 8421 8422 8414 6736 8648 8649 8641 6727 6734 8647 8640 8643 8650 6738 8651 8425 8652 8653 
775 776 1073 1072 808 809 1106 1105 6516 8428 8429 8421 6743 8655 8656 8648 6734 6741 8654 8647 8650 8657 6745 8658 8432 8659 8660 
776 777 1074 1073 809 810 1107 1106 6523 8435 8436 8428 6750 8662 8663 8655 6741 6748 8661 8654 8657 8664 6752 8665 8439 8666 8667 
777 778 1075 1074 810 811 1108 1107 6530 8442 8443 8435 6757 8669 8670 8662 6748 6755 8668 8661 8664 8671 6759 8672 8446 8673 8674 
778 779 1076 1075 811 812 1109 1108 6537 8449 8450 8442 6764 8676 8677 8669 6755 6762 8675 8668 8671 8678 6766 8679 8453 8680 8681 
779 780 1077 1076 812 813 1110 1109 6544 8456 8457 8449 6771 8683 8684 8676 6762 6769 8682 8675 8678 8685 6773 8686 8460 8687 8688 
780 781 1078 1077 813 814 1111 1110 6551 8463 8464 8456 6778 8690 8691 8683 6769 6776 8689 8682 8685 8692 6780 8693 8467 8694 8695 
781 782 1079 1078 814 815 1112 1111 6558 8470 8471 8463 6785 8697 8698 8690 6776 6783 8696 8689 8692 8699 6787 8700 8474 8701 8702 
782 783 1080 1079 815 816 1113 1112 6565 8477 8478 8470 6792 8704 8705 8697 6783 6790 8703 8696 8699 8706 6794 8707 8481 8708 8709 
783 784 1081 1080 816 817 1114 1113 6572 8484 8485 8477 6799 8711 8712 8704 6790 6797 8710 8703 8706 8713 6801 8714 8488 8715 8716 
784 785 1082 1081 817 818 1115 1114 6579 8491 8492 8484 6806 8718 8719 8711 6797 6804 8717 8710 8713 8720 6808 8721 8495 8722 8723 
785 786 1083 1082 818 819 1116 1115 6586 8498 8499 8491 6813 8725 8726 8718 6804 6811 8724 8717 8720 8727 6815 8728 8502 8729 8730 
786 787 1084 1083 819 820 1117 1116 6593 8505 8506 8498 6820 8732 8733 8725 6811 6818 8731 8724 8727 8734 6822 8735 8509 8736 8737 
787 788 1085 1084 820 821 1118 1117 6600 8512 8513 8505 6827 8739 8740 8732 6818 6825 8738 8731 8734 8741 6829 8742 8516 8743 8744 
788 789 1086 1085 821 822 1119 1118 6607 8519 8520 8512 6834 8746 8747 8739 6825 6832 8745 8738 8741 8748 6836 8749 8523 8750 8751 
789 790 1087 1086 822 823 1120 1119 6614 8526 8527 8519 6841 8753 8754 8746 6832 6839 8752 8745 8748 8755 6843 8756 8530 8757 8758 
790 791 1088 1087 823 824 1121 1120 6621 8533 8534 8526 6848 8760 8761 8753 6839 6846 8759 8752 8755 8762 6850 8763 8537 8764 8765 
792 793 1090 1089 825 826 1123 1122 6629 8541 8542 8543 6856 8768 8769 8770 6854 6853 8766 8767 8773 8771 6859 8772 8547 8774 8775 
793 794 1091 1090 826 827 1124 1123 6638 8550 8551 8541 6865 8777 8778 8768 6853 6863 8776 8766 8771 8779 6867 8780 8554 8781 8782 
794 795 1092 1091 827 828 1125 1124 6645 8557 8558 8550 6872 8784 8785 8777 6863 6870 8783 8776 8779 8786 6874 8787 8561 8788 8789 
795 796 1093 1092 828 829 1126 1125 6652 8564 8565 8557 6879 8791 8792 8784 6870 6877 8790 8783 8786 8793 6881 8794 8568 8795 8796 
796 797 1094 1093 829 830 1127 1126 6659 8571 8572 8564 6886 8798 8799 8791 6877 6884 8797 8790 8793 8800 6888 8801 8575 8802 8803 
797 798 1095 1094 830 831 1128 1127 6666 8578 8579 8571 6893 8805 8806 8798 6884 6891 8804 8797 8800 8807 6895 8808 8582 8809 8810 
798 799 1096 1095 831 832 1129 1128 6673 8585 8586 8578 6900 8812 8813 8805 6891 6898 8811 8804 8807 8814 6902 8815 8589 8816 8817 
799 800 1097 1096 832 833 1130 1129 6680 8592 8593 8585 6907 8819 8820 8812 6898 6905 8818 8811 8814 8821 6909 8822 8596 8823 8824 
800 801 1098 1097 833 834 1131 1130 6687 8599 8600 8592 6914 8826 8827 8819 6905 6912 8825 8818 8821 8828 6916 8829 8603 8830 8831 
801 802 1099 1098 834 835 1132 1131 6694 8606 8607 8599 6921 8833 8834 8826 6912 6919 8832 8825 8828 8835 6923 8836 8610 8837 8838 
802 803 1100 1099 835 836 1133 1132 6701 8613 8614 8606 6928 8840 8841 8833 6919 6926 8839 8832 8835 8842 6930 8843 8617 8844 8845 
803 804 1101 1100 836 837 1134 1133 6708 8620 8621 8613 6935 8847 8848 8840 6926 6933 8846 8839 8842 8849 6937 8850 8624 8851 8852 
804 805 1102 1101 837 838 1135 1134 6715 8627 8628 8620 6942 8854 8855 8847 6933 6940 8853 8846 8849 8856 6944 8857 8631 8858 8859 
805 806 1103 1102 838 839 1136 1135 6722 8634 8635 8627 6949 8861 8862 8854 6940 6947 8860 8853 8856 8863 6951 8864 8638 8865 8866 
806 807 1104 1103 839 840 1137 1136 6729 8641 8642 8634 6956 8868 8869 8861 6947 6954 8867 8860 8863 8870 6958 8871 8645 8872 8873 
807 808 1105 1104 840 841 1138 1137 6736 8648 8649 8641 6963 8875 8876 8868 6954 6961 8874 8867 8870 8877 6965 8878 8652 8879 8880 
808 809 1106 1105 841 842 1139 1138 6743 8655 8656 8648 6970 8882 8883 8875 6961 6968 8881 8874 8877 8884 6972 8885 8659 8886 8887 
809 810 1107 1106 842 843 1140 1139 6750 8662 8663 8655 6977 8889 8890 8882 6968 6975 8888 8881 8884 8891 6979 8892 8666 8893 8894 
810 811 1108 1107 843 844 1141 1140 6757 8669 8670 8662 6984 8896 8897 8889 6975 6982 8895 8888 8891 8898 6986 8899 8673 8900 8901 
811 812 1109 1108 844 845 1142 1141 6764 8676 8677 8669 6991 8903 8904 8896 6982 6989 8902 8895 8898 8905 6993 8906 8680 8907 8908 
812 813 1110 1109 845 846 1143 1142 6771 8683 8684 8676 6998 8910 8911 8903 6989 6996 8909 8902 8905 8912 7000 8913 8687 8914 8915 
813 814 1111 1110 846 847 1144 1143 6778 8690 8691 8683 7005 8917 8918 8910 6996 7003 8916 8909 8912 8919 7007 8920 8694 8921 8922 
814 815 1112 1111 847 848 1145 1144 6785 8697 8698 8690 7012 8924 8925 8917 7003 7010 8923 8916 8919 8926 7014 8927 8701 8928 8929 
815 816 1113 1112 848 849 1146 1145 6792 8704 8705 8697 7019 8931 8932 8924 7010 7017 8930 8923 8926 8933 7021 8934 8708 8935 8936 
816 817 1114 1113 849 850 1147 1146 6799 8711 8712 8704 7026 8938 8939 8931 7017 7024 8937 8930 8933 8940 7028 8941 8715 8942 8943 
817 818 1115 1114 850 851 1148 1147 6806 8718 8719 8711 7033 8945 8946 8938 7024 7031 8944 8937 8940 8947 7035 8948 8722 8949 8950 
818 819 1116 1115 851 852 1149 1148 6813 8725 8726 8718 7040 8952 8953 8945 7031 7038 8951 8944 8947 8954 7042 8955 8729 8956 8957 
819 820 1117 1116 852 853 1150 1149 6820 8732 8733 8725 7047 8959 8960 8952 7038 7045 8958 8951 8954 8961 7049 8962 8736 8963 8964 
820 821 1118 1117 853 854 1151 1150 6827 8739 8740 8732 7054 8966 8967 8959 7045 7052 8965 8958 8961 8968 7056 8969 8743 8970 8971 
821 822 1119 1118 854 855 1152 1151 6834 8746 8747 8739 7061 8973 8974 8966 7052 7059 8972 8965 8968 8975 7063 8976 8750 8977 8978 
822 823 1120 1119 855 856 1153 1152 6841 8753 8754 8746 7068 8980 8981 8973 7059 7066 8979 8972 8975 8982 7070 8983 8757 8984 8985 
823 824 1121 1120 856 857 1154 1153 6848 8760 8761 8753 7075 8987 8988 8980 7066 7073 8986 8979 8982 8989 7077 8990 8764 8991 8992 
825 826 1123 1122 858 859 1156 1155 6856 8768 8769 8770 7083 8995 8996 8997 7081 7080 8993 8994 9000 8998 7086 8999 8774 9001 9002 
826 827 1124 1123 859 860 1157 1156 6865 8777 8778 8768 7092 9004 9005 8995 7080 7090 9003 8993 8998 9006 7094 9007 8781 9008 9009 
827 828 1125 1124 860 861 1158 1157 6872 8784 8785 8777 7099 9011 9012 9004 7090 7097 9010 9003 9006 9013 7101 9014 8788 9015 9016 
828 829 1126 1125 861 862 1159 1158 6879 8791 8792 8784 7106 9018 9019 9011 7097 7104 9017 9010 9013 9020 7108 9021 8795 9022 9023 
829 830 1127 1126 862 863 1160 1159 6886 8798 8799 8791 7113 9025 9026 9018 7104 7111 9024 9017 9020 9027 7115 9028 8802 9029 9030 
830 831 1128 1127 863 864 1161 1160 6893 8805 8806 8798 7120 9032 9033 9025 7111 7118 9031 9024 9027 9034 7122 9035 8809 9036 9037 
831 832 1129 1128 864 865 1162 1161 6900 8812 8813 8805 7127 9039 9040 9032 7118 7125 9038 9031 9034 9041 7129 9042 8816 9043 9044 
832 833 1130 1129 865 866 1163 1162 6907 8819 8820 8812 7134 9046 9047 9039 7125 7132 9045 9038 9041 9048 7136 9049 8823 9050 9051 
833 834 1131 1130 866 867 1164 1163 6914 8826 8827 8819 7141 9053 9054 9046 7132 7139 9052 9045 9048 9055 7143 9056 8830 9057 9058 
834 835 1132 1131 867 868 1165 1164 6921 8833 8834 8826 7148 9060 9061 9053 7139 7146 9059 9052 9055 9062 7150 9063 8837 9064 9065 
835 836 1133 1132 868 869 1166 1165 6928 8840 8841 8833 7155 9067 9068 9060 7146 7153 9066 9059 9062 9069 7157 9070 8844 9071 9072 
836 837 1134 1133 869 870 1167 1166 6935 8847 8848 8840 7162 9074 9075 9067 7153 7160 9073 9066 9069 9076 7164 9077 8851 9078 9079 
837 838 1135 1134 870 871 1168 1167 6942 8854 8855 8847 7169 9081 9082 9074 7160 7167 9080 9073 9076 9083 7171 9084 8858 9085 9086 
838 839 1136 1135 871 872 1169 1168 6949 8861 8862 8854 7176 9088 9089 9081 7167 7174 9087 9080 9083 9090 7178 9091 8865 9092 9093 
839 840 1137 1136 872 873 1170 1169 6956 8868 8869 8861 7183 9095 9096 9088 7174 7181 9094 9087 9090 9097 7185 9098 8872 9099 9100 
840 841 1138 1137 873 874 1171 1170 6963 8875 8876 8868 7190 9102 9103 9095 7181 7188 9101 9094 9097 9104 7192 9105 8879 9106 9107 
841 842 1139 1138 874 875 1172 1171 6970 8882 8883 8875 7197 9109 9110 9102 7188 7195 9108 9101 9104 9111 7199 9112 8886 9113 9114 
842 843 1140 1139 875 876 1173 1172 6977 8889 8890 8882 7204 9116 9117 9109 7195 7202 9115 9108 9111 9118 7206 9119 8893 9120 9121 
843 844 1141 1140 876 877 1174 1173 6984 8896 8897 8889 7211 9123 9124 9116 7202 7209 9122 9115 9118 9125 7213 9126 8900 9127 9128 
844 845 1142 1141 877 878 1175 1174 6991 8903 8904 8896 7218 9130 9131 9123 7209 7216 9129 9122 9125 9132 7220 9133 8907 9134 9135 
845 846 1143 1142 878 879 1176 1175 6998 8910 8911 8903 7225 9137 9138 9130 7216 7223 9136 9129 9132 9139 7227 9140 8914 9141 9142 
846 847 1144 1143 879 880 1177 1176 7005 8917 8918 8910 7232 9144 9145 9137 7223 7230 9143 9136 9139 9146 7234 9147 8921 9148 9149 
847 848 1145 1144 880 881 1178 1177 7012 8924 8925 8917 7239 9151 9152 9144 7230 7237 9150 9143 9146 9153 7241 9154 8928 9155 9156 
848 849 1146 1145 881 882 1179 1178 7019 8931 8932 8924 7246 9158 9159 9151 7237 7244 9157 9150 9153 9160 7248 9161 8935 9162 9163 
849 850 1147 1146 882 883 1180 1179 7026 8938 8939 8931 7253 9165 9166 9158 7244 7251 9164 9157 9160 9167 7255 9168 8942 9169 9170 
850 851 1148 1147 883 884 1181 1180 7033 8945 8946 8938 7260 9172 9173 9165 7251 7258 9171 9164 9167 9174 7262 9175 8949 9176 9177 
851 852 1149 1148 884 885 1182 1181 7040 8952 8953 8945 7267 9179 9180 9172 7258 7265 9178 9171 9174 9181 7269 9182 8956 9183 9184 
852 853 1150 1149 885 886 1183 1182 7047 8959 8960 8952 7274 9186 9187 9179 7265 7272 9185 9178 9181 9188 7276 9189 8963 9190 9191 
853 854 1151 1150 886 887 1184 1183 7054 8966 8967 8959 7281 9193 9194 9186 7272 7279 9192 9185 9188 9195 7283 9196 8970 9197 9198 
854 855 1152 1151 887 888 1185 1184 7061 8973 8974 8966 7288 9200 9201 9193 7279 7286 9199 9192 9195 9202 7290 9203 8977 9204 9205 
855 856 1153 1152 888 889 1186 1185 7068 8980 8981 8973 7295 9207 9208 9200 7286 7293 9206 9199 9202 9209 7297 9210 8984 9211 9212 
856 857 1154 1153 889 890 1187 1186 7075 8987 8988 8980 7302 9214 9215 9207 7293 7300 9213 9206 9209 9216 7304 9217 8991 9218 9219 
891 892 1189 1188 924 925 1222 1221 7308 9220 9221 9222 7313 9225 9226 9227 7311 7310 9223 9224 9231 9229 7317 9230 9228 9232 9233 
892 893 1190 1189 925 926 1223 1222 7322 9234 9235 9220 7325 9237 9238 9225 7310 7323 9236 9223 9229 9240 7328 9241 9239 9242 9243 
893 894 1191 1190 926 927 1224 1223 7332 9244 9245 9234 7335 9247 9248 9237 7323 7333 9246 9236 9240 9250 7338 9251 9249 9252 9253 
894 895 1192 1191 927 928 1225 1224 7342 9254 9255 9244 7345 9257 9258 9247 7333 7343 9256 9246 9250 9260 7348 9261 9259 9262 9263 
895 896 1193 1192 928 929 1226 1225 7352 9264 9265 9254 7355 9267 9268 9257 7343 7353 9266 9256 9260 9270 7358 9271 9269 9272 9273 
896 897 1194 1193 929 930 1227 1226 7362 9274 9275 9264 7365 9277 9278 9267 7353 7363 9276 9266 9270 9280 7368 9281 9279 9282 9283 
897 898 1195 1194 930 931 1228 1227 7372 9284 9285 9274 7375 9287 9288 9277 7363 7373 9286 9276 9280 9290 7378 9291 9289 9292 9293 
898 899 1196 1195 931 932 1229 1228 7382 9294 9295 9284 7385 9297 9298 9287 7373 7383 9296 9286 9290 9300 7388 9301 9299 9302 9303 
899 900 1197 1196 932 933 1230 1229 7392 9304 9305 9294 7395 9307 9308 9297 7383 7393 9306 9296 9300 9310 7398 9311 9309 9312 9313 
900 901 1198 1197 933 934 1231 1230 7402 9314 9315 9304 7405 9317 9318 9307 7393 7403 9316 9306 9310 9320 7408 9321 9319 9322 9323 
901 902 1199 1198 934 935 1232 1231 7412 9324 9325 9314 7415 9327 9328 9317 7403 7413 9326 9316 9320 9330 7418 9331 9329 9332 9333 
902 903 1200 1199 935 936 1233 1232 7422 9334 9335 9324 7425 9337 9338 9327 7413 7423 9336 9326 9330 9340 7428 9341 9339 9342 9343 
903 904 1201 1200 936 937 1234 1233 7432 9344 9345 9334 7435 9347 9348 9337 7423 7433 9346 9336 9340 9350 7438 9351 9349 9352 9353 
904 905 1202 1201 937 938 1235 1234 7442 9354 9355 9344 7445 9357 9358 9347 7433 7443 9356 9346 9350 9360 7448 9361 9359 9362 9363 
905 906 1203 1202 938 939 1236 1235 7452 9364 9365 9354 7455 9367 9368 9357 7443 7453 9366 9356 9360 9370 7458 9371 9369 9372 9373 
906 907 1204 1203 939 940 1237 1236 7462 9374 9375 9364 7465 9377 9378 9367 7453 7463 9376 9366 9370 9380 7468 9381 9379 9382 9383 
907 908 1205 1204 940 941 1238 1237 7472 9384 9385 9374 7475 9387 9388 9377 7463 7473 9386 9376 9380 9390 7478 9391 9389 9392 9393 
908 909 1206 1205 941 942 1239 1238 7482 9394 9395 9384 7485 9397 9398 9387 7473 7483 9396 9386 9390 9400 7488 9401 9399 9402 9403 
909 910 1207 1206 942 943 1240 1239 7492 9404 9405 9394 7495 9407 9408 9397 7483 7493 9406 9396 9400 9410 7498 9411 9409 9412 9413 
910 911 1208 1207 943 944 1241 1240 7502 9414 9415 9404 7505 9417 9418 9407 7493 7503 9416 9406 9410 9420 7508 9421 9419 9422 9423 
911 912 1209 1208 944 945 1242 1241 7512 9424 9425 9414 7515 9427 9428 9417 7503 7513 9426 9416 9420 9430 7518 9431 9429 9432 9433 
912 913 1210 1209 945 946 1243 1242 7522 9434 9435 9424 7525 9437 9438 9427 7513 7523 9436 9426 9430 9440 7528 9441 9439 9442 9443 
913 914 1211 1210 946 947 1244 1243 7532 9444 9445 9434 7535 9447 9448 9437 7523 7533 9446 9436 9440 9450 7538 9451 9449 9452 9453 
914 915 1212 1211 947 948 1245 1244 7542 9454 9455 9444 7545 9457 9458 9447 7533 7543 9456 9446 9450 9460 7548 9461 9459 9462 9463 
915 916 1213 1212 948 949 1246 1245 7552 9464 9465 9454 7555 9467 9468 9457 7543 7553 9466 9456 9460 9470 7558 9471 9469 9472 9473 
916 917 1214 1213 949 950 1247 1246 7562 9474 9475 9464 7565 9477 9478 9467 7553 7563 9476 9466 9470 9480 7568 9481 9479 9482 9483 
917 918 1215 1214 950 951 1248 1247 7572 9484 9485 9474 7575 9487 9488 9477 7563 7573 9486 9476 9480 9490 7578 9491 9489 9492 9493 
918 919 1216 1215 951 952 1249 1248 7582 9494 9495 9484 7585 9497 9498 9487 7573 7583 9496 9486 9490 9500 7588 9501 9499 9502 9503 
919 920 1217 1216 952 953 1250 1249 7592 9504 9505 9494 7595 9507 9508 9497 7583 7593 9506 9496 9500 9510 7598 9511 9509 9512 9513 
920 921 1218 1217 953 954 1251 1250 7602 9514 9515 9504 7605 9517 9518 9507 7593 7603 9516 9506 9510 9520 7608 9521 9519 9522 9523 
921 922 1219 1218 954 955 1252 1251 7612 9524 9525 9514 7615 9527 9528 9517 7603 7613 9526 9516 9520 9530 7618 9531 9529 9532 9533 
922 923 1220 1219 955 956 1253 1252 7622 9534 9535 9524 7625 9537 9538 9527 7613 7623 9536 9526 9530 9540 7628 9541 9539 9542 9543 
924 925 1222 1221 957 958 1255 1254 7313 9225 9226 9227 7634 9546 9547 9548 7632 7631 9544 9545 9551 9549 7637 9550 9232 9552 9553 
925 926 1223 1222 958 959 1256 1255 7325 9237 9238 9225 7643 9555 9556 9546 7631 7641 9554 9544 9549 9557 7645 9558 9242 9559 9560 
926 927 1224 1223 959 960 1257 1256 7335 9247 9248 9237 7650 9562 9563 9555 7641 7648 9561 9554 9557 9564 7652 9565 9252 9566 9567 
927 928 1225 1224 960 961 1258 1257 7345 9257 9258 9247 7657 9569 9570 9562 7648 7655 9568 9561 9564 9571 7659 9572 9262 9573 9574 
928 929 1226 1225 961 962 1259 1258 7355 9267 9268 9257 7664 9576 9577 9569 7655 7662 9575 9568 9571 9578 7666 9579 9272 9580 9581 
929 930 1227 1226 962 963 1260 1259 7365 9277 9278 9267 7671 9583 9584 9576 7662 7669 9582 9575 9578 9585 7673 9586 9282 9587 9588 
930 931 1228 1227 963 964 1261 1260 7375 9287 9288 9277 7678 9590 9591 9583 7669 7676 9589 9582 9585 9592 7680 9593 9292 9594 9595 
931 932 1229 1228 964 965 1262 1261 7385 9297 9298 9287 7685 9597 9598 9590 7676 7683 9596 9589 9592 9599 7687 9600 9302 9601 9602 
932 933 1230 1229 965 966 1263 1262 7395 9307 9308 9297 7692 9604 9605 9597 7683 7690 9603 9596 9599 9606 7694 9607 9312 9608 9609 
933 934 1231 1230 966 967 1264 1263 7405 9317 9318 9307 7699 9611 9612 9604 7690 7697 9610 9603 9606 9613 7701 9614 9322 9615 9616 
934 935 1232 1231 967 968 1265 1264 7415 9327 9328 9317 7706 9618 9619 9611 7697 7704 9617 9610 9613 9620 7708 9621 9332 9622 9623 
935 936 1233 1232 968 969 1266 1265 7425 9337 9338 9327 7713 9625 9626 9618 7704 7711 9624 9617 9620 9627 7715 9628 9342 9629 9630 
936 937 1234 1233 969 970 1267 1266 7435 9347 9348 9337 7720 9632 9633 9625 7711 7718 9631 9624 9627 9634 7722 9635 9352 9636 9637 
937 938 1235 1234 970 971 1268 1267 7445 9357 9358 9347 7727 9639 9640 9632 7718 7725 9638 9631 9634 9641 7729 9642 9362 9643 9644 
938 939 1236 1235 971 972 1269 1268 7455 9367 9368 9357 7734 9646 9647 9639 7725 7732 9645 9638 9641 9648 7736 9649 9372 9650 9651 
939 940 1237 1236 972 973 1270 1269 7465 9377 9378 9367 7741 9653 9654 9646 7732 7739 9652 9645 9648 9655 7743 9656 9382 9657 9658 
940 941 1238 1237 973 974 1271 1270 7475 9387 9388 9377 7748 9660 9661 9653 7739 7746 9659 9652 9655 9662 7750 9663 9392 9664 9665 
941 942 1239 1238 974 975 1272 1271 7485 9397 9398 9387 7755 9667 9668 9660 7746 7753 9666 9659 9662 9669 7757 9670 9402 9671 9672 
942 943 1240 1239 975 976 1273 1272 7495 9407 9408 9397 7762 9674 9675 9667 7753 7760 9673 9666 9669 9676 7764 9677 9412 9678 9679 
943 944 1241 1240 976 977 1274 1273 7505 9417 9418 9407 7769 9681 9682 9674 7760 7767 9680 9673 9676 9683 7771 9684 9422 9685 9686 
944 945 1242 1241 977 978 1275 1274 7515 9427 9428 9417 7776 9688 9689 9681 7767 7774 9687 9680 9683 9690 7778 9691 9432 9692 9693 
945 946 1243 1242 978 979 1276 1275 7525 9437 9438 9427 7783 9695 9696 9688 7774 7781 9694 9687 9690 9697 7785 9698 9442 9699 9700 
946 947 1244 1243 979 980 1277 1276 7535 9447 9448 9437 7790 9702 9703 9695 7781 7788 9701 9694 9697 9704 7792 9705 9452 9706 9707 
947 948 1245 1244 980 981 1278 1277 7545 9457 9458 9447 7797 9709 9710 9702 7788 7795 9708 9701 9704 9711 7799 9712 9462 9713 9714 
948 949 1246 1245 981 982 1279 1278 7555 9467 9468 9457 7804 9716 9717 9709 7795 7802 9715 9708 9711 9718 7806 9719 9472 9720 9721 
949 950 1247 1246 982 983 1280 1279 7565 9477 9478 9467 7811 9723 9724 9716 7802 7809 9722 9715 9718 9725 7813 9726 9482 9727 9728 
950 951 1248 1247 983 984 1281 1280 7575 9487 9488 9477 7818 9730 9731 9723 7809 7816 9729 9722 9725 9732 7820 9733 9492 9734 9735 
951 952 1249 1248 984 985 1282 1281 7585 9497 9498 9487 7825 9737 9738 9730 7816 7823 9736 9729 9732 9739 7827 9740 9502 9741 9742 
952 953 1250 1249 985 986 1283 1282 7595 9507 9508 9497 7832 9744 9745 9737 7823 7830 9743 9736 9739 9746 7834 9747 9512 9748 9749 
953 954 1251 1250 986 987 1284 1283 7605 9517 9518 9507 7839 9751 9752 9744 7830 7837 9750 9743 9746 9753 7841 9754 9522 9755 9756 
954 955 1252 1251 987 988 1285 1284 7615 9527 9528 9517 7846 9758 9759 9751 7837 7844 9757 9750 9753 9760 7848 9761 9532 9762 9763 
955 956 1253 1252 988 989 1286 1285 7625 9537 9538 9527 7853 9765 9766 9758 7844 7851 9764 9757 9760 9767 7855 9768 9542 9769 9770 
957 958 1255 1254 990 991 1288 1287 7634 9546 9547 9548 7861 9773 9774 9775 7859 7858 9771 9772 9778 9776 7864 9777 9552 9779 9780 
958 959 1256 1255 991 992 1289 1288 7643 9555 9556 9546 7870 9782 9783 9773 7858 7868 9781 9771 9776 9784 7872 9785 9559 9786 9787 
959 960 1257 1256 992 993 1290 1289 7650 9562 9563 9555 7877 9789 9790 9782 7868 7875 9788 9781 9784 9791 7879 9792 9566 9793 9794 
960 961 1258 1257 993 994 1291 1290 7657 9569 9570 9562 7884 9796 9797 9789 7875 7882 9795 9788 9791 9798 7886 9799 9573 9800 9801 
961 962 1259 1258 994 995 1292 1291 7664 9576 9577 9569 7891 9803 9804 9796 7882 7889 9802 9795 9798 9805 7893 9806 9580 9807 9808 
962 963 1260 1259 995 996 1293 1292 7671 9583 9584 9576 7898 9810 9811 9803 7889 7896 9809 9802 9805 9812 7900 9813 9587 9814 9815 
963 964 1261 1260 996 997 1294 1293 7678 9590 9591 9583 7905 9817 9818 9810 7896 7903 9816 9809 9812 9819 7907 9820 9594 9821 9822 
964 965 1262 1261 997 998 1295 1294 7685 9597 9598 9590 7912 9824 9825 9817 7903 7910 9823 9816 9819 9826 7914 9827 9601 9828 9829 
965 966 1263 1262 998 999 1296 1295 7692 9604 9605 9597 7919 9831 9832 9824 7910 7917 9830 9823 9826 9833 7921 9834 9608 9835 9836 
966 967 1264 1263 999 1000 1297 1296 7699 9611 9612 9604 7926 9838 9839 9831 7917 7924 9837 9830 9833 9840 7928 9841 9615 9842 9843 
967 968 1265 1264 1000 1001 1298 1297 7706 9618 9619 9611 7933 9845 9846 9838 7924 7931 9844 9837 9840 9847 7935 9848 9622 9849 9850 
968 969 1266 1265 1001 1002 1299 1298 7713 9625 9626 9618 7940 9852 9853 9845 7931 7938 9851 9844 9847 9854 7942 9855 9629 9856 9857 
969 970 1267 1266 1002 1003 1300 1299 7720 9632 9633 9625 7947 9859 9860 9852 7938 7945 9858 9851 9854 9861 7949 9862 9636 9863 9864 
970 971 1268 1267 1003 1004 1301 1300 7727 9639 9640 9632 7954 9866 9867 9859 7945 7952 9865 9858 9861 9868 7956 9869 9643 9870 9871 
971 972 1269 1268 1004 1005 1302 1301 7734 9646 9647 9639 7961 9873 9874 9866 7952 7959 9872 9865 9868 9875 7963 9876 9650 9877 9878 
972 973 1270 1269 1005 1006 1303 1302 7741 9653 9654 9646 7968 9880 9881 9873 7959 7966 9879 9872 9875 9882 7970 9883 9657 9884 9885 
973 974 1271 1270 1006 1007 1304 1303 7748 9660 9661 9653 7975 9887 9888 9880 7966 7973 9886 9879 9882 9889 7977 9890 9664 9891 9892 
974 975 1272 1271 1007 1008 1305 1304 7755 9667 9668 9660 7982 9894 9895 9887 7973 7980 9893 9886 9889 9896 7984 9897 9671 9898 9899 
975 976 1273 1272 1008 1009 1306 1305 7762 9674 9675 9667 7989 9901 9902 9894 7980 7987 9900 9893 9896 9903 7991 9904 9678 9905 9906 
976 977 1274 1273 1009 1010 1307 1306 7769 9681 9682 9674 7996 9908 9909 9901 7987 7994 9907 9900 9903 9910 7998 9911 9685 9912 9913 
977 978 1275 1274 1010 1011 1308 1307 7776 9688 9689 9681 8003 9915 9916 9908 7994 8001 9914 9907 9910 9917 8005 9918 9692 9919 9920 
978 979 1276 1275 1011 1012 1309 1308 7783 9695 9696 9688 8010 9922 9923 9915 8001 8008 9921 9914 9917 9924 8012 9925 9699 9926 9927 
979 980 1277 1276 1012 1013 1310 1309 7790 9702 9703 9695 8017 9929 9930 9922 8008 8015 9928 9921 9924 9931 8019 9932 9706 9933 9934 
980 981 1278 1277 1013 1014 1311 1310 7797 9709 9710 9702 8024 9936 9937 9929 8015 8022 9935 9928 9931 9938 8026 9939 9713 9940 9941 
981 982 1279 1278 1014 1015 1312 1311 7804 9716 9717 9709 8031 9943 9944 9936 8022 8029 9942 9935 9938 9945 8033 9946 9720 9947 9948 
982 983 1280 1279 1015 1016 1313 1312 7811 9723 9724 9716 8038 9950 9951 9943 8029 8036 9949 9942 9945 9952 8040 9953 9727 9954 9955 
983 984 1281 1280 1016 1017 1314 1313 7818 9730 9731 9723 8045 9957 9958 9950 8036 8043 9956 9949 9952 9959 8047 9960 9734 9961 9962 
984 985 1282 1281 1017 1018 1315 1314 7825 9737 9738 9730 8052 9964 9965 9957 8043 8050 9963 9956 9959 9966 8054 9967 9741 9968 9969 
985 986 1283 1282 1018 1019 1316 1315 7832 9744 9745 9737 8059 9971 9972 9964 8050 8057 9970 9963 9966 9973 8061 9974 9748 9975 9976 
986 987 1284 1283 1019 1020 1317 1316 7839 9751 9752 9744 8066 9978 9979 9971 8057 8064 9977 9970 9973 9980 8068 9981 9755 9982 9983 
987 988 1285 1284 1020 1021 1318 1317 7846 9758 9759 9751 8073 9985 9986 9978 8064 8071 9984 9977 9980 9987 8075 9988 9762 9989 9990 
988 989 1286 1285 1021 1022 1319 1318 7853 9765 9766 9758 8080 9992 9993 9985 8071 8078 9991 9984 9987 9994 8082 9995 9769 9996 9997 
990 991 1288 1287 1023 1024 1321 1320 7861 9773 9774 9775 8088 10000 10001 10002 8086 8085 9998 9999 10005 10003 8091 10004 9779 10006 10007 
991 992 1289 1288 1024 1025 1322 1321 7870 9782 9783 9773 8097 10009 10010 10000 8085 8095 10008 9998 10003 10011 8099 10012 9786 10013 10014 
992 993 1290 1289 1025 1026 1323 1322 7877 9789 9790 9782 8104 10016 10017 10009 8095 8102 10015 10008 10011 10018 8106 10019 9793 10020 10021 
993 994 1291 1290 1026 1027 1324 1323 7884 9796 9797 9789 8111 10023 10024 10016 8102 8109 10022 10015 10018 10025 8113 10026 9800 10027 10028 
994 995 1292 1291 1027 1028 1325 1324 7891 9803 9804 9796 8118 10030 10031 10023 8109 8116 10029 10022 10025 10032 8120 10033 9807 10034 10035 
995 996 1293 1292 1028 1029 1326 1325 7898 9810 9811 9803 8125 10037 10038 10030 8116 8123 10036 10029 10032 10039 8127 10040 9814 10041 10042 
996 997 1294 1293 1029 1030 1327 1326 7905 9817 9818 9810 8132 10044 10045 10037 8123 8130 10043 10036 10039 10046 8134 10047 9821 10048 10049 
997 998 1295 1294 1030 1031 1328 1327 7912 9824 9825 9817 8139 10051 10052 10044 8130 8137 10050 10043 10046 10053 8141 10054 9828 10055 10056 
998 999 1296 1295 1031 1032 1329 1328 7919 9831 9832 9824 8146 10058 10059 10051 8137 8144 10057 10050 10053 10060 8148 10061 9835 10062 10063 
999 1000 1297 1296 1032 1033 1330 1329 7926 9838 9839 9831 8153 10065 10066 10058 8144 8151 10064 10057 10060 10067 8155 10068 9842 10069 10070 
1000 1001 1298 1297 1033 1034 1331 1330 7933 9845 9846 9838 8160 10072 10073 10065 8151 8158 10071 10064 10067 10074 8162 10075 9849 10076 10077 
1001 1002 1299 1298 1034 1035 1332 1331 7940 9852 9853 9845 8167 10079 10080 10072 8158 8165 10078 10071 10074 10081 8169 10082 9856 10083 10084 
1002 1003 1300 1299 1035 1036 1333 1332 7947 9859 9860 9852 8174 10086 10087 10079 8165 8172 10085 10078 10081 10088 8176 10089 9863 10090 10091 
1003 1004 1301 1300 1036 1037 1334 1333 7954 9866 9867 9859 8181 10093 10094 10086 8172 8179 10092 10085 10088 10095 8183 10096 9870 10097 10098 
1004 1005 1302 1301 1037 1038 1335 1334 7961 9873 9874 9866 8188 10100 10101 10093 8179 8186 10099 10092 10095 10102 8190 10103 9877 10104 10105 
1005 1006 1303 1302 1038 1039 1336 1335 7968 9880 9881 9873 8195 10107 10108 10100 8186 8193 10106 10099 10102 10109 8197 10110 9884 10111 10112 
1006 1007 1304 1303 1039 1040 1337 1336 7975 9887 9888 9880 8202 10114 10115 10107 8193 8200 10113 10106 10109 10116 8204 10117 9891 10118 10119 
1007 1008 1305 1304 1040 1041 1338 1337 7982 9894 9895 9887 8209 10121 10122 10114 8200 8207 10120 10113 10116 10123 8211 10124 9898 10125 10126 
1008 1009 1306 1305 1041 1042 1339 1338 7989 9901 9902 9894 8216 10128 10129 10121 8207 8214 10127 10120 10123 10130 8218 10131 9905 10132 10133 
1009 1010 1307 1306 1042 1043 1340 1339 7996 9908 9909 9901 8223 10135 10136 10128 8214 8221 10134 10127 10130 10137 8225 10138 9912 10139 10140 
1010 1011 1308 1307 1043 1044 1341 1340 8003 9915 9916 9908 8230 10142 10143 10135 8221 8228 10141 10134 10137 10144 8232 10145 9919 10146 10147 
1011 1012 1309 1308 1044 1045 1342 1341 8010 9922 9923 9915 8237 10149 10150 10142 8228 8235 10148 10141 10144 10151 8239 10152 9926 10153 10154 
1012 1013 1310 1309 1045 1046 1343 1342 8017 9929 9930 9922 8244 10156 10157 10149 8235 8242 10155 10148 10151 10158 8246 10159 9933 10160 10161 
1013 1014 1311 1310 1046 1047 1344 1343 8024 9936 9937 9929 8251 10163 10164 10156 8242 8249 10162 10155 10158 10165 8253 10166 9940 10167 10168 
1014 1015 1312 1311 1047 1048 1345 1344 8031 9943 9944 9936 8258 10170 10171 10163 8249 8256 10169 10162 10165 10172 8260 10173 9947 10174 10175 
1015 1016 1313 1312 1048 1049 1346 1345 8038 9950 9951 9943 8265 10177 10178 10170 8256 8263 10176 10169 10172 10179 8267 10180 9954 10181 10182 
1016 1017 1314 1313 1049 1050 1347 1346 8045 9957 9958 9950 8272 10184 10185 10177 8263 8270 10183 10176 10179 10186 8274 10187 9961 10188 10189 
1017 1018 1315 1314 1050 1051 1348 1347 8052 9964 9965 9957 8279 10191 10192 10184 8270 8277 10190 10183 10186 10193 8281 10194 9968 10195 10196 
1018 1019 1316 1315 1051 1052 1349 1348 8059 9971 9972 9964 8286 10198 10199 10191 8277 8284 10197 10190 10193 10200 8288 10201 9975 10202 10203 
1019 1020 1317 1316 1052 1053 1350 1349 8066 9978 9979 9971 8293 10205 10206 10198 8284 8291 10204 10197 10200 10207 8295 10208 9982 10209 10210 
1020 1021 1318 1317 1053 1054 1351 1350 8073 9985 9986 9978 8300 10212 10213 10205 8291 8298 10211 10204 10207 10214 8302 10215 9989 10216 10217 
1021 1022 1319 1318 1054 1055 1352 1351 8080 9992 9993 9985 8307 10219 10220 10212 8298 8305 10218 10211 10214 10221 8309 10222 9996 10223 10224 
1023 1024 1321 1320 1056 1057 1354 1353 8088 10000 10001 10002 8315 10227 10228 10229 8313 8312 10225 10226 10232 10230 8318 10231 10006 10233 10234 
1024 1025 1322 1321 1057 1058 1355 1354 8097 10009 10010 10000 8324 10236 10237 10227 8312 8322 10235 10225 10230 10238 8326 10239 10013 10240 10241 
1025 1026 1323 1322 1058 1059 1356 1355 8104 10016 10017 10009 8331 10243 10244 10236 8322 8329 10242 10235 10238 10245 8333 10246 10020 10247 10248 
1026 1027 1324 1323 1059 1060 1357 1356 8111 10023 10024 10016 8338 10250 10251 10243 8329 8336 10249 10242 10245 10252 8340 10253 10027 10254 10255 
1027 1028 1325 1324 1060 1061 1358 1357 8118 10030 10031 10023 8345 10257 10258 10250 8336 8343 10256 10249 10252 10259 8347 10260 10034 10261 10262 
1028 1029 1326 1325 1061 1062 1359 1358 8125 10037 10038 10030 8352 10264 10265 10257 8343 8350 10263 10256 10259 10266 8354 10267 10041 10268 10269 
1029 1030 1327 1326 1062 1063 1360 1359 8132 10044 10045 10037 8359 10271 10272 10264 8350 8357 10270 10263 10266 10273 8361 10274 10048 10275 10276 
1030 1031 1328 1327 1063 1064 1361 1360 8139 10051 10052 10044 8366 10278 10279 10271 8357 8364 10277 10270 10273 10280 8368 10281 10055 10282 10283 
1031 1032 1329 1328 1064 1065 1362 1361 8146 10058 10059 10051 8373 10285 10286 10278 8364 8371 10284 10277 10280 10287 8375 10288 10062 10289 10290 
1032 1033 1330 1329 1065 1066 1363 1362 8153 10065 10066 10058 8380 10292 10293 10285 8371 8378 10291 10284 10287 10294 8382 10295 10069 10296 10297 
1033 1034 1331 1330 1066 1067 1364 1363 8160 10072 10073 10065 8387 10299 10300 10292 8378 8385 10298 10291 10294 10301 8389 10302 10076 10303 10304 
1034 1035 1332 1331 1067 1068 1365 1364 8167 10079 10080 10072 8394 10306 10307 10299 8385 8392 10305 10298 10301 10308 8396 10309 10083 10310 10311 
1035 1036 1333 1332 1068 1069 1366 1365 8174 10086 10087 10079 8401 10313 10314 10306 8392 8399 10312 10305 10308 10315 8403 10316 10090 10317 10318 
1036 1037 1334 1333 1069 1070 1367 1366 8181 10093 10094 10086 8408 10320 10321 10313 8399 8406 10319 10312 10315 10322 8410 10323 10097 10324 10325 
1037 1038 1335 1334 1070 1071 1368 1367 8188 10100 10101 10093 8415 10327 10328 10320 8406 8413 10326 10319 10322 10329 8417 10330 10104 10331 10332 
1038 1039 1336 1335 1071 1072 1369 1368 8195 10107 10108 10100 8422 10334 10335 10327 8413 8420 10333 10326 10329 10336 8424 10337 10111 10338 10339 
1039 1040 1337 1336 1072 1073 1370 1369 8202 10114 10115 10107 8429 10341 10342 10334 8420 8427 10340 10333 10336 10343 8431 10344 10118 10345 10346 
1040 1041 1338 1337 1073 1074 1371 1370 8209 10121 10122 10114 8436 10348 10349 10341 8427 8434 10347 10340 10343 10350 8438 10351 10125 10352 10353 
1041 1042 1339 1338 1074 1075 1372 1371 8216 10128 10129 10121 8443 10355 10356 10348 8434 8441 10354 10347 10350 10357 8445 10358 10132 10359 10360 
1042 1043 1340 1339 1075 1076 1373 1372 8223 10135 10136 10128 8450 10362 10363 10355 8441 8448 10361 10354 10357 10364 8452 10365 10139 10366 10367 
1043 1044 1341 1340 1076 1077 1374 1373 8230 10142 10143 10135 8457 10369 10370 10362 8448 8455 10368 10361 10364 10371 8459 10372 10146 10373 10374 
1044 1045 1342 1341 1077 1078 1375 1374 8237 10149 10150 10142 8464 10376 10377 10369 8455 8462 10375 10368 10371 10378 8466 10379 10153 10380 10381 
1045 1046 1343 1342 1078 1079 1376 1375 8244 10156 10157 10149 8471 10383 10384 10376 8462 8469 10382 10375 10378 10385 8473 10386 10160 10387 10388 
1046 1047 1344 1343 1079 1080 1377 1376 8251 10163 10164 10156 8478 10390 10391 10383 8469 8476 10389 10382 10385 10392 8480 10393 10167 10394 10395 
1047 1048 1345 1344 1080 1081 1378 1377 8258 10170 10171 10163 8485 10397 10398 10390 8476 8483 10396 10389 10392 10399 8487 10400 10174 10401 10402 
1048 1049 1346 1345 1081 1082 1379 1378 8265 10177 10178 10170 8492 10404 10405 10397 8483 8490 10403 10396 10399 10406 8494 10407 10181 10408 10409 
1049 1050 1347 1346 1082 1083 1380 1379 8272 10184 10185 10177 8499 10411 10412 10404 8490 8497 10410 10403 10406 10413 8501 10414 10188 10415 10416 
1050 1051 1348 1347 1083 1084 1381 1380 8279 10191 10192 10184 8506 10418 10419 10411 8497 8504 10417 10410 10413 10420 8508 10421 10195 10422 10423 
1051 1052 1349 1348 1084 1085 1382 1381 8286 10198 10199 10191 8513 10425 10426 10418 8504 8511 10424 10417 10420 10427 8515 10428 10202 10429 10430 
1052 1053 1350 1349 1085 1086 1383 1382 8293 10205 10206 10198 8520 10432 10433 10425 8511 8518 10431 10424 10427 10434 8522 10435 10209 10436 10437 
1053 1054 1351 1350 1086 1087 1384 1383 8300 10212 10213 10205 8527 10439 10440 10432 8518 8525 10438 10431 10434 10441 8529 10442 10216 10443 10444 
1054 1055 1352 1351 1087 1088 1385 1384 8307 10219 10220 10212 8534 10446 10447 10439 8525 8532 10445 10438 10441 10448 8536 10449 10223 10450 10451 
1056 1057 1354 1353 1089 1090 1387 1386 8315 10227 10228 10229 8542 10454 10455 10456 8540 8539 10452 10453 10459 10457 8545 10458 10233 10460 10461 
1057 1058 1355 1354 1090 1091 1388 1387 8324 10236 10237 10227 8551 10463 10464 10454 8539 8549 10462 10452 10457 10465 8553 10466 10240 10467 10468 
1058 1059 1356 1355 1091 1092 1389 1388 8331 10243 10244 10236 8558 10470 10471 10463 8549 8556 10469 10462 10465 10472 8560 10473 10247 10474 10475 
1059 1060 1357 1356 1092 1093 1390 1389 8338 10250 10251 10243 8565 10477 10478 10470 8556 8563 10476 10469 10472 10479 8567 10480 10254 10481 10482 
1060 1061 1358 1357 1093 1094 1391 1390 8345 10257 10258 10250 8572 10484 10485 10477 8563 8570 10483 10476 10479 10486 8574 10487 10261 10488 10489 
1061 1062 1359 1358 1094 1095 1392 1391 8352 10264 10265 10257 8579 10491 10492 10484 8570 8577 10490 10483 10486 10493 8581 10494 10268 10495 10496 
1062 1063 1360 1359 1095 1096 1393 1392 8359 10271 10272 10264 8586 10498 10499 10491 8577 8584 10497 10490 10493 10500 8588 10501 10275 10502 10503 
1063 1064 1361 1360 1096 1097 1394 1393 8366 10278 10279 10271 8593 10505 10506 10498 8584 8591 10504 10497 10500 10507 8595 10508 10282 10509 10510 
1064 1065 1362 1361 1097 1098 1395 1394 8373 10285 10286 10278 8600 10512 10513 10505 8591 8598 10511 10504 10507 10514 8602 10515 10289 10516 10517 
1065 1066 1363 1362 1098 1099 1396 1395 8380 10292 10293 10285 8607 10519 10520 10512 8598 8605 10518 10511 10514 10521 8609 10522 10296 10523 10524 
1066 1067 1364 1363 1099 1100 1397 1396 8387 10299 10300 10292 8614 10526 10527 10519 8605 8612 10525 10518 10521 10528 8616 10529 10303 10530 10531 
1067 1068 1365 1364 1100 1101 1398 1397 8394 10306 10307 10299 8621 10533 10534 10526 8612 8619 10532 10525 10528 10535 8623 10536 10310 10537 10538 
1068 1069 1366 1365 1101 1102 1399 1398 8401 10313 10314 10306 8628 10540 10541 10533 8619 8626 10539 10532 10535 10542 8630 10543 10317 10544 10545 
1069 1070 1367 1366 1102 1103 1400 1399 8408 10320 10321 10313 8635 10547 10548 10540 8626 8633 10546 10539 10542 10549 8637 10550 10324 10551 10552 
1070 1071 1368 1367 1103 1104 1401 1400 8415 10327 10328 10320 8642 10554 10555 10547 8633 8640 10553 10546 10549 10556 8644 10557 10331 10558 10559 
1071 1072 1369 1368 1104 1105 1402 1401 8422 10334 10335 10327 8649 10561 10562 10554 8640 8647 10560 10553 10556 10563 8651 10564 10338 10565 10566 
1072 1073 1370 1369 1105 1106 1403 1402 8429 10341 10342 10334 8656 10568 10569 10561 8647 8654 10567 10560 10563 10570 8658 10571 10345 10572 10573 
1073 1074 1371 1370 1106 1107 1404 1403 8436 10348 10349 10341 8663 10575 10576 10568 8654 8661 10574 10567 10570 10577 8665 10578 10352 10579 10580 
1074 1075 1372 1371 1107 1108 1405 1404 8443 10355 10356 10348 8670 10582 10583 10575 8661 8668 10581 10574 10577 10584 8672 10585 10359 10586 10587 
1075 1076 1373 1372 1108 1109 1406 1405 8450 10362 10363 10355 8677 10589 10590 10582 8668 8675 10588 10581 10584 10591 8679 10592 10366 10593 10594 
1076 1077 1374 1373 1109 1110 1407 1406 8457 10369 10370 10362 8684 10596 10597 10589 8675 8682 10595 10588 10591 10598 8686 10599 10373 10600 10601 
1077 1078 1375 1374 1110 1111 1408 1407 8464 10376 10377 10369 8691 10603 10604 10596 8682 8689 10602 10595 10598 10605 8693 10606 10380 10607 10608 
1078 1079 1376 1375 1111 1112 1409 1408 8471 10383 10384 10376 8698 10610 10611 10603 8689 8696 10609 10602 10605 10612 8700 10613 10387 10614 10615 
1079 1080 1377 1376 1112 1113 1410 1409 8478 10390 10391 10383 8705 10617 10618 10610 8696 8703 10616 10609 10612 10619 8707 10620 10394 10621 10622 
1080 1081 1378 1377 1113 1114 1411 1410 8485 10397 10398 10390 8712 10624 10625 10617 8703 8710 10623 10616 10619 10626 8714 10627 10401 10628 10629 
1081 1082 1379 1378 1114 1115 1412 1411 8492 10404 10405 10397 8719 10631 10632 10624 8710 8717 10630 10623 10626 10633 8721 10634 10408 10635 10636 
1082 1083 1380 1379 1115 1116 1413 1412 8499 10411 10412 10404 8726 10638 10639 10631 8717 8724 10637 10630 10633 10640 8728 10641 10415 10642 10643 
1083 1084 1381 1380 1116 1117 1414 1413 8506 10418 10419 10411 8733 10645 10646 10638 8724 8731 10644 10637 10640 10647 8735 10648 10422 10649 10650 
1084 1085 1382 1381 1117 1118 1415 1414 8513 10425 10426 10418 8740 10652 10653 10645 8731 8738 10651 10644 10647 10654 8742 10655 10429 10656 10657 
1085 1086 1383 1382 1118 1119 1416 1415 8520 10432 10433 10425 8747 10659 10660 10652 8738 8745 10658 10651 10654 10661 8749 10662 10436 10663 10664 
1086 1087 1384 1383 1119 1120 1417 1416 8527 10439 10440 10432 8754 10666 10667 10659 8745 8752 10665 10658 10661 10668 8756 10669 10443 10670 10671 
1087 1088 1385 1384 1120 1121 1418 1417 8534 10446 10447 10439 8761 10673 10674 10666 8752 8759 10672 10665 10668 10675 8763 10676 10450 10677 10678 
1089 1090 1387 1386 1122 1123 1420 1419 8542 10454 10455 10456 8769 10681 10682 10683 8767 8766 10679 10680 10686 10684 8772 10685 10460 10687 10688 
1090 1091 1388 1387 1123 1124 1421 1420 8551 10463 10464 10454 8778 10690 10691 10681 8766 8776 10689 10679 10684 10692 8780 10693 10467 10694 10695 
1091 1092 1389 1388 1124 1125 1422 1421 8558 10470 10471 10463 8785 10697 10698 10690 8776 8783 10696 10689 10692 10699 8787 10700 10474 10701 10702 
1092 1093 1390 1389 1125 1126 1423 1422 8565 10477 10478 10470 8792 10704 10705 10697 8783 8790 10703 10696 10699 10706 8794 10707 10481 10708 10709 
1093 1094 1391 1390 1126 1127 1424 1423 8572 10484 10485 10477 8799 10711 10712 10704 8790 8797 10710 10703 10706 10713 8801 10714 10488 10715 10716 
1094 1095 1392 1391 1127 1128 1425 1424 8579 10491 10492 10484 8806 10718 10719 10711 8797 8804 10717 10710 10713 10720 8808 10721 10495 10722 10723 
1095 1096 1393 1392 1128 1129 1426 1425 8586 10498 10499 10491 8813 10725 10726 10718 8804 8811 10724 10717 10720 10727 8815 10728 10502 10729 10730 
1096 1097 1394 1393 1129 1130 1427 1426 8593 10505 10506 10498 8820 10732 10733 10725 8811 8818 10731 10724 10727 10734 8822 10735 10509 10736 10737 
1097 1098 1395 1394 1130 1131 1428 1427 8600 10512 10513 10505 8827 10739 10740 10732 8818 8825 10738 10731 10734 10741 8829 10742 10516 10743 10744 
1098 1099 1396 1395 1131 1132 1429 1428 8607 10519 10520 10512 8834 10746 10747 10739 8825 8832 10745 10738 10741 10748 8836 10749 10523 10750 10751 
1099 1100 1397 1396 1132 1133 1430 1429 8614 10526 10527 10519 8841 10753 10754 10746 8832 8839 10752 10745 10748 10755 8843 10756 10530 10757 10758 
1100 1101 1398 1397 1133 1134 1431 1430 8621 10533 10534 10526 8848 10760 10761 10753 8839 8846 10759 10752 10755 10762 8850 10763 10537 10764 10765 
1101 1102 1399 1398 1134 1135 1432 1431 8628 10540 10541 10533 8855 10767 10768 10760 8846 8853 10766 10759 10762 10769 8857 10770 10544 10771 10772 
1102 1103 1400 1399 1135 1136 1433 1432 8635 10547 10548 10540 8862 10774 10775 10767 8853 8860 10773 10766 10769 10776 8864 10777 10551 10778 10779 
1103 1104 1401 1400 1136 1137 1434 1433 8642 10554 10555 10547 8869 10781 10782 10774 8860 8867 10780 10773 10776 10783 8871 10784 10558 10785 10786 
1104 1105 1402 1401 1137 1138 1435 1434 8649 10561 10562 10554 8876 10788 10789 10781 8867 8874 10787 10780 10783 10790 8878 10791 10565 10792 10793 
1105 1106 1403 1402 1138 1139 1436 1435 8656 10568 10569 10561 8883 10795 10796 10788 8874 8881 10794 10787 10790 10797 8885 10798 10572 10799 10800 
1106 1107 1404 1403 1139 1140 1437 1436 8663 10575 10576 10568 8890 10802 10803 10795 8881 8888 10801 10794 10797 10804 8892 10805 10579 10806 10807 
1107 1108 1405 1404 1140 1141 1438 1437 8670 10582 10583 10575 8897 10809 10810 10802 8888 8895 10808 10801 10804 10811 8899 10812 10586 10813 10814 
1108 1109 1406 1405 1141 1142 1439 1438 8677 10589 10590 10582 8904 10816 10817 10809 8895 8902 10815 10808 10811 10818 8906 10819 10593 10820 10821 
1109 1110 1407 1406 1142 1143 1440 1439 8684 10596 10597 10589 8911 10823 10824 10816 8902 8909 10822 10815 10818 10825 8913 10826 10600 10827 10828 
1110 1111 1408 1407 1143 1144 1441 1440 8691 10603 10604 10596 8918 10830 10831 10823 8909 8916 10829 10822 10825 10832 8920 10833 10607 10834 10835 
1111 1112 1409 1408 1144 1145 1442 1441 8698 10610 10611 10603 8925 10837 10838 10830 8916 8923 10836 10829 10832 10839 8927 10840 10614 10841 10842 
1112 1113 1410 1409 1145 1146 1443 1442 8705 10617 10618 10610 8932 10844 10845 10837 8923 8930 10843 10836 10839 10846 8934 10847 10621 10848 10849 
1113 1114 1411 1410 1146 1147 1444 1443 8712 10624 10625 10617 8939 10851 10852 10844 8930 8937 10850 10843 10846 10853 8941 10854 10628 10855 10856 
1114 1115 1412 1411 1147 1148 1445 1444 8719 10631 10632 10624 8946 10858 10859 10851 8937 8944 10857 10850 10853 10860 8948 10861 10635 10862 10863 
1115 1116 1413 1412 1148 1149 1446 1445 8726 10638 10639 10631 8953 10865 10866 10858 8944 8951 10864 10857 10860 10867 8955 10868 10642 10869 10870 
1116 1117 1414 1413 1149 1150 1447 1446 8733 10645 10646 10638 8960 10872 10873 10865 8951 8958 10871 10864 10867 10874 8962 10875 10649 10876 10877 
1117 1118 1415 1414 1150 1151 1448 1447 8740 10652 10653 10645 8967 10879 10880 10872 8958 8965 10878 10871 10874 10881 8969 10882 10656 10883 10884 
1118 1119 1416 1415 1151 1152 1449 1448 8747 10659 10660 10652 8974 10886 10887 10879 8965 8972 10885 10878 10881 10888 8976 10889 10663 10890 10891 
1119 1120 1417 1416 1152 1153 1450 1449 8754 10666 10667 10659 8981 10893 10894 10886 8972 8979 10892 10885 10888 10895 8983 10896 10670 10897 10898 
1120 1121 1418 1417 1153 1154 1451 1450 8761 10673 10674 10666 8988 10900 10901 10893 8979 8986 10899 10892 10895 10902 8990 10903 10677 10904 10905 
1122 1123 1420 1419 1155 1156 1453 1452 8769 10681 10682 10683 8996 10908 10909 10910 8994 8993 10906 10907 10913 10911 8999 10912 10687 10914 10915 
1123 1124 1421 1420 1156 1157 1454 1453 8778 10690 10691 10681 9005 10917 10918 10908 8993 9003 10916 10906 10911 10919 9007 10920 10694 10921 10922 
1124 1125 1422 1421 1157 1158 1455 1454 8785 10697 10698 10690 9012 10924 10925 10917 9003 9010 10923 10916 10919 10926 9014 10927 10701 10928 10929 
1125 1126 1423 1422 1158 1159 1456 1455 8792 10704 10705 10697 9019 10931 10932 10924 9010 9017 10930 10923 10926 10933 9021 10934 10708 10935 10936 
1126 1127 1424 1423 1159 1160 1457 1456 8799 10711 10712 10704 9026 10938 10939 10931 9017 9024 10937 10930 10933 10940 9028 10941 10715 10942 10943 
1127 1128 1425 1424 1160 1161 1458 1457 8806 10718 10719 10711 9033 10945 10946 10938 9024 9031 10944 10937 10940 10947 9035 10948 10722 10949 10950 
1128 1129 1426 1425 1161 1162 1459 1458 8813 10725 10726 10718 9040 10952 10953 10945 9031 9038 10951 10944 10947 10954 9042 10955 10729 10956 10957 
1129 1130 1427 1426 1162 1163 1460 1459 8820 10732 10733 10725 9047 10959 10960 10952 9038 9045 10958 10951 10954 10961 9049 10962 10736 10963 10964 
1130 1131 1428 1427 1163 1164 1461 1460 8827 10739 10740 10732 9054 10966 10967 10959 9045 9052 10965 10958 10961 10968 9056 10969 10743 10970 10971 
1131 1132 1429 1428 1164 1165 1462 1461 8834 10746 10747 10739 9061 10973 10974 10966 9052 9059 10972 10965 10968 10975 9063 10976 10750 10977 10978 
1132 1133 1430 1429 1165 1166 1463 1462 8841 10753 10754 10746 9068 10980 10981 10973 9059 9066 10979 10972 10975 10982 9070 10983 10757 10984 10985 
1133 1134 1431 1430 1166 1167 1464 1463 8848 10760 10761 10753 9075 10987 10988 10980 9066 9073 10986 10979 10982 10989 9077 10990 10764 10991 10992 
1134 1135 1432 1431 1167 1168 1465 1464 8855 10767 10768 10760 9082 10994 10995 10987 9073 9080 10993 10986 10989 10996 9084 10997 10771 10998 10999 
1135 1136 1433 1432 1168 1169 1466 1465 8862 10774 10775 10767 9089 11001 11002 10994 9080 9087 11000 10993 10996 11003 9091 11004 10778 11005 11006 
1136 1137 1434 1433 1169 1170 1467 1466 8869 10781 10782 10774 9096 11008 11009 11001 9087 9094 11007 11000 11003 11010 9098 11011 10785 11012 11013 
1137 1138 1435 1434 1170 1171 1468 1467 8876 10788 10789 10781 9103 11015 11016 11008 9094 9101 11014 11007 11010 11017 9105 11018 10792 11019 11020 
1138 1139 1436 1435 1171 1172 1469 1468 8883 10795 10796 10788 9110 11022 11023 11015 9101 9108 11021 11014 11017 11024 9112 11025 10799 11026 11027 
1139 1140 1437 1436 1172 1173 1470 1469 8890 10802 10803 10795 9117 11029 11030 11022 9108 9115 11028 11021 11024 11031 9119 11032 10806 11033 11034 
1140 1141 1438 1437 1173 1174 1471 1470 8897 10809 10810 10802 9124 11036 11037 11029 9115 9122 11035 11028 11031 11038 9126 11039 10813 11040 11041 
1141 1142 1439 1438 1174 1175 1472 1471 8904 10816 10817 10809 9131 11043 11044 11036 9122 9129 11042 11035 11038 11045 9133 11046 10820 11047 11048 
1142 1143 1440 1439 1175 1176 1473 1472 8911 10823 10824 10816 9138 11050 11051 11043 9129 9136 11049 11042 11045 11052 9140 11053 10827 11054 11055 
1143 1144 1441 1440 1176 1177 1474 1473 8918 10830 10831 10823 9145 11057 11058 11050 9136 9143 11056 11049 11052 11059 9147 11060 10834 11061 11062 
1144 1145 1442 1441 1177 1178 1475 1474 8925 10837 10838 10830 9152 11064 11065 11057 9143 9150 11063 11056 11059 11066 9154 11067 10841 11068 11069 
1145 1146 1443 1442 1178 1179 1476 1475 8932 10844 10845 10837 9159 11071 11072 11064 9150 9157 11070 11063 11066 11073 9161 11074 10848 11075 11076 
1146 1147 1444 1443 1179 1180 1477 1476 8939 10851 10852 10844 9166 11078 11079 11071 9157 9164 11077 11070 11073 11080 9168 11081 10855 11082 11083 
1147 1148 1445 1444 1180 1181 1478 1477 8946 10858 10859 10851 9173 11085 11086 11078 9164 9171 11084 11077 11080 11087 9175 11088 10862 11089 11090 
1148 1149 1446 1445 1181 1182 1479 1478 8953 10865 10866 10858 9180 11092 11093 11085 9171 9178 11091 11084 11087 11094 9182 11095 10869 11096 11097 
1149 1150 1447 1446 1182 1183 1480 1479 8960 10872 10873 10865 9187 11099 11100 11092 9178 9185 11098 11091 11094 11101 9189 11102 10876 11103 11104 
1150 1151 1448 1447 1183 1184 1481 1480 8967 10879 10880 10872 9194 11106 11107 11099 9185 9192 11105 11098 11101 11108 9196 11109 10883 11110 11111 
1151 1152 1449 1448 1184 1185 1482 1481 8974 10886 10887 10879 9201 11113 11114 11106 9192 9199 11112 11105 11108 11115 9203 11116 10890 11117 11118 
1152 1153 1450 1449 1185 1186 1483 1482 8981 10893 10894 10886 9208 11120 11121 11113 9199 9206 11119 11112 11115 11122 9210 11123 10897 11124 11125 
1153 1154 1451 1450 1186 1187 1484 1483 8988 10900 10901 10893 9215 11127 11128 11120 9206 9213 11126 11119 11122 11129 9217 11130 10904 11131 11132 
1188 1189 1486 1485 1221 1222 1519 1518 9221 11133 11134 11135 9226 11138 11139 11140 9224 9223 11136 11137 11144 11142 9230 11143 11141 11145 11146 
1189 1190 1487 1486 1222 1223 1520 1519 9235 11147 11148 11133 9238 11150 11151 11138 9223 9236 11149 11136 11142 11153 9241 11154 11152 11155 11156 
1190 1191 1488 1487 1223 1224 1521 1520 9245 11157 11158 11147 9248 11160 11161 11150 9236 9246 11159 11149 11153 11163 9251 11164 11162 11165 11166 
1191 1192 1489 1488 1224 1225 1522 1521 9255 11167 11168 11157 9258 11170 11171 11160 9246 9256 11169 11159 11163 11173 9261 11174 11172 11175 11176 
1192 1193 1490 1489 1225 1226 1523 1522 9265 11177 11178 11167 9268 11180 11181 11170 9256 9266 11179 11169 11173 11183 9271 11184 11182 11185 11186 
1193 1194 1491 1490 1226 1227 1524 1523 9275 11187 11188 11177 9278 11190 11191 11180 9266 9276 11189 11179 11183 11193 9281 11194 11192 11195 11196 
1194 1195 1492 1491 1227 1228 1525 1524 9285 11197 11198 11187 9288 11200 11201 11190 9276 9286 11199 11189 11193 11203 9291 11204 11202 11205 11206 
1195 1196 1493 1492 1228 1229 1526 1525 9295 11207 11208 11197 9298 11210 11211 11200 9286 9296 11209 11199 11203 11213 9301 11214 11212 11215 11216 
1196 1197 1494 1493 1229 1230 1527 1526 9305 11217 11218 11207 9308 11220 11221 11210 9296 9306 11219 11209 11213 11223 9311 11224 11222 11225 11226 
1197 1198 1495 1494 1230 1231 1528 1527 9315 11227 11228 11217 9318 11230 11231 11220 9306 9316 11229 11219 11223 11233 9321 11234 11232 11235 11236 
1198 1199 1496 1495 1231 1232 1529 1528 9325 11237 11238 11227 9328 11240 11241 11230 9316 9326 11239 11229 11233 11243 9331 11244 11242 11245 11246 
1199 1200 1497 1496 1232 1233 1530 1529 9335 11247 11248 11237 9338 11250 11251 11240 9326 9336 11249 11239 11243 11253 9341 11254 11252 11255 11256 
1200 1201 1498 1497 1233 1234 1531 1530 9345 11257 11258 11247 9348 11260 11261 11250 9336 9346 11259 11249 11253 11263 9351 11264 11262 11265 11266 
1201 1202 1499 1498 1234 1235 1532 1531 9355 11267 11268 11257 9358 11270 11271 11260 9346 9356 11269 11259 11263 11273 9361 11274 11272 11275 11276 
1202 1203 1500 1499 1235 1236 1533 1532 9365 11277 11278 11267 9368 11280 11281 11270 9356 9366 11279 11269 11273 11283 9371 11284 11282 11285 11286 
1203 1204 1501 1500 1236 1237 1534 1533 9375 11287 11288 11277 9378 11290 11291 11280 9366 9376 11289 11279 11283 11293 9381 11294 11292 11295 11296 
1204 1205 1502 1501 1237 1238 1535 1534 9385 11297 11298 11287 9388 11300 11301 11290 9376 9386 11299 11289 11293 11303 9391 11304 11302 11305 11306 
1205 1206 1503 1502 1238 1239 1536 1535 9395 11307 11308 11297 9398 11310 11311 11300 9386 9396 11309 11299 11303 11313 9401 11314 11312 11315 11316 
1206 1207 1504 1503 1239 1240 1537 1536 9405 11317 11318 11307 9408 11320 11321 11310 9396 9406 11319 11309 11313 11323 9411 11324 11322 11325 11326 
1207 1208 1505 1504 1240 1241 1538 1537 9415 11327 11328 11317 9418 11330 11331 11320 9406 9416 11329 11319 11323 11333 9421 11334 11332 11335 11336 
1208 1209 1506 1505 1241 1242 1539 1538 9425 11337 11338 11327 9428 11340 11341 11330 9416 9426 11339 11329 11333 11343 9431 11344 11342 11345 11346 
1209 1210 1507 1506 1242 1243 1540 1539 9435 11347 11348 11337 9438 11350 11351 11340 9426 9436 11349 11339 11343 11353 9441 11354 11352 11355 11356 
1210 1211 1508 1507 1243 1244 1541 1540 9445 11357 11358 11347 9448 11360 11361 11350 9436 9446 11359 11349 11353 11363 9451 11364 11362 11365 11366 
1211 1212 1509 1508 1244 1245 1542 1541 9455 11367 11368 11357 9458 11370 11371 11360 9446 9456 11369 11359 11363 11373 9461 11374 11372 11375 11376 
1212 1213 1510 1509 1245 1246 1543 1542 9465 11377 11378 11367 9468 11380 11381 11370 9456 9466 11379 11369 11373 11383 9471 11384 11382 11385 11386 
1213 1214 1511 1510 1246 1247 1544 1543 9475 11387 11388 11377 9478 11390 11391 11380 9466 9476 11389 11379 11383 11393 9481 11394 11392 11395 11396 
1214 1215 1512 1511 1247 1248 1545 1544 9485 11397 11398 11387 9488 11400 11401 11390 9476 9486 11399 11389 11393 11403 9491 11404 11402 11405 11406 
1215 1216 1513 1512 1248 1249 1546 1545 9495 11407 11408 11397 9498 11410 11411 11400 9486 9496 11409 11399 11403 11413 9501 11414 11412 11415 11416 
1216 1217 1514 1513 1249 1250 1547 1546 9505 11417 11418 11407 9508 11420 11421 11410 9496 9506 11419 11409 11413 11423 9511 11424 11422 11425 11426 
1217 1218 1515 1514 1250 1251 1548 1547 9515 11427 11428 11417 9518 11430 11431 11420 9506 9516 11429 11419 11423 11433 9521 11434 11432 11435 11436 
1218 1219 1516 1515 1251 1252 1549 1548 9525 11437 11438 11427 9528 11440 11441 11430 9516 9526 11439 11429 11433 11443 9531 11444 11442 11445 11446 
1219 1220 1517 1516 1252 1253 1550 1549 9535 11447 11448 11437 9538 11450 11451 11440 9526 9536 11449 11439 11443 11453 9541 11454 11452 11455 11456 
1221 1222 1519 1518 1254 1255 1552 1551 9226 11138 11139 11140 9547 11459 11460 11461 9545 9544 11457 11458 11464 11462 9550 11463 11145 11465 11466 
1222 1223 1520 1519 1255 1256 1553 1552 9238 11150 11151 11138 9556 11468 11469 11459 9544 9554 11467 11457 11462 11470 9558 11471 11155 11472 11473 
1223 1224 1521 1520 1256 1257 1554 1553 9248 11160 11161 11150 9563 11475 11476 11468 9554 9561 11474 11467 11470 11477 9565 11478 11165 11479 11480 
1224 1225 1522 1521 1257 1258 1555 1554 9258 11170 11171 11160 9570 11482 11483 11475 9561 9568 11481 11474 11477 11484 9572 11485 11175 11486 11487 
1225 1226 1523 1522 1258 1259 1556 1555 9268 11180 11181 11170 9577 11489 11490 11482 9568 9575 11488 11481 11484 11491 9579 11492 11185 11493 11494 
1226 1227 1524 1523 1259 1260 1557 1556 9278 11190 11191 11180 9584 11496 11497 11489 9575 9582 11495 11488 11491 11498 9586 11499 11195 11500 11501 
1227 1228 1525 1524 1260 1261 1558 1557 9288 11200 11201 11190 9591 11503 11504 11496 9582 9589 11502 11495 11498 11505 9593 11506 11205 11507 11508 
1228 1229 1526 1525 1261 1262 1559 1558 9298 11210 11211 11200 9598 11510 11511 11503 9589 9596 11509 11502 11505 11512 9600 11513 11215 11514 11515 
1229 1230 1527 1526 1262 1263 1560 1559 9308 11220 11221 11210 9605 11517 11518 11510 9596 9603 11516 11509 11512 11519 9607 11520 11225 11521 11522 
1230 1231 1528 1527 1263 1264 1561 1560 9318 11230 11231 11220 9612 11524 11525 11517 9603 9610 11523 11516 11519 11526 9614 11527 11235 11528 11529 
1231 1232 1529 1528 1264 1265 1562 1561 9328 11240 11241 11230 9619 11531 11532 11524 9610 9617 11530 11523 11526 11533 9621 11534 11245 11535 11536 
1232 1233 1530 1529 1265 1266 1563 1562 9338 11250 11251 11240 9626 11538 11539 11531 9617 9624 11537 11530 11533 11540 9628 11541 11255 11542 11543 
1233 1234 1531 1530 1266 1267 1564 1563 9348 11260 11261 11250 9633 11545 11546 11538 9624 9631 11544 11537 11540 11547 9635 11548 11265 11549 11550 
1234 1235 1532 1531 1267 1268 1565 1564 9358 11270 11271 11260 9640 11552 11553 11545 9631 9638 11551 11544 11547 11554 9642 11555 11275 11556 11557 
1235 1236 1533 1532 1268 1269 1566 1565 9368 11280 11281 11270 9647 11559 11560 11552 9638 9645 11558 11551 11554 11561 9649 11562 11285 11563 11564 
1236 1237 1534 1533 1269 1270 1567 1566 9378 11290 11291 11280 9654 11566 11567 11559 9645 9652 11565 11558 11561 11568 9656 11569 11295 11570 11571 
1237 1238 1535 1534 1270 1271 1568 1567 9388 11300 11301 11290 9661 11573 11574 11566 9652 9659 11572 11565 11568 11575 9663 11576 11305 11577 11578 
1238 1239 1536 1535 1271 1272 1569 1568 9398 11310 11311 11300 9668 11580 11581 11573 9659 9666 11579 11572 11575 11582 9670 11583 11315 11584 11585 
1239 1240 1537 1536 1272 1273 1570 1569 9408 11320 11321 11310 9675 11587 11588 11580 9666 9673 11586 11579 11582 11589 9677 11590 11325 11591 11592 
1240 1241 1538 1537 1273 1274 1571 1570 9418 11330 11331 11320 9682 11594 11595 11587 9673 9680 11593 11586 11589 11596 9684 11597 11335 11598 11599 
1241 1242 1539 1538 1274 1275 1572 1571 9428 11340 11341 11330 9689 11601 11602 11594 9680 9687 11600 11593 11596 11603 9691 11604 11345 11605 11606 
1242 1243 1540 1539 1275 1276 1573 1572 9438 11350 11351 11340 9696 11608 11609 11601 9687 9694 11607 11600 11603 11610 9698 11611 11355 11612 11613 
1243 1244 1541 1540 1276 1277 1574 1573 9448 11360 11361 11350 9703 11615 11616 11608 9694 9701 11614 11607 11610 11617 9705 11618 11365 11619 11620 
1244 1245 1542 1541 1277 1278 1575 1574 9458 11370 11371 11360 9710 11622 11623 11615 9701 9708 11621 11614 11617 11624 9712 11625 11375 11626 11627 
1245 1246 1543 1542 1278 1279 1576 1575 9468 11380 11381 11370 9717 11629 11630 11622 9708 9715 11628 11621 11624 11631 9719 11632 11385 11633 11634 
1246 1247 1544 1543 1279 1280 1577 1576 9478 11390 11391 11380 9724 11636 11637 11629 9715 9722 11635 11628 11631 11638 9726 11639 11395 11640 11641 
1247 1248 1545 1544 1280 1281 1578 1577 9488 11400 11401 11390 9731 11643 11644 11636 9722 9729 11642 11635 11638 11645 9733 11646 11405 11647 11648 
1248 1249 1546 1545 1281 1282 1579 1578 9498 11410 11411 11400 9738 11650 11651 11643 9729 9736 11649 11642 11645 11652 9740 11653 11415 11654 11655 
1249 1250 1547 1546 1282 1283 1580 1579 9508 11420 11421 11410 9745 11657 11658 11650 9736 9743 11656 11649 11652 11659 9747 11660 11425 11661 11662 
1250 1251 1548 1547 1283 1284 1581 1580 9518 11430 11431 11420 9752 11664 11665 11657 9743 9750 11663 11656 11659 11666 9754 11667 11435 11668 11669 
1251 1252 1549 1548 1284 1285 1582 1581 9528 11440 11441 11430 9759 11671 11672 11664 9750 9757 11670 11663 11666 11673 9761 11674 11445 11675 11676 
1252 1253 1550 1549 1285 1286 1583 1582 9538 11450 11451 11440 9766 11678 11679 11671 9757 9764 11677 11670 11673 11680 9768 11681 11455 11682 11683 
1254 1255 1552 1551 1287 1288 1585 1584 9547 11459 11460 11461 9774 11686 11687 11688 9772 9771 11684 11685 11691 11689 9777 11690 11465 11692 11693 
1255 1256 1553 1552 1288 1289 1586 1585 9556 11468 11469 11459 9783 11695 11696 11686 9771 9781 11694 11684 11689 11697 9785 11698 11472 11699 11700 
1256 1257 1554 1553 1289 1290 1587 1586 9563 11475 11476 11468 9790 11702 11703 11695 9781 9788 11701 11694 11697 11704 9792 11705 11479 11706 11707 
1257 1258 1555 1554 1290 1291 1588 1587 9570 11482 11483 11475 9797 11709 11710 11702 9788 9795 11708 11701 11704 11711 9799 11712 11486 11713 11714 
1258 1259 1556 1555 1291 1292 1589 1588 9577 11489 11490 11482 9804 11716 11717 11709 9795 9802 11715 11708 11711 11718 9806 11719 11493 11720 11721 
1259 1260 1557 1556 1292 1293 1590 1589 9584 11496 11497 11489 9811 11723 11724 11716 9802 9809 11722 11715 11718 11725 9813 11726 11500 11727 11728 
1260 1261 1558 1557 1293 1294 1591 1590 9591 11503 11504 11496 9818 11730 11731 11723 9809 9816 11729 11722 11725 11732 9820 11733 11507 11734 11735 
1261 1262 1559 1558 1294 1295 1592 1591 9598 11510 11511 11503 9825 11737 11738 11730 9816 9823 11736 11729 11732 11739 9827 11740 11514 11741 11742 
1262 1263 1560 1559 1295 1296 1593 1592 9605 11517 11518 11510 9832 11744 11745 11737 9823 9830 11743 11736 11739 11746 9834 11747 11521 11748 11749 
1263 1264 1561 1560 1296 1297 1594 1593 9612 11524 11525 11517 9839 11751 11752 11744 9830 9837 11750 11743 11746 11753 9841 11754 11528 11755 11756 
1264 1265 1562 1561 1297 1298 1595 1594 9619 11531 11532 11524 9846 11758 11759 11751 9837 9844 11757 11750 11753 11760 9848 11761 11535 11762 11763 
1265 1266 1563 1562 1298 1299 1596 1595 9626 11538 11539 11531 9853 11765 11766 11758 9844 9851 11764 11757 11760 11767 9855 11768 11542 11769 11770 
1266 1267 1564 1563 1299 1300 1597 1596 9633 11545 11546 11538 9860 11772 11773 11765 9851 9858 11771 11764 11767 11774 9862 11775 11549 11776 11777 
1267 1268 1565 1564 1300 1301 1598 1597 9640 11552 11553 11545 9867 11779 11780 11772 9858 9865 11778 11771 11774 11781 9869 11782 11556 11783 11784 
1268 1269 1566 1565 1301 1302 1599 1598 9647 11559 11560 11552 9874 11786 11787 11779 9865 9872 11785 11778 11781 11788 9876 11789 11563 11790 11791 
1269 1270 1567 1566 1302 1303 1600 1599 9654 11566 11567 11559 9881 11793 11794 11786 9872 9879 11792 11785 11788 11795 9883 11796 11570 11797 11798 
1270 1271 1568 1567 1303 1304 1601 1600 9661 11573 11574 11566 9888 11800 11801 11793 9879 9886 11799 11792 11795 11802 9890 11803 11577 11804 11805 
1271 1272 1569 1568 1304 1305 1602 1601 9668 11580 11581 11573 9895 11807 11808 11800 9886 9893 11806 11799 11802 11809 9897 11810 11584 11811 11812 
1272 1273 1570 1569 1305 1306 1603 1602 9675 11587 11588 11580 9902 11814 11815 11807 9893 9900 11813 11806 11809 11816 9904 11817 11591 11818 11819 
1273 1274 1571 1570 1306 1307 1604 1603 9682 11594 11595 11587 9909 11821 11822 11814 9900 9907 11820 11813 11816 11823 9911 11824 11598 11825 11826 
1274 1275 1572 1571 1307 1308 1605 1604 9689 11601 11602 11594 9916 11828 11829 11821 9907 9914 11827 11820 11823 11830 9918 11831 11605 11832 11833 
1275 1276 1573 1572 1308 1309 1606 1605 9696 11608 11609 11601 9923 11835 11836 11828 9914 9921 11834 11827 11830 11837 9925 11838 11612 11839 11840 
1276 1277 1574 1573 1309 1310 1607 1606 9703 11615 11616 11608 9930 11842 11843 11835 9921 9928 11841 11834 11837 11844 9932 11845 11619 11846 11847 
1277 1278 1575 1574 1310 1311 1608 1607 9710 11622 11623 11615 9937 11849 11850 11842 9928 9935 11848 11841 11844 11851 9939 11852 11626 11853 11854 
1278 1279 1576 1575 1311 1312 1609 1608 9717 11629 11630 11622 9944 11856 11857 11849 9935 9942 11855 11848 11851 11858 9946 11859 11633 11860 11861 
1279 1280 1577 1576 1312 1313 1610 1609 9724 11636 11637 11629 9951 11863 11864 11856 9942 9949 11862 11855 11858 11865 9953 11866 11640 11867 11868 
1280 1281 1578 1577 1313 1314 1611 1610 9731 11643 11644 11636 9958 11870 11871 11863 9949 9956 11869 11862 11865 11872 9960 11873 11647 11874 11875 
1281 1282 1579 1578 1314 1315 1612 1611 9738 11650 11651 11643 9965 11877 11878 11870 9956 9963 11876 11869 11872 11879 9967 11880 11654 11881 11882 
1282 1283 1580 1579 1315 1316 1613 1612 9745 11657 11658 11650 9972 11884 11885 11877 9963 9970 11883 11876 11879 11886 9974 11887 11661 11888 11889 
1283 1284 1581 1580 1316 1317 1614 1613 9752 11664 11665 11657 9979 11891 11892 11884 9970 9977 11890 11883 11886 11893 9981 11894 11668 11895 11896 
1284 1285 1582 1581 1317 1318 1615 1614 9759 11671 11672 11664 9986 11898 11899 11891 9977 9984 11897 11890 11893 11900 9988 11901 11675 11902 11903 
1285 1286 1583 1582 1318 1319 1616 1615 9766 11678 11679 11671 9993 11905 11906 11898 9984 9991 11904 11897 11900 11907 9995 11908 11682 11909 11910 
1287 1288 1585 1584 1320 1321 1618 1617 9774 11686 11687 11688 10001 11913 11914 11915 9999 9998 11911 11912 11918 11916 10004 11917 11692 11919 11920 
1288 1289 1586 1585 1321 1322 1619 1618 9783 11695 11696 11686 10010 11922 11923 11913 9998 10008 11921 11911 11916 11924 10012 11925 11699 11926 11927 
1289 1290 1587 1586 1322 1323 1620 1619 9790 11702 11703 11695 10017 11929 11930 11922 10008 10015 11928 11921 11924 11931 10019 11932 11706 11933 11934 
1290 1291 1588 1587 1323 1324 1621 1620 9797 11709 11710 11702 10024 11936 11937 11929 10015 10022 11935 11928 11931 11938 10026 11939 11713 11940 11941 
1291 1292 1589 1588 1324 1325 1622 1621 9804 11716 11717 11709 10031 11943 11944 11936 10022 10029 11942 11935 11938 11945 10033 11946 11720 11947 11948 
1292 1293 1590 1589 1325 1326 1623 1622 9811 11723 11724 11716 10038 11950 11951 11943 10029 10036 11949 11942 11945 11952 10040 11953 11727 11954 11955 
1293 1294 1591 1590 1326 1327 1624 1623 9818 11730 11731 11723 10045 11957 11958 11950 10036 10043 11956 11949 11952 11959 10047 11960 11734 11961 11962 
1294 1295 1592 1591 1327 1328 1625 1624 9825 11737 11738 11730 10052 11964 11965 11957 10043 10050 11963 11956 11959 11966 10054 11967 11741 11968 11969 
1295 1296 1593 1592 1328 1329 1626 1625 9832 11744 11745 11737 10059 11971 11972 11964 10050 10057 11970 11963 11966 11973 10061 11974 11748 11975 11976 
1296 1297 1594 1593 1329 1330 1627 1626 9839 11751 11752 11744 10066 11978 11979 11971 10057 10064 11977 11970 11973 11980 10068 11981 11755 11982 11983 
1297 1298 1595 1594 1330 1331 1628 1627 9846 11758 11759 11751 10073 11985 11986 11978 10064 10071 11984 11977 11980 11987 10075 11988 11762 11989 11990 
1298 1299 1596 1595 1331 1332 1629 1628 9853 11765 11766 11758 10080 11992 11993 11985 10071 10078 11991 11984 11987 11994 10082 11995 11769 11996 11997 
1299 1300 1597 1596 1332 1333 1630 1629 9860 11772 11773 11765 10087 11999 12000 11992 10078 10085 11998 11991 11994 12001 10089 12002 11776 12003 12004 
1300 1301 1598 1597 1333 1334 1631 1630 9867 11779 11780 11772 10094 12006 12007 11999 10085 10092 12005 11998 12001 12008 10096 12009 11783 12010 12011 
1301 1302 1599 1598 1334 1335 1632 1631 9874 11786 11787 11779 10101 12013 12014 12006 10092 10099 12012 12005 12008 12015 10103 12016 11790 12017 12018 
1302 1303 1600 1599 1335 1336 1633 1632 9881 11793 11794 11786 10108 12020 12021 12013 10099 10106 12019 12012 12015 12022 10110 12023 11797 12024 12025 
1303 1304 1601 1600 1336 1337 1634 1633 9888 11800 11801 11793 10115 12027 12028 12020 10106 10113 12026 12019 12022 12029 10117 12030 11804 12031 12032 
1304 1305 1602 1601 1337 1338 1635 1634 9895 11807 11808 11800 10122 12034 12035 12027 10113 10120 12033 12026 12029 12036 10124 12037 11811 12038 12039 
1305 1306 1603 1602 1338 1339 1636 1635 9902 11814 11815 11807 10129 12041 12042 12034 10120 10127 12040 12033 12036 12043 10131 12044 11818 12045 12046 
1306 1307 1604 1603 1339 1340 1637 1636 9909 11821 11822 11814 10136 12048 12049 12041 10127 10134 12047 12040 12043 12050 10138 12051 11825 12052 12053 
1307 1308 1605 1604 1340 1341 1638 1637 9916 11828 11829 11821 10143 12055 12056 12048 10134 10141 12054 12047 12050 12057 10145 12058 11832 12059 12060 
1308 1309 1606 1605 1341 1342 1639 1638 9923 11835 11836 11828 10150 12062 12063 12055 10141 10148 12061 12054 12057 12064 10152 12065 11839 12066 12067 
1309 1310 1607 1606 1342 1343 1640 1639 9930 11842 11843 11835 10157 12069 12070 12062 10148 10155 12068 12061 12064 12071 10159 12072 11846 12073 12074 
1310 1311 1608 1607 1343 1344 1641 1640 9937 11849 11850 11842 10164 12076 12077 12069 10155 10162 12075 12068 12071 12078 10166 12079 11853 12080 12081 
1311 1312 1609 1608 1344 1345 1642 1641 9944 11856 11857 11849 10171 12083 12084 12076 10162 10169 12082 12075 12078 12085 10173 12086 11860 12087 12088 
1312 1313 1610 1609 1345 1346 1643 1642 9951 11863 11864 11856 10178 12090 12091 12083 10169 10176 12089 12082 12085 12092 10180 12093 11867 12094 12095 
1313 1314 1611 1610 1346 1347 1644 1643 9958 11870 11871 11863 10185 12097 12098 12090 10176 10183 12096 12089 12092 12099 10187 12100 11874 12101 12102 
1314 1315 1612 1611 1347 1348 1645 1644 9965 11877 11878 11870 10192 12104 12105 12097 10183 10190 12103 12096 12099 12106 10194 12107 11881 12108 12109 
1315 1316 1613 1612 1348 1349 1646 1645 9972 11884 11885 11877 10199 12111 12112 12104 10190 10197 12110 12103 12106 12113 10201 12114 11888 12115 12116 
1316 1317 1614 1613 1349 1350 1647 1646 9979 11891 11892 11884 10206 12118 12119 12111 10197 10204 12117 12110 12113 12120 10208 12121 11895 12122 12123 
1317 1318 1615 1614 1350 1351 1648 1647 9986 11898 11899 11891 10213 12125 12126 12118 10204 10211 12124 12117 12120 12127 10215 12128 11902 12129 12130 
1318 1319 1616 1615 1351 1352 1649 1648 9993 11905 11906 11898 10220 12132 12133 12125 10211 10218 12131 12124 12127 12134 10222 12135 11909 12136 12137 
1320 1321 1618 1617 1353 1354 1651 1650 10001 11913 11914 11915 10228 12140 12141 12142 10226 10225 12138 12139 12145 12143 10231 12144 11919 12146 12147 
1321 1322 1619 1618 1354 1355 1652 1651 10010 11922 11923 11913 10237 12149 12150 12140 10225 10235 12148 12138 12143 12151 10239 12152 11926 12153 12154 
1322 1323 1620 1619 1355 1356 1653 1652 10017 11929 11930 11922 10244 12156 12157 12149 10235 10242 12155 12148 12151 12158 10246 12159 11933 12160 12161 
1323 1324 1621 1620 1356 1357 1654 1653 10024 11936 11937 11929 10251 12163 12164 12156 10242 10249 12162 12155 12158 12165 10253 12166 11940 12167 12168 
1324 1325 1622 1621 1357 1358 1655 1654 10031 11943 11944 11936 10258 12170 12171 12163 10249 10256 12169 12162 12165 12172 10260 12173 11947 12174 12175 
1325 1326 1623 1622 1358 1359 1656 1655 10038 11950 11951 11943 10265 12177 12178 12170 10256 10263 12176 12169 12172 12179 10267 12180 11954 12181 12182 
1326 1327 1624 1623 1359 1360 1657 1656 10045 11957 11958 11950 10272 12184 12185 12177 10263 10270 12183 12176 12179 12186 10274 12187 11961 12188 12189 
1327 1328 1625 1624 1360 1361 1658 1657 10052 11964 11965 11957 10279 12191 12192 12184 10270 10277 12190 12183 12186 12193 10281 12194 11968 12195 12196 
1328 1329 1626 1625 1361 1362 1659 1658 10059 11971 11972 11964 10286 12198 12199 12191 10277 10284 12197 12190 12193 12200 10288 12201 11975 12202 12203 
1329 1330 1627 1626 1362 1363 1660 1659 10066 11978 11979 11971 10293 12205 12206 12198 10284 10291 12204 12197 12200 12207 10295 12208 11982 12209 12210 
1330 1331 1628 1627 1363 1364 1661 1660 10073 11985 11986 11978 10300 12212 12213 12205 10291 10298 12211 12204 12207 12214 10302 12215 11989 12216 12217 
1331 1332 1629 1628 1364 1365 1662 1661 10080 11992 11993 11985 10307 12219 12220 12212 10298 10305 12218 12211 12214 12221 10309 12222 11996 12223 12224 
1332 1333 1630 1629 1365 1366 1663 1662 10087 11999 12000 11992 10314 12226 12227 12219 10305 10312 12225 12218 12221 12228 10316 12229 12003 12230 12231 
1333 1334 1631 1630 1366 1367 1664 1663 10094 12006 12007 11999 10321 12233 12234 12226 10312 10319 12232 12225 12228 12235 10323 12236 12010 12237 12238 
1334 1335 1632 1631 1367 1368 1665 1664 10101 12013 12014 12006 10328 12240 12241 12233 10319 10326 12239 12232 12235 12242 10330 12243 12017 12244 12245 
1335 1336 1633 1632 1368 1369 1666 1665 10108 12020 12021 12013 10335 12247 12248 12240 10326 10333 12246 12239 12242 12249 10337 12250 12024 12251 12252 
1336 1337 1634 1633 1369 1370 1667 1666 10115 12027 12028 12020 10342 12254 12255 12247 10333 10340 12253 12246 12249 12256 10344 12257 12031 12258 12259 
1337 1338 1635 1634 1370 1371 1668 1667 10122 12034 12035 12027 10349 12261 12262 12254 10340 10347 12260 12253 12256 12263 10351 12264 12038 12265 12266 
1338 1339 1636 1635 1371 1372 1669 1668 10129 12041 12042 12034 10356 12268 12269 12261 10347 10354 12267 12260 12263 12270 10358 12271 12045 12272 12273 
1339 1340 1637 1636 1372 1373 1670 1669 10136 12048 12049 12041 10363 12275 12276 12268 10354 10361 12274 12267 12270 12277 10365 12278 12052 12279 12280 
1340 1341 1638 1637 1373 1374 1671 1670 10143 12055 12056 12048 10370 12282 12283 12275 10361 10368 12281 12274 12277 12284 10372 12285 12059 12286 12287 
1341 1342 1639 1638 1374 1375 1672 1671 10150 12062 12063 12055 10377 12289 12290 12282 10368 10375 12288 12281 12284 12291 10379 12292 12066 12293 12294 
1342 1343 1640 1639 1375 1376 1673 1672 10157 12069 12070 12062 10384 12296 12297 12289 10375 10382 12295 12288 12291 12298 10386 12299 12073 12300 12301 
1343 1344 1641 1640 1376 1377 1674 1673 10164 12076 12077 12069 10391 12303 12304 12296 10382 10389 12302 12295 12298 12305 10393 12306 12080 12307 12308 
1344 1345 1642 1641 1377 1378 1675 1674 10171 12083 12084 12076 10398 12310 12311 12303 10389 10396 12309 12302 12305 12312 10400 12313 12087 12314 12315 
1345 1346 1643 1642 1378 1379 1676 1675 10178 12090 12091 12083 10405 12317 12318 12310 10396 10403 12316 12309 12312 12319 10407 12320 12094 12321 12322 
1346 1347 1644 1643 1379 1380 1677 1676 10185 12097 12098 12090 10412 12324 12325 12317 10403 10410 12323 12316 12319 12326 10414 12327 12101 12328 12329 
1347 1348 1645 1644 1380 1381 1678 1677 10192 12104 12105 12097 10419 12331 12332 12324 10410 10417 12330 12323 12326 12333 10421 12334 12108 12335 12336 
1348 1349 1646 1645 1381 1382 1679 1678 10199 12111 12112 12104 10426 12338 12339 12331 10417 10424 12337 12330 12333 12340 10428 12341 12115 12342 12343 
1349 1350 1647 1646 1382 1383 1680 1679 10206 12118 12119 12111 10433 12345 12346 12338 10424 10431 12344 12337 12340 12347 10435 12348 12122 12349 12350 
1350 1351 1648 1647 1383 1384 1681 1680 10213 12125 12126 12118 10440 12352 12353 12345 10431 10438 12351 12344 12347 12354 10442 12355 12129 12356 12357 
1351 1352 1649 1648 1384 1385 1682 1681 10220 12132 12133 12125 10447 12359 12360 12352 10438 10445 12358 12351 12354 12361 10449 12362 12136 12363 12364 
1353 1354 1651 1650 1386 1387 1684 1683 10228 12140 12141 12142 10455 12367 12368 12369 10453 10452 12365 12366 12372 12370 10458 12371 12146 12373 12374 
1354 1355 1652 1651 1387 1388 1685 1684 10237 12149 12150 12140 10464 12376 12377 12367 10452 10462 12375 12365 12370 12378 10466 12379 12153 12380 12381 
1355 1356 1653 1652 1388 1389 1686 1685 10244 12156 12157 12149 10471 12383 12384 12376 10462 10469 12382 12375 12378 12385 10473 12386 12160 12387 12388 
1356 1357 1654 1653 1389 1390 1687 1686 10251 12163 12164 12156 10478 12390 12391 12383 10469 10476 12389 12382 12385 12392 10480 12393 12167 12394 12395 
1357 1358 1655 1654 1390 1391 1688 1687 10258 12170 12171 12163 10485 12397 12398 12390 10476 10483 12396 12389 12392 12399 10487 12400 12174 12401 12402 
1358 1359 1656 1655 1391 1392 1689 1688 10265 12177 12178 12170 10492 12404 12405 12397 10483 10490 12403 12396 12399 12406 10494 12407 12181 12408 12409 
1359 1360 1657 1656 1392 1393 1690 1689 10272 12184 12185 12177 10499 12411 12412 12404 10490 10497 12410 12403 12406 12413 10501 12414 12188 12415 12416 
1360 1361 1658 1657 1393 1394 1691 1690 10279 12191 12192 12184 10506 12418 12419 12411 10497 10504 12417 12410 12413 12420 10508 12421 12195 12422 12423 
1361 1362 1659 1658 1394 1395 1692 1691 10286 12198 12199 12191 10513 12425 12426 12418 10504 10511 12424 12417 12420 12427 10515 12428 12202 12429 12430 
1362 1363 1660 1659 1395 1396 1693 1692 10293 12205 12206 12198 10520 12432 12433 12425 10511 10518 12431 12424 12427 12434 10522 12435 12209 12436 12437 
1363 1364 1661 1660 1396 1397 1694 1693 10300 12212 12213 12205 10527 12439 12440 12432 10518 10525 12438 12431 12434 12441 10529 12442 12216 12443 12444 
1364 1365 1662 1661 1397 1398 1695 1694 10307 12219 12220 12212 10534 12446 12447 12439 10525 10532 12445 12438 12441 12448 10536 12449 12223 12450 12451 
1365 1366 1663 1662 1398 1399 1696 1695 10314 12226 12227 12219 10541 12453 12454 12446 10532 10539 12452 12445 12448 12455 10543 12456 12230 12457 12458 
1366 1367 1664 1663 1399 1400 1697 1696 10321 12233 12234 12226 10548 12460 12461 12453 10539 10546 12459 12452 12455 12462 10550 12463 12237 12464 12465 
1367 1368 1665 1664 1400 1401 1698 1697 10328 12240 12241 12233 10555 12467 12468 12460 10546 10553 12466 12459 12462 12469 10557 12470 12244 12471 12472 
1368 1369 1666 1665 1401 1402 1699 1698 10335 12247 12248 12240 10562 12474 12475 12467 10553 10560 12473 12466 12469 12476 10564 12477 12251 12478 12479 
1369 1370 1667 1666 1402 1403 1700 1699 10342 12254 12255 12247 10569 12481 12482 12474 10560 10567 12480 12473 12476 12483 10571 12484 12258 12485 12486 
1370 1371 1668 1667 1403 1404 1701 1700 10349 12261 12262 12254 10576 12488 12489 12481 10567 10574 12487 12480 12483 12490 10578 12491 12265 12492 12493 
1371 1372 1669 1668 1404 1405 1702 1701 10356 12268 12269 12261 10583 12495 12496 12488 10574 10581 12494 12487 12490 12497 10585 12498 12272 12499 12500 
1372 1373 1670 1669 1405 1406 1703 1702 10363 12275 12276 12268 10590 12502 12503 12495 10581 10588 12501 12494 12497 12504 10592 12505 12279 12506 12507 
1373 1374 1671 1670 1406 1407 1704 1703 10370 12282 12283 12275 10597 12509 12510 12502 10588 10595 12508 12501 12504 12511 10599 12512 12286 12513 12514 
1374 1375 1672 1671 1407 1408 1705 1704 10377 12289 12290 12282 10604 12516 12517 12509 10595 10602 12515 12508 12511 12518 10606 12519 12293 12520 12521 
1375 1376 1673 1672 1408 1409 1706 1705 10384 12296 12297 12289 10611 12523 12524 12516 10602 10609 12522 12515 12518 12525 10613 12526 12300 12527 12528 
1376 1377 1674 1673 1409 1410 1707 1706 10391 12303 12304 12296 10618 12530 12531 12523 10609 10616 12529 12522 12525 12532 10620 12533 12307 12534 12535 
1377 1378 1675 1674 1410 1411 1708 1707 10398 12310 12311 12303 10625 12537 12538 12530 10616 10623 12536 12529 12532 12539 10627 12540 12314 12541 12542 
1378 1379 1676 1675 1411 1412 1709 1708 10405 12317 12318 12310 10632 12544 12545 12537 10623 10630 12543 12536 12539 12546 10634 12547 12321 12548 12549 
1379 1380 1677 1676 1412 1413 1710 1709 10412 12324 12325 12317 10639 12551 12552 12544 10630 10637 12550 12543 12546 12553 10641 12554 12328 12555 12556 
1380 1381 1678 1677 1413 1414 1711 1710 10419 12331 12332 12324 10646 12558 12559 12551 10637 10644 12557 12550 12553 12560 10648 12561 12335 12562 12563 
1381 1382 1679 1678 1414 1415 1712 1711 10426 12338 12339 12331 10653 12565 12566 12558 10644 10651 12564 12557 12560 12567 10655 12568 12342 12569 12570 
1382 1383 1680 1679 1415 1416 1713 1712 10433 12345 12346 12338 10660 12572 12573 12565 10651 10658 12571 12564 12567 12574 10662 12575 12349 12576 12577 
1383 1384 1681 1680 1416 1417 1714 1713 10440 12352 12353 12345 10667 12579 12580 12572 10658 10665 12578 12571 12574 12581 10669 12582 12356 12583 12584 
1384 1385 1682 1681 1417 1418 1715 1714 10447 12359 12360 12352 10674 12586 12587 12579 10665 10672 12585 12578 12581 12588 10676 12589 12363 12590 12591 
1386 1387 1684 1683 1419 1420 1717 1716 10455 12367 12368 12369 10682 12594 12595 12596 10680 10679 12592 12593 12599 12597 10685 12598 12373 12600 12601 
1387 1388 1685 1684 1420 1421 1718 1717 10464 12376 12377 12367 10691 12603 12604 12594 10679 10689 12602 12592 12597 12605 10693 12606 12380 12607 12608 
1388 1389 1686 1685 1421 1422 1719 1718 10471 12383 12384 12376 10698 12610 12611 12603 10689 10696 12609 12602 12605 12612 10700 12613 12387 12614 12615 
1389 1390 1687 1686 1422 1423 1720 1719 10478 12390 12391 12383 10705 12617 12618 12610 10696 10703 12616 12609 12612 12619 10707 12620 12394 12621 12622 
1390 1391 1688 1687 1423 1424 1721 1720 10485 12397 12398 12390 10712 12624 12625 12617 10703 10710 12623 12616 12619 12626 10714 12627 12401 12628 12629 
1391 1392 1689 1688 1424 1425 1722 1721 10492 12404 12405 12397 10719 12631 12632 12624 10710 10717 12630 12623 12626 12633 10721 12634 12408 12635 12636 
1392 1393 1690 1689 1425 1426 1723 1722 10499 12411 12412 12404 10726 12638 12639 12631 10717 10724 12637 12630 12633 12640 10728 12641 12415 12642 12643 
1393 1394 1691 1690 1426 1427 1724 1723 10506 12418 12419 12411 10733 12645 12646 12638 10724 10731 12644 12637 12640 12647 10735 12648 12422 12649 12650 
1394 1395 1692 1691 1427 1428 1725 1724 10513 12425 12426 12418 10740 12652 12653 12645 10731 10738 12651 12644 12647 12654 10742 12655 12429 12656 12657 
1395 1396 1693 1692 1428 1429 1726 1725 10520 12432 12433 12425 10747 12659 12660 12652 10738 10745 12658 12651 12654 12661 10749 12662 12436 12663 12664 
1396 1397 1694 1693 1429 1430 1727 1726 10527 12439 12440 12432 10754 12666 12667 12659 10745 10752 12665 12658 12661 12668 10756 12669 12443 12670 12671 
1397 1398 1695 1694 1430 1431 1728 1727 10534 12446 12447 12439 10761 12673 12674 12666 10752 10759 12672 12665 12668 12675 10763 12676 12450 12677 12678 
1398 1399 1696 1695 1431 1432 1729 1728 10541 12453 12454 12446 10768 12680 12681 12673 10759 10766 12679 12672 12675 12682 10770 12683 12457 12684 12685 
1399 1400 1697 1696 1432 1433 1730 1729 10548 12460 12461 12453 10775 12687 12688 12680 10766 10773 12686 12679 12682 12689 10777 12690 12464 12691 12692 
1400 1401 1698 1697 1433 1434 1731 1730 10555 12467 12468 12460 10782 12694 12695 12687 10773 10780 12693 12686 12689 12696 10784 12697 12471 12698 12699 
1401 1402 1699 1698 1434 1435 1732 1731 10562 12474 12475 12467 10789 12701 12702 12694 10780 10787 12700 12693 12696 12703 10791 12704 12478 12705 12706 
1402 1403 1700 1699 1435 1436 1733 1732 10569 12481 12482 12474 10796 12708 12709 12701 10787 10794 12707 12700 12703 12710 10798 12711 12485 12712 12713 
1403 1404 1701 1700 1436 1437 1734 1733 10576 12488 12489 12481 10803 12715 12716 12708 10794 10801 12714 12707 12710 12717 10805 12718 12492 12719 12720 
1404 1405 1702 1701 1437 1438 1735 1734 10583 12495 12496 12488 10810 12722 12723 12715 10801 10808 12721 12714 12717 12724 10812 12725 12499 12726 12727 
1405 1406 1703 1702 1438 1439 1736 1735 10590 12502 12503 12495 10817 12729 12730 12722 10808 10815 12728 12721 12724 12731 10819 12732 12506 12733 12734 
1406 1407 1704 1703 1439 1440 1737 1736 10597 12509 12510 12502 10824 12736 12737 12729 10815 10822 12735 12728 12731 12738 10826 12739 12513 12740 12741 
1407 1408 1705 1704 1440 1441 1738 1737 10604 12516 12517 12509 10831 12743 12744 12736 10822 10829 12742 12735 12738 12745 10833 12746 12520 12747 12748 
1408 1409 1706 1705 1441 1442 1739 1738 10611 12523 12524 12516 10838 12750 12751 12743 10829 10836 12749 12742 12745 12752 10840 12753 12527 12754 12755 
1409 1410 1707 1706 1442 1443 1740 1739 10618 12530 12531 12523 10845 12757 12758 12750 10836 10843 12756 12749 12752 12759 10847 12760 12534 12761 12762 
1410 1411 1708 1707 1443 1444 1741 1740 10625 12537 12538 12530 10852 12764 12765 12757 10843 10850 12763 12756 12759 12766 10854 12767 12541 12768 12769 
1411 1412 1709 1708 1444 1445 1742 1741 10632 12544 12545 12537 10859 12771 12772 12764 10850 10857 12770 12763 12766 12773 10861 12774 12548 12775 12776 
1412 1413 1710 1709 1445 1446 1743 1742 10639 12551 12552 12544 10866 12778 12779 12771 10857 10864 12777 12770 12773 12780 10868 12781 12555 12782 12783 
1413 1414 1711 1710 1446 1447 1744 1743 10646 12558 12559 12551 10873 12785 12786 12778 10864 10871 12784 12777 12780 12787 10875 12788 12562 12789 12790 
1414 1415 1712 1711 1447 1448 1745 1744 10653 12565 12566 12558 10880 12792 12793 12785 10871 10878 12791 12784 12787 12794 10882 12795 12569 12796 12797 
1415 1416 1713 1712 1448 1449 1746 1745 10660 12572 12573 12565 10887 12799 12800 12792 10878 10885 12798 12791 12794 12801 10889 12802 12576 12803 12804 
1416 1417 1714 1713 1449 1450 1747 1746 10667 12579 12580 12572 10894 12806 12807 12799 10885 10892 12805 12798 12801 12808 10896 12809 12583 12810 12811 
1417 1418 1715 1714 1450 1451 1748 1747 10674 12586 12587 12579 10901 12813 12814 12806 10892 10899 12812 12805 12808 12815 10903 12816 12590 12817 12818 
1419 1420 1717 1716 1452 1453 1750 1749 10682 12594 12595 12596 10909 12821 12822 12823 10907 10906 12819 12820 12826 12824 10912 12825 12600 12827 12828 
1420 1421 1718 1717 1453 1454 1751 1750 10691 12603 12604 12594 10918 12830 12831 12821 10906 10916 12829 12819 12824 12832 10920 12833 12607 12834 12835 
1421 1422 1719 1718 1454 1455 1752 1751 10698 12610 12611 12603 10925 12837 12838 12830 10916 10923 12836 12829 12832 12839 10927 12840 12614 12841 12842 
1422 1423 1720 1719 1455 1456 1753 1752 10705 12617 12618 12610 10932 12844 12845 12837 10923 10930 12843 12836 12839 12846 10934 12847 12621 12848 12849 
1423 1424 1721 1720 1456 1457 1754 1753 10712 12624 12625 12617 10939 12851 12852 12844 10930 10937 12850 12843 12846 12853 10941 12854 12628 12855 12856 
1424 1425 1722 1721 1457 1458 1755 1754 10719 12631 12632 12624 10946 12858 12859 12851 10937 10944 12857 12850 12853 12860 10948 12861 12635 12862 12863 
1425 1426 1723 1722 1458 1459 1756 1755 10726 12638 12639 12631 10953 12865 12866 12858 10944 10951 12864 12857 12860 12867 10955 12868 12642 12869 12870 
1426 1427 1724 1723 1459 1460 1757 1756 10733 12645 12646 12638 10960 12872 12873 12865 10951 10958 12871 12864 12867 12874 10962 12875 12649 12876 12877 
1427 1428 1725 1724 1460 1461 1758 1757 10740 12652 12653 12645 10967 12879 12880 12872 10958 10965 12878 12871 12874 12881 10969 12882 12656 12883 12884 
1428 1429 1726 1725 1461 1462 1759 1758 10747 12659 12660 12652 10974 12886 12887 12879 10965 10972 12885 12878 12881 12888 10976 12889 12663 12890 12891 
1429 1430 1727 1726 1462 1463 1760 1759 10754 12666 12667 12659 10981 12893 12894 12886 10972 10979 12892 12885 12888 12895 10983 12896 12670 12897 12898 
1430 1431 1728 1727 1463 1464 1761 1760 10761 12673 12674 12666 10988 12900 12901 12893 10979 10986 12899 12892 12895 12902 10990 12903 12677 12904 12905 
1431 1432 1729 1728 1464 1465 1762 1761 10768 12680 12681 12673 10995 12907 12908 12900 10986 10993 12906 12899 12902 12909 10997 12910 12684 12911 12912 
1432 1433 1730 1729 1465 1466 1763 1762 10775 12687 12688 12680 11002 12914 12915 12907 10993 11000 12913 12906 12909 12916 11004 12917 12691 12918 12919 
1433 1434 1731 1730 1466 1467 1764 1763 10782 12694 12695 12687 11009 12921 12922 12914 11000 11007 12920 12913 12916 12923 11011 12924 12698 12925 12926 
1434 1435 1732 1731 1467 1468 1765 1764 10789 12701 12702 12694 11016 12928 12929 12921 11007 11014 12927 12920 12923 12930 11018 12931 12705 12932 12933 
1435 1436 1733 1732 1468 1469 1766 1765 10796 12708 12709 12701 11023 12935 12936 12928 11014 11021 12934 12927 12930 12937 11025 12938 12712 12939 12940 
1436 1437 1734 1733 1469 1470 1767 1766 10803 12715 12716 12708 11030 12942 12943 12935 11021 11028 12941 12934 12937 12944 11032 12945 12719 12946 12947 
1437 1438 1735 1734 1470 1471 1768 1767 10810 12722 12723 12715 11037 12949 12950 12942 11028 11035 12948 12941 12944 12951 11039 12952 12726 12953 12954 
1438 1439 1736 1735 1471 1472 1769 1768 10817 12729 12730 12722 11044 12956 12957 12949 11035 11042 12955 12948 12951 12958 11046 12959 12733 12960 12961 
1439 1440 1737 1736 1472 1473 1770 1769 10824 12736 12737 12729 11051 12963 12964 12956 11042 11049 12962 12955 12958 12965 11053 12966 12740 12967 12968 
1440 1441 1738 1737 1473 1474 1771 1770 10831 12743 12744 12736 11058 12970 12971 12963 11049 11056 12969 12962 12965 12972 11060 12973 12747 12974 12975 
1441 1442 1739 1738 1474 1475 1772 1771 10838 12750 12751 12743 11065 12977 12978 12970 11056 11063 12976 12969 12972 12979 11067 12980 12754 12981 12982 
1442 1443 1740 1739 1475 1476 1773 1772 10845 12757 12758 12750 11072 12984 12985 12977 11063 11070 12983 12976 12979 12986 11074 12987 12761 12988 12989 
1443 1444 1741 1740 1476 1477 1774 1773 10852 12764 12765 12757 11079 12991 12992 12984 11070 11077 12990 12983 12986 12993 11081 12994 12768 12995 12996 
1444 1445 1742 1741 1477 1478 1775 1774 10859 12771 12772 12764 11086 12998 12999 12991 11077 11084 12997 12990 12993 13000 11088 13001 12775 13002 13003 
1445 1446 1743 1742 1478 1479 1776 1775 10866 12778 12779 12771 11093 13005 13006 12998 11084 11091 13004 12997 13000 13007 11095 13008 12782 13009 13010 
1446 1447 1744 1743 1479 1480 1777 1776 10873 12785 12786 12778 11100 13012 13013 13005 11091 11098 13011 13004 13007 13014 11102 13015 12789 13016 13017 
1447 1448 1745 1744 1480 1481 1778 1777 10880 12792 12793 12785 11107 13019 13020 13012 11098 11105 13018 13011 13014 13021 11109 13022 12796 13023 13024 
1448 1449 1746 1745 1481 1482 1779 1778 10887 12799 12800 12792 11114 13026 13027 13019 11105 11112 13025 13018 13021 13028 11116 13029 12803 13030 13031 
1449 1450 1747 1746 1482 1483 1780 1779 10894 12806 12807 12799 11121 13033 13034 13026 11112 11119 13032 13025 13028 13035 11123 13036 12810 13037 13038 
1450 1451 1748 1747 1483 1484 1781 1780 10901 12813 12814 12806 11128 13040 13041 13033 11119 11126 13039 13032 13035 13042 11130 13043 12817 13044 13045 
1485 1486 1783 1782 1518 1519 1816 1815 11134 13046 13047 13048 11139 13051 13052 13053 11137 11136 13049 13050 13057 13055 11143 13056 13054 13058 13059 
1486 1487 1784 1783 1519 1520 1817 1816 11148 13060 13061 13046 11151 13063 13064 13051 11136 11149 13062 13049 13055 13066 11154 13067 13065 13068 13069 
1487 1488 1785 1784 1520 1521 1818 1817 11158 13070 13071 13060 11161 13073 13074 13063 11149 11159 13072 13062 13066 13076 11164 13077 13075 13078 13079 
1488 1489 1786 1785 1521 1522 1819 1818 11168 13080 13081 13070 11171 13083 13084 13073 11159 11169 13082 13072 13076 13086 11174 13087 13085 13088 13089 
1489 1490 1787 1786 1522 1523 1820 1819 11178 13090 13091 13080 11181 13093 13094 13083 11169 11179 13092 13082 13086 13096 11184 13097 13095 13098 13099 
1490 1491 1788 1787 1523 1524 1821 1820 11188 13100 13101 13090 11191 13103 13104 13093 11179 11189 13102 13092 13096 13106 11194 13107 13105 13108 13109 
1491 1492 1789 1788 1524 1525 1822 1821 11198 13110 13111 13100 11201 13113 13114 13103 11189 11199 13112 13102 13106 13116 11204 13117 13115 13118 13119 
1492 1493 1790 1789 1525 1526 1823 1822 11208 13120 13121 13110 11211 13123 13124 13113 11199 11209 13122 13112 13116 13126 11214 13127 13125 13128 13129 
1493 1494 1791 1790 1526 1527 1824 1823 11218 13130 13131 13120 11221 13133 13134 13123 11209 11219 13132 13122 13126 13136 11224 13137 13135 13138 13139 
1494 1495 1792 1791 1527 1528 1825 1824 11228 13140 13141 13130 11231 13143 13144 13133 11219 11229 13142 13132 13136 13146 11234 13147 13145 13148 13149 
1495 1496 1793 1792 1528 1529 1826 1825 11238 13150 13151 13140 11241 13153 13154 13143 11229 11239 13152 13142 13146 13156 11244 13157 13155 13158 13159 
1496 1497 1794 1793 1529 1530 1827 1826 11248 13160 13161 13150 11251 13163 13164 13153 11239 11249 13162 13152 13156 13166 11254 13167 13165 13168 13169 
1497 1498 1795 1794 1530 1531 1828 1827 11258 13170 13171 13160 11261 13173 13174 13163 11249 11259 13172 13162 13166 13176 11264 13177 13175 13178 13179 
1498 1499 1796 1795 1531 1532 1829 1828 11268 13180 13181 13170 11271 13183 13184 13173 11259 11269 13182 13172 13176 13186 11274 13187 13185 13188 13189 
1499 1500 1797 1796 1532 1533 1830 1829 11278 13190 13191 13180 11281 13193 13194 13183 11269 11279 13192 13182 13186 13196 11284 13197 13195 13198 13199 
1500 1501 1798 1797 1533 1534 1831 1830 11288 13200 13201 13190 11291 13203 13204 13193 11279 11289 13202 13192 13196 13206 11294 13207 13205 13208 13209 
1501 1502 1799 1798 1534 1535 1832 1831 11298 13210 13211 13200 11301 13213 13214 13203 11289 11299 13212 13202 13206 13216 11304 13217 13215 13218 13219 
1502 1503 1800 1799 1535 1536 1833 1832 11308 13220 13221 13210 11311 13223 13224 13213 11299 11309 13222 13212 13216 13226 11314 13227 13225 13228 13229 
1503 1504 1801 1800 1536 1537 1834 1833 11318 13230 13231 13220 11321 13233 13234 13223 11309 11319 13232 13222 13226 13236 11324 13237 13235 13238 13239 
1504 1505 1802 1801 1537 1538 1835 1834 11328 13240 13241 13230 11331 13243 13244 13233 11319 11329 13242 13232 13236 13246 11334 13247 13245 13248 13249 
1505 1506 1803 1802 1538 1539 1836 1835 11338 13250 13251 13240 11341 13253 13254 13243 11329 11339 13252 13242 13246 13256 11344 13257 13255 13258 13259 
1506 1507 1804 1803 1539 1540 1837 1836 11348 13260 13261 13250 11351 13263 13264 13253 11339 11349 13262 13252 13256 13266 11354 13267 13265 13268 13269 
1507 1508 1805 1804 1540 1541 1838 1837 11358 13270 13271 13260 11361 13273 13274 13263 11349 11359 13272 13262 13266 13276 11364 13277 13275 13278 13279 
1508 1509 1806 1805 1541 1542 1839 1838 11368 13280 13281 13270 11371 13283 13284 13273 11359 11369 13282 13272 13276 13286 11374 13287 13285 13288 13289 
1509 1510 1807 1806 1542 1543 1840 1839 11378 13290 13291 13280 11381 13293 13294 13283 11369 11379 13292 13282 13286 13296 11384 13297 13295 13298 13299 
1510 1511 1808 1807 1543 1544 1841 1840 11388 13300 13301 13290 11391 13303 13304 13293 11379 11389 13302 13292 13296 13306 11394 13307 13305 13308 13309 
1511 1512 1809 1808 1544 1545 1842 1841 11398 13310 13311 13300 11401 13313 13314 13303 11389 11399 13312 13302 13306 13316 11404 13317 13315 13318 13319 
1512 1513 1810 1809 1545 1546 1843 1842 11408 13320 13321 13310 11411 13323 13324 13313 11399 11409 13322 13312 13316 13326 11414 13327 13325 13328 13329 
1513 1514 1811 1810 1546 1547 1844 1843 11418 13330 13331 13320 11421 13333 13334 13323 11409 11419 13332 13322 13326 13336 11424 13337 13335 13338 13339 
1514 1515 1812 1811 1547 1548 1845 1844 11428 13340 13341 13330 11431 13343 13344 13333 11419 11429 13342 13332 13336 13346 11434 13347 13345 13348 13349 
1515 1516 1813 1812 1548 1549 1846 1845 11438 13350 13351 13340 11441 13353 13354 13343 11429 11439 13352 13342 13346 13356 11444 13357 13355 13358 13359 
1516 1517 1814 1813 1549 1550 1847 1846 11448 13360 13361 13350 11451 13363 13364 13353 11439 11449 13362 13352 13356 13366 11454 13367 13365 13368 13369 
1518 1519 1816 1815 1551 1552 1849 1848 11139 13051 13052 13053 11460 13372 13373 13374 11458 11457 13370 13371 13377 13375 11463 13376 13058 13378 13379 
1519 1520 1817 1816 1552 1553 1850 1849 11151 13063 13064 13051 11469 13381 13382 13372 11457 11467 13380 13370 13375 13383 11471 13384 13068 13385 13386 
1520 1521 1818 1817 1553 1554 1851 1850 11161 13073 13074 13063 11476 13388 13389 13381 11467 11474 13387 13380 13383 13390 11478 13391 13078 13392 13393 
1521 1522 1819 1818 1554 1555 1852 1851 11171 13083 13084 13073 11483 13395 13396 13388 11474 11481 13394 13387 13390 13397 11485 13398 13088 13399 13400 
1522 1523 1820 1819 1555 1556 1853 1852 11181 13093 13094 13083 11490 13402 13403 13395 11481 11488 13401 13394 13397 13404 11492 13405 13098 13406 13407 
1523 1524 1821 1820 1556 1557 1854 1853 11191 13103 13104 13093 11497 13409 13410 13402 11488 11495 13408 13401 13404 13411 11499 13412 13108 13413 13414 
1524 1525 1822 1821 1557 1558 1855 1854 11201 13113 13114 13103 11504 13416 13417 13409 11495 11502 13415 13408 13411 13418 11506 13419 13118 13420 13421 
1525 1526 1823 1822 1558 1559 1856 1855 11211 13123 13124 13113 11511 13423 13424 13416 11502 11509 13422 13415 13418 13425 11513 13426 13128 13427 13428 
1526 1527 1824 1823 1559 1560 1857 1856 11221 13133 13134 13123 11518 13430 13431 13423 11509 11516 13429 13422 13425 13432 11520 13433 13138 13434 13435 
1527 1528 1825 1824 1560 1561 1858 1857 11231 13143 13144 13133 11525 13437 13438 13430 11516 11523 13436 13429 13432 13439 11527 13440 13148 13441 13442 
1528 1529 1826 1825 1561 1562 1859 1858 11241 13153 13154 13143 11532 13444 13445 13437 11523 11530 13443 13436 13439 13446 11534 13447 13158 13448 13449 
1529 1530 1827 1826 1562 1563 1860 1859 11251 13163 13164 13153 11539 13451 13452 13444 11530 11537 13450 13443 13446 13453 11541 13454 13168 13455 13456 
1530 1531 1828 1827 1563 1564 1861 1860 11261 13173 13174 13163 11546 13458 13459 13451 11537 11544 13457 13450 13453 13460 11548 13461 13178 13462 13463 
1531 1532 1829 1828 1564 1565 1862 1861 11271 13183 13184 13173 11553 13465 13466 13458 11544 11551 13464 13457 13460 13467 11555 13468 13188 13469 13470 
1532 1533 1830 1829 1565 1566 1863 1862 11281 13193 13194 13183 11560 13472 13473 13465 11551 11558 13471 13464 13467 13474 11562 13475 13198 13476 13477 
1533 1534 1831 1830 1566 1567 1864 1863 11291 13203 13204 13193 11567 13479 13480 13472 11558 11565 13478 13471 13474 13481 11569 13482 13208 13483 13484 
1534 1535 1832 1831 1567 1568 1865 1864 11301 13213 13214 13203 11574 13486 13487 13479 11565 11572 13485 13478 13481 13488 11576 13489 13218 13490 13491 
1535 1536 1833 1832 1568 1569 1866 1865 11311 13223 13224 13213 11581 13493 13494 13486 11572 11579 13492 13485 13488 13495 11583 13496 13228 13497 13498 
1536 1537 1834 1833 1569 1570 1867 1866 11321 13233 13234 13223 11588 13500 13501 13493 11579 11586 13499 13492 13495 13502 11590 13503 13238 13504 13505 
1537 1538 1835 1834 1570 1571 1868 1867 11331 13243 13244 13233 11595 13507 13508 13500 11586 11593 13506 13499 13502 13509 11597 13510 13248 13511 13512 
1538 1539 1836 1835 1571 1572 1869 1868 11341 13253 13254 13243 11602 13514 13515 13507 11593 11600 13513 13506 13509 13516 11604 13517 13258 13518 13519 
1539 1540 1837 1836 1572 1573 1870 1869 11351 13263 13264 13253 11609 13521 13522 13514 11600 11607 13520 13513 13516 13523 11611 13524 13268 13525 13526 
1540 1541 1838 1837 1573 1574 1871 1870 11361 13273 13274 13263 11616 13528 13529 13521 11607 11614 13527 13520 13523 13530 11618 13531 13278 13532 13533 
1541 1542 1839 1838 1574 1575 1872 1871 11371 13283 13284 13273 11623 13535 13536 13528 11614 11621 13534 13527 13530 13537 11625 13538 13288 13539 13540 
1542 1543 1840 1839 1575 1576 1873 1872 11381 13293 13294 13283 11630 13542 13543 13535 11621 11628 13541 13534 13537 13544 11632 13545 13298 13546 13547 
1543 1544 1841 1840 1576 1577 1874 1873 11391 13303 13304 13293 11637 13549 13550 13542 11628 11635 13548 13541 13544 13551 11639 13552 13308 13553 13554 
1544 1545 1842 1841 1577 1578 1875 1874 11401 13313 13314 13303 11644 13556 13557 13549 11635 11642 13555 13548 13551 13558 11646 13559 13318 13560 13561 
1545 1546 1843 1842 1578 1579 1876 1875 11411 13323 13324 13313 11651 13563 13564 13556 11642 11649 13562 13555 13558 13565 11653 13566 13328 13567 13568 
1546 1547 1844 1843 1579 1580 1877 1876 11421 13333 13334 13323 11658 13570 13571 13563 11649 11656 13569 13562 13565 13572 11660 13573 13338 13574 13575 
1547 1548 1845 1844 1580 1581 1878 1877 11431 13343 13344 13333 11665 13577 13578 13570 11656 11663 13576 13569 13572 13579 11667 13580 13348 13581 13582 
1548 1549 1846 1845 1581 1582 1879 1878 11441 13353 13354 13343 11672 13584 13585 13577 11663 11670 13583 13576 13579 13586 11674 13587 13358 13588 13589 
1549 1550 1847 1846 1582 1583 1880 1879 11451 13363 13364 13353 11679 13591 13592 13584 11670 11677 13590 13583 13586 13593 11681 13594 13368 13595 13596 
1551 1552 1849 1848 1584 1585 1882 1881 11460 13372 13373 13374 11687 13599 13600 13601 11685 11684 13597 13598 13604 13602 11690 13603 13378 13605 13606 
1552 1553 1850 1849 1585 1586 1883 1882 11469 13381 13382 13372 11696 13608 13609 13599 11684 11694 13607 13597 13602 13610 11698 13611 13385 13612 13613 
1553 1554 1851 1850 1586 1587 1884 1883 11476 13388 13389 13381 11703 13615 13616 13608 11694 11701 13614 13607 13610 13617 11705 13618 13392 13619 13620 
1554 1555 1852 1851 1587 1588 1885 1884 11483 13395 13396 13388 11710 13622 13623 13615 11701 11708 13621 13614 13617 13624 11712 13625 13399 13626 13627 
1555 1556 1853 1852 1588 1589 1886 1885 11490 13402 13403 13395 11717 13629 13630 13622 11708 11715 13628 13621 13624 13631 11719 13632 13406 13633 13634 
1556 1557 1854 1853 1589 1590 1887 1886 11497 13409 13410 13402 11724 13636 13637 13629 11715 11722 13635 13628 13631 13638 11726 13639 13413 13640 13641 
1557 1558 1855 1854 1590 1591 1888 1887 11504 13416 13417 13409 11731 13643 13644 13636 11722 11729 13642 13635 13638 13645 11733 13646 13420 13647 13648 
1558 1559 1856 1855 1591 1592 1889 1888 11511 13423 13424 13416 11738 13650 13651 13643 11729 11736 13649 13642 13645 13652 11740 13653 13427 13654 13655 
1559 1560 1857 1856 1592 1593 1890 1889 11518 13430 13431 13423 11745 13657 13658 13650 11736 11743 13656 13649 13652 13659 11747 13660 13434 13661 13662 
1560 1561 1858 1857 1593 1594 1891 1890 11525 13437 13438 13430 11752 13664 13665 13657 11743 11750 13663 13656 13659 13666 11754 13667 13441 13668 13669 
1561 1562 1859 1858 1594 1595 1892 1891 11532 13444 13445 13437 11759 13671 13672 13664 11750 11757 13670 13663 13666 13673 11761 13674 13448 13675 13676 
1562 1563 1860 1859 1595 1596 1893 1892 11539 13451 13452 13444 11766 13678 13679 13671 11757 11764 13677 13670 13673 13680 11768 13681 13455 13682 13683 
1563 1564 1861 1860 1596 1597 1894 1893 11546 13458 13459 13451 11773 13685 13686 13678 11764 11771 13684 13677 13680 13687 11775 13688 13462 13689 13690 
1564 1565 1862 1861 1597 1598 1895 1894 11553 13465 13466 13458 11780 13692 13693 13685 11771 11778 13691 13684 13687 13694 11782 13695 13469 13696 13697 
1565 1566 1863 1862 1598 1599 1896 1895 11560 13472 13473 13465 11787 13699 13700 13692 11778 11785 13698 13691 13694 13701 11789 13702 13476 13703 13704 
1566 1567 1864 1863 1599 1600 1897 1896 11567 13479 13480 13472 11794 13706 13707 13699 11785 11792 13705 13698 13701 13708 11796 13709 13483 13710 13711 
1567 1568 1865 1864 1600 1601 1898 1897 11574 13486 13487 13479 11801 13713 13714 13706 11792 11799 13712 13705 13708 13715 11803 13716 13490 13717 13718 
1568 1569 1866 1865 1601 1602 1899 1898 11581 13493 13494 13486 11808 13720 13721 13713 11799 11806 13719 13712 13715 13722 11810 13723 13497 13724 13725 
1569 1570 1867 1866 1602 1603 1900 1899 11588 13500 13501 13493 11815 13727 13728 13720 11806 11813 13726 13719 13722 13729 11817 13730 13504 13731 13732 
1570 1571 1868 1867 1603 1604 1901 1900 11595 13507 13508 13500 11822 13734 13735 13727 11813 11820 13733 13726 13729 13736 11824 13737 13511 13738 13739 
1571 1572 1869 1868 1604 1605 1902 1901 11602 13514 13515 13507 11829 13741 13742 13734 11820 11827 13740 13733 13736 13743 11831 13744 13518 13745 13746 
1572 1573 1870 1869 1605 1606 1903 1902 11609 13521 13522 13514 11836 13748 13749 13741 11827 11834 13747 13740 13743 13750 11838 13751 13525 13752 13753 
1573 1574 1871 1870 1606 1607 1904 1903 11616 13528 13529 13521 11843 13755 13756 13748 11834 11841 13754 13747 13750 13757 11845 13758 13532 13759 13760 
1574 1575 1872 1871 1607 1608 1905 1904 11623 13535 13536 13528 11850 13762 13763 13755 11841 11848 13761 13754 13757 13764 11852 13765 13539 13766 13767 
1575 1576 1873 1872 1608 1609 1906 1905 11630 13542 13543 13535 11857 13769 13770 13762 11848 11855 13768 13761 13764 13771 11859 13772 13546 13773 13774 
1576 1577 1874 1873 1609 1610 1907 1906 11637 13549 13550 13542 11864 13776 13777 13769 11855 11862 13775 13768 13771 13778 11866 13779 13553 13780 13781 
1577 1578 1875 1874 1610 1611 1908 1907 11644 13556 13557 13549 11871 13783 13784 13776 11862 11869 13782 13775 13778 13785 11873 13786 13560 13787 13788 
1578 1579 1876 1875 1611 1612 1909 1908 11651 13563 13564 13556 11878 13790 13791 13783 11869 11876 13789 13782 13785 13792 11880 13793 13567 13794 13795 
1579 1580 1877 1876 1612 1613 1910 1909 11658 13570 13571 13563 11885 13797 13798 13790 11876 11883 13796 13789 13792 13799 11887 13800 13574 13801 13802 
1580 1581 1878 1877 1613 1614 1911 1910 11665 13577 13578 13570 11892 13804 13805 13797 11883 11890 13803 13796 13799 13806 11894 13807 13581 13808 13809 
1581 1582 1879 1878 1614 1615 1912 1911 11672 13584 13585 13577 11899 13811 13812 13804 11890 11897 13810 13803 13806 13813 11901 13814 13588 13815 13816 
1582 1583 1880 1879 1615 1616 1913 1912 11679 13591 13592 13584 11906 13818 13819 13811 11897 11904 13817 13810 13813 13820 11908 13821 13595 13822 13823 
1584 1585 1882 1881 1617 1618 1915 1914 11687 13599 13600 13601 11914 13826 13827 13828 11912 11911 13824 13825 13831 13829 11917 13830 13605 13832 13833 
1585 1586 1883 1882 1618 1619 1916 1915 11696 13608 13609 13599 11923 13835 13836 13826 11911 11921 13834 13824 13829 13837 11925 13838 13612 13839 13840 
1586 1587 1884 1883 1619 1620 1917 1916 11703 13615 13616 13608 11930 13842 13843 13835 11921 11928 13841 13834 13837 13844 11932 13845 13619 13846 13847 
1587 1588 1885 1884 1620 1621 1918 1917 11710 13622 13623 13615 11937 13849 13850 13842 11928 11935 13848 13841 13844 13851 11939 13852 13626 13853 13854 
1588 1589 1886 1885 1621 1622 1919 1918 11717 13629 13630 13622 11944 13856 13857 13849 11935 11942 13855 13848 13851 13858 11946 13859 13633 13860 13861 
1589 1590 1887 1886 1622 1623 1920 1919 11724 13636 13637 13629 11951 13863 13864 13856 11942 11949 13862 13855 13858 13865 11953 13866 13640 13867 13868 
1590 1591 1888 1887 1623 1624 1921 1920 11731 13643 13644 13636 11958 13870 13871 13863 11949 11956 13869 13862 13865 13872 11960 13873 13647 13874 13875 
1591 1592 1889 1888 1624 1625 1922 1921 11738 13650 13651 13643 11965 13877 13878 13870 11956 11963 13876 13869 13872 13879 11967 13880 13654 13881 13882 
1592 1593 1890 1889 1625 1626 1923 1922 11745 13657 13658 13650 11972 13884 13885 13877 11963 11970 13883 13876 13879 13886 11974 13887 13661 13888 13889 
1593 1594 1891 1890 1626 1627 1924 1923 11752 13664 13665 13657 11979 13891 13892 13884 11970 11977 13890 13883 13886 13893 11981 13894 13668 13895 13896 
1594 1595 1892 1891 1627 1628 1925 1924 11759 13671 13672 13664 11986 13898 13899 13891 11977 11984 13897 13890 13893 13900 11988 13901 13675 13902 13903 
1595 1596 1893 1892 1628 1629 1926 1925 11766 13678 13679 13671 11993 13905 13906 13898 11984 11991 13904 13897 13900 13907 11995 13908 13682 13909 13910 
1596 1597 1894 1893 1629 1630 1927 1926 11773 13685 13686 13678 12000 13912 13913 13905 11991 11998 13911 13904 13907 13914 12002 13915 13689 13916 13917 
1597 1598 1895 1894 1630 1631 1928 1927 11780 13692 13693 13685 12007 13919 13920 13912 11998 12005 13918 13911 13914 13921 12009 13922 13696 13923 13924 
1598 1599 1896 1895 1631 1632 1929 1928 11787 13699 13700 13692 12014 13926 13927 13919 12005 12012 13925 13918 13921 13928 12016 13929 13703 13930 13931 
1599 1600 1897 1896 1632 1633 1930 1929 11794 13706 13707 13699 12021 13933 13934 13926 12012 12019 13932 13925 13928 13935 12023 13936 13710 13937 13938 
1600 1601 1898 1897 1633 1634 1931 1930 11801 13713 13714 13706 12028 13940 13941 13933 12019 12026 13939 13932 13935 13942 12030 13943 13717 13944 13945 
1601 1602 1899 1898 1634 1635 1932 1931 11808 13720 13721 13713 12035 13947 13948 13940 12026 12033 13946 13939 13942 13949 12037 13950 13724 13951 13952 
1602 1603 1900 1899 1635 1636 1933 1932 11815 13727 13728 13720 12042 13954 13955 13947 12033 12040 13953 13946 13949 13956 12044 13957 13731 13958 13959 
1603 1604 1901 1900 1636 1637 1934 1933 11822 13734 13735 13727 12049 13961 13962 13954 12040 12047 13960 13953 13956 13963 12051 13964 13738 13965 13966 
1604 1605 1902 1901 1637 1638 1935 1934 11829 13741 13742 13734 12056 13968 13969 13961 12047 12054 13967 13960 13963 13970 12058 13971 13745 13972 13973 
1605 1606 1903 1902 1638 1639 1936 1935 11836 13748 13749 13741 12063 13975 13976 13968 12054 12061 13974 13967 13970 13977 12065 13978 13752 13979 13980 
1606 1607 1904 1903 1639 1640 1937 1936 11843 13755 13756 13748 12070 13982 13983 13975 12061 12068 13981 13974 13977 13984 12072 13985 13759 13986 13987 
1607 1608 1905 1904 1640 1641 1938 1937 11850 13762 13763 13755 12077 13989 13990 13982 12068 12075 13988 13981 13984 13991 12079 13992 13766 13993 13994 
1608 1609 1906 1905 1641 1642 1939 1938 11857 13769 13770 13762 12084 13996 13997 13989 12075 12082 13995 13988 13991 13998 12086 13999 13773 14000 14001 
1609 1610 1907 1906 1642 1643 1940 1939 11864 13776 13777 13769 12091 14003 14004 13996 12082 12089 14002 13995 13998 14005 12093 14006 13780 14007 14008 
1610 1611 1908 1907 1643 1644 1941 1940 11871 13783 13784 13776 12098 14010 14011 14003 12089 12096 14009 14002 14005 14012 12100 14013 13787 14014 14015 
1611 1612 1909 1908 1644 1645 1942 1941 11878 13790 13791 13783 12105 14017 14018 14010 12096 12103 14016 14009 14012 14019 12107 14020 13794 14021 14022 
1612 1613 1910 1909 1645 1646 1943 1942 11885 13797 13798 13790 12112 14024 14025 14017 12103 12110 14023 14016 14019 14026 12114 14027 13801 14028 14029 
1613 1614 1911 1910 1646 1647 1944 1943 11892 13804 13805 13797 12119 14031 14032 14024 12110 12117 14030 14023 14026 14033 12121 14034 13808 14035 14036 
1614 1615 1912 1911 1647 1648 1945 1944 11899 13811 13812 13804 12126 14038 14039 14031 12117 12124 14037 14030 14033 14040 12128 14041 13815 14042 14043 
1615 1616 1913 1912 1648 1649 1946 1945 11906 13818 13819 13811 12133 14045 14046 14038 12124 12131 14044 14037 14040 14047 12135 14048 13822 14049 14050 
1617 1618 1915 1914 1650 1651 1948 1947 11914 13826 13827 13828 12141 14053 14054 14055 12139 12138 14051 14052 14058 14056 12144 14057 13832 14059 14060 
1618 1619 1916 1915 1651 1652 1949 1948 11923 13835 13836 13826 12150 14062 14063 14053 12138 12148 14061 14051 14056 14064 12152 14065 13839 14066 14067 
1619 1620 1917 1916 1652 1653 1950 1949 11930 13842 13843 13835 12157 14069 14070 14062 12148 12155 14068 14061 14064 14071 12159 14072 13846 14073 14074 
1620 1621 1918 1917 1653 1654 1951 1950 11937 13849 13850 13842 12164 14076 14077 14069 12155 12162 14075 14068 14071 14078 12166 14079 13853 14080 14081 
1621 1622 1919 1918 1654 1655 1952 1951 11944 13856 13857 13849 12171 14083 14084 14076 12162 12169 14082 14075 14078 14085 12173 14086 13860 14087 14088 
1622 1623 1920 1919 1655 1656 1953 1952 11951 13863 13864 13856 12178 14090 14091 14083 12169 12176 14089 14082 14085 14092 12180 14093 13867 14094 14095 
1623 1624 1921 1920 1656 1657 1954 1953 11958 13870 13871 13863 12185 14097 14098 14090 12176 12183 14096 14089 14092 14099 12187 14100 13874 14101 14102 
1624 1625 1922 1921 1657 1658 1955 1954 11965 13877 13878 13870 12192 14104 14105 14097 12183 12190 14103 14096 14099 14106 12194 14107 13881 14108 14109 
1625 1626 1923 1922 1658 1659 1956 1955 11972 13884 13885 13877 12199 14111 14112 14104 12190 12197 14110 14103 14106 14113 12201 14114 13888 14115 14116 
1626 1627 1924 1923 1659 1660 1957 1956 11979 13891 13892 13884 12206 14118 14119 14111 12197 12204 14117 14110 14113 14120 12208 14121 13895 14122 14123 
1627 1628 1925 1924 1660 1661 1958 1957 11986 13898 13899 13891 12213 14125 14126 14118 12204 12211 14124 14117 14120 14127 12215 14128 13902 14129 14130 
1628 1629 1926 1925 1661 1662 1959 1958 11993 13905 13906 13898 12220 14132 14133 14125 12211 12218 14131 14124 14127 14134 12222 14135 13909 14136 14137 
1629 1630 1927 1926 1662 1663 1960 1959 12000 13912 13913 13905 12227 14139 14140 14132 12218 12225 14138 14131 14134 14141 12229 14142 13916 14143 14144 
1630 1631 1928 1927 1663 1664 1961 1960 12007 13919 13920 13912 12234 14146 14147 14139 12225 12232 14145 14138 14141 14148 12236 14149 13923 14150 14151 
1631 1632 1929 1928 1664 1665 1962 1961 12014 13926 13927 13919 12241 14153 14154 14146 12232 12239 14152 14145 14148 14155 12243 14156 13930 14157 14158 
1632 1633 1930 1929 1665 1666 1963 1962 12021 13933 13934 13926 12248 14160 14161 14153 12239 12246 14159 14152 14155 14162 12250 14163 13937 14164 14165 
1633 1634 1931 1930 1666 1667 1964 1963 12028 13940 13941 13933 12255 14167 14168 14160 12246 12253 14166 14159 14162 14169 12257 14170 13944 14171 14172 
1634 1635 1932 1931 1667 1668 1965 1964 12035 13947 13948 13940 12262 14174 14175 14167 12253 12260 14173 14166 14169 14176 12264 14177 13951 14178 14179 
1635 1636 1933 1932 1668 1669 1966 1965 12042 13954 13955 13947 12269 14181 14182 14174 12260 12267 14180 14173 14176 14183 12271 14184 13958 14185 14186 
1636 1637 1934 1933 1669 1670 1967 1966 12049 13961 13962 13954 12276 14188 14189 14181 12267 12274 14187 14180 14183 14190 12278 14191 13965 14192 14193 
1637 1638 1935 1934 1670 1671 1968 1967 12056 13968 13969 13961 12283 14195 14196 14188 12274 12281 14194 14187 14190 14197 12285 14198 13972 14199 14200 
1638 1639 1936 1935 1671 1672 1969 1968 12063 13975 13976 13968 12290 14202 14203 14195 12281 12288 14201 14194 14197 14204 12292 14205 13979 14206 14207 
1639 1640 1937 1936 1672 1673 1970 1969 12070 13982 13983 13975 12297 14209 14210 14202 12288 12295 14208 14201 14204 14211 12299 14212 13986 14213 14214 
1640 1641 1938 1937 1673 1674 1971 1970 12077 13989 13990 13982 12304 14216 14217 14209 12295 12302 14215 14208 14211 14218 12306 14219 13993 14220 14221 
1641 1642 1939 1938 1674 1675 1972 1971 12084 13996 13997 13989 12311 14223 14224 14216 12302 12309 14222 14215 14218 14225 12313 14226 14000 14227 14228 
1642 1643 1940 1939 1675 1676 1973 1972 12091 14003 14004 13996 12318 14230 14231 14223 12309 12316 14229 14222 14225 14232 12320 14233 14007 14234 14235 
1643 1644 1941 1940 1676 1677 1974 1973 12098 14010 14011 14003 12325 14237 14238 14230 12316 12323 14236 14229 14232 14239 12327 14240 14014 14241 14242 
1644 1645 1942 1941 1677 1678 1975 1974 12105 14017 14018 14010 12332 14244 14245 14237 12323 12330 14243 14236 14239 14246 12334 14247 14021 14248 14249 
1645 1646 1943 1942 1678 1679 1976 1975 12112 14024 14025 14017 12339 14251 14252 14244 12330 12337 14250 14243 14246 14253 12341 14254 14028 14255 14256 
1646 1647 1944 1943 1679 1680 1977 1976 12119 14031 14032 14024 12346 14258 14259 14251 12337 12344 14257 14250 14253 14260 12348 14261 14035 14262 14263 
1647 1648 1945 1944 1680 1681 1978 1977 12126 14038 14039 14031 12353 14265 14266 14258 12344 12351 14264 14257 14260 14267 12355 14268 14042 14269 14270 
1648 1649 1946 1945 1681 1682 1979 1978 12133 14045 14046 14038 12360 14272 14273 14265 12351 12358 14271 14264 14267 14274 12362 14275 14049 14276 14277 
1650 1651 1948 1947 1683 1684 1981 1980 12141 14053 14054 14055 12368 14280 14281 14282 12366 12365 14278 14279 14285 14283 12371 14284 14059 14286 14287 
1651 1652 1949 1948 1684 1685 1982 1981 12150 14062 14063 14053 12377 14289 14290 14280 12365 12375 14288 14278 14283 14291 12379 14292 14066 14293 14294 
1652 1653 1950 1949 1685 1686 1983 1982 12157 14069 14070 14062 12384 14296 14297 14289 12375 12382 14295 14288 14291 14298 12386 14299 14073 14300 14301 
1653 1654 1951 1950 1686 1687 1984 1983 12164 14076 14077 14069 12391 14303 14304 14296 12382 12389 14302 14295 14298 14305 12393 14306 14080 14307 14308 
1654 1655 1952 1951 1687 1688 1985 1984 12171 14083 14084 14076 12398 14310 14311 14303 12389 12396 14309 14302 14305 14312 12400 14313 14087 14314 14315 
1655 1656 1953 1952 1688 1689 1986 1985 12178 14090 14091 14083 12405 14317 14318 14310 12396 12403 14316 14309 14312 14319 12407 14320 14094 14321 14322 
1656 1657 1954 1953 1689 1690 1987 1986 12185 14097 14098 14090 12412 14324 14325 14317 12403 12410 14323 14316 14319 14326 12414 14327 14101 14328 14329 
1657 1658 1955 1954 1690 1691 1988 1987 12192 14104 14105 14097 12419 14331 14332 14324 12410 12417 14330 14323 14326 14333 12421 14334 14108 14335 14336 
1658 1659 1956 1955 1691 1692 1989 1988 12199 14111 14112 14104 12426 14338 14339 14331 12417 12424 14337 14330 14333 14340 12428 14341 14115 14342 14343 
1659 1660 1957 1956 1692 1693 1990 1989 12206 14118 14119 14111 12433 14345 14346 14338 12424 12431 14344 14337 14340 14347 12435 14348 14122 14349 14350 
1660 1661 1958 1957 1693 1694 1991 1990 12213 14125 14126 14118 12440 14352 14353 14345 12431 12438 14351 14344 14347 14354 12442 14355 14129 14356 14357 
1661 1662 1959 1958 1694 1695 1992 1991 12220 14132 14133 14125 12447 14359 14360 14352 12438 12445 14358 14351 14354 14361 12449 14362 14136 14363 14364 
1662 1663 1960 1959 1695 1696 1993 1992 12227 14139 14140 14132 12454 14366 14367 14359 12445 12452 14365 14358 14361 14368 12456 14369 14143 14370 14371 
1663 1664 1961 1960 1696 1697 1994 1993 12234 14146 14147 14139 12461 14373 14374 14366 12452 12459 14372 14365 14368 14375 12463 14376 14150 14377 14378 
1664 1665 1962 1961 1697 1698 1995 1994 12241 14153 14154 14146 12468 14380 14381 14373 12459 12466 14379 14372 14375 14382 12470 14383 14157 14384 14385 
1665 1666 1963 1962 1698 1699 1996 1995 12248 14160 14161 14153 12475 14387 14388 14380 12466 12473 14386 14379 14382 14389 12477 14390 14164 14391 14392 
1666 1667 1964 1963 1699 1700 1997 1996 12255 14167 14168 14160 12482 14394 14395 14387 12473 12480 14393 14386 14389 14396 12484 14397 14171 14398 14399 
1667 1668 1965 1964 1700 1701 1998 1997 12262 14174 14175 14167 12489 14401 14402 14394 12480 12487 14400 14393 14396 14403 12491 14404 14178 14405 14406 
1668 1669 1966 1965 1701 1702 1999 1998 12269 14181 14182 14174 12496 14408 14409 14401 12487 12494 14407 14400 14403 14410 12498 14411 14185 14412 14413 
1669 1670 1967 1966 1702 1703 2000 1999 12276 14188 14189 14181 12503 14415 14416 14408 12494 12501 14414 14407 14410 14417 12505 14418 14192 14419 14420 
1670 1671 1968 1967 1703 1704 2001 2000 12283 14195 14196 14188 12510 14422 14423 14415 12501 12508 14421 14414 14417 14424 12512 14425 14199 14426 14427 
1671 1672 1969 1968 1704 1705 2002 2001 12290 14202 14203 14195 12517 14429 14430 14422 12508 12515 14428 14421 14424 14431 12519 14432 14206 14433 14434 
1672 1673 1970 1969 1705 1706 2003 2002 12297 14209 14210 14202 12524 14436 14437 14429 12515 12522 14435 14428 14431 14438 12526 14439 14213 14440 14441 
1673 1674 1971 1970 1706 1707 2004 2003 12304 14216 14217 14209 12531 14443 14444 14436 12522 12529 14442 14435 14438 14445 12533 14446 14220 14447 14448 
1674 1675 1972 1971 1707 1708 2005 2004 12311 14223 14224 14216 12538 14450 14451 14443 12529 12536 14449 14442 14445 14452 12540 14453 14227 14454 14455 
1675 1676 1973 1972 1708 1709 2006 2005 12318 14230 14231 14223 12545 14457 14458 14450 12536 12543 14456 14449 14452 14459 12547 14460 14234 14461 14462 
1676 1677 1974 1973 1709 1710 2007 2006 12325 14237 14238 14230 12552 14464 14465 14457 12543 12550 14463 14456 14459 14466 12554 14467 14241 14468 14469 
1677 1678 1975 1974 1710 1711 2008 2007 12332 14244 14245 14237 12559 14471 14472 14464 12550 12557 14470 14463 14466 14473 12561 14474 14248 14475 14476 
1678 1679 1976 1975 1711 1712 2009 2008 12339 14251 14252 14244 12566 14478 14479 14471 12557 12564 14477 14470 14473 14480 12568 14481 14255 14482 14483 
1679 1680 1977 1976 1712 1713 2010 2009 12346 14258 14259 14251 12573 14485 14486 14478 12564 12571 14484 14477 14480 14487 12575 14488 14262 14489 14490 
1680 1681 1978 1977 1713 1714 2011 2010 12353 14265 14266 14258 12580 14492 14493 14485 12571 12578 14491 14484 14487 14494 12582 14495 14269 14496 14497 
1681 1682 1979 1978 1714 1715 2012 2011 12360 14272 14273 14265 12587 14499 14500 14492 12578 12585 14498 14491 14494 14501 12589 14502 14276 14503 14504 
1683 1684 1981 1980 1716 1717 2014 2013 12368 14280 14281 14282 12595 14507 14508 14509 12593 12592 14505 14506 14512 14510 12598 14511 14286 14513 14514 
1684 1685 1982 1981 1717 1718 2015 2014 12377 14289 14290 14280 12604 14516 14517 14507 12592 12602 14515 14505 14510 14518 12606 14519 14293 14520 14521 
1685 1686 1983 1982 1718 1719 2016 2015 12384 14296 14297 14289 12611 14523 14524 14516 12602 12609 14522 14515 14518 14525 12613 14526 14300 14527 14528 
1686 1687 1984 1983 1719 1720 2017 2016 12391 14303 14304 14296 12618 14530 14531 14523 12609 12616 14529 14522 14525 14532 12620 14533 14307 14534 14535 
1687 1688 1985 1984 1720 1721 2018 2017 12398 14310 14311 14303 12625 14537 14538 14530 12616 12623 14536 14529 14532 14539 12627 14540 14314 14541 14542 
1688 1689 1986 1985 1721 1722 2019 2018 12405 14317 14318 14310 12632 14544 14545 14537 12623 12630 14543 14536 14539 14546 12634 14547 14321 14548 14549 
1689 1690 1987 1986 1722 1723 2020 2019 12412 14324 14325 14317 12639 14551 14552 14544 12630 12637 14550 14543 14546 14553 12641 14554 14328 14555 14556 
1690 1691 1988 1987 1723 1724 2021 2020 12419 14331 14332 14324 12646 14558 14559 14551 12637 12644 14557 14550 14553 14560 12648 14561 14335 14562 14563 
1691 1692 1989 1988 1724 1725 2022 2021 12426 14338 14339 14331 12653 14565 14566 14558 12644 12651 14564 14557 14560 14567 12655 14568 14342 14569 14570 
1692 1693 1990 1989 1725 1726 2023 2022 12433 14345 14346 14338 12660 14572 14573 14565 12651 12658 14571 14564 14567 14574 12662 14575 14349 14576 14577 
1693 1694 1991 1990 1726 1727 2024 2023 12440 14352 14353 14345 12667 14579 14580 14572 12658 12665 14578 14571 14574 14581 12669 14582 14356 14583 14584 
1694 1695 1992 1991 1727 1728 2025 2024 12447 14359 14360 14352 12674 14586 14587 14579 12665 12672 14585 14578 14581 14588 12676 14589 14363 14590 14591 
1695 1696 1993 1992 1728 1729 2026 2025 12454 14366 14367 14359 12681 14593 14594 14586 12672 12679 14592 14585 14588 14595 12683 14596 14370 14597 14598 
1696 1697 1994 1993 1729 1730 2027 2026 12461 14373 14374 14366 12688 14600 14601 14593 12679 12686 14599 14592 14595 14602 12690 14603 14377 14604 14605 
1697 1698 1995 1994 1730 1731 2028 2027 12468 14380 14381 14373 12695 14607 14608 14600 12686 12693 14606 14599 14602 14609 12697 14610 14384 14611 14612 
1698 1699 1996 1995 1731 1732 2029 2028 12475 14387 14388 14380 12702 14614 14615 14607 12693 12700 14613 14606 14609 14616 12704 14617 14391 14618 14619 
1699 1700 1997 1996 1732 1733 2030 2029 12482 14394 14395 14387 12709 14621 14622 14614 12700 12707 14620 14613 14616 14623 12711 14624 14398 14625 14626 
1700 1701 1998 1997 1733 1734 2031 2030 12489 14401 14402 14394 12716 14628 14629 14621 12707 12714 14627 14620 14623 14630 12718 14631 14405 14632 14633 
1701 1702 1999 1998 1734 1735 2032 2031 12496 14408 14409 14401 12723 14635 14636 14628 12714 12721 14634 14627 14630 14637 12725 14638 14412 14639 14640 
1702 1703 2000 1999 1735 1736 2033 2032 12503 14415 14416 14408 12730 14642 14643 14635 12721 12728 14641 14634 14637 14644 12732 14645 14419 14646 14647 
1703 1704 2001 2000 1736 1737 2034 2033 12510 14422 14423 14415 12737 14649 14650 14642 12728 12735 14648 14641 14644 14651 12739 14652 14426 14653 14654 
1704 1705 2002 2001 1737 1738 2035 2034 12517 14429 14430 14422 12744 14656 14657 14649 12735 12742 14655 14648 14651 14658 12746 14659 14433 14660 14661 
1705 1706 2003 2002 1738 1739 2036 2035 12524 14436 14437 14429 12751 14663 14664 14656 12742 12749 14662 14655 14658 14665 12753 14666 14440 14667 14668 
1706 1707 2004 2003 1739 1740 2037 2036 12531 14443 14444 14436 12758 14670 14671 14663 12749 12756 14669 14662 14665 14672 12760 14673 14447 14674 14675 
1707 1708 2005 2004 1740 1741 2038 2037 12538 14450 14451 14443 12765 14677 14678 14670 12756 12763 14676 14669 14672 14679 12767 14680 14454 14681 14682 
1708 1709 2006 2005 1741 1742 2039 2038 12545 14457 14458 14450 12772 14684 14685 14677 12763 12770 14683 14676 14679 14686 12774 14687 14461 14688 14689 
1709 1710 2007 2006 1742 1743 2040 2039 12552 14464 14465 14457 12779 14691 14692 14684 12770 12777 14690 14683 14686 14693 12781 14694 14468 14695 14696 
1710 1711 2008 2007 1743 1744 2041 2040 12559 14471 14472 14464 12786 14698 14699 14691 12777 12784 14697 14690 14693 14700 12788 14701 14475 14702 14703 
1711 1712 2009 2008 1744 1745 2042 2041 12566 14478 14479 14471 12793 14705 14706 14698 12784 12791 14704 14697 14700 14707 12795 14708 14482 14709 14710 
1712 1713 2010 2009 1745 1746 2043 2042 12573 14485 14486 14478 12800 14712 14713 14705 12791 12798 14711 14704 14707 14714 12802 14715 14489 14716 14717 
1713 1714 2011 2010 1746 1747 2044 2043 12580 14492 14493 14485 12807 14719 14720 14712 12798 12805 14718 14711 14714 14721 12809 14722 14496 14723 14724 
1714 1715 2012 2011 1747 1748 2045 2044 12587 14499 14500 14492 12814 14726 14727 14719 12805 12812 14725 14718 14721 14728 12816 14729 14503 14730 14731 
1716 1717 2014 2013 1749 1750 2047 2046 12595 14507 14508 14509 12822 14734 14735 14736 12820 12819 14732 14733 14739 14737 12825 14738 14513 14740 14741 
1717 1718 2015 2014 1750 1751 2048 2047 12604 14516 14517 14507 12831 14743 14744 14734 12819 12829 14742 14732 14737 14745 12833 14746 14520 14747 14748 
1718 1719 2016 2015 1751 1752 2049 2048 12611 14523 14524 14516 12838 14750 14751 14743 12829 12836 14749 14742 14745 14752 12840 14753 14527 14754 14755 
1719 1720 2017 2016 1752 1753 2050 2049 12618 14530 14531 14523 12845 14757 14758 14750 12836 12843 14756 14749 14752 14759 12847 14760 14534 14761 14762 
1720 1721 2018 2017 1753 1754 2051 2050 12625 14537 14538 14530 12852 14764 14765 14757 12843 12850 14763 14756 14759 14766 12854 14767 14541 14768 14769 
1721 1722 2019 2018 1754 1755 2052 2051 12632 14544 14545 14537 12859 14771 14772 14764 12850 12857 14770 14763 14766 14773 12861 14774 14548 14775 14776 
1722 1723 2020 2019 1755 1756 2053 2052 12639 14551 14552 14544 12866 14778 14779 14771 12857 12864 14777 14770 14773 14780 12868 14781 14555 14782 14783 
1723 1724 2021 2020 1756 1757 2054 2053 12646 14558 14559 14551 12873 14785 14786 14778 12864 12871 14784 14777 14780 14787 12875 14788 14562 14789 14790 
1724 1725 2022 2021 1757 1758 2055 2054 12653 14565 14566 14558 12880 14792 14793 14785 12871 12878 14791 14784 14787 14794 12882 14795 14569 14796 14797 
1725 1726 2023 2022 1758 1759 2056 2055 12660 14572 14573 14565 12887 14799 14800 14792 12878 12885 14798 14791 14794 14801 12889 14802 14576 14803 14804 
1726 1727 2024 2023 1759 1760 2057 2056 12667 14579 14580 14572 12894 14806 14807 14799 12885 12892 14805 14798 14801 14808 12896 14809 14583 14810 14811 
1727 1728 2025 2024 1760 1761 2058 2057 12674 14586 14587 14579 12901 14813 14814 14806 12892 12899 14812 14805 14808 14815 12903 14816 14590 14817 14818 
1728 1729 2026 2025 1761 1762 2059 2058 12681 14593 14594 14586 12908 14820 14821 14813 12899 12906 14819 14812 14815 14822 12910 14823 14597 14824 14825 
1729 1730 2027 2026 1762 1763 2060 2059 12688 14600 14601 14593 12915 14827 14828 14820 12906 12913 14826 14819 14822 14829 12917 14830 14604 14831 14832 
1730 1731 2028 2027 1763 1764 2061 2060 12695 14607 14608 14600 12922 14834 14835 14827 12913 12920 14833 14826 14829 14836 12924 14837 14611 14838 14839 
1731 1732 2029 2028 1764 1765 2062 2061 12702 14614 14615 14607 12929 14841 14842 14834 12920 12927 14840 14833 14836 14843 12931 14844 14618 14845 14846 
1732 1733 2030 2029 1765 1766 2063 2062 12709 14621 14622 14614 12936 14848 14849 14841 12927 12934 14847 14840 14843 14850 12938 14851 14625 14852 14853 
1733 1734 2031 2030 1766 1767 2064 2063 12716 14628 14629 14621 12943 14855 14856 14848 12934 12941 14854 14847 14850 14857 12945 14858 14632 14859 14860 
1734 1735 2032 2031 1767 1768 2065 2064 12723 14635 14636 14628 12950 14862 14863 14855 12941 12948 14861 14854 14857 14864 12952 14865 14639 14866 14867 
1735 1736 2033 2032 1768 1769 2066 2065 12730 14642 14643 14635 12957 14869 14870 14862 12948 12955 14868 14861 14864 14871 12959 14872 14646 14873 14874 
1736 1737 2034 2033 1769 1770 2067 2066 12737 14649 14650 14642 12964 14876 14877 14869 12955 12962 14875 14868 14871 14878 12966 14879 14653 14880 14881 
1737 1738 2035 2034 1770 1771 2068 2067 12744 14656 14657 14649 12971 14883 14884 14876 12962 12969 14882 14875 14878 14885 12973 14886 14660 14887 14888 
1738 1739 2036 2035 1771 1772 2069 2068 12751 14663 14664 14656 12978 14890 14891 14883 12969 12976 14889 14882 14885 14892 12980 14893 14667 14894 14895 
1739 1740 2037 2036 1772 1773 2070 2069 12758 14670 14671 14663 12985 14897 14898 14890 12976 12983 14896 14889 14892 14899 12987 14900 14674 14901 14902 
1740 1741 2038 2037 1773 1774 2071 2070 12765 14677 14678 14670 12992 14904 14905 14897 12983 12990 14903 14896 14899 14906 12994 14907 14681 14908 14909 
1741 1742 2039 2038 1774 1775 2072 2071 12772 14684 14685 14677 12999 14911 14912 14904 12990 12997 14910 14903 14906 14913 13001 14914 14688 14915 14916 
1742 1743 2040 2039 1775 1776 2073 2072 12779 14691 14692 14684 13006 14918 14919 14911 12997 13004 14917 14910 14913 14920 13008 14921 14695 14922 14923 
1743 1744 2041 2040 1776 1777 2074 2073 12786 14698 14699 14691 13013 14925 14926 14918 13004 13011 14924 14917 14920 14927 13015 14928 14702 14929 14930 
1744 1745 2042 2041 1777 1778 2075 2074 12793 14705 14706 14698 13020 14932 14933 14925 13011 13018 14931 14924 14927 14934 13022 14935 14709 14936 14937 
1745 1746 2043 2042 1778 1779 2076 2075 12800 14712 14713 14705 13027 14939 14940 14932 13018 13025 14938 14931 14934 14941 13029 14942 14716 14943 14944 
1746 1747 2044 2043 1779 1780 2077 2076 12807 14719 14720 14712 13034 14946 14947 14939 13025 13032 14945 14938 14941 14948 13036 14949 14723 14950 14951 
1747 1748 2045 2044 1780 1781 2078 2077 12814 14726 14727 14719 13041 14953 14954 14946 13032 13039 14952 14945 14948 14955 13043 14956 14730 14957 14958 
1782 1783 2080 2079 1815 1816 2113 2112 13047 14959 14960 14961 13052 14964 14965 14966 13050 13049 14962 14963 14970 14968 13056 14969 14967 14971 14972 
1783 1784 2081 2080 1816 1817 2114 2113 13061 14973 14974 14959 13064 14976 14977 14964 13049 13062 14975 14962 14968 14979 13067 14980 14978 14981 14982 
1784 1785 2082 2081 1817 1818 2115 2114 13071 14983 14984 14973 13074 14986 14987 14976 13062 13072 14985 14975 14979 14989 13077 14990 14988 14991 14992 
1785 1786 2083 2082 1818 1819 2116 2115 13081 14993 14994 14983 13084 14996 14997 14986 13072 13082 14995 14985 14989 14999 13087 15000 14998 15001 15002 
1786 1787 2084 2083 1819 1820 2117 2116 13091 15003 15004 14993 13094 15006 15007 14996 13082 13092 15005 14995 14999 15009 13097 15010 15008 15011 15012 
1787 1788 2085 2084 1820 1821 2118 2117 13101 15013 15014 15003 13104 15016 15017 15006 13092 13102 15015 15005 15009 15019 13107 15020 15018 15021 15022 
1788 1789 2086 2085 1821 1822 2119 2118 13111 15023 15024 15013 13114 15026 15027 15016 13102 13112 15025 15015 15019 15029 13117 15030 15028 15031 15032 
1789 1790 2087 2086 1822 1823 2120 2119 13121 15033 15034 15023 13124 15036 15037 15026 13112 13122 15035 15025 15029 15039 13127 15040 15038 15041 15042 
1790 1791 2088 2087 1823 1824 2121 2120 13131 15043 15044 15033 13134 15046 15047 15036 13122 13132 15045 15035 15039 15049 13137 15050 15048 15051 15052 
1791 1792 2089 2088 1824 1825 2122 2121 13141 15053 15054 15043 13144 15056 15057 15046 13132 13142 15055 15045 15049 15059 13147 15060 15058 15061 15062 
1792 1793 2090 2089 1825 1826 2123 2122 13151 15063 15064 15053 13154 15066 15067 15056 13142 13152 15065 15055 15059 15069 13157 15070 15068 15071 15072 
1793 1794 2091 2090 1826 1827 2124 2123 13161 15073 15074 15063 13164 15076 15077 15066 13152 13162 15075 15065 15069 15079 13167 15080 15078 15081 15082 
1794 1795 2092 2091 1827 1828 2125 2124 13171 15083 15084 15073 13174 15086 15087 15076 13162 13172 15085 15075 15079 15089 13177 15090 15088 15091 15092 
1795 1796 2093 2092 1828 1829 2126 2125 13181 15093 15094 15083 13184 15096 15097 15086 13172 13182 15095 15085 15089 15099 13187 15100 15098 15101 15102 
1796 1797 2094 2093 1829 1830 2127 2126 13191 15103 15104 15093 13194 15106 15107 15096 13182 13192 15105 15095 15099 15109 13197 15110 15108 15111 15112 
1797 1798 2095 2094 1830 1831 2128 2127 13201 15113 15114 15103 13204 15116 15117 15106 13192 13202 15115 15105 15109 15119 13207 15120 15118 15121 15122 
1798 1799 2096 2095 1831 1832 2129 2128 13211 15123 15124 15113 13214 15126 15127 15116 13202 13212 15125 15115 15119 15129 13217 15130 15128 15131 15132 
1799 1800 2097 2096 1832 1833 2130 2129 13221 15133 15134 15123 13224 15136 15137 15126 13212 13222 15135 15125 15129 15139 13227 15140 15138 15141 15142 
1800 1801 2098 2097 1833 1834 2131 2130 13231 15143 15144 15133 13234 15146 15147 15136 13222 13232 15145 15135 15139 15149 13237 15150 15148 15151 15152 
1801 1802 2099 2098 1834 1835 2132 2131 13241 15153 15154 15143 13244 15156 15157 15146 13232 13242 15155 15145 15149 15159 13247 15160 15158 15161 15162 
1802 1803 2100 2099 1835 1836 2133 2132 13251 15163 15164 15153 13254 15166 15167 15156 13242 13252 15165 15155 15159 15169 13257 15170 15168 15171 15172 
1803 1804 2101 2100 1836 1837 2134 2133 13261 15173 15174 15163 13264 15176 15177 15166 13252 13262 15175 15165 15169 15179 13267 15180 15178 15181 15182 
1804 1805 2102 2101 1837 1838 2135 2134 13271 15183 15184 15173 13274 15186 15187 15176 13262 13272 15185 15175 15179 15189 13277 15190 15188 15191 15192 
1805 1806 2103 2102 1838 1839 2136 2135 13281 15193 15194 15183 13284 15196 15197 15186 13272 13282 15195 15185 15189 15199 13287 15200 15198 15201 15202 
1806 1807 2104 2103 1839 1840 2137 2136 13291 15203 15204 15193 13294 15206 15207 15196 13282 13292 15205 15195 15199 15209 13297 15210 15208 15211 15212 
1807 1808 2105 2104 1840 1841 2138 2137 13301 15213 15214 15203 13304 15216 15217 15206 13292 13302 15215 15205 15209 15219 13307 15220 15218 15221 15222 
1808 1809 2106 2105 1841 1842 2139 2138 13311 15223 15224 15213 13314 15226 15227 15216 13302 13312 15225 15215 15219 15229 13317 15230 15228 15231 15232 
1809 1810 2107 2106 1842 1843 2140 2139 13321 15233 15234 15223 13324 15236 15237 15226 13312 13322 15235 15225 15229 15239 13327 15240 15238 15241 15242 
1810 1811 2108 2107 1843 1844 2141 2140 13331 15243 15244 15233 13334 15246 15247 15236 13322 13332 15245 15235 15239 15249 13337 15250 15248 15251 15252 
1811 1812 2109 2108 1844 1845 2142 2141 13341 15253 15254 15243 13344 15256 15257 15246 13332 13342 15255 15245 15249 15259 13347 15260 15258 15261 15262 
1812 1813 2110 2109 1845 1846 2143 2142 13351 15263 15264 15253 13354 15266 15267 15256 13342 13352 15265 15255 15259 15269 13357 15270 15268 15271 15272 
1813 1814 2111 2110 1846 1847 2144 2143 13361 15273 15274 15263 13364 15276 15277 15266 13352 13362 15275 15265 15269 15279 13367 15280 15278 15281 15282 
1815 1816 2113 2112 1848 1849 2146 2145 13052 14964 14965 14966 13373 15285 15286 15287 13371 13370 15283 15284 15290 15288 13376 15289 14971 15291 15292 
1816 1817 2114 2113 1849 1850 2147 2146 13064 14976 14977 14964 13382 15294 15295 15285 13370 13380 15293 15283 15288 15296 13384 15297 14981 15298 15299 
1817 1818 2115 2114 1850 1851 2148 2147 13074 14986 14987 14976 13389 15301 15302 15294 13380 13387 15300 15293 15296 15303 13391 15304 14991 15305 15306 
1818 1819 2116 2115 1851 1852 2149 2148 13084 14996 14997 14986 13396 15308 15309 15301 13387 13394 15307 15300 15303 15310 13398 15311 15001 15312 15313 
1819 1820 2117 2116 1852 1853 2150 2149 13094 15006 15007 14996 13403 15315 15316 15308 13394 13401 15314 15307 15310 15317 13405 15318 15011 15319 15320 
1820 1821 2118 2117 1853 1854 2151 2150 13104 15016 15017 15006 13410 15322 15323 15315 13401 13408 15321 15314 15317 15324 13412 15325 15021 15326 15327 
1821 1822 2119 2118 1854 1855 2152 2151 13114 15026 15027 15016 13417 15329 15330 15322 13408 13415 15328 15321 15324 15331 13419 15332 15031 15333 15334 
1822 1823 2120 2119 1855 1856 2153 2152 13124 15036 15037 15026 13424 15336 15337 15329 13415 13422 15335 15328 15331 15338 13426 15339 15041 15340 15341 
1823 1824 2121 2120 1856 1857 2154 2153 13134 15046 15047 15036 13431 15343 15344 15336 13422 13429 15342 15335 15338 15345 13433 15346 15051 15347 15348 
1824 1825 2122 2121 1857 1858 2155 2154 13144 15056 15057 15046 13438 15350 15351 15343 13429 13436 15349 15342 15345 15352 13440 15353 15061 15354 15355 
1825 1826 2123 2122 1858 1859 2156 2155 13154 15066 15067 15056 13445 15357 15358 15350 13436 13443 15356 15349 15352 15359 13447 15360 15071 15361 15362 
1826 1827 2124 2123 1859 1860 2157 2156 13164 15076 15077 15066 13452 15364 15365 15357 13443 13450 15363 15356 15359 15366 13454 15367 15081 15368 15369 
1827 1828 2125 2124 1860 1861 2158 2157 13174 15086 15087 15076 13459 15371 15372 15364 13450 13457 15370 15363 15366 15373 13461 15374 15091 15375 15376 
1828 1829 2126 2125 1861 1862 2159 2158 13184 15096 15097 15086 13466 15378 15379 15371 13457 13464 15377 15370 15373 15380 13468 15381 15101 15382 15383 
1829 1830 2127 2126 1862 1863 2160 2159 13194 15106 15107 15096 13473 15385 15386 15378 13464 13471 15384 15377 15380 15387 13475 15388 15111 15389 15390 
1830 1831 2128 2127 1863 1864 2161 2160 13204 15116 15117 15106 13480 15392 15393 15385 13471 13478 15391 15384 15387 15394 13482 15395 15121 15396 15397 
1831 1832 2129 2128 1864 1865 2162 2161 13214 15126 15127 15116 13487 15399 15400 15392 13478 13485 15398 15391 15394 15401 13489 15402 15131 15403 15404 
1832 1833 2130 2129 1865 1866 2163 2162 13224 15136 15137 15126 13494 15406 15407 15399 13485 13492 15405 15398 15401 15408 13496 15409 15141 15410 15411 
1833 1834 2131 2130 1866 1867 2164 2163 13234 15146 15147 15136 13501 15413 15414 15406 13492 13499 15412 15405 15408 15415 13503 15416 15151 15417 15418 
1834 1835 2132 2131 1867 1868 2165 2164 13244 15156 15157 15146 13508 15420 15421 15413 13499 13506 15419 15412 15415 15422 13510 15423 15161 15424 15425 
1835 1836 2133 2132 1868 1869 2166 2165 13254 15166 15167 15156 13515 15427 15428 15420 13506 13513 15426 15419 15422 15429 13517 15430 15171 15431 15432 
1836 1837 2134 2133 1869 1870 2167 2166 13264 15176 15177 15166 13522 15434 15435 15427 13513 13520 15433 15426 15429 15436 13524 15437 15181 15438 15439 
1837 1838 2135 2134 1870 1871 2168 2167 13274 15186 15187 15176 13529 15441 15442 15434 13520 13527 15440 15433 15436 15443 13531 15444 15191 15445 15446 
1838 1839 2136 2135 1871 1872 2169 2168 13284 15196 15197 15186 13536 15448 15449 15441 13527 13534 15447 15440 15443 15450 13538 15451 15201 15452 15453 
1839 1840 2137 2136 1872 1873 2170 2169 13294 15206 15207 15196 13543 15455 15456 15448 13534 13541 15454 15447 15450 15457 13545 15458 15211 15459 15460 
1840 1841 2138 2137 1873 1874 2171 2170 13304 15216 15217 15206 13550 15462 15463 15455 13541 13548 15461 15454 15457 15464 13552 15465 15221 15466 15467 
1841 1842 2139 2138 1874 1875 2172 2171 13314 15226 15227 15216 13557 15469 15470 15462 13548 13555 15468 15461 15464 15471 13559 15472 15231 15473 15474 
1842 1843 2140 2139 1875 1876 2173 2172 13324 15236 15237 15226 13564 15476 15477 15469 13555 13562 15475 15468 15471 15478 13566 15479 15241 15480 15481 
1843 1844 2141 2140 1876 1877 2174 2173 13334 15246 15247 15236 13571 15483 15484 15476 13562 13569 15482 15475 15478 15485 13573 15486 15251 15487 15488 
1844 1845 2142 2141 1877 1878 2175 2174 13344 15256 15257 15246 13578 15490 15491 15483 13569 13576 15489 15482 15485 15492 13580 15493 15261 15494 15495 
1845 1846 2143 2142 1878 1879 2176 2175 13354 15266 15267 15256 13585 15497 15498 15490 13576 13583 15496 15489 15492 15499 13587 15500 15271 15501 15502 
1846 1847 2144 2143 1879 1880 2177 2176 13364 15276 15277 15266 13592 15504 15505 15497 13583 13590 15503 15496 15499 15506 13594 15507 15281 15508 15509 
1848 1849 2146 2145 1881 1882 2179 2178 13373 15285 15286 15287 13600 15512 15513 15514 13598 13597 15510 15511 15517 15515 13603 15516 15291 15518 15519 
1849 1850 2147 2146 1882 1883 2180 2179 13382 15294 15295 15285 13609 15521 15522 15512 13597 13607 15520 15510 15515 15523 13611 15524 15298 15525 15526 
1850 1851 2148 2147 1883 1884 2181 2180 13389 15301 15302 15294 13616 15528 15529 15521 13607 13614 15527 15520 15523 15530 13618 15531 15305 15532 15533 
1851 1852 2149 2148 1884 1885 2182 2181 13396 15308 15309 15301 13623 15535 15536 15528 13614 13621 15534 15527 15530 15537 13625 15538 15312 15539 15540 
1852 1853 2150 2149 1885 1886 2183 2182 13403 15315 15316 15308 13630 15542 15543 15535 13621 13628 15541 15534 15537 15544 13632 15545 15319 15546 15547 
1853 1854 2151 2150 1886 1887 2184 2183 13410 15322 15323 15315 13637 15549 15550 15542 13628 13635 15548 15541 15544 15551 13639 15552 15326 15553 15554 
1854 1855 2152 2151 1887 1888 2185 2184 13417 15329 15330 15322 13644 15556 15557 15549 13635 13642 15555 15548 15551 15558 13646 15559 15333 15560 15561 
1855 1856 2153 2152 1888 1889 2186 2185 13424 15336 15337 15329 13651 15563 15564 15556 13642 13649 15562 15555 15558 15565 13653 15566 15340 15567 15568 
1856 1857 2154 2153 1889 1890 2187 2186 13431 15343 15344 15336 13658 15570 15571 15563 13649 13656 15569 15562 15565 15572 13660 15573 15347 15574 15575 
1857 1858 2155 2154 1890 1891 2188 2187 13438 15350 15351 15343 13665 15577 15578 15570 13656 13663 15576 15569 15572 15579 13667 15580 15354 15581 15582 
1858 1859 2156 2155 1891 1892 2189 2188 13445 15357 15358 15350 13672 15584 15585 15577 13663 13670 15583 15576 15579 15586 13674 15587 15361 15588 15589 
1859 1860 2157 2156 1892 1893 2190 2189 13452 15364 15365 15357 13679 15591 15592 15584 13670 13677 15590 15583 15586 15593 13681 15594 15368 15595 15596 
1860 1861 2158 2157 1893 1894 2191 2190 13459 15371 15372 15364 13686 15598 15599 15591 13677 13684 15597 15590 15593 15600 13688 15601 15375 15602 15603 
1861 1862 2159 2158 1894 1895 2192 2191 13466 15378 15379 15371 13693 15605 15606 15598 13684 13691 15604 15597 15600 15607 13695 15608 15382 15609 15610 
1862 1863 2160 2159 1895 1896 2193 2192 13473 15385 15386 15378 13700 15612 15613 15605 13691 13698 15611 15604 15607 15614 13702 15615 15389 15616 15617 
1863 1864 2161 2160 1896 1897 2194 2193 13480 15392 15393 15385 13707 15619 15620 15612 13698 13705 15618 15611 15614 15621 13709 15622 15396 15623 15624 
1864 1865 2162 2161 1897 1898 2195 2194 13487 15399 15400 15392 13714 15626 15627 15619 13705 13712 15625 15618 15621 15628 13716 15629 15403 15630 15631 
1865 1866 2163 2162 1898 1899 2196 2195 13494 15406 15407 15399 13721 15633 15634 15626 13712 13719 15632 15625 15628 15635 13723 15636 15410 15637 15638 
1866 1867 2164 2163 1899 1900 2197 2196 13501 15413 15414 15406 13728 15640 15641 15633 13719 13726 15639 15632 15635 15642 13730 15643 15417 15644 15645 
1867 1868 2165 2164 1900 1901 2198 2197 13508 15420 15421 15413 13735 15647 15648 15640 13726 13733 15646 15639 15642 15649 13737 15650 15424 15651 15652 
1868 1869 2166 2165 1901 1902 2199 2198 13515 15427 15428 15420 13742 15654 15655 15647 13733 13740 15653 15646 15649 15656 13744 15657 15431 15658 15659 
1869 1870 2167 2166 1902 1903 2200 2199 13522 15434 15435 15427 13749 15661 15662 15654 13740 13747 15660 15653 15656 15663 13751 15664 15438 15665 15666 
1870 1871 2168 2167 1903 1904 2201 2200 13529 15441 15442 15434 13756 15668 15669 15661 13747 13754 15667 15660 15663 15670 13758 15671 15445 15672 15673 
1871 1872 2169 2168 1904 1905 2202 2201 13536 15448 15449 15441 13763 15675 15676 15668 13754 13761 15674 15667 15670 15677 13765 15678 15452 15679 15680 
1872 1873 2170 2169 1905 1906 2203 2202 13543 15455 15456 15448 13770 15682 15683 15675 13761 13768 15681 15674 15677 15684 13772 15685 15459 15686 15687 
1873 1874 2171 2170 1906 1907 2204 2203 13550 15462 15463 15455 13777 15689 15690 15682 13768 13775 15688 15681 15684 15691 13779 15692 15466 15693 15694 
1874 1875 2172 2171 1907 1908 2205 2204 13557 15469 15470 15462 13784 15696 15697 15689 13775 13782 15695 15688 15691 15698 13786 15699 15473 15700 15701 
1875 1876 2173 2172 1908 1909 2206 2205 13564 15476 15477 15469 13791 15703 15704 15696 13782 13789 15702 15695 15698 15705 13793 15706 15480 15707 15708 
1876 1877 2174 2173 1909 1910 2207 2206 13571 15483 15484 15476 13798 15710 15711 15703 13789 13796 15709 15702 15705 15712 13800 15713 15487 15714 15715 
1877 1878 2175 2174 1910 1911 2208 2207 13578 15490 15491 15483 13805 15717 15718 15710 13796 13803 15716 15709 15712 15719 13807 15720 15494 15721 15722 
1878 1879 2176 2175 1911 1912 2209 2208 13585 15497 15498 15490 13812 15724 15725 15717 13803 13810 15723 15716 15719 15726 13814 15727 15501 15728 15729 
1879 1880 2177 2176 1912 1913 2210 2209 13592 15504 15505 15497 13819 15731 15732 15724 13810 13817 15730 15723 15726 15733 13821 15734 15508 15735 15736 
1881 1882 2179 2178 1914 1915 2212 2211 13600 15512 15513 15514 13827 15739 15740 15741 13825 13824 15737 15738 15744 15742 13830 15743 15518 15745 15746 
1882 1883 2180 2179 1915 1916 2213 2212 13609 15521 15522 15512 13836 15748 15749 15739 13824 13834 15747 15737 15742 15750 13838 15751 15525 15752 15753 
1883 1884 2181 2180 1916 1917 2214 2213 13616 15528 15529 15521 13843 15755 15756 15748 13834 13841 15754 15747 15750 15757 13845 15758 15532 15759 15760 
1884 1885 2182 2181 1917 1918 2215 2214 13623 15535 15536 15528 13850 15762 15763 15755 13841 13848 15761 15754 15757 15764 13852 15765 15539 15766 15767 
1885 1886 2183 2182 1918 1919 2216 2215 13630 15542 15543 15535 13857 15769 15770 15762 13848 13855 15768 15761 15764 15771 13859 15772 15546 15773 15774 
1886 1887 2184 2183 1919 1920 2217 2216 13637 15549 15550 15542 13864 15776 15777 15769 13855 13862 15775 15768 15771 15778 13866 15779 15553 15780 15781 
1887 1888 2185 2184 1920 1921 2218 2217 13644 15556 15557 15549 13871 15783 15784 15776 13862 13869 15782 15775 15778 15785 13873 15786 15560 15787 15788 
1888 1889 2186 2185 1921 1922 2219 2218 13651 15563 15564 15556 13878 15790 15791 15783 13869 13876 15789 15782 15785 15792 13880 15793 15567 15794 15795 
1889 1890 2187 2186 1922 1923 2220 2219 13658 15570 15571 15563 13885 15797 15798 15790 13876 13883 15796 15789 15792 15799 13887 15800 15574 15801 15802 
1890 1891 2188 2187 1923 1924 2221 2220 13665 15577 15578 15570 13892 15804 15805 15797 13883 13890 15803 15796 15799 15806 13894 15807 15581 15808 15809 
1891 1892 2189 2188 1924 1925 2222 2221 13672 15584 15585 15577 13899 15811 15812 15804 13890 13897 15810 15803 15806 15813 13901 15814 15588 15815 15816 
1892 1893 2190 2189 1925 1926 2223 2222 13679 15591 15592 15584 13906 15818 15819 15811 13897 13904 15817 15810 15813 15820 13908 15821 15595 15822 15823 
1893 1894 2191 2190 1926 1927 2224 2223 13686 15598 15599 15591 13913 15825 15826 15818 13904 13911 15824 15817 15820 15827 13915 15828 15602 15829 15830 
1894 1895 2192 2191 1927 1928 2225 2224 13693 15605 15606 15598 13920 15832 15833 15825 13911 13918 15831 15824 15827 15834 13922 15835 15609 15836 15837 
1895 1896 2193 2192 1928 1929 2226 2225 13700 15612 15613 15605 13927 15839 15840 15832 13918 13925 15838 15831 15834 15841 13929 15842 15616 15843 15844 
1896 1897 2194 2193 1929 1930 2227 2226 13707 15619 15620 15612 13934 15846 15847 15839 13925 13932 15845 15838 15841 15848 13936 15849 15623 15850 15851 
1897 1898 2195 2194 1930 1931 2228 2227 13714 15626 15627 15619 13941 15853 15854 15846 13932 13939 15852 15845 15848 15855 13943 15856 15630 15857 15858 
1898 1899 2196 2195 1931 1932 2229 2228 13721 15633 15634 15626 13948 15860 15861 15853 13939 13946 15859 15852 15855 15862 13950 15863 15637 15864 15865 
1899 1900 2197 2196 1932 1933 2230 2229 13728 15640 15641 15633 13955 15867 15868 15860 13946 13953 15866 15859 15862 15869 13957 15870 15644 15871 15872 
1900 1901 2198 2197 1933 1934 2231 2230 13735 15647 15648 15640 13962 15874 15875 15867 13953 13960 15873 15866 15869 15876 13964 15877 15651 15878 15879 
1901 1902 2199 2198 1934 1935 2232 2231 13742 15654 15655 15647 13969 15881 15882 15874 13960 13967 15880 15873 15876 15883 13971 15884 15658 15885 15886 
1902 1903 2200 2199 1935 1936 2233 2232 13749 15661 15662 15654 13976 15888 15889 15881 13967 13974 15887 15880 15883 15890 13978 15891 15665 15892 15893 
1903 1904 2201 2200 1936 1937 2234 2233 13756 15668 15669 15661 13983 15895 15896 15888 13974 13981 15894 15887 15890 15897 13985 15898 15672 15899 15900 
1904 1905 2202 2201 1937 1938 2235 2234 13763 15675 15676 15668 13990 15902 15903 15895 13981 13988 15901 15894 15897 15904 13992 15905 15679 15906 15907 
1905 1906 2203 2202 1938 1939 2236 2235 13770 15682 15683 15675 13997 15909 15910 15902 13988 13995 15908 15901 15904 15911 13999 15912 15686 15913 15914 
1906 1907 2204 2203 1939 1940 2237 2236 13777 15689 15690 15682 14004 15916 15917 15909 13995 14002 15915 15908 15911 15918 14006 15919 15693 15920 15921 
1907 1908 2205 2204 1940 1941 2238 2237 13784 15696 15697 15689 14011 15923 15924 15916 14002 14009 15922 15915 15918 15925 14013 15926 15700 15927 15928 
1908 1909 2206 2205 1941 1942 2239 2238 13791 15703 15704 15696 14018 15930 15931 15923 14009 14016 15929 15922 15925 15932 14020 15933 15707 15934 15935 
1909 1910 2207 2206 1942 1943 2240 2239 13798 15710 15711 15703 14025 15937 15938 15930 14016 14023 15936 15929 15932 15939 14027 15940 15714 15941 15942 
1910 1911 2208 2207 1943 1944 2241 2240 13805 15717 15718 15710 14032 15944 15945 15937 14023 14030 15943 15936 15939 15946 14034 15947 15721 15948 15949 
1911 1912 2209 2208 1944 1945 2242 2241 13812 15724 15725 15717 14039 15951 15952 15944 14030 14037 15950 15943 15946 15953 14041 15954 15728 15955 15956 
1912 1913 2210 2209 1945 1946 2243 2242 13819 15731 15732 15724 14046 15958 15959 15951 14037 14044 15957 15950 15953 15960 14048 15961 15735 15962 15963 
1914 1915 2212 2211 1947 1948 2245 2244 13827 15739 15740 15741 14054 15966 15967 15968 14052 14051 15964 15965 15971 15969 14057 15970 15745 15972 15973 
1915 1916 2213 2212 1948 1949 2246 2245 13836 15748 15749 15739 14063 15975 15976 15966 14051 14061 15974 15964 15969 15977 14065 15978 15752 15979 15980 
1916 1917 2214 2213 1949 1950 2247 2246 13843 15755 15756 15748 14070 15982 15983 15975 14061 14068 15981 15974 15977 15984 14072 15985 15759 15986 15987 
1917 1918 2215 2214 1950 1951 2248 2247 13850 15762 15763 15755 14077 15989 15990 15982 14068 14075 15988 15981 15984 15991 14079 15992 15766 15993 15994 
1918 1919 2216 2215 1951 1952 2249 2248 13857 15769 15770 15762 14084 15996 15997 15989 14075 14082 15995 15988 15991 15998 14086 15999 15773 16000 16001 
1919 1920 2217 2216 1952 1953 2250 2249 13864 15776 15777 15769 14091 16003 16004 15996 14082 14089 16002 15995 15998 16005 14093 16006 15780 16007 16008 
1920 1921 2218 2217 1953 1954 2251 2250 13871 15783 15784 15776 14098 16010 16011 16003 14089 14096 16009 16002 16005 16012 14100 16013 15787 16014 16015 
1921 1922 2219 2218 1954 1955 2252 2251 13878 15790 15791 15783 14105 16017 16018 16010 14096 14103 16016 16009 16012 16019 14107 16020 15794 16021 16022 
1922 1923 2220 2219 1955 1956 2253 2252 13885 15797 15798 15790 14112 16024 16025 16017 14103 14110 16023 16016 16019 16026 14114 16027 15801 16028 16029 
1923 1924 2221 2220 1956 1957 2254 2253 13892 15804 15805 15797 14119 16031 16032 16024 14110 14117 16030 16023 16026 16033 14121 16034 15808 16035 16036 
1924 1925 2222 2221 1957 1958 2255 2254 13899 15811 15812 15804 14126 16038 16039 16031 14117 14124 16037 16030 16033 16040 14128 16041 15815 16042 16043 
1925 1926 2223 2222 1958 1959 2256 2255 13906 15818 15819 15811 14133 16045 16046 16038 14124 14131 16044 16037 16040 16047 14135 16048 15822 16049 16050 
1926 1927 2224 2223 1959 1960 2257 2256 13913 15825 15826 15818 14140 16052 16053 16045 14131 14138 16051 16044 16047 16054 14142 16055 15829 16056 16057 
1927 1928 2225 2224 1960 1961 2258 2257 13920 15832 15833 15825 14147 16059 16060 16052 14138 14145 16058 16051 16054 16061 14149 16062 15836 16063 16064 
1928 1929 2226 2225 1961 1962 2259 2258 13927 15839 15840 15832 14154 16066 16067 16059 14145 14152 16065 16058 16061 16068 14156 16069 15843 16070 16071 
1929 1930 2227 2226 1962 1963 2260 2259 13934 15846 15847 15839 14161 16073 16074 16066 14152 14159 16072 16065 16068 16075 14163 16076 15850 16077 16078 
1930 1931 2228 2227 1963 1964 2261 2260 13941 15853 15854 15846 14168 16080 16081 16073 14159 14166 16079 16072 16075 16082 14170 16083 15857 16084 16085 
1931 1932 2229 2228 1964 1965 2262 2261 13948 15860 15861 15853 14175 16087 16088 16080 14166 14173 16086 16079 16082 16089 14177 16090 15864 16091 16092 
1932 1933 2230 2229 1965 1966 2263 2262 13955 15867 15868 15860 14182 16094 16095 16087 14173 14180 16093 16086 16089 16096 14184 16097 15871 16098 16099 
1933 1934 2231 2230 1966 1967 2264 2263 13962 15874 15875 15867 14189 16101 16102 16094 14180 14187 16100 16093 16096 16103 14191 16104 15878 16105 16106 
1934 1935 2232 2231 1967 1968 2265 2264 13969 15881 15882 15874 14196 16108 16109 16101 14187 14194 16107 16100 16103 16110 14198 16111 15885 16112 16113 
1935 1936 2233 2232 1968 1969 2266 2265 13976 15888 15889 15881 14203 16115 16116 16108 14194 14201 16114 16107 16110 16117 14205 16118 15892 16119 16120 
1936 1937 2234 2233 1969 1970 2267 2266 13983 15895 15896 15888 14210 16122 16123 16115 14201 14208 16121 16114 16117 16124 14212 16125 15899 16126 16127 
1937 1938 2235 2234 1970 1971 2268 2267 13990 15902 15903 15895 14217 16129 16130 16122 14208 14215 16128 16121 16124 16131 14219 16132 15906 16133 16134 
1938 1939 2236 2235 1971 1972 2269 2268 13997 15909 15910 15902 14224 16136 16137 16129 14215 14222 16135 16128 16131 16138 14226 16139 15913 16140 16141 
1939 1940 2237 2236 1972 1973 2270 2269 14004 15916 15917 15909 14231 16143 16144 16136 14222 14229 16142 16135 16138 16145 14233 16146 15920 16147 16148 
1940 1941 2238 2237 1973 1974 2271 2270 14011 15923 15924 15916 14238 16150 16151 16143 14229 14236 16149 16142 16145 16152 14240 16153 15927 16154 16155 
1941 1942 2239 2238 1974 1975 2272 2271 14018 15930 15931 15923 14245 16157 16158 16150 14236 14243 16156 16149 16152 16159 14247 16160 15934 16161 16162 
1942 1943 2240 2239 1975 1976 2273 2272 14025 15937 15938 15930 14252 16164 16165 16157 14243 14250 16163 16156 16159 16166 14254 16167 15941 16168 16169 
1943 1944 2241 2240 1976 1977 2274 2273 14032 15944 15945 15937 14259 16171 16172 16164 14250 14257 16170 16163 16166 16173 14261 16174 15948 16175 16176 
1944 1945 2242 2241 1977 1978 2275 2274 14039 15951 15952 15944 14266 16178 16179 16171 14257 14264 16177 16170 16173 16180 14268 16181 15955 16182 16183 
1945 1946 2243 2242 1978 1979 2276 2275 14046 15958 15959 15951 14273 16185 16186 16178 14264 14271 16184 16177 16180 16187 14275 16188 15962 16189 16190 
1947 1948 2245 2244 1980 1981 2278 2277 14054 15966 15967 15968 14281 16193 16194 16195 14279 14278 16191 16192 16198 16196 14284 16197 15972 16199 16200 
1948 1949 2246 2245 1981 1982 2279 2278 14063 15975 15976 15966 14290 16202 16203 16193 14278 14288 16201 16191 16196 16204 14292 16205 15979 16206 16207 
1949 1950 2247 2246 1982 1983 2280 2279 14070 15982 15983 15975 14297 16209 16210 16202 14288 14295 16208 16201 16204 16211 14299 16212 15986 16213 16214 
1950 1951 2248 2247 1983 1984 2281 2280 14077 15989 15990 15982 14304 16216 16217 16209 14295 14302 16215 16208 16211 16218 14306 16219 15993 16220 16221 
1951 1952 2249 2248 1984 1985 2282 2281 14084 15996 15997 15989 14311 16223 16224 16216 14302 14309 16222 16215 16218 16225 14313 16226 16000 16227 16228 
1952 1953 2250 2249 1985 1986 2283 2282 14091 16003 16004 15996 14318 16230 16231 16223 14309 14316 16229 16222 16225 16232 14320 16233 16007 16234 16235 
1953 1954 2251 2250 1986 1987 2284 2283 14098 16010 16011 16003 14325 16237 16238 16230 14316 14323 16236 16229 16232 16239 14327 16240 16014 16241 16242 
1954 1955 2252 2251 1987 1988 2285 2284 14105 16017 16018 16010 14332 16244 16245 16237 14323 14330 16243 16236 16239 16246 14334 16247 16021 16248 16249 
1955 1956 2253 2252 1988 1989 2286 2285 14112 16024 16025 16017 14339 16251 16252 16244 14330 14337 16250 16243 16246 16253 14341 16254 16028 16255 16256 
1956 1957 2254 2253 1989 1990 2287 2286 14119 16031 16032 16024 14346 16258 16259 16251 14337 14344 16257 16250 16253 16260 14348 16261 16035 16262 16263 
1957 1958 2255 2254 1990 1991 2288 2287 14126 16038 16039 16031 14353 16265 16266 16258 14344 14351 16264 16257 16260 16267 14355 16268 16042 16269 16270 
1958 1959 2256 2255 1991 1992 2289 2288 14133 16045 16046 16038 14360 16272 16273 16265 14351 14358 16271 16264 16267 16274 14362 16275 16049 16276 16277 
1959 1960 2257 2256 1992 1993 2290 2289 14140 16052 16053 16045 14367 16279 16280 16272 14358 14365 16278 16271 16274 16281 14369 16282 16056 16283 16284 
1960 1961 2258 2257 1993 1994 2291 2290 14147 16059 16060 16052 14374 16286 16287 16279 14365 14372 16285 16278 16281 16288 14376 16289 16063 16290 16291 
1961 1962 2259 2258 1994 1995 2292 2291 14154 16066 16067 16059 14381 16293 16294 16286 14372 14379 16292 16285 16288 16295 14383 16296 16070 16297 16298 
1962 1963 2260 2259 1995 1996 2293 2292 14161 16073 16074 16066 14388 16300 16301 16293 14379 14386 16299 16292 16295 16302 14390 16303 16077 16304 16305 
1963 1964 2261 2260 1996 1997 2294 2293 14168 16080 16081 16073 14395 16307 16308 16300 14386 14393 16306 16299 16302 16309 14397 16310 16084 16311 16312 
1964 1965 2262 2261 1997 1998 2295 2294 14175 16087 16088 16080 14402 16314 16315 16307 14393 14400 16313 16306 16309 16316 14404 16317 16091 16318 16319 
1965 1966 2263 2262 1998 1999 2296 2295 14182 16094 16095 16087 14409 16321 16322 16314 14400 14407 16320 16313 16316 16323 14411 16324 16098 16325 16326 
1966 1967 2264 2263 1999 2000 2297 2296 14189 16101 16102 16094 14416 16328 16329 16321 14407 14414 16327 16320 16323 16330 14418 16331 16105 16332 16333 
1967 1968 2265 2264 2000 2001 2298 2297 14196 16108 16109 16101 14423 16335 16336 16328 14414 14421 16334 16327 16330 16337 14425 16338 16112 16339 16340 
1968 1969 2266 2265 2001 2002 2299 2298 14203 16115 16116 16108 14430 16342 16343 16335 14421 14428 16341 16334 16337 16344 14432 16345 16119 16346 16347 
1969 1970 2267 2266 2002 2003 2300 2299 14210 16122 16123 16115 14437 16349 16350 16342 14428 14435 16348 16341 16344 16351 14439 16352 16126 16353 16354 
1970 1971 2268 2267 2003 2004 2301 2300 14217 16129 16130 16122 14444 16356 16357 16349 14435 14442 16355 16348 16351 16358 14446 16359 16133 16360 16361 
1971 1972 2269 2268 2004 2005 2302 2301 14224 16136 16137 16129 14451 16363 16364 16356 14442 14449 16362 16355 16358 16365 14453 16366 16140 16367 16368 
1972 1973 2270 2269 2005 2006 2303 2302 14231 16143 16144 16136 14458 16370 16371 16363 14449 14456 16369 16362 16365 16372 14460 16373 16147 16374 16375 
1973 1974 2271 2270 2006 2007 2304 2303 14238 16150 16151 16143 14465 16377 16378 16370 14456 14463 16376 16369 16372 16379 14467 16380 16154 16381 16382 
1974 1975 2272 2271 2007 2008 2305 2304 14245 16157 16158 16150 14472 16384 16385 16377 14463 14470 16383 16376 16379 16386 14474 16387 16161 16388 16389 
1975 1976 2273 2272 2008 2009 2306 2305 14252 16164 16165 16157 14479 16391 16392 16384 14470 14477 16390 16383 16386 16393 14481 16394 16168 16395 16396 
1976 1977 2274 2273 2009 2010 2307 2306 14259 16171 16172 16164 14486 16398 16399 16391 14477 14484 16397 16390 16393 16400 14488 16401 16175 16402 16403 
1977 1978 2275 2274 2010 2011 2308 2307 14266 16178 16179 16171 14493 16405 16406 16398 14484 14491 16404 16397 16400 16407 14495 16408 16182 16409 16410 
1978 1979 2276 2275 2011 2012 2309 2308 14273 16185 16186 16178 14500 16412 16413 16405 14491 14498 16411 16404 16407 16414 14502 16415 16189 16416 16417 
1980 1981 2278 2277 2013 2014 2311 2310 14281 16193 16194 16195 14508 16420 16421 16422 14506 14505 16418 16419 16425 16423 14511 16424 16199 16426 16427 
1981 1982 2279 2278 2014 2015 2312 2311 14290 16202 16203 16193 14517 16429 16430 16420 14505 14515 16428 16418 16423 16431 14519 16432 16206 16433 16434 
1982 1983 2280 2279 2015 2016 2313 2312 14297 16209 16210 16202 14524 16436 16437 16429 14515 14522 16435 16428 16431 16438 14526 16439 16213 16440 16441 
1983 1984 2281 2280 2016 2017 2314 2313 14304 16216 16217 16209 14531 16443 16444 16436 14522 14529 16442 16435 16438 16445 14533 16446 16220 16447 16448 
1984 1985 2282 2281 2017 2018 2315 2314 14311 16223 16224 16216 14538 16450 16451 16443 14529 14536 16449 16442 16445 16452 14540 16453 16227 16454 16455 
1985 1986 2283 2282 2018 2019 2316 2315 14318 16230 16231 16223 14545 16457 16458 16450 14536 14543 16456 16449 16452 16459 14547 16460 16234 16461 16462 
1986 1987 2284 2283 2019 2020 2317 2316 14325 16237 16238 16230 14552 16464 16465 16457 14543 14550 16463 16456 16459 16466 14554 16467 16241 16468 16469 
1987 1988 2285 2284 2020 2021 2318 2317 14332 16244 16245 16237 14559 16471 16472 16464 14550 14557 16470 16463 16466 16473 14561 16474 16248 16475 16476 
1988 1989 2286 2285 2021 2022 2319 2318 14339 16251 16252 16244 14566 16478 16479 16471 14557 14564 16477 16470 16473 16480 14568 16481 16255 16482 16483 
1989 1990 2287 2286 2022 2023 2320 2319 14346 16258 16259 16251 14573 16485 16486 16478 14564 14571 16484 16477 16480 16487 14575 16488 16262 16489 16490 
1990 1991 2288 2287 2023 2024 2321 2320 14353 16265 16266 16258 14580 16492 16493 16485 14571 14578 16491 16484 16487 16494 14582 16495 16269 16496 16497 
1991 1992 2289 2288 2024 2025 2322 2321 14360 16272 16273 16265 14587 16499 16500 16492 14578 14585 16498 16491 16494 16501 14589 16502 16276 16503 16504 
1992 1993 2290 2289 2025 2026 2323 2322 14367 16279 16280 16272 14594 16506 16507 16499 14585 14592 16505 16498 16501 16508 14596 16509 16283 16510 16511 
1993 1994 2291 2290 2026 2027 2324 2323 14374 16286 16287 16279 14601 16513 16514 16506 14592 14599 16512 16505 16508 16515 14603 16516 16290 16517 16518 
1994 1995 2292 2291 2027 2028 2325 2324 14381 16293 16294 16286 14608 16520 16521 16513 14599 14606 16519 16512 16515 16522 14610 16523 16297 16524 16525 
1995 1996 2293 2292 2028 2029 2326 2325 14388 16300 16301 16293 14615 16527 16528 16520 14606 14613 16526 16519 16522 16529 14617 16530 16304 16531 16532 
1996 1997 2294 2293 2029 2030 2327 2326 14395 16307 16308 16300 14622 16534 16535 16527 14613 14620 16533 16526 16529 16536 14624 16537 16311 16538 16539 
1997 1998 2295 2294 2030 2031 2328 2327 14402 16314 16315 16307 14629 16541 16542 16534 14620 14627 16540 16533 16536 16543 14631 16544 16318 16545 16546 
1998 1999 2296 2295 2031 2032 2329 2328 14409 16321 16322 16314 14636 16548 16549 16541 14627 14634 16547 16540 16543 16550 14638 16551 16325 16552 16553 
1999 2000 2297 2296 2032 2033 2330 2329 14416 16328 16329 16321 14643 16555 16556 16548 14634 14641 16554 16547 16550 16557 14645 16558 16332 16559 16560 
2000 2001 2298 2297 2033 2034 2331 2330 14423 16335 16336 16328 14650 16562 16563 16555 14641 14648 16561 16554 16557 16564 14652 16565 16339 16566 16567 
2001 2002 2299 2298 2034 2035 2332 2331 14430 16342 16343 16335 14657 16569 16570 16562 14648 14655 16568 16561 16564 16571 14659 16572 16346 16573 16574 
2002 2003 2300 2299 2035 2036 2333 2332 14437 16349 16350 16342 14664 16576 16577 16569 14655 14662 16575 16568 16571 16578 14666 16579 16353 16580 16581 
2003 2004 2301 2300 2036 2037 2334 2333 14444 16356 16357 16349 14671 16583 16584 16576 14662 14669 16582 16575 16578 16585 14673 16586 16360 16587 16588 
2004 2005 2302 2301 2037 2038 2335 2334 14451 16363 16364 16356 14678 16590 16591 16583 14669 14676 16589 16582 16585 16592 14680 16593 16367 16594 16595 
2005 2006 2303 2302 2038 2039 2336 2335 14458 16370 16371 16363 14685 16597 16598 16590 14676 14683 16596 16589 16592 16599 14687 16600 16374 16601 16602 
2006 2007 2304 2303 2039 2040 2337 2336 14465 16377 16378 16370 14692 16604 16605 16597 14683 14690 16603 16596 16599 16606 14694 16607 16381 16608 16609 
2007 2008 2305 2304 2040 2041 2338 2337 14472 16384 16385 16377 14699 16611 16612 16604 14690 14697 16610 16603 16606 16613 14701 16614 16388 16615 16616 
2008 2009 2306 2305 2041 2042 2339 2338 14479 16391 16392 16384 14706 16618 16619 16611 14697 14704 16617 16610 16613 16620 14708 16621 16395 16622 16623 
2009 2010 2307 2306 2042 2043 2340 2339 14486 16398 16399 16391 14713 16625 16626 16618 14704 14711 16624 16617 16620 16627 14715 16628 16402 16629 16630 
2010 2011 2308 2307 2043 2044 2341 2340 14493 16405 16406 16398 14720 16632 16633 16625 14711 14718 16631 16624 16627 16634 14722 16635 16409 16636 16637 
2011 2012 2309 2308 2044 2045 2342 2341 14500 16412 16413 16405 14727 16639 16640 16632 14718 14725 16638 16631 16634 16641 14729 16642 16416 16643 16644 
2013 2014 2311 2310 2046 2047 2344 2343 14508 16420 16421 16422 14735 16647 16648 16649 14733 14732 16645 16646 16652 16650 14738 16651 16426 16653 16654 
2014 2015 2312 2311 2047 2048 2345 2344 14517 16429 16430 16420 14744 16656 16657 16647 14732 14742 16655 16645 16650 16658 14746 16659 16433 16660 16661 
2015 2016 2313 2312 2048 2049 2346 2345 14524 16436 16437 16429 14751 16663 16664 16656 14742 14749 16662 16655 16658 16665 14753 16666 16440 16667 16668 
2016 2017 2314 2313 2049 2050 2347 2346 14531 16443 16444 16436 14758 16670 16671 16663 14749 14756 16669 16662 16665 16672 14760 16673 16447 16674 16675 
2017 2018 2315 2314 2050 2051 2348 2347 14538 16450 16451 16443 14765 16677 16678 16670 14756 14763 16676 16669 16672 16679 14767 16680 16454 16681 16682 
2018 2019 2316 2315 2051 2052 2349 2348 14545 16457 16458 16450 14772 16684 16685 16677 14763 14770 16683 16676 16679 16686 14774 16687 16461 16688 16689 
2019 2020 2317 2316 2052 2053 2350 2349 14552 16464 16465 16457 14779 16691 16692 16684 14770 14777 16690 16683 16686 16693 14781 16694 16468 16695 16696 
2020 2021 2318 2317 2053 2054 2351 2350 14559 16471 16472 16464 14786 16698 16699 16691 14777 14784 16697 16690 16693 16700 14788 16701 16475 16702 16703 
2021 2022 2319 2318 2054 2055 2352 2351 14566 16478 16479 16471 14793 16705 16706 16698 14784 14791 16704 16697 16700 16707 14795 16708 16482 16709 16710 
2022 2023 2320 2319 2055 2056 2353 2352 14573 16485 16486 16478 14800 16712 16713 16705 14791 14798 16711 16704 16707 16714 14802 16715 16489 16716 16717 
2023 2024 2321 2320 2056 2057 2354 2353 14580 16492 16493 16485 14807 16719 16720 16712 14798 14805 16718 16711 16714 16721 14809 16722 16496 16723 16724 
2024 2025 2322 2321 2057 2058 2355 2354 14587 16499 16500 16492 14814 16726 16727 16719 14805 14812 16725 16718 16721 16728 14816 16729 16503 16730 16731 
2025 2026 2323 2322 2058 2059 2356 2355 14594 16506 16507 16499 14821 16733 16734 16726 14812 14819 16732 16725 16728 16735 14823 16736 16510 16737 16738 
2026 2027 2324 2323 2059 2060 2357 2356 14601 16513 16514 16506 14828 16740 16741 16733 14819 14826 16739 16732 16735 16742 14830 16743 16517 16744 16745 
2027 2028 2325 2324 2060 2061 2358 2357 14608 16520 16521 16513 14835 16747 16748 16740 14826 14833 16746 16739 16742 16749 14837 16750 16524 16751 16752 
2028 2029 2326 2325 2061 2062 2359 2358 14615 16527 16528 16520 14842 16754 16755 16747 14833 14840 16753 16746 16749 16756 14844 16757 16531 16758 16759 
2029 2030 2327 2326 2062 2063 2360 2359 14622 16534 16535 16527 14849 16761 16762 16754 14840 14847 16760 16753 16756 16763 14851 16764 16538 16765 16766 
2030 2031 2328 2327 2063 2064 2361 2360 14629 16541 16542 16534 14856 16768 16769 16761 14847 14854 16767 16760 16763 16770 14858 16771 16545 16772 16773 
2031 2032 2329 2328 2064 2065 2362 2361 14636 16548 16549 16541 14863 16775 16776 16768 14854 14861 16774 16767 16770 16777 14865 16778 16552 16779 16780 
2032 2033 2330 2329 2065 2066 2363 2362 14643 16555 16556 16548 14870 16782 16783 16775 14861 14868 16781 16774 16777 16784 14872 16785 16559 16786 16787 
2033 2034 2331 2330 2066 2067 2364 2363 14650 16562 16563 16555 14877 16789 16790 16782 14868 14875 16788 16781 16784 16791 14879 16792 16566 16793 16794 
2034 2035 2332 2331 2067 2068 2365 2364 14657 16569 16570 16562 14884 16796 16797 16789 14875 14882 16795 16788 16791 16798 14886 16799 16573 16800 16801 
2035 2036 2333 2332 2068 2069 2366 2365 14664 16576 16577 16569 14891 16803 16804 16796 14882 14889 16802 16795 16798 16805 14893 16806 16580 16807 16808 
2036 2037 2334 2333 2069 2070 2367 2366 14671 16583 16584 16576 14898 16810 16811 16803 14889 14896 16809 16802 16805 16812 14900 16813 16587 16814 16815 
2037 2038 2335 2334 2070 2071 2368 2367 14678 16590 16591 16583 14905 16817 16818 16810 14896 14903 16816 16809 16812 16819 14907 16820 16594 16821 16822 
2038 2039 2336 2335 2071 2072 2369 2368 14685 16597 16598 16590 14912 16824 16825 16817 14903 14910 16823 16816 16819 16826 14914 16827 16601 16828 16829 
2039 2040 2337 2336 2072 2073 2370 2369 14692 16604 16605 16597 14919 16831 16832 16824 14910 14917 16830 16823 16826 16833 14921 16834 16608 16835 16836 
2040 2041 2338 2337 2073 2074 2371 2370 14699 16611 16612 16604 14926 16838 16839 16831 14917 14924 16837 16830 16833 16840 14928 16841 16615 16842 16843 
2041 2042 2339 2338 2074 2075 2372 2371 14706 16618 16619 16611 14933 16845 16846 16838 14924 14931 16844 16837 16840 16847 14935 16848 16622 16849 16850 
2042 2043 2340 2339 2075 2076 2373 2372 14713 16625 16626 16618 14940 16852 16853 16845 14931 14938 16851 16844 16847 16854 14942 16855 16629 16856 16857 
2043 2044 2341 2340 2076 2077 2374 2373 14720 16632 16633 16625 14947 16859 16860 16852 14938 14945 16858 16851 16854 16861 14949 16862 16636 16863 16864 
2044 2045 2342 2341 2077 2078 2375 2374 14727 16639 16640 16632 14954 16866 16867 16859 14945 14952 16865 16858 16861 16868 14956 16869 16643 16870 16871 
2079 2080 2377 2376 2112 2113 2410 2409 14960 16872 16873 16874 14965 16877 16878 16879 14963 14962 16875 16876 16883 16881 14969 16882 16880 16884 16885 
2080 2081 2378 2377 2113 2114 2411 2410 14974 16886 16887 16872 14977 16889 16890 16877 14962 14975 16888 16875 16881 16892 14980 16893 16891 16894 16895 
2081 2082 2379 2378 2114 2115 2412 2411 14984 16896 16897 16886 14987 16899 16900 16889 14975 14985 16898 16888 16892 16902 14990 16903 16901 16904 16905 
2082 2083 2380 2379 2115 2116 2413 2412 14994 16906 16907 16896 14997 16909 16910 16899 14985 14995 16908 16898 16902 16912 15000 16913 16911 16914 16915 
2083 2084 2381 2380 2116 2117 2414 2413 15004 16916 16917 16906 15007 16919 16920 16909 14995 15005 16918 16908 16912 16922 15010 16923 16921 16924 16925 
2084 2085 2382 2381 2117 2118 2415 2414 15014 16926 16927 16916 15017 16929 16930 16919 15005 15015 16928 16918 16922 16932 15020 16933 16931 16934 16935 
2085 2086 2383 2382 2118 2119 2416 2415 15024 16936 16937 16926 15027 16939 16940 16929 15015 15025 16938 16928 16932 16942 15030 16943 16941 16944 16945 
2086 2087 2384 2383 2119 2120 2417 2416 15034 16946 16947 16936 15037 16949 16950 16939 15025 15035 16948 16938 16942 16952 15040 16953 16951 16954 16955 
2087 2088 2385 2384 2120 2121 2418 2417 15044 16956 16957 16946 15047 16959 16960 16949 15035 15045 16958 16948 16952 16962 15050 16963 16961 16964 16965 
2088 2089 2386 2385 2121 2122 2419 2418 15054 16966 16967 16956 15057 16969 16970 16959 15045 15055 16968 16958 16962 16972 15060 16973 16971 16974 16975 
2089 2090 2387 2386 2122 2123 2420 2419 15064 16976 16977 16966 15067 16979 16980 16969 15055 15065 16978 16968 16972 16982 15070 16983 16981 16984 16985 
2090 2091 2388 2387 2123 2124 2421 2420 15074 16986 16987 16976 15077 16989 16990 16979 15065 15075 16988 16978 16982 16992 15080 16993 16991 16994 16995 
2091 2092 2389 2388 2124 2125 2422 2421 15084 16996 16997 16986 15087 16999 17000 16989 15075 15085 16998 16988 16992 17002 15090 17003 17001 17004 17005 
2092 2093 2390 2389 2125 2126 2423 2422 15094 17006 17007 16996 15097 17009 17010 16999 15085 15095 17008 16998 17002 17012 15100 17013 17011 17014 17015 
2093 2094 2391 2390 2126 2127 2424 2423 15104 17016 17017 17006 15107 17019 17020 17009 15095 15105 17018 17008 17012 17022 15110 17023 17021 17024 17025 
2094 2095 2392 2391 2127 2128 2425 2424 15114 17026 17027 17016 15117 17029 17030 17019 15105 15115 17028 17018 17022 17032 15120 17033 17031 17034 17035 
2095 2096 2393 2392 2128 2129 2426 2425 15124 17036 17037 17026 15127 17039 17040 17029 15115 15125 17038 17028 17032 17042 15130 17043 17041 17044 17045 
2096 2097 2394 2393 2129 2130 2427 2426 15134 17046 17047 17036 15137 17049 17050 17039 15125 15135 17048 17038 17042 17052 15140 17053 17051 17054 17055 
2097 2098 2395 2394 2130 2131 2428 2427 15144 17056 17057 17046 15147 17059 17060 17049 15135 15145 17058 17048 17052 17062 15150 17063 17061 17064 17065 
2098 2099 2396 2395 2131 2132 2429 2428 15154 17066 17067 17056 15157 17069 17070 17059 15145 15155 17068 17058 17062 17072 15160 17073 17071 17074 17075 
2099 2100 2397 2396 2132 2133 2430 2429 15164 17076 17077 17066 15167 17079 17080 17069 15155 15165 17078 17068 17072 17082 15170 17083 17081 17084 17085 
2100 2101 2398 2397 2133 2134 2431 2430 15174 17086 17087 17076 15177 17089 17090 17079 15165 15175 17088 17078 17082 17092 15180 17093 17091 17094 17095 
2101 2102 2399 2398 2134 2135 2432 2431 15184 17096 17097 17086 15187 17099 17100 17089 15175 15185 17098 17088 17092 17102 15190 17103 17101 17104 17105 
2102 2103 2400 2399 2135 2136 2433 2432 15194 17106 17107 17096 15197 17109 17110 17099 15185 15195 17108 17098 17102 17112 15200 17113 17111 17114 17115 
2103 2104 2401 2400 2136 2137 2434 2433 15204 17116 17117 17106 15207 17119 17120 17109 15195 15205 17118 17108 17112 17122 15210 17123 17121 17124 17125 
2104 2105 2402 2401 2137 2138 2435 2434 15214 17126 17127 17116 15217 17129 17130 17119 15205 15215 17128 17118 17122 17132 15220 17133 17131 17134 17135 
2105 2106 2403 2402 2138 2139 2436 2435 15224 17136 17137 17126 15227 17139 17140 17129 15215 15225 17138 17128 17132 17142 15230 17143 17141 17144 17145 
2106 2107 2404 2403 2139 2140 2437 2436 15234 17146 17147 17136 15237 17149 17150 17139 15225 15235 17148 17138 17142 17152 15240 17153 17151 17154 17155 
2107 2108 2405 2404 2140 2141 2438 2437 15244 17156 17157 17146 15247 17159 17160 17149 15235 15245 17158 17148 17152 17162 15250 17163 17161 17164 17165 
2108 2109 2406 2405 2141 2142 2439 2438 15254 17166 17167 17156 15257 17169 17170 17159 15245 15255 17168 17158 17162 17172 15260 17173 17171 17174 17175 
2109 2110 2407 2406 2142 2143 2440 2439 15264 17176 17177 17166 15267 17179 17180 17169 15255 15265 17178 17168 17172 17182 15270 17183 17181 17184 17185 
2110 2111 2408 2407 2143 2144 2441 2440 15274 17186 17187 17176 15277 17189 17190 17179 15265 15275 17188 17178 17182 17192 15280 17193 17191 17194 17195 
2112 2113 2410 2409 2145 2146 2443 2442 14965 16877 16878 16879 15286 17198 17199 17200 15284 15283 17196 17197 17203 17201 15289 17202 16884 17204 17205 
2113 2114 2411 2410 2146 2147 2444 2443 14977 16889 16890 16877 15295 17207 17208 17198 15283 15293 17206 17196 17201 17209 15297 17210 16894 17211 17212 
2114 2115 2412 2411 2147 2148 2445 2444 14987 16899 16900 16889 15302 17214 17215 17207 15293 15300 17213 17206 17209 17216 15304 17217 16904 17218 17219 
2115 2116 2413 2412 2148 2149 2446 2445 14997 16909 16910 16899 15309 17221 17222 17214 15300 15307 17220 17213 17216 17223 15311 17224 16914 17225 17226 
2116 2117 2414 2413 2149 2150 2447 2446 15007 16919 16920 16909 15316 17228 17229 17221 15307 15314 17227 17220 17223 17230 15318 17231 16924 17232 17233 
2117 2118 2415 2414 2150 2151 2448 2447 15017 16929 16930 16919 15323 17235 17236 17228 15314 15321 17234 17227 17230 17237 15325 17238 16934 17239 17240 
2118 2119 2416 2415 2151 2152 2449 2448 15027 16939 16940 16929 15330 17242 17243 17235 15321 15328 17241 17234 17237 17244 15332 17245 16944 17246 17247 
2119 2120 2417 2416 2152 2153 2450 2449 15037 16949 16950 16939 15337 17249 17250 17242 15328 15335 17248 17241 17244 17251 15339 17252 16954 17253 17254 
2120 2121 2418 2417 2153 2154 2451 2450 15047 16959 16960 16949 15344 17256 17257 17249 15335 15342 17255 17248 17251 17258 15346 17259 16964 17260 17261 
2121 2122 2419 2418 2154 2155 2452 2451 15057 16969 16970 16959 15351 17263 17264 17256 15342 15349 17262 17255 17258 17265 15353 17266 16974 17267 17268 
2122 2123 2420 2419 2155 2156 2453 2452 15067 16979 16980 16969 15358 17270 17271 17263 15349 15356 17269 17262 17265 17272 15360 17273 16984 17274 17275 
2123 2124 2421 2420 2156 2157 2454 2453 15077 16989 16990 16979 15365 17277 17278 17270 15356 15363 17276 17269 17272 17279 15367 17280 16994 17281 17282 
2124 2125 2422 2421 2157 2158 2455 2454 15087 16999 17000 16989 15372 17284 17285 17277 15363 15370 17283 17276 17279 17286 15374 17287 17004 17288 17289 
2125 2126 2423 2422 2158 2159 2456 2455 15097 17009 17010 16999 15379 17291 17292 17284 15370 15377 17290 17283 17286 17293 15381 17294 17014 17295 17296 
2126 2127 2424 2423 2159 2160 2457 2456 15107 17019 17020 17009 15386 17298 17299 17291 15377 15384 17297 17290 17293 17300 15388 17301 17024 17302 17303 
2127 2128 2425 2424 2160 2161 2458 2457 15117 17029 17030 17019 15393 17305 17306 17298 15384 15391 17304 17297 17300 17307 15395 17308 17034 17309 17310 
2128 2129 2426 2425 2161 2162 2459 2458 15127 17039 17040 17029 15400 17312 17313 17305 15391 15398 17311 17304 17307 17314 15402 17315 17044 17316 17317 
2129 2130 2427 2426 2162 2163 2460 2459 15137 17049 17050 17039 15407 17319 17320 17312 15398 15405 17318 17311 17314 17321 15409 17322 17054 17323 17324 
2130 2131 2428 2427 2163 2164 2461 2460 15147 17059 17060 17049 15414 17326 17327 17319 15405 15412 17325 17318 17321 17328 15416 17329 17064 17330 17331 
2131 2132 2429 2428 2164 2165 2462 2461 15157 17069 17070 17059 15421 17333 17334 17326 15412 15419 17332 17325 17328 17335 15423 17336 17074 17337 17338 
2132 2133 2430 2429 2165 2166 2463 2462 15167 17079 17080 17069 15428 17340 17341 17333 15419 15426 17339 17332 17335 17342 15430 17343 17084 17344 17345 
2133 2134 2431 2430 2166 2167 2464 2463 15177 17089 17090 17079 15435 17347 17348 17340 15426 15433 17346 17339 17342 17349 15437 17350 17094 17351 17352 
2134 2135 2432 2431 2167 2168 2465 2464 15187 17099 17100 17089 15442 17354 17355 17347 15433 15440 17353 17346 17349 17356 15444 17357 17104 17358 17359 
2135 2136 2433 2432 2168 2169 2466 2465 15197 17109 17110 17099 15449 17361 17362 17354 15440 15447 17360 17353 17356 17363 15451 17364 17114 17365 17366 
2136 2137 2434 2433 2169 2170 2467 2466 15207 17119 17120 17109 15456 17368 17369 17361 15447 15454 17367 17360 17363 17370 15458 17371 17124 17372 17373 
2137 2138 2435 2434 2170 2171 2468 2467 15217 17129 17130 17119 15463 17375 17376 17368 15454 15461 17374 17367 17370 17377 15465 17378 17134 17379 17380 
2138 2139 2436 2435 2171 2172 2469 2468 15227 17139 17140 17129 15470 17382 17383 17375 15461 15468 17381 17374 17377 17384 15472 17385 17144 17386 17387 
2139 2140 2437 2436 2172 2173 2470 2469 15237 17149 17150 17139 15477 17389 17390 17382 15468 15475 17388 17381 17384 17391 15479 17392 17154 17393 17394 
2140 2141 2438 2437 2173 2174 2471 2470 15247 17159 17160 17149 15484 17396 17397 17389 15475 15482 17395 17388 17391 17398 15486 17399 17164 17400 17401 
2141 2142 2439 2438 2174 2175 2472 2471 15257 17169 17170 17159 15491 17403 17404 17396 15482 15489 17402 17395 17398 17405 15493 17406 17174 17407 17408 
2142 2143 2440 2439 2175 2176 2473 2472 15267 17179 17180 17169 15498 17410 17411 17403 15489 15496 17409 17402 17405 17412 15500 17413 17184 17414 17415 
2143 2144 2441 2440 2176 2177 2474 2473 15277 17189 17190 17179 15505 17417 17418 17410 15496 15503 17416 17409 17412 17419 15507 17420 17194 17421 17422 
2145 2146 2443 2442 2178 2179 2476 2475 15286 17198 17199 17200 15513 17425 17426 17427 15511 15510 17423 17424 17430 17428 15516 17429 17204 17431 17432 
2146 2147 2444 2443 2179 2180 2477 2476 15295 17207 17208 17198 15522 17434 17435 17425 15510 15520 17433 17423 17428 17436 15524 17437 17211 17438 17439 
2147 2148 2445 2444 2180 2181 2478 2477 15302 17214 17215 17207 15529 17441 17442 17434 15520 15527 17440 17433 17436 17443 15531 17444 17218 17445 17446 
2148 2149 2446 2445 2181 2182 2479 2478 15309 17221 17222 17214 15536 17448 17449 17441 15527 15534 17447 17440 17443 17450 15538 17451 17225 17452 17453 
2149 2150 2447 2446 2182 2183 2480 2479 15316 17228 17229 17221 15543 17455 17456 17448 15534 15541 17454 17447 17450 17457 15545 17458 17232 17459 17460 
2150 2151 2448 2447 2183 2184 2481 2480 15323 17235 17236 17228 15550 17462 17463 17455 15541 15548 17461 17454 17457 17464 15552 17465 17239 17466 17467 
2151 2152 2449 2448 2184 2185 2482 2481 15330 17242 17243 17235 15557 17469 17470 17462 15548 15555 17468 17461 17464 17471 15559 17472 17246 17473 17474 
2152 2153 2450 2449 2185 2186 2483 2482 15337 17249 17250 17242 15564 17476 17477 17469 15555 15562 17475 17468 17471 17478 15566 17479 17253 17480 17481 
2153 2154 2451 2450 2186 2187 2484 2483 15344 17256 17257 17249 15571 17483 17484 17476 15562 15569 17482 17475 17478 17485 15573 17486 17260 17487 17488 
2154 2155 2452 2451 2187 2188 2485 2484 15351 17263 17264 17256 15578 17490 17491 17483 15569 15576 17489 17482 17485 17492 15580 17493 17267 17494 17495 
2155 2156 2453 2452 2188 2189 2486 2485 15358 17270 17271 17263 15585 17497 17498 17490 15576 15583 17496 17489 17492 17499 15587 17500 17274 17501 17502 
2156 2157 2454 2453 2189 2190 2487 2486 15365 17277 17278 17270 15592 17504 17505 17497 15583 15590 17503 17496 17499 17506 15594 17507 17281 17508 17509 
2157 2158 2455 2454 2190 2191 2488 2487 15372 17284 17285 17277 15599 17511 17512 17504 15590 15597 17510 17503 17506 17513 15601 17514 17288 17515 17516 
2158 2159 2456 2455 2191 2192 2489 2488 15379 17291 17292 17284 15606 17518 17519 17511 15597 15604 17517 17510 17513 17520 15608 17521 17295 17522 17523 
2159 2160 2457 2456 2192 2193 2490 2489 15386 17298 17299 17291 15613 17525 17526 17518 15604 15611 17524 17517 17520 17527 15615 17528 17302 17529 17530 
2160 2161 2458 2457 2193 2194 2491 2490 15393 17305 17306 17298 15620 17532 17533 17525 15611 15618 17531 17524 17527 17534 15622 17535 17309 17536 17537 
2161 2162 2459 2458 2194 2195 2492 2491 15400 17312 17313 17305 15627 17539 17540 17532 15618 15625 17538 17531 17534 17541 15629 17542 17316 17543 17544 
2162 2163 2460 2459 2195 2196 2493 2492 15407 17319 17320 17312 15634 17546 17547 17539 15625 15632 17545 17538 17541 17548 15636 17549 17323 17550 17551 
2163 2164 2461 2460 2196 2197 2494 2493 15414 17326 17327 17319 15641 17553 17554 17546 15632 15639 17552 17545 17548 17555 15643 17556 17330 17557 17558 
2164 2165 2462 2461 2197 2198 2495 2494 15421 17333 17334 17326 15648 17560 17561 17553 15639 15646 17559 17552 17555 17562 15650 17563 17337 17564 17565 
2165 2166 2463 2462 2198 2199 2496 2495 15428 17340 17341 17333 15655 17567 17568 17560 15646 15653 17566 17559 17562 17569 15657 17570 17344 17571 17572 
2166 2167 2464 2463 2199 2200 2497 2496 15435 17347 17348 17340 15662 17574 17575 17567 15653 15660 17573 17566 17569 17576 15664 17577 17351 17578 17579 
2167 2168 2465 2464 2200 2201 2498 2497 15442 17354 17355 17347 15669 17581 17582 17574 15660 15667 17580 17573 17576 17583 15671 17584 17358 17585 17586 
2168 2169 2466 2465 2201 2202 2499 2498 15449 17361 17362 17354 15676 17588 17589 17581 15667 15674 17587 17580 17583 17590 15678 17591 17365 17592 17593 
2169 2170 2467 2466 2202 2203 2500 2499 15456 17368 17369 17361 15683 17595 17596 17588 15674 15681 17594 17587 17590 17597 15685 17598 17372 17599 17600 
2170 2171 2468 2467 2203 2204 2501 2500 15463 17375 17376 17368 15690 17602 17603 17595 15681 15688 17601 17594 17597 17604 15692 17605 17379 17606 17607 
2171 2172 2469 2468 2204 2205 2502 2501 15470 17382 17383 17375 15697 17609 17610 17602 15688 15695 17608 17601 17604 17611 15699 17612 17386 17613 17614 
2172 2173 2470 2469 2205 2206 2503 2502 15477 17389 17390 17382 15704 17616 17617 17609 15695 15702 17615 17608 17611 17618 15706 17619 17393 17620 17621 
2173 2174 2471 2470 2206 2207 2504 2503 15484 17396 17397 17389 15711 17623 17624 17616 15702 15709 17622 17615 17618 17625 15713 17626 17400 17627 17628 
2174 2175 2472 2471 2207 2208 2505 2504 15491 17403 17404 17396 15718 17630 17631 17623 15709 15716 17629 17622 17625 17632 15720 17633 17407 17634 17635 
2175 2176 2473 2472 2208 2209 2506 2505 15498 17410 17411 17403 15725 17637 17638 17630 15716 15723 17636 17629 17632 17639 15727 17640 17414 17641 17642 
2176 2177 2474 2473 2209 2210 2507 2506 15505 17417 17418 17410 15732 17644 17645 17637 15723 15730 17643 17636 17639 17646 15734 17647 17421 17648 17649 
2178 2179 2476 2475 2211 2212 2509 2508 15513 17425 17426 17427 15740 17652 17653 17654 15738 15737 17650 17651 17657 17655 15743 17656 17431 17658 17659 
2179 2180 2477 2476 2212 2213 2510 2509 15522 17434 17435 17425 15749 17661 17662 17652 15737 15747 17660 17650 17655 17663 15751 17664 17438 17665 17666 
2180 2181 2478 2477 2213 2214 2511 2510 15529 17441 17442 17434 15756 17668 17669 17661 15747 15754 17667 17660 17663 17670 15758 17671 17445 17672 17673 
2181 2182 2479 2478 2214 2215 2512 2511 15536 17448 17449 17441 15763 17675 17676 17668 15754 15761 17674 17667 17670 17677 15765 17678 17452 17679 17680 
2182 2183 2480 2479 2215 2216 2513 2512 15543 17455 17456 17448 15770 17682 17683 17675 15761 15768 17681 17674 17677 17684 15772 17685 17459 17686 17687 
2183 2184 2481 2480 2216 2217 2514 2513 15550 17462 17463 17455 15777 17689 17690 17682 15768 15775 17688 17681 17684 17691 15779 17692 17466 17693 17694 
2184 2185 2482 2481 2217 2218 2515 2514 15557 17469 17470 17462 15784 17696 17697 17689 15775 15782 17695 17688 17691 17698 15786 17699 17473 17700 17701 
2185 2186 2483 2482 2218 2219 2516 2515 15564 17476 17477 17469 15791 17703 17704 17696 15782 15789 17702 17695 17698 17705 15793 17706 17480 17707 17708 
2186 2187 2484 2483 2219 2220 2517 2516 15571 17483 17484 17476 15798 17710 17711 17703 15789 15796 17709 17702 17705 17712 15800 17713 17487 17714 17715 
2187 2188 2485 2484 2220 2221 2518 2517 15578 17490 17491 17483 15805 17717 17718 17710 15796 15803 17716 17709 17712 17719 15807 17720 17494 17721 17722 
2188 2189 2486 2485 2221 2222 2519 2518 15585 17497 17498 17490 15812 17724 17725 17717 15803 15810 17723 17716 17719 17726 15814 17727 17501 17728 17729 
2189 2190 2487 2486 2222 2223 2520 2519 15592 17504 17505 17497 15819 17731 17732 17724 15810 15817 17730 17723 17726 17733 15821 17734 17508 17735 17736 
2190 2191 2488 2487 2223 2224 2521 2520 15599 17511 17512 17504 15826 17738 17739 17731 15817 15824 17737 17730 17733 17740 15828 17741 17515 17742 17743 
2191 2192 2489 2488 2224 2225 2522 2521 15606 17518 17519 17511 15833 17745 17746 17738 15824 15831 17744 17737 17740 17747 15835 17748 17522 17749 17750 
2192 2193 2490 2489 2225 2226 2523 2522 15613 17525 17526 17518 15840 17752 17753 17745 15831 15838 17751 17744 17747 17754 15842 17755 17529 17756 17757 
2193 2194 2491 2490 2226 2227 2524 2523 15620 17532 17533 17525 15847 17759 17760 17752 15838 15845 17758 17751 17754 17761 15849 17762 17536 17763 17764 
2194 2195 2492 2491 2227 2228 2525 2524 15627 17539 17540 17532 15854 17766 17767 17759 15845 15852 17765 17758 17761 17768 15856 17769 17543 17770 17771 
2195 2196 2493 2492 2228 2229 2526 2525 15634 17546 17547 17539 15861 17773 17774 17766 15852 15859 17772 17765 17768 17775 15863 17776 17550 17777 17778 
2196 2197 2494 2493 2229 2230 2527 2526 15641 17553 17554 17546 15868 17780 17781 17773 15859 15866 17779 17772 17775 17782 15870 17783 17557 17784 17785 
2197 2198 2495 2494 2230 2231 2528 2527 15648 17560 17561 17553 15875 17787 17788 17780 15866 15873 17786 17779 17782 17789 15877 17790 17564 17791 17792 
2198 2199 2496 2495 2231 2232 2529 2528 15655 17567 17568 17560 15882 17794 17795 17787 15873 15880 17793 17786 17789 17796 15884 17797 17571 17798 17799 
2199 2200 2497 2496 2232 2233 2530 2529 15662 17574 17575 17567 15889 17801 17802 17794 15880 15887 17800 17793 17796 17803 15891 17804 17578 17805 17806 
2200 2201 2498 2497 2233 2234 2531 2530 15669 17581 17582 17574 15896 17808 17809 17801 15887 15894 17807 17800 17803 17810 15898 17811 17585 17812 17813 
2201 2202 2499 2498 2234 2235 2532 2531 15676 17588 17589 17581 15903 17815 17816 17808 15894 15901 17814 17807 17810 17817 15905 17818 17592 17819 17820 
2202 2203 2500 2499 2235 2236 2533 2532 15683 17595 17596 17588 15910 17822 17823 17815 15901 15908 17821 17814 17817 17824 15912 17825 17599 17826 17827 
2203 2204 2501 2500 2236 2237 2534 2533 15690 17602 17603 17595 15917 17829 17830 17822 15908 15915 17828 17821 17824 17831 15919 17832 17606 17833 17834 
2204 2205 2502 2501 2237 2238 2535 2534 15697 17609 17610 17602 15924 17836 17837 17829 15915 15922 17835 17828 17831 17838 15926 17839 17613 17840 17841 
2205 2206 2503 2502 2238 2239 2536 2535 15704 17616 17617 17609 15931 17843 17844 17836 15922 15929 17842 17835 17838 17845 15933 17846 17620 17847 17848 
2206 2207 2504 2503 2239 2240 2537 2536 15711 17623 17624 17616 15938 17850 17851 17843 15929 15936 17849 17842 17845 17852 15940 17853 17627 17854 17855 
2207 2208 2505 2504 2240 2241 2538 2537 15718 17630 17631 17623 15945 17857 17858 17850 15936 15943 17856 17849 17852 17859 15947 17860 17634 17861 17862 
2208 2209 2506 2505 2241 2242 2539 2538 15725 17637 17638 17630 15952 17864 17865 17857 15943 15950 17863 17856 17859 17866 15954 17867 17641 17868 17869 
2209 2210 2507 2506 2242 2243 2540 2539 15732 17644 17645 17637 15959 17871 17872 17864 15950 15957 17870 17863 17866 17873 15961 17874 17648 17875 17876 
2211 2212 2509 2508 2244 2245 2542 2541 15740 17652 17653 17654 15967 17879 17880 17881 15965 15964 17877 17878 17884 17882 15970 17883 17658 17885 17886 
2212 2213 2510 2509 2245 2246 2543 2542 15749 17661 17662 17652 15976 17888 17889 17879 15964 15974 17887 17877 17882 17890 15978 17891 17665 17892 17893 
2213 2214 2511 2510 2246 2247 2544 2543 15756 17668 17669 17661 15983 17895 17896 17888 15974 15981 17894 17887 17890 17897 15985 17898 17672 17899 17900 
2214 2215 2512 2511 2247 2248 2545 2544 15763 17675 17676 17668 15990 17902 17903 17895 15981 15988 17901 17894 17897 17904 15992 17905 17679 17906 17907 
2215 2216 2513 2512 2248 2249 2546 2545 15770 17682 17683 17675 15997 17909 17910 17902 15988 15995 17908 17901 17904 17911 15999 17912 17686 17913 17914 
2216 2217 2514 2513 2249 2250 2547 2546 15777 17689 17690 17682 16004 17916 17917 17909 15995 16002 17915 17908 17911 17918 16006 17919 17693 17920 17921 
2217 2218 2515 2514 2250 2251 2548 2547 15784 17696 17697 17689 16011 17923 17924 17916 16002 16009 17922 17915 17918 17925 16013 17926 17700 17927 17928 
2218 2219 2516 2515 2251 2252 2549 2548 15791 17703 17704 17696 16018 17930 17931 17923 16009 16016 17929 17922 17925 17932 16020 17933 17707 17934 17935 
2219 2220 2517 2516 2252 2253 2550 2549 15798 17710 17711 17703 16025 17937 17938 17930 16016 16023 17936 17929 17932 17939 16027 17940 17714 17941 17942 
2220 2221 2518 2517 2253 2254 2551 2550 15805 17717 17718 17710 16032 17944 17945 17937 16023 16030 17943 17936 17939 17946 16034 17947 17721 17948 17949 
2221 2222 2519 2518 2254 2255 2552 2551 15812 17724 17725 17717 16039 17951 17952 17944 16030 16037 17950 17943 17946 17953 16041 17954 17728 17955 17956 
2222 2223 2520 2519 2255 2256 2553 2552 15819 17731 17732 17724 16046 17958 17959 17951 16037 16044 17957 17950 17953 17960 16048 17961 17735 17962 17963 
2223 2224 2521 2520 2256 2257 2554 2553 15826 17738 17739 17731 16053 17965 17966 17958 16044 16051 17964 17957 17960 17967 16055 17968 17742 17969 17970 
2224 2225 2522 2521 2257 2258 2555 2554 15833 17745 17746 17738 16060 17972 17973 17965 16051 16058 17971 17964 17967 17974 16062 17975 17749 17976 17977 
2225 2226 2523 2522 2258 2259 2556 2555 15840 17752 17753 17745 16067 17979 17980 17972 16058 16065 17978 17971 17974 17981 16069 17982 17756 17983 17984 
2226 2227 2524 2523 2259 2260 2557 2556 15847 17759 17760 17752 16074 17986 17987 17979 16065 16072 17985 17978 17981 17988 16076 17989 17763 17990 17991 
2227 2228 2525 2524 2260 2261 2558 2557 15854 17766 17767 17759 16081 17993 17994 17986 16072 16079 17992 17985 17988 17995 16083 17996 17770 17997 17998 
2228 2229 2526 2525 2261 2262 2559 2558 15861 17773 17774 17766 16088 18000 18001 17993 16079 16086 17999 17992 17995 18002 16090 18003 17777 18004 18005 
2229 2230 2527 2526 2262 2263 2560 2559 15868 17780 17781 17773 16095 18007 18008 18000 16086 16093 18006 17999 18002 18009 16097 18010 17784 18011 18012 
2230 2231 2528 2527 2263 2264 2561 2560 15875 17787 17788 17780 16102 18014 18015 18007 16093 16100 18013 18006 18009 18016 16104 18017 17791 18018 18019 
2231 2232 2529 2528 2264 2265 2562 2561 15882 17794 17795 17787 16109 18021 18022 18014 16100 16107 18020 18013 18016 18023 16111 18024 17798 18025 18026 
2232 2233 2530 2529 2265 2266 2563 2562 15889 17801 17802 17794 16116 18028 18029 18021 16107 16114 18027 18020 18023 18030 16118 18031 17805 18032 18033 
2233 2234 2531 2530 2266 2267 2564 2563 15896 17808 17809 17801 16123 18035 18036 18028 16114 16121 18034 18027 18030 18037 16125 18038 17812 18039 18040 
2234 2235 2532 2531 2267 2268 2565 2564 15903 17815 17816 17808 16130 18042 18043 18035 16121 16128 18041 18034 18037 18044 16132 18045 17819 18046 18047 
2235 2236 2533 2532 2268 2269 2566 2565 15910 17822 17823 17815 16137 18049 18050 18042 16128 16135 18048 18041 18044 18051 16139 18052 17826 18053 18054 
2236 2237 2534 2533 2269 2270 2567 2566 15917 17829 17830 17822 16144 18056 18057 18049 16135 16142 18055 18048 18051 18058 16146 18059 17833 18060 18061 
2237 2238 2535 2534 2270 2271 2568 2567 15924 17836 17837 17829 16151 18063 18064 18056 16142 16149 18062 18055 18058 18065 16153 18066 17840 18067 18068 
2238 2239 2536 2535 2271 2272 2569 2568 15931 17843 17844 17836 16158 18070 18071 18063 16149 16156 18069 18062 18065 18072 16160 18073 17847 18074 18075 
2239 2240 2537 2536 2272 2273 2570 2569 15938 17850 17851 17843 16165 18077 18078 18070 16156 16163 18076 18069 18072 18079 16167 18080 17854 18081 18082 
2240 2241 2538 2537 2273 2274 2571 2570 15945 17857 17858 17850 16172 18084 18085 18077 16163 16170 18083 18076 18079 18086 16174 18087 17861 18088 18089 
2241 2242 2539 2538 2274 2275 2572 2571 15952 17864 17865 17857 16179 18091 18092 18084 16170 16177 18090 18083 18086 18093 16181 18094 17868 18095 18096 
2242 2243 2540 2539 2275 2276 2573 2572 15959 17871 17872 17864 16186 18098 18099 18091 16177 16184 18097 18090 18093 18100 16188 18101 17875 18102 18103 
2244 2245 2542 2541 2277 2278 2575 2574 15967 17879 17880 17881 16194 18106 18107 18108 16192 16191 18104 18105 18111 18109 16197 18110 17885 18112 18113 
2245 2246 2543 2542 2278 2279 2576 2575 15976 17888 17889 17879 16203 18115 18116 18106 16191 16201 18114 18104 18109 18117 16205 18118 17892 18119 18120 
2246 2247 2544 2543 2279 2280 2577 2576 15983 17895 17896 17888 16210 18122 18123 18115 16201 16208 18121 18114 18117 18124 16212 18125 17899 18126 18127 
2247 2248 2545 2544 2280 2281 2578 2577 15990 17902 17903 17895 16217 18129 18130 18122 16208 16215 18128 18121 18124 18131 16219 18132 17906 18133 18134 
2248 2249 2546 2545 2281 2282 2579 2578 15997 17909 17910 17902 16224 18136 18137 18129 16215 16222 18135 18128 18131 18138 16226 18139 17913 18140 18141 
2249 2250 2547 2546 2282 2283 2580 2579 16004 17916 17917 17909 16231 18143 18144 18136 16222 16229 18142 18135 18138 18145 16233 18146 17920 18147 18148 
2250 2251 2548 2547 2283 2284 2581 2580 16011 17923 17924 17916 16238 18150 18151 18143 16229 16236 18149 18142 18145 18152 16240 18153 17927 18154 18155 
2251 2252 2549 2548 2284 2285 2582 2581 16018 17930 17931 17923 16245 18157 18158 18150 16236 16243 18156 18149 18152 18159 16247 18160 17934 18161 18162 
2252 2253 2550 2549 2285 2286 2583 2582 16025 17937 17938 17930 16252 18164 18165 18157 16243 16250 18163 18156 18159 18166 16254 18167 17941 18168 18169 
2253 2254 2551 2550 2286 2287 2584 2583 16032 17944 17945 17937 16259 18171 18172 18164 16250 16257 18170 18163 18166 18173 16261 18174 17948 18175 18176 
2254 2255 2552 2551 2287 2288 2585 2584 16039 17951 17952 17944 16266 18178 18179 18171 16257 16264 18177 18170 18173 18180 16268 18181 17955 18182 18183 
2255 2256 2553 2552 2288 2289 2586 2585 16046 17958 17959 17951 16273 18185 18186 18178 16264 16271 18184 18177 18180 18187 16275 18188 17962 18189 18190 
2256 2257 2554 2553 2289 2290 2587 2586 16053 17965 17966 17958 16280 18192 18193 18185 16271 16278 18191 18184 18187 18194 16282 18195 17969 18196 18197 
2257 2258 2555 2554 2290 2291 2588 2587 16060 17972 17973 17965 16287 18199 18200 18192 16278 16285 18198 18191 18194 18201 16289 18202 17976 18203 18204 
2258 2259 2556 2555 2291 2292 2589 2588 16067 17979 17980 17972 16294 18206 18207 18199 16285 16292 18205 18198 18201 18208 16296 18209 17983 18210 18211 
2259 2260 2557 2556 2292 2293 2590 2589 16074 17986 17987 17979 16301 18213 18214 18206 16292 16299 18212 18205 18208 18215 16303 18216 17990 18217 18218 
2260 2261 2558 2557 2293 2294 2591 2590 16081 17993 17994 17986 16308 18220 18221 18213 16299 16306 18219 18212 18215 18222 16310 18223 17997 18224 18225 
2261 2262 2559 2558 2294 2295 2592 2591 16088 18000 18001 17993 16315 18227 18228 18220 16306 16313 18226 18219 18222 18229 16317 18230 18004 18231 18232 
2262 2263 2560 2559 2295 2296 2593 2592 16095 18007 18008 18000 16322 18234 18235 18227 16313 16320 18233 18226 18229 18236 16324 18237 18011 18238 18239 
2263 2264 2561 2560 2296 2297 2594 2593 16102 18014 18015 18007 16329 18241 18242 18234 16320 16327 18240 18233 18236 18243 16331 18244 18018 18245 18246 
2264 2265 2562 2561 2297 2298 2595 2594 16109 18021 18022 18014 16336 18248 18249 18241 16327 16334 18247 18240 18243 18250 16338 18251 18025 18252 18253 
2265 2266 2563 2562 2298 2299 2596 2595 16116 18028 18029 18021 16343 18255 18256 18248 16334 16341 18254 18247 18250 18257 16345 18258 18032 18259 18260 
2266 2267 2564 2563 2299 2300 2597 2596 16123 18035 18036 18028 16350 18262 18263 18255 16341 16348 18261 18254 18257 18264 16352 18265 18039 18266 18267 
2267 2268 2565 2564 2300 2301 2598 2597 16130 18042 18043 18035 16357 18269 18270 18262 16348 16355 18268 18261 18264 18271 16359 18272 18046 18273 18274 
2268 2269 2566 2565 2301 2302 2599 2598 16137 18049 18050 18042 16364 18276 18277 18269 16355 16362 18275 18268 18271 18278 16366 18279 18053 18280 18281 
2269 2270 2567 2566 2302 2303 2600 2599 16144 18056 18057 18049 16371 18283 18284 18276 16362 16369 18282 18275 18278 18285 16373 18286 18060 18287 18288 
2270 2271 2568 2567 2303 2304 2601 2600 16151 18063 18064 18056 16378 18290 18291 18283 16369 16376 18289 18282 18285 18292 16380 18293 18067 18294 18295 
2271 2272 2569 2568 2304 2305 2602 2601 16158 18070 18071 18063 16385 18297 18298 18290 16376 16383 18296 18289 18292 18299 16387 18300 18074 18301 18302 
2272 2273 2570 2569 2305 2306 2603 2602 16165 18077 18078 18070 16392 18304 18305 18297 16383 16390 18303 18296 18299 18306 16394 18307 18081 18308 18309 
2273 2274 2571 2570 2306 2307 2604 2603 16172 18084 18085 18077 16399 18311 18312 18304 16390 16397 18310 18303 18306 18313 16401 18314 18088 18315 18316 
2274 2275 2572 2571 2307 2308 2605 2604 16179 18091 18092 18084 16406 18318 18319 18311 16397 16404 18317 18310 18313 18320 16408 18321 18095 18322 18323 
2275 2276 2573 2572 2308 2309 2606 2605 16186 18098 18099 18091 16413 18325 18326 18318 16404 16411 18324 18317 18320 18327 16415 18328 18102 18329 18330 
2277 2278 2575 2574 2310 2311 2608 2607 16194 18106 18107 18108 16421 18333 18334 18335 16419 16418 18331 18332 18338 18336 16424 18337 18112 18339 18340 
2278 2279 2576 2575 2311 2312 2609 2608 16203 18115 18116 18106 16430 18342 18343 18333 16418 16428 18341 18331 18336 18344 16432 18345 18119 18346 18347 
2279 2280 2577 2576 2312 2313 2610 2609 16210 18122 18123 18115 16437 18349 18350 18342 16428 16435 18348 18341 18344 18351 16439 18352 18126 18353 18354 
2280 2281 2578 2577 2313 2314 2611 2610 16217 18129 18130 18122 16444 18356 18357 18349 16435 16442 18355 18348 18351 18358 16446 18359 18133 18360 18361 
2281 2282 2579 2578 2314 2315 2612 2611 16224 18136 18137 18129 16451 18363 18364 18356 16442 16449 18362 18355 18358 18365 16453 18366 18140 18367 18368 
2282 2283 2580 2579 2315 2316 2613 2612 16231 18143 18144 18136 16458 18370 18371 18363 16449 16456 18369 18362 18365 18372 16460 18373 18147 18374 18375 
2283 2284 2581 2580 2316 2317 2614 2613 16238 18150 18151 18143 16465 18377 18378 18370 16456 16463 18376 18369 18372 18379 16467 18380 18154 18381 18382 
2284 2285 2582 2581 2317 2318 2615 2614 16245 18157 18158 18150 16472 18384 18385 18377 16463 16470 18383 18376 18379 18386 16474 18387 18161 18388 18389 
2285 2286 2583 2582 2318 2319 2616 2615 16252 18164 18165 18157 16479 18391 18392 18384 16470 16477 18390 18383 18386 18393 16481 18394 18168 18395 18396 
2286 2287 2584 2583 2319 2320 2617 2616 16259 18171 18172 18164 16486 18398 18399 18391 16477 16484 18397 18390 18393 18400 16488 18401 18175 18402 18403 
2287 2288 2585 2584 2320 2321 2618 2617 16266 18178 18179 18171 16493 18405 18406 18398 16484 16491 18404 18397 18400 18407 16495 18408 18182 18409 18410 
2288 2289 2586 2585 2321 2322 2619 2618 16273 18185 18186 18178 16500 18412 18413 18405 16491 16498 18411 18404 18407 18414 16502 18415 18189 18416 18417 
2289 2290 2587 2586 2322 2323 2620 2619 16280 18192 18193 18185 16507 18419 18420 18412 16498 16505 18418 18411 18414 18421 16509 18422 18196 18423 18424 
2290 2291 2588 2587 2323 2324 2621 2620 16287 18199 18200 18192 16514 18426 18427 18419 16505 16512 18425 18418 18421 18428 16516 18429 18203 18430 18431 
2291 2292 2589 2588 2324 2325 2622 2621 16294 18206 18207 18199 16521 18433 18434 18426 16512 16519 18432 18425 18428 18435 16523 18436 18210 18437 18438 
2292 2293 2590 2589 2325 2326 2623 2622 16301 18213 18214 18206 16528 18440 18441 18433 16519 16526 18439 18432 18435 18442 16530 18443 18217 18444 18445 
2293 2294 2591 2590 2326 2327 2624 2623 16308 18220 18221 18213 16535 18447 18448 18440 16526 16533 18446 18439 18442 18449 16537 18450 18224 18451 18452 
2294 2295 2592 2591 2327 2328 2625 2624 16315 18227 18228 18220 16542 18454 18455 18447 16533 16540 18453 18446 18449 18456 16544 18457 18231 18458 18459 
2295 2296 2593 2592 2328 2329 2626 2625 16322 18234 18235 18227 16549 18461 18462 18454 16540 16547 18460 18453 18456 18463 16551 18464 18238 18465 18466 
2296 2297 2594 2593 2329 2330 2627 2626 16329 18241 18242 18234 16556 18468 18469 18461 16547 16554 18467 18460 18463 18470 16558 18471 18245 18472 18473 
2297 2298 2595 2594 2330 2331 2628 2627 16336 18248 18249 18241 16563 18475 18476 18468 16554 16561 18474 18467 18470 18477 16565 18478 18252 18479 18480 
2298 2299 2596 2595 2331 2332 2629 2628 16343 18255 18256 18248 16570 18482 18483 18475 16561 16568 18481 18474 18477 18484 16572 18485 18259 18486 18487 
2299 2300 2597 2596 2332 2333 2630 2629 16350 18262 18263 18255 16577 18489 18490 18482 16568 16575 18488 18481 18484 18491 16579 18492 18266 18493 18494 
2300 2301 2598 2597 2333 2334 2631 2630 16357 18269 18270 18262 16584 18496 18497 18489 16575 16582 18495 18488 18491 18498 16586 18499 18273 18500 18501 
2301 2302 2599 2598 2334 2335 2632 2631 16364 18276 18277 18269 16591 18503 18504 18496 16582 16589 18502 18495 18498 18505 16593 18506 18280 18507 18508 
2302 2303 2600 2599 2335 2336 2633 2632 16371 18283 18284 18276 16598 18510 18511 18503 16589 16596 18509 18502 18505 18512 16600 18513 18287 18514 18515 
2303 2304 2601 2600 2336 2337 2634 2633 16378 18290 18291 18283 16605 18517 18518 18510 16596 16603 18516 18509 18512 18519 16607 18520 18294 18521 18522 
2304 2305 2602 2601 2337 2338 2635 2634 16385 18297 18298 18290 16612 18524 18525 18517 16603 16610 18523 18516 18519 18526 16614 18527 18301 18528 18529 
2305 2306 2603 2602 2338 2339 2636 2635 16392 18304 18305 18297 16619 18531 18532 18524 16610 16617 18530 18523 18526 18533 16621 18534 18308 18535 18536 
2306 2307 2604 2603 2339 2340 2637 2636 16399 18311 18312 18304 16626 18538 18539 18531 16617 16624 18537 18530 18533 18540 16628 18541 18315 18542 18543 
2307 2308 2605 2604 2340 2341 2638 2637 16406 18318 18319 18311 16633 18545 18546 18538 16624 16631 18544 18537 18540 18547 16635 18548 18322 18549 18550 
2308 2309 2606 2605 2341 2342 2639 2638 16413 18325 18326 18318 16640 18552 18553 18545 16631 16638 18551 18544 18547 18554 16642 18555 18329 18556 18557 
2310 2311 2608 2607 2343 2344 2641 2640 16421 18333 18334 18335 16648 18560 18561 18562 16646 16645 18558 18559 18565 18563 16651 18564 18339 18566 18567 
2311 2312 2609 2608 2344 2345 2642 2641 16430 18342 18343 18333 16657 18569 18570 18560 16645 16655 18568 18558 18563 18571 16659 18572 18346 18573 18574 
2312 2313 2610 2609 2345 2346 2643 2642 16437 18349 18350 18342 16664 18576 18577 18569 16655 16662 18575 18568 18571 18578 16666 18579 18353 18580 18581 
2313 2314 2611 2610 2346 2347 2644 2643 16444 18356 18357 18349 16671 18583 18584 18576 16662 16669 18582 18575 18578 18585 16673 18586 18360 18587 18588 
2314 2315 2612 2611 2347 2348 2645 2644 16451 18363 18364 18356 16678 18590 18591 18583 16669 16676 18589 18582 18585 18592 16680 18593 18367 18594 18595 
2315 2316 2613 2612 2348 2349 2646 2645 16458 18370 18371 18363 16685 18597 18598 18590 16676 16683 18596 18589 18592 18599 16687 18600 18374 18601 18602 
2316 2317 2614 2613 2349 2350 2647 2646 16465 18377 18378 18370 16692 18604 18605 18597 16683 16690 18603 18596 18599 18606 16694 18607 18381 18608 18609 
2317 2318 2615 2614 2350 2351 2648 2647 16472 18384 18385 18377 16699 18611 18612 18604 16690 16697 18610 18603 18606 18613 16701 18614 18388 18615 18616 
2318 2319 2616 2615 2351 2352 2649 2648 16479 18391 18392 18384 16706 18618 18619 18611 16697 16704 18617 18610 18613 18620 16708 18621 18395 18622 18623 
2319 2320 2617 2616 2352 2353 2650 2649 16486 18398 18399 18391 16713 18625 18626 18618 16704 16711 18624 18617 18620 18627 16715 18628 18402 18629 18630 
2320 2321 2618 2617 2353 2354 2651 2650 16493 18405 18406 18398 16720 18632 18633 18625 16711 16718 18631 18624 18627 18634 16722 18635 18409 18636 18637 
2321 2322 2619 2618 2354 2355 2652 2651 16500 18412 18413 18405 16727 18639 18640 18632 16718 16725 18638 18631 18634 18641 16729 18642 18416 18643 18644 
2322 2323 2620 2619 2355 2356 2653 2652 16507 18419 18420 18412 16734 18646 18647 18639 16725 16732 18645 18638 18641 18648 16736 18649 18423 18650 18651 
2323 2324 2621 2620 2356 2357 2654 2653 16514 18426 18427 18419 16741 18653 18654 18646 16732 16739 18652 18645 18648 18655 16743 18656 18430 18657 18658 
2324 2325 2622 2621 2357 2358 2655 2654 16521 18433 18434 18426 16748 18660 18661 18653 16739 16746 18659 18652 18655 18662 16750 18663 18437 18664 18665 
2325 2326 2623 2622 2358 2359 2656 2655 16528 18440 18441 18433 16755 18667 18668 18660 16746 16753 18666 18659 18662 18669 16757 18670 18444 18671 18672 
2326 2327 2624 2623 2359 2360 2657 2656 16535 18447 18448 18440 16762 18674 18675 18667 16753 16760 18673 18666 18669 18676 16764 18677 18451 18678 18679 
2327 2328 2625 2624 2360 2361 2658 2657 16542 18454 18455 18447 16769 18681 18682 18674 16760 16767 18680 18673 18676 18683 16771 18684 18458 18685 18686 
2328 2329 2626 2625 2361 2362 2659 2658 16549 18461 18462 18454 16776 18688 18689 18681 16767 16774 18687 18680 18683 18690 16778 18691 18465 18692 18693 
2329 2330 2627 2626 2362 2363 2660 2659 16556 18468 18469 18461 16783 18695 18696 18688 16774 16781 18694 18687 18690 18697 16785 18698 18472 18699 18700 
2330 2331 2628 2627 2363 2364 2661 2660 16563 18475 18476 18468 16790 18702 18703 18695 16781 16788 18701 18694 18697 18704 16792 18705 18479 18706 18707 
2331 2332 2629 2628 2364 2365 2662 2661 16570 18482 18483 18475 16797 18709 18710 18702 16788 16795 18708 18701 18704 18711 16799 18712 18486 18713 18714 
2332 2333 2630 2629 2365 2366 2663 2662 16577 18489 18490 18482 16804 18716 18717 18709 16795 16802 18715 18708 18711 18718 16806 18719 18493 18720 18721 
2333 2334 2631 2630 2366 2367 2664 2663 16584 18496 18497 18489 16811 18723 18724 18716 16802 16809 18722 18715 18718 18725 16813 18726 18500 18727 18728 
2334 2335 2632 2631 2367 2368 2665 2664 16591 18503 18504 18496 16818 18730 18731 18723 16809 16816 18729 18722 18725 18732 16820 18733 18507 18734 18735 
2335 2336 2633 2632 2368 2369 2666 2665 16598 18510 18511 18503 16825 18737 18738 18730 16816 16823 18736 18729 18732 18739 16827 18740 18514 18741 18742 
2336 2337 2634 2633 2369 2370 2667 2666 16605 18517 18518 18510 16832 18744 18745 18737 16823 16830 18743 18736 18739 18746 16834 18747 18521 18748 18749 
2337 2338 2635 2634 2370 2371 2668 2667 16612 18524 18525 18517 16839 18751 18752 18744 16830 16837 18750 18743 18746 18753 16841 18754 18528 18755 18756 
2338 2339 2636 2635 2371 2372 2669 2668 16619 18531 18532 18524 16846 18758 18759 18751 16837 16844 18757 18750 18753 18760 16848 18761 18535 18762 18763 
2339 2340 2637 2636 2372 2373 2670 2669 16626 18538 18539 18531 16853 18765 18766 18758 16844 16851 18764 18757 18760 18767 16855 18768 18542 18769 18770 
2340 2341 2638 2637 2373 2374 2671 2670 16633 18545 18546 18538 16860 18772 18773 18765 16851 16858 18771 18764 18767 18774 16862 18775 18549 18776 18777 
2341 2342 2639 2638 2374 2375 2672 2671 16640 18552 18553 18545 16867 18779 18780 18772 16858 16865 18778 18771 18774 18781 16869 18782 18556 18783 18784 
CELL_TYPES 2048
29 29 29 29 29 29 29 29 29 29 29 29 29 29 29 29 29 29 29 29 29 29 29 29 29 29 29 29 29 29 29 29 29 29 29 29 29 29 29 29 29 29 29 29 29 29 29 29 29 29 29 29 29 29 29 29 29 29 29 29 29 29 29 29 29 29 29 29 29 29 29 29 29 29 29 29 29 29 29 29 29 29 29 29 29 29 29 29 29 29 29 29 29 29 29 29 29 29 29 29 29 29 29 29 29 29 29 29 29 29 29 29 29 29 29 29 29 29 29 29 29 29 29 29 29 29 29 29 29 29 29 29 29 29 29 29 29 29 29 29 29 29 29 29 29 29 29 29 29 29 29 29 29 29 29 29 29 29 29 29 29 29 29 29 29 29 29 29 29 29 29 29 29 29 29 29 29 29 29 29 29 29 29 29 29 29 29 29 29 29 29 29 29 29 29 29 29 29 29 29 29 29 29 29 29 29 29 29 29 29 29 29 29 29 29 29 29 29 29 29 29 29 29 29 29 29 29 29 29 29 29 29 29 29 29 29 29 29 29 29 29 29 29 29 29 29 29 29 29 29 29 29 29 29 29 29 29 29 29 29 29 29 29 29 29 29 29 29 29 29 29 29 29 29 29 29 29 29 29 29 29 29 29 29 29 29 29 29 29 29 29 29 29 29 29 29 29 29 29 29 29 29 29 29 29 29 29 29 29 29 29 29 29 29 29 29 29 29 29 29 29 29 29 29 29 29 29 29 29 29 29 29 29 29 29 29 29 29 29 29 29 29 29 29 29 29 29 29 29 29 29 29 29 29 29 29 29 29 29 29 29 29 29 29 29 29 29 29 29 29 29 29 29 29 29 29 29 29 29 29 29 29 29 29 29 29 29 29 29 29 29 29 29 29 29 29 29 29 29 29 29 29 29 29 29 29 29 29 29 29 29 29 29 29 29 29 29 29 29 29 29 29 29 29 29 29 29 29 29 29 29 29 29 29 29 29 29 29 29 29 29 29 29 29 29 29 29 29 29 29 29 29 29 29 29 29 29 29 29 29 29 29 29 29 29 29 29 29 29 29 29 29 29 29 29 29 29 29 29 29 29 29 29 29 29 29 29 29 29 29 29 29 29 29 29 29 29 29 29 29 29 29 29 29 29 29 29 29 29 29 29 29 29 29 29 29 29 29 29 29 29 29 29 29 29 29 29 29 29 29 29 29 29 29 29 29 29 29 29 29 29 29 29 29 29 29 29 29 29 29 29 29 29 29 29 29 29 29 29 29 29 29 29 29 29 29 29 29 29 29 29 29 29 29 29 29 29 29 29 29 29 29 29 29 29 29 29 29 29 29 29 29 29 29 29 29 29 29 29 29 29 29 29 29 29 29 29 29 29 29 29 29 29 29 29 29 29 29 29 29 29 29 29 29 29 29 29 29 29 29 29 29 29 29 29 29 29 29 29 29 29 29 29 29 29 29 29 29 29 29 29 29 29 29 29 29 29 29 29 29 29 29 29 29 29 29 29 29 29 29 29 29 29 29 29 29 29 29 29 29 29 29 29 29 29 29 29 29 29 29 29 29 29 29 29 29 29 29 29 29 29 29 29 29 29 29 29 29 29 29 29 29 29 29 29 29 29 29 29 29 29 29 29 29 29 29 29 29 29 29 29 29 29 29 29 29 29 29 29 29 29 29 29 29 29 29 29 29 29 29 29 29 29 29 29 29 29 29 29 29 29 29 29 29 29 29 29 29 29 29 29 29 29 29 29 29 29 29 29 29 29 29 29 29 29 29 29 29 29 29 29 29 29 29 29 29 29 29 29 29 29 29 29 29 29 29 29 29 29 29 29 29 29 29 29 29 29 29 29 29 29 29 29 29 29 29 29 29 29 29 29 29 29 29 29 29 29 29 29 29 29 29 29 29 29 29 29 29 29 29 29 29 29 29 29 29 29 29 29 29 29 29 29 29 29 29 29 29 29 29 29 29 29 29 29 29 29 29 29 29 29 29 29 29 29 29 29 29 29 29 29 29 29 29 29 29 29 29 29 29 29 29 29 29 29 29 29 29 29 29 29 29 29 29 29 29 29 29 29 29 29 29 29 29 29 29 29 29 29 29 29 29 29 29 29 29 29 29 29 29 29 29 29 29 29 29 29 29 29 29 29 29 29 29 29 29 29 29 29 29 29 29 29 29 29 29 29 29 29 29 29 29 29 29 29 29 29 29 29 29 29 29 29 29 29 29 29 29 29 29 29 29 29 29 29 29 29 29 29 29 29 29 29 29 29 29 29 29 29 29 29 29 29 29 29 29 29 29 29 29 29 29 29 29 29 29 29 29 29 29 29 29 29 29 29 29 29 29 29 29 29 29 29 29 29 29 29 29 29 29 29 29 29 29 29 29 29 29 29 29 29 29 29 29 29 29 29 29 29 29 29 29 29 29 29 29 29 29 29 29 29 29 29 29 29 29 29 29 29 29 29 29 29 29 29 29 29 29 29 29 29 29 29 29 29 29 29 29 29 29 29 29 29 29 29 29 29 29 29 29 29 29 29 29 29 29 29 29 29 29 29 29 29 29 29 29 29 29 29 29 29 29 29 29 29 29 29 29 29 29 29 29 29 29 29 29 29 29 29 29 29 29 29 29 29 29 29 29 29 29 29 29 29 29 29 29 29 29 29 29 29 29 29 29 29 29 29 29 29 29 29 29 29 29 29 29 29 29 29 29 29 29 29 29 29 29 29 29 29 29 29 29 29 29 29 29 29 29 29 29 29 29 29 29 29 29 29 29 29 29 29 29 29 29 29 29 29 29 29 29 29 29 29 29 29 29 29 29 29 29 29 29 29 29 29 29 29 29 29 29 29 29 29 29 29 29 29 29 29 29 29 29 29 29 29 29 29 29 29 29 29 29 29 29 29 29 29 29 29 29 29 29 29 29 29 29 29 29 29 29 29 29 29 29 29 29 29 29 29 29 29 29 29 29 29 29 29 29 29 29 29 29 29 29 29 29 29 29 29 29 29 29 29 29 29 29 29 29 29 29 29 29 29 29 29 29 29 29 29 29 29 29 29 29 29 29 29 29 29 29 29 29 29 29 29 29 29 29 29 29 29 29 29 29 29 29 29 29 29 29 29 29 29 29 29 29 29 29 29 29 29 29 29 29 29 29 29 29 29 29 29 29 29 29 29 29 29 29 29 29 29 29 29 29 29 29 29 29 29 29 29 29 29 29 29 29 29 29 29 29 29 29 29 29 29 29 29 29 29 29 29 29 29 29 29 29 29 29 29 29 29 29 29 29 29 29 29 29 29 29 29 29 29 29 29 29 29 29 29 29 29 29 29 29 29 29 29 29 29 29 29 29 29 29 29 29 29 29 29 29 29 29 29 29 29 29 29 29 29 29 29 29 29 29 29 29 29 29 29 29 29 29 29 29 29 29 29 29 29 29 29 29 29 29 29 29 29 29 29 29 29 29 29 29 29 29 29 29 29 29 29 29 29 29 29 29 29 29 29 29 29 29 29 29 29 29 29 29 29 29 29 29 29 29 29 29 29 29 29 29 29 29 29 29 29 29 29 29 29 29 29 29 29 29 29 29 29 29 29 29 29 29 29 29 29 29 29 29 29 29 29 29 29 29 29 29 29 29 29 29 29 29 29 29 29 29 29 29 29 29 29 29 29 29 29 29 29 29 29 29 29 29 29 29 29 29 29 29 29 29 29 29 29 29 29 29 29 29 29 29 29 29 29 29 29 29 29 29 29 29 29 29 29 29 29 29 29 29 29 29 29 29 29 29 29 29 29 29 29 29 29 29 29 29 29 29 29 29 29 29 29 29 29 29 29 29 29 29 29 29 29 29 29 29 29 29 29 29 29 29 29 29 29 29 29 29 29 29 29 29 29 29 29 29 29 29 29 29 29 29 29 29 29 29 29 29 29 29 29 29 29 29 29 29 29 29 29 29 29 29 29 29 29 29 29 29 29 29 29 29 29 29 29 29 29 29 29 29 29 29 29 29 29 29 29 29 29 29 29 29 29 29 29 29 29 29 29 29 29 29 29 29 29 29 29 29 29 29 29 29 29 29 29 29 29 29 29 29 29 29 29 29 29 29 29 29 29 29 29 29 29 29 29 29 29 29 29 29 29 29 29 29 29 29 29 29 29 29 29 29 29 29 29 29 29 29 29 29 29 29 29 29 29 29 29 29 29 29 29 29 29 29 29 29 29 29 29 29 29 29 29 29 29 29 29 29 29 29 29 29 29 29 29 29 29 29 29 29 29 29 29 29 29 29 29 29 29 29 29 29 29 29 29 29 29 29 29 29 29 29 29 29 29 29 29 29 29 29 29 29 29 29 29 29 29 29 29 29 29 29 29 29 29 29 29 29 29 29 29 29 29 29 29 29 29 29 29 29 29 29 29 29 29 29 29 29 29 29 29 29 29 29 29 29 29 29 29 29 29 29 29 29 29 29 29 29 29 29 29 29 29 29 29 29 29 29 29 29 29 29 29 29 29 29 29 29 29 29 29 29 29 29 29 29 29 29 29 29 29 29 29 29 29 29 29 29 29 29 29 29 29 29 29 29 29 29 29 29 29 29 29 29 29 29 29 29 29 29 29 29 29 29 29 29 29 29 29 29 

POINT_DATA 18785
SCALARS weights float 1
LOOKUP_TABLE default
0.072338 0.144676 0.144676 0.144676 0.144676 0.144676 0.144676 0.144676 0.144676 0.144676 0.144676 0.144676 0.144676 0.144676 0.144676 0.144676 0.144676 0.144676 0.144676 0.144676 0.144676 0.144676 0.144676 0.144676 0.144676 0.144676 0.144676 0.144676 0.144676 0.144676 0.144676 0.144676 0.072338 0.144676 0.289352 0.289352 0.289352 0.289352 0.289352 0.289352 0.289352 0.289352 0.289352 0.289352 0.289352 0.289352 0.289352 0.289352 0.289352 0.289352 0.289352 0.289352 0.289352 0.289352 0.289352 0.289352 0.289352 0.289352 0.289352 0.289352 0.289352 0.289352 0.289352 0.289352 0.289352 0.144676 0.144676 0.289352 0.289352 0.289352 0.289352 0.289352 0.289352 0.289352 0.289352 0.289352 0.289352 0.289352 0.289352 0.289352 0.289352 0.289352 0.289352 0.289352 0.289352 0.289352 0.289352 0.289352 0.289352 0.289352 0.289352 0.289352 0.289352 0.289352 0.289352 0.289352 0.289352 0.289352 0.144676 0.144676 0.289352 0.289352 0.289352 0.289352 0.289352 0.289352 0.289352 0.289352 0.289352 0.289352 0.289352 0.289352 0.289352 0.289352 0.289352 0.289352 0.289352 0.289352 0.289352 0.289352 0.289352 0.289352 0.289352 0.289352 0.289352 0.289352 0.289352 0.289352 0.289352 0.289352 0.289352 0.144676 0.144676 0.289352 0.289352 0.289352 0.289352 0.289352 0.289352 0.289352 0.289352 0.289352 0.289352 0.289352 0.289352 0.289352 0.289352 0.289352 0.289352 0.289352 0.289352 0.289352 0.289352 0.289352 0.289352 0.289352 0.289352 0.289352 0.289352 0.289352 0.289352 0.289352 0.289352 0.289352 0.144676 0.144676 0.289352 0.289352 0.289352 0.289352 0.289352 0.289352 0.289352 0.289352 0.289352 0.289352 0.289352 0.289352 0.289352 0.289352 0.289352 0.289352 0.289352 0.289352 0.289352 0.289352 0.289352 0.289352 0.289352 0.289352 0.289352 0.289352 0.289352 0.289352 0.289352 0.289352 0.289352 0.144676 0.144676 0.289352 0.289352 0.289352 0.289352 0.289352 0.289352 0.289352 0.289352 0.289352 0.289352 0.289352 0.289352 0.289352 0.289352 0.289352 0.289352 0.289352 0.289352 0.289352 0.289352 0.289352 0.289352 0.289352 0.289352 0.289352 0.289352 0.289352 0.289352 0.289352 0.289352 0.289352 0.144676 0.144676 0.289352 0.289352 0.289352 0.289352 0.289352 0.289352 0.289352 0.289352 0.289352 0.289352 0.289352 0.289352 0.289352 0.289352 0.289352 0.289352 0.289352 0.289352 0.289352 0.289352 0.289352 0.289352 0.289352 0.289352 0.289352 0.289352 0.289352 0.289352 0.289352 0.289352 0.289352 0.144676 0.072338 0.144676 0.144676 0.144676 0.144676 0.144676 0.144676 0.144676 0.144676 0.144676 0.144676 0.144676 0.144676 0.144676 0.144676 0.144676 0.144676 0.144676 0.144676 0.144676 0.144676 0.144676 0.144676 0.144676 0.144676 0.144676 0.144676 0.144676 0.144676 0.144676 0.144676 0.144676 0.072338 0.144676 0.289352 0.289352 0.289352 0.289352 0.289352 0.289352 0.289352 0.289352 0.289352 0.289352 0.289352 0.289352 0.289352 0.289352 0.289352 0.289352 0.289352 0.289352 0.289352 0.289352 0.289352 0.289352 0.289352 0.289352 0.289352 0.289352 0.289352 0.289352 0.289352 0.289352 0.289352 0.144676 0.289352 0.578704 0.578704 0.578704 0.578704 0.578704 0.578704 0.578704 0.578704 0.578704 0.578704 0.578704 0.578704 0.578704 0.578704 0.578704 0.578704 0.578704 0.578704 0.578703 0.578704 0.578704 0.578704 0.578704 0.578704 0.578703 0.578704 0.578704 0.578703 0.578703 0.578704 0.578704 0.289352 0.289352 0.578704 0.578704 0.578704 0.578704 0.578704 0.578704 0.578704 0.578704 0.578704 0.578704 0.578704 0.578704 0.578704 0.578704 0.578704 0.578704 0.578704 0.578704 0.578703 0.578704 0.578704 0.578704 0.578704 0.578704 0.578703 0.578704 0.578704 0.578703 0.578703 0.578704 0.578704 0.289352 0.289352 0.578704 0.578704 0.578704 0.578704 0.578704 0.578704 0.578704 0.578704 0.578704 0.578704 0.578704 0.578704 0.578704 0.578704 0.578704 0.578704 0.578704 0.578704 0.578703 0.578704 0.578704 0.578704 0.578704 0.578704 0.578703 0.578704 0.578704 0.578703 0.578703 0.578704 0.578704 0.289352 0.289352 0.578704 0.578704 0.578704 0.578704 0.578704 0.578704 0.578704 0.578704 0.578704 0.578704 0.578704 0.578704 0.578704 0.578704 0.578704 0.578704 0.578704 0.578703 0.578703 0.578704 0.578704 0.578704 0.578704 0.578704 0.578703 0.578704 0.578704 0.578703 0.578703 0.578704 0.578704 0.289352 0.289352 0.578704 0.578704 0.578704 0.578704 0.578704 0.578704 0.578704 0.578704 0.578704 0.578704 0.578704 0.578704 0.578704 0.578704 0.578704 0.578704 0.578704 0.578703 0.578703 0.578704 0.578704 0.578704 0.578704 0.578704 0.578703 0.578704 0.578704 0.578703 0.578703 0.578704 0.578704 0.289352 0.289352 0.578704 0.578704 0.578704 0.578704 0.578704 0.578704 0.578704 0.578704 0.578704 0.578704 0.578704 0.578704 0.578704 0.578704 0.578704 0.578704 0.578704 0.578704 0.578703 0.578704 0.578704 0.578704 0.578704 0.578704 0.578703 0.578704 0.578704 0.578703 0.578703 0.578704 0.578704 0.289352 0.289352 0.578704 0.578704 0.578704 0.578704 0.578704 0.578704 0.578704 0.578704 0.578704 0.578704 0.578704 0.578704 0.578704 0.578704 0.578704 0.578704 0.578704 0.578704 0.578703 0.578704 0.578704 0.578704 0.578704 0.578704 0.578703 0.578704 0.578704 0.578703 0.578703 0.578703 0.578704 0.289352 0.144676 0.289352 0.289352 0.289352 0.289352 0.289352 0.289352 0.289352 0.289352 0.289352 0.289352 0.289352 0.289352 0.289352 0.289352 0.289352 0.289352 0.289352 0.289352 0.289352 0.289352 0.289352 0.289352 0.289352 0.289352 0.289352 0.289352 0.289352 0.289351 0.289352 0.289352 0.289352 0.144676 0.144676 0.289352 0.289352 0.289352 0.289352 0.289352 0.289352 0.289352 0.289352 0.289352 0.289352 0.289352 0.289352 0.289352 0.289352 0.289352 0.289352 0.289352 0.289352 0.289352 0.289352 0.289352 0.289352 0.289352 0.289352 0.289352 0.289352 0.289352 0.289351 0.289352 0.289352 0.289352 0.144676 0.289352 0.578704 0.578704 0.578704 0.578704 0.578704 0.578704 0.578704 0.578704 0.578704 0.578703 0.578703 0.578704 0.578704 0.578703 0.578703 0.578704 0.578704 0.578703 0.578703 0.578703 0.578704 0.578703 0.578704 0.578703 0.578703 0.578704 0.578704 0.578703 0.578703 0.578703 0.578704 0.289352 0.289352 0.578704 0.578704 0.578704 0.578704 0.578704 0.578704 0.578704 0.578704 0.578704 0.578703 0.578703 0.578704 0.578704 0.578703 0.578703 0.578704 0.578703 0.578703 0.578703 0.578703 0.578704 0.578703 0.578704 0.578703 0.578703 0.578704 0.578704 0.578703 0.578703 0.578703 0.578704 0.289352 0.289352 0.578704 0.578704 0.578704 0.578703 0.578704 0.578704 0.578704 0.578704 0.578704 0.578703 0.578703 0.578704 0.578704 0.578703 0.578703 0.578704 0.578703 0.578703 0.578703 0.578703 0.578704 0.578703 0.578703 0.578703 0.578703 0.578704 0.578704 0.578703 0.578703 0.578703 0.578704 0.289352 0.289352 0.578704 0.578704 0.578704 0.578703 0.578704 0.578703 0.578703 0.578703 0.578703 0.578703 0.578703 0.578703 0.578704 0.578703 0.578703 0.578704 0.578703 0.578703 0.578703 0.578703 0.578704 0.578703 0.578703 0.578703 0.578703 0.578704 0.578704 0.578703 0.578703 0.578703 0.578703 0.289352 0.289352 0.578704 0.578704 0.578704 0.578703 0.578704 0.578704 0.578703 0.578703 0.578703 0.578703 0.578703 0.578704 0.578704 0.578704 0.578703 0.578704 0.578703 0.578703 0.578703 0.578703 0.578704 0.578703 0.578703 0.578703 0.578703 0.578704 0.578704 0.578703 0.578703 0.578703 0.578704 0.289352 0.289352 0.578704 0.578704 0.578704 0.578703 0.578704 0.578704 0.578704 0.578704 0.578704 0.578703 0.578704 0.578704 0.578704 0.578704 0.578704 0.578704 0.578704 0.578703 0.578703 0.578704 0.578704 0.578703 0.578704 0.578703 0.578703 0.578704 0.578704 0.578703 0.578703 0.578703 0.578704 0.289352 0.289352 0.578704 0.578704 0.578704 0.578703 0.578704 0.578704 0.578704 0.578704 0.578704 0.578703 0.578703 0.578704 0.578704 0.578703 0.578703 0.578704 0.578704 0.578703 0.578703 0.578703 0.578704 0.578703 0.578703 0.578703 0.578703 0.578704 0.578704 0.578703 0.578703 0.578703 0.578703 0.289352 0.144676 0.289352 0.289352 0.289352 0.289352 0.289352 0.289352 0.289352 0.289352 0.289352 0.289352 0.289352 0.289352 0.289352 0.289352 0.289352 0.289352 0.289352 0.289352 0.289352 0.289352 0.289352 0.289352 0.289352 0.289352 0.289352 0.289352 0.289352 0.289351 0.289352 0.289352 0.289352 0.144676 0.144676 0.289352 0.289352 0.289352 0.289352 0.289352 0.289352 0.289352 0.289352 0.289352 0.289352 0.289352 0.289352 0.289352 0.289352 0.289352 0.289352 0.289352 0.289352 0.289352 0.289352 0.289352 0.289352 0.289352 0.289352 0.289352 0.289352 0.289352 0.289351 0.289352 0.289352 0.289352 0.144676 0.289352 0.578704 0.578704 0.578704 0.578704 0.578704 0.578704 0.578704 0.578704 0.578704 0.578703 0.578704 0.578704 0.578704 0.578704 0.578704 0.578704 0.578703 0.578703 0.578703 0.578704 0.578704 0.578703 0.578704 0.578704 0.578703 0.578704 0.578704 0.578703 0.578703 0.578703 0.578704 0.289352 0.289352 0.578704 0.578704 0.578704 0.578704 0.578704 0.578704 0.578704 0.578704 0.578704 0.578703 0.578704 0.578704 0.578704 0.578704 0.578704 0.578704 0.578703 0.578703 0.578703 0.578703 0.578704 0.578703 0.578704 0.578704 0.578703 0.578704 0.578704 0.578703 0.578703 0.578703 0.578704 0.289352 0.289352 0.578704 0.578704 0.578704 0.578704 0.578704 0.578704 0.578704 0.578704 0.578704 0.578703 0.578704 0.578704 0.578704 0.578704 0.578704 0.578704 0.578703 0.578703 0.578703 0.578703 0.578704 0.578703 0.578704 0.578704 0.578703 0.578704 0.578704 0.578703 0.578703 0.578703 0.578704 0.289352 0.289352 0.578704 0.578704 0.578704 0.578704 0.578704 0.578704 0.578704 0.578704 0.578703 0.578703 0.578703 0.578703 0.578704 0.578704 0.578704 0.578704 0.578703 0.578703 0.578703 0.578703 0.578704 0.578703 0.578703 0.578703 0.578703 0.578704 0.578704 0.578703 0.578703 0.578703 0.578703 0.289352 0.289352 0.578704 0.578704 0.578704 0.578704 0.578704 0.578704 0.578704 0.578704 0.578704 0.578703 0.578704 0.578704 0.578704 0.578704 0.578703 0.578704 0.578703 0.578703 0.578703 0.578703 0.578704 0.578703 0.578704 0.578703 0.578703 0.578704 0.578704 0.578703 0.578703 0.578703 0.578704 0.289352 0.289352 0.578704 0.578704 0.578704 0.578704 0.578704 0.578704 0.578704 0.578704 0.578704 0.578703 0.578704 0.578704 0.578704 0.578704 0.578704 0.578704 0.578704 0.578703 0.578703 0.578703 0.578704 0.578703 0.578704 0.578704 0.578703 0.578704 0.578704 0.578703 0.578703 0.578703 0.578704 0.289352 0.289352 0.578704 0.578704 0.578704 0.578704 0.578704 0.578704 0.578704 0.578704 0.578704 0.578703 0.578703 0.578704 0.578704 0.578704 0.578704 0.578704 0.578703 0.578703 0.578703 0.578704 0.578704 0.578703 0.578704 0.578703 0.578703 0.578704 0.578704 0.578703 0.578703 0.578703 0.578704 0.289352 0.144676 0.289352 0.289352 0.289352 0.289352 0.289352 0.289352 0.289352 0.289352 0.289352 0.289352 0.289352 0.289352 0.289352 0.289352 0.289352 0.289352 0.289352 0.289352 0.289352 0.289352 0.289352 0.289352 0.289352 0.289352 0.289352 0.289352 0.289352 0.289351 0.289352 0.289352 0.289352 0.144676 0.144676 0.289352 0.289352 0.289352 0.289352 0.289352 0.289352 0.289352 0.289352 0.289352 0.289352 0.289352 0.289352 0.289352 0.289352 0.289352 0.289352 0.289352 0.289352 0.289352 0.289352 0.289352 0.289352 0.289352 0.289352 0.289352 0.289352 0.289352 0.289352 0.289352 0.289352 0.289352 0.144676 0.289352 0.578704 0.578704 0.578704 0.578704 0.578704 0.578704 0.578704 0.578704 0.578704 0.578703 0.578704 0.578704 0.578704 0.578704 0.578704 0.578704 0.578704 0.578703 0.578703 0.578704 0.578704 0.578704 0.578704 0.578704 0.578703 0.578704 0.578704 0.578703 0.578703 0.578704 0.578704 0.289352 0.289352 0.578704 0.578704 0.578704 0.578704 0.578704 0.578704 0.578704 0.578704 0.578704 0.578703 0.578704 0.578704 0.578704 0.578704 0.578704 0.578704 0.578704 0.578703 0.578703 0.578704 0.578704 0.578704 0.578704 0.578704 0.578703 0.578704 0.578704 0.578703 0.578703 0.578704 0.578704 0.289352 0.289352 0.578704 0.578704 0.578704 0.578704 0.578704 0.578704 0.578704 0.578704 0.578704 0.578703 0.578704 0.578704 0.578704 0.578704 0.578704 0.578704 0.578704 0.578703 0.578703 0.578704 0.578704 0.578703 0.578704 0.578704 0.578703 0.578704 0.578704 0.578703 0.578703 0.578703 0.578704 0.289352 0.289352 0.578704 0.578704 0.578704 0.578704 0.578704 0.578704 0.578704 0.578704 0.578704 0.578703 0.578704 0.578704 0.578704 0.578704 0.578704 0.578704 0.578704 0.578703 0.578703 0.578704 0.578704 0.578703 0.578704 0.578703 0.578703 0.578704 0.578704 0.578703 0.578703 0.578703 0.578704 0.289352 0.289352 0.578704 0.578704 0.578704 0.578704 0.578704 0.578704 0.578704 0.578704 0.578704 0.578703 0.578704 0.578704 0.578704 0.578704 0.578704 0.578704 0.578704 0.578703 0.578703 0.578704 0.578704 0.578703 0.578704 0.578704 0.578703 0.578704 0.578704 0.578703 0.578703 0.578703 0.578704 0.289352 0.289352 0.578704 0.578704 0.578704 0.578704 0.578704 0.578704 0.578704 0.578704 0.578704 0.578704 0.578704 0.578704 0.578704 0.578704 0.578704 0.578704 0.578704 0.578703 0.578703 0.578704 0.578704 0.578704 0.578704 0.578704 0.578703 0.578704 0.578704 0.578703 0.578703 0.578704 0.578704 0.289352 0.289352 0.578704 0.578704 0.578704 0.578704 0.578704 0.578704 0.578704 0.578704 0.578704 0.578703 0.578704 0.578704 0.578704 0.578704 0.578704 0.578704 0.578704 0.578703 0.578703 0.578704 0.578704 0.578703 0.578704 0.578704 0.578703 0.578704 0.578704 0.578703 0.578703 0.578704 0.578704 0.289352 0.144676 0.289352 0.289352 0.289352 0.289352 0.289352 0.289352 0.289352 0.289352 0.289352 0.289352 0.289352 0.289352 0.289352 0.289352 0.289352 0.289352 0.289352 0.289352 0.289352 0.289352 0.289352 0.289352 0.289352 0.289352 0.289352 0.289352 0.289352 0.289351 0.289352 0.289352 0.289352 0.144676 0.144676 0.289352 0.289352 0.289352 0.289352 0.289352 0.289352 0.289352 0.289352 0.289352 0.289352 0.289352 0.289352 0.289352 0.289352 0.289352 0.289352 0.289352 0.289352 0.289352 0.289352 0.289352 0.289352 0.289352 0.289352 0.289352 0.289352 0.289352 0.289352 0.289352 0.289352 0.289352 0.144676 0.289352 0.578704 0.578704 0.578704 0.578704 0.578704 0.578704 0.578704 0.578704 0.578704 0.578704 0.578704 0.578704 0.578704 0.578704 0.578704 0.578704 0.578704 0.578704 0.578704 0.578704 0.578704 0.578704 0.578704 0.578704 0.578704 0.578704 0.578704 0.578703 0.578704 0.578704 0.578704 0.289352 0.289352 0.578704 0.578704 0.578704 0.578704 0.578704 0.578704 0.578704 0.578704 0.578704 0.578704 0.578704 0.578704 0.578704 0.578704 0.578704 0.578704 0.578704 0.578704 0.578704 0.578704 0.578704 0.578704 0.578704 0.578704 0.578704 0.578704 0.578704 0.578703 0.578704 0.578704 0.578704 0.289352 0.289352 0.578704 0.578704 0.578704 0.578704 0.578704 0.578704 0.578704 0.578704 0.578704 0.578704 0.578704 0.578704 0.578704 0.578704 0.578704 0.578704 0.578704 0.578704 0.578704 0.578704 0.578704 0.578704 0.578704 0.578704 0.578704 0.578704 0.578704 0.578703 0.578704 0.578704 0.578704 0.289352 0.289352 0.578704 0.578704 0.578704 0.578704 0.578704 0.578704 0.578704 0.578704 0.578704 0.578704 0.578704 0.578704 0.578704 0.578704 0.578704 0.578704 0.578704 0.578704 0.578704 0.578704 0.578704 0.578704 0.578704 0.578704 0.578704 0.578704 0.578704 0.578703 0.578704 0.578704 0.578704 0.289352 0.289352 0.578704 0.578704 0.578704 0.578704 0.578704 0.578704 0.578704 0.578704 0.578704 0.578704 0.578704 0.578704 0.578704 0.578704 0.578704 0.578704 0.578704 0.578704 0.578704 0.578704 0.578704 0.578704 0.578704 0.578704 0.578704 0.578704 0.578704 0.578703 0.578704 0.578704 0.578704 0.289352 0.289352 0.578704 0.578704 0.578704 0.578704 0.578704 0.578704 0.578704 0.578704 0.578704 0.578704 0.578704 0.578704 0.578704 0.578704 0.578704 0.578704 0.578704 0.578704 0.578704 0.578704 0.578704 0.578704 0.578704 0.578704 0.578704 0.578704 0.578704 0.578703 0.578704 0.578704 0.578704 0.289352 0.289352 0.578704 0.578704 0.578704 0.578704 0.578704 0.578704 0.578704 0.578704 0.578704 0.578704 0.578704 0.578704 0.578704 0.578704 0.578704 0.578704 0.578704 0.578704 0.578704 0.578704 0.578704 0.578704 0.578704 0.578704 0.578704 0.578704 0.578704 0.578703 0.578704 0.578704 0.578704 0.289352 0.144676 0.289352 0.289352 0.289352 0.289352 0.289352 0.289352 0.289352 0.289352 0.289352 0.289352 0.289352 0.289352 0.289352 0.289352 0.289352 0.289352 0.289352 0.289352 0.289352 0.289352 0.289352 0.289352 0.289352 0.289352 0.289352 0.289352 0.289352 0.289352 0.289352 0.289352 0.289352 0.144676 0.144676 0.289352 0.289352 0.289352 0.289352 0.289352 0.289352 0.289352 0.289352 0.289352 0.289352 0.289352 0.289352 0.289352 0.289352 0.289352 0.289352 0.289352 0.289352 0.289352 0.289352 0.289352 0.289352 0.289352 0.289352 0.289352 0.289352 0.289352 0.289352 0.289352 0.289352 0.289352 0.144676 0.289352 0.578704 0.578704 0.578704 0.578704 0.578704 0.578704 0.578704 0.578704 0.578704 0.578704 0.578704 0.578704 0.578704 0.578704 0.578704 0.578704 0.578704 0.578704 0.578704 0.578704 0.578704 0.578704 0.578704 0.578704 0.578704 0.578705 0.578704 0.578704 0.578704 0.578704 0.578704 0.289352 0.289352 0.578704 0.578704 0.578704 0.578704 0.578704 0.578704 0.578704 0.578704 0.578704 0.578704 0.578704 0.578704 0.578704 0.578704 0.578704 0.578704 0.578704 0.578704 0.578704 0.578704 0.578704 0.578704 0.578704 0.578704 0.578704 0.578705 0.578704 0.578704 0.578704 0.578704 0.578704 0.289352 0.289352 0.578704 0.578704 0.578704 0.578704 0.578704 0.578704 0.578704 0.578704 0.578704 0.578704 0.578704 0.578704 0.578704 0.578704 0.578704 0.578704 0.578704 0.578704 0.578704 0.578704 0.578704 0.578704 0.578704 0.578704 0.578704 0.578704 0.578704 0.578703 0.578704 0.578704 0.578704 0.289352 0.289352 0.578704 0.578704 0.578704 0.578704 0.578704 0.578704 0.578704 0.578704 0.578704 0.578704 0.578704 0.578704 0.578704 0.578704 0.578704 0.578704 0.578704 0.578704 0.578704 0.578704 0.578704 0.578704 0.578704 0.578704 0.578704 0.578704 0.578704 0.578703 0.578704 0.578704 0.578704 0.289352 0.289352 0.578704 0.578704 0.578704 0.578704 0.578704 0.578704 0.578704 0.578704 0.578704 0.578704 0.578704 0.578704 0.578704 0.578704 0.578704 0.578704 0.578704 0.578704 0.578704 0.578704 0.578704 0.578704 0.578704 0.578704 0.578704 0.578704 0.578704 0.578703 0.578704 0.578704 0.578704 0.289352 0.289352 0.578704 0.578704 0.578704 0.578704 0.578704 0.578704 0.578704 0.578704 0.578704 0.578704 0.578704 0.578704 0.578704 0.578704 0.578704 0.578704 0.578704 0.578704 0.578704 0.578704 0.578704 0.578704 0.578704 0.578704 0.578704 0.578705 0.578704 0.578704 0.578704 0.578704 0.578704 0.289352 0.289352 0.578704 0.578704 0.578704 0.578704 0.578704 0.578704 0.578704 0.578704 0.578704 0.578704 0.578704 0.578704 0.578704 0.578704 0.578704 0.578704 0.578704 0.578704 0.578704 0.578704 0.578704 0.578704 0.578704 0.578704 0.578704 0.578704 0.578704 0.578703 0.578704 0.578704 0.578704 0.289352 0.144676 0.289352 0.289352 0.289352 0.289352 0.289352 0.289352 0.289352 0.289352 0.289352 0.289352 0.289352 0.289352 0.289352 0.289352 0.289352 0.289352 0.289352 0.289352 0.289352 0.289352 0.289352 0.289352 0.289352 0.289352 0.289352 0.289352 0.289352 0.289352 0.289352 0.289352 0.289352 0.144676 0.144676 0.289352 0.289352 0.289352 0.289352 0.289352 0.289352 0.289352 0.289352 0.289352 0.289352 0.289352 0.289352 0.289352 0.289352 0.289352 0.289352 0.289352 0.289352 0.289352 0.289352 0.289352 0.289352 0.289352 0.289352 0.289352 0.289352 0.289352 0.289351 0.289352 0.289352 0.289352 0.144676 0.289352 0.578704 0.578704 0.578703 0.578703 0.578703 0.578703 0.578703 0.578703 0.578703 0.578703 0.578703 0.578703 0.578704 0.578703 0.578703 0.578704 0.578703 0.578703 0.578703 0.578703 0.578704 0.578703 0.578703 0.578703 0.578703 0.578704 0.578704 0.578703 0.578703 0.578703 0.578703 0.289352 0.289352 0.578703 0.578703 0.578703 0.578703 0.578703 0.578703 0.578703 0.578703 0.578703 0.578703 0.578703 0.578703 0.578704 0.578703 0.578703 0.578704 0.578703 0.578703 0.578703 0.578703 0.578704 0.578703 0.578703 0.578703 0.578703 0.578704 0.578704 0.578703 0.578703 0.578703 0.578703 0.289352 0.289352 0.578704 0.578704 0.578703 0.578703 0.578703 0.578703 0.578703 0.578703 0.578703 0.578703 0.578703 0.578703 0.578703 0.578703 0.578703 0.578704 0.578703 0.578703 0.578703 0.578703 0.578704 0.578703 0.578703 0.578703 0.578703 0.578704 0.578704 0.578703 0.578703 0.578703 0.578703 0.289352 0.289352 0.578703 0.578703 0.578703 0.578703 0.578703 0.578703 0.578703 0.578703 0.578703 0.578703 0.578703 0.578703 0.578703 0.578703 0.578703 0.578703 0.578703 0.578703 0.578703 0.578703 0.578703 0.578703 0.578703 0.578703 0.578703 0.578704 0.578704 0.578703 0.578703 0.578703 0.578703 0.289352 0.289352 0.578703 0.578703 0.578703 0.578703 0.578703 0.578703 0.578703 0.578703 0.578703 0.578703 0.578703 0.578703 0.578704 0.578703 0.578703 0.578703 0.578703 0.578703 0.578703 0.578703 0.578704 0.578703 0.578703 0.578703 0.578703 0.578704 0.578704 0.578703 0.578703 0.578703 0.578703 0.289352 0.289352 0.578704 0.578704 0.578704 0.578703 0.578703 0.578704 0.578703 0.578703 0.578703 0.578703 0.578703 0.578703 0.578704 0.578703 0.578703 0.578704 0.578703 0.578703 0.578703 0.578703 0.578704 0.578703 0.578703 0.578703 0.578703 0.578704 0.578704 0.578703 0.578703 0.578703 0.578703 0.289352 0.289352 0.578704 0.578704 0.578703 0.578703 0.578703 0.578704 0.578703 0.578703 0.578703 0.578703 0.578703 0.578703 0.578703 0.578703 0.578703 0.578704 0.578703 0.578703 0.578703 0.578703 0.578703 0.578703 0.578703 0.578703 0.578703 0.578704 0.578704 0.578703 0.578703 0.578703 0.578703 0.289352 0.144676 0.289352 0.289352 0.289352 0.289352 0.289352 0.289352 0.289352 0.289352 0.289352 0.289352 0.289352 0.289352 0.289352 0.289352 0.289352 0.289352 0.289352 0.289352 0.289351 0.289352 0.289352 0.289352 0.289352 0.289352 0.289352 0.289352 0.289352 0.289351 0.289351 0.289352 0.289352 0.144676 0.0723379 0.144676 0.144676 0.144676 0.144676 0.144676 0.144676 0.144676 0.144676 0.144676 0.144676 0.144676 0.144676 0.144676 0.144676 0.144676 0.144676 0.144676 0.144676 0.144676 0.144676 0.144676 0.144676 0.144676 0.144676 0.144676 0.144676 0.144676 0.144676 0.144676 0.144676 0.144676 0.0723379 0.144676 0.289352 0.289352 0.289351 0.289351 0.289351 0.289351 0.289351 0.289352 0.289351 0.289351 0.289351 0.289351 0.289352 0.289351 0.289351 0.289352 0.289351 0.289351 0.289351 0.289351 0.289352 0.289351 0.289351 0.289351 0.289351 0.289352 0.289352 0.289351 0.289351 0.289351 0.289351 0.144676 0.144676 0.289352 0.289352 0.289351 0.289351 0.289351 0.289351 0.289351 0.289352 0.289351 0.289351 0.289351 0.289351 0.289352 0.289351 0.289351 0.289352 0.289351 0.289351 0.289351 0.289351 0.289352 0.289351 0.289351 0.289351 0.289351 0.289352 0.289352 0.289351 0.289351 0.289351 0.289351 0.144676 0.144676 0.289351 0.289352 0.289351 0.289351 0.289351 0.289351 0.289351 0.289351 0.289351 0.289351 0.289351 0.289351 0.289352 0.289351 0.289351 0.289352 0.289351 0.289351 0.289351 0.289351 0.289352 0.289351 0.289351 0.289351 0.289351 0.289352 0.289352 0.289351 0.289351 0.289351 0.289351 0.144676 0.144676 0.289351 0.289351 0.289351 0.289351 0.289351 0.289351 0.289351 0.289351 0.289351 0.289351 0.289351 0.289351 0.289352 0.289351 0.289351 0.289351 0.289351 0.289351 0.289351 0.289351 0.289351 0.289351 0.289351 0.289351 0.289351 0.289352 0.289352 0.289351 0.289351 0.289351 0.289351 0.144676 0.144676 0.289351 0.289352 0.289351 0.289351 0.289351 0.289351 0.289351 0.289351 0.289351 0.289351 0.289351 0.289351 0.289351 0.289351 0.289351 0.289351 0.289351 0.289351 0.289351 0.289351 0.289352 0.289351 0.289351 0.289351 0.289351 0.289352 0.289352 0.289351 0.289351 0.289351 0.289351 0.144676 0.144676 0.289352 0.289352 0.289352 0.289351 0.289352 0.289352 0.289351 0.289351 0.289351 0.289351 0.289351 0.289351 0.289352 0.289351 0.289351 0.289352 0.289351 0.289351 0.289351 0.289351 0.289352 0.289351 0.289351 0.289351 0.289351 0.289352 0.289352 0.289351 0.289351 0.289351 0.289351 0.144676 0.144676 0.289351 0.289352 0.289351 0.289351 0.289351 0.289351 0.289351 0.289351 0.289351 0.289351 0.289351 0.289351 0.289351 0.289351 0.289351 0.289352 0.289351 0.289351 0.289351 0.289351 0.289351 0.289351 0.289351 0.289351 0.289351 0.289352 0.289352 0.289351 0.289351 0.289351 0.289351 0.144676 0.0723379 0.144676 0.144676 0.144676 0.144676 0.144676 0.144676 0.144676 0.144676 0.144676 0.144676 0.144676 0.144676 0.144676 0.144676 0.144676 0.144676 0.144676 0.144676 0.144676 0.144676 0.144676 0.144676 0.144676 0.144676 0.144676 0.144676 0.144676 0.144676 0.144676 0.144676 0.144676 0.0723379 0.072338 0.144676 0.144676 0.072338 0.072338 0.144676 0.289352 0.144676 0.144676 0.289352 0.289352 0.144676 0.072338 0.072338 0.144676 0.144676 0.072338 0.144676 0.072338 0.072338 0.144676 0.144676 0.144676 0.289352 0.144676 0.289352 0.289352 0.072338 0.072338 0.144676 0.144676 0.144676 0.072338 0.072338 0.144676 0.144676 0.144676 0.289352 0.144676 0.289352 0.289352 0.072338 0.072338 0.144676 0.144676 0.144676 0.072338 0.072338 0.144676 0.144676 0.144676 0.289352 0.144676 0.289352 0.289352 0.072338 0.072338 0.144676 0.144676 0.144676 0.072338 0.072338 0.144676 0.144676 0.144676 0.289352 0.144676 0.289352 0.289352 0.072338 0.072338 0.144676 0.144676 0.144676 0.072338 0.072338 0.144676 0.144676 0.144676 0.289352 0.144676 0.289352 0.289352 0.072338 0.072338 0.144676 0.144676 0.144676 0.072338 0.072338 0.144676 0.144676 0.144676 0.289352 0.144676 0.289352 0.289352 0.072338 0.072338 0.144676 0.144676 0.144676 0.072338 0.072338 0.144676 0.144676 0.144676 0.289352 0.144676 0.289352 0.289352 0.072338 0.072338 0.144676 0.144676 0.144676 0.072338 0.072338 0.144676 0.144676 0.144676 0.289352 0.144676 0.289352 0.289352 0.072338 0.072338 0.144676 0.144676 0.144676 0.072338 0.072338 0.144676 0.144676 0.144676 0.289352 0.144676 0.289352 0.289352 0.072338 0.072338 0.144676 0.144676 0.144676 0.072338 0.072338 0.144676 0.144676 0.144676 0.289352 0.144676 0.289352 0.289352 0.072338 0.072338 0.144676 0.144676 0.144676 0.072338 0.072338 0.144676 0.144676 0.144676 0.289352 0.144676 0.289352 0.289352 0.072338 0.072338 0.144676 0.144676 0.144676 0.072338 0.072338 0.144676 0.144676 0.144676 0.289352 0.144676 0.289352 0.289352 0.072338 0.072338 0.144676 0.144676 0.144676 0.072338 0.072338 0.144676 0.144676 0.144676 0.289352 0.144676 0.289352 0.289352 0.072338 0.072338 0.144676 0.144676 0.144676 0.072338 0.0723379 0.144676 0.144676 0.144676 0.289352 0.144676 0.289352 0.289352 0.0723379 0.0723379 0.144676 0.144676 0.144676 0.0723379 0.072338 0.144676 0.144676 0.144676 0.289352 0.144676 0.289352 0.289352 0.072338 0.072338 0.144676 0.144676 0.144676 0.072338 0.072338 0.144676 0.144676 0.144676 0.289352 0.144676 0.289352 0.289352 0.072338 0.072338 0.144676 0.144676 0.144676 0.072338 0.072338 0.144676 0.144676 0.144676 0.289352 0.144676 0.289352 0.289352 0.072338 0.072338 0.144676 0.144676 0.144676 0.072338 0.072338 0.144676 0.144676 0.144676 0.289352 0.144676 0.289352 0.289352 0.072338 0.072338 0.144676 0.144676 0.144676 0.072338 0.0723379 0.144676 0.144676 0.144676 0.289352 0.144676 0.289352 0.289352 0.0723379 0.0723379 0.144676 0.144676 0.144676 0.0723379 0.072338 0.144676 0.144676 0.144676 0.289352 0.144676 0.289352 0.289352 0.072338 0.072338 0.144676 0.144676 0.144676 0.072338 0.072338 0.144676 0.144676 0.144676 0.289352 0.144676 0.289352 0.289352 0.072338 0.072338 0.144676 0.144676 0.144676 0.072338 0.072338 0.144676 0.144676 0.144676 0.289352 0.144676 0.289352 0.289352 0.072338 0.072338 0.144676 0.144676 0.144676 0.072338 0.072338 0.144676 0.144676 0.144676 0.289352 0.144676 0.289352 0.289352 0.072338 0.072338 0.144676 0.144676 0.144676 0.072338 0.0723379 0.144676 0.144676 0.144676 0.289352 0.144676 0.289352 0.289352 0.0723379 0.0723379 0.144676 0.144676 0.144676 0.0723379 0.072338 0.144676 0.144676 0.144676 0.289352 0.144676 0.289352 0.289352 0.072338 0.072338 0.144676 0.144676 0.144676 0.072338 0.0723381 0.144676 0.144676 0.144676 0.289352 0.144676 0.289352 0.289352 0.0723381 0.0723381 0.144676 0.144676 0.144676 0.0723381 0.0723379 0.144676 0.144676 0.144676 0.289352 0.144676 0.289352 0.289352 0.0723379 0.0723379 0.144676 0.144676 0.144676 0.0723379 0.0723379 0.144676 0.144676 0.144676 0.289352 0.144676 0.289352 0.289351 0.0723379 0.0723379 0.144676 0.144676 0.144676 0.0723379 0.072338 0.144676 0.144676 0.144676 0.289352 0.144676 0.289352 0.289352 0.072338 0.072338 0.144676 0.144676 0.144676 0.072338 0.0723379 0.144676 0.144676 0.144676 0.289352 0.144676 0.289352 0.289352 0.0723379 0.0723379 0.144676 0.144676 0.144676 0.0723379 0.072338 0.072338 0.144676 0.072338 0.144676 0.144676 0.144676 0.289352 0.072338 0.072338 0.072338 0.144676 0.144676 0.072338 0.072338 0.144676 0.289352 0.144676 0.144676 0.289352 0.289352 0.144676 0.072338 0.144676 0.144676 0.072338 0.144676 0.072338 0.144676 0.289352 0.144676 0.289352 0.289352 0.072338 0.144676 0.144676 0.144676 0.072338 0.144676 0.289352 0.144676 0.289352 0.289352 0.072338 0.144676 0.144676 0.144676 0.072338 0.144676 0.289352 0.144676 0.289352 0.289352 0.072338 0.144676 0.144676 0.144676 0.072338 0.144676 0.289352 0.144676 0.289352 0.289352 0.072338 0.144676 0.144676 0.144676 0.072338 0.144676 0.289352 0.144676 0.289352 0.289352 0.072338 0.144676 0.144676 0.144676 0.072338 0.144676 0.289352 0.144676 0.289352 0.289352 0.072338 0.144676 0.144676 0.144676 0.072338 0.144676 0.289352 0.144676 0.289352 0.289352 0.072338 0.144676 0.144676 0.144676 0.072338 0.144676 0.289352 0.144676 0.289352 0.289352 0.072338 0.144676 0.144676 0.144676 0.072338 0.144676 0.289352 0.144676 0.289352 0.289352 0.072338 0.144676 0.144676 0.144676 0.072338 0.144676 0.289352 0.144676 0.289352 0.289352 0.072338 0.144676 0.144676 0.144676 0.072338 0.144676 0.289352 0.144676 0.289352 0.289352 0.072338 0.144676 0.144676 0.144676 0.072338 0.144676 0.289352 0.144676 0.289352 0.289352 0.072338 0.144676 0.144676 0.144676 0.072338 0.144676 0.289352 0.144676 0.289352 0.289352 0.072338 0.144676 0.144676 0.144676 0.072338 0.144676 0.289352 0.144676 0.289352 0.289352 0.0723379 0.144676 0.144676 0.144676 0.0723379 0.144676 0.289352 0.144676 0.289352 0.289352 0.072338 0.144676 0.144676 0.144676 0.072338 0.144676 0.289352 0.144676 0.289352 0.289352 0.072338 0.144676 0.144676 0.144676 0.072338 0.144676 0.289352 0.144676 0.289352 0.289352 0.072338 0.144676 0.144676 0.144676 0.072338 0.144676 0.289352 0.144676 0.289352 0.289352 0.072338 0.144676 0.144676 0.144676 0.072338 0.144676 0.289352 0.144676 0.289352 0.289352 0.0723379 0.144676 0.144676 0.144676 0.0723379 0.144676 0.289352 0.144676 0.289352 0.289352 0.072338 0.144676 0.144676 0.144676 0.072338 0.144676 0.289352 0.144676 0.289352 0.289352 0.072338 0.144676 0.144676 0.144676 0.072338 0.144676 0.289352 0.144676 0.289352 0.289352 0.072338 0.144676 0.144676 0.144676 0.072338 0.144676 0.289352 0.144676 0.289352 0.289352 0.072338 0.144676 0.144676 0.144676 0.072338 0.144676 0.289352 0.144676 0.289352 0.289352 0.0723379 0.144676 0.144676 0.144676 0.0723379 0.144676 0.289352 0.144676 0.289352 0.289352 0.072338 0.144676 0.144676 0.144676 0.072338 0.144676 0.289352 0.144676 0.289352 0.289352 0.0723381 0.144676 0.144676 0.144676 0.0723381 0.144676 0.289352 0.144676 0.289352 0.289352 0.0723379 0.144676 0.144676 0.144676 0.0723379 0.144676 0.289352 0.144676 0.289352 0.289351 0.0723379 0.144676 0.144676 0.144676 0.0723379 0.144676 0.289352 0.144676 0.289352 0.289352 0.072338 0.144676 0.144676 0.144676 0.072338 0.144676 0.289352 0.144676 0.289352 0.289352 0.0723379 0.144676 0.144676 0.144676 0.0723379 0.072338 0.144676 0.144676 0.144676 0.289352 0.072338 0.072338 0.144676 0.144676 0.072338 0.072338 0.144676 0.289352 0.144676 0.144676 0.289352 0.289352 0.144676 0.072338 0.144676 0.144676 0.072338 0.144676 0.072338 0.144676 0.289352 0.144676 0.289352 0.289352 0.072338 0.144676 0.144676 0.144676 0.072338 0.144676 0.289352 0.144676 0.289352 0.289352 0.072338 0.144676 0.144676 0.144676 0.072338 0.144676 0.289352 0.144676 0.289352 0.289352 0.072338 0.144676 0.144676 0.144676 0.072338 0.144676 0.289352 0.144676 0.289352 0.289352 0.072338 0.144676 0.144676 0.144676 0.072338 0.144676 0.289352 0.144676 0.289352 0.289352 0.072338 0.144676 0.144676 0.144676 0.072338 0.144676 0.289352 0.144676 0.289352 0.289352 0.072338 0.144676 0.144676 0.144676 0.072338 0.144676 0.289352 0.144676 0.289352 0.289352 0.072338 0.144676 0.144676 0.144676 0.072338 0.144676 0.289352 0.144676 0.289352 0.289352 0.072338 0.144676 0.144676 0.144676 0.072338 0.144676 0.289352 0.144676 0.289352 0.289352 0.072338 0.144676 0.144676 0.144676 0.072338 0.144676 0.289352 0.144676 0.289352 0.289352 0.072338 0.144676 0.144676 0.144676 0.072338 0.144676 0.289352 0.144676 0.289352 0.289352 0.072338 0.144676 0.144676 0.144676 0.072338 0.144676 0.289352 0.144676 0.289352 0.289352 0.072338 0.144676 0.144676 0.144676 0.072338 0.144676 0.289352 0.144676 0.289352 0.289352 0.072338 0.144676 0.144676 0.144676 0.072338 0.144676 0.289352 0.144676 0.289352 0.289352 0.0723379 0.144676 0.144676 0.144676 0.0723379 0.144676 0.289352 0.144676 0.289352 0.289352 0.072338 0.144676 0.144676 0.144676 0.072338 0.144676 0.289352 0.144676 0.289352 0.289352 0.072338 0.144676 0.144676 0.144676 0.072338 0.144676 0.289352 0.144676 0.289352 0.289352 0.072338 0.144676 0.144676 0.144676 0.072338 0.144676 0.289352 0.144676 0.289352 0.289352 0.0723379 0.144676 0.144676 0.144676 0.0723379 0.144676 0.289352 0.144676 0.289352 0.289352 0.0723379 0.144676 0.144676 0.144676 0.0723379 0.144676 0.289352 0.144676 0.289352 0.289352 0.072338 0.144676 0.144676 0.144676 0.072338 0.144676 0.289352 0.144676 0.289352 0.289352 0.072338 0.144676 0.144676 0.144676 0.072338 0.144676 0.289352 0.144676 0.289352 0.289352 0.072338 0.144676 0.144676 0.144676 0.072338 0.144676 0.289352 0.144676 0.289352 0.289352 0.072338 0.144676 0.144676 0.144676 0.072338 0.144676 0.289352 0.144676 0.289352 0.289352 0.0723379 0.144676 0.144676 0.144676 0.0723379 0.144676 0.289352 0.144676 0.289352 0.289352 0.072338 0.144676 0.144676 0.144676 0.072338 0.144676 0.289352 0.144676 0.289352 0.289352 0.0723381 0.144676 0.144676 0.144676 0.0723381 0.144676 0.289352 0.144676 0.289352 0.289352 0.0723379 0.144676 0.144676 0.144676 0.0723379 0.144676 0.289352 0.144676 0.289352 0.289351 0.0723379 0.144676 0.144676 0.144676 0.0723379 0.144676 0.289352 0.144676 0.289352 0.289352 0.072338 0.144676 0.144676 0.144676 0.072338 0.144676 0.289352 0.144676 0.289352 0.289352 0.0723379 0.144676 0.144676 0.144676 0.0723379 0.072338 0.144676 0.144676 0.144676 0.289352 0.072338 0.072338 0.144676 0.144676 0.072338 0.072338 0.144676 0.289352 0.144676 0.144676 0.289352 0.289352 0.144676 0.072338 0.144676 0.144676 0.072338 0.144676 0.072338 0.144676 0.289352 0.144676 0.289352 0.289352 0.072338 0.144676 0.144676 0.144676 0.072338 0.144676 0.289352 0.144676 0.289352 0.289352 0.072338 0.144676 0.144676 0.144676 0.072338 0.144676 0.289352 0.144676 0.289352 0.289352 0.072338 0.144676 0.144676 0.144676 0.072338 0.144676 0.289352 0.144676 0.289352 0.289352 0.072338 0.144676 0.144676 0.144676 0.072338 0.144676 0.289352 0.144676 0.289352 0.289352 0.072338 0.144676 0.144676 0.144676 0.072338 0.144676 0.289352 0.144676 0.289352 0.289352 0.072338 0.144676 0.144676 0.144676 0.072338 0.144676 0.289352 0.144676 0.289352 0.289352 0.072338 0.144676 0.144676 0.144676 0.072338 0.144676 0.289352 0.144676 0.289352 0.289352 0.072338 0.144676 0.144676 0.144676 0.072338 0.144676 0.289352 0.144676 0.289352 0.289352 0.072338 0.144676 0.144676 0.144676 0.072338 0.144676 0.289352 0.144676 0.289352 0.289352 0.072338 0.144676 0.144676 0.144676 0.072338 0.144676 0.289352 0.144676 0.289352 0.289352 0.072338 0.144676 0.144676 0.144676 0.072338 0.144676 0.289352 0.144676 0.289352 0.289352 0.072338 0.144676 0.144676 0.144676 0.072338 0.144676 0.289352 0.144676 0.289352 0.289352 0.072338 0.144676 0.144676 0.144676 0.072338 0.144676 0.289352 0.144676 0.289352 0.289352 0.0723379 0.144676 0.144676 0.144676 0.0723379 0.144676 0.289352 0.144676 0.289352 0.289352 0.072338 0.144676 0.144676 0.144676 0.072338 0.144676 0.289352 0.144676 0.289352 0.289352 0.072338 0.144676 0.144676 0.144676 0.072338 0.144676 0.289352 0.144676 0.289352 0.289352 0.0723379 0.144676 0.144676 0.144676 0.0723379 0.144676 0.289352 0.144676 0.289352 0.289352 0.0723379 0.144676 0.144676 0.144676 0.0723379 0.144676 0.289352 0.144676 0.289352 0.289352 0.0723379 0.144676 0.144676 0.144676 0.0723379 0.144676 0.289352 0.144676 0.289352 0.289352 0.072338 0.144676 0.144676 0.144676 0.072338 0.144676 0.289352 0.144676 0.289352 0.289352 0.072338 0.144676 0.144676 0.144676 0.072338 0.144676 0.289352 0.144676 0.289352 0.289352 0.0723379 0.144676 0.144676 0.144676 0.0723379 0.144676 0.289352 0.144676 0.289352 0.289352 0.072338 0.144676 0.144676 0.144676 0.072338 0.144676 0.289352 0.144676 0.289352 0.289352 0.0723379 0.144676 0.144676 0.144676 0.0723379 0.144676 0.289352 0.144676 0.289352 0.289352 0.072338 0.144676 0.144676 0.144676 0.072338 0.144676 0.289352 0.144676 0.289352 0.289352 0.0723381 0.144676 0.144676 0.144676 0.0723381 0.144676 0.289351 0.144676 0.289352 0.289352 0.0723379 0.144676 0.144676 0.144676 0.0723379 0.144676 0.289352 0.144676 0.289352 0.289351 0.0723378 0.144676 0.144676 0.144676 0.0723378 0.144676 0.289352 0.144676 0.289352 0.289352 0.072338 0.144676 0.144676 0.144676 0.072338 0.144676 0.289352 0.144676 0.289352 0.289352 0.0723379 0.144676 0.144676 0.144676 0.0723379 0.072338 0.144676 0.144676 0.144676 0.289352 0.072338 0.072338 0.144676 0.144676 0.072338 0.072338 0.144676 0.289352 0.144676 0.144676 0.289352 0.289352 0.144676 0.072338 0.144676 0.144676 0.072338 0.144676 0.072338 0.144676 0.289352 0.144676 0.289352 0.289352 0.072338 0.144676 0.144676 0.144676 0.072338 0.144676 0.289352 0.144676 0.289352 0.289352 0.072338 0.144676 0.144676 0.144676 0.072338 0.144676 0.289352 0.144676 0.289352 0.289352 0.072338 0.144676 0.144676 0.144676 0.072338 0.144676 0.289352 0.144676 0.289352 0.289352 0.072338 0.144676 0.144676 0.144676 0.072338 0.144676 0.289352 0.144676 0.289352 0.289352 0.072338 0.144676 0.144676 0.144676 0.072338 0.144676 0.289352 0.144676 0.289352 0.289352 0.072338 0.144676 0.144676 0.144676 0.072338 0.144676 0.289352 0.144676 0.289352 0.289352 0.072338 0.144676 0.144676 0.144676 0.072338 0.144676 0.289352 0.144676 0.289352 0.289352 0.072338 0.144676 0.144676 0.144676 0.072338 0.144676 0.289352 0.144676 0.289352 0.289352 0.072338 0.144676 0.144676 0.144676 0.072338 0.144676 0.289352 0.144676 0.289352 0.289352 0.072338 0.144676 0.144676 0.144676 0.072338 0.144676 0.289352 0.144676 0.289352 0.289352 0.072338 0.144676 0.144676 0.144676 0.072338 0.144676 0.289352 0.144676 0.289352 0.289352 0.072338 0.144676 0.144676 0.144676 0.072338 0.144676 0.289352 0.144676 0.289352 0.289352 0.072338 0.144676 0.144676 0.144676 0.072338 0.144676 0.289352 0.144676 0.289352 0.289352 0.0723379 0.144676 0.144676 0.144676 0.0723379 0.144676 0.289352 0.144676 0.289352 0.289352 0.072338 0.144676 0.144676 0.144676 0.072338 0.144676 0.289352 0.144676 0.289352 0.289352 0.072338 0.144676 0.144676 0.144676 0.072338 0.144676 0.289352 0.144676 0.289352 0.289352 0.0723379 0.144676 0.144676 0.144676 0.0723379 0.144676 0.289352 0.144676 0.289352 0.289352 0.0723379 0.144676 0.144676 0.144676 0.0723379 0.144676 0.289352 0.144676 0.289352 0.289352 0.0723379 0.144676 0.144676 0.144676 0.0723379 0.144676 0.289352 0.144676 0.289352 0.289352 0.072338 0.144676 0.144676 0.144676 0.072338 0.144676 0.289352 0.144676 0.289352 0.289352 0.072338 0.144676 0.144676 0.144676 0.072338 0.144676 0.289352 0.144676 0.289352 0.289352 0.0723379 0.144676 0.144676 0.144676 0.0723379 0.144676 0.289352 0.144676 0.289352 0.289352 0.072338 0.144676 0.144676 0.144676 0.072338 0.144676 0.289352 0.144676 0.289352 0.289352 0.0723379 0.144676 0.144676 0.144676 0.0723379 0.144676 0.289352 0.144676 0.289352 0.289352 0.072338 0.144676 0.144676 0.144676 0.072338 0.144676 0.289352 0.144676 0.289352 0.289352 0.0723381 0.144676 0.144676 0.144676 0.0723381 0.144676 0.289351 0.144676 0.289352 0.289352 0.0723379 0.144676 0.144676 0.144676 0.0723379 0.144676 0.289352 0.144676 0.289352 0.289351 0.0723379 0.144676 0.144676 0.144676 0.0723379 0.144676 0.289352 0.144676 0.289352 0.289352 0.072338 0.144676 0.144676 0.144676 0.072338 0.144676 0.289352 0.144676 0.289352 0.289352 0.0723379 0.144676 0.144676 0.144676 0.0723379 0.072338 0.144676 0.144676 0.144676 0.289352 0.072338 0.072338 0.144676 0.144676 0.072338 0.072338 0.144676 0.289352 0.144676 0.144676 0.289352 0.289352 0.144676 0.072338 0.144676 0.144676 0.072338 0.144676 0.072338 0.144676 0.289352 0.144676 0.289352 0.289352 0.072338 0.144676 0.144676 0.144676 0.072338 0.144676 0.289352 0.144676 0.289352 0.289352 0.072338 0.144676 0.144676 0.144676 0.072338 0.144676 0.289352 0.144676 0.289352 0.289352 0.072338 0.144676 0.144676 0.144676 0.072338 0.144676 0.289352 0.144676 0.289352 0.289352 0.072338 0.144676 0.144676 0.144676 0.072338 0.144676 0.289352 0.144676 0.289352 0.289352 0.072338 0.144676 0.144676 0.144676 0.072338 0.144676 0.289352 0.144676 0.289352 0.289352 0.072338 0.144676 0.144676 0.144676 0.072338 0.144676 0.289352 0.144676 0.289352 0.289352 0.072338 0.144676 0.144676 0.144676 0.072338 0.144676 0.289352 0.144676 0.289352 0.289352 0.072338 0.144676 0.144676 0.144676 0.072338 0.144676 0.289352 0.144676 0.289352 0.289352 0.072338 0.144676 0.144676 0.144676 0.072338 0.144676 0.289352 0.144676 0.289352 0.289352 0.072338 0.144676 0.144676 0.144676 0.072338 0.144676 0.289352 0.144676 0.289352 0.289352 0.072338 0.144676 0.144676 0.144676 0.072338 0.144676 0.289352 0.144676 0.289352 0.289352 0.072338 0.144676 0.144676 0.144676 0.072338 0.144676 0.289352 0.144676 0.289352 0.289352 0.072338 0.144676 0.144676 0.144676 0.072338 0.144676 0.289352 0.144676 0.289352 0.289352 0.0723379 0.144676 0.144676 0.144676 0.0723379 0.144676 0.289352 0.144676 0.289352 0.289352 0.072338 0.144676 0.144676 0.144676 0.072338 0.144676 0.289352 0.144676 0.289352 0.289352 0.072338 0.144676 0.144676 0.144676 0.072338 0.144676 0.289352 0.144676 0.289352 0.289352 0.072338 0.144676 0.144676 0.144676 0.072338 0.144676 0.289352 0.144676 0.289352 0.289352 0.072338 0.144676 0.144676 0.144676 0.072338 0.144676 0.289352 0.144676 0.289352 0.289352 0.0723379 0.144676 0.144676 0.144676 0.0723379 0.144676 0.289352 0.144676 0.289352 0.289352 0.072338 0.144676 0.144676 0.144676 0.072338 0.144676 0.289352 0.144676 0.289352 0.289352 0.072338 0.144676 0.144676 0.144676 0.072338 0.144676 0.289352 0.144676 0.289352 0.289352 0.072338 0.144676 0.144676 0.144676 0.072338 0.144676 0.289352 0.144676 0.289352 0.289352 0.072338 0.144676 0.144676 0.144676 0.072338 0.144676 0.289352 0.144676 0.289352 0.289352 0.0723379 0.144676 0.144676 0.144676 0.0723379 0.144676 0.289352 0.144676 0.289352 0.289352 0.072338 0.144676 0.144676 0.144676 0.072338 0.144676 0.289352 0.144676 0.289352 0.289352 0.0723381 0.144676 0.144676 0.144676 0.0723381 0.144676 0.289352 0.144676 0.289352 0.289352 0.0723379 0.144676 0.144676 0.144676 0.0723379 0.144676 0.289352 0.144676 0.289352 0.289351 0.0723379 0.144676 0.144676 0.144676 0.0723379 0.144676 0.289352 0.144676 0.289352 0.289352 0.072338 0.144676 0.144676 0.144676 0.072338 0.144676 0.289352 0.144676 0.289352 0.289352 0.0723379 0.144676 0.144676 0.144676 0.0723379 0.072338 0.144676 0.144676 0.144676 0.289352 0.072338 0.072338 0.144676 0.144676 0.072338 0.072338 0.144676 0.289352 0.144676 0.144676 0.289352 0.289352 0.144676 0.072338 0.144676 0.144676 0.072338 0.144676 0.072338 0.144676 0.289352 0.144676 0.289352 0.289352 0.072338 0.144676 0.144676 0.144676 0.072338 0.144676 0.289352 0.144676 0.289352 0.289352 0.072338 0.144676 0.144676 0.144676 0.072338 0.144676 0.289352 0.144676 0.289352 0.289352 0.072338 0.144676 0.144676 0.144676 0.072338 0.144676 0.289352 0.144676 0.289352 0.289352 0.072338 0.144676 0.144676 0.144676 0.072338 0.144676 0.289352 0.144676 0.289352 0.289352 0.072338 0.144676 0.144676 0.144676 0.072338 0.144676 0.289352 0.144676 0.289352 0.289352 0.072338 0.144676 0.144676 0.144676 0.072338 0.144676 0.289352 0.144676 0.289352 0.289352 0.072338 0.144676 0.144676 0.144676 0.072338 0.144676 0.289352 0.144676 0.289352 0.289352 0.072338 0.144676 0.144676 0.144676 0.072338 0.144676 0.289352 0.144676 0.289352 0.289352 0.072338 0.144676 0.144676 0.144676 0.072338 0.144676 0.289352 0.144676 0.289352 0.289352 0.072338 0.144676 0.144676 0.144676 0.072338 0.144676 0.289352 0.144676 0.289352 0.289352 0.072338 0.144676 0.144676 0.144676 0.072338 0.144676 0.289352 0.144676 0.289352 0.289352 0.072338 0.144676 0.144676 0.144676 0.072338 0.144676 0.289352 0.144676 0.289352 0.289352 0.072338 0.144676 0.144676 0.144676 0.072338 0.144676 0.289352 0.144676 0.289352 0.289352 0.072338 0.144676 0.144676 0.144676 0.072338 0.144676 0.289352 0.144676 0.289352 0.289352 0.072338 0.144676 0.144676 0.144676 0.072338 0.144676 0.289352 0.144676 0.289352 0.289352 0.072338 0.144676 0.144676 0.144676 0.072338 0.144676 0.289352 0.144676 0.289352 0.289352 0.072338 0.144676 0.144676 0.144676 0.072338 0.144676 0.289352 0.144676 0.289352 0.289352 0.072338 0.144676 0.144676 0.144676 0.072338 0.144676 0.289352 0.144676 0.289352 0.289352 0.0723379 0.144676 0.144676 0.144676 0.0723379 0.144676 0.289352 0.144676 0.289352 0.289352 0.072338 0.144676 0.144676 0.144676 0.072338 0.144676 0.289352 0.144676 0.289352 0.289352 0.072338 0.144676 0.144676 0.144676 0.072338 0.144676 0.289352 0.144676 0.289352 0.289352 0.072338 0.144676 0.144676 0.144676 0.072338 0.144676 0.289352 0.144676 0.289352 0.289352 0.072338 0.144676 0.144676 0.144676 0.072338 0.144676 0.289352 0.144676 0.289352 0.289352 0.0723379 0.144676 0.144676 0.144676 0.0723379 0.144676 0.289352 0.144676 0.289352 0.289352 0.072338 0.144676 0.144676 0.144676 0.072338 0.144676 0.289352 0.144676 0.289352 0.289352 0.0723381 0.144676 0.144676 0.144676 0.0723381 0.144676 0.289352 0.144676 0.289352 0.289352 0.0723379 0.144676 0.144676 0.144676 0.0723379 0.144676 0.289352 0.144676 0.289352 0.289351 0.0723379 0.144676 0.144676 0.144676 0.0723379 0.144676 0.289352 0.144676 0.289352 0.289352 0.072338 0.144676 0.144676 0.144676 0.072338 0.144676 0.289352 0.144676 0.289352 0.289352 0.0723379 0.144676 0.144676 0.144676 0.0723379 0.072338 0.144676 0.144676 0.144676 0.289352 0.072338 0.072338 0.144676 0.144676 0.072338 0.072338 0.144676 0.289352 0.144676 0.072338 0.144676 0.144676 0.072338 0.072338 0.144676 0.144676 0.072338 0.072338 0.072338 0.144676 0.289352 0.072338 0.144676 0.144676 0.072338 0.144676 0.144676 0.072338 0.072338 0.144676 0.289352 0.072338 0.144676 0.144676 0.072338 0.144676 0.144676 0.072338 0.072338 0.144676 0.289352 0.072338 0.144676 0.144676 0.072338 0.144676 0.144676 0.072338 0.072338 0.144676 0.289352 0.072338 0.144676 0.144676 0.072338 0.144676 0.144676 0.072338 0.072338 0.144676 0.289352 0.072338 0.144676 0.144676 0.072338 0.144676 0.144676 0.072338 0.072338 0.144676 0.289352 0.072338 0.144676 0.144676 0.072338 0.144676 0.144676 0.072338 0.072338 0.144676 0.289352 0.072338 0.144676 0.144676 0.072338 0.144676 0.144676 0.072338 0.072338 0.144676 0.289352 0.072338 0.144676 0.144676 0.072338 0.144676 0.144676 0.072338 0.072338 0.144676 0.289352 0.0723379 0.144676 0.144676 0.0723379 0.144676 0.144676 0.0723379 0.0723379 0.144676 0.289352 0.0723379 0.144676 0.144676 0.0723379 0.144676 0.144676 0.0723379 0.0723379 0.144676 0.289352 0.072338 0.144676 0.144676 0.072338 0.144676 0.144676 0.072338 0.072338 0.144676 0.289352 0.072338 0.144676 0.144676 0.072338 0.144676 0.144676 0.072338 0.072338 0.144676 0.289352 0.072338 0.144676 0.144676 0.072338 0.144676 0.144676 0.072338 0.072338 0.144676 0.289352 0.0723379 0.144676 0.144676 0.0723379 0.144676 0.144676 0.0723379 0.0723379 0.144676 0.289352 0.072338 0.144676 0.144676 0.072338 0.144676 0.144676 0.072338 0.072338 0.144676 0.289352 0.072338 0.144676 0.144676 0.072338 0.144676 0.144676 0.072338 0.072338 0.144676 0.289352 0.0723379 0.144676 0.144676 0.0723379 0.144676 0.144676 0.0723379 0.0723379 0.144676 0.289352 0.0723379 0.144676 0.144676 0.0723379 0.144676 0.144676 0.0723379 0.0723379 0.144676 0.289352 0.0723379 0.144676 0.144676 0.0723379 0.144676 0.144676 0.0723379 0.0723379 0.144676 0.289352 0.072338 0.144676 0.144676 0.072338 0.144676 0.144676 0.072338 0.072338 0.144676 0.289352 0.072338 0.144676 0.144676 0.072338 0.144676 0.144676 0.072338 0.072338 0.144676 0.289352 0.0723379 0.144676 0.144676 0.0723379 0.144676 0.144676 0.0723379 0.0723379 0.144676 0.289352 0.072338 0.144676 0.144676 0.072338 0.144676 0.144676 0.072338 0.072338 0.144676 0.289352 0.0723379 0.144676 0.144676 0.0723379 0.144676 0.144676 0.0723379 0.0723379 0.144676 0.289352 0.072338 0.144676 0.144676 0.072338 0.144676 0.144676 0.072338 0.072338 0.144676 0.289352 0.0723381 0.144676 0.144676 0.0723381 0.144676 0.144676 0.0723381 0.0723381 0.144676 0.289351 0.0723379 0.144676 0.144676 0.0723379 0.144676 0.144676 0.0723379 0.0723379 0.144676 0.289352 0.0723378 0.144676 0.144676 0.0723378 0.144676 0.144676 0.0723378 0.0723378 0.144676 0.289352 0.072338 0.144676 0.144676 0.072338 0.144676 0.144676 0.072338 0.072338 0.144676 0.289352 0.0723379 0.144676 0.144676 0.0723379 0.144676 0.144676 0.0723379 0.0723379 0.072338 0.144676 0.072338 0.072338 0.144676 0.072338 0.072338 0.144676 0.072338 0.072338 0.144676 0.144676 0.072338 0.289352 0.144676 0.289352 0.289352 0.144676 0.072338 0.144676 0.144676 0.072338 0.144676 0.072338 0.144676 0.144676 0.289352 0.289352 0.289352 0.072338 0.144676 0.144676 0.144676 0.072338 0.144676 0.144676 0.289352 0.289352 0.289352 0.072338 0.144676 0.144676 0.144676 0.072338 0.144676 0.144676 0.289352 0.289352 0.289352 0.0723379 0.144676 0.144676 0.144676 0.0723379 0.144676 0.144676 0.289352 0.289352 0.289352 0.0723379 0.144676 0.144676 0.144676 0.0723379 0.144676 0.144676 0.289352 0.289352 0.289352 0.072338 0.144676 0.144676 0.144676 0.072338 0.144676 0.144676 0.289352 0.289352 0.289352 0.072338 0.144676 0.144676 0.144676 0.072338 0.144676 0.144676 0.289352 0.289352 0.289352 0.0723379 0.144676 0.144676 0.144676 0.0723379 0.144676 0.144676 0.289352 0.289352 0.289352 0.072338 0.144676 0.144676 0.144676 0.072338 0.144676 0.144676 0.289352 0.289352 0.289352 0.0723379 0.144676 0.144676 0.144676 0.0723379 0.144676 0.144676 0.289352 0.289352 0.289352 0.0723379 0.144676 0.144676 0.144676 0.0723379 0.144676 0.144676 0.289352 0.289352 0.289352 0.072338 0.144676 0.144676 0.144676 0.072338 0.144676 0.144676 0.289352 0.289352 0.289352 0.0723379 0.144676 0.144676 0.144676 0.0723379 0.144676 0.144676 0.289352 0.289352 0.289352 0.072338 0.144676 0.144676 0.144676 0.072338 0.144676 0.144676 0.289352 0.289352 0.289352 0.0723379 0.144676 0.144676 0.144676 0.0723379 0.144676 0.144676 0.289352 0.289352 0.289352 0.072338 0.144676 0.144676 0.144676 0.072338 0.144676 0.144676 0.289352 0.289352 0.289352 0.072338 0.144676 0.144676 0.144676 0.072338 0.144676 0.144676 0.289352 0.289352 0.289352 0.0723379 0.144676 0.144676 0.144676 0.0723379 0.144676 0.144676 0.289352 0.289352 0.289352 0.0723379 0.144676 0.144676 0.144676 0.0723379 0.144676 0.144676 0.289352 0.289352 0.289352 0.0723379 0.144676 0.144676 0.144676 0.0723379 0.144676 0.144676 0.289352 0.289352 0.289352 0.072338 0.144676 0.144676 0.144676 0.072338 0.144676 0.144676 0.289352 0.289352 0.289352 0.0723379 0.144676 0.144676 0.144676 0.0723379 0.144676 0.144676 0.289352 0.289352 0.289352 0.0723379 0.144676 0.144676 0.144676 0.0723379 0.144676 0.144676 0.289352 0.289352 0.289352 0.072338 0.144676 0.144676 0.144676 0.072338 0.144676 0.144676 0.289352 0.289352 0.289352 0.0723379 0.144676 0.144676 0.144676 0.0723379 0.144676 0.144676 0.289352 0.289352 0.289352 0.0723379 0.144676 0.144676 0.144676 0.0723379 0.144676 0.144676 0.289352 0.289352 0.289352 0.0723381 0.144676 0.144676 0.144676 0.0723381 0.144676 0.144676 0.289351 0.289351 0.289352 0.0723379 0.144676 0.144676 0.144676 0.0723379 0.144676 0.144676 0.289352 0.289352 0.289351 0.0723378 0.144676 0.144676 0.144676 0.0723378 0.144676 0.144676 0.289352 0.289352 0.289352 0.072338 0.144676 0.144676 0.144676 0.072338 0.144676 0.144676 0.289352 0.289352 0.289352 0.0723379 0.144676 0.144676 0.144676 0.0723379 0.072338 0.144676 0.144676 0.144676 0.289352 0.072338 0.072338 0.144676 0.144676 0.072338 0.289352 0.144676 0.289352 0.289352 0.144676 0.144676 0.144676 0.072338 0.144676 0.072338 0.289352 0.289352 0.289352 0.144676 0.144676 0.144676 0.072338 0.289352 0.289352 0.289352 0.144676 0.144676 0.144676 0.072338 0.289352 0.289352 0.289352 0.144676 0.144676 0.144676 0.0723379 0.289352 0.289352 0.289352 0.144676 0.144676 0.144676 0.0723379 0.289352 0.289352 0.289352 0.144676 0.144676 0.144676 0.072338 0.289352 0.289352 0.289352 0.144676 0.144676 0.144676 0.0723379 0.289352 0.289352 0.289352 0.144676 0.144676 0.144676 0.0723379 0.289352 0.289352 0.289352 0.144676 0.144676 0.144676 0.072338 0.289352 0.289352 0.289352 0.144676 0.144676 0.144676 0.0723379 0.289352 0.289352 0.289352 0.144676 0.144676 0.144676 0.0723379 0.289352 0.289352 0.289352 0.144676 0.144676 0.144676 0.072338 0.289352 0.289352 0.289352 0.144676 0.144676 0.144676 0.0723379 0.289352 0.289352 0.289352 0.144676 0.144676 0.144676 0.072338 0.289352 0.289352 0.289352 0.144676 0.144676 0.144676 0.0723379 0.289352 0.289352 0.289352 0.144676 0.144676 0.144676 0.072338 0.289352 0.289352 0.289352 0.144676 0.144676 0.144676 0.072338 0.289352 0.289352 0.289352 0.144676 0.144676 0.144676 0.0723379 0.289352 0.289352 0.289352 0.144676 0.144676 0.144676 0.0723379 0.289352 0.289352 0.289352 0.144676 0.144676 0.144676 0.0723379 0.289352 0.289352 0.289352 0.144676 0.144676 0.144676 0.072338 0.289352 0.289352 0.289352 0.144676 0.144676 0.144676 0.0723379 0.289352 0.289352 0.289352 0.144676 0.144676 0.144676 0.0723379 0.289352 0.289352 0.289352 0.144676 0.144676 0.144676 0.072338 0.289352 0.289352 0.289352 0.144676 0.144676 0.144676 0.0723379 0.289352 0.289352 0.289352 0.144676 0.144676 0.144676 0.0723379 0.289352 0.289352 0.289352 0.144676 0.144676 0.144676 0.072338 0.289351 0.289351 0.289352 0.144676 0.144676 0.144676 0.0723379 0.289352 0.289352 0.289351 0.144676 0.144676 0.144676 0.0723378 0.289352 0.289352 0.289352 0.144676 0.144676 0.144676 0.072338 0.289352 0.289352 0.289352 0.144676 0.144676 0.144676 0.0723379 0.144676 0.144676 0.289352 0.072338 0.144676 0.144676 0.072338 0.289352 0.144676 0.289352 0.289352 0.144676 0.144676 0.144676 0.072338 0.144676 0.072338 0.289352 0.289352 0.289352 0.144676 0.144676 0.144676 0.0723379 0.289352 0.289352 0.289352 0.144676 0.144676 0.144676 0.072338 0.289352 0.289352 0.289352 0.144676 0.144676 0.144676 0.0723379 0.289352 0.289352 0.289352 0.144676 0.144676 0.144676 0.0723379 0.289352 0.289352 0.289352 0.144676 0.144676 0.144676 0.072338 0.289352 0.289352 0.289352 0.144676 0.144676 0.144676 0.072338 0.289352 0.289352 0.289352 0.144676 0.144676 0.144676 0.0723379 0.289352 0.289352 0.289352 0.144676 0.144676 0.144676 0.072338 0.289352 0.289352 0.289352 0.144676 0.144676 0.144676 0.0723379 0.289352 0.289352 0.289352 0.144676 0.144676 0.144676 0.0723379 0.289352 0.289352 0.289352 0.144676 0.144676 0.144676 0.072338 0.289352 0.289352 0.289352 0.144676 0.144676 0.144676 0.0723379 0.289352 0.289352 0.289352 0.144676 0.144676 0.144676 0.072338 0.289352 0.289352 0.289352 0.144676 0.144676 0.144676 0.0723379 0.289352 0.289352 0.289352 0.144676 0.144676 0.144676 0.072338 0.289352 0.289352 0.289352 0.144676 0.144676 0.144676 0.072338 0.289352 0.289352 0.289352 0.144676 0.144676 0.144676 0.0723379 0.289352 0.289352 0.289352 0.144676 0.144676 0.144676 0.0723379 0.289352 0.289352 0.289352 0.144676 0.144676 0.144676 0.0723379 0.289352 0.289352 0.289352 0.144676 0.144676 0.144676 0.072338 0.289352 0.289352 0.289352 0.144676 0.144676 0.144676 0.0723379 0.289352 0.289352 0.289352 0.144676 0.144676 0.144676 0.0723379 0.289352 0.289352 0.289352 0.144676 0.144676 0.144676 0.072338 0.289352 0.289352 0.289352 0.144676 0.144676 0.144676 0.0723379 0.289352 0.289352 0.289352 0.144676 0.144676 0.144676 0.0723379 0.289352 0.289352 0.289352 0.144676 0.144676 0.144676 0.072338 0.289351 0.289351 0.289352 0.144676 0.144676 0.144676 0.0723379 0.289352 0.289352 0.289351 0.144676 0.144676 0.144676 0.0723378 0.289352 0.289352 0.289352 0.144676 0.144676 0.144676 0.072338 0.289352 0.289352 0.289352 0.144676 0.144676 0.144676 0.0723379 0.144676 0.144676 0.289352 0.072338 0.144676 0.144676 0.072338 0.289352 0.144676 0.289352 0.289352 0.144676 0.144676 0.144676 0.0723379 0.144676 0.0723379 0.289352 0.289352 0.289352 0.144676 0.144676 0.144676 0.0723379 0.289352 0.289352 0.289352 0.144676 0.144676 0.144676 0.0723379 0.289352 0.289352 0.289352 0.144676 0.144676 0.144676 0.0723379 0.289352 0.289352 0.289352 0.144676 0.144676 0.144676 0.0723379 0.289352 0.289352 0.289352 0.144676 0.144676 0.144676 0.0723379 0.289352 0.289352 0.289352 0.144676 0.144676 0.144676 0.0723379 0.289352 0.289352 0.289352 0.144676 0.144676 0.144676 0.0723379 0.289352 0.289352 0.289352 0.144676 0.144676 0.144676 0.0723379 0.289352 0.289352 0.289352 0.144676 0.144676 0.144676 0.0723379 0.289352 0.289352 0.289352 0.144676 0.144676 0.144676 0.0723379 0.289352 0.289352 0.289352 0.144676 0.144676 0.144676 0.0723379 0.289352 0.289352 0.289352 0.144676 0.144676 0.144676 0.0723379 0.289352 0.289352 0.289352 0.144676 0.144676 0.144676 0.072338 0.289352 0.289352 0.289352 0.144676 0.144676 0.144676 0.0723379 0.289352 0.289352 0.289352 0.144676 0.144676 0.144676 0.072338 0.289352 0.289352 0.289352 0.144676 0.144676 0.144676 0.0723379 0.289352 0.289352 0.289352 0.144676 0.144676 0.144676 0.0723379 0.289352 0.289352 0.289352 0.144676 0.144676 0.144676 0.0723379 0.289352 0.289352 0.289352 0.144676 0.144676 0.144676 0.0723379 0.289352 0.289352 0.289352 0.144676 0.144676 0.144676 0.072338 0.289352 0.289352 0.289352 0.144676 0.144676 0.144676 0.0723379 0.289352 0.289352 0.289352 0.144676 0.144676 0.144676 0.0723379 0.289352 0.289352 0.289352 0.144676 0.144676 0.144676 0.0723379 0.289352 0.289352 0.289352 0.144676 0.144676 0.144676 0.0723379 0.289352 0.289352 0.289352 0.144676 0.144676 0.144676 0.0723379 0.289352 0.289352 0.289352 0.144676 0.144676 0.144676 0.072338 0.289351 0.289351 0.289352 0.144676 0.144676 0.144676 0.0723379 0.289352 0.289352 0.289351 0.144676 0.144676 0.144676 0.0723378 0.289352 0.289352 0.289352 0.144676 0.144676 0.144676 0.072338 0.289352 0.289352 0.289352 0.144676 0.144676 0.144676 0.0723379 0.144676 0.144676 0.289352 0.072338 0.144676 0.144676 0.072338 0.289352 0.144676 0.289352 0.289352 0.144676 0.144676 0.144676 0.0723379 0.144676 0.0723379 0.289352 0.289352 0.289352 0.144676 0.144676 0.144676 0.0723379 0.289352 0.289352 0.289352 0.144676 0.144676 0.144676 0.0723379 0.289352 0.289352 0.289352 0.144676 0.144676 0.144676 0.0723379 0.289352 0.289352 0.289352 0.144676 0.144676 0.144676 0.0723379 0.289352 0.289352 0.289352 0.144676 0.144676 0.144676 0.0723379 0.289352 0.289352 0.289352 0.144676 0.144676 0.144676 0.0723379 0.289352 0.289352 0.289352 0.144676 0.144676 0.144676 0.0723379 0.289352 0.289352 0.289352 0.144676 0.144676 0.144676 0.0723379 0.289352 0.289352 0.289352 0.144676 0.144676 0.144676 0.0723379 0.289352 0.289352 0.289352 0.144676 0.144676 0.144676 0.0723379 0.289352 0.289352 0.289352 0.144676 0.144676 0.144676 0.0723379 0.289352 0.289352 0.289352 0.144676 0.144676 0.144676 0.0723379 0.289352 0.289352 0.289352 0.144676 0.144676 0.144676 0.072338 0.289352 0.289352 0.289352 0.144676 0.144676 0.144676 0.0723379 0.289352 0.289352 0.289352 0.144676 0.144676 0.144676 0.072338 0.289352 0.289352 0.289352 0.144676 0.144676 0.144676 0.0723379 0.289352 0.289352 0.289352 0.144676 0.144676 0.144676 0.0723379 0.289352 0.289352 0.289352 0.144676 0.144676 0.144676 0.0723379 0.289352 0.289352 0.289352 0.144676 0.144676 0.144676 0.0723379 0.289352 0.289352 0.289352 0.144676 0.144676 0.144676 0.072338 0.289352 0.289352 0.289352 0.144676 0.144676 0.144676 0.0723379 0.289352 0.289352 0.289352 0.144676 0.144676 0.144676 0.0723379 0.289352 0.289352 0.289352 0.144676 0.144676 0.144676 0.072338 0.289352 0.289352 0.289352 0.144676 0.144676 0.144676 0.0723379 0.289352 0.289352 0.289352 0.144676 0.144676 0.144676 0.0723379 0.289352 0.289352 0.289352 0.144676 0.144676 0.144676 0.072338 0.289351 0.289351 0.289352 0.144676 0.144676 0.144676 0.0723379 0.289352 0.289352 0.289351 0.144676 0.144676 0.144676 0.0723378 0.289352 0.289352 0.289352 0.144676 0.144676 0.144676 0.072338 0.289352 0.289352 0.289352 0.144676 0.144676 0.144676 0.0723379 0.144676 0.144676 0.289352 0.072338 0.144676 0.144676 0.072338 0.289352 0.144676 0.289352 0.289352 0.144676 0.144676 0.144676 0.0723379 0.144676 0.0723379 0.289352 0.289352 0.289352 0.144676 0.144676 0.144676 0.0723379 0.289352 0.289352 0.289352 0.144676 0.144676 0.144676 0.072338 0.289352 0.289352 0.289352 0.144676 0.144676 0.144676 0.0723379 0.289352 0.289352 0.289352 0.144676 0.144676 0.144676 0.0723379 0.289352 0.289352 0.289352 0.144676 0.144676 0.144676 0.0723379 0.289352 0.289352 0.289352 0.144676 0.144676 0.144676 0.0723379 0.289352 0.289352 0.289352 0.144676 0.144676 0.144676 0.0723379 0.289352 0.289352 0.289352 0.144676 0.144676 0.144676 0.0723379 0.289352 0.289352 0.289352 0.144676 0.144676 0.144676 0.0723379 0.289352 0.289352 0.289352 0.144676 0.144676 0.144676 0.0723379 0.289352 0.289352 0.289352 0.144676 0.144676 0.144676 0.0723379 0.289352 0.289352 0.289352 0.144676 0.144676 0.144676 0.0723379 0.289352 0.289352 0.289352 0.144676 0.144676 0.144676 0.072338 0.289352 0.289352 0.289352 0.144676 0.144676 0.144676 0.0723379 0.289352 0.289352 0.289352 0.144676 0.144676 0.144676 0.072338 0.289352 0.289352 0.289352 0.144676 0.144676 0.144676 0.0723379 0.289352 0.289352 0.289352 0.144676 0.144676 0.144676 0.0723379 0.289352 0.289352 0.289352 0.144676 0.144676 0.144676 0.0723379 0.289352 0.289352 0.289352 0.144676 0.144676 0.144676 0.0723379 0.289352 0.289352 0.289352 0.144676 0.144676 0.144676 0.072338 0.289352 0.289352 0.289352 0.144676 0.144676 0.144676 0.0723379 0.289352 0.289352 0.289352 0.144676 0.144676 0.144676 0.0723379 0.289352 0.289352 0.289352 0.144676 0.144676 0.144676 0.072338 0.289352 0.289352 0.289352 0.144676 0.144676 0.144676 0.0723379 0.289352 0.289352 0.289352 0.144676 0.144676 0.144676 0.0723379 0.289352 0.289352 0.289352 0.144676 0.144676 0.144676 0.0723381 0.289351 0.289351 0.289352 0.144676 0.144676 0.144676 0.0723379 0.289352 0.289352 0.289351 0.144676 0.144676 0.144676 0.0723378 0.289352 0.289352 0.289352 0.144676 0.144676 0.144676 0.072338 0.289352 0.289352 0.289352 0.144676 0.144676 0.144676 0.0723379 0.144676 0.144676 0.289352 0.072338 0.144676 0.144676 0.072338 0.289352 0.144676 0.289352 0.289352 0.144676 0.144676 0.144676 0.072338 0.144676 0.072338 0.289352 0.289352 0.289352 0.144676 0.144676 0.144676 0.072338 0.289352 0.289352 0.289352 0.144676 0.144676 0.144676 0.072338 0.289352 0.289352 0.289352 0.144676 0.144676 0.144676 0.0723379 0.289352 0.289352 0.289352 0.144676 0.144676 0.144676 0.0723379 0.289352 0.289352 0.289352 0.144676 0.144676 0.144676 0.072338 0.289352 0.289352 0.289352 0.144676 0.144676 0.144676 0.072338 0.289352 0.289352 0.289352 0.144676 0.144676 0.144676 0.0723379 0.289352 0.289352 0.289352 0.144676 0.144676 0.144676 0.072338 0.289352 0.289352 0.289352 0.144676 0.144676 0.144676 0.0723379 0.289352 0.289352 0.289352 0.144676 0.144676 0.144676 0.0723379 0.289352 0.289352 0.289352 0.144676 0.144676 0.144676 0.072338 0.289352 0.289352 0.289352 0.144676 0.144676 0.144676 0.0723379 0.289352 0.289352 0.289352 0.144676 0.144676 0.144676 0.072338 0.289352 0.289352 0.289352 0.144676 0.144676 0.144676 0.0723379 0.289352 0.289352 0.289352 0.144676 0.144676 0.144676 0.072338 0.289352 0.289352 0.289352 0.144676 0.144676 0.144676 0.072338 0.289352 0.289352 0.289352 0.144676 0.144676 0.144676 0.0723379 0.289352 0.289352 0.289352 0.144676 0.144676 0.144676 0.0723379 0.289352 0.289352 0.289352 0.144676 0.144676 0.144676 0.0723379 0.289352 0.289352 0.289352 0.144676 0.144676 0.144676 0.072338 0.289352 0.289352 0.289352 0.144676 0.144676 0.144676 0.0723379 0.289352 0.289352 0.289352 0.144676 0.144676 0.144676 0.0723379 0.289352 0.289352 0.289352 0.144676 0.144676 0.144676 0.072338 0.289352 0.289352 0.289352 0.144676 0.144676 0.144676 0.0723379 0.289352 0.289352 0.289352 0.144676 0.144676 0.144676 0.0723379 0.289352 0.289352 0.289352 0.144676 0.144676 0.144676 0.0723381 0.289351 0.289351 0.289352 0.144676 0.144676 0.144676 0.0723379 0.289352 0.289352 0.289351 0.144676 0.144676 0.144676 0.0723378 0.289352 0.289352 0.289352 0.144676 0.144676 0.144676 0.072338 0.289352 0.289352 0.289352 0.144676 0.144676 0.144676 0.0723379 0.144676 0.144676 0.289352 0.072338 0.144676 0.144676 0.072338 0.289352 0.144676 0.144676 0.144676 0.0723379 0.144676 0.144676 0.0723379 0.0723379 0.0723379 0.289352 0.144676 0.144676 0.144676 0.144676 0.0723379 0.0723379 0.289352 0.144676 0.144676 0.144676 0.144676 0.0723379 0.0723379 0.289352 0.144676 0.144676 0.144676 0.144676 0.0723379 0.0723379 0.289352 0.144676 0.144676 0.144676 0.144676 0.0723379 0.0723379 0.289352 0.144676 0.144676 0.144676 0.144676 0.0723379 0.0723379 0.289352 0.144676 0.144676 0.144676 0.144676 0.0723379 0.0723379 0.289352 0.144676 0.144676 0.144676 0.144676 0.0723379 0.0723379 0.289352 0.144676 0.144676 0.144676 0.144676 0.0723379 0.0723379 0.289352 0.144676 0.144676 0.144676 0.144676 0.0723379 0.0723379 0.289352 0.144676 0.144676 0.144676 0.144676 0.0723379 0.0723379 0.289352 0.144676 0.144676 0.144676 0.144676 0.0723379 0.0723379 0.289352 0.144676 0.144676 0.144676 0.144676 0.0723379 0.0723379 0.289352 0.144676 0.144676 0.144676 0.144676 0.072338 0.072338 0.289352 0.144676 0.144676 0.144676 0.144676 0.0723379 0.0723379 0.289352 0.144676 0.144676 0.144676 0.144676 0.0723379 0.0723379 0.289352 0.144676 0.144676 0.144676 0.144676 0.0723379 0.0723379 0.289352 0.144676 0.144676 0.144676 0.144676 0.0723379 0.0723379 0.289352 0.144676 0.144676 0.144676 0.144676 0.0723379 0.0723379 0.289352 0.144676 0.144676 0.144676 0.144676 0.0723379 0.0723379 0.289352 0.144676 0.144676 0.144676 0.144676 0.072338 0.072338 0.289352 0.144676 0.144676 0.144676 0.144676 0.0723379 0.0723379 0.289352 0.144676 0.144676 0.144676 0.144676 0.0723379 0.0723379 0.289352 0.144676 0.144676 0.144676 0.144676 0.0723379 0.0723379 0.289352 0.144676 0.144676 0.144676 0.144676 0.0723379 0.0723379 0.289352 0.144676 0.144676 0.144676 0.144676 0.0723379 0.0723379 0.289352 0.144676 0.144676 0.144676 0.144676 0.072338 0.072338 0.289351 0.144676 0.144676 0.144676 0.144676 0.0723379 0.0723379 0.289352 0.144676 0.144676 0.144676 0.144676 0.0723378 0.0723378 0.289352 0.144676 0.144676 0.144676 0.144676 0.0723379 0.0723379 0.289352 0.144676 0.144676 0.144676 0.144676 0.0723379 0.0723379 0.144676 0.072338 0.144676 0.072338 0.144676 0.072338 0.072338 0.144676 0.144676 0.072338 0.289352 0.144676 0.289352 0.289352 0.144676 0.072338 0.144676 0.144676 0.072338 0.144676 0.072338 0.144676 0.144676 0.289352 0.289352 0.289352 0.072338 0.144676 0.144676 0.144676 0.072338 0.144676 0.144676 0.289352 0.289352 0.289352 0.072338 0.144676 0.144676 0.144676 0.072338 0.144676 0.144676 0.289352 0.289352 0.289352 0.0723379 0.144676 0.144676 0.144676 0.0723379 0.144676 0.144676 0.289352 0.289352 0.289352 0.0723379 0.144676 0.144676 0.144676 0.0723379 0.144676 0.144676 0.289352 0.289352 0.289352 0.0723379 0.144676 0.144676 0.144676 0.0723379 0.144676 0.144676 0.289352 0.289352 0.289352 0.0723379 0.144676 0.144676 0.144676 0.0723379 0.144676 0.144676 0.289352 0.289352 0.289352 0.0723379 0.144676 0.144676 0.144676 0.0723379 0.144676 0.144676 0.289352 0.289352 0.289352 0.072338 0.144676 0.144676 0.144676 0.072338 0.144676 0.144676 0.289352 0.289352 0.289352 0.0723379 0.144676 0.144676 0.144676 0.0723379 0.144676 0.144676 0.289352 0.289352 0.289352 0.0723379 0.144676 0.144676 0.144676 0.0723379 0.144676 0.144676 0.289352 0.289352 0.289352 0.0723379 0.144676 0.144676 0.144676 0.0723379 0.144676 0.144676 0.289352 0.289352 0.289352 0.0723379 0.144676 0.144676 0.144676 0.0723379 0.144676 0.144676 0.289352 0.289352 0.289352 0.072338 0.144676 0.144676 0.144676 0.072338 0.144676 0.144676 0.289352 0.289352 0.289352 0.0723379 0.144676 0.144676 0.144676 0.0723379 0.144676 0.144676 0.289352 0.289352 0.289352 0.072338 0.144676 0.144676 0.144676 0.072338 0.144676 0.144676 0.289352 0.289352 0.289352 0.0723379 0.144676 0.144676 0.144676 0.0723379 0.144676 0.144676 0.289352 0.289352 0.289352 0.0723379 0.144676 0.144676 0.144676 0.0723379 0.144676 0.144676 0.289352 0.289352 0.289352 0.0723379 0.144676 0.144676 0.144676 0.0723379 0.144676 0.144676 0.289352 0.289352 0.289352 0.0723379 0.144676 0.144676 0.144676 0.0723379 0.144676 0.144676 0.289352 0.289352 0.289352 0.072338 0.144676 0.144676 0.144676 0.072338 0.144676 0.144676 0.289352 0.289352 0.289352 0.0723379 0.144676 0.144676 0.144676 0.0723379 0.144676 0.144676 0.289352 0.289352 0.289352 0.0723379 0.144676 0.144676 0.144676 0.0723379 0.144676 0.144676 0.289352 0.289352 0.289352 0.072338 0.144676 0.144676 0.144676 0.072338 0.144676 0.144676 0.289352 0.289352 0.289352 0.0723379 0.144676 0.144676 0.144676 0.0723379 0.144676 0.144676 0.289352 0.289352 0.289352 0.0723379 0.144676 0.144676 0.144676 0.0723379 0.144676 0.144676 0.289352 0.289352 0.289352 0.072338 0.144676 0.144676 0.144676 0.072338 0.144676 0.144676 0.289351 0.289351 0.289352 0.0723379 0.144676 0.144676 0.144676 0.0723379 0.144676 0.144676 0.289352 0.289352 0.289351 0.0723378 0.144676 0.144676 0.144676 0.0723378 0.144676 0.144676 0.289352 0.289352 0.289352 0.072338 0.144676 0.144676 0.144676 0.072338 0.144676 0.144676 0.289352 0.289352 0.289352 0.0723379 0.144676 0.144676 0.144676 0.0723379 0.072338 0.144676 0.144676 0.144676 0.289352 0.072338 0.072338 0.144676 0.144676 0.072338 0.289352 0.144676 0.289352 0.289352 0.144676 0.144676 0.144676 0.0723379 0.144676 0.0723379 0.289352 0.289352 0.289352 0.144676 0.144676 0.144676 0.0723379 0.289352 0.289352 0.289352 0.144676 0.144676 0.144676 0.072338 0.289352 0.289352 0.289352 0.144676 0.144676 0.144676 0.0723379 0.289352 0.289352 0.289352 0.144676 0.144676 0.144676 0.0723379 0.289352 0.289352 0.289352 0.144676 0.144676 0.144676 0.0723379 0.289352 0.289352 0.289352 0.144676 0.144676 0.144676 0.0723379 0.289352 0.289352 0.289352 0.144676 0.144676 0.144676 0.0723379 0.289352 0.289352 0.289352 0.144676 0.144676 0.144676 0.072338 0.289352 0.289352 0.289352 0.144676 0.144676 0.144676 0.0723379 0.289352 0.289352 0.289352 0.144676 0.144676 0.144676 0.0723379 0.289352 0.289352 0.289352 0.144676 0.144676 0.144676 0.0723379 0.289352 0.289352 0.289352 0.144676 0.144676 0.144676 0.0723379 0.289352 0.289352 0.289352 0.144676 0.144676 0.144676 0.072338 0.289352 0.289352 0.289352 0.144676 0.144676 0.144676 0.0723379 0.289352 0.289352 0.289352 0.144676 0.144676 0.144676 0.072338 0.289352 0.289352 0.289352 0.144676 0.144676 0.144676 0.0723379 0.289352 0.289352 0.289352 0.144676 0.144676 0.144676 0.0723379 0.289352 0.289352 0.289352 0.144676 0.144676 0.144676 0.0723379 0.289352 0.289352 0.289352 0.144676 0.144676 0.144676 0.0723379 0.289352 0.289352 0.289352 0.144676 0.144676 0.144676 0.072338 0.289352 0.289352 0.289352 0.144676 0.144676 0.144676 0.0723379 0.289352 0.289352 0.289352 0.144676 0.144676 0.144676 0.0723379 0.289352 0.289352 0.289352 0.144676 0.144676 0.144676 0.072338 0.289352 0.289352 0.289352 0.144676 0.144676 0.144676 0.0723379 0.289352 0.289352 0.289352 0.144676 0.144676 0.144676 0.0723379 0.289352 0.289352 0.289352 0.144676 0.144676 0.144676 0.072338 0.289351 0.289351 0.289352 0.144676 0.144676 0.144676 0.0723379 0.289352 0.289352 0.289351 0.144676 0.144676 0.144676 0.0723378 0.289352 0.289352 0.289352 0.144676 0.144676 0.144676 0.0723379 0.289352 0.289352 0.289352 0.144676 0.144676 0.144676 0.0723379 0.144676 0.144676 0.289352 0.072338 0.144676 0.144676 0.072338 0.289352 0.144676 0.289352 0.289352 0.144676 0.144676 0.144676 0.072338 0.144676 0.072338 0.289352 0.289352 0.289352 0.144676 0.144676 0.144676 0.072338 0.289352 0.289352 0.289352 0.144676 0.144676 0.144676 0.072338 0.289352 0.289352 0.289352 0.144676 0.144676 0.144676 0.0723379 0.289352 0.289352 0.289352 0.144676 0.144676 0.144676 0.0723379 0.289352 0.289352 0.289352 0.144676 0.144676 0.144676 0.072338 0.289352 0.289352 0.289352 0.144676 0.144676 0.144676 0.0723379 0.289352 0.289352 0.289352 0.144676 0.144676 0.144676 0.0723379 0.289352 0.289352 0.289352 0.144676 0.144676 0.144676 0.072338 0.289352 0.289352 0.289352 0.144676 0.144676 0.144676 0.0723379 0.289352 0.289352 0.289352 0.144676 0.144676 0.144676 0.0723379 0.289352 0.289352 0.289352 0.144676 0.144676 0.144676 0.0723379 0.289352 0.289352 0.289352 0.144676 0.144676 0.144676 0.0723379 0.289352 0.289352 0.289352 0.144676 0.144676 0.144676 0.072338 0.289352 0.289352 0.289352 0.144676 0.144676 0.144676 0.0723379 0.289352 0.289352 0.289352 0.144676 0.144676 0.144676 0.072338 0.289352 0.289352 0.289352 0.144676 0.144676 0.144676 0.0723379 0.289352 0.289352 0.289352 0.144676 0.144676 0.144676 0.0723379 0.289352 0.289352 0.289352 0.144676 0.144676 0.144676 0.0723379 0.289352 0.289352 0.289352 0.144676 0.144676 0.144676 0.0723379 0.289352 0.289352 0.289352 0.144676 0.144676 0.144676 0.072338 0.289352 0.289352 0.289352 0.144676 0.144676 0.144676 0.0723379 0.289352 0.289352 0.289352 0.144676 0.144676 0.144676 0.0723379 0.289352 0.289352 0.289352 0.144676 0.144676 0.144676 0.072338 0.289352 0.289352 0.289352 0.144676 0.144676 0.144676 0.0723379 0.289352 0.289352 0.289352 0.144676 0.144676 0.144676 0.0723379 0.289352 0.289352 0.289352 0.144676 0.144676 0.144676 0.072338 0.289351 0.289351 0.289352 0.144676 0.144676 0.144676 0.0723379 0.289352 0.289352 0.289351 0.144676 0.144676 0.144676 0.0723378 0.289352 0.289352 0.289352 0.144676 0.144676 0.144676 0.072338 0.289352 0.289352 0.289352 0.144676 0.144676 0.144676 0.0723379 0.144676 0.144676 0.289352 0.072338 0.144676 0.144676 0.072338 0.289352 0.144676 0.289352 0.289352 0.144676 0.144676 0.144676 0.0723379 0.144676 0.0723379 0.289352 0.289352 0.289352 0.144676 0.144676 0.144676 0.0723379 0.289352 0.289352 0.289352 0.144676 0.144676 0.144676 0.0723379 0.289352 0.289352 0.289352 0.144676 0.144676 0.144676 0.0723379 0.289352 0.289352 0.289352 0.144676 0.144676 0.144676 0.0723379 0.289352 0.289352 0.289352 0.144676 0.144676 0.144676 0.0723379 0.289352 0.289352 0.289352 0.144676 0.144676 0.144676 0.0723379 0.289352 0.289352 0.289352 0.144676 0.144676 0.144676 0.0723379 0.289352 0.289352 0.289352 0.144676 0.144676 0.144676 0.0723379 0.289352 0.289352 0.289352 0.144676 0.144676 0.144676 0.0723379 0.289352 0.289352 0.289352 0.144676 0.144676 0.144676 0.0723379 0.289352 0.289352 0.289352 0.144676 0.144676 0.144676 0.0723379 0.289352 0.289352 0.289352 0.144676 0.144676 0.144676 0.0723379 0.289352 0.289352 0.289352 0.144676 0.144676 0.144676 0.072338 0.289352 0.289352 0.289352 0.144676 0.144676 0.144676 0.0723379 0.289352 0.289352 0.289352 0.144676 0.144676 0.144676 0.072338 0.289352 0.289352 0.289352 0.144676 0.144676 0.144676 0.0723379 0.289352 0.289352 0.289352 0.144676 0.144676 0.144676 0.0723379 0.289352 0.289352 0.289352 0.144676 0.144676 0.144676 0.0723379 0.289352 0.289352 0.289352 0.144676 0.144676 0.144676 0.0723379 0.289352 0.289352 0.289352 0.144676 0.144676 0.144676 0.072338 0.289352 0.289352 0.289352 0.144676 0.144676 0.144676 0.0723379 0.289352 0.289352 0.289352 0.144676 0.144676 0.144676 0.0723379 0.289352 0.289352 0.289352 0.144676 0.144676 0.144676 0.0723379 0.289352 0.289352 0.289352 0.144676 0.144676 0.144676 0.0723379 0.289352 0.289352 0.289352 0.144676 0.144676 0.144676 0.0723379 0.289352 0.289352 0.289352 0.144676 0.144676 0.144676 0.072338 0.289351 0.289351 0.289352 0.144676 0.144676 0.144676 0.0723379 0.289352 0.289352 0.289351 0.144676 0.144676 0.144676 0.0723378 0.289352 0.289352 0.289352 0.144676 0.144676 0.144676 0.0723379 0.289352 0.289352 0.289352 0.144676 0.144676 0.144676 0.0723379 0.144676 0.144676 0.289352 0.072338 0.144676 0.144676 0.072338 0.289352 0.144676 0.289352 0.289352 0.144676 0.144676 0.144676 0.0723379 0.144676 0.0723379 0.289352 0.289352 0.289352 0.144676 0.144676 0.144676 0.0723379 0.289352 0.289352 0.289352 0.144676 0.144676 0.144676 0.0723379 0.289352 0.289352 0.289352 0.144676 0.144676 0.144676 0.0723379 0.289352 0.289352 0.289352 0.144676 0.144676 0.144676 0.0723379 0.289352 0.289352 0.289352 0.144676 0.144676 0.144676 0.0723379 0.289352 0.289352 0.289352 0.144676 0.144676 0.144676 0.0723379 0.289352 0.289352 0.289352 0.144676 0.144676 0.144676 0.0723379 0.289352 0.289352 0.289352 0.144676 0.144676 0.144676 0.0723379 0.289352 0.289352 0.289352 0.144676 0.144676 0.144676 0.0723379 0.289352 0.289352 0.289352 0.144676 0.144676 0.144676 0.0723379 0.289352 0.289352 0.289352 0.144676 0.144676 0.144676 0.0723379 0.289352 0.289352 0.289352 0.144676 0.144676 0.144676 0.0723379 0.289352 0.289352 0.289352 0.144676 0.144676 0.144676 0.072338 0.289352 0.289352 0.289352 0.144676 0.144676 0.144676 0.0723379 0.289352 0.289352 0.289352 0.144676 0.144676 0.144676 0.072338 0.289352 0.289352 0.289352 0.144676 0.144676 0.144676 0.0723379 0.289352 0.289352 0.289352 0.144676 0.144676 0.144676 0.0723379 0.289352 0.289352 0.289352 0.144676 0.144676 0.144676 0.0723379 0.289352 0.289352 0.289352 0.144676 0.144676 0.144676 0.0723379 0.289352 0.289352 0.289352 0.144676 0.144676 0.144676 0.072338 0.289352 0.289352 0.289352 0.144676 0.144676 0.144676 0.0723379 0.289352 0.289352 0.289352 0.144676 0.144676 0.144676 0.0723379 0.289352 0.289352 0.289352 0.144676 0.144676 0.144676 0.0723379 0.289352 0.289352 0.289352 0.144676 0.144676 0.144676 0.0723379 0.289352 0.289352 0.289352 0.144676 0.144676 0.144676 0.0723379 0.289352 0.289352 0.289352 0.144676 0.144676 0.144676 0.072338 0.289351 0.289351 0.289352 0.144676 0.144676 0.144676 0.0723379 0.289352 0.289352 0.289351 0.144676 0.144676 0.144676 0.0723378 0.289352 0.289352 0.289352 0.144676 0.144676 0.144676 0.0723379 0.289352 0.289352 0.289352 0.144676 0.144676 0.144676 0.0723379 0.144676 0.144676 0.289352 0.072338 0.144676 0.144676 0.072338 0.289352 0.144676 0.289352 0.289352 0.144676 0.144676 0.144676 0.0723379 0.144676 0.0723379 0.289352 0.289352 0.289352 0.144676 0.144676 0.144676 0.072338 0.289352 0.289352 0.289352 0.144676 0.144676 0.144676 0.072338 0.289352 0.289352 0.289352 0.144676 0.144676 0.144676 0.0723379 0.289352 0.289352 0.289352 0.144676 0.144676 0.144676 0.0723379 0.289352 0.289352 0.289352 0.144676 0.144676 0.144676 0.0723379 0.289352 0.289352 0.289352 0.144676 0.144676 0.144676 0.072338 0.289352 0.289352 0.289352 0.144676 0.144676 0.144676 0.0723379 0.289352 0.289352 0.289352 0.144676 0.144676 0.144676 0.0723379 0.289352 0.289352 0.289352 0.144676 0.144676 0.144676 0.0723379 0.289352 0.289352 0.289352 0.144676 0.144676 0.144676 0.0723379 0.289352 0.289352 0.289352 0.144676 0.144676 0.144676 0.0723379 0.289352 0.289352 0.289352 0.144676 0.144676 0.144676 0.0723379 0.289352 0.289352 0.289352 0.144676 0.144676 0.144676 0.072338 0.289352 0.289352 0.289352 0.144676 0.144676 0.144676 0.0723379 0.289352 0.289352 0.289352 0.144676 0.144676 0.144676 0.072338 0.289352 0.289352 0.289352 0.144676 0.144676 0.144676 0.0723379 0.289352 0.289352 0.289352 0.144676 0.144676 0.144676 0.0723379 0.289352 0.289352 0.289352 0.144676 0.144676 0.144676 0.0723379 0.289352 0.289352 0.289352 0.144676 0.144676 0.144676 0.0723379 0.289352 0.289352 0.289352 0.144676 0.144676 0.144676 0.072338 0.289352 0.289352 0.289352 0.144676 0.144676 0.144676 0.0723379 0.289352 0.289352 0.289352 0.144676 0.144676 0.144676 0.0723379 0.289352 0.289352 0.289352 0.144676 0.144676 0.144676 0.072338 0.289352 0.289352 0.289352 0.144676 0.144676 0.144676 0.0723379 0.289352 0.289352 0.289352 0.144676 0.144676 0.144676 0.0723379 0.289352 0.289352 0.289352 0.144676 0.144676 0.144676 0.0723381 0.289351 0.289351 0.289352 0.144676 0.144676 0.144676 0.0723379 0.289352 0.289352 0.289351 0.144676 0.144676 0.144676 0.0723378 0.289352 0.289352 0.289352 0.144676 0.144676 0.144676 0.0723379 0.289352 0.289352 0.289352 0.144676 0.144676 0.144676 0.0723379 0.144676 0.144676 0.289352 0.072338 0.144676 0.144676 0.072338 0.289352 0.144676 0.289352 0.289352 0.144676 0.144676 0.144676 0.072338 0.144676 0.072338 0.289352 0.289352 0.289352 0.144676 0.144676 0.144676 0.072338 0.289352 0.289352 0.289352 0.144676 0.144676 0.144676 0.072338 0.289352 0.289352 0.289352 0.144676 0.144676 0.144676 0.0723379 0.289352 0.289352 0.289352 0.144676 0.144676 0.144676 0.0723379 0.289352 0.289352 0.289352 0.144676 0.144676 0.144676 0.072338 0.289352 0.289352 0.289352 0.144676 0.144676 0.144676 0.0723379 0.289352 0.289352 0.289352 0.144676 0.144676 0.144676 0.0723379 0.289352 0.289352 0.289352 0.144676 0.144676 0.144676 0.0723379 0.289352 0.289352 0.289352 0.144676 0.144676 0.144676 0.0723379 0.289352 0.289352 0.289352 0.144676 0.144676 0.144676 0.0723379 0.289352 0.289352 0.289352 0.144676 0.144676 0.144676 0.0723379 0.289352 0.289352 0.289352 0.144676 0.144676 0.144676 0.0723379 0.289352 0.289352 0.289352 0.144676 0.144676 0.144676 0.072338 0.289352 0.289352 0.289352 0.144676 0.144676 0.144676 0.0723379 0.289352 0.289352 0.289352 0.144676 0.144676 0.144676 0.072338 0.289352 0.289352 0.289352 0.144676 0.144676 0.144676 0.072338 0.289352 0.289352 0.289352 0.144676 0.144676 0.144676 0.0723379 0.289352 0.289352 0.289352 0.144676 0.144676 0.144676 0.0723379 0.289352 0.289352 0.289352 0.144676 0.144676 0.144676 0.0723379 0.289352 0.289352 0.289352 0.144676 0.144676 0.144676 0.072338 0.289352 0.289352 0.289352 0.144676 0.144676 0.144676 0.0723379 0.289352 0.289352 0.289352 0.144676 0.144676 0.144676 0.0723379 0.289352 0.289352 0.289352 0.144676 0.144676 0.144676 0.072338 0.289352 0.289352 0.289352 0.144676 0.144676 0.144676 0.0723379 0.289352 0.289352 0.289352 0.144676 0.144676 0.144676 0.0723379 0.289352 0.289352 0.289352 0.144676 0.144676 0.144676 0.0723381 0.289351 0.289351 0.289352 0.144676 0.144676 0.144676 0.0723379 0.289352 0.289352 0.289351 0.144676 0.144676 0.144676 0.0723378 0.289352 0.289352 0.289352 0.144676 0.144676 0.144676 0.072338 0.289352 0.289352 0.289352 0.144676 0.144676 0.144676 0.0723379 0.144676 0.144676 0.289352 0.072338 0.144676 0.144676 0.072338 0.289352 0.144676 0.144676 0.144676 0.0723379 0.144676 0.144676 0.0723379 0.0723379 0.0723379 0.289352 0.144676 0.144676 0.144676 0.144676 0.0723379 0.0723379 0.289352 0.144676 0.144676 0.144676 0.144676 0.0723379 0.0723379 0.289352 0.144676 0.144676 0.144676 0.144676 0.0723379 0.0723379 0.289352 0.144676 0.144676 0.144676 0.144676 0.0723379 0.0723379 0.289352 0.144676 0.144676 0.144676 0.144676 0.0723379 0.0723379 0.289352 0.144676 0.144676 0.144676 0.144676 0.0723379 0.0723379 0.289352 0.144676 0.144676 0.144676 0.144676 0.0723379 0.0723379 0.289352 0.144676 0.144676 0.144676 0.144676 0.0723379 0.0723379 0.289352 0.144676 0.144676 0.144676 0.144676 0.0723379 0.0723379 0.289352 0.144676 0.144676 0.144676 0.144676 0.0723379 0.0723379 0.289352 0.144676 0.144676 0.144676 0.144676 0.0723379 0.0723379 0.289352 0.144676 0.144676 0.144676 0.144676 0.0723379 0.0723379 0.289352 0.144676 0.144676 0.144676 0.144676 0.0723379 0.0723379 0.289352 0.144676 0.144676 0.144676 0.144676 0.0723379 0.0723379 0.289352 0.144676 0.144676 0.144676 0.144676 0.0723379 0.0723379 0.289352 0.144676 0.144676 0.144676 0.144676 0.0723379 0.0723379 0.289352 0.144676 0.144676 0.144676 0.144676 0.0723379 0.0723379 0.289352 0.144676 0.144676 0.144676 0.144676 0.0723379 0.0723379 0.289352 0.144676 0.144676 0.144676 0.144676 0.0723379 0.0723379 0.289352 0.144676 0.144676 0.144676 0.144676 0.0723379 0.0723379 0.289352 0.144676 0.144676 0.144676 0.144676 0.0723379 0.0723379 0.289352 0.144676 0.144676 0.144676 0.144676 0.0723379 0.0723379 0.289352 0.144676 0.144676 0.144676 0.144676 0.0723379 0.0723379 0.289352 0.144676 0.144676 0.144676 0.144676 0.0723379 0.0723379 0.289352 0.144676 0.144676 0.144676 0.144676 0.0723379 0.0723379 0.289352 0.144676 0.144676 0.144676 0.144676 0.072338 0.072338 0.289351 0.144676 0.144676 0.144676 0.144676 0.0723379 0.0723379 0.289352 0.144676 0.144676 0.144676 0.144676 0.0723378 0.0723378 0.289352 0.144676 0.144676 0.144676 0.144676 0.0723379 0.0723379 0.289352 0.144676 0.144676 0.144676 0.144676 0.0723379 0.0723379 0.144676 0.072338 0.144676 0.072338 0.144676 0.072338 0.072338 0.144676 0.144676 0.072338 0.289352 0.144676 0.289352 0.289352 0.144676 0.072338 0.144676 0.144676 0.072338 0.144676 0.072338 0.144676 0.144676 0.289352 0.289352 0.289352 0.072338 0.144676 0.144676 0.144676 0.072338 0.144676 0.144676 0.289352 0.289352 0.289352 0.072338 0.144676 0.144676 0.144676 0.072338 0.144676 0.144676 0.289352 0.289352 0.289352 0.072338 0.144676 0.144676 0.144676 0.072338 0.144676 0.144676 0.289352 0.289352 0.289352 0.072338 0.144676 0.144676 0.144676 0.072338 0.144676 0.144676 0.289352 0.289352 0.289352 0.072338 0.144676 0.144676 0.144676 0.072338 0.144676 0.144676 0.289352 0.289352 0.289352 0.072338 0.144676 0.144676 0.144676 0.072338 0.144676 0.144676 0.289352 0.289352 0.289352 0.072338 0.144676 0.144676 0.144676 0.072338 0.144676 0.144676 0.289352 0.289352 0.289352 0.072338 0.144676 0.144676 0.144676 0.072338 0.144676 0.144676 0.289352 0.289352 0.289352 0.0723379 0.144676 0.144676 0.144676 0.0723379 0.144676 0.144676 0.289352 0.289352 0.289352 0.0723379 0.144676 0.144676 0.144676 0.0723379 0.144676 0.144676 0.289352 0.289352 0.289352 0.072338 0.144676 0.144676 0.144676 0.072338 0.144676 0.144676 0.289352 0.289352 0.289352 0.072338 0.144676 0.144676 0.144676 0.072338 0.144676 0.144676 0.289352 0.289352 0.289352 0.072338 0.144676 0.144676 0.144676 0.072338 0.144676 0.144676 0.289352 0.289352 0.289352 0.0723379 0.144676 0.144676 0.144676 0.0723379 0.144676 0.144676 0.289352 0.289352 0.289352 0.072338 0.144676 0.144676 0.144676 0.072338 0.144676 0.144676 0.289352 0.289352 0.289352 0.072338 0.144676 0.144676 0.144676 0.072338 0.144676 0.144676 0.289352 0.289352 0.289352 0.0723379 0.144676 0.144676 0.144676 0.0723379 0.144676 0.144676 0.289352 0.289352 0.289352 0.0723379 0.144676 0.144676 0.144676 0.0723379 0.144676 0.144676 0.289352 0.289352 0.289352 0.0723379 0.144676 0.144676 0.144676 0.0723379 0.144676 0.144676 0.289352 0.289352 0.289352 0.072338 0.144676 0.144676 0.144676 0.072338 0.144676 0.144676 0.289352 0.289352 0.289352 0.0723379 0.144676 0.144676 0.144676 0.0723379 0.144676 0.144676 0.289352 0.289352 0.289352 0.0723379 0.144676 0.144676 0.144676 0.0723379 0.144676 0.144676 0.289352 0.289352 0.289352 0.072338 0.144676 0.144676 0.144676 0.072338 0.144676 0.144676 0.289352 0.289352 0.289352 0.0723379 0.144676 0.144676 0.144676 0.0723379 0.144676 0.144676 0.289352 0.289352 0.289352 0.0723379 0.144676 0.144676 0.144676 0.0723379 0.144676 0.144676 0.289352 0.289352 0.289352 0.0723381 0.144676 0.144676 0.144676 0.0723381 0.144676 0.144676 0.289352 0.289352 0.289352 0.0723379 0.144676 0.144676 0.144676 0.0723379 0.144676 0.144676 0.289352 0.289352 0.289351 0.0723378 0.144676 0.144676 0.144676 0.0723378 0.144676 0.144676 0.289352 0.289352 0.289352 0.072338 0.144676 0.144676 0.144676 0.072338 0.144676 0.144676 0.289352 0.289352 0.289352 0.0723379 0.144676 0.144676 0.144676 0.0723379 0.072338 0.144676 0.144676 0.144676 0.289352 0.072338 0.072338 0.144676 0.144676 0.072338 0.289352 0.144676 0.289352 0.289352 0.144676 0.144676 0.144676 0.072338 0.144676 0.072338 0.289352 0.289352 0.289352 0.144676 0.144676 0.144676 0.072338 0.289352 0.289352 0.289352 0.144676 0.144676 0.144676 0.072338 0.289352 0.289352 0.289352 0.144676 0.144676 0.144676 0.072338 0.289352 0.289352 0.289352 0.144676 0.144676 0.144676 0.072338 0.289352 0.289352 0.289352 0.144676 0.144676 0.144676 0.072338 0.289352 0.289352 0.289352 0.144676 0.144676 0.144676 0.072338 0.289352 0.289352 0.289352 0.144676 0.144676 0.144676 0.072338 0.289352 0.289352 0.289352 0.144676 0.144676 0.144676 0.072338 0.289352 0.289352 0.289352 0.144676 0.144676 0.144676 0.0723379 0.289352 0.289352 0.289352 0.144676 0.144676 0.144676 0.0723379 0.289352 0.289352 0.289352 0.144676 0.144676 0.144676 0.072338 0.289352 0.289352 0.289352 0.144676 0.144676 0.144676 0.072338 0.289352 0.289352 0.289352 0.144676 0.144676 0.144676 0.072338 0.289352 0.289352 0.289352 0.144676 0.144676 0.144676 0.0723379 0.289352 0.289352 0.289352 0.144676 0.144676 0.144676 0.072338 0.289352 0.289352 0.289352 0.144676 0.144676 0.144676 0.072338 0.289352 0.289352 0.289352 0.144676 0.144676 0.144676 0.0723379 0.289352 0.289352 0.289352 0.144676 0.144676 0.144676 0.0723379 0.289352 0.289352 0.289352 0.144676 0.144676 0.144676 0.0723379 0.289352 0.289352 0.289352 0.144676 0.144676 0.144676 0.072338 0.289352 0.289352 0.289352 0.144676 0.144676 0.144676 0.0723379 0.289352 0.289352 0.289352 0.144676 0.144676 0.144676 0.0723379 0.289352 0.289352 0.289352 0.144676 0.144676 0.144676 0.072338 0.289352 0.289352 0.289352 0.144676 0.144676 0.144676 0.0723379 0.289352 0.289352 0.289352 0.144676 0.144676 0.144676 0.0723379 0.289352 0.289352 0.289352 0.144676 0.144676 0.144676 0.0723381 0.289351 0.289351 0.289352 0.144676 0.144676 0.144676 0.0723379 0.289352 0.289352 0.289351 0.144676 0.144676 0.144676 0.0723378 0.289352 0.289352 0.289352 0.144676 0.144676 0.144676 0.072338 0.289352 0.289352 0.289352 0.144676 0.144676 0.144676 0.0723379 0.144676 0.144676 0.289352 0.072338 0.144676 0.144676 0.072338 0.289352 0.144676 0.289352 0.289352 0.144676 0.144676 0.144676 0.072338 0.144676 0.072338 0.289352 0.289352 0.289352 0.144676 0.144676 0.144676 0.072338 0.289352 0.289352 0.289352 0.144676 0.144676 0.144676 0.072338 0.289352 0.289352 0.289352 0.144676 0.144676 0.144676 0.072338 0.289352 0.289352 0.289352 0.144676 0.144676 0.144676 0.072338 0.289352 0.289352 0.289352 0.144676 0.144676 0.144676 0.072338 0.289352 0.289352 0.289352 0.144676 0.144676 0.144676 0.072338 0.289352 0.289352 0.289352 0.144676 0.144676 0.144676 0.072338 0.289352 0.289352 0.289352 0.144676 0.144676 0.144676 0.072338 0.289352 0.289352 0.289352 0.144676 0.144676 0.144676 0.0723379 0.289352 0.289352 0.289352 0.144676 0.144676 0.144676 0.0723379 0.289352 0.289352 0.289352 0.144676 0.144676 0.144676 0.072338 0.289352 0.289352 0.289352 0.144676 0.144676 0.144676 0.0723379 0.289352 0.289352 0.289352 0.144676 0.144676 0.144676 0.072338 0.289352 0.289352 0.289352 0.144676 0.144676 0.144676 0.0723379 0.289352 0.289352 0.289352 0.144676 0.144676 0.144676 0.072338 0.289352 0.289352 0.289352 0.144676 0.144676 0.144676 0.072338 0.289352 0.289352 0.289352 0.144676 0.144676 0.144676 0.0723379 0.289352 0.289352 0.289352 0.144676 0.144676 0.144676 0.0723379 0.289352 0.289352 0.289352 0.144676 0.144676 0.144676 0.0723379 0.289352 0.289352 0.289352 0.144676 0.144676 0.144676 0.072338 0.289352 0.289352 0.289352 0.144676 0.144676 0.144676 0.0723379 0.289352 0.289352 0.289352 0.144676 0.144676 0.144676 0.0723379 0.289352 0.289352 0.289352 0.144676 0.144676 0.144676 0.072338 0.289352 0.289352 0.289352 0.144676 0.144676 0.144676 0.0723379 0.289352 0.289352 0.289352 0.144676 0.144676 0.144676 0.0723379 0.289352 0.289352 0.289352 0.144676 0.144676 0.144676 0.0723381 0.289351 0.289351 0.289352 0.144676 0.144676 0.144676 0.0723379 0.289352 0.289352 0.289351 0.144676 0.144676 0.144676 0.0723378 0.289352 0.289352 0.289352 0.144676 0.144676 0.144676 0.072338 0.289352 0.289352 0.289352 0.144676 0.144676 0.144676 0.0723379 0.144676 0.144676 0.289352 0.072338 0.144676 0.144676 0.072338 0.289352 0.144676 0.289352 0.289352 0.144676 0.144676 0.144676 0.072338 0.144676 0.072338 0.289352 0.289352 0.289352 0.144676 0.144676 0.144676 0.072338 0.289352 0.289352 0.289352 0.144676 0.144676 0.144676 0.072338 0.289352 0.289352 0.289352 0.144676 0.144676 0.144676 0.0723379 0.289352 0.289352 0.289352 0.144676 0.144676 0.144676 0.072338 0.289352 0.289352 0.289352 0.144676 0.144676 0.144676 0.072338 0.289352 0.289352 0.289352 0.144676 0.144676 0.144676 0.072338 0.289352 0.289352 0.289352 0.144676 0.144676 0.144676 0.0723379 0.289352 0.289352 0.289352 0.144676 0.144676 0.144676 0.072338 0.289352 0.289352 0.289352 0.144676 0.144676 0.144676 0.0723379 0.289352 0.289352 0.289352 0.144676 0.144676 0.144676 0.0723379 0.289352 0.289352 0.289352 0.144676 0.144676 0.144676 0.072338 0.289352 0.289352 0.289352 0.144676 0.144676 0.144676 0.0723379 0.289352 0.289352 0.289352 0.144676 0.144676 0.144676 0.072338 0.289352 0.289352 0.289352 0.144676 0.144676 0.144676 0.0723379 0.289352 0.289352 0.289352 0.144676 0.144676 0.144676 0.072338 0.289352 0.289352 0.289352 0.144676 0.144676 0.144676 0.072338 0.289352 0.289352 0.289352 0.144676 0.144676 0.144676 0.0723379 0.289352 0.289352 0.289352 0.144676 0.144676 0.144676 0.0723379 0.289352 0.289352 0.289352 0.144676 0.144676 0.144676 0.0723379 0.289352 0.289352 0.289352 0.144676 0.144676 0.144676 0.072338 0.289352 0.289352 0.289352 0.144676 0.144676 0.144676 0.0723379 0.289352 0.289352 0.289352 0.144676 0.144676 0.144676 0.0723379 0.289352 0.289352 0.289352 0.144676 0.144676 0.144676 0.072338 0.289352 0.289352 0.289352 0.144676 0.144676 0.144676 0.0723379 0.289352 0.289352 0.289352 0.144676 0.144676 0.144676 0.0723379 0.289352 0.289352 0.289352 0.144676 0.144676 0.144676 0.0723381 0.289351 0.289351 0.289352 0.144676 0.144676 0.144676 0.0723379 0.289352 0.289352 0.289351 0.144676 0.144676 0.144676 0.0723378 0.289352 0.289352 0.289352 0.144676 0.144676 0.144676 0.072338 0.289352 0.289352 0.289352 0.144676 0.144676 0.144676 0.0723379 0.144676 0.144676 0.289352 0.072338 0.144676 0.144676 0.072338 0.289352 0.144676 0.289352 0.289352 0.144676 0.144676 0.144676 0.072338 0.144676 0.072338 0.289352 0.289352 0.289352 0.144676 0.144676 0.144676 0.072338 0.289352 0.289352 0.289352 0.144676 0.144676 0.144676 0.072338 0.289352 0.289352 0.289352 0.144676 0.144676 0.144676 0.0723379 0.289352 0.289352 0.289352 0.144676 0.144676 0.144676 0.072338 0.289352 0.289352 0.289352 0.144676 0.144676 0.144676 0.072338 0.289352 0.289352 0.289352 0.144676 0.144676 0.144676 0.072338 0.289352 0.289352 0.289352 0.144676 0.144676 0.144676 0.072338 0.289352 0.289352 0.289352 0.144676 0.144676 0.144676 0.072338 0.289352 0.289352 0.289352 0.144676 0.144676 0.144676 0.0723379 0.289352 0.289352 0.289352 0.144676 0.144676 0.144676 0.0723379 0.289352 0.289352 0.289352 0.144676 0.144676 0.144676 0.072338 0.289352 0.289352 0.289352 0.144676 0.144676 0.144676 0.0723379 0.289352 0.289352 0.289352 0.144676 0.144676 0.144676 0.072338 0.289352 0.289352 0.289352 0.144676 0.144676 0.144676 0.0723379 0.289352 0.289352 0.289352 0.144676 0.144676 0.144676 0.072338 0.289352 0.289352 0.289352 0.144676 0.144676 0.144676 0.072338 0.289352 0.289352 0.289352 0.144676 0.144676 0.144676 0.0723379 0.289352 0.289352 0.289352 0.144676 0.144676 0.144676 0.0723379 0.289352 0.289352 0.289352 0.144676 0.144676 0.144676 0.0723379 0.289352 0.289352 0.289352 0.144676 0.144676 0.144676 0.072338 0.289352 0.289352 0.289352 0.144676 0.144676 0.144676 0.0723379 0.289352 0.289352 0.289352 0.144676 0.144676 0.144676 0.0723379 0.289352 0.289352 0.289352 0.144676 0.144676 0.144676 0.072338 0.289352 0.289352 0.289352 0.144676 0.144676 0.144676 0.0723379 0.289352 0.289352 0.289352 0.144676 0.144676 0.144676 0.0723379 0.289352 0.289352 0.289352 0.144676 0.144676 0.144676 0.0723381 0.289351 0.289351 0.289352 0.144676 0.144676 0.144676 0.0723379 0.289352 0.289352 0.289351 0.144676 0.144676 0.144676 0.0723378 0.289352 0.289352 0.289352 0.144676 0.144676 0.144676 0.072338 0.289352 0.289352 0.289352 0.144676 0.144676 0.144676 0.0723379 0.144676 0.144676 0.289352 0.072338 0.144676 0.144676 0.072338 0.289352 0.144676 0.289352 0.289352 0.144676 0.144676 0.144676 0.072338 0.144676 0.072338 0.289352 0.289352 0.289352 0.144676 0.144676 0.144676 0.072338 0.289352 0.289352 0.289352 0.144676 0.144676 0.144676 0.072338 0.289352 0.289352 0.289352 0.144676 0.144676 0.144676 0.072338 0.289352 0.289352 0.289352 0.144676 0.144676 0.144676 0.072338 0.289352 0.289352 0.289352 0.144676 0.144676 0.144676 0.072338 0.289352 0.289352 0.289352 0.144676 0.144676 0.144676 0.072338 0.289352 0.289352 0.289352 0.144676 0.144676 0.144676 0.072338 0.289352 0.289352 0.289352 0.144676 0.144676 0.144676 0.072338 0.289352 0.289352 0.289352 0.144676 0.144676 0.144676 0.0723379 0.289352 0.289352 0.289352 0.144676 0.144676 0.144676 0.0723379 0.289352 0.289352 0.289352 0.144676 0.144676 0.144676 0.072338 0.289352 0.289352 0.289352 0.144676 0.144676 0.144676 0.072338 0.289352 0.289352 0.289352 0.144676 0.144676 0.144676 0.072338 0.289352 0.289352 0.289352 0.144676 0.144676 0.144676 0.0723379 0.289352 0.289352 0.289352 0.144676 0.144676 0.144676 0.072338 0.289352 0.289352 0.289352 0.144676 0.144676 0.144676 0.072338 0.289352 0.289352 0.289352 0.144676 0.144676 0.144676 0.0723379 0.289352 0.289352 0.289352 0.144676 0.144676 0.144676 0.0723379 0.289352 0.289352 0.289352 0.144676 0.144676 0.144676 0.0723379 0.289352 0.289352 0.289352 0.144676 0.144676 0.144676 0.072338 0.289352 0.289352 0.289352 0.144676 0.144676 0.144676 0.0723379 0.289352 0.289352 0.289352 0.144676 0.144676 0.144676 0.0723379 0.289352 0.289352 0.289352 0.144676 0.144676 0.144676 0.072338 0.289352 0.289352 0.289352 0.144676 0.144676 0.144676 0.0723379 0.289352 0.289352 0.289352 0.144676 0.144676 0.144676 0.0723379 0.289352 0.289352 0.289352 0.144676 0.144676 0.144676 0.0723381 0.289351 0.289351 0.289352 0.144676 0.144676 0.144676 0.0723379 0.289352 0.289352 0.289351 0.144676 0.144676 0.144676 0.0723378 0.289352 0.289352 0.289352 0.144676 0.144676 0.144676 0.072338 0.289352 0.289352 0.289352 0.144676 0.144676 0.144676 0.0723379 0.144676 0.144676 0.289352 0.072338 0.144676 0.144676 0.072338 0.289352 0.144676 0.289352 0.289352 0.144676 0.144676 0.144676 0.072338 0.144676 0.072338 0.289352 0.289352 0.289352 0.144676 0.144676 0.144676 0.072338 0.289352 0.289352 0.289352 0.144676 0.144676 0.144676 0.072338 0.289352 0.289352 0.289352 0.144676 0.144676 0.144676 0.072338 0.289352 0.289352 0.289352 0.144676 0.144676 0.144676 0.072338 0.289352 0.289352 0.289352 0.144676 0.144676 0.144676 0.072338 0.289352 0.289352 0.289352 0.144676 0.144676 0.144676 0.072338 0.289352 0.289352 0.289352 0.144676 0.144676 0.144676 0.072338 0.289352 0.289352 0.289352 0.144676 0.144676 0.144676 0.072338 0.289352 0.289352 0.289352 0.144676 0.144676 0.144676 0.0723379 0.289352 0.289352 0.289352 0.144676 0.144676 0.144676 0.0723379 0.289352 0.289352 0.289352 0.144676 0.144676 0.144676 0.072338 0.289352 0.289352 0.289352 0.144676 0.144676 0.144676 0.072338 0.289352 0.289352 0.289352 0.144676 0.144676 0.144676 0.072338 0.289352 0.289352 0.289352 0.144676 0.144676 0.144676 0.0723379 0.289352 0.289352 0.289352 0.144676 0.144676 0.144676 0.072338 0.289352 0.289352 0.289352 0.144676 0.144676 0.144676 0.072338 0.289352 0.289352 0.289352 0.144676 0.144676 0.144676 0.0723379 0.289352 0.289352 0.289352 0.144676 0.144676 0.144676 0.0723379 0.289352 0.289352 0.289352 0.144676 0.144676 0.144676 0.0723379 0.289352 0.289352 0.289352 0.144676 0.144676 0.144676 0.072338 0.289352 0.289352 0.289352 0.144676 0.144676 0.144676 0.0723379 0.289352 0.289352 0.289352 0.144676 0.144676 0.144676 0.0723379 0.289352 0.289352 0.289352 0.144676 0.144676 0.144676 0.072338 0.289352 0.289352 0.289352 0.144676 0.144676 0.144676 0.0723379 0.289352 0.289352 0.289352 0.144676 0.144676 0.144676 0.072338 0.289352 0.289352 0.289352 0.144676 0.144676 0.144676 0.0723381 0.289352 0.289351 0.289352 0.144676 0.144676 0.144676 0.0723379 0.289352 0.289352 0.289351 0.144676 0.144676 0.144676 0.0723378 0.289352 0.289352 0.289352 0.144676 0.144676 0.144676 0.072338 0.289352 0.289352 0.289352 0.144676 0.144676 0.144676 0.0723379 0.144676 0.144676 0.289352 0.072338 0.144676 0.144676 0.072338 0.289352 0.144676 0.144676 0.144676 0.0723379 0.144676 0.144676 0.0723379 0.0723379 0.0723379 0.289352 0.144676 0.144676 0.144676 0.144676 0.0723379 0.0723379 0.289352 0.144676 0.144676 0.144676 0.144676 0.072338 0.072338 0.289352 0.144676 0.144676 0.144676 0.144676 0.0723379 0.0723379 0.289352 0.144676 0.144676 0.144676 0.144676 0.0723379 0.0723379 0.289352 0.144676 0.144676 0.144676 0.144676 0.0723379 0.0723379 0.289352 0.144676 0.144676 0.144676 0.144676 0.0723379 0.0723379 0.289352 0.144676 0.144676 0.144676 0.144676 0.0723379 0.0723379 0.289352 0.144676 0.144676 0.144676 0.144676 0.072338 0.072338 0.289352 0.144676 0.144676 0.144676 0.144676 0.0723379 0.0723379 0.289352 0.144676 0.144676 0.144676 0.144676 0.0723379 0.0723379 0.289352 0.144676 0.144676 0.144676 0.144676 0.0723379 0.0723379 0.289352 0.144676 0.144676 0.144676 0.144676 0.0723379 0.0723379 0.289352 0.144676 0.144676 0.144676 0.144676 0.072338 0.072338 0.289352 0.144676 0.144676 0.144676 0.144676 0.0723379 0.0723379 0.289352 0.144676 0.144676 0.144676 0.144676 0.072338 0.072338 0.289352 0.144676 0.144676 0.144676 0.144676 0.0723379 0.0723379 0.289352 0.144676 0.144676 0.144676 0.144676 0.0723379 0.0723379 0.289352 0.144676 0.144676 0.144676 0.144676 0.0723379 0.0723379 0.289352 0.144676 0.144676 0.144676 0.144676 0.0723379 0.0723379 0.289352 0.144676 0.144676 0.144676 0.144676 0.072338 0.072338 0.289352 0.144676 0.144676 0.144676 0.144676 0.0723379 0.0723379 0.289352 0.144676 0.144676 0.144676 0.144676 0.0723379 0.0723379 0.289352 0.144676 0.144676 0.144676 0.144676 0.072338 0.072338 0.289352 0.144676 0.144676 0.144676 0.144676 0.0723379 0.0723379 0.289352 0.144676 0.144676 0.144676 0.144676 0.0723379 0.0723379 0.289352 0.144676 0.144676 0.144676 0.144676 0.072338 0.072338 0.289351 0.144676 0.144676 0.144676 0.144676 0.0723379 0.0723379 0.289352 0.144676 0.144676 0.144676 0.144676 0.0723378 0.0723378 0.289352 0.144676 0.144676 0.144676 0.144676 0.072338 0.072338 0.289352 0.144676 0.144676 0.144676 0.144676 0.0723379 0.0723379 0.144676 0.072338 0.144676 0.072338 0.144676 0.072338 0.072338 0.144676 0.144676 0.072338 0.289352 0.144676 0.289352 0.289352 0.144676 0.072338 0.144676 0.144676 0.072338 0.144676 0.072338 0.144676 0.144676 0.289352 0.289352 0.289352 0.072338 0.144676 0.144676 0.144676 0.072338 0.144676 0.144676 0.289352 0.289352 0.289352 0.072338 0.144676 0.144676 0.144676 0.072338 0.144676 0.144676 0.289352 0.289352 0.289352 0.072338 0.144676 0.144676 0.144676 0.072338 0.144676 0.144676 0.289352 0.289352 0.289352 0.072338 0.144676 0.144676 0.144676 0.072338 0.144676 0.144676 0.289352 0.289352 0.289352 0.072338 0.144676 0.144676 0.144676 0.072338 0.144676 0.144676 0.289352 0.289352 0.289352 0.072338 0.144676 0.144676 0.144676 0.072338 0.144676 0.144676 0.289352 0.289352 0.289352 0.072338 0.144676 0.144676 0.144676 0.072338 0.144676 0.144676 0.289352 0.289352 0.289352 0.072338 0.144676 0.144676 0.144676 0.072338 0.144676 0.144676 0.289352 0.289352 0.289352 0.0723379 0.144676 0.144676 0.144676 0.0723379 0.144676 0.144676 0.289352 0.289352 0.289352 0.0723379 0.144676 0.144676 0.144676 0.0723379 0.144676 0.144676 0.289352 0.289352 0.289352 0.072338 0.144676 0.144676 0.144676 0.072338 0.144676 0.144676 0.289352 0.289352 0.289352 0.072338 0.144676 0.144676 0.144676 0.072338 0.144676 0.144676 0.289352 0.289352 0.289352 0.072338 0.144676 0.144676 0.144676 0.072338 0.144676 0.144676 0.289352 0.289352 0.289352 0.0723379 0.144676 0.144676 0.144676 0.0723379 0.144676 0.144676 0.289352 0.289352 0.289352 0.072338 0.144676 0.144676 0.144676 0.072338 0.144676 0.144676 0.289352 0.289352 0.289352 0.072338 0.144676 0.144676 0.144676 0.072338 0.144676 0.144676 0.289352 0.289352 0.289352 0.0723379 0.144676 0.144676 0.144676 0.0723379 0.144676 0.144676 0.289352 0.289352 0.289352 0.0723379 0.144676 0.144676 0.144676 0.0723379 0.144676 0.144676 0.289352 0.289352 0.289352 0.0723379 0.144676 0.144676 0.144676 0.0723379 0.144676 0.144676 0.289352 0.289352 0.289352 0.072338 0.144676 0.144676 0.144676 0.072338 0.144676 0.144676 0.289352 0.289352 0.289352 0.0723379 0.144676 0.144676 0.144676 0.0723379 0.144676 0.144676 0.289352 0.289352 0.289352 0.0723379 0.144676 0.144676 0.144676 0.0723379 0.144676 0.144676 0.289352 0.289352 0.289352 0.072338 0.144676 0.144676 0.144676 0.072338 0.144676 0.144676 0.289352 0.289352 0.289352 0.0723379 0.144676 0.144676 0.144676 0.0723379 0.144676 0.144676 0.289352 0.289352 0.289352 0.0723379 0.144676 0.144676 0.144676 0.0723379 0.144676 0.144676 0.289352 0.289352 0.289352 0.0723381 0.144676 0.144676 0.144676 0.0723381 0.144676 0.144676 0.289352 0.289351 0.289352 0.0723379 0.144676 0.144676 0.144676 0.0723379 0.144676 0.144676 0.289352 0.289352 0.289352 0.0723378 0.144676 0.144676 0.144676 0.0723378 0.144676 0.144676 0.289352 0.289352 0.289352 0.072338 0.144676 0.144676 0.144676 0.072338 0.144676 0.144676 0.289352 0.289352 0.289352 0.0723379 0.144676 0.144676 0.144676 0.0723379 0.072338 0.144676 0.144676 0.144676 0.289352 0.072338 0.072338 0.144676 0.144676 0.072338 0.289352 0.144676 0.289352 0.289352 0.144676 0.144676 0.144676 0.072338 0.144676 0.072338 0.289352 0.289352 0.289352 0.144676 0.144676 0.144676 0.072338 0.289352 0.289352 0.289352 0.144676 0.144676 0.144676 0.072338 0.289352 0.289352 0.289352 0.144676 0.144676 0.144676 0.072338 0.289352 0.289352 0.289352 0.144676 0.144676 0.144676 0.072338 0.289352 0.289352 0.289352 0.144676 0.144676 0.144676 0.072338 0.289352 0.289352 0.289352 0.144676 0.144676 0.144676 0.072338 0.289352 0.289352 0.289352 0.144676 0.144676 0.144676 0.072338 0.289352 0.289352 0.289352 0.144676 0.144676 0.144676 0.072338 0.289352 0.289352 0.289352 0.144676 0.144676 0.144676 0.0723379 0.289352 0.289352 0.289352 0.144676 0.144676 0.144676 0.0723379 0.289352 0.289352 0.289352 0.144676 0.144676 0.144676 0.072338 0.289352 0.289352 0.289352 0.144676 0.144676 0.144676 0.0723379 0.289352 0.289352 0.289352 0.144676 0.144676 0.144676 0.072338 0.289352 0.289352 0.289352 0.144676 0.144676 0.144676 0.0723379 0.289352 0.289352 0.289352 0.144676 0.144676 0.144676 0.072338 0.289352 0.289352 0.289352 0.144676 0.144676 0.144676 0.072338 0.289352 0.289352 0.289352 0.144676 0.144676 0.144676 0.0723379 0.289352 0.289352 0.289352 0.144676 0.144676 0.144676 0.0723379 0.289352 0.289352 0.289352 0.144676 0.144676 0.144676 0.0723379 0.289352 0.289352 0.289352 0.144676 0.144676 0.144676 0.072338 0.289352 0.289352 0.289352 0.144676 0.144676 0.144676 0.0723379 0.289352 0.289352 0.289352 0.144676 0.144676 0.144676 0.0723379 0.289352 0.289352 0.289352 0.144676 0.144676 0.144676 0.072338 0.289352 0.289352 0.289352 0.144676 0.144676 0.144676 0.0723379 0.289352 0.289352 0.289352 0.144676 0.144676 0.144676 0.0723379 0.289352 0.289352 0.289352 0.144676 0.144676 0.144676 0.0723381 0.289352 0.289351 0.289352 0.144676 0.144676 0.144676 0.0723379 0.289352 0.289352 0.289352 0.144676 0.144676 0.144676 0.0723378 0.289352 0.289352 0.289352 0.144676 0.144676 0.144676 0.072338 0.289352 0.289352 0.289352 0.144676 0.144676 0.144676 0.0723379 0.144676 0.144676 0.289352 0.072338 0.144676 0.144676 0.072338 0.289352 0.144676 0.289352 0.289352 0.144676 0.144676 0.144676 0.072338 0.144676 0.072338 0.289352 0.289352 0.289352 0.144676 0.144676 0.144676 0.072338 0.289352 0.289352 0.289352 0.144676 0.144676 0.144676 0.072338 0.289352 0.289352 0.289352 0.144676 0.144676 0.144676 0.072338 0.289352 0.289352 0.289352 0.144676 0.144676 0.144676 0.072338 0.289352 0.289352 0.289352 0.144676 0.144676 0.144676 0.072338 0.289352 0.289352 0.289352 0.144676 0.144676 0.144676 0.072338 0.289352 0.289352 0.289352 0.144676 0.144676 0.144676 0.072338 0.289352 0.289352 0.289352 0.144676 0.144676 0.144676 0.072338 0.289352 0.289352 0.289352 0.144676 0.144676 0.144676 0.0723379 0.289352 0.289352 0.289352 0.144676 0.144676 0.144676 0.0723379 0.289352 0.289352 0.289352 0.144676 0.144676 0.144676 0.072338 0.289352 0.289352 0.289352 0.144676 0.144676 0.144676 0.072338 0.289352 0.289352 0.289352 0.144676 0.144676 0.144676 0.072338 0.289352 0.289352 0.289352 0.144676 0.144676 0.144676 0.0723379 0.289352 0.289352 0.289352 0.144676 0.144676 0.144676 0.072338 0.289352 0.289352 0.289352 0.144676 0.144676 0.144676 0.072338 0.289352 0.289352 0.289352 0.144676 0.144676 0.144676 0.0723379 0.289352 0.289352 0.289352 0.144676 0.144676 0.144676 0.0723379 0.289352 0.289352 0.289352 0.144676 0.144676 0.144676 0.0723379 0.289352 0.289352 0.289352 0.144676 0.144676 0.144676 0.072338 0.289352 0.289352 0.289352 0.144676 0.144676 0.144676 0.0723379 0.289352 0.289352 0.289352 0.144676 0.144676 0.144676 0.0723379 0.289352 0.289352 0.289352 0.144676 0.144676 0.144676 0.072338 0.289352 0.289352 0.289352 0.144676 0.144676 0.144676 0.0723379 0.289352 0.289352 0.289352 0.144676 0.144676 0.144676 0.072338 0.289352 0.289352 0.289352 0.144676 0.144676 0.144676 0.0723381 0.289352 0.289351 0.289352 0.144676 0.144676 0.144676 0.0723379 0.289352 0.289352 0.289352 0.144676 0.144676 0.144676 0.0723378 0.289352 0.289352 0.289352 0.144676 0.144676 0.144676 0.072338 0.289352 0.289352 0.289352 0.144676 0.144676 0.144676 0.0723379 0.144676 0.144676 0.289352 0.072338 0.144676 0.144676 0.072338 0.289352 0.144676 0.289352 0.289352 0.144676 0.144676 0.144676 0.0723379 0.144676 0.0723379 0.289352 0.289352 0.289352 0.144676 0.144676 0.144676 0.072338 0.289352 0.289352 0.289352 0.144676 0.144676 0.144676 0.072338 0.289352 0.289352 0.289352 0.144676 0.144676 0.144676 0.0723379 0.289352 0.289352 0.289352 0.144676 0.144676 0.144676 0.0723379 0.289352 0.289352 0.289352 0.144676 0.144676 0.144676 0.072338 0.289352 0.289352 0.289352 0.144676 0.144676 0.144676 0.0723379 0.289352 0.289352 0.289352 0.144676 0.144676 0.144676 0.0723379 0.289352 0.289352 0.289352 0.144676 0.144676 0.144676 0.072338 0.289352 0.289352 0.289352 0.144676 0.144676 0.144676 0.0723379 0.289352 0.289352 0.289352 0.144676 0.144676 0.144676 0.0723379 0.289352 0.289352 0.289352 0.144676 0.144676 0.144676 0.0723379 0.289352 0.289352 0.289352 0.144676 0.144676 0.144676 0.0723379 0.289352 0.289352 0.289352 0.144676 0.144676 0.144676 0.072338 0.289352 0.289352 0.289352 0.144676 0.144676 0.144676 0.0723379 0.289352 0.289352 0.289352 0.144676 0.144676 0.144676 0.072338 0.289352 0.289352 0.289352 0.144676 0.144676 0.144676 0.0723379 0.289352 0.289352 0.289352 0.144676 0.144676 0.144676 0.0723379 0.289352 0.289352 0.289352 0.144676 0.144676 0.144676 0.0723379 0.289352 0.289352 0.289352 0.144676 0.144676 0.144676 0.0723379 0.289352 0.289352 0.289352 0.144676 0.144676 0.144676 0.072338 0.289352 0.289352 0.289352 0.144676 0.144676 0.144676 0.0723379 0.289352 0.289352 0.289352 0.144676 0.144676 0.144676 0.0723379 0.289352 0.289352 0.289352 0.144676 0.144676 0.144676 0.072338 0.289352 0.289352 0.289352 0.144676 0.144676 0.144676 0.0723379 0.289352 0.289352 0.289352 0.144676 0.144676 0.144676 0.0723379 0.289352 0.289352 0.289352 0.144676 0.144676 0.144676 0.072338 0.289352 0.289351 0.289352 0.144676 0.144676 0.144676 0.0723379 0.289352 0.289352 0.289351 0.144676 0.144676 0.144676 0.0723378 0.289352 0.289352 0.289352 0.144676 0.144676 0.144676 0.072338 0.289352 0.289352 0.289352 0.144676 0.144676 0.144676 0.0723379 0.144676 0.144676 0.289352 0.072338 0.144676 0.144676 0.072338 0.289352 0.144676 0.289352 0.289352 0.144676 0.144676 0.144676 0.0723379 0.144676 0.0723379 0.289352 0.289352 0.289352 0.144676 0.144676 0.144676 0.072338 0.289352 0.289352 0.289352 0.144676 0.144676 0.144676 0.072338 0.289352 0.289352 0.289352 0.144676 0.144676 0.144676 0.0723379 0.289352 0.289352 0.289352 0.144676 0.144676 0.144676 0.0723379 0.289352 0.289352 0.289352 0.144676 0.144676 0.144676 0.072338 0.289352 0.289352 0.289352 0.144676 0.144676 0.144676 0.0723379 0.289352 0.289352 0.289352 0.144676 0.144676 0.144676 0.0723379 0.289352 0.289352 0.289352 0.144676 0.144676 0.144676 0.072338 0.289352 0.289352 0.289352 0.144676 0.144676 0.144676 0.0723379 0.289352 0.289352 0.289352 0.144676 0.144676 0.144676 0.0723379 0.289352 0.289352 0.289352 0.144676 0.144676 0.144676 0.072338 0.289352 0.289352 0.289352 0.144676 0.144676 0.144676 0.0723379 0.289352 0.289352 0.289352 0.144676 0.144676 0.144676 0.072338 0.289352 0.289352 0.289352 0.144676 0.144676 0.144676 0.0723379 0.289352 0.289352 0.289352 0.144676 0.144676 0.144676 0.072338 0.289352 0.289352 0.289352 0.144676 0.144676 0.144676 0.0723379 0.289352 0.289352 0.289352 0.144676 0.144676 0.144676 0.0723379 0.289352 0.289352 0.289352 0.144676 0.144676 0.144676 0.0723379 0.289352 0.289352 0.289352 0.144676 0.144676 0.144676 0.0723379 0.289352 0.289352 0.289352 0.144676 0.144676 0.144676 0.072338 0.289352 0.289352 0.289352 0.144676 0.144676 0.144676 0.0723379 0.289352 0.289352 0.289352 0.144676 0.144676 0.144676 0.0723379 0.289352 0.289352 0.289352 0.144676 0.144676 0.144676 0.072338 0.289352 0.289352 0.289352 0.144676 0.144676 0.144676 0.0723379 0.289352 0.289352 0.289352 0.144676 0.144676 0.144676 0.0723379 0.289352 0.289352 0.289352 0.144676 0.144676 0.144676 0.072338 0.289352 0.289351 0.289352 0.144676 0.144676 0.144676 0.0723379 0.289352 0.289352 0.289352 0.144676 0.144676 0.144676 0.0723378 0.289352 0.289352 0.289352 0.144676 0.144676 0.144676 0.072338 0.289352 0.289352 0.289352 0.144676 0.144676 0.144676 0.0723379 0.144676 0.144676 0.289352 0.072338 0.144676 0.144676 0.072338 0.289352 0.144676 0.289352 0.289352 0.144676 0.144676 0.144676 0.072338 0.144676 0.072338 0.289352 0.289352 0.289352 0.144676 0.144676 0.144676 0.072338 0.289352 0.289352 0.289352 0.144676 0.144676 0.144676 0.072338 0.289352 0.289352 0.289352 0.144676 0.144676 0.144676 0.072338 0.289352 0.289352 0.289352 0.144676 0.144676 0.144676 0.072338 0.289352 0.289352 0.289352 0.144676 0.144676 0.144676 0.072338 0.289352 0.289352 0.289352 0.144676 0.144676 0.144676 0.072338 0.289352 0.289352 0.289352 0.144676 0.144676 0.144676 0.072338 0.289352 0.289352 0.289352 0.144676 0.144676 0.144676 0.072338 0.289352 0.289352 0.289352 0.144676 0.144676 0.144676 0.0723379 0.289352 0.289352 0.289352 0.144676 0.144676 0.144676 0.0723379 0.289352 0.289352 0.289352 0.144676 0.144676 0.144676 0.072338 0.289352 0.289352 0.289352 0.144676 0.144676 0.144676 0.072338 0.289352 0.289352 0.289352 0.144676 0.144676 0.144676 0.072338 0.289352 0.289352 0.289352 0.144676 0.144676 0.144676 0.0723379 0.289352 0.289352 0.289352 0.144676 0.144676 0.144676 0.072338 0.289352 0.289352 0.289352 0.144676 0.144676 0.144676 0.072338 0.289352 0.289352 0.289352 0.144676 0.144676 0.144676 0.0723379 0.289352 0.289352 0.289352 0.144676 0.144676 0.144676 0.0723379 0.289352 0.289352 0.289352 0.144676 0.144676 0.144676 0.0723379 0.289352 0.289352 0.289352 0.144676 0.144676 0.144676 0.072338 0.289352 0.289352 0.289352 0.144676 0.144676 0.144676 0.0723379 0.289352 0.289352 0.289352 0.144676 0.144676 0.144676 0.0723379 0.289352 0.289352 0.289352 0.144676 0.144676 0.144676 0.072338 0.289352 0.289352 0.289352 0.144676 0.144676 0.144676 0.0723379 0.289352 0.289352 0.289352 0.144676 0.144676 0.144676 0.0723379 0.289352 0.289352 0.289352 0.144676 0.144676 0.144676 0.0723381 0.289352 0.289351 0.289352 0.144676 0.144676 0.144676 0.0723379 0.289352 0.289352 0.289352 0.144676 0.144676 0.144676 0.0723378 0.289352 0.289352 0.289352 0.144676 0.144676 0.144676 0.072338 0.289352 0.289352 0.289352 0.144676 0.144676 0.144676 0.0723379 0.144676 0.144676 0.289352 0.072338 0.144676 0.144676 0.072338 0.289352 0.144676 0.289352 0.289352 0.144676 0.144676 0.144676 0.072338 0.144676 0.072338 0.289352 0.289352 0.289352 0.144676 0.144676 0.144676 0.072338 0.289352 0.289352 0.289352 0.144676 0.144676 0.144676 0.072338 0.289352 0.289352 0.289352 0.144676 0.144676 0.144676 0.0723379 0.289352 0.289352 0.289352 0.144676 0.144676 0.144676 0.072338 0.289352 0.289352 0.289352 0.144676 0.144676 0.144676 0.072338 0.289352 0.289352 0.289352 0.144676 0.144676 0.144676 0.072338 0.289352 0.289352 0.289352 0.144676 0.144676 0.144676 0.072338 0.289352 0.289352 0.289352 0.144676 0.144676 0.144676 0.072338 0.289352 0.289352 0.289352 0.144676 0.144676 0.144676 0.0723379 0.289352 0.289352 0.289352 0.144676 0.144676 0.144676 0.0723379 0.289352 0.289352 0.289352 0.144676 0.144676 0.144676 0.072338 0.289352 0.289352 0.289352 0.144676 0.144676 0.144676 0.072338 0.289352 0.289352 0.289352 0.144676 0.144676 0.144676 0.072338 0.289352 0.289352 0.289352 0.144676 0.144676 0.144676 0.0723379 0.289352 0.289352 0.289352 0.144676 0.144676 0.144676 0.072338 0.289352 0.289352 0.289352 0.144676 0.144676 0.144676 0.072338 0.289352 0.289352 0.289352 0.144676 0.144676 0.144676 0.0723379 0.289352 0.289352 0.289352 0.144676 0.144676 0.144676 0.0723379 0.289352 0.289352 0.289352 0.144676 0.144676 0.144676 0.0723379 0.289352 0.289352 0.289352 0.144676 0.144676 0.144676 0.072338 0.289352 0.289352 0.289352 0.144676 0.144676 0.144676 0.072338 0.289352 0.289352 0.289352 0.144676 0.144676 0.144676 0.0723379 0.289352 0.289352 0.289352 0.144676 0.144676 0.144676 0.072338 0.289352 0.289352 0.289352 0.144676 0.144676 0.144676 0.0723379 0.289352 0.289352 0.289352 0.144676 0.144676 0.144676 0.072338 0.289352 0.289352 0.289352 0.144676 0.144676 0.144676 0.0723381 0.289352 0.289351 0.289352 0.144676 0.144676 0.144676 0.0723379 0.289352 0.289352 0.289351 0.144676 0.144676 0.144676 0.0723378 0.289352 0.289352 0.289352 0.144676 0.144676 0.144676 0.072338 0.289352 0.289352 0.289352 0.144676 0.144676 0.144676 0.0723379 0.144676 0.144676 0.289352 0.072338 0.144676 0.144676 0.072338 0.289352 0.144676 0.144676 0.144676 0.072338 0.144676 0.144676 0.072338 0.072338 0.072338 0.289352 0.144676 0.144676 0.144676 0.144676 0.072338 0.072338 0.289352 0.144676 0.144676 0.144676 0.144676 0.072338 0.072338 0.289352 0.144676 0.144676 0.144676 0.144676 0.0723379 0.0723379 0.289352 0.144676 0.144676 0.144676 0.144676 0.0723379 0.0723379 0.289352 0.144676 0.144676 0.144676 0.144676 0.0723379 0.0723379 0.289352 0.144676 0.144676 0.144676 0.144676 0.0723379 0.0723379 0.289352 0.144676 0.144676 0.144676 0.144676 0.0723379 0.0723379 0.289352 0.144676 0.144676 0.144676 0.144676 0.072338 0.072338 0.289352 0.144676 0.144676 0.144676 0.144676 0.0723379 0.0723379 0.289352 0.144676 0.144676 0.144676 0.144676 0.0723379 0.0723379 0.289352 0.144676 0.144676 0.144676 0.144676 0.0723379 0.0723379 0.289352 0.144676 0.144676 0.144676 0.144676 0.0723379 0.0723379 0.289352 0.144676 0.144676 0.144676 0.144676 0.072338 0.072338 0.289352 0.144676 0.144676 0.144676 0.144676 0.0723379 0.0723379 0.289352 0.144676 0.144676 0.144676 0.144676 0.072338 0.072338 0.289352 0.144676 0.144676 0.144676 0.144676 0.0723379 0.0723379 0.289352 0.144676 0.144676 0.144676 0.144676 0.0723379 0.0723379 0.289352 0.144676 0.144676 0.144676 0.144676 0.0723379 0.0723379 0.289352 0.144676 0.144676 0.144676 0.144676 0.0723379 0.0723379 0.289352 0.144676 0.144676 0.144676 0.144676 0.072338 0.072338 0.289352 0.144676 0.144676 0.144676 0.144676 0.0723379 0.0723379 0.289352 0.144676 0.144676 0.144676 0.144676 0.0723379 0.0723379 0.289352 0.144676 0.144676 0.144676 0.144676 0.072338 0.072338 0.289352 0.144676 0.144676 0.144676 0.144676 0.0723379 0.0723379 0.289352 0.144676 0.144676 0.144676 0.144676 0.0723379 0.0723379 0.289352 0.144676 0.144676 0.144676 0.144676 0.072338 0.072338 0.289352 0.144676 0.144676 0.144676 0.144676 0.0723379 0.0723379 0.289352 0.144676 0.144676 0.144676 0.144676 0.0723378 0.0723378 0.289352 0.144676 0.144676 0.144676 0.144676 0.0723379 0.0723379 0.289352 0.144676 0.144676 0.144676 0.144676 0.0723379 0.0723379 0.144676 0.072338 0.144676 0.072338 0.144676 0.072338 0.072338 0.144676 0.144676 0.0723381 0.289352 0.144676 0.289352 0.289352 0.144676 0.0723381 0.144676 0.144676 0.0723381 0.144676 0.0723381 0.144676 0.144676 0.289352 0.289352 0.289352 0.0723381 0.144676 0.144676 0.144676 0.0723381 0.144676 0.144676 0.289352 0.289352 0.289352 0.0723381 0.144676 0.144676 0.144676 0.0723381 0.144676 0.144676 0.289352 0.289352 0.289352 0.0723381 0.144676 0.144676 0.144676 0.0723381 0.144676 0.144676 0.289352 0.289352 0.289352 0.0723381 0.144676 0.144676 0.144676 0.0723381 0.144676 0.144676 0.289352 0.289352 0.289352 0.0723381 0.144676 0.144676 0.144676 0.0723381 0.144676 0.144676 0.289352 0.289352 0.289352 0.0723381 0.144676 0.144676 0.144676 0.0723381 0.144676 0.144676 0.289352 0.289352 0.289352 0.0723381 0.144676 0.144676 0.144676 0.0723381 0.144676 0.144676 0.289352 0.289352 0.289352 0.0723381 0.144676 0.144676 0.144676 0.0723381 0.144676 0.144676 0.289352 0.289352 0.289352 0.072338 0.144676 0.144676 0.144676 0.072338 0.144676 0.144676 0.289352 0.289352 0.289352 0.072338 0.144676 0.144676 0.144676 0.072338 0.144676 0.144676 0.289352 0.289352 0.289352 0.0723381 0.144676 0.144676 0.144676 0.0723381 0.144676 0.144676 0.289352 0.289352 0.289352 0.0723381 0.144676 0.144676 0.144676 0.0723381 0.144676 0.144676 0.289352 0.289352 0.289352 0.0723381 0.144676 0.144676 0.144676 0.0723381 0.144676 0.144676 0.289352 0.289352 0.289352 0.072338 0.144676 0.144676 0.144676 0.072338 0.144676 0.144676 0.289352 0.289352 0.289352 0.0723381 0.144676 0.144676 0.144676 0.0723381 0.144676 0.144676 0.289352 0.289352 0.289352 0.0723381 0.144676 0.144676 0.144676 0.0723381 0.144676 0.144676 0.289352 0.289352 0.289352 0.072338 0.144676 0.144676 0.144676 0.072338 0.144676 0.144676 0.289352 0.289352 0.289352 0.072338 0.144676 0.144676 0.144676 0.072338 0.144676 0.144676 0.289352 0.289352 0.289352 0.072338 0.144676 0.144676 0.144676 0.072338 0.144676 0.144676 0.289352 0.289352 0.289352 0.0723381 0.144676 0.144676 0.144676 0.0723381 0.144676 0.144676 0.289352 0.289352 0.289352 0.0723381 0.144676 0.144676 0.144676 0.0723381 0.144676 0.144676 0.289352 0.289352 0.289352 0.072338 0.144676 0.144676 0.144676 0.072338 0.144676 0.144676 0.289352 0.289352 0.289352 0.0723381 0.144676 0.144676 0.144676 0.0723381 0.144676 0.144676 0.289352 0.289352 0.289352 0.072338 0.144676 0.144676 0.144676 0.072338 0.144676 0.144676 0.289352 0.289352 0.289352 0.0723381 0.144676 0.144676 0.144676 0.0723381 0.144676 0.144676 0.289352 0.289352 0.289352 0.0723381 0.144676 0.144676 0.144676 0.0723381 0.144676 0.144676 0.289352 0.289352 0.289352 0.072338 0.144676 0.144676 0.144676 0.072338 0.144676 0.144676 0.289352 0.289352 0.289352 0.0723379 0.144676 0.144676 0.144676 0.0723379 0.144676 0.144676 0.289352 0.289352 0.289352 0.0723381 0.144676 0.144676 0.144676 0.0723381 0.144676 0.144676 0.289352 0.289352 0.289352 0.072338 0.144676 0.144676 0.144676 0.072338 0.0723381 0.144676 0.144676 0.144676 0.289352 0.0723381 0.0723381 0.144676 0.144676 0.0723381 0.289352 0.144676 0.289352 0.289352 0.144676 0.144676 0.144676 0.0723381 0.144676 0.0723381 0.289352 0.289352 0.289352 0.144676 0.144676 0.144676 0.0723381 0.289352 0.289352 0.289352 0.144676 0.144676 0.144676 0.0723381 0.289352 0.289352 0.289352 0.144676 0.144676 0.144676 0.0723381 0.289352 0.289352 0.289352 0.144676 0.144676 0.144676 0.0723381 0.289352 0.289352 0.289352 0.144676 0.144676 0.144676 0.0723381 0.289352 0.289352 0.289352 0.144676 0.144676 0.144676 0.0723381 0.289352 0.289352 0.289352 0.144676 0.144676 0.144676 0.0723381 0.289352 0.289352 0.289352 0.144676 0.144676 0.144676 0.0723381 0.289352 0.289352 0.289352 0.144676 0.144676 0.144676 0.072338 0.289352 0.289352 0.289352 0.144676 0.144676 0.144676 0.072338 0.289352 0.289352 0.289352 0.144676 0.144676 0.144676 0.0723381 0.289352 0.289352 0.289352 0.144676 0.144676 0.144676 0.0723381 0.289352 0.289352 0.289352 0.144676 0.144676 0.144676 0.0723381 0.289352 0.289352 0.289352 0.144676 0.144676 0.144676 0.072338 0.289352 0.289352 0.289352 0.144676 0.144676 0.144676 0.0723381 0.289352 0.289352 0.289352 0.144676 0.144676 0.144676 0.0723381 0.289352 0.289352 0.289352 0.144676 0.144676 0.144676 0.072338 0.289352 0.289352 0.289352 0.144676 0.144676 0.144676 0.072338 0.289352 0.289352 0.289352 0.144676 0.144676 0.144676 0.072338 0.289352 0.289352 0.289352 0.144676 0.144676 0.144676 0.0723381 0.289352 0.289352 0.289352 0.144676 0.144676 0.144676 0.0723381 0.289352 0.289352 0.289352 0.144676 0.144676 0.144676 0.072338 0.289352 0.289352 0.289352 0.144676 0.144676 0.144676 0.0723381 0.289352 0.289352 0.289352 0.144676 0.144676 0.144676 0.072338 0.289352 0.289352 0.289352 0.144676 0.144676 0.144676 0.0723381 0.289352 0.289352 0.289352 0.144676 0.144676 0.144676 0.0723381 0.289352 0.289352 0.289352 0.144676 0.144676 0.144676 0.072338 0.289352 0.289352 0.289352 0.144676 0.144676 0.144676 0.0723379 0.289352 0.289352 0.289352 0.144676 0.144676 0.144676 0.0723381 0.289352 0.289352 0.289352 0.144676 0.144676 0.144676 0.072338 0.144676 0.144676 0.289352 0.0723381 0.144676 0.144676 0.0723381 0.289352 0.144676 0.289352 0.289352 0.144676 0.144676 0.144676 0.0723381 0.144676 0.0723381 0.289352 0.289352 0.289352 0.144676 0.144676 0.144676 0.0723381 0.289352 0.289352 0.289352 0.144676 0.144676 0.144676 0.0723381 0.289352 0.289352 0.289352 0.144676 0.144676 0.144676 0.0723381 0.289352 0.289352 0.289352 0.144676 0.144676 0.144676 0.0723381 0.289352 0.289352 0.289352 0.144676 0.144676 0.144676 0.0723381 0.289352 0.289352 0.289352 0.144676 0.144676 0.144676 0.0723381 0.289352 0.289352 0.289352 0.144676 0.144676 0.144676 0.0723381 0.289352 0.289352 0.289352 0.144676 0.144676 0.144676 0.0723381 0.289352 0.289352 0.289352 0.144676 0.144676 0.144676 0.072338 0.289352 0.289352 0.289352 0.144676 0.144676 0.144676 0.0723381 0.289352 0.289352 0.289352 0.144676 0.144676 0.144676 0.0723381 0.289352 0.289352 0.289352 0.144676 0.144676 0.144676 0.0723381 0.289352 0.289352 0.289352 0.144676 0.144676 0.144676 0.0723381 0.289352 0.289352 0.289352 0.144676 0.144676 0.144676 0.072338 0.289352 0.289352 0.289352 0.144676 0.144676 0.144676 0.0723381 0.289352 0.289352 0.289352 0.144676 0.144676 0.144676 0.0723381 0.289352 0.289352 0.289352 0.144676 0.144676 0.144676 0.072338 0.289352 0.289352 0.289352 0.144676 0.144676 0.144676 0.072338 0.289352 0.289352 0.289352 0.144676 0.144676 0.144676 0.072338 0.289352 0.289352 0.289352 0.144676 0.144676 0.144676 0.0723381 0.289352 0.289352 0.289352 0.144676 0.144676 0.144676 0.0723381 0.289352 0.289352 0.289352 0.144676 0.144676 0.144676 0.072338 0.289352 0.289352 0.289352 0.144676 0.144676 0.144676 0.0723381 0.289352 0.289352 0.289352 0.144676 0.144676 0.144676 0.072338 0.289352 0.289352 0.289352 0.144676 0.144676 0.144676 0.072338 0.289352 0.289352 0.289352 0.144676 0.144676 0.144676 0.0723382 0.289352 0.289352 0.289352 0.144676 0.144676 0.144676 0.072338 0.289352 0.289352 0.289352 0.144676 0.144676 0.144676 0.0723379 0.289352 0.289352 0.289352 0.144676 0.144676 0.144676 0.0723381 0.289352 0.289352 0.289352 0.144676 0.144676 0.144676 0.072338 0.144676 0.144676 0.289352 0.0723381 0.144676 0.144676 0.0723381 0.289352 0.144676 0.289352 0.289352 0.144676 0.144676 0.144676 0.0723381 0.144676 0.0723381 0.289352 0.289352 0.289352 0.144676 0.144676 0.144676 0.0723381 0.289352 0.289352 0.289352 0.144676 0.144676 0.144676 0.0723381 0.289352 0.289352 0.289352 0.144676 0.144676 0.144676 0.072338 0.289352 0.289352 0.289352 0.144676 0.144676 0.144676 0.072338 0.289352 0.289352 0.289352 0.144676 0.144676 0.144676 0.0723381 0.289352 0.289352 0.289352 0.144676 0.144676 0.144676 0.0723381 0.289352 0.289352 0.289352 0.144676 0.144676 0.144676 0.072338 0.289352 0.289352 0.289352 0.144676 0.144676 0.144676 0.0723381 0.289352 0.289352 0.289352 0.144676 0.144676 0.144676 0.072338 0.289352 0.289352 0.289352 0.144676 0.144676 0.144676 0.072338 0.289352 0.289352 0.289352 0.144676 0.144676 0.144676 0.0723381 0.289352 0.289352 0.289352 0.144676 0.144676 0.144676 0.072338 0.289352 0.289352 0.289352 0.144676 0.144676 0.144676 0.0723381 0.289352 0.289352 0.289352 0.144676 0.144676 0.144676 0.072338 0.289352 0.289352 0.289352 0.144676 0.144676 0.144676 0.0723381 0.289352 0.289352 0.289352 0.144676 0.144676 0.144676 0.0723381 0.289352 0.289352 0.289352 0.144676 0.144676 0.144676 0.072338 0.289352 0.289352 0.289352 0.144676 0.144676 0.144676 0.072338 0.289352 0.289352 0.289352 0.144676 0.144676 0.144676 0.072338 0.289352 0.289352 0.289352 0.144676 0.144676 0.144676 0.0723381 0.289352 0.289352 0.289352 0.144676 0.144676 0.144676 0.072338 0.289352 0.289352 0.289352 0.144676 0.144676 0.144676 0.072338 0.289352 0.289352 0.289352 0.144676 0.144676 0.144676 0.0723381 0.289352 0.289352 0.289352 0.144676 0.144676 0.144676 0.072338 0.289352 0.289352 0.289352 0.144676 0.144676 0.144676 0.072338 0.289352 0.289352 0.289352 0.144676 0.144676 0.144676 0.0723381 0.289352 0.289352 0.289352 0.144676 0.144676 0.144676 0.072338 0.289352 0.289352 0.289352 0.144676 0.144676 0.144676 0.0723379 0.289352 0.289352 0.289352 0.144676 0.144676 0.144676 0.0723381 0.289352 0.289352 0.289352 0.144676 0.144676 0.144676 0.072338 0.144676 0.144676 0.289352 0.0723381 0.144676 0.144676 0.0723381 0.289352 0.144676 0.289352 0.289352 0.144676 0.144676 0.144676 0.0723381 0.144676 0.0723381 0.289352 0.289352 0.289352 0.144676 0.144676 0.144676 0.0723381 0.289352 0.289352 0.289352 0.144676 0.144676 0.144676 0.0723381 0.289352 0.289352 0.289352 0.144676 0.144676 0.144676 0.072338 0.289352 0.289352 0.289352 0.144676 0.144676 0.144676 0.0723381 0.289352 0.289352 0.289352 0.144676 0.144676 0.144676 0.0723381 0.289352 0.289352 0.289352 0.144676 0.144676 0.144676 0.0723381 0.289352 0.289352 0.289352 0.144676 0.144676 0.144676 0.0723381 0.289352 0.289352 0.289352 0.144676 0.144676 0.144676 0.0723381 0.289352 0.289352 0.289352 0.144676 0.144676 0.144676 0.072338 0.289352 0.289352 0.289352 0.144676 0.144676 0.144676 0.072338 0.289352 0.289352 0.289352 0.144676 0.144676 0.144676 0.0723381 0.289352 0.289352 0.289352 0.144676 0.144676 0.144676 0.072338 0.289352 0.289352 0.289352 0.144676 0.144676 0.144676 0.0723381 0.289352 0.289352 0.289352 0.144676 0.144676 0.144676 0.072338 0.289352 0.289352 0.289352 0.144676 0.144676 0.144676 0.0723381 0.289352 0.289352 0.289352 0.144676 0.144676 0.144676 0.0723381 0.289352 0.289352 0.289352 0.144676 0.144676 0.144676 0.072338 0.289352 0.289352 0.289352 0.144676 0.144676 0.144676 0.072338 0.289352 0.289352 0.289352 0.144676 0.144676 0.144676 0.072338 0.289352 0.289352 0.289352 0.144676 0.144676 0.144676 0.0723381 0.289352 0.289352 0.289352 0.144676 0.144676 0.144676 0.072338 0.289352 0.289352 0.289352 0.144676 0.144676 0.144676 0.072338 0.289352 0.289352 0.289352 0.144676 0.144676 0.144676 0.0723381 0.289352 0.289352 0.289352 0.144676 0.144676 0.144676 0.072338 0.289352 0.289352 0.289352 0.144676 0.144676 0.144676 0.072338 0.289352 0.289352 0.289352 0.144676 0.144676 0.144676 0.0723381 0.289352 0.289352 0.289352 0.144676 0.144676 0.144676 0.072338 0.289352 0.289352 0.289352 0.144676 0.144676 0.144676 0.0723379 0.289352 0.289352 0.289352 0.144676 0.144676 0.144676 0.0723381 0.289352 0.289352 0.289352 0.144676 0.144676 0.144676 0.072338 0.144676 0.144676 0.289352 0.0723381 0.144676 0.144676 0.0723381 0.289352 0.144676 0.289352 0.289352 0.144676 0.144676 0.144676 0.0723381 0.144676 0.0723381 0.289352 0.289352 0.289352 0.144676 0.144676 0.144676 0.0723381 0.289352 0.289352 0.289352 0.144676 0.144676 0.144676 0.0723381 0.289352 0.289352 0.289352 0.144676 0.144676 0.144676 0.0723381 0.289352 0.289352 0.289352 0.144676 0.144676 0.144676 0.0723381 0.289352 0.289352 0.289352 0.144676 0.144676 0.144676 0.0723381 0.289352 0.289352 0.289352 0.144676 0.144676 0.144676 0.0723381 0.289352 0.289352 0.289352 0.144676 0.144676 0.144676 0.0723381 0.289352 0.289352 0.289352 0.144676 0.144676 0.144676 0.0723381 0.289352 0.289352 0.289352 0.144676 0.144676 0.144676 0.072338 0.289352 0.289352 0.289352 0.144676 0.144676 0.144676 0.072338 0.289352 0.289352 0.289352 0.144676 0.144676 0.144676 0.0723381 0.289352 0.289352 0.289352 0.144676 0.144676 0.144676 0.0723381 0.289352 0.289352 0.289352 0.144676 0.144676 0.144676 0.0723381 0.289352 0.289352 0.289352 0.144676 0.144676 0.144676 0.072338 0.289352 0.289352 0.289352 0.144676 0.144676 0.144676 0.0723381 0.289352 0.289352 0.289352 0.144676 0.144676 0.144676 0.0723381 0.289352 0.289352 0.289352 0.144676 0.144676 0.144676 0.072338 0.289352 0.289352 0.289352 0.144676 0.144676 0.144676 0.072338 0.289352 0.289352 0.289352 0.144676 0.144676 0.144676 0.072338 0.289352 0.289352 0.289352 0.144676 0.144676 0.144676 0.0723381 0.289352 0.289352 0.289352 0.144676 0.144676 0.144676 0.0723381 0.289352 0.289352 0.289352 0.144676 0.144676 0.144676 0.072338 0.289352 0.289352 0.289352 0.144676 0.144676 0.144676 0.0723381 0.289352 0.289352 0.289352 0.144676 0.144676 0.144676 0.072338 0.289352 0.289352 0.289352 0.144676 0.144676 0.144676 0.072338 0.289352 0.289352 0.289353 0.144676 0.144676 0.144676 0.0723382 0.289352 0.289352 0.289352 0.144676 0.144676 0.144676 0.072338 0.289352 0.289352 0.289352 0.144676 0.144676 0.144676 0.0723379 0.289352 0.289352 0.289352 0.144676 0.144676 0.144676 0.0723381 0.289352 0.289352 0.289352 0.144676 0.144676 0.144676 0.072338 0.144676 0.144676 0.289352 0.0723381 0.144676 0.144676 0.0723381 0.289352 0.144676 0.289352 0.289352 0.144676 0.144676 0.144676 0.0723381 0.144676 0.0723381 0.289352 0.289352 0.289352 0.144676 0.144676 0.144676 0.0723381 0.289352 0.289352 0.289352 0.144676 0.144676 0.144676 0.0723381 0.289352 0.289352 0.289352 0.144676 0.144676 0.144676 0.0723381 0.289352 0.289352 0.289352 0.144676 0.144676 0.144676 0.0723381 0.289352 0.289352 0.289352 0.144676 0.144676 0.144676 0.0723381 0.289352 0.289352 0.289352 0.144676 0.144676 0.144676 0.0723381 0.289352 0.289352 0.289352 0.144676 0.144676 0.144676 0.0723381 0.289352 0.289352 0.289352 0.144676 0.144676 0.144676 0.0723381 0.289352 0.289352 0.289352 0.144676 0.144676 0.144676 0.072338 0.289352 0.289352 0.289352 0.144676 0.144676 0.144676 0.0723381 0.289352 0.289352 0.289352 0.144676 0.144676 0.144676 0.0723381 0.289352 0.289352 0.289352 0.144676 0.144676 0.144676 0.0723381 0.289352 0.289352 0.289352 0.144676 0.144676 0.144676 0.0723381 0.289352 0.289352 0.289352 0.144676 0.144676 0.144676 0.072338 0.289352 0.289352 0.289352 0.144676 0.144676 0.144676 0.0723381 0.289352 0.289352 0.289352 0.144676 0.144676 0.144676 0.0723381 0.289352 0.289352 0.289352 0.144676 0.144676 0.144676 0.072338 0.289352 0.289352 0.289352 0.144676 0.144676 0.144676 0.072338 0.289352 0.289352 0.289352 0.144676 0.144676 0.144676 0.072338 0.289352 0.289352 0.289352 0.144676 0.144676 0.144676 0.0723381 0.289352 0.289352 0.289352 0.144676 0.144676 0.144676 0.0723381 0.289352 0.289352 0.289352 0.144676 0.144676 0.144676 0.072338 0.289352 0.289352 0.289352 0.144676 0.144676 0.144676 0.0723381 0.289352 0.289352 0.289352 0.144676 0.144676 0.144676 0.072338 0.289352 0.289352 0.289352 0.144676 0.144676 0.144676 0.072338 0.289352 0.289352 0.289352 0.144676 0.144676 0.144676 0.0723382 0.289352 0.289352 0.289352 0.144676 0.144676 0.144676 0.072338 0.289352 0.289352 0.289352 0.144676 0.144676 0.144676 0.0723379 0.289352 0.289352 0.289352 0.144676 0.144676 0.144676 0.0723381 0.289352 0.289352 0.289352 0.144676 0.144676 0.144676 0.072338 0.144676 0.144676 0.289352 0.0723381 0.144676 0.144676 0.0723381 0.289352 0.144676 0.144676 0.144676 0.0723381 0.144676 0.144676 0.0723381 0.0723381 0.0723381 0.289352 0.144676 0.144676 0.144676 0.144676 0.0723381 0.0723381 0.289352 0.144676 0.144676 0.144676 0.144676 0.0723381 0.0723381 0.289352 0.144676 0.144676 0.144676 0.144676 0.072338 0.072338 0.289352 0.144676 0.144676 0.144676 0.144676 0.0723381 0.0723381 0.289352 0.144676 0.144676 0.144676 0.144676 0.0723381 0.0723381 0.289352 0.144676 0.144676 0.144676 0.144676 0.072338 0.072338 0.289352 0.144676 0.144676 0.144676 0.144676 0.072338 0.072338 0.289352 0.144676 0.144676 0.144676 0.144676 0.0723381 0.0723381 0.289352 0.144676 0.144676 0.144676 0.144676 0.072338 0.072338 0.289352 0.144676 0.144676 0.144676 0.144676 0.072338 0.072338 0.289352 0.144676 0.144676 0.144676 0.144676 0.0723381 0.0723381 0.289352 0.144676 0.144676 0.144676 0.144676 0.072338 0.072338 0.289352 0.144676 0.144676 0.144676 0.144676 0.0723381 0.0723381 0.289352 0.144676 0.144676 0.144676 0.144676 0.072338 0.072338 0.289352 0.144676 0.144676 0.144676 0.144676 0.0723381 0.0723381 0.289352 0.144676 0.144676 0.144676 0.144676 0.072338 0.072338 0.289352 0.144676 0.144676 0.144676 0.144676 0.072338 0.072338 0.289352 0.144676 0.144676 0.144676 0.144676 0.072338 0.072338 0.289352 0.144676 0.144676 0.144676 0.144676 0.072338 0.072338 0.289352 0.144676 0.144676 0.144676 0.144676 0.0723381 0.0723381 0.289352 0.144676 0.144676 0.144676 0.144676 0.072338 0.072338 0.289352 0.144676 0.144676 0.144676 0.144676 0.072338 0.072338 0.289352 0.144676 0.144676 0.144676 0.144676 0.0723381 0.0723381 0.289352 0.144676 0.144676 0.144676 0.144676 0.072338 0.072338 0.289352 0.144676 0.144676 0.144676 0.144676 0.072338 0.072338 0.289352 0.144676 0.144676 0.144676 0.144676 0.0723381 0.0723381 0.289352 0.144676 0.144676 0.144676 0.144676 0.072338 0.072338 0.289352 0.144676 0.144676 0.144676 0.144676 0.0723379 0.0723379 0.289352 0.144676 0.144676 0.144676 0.144676 0.0723381 0.0723381 0.289352 0.144676 0.144676 0.144676 0.144676 0.072338 0.072338 0.144676 0.0723381 0.144676 0.0723381 0.144676 0.0723381 0.0723381 0.144676 0.144676 0.072338 0.289352 0.144676 0.289352 0.289352 0.144676 0.072338 0.144676 0.144676 0.072338 0.144676 0.072338 0.144676 0.144676 0.289352 0.289352 0.289352 0.072338 0.144676 0.144676 0.144676 0.072338 0.144676 0.144676 0.289352 0.289352 0.289352 0.072338 0.144676 0.144676 0.144676 0.072338 0.144676 0.144676 0.289352 0.289352 0.289352 0.072338 0.144676 0.144676 0.144676 0.072338 0.144676 0.144676 0.289352 0.289352 0.289352 0.072338 0.144676 0.144676 0.144676 0.072338 0.144676 0.144676 0.289352 0.289352 0.289352 0.072338 0.144676 0.144676 0.144676 0.072338 0.144676 0.144676 0.289352 0.289352 0.289352 0.072338 0.144676 0.144676 0.144676 0.072338 0.144676 0.144676 0.289352 0.289352 0.289352 0.072338 0.144676 0.144676 0.144676 0.072338 0.144676 0.144676 0.289352 0.289352 0.289352 0.072338 0.144676 0.144676 0.144676 0.072338 0.144676 0.144676 0.289352 0.289352 0.289352 0.072338 0.144676 0.144676 0.144676 0.072338 0.144676 0.144676 0.289352 0.289352 0.289352 0.072338 0.144676 0.144676 0.144676 0.072338 0.144676 0.144676 0.289352 0.289352 0.289352 0.072338 0.144676 0.144676 0.144676 0.072338 0.144676 0.144676 0.289352 0.289352 0.289352 0.072338 0.144676 0.144676 0.144676 0.072338 0.144676 0.144676 0.289352 0.289352 0.289352 0.072338 0.144676 0.144676 0.144676 0.072338 0.144676 0.144676 0.289352 0.289352 0.289352 0.072338 0.144676 0.144676 0.144676 0.072338 0.144676 0.144676 0.289352 0.289352 0.289352 0.072338 0.144676 0.144676 0.144676 0.072338 0.144676 0.144676 0.289352 0.289352 0.289352 0.072338 0.144676 0.144676 0.144676 0.072338 0.144676 0.144676 0.289352 0.289352 0.289352 0.072338 0.144676 0.144676 0.144676 0.072338 0.144676 0.144676 0.289352 0.289352 0.289352 0.072338 0.144676 0.144676 0.144676 0.072338 0.144676 0.144676 0.289352 0.289352 0.289352 0.0723379 0.144676 0.144676 0.144676 0.0723379 0.144676 0.144676 0.289352 0.289352 0.289352 0.072338 0.144676 0.144676 0.144676 0.072338 0.144676 0.144676 0.289352 0.289352 0.289352 0.072338 0.144676 0.144676 0.144676 0.072338 0.144676 0.144676 0.289352 0.289352 0.289352 0.072338 0.144676 0.144676 0.144676 0.072338 0.144676 0.144676 0.289352 0.289352 0.289352 0.072338 0.144676 0.144676 0.144676 0.072338 0.144676 0.144676 0.289352 0.289352 0.289352 0.0723379 0.144676 0.144676 0.144676 0.0723379 0.144676 0.144676 0.289352 0.289352 0.289352 0.072338 0.144676 0.144676 0.144676 0.072338 0.144676 0.144676 0.289352 0.289352 0.289352 0.0723381 0.144676 0.144676 0.144676 0.0723381 0.144676 0.144676 0.289351 0.289352 0.289352 0.0723379 0.144676 0.144676 0.144676 0.0723379 0.144676 0.144676 0.289352 0.289352 0.289351 0.0723379 0.144676 0.144676 0.144676 0.0723379 0.144676 0.144676 0.289352 0.289352 0.289352 0.072338 0.144676 0.144676 0.144676 0.072338 0.144676 0.144676 0.289352 0.289352 0.289352 0.0723379 0.144676 0.144676 0.144676 0.0723379 0.072338 0.144676 0.144676 0.144676 0.289352 0.072338 0.072338 0.144676 0.144676 0.072338 0.289352 0.144676 0.289352 0.289352 0.144676 0.144676 0.144676 0.072338 0.144676 0.072338 0.289352 0.289352 0.289352 0.144676 0.144676 0.144676 0.072338 0.289352 0.289352 0.289352 0.144676 0.144676 0.144676 0.072338 0.289352 0.289352 0.289352 0.144676 0.144676 0.144676 0.072338 0.289352 0.289352 0.289352 0.144676 0.144676 0.144676 0.072338 0.289352 0.289352 0.289352 0.144676 0.144676 0.144676 0.072338 0.289352 0.289352 0.289352 0.144676 0.144676 0.144676 0.072338 0.289352 0.289352 0.289352 0.144676 0.144676 0.144676 0.072338 0.289352 0.289352 0.289352 0.144676 0.144676 0.144676 0.072338 0.289352 0.289352 0.289352 0.144676 0.144676 0.144676 0.072338 0.289352 0.289352 0.289352 0.144676 0.144676 0.144676 0.072338 0.289352 0.289352 0.289352 0.144676 0.144676 0.144676 0.072338 0.289352 0.289352 0.289352 0.144676 0.144676 0.144676 0.072338 0.289352 0.289352 0.289352 0.144676 0.144676 0.144676 0.072338 0.289352 0.289352 0.289352 0.144676 0.144676 0.144676 0.072338 0.289352 0.289352 0.289352 0.144676 0.144676 0.144676 0.072338 0.289352 0.289352 0.289352 0.144676 0.144676 0.144676 0.072338 0.289352 0.289352 0.289352 0.144676 0.144676 0.144676 0.072338 0.289352 0.289352 0.289352 0.144676 0.144676 0.144676 0.072338 0.289352 0.289352 0.289352 0.144676 0.144676 0.144676 0.0723379 0.289352 0.289352 0.289352 0.144676 0.144676 0.144676 0.072338 0.289352 0.289352 0.289352 0.144676 0.144676 0.144676 0.072338 0.289352 0.289352 0.289352 0.144676 0.144676 0.144676 0.072338 0.289352 0.289352 0.289352 0.144676 0.144676 0.144676 0.072338 0.289352 0.289352 0.289352 0.144676 0.144676 0.144676 0.0723379 0.289352 0.289352 0.289352 0.144676 0.144676 0.144676 0.072338 0.289352 0.289352 0.289352 0.144676 0.144676 0.144676 0.0723381 0.289351 0.289352 0.289352 0.144676 0.144676 0.144676 0.0723379 0.289352 0.289352 0.289351 0.144676 0.144676 0.144676 0.0723379 0.289352 0.289352 0.289352 0.144676 0.144676 0.144676 0.072338 0.289352 0.289352 0.289352 0.144676 0.144676 0.144676 0.0723379 0.144676 0.144676 0.289352 0.072338 0.144676 0.144676 0.072338 0.289352 0.144676 0.289352 0.289352 0.144676 0.144676 0.144676 0.072338 0.144676 0.072338 0.289352 0.289352 0.289352 0.144676 0.144676 0.144676 0.072338 0.289352 0.289352 0.289352 0.144676 0.144676 0.144676 0.072338 0.289352 0.289352 0.289352 0.144676 0.144676 0.144676 0.072338 0.289352 0.289352 0.289352 0.144676 0.144676 0.144676 0.072338 0.289352 0.289352 0.289352 0.144676 0.144676 0.144676 0.072338 0.289352 0.289352 0.289352 0.144676 0.144676 0.144676 0.072338 0.289352 0.289352 0.289352 0.144676 0.144676 0.144676 0.072338 0.289352 0.289352 0.289352 0.144676 0.144676 0.144676 0.072338 0.289352 0.289352 0.289352 0.144676 0.144676 0.144676 0.072338 0.289352 0.289352 0.289352 0.144676 0.144676 0.144676 0.072338 0.289352 0.289352 0.289352 0.144676 0.144676 0.144676 0.072338 0.289352 0.289352 0.289352 0.144676 0.144676 0.144676 0.072338 0.289352 0.289352 0.289352 0.144676 0.144676 0.144676 0.072338 0.289352 0.289352 0.289352 0.144676 0.144676 0.144676 0.072338 0.289352 0.289352 0.289352 0.144676 0.144676 0.144676 0.072338 0.289352 0.289352 0.289352 0.144676 0.144676 0.144676 0.072338 0.289352 0.289352 0.289352 0.144676 0.144676 0.144676 0.072338 0.289352 0.289352 0.289352 0.144676 0.144676 0.144676 0.072338 0.289352 0.289352 0.289352 0.144676 0.144676 0.144676 0.0723379 0.289352 0.289352 0.289352 0.144676 0.144676 0.144676 0.072338 0.289352 0.289352 0.289352 0.144676 0.144676 0.144676 0.072338 0.289352 0.289352 0.289352 0.144676 0.144676 0.144676 0.072338 0.289352 0.289352 0.289352 0.144676 0.144676 0.144676 0.072338 0.289352 0.289352 0.289352 0.144676 0.144676 0.144676 0.072338 0.289352 0.289352 0.289352 0.144676 0.144676 0.144676 0.072338 0.289352 0.289352 0.289352 0.144676 0.144676 0.144676 0.0723381 0.289351 0.289352 0.289352 0.144676 0.144676 0.144676 0.0723379 0.289352 0.289352 0.289351 0.144676 0.144676 0.144676 0.0723379 0.289352 0.289352 0.289352 0.144676 0.144676 0.144676 0.072338 0.289352 0.289352 0.289352 0.144676 0.144676 0.144676 0.0723379 0.144676 0.144676 0.289352 0.072338 0.144676 0.144676 0.072338 0.289352 0.144676 0.289352 0.289352 0.144676 0.144676 0.144676 0.072338 0.144676 0.072338 0.289352 0.289352 0.289352 0.144676 0.144676 0.144676 0.072338 0.289352 0.289352 0.289352 0.144676 0.144676 0.144676 0.072338 0.289352 0.289352 0.289352 0.144676 0.144676 0.144676 0.072338 0.289352 0.289352 0.289352 0.144676 0.144676 0.144676 0.072338 0.289352 0.289352 0.289352 0.144676 0.144676 0.144676 0.072338 0.289352 0.289352 0.289352 0.144676 0.144676 0.144676 0.072338 0.289352 0.289352 0.289352 0.144676 0.144676 0.144676 0.072338 0.289352 0.289352 0.289352 0.144676 0.144676 0.144676 0.072338 0.289352 0.289352 0.289352 0.144676 0.144676 0.144676 0.072338 0.289352 0.289352 0.289352 0.144676 0.144676 0.144676 0.072338 0.289352 0.289352 0.289352 0.144676 0.144676 0.144676 0.072338 0.289352 0.289352 0.289352 0.144676 0.144676 0.144676 0.072338 0.289352 0.289352 0.289352 0.144676 0.144676 0.144676 0.072338 0.289352 0.289352 0.289352 0.144676 0.144676 0.144676 0.0723379 0.289352 0.289352 0.289352 0.144676 0.144676 0.144676 0.072338 0.289352 0.289352 0.289352 0.144676 0.144676 0.144676 0.072338 0.289352 0.289352 0.289352 0.144676 0.144676 0.144676 0.072338 0.289352 0.289352 0.289352 0.144676 0.144676 0.144676 0.072338 0.289352 0.289352 0.289352 0.144676 0.144676 0.144676 0.0723379 0.289352 0.289352 0.289352 0.144676 0.144676 0.144676 0.072338 0.289352 0.289352 0.289352 0.144676 0.144676 0.144676 0.072338 0.289352 0.289352 0.289352 0.144676 0.144676 0.144676 0.0723379 0.289352 0.289352 0.289352 0.144676 0.144676 0.144676 0.072338 0.289352 0.289352 0.289352 0.144676 0.144676 0.144676 0.0723379 0.289352 0.289352 0.289352 0.144676 0.144676 0.144676 0.072338 0.289352 0.289352 0.289352 0.144676 0.144676 0.144676 0.0723381 0.289351 0.289352 0.289352 0.144676 0.144676 0.144676 0.0723379 0.289351 0.289352 0.289351 0.144676 0.144676 0.144676 0.0723379 0.289352 0.289352 0.289352 0.144676 0.144676 0.144676 0.072338 0.289352 0.289352 0.289352 0.144676 0.144676 0.144676 0.0723379 0.144676 0.144676 0.289352 0.072338 0.144676 0.144676 0.072338 0.289352 0.144676 0.289352 0.289352 0.144676 0.144676 0.144676 0.072338 0.144676 0.072338 0.289352 0.289352 0.289352 0.144676 0.144676 0.144676 0.072338 0.289352 0.289352 0.289352 0.144676 0.144676 0.144676 0.072338 0.289352 0.289352 0.289352 0.144676 0.144676 0.144676 0.072338 0.289352 0.289352 0.289352 0.144676 0.144676 0.144676 0.072338 0.289352 0.289352 0.289352 0.144676 0.144676 0.144676 0.072338 0.289352 0.289352 0.289352 0.144676 0.144676 0.144676 0.072338 0.289352 0.289352 0.289352 0.144676 0.144676 0.144676 0.072338 0.289352 0.289352 0.289352 0.144676 0.144676 0.144676 0.072338 0.289352 0.289352 0.289352 0.144676 0.144676 0.144676 0.072338 0.289352 0.289352 0.289352 0.144676 0.144676 0.144676 0.072338 0.289352 0.289352 0.289352 0.144676 0.144676 0.144676 0.072338 0.289352 0.289352 0.289352 0.144676 0.144676 0.144676 0.072338 0.289352 0.289352 0.289352 0.144676 0.144676 0.144676 0.072338 0.289352 0.289352 0.289352 0.144676 0.144676 0.144676 0.0723379 0.289352 0.289352 0.289352 0.144676 0.144676 0.144676 0.072338 0.289352 0.289352 0.289352 0.144676 0.144676 0.144676 0.072338 0.289352 0.289352 0.289352 0.144676 0.144676 0.144676 0.072338 0.289352 0.289352 0.289352 0.144676 0.144676 0.144676 0.072338 0.289352 0.289352 0.289352 0.144676 0.144676 0.144676 0.0723379 0.289352 0.289352 0.289352 0.144676 0.144676 0.144676 0.072338 0.289352 0.289352 0.289352 0.144676 0.144676 0.144676 0.072338 0.289352 0.289352 0.289352 0.144676 0.144676 0.144676 0.0723379 0.289352 0.289352 0.289352 0.144676 0.144676 0.144676 0.072338 0.289352 0.289352 0.289352 0.144676 0.144676 0.144676 0.0723379 0.289352 0.289352 0.289352 0.144676 0.144676 0.144676 0.072338 0.289352 0.289352 0.289352 0.144676 0.144676 0.144676 0.0723381 0.289351 0.289352 0.289352 0.144676 0.144676 0.144676 0.0723379 0.289351 0.289352 0.289351 0.144676 0.144676 0.144676 0.0723379 0.289352 0.289352 0.289352 0.144676 0.144676 0.144676 0.072338 0.289352 0.289352 0.289352 0.144676 0.144676 0.144676 0.0723379 0.144676 0.144676 0.289352 0.072338 0.144676 0.144676 0.072338 0.289352 0.144676 0.289352 0.289352 0.144676 0.144676 0.144676 0.072338 0.144676 0.072338 0.289352 0.289352 0.289352 0.144676 0.144676 0.144676 0.072338 0.289352 0.289352 0.289352 0.144676 0.144676 0.144676 0.072338 0.289352 0.289352 0.289352 0.144676 0.144676 0.144676 0.072338 0.289352 0.289352 0.289352 0.144676 0.144676 0.144676 0.072338 0.289352 0.289352 0.289352 0.144676 0.144676 0.144676 0.072338 0.289352 0.289352 0.289352 0.144676 0.144676 0.144676 0.072338 0.289352 0.289352 0.289352 0.144676 0.144676 0.144676 0.072338 0.289352 0.289352 0.289352 0.144676 0.144676 0.144676 0.072338 0.289352 0.289352 0.289352 0.144676 0.144676 0.144676 0.072338 0.289352 0.289352 0.289352 0.144676 0.144676 0.144676 0.072338 0.289352 0.289352 0.289352 0.144676 0.144676 0.144676 0.072338 0.289352 0.289352 0.289352 0.144676 0.144676 0.144676 0.072338 0.289352 0.289352 0.289352 0.144676 0.144676 0.144676 0.072338 0.289352 0.289352 0.289352 0.144676 0.144676 0.144676 0.072338 0.289352 0.289352 0.289352 0.144676 0.144676 0.144676 0.072338 0.289352 0.289352 0.289352 0.144676 0.144676 0.144676 0.072338 0.289352 0.289352 0.289352 0.144676 0.144676 0.144676 0.072338 0.289352 0.289352 0.289352 0.144676 0.144676 0.144676 0.072338 0.289352 0.289352 0.289352 0.144676 0.144676 0.144676 0.0723379 0.289352 0.289352 0.289352 0.144676 0.144676 0.144676 0.072338 0.289352 0.289352 0.289352 0.144676 0.144676 0.144676 0.072338 0.289352 0.289352 0.289352 0.144676 0.144676 0.144676 0.072338 0.289352 0.289352 0.289352 0.144676 0.144676 0.144676 0.072338 0.289352 0.289352 0.289352 0.144676 0.144676 0.144676 0.072338 0.289352 0.289352 0.289352 0.144676 0.144676 0.144676 0.072338 0.289352 0.289352 0.289352 0.144676 0.144676 0.144676 0.0723381 0.289351 0.289352 0.289352 0.144676 0.144676 0.144676 0.0723379 0.289351 0.289352 0.289351 0.144676 0.144676 0.144676 0.0723379 0.289352 0.289352 0.289352 0.144676 0.144676 0.144676 0.072338 0.289352 0.289352 0.289352 0.144676 0.144676 0.144676 0.072338 0.144676 0.144676 0.289352 0.072338 0.144676 0.144676 0.072338 0.289352 0.144676 0.289352 0.289352 0.144676 0.144676 0.144676 0.072338 0.144676 0.072338 0.289352 0.289352 0.289352 0.144676 0.144676 0.144676 0.072338 0.289352 0.289352 0.289352 0.144676 0.144676 0.144676 0.072338 0.289352 0.289352 0.289352 0.144676 0.144676 0.144676 0.072338 0.289352 0.289352 0.289352 0.144676 0.144676 0.144676 0.072338 0.289352 0.289352 0.289352 0.144676 0.144676 0.144676 0.072338 0.289352 0.289352 0.289352 0.144676 0.144676 0.144676 0.072338 0.289352 0.289352 0.289352 0.144676 0.144676 0.144676 0.072338 0.289352 0.289352 0.289352 0.144676 0.144676 0.144676 0.072338 0.289352 0.289352 0.289352 0.144676 0.144676 0.144676 0.072338 0.289352 0.289352 0.289352 0.144676 0.144676 0.144676 0.072338 0.289352 0.289352 0.289352 0.144676 0.144676 0.144676 0.072338 0.289352 0.289352 0.289352 0.144676 0.144676 0.144676 0.072338 0.289352 0.289352 0.289352 0.144676 0.144676 0.144676 0.072338 0.289352 0.289352 0.289352 0.144676 0.144676 0.144676 0.072338 0.289352 0.289352 0.289352 0.144676 0.144676 0.144676 0.072338 0.289352 0.289352 0.289352 0.144676 0.144676 0.144676 0.072338 0.289352 0.289352 0.289352 0.144676 0.144676 0.144676 0.072338 0.289352 0.289352 0.289352 0.144676 0.144676 0.144676 0.072338 0.289352 0.289352 0.289351 0.144676 0.144676 0.144676 0.072338 0.289352 0.289352 0.289352 0.144676 0.144676 0.144676 0.072338 0.289352 0.289352 0.289352 0.144676 0.144676 0.144676 0.072338 0.289352 0.289352 0.289352 0.144676 0.144676 0.144676 0.072338 0.289352 0.289352 0.289352 0.144676 0.144676 0.144676 0.072338 0.289352 0.289352 0.289352 0.144676 0.144676 0.144676 0.072338 0.289352 0.289352 0.289352 0.144676 0.144676 0.144676 0.072338 0.289352 0.289352 0.289352 0.144676 0.144676 0.144676 0.0723381 0.289351 0.289352 0.289352 0.144676 0.144676 0.144676 0.072338 0.289352 0.289352 0.289351 0.144676 0.144676 0.144676 0.0723379 0.289352 0.289352 0.289352 0.144676 0.144676 0.144676 0.072338 0.289352 0.289352 0.289352 0.144676 0.144676 0.144676 0.072338 0.144676 0.144676 0.289352 0.072338 0.144676 0.144676 0.072338 0.289352 0.144676 0.144676 0.144676 0.072338 0.144676 0.144676 0.072338 0.072338 0.072338 0.289352 0.144676 0.144676 0.144676 0.144676 0.072338 0.072338 0.289352 0.144676 0.144676 0.144676 0.144676 0.072338 0.072338 0.289352 0.144676 0.144676 0.144676 0.144676 0.072338 0.072338 0.289352 0.144676 0.144676 0.144676 0.144676 0.072338 0.072338 0.289352 0.144676 0.144676 0.144676 0.144676 0.072338 0.072338 0.289352 0.144676 0.144676 0.144676 0.144676 0.072338 0.072338 0.289352 0.144676 0.144676 0.144676 0.144676 0.072338 0.072338 0.289352 0.144676 0.144676 0.144676 0.144676 0.072338 0.072338 0.289352 0.144676 0.144676 0.144676 0.144676 0.072338 0.072338 0.289352 0.144676 0.144676 0.144676 0.144676 0.0723379 0.0723379 0.289352 0.144676 0.144676 0.144676 0.144676 0.072338 0.072338 0.289352 0.144676 0.144676 0.144676 0.144676 0.072338 0.072338 0.289352 0.144676 0.144676 0.144676 0.144676 0.072338 0.072338 0.289352 0.144676 0.144676 0.144676 0.144676 0.0723379 0.0723379 0.289352 0.144676 0.144676 0.144676 0.144676 0.072338 0.072338 0.289352 0.144676 0.144676 0.144676 0.144676 0.072338 0.072338 0.289352 0.144676 0.144676 0.144676 0.144676 0.072338 0.072338 0.289351 0.144676 0.144676 0.144676 0.144676 0.0723379 0.0723379 0.289352 0.144676 0.144676 0.144676 0.144676 0.0723379 0.0723379 0.289352 0.144676 0.144676 0.144676 0.144676 0.072338 0.072338 0.289352 0.144676 0.144676 0.144676 0.144676 0.072338 0.072338 0.289352 0.144676 0.144676 0.144676 0.144676 0.0723379 0.0723379 0.289352 0.144676 0.144676 0.144676 0.144676 0.072338 0.072338 0.289352 0.144676 0.144676 0.144676 0.144676 0.0723379 0.0723379 0.289352 0.144676 0.144676 0.144676 0.144676 0.072338 0.072338 0.289352 0.144676 0.144676 0.144676 0.144676 0.0723381 0.0723381 0.289351 0.144676 0.144676 0.144676 0.144676 0.0723379 0.0723379 0.289351 0.144676 0.144676 0.144676 0.144676 0.0723379 0.0723379 0.289352 0.144676 0.144676 0.144676 0.144676 0.072338 0.072338 0.289352 0.144676 0.144676 0.144676 0.144676 0.0723379 0.0723379 0.144676 0.072338 0.144676 0.072338 0.144676 0.072338 0.072338 0.144676 0.0723379 0.0723379 0.144676 0.0723379 0.289352 0.144676 0.144676 0.0723379 0.144676 0.0723379 0.0723379 0.144676 0.0723379 0.144676 0.0723379 0.144676 0.289352 0.144676 0.0723379 0.144676 0.0723379 0.144676 0.0723379 0.144676 0.0723379 0.144676 0.289351 0.144676 0.0723379 0.144676 0.0723379 0.144676 0.0723379 0.144676 0.0723379 0.144676 0.289351 0.144676 0.0723379 0.144676 0.0723379 0.144676 0.0723379 0.144676 0.0723379 0.144676 0.289351 0.144676 0.0723379 0.144676 0.0723379 0.144676 0.0723379 0.144676 0.0723379 0.144676 0.289351 0.144676 0.0723379 0.144676 0.0723379 0.144676 0.0723379 0.144676 0.0723379 0.144676 0.289351 0.144676 0.0723379 0.144676 0.0723379 0.144676 0.0723379 0.144676 0.0723379 0.144676 0.289352 0.144676 0.0723379 0.144676 0.0723379 0.144676 0.0723379 0.144676 0.0723379 0.144676 0.289351 0.144676 0.0723379 0.144676 0.0723379 0.144676 0.0723379 0.144676 0.0723379 0.144676 0.289351 0.144676 0.0723379 0.144676 0.0723379 0.144676 0.0723379 0.144676 0.0723378 0.144676 0.289351 0.144676 0.0723378 0.144676 0.0723378 0.144676 0.0723378 0.144676 0.0723379 0.144676 0.289351 0.144676 0.0723379 0.144676 0.0723379 0.144676 0.0723379 0.144676 0.0723379 0.144676 0.289352 0.144676 0.0723379 0.144676 0.0723379 0.144676 0.0723379 0.144676 0.0723379 0.144676 0.289351 0.144676 0.0723379 0.144676 0.0723379 0.144676 0.0723379 0.144676 0.0723378 0.144676 0.289351 0.144676 0.0723378 0.144676 0.0723378 0.144676 0.0723378 0.144676 0.0723379 0.144676 0.289352 0.144676 0.0723379 0.144676 0.0723379 0.144676 0.0723379 0.144676 0.0723379 0.144676 0.289351 0.144676 0.0723379 0.144676 0.0723379 0.144676 0.0723379 0.144676 0.0723378 0.144676 0.289351 0.144676 0.0723378 0.144676 0.0723378 0.144676 0.0723378 0.144676 0.0723378 0.144676 0.289351 0.144676 0.0723378 0.144676 0.0723378 0.144676 0.0723378 0.144676 0.0723378 0.144676 0.289351 0.144676 0.0723378 0.144676 0.0723378 0.144676 0.0723378 0.144676 0.0723379 0.144676 0.289352 0.144676 0.0723379 0.144676 0.0723379 0.144676 0.0723379 0.144676 0.0723379 0.144676 0.289351 0.144676 0.0723379 0.144676 0.0723379 0.144676 0.0723379 0.144676 0.0723378 0.144676 0.289351 0.144676 0.0723378 0.144676 0.0723378 0.144676 0.0723378 0.144676 0.0723379 0.144676 0.289351 0.144676 0.0723379 0.144676 0.0723379 0.144676 0.0723379 0.144676 0.0723378 0.144676 0.289351 0.144676 0.0723378 0.144676 0.0723378 0.144676 0.0723378 0.144676 0.0723379 0.144676 0.289352 0.144676 0.0723379 0.144676 0.0723379 0.144676 0.0723379 0.144676 0.072338 0.144676 0.289352 0.144676 0.072338 0.144676 0.072338 0.144676 0.072338 0.144676 0.0723378 0.144676 0.289351 0.144676 0.0723378 0.144676 0.0723378 0.144676 0.0723378 0.144676 0.0723378 0.144676 0.289351 0.144676 0.0723378 0.144676 0.0723378 0.144676 0.0723378 0.144676 0.0723379 0.144676 0.289351 0.144676 0.0723379 0.144676 0.0723379 0.144676 0.0723379 0.144676 0.0723378 0.144676 0.289351 0.144676 0.0723378 0.144676 0.0723378 0.144676 0.0723378 0.0723379 0.0723379 0.0723379 0.144676 0.144676 0.0723379 0.0723379 0.0723379 0.144676 0.0723379 0.144676 0.0723379 0.289352 0.144676 0.144676 0.144676 0.0723379 0.0723379 0.144676 0.0723379 0.144676 0.289352 0.144676 0.144676 0.0723379 0.144676 0.0723379 0.144676 0.289351 0.144676 0.144676 0.0723379 0.144676 0.0723379 0.144676 0.289351 0.144676 0.144676 0.0723379 0.144676 0.0723379 0.144676 0.289351 0.144676 0.144676 0.0723379 0.144676 0.0723379 0.144676 0.289351 0.144676 0.144676 0.0723379 0.144676 0.0723379 0.144676 0.289351 0.144676 0.144676 0.0723379 0.144676 0.0723379 0.144676 0.289352 0.144676 0.144676 0.0723379 0.144676 0.0723379 0.144676 0.289351 0.144676 0.144676 0.0723379 0.144676 0.0723379 0.144676 0.289351 0.144676 0.144676 0.0723379 0.144676 0.0723379 0.144676 0.289351 0.144676 0.144676 0.0723378 0.144676 0.0723378 0.144676 0.289351 0.144676 0.144676 0.0723379 0.144676 0.0723379 0.144676 0.289352 0.144676 0.144676 0.0723379 0.144676 0.0723379 0.144676 0.289351 0.144676 0.144676 0.0723379 0.144676 0.0723379 0.144676 0.289351 0.144676 0.144676 0.0723378 0.144676 0.0723378 0.144676 0.289352 0.144676 0.144676 0.0723379 0.144676 0.0723379 0.144676 0.289351 0.144676 0.144676 0.0723379 0.144676 0.0723379 0.144676 0.289351 0.144676 0.144676 0.0723378 0.144676 0.0723378 0.144676 0.289351 0.144676 0.144676 0.0723378 0.144676 0.0723378 0.144676 0.289351 0.144676 0.144676 0.0723378 0.144676 0.0723378 0.144676 0.289352 0.144676 0.144676 0.0723379 0.144676 0.0723379 0.144676 0.289351 0.144676 0.144676 0.0723379 0.144676 0.0723379 0.144676 0.289351 0.144676 0.144676 0.0723378 0.144676 0.0723378 0.144676 0.289351 0.144676 0.144676 0.0723379 0.144676 0.0723379 0.144676 0.289351 0.144676 0.144676 0.0723378 0.144676 0.0723378 0.144676 0.289352 0.144676 0.144676 0.0723379 0.144676 0.0723379 0.144676 0.289352 0.144676 0.144676 0.072338 0.144676 0.072338 0.144676 0.289351 0.144676 0.144676 0.0723378 0.144676 0.0723378 0.144676 0.289351 0.144676 0.144676 0.0723378 0.144676 0.0723378 0.144676 0.289351 0.144676 0.144676 0.0723379 0.144676 0.0723379 0.144676 0.289351 0.144676 0.144676 0.0723378 0.144676 0.0723378 0.0723379 0.144676 0.144676 0.0723379 0.0723379 0.144676 0.0723379 0.144676 0.0723379 0.289351 0.144676 0.144676 0.144676 0.0723379 0.0723379 0.144676 0.0723379 0.144676 0.289352 0.144676 0.144676 0.0723379 0.144676 0.0723379 0.144676 0.289351 0.144676 0.144676 0.0723379 0.144676 0.0723379 0.144676 0.289351 0.144676 0.144676 0.0723379 0.144676 0.0723379 0.144676 0.289351 0.144676 0.144676 0.0723379 0.144676 0.0723379 0.144676 0.289351 0.144676 0.144676 0.0723379 0.144676 0.0723379 0.144676 0.289351 0.144676 0.144676 0.0723379 0.144676 0.0723379 0.144676 0.289351 0.144676 0.144676 0.0723379 0.144676 0.0723379 0.144676 0.289351 0.144676 0.144676 0.0723379 0.144676 0.0723379 0.144676 0.289351 0.144676 0.144676 0.0723379 0.144676 0.0723379 0.144676 0.289351 0.144676 0.144676 0.0723379 0.144676 0.0723379 0.144676 0.289351 0.144676 0.144676 0.0723379 0.144676 0.0723379 0.144676 0.289352 0.144676 0.144676 0.0723379 0.144676 0.0723379 0.144676 0.289351 0.144676 0.144676 0.0723379 0.144676 0.0723379 0.144676 0.289351 0.144676 0.144676 0.0723378 0.144676 0.0723378 0.144676 0.289352 0.144676 0.144676 0.0723379 0.144676 0.0723379 0.144676 0.289351 0.144676 0.144676 0.0723379 0.144676 0.0723379 0.144676 0.289351 0.144676 0.144676 0.0723379 0.144676 0.0723379 0.144676 0.289351 0.144676 0.144676 0.0723378 0.144676 0.0723378 0.144676 0.289351 0.144676 0.144676 0.0723378 0.144676 0.0723378 0.144676 0.289352 0.144676 0.144676 0.0723379 0.144676 0.0723379 0.144676 0.289351 0.144676 0.144676 0.0723379 0.144676 0.0723379 0.144676 0.289351 0.144676 0.144676 0.0723378 0.144676 0.0723378 0.144676 0.289351 0.144676 0.144676 0.0723379 0.144676 0.0723379 0.144676 0.289351 0.144676 0.144676 0.0723378 0.144676 0.0723378 0.144676 0.289352 0.144676 0.144676 0.0723379 0.144676 0.0723379 0.144676 0.289352 0.144676 0.144676 0.072338 0.144676 0.072338 0.144676 0.289351 0.144676 0.144676 0.0723378 0.144676 0.0723378 0.144676 0.289351 0.144675 0.144676 0.0723378 0.144675 0.0723378 0.144676 0.289351 0.144676 0.144676 0.0723379 0.144676 0.0723379 0.144676 0.289351 0.144676 0.144676 0.0723378 0.144676 0.0723378 0.0723379 0.144676 0.144676 0.0723379 0.0723379 0.144676 0.0723379 0.144676 0.0723379 0.289351 0.144676 0.144676 0.144676 0.0723379 0.0723379 0.144676 0.0723379 0.144676 0.289351 0.144676 0.144676 0.0723379 0.144676 0.0723379 0.144676 0.289351 0.144676 0.144676 0.0723379 0.144676 0.0723379 0.144676 0.289351 0.144676 0.144676 0.0723378 0.144676 0.0723378 0.144676 0.289351 0.144676 0.144676 0.0723379 0.144676 0.0723379 0.144676 0.289351 0.144676 0.144676 0.0723379 0.144676 0.0723379 0.144676 0.289351 0.144676 0.144676 0.0723379 0.144676 0.0723379 0.144676 0.289351 0.144676 0.144676 0.0723379 0.144676 0.0723379 0.144676 0.289351 0.144676 0.144676 0.0723379 0.144676 0.0723379 0.144676 0.289351 0.144676 0.144676 0.0723378 0.144676 0.0723378 0.144676 0.289351 0.144676 0.144676 0.0723378 0.144676 0.0723378 0.144676 0.289351 0.144676 0.144676 0.0723379 0.144676 0.0723379 0.144676 0.289352 0.144676 0.144676 0.0723379 0.144676 0.0723379 0.144676 0.289351 0.144676 0.144676 0.0723379 0.144676 0.0723379 0.144676 0.289351 0.144676 0.144676 0.0723378 0.144676 0.0723378 0.144676 0.289351 0.144676 0.144676 0.0723379 0.144676 0.0723379 0.144676 0.289351 0.144676 0.144676 0.0723379 0.144676 0.0723379 0.144676 0.289351 0.144676 0.144676 0.0723378 0.144676 0.0723378 0.144676 0.289351 0.144676 0.144676 0.0723378 0.144676 0.0723378 0.144676 0.289351 0.144676 0.144676 0.0723378 0.144676 0.0723378 0.144676 0.289351 0.144676 0.144676 0.0723379 0.144676 0.0723379 0.144676 0.289351 0.144676 0.144676 0.0723379 0.144676 0.0723379 0.144676 0.289351 0.144676 0.144676 0.0723378 0.144676 0.0723378 0.144676 0.289351 0.144676 0.144676 0.0723379 0.144676 0.0723379 0.144676 0.289351 0.144676 0.144676 0.0723378 0.144676 0.0723378 0.144676 0.289352 0.144676 0.144676 0.0723378 0.144676 0.0723378 0.144676 0.289352 0.144676 0.144676 0.072338 0.144676 0.072338 0.144676 0.289351 0.144676 0.144676 0.0723378 0.144676 0.0723378 0.144676 0.289351 0.144675 0.144676 0.0723377 0.144675 0.0723377 0.144676 0.289351 0.144676 0.144676 0.0723379 0.144676 0.0723379 0.144676 0.289351 0.144676 0.144676 0.0723378 0.144676 0.0723378 0.0723379 0.144676 0.144676 0.0723379 0.0723379 0.144676 0.0723379 0.144676 0.0723379 0.289351 0.144676 0.144676 0.144676 0.0723379 0.0723379 0.144676 0.0723379 0.144676 0.289352 0.144676 0.144676 0.0723379 0.144676 0.0723379 0.144676 0.289351 0.144676 0.144676 0.0723379 0.144676 0.0723379 0.144676 0.289351 0.144676 0.144676 0.0723378 0.144676 0.0723378 0.144676 0.289351 0.144676 0.144676 0.0723379 0.144676 0.0723379 0.144676 0.289351 0.144676 0.144676 0.0723379 0.144676 0.0723379 0.144676 0.289351 0.144676 0.144676 0.0723379 0.144676 0.0723379 0.144676 0.289351 0.144676 0.144676 0.0723379 0.144676 0.0723379 0.144676 0.289351 0.144676 0.144676 0.0723379 0.144676 0.0723379 0.144676 0.289351 0.144676 0.144676 0.0723378 0.144676 0.0723378 0.144676 0.289351 0.144676 0.144676 0.0723378 0.144676 0.0723378 0.144676 0.289351 0.144676 0.144676 0.0723379 0.144676 0.0723379 0.144676 0.289351 0.144676 0.144676 0.0723379 0.144676 0.0723379 0.144676 0.289351 0.144676 0.144676 0.0723379 0.144676 0.0723379 0.144676 0.289351 0.144676 0.144676 0.0723378 0.144676 0.0723378 0.144676 0.289351 0.144676 0.144676 0.0723379 0.144676 0.0723379 0.144676 0.289351 0.144676 0.144676 0.0723379 0.144676 0.0723379 0.144676 0.289351 0.144676 0.144676 0.0723378 0.144676 0.0723378 0.144676 0.289351 0.144676 0.144676 0.0723378 0.144676 0.0723378 0.144676 0.289351 0.144676 0.144676 0.0723378 0.144676 0.0723378 0.144676 0.289352 0.144676 0.144676 0.0723379 0.144676 0.0723379 0.144676 0.289351 0.144676 0.144676 0.0723379 0.144676 0.0723379 0.144676 0.289351 0.144676 0.144676 0.0723378 0.144676 0.0723378 0.144676 0.289351 0.144676 0.144676 0.0723379 0.144676 0.0723379 0.144676 0.289351 0.144676 0.144676 0.0723378 0.144676 0.0723378 0.144676 0.289352 0.144676 0.144676 0.0723379 0.144676 0.0723379 0.144676 0.289352 0.144676 0.144676 0.072338 0.144676 0.072338 0.144676 0.289351 0.144676 0.144676 0.0723378 0.144676 0.0723378 0.144676 0.289351 0.144675 0.144676 0.0723377 0.144675 0.0723377 0.144676 0.289351 0.144676 0.144676 0.0723379 0.144676 0.0723379 0.144676 0.289351 0.144676 0.144676 0.0723378 0.144676 0.0723378 0.0723379 0.144676 0.144676 0.0723379 0.0723379 0.144676 0.0723379 0.144676 0.0723379 0.289352 0.144676 0.144676 0.144676 0.0723379 0.0723379 0.144676 0.0723379 0.144676 0.289352 0.144676 0.144676 0.0723379 0.144676 0.0723379 0.144676 0.289352 0.144676 0.144676 0.0723379 0.144676 0.0723379 0.144676 0.289351 0.144676 0.144676 0.0723379 0.144676 0.0723379 0.144676 0.289352 0.144676 0.144676 0.0723379 0.144676 0.0723379 0.144676 0.289352 0.144676 0.144676 0.0723379 0.144676 0.0723379 0.144676 0.289351 0.144676 0.144676 0.0723379 0.144676 0.0723379 0.144676 0.289351 0.144676 0.144676 0.0723379 0.144676 0.0723379 0.144676 0.289351 0.144676 0.144676 0.0723379 0.144676 0.0723379 0.144676 0.289351 0.144676 0.144676 0.0723379 0.144676 0.0723379 0.144676 0.289351 0.144676 0.144676 0.0723379 0.144676 0.0723379 0.144676 0.289351 0.144676 0.144676 0.0723379 0.144676 0.0723379 0.144676 0.289352 0.144676 0.144676 0.0723379 0.144676 0.0723379 0.144676 0.289351 0.144676 0.144676 0.0723379 0.144676 0.0723379 0.144676 0.289351 0.144676 0.144676 0.0723378 0.144676 0.0723378 0.144676 0.289352 0.144676 0.144676 0.0723379 0.144676 0.0723379 0.144676 0.289351 0.144676 0.144676 0.0723379 0.144676 0.0723379 0.144676 0.289351 0.144676 0.144676 0.0723379 0.144676 0.0723379 0.144676 0.289351 0.144676 0.144676 0.0723378 0.144676 0.0723378 0.144676 0.289351 0.144676 0.144676 0.0723378 0.144676 0.0723378 0.144676 0.289352 0.144676 0.144676 0.0723379 0.144676 0.0723379 0.144676 0.289351 0.144676 0.144676 0.0723379 0.144676 0.0723379 0.144676 0.289351 0.144676 0.144676 0.0723378 0.144676 0.0723378 0.144676 0.289351 0.144676 0.144676 0.0723379 0.144676 0.0723379 0.144676 0.289351 0.144676 0.144676 0.0723378 0.144676 0.0723378 0.144676 0.289352 0.144676 0.144676 0.0723379 0.144676 0.0723379 0.144676 0.289352 0.144676 0.144676 0.072338 0.144676 0.072338 0.144676 0.289351 0.144676 0.144676 0.0723378 0.144676 0.0723378 0.144676 0.289351 0.144675 0.144676 0.0723377 0.144675 0.0723377 0.144676 0.289351 0.144676 0.144676 0.0723379 0.144676 0.0723379 0.144676 0.289351 0.144676 0.144676 0.0723378 0.144676 0.0723378 0.0723379 0.144676 0.144676 0.0723379 0.0723379 0.144676 0.0723379 0.144676 0.0723379 0.289351 0.144676 0.144676 0.144676 0.0723379 0.0723379 0.144676 0.0723379 0.144676 0.289352 0.144676 0.144676 0.0723379 0.144676 0.0723379 0.144676 0.289351 0.144676 0.144676 0.0723379 0.144676 0.0723379 0.144676 0.289351 0.144676 0.144676 0.0723379 0.144676 0.0723379 0.144676 0.289351 0.144676 0.144676 0.0723379 0.144676 0.0723379 0.144676 0.289351 0.144676 0.144676 0.0723379 0.144676 0.0723379 0.144676 0.289351 0.144676 0.144676 0.0723379 0.144676 0.0723379 0.144676 0.289351 0.144676 0.144676 0.0723379 0.144676 0.0723379 0.144676 0.289351 0.144676 0.144676 0.0723379 0.144676 0.0723379 0.144676 0.289351 0.144676 0.144676 0.0723379 0.144676 0.0723379 0.144676 0.289351 0.144676 0.144676 0.0723379 0.144676 0.0723379 0.144676 0.289351 0.144676 0.144676 0.0723379 0.144676 0.0723379 0.144676 0.289351 0.144676 0.144676 0.0723379 0.144676 0.0723379 0.144676 0.289351 0.144676 0.144676 0.0723379 0.144676 0.0723379 0.144676 0.289351 0.144676 0.144676 0.0723378 0.144676 0.0723378 0.144676 0.289352 0.144676 0.144676 0.0723379 0.144676 0.0723379 0.144676 0.289351 0.144676 0.144676 0.0723379 0.144676 0.0723379 0.144676 0.289351 0.144676 0.144676 0.0723379 0.144676 0.0723379 0.144676 0.289351 0.144676 0.144676 0.0723378 0.144676 0.0723378 0.144676 0.289351 0.144676 0.144676 0.0723378 0.144676 0.0723378 0.144676 0.289351 0.144676 0.144676 0.0723379 0.144676 0.0723379 0.144676 0.289351 0.144676 0.144676 0.0723379 0.144676 0.0723379 0.144676 0.289351 0.144676 0.144676 0.0723378 0.144676 0.0723378 0.144676 0.289351 0.144676 0.144676 0.0723379 0.144676 0.0723379 0.144676 0.289351 0.144676 0.144676 0.0723378 0.144676 0.0723378 0.144676 0.289352 0.144676 0.144676 0.0723379 0.144676 0.0723379 0.144676 0.289352 0.144676 0.144676 0.072338 0.144676 0.072338 0.144676 0.289351 0.144676 0.144676 0.0723378 0.144676 0.0723378 0.144676 0.289351 0.144675 0.144676 0.0723378 0.144675 0.0723378 0.144676 0.289351 0.144676 0.144676 0.0723379 0.144676 0.0723379 0.144676 0.289351 0.144676 0.144676 0.0723378 0.144676 0.0723378 0.0723379 0.144676 0.144676 0.0723379 0.0723379 0.144676 0.0723379 0.144676 0.0723379 0.144676 0.0723379 0.0723379 0.144676 0.0723379 0.0723379 0.0723379 0.0723379 0.144676 0.144676 0.0723379 0.144676 0.0723379 0.0723379 0.0723379 0.144676 0.144676 0.0723379 0.144676 0.0723379 0.0723379 0.0723379 0.144676 0.144676 0.0723378 0.144676 0.0723378 0.0723378 0.0723378 0.144676 0.144676 0.0723379 0.144676 0.0723379 0.0723379 0.0723379 0.144676 0.144676 0.0723379 0.144676 0.0723379 0.0723379 0.0723379 0.144676 0.144676 0.0723379 0.144676 0.0723379 0.0723379 0.0723379 0.144676 0.144676 0.0723379 0.144676 0.0723379 0.0723379 0.0723379 0.144676 0.144676 0.0723379 0.144676 0.0723379 0.0723379 0.0723379 0.144676 0.144676 0.0723378 0.144676 0.0723378 0.0723378 0.0723378 0.144676 0.144676 0.0723378 0.144676 0.0723378 0.0723378 0.0723378 0.144676 0.144676 0.0723379 0.144676 0.0723379 0.0723379 0.0723379 0.144676 0.144676 0.0723379 0.144676 0.0723379 0.0723379 0.0723379 0.144676 0.144676 0.0723379 0.144676 0.0723379 0.0723379 0.0723379 0.144676 0.144676 0.0723378 0.144676 0.0723378 0.0723378 0.0723378 0.144676 0.144676 0.0723379 0.144676 0.0723379 0.0723379 0.0723379 0.144676 0.144676 0.0723379 0.144676 0.0723379 0.0723379 0.0723379 0.144676 0.144676 0.0723378 0.144676 0.0723378 0.0723378 0.0723378 0.144676 0.144676 0.0723378 0.144676 0.0723378 0.0723378 0.0723378 0.144676 0.144676 0.0723378 0.144676 0.0723378 0.0723378 0.0723378 0.144676 0.144676 0.0723379 0.144676 0.0723379 0.0723379 0.0723379 0.144676 0.144676 0.0723378 0.144676 0.0723378 0.0723378 0.0723378 0.144676 0.144676 0.0723378 0.144676 0.0723378 0.0723378 0.0723378 0.144676 0.144676 0.0723379 0.144676 0.0723379 0.0723379 0.0723379 0.144676 0.144676 0.0723378 0.144676 0.0723378 0.0723378 0.0723378 0.144676 0.144676 0.0723378 0.144676 0.0723378 0.0723378 0.0723378 0.144676 0.144676 0.0723379 0.144676 0.0723379 0.0723379 0.0723379 0.144676 0.144676 0.0723378 0.144676 0.0723378 0.0723378 0.0723378 0.144676 0.144676 0.0723377 0.144676 0.0723377 0.0723377 0.0723377 0.144676 0.144676 0.0723379 0.144676 0.0723379 0.0723379 0.0723379 0.144676 0.144676 0.0723378 0.144676 0.0723378 0.0723378 0.0723378 0.0723379 0.0723379 0.0723379 0.0723379 0.0723379 0.0723379 0.0723379 
VECTORS u float
0 0 0  -0.0121633 -0.0052357 -0.0182302  -0.023139 -0.00806193 -0.0236433  -0.0327955 -0.0179067 -0.0242739  -0.0430419 -0.0320359 -0.0218987  -0.0534697 -0.0499369 -0.0179269  -0.0639935 -0.0709918 -0.012944  -0.0745237 -0.0948289 -0.00728035  -0.0850083 -0.121158 -0.00109243  -0.0954417 -0.149769 0.00554824  -0.105812 -0.180466 0.0126002  -0.116126 -0.213094 0.0200472  -0.126384 -0.24747 0.0278659  -0.136596 -0.283468 0.0360537  -0.146748 -0.320903 0.0445831  -0.156857 -0.35967 0.0534523  -0.166902 -0.399585 0.0626304  -0.176893 -0.44056 0.0721135  -0.186803 -0.482409 0.0818555  -0.196646 -0.525063 0.0918648  -0.206396 -0.56835 0.102087  -0.216061 -0.612224 0.112537  -0.225649 -0.656526 0.123133  -0.235097 -0.701195 0.133927  -0.244529 -0.746115 0.144823  -0.253784 -0.79123 0.155842  -0.263015 -0.836498 0.166922  -0.272202 -0.881749 0.178074  -0.281378 -0.927077 0.189083  -0.289838 -0.972239 0.200632  -0.300055 -1.01706 0.212227  -0.308273 -1.06323 0.221063  -0.314977 -1.11054 0.231897  0 0 0  -0.00709736 0.000264436 -0.012876  -0.0143706 -0.005072 -0.0155666  -0.0204425 -0.0150495 -0.015518  -0.0269737 -0.0296636 -0.013288  -0.0339841 -0.048114 -0.00967979  -0.0414141 -0.069839 -0.00512862  -0.0491562 -0.0944017 0.000129461  -0.0571433 -0.121496 0.00594234  -0.0653166 -0.150866 0.0122509  -0.0736583 -0.182331 0.018991  -0.0821419 -0.215676 0.0261669  -0.0907644 -0.25077 0.0337229  -0.0995021 -0.287411 0.0416753  -0.10836 -0.325487 0.049974  -0.11731 -0.3648 0.0586352  -0.12635 -0.405266 0.0676045  -0.135458 -0.446684 0.0768981  -0.144622 -0.488986 0.0864568  -0.153817 -0.531984 0.0962882  -0.163033 -0.575635 0.106349  -0.172256 -0.619755 0.116628  -0.181471 -0.664321 0.127097  -0.190688 -0.709155 0.137728  -0.199845 -0.754252 0.14852  -0.209024 -0.799478 0.159404  -0.218098 -0.844841 0.170424  -0.227259 -0.890136 0.181381  -0.236186 -0.935437 0.192513  -0.245455 -0.980858 0.203326  -0.254087 -1.02592 0.215393  -0.262714 -1.0709 0.226615  -0.274903 -1.11392 0.237652  0 0 0  -0.00327198 0.00259078 -0.00743842  -0.00652422 -0.00293134 -0.00861979  -0.00952089 -0.0135924 -0.00781488  -0.0129253 -0.0287011 -0.00547743  -0.016816 -0.0476289 -0.00206876  -0.0212424 -0.0698665 0.00217152  -0.0261738 -0.0949907 0.00707912  -0.0315666 -0.122682 0.0125682  -0.0373759 -0.152685 0.018558  -0.0435625 -0.184765 0.0250287  -0.0501002 -0.218753 0.0319197  -0.0569593 -0.254425 0.0392513  -0.0641261 -0.291671 0.0469556  -0.0715634 -0.330256 0.0550661  -0.0792648 -0.37012 0.0634971  -0.087185 -0.411004 0.0723045  -0.0953197 -0.452897 0.0813863  -0.10362 -0.495531 0.0908015  -0.112088 -0.538928 0.100447  -0.120663 -0.58282 0.110383  -0.129362 -0.627253 0.120496  -0.13812 -0.671981 0.130862  -0.146969 -0.717057 0.141348  -0.155844 -0.762253 0.152054  -0.164803 -0.807656 0.162839  -0.173621 -0.853041 0.173697  -0.182633 -0.898391 0.18478  -0.191714 -0.943758 0.195701  -0.200704 -0.989141 0.207186  -0.208599 -1.03445 0.217286  -0.218035 -1.07885 0.230535  -0.228544 -1.12489 0.238588  0 0 0  -0.000231206 0.00301841 -0.00190496  -4.04716e-05 -0.00249282 -0.00184774  9.60529e-05 -0.0136102 -0.000524998  -0.000190347 -0.0291958 0.0018599  -0.00102246 -0.0485638 0.00508165  -0.002496 -0.0712052 0.00905442  -0.0046311 -0.0967799 0.0136478  -0.00741172 -0.124934 0.0188358  -0.0108128 -0.15544 0.0245376  -0.0147885 -0.188033 0.0307324  -0.0193191 -0.222531 0.0373933  -0.0243492 -0.258723 0.0444748  -0.0298687 -0.296434 0.0519958  -0.0358229 -0.335517 0.0598648  -0.042196 -0.375771 0.0681639  -0.0489368 -0.417112 0.0767319  -0.0560203 -0.459306 0.0857279  -0.06341 -0.502344 0.0949085  -0.0710588 -0.54595 0.104503  -0.0789535 -0.59019 0.11421  -0.087038 -0.634754 0.124307  -0.0953116 -0.679766 0.134449  -0.1037 -0.724897 0.144968  -0.112243 -0.770318 0.15544  -0.120849 -0.815681 0.16621  -0.12951 -0.861293 0.177088  -0.138362 -0.906634 0.188071  -0.14712 -0.951899 0.19902  -0.155745 -0.996891 0.209862  -0.163702 -1.04287 0.222197  -0.174489 -1.08972 0.231767  -0.184932 -1.13137 0.246318  0 0 0  0.00243446 0.00224817 0.0034616  0.005768 -0.0037576 0.00471663  0.0089587 -0.0153015 0.00646162  0.0118235 -0.0312837 0.00881505  0.0140429 -0.0509505 0.0118697  0.0154979 -0.0739245 0.0155838  0.0161391 -0.0997935 0.0199149  0.0159562 -0.128335 0.0248246  0.0149809 -0.159193 0.0302606  0.0132252 -0.192216 0.0362175  0.0107507 -0.227096 0.0426333  0.0075686 -0.26372 0.0495281  0.00375426 -0.301809 0.0568206  -0.000690818 -0.341281 0.0645497  -0.0056783 -0.381885 0.0726273  -0.0112091 -0.423555 0.0810935  -0.0171905 -0.466062 0.0898702  -0.0236237 -0.509352 0.0989869  -0.0304232 -0.553228 0.108365  -0.0375905 -0.597641 0.11804  -0.045038 -0.64243 0.127932  -0.052763 -0.687546 0.13807  -0.060709 -0.732875 0.148373  -0.0688491 -0.778337 0.158896  -0.0771675 -0.823829 0.169536  -0.0855081 -0.869383 0.180312  -0.0941617 -0.914918 0.1912  -0.102732 -0.96051 0.202258  -0.111676 -1.00566 0.213532  -0.119672 -1.05119 0.224515  -0.128568 -1.09467 0.235991  -0.137246 -1.1414 0.246157  0 0 0  0.00499699 0.000414431 0.00857377  0.0114748 -0.00664067 0.0108833  0.017757 -0.0187376 0.0130017  0.0237523 -0.0349498 0.015343  0.0289825 -0.0548515 0.0182514  0.0333291 -0.0779796 0.021744  0.0366935 -0.104138 0.0258238  0.0391018 -0.13289 0.0304766  0.0405108 -0.164111 0.0356591  0.0409988 -0.197394 0.0413935  0.0405461 -0.232674 0.0475657  0.0392557 -0.269569 0.0542939  0.0371166 -0.308061 0.0613394  0.034229 -0.347782 0.0689707  0.0306034 -0.388762 0.076777  0.0263274 -0.430634 0.0852287  0.0214291 -0.473475 0.0936959  0.01598 -0.516913 0.102874  0.0100234 -0.56107 0.11191  0.00360751 -0.605576 0.12172  -0.00319982 -0.650592 0.131245  -0.0103836 -0.695744 0.141568  -0.0178332 -0.741228 0.151513  -0.0256219 -0.786684 0.162238  -0.0335579 -0.832343 0.172575  -0.0418289 -0.877838 0.183524  -0.0498533 -0.923463 0.19435  -0.0584488 -0.968577 0.205581  -0.0668626 -1.01393 0.216366  -0.0761995 -1.05892 0.227822  -0.0833883 -1.10668 0.240659  -0.0900342 -1.14764 0.250385  0 0 0  0.00773107 -0.00266266 0.0132856  0.017692 -0.0112728 0.0164182  0.0271495 -0.0238033 0.01893  0.0361892 -0.0401928 0.021394  0.0443278 -0.0601204 0.0241892  0.0515021 -0.0834459 0.0275187  0.0575244 -0.109676 0.0313649  0.062503 -0.138706 0.0357821  0.0662286 -0.170048 0.0407817  0.0689909 -0.20365 0.0462227  0.0704759 -0.239079 0.0523484  0.0711639 -0.276277 0.0586841  0.0705775 -0.314934 0.0658741  0.0693939 -0.354905 0.0729666  0.0669701 -0.396058 0.0811503  0.0641444 -0.438104 0.0888731  0.0601382 -0.481121 0.0979645  0.0559027 -0.524642 0.106212  0.0505774 -0.568985 0.116106  0.0451515 -0.613479 0.124812  0.0387602 -0.658688 0.135367  0.0323575 -0.703749 0.144485  0.0251431 -0.749441 0.155545  0.0179665 -0.794765 0.165071  0.0101337 -0.840591 0.176395  0.00235653 -0.885964 0.186442  -0.00587511 -0.93176 0.197873  -0.0139675 -0.977215 0.208349  -0.0229478 -1.02227 0.219639  -0.0305037 -1.06746 0.231048  -0.0406063 -1.11434 0.241327  -0.0459945 -1.16252 0.252685  0 0 0  0.011131 -0.00761896 0.0170999  0.025182 -0.0175836 0.0211468  0.0376842 -0.0301818 0.0243573  0.0495328 -0.0466551 0.0270233  0.0606146 -0.0666062 0.0298028  0.0704061 -0.090088 0.0329468  0.0792763 -0.116391 0.0366447  0.0864919 -0.145665 0.0407846  0.0928661 -0.177104 0.0456576  0.0974175 -0.211028 0.0507827  0.101305 -0.246545 0.0568521  0.103347 -0.284123 0.0628181  0.104892 -0.322825 0.0700471  0.104706 -0.363213 0.0766969  0.104107 -0.404354 0.0850418  0.102005 -0.446827 0.0922301  0.0994866 -0.489763 0.101618  0.0957906 -0.533691 0.109234  0.0916088 -0.577888 0.119567  0.0866117 -0.622748 0.127536  0.0810256 -0.667758 0.138679  0.0749977 -0.713128 0.146971  0.0682628 -0.758578 0.158746  0.0614536 -0.804121 0.167391  0.0538445 -0.849714 0.179606  0.0464573 -0.895176 0.18865  0.0381727 -0.940578 0.201047  0.0302269 -0.986054 0.210764  0.0223763 -1.03089 0.223372  0.0131814 -1.07563 0.232726  0.00741029 -1.11819 0.248008  0.00318956 -1.16144 0.259585  0 0 0  0.0168372 -0.0159088 0.0197575  0.0341851 -0.0246903 0.0257788  0.0493427 -0.0377373 0.0296319  0.0641008 -0.0543193 0.0323741  0.0781137 -0.0744878 0.0350504  0.0907049 -0.0981153 0.0381317  0.102148 -0.12455 0.0414886  0.111945 -0.154058 0.0457959  0.120405 -0.185497 0.0500174  0.127318 -0.219806 0.055748  0.132803 -0.255113 0.0606792  0.136985 -0.293271 0.0678821  0.139709 -0.331485 0.0733035  0.141396 -0.372651 0.0819581  0.141673 -0.413013 0.0876887  0.141118 -0.456438 0.0977256  0.139315 -0.498336 0.103652  0.136753 -0.543334 0.114962  0.13326 -0.586317 0.121024  0.128913 -0.632304 0.133418  0.124119 -0.676024 0.139662  0.118205 -0.722487 0.152889  0.112461 -0.766662 0.159429  0.10518 -0.813272 0.173157  0.098778 -0.857789 0.180329  0.0903828 -0.903984 0.194121  0.0836973 -0.948588 0.202022  0.0740721 -0.995466 0.21542  0.0677922 -1.0409 0.225552  0.0572937 -1.08431 0.241437  0.0522165 -1.1321 0.24557  0.0404129 -1.1728 0.277685  0 0 0  -0.00947013 -0.0109972 -0.0121765  -0.0222445 -0.0163684 -0.0179596  -0.0346784 -0.026114 -0.0187862  -0.0467878 -0.0397669 -0.0168402  -0.0585708 -0.0569815 -0.0132763  -0.0700748 -0.0773518 -0.00869823  -0.081347 -0.100533 -0.00342703  -0.0924321 -0.12627 0.00238824  -0.103363 -0.154319 0.00866699  -0.114172 -0.184521 0.0153744  -0.124869 -0.216654 0.0224895  -0.135484 -0.250605 0.0299971  -0.146004 -0.286156 0.0378835  -0.15646 -0.323223 0.0461388  -0.166817 -0.361582 0.0547421  -0.177116 -0.401181 0.0636785  -0.187303 -0.441785 0.0729287  -0.197417 -0.483366 0.082464  -0.207412 -0.525693 0.0922756  -0.217322 -0.568765 0.102328  -0.227108 -0.612358 0.112614  -0.236794 -0.656476 0.123087  -0.246358 -0.700923 0.13374  -0.25583 -0.745714 0.144557  -0.265173 -0.790656 0.155461  -0.274411 -0.835812 0.166496  -0.283689 -0.880981 0.177595  -0.292666 -0.926135 0.188719  -0.301574 -0.971714 0.199696  -0.311385 -1.01722 0.211111  -0.32002 -1.0619 0.221668  -0.327135 -1.10581 0.232172  0 0 0  -0.0046581 -0.00387937 -0.00836301  -0.0134457 -0.0112642 -0.0122185  -0.0221874 -0.0219165 -0.0122118  -0.030547 -0.0364427 -0.0101264  -0.0388958 -0.0545004 -0.00670409  -0.0473011 -0.0757078 -0.00236678  -0.0557969 -0.0997303 0.00264144  -0.064382 -0.126287 0.0082109  -0.0730687 -0.155159 0.0142572  -0.0818465 -0.186132 0.0207589  -0.0907323 -0.21904 0.0276821  -0.0997036 -0.253688 0.0350215  -0.108779 -0.289943 0.0427446  -0.117924 -0.327618 0.0508537  -0.127156 -0.366596 0.0593088  -0.136434 -0.406696 0.0681119  -0.145772 -0.447823 0.0772281  -0.155126 -0.489804 0.0866466  -0.164506 -0.532555 0.096333  -0.173875 -0.575928 0.106275  -0.183235 -0.619848 0.116446  -0.192572 -0.664175 0.126822  -0.20187 -0.708863 0.137382  -0.211149 -0.753769 0.14809  -0.22032 -0.798904 0.158935  -0.229543 -0.844067 0.169846  -0.238521 -0.889334 0.180938  -0.247851 -0.934619 0.191936  -0.256833 -0.980089 0.203066  -0.265583 -1.02478 0.214155  -0.274614 -1.06993 0.226433  -0.284459 -1.11589 0.236582  0 0 0  -0.00214076 -0.000998452 -0.00504661  -0.00654207 -0.00815177 -0.00699043  -0.0114509 -0.0195983 -0.00625563  -0.0163428 -0.0348107 -0.00396347  -0.0214007 -0.0535088 -0.000617504  -0.0267332 -0.0753558 0.00352836  -0.0323994 -0.100012 0.00830722  -0.0383989 -0.12724 0.0136495  -0.0447303 -0.156757 0.0194898  -0.0513806 -0.188408 0.0258019  -0.0583286 -0.221932 0.0325549  -0.0655735 -0.257228 0.0397298  -0.0730758 -0.294041 0.0473149  -0.0808417 -0.332304 0.0552804  -0.0888178 -0.371764 0.0636175  -0.0970184 -0.412376 0.0722911  -0.105378 -0.453898 0.0813024  -0.113914 -0.496306 0.0906036  -0.122556 -0.539372 0.100198  -0.131328 -0.583084 0.110031  -0.140162 -0.627234 0.120121  -0.149078 -0.671816 0.130398  -0.15802 -0.716652 0.140889  -0.167008 -0.761754 0.151508  -0.176014 -0.806971 0.162299  -0.185014 -0.852261 0.173171  -0.193998 -0.897566 0.184152  -0.202922 -0.942825 0.195191  -0.212146 -0.987999 0.206284  -0.22083 -1.03302 0.217818  -0.229759 -1.07811 0.228328  -0.237578 -1.12291 0.240206  0 0 0  -0.000258461 -0.000246495 -0.00172734  -0.00100912 -0.00724339 -0.00185895  -0.00212052 -0.0190811 -0.000536442  -0.00352669 -0.0348261 0.00186443  -0.00532347 -0.0540237 0.00511432  -0.00760561 -0.0763479 0.00906944  -0.0104349 -0.101506 0.0136371  -0.0138139 -0.129229 0.0187709  -0.0177455 -0.159291 0.0244141  -0.022197 -0.191451 0.0305526  -0.027161 -0.225535 0.0371375  -0.0325863 -0.261317 0.0441818  -0.0384713 -0.298668 0.0516138  -0.0447588 -0.337365 0.0594778  -0.0514475 -0.377314 0.0676756  -0.0584671 -0.418294 0.076268  -0.0658209 -0.460241 0.0851493  -0.0734394 -0.502944 0.0943849  -0.0813172 -0.546362 0.103855  -0.0893962 -0.590298 0.113645  -0.0976717 -0.634726 0.123621  -0.106089 -0.67947 0.133868  -0.114628 -0.724524 0.144244  -0.123292 -0.769707 0.154843  -0.132002 -0.815045 0.165553  -0.140783 -0.860422 0.176438  -0.149607 -0.905866 0.187452  -0.15867 -0.951142 0.198304  -0.167134 -0.996321 0.209296  -0.175928 -1.04168 0.220486  -0.185799 -1.08748 0.233414  -0.194481 -1.13152 0.24389  0 0 0  0.00137511 -0.00073418 0.00156093  0.0039556 -0.00813073 0.0031302  0.00647512 -0.0203637 0.00494409  0.00854325 -0.0364977 0.00739694  0.00998914 -0.0560459 0.0105171  0.010735 -0.0787364 0.0142899  0.0107265 -0.104244 0.0186572  0.00995958 -0.132392 0.023596  0.00844884 -0.162836 0.0290577  0.00620353 -0.195474 0.035028  0.00327802 -0.229947 0.0414701  -0.000327468 -0.266226 0.0483701  -0.00452566 -0.303937 0.0556972  -0.00933921 -0.343113 0.0634317  -0.0146507 -0.383369 0.0715485  -0.0205051 -0.424786 0.0800221  -0.026762 -0.46698 0.0888445  -0.0334764 -0.51006 0.0979698  -0.0405054 -0.553662 0.107399  -0.0479059 -0.597905 0.117085  -0.0555394 -0.642452 0.127034  -0.0634599 -0.687434 0.137184  -0.0715551 -0.73256 0.147556  -0.079849 -0.777929 0.158076  -0.0882564 -0.823261 0.168781  -0.0968151 -0.868696 0.179584  -0.105438 -0.914082 0.190567  -0.114139 -0.959572 0.20153  -0.123013 -1.00505 0.212642  -0.131734 -1.04941 0.223984  -0.139912 -1.09312 0.235566  -0.148088 -1.13717 0.247212  0 0 0  0.00303693 -0.00226831 0.00469923  0.00892603 -0.0106615 0.00780296  0.0150487 -0.023411 0.0100574  0.0205082 -0.0398178 0.0125551  0.0251573 -0.0596004 0.0155764  0.028854 -0.0825059 0.0191803  0.0316479 -0.108315 0.0233805  0.0334488 -0.136711 0.0281358  0.0343587 -0.167547 0.0334525  0.0343114 -0.200436 0.0392673  0.0334233 -0.235364 0.0455966  0.0316732 -0.271856 0.0523617  0.0291423 -0.310053 0.0596056  0.0258765 -0.349376 0.067215  0.0218875 -0.390117 0.0752723  0.0173106 -0.431608 0.0836315  0.0120745 -0.474263 0.0924094  0.00639939 -0.517343 0.101424  0.000127077 -0.561366 0.110825  -0.00644827 -0.605547 0.120409  -0.0135441 -0.650469 0.130339  -0.0208318 -0.695338 0.140399  -0.0285535 -0.740772 0.150762  -0.0363832 -0.78599 0.16121  -0.0445666 -0.831601 0.171931  -0.0528133 -0.876915 0.182663  -0.0612476 -0.922599 0.193614  -0.0697513 -0.9678 0.20459  -0.0786817 -1.01286 0.216076  -0.0872307 -1.05816 0.227467  -0.0959051 -1.10458 0.238214  -0.104055 -1.14906 0.249503  0 0 0  0.00500402 -0.00506204 0.00749564  0.0144992 -0.0149503 0.0119207  0.0242536 -0.0281613 0.0146122  0.0329828 -0.0446593 0.0172215  0.0407005 -0.0645717 0.0201821  0.0473004 -0.0876037 0.0236597  0.0528051 -0.11361 0.0276885  0.0571765 -0.142246 0.0323038  0.0604312 -0.173294 0.0374444  0.0626053 -0.20653 0.043155  0.0637023 -0.241613 0.0493219  0.0638163 -0.278554 0.0560246  0.0629407 -0.316784 0.0631199  0.0611923 -0.356652 0.0707042  0.0585762 -0.397277 0.078629  0.0551875 -0.439397 0.0869906  0.0510859 -0.481771 0.0956502  0.0462892 -0.525544 0.104678  0.0409603 -0.569133 0.113988  0.0349841 -0.614044 0.123586  0.0286696 -0.658416 0.133448  0.0217378 -0.704019 0.143513  0.0146697 -0.748833 0.153838  0.00697279 -0.794748 0.164274  -0.00063014 -0.839739 0.174993  -0.00892901 -0.885627 0.185675  -0.0168409 -0.930758 0.196784  -0.0256557 -0.976405 0.207583  -0.0336626 -1.02123 0.21907  -0.0429864 -1.0659 0.229913  -0.0512652 -1.11178 0.242931  -0.0592904 -1.15315 0.254353  0 0 0  0.00770892 -0.010084 0.00970745  0.0215406 -0.0212795 0.015357  0.0346112 -0.0343997 0.0186062  0.0464178 -0.0509255 0.0214441  0.0570695 -0.0708196 0.0243969  0.0665185 -0.0940054 0.0278218  0.0747091 -0.120084 0.0317073  0.0815798 -0.148937 0.0362554  0.0872216 -0.180129 0.0412223  0.0914956 -0.21356 0.0469232  0.0946749 -0.248873 0.0528853  0.0964978 -0.285904 0.0596583  0.0974102 -0.324477 0.0664902  0.097016 -0.364266 0.0742455  0.0958973 -0.405369 0.0818279  0.0935671 -0.447201 0.0904737  0.090662 -0.490195 0.0986979  0.0866961 -0.533468 0.108129  0.0822515 -0.577804 0.116899  0.0769513 -0.622027 0.127013  0.0712137 -0.667226 0.136245  0.064858 -0.712017 0.146914  0.0580544 -0.757689 0.156553  0.0509028 -0.802743 0.167658  0.0432889 -0.848571 0.177654  0.0355098 -0.893666 0.189063  0.0272634 -0.939462 0.199431  0.0190246 -0.984451 0.211059  0.0105343 -1.03003 0.221822  0.00160813 -1.07432 0.234448  -0.00711894 -1.12225 0.245441  -0.0156643 -1.16651 0.259547  0 0 0  0.0131602 -0.0194951 0.0116384  0.0305412 -0.0288285 0.0184839  0.0462152 -0.0418673 0.0222623  0.0610433 -0.0583239 0.0252483  0.0746647 -0.0782958 0.0282266  0.0869463 -0.101544 0.0315475  0.0977943 -0.127788 0.0354171  0.107174 -0.156755 0.0397856  0.115075 -0.188139 0.044795  0.121519 -0.221724 0.0502403  0.126562 -0.257199 0.056344  0.130226 -0.294433 0.0627661  0.132634 -0.333092 0.0698504  0.133778 -0.373137 0.0771356  0.133832 -0.414209 0.0850902  0.132747 -0.456353 0.0931356  0.13074 -0.499179 0.101857  0.127745 -0.542811 0.11057  0.123978 -0.586846 0.119966  0.11939 -0.631459 0.129242  0.114158 -0.676257 0.139227  0.108274 -0.72144 0.148998  0.101854 -0.766622 0.159483  0.094943 -0.812109 0.169666  0.0875542 -0.857411 0.180553  0.0799184 -0.902744 0.191226  0.0719011 -0.947934 0.202327  0.0634892 -0.993645 0.213439  0.0544651 -1.03856 0.225097  0.0466964 -1.08145 0.237117  0.0374744 -1.12797 0.248744  0.0295825 -1.17166 0.266348  0 0 0  -0.0103538 -0.0146951 -0.00822115  -0.0234566 -0.021746 -0.0120101  -0.0365179 -0.0320467 -0.0126753  -0.0496718 -0.0455644 -0.0110056  -0.0624653 -0.0624214 -0.00787187  -0.0748723 -0.0823473 -0.00376463  -0.0869201 -0.105067 0.00104284  -0.0986735 -0.130355 0.00640941  -0.110183 -0.157983 0.0122697  -0.1215 -0.187776 0.0185802  -0.132656 -0.219537 0.0253263  -0.14368 -0.253117 0.03248  -0.154582 -0.288342 0.0400469  -0.165374 -0.325069 0.0479877  -0.176052 -0.363143 0.0563114  -0.186625 -0.402429 0.0649719  -0.19708 -0.442787 0.0739796  -0.207423 -0.484087 0.0832782  -0.217638 -0.526205 0.0928845  -0.22773 -0.569029 0.102737  -0.237688 -0.612449 0.112856  -0.247517 -0.656356 0.12317  -0.257213 -0.700663 0.133704  -0.266772 -0.745281 0.144366  -0.276233 -0.790128 0.155219  -0.285555 -0.835124 0.166128  -0.294813 -0.880231 0.177204  -0.303897 -0.925423 0.188282  -0.313028 -0.970544 0.199363  -0.321954 -1.01558 0.21015  -0.330976 -1.06123 0.222298  -0.340057 -1.10646 0.233466  0 0 0  -0.00468261 -0.00630527 -0.00556898  -0.0138378 -0.0154175 -0.0080986  -0.0236806 -0.0267566 -0.00804496  -0.033303 -0.0413889 -0.00613284  -0.0427535 -0.059263 -0.00298595  -0.0520895 -0.0801552 0.00103068  -0.0613611 -0.103804 0.00571942  -0.0706107 -0.129978 0.0109649  -0.0798652 -0.158465 0.0167124  -0.0891508 -0.189075 0.022922  -0.0984842 -0.221624 0.0295763  -0.107871 -0.255946 0.0366554  -0.117317 -0.291872 0.0441446  -0.126812 -0.329254 0.052022  -0.136354 -0.367936 0.0602715  -0.145925 -0.407775 0.068876  -0.155522 -0.448638 0.0778117  -0.165118 -0.490388 0.0870602  -0.174712 -0.532915 0.0965931  -0.184275 -0.576088 0.106399  -0.193814 -0.619816 0.116443  -0.203294 -0.663978 0.126713  -0.212735 -0.708503 0.137165  -0.222091 -0.753294 0.147807  -0.231415 -0.798277 0.158567  -0.240635 -0.843386 0.169492  -0.249848 -0.888541 0.18042  -0.258927 -0.933795 0.191521  -0.268087 -0.979008 0.202568  -0.277098 -1.02407 0.213889  -0.28582 -1.06913 0.224223  -0.29493 -1.11368 0.235477  0 0 0  -0.0022608 -0.002792 -0.00341082  -0.00706393 -0.0112782 -0.0045929  -0.0129629 -0.023521 -0.00384259  -0.0190316 -0.0390137 -0.00166178  -0.0251321 -0.0576912 0.0015254  -0.0313611 -0.0793219 0.005476  -0.0377798 -0.103705 0.0100565  -0.0444296 -0.130584 0.0151913  -0.0513288 -0.159785 0.0208359  -0.0584838 -0.191071 0.0269578  -0.0658942 -0.224301 0.0335305  -0.0735524 -0.259249 0.0405414  -0.0814455 -0.295799 0.0479636  -0.0895581 -0.333739 0.0557897  -0.0978733 -0.372966 0.0639784  -0.106361 -0.413284 0.0725393  -0.115007 -0.454605 0.0814168  -0.123781 -0.496754 0.0906279  -0.132664 -0.539645 0.100105  -0.14163 -0.583135 0.109874  -0.150659 -0.627139 0.119863  -0.159729 -0.67154 0.130101  -0.168823 -0.716264 0.140505  -0.177922 -0.761215 0.151112  -0.18702 -0.806332 0.161839  -0.196125 -0.851532 0.172695  -0.205183 -0.896795 0.183668  -0.214226 -0.942051 0.194714  -0.223335 -0.987214 0.205761  -0.232165 -1.0324 0.216558  -0.241227 -1.07774 0.228132  -0.25002 -1.12304 0.239043  0 0 0  -0.000562802 -0.00162795 -0.00137663  -0.00192457 -0.00973457 -0.00123096  -0.00389859 -0.0223324 0.000147343  -0.006262 -0.0384467 0.00253439  -0.00896198 -0.057715 0.0057261  -0.01205 -0.0799163 0.00960064  -0.0155861 -0.104848 0.0140781  -0.0195948 -0.132297 0.0191107  -0.0240849 -0.16205 0.0246563  -0.0290475 -0.193915 0.0306973  -0.0344698 -0.227681 0.0371971  -0.0403335 -0.263192 0.0441461  -0.0466075 -0.300237 0.0515132  -0.0532742 -0.338694 0.0592909  -0.0602887 -0.378354 0.0674386  -0.0676372 -0.419127 0.0759559  -0.0752649 -0.460811 0.0848014  -0.0831614 -0.503341 0.093971  -0.0912678 -0.546521 0.103423  -0.0995808 -0.590313 0.113153  -0.108038 -0.634537 0.123124  -0.116641 -0.679169 0.13332  -0.125339 -0.724042 0.143705  -0.134128 -0.769151 0.15428  -0.142977 -0.814366 0.165011  -0.151863 -0.859687 0.175855  -0.160798 -0.904949 0.18677  -0.169655 -0.950251 0.197843  -0.17867 -0.995526 0.208897  -0.187865 -1.04067 0.220208  -0.196471 -1.08567 0.231236  -0.204851 -1.13024 0.242645  0 0 0  0.000872478 -0.00185567 0.000608444  0.00259703 -0.0102221 0.00200486  0.00436357 -0.0231756 0.0039413  0.00568861 -0.0396844 0.00647402  0.00640774 -0.0593528 0.00964546  0.00645196 -0.0819458 0.0134346  0.0058006 -0.107291 0.0178134  0.00443769 -0.135155 0.0227511  0.00237775 -0.165365 0.0282109  -0.000367284 -0.197662 0.0341818  -0.00376844 -0.231905 0.0406179  -0.00779569 -0.267829 0.0475233  -0.0124158 -0.305339 0.0548384  -0.0175805 -0.344164 0.062592  -0.0232687 -0.384256 0.0706918  -0.0294132 -0.425335 0.0791976  -0.0360034 -0.4674 0.087997  -0.0429554 -0.510166 0.0971613  -0.0502727 -0.553674 0.10657  -0.0578673 -0.597634 0.116305  -0.0657439 -0.642124 0.12623  -0.0738206 -0.686861 0.136437  -0.082114 -0.73195 0.146786  -0.0905409 -0.777112 0.157376  -0.0991075 -0.822464 0.168067  -0.107772 -0.867769 0.178935  -0.116558 -0.91322 0.189878  -0.12535 -0.958505 0.200994  -0.134168 -1.00369 0.212149  -0.143144 -1.04898 0.223273  -0.152155 -1.0945 0.234854  -0.16065 -1.13989 0.246011  0 0 0  0.00233084 -0.00323236 0.00246906  0.00714976 -0.0125151 0.00500774  0.0126069 -0.0259217 0.00742888  0.0175506 -0.042672 0.0100849  0.0216131 -0.0625435 0.0132256  0.0247425 -0.0853892 0.0169375  0.0269387 -0.110997 0.0212245  0.0281978 -0.139211 0.0260754  0.0285628 -0.169716 0.031466  0.0280218 -0.202439 0.0373714  0.026667 -0.236964 0.0437651  0.0244576 -0.273361 0.0506232  0.0215435 -0.311098 0.0579214  0.0178372 -0.350421 0.0656333  0.0135536 -0.390659 0.0737355  0.00854731 -0.432239 0.0822093  0.00309801 -0.474364 0.0910232  -0.00299835 -0.517614 0.100159  -0.00940871 -0.561097 0.109583  -0.0163841 -0.605508 0.119295  -0.0235569 -0.649898 0.129238  -0.0312083 -0.695038 0.139431  -0.03897 -0.739964 0.149794  -0.0471132 -0.785473 0.160378  -0.0553403 -0.830638 0.171066  -0.0637996 -0.876262 0.18197  -0.0723114 -0.921393 0.192883  -0.081038 -0.966856 0.204079  -0.0898659 -1.01201 0.215379  -0.0984039 -1.05735 0.226706  -0.107185 -1.10198 0.237525  -0.115837 -1.14645 0.249492  0 0 0  0.0040991 -0.00604606 0.00408721  0.0123628 -0.0167903 0.00762677  0.0215524 -0.0305446 0.0104823  0.0299563 -0.0473212 0.013274  0.0372061 -0.0672534 0.0164182  0.0433282 -0.0902201 0.0200739  0.0482964 -0.116053 0.0243108  0.0521456 -0.144466 0.0290787  0.0548891 -0.175322 0.0344667  0.0565524 -0.208232 0.0402839  0.0571948 -0.243205 0.0467401  0.0568323 -0.279714 0.0534971  0.0555538 -0.317977 0.0609169  0.0533773 -0.357294 0.0685062  0.0503938 -0.398118 0.0767808  0.0466449 -0.439563 0.0851061  0.0421839 -0.482306 0.0941253  0.0371153 -0.5253 0.103093  0.0314183 -0.569401 0.112742  0.0252759 -0.613461 0.122277  0.0185695 -0.658441 0.13244  0.0115893 -0.70317 0.142455  0.00409293 -0.748632 0.153028  -0.00352812 -0.793709 0.163447  -0.0116286 -0.839314 0.174309  -0.019706 -0.884493 0.1851  -0.0282266 -0.930088 0.196116  -0.0366426 -0.975153 0.207253  -0.045428 -1.02045 0.218579  -0.0541697 -1.06556 0.230188  -0.063359 -1.11116 0.241157  -0.071424 -1.15552 0.253205  0 0 0  0.00668129 -0.0113278 0.00542903  0.0191659 -0.0233573 0.00978971  0.0318405 -0.03684 0.013104  0.0433533 -0.0534416 0.0160322  0.0536454 -0.0733483 0.0192816  0.0626458 -0.0963626 0.022861  0.0703337 -0.122372 0.0271428  0.0767241 -0.150932 0.0318062  0.0817937 -0.182062 0.0372398  0.0856588 -0.215137 0.0429778  0.0882233 -0.250421 0.049464  0.0897465 -0.287081 0.0561857  0.0900077 -0.325645 0.0635903  0.0894334 -0.365087 0.0712075  0.0876471 -0.406165 0.0793989  0.0852273 -0.447706 0.0878367  0.081676 -0.490631 0.0966911  0.0776701 -0.533698 0.105854  0.0726578 -0.577899 0.115265  0.0673168 -0.622013 0.125063  0.0611284 -0.66702 0.134934  0.0546799 -0.711783 0.145262  0.0475862 -0.757223 0.155524  0.0402734 -0.802301 0.166274  0.0324879 -0.847905 0.176815  0.0244718 -0.893019 0.187927  0.0161743 -0.938551 0.198797  0.0077877 -0.98347 0.21014  -0.00111556 -1.02907 0.221274  -0.0100276 -1.07352 0.23315  -0.0184188 -1.11851 0.246144  -0.0253484 -1.16306 0.256629  0 0 0  0.0123147 -0.0212624 0.00656462  0.0283989 -0.031347 0.0115933  0.0434598 -0.0444481 0.01528  0.0580043 -0.0608219 0.0183642  0.0712076 -0.080653 0.0216649  0.0831121 -0.103742 0.0253172  0.0934213 -0.129799 0.0295095  0.10237 -0.15855 0.0343463  0.109693 -0.189747 0.0395384  0.115723 -0.223065 0.0456152  0.120214 -0.258405 0.0516684  0.123503 -0.29531 0.0589275  0.125416 -0.333917 0.0656786  0.126213 -0.373567 0.0740349  0.125844 -0.414681 0.0813665  0.124428 -0.456365 0.0907159  0.122082 -0.499329 0.0985384  0.118759 -0.542458 0.108764  0.114738 -0.586704 0.117017  0.109829 -0.630805 0.127981  0.104412 -0.675851 0.136631  0.0982163 -0.720545 0.148181  0.0916615 -0.766001 0.157196  0.0844862 -0.810989 0.169162  0.0770121 -0.856554 0.178628  0.0691159 -0.901566 0.190724  0.0609412 -0.94699 0.200797  0.0524621 -0.991797 0.212696  0.0436468 -1.03743 0.224215  0.034184 -1.08105 0.235699  0.027715 -1.12624 0.249341  0.0169115 -1.16886 0.256062  0 0 0  -0.0112768 -0.0170222 -0.00483251  -0.024977 -0.0250541 -0.00665236  -0.0385154 -0.0358901 -0.00647998  -0.052352 -0.0494552 -0.0047667  -0.0659348 -0.0661479 -0.00193429  -0.0791191 -0.0858099 0.00172281  -0.0918857 -0.108237 0.00603867  -0.104289 -0.133223 0.0109186  -0.116383 -0.160555 0.0163102  -0.128234 -0.190065 0.0221906  -0.139871 -0.22155 0.0285263  -0.151342 -0.254875 0.0353117  -0.162647 -0.289843 0.0425165  -0.173818 -0.326336 0.0501375  -0.184838 -0.364173 0.0581369  -0.195733 -0.403252 0.0665252  -0.206473 -0.443395 0.0752449  -0.21708 -0.484512 0.0843141  -0.227533 -0.526442 0.0936701  -0.237845 -0.569109 0.103335  -0.247992 -0.612361 0.11324  -0.257994 -0.656139 0.123408  -0.267839 -0.700309 0.133762  -0.277522 -0.744811 0.144331  -0.287092 -0.789554 0.155036  -0.296511 -0.834492 0.165926  -0.305796 -0.8795 0.176839  -0.314946 -0.924572 0.18783  -0.32421 -0.969758 0.199005  -0.333145 -1.01495 0.210333  -0.341878 -1.05997 0.220876  -0.351211 -1.10483 0.23133  0 0 0  -0.00493474 -0.00774339 -0.00320077  -0.0147057 -0.0179965 -0.0042479  -0.0253239 -0.0298445 -0.00359082  -0.0358103 -0.0446108 -0.00164819  -0.0461362 -0.0624121 0.00127578  -0.0562814 -0.0831224 0.00496197  -0.0662819 -0.106544 0.00928354  -0.0761774 -0.132463 0.0141664  -0.0860161 -0.160696 0.019563  -0.0958272 -0.191049 0.025449  -0.105643 -0.223353 0.0317948  -0.115472 -0.257433 0.0385931  -0.125327 -0.293131 0.0458138  -0.135198 -0.330289 0.0534453  -0.145089 -0.368757 0.0614629  -0.154984 -0.4084 0.0698514  -0.164873 -0.449069 0.0785828  -0.17474 -0.490648 0.0876484  -0.184575 -0.533 0.0970123  -0.194368 -0.57603 0.106662  -0.204095 -0.619603 0.116569  -0.213762 -0.663655 0.126711  -0.22334 -0.70805 0.137062  -0.232854 -0.75275 0.147599  -0.242264 -0.79763 0.158304  -0.251623 -0.84267 0.169115  -0.260834 -0.887794 0.180071  -0.270076 -0.93295 0.19105  -0.279124 -0.978093 0.202171  -0.288153 -1.02318 0.213098  -0.297004 -1.06819 0.224279  -0.306168 -1.11336 0.234921  0 0 0  -0.0024806 -0.00378606 -0.00196123  -0.00781861 -0.0131186 -0.00219989  -0.0144898 -0.0258876 -0.00106287  -0.0214451 -0.0416173 0.00114036  -0.0284224 -0.0603094 0.00418091  -0.035449 -0.0818471 0.00791001  -0.0425819 -0.106047 0.012244  -0.0498721 -0.132732 0.0171309  -0.0573454 -0.161695 0.0225415  -0.0650281 -0.192772 0.0284357  -0.0729166 -0.225758 0.0348072  -0.0810235 -0.260507 0.0416155  -0.0893254 -0.296825 0.048867  -0.0978259 -0.334579 0.0565126  -0.10649 -0.373596 0.0645621  -0.115313 -0.413744 0.0729556  -0.124258 -0.454881 0.081722  -0.133314 -0.496872 0.0907876  -0.14245 -0.53961 0.100179  -0.151649 -0.582956 0.109818  -0.160886 -0.626839 0.119744  -0.170137 -0.671113 0.129873  -0.179401 -0.715746 0.140236  -0.188638 -0.760591 0.150757  -0.197872 -0.805641 0.161466  -0.207066 -0.850762 0.172282  -0.216213 -0.895972 0.183205  -0.225317 -0.941157 0.194201  -0.234445 -0.98633 0.205312  -0.243464 -1.0315 0.21641  -0.252231 -1.07661 0.227212  -0.260986 -1.12135 0.238116  0 0 0  -0.000829659 -0.00230497 -0.000864506  -0.00277616 -0.0110502 -0.00033474  -0.00550127 -0.0241238 0.00124598  -0.00868732 -0.0405189 0.00366902  -0.0121925 -0.0598789 0.00680256  -0.016032 -0.0820337 0.0105674  -0.0202479 -0.106846 0.0149176  -0.024874 -0.134114 0.0198157  -0.0299321 -0.163688 0.0252347  -0.0354121 -0.195332 0.0311539  -0.0413249 -0.228921 0.0375471  -0.0476285 -0.264201 0.0443888  -0.0543338 -0.301084 0.051667  -0.0613766 -0.339316 0.0593498  -0.0687729 -0.378837 0.0674293  -0.0764424 -0.419401 0.0758619  -0.0844033 -0.460965 0.0846558  -0.0925691 -0.503309 0.0937519  -0.100961 -0.546386 0.103169  -0.109496 -0.590019 0.112833  -0.118192 -0.634154 0.122781  -0.126977 -0.678655 0.132923  -0.135861 -0.723461 0.143303  -0.144798 -0.768468 0.153836  -0.153787 -0.813619 0.164562  -0.162784 -0.858859 0.175375  -0.171787 -0.904134 0.186322  -0.180848 -0.949353 0.197335  -0.189833 -0.994519 0.208531  -0.198753 -1.03974 0.219554  -0.207664 -1.08487 0.230625  -0.216472 -1.1299 0.241427  0 0 0  0.00053373 -0.00231722 0.000157356  0.0015887 -0.011181 0.00139403  0.00259733 -0.0245517 0.00336719  0.00318861 -0.041344 0.00596356  0.00319767 -0.0611252 0.00916553  0.00256735 -0.0837178 0.012954  0.00128168 -0.108958 0.0173216  -0.000675678 -0.136702 0.0222297  -0.00328529 -0.16672 0.0276785  -0.00655591 -0.198876 0.0336139  -0.0104342 -0.232897 0.040056  -0.014931 -0.268697 0.0469189  -0.019966 -0.305975 0.0542591  -0.0255544 -0.344703 0.0619583  -0.0315973 -0.384567 0.070107  -0.0381211 -0.425575 0.0785491  -0.0450103 -0.467423 0.0874116  -0.0522943 -0.510144 0.0965059  -0.0598619 -0.553446 0.105994  -0.0677357 -0.597379 0.115651  -0.0758214 -0.641686 0.125665  -0.0841265 -0.686406 0.135794  -0.0925877 -0.731337 0.146237  -0.101187 -0.776488 0.156757  -0.109894 -0.821715 0.167543  -0.118689 -0.867026 0.178358  -0.127562 -0.912362 0.18937  -0.13645 -0.957631 0.200422  -0.145338 -1.00272 0.211648  -0.154341 -1.04795 0.222834  -0.163083 -1.09319 0.233956  -0.171487 -1.13759 0.244951  0 0 0  0.00191231 -0.00358099 0.001086  0.00596136 -0.0132738 0.00295186  0.0106593 -0.0270445 0.00525284  0.0149478 -0.0440469 0.00799179  0.0184019 -0.0640363 0.0112338  0.0209323 -0.0868716 0.0150478  0.0225363 -0.112436 0.0194168  0.0232387 -0.140487 0.0243638  0.0230509 -0.170918 0.0298142  0.0220194 -0.20339 0.0358131  0.0201486 -0.237875 0.0422506  0.0175209 -0.273952 0.0492058  0.0141209 -0.311718 0.0565329  0.0100745 -0.350657 0.064342  0.00532997 -0.390996 0.072464  5.91278e-05 -0.432144 0.0810318  -0.00582433 -0.474436 0.0898604  -0.0121126 -0.517226 0.0990865  -0.018925 -0.560922 0.108524  -0.0260308 -0.604869 0.118317  -0.0335705 -0.649504 0.128277  -0.0413077 -0.694199 0.13854  -0.0493894 -0.739387 0.148937  -0.0575967 -0.784491 0.159576  -0.0660629 -0.82991 0.170319  -0.0746043 -0.875176 0.181244  -0.0833282 -0.920609 0.192274  -0.0920575 -0.965813 0.203418  -0.100926 -1.01103 0.214627  -0.10976 -1.05619 0.225846  -0.118584 -1.10137 0.237341  -0.127217 -1.14623 0.247901  0 0 0  0.00361167 -0.00636464 0.00187778  0.0110109 -0.0174682 0.00425601  0.0194576 -0.0315289 0.0068121  0.027278 -0.0484853 0.00966954  0.0340081 -0.068487 0.012934  0.0395905 -0.0914422 0.0168078  0.044022 -0.117177 0.0211627  0.0473351 -0.145509 0.0262001  0.0495576 -0.176163 0.0316374  0.0507207 -0.209011 0.0377777  0.0508854 -0.243692 0.0442002  0.0500644 -0.28021 0.0513358  0.0483657 -0.318095 0.0586426  0.0457652 -0.357521 0.0666585  0.0424314 -0.397881 0.0747559  0.0382817 -0.439536 0.0835361  0.0335474 -0.481749 0.0923414  0.0280871 -0.525045 0.101766  0.0221975 -0.568579 0.111186  0.0156713 -0.613002 0.121153  0.00885439 -0.657413 0.131098  0.0014863 -0.702536 0.141501  -0.00604391 -0.747472 0.151887  -0.0140483 -0.792928 0.162633  -0.0221143 -0.838098 0.173367  -0.0305822 -0.883619 0.18437  -0.0390189 -0.928844 0.195403  -0.0477855 -0.974188 0.206567  -0.0563946 -1.01922 0.217848  -0.0654645 -1.0645 0.229094  -0.0739777 -1.10948 0.240896  -0.0823617 -1.15462 0.251578  0 0 0  0.00614139 -0.0116247 0.00250697  0.0177477 -0.0240702 0.00527263  0.0296775 -0.0377594 0.00801349  0.0406749 -0.0544743 0.0110056  0.0504829 -0.0743213 0.0143063  0.0589989 -0.0973514 0.0182593  0.066195 -0.123146 0.022635  0.0720495 -0.151712 0.0277424  0.0766722 -0.182514 0.0332344  0.079969 -0.215634 0.0394087  0.0821782 -0.250515 0.0459478  0.0831081 -0.287274 0.0530415  0.0831164 -0.325408 0.0605538  0.0819339 -0.364986 0.0684097  0.0799774 -0.405653 0.0768368  0.0769656 -0.447339 0.0853214  0.0732911 -0.489916 0.094589  0.0687501 -0.533113 0.103581  0.0636077 -0.577051 0.113593  0.0578351 -0.621257 0.123006  0.051476 -0.666084 0.13365  0.0447438 -0.710904 0.143423  0.0374029 -0.756222 0.154569  0.0299573 -0.801348 0.164665  0.0218599 -0.846805 0.176144  0.0138638 -0.892009 0.186605  0.00521016 -0.937356 0.198282  -0.00308967 -0.9825 0.209089  -0.0120823 -1.0274 0.220739  -0.0209095 -1.07239 0.232503  -0.0293105 -1.11742 0.244132  -0.0380404 -1.16237 0.256371  0 0 0  0.0119233 -0.0216354 0.00282955  0.0270977 -0.0321764 0.00576544  0.0413949 -0.0454352 0.0087204  0.0553551 -0.0617848 0.0116737  0.0681485 -0.0815448 0.0152104  0.0795164 -0.104564 0.0189984  0.0894251 -0.130487 0.023701  0.0977693 -0.159189 0.0285842  0.104716 -0.190176 0.0344801  0.110116 -0.223509 0.0404325  0.114275 -0.25854 0.0473847  0.116939 -0.295572 0.0543485  0.118564 -0.333754 0.0621796  0.118759 -0.373663 0.0701089  0.118136 -0.414238 0.0786412  0.11617 -0.456305 0.087496  0.113593 -0.498639 0.0965524  0.109794 -0.54225 0.106268  0.105559 -0.585819 0.115702  0.100249 -0.630449 0.126176  0.0946422 -0.674828 0.135899  0.0881317 -0.720045 0.146988  0.0814083 -0.764887 0.15695  0.0739934 -0.810363 0.168487  0.0663881 -0.855365 0.178669  0.0583053 -0.900852 0.190449  0.0499518 -0.945808 0.200919  0.0415561 -0.99121 0.212848  0.0327458 -1.03567 0.223459  0.0239823 -1.08067 0.235576  0.0142133 -1.12562 0.246773  0.00679255 -1.16928 0.260361  0 0 0  -0.0119963 -0.0184223 -0.00152707  -0.0263512 -0.0269111 -0.00134969  -0.0404919 -0.0379654 -0.000169992  -0.054993 -0.0515624 0.00178814  -0.0692645 -0.068171 0.00440693  -0.0831291 -0.0877101 0.00763535  -0.0965387 -0.109982 0.0114484  -0.109544 -0.134807 0.0158145  -0.122202 -0.161973 0.0207174  -0.134579 -0.191314 0.0261319  -0.146709 -0.222635 0.0320477  -0.158636 -0.255791 0.038419  -0.17037 -0.290605 0.0452652  -0.181935 -0.326938 0.05252  -0.193328 -0.364632 0.0602129  -0.204559 -0.403558 0.0682671  -0.215618 -0.443569 0.0767317  -0.226509 -0.484548 0.0855038  -0.237226 -0.526361 0.0946536  -0.247771 -0.568906 0.104053  -0.258133 -0.612056 0.113796  -0.268319 -0.655727 0.123736  -0.278325 -0.699809 0.13397  -0.288166 -0.744231 0.144357  -0.29783 -0.788895 0.154983  -0.307345 -0.833746 0.165694  -0.316712 -0.878717 0.176613  -0.325961 -0.92379 0.187558  -0.335071 -0.968816 0.198635  -0.344064 -1.01392 0.209535  -0.352981 -1.05889 0.220854  -0.361842 -1.10411 0.231487  0 0 0  -0.00523795 -0.00853202 -0.000818253  -0.0156719 -0.0193439 -0.000323534  -0.0270393 -0.0314177 0.0010891  -0.0382712 -0.0462324 0.00321364  -0.0493255 -0.0639882 0.00597286  -0.0601649 -0.0846055 0.00933027  -0.070811 -0.107906 0.0132668  -0.0813127 -0.133694 0.0177586  -0.0917125 -0.161786 0.0227802  -0.102055 -0.191998 0.0283163  -0.112361 -0.224158 0.0343363  -0.122654 -0.258097 0.0408301  -0.132937 -0.293656 0.0477672  -0.143216 -0.330676 0.0551374  -0.15348 -0.369015 0.0629036  -0.163723 -0.408525 0.0710638  -0.173932 -0.449079 0.0795753  -0.184097 -0.490537 0.0884449  -0.194204 -0.532791 0.0976176  -0.204238 -0.575707 0.107104  -0.214191 -0.619198 0.116845  -0.22405 -0.663147 0.12686  -0.233809 -0.707477 0.137074  -0.24346 -0.75209 0.147521  -0.253015 -0.796924 0.15811  -0.262438 -0.841901 0.168883  -0.271787 -0.886963 0.179715  -0.280998 -0.932083 0.190706  -0.29015 -0.977204 0.201675  -0.299153 -1.02226 0.212704  -0.30811 -1.06724 0.223541  -0.316922 -1.11208 0.234402  0 0 0  -0.00273597 -0.00425701 -0.000430584  -0.00864428 -0.0139759 0.000366211  -0.0160487 -0.0269785 0.00201941  -0.0237741 -0.0427861 0.00434041  -0.0314927 -0.0614816 0.00726414  -0.0392168 -0.0829521 0.0107641  -0.0469971 -0.107072 0.0148292  -0.0548877 -0.133638 0.0194476  -0.0629249 -0.162496 0.0245934  -0.0711316 -0.193436 0.0302515  -0.0795183 -0.226315 0.036386  -0.0880852 -0.260922 0.0429966  -0.0968295 -0.297133 0.0500343  -0.105731 -0.33475 0.0575156  -0.11478 -0.373661 0.0653725  -0.123953 -0.413685 0.0736337  -0.133233 -0.454722 0.0822203  -0.142587 -0.496608 0.0911767  -0.152004 -0.53925 0.100409  -0.161453 -0.58251 0.109964  -0.170919 -0.626301 0.119749  -0.180378 -0.670513 0.129818  -0.189821 -0.715063 0.140065  -0.199224 -0.759862 0.150546  -0.208586 -0.804843 0.16116  -0.217893 -0.849939 0.171952  -0.227123 -0.895107 0.182825  -0.236308 -0.940264 0.1938  -0.245418 -0.9854 0.204818  -0.254417 -1.03051 0.215813  -0.263338 -1.07558 0.22686  -0.272162 -1.12045 0.237584  0 0 0  -0.00107969 -0.00255832 -0.000163555  -0.00358012 -0.0115415 0.000863552  -0.00701746 -0.0247946 0.00271535  -0.0109494 -0.0412831 0.00520968  -0.0151839 -0.0606686 0.00828576  -0.0197012 -0.0827957 0.0119257  -0.0245538 -0.107541 0.01612  -0.0297734 -0.134732 0.0208688  -0.0353873 -0.164197 0.0261321  -0.0413971 -0.195752 0.0319171  -0.0477974 -0.229213 0.0381653  -0.0545752 -0.26441 0.0448985  -0.0617082 -0.301158 0.0520439  -0.069177 -0.339314 0.0596411  -0.0769452 -0.378698 0.0675936  -0.0849913 -0.419196 0.075963  -0.093271 -0.460633 0.0846343  -0.101767 -0.502916 0.0936861  -0.110422 -0.545883 0.102988  -0.119238 -0.589461 0.112631  -0.128153 -0.633506 0.122473  -0.137167 -0.677958 0.13261  -0.14623 -0.722693 0.142902  -0.155345 -0.767663 0.153442  -0.164468 -0.812772 0.164087  -0.173596 -0.857976 0.174928  -0.182713 -0.903198 0.185829  -0.191797 -0.94843 0.196874  -0.200853 -0.993651 0.207902  -0.209784 -1.03873 0.218985  -0.21861 -1.08369 0.229974  -0.227403 -1.1285 0.240864  0 0 0  0.000271842 -0.00240356 2.45571e-05  0.000758708 -0.0113928 0.00122142  0.00106612 -0.0248892 0.0032177  0.000938714 -0.0417629 0.00584865  0.000257909 -0.0615868 0.00905108  -0.0010227 -0.0841591 0.0128238  -0.00292474 -0.109366 0.0171447  -0.00545955 -0.137027 0.0220268  -0.00862277 -0.166985 0.0274105  -0.0124066 -0.199019 0.0333378  -0.0167859 -0.23298 0.0397027  -0.0217363 -0.268637 0.0465815  -0.0272225 -0.305866 0.053833  -0.0332106 -0.344439 0.0615752  -0.0396603 -0.384264 0.0696194  -0.0465285 -0.425118 0.0781329  -0.0537775 -0.466939 0.0868754  -0.0613563 -0.509512 0.0960646  -0.0692346 -0.5528 0.105424  -0.0773594 -0.596602 0.115192  -0.085705 -0.640902 0.125075  -0.0942237 -0.685516 0.135324  -0.102891 -0.730445 0.145646  -0.111667 -0.775522 0.156283  -0.120534 -0.82076 0.166957  -0.129459 -0.866023 0.177873  -0.138429 -0.911346 0.188816  -0.14739 -0.956577 0.199925  -0.156387 -1.00175 0.211022  -0.16527 -1.04694 0.222212  -0.17413 -1.092 0.233366  -0.18273 -1.13684 0.244187  0 0 0  0.00163151 -0.00353444 0.000153303  0.00508681 -0.013256 0.0014441  0.0090872 -0.0271021 0.00353336  0.0126917 -0.0441613 0.00624824  0.0155007 -0.0641829 0.00955939  0.0174159 -0.0870134 0.0134306  0.0184338 -0.11253 0.0178921  0.0185719 -0.140545 0.0228717  0.0178509 -0.17087 0.0284209  0.0162988 -0.203317 0.034436  0.0139482 -0.237645 0.0409794  0.0108387 -0.273737 0.0479414  0.00701797 -0.311299 0.0553737  0.00252151 -0.350303 0.0631924  -0.0025804 -0.390401 0.071413  -0.00827205 -0.431663 0.0799985  -0.0144527 -0.473687 0.0889075  -0.0211306 -0.516632 0.098171  -0.0281789 -0.560052 0.107666  -0.0356417 -0.604177 0.117516  -0.0433605 -0.648547 0.127508  -0.0514147 -0.693425 0.137841  -0.0596259 -0.73837 0.148247  -0.0681043 -0.783646 0.158971  -0.0766604 -0.828867 0.169696  -0.0854084 -0.874267 0.180718  -0.0941668 -0.919503 0.191677  -0.103063 -0.96486 0.20291  -0.111952 -1.01003 0.214038  -0.12074 -1.05516 0.225381  -0.129527 -1.09988 0.236417  -0.138188 -1.14488 0.247608  0 0 0  0.00330693 -0.00619167 0.000202656  0.0100895 -0.0172613 0.00151134  0.0178419 -0.0313546 0.00360966  0.0250217 -0.0483571 0.00637078  0.031148 -0.0683728 0.00975966  0.0361545 -0.0913274 0.0137331  0.0400193 -0.117038 0.0183446  0.0427892 -0.145315 0.0234399  0.044475 -0.175939 0.0292144  0.0451353 -0.20868 0.0353134  0.0447942 -0.243369 0.0421679  0.043521 -0.279728 0.0491502  0.0413411 -0.317678 0.0569861  0.0383509 -0.356884 0.0647407  0.034554 -0.39738 0.0734491  0.0300817 -0.438761 0.0818753  0.0249062 -0.481177 0.0913432  0.0191998 -0.524155 0.100353  0.0128858 -0.567946 0.110445  0.00618982 -0.612029 0.119968  -0.00103045 -0.656723 0.130563  -0.00848961 -0.701505 0.140521  -0.0163989 -0.746718 0.151497  -0.0244179 -0.791869 0.161834  -0.0328357 -0.837275 0.173066  -0.0412354 -0.882542 0.183719  -0.0499978 -0.927907 0.195081  -0.0586236 -0.973094 0.206061  -0.0675337 -1.01826 0.217439  -0.0762608 -1.06335 0.228699  -0.0850465 -1.10841 0.239786  -0.0936127 -1.15298 0.25083  0 0 0  0.00581667 -0.0113055 0.000150204  0.0167646 -0.0236844 0.00136805  0.0280434 -0.0374234 0.00347948  0.0384251 -0.0541383 0.00620532  0.0476769 -0.074042 0.00976491  0.0556407 -0.0970117 0.0137532  0.0622811 -0.122876 0.0186207  0.0676219 -0.151318 0.0237501  0.0716734 -0.182209 0.0297799  0.0745215 -0.215155 0.0359564  0.0761471 -0.250148 0.0429835  0.0767078 -0.286703 0.0501385  0.0761346 -0.324954 0.0579865  0.0746528 -0.364325 0.0660715  0.072143 -0.405089 0.074564  0.0688844 -0.446595 0.0835476  0.0647223 -0.489223 0.0925269  0.0599465 -0.532288 0.102346  0.0544214 -0.57623 0.111686  0.0483921 -0.620363 0.122247  0.0417857 -0.665151 0.13188  0.0347521 -0.709952 0.14305  0.0273132 -0.755201 0.15295  0.0195034 -0.800347 0.164567  0.0114462 -0.845757 0.174746  0.00307226 -0.891001 0.186601  -0.00541806 -0.936316 0.197113  -0.0141625 -0.981467 0.209056  -0.0229783 -1.02662 0.220128  -0.0316739 -1.07164 0.231729  -0.0404236 -1.11625 0.243274  -0.0488369 -1.16134 0.253831  0 0 0  0.0115473 -0.0211452 -0.000220537  0.0261103 -0.0316898 0.000843287  0.0397673 -0.044967 0.00288939  0.0531627 -0.061309 0.00577664  0.0653978 -0.0810463 0.00928426  0.0762667 -0.104026 0.0137155  0.0856134 -0.129936 0.0183027  0.0934865 -0.158545 0.024195  0.099865 -0.189563 0.0295603  0.104839 -0.222723 0.0368574  0.108444 -0.25787 0.0427639  0.110741 -0.294623 0.0513835  0.111838 -0.333048 0.0576961  0.111731 -0.372557 0.0674982  0.110613 -0.413511 0.0742028  0.108399 -0.455066 0.0849934  0.105365 -0.4979 0.09215  0.101362 -0.540916 0.103699  0.0967102 -0.585067 0.111395  0.0912268 -0.629066 0.123476  0.0852568 -0.674049 0.131787  0.078583 -0.718656 0.144211  0.0715673 -0.76407 0.153162  0.0639582 -0.808989 0.16578  0.0561554 -0.854512 0.17537  0.0478423 -0.899505 0.188057  0.0394433 -0.944885 0.198366  0.0306673 -0.989788 0.210993  0.0220091 -1.03494 0.221946  0.012944 -1.07969 0.234426  0.00439787 -1.12427 0.245704  -0.00439 -1.1693 0.256344  0 0 0  -0.0124813 -0.0189589 0.0020597  -0.0275502 -0.0274004 0.00436282  -0.0424466 -0.0383835 0.00657606  -0.0576523 -0.0519166 0.00875211  -0.0725625 -0.0685145 0.0111287  -0.0870119 -0.0880327 0.0139058  -0.100993 -0.110293 0.0171931  -0.114544 -0.135079 0.0210364  -0.127741 -0.162211 0.0254283  -0.140625 -0.191491 0.0303752  -0.153257 -0.222767 0.0358353  -0.165644 -0.255846 0.0418053  -0.177829 -0.290604 0.0482419  -0.189805 -0.326857 0.055155  -0.201591 -0.364488 0.0624754  -0.213177 -0.403328 0.0702386  -0.224575 -0.443279 0.0783632  -0.235774 -0.48418 0.0869005  -0.246776 -0.525939 0.095741  -0.257572 -0.568405 0.104951  -0.268166 -0.611509 0.114422  -0.278555 -0.65511 0.124217  -0.288743 -0.699152 0.134219  -0.298727 -0.743507 0.144502  -0.308525 -0.788142 0.154938  -0.318139 -0.832947 0.1656  -0.32757 -0.877891 0.176349  -0.336816 -0.922876 0.18725  -0.345993 -0.967928 0.198183  -0.354975 -1.01287 0.209207  -0.36382 -1.05795 0.220031  -0.372712 -1.10279 0.230643  0 0 0  -0.00559501 -0.00875686 0.00181937  -0.0167354 -0.0195797 0.00399661  -0.0288537 -0.0315692 0.00619388  -0.040771 -0.0463188 0.00848103  -0.0524436 -0.0640345 0.0110466  -0.0638629 -0.0846307 0.0140536  -0.0750728 -0.10791 0.0175853  -0.0861248 -0.133677 0.0216682  -0.0970622 -0.161737 0.0262983  -0.107922 -0.191914 0.0314689  -0.118728 -0.22403 0.0371459  -0.129496 -0.257923 0.0433173  -0.140233 -0.293428 0.0499558  -0.150934 -0.330394 0.0570445  -0.161598 -0.368675 0.0645459  -0.172212 -0.408127 0.0724552  -0.182769 -0.448622 0.0807407  -0.193251 -0.490027 0.0893896  -0.203653 -0.532223 0.0983675  -0.213951 -0.57509 0.107662  -0.224148 -0.618531 0.117244  -0.234221 -0.662434 0.127093  -0.244172 -0.706724 0.137186  -0.253986 -0.7513 0.147495  -0.263669 -0.796098 0.157995  -0.273216 -0.841042 0.168652  -0.28263 -0.886083 0.17945  -0.291928 -0.931167 0.190335  -0.301085 -0.976238 0.201272  -0.310098 -1.02128 0.212199  -0.319054 -1.06625 0.223086  -0.327851 -1.11113 0.233825  0 0 0  -0.00303993 -0.00428624 0.00135612  -0.00957739 -0.0139599 0.00332785  -0.0177046 -0.0268756 0.00552464  -0.0261152 -0.0426095 0.00794148  -0.0344617 -0.0612476 0.0107145  -0.0427729 -0.0826897 0.0139613  -0.0511243 -0.106786 0.0177412  -0.0595704 -0.133338 0.0220644  -0.0681489 -0.16217 0.0269418  -0.0768762 -0.193093 0.0323272  -0.0857644 -0.225935 0.0382335  -0.0948108 -0.260517 0.0446  -0.104009 -0.296683 0.0514474  -0.113342 -0.334269 0.0587008  -0.122797 -0.373129 0.066402  -0.132348 -0.413119 0.0744543  -0.14198 -0.454103 0.082917  -0.151663 -0.495956 0.0916755  -0.161381 -0.538547 0.100808  -0.171105 -0.581777 0.110189  -0.180823 -0.625524 0.119901  -0.190509 -0.669707 0.129819  -0.200147 -0.714221 0.140014  -0.209723 -0.759003 0.150367  -0.21923 -0.803956 0.160946  -0.228651 -0.849038 0.171633  -0.237983 -0.894173 0.18248  -0.247221 -0.939321 0.193383  -0.256357 -0.984436 0.20437  -0.265389 -1.0295 0.215331  -0.27429 -1.07447 0.226253  -0.283093 -1.11924 0.237025  0 0 0  -0.00134391 -0.00245562 0.000788927  -0.00441441 -0.0113201 0.00245094  -0.00853902 -0.0244468 0.00459552  -0.0131576 -0.0408428 0.00713277  -0.0180288 -0.0601546 0.010113  -0.0231519 -0.0822531 0.0136015  -0.0285822 -0.106969 0.0176311  -0.0343688 -0.134155 0.0222034  -0.0405219 -0.163601 0.0273187  -0.0470576 -0.195151 0.032938  -0.0539581 -0.228588 0.0390639  -0.0612199 -0.263767 0.0456469  -0.0688093 -0.300485 0.0527015  -0.0767097 -0.338617 0.0601542  -0.0848858 -0.377971 0.0680461  -0.0933141 -0.418437 0.0762746  -0.101954 -0.459846 0.0849078  -0.110777 -0.502094 0.0938213  -0.119752 -0.545037 0.103105  -0.128841 -0.588584 0.112618  -0.138023 -0.632608 0.122456  -0.147259 -0.677036 0.132469  -0.156538 -0.721757 0.142767  -0.16582 -0.76671 0.153196  -0.175106 -0.811809 0.163854  -0.18435 -0.857002 0.174598  -0.19357 -0.902227 0.185505  -0.202723 -0.947433 0.196459  -0.211805 -0.99261 0.20748  -0.220769 -1.03773 0.218482  -0.229661 -1.08265 0.229395  -0.238472 -1.12755 0.240207  0 0 0  3.74019e-05 -0.00218159 0.000140905  4.55976e-06 -0.0109656 0.00142193  -0.000345469 -0.0242898 0.00346875  -0.00115445 -0.041044 0.00610209  -0.00248843 -0.0607935 0.00927854  -0.00438482 -0.0833282 0.0130029  -0.00687885 -0.108521 0.0172822  -0.00997734 -0.136171 0.0220983  -0.0136913 -0.166129 0.0274556  -0.0179937 -0.198158 0.0333052  -0.0228833 -0.232117 0.03967  -0.0283083 -0.267767 0.0464561  -0.0342592 -0.304981 0.0537364  -0.0406737 -0.343545 0.0613685  -0.0475445 -0.383347 0.0694737  -0.0547915 -0.424198 0.077852  -0.0624113 -0.465989 0.0866849  -0.070323 -0.508565 0.0957186  -0.078521 -0.551816 0.105191  -0.0869293 -0.595632 0.11479  -0.0955431 -0.639897 0.124802  -0.104293 -0.684527 0.134885  -0.113177 -0.729423 0.145335  -0.122132 -0.774522 0.155812  -0.13116 -0.819739 0.166609  -0.140208 -0.865025 0.17739  -0.149276 -0.910324 0.188422  -0.158322 -0.955575 0.199411  -0.167326 -1.00077 0.210557  -0.176262 -1.04588 0.22162  -0.185137 -1.09089 0.232613  -0.193848 -1.13564 0.243531  0 0 0  0.0014185 -0.0031684 -0.000549316  0.004392 -0.0125969 0.000300169  0.00775859 -0.0262253 0.00218892  0.0106881 -0.043168 0.00487781  0.0128371 -0.0631084 0.0082109  0.0141255 -0.0859292 0.0121613  0.0145481 -0.111423 0.0166581  0.0141147 -0.139465 0.0217357  0.0128485 -0.169782 0.0272989  0.0107685 -0.202252 0.0334218  0.00791812 -0.236581 0.0399561  0.00432348 -0.272677 0.0470254  4.85182e-05 -0.310248 0.0544355  -0.00488603 -0.349228 0.0623562  -0.0104023 -0.389353 0.0705521  -0.0164781 -0.430565 0.0792191  -0.0230279 -0.472636 0.0881093  -0.0300357 -0.515504 0.097429  -0.0374122 -0.558993 0.106929  -0.0451465 -0.603029 0.116804  -0.0531523 -0.647483 0.126824  -0.0614226 -0.69227 0.137161  -0.0698767 -0.737307 0.147614  -0.0785129 -0.782502 0.158321  -0.0872569 -0.827817 0.169123  -0.0961196 -0.873147 0.1801  -0.10502 -0.918508 0.191172  -0.113967 -0.963769 0.202324  -0.122902 -1.009 0.213521  -0.13179 -1.05413 0.224663  -0.140587 -1.09911 0.235832  -0.149368 -1.14391 0.246637  0 0 0  0.00310519 -0.0056386 -0.00126529  0.00941795 -0.0163114 -0.00090766  0.0165665 -0.0301779 0.000747919  0.0230794 -0.0470613 0.00343013  0.0285636 -0.0670404 0.00685906  0.0329373 -0.0899683 0.0110273  0.0362168 -0.115709 0.0157108  0.0384114 -0.143982 0.0210874  0.039559 -0.174652 0.0268435  0.0396949 -0.207386 0.0333049  0.0388552 -0.242112 0.0400183  0.0370991 -0.27846 0.0474586  0.0344692 -0.316431 0.0550225  0.0310358 -0.355633 0.063329  0.0268414 -0.39613 0.071655  0.0219641 -0.43752 0.0807064  0.0164483 -0.479912 0.0897038  0.0103734 -0.522917 0.0993869  0.00377917 -0.566668 0.108966  -0.00325727 -0.610799 0.11917  -0.0106914 -0.655449 0.129243  -0.0184603 -0.700292 0.139855  -0.0265217 -0.745469 0.150335  -0.0348206 -0.790686 0.161265  -0.0433176 -0.836077 0.172071  -0.0519741 -0.881406 0.183214  -0.0607405 -0.926778 0.194262  -0.0695696 -0.972038 0.205533  -0.0784431 -1.0172 0.216684  -0.0872903 -1.06233 0.227918  -0.096082 -1.10732 0.239139  -0.104645 -1.15207 0.24996  0 0 0  0.00559106 -0.0104926 -0.0020566  0.0160578 -0.022391 -0.00221491  0.0267796 -0.03593 -0.000860453  0.0365465 -0.0525568 0.00180888  0.0451866 -0.0724523 0.00528955  0.0525426 -0.0954221 0.0096941  0.0586072 -0.121305 0.0145359  0.0633916 -0.149781 0.0202062  0.066906 -0.180662 0.026154  0.069237 -0.213674 0.032876  0.0703733 -0.2486 0.0398185  0.0704533 -0.285265 0.0474219  0.0694362 -0.323384 0.0553067  0.0675093 -0.362925 0.0636191  0.0646002 -0.403497 0.072402  0.0609374 -0.445229 0.0812671  0.0564127 -0.487622 0.0909088  0.0512865 -0.530957 0.100183  0.0454316 -0.574646 0.110598  0.0391097 -0.619076 0.120186  0.0321989 -0.663616 0.131263  0.0249345 -0.708714 0.141108  0.0172226 -0.753744 0.152697  0.0092473 -0.79916 0.162804  0.000973463 -0.844392 0.174704  -0.00753284 -0.889854 0.185101  -0.0161438 -0.935067 0.1971  -0.0249746 -0.980386 0.207877  -0.0337193 -1.0255 0.219689  -0.0427401 -1.0705 0.230833  -0.0513058 -1.11546 0.242287  -0.0600057 -1.16039 0.253391  0 0 0  0.0111149 -0.0199134 -0.00315499  0.0252479 -0.0300637 -0.00401497  0.0384937 -0.0431873 -0.00285864  0.0513719 -0.0594656 -0.000409842  0.0630366 -0.0792558 0.00339031  0.0733463 -0.102224 0.00766182  0.0821128 -0.128225 0.0130863  0.0894732 -0.156821 0.0185664  0.0952749 -0.187925 0.0252459  0.0997984 -0.221078 0.0317442  0.102828 -0.256276 0.039465  0.104737 -0.293059 0.0469155  0.105263 -0.331465 0.0554793  0.104813 -0.371069 0.0638633  0.103149 -0.41192 0.0730579  0.100619 -0.453655 0.0823672  0.097095 -0.496294 0.0919921  0.092778 -0.53958 0.102173  0.0877194 -0.583463 0.112055  0.0819244 -0.627802 0.123014  0.0756316 -0.67247 0.133047  0.0686579 -0.71745 0.144619  0.061408 -0.762551 0.154771  0.0535467 -0.80784 0.166756  0.0455759 -0.853086 0.177053  0.0370846 -0.89844 0.189182  0.0286036 -0.94361 0.199704  0.0197206 -0.988806 0.211719  0.0109658 -1.03382 0.222541  0.00201201 -1.07871 0.234179  -0.00671029 -1.12384 0.245009  -0.0153732 -1.16867 0.256753  0 0 0  -0.0128203 -0.0185078 0.00635624  -0.0287382 -0.0263554 0.0109897  -0.04453 -0.036975 0.0140686  -0.0603984 -0.0504756 0.0162044  -0.0758156 -0.0671621 0.0181928  -0.0907486 -0.0868169 0.0204573  -0.105213 -0.109189 0.023201  -0.119278 -0.134092 0.0265083  -0.13298 -0.161291 0.0303965  -0.146388 -0.19065 0.0348577  -0.159507 -0.221952 0.039875  -0.172394 -0.255086 0.0454087  -0.185023 -0.289842 0.0514593  -0.197451 -0.326129 0.0579796  -0.209635 -0.363739 0.0649657  -0.221624 -0.402606 0.072371  -0.233364 -0.442521 0.0802054  -0.244907 -0.483439 0.0884223  -0.256202 -0.525156 0.0970221  -0.267288 -0.567637 0.105946  -0.278121 -0.610698 0.115211  -0.288742 -0.65431 0.124762  -0.299116 -0.698303 0.134604  -0.309273 -0.742672 0.144682  -0.319202 -0.787261 0.155  -0.32892 -0.83207 0.165496  -0.338436 -0.876971 0.176168  -0.34775 -0.921975 0.186936  -0.356904 -0.966959 0.197834  -0.365891 -1.01196 0.208665  -0.374808 -1.05685 0.219565  -0.383543 -1.10171 0.230281  0 0 0  -0.00607674 -0.00828025 0.00502682  -0.018042 -0.0185168 0.00908279  -0.0308979 -0.0301669 0.0119333  -0.0433508 -0.0447989 0.0141778  -0.0554687 -0.0625312 0.0164504  -0.0673407 -0.0831965 0.0190654  -0.0790359 -0.106571 0.0221882  -0.0905934 -0.132425 0.0258603  -0.102053 -0.160572 0.0301056  -0.113433 -0.190812 0.0348988  -0.124749 -0.222992 0.0402336  -0.136011 -0.256923 0.0460677  -0.147222 -0.292471 0.0524068  -0.158374 -0.329455 0.0591884  -0.169462 -0.36776 0.0664244  -0.180476 -0.407217 0.07406  -0.191404 -0.447724 0.0821128  -0.202233 -0.489123 0.0905185  -0.21295 -0.531324 0.0992908  -0.223545 -0.574183 0.108376  -0.234002 -0.617623 0.117782  -0.244313 -0.661519 0.127453  -0.25447 -0.705801 0.137399  -0.264465 -0.75037 0.147564  -0.2743 -0.795162 0.15795  -0.283968 -0.840099 0.168503  -0.293476 -0.885128 0.179201  -0.302822 -0.930192 0.190006  -0.312013 -0.975245 0.200875  -0.321073 -1.02025 0.211748  -0.329996 -1.06515 0.222575  -0.338849 -1.10996 0.233274  0 0 0  -0.00346233 -0.0037688 0.00365829  -0.0107556 -0.0129326 0.0069685  -0.0195883 -0.0254796 0.00959492  -0.028527 -0.0410081 0.0119367  -0.0373315 -0.0595792 0.0144835  -0.0461111 -0.0810388 0.0174489  -0.0549586 -0.105193 0.0209351  -0.0639216 -0.131825 0.0249748  -0.0730262 -0.160734 0.0295682  -0.0822793 -0.191732 0.0347037  -0.0916796 -0.224634 0.0403438  -0.101225 -0.259275 0.0464993  -0.110897 -0.295482 0.0530977  -0.120688 -0.333108 0.0601745  -0.13057 -0.371994 0.0676384  -0.140528 -0.41201 0.0755448  -0.150532 -0.453013 0.0837836  -0.160573 -0.494881 0.0924296  -0.170612 -0.537486 0.10135  -0.18064 -0.580722 0.110643  -0.190626 -0.624482 0.120163  -0.200557 -0.668669 0.130013  -0.21041 -0.713194 0.140035  -0.220175 -0.757975 0.150345  -0.229839 -0.802938 0.160779  -0.239392 -0.848018 0.171436  -0.248821 -0.893165 0.182166  -0.258135 -0.938304 0.193041  -0.267323 -0.983421 0.203921  -0.27636 -1.02846 0.214838  -0.285292 -1.0734 0.225687  -0.294168 -1.11817 0.236445  0 0 0  -0.0016826 -0.00192723 0.00214958  -0.00539963 -0.0102723 0.00458956  -0.0101957 -0.0229908 0.00696373  -0.0153797 -0.0391127 0.00943232  -0.0207679 -0.0583039 0.0122638  -0.0264053 -0.0803697 0.0155783  -0.0323673 -0.105135 0.0194263  -0.0386798 -0.132375 0.0238304  -0.0453769 -0.161913 0.0287662  -0.0524267 -0.193524 0.0342383  -0.0598519 -0.22705 0.0401959  -0.0675977 -0.262275 0.0466537  -0.0756767 -0.299072 0.0535393  -0.0840164 -0.33723 0.0608897  -0.0926367 -0.376651 0.0686221  -0.101456 -0.417125 0.0767703  -0.110489 -0.458593 0.0852399  -0.119654 -0.500843 0.0940957  -0.128968 -0.543839 0.103231  -0.138352 -0.587378 0.112697  -0.147814 -0.631457 0.122399  -0.157294 -0.675872 0.132382  -0.166793 -0.720644 0.142562  -0.176271 -0.765583 0.152975  -0.185711 -0.81073 0.16353  -0.195101 -0.855909 0.174261  -0.204408 -0.901176 0.18509  -0.213655 -0.946381 0.196028  -0.222774 -0.991587 0.206985  -0.231805 -1.03664 0.217944  -0.240707 -1.08162 0.228863  -0.249516 -1.12634 0.239674  0 0 0  -0.000214078 -0.00159237 0.000514984  -0.000769973 -0.00980458 0.00200653  -0.00175202 -0.0226735 0.0041008  -0.00317761 -0.0391202 0.00669336  -0.0051052 -0.0587127 0.00980282  -0.00757796 -0.0812089 0.0134611  -0.010633 -0.106425 0.0176659  -0.0142896 -0.134153 0.0224271  -0.0185399 -0.164177 0.0277071  -0.0233814 -0.19631 0.0335159  -0.0287682 -0.230328 0.0397925  -0.0347053 -0.266078 0.0465665  -0.0411116 -0.303336 0.0537391  -0.0480014 -0.341992 0.061389  -0.0552754 -0.38182 0.0693698  -0.0629559 -0.422752 0.0777993  -0.0709269 -0.464554 0.0864859  -0.0792258 -0.507205 0.0955958  -0.0877233 -0.550462 0.104906  -0.0964687 -0.594348 0.114611  -0.10533 -0.63861 0.124449  -0.114359 -0.683311 0.13465  -0.123435 -0.728203 0.144929  -0.132614 -0.773369 0.155529  -0.141784 -0.81858 0.166157  -0.150991 -0.863928 0.177041  -0.160144 -0.909226 0.187934  -0.169277 -0.954527 0.198991  -0.178336 -0.999707 0.210007  -0.187309 -1.04484 0.221065  -0.196169 -1.08976 0.232033  -0.204973 -1.13454 0.242892  0 0 0  0.00125146 -0.00243467 -0.00115013  0.00381032 -0.0112049 -0.000648022  0.00658345 -0.0243501 0.00112009  0.00884032 -0.0409713 0.00377607  0.0103294 -0.060784 0.00714827  0.010987 -0.0835451 0.0111036  0.0108142 -0.109112 0.0156784  0.00981092 -0.137175 0.0207539  0.0079906 -0.167637 0.0264177  0.00538981 -0.200123 0.0325117  0.00201571 -0.234625 0.0391622  -0.00204802 -0.270702 0.046186  -0.00681901 -0.308454 0.0537152  -0.012169 -0.347385 0.0615926  -0.0181482 -0.387689 0.0699  -0.0245833 -0.428832 0.0785327  -0.0315568 -0.471079 0.0875096  -0.0388684 -0.513869 0.0968208  -0.0466251 -0.557523 0.106373  -0.0546134 -0.601485 0.116268  -0.0629482 -0.646093 0.126301  -0.0714259 -0.690815 0.136685  -0.0801487 -0.735995 0.147119  -0.0889461 -0.781141 0.157884  -0.0978942 -0.826584 0.168638  -0.106867 -0.871884 0.179679  -0.115901 -0.917342 0.190668  -0.124908 -0.962613 0.201866  -0.133919 -1.00791 0.212983  -0.142813 -1.05299 0.224167  -0.15169 -1.09798 0.235194  -0.160377 -1.14273 0.246231  0 0 0  0.0029999 -0.00465113 -0.00278139  0.00897846 -0.0145468 -0.00329542  0.0155643 -0.0279194 -0.0019455  0.021373 -0.0445371 0.000698566  0.026158 -0.0644062 0.00423336  0.0298768 -0.0873423 0.00848961  0.0325392 -0.113101 0.0133915  0.0341635 -0.141491 0.0188236  0.03475 -0.172183 0.0248766  0.0343707 -0.205087 0.0313077  0.0330093 -0.239795 0.0384049  0.0307894 -0.276342 0.0457044  0.027669 -0.314242 0.0537434  0.0238204 -0.353668 0.0618005  0.0191691 -0.394054 0.0706825  0.0139236 -0.435683 0.0793891  0.00798965 -0.477946 0.0889912  0.00159216 -0.521194 0.0982542  -0.00536609 -0.564812 0.108467  -0.0126827 -0.60918 0.118206  -0.0204277 -0.653714 0.128896  -0.0284388 -0.698778 0.139031  -0.0367393 -0.743861 0.150092  -0.0452445 -0.789279 0.160558  -0.0539017 -0.834618 0.171865  -0.0627277 -0.880115 0.182602  -0.0715725 -0.92548 0.194021  -0.0805421 -0.970848 0.20496  -0.0894029 -1.01607 0.216341  -0.098341 -1.06121 0.227378  -0.107101 -1.10617 0.238491  -0.115859 -1.151 0.249357  0 0 0  0.00547537 -0.00912815 -0.00436401  0.01564 -0.0200986 -0.0059247  0.0258312 -0.0331962 -0.00501394  0.0349568 -0.0496649 -0.00251245  0.042891 -0.0694903 0.00126028  0.0496119 -0.0925341 0.00567389  0.0550457 -0.118434 0.0110354  0.0592566 -0.147065 0.0166616  0.0622243 -0.177967 0.0232272  0.0640123 -0.211167 0.0298381  0.0646683 -0.246099 0.037416  0.064209 -0.282956 0.0449128  0.0627881 -0.321077 0.0533376  0.06032 -0.360793 0.0616579  0.0570869 -0.401381 0.0707569  0.0528786 -0.443259 0.0798588  0.0481057 -0.485693 0.0894742  0.0424535 -0.529137 0.0992994  0.0364127 -0.572895 0.109289  0.0296121 -0.617398 0.119765  0.0225573 -0.662031 0.130031  0.0148869 -0.707177 0.141044  0.00705814 -0.75231 0.151538  -0.00122976 -0.797767 0.16296  -0.00961781 -0.843101 0.173664  -0.018296 -0.888613 0.185307  -0.0270441 -0.933917 0.196242  -0.0358968 -0.979305 0.207882  -0.0448244 -1.02442 0.219044  -0.0536108 -1.06957 0.230431  -0.0625396 -1.11448 0.241517  -0.0711889 -1.15926 0.252397  0 0 0  0.0106579 -0.0178773 -0.00626993  0.024542 -0.0272122 -0.00887012  0.0375579 -0.0399797 -0.00839663  0.0498616 -0.056224 -0.00588942  0.0609787 -0.0760294 -0.00200796  0.070567 -0.099122 0.00288677  0.0788437 -0.125184 0.00827599  0.0854808 -0.15395 0.0147409  0.0909022 -0.18511 0.0209546  0.0946974 -0.218457 0.0288033  0.0974313 -0.2537 0.0354996  0.0986085 -0.290672 0.044663  0.0988973 -0.329126 0.0516419  0.0977553 -0.368908 0.0620189  0.0958807 -0.409823 0.0692143  0.0927358 -0.451705 0.0806379  0.0890009 -0.494444 0.0880904  0.0841765 -0.537822 0.100334  0.0788939 -0.581843 0.108132  0.0727062 -0.626218 0.120953  0.06618 -0.671066 0.129211  0.0589249 -0.716029 0.142376  0.0514376 -0.761325 0.151173  0.0433817 -0.806563 0.164505  0.035198 -0.852008 0.173881  0.0265737 -0.897279 0.187208  0.0179269 -0.942633 0.197188  0.00898457 -0.987769 0.210312  0.000158548 -1.03292 0.220775  -0.00887156 -1.07791 0.233349  -0.01775 -1.12257 0.244318  -0.0265 -1.16767 0.255365  0 0 0  -0.0133129 -0.0164154 0.0121222  -0.030511 -0.0230541 0.0191288  -0.0469868 -0.0334022 0.0222626  -0.063094 -0.0471315 0.0240192  -0.0787812 -0.0641204 0.0254955  -0.0940689 -0.0840823 0.0272155  -0.108977 -0.106745 0.0294232  -0.123533 -0.131886 0.0322042  -0.137769 -0.159305 0.0356011  -0.151704 -0.188819 0.0395823  -0.165367 -0.220287 0.0441422  -0.178749 -0.25352 0.049252  -0.191898 -0.288409 0.0548859  -0.204771 -0.324748 0.0610237  -0.21743 -0.362479 0.0676298  -0.229806 -0.401365 0.074697  -0.241973 -0.441395 0.0821867  -0.253844 -0.482298 0.0901093  -0.26551 -0.52412 0.0983996  -0.276865 -0.566566 0.107075  -0.288011 -0.609723 0.11607  -0.29885 -0.653286 0.125418  -0.30947 -0.697373 0.135024  -0.319794 -0.741681 0.144939  -0.329897 -0.786347 0.155066  -0.339727 -0.831092 0.165442  -0.349338 -0.876053 0.175964  -0.358704 -0.920991 0.186649  -0.367897 -0.966016 0.19741  -0.376877 -1.01091 0.20824  -0.385736 -1.05586 0.219041  -0.394504 -1.10063 0.229733  0 0 0  -0.00695407 -0.00669979 0.0095644  -0.020173 -0.0157635 0.0154128  -0.0333574 -0.02696 0.0181918  -0.0458588 -0.0415677 0.0201559  -0.0581721 -0.0594473 0.022059  -0.0703793 -0.0803291 0.0242867  -0.0825104 -0.103927 0.0270081  -0.0945753 -0.130004 0.0302935  -0.106566 -0.158342 0.034152  -0.118497 -0.188764 0.0385876  -0.130352 -0.221085 0.0435572  -0.142147 -0.255158 0.0490713  -0.153857 -0.290806 0.0550661  -0.165499 -0.327905 0.0615644  -0.17704 -0.366282 0.0684867  -0.188492 -0.405833 0.0758729  -0.199819 -0.446389 0.0836368  -0.211032 -0.487864 0.0918245  -0.222092 -0.530097 0.100338  -0.233013 -0.573018 0.109237  -0.243757 -0.616477 0.118413  -0.254337 -0.660423 0.127928  -0.264723 -0.70472 0.137677  -0.274923 -0.749323 0.147719  -0.284925 -0.79412 0.15794  -0.294733 -0.839082 0.168387  -0.304345 -0.884113 0.178965  -0.31377 -0.929188 0.189687  -0.323006 -0.974233 0.200467  -0.332078 -1.01924 0.211287  -0.34101 -1.06414 0.222061  -0.349841 -1.10892 0.23279  0 0 0  -0.00419071 -0.00243093 0.00705671  -0.0126164 -0.0105909 0.0116167  -0.021847 -0.0225365 0.0141001  -0.0309152 -0.0378377 0.0161929  -0.0399571 -0.056417 0.0184603  -0.0491065 -0.077999 0.0211492  -0.0584092 -0.102336 0.0243549  -0.0678822 -0.129151 0.0281205  -0.0775275 -0.158258 0.0324478  -0.0873191 -0.189417 0.0373073  -0.09727 -0.222497 0.0427089  -0.107325 -0.257257 0.0485926  -0.11752 -0.293615 0.0549908  -0.127772 -0.331323 0.0618038  -0.138137 -0.37034 0.069097  -0.1485 -0.410409 0.0767426  -0.158942 -0.451526 0.0848503  -0.169328 -0.493421 0.0932474  -0.179752 -0.536131 0.102069  -0.190071 -0.579378 0.111126  -0.20038 -0.623232 0.120573  -0.21055 -0.66742 0.130205  -0.220664 -0.712026 0.140176  -0.230617 -0.756799 0.150298  -0.240474 -0.801833 0.160697  -0.250154 -0.846907 0.171191  -0.259709 -0.892107 0.181904  -0.269096 -0.937247 0.192651  -0.278333 -0.982396 0.203519  -0.287408 -1.02743 0.214346  -0.296337 -1.07234 0.225179  -0.305168 -1.11714 0.235903  0 0 0  -0.002223 -0.000703454 0.00424242  -0.0068166 -0.00807559 0.00742531  -0.0120982 -0.020127 0.00969172  -0.0175904 -0.0359064 0.0119777  -0.0233474 -0.0550033 0.0146284  -0.0294241 -0.0771302 0.017767  -0.0358778 -0.102032 0.0214491  -0.0427213 -0.129446 0.0256796  -0.0499494 -0.15916 0.0304623  -0.0575544 -0.190949 0.0357647  -0.0654957 -0.224629 0.0415807  -0.0737759 -0.260015 0.0478821  -0.0823313 -0.296927 0.0546355  -0.0911742 -0.335229 0.0618396  -0.100219 -0.374727 0.0694571  -0.109499 -0.415341 0.0774646  -0.118898 -0.456848 0.0858326  -0.128478 -0.499235 0.0945592  -0.138104 -0.542237 0.103607  -0.147846 -0.585921 0.112953  -0.157568 -0.629978 0.122571  -0.167346 -0.67454 0.132456  -0.177057 -0.719274 0.142563  -0.186763 -0.764356 0.152881  -0.196363 -0.809459 0.163369  -0.205902 -0.854771 0.17402  -0.215324 -0.9 0.184792  -0.224638 -0.945305 0.195659  -0.233827 -0.990474 0.206563  -0.242869 -1.0356 0.217468  -0.251805 -1.08052 0.228325  -0.260594 -1.12524 0.239105  0 0 0  -0.000547111 -0.000366747 0.0012536  -0.00172 -0.00756967 0.0029974  -0.00324616 -0.0197239 0.00503731  -0.00518611 -0.0357645 0.00754738  -0.00762284 -0.0552292 0.0105715  -0.0106357 -0.0777342 0.014164  -0.0142255 -0.103087 0.0182981  -0.0184373 -0.130941 0.0230112  -0.0232272 -0.161173 0.028224  -0.028604 -0.193431 0.0339823  -0.0345196 -0.227656 0.0402021  -0.0409496 -0.263493 0.0469193  -0.0478611 -0.300948 0.0540462  -0.0551906 -0.339654 0.0616236  -0.0629412 -0.379665 0.0695872  -0.0709988 -0.420618 0.0779176  -0.0794117 -0.462593 0.0866184  -0.0880244 -0.505247 0.0956001  -0.0969262 -0.548667 0.104953  -0.105925 -0.592541 0.114501  -0.11514 -0.636963 0.124412  -0.124371 -0.681651 0.134437  -0.133744 -0.726692 0.144808  -0.143077 -0.771847 0.155228  -0.152465 -0.817201 0.165943  -0.16178 -0.862548 0.176664  -0.171081 -0.907967 0.187622  -0.180273 -0.953295 0.198546  -0.189408 -0.998577 0.209581  -0.198398 -1.04371 0.220563  -0.207342 -1.0887 0.231472  -0.216141 -1.13343 0.242396  0 0 0  0.00111793 -0.00109708 -0.00177002  0.00333318 -0.00877124 -0.00146675  0.00547013 -0.0211442 0.00028944  0.00705093 -0.0373654 0.00296211  0.0078634 -0.0570042 0.00633097  0.00792778 -0.0798194 0.0103412  0.007146 -0.10543 0.014924  0.00559509 -0.133725 0.0200777  0.00321412 -0.164246 0.0257397  8.47578e-05 -0.197035 0.0319185  -0.00379848 -0.231545 0.0385666  -0.00838745 -0.267955 0.0456591  -0.0135961 -0.30566 0.0531888  -0.0194696 -0.344943 0.0611143  -0.0258086 -0.385162 0.069437  -0.0327582 -0.426654 0.0780783  -0.0400257 -0.468796 0.0870924  -0.0478222 -0.511922 0.0963731  -0.0558114 -0.555475 0.105988  -0.0642374 -0.599739 0.115822  -0.0727584 -0.64426 0.125934  -0.0816016 -0.689253 0.136226  -0.0904751 -0.734358 0.146751  -0.0995524 -0.779743 0.157411  -0.108622 -0.825124 0.168252  -0.117778 -0.870631 0.179192  -0.126889 -0.916049 0.19026  -0.136003 -0.96148 0.201349  -0.145023 -1.00674 0.212512  -0.154038 -1.05195 0.223581  -0.162866 -1.09687 0.234659  -0.171737 -1.1417 0.245573  0 0 0  0.00304717 -0.00303304 -0.00469351  0.00892216 -0.0117184 -0.00583124  0.0147574 -0.0243111 -0.00444651  0.0197577 -0.040605 -0.00175762  0.0237633 -0.0603424 0.00188732  0.0268196 -0.0833398 0.00626135  0.0288646 -0.109231 0.0112872  0.0298921 -0.137741 0.016881  0.0299593 -0.168707 0.0230136  0.0289992 -0.201647 0.0296469  0.0271863 -0.236755 0.0367298  0.0243944 -0.273189 0.0442905  0.0208762 -0.311631 0.0522046  0.0164789 -0.350773 0.0605941  0.0114627 -0.391833 0.0692344  0.00572419 -0.433029 0.0783563  -0.000556707 -0.476064 0.087604  -0.00736284 -0.518772 0.0973635  -0.014678 -0.563213 0.10713  -0.0222867 -0.606991 0.117431  -0.0304 -0.652337 0.127619  -0.0385706 -0.696825 0.138352  -0.0472679 -0.742655 0.148886  -0.0557802 -0.787558 0.159956  -0.064863 -0.833532 0.170763  -0.0735459 -0.878622 0.18205  -0.082818 -0.924475 0.193058  -0.0915241 -0.969579 0.204413  -0.100782 -1.0151 0.215513  -0.109471 -1.06008 0.226764  -0.118502 -1.10517 0.237812  -0.127163 -1.14981 0.248796  0 0 0  0.00566572 -0.00696337 -0.00738192  0.015755 -0.0165633 -0.00998545  0.0252039 -0.029089 -0.00918674  0.0334305 -0.0453132 -0.00653982  0.0405889 -0.0652032 -0.0027132  0.0465906 -0.0882813 0.00207424  0.0513861 -0.114439 0.00744867  0.0550102 -0.143163 0.013598  0.0573925 -0.174383 0.0200405  0.058672 -0.207682 0.027298  0.0587611 -0.242913 0.0346112  0.0578588 -0.279887 0.0428305  0.05588 -0.318236 0.0508933  0.0530256 -0.358109 0.0599346  0.0492659 -0.398819 0.068665  0.0447197 -0.440919 0.0783935  0.0394709 -0.483361 0.0877328  0.0335147 -0.527099 0.0979953  0.0270813 -0.570756 0.107887  0.0199907 -0.615613 0.118557  0.0126507 -0.660071 0.128941  0.00468707 -0.705606 0.139908  -0.00330806 -0.750536 0.150707  -0.0118971 -0.796379 0.161911  -0.020318 -0.841524 0.173019  -0.0293193 -0.887388 0.184394  -0.0379632 -0.932569 0.195686  -0.0471387 -0.978216 0.207141  -0.0558412 -1.02333 0.218421  -0.0649841 -1.06854 0.229759  -0.0737026 -1.11347 0.240952  -0.0825577 -1.15829 0.252052  0 0 0  0.0103905 -0.0146719 -0.010253  0.0243183 -0.0228385 -0.0144935  0.0368911 -0.0352899 -0.0142765  0.0484928 -0.051515 -0.0116968  0.0588175 -0.07149 -0.00755644  0.0677956 -0.0946963 -0.00252628  0.07533 -0.12104 0.00342417  0.0815185 -0.14989 0.00974655  0.0862041 -0.181375 0.0169492  0.0896919 -0.214729 0.0241942  0.0916549 -0.250309 0.0324488  0.0926554 -0.287224 0.0404439  0.0921389 -0.326002 0.0496254  0.0909212 -0.365684 0.0582533  0.0882392 -0.406881 0.0682354  0.0850823 -0.448682 0.0774322  0.0805774 -0.49164 0.0880771  0.075757 -0.534995 0.0977745  0.0697908 -0.579154 0.108919  0.0635788 -0.623595 0.119065  0.0564919 -0.66851 0.130571  0.0491681 -0.713632 0.141105  0.0412586 -0.758959 0.152845  0.0330827 -0.80442 0.163693  0.0246282 -0.849912 0.175566  0.0158515 -0.895428 0.186638  0.0070858 -0.940913 0.198541  -0.00203729 -0.986277 0.209738  -0.0109205 -1.03165 0.221516  -0.0200958 -1.07664 0.232617  -0.02877 -1.12181 0.244081  -0.0379486 -1.16674 0.255336  0 0 0  -0.0180023 -0.0118183 0.0214238  -0.0344049 -0.0168128 0.0274625  -0.0492692 -0.027658 0.0305471  -0.0648935 -0.0419002 0.0318813  -0.0805987 -0.0595077 0.0328908  -0.0962239 -0.0799861 0.0341582  -0.111652 -0.10313 0.0358582  -0.126788 -0.128634 0.038167  -0.141657 -0.156386 0.04108  -0.156196 -0.186154 0.0445995  -0.17048 -0.217881 0.0487013  -0.184433 -0.25129 0.0533729  -0.198152 -0.28638 0.0585966  -0.211537 -0.322846 0.0643258  -0.224714 -0.360742 0.0705667  -0.237548 -0.399731 0.0772462  -0.250175 -0.439896 0.0844159  -0.262443 -0.480865 0.0919886  -0.274508 -0.522792 0.100011  -0.286208 -0.565297 0.108354  -0.297686 -0.608531 0.117131  -0.308811 -0.65213 0.126181  -0.319697 -0.696274 0.135609  -0.330251 -0.740607 0.145268  -0.340553 -0.785305 0.155252  -0.350538 -0.830056 0.165411  -0.360285 -0.875051 0.175827  -0.369739 -0.919972 0.186331  -0.378937 -0.965004 0.197053  -0.387979 -1.00995 0.207745  -0.396797 -1.0548 0.218527  -0.405592 -1.09969 0.229267  0 0 0  -0.0111693 -0.00337362 0.017415  -0.0239923 -0.0109618 0.0216465  -0.0356295 -0.0217977 0.0243387  -0.0476451 -0.0365729 0.0261045  -0.0599725 -0.0548041 0.0277605  -0.0725151 -0.0760872 0.0296874  -0.0851389 -0.100077 0.0320702  -0.0977876 -0.126507 0.0349932  -0.110388 -0.155157 0.0384936  -0.122929 -0.185849 0.0425553  -0.135387 -0.218419 0.0471892  -0.147761 -0.252695 0.0523338  -0.16003 -0.288541 0.0580239  -0.172196 -0.325794 0.0641689  -0.184241 -0.364335 0.070827  -0.196163 -0.404004 0.0778723  -0.207947 -0.444699 0.085413  -0.219566 -0.486254 0.0932784  -0.231027 -0.528605 0.10161  -0.242294 -0.571586 0.110209  -0.253381 -0.615143 0.119236  -0.264244 -0.659129 0.128484  -0.274916 -0.703502 0.138108  -0.28534 -0.748129 0.147917  -0.295559 -0.792987 0.158038  -0.305525 -0.837967 0.168294  -0.315275 -0.883042 0.178791  -0.324792 -0.928126 0.189371  -0.334078 -0.973214 0.200086  -0.343168 -1.0182 0.210816  -0.352106 -1.06316 0.221537  -0.360922 -1.10789 0.232227  0 0 0  -0.00719593 0.000673831 0.0128613  -0.0156142 -0.00621489 0.0161824  -0.0239507 -0.0176046 0.0185003  -0.0327944 -0.0328604 0.0204196  -0.041983 -0.0516569 0.0225325  -0.0514951 -0.0735245 0.0250287  -0.0613033 -0.0982074 0.0280023  -0.0713303 -0.125333 0.0315328  -0.0815632 -0.154751 0.0355825  -0.0919408 -0.186178 0.0402102  -0.102466 -0.219497 0.0453172  -0.113095 -0.254494 0.0509987  -0.123809 -0.291022 0.0570931  -0.134604 -0.328952 0.0637441  -0.145422 -0.368076 0.0707297  -0.156294 -0.408361 0.0782461  -0.167124 -0.449528 0.0860538  -0.177978 -0.491642 0.0943537  -0.188723 -0.534355 0.102888  -0.199461 -0.577821 0.111874  -0.210027 -0.62164 0.121047  -0.220561 -0.666038 0.13063  -0.230879 -0.710589 0.14036  -0.241122 -0.755552 0.15044  -0.251119 -0.800528 0.160625  -0.261013 -0.84576 0.171087  -0.270659 -0.890907 0.181624  -0.280169 -0.936177 0.192349  -0.289438 -0.981309 0.20308  -0.29855 -1.02643 0.213901  -0.307464 -1.07134 0.22465  -0.316288 -1.11615 0.235385  0 0 0  -0.00411697 0.00238979 0.0078125  -0.00893539 -0.00370768 0.0102863  -0.0139219 -0.0151458 0.0124264  -0.0195127 -0.0308318 0.0145864  -0.0255675 -0.0500323 0.0171208  -0.0320864 -0.0724393 0.0201569  -0.0390438 -0.097597 0.023685  -0.0464497 -0.125346 0.0277853  -0.0542308 -0.155313 0.0323973  -0.0624141 -0.187397 0.03755  -0.0709007 -0.221303 0.0431943  -0.0797281 -0.256919 0.0493326  -0.0887954 -0.294043 0.0559411  -0.0981429 -0.332501 0.0629678  -0.107668 -0.372223 0.0704622  -0.117383 -0.412921 0.0782847  -0.127235 -0.454671 0.0865655  -0.13718 -0.497072 0.0950985  -0.147223 -0.540342 0.104081  -0.157256 -0.583982 0.113227  -0.167361 -0.628319 0.122812  -0.177362 -0.672796 0.132505  -0.187407 -0.717808 0.142592  -0.197258 -0.762792 0.152738  -0.207131 -0.808156 0.163213  -0.216759 -0.853371 0.173718  -0.226376 -0.898823 0.184476  -0.235721 -0.944072 0.195231  -0.245006 -0.989411 0.206097  -0.254058 -1.03451 0.216962  -0.263022 -1.0796 0.22776  -0.271805 -1.12425 0.238609  0 0 0  -0.00138143 0.00272125 0.00266981  -0.00299568 -0.00312573 0.00415659  -0.00477973 -0.0146297 0.00612307  -0.00710714 -0.0304773 0.00855017  -0.0100083 -0.0500542 0.0115271  -0.0135186 -0.0727313 0.0150561  -0.0176622 -0.0983967 0.0191503  -0.0224014 -0.126486 0.0237923  -0.027771 -0.157059 0.0289593  -0.0336719 -0.189531 0.034657  -0.0401605 -0.224079 0.0408082  -0.0470876 -0.260104 0.0474858  -0.054543 -0.297839 0.0545101  -0.0623451 -0.336721 0.0620871  -0.0705812 -0.376964 0.0698962  -0.0790898 -0.418099 0.0782804  -0.0879152 -0.460248 0.0867686  -0.0969615 -0.503097 0.095871  -0.106192 -0.546626 0.104944  -0.115597 -0.590717 0.114676  -0.125059 -0.635185 0.124256  -0.134656 -0.680098 0.134501  -0.144199 -0.725136 0.144524  -0.153833 -0.770508 0.155172  -0.163332 -0.815831 0.165551  -0.172859 -0.861357 0.176473  -0.182222 -0.906749 0.18715  -0.191531 -0.952214 0.198199  -0.200663 -0.99751 0.209049  -0.209745 -1.04272 0.220043  -0.218605 -1.0877 0.230928  -0.227393 -1.13248 0.241779  0 0 0  0.00129016 0.00195259 -0.0024991  0.00288215 -0.00428635 -0.00200844  0.00423717 -0.0159041 -0.000264168  0.0051387 -0.0319442 0.00236273  0.00535345 -0.0515934 0.00574255  0.00480437 -0.0746589 0.00974941  0.00347769 -0.100478 0.0143719  0.00132465 -0.129125 0.0195746  -0.00157642 -0.159889 0.0252414  -0.00529873 -0.193013 0.0315256  -0.00967991 -0.227765 0.0381131  -0.0148216 -0.264454 0.0453806  -0.0205237 -0.302405 0.0527587  -0.0268865 -0.341884 0.0609374  -0.0337049 -0.382374 0.0690122  -0.041059 -0.423965 0.0779843  -0.0487885 -0.466415 0.086668  -0.056906 -0.509538 0.0963259  -0.0653343 -0.553437 0.105561  -0.0739906 -0.597615 0.115788  -0.0829127 -0.642517 0.125504  -0.091913 -0.687354 0.136176  -0.101134 -0.732858 0.146307  -0.11031 -0.77806 0.157317  -0.11965 -0.823824 0.167782  -0.128856 -0.869175 0.179017  -0.138144 -0.914904 0.189732  -0.147259 -0.960246 0.201059  -0.156374 -1.00572 0.211932  -0.165293 -1.05087 0.223148  -0.174256 -1.09592 0.234094  -0.183016 -1.14056 0.245105  0 0 0  0.00418285 7.15256e-06 -0.00760794  0.00920874 -0.00707608 -0.00802183  0.0138434 -0.0189013 -0.00667524  0.0178318 -0.0349324 -0.0039258  0.0211566 -0.0547463 -0.000288963  0.0234697 -0.0779126 0.00421619  0.0249677 -0.104072 0.00931025  0.0253812 -0.132886 0.015048  0.0248964 -0.164084 0.0212984  0.0234339 -0.197403 0.0280137  0.0210209 -0.232625 0.0352998  0.0178565 -0.269505 0.0428066  0.0136806 -0.307916 0.0510526  0.00904727 -0.347566 0.0592189  0.00333381 -0.388463 0.0683498  -0.00252485 -0.43021 0.0770583  -0.00949597 -0.473002 0.0869708  -0.0163524 -0.516256 0.096127  -0.0242944 -0.560432 0.106715  -0.0319426 -0.604718 0.116248  -0.0405612 -0.649837 0.12737  -0.0488214 -0.694755 0.137231  -0.0578468 -0.740444 0.148738  -0.0665524 -0.785678 0.158898  -0.0757382 -0.831635 0.170633  -0.084733 -0.876945 0.181077  -0.0938644 -0.922923 0.192851  -0.102995 -0.968149 0.203547  -0.111893 -1.01389 0.215166  -0.120935 -1.05896 0.226079  -0.129719 -1.10403 0.237354  -0.138538 -1.1491 0.24824  0 0 0  0.00763525 -0.00357574 -0.0122528  0.0167433 -0.0114232 -0.0138431  0.0244526 -0.0232885 -0.0130529  0.0316328 -0.0392833 -0.0103927  0.0378243 -0.0592767 -0.00630426  0.0432573 -0.0825244 -0.00154638  0.0472727 -0.108866 0.00436068  0.0505317 -0.137924 0.0102558  0.0521861 -0.169168 0.0175433  0.0531766 -0.202971 0.0241766  0.0526044 -0.237968 0.0326891  0.0513871 -0.275659 0.0398664  0.0488912 -0.31348 0.0494852  0.0456202 -0.354314 0.0571041  0.0415392 -0.394219 0.0676627  0.0364203 -0.437523 0.0757289  0.0310822 -0.478946 0.0870337  0.0243959 -0.524081 0.0955572  0.01808 -0.566577 0.107372  0.0101497 -0.612956 0.116401  0.00307059 -0.656196 0.128516  -0.00574827 -0.703294 0.138065  -0.0134377 -0.747029 0.150324  -0.0228007 -0.7944 0.160345  -0.0309353 -0.83845 0.17266  -0.040544 -0.885718 0.183052  -0.0489738 -0.930008 0.195341  -0.0585735 -0.976822 0.20597  -0.0670722 -1.02136 0.218082  -0.0764587 -1.06732 0.228842  -0.0849924 -1.11222 0.240504  -0.0939589 -1.15709 0.251227  0 0 0  0.0125022 -0.00987762 -0.0163951  0.0254327 -0.0166044 -0.020277  0.0362942 -0.028797 -0.0199556  0.0467781 -0.0450376 -0.0172181  0.0562752 -0.0652612 -0.0126042  0.0644068 -0.0887042 -0.00722504  0.0715126 -0.115428 -0.000878811  0.0768335 -0.144506 0.00612879  0.0813298 -0.176458 0.0133491  0.0838047 -0.209955 0.0217881  0.0857918 -0.246059 0.0293808  0.0856268 -0.283031 0.0392532  0.0853035 -0.322375 0.0468726  0.0828373 -0.362044 0.0581365  0.0804601 -0.403798 0.065567  0.0760522 -0.44557 0.0781183  0.0718861 -0.48905 0.0853367  0.0659442 -0.532392 0.0989556  0.0602684 -0.576968 0.106041  0.0531449 -0.621458 0.120429  0.0462413 -0.666676 0.127607  0.0382538 -0.711923 0.142453  0.0304041 -0.757404 0.14992  0.0218391 -0.803069 0.164921  0.0132821 -0.848583 0.172888  0.00445509 -0.894365 0.187696  -0.00462294 -0.939713 0.196346  -0.0133963 -0.985457 0.210548  -0.0228755 -1.03058 0.220036  -0.0312278 -1.07606 0.232951  -0.0408704 -1.12042 0.24333  -0.0488892 -1.1655 0.254341  -0.00485332 -0.00416154 -0.0105264  -0.00959704 -0.00883405 -0.01489  -0.00340375 -0.00673562 -0.00683808  0 0 0  0 0 0  -0.00974125 -0.00205368 -0.0157106  -0.00669882 -0.00682788 -0.0101578  0 0 0  -0.00271847 0.000771612 -0.00789738  -0.00538458 -0.0021281 -0.0103807  -0.00146592 -0.00161541 -0.00477839  0 0 0  -0.00318186 -0.0048272 -0.00826716  -0.00366053 -0.0010395 -0.00894117  -0.00730191 -0.00486783 -0.0125716  -0.0020768 -0.0035301 -0.00554514  0 0 0  -0.00164976 -0.000635661 -0.00593019  -0.00215707 -0.00223774 -0.0068171  -0.0182973 -0.00587294 -0.0216923  -0.0222804 -0.0128797 -0.0210342  -0.015944 -0.0130434 -0.0157957  -0.0188424 -0.00654619 -0.0192289  -0.0176236 -0.013635 -0.0149987  -0.011126 -0.00179638 -0.0145497  -0.0137243 -0.00845417 -0.0141773  -0.00890377 -0.00716979 -0.0107944  -0.0163288 -0.0102345 -0.0187864  -0.0149513 -0.00368208 -0.0179634  -0.0179349 -0.0104829 -0.017426  -0.0121672 -0.00980532 -0.0132008  -0.00968896 -0.00478198 -0.0127707  -0.0129783 -0.00718267 -0.0156524  -0.0278123 -0.0123761 -0.0244915  -0.0337708 -0.0224599 -0.021678  -0.0284899 -0.0207358 -0.0188241  -0.0264037 -0.0162923 -0.0196671  -0.0281745 -0.0237665 -0.0153944  -0.0173556 -0.00943749 -0.0159197  -0.0213398 -0.0187654 -0.0140343  -0.0179131 -0.0160942 -0.0125227  -0.0280117 -0.0171249 -0.0218413  -0.0224738 -0.010783 -0.0199099  -0.0273218 -0.0203646 -0.0176952  -0.022971 -0.0181952 -0.0155728  -0.0175687 -0.013062 -0.0144324  -0.0226219 -0.0148679 -0.0179629  -0.0378979 -0.0244469 -0.0233462  -0.0451144 -0.0361911 -0.0195076  -0.04078 -0.0324729 -0.01807  -0.0346755 -0.0306729 -0.0174241  -0.0383701 -0.0378916 -0.0133967  -0.0236434 -0.0218288 -0.0146267  -0.0288869 -0.0332932 -0.0118387  -0.0263729 -0.02871 -0.0113695  -0.0394791 -0.0288334 -0.0208511  -0.0304924 -0.0229557 -0.0187883  -0.0366884 -0.0345366 -0.0155532  -0.0332943 -0.0303591 -0.0146263  -0.0250952 -0.025536 -0.0131483  -0.0320101 -0.0269567 -0.0168626  -0.0482306 -0.0405439 -0.0200746  -0.0562671 -0.0536598 -0.0157149  -0.0527167 -0.0479627 -0.0152166  -0.0433376 -0.0488665 -0.0136895  -0.0484138 -0.0555545 -0.00991607  -0.0304213 -0.0384437 -0.0116336  -0.0366046 -0.051509 -0.00829959  -0.0347172 -0.0450521 -0.00855112  -0.0507069 -0.0445048 -0.0177689  -0.0389566 -0.0393265 -0.0157132  -0.0460832 -0.0524084 -0.0119143  -0.0434063 -0.0463048 -0.0118043  -0.0327207 -0.0419713 -0.0102117  -0.0413757 -0.0430462 -0.0138841  -0.0587255 -0.0600802 -0.0155356  -0.0672827 -0.0743167 -0.0109208  -0.0643552 -0.0667978 -0.0110929  -0.0523041 -0.0702794 -0.00895357  -0.058369 -0.076379 -0.00547099  -0.037651 -0.0585919 -0.00750804  -0.0445268 -0.072942 -0.00382972  -0.0430871 -0.0647267 -0.004632  -0.0617936 -0.0636203 -0.013418  -0.0477909 -0.0591906 -0.011425  -0.0555454 -0.0734864 -0.007303  -0.0533991 -0.0655917 -0.00779486  -0.040539 -0.0618483 -0.00616431  -0.0508071 -0.0625739 -0.00970984  -0.0692583 -0.0825692 -0.0101912  -0.0781665 -0.0977976 -0.00543666  -0.0757372 -0.0886105 -0.00614214  -0.0614508 -0.0945073 -0.00351119  -0.0682608 -0.100004 -0.000335217  -0.0452524 -0.0817832 -0.00258088  -0.0526383 -0.0972089 0.00131059  -0.0515366 -0.0873794 6.05583e-05  -0.0727401 -0.0857278 -0.00825453  -0.0568585 -0.0820563 -0.00631309  -0.065053 -0.0973861 -0.00200033  -0.0633207 -0.0878542 -0.00298095  -0.0485608 -0.0847404 -0.00133896  -0.0602945 -0.0851044 -0.00472951  -0.0797713 -0.107685 -0.00424361  -0.0889329 -0.123806 0.000571489  -0.0869095 -0.113097 -0.000584602  -0.0707088 -0.121237 0.00248075  -0.0781128 -0.126176 0.00535035  -0.0531211 -0.107643 0.00296807  -0.0609121 -0.124016 0.0070169  -0.0600756 -0.112698 0.00536251  -0.0835647 -0.110504 -0.00249124  -0.0660675 -0.107565 -0.000580072  -0.0745903 -0.123817 0.00384951  -0.0731884 -0.112782 0.00244284  -0.0567551 -0.110309 0.00409961  -0.0698183 -0.110299 0.000861406  -0.0902265 -0.135173 0.00216818  -0.0995973 -0.152128 0.00704169  -0.0979165 -0.140019 0.00546527  -0.0800329 -0.150247 0.00895  -0.0879349 -0.154656 0.0115123  -0.0612091 -0.135906 0.00903416  -0.0693312 -0.15312 0.0131962  -0.0687122 -0.14044 0.0111759  -0.0942773 -0.137693 0.00374985  -0.0753615 -0.135461 0.00565457  -0.0841507 -0.152549 0.01017  -0.083026 -0.140135 0.00837111  -0.0651037 -0.138291 0.0100472  -0.0793673 -0.137908 0.00695252  -0.100634 -0.164853 0.00902843  -0.110169 -0.182558 0.0139256  -0.108779 -0.169164 0.0119665  -0.0894099 -0.181344 0.0158441  -0.0977478 -0.185259 0.0181134  -0.0694672 -0.166348 0.0155635  -0.0778816 -0.184328 0.0198267  -0.0774426 -0.170385 0.0174561  -0.104895 -0.167093 0.0104373  -0.0847133 -0.165539 0.012341  -0.0937313 -0.183384 0.0169253  -0.0928379 -0.169696 0.0147579  -0.0735902 -0.168471 0.0164583  -0.0889384 -0.167713 0.013495  -0.11097 -0.196536 0.0162718  -0.120663 -0.214937 0.0212123  -0.119537 -0.200356 0.0188749  -0.0988305 -0.214345 0.023149  -0.107554 -0.217797 0.025131  -0.0778834 -0.198778 0.0225234  -0.0865548 -0.217439 0.0268779  -0.0862753 -0.202348 0.0241711  -0.115426 -0.198518 0.0175192  -0.0941126 -0.19761 0.0194433  -0.103334 -0.216144 0.0240896  -0.102652 -0.201291 0.0215685  -0.0822018 -0.200653 0.0233011  -0.0985287 -0.199534 0.0204577  -0.12126 -0.23006 0.0239148  -0.131085 -0.249083 0.0288815  -0.130182 -0.233413 0.026191  -0.10829 -0.249093 0.0308397  -0.117363 -0.252102 0.0325518  -0.0864364 -0.233017 0.0298874  -0.0953465 -0.252304 0.0343299  -0.0952042 -0.236147 0.0313051  -0.125883 -0.231798 0.0250027  -0.103555 -0.231504 0.026942  -0.112957 -0.25066 0.031651  -0.112453 -0.234731 0.0287912  -0.0909368 -0.23466 0.0305543  -0.108143 -0.233189 0.0278213  -0.131489 -0.265264 0.0319142  -0.141444 -0.284858 0.0369208  -0.140759 -0.268186 0.0338871  -0.117783 -0.285421 0.0389023  -0.127176 -0.288024 0.0403566  -0.0951202 -0.26891 0.0376449  -0.104243 -0.288734 0.0421708  -0.104228 -0.271618 0.0388393  -0.136273 -0.266777 0.0328557  -0.113029 -0.267065 0.0348182  -0.122603 -0.286776 0.0395861  -0.12227 -0.269866 0.0364039  -0.0997796 -0.27033 0.0382035  -0.117775 -0.268526 0.0355713  -0.141679 -0.302003 0.0402811  -0.151735 -0.322088 0.045321  -0.151234 -0.304508 0.0419638  -0.127308 -0.323191 0.0473216  -0.136988 -0.325394 0.0485344  -0.103918 -0.306287 0.0457699  -0.113241 -0.326609 0.0503759  -0.11334 -0.308601 0.0467572  -0.146597 -0.303296 0.0410798  -0.122542 -0.304131 0.0430617  -0.132262 -0.324336 0.0478899  -0.132075 -0.306528 0.0443993  -0.108731 -0.307499 0.0462272  -0.127431 -0.305378 0.0436921  -0.151804 -0.340123 0.0489829  -0.161965 -0.360658 0.0540531  -0.161654 -0.342241 0.0503905  -0.13685 -0.362233 0.0560777  -0.146801 -0.364086 0.0570631  -0.112827 -0.345004 0.0542524  -0.122321 -0.365736 0.0589399  -0.122527 -0.346946 0.0550423  -0.156859 -0.341217 0.0496478  -0.132074 -0.342559 0.0516512  -0.141934 -0.363196 0.0565331  -0.141897 -0.344577 0.0527527  -0.117768 -0.346021 0.054615  -0.137093 -0.34361 0.0521684  -0.161889 -0.379482 0.0580115  -0.172122 -0.40039 0.0631242  -0.171965 -0.381234 0.059166  -0.146414 -0.40244 0.0651562  -0.156596 -0.403925 0.0659297  -0.121823 -0.38491 0.0630655  -0.13148 -0.406021 0.0678222  -0.131789 -0.386501 0.0636752  -0.167051 -0.38038 0.058552  -0.141632 -0.382198 0.060571  -0.151605 -0.403209 0.06551  -0.151691 -0.383857 0.0614567  -0.126894 -0.385741 0.063339  -0.14677 -0.383057 0.0609813  -0.171901 -0.419946 0.0673459  -0.182209 -0.441189 0.0724828  -0.182226 -0.421352 0.0682592  -0.155973 -0.443632 0.0745311  -0.166379 -0.444817 0.0751104  -0.130899 -0.425872 0.072202  -0.14069 -0.447274 0.0770378  -0.141093 -0.427133 0.0726383  -0.177175 -0.420666 0.06777  -0.15119 -0.422919 0.069802  -0.161269 -0.444244 0.0747893  -0.161492 -0.42424 0.0704806  -0.136075 -0.426531 0.0723927  -0.156433 -0.423604 0.0701132  -0.181861 -0.461373 0.0769625  -0.192206 -0.48288 0.0821378  -0.192359 -0.462456 0.0776579  -0.165531 -0.485726 0.0841892  -0.176119 -0.48658 0.0845842  -0.140037 -0.467747 0.0816247  -0.149948 -0.48942 0.086519  -0.150448 -0.468701 0.0819061  -0.187217 -0.461923 0.0772798  -0.160756 -0.464574 0.0793185  -0.170911 -0.486164 0.0843594  -0.171244 -0.465581 0.079813  -0.145317 -0.468243 0.0817378  -0.166095 -0.465092 0.0795379  -0.191732 -0.503646 0.0868433  -0.202126 -0.525386 0.092036  -0.202432 -0.504426 0.0873311  -0.175061 -0.528541 0.0940976  -0.185828 -0.529148 0.0943317  -0.149218 -0.510412 0.0913231  -0.159225 -0.532276 0.0962906  -0.159807 -0.511084 0.0914643  -0.197176 -0.504039 0.0870593  -0.170295 -0.507047 0.0891075  -0.180523 -0.528853 0.094188  -0.180979 -0.507761 0.0894256  -0.154579 -0.510763 0.0913708  -0.175714 -0.507415 0.0892432  -0.201538 -0.54663 0.0969639  -0.21194 -0.568542 0.102195  -0.212367 -0.547141 0.09727  -0.184565 -0.57203 0.104245  -0.19547 -0.572345 0.104327  -0.158429 -0.553754 0.10127  -0.168521 -0.575794 0.10628  -0.169195 -0.554159 0.101279  -0.207045 -0.546882 0.0970912  -0.17982 -0.550211 0.0991347  -0.190093 -0.57219 0.104264  -0.190648 -0.550661 0.0993004  -0.163876 -0.553961 0.101252  -0.185315 -0.550438 0.0991943  -0.211239 -0.590232 0.107294  -0.221667 -0.612286 0.112548  -0.22223 -0.59048 0.107436  -0.194017 -0.616014 0.114595  -0.205066 -0.616132 0.114552  -0.167645 -0.597653 0.111447  -0.177801 -0.619795 0.116523  -0.178549 -0.597821 0.111343  -0.216814 -0.590346 0.107342  -0.189294 -0.593966 0.109391  -0.199608 -0.616067 0.114552  -0.200275 -0.594162 0.109414  -0.173157 -0.597736 0.111375  -0.194849 -0.594061 0.109383  -0.220871 -0.634333 0.117829  -0.231279 -0.656476 0.123106  -0.231951 -0.634349 0.117826  -0.203438 -0.660463 0.125142  -0.21458 -0.660329 0.124976  -0.176872 -0.642004 0.121824  -0.187081 -0.664252 0.12693  -0.187909 -0.641955 0.121616  -0.226487 -0.634326 0.117807  -0.198736 -0.638191 0.119838  -0.209069 -0.66039 0.125042  -0.209824 -0.638168 0.119741  -0.182446 -0.641975 0.121698  -0.204349 -0.638173 0.119769  -0.230395 -0.67883 0.128531  -0.240818 -0.701054 0.133806  -0.241587 -0.678638 0.128389  -0.212788 -0.705202 0.135838  -0.224029 -0.704925 0.135578  -0.186077 -0.686717 0.132372  -0.196316 -0.708992 0.137549  -0.197218 -0.686471 0.132088  -0.236057 -0.678724 0.128438  -0.208121 -0.682801 0.130469  -0.218463 -0.705047 0.135692  -0.219311 -0.682569 0.130259  -0.191699 -0.686588 0.132214  -0.213765 -0.682676 0.130349  -0.239831 -0.723674 0.139376  -0.250222 -0.745882 0.144692  -0.2511 -0.723271 0.139127  -0.222089 -0.750212 0.146651  -0.233404 -0.749752 0.146322  -0.195289 -0.731701 0.143083  -0.205547 -0.754022 0.148282  -0.206513 -0.731276 0.14272  -0.24554 -0.723433 0.139236  -0.217454 -0.727706 0.141233  -0.227799 -0.749986 0.146471  -0.228712 -0.727294 0.140937  -0.200934 -0.731478 0.142878  -0.223142 -0.72748 0.141067  -0.249196 -0.768658 0.150356  -0.259504 -0.790943 0.155627  -0.260505 -0.76815 0.14999  -0.231311 -0.795394 0.157626  -0.242706 -0.794797 0.157211  -0.20443 -0.776871 0.153923  -0.214725 -0.799166 0.159167  -0.215737 -0.776301 0.153504  -0.254882 -0.768406 0.150153  -0.226714 -0.772785 0.152153  -0.237041 -0.795084 0.157406  -0.238066 -0.772236 0.151767  -0.21014 -0.776576 0.153718  -0.23243 -0.772515 0.151948  -0.258403 -0.813933 0.161277  -0.26883 -0.83619 0.166755  -0.269804 -0.813177 0.160933  -0.240553 -0.840715 0.168692  -0.2519 -0.839941 0.168236  -0.213591 -0.822179 0.164902  -0.223827 -0.844416 0.17008  -0.224926 -0.82146 0.164392  -0.264128 -0.813508 0.161107  -0.235943 -0.818091 0.163089  -0.246281 -0.840304 0.168467  -0.247303 -0.817346 0.162685  -0.219283 -0.82177 0.164603  -0.241639 -0.817663 0.16288  -0.267592 -0.859032 0.172442  -0.277967 -0.881304 0.177811  -0.279029 -0.858432 0.172047  -0.249547 -0.886004 0.179777  -0.261067 -0.885147 0.179246  -0.222652 -0.867527 0.175875  -0.232941 -0.88976 0.181203  -0.234076 -0.866728 0.175388  -0.273414 -0.858683 0.172257  -0.245057 -0.863315 0.174129  -0.255425 -0.885554 0.179472  -0.256477 -0.862569 0.173677  -0.228375 -0.867076 0.175649  -0.250867 -0.862886 0.173892  -0.276898 -0.904665 0.183909  -0.286754 -0.926453 0.188897  -0.288266 -0.903503 0.18305  -0.258684 -0.931251 0.19059  -0.270238 -0.930541 0.190197  -0.231745 -0.912685 0.186918  -0.242054 -0.934988 0.192214  -0.243108 -0.911973 0.186454  -0.282492 -0.904127 0.183396  -0.254089 -0.908658 0.185433  -0.264394 -0.930783 0.190413  -0.265672 -0.907767 0.184782  -0.237511 -0.912419 0.18664  -0.259972 -0.908276 0.185053  -0.285856 -0.949912 0.194845  -0.29605 -0.971617 0.200142  -0.29693 -0.948793 0.194304  -0.268278 -0.976385 0.201354  -0.27895 -0.975813 0.20138  -0.24077 -0.958224 0.198022  -0.250886 -0.980134 0.203267  -0.252415 -0.957212 0.197568  -0.291433 -0.949291 0.194458  -0.263508 -0.953967 0.196415  -0.273417 -0.975699 0.201589  -0.274639 -0.95311 0.196027  -0.246594 -0.957642 0.197862  -0.268932 -0.953423 0.196306  -0.294804 -0.995487 0.204931  -0.305155 -1.01731 0.212392  -0.306432 -0.993949 0.205724  -0.27688 -1.02183 0.213889  -0.288545 -1.02049 0.212749  -0.250123 -1.00357 0.209813  -0.259971 -1.02537 0.21434  -0.261108 -1.00235 0.208582  -0.300557 -0.994054 0.205644  -0.27312 -0.999565 0.207319  -0.282636 -1.02147 0.212998  -0.283468 -0.998139 0.20704  -0.255364 -1.00283 0.208927  -0.278114 -0.998671 0.207021  -0.303847 -1.03867 0.217699  -0.314494 -1.06395 0.220435  -0.31523 -1.03892 0.216952  -0.284204 -1.06721 0.22602  -0.29778 -1.06671 0.224025  -0.258032 -1.04936 0.219675  -0.269878 -1.07102 0.227223  -0.270046 -1.04759 0.219591  -0.309362 -1.04018 0.217521  -0.280121 -1.04451 0.218426  -0.292436 -1.0673 0.22491  -0.293187 -1.0428 0.217884  -0.264673 -1.04816 0.219468  -0.287257 -1.04405 0.218138  -0.31183 -1.08547 0.228804  -0.323992 -1.10785 0.230595  -0.323931 -1.08349 0.226617  -0.295838 -1.11163 0.235114  -0.305284 -1.11245 0.235023  -0.268194 -1.09156 0.228268  -0.279291 -1.11719 0.237941  -0.279301 -1.09213 0.230667  -0.319115 -1.08407 0.227464  -0.289512 -1.08925 0.231125  -0.301008 -1.11314 0.235164  -0.301106 -1.08788 0.230205  -0.273986 -1.09266 0.229487  -0.296022 -1.08787 0.230982  0 0 0  -0.00507235 0.00174341 -0.010098  -0.00331124 -0.00207679 -0.00667  0 0 0  -0.00129565 0.0023388 -0.00462818  -0.00248356 0.000508547 -0.00615644  -0.000676122 0.000229359 -0.0029366  0 0 0  -0.00194113 0.00176209 -0.00613904  -0.00383708 -0.000461996 -0.00822473  -0.00101481 -0.000458106 -0.00380039  0 0 0  -0.000767995 0.000932544 -0.00358462  -0.00115304 0.000345051 -0.00468588  -0.0102681 -0.00380524 -0.012018  -0.00981331 -0.00939955 -0.00955844  -0.00504176 0.000597328 -0.00828218  -0.00647974 -0.00582534 -0.00803161  -0.00418478 -0.00401725 -0.006356  -0.00792444 -0.000331536 -0.0113115  -0.00992838 -0.00687487 -0.0110455  -0.00639273 -0.00524506 -0.0085125  -0.00448494 -0.00199619 -0.00742769  -0.00694099 -0.00307007 -0.0100198  -0.0148001 -0.0141599 -0.011586  -0.016622 -0.0205379 -0.00918317  -0.00796866 -0.00766489 -0.00845861  -0.0105377 -0.016867 -0.00719142  -0.00900397 -0.0133825 -0.00684452  -0.0124806 -0.00838435 -0.0121143  -0.0157511 -0.0176172 -0.010545  -0.0132698 -0.0144823 -0.00963497  -0.00849292 -0.0108096 -0.00783896  -0.0128496 -0.0117127 -0.0110738  -0.0197482 -0.0290115 -0.00929832  -0.0232327 -0.0354159 -0.00699067  -0.0111688 -0.0206273 -0.00682092  -0.0147393 -0.0320008 -0.00484681  -0.0138883 -0.0267388 -0.005265  -0.0172172 -0.0210594 -0.0106409  -0.021604 -0.0324516 -0.00827599  -0.019924 -0.0275106 -0.0082655  -0.0126138 -0.0239456 -0.00618076  -0.0186564 -0.0245434 -0.00959849  -0.0251841 -0.0476999 -0.00580454  -0.0299276 -0.0538176 -0.00360751  -0.0148045 -0.0377214 -0.00390625  -0.0192292 -0.0507807 -0.00144148  -0.0188389 -0.0437404 -0.00240588  -0.0224007 -0.0379111 -0.00769138  -0.0276954 -0.0509659 -0.00480866  -0.0265619 -0.044199 -0.00542402  -0.0169367 -0.0409629 -0.00326562  -0.0246115 -0.04128 -0.00667286  -0.031103 -0.0696991 -0.00141335  -0.0367947 -0.0753582 0.000629902  -0.0189611 -0.058365 -5.126e-05  -0.0241131 -0.072797 0.00276661  -0.0240283 -0.0640506 0.00136399  -0.0280865 -0.0583135 -0.00371218  -0.0340919 -0.0727065 -0.000476122  -0.0333351 -0.0642108 -0.00158405  -0.0216206 -0.0614083 0.00056982  -0.0308551 -0.0614571 -0.00274038  -0.037441 -0.0945531 0.00365376  -0.0438774 -0.099726 0.00552106  -0.0236499 -0.0820899 0.00453711  -0.0294045 -0.0976597 0.00762415  -0.0295193 -0.0873428 0.00583982  -0.0342223 -0.0817881 0.00103688  -0.0407946 -0.0972923 0.00451732  -0.0403063 -0.0872035 0.00299788  -0.0267062 -0.084891 0.00511432  -0.0374042 -0.0846634 0.00194097  -0.0441357 -0.121971 0.00930572  -0.0511767 -0.126631 0.0109732  -0.0288143 -0.10854 0.00974822  -0.0350951 -0.125103 0.0130451  -0.0353581 -0.113311 0.0109105  -0.0407471 -0.107959 0.00640821  -0.0477823 -0.124436 0.010077  -0.0474995 -0.112868 0.00818038  -0.0322029 -0.111076 0.0102684  -0.0442557 -0.11056 0.00722957  -0.0511346 -0.151667 0.0154414  -0.0586948 -0.155851 0.0169158  -0.0344245 -0.137414 0.0154903  -0.0411537 -0.15484 0.0189719  -0.0415193 -0.141715 0.0165067  -0.0475988 -0.136548 0.0123096  -0.0550302 -0.153874 0.016125  -0.0549054 -0.140959 0.0138853  -0.0380776 -0.139696 0.0159426  -0.0513723 -0.138879 0.0130408  -0.0584103 -0.183463 0.0220516  -0.066419 -0.187171 0.02332  -0.0404248 -0.168489 0.0217285  -0.0475675 -0.186698 0.025362  -0.0480164 -0.17232 0.022588  -0.05474 -0.16732 0.0186844  -0.0625238 -0.185423 0.022635  -0.0625316 -0.171252 0.0200603  -0.0443193 -0.170519 0.0221112  -0.0587493 -0.169396 0.0193224  -0.0659297 -0.217134 0.0290742  -0.0743464 -0.220407 0.0301561  -0.0467917 -0.201542 0.0284085  -0.0543013 -0.220431 0.0321953  -0.0548131 -0.204935 0.0291204  -0.0621419 -0.200077 0.0255065  -0.0702369 -0.218856 0.0295722  -0.0703536 -0.203554 0.0266862  -0.0508943 -0.203339 0.0287182  -0.0663507 -0.201913 0.0260506  -0.0736828 -0.252537 0.0365191  -0.082466 -0.255388 0.037411  -0.0534927 -0.2364 0.0355246  -0.0613499 -0.255913 0.0394452  -0.0619158 -0.239365 0.0360906  -0.0697786 -0.234638 0.0327382  -0.0781697 -0.254046 0.036922  -0.0783834 -0.237684 0.0337317  -0.057789 -0.23797 0.0357685  -0.0741789 -0.236244 0.0331936  -0.0816448 -0.289484 0.044342  -0.0907633 -0.291936 0.0450633  -0.0605096 -0.272876 0.0430422  -0.0686766 -0.29292 0.0471005  -0.0692887 -0.275443 0.043469  -0.0776422 -0.270835 0.040379  -0.0862893 -0.290771 0.0446675  -0.0865879 -0.273469 0.0411901  -0.0649796 -0.274234 0.0432165  -0.0822046 -0.272224 0.040746  -0.0898069 -0.32783 0.0525453  -0.0992306 -0.329916 0.0531003  -0.0678151 -0.310816 0.0509546  -0.0762746 -0.331346 0.055135  -0.076928 -0.313002 0.0512505  -0.0857018 -0.308503 0.048388  -0.0946022 -0.328937 0.0527864  -0.0949782 -0.310753 0.0490346  -0.0724437 -0.311974 0.0510697  -0.0904248 -0.309688 0.0486767  -0.0981396 -0.367422 0.0610907  -0.107843 -0.36914 0.0614932  -0.0753862 -0.350056 0.0592251  -0.0841069 -0.370983 0.063529  -0.0848018 -0.351884 0.059401  -0.093959 -0.347489 0.0567691  -0.103065 -0.36832 0.0612633  -0.103514 -0.349373 0.0572538  -0.0801651 -0.351022 0.0592804  -0.098814 -0.348482 0.0569782  -0.10663 -0.408108 0.069972  -0.116596 -0.409512 0.0702312  -0.0832028 -0.390449 0.0678515  -0.0921636 -0.411737 0.0722668  -0.0928931 -0.391941 0.0679142  -0.102366 -0.38765 0.0654783  -0.111687 -0.408855 0.0700705  -0.112206 -0.389191 0.065819  -0.0881091 -0.391241 0.0678556  -0.10736 -0.38846 0.0656183  -0.11526 -0.449767 0.0791597  -0.125451 -0.450833 0.0792906  -0.0912296 -0.431851 0.0767949  -0.100406 -0.453422 0.0813208  -0.101179 -0.433024 0.0767539  -0.110936 -0.428835 0.0745234  -0.120419 -0.450321 0.0792034  -0.121006 -0.430053 0.0747242  -0.0962666 -0.432472 0.0767467  -0.116039 -0.429478 0.0745952  -0.124005 -0.492239 0.0886405  -0.134408 -0.493048 0.0886505  -0.0994527 -0.474131 0.0860503  -0.108821 -0.49595 0.0906811  -0.109627 -0.475012 0.0859172  -0.119618 -0.470921 0.0838554  -0.12927 -0.492674 0.0886204  -0.129921 -0.47184 0.0839345  -0.104593 -0.474602 0.0859611  -0.124833 -0.471405 0.0838702  -0.132841 -0.535444 0.0983853  -0.143424 -0.535946 0.0982873  -0.107837 -0.517158 0.0955839  -0.11737 -0.539157 0.100304  -0.118225 -0.51776 0.0953627  -0.128421 -0.51377 0.0934737  -0.138187 -0.5357 0.0983188  -0.138904 -0.51441 0.0934362  -0.113086 -0.517478 0.0954509  -0.133721 -0.514109 0.0934303  -0.141746 -0.579216 0.108369  -0.152511 -0.579512 0.108175  -0.116365 -0.560816 0.10538  -0.12604 -0.582968 0.110192  -0.126929 -0.561171 0.105085  -0.137285 -0.557281 0.103337  -0.147185 -0.579379 0.108251  -0.147964 -0.557659 0.1032  -0.121691 -0.561009 0.105213  -0.142679 -0.557477 0.103246  -0.150718 -0.623499 0.118575  -0.161612 -0.62353 0.118302  -0.124998 -0.604989 0.115407  -0.134803 -0.627243 0.120296  -0.135744 -0.605111 0.115046  -0.146234 -0.601313 0.113439  -0.156212 -0.623509 0.118427  -0.157056 -0.601463 0.113212  -0.130418 -0.605059 0.115208  -0.151696 -0.601394 0.113305  -0.159721 -0.668142 0.128979  -0.170753 -0.66801 0.12863  -0.133734 -0.649577 0.12565  -0.143642 -0.671903 0.13062  -0.144612 -0.649498 0.125238  -0.155215 -0.645789 0.123746  -0.165287 -0.668081 0.128787  -0.166183 -0.645725 0.123442  -0.139213 -0.649543 0.125427  -0.160746 -0.645758 0.123577  -0.168748 -0.713109 0.13957  -0.17988 -0.712751 0.139152  -0.142533 -0.694489 0.136083  -0.152537 -0.716856 0.141111  -0.153559 -0.694221 0.135618  -0.164236 -0.690599 0.134237  -0.174351 -0.712921 0.139356  -0.175318 -0.690351 0.133864  -0.148093 -0.694358 0.135837  -0.169825 -0.690476 0.134031  -0.177802 -0.75825 0.150276  -0.189 -0.757783 0.149823  -0.1514 -0.739623 0.146677  -0.161447 -0.762003 0.151774  -0.162516 -0.739207 0.146178  -0.17327 -0.735668 0.14488  -0.183433 -0.758017 0.150044  -0.184445 -0.735247 0.144458  -0.15699 -0.739423 0.146412  -0.178886 -0.735456 0.144657  -0.186805 -0.803591 0.16114  -0.19812 -0.802939 0.160623  -0.16032 -0.784951 0.157412  -0.170394 -0.807254 0.162556  -0.171505 -0.784344 0.15689  -0.182325 -0.780918 0.155682  -0.19251 -0.803211 0.160868  -0.193554 -0.780336 0.155208  -0.165923 -0.784629 0.157147  -0.187975 -0.780607 0.155429  -0.195841 -0.848884 0.172027  -0.207217 -0.848204 0.171529  -0.169197 -0.830318 0.168276  -0.179368 -0.852625 0.173474  -0.180528 -0.829616 0.167739  -0.191302 -0.826245 0.166559  -0.201572 -0.848511 0.171781  -0.202667 -0.825542 0.166064  -0.174881 -0.829945 0.167984  -0.197043 -0.825854 0.166297  -0.20494 -0.89428 0.182992  -0.216251 -0.893445 0.182526  -0.178149 -0.875695 0.179297  -0.188321 -0.898095 0.184412  -0.189507 -0.874947 0.178689  -0.200407 -0.871605 0.177575  -0.210624 -0.893911 0.182762  -0.211758 -0.870868 0.177046  -0.183855 -0.875322 0.179004  -0.2061 -0.871199 0.177305  -0.213782 -0.939746 0.194346  -0.225257 -0.93869 0.193636  -0.187068 -0.921094 0.190274  -0.197109 -0.943292 0.195516  -0.198524 -0.920273 0.189629  -0.209394 -0.916909 0.18859  -0.219654 -0.939095 0.193926  -0.220767 -0.91613 0.188076  -0.192723 -0.920733 0.189966  -0.215154 -0.916543 0.188303  -0.222729 -0.985081 0.205169  -0.234345 -0.984228 0.2048  -0.196407 -0.966387 0.201192  -0.206263 -0.988625 0.206506  -0.207413 -0.965513 0.200712  -0.218132 -0.962522 0.199893  -0.228661 -0.984489 0.205137  -0.229807 -0.961403 0.199187  -0.201697 -0.965982 0.200928  -0.224169 -0.961858 0.199534  -0.232814 -1.02932 0.215484  -0.243142 -1.0292 0.215845  -0.204096 -1.01147 0.212345  -0.215276 -1.03399 0.218137  -0.216788 -1.01067 0.212045  -0.22761 -1.00695 0.210483  -0.237745 -1.02928 0.215842  -0.238632 -1.00655 0.210232  -0.210708 -1.01111 0.212059  -0.233078 -1.00677 0.210436  -0.241102 -1.07509 0.230036  -0.251608 -1.0735 0.227111  -0.214161 -1.05663 0.22467  -0.22311 -1.07904 0.228502  -0.225456 -1.05636 0.223021  -0.237609 -1.05275 0.221791  -0.246721 -1.07502 0.228174  -0.247802 -1.05218 0.221067  -0.219374 -1.05672 0.223833  -0.242502 -1.05227 0.221151  -0.247148 -1.12147 0.239031  -0.26097 -1.11925 0.238093  -0.222033 -1.10198 0.236375  -0.232578 -1.12551 0.240453  -0.234452 -1.10175 0.234557  -0.2433 -1.09711 0.231375  -0.256005 -1.12097 0.238531  -0.256506 -1.09773 0.231393  -0.228062 -1.10232 0.236472  -0.25075 -1.09805 0.230791  0 0 0  -0.00168445 0.00296962 -0.00460577  -0.00114865 -0.000440001 -0.003371  0 0 0  -0.000152614 0.00263044 -0.00127912  -0.000197761 0.00108898 -0.00185442  -8.53278e-05 0.000709653 -0.00107121  0 0 0  -0.000692606 0.00259316 -0.00290203  -0.00128447 0.000972301 -0.00397372  -0.000352219 0.000585824 -0.00198698  0 0 0  -6.90147e-05 0.00129375 -0.00115156  -0.00039278 0.00121924 -0.00234056  -0.00316274 -0.00248912 -0.00518203  -0.00367865 -0.00745222 -0.00439358  -0.000171095 0.00110486 -0.00205922  -0.00053677 -0.00518852 -0.00198603  -0.000572354 -0.00310838 -0.00197649  -0.00250633 0.00105479 -0.00510144  -0.00340128 -0.00527501 -0.00496745  -0.00230245 -0.00333858 -0.00413728  -0.000354603 -0.0013147 -0.00211  -0.00233348 -0.00144336 -0.00472522  -0.00458333 -0.0133951 -0.00411654  -0.0066615 -0.0191068 -0.00335908  7.42078e-05 -0.00743788 -0.0013504  -0.00107163 -0.0166423 -0.000645399  -0.00153396 -0.0126533 -0.00134873  -0.00382069 -0.00733647 -0.00484776  -0.00567868 -0.0165356 -0.00387263  -0.00515497 -0.0127769 -0.00405908  -0.0007689 -0.0103582 -0.00147367  -0.00451219 -0.0103576 -0.00460863  -0.00642946 -0.0287546 -0.00175738  -0.00980484 -0.0346158 -0.00100684  1.29938e-05 -0.0208963 0.000530481  -0.00194156 -0.0322786 0.00176573  -0.00277954 -0.0264962 0.000546217  -0.00544778 -0.020565 -0.003088  -0.00821134 -0.0319428 -0.00149226  -0.00820589 -0.0263996 -0.00231671  -0.00145668 -0.0239766 0.000433207  -0.00690612 -0.0237541 -0.00282383  -0.00879073 -0.0479138 0.00156927  -0.0132263 -0.0535742 0.00229311  -0.000528872 -0.0384389 0.00335908  -0.00326508 -0.0515181 0.00501895  -0.00437146 -0.0440119 0.00339103  -0.00754052 -0.0378932 -0.000215054  -0.0111141 -0.0509628 0.00184155  -0.0114717 -0.0436785 0.000536919  -0.00253886 -0.0414716 0.00328636  -0.00960833 -0.0410264 6.1512e-05  -0.0117359 -0.0703608 0.00565982  -0.0170356 -0.0756857 0.0063417  -0.00167674 -0.059501 0.0069716  -0.00514472 -0.0739802 0.00899863  -0.006396 -0.0648146 0.00700808  -0.010186 -0.0587586 0.00351787  -0.0144937 -0.0732197 0.00592875  -0.0150766 -0.0642513 0.00423098  -0.00412953 -0.0623676 0.00691605  -0.0127389 -0.0617107 0.00379324  -0.0152698 -0.0957289 0.0104201  -0.0212795 -0.1006 0.0110145  -0.00348115 -0.0836448 0.011277  -0.00762135 -0.0993079 0.0135841  -0.00895357 -0.0885893 0.0112805  -0.0134352 -0.0827047 0.00795984  -0.0183755 -0.0983275 0.0106535  -0.019101 -0.0878032 0.00860214  -0.00630784 -0.0863012 0.011215  -0.0163725 -0.0854347 0.00821161  -0.0193532 -0.123659 0.0157406  -0.0259753 -0.128103 0.016248  -0.00594097 -0.110549 0.0161724  -0.0106992 -0.127239 0.01876  -0.0120534 -0.11507 0.0161345  -0.0172423 -0.1094 0.0130084  -0.0227622 -0.126032 0.0159428  -0.0235695 -0.114042 0.0135643  -0.00908446 -0.112966 0.0160949  -0.0205054 -0.111875 0.0132258  -0.0239624 -0.153936 0.0215993  -0.0311062 -0.157896 0.0219905  -0.00903893 -0.139905 0.0216341  -0.0143552 -0.157488 0.0244291  -0.0157168 -0.143986 0.0215316  -0.0215999 -0.138528 0.0186033  -0.0276223 -0.156038 0.0217459  -0.0284868 -0.14272 0.0190551  -0.012457 -0.142084 0.0215325  -0.0251359 -0.14076 0.0187757  -0.0290476 -0.186278 0.0279143  -0.0366652 -0.189828 0.0282085  -0.0127258 -0.171483 0.0275836  -0.0185683 -0.189864 0.0306127  -0.0199071 -0.175135 0.0274208  -0.0264459 -0.169872 0.024693  -0.032941 -0.18817 0.0280235  -0.0338315 -0.173608 0.0250416  -0.0163927 -0.173428 0.0274508  -0.0302244 -0.171858 0.0248189  -0.0345867 -0.220544 0.0347025  -0.042624 -0.223633 0.0348821  -0.0169905 -0.205045 0.0340276  -0.0233034 -0.224123 0.0372241  -0.0246227 -0.208276 0.0337949  -0.0317677 -0.203192 0.031251  -0.0386814 -0.22218 0.0347517  -0.0395966 -0.206503 0.0314887  -0.020874 -0.206767 0.0338681  -0.0357616 -0.204951 0.0313246  -0.0405364 -0.256475 0.0418975  -0.0489688 -0.259195 0.0419827  -0.021763 -0.240409 0.0409002  -0.0285348 -0.260112 0.0443091  -0.0298209 -0.243246 0.0406024  -0.0375112 -0.238319 0.0382421  -0.044827 -0.257924 0.0419111  -0.0457487 -0.241211 0.0383804  -0.0258584 -0.24192 0.0407033  -0.0417047 -0.239856 0.0382688  -0.0468864 -0.293979 0.0495169  -0.0556676 -0.296278 0.0494983  -0.027055 -0.277377 0.0482166  -0.0342247 -0.297616 0.0517659  -0.03548 -0.279827 0.0478556  -0.0436674 -0.275051 0.0456548  -0.0513432 -0.295196 0.0494733  -0.0522773 -0.277556 0.0456882  -0.0313264 -0.278683 0.047997  -0.0480422 -0.276381 0.0456319  -0.0535891 -0.332809 0.0575056  -0.0627013 -0.334775 0.0574012  -0.0327771 -0.315789 0.0559165  -0.04035 -0.336506 0.0596588  -0.0415758 -0.317886 0.0554945  -0.0501958 -0.313241 0.0534585  -0.0582101 -0.333856 0.0574322  -0.0591453 -0.315371 0.0534027  -0.0372353 -0.316909 0.0556591  -0.0547358 -0.314375 0.0533926  -0.0606346 -0.372891 0.0658655  -0.0700415 -0.374484 0.0656796  -0.0389645 -0.355472 0.064013  -0.0468688 -0.376587 0.0678821  -0.0480623 -0.357222 0.0635402  -0.0570726 -0.352714 0.0616395  -0.0653956 -0.373733 0.065743  -0.0663388 -0.354493 0.0614944  -0.043566 -0.356407 0.0637386  -0.0617671 -0.353659 0.0615315  -0.0679727 -0.413999 0.0745649  -0.077656 -0.415287 0.0742974  -0.0455009 -0.396279 0.0724549  -0.0537527 -0.417742 0.0764916  -0.0549321 -0.397714 0.0719287  -0.064271 -0.393322 0.0701706  -0.0728689 -0.414685 0.0744157  -0.0738194 -0.394772 0.0699477  -0.0502687 -0.397053 0.0721462  -0.0691009 -0.394098 0.0700247  -0.0755885 -0.456065 0.0835869  -0.0855234 -0.457032 0.0832577  -0.0524404 -0.43806 0.0812435  -0.0609605 -0.459803 0.0854011  -0.0621111 -0.439192 0.080678  -0.0717441 -0.434926 0.0790348  -0.0806057 -0.456579 0.0833964  -0.0815657 -0.436063 0.078737  -0.057323 -0.43867 0.0809231  -0.0767087 -0.435533 0.0788529  -0.0834391 -0.498897 0.0929112  -0.0936005 -0.499586 0.0925088  -0.0596526 -0.480685 0.0903411  -0.0684664 -0.502661 0.09464  -0.0696194 -0.48154 0.089731  -0.079489 -0.477382 0.0882082  -0.088567 -0.499264 0.0926983  -0.0895431 -0.478235 0.087846  -0.0646806 -0.481155 0.0899913  -0.0845647 -0.477846 0.0879951  -0.0915051 -0.542417 0.102499  -0.101874 -0.542844 0.102058  -0.067205 -0.524019 0.0997329  -0.0762239 -0.546175 0.104141  -0.0773537 -0.524614 0.0990951  -0.0874374 -0.520578 0.0976696  -0.0967331 -0.542646 0.102256  -0.0977216 -0.521154 0.0972481  -0.0723226 -0.524348 0.0993764  -0.0926292 -0.520889 0.097429  -0.0997508 -0.586477 0.112357  -0.110296 -0.586658 0.111851  -0.0749478 -0.567952 0.109393  -0.0842085 -0.590243 0.113921  -0.0853574 -0.568305 0.108721  -0.0956116 -0.56437 0.107394  -0.105061 -0.586574 0.112095  -0.106076 -0.564709 0.106922  -0.0801916 -0.568161 0.109014  -0.100884 -0.564565 0.10713  -0.108144 -0.630995 0.122431  -0.118866 -0.630969 0.121903  -0.0829725 -0.612361 0.119296  -0.0923839 -0.634751 0.123926  -0.0935156 -0.612505 0.118611  -0.103916 -0.608678 0.11736  -0.113542 -0.630988 0.122146  -0.114574 -0.608785 0.116845  -0.0882823 -0.612456 0.118916  -0.109288 -0.608745 0.117075  -0.116671 -0.675855 0.132719  -0.127524 -0.675616 0.132144  -0.0911193 -0.657157 0.129426  -0.100725 -0.679603 0.134154  -0.101892 -0.657096 0.128719  -0.112394 -0.653364 0.127541  -0.122127 -0.675731 0.132427  -0.123196 -0.653279 0.126993  -0.0965383 -0.657155 0.129032  -0.117828 -0.653339 0.127241  -0.125297 -0.720979 0.143157  -0.136289 -0.720582 0.142589  -0.0994916 -0.702244 0.139751  -0.109204 -0.724705 0.144564  -0.110344 -0.702005 0.139046  -0.120957 -0.698375 0.137923  -0.130833 -0.720782 0.142851  -0.131904 -0.698097 0.137348  -0.104958 -0.702135 0.139366  -0.126469 -0.698245 0.137614  -0.133984 -0.766285 0.153823  -0.145109 -0.765713 0.153189  -0.10793 -0.747541 0.150264  -0.117792 -0.769982 0.155135  -0.118972 -0.747123 0.149547  -0.129638 -0.743583 0.148476  -0.139594 -0.765971 0.153493  -0.140708 -0.743159 0.147875  -0.113492 -0.74734 0.149875  -0.13522 -0.743376 0.148151  -0.142774 -0.811671 0.164588  -0.153971 -0.811003 0.163984  -0.116538 -0.792937 0.160892  -0.126447 -0.815404 0.165853  -0.127649 -0.792417 0.160182  -0.138342 -0.78898 0.159174  -0.148379 -0.811321 0.164281  -0.149538 -0.788365 0.158552  -0.122124 -0.792691 0.1605  -0.14399 -0.788656 0.158838  -0.151744 -0.857119 0.17541  -0.162814 -0.85633 0.174834  -0.125125 -0.838386 0.171708  -0.135156 -0.86085 0.176748  -0.13642 -0.837773 0.170947  -0.147237 -0.834338 0.169936  -0.157208 -0.856743 0.175149  -0.15841 -0.833704 0.169345  -0.13079 -0.838134 0.171276  -0.152788 -0.834054 0.169645  -0.160458 -0.902508 0.186324  -0.171805 -0.901735 0.185699  -0.133901 -0.883927 0.182472  -0.143976 -0.906122 0.187761  -0.145145 -0.883138 0.181895  -0.15612 -0.87976 0.180877  -0.166176 -0.902119 0.185953  -0.167286 -0.879022 0.180313  -0.139524 -0.883503 0.182185  -0.161654 -0.879414 0.180581  -0.168967 -0.947931 0.197544  -0.180738 -0.947032 0.196779  -0.142871 -0.929513 0.193541  -0.152815 -0.951419 0.198653  -0.154119 -0.928434 0.192943  -0.164769 -0.925346 0.191966  -0.175123 -0.947292 0.197048  -0.176297 -0.924381 0.191309  -0.148458 -0.928814 0.193248  -0.170702 -0.924734 0.19161  -0.177967 -0.99318 0.208587  -0.189643 -0.992062 0.208107  -0.151533 -0.974687 0.204767  -0.161804 -0.997329 0.20957  -0.163043 -0.973815 0.204079  -0.173391 -0.970695 0.203046  -0.183975 -0.992881 0.208296  -0.18518 -0.969647 0.202373  -0.157335 -0.974264 0.204468  -0.179587 -0.970071 0.202655  -0.187989 -1.03824 0.219284  -0.198042 -1.03734 0.219243  -0.159829 -1.01953 0.216368  -0.170637 -1.04281 0.220911  -0.171628 -1.01933 0.215069  -0.182662 -1.01531 0.213831  -0.19276 -1.03876 0.219601  -0.194147 -1.01513 0.213319  -0.166093 -1.01981 0.215549  -0.188247 -1.01566 0.213747  -0.195983 -1.0835 0.228987  -0.208115 -1.0833 0.229375  -0.16793 -1.06501 0.225916  -0.17915 -1.08569 0.233585  -0.180523 -1.06436 0.22609  -0.19259 -1.06005 0.225039  -0.202156 -1.08165 0.228781  -0.202868 -1.06028 0.225237  -0.174704 -1.06452 0.226023  -0.197204 -1.06045 0.225006  -0.202842 -1.12938 0.237782  -0.218609 -1.12636 0.2394  -0.179375 -1.1102 0.236577  -0.189188 -1.13516 0.245384  -0.189739 -1.10808 0.236906  -0.199502 -1.10741 0.238042  -0.213229 -1.12949 0.238424  -0.212997 -1.10382 0.237229  -0.183773 -1.10957 0.23628  -0.208128 -1.10458 0.237346  0 0 0  0.001128 0.002765 0.000818968  0.000573918 -0.000358552 -6.41346e-05  0 0 0  0.000836506 0.0022006 0.00204897  0.00181383 0.000464976 0.00237775  0.000418752 0.000445962 0.000813961  0 0 0  0.000354864 0.00249034 0.000410557  0.000826642 0.00090611 0.000288725  0.000174783 0.000654787 -0.000117779  0 0 0  0.000538878 0.000951588 0.00129962  0.000243068 0.00119492 8.9407e-05  0.00291443 -0.0029248 0.0014894  0.00150481 -0.00747859 0.000671148  0.0041471 8.69632e-05 0.00398445  0.00480574 -0.00627151 0.00388145  0.00261857 -0.00379893 0.00230527  0.00202772 0.000772357 0.0010066  0.00217184 -0.00552902 0.000992298  0.00104737 -0.00327417 0.000189543  0.00331613 -0.00217551 0.00307894  0.00151004 -0.00157139 0.000516176  0.00457826 -0.0142413 0.00303173  0.00222272 -0.0195026 0.00225472  0.00737298 -0.00891528 0.00548482  0.00767088 -0.0181473 0.00563025  0.0052616 -0.0137463 0.00395513  0.00377885 -0.00796545 0.00212669  0.00334588 -0.0171808 0.00255084  0.00190318 -0.0129828 0.00134683  0.00626835 -0.0116574 0.00466347  0.0027926 -0.0107965 0.00164723  0.00586861 -0.0300401 0.00540662  0.00255996 -0.0354499 0.00467992  0.0104623 -0.0227873 0.0075295  0.0101267 -0.0341524 0.00803709  0.00757411 -0.0279911 0.00608134  0.00528386 -0.0216327 0.00408745  0.00414336 -0.0330126 0.00495958  0.00244555 -0.0270275 0.00335956  0.00896862 -0.0256765 0.00673747  0.0038043 -0.0246178 0.00363564  0.00656116 -0.0495733 0.00853944  0.0023883 -0.0548484 0.00787449  0.0130247 -0.040667 0.0102439  0.0119569 -0.0537441 0.0111277  0.00935274 -0.0458708 0.00886917  0.00630653 -0.0393632 0.00686622  0.00439936 -0.0524465 0.00813627  0.00254613 -0.0447435 0.00618172  0.0111285 -0.0435228 0.00949001  0.00434822 -0.0423043 0.00644612  0.00655597 -0.0723997 0.0123916  0.00162584 -0.07736 0.0117271  0.0148737 -0.0620386 0.0136402  0.0130543 -0.0765169 0.014874  0.0104486 -0.0670352 0.0123222  0.006643 -0.0605924 0.0103617  0.00401241 -0.0750781 0.0119939  0.00208169 -0.0657425 0.00971079  0.0126031 -0.0647517 0.0129187  0.00429082 -0.0633826 0.00996661  0.00581324 -0.0981303 0.0168309  0.000206888 -0.10272 0.0162036  0.015924 -0.0864923 0.0176661  0.0133694 -0.102215 0.0192301  0.0108284 -0.0911593 0.0163941  0.0062905 -0.0849092 0.0145352  0.00293469 -0.100604 0.0164628  0.00100279 -0.0897078 0.0138874  0.0133094 -0.0890147 0.0169721  0.00356334 -0.0874948 0.0141494  0.00432897 -0.1265 0.0219042  -0.00185978 -0.130652 0.0212274  0.0161543 -0.113728 0.0222971  0.0129011 -0.130493 0.0241497  0.0104294 -0.118034 0.0210545  0.00515306 -0.111987 0.0192816  0.00116313 -0.128725 0.0215108  -0.000754356 -0.116398 0.0186346  0.0132362 -0.116046 0.0216203  0.00213432 -0.114356 0.0189006  0.0021503 -0.157186 0.0274279  -0.00458813 -0.160934 0.0267885  0.0155714 -0.143462 0.0274639  0.0116539 -0.161177 0.0296102  0.00929761 -0.147345 0.0262532  0.0033437 -0.141551 0.0246067  -0.0012877 -0.159199 0.0270627  -0.00313663 -0.145527 0.0239398  0.0123699 -0.145546 0.0268075  2.52724e-05 -0.143678 0.0242202  -0.000728488 -0.19002 0.0335519  -0.00792861 -0.193326 0.0328307  0.0142063 -0.175417 0.0331707  0.00966752 -0.193931 0.035562  0.00740623 -0.178931 0.0319767  0.000785828 -0.173321 0.0304184  -0.00439107 -0.191783 0.0331419  -0.00619805 -0.176903 0.029736  0.0107574 -0.177305 0.0325236  -0.00276196 -0.17524 0.0300276  -0.00421798 -0.224706 0.0400183  -0.0118837 -0.227634 0.0393507  0.0120841 -0.209404 0.0393479  0.00695634 -0.22866 0.0420074  0.00482523 -0.212491 0.038183  -0.00237417 -0.207116 0.0367413  -0.00811315 -0.226279 0.0396438  -0.00982285 -0.21027 0.036031  0.00839388 -0.211058 0.0387197  -0.00617051 -0.208798 0.0363395  -0.0083499 -0.261144 0.0470781  -0.0163925 -0.263656 0.0463104  0.00925756 -0.245155 0.0460136  0.00358462 -0.265023 0.0488853  0.00155044 -0.247906 0.0448596  -0.00621426 -0.242674 0.0434926  -0.0124228 -0.262478 0.046648  -0.0140926 -0.245469 0.0427642  0.00536072 -0.246641 0.0453911  -0.0102005 -0.244174 0.0430849  -0.0129935 -0.299035 0.0543876  -0.0214463 -0.301213 0.0536926  0.0057503 -0.282558 0.0530932  -0.00044167 -0.30299 0.0562184  -0.00235379 -0.284898 0.0519745  -0.0105797 -0.279877 0.050703  -0.017277 -0.300209 0.0540004  -0.0188414 -0.282273 0.0499511  0.00164115 -0.283814 0.0524945  -0.0147758 -0.281155 0.0502849  -0.0182235 -0.338345 0.0622826  -0.0269918 -0.340144 0.0614829  0.00162315 -0.321327 0.0606165  -0.0050422 -0.34222 0.0639243  -0.00685894 -0.323376 0.0595095  -0.0155407 -0.318466 0.0583  -0.0226517 -0.339296 0.0618382  -0.0241871 -0.320544 0.0575306  -0.00265849 -0.322447 0.0600235  -0.0199069 -0.319588 0.0578761  -0.0238791 -0.37876 0.0703542  -0.0330043 -0.380266 0.0696385  -0.00310481 -0.36142 0.0685027  -0.0102191 -0.382727 0.072051  -0.0119339 -0.363083 0.0674365  -0.0209682 -0.358369 0.0663009  -0.0284928 -0.379579 0.0699573  -0.0299273 -0.360084 0.0655193  -0.00757432 -0.362322 0.0679367  -0.025507 -0.359288 0.0658724  -0.0300518 -0.420297 0.0789862  -0.0394379 -0.421465 0.0781691  -0.0083611 -0.402538 0.0767877  -0.015878 -0.424173 0.0804908  -0.0175037 -0.40395 0.0757368  -0.0269005 -0.39933 0.0746536  -0.034779 -0.42091 0.0785341  -0.0362003 -0.400763 0.0738575  -0.0129733 -0.403328 0.0762291  -0.0315889 -0.400114 0.0742216  -0.0365512 -0.46263 0.0877373  -0.0462506 -0.463546 0.0870104  -0.0141294 -0.444683 0.0853937  -0.0220275 -0.4666 0.0893257  -0.0235844 -0.445741 0.0843871  -0.0332291 -0.441304 0.0833571  -0.0414479 -0.463137 0.0873332  -0.0427811 -0.442418 0.0825586  -0.0189092 -0.445272 0.0848641  -0.0380583 -0.441908 0.0829246  -0.0435019 -0.505823 0.0970104  -0.053417 -0.506447 0.0961933  -0.0203362 -0.487561 0.094353  -0.0285666 -0.509694 0.0984135  -0.0300407 -0.488403 0.093365  -0.0399625 -0.484055 0.0923779  -0.0484865 -0.506145 0.0965607  -0.0498219 -0.484918 0.0915675  -0.0252311 -0.488058 0.0938342  -0.0449307 -0.484541 0.091944  -0.0506954 -0.549546 0.106355  -0.0608737 -0.549958 0.105627  -0.026963 -0.5312 0.103587  -0.0355127 -0.553507 0.107856  -0.0369508 -0.531728 0.102645  -0.0470395 -0.52755 0.101691  -0.0558264 -0.549789 0.10595  -0.0570905 -0.52814 0.10089  -0.032007 -0.531518 0.103097  -0.0521119 -0.527882 0.101263  -0.0582592 -0.593901 0.11618  -0.0686202 -0.594064 0.115376  -0.0339499 -0.575328 0.113125  -0.0427611 -0.597753 0.117504  -0.0441244 -0.575672 0.112207  -0.0544178 -0.571582 0.111287  -0.0634615 -0.593977 0.115738  -0.0647407 -0.57195 0.11048  -0.0390813 -0.575568 0.11265  -0.0596168 -0.57181 0.11086  -0.0659981 -0.638558 0.126032  -0.0765696 -0.638544 0.125313  -0.0412631 -0.619974 0.122901  -0.0503328 -0.642492 0.127461  -0.0516891 -0.620054 0.122027  -0.0620811 -0.616113 0.121128  -0.0713198 -0.63858 0.125633  -0.0725491 -0.616262 0.120335  -0.0465248 -0.620067 0.122453  -0.0673575 -0.616221 0.12071  -0.0740452 -0.683643 0.136293  -0.0847461 -0.683431 0.13553  -0.0488565 -0.664917 0.132921  -0.0581305 -0.687468 0.137572  -0.059417 -0.664839 0.132082  -0.0699615 -0.660983 0.131197  -0.0794077 -0.683526 0.135879  -0.0806551 -0.660941 0.13041  -0.0541863 -0.664942 0.132495  -0.0753438 -0.661004 0.130788  -0.0821745 -0.728853 0.146584  -0.0930679 -0.728504 0.145873  -0.0566952 -0.710178 0.143151  -0.0661645 -0.732728 0.147951  -0.0674789 -0.709882 0.142344  -0.0780878 -0.706158 0.141458  -0.0876451 -0.728679 0.146183  -0.0888667 -0.705938 0.140698  -0.0621359 -0.710067 0.14274  -0.0835037 -0.706068 0.141057  -0.0904949 -0.774342 0.157212  -0.101554 -0.773799 0.156457  -0.0647602 -0.755591 0.15355  -0.0743585 -0.778089 0.158437  -0.0756185 -0.755131 0.152793  -0.0862877 -0.751532 0.151937  -0.0960448 -0.774038 0.156802  -0.0973077 -0.751099 0.151169  -0.0702269 -0.755398 0.153173  -0.0918357 -0.751332 0.151534  -0.0989876 -0.819745 0.16772  -0.110092 -0.819139 0.167132  -0.072962 -0.801044 0.164159  -0.0827529 -0.823638 0.169145  -0.0840211 -0.800487 0.163414  -0.0946999 -0.79696 0.16257  -0.104574 -0.819504 0.167413  -0.105795 -0.796463 0.161829  -0.0785403 -0.800834 0.163786  -0.100286 -0.796749 0.162199  -0.107712 -0.865229 0.178616  -0.118793 -0.864567 0.178  -0.0813336 -0.846592 0.174861  -0.0912428 -0.869056 0.179911  -0.0924683 -0.845895 0.17418  -0.103295 -0.842393 0.173272  -0.113245 -0.864925 0.178285  -0.114429 -0.841835 0.172609  -0.0869594 -0.846316 0.174521  -0.108902 -0.842184 0.172958  -0.116241 -0.910783 0.190029  -0.127536 -0.909917 0.18901  -0.089792 -0.892147 0.185767  -0.0997543 -0.914415 0.19088  -0.101163 -0.891455 0.18506  -0.112005 -0.887963 0.184055  -0.121764 -0.910251 0.189456  -0.12317 -0.88729 0.183368  -0.0955429 -0.891819 0.185409  -0.117553 -0.887619 0.18365  -0.124693 -0.956268 0.200592  -0.136329 -0.955338 0.199951  -0.098521 -0.937834 0.196684  -0.108337 -0.959884 0.2019  -0.10975 -0.93677 0.196003  -0.120435 -0.933735 0.195096  -0.130269 -0.955763 0.200378  -0.131916 -0.932565 0.194319  -0.104068 -0.937271 0.196358  -0.125983 -0.933113 0.194668  -0.13383 -1.00125 0.21022  -0.145009 -1.00076 0.210708  -0.107109 -0.982918 0.207855  -0.117157 -1.00547 0.213053  -0.118372 -0.981829 0.207176  -0.129328 -0.978841 0.206404  -0.139651 -1.00136 0.210608  -0.140629 -0.977877 0.205834  -0.112618 -0.982387 0.207536  -0.13474 -0.978427 0.206287  -0.142198 -1.04649 0.222824  -0.154418 -1.04551 0.222078  -0.115747 -1.02828 0.219047  -0.126022 -1.05019 0.224293  -0.127313 -1.02705 0.218386  -0.138325 -1.02363 0.2177  -0.149485 -1.04586 0.222013  -0.149537 -1.02315 0.217345  -0.121384 -1.02739 0.218644  -0.144624 -1.02325 0.217475  -0.151504 -1.09289 0.240712  -0.162292 -1.09015 0.235624  -0.123735 -1.07238 0.230941  -0.134143 -1.09555 0.235639  -0.136678 -1.07346 0.22962  -0.14548 -1.069 0.228863  -0.156379 -1.09089 0.238616  -0.159134 -1.06872 0.227035  -0.130624 -1.0737 0.230226  -0.153803 -1.06868 0.227465  -0.161342 -1.13493 0.249418  -0.168684 -1.13568 0.248283  -0.132499 -1.11616 0.242871  -0.143526 -1.14092 0.247716  -0.14575 -1.11998 0.240636  -0.155927 -1.11258 0.236868  -0.16446 -1.13868 0.249686  -0.165554 -1.11518 0.237141  -0.138897 -1.12005 0.241621  -0.159081 -1.11602 0.236695  0 0 0  0.00371553 0.00146908 0.00604534  0.00219029 -0.00136709 0.00315571  0 0 0  0.00176308 0.00115883 0.00524402  0.00380847 -0.00119746 0.006423  0.000927895 -0.000424564 0.00263  0 0 0  0.00130419 0.00175893 0.00365591  0.00280058 -0.000233352 0.00442791  0.000666238 9.08375e-05 0.00173187  0 0 0  0.00113725 2.80738e-05 0.00366712  0.000833854 0.000565171 0.00249267  0.0085938 -0.00499105 0.00784898  0.00641513 -0.00919133 0.00551629  0.00835285 -0.00234777 0.00969982  0.0101243 -0.00896549 0.00938487  0.00583619 -0.00590044 0.00634313  0.00623752 -0.00095129 0.00688362  0.00743845 -0.00741589 0.00668526  0.00420567 -0.00467187 0.00436568  0.00696659 -0.00442719 0.00798059  0.00512242 -0.00312549 0.00557518  0.0133289 -0.0168011 0.00980067  0.0107295 -0.0216689 0.00755596  0.0145927 -0.01212 0.0118928  0.0163684 -0.0213564 0.0114989  0.0120475 -0.0165595 0.00891852  0.0109504 -0.0102972 0.00875258  0.0119893 -0.0195398 0.00862622  0.00862387 -0.0149389 0.00648999  0.0132754 -0.0146496 0.0104172  0.00974107 -0.0129417 0.00759792  0.0177509 -0.0329148 0.0121417  0.0144995 -0.0379603 0.0100331  0.0208444 -0.02635 0.0140879  0.0221071 -0.0376471 0.0139124  0.0178772 -0.0311737 0.0112429  0.0156241 -0.0243618 0.0108805  0.0160897 -0.0356997 0.0110335  0.0126959 -0.0293767 0.0087235  0.0193292 -0.0290388 0.0126338  0.0141203 -0.0271521 0.0097537  0.0214949 -0.0527121 0.0151229  0.0175518 -0.0576334 0.0130906  0.0264696 -0.0444563 0.0167127  0.0270329 -0.0574358 0.01687  0.0229403 -0.049295 0.0139976  0.0197147 -0.042363 0.0135453  0.0194772 -0.0554088 0.01405  0.0161213 -0.0473906 0.0114853  0.0246832 -0.0471205 0.0153224  0.0178816 -0.0451299 0.0124617  0.0243894 -0.0757717 0.0187051  0.0197815 -0.0804586 0.0167818  0.0312811 -0.0660028 0.0199232  0.0310588 -0.08045 0.0204196  0.0271313 -0.0706711 0.0173011  0.0230646 -0.0638423 0.0168426  0.0220444 -0.0783073 0.0176923  0.0187738 -0.0686819 0.0148642  0.029158 -0.0685555 0.0185688  0.0208682 -0.0664766 0.0158019  0.0264134 -0.101798 0.0229261  0.0211782 -0.106111 0.0210521  0.0351336 -0.0906943 0.0236943  0.0341222 -0.106372 0.0245624  0.0303594 -0.0950575 0.0212069  0.0255046 -0.0884153 0.0207362  0.0237408 -0.104138 0.0219367  0.0205816 -0.092942 0.0188437  0.032721 -0.0930635 0.0224175  0.0230027 -0.0908701 0.0197399  0.0275179 -0.130444 0.0276661  0.021696 -0.134416 0.025902  0.0380271 -0.118155 0.0280869  0.0362356 -0.134972 0.0292673  0.0326841 -0.12219 0.0256858  0.0270982 -0.115782 0.0252423  0.0245681 -0.132571 0.0267425  0.0215486 -0.119966 0.0234134  0.0352863 -0.120351 0.0268481  0.024264 -0.118042 0.0242822  0.0277464 -0.1615 0.0330153  0.0214001 -0.165041 0.0312817  0.0399346 -0.148202 0.0329733  0.0373791 -0.165923 0.0345261  0.0340027 -0.151836 0.0307162  0.0277299 -0.145669 0.0302694  0.0245183 -0.163417 0.0321012  0.021644 -0.149444 0.0285237  0.0369456 -0.150169 0.0318177  0.0246515 -0.147706 0.0293543  0.0271081 -0.194645 0.038801  0.0202497 -0.197846 0.0371785  0.0408759 -0.180438 0.03847  0.0376101 -0.199068 0.040297  0.034476 -0.183718 0.0362885  0.0275593 -0.177785 0.0358646  0.023645 -0.19635 0.0379574  0.0209349 -0.181202 0.0341694  0.037586 -0.18223 0.0373495  0.0241834 -0.17963 0.0349789  0.025651 -0.229748 0.0451653  0.0183504 -0.232525 0.0435574  0.040905 -0.214787 0.0443773  0.0369292 -0.234066 0.046567  0.0339519 -0.217656 0.0423453  0.0264658 -0.211946 0.0419109  0.0219456 -0.231254 0.0443177  0.0193861 -0.214947 0.040302  0.0374122 -0.216353 0.0433407  0.022897 -0.213571 0.0410712  0.0234166 -0.266495 0.051883  0.0156612 -0.268957 0.0503943  0.040006 -0.250838 0.0508745  0.0354104 -0.270861 0.0532959  0.0326915 -0.253379 0.0489104  0.0246638 -0.247873 0.0484855  0.0195078 -0.267803 0.0511172  0.0171124 -0.250541 0.046917  0.0362363 -0.252244 0.0498719  0.020817 -0.249324 0.0476689  0.0204341 -0.30481 0.059159  0.0123076 -0.306886 0.0576746  0.0383257 -0.288611 0.0577047  0.0330766 -0.309062 0.0604784  0.0304759 -0.290751 0.0558832  0.0219979 -0.285451 0.0554478  0.0163184 -0.30594 0.0583773  0.0140607 -0.287718 0.0539684  0.0343912 -0.289806 0.056777  0.0180062 -0.286692 0.0546803  0.0167828 -0.344396 0.066715  0.00825214 -0.346182 0.0653524  0.0357569 -0.327663 0.0650964  0.0299888 -0.348731 0.0680594  0.0276533 -0.329516 0.063343  0.0187335 -0.324392 0.0628989  0.0124865 -0.345347 0.0660236  0.010383 -0.326362 0.0614538  0.0315709 -0.328716 0.0642073  0.0144793 -0.325481 0.0621495  0.012459 -0.38521 0.0747964  0.00361812 -0.386656 0.073436  0.0325649 -0.3681 0.0727565  0.0262015 -0.389407 0.0760515  0.0239363 -0.369575 0.0711319  0.0146798 -0.364643 0.0706804  0.00798845 -0.386002 0.0740814  0.00600314 -0.366242 0.0693274  0.0282464 -0.368967 0.0719297  0.0103217 -0.365543 0.0699823  0.00757957 -0.426975 0.083097  -0.00161684 -0.428151 0.081857  0.0285273 -0.409465 0.0809352  0.0217443 -0.431282 0.0843925  0.0197405 -0.410692 0.0793829  0.0101354 -0.40592 0.0789068  0.00294757 -0.42761 0.0824764  0.00110066 -0.40725 0.077585  0.0239816 -0.410199 0.0801516  0.00552976 -0.406681 0.0782237  0.00211406 -0.469666 0.0918972  -0.00734591 -0.470556 0.0906579  0.0240345 -0.451912 0.0893443  0.0167191 -0.473804 0.0931013  0.0147352 -0.45279 0.0879033  0.00489235 -0.448197 0.0874209  -0.00266027 -0.470157 0.0912476  -0.00441909 -0.449195 0.0861886  0.0193846 -0.452489 0.0886102  0.000218153 -0.448795 0.0867887  -0.00380039 -0.513029 0.100851  -0.0135593 -0.513667 0.0997288  0.0187433 -0.494984 0.0982089  0.0111051 -0.517299 0.102106  0.00937247 -0.495658 0.0968456  -0.000737429 -0.491215 0.0963292  -0.00871491 -0.513391 0.1003  -0.0103564 -0.49197 0.09513  0.0138936 -0.495438 0.0975211  -0.00564122 -0.491683 0.0957119  -0.0102088 -0.557056 0.110272  -0.0201936 -0.557468 0.109148  0.0131629 -0.538873 0.107283  0.00505614 -0.561126 0.111436  0.00329685 -0.539229 0.106009  -0.00697207 -0.534952 0.105484  -0.015238 -0.557288 0.109684  -0.0168176 -0.535425 0.10437  0.00823259 -0.539199 0.106633  -0.0119114 -0.535288 0.104916  -0.0169656 -0.601525 0.119789  -0.0271952 -0.601701 0.118781  0.00683284 -0.583139 0.11673  -0.001508 -0.60574 0.121017  -0.00303411 -0.583334 0.115544  -0.013494 -0.579199 0.11498  -0.022119 -0.601653 0.119305  -0.0236027 -0.579451 0.1139  0.00173116 -0.583351 0.11613  -0.0186472 -0.579411 0.114426  -0.0241241 -0.646432 0.129735  -0.0345469 -0.646431 0.128725  0.000367641 -0.627987 0.12639  -0.00837684 -0.650419 0.130876  -0.00996947 -0.627898 0.125268  -0.0205245 -0.62391 0.124688  -0.0293698 -0.646441 0.129208  -0.0308156 -0.623938 0.123687  -0.00479507 -0.628099 0.125818  -0.0256879 -0.624026 0.12418  -0.031527 -0.691586 0.139735  -0.0421617 -0.69137 0.138826  -0.00679445 -0.67301 0.136318  -0.0156982 -0.695723 0.140931  -0.0170722 -0.67281 0.135298  -0.02775 -0.668956 0.13468  -0.0368948 -0.691514 0.139303  -0.03827 -0.668778 0.133714  -0.0121002 -0.673017 0.135797  -0.0331163 -0.668946 0.134182  -0.0392885 -0.736978 0.150074  -0.0500557 -0.736645 0.149193  -0.013952 -0.718418 0.146473  -0.023196 -0.740879 0.151233  -0.0246737 -0.717948 0.145483  -0.0353882 -0.714244 0.144859  -0.0446911 -0.736805 0.149626  -0.0460565 -0.713891 0.143955  -0.0193064 -0.718338 0.14597  -0.0407441 -0.71416 0.14441  -0.0472457 -0.782446 0.160472  -0.058116 -0.78196 0.159686  -0.0217578 -0.763856 0.156778  -0.03108 -0.786504 0.161669  -0.0323601 -0.76332 0.155912  -0.0432231 -0.759724 0.155215  -0.0527141 -0.78222 0.160109  -0.054004 -0.759186 0.154383  -0.0272126 -0.763664 0.156324  -0.0486979 -0.759509 0.154796  -0.0553432 -0.828035 0.171299  -0.0664182 -0.827417 0.170405  -0.0294352 -0.80943 0.16737  -0.0390444 -0.831875 0.172358  -0.0404773 -0.808715 0.166483  -0.0512891 -0.805173 0.16576  -0.0609131 -0.827761 0.17082  -0.0622222 -0.804593 0.164958  -0.0349371 -0.809254 0.16693  -0.0567794 -0.805003 0.165345  -0.0635035 -0.873655 0.181953  -0.0747736 -0.872821 0.181164  -0.0376995 -0.854923 0.177958  -0.0473783 -0.877588 0.183028  -0.0486095 -0.85428 0.17725  -0.0593591 -0.850842 0.176483  -0.069181 -0.873306 0.181596  -0.0705488 -0.850047 0.175676  -0.0432827 -0.854711 0.177575  -0.0650403 -0.850521 0.176042  -0.0721359 -0.91905 0.192255  -0.0833223 -0.918333 0.191967  -0.0457563 -0.900598 0.189019  -0.055594 -0.922719 0.194065  -0.0570219 -0.899548 0.188138  -0.0677722 -0.896312 0.187476  -0.077692 -0.918613 0.192157  -0.0790136 -0.89553 0.186732  -0.0513892 -0.900181 0.188592  -0.0733719 -0.896037 0.187185  -0.0808558 -0.964517 0.203891  -0.0919731 -0.963697 0.203157  -0.0543165 -0.946457 0.199763  -0.0641201 -0.968158 0.204988  -0.0653558 -0.945106 0.199112  -0.0766702 -0.942096 0.198283  -0.0865762 -0.963856 0.203423  -0.0875762 -0.940905 0.197751  -0.0599539 -0.945497 0.199393  -0.0822413 -0.941296 0.198061  -0.0889964 -1.00978 0.216764  -0.100873 -1.00896 0.214857  -0.0626409 -0.991241 0.210868  -0.0726717 -1.01395 0.21634  -0.0742295 -0.990381 0.210099  -0.0848436 -0.98703 0.209236  -0.0948737 -1.00964 0.215668  -0.0963101 -0.986099 0.208442  -0.0682838 -0.991131 0.210459  -0.0907841 -0.986584 0.208656  -0.0984728 -1.05509 0.226278  -0.108772 -1.05399 0.225897  -0.0710614 -1.0357 0.221849  -0.0812852 -1.05955 0.227819  -0.0831761 -1.03589 0.221361  -0.0930974 -1.03231 0.220174  -0.102462 -1.05526 0.226696  -0.104928 -1.03146 0.219249  -0.0768974 -1.03651 0.221492  -0.09831 -1.03215 0.219722  -0.106939 -1.09957 0.231405  -0.11881 -1.09889 0.235385  -0.0800772 -1.08106 0.234124  -0.0898051 -1.10159 0.239049  -0.0911505 -1.08069 0.233368  -0.103159 -1.07565 0.232232  -0.112931 -1.09876 0.232881  -0.113723 -1.0772 0.232575  -0.0854778 -1.08096 0.234032  -0.107136 -1.07785 0.23269  -0.112971 -1.14671 0.244396  -0.130096 -1.14132 0.245687  -0.0865786 -1.12903 0.246972  -0.100766 -1.15202 0.24906  -0.0992215 -1.12412 0.246539  -0.110074 -1.12184 0.247808  -0.124247 -1.14507 0.244432  -0.125242 -1.12138 0.245728  -0.0954375 -1.12541 0.247573  -0.120614 -1.12115 0.246849  0 0 0  0.0063201 -0.000946581 0.0109479  0.00396293 -0.00347972 0.00613904  0 0 0  0.00271152 -0.000664115 0.00814366  0.00604536 -0.0040974 0.0100954  0.00153568 -0.00207829 0.00424337  0 0 0  0.00222529 0.000369847 0.0066843  0.00487788 -0.00246805 0.00829506  0.00120296 -0.00112826 0.00344634  0 0 0  0.00180608 -0.00163853 0.00580645  0.00145037 -0.000691235 0.00473928  0.0144806 -0.00872535 0.0137293  0.0116235 -0.0125676 0.00993776  0.0129104 -0.00634521 0.0148771  0.0159984 -0.0133834 0.0142655  0.00953786 -0.00958222 0.00993228  0.0105542 -0.00413162 0.0123296  0.0129655 -0.010945 0.0119088  0.0076095 -0.00752175 0.00819159  0.0110405 -0.00823843 0.0123777  0.00892588 -0.00611651 0.0102341  0.022341 -0.0210775 0.0160508  0.0195368 -0.0255801 0.0124164  0.0224294 -0.0170527 0.0176966  0.0256704 -0.0262279 0.0167775  0.0194898 -0.0211222 0.0133183  0.0183971 -0.0143734 0.0148702  0.0209144 -0.0235918 0.0142167  0.0156659 -0.0186192 0.011184  0.0209024 -0.0193492 0.0155623  0.016986 -0.0167845 0.0130584  0.0298643 -0.0373823 0.0184546  0.026657 -0.0420527 0.0149646  0.0317494 -0.0315027 0.0201061  0.0345796 -0.0426708 0.0192788  0.0287518 -0.0359653 0.0158968  0.0261917 -0.0287364 0.0171854  0.0282509 -0.0399812 0.0166838  0.0232082 -0.0333765 0.0136378  0.0302414 -0.0339925 0.0179961  0.0246839 -0.0313246 0.0153944  0.0365674 -0.0573248 0.0212789  0.0328373 -0.0619171 0.0179453  0.0404108 -0.0497196 0.022764  0.0425125 -0.0625437 0.0221725  0.0369709 -0.0541881 0.0186746  0.0333396 -0.0469168 0.019799  0.0346899 -0.0598194 0.0195765  0.0298715 -0.0515684 0.0163851  0.0386773 -0.0521764 0.0207062  0.0315971 -0.049475 0.0180631  0.0423251 -0.080537 0.0247037  0.0380188 -0.0848797 0.0214837  0.0480097 -0.0713685 0.0257826  0.0493746 -0.0857342 0.0255303  0.0441474 -0.0756782 0.0218742  0.0395653 -0.0685124 0.0229163  0.0401453 -0.0829341 0.0230544  0.0355581 -0.0730052 0.0196373  0.0460771 -0.0737393 0.0238018  0.0375363 -0.0709788 0.0212424  0.0470379 -0.106762 0.0286274  0.0421535 -0.110815 0.0255828  0.0546982 -0.096199 0.0294392  0.0551704 -0.111795 0.0295115  0.0501922 -0.100239 0.0256598  0.0448272 -0.0932942 0.0265918  0.0445777 -0.108924 0.0270669  0.0402183 -0.0974975 0.0234568  0.0524108 -0.0984073 0.0275235  0.042504 -0.0955779 0.0249867  0.0507135 -0.13564 0.0331981  0.0452753 -0.139305 0.030273  0.0601095 -0.123871 0.0335202  0.059785 -0.140663 0.0339692  0.0551396 -0.127564 0.0299621  0.0490032 -0.120851 0.0308385  0.0479484 -0.137679 0.0316932  0.0438461 -0.124719 0.027854  0.0576246 -0.125901 0.0317125  0.0463826 -0.122972 0.0293133  0.0533072 -0.166955 0.0382314  0.0473349 -0.170296 0.0354757  0.0645499 -0.154077 0.0383213  0.0633506 -0.171793 0.0390923  0.0589511 -0.157472 0.0348916  0.0521554 -0.15101 0.03564  0.0503052 -0.168708 0.0368171  0.0464364 -0.154523 0.0328059  0.0616893 -0.155946 0.0365739  0.0492696 -0.152917 0.034183  0.0549061 -0.20039 0.0438843  0.0484365 -0.203307 0.0412517  0.0677022 -0.186628 0.0434854  0.0657152 -0.205265 0.0446076  0.061653 -0.189587 0.0402875  0.054232 -0.183385 0.040982  0.0516045 -0.202052 0.0425196  0.0480117 -0.186506 0.0383022  0.0646888 -0.188273 0.0418589  0.0510658 -0.185114 0.0396118  0.0554593 -0.235779 0.0499487  0.0485176 -0.238391 0.0474617  0.0698913 -0.221109 0.0493693  0.0671275 -0.240451 0.0507967  0.0633093 -0.223841 0.0462909  0.055319 -0.217849 0.046839  0.0519768 -0.237119 0.0486717  0.0486009 -0.220637 0.0443034  0.0665054 -0.222648 0.0477877  0.0519228 -0.21938 0.0455282  0.0551201 -0.272825 0.0565741  0.0477357 -0.275025 0.0542173  0.0709119 -0.257558 0.0555491  0.0673802 -0.277587 0.0572741  0.0638648 -0.259794 0.0526829  0.0554074 -0.254072 0.0531816  0.0513369 -0.274136 0.0553374  0.0482402 -0.256454 0.050796  0.067418 -0.258838 0.0540874  0.0517544 -0.255424 0.051959  0.0538013 -0.311431 0.0635843  0.0460095 -0.313348 0.0613365  0.0709829 -0.295384 0.0623963  0.0668112 -0.315962 0.0644259  0.0635464 -0.297503 0.0596492  0.0545847 -0.291933 0.059998  0.0499002 -0.312382 0.0624311  0.0469853 -0.294033 0.0577445  0.0671281 -0.296627 0.0609658  0.0507313 -0.293119 0.0588229  0.051721 -0.351281 0.0710692  0.0435361 -0.352832 0.0689666  0.0700891 -0.334893 0.0695064  0.0651622 -0.355945 0.0717716  0.0621284 -0.336462 0.0669405  0.0528694 -0.331175 0.0672376  0.0475166 -0.352279 0.0699468  0.0448714 -0.332873 0.0651281  0.0661597 -0.335851 0.0681906  0.0487908 -0.332189 0.0661516  0.0487461 -0.392377 0.0789309  0.0402144 -0.393652 0.0768986  0.0682284 -0.375286 0.0771923  0.0628287 -0.396778 0.0797691  0.06007 -0.376859 0.0747566  0.0503441 -0.371663 0.0749147  0.0444807 -0.392971 0.0778887  0.0419754 -0.373137 0.0729229  0.0639672 -0.376268 0.075901  0.0460865 -0.372545 0.0738645  0.0451512 -0.43434 0.0871661  0.0362573 -0.435323 0.0852978  0.065686 -0.41714 0.0851443  0.0595238 -0.438907 0.0878999  0.0568895 -0.418115 0.0828493  0.0470457 -0.413226 0.0829475  0.0405741 -0.435064 0.0861464  0.0383164 -0.414307 0.0810966  0.061359 -0.417821 0.0839565  0.0425948 -0.413938 0.0819855  0.0407457 -0.477298 0.0957892  0.0315721 -0.477994 0.0939565  0.0621092 -0.459441 0.0935538  0.0556588 -0.481574 0.096628  0.0533442 -0.460536 0.0914092  0.0430462 -0.455682 0.0913932  0.0361626 -0.477575 0.0948515  0.0340025 -0.456591 0.0896437  0.0575008 -0.46019 0.0923905  0.0384274 -0.456292 0.0904584  0.0358574 -0.520779 0.104674  0.0263579 -0.521272 0.103021  0.0581861 -0.503007 0.102252  0.0509541 -0.525234 0.105456  0.0486345 -0.503474 0.100207  0.0383868 -0.498941 0.100125  0.0309694 -0.521264 0.103749  0.0290253 -0.49949 0.0985091  0.0534992 -0.503459 0.101179  0.0336189 -0.499398 0.0992751  0.0302627 -0.565056 0.113969  0.0205405 -0.565243 0.112317  0.0531237 -0.546673 0.111283  0.0457923 -0.569207 0.114809  0.0438521 -0.547343 0.109411  0.0331438 -0.542807 0.109237  0.0254076 -0.565059 0.113125  0.023526 -0.54322 0.107709  0.0482254 -0.547203 0.110243  0.0282173 -0.543175 0.108409  0.0243075 -0.609559 0.123409  0.0142858 -0.609637 0.121952  0.0480702 -0.591404 0.120639  0.0399382 -0.613883 0.124253  0.0378606 -0.591446 0.118826  0.0273597 -0.58724 0.118578  0.0191588 -0.609836 0.122573  0.017452 -0.587336 0.117176  0.0430651 -0.591669 0.119673  0.0223243 -0.58748 0.117829  0.0177393 -0.654689 0.133262  0.00755882 -0.654449 0.131794  0.0417655 -0.635981 0.130193  0.0337059 -0.658717 0.134125  0.0320692 -0.636273 0.128577  0.0210931 -0.63204 0.12826  0.0126586 -0.654466 0.132515  0.0109901 -0.632021 0.126936  0.0366275 -0.636306 0.129271  0.0159104 -0.632198 0.127534  0.0109179 -0.699797 0.14317  0.00047183 -0.699535 0.141899  0.0357947 -0.681408 0.1401  0.0269434 -0.70399 0.144085  0.0250454 -0.681117 0.138509  0.0143921 -0.677194 0.138115  0.00556874 -0.699902 0.142423  0.00403285 -0.676929 0.136905  0.0305264 -0.681527 0.139237  0.00914383 -0.677257 0.137459  0.00360107 -0.745396 0.153525  -0.00696397 -0.744815 0.152208  0.0285077 -0.726549 0.150097  0.019861 -0.749297 0.154392  0.018446 -0.726499 0.148716  0.0073092 -0.722546 0.14825  -0.00166488 -0.744997 0.152853  -0.00318408 -0.722158 0.147118  0.0231798 -0.726674 0.149292  0.00193119 -0.722515 0.147621  -0.00385523 -0.790795 0.163811  -0.0146959 -0.790236 0.162687  0.0217886 -0.772275 0.160458  0.0124016 -0.794827 0.164762  0.0106335 -0.771742 0.159077  -7.53403e-05 -0.768072 0.158564  -0.00936604 -0.79074 0.16314  -0.0108352 -0.76751 0.157507  0.0163202 -0.772273 0.159694  -0.00549507 -0.767974 0.157973  -0.0117822 -0.836537 0.174434  -0.0226307 -0.835691 0.173354  0.0138295 -0.817699 0.170792  0.00465894 -0.840334 0.175441  0.00339556 -0.81731 0.169643  -0.00776029 -0.81363 0.16908  -0.0171738 -0.836012 0.173903  -0.0186048 -0.812941 0.168111  0.0083046 -0.817626 0.170111  -0.0132997 -0.813465 0.168561  -0.0198181 -0.881928 0.185065  -0.0308537 -0.881164 0.18414  0.00642228 -0.863304 0.181499  -0.00328684 -0.885931 0.186088  -0.00495672 -0.862691 0.180346  -0.0157349 -0.85912 0.179719  -0.0254092 -0.881812 0.184499  -0.0267661 -0.858485 0.178832  0.000854731 -0.863306 0.180845  -0.0212784 -0.859006 0.179231  -0.0279889 -0.927667 0.196399  -0.039212 -0.926653 0.195233  -0.00189567 -0.909054 0.192179  -0.011497 -0.931115 0.197191  -0.0127573 -0.908296 0.191253  -0.02391 -0.904844 0.190425  -0.0334897 -0.926879 0.195786  -0.0349562 -0.90383 0.189625  -0.00756526 -0.908622 0.19165  -0.0294974 -0.904399 0.18996  -0.0359678 -0.97283 0.207193  -0.0478101 -0.971978 0.206228  -0.00995684 -0.954558 0.203052  -0.0196893 -0.976731 0.208049  -0.0213745 -0.953662 0.202164  -0.0320401 -0.950529 0.20143  -0.0416927 -0.972563 0.206702  -0.0435383 -0.949326 0.20057  -0.015579 -0.954221 0.202502  -0.0375969 -0.949901 0.200866  -0.0451605 -1.01822 0.217091  -0.0559511 -1.01714 0.217196  -0.0182192 -0.999506 0.214216  -0.0282309 -1.02255 0.219353  -0.0295119 -0.998663 0.213361  -0.0403442 -0.995472 0.213025  -0.0503347 -1.0182 0.21743  -0.0518208 -0.994476 0.212086  -0.0239663 -0.999466 0.213815  -0.0459318 -0.995426 0.212734  -0.0544393 -1.06259 0.229056  -0.0652344 -1.06209 0.228842  -0.0267801 -1.04416 0.225321  -0.0371299 -1.06759 0.230082  -0.0383382 -1.0438 0.224688  -0.0495737 -1.03941 0.22356  -0.0597725 -1.06352 0.228793  -0.060586 -1.04012 0.223413  -0.0324154 -1.04482 0.225019  -0.0550275 -1.04067 0.223642  -0.0629928 -1.10991 0.244759  -0.073539 -1.10797 0.241675  -0.0348365 -1.09049 0.238127  -0.0442216 -1.11149 0.242559  -0.0477879 -1.08988 0.237122  -0.0583651 -1.08609 0.234682  -0.0664279 -1.10591 0.243606  -0.0697358 -1.08506 0.233762  -0.0414119 -1.08985 0.237701  -0.0636001 -1.08493 0.234036  -0.0680902 -1.15259 0.25727  -0.0811443 -1.15214 0.254589  -0.0445528 -1.13605 0.24942  -0.0563619 -1.15748 0.253078  -0.0558476 -1.13566 0.247871  -0.0664835 -1.13302 0.244079  -0.0769382 -1.15616 0.256075  -0.0762408 -1.12958 0.244052  -0.0489643 -1.13461 0.247922  -0.0704124 -1.13119 0.243196  0 0 0  0.00931786 -0.00483584 0.0152647  0.00626957 -0.00718778 0.00866771  0 0 0  0.00382527 -0.00377393 0.010576  0.00899279 -0.00909358 0.0129812  0.00234473 -0.00519592 0.00550508  0 0 0  0.00321884 -0.0020203 0.00928497  0.00740874 -0.00623894 0.0116124  0.00188909 -0.00338674 0.0048759  0 0 0  0.00267883 -0.004592 0.00750017  0.00218067 -0.00290358 0.00663352  0.021271 -0.0142358 0.0188897  0.017829 -0.0178599 0.013715  0.0186034 -0.0123009 0.0191984  0.0231882 -0.0196439 0.018357  0.0145339 -0.0154338 0.012893  0.0156018 -0.00904244 0.0170946  0.0194067 -0.0162877 0.016397  0.0118727 -0.0121824 0.0114648  0.0163132 -0.0141137 0.0160084  0.0135093 -0.010871 0.0142467  0.0322512 -0.0268505 0.0217538  0.0292727 -0.0311139 0.01671  0.0314554 -0.0234569 0.0228624  0.0361235 -0.0326109 0.0214653  0.0282896 -0.0274211 0.0170574  0.0267819 -0.0201119 0.0203927  0.0307346 -0.0292485 0.0192237  0.0237134 -0.0240697 0.0152845  0.0297662 -0.0256751 0.0199821  0.0251594 -0.0223263 0.017884  0.0427496 -0.0432872 0.0242908  0.0395607 -0.0476331 0.0193813  0.0437174 -0.0380264 0.0256577  0.0479778 -0.048939 0.0242355  0.040639 -0.0421891 0.0200167  0.0375848 -0.0346249 0.0229909  0.041137 -0.0456678 0.0218  0.0345513 -0.0389138 0.018043  0.0422126 -0.0403183 0.0228438  0.0360743 -0.0370064 0.0205157  0.0523223 -0.0632038 0.0270836  0.0487636 -0.0675337 0.0223932  0.0551677 -0.0562492 0.0283527  0.0588349 -0.0690821 0.02705  0.0519103 -0.0604299 0.0228338  0.0476807 -0.0528483 0.0256555  0.0505358 -0.0656298 0.0247133  0.0443043 -0.0571446 0.0208564  0.0534987 -0.0585387 0.0255527  0.0459501 -0.055203 0.0232406  0.0608778 -0.0866225 0.0303197  0.056796 -0.0906688 0.0257597  0.065678 -0.0780567 0.0312662  0.0684902 -0.0921227 0.0304041  0.0619396 -0.0819794 0.0260155  0.0566935 -0.0745747 0.0286405  0.0588001 -0.0888016 0.0279789  0.0529384 -0.0786743 0.024035  0.0638879 -0.0801858 0.0286267  0.0548404 -0.0768132 0.0263159  0.0682567 -0.112866 0.0340538  0.0636556 -0.116684 0.0298035  0.0749312 -0.102926 0.0347145  0.0769292 -0.118667 0.0340929  0.0708033 -0.10667 0.0296352  0.0647542 -0.0994222 0.0321789  0.0659198 -0.115035 0.0319068  0.0603737 -0.103292 0.0277562  0.0727953 -0.104968 0.0321176  0.0624761 -0.101536 0.0299411  0.0744535 -0.142037 0.0384035  0.0692832 -0.145495 0.0342686  0.0831078 -0.13082 0.0386062  0.0840851 -0.147319 0.0385973  0.0782872 -0.134157 0.0338552  0.0714306 -0.127221 0.0361972  0.0718087 -0.143874 0.0362718  0.0666394 -0.130719 0.0320082  0.0807868 -0.132625 0.0362053  0.0690609 -0.129115 0.0340745  0.0794213 -0.173409 0.0431838  0.0737408 -0.176546 0.0394366  0.0897197 -0.161095 0.0431683  0.0899104 -0.179114 0.0433118  0.0846015 -0.164242 0.0386038  0.0771478 -0.157452 0.0408604  0.0765098 -0.175253 0.0413027  0.0716546 -0.160701 0.036865  0.0870601 -0.162823 0.0408309  0.0742625 -0.159246 0.0388334  0.0831809 -0.207184 0.0486937  0.0769707 -0.210004 0.0449982  0.0954409 -0.193897 0.0481546  0.0945306 -0.212279 0.0490179  0.0894812 -0.196584 0.0439231  0.0813378 -0.190152 0.0459702  0.0800033 -0.208662 0.0467894  0.0755255 -0.192964 0.0422192  0.0925455 -0.195364 0.0459981  0.0784622 -0.191673 0.0440621  0.0857961 -0.242648 0.0544205  0.0791174 -0.245073 0.0511901  0.0993232 -0.228454 0.053818  0.0977831 -0.248255 0.054683  0.0932814 -0.231014 0.0497813  0.0847145 -0.224664 0.0517225  0.0823475 -0.244159 0.0528159  0.0781705 -0.227283 0.0481534  0.0961888 -0.229894 0.0517581  0.0812585 -0.226152 0.0499034  0.0872363 -0.280036 0.0610518  0.0800856 -0.282251 0.057776  0.102732 -0.265152 0.0598512  0.100014 -0.285002 0.0615077  0.0956775 -0.26723 0.056108  0.086513 -0.26125 0.0578499  0.0835874 -0.28118 0.0593791  0.0797578 -0.263416 0.0545175  0.099255 -0.266322 0.0579193  0.0831671 -0.262434 0.0561445  0.0876838 -0.31872 0.0675817  0.0801141 -0.320453 0.0648577  0.10399 -0.30304 0.066505  0.100888 -0.324208 0.0680165  0.0971282 -0.30508 0.0629838  0.0876979 -0.299115 0.064585  0.0837551 -0.31991 0.0662482  0.0802062 -0.30116 0.0614202  0.100459 -0.304247 0.0647271  0.0837375 -0.300343 0.0629599  0.0870161 -0.358884 0.0752735  0.0790324 -0.360544 0.072392  0.105341 -0.342782 0.0735016  0.100948 -0.363773 0.0758462  0.0972693 -0.34432 0.0702004  0.0873193 -0.338723 0.0716388  0.0829611 -0.359727 0.0738297  0.0797052 -0.340323 0.0686917  0.101287 -0.343701 0.0717692  0.0835348 -0.339629 0.0701172  0.0855389 -0.400051 0.0824683  0.0771828 -0.401139 0.0802317  0.104185 -0.383208 0.0810175  0.0997111 -0.405373 0.0831182  0.0965905 -0.384799 0.0779874  0.0865216 -0.379179 0.079232  0.0811883 -0.400936 0.0813949  0.0781912 -0.380713 0.0764472  0.100325 -0.38423 0.079515  0.0821335 -0.380184 0.0777862  0.08301 -0.442284 0.0911477  0.0742984 -0.443437 0.0886405  0.103752 -0.425267 0.0888972  0.0978413 -0.44713 0.091819  0.0947592 -0.426343 0.0859983  0.0842371 -0.421064 0.0871217  0.0786097 -0.442855 0.0899334  0.0758379 -0.422188 0.0845304  0.0991323 -0.425976 0.0873499  0.0800366 -0.42175 0.085768  0.0798628 -0.48529 0.0989006  0.0708318 -0.485796 0.0971158  0.100446 -0.467554 0.097146  0.0948009 -0.490393 0.0997887  0.092191 -0.46877 0.0945814  0.0816786 -0.463463 0.0954549  0.0751576 -0.485893 0.0980647  0.0726261 -0.464555 0.0930321  0.0963213 -0.468443 0.0959053  0.0769465 -0.464281 0.0941789  0.0757511 -0.528985 0.108464  0.0664003 -0.529684 0.106313  0.0984833 -0.511305 0.105818  0.0912395 -0.533805 0.109213  0.0886848 -0.511989 0.103294  0.0777867 -0.506979 0.104088  0.0710526 -0.529317 0.107473  0.0686734 -0.507716 0.101827  0.0933359 -0.511836 0.104454  0.0731909 -0.507499 0.102887  0.0711823 -0.573287 0.116693  0.0615754 -0.573283 0.115318  0.0933409 -0.554892 0.114689  0.086714 -0.578121 0.117829  0.0844827 -0.555784 0.112549  0.0736952 -0.550786 0.11306  0.0661898 -0.573633 0.116069  0.0640278 -0.551486 0.110976  0.0889969 -0.555679 0.113681  0.0686975 -0.551433 0.111943  0.0657623 -0.61794 0.127036  0.0558565 -0.618238 0.125217  0.0900741 -0.59981 0.124056  0.0817013 -0.622726 0.127843  0.0795968 -0.600153 0.121887  0.068485 -0.595388 0.122344  0.0608039 -0.61806 0.126254  0.058733 -0.595804 0.120394  0.0844612 -0.600175 0.122878  0.0635247 -0.595776 0.121288  0.0600104 -0.663077 0.135691  0.0499272 -0.662643 0.134666  0.083425 -0.644226 0.133456  0.0759878 -0.667624 0.137048  0.0740197 -0.644838 0.131693  0.0630922 -0.640145 0.131864  0.05479 -0.663203 0.135245  0.0529127 -0.6405 0.130096  0.0788932 -0.644932 0.132646  0.0578902 -0.640635 0.130898  0.0535443 -0.708285 0.146653  0.0431654 -0.70823 0.145148  0.079052 -0.689865 0.1434  0.069761 -0.713016 0.147511  0.0680301 -0.689922 0.141573  0.0568352 -0.685379 0.141697  0.0483689 -0.708226 0.146064  0.0465269 -0.685537 0.140034  0.0730541 -0.690085 0.142415  0.0515549 -0.685669 0.140776  0.0468287 -0.753865 0.155715  0.0363672 -0.753095 0.15497  0.0712266 -0.73475 0.153249  0.0631506 -0.758114 0.15725  0.0613284 -0.735105 0.151805  0.0503545 -0.730729 0.151684  0.0414584 -0.75379 0.155409  0.0397704 -0.73077 0.150198  0.0665331 -0.735371 0.152593  0.0450206 -0.731054 0.15086  0.0395434 -0.79931 0.167148  0.0287821 -0.798945 0.165927  0.0659025 -0.780768 0.163651  0.0559487 -0.803895 0.168054  0.0544817 -0.780536 0.162163  0.043293 -0.776229 0.161944  0.0342016 -0.799071 0.166718  0.0325322 -0.77616 0.160571  0.0596511 -0.780824 0.162872  0.0377617 -0.776423 0.16117  0.0321004 -0.845003 0.17667  0.0213227 -0.843989 0.176121  0.0572453 -0.825804 0.173943  0.0485985 -0.849087 0.178261  0.046912 -0.825943 0.172733  0.0359473 -0.821848 0.172329  0.0266023 -0.844839 0.176446  0.0250416 -0.821615 0.17109  0.0523653 -0.82632 0.173389  0.0305042 -0.82202 0.171623  0.0243289 -0.890545 0.188438  0.0131097 -0.889845 0.187358  0.0511696 -0.87186 0.184675  0.0406308 -0.89495 0.189295  0.0394402 -0.871416 0.183508  0.028374 -0.867301 0.183015  0.0188196 -0.890205 0.188052  0.0171669 -0.867057 0.18183  0.0446751 -0.871824 0.184091  0.0226312 -0.867496 0.182323  0.016192 -0.935976 0.198046  0.00520229 -0.934937 0.197882  0.0418389 -0.917086 0.195264  0.0330489 -0.939869 0.199954  0.0311861 -0.91675 0.194189  0.0203443 -0.913248 0.19382  0.0108299 -0.935588 0.198079  0.00913668 -0.912554 0.192744  0.0369043 -0.917215 0.194753  0.0149503 -0.912991 0.193286  0.00746322 -0.98155 0.210492  -0.00334692 -0.980534 0.209527  0.0349214 -0.96339 0.206216  0.02456 -0.9849 0.21125  0.0232048 -0.962094 0.205364  0.0118074 -0.958587 0.204398  0.00215769 -0.980672 0.210045  0.000882864 -0.95789 0.203768  0.0288653 -0.96267 0.205822  0.00635839 -0.958388 0.204144  -6.74725e-05 -1.0266 0.22198  -0.0117674 -1.0255 0.221059  0.0257316 -1.00767 0.217611  0.0158803 -1.03157 0.222132  0.0146725 -1.00762 0.216437  0.00398016 -1.00356 0.215483  -0.00643396 -1.02691 0.221264  -0.00755191 -1.00313 0.214635  0.0200582 -1.00786 0.217006  -0.00212502 -1.00361 0.214815  -0.00660896 -1.07216 0.234308  -0.0203702 -1.07052 0.231767  0.0185757 -1.05308 0.228655  0.00725603 -1.07623 0.234311  0.00609207 -1.05217 0.228128  -0.00350666 -1.04922 0.22773  -0.013793 -1.07191 0.23272  -0.0160382 -1.0479 0.226094  0.0120723 -1.0533 0.228284  -0.0100522 -1.04908 0.226617  -0.0185938 -1.11582 0.23687  -0.030297 -1.11615 0.243018  0.00921559 -1.09834 0.240615  -0.00147605 -1.1222 0.245312  -0.00215101 -1.09684 0.238969  -0.0115778 -1.09474 0.239845  -0.023231 -1.11743 0.239967  -0.0249794 -1.09336 0.239786  0.00322056 -1.09826 0.239611  -0.0181303 -1.09466 0.240585  -0.0284114 -1.16133 0.259315  -0.0363517 -1.1593 0.254022  0.00103736 -1.14936 0.25558  -0.00859594 -1.16673 0.258448  -0.0102589 -1.14063 0.252311  -0.0257823 -1.14078 0.256402  -0.0326865 -1.16068 0.254754  -0.0349517 -1.13837 0.253611  -0.00349951 -1.1396 0.253303  -0.0287101 -1.13564 0.256757  0 0 0  0.0135113 -0.011271 0.0188251  0.00997487 -0.0141863 0.0107281  0 0 0  0.00602973 -0.00993198 0.0125301  0.0141463 -0.0182181 0.0151925  0.00445648 -0.0117176 0.0066359  0 0 0  0.00453804 -0.00622708 0.0110688  0.0110963 -0.013042 0.0142462  0.00297508 -0.00777555 0.0058918  0 0 0  0.00463683 -0.0104154 0.00896072  0.00320477 -0.0069316 0.00792933  0.0295998 -0.0211493 0.023406  0.0257796 -0.0250182 0.016938  0.0264383 -0.0199363 0.0233974  0.0321804 -0.0270483 0.0222111  0.0222953 -0.023638 0.0156088  0.0223519 -0.0160236 0.0214641  0.0275156 -0.0233061 0.0202756  0.0180997 -0.01934 0.014276  0.023908 -0.0222461 0.0193844  0.0198797 -0.0179703 0.017756  0.0433312 -0.033824 0.0270414  0.040243 -0.0379942 0.0204637  0.0416136 -0.0307478 0.0279055  0.0476681 -0.0401245 0.0259106  0.0384478 -0.0349592 0.0205364  0.0363944 -0.0270161 0.0253739  0.0417396 -0.0362504 0.0237355  0.0331511 -0.0310889 0.0188227  0.0399331 -0.033141 0.024219  0.0346767 -0.0293153 0.0221193  0.056698 -0.0503529 0.0296564  0.0535446 -0.0544824 0.0233819  0.0568894 -0.0454965 0.0309799  0.0626222 -0.0564702 0.0288329  0.0537503 -0.0496597 0.023777  0.0501456 -0.0416541 0.0283637  0.0551543 -0.0525365 0.0265324  0.0470414 -0.0457811 0.0219297  0.0552523 -0.047811 0.0273557  0.0485999 -0.0439218 0.0251222  0.0691189 -0.0703804 0.032506  0.0657001 -0.07442 0.0263507  0.0712105 -0.0639037 0.0336339  0.076324 -0.0766912 0.0316126  0.0680311 -0.067924 0.0266662  0.0630124 -0.0599233 0.0309992  0.0674035 -0.07279 0.0294044  0.0597728 -0.0640271 0.0247877  0.0696952 -0.0661224 0.0301197  0.0614147 -0.0621889 0.0278704  0.0804226 -0.0939542 0.0354784  0.076546 -0.0976074 0.0297248  0.0846134 -0.0858017 0.0363767  0.0888774 -0.0999117 0.034837  0.0809457 -0.0895845 0.0297797  0.0749445 -0.0817814 0.0339007  0.0785417 -0.0958158 0.0326126  0.071294 -0.0856233 0.02794  0.0826866 -0.0878599 0.0330429  0.0731529 -0.0838628 0.0308716  0.090441 -0.120298 0.0391884  0.0860795 -0.123812 0.0336151  0.0966247 -0.110902 0.0396316  0.0998588 -0.126491 0.038455  0.0925656 -0.114374 0.0333397  0.0855817 -0.106752 0.0371878  0.088217 -0.122514 0.0363657  0.0814844 -0.110366 0.0315313  0.0946959 -0.112826 0.0364513  0.0835571 -0.108745 0.0343299  0.0990846 -0.149729 0.0431912  0.0942137 -0.152654 0.0380688  0.107222 -0.13882 0.0432737  0.109581 -0.155464 0.0427277  0.102623 -0.142064 0.0374336  0.0949651 -0.134644 0.0410495  0.0967207 -0.151173 0.0406489  0.0903105 -0.137946 0.0357018  0.104749 -0.140579 0.0403087  0.0926592 -0.136438 0.0383151  0.106376 -0.181149 0.0480092  0.100971 -0.184038 0.0430946  0.116487 -0.16943 0.0476334  0.117602 -0.187162 0.0474696  0.111308 -0.17224 0.0421197  0.102904 -0.165112 0.0454218  0.103592 -0.183121 0.0455027  0.0977778 -0.168089 0.0404124  0.114024 -0.171029 0.0448518  0.100371 -0.166773 0.0428913  0.112222 -0.215306 0.0531397  0.106388 -0.217417 0.0486534  0.123934 -0.202148 0.0523531  0.124397 -0.220844 0.0528221  0.118424 -0.204848 0.0473063  0.109518 -0.197818 0.0503898  0.109387 -0.216337 0.0509205  0.103808 -0.20055 0.0456986  0.120934 -0.203623 0.0497751  0.106664 -0.199334 0.0479801  0.116822 -0.250721 0.0589998  0.110432 -0.252979 0.05476  0.130543 -0.237202 0.0578434  0.12955 -0.256495 0.0586777  0.124193 -0.23932 0.0531211  0.114724 -0.232698 0.0558777  0.11352 -0.252409 0.0568156  0.108604 -0.235028 0.0515189  0.127515 -0.238477 0.055476  0.111713 -0.234034 0.0536823  0.119986 -0.288599 0.0652282  0.113301 -0.289905 0.0613258  0.134788 -0.273633 0.0636075  0.133523 -0.294009 0.0649943  0.128514 -0.275835 0.0593197  0.118636 -0.269164 0.0618887  0.116719 -0.289289 0.0632977  0.11194 -0.271364 0.0578358  0.131358 -0.274871 0.0614021  0.115254 -0.270448 0.0598037  0.122105 -0.327114 0.0719829  0.11482 -0.328774 0.0683987  0.139053 -0.312232 0.0701435  0.136083 -0.332579 0.0718799  0.131536 -0.313658 0.0661705  0.121288 -0.307527 0.0684092  0.118354 -0.328471 0.0701082  0.114263 -0.309254 0.064667  0.135446 -0.313193 0.0681763  0.117851 -0.308574 0.0665355  0.122824 -0.367838 0.079247  0.115393 -0.368399 0.0758622  0.140206 -0.351445 0.0768588  0.137432 -0.373198 0.0790279  0.133333 -0.353204 0.0732672  0.122707 -0.346873 0.0753546  0.119147 -0.368292 0.0775597  0.115117 -0.348591 0.0718985  0.136466 -0.352493 0.0750005  0.11883 -0.347961 0.0735817  0.122728 -0.408722 0.08675  0.114643 -0.409826 0.0837865  0.142499 -0.392825 0.0843365  0.137741 -0.413799 0.086854  0.133857 -0.393585 0.0810494  0.123071 -0.387921 0.0828099  0.118606 -0.409689 0.0851684  0.115227 -0.389109 0.0796316  0.138311 -0.393481 0.0827391  0.119252 -0.388718 0.0812333  0.121295 -0.451532 0.0949819  0.113202 -0.45144 0.0920448  0.140764 -0.434042 0.0919135  0.136696 -0.456903 0.0947096  0.13344 -0.435398 0.088949  0.122257 -0.429422 0.0905845  0.117213 -0.451862 0.0934906  0.113873 -0.430695 0.0876696  0.136831 -0.434937 0.0903783  0.117923 -0.430332 0.0891044  0.119262 -0.494173 0.103095  0.110466 -0.494773 0.100707  0.141449 -0.47754 0.100219  0.135106 -0.498788 0.10339  0.131734 -0.477678 0.0975354  0.120632 -0.472454 0.0988636  0.114844 -0.494695 0.101785  0.112043 -0.473179 0.0961974  0.13667 -0.477903 0.0989447  0.116462 -0.473049 0.0975597  0.115992 -0.538406 0.112216  0.107295 -0.537776 0.109661  0.137097 -0.520111 0.108562  0.131932 -0.543821 0.111855  0.129429 -0.521108 0.106157  0.117862 -0.515511 0.107368  0.111503 -0.538713 0.110879  0.10878 -0.516367 0.104937  0.133061 -0.52088 0.107327  0.113115 -0.516244 0.106154  0.112298 -0.582296 0.120833  0.102875 -0.582455 0.118956  0.13648 -0.565148 0.117601  0.12878 -0.586418 0.121295  0.12579 -0.564729 0.115424  0.114554 -0.559916 0.116356  0.107647 -0.582352 0.119767  0.105288 -0.560252 0.114147  0.131131 -0.565235 0.116592  0.110053 -0.56035 0.115297  0.107501 -0.627418 0.130732  0.0982537 -0.62636 0.128509  0.129858 -0.608578 0.126595  0.12377 -0.632868 0.130266  0.121908 -0.609237 0.124698  0.110105 -0.604055 0.125498  0.102619 -0.62776 0.129523  0.100428 -0.604509 0.123498  0.125772 -0.609228 0.125645  0.105005 -0.604594 0.124525  0.102413 -0.672135 0.139755  0.0924518 -0.671906 0.138325  0.128173 -0.654629 0.136282  0.119358 -0.675776 0.140369  0.116648 -0.653737 0.134494  0.105412 -0.649302 0.135085  0.0975742 -0.671741 0.138906  0.0955434 -0.649323 0.133279  0.122309 -0.654468 0.135466  0.100605 -0.649615 0.134244  0.0964012 -0.71771 0.150328  0.0866404 -0.716337 0.148382  0.119702 -0.698547 0.145803  0.112817 -0.72315 0.149783  0.111472 -0.698892 0.144359  0.0995684 -0.694142 0.144774  0.0911357 -0.718105 0.149218  0.0893862 -0.694222 0.143148  0.115571 -0.699073 0.145116  0.0941648 -0.694473 0.144007  0.0901628 -0.762896 0.159691  0.0797377 -0.762353 0.158638  0.117088 -0.74516 0.156029  0.107379 -0.76612 0.160445  0.104905 -0.743906 0.154552  0.093776 -0.739804 0.154845  0.08517 -0.762115 0.159033  0.0833638 -0.739571 0.153387  0.11078 -0.744793 0.155353  0.0886645 -0.74002 0.15419  0.0831606 -0.808577 0.170748  0.0729995 -0.807042 0.169089  0.107213 -0.789333 0.165987  0.0996742 -0.813923 0.170261  0.0986464 -0.789348 0.164958  0.0867527 -0.785064 0.164975  0.0776494 -0.80897 0.169771  0.0761983 -0.784764 0.163696  0.103002 -0.789719 0.165536  0.0811634 -0.785167 0.164404  0.0760763 -0.854031 0.18032  0.0652411 -0.853196 0.179629  0.103706 -0.836032 0.176858  0.0934751 -0.856958 0.181347  0.0911579 -0.834532 0.175441  0.0801027 -0.830748 0.175516  0.070858 -0.852951 0.179842  0.0692835 -0.830344 0.1743  0.0971978 -0.835478 0.176195  0.0747764 -0.83086 0.174983  0.0684662 -0.899491 0.191867  0.0577219 -0.897815 0.190474  0.0931005 -0.88028 0.187076  0.0849178 -0.904786 0.191676  0.0839548 -0.879987 0.186216  0.0723107 -0.876194 0.186008  0.0624185 -0.899859 0.190988  0.0613337 -0.875552 0.184991  0.0887654 -0.880511 0.186747  0.066381 -0.876013 0.185539  0.0606053 -0.944886 0.202178  0.0493293 -0.943961 0.201464  0.0885315 -0.92696 0.198032  0.0778465 -0.947722 0.202914  0.0758352 -0.925466 0.197008  0.0649862 -0.921828 0.196633  0.0551558 -0.943799 0.201753  0.0536375 -0.921115 0.195697  0.0819433 -0.926317 0.197484  0.0592396 -0.921693 0.196186  0.0524781 -0.990458 0.213316  0.0414195 -0.988787 0.212136  0.0775011 -0.971729 0.208287  0.0688221 -0.994324 0.213938  0.0676322 -0.97057 0.208449  0.0562851 -0.96758 0.20775  0.047051 -0.989667 0.21267  0.0452876 -0.966216 0.206812  0.0726583 -0.971241 0.208481  0.0507374 -0.966836 0.207344  0.0444915 -1.03571 0.222324  0.0324783 -1.0344 0.223258  0.0720203 -1.01723 0.221674  0.0608084 -1.0394 0.225434  0.0595694 -1.0151 0.219501  0.0489135 -1.01244 0.219209  0.0380235 -1.03558 0.222989  0.0370739 -1.01156 0.21806  0.0656619 -1.01612 0.22056  0.043191 -1.01221 0.218765  0.0352507 -1.081 0.236346  0.0237131 -1.07758 0.235713  0.0636082 -1.06003 0.230369  0.0522075 -1.08555 0.238499  0.0506971 -1.06023 0.228825  0.0403106 -1.05639 0.230771  0.028492 -1.08065 0.235909  0.0280886 -1.0563 0.229889  0.0565298 -1.06106 0.229804  0.033257 -1.05685 0.230025  0.0306115 -1.12428 0.258302  0.0153208 -1.12618 0.249846  0.05427 -1.11209 0.237663  0.0391636 -1.12499 0.247086  0.0413365 -1.10839 0.244037  0.0323501 -1.1041 0.239942  0.0213096 -1.12531 0.254024  0.0191967 -1.10159 0.239842  0.0469053 -1.10837 0.240772  0.0249028 -1.1031 0.239614  0.0254817 -1.16639 0.263365  0.00803185 -1.17071 0.263451  0.0472155 -1.15308 0.252181  0.0225902 -1.17028 0.269873  0.0306084 -1.15111 0.257584  0.0284202 -1.15192 0.255792  0.015173 -1.17477 0.26524  0.013869 -1.14573 0.251537  0.0313368 -1.14475 0.252977  0.0214081 -1.14475 0.25246  -0.00981161 -0.0130614 -0.0100849  -0.00379162 -0.00852307 -0.00471592  0 0 0  -0.006944 -0.00977173 -0.00680375  0 0 0  -0.00463101 -0.00525176 -0.0068655  -0.00147742 -0.00290696 -0.00321722  0 0 0  -0.00351357 -0.00758757 -0.00575972  -0.00673514 -0.00847437 -0.00837111  -0.00212063 -0.00499678 -0.00378561  0 0 0  -0.00143855 -0.00234825 -0.00394821  -0.00203283 -0.00431337 -0.004637  -0.0227696 -0.0193636 -0.0148635  -0.0170579 -0.0177034 -0.0105712  -0.0182853 -0.0184191 -0.00999761  -0.013567 -0.0135714 -0.0101094  -0.00900641 -0.0105609 -0.00718546  -0.016406 -0.0156137 -0.0130391  -0.0178639 -0.0162923 -0.0124147  -0.0125975 -0.0137821 -0.00881124  -0.00887863 -0.00906245 -0.00890422  -0.012284 -0.0120019 -0.0108912  -0.0355851 -0.0293956 -0.0157597  -0.0299003 -0.0264672 -0.0126841  -0.0297822 -0.0291461 -0.010303  -0.0229248 -0.0245745 -0.0101893  -0.0187885 -0.020682 -0.00832963  -0.0291428 -0.0239278 -0.0157194  -0.0289636 -0.0267242 -0.0129008  -0.0240119 -0.0233671 -0.0104499  -0.018307 -0.0186314 -0.0104392  -0.023435 -0.0210599 -0.013006  -0.0482805 -0.0429356 -0.0139863  -0.0431366 -0.0383589 -0.0120618  -0.0411843 -0.0432489 -0.00851417  -0.0319712 -0.0391399 -0.00820947  -0.028515 -0.0336549 -0.00726485  -0.0419817 -0.0357156 -0.0151198  -0.0398276 -0.0408128 -0.01103  -0.0355204 -0.0357717 -0.00960803  -0.0274651 -0.0314214 -0.00938797  -0.0344301 -0.0333282 -0.0121837  -0.0606031 -0.0599255 -0.0106542  -0.0561166 -0.0535906 -0.00958014  -0.0523109 -0.0606464 -0.00537896  -0.0409058 -0.0570837 -0.00492263  -0.0380468 -0.0499325 -0.00468445  -0.054489 -0.0510308 -0.0124753  -0.0504488 -0.05831 -0.00772834  -0.0467804 -0.0515523 -0.00708079  -0.0364493 -0.0477116 -0.0066967  -0.0451663 -0.0491614 -0.00952315  -0.0725743 -0.0800396 -0.00630546  -0.068717 -0.0720184 -0.00591755  -0.0631899 -0.0810836 -0.00131917  -0.0497911 -0.0781103 -0.000744581  -0.0474319 -0.069347 -0.00107098  -0.0666317 -0.0696216 -0.00858665  -0.060881 -0.0789139 -0.00347137  -0.0577793 -0.0705031 -0.00344539  -0.0453506 -0.0672345 -0.0029285  -0.055686 -0.0682503 -0.00570035  -0.0842381 -0.10296 -0.00126457  -0.0809379 -0.0933735 -0.00143623  -0.0738631 -0.104299 0.00342488  -0.0586807 -0.101923 0.00411534  -0.0567303 -0.0916474 0.00329876  -0.0784418 -0.0911728 -0.00386596  -0.0711679 -0.102308 0.00147581  -0.0685494 -0.0923607 0.000977755  -0.054234 -0.0896871 0.00161004  -0.0660412 -0.0902832 -0.00107527  -0.095655 -0.128451 0.00433803  -0.0928299 -0.117405 0.00366235  -0.0843773 -0.13005 0.00873256  -0.067596 -0.128273 0.00952625  -0.0659862 -0.116586 0.00827599  -0.089976 -0.115408 0.00146866  -0.0813493 -0.128251 0.0069797  -0.0791366 -0.116871 0.00601387  -0.0631341 -0.114798 0.00675607  -0.0762702 -0.114981 0.00416183  -0.106871 -0.156273 0.0104115  -0.104456 -0.143885 0.00928164  -0.0947759 -0.158129 0.0145321  -0.0765628 -0.156931 0.0154324  -0.0752355 -0.143942 0.0137784  -0.101286 -0.142088 0.00731063  -0.0914551 -0.156511 0.0129678  -0.0895892 -0.143811 0.0115728  -0.0720723 -0.142328 0.0124214  -0.0864108 -0.142108 0.00991201  -0.117928 -0.186252 0.0169291  -0.115862 -0.17262 0.0153692  -0.105092 -0.188344 0.0207944  -0.085591 -0.187715 0.0217905  -0.0845021 -0.173513 0.0197608  -0.112419 -0.171012 0.0136111  -0.101514 -0.186909 0.0194035  -0.0999409 -0.172981 0.0176077  -0.081069 -0.172074 0.0185578  -0.0964901 -0.17146 0.01613  -0.128852 -0.218192 0.0238626  -0.127097 -0.203417 0.0219002  -0.115352 -0.220515 0.0274889  -0.0946941 -0.220422 0.0285842  -0.0938113 -0.205115 0.0261953  -0.123405 -0.201992 0.0203369  -0.111542 -0.219247 0.0262656  -0.110229 -0.204196 0.0240877  -0.0901331 -0.20384 0.0251367  -0.106532 -0.202849 0.0227792  -0.139662 -0.251938 0.0311975  -0.138183 -0.236112 0.0288534  -0.12557 -0.25448 0.0346103  -0.103872 -0.254905 0.0357971  -0.10317 -0.238572 0.0330644  -0.134272 -0.234854 0.0274751  -0.12155 -0.253374 0.0335391  -0.120464 -0.237286 0.0309987  -0.0992752 -0.237457 0.0321424  -0.116549 -0.236102 0.0298514  -0.150373 -0.287324 0.0389271  -0.149145 -0.270531 0.0362148  -0.135756 -0.290065 0.0421281  -0.113123 -0.290974 0.0434051  -0.112587 -0.273715 0.04035  -0.145028 -0.269439 0.0350082  -0.131544 -0.289112 0.0412052  -0.130668 -0.272079 0.0383198  -0.108487 -0.272752 0.0395555  -0.126549 -0.271054 0.0373206  -0.160985 -0.3242 0.0470271  -0.159993 -0.306529 0.0439694  -0.145913 -0.327133 0.0500448  -0.122445 -0.328507 0.0514038  -0.122058 -0.310388 0.0480356  -0.155694 -0.305589 0.0429275  -0.141525 -0.326327 0.0492532  -0.140837 -0.308425 0.0460393  -0.117778 -0.309572 0.0473607  -0.136538 -0.307549 0.0451827  -0.171507 -0.362421 0.0554981  -0.170727 -0.343945 0.0521035  -0.156034 -0.365515 0.0583215  -0.13182 -0.367312 0.0597551  -0.131578 -0.348438 0.0561023  -0.166255 -0.343155 0.0512111  -0.151485 -0.364848 0.0576606  -0.15098 -0.346168 0.054137  -0.127124 -0.347758 0.0555387  -0.146507 -0.345435 0.0534103  -0.181927 -0.401838 0.0642912  -0.181354 -0.382648 0.0605967  -0.166121 -0.405093 0.0669606  -0.141249 -0.407293 0.0684664  -0.141135 -0.387717 0.0645323  -0.176733 -0.381992 0.0598476  -0.161423 -0.404555 0.0664134  -0.161081 -0.385167 0.0625982  -0.136532 -0.387168 0.0640745  -0.156461 -0.384567 0.0619965  -0.192254 -0.44233 0.073431  -0.191868 -0.422483 0.0694327  -0.176155 -0.445702 0.0759187  -0.150702 -0.44826 0.0774875  -0.150723 -0.428085 0.0733037  -0.187101 -0.421963 0.068815  -0.171325 -0.445291 0.0754883  -0.171147 -0.425276 0.071399  -0.145971 -0.427658 0.0729425  -0.166378 -0.424804 0.0709107  -0.202468 -0.483744 0.0828402  -0.202267 -0.463332 0.0785871  -0.18614 -0.487243 0.0852008  -0.160183 -0.49014 0.0868313  -0.160318 -0.469407 0.0823987  -0.197378 -0.46293 0.0780931  -0.181185 -0.486944 0.0848646  -0.181153 -0.466369 0.080523  -0.155444 -0.469097 0.0821283  -0.176265 -0.466013 0.080142  -0.212579 -0.525982 0.0925624  -0.212549 -0.505054 0.0880413  -0.196051 -0.52956 0.0947599  -0.169656 -0.532753 0.0964355  -0.169919 -0.511559 0.0917926  -0.207535 -0.504772 0.0876601  -0.190989 -0.529373 0.0945246  -0.191109 -0.508311 0.0899441  -0.164918 -0.511357 0.0916057  -0.186093 -0.50807 0.0896609  -0.222566 -0.5689 0.102502  -0.222701 -0.547543 0.0977745  -0.205896 -0.572575 0.104596  -0.17913 -0.576043 0.10632  -0.179494 -0.554425 0.101464  -0.217592 -0.547365 0.0974967  -0.20073 -0.572482 0.104437  -0.200979 -0.550993 0.0996447  -0.174397 -0.554322 0.101352  -0.195872 -0.550852 0.0994506  -0.232444 -0.612424 0.112721  -0.232728 -0.590678 0.10776  -0.215648 -0.616139 0.114667  -0.188566 -0.619839 0.11642  -0.189052 -0.597888 0.111392  -0.227519 -0.5906 0.107576  -0.210399 -0.616145 0.114592  -0.210788 -0.594295 0.1096  -0.183849 -0.597878 0.111349  -0.205572 -0.594252 0.109488  -0.242188 -0.656413 0.1231  -0.24262 -0.634354 0.117983  -0.225319 -0.660192 0.124964  -0.197985 -0.664105 0.126758  -0.198557 -0.641847 0.121554  -0.237334 -0.634366 0.117883  -0.219991 -0.660274 0.12495  -0.220492 -0.638116 0.11979  -0.193282 -0.641919 0.12157  -0.215209 -0.638158 0.119749  -0.251825 -0.700804 0.133714  -0.252383 -0.67847 0.128403  -0.234889 -0.704594 0.135446  -0.207338 -0.708682 0.137253  -0.208025 -0.6862 0.131918  -0.247019 -0.678571 0.128377  -0.229496 -0.704762 0.135498  -0.23012 -0.682355 0.130179  -0.202664 -0.686351 0.131989  -0.224751 -0.682478 0.130203  -0.261324 -0.745481 0.144436  -0.26201 -0.722945 0.139007  -0.244373 -0.74931 0.146107  -0.21666 -0.753549 0.14794  -0.217419 -0.73087 0.142471  -0.256596 -0.723113 0.13905  -0.238921 -0.74953 0.146201  -0.239641 -0.726927 0.140758  -0.212007 -0.731082 0.14259  -0.234222 -0.727116 0.140834  -0.270733 -0.790401 0.15534  -0.27152 -0.767684 0.149771  -0.253749 -0.794219 0.156903  -0.225907 -0.798573 0.158732  -0.226759 -0.775757 0.153167  -0.266036 -0.767925 0.149867  -0.24826 -0.794504 0.157048  -0.249075 -0.771737 0.15149  -0.221287 -0.776037 0.153314  -0.243599 -0.771997 0.151619  -0.280015 -0.835446 0.166255  -0.280897 -0.81261 0.160642  -0.263049 -0.839295 0.167832  -0.23513 -0.843743 0.169681  -0.236032 -0.820821 0.164019  -0.275387 -0.812894 0.160774  -0.257509 -0.839613 0.168014  -0.258405 -0.816743 0.162349  -0.230522 -0.821138 0.164211  -0.252899 -0.817035 0.162504  -0.289228 -0.88063 0.177427  -0.290204 -0.857656 0.171638  -0.272255 -0.884398 0.178824  -0.244236 -0.888939 0.180641  -0.24525 -0.865965 0.174953  -0.284621 -0.858037 0.171825  -0.266682 -0.884798 0.179038  -0.267662 -0.861832 0.173275  -0.239702 -0.866351 0.175145  -0.26209 -0.862213 0.17346  -0.298416 -0.925718 0.188518  -0.29937 -0.902857 0.182722  -0.281381 -0.929585 0.189853  -0.253384 -0.934161 0.191723  -0.254424 -0.911196 0.186001  -0.293849 -0.903217 0.182873  -0.27584 -0.929961 0.19001  -0.276854 -0.907084 0.184369  -0.248817 -0.911564 0.186273  -0.271284 -0.907414 0.18458  -0.307422 -0.970925 0.199452  -0.308453 -0.947933 0.193861  -0.290533 -0.974836 0.20093  -0.262512 -0.979389 0.202796  -0.263444 -0.956342 0.197023  -0.302992 -0.948409 0.19407  -0.284957 -0.975237 0.201091  -0.285943 -0.952118 0.195489  -0.257932 -0.956747 0.197229  -0.280433 -0.952617 0.195715  -0.315912 -1.01631 0.21011  -0.31754 -0.993205 0.204936  -0.299425 -1.0202 0.212389  -0.271665 -1.02471 0.214191  -0.272565 -1.00145 0.208187  -0.311732 -0.993495 0.205401  -0.293949 -1.02041 0.212667  -0.294964 -0.997306 0.206621  -0.267072 -1.00191 0.20838  -0.289443 -0.997709 0.206934  -0.325224 -1.06176 0.222681  -0.326335 -1.03822 0.215777  -0.308384 -1.06486 0.223192  -0.280194 -1.06977 0.224851  -0.281563 -1.04673 0.219387  -0.320521 -1.03914 0.21632  -0.303185 -1.06574 0.223377  -0.30376 -1.04258 0.217412  -0.275997 -1.0471 0.21964  -0.298395 -1.04287 0.217573  -0.336225 -1.10682 0.233297  -0.335284 -1.08376 0.226294  -0.317082 -1.10975 0.233886  -0.28856 -1.11548 0.235647  -0.290661 -1.09208 0.23049  -0.330187 -1.08422 0.226093  -0.312401 -1.11108 0.234573  -0.313303 -1.0883 0.228822  -0.284217 -1.09232 0.231204  -0.307572 -1.08778 0.22931  -0.00335594 -0.00415428 -0.00445294  0 0 0  -0.00219247 -0.00203104 -0.00418162  -0.000716206 -0.000733435 -0.00200343  0 0 0  -0.00330692 -0.00326245 -0.00548673  -0.00102202 -0.00158051 -0.002563  0 0 0  -0.000683848 -0.00035581 -0.00243974  -0.000993408 -0.00112063 -0.00314188  -0.0102224 -0.0129796 -0.00631046  -0.00677757 -0.00990775 -0.00578713  -0.00443344 -0.0065598 -0.00425768  -0.00996862 -0.0113955 -0.00790834  -0.00652637 -0.00815958 -0.00567317  -0.00428346 -0.00547723 -0.00527668  -0.00641012 -0.00689539 -0.00703621  -0.0180929 -0.0248878 -0.00591159  -0.0122162 -0.0217669 -0.00511646  -0.0099588 -0.0169853 -0.00440884  -0.0173575 -0.022932 -0.00761533  -0.0141402 -0.0185324 -0.00633478  -0.00947094 -0.0153926 -0.00566292  -0.013678 -0.0167282 -0.00801158  -0.0259422 -0.0399784 -0.00385809  -0.0177312 -0.0371193 -0.00288701  -0.0159983 -0.0308549 -0.00288963  -0.0246337 -0.0379102 -0.00550222  -0.0220297 -0.0320175 -0.00504112  -0.0149725 -0.0290141 -0.00415087  -0.0210033 -0.0299887 -0.00672674  -0.0337234 -0.058276 -0.000689507  -0.0233334 -0.0557936 0.000380278  -0.0220712 -0.0479614 -0.000172853  -0.0319003 -0.0562442 -0.00222611  -0.0298361 -0.0487348 -0.00238872  -0.0205124 -0.0460585 -0.00136423  -0.0282623 -0.0466781 -0.00398469  -0.0415111 -0.0795652 0.00329494  -0.0291258 -0.0775174 0.00443769  -0.0282241 -0.0681437 0.0034132  -0.0392416 -0.0776403 0.00189209  -0.0376109 -0.0685576 0.00121236  -0.0262019 -0.0662929 0.00231743  -0.0355576 -0.0665797 -0.000260115  -0.0493639 -0.1036 0.00792813  -0.035173 -0.102019 0.00912237  -0.0345432 -0.091177 0.0076921  -0.0467135 -0.101821 0.0066607  -0.0454252 -0.0912475 0.00553465  -0.0321143 -0.089436 0.00670409  -0.0429587 -0.0893994 0.00419974  -0.0573208 -0.130151 0.0131187  -0.0414973 -0.129057 0.01437  -0.0410718 -0.116837 0.012552  -0.0543422 -0.128534 0.0119903  -0.053326 -0.116568 0.0104558  -0.0382999 -0.115237 0.0116735  -0.0505076 -0.114878 0.00925851  -0.0654078 -0.15901 0.0188134  -0.0481112 -0.158402 0.0201142  -0.0478466 -0.1449 0.0179493  -0.0621405 -0.157555 0.0178132  -0.0613452 -0.144298 0.0159039  -0.0447674 -0.143452 0.0171783  -0.0582196 -0.142769 0.0148418  -0.0736374 -0.189978 0.024977  -0.0550114 -0.189857 0.0263391  -0.0548716 -0.17517 0.0238307  -0.0701156 -0.18869 0.0241034  -0.069502 -0.174236 0.0218351  -0.051525 -0.173878 0.0231621  -0.0661063 -0.172873 0.0208998  -0.0820205 -0.22288 0.0315905  -0.0621887 -0.223223 0.0330026  -0.0621567 -0.207449 0.0301831  -0.0782644 -0.221741 0.0308294  -0.0778078 -0.206192 0.0282283  -0.058566 -0.206309 0.0296111  -0.0741681 -0.204986 0.0274138  -0.0905511 -0.257529 0.0386312  -0.0696354 -0.258333 0.0401008  -0.0696896 -0.24156 0.036972  -0.0865879 -0.256551 0.0379841  -0.0862658 -0.239989 0.0350552  -0.0658767 -0.24057 0.0364921  -0.0824054 -0.23894 0.034354  -0.099233 -0.293778 0.0460875  -0.0773315 -0.295009 0.0476053  -0.0774686 -0.277329 0.0441921  -0.0950701 -0.292933 0.045537  -0.0948709 -0.275458 0.0423083  -0.0734538 -0.27648 0.0437958  -0.0908096 -0.274553 0.0417123  -0.108044 -0.331448 0.0539336  -0.0852672 -0.333098 0.0555029  -0.0854719 -0.314594 0.0518134  -0.10371 -0.330756 0.0534859  -0.103622 -0.312437 0.0499597  -0.0812658 -0.313884 0.0514982  -0.099372 -0.311677 0.0494635  -0.116985 -0.370414 0.0621579  -0.0934111 -0.372439 0.0637696  -0.0936893 -0.353197 0.0598254  -0.112478 -0.369835 0.0617912  -0.112496 -0.350774 0.0580008  -0.0893165 -0.352614 0.0595832  -0.108078 -0.350145 0.057596  -0.126021 -0.410496 0.0707283  -0.101751 -0.412892 0.0723853  -0.102093 -0.392987 0.0681977  -0.121374 -0.410064 0.0704541  -0.121491 -0.390315 0.0663972  -0.0975503 -0.392531 0.0680277  -0.116911 -0.389818 0.0660801  -0.135155 -0.451602 0.0796435  -0.110254 -0.454315 0.0813363  -0.110662 -0.433825 0.0769207  -0.130358 -0.451261 0.0794365  -0.130573 -0.430927 0.0751464  -0.105987 -0.433481 0.0768116  -0.125856 -0.430545 0.0749092  -0.144345 -0.493548 0.0888591  -0.118902 -0.496578 0.0905864  -0.119376 -0.475573 0.085964  -0.139434 -0.493344 0.0887332  -0.139744 -0.472468 0.0842113  -0.114551 -0.475342 0.085917  -0.134886 -0.472202 0.0840495  -0.153597 -0.536274 0.0983756  -0.127664 -0.539562 0.100133  -0.128206 -0.518111 0.0953128  -0.148558 -0.536142 0.0983055  -0.14896 -0.51482 0.0935838  -0.123274 -0.517977 0.095315  -0.14399 -0.514655 0.0934887  -0.162863 -0.579596 0.108145  -0.136528 -0.583146 0.109926  -0.137137 -0.561313 0.104936  -0.157737 -0.579592 0.108142  -0.158228 -0.557857 0.103227  -0.132071 -0.561278 0.104991  -0.153141 -0.557793 0.103195  -0.172162 -0.623482 0.118175  -0.145459 -0.627231 0.119978  -0.146131 -0.605076 0.114819  -0.166927 -0.623528 0.118216  -0.167506 -0.601475 0.113133  -0.140991 -0.60512 0.114913  -0.162331 -0.601497 0.113155  -0.181439 -0.667749 0.128412  -0.154445 -0.671708 0.130225  -0.155189 -0.649286 0.124935  -0.176139 -0.667911 0.128508  -0.176805 -0.645562 0.123267  -0.149931 -0.649416 0.125072  -0.171529 -0.645669 0.12334  -0.190715 -0.712396 0.138856  -0.163462 -0.716494 0.140686  -0.164267 -0.693865 0.135257  -0.185332 -0.712584 0.138982  -0.186074 -0.690032 0.133614  -0.158957 -0.694057 0.135421  -0.180739 -0.690209 0.133728  -0.199958 -0.757249 0.149455  -0.172503 -0.761503 0.151291  -0.173374 -0.738711 0.145769  -0.19452 -0.757534 0.149625  -0.195342 -0.734791 0.144133  -0.167965 -0.73897 0.145965  -0.189927 -0.735032 0.144281  -0.209169 -0.80232 0.160225  -0.181547 -0.80667 0.162067  -0.182464 -0.783751 0.156432  -0.203671 -0.802624 0.160413  -0.204563 -0.779757 0.154823  -0.177031 -0.784057 0.156646  -0.199097 -0.780058 0.155006  -0.218333 -0.84745 0.171083  -0.190583 -0.851914 0.17289  -0.191562 -0.828902 0.167254  -0.212821 -0.847845 0.171293  -0.213754 -0.824869 0.165645  -0.186047 -0.829269 0.167495  -0.208242 -0.825211 0.16585  -0.227468 -0.892693 0.182068  -0.199657 -0.89718 0.183928  -0.20067 -0.874157 0.178154  -0.22191 -0.893056 0.182282  -0.222908 -0.870071 0.176573  -0.195134 -0.874537 0.178399  -0.217381 -0.870468 0.176798  -0.236581 -0.937948 0.193096  -0.208695 -0.942419 0.194932  -0.209678 -0.91943 0.189151  -0.230986 -0.938298 0.193344  -0.232023 -0.915297 0.187585  -0.204156 -0.91979 0.18938  -0.226457 -0.915679 0.187826  -0.245685 -0.98312 0.204107  -0.217592 -0.987735 0.206083  -0.218785 -0.964616 0.200207  -0.23994 -0.983577 0.20437  -0.241093 -0.960502 0.198593  -0.213143 -0.965065 0.200455  -0.235466 -0.960891 0.198855  -0.2547 -1.02802 0.21522  -0.226576 -1.0329 0.216844  -0.22773 -1.0097 0.211489  -0.248972 -1.02906 0.21556  -0.250216 -1.00556 0.20959  -0.222078 -1.01031 0.211836  -0.244368 -1.00621 0.209903  -0.26358 -1.0737 0.226421  -0.235671 -1.07779 0.228693  -0.236845 -1.05524 0.22254  -0.257912 -1.07354 0.226651  -0.25924 -1.05097 0.220875  -0.231368 -1.05553 0.222752  -0.253482 -1.0515 0.221023  -0.272052 -1.1186 0.237341  -0.244116 -1.12298 0.239284  -0.245611 -1.1007 0.232785  -0.267632 -1.11865 0.237329  -0.267825 -1.09613 0.232014  -0.239895 -1.10065 0.233171  -0.262866 -1.09642 0.231876  -0.00135324 -0.00200379 -0.00238085  0 0 0  -0.00042133 -0.00106576 -0.00157332  -0.000179365 -3.60608e-06 -0.000882864  0 0 0  -0.0012518 -0.00135347 -0.00286412  -0.000413913 -0.000237167 -0.00143147  0 0 0  -0.000134729 0.000255048 -0.000987768  -0.000378657 7.16746e-05 -0.00170112  -0.00438663 -0.0102212 -0.00288987  -0.00147985 -0.00867194 -0.0015831  -0.00115176 -0.00511631 -0.00146341  -0.00402763 -0.00902271 -0.00366068  -0.00270632 -0.00558203 -0.00283933  -0.000872448 -0.00429469 -0.00174761  -0.00249733 -0.00464571 -0.00348902  -0.00829786 -0.0226613 -0.00182033  -0.00304052 -0.0209118 -0.000257492  -0.00285342 -0.0155885 -0.00067234  -0.00749996 -0.0210891 -0.00265622  -0.00628144 -0.0160088 -0.00251412  -0.00221482 -0.0143187 -0.00106215  -0.00572515 -0.0145947 -0.00333238  -0.0125069 -0.038501 0.000471592  -0.00494117 -0.0368422 0.00212955  -0.0050399 -0.0299819 0.00123477  -0.011202 -0.036763 -0.0003407  -0.0103819 -0.030173 -0.000795126  -0.00394949 -0.0284493 0.00082469  -0.00932822 -0.0284993 -0.00162601  -0.0169094 -0.0575015 0.00366235  -0.00720257 -0.05607 0.00535583  -0.00756752 -0.0476959 0.00404191  -0.0151313 -0.055735 0.00290751  -0.0146788 -0.0476146 0.00196981  -0.00602299 -0.0460583 0.00365043  -0.0131324 -0.0458518 0.00118184  -0.0215685 -0.0794356 0.00757861  -0.00989485 -0.0783192 0.00927162  -0.0104524 -0.068455 0.00758576  -0.019375 -0.0777417 0.0068953  -0.0192015 -0.0681083 0.00553751  -0.00848883 -0.0668293 0.00723553  -0.0172088 -0.0663755 0.00481772  -0.0265496 -0.104116 0.0121047  -0.0130804 -0.103353 0.0138052  -0.013759 -0.0920478 0.0117698  -0.023991 -0.102527 0.0115025  -0.0240148 -0.0914418 0.00976682  -0.0114236 -0.090498 0.0114682  -0.021634 -0.0898002 0.00912428  -0.0318797 -0.131294 0.0171881  -0.0167766 -0.130923 0.0188861  -0.0175294 -0.118263 0.0165288  -0.029005 -0.129849 0.0166638  -0.0291683 -0.117399 0.0145781  -0.0148627 -0.11683 0.0162821  -0.026447 -0.115884 0.0140178  -0.0375806 -0.160792 0.0227807  -0.0209856 -0.160821 0.0244923  -0.0217782 -0.146889 0.0218236  -0.0344195 -0.159486 0.0223382  -0.0346819 -0.14576 0.0199194  -0.0188165 -0.145588 0.0216308  -0.0316622 -0.144387 0.0194383  -0.0436426 -0.192376 0.0288584  -0.0256934 -0.192819 0.0305765  -0.0265061 -0.177721 0.027621  -0.0402281 -0.191226 0.028486  -0.0405642 -0.176327 0.0257583  -0.0232759 -0.17656 0.0274813  -0.0372735 -0.175102 0.0253563  -0.0500671 -0.225893 0.0353978  -0.030883 -0.226739 0.0371313  -0.0316992 -0.210561 0.0338955  -0.0464181 -0.224884 0.0351007  -0.0468092 -0.2089 0.0320685  -0.0282272 -0.209542 0.0338061  -0.0432761 -0.207822 0.0317385  -0.056831 -0.261129 0.0423703  -0.0365291 -0.262371 0.0441198  -0.0373467 -0.245218 0.0406251  -0.052969 -0.260266 0.0421336  -0.0534041 -0.243296 0.0388291  -0.0336483 -0.244337 0.0405805  -0.049647 -0.242362 0.038569  -0.0639228 -0.297942 0.0497692  -0.0426037 -0.299567 0.0515323  -0.0434161 -0.281519 0.0477848  -0.059863 -0.297215 0.0496001  -0.0603359 -0.279344 0.0460138  -0.0395097 -0.280773 0.0477872  -0.0563735 -0.278548 0.0458174  -0.0713174 -0.336148 0.0575602  -0.0490814 -0.338128 0.0593462  -0.0498916 -0.319284 0.0553615  -0.0670735 -0.335547 0.05744  -0.0675793 -0.31687 0.0536139  -0.0457915 -0.318666 0.0554011  -0.0634259 -0.316205 0.053478  -0.0789897 -0.375602 0.0657382  -0.0559288 -0.377934 0.0675309  -0.056734 -0.358366 0.0633261  -0.0745792 -0.375134 0.065681  -0.07512 -0.355721 0.0615985  -0.0524542 -0.357872 0.0634062  -0.0707899 -0.355185 0.0615182  -0.0869147 -0.416157 0.0742598  -0.0631119 -0.418791 0.0760803  -0.0639206 -0.398595 0.0716631  -0.0823423 -0.415792 0.0742412  -0.0829169 -0.395741 0.0699534  -0.0594771 -0.398214 0.0717747  -0.0784239 -0.395321 0.0699253  -0.0950565 -0.457664 0.0831358  -0.0705998 -0.460612 0.0849528  -0.0714111 -0.439843 0.0803437  -0.090349 -0.457428 0.0831735  -0.0909592 -0.43679 0.0786524  -0.0668112 -0.439576 0.0804892  -0.0863161 -0.436486 0.0786717  -0.1034 -0.500017 0.0923052  -0.0783517 -0.503206 0.0941539  -0.0791774 -0.481961 0.0893579  -0.0985501 -0.499855 0.0923727  -0.0991983 -0.478733 0.0876815  -0.0744414 -0.481791 0.0895278  -0.094419 -0.47853 0.0877433  -0.111898 -0.543049 0.101788  -0.0863445 -0.546515 0.103619  -0.0871825 -0.524835 0.0986662  -0.10694 -0.543016 0.101904  -0.10763 -0.521443 0.0970075  -0.0823092 -0.524765 0.0988636  -0.102722 -0.521342 0.0971086  -0.120548 -0.586707 0.111514  -0.0945339 -0.590353 0.113382  -0.0953965 -0.568332 0.108264  -0.115464 -0.586723 0.111652  -0.1162 -0.564801 0.106617  -0.0904133 -0.568342 0.108479  -0.111177 -0.564785 0.106753  -0.129292 -0.630813 0.121516  -0.102901 -0.634691 0.123358  -0.103786 -0.612356 0.11811  -0.124129 -0.63095 0.121695  -0.124908 -0.608696 0.116482  -0.0986848 -0.612453 0.118348  -0.11978 -0.608768 0.116649  -0.138139 -0.675349 0.131705  -0.111403 -0.679351 0.133582  -0.112317 -0.656794 0.128201  -0.132871 -0.675512 0.131897  -0.133697 -0.653027 0.126584  -0.107135 -0.656955 0.12845  -0.12848 -0.65317 0.126776  -0.147036 -0.720134 0.142126  -0.120027 -0.724329 0.143963  -0.120974 -0.701558 0.138495  -0.141704 -0.720407 0.142351  -0.142582 -0.6977 0.13689  -0.11569 -0.701794 0.13876  -0.137276 -0.697915 0.137106  -0.155993 -0.765183 0.152686  -0.128727 -0.769456 0.154557  -0.129717 -0.746562 0.148979  -0.150574 -0.765466 0.152916  -0.151502 -0.742632 0.147389  -0.124365 -0.746847 0.149256  -0.146126 -0.7429 0.147624  -0.164954 -0.810336 0.163444  -0.137524 -0.814719 0.165274  -0.138544 -0.791732 0.159618  -0.159512 -0.810699 0.163698  -0.160474 -0.787739 0.158047  -0.133102 -0.792072 0.159896  -0.155036 -0.788058 0.158293  -0.17397 -0.855619 0.174267  -0.146377 -0.860049 0.176133  -0.147399 -0.836999 0.170401  -0.168437 -0.855971 0.174524  -0.169444 -0.832939 0.168824  -0.141954 -0.837366 0.170661  -0.163967 -0.833313 0.169067  -0.182967 -0.900877 0.185233  -0.155228 -0.905434 0.187115  -0.156328 -0.882289 0.181339  -0.177402 -0.901325 0.185489  -0.178467 -0.878233 0.179744  -0.150783 -0.882706 0.181614  -0.172901 -0.878616 0.180027  -0.192007 -0.946087 0.196222  -0.164066 -0.950742 0.19809  -0.165246 -0.927627 0.192358  -0.186337 -0.946588 0.196508  -0.187487 -0.923512 0.190765  -0.159626 -0.928061 0.192672  -0.181869 -0.923921 0.191017  -0.200872 -0.991391 0.20746  -0.17299 -0.995716 0.209033  -0.174137 -0.972946 0.203368  -0.195366 -0.991713 0.207787  -0.196493 -0.968769 0.201913  -0.168554 -0.973338 0.20368  -0.190856 -0.969254 0.202177  -0.210072 -1.03667 0.21851  -0.182009 -1.04103 0.220381  -0.183206 -1.018 0.21443  -0.204324 -1.0367 0.21874  -0.205343 -1.01389 0.21284  -0.177626 -1.01849 0.214647  -0.199903 -1.01436 0.212971  -0.218756 -1.08157 0.229726  -0.191098 -1.08688 0.232223  -0.192323 -1.06305 0.225883  -0.213365 -1.08263 0.230146  -0.214619 -1.0591 0.224305  -0.186475 -1.0638 0.226145  -0.20889 -1.05962 0.224899  -0.2274 -1.12679 0.240473  -0.199843 -1.13269 0.24298  -0.200711 -1.10857 0.237225  -0.221785 -1.12781 0.240599  -0.223115 -1.10485 0.235776  -0.195043 -1.10858 0.237623  -0.217414 -1.10446 0.236685  0.000173241 -0.00159547 -0.000370741  0 0 0  0.00110263 -0.00141463 0.00100303  0.000267975 -0.000108719 0.00022459  0 0 0  0.000357211 -0.00110132 -0.000270367  5.42477e-05 3.09944e-05 -0.000321388  0 0 0  0.000331081 7.66516e-05 0.000470638  0.000107013 0.000247598 -0.000249386  0.000371456 -0.0097487 0.000411987  0.00323132 -0.0093531 0.00249934  0.00167882 -0.00545898 0.00123978  0.000906348 -0.00879377 0.000486374  0.000291705 -0.00508913 -9.10759e-05  0.0021105 -0.00480676 0.00169611  0.000643 -0.00436249 -2.86102e-06  0.000279248 -0.0225078 0.00208163  0.00537294 -0.0219762 0.00438833  0.00351316 -0.0162455 0.00289798  0.00121072 -0.0212103 0.00210762  0.000371188 -0.015675 0.00114441  0.00434047 -0.0151922 0.0033679  0.00110045 -0.0145256 0.00118971  -0.000232667 -0.0388424 0.0045433  0.00706607 -0.0382964 0.00688195  0.00509724 -0.0310175 0.00512505  0.00111276 -0.0373517 0.0045476  7.99894e-05 -0.0302645 0.00322032  0.0062882 -0.0297129 0.00554943  0.00121751 -0.0288561 0.00323105  -0.00121742 -0.0583321 0.00773025  0.00814652 -0.0579084 0.0100276  0.00612926 -0.0491299 0.00797629  0.000528038 -0.0567941 0.00774217  -0.000662684 -0.0482008 0.00605154  0.00768977 -0.0477082 0.00837016  0.000885665 -0.0466778 0.00605726  -0.00273752 -0.0807562 0.0115561  0.0085361 -0.0805275 0.0138175  0.00651979 -0.0702821 0.0114582  -0.000619888 -0.0792452 0.0115836  -0.00190431 -0.0691803 0.00956559  0.00843042 -0.068852 0.0118401  2.93255e-05 -0.0676566 0.00958276  -0.00482672 -0.105904 0.0159898  0.00820524 -0.105955 0.0181878  0.0062148 -0.0942763 0.0155437  -0.00237501 -0.104493 0.0160456  -0.0037092 -0.0929915 0.0137014  0.00846308 -0.0929044 0.0159225  -0.00142026 -0.0915325 0.0137432  -0.00751579 -0.133586 0.0209632  0.00713515 -0.13393 0.0231404  0.00521272 -0.120907 0.0202045  -0.00475478 -0.132278 0.0210457  -0.00609177 -0.119431 0.0184076  0.00776285 -0.119631 0.020587  -0.00348568 -0.118079 0.0184753  -0.0107868 -0.16357 0.026479  0.00535238 -0.164264 0.0285935  0.0034945 -0.14997 0.0254009  -0.00775278 -0.162408 0.026593  -0.00907874 -0.148289 0.0236592  0.00633359 -0.148817 0.0257876  -0.00617707 -0.147063 0.0237579  -0.0146475 -0.195678 0.0324624  0.00285518 -0.196695 0.0345831  0.00109589 -0.18125 0.0311191  -0.011353 -0.194635 0.0326049  -0.0126384 -0.179359 0.0294094  0.00419462 -0.180218 0.0315118  -0.00947785 -0.178265 0.0295346  -0.0190576 -0.22968 0.0389514  -0.000305057 -0.231065 0.0410078  -0.00198662 -0.214546 0.0373228  -0.015533 -0.228791 0.0391188  -0.0167849 -0.212436 0.0356534  0.00135708 -0.21365 0.0377188  -0.0133706 -0.211483 0.0358069  -0.0240108 -0.265426 0.045845  -0.00412059 -0.267126 0.0479355  -0.00569987 -0.249655 0.0439951  -0.0202605 -0.26465 0.0460441  -0.021461 -0.247334 0.0423448  -0.00212693 -0.248879 0.0443954  -0.0178292 -0.246509 0.0425217  -0.0294572 -0.302697 0.0532174  -0.00852549 -0.304752 0.0552363  -0.0100332 -0.286397 0.0511062  -0.0255095 -0.302069 0.0534313  -0.0266732 -0.283862 0.0494883  -0.00625134 -0.285753 0.0515099  -0.0228183 -0.283174 0.0496895  -0.0353816 -0.341365 0.0609374  -0.0135114 -0.34371 0.06301  -0.0149289 -0.324588 0.0586429  -0.0312388 -0.340842 0.0611856  -0.0323539 -0.321852 0.0570328  -0.0109375 -0.324055 0.0590475  -0.0283154 -0.321281 0.0572531  -0.0417343 -0.381234 0.0691028  -0.0190098 -0.383899 0.0710919  -0.0203611 -0.36407 0.0665727  -0.0374205 -0.380843 0.0693545  -0.0385056 -0.361138 0.0649865  -0.0162009 -0.363655 0.0669765  -0.0342696 -0.360696 0.0652266  -0.0484867 -0.422183 0.0775595  -0.025001 -0.425104 0.0796158  -0.0262883 -0.404676 0.0748773  -0.044006 -0.42189 0.0778484  -0.0450544 -0.401568 0.073297  -0.0219309 -0.404363 0.07528  -0.0406644 -0.401226 0.0735519  -0.0555975 -0.464053 0.0864313  -0.0314238 -0.467248 0.0883958  -0.0326545 -0.446272 0.0835381  -0.0509696 -0.463873 0.0867124  -0.0519989 -0.442992 0.0819709  -0.0281651 -0.44606 0.0839362  -0.0474343 -0.442768 0.0822415  -0.063025 -0.506719 0.0955379  -0.0382478 -0.510133 0.0975766  -0.0394447 -0.488706 0.0925214  -0.0582578 -0.506629 0.0958586  -0.0592661 -0.48528 0.0909598  -0.0347703 -0.488586 0.0929165  -0.0545759 -0.485141 0.0912397  -0.070744 -0.550061 0.105022  -0.0454218 -0.553697 0.106963  -0.0465708 -0.531866 0.101819  -0.0658479 -0.550062 0.105322  -0.0668504 -0.528298 0.100264  -0.0417988 -0.531827 0.102207  -0.0620058 -0.528262 0.100555  -0.0786932 -0.593947 0.114692  -0.0529065 -0.597769 0.116708  -0.0540543 -0.575612 0.11139  -0.0736866 -0.594034 0.115035  -0.0746856 -0.571931 0.109842  -0.0491068 -0.575659 0.111772  -0.0697398 -0.571964 0.110139  -0.0868716 -0.638308 0.124694  -0.0606625 -0.642293 0.126614  -0.0617719 -0.61986 0.121232  -0.0817525 -0.638459 0.125005  -0.0827568 -0.616066 0.119685  -0.0567596 -0.619968 0.121605  -0.0776789 -0.616189 0.11999  -0.095211 -0.682993 0.134835  -0.0686498 -0.687134 0.136824  -0.0697806 -0.664481 0.131297  -0.0899992 -0.683226 0.135189  -0.0910187 -0.660604 0.129754  -0.0646093 -0.664667 0.131664  -0.0858583 -0.660784 0.13006  -0.103709 -0.727986 0.145261  -0.0768423 -0.732227 0.147155  -0.0779414 -0.709411 0.141589  -0.0984144 -0.728256 0.145577  -0.0994446 -0.70545 0.140051  -0.0727303 -0.709643 0.141944  -0.0941715 -0.705707 0.14036  -0.112298 -0.773124 0.155788  -0.0851967 -0.777492 0.15774  -0.0863373 -0.75454 0.152056  -0.106957 -0.77346 0.15613  -0.107988 -0.75053 0.150531  -0.0809822 -0.754836 0.152401  -0.102676 -0.750816 0.150833  -0.121038 -0.818409 0.166529  -0.0936923 -0.822851 0.168412  -0.0948036 -0.799805 0.162699  -0.115574 -0.818771 0.166834  -0.11665 -0.795747 0.161152  -0.0894275 -0.800128 0.163036  -0.111241 -0.796091 0.161466  -0.129837 -0.863708 0.17737  -0.102285 -0.868263 0.179265  -0.103449 -0.845141 0.173484  -0.124283 -0.86417 0.177707  -0.125429 -0.841053 0.171933  -0.0979536 -0.845533 0.173815  -0.119917 -0.841449 0.172248  -0.138595 -0.909106 0.18836  -0.110955 -0.913537 0.190224  -0.11217 -0.890541 0.184412  -0.133113 -0.909453 0.18868  -0.13423 -0.886396 0.182868  -0.106644 -0.890944 0.184717  -0.128677 -0.886839 0.18314  -0.147418 -0.954419 0.199373  -0.119784 -0.958938 0.201271  -0.120987 -0.935967 0.195413  -0.142062 -0.954795 0.199613  -0.143003 -0.931814 0.193912  -0.115358 -0.936352 0.195689  -0.137601 -0.932157 0.194098  -0.15664 -0.999512 0.210394  -0.128644 -1.00446 0.212389  -0.12971 -0.980995 0.206536  -0.150696 -1.00009 0.210599  -0.151971 -0.976938 0.204881  -0.124154 -0.981447 0.206833  -0.14639 -0.977322 0.205243  -0.165406 -1.04482 0.221856  -0.137397 -1.04969 0.223547  -0.138492 -1.02597 0.217777  -0.159367 -1.04561 0.222211  -0.161057 -1.02194 0.216192  -0.132871 -1.02675 0.218114  -0.154968 -1.02271 0.216886  -0.174275 -1.09024 0.232951  -0.145984 -1.0935 0.235444  -0.147758 -1.07186 0.22911  -0.168455 -1.08991 0.233195  -0.169621 -1.0676 0.227178  -0.141962 -1.07213 0.229383  -0.163973 -1.06815 0.227122  -0.182597 -1.13504 0.244732  -0.154739 -1.13948 0.246299  -0.156602 -1.11775 0.240184  -0.178267 -1.1356 0.245377  -0.178842 -1.11284 0.23794  -0.150757 -1.11756 0.240422  -0.173384 -1.11297 0.237513  0.00158562 -0.00239611 0.00156045  0 0 0  0.00265077 -0.00286669 0.00344372  0.000721149 -0.000896752 0.00127172  0 0 0  0.00186048 -0.00200057 0.00224686  0.000487387 -0.000411689 0.000758171  0 0 0  0.000804134 -0.000745296 0.00186324  0.000559315 -0.000249565 0.00117755  0.00484356 -0.0111414 0.00354433  0.00795847 -0.0117584 0.00631189  0.00453916 -0.00736678 0.00375938  0.00556821 -0.01034 0.00445056  0.0030846 -0.00621486 0.00252891  0.00511926 -0.00679862 0.00493121  0.00359213 -0.00561631 0.00334811  0.00845185 -0.0243155 0.00573158  0.0137649 -0.0248753 0.00870013  0.00989467 -0.0187978 0.00620055  0.0095371 -0.0232004 0.00659585  0.00667197 -0.0172879 0.00459313  0.0108975 -0.0178739 0.00749445  0.0075886 -0.0163093 0.00548029  0.0115936 -0.0409617 0.00832701  0.0189747 -0.0414388 0.0112786  0.0151778 -0.0338966 0.00870228  0.0129962 -0.0396638 0.00913572  0.0101057 -0.0322313 0.00696182  0.0164728 -0.0327352 0.00993037  0.0113509 -0.0310099 0.00779414  0.0139926 -0.0607607 0.0114787  0.0233339 -0.0612853 0.0143616  0.0197003 -0.0522274 0.0115907  0.0157233 -0.0594088 0.0122392  0.012895 -0.0504768 0.00983071  0.0212644 -0.0509664 0.0127511  0.0144573 -0.0491418 0.0106103  0.0155929 -0.083486 0.0152283  0.0267514 -0.0841128 0.0180182  0.0232893 -0.0736071 0.0150146  0.0176368 -0.0821549 0.0159662  0.014892 -0.0717593 0.0132794  0.0251681 -0.0723234 0.0161157  0.0167868 -0.0704106 0.0140245  0.0163655 -0.108991 0.0195577  0.0292346 -0.109852 0.0222642  0.0259623 -0.0978681 0.0190177  0.0187192 -0.107743 0.0202661  0.0160869 -0.0959044 0.0173221  0.0281009 -0.0966417 0.0200708  0.0182799 -0.0946095 0.018038  0.0163279 -0.137021 0.0244491  0.0307822 -0.138082 0.0270658  0.0276703 -0.124805 0.0235937  0.0189615 -0.135869 0.0251415  0.0164441 -0.122697 0.0219357  0.0301386 -0.123649 0.024596  0.0189524 -0.121488 0.0226309  0.0154706 -0.167415 0.0298717  0.0313946 -0.168808 0.0324216  0.0284996 -0.154208 0.0287178  0.0183809 -0.166397 0.0305448  0.0160041 -0.151944 0.0270965  0.0311865 -0.153165 0.0296772  0.0187662 -0.150851 0.0277681  0.0138453 -0.199903 0.0358057  0.0311378 -0.201508 0.03828  0.0283773 -0.185843 0.0343719  0.0170021 -0.19899 0.0364609  0.0147468 -0.183407 0.0327771  0.0313956 -0.1849 0.0352852  0.0178035 -0.182427 0.0334322  0.0114491 -0.234334 0.0422232  0.0299757 -0.236322 0.0446413  0.0274582 -0.219513 0.040529  0.014846 -0.233576 0.0428655  0.0127443 -0.216903 0.0389578  0.0306395 -0.218691 0.0413997  0.0160079 -0.21605 0.0395906  0.00835359 -0.270459 0.0490975  0.0280548 -0.272628 0.0514524  0.025625 -0.25499 0.047163  0.0119702 -0.269789 0.0497141  0.00997734 -0.252202 0.0456078  0.0291383 -0.254276 0.0479903  0.0135169 -0.251464 0.0462236  0.00456119 -0.308139 0.0564125  0.025274 -0.310713 0.0587184  0.0231051 -0.292105 0.0542464  0.00838363 -0.307634 0.057025  0.00654244 -0.28914 0.0527053  0.0267291 -0.291497 0.0550289  0.0102469 -0.288522 0.0532985  0.000151992 -0.347169 0.0641327  0.0218685 -0.349866 0.0663846  0.0197279 -0.330642 0.0617599  0.00417662 -0.346719 0.0647073  0.00241792 -0.327512 0.0602276  0.0236844 -0.330148 0.0625041  0.00638366 -0.327003 0.0608032  -0.00486267 -0.387394 0.0722475  0.0176586 -0.390504 0.0744522  0.0157896 -0.370468 0.0696723  -0.00066793 -0.387121 0.0728288  -0.00228453 -0.367173 0.0681481  0.0198091 -0.370058 0.0703681  0.00180948 -0.366769 0.0687006  -0.0104096 -0.428676 0.0807192  0.0129633 -0.431843 0.0828819  0.0110646 -0.41138 0.0779665  -0.00602496 -0.428421 0.0812476  -0.00759065 -0.407942 0.0764465  0.0154097 -0.411086 0.0786276  -0.00325036 -0.40764 0.0769794  -0.0164602 -0.470831 0.0895462  0.00753474 -0.474406 0.0916569  0.00590444 -0.453272 0.0866168  -0.0119402 -0.470761 0.0900931  -0.0133803 -0.449688 0.085098  0.0102761 -0.453042 0.0872269  -0.00894308 -0.449475 0.0856066  -0.0229564 -0.513793 0.0986724  0.00175142 -0.517358 0.100755  4.48227e-05 -0.495956 0.095592  -0.0182564 -0.513705 0.0991535  -0.0196772 -0.492262 0.09408  0.00472546 -0.495843 0.0961738  -0.0150127 -0.492142 0.0945702  -0.0298493 -0.557343 0.108116  -0.00467849 -0.5613 0.110139  -0.00613427 -0.539357 0.104884  -0.0250494 -0.557446 0.108625  -0.0263638 -0.535539 0.103367  -0.00145435 -0.539284 0.105415  -0.0216277 -0.535491 0.103833  -0.0371079 -0.60149 0.117806  -0.0113528 -0.605374 0.119821  -0.0129158 -0.583296 0.114448  -0.0321391 -0.601543 0.118241  -0.0334599 -0.5794 0.112939  -0.00794935 -0.583338 0.114957  -0.0285203 -0.579438 0.113387  -0.0446565 -0.645977 0.127774  -0.0185757 -0.650227 0.129719  -0.0199127 -0.627727 0.124286  -0.0396221 -0.646217 0.128246  -0.0408576 -0.623732 0.122771  -0.0149713 -0.627789 0.124745  -0.0358686 -0.623823 0.123195  -0.0524962 -0.690884 0.137937  -0.0259531 -0.695016 0.13989  -0.0274098 -0.672479 0.134351  -0.0473142 -0.691053 0.138326  -0.048569 -0.66844 0.132844  -0.0222142 -0.672657 0.134793  -0.0434067 -0.668611 0.133252  -0.0605495 -0.735926 0.148327  -0.0337789 -0.740397 0.150206  -0.0350399 -0.717539 0.144634  -0.0553131 -0.736278 0.148753  -0.0565042 -0.713424 0.143115  -0.0298827 -0.717715 0.145025  -0.0513129 -0.71363 0.1435  -0.0688372 -0.781232 0.158872  -0.0416965 -0.785558 0.160778  -0.043077 -0.76274 0.15511  -0.063442 -0.781518 0.159227  -0.0646942 -0.758607 0.153589  -0.0376995 -0.763035 0.155492  -0.0593278 -0.758898 0.153959  -0.0772035 -0.826543 0.169619  -0.0499384 -0.831112 0.17143  -0.051183 -0.808111 0.16574  -0.0718362 -0.826952 0.170012  -0.0730188 -0.803915 0.16424  -0.0458443 -0.808368 0.166071  -0.0676339 -0.80421 0.164581  -0.0857415 -0.871986 0.180436  -0.0582638 -0.876444 0.182323  -0.0596182 -0.853461 0.17657  -0.0803256 -0.872324 0.180736  -0.081476 -0.849295 0.175044  -0.05408 -0.853867 0.176915  -0.0760498 -0.849652 0.175348  -0.0944722 -0.917276 0.191401  -0.0668285 -0.922046 0.193155  -0.0679908 -0.898869 0.187439  -0.0888596 -0.917781 0.191702  -0.0900791 -0.894676 0.185908  -0.0625513 -0.899211 0.187724  -0.084615 -0.895049 0.186252  -0.103318 -0.962595 0.202516  -0.075407 -0.967219 0.204351  -0.0767531 -0.94421 0.198527  -0.0974464 -0.963109 0.202852  -0.0989523 -0.940053 0.196954  -0.0710917 -0.944671 0.19884  -0.0931449 -0.940524 0.19733  -0.111782 -1.00798 0.213892  -0.0841141 -1.01226 0.215737  -0.0854194 -0.989505 0.209626  -0.10651 -1.00839 0.214297  -0.107565 -0.985241 0.208192  -0.079766 -0.9899 0.209848  -0.101889 -0.98567 0.20841  -0.120945 -1.05304 0.224933  -0.0931773 -1.05744 0.226987  -0.0941701 -1.03454 0.221008  -0.115702 -1.05339 0.225137  -0.116119 -1.03027 0.219281  -0.0887003 -1.03504 0.221227  -0.111028 -1.03079 0.21912  -0.129789 -1.09814 0.236495  -0.101991 -1.10364 0.237638  -0.102685 -1.07981 0.232543  -0.123821 -1.09847 0.237145  -0.125686 -1.07561 0.231014  -0.0976667 -1.08022 0.23273  -0.120034 -1.07611 0.23182  -0.13853 -1.14323 0.246906  -0.110574 -1.14935 0.249777  -0.112023 -1.12501 0.243856  -0.131697 -1.1446 0.247303  -0.134159 -1.12157 0.243002  -0.105651 -1.12509 0.244926  -0.127986 -1.12181 0.244435  0.00316513 -0.00442332 0.00331044  0 0 0  0.00450891 -0.00566113 0.0055809  0.00127295 -0.00258756 0.00218391  0 0 0  0.00352368 -0.00406188 0.00454998  0.000970006 -0.00159794 0.00174117  0 0 0  0.00137585 -0.00241423 0.00307918  0.00106043 -0.00144601 0.00248623  0.00965267 -0.014383 0.0063715  0.0133293 -0.0160426 0.00965619  0.00790924 -0.0110481 0.00597143  0.0105505 -0.0136442 0.00804567  0.00614604 -0.00895625 0.0049026  0.00863165 -0.0104698 0.00778484  0.00679623 -0.00839794 0.00640297  0.0169701 -0.0280029 0.00902319  0.0228289 -0.0295386 0.0125022  0.0170087 -0.0232877 0.00909066  0.0181859 -0.0269924 0.010679  0.0133361 -0.0207927 0.00770187  0.0181639 -0.0224046 0.0111258  0.0144233 -0.0199039 0.00937486  0.0236454 -0.0448015 0.011745  0.0314295 -0.0461869 0.0152211  0.0258901 -0.0385336 0.0118699  0.0251064 -0.0436169 0.0133111  0.0204303 -0.0360031 0.010339  0.0272566 -0.0374476 0.0138462  0.0217609 -0.0348863 0.0119472  0.0293271 -0.0647104 0.014883  0.0389148 -0.0660815 0.0182571  0.033726 -0.0568898 0.0148137  0.0310407 -0.0635154 0.0163779  0.026612 -0.0543673 0.0132477  0.0353245 -0.0557418 0.0167015  0.0282035 -0.0531738 0.0147781  0.0339543 -0.0876427 0.0185759  0.0453011 -0.0890936 0.021852  0.0404063 -0.078374 0.0182183  0.0359576 -0.0864208 0.0199869  0.0317768 -0.0758145 0.0166583  0.0422252 -0.0772088 0.0200093  0.0336258 -0.0745896 0.0181065  0.0375526 -0.113348 0.0228181  0.0505194 -0.114963 0.0259509  0.045951 -0.102784 0.0221641  0.0398128 -0.112265 0.0241628  0.0358769 -0.100157 0.0206144  0.0480834 -0.101686 0.0238693  0.038021 -0.0990043 0.0219982  0.0400991 -0.141707 0.0276604  0.054662 -0.143521 0.0306885  0.0503643 -0.129962 0.0266767  0.0426673 -0.140621 0.0289264  0.0389597 -0.127226 0.0251639  0.0526829 -0.128916 0.0282788  0.0413618 -0.126121 0.0264657  0.0416679 -0.172346 0.0329993  0.0576329 -0.174397 0.0359061  0.053636 -0.15959 0.0317588  0.0444602 -0.171484 0.0341978  0.0409993 -0.156748 0.0302396  0.0563453 -0.158671 0.0332878  0.0437009 -0.155775 0.0314889  0.0422163 -0.20524 0.0389285  0.0595893 -0.207531 0.041729  0.055876 -0.191543 0.0373647  0.0453188 -0.204337 0.0400565  0.0420699 -0.188556 0.0358889  0.0586666 -0.190686 0.0387843  0.0449989 -0.187647 0.0370536  0.041877 -0.239914 0.0452635  0.0604286 -0.24246 0.0479894  0.0569578 -0.225454 0.0435069  0.0451553 -0.239297 0.0463181  0.0421507 -0.222354 0.0420015  0.060232 -0.224755 0.0448737  0.0453715 -0.221594 0.0431235  0.0405749 -0.276483 0.0521789  0.0603418 -0.279274 0.0547755  0.0571907 -0.261285 0.0500994  0.0441604 -0.275766 0.0531745  0.0413435 -0.25802 0.0486455  0.0603994 -0.260625 0.0513499  0.0447489 -0.257324 0.0496824  0.0385 -0.314371 0.0594039  0.0592359 -0.317402 0.0619931  0.0562313 -0.298607 0.057194  0.0422143 -0.313988 0.0603175  0.0396285 -0.295254 0.055692  0.060035 -0.298138 0.0584128  0.0433156 -0.294704 0.0566947  0.0355355 -0.353843 0.0672004  0.0573008 -0.357106 0.0696132  0.0546746 -0.337509 0.0646708  0.0395542 -0.3533 0.0680721  0.037123 -0.333978 0.0632243  0.0582432 -0.337038 0.0657678  0.0409535 -0.333489 0.064142  0.0319315 -0.394231 0.0752175  0.0544827 -0.397698 0.0777059  0.0518718 -0.377484 0.0726037  0.0360351 -0.394052 0.0759966  0.0338106 -0.373903 0.0711095  0.0561547 -0.377239 0.0736902  0.037914 -0.37355 0.0719986  0.0275252 -0.435923 0.0837944  0.0509257 -0.439608 0.0860374  0.0487678 -0.418753 0.080868  0.0319202 -0.435542 0.0845485  0.0298203 -0.414988 0.0794268  0.052647 -0.418456 0.0818286  0.034024 -0.41469 0.0802345  0.0226092 -0.478193 0.0925107  0.0466383 -0.482028 0.0949214  0.0443494 -0.46072 0.0895381  0.0270557 -0.478188 0.093163  0.0251319 -0.456956 0.0880575  0.0490537 -0.46069 0.0905013  0.0295951 -0.456781 0.0888379  0.0169899 -0.521506 0.101761  0.0416982 -0.525546 0.103847  0.0399375 -0.503744 0.0984948  0.0217087 -0.521276 0.102406  0.0198789 -0.499789 0.0970554  0.0440886 -0.503602 0.0993311  0.0244067 -0.499664 0.0977621  0.0109837 -0.565127 0.111082  0.0361931 -0.569253 0.113434  0.0341568 -0.547142 0.107794  0.0157316 -0.565264 0.111622  0.0140407 -0.543241 0.106334  0.0392165 -0.547306 0.108644  0.0188129 -0.543225 0.107014  0.00438046 -0.609552 0.120911  0.0301096 -0.613871 0.122863  0.0286663 -0.591392 0.117359  0.0093708 -0.609457 0.121457  0.00775051 -0.587299 0.115919  0.0330598 -0.591388 0.118086  0.0125568 -0.587326 0.116535  -0.00250244 -0.654073 0.130748  0.0236218 -0.658417 0.133041  0.0217793 -0.635751 0.127192  0.00250268 -0.654324 0.131191  0.000982046 -0.631758 0.125753  0.0271263 -0.636079 0.127936  0.00601363 -0.631878 0.12634  -0.00987363 -0.69918 0.141053  0.0166214 -0.703707 0.142893  0.0154142 -0.680782 0.137268  -0.00466323 -0.699211 0.14151  -0.00612926 -0.676596 0.135828  0.0200264 -0.6809 0.137894  -0.00108933 -0.67676 0.136362  -0.0174334 -0.744226 0.151321  0.00937223 -0.748726 0.153544  0.00768042 -0.725719 0.147539  -0.0122232 -0.744572 0.151686  -0.0136218 -0.721667 0.146121  0.0132372 -0.726181 0.148181  -0.00838089 -0.721904 0.14662  -0.0253692 -0.789675 0.162001  0.00164962 -0.794307 0.163763  0.000609398 -0.771158 0.158044  -0.0200152 -0.789802 0.162379  -0.0213516 -0.766928 0.156603  0.00542521 -0.771376 0.158577  -0.0161393 -0.767204 0.157061  -0.0334535 -0.834924 0.172605  -0.00613904 -0.839548 0.17475  -0.00773931 -0.816364 0.168654  -0.0280511 -0.835339 0.172904  -0.029386 -0.812291 0.167242  -0.00204802 -0.816915 0.169193  -0.0239944 -0.812602 0.167665  -0.041867 -0.880437 0.183565  -0.0144098 -0.885132 0.185326  -0.015377 -0.861894 0.179503  -0.0362985 -0.88069 0.183893  -0.0376127 -0.857657 0.178041  -0.0103233 -0.862228 0.179952  -0.0321972 -0.858064 0.178439  -0.0502295 -0.92571 0.194528  -0.0225108 -0.930406 0.196506  -0.0240979 -0.907177 0.190359  -0.044781 -0.92619 0.194816  -0.0460577 -0.903051 0.189026  -0.0183532 -0.907819 0.190833  -0.0405002 -0.90347 0.189351  -0.0587451 -0.971132 0.205664  -0.0313237 -0.975593 0.207371  -0.0322199 -0.952644 0.201545  -0.0534785 -0.971362 0.205922  -0.0544629 -0.948442 0.200115  -0.0268795 -0.953029 0.201907  -0.0491571 -0.948834 0.2004  -0.0677156 -1.01609 0.216764  -0.0398681 -1.02104 0.218811  -0.0411611 -0.997763 0.212639  -0.0618019 -1.01659 0.216861  -0.0631623 -0.993689 0.211151  -0.035641 -0.998296 0.21294  -0.0577199 -0.994074 0.21145  -0.0766833 -1.06145 0.228083  -0.0486982 -1.06595 0.230165  -0.0495479 -1.04282 0.22408  -0.0702057 -1.06183 0.228661  -0.0722382 -1.03859 0.222331  -0.0440941 -1.0433 0.224386  -0.0660596 -1.03932 0.222877  -0.0850391 -1.1067 0.239637  -0.0565627 -1.11057 0.241989  -0.0588315 -1.08841 0.235619  -0.0794017 -1.10718 0.23993  -0.0807941 -1.08416 0.234022  -0.0531218 -1.08903 0.236326  -0.0747802 -1.08492 0.234035  -0.0929332 -1.15127 0.251049  -0.0646021 -1.15524 0.253895  -0.0675082 -1.13323 0.247659  -0.0893664 -1.15166 0.251987  -0.0894179 -1.12933 0.245592  -0.0609684 -1.13419 0.24852  -0.0841947 -1.12898 0.245257  0.00529835 -0.00827688 0.00479221  0 0 0  0.00712723 -0.0108231 0.00731373  0.00204604 -0.00585926 0.0029273  0 0 0  0.0057252 -0.00784302 0.00649452  0.00160541 -0.00396371 0.00256515  0 0 0  0.00215313 -0.00559109 0.0040586  0.00170763 -0.00375259 0.00357699  0.0155577 -0.0197859 0.00878072  0.0202313 -0.0225339 0.0124314  0.0126923 -0.01715 0.00778127  0.0165872 -0.0190095 0.0111196  0.0101213 -0.0137442 0.00691819  0.0134848 -0.0164475 0.0101333  0.0108916 -0.0131174 0.00900626  0.0265132 -0.0335119 0.0118527  0.0331496 -0.0357617 0.0158179  0.025641 -0.029717 0.0114899  0.0278182 -0.0324829 0.0142374  0.0211285 -0.026281 0.0103691  0.0268886 -0.0287761 0.0141988  0.0223346 -0.0253776 0.0127482  0.036501 -0.050207 0.0147524  0.0448412 -0.0524577 0.0186851  0.037755 -0.0447293 0.0145361  0.0379887 -0.0491436 0.0170362  0.03165 -0.0414589 0.0132782  0.0391032 -0.0436664 0.0172369  0.0330321 -0.0403889 0.0156214  0.0452898 -0.0701361 0.0178878  0.0553375 -0.0721644 0.0218251  0.0486422 -0.0629651 0.0175543  0.0469973 -0.0689667 0.0201015  0.0410495 -0.0597637 0.0162754  0.0502903 -0.0618896 0.0201693  0.0426561 -0.0586514 0.0185311  0.05286 -0.0931199 0.0215895  0.0645498 -0.0955009 0.0252645  0.0583391 -0.0844708 0.0209627  0.0547999 -0.0921293 0.0236452  0.0492269 -0.081264 0.0196674  0.0600595 -0.0834153 0.0234609  0.0510325 -0.0801587 0.0218167  0.0591937 -0.119061 0.0257313  0.0725178 -0.121246 0.0294292  0.0666247 -0.108974 0.0248475  0.0614074 -0.117948 0.0277207  0.0561829 -0.105724 0.0235989  0.0687612 -0.107972 0.0272143  0.0582799 -0.104669 0.0256431  0.0643152 -0.14752 0.0305943  0.0791017 -0.150309 0.0339115  0.0737495 -0.136306 0.0293326  0.0667593 -0.146764 0.0323951  0.0619079 -0.132985 0.0280833  0.0759298 -0.135397 0.0315702  0.0642143 -0.132018 0.0300117  0.0682265 -0.17856 0.0358183  0.0845144 -0.181068 0.0392656  0.0793782 -0.166137 0.0343461  0.0709764 -0.177571 0.0375762  0.0664215 -0.162717 0.033143  0.0820502 -0.165293 0.0364375  0.0690531 -0.161826 0.0349708  0.0709915 -0.211493 0.041811  0.0884954 -0.214785 0.0447812  0.0839719 -0.198275 0.0399435  0.07392 -0.211036 0.0433567  0.069766 -0.194768 0.0387323  0.0866393 -0.197571 0.0419178  0.0725734 -0.194008 0.0404451  0.0725993 -0.246707 0.0480263  0.091459 -0.249608 0.0512476  0.0870452 -0.232441 0.0460372  0.0758637 -0.245862 0.0495574  0.0719341 -0.228811 0.0448503  0.0902171 -0.231784 0.0478578  0.0750804 -0.22812 0.0464742  0.0731809 -0.283191 0.0550363  0.0930051 -0.286977 0.0577035  0.0892479 -0.268433 0.0526452  0.0765477 -0.283045 0.0563397  0.0730538 -0.264722 0.051445  0.0923977 -0.267948 0.0543697  0.0763272 -0.264186 0.0529561  0.0726765 -0.321737 0.0621421  0.0937098 -0.325057 0.0651524  0.0899746 -0.306042 0.0597184  0.0764127 -0.32104 0.0634565  0.0730515 -0.302198 0.0585117  0.0935743 -0.305575 0.0612822  0.0766653 -0.301717 0.0599463  0.0713071 -0.360973 0.0700469  0.0930748 -0.365182 0.0724735  0.0899844 -0.345044 0.0672185  0.0750587 -0.361116 0.0711298  0.0721668 -0.341143 0.0660014  0.0936105 -0.34478 0.0687087  0.0758586 -0.340826 0.0673282  0.06892 -0.402104 0.0779541  0.0917453 -0.405843 0.080754  0.0886467 -0.385326 0.0751653  0.0730771 -0.401561 0.0790625  0.0702192 -0.381287 0.0739067  0.0925821 -0.385039 0.0764897  0.0742432 -0.381013 0.075166  0.0658534 -0.443412 0.0866327  0.089227 -0.447942 0.0888903  0.0866768 -0.426612 0.0834539  0.069943 -0.443806 0.0875208  0.067574 -0.422551 0.0821934  0.0907722 -0.426559 0.0847251  0.071641 -0.422439 0.0833499  0.0618358 -0.486466 0.0952613  0.0860968 -0.490611 0.0978491  0.0835824 -0.468896 0.0921662  0.0663571 -0.486088 0.0961776  0.0639329 -0.464701 0.0908363  0.0877688 -0.468774 0.0932732  0.0683067 -0.464627 0.0919321  0.0573335 -0.529285 0.104591  0.0820115 -0.534019 0.10674  0.0798619 -0.511851 0.101143  0.0617185 -0.529877 0.105314  0.0597813 -0.507671 0.0998197  0.0844157 -0.511995 0.102211  0.0641816 -0.507743 0.100818  0.0519474 -0.573678 0.113861  0.0773239 -0.578192 0.116234  0.0753267 -0.555566 0.110507  0.0567749 -0.573469 0.1146  0.054714 -0.551258 0.1091  0.0796952 -0.555585 0.11142  0.0593779 -0.551365 0.110043  0.0462606 -0.61754 0.123733  0.0719807 -0.622373 0.125821  0.0701067 -0.599663 0.12008  0.0509074 -0.618276 0.12432  0.0493033 -0.595409 0.118688  0.0750856 -0.599985 0.120966  0.0539992 -0.595638 0.119542  0.0397658 -0.662783 0.133559  0.0659809 -0.667601 0.135723  0.0644193 -0.644328 0.129988  0.044843 -0.662742 0.134143  0.0430729 -0.639954 0.128512  0.0689261 -0.644464 0.130735  0.047976 -0.64022 0.129314  0.0331309 -0.707307 0.143869  0.0596552 -0.712153 0.145917  0.0579479 -0.689141 0.140064  0.0379992 -0.708132 0.144345  0.0366397 -0.68486 0.138607  0.0633044 -0.689615 0.140788  0.0415912 -0.685215 0.139328  0.0257599 -0.752992 0.154164  0.0525806 -0.758048 0.156145  0.0513549 -0.734356 0.150409  0.0310407 -0.753117 0.154611  0.029495 -0.729963 0.148878  0.0559871 -0.734599 0.151011  0.034586 -0.730365 0.149547  0.0183802 -0.797858 0.164808  0.0455339 -0.802647 0.166845  0.0439053 -0.779547 0.160909  0.0234745 -0.798709 0.165211  0.0222435 -0.775263 0.159394  0.0495627 -0.780129 0.16149  0.027432 -0.775715 0.159994  0.0103767 -0.843689 0.175517  0.0376277 -0.848795 0.177311  0.0366049 -0.825001 0.171609  0.015799 -0.843936 0.175868  0.0144057 -0.820621 0.170036  0.041383 -0.825346 0.172091  0.019665 -0.821138 0.170578  0.00248861 -0.888672 0.186405  0.0300038 -0.893396 0.188415  0.0284336 -0.870254 0.182441  0.00767612 -0.889469 0.186738  0.00658154 -0.866041 0.180902  0.0342677 -0.870904 0.182927  0.0118995 -0.866524 0.181392  -0.00609851 -0.934369 0.197396  0.0214667 -0.939424 0.199179  0.0205247 -0.915668 0.193354  -0.0004673 -0.934774 0.197665  -0.00174832 -0.911388 0.191785  0.0255642 -0.916206 0.193694  0.00358677 -0.912034 0.192232  -0.0145831 -0.979138 0.208464  0.0136051 -0.983742 0.210542  0.0119228 -0.960947 0.204608  -0.00876236 -0.979792 0.208911  -0.0102522 -0.956686 0.202914  0.0177357 -0.961532 0.204926  -0.00451207 -0.957232 0.203314  -0.0230894 -1.02497 0.220286  0.00464821 -1.02895 0.221731  0.00339961 -1.00633 0.215726  -0.0177758 -1.02511 0.220687  -0.0189404 -1.00202 0.214271  0.00901675 -1.00685 0.216009  -0.0132718 -1.00266 0.214576  -0.0320468 -1.06946 0.231489  -0.00442743 -1.07505 0.233504  -0.00516605 -1.05035 0.227346  -0.0268192 -1.07033 0.231401  -0.0271749 -1.04688 0.225797  -9.53674e-07 -1.0514 0.22792  -0.0222161 -1.04726 0.225971  -0.0409751 -1.11486 0.243269  -0.0134425 -1.11905 0.246247  -0.0144138 -1.09625 0.238504  -0.0347996 -1.11516 0.244193  -0.0367274 -1.09201 0.237549  -0.00805521 -1.09693 0.238493  -0.0309618 -1.09287 0.238557  -0.050014 -1.15887 0.253812  -0.0218298 -1.16554 0.258496  -0.0221934 -1.14145 0.251199  -0.040797 -1.1607 0.254202  -0.0448725 -1.13665 0.249124  -0.0184629 -1.14113 0.250912  -0.0382888 -1.13838 0.250665  0.00898942 -0.0156642 0.00602317  0 0 0  0.0126364 -0.0205331 0.00886416  0.00423522 -0.0126058 0.00355911  0 0 0  0.00939059 -0.0150537 0.00811791  0.00267736 -0.00852615 0.00319099  0 0 0  0.00428385 -0.012135 0.00494647  0.00276458 -0.00818574 0.00439668  0.0234784 -0.0273189 0.0107396  0.0293272 -0.0303418 0.0148742  0.0207409 -0.025884 0.009269  0.024491 -0.0264123 0.0136871  0.0163345 -0.0212885 0.00856256  0.0214068 -0.0249223 0.0122225  0.0170909 -0.0204724 0.011204  0.0374588 -0.0404998 0.0142047  0.0447804 -0.0434003 0.0187197  0.0359087 -0.037456 0.0135093  0.0387819 -0.0393997 0.0172811  0.0305433 -0.0334917 0.0125308  0.0370416 -0.0364287 0.0169291  0.0317335 -0.0325005 0.0155902  0.0505021 -0.0569876 0.017257  0.0594463 -0.0598385 0.0217505  0.0508859 -0.0521458 0.0167594  0.0519662 -0.0560329 0.0202756  0.0441351 -0.0482991 0.0157032  0.0523213 -0.0511169 0.020242  0.0455424 -0.0472597 0.0187852  0.0622746 -0.0768637 0.0204794  0.0729303 -0.0797187 0.0249174  0.0647856 -0.0702999 0.0198991  0.0639773 -0.0757385 0.0233812  0.0565582 -0.0664857 0.0187595  0.0662949 -0.0692613 0.023246  0.0581149 -0.0654233 0.0217419  0.0727074 -0.0999109 0.024116  0.0849383 -0.102876 0.0283976  0.0773395 -0.0917538 0.0232968  0.0745723 -0.0990831 0.0268755  0.0676718 -0.0879633 0.0221932  0.0792276 -0.0908493 0.0265396  0.0694824 -0.0869967 0.0250535  0.0817369 -0.125957 0.028353  0.0956011 -0.129087 0.0324304  0.0884758 -0.11643 0.0272238  0.083909 -0.124946 0.0309556  0.0774031 -0.112555 0.0260775  0.0903571 -0.115469 0.0302455  0.0793887 -0.111562 0.0287712  0.0893775 -0.154624 0.0330472  0.104653 -0.157828 0.0370665  0.0980719 -0.143788 0.0316808  0.0917183 -0.153985 0.0355036  0.085755 -0.139898 0.0305834  0.100498 -0.143086 0.0345705  0.0880539 -0.139111 0.0331345  0.0956159 -0.185784 0.0384767  0.112349 -0.189323 0.0421197  0.106244 -0.173926 0.0367219  0.0982897 -0.184973 0.0407686  0.0926689 -0.169894 0.0356028  0.108541 -0.173073 0.0393808  0.0951438 -0.16903 0.0379674  0.100526 -0.219022 0.0441928  0.118493 -0.222472 0.0479908  0.11286 -0.206087 0.04232  0.103358 -0.218564 0.046361  0.0982792 -0.202037 0.0412335  0.115857 -0.205615 0.0448353  0.10109 -0.201465 0.0434611  0.104104 -0.254288 0.0507579  0.123301 -0.258292 0.0539324  0.118171 -0.240631 0.0484245  0.107244 -0.253745 0.0527589  0.102466 -0.23641 0.0473487  0.12088 -0.239904 0.0507293  0.105424 -0.235706 0.049386  0.106464 -0.291163 0.0573728  0.126762 -0.294813 0.060998  0.12197 -0.276621 0.0550811  0.109774 -0.290841 0.0592818  0.105497 -0.272392 0.0540018  0.125507 -0.276365 0.057224  0.108798 -0.27203 0.0559113  0.107606 -0.329637 0.0649669  0.128867 -0.334118 0.0676532  0.124641 -0.314622 0.0621381  0.111149 -0.329421 0.0667031  0.107155 -0.310213 0.0611029  0.127742 -0.314036 0.0641065  0.110564 -0.309688 0.0628285  0.107668 -0.369343 0.0723622  0.129952 -0.373127 0.0758383  0.125872 -0.353605 0.069732  0.111434 -0.369096 0.0740435  0.107845 -0.349202 0.0686574  0.12989 -0.353531 0.0715127  0.111596 -0.349025 0.0702627  0.106647 -0.410246 0.0808718  0.129598 -0.415177 0.0830719  0.126177 -0.394232 0.0776434  0.11052 -0.410403 0.0823686  0.107242 -0.389662 0.0766308  0.129657 -0.393807 0.0792937  0.111056 -0.389329 0.0780661  0.104681 -0.452095 0.0889556  0.128634 -0.455952 0.092284  0.125132 -0.435501 0.0860538  0.108882 -0.451864 0.0904348  0.105852 -0.430952 0.0849762  0.129558 -0.435566 0.0874932  0.11001 -0.430926 0.0862925  0.101789 -0.494761 0.098258  0.126094 -0.500092 0.0999949  0.123362 -0.478027 0.0947239  0.105925 -0.495321 0.0995376  0.103285 -0.473343 0.0937097  0.12722 -0.477785 0.0960727  0.107459 -0.473209 0.0948808  0.0980802 -0.538175 0.106946  0.123401 -0.542049 0.110118  0.120356 -0.520993 0.103823  0.102688 -0.537908 0.108245  0.100089 -0.51634 0.10274  0.125107 -0.521157 0.104954  0.104606 -0.516437 0.103791  0.0936143 -0.582042 0.11692  0.118981 -0.587696 0.118249  0.116804 -0.564809 0.113158  0.0979574 -0.582999 0.118003  0.0958626 -0.560064 0.112118  0.121041 -0.564756 0.11423  0.100355 -0.56012 0.113053  0.0884538 -0.626529 0.126138  0.114849 -0.630387 0.129133  0.112168 -0.608956 0.122838  0.0934253 -0.626202 0.127274  0.091145 -0.604253 0.121735  0.117166 -0.609191 0.123704  0.0959692 -0.604451 0.122554  0.0826941 -0.671148 0.136658  0.108872 -0.677015 0.137659  0.107128 -0.653583 0.13273  0.087209 -0.672446 0.137562  0.0855613 -0.648827 0.131651  0.111723 -0.653706 0.133544  0.090332 -0.64905 0.132381  0.0763512 -0.716302 0.146335  0.103571 -0.720143 0.149153  0.101163 -0.698477 0.142886  0.0816386 -0.715916 0.147321  0.0795875 -0.693776 0.14176  0.106346 -0.698773 0.143534  0.0846655 -0.694061 0.142381  0.0695608 -0.76132 0.157287  0.096349 -0.767252 0.158062  0.0949028 -0.743538 0.153236  0.0742221 -0.762864 0.15803  0.0729229 -0.738822 0.152109  0.0998507 -0.743825 0.153821  0.0779352 -0.739188 0.152662  0.0622919 -0.80678 0.167352  0.0900731 -0.810642 0.169963  0.0879011 -0.788817 0.163819  0.0678449 -0.80638 0.168192  0.0659504 -0.784172 0.162608  0.0932014 -0.789159 0.164293  0.0712252 -0.78452 0.16307  0.0546644 -0.851943 0.178589  0.0819767 -0.857718 0.179351  0.0806711 -0.834038 0.174476  0.0595746 -0.853505 0.179188  0.0584333 -0.829391 0.173305  0.0859351 -0.834459 0.174859  0.0636942 -0.82989 0.173708  0.0467234 -0.89742 0.189111  0.0749297 -0.901537 0.191447  0.072928 -0.879335 0.185291  0.0524387 -0.897199 0.189782  0.0507085 -0.87478 0.184139  0.0783465 -0.879778 0.185652  0.0561512 -0.875215 0.1845  0.0385725 -0.942626 0.200498  0.0662122 -0.947832 0.201394  0.0649183 -0.924578 0.196418  0.043612 -0.94386 0.201018  0.042599 -0.920053 0.195055  0.0705061 -0.925147 0.196663  0.047997 -0.92066 0.195328  0.0301287 -0.987724 0.211341  0.0582783 -0.992431 0.213264  0.0565825 -0.96962 0.207717  0.0358903 -0.987959 0.211756  0.0343313 -0.965383 0.206115  0.0619514 -0.970274 0.208093  0.0397627 -0.965853 0.206393  0.0210216 -1.03289 0.222846  0.0498803 -1.03716 0.224687  0.0477984 -1.01491 0.218741  0.027226 -1.03307 0.223164  0.0254924 -1.01052 0.217314  0.0539949 -1.01538 0.218957  0.0314972 -1.01106 0.217521  0.0126598 -1.07778 0.2352  0.0401752 -1.08326 0.236388  0.0395527 -1.05874 0.229011  0.0177464 -1.07932 0.235436  0.0172186 -1.05429 0.229163  0.045366 -1.05986 0.228488  0.0226781 -1.05555 0.229647  0.00386596 -1.12198 0.246328  0.0305169 -1.12492 0.249308  0.0300405 -1.10445 0.244442  0.00930643 -1.12207 0.247236  0.00810432 -1.10075 0.239937  0.0351052 -1.10471 0.245352  0.0134649 -1.10096 0.240038  -0.00405049 -1.16607 0.260585  0.0218015 -1.17194 0.258595  0.0224254 -1.14931 0.257809  -0.00102854 -1.16964 0.261374  -0.00119352 -1.14601 0.25174  0.0244694 -1.1497 0.258559  0.00441599 -1.14595 0.251922  -0.0108245 -0.0159614 -0.00649452  -0.00419405 -0.00987655 -0.00282502  0 0 0  -0.00740634 -0.0115712 -0.00394726  0 0 0  -0.00479198 -0.0071146 -0.00437307  -0.00155783 -0.00364164 -0.00189924  0 0 0  -0.00399205 -0.00924588 -0.00374603  -0.0071655 -0.0107655 -0.00535583  -0.00225716 -0.00593676 -0.00224137  0 0 0  -0.0015063 -0.00331777 -0.0025475  -0.00217894 -0.00550989 -0.00299668  -0.0242226 -0.0235686 -0.00929904  -0.0183479 -0.020571 -0.00603533  -0.0194058 -0.0214018 -0.00540423  -0.0142563 -0.0168714 -0.00615954  -0.00953326 -0.0126328 -0.00395632  -0.0177158 -0.0192761 -0.00826573  -0.0188357 -0.0200858 -0.00768137  -0.0134067 -0.0162365 -0.00494456  -0.00924914 -0.0117322 -0.0055573  -0.0129935 -0.0151504 -0.00685453  -0.037517 -0.0341897 -0.00957346  -0.0316297 -0.0301136 -0.00678515  -0.0315646 -0.0326172 -0.00498939  -0.0245012 -0.0284976 -0.00583816  -0.0200298 -0.0235611 -0.00409484  -0.0307646 -0.028497 -0.0097115  -0.0306696 -0.0310917 -0.00765586  -0.0254432 -0.0266446 -0.00539494  -0.0194014 -0.0223096 -0.006217  -0.0247189 -0.0252073 -0.00791526  -0.0510266 -0.0477382 -0.00792599  -0.0454504 -0.0422522 -0.00578356  -0.0437667 -0.0468056 -0.00316429  -0.0345757 -0.0432016 -0.00393772  -0.0305815 -0.0368377 -0.00275326  -0.0443003 -0.040541 -0.00894141  -0.0424913 -0.0452429 -0.00588512  -0.037686 -0.0393105 -0.00422525  -0.0295556 -0.0354532 -0.00504613  -0.036609 -0.0377627 -0.00694561  -0.0642315 -0.0645021 -0.0049572  -0.0591879 -0.0574118 -0.00346541  -0.0557377 -0.0640766 -0.000288725  -0.0444827 -0.0610343 -0.000915766  -0.0409952 -0.0531319 -0.000289679  -0.0576769 -0.0557335 -0.00656986  -0.0540596 -0.0625672 -0.00289249  -0.0497868 -0.0550554 -0.00183654  -0.0395517 -0.0517379 -0.00254369  -0.0483106 -0.053522 -0.00451112  -0.0770408 -0.0842763 -0.00108337  -0.0725808 -0.0756211 -0.000197172  -0.0674177 -0.0842942 0.00337958  -0.0542376 -0.0818199 0.00293899  -0.0512307 -0.0724093 0.00303483  -0.0706888 -0.0740364 -0.00311446  -0.0653539 -0.0828786 0.000968695  -0.0616139 -0.0738265 0.00145769  -0.0493762 -0.0710734 0.000921488  -0.0597413 -0.0723696 -0.00105357  -0.0894575 -0.106832 0.00348234  -0.0855544 -0.0966942 0.00380468  -0.0788167 -0.107248 0.00769758  -0.0638824 -0.105343 0.00744414  -0.0612948 -0.0945015 0.0070498  -0.0832983 -0.0952307 0.00112534  -0.0763988 -0.105946 0.00550222  -0.0731494 -0.0954389 0.00546479  -0.0590717 -0.0932552 0.00511479  -0.0709057 -0.0940877 0.00316191  -0.10154 -0.131947 0.00860691  -0.0981283 -0.120426 0.00840926  -0.0899825 -0.132722 0.012579  -0.0734596 -0.131371 0.0125155  -0.0712403 -0.119195 0.0116587  -0.0955375 -0.119093 0.00597978  -0.0872434 -0.131541 0.0106015  -0.0844239 -0.119677 0.0100706  -0.0686761 -0.118055 0.00991249  -0.0818434 -0.118445 0.00798607  -0.113343 -0.159412 0.0142391  -0.110374 -0.146609 0.013551  -0.100965 -0.160528 0.0179725  -0.0830075 -0.159719 0.0180898  -0.0810986 -0.146296 0.0168037  -0.107476 -0.145406 0.0113645  -0.0979345 -0.159469 0.0162017  -0.0954928 -0.146341 0.015213  -0.0782358 -0.145269 0.0152402  -0.0926068 -0.14523 0.0133421  -0.124926 -0.189044 0.0203373  -0.122334 -0.17505 0.0191872  -0.111809 -0.190472 0.023855  -0.0925554 -0.190182 0.0241442  -0.0909237 -0.175609 0.0224471  -0.119159 -0.173978 0.01723  -0.108514 -0.189533 0.0222793  -0.106399 -0.175237 0.0208533  -0.0877781 -0.174696 0.0210578  -0.103236 -0.174248 0.0191834  -0.136321 -0.220659 0.0268812  -0.134079 -0.205567 0.0252981  -0.122551 -0.222388 0.0301955  -0.102128 -0.2226 0.0306458  -0.100729 -0.206963 0.028568  -0.130649 -0.204621 0.0235548  -0.119012 -0.221565 0.0287993  -0.11719 -0.206189 0.0269678  -0.0973393 -0.20616 0.0273392  -0.113773 -0.205318 0.0254848  -0.147564 -0.254094 0.0338564  -0.145621 -0.23799 0.0318596  -0.13321 -0.256095 0.0369856  -0.111732 -0.256783 0.0375879  -0.110557 -0.240172 0.0351403  -0.14196 -0.237167 0.0303156  -0.129449 -0.255387 0.0357599  -0.127887 -0.239019 0.0335348  -0.106924 -0.239479 0.0340629  -0.124237 -0.238264 0.0322263  -0.158666 -0.289182 0.0412431  -0.157015 -0.272154 0.0388553  -0.143807 -0.29145 0.0441964  -0.12138 -0.29259 0.0449462  -0.120391 -0.275085 0.042156  -0.153137 -0.271447 0.0374975  -0.139837 -0.290847 0.0431254  -0.138515 -0.273571 0.0405385  -0.116553 -0.274496 0.0412161  -0.13465 -0.272926 0.0393922  -0.169644 -0.325777 0.0490305  -0.168243 -0.307903 0.0462701  -0.154336 -0.328273 0.0518229  -0.131059 -0.329841 0.0527015  -0.130264 -0.311528 0.0495806  -0.164168 -0.307308 0.045084  -0.150177 -0.327779 0.0509019  -0.149076 -0.309678 0.0479591  -0.126214 -0.311042 0.0487742  -0.145012 -0.309139 0.0469639  -0.180491 -0.363727 0.0571887  -0.179346 -0.345085 0.0540824  -0.164809 -0.36645 0.0598302  -0.140773 -0.368414 0.0608404  -0.140136 -0.349366 0.0574136  -0.17509 -0.344596 0.0530603  -0.16047 -0.366051 0.0590439  -0.159578 -0.347197 0.0557792  -0.135914 -0.348975 0.056726  -0.155332 -0.346761 0.0549259  -0.19122 -0.402897 0.0657241  -0.190295 -0.38356 0.0622778  -0.175208 -0.405801 0.068217  -0.150501 -0.408137 0.0693347  -0.150042 -0.388434 0.0656142  -0.185868 -0.383175 0.0614066  -0.17071 -0.405504 0.0675626  -0.170015 -0.385977 0.0639765  -0.145634 -0.388138 0.065043  -0.165596 -0.385639 0.0632565  -0.201815 -0.443139 0.07458  -0.201121 -0.423186 0.0708342  -0.185542 -0.446234 0.0769405  -0.160242 -0.448904 0.078176  -0.159923 -0.428613 0.0741813  -0.196542 -0.422896 0.0701051  -0.180889 -0.446017 0.0764019  -0.180382 -0.425888 0.072536  -0.155373 -0.428402 0.073715  -0.17581 -0.425641 0.0719392  -0.212287 -0.484339 0.0837784  -0.211787 -0.463833 0.0797305  -0.195783 -0.487566 0.0860057  -0.169968 -0.49055 0.0873282  -0.169817 -0.469748 0.0830793  -0.207063 -0.463636 0.0791337  -0.190999 -0.487445 0.085582  -0.190672 -0.466785 0.0814328  -0.165105 -0.469623 0.0827129  -0.185952 -0.466626 0.0809515  -0.222617 -0.526355 0.0932479  -0.222324 -0.505369 0.0889461  -0.205946 -0.529733 0.0953636  -0.17968 -0.53299 0.0967846  -0.179654 -0.511736 0.0922997  -0.217477 -0.505256 0.0884697  -0.201031 -0.529679 0.0950379  -0.200873 -0.508552 0.0906482  -0.17483 -0.511684 0.0920215  -0.196028 -0.508473 0.0902715  -0.232817 -0.569095 0.103025  -0.232701 -0.547682 0.0984592  -0.215999 -0.572564 0.105021  -0.189351 -0.576076 0.106507  -0.189487 -0.554433 0.101805  -0.227729 -0.547649 0.0980959  -0.210979 -0.572594 0.104792  -0.210984 -0.551062 0.100158  -0.18452 -0.554459 0.101611  -0.206014 -0.55106 0.0998785  -0.242866 -0.612422 0.113022  -0.242935 -0.590653 0.108245  -0.225955 -0.616003 0.114923  -0.198985 -0.619732 0.116492  -0.199232 -0.597758 0.111591  -0.237868 -0.590694 0.107983  -0.220829 -0.616091 0.114774  -0.220987 -0.594213 0.10994  -0.194177 -0.597844 0.11147  -0.215919 -0.59428 0.109749  -0.252778 -0.656261 0.123283  -0.253006 -0.634182 0.118286  -0.235789 -0.659899 0.125077  -0.208551 -0.663821 0.126692  -0.208947 -0.641574 0.121615  -0.247835 -0.634293 0.118118  -0.23058 -0.660056 0.125008  -0.230886 -0.63789 0.119972  -0.203775 -0.641728 0.121565  -0.225715 -0.638024 0.119863  -0.262537 -0.700487 0.133712  -0.26293 -0.678165 0.12855  -0.24552 -0.704202 0.135427  -0.218062 -0.708287 0.137104  -0.218552 -0.685814 0.131867  -0.257683 -0.678334 0.128462  -0.240223 -0.704404 0.135421  -0.240663 -0.682001 0.130227  -0.213319 -0.686017 0.131875  -0.235419 -0.682192 0.130186  -0.272187 -0.745054 0.144341  -0.272696 -0.722508 0.139018  -0.255123 -0.748791 0.145979  -0.22749 -0.753016 0.147688  -0.228115 -0.730364 0.142311  -0.267372 -0.722746 0.138999  -0.249769 -0.749052 0.146033  -0.250337 -0.726454 0.140682  -0.222785 -0.730626 0.142374  -0.245007 -0.726702 0.140705  -0.281678 -0.789831 0.155104  -0.282314 -0.767149 0.149656  -0.264622 -0.793614 0.156674  -0.236861 -0.797963 0.158428  -0.237561 -0.775169 0.152935  -0.276957 -0.767415 0.149698  -0.259202 -0.79392 0.156775  -0.259879 -0.771173 0.151306  -0.232184 -0.775467 0.15304  -0.254501 -0.771461 0.151382  -0.291064 -0.834791 0.166046  -0.291815 -0.811968 0.160442  -0.274004 -0.838592 0.167533  -0.246145 -0.843014 0.169286  -0.246961 -0.82013 0.163699  -0.286379 -0.812312 0.160534  -0.268543 -0.838935 0.167678  -0.269324 -0.816073 0.162086  -0.241513 -0.820481 0.163838  -0.263883 -0.816422 0.162207  -0.300308 -0.879867 0.176982  -0.301145 -0.856966 0.17135  -0.283314 -0.883661 0.17845  -0.255373 -0.88817 0.180254  -0.256233 -0.865212 0.174601  -0.295697 -0.857304 0.171488  -0.277782 -0.884035 0.178619  -0.278655 -0.861098 0.172974  -0.250772 -0.865594 0.174778  -0.273174 -0.861474 0.173115  -0.309522 -0.924988 0.188014  -0.310411 -0.902042 0.182369  -0.292487 -0.928805 0.189477  -0.264472 -0.933351 0.191285  -0.265456 -0.910369 0.185546  -0.304936 -0.902456 0.182546  -0.286958 -0.929166 0.189665  -0.28792 -0.906212 0.183967  -0.259945 -0.910764 0.185731  -0.282384 -0.906628 0.184162  -0.318551 -0.970119 0.199218  -0.319579 -0.947224 0.193447  -0.301559 -0.973934 0.200515  -0.273586 -0.978555 0.202388  -0.274624 -0.955506 0.196595  -0.314063 -0.947545 0.193638  -0.296061 -0.97437 0.200736  -0.297032 -0.951386 0.195053  -0.269008 -0.955959 0.196843  -0.291533 -0.951764 0.195287  -0.327701 -1.01532 0.210441  -0.328659 -0.992164 0.204359  -0.310627 -1.01907 0.211661  -0.282592 -1.02355 0.213398  -0.283635 -1.00067 0.207694  -0.32309 -0.992849 0.204596  -0.305157 -1.01953 0.211971  -0.306083 -0.996483 0.206029  -0.278103 -1.00108 0.207938  -0.300601 -0.996949 0.206259  -0.336397 -1.06036 0.221267  -0.337349 -1.0373 0.215486  -0.319708 -1.06408 0.222487  -0.291543 -1.06884 0.224441  -0.292593 -1.0457 0.218798  -0.33207 -1.03766 0.215627  -0.31392 -1.06443 0.222894  -0.315148 -1.04146 0.217077  -0.287179 -1.04628 0.219091  -0.309591 -1.04204 0.217233  -0.344752 -1.10526 0.232066  -0.346609 -1.0825 0.226705  -0.328668 -1.10919 0.233271  -0.300383 -1.11353 0.235461  -0.301577 -1.09066 0.22951  -0.340822 -1.08298 0.226776  -0.322395 -1.1094 0.233293  -0.324025 -1.08653 0.228037  -0.296036 -1.09142 0.229819  -0.318377 -1.08747 0.22846  -0.00357401 -0.00535083 -0.00254846  0 0 0  -0.00236268 -0.00336577 -0.00268555  -0.000783037 -0.00122184 -0.00120687  0 0 0  -0.00345089 -0.0048372 -0.00349331  -0.00108347 -0.00218152 -0.00151944  0 0 0  -0.000743188 -0.00102331 -0.00160217  -0.00104216 -0.00192778 -0.00203395  -0.0110008 -0.015156 -0.00319028  -0.00743607 -0.012334 -0.00340509  -0.00488649 -0.00801364 -0.00226307  -0.0105994 -0.0142159 -0.00474954  -0.00698598 -0.00989439 -0.00306916  -0.00465147 -0.00740373 -0.003263  -0.00674139 -0.00915313 -0.00436592  -0.0196511 -0.0276039 -0.00229645  -0.0137316 -0.024872 -0.0024848  -0.0110744 -0.0191333 -0.0017705  -0.0188725 -0.0264286 -0.00412965  -0.0152895 -0.0210265 -0.00290012  -0.0105158 -0.0182212 -0.00311089  -0.014708 -0.0199539 -0.0046308  -0.0283888 -0.0428796 -0.00022006  -0.020261 -0.0404951 -0.000313997  -0.0179635 -0.0333727 -7.08103e-05  -0.0271856 -0.0416182 -0.00209165  -0.0240234 -0.0348594 -0.00138068  -0.0169948 -0.0322953 -0.00152373  -0.0230374 -0.0336323 -0.00325227  -0.0370551 -0.0611548 0.00276423  -0.0268164 -0.0591794 0.00279617  -0.0249301 -0.0505951 0.00256968  -0.0354277 -0.0599038 0.000979185  -0.0327333 -0.0516456 0.00117469  -0.0235329 -0.0494658 0.0011425  -0.0313152 -0.0503866 -0.000663757  -0.0456524 -0.0823023 0.0064733  -0.0334547 -0.0807543 0.0066359  -0.0319257 -0.0707277 0.00596595  -0.0436326 -0.0811079 0.00482488  -0.0413582 -0.0713759 0.00453687  -0.0301208 -0.0696168 0.00463247  -0.0395312 -0.0701544 0.00281501  -0.0542299 -0.106137 0.0108006  -0.0402389 -0.105034 0.0110981  -0.0389975 -0.0936202 0.0100045  -0.0518562 -0.105033 0.00931096  -0.0499401 -0.0938914 0.00856352  -0.0368255 -0.0925702 0.00879335  -0.0477391 -0.0927464 0.00699162  -0.0628316 -0.132461 0.0156848  -0.0472103 -0.131802 0.0161114  -0.0462041 -0.119085 0.0146205  -0.0601385 -0.131452 0.0143504  -0.0585234 -0.118993 0.0131767  -0.0436993 -0.118118 0.013536  -0.0559875 -0.117941 0.0117636  -0.0714968 -0.161076 0.0210896  -0.0544002 -0.16087 0.0216444  -0.0535835 -0.146933 0.0197713  -0.0685166 -0.16018 0.019907  -0.0671532 -0.146488 0.0183244  -0.0507761 -0.146061 0.0188134  -0.0643138 -0.145541 0.0170653  -0.0802536 -0.19181 0.026979  -0.0618136 -0.192038 0.0276544  -0.0611582 -0.176976 0.0254278  -0.0770069 -0.19101 0.025934  -0.0758605 -0.176184 0.0239742  -0.0580794 -0.176202 0.024586  -0.0727463 -0.175341 0.0228601  -0.0891143 -0.224465 0.0333395  -0.0694655 -0.225131 0.0341294  -0.0689459 -0.209029 0.0315616  -0.0856292 -0.223783 0.0324275  -0.084669 -0.207902 0.0301006  -0.065608 -0.208356 0.0308321  -0.0813009 -0.207167 0.0291235  -0.0980941 -0.2589 0.0401394  -0.0773396 -0.25997 0.0410423  -0.0769404 -0.242922 0.0381548  -0.0943782 -0.258304 0.0393474  -0.0935879 -0.241468 0.0366833  -0.0733775 -0.242342 0.0375257  -0.0899875 -0.240832 0.0358307  -0.10718 -0.29491 0.0473785  -0.0854397 -0.296388 0.0483799  -0.0851527 -0.278472 0.0451856  -0.103262 -0.294431 0.0467019  -0.102623 -0.276711 0.0437057  -0.0813589 -0.277993 0.0446546  -0.0988035 -0.27618 0.0429721  -0.116379 -0.332389 0.0550139  -0.0937366 -0.334232 0.0561216  -0.0935484 -0.315534 0.0526392  -0.112259 -0.331985 0.0544398  -0.111765 -0.313476 0.0511436  -0.0895685 -0.315141 0.0521929  -0.107747 -0.313035 0.0505183  -0.125662 -0.371125 0.0630519  -0.102228 -0.373335 0.0642383  -0.102143 -0.353932 0.060488  -0.121372 -0.370837 0.0625782  -0.12101 -0.351602 0.0589828  -0.0979537 -0.353635 0.0601277  -0.116801 -0.35126 0.0584617  -0.135035 -0.411048 0.0714369  -0.110875 -0.413571 0.0727234  -0.110878 -0.393541 0.0687146  -0.130568 -0.410819 0.0710518  -0.130337 -0.390951 0.0671961  -0.106539 -0.39332 0.0684264  -0.12596 -0.390691 0.0667677  -0.144455 -0.451937 0.0801907  -0.119671 -0.454778 0.0815392  -0.119778 -0.434193 0.0772953  -0.139846 -0.451819 0.079895  -0.139741 -0.431372 0.0757678  -0.115248 -0.434062 0.0770831  -0.135197 -0.431203 0.0754311  -0.153933 -0.493753 0.0892487  -0.128581 -0.496857 0.0906897  -0.128767 -0.475783 0.0862155  -0.149171 -0.493681 0.0890276  -0.149186 -0.472744 0.0846765  -0.124121 -0.475717 0.0860636  -0.144505 -0.472647 0.0844193  -0.163419 -0.536277 0.0986309  -0.137588 -0.539648 0.100115  -0.137883 -0.518154 0.0954449  -0.158541 -0.53631 0.098484  -0.158677 -0.514928 0.0938978  -0.133063 -0.51817 0.0953586  -0.15385 -0.51491 0.0937188  -0.172931 -0.579498 0.108268  -0.146667 -0.583078 0.109833  -0.147035 -0.561219 0.104965  -0.167922 -0.579565 0.108184  -0.168171 -0.557817 0.103411  -0.142129 -0.56129 0.104928  -0.163232 -0.557862 0.103298  -0.182413 -0.623201 0.11819  -0.155797 -0.626997 0.11978  -0.156276 -0.604837 0.11475  -0.177316 -0.623365 0.118167  -0.17768 -0.60129 0.113192  -0.151215 -0.604982 0.114769  -0.172616 -0.601405 0.113144  -0.191889 -0.667398 0.128318  -0.164958 -0.671352 0.129978  -0.165501 -0.648939 0.124784  -0.186685 -0.66758 0.128346  -0.18715 -0.645256 0.123221  -0.160386 -0.649124 0.124841  -0.182005 -0.645421 0.123226  -0.201309 -0.711884 0.13868  -0.174129 -0.716004 0.140351  -0.174782 -0.693392 0.135031  -0.196036 -0.712153 0.138756  -0.19661 -0.689603 0.133467  -0.169528 -0.693645 0.135132  -0.19136 -0.689829 0.133525  -0.210697 -0.756688 0.149199  -0.183304 -0.760916 0.150926  -0.184011 -0.738146 0.145477  -0.205344 -0.756964 0.149312  -0.206003 -0.73426 0.143913  -0.178729 -0.738431 0.145608  -0.200697 -0.73453 0.144011  -0.220024 -0.801626 0.159905  -0.192468 -0.805975 0.161632  -0.193267 -0.783094 0.156094  -0.214618 -0.801981 0.160052  -0.215371 -0.779136 0.154526  -0.187874 -0.783432 0.156254  -0.209983 -0.779451 0.154661  -0.229301 -0.846741 0.170718  -0.201609 -0.851163 0.172502  -0.202469 -0.828194 0.166859  -0.223832 -0.847083 0.170892  -0.224666 -0.824173 0.165287  -0.197052 -0.828548 0.16704  -0.219234 -0.824519 0.165453  -0.238505 -0.891874 0.181661  -0.210713 -0.896374 0.18341  -0.211646 -0.873362 0.17773  -0.23301 -0.892293 0.181858  -0.233909 -0.869293 0.176172  -0.206149 -0.873772 0.177936  -0.228427 -0.869689 0.176363  -0.247671 -0.937052 0.192636  -0.219825 -0.941603 0.194448  -0.220783 -0.918583 0.188716  -0.242123 -0.937492 0.192862  -0.243099 -0.914485 0.187149  -0.215285 -0.918984 0.188927  -0.237575 -0.914886 0.187356  -0.256768 -0.982245 0.203726  -0.228873 -0.98677 0.205518  -0.229866 -0.963764 0.199789  -0.25123 -0.982654 0.203923  -0.252224 -0.959646 0.198177  -0.224354 -0.964225 0.200005  -0.246664 -0.960089 0.198393  -0.265826 -1.02733 0.214778  -0.237674 -1.03212 0.216669  -0.239033 -1.00892 0.210798  -0.260204 -1.02766 0.214982  -0.261302 -1.0048 0.209216  -0.233335 -1.00947 0.211101  -0.255787 -1.00522 0.209388  -0.274618 -1.07228 0.225756  -0.246757 -1.07719 0.227422  -0.247752 -1.05407 0.221856  -0.269205 -1.07322 0.226086  -0.270276 -1.04984 0.220239  -0.242129 -1.05458 0.222225  -0.264724 -1.05045 0.220563  -0.28319 -1.11739 0.236775  -0.255702 -1.12175 0.238624  -0.256784 -1.09905 0.232723  -0.277793 -1.11773 0.237207  -0.278947 -1.09496 0.23127  -0.251398 -1.09952 0.232872  -0.273446 -1.09547 0.231679  -0.0015885 -0.00282642 -0.00139856  0 0 0  -0.000699542 -0.00203601 -0.00114179  -0.000260934 -0.000313222 -0.000613213  0 0 0  -0.00146799 -0.0024884 -0.00189948  -0.000483785 -0.000629604 -0.000899792  0 0 0  -0.000220325 -0.000198632 -0.000758886  -0.00044604 -0.000477254 -0.0011692  -0.00517583 -0.0117774 -0.00124526  -0.00236113 -0.01051 -0.000815392  -0.0016817 -0.00613138 -0.000734806  -0.0047837 -0.0111245 -0.00208855  -0.0031862 -0.00679737 -0.00147843  -0.00142393 -0.00572485 -0.00112677  -0.00294477 -0.00629857 -0.00217414  -0.00984657 -0.0247163 0.000117779  -0.00471956 -0.0233784 0.000652313  -0.00406721 -0.0171735 0.000349283  -0.00908419 -0.0238475 -0.000890255  -0.00743055 -0.0178524 -0.000685692  -0.0034745 -0.0165236 -0.00020051  -0.00686336 -0.0170819 -0.00163031  -0.0149173 -0.0408276 0.00243616  -0.00750417 -0.0396492 0.003052  -0.00705087 -0.031944 0.00236988  -0.0137381 -0.0398363 0.00140142  -0.0123565 -0.032395 0.00117803  -0.00607121 -0.0311255 0.00175333  -0.0113882 -0.031455 0.000144482  -0.020164 -0.0598807 0.00552654  -0.0106161 -0.0589644 0.00621033  -0.010402 -0.0498355 0.00515795  -0.0185757 -0.0588656 0.00453854  -0.0175192 -0.0499898 0.00389552  -0.00901794 -0.0489391 0.00454736  -0.0161327 -0.048982 0.00287843  -0.0256025 -0.0817561 0.00927687  -0.0140862 -0.0811418 0.0100362  -0.0140665 -0.070612 0.00861454  -0.0236337 -0.0807636 0.00837493  -0.0228558 -0.0704723 0.00732517  -0.0123044 -0.0697049 0.00804782  -0.0210738 -0.0694658 0.0063765  -0.0312812 -0.10628 0.0136161  -0.0179665 -0.105996 0.0144494  -0.0180911 -0.0941148 0.0126774  -0.0289692 -0.105353 0.0128098  -0.0284079 -0.0936928 0.0113747  -0.0159709 -0.0932456 0.0121753  -0.0262631 -0.0927346 0.0105193  -0.0372434 -0.133279 0.0185106  -0.0222866 -0.133353 0.0194228  -0.0225073 -0.120182 0.0173035  -0.0346181 -0.132432 0.0178053  -0.0342241 -0.119479 0.0159974  -0.0200729 -0.119376 0.0168698  -0.0317536 -0.118594 0.0152392  -0.043514 -0.162562 0.0239224  -0.0270581 -0.162989 0.024904  -0.0273501 -0.148625 0.0224693  -0.0406033 -0.161802 0.0233076  -0.0403388 -0.147642 0.0211532  -0.0246137 -0.147897 0.0221043  -0.0375664 -0.146843 0.0204921  -0.0501007 -0.193939 0.0298309  -0.0322826 -0.19475 0.0308924  -0.0326195 -0.179262 0.0281403  -0.0469283 -0.19328 0.0293081  -0.0467663 -0.177998 0.0268161  -0.0296177 -0.178622 0.0278406  -0.043725 -0.177291 0.0262456  -0.0570092 -0.227242 0.0362098  -0.0379429 -0.228392 0.0373363  -0.0383159 -0.211899 0.0343018  -0.0535895 -0.226661 0.0357645  -0.0535152 -0.210357 0.0329611  -0.0350567 -0.211344 0.0340612  -0.0502146 -0.209742 0.0324762  -0.0642184 -0.262265 0.043035  -0.0440307 -0.263802 0.0442383  -0.0444307 -0.246357 0.0409207  -0.0605769 -0.261798 0.0426726  -0.0605754 -0.244546 0.0395684  -0.0409393 -0.245896 0.0407383  -0.0570467 -0.244026 0.0391624  -0.0717318 -0.298883 0.050297  -0.0505095 -0.300726 0.0515604  -0.0509335 -0.28246 0.0479851  -0.0678709 -0.298479 0.0499976  -0.0679382 -0.280384 0.0466118  -0.0472201 -0.282081 0.0478508  -0.064183 -0.279954 0.046279  -0.0795054 -0.336877 0.0579624  -0.0573702 -0.339094 0.0592945  -0.0578184 -0.320038 0.0554657  -0.0754592 -0.336596 0.0577371  -0.0755863 -0.317714 0.05408  -0.0538988 -0.319752 0.0553823  -0.0716348 -0.317375 0.0538151  -0.0875485 -0.376169 0.0660219  -0.0645634 -0.378642 0.0674095  -0.0650315 -0.358936 0.0633512  -0.0833043 -0.375927 0.0658469  -0.0834951 -0.356372 0.0619423  -0.0609243 -0.358722 0.0633075  -0.0793462 -0.356115 0.0617406  -0.0957925 -0.416515 0.0744371  -0.0720816 -0.41934 0.0758839  -0.072582 -0.398993 0.0716047  -0.0913968 -0.416406 0.0743291  -0.0916463 -0.396213 0.070183  -0.0682883 -0.398869 0.0716059  -0.0873278 -0.396042 0.0700402  -0.104262 -0.457896 0.0832109  -0.0798607 -0.460921 0.0847099  -0.080385 -0.44008 0.0802217  -0.0996852 -0.457801 0.0831432  -0.100001 -0.437091 0.078778  -0.0759375 -0.440017 0.0802538  -0.095512 -0.436993 0.0786884  -0.112868 -0.500043 0.092294  -0.087904 -0.503388 0.0938375  -0.0884712 -0.482041 0.0891647  -0.108172 -0.500088 0.092284  -0.108549 -0.478872 0.0877104  -0.0838542 -0.482064 0.0892363  -0.103913 -0.478853 0.0876715  -0.12165 -0.542988 0.101692  -0.0961387 -0.546478 0.103283  -0.0967319 -0.524777 0.0984247  -0.116794 -0.543026 0.101713  -0.117238 -0.521434 0.0969524  -0.0919962 -0.524848 0.0985188  -0.11246 -0.521476 0.096957  -0.130507 -0.586448 0.111347  -0.104573 -0.590219 0.11297  -0.105225 -0.568134 0.107964  -0.125562 -0.586625 0.111418  -0.12607 -0.564649 0.106481  -0.100334 -0.568284 0.108091  -0.121169 -0.564762 0.106528  -0.139496 -0.6305 0.121277  -0.113136 -0.634365 0.122942  -0.113814 -0.612041 0.11777  -0.134407 -0.630651 0.121372  -0.134986 -0.608418 0.116276  -0.108838 -0.612231 0.117916  -0.12997 -0.608585 0.116359  -0.148503 -0.674851 0.131416  -0.121842 -0.678955 0.1331  -0.122589 -0.656358 0.127817  -0.143353 -0.675141 0.131552  -0.143999 -0.652628 0.126312  -0.11747 -0.656617 0.127991  -0.138876 -0.652856 0.126431  -0.157598 -0.719615 0.141782  -0.13062 -0.723765 0.143498  -0.131392 -0.701033 0.138082  -0.152327 -0.71986 0.141933  -0.153038 -0.697201 0.136569  -0.126222 -0.701319 0.138268  -0.14783 -0.697469 0.136714  -0.166676 -0.764504 0.152309  -0.139494 -0.768849 0.154038  -0.140339 -0.745935 0.148534  -0.161364 -0.764875 0.15249  -0.162139 -0.742028 0.147018  -0.13504 -0.746278 0.148739  -0.156847 -0.742345 0.147188  -0.175804 -0.809646 0.163019  -0.1484 -0.814008 0.164782  -0.149272 -0.791038 0.159166  -0.170385 -0.809978 0.163216  -0.171232 -0.78706 0.157637  -0.143942 -0.791407 0.159374  -0.16587 -0.787413 0.157828  -0.18489 -0.854788 0.173834  -0.157371 -0.859284 0.175603  -0.158304 -0.836226 0.169943  -0.179451 -0.855236 0.174048  -0.180353 -0.832205 0.168402  -0.152868 -0.836639 0.170162  -0.174914 -0.832595 0.168606  -0.194007 -0.90006 0.184781  -0.166324 -0.904538 0.186532  -0.167261 -0.881501 0.18084  -0.188492 -0.900432 0.184991  -0.189444 -0.877427 0.179286  -0.161857 -0.881896 0.18108  -0.183968 -0.877837 0.1795  -0.203066 -0.945254 0.195789  -0.17533 -0.949887 0.197565  -0.176317 -0.926716 0.191827  -0.197561 -0.945735 0.196004  -0.198541 -0.922648 0.190288  -0.170809 -0.927167 0.192075  -0.193038 -0.923075 0.190532  -0.212072 -0.990423 0.206865  -0.184281 -0.995091 0.208749  -0.185364 -0.971982 0.202849  -0.206466 -0.990953 0.207148  -0.207578 -0.967868 0.201333  -0.179787 -0.972492 0.203094  -0.202044 -0.968368 0.201604  -0.220931 -1.03571 0.218103  -0.193344 -1.04013 0.219918  -0.19434 -1.01722 0.214006  -0.2156 -1.03624 0.218399  -0.216563 -1.0131 0.212396  -0.188792 -1.01772 0.21422  -0.210978 -1.01365 0.212679  -0.230091 -1.08079 0.229023  -0.202065 -1.08555 0.230896  -0.203081 -1.06216 0.225225  -0.224575 -1.08103 0.229117  -0.225361 -1.05815 0.223578  -0.197758 -1.06239 0.225556  -0.220043 -1.05838 0.22385  -0.23897 -1.1256 0.240109  -0.210621 -1.13045 0.242149  -0.212094 -1.10706 0.236264  -0.233323 -1.12621 0.240227  -0.234571 -1.10301 0.234506  -0.206042 -1.10774 0.236688  -0.228979 -1.10357 0.235026  -0.000128202 -0.00215289 -0.000340939  0 0 0  0.000688866 -0.00214481 0.000336647  0.000163831 -0.000297427 -5.62668e-05  0 0 0  1.34259e-05 -0.00193754 -0.000389576  -3.8296e-05 -0.000209868 -0.000327826  0 0 0  0.00020881 -0.000240952 5.4121e-05  4.5374e-06 -0.000128984 -0.00034523  -0.000554621 -0.0108651 0.000553131  0.00206676 -0.0108133 0.00164008  0.0010287 -0.00618199 0.000686884  -0.000110969 -0.0104204 0.000436068  -0.00029552 -0.00594142 -7.86781e-06  0.00133221 -0.005914 0.000908613  -1.71512e-05 -0.00561157 -9.10759e-05  -0.00140178 -0.0240743 0.00233817  0.00344664 -0.0240017 0.00360155  0.00212499 -0.0174418 0.00230527  -0.000588 -0.0234338 0.00216007  -0.000925153 -0.0170456 0.00135279  0.00278836 -0.016978 0.0025444  -0.000300378 -0.0164979 0.0012002  -0.00268999 -0.0406889 0.00485325  0.00440359 -0.0406766 0.00616789  0.00295731 -0.0325682 0.00459051  -0.00149465 -0.039929 0.00464845  -0.00199166 -0.032003 0.00351167  0.00399163 -0.03195 0.0048058  -0.000986606 -0.0312923 0.00331593  -0.00443888 -0.060294 0.0080235  0.0047639 -0.0604009 0.00935936  0.003272 -0.0508766 0.00748825  -0.00286651 -0.0594762 0.00782537  -0.00350446 -0.0501316 0.00635886  0.00466394 -0.0501696 0.00768328  -0.00211984 -0.0493353 0.00615358  -0.00666809 -0.0826853 0.0118022  0.00447208 -0.0829987 0.0131445  0.00296301 -0.0720763 0.0109859  -0.00474632 -0.0818866 0.0116327  -0.00549203 -0.0711459 0.00983715  0.00470114 -0.0713519 0.0111747  -0.00373971 -0.0703339 0.00965214  -0.00942165 -0.107738 0.0161602  0.00349724 -0.108278 0.0175259  0.00200856 -0.0960193 0.0150626  -0.00717068 -0.10697 0.0160289  -0.0079748 -0.0948904 0.0139074  0.00407213 -0.095307 0.0152581  -0.00588864 -0.0941017 0.0137565  -0.012708 -0.135251 0.021064  0.0018419 -0.136079 0.0224411  0.000385046 -0.122529 0.0197062  -0.0101607 -0.134566 0.0209727  -0.0110006 -0.121196 0.0185418  0.00275356 -0.121881 0.0199125  -0.00859356 -0.12047 0.0184314  -0.0165467 -0.16507 0.0264981  -0.000500917 -0.166178 0.0279081  -0.0018996 -0.151443 0.0248826  -0.0137154 -0.164446 0.0264471  -0.014555 -0.14989 0.0237131  0.000757575 -0.150845 0.0251014  -0.0118681 -0.149227 0.0236433  -0.0209198 -0.196973 0.032424  -0.00349998 -0.1984 0.0338473  -0.00484002 -0.182544 0.0305824  -0.0178324 -0.196451 0.0324051  -0.0186714 -0.180771 0.0293953  -0.00192153 -0.182043 0.030812  -0.0157028 -0.180201 0.0293643  -0.0258205 -0.230797 0.0388377  -0.0071497 -0.232522 0.0403044  -0.00842178 -0.215667 0.0367689  -0.0224861 -0.230344 0.0388582  -0.0233021 -0.213666 0.035568  -0.00524151 -0.215224 0.0370095  -0.0200948 -0.213163 0.0355723  -0.0312219 -0.266342 0.0456896  -0.0113999 -0.268376 0.0471685  -0.0126047 -0.250586 0.0434296  -0.0276623 -0.265987 0.0457308  -0.0284652 -0.248364 0.0422051  -0.00920498 -0.250251 0.0436778  -0.0250075 -0.247966 0.0422411  -0.0370955 -0.303435 0.0529938  -0.0162399 -0.305769 0.0545177  -0.0173863 -0.287156 0.050529  -0.0333204 -0.303155 0.0530727  -0.0340983 -0.284714 0.0492854  -0.0137429 -0.286878 0.0507855  -0.0304358 -0.284378 0.0493519  -0.0434158 -0.341923 0.0606852  -0.0216032 -0.344532 0.0622218  -0.0226864 -0.325166 0.0580583  -0.0394405 -0.341729 0.0607734  -0.0402066 -0.322515 0.0567875  -0.0188628 -0.324992 0.0583198  -0.0363202 -0.322285 0.05688  -0.0501344 -0.38162 0.0687883  -0.0274822 -0.384515 0.0703707  -0.028525 -0.364483 0.0659821  -0.0459757 -0.381505 0.0689163  -0.046725 -0.361634 0.064688  -0.024473 -0.364367 0.0662501  -0.0426626 -0.361459 0.0648067  -0.0572408 -0.422423 0.0772326  -0.0338031 -0.425542 0.0788193  -0.0347868 -0.404928 0.0742896  -0.052901 -0.422374 0.0773571  -0.0536442 -0.401893 0.0729673  -0.0305954 -0.404904 0.0745571  -0.0493841 -0.401818 0.0731053  -0.0646594 -0.464121 0.0860441  -0.0405557 -0.467509 0.0876784  -0.0415287 -0.446368 0.0829413  -0.0601683 -0.464159 0.0862119  -0.0609121 -0.443167 0.0815964  -0.0371187 -0.446404 0.0832176  -0.0565009 -0.443141 0.0817571  -0.0724006 -0.506681 0.0951502  -0.0476608 -0.510233 0.096782  -0.0485802 -0.488667 0.0919335  -0.0677459 -0.506758 0.095304  -0.0684912 -0.485303 0.0905626  -0.0440722 -0.488775 0.092206  -0.0639095 -0.485367 0.0907378  -0.0803671 -0.549849 0.10458  -0.0551174 -0.553654 0.106259  -0.0560539 -0.531679 0.101223  -0.0755947 -0.550025 0.104779  -0.0763576 -0.528185 0.0998321  -0.0513372 -0.531852 0.101505  -0.0716474 -0.528294 0.100026  -0.0885932 -0.593671 0.114257  -0.0628374 -0.597576 0.115932  -0.0637295 -0.57532 0.110807  -0.0836723 -0.593857 0.114434  -0.0844464 -0.571692 0.109392  -0.0589516 -0.575541 0.111083  -0.0795929 -0.571875 0.109598  -0.0969658 -0.63786 0.124212  -0.0708299 -0.641992 0.125926  -0.0717635 -0.619428 0.120643  -0.0919552 -0.638151 0.124435  -0.0927641 -0.615703 0.119209  -0.0667911 -0.619719 0.120924  -0.0878 -0.615931 0.119429  -0.105537 -0.682519 0.134368  -0.0790079 -0.686692 0.136076  -0.0799077 -0.663973 0.130726  -0.100397 -0.682793 0.134563  -0.101221 -0.660143 0.129272  -0.0749025 -0.66429 0.131  -0.0961416 -0.660428 0.129498  -0.114191 -0.727344 0.144752  -0.0873914 -0.731722 0.146494  -0.0883505 -0.708779 0.141012  -0.108984 -0.727727 0.144991  -0.109856 -0.704884 0.139546  -0.0831652 -0.709165 0.141292  -0.104686 -0.705208 0.139783  -0.122978 -0.772479 0.1553  -0.0958912 -0.77685 0.157035  -0.0968273 -0.753858 0.1515  -0.117664 -0.77283 0.155509  -0.11856 -0.749885 0.150017  -0.0916271 -0.754241 0.151773  -0.113292 -0.750245 0.150262  -0.131806 -0.817623 0.166024  -0.10455 -0.822152 0.167788  -0.105541 -0.799032 0.162147  -0.126461 -0.818072 0.166268  -0.127391 -0.795024 0.16065  -0.100197 -0.79949 0.162417  -0.122062 -0.795427 0.160889  -0.140726 -0.862954 0.176863  -0.113277 -0.867427 0.178625  -0.114247 -0.844345 0.172956  -0.135296 -0.863339 0.177084  -0.136246 -0.840285 0.171436  -0.108915 -0.844786 0.173211  -0.130865 -0.840703 0.171676  -0.149685 -0.908199 0.187813  -0.122099 -0.912828 0.189605  -0.123123 -0.88963 0.183872  -0.144171 -0.908698 0.188062  -0.145205 -0.88555 0.182343  -0.117668 -0.890118 0.184138  -0.139745 -0.885996 0.182588  -0.158606 -0.953505 0.198872  -0.13096 -0.958063 0.200678  -0.131952 -0.934913 0.19492  -0.153089 -0.953991 0.199131  -0.154136 -0.9308 0.193363  -0.126501 -0.935365 0.195171  -0.148574 -0.931279 0.19365  -0.16753 -0.99865 0.210025  -0.139863 -1.00331 0.211895  -0.140903 -0.980184 0.205975  -0.162122 -0.999188 0.210227  -0.163058 -0.976113 0.204453  -0.135408 -0.980734 0.206245  -0.157603 -0.976613 0.204681  -0.176669 -1.04378 0.220997  -0.148676 -1.04836 0.223075  -0.149897 -1.02553 0.217168  -0.170864 -1.04418 0.221306  -0.172124 -1.02139 0.215559  -0.144341 -1.02596 0.21743  -0.166617 -1.02182 0.21575  -0.1853 -1.08894 0.23238  -0.157561 -1.09405 0.234305  -0.158715 -1.07048 0.228302  -0.179761 -1.09002 0.232925  -0.181081 -1.06623 0.226661  -0.153003 -1.07097 0.228735  -0.175192 -1.06676 0.227015  -0.193791 -1.13386 0.243047  -0.165636 -1.13746 0.245555  -0.167284 -1.11551 0.239472  -0.188082 -1.13382 0.243907  -0.189429 -1.11139 0.237843  -0.161871 -1.11616 0.239933  -0.183818 -1.112 0.23805  0.00120749 -0.00278765 0.0006392  0 0 0  0.00209625 -0.00346851 0.0017035  0.000591896 -0.00102895 0.000457525  0 0 0  0.00137728 -0.00265092 0.00103927  0.000370651 -0.000564098 0.000207901  0 0 0  0.000642635 -0.000998616 0.000814676  0.000418238 -0.000525236 0.000443697  0.00374272 -0.0119826 0.00219965  0.00651801 -0.0130126 0.00389504  0.00375485 -0.00792098 0.00197005  0.00426078 -0.0116748 0.00279832  0.00236677 -0.00683886 0.00135303  0.00411355 -0.00774401 0.00278401  0.00269842 -0.00662166 0.00187349  0.0065943 -0.0255423 0.00434542  0.0115822 -0.0266226 0.00627732  0.00830624 -0.0197597 0.00405431  0.0074805 -0.0250669 0.00497937  0.00518152 -0.0183479 0.00321126  0.00905618 -0.0194092 0.00505376  0.00588796 -0.0179502 0.00383711  0.00903738 -0.0424693 0.00701499  0.0162075 -0.0435398 0.00899053  0.0128973 -0.0351624 0.00655937  0.0102776 -0.0418823 0.00761914  0.00789356 -0.0336259 0.00561357  0.0139869 -0.0346969 0.00757742  0.00895691 -0.0330887 0.00623512  0.0107831 -0.0623729 0.0102389  0.0199642 -0.0634456 0.0121849  0.016785 -0.0536725 0.00953937  0.0123457 -0.0617267 0.0108128  0.0100045 -0.0520609 0.00855565  0.0182078 -0.0531135 0.0105202  0.0114127 -0.0514337 0.00914693  0.0117373 -0.0851184 0.0140388  0.0227956 -0.086333 0.0159531  0.0197905 -0.0750961 0.0130742  0.0136272 -0.0844793 0.0145855  0.0113625 -0.0733961 0.0120661  0.0214886 -0.0745369 0.0140045  0.0130817 -0.0727552 0.0126286  0.0119076 -0.110522 0.0184114  0.0246964 -0.111858 0.0202787  0.0218419 -0.0993139 0.0171571  0.0140929 -0.109908 0.0189395  0.0119182 -0.0974953 0.0161521  0.0238753 -0.0987526 0.0180488  0.0139692 -0.0968598 0.0166965  0.0112803 -0.138453 0.0233359  0.0256653 -0.140061 0.0251863  0.0230121 -0.126145 0.0218403  0.0137625 -0.137907 0.023849  0.0116971 -0.124179 0.0207992  0.0252801 -0.125651 0.022682  0.0140176 -0.123607 0.021328  0.00989044 -0.168668 0.0287929  0.0257658 -0.170437 0.0306022  0.023245 -0.155401 0.0270205  0.0126354 -0.168175 0.0292871  0.0106777 -0.153281 0.0259926  0.0258478 -0.154954 0.027837  0.01331 -0.152756 0.0265107  0.00773585 -0.201023 0.0347571  0.0249507 -0.203134 0.0365682  0.0226582 -0.186884 0.0327854  0.0107434 -0.200623 0.0352435  0.00891399 -0.18458 0.031697  0.0254455 -0.186521 0.0335493  0.0117693 -0.184148 0.032202  0.00486612 -0.235259 0.0412099  0.0233682 -0.237523 0.0429766  0.0211761 -0.220366 0.0389798  0.00811291 -0.234915 0.0416698  0.00638866 -0.217902 0.0379093  0.0242916 -0.220078 0.0397296  0.00953865 -0.21753 0.0384061  0.00130057 -0.271242 0.048115  0.0209014 -0.273884 0.0498996  0.0189534 -0.255687 0.0457294  0.0047729 -0.271004 0.0485771  0.00317848 -0.253024 0.0445795  0.0222098 -0.255472 0.0464232  0.00651062 -0.252751 0.0450642  -0.00291717 -0.308744 0.0554664  0.0177919 -0.311502 0.0572059  0.0159028 -0.292598 0.0528393  0.000778198 -0.308552 0.0558896  -0.000724196 -0.289787 0.0517108  0.0194757 -0.29248 0.0535259  0.00288308 -0.289579 0.0521872  -0.00773561 -0.347621 0.0632153  0.0138527 -0.350767 0.0649819  0.012208 -0.330996 0.0604665  -0.00385284 -0.347542 0.0636563  -0.00523913 -0.327987 0.0592484  0.015887 -0.330926 0.0610967  -0.00148177 -0.327871 0.059715  -0.013134 -0.387704 0.0713708  0.00940168 -0.39092 0.073091  0.00777602 -0.370616 0.0684006  -0.00904083 -0.387654 0.0717571  -0.0103507 -0.367482 0.0672057  0.0117496 -0.370661 0.0690269  -0.0063436 -0.367435 0.067663  -0.0190294 -0.428819 0.0798709  0.00419188 -0.432413 0.0816247  0.002792 -0.411411 0.0768032  -0.0147866 -0.428889 0.0802903  -0.016005 -0.408091 0.07552  0.0068543 -0.411477 0.0773754  -0.0118681 -0.408123 0.0759671  -0.0254242 -0.470879 0.0887349  -0.00140572 -0.474496 0.0904474  -0.00281739 -0.453108 0.085475  -0.0209839 -0.470957 0.089088  -0.0221429 -0.44969 0.0842073  0.00150514 -0.453296 0.0860426  -0.0177898 -0.449789 0.0846455  -0.0322039 -0.513656 0.0978899  -0.00766563 -0.517626 0.0996335  -0.0088861 -0.495697 0.0945475  -0.0276496 -0.513859 0.09829  -0.0287476 -0.492116 0.0932038  -0.00448179 -0.495887 0.095067  -0.0242789 -0.492281 0.0936325  -0.0394092 -0.557158 0.107369  -0.0142117 -0.561113 0.109073  -0.0154622 -0.538924 0.103864  -0.0346699 -0.557352 0.107691  -0.0357223 -0.535268 0.102528  -0.0108392 -0.539231 0.104375  -0.0310729 -0.535497 0.102945  -0.0468881 -0.601101 0.117085  -0.0213056 -0.60537 0.118821  -0.022414 -0.582787 0.113511  -0.0420661 -0.60142 0.117467  -0.0430942 -0.578998 0.112115  -0.0177078 -0.583085 0.113982  -0.0383356 -0.579277 0.112524  -0.0547185 -0.645591 0.127085  -0.0286095 -0.649809 0.128788  -0.0297532 -0.627071 0.123382  -0.0497272 -0.645881 0.127382  -0.0507205 -0.623228 0.121982  -0.0248725 -0.62747 0.123839  -0.0458205 -0.623564 0.122377  -0.062726 -0.690282 0.137273  -0.0363369 -0.694775 0.139003  -0.0373924 -0.671764 0.133504  -0.0576744 -0.690695 0.137635  -0.0586801 -0.667822 0.132068  -0.0324261 -0.672153 0.133932  -0.0536735 -0.668197 0.132457  -0.0710146 -0.735375 0.147699  -0.044224 -0.739781 0.149404  -0.0453103 -0.716712 0.143842  -0.0658197 -0.73574 0.147973  -0.0667911 -0.712733 0.142383  -0.0402076 -0.717177 0.144245  -0.0616794 -0.713152 0.142753  -0.0794077 -0.780469 0.158271  -0.0524187 -0.785113 0.159992  -0.0534604 -0.761869 0.154348  -0.0741751 -0.780949 0.158603  -0.075177 -0.757826 0.152883  -0.0482774 -0.762323 0.154734  -0.0699732 -0.758263 0.153241  -0.0880132 -0.825831 0.169029  -0.0607369 -0.830374 0.170736  -0.0618067 -0.807158 0.165066  -0.0826423 -0.82626 0.169283  -0.0836432 -0.803086 0.163555  -0.0565212 -0.807669 0.165415  -0.0783603 -0.803565 0.163898  -0.0966649 -0.871077 0.179888  -0.0692344 -0.875807 0.181608  -0.0703082 -0.852491 0.17586  -0.0912542 -0.871603 0.180196  -0.0923219 -0.848387 0.174376  -0.0649571 -0.852997 0.176217  -0.0869334 -0.848889 0.174715  -0.105457 -0.916509 0.19089  -0.0778658 -0.921066 0.192637  -0.078954 -0.897853 0.186864  -0.0999918 -0.916948 0.191132  -0.101001 -0.89374 0.185304  -0.0734918 -0.898385 0.187164  -0.0955703 -0.894249 0.185614  -0.114304 -0.961709 0.201978  -0.0866189 -0.966434 0.203745  -0.0876422 -0.943136 0.197887  -0.108795 -0.962238 0.202244  -0.109823 -0.938998 0.196387  -0.0822084 -0.94363 0.198194  -0.104378 -0.93949 0.196672  -0.123187 -1.00686 0.213134  -0.0954244 -1.01152 0.215008  -0.0965333 -0.988445 0.209113  -0.117499 -1.0075 0.213473  -0.118751 -0.984296 0.207469  -0.0910001 -0.988985 0.20939  -0.113145 -0.984879 0.207802  -0.131875 -1.05214 0.224584  -0.104117 -1.05673 0.226249  -0.105347 -1.03367 0.220372  -0.126424 -1.05256 0.22492  -0.127631 -1.02962 0.218763  -0.0998702 -1.03421 0.220703  -0.121935 -1.03014 0.219168  -0.140957 -1.09735 0.235479  -0.11306 -1.10169 0.237665  -0.114082 -1.07839 0.231796  -0.135586 -1.09776 0.235617  -0.136189 -1.07457 0.230146  -0.108289 -1.07882 0.23227  -0.13087 -1.07482 0.230526  -0.149393 -1.14178 0.246979  -0.121477 -1.14699 0.248514  -0.122692 -1.12326 0.242873  -0.143901 -1.14204 0.246989  -0.145283 -1.11926 0.2413  -0.117451 -1.12373 0.243296  -0.139936 -1.11982 0.242043  0.00270563 -0.00475013 0.00150371  0 0 0  0.00382023 -0.00627536 0.00289035  0.00112332 -0.00271219 0.000906467  0 0 0  0.00290512 -0.00465113 0.00232291  0.000827767 -0.00172174 0.000687599  0 0 0  0.00117695 -0.00268537 0.00148082  0.000881903 -0.00169647 0.00115728  0.00838235 -0.015087 0.00364351  0.0116237 -0.017252 0.00583839  0.00700225 -0.0115426 0.00306606  0.00896662 -0.0148579 0.00491476  0.00529553 -0.00946975 0.00254893  0.0074089 -0.0114111 0.00441742  0.00567836 -0.00932229 0.00363541  0.0149375 -0.0290484 0.00608253  0.0204503 -0.0312014 0.0085876  0.01525 -0.0241389 0.00552773  0.0158989 -0.0286696 0.00748849  0.0116602 -0.0216882 0.00482464  0.0160559 -0.0238549 0.00722885  0.0124411 -0.0213727 0.00618553  0.0210061 -0.0460566 0.00888038  0.028546 -0.0480629 0.0114245  0.0234961 -0.0396109 0.00820971  0.0222726 -0.0456125 0.0102704  0.0180797 -0.0371649 0.00742912  0.0246511 -0.0392554 0.00998878  0.0192031 -0.0367631 0.00883293  0.0261148 -0.0660834 0.0121391  0.0355721 -0.0680598 0.0146506  0.0307866 -0.0581034 0.0112693  0.0276816 -0.0655524 0.0134728  0.0236901 -0.0556933 0.0104418  0.0321699 -0.0576714 0.0130036  0.0251 -0.0551961 0.0118032  0.0301892 -0.088972 0.0159678  0.0413882 -0.0909722 0.0183966  0.0369434 -0.0795838 0.0148325  0.0320228 -0.088508 0.0172384  0.0282835 -0.0771604 0.0139935  0.0386691 -0.0791758 0.0164948  0.0299916 -0.0766858 0.0152912  0.0332142 -0.114661 0.0203433  0.046135 -0.116803 0.0227184  0.0419544 -0.103967 0.018949  0.0353538 -0.114139 0.0215502  0.0318345 -0.101472 0.0180893  0.0438396 -0.103549 0.0205202  0.0338057 -0.100982 0.019315  0.0352371 -0.142823 0.0253024  0.0496682 -0.145085 0.0275905  0.0458114 -0.131011 0.0236425  0.0376147 -0.142466 0.0264497  0.0343505 -0.12842 0.0227766  0.0481174 -0.130675 0.0251341  0.0366229 -0.128017 0.0239394  0.0362477 -0.173421 0.0307739  0.0522012 -0.175916 0.033035  0.0485976 -0.160548 0.0288746  0.0389358 -0.172988 0.0318661  0.035872 -0.157822 0.0279872  0.0509645 -0.160228 0.0302751  0.0383786 -0.157446 0.0290768  0.0363345 -0.206029 0.0367906  0.0535721 -0.208666 0.03898  0.0502523 -0.192308 0.0346558  0.0392181 -0.205829 0.0378289  0.0364047 -0.189455 0.0337555  0.053129 -0.192097 0.0359888  0.0392116 -0.189184 0.0347943  0.0354656 -0.240687 0.0432663  0.054018 -0.2436 0.0454452  0.0509616 -0.22612 0.0409174  0.0386565 -0.240376 0.0442569  0.0360254 -0.223103 0.0399997  0.0537729 -0.225924 0.0421631  0.0390227 -0.222885 0.0409646  0.0337701 -0.276914 0.0502331  0.0534025 -0.279951 0.0523701  0.0505577 -0.261728 0.047683  0.0371144 -0.276879 0.0511751  0.0347152 -0.258583 0.0467451  0.053972 -0.26165 0.0488718  0.038013 -0.258456 0.0476687  0.0311965 -0.31483 0.0576169  0.0519377 -0.318161 0.0597365  0.049383 -0.298981 0.054868  0.0348392 -0.314655 0.0585172  0.0326017 -0.295662 0.053921  0.0526019 -0.298903 0.0559738  0.0360426 -0.295608 0.0547702  0.0279084 -0.353929 0.0654297  0.0495563 -0.357347 0.0675504  0.0471115 -0.337639 0.0625117  0.0316691 -0.354043 0.066282  0.0296309 -0.334209 0.0615382  0.051017 -0.337685 0.0635705  0.0333723 -0.33422 0.0623553  0.0238396 -0.394374 0.0736265  0.0463907 -0.398092 0.0756969  0.0442762 -0.377587 0.0705214  0.0278786 -0.394344 0.0744426  0.0259819 -0.373985 0.0695474  0.0478748 -0.37761 0.0714984  0.0298214 -0.374083 0.0702918  0.0191669 -0.435692 0.0821815  0.04248 -0.439445 0.0843127  0.0403624 -0.418593 0.078939  0.0233049 -0.43593 0.0829527  0.0215608 -0.414908 0.0779343  0.0446991 -0.418742 0.0798779  0.0256978 -0.415043 0.0786531  0.0138276 -0.478036 0.0911031  0.037848 -0.482088 0.093128  0.0361013 -0.460588 0.0876822  0.0182109 -0.47815 0.0918393  0.0165913 -0.456742 0.086683  0.040055 -0.460691 0.0885422  0.0207901 -0.456971 0.0873339  0.00798965 -0.521007 0.100299  0.0326481 -0.525033 0.102453  0.0307848 -0.50333 0.0967748  0.0124638 -0.521337 0.100993  0.0109463 -0.499435 0.0957429  0.0354924 -0.503565 0.0976009  0.01543 -0.499678 0.0963702  0.00161028 -0.564697 0.109847  0.026793 -0.569022 0.111825  0.0253327 -0.546812 0.106158  0.006284 -0.56495 0.110504  0.00487804 -0.542773 0.105126  0.0296185 -0.546975 0.106908  0.00939584 -0.543103 0.105695  -0.00517535 -0.608829 0.11959  0.0205398 -0.613064 0.121769  0.0188696 -0.590764 0.115828  -0.000406742 -0.609226 0.120212  -0.00176311 -0.586712 0.114766  0.0238819 -0.591067 0.116551  0.003016 -0.587044 0.115311  -0.0123744 -0.653407 0.129671  0.0137062 -0.657936 0.131603  0.0124495 -0.635257 0.125762  -0.00745749 -0.653779 0.130252  -0.00871468 -0.631081 0.124692  0.0170386 -0.635466 0.126412  -0.00391769 -0.631484 0.125189  -0.0199027 -0.698287 0.139872  0.00661707 -0.702669 0.142055  0.00508738 -0.679978 0.135918  -0.0148842 -0.698729 0.140424  -0.0161335 -0.675823 0.13482  0.0103438 -0.680339 0.136543  -0.0111077 -0.676228 0.135292  -0.0277278 -0.743376 0.150386  -0.000980854 -0.748036 0.15228  -0.00210643 -0.725087 0.146309  -0.0226057 -0.743838 0.150894  -0.023772 -0.720829 0.145193  0.00275564 -0.725331 0.146866  -0.0187366 -0.72128 0.145625  -0.0358126 -0.788656 0.160963  -0.00869751 -0.793145 0.163124  -0.0101295 -0.770219 0.156867  -0.0305815 -0.789132 0.161445  -0.0317721 -0.76601 0.155721  -0.0046916 -0.770628 0.157401  -0.02654 -0.766467 0.156129  -0.0440922 -0.833957 0.171814  -0.0168698 -0.838669 0.173677  -0.0179386 -0.815619 0.167626  -0.0388179 -0.83447 0.172247  -0.0399277 -0.811334 0.166448  -0.01282 -0.815901 0.168097  -0.0346935 -0.811816 0.166819  -0.0525818 -0.879368 0.182702  -0.0250366 -0.883928 0.184801  -0.0264075 -0.860867 0.1785  -0.0472143 -0.87985 0.183098  -0.0483341 -0.856657 0.177303  -0.0208573 -0.861354 0.178951  -0.0429804 -0.857157 0.177648  -0.0612142 -0.924668 0.193793  -0.0336885 -0.929342 0.195631  -0.034693 -0.906313 0.189541  -0.0557666 -0.925184 0.194174  -0.0568793 -0.902036 0.188303  -0.0293429 -0.906596 0.189915  -0.0514927 -0.90251 0.188635  -0.0699942 -0.969935 0.20492  -0.0421774 -0.974647 0.206923  -0.0434124 -0.951486 0.200727  -0.0643632 -0.970539 0.205267  -0.0655959 -0.947282 0.199387  -0.0378897 -0.951963 0.201091  -0.0600097 -0.947804 0.199711  -0.0786989 -1.01513 0.216337  -0.050925 -1.01969 0.218207  -0.052067 -0.996824 0.211932  -0.0732384 -1.01557 0.216638  -0.074357 -0.992586 0.210595  -0.0465007 -0.997174 0.2123  -0.0687716 -0.993108 0.210915  -0.0877395 -1.06027 0.227445  -0.0596189 -1.06501 0.229612  -0.0609238 -1.04184 0.223342  -0.0821223 -1.06085 0.227652  -0.0831795 -1.03775 0.22195  -0.0553854 -1.04265 0.223687  -0.0777936 -1.03837 0.222107  -0.096251 -1.10535 0.239027  -0.0687644 -1.11009 0.241051  -0.0696945 -1.08686 0.234975  -0.0907009 -1.10591 0.239614  -0.0920291 -1.08249 0.233298  -0.0639319 -1.08701 0.235287  -0.0862646 -1.08285 0.233703  -0.104702 -1.15051 0.249898  -0.0768464 -1.15567 0.2523  -0.0781198 -1.13187 0.246211  -0.0989361 -1.15137 0.250384  -0.100224 -1.12756 0.24473  -0.0728869 -1.13231 0.246642  -0.0946791 -1.12821 0.245131  0.00477964 -0.00858873 0.00222158  0 0 0  0.00638963 -0.0115761 0.00387263  0.00188275 -0.00600761 0.00125718  0 0 0  0.00501037 -0.00851625 0.00341153  0.00144643 -0.00409818 0.00109029  0 0 0  0.00194678 -0.00597334 0.00201988  0.00150692 -0.00406784 0.00175953  0.0141641 -0.0204701 0.00480175  0.0183934 -0.0237982 0.00742579  0.011709 -0.0176594 0.00389504  0.0147906 -0.0202343 0.00668454  0.00917009 -0.0142378 0.00352216  0.0121685 -0.0175198 0.00573158  0.00960149 -0.0141093 0.00511694  0.0243765 -0.0344528 0.00747919  0.0307014 -0.0375632 0.0104845  0.0238245 -0.030562 0.00661373  0.0253873 -0.0341927 0.00960183  0.0193272 -0.0271176 0.0061326  0.0246447 -0.0303118 0.00896192  0.0201435 -0.0268555 0.00816536  0.0338183 -0.0513055 0.0103667  0.0419731 -0.0539883 0.0134921  0.0353023 -0.0457079 0.00942922  0.035102 -0.0508537 0.012517  0.0292286 -0.0424739 0.00889182  0.0365095 -0.0453929 0.0119288  0.0304054 -0.0421467 0.011034  0.0421167 -0.0712283 0.0136731  0.0520103 -0.074148 0.0167429  0.0457464 -0.0640091 0.0125487  0.0436606 -0.0709409 0.0157547  0.0381171 -0.0608847 0.011991  0.0471063 -0.0636923 0.0150118  0.0394976 -0.0605161 0.0140948  0.0491752 -0.0942478 0.017539  0.0608238 -0.096787 0.020566  0.0548943 -0.0854722 0.0161545  0.0509931 -0.0937125 0.0195329  0.0458058 -0.0823584 0.0155728  0.0566165 -0.0851406 0.0185211  0.0475184 -0.0819937 0.0175877  0.055006 -0.11999 0.0219061  0.0682026 -0.123044 0.0248213  0.0627769 -0.109927 0.0203125  0.0570573 -0.119797 0.0238044  0.0522372 -0.106788 0.0197222  0.0646311 -0.10966 0.0225506  0.0541236 -0.106452 0.0216265  0.0595863 -0.14849 0.0269568  0.0744252 -0.151167 0.0298138  0.0692594 -0.137148 0.025048  0.0619609 -0.147948 0.0287495  0.0574521 -0.133923 0.024431  0.0714782 -0.13687 0.0271456  0.0596994 -0.133616 0.0262241  0.0630268 -0.179169 0.0323701  0.079172 -0.182455 0.0351434  0.0745399 -0.166872 0.030359  0.0655774 -0.179115 0.0340905  0.0614368 -0.163562 0.0297091  0.0769317 -0.16671 0.0323341  0.0638475 -0.163329 0.0313916  0.0652448 -0.212234 0.0385709  0.0828747 -0.215201 0.0412707  0.0784277 -0.198883 0.0361941  0.0681641 -0.211733 0.0401742  0.064281 -0.195457 0.0355105  0.0811049 -0.19868 0.0380137  0.06704 -0.195239 0.0370851  0.0664542 -0.246934 0.0449131  0.0851696 -0.250421 0.0475841  0.0812435 -0.232911 0.0425799  0.0694761 -0.247011 0.0464737  0.0659593 -0.229378 0.0418303  0.0841956 -0.232875 0.0443063  0.0688893 -0.229267 0.0433054  0.0664854 -0.283685 0.0521772  0.0864849 -0.287049 0.0547245  0.0827141 -0.26879 0.0494077  0.0699129 -0.283266 0.0536032  0.0665958 -0.265144 0.048624  0.0857805 -0.268656 0.0509601  0.0698205 -0.265011 0.0499935  0.0656741 -0.321585 0.05933  0.086602 -0.325183 0.061928  0.0832626 -0.306249 0.056757  0.0691364 -0.321755 0.0607431  0.0661665 -0.302486 0.0558705  0.0867879 -0.306333 0.0582547  0.0696026 -0.302492 0.0571568  0.0637467 -0.361222 0.0675552  0.0857021 -0.365055 0.0699363  0.0825616 -0.345168 0.0644627  0.0676256 -0.360928 0.0688117  0.0648117 -0.341314 0.0635457  0.0859441 -0.345081 0.0657649  0.0684452 -0.341249 0.0647261  0.0611469 -0.401607 0.0754268  0.0839609 -0.405218 0.0779669  0.0810747 -0.385286 0.0726614  0.0650226 -0.40182 0.0766931  0.062511 -0.381316 0.0716147  0.0851747 -0.385478 0.0739503  0.066434 -0.381421 0.0727277  0.0575178 -0.443423 0.0844994  0.0810406 -0.44776 0.0867002  0.0784845 -0.426524 0.0811505  0.0617821 -0.443292 0.0855899  0.059406 -0.422495 0.0800717  0.082118 -0.42646 0.0822232  0.0633929 -0.422477 0.0810781  0.0533752 -0.485684 0.0930114  0.0777657 -0.489235 0.0955009  0.0752056 -0.468636 0.0900815  0.0576353 -0.485902 0.0941281  0.0554914 -0.464501 0.0888648  0.0798616 -0.468926 0.0911765  0.0598695 -0.464685 0.0898206  0.0483141 -0.529069 0.102802  0.0730588 -0.533894 0.104809  0.0710254 -0.511576 0.0992548  0.0528953 -0.529122 0.103729  0.0508924 -0.507414 0.0980031  0.0748644 -0.511521 0.100124  0.0551789 -0.50743 0.098851  0.0428746 -0.572686 0.111882  0.0685492 -0.576139 0.114319  0.0662084 -0.555115 0.108799  0.0474882 -0.572881 0.11285  0.0456219 -0.550868 0.107424  0.0713737 -0.555492 0.109715  0.0504112 -0.551111 0.108237  0.036654 -0.617119 0.122265  0.0623245 -0.622355 0.12408  0.0607319 -0.599232 0.118562  0.0414903 -0.617351 0.123035  0.0397909 -0.594979 0.117145  0.0647545 -0.599174 0.119256  0.0443342 -0.595023 0.117852  0.0301561 -0.661644 0.131843  0.0568328 -0.665008 0.134223  0.0546381 -0.643715 0.128607  0.035084 -0.661812 0.132667  0.0334177 -0.639409 0.127102  0.0602384 -0.644169 0.129363  0.0385597 -0.639699 0.127786  0.0230291 -0.706706 0.142692  0.0493853 -0.712245 0.14434  0.0481334 -0.688573 0.138867  0.0280693 -0.707093 0.143316  0.0266027 -0.684272 0.137311  0.0523353 -0.688524 0.139416  0.0313683 -0.68435 0.137894  0.0156932 -0.751773 0.152704  0.0431063 -0.755078 0.155022  0.0410194 -0.73361 0.149313  0.020885 -0.751916 0.153394  0.0193632 -0.729295 0.14771  0.0469625 -0.734127 0.149922  0.0247886 -0.729617 0.14828  0.00788069 -0.79712 0.163903  0.0347164 -0.80283 0.165427  0.0337169 -0.778848 0.15999  0.0130751 -0.797637 0.164386  0.0117943 -0.774538 0.158327  0.0381045 -0.778837 0.160417  0.0167406 -0.77467 0.1588  -9.44138e-05 -0.842407 0.174289  0.0278108 -0.845766 0.176488  0.0258355 -0.824134 0.170724  0.00531244 -0.842554 0.174862  0.00388288 -0.819848 0.169077  0.031986 -0.824678 0.171216  0.00951409 -0.820187 0.169546  -0.00840378 -0.887807 0.185713  0.0187762 -0.893512 0.187217  0.0178936 -0.869471 0.181725  -0.00306749 -0.88841 0.186084  -0.00424004 -0.865176 0.180011  0.0225317 -0.869555 0.182057  0.000874281 -0.865418 0.180391  -0.0168333 -0.9331 0.196457  0.0113249 -0.936635 0.198567  0.00946808 -0.914747 0.192719  -0.0112705 -0.933272 0.196935  -0.0126348 -0.910538 0.191013  0.0157154 -0.915289 0.193085  -0.00684214 -0.910847 0.191403  -0.0254862 -0.978352 0.208007  0.00182343 -0.983827 0.209591  0.00108242 -0.9599 0.204094  -0.0201423 -0.979047 0.208244  -0.0210979 -0.955701 0.202266  0.00600076 -0.96015 0.204364  -0.0158947 -0.956067 0.202577  -0.034225 -1.02326 0.219167  -0.00586534 -1.02728 0.220923  -0.00761247 -1.00514 0.215055  -0.0284932 -1.02359 0.219698  -0.0299463 -1.00101 0.213521  -0.00163746 -1.00562 0.215453  -0.0241284 -1.00131 0.21386  -0.0429771 -1.06859 0.230983  -0.0152719 -1.07363 0.233055  -0.0167029 -1.05021 0.226503  -0.0375383 -1.06906 0.231426  -0.0386336 -1.04598 0.22497  -0.0109036 -1.05067 0.226703  -0.0332105 -1.04669 0.225337  -0.0517626 -1.11337 0.242301  -0.0234845 -1.11787 0.244861  -0.025001 -1.09477 0.238309  -0.0463307 -1.11414 0.242548  -0.0472496 -1.09094 0.236591  -0.01893 -1.09539 0.238672  -0.0415812 -1.09099 0.237069  -0.0602138 -1.15862 0.254321  -0.0344102 -1.16378 0.255872  -0.0334239 -1.13949 0.250291  -0.0560608 -1.15981 0.254367  -0.0560684 -1.13579 0.247764  -0.0280249 -1.13938 0.251136  -0.0509028 -1.13596 0.248524  0.00849761 -0.0159677 0.00271773  0 0 0  0.0120861 -0.0215183 0.00458479  0.0041403 -0.0128601 0.00141001  0 0 0  0.00870895 -0.0159143 0.00426769  0.00253379 -0.00869912 0.00135493  0 0 0  0.0041801 -0.0127715 0.00241017  0.00258996 -0.00865597 0.00220323  0.0220795 -0.0280789 0.00559068  0.0277174 -0.0318671 0.00855851  0.0199144 -0.0265484 0.00431752  0.0227338 -0.027789 0.00805092  0.0153929 -0.02185 0.00416613  0.0202665 -0.0263315 0.00666261  0.0158124 -0.0216826 0.00624657  0.0353204 -0.041429 0.00842643  0.0423299 -0.0450866 0.0119128  0.0341795 -0.0383811 0.00730038  0.0363061 -0.0412152 0.0112386  0.0287341 -0.0343646 0.00699711  0.0350218 -0.0381081 0.0103076  0.0295894 -0.0341161 0.00967169  0.0478346 -0.0579649 0.0114398  0.0566574 -0.0614324 0.0149646  0.0485108 -0.0531562 0.0102029  0.0491413 -0.057535 0.0143034  0.0417134 -0.0492799 0.00988102  0.0495412 -0.052848 0.0134017  0.0428346 -0.048963 0.0127268  0.0591445 -0.077765 0.0148294  0.0696124 -0.0811517 0.0183904  0.0619151 -0.0712027 0.0134935  0.060639 -0.0775744 0.0176067  0.0536575 -0.0674518 0.013056  0.0634035 -0.0710008 0.0166655  0.0550983 -0.0671989 0.0158706  0.0691043 -0.100775 0.0187776  0.0813113 -0.104299 0.0220988  0.0740175 -0.092676 0.0171251  0.0709092 -0.100357 0.0214162  0.0642877 -0.0889154 0.0166993  0.0754683 -0.0923956 0.0201507  0.0658802 -0.0885973 0.0194006  0.0776395 -0.126655 0.0232768  0.0914106 -0.13002 0.0265715  0.0846535 -0.117113 0.0214472  0.0796363 -0.126479 0.0257566  0.0735634 -0.11337 0.0209227  0.086696 -0.117047 0.0243266  0.0755139 -0.113201 0.0234749  0.0847827 -0.155257 0.0283868  0.100052 -0.159091 0.0313699  0.0937898 -0.144532 0.0262277  0.0870872 -0.15496 0.0306883  0.0813559 -0.140689 0.025697  0.0956657 -0.144302 0.0288935  0.0834295 -0.14042 0.0280948  0.0905194 -0.186201 0.0340259  0.107273 -0.189614 0.0369997  0.101409 -0.17431 0.0316811  0.0930613 -0.185978 0.0361757  0.0878507 -0.170457 0.0310903  0.104014 -0.174401 0.0342076  0.0903207 -0.170404 0.0333297  0.0949454 -0.219368 0.0402305  0.11285 -0.22365 0.0428739  0.107611 -0.206598 0.0376132  0.0977143 -0.219298 0.0421834  0.0928432 -0.202599 0.0369687  0.109945 -0.206435 0.0399101  0.0954108 -0.202408 0.0390589  0.0980427 -0.254413 0.0469098  0.117422 -0.257886 0.0495605  0.112332 -0.240684 0.0440819  0.101154 -0.254053 0.0487421  0.0966994 -0.236684 0.0434461  0.115462 -0.240915 0.0462716  0.0996652 -0.236741 0.0453908  0.0999539 -0.291214 0.0540922  0.12007 -0.295999 0.0564232  0.115812 -0.276854 0.051079  0.103124 -0.291462 0.0557032  0.0990708 -0.27269 0.0503213  0.118635 -0.27678 0.0530403  0.102126 -0.272596 0.0521309  0.100644 -0.329505 0.0616813  0.122281 -0.333041 0.0640228  0.117849 -0.314361 0.0584245  0.104335 -0.328922 0.0632215  0.100507 -0.310216 0.0577557  0.121431 -0.314675 0.0603061  0.103924 -0.310347 0.059433  0.100298 -0.369117 0.0697229  0.122231 -0.374389 0.0717936  0.118881 -0.353532 0.0663717  0.1038 -0.369748 0.0710094  0.100509 -0.349226 0.0655119  0.122225 -0.353569 0.0680411  0.104039 -0.34924 0.0670726  0.0988551 -0.409916 0.0781026  0.122376 -0.41352 0.0801666  0.118504 -0.393688 0.0744824  0.103115 -0.409052 0.0793829  0.0997816 -0.389426 0.0737791  0.122447 -0.39402 0.0760875  0.103599 -0.389589 0.0752184  0.0965273 -0.451627 0.0869069  0.119945 -0.457313 0.0887775  0.117393 -0.435105 0.0832629  0.100306 -0.452664 0.0878923  0.0977075 -0.430697 0.0823209  0.121282 -0.435278 0.0846877  0.101692 -0.430827 0.0836611  0.0932443 -0.494297 0.0959527  0.118278 -0.497982 0.0977762  0.114899 -0.477259 0.0920491  0.0980308 -0.493145 0.0970097  0.0950813 -0.472914 0.0912986  0.119112 -0.477547 0.0934038  0.0992427 -0.47308 0.0925243  0.0892267 -0.537508 0.10542  0.11384 -0.543494 0.107161  0.111952 -0.520285 0.101523  0.0932381 -0.538926 0.106137  0.0912445 -0.515817 0.100524  0.116379 -0.520604 0.102744  0.0956471 -0.516063 0.101671  0.0843968 -0.581498 0.115021  0.110591 -0.585269 0.116645  0.107664 -0.563869 0.110912  0.0896463 -0.580099 0.115891  0.0869913 -0.559483 0.110096  0.112061 -0.564084 0.112042  0.0914452 -0.559641 0.111132  0.07898 -0.625707 0.125054  0.104553 -0.631864 0.126722  0.10317 -0.607988 0.120944  0.083205 -0.627434 0.125545  0.0816989 -0.6035 0.119903  0.108099 -0.608436 0.121999  0.086483 -0.603842 0.120879  0.0728977 -0.670553 0.135117  0.0999305 -0.674413 0.136586  0.0974126 -0.652516 0.130877  0.078517 -0.668993 0.135829  0.0760965 -0.648125 0.129975  0.101944 -0.652655 0.131804  0.0807979 -0.648281 0.130843  0.0663543 -0.715361 0.145618  0.0926683 -0.721565 0.147246  0.091651 -0.697314 0.141334  0.0707774 -0.7173 0.145923  0.069644 -0.69284 0.140266  0.0970013 -0.697862 0.142244  0.0747488 -0.693259 0.141088  0.0592859 -0.760667 0.156056  0.0868697 -0.764622 0.157398  0.0847259 -0.742377 0.15175  0.0651729 -0.759067 0.156633  0.0629525 -0.738016 0.15074  0.0893626 -0.742459 0.152488  0.067862 -0.738183 0.151457  0.0518606 -0.805765 0.166922  0.0787308 -0.811888 0.168528  0.077945 -0.787533 0.162519  0.0564744 -0.807788 0.167085  0.0555975 -0.783097 0.161417  0.0836151 -0.788138 0.163309  0.0609605 -0.783576 0.162092  0.0440483 -0.851203 0.177668  0.0719485 -0.855333 0.17894  0.0701551 -0.832789 0.173346  0.0500503 -0.849764 0.178105  0.0480645 -0.828485 0.172223  0.0748806 -0.832853 0.173906  0.0531349 -0.828665 0.172804  0.0359781 -0.896363 0.188803  0.0632603 -0.902249 0.190347  0.0625365 -0.878109 0.184267  0.0407879 -0.898298 0.1889  0.0400198 -0.873717 0.183189  0.0684481 -0.878723 0.184915  0.0455589 -0.874217 0.183728  0.0275946 -0.941679 0.19977  0.0555279 -0.945952 0.201036  0.0541289 -0.923239 0.195538  0.0336294 -0.940641 0.200093  0.0318751 -0.919031 0.194207  0.0589538 -0.92331 0.195949  0.0371048 -0.919263 0.19466  0.0189915 -0.986721 0.2111  0.0465314 -0.992057 0.212687  0.0458655 -0.968443 0.20663  0.0240641 -0.988289 0.211181  0.0233054 -0.964107 0.20539  0.0518246 -0.968899 0.207233  0.0290167 -0.964635 0.205787  0.0103555 -1.03172 0.222533  0.0381401 -1.03627 0.223936  0.0372202 -1.01335 0.218267  0.0160499 -1.03137 0.222707  0.0147543 -1.00917 0.216818  0.0418322 -1.01365 0.218423  0.0199523 -1.00961 0.217174  0.00169039 -1.07655 0.23406  0.028533 -1.08102 0.235559  0.0281572 -1.05875 0.229546  0.00701213 -1.0779 0.234508  0.0058043 -1.0547 0.228156  0.0339305 -1.05896 0.229792  0.0115459 -1.05478 0.228596  -0.00739908 -1.12147 0.245149  0.0204902 -1.12536 0.247537  0.0193551 -1.10248 0.241818  -0.000987291 -1.12129 0.245709  -0.00271797 -1.09866 0.239595  0.0236461 -1.10325 0.242326  0.00294018 -1.09984 0.239839  -0.0167949 -1.16534 0.255431  0.0125551 -1.16946 0.259536  0.0106676 -1.14608 0.254505  -0.0100436 -1.16661 0.257537  -0.011694 -1.14261 0.250651  0.0177724 -1.14704 0.25623  -0.0052731 -1.14302 0.251274  -0.011658 -0.0178003 -0.00319195  -0.00449117 -0.0106945 -0.00100064  0 0 0  -0.00785254 -0.0126195 -0.0011189  0 0 0  -0.00507616 -0.00820198 -0.00202513  -0.00165401 -0.00405759 -0.000588417  0 0 0  -0.0043515 -0.0103242 -0.00191951  -0.00763117 -0.0121644 -0.00254655  -0.00239523 -0.00649321 -0.000725508  0 0 0  -0.00160001 -0.00388007 -0.00125289  -0.00232461 -0.00624793 -0.00149179  -0.0256856 -0.0261158 -0.0040195  -0.0194215 -0.0222149 -0.00158715  -0.0205424 -0.023019 -0.00079155  -0.0151803 -0.0188015 -0.00231767  -0.0101392 -0.0137391 -0.00069046  -0.0189113 -0.0215056 -0.00382757  -0.0199771 -0.0223498 -0.00312233  -0.0142007 -0.0176075 -0.00109339  -0.0098242 -0.0132912 -0.00234604  -0.0138076 -0.0170336 -0.00303864  -0.0395108 -0.0371037 -0.00335741  -0.033295 -0.0321022 -0.000864267  -0.0333926 -0.0344465 0.000503063  -0.02618 -0.0308009 -0.00128818  -0.0213735 -0.0250482 0.000291824  -0.0324763 -0.0312724 -0.00385308  -0.0324787 -0.0337084 -0.0022788  -0.0269217 -0.0283962 -0.000241518  -0.0206977 -0.0244642 -0.00193548  -0.0261843 -0.0276878 -0.00284934  -0.0536768 -0.0507088 -0.00152898  -0.0477506 -0.0443506 0.00072217  -0.0463087 -0.0486641 0.00254107  -0.0370466 -0.0456067 0.000733852  -0.0326677 -0.0384525 0.00206995  -0.0466051 -0.0434988 -0.00257015  -0.0450418 -0.0479297 -0.000355959  -0.039869 -0.0411708 0.00143743  -0.0316255 -0.0378309 -0.000384569  -0.038779 -0.0404347 -0.00143552  -0.0676107 -0.0673592 0.00118852  -0.0621724 -0.0594793 0.00302124  -0.0589948 -0.0658716 0.0052259  -0.0477484 -0.0633834 0.00357604  -0.0438262 -0.0547423 0.00451732  -0.0606875 -0.058655 -0.000269175  -0.05738 -0.0651647 0.00241971  -0.052689 -0.0568937 0.00380731  -0.0424238 -0.0541291 0.00206614  -0.0512477 -0.0561759 0.000936985  -0.0811433 -0.0869513 0.00463367  -0.0762525 -0.0775826 0.00594687  -0.0713615 -0.0859767 0.00851822  -0.0582508 -0.0840416 0.00709462  -0.0547708 -0.0739482 0.00757861  -0.0744334 -0.0768059 0.00282502  -0.0694149 -0.0853199 0.00590038  -0.0652196 -0.0755735 0.00679827  -0.0530237 -0.0733677 0.00525784  -0.0634376 -0.0748959 0.00407815  -0.0942414 -0.109284 0.00869727  -0.0898904 -0.0985156 0.00947356  -0.083407 -0.108795 0.0123887  -0.0685838 -0.107385 0.0112298  -0.06551 -0.0959307 0.011229  -0.0877469 -0.0977966 0.00659084  -0.0811463 -0.108187 0.00999737  -0.0774236 -0.0970604 0.0103836  -0.0634367 -0.0953929 0.00909233  -0.0753178 -0.0964326 0.00787568  -0.10695 -0.134172 0.0133243  -0.103087 -0.12209 0.0135648  -0.0951756 -0.134123 0.01682  -0.078788 -0.133231 0.0159161  -0.0760763 -0.120498 0.0154448  -0.100643 -0.121432 0.0109406  -0.0926189 -0.133577 0.0146554  -0.0893219 -0.121158 0.0145373  -0.0737 -0.120012 0.0135064  -0.0869129 -0.120586 0.0122581  -0.119331 -0.161405 0.0184727  -0.115915 -0.148109 0.0182014  -0.106722 -0.161776 0.0217779  -0.0889099 -0.16137 0.021131  -0.0865226 -0.14746 0.0202043  -0.113179 -0.147516 0.0158331  -0.103886 -0.161285 0.0198345  -0.100974 -0.147671 0.0192339  -0.0838564 -0.147028 0.0184619  -0.0982758 -0.147158 0.0171802  -0.131441 -0.19081 0.024123  -0.128421 -0.176384 0.0233636  -0.118095 -0.191568 0.0272572  -0.0989895 -0.19165 0.0268409  -0.0968874 -0.176634 0.0254858  -0.12542 -0.175856 0.0212343  -0.114994 -0.191143 0.0255167  -0.112426 -0.176414 0.024456  -0.0939554 -0.17626 0.0239263  -0.109459 -0.175963 0.0226135  -0.14333 -0.222206 0.0302515  -0.140674 -0.206736 0.029027  -0.129328 -0.223325 0.0332177  -0.109047 -0.223856 0.0330296  -0.107211 -0.20784 0.031266  -0.137411 -0.206278 0.0271254  -0.125982 -0.222961 0.0316706  -0.123728 -0.207209 0.0301785  -0.104018 -0.207523 0.0298796  -0.120501 -0.206822 0.0285354  -0.15502 -0.255425 0.0368307  -0.152695 -0.238996 0.0351748  -0.140451 -0.256886 0.0396566  -0.119111 -0.257871 0.0396752  -0.117506 -0.240911 0.0375268  -0.149203 -0.238604 0.0334814  -0.136871 -0.25659 0.0382857  -0.1349 -0.239888 0.0363815  -0.114082 -0.240655 0.0362976  -0.131441 -0.239566 0.0349224  -0.166545 -0.290314 0.0438597  -0.164526 -0.272999 0.0417831  -0.151472 -0.292084 0.046541  -0.129172 -0.293469 0.0467584  -0.127797 -0.275677 0.0442445  -0.1608 -0.272678 0.040287  -0.147677 -0.291846 0.0453377  -0.145974 -0.274287 0.0430448  -0.124139 -0.27548 0.0431681  -0.142282 -0.274027 0.041759  -0.177902 -0.326703 0.0512965  -0.176172 -0.308591 0.0488393  -0.162407 -0.328773 0.0538602  -0.139253 -0.330571 0.0542595  -0.138074 -0.311987 0.0514011  -0.17225 -0.308334 0.0475242  -0.158407 -0.328601 0.0528095  -0.156948 -0.310248 0.0501499  -0.134216 -0.311849 0.0504591  -0.153057 -0.310052 0.0490234  -0.189118 -0.364475 0.059149  -0.187654 -0.345624 0.0563107  -0.173248 -0.366797 0.0615797  -0.14932 -0.368943 0.0621555  -0.148351 -0.349683 0.0589712  -0.183525 -0.345434 0.0551691  -0.16906 -0.366683 0.0606782  -0.167841 -0.347623 0.057672  -0.144284 -0.349603 0.0581646  -0.16374 -0.347488 0.0566981  -0.200166 -0.403451 0.0673656  -0.198962 -0.38395 0.0641892  -0.183995 -0.406026 0.0696938  -0.159396 -0.408536 0.0704305  -0.158601 -0.388626 0.0669353  -0.19467 -0.383822 0.0632069  -0.179632 -0.405976 0.0689278  -0.178631 -0.386266 0.0655901  -0.154364 -0.388603 0.0662482  -0.174364 -0.386192 0.0647566  -0.211075 -0.443541 0.0759673  -0.210111 -0.423436 0.072448  -0.194639 -0.446312 0.0781727  -0.169431 -0.449116 0.0790534  -0.168833 -0.428672 0.075274  -0.205632 -0.423374 0.0716188  -0.190117 -0.446318 0.0775337  -0.189331 -0.42604 0.0738897  -0.164413 -0.428705 0.0747035  -0.18488 -0.426026 0.07319  -0.22181 -0.484559 0.0848804  -0.221084 -0.463948 0.0810719  -0.205182 -0.487542 0.0870011  -0.179457 -0.490655 0.0880237  -0.179016 -0.469696 0.0839672  -0.216473 -0.463941 0.0803781  -0.200507 -0.487603 0.0864785  -0.199921 -0.466815 0.0825448  -0.174453 -0.46978 0.0835006  -0.195333 -0.466854 0.0819662  -0.232407 -0.526449 0.0941453  -0.231892 -0.505359 0.0900307  -0.215602 -0.529575 0.0961514  -0.189414 -0.532925 0.0972943  -0.18916 -0.511563 0.0929921  -0.227119 -0.505414 0.0894699  -0.210794 -0.529688 0.0957382  -0.210408 -0.50846 0.0915368  -0.184438 -0.511697 0.0926256  -0.205657 -0.508555 0.0910738  -0.242819 -0.569023 0.103668  -0.24252 -0.547553 0.0993099  -0.225903 -0.572317 0.105602  -0.199338 -0.57592 0.106864  -0.199224 -0.554165 0.102323  -0.237645 -0.547654 0.098865  -0.220972 -0.572478 0.10529  -0.220765 -0.550863 0.100839  -0.194386 -0.554343 0.102046  -0.215906 -0.551003 0.10048  -0.253085 -0.612247 0.113505  -0.252976 -0.590413 0.108881  -0.236069 -0.615635 0.115333  -0.209163 -0.619423 0.11669  -0.209227 -0.597379 0.111941  -0.247962 -0.590571 0.108548  -0.231029 -0.615842 0.115112  -0.231004 -0.593905 0.110434  -0.204256 -0.597604 0.11175  -0.226008 -0.594096 0.110172  -0.263165 -0.655939 0.123548  -0.263247 -0.633837 0.118726  -0.246103 -0.659454 0.125317  -0.218933 -0.663443 0.12677  -0.219125 -0.641114 0.121821  -0.258158 -0.634036 0.11849  -0.240966 -0.659704 0.125179  -0.2411 -0.637486 0.120294  -0.21406 -0.641376 0.121704  -0.236022 -0.637717 0.120118  -0.273099 -0.700085 0.133857  -0.273345 -0.677724 0.128815  -0.255992 -0.703654 0.135532  -0.22859 -0.707776 0.137055  -0.228945 -0.685261 0.13194  -0.268142 -0.677973 0.128671  -0.250768 -0.703944 0.135468  -0.251067 -0.681507 0.130395  -0.22377 -0.685565 0.131891  -0.245875 -0.681783 0.1303  -0.282855 -0.744519 0.144326  -0.283266 -0.721985 0.139131  -0.265751 -0.748181 0.145953  -0.238183 -0.752451 0.147547  -0.238638 -0.729745 0.142271  -0.278009 -0.722268 0.139062  -0.260451 -0.748503 0.145952  -0.260883 -0.72588 0.140717  -0.233397 -0.730077 0.14228  -0.255634 -0.726189 0.140688  -0.292472 -0.789242 0.155005  -0.293017 -0.766532 0.149637  -0.275367 -0.792924 0.156553  -0.247652 -0.797284 0.158201  -0.248255 -0.774472 0.152792  -0.28767 -0.766858 0.149639  -0.270004 -0.793278 0.156604  -0.270576 -0.770521 0.15123  -0.242927 -0.774841 0.152853  -0.265234 -0.770867 0.151259  -0.301949 -0.834115 0.165779  -0.302606 -0.811309 0.160316  -0.28485 -0.837847 0.1673  -0.257051 -0.842309 0.168991  -0.25773 -0.819393 0.16348  -0.297237 -0.811659 0.16037  -0.279445 -0.838225 0.167403  -0.280122 -0.815367 0.161905  -0.252361 -0.819777 0.163589  -0.274746 -0.815734 0.161988  -0.311284 -0.879118 0.176733  -0.312054 -0.856227 0.171127  -0.294198 -0.88286 0.178175  -0.26633 -0.887382 0.179881  -0.267129 -0.86442 0.174286  -0.306619 -0.856601 0.171227  -0.288767 -0.883271 0.178312  -0.289544 -0.860349 0.17272  -0.2617 -0.864829 0.174432  -0.284112 -0.860737 0.172847  -0.320463 -0.924152 0.187703  -0.321339 -0.901242 0.182067  -0.303442 -0.927942 0.189107  -0.275575 -0.932529 0.190868  -0.276403 -0.909519 0.185214  -0.315905 -0.901645 0.182205  -0.297966 -0.928385 0.189288  -0.298832 -0.905402 0.183635  -0.270956 -0.909951 0.185389  -0.293393 -0.905819 0.183792  -0.329647 -0.969313 0.19882  -0.330545 -0.946293 0.193058  -0.31258 -0.973033 0.200118  -0.284643 -0.977598 0.201918  -0.285578 -0.954619 0.19617  -0.325048 -0.94676 0.193262  -0.307072 -0.97347 0.200301  -0.308018 -0.950464 0.194617  -0.280129 -0.955055 0.196359  -0.302507 -0.950935 0.194822  -0.338564 -1.01424 0.209861  -0.339544 -0.991365 0.204051  -0.321574 -1.0181 0.211136  -0.293611 -1.02276 0.212903  -0.294657 -0.999739 0.207205  -0.33415 -0.991731 0.204205  -0.316056 -1.01848 0.211405  -0.317106 -0.995583 0.205635  -0.289159 -1.00019 0.207463  -0.311618 -0.995989 0.205839  -0.34749 -1.05952 0.220951  -0.34857 -1.03642 0.215105  -0.330379 -1.06315 0.221973  -0.302543 -1.06773 0.223881  -0.303659 -1.04477 0.218183  -0.342941 -1.03688 0.215284  -0.325057 -1.0637 0.222202  -0.326012 -1.04068 0.216649  -0.298046 -1.04528 0.218494  -0.320534 -1.04112 0.216925  -0.35622 -1.10383 0.23157  -0.357277 -1.0815 0.226007  -0.339178 -1.10804 0.233244  -0.311397 -1.11286 0.234551  -0.312511 -1.08974 0.229009  -0.352103 -1.08213 0.226379  -0.333948 -1.1084 0.2334  -0.334786 -1.08565 0.227368  -0.307051 -1.09028 0.229315  -0.329575 -1.08615 0.227667  -0.00384614 -0.00596234 -0.000601053  0 0 0  -0.00260084 -0.0040745 -0.00121689  -0.000862554 -0.00146323 -0.000375271  0 0 0  -0.00370071 -0.0057161 -0.00159335  -0.00116555 -0.00250082 -0.00046134  0 0 0  -0.000818159 -0.00137301 -0.000802517  -0.00111846 -0.00237256 -0.00100064  -0.0118795 -0.0162414 5.31673e-05  -0.00822197 -0.0136588 -0.000951767  -0.0053962 -0.00869432 -0.000142574  -0.0114299 -0.0158189 -0.00160027  -0.00753097 -0.0107656 -0.000384569  -0.005132 -0.00844464 -0.00123167  -0.00724803 -0.0104274 -0.00175285  -0.0212742 -0.0289288 0.00158644  -0.0152676 -0.0265796 0.000433922  -0.0122563 -0.0201243 0.00111008  -0.0204595 -0.0284261 -0.000397444  -0.0165335 -0.0222535 0.000733137  -0.0116586 -0.0197663 -0.000370026  -0.0159042 -0.0217886 -0.00112057  -0.0307745 -0.0442732 0.00381207  -0.0226178 -0.0423697 0.00269222  -0.0199074 -0.0345165 0.00310493  -0.0295889 -0.0437521 0.00174856  -0.026029 -0.036233 0.00261998  -0.0189398 -0.0341104 0.00147009  -0.0250288 -0.0357219 0.00057435  -0.040182 -0.0625231 0.00665188  -0.0299777 -0.0610652 0.00567269  -0.0276359 -0.0517716 0.00572777  -0.0386373 -0.0620164 0.00465703  -0.0354936 -0.0530341 0.00515628  -0.0262971 -0.0513598 0.00410008  -0.0341269 -0.0525238 0.00311637  -0.0494768 -0.0835951 0.0100837  -0.0373638 -0.0825692 0.00928974  -0.0353491 -0.0718698 0.00894189  -0.0475952 -0.0831216 0.00823045  -0.0448404 -0.0727114 0.00829554  -0.0336645 -0.0714772 0.00740576  -0.0431254 -0.0722271 0.00636744  -0.0587022 -0.107326 0.014082  -0.0448285 -0.106717 0.0134916  -0.0430964 -0.0946844 0.0127251  -0.0565043 -0.106891 0.0123942  -0.054094 -0.0951345 0.0120106  -0.0410833 -0.0943228 0.0113189  -0.0520533 -0.0946861 0.0102403  -0.0679082 -0.133528 0.0186369  -0.0524253 -0.133336 0.0182471  -0.050923 -0.12005 0.0170689  -0.065416 -0.133146 0.017118  -0.0633033 -0.120124 0.0162919  -0.0486065 -0.119731 0.0158017  -0.0609572 -0.119723 0.0146899  -0.0771368 -0.162019 0.0237205  -0.0601821 -0.162232 0.0235281  -0.0588863 -0.147784 0.021951  -0.0743641 -0.16168 0.0223629  -0.0725161 -0.147492 0.0211127  -0.0562841 -0.147508 0.0208206  -0.0698841 -0.147139 0.0196769  -0.0864198 -0.192615 0.0293159  -0.0681303 -0.193232 0.0293059  -0.0670019 -0.177706 0.0273554  -0.0833886 -0.192341 0.0281098  -0.0817678 -0.177058 0.0264552  -0.0641273 -0.177482 0.0263538  -0.0788653 -0.176761 0.0251758  -0.0957785 -0.225148 0.0353959  -0.0762666 -0.226153 0.0355632  -0.0753018 -0.209637 0.0332506  -0.0924935 -0.224913 0.0343297  -0.0910875 -0.208643 0.0322938  -0.0721796 -0.209459 0.0323699  -0.0879314 -0.208397 0.0311601  -0.105216 -0.259436 0.0419431  -0.0846055 -0.26082 0.0422714  -0.0837747 -0.243402 0.0396256  -0.101706 -0.259275 0.0410082  -0.100485 -0.242075 0.0386112  -0.0804032 -0.243281 0.0388575  -0.0970857 -0.241889 0.0376136  -0.11474 -0.295331 0.0489361  -0.0931247 -0.297077 0.049422  -0.0924352 -0.27883 0.0464494  -0.111004 -0.295205 0.0481234  -0.109965 -0.277185 0.0453832  -0.0888515 -0.278755 0.0457847  -0.106346 -0.27705 0.044512  -0.124338 -0.332661 0.0563526  -0.101827 -0.33475 0.0569828  -0.101257 -0.315765 0.0537133  -0.120407 -0.332615 0.0556545  -0.119528 -0.313819 0.0525906  -0.0974419 -0.315748 0.053148  -0.115692 -0.313744 0.0518374  -0.134007 -0.371296 0.0641732  -0.11068 -0.373712 0.0649438  -0.110237 -0.354048 0.0613787  -0.129873 -0.371278 0.0635829  -0.129163 -0.351818 0.0602124  -0.106248 -0.354073 0.0609043  -0.125135 -0.351792 0.0595691  -0.143721 -0.411069 0.0723693  -0.119677 -0.413782 0.0732648  -0.119348 -0.393534 0.0694423  -0.139421 -0.411134 0.0718791  -0.138857 -0.391042 0.0682225  -0.115144 -0.393618 0.0690546  -0.134635 -0.391075 0.0676844  -0.153478 -0.451876 0.0809319  -0.128788 -0.454874 0.0819521  -0.128579 -0.434082 0.0778658  -0.148999 -0.45196 0.0805347  -0.148594 -0.431347 0.0766044  -0.124236 -0.434202 0.077554  -0.144211 -0.431426 0.0761611  -0.163243 -0.493549 0.0898254  -0.137988 -0.496791 0.0909555  -0.137899 -0.475557 0.0866401  -0.158625 -0.493713 0.0895174  -0.158357 -0.472603 0.0853341  -0.133356 -0.475734 0.0864077  -0.153803 -0.472736 0.0849841  -0.173017 -0.536009 0.099046  -0.147264 -0.539492 0.100281  -0.147286 -0.517839 0.0957334  -0.168245 -0.536186 0.0988166  -0.168128 -0.514684 0.0943952  -0.142636 -0.518044 0.0955663  -0.16344 -0.514858 0.0941257  -0.182763 -0.579095 0.108544  -0.156581 -0.58277 0.109867  -0.156724 -0.560802 0.105134  -0.177878 -0.579347 0.108389  -0.177891 -0.557471 0.103756  -0.151893 -0.561061 0.105033  -0.173055 -0.557693 0.103566  -0.192485 -0.622748 0.118329  -0.165935 -0.626623 0.119736  -0.16618 -0.604344 0.114803  -0.187472 -0.623008 0.118242  -0.187626 -0.600853 0.113402  -0.161275 -0.604623 0.114757  -0.182685 -0.601111 0.11328  -0.202147 -0.666822 0.128343  -0.17528 -0.670839 0.129825  -0.175649 -0.648354 0.124735  -0.197043 -0.66715 0.128317  -0.197321 -0.644728 0.123304  -0.170581 -0.648684 0.124746  -0.192254 -0.64503 0.123248  -0.211759 -0.711276 0.138598  -0.184636 -0.715446 0.140143  -0.185097 -0.692749 0.134896  -0.206551 -0.711603 0.138625  -0.206958 -0.689004 0.133442  -0.17998 -0.693092 0.134947  -0.201811 -0.689333 0.133442  -0.221291 -0.755973 0.14903  -0.193948 -0.760243 0.150635  -0.194529 -0.737432 0.145263  -0.216014 -0.756361 0.149104  -0.216532 -0.73359 0.143788  -0.189268 -0.737817 0.14536  -0.21128 -0.733952 0.143838  -0.230756 -0.800895 0.159662  -0.203248 -0.805278 0.161311  -0.203905 -0.782331 0.155811  -0.225403 -0.801277 0.159775  -0.226031 -0.778406 0.154323  -0.198621 -0.782727 0.155939  -0.220723 -0.778794 0.154416  -0.240128 -0.84592 0.170404  -0.212485 -0.850359 0.172099  -0.213247 -0.827377 0.166525  -0.234731 -0.846354 0.170552  -0.235449 -0.82339 0.165014  -0.207845 -0.827809 0.166687  -0.230067 -0.823801 0.165143  -0.249423 -0.891049 0.181292  -0.221704 -0.895554 0.183018  -0.222513 -0.872515 0.177361  -0.243976 -0.891467 0.181471  -0.244785 -0.86847 0.175836  -0.217118 -0.872939 0.177536  -0.239367 -0.868896 0.175999  -0.258637 -0.93618 0.192231  -0.230839 -0.94071 0.193986  -0.231718 -0.917685 0.18829  -0.253178 -0.936631 0.192422  -0.254033 -0.91361 0.186775  -0.226258 -0.918131 0.188496  -0.248579 -0.914052 0.18696  -0.267772 -0.981304 0.20328  -0.239882 -0.985916 0.205086  -0.240884 -0.96284 0.199276  -0.262263 -0.981745 0.20351  -0.263219 -0.958742 0.197736  -0.235389 -0.963305 0.199529  -0.257742 -0.959189 0.197948  -0.276792 -1.02637 0.214273  -0.248963 -1.03098 0.216041  -0.249911 -1.00797 0.21034  -0.271293 -1.02695 0.214543  -0.272293 -1.00384 0.208746  -0.244385 -1.00847 0.210582  -0.266778 -1.00434 0.208997  -0.285719 -1.07142 0.225206  -0.257767 -1.07606 0.227177  -0.25892 -1.05305 0.221312  -0.280127 -1.07176 0.225464  -0.28126 -1.04889 0.219778  -0.253469 -1.05355 0.221545  -0.275732 -1.04939 0.22001  -0.294551 -1.1163 0.235927  -0.266628 -1.12104 0.237794  -0.267708 -1.09804 0.232136  -0.289033 -1.11706 0.236225  -0.290132 -1.09387 0.23065  -0.262081 -1.09867 0.232431  -0.284632 -1.09447 0.230921  -0.00183818 -0.00318116 -0.000285625  0 0 0  -0.000953652 -0.00248262 -0.000540733  -0.000338163 -0.000432998 -0.000240803  0 0 0  -0.00170913 -0.00305539 -0.000865698  -0.000560645 -0.000805199 -0.000299215  0 0 0  -0.000298444 -0.000399798 -0.000442028  -0.000520177 -0.000746846 -0.000613213  -0.00598383 -0.0124381 0.000636578  -0.00317976 -0.0113917 0.000221491  -0.00217977 -0.00650844 0.000244617  -0.00557676 -0.0122108 -0.000343323  -0.00368449 -0.00731531 7.10487e-05  -0.0019297 -0.0063991 -0.00028038  -0.00343014 -0.00714123 -0.000735998  -0.0113759 -0.0255874 0.00239325  -0.00626785 -0.0245954 0.00193262  -0.00521567 -0.0177659 0.00170875  -0.0106148 -0.025291 0.00120974  -0.00858772 -0.0186308 0.00143385  -0.00464714 -0.0175883 0.000982523  -0.00800997 -0.018369 0.000330448  -0.0172065 -0.0417847 0.00480461  -0.00983441 -0.0410534 0.00438929  -0.00894067 -0.0326716 0.0038898  -0.0160753 -0.0414658 0.00357127  -0.0142659 -0.0333213 0.00352669  -0.00800616 -0.0324576 0.0030818  -0.013319 -0.0330157 0.00230455  -0.023191 -0.0608597 0.00780725  -0.0137133 -0.0604432 0.00749779  -0.0130328 -0.0506218 0.00667763  -0.0217013 -0.0605381 0.00661922  -0.0201824 -0.0509648 0.00623298  -0.0117398 -0.0503916 0.00586915  -0.0188711 -0.0506464 0.00501513  -0.0293185 -0.0826824 0.0113771  -0.0178987 -0.0825772 0.0112007  -0.0174041 -0.0713893 0.0100346  -0.0274937 -0.0823846 0.0102799  -0.0262329 -0.0714267 0.00952172  -0.0157618 -0.0711705 0.00927901  -0.0245726 -0.0711239 0.00837636  -0.0356418 -0.10714 0.0155103  -0.0224401 -0.107361 0.0154774  -0.0220814 -0.0948462 0.0139563  -0.0335017 -0.106872 0.0145202  -0.0324514 -0.0945865 0.0133719  -0.0201244 -0.0946456 0.0132728  -0.0304688 -0.0943076 0.0123281  -0.0422007 -0.134034 0.0201864  -0.027366 -0.134572 0.0203006  -0.0271156 -0.120832 0.0184259  -0.0397674 -0.133805 0.0193062  -0.0388877 -0.120282 0.0177801  -0.0248492 -0.120666 0.0178239  -0.0365984 -0.120042 0.0168469  -0.0490329 -0.163215 0.0254004  -0.0327061 -0.164094 0.0256457  -0.0325283 -0.149186 0.0234411  -0.0463215 -0.163033 0.0246234  -0.0455799 -0.148345 0.0227265  -0.0299855 -0.149055 0.0229163  -0.0430088 -0.148144 0.0218999  -0.0561448 -0.194474 0.0311067  -0.0384502 -0.195671 0.0314968  -0.038343 -0.179716 0.0289621  -0.0531714 -0.194333 0.0304303  -0.0525514 -0.178586 0.0281901  -0.0355241 -0.179625 0.0285141  -0.0497071 -0.178432 0.0274658  -0.0635465 -0.227662 0.0373175  -0.0446093 -0.229197 0.0378225  -0.044546 -0.21225 0.034992  -0.0603279 -0.227578 0.0367308  -0.0598084 -0.210834 0.0341499  -0.0414789 -0.212202 0.0346129  -0.0567127 -0.210725 0.0335205  -0.0712223 -0.262573 0.0439627  -0.051147 -0.264414 0.0446091  -0.0511409 -0.246596 0.041476  -0.0677673 -0.262522 0.0434635  -0.0673481 -0.244902 0.040581  -0.0478297 -0.246588 0.0411651  -0.0640103 -0.244841 0.0400414  -0.0791696 -0.299065 0.0510857  -0.058066 -0.301226 0.0518241  -0.0580953 -0.282593 0.0484321  -0.0754994 -0.299084 0.0506623  -0.0751615 -0.280628 0.0474675  -0.054557 -0.282632 0.0481789  -0.0715984 -0.280613 0.0470083  -0.0873586 -0.336961 0.0585854  -0.0653186 -0.339403 0.0594645  -0.065403 -0.32006 0.055795  -0.0834734 -0.337001 0.0582416  -0.0832331 -0.317839 0.0547795  -0.0616534 -0.320136 0.0556006  -0.0794547 -0.317871 0.0544002  -0.0957758 -0.376119 0.0665317  -0.0728981 -0.378848 0.0674822  -0.0730215 -0.358853 0.063586  -0.0917072 -0.376238 0.0662515  -0.0915387 -0.356388 0.0625086  -0.0690618 -0.358979 0.0634434  -0.0875589 -0.356468 0.0621984  -0.104389 -0.416389 0.0747967  -0.0807534 -0.419368 0.0758855  -0.0809369 -0.398809 0.0717402  -0.100126 -0.416515 0.0745876  -0.100058 -0.396116 0.0706134  -0.0767995 -0.398963 0.0716462  -0.0958917 -0.396237 0.0703716  -0.113178 -0.457631 0.0834787  -0.0888684 -0.460855 0.0846174  -0.089099 -0.439795 0.0802741  -0.108761 -0.457845 0.0833232  -0.108762 -0.436894 0.0790935  -0.0847676 -0.440001 0.0802276  -0.104416 -0.437062 0.0789123  -0.122107 -0.499725 0.0924242  -0.097198 -0.503164 0.0936975  -0.0974951 -0.481668 0.0891316  -0.117515 -0.49993 0.092334  -0.117625 -0.478574 0.0879066  -0.0930202 -0.481895 0.0891259  -0.113122 -0.478777 0.0877855  -0.13115 -0.542531 0.101749  -0.105714 -0.546167 0.103054  -0.106072 -0.52431 0.0983205  -0.126436 -0.542827 0.101703  -0.126613 -0.521043 0.097049  -0.101416 -0.524587 0.0983572  -0.121951 -0.52129 0.0969815  -0.140287 -0.585963 0.111286  -0.11439 -0.589775 0.112716  -0.114813 -0.567595 0.10779  -0.135418 -0.586235 0.111295  -0.135709 -0.564173 0.10648  -0.110051 -0.567886 0.107859  -0.130918 -0.564447 0.106462  -0.149485 -0.629878 0.12116  -0.123186 -0.633844 0.122605  -0.123681 -0.61142 0.117538  -0.14452 -0.630245 0.121204  -0.144878 -0.607861 0.116191  -0.118752 -0.611759 0.117643  -0.139949 -0.608176 0.116217  -0.158726 -0.674223 0.131197  -0.132087 -0.678326 0.132755  -0.132649 -0.655681 0.127531  -0.153629 -0.674552 0.131288  -0.154101 -0.652002 0.126149  -0.127647 -0.656025 0.12766  -0.149072 -0.652337 0.126215  -0.167986 -0.71886 0.141527  -0.141053 -0.723076 0.143084  -0.141691 -0.700283 0.137747  -0.162815 -0.719282 0.141644  -0.163353 -0.696504 0.136337  -0.136538 -0.700674 0.137906  -0.158207 -0.696877 0.13644  -0.177249 -0.763759 0.151977  -0.150084 -0.768075 0.153631  -0.150783 -0.745149 0.148169  -0.171968 -0.764138 0.15213  -0.172619 -0.741283 0.146729  -0.145586 -0.745538 0.148342  -0.167393 -0.741668 0.146862  -0.186491 -0.808796 0.162663  -0.159128 -0.813184 0.164311  -0.159906 -0.790193 0.158763  -0.18117 -0.809256 0.162832  -0.181872 -0.786258 0.157301  -0.154579 -0.79062 0.15896  -0.176556 -0.786673 0.15746  -0.195719 -0.853959 0.173419  -0.168195 -0.85841 0.175142  -0.169027 -0.83536 0.169515  -0.190311 -0.854363 0.173616  -0.191107 -0.831366 0.168027  -0.163685 -0.835782 0.169723  -0.185747 -0.831788 0.168204  -0.204908 -0.899142 0.184354  -0.177259 -0.903662 0.186072  -0.17816 -0.880576 0.180372  -0.199465 -0.899635 0.184566  -0.200318 -0.876547 0.178872  -0.172704 -0.881041 0.180599  -0.194885 -0.876993 0.179075  -0.21404 -0.944346 0.195302  -0.186329 -0.9489 0.197106  -0.187256 -0.925816 0.191365  -0.208521 -0.944814 0.195546  -0.209481 -0.921743 0.189824  -0.18181 -0.926267 0.191592  -0.203999 -0.922204 0.190048  -0.223058 -0.989552 0.206373  -0.195327 -0.994003 0.208229  -0.196342 -0.971034 0.202374  -0.217597 -0.989998 0.206608  -0.218561 -0.966949 0.20086  -0.190828 -0.971485 0.202615  -0.213045 -0.967415 0.201105  -0.232119 -1.03462 0.217319  -0.204216 -1.03914 0.219223  -0.205295 -1.01619 0.213515  -0.226538 -1.03501 0.217654  -0.22758 -1.01209 0.211856  -0.199851 -1.01664 0.213779  -0.22211 -1.01253 0.212083  -0.241014 -1.0796 0.228482  -0.213196 -1.08428 0.230339  -0.21425 -1.06118 0.224541  -0.235474 -1.08032 0.228866  -0.23661 -1.05713 0.222883  -0.208667 -1.06183 0.224883  -0.231026 -1.05775 0.223252  -0.249751 -1.12449 0.239131  -0.221934 -1.12902 0.241036  -0.222993 -1.10625 0.235531  -0.244085 -1.12498 0.239665  -0.245388 -1.10215 0.233744  -0.217702 -1.1067 0.235883  -0.239825 -1.10273 0.234118  -0.000382267 -0.00231621 -5.91278e-05  0 0 0  0.000395998 -0.0024043 5.72205e-05  8.2992e-05 -0.00032714 -0.000141144  0 0 0  -0.000258222 -0.00228211 -0.000230074  -0.000116315 -0.000281036 -0.000184774  0 0 0  0.000120327 -0.000338346 -0.000118971  -7.78586e-05 -0.000272334 -0.00027442  -0.00136782 -0.0112087 0.00105762  0.00115731 -0.0113728 0.0012579  0.000510961 -0.00632393 0.000520229  -0.000970617 -0.0111265 0.000759125  -0.00080052 -0.00619295 0.000396967  0.00075841 -0.00632739 0.000560522  -0.000554785 -0.00614417 0.00015521  -0.00291881 -0.0245671 0.00299263  0.00180864 -0.0248459 0.00323915  0.000951648 -0.0177182 0.00214028  -0.00217658 -0.0244517 0.00261497  -0.00208136 -0.0174707 0.00194883  0.00151819 -0.0176914 0.00217223  -0.00151592 -0.0173727 0.00160217  -0.00494352 -0.0412754 0.00555325  0.0020355 -0.0416962 0.00585842  0.00106603 -0.0329484 0.00445604  -0.00383914 -0.0411278 0.00515366  -0.00387686 -0.0325484 0.00420213  0.00198492 -0.0328996 0.00447392  -0.00295478 -0.0324213 0.00380731  -0.00739849 -0.0609104 0.00870275  0.00169611 -0.0615151 0.00906253  0.000671268 -0.0513156 0.00737405  -0.00594765 -0.0607684 0.00831699  -0.00611746 -0.0507376 0.00706196  0.00194228 -0.0512549 0.00738621  -0.0048365 -0.0505958 0.00666404  -0.0102965 -0.0832894 0.0124004  0.000734985 -0.0840937 0.0128505  -0.000303328 -0.0725253 0.0108578  -0.00851607 -0.0831453 0.0120568  -0.00878823 -0.0717559 0.0104809  0.00129348 -0.0724605 0.0108802  -0.0071733 -0.0716172 0.0101144  -0.0136723 -0.108281 0.0166705  -0.000858724 -0.109318 0.0171924  -0.00189489 -0.096434 0.0149069  -0.0115858 -0.108174 0.0163748  -0.0119227 -0.095461 0.0144725  1.99676e-05 -0.096391 0.0149465  -0.00998473 -0.095342 0.0141494  -0.0175511 -0.13573 0.0214682  -0.00311059 -0.137006 0.0220966  -0.00410855 -0.122889 0.0195038  -0.0151702 -0.135636 0.0212266  -0.0155452 -0.1217 0.0190022  -0.00190276 -0.122855 0.0195684  -0.0133146 -0.121604 0.0187321  -0.0219393 -0.16545 0.0268095  -0.00599253 -0.166984 0.027508  -0.00696325 -0.15172 0.0246425  -0.0192848 -0.165404 0.0266168  -0.0196807 -0.150308 0.0240846  -0.00447285 -0.151731 0.0247285  -0.0171592 -0.150251 0.0238636  -0.026839 -0.197267 0.0326424  -0.00952446 -0.199066 0.0334516  -0.0104324 -0.182743 0.0302937  -0.0239204 -0.197246 0.0324991  -0.0243224 -0.181099 0.029665  -0.00767577 -0.182764 0.0304053  -0.0215404 -0.181067 0.0294945  -0.0322307 -0.230981 0.0389683  -0.013643 -0.233039 0.0398476  -0.0145239 -0.215761 0.0364468  -0.0290642 -0.231006 0.0388696  -0.0294739 -0.213887 0.0357592  -0.011515 -0.215838 0.0365777  -0.0264274 -0.213907 0.0356326  -0.0380999 -0.266431 0.0457489  -0.0183731 -0.26876 0.0467329  -0.0191851 -0.250599 0.0430679  -0.0346988 -0.266491 0.0456922  -0.0351034 -0.248491 0.0423055  -0.0159258 -0.250683 0.0432193  -0.0318242 -0.248533 0.0422239  -0.0444112 -0.30342 0.052968  -0.0236183 -0.305987 0.0540204  -0.024416 -0.287059 0.0501409  -0.040784 -0.303512 0.0529516  -0.0412009 -0.28473 0.0493205  -0.0209421 -0.287201 0.0503078  -0.037684 -0.284828 0.0492764  -0.0511452 -0.341806 0.0606115  -0.0294145 -0.344637 0.0617549  -0.0301501 -0.324989 0.0576386  -0.0473136 -0.34195 0.0606282  -0.0477234 -0.322439 0.0567453  -0.0264349 -0.32514 0.057822  -0.0439984 -0.322556 0.0567386  -0.0582572 -0.381409 0.0686305  -0.0356408 -0.384445 0.069844  -0.0363834 -0.3642 0.0655413  -0.0542158 -0.381565 0.0686839  -0.0546544 -0.361449 0.0645881  -0.0324919 -0.364404 0.0657358  -0.0507159 -0.361623 0.0646143  -0.0657214 -0.422104 0.0770485  -0.0423472 -0.425388 0.0783348  -0.0430402 -0.40457 0.073828  -0.0615069 -0.422331 0.0771282  -0.0619442 -0.40162 0.0728037  -0.0389144 -0.404788 0.0740354  -0.0578192 -0.40181 0.0728617  -0.073487 -0.463732 0.0857732  -0.0493937 -0.467177 0.0871301  -0.0501132 -0.445917 0.0824635  -0.0690813 -0.463944 0.0858872  -0.069566 -0.442794 0.0813825  -0.0458541 -0.446175 0.0826771  -0.0652555 -0.443036 0.0814691  -0.0815289 -0.506175 0.0948765  -0.0568378 -0.509847 0.0962825  -0.0575268 -0.488143 0.0914397  -0.0769861 -0.506477 0.0950089  -0.0774727 -0.484851 0.0902975  -0.0530391 -0.488423 0.0916653  -0.073 -0.485108 0.0904098  -0.0898001 -0.549303 0.104218  -0.0645373 -0.55309 0.105703  -0.065268 -0.531082 0.10072  -0.0850813 -0.549563 0.104382  -0.0856349 -0.527647 0.0995231  -0.0606892 -0.531384 0.100947  -0.0810056 -0.527947 0.0996597  -0.0982718 -0.593001 0.113913  -0.0725503 -0.596991 0.11542  -0.0732718 -0.574651 0.110296  -0.0934486 -0.593371 0.114086  -0.0940101 -0.571079 0.109044  -0.0684717 -0.574988 0.110532  -0.0892386 -0.571396 0.109201  -0.106909 -0.637179 0.12378  -0.0807438 -0.641236 0.125369  -0.0815153 -0.61871 0.120126  -0.101926 -0.637481 0.123982  -0.10257 -0.615027 0.118826  -0.0766637 -0.61905 0.120361  -0.0976682 -0.615377 0.119002  -0.115676 -0.681714 0.13397  -0.089169 -0.685949 0.135557  -0.0899506 -0.663184 0.130202  -0.110618 -0.682136 0.134176  -0.111276 -0.659398 0.12886  -0.0848923 -0.66357 0.130445  -0.106255 -0.659766 0.129051  -0.124546 -0.726555 0.144275  -0.0977154 -0.730816 0.145944  -0.0985491 -0.707963 0.140492  -0.119353 -0.726895 0.144504  -0.120098 -0.704094 0.139108  -0.0934682 -0.708336 0.140731  -0.114973 -0.704485 0.139315  -0.133489 -0.771577 0.154865  -0.106423 -0.775985 0.156519  -0.107276 -0.752976 0.150978  -0.128247 -0.772037 0.15509  -0.129007 -0.749038 0.149559  -0.102014 -0.753401 0.151223  -0.12379 -0.749446 0.149776  -0.142493 -0.81676 0.165519  -0.115198 -0.821158 0.167255  -0.1161 -0.798146 0.161631  -0.137133 -0.817129 0.165764  -0.137983 -0.794148 0.160178  -0.110841 -0.798541 0.161869  -0.132684 -0.794569 0.160403  -0.151522 -0.861986 0.176404  -0.124064 -0.866515 0.178113  -0.124998 -0.843393 0.172436  -0.146123 -0.862478 0.176646  -0.147003 -0.839359 0.170948  -0.11959 -0.843856 0.172685  -0.141626 -0.839804 0.171183  -0.160537 -0.907282 0.187318  -0.13298 -0.911748 0.189101  -0.133947 -0.888695 0.183374  -0.155102 -0.907674 0.187572  -0.156032 -0.884623 0.181865  -0.128548 -0.889112 0.183609  -0.150603 -0.885072 0.182106  -0.169576 -0.952503 0.198396  -0.141908 -0.957097 0.200181  -0.14292 -0.933978 0.194386  -0.164144 -0.952994 0.198618  -0.165048 -0.929903 0.192873  -0.137422 -0.934439 0.194647  -0.159626 -0.930334 0.193102  -0.178659 -0.997685 0.209486  -0.150851 -1.00223 0.211331  -0.151896 -0.97919 0.205483  -0.17306 -0.998098 0.209769  -0.174124 -0.975099 0.20389  -0.146393 -0.97965 0.205717  -0.168615 -0.975559 0.204153  -0.187543 -1.04283 0.22069  -0.159804 -1.04754 0.222543  -0.160838 -1.02433 0.216661  -0.182021 -1.04339 0.22091  -0.183111 -1.02023 0.215082  -0.155332 -1.02494 0.216937  -0.177559 -1.02079 0.215386  -0.196312 -1.08788 0.231573  -0.168557 -1.09232 0.233685  -0.169697 -1.06951 0.227776  -0.190858 -1.08822 0.231876  -0.191926 -1.06535 0.2262  -0.164239 -1.07003 0.228018  -0.186477 -1.06589 0.226421  -0.205056 -1.13263 0.242511  -0.177365 -1.13744 0.244501  -0.178488 -1.11447 0.238783  -0.199733 -1.13329 0.242675  -0.200719 -1.11034 0.237277  -0.172956 -1.11498 0.239079  -0.19535 -1.1108 0.23753  0.000937372 -0.0028047 9.89437e-05  0 0 0  0.00175856 -0.00360411 0.000579834  0.000506349 -0.00098604 -7.08103e-05  0 0 0  0.00106247 -0.00284153 0.000332832  0.000287764 -0.000555933 -0.000101328  0 0 0  0.000543006 -0.00103337 0.0001688  0.00032369 -0.00058651 3.0756e-05  0.00289473 -0.0120738 0.00134921  0.00548932 -0.013345 0.00214291  0.00320266 -0.00788105 0.000694036  0.00329569 -0.012112 0.00172257  0.00183497 -0.0068835 0.000624418  0.00345421 -0.00796723 0.00128102  0.00208457 -0.00693285 0.000941992  0.00504446 -0.0257367 0.00339746  0.00983828 -0.0272067 0.00434089  0.00708768 -0.0197769 0.00241399  0.00579223 -0.0257669 0.00381994  0.00398827 -0.0184886 0.00229812  0.00765863 -0.0198813 0.0031817  0.00455695 -0.0185289 0.002702  0.00678927 -0.0427279 0.00607872  0.0137786 -0.0442235 0.00707626  0.0109741 -0.035256 0.00481105  0.00787878 -0.0427351 0.00650239  0.00599009 -0.0338553 0.00466514  0.0119026 -0.0353368 0.00563574  0.00691369 -0.0338765 0.00509024  0.00786102 -0.0626796 0.00933528  0.0169132 -0.0642845 0.0103581  0.0142071 -0.0538092 0.00782728  0.00929081 -0.0626886 0.00974607  0.00741762 -0.0523433 0.00763249  0.0154468 -0.0538936 0.00864196  0.008672 -0.0523575 0.00804996  0.00818992 -0.0853983 0.01316  0.019142 -0.0870479 0.0142021  0.0165698 -0.0752513 0.0114207  0.00992739 -0.0854 0.0135639  0.00812054 -0.073692 0.0111768  0.018158 -0.0753148 0.012208  0.00971574 -0.0736964 0.0115814  0.00775105 -0.110782 0.0175538  0.020443 -0.112664 0.0186214  0.0180381 -0.0994453 0.0155799  0.00979728 -0.110812 0.0179486  0.0080682 -0.0977632 0.01528  0.0198849 -0.0995288 0.0163312  0.00994736 -0.0977875 0.0156772  0.00656235 -0.138625 0.0224762  0.020889 -0.140575 0.0235825  0.0186082 -0.126237 0.0203235  0.00888693 -0.138657 0.0228741  0.00725025 -0.1244 0.0199502  0.0208004 -0.126319 0.0210466  0.00945437 -0.124428 0.020339  0.0046165 -0.16879 0.027961  0.0204053 -0.171063 0.0290875  0.018319 -0.155437 0.025568  0.00722182 -0.168866 0.0283484  0.00568461 -0.153429 0.0251436  0.0207242 -0.155542 0.0262563  0.00812936 -0.153494 0.0255306  0.00195765 -0.201026 0.0339026  0.0191648 -0.203353 0.0350873  0.01717 -0.186848 0.0313933  0.00481939 -0.201105 0.0342987  0.00337398 -0.184656 0.0308752  0.0199175 -0.186971 0.0320573  0.00613391 -0.18473 0.0312533  -0.00141597 -0.235199 0.0404024  0.0170034 -0.237906 0.0415866  0.0152218 -0.220267 0.0376413  0.00169683 -0.235334 0.0407839  0.000358701 -0.217887 0.0370817  0.0181441 -0.220406 0.0382698  0.00331998 -0.218003 0.0374582  -0.00543547 -0.271062 0.0472612  0.0142119 -0.27379 0.0485353  0.0124726 -0.255503 0.0444572  -0.00208306 -0.271191 0.0476553  -0.00334895 -0.252932 0.043787  0.0157282 -0.255679 0.0450635  -8.46386e-05 -0.253061 0.044152  -0.0101024 -0.30849 0.0546863  0.0105302 -0.311619 0.0559242  0.00901389 -0.292359 0.0516129  -0.00653088 -0.308685 0.0550609  -0.00769246 -0.2896 0.0509109  0.0124149 -0.292536 0.0521832  -0.00425875 -0.289771 0.0512736  -0.0153303 -0.347261 0.0623624  0.00635433 -0.350382 0.0637269  0.00483048 -0.330664 0.059314  -0.0115327 -0.34744 0.0627522  -0.0126523 -0.327727 0.0584898  0.00853992 -0.330897 0.0598624  -0.00893486 -0.327914 0.0588384  -0.0211248 -0.387257 0.0706234  0.0013485 -0.390764 0.071908  4.06504e-05 -0.370242 0.0672896  -0.0171403 -0.38751 0.0709877  -0.018165 -0.367129 0.0664418  0.00388241 -0.370462 0.0678017  -0.0142995 -0.367352 0.0667863  -0.0273868 -0.428296 0.0790262  -0.00403404 -0.431782 0.0804734  -0.00538516 -0.410941 0.075772  -0.0231919 -0.428522 0.079407  -0.0242057 -0.407673 0.0748019  -0.0012784 -0.411229 0.0762606  -0.0200869 -0.407916 0.0751307  -0.0341225 -0.470253 0.0880203  -0.0101449 -0.474076 0.0893517  -0.0113099 -0.452607 0.0844791  -0.029774 -0.470557 0.0883732  -0.0307078 -0.449186 0.0834861  -0.00706768 -0.452876 0.0849361  -0.0264552 -0.449458 0.0838099  -0.0412321 -0.512992 0.0970595  -0.0165443 -0.516802 0.0985887  -0.0177686 -0.495108 0.0936341  -0.0366886 -0.513263 0.0974283  -0.0376408 -0.491559 0.092526  -0.013319 -0.495445 0.0940645  -0.033174 -0.491854 0.0928347  -0.048717 -0.556377 0.106692  -0.0235386 -0.56045 0.10806  -0.0246191 -0.538307 0.102984  -0.0440516 -0.556726 0.107029  -0.0449429 -0.534633 0.101854  -0.020025 -0.538629 0.103388  -0.0403483 -0.534952 0.102157  -0.0564897 -0.600326 0.11628  -0.030767 -0.604404 0.117879  -0.0319033 -0.582094 0.112708  -0.0516508 -0.600635 0.116632  -0.0525794 -0.578322 0.111481  -0.0271657 -0.582471 0.113083  -0.0478177 -0.578661 0.111768  -0.0645444 -0.644685 0.126446  -0.0384338 -0.648944 0.127856  -0.0394797 -0.626351 0.122612  -0.0596106 -0.645068 0.126767  -0.0604994 -0.622481 0.121357  -0.0345883 -0.626725 0.122967  -0.0556135 -0.622842 0.121639  -0.0728073 -0.689424 0.136503  -0.046308 -0.693707 0.138156  -0.0473907 -0.670987 0.132803  -0.0677299 -0.689765 0.136836  -0.0686619 -0.667047 0.131476  -0.0424156 -0.671394 0.133127  -0.0636578 -0.667425 0.131744  -0.0812745 -0.734373 0.147098  -0.0544646 -0.738771 0.148555  -0.0555105 -0.715902 0.143168  -0.0761185 -0.734786 0.147401  -0.0770338 -0.711896 0.141804  -0.0503783 -0.716323 0.143483  -0.0719104 -0.71229 0.142067  -0.0898812 -0.779549 0.157547  -0.0628154 -0.783979 0.159246  -0.0638757 -0.761021 0.153735  -0.0846059 -0.779923 0.157862  -0.0855708 -0.75697 0.152327  -0.0587008 -0.761456 0.154016  -0.0803652 -0.757383 0.152579  -0.0986061 -0.82479 0.168468  -0.0713074 -0.829272 0.169973  -0.0723813 -0.806278 0.164472  -0.0932834 -0.825217 0.168755  -0.0942481 -0.802187 0.163024  -0.0670621 -0.806731 0.164756  -0.0889356 -0.802603 0.163271  -0.107418 -0.870127 0.179225  -0.0799901 -0.874631 0.180969  -0.0810497 -0.85158 0.175311  -0.102022 -0.870524 0.179515  -0.103006 -0.847471 0.173856  -0.0757103 -0.852044 0.17556  -0.0976655 -0.847917 0.174095  -0.116333 -0.915395 0.190355  -0.0887141 -0.91999 0.191937  -0.0897875 -0.896916 0.186334  -0.110859 -0.915875 0.190625  -0.111876 -0.892789 0.184798  -0.084362 -0.897393 0.186594  -0.106439 -0.893224 0.185029  -0.125232 -0.960698 0.201372  -0.097584 -0.965264 0.203159  -0.098644 -0.942209 0.197379  -0.119704 -0.961177 0.201675  -0.120802 -0.93807 0.195851  -0.0931761 -0.942695 0.19762  -0.115284 -0.938559 0.196114  -0.134054 -1.00594 0.212616  -0.106369 -1.01042 0.214318  -0.107505 -0.987469 0.208608  -0.128624 -1.0063 0.212877  -0.129658 -0.983345 0.207041  -0.102039 -0.987947 0.20886  -0.124163 -0.983793 0.207272  -0.142983 -1.05104 0.223675  -0.115319 -1.05544 0.225627  -0.116384 -1.03262 0.219733  -0.137588 -1.05149 0.224039  -0.138507 -1.02849 0.218154  -0.110843 -1.03309 0.220035  -0.133156 -1.02902 0.218381  -0.15187 -1.09592 0.235018  -0.124093 -1.10093 0.236759  -0.125117 -1.07758 0.231006  -0.14629 -1.09659 0.235395  -0.147461 -1.07354 0.229272  -0.119864 -1.07815 0.231329  -0.142003 -1.07412 0.229671  -0.160658 -1.14083 0.245795  -0.132571 -1.14543 0.247921  -0.134034 -1.12261 0.242005  -0.154714 -1.14152 0.246385  -0.156292 -1.11855 0.240219  -0.128158 -1.1232 0.242463  -0.15051 -1.11912 0.240684  0.00241517 -0.00464046 0.000186682  0 0 0  0.0034454 -0.00631922 0.000997782  0.00103073 -0.00260037 -2.40803e-05  0 0 0  0.0025439 -0.00473952 0.000804663  0.000739403 -0.00164527 -4.3869e-05  0 0 0  0.00107101 -0.00268817 0.000414371  0.000775672 -0.00171232 0.000296354  0.00748628 -0.0149721 0.00150728  0.0105284 -0.0174657 0.00282764  0.00641198 -0.0113444 0.00077033  0.00790545 -0.0151141 0.00251913  0.00472659 -0.00934982 0.000746727  0.00668083 -0.0115116 0.00186539  0.00498502 -0.00947386 0.00159621  0.0133469 -0.0289809 0.00360417  0.0186061 -0.0315567 0.00515556  0.0139806 -0.0239448 0.00250793  0.0141029 -0.0291488 0.00479198  0.0104177 -0.0215927 0.00247574  0.014598 -0.0241623 0.00396204  0.0110076 -0.0217596 0.00359535  0.0187488 -0.0460463 0.00637341  0.02614 -0.0485855 0.00798392  0.021547 -0.0394755 0.00494623  0.0198477 -0.0461742 0.00758243  0.0161483 -0.0371369 0.00490713  0.0224614 -0.0396729 0.00652933  0.0170734 -0.0372734 0.00611901  0.0232381 -0.0660848 0.00969911  0.032538 -0.0685596 0.0113032  0.0282257 -0.0579869 0.00804901  0.0246369 -0.0662612 0.0108826  0.0211181 -0.0556952 0.00794792  0.0295291 -0.0581927 0.00961947  0.0223786 -0.055846 0.00915432  0.0267082 -0.0889935 0.0136778  0.0378914 -0.0915808 0.0152481  0.0337888 -0.0794941 0.0117259  0.0284342 -0.0890945 0.0147851  0.0251031 -0.0771873 0.0116036  0.0352865 -0.0796769 0.0132396  0.0266564 -0.0773041 0.0127594  0.0291641 -0.114613 0.0181487  0.0419888 -0.11722 0.0197074  0.038227 -0.103845 0.0160508  0.0311489 -0.114827 0.0192127  0.0280622 -0.101471 0.0158126  0.0401785 -0.104044 0.0174682  0.0299394 -0.101612 0.0169158  0.0306163 -0.142779 0.0232913  0.0450976 -0.14563 0.0248072  0.0415361 -0.130873 0.0208871  0.0329254 -0.142876 0.0242622  0.0300158 -0.128392 0.0206363  0.043561 -0.131062 0.0222256  0.0321469 -0.128518 0.0216711  0.0311105 -0.173248 0.0288289  0.0469896 -0.176137 0.0303755  0.0437592 -0.160344 0.0263479  0.0336351 -0.173523 0.0297685  0.0309813 -0.157736 0.0259476  0.0463324 -0.160564 0.0275874  0.0334338 -0.157888 0.0269356  0.0306528 -0.205874 0.0350518  0.0479634 -0.209084 0.0365388  0.0449325 -0.192065 0.0322547  0.0335047 -0.205984 0.0358899  0.0310005 -0.189312 0.0318577  0.0474367 -0.192281 0.0334158  0.0336636 -0.189471 0.0327735  0.0293239 -0.240361 0.0415585  0.0478178 -0.243592 0.0431335  0.0450709 -0.225793 0.0387428  0.0323477 -0.240703 0.0423775  0.0300943 -0.222895 0.0381858  0.0482249 -0.226059 0.0398157  0.0330831 -0.223071 0.0390649  0.0271139 -0.276635 0.0487559  0.046808 -0.280224 0.0502353  0.0442857 -0.261359 0.04562  0.0304602 -0.276773 0.0494671  0.0283272 -0.258305 0.0450792  0.0472239 -0.261615 0.0466142  0.0314779 -0.258511 0.0458832  0.0241379 -0.314353 0.0561357  0.0448387 -0.31793 0.0577688  0.0425138 -0.298513 0.0530131  0.0276225 -0.314745 0.0568376  0.0257179 -0.295322 0.0523272  0.0461848 -0.298846 0.053937  0.0291942 -0.295532 0.0531006  0.0203673 -0.353524 0.0641975  0.0420386 -0.357465 0.0656815  0.0399804 -0.337139 0.0607626  0.0241565 -0.353705 0.0647919  0.0223482 -0.333795 0.0600953  0.0433205 -0.337447 0.0616052  0.0259409 -0.334057 0.0607927  0.0159521 -0.393767 0.0723586  0.038482 -0.397665 0.0740688  0.0365102 -0.376977 0.068949  0.0198584 -0.394188 0.0729489  0.0182357 -0.373518 0.0681701  0.0406184 -0.377386 0.0697422  0.0221469 -0.373771 0.0688407  0.0108356 -0.435167 0.0811679  0.0341222 -0.439412 0.0826681  0.0324636 -0.417966 0.077476  0.0150123 -0.43541 0.0816584  0.0134746 -0.414366 0.0767035  0.0361814 -0.418338 0.0781853  0.0174648 -0.414689 0.0773005  0.00519991 -0.477323 0.0900276  0.0292201 -0.481492 0.0918267  0.0275302 -0.459839 0.0863526  0.00949121 -0.477747 0.0905182  0.0080781 -0.456154 0.0855114  0.0319941 -0.46033 0.0870328  0.0123675 -0.456462 0.0860848  -0.00103021 -0.520368 0.0994737  0.0235486 -0.524856 0.100996  0.0222132 -0.502591 0.0955637  0.0034771 -0.520686 0.0998762  0.00214934 -0.49878 0.0947063  0.0262852 -0.503032 0.0961609  0.00649238 -0.499164 0.0952134  -0.00766349 -0.563909 0.108945  0.0175383 -0.568289 0.110822  0.0160618 -0.545939 0.105035  -0.00302982 -0.564315 0.109347  -0.00430036 -0.542077 0.104147  0.0208056 -0.546506 0.105617  0.000309467 -0.542445 0.10463  -0.0147827 -0.608093 0.118921  0.0108144 -0.61276 0.120473  0.00971031 -0.589932 0.11483  -0.00999713 -0.608488 0.119249  -0.0111723 -0.585961 0.113903  0.0141151 -0.590439 0.115335  -0.0065217 -0.586398 0.11433  -0.0222044 -0.652565 0.128917  0.0039084 -0.657095 0.130857  0.00258803 -0.63428 0.124817  -0.0172739 -0.652948 0.129246  -0.0184598 -0.630289 0.123884  0.00755239 -0.634909 0.125311  -0.0135822 -0.630718 0.124284  -0.0300004 -0.697466 0.139323  -0.00362611 -0.702247 0.140908  -0.00458264 -0.679076 0.135096  -0.024982 -0.697928 0.139596  -0.0260656 -0.674994 0.134102  0.000119448 -0.679634 0.135526  -0.021148 -0.675472 0.134462  -0.0380106 -0.742495 0.149755  -0.0112295 -0.747119 0.151732  -0.0124424 -0.724031 0.145517  -0.0328419 -0.742866 0.150026  -0.0339813 -0.719957 0.144531  -0.00730395 -0.724705 0.145932  -0.0288863 -0.72044 0.144863  -0.0462985 -0.787767 0.160506  -0.0193603 -0.792595 0.162128  -0.020241 -0.769268 0.156188  -0.041095 -0.788273 0.160735  -0.0421264 -0.765121 0.155119  -0.0152807 -0.769852 0.156554  -0.0369937 -0.765625 0.155423  -0.0547397 -0.83304 0.171274  -0.0274785 -0.837709 0.173256  -0.0286248 -0.814511 0.166972  -0.0493808 -0.833415 0.171506  -0.0505028 -0.810395 0.165903  -0.0233526 -0.815212 0.167314  -0.0452359 -0.81092 0.166178  -0.0633633 -0.878411 0.182296  -0.0360353 -0.883226 0.183958  -0.036901 -0.859903 0.177936  -0.0579967 -0.878939 0.182508  -0.0590332 -0.855726 0.176765  -0.0317187 -0.860474 0.178247  -0.0537148 -0.856241 0.177036  -0.0720484 -0.923701 0.193325  -0.0444896 -0.928413 0.195269  -0.0456059 -0.905178 0.188993  -0.0666053 -0.924135 0.193538  -0.0677021 -0.901049 0.187854  -0.0402384 -0.905901 0.189273  -0.0623045 -0.901615 0.188095  -0.0808561 -0.969005 0.204554  -0.0532377 -0.973733 0.206292  -0.0542278 -0.950533 0.200171  -0.0754831 -0.969457 0.204737  -0.0764372 -0.946374 0.198948  -0.0488186 -0.951081 0.200472  -0.0710611 -0.946858 0.199181  -0.0898144 -1.0141 0.215766  -0.0620167 -1.01879 0.217618  -0.0630774 -0.995665 0.211487  -0.0842485 -1.0146 0.216015  -0.0853229 -0.991557 0.210134  -0.0576231 -0.996421 0.211716  -0.0799215 -0.992136 0.21034  -0.0986319 -1.05925 0.227109  -0.0710371 -1.06387 0.228907  -0.0718873 -1.0409 0.222831  -0.0930424 -1.05963 0.227374  -0.0942667 -1.03671 0.221387  -0.0665181 -1.04126 0.223094  -0.088659 -1.03717 0.221703  -0.107234 -1.10419 0.238131  -0.0796123 -1.10911 0.24029  -0.0806265 -1.08578 0.234102  -0.10186 -1.10512 0.238425  -0.102918 -1.08168 0.232785  -0.0753498 -1.08661 0.234542  -0.0975142 -1.08242 0.233071  -0.115716 -1.149 0.249223  -0.0883648 -1.15335 0.251179  -0.0893478 -1.13071 0.245295  -0.110354 -1.14948 0.24961  -0.111575 -1.12673 0.243918  -0.0838861 -1.13115 0.245774  -0.106066 -1.12723 0.24438  0.00446311 -0.00834829 0.000191212  0 0 0  0.00594564 -0.0114995 0.00128579  0.001788 -0.00579846 -5.03063e-05  0 0 0  0.00459473 -0.00850803 0.00116396  0.00135201 -0.00394237 -2.19345e-05  0 0 0  0.00182348 -0.00592709 0.000579834  0.00138622 -0.0040524 0.000509024  0.0132089 -0.0201712 0.00150323  0.0172155 -0.0240555 0.00326228  0.011071 -0.0172986 0.000648499  0.0136606 -0.0204566 0.0030961  0.00855398 -0.0139601 0.000737906  0.0113377 -0.0175629 0.00221896  0.0088276 -0.0141749 0.00207686  0.022744 -0.0341926 0.00356317  0.0288101 -0.0376386 0.00569487  0.0225046 -0.0301954 0.0022974  0.0235136 -0.0344032 0.00546885  0.0180283 -0.0268319 0.00246024  0.0231454 -0.0304919 0.00440431  0.0186567 -0.0270924 0.00424266  0.0315588 -0.0510635 0.00640941  0.0394794 -0.0546245 0.0085566  0.0333596 -0.0453796 0.00473547  0.0326473 -0.0514263 0.00834799  0.027272 -0.0422403 0.0048964  0.0342413 -0.0456933 0.00703859  0.0281833 -0.0425003 0.0068481  0.0392743 -0.0710297 0.00974751  0.0490511 -0.0742195 0.0120025  0.043203 -0.0636857 0.007828  0.0406644 -0.0711946 0.0116694  0.0355673 -0.0606592 0.00801134  0.0444641 -0.0639676 0.0101533  0.0368388 -0.0609032 0.00996423  0.0457709 -0.0939993 0.0139241  0.0572286 -0.0975859 0.0159514  0.0518333 -0.0851551 0.0116441  0.0474217 -0.0944434 0.0156996  0.0426741 -0.0821545 0.0117495  0.0532936 -0.0854723 0.0138693  0.0441717 -0.0824134 0.0136271  0.0510383 -0.119793 0.0184145  0.0642323 -0.123081 0.0206065  0.0591182 -0.109585 0.0159991  0.053013 -0.119926 0.0201194  0.0485611 -0.106553 0.0160978  0.060926 -0.109842 0.0181224  0.0504146 -0.106775 0.0178788  0.0550929 -0.148154 0.0238335  0.0697203 -0.151947 0.0256729  0.0651332 -0.136776 0.0210621  0.0572616 -0.148704 0.0253632  0.0532115 -0.133668 0.0210409  0.0671908 -0.137119 0.0230339  0.0552714 -0.133948 0.022706  0.0579749 -0.178927 0.0293665  0.0741645 -0.182556 0.0315032  0.0697939 -0.166451 0.0265634  0.0605074 -0.179072 0.0308244  0.0566854 -0.163249 0.0265107  0.0720832 -0.1667 0.0284207  0.0590733 -0.163472 0.0280802  0.0597209 -0.21176 0.0359066  0.0771184 -0.215762 0.0375876  0.073283 -0.198404 0.0327427  0.0623691 -0.212413 0.0372031  0.0589851 -0.195089 0.0325534  0.0759611 -0.198809 0.0344586  0.0615937 -0.195424 0.0340071  0.0603799 -0.246633 0.0423937  0.0791115 -0.250758 0.0444834  0.0754664 -0.232379 0.0392818  0.063426 -0.246839 0.0436094  0.0601938 -0.228952 0.0390308  0.0781504 -0.232637 0.0408771  0.0630552 -0.229199 0.0404017  0.0600122 -0.283064 0.0499084  0.079806 -0.287182 0.0514786  0.0766126 -0.268177 0.0464447  0.0631056 -0.283781 0.051002  0.0603263 -0.264632 0.0460634  0.0799268 -0.268678 0.0479312  0.0634611 -0.265047 0.0473266  0.0586545 -0.321216 0.0572796  0.0794865 -0.325929 0.0593071  0.0765401 -0.305589 0.0539246  0.0621601 -0.321529 0.058264  0.0594677 -0.301931 0.0534358  0.079525 -0.30587 0.0552697  0.062732 -0.302225 0.0546236  0.0564084 -0.360459 0.0656056  0.078267 -0.364566 0.0671251  0.0755719 -0.344412 0.0619342  0.0599235 -0.361185 0.0665333  0.0576575 -0.340648 0.061342  0.0795207 -0.345031 0.0632191  0.0612931 -0.34116 0.0624356  0.0532711 -0.401162 0.0738127  0.075793 -0.406485 0.0757492  0.0735053 -0.384498 0.0702643  0.0571716 -0.401624 0.0745866  0.0549623 -0.38063 0.0695143  0.0767127 -0.384809 0.0713723  0.0585628 -0.380987 0.0705333  0.0494037 -0.442541 0.0827935  0.0730181 -0.446519 0.0843327  0.0706735 -0.425633 0.0790024  0.0533237 -0.443219 0.083595  0.0514621 -0.421679 0.0781872  0.0752251 -0.42638 0.0801108  0.0555629 -0.422297 0.0791304  0.04474 -0.485152 0.0917885  0.0685902 -0.491039 0.0936048  0.0669034 -0.467734 0.0880842  0.0489736 -0.485786 0.0923781  0.0471816 -0.463691 0.0870707  0.0702763 -0.46807 0.0889742  0.0510633 -0.46412 0.0879328  0.0395143 -0.528097 0.101282  0.0645902 -0.531876 0.102894  0.0624616 -0.510569 0.0974381  0.0438197 -0.528687 0.101991  0.0422504 -0.506468 0.0964003  0.0675595 -0.511439 0.0983901  0.0467734 -0.507186 0.0972111  0.0335839 -0.572059 0.110993  0.0584536 -0.578395 0.112672  0.0572798 -0.55412 0.107158  0.0380902 -0.572861 0.111428  0.0366433 -0.549946 0.105909  0.0608008 -0.554469 0.107859  0.0407672 -0.550444 0.106627  0.0272586 -0.616086 0.120892  0.0535018 -0.619658 0.122601  0.0514913 -0.598136 0.117036  0.0319207 -0.616574 0.121531  0.0305407 -0.593932 0.115788  0.0570464 -0.59911 0.117846  0.0354309 -0.594733 0.116482  0.0203145 -0.660922 0.131226  0.0459549 -0.667549 0.132776  0.0451829 -0.642654 0.127281  0.0250452 -0.661861 0.131537  0.023864 -0.638394 0.125843  0.0488613 -0.643004 0.127821  0.0282083 -0.638951 0.126429  0.0131271 -0.705635 0.14145  0.0402498 -0.709052 0.143256  0.0383081 -0.687424 0.137596  0.0181015 -0.706036 0.14203  0.0168297 -0.683162 0.13617  0.0442092 -0.688468 0.138277  0.0220244 -0.684015 0.13676  0.0053978 -0.750951 0.152293  0.0316179 -0.757683 0.153744  0.0311246 -0.732505 0.148256  0.0103199 -0.751979 0.152508  0.00932407 -0.72821 0.14668  0.0349894 -0.732854 0.14867  0.0138783 -0.728809 0.147149  -0.0024426 -0.796033 0.162802  0.0252953 -0.7994 0.164668  0.0234058 -0.777686 0.158936  0.00279856 -0.796379 0.163324  0.00157022 -0.773406 0.15737  0.0295358 -0.778752 0.159502  0.00700736 -0.77427 0.157869  -0.01074 -0.841515 0.17401  0.0158982 -0.848124 0.175415  0.0155602 -0.823001 0.169905  -0.00564837 -0.842557 0.174158  -0.00654268 -0.818712 0.168256  0.0196619 -0.823359 0.170213  -0.00178051 -0.819349 0.168623  -0.0190394 -0.886725 0.184775  0.00902581 -0.89016 0.186664  0.00723243 -0.868329 0.180876  -0.0136013 -0.887047 0.185224  -0.014822 -0.864073 0.179209  0.0134275 -0.869342 0.18134  -0.00920939 -0.864884 0.179636  -0.0277534 -0.932108 0.196181  -0.000816822 -0.938326 0.197658  -0.0011065 -0.913601 0.192094  -0.0225108 -0.933112 0.196305  -0.0233483 -0.909367 0.19038  0.00329208 -0.913996 0.192328  -0.0183911 -0.910046 0.190649  -0.0363698 -0.97724 0.207307  -0.00820494 -0.981071 0.209071  -0.00980186 -0.958896 0.203311  -0.0307798 -0.977667 0.207668  -0.0320427 -0.954681 0.201526  -0.00376058 -0.959772 0.203719  -0.0263009 -0.955405 0.201912  -0.0451348 -1.02253 0.218743  -0.0181019 -1.02789 0.220526  -0.0185573 -1.00398 0.214509  -0.0398903 -1.02316 0.218919  -0.0407286 -0.99984 0.212991  -0.0137 -1.00438 0.214698  -0.0356035 -1.00051 0.213251  -0.0539155 -1.06746 0.230045  -0.0261509 -1.07127 0.231984  -0.0272894 -1.04903 0.22623  -0.0485194 -1.0679 0.230406  -0.049511 -1.04503 0.224311  -0.021719 -1.0497 0.226549  -0.0439775 -1.04545 0.224662  -0.062789 -1.11233 0.241355  -0.0355573 -1.11754 0.243589  -0.0360065 -1.09392 0.237087  -0.0574672 -1.11316 0.241838  -0.0582879 -1.0898 0.235537  -0.0311527 -1.09419 0.237465  -0.0531745 -1.09055 0.235974  -0.0715411 -1.15702 0.252377  -0.0422609 -1.1611 0.255217  -0.0447936 -1.13879 0.248818  -0.0654087 -1.15729 0.253207  -0.0671661 -1.13461 0.24649  -0.0389702 -1.13945 0.249377  -0.0613031 -1.13515 0.246998  0.00814909 -0.0155589 3.33786e-06  0 0 0  0.0117615 -0.0214598 0.00125694  0.00402245 -0.012538 -0.000311613  0 0 0  0.00832008 -0.0158035 0.00131631  0.00243365 -0.00843173 -0.000113726  0 0 0  0.00408776 -0.0127257 0.000516176  0.00247905 -0.00858611 0.000593901  0.0210946 -0.0276275 0.00114894  0.0265304 -0.0320586 0.0032382  0.0192364 -0.0260605 0.000106335  0.0215336 -0.0280237 0.00331044  0.0147326 -0.0214096 0.000452518  0.0195977 -0.0263721 0.00215459  0.0150485 -0.0217203 0.00225592  0.0336827 -0.0410243 0.00321031  0.0405579 -0.045422 0.00575399  0.0328722 -0.0379092 0.00166988  0.0344693 -0.0413052 0.00576663  0.0274191 -0.0339311 0.0020256  0.033407 -0.0382436 0.00442004  0.0280044 -0.0342524 0.00445342  0.0456097 -0.0575563 0.00597525  0.0541301 -0.061706 0.00868416  0.0465929 -0.0526657 0.00407338  0.0466376 -0.0580294 0.00866413  0.0397761 -0.0488589 0.00447249  0.0476091 -0.0530385 0.00709748  0.0407313 -0.0492296 0.00713468  0.0563694 -0.0773883 0.00957108  0.0667201 -0.0816709 0.0122249  0.0594527 -0.070736 0.00727606  0.0577315 -0.0776945 0.0121694  0.051156 -0.0670459 0.00759721  0.0604578 -0.0710491 0.0103347  0.0522995 -0.0673492 0.0102847  0.065791 -0.100353 0.0136209  0.0777656 -0.104353 0.0163379  0.0710176 -0.0921351 0.0111687  0.0673687 -0.10083 0.0161622  0.0612578 -0.088477 0.0114737  0.0726621 -0.0925453 0.0141273  0.0628061 -0.0888724 0.0140584  0.0737925 -0.126264 0.0186076  0.0874172 -0.13077 0.0209906  0.0811439 -0.116629 0.0157123  0.0756825 -0.126686 0.0209224  0.0699747 -0.112945 0.0159385  0.0825972 -0.116889 0.0185275  0.0716438 -0.113219 0.0183902  0.0804062 -0.154783 0.0237398  0.0955538 -0.158721 0.0263994  0.0897331 -0.143917 0.0209153  0.0825447 -0.155182 0.0260279  0.0772814 -0.140186 0.0210655  0.0919791 -0.14437 0.0235617  0.0794022 -0.140613 0.0233567  0.0856218 -0.185755 0.0300002  0.102097 -0.190625 0.0320127  0.0968735 -0.173791 0.0266118  0.0879815 -0.186422 0.0320032  0.0831859 -0.16997 0.0267403  0.0988008 -0.174019 0.029088  0.0853763 -0.170245 0.0288711  0.0895448 -0.218811 0.0360537  0.107511 -0.22269 0.0386972  0.102512 -0.205886 0.0329978  0.0922643 -0.219034 0.0381107  0.0877606 -0.201997 0.0329623  0.105285 -0.206398 0.0353003  0.090418 -0.202468 0.0349414  0.0921504 -0.253877 0.0434654  0.111056 -0.259128 0.045058  0.106821 -0.240114 0.0396943  0.0948989 -0.254914 0.045188  0.0909952 -0.236108 0.0397277  0.109266 -0.240378 0.0418291  0.0937009 -0.236435 0.0415401  0.0936022 -0.290558 0.0503216  0.114039 -0.294354 0.0529726  0.109714 -0.276047 0.0471444  0.0969138 -0.290507 0.052186  0.0930437 -0.27198 0.0469043  0.1129 -0.276618 0.0491018  0.0961764 -0.272493 0.0485859  0.093838 -0.328854 0.058732  0.1148 -0.334405 0.0598977  0.11144 -0.31372 0.0547216  0.0968932 -0.330347 0.060214  0.0938352 -0.309528 0.0546393  0.114454 -0.314107 0.0565233  0.0970395 -0.309961 0.0561519  0.0930803 -0.368359 0.0663216  0.115638 -0.372065 0.0689671  0.111855 -0.352651 0.0630963  0.0969828 -0.367961 0.068017  0.0936091 -0.348419 0.0626414  0.115313 -0.35326 0.064707  0.0971471 -0.34896 0.0640426  0.0912242 -0.409124 0.0755649  0.113923 -0.414839 0.0763452  0.111279 -0.392964 0.0714679  0.0945195 -0.411098 0.0768435  0.0922295 -0.388617 0.0712225  0.114911 -0.393564 0.0729454  0.0959128 -0.389199 0.0724599  0.0885377 -0.45077 0.0838599  0.112855 -0.454402 0.0864563  0.109519 -0.434175 0.0806203  0.0930007 -0.450004 0.0853994  0.0900033 -0.429814 0.0799515  0.113114 -0.434798 0.0818858  0.0938721 -0.430372 0.0810926  0.0848899 -0.493349 0.0937564  0.109047 -0.499085 0.0942299  0.106932 -0.476437 0.089709  0.088382 -0.495767 0.0948596  0.0867543 -0.471987 0.0892451  0.11121 -0.47731 0.0908775  0.0908837 -0.47273 0.0902398  0.0805566 -0.53656 0.102726  0.106272 -0.540146 0.105221  0.103323 -0.51933 0.0994751  0.0855203 -0.535462 0.104111  0.0828078 -0.514883 0.098609  0.10696 -0.519942 0.100408  0.086942 -0.515449 0.0995114  0.075413 -0.580406 0.113114  0.100784 -0.586034 0.113387  0.0990193 -0.56295 0.109204  0.0790927 -0.583161 0.114063  0.0779943 -0.558452 0.108479  0.103924 -0.564105 0.110086  0.0825317 -0.559337 0.109265  0.0697186 -0.62469 0.122712  0.0964744 -0.628258 0.125065  0.0938823 -0.607023 0.119435  0.0750937 -0.623343 0.12394  0.0726078 -0.602534 0.118394  0.0975211 -0.60761 0.120061  0.076956 -0.603111 0.119084  0.06337 -0.669341 0.133464  0.0897195 -0.674795 0.133657  0.0881546 -0.651511 0.129712  0.0672476 -0.672292 0.134275  0.06653 -0.647017 0.12872  0.0936127 -0.652899 0.130351  0.0714238 -0.647996 0.129334  0.0565856 -0.714294 0.143621  0.0840638 -0.717863 0.145819  0.0818019 -0.696343 0.140286  0.0622668 -0.712815 0.14469  0.0599771 -0.691855 0.139106  0.0854695 -0.696902 0.140652  0.0645106 -0.692447 0.139617  0.0492969 -0.759386 0.154643  0.0763903 -0.764644 0.15487  0.0749321 -0.741305 0.151025  0.053391 -0.762363 0.155323  0.0529153 -0.736857 0.149777  0.080822 -0.742838 0.151466  0.0580969 -0.737872 0.150253  0.0416625 -0.804673 0.165268  0.0695906 -0.808269 0.167318  0.0676241 -0.786554 0.161832  0.0475302 -0.803205 0.166166  0.0454464 -0.782107 0.160562  0.0714135 -0.787085 0.162001  0.0501475 -0.782708 0.160921  0.0336559 -0.849917 0.176495  0.0612717 -0.855002 0.17686  0.0598862 -0.831677 0.172946  0.0380113 -0.852721 0.17705  0.0376327 -0.827307 0.171474  0.0660429 -0.833234 0.173239  0.0430284 -0.828293 0.171844  0.0253973 -0.895267 0.18748  0.0534883 -0.898916 0.189392  0.0518587 -0.877066 0.183867  0.0313468 -0.893994 0.188205  0.0294776 -0.872687 0.182578  0.0558672 -0.877574 0.183898  0.0343578 -0.873302 0.182827  0.0169108 -0.940478 0.198849  0.0448298 -0.945406 0.199576  0.0434668 -0.922138 0.19531  0.0215755 -0.942802 0.1993  0.0211289 -0.917857 0.19364  0.0496833 -0.923575 0.195507  0.0266652 -0.918751 0.193925  0.00824046 -0.985664 0.210166  0.0363572 -0.989545 0.211999  0.0349429 -0.967431 0.206179  0.0139735 -0.984874 0.210675  0.0125337 -0.963159 0.205055  0.0394325 -0.967962 0.206253  0.0175397 -0.96377 0.205196  -0.00061202 -1.03067 0.221765  0.0272565 -1.03557 0.222664  0.0261879 -1.0123 0.21818  0.00441003 -1.03238 0.222138  0.00379682 -1.00817 0.216105  0.0322082 -1.01333 0.218354  0.0093205 -1.00877 0.216425  -0.00945663 -1.07572 0.233098  0.0184307 -1.0794 0.235036  0.0174849 -1.05734 0.228923  -0.00354695 -1.0751 0.233629  -0.00501895 -1.0531 0.227755  0.0220728 -1.05787 0.229036  0.000230789 -1.05392 0.227948  -0.0178406 -1.12045 0.24468  0.00966072 -1.12561 0.246689  0.00827742 -1.10215 0.241102  -0.0131571 -1.12191 0.245045  -0.0137632 -1.09817 0.238936  0.0143871 -1.10271 0.241596  -0.00817466 -1.09837 0.239298  -0.0267479 -1.16536 0.255501  0.00342083 -1.17129 0.257983  0.000102282 -1.14711 0.251701  -0.0209615 -1.16509 0.25548  -0.0222192 -1.14306 0.250315  0.00539088 -1.14818 0.252748  -0.0173094 -1.1437 0.250406  -0.0122588 -0.01877 0.000208139  -0.00466585 -0.0110309 0.000982046  0 0 0  -0.00825614 -0.0129906 0.00197434  0 0 0  -0.00540257 -0.00871298 0.000451803  -0.00176376 -0.00419407 0.000870705  0 0 0  -0.00458688 -0.010899 -4.22001e-05  -0.00805198 -0.0128776 0.000375032  -0.00251816 -0.00671374 0.000936747  0 0 0  -0.00170107 -0.00415692 0.000112534  -0.00245285 -0.00663606 7.67708e-05  -0.0269643 -0.0272904 0.00142312  -0.020254 -0.0227181 0.0032239  -0.0216751 -0.0233952 0.00422192  -0.0161892 -0.0195974 0.00176954  -0.0108312 -0.0139785 0.0029161  -0.0198593 -0.0225804 0.000743866  -0.0211039 -0.0233502 0.00163937  -0.0149556 -0.0179839 0.00310731  -0.0104677 -0.013968 0.00104952  -0.014576 -0.0179112 0.000939131  -0.0414668 -0.0383564 0.0031271  -0.0348699 -0.0325525 0.00548697  -0.0352806 -0.0347294 0.00642633  -0.0279376 -0.0316694 0.00357223  -0.0228143 -0.0252378 0.00509548  -0.0340874 -0.0324962 0.00223184  -0.0343282 -0.0347707 0.00339317  -0.0284349 -0.0287187 0.00533247  -0.0220832 -0.0253056 0.0026226  -0.0276713 -0.028729 0.00247097  -0.0563192 -0.0519439 0.00520897  -0.0500709 -0.0447362 0.00765061  -0.0488891 -0.0488858 0.00865388  -0.0395208 -0.0464622 0.00579476  -0.0348365 -0.038565 0.00731182  -0.0489064 -0.0447468 0.00412011  -0.0475958 -0.0489731 0.00553966  -0.0421139 -0.0414157 0.00751972  -0.0337459 -0.0386964 0.00462866  -0.0409851 -0.0414915 0.0044148  -0.0709177 -0.0685496 0.00772119  -0.065157 -0.0598334 0.00989819  -0.0621982 -0.0660618 0.0111222  -0.0508966 -0.0642016 0.00846291  -0.0466391 -0.0548034 0.0097158  -0.0636657 -0.0598703 0.00640845  -0.0606042 -0.0661647 0.00812745  -0.0555866 -0.0570942 0.00984359  -0.04524 -0.0549663 0.00706553  -0.0541406 -0.0571987 0.00677466  -0.0850875 -0.0880665 0.0107293  -0.0798503 -0.0779201 0.0124533  -0.0751471 -0.0861513 0.0140107  -0.0620378 -0.0847934 0.0116544  -0.0581837 -0.0739795 0.01249  -0.0780624 -0.0779615 0.00915909  -0.0732749 -0.0862504 0.0112238  -0.068718 -0.0757516 0.0125039  -0.0564939 -0.0741521 0.00999093  -0.0669837 -0.0758614 0.00960851  -0.0987895 -0.110317 0.0142839  -0.0940577 -0.0988359 0.0154798  -0.0877559 -0.108948 0.0174196  -0.0729758 -0.108078 0.0153861  -0.0694879 -0.0959414 0.0157542  -0.0919981 -0.098872 0.0124388  -0.0856114 -0.109045 0.0148652  -0.0814896 -0.0972196 0.0156474  -0.0675309 -0.0961138 0.0134509  -0.0794839 -0.0973269 0.0129764  -0.112077 -0.135107 0.0183887  -0.10782 -0.122386 0.0190406  -0.100075 -0.134252 0.0213821  -0.0837578 -0.133832 0.0196788  -0.0806155 -0.120487 0.0195601  -0.105483 -0.122419 0.0162683  -0.097662 -0.134344 0.0190639  -0.0939486 -0.121295 0.01933  -0.0783815 -0.120656 0.0174639  -0.0916689 -0.121397 0.016897  -0.125005 -0.162236 0.0230389  -0.121182 -0.148365 0.0231581  -0.112156 -0.161866 0.0258927  -0.0944304 -0.161904 0.0245011  -0.0916023 -0.147425 0.0239196  -0.118586 -0.1484 0.0206444  -0.109478 -0.161965 0.0237985  -0.106139 -0.147776 0.0235679  -0.0891072 -0.147592 0.0220234  -0.103598 -0.14788 0.021364  -0.13764 -0.191537 0.0282207  -0.134221 -0.176592 0.0278296  -0.124044 -0.191616 0.0309501  -0.105029 -0.192071 0.0298605  -0.102499 -0.176563 0.0288208  -0.131356 -0.176637 0.0255644  -0.12111 -0.191718 0.0290692  -0.118121 -0.17648 0.0283549  -0.0997339 -0.176734 0.0271173  -0.115313 -0.176588 0.0263705  -0.150016 -0.222813 0.0339091  -0.146967 -0.20689 0.0330348  -0.135774 -0.223323 0.0365198  -0.115588 -0.224212 0.0357053  -0.113328 -0.207733 0.0342481  -0.143864 -0.206945 0.0309973  -0.132591 -0.223441 0.0348344  -0.129924 -0.20723 0.0336709  -0.110316 -0.207909 0.032721  -0.12687 -0.207348 0.0318899  -0.162177 -0.255928 0.0400822  -0.159482 -0.239087 0.0387504  -0.147371 -0.256828 0.0425899  -0.126112 -0.258097 0.0420444  -0.124115 -0.240756 0.040174  -0.15612 -0.239162 0.0369325  -0.143948 -0.256956 0.0410922  -0.141589 -0.239856 0.0394926  -0.120849 -0.240942 0.0388181  -0.138282 -0.239987 0.0379045  -0.174129 -0.290689 0.0467257  -0.171756 -0.273023 0.0449588  -0.158839 -0.291965 0.0491278  -0.136624 -0.293634 0.0488286  -0.134865 -0.275476 0.0465846  -0.168184 -0.273117 0.0433395  -0.155191 -0.292117 0.0478029  -0.153116 -0.274197 0.0457995  -0.131374 -0.275674 0.0453811  -0.149588 -0.274344 0.04439  -0.185902 -0.326985 0.0538125  -0.183845 -0.308547 0.0516338  -0.170194 -0.328592 0.0561259  -0.147105 -0.330597 0.0560651  -0.145586 -0.311728 0.0534482  -0.180034 -0.308665 0.050209  -0.166332 -0.328758 0.0549657  -0.164532 -0.310098 0.0525718  -0.141863 -0.311944 0.0523963  -0.160771 -0.310264 0.051332  -0.197483 -0.364621 0.0613196  -0.195715 -0.345506 0.0587554  -0.181429 -0.366551 0.0635397  -0.157572 -0.368916 0.0636952  -0.15627 -0.349374 0.0607469  -0.191725 -0.345648 0.0575051  -0.177367 -0.366744 0.0625315  -0.175823 -0.34741 0.0597801  -0.152348 -0.349604 0.0598297  -0.171869 -0.347597 0.058697  -0.208894 -0.403511 0.069231  -0.207411 -0.383758 0.066299  -0.192546 -0.405712 0.0713713  -0.167989 -0.408365 0.0717363  -0.166909 -0.388255 0.0684514  -0.203205 -0.383929 0.0652196  -0.188295 -0.405923 0.0705085  -0.187004 -0.385986 0.0674055  -0.162782 -0.388506 0.0676677  -0.18284 -0.386197 0.0664716  -0.220112 -0.443465 0.0775266  -0.218895 -0.423172 0.0742471  -0.203529 -0.445935 0.0795796  -0.178376 -0.448902 0.0801327  -0.177498 -0.428249 0.0765536  -0.214537 -0.423365 0.0733221  -0.199107 -0.446175 0.0788524  -0.198053 -0.425698 0.0754282  -0.173196 -0.428516 0.0758884  -0.193724 -0.425928 0.0746331  -0.231162 -0.484417 0.086185  -0.230202 -0.463612 0.0825813  -0.214386 -0.487103 0.0881665  -0.188688 -0.490303 0.0888972  -0.188017 -0.469212 0.0850189  -0.225652 -0.463837 0.0818055  -0.209801 -0.487358 0.0875642  -0.208975 -0.466407 0.0838287  -0.183537 -0.469503 0.0844715  -0.204465 -0.466664 0.0831645  -0.24201 -0.526172 0.0951803  -0.241294 -0.50496 0.0912731  -0.225094 -0.529078 0.0970809  -0.198947 -0.53254 0.0979707  -0.198463 -0.511031 0.0938394  -0.236621 -0.505202 0.0906296  -0.220364 -0.529359 0.0965962  -0.219756 -0.507997 0.0925815  -0.193834 -0.511337 0.0933943  -0.215108 -0.50827 0.092037  -0.252685 -0.568693 0.104488  -0.252201 -0.547083 0.100303  -0.235658 -0.571756 0.106325  -0.209102 -0.575404 0.107368  -0.208813 -0.553574 0.102974  -0.247362 -0.547359 0.0997894  -0.23079 -0.572056 0.105947  -0.230396 -0.550335 0.101664  -0.204034 -0.553904 0.102631  -0.22559 -0.550636 0.101232  -0.263155 -0.611791 0.114096  -0.262891 -0.589885 0.109645  -0.246059 -0.615024 0.115855  -0.219181 -0.618883 0.117025  -0.219063 -0.596744 0.112417  -0.257957 -0.590176 0.109245  -0.241073 -0.615349 0.115579  -0.240878 -0.593325 0.111054  -0.21416 -0.597087 0.112162  -0.23596 -0.593641 0.110726  -0.273447 -0.655442 0.123966  -0.273387 -0.633248 0.119282  -0.256304 -0.658787 0.125671  -0.229138 -0.662784 0.126965  -0.229199 -0.640426 0.122135  -0.268317 -0.63357 0.11899  -0.251208 -0.659128 0.125482  -0.251204 -0.636849 0.12073  -0.224173 -0.640792 0.121963  -0.246155 -0.637193 0.120497  -0.283534 -0.699475 0.134085  -0.28367 -0.677082 0.129183  -0.266382 -0.702945 0.135721  -0.238997 -0.707108 0.137114  -0.239211 -0.684536 0.132107  -0.278527 -0.677417 0.128984  -0.26119 -0.703307 0.135614  -0.261363 -0.680825 0.130665  -0.234088 -0.684913 0.13201  -0.256228 -0.681181 0.130515  -0.293453 -0.743886 0.144421  -0.293761 -0.721287 0.139333  -0.276295 -0.747423 0.146012  -0.248723 -0.751681 0.147502  -0.249095 -0.728974 0.14231  -0.288508 -0.721654 0.139221  -0.271023 -0.747802 0.145974  -0.27136 -0.725148 0.140839  -0.243875 -0.729373 0.142279  -0.266121 -0.72553 0.140766  -0.303178 -0.788507 0.154954  -0.303646 -0.765797 0.149693  -0.286037 -0.792131 0.15648  -0.258345 -0.79651 0.158039  -0.258841 -0.773674 0.152721  -0.29835 -0.766174 0.149654  -0.280703 -0.792527 0.156509  -0.281185 -0.769755 0.151222  -0.253555 -0.774082 0.152748  -0.275892 -0.770146 0.151217  -0.312741 -0.833354 0.165649  -0.313352 -0.810511 0.16025  -0.29563 -0.837014 0.167132  -0.267831 -0.841451 0.168763  -0.26846 -0.818548 0.163302  -0.307972 -0.810921 0.160276  -0.290236 -0.837427 0.167211  -0.290851 -0.81455 0.161786  -0.263103 -0.818976 0.16338  -0.285484 -0.81497 0.161836  -0.322146 -0.878292 0.176475  -0.322869 -0.855399 0.170954  -0.305067 -0.881996 0.177909  -0.27721 -0.88652 0.179576  -0.277934 -0.863547 0.174032  -0.317472 -0.855816 0.171037  -0.299629 -0.882423 0.178038  -0.300365 -0.85949 0.172503  -0.27254 -0.863987 0.174154  -0.294958 -0.859922 0.172604  -0.331442 -0.923319 0.187393  -0.332224 -0.900378 0.1818  -0.314342 -0.927048 0.188793  -0.286441 -0.9316 0.190524  -0.287295 -0.908618 0.184872  -0.326806 -0.900823 0.18193  -0.308903 -0.927465 0.188945  -0.309726 -0.90452 0.183342  -0.281848 -0.90907 0.185034  -0.304281 -0.904963 0.183487  -0.340501 -0.968339 0.198405  -0.341412 -0.945408 0.192714  -0.323472 -0.9721 0.19973  -0.295603 -0.976728 0.201467  -0.296517 -0.953696 0.195794  -0.33601 -0.945809 0.192867  -0.318029 -0.972564 0.19993  -0.318925 -0.949582 0.194248  -0.291027 -0.954167 0.195996  -0.313494 -0.950008 0.194429  -0.349538 -1.01346 0.20937  -0.350504 -0.990388 0.203677  -0.332463 -1.01712 0.210656  -0.304662 -1.0217 0.212458  -0.305599 -0.998735 0.206738  -0.344998 -0.990944 0.203883  -0.327055 -1.01761 0.210875  -0.327977 -0.994588 0.205197  -0.300146 -0.999241 0.206953  -0.322547 -0.995124 0.205417  -0.358457 -1.05835 0.22041  -0.359433 -1.03547 0.214626  -0.341483 -1.06207 0.221437  -0.313555 -1.06673 0.223291  -0.314555 -1.04375 0.217636  -0.354057 -1.03593 0.214897  -0.335936 -1.06251 0.221657  -0.336951 -1.03963 0.216112  -0.309156 -1.04422 0.217893  -0.331546 -1.0401 0.21635  -0.367292 -1.10366 0.230986  -0.36824 -1.08035 0.225484  -0.350453 -1.10693 0.23223  -0.322429 -1.11152 0.234205  -0.323478 -1.08866 0.228475  -0.362753 -1.08077 0.225711  -0.344814 -1.10759 0.232671  -0.346001 -1.08444 0.226881  -0.317954 -1.08918 0.228736  -0.340347 -1.085 0.227092  -0.0041746 -0.0060776 0.00160313  0 0 0  -0.00287552 -0.00432642 0.000418901  -0.000957545 -0.00148985 0.000605345  0 0 0  -0.0039959 -0.0060828 0.000455141  -0.00126666 -0.0025758 0.000744104  0 0 0  -0.000902414 -0.00150797 8.79765e-05  -0.00120681 -0.0025709 0.000113487  -0.0128743 -0.0163419 0.00368977  -0.00909697 -0.0140795 0.00178266  -0.00599003 -0.00870769 0.00232053  -0.0123597 -0.0164143 0.00180411  -0.00816925 -0.0108829 0.00264049  -0.00567837 -0.00879173 0.0010314  -0.00783351 -0.0109245 0.0010674  -0.0230057 -0.0289534 0.00589323  -0.0168665 -0.0270749 0.00370932  -0.0135488 -0.0200658 0.00440478  -0.0221288 -0.0291047 0.00367498  -0.017899 -0.022316 0.00478292  -0.0128897 -0.0202337 0.00269198  -0.0172012 -0.022436 0.00269008  -0.0331912 -0.0442265 0.00824618  -0.024945 -0.0428611 0.00608897  -0.0219145 -0.0343731 0.00669193  -0.0319819 -0.044424 0.00597453  -0.028111 -0.0362191 0.00703621  -0.0209062 -0.034608 0.00484109  -0.0270646 -0.036402 0.00476837  -0.0432196 -0.0624304 0.0109141  -0.0329908 -0.0615315 0.0089457  -0.0302957 -0.0515645 0.00926852  -0.0417131 -0.0626571 0.00873876  -0.0382283 -0.0529617 0.00952792  -0.0289732 -0.0518421 0.0074501  -0.0368665 -0.0531825 0.00729275  -0.0530978 -0.0834735 0.01404  -0.0410181 -0.0829818 0.0123236  -0.0386167 -0.0716199 0.0122714  -0.05131 -0.0837006 0.0120211  -0.048172 -0.0726036 0.0124145  -0.0370033 -0.0719154 0.0105655  -0.0465257 -0.0728366 0.0103123  -0.0628898 -0.107186 0.0176959  -0.0490936 -0.10708 0.0162473  -0.046937 -0.0944118 0.0157776  -0.060829 -0.107418 0.0158513  -0.0580007 -0.0950034 0.0157995  -0.0450447 -0.0947133 0.0142121  -0.0560758 -0.0952414 0.013865  -0.0726472 -0.133366 0.021898  -0.0572628 -0.133627 0.0207202  -0.0553323 -0.119756 0.0198321  -0.0703139 -0.133587 0.0202303  -0.0677676 -0.119972 0.0197294  -0.0531656 -0.120054 0.0184128  -0.0655728 -0.120204 0.0179725  -0.0824161 -0.161833 0.0266531  -0.0655761 -0.162457 0.0257311  -0.0638378 -0.147474 0.024431  -0.0798178 -0.162063 0.0251505  -0.0775274 -0.14732 0.0242088  -0.0613964 -0.147771 0.0231547  -0.0750608 -0.147553 0.0226233  -0.0922191 -0.192398 0.0319302  -0.0740376 -0.193379 0.0312564  -0.072493 -0.17737 0.0295665  -0.0893573 -0.192618 0.0305879  -0.0873095 -0.176856 0.0292265  -0.0697918 -0.177664 0.0284255  -0.084582 -0.177087 0.0278049  -0.102077 -0.224895 0.0377235  -0.0826781 -0.226221 0.0372751  -0.0812947 -0.209279 0.0352135  -0.0989687 -0.225133 0.0365262  -0.0971401 -0.208411 0.0347638  -0.0783286 -0.209575 0.0341985  -0.0941523 -0.208648 0.0334942  -0.111993 -0.259143 0.0439918  -0.0914766 -0.260812 0.0437684  -0.0902689 -0.243007 0.0413535  -0.108638 -0.259374 0.0429349  -0.107025 -0.241801 0.0407972  -0.0870662 -0.243305 0.0404565  -0.103797 -0.242041 0.0396707  -0.121973 -0.294995 0.0507369  -0.100449 -0.296977 0.0507097  -0.0993851 -0.278407 0.0479639  -0.118392 -0.29525 0.0498056  -0.116974 -0.276873 0.0473058  -0.0959314 -0.278712 0.0471768  -0.113503 -0.277125 0.046313  -0.131998 -0.332277 0.0579069  -0.10956 -0.334583 0.0580823  -0.10866 -0.315294 0.0550179  -0.128196 -0.33253 0.0571008  -0.126976 -0.313455 0.0542638  -0.105001 -0.315607 0.0543344  -0.12329 -0.313717 0.0533974  -0.14207 -0.370863 0.0655107  -0.118812 -0.373441 0.0658596  -0.118048 -0.353542 0.0624976  -0.138068 -0.371144 0.0648139  -0.137027 -0.351412 0.0616539  -0.114154 -0.35387 0.0619123  -0.133122 -0.351689 0.0609057  -0.152157 -0.410586 0.073488  -0.128168 -0.41346 0.0740213  -0.127563 -0.392977 0.0703788  -0.14796 -0.410869 0.0729034  -0.14711 -0.390579 0.0694449  -0.123496 -0.393314 0.0698831  -0.143016 -0.39087 0.0688078  -0.162265 -0.451341 0.0818636  -0.137622 -0.45444 0.0825453  -0.137146 -0.433488 0.0786397  -0.157894 -0.451655 0.0813727  -0.157208 -0.43084 0.0776246  -0.132866 -0.433844 0.0782318  -0.15292 -0.431148 0.077091  -0.172354 -0.492967 0.0905631  -0.14714 -0.496327 0.0914068  -0.146818 -0.474916 0.0872538  -0.167813 -0.493285 0.0901723  -0.16731 -0.472042 0.0861623  -0.142397 -0.475279 0.0869222  -0.16286 -0.472365 0.0857253  -0.182427 -0.535376 0.0996234  -0.156702 -0.538911 0.10059  -0.15651 -0.51716 0.0962064  -0.177738 -0.535723 0.0993128  -0.177391 -0.51408 0.0950468  -0.151894 -0.517546 0.0959516  -0.172771 -0.514421 0.0947015  -0.192444 -0.57842 0.108957  -0.166292 -0.582179 0.110061  -0.166246 -0.560077 0.105467  -0.187613 -0.578773 0.108732  -0.187442 -0.556815 0.104243  -0.16152 -0.56047 0.105279  -0.182688 -0.557172 0.103981  -0.202413 -0.622029 0.118606  -0.175875 -0.625913 0.11981  -0.175957 -0.603584 0.11502  -0.197458 -0.622404 0.118448  -0.197431 -0.600158 0.113738  -0.171061 -0.603999 0.114897  -0.192535 -0.600532 0.113554  -0.212295 -0.666065 0.128482  -0.185456 -0.670135 0.129806  -0.185673 -0.647556 0.124834  -0.207226 -0.666448 0.128398  -0.207365 -0.643989 0.123503  -0.180695 -0.647973 0.124768  -0.202359 -0.644377 0.123389  -0.222103 -0.710479 0.138627  -0.194983 -0.714635 0.140029  -0.195327 -0.69192 0.134895  -0.216936 -0.710884 0.138597  -0.217205 -0.688229 0.133518  -0.190201 -0.692361 0.134885  -0.212084 -0.688632 0.133468  -0.231802 -0.75515 0.148952  -0.204484 -0.759449 0.150446  -0.204945 -0.736574 0.14517  -0.226549 -0.755559 0.148981  -0.226965 -0.732777 0.143757  -0.199765 -0.737013 0.145204  -0.221761 -0.733193 0.143762  -0.241407 -0.800037 0.159492  -0.213907 -0.804385 0.161045  -0.214478 -0.781451 0.155645  -0.236083 -0.800465 0.159564  -0.23661 -0.777567 0.154191  -0.209182 -0.781912 0.155721  -0.231322 -0.777996 0.154248  -0.250893 -0.845044 0.170161  -0.223276 -0.849498 0.171788  -0.223953 -0.826475 0.166281  -0.24551 -0.845472 0.170277  -0.246164 -0.822519 0.1648  -0.218625 -0.826928 0.166394  -0.240815 -0.822956 0.1649  -0.260279 -0.890138 0.180976  -0.232551 -0.894621 0.182646  -0.23332 -0.871587 0.17705  -0.254853 -0.890591 0.181125  -0.255593 -0.867576 0.175549  -0.227902 -0.872069 0.177202  -0.250191 -0.86803 0.175686  -0.269532 -0.935255 0.19187  -0.241788 -0.939797 0.193593  -0.242617 -0.916739 0.187933  -0.264089 -0.935706 0.192054  -0.264921 -0.91269 0.186414  -0.237195 -0.917202 0.188105  -0.259488 -0.913147 0.186594  -0.278702 -0.980355 0.202825  -0.250905 -0.984884 0.204587  -0.251789 -0.961866 0.19889  -0.273234 -0.980819 0.203042  -0.274118 -0.957787 0.197341  -0.24635 -0.96237 0.199079  -0.268668 -0.958272 0.19754  -0.287744 -1.02539 0.213769  -0.259877 -1.03002 0.215601  -0.260905 -1.00697 0.209868  -0.282246 -1.02583 0.214018  -0.283235 -1.00287 0.208289  -0.255443 -1.00747 0.210098  -0.277772 -1.00334 0.20851  -0.296655 -1.07039 0.224655  -0.268792 -1.07504 0.226528  -0.269818 -1.05198 0.220783  -0.291172 -1.07095 0.224949  -0.292204 -1.04786 0.219232  -0.264288 -1.05253 0.221061  -0.286716 -1.04838 0.219517  -0.305422 -1.11517 0.2354  -0.277539 -1.11986 0.237328  -0.278728 -1.09688 0.231608  -0.299881 -1.11565 0.235709  -0.301041 -1.0928 0.230051  -0.273225 -1.09743 0.231881  -0.295527 -1.09331 0.230371  -0.0021202 -0.00314015 0.00108433  0 0 0  -0.00120626 -0.0025546 0.000273943  -0.000420343 -0.000389725 0.00028348  0 0 0  -0.00196935 -0.00321248 0.000358105  -0.000647806 -0.000794321 0.000451565  0 0 0  -0.000375226 -0.000438541 -2.14577e-06  -0.000598494 -0.000829965 5.10216e-05  -0.00686474 -0.0123166 0.00291228  -0.00399041 -0.0115241 0.00160074  -0.00270236 -0.00634721 0.0015645  -0.00641213 -0.0124791 0.00171375  -0.00424057 -0.00723815 0.00196028  -0.00243455 -0.00650162 0.000853539  -0.0039501 -0.00735873 0.000961304  -0.0129623 -0.025361 0.00508738  -0.00777647 -0.0247455 0.00359869  -0.00638813 -0.0174772 0.00348115  -0.0121621 -0.0256111 0.00367999  -0.00981784 -0.0184568 0.00396943  -0.00579575 -0.0177384 0.00253749  -0.00919279 -0.018671 0.00264001  -0.0194774 -0.0414776 0.00756812  -0.0120604 -0.0412107 0.00612307  -0.0108103 -0.0322712 0.00581527  -0.0183443 -0.0417865 0.0061357  -0.0162015 -0.0330497 0.00628209  -0.00987947 -0.0326129 0.00479841  -0.0152316 -0.0333373 0.0048492  -0.0260946 -0.0604858 0.0104442  -0.0166214 -0.0605593 0.00915837  -0.0155649 -0.0501398 0.00856757  -0.0246568 -0.0608312 0.00908208  -0.0227749 -0.0506221 0.00894833  -0.0143085 -0.050536 0.00757813  -0.0214868 -0.0509573 0.00754404  -0.0328183 -0.0822811 0.013814  -0.0214502 -0.08268 0.0127263  -0.020555 -0.0708594 0.0117993  -0.0310914 -0.0826408 0.0125568  -0.0294393 -0.0710372 0.0120656  -0.0190018 -0.0712821 0.0108759  -0.0278563 -0.0713956 0.0107527  -0.0397149 -0.106709 0.0177171  -0.0265958 -0.107391 0.0168402  -0.0258241 -0.0942873 0.0155566  -0.0377087 -0.107069 0.0165763  -0.0362388 -0.0941716 0.0156977  -0.023977 -0.0947198 0.0147197  -0.0343717 -0.0945371 0.0144968  -0.0468351 -0.133597 0.0221677  -0.0321044 -0.134585 0.0215025  -0.0314295 -0.120261 0.0198603  -0.044553 -0.133958 0.0211418  -0.0432452 -0.11985 0.0198772  -0.0293074 -0.120693 0.0191059  -0.0411018 -0.120214 0.0187914  -0.0542074 -0.162753 0.0271597  -0.0379852 -0.164011 0.0266931  -0.0373975 -0.1486 0.0247056  -0.0516547 -0.163101 0.0262446  -0.0504858 -0.147897 0.0245981  -0.0349938 -0.149027 0.024039  -0.0480672 -0.148257 0.0236268  -0.0618446 -0.194006 0.0326676  -0.0442623 -0.195574 0.032397  -0.0437422 -0.179122 0.0300763  -0.0590324 -0.194362 0.0318539  -0.057992 -0.178121 0.0298526  -0.0410788 -0.179546 0.0294843  -0.0553116 -0.178479 0.0289867  -0.0697465 -0.227157 0.0386779  -0.0509058 -0.228991 0.0385852  -0.0504621 -0.211637 0.0359507  -0.0666782 -0.227498 0.0379646  -0.0657603 -0.210349 0.0356109  -0.0475367 -0.212055 0.0354393  -0.0628184 -0.210703 0.0348473  -0.0779063 -0.262054 0.0451586  -0.0579307 -0.264193 0.0452449  -0.0575451 -0.245971 0.0423079  -0.0746003 -0.262416 0.0445306  -0.0737936 -0.244391 0.0418611  -0.0543746 -0.246393 0.0418589  -0.0706087 -0.24475 0.0411885  -0.0863061 -0.298503 0.052103  -0.0652833 -0.300897 0.0523472  -0.0649759 -0.281939 0.0491273  -0.0827637 -0.298847 0.0515647  -0.0820749 -0.280089 0.0485723  -0.0615673 -0.282357 0.0487502  -0.0786493 -0.280446 0.0479896  -0.0949324 -0.336377 0.0594625  -0.072973 -0.339054 0.0598736  -0.0727216 -0.319387 0.0563793  -0.0911788 -0.336756 0.0589962  -0.0905905 -0.317267 0.0557289  -0.0690869 -0.319818 0.0560579  -0.0869451 -0.317637 0.0552242  -0.103752 -0.375486 0.0672476  -0.0809385 -0.378401 0.0677979  -0.0807667 -0.358145 0.0640535  -0.0997828 -0.375844 0.066864  -0.0993174 -0.355778 0.0632999  -0.0769265 -0.358574 0.0637915  -0.0954554 -0.356153 0.0628769  -0.112751 -0.415731 0.0753987  -0.0891793 -0.418891 0.0760963  -0.0890682 -0.398079 0.0721085  -0.1086 -0.416132 0.0750735  -0.108228 -0.395473 0.0712729  -0.0850207 -0.398526 0.0718985  -0.10417 -0.395864 0.0709167  -0.121889 -0.456926 0.0839331  -0.0976346 -0.460305 0.0847528  -0.097613 -0.439029 0.0805409  -0.117547 -0.457304 0.0836842  -0.117303 -0.436209 0.0796139  -0.0933893 -0.439473 0.0803812  -0.113057 -0.436606 0.0793293  -0.131154 -0.498994 0.0927813  -0.106294 -0.502569 0.093734  -0.10634 -0.480879 0.089309  -0.126655 -0.499422 0.092581  -0.126504 -0.477859 0.0883095  -0.101928 -0.481348 0.0891979  -0.122086 -0.478274 0.0880849  -0.1405 -0.541754 0.101975  -0.115108 -0.545525 0.10303  -0.115252 -0.523485 0.098408  -0.135833 -0.542157 0.101844  -0.135819 -0.520287 0.0973299  -0.110696 -0.523949 0.0983396  -0.131238 -0.520709 0.0971677  -0.149919 -0.585161 0.111434  -0.124058 -0.589076 0.112607  -0.124278 -0.566748 0.1078  -0.145126 -0.585614 0.111342  -0.145198 -0.563386 0.106661  -0.119547 -0.567238 0.107775  -0.140469 -0.563827 0.106551  -0.159367 -0.629038 0.121192  -0.133111 -0.633123 0.12245  -0.133427 -0.610542 0.117478  -0.154429 -0.629464 0.121161  -0.154642 -0.607038 0.116269  -0.12859 -0.611025 0.117486  -0.149781 -0.607485 0.116211  -0.168841 -0.673361 0.13117  -0.14223 -0.677539 0.132524  -0.142627 -0.654783 0.1274  -0.163801 -0.673835 0.131169  -0.164098 -0.651152 0.12614  -0.137637 -0.655289 0.12745  -0.159108 -0.651617 0.126129  -0.178297 -0.717969 0.141399  -0.151409 -0.722289 0.142823  -0.151899 -0.699363 0.137558  -0.173142 -0.718415 0.141453  -0.173573 -0.695625 0.136246  -0.146832 -0.699859 0.137634  -0.168482 -0.696093 0.136277  -0.187738 -0.762854 0.151804  -0.160595 -0.767218 0.153307  -0.161172 -0.744215 0.147922  -0.182508 -0.763337 0.151879  -0.183015 -0.740386 0.146565  -0.155972 -0.744729 0.148033  -0.177821 -0.740865 0.146635  -0.197132 -0.80787 0.162407  -0.169808 -0.812346 0.163962  -0.170467 -0.789242 0.158475  -0.191811 -0.808328 0.162528  -0.192442 -0.785338 0.157074  -0.16522 -0.789748 0.158604  -0.187175 -0.785821 0.157176  -0.206477 -0.85302 0.173132  -0.178989 -0.857506 0.174758  -0.179728 -0.834399 0.169175  -0.201108 -0.853515 0.17327  -0.201806 -0.830434 0.167742  -0.17437 -0.834915 0.169337  -0.196458 -0.830924 0.167877  -0.215755 -0.898194 0.184  -0.188162 -0.90275 0.185658  -0.188962 -0.879611 0.180011  -0.210325 -0.898652 0.184172  -0.211123 -0.875592 0.178544  -0.183601 -0.880115 0.180177  -0.205734 -0.876086 0.1787  -0.224965 -0.943374 0.194921  -0.197271 -0.947973 0.196667  -0.198155 -0.924829 0.190941  -0.219508 -0.943892 0.195106  -0.220364 -0.920787 0.189448  -0.192695 -0.925351 0.191151  -0.214921 -0.921276 0.18963  -0.234061 -0.988513 0.205921  -0.206326 -0.993159 0.207668  -0.207273 -0.970051 0.201943  -0.228545 -0.989016 0.206153  -0.229532 -0.965952 0.200403  -0.201823 -0.970569 0.202154  -0.224053 -0.966476 0.200616  -0.243057 -1.03363 0.216894  -0.215335 -1.03824 0.218757  -0.216309 -1.01516 0.21298  -0.237582 -1.03418 0.217123  -0.23857 -1.01107 0.211404  -0.210815 -1.01572 0.213239  -0.233065 -1.01163 0.211645  -0.251965 -1.07854 0.227822  -0.224152 -1.0832 0.229634  -0.225208 -1.06024 0.22394  -0.24649 -1.07906 0.228101  -0.247509 -1.05611 0.222346  -0.219783 -1.06068 0.224215  -0.242044 -1.0566 0.222583  -0.260838 -1.12339 0.238638  -0.232935 -1.12815 0.240588  -0.234117 -1.10512 0.234847  -0.255361 -1.12402 0.238843  -0.256424 -1.101 0.233198  -0.228511 -1.1057 0.235187  -0.250927 -1.10155 0.233438  -0.000630476 -0.00215507 0.000474691  0 0 0  0.000152916 -0.0023303 5.31673e-05  9.93162e-06 -0.000218928 -7.86781e-05  0 0 0  -0.000503778 -0.00227791 0.000173807  -0.00019313 -0.000207037 0.000107765  0 0 0  4.61414e-05 -0.000298351 -0.000127554  -0.000152405 -0.000270873 -5.93662e-05  -0.00216071 -0.0108867 0.00195551  0.000378311 -0.0112662 0.00127625  4.39584e-05 -0.0060007 0.000684738  -0.0017626 -0.0111366 0.00145459  -0.00129363 -0.00595316 0.0011375  0.000274673 -0.00622854 0.000561714  -0.00104509 -0.00614214 0.000720978  -0.00438362 -0.0240953 0.00405788  0.000354528 -0.0247009 0.00329518  -0.000122756 -0.017197 0.0023737  -0.00365302 -0.0244473 0.00347233  -0.00320357 -0.0170683 0.00294757  0.00041008 -0.017565 0.00220847  -0.00264183 -0.0173802 0.00239491  -0.00709119 -0.0406976 0.00664783  -0.000118554 -0.0415463 0.00593042  -0.000686765 -0.0322899 0.00471616  -0.00602695 -0.0411305 0.00605345  -0.00568563 -0.032021 0.00529146  0.000181139 -0.0327512 0.00453806  -0.00478706 -0.0324198 0.00469589  -0.0101919 -0.060257 0.00973105  -0.00113106 -0.0613329 0.00912571  -0.00175446 -0.0505549 0.00761747  -0.0088107 -0.0607267 0.00917625  -0.00859487 -0.050117 0.00812221  -0.000555217 -0.0510814 0.00745344  -0.00736928 -0.0505768 0.00754833  -0.0137 -0.0826022 0.0133402  -0.00272167 -0.0839008 0.0128765  -0.00336117 -0.0717206 0.0110662  -0.0120228 -0.0831002 0.0128326  -0.0118893 -0.0710889 0.0114634  -0.00184953 -0.0722791 0.0109231  -0.0103588 -0.0715769 0.0109324  -0.0176636 -0.107572 0.017494  -0.00492626 -0.109088 0.0171788  -0.00555819 -0.0955983 0.0150657  -0.0156946 -0.108064 0.0170465  -0.0156243 -0.0947624 0.0153453  -0.00374711 -0.0961647 0.0149498  -0.0138007 -0.0952604 0.0148716  -0.0221041 -0.135011 0.0221889  -0.00774109 -0.136748 0.0220284  -0.00834948 -0.122053 0.0196161  -0.0198605 -0.135512 0.021795  -0.0198204 -0.120996 0.0197713  -0.00625467 -0.122626 0.0195248  -0.0177119 -0.121496 0.0193512  -0.0270411 -0.164724 0.0274215  -0.0111885 -0.166695 0.0274  -0.0117606 -0.150875 0.0247009  -0.0245219 -0.16521 0.0270827  -0.0245125 -0.14959 0.0247378  -0.0093857 -0.151433 0.0246375  -0.022132 -0.150081 0.0243762  -0.0324599 -0.19653 0.0331588  -0.0152248 -0.198723 0.0332887  -0.0157692 -0.181901 0.0303102  -0.0296843 -0.197021 0.0328698  -0.0296884 -0.180381 0.030225  -0.013133 -0.182468 0.0302699  -0.0270368 -0.180872 0.029912  -0.0383599 -0.230237 0.0393934  -0.0198724 -0.232682 0.0396547  -0.0203689 -0.214915 0.0364165  -0.0353296 -0.23072 0.0391498  -0.0353533 -0.213155 0.0362139  -0.01747 -0.215458 0.0363989  -0.0324517 -0.213632 0.0359533  -0.0447022 -0.265665 0.0460846  -0.025048 -0.268321 0.0464869  -0.0255324 -0.249745 0.0430007  -0.0414354 -0.26615 0.0458877  -0.0414755 -0.247753 0.0426803  -0.0223985 -0.250306 0.0430045  -0.0383203 -0.24824 0.0424626  -0.0514805 -0.302641 0.0532315  -0.0307852 -0.30556 0.0537536  -0.0312207 -0.2862 0.050034  -0.0479823 -0.303138 0.0530708  -0.0480419 -0.283971 0.0496044  -0.0278399 -0.286739 0.0500572  -0.0446609 -0.284444 0.0494306  -0.0586374 -0.340998 0.0607865  -0.0369688 -0.344099 0.0614431  -0.0374167 -0.324107 0.0575011  -0.0549223 -0.341487 0.0606737  -0.0550134 -0.321663 0.0569596  -0.0338302 -0.324672 0.0575428  -0.0513967 -0.322157 0.0568254  -0.0661695 -0.380588 0.0687578  -0.0436531 -0.383947 0.0695157  -0.0440527 -0.363317 0.0653734  -0.062253 -0.381109 0.0686669  -0.0623615 -0.360653 0.064728  -0.0402369 -0.363862 0.0654297  -0.058547 -0.361133 0.0646284  -0.0740056 -0.42125 0.07708  -0.0506878 -0.424753 0.0779672  -0.0511339 -0.403648 0.0736268  -0.0698901 -0.421746 0.0770416  -0.0700537 -0.400797 0.0728781  -0.0471417 -0.404223 0.0737031  -0.066025 -0.401306 0.0728171  -0.082145 -0.462865 0.085777  -0.0581493 -0.466612 0.08675  -0.0585513 -0.445002 0.0822375  -0.0778592 -0.463416 0.0857494  -0.0780416 -0.441955 0.0813944  -0.0543475 -0.445561 0.0823274  -0.0738419 -0.442449 0.0813613  -0.0905097 -0.505274 0.0947778  -0.0658677 -0.509123 0.0958712  -0.066349 -0.48718 0.091182  -0.0860412 -0.505781 0.0948074  -0.0863056 -0.483978 0.0902474  -0.0619979 -0.487765 0.0912888  -0.081913 -0.484504 0.0902519  -0.0991042 -0.548392 0.104114  -0.0739348 -0.552461 0.105279  -0.0743773 -0.530129 0.100443  -0.0944972 -0.548972 0.104143  -0.0947802 -0.526762 0.0994227  -0.069834 -0.530706 0.100563  -0.0902441 -0.527274 0.0994496  -0.107852 -0.592064 0.113705  -0.0821698 -0.59619 0.114976  -0.0827224 -0.573652 0.109989  -0.103079 -0.592578 0.113793  -0.103467 -0.570163 0.108888  -0.078058 -0.574244 0.110125  -0.0987589 -0.570703 0.108948  -0.116757 -0.636232 0.123585  -0.0906789 -0.64055 0.124913  -0.0911968 -0.617724 0.119803  -0.111878 -0.636833 0.123662  -0.112284 -0.614101 0.11863  -0.0863631 -0.618317 0.119951  -0.10746 -0.614631 0.118709  -0.12575 -0.680747 0.13367  -0.0992806 -0.685083 0.135095  -0.0999248 -0.662161 0.129854  -0.120724 -0.681264 0.133807  -0.121251 -0.658445 0.128616  -0.0949976 -0.662752 0.130013  -0.11628 -0.658994 0.128723  -0.134836 -0.725578 0.144001  -0.108081 -0.730077 0.145468  -0.108701 -0.70695 0.140128  -0.129733 -0.726191 0.14412  -0.130279 -0.703135 0.138829  -0.103627 -0.707553 0.140301  -0.125217 -0.703677 0.138954  -0.143958 -0.77059 0.154497  -0.116912 -0.775073 0.156042  -0.117671 -0.751944 0.150593  -0.138729 -0.771107 0.154672  -0.139403 -0.748061 0.149242  -0.112522 -0.752526 0.150773  -0.134216 -0.748611 0.149388  -0.153115 -0.815769 0.165182  -0.125885 -0.820374 0.166766  -0.12662 -0.797116 0.161239  -0.147842 -0.816377 0.165337  -0.148527 -0.793166 0.159837  -0.121355 -0.797724 0.161432  -0.14328 -0.793715 0.159999  -0.162267 -0.860996 0.17598  -0.134845 -0.86556 0.177633  -0.135705 -0.842371 0.17202  -0.156897 -0.861501 0.176186  -0.1577 -0.838373 0.170579  -0.130394 -0.84293 0.172217  -0.152361 -0.838912 0.170754  -0.171411 -0.906271 0.186914  -0.143879 -0.910929 0.188606  -0.144726 -0.88767 0.182944  -0.166007 -0.906864 0.187104  -0.166837 -0.883636 0.181456  -0.139331 -0.888261 0.18316  -0.161457 -0.884178 0.18165  -0.180487 -0.951508 0.197937  -0.152883 -0.956096 0.199666  -0.153815 -0.932942 0.193939  -0.175059 -0.952021 0.198175  -0.175962 -0.928879 0.192428  -0.148396 -0.933471 0.19415  -0.170516 -0.929415 0.192652  -0.189558 -0.996693 0.208987  -0.16189 -1.00134 0.210788  -0.162826 -0.978177 0.205022  -0.184125 -0.997259 0.209218  -0.185021 -0.974126 0.203468  -0.157393 -0.978785 0.205262  -0.179612 -0.974671 0.20368  -0.198562 -1.04178 0.220034  -0.170824 -1.04636 0.221892  -0.171813 -1.02335 0.216109  -0.193053 -1.04229 0.220349  -0.194077 -1.01924 0.214523  -0.166373 -1.02384 0.216368  -0.188603 -1.01977 0.21478  -0.207405 -1.08677 0.231015  -0.179629 -1.09158 0.232985  -0.18071 -1.06837 0.227136  -0.201861 -1.08743 0.231312  -0.203009 -1.06429 0.225578  -0.175226 -1.06891 0.227458  -0.197464 -1.0648 0.225909  -0.2161 -1.13162 0.241808  -0.188221 -1.13618 0.243864  -0.189462 -1.11323 0.238075  -0.210516 -1.13217 0.24221  -0.211754 -1.10918 0.236541  -0.183881 -1.11385 0.238435  -0.206166 -1.10979 0.236954  0.000714332 -0.00251573 -0.000197887  0 0 0  0.0015167 -0.00339466 -0.000217676  0.000439987 -0.000796974 -0.000459909  0 0 0  0.0008201 -0.00269955 -7.43866e-05  0.000218533 -0.000410557 -0.00026679  0 0 0  0.000467852 -0.000914335 -0.000276804  0.000249766 -0.000507832 -0.000198841  0.00217366 -0.011535 0.000867605  0.00473404 -0.0130211 0.00083828  0.00277549 -0.00736022 -0.000264645  0.00252682 -0.0118924 0.00106835  0.00138965 -0.00646859 0.000220776  0.00298278 -0.00769556 0.000186682  0.00160567 -0.00674391 0.000388622  0.00367546 -0.0250028 0.00284266  0.00840268 -0.0267722 0.00282097  0.00608915 -0.0189991 0.00114083  0.00434399 -0.0254794 0.00307488  0.00295463 -0.0178435 0.00177073  0.0065777 -0.0194911 0.00173855  0.00346068 -0.018272 0.00199008  0.00474232 -0.0418697 0.00550485  0.0116759 -0.0438338 0.00552225  0.00930586 -0.0343156 0.0034411  0.00575185 -0.0424472 0.00574827  0.00427964 -0.0330591 0.00409985  0.0101177 -0.034932 0.0040853  0.00511596 -0.0335925 0.00433826  0.00515652 -0.0617461 0.0087688  0.01415 -0.0637742 0.00884533  0.0118738 -0.0527724 0.00645232  0.00648683 -0.0623521 0.00901222  0.00503832 -0.051444 0.00706649  0.013034 -0.0534379 0.00709915  0.00621569 -0.0520402 0.00730753  0.00486076 -0.0844352 0.0126042  0.0157469 -0.0866855 0.0127611  0.0135835 -0.0741679 0.0101042  0.00650603 -0.0850898 0.0128436  0.00509751 -0.0727483 0.0106142  0.0150431 -0.0748835 0.0107262  0.00657904 -0.0733823 0.0108573  0.003829 -0.109805 0.0170021  0.0164748 -0.112094 0.0172372  0.0144534 -0.0983532 0.0143161  0.00576329 -0.110433 0.0172424  0.00443882 -0.0967958 0.0147345  0.0162461 -0.0990579 0.0149117  0.00624299 -0.0974323 0.0149708  0.00206828 -0.137652 0.0219445  0.0163006 -0.140253 0.0222733  0.0144275 -0.125138 0.0191252  0.00428903 -0.138318 0.0221734  0.0030371 -0.123432 0.0193975  0.0164689 -0.125861 0.0196917  0.00510097 -0.12408 0.0196393  -0.000420332 -0.167814 0.027422  0.0153344 -0.170426 0.0278223  0.0135959 -0.154354 0.0244272  0.00206721 -0.168435 0.0276566  0.000915408 -0.152462 0.0246139  0.0159618 -0.155052 0.0249648  0.0032928 -0.153091 0.0248458  -0.00361168 -0.200061 0.0334015  0.013461 -0.203058 0.0339043  0.0118957 -0.185759 0.0303049  -0.000862479 -0.200726 0.0336163  -0.00193214 -0.183692 0.0303292  0.0144644 -0.186461 0.0308182  0.000665307 -0.18433 0.0305696  -0.00748134 -0.234228 0.0398765  0.0109171 -0.237202 0.0404308  0.00945103 -0.219199 0.0366132  -0.00448239 -0.234844 0.0401042  -0.00546217 -0.216927 0.0365648  0.0123373 -0.219885 0.0370986  -0.00255537 -0.217542 0.0367942  -0.0119936 -0.270101 0.0467966  0.00747824 -0.273498 0.0474651  0.00619662 -0.254415 0.0434649  -0.00875986 -0.270764 0.0469959  -0.00966108 -0.251964 0.0432453  0.00925291 -0.255091 0.0439329  -0.0065701 -0.252591 0.0434864  -0.0171043 -0.307512 0.0541735  0.00351191 -0.310867 0.0548701  0.0022819 -0.291289 0.0506825  -0.0136404 -0.308138 0.0543942  -0.0144743 -0.288636 0.0504012  0.00564039 -0.291969 0.0511234  -0.011086 -0.289247 0.0506315  -0.0227844 -0.346289 0.0619411  -0.00130808 -0.350059 0.0627618  -0.00235343 -0.329564 0.0584033  -0.0191131 -0.346958 0.0621216  -0.0198755 -0.32674 0.0579538  0.00115299 -0.330219 0.0588331  -0.0163335 -0.327364 0.0581951  -0.0289739 -0.386264 0.070128  -0.00652277 -0.389989 0.0709529  -0.00756514 -0.369155 0.0664477  -0.0250907 -0.386909 0.0703392  -0.0258152 -0.366147 0.0659378  -0.00378191 -0.369832 0.0668483  -0.0219954 -0.366761 0.0661695  -0.0356444 -0.427307 0.0786417  -0.0125113 -0.431389 0.0796032  -0.0133864 -0.40982 0.0749354  -0.0315779 -0.427978 0.0788085  -0.032249 -0.406658 0.074271  -0.00946283 -0.410457 0.075331  -0.0282946 -0.407283 0.0745132  -0.0427237 -0.46924 0.0875375  -0.0187833 -0.473304 0.0884848  -0.0196927 -0.451495 0.0837061  -0.0384688 -0.469908 0.0877428  -0.0391304 -0.448176 0.082979  -0.0155344 -0.452165 0.0840759  -0.03493 -0.448796 0.0832169  -0.0501935 -0.511981 0.0967023  -0.0257094 -0.516305 0.0978  -0.0264885 -0.493965 0.09286  -0.0457764 -0.512652 0.0968611  -0.0464067 -0.490514 0.0919979  -0.0221825 -0.49459 0.0932293  -0.0420816 -0.49114 0.0922434  -0.0579729 -0.555344 0.106219  -0.0328524 -0.559698 0.107281  -0.0336831 -0.537168 0.102269  -0.0533948 -0.556034 0.106421  -0.0540395 -0.533591 0.101338  -0.0291951 -0.537827 0.102613  -0.049509 -0.534218 0.101584  -0.0660546 -0.599295 0.115944  -0.0404954 -0.603791 0.117166  -0.0412474 -0.580935 0.111991  -0.0613317 -0.599959 0.116098  -0.0619695 -0.577251 0.110955  -0.0365984 -0.581552 0.112337  -0.0573189 -0.577877 0.111205  -0.0743577 -0.643641 0.125982  -0.0483243 -0.648216 0.127158  -0.0491269 -0.625196 0.121946  -0.0695021 -0.644338 0.126183  -0.0701711 -0.621414 0.120836  -0.044353 -0.625834 0.122267  -0.0653594 -0.622043 0.121088  -0.0828757 -0.688376 0.136176  -0.0564835 -0.692986 0.137509  -0.0572641 -0.669827 0.132138  -0.0778921 -0.689027 0.136331  -0.0785813 -0.665964 0.130955  -0.0523205 -0.670435 0.132464  -0.0736494 -0.666584 0.131207  -0.0915391 -0.733326 0.146641  -0.0648251 -0.738047 0.147929  -0.0656431 -0.714747 0.142545  -0.0864573 -0.734019 0.146843  -0.0871797 -0.710813 0.141284  -0.060622 -0.715359 0.142846  -0.082134 -0.711436 0.141538  -0.100342 -0.7785 0.157217  -0.0733347 -0.783179 0.158657  -0.0741811 -0.759877 0.153116  -0.0951486 -0.779132 0.157378  -0.0959146 -0.755893 0.151813  -0.0689962 -0.760476 0.153425  -0.0907567 -0.756496 0.152066  -0.109226 -0.823746 0.168015  -0.0820251 -0.828533 0.169414  -0.0828888 -0.805136 0.163888  -0.103962 -0.824412 0.168218  -0.104762 -0.801096 0.162503  -0.0776641 -0.805718 0.164171  -0.0995307 -0.80171 0.162757  -0.11818 -0.869079 0.17888  -0.0907476 -0.873799 0.180418  -0.0916781 -0.850466 0.174736  -0.112829 -0.869691 0.179054  -0.113688 -0.846411 0.173348  -0.0863121 -0.851056 0.17503  -0.108354 -0.846987 0.173602  -0.127164 -0.914394 0.189914  -0.0996554 -0.919157 0.191435  -0.100583 -0.895821 0.18579  -0.121789 -0.915004 0.190118  -0.122656 -0.89172 0.184304  -0.0951905 -0.896369 0.186053  -0.117292 -0.892311 0.184552  -0.136173 -0.959661 0.200963  -0.108481 -0.964419 0.202624  -0.109486 -0.941135 0.196815  -0.130711 -0.960255 0.201156  -0.131658 -0.937038 0.195365  -0.104023 -0.941706 0.197104  -0.126228 -0.937573 0.195601  -0.145136 -1.00487 0.212086  -0.117465 -1.0096 0.21379  -0.118458 -0.986399 0.208042  -0.13963 -1.00548 0.212345  -0.140661 -0.982261 0.206455  -0.112952 -0.986937 0.208322  -0.135178 -0.982881 0.206733  -0.15401 -1.05001 0.223201  -0.126197 -1.0547 0.225012  -0.127336 -1.03156 0.219111  -0.14847 -1.05053 0.223449  -0.149582 -1.02746 0.217613  -0.121857 -1.03211 0.219425  -0.14403 -1.02799 0.217904  -0.162866 -1.095 0.234184  -0.135072 -1.09954 0.236186  -0.136207 -1.07657 0.23036  -0.157382 -1.09558 0.234535  -0.158413 -1.07247 0.228662  -0.130563 -1.0771 0.230691  -0.152907 -1.07303 0.228947  -0.171589 -1.13975 0.245183  -0.143671 -1.14426 0.247002  -0.144909 -1.12148 0.241212  -0.166149 -1.14013 0.245461  -0.167233 -1.11734 0.239692  -0.139484 -1.12195 0.241568  -0.161761 -1.11787 0.239941  0.00220904 -0.00418717 -0.00090456  0 0 0  0.00318903 -0.00596631 -0.00054121  0.000968017 -0.00229758 -0.000832319  0 0 0  0.00230031 -0.00446063 -0.00037384  0.000675626 -0.0014047 -0.000647783  0 0 0  0.000988647 -0.00247037 -0.000433207  0.000701204 -0.00154829 -0.000354052  0.00680831 -0.0141783 -0.000293255  0.00971118 -0.0168738 0.000282288  0.0060041 -0.010573 -0.0012536  0.00712159 -0.0146713 0.000579119  0.0043124 -0.00871146 -0.000748634  0.00618628 -0.0110461 -0.000259638  0.0045016 -0.0091154 -2.36034e-05  0.0120474 -0.0279548 0.00148821  0.0171779 -0.0309098 0.00214911  0.0130148 -0.0228651 -0.000183582  0.0126706 -0.0285816 0.00251055  0.00943983 -0.0206723 0.000481606  0.0134423 -0.0235214 0.00113654  0.00989833 -0.0212374 0.00144553  0.0167803 -0.0449105 0.00417781  0.0239804 -0.0478337 0.00486946  0.0199459 -0.038227 0.00201154  0.0177265 -0.045647 0.00523877  0.0145154 -0.0360463 0.00274324  0.0207355 -0.0390098 0.0034461  0.0153044 -0.0367509 0.00378895  0.0206145 -0.0648749 0.00756693  0.0298362 -0.0678883 0.00827527  0.0259539 -0.056662 0.00510168  0.0219041 -0.0656062 0.00859594  0.0188182 -0.0545183 0.00579023  0.026987 -0.0574897 0.00654125  0.0199276 -0.0552586 0.00683141  0.0234566 -0.0877799 0.0116138  0.0344626 -0.0907526 0.0123503  0.0308946 -0.0781376 0.00890446  0.0250379 -0.0885918 0.0126133  0.022161 -0.0759671 0.00952721  0.0323696 -0.0789995 0.0102825  0.023609 -0.0767667 0.0105307  0.0253211 -0.113388 0.0162158  0.0381091 -0.116562 0.0169961  0.0347071 -0.102488 0.0133452  0.0272307 -0.114104 0.0171494  0.02451 -0.10025 0.0138521  0.0363103 -0.103344 0.0146646  0.0262375 -0.101029 0.0147986  0.0262029 -0.141579 0.0214133  0.0405123 -0.144702 0.0222325  0.0374599 -0.129525 0.0183706  0.028356 -0.142404 0.0223224  0.0258852 -0.127168 0.0187755  0.039578 -0.130385 0.0196028  0.0279343 -0.127974 0.0196755  0.026155 -0.172056 0.0270958  0.0420127 -0.175471 0.0279987  0.0391046 -0.159012 0.0239279  0.0286311 -0.172721 0.0279336  0.0262922 -0.156532 0.0242152  0.0412136 -0.159845 0.0251026  0.0285763 -0.157308 0.0250499  0.0251771 -0.204692 0.0333345  0.0423387 -0.208026 0.0342746  0.039773 -0.190747 0.0300279  0.0278533 -0.205516 0.0341644  0.0257839 -0.188108 0.0302041  0.0424876 -0.19158 0.0311227  0.0283837 -0.188891 0.0310035  0.0233445 -0.239204 0.0400004  0.04182 -0.24289 0.0410607  0.0393844 -0.224486 0.0365779  0.0263418 -0.239821 0.0407562  0.024362 -0.221709 0.0366576  0.0419596 -0.225281 0.0376225  0.0271561 -0.222477 0.0373929  0.0206655 -0.275456 0.0471742  0.0402678 -0.279026 0.0482645  0.038124 -0.260056 0.0436413  0.0238267 -0.276272 0.0479379  0.0221143 -0.25711 0.0436046  0.0413866 -0.260857 0.0446188  0.025224 -0.257863 0.0443177  0.0172225 -0.313216 0.0547316  0.0378996 -0.317169 0.05597  0.0358819 -0.297218 0.0510736  0.0206929 -0.313808 0.0554171  0.0190301 -0.294138 0.0509746  0.0389148 -0.297971 0.0520039  0.0222962 -0.2949 0.0516253  0.0130376 -0.35233 0.0627382  0.0347024 -0.356142 0.0639906  0.0329019 -0.33584 0.0589955  0.0166475 -0.353127 0.0634408  0.0152296 -0.332594 0.0587797  0.0366499 -0.336604 0.0598731  0.0188042 -0.333316 0.059417  0.00818574 -0.392638 0.0710948  0.0306897 -0.39683 0.0725152  0.0290252 -0.375689 0.067215  0.0120783 -0.39323 0.0717168  0.0106806 -0.372323 0.0669675  0.0325154 -0.376392 0.068043  0.0143831 -0.373075 0.0675461  0.00271583 -0.433953 0.0798252  0.0260868 -0.437988 0.0812447  0.0245544 -0.416669 0.0758936  0.00673985 -0.434712 0.0804701  0.0055387 -0.413155 0.0755255  0.0287148 -0.417385 0.0766811  0.00953281 -0.413843 0.0760982  -0.00332284 -0.476192 0.0888894  0.0206683 -0.480581 0.0904849  0.0192833 -0.458555 0.0848114  0.000938177 -0.476808 0.0894556  -0.000252962 -0.454943 0.0844328  0.0232246 -0.459209 0.085547  0.00385118 -0.455677 0.0849531  -0.00984859 -0.519132 0.0982444  0.0148993 -0.523362 0.0998266  0.0135627 -0.501295 0.094146  -0.00544739 -0.519834 0.0988333  -0.00651026 -0.497557 0.0936477  0.0180631 -0.501955 0.0948491  -0.00214601 -0.49821 0.0941641  -0.0168483 -0.56277 0.107929  0.00832844 -0.567309 0.109666  0.00714517 -0.544664 0.103681  -0.0122712 -0.563421 0.108439  -0.013314 -0.540851 0.103174  0.0115201 -0.54527 0.104331  -0.00884652 -0.541556 0.103645  -0.0242109 -0.606846 0.117811  0.00160789 -0.611228 0.119528  0.00041008 -0.588647 0.11357  -0.0194771 -0.60748 0.118342  -0.0204656 -0.584732 0.112953  0.00518608 -0.589244 0.114188  -0.0157831 -0.585353 0.113417  -0.0319512 -0.651423 0.128012  -0.00585771 -0.656065 0.129863  -0.0069139 -0.633025 0.123639  -0.0271096 -0.652107 0.128469  -0.0280623 -0.629061 0.123002  -0.00214744 -0.633585 0.124211  -0.0232763 -0.629724 0.123433  -0.0399446 -0.696226 0.13833  -0.0133274 -0.700714 0.14015  -0.0144327 -0.677816 0.133986  -0.034929 -0.696794 0.138803  -0.0358942 -0.673774 0.133253  -0.00943899 -0.678355 0.134522  -0.0309474 -0.674367 0.133669  -0.0482302 -0.741359 0.148955  -0.0214491 -0.746054 0.150879  -0.0224414 -0.72281 0.144505  -0.0431614 -0.742056 0.149361  -0.0440831 -0.718744 0.143731  -0.0173469 -0.723323 0.145005  -0.0390222 -0.719357 0.144124  -0.0566642 -0.786552 0.159627  -0.0294831 -0.791104 0.161513  -0.0305386 -0.768045 0.15522  -0.0514293 -0.78707 0.160049  -0.0524046 -0.763921 0.154365  -0.0253675 -0.768542 0.155679  -0.0472417 -0.764495 0.154736  -0.0653093 -0.831932 0.170571  -0.0380554 -0.836635 0.172542  -0.0390317 -0.813335 0.166112  -0.0600731 -0.83261 0.17093  -0.0609908 -0.809219 0.16518  -0.0336864 -0.813805 0.166549  -0.0557237 -0.809773 0.165539  -0.0740294 -0.87725 0.181525  -0.0464787 -0.881837 0.18343  -0.0475271 -0.858723 0.177098  -0.0686567 -0.877739 0.181895  -0.0696352 -0.854564 0.17611  -0.0422139 -0.859218 0.177492  -0.0643282 -0.855129 0.176434  -0.082901 -0.922635 0.192676  -0.0553668 -0.927303 0.194655  -0.0563395 -0.904074 0.188293  -0.0775306 -0.923266 0.193005  -0.0784798 -0.899951 0.187176  -0.0508208 -0.904481 0.188665  -0.0730677 -0.900427 0.187508  -0.0917416 -0.96789 0.203855  -0.0640538 -0.972465 0.205747  -0.0650654 -0.949402 0.199461  -0.0862954 -0.968403 0.204195  -0.0873008 -0.945239 0.198314  -0.0596864 -0.94989 0.199791  -0.0818841 -0.945808 0.198632  -0.100683 -1.0131 0.215103  -0.072968 -1.01771 0.217068  -0.0739999 -0.994593 0.210818  -0.0952644 -1.01364 0.215446  -0.0962288 -0.990516 0.209524  -0.06846 -0.994998 0.211174  -0.0907576 -0.990958 0.209844  -0.109567 -1.05822 0.226326  -0.0816464 -1.06278 0.228273  -0.0828109 -1.03976 0.222089  -0.104054 -1.05873 0.226684  -0.105106 -1.03563 0.220773  -0.0773227 -1.04038 0.222455  -0.0996871 -1.03623 0.221084  -0.118324 -1.10319 0.237514  -0.090569 -1.10776 0.23945  -0.0916879 -1.08475 0.233359  -0.112807 -1.1036 0.237882  -0.113975 -1.08065 0.231979  -0.0860395 -1.08506 0.233711  -0.108397 -1.08106 0.232385  -0.12688 -1.14806 0.248373  -0.0988226 -1.15294 0.250388  -0.100331 -1.12968 0.244527  -0.121222 -1.14854 0.248774  -0.122557 -1.12559 0.242991  -0.0947733 -1.13032 0.244875  -0.117087 -1.12608 0.243433  0.00425018 -0.00767606 -0.00163913  0 0 0  0.00570692 -0.0109771 -0.000956774  0.0017191 -0.00533599 -0.00125027  0 0 0  0.00435118 -0.00807554 -0.000730515  0.00128753 -0.00356704 -0.00102592  0 0 0  0.00174942 -0.00559813 -0.000651121  0.0013143 -0.00377798 -0.000526905  0.0125277 -0.0190505 -0.00154924  0.0163852 -0.0230548 -0.000437975  0.010622 -0.0162069 -0.00236917  0.0128245 -0.0196678 -4.05312e-05  0.00813027 -0.0130389 -0.00177407  0.010852 -0.0168324 -0.000868559  0.00832687 -0.0135843 -0.000530243  0.0214755 -0.0328605 -1.23978e-05  0.02738 -0.0369314 0.00128937  0.021528 -0.0287769 -0.00172925  0.0220793 -0.0337251 0.00175023  0.0170631 -0.0255832 -0.000915527  0.0219534 -0.0296378 0.000266314  0.0174849 -0.0263424 0.000751257  0.0296546 -0.049615 0.00261736  0.0374797 -0.0532905 0.00397348  0.0317912 -0.0438165 0.000302076  0.0305676 -0.0503727 0.00447965  0.0256889 -0.0408327 0.00121117  0.0325902 -0.0447456 0.00249338  0.0264743 -0.0416872 0.00302601  0.0367355 -0.0695763 0.00610971  0.0463828 -0.0735548 0.00749946  0.0410243 -0.062088 0.00339794  0.0379689 -0.0705687 0.00790048  0.0333437 -0.059192 0.00431681  0.0420375 -0.0630963 0.00558138  0.0343717 -0.0601184 0.00613284  0.0426224 -0.0925134 0.0103366  0.0541378 -0.096052 0.0116875  0.0490331 -0.0835398 0.00734043  0.0441926 -0.0932035 0.0120943  0.0398306 -0.0806676 0.00819397  0.0504426 -0.0845044 0.00946379  0.0412695 -0.0815732 0.00994229  0.0472993 -0.118358 0.0151074  0.060388 -0.122332 0.0165527  0.0557378 -0.108 0.011976  0.0491276 -0.119358 0.0167422  0.0451102 -0.105074 0.0127451  0.0573893 -0.109028 0.0139556  0.0467482 -0.106031 0.0143907  0.0508045 -0.146712 0.0206013  0.0656035 -0.150316 0.0219483  0.0611731 -0.1352 0.0172343  0.0529932 -0.147278 0.0221837  0.0492006 -0.132206 0.0178802  0.0631037 -0.136121 0.0191214  0.0512336 -0.133081 0.0194349  0.0531402 -0.177531 0.0263922  0.06925 -0.181473 0.0279405  0.0653025 -0.164917 0.0230672  0.05551 -0.178475 0.0278723  0.0521117 -0.161811 0.0235837  0.0675999 -0.165934 0.0247889  0.0543271 -0.162753 0.0250182  0.0543817 -0.210376 0.0330346  0.0719966 -0.214223 0.0343966  0.068239 -0.196879 0.0294147  0.0571476 -0.210838 0.0344412  0.0539019 -0.193672 0.0297887  0.0705849 -0.197725 0.0310488  0.0564549 -0.194488 0.0311463  0.0545402 -0.245252 0.0396869  0.0732839 -0.249062 0.0413742  0.0699427 -0.230889 0.0362895  0.0574179 -0.246092 0.041045  0.0545861 -0.227552 0.0364997  0.0729088 -0.231888 0.0377707  0.0573678 -0.228464 0.0377376  0.0536991 -0.281726 0.0473988  0.0736644 -0.285978 0.0487704  0.0705659 -0.266701 0.0435944  0.0569923 -0.282148 0.0486302  0.0542492 -0.263251 0.0436594  0.0732273 -0.267443 0.0449796  0.0572549 -0.263994 0.0448329  0.0518955 -0.319822 0.0547903  0.0729316 -0.323397 0.056623  0.0700601 -0.304133 0.051393  0.0552592 -0.320516 0.056051  0.0529057 -0.300559 0.0512609  0.0737134 -0.30511 0.0526614  0.0562524 -0.301431 0.0523229  0.0491972 -0.359162 0.0634713  0.0710646 -0.363946 0.0648448  0.0685991 -0.342981 0.0595388  0.052951 -0.359621 0.0645223  0.0506616 -0.339294 0.0592666  0.0715057 -0.343596 0.0606811  0.0540558 -0.339956 0.0602679  0.045681 -0.399743 0.0715172  0.0686898 -0.403009 0.073467  0.066147 -0.383073 0.0681484  0.0495086 -0.400257 0.0726881  0.0475315 -0.379282 0.0676541  0.0704788 -0.384017 0.0692329  0.051433 -0.380099 0.0685632  0.0413733 -0.441275 0.0810473  0.0647337 -0.446659 0.0824103  0.0628567 -0.424249 0.0770333  0.0455098 -0.441845 0.0819099  0.043625 -0.420353 0.0764105  0.0659716 -0.424714 0.0779443  0.0473517 -0.420921 0.0772514  0.0364058 -0.483704 0.0896823  0.0610807 -0.48666 0.0917149  0.0587449 -0.46634 0.0863397  0.0406716 -0.484034 0.0907612  0.0389676 -0.462364 0.0854881  0.0637114 -0.467245 0.0872631  0.0433939 -0.463119 0.0862651  0.030751 -0.526854 0.0999186  0.0552466 -0.532821 0.101263  0.0538926 -0.50923 0.0958622  0.0351925 -0.527579 0.100593  0.0336554 -0.505167 0.0948956  0.0572116 -0.509539 0.0965607  0.0376725 -0.505639 0.0955889  0.0245955 -0.570598 0.109091  0.0506244 -0.5733 0.111158  0.0484061 -0.552765 0.105737  0.0292606 -0.570759 0.110066  0.0277402 -0.548644 0.10457  0.0539234 -0.553628 0.106521  0.0326357 -0.549336 0.105234  0.0178461 -0.614868 0.119884  0.0431995 -0.621306 0.121205  0.0422726 -0.596848 0.115808  0.0225294 -0.615748 0.12038  0.0212767 -0.592664 0.114535  0.0458138 -0.597008 0.116322  0.0255554 -0.59304 0.115092  0.0107541 -0.659476 0.129538  0.0378308 -0.662025 0.131606  0.0356803 -0.641347 0.126144  0.0157685 -0.659508 0.130403  0.0143564 -0.637126 0.124715  0.0416338 -0.642173 0.126801  0.0196457 -0.63776 0.125283  0.00316381 -0.704448 0.140742  0.0291562 -0.711169 0.142054  0.0285385 -0.686184 0.136658  0.00803518 -0.705441 0.141084  0.00699472 -0.681931 0.135135  0.0323279 -0.686226 0.137024  0.0115128 -0.682227 0.135578  -0.00463939 -0.749554 0.150825  0.0231857 -0.752089 0.152878  0.0210845 -0.731257 0.147356  0.000658035 -0.74951 0.151578  -0.000689983 -0.726986 0.145737  0.027343 -0.732055 0.147902  0.00489235 -0.727565 0.146223  -0.0128503 -0.794884 0.162316  0.013628 -0.801637 0.16365  0.0131879 -0.776494 0.15823  -0.00782776 -0.795912 0.162543  -0.00872469 -0.772217 0.156531  0.0172622 -0.776466 0.158485  -0.00398755 -0.772462 0.156877  -0.0211613 -0.840186 0.172767  0.00711846 -0.842893 0.174788  0.00509953 -0.821822 0.169203  -0.0156612 -0.84015 0.173408  -0.016968 -0.817539 0.16747  0.011497 -0.822595 0.169648  -0.0112033 -0.818073 0.167884  -0.0297937 -0.885613 0.184421  -0.00293541 -0.89209 0.185814  -0.00333214 -0.867182 0.180329  -0.0246511 -0.88657 0.184581  -0.0254693 -0.862916 0.178535  0.00106335 -0.867151 0.18051  -0.0205319 -0.863166 0.178802  -0.0384371 -0.930887 0.195185  -0.00996351 -0.934022 0.197166  -0.0118582 -0.912503 0.191511  -0.0328314 -0.930947 0.195714  -0.0340872 -0.908262 0.189726  -0.00550342 -0.913247 0.191895  -0.0282667 -0.908733 0.190083  -0.0473161 -0.976218 0.206863  -0.0201178 -0.982018 0.208481  -0.0206349 -0.957829 0.202809  -0.0420609 -0.976965 0.207059  -0.0428848 -0.9536 0.200981  -0.0158272 -0.95784 0.202986  -0.0377576 -0.953876 0.20119  -0.0561097 -1.02131 0.217847  -0.0277293 -1.02502 0.219892  -0.0293465 -1.00295 0.214056  -0.0504138 -1.0216 0.218323  -0.0516934 -0.998731 0.212322  -0.0233176 -1.00368 0.21436  -0.0459228 -0.999227 0.212661  -0.0649664 -1.06646 0.229444  -0.0374367 -1.07158 0.231301  -0.03827 -1.04807 0.225433  -0.0595253 -1.06697 0.229765  -0.0605602 -1.04391 0.223634  -0.0330844 -1.04823 0.225724  -0.0551803 -1.04438 0.223928  -0.0737283 -1.11142 0.240502  -0.0453839 -1.11559 0.242892  -0.0470881 -1.09297 0.236671  -0.0680664 -1.11181 0.24092  -0.069303 -1.0889 0.234914  -0.0411019 -1.09371 0.237014  -0.0635819 -1.08923 0.235236  -0.0824859 -1.15618 0.251649  -0.0551896 -1.16103 0.253427  -0.055634 -1.13799 0.248123  -0.0771253 -1.15702 0.251979  -0.0781245 -1.13381 0.245895  -0.0503302 -1.13829 0.248493  -0.0726824 -1.13444 0.246161  0.00784788 -0.0145587 -0.00254917  0 0 0  0.0113143 -0.0205748 -0.00168562  0.00386178 -0.0117703 -0.00190639  0 0 0  0.00798526 -0.0151352 -0.00127316  0.00234235 -0.00785267 -0.0014708  0 0 0  0.00394412 -0.0121948 -0.00110435  0.00238506 -0.00818217 -0.00079155  0.0203271 -0.0261608 -0.00303888  0.0257362 -0.0309482 -0.00158644  0.0185661 -0.0245777 -0.00385618  0.020717 -0.0269245 -0.000954628  0.0141978 -0.0201263 -0.00304198  0.0188745 -0.0254219 -0.00187302  0.0144461 -0.0208478 -0.00129747  0.0324132 -0.0393694 -0.00180268  0.03907 -0.0441208 -5.96046e-06  0.0318189 -0.0361916 -0.0035727  0.032995 -0.0404189 0.000685692  0.0264063 -0.0323531 -0.00262165  0.0324215 -0.037218 -0.000962019  0.0269201 -0.0333118 -0.000313282  0.0437648 -0.0558465 0.00080514  0.0523094 -0.0605234 0.00266838  0.0450712 -0.0508243 -0.0017302  0.0446926 -0.0567074 0.00336099  0.0382321 -0.0471511 -0.000659704  0.0456607 -0.0519238 0.00115037  0.0389218 -0.0481489 0.00188208  0.0539387 -0.0756655 0.00441766  0.0641778 -0.0800536 0.00629377  0.0573744 -0.0689183 0.00153017  0.055095 -0.0767404 0.00696182  0.0490102 -0.06533 0.00247455  0.0585698 -0.0700876 0.00438023  0.0501171 -0.0664254 0.00500679  0.0627574 -0.0986622 0.00885773  0.0748507 -0.103359 0.0106761  0.0683724 -0.0902969 0.00556207  0.0642995 -0.0995089 0.0112071  0.0585352 -0.0867476 0.00650454  0.0694237 -0.0913993 0.00833273  0.0597732 -0.0877566 0.00895572  0.070206 -0.124575 0.0139525  0.0839038 -0.12873 0.0156453  0.0779229 -0.114865 0.0105414  0.071973 -0.125475 0.0162408  0.0666507 -0.11126 0.0112801  0.0797888 -0.116052 0.0131092  0.0683943 -0.112363 0.0135815  0.0762413 -0.153152 0.0196831  0.0914668 -0.158103 0.0213721  0.0859673 -0.142146 0.0159733  0.0783354 -0.154053 0.0216815  0.073418 -0.13851 0.0166693  0.0875078 -0.143171 0.0184069  0.0751865 -0.139465 0.0188322  0.0809557 -0.184104 0.0259368  0.0977387 -0.188097 0.0273552  0.0925575 -0.172089 0.0221679  0.0833446 -0.184676 0.0279231  0.0787557 -0.168338 0.0226808  0.0950261 -0.173246 0.0243788  0.0810907 -0.1694 0.0246882  0.0843234 -0.217238 0.0327377  0.102173 -0.222596 0.0342884  0.0976884 -0.204193 0.028743  0.0868716 -0.218332 0.0343685  0.0828284 -0.200385 0.0291662  0.099761 -0.205114 0.0308299  0.0851032 -0.201273 0.031028  0.0864799 -0.252254 0.0399864  0.105953 -0.256153 0.0410786  0.101477 -0.238466 0.0359137  0.0895147 -0.252363 0.0416744  0.0855407 -0.234521 0.036226  0.104427 -0.239524 0.0377936  0.0884049 -0.2355 0.0379591  0.0873986 -0.289034 0.0477176  0.107401 -0.294866 0.0491226  0.103906 -0.274431 0.043504  0.0902987 -0.290463 0.048991  0.0871141 -0.270429 0.0436614  0.106585 -0.275248 0.0452871  0.0898925 -0.271252 0.0452485  0.0872371 -0.327252 0.0558255  0.109005 -0.331163 0.0565724  0.105145 -0.312112 0.0514841  0.0909362 -0.326822 0.0572269  0.0874366 -0.307975 0.0516298  0.108433 -0.312995 0.0530832  0.0907623 -0.30883 0.0531206  0.0859714 -0.366876 0.0643649  0.107717 -0.373155 0.0656316  0.105128 -0.351108 0.0599871  0.0891316 -0.36874 0.065309  0.0867562 -0.346925 0.0598991  0.108514 -0.351843 0.061517  0.0900493 -0.347695 0.0612419  0.083763 -0.407555 0.073204  0.107415 -0.411593 0.0736463  0.10411 -0.391393 0.0686474  0.0881145 -0.406577 0.0743399  0.0849645 -0.387098 0.068644  0.107587 -0.392026 0.0700185  0.0886778 -0.387795 0.0699205  0.0806017 -0.449326 0.0824554  0.103772 -0.455946 0.0836082  0.101944 -0.432696 0.077945  0.0839655 -0.451658 0.0831122  0.0823057 -0.428374 0.077647  0.106113 -0.433393 0.079284  0.0861256 -0.429103 0.078783  0.0766416 -0.49183 0.0919111  0.101761 -0.496098 0.0921252  0.0989759 -0.474916 0.0872042  0.0815883 -0.490379 0.092803  0.0786982 -0.470507 0.0870488  0.102523 -0.475251 0.0883877  0.0827289 -0.471035 0.0881317  0.0718772 -0.535158 0.101771  0.0962293 -0.54197 0.102848  0.0949759 -0.517898 0.0971501  0.0754213 -0.537909 0.102189  0.0743523 -0.513487 0.0966866  0.0999429 -0.518606 0.0983484  0.0786905 -0.514188 0.0976484  0.0664635 -0.578953 0.111727  0.0926621 -0.583498 0.111815  0.0903614 -0.561498 0.106947  0.0719078 -0.577161 0.112408  0.0692267 -0.557028 0.106626  0.0939183 -0.56154 0.107976  0.0735118 -0.557405 0.107533  0.0603895 -0.623336 0.122101  0.0857289 -0.630178 0.123152  0.0848525 -0.605634 0.117396  0.0641246 -0.626382 0.122334  0.0634909 -0.601184 0.116798  0.0905519 -0.606375 0.118491  0.0683124 -0.601856 0.117616  0.0538087 -0.66797 0.132468  0.0807467 -0.672766 0.13253  0.078887 -0.650146 0.12768  0.0596297 -0.665999 0.132973  0.0571365 -0.64566 0.12718  0.0824547 -0.649943 0.128567  0.0616329 -0.64593 0.127924  0.0466993 -0.712991 0.143258  0.0728598 -0.719728 0.144333  0.0721753 -0.694991 0.138493  0.0506585 -0.716163 0.143361  0.0502944 -0.690545 0.137784  0.078465 -0.695763 0.139498  0.0555344 -0.691181 0.138482  0.0392189 -0.758098 0.153956  0.066623 -0.763061 0.154085  0.0651348 -0.740044 0.149217  0.0452816 -0.756129 0.154323  0.0429778 -0.735585 0.14852  0.0687857 -0.73968 0.149974  0.0476649 -0.735799 0.149118  0.0313265 -0.803426 0.165075  0.0581489 -0.809943 0.166209  0.0575089 -0.785241 0.16028  0.0355563 -0.806508 0.165097  0.035296 -0.780837 0.159472  0.0641787 -0.786016 0.161187  0.0408597 -0.78142 0.160067  0.0231848 -0.848709 0.17603  0.0508332 -0.853713 0.176308  0.0496545 -0.830537 0.171389  0.0293398 -0.846945 0.176294  0.0272598 -0.826133 0.17048  0.053494 -0.830119 0.172015  0.0321293 -0.826351 0.170945  0.0147469 -0.894094 0.187356  0.0420811 -0.900272 0.188594  0.041348 -0.875819 0.182581  0.0192938 -0.896813 0.187356  0.0189691 -0.871483 0.181682  0.0481396 -0.876536 0.183357  0.0247359 -0.87198 0.182184  0.00614023 -0.939323 0.198513  0.0338507 -0.944223 0.199069  0.0329492 -0.921075 0.194052  0.0122137 -0.938043 0.198699  0.0104511 -0.916763 0.192878  0.0371089 -0.920758 0.194552  0.0154994 -0.917056 0.193231  -0.00262547 -0.984545 0.209983  0.025084 -0.990252 0.21137  0.0241354 -0.966267 0.205257  0.00233626 -0.986581 0.210041  0.00173068 -0.962044 0.204256  0.0307393 -0.966833 0.205829  0.00758672 -0.962382 0.20471  -0.0114813 -1.02967 0.221255  0.0163693 -1.03411 0.222245  0.0154443 -1.01137 0.217011  -0.00554299 -1.02889 0.221522  -0.00705147 -1.00714 0.215534  0.0200992 -1.01139 0.217465  -0.00180459 -1.00766 0.2158  -0.020309 -1.0746 0.232719  0.00750375 -1.07999 0.23439  0.00642657 -1.05622 0.228172  -0.0151217 -1.07604 0.232878  -0.015902 -1.05218 0.226978  0.0126438 -1.05668 0.228657  -0.0101626 -1.05239 0.227417  -0.0291145 -1.11948 0.243766  -0.00123286 -1.12362 0.245029  -0.0022397 -1.10121 0.239944  -0.023237 -1.11937 0.244138  -0.0247328 -1.09708 0.238226  0.00275564 -1.10165 0.240453  -0.0193212 -1.09786 0.238552  -0.0377727 -1.16442 0.254622  -0.0110459 -1.16799 0.256581  -0.0111015 -1.14589 0.251344  -0.0325565 -1.16493 0.255139  -0.0334735 -1.14189 0.249314  -0.00561309 -1.14572 0.251513  -0.0277572 -1.14203 0.249899  -0.0126467 -0.0188348 0.00409102  -0.00474972 -0.0107715 0.00340271  0 0 0  -0.00870729 -0.0125483 0.0056901  0 0 0  -0.00580447 -0.00861432 0.00332975  -0.00191621 -0.00397781 0.00268316  0 0 0  -0.0046991 -0.0109401 0.00211287  -0.00845794 -0.012868 0.00372934  -0.00266464 -0.00650492 0.00297213  0 0 0  -0.00181912 -0.00412984 0.00171423  -0.00257323 -0.0066512 0.00188684  -0.028127 -0.0270523 0.00753188  -0.020972 -0.0219227 0.00889874  -0.0229571 -0.0223251 0.0100613  -0.0173518 -0.0192207 0.00641465  -0.0117177 -0.0131886 0.0072279  -0.0206064 -0.0224578 0.00592113  -0.0222837 -0.0230447 0.00701022  -0.0158 -0.0172008 0.0080781  -0.0112341 -0.0137244 0.00495696  -0.0153498 -0.017738 0.00546813  -0.0434625 -0.0379056 0.0102119  -0.0365343 -0.0312743 0.0126929  -0.0373617 -0.0333179 0.0130277  -0.0298512 -0.0310671 0.00897598  -0.0245184 -0.0239816 0.0106049  -0.0356757 -0.0321251 0.00895548  -0.0362926 -0.0342376 0.0096283  -0.0301448 -0.0274487 0.0116763  -0.0236352 -0.0248034 0.00774384  -0.0292567 -0.0282918 0.0083859  -0.0590191 -0.051428 0.0124187  -0.0525161 -0.0432986 0.0151873  -0.0515524 -0.0474001 0.0152192  -0.0420581 -0.045759 0.0112784  -0.0371692 -0.037087 0.0130711  -0.0512757 -0.044256 0.0113342  -0.0502161 -0.0483579 0.0118825  -0.0445131 -0.039955 0.0141587  -0.0359878 -0.0380336 0.0101256  -0.0432959 -0.0409085 0.0107651  -0.0742026 -0.0680496 0.0146227  -0.068168 -0.0584306 0.0171843  -0.0653248 -0.0646338 0.0173483  -0.0539755 -0.0634722 0.0137162  -0.0494475 -0.0532838 0.0152826  -0.066668 -0.0593619 0.0134909  -0.0637795 -0.065546 0.0141997  -0.0584882 -0.0556345 0.016263  -0.0480534 -0.0542454 0.0124595  -0.0570463 -0.0565791 0.0130095  -0.0889086 -0.0876148 0.0171514  -0.0833409 -0.0766332 0.0192704  -0.0787354 -0.0848234 0.0197916  -0.0656351 -0.0840889 0.0165272  -0.0614287 -0.0725097 0.0177031  -0.0816187 -0.0774862 0.0158255  -0.0769747 -0.0856682 0.01687  -0.0720718 -0.0743759 0.0185161  -0.059834 -0.0734343 0.0150657  -0.0704225 -0.0752613 0.0154767  -0.10314 -0.109909 0.0201683  -0.0980375 -0.0976723 0.0217643  -0.0918273 -0.107729 0.0227222  -0.0770967 -0.107396 0.0198593  -0.0732082 -0.0945543 0.0205617  -0.0960826 -0.0984425 0.0185912  -0.0898345 -0.108498 0.0200419  -0.0853193 -0.0959481 0.0211916  -0.071388 -0.0954221 0.0181289  -0.0834447 -0.0967634 0.0183892  -0.116951 -0.134732 0.0237441  -0.112289 -0.121336 0.0247798  -0.104652 -0.133129 0.0262156  -0.0884057 -0.133195 0.0237317  -0.0848271 -0.119194 0.0239539  -0.110097 -0.122028 0.0218794  -0.102409 -0.133834 0.0237684  -0.0982678 -0.120127 0.0243974  -0.0827684 -0.120001 0.0217271  -0.0961556 -0.120872 0.0218325  -0.130403 -0.161883 0.0278831  -0.126173 -0.14741 0.0283799  -0.11725 -0.160829 0.0302773  -0.0996047 -0.161278 0.028173  -0.0963338 -0.146217 0.0279117  -0.123719 -0.148037 0.025739  -0.114749 -0.161473 0.0280542  -0.110978 -0.1467 0.0281758  -0.0940165 -0.146965 0.0258856  -0.108607 -0.147383 0.0258412  -0.143545 -0.191183 0.0325861  -0.139715 -0.175711 0.0325561  -0.129657 -0.190643 0.0349097  -0.110725 -0.191482 0.0331511  -0.107749 -0.175433 0.0324335  -0.137013 -0.176283 0.0301616  -0.126896 -0.191244 0.0328984  -0.123473 -0.175477 0.032527  -0.105176 -0.176131 0.0305953  -0.120847 -0.176109 0.0304089  -0.156422 -0.222462 0.0378261  -0.152984 -0.206059 0.0372982  -0.141894 -0.222406 0.040082  -0.121783 -0.223607 0.0386629  -0.119097 -0.206662 0.0374994  -0.150015 -0.206594 0.0351379  -0.138877 -0.222962 0.038271  -0.135796 -0.206284 0.0374298  -0.116259 -0.207316 0.0358438  -0.132905 -0.206875 0.0355196  -0.16905 -0.255551 0.0435772  -0.165972 -0.238297 0.0425744  -0.153979 -0.255946 0.0457735  -0.132798 -0.25752 0.044661  -0.130384 -0.239738 0.0430889  -0.16277 -0.238798 0.0406325  -0.150713 -0.256477 0.0441518  -0.14795 -0.238955 0.0428643  -0.127299 -0.240356 0.0415993  -0.144816 -0.239512 0.0411472  -0.181462 -0.290305 0.0498219  -0.178742 -0.272258 0.0483704  -0.16592 -0.291119 0.0519586  -0.143764 -0.293022 0.0511575  -0.14162 -0.274494 0.0491753  -0.175282 -0.272739 0.0466383  -0.162416 -0.291618 0.0505152  -0.159967 -0.273329 0.0488048  -0.138284 -0.275083 0.047852  -0.15658 -0.273859 0.0472732  -0.193652 -0.326555 0.0565391  -0.191254 -0.307799 0.0546598  -0.177718 -0.327756 0.0586176  -0.154693 -0.330006 0.0580878  -0.152803 -0.310779 0.0557389  -0.187589 -0.308257 0.0531185  -0.173989 -0.328246 0.057344  -0.171831 -0.309252 0.055232  -0.149239 -0.311344 0.0545635  -0.168224 -0.309762 0.0538726  -0.205642 -0.36418 0.0636935  -0.203576 -0.344762 0.0614114  -0.189376 -0.365736 0.0657191  -0.165561 -0.368272 0.065465  -0.16392 -0.348438 0.0627484  -0.19967 -0.345214 0.0600607  -0.185431 -0.366201 0.0646043  -0.183564 -0.346574 0.0621138  -0.16013 -0.348987 0.0617223  -0.179725 -0.347071 0.0609217  -0.217418 -0.40301 0.0712805  -0.215643 -0.38302 0.0686126  -0.200881 -0.404891 0.0732498  -0.176378 -0.40774 0.0732317  -0.174977 -0.387337 0.0701885  -0.211564 -0.383457 0.0674312  -0.196739 -0.405359 0.0722866  -0.19514 -0.38516 0.0694313  -0.170983 -0.38787 0.0692925  -0.191108 -0.385644 0.0683928  -0.228995 -0.442955 0.0792599  -0.227529 -0.422423 0.0762329  -0.212239 -0.445127 0.0811815  -0.187111 -0.448214 0.0814099  -0.185943 -0.427335 0.0780325  -0.22323 -0.422864 0.0752213  -0.207907 -0.445576 0.080358  -0.206578 -0.42487 0.0771642  -0.181749 -0.427858 0.077271  -0.202338 -0.425349 0.0762739  -0.240352 -0.483839 0.0876422  -0.239149 -0.462861 0.0842681  -0.223427 -0.486271 0.0895014  -0.197771 -0.489632 0.0899315  -0.196831 -0.468304 0.0862622  -0.234709 -0.46329 0.0834033  -0.218926 -0.486733 0.0888138  -0.217847 -0.465578 0.0852942  -0.192458 -0.468819 0.0856156  -0.213443 -0.466051 0.0845394  -0.251506 -0.525591 0.0963602  -0.250591 -0.504186 0.0926714  -0.234457 -0.528257 0.098177  -0.20832 -0.531803 0.0988169  -0.207597 -0.51012 0.0948567  -0.245952 -0.504626 0.0919569  -0.229791 -0.528701 0.09761  -0.228961 -0.507155 0.0937934  -0.203053 -0.510628 0.0943284  -0.224375 -0.507628 0.0931687  -0.262436 -0.56804 0.105433  -0.261759 -0.546307 0.101441  -0.245296 -0.57091 0.107188  -0.218772 -0.574684 0.108  -0.218263 -0.552661 0.103786  -0.257008 -0.546738 0.100856  -0.240491 -0.571369 0.10674  -0.239892 -0.549489 0.102639  -0.213565 -0.553165 0.103359  -0.235169 -0.549958 0.102134  -0.273157 -0.611137 0.114798  -0.272741 -0.589082 0.110533  -0.255966 -0.614187 0.116515  -0.229087 -0.618098 0.117506  -0.228781 -0.595826 0.113033  -0.267821 -0.589528 0.110078  -0.251022 -0.614629 0.11617  -0.25065 -0.592465 0.11181  -0.223939 -0.596327 0.112709  -0.245775 -0.592938 0.111416  -0.283651 -0.65472 0.124478  -0.283445 -0.632439 0.119952  -0.266431 -0.657918 0.126132  -0.239284 -0.662015 0.127257  -0.239176 -0.639504 0.122577  -0.278441 -0.632875 0.119603  -0.261378 -0.658381 0.125889  -0.261216 -0.635984 0.121285  -0.234207 -0.640002 0.12234  -0.256229 -0.636453 0.120994  -0.293935 -0.698751 0.134396  -0.293965 -0.676245 0.129645  -0.276718 -0.702084 0.136018  -0.249328 -0.706275 0.13729  -0.249403 -0.683607 0.132388  -0.288816 -0.676698 0.129406  -0.271554 -0.702529 0.135859  -0.271594 -0.679942 0.13104  -0.244318 -0.684105 0.132233  -0.266485 -0.680417 0.130841  -0.304002 -0.743094 0.144588  -0.304211 -0.720445 0.139616  -0.286795 -0.746528 0.146144  -0.259236 -0.750863 0.147515  -0.259486 -0.728039 0.142447  -0.299004 -0.72089 0.139467  -0.281549 -0.746995 0.14607  -0.281773 -0.724257 0.141048  -0.254303 -0.728535 0.142366  -0.27658 -0.724729 0.140934  -0.313863 -0.787718 0.154957  -0.314269 -0.764927 0.149813  -0.296693 -0.791245 0.156484  -0.268986 -0.795637 0.157975  -0.269396 -0.772733 0.152727  -0.308953 -0.765386 0.149749  -0.291364 -0.791697 0.156475  -0.291763 -0.768847 0.151287  -0.264124 -0.773228 0.152712  -0.286475 -0.769326 0.151247  -0.323528 -0.832508 0.165545  -0.324078 -0.809641 0.160229  -0.30639 -0.836096 0.167014  -0.2786 -0.840591 0.168568  -0.279151 -0.817602 0.163197  -0.318729 -0.810101 0.160237  -0.301013 -0.836566 0.167068  -0.301558 -0.81364 0.161726  -0.273813 -0.818099 0.163242  -0.296215 -0.814119 0.161751  -0.333007 -0.877439 0.17625  -0.333702 -0.854494 0.170811  -0.315915 -0.88108 0.177688  -0.288056 -0.885608 0.179329  -0.288737 -0.862596 0.173829  -0.328285 -0.854967 0.170878  -0.310489 -0.881543 0.177794  -0.31117 -0.858564 0.172333  -0.283342 -0.863091 0.173924  -0.305768 -0.859047 0.172413  -0.342302 -0.922423 0.187099  -0.343111 -0.899455 0.181542  -0.325256 -0.926093 0.188479  -0.297382 -0.930686 0.190164  -0.298164 -0.907644 0.184582  -0.337684 -0.899932 0.18167  -0.319804 -0.926575 0.188636  -0.3206 -0.903567 0.183068  -0.292737 -0.908144 0.184723  -0.315171 -0.904057 0.1832  -0.35147 -0.967452 0.198002  -0.352343 -0.94445 0.192386  -0.334438 -0.971123 0.19934  -0.306545 -0.975737 0.201081  -0.307431 -0.95271 0.195422  -0.346892 -0.944936 0.192561  -0.328974 -0.971607 0.19953  -0.329857 -0.948584 0.1939  -0.301976 -0.95321 0.195595  -0.324398 -0.949091 0.19407  -0.360399 -1.01236 0.208949  -0.361413 -0.989461 0.203244  -0.343479 -1.0161 0.210205  -0.315563 -1.02076 0.21196  -0.316553 -0.997755 0.206306  -0.355985 -0.989918 0.203457  -0.337963 -1.01657 0.210433  -0.338973 -0.993623 0.204769  -0.311079 -0.998258 0.206526  -0.333502 -0.994104 0.204975  -0.369232 -1.05736 0.219788  -0.370352 -1.03438 0.214139  -0.352352 -1.06104 0.221039  -0.32449 -1.06566 0.22287  -0.325559 -1.0427 0.217161  -0.364816 -1.0349 0.214362  -0.34685 -1.06153 0.221295  -0.347934 -1.03855 0.21563  -0.32003 -1.04324 0.217397  -0.342407 -1.03909 0.21588  -0.377996 -1.10216 0.230532  -0.379181 -1.07928 0.224956  -0.361123 -1.10585 0.231761  -0.333318 -1.11057 0.233476  -0.334398 -1.08756 0.227957  -0.373651 -1.07982 0.225241  -0.355671 -1.10638 0.231996  -0.356729 -1.08345 0.226426  -0.328927 -1.08812 0.228214  -0.351292 -1.08397 0.226688  -0.00463354 -0.00556973 0.00435162  0 0 0  -0.00322733 -0.00410666 0.00242186  -0.00109334 -0.00125292 0.00190735  0 0 0  -0.00437439 -0.00591227 0.00288606  -0.00141433 -0.00234357 0.002285  0 0 0  -0.00100894 -0.00141814 0.00119972  -0.0013205 -0.00250781 0.00145578  -0.014129 -0.0153014 0.00805283  -0.0101315 -0.0135875 0.00504184  -0.00677638 -0.00792076 0.0054121  -0.0134639 -0.0159758 0.00575638  -0.0090173 -0.0100913 0.00633144  -0.00635119 -0.00843459 0.00376511  -0.00855651 -0.0106171 0.00437808  -0.02498 -0.0275591 0.0107985  -0.0186203 -0.0263463 0.00748348  -0.0151033 -0.0188285 0.00833082  -0.0239663 -0.0284412 0.0082624  -0.0195377 -0.0210726 0.00949764  -0.014292 -0.019611 0.00627613  -0.0186842 -0.0218722 0.00704145  -0.0356908 -0.0426691 0.013092  -0.0273165 -0.0419893 0.00989461  -0.0240808 -0.0328505 0.0107536  -0.0344377 -0.0436373 0.0106237  -0.0303701 -0.0347199 0.0119467  -0.0229831 -0.0337951 0.00866365  -0.029226 -0.0356641 0.00942969  -0.0461617 -0.0608473 0.0154953  -0.0359104 -0.0605895 0.0125666  -0.0329382 -0.0499142 0.0131636  -0.0447088 -0.0618217 0.0131712  -0.040949 -0.0513781 0.0142565  -0.0316221 -0.0509246 0.0111778  -0.0395973 -0.0523624 0.0118542  -0.0564956 -0.0819313 0.0182881  -0.0444712 -0.0820344 0.0156732  -0.0417163 -0.0699529 0.0159035  -0.0548305 -0.0828754 0.0161343  -0.0513391 -0.0710339 0.0168352  -0.0401896 -0.0709676 0.0140553  -0.0497834 -0.0720031 0.0145941  -0.0667758 -0.10572 0.0215898  -0.0530777 -0.106147 0.0193081  -0.0505218 -0.092786 0.0191183  -0.0648739 -0.106609 0.0196128  -0.0616382 -0.0934964 0.0198722  -0.0487649 -0.0937694 0.017417  -0.0598588 -0.0944211 0.0178061  -0.077045 -0.131984 0.025445  -0.0617893 -0.132728 0.0234857  -0.0594217 -0.118205 0.0228806  -0.0748932 -0.132822 0.0236402  -0.0719082 -0.118548 0.0234489  -0.0574162 -0.119142 0.0213251  -0.0698839 -0.11942 0.0215583  -0.0873373 -0.160531 0.0298667  -0.0706301 -0.161587 0.0282245  -0.0684556 -0.145999 0.027195  -0.0849229 -0.16131 0.0282278  -0.0821849 -0.145977 0.0275869  -0.0661946 -0.146883 0.0257797  -0.0799054 -0.146793 0.0258665  -0.0976627 -0.191167 0.0348239  -0.0796233 -0.192534 0.0334797  -0.0776312 -0.17598 0.0320587  -0.0949901 -0.191907 0.0333447  -0.0924941 -0.175594 0.0322785  -0.0751022 -0.176812 0.0307798  -0.0899512 -0.17636 0.0307202  -0.108033 -0.223724 0.0403185  -0.0887644 -0.225399 0.0392594  -0.0869612 -0.207949 0.037446  -0.105099 -0.224412 0.0389895  -0.10284 -0.20721 0.0375085  -0.0841814 -0.208737 0.0362968  -0.10004 -0.207931 0.0361047  -0.118445 -0.258025 0.0463028  -0.0980612 -0.259995 0.0455151  -0.0964316 -0.241747 0.043345  -0.115265 -0.258687 0.0451174  -0.113234 -0.240661 0.0432496  -0.0933846 -0.242493 0.0423183  -0.110175 -0.241344 0.0419922  -0.128899 -0.293911 0.0527821  -0.107492 -0.29618 0.0522451  -0.106046 -0.277186 0.0497227  -0.125473 -0.294533 0.0517311  -0.123665 -0.275772 0.0494862  -0.10277 -0.277898 0.048811  -0.120366 -0.276423 0.0483661  -0.13938 -0.331231 0.0596957  -0.117054 -0.333766 0.0594058  -0.115775 -0.314129 0.0565624  -0.13573 -0.33184 0.0587735  -0.134136 -0.312397 0.0561824  -0.112244 -0.31481 0.0557613  -0.130596 -0.313021 0.0551934  -0.149876 -0.36983 0.0670624  -0.126718 -0.372644 0.0669951  -0.125622 -0.352398 0.0638299  -0.146003 -0.370409 0.0662618  -0.144625 -0.350372 0.0633287  -0.121889 -0.353052 0.0631332  -0.140867 -0.350975 0.0624633  -0.160371 -0.409584 0.0748091  -0.13647 -0.412624 0.0749717  -0.135536 -0.391875 0.071517  -0.156299 -0.410156 0.0741234  -0.155123 -0.389569 0.0708852  -0.131566 -0.392508 0.0709229  -0.151149 -0.390153 0.070138  -0.170849 -0.450335 0.0829773  -0.146286 -0.453628 0.0833282  -0.14553 -0.432395 0.0795903  -0.166581 -0.450887 0.0823998  -0.165612 -0.429834 0.0788493  -0.141391 -0.433005 0.0790873  -0.161446 -0.430406 0.0782113  -0.181294 -0.491988 0.0914717  -0.156143 -0.495461 0.0920291  -0.155544 -0.473852 0.0880318  -0.176852 -0.492536 0.0909953  -0.176075 -0.471057 0.0871792  -0.151188 -0.474453 0.0876212  -0.171719 -0.471615 0.0866475  -0.191681 -0.53438 0.100347  -0.166022 -0.538074 0.101059  -0.1656 -0.516098 0.0968199  -0.18707 -0.534915 0.0999684  -0.186496 -0.513092 0.0958724  -0.161104 -0.516675 0.096488  -0.181972 -0.51364 0.095437  -0.202002 -0.57745 0.109502  -0.175889 -0.581276 0.110396  -0.175622 -0.559039 0.105927  -0.197243 -0.577981 0.10921  -0.196848 -0.555839 0.104887  -0.170932 -0.559613 0.105678  -0.192162 -0.556381 0.104545  -0.21223 -0.621036 0.118996  -0.185743 -0.62505 0.120015  -0.185647 -0.602544 0.115339  -0.207332 -0.62156 0.118788  -0.20713 -0.599178 0.114216  -0.180844 -0.603097 0.115158  -0.202303 -0.599712 0.113957  -0.222363 -0.665099 0.128723  -0.195539 -0.669203 0.129901  -0.195591 -0.646535 0.125024  -0.217342 -0.665617 0.128586  -0.217306 -0.643016 0.123829  -0.190622 -0.647089 0.124914  -0.212346 -0.643545 0.12365  -0.232372 -0.709488 0.138738  -0.205291 -0.713744 0.140011  -0.205502 -0.690895 0.134966  -0.227242 -0.710003 0.138673  -0.227385 -0.687251 0.133703  -0.200447 -0.69143 0.134912  -0.222311 -0.687774 0.133595  -0.242267 -0.754184 0.148941  -0.21495 -0.758493 0.150346  -0.215296 -0.735563 0.145136  -0.237038 -0.754691 0.148934  -0.237331 -0.731804 0.143816  -0.210106 -0.736102 0.145142  -0.232152 -0.732324 0.143774  -0.252019 -0.799045 0.15938  -0.224539 -0.803477 0.160853  -0.225027 -0.780438 0.155512  -0.246712 -0.799554 0.159431  -0.247163 -0.77659 0.154139  -0.219778 -0.780959 0.155566  -0.241896 -0.777105 0.154153  -0.261641 -0.84407 0.169951  -0.234013 -0.848527 0.171529  -0.234623 -0.825471 0.166067  -0.256268 -0.844575 0.170049  -0.256843 -0.821543 0.164649  -0.229266 -0.826003 0.166167  -0.251503 -0.822059 0.164716  -0.271111 -0.889146 0.180691  -0.243411 -0.893686 0.182318  -0.244127 -0.870588 0.17676  -0.265693 -0.889648 0.180832  -0.266397 -0.866598 0.175309  -0.238745 -0.871094 0.176896  -0.261001 -0.867108 0.175423  -0.280451 -0.93426 0.191499  -0.252673 -0.938805 0.193206  -0.253487 -0.915738 0.187577  -0.274992 -0.934762 0.191677  -0.275792 -0.911701 0.186088  -0.248036 -0.91625 0.18775  -0.270355 -0.912208 0.186242  -0.289644 -0.979334 0.2024  -0.261828 -0.983943 0.204145  -0.262753 -0.960869 0.198461  -0.284165 -0.979842 0.202613  -0.285072 -0.956804 0.196948  -0.257283 -0.961374 0.198673  -0.279597 -0.957307 0.197138  -0.298691 -1.02437 0.213271  -0.270867 -1.02896 0.215071  -0.271851 -1.00595 0.209389  -0.29322 -1.02488 0.213517  -0.29418 -1.00186 0.207836  -0.266345 -1.00647 0.209628  -0.288707 -1.00237 0.208066  -0.307621 -1.06926 0.224105  -0.279778 -1.07391 0.225963  -0.280851 -1.05094 0.220265  -0.302112 -1.06978 0.224361  -0.30317 -1.04683 0.218711  -0.275365 -1.05146 0.220514  -0.297688 -1.04736 0.218962  -0.316513 -1.1141 0.234829  -0.288634 -1.11877 0.236726  -0.289709 -1.0958 0.231074  -0.31097 -1.11471 0.23509  -0.312064 -1.09168 0.22949  -0.28418 -1.09636 0.231332  -0.306541 -1.09225 0.229753  -0.00250235 -0.00261977 0.00291681  0 0 0  -0.0014993 -0.00226372 0.00140572  -0.000528879 -0.000152677 0.00106239  0 0 0  -0.00229236 -0.00295508 0.00192547  -0.000769708 -0.000557691 0.00149155  0 0 0  -0.000464983 -0.000311166 0.000630617  -0.000696689 -0.000720352 0.000922203  -0.00795133 -0.0112891 0.00580549  -0.00488618 -0.0109168 0.00344086  -0.003345 -0.00554717 0.0033865  -0.0073809 -0.0119326 0.00426507  -0.0049579 -0.00645125 0.00441599  -0.00300351 -0.00605297 0.00240016  -0.00457317 -0.00695729 0.00309968  -0.0147368 -0.0239457 0.00830698  -0.00935149 -0.0238761 0.00571752  -0.00772017 -0.016203 0.00577211  -0.0138287 -0.0248131 0.00662899  -0.0112664 -0.0172108 0.00707817  -0.00703543 -0.0169817 0.00455403  -0.0105172 -0.0179856 0.00544214  -0.0217977 -0.0398203 0.010716  -0.0142668 -0.0401411 0.00824189  -0.0127618 -0.0306546 0.00816107  -0.020635 -0.0408205 0.00909925  -0.0182637 -0.0314902 0.00948429  -0.0117742 -0.031629 0.00693846  -0.0172195 -0.0324439 0.00782847  -0.0288956 -0.0587285 0.0133996  -0.0194121 -0.0594111 0.0111537  -0.0180475 -0.0483332 0.0107942  -0.0275103 -0.0597834 0.0118887  -0.0253378 -0.0488976 0.0120077  -0.0168148 -0.0494088 0.00964212  -0.0240653 -0.0499382 0.0104403  -0.036112 -0.080517 0.0165434  -0.0248019 -0.0814727 0.0145588  -0.0235493 -0.0689822 0.0138564  -0.034493 -0.0815641 0.0151463  -0.0324818 -0.0692688 0.0149093  -0.0220677 -0.0700948 0.0127959  -0.0309814 -0.0703308 0.0134549  -0.0435166 -0.104995 0.0202065  -0.0305068 -0.106229 0.018496  -0.029344 -0.0924252 0.0174379  -0.0416524 -0.106017 0.0189314  -0.0397877 -0.092427 0.0183048  -0.0276151 -0.0935225 0.0164638  -0.0380494 -0.0934677 0.0169692  -0.0511634 -0.131952 0.0244308  -0.0365571 -0.133403 0.0229859  -0.035476 -0.118453 0.0215597  -0.0490392 -0.132916 0.0232658  -0.0473049 -0.118171 0.0222511  -0.0334805 -0.119514 0.02068  -0.0453112 -0.119171 0.0210319  -0.0590645 -0.161189 0.0291953  -0.0429883 -0.162919 0.0280104  -0.0419831 -0.146867 0.0262384  -0.0566791 -0.162119 0.0281458  -0.055083 -0.146292 0.0267434  -0.0397297 -0.147881 0.0254378  -0.0528311 -0.147242 0.0256376  -0.0672272 -0.192513 0.0344954  -0.0497764 -0.194449 0.0335574  -0.0488551 -0.177469 0.0314379  -0.0645758 -0.193374 0.0335484  -0.06311 -0.1766 0.0317812  -0.0463296 -0.178428 0.0307279  -0.0605893 -0.177497 0.0307846  -0.0756409 -0.225737 0.0403008  -0.0569451 -0.227962 0.039598  -0.0560975 -0.210059 0.0371642  -0.0727372 -0.22658 0.0394578  -0.0714053 -0.208893 0.0373311  -0.0533193 -0.210974 0.0365233  -0.0686295 -0.209746 0.0364385  -0.0842996 -0.260685 0.0465946  -0.0644385 -0.263106 0.0461197  -0.0636832 -0.244461 0.0433664  -0.0811375 -0.261458 0.0458455  -0.0799382 -0.243007 0.0433888  -0.0606445 -0.245322 0.042809  -0.0769005 -0.243813 0.0425935  -0.0931772 -0.297197 0.0533509  -0.0722792 -0.299899 0.0530915  -0.0716028 -0.280488 0.0500507  -0.0897824 -0.297969 0.0526962  -0.0887142 -0.278753 0.0499115  -0.0683217 -0.281318 0.0495577  -0.0854384 -0.279525 0.049211  -0.102254 -0.3351 0.0605474  -0.0803874 -0.337984 0.0604935  -0.079813 -0.317993 0.057158  -0.0986202 -0.335803 0.0599766  -0.0976894 -0.315987 0.0568943  -0.0762955 -0.31877 0.0567422  -0.0941688 -0.316719 0.0562835  -0.111509 -0.374265 0.068161  -0.0887927 -0.377406 0.0683093  -0.0882992 -0.356795 0.0647154  -0.107667 -0.37498 0.0676751  -0.106864 -0.354534 0.0642962  -0.0845573 -0.357552 0.0643573  -0.103128 -0.355241 0.0637698  -0.120905 -0.414516 0.0761638  -0.0974015 -0.417822 0.0764966  -0.0970216 -0.396769 0.0726423  -0.116847 -0.415167 0.075758  -0.11619 -0.394267 0.072114  -0.0930712 -0.397479 0.072351  -0.112231 -0.394941 0.0716686  -0.130432 -0.455763 0.0845447  -0.106244 -0.459286 0.0850534  -0.105953 -0.437748 0.080966  -0.126192 -0.456434 0.0842113  -0.125658 -0.435028 0.0803032  -0.101795 -0.438451 0.0807323  -0.12151 -0.435685 0.0799346  -0.140039 -0.497823 0.0932598  -0.115225 -0.501492 0.093936  -0.115056 -0.479631 0.0896182  -0.135607 -0.498433 0.0930014  -0.135226 -0.476701 0.0888605  -0.110723 -0.480289 0.0894418  -0.130882 -0.477333 0.0885639  -0.149727 -0.540639 0.102323  -0.124373 -0.544477 0.103153  -0.124298 -0.522261 0.0986223  -0.145139 -0.541271 0.102123  -0.144878 -0.519151 0.0977492  -0.119774 -0.522916 0.0984983  -0.140368 -0.519767 0.0975194  -0.159432 -0.584022 0.111663  -0.133599 -0.587992 0.112638  -0.133654 -0.565549 0.107917  -0.154678 -0.584601 0.111534  -0.154579 -0.562267 0.106956  -0.128987 -0.566164 0.10784  -0.149899 -0.562863 0.106791  -0.169171 -0.627958 0.121309  -0.142921 -0.632047 0.122419  -0.143077 -0.609365 0.117507  -0.164288 -0.628558 0.121228  -0.164302 -0.605937 0.116452  -0.138239 -0.60998 0.117481  -0.159482 -0.606521 0.116344  -0.178872 -0.67225 0.131186  -0.152271 -0.676453 0.13241  -0.152553 -0.653627 0.127348  -0.173852 -0.672803 0.131168  -0.174028 -0.650063 0.126216  -0.14761 -0.654207 0.127359  -0.169069 -0.650631 0.126164  -0.188565 -0.716915 0.141322  -0.16166 -0.721196 0.14266  -0.162044 -0.698228 0.137431  -0.183442 -0.717488 0.141341  -0.183724 -0.694552 0.136227  -0.156948 -0.698809 0.137487  -0.17865 -0.69511 0.136225  -0.198179 -0.761766 0.151646  -0.171036 -0.766141 0.153074  -0.171538 -0.743094 0.147733  -0.192949 -0.7623 0.151719  -0.193383 -0.739319 0.146457  -0.166369 -0.743648 0.147815  -0.1882 -0.739866 0.146501  -0.207749 -0.806835 0.162174  -0.1804 -0.811254 0.163691  -0.180996 -0.788144 0.158218  -0.202448 -0.807388 0.162275  -0.202973 -0.784287 0.156891  -0.175704 -0.788697 0.158344  -0.197703 -0.784826 0.156975  -0.217211 -0.851957 0.172835  -0.189713 -0.856445 0.174419  -0.190414 -0.833311 0.16887  -0.211834 -0.852472 0.172981  -0.212493 -0.829388 0.167484  -0.185084 -0.833846 0.169014  -0.20715 -0.829919 0.167607  -0.226609 -0.897172 0.183644  -0.198981 -0.901688 0.185302  -0.199768 -0.878545 0.179651  -0.221183 -0.89771 0.183814  -0.221922 -0.874566 0.178227  -0.194336 -0.879076 0.179833  -0.216516 -0.875084 0.178381  -0.235872 -0.942339 0.19452  -0.208171 -0.946906 0.196233  -0.209041 -0.923781 0.190547  -0.230397 -0.942849 0.194722  -0.231254 -0.919756 0.189075  -0.203602 -0.924297 0.190734  -0.225801 -0.920272 0.18926  -0.245031 -0.987514 0.205462  -0.217276 -0.992076 0.207249  -0.218234 -0.968995 0.201488  -0.239545 -0.988028 0.205683  -0.240466 -0.964933 0.199989  -0.212722 -0.969512 0.201718  -0.234982 -0.965446 0.200199  -0.254071 -1.03255 0.216361  -0.226249 -1.03715 0.218189  -0.227292 -1.01413 0.21248  -0.248535 -1.03304 0.216623  -0.249564 -1.01004 0.210924  -0.221799 -1.01463 0.212721  -0.244056 -1.01055 0.211154  -0.262983 -1.07754 0.227288  -0.235161 -1.0821 0.229174  -0.236281 -1.05914 0.223399  -0.257457 -1.07803 0.227561  -0.258546 -1.05505 0.221828  -0.230711 -1.05969 0.22368  -0.253014 -1.05558 0.222095  -0.271715 -1.12228 0.238038  -0.243996 -1.12688 0.239891  -0.245098 -1.10401 0.234272  -0.266291 -1.12281 0.238356  -0.267359 -1.09992 0.232671  -0.239607 -1.10453 0.234545  -0.261887 -1.10045 0.232952  -0.00092528 -0.00160584 0.00134182  0 0 0  -8.43555e-05 -0.00195023 0.000293493  -7.12313e-05 4.66108e-05 0.000141144  0 0 0  -0.000768207 -0.00194857 0.000858545  -0.000286579 3.88324e-05 0.00060606  0 0 0  -2.6837e-05 -0.000124365 8.34465e-06  -0.000232983 -0.00012362 0.000324726  -0.00304148 -0.0097954 0.00331211  -0.000380412 -0.0104913 0.00166512  -0.000445172 -0.00510859 0.00118542  -0.00258949 -0.0104533 0.0025692  -0.00186022 -0.00511807 0.00230074  -0.000196353 -0.00565279 0.000890493  -0.00156555 -0.00563806 0.00165987  -0.00591761 -0.0225744 0.00555325  -0.00104961 -0.0236273 0.00373936  -0.0012089 -0.015788 0.00299454  -0.00514355 -0.0234869 0.00475121  -0.0044136 -0.0157403 0.00440168  -0.000664502 -0.0166238 0.00263524  -0.0037981 -0.0165399 0.00361395  -0.00921449 -0.0388779 0.00808144  -0.00217438 -0.040235 0.00635958  -0.00240868 -0.0304894 0.00532722  -0.00815669 -0.0399435 0.00732565  -0.00752437 -0.0303222 0.00677013  -0.00155294 -0.031545 0.00497985  -0.00660381 -0.031333 0.00598621  -0.0128728 -0.0582998 0.0110617  -0.00381237 -0.0599228 0.00950623  -0.0040735 -0.0485395 0.00817442  -0.0115472 -0.0594571 0.0103602  -0.0109953 -0.0482131 0.00951433  -0.00292522 -0.0497159 0.00785923  -0.00980401 -0.0493361 0.00878096  -0.0169237 -0.0805983 0.0145392  -0.00600523 -0.0824243 0.0131989  -0.00627321 -0.069604 0.0115538  -0.015334 -0.0817575 0.0139084  -0.0148457 -0.0690917 0.0127354  -0.00483853 -0.0708247 0.0112748  -0.0133882 -0.0702606 0.0120668  -0.0214351 -0.105612 0.0185814  -0.00878263 -0.107632 0.0174427  -0.00902873 -0.0934913 0.0154867  -0.0195784 -0.106764 0.0180044  -0.0191175 -0.0927786 0.0165029  -0.00731778 -0.0947123 0.015244  -0.0173951 -0.0939398 0.015892  -0.0264159 -0.133104 0.0231419  -0.0121627 -0.135298 0.0222282  -0.0123884 -0.119984 0.0199671  -0.0242885 -0.134195 0.0226345  -0.0238676 -0.119053 0.0207973  -0.0103986 -0.121159 0.0197587  -0.0218757 -0.120176 0.0202532  -0.0318953 -0.162906 0.0282745  -0.016143 -0.165283 0.0275512  -0.0163387 -0.14889 0.0249934  -0.0295 -0.163967 0.0278139  -0.0290909 -0.147731 0.0256605  -0.0140773 -0.150031 0.024817  -0.0268292 -0.148813 0.0251675  -0.0378366 -0.194783 0.0338793  -0.0207167 -0.197344 0.0333748  -0.0208905 -0.179989 0.0305328  -0.0351754 -0.19577 0.0334888  -0.0348126 -0.178592 0.0310163  -0.018358 -0.181054 0.0303893  -0.0322839 -0.17961 0.0305901  -0.0442524 -0.228576 0.0400333  -0.0258468 -0.231316 0.0397043  -0.0260047 -0.213091 0.0365849  -0.041335 -0.229531 0.03968  -0.0409825 -0.211455 0.0369186  -0.0232146 -0.214125 0.0364733  -0.0381919 -0.212437 0.0365362  -0.0510875 -0.264065 0.0465984  -0.0315294 -0.267005 0.046473  -0.0316702 -0.247994 0.0431089  -0.0479171 -0.264956 0.0463133  -0.0476248 -0.246115 0.0432596  -0.02862 -0.248946 0.0430245  -0.0445812 -0.247028 0.0429397  -0.0583414 -0.301112 0.0536776  -0.0376934 -0.30421 0.0537162  -0.0378494 -0.284514 0.0500898  -0.0549301 -0.301966 0.0534239  -0.0546583 -0.282406 0.0501099  -0.0345583 -0.28545 0.0500374  -0.0513654 -0.283296 0.04983  -0.0659513 -0.33952 0.06111  -0.0443482 -0.342825 0.0613389  -0.0444921 -0.322491 0.0575013  -0.0623094 -0.340328 0.0609207  -0.0621108 -0.320151 0.057344  -0.0409573 -0.323346 0.0574751  -0.0585866 -0.320972 0.0571237  -0.0739104 -0.379161 0.0690289  -0.0514014 -0.382595 0.069407  -0.0515919 -0.361742 0.0653286  -0.070047 -0.379928 0.0688667  -0.0698826 -0.359194 0.0650506  -0.0478383 -0.362591 0.0653296  -0.0661272 -0.360007 0.0648665  -0.0821549 -0.419864 0.0772381  -0.058874 -0.423507 0.0777836  -0.0590547 -0.402146 0.073535  -0.0780882 -0.42061 0.0771327  -0.0780071 -0.399384 0.0730906  -0.0550799 -0.402921 0.0735583  -0.074047 -0.400131 0.0729585  -0.0906675 -0.461512 0.0858893  -0.0666451 -0.465244 0.0865779  -0.0669081 -0.443511 0.0821033  -0.0863988 -0.462202 0.0858116  -0.0863717 -0.440573 0.0815492  -0.0627409 -0.444286 0.0821505  -0.0822009 -0.441321 0.0814528  -0.0993946 -0.503965 0.0947909  -0.0747607 -0.507895 0.0956149  -0.0750172 -0.485767 0.0910087  -0.0949538 -0.504656 0.0947595  -0.0950136 -0.482642 0.0903044  -0.0706511 -0.486479 0.0910778  -0.0906677 -0.483327 0.0902534  -0.10831 -0.5471 0.104087  -0.0830839 -0.551081 0.105049  -0.0834556 -0.528711 0.100229  -0.103688 -0.547725 0.104084  -0.103822 -0.525446 0.0994258  -0.0789204 -0.529422 0.100318  -0.0992873 -0.526136 0.0994086  -0.117372 -0.590817 0.113593  -0.0916779 -0.594981 0.114658  -0.0920398 -0.572315 0.109745  -0.112609 -0.591465 0.113626  -0.112831 -0.568888 0.108811  -0.0873353 -0.572977 0.109853  -0.108151 -0.569525 0.108831  -0.126541 -0.634993 0.123434  -0.10039 -0.639172 0.124632  -0.100892 -0.616375 0.119519  -0.121619 -0.635561 0.1235  -0.121936 -0.612842 0.118498  -0.0960472 -0.617028 0.119646  -0.117089 -0.613482 0.118552  -0.135793 -0.679557 0.133453  -0.109297 -0.683899 0.134728  -0.109793 -0.660891 0.12955  -0.130765 -0.680165 0.13354  -0.131162 -0.657226 0.128426  -0.104806 -0.661514 0.129693  -0.126204 -0.657824 0.128506  -0.145089 -0.724392 0.14375  -0.118256 -0.728721 0.145143  -0.1189 -0.705674 0.139789  -0.139928 -0.724917 0.14387  -0.140429 -0.701933 0.138584  -0.113799 -0.706274 0.139946  -0.135329 -0.702526 0.138697  -0.154418 -0.76945 0.154191  -0.127346 -0.773916 0.155635  -0.127979 -0.750733 0.150239  -0.149181 -0.770024 0.154325  -0.149754 -0.746889 0.148963  -0.122773 -0.751323 0.150412  -0.144574 -0.747458 0.149092  -0.163732 -0.81463 0.164844  -0.136428 -0.819065 0.166395  -0.137209 -0.795912 0.160848  -0.158389 -0.815125 0.16501  -0.159071 -0.792017 0.159498  -0.131915 -0.796464 0.161032  -0.153774 -0.792571 0.159659  -0.173028 -0.859899 0.175597  -0.145576 -0.864446 0.177186  -0.146351 -0.841209 0.171617  -0.167636 -0.86045 0.175775  -0.168384 -0.837243 0.170221  -0.140984 -0.84178 0.171819  -0.163037 -0.837794 0.170394  -0.182255 -0.905186 0.186506  -0.154677 -0.90968 0.188189  -0.155582 -0.886537 0.182494  -0.176805 -0.90566 0.186711  -0.177644 -0.882537 0.181039  -0.150153 -0.887043 0.182709  -0.172213 -0.88306 0.181245  -0.19145 -0.950446 0.197466  -0.163777 -0.955036 0.199183  -0.164687 -0.931849 0.193482  -0.18597 -0.950976 0.197686  -0.186857 -0.927812 0.19199  -0.15922 -0.932385 0.193717  -0.181412 -0.92833 0.192198  -0.200553 -0.995633 0.208488  -0.172806 -1.00016 0.210283  -0.173825 -0.977103 0.204517  -0.195024 -0.996108 0.208748  -0.196013 -0.973048 0.20296  -0.168312 -0.977588 0.204761  -0.190493 -0.973556 0.20321  -0.209542 -1.04074 0.219511  -0.181741 -1.04538 0.221341  -0.182817 -1.02226 0.215561  -0.204031 -1.04125 0.219766  -0.205059 -1.01819 0.214016  -0.177295 -1.02281 0.215842  -0.199559 -1.01871 0.214278  -0.218433 -1.08567 0.230428  -0.190614 -1.09025 0.232311  -0.191753 -1.06731 0.226591  -0.212891 -1.08618 0.230723  -0.213996 -1.06322 0.224994  -0.186185 -1.06784 0.226858  -0.208475 -1.06375 0.225276  -0.227313 -1.13042 0.241269  -0.199439 -1.13517 0.243193  -0.20058 -1.11218 0.237518  -0.221672 -1.13105 0.241498  -0.22287 -1.10808 0.235889  -0.195042 -1.1127 0.237784  -0.217294 -1.10861 0.236174  0.000506893 -0.0018664 -0.000319004  0 0 0  0.00132853 -0.00286412 -0.000854731  0.000385657 -0.000447214 -0.000798225  0 0 0  0.000609487 -0.00225443 -0.000278473  0.000152573 -0.000111163 -0.00032711  0 0 0  0.000411011 -0.000658274 -0.000630856  0.000185005 -0.000298321 -0.000309467  0.00149614 -0.0102764 0.000682354  0.00408068 -0.0119982 -0.000192165  0.00243112 -0.00627512 -0.00106812  0.0018279 -0.0110077 0.000739574  0.000975773 -0.0054943 6.1512e-05  0.00258915 -0.00690186 -0.000680923  0.00117922 -0.00607395 0.000111341  0.00238943 -0.0232675 0.00261068  0.00715798 -0.025436 0.00162363  0.00522566 -0.0173331 0.000118732  0.00302765 -0.024281 0.00268936  0.00198045 -0.0163215 0.00156164  0.00563809 -0.0182986 0.000605583  0.00245985 -0.0172128 0.00162983  0.00280821 -0.0398235 0.00525045  0.00974572 -0.0421968 0.00429201  0.00780272 -0.0322495 0.00234509  0.00376099 -0.0409927 0.00533867  0.00267383 -0.0311367 0.00385141  0.00854373 -0.0334179 0.0028584  0.00347048 -0.032245 0.00393701  0.00259662 -0.0595393 0.00848341  0.0115686 -0.0621279 0.00764418  0.00968486 -0.0504839 0.00536299  0.00386572 -0.0608139 0.00859165  0.00278383 -0.0492983 0.00679255  0.010753 -0.0517913 0.00587392  0.00389242 -0.0505366 0.00689435  0.00169331 -0.0821955 0.0123143  0.0125464 -0.0848371 0.0116003  0.0107679 -0.0717984 0.00903225  0.00325882 -0.0834565 0.0124233  0.00223726 -0.0705086 0.0103245  0.0121771 -0.0731227 0.00953341  0.00366122 -0.0717818 0.0104346  8.80957e-05 -0.107588 0.0166893  0.0126627 -0.110449 0.0161362  0.0110011 -0.0959789 0.0132933  0.00194466 -0.108857 0.0168128  0.000976026 -0.0945562 0.0144272  0.012692 -0.097318 0.0137739  0.00267863 -0.0958371 0.0145502  -0.00224429 -0.135513 0.0216317  0.0119708 -0.138361 0.0212164  0.0104276 -0.122825 0.0181293  -0.000103891 -0.136691 0.0217543  -0.000980735 -0.121241 0.0190907  0.0124447 -0.124103 0.0185962  0.0010283 -0.12247 0.0192122  -0.00527179 -0.165749 0.0270858  0.0103981 -0.168875 0.0268316  0.00899494 -0.152104 0.0234866  -0.00285709 -0.166913 0.0272222  -0.00367665 -0.150343 0.0242848  0.0112541 -0.153349 0.0239277  -0.00141621 -0.15154 0.0244207  -0.00900102 -0.198094 0.0330582  0.00811517 -0.201157 0.0329428  0.00680721 -0.183608 0.0293894  -0.00630999 -0.199145 0.0331988  -0.00703931 -0.18166 0.0300117  0.00938714 -0.184784 0.0298204  -0.0044719 -0.18278 0.0301418  -0.0133728 -0.232339 0.0395179  0.0049479 -0.235741 0.0395393  0.00378525 -0.217113 0.0357485  -0.0104306 -0.233377 0.0396667  -0.0111127 -0.21497 0.0362172  0.00657833 -0.218239 0.0361524  -0.00832379 -0.216054 0.036365  -0.0183845 -0.268294 0.0464168  0.0012064 -0.271593 0.0465856  9.9659e-05 -0.252433 0.0426259  -0.0151757 -0.269219 0.0465789  -0.0157852 -0.250096 0.0429201  0.00320101 -0.253509 0.0430236  -0.0126942 -0.251107 0.0430579  -0.0239639 -0.30578 0.0537906  -0.0033989 -0.309449 0.0540638  -0.00436568 -0.289353 0.0498877  -0.0205272 -0.306694 0.0539532  -0.0211091 -0.286824 0.0500388  -0.00107408 -0.290369 0.0502572  -0.0178244 -0.287802 0.0501962  -0.0300962 -0.344617 0.0615258  -0.00843012 -0.348161 0.0619597  -0.00938225 -0.327724 0.0576396  -0.0264082 -0.345432 0.0617113  -0.0269418 -0.325011 0.0576234  -0.00580788 -0.32872 0.0580044  -0.0233673 -0.325928 0.0577688  -0.0367132 -0.384662 0.0697255  -0.0142748 -0.388572 0.0702243  -0.0151082 -0.367347 0.065722  -0.0328258 -0.385466 0.069901  -0.0333494 -0.364456 0.0655704  -0.0113522 -0.368272 0.0660601  -0.0296066 -0.365341 0.0657339  -0.043785 -0.425741 0.0781865  -0.020416 -0.429528 0.078866  -0.0212631 -0.4081 0.0742474  -0.0396664 -0.426469 0.0783982  -0.0401695 -0.405045 0.0739374  -0.0172664 -0.409032 0.0745802  -0.0361617 -0.405884 0.0740895  -0.0512471 -0.467745 0.0871143  -0.0272784 -0.471852 0.0878177  -0.0280387 -0.449798 0.0830479  -0.0469565 -0.468453 0.0873036  -0.0474708 -0.446586 0.0826097  -0.0238655 -0.450654 0.0833554  -0.0433135 -0.447395 0.0827775  -0.0590634 -0.510503 0.0962157  -0.034338 -0.514517 0.0971189  -0.0351229 -0.492347 0.0922441  -0.0545681 -0.511163 0.0964494  -0.0550838 -0.488995 0.09166  -0.0307648 -0.493223 0.0925441  -0.0506983 -0.489771 0.0918179  -0.0671861 -0.553941 0.105776  -0.0419846 -0.558201 0.106668  -0.0427334 -0.535571 0.101672  -0.0625384 -0.554567 0.105979  -0.0630898 -0.532091 0.10097  -0.0381916 -0.536376 0.101954  -0.0585632 -0.532835 0.101141  -0.0755572 -0.597897 0.115431  -0.0497782 -0.602107 0.116533  -0.0505462 -0.579409 0.11144  -0.0707424 -0.598504 0.115684  -0.071311 -0.575813 0.11061  -0.0458741 -0.580233 0.11171  -0.0665989 -0.576536 0.110775  -0.0841565 -0.642317 0.125524  -0.0580018 -0.646687 0.126585  -0.0587833 -0.623693 0.121408  -0.0792079 -0.642879 0.125739  -0.0798314 -0.619999 0.120471  -0.0539277 -0.624459 0.121666  -0.0749893 -0.62069 0.120645  -0.0929053 -0.687056 0.135648  -0.0663471 -0.69142 0.136924  -0.0671325 -0.668391 0.131643  -0.0878317 -0.68762 0.135914  -0.0884821 -0.664603 0.130599  -0.0621994 -0.669157 0.131884  -0.0835001 -0.66528 0.130774  -0.101814 -0.732077 0.146173  -0.0749562 -0.736524 0.147394  -0.0758007 -0.713335 0.142051  -0.0966246 -0.73259 0.146397  -0.0973432 -0.709484 0.14092  -0.0706925 -0.714066 0.142295  -0.0922434 -0.710125 0.141097  -0.110789 -0.777256 0.15668  -0.0836797 -0.781721 0.158104  -0.0845098 -0.758531 0.152658  -0.105517 -0.777782 0.156953  -0.106262 -0.754602 0.151441  -0.0793631 -0.759237 0.152877  -0.101068 -0.755236 0.151624  -0.119863 -0.822569 0.167535  -0.0925167 -0.827064 0.168909  -0.0934412 -0.803814 0.163421  -0.114496 -0.823046 0.167769  -0.115319 -0.799854 0.162131  -0.0881426 -0.804505 0.163659  -0.110023 -0.800447 0.162317  -0.128935 -0.867913 0.178332  -0.101467 -0.872425 0.179895  -0.102356 -0.849214 0.174299  -0.123524 -0.868406 0.178611  -0.124367 -0.845189 0.172944  -0.0970407 -0.849854 0.174504  -0.119019 -0.845786 0.173144  -0.138062 -0.913271 0.189418  -0.110404 -0.917811 0.190944  -0.111407 -0.894582 0.185327  -0.132565 -0.913733 0.189665  -0.133499 -0.890557 0.183905  -0.105984 -0.895224 0.185573  -0.128061 -0.8911 0.184106  -0.147099 -0.958573 0.200416  -0.119435 -0.963117 0.202102  -0.120399 -0.939977 0.196357  -0.141608 -0.959065 0.200702  -0.142565 -0.935887 0.194922  -0.11495 -0.940553 0.196569  -0.137098 -0.936452 0.195151  -0.156129 -1.00381 0.211571  -0.128351 -1.00839 0.21326  -0.129425 -0.985246 0.207551  -0.150593 -1.00426 0.211826  -0.151621 -0.981182 0.206033  -0.123951 -0.985837 0.207811  -0.146119 -0.981685 0.206252  -0.165054 -1.04892 0.222598  -0.13733 -1.05347 0.224431  -0.138382 -1.03047 0.218566  -0.15953 -1.04944 0.222902  -0.160585 -1.02635 0.217082  -0.132838 -1.03102 0.218819  -0.15508 -1.02692 0.217337  -0.173922 -1.09387 0.233652  -0.146125 -1.09851 0.235469  -0.14724 -1.07548 0.229757  -0.16837 -1.09435 0.233924  -0.169505 -1.0714 0.228131  -0.141807 -1.07603 0.230058  -0.163968 -1.07193 0.228394  -0.182591 -1.13867 0.244562  -0.154922 -1.14342 0.246501  -0.156092 -1.12042 0.240642  -0.177142 -1.1393 0.244887  -0.178281 -1.11631 0.239098  -0.150466 -1.12096 0.240923  -0.172766 -1.11683 0.239403  0.00207402 -0.0033415 -0.00197315  0 0 0  0.00303951 -0.00520021 -0.00200033  0.000933655 -0.00179189 -0.00168943  0 0 0  0.00213061 -0.00382406 -0.00143051  0.00063362 -0.000986814 -0.00124502  0 0 0  0.000945263 -0.0020861 -0.00124407  0.000649169 -0.00123465 -0.000939131  0.0063076 -0.0126159 -0.00197315  0.00918439 -0.0155417 -0.00209188  0.00576544 -0.00916177 -0.00326633  0.00654107 -0.013496 -0.0011363  0.00402464 -0.00748098 -0.00217581  0.00586239 -0.00994951 -0.00224447  0.00415151 -0.00817561 -0.00146103  0.0109637 -0.0259062 -0.000406265  0.0160345 -0.0291736 -0.000609398  0.0123208 -0.0208137 -0.00277042  0.0114858 -0.0270773 0.00051856  0.00867307 -0.0188283 -0.00133371  0.0126606 -0.0219756 -0.00147986  0.00904024 -0.0198883 -0.000440359  0.0150115 -0.0425463 0.00226116  0.022242 -0.0459644 0.00203109  0.0186 -0.0358055 -0.000705719  0.0158902 -0.0438536 0.00318718  0.0130926 -0.0338122 0.000817299  0.0192325 -0.0371497 0.000628233  0.0137863 -0.0350565 0.00175047  0.0181555 -0.0624117 0.00570822  0.0273427 -0.0658537 0.00552177  0.0238939 -0.0540646 0.00242233  0.0193692 -0.0638262 0.00660729  0.0167042 -0.0520778 0.00388288  0.0249717 -0.0555153 0.0037303  0.0177594 -0.053459 0.00480294  0.0203595 -0.0852526 0.00985622  0.0314593 -0.0888464 0.00972247  0.028153 -0.0754876 0.00633955  0.0219183 -0.0866184 0.0107021  0.0193757 -0.0734586 0.00769377  0.0294695 -0.0769464 0.00759029  0.0207559 -0.0748385 0.00857687  0.0216056 -0.110951 0.0145469  0.0343681 -0.114513 0.0145278  0.0313412 -0.0998752 0.0109496  0.0234444 -0.112362 0.0153594  0.021106 -0.0977521 0.0120978  0.0331435 -0.101317 0.0121157  0.022823 -0.0991433 0.0129414  0.0219245 -0.139149 0.0198908  0.0363595 -0.142951 0.0199246  0.0334742 -0.12696 0.0161076  0.0240892 -0.140419 0.0206218  0.0218826 -0.124727 0.0171323  0.035377 -0.128357 0.01721  0.0238698 -0.12605 0.0179234  0.0213108 -0.16978 0.0256362  0.0371513 -0.173501 0.0258312  0.0345955 -0.156564 0.0218811  0.0237063 -0.171114 0.0263529  0.0217372 -0.154175 0.0226493  0.0370438 -0.1579 0.0228767  0.0240475 -0.155457 0.0234003  0.0198225 -0.202424 0.0320625  0.0371039 -0.20648 0.0322833  0.0346557 -0.188351 0.0280843  0.0225397 -0.203566 0.0326695  0.0206802 -0.185832 0.0287614  0.0370779 -0.189643 0.0290265  0.0232121 -0.187048 0.0294542  0.0174609 -0.237106 0.0387435  0.0359347 -0.241016 0.0391703  0.0338385 -0.222247 0.0348816  0.0203683 -0.238343 0.0393672  0.0187516 -0.219533 0.0352788  0.0368646 -0.223463 0.0357037  0.0216086 -0.220682 0.0359359  0.0143142 -0.273346 0.0461426  0.0339884 -0.277674 0.0465703  0.0319537 -0.257833 0.0420074  0.0175368 -0.274373 0.0466313  0.0159935 -0.255002 0.0423517  0.0348551 -0.259027 0.0427923  0.0190231 -0.256118 0.0429506  0.0103807 -0.311267 0.0536618  0.0310792 -0.315392 0.0543203  0.029393 -0.295177 0.0497007  0.0137637 -0.312412 0.0541987  0.0124443 -0.292128 0.0497746  0.0329186 -0.296294 0.0503621  0.0158026 -0.29316 0.050343  0.00577092 -0.350357 0.0619335  0.0274234 -0.35495 0.0625687  0.0257473 -0.333768 0.057652  0.00944877 -0.351303 0.0623121  0.00816953 -0.330633 0.0577083  0.0291094 -0.334888 0.0582881  0.0116568 -0.331672 0.058217  0.000472188 -0.39081 0.070199  0.0230209 -0.39515 0.0710788  0.0216793 -0.373822 0.0661335  0.00429475 -0.391864 0.070653  0.00320315 -0.370455 0.0659499  0.0256149 -0.374868 0.0666494  0.00701225 -0.371397 0.0664287  -0.00538182 -0.432099 0.0792136  0.0178821 -0.436916 0.0800662  0.0164943 -0.414729 0.0748167  -0.00130141 -0.432996 0.0795007  -0.00237811 -0.411319 0.0746236  0.0203021 -0.4158 0.075316  0.00152695 -0.412301 0.075048  -0.0118179 -0.474465 0.0881438  0.0122371 -0.478998 0.0892277  0.0111647 -0.456845 0.0839715  -0.0075922 -0.475424 0.0885224  -0.00853395 -0.453199 0.0835857  0.0154233 -0.457837 0.0843654  -0.00432968 -0.454078 0.0839815  -0.0186875 -0.517387 0.0977855  0.00586748 -0.522377 0.0988531  0.00468826 -0.499473 0.0932946  -0.0142562 -0.518266 0.0980015  -0.0151978 -0.495831 0.0928965  0.0089221 -0.500515 0.0936813  -0.0109127 -0.496773 0.093246  -0.0260265 -0.56113 0.107311  -0.000774384 -0.565822 0.108572  -0.00165653 -0.543088 0.103028  -0.0214407 -0.561995 0.107625  -0.0223048 -0.539214 0.102481  0.00285292 -0.544041 0.103327  -0.0177617 -0.540056 0.102804  -0.0336907 -0.605208 0.117466  -0.00811815 -0.610307 0.118733  -0.00916648 -0.586939 0.112916  -0.0289602 -0.606077 0.11763  -0.0298252 -0.583111 0.112336  -0.00453854 -0.587956 0.113207  -0.025203 -0.584013 0.11262  -0.0417161 -0.649875 0.127493  -0.0155425 -0.654671 0.128908  -0.0163109 -0.63157 0.123127  -0.0368161 -0.650646 0.127755  -0.037663 -0.627524 0.12244  -0.0115988 -0.632485 0.123352  -0.032835 -0.628342 0.122701  -0.0499656 -0.694692 0.138058  -0.0236092 -0.699838 0.139498  -0.0246003 -0.676221 0.133479  -0.0449815 -0.69555 0.138192  -0.0458302 -0.672259 0.13274  -0.0196247 -0.677203 0.133703  -0.0409112 -0.673114 0.132974  -0.0584683 -0.739906 0.148508  -0.0316176 -0.744755 0.150048  -0.0323417 -0.721461 0.144083  -0.0533149 -0.740594 0.148732  -0.0541856 -0.717301 0.143268  -0.0274541 -0.722336 0.144262  -0.0491257 -0.718098 0.143485  -0.0671194 -0.785128 0.159385  -0.0401866 -0.790255 0.160972  -0.0411699 -0.766573 0.154825  -0.061924 -0.785951 0.159506  -0.0627995 -0.762522 0.153927  -0.0359147 -0.767494 0.154999  -0.0576382 -0.763312 0.154126  -0.0759239 -0.830582 0.170164  -0.048599 -0.835422 0.171813  -0.04934 -0.812089 0.165735  -0.0705693 -0.8312 0.170369  -0.0714989 -0.807865 0.164775  -0.0442934 -0.812912 0.165893  -0.0662472 -0.808636 0.164968  -0.084811 -0.875939 0.181271  -0.0574808 -0.880981 0.182969  -0.058486 -0.857391 0.176781  -0.0794415 -0.876695 0.1814  -0.0803838 -0.853286 0.175706  -0.0530305 -0.858205 0.176921  -0.0750244 -0.85399 0.175889  -0.0937524 -0.9214 0.192272  -0.0661268 -0.926188 0.194016  -0.0669491 -0.902905 0.187902  -0.0882745 -0.921967 0.192477  -0.0892656 -0.898672 0.186793  -0.0617454 -0.903678 0.18807  -0.0838723 -0.899409 0.186986  -0.102724 -0.966701 0.20352  -0.0751286 -0.971601 0.205307  -0.0762069 -0.948216 0.199151  -0.097254 -0.967348 0.203687  -0.0982604 -0.944099 0.19787  -0.0706172 -0.94888 0.199297  -0.0927761 -0.944682 0.198071  -0.111701 -1.01197 0.214606  -0.083905 -1.01669 0.216426  -0.0848291 -0.993517 0.210373  -0.106158 -1.01253 0.214852  -0.107198 -0.989323 0.209084  -0.0794721 -0.99425 0.210576  -0.101728 -0.99002 0.209301  -0.120584 -1.05708 0.225852  -0.0929372 -1.0618 0.227672  -0.0939808 -1.03871 0.221701  -0.115078 -1.05762 0.226093  -0.116179 -1.03459 0.220195  -0.0884256 -1.03919 0.221878  -0.110627 -1.03508 0.220473  -0.129441 -1.10207 0.236808  -0.10159 -1.10678 0.238777  -0.102636 -1.08367 0.232785  -0.123842 -1.10269 0.237124  -0.124984 -1.07954 0.231408  -0.097254 -1.0844 0.233057  -0.119509 -1.0802 0.231689  -0.138276 -1.14679 0.247752  -0.11057 -1.15143 0.249621  -0.111542 -1.12865 0.243912  -0.132582 -1.14753 0.248014  -0.133875 -1.12451 0.242243  -0.106 -1.12902 0.244205  -0.128159 -1.12507 0.242574  0.00415009 -0.00651473 -0.0035677  0 0 0  0.00549248 -0.00985205 -0.00317359  0.00168079 -0.00458646 -0.00256729  0 0 0  0.00416996 -0.00714636 -0.00257277  0.00125792 -0.00295067 -0.00210571  0 0 0  0.00168467 -0.00499034 -0.00188136  0.00125774 -0.0032993 -0.00154257  0.0121145 -0.0170417 -0.00457716  0.0158179 -0.0214559 -0.00403309  0.0103791 -0.014318 -0.00549507  0.0123071 -0.0182006 -0.00304079  0.00790666 -0.0114054 -0.00435829  0.0104431 -0.0153694 -0.00389433  0.00798377 -0.0123149 -0.00303841  0.0205177 -0.0303663 -0.00347805  0.0262665 -0.0345896 -0.00294685  0.0208723 -0.0262457 -0.00573683  0.0209613 -0.0316932 -0.00175166  0.016403 -0.0232984 -0.0042181  0.0212009 -0.0276341 -0.0037241  0.0167297 -0.0245712 -0.002563  0.0280049 -0.0469161 -0.000817776  0.0357059 -0.0514833 -0.000359058  0.0305208 -0.0409907 -0.00395536  0.0288168 -0.048528 0.000876665  0.0243962 -0.0382076 -0.00229454  0.0310709 -0.0425661 -0.00184178  0.0249853 -0.03967 -0.000560999  0.0343853 -0.0667658 0.00272894  0.0440443 -0.0709575 0.0032239  0.0390936 -0.0591863 -0.0008111  0.0355528 -0.0682165 0.00439286  0.031338 -0.0564399 0.000867844  0.0400984 -0.0607578 0.00126457  0.0323786 -0.0579494 0.00256181  0.0396057 -0.089772 0.0072341  0.051002 -0.0944737 0.00768614  0.0463807 -0.0806408 0.00331688  0.0410902 -0.0914956 0.00876498  0.0371391 -0.0778812 0.0048852  0.0476441 -0.0822519 0.00529242  0.0384241 -0.0794299 0.00650644  0.043672 -0.115589 0.012146  0.0568642 -0.119877 0.0127144  0.0525187 -0.10518 0.0081749  0.0455025 -0.116976 0.0136018  0.0417876 -0.102354 0.00963402  0.0541652 -0.106673 0.010047  0.0435154 -0.103816 0.0111582  0.0465814 -0.144135 0.0179482  0.0612035 -0.14898 0.0184541  0.057257 -0.132461 0.0136948  0.0486296 -0.145856 0.0192637  0.045258 -0.129537 0.0149622  0.0592139 -0.133986 0.0154238  0.0471666 -0.131021 0.016387  0.0483818 -0.1749 0.0239124  0.064604 -0.17947 0.024601  0.0609391 -0.162297 0.019752  0.0507934 -0.176209 0.0251284  0.0476322 -0.159274 0.020874  0.0630913 -0.163646 0.0213866  0.0499347 -0.160606 0.0221987  0.0490685 -0.208013 0.0308042  0.0664732 -0.212933 0.0313931  0.0631924 -0.194362 0.0263615  0.05161 -0.209678 0.0319166  0.0488317 -0.191198 0.0272713  0.0658334 -0.195788 0.0278492  0.051319 -0.192588 0.0284944  0.0487479 -0.242771 0.0376925  0.0675097 -0.247802 0.038506  0.0645382 -0.22849 0.0334315  0.0516793 -0.244053 0.0386624  0.049058 -0.225235 0.0341711  0.0670718 -0.22969 0.0348406  0.0518433 -0.226429 0.0353045  0.0473814 -0.279566 0.0455232  0.0671972 -0.284436 0.0462141  0.0644826 -0.264392 0.0409789  0.0503815 -0.281128 0.046464  0.0481365 -0.260975 0.0415106  0.0678197 -0.265754 0.0422583  0.0511886 -0.262288 0.042551  0.0451541 -0.317482 0.0532584  0.0659901 -0.323106 0.0541906  0.0636826 -0.301932 0.0489454  0.0485411 -0.318803 0.0539899  0.0464152 -0.298443 0.0492778  0.066501 -0.303001 0.0501456  0.0495983 -0.299527 0.0502353  0.041959 -0.357179 0.0618706  0.0638659 -0.361849 0.0626884  0.0615799 -0.340856 0.0573058  0.0454 -0.358582 0.0626764  0.0435903 -0.3372 0.0574508  0.0656018 -0.342192 0.0584149  0.0471919 -0.338463 0.0583296  0.0380675 -0.397541 0.070405  0.0605536 -0.403804 0.0714355  0.0588574 -0.381041 0.0660615  0.0418465 -0.398953 0.0709167  0.0401564 -0.377343 0.0659809  0.0618919 -0.382 0.067071  0.0436618 -0.37835 0.0667763  0.0332997 -0.439447 0.0796456  0.0570078 -0.443793 0.0806069  0.0550102 -0.422283 0.0751228  0.0371788 -0.440641 0.0803528  0.0356823 -0.418423 0.0748882  0.059664 -0.423622 0.0760999  0.0398099 -0.419659 0.0756292  0.0280039 -0.481649 0.088922  0.051775 -0.488494 0.090045  0.050602 -0.464445 0.0845671  0.032115 -0.483168 0.0892477  0.030786 -0.460579 0.0840869  0.0538256 -0.465311 0.0854049  0.0345616 -0.461533 0.0847387  0.0219333 -0.525161 0.0986519  0.0471597 -0.529121 0.0997753  0.0453255 -0.507407 0.0942254  0.0262394 -0.52612 0.0992904  0.024941 -0.503384 0.0936246  0.0505292 -0.508758 0.0950985  0.0295501 -0.504607 0.0942507  0.0154929 -0.568692 0.108608  0.0402498 -0.575981 0.109802  0.0394907 -0.550985 0.10424  0.019882 -0.570304 0.108787  0.0188334 -0.54699 0.103405  0.0429077 -0.551763 0.104923  0.0228467 -0.547905 0.10393  0.00839186 -0.613295 0.118717  0.0348401 -0.616892 0.119999  0.0330844 -0.595155 0.114407  0.0130951 -0.614025 0.119307  0.0118976 -0.591016 0.113482  0.0387249 -0.596516 0.115192  0.016921 -0.592226 0.114012  0.00104737 -0.657724 0.129255  0.0265603 -0.66525 0.130517  0.0260918 -0.639678 0.124882  0.0056746 -0.659376 0.129327  0.00482106 -0.635596 0.123752  0.0297275 -0.640368 0.125431  0.00905943 -0.636469 0.124168  -0.00683141 -0.70299 0.13966  0.0205407 -0.70632 0.141096  0.0188179 -0.684622 0.135467  -0.00177336 -0.703527 0.140209  -0.00294566 -0.680409 0.134258  0.0247729 -0.685969 0.13617  0.00241685 -0.681588 0.134711  -0.0148506 -0.747954 0.150669  0.0112464 -0.755474 0.152003  0.0109398 -0.729702 0.146298  -0.0100131 -0.749575 0.150675  -0.0107594 -0.725569 0.144946  0.0148311 -0.730305 0.146737  -0.00629139 -0.726395 0.145273  -0.023279 -0.793537 0.161328  0.0047133 -0.796764 0.1629  0.00302172 -0.77506 0.157224  -0.0179315 -0.793947 0.161834  -0.0191219 -0.770818 0.155795  0.00916219 -0.776359 0.157847  -0.013509 -0.771935 0.156186  -0.0317626 -0.838749 0.172668  -0.0052104 -0.845982 0.174085  -0.00547934 -0.820395 0.168321  -0.0267367 -0.840234 0.172648  -0.0274572 -0.816243 0.166815  -0.00129414 -0.820912 0.168671  -0.0227537 -0.817008 0.167078  -0.0405509 -0.884376 0.183553  -0.012229 -0.88771 0.185225  -0.0138543 -0.865872 0.179502  -0.0349853 -0.884737 0.184005  -0.0362134 -0.861643 0.17791  -0.00767255 -0.867078 0.180042  -0.030442 -0.862652 0.178252  -0.0493133 -0.92961 0.19505  -0.0223913 -0.936261 0.196589  -0.0227308 -0.911239 0.19076  -0.0441115 -0.930859 0.195056  -0.0448813 -0.907077 0.189168  -0.0182059 -0.911668 0.191043  -0.0399272 -0.907781 0.189388  -0.0582724 -0.975074 0.206154  -0.0299184 -0.978776 0.207877  -0.0313902 -0.956611 0.202117  -0.0525889 -0.975496 0.206535  -0.0538526 -0.952424 0.200435  -0.025353 -0.957664 0.202578  -0.0480208 -0.953282 0.200747  -0.0670631 -1.02022 0.217605  -0.0399086 -1.02605 0.219317  -0.0404162 -1.00188 0.213396  -0.0617816 -1.02112 0.217686  -0.0626383 -0.997708 0.21181  -0.0355284 -1.00221 0.213638  -0.0574582 -0.998332 0.21203  -0.0760536 -1.06538 0.228756  -0.0478888 -1.06954 0.23066  -0.049201 -1.04698 0.224826  -0.0703702 -1.0659 0.229088  -0.0715959 -1.04287 0.223089  -0.0434172 -1.04782 0.225228  -0.0658743 -1.0435 0.223372  -0.0847688 -1.1103 0.239906  -0.0572803 -1.11518 0.241725  -0.0580647 -1.09208 0.235873  -0.0793669 -1.11091 0.240176  -0.0804074 -1.08785 0.234288  -0.0528932 -1.09237 0.236155  -0.0750105 -1.08851 0.23456  -0.0935581 -1.15514 0.250898  -0.0652421 -1.15965 0.252964  -0.0669529 -1.13689 0.247282  -0.0880024 -1.15547 0.251269  -0.0891953 -1.13278 0.245402  -0.0612619 -1.13743 0.247687  -0.0836036 -1.13313 0.245654  0.00762127 -0.0129091 -0.00527287  0 0 0  0.0109154 -0.0189728 -0.00465679  0.00367075 -0.0105105 -0.0036993  0 0 0  0.00772554 -0.01378 -0.00386691  0.00227606 -0.00691867 -0.00297642  0 0 0  0.00377139 -0.0111694 -0.00275731  0.00229961 -0.00740808 -0.00218916  0.0198062 -0.0235727 -0.0073452  0.024822 -0.0288113 -0.00639153  0.0179372 -0.0220689 -0.00806808  0.0200085 -0.0250796 -0.00514793  0.0138114 -0.01794 -0.00671148  0.0182772 -0.0234106 -0.00590825  0.0139844 -0.0191463 -0.00483227  0.0314758 -0.0364001 -0.00670624  0.0380292 -0.0418093 -0.00560188  0.0310306 -0.0331451 -0.00903559  0.0319302 -0.0379432 -0.00425172  0.0257119 -0.0295625 -0.00735044  0.0313139 -0.0347808 -0.00626373  0.0259915 -0.0310714 -0.0049634  0.042225 -0.0527696 -0.0042057  0.050518 -0.0580686 -0.00317359  0.0438809 -0.0476419 -0.00749111  0.0429265 -0.0546421 -0.00171328  0.0369979 -0.0441389 -0.00568295  0.0445769 -0.049377 -0.0046196  0.0376242 -0.0458201 -0.00318289  0.0517348 -0.0725785 -0.000380516  0.0619966 -0.0780208 0.000697136  0.0555679 -0.0657011 -0.00425243  0.0528553 -0.0741912 0.00198436  0.0471444 -0.0622697 -0.00251865  0.0562667 -0.0673805 -0.00137401  0.0479943 -0.0638961 -4.76837e-05  0.0599216 -0.0956482 0.0041914  0.0718689 -0.100808 0.00521255  0.0659841 -0.087237 7.34329e-05  0.0612724 -0.0975153 0.00650191  0.0559872 -0.0837619 0.00175524  0.067403 -0.0889081 0.00278544  0.0573383 -0.085434 0.00409746  0.066745 -0.121639 0.0097208  0.0803983 -0.127298 0.0107131  0.0748542 -0.111796 0.00526047  0.0684902 -0.123282 0.0117967  0.0635102 -0.108317 0.00676012  0.0760865 -0.113324 0.0078814  0.0649714 -0.109842 0.00898814  0.0722251 -0.150328 0.015492  0.0874419 -0.155312 0.0165606  0.0823941 -0.139333 0.0110841  0.0741849 -0.152013 0.0175662  0.0696297 -0.135733 0.0125017  0.0845003 -0.140888 0.0135045  0.0716616 -0.137301 0.0145555  0.0763621 -0.181389 0.0223074  0.09288 -0.187375 0.0231719  0.0883189 -0.169206 0.0175104  0.0786077 -0.183171 0.0240793  0.0744683 -0.165592 0.018755  0.0900614 -0.170585 0.0198269  0.0764689 -0.166993 0.0206895  0.07924 -0.214629 0.0289655  0.0973341 -0.219379 0.030149  0.093045 -0.201616 0.0244718  0.0817983 -0.215979 0.0308318  0.0779216 -0.197843 0.0256004  0.0957105 -0.203078 0.0266004  0.0805513 -0.199295 0.0273633  0.080842 -0.249776 0.0368996  0.0997553 -0.256097 0.0375957  0.0961717 -0.235745 0.0318909  0.0834757 -0.251838 0.0383954  0.0802056 -0.231972 0.0328908  0.0984403 -0.237053 0.0339026  0.0827062 -0.233294 0.0345387  0.0813284 -0.286623 0.0442915  0.101942 -0.291091 0.0456376  0.0982766 -0.27203 0.039825  0.0845077 -0.2875 0.0459895  0.0811818 -0.268086 0.040658  0.101344 -0.273434 0.0416718  0.0843271 -0.26944 0.0421524  0.0806233 -0.325004 0.0532012  0.101553 -0.331571 0.053709  0.0988455 -0.309528 0.0480905  0.0835524 -0.327452 0.05446  0.0811244 -0.305604 0.0488596  0.101701 -0.310868 0.0498061  0.0841135 -0.306906 0.0502367  0.0789876 -0.364647 0.0612359  0.101772 -0.368819 0.062778  0.0985861 -0.348817 0.0568871  0.0828073 -0.364953 0.0627947  0.0798837 -0.34473 0.0574064  0.101896 -0.35019 0.058455  0.0834533 -0.346009 0.0586605  0.0762489 -0.405528 0.0709615  0.0988911 -0.41217 0.0713043  0.0969046 -0.388936 0.0658808  0.0794071 -0.408391 0.0720229  0.0777475 -0.384885 0.0663986  0.100405 -0.39041 0.0673051  0.0812217 -0.386221 0.0675292  0.0727806 -0.447265 0.0796113  0.097367 -0.451177 0.0813427  0.094563 -0.430474 0.0754142  0.07723 -0.446972 0.0810423  0.0745833 -0.426287 0.0756078  0.0979643 -0.431822 0.0766935  0.0784833 -0.427505 0.0766468  0.06831 -0.490014 0.0899844  0.0924206 -0.496536 0.0902076  0.0909545 -0.472581 0.0850568  0.0716689 -0.493234 0.0908828  0.0706549 -0.468433 0.0852728  0.0951319 -0.474254 0.0861964  0.0746071 -0.469829 0.0861869  0.063307 -0.533254 0.0992193  0.0893145 -0.536964 0.101108  0.0868258 -0.51574 0.0951843  0.0683279 -0.53241 0.100523  0.0658743 -0.511494 0.0950494  0.0902305 -0.51705 0.0961628  0.0700209 -0.512658 0.0958934  0.0574064 -0.577332 0.110062  0.0827725 -0.583577 0.110244  0.0816169 -0.55929 0.105371  0.0609703 -0.580787 0.110826  0.060446 -0.555084 0.105256  0.086458 -0.561176 0.106251  0.0648527 -0.55653 0.105984  0.0511589 -0.621584 0.119855  0.0782111 -0.625159 0.121859  0.0760078 -0.603548 0.11596  0.0566535 -0.620312 0.121024  0.0543485 -0.59928 0.115508  0.0793951 -0.604805 0.116645  0.0586839 -0.6004 0.116179  0.0441327 -0.666528 0.131032  0.0705359 -0.67241 0.131257  0.0695133 -0.648074 0.126603  0.0479233 -0.670047 0.131681  0.0477169 -0.643848 0.126139  0.0749424 -0.65012 0.127255  0.0525329 -0.645298 0.126718  0.0369048 -0.711389 0.141323  0.064656 -0.714895 0.14339  0.0627248 -0.693015 0.137525  0.0427432 -0.709863 0.142349  0.0405819 -0.688756 0.136793  0.0661466 -0.694195 0.137949  0.0450761 -0.689828 0.13731  0.0290322 -0.756818 0.152731  0.0562432 -0.762338 0.153082  0.0552309 -0.738122 0.14853  0.0330856 -0.760213 0.153277  0.0330224 -0.733905 0.147732  0.0611157 -0.740218 0.149  0.0381815 -0.735296 0.148195  0.0210676 -0.801973 0.163446  0.0492134 -0.805473 0.165536  0.0475423 -0.783412 0.159685  0.0271077 -0.800402 0.164323  0.0251095 -0.779182 0.158727  0.0511167 -0.784498 0.159905  0.0297611 -0.780203 0.159113  0.0126057 -0.847579 0.175013  0.0403817 -0.852798 0.175573  0.03931 -0.828797 0.170966  0.0169604 -0.850638 0.175463  0.0168734 -0.824602 0.169879  0.0454776 -0.830781 0.171304  0.0222933 -0.825849 0.170252  0.00412178 -0.892787 0.186033  0.0323691 -0.896353 0.188105  0.0309877 -0.874164 0.182253  0.0102038 -0.891414 0.186751  0.00842047 -0.869973 0.181132  0.0348523 -0.875134 0.18234  0.0132411 -0.870937 0.181414  -0.00470686 -0.938323 0.197708  0.0234232 -0.943383 0.198573  0.0222344 -0.919594 0.193707  -5.96046e-06 -0.940819 0.198071  -0.000279903 -0.915434 0.192392  0.0284822 -0.921273 0.193984  0.00531173 -0.91643 0.192699  -0.0134895 -0.983429 0.208898  0.0146985 -0.987177 0.210938  0.013541 -0.964835 0.205042  -0.00752258 -0.982514 0.209485  -0.00904608 -0.96068 0.203803  0.0179067 -0.965705 0.2051  -0.0040288 -0.961587 0.20403  -0.0224514 -1.0287 0.220563  0.0057919 -1.03374 0.221792  0.00449109 -1.01018 0.216574  -0.0174055 -1.03051 0.220873  -0.0179875 -1.00605 0.215061  0.010627 -1.01136 0.216871  -0.0123324 -1.00672 0.215343  -0.0312908 -1.07366 0.231741  -0.00323582 -1.07755 0.233661  -0.00428653 -1.05521 0.227789  -0.0255213 -1.07331 0.232244  -0.0268507 -1.05104 0.226474  0.000669241 -1.05592 0.227928  -0.0215979 -1.05187 0.226714  -0.0401404 -1.11865 0.243134  -0.0120325 -1.12356 0.244898  -0.0133972 -1.10029 0.239237  -0.0347433 -1.11951 0.243471  -0.0357366 -1.09623 0.237541  -0.0075314 -1.10085 0.239583  -0.0301328 -1.09653 0.237892  -0.048919 -1.16339 0.253962  -0.0200534 -1.16864 0.256057  -0.0221446 -1.14505 0.25008  -0.0430138 -1.16387 0.25428  -0.0445416 -1.14098 0.248629  -0.0163953 -1.14603 0.250714  -0.0389669 -1.14173 0.248941  -0.0129417 -0.0177184 0.0089798  -0.00488291 -0.00999789 0.00659227  0 0 0  -0.00950796 -0.0107709 0.0108099  0 0 0  -0.00645692 -0.00766432 0.00704622  -0.00218424 -0.00312508 0.00529051  0 0 0  -0.00470411 -0.0103097 0.00490427  -0.00899595 -0.0118569 0.00799322  -0.00294339 -0.0056728 0.00571442  0 0 0  -0.00200102 -0.00363569 0.00384855  -0.00271745 -0.00613137 0.00424385  -0.0295134 -0.0250295 0.0148191  -0.0220977 -0.0191166 0.0162153  -0.0249937 -0.019283 0.0172739  -0.0189945 -0.0173834 0.0120654  -0.0133279 -0.0109729 0.0128946  -0.0214082 -0.0207697 0.0122733  -0.0238518 -0.0210863 0.013454  -0.0172708 -0.0147241 0.0145459  -0.0124094 -0.0122799 0.00982714  -0.0164042 -0.0161762 0.0110507  -0.0457291 -0.0355167 0.0181031  -0.0387796 -0.0278007 0.0209756  -0.0398485 -0.0299282 0.020216  -0.0320902 -0.0288072 0.015027  -0.0269112 -0.0209353 0.0169573  -0.0375818 -0.0298817 0.0167017  -0.0385689 -0.0318994 0.0165811  -0.0325258 -0.0241702 0.0189581  -0.0256379 -0.0227089 0.0136838  -0.0312511 -0.0261007 0.0152044  -0.0617797 -0.0490722 0.0200815  -0.0550949 -0.0398416 0.0232267  -0.0541387 -0.0441127 0.0220928  -0.0446297 -0.0434065 0.0171494  -0.0396402 -0.0338376 0.0192103  -0.0538139 -0.0418755 0.0191698  -0.052878 -0.0459994 0.0186357  -0.0470357 -0.0365944 0.0212183  -0.0384003 -0.0357012 0.0161166  -0.0457785 -0.0385413 0.0176606  -0.0773663 -0.0658646 0.021822  -0.0709891 -0.0552361 0.0247555  -0.068126 -0.0615787 0.0237894  -0.0568802 -0.0611895 0.0192342  -0.0520287 -0.0501114 0.0210896  -0.0696334 -0.0570878 0.0209503  -0.066793 -0.0633135 0.0205522  -0.0611649 -0.0524488 0.0229287  -0.0507858 -0.051914 0.018168  -0.0598807 -0.0542735 0.0195794  -0.0924891 -0.085632 0.0238152  -0.0864738 -0.0737485 0.0263066  -0.0818722 -0.082025 0.0257788  -0.068934 -0.0819375 0.0216537  -0.0642902 -0.0695294 0.0231199  -0.0849854 -0.0754009 0.0227709  -0.0803863 -0.083604 0.0227647  -0.0750262 -0.0714459 0.0247345  -0.0629261 -0.0712102 0.020391  -0.0736274 -0.0731091 0.0216069  -0.107178 -0.108125 0.0262856  -0.101569 -0.0950881 0.028254  -0.0954036 -0.105192 0.0282435  -0.0808511 -0.105406 0.0245667  -0.0764483 -0.0918034 0.0255861  -0.0998874 -0.0965613 0.0249882  -0.0936995 -0.106616 0.0254574  -0.0886637 -0.0932819 0.0269442  -0.0749085 -0.0933477 0.0230474  -0.0870768 -0.0947893 0.0240445  -0.121484 -0.133123 0.0293298  -0.116297 -0.119018 0.0307388  -0.108726 -0.130819 0.0312843  -0.0926595 -0.131349 0.0280452  -0.0885563 -0.116665 0.0285797  -0.114376 -0.120332 0.0277352  -0.106771 -0.132111 0.0287213  -0.10209 -0.117708 0.0296903  -0.0867659 -0.118079 0.026237  -0.100263 -0.119069 0.0270166  -0.13545 -0.160418 0.0329661  -0.130688 -0.145317 0.0338273  -0.121861 -0.158727 0.0349092  -0.104382 -0.15958 0.0320911  -0.100573 -0.143901 0.0321512  -0.12851 -0.146502 0.0310769  -0.119632 -0.159898 0.0325627  -0.115315 -0.144496 0.0330215  -0.0985314 -0.145192 0.0299973  -0.113227 -0.145734 0.0305672  -0.149117 -0.189837 0.0371919  -0.144774 -0.173808 0.0375209  -0.134808 -0.188706 0.0391212  -0.116029 -0.189891 0.0367069  -0.112544 -0.173298 0.0362973  -0.142319 -0.174881 0.0350094  -0.132303 -0.18978 0.0369835  -0.128357 -0.173465 0.036943  -0.110213 -0.174485 0.0343323  -0.12599 -0.17459 0.0347033  -0.1625 -0.221209 0.0419769  -0.158566 -0.204314 0.0417924  -0.147586 -0.220622 0.043891  -0.127612 -0.222135 0.0418563  -0.124428 -0.204697 0.0410032  -0.155847 -0.205297 0.039515  -0.144804 -0.221606 0.041955  -0.141216 -0.204432 0.0414343  -0.121831 -0.205784 0.0392151  -0.138577 -0.205466 0.0393982  -0.17563 -0.25438 0.0473027  -0.172092 -0.236686 0.0466318  -0.160191 -0.254286 0.0491958  -0.13913 -0.256117 0.047533  -0.13626 -0.237907 0.0462456  -0.169095 -0.237588 0.0445747  -0.157143 -0.255196 0.0474544  -0.153911 -0.237242 0.0464754  -0.133376 -0.238917 0.0446358  -0.150993 -0.238194 0.0446382  -0.188511 -0.289191 0.0531435  -0.185348 -0.270762 0.0520039  -0.172637 -0.289568 0.0550222  -0.150591 -0.291713 0.0536985  -0.14801 -0.272793 0.0520039  -0.182106 -0.271598 0.0501575  -0.169331 -0.290414 0.0534606  -0.166429 -0.271734 0.052042  -0.144872 -0.273725 0.0505548  -0.163257 -0.272618 0.0503907  -0.201159 -0.325495 0.0594759  -0.198371 -0.306395 0.057899  -0.184911 -0.326301 0.0613256  -0.161975 -0.328732 0.0603414  -0.159686 -0.309177 0.0582523  -0.194863 -0.307174 0.0562534  -0.181362 -0.327085 0.0599451  -0.1788 -0.307757 0.0581117  -0.156289 -0.310053 0.0569668  -0.175366 -0.308579 0.056643  -0.213571 -0.363149 0.0662746  -0.21112 -0.343444 0.06427  -0.197024 -0.364355 0.0681105  -0.173291 -0.367075 0.0674205  -0.171282 -0.346936 0.0649643  -0.207401 -0.344171 0.0628128  -0.193241 -0.365094 0.0668869  -0.19098 -0.345171 0.0646553  -0.167648 -0.34775 0.0638251  -0.187323 -0.345939 0.063354  -0.225751 -0.402022 0.0735106  -0.223657 -0.381766 0.0711141  -0.208958 -0.403597 0.0753088  -0.18451 -0.406555 0.0749364  -0.18277 -0.385912 0.0721202  -0.219689 -0.38245 0.0698404  -0.204954 -0.404278 0.0742579  -0.203021 -0.383829 0.07165  -0.178909 -0.386682 0.0711298  -0.199119 -0.384551 0.0705152  -0.237695 -0.441978 0.0811801  -0.235905 -0.421244 0.0783911  -0.220714 -0.443875 0.0829673  -0.195641 -0.447092 0.0828443  -0.194176 -0.425984 0.0796943  -0.231759 -0.421882 0.0772872  -0.216506 -0.444532 0.0820503  -0.214846 -0.423613 0.0790815  -0.190094 -0.426705 0.078836  -0.210753 -0.424289 0.0780969  -0.249402 -0.48289 0.0892448  -0.247952 -0.461718 0.0861063  -0.23228 -0.485097 0.0909839  -0.206648 -0.488505 0.0911455  -0.205427 -0.467012 0.0876732  -0.243579 -0.462332 0.0851674  -0.227875 -0.4857 0.0902252  -0.226531 -0.464367 0.0869207  -0.201157 -0.467699 0.0869474  -0.222216 -0.465014 0.0860868  -0.260872 -0.52464 0.0977015  -0.259689 -0.503105 0.094214  -0.243645 -0.527096 0.0994287  -0.21754 -0.53073 0.0997872  -0.216589 -0.508878 0.0960259  -0.255174 -0.503678 0.0934215  -0.23907 -0.527693 0.0987816  -0.237971 -0.506005 0.0951557  -0.212116 -0.509531 0.0954194  -0.233497 -0.506612 0.0944538  -0.272091 -0.567111 0.106492  -0.271235 -0.54524 0.102698  -0.254811 -0.569822 0.108164  -0.228283 -0.573596 0.108786  -0.227552 -0.551472 0.104737  -0.266513 -0.545804 0.102054  -0.250065 -0.570366 0.107664  -0.249266 -0.548366 0.103745  -0.222927 -0.552095 0.104245  -0.244596 -0.548958 0.103175  -0.283071 -0.610198 0.115637  -0.282446 -0.588069 0.111537  -0.265754 -0.613089 0.117301  -0.238888 -0.617058 0.118073  -0.238417 -0.594668 0.113775  -0.277618 -0.588593 0.111018  -0.26087 -0.613642 0.116889  -0.260292 -0.59139 0.112688  -0.233613 -0.595267 0.113387  -0.255493 -0.591946 0.112232  -0.2938 -0.653799 0.125073  -0.293478 -0.631424 0.120711  -0.276493 -0.656893 0.126676  -0.249322 -0.660958 0.127675  -0.249045 -0.63839 0.123129  -0.288467 -0.631951 0.12032  -0.271463 -0.657397 0.126396  -0.271164 -0.634921 0.121945  -0.244123 -0.638965 0.122839  -0.266196 -0.635472 0.121602  -0.304288 -0.697818 0.134817  -0.304168 -0.675277 0.130193  -0.286992 -0.701036 0.136407  -0.259595 -0.705259 0.137517  -0.259566 -0.682509 0.132758  -0.29908 -0.67577 0.129907  -0.281855 -0.701557 0.136199  -0.281751 -0.678923 0.131503  -0.254488 -0.683071 0.132562  -0.276686 -0.679442 0.131259  -0.314529 -0.742172 0.144797  -0.314678 -0.719467 0.139952  -0.297284 -0.745544 0.146327  -0.269685 -0.749826 0.147632  -0.269821 -0.726981 0.142662  -0.30944 -0.71997 0.139775  -0.292031 -0.74602 0.146232  -0.292178 -0.723239 0.141329  -0.26466 -0.727521 0.142545  -0.286974 -0.723763 0.14118  -0.324538 -0.786781 0.155041  -0.324852 -0.763981 0.149981  -0.307332 -0.790225 0.156549  -0.279606 -0.794635 0.157928  -0.27996 -0.771677 0.152793  -0.319568 -0.764457 0.149889  -0.302006 -0.790727 0.156508  -0.302317 -0.767859 0.151407  -0.274674 -0.772212 0.152755  -0.297045 -0.768357 0.15134  -0.33431 -0.831574 0.165461  -0.334854 -0.808677 0.160229  -0.31718 -0.835126 0.166909  -0.289339 -0.839567 0.16844  -0.28983 -0.81658 0.163137  -0.329455 -0.809169 0.160224  -0.311772 -0.835594 0.166963  -0.312294 -0.812643 0.161701  -0.284493 -0.817096 0.163161  -0.306919 -0.813151 0.161708  -0.343865 -0.876485 0.176078  -0.344542 -0.853556 0.170687  -0.326789 -0.880077 0.177498  -0.298901 -0.884612 0.179071  -0.299573 -0.861569 0.173649  -0.33912 -0.854026 0.170748  -0.321337 -0.880568 0.177588  -0.321993 -0.85759 0.172181  -0.294148 -0.862086 0.173738  -0.31658 -0.858079 0.172256  -0.353231 -0.921476 0.186781  -0.354057 -0.8985 0.181282  -0.336216 -0.925122 0.18816  -0.308279 -0.929671 0.189846  -0.309064 -0.906645 0.18431  -0.348571 -0.898989 0.181412  -0.33072 -0.925591 0.188322  -0.331536 -0.902584 0.182807  -0.303608 -0.907146 0.184443  -0.326052 -0.903081 0.182936  -0.362373 -0.966447 0.197635  -0.363309 -0.943504 0.192017  -0.345425 -0.970115 0.198949  -0.317497 -0.974734 0.200662  -0.318417 -0.951697 0.195073  -0.357836 -0.943963 0.192195  -0.339903 -0.97061 0.199147  -0.340832 -0.94762 0.19354  -0.312912 -0.952206 0.195255  -0.335336 -0.948101 0.193722  -0.371365 -1.01144 0.208441  -0.372415 -0.988454 0.202815  -0.354462 -1.01511 0.209775  -0.326561 -1.01971 0.211529  -0.327553 -0.996737 0.205879  -0.366884 -0.98897 0.203033  -0.348948 -1.01559 0.209994  -0.349967 -0.992607 0.204351  -0.322044 -0.997246 0.206088  -0.34444 -0.993125 0.204565  -0.380259 -1.05633 0.219321  -0.381308 -1.03339 0.213653  -0.36333 -1.05999 0.220498  -0.335475 -1.06464 0.222281  -0.336549 -1.04168 0.21669  -0.37583 -1.0339 0.213906  -0.357851 -1.06049 0.220753  -0.358901 -1.03755 0.215152  -0.331046 -1.04218 0.216925  -0.353423 -1.03804 0.21539  -0.389086 -1.10121 0.229968  -0.390131 -1.07826 0.224375  -0.372183 -1.1048 0.231261  -0.344317 -1.10942 0.233073  -0.345436 -1.08653 0.227457  -0.384671 -1.07878 0.224652  -0.366709 -1.10532 0.231498  -0.367761 -1.0824 0.225904  -0.339885 -1.08704 0.227707  -0.362267 -1.08291 0.226152  -0.00545255 -0.00412253 0.00832176  0 0 0  -0.00379163 -0.00323889 0.00516176  -0.00131468 -0.00052087 0.00390339  0 0 0  -0.00499148 -0.00500073 0.00611448  -0.00167098 -0.00154541 0.00456333  0 0 0  -0.0011726 -0.000989273 0.00278616  -0.00149868 -0.0020445 0.00329828  -0.0161484 -0.0127961 0.0135326  -0.0116092 -0.0119565 0.00915241  -0.0081374 -0.00602537 0.0095892  -0.0150428 -0.0142606 0.0106325  -0.0105231 -0.00806767 0.0112286  -0.00738327 -0.00715896 0.00732279  -0.0096785 -0.00927259 0.0085783  -0.0273581 -0.024505 0.016171  -0.0206847 -0.0242128 0.0118203  -0.0172538 -0.0161306 0.0129399  -0.026133 -0.0262531 0.0134592  -0.0218362 -0.0182326 0.0149717  -0.0161207 -0.0176868 0.0105619  -0.0206176 -0.019877 0.0121498  -0.0381404 -0.0394816 0.0181937  -0.0297311 -0.0396235 0.0140481  -0.0263921 -0.0297566 0.0151448  -0.0369318 -0.0412838 0.0156274  -0.0327689 -0.0315663 0.0172005  -0.0252267 -0.0315134 0.0129299  -0.0315634 -0.0333643 0.014554  -0.0488182 -0.057726 0.0202818  -0.0386832 -0.0581833 0.0164499  -0.0354291 -0.0467305 0.0172825  -0.0475381 -0.0594803 0.0178723  -0.043485 -0.0482094 0.0192089  -0.0342112 -0.0485223 0.0152068  -0.0422517 -0.0500017 0.0167165  -0.0594986 -0.0789883 0.0227404  -0.047658 -0.0796891 0.0192766  -0.0445119 -0.0668418 0.019743  -0.0580577 -0.0806298 0.0204911  -0.0541527 -0.0679955 0.0214562  -0.0431606 -0.0685803 0.0178022  -0.0528036 -0.0697006 0.0191259  -0.070218 -0.102968 0.0257092  -0.0567387 -0.103914 0.022613  -0.0537369 -0.0898333 0.0226789  -0.0685623 -0.1045 0.0236216  -0.0648527 -0.0906502 0.024159  -0.0521824 -0.0914759 0.0208735  -0.0633087 -0.0922417 0.0219908  -0.0809983 -0.129446 0.0292335  -0.0659533 -0.130624 0.0265183  -0.0631202 -0.115437 0.0261636  -0.0790834 -0.130847 0.0273066  -0.0755973 -0.115904 0.0274014  -0.0613274 -0.116969 0.0244923  -0.0738194 -0.117375 0.0253954  -0.0918223 -0.158176 0.0333266  -0.0753263 -0.159612 0.0309701  -0.0726845 -0.143424 0.0302072  -0.08964 -0.159478 0.0315642  -0.0864071 -0.143537 0.0312109  -0.0706185 -0.144846 0.0286708  -0.0843566 -0.144891 0.029367  -0.1027 -0.188997 0.0379791  -0.0848427 -0.190685 0.0359764  -0.0824006 -0.17358 0.0348034  -0.100235 -0.190186 0.0363655  -0.0972484 -0.173331 0.0355854  -0.0800681 -0.174898 0.0333986  -0.0949317 -0.17458 0.0338984  -0.113609 -0.221702 0.04316  -0.0945141 -0.223652 0.0414882  -0.0922743 -0.205719 0.0399342  -0.110872 -0.22281 0.0417061  -0.108155 -0.205116 0.0405021  -0.0896553 -0.206941 0.0386591  -0.105548 -0.206269 0.0389719  -0.124555 -0.256143 0.0488691  -0.104309 -0.258355 0.0475197  -0.102279 -0.239659 0.0455809  -0.121543 -0.257162 0.0475492  -0.119068 -0.238706 0.0459518  -0.0994015 -0.240796 0.0444312  -0.116202 -0.239777 0.0445671  -0.13551 -0.292151 0.0550513  -0.114237 -0.294609 0.054008  -0.112403 -0.275235 0.0517278  -0.132245 -0.293105 0.0538864  -0.130038 -0.27395 0.0518966  -0.10925 -0.276297 0.0506973  -0.126891 -0.274944 0.0506611  -0.146479 -0.329571 0.0617285  -0.124256 -0.332287 0.060966  -0.122634 -0.312289 0.0583334  -0.142962 -0.330458 0.0606775  -0.140979 -0.310683 0.0583334  -0.119245 -0.313281 0.0574193  -0.137601 -0.311612 0.0572262  -0.157433 -0.368278 0.0688114  -0.134371 -0.371207 0.0683365  -0.132938 -0.350667 0.0653973  -0.153685 -0.369108 0.0679097  -0.151967 -0.348758 0.0652127  -0.129292 -0.351602 0.0645885  -0.148325 -0.349629 0.0642438  -0.16836 -0.408092 0.0763583  -0.144534 -0.411268 0.0761247  -0.143316 -0.390228 0.072865  -0.16439 -0.408878 0.0755525  -0.162882 -0.38804 0.072535  -0.139461 -0.391105 0.0721655  -0.159038 -0.388858 0.0716825  -0.179248 -0.448945 0.0842576  -0.154745 -0.45229 0.0842919  -0.153706 -0.430835 0.0807557  -0.175069 -0.449675 0.0835943  -0.17382 -0.428382 0.0802565  -0.14962 -0.431669 0.080152  -0.169736 -0.429155 0.0795307  -0.190063 -0.490623 0.0925908  -0.164965 -0.494198 0.092823  -0.16414 -0.472357 0.0890012  -0.185695 -0.491332 0.0920043  -0.184642 -0.46967 0.0883775  -0.159873 -0.473143 0.0884948  -0.180386 -0.470401 0.0877547  -0.200816 -0.533119 0.101215  -0.175182 -0.536815 0.101692  -0.174527 -0.514676 0.0976286  -0.196259 -0.533769 0.100762  -0.19546 -0.511761 0.0968566  -0.170057 -0.51543 0.0972075  -0.190988 -0.512459 0.0963454  -0.211443 -0.576184 0.110238  -0.185366 -0.580087 0.110872  -0.184928 -0.557665 0.106563  -0.206731 -0.576832 0.109848  -0.206121 -0.554566 0.105686  -0.1803 -0.558378 0.106227  -0.201504 -0.555228 0.105268  -0.221984 -0.619874 0.119501  -0.195497 -0.623852 0.120356  -0.195216 -0.601235 0.115831  -0.21711 -0.620461 0.119234  -0.216738 -0.597943 0.114828  -0.19042 -0.601922 0.115572  -0.211937 -0.598582 0.114507  -0.232361 -0.663911 0.129122  -0.205561 -0.668071 0.130098  -0.205487 -0.64526 0.125365  -0.227365 -0.664513 0.128906  -0.227168 -0.64183 0.124278  -0.200561 -0.645913 0.125181  -0.222249 -0.642439 0.124039  -0.242629 -0.7084 0.138933  -0.215526 -0.712598 0.140098  -0.2156 -0.689678 0.13518  -0.237496 -0.70894 0.138825  -0.23752 -0.686091 0.133994  -0.210537 -0.69031 0.135064  -0.23245 -0.686685 0.133837  -0.252702 -0.753054 0.149058  -0.2254 -0.757406 0.150312  -0.22567 -0.734367 0.145223  -0.247481 -0.753621 0.148989  -0.247665 -0.730685 0.143969  -0.220498 -0.734975 0.145169  -0.242503 -0.731253 0.143882  -0.262654 -0.798006 0.159319  -0.235143 -0.80237 0.160734  -0.235544 -0.779294 0.155492  -0.257326 -0.798517 0.159343  -0.257704 -0.775486 0.154164  -0.230269 -0.779881 0.155495  -0.252425 -0.776045 0.154143  -0.272394 -0.842989 0.169831  -0.24477 -0.847474 0.17131  -0.245345 -0.82434 0.165937  -0.267007 -0.843527 0.169884  -0.267528 -0.820474 0.164556  -0.239993 -0.82491 0.165996  -0.262184 -0.821012 0.164597  -0.282 -0.888136 0.18043  -0.25425 -0.892617 0.182034  -0.254932 -0.869499 0.176541  -0.276541 -0.888631 0.180557  -0.277221 -0.865536 0.175113  -0.249509 -0.870053 0.176648  -0.271796 -0.866071 0.175206  -0.291395 -0.933217 0.191196  -0.263612 -0.937782 0.192846  -0.264432 -0.914659 0.187274  -0.285913 -0.933732 0.191346  -0.286706 -0.910667 0.185801  -0.258964 -0.915196 0.187424  -0.281244 -0.911183 0.185943  -0.300648 -0.978338 0.201981  -0.272816 -0.982887 0.203719  -0.273718 -0.959824 0.198086  -0.295136 -0.978825 0.202188  -0.296043 -0.955765 0.196584  -0.268217 -0.960352 0.198272  -0.290546 -0.956284 0.196764  -0.309726 -1.02333 0.212821  -0.281879 -1.02794 0.214592  -0.282899 -1.00491 0.208938  -0.304197 -1.02382 0.213041  -0.305195 -1.00084 0.207393  -0.277384 -1.00542 0.209161  -0.299686 -1.00134 0.207608  -0.318677 -1.06827 0.223596  -0.290814 -1.07288 0.225445  -0.291878 -1.04991 0.219781  -0.31314 -1.06878 0.223862  -0.31422 -1.0458 0.218227  -0.286344 -1.05044 0.220027  -0.308686 -1.04631 0.218469  -0.32749 -1.11302 0.234346  -0.299662 -1.11763 0.236171  -0.30077 -1.09474 0.230575  -0.321966 -1.11353 0.234595  -0.323083 -1.09065 0.228981  -0.295258 -1.09526 0.230833  -0.317552 -1.09116 0.229244  -0.00314171 -0.00135872 0.00566006  0 0 0  -0.00193194 -0.0014421 0.00307274  -0.000694443 0.000489503 0.00231457  0 0 0  -0.00279293 -0.00212136 0.00413179  -0.000967626 0.000116378 0.00310612  0 0 0  -0.000592772 7.11381e-05 0.00161076  -0.000843506 -0.000322014 0.00220346  -0.0095975 -0.00904796 0.00954151  -0.00605926 -0.0093495 0.00591469  -0.00435442 -0.0037784 0.00594902  -0.00870959 -0.0103515 0.00756073  -0.00615072 -0.00464228 0.00777817  -0.00380504 -0.00483727 0.00455332  -0.00549388 -0.0057269 0.00595331  -0.0168244 -0.0210705 0.011919  -0.0111221 -0.0217475 0.00830173  -0.00943142 -0.0136126 0.00857735  -0.015751 -0.0227046 0.0100884  -0.0132047 -0.0145975 0.0107799  -0.0085358 -0.0150994 0.00712252  -0.012186 -0.0161014 0.00886822  -0.024098 -0.0366451 0.0141096  -0.0164894 -0.0377004 0.0106831  -0.0148144 -0.0275783 0.0108047  -0.0229538 -0.0384279 0.0123963  -0.0204512 -0.0284245 0.0129976  -0.0137803 -0.0293116 0.00945997  -0.0193473 -0.0301592 0.0112209  -0.0315008 -0.0555098 0.0165658  -0.0220783 -0.0568262 0.0134244  -0.0204304 -0.0450478 0.0132575  -0.0302262 -0.0572998 0.0149617  -0.0277746 -0.0456769 0.0152922  -0.0192519 -0.0468822 0.0120063  -0.0265755 -0.047482 0.0136328  -0.0391102 -0.0773761 0.0194802  -0.027947 -0.0789173 0.0166454  -0.0263425 -0.0656975 0.0161366  -0.0376509 -0.0791167 0.0179901  -0.0352767 -0.0660755 0.0179672  -0.0249756 -0.0675161 0.0149717  -0.0339153 -0.0678519 0.016417  -0.0469963 -0.102022 0.0229259  -0.0341543 -0.103718 0.0204096  -0.0325966 -0.0892348 0.0195513  -0.0452976 -0.103652 0.0215354  -0.0430128 -0.0893609 0.0211372  -0.0310032 -0.090995 0.0184698  -0.0414413 -0.0910588 0.0196962  -0.055149 -0.129144 0.0269227  -0.0407364 -0.131049 0.0247226  -0.0392524 -0.115426 0.023499  -0.0532002 -0.130688 0.0256505  -0.0510411 -0.115274 0.0248632  -0.0374018 -0.117087 0.0224991  -0.0492185 -0.11687 0.0235295  -0.0636003 -0.158583 0.0314832  -0.0476909 -0.160635 0.0295835  -0.0462795 -0.144012 0.0280185  -0.0613691 -0.159993 0.030303  -0.0593308 -0.14358 0.0291386  -0.0441645 -0.145575 0.0271006  -0.0572475 -0.145069 0.0279107  -0.0722922 -0.190059 0.0365524  -0.0550226 -0.192349 0.0349674  -0.0537083 -0.174788 0.0330462  -0.0697994 -0.191401 0.0354967  -0.0679206 -0.17406 0.0339599  -0.0513164 -0.176251 0.0322099  -0.0655577 -0.17545 0.0328403  -0.0812567 -0.223465 0.0421777  -0.0626948 -0.22591 0.0408597  -0.0614721 -0.207543 0.0386248  -0.0784769 -0.224677 0.0412021  -0.0767304 -0.206523 0.0393062  -0.0588156 -0.208911 0.0378671  -0.074102 -0.207816 0.0382876  -0.0904188 -0.258539 0.0482478  -0.0707107 -0.261236 0.0472355  -0.0695962 -0.242095 0.0446634  -0.0873924 -0.259706 0.0473967  -0.0858198 -0.240782 0.0451608  -0.0666666 -0.243381 0.0439849  -0.0829147 -0.241991 0.0442467  -0.0998148 -0.295197 0.0548506  -0.0790179 -0.29805 0.05406  -0.0780067 -0.278266 0.0512142  -0.0965137 -0.296246 0.0540652  -0.0950729 -0.276668 0.051496  -0.0748308 -0.279467 0.0506058  -0.0919212 -0.277797 0.0506744  -0.109356 -0.333202 0.0618272  -0.0876125 -0.336303 0.0613356  -0.0867187 -0.315885 0.0581651  -0.105832 -0.334228 0.0611658  -0.104577 -0.314014 0.0582891  -0.0832846 -0.317028 0.0576334  -0.101162 -0.31508 0.0575666  -0.119081 -0.372477 0.0693145  -0.0964378 -0.375726 0.0690145  -0.0956569 -0.354812 0.065599  -0.115304 -0.373399 0.0687051  -0.114177 -0.352678 0.0655222  -0.0920025 -0.355877 0.0651321  -0.110542 -0.353677 0.0648828  -0.128899 -0.412821 0.0771041  -0.105488 -0.416292 0.0770926  -0.104829 -0.394873 0.0733848  -0.124924 -0.413732 0.0766153  -0.123991 -0.392497 0.073163  -0.100938 -0.395899 0.0729899  -0.120112 -0.393447 0.0726175  -0.138835 -0.454144 0.0853848  -0.1147 -0.457754 0.0855131  -0.114168 -0.435964 0.0815911  -0.134635 -0.454965 0.0849371  -0.133829 -0.433356 0.0811996  -0.110082 -0.436916 0.081255  -0.129761 -0.434248 0.0807281  -0.14882 -0.496292 0.0939002  -0.12407 -0.500085 0.0943055  -0.123663 -0.477912 0.0901189  -0.144444 -0.497109 0.0935631  -0.143836 -0.475096 0.0895982  -0.119364 -0.478841 0.089849  -0.139545 -0.475952 0.0892115  -0.158855 -0.539148 0.102881  -0.133541 -0.543073 0.103398  -0.133272 -0.520638 0.0990167  -0.154287 -0.539897 0.10258  -0.153806 -0.517627 0.098351  -0.128803 -0.521499 0.0987968  -0.149356 -0.518434 0.0980306  -0.168894 -0.582628 0.112035  -0.1431 -0.586686 0.112807  -0.142955 -0.563982 0.108199  -0.164171 -0.583366 0.111834  -0.16389 -0.560795 0.107413  -0.138303 -0.564826 0.108042  -0.159242 -0.561576 0.10717  -0.178913 -0.626576 0.121615  -0.152694 -0.630753 0.122468  -0.152698 -0.607878 0.117686  -0.174033 -0.627263 0.121446  -0.17388 -0.604539 0.116788  -0.147904 -0.608662 0.117577  -0.169101 -0.605274 0.116605  -0.188898 -0.670971 0.131322  -0.162316 -0.675233 0.132405  -0.162441 -0.652193 0.127435  -0.183888 -0.671641 0.131241  -0.183927 -0.648705 0.126429  -0.157491 -0.652962 0.127379  -0.178978 -0.649421 0.126311  -0.19881 -0.715626 0.14141  -0.171927 -0.719995 0.142546  -0.172199 -0.696857 0.137428  -0.193675 -0.716264 0.141354  -0.193838 -0.693259 0.136334  -0.167135 -0.697577 0.137413  -0.188787 -0.693935 0.136269  -0.208657 -0.760577 0.151581  -0.18151 -0.764987 0.152918  -0.181902 -0.741778 0.147655  -0.203414 -0.761192 0.151604  -0.203758 -0.738056 0.146459  -0.17671 -0.742477 0.147686  -0.198565 -0.738717 0.146449  -0.218378 -0.805628 0.162066  -0.191036 -0.810127 0.163438  -0.191568 -0.786874 0.158047  -0.213048 -0.806223 0.162113  -0.213509 -0.783084 0.156797  -0.186291 -0.787536 0.158121  -0.208243 -0.783707 0.156837  -0.228006 -0.850842 0.172598  -0.200496 -0.855347 0.174136  -0.201133 -0.832099 0.168645  -0.222602 -0.851413 0.172711  -0.223217 -0.828208 0.167301  -0.19576 -0.832735 0.168753  -0.217846 -0.82882 0.167387  -0.237488 -0.896041 0.183374  -0.209862 -0.900611 0.184929  -0.210617 -0.877363 0.179338  -0.23203 -0.896593 0.183505  -0.232744 -0.873435 0.177967  -0.205201 -0.877972 0.179485  -0.227331 -0.874014 0.178096  -0.246855 -0.941279 0.194146  -0.219139 -0.945857 0.195846  -0.219992 -0.922651 0.190203  -0.241355 -0.941825 0.194332  -0.242196 -0.918647 0.188743  -0.214497 -0.923236 0.190375  -0.236713 -0.919213 0.188906  -0.256059 -0.986425 0.205059  -0.228287 -0.991037 0.206758  -0.229239 -0.967887 0.20106  -0.250528 -0.986949 0.205259  -0.251463 -0.963861 0.199592  -0.223735 -0.96845 0.201269  -0.245957 -0.964405 0.19979  -0.265132 -1.03153 0.215892  -0.237338 -1.03614 0.217717  -0.238363 -1.01305 0.212025  -0.259592 -1.03205 0.216133  -0.260619 -1.00897 0.210477  -0.232815 -1.0136 0.212255  -0.25508 -1.00951 0.210705  -0.274046 -1.07641 0.226776  -0.246246 -1.08106 0.228551  -0.247349 -1.05809 0.222872  -0.268516 -1.07696 0.227022  -0.269599 -1.054 0.221327  -0.24181 -1.05861 0.223124  -0.264063 -1.05453 0.221571  -0.282942 -1.12119 0.237483  -0.255057 -1.12584 0.239423  -0.256226 -1.10293 0.23374  -0.277346 -1.12174 0.237747  -0.278499 -1.09883 0.232144  -0.250662 -1.10347 0.234004  -0.272943 -1.09937 0.232387  -0.00136586 -0.000392824 0.00275612  0 0 0  -0.000371546 -0.00109208 0.000824928  -0.000175096 0.000674784 0.000598431  0 0 0  -0.00112948 -0.00111964 0.0019598  -0.000425283 0.000665098 0.00145721  0 0 0  -0.000114556 0.000267625 0.000331402  -0.00034146 0.000255793 0.000974178  -0.00422615 -0.00759926 0.00521994  -0.00122647 -0.00885653 0.00244904  -0.0010802 -0.00331041 0.00209141  -0.00359742 -0.00886956 0.00419617  -0.00268558 -0.00335351 0.00402546  -0.000746652 -0.00437737 0.00158072  -0.00224121 -0.00440702 0.00307894  -0.00761586 -0.0196824 0.00738239  -0.00248581 -0.0213729 0.00453806  -0.00244498 -0.0131287 0.00396824  -0.00674719 -0.0213087 0.00644112  -0.00588837 -0.0131333 0.00628853  -0.00181013 -0.0146442 0.00344276  -0.00512064 -0.0146257 0.00530052  -0.011324 -0.0356121 0.00977612  -0.00418082 -0.0376313 0.00709105  -0.00415313 -0.027282 0.00622654  -0.0102691 -0.0374361 0.00890446  -0.00942221 -0.0272006 0.00852919  -0.00327331 -0.0290772 0.00575018  -0.00846544 -0.0289526 0.00762606  -0.0154188 -0.0549079 0.0126328  -0.00637329 -0.0571339 0.0101585  -0.00633806 -0.0450765 0.00898695  -0.0141581 -0.0567707 0.0118241  -0.0133206 -0.0448478 0.0111475  -0.00521302 -0.0469951 0.00855494  -0.0121644 -0.0467208 0.0103087  -0.0199615 -0.0772496 0.0159845  -0.00911731 -0.0796428 0.0137844  -0.0090493 -0.0660891 0.0122962  -0.0184629 -0.0790941 0.015234  -0.0176259 -0.0657043 0.014236  -0.00767076 -0.0680283 0.0119009  -0.0162555 -0.0675736 0.0134621  -0.0249828 -0.102383 0.0199161  -0.0124453 -0.104892 0.0179515  -0.0123546 -0.0900537 0.01615  -0.0232309 -0.104131 0.0192223  -0.0224119 -0.0894653 0.0178881  -0.0107095 -0.0919337 0.0157928  -0.020787 -0.0912863 0.01717  -0.030511 -0.130044 0.0243654  -0.0163733 -0.132696 0.0226932  -0.0162456 -0.116678 0.0205808  -0.028487 -0.131717 0.0237217  -0.0276741 -0.115895 0.0220642  -0.01433 -0.118494 0.0202489  -0.0257971 -0.117624 0.0214038  -0.0365169 -0.160017 0.0293846  -0.0208995 -0.162789 0.0279346  -0.0207564 -0.145757 0.0255308  -0.0342281 -0.161566 0.0288048  -0.0334587 -0.144735 0.0268145  -0.0185642 -0.147457 0.0252371  -0.0312994 -0.146367 0.0262117  -0.0430144 -0.192071 0.0348959  -0.0260003 -0.195004 0.0337286  -0.0258344 -0.17702 0.0310326  -0.0404475 -0.193546 0.0343533  -0.0396886 -0.175776 0.0320625  -0.0233754 -0.178651 0.0307579  -0.0372769 -0.177311 0.0315104  -0.0499394 -0.226019 0.0409255  -0.0316619 -0.229095 0.0399661  -0.0314893 -0.210297 0.0370016  -0.047115 -0.227383 0.0404601  -0.0464338 -0.208795 0.0378499  -0.0287611 -0.211806 0.0367684  -0.0437307 -0.210235 0.0373588  -0.0573062 -0.261663 0.0474224  -0.0378333 -0.264909 0.0467329  -0.0376667 -0.245348 0.0434933  -0.0542157 -0.262963 0.046977  -0.0535432 -0.243619 0.0440998  -0.0346826 -0.246802 0.0432768  -0.0506074 -0.244977 0.0436511  -0.0650327 -0.298839 0.0543604  -0.0445055 -0.302242 0.0538607  -0.0443381 -0.28203 0.0503936  -0.0617054 -0.300051 0.0540071  -0.061142 -0.280044 0.0508299  -0.0411015 -0.283368 0.0502186  -0.0579209 -0.281316 0.050446  -0.0731354 -0.337375 0.0617557  -0.051603 -0.340943 0.0615101  -0.051479 -0.320129 0.0577707  -0.0695592 -0.33853 0.0614018  -0.0690041 -0.317928 0.0579867  -0.0480028 -0.321429 0.057611  -0.0655786 -0.319137 0.0576367  -0.0815234 -0.377121 0.0695152  -0.0591285 -0.380848 0.0694461  -0.0590045 -0.359524 0.065527  -0.0777347 -0.378216 0.0692673  -0.0773195 -0.357081 0.0655727  -0.0552982 -0.360721 0.0654063  -0.0736187 -0.358214 0.0652895  -0.0902115 -0.417933 0.0777178  -0.0669897 -0.421801 0.0778761  -0.0669495 -0.400024 0.0736971  -0.0861958 -0.418967 0.0774517  -0.0857906 -0.397389 0.0735521  -0.0630246 -0.40119 0.0735903  -0.081916 -0.398475 0.0732942  -0.0991058 -0.459666 0.0861878  -0.075192 -0.463687 0.0865183  -0.0751518 -0.441526 0.0822029  -0.0949066 -0.46067 0.08604  -0.0946656 -0.438671 0.0818896  -0.0710233 -0.442602 0.0821328  -0.0905344 -0.439687 0.0816984  -0.108227 -0.502209 0.0951157  -0.0836434 -0.506337 0.0956287  -0.0837257 -0.483854 0.0910625  -0.10382 -0.503144 0.0949316  -0.103595 -0.480841 0.0905948  -0.0793991 -0.4849 0.0910096  -0.0993183 -0.48182 0.0904236  -0.117473 -0.545418 0.104211  -0.0923491 -0.549688 0.104896  -0.0924308 -0.526929 0.100234  -0.112913 -0.546348 0.104156  -0.112873 -0.523719 0.0996017  -0.0879314 -0.527901 0.100211  -0.108361 -0.52464 0.099494  -0.126866 -0.589211 0.11377  -0.101219 -0.593549 0.114598  -0.101462 -0.570582 0.109692  -0.122126 -0.590063 0.113666  -0.122108 -0.567255 0.108943  -0.0967798 -0.571524 0.109693  -0.117479 -0.568142 0.108854  -0.136319 -0.633452 0.1234  -0.11026 -0.637912 0.124396  -0.110498 -0.61477 0.119434  -0.131453 -0.634315 0.123427  -0.131627 -0.611267 0.118526  -0.105679 -0.615649 0.119457  -0.126792 -0.612105 0.118493  -0.145847 -0.678084 0.133491  -0.119392 -0.682576 0.134592  -0.119813 -0.659322 0.129401  -0.140824 -0.67886 0.133462  -0.141034 -0.655743 0.128408  -0.114834 -0.660164 0.129451  -0.136103 -0.656544 0.128397  -0.155377 -0.722976 0.14358  -0.128613 -0.727568 0.144837  -0.129032 -0.704224 0.139616  -0.150253 -0.723775 0.143678  -0.150653 -0.700488 0.138482  -0.123949 -0.70502 0.139684  -0.145549 -0.701258 0.138515  -0.164913 -0.768095 0.154098  -0.137871 -0.772689 0.155427  -0.138482 -0.749307 0.149997  -0.15966 -0.768803 0.154141  -0.16011 -0.745538 0.148811  -0.133258 -0.750062 0.150096  -0.154929 -0.746263 0.148873  -0.1744 -0.813329 0.164558  -0.14714 -0.817996 0.166025  -0.147756 -0.794592 0.160592  -0.169078 -0.814061 0.164715  -0.169699 -0.790686 0.159283  -0.142462 -0.795318 0.160705  -0.164385 -0.791394 0.159377  -0.183836 -0.858659 0.175374  -0.156403 -0.863301 0.176896  -0.157194 -0.839923 0.171284  -0.178419 -0.859298 0.175486  -0.179097 -0.836015 0.169945  -0.151791 -0.840593 0.171434  -0.173729 -0.836665 0.170074  -0.193195 -0.903986 0.186127  -0.16562 -0.908679 0.187761  -0.166425 -0.885326 0.182158  -0.18773 -0.904653 0.18633  -0.188552 -0.881306 0.180716  -0.16098 -0.885987 0.182315  -0.183093 -0.881957 0.180865  -0.202444 -0.949303 0.197119  -0.1748 -0.953946 0.198798  -0.175737 -0.93068 0.193058  -0.19694 -0.949886 0.197298  -0.197815 -0.926673 0.191608  -0.170227 -0.931268 0.193256  -0.192322 -0.927263 0.191798  -0.211612 -0.994535 0.208005  -0.183867 -0.999203 0.209788  -0.184844 -0.975991 0.204092  -0.206078 -0.995125 0.20825  -0.207053 -0.971916 0.202548  -0.179327 -0.976599 0.204297  -0.201532 -0.972509 0.202744  -0.220649 -1.03964 0.219018  -0.1929 -1.04426 0.220818  -0.193952 -1.0212 0.21504  -0.215099 -1.0402 0.219264  -0.21614 -1.01713 0.213513  -0.188385 -1.02171 0.215291  -0.210583 -1.01767 0.213753  -0.229581 -1.08464 0.229857  -0.20175 -1.08929 0.231752  -0.20287 -1.06625 0.226068  -0.223986 -1.08516 0.230142  -0.225139 -1.06215 0.224456  -0.197352 -1.06679 0.226318  -0.219571 -1.06269 0.224721  -0.238295 -1.12932 0.24077  -0.210522 -1.13396 0.242637  -0.21178 -1.1111 0.236941  -0.232784 -1.12991 0.241046  -0.233968 -1.10703 0.235339  -0.20612 -1.11166 0.237231  -0.228381 -1.10758 0.23563  0.00027597 -0.000601709 -0.000261784  0 0 0  0.00118336 -0.00187469 -0.00145292  0.000338964 0.000237644 -0.00114202  0 0 0  0.000394553 -0.00134313 -0.000315666  7.78586e-05 0.000534177 -0.00026989  0 0 0  0.000359148 -0.000191331 -0.000968933  0.00011722 0.000121057 -0.000317097  0.000781834 -0.00796199 0.000761986  0.003573 -0.0101567 -0.00107193  0.00216909 -0.00431436 -0.00179768  0.001147 -0.00928652 0.000692368  0.000525951 -0.00363195 0.000148296  0.00229786 -0.00546241 -0.00143623  0.000756398 -0.00472921 7.39098e-05  0.00109196 -0.020216 0.00265121  0.00602633 -0.02292 0.000675201  0.00445744 -0.0144582 -0.000705242  0.00174469 -0.0219156 0.00260162  0.00098455 -0.0135753 0.00162411  0.00484321 -0.0160721 -0.000320435  0.00148815 -0.0151311 0.00156116  0.000911713 -0.0363523 0.00526571  0.00795305 -0.0393721 0.00333786  0.00634539 -0.0287938 0.00152588  0.00186461 -0.0382769 0.00523233  0.00107363 -0.0278164 0.00388479  0.00707346 -0.0307233 0.00190449  0.00187698 -0.0296713 0.00383902  0.000110745 -0.0559294 0.00845337  0.00910318 -0.0590533 0.00671387  0.00755775 -0.0467728 0.00454855  0.00134891 -0.0578996 0.00844336  0.000598371 -0.045723 0.00678539  0.00863695 -0.0488151 0.00492191  0.00169164 -0.0476969 0.0067606  -0.00135976 -0.0785904 0.0122809  0.00945455 -0.0818954 0.010694  0.00799084 -0.0680336 0.00825214  0.000161946 -0.0805713 0.0122766  -0.000540674 -0.0668635 0.0103002  0.0093689 -0.070114 0.00861216  0.000837564 -0.0688763 0.0102849  -0.00354052 -0.104099 0.0166268  0.00899082 -0.107397 0.015276  0.00764698 -0.0922856 0.0125351  -0.00173712 -0.105984 0.0166354  -0.00235128 -0.0909961 0.0143809  0.00934523 -0.0943066 0.0128832  -0.00069052 -0.0929407 0.0143757  -0.00641084 -0.132165 0.0215812  0.00768101 -0.135676 0.0203881  0.00645745 -0.119276 0.0174346  -0.00433969 -0.134007 0.0215878  -0.00489539 -0.117799 0.0190396  0.00841606 -0.121231 0.0177498  -0.00296098 -0.119695 0.0190372  -0.0100038 -0.162575 0.0270109  0.00561714 -0.166036 0.0260501  0.00451994 -0.148712 0.0228148  -0.00764942 -0.16428 0.0270262  -0.00810361 -0.147084 0.0242262  0.00678086 -0.150571 0.0231214  -0.00588965 -0.148856 0.0242271  -0.0142391 -0.195081 0.0329909  0.00268948 -0.198827 0.0321865  0.00171697 -0.180413 0.0287795  -0.0116398 -0.196754 0.0330086  -0.0120561 -0.178558 0.0299416  0.00421906 -0.182169 0.029048  -0.00958097 -0.180267 0.0299478  -0.0191599 -0.229485 0.0394368  -0.000873089 -0.233154 0.038825  -0.00173903 -0.214076 0.0351601  -0.0162766 -0.231019 0.039454  -0.0165955 -0.212057 0.0361452  0.00104523 -0.215752 0.0354252  -0.0138471 -0.213642 0.0361519  -0.0246378 -0.265585 0.0463305  -0.0052942 -0.269601 0.0458918  -0.00605536 -0.249589 0.0420923  -0.0215423 -0.267113 0.0463605  -0.0218573 -0.247329 0.042829  -0.00303376 -0.251144 0.0423164  -0.0188628 -0.248855 0.0428438  -0.0307359 -0.303202 0.0537014  -0.0101885 -0.307115 0.0534  -0.0108763 -0.286651 0.0493627  -0.0273594 -0.304594 0.0537205  -0.0275866 -0.284231 0.0499482  -0.00760567 -0.288154 0.0495977  -0.0243363 -0.285645 0.0499635  -0.0372932 -0.342171 0.0614076  -0.0159192 -0.346453 0.0613208  -0.0165272 -0.325198 0.0571589  -0.033739 -0.343578 0.0614543  -0.0340009 -0.322545 0.0574999  -0.0130137 -0.326567 0.0573516  -0.0305187 -0.323903 0.0575294  -0.0443885 -0.38232 0.0696273  -0.021964 -0.386484 0.0696034  -0.0225314 -0.36495 0.0652475  -0.0405613 -0.383598 0.0696459  -0.0407487 -0.362142 0.0654516  -0.0188154 -0.366289 0.0654569  -0.0370351 -0.36341 0.0654807  -0.051841 -0.423519 0.0780296  -0.0287828 -0.428035 0.0782709  -0.0293062 -0.405852 0.0737934  -0.0478665 -0.424823 0.0780954  -0.0481309 -0.402842 0.0737743  -0.0253367 -0.407055 0.0739694  -0.0441967 -0.40405 0.073823  -0.0597365 -0.465608 0.0870028  -0.0357833 -0.470006 0.087224  -0.036298 -0.447671 0.082603  -0.0555024 -0.466789 0.0870228  -0.0557096 -0.444519 0.0824528  -0.0321755 -0.448858 0.0827975  -0.0515745 -0.445658 0.0825009  -0.0678887 -0.508477 0.0960097  -0.0434551 -0.51317 0.0965624  -0.0439708 -0.490337 0.0917954  -0.0635343 -0.509687 0.0960999  -0.063854 -0.48702 0.0914502  -0.0395799 -0.491397 0.0919714  -0.05951 -0.488095 0.0915232  -0.0763874 -0.551988 0.105642  -0.0512216 -0.556585 0.106094  -0.0517406 -0.533689 0.101238  -0.0718002 -0.553086 0.105668  -0.0720758 -0.530242 0.100769  -0.0472543 -0.534728 0.101426  -0.0675676 -0.531264 0.10084  -0.0850556 -0.59604 0.115172  -0.0595186 -0.600858 0.116011  -0.060086 -0.577608 0.110987  -0.0803638 -0.597159 0.115287  -0.0807824 -0.57404 0.110352  -0.0553255 -0.578548 0.111171  -0.0760787 -0.574996 0.11045  -0.0939672 -0.640535 0.125359  -0.0678647 -0.645278 0.126029  -0.0684438 -0.622026 0.120975  -0.0890758 -0.641548 0.125398  -0.0894694 -0.618343 0.120214  -0.0636346 -0.622927 0.121162  -0.0846348 -0.619256 0.120316  -0.102971 -0.685362 0.135331  -0.0765777 -0.690245 0.136424  -0.0772483 -0.666771 0.131177  -0.0979884 -0.686388 0.135476  -0.0985429 -0.663008 0.130291  -0.0721734 -0.667611 0.131378  -0.0935318 -0.663858 0.130418  -0.112122 -0.730456 0.145963  -0.0853274 -0.735284 0.14685  -0.0860062 -0.711862 0.141604  -0.106982 -0.731384 0.146026  -0.107523 -0.708 0.140604  -0.0809193 -0.712636 0.141797  -0.102417 -0.708815 0.140739  -0.121315 -0.775717 0.156313  -0.094281 -0.780618 0.157622  -0.0950804 -0.757067 0.152184  -0.116088 -0.776646 0.156484  -0.116793 -0.753161 0.151085  -0.0897572 -0.757827 0.152402  -0.111535 -0.753921 0.15124  -0.130552 -0.821105 0.167266  -0.103269 -0.82595 0.16837  -0.104076 -0.80251 0.162954  -0.125218 -0.821936 0.167363  -0.125927 -0.798519 0.161757  -0.0987601 -0.803175 0.163157  -0.120604 -0.799246 0.161925  -0.13979 -0.866523 0.177918  -0.112318 -0.871414 0.179418  -0.11326 -0.847888 0.173821  -0.134385 -0.867354 0.178117  -0.135239 -0.843889 0.172545  -0.107754 -0.848585 0.174056  -0.129802 -0.844564 0.172728  -0.148987 -0.911965 0.189073  -0.121403 -0.916766 0.190405  -0.122339 -0.893428 0.184833  -0.143532 -0.912692 0.189217  -0.144394 -0.889352 0.183476  -0.116851 -0.894004 0.185052  -0.138927 -0.890002 0.183679  -0.158166 -0.957335 0.199945  -0.13043 -0.96219 0.201594  -0.131488 -0.938766 0.195868  -0.152641 -0.958062 0.200171  -0.153631 -0.934714 0.194472  -0.125896 -0.939407 0.196119  -0.148092 -0.935307 0.194685  -0.167223 -1.00263 0.211138  -0.139482 -1.00736 0.212715  -0.140543 -0.984208 0.207017  -0.16168 -1.00327 0.211339  -0.162709 -0.980076 0.205538  -0.134944 -0.98472 0.207259  -0.157146 -0.980677 0.205776  -0.176247 -1.04781 0.22207  -0.148358 -1.05254 0.223851  -0.149541 -1.02935 0.21805  -0.170633 -1.04839 0.222327  -0.171778 -1.02527 0.216587  -0.143932 -1.02993 0.218313  -0.166161 -1.02579 0.216833  -0.18511 -1.09276 0.2331  -0.157296 -1.09744 0.234938  -0.158511 -1.07449 0.229199  -0.17952 -1.09339 0.233364  -0.180685 -1.07035 0.227602  -0.152811 -1.07501 0.229457  -0.175077 -1.07092 0.227854  -0.194002 -1.13755 0.243957  -0.166014 -1.14208 0.245842  -0.167253 -1.11928 0.240062  -0.188282 -1.138 0.244211  -0.189565 -1.11518 0.238546  -0.161701 -1.1198 0.240339  -0.183912 -1.11573 0.238806  0.00204331 -0.00189072 -0.00323915  0 0 0  0.00300387 -0.00395471 -0.00365782  0.000936054 -0.000929356 -0.00280952  0 0 0  0.00204754 -0.00272566 -0.00256157  0.00061664 -0.000234723 -0.00197506  0 0 0  0.000918783 -0.0014388 -0.00220251  0.000615977 -0.000694692 -0.00158596  0.00603744 -0.0100168 -0.00366306  0.00890526 -0.0132951 -0.00453424  0.00584607 -0.00686413 -0.00557232  0.00614458 -0.011483 -0.00281334  0.00394051 -0.00538051 -0.00368738  0.0057666 -0.00818127 -0.00436306  0.0039577 -0.00660133 -0.00290823  0.0100274 -0.0225132 -0.00208378  0.0151466 -0.0263191 -0.00323391  0.0119491 -0.0175455 -0.00529575  0.0104855 -0.0243889 -0.00127411  0.00810823 -0.0157816 -0.0030303  0.0120928 -0.019358 -0.00404739  0.00836805 -0.0174777 -0.00220013  0.0133045 -0.038793 0.000610828  0.0205392 -0.0427535 -0.000546932  0.0173643 -0.0320122 -0.00321388  0.0141479 -0.0408767 0.00140285  0.0117643 -0.030201 -0.000844002  0.0179857 -0.0341144 -0.0019908  0.0124244 -0.0322156 -4.76837e-05  0.0157379 -0.058475 0.00411749  0.0249729 -0.0625921 0.00301123  0.0218902 -0.0500606 1.43051e-05  0.0169525 -0.0606083 0.00488234  0.0146316 -0.0482219 0.00226593  0.0228499 -0.0522611 0.00117826  0.0156574 -0.0503389 0.00303936  0.0172856 -0.0814115 0.0083189  0.0283061 -0.0854931 0.0073719  0.0254 -0.0714862 0.00401878  0.018806 -0.0835493 0.00906086  0.0166185 -0.0695799 0.00614262  0.0268188 -0.0736881 0.00514793  0.0180019 -0.071728 0.00688505  0.0179363 -0.107138 0.013114  0.0307104 -0.111374 0.0122867  0.0279709 -0.0959474 0.0087676  0.0197811 -0.109169 0.0137982  0.0177265 -0.0939317 0.0106435  0.0295607 -0.0981019 0.00982237  0.0193956 -0.0960266 0.0113387  0.0176616 -0.135596 0.0184941  0.0319622 -0.139719 0.0178576  0.029491 -0.12322 0.0140533  0.0197628 -0.137599 0.0191722  0.017904 -0.121087 0.015749  0.0315574 -0.125277 0.0150504  0.0198985 -0.123103 0.0164094  0.0165149 -0.166287 0.0243731  0.0323533 -0.170632 0.0238929  0.0300335 -0.152946 0.0199485  0.0189294 -0.168112 0.0249662  0.017199 -0.150656 0.0213881  0.0321474 -0.154928 0.0208831  0.0194323 -0.152597 0.0219879  0.0144658 -0.199242 0.0307846  0.0316111 -0.203415 0.0304794  0.0296038 -0.184985 0.0263081  0.0171003 -0.201073 0.0314102  0.0155871 -0.182558 0.0275464  0.0322456 -0.18684 0.0271678  0.018141 -0.184371 0.0281253  0.011619 -0.233967 0.0376334  0.0300884 -0.238427 0.0375247  0.02816 -0.218966 0.0331745  0.0145662 -0.235571 0.0381408  0.0131414 -0.216366 0.0342002  0.0307659 -0.220754 0.0340037  0.0158974 -0.218131 0.0347104  0.00793433 -0.270515 0.0449562  0.0275326 -0.274762 0.0449796  0.0259413 -0.254839 0.0404801  0.0110731 -0.272181 0.0455427  0.00986314 -0.252095 0.0412869  0.0291077 -0.25649 0.0412197  0.0129422 -0.253702 0.0417933  0.0035584 -0.30847 0.0526786  0.0242573 -0.313042 0.0529532  0.0226469 -0.292201 0.0481868  0.00700641 -0.309871 0.0531135  0.00582576 -0.289294 0.0488477  0.0257447 -0.293799 0.0489297  0.00908005 -0.290891 0.0492849  -0.00155973 -0.34784 0.0608149  0.0201278 -0.352172 0.0611453  0.0188713 -0.331111 0.0563459  0.00205624 -0.349347 0.0613718  0.00107968 -0.328055 0.0567684  0.0225064 -0.332571 0.056983  0.00464797 -0.329467 0.0572171  -0.00725865 -0.388337 0.0693207  0.0153027 -0.392997 0.0699739  0.0139184 -0.371103 0.064785  -0.00334907 -0.38956 0.0696988  -0.00435615 -0.367925 0.0651388  0.0175235 -0.372527 0.0654593  -0.00062573 -0.369357 0.0655241  -0.0135757 -0.429853 0.078155  0.00985479 -0.43427 0.0787725  0.00884533 -0.412366 0.0737014  -0.00951743 -0.431204 0.0786829  -0.0103377 -0.409025 0.0737858  0.0128868 -0.413648 0.0742555  -0.00632453 -0.41026 0.0741911  -0.0203731 -0.472291 0.0873475  0.00371337 -0.477007 0.0883598  0.00246906 -0.454342 0.082768  -0.0160508 -0.473365 0.0876851  -0.0169511 -0.450938 0.0828547  0.00658274 -0.455611 0.0833855  -0.0127773 -0.452211 0.0832081  -0.0276453 -0.51538 0.0967836  -0.0027988 -0.519868 0.0976562  -0.00364614 -0.497369 0.0923367  -0.0231862 -0.516571 0.0972824  -0.0239267 -0.493784 0.0921369  0.000738382 -0.498484 0.0928259  -0.019521 -0.494859 0.0925117  -0.0353179 -0.559232 0.106578  -0.010011 -0.56397 0.107909  -0.0111876 -0.540775 0.101961  -0.0306323 -0.560182 0.106889  -0.031487 -0.537198 0.101798  -0.00658512 -0.541904 0.102523  -0.0269077 -0.538312 0.102137  -0.0433085 -0.603412 0.116527  -0.0173514 -0.607951 0.11762  -0.0181165 -0.585064 0.112081  -0.0385015 -0.604442 0.116992  -0.0392265 -0.58128 0.111644  -0.0134435 -0.586024 0.112525  -0.0344834 -0.582215 0.111993  -0.051636 -0.648217 0.126815  -0.0253851 -0.652953 0.128409  -0.0265458 -0.629434 0.122189  -0.0466454 -0.649066 0.127106  -0.0475013 -0.625727 0.121789  -0.021508 -0.630439 0.122698  -0.0425713 -0.626689 0.12212  -0.0601313 -0.693089 0.137181  -0.0333447 -0.697657 0.138464  -0.0340879 -0.674553 0.132738  -0.0550325 -0.693969 0.137612  -0.0557964 -0.670615 0.132102  -0.0291786 -0.675375 0.133148  -0.0507731 -0.671436 0.132432  -0.0689065 -0.738456 0.147871  -0.0419519 -0.743169 0.149666  -0.0431385 -0.719507 0.143266  -0.0636632 -0.739213 0.14815  -0.0645661 -0.715708 0.142632  -0.0377431 -0.720394 0.14372  -0.0593417 -0.716523 0.142962  -0.0777082 -0.783697 0.158576  -0.0503416 -0.788279 0.160023  -0.0511267 -0.765089 0.154145  -0.0723886 -0.78445 0.158974  -0.0732241 -0.76104 0.15334  -0.0460088 -0.765801 0.154538  -0.0679796 -0.761771 0.15365  -0.0867488 -0.829306 0.169569  -0.0593104 -0.833985 0.171494  -0.0605328 -0.810326 0.165032  -0.0813136 -0.829976 0.169835  -0.0822833 -0.80646 0.164153  -0.0548837 -0.811104 0.165426  -0.0768409 -0.807143 0.16448  -0.0956962 -0.874668 0.180518  -0.0679748 -0.87925 0.182119  -0.0688493 -0.85607 0.176142  -0.0902312 -0.875325 0.180893  -0.0911551 -0.85195 0.175169  -0.0635478 -0.856708 0.176524  -0.0857468 -0.852618 0.175458  -0.104828 -0.920264 0.191702  -0.0771196 -0.924901 0.193692  -0.0783679 -0.901379 0.18731  -0.099268 -0.920848 0.191962  -0.100318 -0.897457 0.186173  -0.0725846 -0.902029 0.187638  -0.0947368 -0.898013 0.186496  -0.113792 -0.965562 0.202803  -0.0859017 -0.970132 0.204533  -0.0869007 -0.947034 0.198522  -0.108253 -0.96616 0.203163  -0.109263 -0.942875 0.197366  -0.081454 -0.947633 0.198896  -0.103752 -0.943509 0.197633  -0.122854 -1.01093 0.214008  -0.095021 -1.01554 0.21602  -0.0962913 -0.992247 0.209825  -0.117251 -1.01144 0.214291  -0.118379 -0.988281 0.208446  -0.0905027 -0.992775 0.210112  -0.112743 -0.988736 0.208777  -0.131778 -1.05604 0.225155  -0.103716 -1.06063 0.227001  -0.104977 -1.03763 0.22102  -0.126156 -1.05658 0.225497  -0.127287 -1.03347 0.219675  -0.099354 -1.03824 0.221403  -0.12172 -1.03407 0.219928  -0.14061 -1.10103 0.236215  -0.112747 -1.10561 0.23817  -0.114076 -1.08262 0.232231  -0.135017 -1.1015 0.236518  -0.136261 -1.0786 0.230699  -0.108248 -1.08305 0.232516  -0.13058 -1.07902 0.231064  -0.149348 -1.14581 0.247343  -0.121255 -1.15063 0.249068  -0.122772 -1.12757 0.243304  -0.14377 -1.14626 0.247572  -0.144942 -1.12343 0.241776  -0.117066 -1.12819 0.243603  -0.139427 -1.12394 0.242008  0.00427905 -0.00466269 -0.00604486  0 0 0  0.00553979 -0.00818563 -0.0057354  0.00173492 -0.00338 -0.00432873  0 0 0  0.00418715 -0.00571209 -0.00469398  0.00129073 -0.00193727 -0.00354195  0 0 0  0.00167936 -0.00404936 -0.00336027  0.00125097 -0.00251669 -0.00275755  0.012172 -0.0138949 -0.00792789  0.0156126 -0.0184464 -0.00790215  0.0106474 -0.0114031 -0.00917101  0.0120702 -0.0156135 -0.00620842  0.00810517 -0.00884134 -0.0073452  0.0104578 -0.0130154 -0.00723314  0.0079501 -0.0102865 -0.00577307  0.019821 -0.0265248 -0.00679255  0.0254913 -0.0314497 -0.00711393  0.0206637 -0.0223485 -0.00988531  0.0201454 -0.0286894 -0.00516129  0.016137 -0.0197482 -0.00757217  0.0206735 -0.024505 -0.00778723  0.0162058 -0.0217128 -0.00589132  0.0264347 -0.0427645 -0.00417566  0.0342035 -0.047513 -0.00457716  0.029442 -0.036753 -0.00808811  0.0272096 -0.0449593 -0.00252485  0.0232469 -0.0342064 -0.0056076  0.030029 -0.0390714 -0.00604343  0.023829 -0.0364071 -0.00397921  0.032024 -0.0626049 -0.000389099  0.041743 -0.0677076 -0.000736713  0.0371516 -0.0548201 -0.00482368  0.0332073 -0.06497 0.00113773  0.0293576 -0.0522659 -0.00234461  0.0380582 -0.0572293 -0.00283623  0.0303118 -0.0545675 -0.0007658  0.0365474 -0.085597 0.00411081  0.0481663 -0.0902933 0.00378513  0.0437481 -0.0763592 -0.000504971  0.0380983 -0.0877151 0.00563526  0.0344196 -0.073749 0.00182819  0.0451618 -0.0786855 0.00138855  0.0358258 -0.0760009 0.00332975  0.0399686 -0.111689 0.00934744  0.0532063 -0.116785 0.00926256  0.0491263 -0.100994 0.00457287  0.0418147 -0.113939 0.010726  0.0383826 -0.0983025 0.00675535  0.0507615 -0.103316 0.00635386  0.0400389 -0.100547 0.00817251  0.0423051 -0.140214 0.0151415  0.05725 -0.144874 0.0149965  0.0533852 -0.128467 0.0103235  0.0444987 -0.142096 0.0164938  0.0412781 -0.125678 0.0122643  0.0554033 -0.130624 0.0120058  0.043328 -0.127768 0.0135942  0.0435207 -0.171433 0.0214257  0.0597929 -0.176419 0.0216956  0.0563189 -0.158455 0.0166187  0.0459327 -0.173455 0.0226626  0.0430225 -0.155547 0.0183759  0.0586061 -0.160609 0.0181623  0.0452728 -0.157627 0.0196075  0.0437092 -0.204401 0.0283461  0.0615079 -0.209126 0.0283847  0.0582538 -0.190716 0.0234499  0.046492 -0.206026 0.029501  0.0437614 -0.187695 0.0249443  0.0607339 -0.192664 0.0249119  0.0463579 -0.189577 0.0260944  0.04282 -0.239763 0.0354533  0.0617245 -0.24453 0.0361257  0.0587981 -0.225014 0.0307522  0.0457619 -0.2415 0.0365877  0.0433505 -0.221851 0.0320401  0.0617466 -0.226984 0.0320601  0.0461643 -0.223748 0.0330906  0.0410246 -0.276259 0.0434332  0.0612242 -0.281172 0.043644  0.0585694 -0.26109 0.0385032  0.044358 -0.277659 0.0443783  0.0420749 -0.257813 0.0395269  0.0614061 -0.262809 0.0397453  0.0451548 -0.259487 0.0405083  0.0382291 -0.314904 0.051208  0.0594163 -0.319349 0.0522799  0.0569104 -0.298795 0.0466881  0.041684 -0.316324 0.0522728  0.0396912 -0.295378 0.0474782  0.0605437 -0.300593 0.0477786  0.0430579 -0.297092 0.0483646  0.0346786 -0.354163 0.0601692  0.0568428 -0.35937 0.060545  0.0547442 -0.337864 0.0552268  0.0385147 -0.355391 0.0608978  0.0366138 -0.334335 0.0557747  0.0578657 -0.339349 0.0562553  0.0401223 -0.335818 0.0566025  0.0302272 -0.395333 0.0684972  0.053376 -0.399388 0.0699201  0.0511502 -0.378206 0.0641818  0.0341746 -0.396426 0.0695171  0.0325049 -0.374555 0.0644746  0.05547 -0.379844 0.065084  0.0364085 -0.376093 0.065218  0.0251684 -0.436719 0.0783496  0.048893 -0.442279 0.0788779  0.0472994 -0.419578 0.0734091  0.0294459 -0.437828 0.0788598  0.0278658 -0.41581 0.0734916  0.0506582 -0.420815 0.0742249  0.0317504 -0.417117 0.0741754  0.0193377 -0.479744 0.087132  0.0441411 -0.483396 0.0888419  0.0420718 -0.461886 0.0830245  0.0237489 -0.480524 0.0881152  0.0223038 -0.458034 0.08283  0.0470417 -0.463379 0.0837646  0.0267129 -0.459404 0.0834522  0.0130351 -0.52272 0.0977464  0.0379553 -0.528632 0.0984263  0.036792 -0.504966 0.0928397  0.0176823 -0.523753 0.0980554  0.0163584 -0.500996 0.0924711  0.0403745 -0.505952 0.0934525  0.0205736 -0.502133 0.0930276  0.00610495 -0.567031 0.106937  0.0322559 -0.570327 0.10884  0.0302579 -0.548679 0.102997  0.0109332 -0.567534 0.107876  0.0096314 -0.544665 0.102362  0.0357938 -0.550039 0.103602  0.0144916 -0.545878 0.102883  -0.00118923 -0.611135 0.118155  0.0246265 -0.617326 0.118984  0.0238051 -0.592962 0.113305  0.003757 -0.612117 0.118295  0.00262642 -0.588832 0.112533  0.0276163 -0.593704 0.113735  0.00713348 -0.589809 0.11298  -0.00894952 -0.656256 0.127711  0.0182416 -0.659304 0.129735  0.0162747 -0.637603 0.123894  -0.00376511 -0.656544 0.128595  -0.00499296 -0.633471 0.122884  0.0222511 -0.638845 0.12439  0.000245333 -0.634542 0.123325  -0.0169878 -0.701097 0.139363  0.00948191 -0.707426 0.140344  0.00889516 -0.682669 0.134605  -0.0118141 -0.702026 0.139379  -0.0128129 -0.67843 0.133482  0.0129509 -0.683192 0.134882  -0.00804782 -0.679255 0.133838  -0.0253386 -0.746646 0.149266  0.00258708 -0.749595 0.151358  0.000643969 -0.727842 0.145512  -0.0198731 -0.746793 0.150082  -0.0210762 -0.723637 0.144215  0.00691509 -0.728979 0.145925  -0.0155513 -0.724582 0.144594  -0.0338898 -0.79189 0.161192  -0.00695062 -0.798173 0.162338  -0.00742602 -0.773348 0.156555  -0.0285466 -0.792744 0.161139  -0.0294783 -0.769048 0.155153  -0.00309944 -0.773695 0.156715  -0.024487 -0.769739 0.155438  -0.0426199 -0.837575 0.171422  -0.0142493 -0.840606 0.173554  -0.0161464 -0.818737 0.167675  -0.0369608 -0.837666 0.172157  -0.0381675 -0.814503 0.166183  -0.00974107 -0.819774 0.168036  -0.0324547 -0.815332 0.166517  -0.0514719 -0.882954 0.183457  -0.0241983 -0.888974 0.184774  -0.0246925 -0.864411 0.178964  -0.0460236 -0.883691 0.1834  -0.0469422 -0.860096 0.177371  -0.0200627 -0.864642 0.179055  -0.0417588 -0.860678 0.177607  -0.0604029 -0.928564 0.193983  -0.031872 -0.931878 0.196142  -0.0336683 -0.909781 0.190196  -0.0546539 -0.928691 0.194617  -0.0558665 -0.905564 0.188603  -0.0272992 -0.910712 0.190538  -0.0500789 -0.906266 0.188907  -0.0693526 -0.973863 0.205938  -0.0418646 -0.979412 0.207447  -0.0424774 -0.955422 0.201626  -0.0638433 -0.974454 0.20596  -0.0648174 -0.951123 0.199932  -0.037539 -0.955591 0.201705  -0.0594816 -0.95163 0.200153  -0.0783436 -1.01924 0.216701  -0.0498786 -1.02301 0.218853  -0.0514927 -1.00059 0.212851  -0.0725451 -1.0195 0.217217  -0.073808 -0.996409 0.211252  -0.0453641 -1.0014 0.213201  -0.0680132 -0.997002 0.211543  -0.0871892 -1.0643 0.228337  -0.0595233 -1.0693 0.230003  -0.06037 -1.04601 0.224239  -0.0816348 -1.06477 0.228508  -0.082761 -1.04176 0.222554  -0.0551436 -1.04621 0.224392  -0.0772617 -1.04227 0.222816  -0.0961204 -1.10937 0.23928  -0.0677967 -1.11373 0.241363  -0.0693421 -1.09087 0.235353  -0.0903299 -1.10972 0.239612  -0.0916281 -1.08677 0.233761  -0.0634253 -1.09159 0.235696  -0.085887 -1.08722 0.234034  -0.104841 -1.15402 0.250382  -0.077147 -1.15895 0.252111  -0.0781298 -1.13592 0.246726  -0.0992527 -1.1548 0.2506  -0.100495 -1.13172 0.244834  -0.0725446 -1.13637 0.246965  -0.0948734 -1.13234 0.245111  0.0076766 -0.0102921 -0.00878382  0 0 0  0.0104268 -0.0164067 -0.00810957  0.00352352 -0.00870097 -0.00602913  0 0 0  0.00757383 -0.0117447 -0.00687504  0.00230217 -0.00547785 -0.00494194  0 0 0  0.00354575 -0.00959843 -0.00477982  0.0022404 -0.0062446 -0.00387812  0.0198408 -0.019613 -0.012187  0.0243974 -0.0252002 -0.0115833  0.0176824 -0.0181453 -0.0130763  0.0197519 -0.0217142 -0.00968885  0.0139172 -0.0145631 -0.0110645  0.0176992 -0.0202892 -0.0104194  0.013769 -0.0164057 -0.00875711  0.03086 -0.031998 -0.0116935  0.0371509 -0.0377964 -0.0113363  0.030681 -0.0285232 -0.0147643  0.0311178 -0.0345034 -0.00920439  0.025492 -0.0252919 -0.0122762  0.0308712 -0.0310986 -0.0118556  0.0255628 -0.0276704 -0.00978088  0.0407715 -0.0482536 -0.00909185  0.0492607 -0.0540094 -0.00880241  0.0428661 -0.0428761 -0.0132012  0.0415388 -0.0505386 -0.00668001  0.035957 -0.0396421 -0.0106049  0.0432368 -0.0455043 -0.0103345  0.0364334 -0.042092 -0.00815392  0.0494996 -0.0681399 -0.00510979  0.0598837 -0.0737684 -0.00482845  0.0538124 -0.0609959 -0.00974178  0.0506071 -0.0706709 -0.00276804  0.0452912 -0.0577214 -0.00726652  0.0548756 -0.0636469 -0.00701618  0.0462798 -0.0602675 -0.00491333  0.0569759 -0.0913567 -0.000189304  0.0693188 -0.0970703 0.000190258  0.0635149 -0.0826187 -0.00513554  0.058541 -0.0934436 0.0019598  0.0534128 -0.079311 -0.0027566  0.0645394 -0.0851433 -0.00253487  0.0546551 -0.0817086 -0.000519276  0.0631651 -0.117513 0.00549793  0.077131 -0.122902 0.00577497  0.0717311 -0.107464 0.000432491  0.0649565 -0.119805 0.00758982  0.0602287 -0.104035 0.00253487  0.0736107 -0.109964 0.00282145  0.0619833 -0.106464 0.00462198  0.0680264 -0.146453 0.011755  0.0836211 -0.152206 0.0123196  0.0786313 -0.135047 0.0065341  0.0702318 -0.148321 0.0135856  0.0658004 -0.131583 0.00855064  0.0802015 -0.137359 0.00880098  0.0676273 -0.133793 0.010509  0.0716341 -0.177635 0.0186296  0.0886968 -0.182771 0.0188441  0.0840337 -0.165352 0.0133872  0.0740418 -0.17954 0.0204558  0.0699699 -0.161707 0.0150967  0.0865947 -0.167635 0.0154214  0.0723765 -0.16394 0.0168972  0.0739115 -0.211203 0.0259023  0.0922258 -0.217106 0.0266681  0.088117 -0.197695 0.0205493  0.0766531 -0.212951 0.0274053  0.0730079 -0.194041 0.0222025  0.0902143 -0.19976 0.0224919  0.0753316 -0.196038 0.0238805  0.0750772 -0.246357 0.0337548  0.0948297 -0.251272 0.0338292  0.0908464 -0.232404 0.0284185  0.0780984 -0.247764 0.0353265  0.0745953 -0.228512 0.0297499  0.0939718 -0.234391 0.030118  0.0775987 -0.230493 0.0312843  0.0749516 -0.283623 0.0418863  0.0954975 -0.289758 0.0428319  0.0922384 -0.2685 0.0364709  0.0781316 -0.285399 0.0430737  0.0752746 -0.264647 0.0377588  0.0949318 -0.270295 0.0381126  0.0780689 -0.266421 0.0391769  0.0739025 -0.321867 0.0505729  0.0959557 -0.326631 0.0504518  0.0925785 -0.30669 0.0451798  0.0775553 -0.322697 0.0519028  0.0744793 -0.302544 0.046175  0.0961249 -0.308309 0.0465798  0.0780289 -0.304242 0.047472  0.0716383 -0.362015 0.0594416  0.0939885 -0.368424 0.0605221  0.0914778 -0.345696 0.0540209  0.0751616 -0.363966 0.0603361  0.0730428 -0.341654 0.0549397  0.0948726 -0.347216 0.0553985  0.0763148 -0.343208 0.0561266  0.0686548 -0.402619 0.0688291  0.0926181 -0.407329 0.0685167  0.0897813 -0.386564 0.0634274  0.0729342 -0.402851 0.0699344  0.0701472 -0.382184 0.0640979  0.0935998 -0.38775 0.0645719  0.0741816 -0.383577 0.0651932  0.0645518 -0.444939 0.0783534  0.0883412 -0.451594 0.0795078  0.0864367 -0.427777 0.0729651  0.0683348 -0.447164 0.07899  0.0668654 -0.423582 0.0735097  0.0906253 -0.429041 0.0741229  0.0706308 -0.424916 0.0744972  0.0599241 -0.48731 0.0883193  0.0853996 -0.492046 0.0878668  0.0830586 -0.470633 0.0829701  0.0647938 -0.486975 0.0892153  0.0621948 -0.466057 0.0833035  0.0870066 -0.471353 0.0838962  0.0666349 -0.467146 0.0842228  0.0542989 -0.531181 0.0984063  0.079237 -0.538003 0.0995865  0.0777643 -0.513459 0.0930958  0.0582852 -0.533706 0.0988264  0.0573416 -0.509153 0.0932713  0.0827816 -0.514504 0.0940728  0.0616069 -0.510273 0.0940876  0.0483217 -0.574815 0.108816  0.0749218 -0.579633 0.108315  0.0730317 -0.557703 0.103574  0.0537016 -0.574018 0.109526  0.0512354 -0.55299 0.103573  0.0770226 -0.557984 0.10432  0.0559969 -0.55381 0.104342  0.0414851 -0.619713 0.119385  0.0673404 -0.626588 0.120566  0.0661225 -0.601648 0.114181  0.0456507 -0.622482 0.119634  0.045083 -0.597282 0.114001  0.071918 -0.602516 0.115015  0.0498302 -0.5982 0.114677  0.0344374 -0.664203 0.130138  0.0618112 -0.669104 0.129699  0.0603178 -0.64678 0.125039  0.0402167 -0.66309 0.130692  0.0378673 -0.641996 0.12471  0.0643251 -0.646704 0.125639  0.0428743 -0.642609 0.125345  0.0266814 -0.709698 0.141095  0.0532689 -0.716494 0.142293  0.0521591 -0.691446 0.136013  0.0310373 -0.712574 0.141222  0.0306823 -0.687064 0.135525  0.0585811 -0.692176 0.13673  0.0358562 -0.687798 0.136086  0.0188229 -0.754704 0.152112  0.046674 -0.759631 0.151836  0.0455081 -0.737055 0.147182  0.0248697 -0.753448 0.152537  0.0226562 -0.732266 0.14653  0.0495737 -0.73674 0.147659  0.0278504 -0.732742 0.14705  0.0104105 -0.80046 0.163363  0.0375605 -0.807051 0.164617  0.036453 -0.782126 0.158417  0.0149908 -0.803245 0.163416  0.014683 -0.777768 0.157667  0.0432713 -0.782732 0.159027  0.0201964 -0.77833 0.158132  0.0019908 -0.845695 0.174576  0.0300863 -0.850561 0.174563  0.0291455 -0.827874 0.169824  0.00816274 -0.844494 0.174906  0.00611448 -0.823143 0.168881  0.0333669 -0.827478 0.170208  0.0114598 -0.823562 0.169307  -0.00684571 -0.891473 0.186003  0.02072 -0.897721 0.187383  0.0195553 -0.873118 0.181231  -0.00199842 -0.893921 0.18603  -0.00240827 -0.868812 0.180255  0.0264854 -0.873598 0.181728  0.00333071 -0.869211 0.180642  -0.0156 -0.936719 0.197329  0.0125561 -0.941401 0.19771  0.0117316 -0.918737 0.192774  -0.00945354 -0.935768 0.197612  -0.0112863 -0.914122 0.191575  0.0162323 -0.918437 0.19309  -0.00582147 -0.914562 0.19193  -0.0246301 -0.982328 0.208797  0.00318003 -0.988086 0.210381  0.00194931 -0.96401 0.204272  -0.0194964 -0.984189 0.208848  -0.0201297 -0.959769 0.203058  0.00867653 -0.964329 0.204642  -0.0143039 -0.960004 0.203391  -0.0335348 -1.02744 0.220119  -0.00540447 -1.03187 0.221004  -0.0062573 -1.00927 0.215778  -0.0275142 -1.02689 0.220406  -0.0291121 -1.00482 0.214393  -0.00137925 -1.00927 0.216074  -0.0235641 -1.00537 0.214699  -0.0425441 -1.07268 0.231475  -0.0145717 -1.07797 0.233225  -0.0158823 -1.05443 0.227236  -0.0371189 -1.07386 0.231594  -0.0380583 -1.05026 0.225811  -0.00960112 -1.05468 0.227499  -0.0322614 -1.05042 0.226111  -0.0514212 -1.11752 0.242538  -0.0232711 -1.12201 0.244059  -0.0243075 -1.09931 0.238418  -0.0455711 -1.1177 0.242836  -0.046978 -1.095 0.236956  -0.0189977 -1.09976 0.238807  -0.0413578 -1.09575 0.237227  -0.0602489 -1.16253 0.253339  -0.0327177 -1.16674 0.255315  -0.0334783 -1.14434 0.249859  -0.0547216 -1.16304 0.253641  -0.0558615 -1.14007 0.24796  -0.0277407 -1.14434 0.249856  -0.050096 -1.14034 0.248274  -0.014379 -0.0150859 0.0162821  -0.007283 -0.0079897 0.0126977  0 0 0  -0.0142449 -0.00696708 0.0197964  0 0 0  -0.00843117 -0.00535914 0.0130463  -0.00422078 -0.00111493 0.010725  0 0 0  -0.00495221 -0.00824761 0.00895262  -0.0108116 -0.0093648 0.0147061  -0.00522824 -0.00362609 0.0111361  0 0 0  -0.00260125 -0.00227741 0.00734186  -0.00320392 -0.00453069 0.00779438  -0.0321329 -0.0205807 0.0235262  -0.0270317 -0.0137218 0.0249639  -0.0290877 -0.0138924 0.0243378  -0.0218675 -0.0136431 0.0187883  -0.0179706 -0.00677182 0.0196509  -0.0238497 -0.0172972 0.0205841  -0.0267675 -0.0169764 0.0210962  -0.0224413 -0.0100453 0.022368  -0.0152526 -0.00916211 0.0162988  -0.0192578 -0.0128513 0.0184436  -0.0482121 -0.0309674 0.0264587  -0.0416219 -0.021778 0.0293798  -0.0421311 -0.024511 0.0273418  -0.0345077 -0.0246503 0.0213447  -0.029764 -0.0158749 0.0232067  -0.0401249 -0.0253456 0.0253067  -0.0410423 -0.0275436 0.0238461  -0.0354412 -0.0187016 0.0261378  -0.028257 -0.0186911 0.020236  -0.0339059 -0.021805 0.0227089  -0.0642186 -0.0447863 0.0279708  -0.0570692 -0.0343201 0.031302  -0.0558674 -0.0390368 0.0289192  -0.0468661 -0.0393016 0.0231566  -0.0415879 -0.02872 0.0252752  -0.0562595 -0.0374366 0.0273023  -0.0551771 -0.0418159 0.0255389  -0.0489719 -0.0313125 0.0281992  -0.0406913 -0.0315352 0.022296  -0.0481367 -0.0342401 0.0247631  -0.079941 -0.0619984 0.0291905  -0.0727409 -0.0503107 0.0323849  -0.0698423 -0.0569613 0.0303159  -0.0592155 -0.0573186 0.0249062  -0.0537793 -0.0452759 0.0269232  -0.0721136 -0.0530061 0.0285759  -0.0691827 -0.0594582 0.0270462  -0.0628262 -0.0475991 0.0296087  -0.0530379 -0.0479095 0.0240183  -0.062189 -0.0502427 0.0262823  -0.0953869 -0.0821751 0.0306578  -0.0884321 -0.0693944 0.0334787  -0.0839169 -0.0778873 0.0319319  -0.0715865 -0.0783725 0.0269637  -0.0662186 -0.0650797 0.0286751  -0.0877001 -0.0717416 0.0298748  -0.0830849 -0.0801066 0.028832  -0.0768809 -0.0670665 0.0310717  -0.0653999 -0.0674879 0.0258832  -0.0761513 -0.0694315 0.0278902  -0.11053 -0.105045 0.0326104  -0.103965 -0.0912409 0.0349383  -0.0979567 -0.101466 0.0340037  -0.083954 -0.10214 0.0295091  -0.0788255 -0.08775 0.0308213  -0.103 -0.0932931 0.0315661  -0.0968524 -0.103456 0.0310869  -0.0909418 -0.0893527 0.0329013  -0.0777711 -0.0899325 0.0281763  -0.0899857 -0.0914609 0.0298944  -0.125355 -0.130355 0.0351405  -0.11926 -0.115589 0.0369349  -0.111877 -0.127481 0.036613  -0.0962948 -0.128379 0.0326076  -0.0914552 -0.112989 0.0334597  -0.117982 -0.117415 0.0338001  -0.110453 -0.129256 0.0339098  -0.104939 -0.114174 0.0352306  -0.0901306 -0.114965 0.0309854  -0.103678 -0.116067 0.0324244  -0.139881 -0.157921 0.0383005  -0.134251 -0.142242 0.0395393  -0.125629 -0.155679 0.0398369  -0.108579 -0.156853 0.0362859  -0.104101 -0.140552 0.0366788  -0.132655 -0.143871 0.0366421  -0.12388 -0.157298 0.0373287  -0.118766 -0.141304 0.0381513  -0.102443 -0.142347 0.0343761  -0.117185 -0.143008 0.0355468  -0.154108 -0.18756 0.0420423  -0.148974 -0.171011 0.0427637  -0.139203 -0.185961 0.043613  -0.120803 -0.187403 0.0405388  -0.116655 -0.170243 0.040451  -0.147034 -0.172498 0.0401011  -0.137126 -0.187414 0.041327  -0.132442 -0.170557 0.0416493  -0.1147 -0.17188 0.0383348  -0.13053 -0.172109 0.0392551  -0.168056 -0.219133 0.0463772  -0.163355 -0.201784 0.0465689  -0.152585 -0.218092 0.0480003  -0.132951 -0.219831 0.0453358  -0.129172 -0.201894 0.0448112  -0.161115 -0.203119 0.0441394  -0.150195 -0.219427 0.0459023  -0.145905 -0.201783 0.0457387  -0.126885 -0.203392 0.0428681  -0.143678 -0.203193 0.0435457  -0.181723 -0.25246 0.0512662  -0.177508 -0.234356 0.0509615  -0.165787 -0.25199 0.0528874  -0.145026 -0.254 0.0506763  -0.141572 -0.235333 0.0496869  -0.174929 -0.235592 0.0487571  -0.163087 -0.253195 0.051002  -0.15921 -0.234809 0.0503731  -0.138998 -0.236708 0.0479274  -0.156668 -0.236103 0.0483837  -0.195129 -0.28742 0.0566959  -0.191298 -0.268635 0.0559053  -0.178786 -0.287427 0.0583644  -0.15701 -0.289735 0.056509  -0.153911 -0.270412 0.0551238  -0.188454 -0.26975 0.0539169  -0.1758 -0.288547 0.056654  -0.172294 -0.269494 0.0555654  -0.151029 -0.271682 0.0535269  -0.16946 -0.270682 0.0537658  -0.208268 -0.323842 0.0626326  -0.204901 -0.304412 0.0613866  -0.1916 -0.324346 0.0642762  -0.168905 -0.326902 0.0628476  -0.166114 -0.306978 0.0610285  -0.201739 -0.305461 0.0596075  -0.188337 -0.325364 0.0627642  -0.185217 -0.305685 0.0612564  -0.162968 -0.308148 0.0596046  -0.182096 -0.306783 0.0596461  -0.221152 -0.361613 0.0690503  -0.218118 -0.341623 0.0673766  -0.204209 -0.362527 0.0707479  -0.180694 -0.365355 0.0696239  -0.178232 -0.344893 0.0674486  -0.214733 -0.342569 0.0657892  -0.200688 -0.363472 0.0693965  -0.197911 -0.343247 0.067462  -0.174815 -0.345978 0.0661721  -0.19453 -0.344261 0.0660233  -0.233772 -0.400584 0.0759373  -0.231193 -0.380058 0.0738354  -0.216631 -0.401914 0.0775828  -0.192372 -0.404955 0.0768604  -0.190208 -0.384015 0.0742874  -0.227505 -0.380957 0.072444  -0.212859 -0.40278 0.0764117  -0.21044 -0.382046 0.0741105  -0.186544 -0.385019 0.0731697  -0.206802 -0.382986 0.072845  -0.24613 -0.440625 0.0832524  -0.243842 -0.419671 0.0807672  -0.228829 -0.442299 0.0849605  -0.203924 -0.445577 0.0844936  -0.202069 -0.424215 0.0815969  -0.239974 -0.420479 0.0795488  -0.224827 -0.443102 0.0839391  -0.222738 -0.421945 0.0812306  -0.198168 -0.425149 0.0806146  -0.218864 -0.422817 0.0801239  -0.258222 -0.481612 0.0910215  -0.256376 -0.460224 0.0881314  -0.240818 -0.48362 0.0926523  -0.215332 -0.487081 0.0925455  -0.21377 -0.465354 0.0892887  -0.25222 -0.461005 0.0870938  -0.236599 -0.484371 0.0917869  -0.234842 -0.462811 0.0887609  -0.20964 -0.466225 0.08845  -0.230741 -0.463625 0.0878086  -0.270045 -0.52342 0.0991545  -0.268449 -0.501709 0.0959458  -0.252572 -0.525713 0.100848  -0.22659 -0.529376 0.100948  -0.225311 -0.507322 0.0974021  -0.264154 -0.502419 0.0950527  -0.248149 -0.526407 0.10012  -0.246704 -0.504526 0.0967164  -0.220985 -0.508138 0.0966854  -0.242398 -0.505293 0.0959063  -0.281598 -0.565955 0.107696  -0.280429 -0.543909 0.104112  -0.264101 -0.568507 0.109297  -0.237674 -0.572309 0.109722  -0.236681 -0.550005 0.105866  -0.275868 -0.544598 0.103385  -0.259489 -0.569167 0.108703  -0.258352 -0.546987 0.105038  -0.232146 -0.550769 0.105274  -0.253846 -0.547702 0.104363  -0.292867 -0.609081 0.116551  -0.291916 -0.586822 0.11269  -0.275378 -0.611856 0.118214  -0.24859 -0.615829 0.118805  -0.247856 -0.593288 0.114688  -0.287253 -0.587449 0.112092  -0.270593 -0.612468 0.117746  -0.269753 -0.590066 0.113729  -0.243162 -0.594005 0.114206  -0.265068 -0.590747 0.113183  -0.303871 -0.65273 0.12579  -0.303319 -0.630216 0.121595  -0.286408 -0.655695 0.127345  -0.259302 -0.659774 0.128208  -0.258837 -0.637072 0.123826  -0.298416 -0.630838 0.121138  -0.281471 -0.65629 0.126986  -0.280907 -0.633676 0.122756  -0.253961 -0.637753 0.123453  -0.276058 -0.634319 0.122327  -0.314587 -0.696771 0.135271  -0.314224 -0.674134 0.130855  -0.297185 -0.699908 0.136885  -0.269828 -0.704123 0.137877  -0.269599 -0.681264 0.133262  -0.30925 -0.674705 0.130507  -0.292101 -0.700462 0.136641  -0.291815 -0.677712 0.132093  -0.264597 -0.681906 0.132988  -0.286816 -0.678329 0.131776  -0.325044 -0.741162 0.145102  -0.325045 -0.718351 0.140383  -0.307709 -0.74443 0.146602  -0.280134 -0.748718 0.147822  -0.280158 -0.725775 0.142987  -0.31986 -0.718919 0.140158  -0.302499 -0.744979 0.146445  -0.30246 -0.722095 0.141725  -0.274997 -0.726394 0.142804  -0.297325 -0.722682 0.141509  -0.335216 -0.785773 0.155118  -0.335373 -0.76291 0.150222  -0.317973 -0.789163 0.156662  -0.290242 -0.793561 0.157979  -0.290472 -0.770527 0.152951  -0.330151 -0.763442 0.150091  -0.31265 -0.789683 0.156605  -0.312862 -0.76673 0.151615  -0.285221 -0.771114 0.152856  -0.307605 -0.767301 0.151494  -0.345137 -0.830593 0.165431  -0.345615 -0.807611 0.160289  -0.327971 -0.834067 0.166857  -0.300122 -0.838513 0.168347  -0.300571 -0.815453 0.163152  -0.340217 -0.80815 0.160254  -0.322564 -0.834588 0.16687  -0.322987 -0.81156 0.161752  -0.295199 -0.816027 0.163131  -0.317632 -0.812113 0.161715  -0.354791 -0.875504 0.175862  -0.355383 -0.852527 0.170591  -0.337728 -0.879058 0.17732  -0.309804 -0.883579 0.178874  -0.310425 -0.860488 0.173524  -0.349983 -0.853036 0.170632  -0.332243 -0.879556 0.177413  -0.332869 -0.856517 0.172078  -0.304995 -0.861035 0.173575  -0.327432 -0.857057 0.172117  -0.364214 -0.920496 0.186503  -0.365078 -0.897461 0.181039  -0.347215 -0.924099 0.187848  -0.319266 -0.928648 0.189534  -0.320062 -0.905581 0.184079  -0.359539 -0.897987 0.181159  -0.341695 -0.9246 0.188001  -0.342492 -0.901547 0.18258  -0.314556 -0.906118 0.184186  -0.336995 -0.902073 0.18269  -0.373409 -0.96548 0.197205  -0.374315 -0.942468 0.19167  -0.356504 -0.969116 0.198578  -0.328535 -0.973717 0.200282  -0.329463 -0.950662 0.194726  -0.368823 -0.942984 0.191845  -0.350946 -0.969608 0.19876  -0.351868 -0.946575 0.193216  -0.323928 -0.951182 0.194892  -0.346339 -0.947101 0.193367  -0.382412 -1.01042 0.208008  -0.383495 -0.987461 0.202368  -0.365567 -1.01408 0.209288  -0.337607 -1.01872 0.211048  -0.338637 -0.995704 0.205463  -0.377949 -0.987959 0.202595  -0.359992 -1.01459 0.20954  -0.361056 -0.991584 0.203918  -0.333091 -0.996226 0.20567  -0.355497 -0.992103 0.204134  -0.391273 -1.05534 0.218754  -0.392402 -1.03237 0.213133  -0.374433 -1.05903 0.220025  -0.346522 -1.0636 0.22184  -0.347667 -1.04069 0.216211  -0.386851 -1.0329 0.213388  -0.368897 -1.05947 0.220256  -0.370008 -1.03655 0.214661  -0.342084 -1.04117 0.216452  -0.364447 -1.03705 0.214906  -0.400066 -1.10013 0.229511  -0.401171 -1.07726 0.223826  -0.383204 -1.10381 0.230771  -0.355321 -1.10846 0.232496  -0.356516 -1.08555 0.226975  -0.395669 -1.07773 0.224101  -0.377746 -1.10429 0.231026  -0.378817 -1.08142 0.22542  -0.350934 -1.08603 0.227217  -0.373328 -1.08186 0.22566  -0.00901368 -0.000952855 0.01513  0 0 0  -0.00529703 -0.0011567 0.00965071  -0.00272651 0.0013313 0.00784397  0 0 0  -0.00671414 -0.0028256 0.0113473  -0.00336062 0.000335351 0.00911522  0 0 0  -0.00162972 8.87513e-05 0.00543594  -0.00202362 -0.000867307 0.00632095  -0.0195574 -0.00830315 0.018908  -0.0139882 -0.00867265 0.0141001  -0.0115778 -0.00210251 0.0146017  -0.0176842 -0.010809 0.0164518  -0.0145485 -0.00407203 0.0170627  -0.00961709 -0.00433277 0.012116  -0.0122232 -0.00633602 0.0141711  -0.0295535 -0.0195088 0.0214257  -0.0229088 -0.0203239 0.0163679  -0.0196789 -0.0113936 0.0174313  -0.0284693 -0.0222594 0.0188689  -0.0244795 -0.0134089 0.0203257  -0.0184209 -0.014032 0.0153151  -0.0230952 -0.0160863 0.0177917  -0.0399783 -0.0345156 0.0232563  -0.0319247 -0.0355843 0.0183306  -0.0283352 -0.0247578 0.0194631  -0.0391508 -0.0372285 0.0207539  -0.0347233 -0.0265429 0.0223665  -0.0274111 -0.0275089 0.0173516  -0.0338108 -0.0293016 0.0198336  -0.0507271 -0.0530436 0.025146  -0.0410536 -0.0542302 0.020493  -0.0373416 -0.0418418 0.0214429  -0.0498849 -0.0555764 0.0227103  -0.0453162 -0.0433627 0.0241861  -0.0364679 -0.0445067 0.0193696  -0.0445054 -0.0460019 0.0217094  -0.0617477 -0.0746231 0.0273695  -0.0503873 -0.0759429 0.0230622  -0.0467014 -0.0622141 0.0237303  -0.0607349 -0.0769816 0.0250335  -0.0562025 -0.0634619 0.0262079  -0.0456913 -0.0647242 0.0217223  -0.0552941 -0.0659178 0.0238185  -0.0729691 -0.0989911 0.0300503  -0.0599294 -0.100415 0.0261521  -0.0563625 -0.0855327 0.0264444  -0.0716923 -0.101119 0.0278502  -0.0673432 -0.0864749 0.0286503  -0.0551358 -0.0878521 0.0245342  -0.0662025 -0.0887257 0.0263777  -0.084308 -0.125771 0.0332909  -0.0696773 -0.127381 0.0297861  -0.0662925 -0.111464 0.0297031  -0.0827451 -0.127746 0.0312281  -0.0786185 -0.112078 0.0316043  -0.0647749 -0.113604 0.0279002  -0.0772064 -0.114137 0.0294695  -0.0957409 -0.154847 0.0370569  -0.0796032 -0.156616 0.0339866  -0.0764176 -0.139767 0.0334759  -0.0938584 -0.156617 0.0351562  -0.0900208 -0.140035 0.0351071  -0.074625 -0.141728 0.0318074  -0.0882984 -0.141914 0.0331225  -0.107203 -0.185895 0.0414238  -0.0896869 -0.187908 0.038712  -0.0867378 -0.170208 0.0378304  -0.105026 -0.187558 0.0396667  -0.10146 -0.170117 0.039175  -0.0846193 -0.172019 0.0362811  -0.0994325 -0.17184 0.037343  -0.118718 -0.218887 0.0462747  -0.0999134 -0.221088 0.0439863  -0.0971768 -0.202607 0.0426822  -0.116223 -0.220377 0.044682  -0.112961 -0.202163 0.0437813  -0.0947911 -0.20427 0.0412745  -0.110626 -0.203743 0.0421042  -0.130214 -0.2535 0.0517187  -0.110255 -0.255962 0.0497465  -0.107774 -0.236781 0.048099  -0.127445 -0.254912 0.050261  -0.12446 -0.23598 0.048934  -0.105061 -0.238323 0.046804  -0.121826 -0.237437 0.0474072  -0.141741 -0.28974 0.0575829  -0.120705 -0.292396 0.0560184  -0.118428 -0.272568 0.0539699  -0.138673 -0.291011 0.056283  -0.135979 -0.271432 0.0545807  -0.115476 -0.273988 0.0528173  -0.133064 -0.272777 0.0532012  -0.153211 -0.327297 0.0640149  -0.131224 -0.330201 0.0627251  -0.129208 -0.30981 0.0603642  -0.149893 -0.328503 0.0628438  -0.147478 -0.308341 0.0607419  -0.125946 -0.311135 0.0593147  -0.144278 -0.309587 0.059505  -0.164678 -0.366185 0.0708032  -0.141816 -0.369277 0.0698919  -0.139992 -0.348359 0.0671682  -0.161093 -0.367286 0.0697761  -0.158946 -0.346592 0.0673432  -0.136521 -0.349581 0.0662556  -0.155502 -0.347745 0.0662441  -0.176061 -0.406121 0.0781298  -0.152423 -0.40943 0.0774488  -0.150869 -0.388081 0.0744395  -0.172248 -0.407159 0.07722  -0.170382 -0.386016 0.0744123  -0.147107 -0.389223 0.0736217  -0.16667 -0.387088 0.0734439  -0.187406 -0.44711 0.0857573  -0.163064 -0.450588 0.0854325  -0.161693 -0.428829 0.0820923  -0.183356 -0.448072 0.0849786  -0.181736 -0.426506 0.0818796  -0.157748 -0.429883 0.0813994  -0.177815 -0.427498 0.0810366  -0.19863 -0.488898 0.0938935  -0.173668 -0.492563 0.0937595  -0.172572 -0.470482 0.090158  -0.194373 -0.489798 0.0932217  -0.193041 -0.467901 0.0897717  -0.168362 -0.471473 0.0895534  -0.188868 -0.468831 0.0890479  -0.209767 -0.531487 0.102276  -0.184263 -0.535297 0.10246  -0.18334 -0.512914 0.0985794  -0.205313 -0.532341 0.101719  -0.204201 -0.510114 0.0980253  -0.178971 -0.513831 0.0980821  -0.199858 -0.510978 0.0974145  -0.220759 -0.574663 0.11112  -0.194773 -0.578619 0.111465  -0.194121 -0.556014 0.107337  -0.216117 -0.575446 0.110661  -0.215295 -0.553005 0.106647  -0.189523 -0.55688 0.106928  -0.210726 -0.553819 0.106143  -0.23162 -0.618405 0.120172  -0.205224 -0.622486 0.120793  -0.20474 -0.599678 0.116433  -0.226815 -0.619173 0.119814  -0.226196 -0.596486 0.11559  -0.200006 -0.600481 0.116113  -0.221484 -0.597245 0.115186  -0.242311 -0.662552 0.129632  -0.21555 -0.66674 0.130389  -0.215328 -0.643791 0.125804  -0.23734 -0.663244 0.129363  -0.237004 -0.640434 0.124855  -0.210399 -0.644554 0.125568  -0.232093 -0.641157 0.124547  -0.252829 -0.707063 0.139261  -0.225781 -0.711351 0.140253  -0.225723 -0.688286 0.135481  -0.247734 -0.707758 0.139078  -0.247578 -0.684782 0.134402  -0.220676 -0.688999 0.135314  -0.242557 -0.685458 0.13418  -0.263161 -0.751816 0.149248  -0.235857 -0.756182 0.150349  -0.236039 -0.733044 0.145372  -0.257927 -0.75244 0.149143  -0.258039 -0.729419 0.144212  -0.230838 -0.733725 0.145287  -0.252849 -0.730069 0.144075  -0.273286 -0.796776 0.159358  -0.245795 -0.801218 0.160651  -0.246129 -0.778029 0.155528  -0.267968 -0.797412 0.159325  -0.268235 -0.774288 0.154269  -0.240839 -0.778673 0.155499  -0.26297 -0.774901 0.154205  -0.28322 -0.841845 0.169745  -0.255565 -0.846331 0.171124  -0.256104 -0.823134 0.165836  -0.277795 -0.842418 0.169783  -0.278296 -0.819304 0.164518  -0.2507 -0.823751 0.16588  -0.272903 -0.819901 0.164526  -0.292932 -0.886993 0.180228  -0.265174 -0.891536 0.18176  -0.265851 -0.86834 0.176347  -0.287456 -0.887576 0.180322  -0.288092 -0.864426 0.174965  -0.260387 -0.868924 0.176437  -0.282649 -0.864988 0.175032  -0.302446 -0.932139 0.190888  -0.274611 -0.936705 0.19249  -0.275449 -0.913543 0.186966  -0.296904 -0.932679 0.191041  -0.297728 -0.909574 0.185532  -0.269909 -0.914112 0.18712  -0.292203 -0.910129 0.18566  -0.311747 -0.977272 0.201597  -0.28387 -0.981868 0.203301  -0.284822 -0.958757 0.197714  -0.306178 -0.977805 0.201786  -0.307115 -0.954721 0.196236  -0.279265 -0.959289 0.197898  -0.301562 -0.955245 0.196406  -0.320835 -1.02231 0.212371  -0.292959 -1.02691 0.214119  -0.294019 -1.00387 0.208482  -0.315277 -1.02281 0.2126  -0.316321 -0.999787 0.206965  -0.288425 -1.00439 0.20871  -0.310744 -1.00032 0.207179  -0.32976 -1.06724 0.223068  -0.301883 -1.07185 0.224896  -0.303026 -1.04892 0.219277  -0.324194 -1.06773 0.223328  -0.32531 -1.04482 0.217741  -0.297444 -1.0494 0.219527  -0.319763 -1.04529 0.217983  -0.338625 -1.112 0.233844  -0.310734 -1.11664 0.235642  -0.311893 -1.09378 0.230021  -0.333031 -1.11255 0.234094  -0.33422 -1.08966 0.228462  -0.306307 -1.09426 0.230295  -0.328612 -1.09017 0.228717  -0.00558116 0.00172803 0.0102963  0 0 0  -0.0029395 0.000544906 0.00583792  -0.00155951 0.00231993 0.00479698  0 0 0  -0.00404987 -0.000104189 0.00773668  -0.00210261 0.00195292 0.00627375  0 0 0  -0.000901282 0.00104651 0.00328302  -0.00123143 0.000691265 0.00434256  -0.0121397 -0.00469628 0.0132213  -0.007799 -0.00618672 0.00896454  -0.00662012 0.000147313 0.00908804  -0.0107672 -0.00715563 0.0115399  -0.00899315 -0.000733465 0.0118079  -0.00534487 -0.00211433 0.00751877  -0.00738007 -0.00297368 0.00981188  -0.018779 -0.0161321 0.015481  -0.0130133 -0.017926 0.0110922  -0.011326 -0.00884625 0.0113711  -0.0178097 -0.0188719 0.0137486  -0.0153465 -0.00986609 0.0143962  -0.0103502 -0.0115243 0.0100417  -0.0142419 -0.0125152 0.0126886  -0.0260006 -0.031635 0.0175104  -0.0185896 -0.0336034 0.0132904  -0.016658 -0.0225046 0.0134773  -0.0251041 -0.0343736 0.0158267  -0.0223462 -0.0234028 0.01648  -0.015761 -0.0253091 0.0121613  -0.0214337 -0.026174 0.0147729  -0.0336252 -0.0506447 0.0198517  -0.0245066 -0.0527461 0.0158668  -0.0224839 -0.0400053 0.0158038  -0.0326303 -0.0532872 0.0182018  -0.0297547 -0.0407217 0.0186338  -0.0215039 -0.042758 0.0145283  -0.0288333 -0.0434254 0.0169668  -0.0416418 -0.0728073 0.0225906  -0.0307997 -0.0749537 0.0189409  -0.0287646 -0.0608634 0.0185852  -0.0404421 -0.0752632 0.0210137  -0.0375927 -0.0613472 0.0211725  -0.0276013 -0.0634837 0.0173435  -0.0364984 -0.0639121 0.0195541  -0.0500236 -0.0977313 0.0258813  -0.0375071 -0.0999951 0.0225444  -0.0355148 -0.0846744 0.0218582  -0.0485731 -0.100039 0.0243778  -0.0457792 -0.0849314 0.0241666  -0.0341017 -0.0871318 0.020679  -0.0444674 -0.0873191 0.0226269  -0.058742 -0.125204 0.0296555  -0.0446196 -0.127525 0.0267043  -0.0426872 -0.11118 0.0256777  -0.0569999 -0.127301 0.0282564  -0.0543506 -0.111164 0.0277085  -0.0410122 -0.11346 0.0245585  -0.0527509 -0.113375 0.0262542  -0.0677503 -0.154889 0.0340414  -0.0521296 -0.157385 0.0314021  -0.0503025 -0.140053 0.0300393  -0.0657281 -0.156868 0.0327349  -0.0632027 -0.139767 0.0317802  -0.0483253 -0.142175 0.028996  -0.0613265 -0.14181 0.030427  -0.0770396 -0.186694 0.0388699  -0.0600101 -0.189281 0.0366321  -0.05827 -0.171133 0.0349193  -0.0747082 -0.188475 0.0376759  -0.0723671 -0.170544 0.0363994  -0.0560251 -0.173086 0.0339484  -0.0701898 -0.172427 0.0351429  -0.0865467 -0.220282 0.0443182  -0.0682311 -0.223089 0.0423594  -0.0666374 -0.204136 0.040338  -0.0839471 -0.221986 0.0432239  -0.0817618 -0.203254 0.0415378  -0.0640774 -0.205957 0.0394449  -0.0792941 -0.205001 0.0403867  -0.0962877 -0.255652 0.0501537  -0.0767745 -0.258564 0.0485888  -0.0752716 -0.238955 0.0462208  -0.093387 -0.257172 0.0491662  -0.0913913 -0.237771 0.0471864  -0.0724663 -0.240624 0.0454059  -0.0886456 -0.239377 0.0461359  -0.10618 -0.292435 0.0565848  -0.0855916 -0.295586 0.0552597  -0.0842603 -0.275328 0.0526285  -0.103036 -0.293913 0.0556989  -0.101218 -0.273851 0.0533242  -0.0811468 -0.276896 0.0518851  -0.0981821 -0.275353 0.0523758  -0.116268 -0.330705 0.0633454  -0.0946798 -0.333956 0.0623913  -0.0934389 -0.313178 0.0594225  -0.112838 -0.332014 0.0625525  -0.111197 -0.311423 0.0599203  -0.0901078 -0.314607 0.0587564  -0.107922 -0.312799 0.0590663  -0.126438 -0.370069 0.0706582  -0.103965 -0.373552 0.069932  -0.102927 -0.352269 0.0667281  -0.122791 -0.371357 0.0699749  -0.121359 -0.350231 0.0669718  -0.0992967 -0.35362 0.0661268  -0.117791 -0.351532 0.0662131  -0.13675 -0.410645 0.0782642  -0.113461 -0.414219 0.0778689  -0.11251 -0.392533 0.0743556  -0.132843 -0.411782 0.077652  -0.131566 -0.390257 0.0744243  -0.108694 -0.393757 0.073833  -0.127808 -0.391437 0.0737567  -0.147087 -0.452031 0.0863667  -0.123079 -0.455812 0.0861707  -0.12235 -0.433757 0.0824533  -0.142985 -0.453158 0.0858679  -0.141945 -0.431221 0.0822973  -0.118254 -0.434923 0.0819874  -0.137898 -0.432349 0.0817161  -0.157511 -0.49438 0.0947332  -0.13285 -0.498236 0.0948291  -0.132206 -0.475879 0.0908241  -0.153177 -0.495377 0.0942888  -0.15227 -0.473146 0.0905199  -0.127952 -0.476931 0.090435  -0.148077 -0.474164 0.0900245  -0.167893 -0.537292 0.103529  -0.142668 -0.541322 0.103817  -0.14226 -0.518715 0.0996289  -0.163389 -0.538279 0.103203  -0.162749 -0.515751 0.0991235  -0.137757 -0.519721 0.0992913  -0.158275 -0.516736 0.0987072  -0.178308 -0.580936 0.112571  -0.152569 -0.585025 0.113096  -0.152252 -0.562203 0.108659  -0.173605 -0.581818 0.112279  -0.173072 -0.559087 0.108027  -0.147613 -0.563113 0.108396  -0.168496 -0.559969 0.107689  -0.188629 -0.624934 0.121966  -0.16246 -0.629165 0.122664  -0.162376 -0.606196 0.118056  -0.183778 -0.625803 0.12179  -0.183531 -0.602883 0.117265  -0.157523 -0.607064 0.117843  -0.178692 -0.603744 0.116999  -0.198926 -0.669458 0.131593  -0.172369 -0.673734 0.132489  -0.172385 -0.650624 0.127678  -0.19391 -0.670244 0.131438  -0.193751 -0.647194 0.126769  -0.167417 -0.651418 0.127526  -0.188848 -0.647967 0.126572  -0.209088 -0.714165 0.141505  -0.182217 -0.718547 0.142556  -0.182457 -0.695369 0.137578  -0.203948 -0.714933 0.141461  -0.204079 -0.691785 0.136547  -0.177309 -0.696128 0.13748  -0.198936 -0.692546 0.136418  -0.219167 -0.759213 0.151614  -0.192018 -0.76363 0.152819  -0.192365 -0.740383 0.147696  -0.213903 -0.75992 0.151583  -0.214108 -0.736706 0.146558  -0.187126 -0.741082 0.147652  -0.208934 -0.737389 0.146487  -0.229083 -0.804315 0.161939  -0.201728 -0.808804 0.163273  -0.202266 -0.785547 0.157992  -0.223723 -0.805 0.162007  -0.224198 -0.781756 0.156773  -0.196893 -0.786218 0.158  -0.218825 -0.782437 0.156766  -0.238878 -0.849601 0.172423  -0.211332 -0.854114 0.173879  -0.21198 -0.830847 0.168509  -0.233424 -0.850235 0.172501  -0.233967 -0.826985 0.167186  -0.206547 -0.83147 0.16856  -0.228586 -0.827597 0.167228  -0.248487 -0.894844 0.183064  -0.220828 -0.899403 0.184628  -0.221637 -0.87617 0.179104  -0.242974 -0.895466 0.183226  -0.243751 -0.87223 0.177735  -0.216097 -0.876767 0.179206  -0.238214 -0.872843 0.177838  -0.257943 -0.940154 0.193794  -0.230175 -0.944714 0.195449  -0.231076 -0.921521 0.18991  -0.252375 -0.940718 0.193964  -0.253209 -0.917525 0.188445  -0.225528 -0.92208 0.190045  -0.24769 -0.918084 0.188585  -0.267207 -0.985345 0.204606  -0.239402 -0.989937 0.206339  -0.240432 -0.966802 0.200662  -0.261619 -0.985907 0.204841  -0.262633 -0.962767 0.199198  -0.234805 -0.96734 0.200856  -0.257016 -0.963319 0.199389  -0.276318 -1.03049 0.215399  -0.248456 -1.03505 0.217206  -0.249538 -1.01202 0.211593  -0.270687 -1.03099 0.215641  -0.271758 -1.00794 0.210033  -0.243951 -1.01252 0.211799  -0.266166 -1.00845 0.21025  -0.285244 -1.07548 0.226237  -0.257378 -1.08 0.228086  -0.2586 -1.05708 0.22237  -0.279629 -1.07593 0.226515  -0.280831 -1.05299 0.220834  -0.25295 -1.05757 0.222627  -0.275175 -1.05349 0.221085  -0.293932 -1.12024 0.236883  -0.266186 -1.12476 0.238811  -0.267382 -1.10198 0.233218  -0.288456 -1.12069 0.237197  -0.289591 -1.0979 0.231621  -0.261785 -1.10243 0.233482  -0.284061 -1.09833 0.231901  -0.00272068 0.00269997 0.00522804  0 0 0  -0.000882812 0.000884414 0.00186825  -0.000524148 0.00248611 0.00160456  0 0 0  -0.00188967 0.000855386 0.00385094  -0.00102676 0.00248402 0.00318575  0 0 0  -0.000274308 0.00121117 0.000988483  -0.00057748 0.00120682 0.00213242  -0.00592095 -0.00319743 0.0072031  -0.00231309 -0.00566122 0.00359297  -0.00221878 0.000645578 0.00337219  -0.00501359 -0.00570449 0.00627518  -0.00438149 0.000587165 0.00621796  -0.00159059 -0.00164881 0.00270271  -0.0034356 -0.00169331 0.00510836  -0.00928658 -0.0146518 0.00927067  -0.00400916 -0.0174585 0.00557423  -0.00382346 -0.00827584 0.00511742  -0.00845313 -0.0174586 0.00834179  -0.00752246 -0.00832215 0.00823927  -0.00310847 -0.0110031 0.00453997  -0.00667742 -0.0110294 0.0072999  -0.0132507 -0.0304383 0.0115638  -0.006156 -0.0333872 0.00804043  -0.00587299 -0.0220714 0.00726843  -0.0123084 -0.0332736 0.0106711  -0.0111976 -0.022063 0.0103745  -0.00502309 -0.0249568 0.00673723  -0.0103307 -0.0249071 0.00945616  -0.017722 -0.049842 0.0143337  -0.00883496 -0.0528424 0.0110297  -0.00848657 -0.0398549 0.00998211  -0.0166059 -0.052595 0.0134716  -0.0154302 -0.0397129 0.0129094  -0.0074206 -0.0427005 0.00946379  -0.0143971 -0.0425153 0.0120196  -0.0227426 -0.0724019 0.0176125  -0.0121028 -0.075448 0.0145907  -0.0116863 -0.0610336 0.0132117  -0.0213838 -0.0750147 0.0167809  -0.0201527 -0.0607596 0.0159106  -0.0103984 -0.0637707 0.0127316  -0.0189341 -0.0634384 0.0150528  -0.0282879 -0.0978268 0.0214276  -0.0159623 -0.100881 0.0186982  -0.0155194 -0.0852607 0.017036  -0.0266694 -0.100269 0.0206494  -0.0254666 -0.0847807 0.0194855  -0.0139517 -0.0878371 0.0165625  -0.0239612 -0.0873026 0.018661  -0.0343624 -0.125754 0.0258093  -0.0204515 -0.128902 0.0233736  -0.0199613 -0.112167 0.021389  -0.0324659 -0.128056 0.0250645  -0.0312465 -0.111513 0.0235486  -0.0181354 -0.114582 0.0209565  -0.0295048 -0.113863 0.0227771  -0.0409398 -0.156046 0.0306759  -0.0255079 -0.159213 0.028563  -0.0250226 -0.141554 0.0262952  -0.0387522 -0.158157 0.0300016  -0.0376152 -0.140645 0.028213  -0.022904 -0.143802 0.0258794  -0.0355504 -0.142836 0.0274806  -0.0479789 -0.188314 0.0361376  -0.0311735 -0.191647 0.0342774  -0.0306644 -0.173088 0.0317211  -0.0455235 -0.190334 0.0354934  -0.0443904 -0.171976 0.0333371  -0.0282716 -0.175178 0.0313473  -0.0420779 -0.174003 0.0326681  -0.0554788 -0.222578 0.0419784  -0.0373366 -0.225933 0.0404778  -0.0368629 -0.206651 0.0376277  -0.0527205 -0.224392 0.0414186  -0.0517086 -0.205265 0.0390339  -0.0341941 -0.208597 0.037282  -0.0490777 -0.207153 0.0384064  -0.0633415 -0.258368 0.0484552  -0.0440501 -0.261942 0.0471411  -0.0435801 -0.241937 0.0440526  -0.0603491 -0.260147 0.0479155  -0.0593578 -0.240335 0.0451517  -0.0406277 -0.243737 0.0437465  -0.0564791 -0.242077 0.0445957  -0.071629 -0.295855 0.0551844  -0.0511856 -0.299437 0.054255  -0.0507705 -0.278862 0.0508699  -0.0683289 -0.297413 0.0547328  -0.0674776 -0.276998 0.051795  -0.0475775 -0.280549 0.0506029  -0.0643121 -0.278628 0.0512772  -0.0801729 -0.33447 0.0625825  -0.0587894 -0.338296 0.0617714  -0.0584115 -0.31716 0.0582013  -0.0766778 -0.336043 0.0621452  -0.0758704 -0.315078 0.0588207  -0.0549251 -0.318717 0.0579629  -0.0724541 -0.316582 0.0583768  -0.089095 -0.374531 0.0701175  -0.0667341 -0.378343 0.0697284  -0.0664259 -0.356757 0.0658407  -0.0852948 -0.375866 0.0697722  -0.0846363 -0.354449 0.0663199  -0.0627463 -0.358222 0.0656633  -0.0809789 -0.355854 0.0659137  -0.0981607 -0.415369 0.0783424  -0.0750443 -0.419426 0.0779924  -0.0748048 -0.39743 0.0739894  -0.0942055 -0.416757 0.0780053  -0.0936227 -0.39491 0.0741706  -0.07083 -0.398784 0.0738297  -0.0897086 -0.39621 0.0738406  -0.107555 -0.457419 0.0865889  -0.0836313 -0.46144 0.0866923  -0.0834689 -0.43909 0.0823636  -0.103302 -0.458561 0.086339  -0.102861 -0.436391 0.0824237  -0.0793481 -0.440368 0.0822725  -0.0987651 -0.437603 0.0821285  -0.116992 -0.499944 0.0955472  -0.0924661 -0.504188 0.0956092  -0.0924027 -0.481577 0.0912189  -0.11262 -0.501161 0.0953064  -0.112294 -0.478672 0.091013  -0.0879934 -0.48276 0.091136  -0.107929 -0.479801 0.0907898  -0.126693 -0.543463 0.10443  -0.101527 -0.547663 0.104959  -0.101546 -0.524763 0.100251  -0.122049 -0.544443 0.104268  -0.121842 -0.521734 0.0999317  -0.0970297 -0.525883 0.100241  -0.117362 -0.52278 0.0997448  -0.13635 -0.587211 0.11401  -0.110712 -0.591597 0.114448  -0.110851 -0.568575 0.109712  -0.13161 -0.58827 0.113865  -0.131565 -0.565346 0.109166  -0.106071 -0.569616 0.109707  -0.126809 -0.566334 0.109046  -0.146195 -0.631748 0.123454  -0.12007 -0.636089 0.124357  -0.1203 -0.612837 0.119325  -0.14122 -0.632589 0.123374  -0.141266 -0.609532 0.118665  -0.115443 -0.613816 0.119386  -0.136453 -0.610432 0.118581  -0.155938 -0.676316 0.133557  -0.129443 -0.680807 0.134326  -0.129805 -0.657543 0.129281  -0.150887 -0.677238 0.133501  -0.151127 -0.654055 0.128452  -0.124717 -0.658466 0.129356  -0.146044 -0.654925 0.128426  -0.165782 -0.721482 0.143484  -0.13895 -0.725925 0.144695  -0.139403 -0.702494 0.139403  -0.160545 -0.72221 0.14348  -0.160848 -0.69896 0.138451  -0.134259 -0.703351 0.139521  -0.155759 -0.69974 0.13846  -0.175491 -0.766533 0.154001  -0.148379 -0.77109 0.155067  -0.148962 -0.74773 0.149748  -0.170188 -0.767335 0.154029  -0.170707 -0.74404 0.148695  -0.143633 -0.748549 0.149895  -0.165369 -0.744809 0.148752  -0.185205 -0.812014 0.164317  -0.157884 -0.816519 0.165777  -0.158563 -0.793053 0.160286  -0.179771 -0.812643 0.164393  -0.180335 -0.789332 0.159092  -0.153199 -0.793799 0.160452  -0.175024 -0.790011 0.159187  -0.194772 -0.857263 0.175124  -0.167249 -0.861869 0.176457  -0.168054 -0.838524 0.170912  -0.189285 -0.857977 0.175234  -0.190059 -0.834681 0.169691  -0.162547 -0.839255 0.171124  -0.184542 -0.835366 0.169817  -0.204264 -0.902811 0.185754  -0.176639 -0.907349 0.187409  -0.17753 -0.883975 0.181759  -0.198706 -0.903361 0.18591  -0.199519 -0.880102 0.18039  -0.172008 -0.884608 0.181972  -0.194037 -0.880692 0.180559  -0.213603 -0.948067 0.19673  -0.185845 -0.952699 0.198301  -0.18686 -0.929444 0.192571  -0.208008 -0.9487 0.196913  -0.208995 -0.92549 0.19123  -0.181237 -0.930094 0.192839  -0.203381 -0.926096 0.191417  -0.222816 -0.993481 0.207532  -0.195045 -0.998014 0.209322  -0.196087 -0.974821 0.203629  -0.217198 -0.993971 0.207756  -0.21822 -0.970824 0.202091  -0.190491 -0.975354 0.20387  -0.212629 -0.971354 0.202328  -0.231842 -1.03859 0.218521  -0.203999 -1.04321 0.22028  -0.205211 -1.0201 0.214471  -0.226244 -1.03912 0.218768  -0.227381 -1.01608 0.213044  -0.199544 -1.02067 0.21477  -0.221751 -1.0166 0.213284  -0.240778 -1.08367 0.229342  -0.212963 -1.08816 0.231199  -0.214164 -1.06521 0.225548  -0.23516 -1.0841 0.229596  -0.236302 -1.06117 0.223906  -0.208484 -1.06571 0.225817  -0.230721 -1.06164 0.224183  -0.249625 -1.12837 0.240276  -0.221754 -1.133 0.242116  -0.223029 -1.11011 0.236414  -0.243948 -1.12886 0.240503  -0.245218 -1.10603 0.234789  -0.217415 -1.11059 0.236675  -0.239568 -1.10651 0.23505  -5.50821e-05 0.00247031 8.34465e-05  0 0 0  0.00114872 0.000148594 -0.00213575  0.000469021 0.00203514 -0.00161171  0 0 0  0.000125259 0.000645399 -0.00013876  -2.67997e-05 0.00233543 -4.76837e-07  0 0 0  0.000340998 0.000784278 -0.00133371  3.07187e-05 0.00106984 -0.000171661  -7.22706e-05 -0.00349623 0.0010705  0.00309449 -0.00682276 -0.00180721  0.00211652 -0.000338972 -0.00236654  0.00037238 -0.00603998 0.000885963  -6.63847e-05 0.000334501 0.000500202  0.00211661 -0.002621 -0.00213575  0.000248909 -0.00196135 0.000284195  -0.000305861 -0.0150508 0.00291061  0.00487179 -0.0188231 -3.52859e-05  0.00360197 -0.00951898 -0.00121546  0.000413477 -0.017921 0.00275564  -0.000134379 -0.00868529 0.00193024  0.00403091 -0.0122802 -0.00101566  0.000441581 -0.0114263 0.00174379  -0.00100046 -0.0309904 0.00546169  0.00609607 -0.03488 0.00262833  0.00474802 -0.0234249 0.000968456  -4.48227e-05 -0.033931 0.00534201  -0.000594139 -0.0225275 0.00410891  0.00557157 -0.0263661 0.00120544  0.00025776 -0.0254476 0.00397491  -0.00235528 -0.0506348 0.00863934  0.00661659 -0.0545613 0.00599861  0.00535834 -0.0413498 0.00396299  -0.00111645 -0.0535024 0.00851917  -0.00157732 -0.0404091 0.0069747  0.00644493 -0.0442932 0.00423241  -0.000499249 -0.0432981 0.00685501  -0.00436217 -0.0734996 0.0124159  0.00635833 -0.0773715 0.0100131  0.00515199 -0.0627381 0.00768566  -0.00287604 -0.0762404 0.0123219  -0.00329745 -0.0616886 0.010457  0.00659823 -0.0655773 0.00794077  -0.00190544 -0.0644839 0.0103579  -0.0071153 -0.0992675 0.0167999  0.0053075 -0.103202 0.0146136  0.00426435 -0.0872187 0.01194  -0.00532681 -0.101859 0.0166779  -0.00562328 -0.0860796 0.0145178  0.005916 -0.0899316 0.0122247  -0.00401801 -0.0887157 0.0144248  -0.0105395 -0.127634 0.0216737  0.00346744 -0.131461 0.0197859  0.00248677 -0.114477 0.0169234  -0.00849044 -0.130041 0.021596  -0.00878018 -0.113145 0.0191736  0.00451303 -0.117025 0.0171595  -0.00681287 -0.115634 0.0190859  -0.0146935 -0.158317 0.0271845  0.000808835 -0.162309 0.0254645  -7.51019e-06 -0.144175 0.0222473  -0.0123463 -0.160591 0.0270524  -0.0124905 -0.142735 0.0243254  0.00220239 -0.146586 0.0225234  -0.0103431 -0.145053 0.0242548  -0.0194892 -0.191133 0.0330267  -0.0025636 -0.194962 0.0316725  -0.00332594 -0.176155 0.0283356  -0.0168668 -0.193192 0.0329723  -0.0170593 -0.174463 0.0300546  -0.000742912 -0.178409 0.0285468  -0.0145153 -0.176641 0.0299802  -0.0249372 -0.225777 0.0395989  -0.00674832 -0.229883 0.0383353  -0.00738752 -0.210033 0.0346146  -0.0220429 -0.227752 0.0394664  -0.0220822 -0.208245 0.0361991  -0.00461733 -0.212171 0.0348854  -0.0193937 -0.21027 0.0361586  -0.0309695 -0.262179 0.0462875  -0.0115103 -0.26605 0.0454626  -0.0120932 -0.245819 0.0416927  -0.0277834 -0.263904 0.0462704  -0.0279303 -0.243737 0.0429106  -0.00899482 -0.247816 0.0418983  -0.0248336 -0.24564 0.0428581  -0.0375413 -0.299986 0.0538349  -0.0170614 -0.304228 0.0529985  -0.0175974 -0.283026 0.0488319  -0.0341312 -0.301692 0.0537128  -0.0341208 -0.280876 0.0499454  -0.0142741 -0.284934 0.0490971  -0.0309123 -0.282653 0.049943  -0.044641 -0.339248 0.0612755  -0.0230311 -0.343184 0.0609674  -0.0234854 -0.321843 0.0567765  -0.0409164 -0.340665 0.0613031  -0.0410664 -0.319383 0.0575361  -0.01992 -0.323627 0.0569911  -0.0374629 -0.321052 0.0575142  -0.0521433 -0.379538 0.0697069  -0.0297446 -0.383902 0.0692863  -0.0302525 -0.361663 0.0647306  -0.0482564 -0.381001 0.0696154  -0.0482613 -0.359167 0.0653877  -0.0264006 -0.363387 0.0649939  -0.0445564 -0.360736 0.0654283  -0.0601062 -0.421025 0.0778074  -0.0367234 -0.425037 0.0779772  -0.0370909 -0.402847 0.073411  -0.0558934 -0.422164 0.0778823  -0.0560805 -0.40004 0.0737538  -0.0331262 -0.404453 0.0736389  -0.0520372 -0.401513 0.0737705  -0.0683439 -0.463205 0.0870123  -0.0443738 -0.467658 0.0869765  -0.0449147 -0.444672 0.0821033  -0.0640285 -0.464449 0.0869632  -0.0641043 -0.441857 0.0823288  -0.0405791 -0.446246 0.0823617  -0.0599442 -0.443254 0.0824108  -0.0769694 -0.506355 0.0957036  -0.0521634 -0.510446 0.0963035  -0.0524936 -0.487638 0.0913997  -0.0723224 -0.507256 0.0958252  -0.0725839 -0.484528 0.0913639  -0.048187 -0.489084 0.0916405  -0.0681636 -0.48583 0.0914226  -0.0857484 -0.549912 0.105565  -0.0605166 -0.55442 0.105902  -0.0611479 -0.530944 0.100759  -0.0810502 -0.550965 0.105572  -0.0812557 -0.527844 0.10059  -0.0563815 -0.532388 0.101011  -0.0766783 -0.529095 0.100708  -0.0948305 -0.594243 0.114797  -0.0689237 -0.598412 0.115774  -0.0692675 -0.575183 0.110568  -0.0898211 -0.594947 0.11496  -0.0901849 -0.571818 0.110197  -0.064667 -0.576478 0.110821  -0.085448 -0.572971 0.110298  -0.103969 -0.638737 0.125185  -0.0777621 -0.643273 0.125865  -0.0785103 -0.619528 0.120513  -0.0989437 -0.639628 0.125255  -0.0993199 -0.616182 0.119981  -0.0733898 -0.620849 0.120761  -0.0943823 -0.617303 0.120132  -0.113314 -0.683829 0.134894  -0.0865984 -0.688067 0.136181  -0.0870023 -0.6646 0.130734  -0.108019 -0.684383 0.135095  -0.108512 -0.661024 0.13006  -0.082154 -0.665746 0.130991  -0.103512 -0.662045 0.130205  -0.122654 -0.728893 0.145699  -0.0957253 -0.733442 0.146683  -0.0966077 -0.709608 0.141153  -0.117357 -0.729652 0.145825  -0.117929 -0.706058 0.14032  -0.0912125 -0.710805 0.141402  -0.112695 -0.707058 0.140498  -0.13209 -0.774399 0.155825  -0.104813 -0.778691 0.157351  -0.105325 -0.755144 0.151713  -0.126585 -0.774844 0.156059  -0.127233 -0.751399 0.150776  -0.10026 -0.756143 0.151973  -0.122012 -0.752301 0.150965  -0.141481 -0.819738 0.166917  -0.114064 -0.824298 0.168163  -0.11508 -0.80051 0.162501  -0.13598 -0.820395 0.167092  -0.13675 -0.796798 0.161419  -0.109494 -0.801574 0.162755  -0.131299 -0.797676 0.161622  -0.150864 -0.865375 0.177383  -0.123239 -0.869701 0.179095  -0.123898 -0.846216 0.173306  -0.145226 -0.86575 0.177643  -0.146047 -0.84234 0.172147  -0.118649 -0.847066 0.173577  -0.140646 -0.843132 0.172381  -0.160178 -0.910757 0.188645  -0.132468 -0.915339 0.190118  -0.133608 -0.891707 0.184376  -0.154544 -0.911344 0.188861  -0.155501 -0.88786 0.183075  -0.127917 -0.892615 0.184633  -0.149909 -0.888604 0.183302  -0.169393 -0.956315 0.199368  -0.141589 -0.960669 0.201197  -0.142418 -0.937343 0.195281  -0.163702 -0.956665 0.199656  -0.164695 -0.933371 0.193977  -0.137014 -0.938053 0.195581  -0.159158 -0.934066 0.194261  -0.178518 -1.00157 0.210629  -0.150685 -1.00616 0.212295  -0.151912 -0.982786 0.206545  -0.172842 -1.00208 0.210887  -0.173953 -0.978824 0.205093  -0.146216 -0.983514 0.20681  -0.168305 -0.979424 0.205334  -0.187504 -1.04685 0.22148  -0.159671 -1.05127 0.223378  -0.160659 -1.02813 0.217389  -0.18183 -1.04725 0.221782  -0.182957 -1.02411 0.216002  -0.155141 -1.02874 0.217731  -0.17736 -1.02473 0.216326  -0.196372 -1.09181 0.232552  -0.168516 -1.09634 0.234366  -0.169803 -1.07335 0.228698  -0.190731 -1.09221 0.232836  -0.191962 -1.06931 0.227124  -0.164183 -1.07389 0.228969  -0.186309 -1.06978 0.227379  -0.205105 -1.13655 0.243525  -0.17737 -1.14118 0.245378  -0.17864 -1.11825 0.239468  -0.199611 -1.13711 0.243763  -0.200734 -1.11423 0.238008  -0.172873 -1.11878 0.239779  -0.195174 -1.11469 0.238289  0.00268468 0.00114137 -0.0050354  0 0 0  0.00343302 -0.00174975 -0.00603676  0.00150374 0.00086081 -0.0047307  0 0 0  0.00224534 -0.000635505 -0.00408888  0.000969946 0.00155771 -0.00314808  0 0 0  0.00103141 -0.00034076 -0.00358009  0.000666879 0.000326872 -0.00245094  0.00596827 -0.00548172 -0.0050354  0.00903556 -0.00964868 -0.00706625  0.00684384 -0.00281793 -0.00797319  0.00597975 -0.00801778 -0.00445223  0.00440739 -0.00138438 -0.00516129  0.0062509 -0.0050928 -0.00683832  0.00411381 -0.00365412 -0.00448322  0.00891283 -0.0171975 -0.00348473  0.0143173 -0.0218729 -0.00559759  0.0115246 -0.012401 -0.00750494  0.00949839 -0.020147 -0.00283384  0.00746438 -0.0107588 -0.00439596  0.0117452 -0.0152539 -0.00647974  0.0077928 -0.0135641 -0.00378799  0.0114026 -0.0332793 -0.000800133  0.0188645 -0.0379563 -0.00290537  0.0159835 -0.0264052 -0.00539875  0.0123894 -0.0362229 -0.000130177  0.0102459 -0.0247315 -0.00223207  0.0167031 -0.0294397 -0.00436258  0.0110433 -0.0277053 -0.00157833  0.0131541 -0.0529734 0.00274754  0.0224767 -0.0577753 0.000808716  0.0195406 -0.0443306 -0.00215387  0.0144654 -0.0559933 0.00340366  0.0123785 -0.0426561 0.000868797  0.0207829 -0.0474283 -0.00109005  0.0135301 -0.0456812 0.00154305  0.0140651 -0.0761432 0.0069685  0.0252362 -0.0807573 0.00518084  0.0225114 -0.0658914 0.0019002  0.0157171 -0.0788696 0.00761747  0.0137212 -0.0641494 0.00478649  0.0239642 -0.0688788 0.00293922  0.0151994 -0.0670468 0.00544548  0.0141468 -0.102093 0.0118918  0.026908 -0.10683 0.0103254  0.0242724 -0.09053 0.0068078  0.0160344 -0.104871 0.0124831  0.0142231 -0.0886912 0.00933266  0.026216 -0.0934247 0.00777435  0.0159964 -0.0915059 0.00997591  0.0132753 -0.130874 0.0172982  0.0277349 -0.135416 0.0159063  0.0253997 -0.118061 0.0121417  0.015528 -0.133241 0.0178685  0.0138423 -0.11612 0.0145254  0.0274018 -0.120799 0.0130949  0.015882 -0.118745 0.0151248  0.0116106 -0.161835 0.0233455  0.0274106 -0.166507 0.0221791  0.0252093 -0.148055 0.0183005  0.0140349 -0.164302 0.0238485  0.012566 -0.145934 0.0202308  0.0277549 -0.150648 0.0191011  0.0149184 -0.148448 0.0208006  0.00898027 -0.195077 0.0297627  0.0263121 -0.199637 0.028789  0.0243775 -0.180314 0.0246434  0.0118076 -0.197098 0.0302405  0.0104483 -0.178106 0.0264759  0.0268921 -0.182785 0.025486  0.0130014 -0.180444 0.026999  0.00565457 -0.230083 0.0367928  0.0240985 -0.23471 0.0360074  0.0223444 -0.214619 0.0318608  0.00859451 -0.232235 0.0372162  0.00743926 -0.212144 0.0332007  0.0254359 -0.216908 0.0324736  0.0103555 -0.214371 0.0336933  0.00141633 -0.266835 0.044116  0.0211867 -0.271512 0.0435472  0.0195916 -0.250606 0.0390706  0.0047797 -0.268578 0.0444984  0.00371635 -0.248102 0.0403657  0.0226076 -0.252839 0.0397887  0.00673997 -0.250188 0.0408115  -0.00341201 -0.305097 0.0519924  0.0173104 -0.309681 0.0515676  0.0159625 -0.288384 0.0471811  3.33786e-05 -0.306937 0.0523567  -0.000885606 -0.285517 0.0479941  0.0195334 -0.290382 0.047617  0.00257635 -0.287488 0.0484128  -0.00902987 -0.344556 0.0601497  0.0127616 -0.349422 0.0599675  0.0114094 -0.327257 0.0551848  -0.00518453 -0.346103 0.0604424  -0.00600886 -0.324456 0.0559788  0.0149349 -0.329282 0.0557733  -0.00255048 -0.326326 0.0563526  -0.0151626 -0.385401 0.0687394  0.00749111 -0.389936 0.0686555  0.00648677 -0.367789 0.0640416  -0.0112284 -0.386936 0.0690722  -0.0120014 -0.364529 0.064415  0.0104601 -0.369522 0.0643253  -0.00802946 -0.366282 0.0647659  -0.021899 -0.426891 0.0776587  0.00151634 -0.431987 0.0778499  0.000302076 -0.408854 0.0727692  -0.0176436 -0.428324 0.0778689  -0.0182946 -0.405773 0.0731091  0.00434613 -0.41069 0.0732274  -0.0144329 -0.407453 0.0734177  -0.0291188 -0.469729 0.0868282  -0.0048666 -0.474205 0.0870633  -0.00559831 -0.45151 0.0822334  -0.0247276 -0.470973 0.0871487  -0.0254371 -0.447883 0.0822415  -0.00130415 -0.452996 0.0823984  -0.0210114 -0.44945 0.0825319  -0.0367203 -0.512676 0.0964384  -0.0120268 -0.518003 0.096971  -0.0131967 -0.49418 0.0916076  -0.0321238 -0.514055 0.0965762  -0.0326729 -0.490849 0.0915575  -0.00864506 -0.495836 0.0919399  -0.0284381 -0.492353 0.0918064  -0.044807 -0.55698 0.106081  -0.0192606 -0.561407 0.106617  -0.019805 -0.538386 0.101567  -0.0399976 -0.557967 0.106406  -0.0407217 -0.534451 0.101274  -0.015254 -0.539659 0.10166  -0.0359011 -0.53586 0.101514  -0.0530291 -0.600932 0.116297  -0.0273523 -0.606445 0.117138  -0.0285559 -0.58219 0.111521  -0.0481546 -0.602284 0.116383  -0.0486794 -0.578644 0.11114  -0.0235267 -0.583669 0.111741  -0.0440962 -0.579977 0.111343  -0.0617578 -0.646236 0.126323  -0.0352087 -0.650618 0.127131  -0.0356534 -0.627435 0.121879  -0.0565877 -0.647004 0.126655  -0.0573776 -0.623266 0.121327  -0.0308933 -0.628527 0.121937  -0.0522327 -0.62454 0.121532  -0.0703993 -0.690825 0.137022  -0.0439692 -0.69644 0.138139  -0.0452516 -0.671991 0.132306  -0.0652893 -0.692138 0.137078  -0.0658634 -0.668269 0.131655  -0.0398121 -0.673294 0.132436  -0.0609617 -0.669435 0.131824  -0.0795441 -0.736709 0.147366  -0.0522633 -0.741067 0.148422  -0.0527008 -0.717833 0.142986  -0.0740845 -0.737313 0.147707  -0.0749781 -0.713511 0.142203  -0.0477514 -0.718777 0.143049  -0.0695744 -0.714666 0.14239  -0.0884273 -0.781667 0.158432  -0.0614383 -0.787269 0.159786  -0.0628228 -0.762849 0.153804  -0.0831172 -0.782892 0.158484  -0.0838025 -0.758984 0.152924  -0.057065 -0.763968 0.153865  -0.0786259 -0.759982 0.153076  -0.0977867 -0.827774 0.169049  -0.0700097 -0.832131 0.170332  -0.0705323 -0.808896 0.164725  -0.0921133 -0.828272 0.169397  -0.0931282 -0.804514 0.163725  -0.0653999 -0.80974 0.164835  -0.0875275 -0.805562 0.163915  -0.106755 -0.872904 0.180316  -0.0793648 -0.878359 0.181887  -0.0808401 -0.85417 0.175856  -0.101277 -0.873967 0.1804  -0.102122 -0.850187 0.174756  -0.0748816 -0.855087 0.175876  -0.0967231 -0.85101 0.174913  -0.116133 -0.918931 0.191165  -0.0880716 -0.923322 0.192665  -0.0887766 -0.900116 0.186896  -0.110335 -0.919383 0.191515  -0.111482 -0.895762 0.185717  -0.0834584 -0.900898 0.187107  -0.105747 -0.896702 0.185931  -0.125032 -0.964115 0.20248  -0.0974021 -0.969283 0.204219  -0.0989187 -0.94549 0.19827  -0.119462 -0.964929 0.202626  -0.120466 -0.941407 0.196913  -0.0928957 -0.946184 0.198269  -0.114924 -0.942052 0.197106  -0.13431 -1.00978 0.213468  -0.106148 -1.01427 0.215179  -0.107069 -0.991066 0.209264  -0.128455 -1.01026 0.213792  -0.129694 -0.986835 0.207918  -0.101595 -0.991845 0.209595  -0.12393 -0.987668 0.208173  -0.143056 -1.05488 0.224691  -0.115342 -1.05967 0.226533  -0.116701 -1.03642 0.220778  -0.137453 -1.05544 0.224919  -0.138614 -1.03222 0.219156  -0.110839 -1.03688 0.220794  -0.132962 -1.03276 0.219409  -0.152185 -1.09992 0.235703  -0.124008 -1.10469 0.23752  -0.125113 -1.08145 0.231574  -0.146265 -1.10056 0.235952  -0.147574 -1.07737 0.230114  -0.119595 -1.08224 0.231939  -0.141876 -1.07807 0.230386  -0.160945 -1.1447 0.246774  -0.132885 -1.14929 0.248576  -0.134304 -1.12656 0.242946  -0.155053 -1.14524 0.247044  -0.156608 -1.12229 0.241212  -0.128455 -1.12696 0.243089  -0.150623 -1.12287 0.2415  0.00580795 -0.00152129 -0.0099473  0 0 0  0.0062743 -0.00548196 -0.00955963  0.00268609 -0.00144452 -0.00765944  0 0 0  0.0047642 -0.00331086 -0.00781679  0.00205204 -0.000115156 -0.00610733  0 0 0  0.00187714 -0.0025773 -0.00563383  0.0014056 -0.00128347 -0.00456333  0.0128101 -0.00906581 -0.0109406  0.0161678 -0.0143128 -0.012043  0.012539 -0.00694776 -0.0133739  0.0124415 -0.0117475 -0.00957727  0.00955351 -0.00465703 -0.0106397  0.0113706 -0.00944006 -0.0112815  0.00867309 -0.00699496 -0.00903177  0.0190037 -0.0209588 -0.00989914  0.0248424 -0.0262994 -0.0111771  0.0206679 -0.0167962 -0.013772  0.0194179 -0.0239392 -0.00838614  0.0159195 -0.0144314 -0.0106249  0.0206755 -0.0198143 -0.0119328  0.0160445 -0.0173482 -0.0091877  0.0245674 -0.0369169 -0.0071106  0.0325816 -0.042715 -0.0084691  0.0281086 -0.0307179 -0.0120082  0.0255655 -0.0401214 -0.00569725  0.0219314 -0.0284071 -0.00865316  0.0287636 -0.0339814 -0.0100827  0.0225794 -0.0315419 -0.00717449  0.0293589 -0.0568675 -0.00340271  0.0393119 -0.0622377 -0.00457191  0.0349212 -0.0488278 -0.00857544  0.0307435 -0.0598613 -0.00189304  0.0270182 -0.0463969 -0.00532055  0.0361792 -0.0520295 -0.00675011  0.0283099 -0.0495487 -0.00386238  0.0331836 -0.080006 0.00149107  0.0449146 -0.0859 0.000345707  0.0405794 -0.0704201 -0.00417995  0.0349148 -0.0831026 0.00276852  0.0314762 -0.0679693 -0.00105047  0.0421532 -0.0735877 -0.00236559  0.0329222 -0.0710629 0.000369072  0.036012 -0.106351 0.00658798  0.0494631 -0.111612 0.00579643  0.0455796 -0.0954022 0.00119543  0.0380498 -0.109074 0.00799751  0.0346627 -0.0927782 0.00403881  0.0474908 -0.0983574 0.00284433  0.0366611 -0.0957056 0.00538015  0.0377662 -0.135198 0.0129771  0.0526664 -0.14109 0.0121183  0.0488296 -0.123016 0.00707388  0.0400399 -0.138049 0.0140471  0.0371187 -0.120347 0.0097003  0.0511011 -0.125893 0.00866318  0.0391486 -0.123191 0.0109625  0.0384606 -0.166547 0.0190063  0.0549254 -0.171825 0.0186062  0.0517974 -0.153449 0.0137119  0.0410631 -0.169002 0.0202646  0.0381904 -0.150572 0.0160103  0.0541334 -0.156063 0.0151296  0.0407318 -0.153173 0.0171747  0.0381085 -0.200003 0.0266485  0.055735 -0.205839 0.0260611  0.0524213 -0.185816 0.0206919  0.0408581 -0.202595 0.0275197  0.0384868 -0.182883 0.0227413  0.055391 -0.188385 0.0220127  0.0410875 -0.185454 0.0238166  0.0367497 -0.235259 0.0334058  0.0557792 -0.240726 0.0333629  0.0534426 -0.220618 0.0283337  0.0398741 -0.237511 0.0344853  0.0375396 -0.217455 0.0300436  0.0560757 -0.222867 0.0295138  0.0405246 -0.21971 0.031014  0.0344222 -0.272439 0.0421324  0.0544 -0.278138 0.0418057  0.0515006 -0.256728 0.0362425  0.0376127 -0.27478 0.0428557  0.0356985 -0.253508 0.0376782  0.0552158 -0.259014 0.0372963  0.0389107 -0.255825 0.0385666  0.0312299 -0.310687 0.0495586  0.0523823 -0.316515 0.0497928  0.0507662 -0.294982 0.0447221  0.0348253 -0.312823 0.0504313  0.0329978 -0.291538 0.0458231  0.0536259 -0.296871 0.0456853  0.0363339 -0.293457 0.0466089  0.0271301 -0.35085 0.059154  0.0491418 -0.356312 0.0590792  0.0465281 -0.334005 0.0534372  0.0307461 -0.352949 0.0597939  0.0291487 -0.330501 0.054244  0.0509964 -0.336054 0.0542498  0.0330108 -0.332596 0.0549664  0.0223731 -0.39134 0.0672541  0.0452454 -0.397629 0.0676713  0.0442173 -0.37493 0.0626216  0.0263894 -0.393425 0.0678992  0.0250074 -0.371236 0.0631285  0.0472761 -0.37648 0.0633893  0.0286202 -0.372842 0.0637426  0.0167518 -0.433832 0.0774927  0.0405066 -0.43897 0.0776696  0.0380667 -0.41618 0.072041  0.0207751 -0.4357 0.0781155  0.0193442 -0.412419 0.0722384  0.0432469 -0.418036 0.0726581  0.0238719 -0.414315 0.072824  0.0107129 -0.475962 0.0863004  0.0349309 -0.482726 0.0868239  0.0343313 -0.459094 0.081811  0.0150943 -0.478025 0.0867004  0.0140824 -0.455208 0.0817528  0.0375988 -0.460334 0.0824113  0.0179145 -0.456524 0.0822144  0.00383377 -0.520183 0.09694  0.0290716 -0.524958 0.0973759  0.0267239 -0.501999 0.0918193  0.00825405 -0.521829 0.0975909  0.0068574 -0.498018 0.0914469  0.0325162 -0.503696 0.0922976  0.0120225 -0.499737 0.0919261  -0.00319409 -0.563469 0.106473  0.0220518 -0.570623 0.107044  0.0216982 -0.546311 0.102075  0.00148368 -0.565506 0.106644  0.000756025 -0.542284 0.10151  0.0252223 -0.547275 0.102527  0.00477648 -0.543346 0.101844  -0.0110691 -0.608888 0.117331  0.0153809 -0.613318 0.118021  0.0130901 -0.59038 0.112544  -0.00628018 -0.610329 0.118028  -0.00772095 -0.586241 0.111689  0.0193541 -0.591947 0.112944  -0.00200868 -0.587791 0.112091  -0.0188346 -0.652954 0.127541  0.00718665 -0.660332 0.128158  0.00691819 -0.635599 0.123203  -0.013907 -0.654929 0.127523  -0.0144577 -0.631483 0.122206  0.0107501 -0.636332 0.12353  -0.0102458 -0.632332 0.122441  -0.0274484 -0.699094 0.138508  -5.36442e-05 -0.70326 0.139449  -0.00229454 -0.680426 0.134014  -0.0223186 -0.70035 0.139237  -0.0238488 -0.676182 0.132774  0.00428295 -0.681872 0.134384  -0.0177069 -0.677574 0.133122  -0.0357256 -0.743659 0.149283  -0.00912213 -0.751032 0.149989  -0.00943065 -0.726165 0.145017  -0.0305822 -0.745506 0.149143  -0.0310714 -0.721983 0.143666  -0.00525045 -0.726701 0.145225  -0.0266409 -0.722662 0.143831  -0.044831 -0.79011 0.160336  -0.0167642 -0.794143 0.161516  -0.0189664 -0.771385 0.156046  -0.0394003 -0.791207 0.161061  -0.0410321 -0.767115 0.154534  -0.0122149 -0.77272 0.156429  -0.0346019 -0.768342 0.15485  -0.0534089 -0.834968 0.171494  -0.026371 -0.842073 0.172377  -0.0268075 -0.817361 0.167325  -0.0480902 -0.836604 0.17132  -0.0486214 -0.813112 0.165714  -0.0222595 -0.817738 0.167432  -0.0439451 -0.813675 0.165842  -0.062793 -0.881389 0.182656  -0.0343168 -0.885458 0.184058  -0.0364616 -0.862671 0.178471  -0.0571067 -0.882353 0.183324  -0.0588167 -0.858446 0.1768  -0.0296848 -0.863896 0.178887  -0.0522594 -0.859495 0.177102  -0.0714779 -0.926417 0.193963  -0.044107 -0.932957 0.195131  -0.0447421 -0.908693 0.189933  -0.0660222 -0.927731 0.193859  -0.0667007 -0.904354 0.188154  -0.0398159 -0.908941 0.189961  -0.0617414 -0.90486 0.188287  -0.0809124 -0.972524 0.205238  -0.0522964 -0.9768 0.206844  -0.0543604 -0.953854 0.201094  -0.0750546 -0.973368 0.205799  -0.0767834 -0.949739 0.199381  -0.0477042 -0.954958 0.201548  -0.0702894 -0.950575 0.199677  -0.0894983 -1.01761 0.216452  -0.0619314 -1.02335 0.217977  -0.0628018 -0.999742 0.21254  -0.0840299 -1.01853 0.216522  -0.0848954 -0.995307 0.210777  -0.0575063 -0.99992 0.212568  -0.079663 -0.995833 0.210957  -0.0988772 -1.06314 0.227791  -0.0703642 -1.0678 0.229527  -0.0721538 -1.04459 0.223659  -0.0929217 -1.0639 0.228161  -0.0945189 -1.04061 0.221995  -0.0658729 -1.04552 0.224109  -0.0883367 -1.0412 0.222273  -0.107335 -1.10808 0.238692  -0.0795462 -1.11299 0.240559  -0.0806887 -1.0901 0.234858  -0.101846 -1.10877 0.238995  -0.103014 -1.08561 0.233224  -0.0750654 -1.09038 0.234995  -0.0974205 -1.08631 0.233473  -0.116343 -1.15316 0.249878  -0.0880811 -1.1577 0.25177  -0.089679 -1.13487 0.24615  -0.11055 -1.15345 0.250183  -0.11192 -1.13084 0.24436  -0.0839174 -1.13537 0.246496  -0.106191 -1.13114 0.244583  0.00989388 -0.00634027 -0.014564  0 0 0  0.0107036 -0.0127149 -0.0129442  0.00453153 -0.00619268 -0.0103393  0 0 0  0.00820495 -0.00858045 -0.011302  0.00340414 -0.00334299 -0.00863314  0 0 0  0.00347748 -0.00711733 -0.00771713  0.00237665 -0.0043996 -0.00637865  0.0210421 -0.0139943 -0.0168896  0.0246229 -0.0201501 -0.0174294  0.0196626 -0.0125836 -0.0191245  0.0202641 -0.0171701 -0.0146561  0.0160976 -0.009646 -0.016252  0.0182377 -0.0158246 -0.0160127  0.0146732 -0.01243 -0.0136118  0.0302139 -0.0258653 -0.0164933  0.0366587 -0.0323174 -0.0171337  0.0308135 -0.0221646 -0.0206418  0.0305687 -0.0290732 -0.0141263  0.0256087 -0.0193983 -0.0170884  0.0306332 -0.0256638 -0.0177245  0.0254767 -0.0225946 -0.0147562  0.0389742 -0.0420056 -0.0137424  0.0476726 -0.0486487 -0.0144515  0.0416714 -0.0363445 -0.0188642  0.0399113 -0.0455673 -0.0114336  0.034704 -0.0333655 -0.0153904  0.042418 -0.0398645 -0.0160623  0.0354059 -0.0367598 -0.0130353  0.0467834 -0.0620101 -0.00953531  0.057709 -0.068589 -0.0101142  0.0516696 -0.0545998 -0.0152817  0.0482935 -0.0651115 -0.00735855  0.0430194 -0.0515544 -0.0118976  0.0527524 -0.0579941 -0.0125017  0.0442184 -0.0548271 -0.00960779  0.0535556 -0.0854109 -0.0044241  0.066166 -0.0920385 -0.00493431  0.0605828 -0.0764629 -0.0103211  0.0552977 -0.0888714 -0.00230455  0.0503064 -0.073283 -0.00719357  0.0623356 -0.0797123 -0.00774384  0.0520195 -0.0764847 -0.0049963  0.059118 -0.111801 0.0016222  0.0735289 -0.118515 0.00124836  0.068093 -0.101463 -0.00461721  0.0613022 -0.114702 0.00351048  0.0565115 -0.0982649 -0.00166845  0.0698531 -0.104586 -0.00204229  0.0584151 -0.101296 0.000433445  0.0634272 -0.140954 0.00803185  0.0792713 -0.14745 0.00771856  0.074596 -0.129483 0.00187731  0.0657419 -0.144177 0.00989056  0.0614092 -0.126144 0.00461626  0.0769677 -0.132405 0.00422049  0.0638047 -0.128999 0.00657272  0.0665112 -0.172369 0.0153456  0.0837613 -0.17934 0.015152  0.0791249 -0.15974 0.00884962  0.0691924 -0.175192 0.0169101  0.0651214 -0.156435 0.0114102  0.0814422 -0.162616 0.0112143  0.0675579 -0.159194 0.0132756  0.0682985 -0.206133 0.0226707  0.0869331 -0.212411 0.0225253  0.0832458 -0.192762 0.016396  0.0711384 -0.209001 0.0242648  0.0675131 -0.189261 0.0188179  0.086058 -0.195355 0.0185289  0.0704885 -0.19174 0.0205102  0.06899 -0.241484 0.0310245  0.0885611 -0.248829 0.0309796  0.0846853 -0.227093 0.0243826  0.0720509 -0.244409 0.0322766  0.0687296 -0.223712 0.0265894  0.0875868 -0.229798 0.0265455  0.0716428 -0.226236 0.0282145  0.0683944 -0.278942 0.0390859  0.0894772 -0.284913 0.0390787  0.0866868 -0.264178 0.0327978  0.0717912 -0.281326 0.0404406  0.0687521 -0.260499 0.0349107  0.0898045 -0.266463 0.0347381  0.0722557 -0.262628 0.0363493  0.0669256 -0.317346 0.0483241  0.0883846 -0.325075 0.0484095  0.0851468 -0.301626 0.0416451  0.0702667 -0.320517 0.0492983  0.0676433 -0.298183 0.0435328  0.0887041 -0.30422 0.0435991  0.0710273 -0.300505 0.0449219  0.0642004 -0.357714 0.0570068  0.0874048 -0.363297 0.0571146  0.0853416 -0.341945 0.0508327  0.0681815 -0.359483 0.0581532  0.0655754 -0.338074 0.052608  0.0886353 -0.343947 0.0525737  0.0695297 -0.3399 0.0538063  0.0608436 -0.39843 0.0669723  0.0838531 -0.406447 0.0671806  0.0810994 -0.381746 0.0604153  0.064396 -0.401918 0.0677156  0.0623831 -0.378244 0.061954  0.0853665 -0.384279 0.0621338  0.0662359 -0.380394 0.0631108  0.0562749 -0.441048 0.0762296  0.0812874 -0.446189 0.0764403  0.0797539 -0.424534 0.0702887  0.0608695 -0.442111 0.0772018  0.0585359 -0.420469 0.0716505  0.0831351 -0.426285 0.0717983  0.0628679 -0.42206 0.0726304  0.0513299 -0.483478 0.0867825  0.0756369 -0.491606 0.0871077  0.0732055 -0.466101 0.0805054  0.055063 -0.487255 0.0873394  0.0535452 -0.462532 0.0816245  0.0782063 -0.468594 0.0819578  0.0578732 -0.464521 0.082561  0.0452547 -0.527734 0.0965419  0.0717275 -0.532411 0.0968671  0.0705371 -0.510672 0.090961  0.0504303 -0.528072 0.0973744  0.0482595 -0.506422 0.0918417  0.0739682 -0.512192 0.0922036  0.0528803 -0.507834 0.0926218  0.0390077 -0.571359 0.107535  0.0644057 -0.579399 0.107986  0.0621667 -0.553532 0.101651  0.0429239 -0.575319 0.107949  0.0417767 -0.549891 0.102314  0.0678427 -0.555963 0.102823  0.0465562 -0.551704 0.103044  0.0317411 -0.616729 0.117748  0.059325 -0.620988 0.118205  0.0583293 -0.599235 0.112594  0.0374281 -0.616428 0.118468  0.0353551 -0.594838 0.112936  0.0618303 -0.600568 0.113546  0.0401995 -0.596134 0.113544  0.0244739 -0.661145 0.129059  0.0507946 -0.668918 0.129662  0.0486486 -0.643035 0.123598  0.0286093 -0.665118 0.129368  0.0276885 -0.639321 0.123796  0.054888 -0.645363 0.12451  0.0328848 -0.640942 0.124351  0.0163307 -0.707169 0.139672  0.0446765 -0.711098 0.140289  0.0437832 -0.689342 0.13493  0.0224092 -0.706397 0.14029  0.0204141 -0.684848 0.134753  0.0474155 -0.690516 0.135603  0.0254369 -0.686062 0.13522  0.00829935 -0.752039 0.151202  0.0353723 -0.759439 0.15198  0.0332508 -0.733792 0.146125  0.0126972 -0.755838 0.151437  0.0118644 -0.730021 0.145884  0.0398996 -0.735949 0.146824  0.0174153 -0.731414 0.146297  -0.00043726 -0.798347 0.162134  0.0283434 -0.802067 0.162945  0.027504 -0.780276 0.157749  0.00588417 -0.797335 0.162669  0.00397825 -0.775733 0.157108  0.0313635 -0.781315 0.158187  0.00915885 -0.776889 0.157469  -0.0089798 -0.843416 0.173813  0.0186558 -0.850397 0.174801  0.0165193 -0.825133 0.168995  -0.00428891 -0.846836 0.173997  -0.00516605 -0.821336 0.168405  0.0234022 -0.827028 0.169559  0.000658989 -0.822451 0.16872  -0.0180321 -0.889718 0.184958  0.0108664 -0.893393 0.186002  0.0100718 -0.87147 0.180826  -0.0116682 -0.888749 0.185417  -0.013423 -0.86693 0.179814  0.0142567 -0.872404 0.181118  -0.00811601 -0.868039 0.180116  -0.0268853 -0.934803 0.196685  0.00111961 -0.94134 0.19794  -0.00101781 -0.916583 0.192044  -0.0218685 -0.937623 0.196845  -0.022898 -0.912783 0.191172  0.00588918 -0.918096 0.192532  -0.0169122 -0.913555 0.191426  -0.0360382 -0.980879 0.207942  -0.00726509 -0.984711 0.209255  -0.00804257 -0.962516 0.203961  -0.0297804 -0.98026 0.20833  -0.0313599 -0.958016 0.20264  -0.00342417 -0.963385 0.20421  -0.0259128 -0.959101 0.202927  -0.0449877 -1.02592 0.219588  -0.0167623 -1.03192 0.221125  -0.018816 -1.00772 0.215033  -0.0396211 -1.02786 0.219733  -0.04088 -1.00393 0.213944  -0.0121288 -1.00875 0.215497  -0.0348291 -1.00432 0.214201  -0.0538788 -1.0715 0.230753  -0.0254517 -1.07568 0.23228  -0.026371 -1.05304 0.226765  -0.0480285 -1.07151 0.231094  -0.0493295 -1.04866 0.225294  -0.0211554 -1.05389 0.227123  -0.0438011 -1.04968 0.225634  -0.0625911 -1.11653 0.24185  -0.0346987 -1.12136 0.243856  -0.0363827 -1.09847 0.237902  -0.0572298 -1.11716 0.242184  -0.058475 -1.09448 0.236448  -0.0302324 -1.09871 0.23809  -0.0527446 -1.09448 0.236698  -0.0715606 -1.16117 0.253172  -0.0431848 -1.16641 0.254897  -0.044915 -1.14288 0.249134  -0.0659013 -1.16192 0.253213  -0.0669971 -1.13891 0.247486  -0.039114 -1.14392 0.249672  -0.0615692 -1.13963 0.247742  
SCALARS smooth_stress float 1
LOOKUP_TABLE default
322.873 657.581 679.849 735.63 698.091 565.095 515.642 635.295 625.953 501.535 575.255 596.379 491.68 508.088 533.009 542.988 579.028 505.916 498.838 498.134 549.768 577.048 532.253 474.369 437.299 456.617 382.761 379.785 389.761 458.553 491.962 440.79 229.783 610.636 1195.03 1219.6 1254.14 1151.58 1003.64 1051.33 1161.38 1099.7 1041.35 1061 995.239 960.124 1019.19 994.856 1024.17 1120.31 1076.78 941.645 920.234 1072.47 1059.9 1007.96 993.443 972.576 1002 895.905 847.424 852.277 881.675 889.461 971.817 545.986 556.585 1008.12 989.715 978.573 883.188 919.215 1019.72 1000.79 939.978 978.7 1010.66 938.132 941.889 975.402 950.838 942.307 1048.13 1133.48 951.331 926.851 989.127 985.945 1031.67 1005.27 984.999 1030.93 999.196 927.68 931.002 924.302 964.034 1121.28 604.916 490.537 923.968 911.77 922.022 906.665 981.287 1018.85 992.137 911.509 864.071 976.627 1023.98 1002.85 1003.33 967.146 889.439 939.333 1025.8 994.755 1022.95 1009.01 1023.01 1026.59 939.103 979.268 1020.65 958.063 934.346 943.793 955.224 1035.87 1165.19 613.875 459.284 957.679 1007.16 974.977 973.164 1080.49 1127.83 1013.96 924.682 927.556 960.992 933.579 1001.65 1097.59 1056.32 980.666 955.575 959.124 910.364 1020.84 1123.68 1075.63 954.973 891.989 939.482 941.197 890.461 892.848 885.832 881.613 941.194 1056.22 573.32 479.008 1053.46 1186.7 1148.45 1108.26 1262.61 1291.8 1156.46 1035.31 1024.57 1097.48 981.884 999.536 1101.13 1049.83 1030.68 1107.38 1124.68 1021.27 1051.98 1112.69 1055.34 1024.06 964.76 854.714 871.534 900.878 870.564 820.557 862.108 979.208 1044.79 536.326 529.745 1205.23 1356.4 1279.86 1257 1358.57 1375.47 1303.65 1174.03 1204.55 1250.84 1194.88 1150.73 1065.9 1068.52 1080.36 1100.6 1181.67 1159.88 1065.14 1008.62 930.567 956.783 988.385 872.866 918.872 1016.12 955.489 895.217 891.017 982.716 1156.21 624.806 687.358 1459.09 1485.9 1417.33 1460.19 1502.37 1430.35 1315.73 1355.44 1368.46 1261.75 1307.08 1283.28 1168.91 1189.79 1177.38 1147.31 1139.8 1059.93 1001.48 916.492 860.949 886.428 921.992 947.351 1016.21 1051.53 1020.35 1067.24 1065.61 1003.42 1129.73 638.732 399.052 802.932 770.84 772.906 815.251 826.533 753.668 672.026 737.323 686.112 599.099 645.217 659.841 645.599 592.945 575.35 631.001 586.88 497.177 485.685 439.468 429.997 469.357 459.28 519.262 562.768 517.839 516.881 582.052 609.131 528.05 537.02 302.095 629.197 1394.7 1474.82 1476.95 1437.18 1291.43 1228.71 1263.39 1264.34 1132.17 1115.72 1141.43 1099.69 1052.42 1014.45 1125.89 1129.92 1002.94 945.236 911.913 982.284 1040.31 1103.96 1037.44 882.58 907.213 872.277 811.03 819.083 912.264 1001.65 1007.22 507.618 1143.54 2499.14 2592.18 2529.68 2475.7 2321.6 2307.96 2328.7 2288.45 2151.46 2119.17 2038.73 2060.98 2075.95 1934.38 2033.61 2105.72 2047.9 1920.19 1879.55 1983.84 1974.82 2043.32 2030.94 1904.56 1940.39 1905.13 1823.58 1784.79 1814.93 1855.28 2057.27 1123.06 953.456 2001.91 2079.25 2060.16 1926.95 1928.23 2088.17 2035.64 1996.51 1987.2 2052 1951.59 1982.59 2081.57 1984.27 1955.86 2038.42 2053.67 1844.82 1890.38 1929.33 1871 1931.25 2002.17 1998.13 1933.81 1920.07 1881.07 1857.75 1954.41 1959.91 2155.74 1201.49 798.538 1681.84 1865.02 1941.47 1767.81 1841.41 2047.72 2025.68 1977.33 1888.85 1936.47 1985.17 2029.33 2113.82 2016.6 1857.17 1925.75 1953.05 1801.69 1906.62 1993.39 1948.16 1894.67 1922.82 1954.06 1880.22 1816.58 1798.33 1837.22 1924.23 2020.81 2244.17 1230.01 808.718 1784.07 1978.66 1926.35 1866.54 2001.88 2111.43 2077.09 1978.75 1901.62 1886.81 1835.01 1988.48 2217.82 2077.37 1876.37 1870.59 1929.56 1904.24 1981.2 2126.76 2091.07 1876.49 1810.02 1867.68 1895.85 1889.53 1857.85 1827.82 1759.36 1910.23 2211.19 1186.21 970.146 2141.63 2347.34 2173.34 2204.84 2472.79 2406.2 2270.95 2153.1 2078.93 2102.18 1988.77 2055.35 2184.23 2085.96 2096.46 2113.92 2080.93 2007.46 1985.56 2117.44 2092.1 1998.65 1927.83 1804.32 1868.95 1934.97 1815.48 1723.75 1844.48 2037.16 2199.64 1159.27 1147.47 2554.23 2747.84 2478.42 2480.33 2742.75 2698.53 2600.28 2542.23 2433.17 2379.79 2423.63 2296.52 2030.97 2065.42 2175.75 2160.63 2199.77 2112.09 1955.94 1951.82 1918.56 1986.7 2029.36 1844.42 1893.89 2043.6 1926.99 1842.47 1898.8 1949.11 2263.14 1276.69 1404.71 2977.39 3008.85 2817.44 2813.45 2879.32 2763.07 2584.45 2697.88 2715.44 2566.18 2621.11 2538.47 2310.55 2247.66 2222.33 2243.88 2169.49 1994.55 1905.48 1796.02 1812.69 1939.85 2023.67 2002.19 1998.03 2024.08 2033.56 2063.67 2037.5 1980.8 2199.46 1222.58 778.086 1565.1 1532.82 1520.06 1550.8 1550.84 1398.11 1233.39 1334.95 1380.53 1289.68 1282.12 1316.85 1301.76 1143.1 1075.71 1189.71 1065.43 917.512 937.772 900.5 906.828 978.086 1026.27 1072.33 1056.81 955.278 994.017 1062.32 1096.31 1073.16 1063.25 562.904 628.227 1458.07 1512.57 1366.1 1400.45 1402.48 1408.51 1318.63 1322.75 1312.18 1157.26 1166.15 1178.1 1118.81 1116.26 1151.37 1079.75 1081.06 1045.62 965.223 1001.92 1016.24 1111.75 1086.01 909.964 979.991 1028.58 949.256 910.675 912.611 982.993 1020.26 509.047 1109.74 2606.24 2752.98 2528.67 2551.88 2517.86 2476.72 2401.79 2460.64 2404.87 2239.52 2220.87 2184.35 2154.73 2160.09 2075.44 2031.39 2127.34 2120.86 2070.24 2015.24 1937.87 2044.84 2036.79 1893.94 1979.84 2012.78 1922.75 1878.18 1884.34 1893.48 2020.71 1063.7 857.692 2035.85 2321.59 2339.75 2180.99 2043.72 2090.64 2119.27 2167.15 2077 2047.65 2093.86 2129.84 2083.69 2032.59 1981.52 1976.15 1964.56 1908.95 1948.61 1940.16 1885.01 1877.51 1961.52 2021.07 1859.03 1790.91 1881.62 1883.18 2014.1 1974.85 1997.92 1086.1 733.2 1660.53 2019.6 2163.68 1901.31 1914.9 2025.68 2007.38 2026.21 1964.84 1908.5 1914.36 2025.55 1955.29 1856.13 1873.15 2012.91 1958.49 1783.56 1772.47 1928.87 2031.53 1906.1 1908.86 1935.04 1845.4 1791 1908.23 1933.53 1985.37 1986.45 2039.4 1130.25 736.495 1689.53 1940.11 1920.97 1899.87 2038 2027.25 1985.99 2048.28 2025.1 1908.16 1854.63 1861.26 1929.48 1866.44 1791.72 1999.18 1980.68 1880.43 1841.09 1928.38 2053.72 1866.35 1723.51 1807.39 2000.14 1952.96 1883.55 1885.64 1821.65 1935.59 2198.45 1194.41 889.824 2068.6 2313.88 2125.62 2265.24 2408.78 2177 2066.57 2141.77 2100.58 1994.21 2042.22 1986.04 2026.64 2090.51 2091.86 2060.28 1919.08 1852.98 1857.72 1914.54 2014.68 1898.18 1816.66 1920.57 1970.7 1936.81 1909.67 1835.61 1811.31 1995.64 2258.42 1216.03 1156.83 2582.49 2798.86 2489.64 2446.36 2628.3 2415.76 2297.44 2402.98 2262.36 2147.86 2296.93 2142.1 1966.07 2107.92 2185.28 2116.44 2021.68 1976.58 1911.6 1875.17 1984.21 2009.44 1978.13 1962.91 1931.38 1960.11 2081.21 2057.8 1876.62 1830.83 2123.11 1208.49 1374.83 2967.09 3072.32 2793.06 2690.25 2736.01 2574.33 2466.14 2596.82 2553.58 2368.9 2394.82 2305.72 2220.95 2197.65 2166.95 2206.42 2003.34 1946.96 1942.05 1925.27 1999.04 2057.49 2066.78 1996.59 1974.65 1946.37 2044.36 2094.99 2001.5 1900.94 2034.95 1109.41 728.349 1536.52 1585.67 1494.58 1481.01 1465.04 1311.57 1220.55 1284.29 1347.24 1250.2 1160.7 1190.37 1259.56 1181.17 1097.5 1139.47 960.274 892.775 975.958 1038.31 1043.94 1041.56 1079.93 1044.81 1000.06 954.404 989.384 1005 1057.54 1052.25 1013.74 521.343 633.368 1404.93 1461.12 1419.78 1488.53 1475.13 1417.5 1350.13 1384.21 1360.66 1185.89 1224.33 1189.75 1121.85 1148.58 1019.9 1077.23 1184.55 1094.86 1012.11 993.135 999.924 965.113 916.419 964.958 1089.77 1141.07 1053.39 914.199 924.977 986.804 950.547 462.084 1138.04 2540.02 2721.07 2605.65 2649.02 2577.99 2570.08 2626.1 2632.62 2576.53 2310.07 2283.54 2195.07 2169.26 2211.24 1982.19 2087.32 2284.82 2213.29 2229.04 2122.62 1901.5 1915.12 1887.57 1873.14 2106.64 2153.8 1939.42 1863.41 1871.79 1809.55 1825.36 941.983 915.238 2073.95 2337.41 2304.51 2303.03 2204.2 2178.17 2333.4 2344.19 2268.7 2035.78 2042.86 2100.42 2044.31 2094.05 1996.69 1936.49 2003.82 2114.82 2190.14 2110.01 1908.06 1885.65 1837.53 1799.09 1907.22 1870.41 1881.95 1894.31 1844.13 1753.15 1754.19 923.462 866.667 1752.81 1971.61 2112.94 2037.31 2152.24 2144.51 1996.01 1919.8 1947.28 1796.03 1775.36 1949.07 1800.34 1867.35 1993.59 1986.53 1912.32 1980.65 1902.41 1863.24 2040.05 1941.57 1750.42 1761.12 1888.51 1876.43 2018.15 2005.93 1898.77 1855.41 1786.44 904.42 847.206 1736.95 1889.88 1962.29 1882.41 2081.43 2206.08 1918.08 1887.29 2007.13 1892.15 1866.62 1851.72 1705.64 1745.86 1966.26 2158.8 2020.38 1907.19 1881.94 1872.2 1963.39 1863.36 1720.57 1754.55 1958.28 1928.69 1917.47 2026.27 1897.76 1866.62 1963.23 987.146 821.57 1939.35 2165.41 2061.43 2086.76 2197.57 2135.74 1929.41 2015.28 2087.4 1983.99 2009.43 1966.29 1929.19 1999.11 2059.56 2097.7 1995.47 1902.32 1990.19 2034.13 1980.51 1841.04 1774.52 1857.62 1872.51 1810.73 2010.92 2070.94 1790.64 1854.95 2102.92 1087.44 938.651 2234.85 2626.33 2515.94 2394.52 2441.07 2230.81 2002.89 2054.15 2070.18 2071.22 2163.01 2069.16 2063.41 2202.1 2140.5 2098.06 2069.74 2091.04 2064.63 1966.21 1993.95 1942.78 1829.88 1906.43 1899.71 1766.44 2037.67 2107.9 1856.72 1832.75 1983.15 1068.76 1179.9 2678.72 2993.4 2873.49 2690.07 2664.08 2518.71 2343.44 2408.89 2364 2308.94 2415.65 2245.78 2239.71 2298.43 2222.28 2188.25 2042.26 2112.52 2095.47 2024.41 2029.36 2008.21 1867.7 1862.46 1897.23 1809.41 1920.12 1974.89 2013.55 1971.34 1940.1 1011.55 671.714 1460.21 1536.75 1450.98 1394.65 1390.06 1336.48 1290.48 1306.76 1268.53 1213.99 1187.16 1145.16 1203.29 1185.55 1134.28 1089.22 956.376 1000.87 1068.29 1102.84 1086.09 1049.05 975.817 929.319 909.912 943.775 998.132 972.496 1051.16 1051.92 1003.7 503.944 660.428 1388.43 1439.49 1481.45 1566.41 1522.21 1432.12 1386.87 1359.09 1348.69 1232.63 1217.18 1208.88 1096.02 1126.09 1059.62 1071.88 1136.57 1135.73 1145.31 1005.09 980.112 928.24 844.524 922.828 1014.62 1097.2 1043.93 942.103 922.627 960.881 966.23 465.306 1119.69 2462.21 2705.4 2693.99 2727.67 2687.93 2729.51 2858.53 2711.23 2468.08 2283.34 2272.2 2241.57 2147.18 2146.04 2086.47 2149.32 2292.54 2290.59 2331.03 2094.44 1933.3 1925.42 1824.72 1770.1 1903.65 2099.64 1931.52 1851.91 1849.14 1840.29 1871.89 928.23 876.902 2020.98 2335.76 2373.65 2333.99 2243.56 2317.33 2505.38 2512.51 2348.45 2043.69 1948.89 2043.92 2087.86 2110.78 2033.05 1963.11 2057.17 2160.14 2180.8 2076.57 1914 1863.69 1814.93 1734.42 1840.5 1947.19 1932.95 1884.73 1792.76 1805.84 1852.68 937.027 889.003 1788.93 1981.83 2161.36 2111 2078.38 2060.61 1989.6 2027.67 2085.4 1820.97 1807.32 1984.65 1892.36 2018.79 2016.42 1881.75 1855.45 1989 1982.23 1886.58 1933.29 1799.97 1714.34 1757.1 1878.57 1947.86 1983.62 1936.86 1839.65 1889.39 1950.66 974.545 887.022 1804.73 1982.54 2073.11 1951.09 1939.1 2048.09 1983.82 1916.89 1927.51 1865.8 1975.26 2046.17 1819.32 1853.68 2060.3 2077.73 2003.55 2023.92 2065.68 1911.27 1861.12 1813.69 1792.71 1766.32 1804.51 1909.05 1850.09 1955.05 1944.51 1912.74 2030.78 1015.06 867.293 1998.99 2191.23 2151.17 2120.28 2017.24 1989.8 1995.51 2049.09 2070.68 2042.88 2062.7 2045.7 1940.08 2007.87 2146.83 2109.8 2066.03 2039.44 2049.15 2048.05 1922.86 1931.1 1919.3 1785.08 1818.21 1831.61 1899.79 2020.08 1930.36 1896.75 2002.99 1015.85 874.802 2140.34 2502.08 2534.7 2492.5 2409.02 2295.14 2123.38 2081.95 2018.57 2158.36 2258.17 2030.82 2021.78 2227.23 2215.39 2128.04 2150.14 2095.58 1957.99 1950.38 1976.92 2012.62 1932.62 1885.72 1929.52 1856.05 1904.88 1902.01 1878.2 1912.11 1916.73 962.933 1055.42 2477.49 2854.95 2956.34 2766.38 2591.16 2586.39 2436.82 2391.53 2289.88 2396.3 2448.62 2191.43 2165.93 2280.66 2228.83 2119.59 2138.63 2125.62 2095.22 1994.98 1935.52 1974.49 1969.15 2038.86 1922.46 1824.27 1926.68 1865.03 1899 1963.53 1837.73 890.045 632.247 1373.14 1473.56 1499.95 1381.34 1260.83 1273.63 1281 1309.07 1270.82 1243 1191.34 1133.56 1120.56 1135.57 1110.2 1019.71 1005.22 1029.27 1107.86 1080.73 992.82 1012.74 1042.74 1041.85 933.751 893.901 1009.76 989.973 980.04 998.377 896.851 428.351 709.442 1442.52 1402.83 1380.2 1431.34 1405.98 1400.5 1393.65 1340.58 1335.9 1323.09 1247.87 1126.82 1102.82 1299.38 1307.22 1069.8 1055.82 1171.9 1219.69 1110.8 1005.33 984.912 947.958 890.026 936.62 988.715 974.565 940.819 931.931 941.652 903.676 459.121 1182.38 2603.45 2794.75 2747.42 2703.53 2601.16 2658.13 2786.43 2728.69 2543.55 2543.3 2474.67 2229.76 2259.63 2464.11 2360.2 2113.46 2163.74 2212.04 2249.39 2102.22 2023.28 1969.96 1862.67 1821.55 1790.47 1911.42 1920.11 1827.04 1827.63 1984.64 1919.78 886.608 859.943 2088.99 2482.05 2531.47 2384.7 2196.78 2235.58 2456.14 2547.17 2355.2 2296.29 2241.23 2171.6 2213.26 2109.11 2013.37 2070.83 2101.56 2003.86 1950.56 1933.62 2038.45 1921.33 1805.49 1928.67 1834.77 1863.54 2031.29 1943.41 1842.26 2054.48 1999.81 894.439 817.039 1906.85 2179.01 2252.79 2251.39 2078.59 1937.98 2063.45 2105.04 1998.05 1979.01 2142.46 2252.58 2058.27 1992.69 2050.74 2115.52 2033.61 1914.63 1843.73 1922.33 2071.6 1896.98 1758.54 1825.34 1876.05 1909.59 2005.55 1946.11 1835.82 1943.66 2086.49 1073.68 842.344 1922.09 2123.08 2119.9 2203.13 2107.97 2031.43 2159.1 2027.34 1820.01 1886.76 2122.64 2173.19 1993.52 1977.4 2038.23 2140.51 1999.76 1818.6 1873.43 1860.63 1915.54 1867.9 1792.53 1789.08 1785.31 1847.69 1759.1 1717.83 1792.97 1872.2 2043.95 1066.92 888.824 2037.05 2179.95 2186.14 2237.34 2010.95 2014.45 2109.29 2080.3 1984.92 1992.06 2068.45 1947.42 1924.05 2013.5 2035.74 2102.41 1990.41 1789.59 1847.69 1839.66 1794.43 1898.76 1886.04 1807.78 1776.6 1806.78 1818.28 1781.69 1861.12 1936.06 1960.8 975.374 932.593 2143.75 2336.6 2422.86 2470.55 2280.7 2204.48 2205.17 2172.72 2016.1 2113.55 2190.42 1984.86 1964.51 2122.54 2110.72 2068.85 2079.37 1928.96 1918.36 1945.7 1881.14 1906.4 1893.43 1873.09 1871.16 1907.28 1894.97 1863.74 1921.46 1970.58 1941.84 933.466 1046.83 2403.94 2623.08 2700.03 2814.98 2675.13 2528.66 2581.04 2584.79 2339.3 2307.92 2283.42 2127.57 2017.29 2106.96 2194.09 2059.76 2026.27 2013.31 2089.51 2045.66 1959.12 1888.59 2016.7 2155.79 1980.57 1883.49 1923.58 1967.71 1995.06 1922.03 1713.77 821.66 590.753 1353.93 1432.23 1431.93 1517.52 1374.41 1267.23 1326.15 1411.01 1338.61 1202.61 1166.85 1100.86 985.118 1068.83 1171.24 1041.17 977.518 1006.23 1068.29 1059.12 1007.97 973.755 1084.54 1129.58 995.825 904.061 1007.6 1056.74 1031.01 947.472 791.568 403.375 717.578 1501.08 1489.41 1483.22 1411.72 1375.49 1442.42 1386.32 1447.12 1358.81 1257.85 1322.26 1305.21 1224.15 1237.11 1265.58 1067.96 1047.71 1077.31 1023.48 986.484 939.258 1007.01 1034.72 991.785 989.742 950.481 905.771 898.298 960.413 958.506 874.123 445.883 1310.44 2820.89 2961.65 2953.43 2820.49 2666.96 2676.63 2661.8 2731.83 2688.84 2617.35 2561.15 2461.12 2447.44 2408.02 2334.36 2124.91 2114.25 2168.99 2088.32 2015.48 1972.73 1928.71 1952.52 2047.65 2053.97 2018.01 1945.88 1858.58 1806.33 1975.44 1860.09 803.65 999.019 2279.34 2617.67 2555.77 2397.14 2336.37 2284.26 2380.78 2460.9 2392.79 2338.19 2281.21 2261.7 2319.36 2168.54 2110.19 2218.88 2111.74 2058.27 2100.13 2108.77 2070.67 1847.92 1907.84 2184.78 2072.07 1953.7 2028.83 2006.36 1841.52 1961.98 1876.55 797.073 775.234 1918.48 2211.67 2133.22 2095.41 2125.98 2125.81 2239.66 2144.56 1900.7 1947.79 2238.32 2325.44 2087.54 2019.32 2107.07 2188.18 2089.91 1974.22 1951.31 2031.36 2015.91 1894.76 1880.33 2007.77 1929.66 1831.38 1927.38 1917.88 1840.11 1791.5 1882.36 985.672 788.895 1853.72 1981.85 1970.9 2165.46 2215.09 2220.13 2300.38 2049.89 1854.34 1980.39 2114.61 2184.42 2019.3 1918.19 1918.42 2031.94 2071.32 1916.63 1830.55 1826.9 1885 1909.12 1775.37 1788.1 1812.44 1881.7 1882.21 1753.18 1762.21 1817.96 1902.99 954.081 899.664 1911.15 1974.21 1976.16 2112.11 2148.03 2186.68 2165.47 2118.7 2075.12 1971.19 1945.6 1981.69 1978.88 1849.92 1768.81 1979.7 1975.71 1798.24 1875.55 1901 1879.68 1849.49 1786.23 1762.81 1708.27 1835.66 2001.69 1874.17 1848.86 2040.9 2031.44 940.534 941.737 2008.41 2194.64 2286.24 2226.3 2218.7 2221.07 2194.21 2239.15 2138.94 2034.35 2142.27 2159.18 2014.53 2025.15 1937.21 1990.99 1978.83 1888.07 2092.94 2122.01 2013.37 1893.12 1862.36 1947.76 1898.26 1890.84 1952.41 1953.12 1979.81 2038.75 2011.93 964.159 982.197 2218.1 2431.73 2551.77 2661.77 2594.72 2494.97 2549.05 2562.68 2405.82 2229.77 2282.61 2292.76 2062.64 2084.98 2178.16 2123.84 1975.69 1975.19 2139.89 2114.14 2101.58 1920.63 1940.27 2154.56 2030.76 1916.76 1872.92 1999.2 2087.05 2002.12 1803.69 847.416 520.309 1226.08 1295.69 1318.44 1489.15 1390.04 1316.22 1354.29 1360.69 1325.61 1155.33 1167.33 1150.51 999.156 1013.25 1157.02 1106.87 945.973 976.36 1007.98 1017.81 1061.59 936.421 979.068 1060.37 950.163 925.084 978.642 1038.88 1038.4 1032.76 912.001 416.076 696.79 1521.55 1627.77 1691.72 1613.05 1458.25 1432.35 1436.26 1445.08 1268.38 1168.3 1311.3 1358.02 1198.35 1140.5 1165.7 1116.16 1084.52 989.585 927.374 936.523 966.906 1039.74 1019.22 990.359 961.283 950.389 924.598 944.75 1000.84 913.597 895.766 469.063 1275.83 2789.04 3094.92 3204.8 3025.55 2779.21 2691.33 2705.86 2680.26 2477.62 2322.93 2407.35 2522.58 2433.53 2339.05 2334.28 2294.63 2237.43 2097.24 2021.5 2072.24 2017.26 1992.68 2038.13 2105.59 2068.58 2031.42 1932.17 1927.31 1966.45 1939.02 1890.33 890.992 1115.29 2331.53 2658.51 2679.6 2485.21 2439.31 2353.19 2368.15 2341.59 2267.39 2114.07 2125.1 2301.26 2374.74 2301.09 2225 2250.28 2168.86 2056.65 2124.99 2291.59 2072.87 1900.95 2138.34 2228.08 2075.06 1934.64 1884.03 1990.18 1992.55 2003.32 1931.17 872.793 893.851 1956.36 2179.89 2124.41 1961.61 2099.37 2176.84 2162.63 2136 1966.05 1912.57 2156.32 2227.66 2111.97 2116.78 1992.89 1907.27 1976.77 2036.49 2019.85 2082.8 1959.05 1920.51 2070.57 2103.34 1938.97 1832.08 1829.61 1965.77 2100.5 1876.16 1840.62 976.311 738.949 1693.24 1847.62 1897.11 1938.39 2039.92 2115.81 2104.07 2075.99 1980.64 2037.24 2080.19 2065.1 2007.67 1940.38 1843.53 1799.51 1992.68 2091.48 1964.85 1924.63 1924.15 1973.18 1912.56 1844.38 1822.35 1990.61 2030.61 1975.76 2016.46 1842.06 1892.34 1001.28 878.925 1799.11 1871.02 1943.45 2089.49 2147.99 2144.44 2104.9 2075.07 2037.4 1997.51 1918.79 1897.19 1957.85 1856.56 1767.89 1891.85 2037.6 2008.71 1947.11 1941.13 1917.6 1957.92 1951.47 1787.75 1734.32 1951.84 2184.63 2054.74 1846.8 1898.1 1931.37 926.042 987.642 2072.94 2154.69 2161.21 2142.6 2176.93 2275.27 2258.84 2133.77 1933.29 1910.61 2063.86 2023.14 1912.01 1965.85 1946.75 1946.97 1962.24 1980.55 2012.9 1932.85 1957.2 2065.87 2097.55 1997.91 1846.49 1866.85 2060.89 1992.03 1836.94 1841.13 1866.13 948.418 1091.67 2338.62 2427.71 2467.67 2421.93 2343.23 2473.45 2547.26 2369.22 2158.18 2061.85 2145.15 2216.62 2058.46 2047.81 2110.21 2058.06 1941.9 1941.66 2058.77 2019.91 2093.17 2172.57 2166.04 2213.38 2032.99 1894.91 1918.1 2052.12 1998.6 1858.88 1846.02 902.602 601.609 1263.87 1284.95 1310.69 1319.33 1255.39 1309.44 1353.33 1264.12 1189.55 1064.64 1047.16 1116.53 1069.05 1012.38 1024.29 1038.89 985.408 965.828 1017.12 1030.49 1065.96 1063.94 1058.55 1149.33 1069.68 967.765 964.377 1097.23 1065.56 972.048 922.95 404.392 339.689 758.523 845.221 902.256 893.435 765.522 680.378 716.302 679.283 575.897 570.009 622.959 590.421 528.383 590.434 599.162 594.494 556.581 444.088 438.939 479.488 499.813 514.474 481.416 466.048 453.919 493.422 484.839 478.015 515.807 449.356 455.803 247.868 589.285 1347.28 1563.28 1657.32 1602.17 1403.59 1293.31 1363.6 1326.62 1146.02 1094.26 1154.84 1161.23 1169.83 1239.77 1189.84 1175.2 1122.98 920.693 969.66 1083.27 1013.07 1014.16 1011.83 1020.57 966.616 975.438 967.717 961.608 1059.32 989.811 968.23 501.07 553.732 1152.1 1292.5 1328.01 1304.58 1225.65 1143.17 1187.11 1148.92 1081.55 1057.95 1098.69 1178.53 1247.57 1225.76 1123.84 1089.75 1060.96 941.465 999.669 1149.92 1034.75 1018.38 1093.97 1028.7 948.337 897.671 907.262 980.369 1060.68 1064.16 992.469 467.072 488.12 1005.95 1070.66 1051.33 1003.73 1071.06 1076.1 1019 1028.23 985.216 970.193 1075.33 1120.17 1145.88 1132.03 1008.32 912.899 946.097 991.917 943.641 1005.95 1015.11 1026.33 1059.72 964.689 909.468 906.379 898.067 1022.97 1138.98 992.849 920.115 480.082 365.521 830.705 927.577 965.692 900.885 958.514 1041.45 974.196 1029.62 974.902 987.621 1026.37 985.006 1058.95 1046.38 973.283 904.982 927.703 990.17 943.265 993.983 1018.67 1036.8 1052.11 954.396 903.498 1022.34 1056.34 1067.97 1056.56 883.634 922.262 504.691 423.676 884.944 897.7 962.964 1012.54 992.643 1055.55 1030.55 978.878 917.697 969.978 953.034 853.283 948.58 956.999 921.469 948.714 1018.9 996.149 936.137 956.091 912.083 993.536 1052.91 934.298 883.648 999.362 1147.58 1080.72 890.398 813.772 857.077 439.377 503.246 1069.31 1013.5 987.992 1065.84 1026.86 1101.64 1148.51 1004.76 828.312 883.744 948.676 890.848 902.623 927.082 955.492 938.434 978.805 992.524 924.157 840.391 845.783 1029.79 1088.73 952.587 833.223 861.057 1026.52 998 888.284 829.158 846.283 466.939 623.312 1276.9 1208.15 1140.12 1161.85 1137.5 1197.85 1288.45 1154.31 959.166 988.178 1032.2 1055.25 1007.58 947.79 997.582 952.792 922.455 954.351 970.578 935.113 997.251 1170.17 1175.91 1096.45 964.722 872.966 931.052 1031.94 991.561 863.036 893.25 472.789 362.204 704.439 660.995 627.775 615.55 628.248 656.163 675.484 625.453 547.447 523.293 518.694 545.129 534.346 486.931 465.438 461.938 486.382 494.862 513.987 516.642 538.505 604.746 584.157 614.272 585.477 479.652 469.454 572.872 558.925 433.164 421.855 206.75 322.873 657.581 629.197 322.873 322.873 657.581 1394.7 629.197 610.636 1195.03 1143.54 610.636 322.873 322.873 657.581 629.197 322.873 610.636 322.873 334.709 679.849 765.501 679.849 1474.82 584.397 1219.6 1355.6 334.709 334.709 679.849 765.501 584.397 334.709 345.14 735.63 709.318 735.63 1476.95 635.201 1254.14 1236.58 345.14 345.14 735.63 709.318 635.201 345.14 390.49 698.091 767.632 698.091 1437.18 618.943 1151.58 1293.1 390.49 390.49 698.091 767.632 618.943 390.49 307.601 565.095 669.552 565.095 1291.43 532.632 1003.64 1182.6 307.601 307.601 565.095 669.552 532.632 307.601 257.494 515.642 621.881 515.642 1228.71 471.008 1051.33 1139.01 257.494 257.494 515.642 621.881 471.008 257.494 258.147 635.295 606.832 635.295 1263.39 580.324 1161.38 1168.95 258.147 258.147 635.295 606.832 580.324 258.147 377.147 625.953 656.562 625.953 1264.34 581.058 1099.7 1159.75 377.147 377.147 625.953 656.562 581.058 377.147 248.805 501.535 607.773 501.535 1132.17 518.641 1041.35 1128.7 248.805 248.805 501.535 607.773 518.641 248.805 252.73 575.255 524.394 575.255 1115.72 522.708 1061 1022.76 252.73 252.73 575.255 524.394 522.708 252.73 322.526 596.379 591.329 596.379 1141.43 538.288 995.239 1096.41 322.526 322.526 596.379 591.329 538.288 322.526 273.853 491.68 550.098 491.68 1099.69 456.951 960.124 942.324 273.853 273.853 491.68 550.098 456.951 273.853 217.827 508.088 549.591 508.088 1052.42 503.173 1019.19 1118.66 217.827 217.827 508.088 549.591 503.173 217.827 290.261 533.009 502.831 533.009 1014.45 516.021 994.856 957.293 290.261 290.261 533.009 502.831 516.021 290.261 242.748 542.988 511.615 542.988 1125.89 478.835 1024.17 977.084 242.748 242.748 542.988 511.615 478.835 242.748 300.241 579.028 614.276 579.028 1129.92 545.33 1120.31 1056.53 300.241 300.241 579.028 614.276 545.33 300.241 278.787 505.916 515.646 505.916 1002.94 574.984 1076.78 1049.19 278.787 278.787 505.916 515.646 574.984 278.787 227.129 498.838 487.298 498.838 945.236 501.794 941.645 998.708 227.129 227.129 498.838 487.298 501.794 227.129 271.71 498.134 457.938 498.134 911.913 439.851 920.234 921.487 271.71 271.71 498.134 457.938 439.851 271.71 226.424 549.768 453.975 549.768 982.284 480.383 1072.47 958.059 226.424 226.424 549.768 453.975 480.383 226.424 323.344 577.048 528.309 577.048 1040.31 592.09 1059.9 1025.78 323.344 323.344 577.048 528.309 592.09 323.344 253.704 532.253 511.997 532.253 1103.96 467.807 1007.96 949.039 253.704 253.704 532.253 511.997 467.807 253.704 278.549 474.369 591.961 474.369 1037.44 540.151 993.443 1094.28 278.549 278.549 474.369 591.961 540.151 278.549 195.821 437.299 445.478 437.299 882.58 453.292 972.576 936.657 195.821 195.821 437.299 445.478 453.292 195.821 241.478 456.617 437.102 456.617 907.213 519.285 1002 967.903 241.478 241.478 456.617 437.102 519.285 241.478 215.139 382.761 470.111 382.761 872.277 482.714 895.905 972.483 215.139 215.139 382.761 470.111 482.714 215.139 167.623 379.785 402.166 379.785 811.03 413.191 847.424 932.644 167.623 167.623 379.785 402.166 413.191 167.623 212.162 389.761 408.864 389.761 819.083 434.232 852.277 890.937 212.162 212.162 389.761 408.864 434.232 212.162 177.599 458.553 410.219 458.553 912.264 418.044 881.675 893.853 177.599 177.599 458.553 410.219 418.044 177.599 280.954 491.962 502.045 491.962 1001.65 463.63 889.461 921.074 280.954 280.954 491.962 502.045 463.63 280.954 211.008 440.79 499.601 440.79 1007.22 425.831 971.817 934.209 211.008 211.008 440.79 499.601 425.831 211.008 229.783 229.783 507.618 229.783 507.618 545.986 545.986 1123.06 229.783 229.783 229.783 507.618 545.986 229.783 287.763 537.451 1104.44 514.343 556.585 1008.12 953.456 556.585 287.763 537.451 514.343 287.763 556.585 287.763 539.749 1117.37 451.536 989.715 1048.45 249.688 539.749 590.102 451.536 249.688 518.514 1052.74 538.178 978.573 1030.8 290.061 518.514 527.264 538.178 290.061 453.485 1038.52 440.394 883.188 1029.36 228.453 453.485 525.472 440.394 228.453 438.545 1030.17 442.794 919.215 897.588 225.031 438.545 513.044 442.794 225.031 535.69 1079.25 476.421 1019.72 1030.64 213.513 535.69 517.127 476.421 213.513 526.087 1065.31 543.296 1000.79 1057.53 322.177 526.087 562.119 543.296 322.177 473.746 1024.12 457.494 939.978 978.11 203.91 473.746 503.19 457.494 203.91 539.814 1019.29 482.484 978.7 1018.4 269.836 539.814 520.926 482.484 269.836 485.741 1003.45 496.216 1010.66 968.795 269.979 485.741 498.367 496.216 269.979 398.86 897.308 514.447 938.132 1083.21 215.762 398.86 505.082 514.447 215.762 468.443 961.295 423.684 941.889 868.384 183.098 468.443 392.226 423.684 183.098 511.105 1023.53 518.205 975.402 1114.21 285.346 511.105 569.07 518.205 285.346 461.847 919.93 457.197 950.838 967.364 225.76 461.847 454.462 457.197 225.76 481.177 907.718 493.641 942.307 1016.91 236.087 481.177 465.469 493.641 236.087 541.286 975.798 448.666 1048.13 938.945 245.09 541.286 442.249 448.666 245.09 570.863 1044.96 599.466 1133.48 1099.47 296.197 570.863 533.549 599.466 296.197 442.806 974.958 534.009 951.331 954.193 274.666 442.806 511.409 534.009 274.666 422.1 967.632 417.321 926.851 890.631 168.141 422.1 463.549 417.321 168.141 522.706 1001.55 509.53 989.127 999.747 253.96 522.706 504.083 509.53 253.96 482.848 934.512 479.597 985.945 929.586 268.746 482.848 497.47 479.597 268.746 475.705 939.361 506.347 1031.67 941.411 214.102 475.705 437.042 506.347 214.102 519.073 993.499 525.324 1005.27 989.84 261.602 519.073 502.32 525.324 261.602 535.278 1021.98 479.95 984.999 1012.33 257.471 535.278 491.179 479.95 257.471 545.381 1033.17 505.048 1030.93 985.797 277.807 545.381 530.801 505.048 277.807 513.144 1032.85 525.883 999.196 948.015 267.575 513.144 502.372 525.883 267.575 467.639 1012.55 473.313 927.68 972.06 245.569 467.639 530.477 473.313 245.569 462.515 965.708 454.367 931.002 909.005 222.07 462.515 482.074 454.367 222.07 423.122 902.664 476.635 924.302 948.741 240.445 423.122 483.634 476.635 240.445 397.5 853.638 447.667 964.034 1005.67 182.676 397.5 419.03 447.667 182.676 531.027 1050.05 516.367 1121.28 954.242 214.823 531.027 434.608 516.367 214.823 316.204 615.439 604.916 604.916 1201.49 316.204 316.204 615.439 604.916 316.204 268.822 470.67 897.463 439.114 490.537 923.968 798.538 490.537 268.822 470.67 439.114 268.822 490.537 268.822 449.966 961.888 433.431 911.77 883.306 201.848 449.966 458.35 433.431 201.848 460.059 1007.43 478.339 922.022 981.716 248.118 460.059 503.538 478.339 248.118 429.703 888.433 443.684 906.665 959.749 211.941 429.703 503.889 443.684 211.941 480.67 898.053 462.982 981.287 808.063 217.762 480.67 384.544 462.982 217.762 484.027 1008.92 518.305 1018.85 1033.35 262.908 484.027 513.509 518.305 262.908 474.704 970.33 500.544 992.137 1014.37 221.12 474.704 495.411 500.544 221.12 466.232 972.396 491.593 911.509 1011.31 253.584 466.232 474.92 491.593 253.584 438.886 967.904 419.915 864.071 966.022 212.648 438.886 497.477 419.915 212.648 524.923 1048.56 444.156 976.627 922.825 226.238 524.923 470.428 444.156 226.238 539.271 1054.29 532.472 1023.98 1013.65 298.685 539.271 578.128 532.472 298.685 473.446 1021.3 491.513 1002.85 971.52 240.587 473.446 476.159 491.513 240.587 464.296 1058.04 511.335 1003.33 1057.81 232.859 464.296 545.139 511.335 232.859 488.991 1064.34 491.998 967.146 1056 231.437 488.991 512.902 491.998 231.437 461.13 1048.14 475.148 889.439 960.593 257.554 461.13 551.442 475.148 257.554 506.846 1062.62 414.291 939.333 896.58 203.577 506.846 496.695 414.291 203.577 562.613 1008.71 525.041 1025.8 1029.17 303.27 562.613 565.923 525.041 303.27 508.524 869.866 500.761 994.755 923.878 259.344 508.524 442.784 500.761 259.344 504.751 922.745 493.993 1022.95 877.811 249.18 504.751 427.082 493.993 249.18 466.421 927.779 528.952 1009.01 1028.81 255.57 466.421 495.663 528.952 255.57 503.096 936.485 480.056 1023.01 964.579 210.851 503.096 432.116 480.056 210.851 555.967 991.89 542.951 1026.59 983.579 292.245 555.967 504.37 542.951 292.245 486.201 1008.67 483.636 939.103 911.093 263.722 486.201 487.52 483.636 263.722 449.721 976.147 455.467 979.268 1011.73 222.479 449.721 521.15 455.467 222.479 485.55 900.639 523.801 1020.65 942.332 227.242 485.55 454.996 523.801 227.242 486.052 887.225 496.846 958.063 937.891 258.308 486.052 445.643 496.846 258.308 460.042 868.514 461.218 934.346 878.688 227.744 460.042 441.583 461.218 227.744 468.487 892.039 473.128 943.793 919.638 232.297 468.487 426.932 473.128 232.297 501.181 1051.74 470.665 955.224 917.584 236.19 501.181 465.107 470.665 236.19 566.535 1106.27 484.56 1035.87 1006.65 264.991 566.535 586.637 484.56 264.991 590.256 1105.69 551.31 1165.19 1014.16 301.544 590.256 519.634 551.31 301.544 288.712 586.053 613.875 613.875 1230.01 288.712 288.712 586.053 613.875 288.712 221.715 453.298 784.38 359.424 459.284 957.679 808.718 459.284 221.715 453.298 359.424 221.715 459.284 221.715 461.804 903.135 498.395 1007.16 975.354 231.583 461.804 424.956 498.395 231.583 461.964 934.038 508.77 974.977 1003.3 230.221 461.964 478.178 508.77 230.221 476.962 879.379 466.208 973.164 923.045 231.743 476.962 455.86 466.208 231.743 500.617 943.358 506.956 1080.49 943.495 245.219 500.617 423.519 506.956 245.219 534.822 1038.8 573.539 1127.83 1058.39 255.398 534.822 519.839 573.539 255.398 517.433 1055.35 554.292 1013.96 1053.04 279.424 517.433 518.962 554.292 279.424 445.276 1004.94 459.664 924.682 1024.04 238.009 445.276 536.393 459.664 238.009 425.185 920.942 465.018 927.556 954.708 207.267 425.185 468.545 465.018 207.267 451.705 887.916 462.537 960.992 946.909 217.918 451.705 452.397 462.537 217.918 484.713 930.88 498.455 933.579 939.905 233.787 484.713 435.519 498.455 233.787 529.402 1008.03 435.124 1001.65 895.104 250.926 529.402 495.361 435.124 250.926 539.037 1055.77 566.521 1097.59 1093.38 278.476 539.037 512.672 566.521 278.476 478.156 952.253 531.066 1056.32 1124.44 260.561 478.156 543.102 531.066 260.561 428.309 809.036 525.25 980.666 952.93 217.594 428.309 409.151 525.25 217.594 432.486 863.13 455.415 955.575 923.442 210.715 432.486 399.885 455.415 210.715 463.189 944.34 500.16 959.124 947.145 221.772 463.189 463.245 500.16 221.772 486.23 931.824 458.965 910.364 982.411 241.418 486.23 481.095 458.965 241.418 518.195 983.876 451.399 1020.84 921.829 244.813 518.195 450.729 451.399 244.813 542.587 1065.61 569.438 1123.68 1059.38 273.382 542.587 533.147 569.438 273.382 519.911 1011.67 554.239 1075.63 1067.38 269.205 519.911 532.463 554.239 269.205 470.62 902.782 521.394 954.973 1023.68 250.706 470.62 479.21 521.394 250.706 452.901 914.153 433.579 891.989 852.808 219.914 452.901 423.573 433.579 219.914 529.546 977.916 458.41 939.482 957.209 232.987 529.546 490.581 458.41 232.987 535.097 979.583 481.072 941.197 910.467 296.559 535.097 487.335 481.072 296.559 472.011 929.354 460.125 890.461 985.387 238.538 472.011 492.248 460.125 238.538 474.304 929.812 430.335 892.848 904.142 233.473 474.304 437.106 430.335 233.473 475.306 945.184 462.513 885.832 953.71 240.831 475.306 492.706 462.513 240.831 454.044 872.489 423.319 881.613 874.107 234.475 454.044 452.477 423.319 234.475 469.335 914.541 458.294 941.194 885.251 219.569 469.335 420.012 458.294 219.569 574.929 1138.48 482.9 1056.22 1024.98 249.766 574.929 494.529 482.9 249.766 325.163 643.952 573.32 573.32 1186.21 325.163 325.163 643.952 573.32 325.163 237.569 504.381 999.692 449.294 479.008 1053.46 970.146 479.008 237.569 504.381 449.294 237.569 479.008 237.569 545.361 1075.52 574.452 1186.7 1171.49 266.812 545.361 550.398 574.452 266.812 513.014 992.309 612.249 1148.45 1175.85 278.549 513.014 525.123 612.249 278.549 496.202 987.161 536.198 1108.26 997.49 234.465 496.202 467.185 536.198 234.465 579.878 1058.52 572.065 1262.61 1207.35 261.737 579.878 519.976 572.065 261.737 593.009 1072.63 690.547 1291.8 1265.44 318.141 593.009 538.548 690.547 318.141 496.523 1021.73 601.254 1156.46 1140.76 274.868 496.523 534.082 601.254 274.868 479.406 973.813 555.209 1035.31 1130.19 221.655 479.406 487.65 555.209 221.655 502.371 980.676 480.103 1024.57 1022.91 257.751 502.371 486.163 480.103 257.751 509.287 998.899 544.472 1097.48 1056.03 244.62 509.287 494.512 544.472 244.62 448.866 904.13 553.004 981.884 1046.16 264.668 448.866 504.387 553.004 264.668 472.244 980.451 428.88 999.536 942.609 184.198 472.244 399.743 428.88 184.198 558.551 1162.04 570.656 1101.13 1112.74 288.045 558.551 580.708 570.656 288.045 578.161 1125.11 530.478 1049.83 1071.49 270.505 578.161 581.336 530.478 270.505 552.357 1067.34 519.356 1030.68 1014.48 307.656 552.357 543.778 519.356 307.656 523.089 1007.46 511.324 1107.38 1081.98 244.7 523.089 523.558 511.324 244.7 495.935 985.216 596.056 1124.68 1031.93 278.388 495.935 483.9 596.056 278.388 424.133 972.416 528.625 1021.27 1049 217.547 424.133 501.317 528.625 217.547 502.642 997.328 492.644 1051.98 958.467 206.586 502.642 471.1 492.644 206.586 581.089 1061.15 559.341 1112.69 1027.09 296.055 581.089 526.229 559.341 296.055 555.722 1079.39 553.347 1055.34 1090.35 285.034 555.722 534.919 553.347 285.034 484.352 973.71 501.991 1024.06 1001.75 270.688 484.352 544.475 501.991 270.688 439.088 895.864 522.073 964.76 996.901 213.664 439.088 429.235 522.073 213.664 409.936 889.76 442.687 854.714 930.927 225.423 409.936 466.629 442.687 225.423 406.101 916.271 412.027 871.534 873.393 184.513 406.101 423.132 412.027 184.513 418.45 960.176 459.508 900.878 995.552 221.588 418.45 493.139 459.508 221.588 418.544 928.04 441.371 870.564 939.421 196.862 418.544 467.037 441.371 196.862 410.526 882.633 429.193 820.557 876.059 221.682 410.526 461.003 429.193 221.682 427.569 886.868 391.364 862.108 847.696 188.844 427.569 421.63 391.364 188.844 471.859 995.688 470.743 979.208 996.787 238.725 471.859 465.239 470.743 238.725 481.291 1072.71 508.465 1044.79 1040.37 233.134 481.291 530.449 508.465 233.134 248.157 542.258 536.326 536.326 1159.27 248.157 248.157 542.258 536.326 248.157 241.439 549.079 1141.94 520.852 529.745 1205.23 1147.47 529.745 241.439 549.079 520.852 241.439 529.745 241.439 641.341 1271.81 675.488 1356.4 1406.76 307.64 641.341 621.088 675.488 307.64 635.433 1181.03 680.907 1279.86 1341.09 333.7 635.433 650.727 680.907 333.7 612.061 1217.68 598.951 1257 1137.33 301.733 612.061 530.305 598.951 301.733 682.734 1414.27 658.05 1358.57 1343 310.328 682.734 687.376 658.05 310.328 698.792 1333.57 700.52 1375.47 1399.75 372.406 698.792 726.894 700.52 372.406 659.94 1249.22 674.95 1303.65 1298.78 326.386 659.94 606.677 674.95 326.386 555.906 1179.29 628.698 1174.03 1301.5 333.554 555.906 642.545 628.698 333.554 522.204 1098.26 545.33 1204.55 1240.72 222.352 522.204 536.745 545.33 222.352 588.188 1103.28 659.222 1250.84 1192.44 299.852 588.188 561.513 659.222 299.852 533.018 1084.64 591.621 1194.88 1187.35 288.336 533.018 541.772 591.621 288.336 527.293 1074.9 603.261 1150.73 1236.28 244.682 527.293 542.866 603.261 244.682 542.583 1022.18 547.473 1065.9 1060.23 282.611 542.583 532.033 547.473 282.611 471.672 960.848 518.426 1068.52 970.738 259.973 471.672 490.15 518.426 259.973 478.323 1029.13 550.089 1080.36 1094.68 211.699 478.323 470.698 550.089 211.699 584.291 1106.46 530.267 1100.6 1081.07 266.624 584.291 558.427 530.267 266.624 628.746 1095.71 570.329 1181.67 1079.56 317.668 628.746 548.033 570.329 317.668 597.135 1035.05 611.339 1159.88 1120.21 311.078 597.135 547.679 611.339 311.078 549.343 988.233 548.545 1065.14 991.876 286.057 549.343 487.367 548.545 286.057 531.599 1056.3 516.591 1008.62 964.061 263.286 531.599 500.866 516.591 263.286 499.616 1012.7 492.032 930.567 987.756 268.313 499.616 555.432 492.032 268.313 539.712 1024.94 438.534 956.783 930.805 231.303 539.712 457.272 438.534 231.303 525.672 1031.96 518.249 988.385 1055.9 308.409 525.672 567.666 518.249 308.409 444.777 914.559 470.137 872.866 973.461 217.263 444.777 464.298 470.137 217.263 465.434 952.674 402.73 918.872 870.962 227.514 465.434 450.261 402.73 227.514 482.428 974.797 516.142 1016.12 1022.93 237.92 482.428 502.413 516.142 237.92 452.02 887.44 499.974 955.489 1020.67 244.509 452.02 472.384 499.974 244.509 410.031 841.122 455.514 895.217 906.318 207.511 410.031 415.056 455.514 207.511 434.538 957.614 439.703 891.017 936.157 202.52 434.538 426.066 439.703 202.52 507.349 1041.47 451.314 982.716 962.648 232.018 507.349 531.548 451.314 232.018 563.5 1126.93 531.402 1156.21 986.457 275.331 563.5 509.92 531.402 275.331 288.169 617.009 624.806 624.806 1276.69 288.169 288.169 617.009 624.806 288.169 288.306 656.154 1412.29 626.622 687.358 1459.09 1404.71 687.358 288.306 656.154 626.622 288.306 687.358 288.306 715.055 1476.03 771.728 1485.9 1572.68 367.848 715.055 785.67 771.728 367.848 644.424 1297.38 714.167 1417.33 1436.16 347.207 644.424 690.359 714.167 347.207 644.94 1262.65 703.163 1460.19 1381.27 297.218 644.94 607.025 703.163 297.218 675.836 1328.48 757.028 1502.37 1432.18 347.722 675.836 655.629 757.028 347.722 676.677 1364.96 745.341 1430.35 1447.14 328.113 676.677 672.856 745.341 328.113 643.708 1351.06 685.004 1315.73 1315.92 348.564 643.708 692.104 685.004 348.564 618.122 1362.94 630.73 1355.44 1268.53 295.145 618.122 658.957 630.73 295.145 682.348 1334.91 724.714 1368.46 1429.36 322.978 682.348 703.98 724.714 322.978 662.655 1276.51 643.745 1261.75 1286.08 359.37 662.655 630.929 643.745 359.37 661.864 1338.99 618.009 1307.08 1280.1 303.285 661.864 645.577 618.009 303.285 623.442 1221.62 689.073 1283.28 1341.01 358.579 623.442 693.417 689.073 358.579 523.316 1008.79 594.209 1168.91 1197.46 264.862 523.316 528.2 594.209 264.862 596.843 1104.57 574.705 1189.79 1113.09 258.453 596.843 480.588 574.705 258.453 602.033 1146.62 615.083 1177.38 1134.57 338.39 602.033 623.979 615.083 338.39 516.304 1054.17 562.299 1147.31 1087.76 263.643 516.304 522.644 562.299 263.643 552.922 1104.06 585.006 1139.8 1156.12 252.661 552.922 531.524 585.006 252.661 562.749 1077.04 554.797 1059.93 1013.36 300.261 562.749 572.534 554.797 300.261 515.792 967.704 505.129 1001.48 981.191 262.488 515.792 504.509 505.129 262.488 477.024 895.519 496.349 916.492 924.284 253.305 477.024 463.195 496.349 253.305 430.951 905.857 420.144 860.949 871.735 223.72 430.951 432.324 420.144 223.72 417.071 961.767 440.805 886.428 940.951 207.232 417.071 473.533 440.805 207.232 462.713 997.397 445.623 921.992 998.902 209.84 462.713 488.234 445.623 209.84 428.089 929.864 476.369 947.351 1024.77 252.873 428.089 509.163 476.369 252.873 453.438 941.219 470.981 1016.21 977.423 175.216 453.438 420.701 470.981 175.216 533.688 1068.8 545.225 1051.53 1020.6 278.222 533.688 520.518 545.225 278.222 503.469 1039.55 506.302 1020.35 1003.48 255.466 503.469 548.284 506.302 255.466 485.186 1001.35 514.048 1067.24 1030.08 248.003 485.186 491.262 514.048 248.003 456.479 941.19 553.19 1065.61 1033.59 237.183 456.479 510.091 553.19 237.183 475.367 907.637 512.42 1003.42 1003.92 219.296 475.367 431.1 512.42 219.296 592.708 1136.21 490.996 1129.73 976.88 256.071 592.708 476.537 490.996 256.071 336.637 659.677 638.732 638.732 1222.58 336.637 336.637 659.677 638.732 336.637 399.052 802.932 1565.1 778.086 399.052 802.932 778.086 399.052 399.052 802.932 778.086 399.052 399.052 399.052 770.84 1532.82 403.88 770.84 787.01 403.88 770.84 787.01 403.88 403.88 772.906 1520.06 366.96 772.906 745.806 366.96 772.906 745.806 366.96 366.96 815.251 1550.8 405.945 815.251 774.249 405.945 815.251 774.249 405.945 405.945 826.533 1550.84 409.306 826.533 776.552 409.306 826.533 776.552 409.306 409.306 753.668 1398.11 417.228 753.668 774.286 417.228 753.668 774.286 417.228 417.228 672.026 1233.39 336.44 672.026 623.821 336.44 672.026 623.821 336.44 336.44 737.323 1334.95 335.586 737.323 609.569 335.586 737.323 609.569 335.586 335.586 686.112 1380.53 401.737 686.112 725.377 401.737 686.112 725.377 401.737 401.737 599.099 1289.68 284.375 599.099 655.149 284.375 599.099 655.149 284.375 284.375 645.217 1282.12 314.724 645.217 634.526 314.724 645.217 634.526 314.724 314.724 659.841 1316.85 330.493 659.841 647.591 330.493 659.841 647.591 330.493 330.493 645.599 1301.76 329.347 645.599 669.261 329.347 645.599 669.261 329.347 329.347 592.945 1143.1 316.252 592.945 632.503 316.252 592.945 632.503 316.252 316.252 575.35 1075.71 276.693 575.35 510.595 276.693 575.35 510.595 276.693 276.693 631.001 1189.71 298.656 631.001 565.113 298.656 631.001 565.113 298.656 298.656 586.88 1065.43 332.345 586.88 624.599 332.345 586.88 624.599 332.345 332.345 497.177 917.512 254.535 497.177 440.829 254.535 497.177 440.829 254.535 254.535 485.685 937.772 242.641 485.685 476.682 242.641 485.685 476.682 242.641 242.641 439.468 900.5 243.044 439.468 461.089 243.044 439.468 461.089 243.044 243.044 429.997 906.828 196.424 429.997 439.411 196.424 429.997 439.411 196.424 196.424 469.357 978.086 233.573 469.357 467.417 233.573 469.357 467.417 233.573 233.573 459.28 1026.27 235.784 459.28 510.668 235.784 459.28 510.668 235.784 235.784 519.262 1072.33 223.496 519.262 515.604 223.496 519.262 515.604 223.496 223.496 562.768 1056.81 295.766 562.768 556.722 295.766 562.768 556.722 295.766 295.766 517.839 955.278 267.002 517.839 500.084 267.002 517.839 500.084 267.002 267.002 516.881 994.017 250.836 516.881 455.194 250.836 516.881 455.194 250.836 250.836 582.052 1062.32 266.045 582.052 538.822 266.045 582.052 538.822 266.045 266.045 609.131 1096.31 316.007 609.131 523.496 316.007 609.131 523.496 316.007 316.007 528.05 1073.16 293.124 528.05 572.817 293.124 528.05 572.817 293.124 293.124 537.02 1063.25 234.926 537.02 500.343 234.926 537.02 500.343 234.926 234.926 302.095 562.904 302.095 302.095 562.904 302.095 302.095 562.904 302.095 302.095 737.116 628.227 306.324 1458.07 628.227 1304.11 1109.74 532.904 306.324 737.116 628.227 306.324 532.904 306.324 794.97 829.843 1512.57 1372.59 1496.5 430.792 794.97 829.843 771.206 430.792 741.32 682.729 1366.1 1275.54 1256.49 364.178 741.32 682.729 601.38 364.178 739.092 683.369 1400.45 1324.12 1272.19 377.142 739.092 683.369 674.16 377.142 726.337 717.086 1402.48 1317.96 1279.7 361.951 726.337 717.086 649.963 361.951 713.072 685.391 1408.51 1256.63 1238.16 364.387 713.072 685.391 668.001 364.387 628.099 723.117 1318.63 1167.32 1238.56 348.685 628.099 723.117 588.628 348.685 638.383 595.517 1322.75 1188.75 1163.23 279.414 638.383 595.517 578.694 279.414 630.632 727.232 1312.18 1110.11 1297.42 358.968 630.632 727.232 610.059 358.968 540.467 584.947 1157.26 1058.17 1107.46 271.664 540.467 584.947 500.053 271.664 545.048 572.309 1166.15 1043.5 1132.07 268.803 545.048 572.309 558.122 268.803 608.009 593.838 1178.1 1100.86 1088.8 276.245 608.009 593.838 485.373 276.245 544.333 584.259 1118.81 1056.76 1095.55 331.764 544.333 584.259 615.488 331.764 481.437 534.547 1116.26 939.521 1059.19 212.57 481.437 534.547 441.272 212.57 582.902 581.716 1151.37 1009.44 1100.9 268.867 582.902 581.716 498.249 268.867 550.894 569.65 1079.75 985.406 974.534 314.035 550.894 569.65 511.195 314.035 497.028 510.102 1081.06 971.124 1056.85 236.859 497.028 510.102 474.211 236.859 446.398 570.957 1045.62 978.55 1070.49 260.17 446.398 570.957 496.913 260.17 413.779 474.659 965.223 959.311 1050.37 186.228 413.779 474.659 481.636 186.228 432.517 490.564 1001.92 911.365 1019.87 227.551 432.517 490.564 477.675 227.551 463.258 511.355 1016.24 914.922 995.377 204.965 463.258 511.355 433.689 204.965 571.705 504.88 1111.75 1035.36 942.494 258.293 571.705 504.88 481.232 258.293 563.07 606.866 1086.01 1037.5 1102.34 313.412 563.07 606.866 554.13 313.412 445.282 479.142 909.964 931.984 934.444 249.658 445.282 479.142 483.366 249.658 450.596 430.821 979.991 938.388 959.498 195.624 450.596 430.821 448.618 195.624 489.516 549.17 1028.58 1009.22 1020.34 254.972 489.516 549.17 489.769 254.972 431.245 479.413 949.256 976.157 992.436 234.544 431.245 479.413 519.452 234.544 429.321 469.843 910.675 932.514 930.313 196.702 429.321 469.843 456.705 196.702 453.711 440.832 912.611 933.253 947.864 232.62 453.711 440.832 475.809 232.62 509.684 471.779 982.993 965.822 936.479 221.091 509.684 471.779 457.444 221.091 566.428 511.214 1020.26 1085.45 957.006 288.593 566.428 511.214 508.378 288.593 277.835 509.047 509.047 577.07 1063.7 277.835 277.835 509.047 577.07 277.835 1148.17 481.515 993.786 857.692 396.871 566.993 481.515 226.579 396.871 226.579 1240.41 1089.54 1178.16 577.617 666.655 596.915 340.414 1162.58 1081.59 1143.42 534.221 573.758 492.623 237.203 1151.43 1043.76 1196.33 585.031 588.82 588.966 297.018 1115.38 1009.01 984.668 591.627 562.61 454.794 288.013 1068.21 1068.45 1059.05 543.557 552.769 554.216 303.614 1083.16 1034.85 1031.58 539.223 515.445 514.234 239.943 1137.9 1056.53 1087.68 550.37 567.712 520.615 299.28 1092.69 1008.5 1079.46 479.479 570.183 535.919 251.09 1082.27 1041.34 997.534 517.708 522.511 472.579 228.389 1054.72 1013.46 1050.12 498.447 559.757 568.763 289.319 1006.25 1040.7 1043.74 492.852 494.964 444.7 209.128 1035.93 1106.17 1086.1 512.426 511.289 596.004 283.724 1043.83 1033.44 997.591 458.083 524.639 510.167 228.702 924.073 1013.55 1035 426.541 519.189 523.269 229.381 951.634 990.284 946.518 434.512 404.884 490.279 197.16 1046.28 920.189 1029.63 474.096 546.75 500.006 237.352 1075.24 893.494 934.927 532.152 499.53 420.184 236.744 1105.01 963.527 974.02 545.532 575.711 473.31 295.408 1013.33 940.205 974.589 478.848 529.304 490.217 250.124 921.636 885.052 965.57 451.663 484.022 449.989 228.724 933.092 899.58 919.442 463.657 437.614 435.064 222.939 950.779 996.895 958.07 474.425 495.478 464.516 240.718 983.978 1013.13 1003.45 486.702 455.302 532.379 233.708 999.85 902.88 1017.62 487.791 528.676 480.749 252.994 984.197 920.879 841.406 519.706 471.174 422.132 234.797 973.493 953.385 949.5 544.912 513.023 498.747 284.908 967.503 926.745 932.116 503.193 460.47 454.638 260.004 971.732 1030.11 951.069 479.542 507.033 472.107 243.189 910.492 995.874 1063.03 456.138 464.7 557.999 236.353 1000.45 1034.45 911.82 519.021 445.792 437.875 219.785 554.657 596.577 1086.1 299.235 554.657 596.577 299.235 887.683 376.177 757.875 733.2 308 426.793 376.177 170.292 308 170.292 1081.17 953.253 927.331 511.922 511.506 449.875 256.502 1177.17 1019.44 1092.27 547.369 569.666 503.378 255.421 1029.56 861.147 1071.41 458.73 607.505 516.065 291.948 928.342 860.124 829.903 417.383 422.058 345.082 166.782 1022.42 1028.87 1085 524.893 506.283 515.043 250.602 1036.11 1033.55 940.681 495.627 516.138 513.828 274.291 1029.25 1065.83 1066.7 506.164 519.972 519.719 221.336 984.303 1024.78 959.509 529.019 509.28 546.106 284.829 965.385 959.844 1005.33 523.633 475.023 478.669 244.19 1039.14 961.182 903.172 515.015 490.362 481.175 279.443 1123.58 1026.48 1011.19 547.852 548.775 480.007 235.572 1047.76 1110.48 1014.36 593.745 574.809 546.476 312.28 988.767 1049.45 940.93 575.353 472.952 564.006 281.465 1057.45 967.734 915.204 587.007 515.815 485.445 293.888 1024.52 986.416 957.941 555.773 541.634 482.289 293.119 918.281 927.244 1054.96 446.094 482.885 504.127 262.654 833.706 806.935 903.521 361.342 435.396 423.117 183.44 843.595 883.676 880.036 417.995 398.309 383.818 177.902 926.834 984.381 892.437 461.357 445.286 499.858 240.093 963.376 925.151 1036.43 433.389 481.548 484.523 221.264 944.42 868.085 995.103 435.923 481.828 440.628 212.125 1010.74 983.721 910.997 522.469 462.592 427.457 223.798 1037.09 974.795 997.866 526.425 548.146 556.264 298.671 859.176 859.575 937.172 415.089 488.944 418.531 227.754 806.709 858.516 908.231 401.173 370.232 441.045 187.334 908.122 863.981 882.766 408.473 436.477 417.471 213.838 915.682 893.43 1025.46 423.552 471.645 446.51 194.634 1042.37 969.009 908.072 550.564 444.037 446.92 228.917 1064.36 984.942 1077.29 539.736 598.329 522.089 321.646 997.47 1078.98 909.151 515.431 466.028 462.853 218.09 531.442 616.131 1130.25 297.341 531.442 616.131 297.341 772.848 357.023 826.393 736.495 349.434 331.082 357.023 137.709 349.434 137.709 938.43 971.491 953.032 441.331 415.825 476.959 193.374 986.511 951.369 987.073 472.075 522.605 494.532 247.957 871.751 893.376 933.898 402.417 463.906 456.837 224.117 986.56 921.388 965.974 442.741 407.845 436.539 178.3 1003.26 983.6 1072.03 503.979 578.715 484.849 264.441 971.275 1063.13 955.223 537.921 424.543 498.751 239.537 996.961 1054.07 1030.77 559.661 546.732 564.379 298.384 980.532 974.062 1017.51 495.757 450.229 489.69 261.278 943.113 925.822 1007.58 436.211 530.303 484.372 234.479 875.228 901.431 900.58 446.167 412.81 441.451 201.732 901.966 986.839 954.054 478.631 462.418 459.98 244.435 907.526 1120.23 907.201 516.737 439.548 526.859 234.196 867.367 1021.05 1022.28 474.097 467.978 593.371 282.54 815.696 895.706 844.161 380.727 399.389 427.679 191.557 988.387 915.012 947.556 430.643 416.307 468.027 189.17 1040.2 970.431 1051.63 481.15 572.08 446.985 241.473 949.851 993.876 929.05 445.593 468.124 523.446 239.677 928.878 960.368 951.38 465.681 481.727 470.43 205.916 1002.04 1003.08 889.706 523.023 447.151 489.938 259.765 1068.16 1015.43 1038.67 491.762 554.884 513.143 263.258 961.679 921.52 1015.05 432.162 513.275 502.291 228.503 898.124 918.028 851.301 461.252 448.405 419.229 203.659 897.948 928.194 872.207 448.369 449.719 498.799 257.593 986.228 954.657 935.183 444.486 448.229 429.395 190.776 984.288 999.069 1064.96 457.343 537.999 525.262 253.71 1000.11 965.003 887.999 455.508 446.289 473.807 203.632 1017.85 941.985 995.547 469.878 553.817 491.196 251.875 943.001 877.745 890.095 418.446 464.036 450.788 218.002 922.088 969.036 931.552 445.206 478.965 426.957 200.443 1041.93 1154.97 1004.04 563.552 443.123 542.079 244.763 598.805 612.89 1194.41 318.789 598.805 612.89 318.789 916.68 379.472 1088.17 889.824 491.138 495.311 379.472 211.725 491.138 211.725 1001.67 1160.63 1178.78 530.161 537.207 597.034 283.586 934.459 1024.89 1135.1 479.295 464.468 563.601 246.575 1028.12 1096.58 990.52 490.959 469.992 461.292 232.72 1051.44 1210.18 1274.72 478.646 558.129 635.287 258.239 1023.99 1114.4 1134.06 479.621 493.313 574.895 220.407 1014.72 1114.49 1042.94 525.209 530.68 539.505 259.214 1051.32 1117.79 1023.62 494.407 484.038 574.986 265.995 1044.56 1054.36 1118.15 478.305 567.283 542.805 228.412 965.05 1004.71 982.432 489.611 477.28 511.553 249.893 979.407 1006.88 1011.78 455.264 487.77 493.154 239.719 959.289 1055.81 1030.44 508.208 491.636 513.729 215.545 1021.96 1083.09 955.599 603.494 467.653 542.086 292.663 999.077 1036.13 1071.04 546.953 554.305 541.008 310.831 976.021 1065.78 1019.47 514.979 444.772 495.121 236.122 1010.8 1006.54 1072.39 484.369 531.249 570.661 278.857 940.472 956.248 987.896 489.281 479.547 435.877 205.512 930.579 986.194 931.183 548.283 460.926 520.371 283.77 912.208 933.576 921.796 494.687 469.653 465.824 264.513 926.342 1004.76 935.923 480.058 442.555 467.753 230.173 985.559 1036.76 978.62 523.672 483.788 537.004 249.885 904.668 974.583 1036.06 489.358 501.771 499.756 273.787 825.385 963.068 862.114 456.776 402.896 474.827 215.571 909.443 949.606 954.549 479.824 422.488 488.24 241.205 1013.92 997.411 966.02 510.171 486.955 461.366 238.619 968.671 1034.1 1004.68 541.726 526.96 536.045 271.552 883.441 944.916 932.129 509.495 441.711 498.05 270.174 867.79 903.197 977.543 472.107 441.731 446.866 239.321 878.647 982.375 858.064 459.299 426.059 456.331 232.786 1013.5 1057.95 953.249 523.829 452.587 526.044 226.513 1156.52 1154.85 1042.39 591.417 560.913 531.905 297.316 595.608 622.941 1216.03 294.101 595.608 622.941 294.101 1151.92 510.351 1349 1156.83 617.729 592.861 510.351 279.413 617.729 279.413 1312.2 1391.45 1425.66 630.474 641.568 731.27 313.448 1191.16 1198.56 1373.2 545.598 670.633 660.179 317.026 1237.12 1223.33 1116.44 605.62 520.529 538.379 228.572 1357.33 1384.19 1329.92 731.536 716.589 684.955 377.048 1153.01 1323.06 1298.38 634.779 640.744 699.23 354.488 1051.85 1296.64 1117.39 589.282 512.263 623.832 280.291 1090.45 1368.2 1180.05 623.384 539.586 672.804 308.991 1056.02 1228.61 1222.93 576.053 550.865 695.395 314.393 1029.16 1128.95 1039.43 515.096 505.152 533.219 261.661 1062.82 1228.75 1108.43 551.619 524.012 595.727 253.436 1026.75 1145.78 1188.5 547.607 538.804 633.022 298.184 1004.68 965.072 953.599 479.6 487.946 512.76 249.423 1091.44 996.9 1012.47 489.177 516.739 452.312 230.177 1115.83 1095.39 1095.45 550.803 574.698 544.588 258.999 1049.49 1060.03 1089.83 522.169 541.136 550.805 291.804 978.607 1018.1 1026.61 466.966 508.35 509.228 230.365 922.399 952.205 995.062 437.911 470.257 508.874 236.601 945.51 890.801 981.518 438.89 452.142 443.331 201.31 988.201 943.193 930.086 524.699 493.368 447.47 237.579 1029.12 987.994 945.081 513.088 494.833 495.723 287.119 993.509 1029.92 1039.13 485.226 534.292 492.271 225.969 991.278 1040.98 970.306 506.292 459.217 537.651 259.257 1011.13 971.556 1007.83 469.782 532.06 503.324 247.035 956.787 975.021 955.085 487.24 479.066 468.232 222.747 968.139 1027.48 976.291 492.369 477.721 506.789 264.493 1026.23 971.497 983.815 435.421 490.419 520.694 227.876 967.817 947.257 1097.39 431.091 535.812 450.804 207.545 932.666 1007.79 960.411 523.076 432.005 496.454 223.546 982.135 966.39 916.212 534.119 500.661 511.334 299.53 1101.9 1106.94 914.62 563.43 481.474 455.056 234.589 620.425 651.88 1208.49 328.84 620.425 651.88 328.84 1430.57 646.479 1518.3 1374.83 717.35 756.138 646.479 338.316 717.35 338.316 1486.65 1522.95 1592.27 760.975 784.091 800.953 417.822 1298.48 1400.11 1480.06 652.959 702.564 721.998 343.152 1209.24 1353.26 1313 617.713 595.915 678.111 309.807 1270.96 1376.95 1377.25 652.649 613.328 675.153 307.906 1262.76 1332.72 1358.76 688.283 657.634 701.801 344.743 1245.59 1268.72 1215.57 707.353 605.123 630.921 343.54 1312.53 1342.44 1250.57 744.815 640.465 637.795 363.812 1206.35 1346.98 1346.26 652.562 672.067 704.643 381.003 1118.7 1304.43 1207.33 613.851 534.279 642.333 271.559 1234.12 1314.03 1161.57 677.13 584.421 662.094 342.292 1115.35 1255.19 1233.25 598.176 649.697 651.935 334.838 961.383 1141.64 1072.47 485.472 465.653 603.252 263.338 1016.48 1057.88 1148.48 507.723 495.73 538.385 222.134 1069.45 1044.95 1049.17 544.591 520.753 519.491 285.589 1066.96 1096.58 1117.77 537.864 548.692 525.458 259.001 1043.07 1029.68 1088.65 551.136 518.264 571.117 278.863 1054.18 934.629 914.695 514.294 524.805 458.567 272.273 966.094 903.997 1032.26 451.911 529.376 476.062 242.021 886.966 879.527 909.791 418.495 436.718 427.936 209.89 955.09 951.737 1015.48 474.906 450.249 451.591 208.604 1015.93 1053.42 983.551 544.696 504.842 500.146 266.302 986.854 1101.68 1073.94 534.684 511.088 553.279 278.394 951.785 1054.84 992.842 501.775 475.766 548.397 256.29 974.589 981.819 1003.75 487.781 476.019 506.442 245.485 991.967 972.554 970.896 535.114 498.57 475.377 242.296 1054.98 1013.21 975.474 536.077 493.397 497.176 292.818 1089.99 996.433 1068.89 516.167 561.58 516.036 243.259 943.958 971.893 1026.1 484.712 528.407 480.397 272.908 848.697 977.38 975.399 432.27 415.551 491.496 211.804 1021.21 1069.73 925.544 543.506 433.146 485.884 220.466 588.065 583.848 1109.41 323.039 588.065 583.848 323.039 1536.52 728.349 762.164 728.349 379.034 762.164 728.349 379.034 379.034 379.034 1585.67 761.976 808.174 761.976 808.174 383.13 383.13 1494.58 747.149 777.492 747.149 777.492 378.846 378.846 1481.01 735.55 717.087 735.55 717.087 368.304 368.304 1465.04 724.305 763.921 724.305 763.921 367.247 367.247 1311.57 644.439 701.123 644.439 701.123 357.059 357.059 1220.55 561.363 610.452 561.363 610.452 287.38 287.38 1284.29 597.623 610.101 597.623 610.101 273.983 273.983 1347.24 694.414 674.189 694.414 674.189 323.64 323.64 1250.2 690.577 673.049 690.577 673.049 370.774 370.774 1160.7 636.9 577.146 636.9 577.146 319.803 319.803 1190.37 657.011 583.553 657.011 583.553 317.097 317.097 1259.56 656.165 606.814 656.165 606.814 339.914 339.914 1181.17 550.153 652.749 550.153 652.749 316.251 316.251 1097.5 500.359 528.421 500.359 528.421 233.902 233.902 1139.47 558.711 569.082 558.711 569.082 266.457 266.457 960.274 478.549 570.383 478.549 570.383 292.254 292.254 892.775 420.335 389.89 420.335 389.89 186.294 186.294 975.958 452.086 502.885 452.086 502.885 234.041 234.041 1038.31 461.032 473.073 461.032 473.073 218.045 218.045 1043.94 476.831 565.235 476.831 565.235 242.987 242.987 1041.56 508.729 478.71 508.729 478.71 233.844 233.844 1079.93 566.992 562.854 566.992 562.854 274.885 274.885 1044.81 553.064 517.077 553.064 517.077 292.108 292.108 1000.06 494.038 527.733 494.038 527.733 260.957 260.957 954.404 437.439 472.326 437.439 472.326 233.081 233.081 989.384 477.136 482.078 477.136 482.078 204.358 204.358 1005 480.266 507.306 480.266 507.306 272.778 272.778 1057.54 487.181 497.697 487.181 497.697 207.488 207.488 1052.25 545.11 559.848 545.11 559.848 279.692 279.692 1013.74 526.226 492.398 526.226 492.398 265.418 265.418 521.343 260.809 521.343 260.809 521.343 260.809 260.809 720.954 633.368 321.903 1404.93 633.368 1302.13 1138.04 576.838 321.903 720.954 633.368 321.903 576.838 321.903 717.601 771.558 1461.12 1380.4 1401.99 399.05 717.601 771.558 725.291 399.05 624.778 689.566 1419.78 1253.13 1319.08 318.551 624.778 689.566 655.106 318.551 661.362 730.218 1488.53 1227.76 1286.57 306.227 661.362 730.218 598.028 306.227 676.139 758.317 1475.13 1199.89 1362.45 355.135 676.139 758.317 629.732 355.135 695.436 716.815 1417.5 1220.09 1215.54 321.004 695.436 716.815 570.159 321.004 690.534 700.683 1350.13 1234.47 1354.54 374.432 690.534 700.683 649.934 374.432 684.366 649.445 1384.21 1271.89 1271.56 316.102 684.366 649.445 584.534 316.102 681.547 734.763 1360.66 1294.76 1361.06 368.264 681.547 734.763 687.357 368.264 616.79 625.899 1185.89 1181.35 1215.47 313.284 616.79 625.899 607.406 313.284 621.099 559.988 1224.33 1177.37 1094.6 303.506 621.099 559.988 573.943 303.506 570.088 664.345 1189.75 1083.49 1188.95 317.593 570.088 664.345 603.429 317.593 574.472 525.405 1121.85 1097.97 1006.12 252.495 574.472 525.405 480.06 252.495 634.825 596.442 1148.58 1220.57 1163.13 321.977 634.825 596.442 617.914 321.977 568.464 552.137 1019.9 1066 1048.1 312.849 568.464 552.137 602.656 312.849 528.859 467.76 1077.23 1045.98 934.088 255.615 528.859 467.76 463.339 255.615 584.031 609.465 1184.55 1156.22 1153.23 273.244 584.031 609.465 582.642 273.244 599.218 575.082 1094.86 1142.31 1131.58 310.787 599.218 575.082 573.574 310.787 551.443 519.775 1012.11 1110.93 1081.71 288.431 551.443 519.775 568.733 288.431 569.403 492.335 993.135 1103.88 1147.34 263.013 569.403 492.335 542.192 263.013 552.977 500.8 999.924 1022.95 975.28 306.39 552.977 500.8 561.688 306.39 540.041 499.124 965.113 1009.48 926.221 246.587 540.041 499.124 461.262 246.587 522.938 465.989 916.419 999.292 988.902 293.454 522.938 465.989 548.214 293.454 464.682 450.43 964.958 961.958 898.672 229.484 464.682 450.43 451.078 229.484 529.395 514.528 1089.77 1041.45 974.47 235.197 529.395 514.528 510.88 235.197 539.067 575.241 1141.07 1003.56 1132.17 294.198 539.067 575.241 530.574 294.198 518.011 565.826 1053.39 946.592 1021.64 244.87 518.011 565.826 472.984 244.87 481.353 487.565 914.199 945.664 917.787 273.142 481.353 487.565 473.608 273.142 458.9 426.635 924.977 951.09 945.624 208.212 458.9 426.635 472.055 208.212 473.309 498.342 986.804 927.662 926.169 250.688 473.309 498.342 479.034 250.688 453.833 488.462 950.547 935.261 883.379 222.622 453.833 488.462 448.628 222.622 231.212 462.084 462.084 486.633 941.983 231.212 231.212 462.084 486.633 231.212 1135.1 504.669 1042.07 915.238 460.821 581.176 504.669 254.935 460.821 254.935 1259.95 1232.05 1158.71 662.796 630.428 581.246 326.241 1185.87 1258.16 1178.69 628.357 629.518 650.801 336.555 1160.48 1137.23 1125.82 566.398 556.348 607.359 291.801 1102.86 1034.71 1177.21 523.752 604.134 529.873 274.597 1152.59 1022.19 1026.99 524.657 498.729 504.837 249.155 1275.97 1084.42 1151.18 543.934 653.857 517.349 275.502 1248.41 1110.61 1182.22 587.525 622.115 567.068 268.432 1215.87 1068.5 1161.97 613.215 626.293 543.545 319.093 1124.18 1006.31 1106.73 564.56 589.575 524.955 294.122 1059.21 1080.39 929.041 556.273 534.608 481.356 270.437 1005.32 1089.13 1113.82 513.401 524.603 599.039 285.836 1047.41 977.517 986.6 523.502 480.718 490.094 227.565 1062.66 999.158 1057.71 585.745 566.69 487.424 295.937 962.295 967.974 1036.34 497.531 495.968 511.735 289.807 1010.1 985.869 960.347 517.122 466.327 456.24 207.724 1100.27 1044.37 976.148 572.185 543.769 529.629 309.398 1118.43 1015.45 1027.67 543.089 556.501 514.743 262.787 1216.93 985.082 1087.15 559.482 561.934 500.71 280.302 1129.48 999.954 1103 534.477 655 484.372 279.18 901.578 999.959 1007.01 469.972 474.48 515.581 255.297 950.01 977.932 901.042 469.435 427.098 484.378 214.675 971.155 964.623 984.605 476.354 522.913 493.554 254.76 908.184 1007.94 852.926 497.276 448.242 471.069 221.594 1016.87 956.146 946.168 512.059 459.942 536.871 275.682 1012.74 870.027 961.048 464.491 556.925 419.274 236.377 886.034 928.23 909.36 428.581 455.811 450.753 228.114 949.212 956.44 972.59 464.31 430.223 477.478 200.467 946.816 983.993 921.718 492.19 518.989 478.963 263.844 822.743 978.975 922.413 454.353 427.827 505.03 228.347 874.816 963.466 830.732 481.428 394.916 473.945 226.007 479.899 489.522 923.462 255.421 479.899 489.522 255.421 938.855 410.569 902.656 866.667 425.199 460.89 410.569 205.885 425.199 205.885 1077.46 1066.35 886.141 569.25 528.286 477.456 255.005 1118.65 1144.24 1085.47 629.803 549.177 588.894 314.246 1142.55 1040.17 1027.47 570.834 569.47 555.346 315.557 1101.34 1054.78 1009.84 510.958 573.076 484.821 255.277 1025.59 996.809 1142.4 497.529 528.261 569.956 255.682 1057.43 973.837 1002.11 540.483 497.325 426.853 241.847 1095.78 960.387 993.902 523.088 560.104 546.984 298.636 1052.84 940.06 925.901 455.284 535.676 413.403 224.451 911.593 948.653 1021.38 441.751 517.16 526.657 230.833 983.649 953.182 774.648 524.122 394.434 421.996 210.919 1095.1 999.067 1000.72 575.732 589.216 531.186 313.203 996.898 844.805 948.35 454.015 505.882 467.881 262.529 1031.39 806.683 851.993 413.414 491.016 376.924 191.487 1034.39 905.411 1015.36 470.443 540.372 429.759 221.927 926.398 1026.49 978.235 468.747 494.019 475.652 248.515 903.55 1031.24 1008.29 472.188 432.379 550.838 220.231 996.382 976.622 904.024 472.364 471.171 480.404 251.957 973.209 888.797 1076.62 425.6 525.211 496.218 220.407 980.531 944.488 825.783 465.476 447.997 392.579 205.193 1006.48 1106.38 1037.45 529.987 532.534 551.909 260.284 935.636 1038.01 1002.59 508.497 473.944 554.474 269.703 866.376 925.141 938.979 488.269 461.692 483.54 238.794 890.91 960.243 811.443 510.665 404.684 441.601 249.475 890.349 985.828 949.681 444.087 486.226 518.642 261.189 857.672 932.481 938.827 405.536 404.123 467.186 182.898 995.916 1044.25 937.608 499.649 453.549 465.295 222.638 945.096 1040.1 1080.55 492.13 542.367 578.952 277.011 897.315 1016.36 925.384 491.802 402.729 461.153 215.119 930.402 1001.5 973.389 524.622 494.586 555.205 276.683 879.378 960.414 882.022 482.039 435.816 446.298 247.938 443.562 514.116 904.42 234.1 443.562 514.116 234.1 813.953 456.098 863.134 847.206 387.061 441.766 456.098 219.314 387.061 219.314 894.149 968.614 889.749 497.1 357.855 476.073 222.452 994.291 969.601 1000.13 514.437 536.294 492.541 274.648 894.762 1006.49 962.163 469.333 457.997 477.06 239.789 1050.9 1116.61 920.248 543.819 436.765 529.435 229.545 1118.92 1043.65 1161.18 499.28 614.135 587.18 314.274 938.586 922.864 1044.9 433.354 504.787 456.473 185.006 824.024 994.214 873.179 437.299 433.799 466.391 248.348 894.446 1051.03 1014.11 484.776 390.226 527.822 188.951 884.434 982.341 993.021 506.902 504.22 523.211 295.824 791.716 953.204 899.131 429.061 380.214 459.13 211.078 853.97 874.416 967.492 423.335 411.501 494.074 217.983 803.445 809.253 884.23 390.789 442.468 380.342 205.352 835.96 845.393 821.411 393.269 360.977 428.911 185.437 959.199 896.011 924.447 434.969 474.984 416.482 207.832 1060.13 1084.17 1041.81 557.744 484.216 479.529 227.137 1008.77 1010.24 1117 559.054 575.915 604.642 330.607 984.265 886.554 903.38 504.258 432.853 405.603 228.447 929.198 880.719 1003.81 463.197 551.412 480.951 275.811 882.706 925.296 878.128 479.012 377.786 399.768 187.386 1033.57 1038.28 994.072 576.397 504.92 525.528 291.625 1005.94 944.827 969.318 529.517 528.649 512.755 284.771 884.047 805.481 894.038 436.872 477.287 432.072 244.746 870.214 879.197 826.535 449.579 406.759 373.409 192.126 998.159 1045.49 928.015 541.742 463.455 505.788 257.453 1018.76 953.89 1030.27 526.945 534.704 539.698 284.289 1022.24 918.543 898.421 544.597 484.059 414.192 242.656 1060.83 943.658 1019.05 547.975 538.179 504.351 301.941 1001.46 943.902 1007.22 524.555 522.655 439.307 246.033 925.009 966.553 890.543 476.881 478.803 504.596 278.522 907.064 1043.48 976.08 478.376 446.206 461.957 198.36 460.858 581.523 987.146 280.016 460.858 581.523 280.016 923.001 391.108 980.428 821.57 398.686 421.368 391.108 167.747 398.686 167.747 995.73 1153.24 1117.78 471.514 531.894 581.742 253.621 968.002 1100.73 1047.64 455.165 463.836 571.5 217.893 987.649 1168.66 1013.79 537.162 504.166 529.228 237.271 1030.53 1198.59 1072.96 572.796 483.483 639.431 299.89 1087.16 1062.6 1124.61 544.373 547.044 559.162 272.906 979.497 952.076 1011.13 489.51 540.117 503.438 271.467 1063.27 1023.98 918.284 556.914 439.38 448.638 218.043 1112.69 1046.22 1097 566.258 623.888 575.343 338.871 1007.72 989.507 990.401 475.439 488.801 470.879 227.387 1074.91 1035.34 993.584 524.143 518.917 518.628 248.052 997.752 930.224 1015.85 451.081 555.99 516.711 276.091 902.196 943.548 950.441 418.463 441.762 413.513 174.99 909.898 1054.38 978.748 452.124 460.435 530.035 243.474 1007.06 1026.07 1020.37 461.042 449.463 524.35 208.65 1098.67 1053.74 1039.19 526.427 557.594 501.724 252.392 1011.61 962.831 1058.5 451.191 541.08 552.02 274.035 922.923 866.784 936.961 382.296 470.527 410.812 177.156 952.738 924.142 965.357 417.522 452.396 455.972 205.14 989.494 909.786 1024.84 446.284 500.342 468.17 212.381 929.821 977.923 1009.29 461.887 489.152 441.616 233.903 857.419 923.593 971.218 415.31 440.669 536.307 227.984 836.526 853.595 869.819 368.609 416.75 387.286 187.326 884.336 970.963 904.699 429.618 419.776 466.308 181.283 960.121 973.291 952.925 503.744 464.56 504.655 248.336 909.924 902.715 919.586 426.945 495.561 468.636 255.409 895.237 964.756 891.145 373.946 414.363 434.079 171.536 965.435 932.409 1119.77 395.683 480.874 530.677 202.41 896.301 828.938 951.167 419.348 484.56 401.732 193.274 941.614 937.687 839.471 489.671 411.74 427.205 226.074 1056.16 1103.57 1015.48 565.105 529.874 510.482 263.597 526.288 593.092 1087.44 301.508 526.288 593.092 301.508 1016.35 430.462 1233.49 938.651 539.102 559.059 430.462 230.938 539.102 230.938 1169.68 1407.41 1296.2 681.727 585.885 694.389 328.121 1093.43 1291.08 1330.13 645.563 583.799 713.018 353.607 1099.11 1223.03 1185.81 631.498 509.629 578.065 291.957 1167.05 1244.11 1208.71 625.797 589.478 644.962 339.541 1048.58 1092.7 1232.35 518.228 577.567 599.148 286.256 949.916 1000.8 998.454 462.566 471.013 493.554 231.972 952.015 1034.79 1004.43 467.067 478.904 507.248 230.595 974.711 1033.75 1049.72 479.964 473.111 527.537 236.473 976.267 1018.92 1020.45 514.068 501.599 506.212 243.492 934.526 1068.18 1050.77 511.197 474.667 512.706 270.577 968.537 996.317 1112.25 479.143 459.859 555.479 240.62 1026.99 1001 956.917 525.084 508.679 440.838 238.523 1089.22 1111.02 1106.5 602.261 518.314 560.157 286.561 1052.5 1089.89 1095.6 565.032 570.902 550.863 315.699 999.024 1056.41 1044.9 527.317 481.599 539.023 249.332 983.859 1003.57 1053.15 511.641 517.425 517.386 277.985 979.395 1024.37 1016.59 484.488 466.434 486.188 233.656 1037.45 1020.8 1074.45 506.621 512.961 538.187 250.832 1044.64 931.974 990.18 463.502 524.493 482.616 255.789 1050.69 996.221 976.027 516.036 520.143 449.358 207.713 983.617 979.517 1017.93 508.283 530.549 546.863 308.323 937.991 937.156 924.855 484.986 453.068 432.654 199.961 973.288 991.355 905.025 541.345 484.923 504.502 285.026 912.39 956.355 1001.4 469.547 488.365 486.853 256.319 900.807 932.623 898.306 475.77 424.025 469.502 213.228 1115.68 1109.71 868.137 590.81 476.782 463.121 262.543 1105.51 1110.55 1169.53 536.726 638.9 646.589 328.267 894.337 868.836 938.371 409.59 466.606 463.958 208.459 913.333 864.443 918.354 448.016 427.731 404.879 201.131 1046.75 1016.18 914.395 538.469 485.602 459.564 246.885 561.152 556.611 1068.76 291.585 561.152 556.611 291.585 1218.51 508.189 1448.79 1179.9 657.479 674.432 508.189 308.163 657.479 308.163 1456.65 1549.37 1498.82 725.68 710.318 791.312 366.269 1422.51 1392.95 1494.58 645.52 746.329 758.058 359.412 1295.42 1336.99 1378.91 591.529 676.18 634.891 286.108 1274.02 1359.05 1311.16 618.313 619.235 702.096 305.421 1182.23 1241.61 1352.92 574.474 654.785 656.956 312.892 1052.97 1197.42 1165.79 538.235 527.441 584.654 261.582 1102.14 1254.38 1177.66 567.718 525.528 612.771 276.653 1095.46 1206.61 1231.24 553.785 576.61 641.614 291.065 1094.95 1064.47 1132.76 504.85 518.854 564.995 262.72 1228.49 1080.79 1176.18 556.988 576.1 499.473 242.129 1100.63 1050.53 1239.47 517.174 652.389 581.314 314.859 1036.42 1079.31 1006.31 475.911 448.238 469.215 202.315 1112.88 1139.78 1233.4 508.759 588.184 610.094 273.596 1088 1122 1065.03 524.855 524.698 529.682 235.164 1099.03 1109.85 1157.25 529.092 563.302 592.317 289.691 1085.88 973.658 1031.01 491.933 535.729 517.53 239.401 1111.65 1012.33 1011.25 539.887 550.154 456.128 252.532 1027.18 1038.05 1101.26 514.182 561.493 556.199 287.355 921.57 1045.75 994.205 468.472 465.686 481.855 226.827 943.261 1047.3 1030.2 480.184 455.884 563.893 241.644 959.163 1004.07 999.152 471.234 487.377 483.406 238.54 891.888 965.108 1009.06 452.17 471.786 520.663 232.694 933.137 941.755 858.646 450.01 420.102 444.445 219.476 987.317 992.83 1003.81 486.808 513.035 497.311 230.534 865.635 973.817 893.418 456.852 474.281 495.519 256.274 921.986 1031.15 915.993 518.9 391.354 478.298 200.578 1002.4 1098.56 1004.13 573.82 530.632 552.85 318.321 962.387 1029.61 970.767 459.246 471.765 545.707 255.499 919.416 923.563 1042.78 416.427 490.623 483.903 203.747 936.398 965.221 928.553 477.706 428.793 439.66 212.68 507.605 525.56 1011.55 265.026 507.605 525.56 265.026 1460.21 671.714 774.359 671.714 349.315 774.359 671.714 349.315 349.315 349.315 1536.75 823.69 788.5 823.69 788.5 425.044 425.044 1450.98 747.43 748.249 747.43 748.249 398.646 398.646 1394.65 745.458 702.731 745.458 702.731 348.783 348.783 1390.06 740.74 691.922 740.74 691.922 396.675 396.675 1336.48 667.136 698.135 667.136 698.135 344.065 344.065 1290.48 659.189 638.345 659.189 638.345 323.071 323.071 1306.76 686.667 652.13 686.667 652.13 336.118 336.118 1268.53 652.824 654.626 652.824 654.626 350.549 350.549 1213.99 559.618 613.906 559.618 613.906 302.275 302.275 1187.16 523.799 600.083 523.799 600.083 257.343 257.343 1145.16 533.356 587.08 533.356 587.08 266.456 266.456 1203.29 603.398 558.075 603.398 558.075 266.9 266.9 1185.55 631.017 645.218 631.017 645.218 336.498 336.498 1134.28 597.144 540.331 597.144 540.331 294.519 294.519 1089.22 580.755 593.945 580.755 593.945 302.626 302.626 956.376 481.725 495.276 481.725 495.276 278.129 278.129 1000.87 472.44 461.1 472.44 461.1 203.596 203.596 1068.29 523.872 539.769 523.872 539.769 268.844 268.844 1102.84 577.276 528.519 577.276 528.519 255.028 255.028 1086.09 567.114 574.32 567.114 574.32 322.248 322.248 1049.05 532.835 511.774 532.835 511.774 244.866 244.866 975.817 512.938 537.272 512.938 537.272 287.969 287.969 929.319 491.745 438.544 491.745 438.544 224.969 224.969 909.912 506.021 490.775 506.021 490.775 266.776 266.776 943.775 516.964 419.137 516.964 419.137 239.245 239.245 998.132 512.248 524.638 512.248 524.638 277.719 277.719 972.496 524.737 473.493 524.737 473.493 234.529 234.529 1051.16 570.364 499.003 570.364 499.003 290.208 290.208 1051.92 507.136 552.162 507.136 552.162 280.156 280.156 1003.7 487.515 499.76 487.515 499.76 226.981 226.981 503.944 260.534 503.944 260.534 503.944 260.534 260.534 683.972 660.428 311.464 1388.43 660.428 1237.89 1119.69 561.198 311.464 683.972 660.428 311.464 561.198 311.464 743.523 728.003 1439.49 1340.67 1342.52 372.508 743.523 728.003 676.695 372.508 795.006 711.484 1481.45 1352.52 1362.88 371.015 795.006 711.484 663.978 371.015 827.173 769.97 1566.41 1421.26 1331.1 423.991 827.173 769.97 688.538 423.991 798.992 796.438 1522.21 1378.1 1396.56 403.181 798.992 796.438 732.719 403.181 722.062 725.773 1432.12 1349.99 1291.36 395.811 722.062 725.773 645.385 395.811 659.594 706.343 1386.87 1391.63 1438.15 326.251 659.594 706.343 704.606 326.251 699.842 680.531 1359.09 1360.73 1420.38 333.343 699.842 680.531 687.025 333.343 679.115 678.563 1348.69 1281.77 1290.84 366.5 679.115 678.563 673.7 366.5 569.097 670.128 1232.63 1128.72 1177.24 312.616 569.097 670.128 608.068 312.616 603.234 562.503 1217.18 1106.17 1106.1 256.481 603.234 562.503 520.652 256.481 619.662 654.682 1208.88 1111.58 1166.1 346.752 619.662 654.682 585.52 346.752 547.376 554.2 1096.02 1071.28 1075.47 272.91 547.376 554.2 526.063 272.91 513.754 541.817 1126.09 990.667 1071.71 274.466 513.754 541.817 545.218 274.466 451.433 584.272 1059.62 916.197 1074.33 239.288 451.433 584.272 445.448 239.288 548.367 475.343 1071.88 1041.34 1012.14 212.145 548.367 475.343 470.748 212.145 600.516 596.536 1136.57 1128.6 1137.18 336.222 600.516 596.536 570.592 336.222 495.639 540.03 1135.73 1070.98 1155.36 264.295 495.639 540.03 558.009 264.295 460.667 595.703 1145.31 1118.12 1135.22 231.345 460.667 595.703 512.976 231.345 423.733 549.606 1005.09 1018.74 1195.81 229.323 423.733 549.606 605.143 229.323 446.946 455.481 980.112 878.552 898.629 194.41 446.946 455.481 413.592 194.41 425.072 524.631 928.24 905.648 1034.67 252.537 425.072 524.631 464.959 252.537 393.481 403.609 844.524 888.282 890.746 172.536 393.481 403.609 440.688 172.536 500.276 440.915 922.828 911.183 933.978 220.945 500.276 440.915 447.594 220.945 560.374 481.914 1014.62 1065.18 836.125 279.331 560.374 481.914 463.59 279.331 602 532.702 1097.2 1150.25 1067.52 281.044 602 532.702 601.592 281.044 535.379 564.499 1043.93 992.832 1032.12 320.956 535.379 564.499 548.653 320.956 432.846 479.433 942.103 917.747 899.402 214.423 432.846 479.433 444.179 214.423 466.077 462.67 922.627 920.703 952.505 218.423 466.077 462.67 473.569 218.423 513.495 459.957 960.881 881.885 896.63 247.654 513.495 459.957 447.134 247.654 496.713 500.924 966.23 890.101 943.659 265.841 496.713 500.924 434.751 265.841 230.872 465.306 465.306 455.35 928.23 230.872 230.872 465.306 455.35 230.872 1073.78 459.26 1031.89 876.902 454.417 553.921 459.26 249.734 454.417 249.734 1265.92 1105.36 1144.07 597.149 614.516 577.468 304.187 1212.53 1046.35 1191.69 557.509 651.4 527.894 292.962 1161.26 1165.8 1181.96 594.084 561.133 518.459 264.547 1165.72 1169.49 1152.03 579.111 600.125 647.336 329.537 1297.4 1155.99 1091.53 627.929 565.592 522.153 249.574 1471.66 1248.98 1225.79 732.037 731.806 633.833 378.355 1352.13 1233.57 1279.59 660.883 739.852 615.15 353.682 1119.39 1200.2 1232.93 602.653 612.279 618.425 307.2 1050.71 1029.46 1115.53 559.623 507.112 581.78 295.453 1055.02 962.465 928.162 502.938 543.598 447.685 264.17 1032.69 1011.29 1020.73 491.92 511.419 514.78 238.767 1051.16 1066.79 1023.19 523.905 521.272 496.506 253.153 1019.95 1094.89 1064.67 476.913 529.892 570.282 270.753 1026.86 1028.71 1046.11 464.764 490.06 524.605 206.16 1077.44 950.625 986.939 492.974 536.796 504.107 258.603 1155.98 959.447 976.173 528.085 540.647 446.518 234.371 1154.85 1099.36 1081 575.346 615.331 512.928 293.714 1185.72 1205.06 1079.14 657.452 539.521 586.436 281.632 1089.35 1110.06 1101.67 595.003 646.2 618.625 375.82 953.19 908.096 974.905 431.605 443.148 491.432 219.183 997.178 907.715 939.093 480.576 510.042 416.664 212.423 980.2 872.907 924.596 494.801 487.136 491.051 268.153 847.275 791.153 890.33 410.908 493.064 381.857 226.648 889.03 951.071 844.095 504.808 354.211 409.297 184.259 1002.44 1000.38 996.403 548.246 534.819 541.774 320.549 887.588 953.72 950.786 457.453 467.619 458.608 227.697 909.805 937.867 982.159 484.901 419.969 495.112 229.756 926.508 860.138 902.576 454.626 489.836 442.755 255.146 879.408 774.17 890.185 368.39 436.673 417.383 199.48 905.66 790.727 915.656 393.388 442.736 356.787 168.91 462.924 433.94 937.027 224.478 462.924 433.94 224.478 947.199 417.642 850.152 889.003 441.467 477.965 417.642 204.683 441.467 204.683 1069.84 905.262 899.928 508.213 529.556 408.685 273.281 1161.11 968.698 1081.91 488.844 540.286 496.577 234.931 1172.73 997.14 1079.45 571.711 620.826 472.12 253.912 1077.84 1097.46 1031.55 590.378 551.902 525.019 317.799 1019.93 1147.7 1046.83 528.057 525.942 572.44 272.579 1033.72 1022.18 1013.78 516.945 493.987 575.259 255.478 1160.38 959.417 975.819 572.692 539.736 446.918 261.467 1229.06 1007.22 1051.85 597.551 620.647 512.499 311.224 992.98 847.374 1033.54 469.842 608.416 494.723 286.327 893.873 822.182 787.425 459.528 384.564 352.651 183.515 1011.23 950.001 1019.9 519.366 509.309 469.531 276.013 1036.7 955.539 964.747 542.883 501.923 480.47 243.354 1090.83 1060.67 927.611 617.974 534.775 475.069 299.529 1006.19 1088.18 1091.17 563.948 556.052 585.596 318.445 885.669 960.039 925.242 457.652 450.143 502.583 245.504 901.193 881.077 956.51 431.362 435.526 457.456 212.148 1005.28 1004.03 898.94 524.018 465.667 423.62 219.214 995.083 1013.61 1090.06 547.608 539.616 580.405 304.804 987.224 918.749 892.17 515.054 455.466 433.204 242.805 960.808 933.664 994.409 476.491 531.757 485.545 272.25 866.51 903.558 938.878 427.139 429.051 448.119 204.241 834.726 825.281 861.091 378.107 437.46 455.439 222.898 887.15 800.881 853.249 380.246 397.266 369.842 155.208 951.468 902.68 903.846 446.262 489.884 431.039 225.037 944.751 943.953 974.726 452.136 461.584 471.641 221.225 1045.36 973.906 973.137 496.267 483.167 472.313 230.911 974.93 965.824 1010.48 452.966 562.19 501.594 265.356 866.252 882.415 926.381 405.513 412.74 464.231 187.61 926.432 853.908 913.269 405.78 453.512 418.184 217.903 947.022 826.028 976.119 397.339 472.92 435.724 187.877 474.103 390.304 974.545 209.462 474.103 390.304 209.462 841.732 471.361 873.82 887.022 460.144 372.187 471.361 236.784 460.144 236.784 911.992 921.265 917.706 397.049 370.372 413.676 135.403 1000.24 992.692 1064.83 479.854 541.62 507.589 261.646 938.27 875.915 1008.28 425.428 458.623 485.102 218.208 1000.54 964.812 942.807 507.081 479.647 390.813 207.22 1040.68 1162.43 996.289 619.642 520.892 573.999 299.861 955.872 995.219 1051.81 505.232 519.789 588.431 319.781 867.291 893.079 932.012 386.725 436.083 406.788 185.451 856.336 956.101 984.88 409.67 431.208 486.291 201.274 827.989 909.812 942.631 377.532 425.128 469.81 208.396 913.45 913.42 923.171 362.655 402.861 440.002 169.136 973.413 977.306 1052.09 430.634 510.589 473.418 193.518 855.66 896.388 994.079 412.655 462.824 503.888 237.116 927.959 900.466 825.245 442.691 392.836 392.501 175.539 1010.22 1070.25 1028.44 524.231 535.123 507.965 267.152 996.083 1074.63 1031.86 502.387 475.099 562.281 257.079 954.257 1010.13 1045.87 449.715 520.984 512.354 245.309 983.721 1020.63 957.685 480.007 433.274 497.777 204.406 987.151 1001.22 1066.23 466.001 550.447 522.857 275.601 899.355 946.904 999.447 403.694 436.704 478.36 190.399 972.479 925.107 911.824 457.173 462.652 468.544 213.295 933.458 918.528 949.297 476.419 509.827 456.563 243.878 879.615 915.092 864.39 447.175 423.631 461.966 232.541 869.946 875.353 928.32 420.635 455.983 453.127 214.633 927.105 912.794 837.998 456.417 413.963 422.226 206.002 1003.11 974.797 966.514 491.818 513.142 490.568 250.415 938.259 998.931 942.534 477.64 489.969 484.229 241.402 961.93 1082.61 907.557 512.859 448.289 514.702 236.238 973.398 953.856 1047.49 476.903 513.641 567.908 276.621 962.955 900.071 897.017 448.128 459.757 385.948 200.282 1003.64 919.745 1015.73 428.689 503.199 514.123 247.846 500.442 405.623 1015.06 180.842 500.442 405.623 180.842 962.996 415.661 958.922 867.293 422.884 501.633 415.661 223.36 422.884 223.36 1070.54 1012.17 1131.69 524.216 547.335 536.037 278.272 1072.87 960.703 1059.54 512.837 523.209 476.136 245.943 1012.82 918.097 1091.63 450.487 549.656 484.567 266.894 938.557 998.979 1028.65 457.731 463.16 433.53 183.593 1007.41 1073.14 988.592 542.788 475.396 565.449 274.138 1027.95 977.337 1001.21 489.987 532.017 507.691 268.65 1049.6 991.302 994.301 506.354 495.929 469.646 221.337 1071.18 1041.18 1054.79 546.431 553.672 521.656 285.017 1037.81 994.478 1015.89 532.28 517.503 519.522 261.414 1061.81 974.094 1026.98 550.765 520.31 474.956 270.865 1072.76 1036.07 1035.72 546.671 541.5 499.138 279.899 963.664 985.641 1009.99 483.733 531.255 536.928 266.772 925.722 944.729 930.093 457.774 432.409 448.713 216.961 1050.08 1033.48 1077.77 546.015 493.313 496.016 240.813 1081.64 1043.95 1069.06 572.247 556.763 537.469 305.202 1049.29 1032.63 1040.74 560.416 524.881 506.485 267.045 1040.2 1035.53 1025.29 540.627 524.412 526.149 293.371 1078.53 1066.05 1014.15 535.217 515.786 509.385 247.256 1011.92 1124.34 1035 543.21 562.743 556.665 287.961 888.642 1002.59 1013.04 467.934 449.172 567.679 255.249 880.229 917.443 909.818 442.109 439.47 434.911 212.685 913.096 920.923 1021.28 467.918 440.759 482.532 229.424 896.372 886.661 898.02 454.717 472.337 438.391 238.493 877.408 899.22 887.062 456.376 424.036 448.27 216.224 905.936 908.016 931.153 482.979 453.372 450.95 240.152 911.832 1046.16 900.461 521.291 452.564 457.066 242.827 993.12 1138.53 999.332 569.751 459.268 589.097 278.464 971.112 961.7 1020.75 476.953 533.852 549.434 291.287 949.787 917.26 909.61 451.943 437.26 412.266 185.666 1027.14 999.342 987.137 491.057 512.526 504.994 266.276 514.614 494.348 1015.85 224.78 514.614 494.348 224.78 1035.99 451.632 1001.36 874.802 399.549 457.289 451.632 199.524 399.549 199.524 1120.69 1218.92 1265.54 487.957 584.359 601.814 257.765 1078.3 1224.86 1236.54 447.865 536.331 617.11 230.193 1107.46 1171.5 1298.16 467.609 541.971 607.745 217.672 1078.69 1196.95 1194.34 541.248 565.492 563.75 249.937 982.39 1138.1 1214.68 530.352 513.196 633.204 291.311 967.566 1002.08 1080.46 487.35 469.194 504.9 239.041 999.488 1019.37 1042.92 484.947 498.372 497.184 248.309 999.507 1036.43 1039.03 494.747 501.116 522.184 236.639 1005.06 1052.3 979.535 462.198 498.391 514.242 258.108 1000.89 1094.83 1178.83 423.329 506.672 538.061 204.091 972.948 1072.85 1079.34 489.394 494.216 556.768 219.238 976.416 1062.42 951.478 501.908 478.732 516.078 270.156 1082.14 1091.08 1070.31 486.955 497.684 546.34 231.752 1096.76 1050.61 1156.93 487.47 584.46 544.737 255.203 1028.16 1041.65 1058.46 471.707 512.299 505.878 232.267 1016.73 1066.17 1069.58 472.219 515.859 535.769 239.44 999.238 1066.67 1080.56 494.907 500.875 530.4 232.778 970.623 1043.83 1015.03 530.833 498.363 536.267 262.129 1036.13 1034.23 942.958 581.134 472.26 507.564 268.705 1034.22 997.732 1007.42 534.655 563.871 526.669 312.43 1050.87 963.263 969.492 475.334 470.348 471.063 222.226 1006.2 892.723 1043.12 453.005 580.521 492.2 253.108 888.71 915.07 889.491 431.943 425.683 400.523 199.897 940.807 943.352 996.231 442.844 463.027 514.547 232.046 925.677 833.82 933.289 425.037 477.781 428.805 210.797 987.96 927.959 922.756 524.873 447.896 405.015 214.24 1026.96 997.357 982.121 568.78 540.064 522.944 310.633 959.243 987.888 919.891 484.747 486.894 474.413 258.147 946.961 968.306 958.313 465.317 472.35 513.475 226.6 975.849 966.977 953.8 508.285 474.611 454.831 238.717 501.238 512.146 962.933 269.568 501.238 512.146 269.568 1104.35 423.17 1229.93 1055.42 522.425 544.075 423.17 200.025 522.425 200.025 1381.39 1444.03 1422.07 730.967 681.177 707.505 344.049 1456.39 1480.54 1432.88 776.99 700.209 736.52 386.918 1385.03 1353.08 1523.47 703.886 756.185 744.02 390.072 1330.34 1305.02 1242.91 655.707 628.849 609.06 313.813 1312.75 1277.1 1348.25 607.752 701.486 695.963 341.893 1155.81 1146.02 1238.14 514.734 611.268 581.133 265.859 1082.46 1154.51 1198.68 534.421 544.547 564.887 248.875 1019.06 1157.39 1192.85 541.679 537.914 589.622 285.546 1153.3 1244.48 1097.02 590.104 481.144 567.765 256.134 1257.28 1334.86 1299.28 671.501 672.157 676.71 333.971 1057.87 1195.25 1149.35 583.453 585.122 658.154 337.53 1045.37 1160.41 1042.08 560.511 472.745 537.098 245.923 1145.09 1158.65 1123.85 604.122 572.624 623.308 314.588 1118.63 1100.28 1156.81 563.145 572.465 535.347 289.534 1099.89 1078.41 1072.02 569.939 546.16 564.93 273.611 1133.41 1068.6 1047.57 593.95 553.725 513.476 296.328 1096.35 1100.19 1091.05 571.76 579.681 555.125 297.622 987.364 1057.41 1034.56 512.997 516.666 545.064 274.138 914.251 978.661 1060.66 453.099 470.698 512.35 238.859 942.696 982.057 934.326 463.077 443.553 466.311 214.239 961.748 1004.14 1001.19 487.93 499.143 515.746 248.837 926.412 902.596 973.302 439.718 462.604 488.395 239.092 997.012 920.701 995.852 483.127 463.808 414.201 200.626 988.712 904.399 1043.01 500.508 533.204 506.5 282.501 930.369 835.594 879.456 408.783 455.508 397.899 218.007 916.917 888.97 944.814 403.087 474.86 437.695 190.776 875.054 876.336 981.867 428.577 442.057 451.275 212.311 918.96 983.941 883.16 503.141 432.997 425.06 216.266 965.152 1047.77 1015.84 502.989 485.963 558.881 286.875 940.883 974.881 947.689 458.692 479.189 488.893 216.113 461.694 485.989 890.045 242.579 461.694 485.989 242.579 1373.14 632.247 685.855 632.247 322.399 685.855 632.247 322.399 322.399 322.399 1473.56 713.059 740.895 713.059 740.895 363.456 363.456 1499.95 703.55 732.666 703.55 732.666 349.603 349.603 1381.34 649.194 767.284 649.194 767.284 353.947 353.947 1260.83 649.317 614.061 649.317 614.061 295.247 295.247 1273.63 669.344 646.765 669.344 646.765 354.07 354.07 1281 631.286 626.87 631.286 626.87 315.274 315.274 1309.07 620.089 654.131 620.089 654.131 316.012 316.012 1270.82 615.708 654.941 615.708 654.941 304.077 304.077 1243 654.371 615.879 654.371 615.879 311.631 311.631 1191.34 663.364 627.118 663.364 627.118 342.74 342.74 1133.56 611.799 564.224 611.799 564.224 320.624 320.624 1120.56 599.895 569.336 599.895 569.336 291.175 291.175 1135.57 554.533 551.222 554.533 551.222 308.72 308.72 1110.2 537.132 584.345 537.132 584.345 245.813 245.813 1019.71 508.467 525.86 508.467 525.86 291.32 291.32 1005.22 474.651 493.849 474.651 493.849 217.147 217.147 1029.27 528.429 511.372 528.429 511.372 257.504 257.504 1107.86 544.417 517.898 544.417 517.898 270.926 270.926 1080.73 525.562 589.959 525.562 589.959 273.491 273.491 992.82 518.98 490.773 518.98 490.773 252.071 252.071 1012.74 516.211 502.047 516.211 502.047 266.908 266.908 1042.74 462.879 510.698 462.879 510.698 249.303 249.303 1041.85 437.574 532.044 437.574 532.044 213.576 213.576 933.751 403.89 509.804 403.89 509.804 223.999 223.999 893.901 426.811 423.947 426.811 423.947 179.892 179.892 1009.76 485.884 469.954 485.884 469.954 246.919 246.919 989.973 447.759 539.81 447.759 539.81 238.964 238.964 980.04 480.801 450.163 480.801 450.163 208.794 208.794 998.377 544.785 529.877 544.785 529.877 272.006 272.006 896.851 516.189 468.5 516.189 468.5 272.779 272.779 428.351 243.41 428.351 243.41 428.351 243.41 243.41 704.459 709.442 348.964 1442.52 709.442 1224.31 1182.38 558.49 348.964 704.459 709.442 348.964 558.49 348.964 695.964 733.074 1402.83 1364.73 1421.06 355.495 695.964 733.074 665.825 355.495 686.448 669.754 1380.2 1341.47 1373.68 340.469 686.448 669.754 698.906 340.469 739.236 710.449 1431.34 1306.41 1373.73 345.979 739.236 710.449 642.565 345.979 723.219 720.887 1405.98 1309.82 1329.79 393.257 723.219 720.887 663.844 393.257 710.054 685.092 1400.5 1379.52 1271.37 329.962 710.054 685.092 645.98 329.962 727.28 715.409 1393.65 1466.9 1386.76 380.092 727.28 715.409 733.543 380.092 659.252 678.236 1340.58 1350.5 1399.67 347.188 659.252 678.236 733.357 347.188 669.576 662.342 1335.9 1186.31 1329.01 312.064 669.576 662.342 617.143 312.064 663.533 673.553 1323.09 1154.62 1214.54 357.512 663.533 673.553 569.171 357.512 613.951 649.539 1247.87 1166.03 1328.77 306.021 613.951 649.539 585.449 306.021 589.22 598.329 1126.82 1129.99 1145.91 307.93 589.22 598.329 580.582 307.93 548.641 528.493 1102.82 1075.9 1083.86 281.29 548.641 528.493 549.409 281.29 612.335 574.332 1299.38 1155.37 1175.77 267.351 612.335 574.332 526.49 267.351 608.182 725.044 1307.22 1170.28 1288.34 344.984 608.182 725.044 628.884 344.984 523.512 582.173 1069.8 1107.98 1071.87 263.198 523.512 582.173 541.391 263.198 536.05 487.632 1055.82 1163.94 1041.6 260.314 536.05 487.632 566.59 260.314 640.094 568.188 1171.9 1219.6 1122.14 275.736 640.094 568.188 597.353 275.736 684.642 603.715 1219.69 1212.91 1089.9 364.358 684.642 603.715 622.248 364.358 581.355 615.971 1110.8 1075.7 1159.49 320.284 581.355 615.971 590.663 320.284 533.166 494.834 1005.33 1054.75 942.726 261.072 533.166 494.834 485.037 261.072 503.168 510.497 984.912 1019.77 1080.56 272.094 503.168 510.497 569.713 272.094 451.043 474.415 947.958 936.442 889.405 231.074 451.043 474.415 450.057 231.074 422.553 473.543 890.026 858.92 973.26 219.969 422.553 473.543 486.385 219.969 454.241 416.484 936.62 838.464 848.285 202.583 454.241 416.484 372.535 202.583 495.201 520.136 988.715 949.393 942.183 251.658 495.201 520.136 465.929 251.658 508.553 468.579 974.565 938.688 969.241 243.543 508.553 468.579 483.465 243.543 509.257 505.986 940.819 934.16 950.873 265.01 509.257 505.986 455.223 265.01 456.55 434.833 931.931 928.433 876.169 244.247 456.55 434.833 478.937 244.247 447.386 497.098 941.652 958.405 951.466 212.303 447.386 497.098 449.496 212.303 469.517 444.554 903.676 981.789 1033.17 235.083 469.517 444.554 508.909 235.083 234.434 459.121 459.121 472.88 886.608 234.434 234.434 459.121 472.88 234.434 1160.93 472.941 989.089 859.943 422.485 519.856 472.941 209.526 422.485 209.526 1391.92 1230.4 1229.05 668.767 687.989 566.604 310.33 1367.21 1327.29 1253 655.023 703.929 663.792 358.437 1272.19 1168.19 1278.47 567.174 663.284 663.5 296.586 1195.19 1074.07 1106.23 586.605 608.906 504.691 270.587 1257.63 1161.34 1090.55 669.469 586.28 569.381 316.018 1392.79 1256.4 1145.03 739.62 671.349 591.961 353.451 1388.11 1278.94 1311.11 691.248 721.438 664.437 386.169 1207.66 1148.25 1236.06 516.738 666.67 614.502 305.079 1220.21 1014.22 1119.14 491.087 540.985 533.748 211.659 1226.8 986.426 1177.15 552.08 679.227 480.477 279.428 1102.94 1032.64 1064.08 540.771 547.576 505.949 272.652 1156.81 1021.07 1107.52 527.258 555.366 526.688 268.119 1164.73 1015.89 1105.74 543.039 601.441 494.385 259.139 1052.99 1004.34 1003.37 562.093 563.293 521.507 283.9 1043.66 1012.49 1010 584.469 489.693 482.832 278.193 1107.92 1097.72 1060.84 627.893 553.966 529.655 306.276 1040.14 1060.77 1040.73 579.507 553.952 568.07 321.617 1029.71 975.744 963.131 528.269 486.188 492.702 257.89 991.411 966.514 987.426 494.345 543.519 483.042 270.38 1017.95 1005.9 946.191 521.585 447.892 483.473 223.965 985.049 955.974 1092.26 516.603 570.059 522.429 297.619 914.707 942.018 829.07 485.399 414.99 433.545 218.983 931.519 943.271 976.421 436.367 499.718 508.473 266.415 853.848 889.427 952.251 384.222 431.801 434.798 169.952 922.71 946.808 882.521 454.193 422.047 454.629 214.27 945.55 979.226 981.021 430.135 500.663 492.179 239.922 886.223 946.868 1050.27 424.903 444.887 487.047 190.213 895.704 932.622 893.149 471.882 441.336 459.82 234.69 1042.99 1031.67 949.114 511.018 454.368 472.802 237.192 1016.11 1061.95 1105.37 512.272 588.619 558.868 273.826 427.486 503.087 894.439 238.446 427.486 503.087 238.446 928.064 387.002 938.779 817.039 447.536 469.234 387.002 212.959 447.536 212.959 1090.14 1076.57 1089.81 561.63 541.061 491.243 256.275 1164.26 1192.66 1089.2 672.269 549.075 585.329 305.355 1112.51 1113.86 1163.59 601.017 615.186 607.329 366.914 1001.6 980.924 1087.79 487.466 497.326 506.53 234.103 977.953 912.912 990.801 491.872 504.272 474.394 253.363 1063.36 967.418 947.182 516.778 473.681 438.518 238.51 1159.07 1068.26 1116.27 587.691 589.677 528.901 278.268 1147.54 1078.18 988.774 631.512 569.391 539.356 309.423 1076.07 973.594 1009.27 523.138 578.153 538.821 322.089 1014.43 985.141 969.741 434.346 497.922 434.774 201.049 1068.66 1034.64 1172.72 491.866 516.505 550.367 233.297 1056.45 936.819 1079.86 493.815 552.155 484.277 258.569 944.374 958.12 978.408 472.853 504.298 452.542 235.246 960.382 928.238 1014.28 442.246 440.076 505.578 237.607 1027.18 921.713 1036.46 428.018 520.306 422.659 204.639 993.646 974.374 1079.07 469.831 506.869 499.054 223.379 963.72 984.979 954.541 481.265 486.777 475.32 246.453 920.85 968.625 960.086 447.474 476.943 509.659 234.812 942.206 967.83 883.646 472.169 443.907 458.966 212.662 1020.5 999.623 1038.69 484.317 498.299 508.864 259.507 936.284 896.41 1032.92 439.371 522.203 490.759 224.81 890.784 889.059 864.069 456.619 414.081 405.652 214.562 997.153 956.215 894.474 506.904 476.704 483.408 242.058 980.923 975.893 930.867 505.205 520.449 472.807 264.846 940.833 1003.91 945.187 492.615 460.474 503.086 240.359 1085.74 1009.71 964.399 549.09 480.359 500.824 252.256 1057.19 971.036 1041.15 521.964 605.379 508.886 296.834 946.559 957.235 904.965 460.74 451.813 462.15 225.13 1011.49 1035.48 930.857 520.652 494.746 495.085 235.609 983.701 1124.64 1012.81 549.683 516.748 540.395 285.043 466.952 584.241 1073.68 264.64 466.952 584.241 264.64 978.784 430.036 930.908 842.344 426.878 469.545 430.036 234.577 426.878 234.577 1088.88 1061.27 1079.75 514.943 548.748 504.031 234.968 1088.53 1080.42 1043.33 520.389 540.127 557.241 279.975 1138.87 1075.17 1076.57 512.842 548.405 523.177 240.415 1077 974.284 1126.55 493.458 590.468 551.994 272.427 960.031 885.665 981.413 421.039 486.529 422.29 221.031 1000.1 988.6 1050.01 450.64 473.502 463.375 200.008 945.977 1023.81 1109.09 480.566 526.594 525.224 250.632 850.503 971.41 918.249 446.666 419.383 498.589 229.933 902.938 955.99 901.76 450.457 431.119 472.821 216.732 1128.04 1061.84 985.002 550.795 471.819 483.169 233.724 1183.92 1068.86 1137.63 542.779 656.218 578.672 317.071 1001.82 922.935 1035.56 443.004 527.706 490.191 225.708 1048.32 953.215 957.958 485.268 474.11 432.744 217.296 1090.36 990.052 1019.44 485.992 574.206 520.471 267.972 1088.35 1003.09 1018.78 493.696 516.15 469.581 218.021 1039.96 993.42 1121.72 504.543 572.198 533.512 275.675 950.907 1003.28 878.036 503.714 467.764 459.908 228.867 922.882 1064.46 940.568 521.151 483.143 543.376 274.846 980.126 964.367 932.862 495.661 439.739 521.087 246.304 1051.1 936.014 927.764 515.306 540.388 443.28 249.357 960.7 895.159 987.771 457.039 510.712 492.734 265.949 867.759 877.618 880.128 432.44 449.988 402.425 191.09 828.188 890.966 912.406 449.311 417.77 475.194 241.35 895.13 891.719 876.675 470.688 410.417 415.772 207.961 968.753 934.252 908.631 511.294 484.713 475.947 262.727 919.809 851.16 939.056 460.619 484.04 458.305 248.567 888.92 872.441 820.044 449.072 435.769 392.855 212.052 889.263 990.654 897.79 496.495 453.152 479.585 237.02 932.168 1012.67 895.182 514.828 436.111 511.069 259.475 1102.79 1111.04 977.021 574.952 496.057 501.602 255.352 606.731 609.434 1066.92 319.6 606.731 609.434 319.6 943.307 412.308 1040.06 888.824 444.409 461.363 412.308 192.301 444.409 192.301 1034.2 1179.06 1148.23 546.328 530.999 595.656 269.062 1031.37 1190.47 1031.72 560.028 503.202 583.404 277.266 1064.25 1202.18 1154.41 562.33 528.167 607.061 282.762 1030.97 1018.27 1082.93 480.826 536.086 595.122 279.567 1071.4 916.664 928.021 464.626 494.884 423.144 201.258 1159 1018.18 1086.43 537.959 576.512 493.52 263.367 1081.36 1057.79 1022.86 543.247 582.493 524.655 274.592 969.506 1029.5 1057.43 524.744 498.866 533.133 268.655 983.823 1048.4 927.487 505.533 470.64 496.372 256.089 994.598 1088.6 1064.57 511.045 513.183 552.026 249.444 989.269 1009.64 1003.88 526.084 481.416 536.579 261.601 991.701 954.439 943.545 479.931 507.853 473.059 264.483 929.087 1063.14 980.502 467.948 483.848 481.38 215.448 947.87 1113.35 1033 504.06 445.238 581.757 252.499 1052.16 1065.85 1002.75 509.397 502.632 531.593 251.561 959.796 1033.39 1099.67 488.877 549.525 534.255 257.836 867.697 1003.9 890.742 499.57 410.271 499.137 231.041 950.548 983.102 898.843 543.312 457.425 504.764 268.529 880.5 923.702 948.843 468.706 493.123 478.338 274.783 864.436 920.271 890.816 420.708 387.376 445.364 193.923 907.2 1013.65 903.616 438.12 477.06 474.907 226.785 924.776 998.377 995.148 445.178 430.14 538.747 211.335 960.893 898.421 890.894 441.655 494.636 459.629 233.844 890.175 918.995 916.886 421.031 466.258 438.792 207.811 878.933 923.597 859.709 422.958 423.918 480.203 213.22 839.291 853.629 947.068 390.541 455.015 443.394 209.738 828.913 881.546 871.21 423.369 384.276 410.234 180.804 903.708 968.656 910.482 494.159 444.638 471.312 242.565 940.035 979.487 950.635 497.844 459.07 497.344 251.594 941.158 1003.65 985.425 536.084 480.964 482.143 246.25 460.193 521.504 975.374 289.834 460.193 521.504 289.834 1093.74 476.516 1138.97 932.593 475.252 578.702 476.516 252.108 475.252 252.108 1145.75 1283.15 1211.15 632.732 617.227 663.721 326.594 1154.77 1309.84 1125.44 630.437 528.522 619.43 306.138 1173.09 1321 1297.42 639.854 626.247 690.412 324.299 979.978 1212.07 1173.13 537.44 546.841 630.591 315.555 943.054 1157.04 1107.57 452.038 433.137 581.478 221.885 950.287 1121.3 1096.91 480.216 509.918 575.563 230.153 998.937 1062.58 1108.26 514.54 440.37 545.734 250.063 1015.41 982.139 1064.47 504.76 558.567 516.845 264.477 1008.23 1106.06 951.633 542.865 456.847 465.294 240.283 1073.85 1163.34 1161.91 577.559 551.385 640.768 302.581 958.154 957.969 1028.51 483.554 522.462 522.569 274.978 932.346 959.366 956.352 474.508 435.692 435.399 208.576 1084.41 1136.16 1008.16 595.189 496.654 523.967 265.931 1087.87 1164.77 1114.38 609.29 587.758 612.189 329.258 1050.26 1086.4 996.344 556.451 500.114 552.582 280.032 1030.61 1083.97 1072.51 544.516 550.142 533.816 276.419 921.889 1028.92 1006.86 504.331 480.471 550.156 268.097 897.137 914.157 922.102 439.79 441.418 478.762 236.234 959.159 916.149 996.253 454.996 455.72 435.395 203.555 929.996 979.183 949.446 499.563 503.44 480.755 251.441 991.564 1049.35 931.695 575.535 426.556 498.428 248.122 961.266 1039.89 974.702 553.198 565.008 550.925 327.413 846.886 970.652 918.727 456.766 396.258 488.968 225.786 886.42 986.168 954.365 497.964 450.628 481.684 230.981 927.844 1022.23 916.796 500.64 435.792 504.484 266.983 978.987 976.918 990.481 463.087 492.053 517.741 233.657 952.778 904.654 904.487 458.177 486.935 459.176 229.431 957.408 890.315 959.256 474.497 465.844 445.478 228.746 996.025 943.806 962.208 481.643 491.564 444.838 245.75 1019.64 949.755 1008.38 467.564 504.46 498.969 235.893 515.181 450.786 933.466 231.671 515.181 450.786 231.671 1050 456.077 1247.56 1046.83 532.992 560.272 456.077 223.144 532.992 223.144 1190.85 1410.92 1357.11 650.419 593.927 714.566 337.128 1268.1 1475.81 1265.97 679.405 596.923 696.355 313.292 1297.46 1413.3 1434.05 681.149 671.173 779.45 366.113 1300.72 1286.14 1380.93 674.628 626.288 633.85 315.036 1261.43 1309.29 1294.2 705.002 674.429 652.287 359.592 1254.88 1290.8 1234.46 641.081 586.996 657.005 345.41 1173.79 1237.02 1346.57 548.039 667.886 633.79 295.671 1000.69 1132.49 1238.22 477.378 505.901 603.232 252.368 1105.31 1151.82 1101.08 563.197 494.786 529.258 225.011 1116.57 1113.76 1206.85 585.778 610.527 622.565 338.186 1026.71 996.175 1076.58 474.414 506.047 491.191 247.592 1032.17 1005.52 1050.99 484.858 520.66 504.983 226.823 1038.13 1122 966.294 540.967 511.508 500.538 258.036 1022.85 1128.55 1140.66 555.481 526.618 621.463 282.931 1018.6 1041.19 1053.42 529.947 496.23 507.09 272.549 1048.75 1070.03 1006.34 539.457 522.365 534.099 257.397 1007.07 1025.43 1019.94 524.587 526.389 535.928 282.059 1021.22 1037.81 993.372 474.367 480.684 489.5 242.527 986.54 1016.32 1096.13 461.153 540.534 548.307 231.839 951.145 953.459 949.53 479.619 446.007 468.015 229.313 914.832 970.351 1009.59 473.818 505.139 485.444 250.306 932.163 1066.56 878.998 486.694 409.694 484.907 223.512 1026.21 1118.16 1137.7 513.885 522.469 581.651 263.182 984.74 1018.06 1018.09 488.204 503.737 536.508 250.703 979.432 988.676 962.479 521.586 481.004 481.557 237.501 915.98 1037.71 921.014 513.83 498.428 507.119 284.085 910.964 988.691 1002.57 446.477 417.552 530.591 229.746 964.056 915.058 965.141 415.819 493.412 458.1 216.731 974.558 915.755 1029.92 462.163 470.644 456.958 199.088 922.2 862.853 892.108 482.191 503.915 458.797 263.076 418.285 404.057 821.66 219.116 418.285 404.057 219.116 1353.93 590.753 687.287 590.753 309.848 687.287 590.753 309.848 309.848 309.848 1432.23 760.503 763.181 760.503 763.181 377.439 377.439 1431.93 796.401 669.052 796.401 669.052 383.064 383.064 1517.52 732.151 762.88 732.151 762.88 413.337 413.337 1374.41 611.508 754.641 611.508 754.641 318.814 318.814 1267.23 604.29 619.768 604.29 619.768 292.695 292.695 1326.15 649.714 647.465 649.714 647.465 311.596 311.596 1411.01 688.983 678.688 688.983 678.688 338.119 338.119 1338.61 655.112 732.319 655.112 732.319 350.865 350.865 1202.61 588.626 606.291 588.626 606.291 304.248 304.248 1166.85 527.979 596.318 527.979 596.318 284.379 284.379 1100.86 521.761 570.531 521.761 570.531 243.6 243.6 985.118 520.663 530.332 520.663 530.332 278.161 278.161 1068.83 581.034 454.786 581.034 454.786 242.503 242.503 1171.24 573.072 614.045 573.072 614.045 338.532 338.532 1041.17 511.242 557.194 511.242 557.194 234.54 234.54 977.518 530.57 483.972 530.57 483.972 276.702 276.702 1006.23 500.841 493.547 500.841 493.547 253.869 253.869 1068.29 563.44 512.688 563.44 512.688 246.972 246.972 1059.12 555.169 555.601 555.169 555.601 316.468 316.468 1007.97 473.84 503.523 473.84 503.523 238.702 238.702 973.755 496.533 504.451 496.533 504.451 235.139 235.139 1084.54 579.863 469.305 579.863 469.305 261.395 261.395 1129.58 604.274 615.235 604.274 615.235 318.468 318.468 995.825 529.861 514.35 529.861 514.35 285.805 285.805 904.061 467.09 481.475 467.09 481.475 244.056 244.056 1007.6 523.88 422.586 523.88 422.586 223.034 223.034 1056.74 542.214 585.013 542.214 585.013 300.846 300.846 1031.01 499.239 471.728 499.239 471.728 241.369 241.369 947.472 453.592 559.279 453.592 559.279 257.871 257.871 791.568 380.662 388.193 380.662 388.193 195.721 195.721 403.375 184.941 403.375 184.941 403.375 184.941 184.941 738.056 717.578 360.477 1501.08 717.578 1379.13 1310.44 623.892 360.477 738.056 717.578 360.477 623.892 360.477 706.864 783.505 1489.41 1430.01 1510.45 377.579 706.864 783.505 755.238 377.579 693.755 705.905 1483.22 1405.94 1451.2 329.285 693.755 705.905 674.776 329.285 692.1 777.313 1411.72 1397.12 1502.22 364.47 692.1 777.313 731.168 364.47 682.76 634.406 1375.49 1291.34 1318.26 327.63 682.76 634.406 665.948 327.63 690.447 741.085 1442.42 1278.61 1348.69 355.13 690.447 741.085 625.391 355.13 666.366 701.332 1386.32 1319.53 1327.94 335.318 666.366 701.332 653.215 335.318 681.326 684.993 1447.12 1378.19 1333.86 331.048 681.326 684.993 666.317 331.048 666.319 762.131 1358.81 1357.24 1397.97 350.278 666.319 762.131 711.87 350.278 659.559 596.675 1257.85 1388.68 1290.87 316.041 659.559 596.675 645.367 316.041 633.917 661.176 1322.26 1308.64 1326.48 343.518 633.917 661.176 743.317 343.518 537.603 661.083 1305.21 1099.77 1234.68 290.399 537.603 661.083 565.323 290.399 554.184 644.123 1224.15 1183.73 1226.44 247.204 554.184 644.123 534.451 247.204 687.041 580.031 1237.11 1308.74 1220.99 306.981 687.041 580.031 649.283 306.981 699.035 657.078 1265.58 1189.93 1187.03 380.06 699.035 657.078 659.454 380.06 546.293 608.497 1067.96 1005.48 1147.33 318.974 546.293 608.497 530.474 318.974 519.771 459.461 1047.71 999.796 977.576 227.318 519.771 459.461 475.008 227.318 531.809 588.244 1077.31 992.442 1136.67 292.453 531.809 588.244 524.787 292.453 535.044 489.062 1023.48 1036.48 1032.32 239.356 535.044 489.062 467.655 239.356 529.45 534.418 986.484 1026.52 1056 295.687 529.45 534.418 568.826 295.687 472.165 452.066 939.258 968.531 959.479 233.762 472.165 452.066 457.689 233.762 481.744 487.192 1007.01 950.191 1013.25 238.403 481.744 487.192 510.843 238.403 496.915 519.814 1034.72 926.224 915.462 243.342 496.915 519.814 439.348 243.342 467.474 514.905 991.785 962.625 1037.06 253.573 467.474 514.905 486.876 253.573 482.378 476.88 989.742 952.005 1010.59 213.9 482.378 476.88 475.75 213.9 493.514 512.862 950.481 962.031 1043.38 268.478 493.514 512.862 476.255 268.478 466.012 437.619 905.771 981.426 974.63 225.036 466.012 437.619 485.776 225.036 431.562 468.152 898.298 892.882 971.246 240.976 431.562 468.152 495.65 240.976 475.381 430.146 960.413 899.202 887.337 190.586 475.381 430.146 397.232 190.586 494.266 530.267 958.506 1026.24 918.997 284.795 494.266 530.267 501.97 284.795 434.159 428.239 874.123 937.993 1056.44 209.471 434.159 428.239 524.265 209.471 224.688 445.883 445.883 413.728 803.65 224.688 224.688 445.883 413.728 224.688 1319.81 592.864 1099.9 999.019 437.458 641.074 592.864 263.415 437.458 263.415 1472.24 1251.66 1280.32 723.151 726.943 662.446 377.659 1470.21 1204.18 1337.35 712.189 745.297 589.212 345.491 1408.77 1216.51 1218.43 705.016 724.91 614.971 366.698 1291.47 1122.71 1178.72 608.58 683.859 601.541 338.318 1234.21 1074.24 1157.65 588.159 607.606 521.171 270.262 1275.47 1199.75 1126.61 653.166 626.603 553.069 317.897 1284.7 1268.24 1254.18 696.86 648.867 646.677 335.268 1330.03 1206.95 1206.73 690.918 635.836 621.559 361.591 1359.49 1282.06 1186.06 729.125 694.195 585.391 329.326 1238.89 1254.8 1152.12 674.724 665.3 696.672 399.799 1155.92 1138.97 1129.09 562.171 573.595 558.132 274.925 1223.28 1192.19 1132.61 629.549 582.322 580.833 287.247 1170.91 1093.22 1186.76 621.696 640.959 611.355 342.302 1068.79 1009.03 981.787 490.894 529.95 481.862 279.394 1056.95 1058.35 1128.4 459.19 538.837 527.168 211.5 1066.54 1003.84 1090.48 480.025 518.115 531.18 247.69 1091.68 943.088 1021.26 460.633 548.425 472.659 232.335 1064.84 974.813 1037.01 501.437 543.259 470.429 228.298 1029 967.102 1063.12 497.066 521.585 504.384 273.139 1033.47 1032.55 1045.66 496.366 507.412 462.718 223.927 921.703 965.359 1025.01 468.446 526.055 569.833 272.44 917.805 863.474 822.912 429.309 395.648 395.526 196.006 1055.87 985.401 1084.93 495.151 522.157 467.948 233.302 1064.23 945.344 1099.85 469.626 533.71 517.452 261.849 1067.53 916.734 972.212 468.517 530.519 427.892 207.777 1040.1 1052.06 981.49 515.414 537.011 488.843 260.74 960.285 996.547 1047.34 461.319 503.094 563.219 254.674 845.922 909.641 959.014 423.821 457.191 433.329 206.646 1016.94 1022.81 882.503 531.969 388.73 476.312 217.176 985.972 937.852 1079.48 503.834 628.205 546.5 314.794 357.767 391.352 797.073 189.04 357.767 391.352 189.04 959.529 406.155 968.069 775.234 369.503 458.83 406.155 174.043 369.503 174.043 1145.43 1102.44 1143.25 528.507 553.374 598.566 284.786 1085.57 1060.14 1068.42 491.993 592.052 503.873 243.721 988.373 1137.53 1064.8 511.495 493.515 556.262 248.272 1044.9 1097.67 1030.61 514.132 494.858 581.264 263.223 1050.05 1025.07 1095.37 486.08 550.043 516.407 250.909 1105.31 1096.03 1030.44 546.58 500.003 508.665 235.171 1176.2 1036.79 1209.22 571.376 605.309 587.37 311.408 1062.76 919.869 935.338 516.032 570.891 449.417 259.968 978.692 1005.42 965.364 552.937 491.869 470.452 256.064 1042.32 1157.32 982.43 580.081 486.822 534.967 296.873 1105.78 1217.94 1255.89 576.794 555.496 622.356 283.208 1096.08 1121.45 1069.55 562.639 550.284 595.584 293.586 997.634 1034.57 1018 471.521 545.797 525.866 269.053 1041.4 1122.5 1001.33 518.137 451.837 508.703 202.469 1161.92 1193.81 1105.74 599.158 589.563 613.797 315.668 1045.2 1059.23 1082.44 523.814 572.362 580.013 283.49 966.588 929.648 1007.47 482.454 472.834 479.221 240.324 1035.29 875.107 966.75 473.376 493.755 450.427 242.131 1079.78 954.502 984.563 470.037 541.532 424.68 231.245 1037.2 1071.98 1046.79 536.185 538.244 529.823 238.791 926.221 1000.57 969.121 496.913 498.957 542.156 297.394 990.036 869.484 925.637 434.165 427.264 458.417 199.519 1128.92 869.126 954.693 490.249 562.772 411.067 234.646 1007.84 900.161 1053.08 475.718 566.144 458.06 255.603 886.173 905.676 876.582 448.217 441.693 442.101 220.115 988.729 995.837 954.795 536.647 444.479 463.575 228.102 1046.07 975.076 972.583 535.228 544.249 532.262 308.545 995.595 878.587 945.299 485.819 501.823 442.815 226.683 945.043 908.183 894.81 490.842 493.773 435.772 259.136 890.577 961.854 896.688 434.018 451.271 472.41 231.706 439.306 489.443 985.672 202.312 439.306 489.443 202.312 958.952 369.079 991.183 788.895 415.466 509.239 369.079 195.459 415.466 195.459 1066.24 1061.8 1064.83 573.932 589.873 575.716 313.78 1047.65 1039.48 917.02 568.142 476.367 486.088 260.153 1107.03 1127.95 1053.88 626.031 571.284 553.394 307.99 1081.08 1133.68 1111.57 583.539 535.748 574.56 318.041 1075.76 1145.76 1103.52 538.991 545.328 559.123 265.498 1134.35 1170.5 1116.61 549.455 530.436 586.638 273.494 968.359 1003.52 1183.77 465.412 603.912 583.862 275.962 837.942 848.6 866.128 403.837 364.447 419.661 189.45 969.103 930.772 988.213 452.482 473.495 428.939 214.387 1196 1060.8 992.173 577.242 495.608 501.833 238.094 1219.66 1104.33 1122.44 641.146 700.394 558.962 339.148 991.46 1070.58 1061.98 558.812 519.261 545.368 301.998 1021.69 1024.19 957.315 563.048 472.199 525.214 256.814 1065.67 1048.17 960.875 604.364 549.489 498.973 306.234 1026.26 1137.41 957.543 594.652 516.182 549.201 298.13 1044.71 1006.34 1074.4 535.419 510.074 588.211 296.523 1007.63 815.32 996.92 447.193 534.638 418.127 238.897 916.026 808.967 919.714 401.731 472.995 397.192 208.297 951.58 896.259 910.836 484.466 443.031 411.775 193.434 978.712 979.522 916.066 535.793 508.548 484.484 291.031 968.537 972.741 968.936 503.661 470.164 495.037 244.762 890.294 914.916 940.185 435.319 498.373 477.704 258.898 878.859 898.115 835.181 378.877 391.921 437.213 176.42 921.827 893.587 952.918 424.442 486.938 460.903 202.456 945.205 913.435 859.52 457.459 434.889 432.684 221.986 938.65 907.939 1022.18 459.19 510.316 480.751 235.473 871.81 845.393 860.029 439.849 428.334 427.189 223.717 844.513 802.317 893.155 392.768 443.476 418.204 216.132 846.454 859.532 869.055 417.341 401.037 384.113 176.636 991.783 932.91 948.906 527.836 445.417 475.419 240.705 546.366 457.491 954.081 287.131 546.366 457.491 287.131 894.769 419.815 996.986 899.664 444.416 481.944 419.815 220.007 444.416 220.007 915.606 1000.89 1011.49 487.873 474.954 552.571 261.937 923.253 995.672 962.722 471.34 440.652 448.319 225.936 1058.43 1035.16 1013.44 501.924 482.601 547.353 245.405 1134.02 992.683 1098.67 550.145 575.826 487.806 256.519 1144.36 1097.79 1049.36 606.77 558.189 504.877 293.626 1166.03 1091.12 1137.32 621.045 586.173 592.909 313.144 1081.54 1022.51 1028.15 538.112 579.854 498.207 307.901 1016.4 955.416 1090.55 444.762 501.681 524.301 230.211 1011.28 943.658 984.577 478.29 514.718 431.115 214.552 918.61 979.842 986.615 483.553 496.565 512.543 263.739 964.765 937.785 958.98 463.185 422.045 467.299 219.815 1027.84 969.609 1022.71 511.77 542.72 470.486 243.37 896.502 950.362 956.168 461.139 485.116 499.123 268.4 852.747 922.392 893.753 443.81 411.386 451.239 192.739 1005.68 1036.56 875.055 542.76 441.361 471.153 251.071 1026.61 957.017 1104.65 470.919 564.324 565.412 291.688 909.001 785.684 871.063 368.126 462.282 391.605 179.231 914.524 864.584 927.179 407.236 446.719 394.079 188.896 875.322 915.956 948.373 411.794 467.805 470.505 218.34 906.289 874.161 952.622 443.728 407.517 445.452 193.453 940.584 885.109 927.058 469.08 498.772 428.709 250.275 885.073 887.665 922.433 479.597 441.812 456.401 218.805 909.24 909.358 863.794 519.238 443.26 431.264 260.792 890.611 857.6 899.015 469.144 465.98 478.094 258.446 936.492 883.18 809.258 455.976 424.632 379.507 210.698 943.556 964.65 1026.4 448.749 511.86 503.674 245.278 881.375 900.146 975.294 405.545 431.695 460.976 203.472 917.697 892.461 898.876 409.549 449.679 439.17 202.073 971.507 956.572 949.986 442.191 468.018 453.291 207.477 911.204 957.151 1090.91 405.074 503.489 503.282 234.715 407.715 453.87 940.534 170.36 407.715 453.87 170.36 1016.38 479.849 1004.77 941.737 457.341 515.042 479.849 224.409 457.341 224.409 1058.6 1053.45 1066.67 513.017 536.534 547.433 290.634 1052.9 1113.02 1127.97 524.331 522.07 506.015 222.383 1053.68 1149.55 1158.26 533.235 530.835 607.008 301.948 1014.02 1068.63 1068.04 442.538 522.845 542.539 231.287 1042.32 1047.44 1150.66 491.016 491.172 526.088 211.252 999.444 1083.87 1070.41 470.071 551.148 521.351 279.765 1037.16 1110.14 1123.8 484.396 448.296 562.522 190.307 1058.72 1033.96 1115.35 510.654 588.866 547.623 294.09 959.91 1007.48 1023.59 465.368 469.859 486.339 216.564 1026.99 1027.08 1010.76 496.289 490.05 521.145 248.804 1016.93 1026.89 1131.5 474.6 536.936 505.94 247.485 951.044 1005.15 1027.68 457.838 479.993 520.953 227.116 953.418 986.382 986.849 489.223 471.052 484.195 230.723 916.061 945.95 1038.3 478.582 482.367 502.187 258.501 974.02 982.454 898.909 493.805 433.694 443.762 220.082 949.106 995.395 1092.08 486.098 540.325 538.692 273.724 889.241 900.044 886.748 417.557 408.781 456.704 212.374 961.028 1004.2 1001.33 457.348 480.46 443.34 205.183 1025.67 1029.55 1091.61 504.163 480.568 560.858 252.164 973.392 901.958 1030.4 430.432 545.105 468.692 251.998 908.907 857.044 982.977 416.029 428.287 433.267 178.434 901.154 853.536 910.143 408.067 480.621 423.777 237.595 853.569 902.44 952.216 390.12 420.534 429.759 170.472 817.662 884.992 995.545 388.456 433.035 472.681 219.647 899.166 885.051 902.718 427.205 384.626 412.311 168.808 1058.14 918.05 988.124 515.9 514.54 472.74 258.396 992.795 959.089 964.289 494.601 543.599 445.31 257.504 931.164 1031.15 988.83 482.911 449.197 513.779 237.097 1069.39 1026.78 990.978 514.381 481.968 517.37 245.814 1120.24 992.086 1047.77 552.077 587.422 509.406 268.567 532.819 482.68 964.159 283.51 532.819 482.68 283.51 992.023 461.888 1156.38 982.197 513.837 489.732 461.888 232.932 513.837 232.932 1136.04 1212.16 1235.91 540.431 530.135 642.542 256.799 1233.33 1224.22 1195.82 588.691 605.903 569.619 283.631 1172.62 1401.68 1355.95 616.312 627.43 654.603 305.06 1204.68 1388.99 1305.82 626.089 545.192 747.079 311.252 1178.75 1219.37 1288.9 556.423 659.489 641.91 314.837 1194.76 1290.24 1206.07 613.801 519.258 577.456 241.587 1201.99 1347.77 1342.98 625.748 675.507 712.785 372.215 1080.21 1206.81 1219.69 523.309 526.482 634.987 253.533 1074.44 1156.1 1186.12 542.116 553.729 571.818 269.775 1115.28 1169.67 1043.65 530.796 520.714 584.28 272.341 1142.26 1131.4 1238.97 552.292 594.566 585.387 258.455 1063.49 1011.76 1053.8 547.31 547.689 546.008 293.837 1071.73 984.956 1008.84 497.159 515.797 465.756 253.473 1021.15 1065.53 1076.13 467.367 555.932 519.2 243.687 1016.97 1018.57 1102.03 488.649 465.215 546.335 223.681 1029.72 956.246 1021.81 509.298 551.754 472.238 264.968 998.833 987.88 953.879 482.487 477.967 484.007 244.33 1131.91 1051.7 1021.31 546.851 520.866 503.872 238.157 1096.34 1029.34 1118.58 525.388 611.046 547.828 308.694 1039.98 1005.66 995.563 471.526 485.291 481.515 216.693 984.214 918.236 1106.01 441.014 554.691 524.145 254.833 961.204 950.145 814.622 445.469 429.523 394.091 186.181 1094.19 1037.63 1125.65 512.321 531.682 556.054 259.287 1080.6 962.5 1028.91 496.536 562.51 481.578 253.034 991.677 894.818 1001.85 457.847 518.092 480.922 243.503 894.274 885.869 914.908 402.15 473.584 413.895 214.344 960.323 979.015 958.008 464.487 420.69 471.974 187.806 1048.64 1080.01 1041.2 548.237 539.634 507.041 276.681 969.358 1006.28 1045.85 512.395 509.01 572.964 271.556 891.688 850.915 956.272 440.009 460.348 433.311 240.839 431.34 417.603 847.416 199.17 431.34 417.603 199.17 1226.08 520.309 666.647 520.309 280.905 666.647 520.309 280.905 280.905 280.905 1295.69 671.731 705.772 671.731 705.772 385.742 385.742 1318.44 635.531 589.918 635.531 589.918 285.988 285.988 1489.15 785.37 728.523 785.37 728.523 349.543 349.543 1390.04 762.9 760.623 762.9 760.623 435.827 435.827 1316.22 662.942 629.414 662.942 629.414 327.073 327.073 1354.29 676.439 686.81 676.439 686.81 335.869 335.869 1360.69 722.024 667.477 722.024 667.477 340.57 340.57 1325.61 683.497 693.213 683.497 693.213 381.454 381.454 1155.33 613.982 632.393 613.982 632.393 302.043 302.043 1167.33 638.871 522.934 638.871 522.934 311.939 311.939 1150.51 579.103 644.4 579.103 644.4 326.932 326.932 999.156 464.455 506.108 464.455 506.108 252.171 252.171 1013.25 487.797 493.048 487.797 493.048 212.283 212.283 1157.02 598.167 520.203 598.167 520.203 275.514 275.514 1106.87 529.924 636.813 529.924 636.813 322.654 322.654 945.973 446.948 470.061 446.948 470.061 207.27 207.27 976.36 505.393 475.912 505.393 475.912 239.678 239.678 1007.98 504.849 500.447 504.849 500.447 265.715 265.715 1017.81 503.955 507.534 503.955 507.534 239.133 239.133 1061.59 534.134 510.272 534.134 510.272 264.822 264.822 936.421 477.222 551.322 477.222 551.322 269.312 269.312 979.068 504.677 385.099 504.677 385.099 207.91 207.91 1060.37 525.311 593.969 525.311 593.969 296.767 296.767 950.163 465.964 466.403 465.964 466.403 228.544 228.544 925.084 436.971 483.76 436.971 483.76 237.42 237.42 978.642 483.719 441.324 483.719 441.324 199.551 199.551 1038.88 514.528 537.319 514.528 537.319 284.168 284.168 1038.4 531.768 501.563 531.768 501.563 230.36 230.36 1032.76 493.881 536.84 493.881 536.84 301.408 301.408 912.001 410.906 495.924 410.906 495.924 192.472 192.472 416.076 218.434 416.076 218.434 416.076 218.434 218.434 763.027 696.79 357.101 1521.55 696.79 1441.76 1275.83 686.549 357.101 763.027 696.79 357.101 686.549 357.101 782.546 824.76 1627.77 1531.64 1513.2 405.926 782.546 824.76 755.21 405.926 789.463 803.006 1691.72 1547.48 1581.71 376.62 789.463 803.006 776.426 376.62 719.619 888.713 1613.05 1423.37 1623.09 412.844 719.619 888.713 771.056 412.844 692.731 724.341 1458.25 1375.62 1402.46 306.776 692.731 724.341 652.316 306.776 751.97 733.912 1432.35 1398.02 1376.75 385.955 751.97 733.912 723.3 385.955 719.959 698.435 1436.26 1342.26 1314.58 366.014 719.959 698.435 674.72 366.014 765.798 737.826 1445.08 1353.64 1391.29 353.945 765.798 737.826 667.544 353.945 692.487 707.254 1268.38 1331.6 1288.97 411.853 692.487 707.254 686.098 411.853 598.292 561.13 1168.3 1228.66 1188.65 280.634 598.292 561.13 645.503 280.634 688.343 607.171 1311.3 1252.51 1134.27 317.658 688.343 607.171 583.159 317.658 767.604 704.131 1358.02 1361.35 1273.08 370.685 767.604 704.131 669.355 370.685 669.97 653.894 1198.35 1263.7 1249.5 396.919 669.97 653.894 691.994 396.919 550.069 544.459 1140.5 1099.28 1184.03 273.051 550.069 544.459 571.707 273.051 566.541 596.044 1165.7 1144.43 1155.02 277.018 566.541 596.044 527.574 277.018 521.666 569.659 1116.16 1119.43 1179.25 289.523 521.666 569.659 616.86 289.523 527.934 546.501 1084.52 1114.45 1115.37 232.143 527.934 546.501 502.568 232.143 545.497 538.014 989.585 1176.55 1122.06 295.792 545.497 538.014 611.882 295.792 488.435 451.571 927.374 1051.84 975.184 249.705 488.435 451.571 564.666 249.705 457.034 475.803 936.523 988.966 1046.32 238.73 457.034 475.803 487.176 238.73 467.093 460.719 966.906 1004.19 1025.92 218.304 467.093 460.719 501.79 218.304 525.261 506.187 1039.74 978.519 991.34 248.789 525.261 506.187 502.405 248.789 537.804 533.549 1019.22 1026.3 1001.34 276.472 537.804 533.549 476.114 276.472 524.311 485.671 990.359 1085.03 1036.8 261.332 524.311 485.671 550.187 261.332 507.363 504.688 961.283 1101.97 1068.8 262.979 507.363 504.688 534.84 262.979 456.967 456.595 950.389 1055.98 999.786 244.384 456.967 456.595 567.126 244.384 439.759 493.794 924.598 964.449 1031.63 212.583 439.759 493.794 488.854 212.583 466.735 430.804 944.75 965.701 900.534 227.176 466.735 430.804 475.596 227.176 485.032 513.946 1000.84 907.132 1026.77 239.56 485.032 513.946 490.105 239.56 464.241 486.894 913.597 949.206 939.677 245.473 464.241 486.894 417.027 245.473 439.963 426.703 895.766 922.102 999.34 218.768 439.963 426.703 532.179 218.768 221.195 469.063 469.063 389.923 890.992 221.195 221.195 469.063 389.923 221.195 1267.49 579.044 1179.43 1115.29 561.56 678.732 579.044 329.449 561.56 329.449 1467.15 1366.01 1216.24 749.089 688.444 617.871 349.283 1513.08 1351.59 1442.27 758.018 778.705 748.137 399.806 1412.49 1180.63 1237.33 703.753 734.376 603.455 358.212 1320.96 1213.66 1247.88 682.885 678.116 577.176 345.541 1258.98 1210.02 1191.43 646.051 642.839 636.479 337.345 1269.6 1181.04 1161.76 622.305 616.14 573.538 308.706 1235.18 1192.67 1206.39 587.844 653.463 607.5 313.599 1209.24 1185.84 1135.2 639.113 581.716 585.168 274.244 1154.62 1056.12 1132.19 630.37 627.525 600.674 364.869 1096.05 1026.41 981.882 564.171 527.1 455.45 265.501 1164.56 1122.73 1143.22 593.745 568.948 570.958 298.67 1235.17 1127.17 1158.04 593.731 595.607 551.772 295.075 1198.55 1075.33 1216.7 549.213 639.567 575.402 298.657 1168.57 1101.16 1084.38 577.894 558.979 499.924 250.556 1178.47 1160.53 1140.61 597.762 609.595 601.232 327.337 1152.91 1107.9 1109.67 586.516 568.871 559.297 270.425 1107.66 1115.19 1059.19 631.051 584.042 548.6 316.09 1094.13 1125.32 997.46 563.407 523.614 566.585 314.961 1135.72 1141.67 1127.53 531.932 570.515 558.732 248.446 1050.36 1038.12 1164.07 537.101 565.203 582.938 283.486 952.942 882.566 908.801 453.257 485.153 455.179 253.616 1018.91 1044.37 992.146 488.497 467.789 427.386 199.642 1115.23 1199.38 1146.2 560.716 551.125 616.981 288.855 1107.3 1126.72 1081.88 594.603 564.108 582.402 271.861 1081.03 1036.97 993.178 599.013 543.191 544.32 322.742 1007.57 976.772 941.461 524.691 537.838 492.648 276.27 982.559 1009.81 942.574 498.966 469.73 484.125 248.42 965.612 931.876 1047.6 422.1 512.828 525.685 250.545 1025.42 939.167 944.95 484.966 452.784 406.191 171.555 994.565 938.697 1058.37 482.138 572.636 532.976 313.411 421.929 405.721 872.793 168.727 421.929 405.721 168.727 1064.04 536.248 950.412 893.851 405.731 500.699 536.248 232.112 405.731 232.112 1191.36 1109.23 1062.51 616.919 527.792 544.681 268.588 1166.52 1073.08 1117.38 593.574 663.566 564.546 348.331 1072.72 957.879 1007.03 476.878 502.953 508.537 245.243 1118.35 1028.31 954.581 530.77 569.765 449.342 231.635 1094.21 1100.74 1144.79 563.966 548.589 578.965 299.135 1098.54 1143.63 1032.06 558.732 545.619 521.775 264.832 1106.41 1107.77 1130.57 604.824 552.925 621.851 293.901 1058.15 980.833 1005.43 546.728 553.483 485.921 310.923 959.446 942.376 960.619 425.754 504.664 494.913 235.805 1029.05 1081 951.95 462.237 454.782 447.463 189.949 1136.7 1107.5 1204.37 528.985 574.268 633.534 272.288 1139.57 966.091 1023.29 533.442 562.434 473.961 256.698 1102.54 984.753 1088.68 526.113 577.136 492.13 276.745 1056.42 984.57 1028.1 523.263 525.405 492.623 249.368 1071.82 994.37 964.794 562.767 531.018 491.947 273.895 1015.95 1030.67 942.476 521.382 540.8 502.423 288.872 948.995 1044.57 1034.3 484.134 475.148 528.252 232.51 1030.86 1076.21 1002.19 561.91 473.847 516.323 251.624 1155.87 1076.85 1017.65 609.739 557.011 559.883 310.286 1022.51 943.935 1065.15 501.016 598.863 516.97 299.453 948.005 894.185 893.903 429.308 423.648 426.965 201.563 1119.43 1010.85 1026.61 555.871 524.357 467.22 227.745 1112.84 1138.65 1043.96 638.667 595.071 543.626 328.126 967.76 1029.5 1059.38 532.119 517.773 595.023 310.541 853.61 925.701 879.596 437.955 449.987 434.481 221.578 876.466 931.542 952.485 452.082 403.623 491.22 216.377 1007.62 942.805 877.124 510.844 472.843 440.322 235.704 1026.94 961.521 1088.65 509.776 534.776 502.484 275.14 977.903 883.315 1011.85 454.201 492.166 459.037 234.636 936.6 920.506 864.31 456.559 485.736 424.277 219.565 450.864 496.229 976.311 236.994 450.864 496.229 236.994 892.323 357.603 862.539 738.949 373.428 449.713 357.603 173.62 373.428 173.62 988.533 920.042 954.294 492.308 534.72 489.11 276.093 957.889 931.421 893.325 479.509 453.813 430.931 216.215 888.892 1037.5 1003.79 481.001 504.076 500.49 263.294 981.013 1081.41 934.6 497.538 384.816 537.014 217.707 1082.63 1074.37 1105.32 536.774 596.198 544.395 279.831 1064.08 1129.88 1010.49 584.893 486.436 529.971 256.943 1029.59 1046.37 1093.58 502.947 577.647 599.904 327.95 907.902 1005.74 982.407 434.105 451.947 446.468 174.997 953.123 1049.61 998.237 516.622 455.955 559.274 259.108 1127.27 1053.82 1039 618.761 497.168 490.34 257.514 1090.96 1080.09 1041.19 578.51 630.105 563.477 361.247 972.403 948.714 1023.9 432.648 460.856 516.613 217.263 1014.24 894.003 983.763 458.64 511.547 432.101 215.385 936.468 870.244 956.615 461.307 502.692 461.902 243.255 835.451 894.528 886.912 431.603 433.776 408.342 218.052 960.824 1064.98 912.599 509.293 401.675 486.187 213.551 1087.5 1101.31 1080.08 560.44 559.149 578.793 295.742 988.989 1021.58 1011.4 514.295 528.347 522.522 264.698 926.926 930.643 953.448 467.114 460.642 499.061 249.597 936.539 905.48 971.178 442.919 466.284 431.581 217.517 972.508 936.38 952.967 464.876 470.255 473.899 225.402 951.142 860.45 1020.22 454.975 502.252 462.482 239.475 990.493 889.983 892.341 499.982 448.89 397.968 215.5 971.212 918.851 952.039 497.384 541.603 492.015 284.482 978.47 968.262 870.311 487.746 429.608 426.836 212.903 953.143 974.267 1120.3 479.46 548.862 541.426 274.843 958.153 907.791 910.311 431.961 404.281 432.841 204.617 1073.56 959.893 1065.45 451.745 553.872 474.951 227.344 898.261 958.429 951.005 429.113 519.688 484.942 224.401 904.021 970.077 891.058 463.947 378.573 473.487 204.712 525.447 496.59 1001.28 259.235 525.447 496.59 259.235 800.92 381.346 914.165 878.925 455.248 412.825 381.346 199.808 455.248 199.808 859.086 973.32 920.185 427.734 419.574 458.917 213.017 939.224 980.486 950.835 451.913 439.512 514.403 214.717 1049.5 1076.95 992.615 556.503 499.713 466.083 237.196 1058.91 1155.35 1096.88 583.871 549.784 610.865 319.307 1033.18 1088.9 1051.12 537.592 509.126 544.485 264.564 1039.99 1074.35 1093.32 544.982 524.053 544.411 273.029 1046.4 1096.19 1011.58 543.424 515.936 529.943 271.954 1072.74 1119.71 1063.49 571.637 530.46 566.246 271.47 1084.11 1027.53 973.916 532.993 542.282 553.462 300.166 952.919 965.754 1023.6 435.057 541.83 474.073 232.826 974.135 1043.91 895.191 501.58 411.089 491.681 202.23 1035.26 1009.27 1002 516.066 563.046 552.227 299.35 926.139 899.558 955.852 435.363 472.216 457.045 216.716 907.059 846.416 900.705 408.937 453.923 442.513 218.647 964.06 943.139 867.18 462.925 453.136 403.902 190.29 1031.86 1018.7 1024.67 555.686 510.924 539.237 272.635 1003.99 1012.56 1012.92 540.875 520.935 479.458 283.051 975.859 1010.97 995.782 507.288 483.054 533.1 257.824 997.7 985.039 951.323 463.529 492.806 477.869 249.464 987.606 1005.52 989.807 462.561 504.894 507.171 214.064 1000.68 964.382 927.797 471.504 482.712 498.35 248.497 961.414 898.562 1030.12 405.475 517.964 466.032 223.007 853.886 853.451 921.351 390.002 443.451 432.53 182.468 851.138 850.673 866.398 421.467 410.435 420.921 207.533 1012.14 952.478 867.923 480.516 440.703 429.751 213.933 1077.46 1037.04 1083.92 494.806 571.433 522.727 266.583 1017.61 974.024 1100.71 475.83 506.03 514.318 228.224 942.898 956.401 954.032 508.148 511.581 459.706 247.606 943.802 1084.32 892.768 529.316 431.318 496.695 260.541 988.318 1074.29 1005.33 506.13 512.485 587.629 268.774 475.834 486.664 926.042 237.355 475.834 486.664 237.355 998.19 497.579 1003.63 987.642 484.396 501.34 497.579 255.44 484.396 255.44 1011.93 1141.19 1085.3 545.586 500.611 519.235 245.9 1004.23 1173.21 1069.4 528.573 511.323 621.958 299.686 1039.99 1076.75 1091.81 520.445 492.902 551.257 228.887 1089.08 1150.07 1050.79 571.479 547.091 525.498 291.558 1111.26 1173.63 1126.14 551.304 541.992 624.573 279.921 1064.91 1110.34 1149.13 529.373 569.271 549.054 271.383 1028.67 1129.01 1109.71 552.766 495.643 561.282 257.99 964.663 1104.97 1024.06 548.071 533.029 567.724 294.776 913.401 1026.87 909.228 494.542 431.634 537.249 253.295 965.869 1115.18 1001.39 530.697 481.767 489.62 241.246 923.056 1132.29 1062.47 542.328 484.102 625.562 289.451 922.59 1009.38 960.667 493.206 438.954 506.729 252.877 930.419 1038.76 951.338 464.195 483.636 502.653 240.329 860.826 991.258 1014.51 437.479 446.783 536.111 223.866 927.794 1008.53 932.241 480.215 414.044 455.147 213.613 1005.74 983.431 1014.73 463.009 513.75 553.388 266.602 1004.72 988.029 947.509 471.683 491.99 430.044 196.407 971.246 1088.74 1033.04 503.68 512.728 557.985 275.276 943.431 1092.46 979.854 521.511 458.518 530.756 228.404 929.997 1111.42 952.998 542.959 484.913 561.705 293.107 957.242 1036.08 1004.2 492.878 445.085 549.711 249.852 990.058 1008.82 1061.67 493.087 512.157 486.366 243.025 933.863 1045.32 1035.88 463.45 477.901 522.456 250.062 883.182 1013.27 962.023 429.206 455.962 522.864 213.388 939.704 1005.79 884.471 471.961 427.22 490.407 215.818 1107.16 1034.36 982.377 542.238 512.484 515.384 256.144 1037.13 994.03 1078.51 498.194 594.679 518.979 286.095 903.901 948.66 913.522 448.253 442.451 475.052 212.1 954.294 1011.97 923.422 555.008 461.45 473.608 236.154 943.052 1019.84 917.708 568.164 492.844 538.363 318.854 450.208 481.479 948.418 249.309 450.208 481.479 249.309 1074.75 490.064 1061.72 1091.67 468.36 502.291 490.064 228.956 468.36 228.956 1142.76 1219.57 1246.95 595.607 584.688 593.365 273.335 1156.98 1327.55 1180.76 644.642 558.072 626.202 322.272 1102.61 1260.09 1286.91 556.31 598.91 701.35 322.37 1087.84 1205.73 1135.03 578.592 503.696 558.736 233.94 1164.01 1275.6 1208.2 622.323 584.147 646.993 344.652 1193.93 1258.81 1265.25 580.963 579.86 628.611 277.671 1105.1 1214.91 1282.01 576.241 614.069 630.2 303.292 968.622 1199.01 1087.2 556.903 491.028 584.707 272.949 997.212 1073.67 1070.97 532.327 477.594 614.304 283.954 1097.99 1112.95 990.877 584.484 519.618 459.368 248.373 1100.08 1161.37 1154.27 589.963 578.37 653.58 336.111 989.416 1050.88 1062.35 516.176 521.714 507.789 253.852 1035.43 1100.02 996.113 574.569 467.702 543.088 262.324 1085.92 1112.63 1051.7 553.779 567.726 556.934 312.245 1019.17 1105.27 1058.51 528.32 518.198 555.693 241.534 956.496 1019.45 999.552 520.423 500.977 549.576 286.786 975.835 987.313 942.352 516.346 455.519 469.872 233.637 1041.65 1088.19 999.312 585.06 520.316 517.441 282.709 989.421 1084.8 1059.46 570.95 521.336 570.753 302.352 1027.2 1095.92 960.454 568.456 468.085 514.048 268.598 1108.63 1002.4 1132.71 543.2 559.116 581.868 299.858 1107.49 990.128 1039.86 515.736 549.509 420.53 243.341 1064.04 1116.93 1126.18 581.871 557.984 569.597 272.395 963.311 1068.26 1087.19 584.065 506.061 547.334 309.476 927.144 1021.94 945.794 533.83 457.25 520.93 274.589 953.723 987.047 949.116 492.124 469.894 501.013 259.24 954.9 1020.19 968.984 495.836 483.829 486.035 232.884 933.042 1007.04 1083.14 500.407 471.07 534.155 262.952 886.836 995.847 915.462 456.963 461.972 472.886 237.454 923.074 952.774 943.422 451.679 424.864 522.961 219.509 498.21 429.813 902.602 232.17 498.21 429.813 232.17 1263.87 601.609 559.434 601.609 239.404 559.434 601.609 239.404 239.404 239.404 1284.95 623.96 662.265 623.96 662.265 320.029 320.029 1310.69 682.91 622.69 682.91 622.69 303.93 303.93 1319.33 703.776 687.996 703.776 687.996 378.98 378.98 1255.39 627.137 631.33 627.137 631.33 324.796 324.796 1309.44 653.281 624.055 653.281 624.055 302.341 302.341 1353.33 677.848 685.389 677.848 685.389 350.94 350.94 1264.12 638.666 667.942 638.666 667.942 326.908 326.908 1189.55 642.108 596.176 642.108 596.176 311.759 311.759 1064.64 541.345 593.379 541.345 593.379 330.35 330.35 1047.16 528.463 471.259 528.463 471.259 210.995 210.995 1116.53 571.405 575.898 571.405 575.898 317.468 317.468 1069.05 534.701 540.636 534.701 540.636 253.937 253.937 1012.38 525.453 528.411 525.453 528.411 280.764 280.764 1024.29 558.848 483.973 558.848 483.973 244.689 244.689 1038.89 576.95 540.312 576.95 540.312 314.159 314.159 985.408 499.025 498.575 499.025 498.575 262.791 262.791 965.828 470.967 486.833 470.967 486.833 236.235 236.235 1017.12 503.133 478.996 503.133 478.996 234.732 234.732 1030.49 513.851 538.124 513.851 538.124 268.401 268.401 1065.96 527.459 492.369 527.459 492.369 245.45 245.45 1063.94 459.199 573.596 459.199 573.596 282.01 282.01 1058.55 474.392 490.348 474.392 490.348 177.189 177.189 1149.33 535.061 568.201 535.061 568.201 297.203 297.203 1069.68 484.199 581.132 484.199 581.132 237.859 237.859 967.765 488.113 488.543 488.113 488.543 246.341 246.341 964.377 494.923 479.222 494.923 479.222 241.772 241.772 1097.23 524.354 485.155 524.354 485.155 253.151 253.151 1065.56 506.635 612.07 506.635 612.07 271.203 271.203 972.048 538.884 453.49 538.884 453.49 235.432 235.432 922.95 501.095 518.558 501.095 518.558 303.452 303.452 404.392 197.643 404.392 197.643 404.392 197.643 197.643 758.523 339.689 339.689 758.523 339.689 1347.28 589.285 589.285 339.689 758.523 339.689 339.689 589.285 339.689 845.221 418.834 845.221 1563.28 757.995 418.834 845.221 418.834 757.995 418.834 902.256 426.387 902.256 1657.32 805.286 426.387 902.256 426.387 805.286 426.387 893.435 475.87 893.435 1602.17 852.033 475.87 893.435 475.87 852.033 475.87 765.522 417.565 765.522 1403.59 750.141 417.565 765.522 417.565 750.141 417.565 680.378 347.957 680.378 1293.31 653.452 347.957 680.378 347.957 653.452 347.957 716.302 332.421 716.302 1363.6 639.855 332.421 716.302 332.421 639.855 332.421 679.283 383.881 679.283 1326.62 723.745 383.881 679.283 383.881 723.745 383.881 575.897 295.401 575.897 1146.02 602.873 295.401 575.897 295.401 602.873 295.401 570.009 280.496 570.009 1094.26 543.152 280.496 570.009 280.496 543.152 280.496 622.959 289.513 622.959 1154.84 551.112 289.513 622.959 289.513 551.112 289.513 590.421 333.446 590.421 1161.23 603.724 333.446 590.421 333.446 603.724 333.446 528.383 256.974 528.383 1169.83 557.507 256.974 528.383 256.974 557.507 256.974 590.434 271.409 590.434 1239.77 612.319 271.409 590.434 271.409 612.319 271.409 599.162 319.026 599.162 1189.84 627.449 319.026 599.162 319.026 627.449 319.026 594.494 280.136 594.494 1175.2 562.394 280.136 594.494 280.136 562.394 280.136 556.581 314.358 556.581 1122.98 612.804 314.358 556.581 314.358 612.804 314.358 444.088 242.223 444.088 920.693 510.174 242.223 444.088 242.223 510.174 242.223 438.939 201.865 438.939 969.66 410.518 201.865 438.939 201.865 410.518 201.865 479.488 237.073 479.488 1083.27 559.142 237.073 479.488 237.073 559.142 237.073 499.813 242.415 499.813 1013.07 524.133 242.415 499.813 242.415 524.133 242.415 514.474 257.398 514.474 1014.16 488.935 257.398 514.474 257.398 488.935 257.398 481.416 257.077 481.416 1011.83 525.224 257.077 481.416 257.077 525.224 257.077 466.048 224.339 466.048 1020.57 486.609 224.339 466.048 224.339 486.609 224.339 453.919 241.709 453.919 966.616 533.956 241.709 453.919 241.709 533.956 241.709 493.422 212.211 493.422 975.438 432.659 212.211 493.422 212.211 432.659 212.211 484.839 281.211 484.839 967.717 542.779 281.211 484.839 281.211 542.779 281.211 478.015 203.628 478.015 961.608 424.939 203.628 478.015 203.628 424.939 203.628 515.807 274.386 515.807 1059.32 536.669 274.386 515.807 274.386 536.669 274.386 449.356 241.421 449.356 989.811 522.65 241.421 449.356 241.421 522.65 241.421 455.803 207.935 455.803 968.23 467.161 207.935 455.803 207.935 467.161 207.935 247.868 247.868 247.868 501.07 501.07 247.868 247.868 247.868 501.07 247.868 588.756 249.595 1152.1 553.732 553.732 588.756 249.595 249.595 553.732 249.595 718.06 1292.5 598.365 718.06 339.16 598.365 339.16 755.063 1328.01 694.134 755.063 378.899 694.134 378.899 708.739 1304.58 633.874 708.739 376.163 633.874 376.163 638.071 1225.65 670.706 638.071 332.576 670.706 332.576 612.928 1143.17 554.949 612.928 305.495 554.949 305.495 647.297 1187.11 588.221 647.297 307.434 588.221 307.434 647.335 1148.92 598.888 647.335 339.863 598.888 339.863 570.127 1081.55 550.031 570.127 307.472 550.031 307.472 524.255 1057.95 531.514 524.255 262.656 531.514 262.656 531.877 1098.69 526.432 531.877 261.599 526.432 261.599 570.81 1178.53 572.258 570.81 270.278 572.258 270.278 641.443 1247.57 606.269 641.443 300.533 606.269 300.533 649.333 1225.76 641.301 649.333 340.91 641.301 340.91 590.681 1123.84 584.46 590.681 308.423 584.46 308.423 580.704 1089.75 539.38 580.704 282.258 539.38 282.258 566.398 1060.96 550.375 566.398 298.446 550.375 298.446 476.604 941.465 510.589 476.604 267.952 510.589 267.952 530.721 999.669 430.876 530.721 208.653 430.876 208.653 603.786 1149.92 568.793 603.786 322.069 568.793 322.069 513.255 1034.75 581.127 513.255 281.717 581.127 281.717 499.685 1018.38 453.622 499.685 231.538 453.622 231.538 530.417 1093.97 564.759 530.417 268.147 564.759 268.147 554.518 1028.7 529.216 554.518 262.27 529.216 262.27 512.696 948.337 499.479 512.696 292.248 499.479 292.248 482.016 897.671 448.858 482.016 220.448 448.858 220.448 482.878 907.262 448.813 482.878 261.568 448.813 261.568 483.593 980.369 458.449 483.593 221.31 458.449 221.31 543.512 1060.68 521.92 543.512 262.283 521.92 262.283 540.454 1064.16 538.759 540.454 281.229 538.759 281.229 512.427 992.469 525.397 512.427 259.225 525.397 259.225 253.202 467.072 467.072 253.202 253.202 467.072 253.202 563.341 304.136 1005.95 488.12 488.12 563.341 304.136 304.136 488.12 304.136 574.439 1070.66 517.831 574.439 259.204 517.831 259.204 572.945 1051.33 552.833 572.945 315.234 552.833 315.234 595.84 1003.73 498.493 595.84 257.71 498.493 257.71 587.584 1071.06 505.239 587.584 338.13 505.239 338.13 530.242 1076.1 565.821 530.242 249.454 565.821 249.454 539.812 1019 510.281 539.812 280.788 510.281 280.788 501.585 1028.23 508.721 501.585 259.025 508.721 259.025 511.419 985.216 519.51 511.419 242.56 519.51 242.56 533.691 970.193 465.706 533.691 268.859 465.706 268.859 566.813 1075.33 504.487 566.813 264.833 504.487 264.833 607.717 1120.17 570.839 607.717 301.98 570.839 301.98 606.128 1145.88 549.329 606.128 305.737 549.329 305.737 576.428 1132.03 596.554 576.428 300.391 596.554 300.391 533.159 1008.32 535.474 533.159 276.037 535.474 276.037 509.051 912.899 472.847 509.051 257.123 472.847 257.123 494.567 946.097 440.052 494.567 251.929 440.052 251.929 464.861 991.917 506.045 464.861 242.638 506.045 242.638 468.947 943.641 485.871 468.947 222.223 485.871 222.223 546.134 1005.95 457.77 546.134 246.725 457.77 246.725 521.494 1015.11 548.177 521.494 299.41 548.177 299.41 518.696 1026.33 466.938 518.696 222.084 466.938 222.084 563.557 1059.72 559.389 563.557 296.612 559.389 296.612 474.178 964.689 500.336 474.178 266.946 500.336 266.946 435.641 909.468 464.354 435.641 207.232 464.354 207.232 415.655 906.379 445.115 415.655 228.409 445.115 228.409 424.384 898.067 461.264 424.384 187.246 461.264 187.246 496.775 1022.97 436.803 496.775 237.139 436.803 237.139 517.166 1138.98 586.164 517.166 259.636 586.164 259.636 523.701 992.849 552.817 523.701 257.53 552.817 257.53 480.041 920.115 440.032 480.041 266.172 440.032 266.172 213.87 480.082 480.082 213.87 213.87 480.082 213.87 442.61 183.984 830.705 365.521 365.521 442.61 183.984 183.984 365.521 183.984 496.225 927.577 465.183 496.225 258.627 465.183 258.627 478.381 965.692 462.393 478.381 237.598 462.393 237.598 407.891 900.885 503.299 407.891 240.782 503.299 240.782 483.476 958.514 397.586 483.476 167.109 397.586 167.109 545.86 1041.45 560.928 545.86 316.367 560.928 316.367 479.19 974.196 480.518 479.19 229.493 480.518 229.493 526.646 1029.62 493.678 526.646 249.696 493.678 249.696 473.797 974.902 535.939 473.797 276.95 535.939 276.95 436.501 987.621 438.963 436.501 196.847 438.963 196.847 508.513 1026.37 548.658 508.513 239.654 548.658 239.654 512.451 985.006 477.717 512.451 268.859 477.717 268.859 539.755 1058.95 507.289 539.755 243.592 507.289 243.592 555.6 1046.38 551.663 555.6 296.163 551.663 296.163 475.161 973.283 494.713 475.161 259.437 494.713 259.437 403.848 904.982 478.57 403.848 215.724 478.57 215.724 451.531 927.703 426.412 451.531 188.124 426.412 188.124 527.056 990.17 501.291 527.056 263.407 501.291 263.407 474.694 943.265 488.879 474.694 263.649 488.879 263.649 459.812 993.983 454.386 459.812 211.045 454.386 211.045 493.621 1018.67 539.597 493.621 248.767 539.597 248.767 507.631 1036.8 479.069 507.631 244.854 479.069 244.854 496.168 1052.11 557.734 496.168 262.777 557.734 262.777 490.512 954.396 494.372 490.512 233.39 494.372 233.39 473.827 903.498 460.024 473.827 257.122 460.024 257.122 490.724 1022.34 443.475 490.724 216.706 443.475 216.706 473.683 1056.34 578.869 473.683 274.019 578.869 274.019 526.192 1067.97 477.47 526.192 199.664 477.47 199.664 621.814 1056.56 590.502 621.814 326.528 590.502 326.528 469.147 883.634 466.063 469.147 295.287 466.063 295.287 440.073 922.262 417.571 440.073 173.861 417.571 173.861 266.213 504.691 504.691 266.213 266.213 504.691 266.213 388.094 181.538 884.944 423.676 423.676 388.094 181.538 181.538 423.676 181.538 431.352 897.7 461.268 431.352 206.557 461.268 206.557 487.312 962.964 436.432 487.312 224.795 436.432 224.795 492.993 1012.54 526.532 492.993 262.517 526.532 262.517 475.039 992.643 486.01 475.039 230.477 486.01 230.477 495.587 1055.55 506.633 495.587 244.562 506.633 244.562 495.007 1030.55 548.913 495.007 251.025 548.913 251.025 502.971 978.878 481.635 502.971 243.982 481.635 243.982 501.105 917.697 497.243 501.105 258.989 497.243 258.989 551.119 969.978 420.454 551.119 242.116 420.454 242.116 517.862 953.034 549.524 517.862 309.004 549.524 309.004 472.555 853.283 403.51 472.555 208.858 403.51 208.858 519.196 948.58 449.773 519.196 263.696 449.773 263.696 490.776 956.999 498.807 490.776 255.5 498.807 255.5 498.122 921.469 458.192 498.122 235.276 458.192 235.276 501.135 948.714 463.277 501.135 262.846 463.277 262.846 476.172 1018.9 485.437 476.172 238.288 485.437 238.288 463.114 996.149 533.467 463.114 237.883 533.467 237.883 468.571 936.137 462.682 468.571 225.23 462.682 225.23 534.171 956.091 473.455 534.171 243.341 473.455 243.341 525.045 912.083 482.636 525.045 290.83 482.636 290.83 529.172 993.536 429.447 529.172 234.215 429.447 234.215 555.939 1052.91 564.088 555.939 294.957 564.088 294.957 463.884 934.298 488.821 463.884 260.982 488.821 260.982 429.671 883.648 445.476 429.671 202.902 445.476 202.902 531.62 999.362 438.172 531.62 226.769 438.172 226.769 582.657 1147.58 561.191 582.657 304.851 561.191 304.851 541.781 1080.72 586.391 541.781 277.806 586.391 277.806 434.75 890.398 494.326 434.75 263.974 494.326 263.974 414.487 813.772 396.073 414.487 170.776 396.073 170.776 482.189 857.077 417.7 482.189 243.71 417.7 243.71 238.478 439.377 439.377 238.478 238.478 439.377 238.478 496.849 242.138 1069.31 503.246 503.246 496.849 242.138 242.138 503.246 242.138 466.348 1013.5 566.064 466.348 254.711 566.064 254.711 475.652 987.992 447.437 475.652 211.637 447.437 211.637 519.548 1065.84 540.555 519.548 264.015 540.555 264.015 517.604 1026.86 525.289 517.604 255.533 525.289 255.533 559.959 1101.64 501.566 559.959 262.071 501.566 262.071 535.542 1148.51 600.078 535.542 297.889 600.078 297.889 475.907 1004.76 548.43 475.907 237.653 548.43 237.653 416.592 828.312 456.333 416.592 238.254 456.333 238.254 418.859 883.744 371.978 418.859 178.338 371.978 178.338 435.172 948.676 511.765 435.172 240.52 511.765 240.52 380.728 890.848 436.91 380.728 194.651 436.91 194.651 429.384 902.623 453.938 429.384 186.077 453.938 186.077 466.224 927.082 448.685 466.224 243.307 448.685 243.307 423.347 955.492 478.397 423.347 222.916 478.397 222.916 447.58 938.434 477.094 447.58 200.431 477.094 200.431 542.732 978.805 461.34 542.732 247.149 461.34 247.149 533.035 992.524 517.465 533.035 295.583 517.465 295.583 467.566 924.157 475.059 467.566 237.452 475.059 237.452 421.92 840.391 449.098 421.92 230.114 449.098 230.114 387.038 845.783 391.293 387.038 191.806 391.293 191.806 464.364 1029.79 454.49 464.364 195.232 454.49 195.232 496.971 1088.73 575.299 496.971 269.132 575.299 269.132 470.413 952.587 513.428 470.413 227.839 513.428 227.839 453.977 833.223 439.159 453.977 242.574 439.159 242.574 467.743 861.057 394.063 467.743 211.403 394.063 211.403 564.925 1026.52 466.993 564.925 256.34 466.993 256.34 538.936 998 559.53 538.936 308.585 559.53 308.585 455.648 888.284 438.47 455.648 230.352 438.47 230.352 399.286 829.158 449.814 399.286 225.297 449.814 225.297 374.888 846.283 379.344 374.888 173.989 379.344 173.989 200.899 466.939 466.939 200.899 200.899 466.939 200.899 572.461 261.108 1276.9 623.312 623.312 572.461 261.108 261.108 623.312 261.108 547.153 1208.15 653.588 547.153 311.353 653.588 311.353 512.34 1140.12 554.56 512.34 235.8 554.56 235.8 546.296 1161.85 585.556 546.296 276.54 585.556 276.54 509.252 1137.5 576.29 509.252 269.756 576.29 269.756 541.685 1197.85 561.209 541.685 239.495 561.209 239.495 612.966 1288.45 636.638 612.966 302.189 636.638 302.189 528.857 1154.31 651.812 528.857 310.777 651.812 310.777 411.72 959.166 502.497 411.72 218.08 502.497 218.08 464.885 988.178 456.669 464.885 193.64 456.669 193.64 513.504 1032.2 531.509 513.504 271.245 531.509 271.245 510.12 1055.25 500.689 510.12 242.259 500.689 242.259 473.239 1007.58 554.56 473.239 267.862 554.56 267.862 460.859 947.79 453.024 460.859 205.378 453.024 205.378 532.144 997.582 494.765 532.144 255.481 494.765 255.481 490.854 952.792 502.817 490.854 276.663 502.817 276.663 436.073 922.455 449.975 436.073 214.191 449.975 214.191 459.489 954.351 472.48 459.489 221.882 472.48 221.882 456.591 970.578 481.871 456.591 237.607 481.871 237.607 418.471 935.113 488.707 418.471 218.984 488.707 218.984 458.745 997.251 446.406 458.745 199.487 446.406 199.487 565.426 1170.17 550.845 565.426 259.258 550.845 259.258 591.756 1175.91 619.327 591.756 306.168 619.327 306.168 482.174 1096.45 556.587 482.174 285.589 556.587 285.589 379.246 964.722 539.859 379.246 196.585 539.859 196.585 393.314 872.966 424.864 393.314 182.661 424.864 182.661 461.599 931.052 448.103 461.599 210.653 448.103 210.653 459.064 1031.94 482.95 459.064 250.945 482.95 250.945 432.635 991.561 548.986 432.635 208.118 548.986 208.118 429.873 863.036 442.575 429.873 224.517 442.575 224.517 471.395 893.25 420.461 471.395 205.355 420.461 205.355 266.04 472.789 472.789 266.04 266.04 472.789 266.04 704.439 362.204 704.439 362.204 362.204 704.439 362.204 362.204 362.204 362.204 660.995 660.995 342.235 660.995 342.235 342.235 342.235 627.775 627.775 318.76 627.775 318.76 318.76 318.76 615.55 615.55 309.016 615.55 309.016 309.016 309.016 628.248 628.248 306.534 628.248 306.534 306.534 306.534 656.163 656.163 321.714 656.163 321.714 321.714 321.714 675.484 675.484 334.449 675.484 334.449 334.449 334.449 625.453 625.453 341.035 625.453 341.035 341.035 341.035 547.447 547.447 284.418 547.447 284.418 284.418 284.418 523.293 523.293 263.029 523.293 263.029 263.029 263.029 518.694 518.694 260.264 518.694 260.264 260.264 260.264 545.129 545.129 258.43 545.129 258.43 258.43 258.43 534.346 534.346 286.699 534.346 286.699 286.699 286.699 486.931 486.931 247.647 486.931 247.647 247.647 247.647 465.438 465.438 239.284 465.438 239.284 239.284 239.284 461.938 461.938 226.153 461.938 226.153 226.153 226.153 486.382 486.382 235.784 486.382 235.784 235.784 235.784 494.862 494.862 250.598 494.862 250.598 250.598 250.598 513.987 513.987 244.264 513.987 244.264 244.264 244.264 516.642 516.642 269.723 516.642 269.723 269.723 269.723 538.505 538.505 246.919 538.505 246.919 246.919 246.919 604.746 604.746 291.587 604.746 291.587 291.587 291.587 584.157 584.157 313.159 584.157 313.159 313.159 313.159 614.272 614.272 270.998 614.272 270.998 270.998 270.998 585.477 585.477 343.274 585.477 343.274 343.274 343.274 479.652 479.652 242.203 479.652 242.203 242.203 242.203 469.454 469.454 237.45 469.454 237.45 237.45 237.45 572.872 572.872 232.004 572.872 232.004 232.004 232.004 558.925 558.925 340.867 558.925 340.867 340.867 340.867 433.164 433.164 218.058 433.164 218.058 218.058 218.058 421.855 421.855 215.106 421.855 215.106 215.106 215.106 206.75 206.75 206.75 206.75 206.75 206.75 206.75 
CELL_DATA 2048
SCALARS stress float 1
LOOKUP_TABLE default
322.873 334.709 345.14 390.49 307.601 257.494 258.147 377.147 248.805 252.73 322.526 273.853 217.827 290.261 242.748 300.241 278.787 227.129 271.71 226.424 323.344 253.704 278.549 195.821 241.478 215.139 167.623 212.162 177.599 280.954 211.008 229.783 287.763 249.688 290.061 228.453 225.031 213.513 322.177 203.91 269.836 269.979 215.762 183.098 285.346 225.76 236.087 245.09 296.197 274.666 168.141 253.96 268.746 214.102 261.602 257.471 277.807 267.575 245.569 222.07 240.445 182.676 214.823 316.204 268.822 201.848 248.118 211.941 217.762 262.908 221.12 253.584 212.648 226.238 298.685 240.587 232.859 231.437 257.554 203.577 303.27 259.344 249.18 255.57 210.851 292.245 263.722 222.479 227.242 258.308 227.744 232.297 236.19 264.991 301.544 288.712 221.715 231.583 230.221 231.743 245.219 255.398 279.424 238.009 207.267 217.918 233.787 250.926 278.476 260.561 217.594 210.715 221.772 241.418 244.813 273.382 269.205 250.706 219.914 232.987 296.559 238.538 233.473 240.831 234.475 219.569 249.766 325.163 237.569 266.812 278.549 234.465 261.737 318.141 274.868 221.655 257.751 244.62 264.668 184.198 288.045 270.505 307.656 244.7 278.388 217.547 206.586 296.055 285.034 270.688 213.664 225.423 184.513 221.588 196.862 221.682 188.844 238.725 233.134 248.157 241.439 307.64 333.7 301.733 310.328 372.406 326.386 333.554 222.352 299.852 288.336 244.682 282.611 259.973 211.699 266.624 317.668 311.078 286.057 263.286 268.313 231.303 308.409 217.263 227.514 237.92 244.509 207.511 202.52 232.018 275.331 288.169 288.306 367.848 347.207 297.218 347.722 328.113 348.564 295.145 322.978 359.37 303.285 358.579 264.862 258.453 338.39 263.643 252.661 300.261 262.488 253.305 223.72 207.232 209.84 252.873 175.216 278.222 255.466 248.003 237.183 219.296 256.071 336.637 399.052 403.88 366.96 405.945 409.306 417.228 336.44 335.586 401.737 284.375 314.724 330.493 329.347 316.252 276.693 298.656 332.345 254.535 242.641 243.044 196.424 233.573 235.784 223.496 295.766 267.002 250.836 266.045 316.007 293.124 234.926 302.095 306.324 430.792 364.178 377.142 361.951 364.387 348.685 279.414 358.968 271.664 268.803 276.245 331.764 212.57 268.867 314.035 236.859 260.17 186.228 227.551 204.965 258.293 313.412 249.658 195.624 254.972 234.544 196.702 232.62 221.091 288.593 277.835 226.579 340.414 237.203 297.018 288.013 303.614 239.943 299.28 251.09 228.389 289.319 209.128 283.724 228.702 229.381 197.16 237.352 236.744 295.408 250.124 228.724 222.939 240.718 233.708 252.994 234.797 284.908 260.004 243.189 236.353 219.785 299.235 170.292 256.502 255.421 291.948 166.782 250.602 274.291 221.336 284.829 244.19 279.443 235.572 312.28 281.465 293.888 293.119 262.654 183.44 177.902 240.093 221.264 212.125 223.798 298.671 227.754 187.334 213.838 194.634 228.917 321.646 218.09 297.341 137.709 193.374 247.957 224.117 178.3 264.441 239.537 298.384 261.278 234.479 201.732 244.435 234.196 282.54 191.557 189.17 241.473 239.677 205.916 259.765 263.258 228.503 203.659 257.593 190.776 253.71 203.632 251.875 218.002 200.443 244.763 318.789 211.725 283.586 246.575 232.72 258.239 220.407 259.214 265.995 228.412 249.893 239.719 215.545 292.663 310.831 236.122 278.857 205.512 283.77 264.513 230.173 249.885 273.787 215.571 241.205 238.619 271.552 270.174 239.321 232.786 226.513 297.316 294.101 279.413 313.448 317.026 228.572 377.048 354.488 280.291 308.991 314.393 261.661 253.436 298.184 249.423 230.177 258.999 291.804 230.365 236.601 201.31 237.579 287.119 225.969 259.257 247.035 222.747 264.493 227.876 207.545 223.546 299.53 234.589 328.84 338.316 417.822 343.152 309.807 307.906 344.743 343.54 363.812 381.003 271.559 342.292 334.838 263.338 222.134 285.589 259.001 278.863 272.273 242.021 209.89 208.604 266.302 278.394 256.29 245.485 242.296 292.818 243.259 272.908 211.804 220.466 323.039 379.034 383.13 378.846 368.304 367.247 357.059 287.38 273.983 323.64 370.774 319.803 317.097 339.914 316.251 233.902 266.457 292.254 186.294 234.041 218.045 242.987 233.844 274.885 292.108 260.957 233.081 204.358 272.778 207.488 279.692 265.418 260.809 321.903 399.05 318.551 306.227 355.135 321.004 374.432 316.102 368.264 313.284 303.506 317.593 252.495 321.977 312.849 255.615 273.244 310.787 288.431 263.013 306.39 246.587 293.454 229.484 235.197 294.198 244.87 273.142 208.212 250.688 222.622 231.212 254.935 326.241 336.555 291.801 274.597 249.155 275.502 268.432 319.093 294.122 270.437 285.836 227.565 295.937 289.807 207.724 309.398 262.787 280.302 279.18 255.297 214.675 254.76 221.594 275.682 236.377 228.114 200.467 263.844 228.347 226.007 255.421 205.885 255.005 314.246 315.557 255.277 255.682 241.847 298.636 224.451 230.833 210.919 313.203 262.529 191.487 221.927 248.515 220.231 251.957 220.407 205.193 260.284 269.703 238.794 249.475 261.189 182.898 222.638 277.011 215.119 276.683 247.938 234.1 219.314 222.452 274.648 239.789 229.545 314.274 185.006 248.348 188.951 295.824 211.078 217.983 205.352 185.437 207.832 227.137 330.607 228.447 275.811 187.386 291.625 284.771 244.746 192.126 257.453 284.289 242.656 301.941 246.033 278.522 198.36 280.016 167.747 253.621 217.893 237.271 299.89 272.906 271.467 218.043 338.871 227.387 248.052 276.091 174.99 243.474 208.65 252.392 274.035 177.156 205.14 212.381 233.903 227.984 187.326 181.283 248.336 255.409 171.536 202.41 193.274 226.074 263.597 301.508 230.938 328.121 353.607 291.957 339.541 286.256 231.972 230.595 236.473 243.492 270.577 240.62 238.523 286.561 315.699 249.332 277.985 233.656 250.832 255.789 207.713 308.323 199.961 285.026 256.319 213.228 262.543 328.267 208.459 201.131 246.885 291.585 308.163 366.269 359.412 286.108 305.421 312.892 261.582 276.653 291.065 262.72 242.129 314.859 202.315 273.596 235.164 289.691 239.401 252.532 287.355 226.827 241.644 238.54 232.694 219.476 230.534 256.274 200.578 318.321 255.499 203.747 212.68 265.026 349.315 425.044 398.646 348.783 396.675 344.065 323.071 336.118 350.549 302.275 257.343 266.456 266.9 336.498 294.519 302.626 278.129 203.596 268.844 255.028 322.248 244.866 287.969 224.969 266.776 239.245 277.719 234.529 290.208 280.156 226.981 260.534 311.464 372.508 371.015 423.991 403.181 395.811 326.251 333.343 366.5 312.616 256.481 346.752 272.91 274.466 239.288 212.145 336.222 264.295 231.345 229.323 194.41 252.537 172.536 220.945 279.331 281.044 320.956 214.423 218.423 247.654 265.841 230.872 249.734 304.187 292.962 264.547 329.537 249.574 378.355 353.682 307.2 295.453 264.17 238.767 253.153 270.753 206.16 258.603 234.371 293.714 281.632 375.82 219.183 212.423 268.153 226.648 184.259 320.549 227.697 229.756 255.146 199.48 168.91 224.478 204.683 273.281 234.931 253.912 317.799 272.579 255.478 261.467 311.224 286.327 183.515 276.013 243.354 299.529 318.445 245.504 212.148 219.214 304.804 242.805 272.25 204.241 222.898 155.208 225.037 221.225 230.911 265.356 187.61 217.903 187.877 209.462 236.784 135.403 261.646 218.208 207.22 299.861 319.781 185.451 201.274 208.396 169.136 193.518 237.116 175.539 267.152 257.079 245.309 204.406 275.601 190.399 213.295 243.878 232.541 214.633 206.002 250.415 241.402 236.238 276.621 200.282 247.846 180.842 223.36 278.272 245.943 266.894 183.593 274.138 268.65 221.337 285.017 261.414 270.865 279.899 266.772 216.961 240.813 305.202 267.045 293.371 247.256 287.961 255.249 212.685 229.424 238.493 216.224 240.152 242.827 278.464 291.287 185.666 266.276 224.78 199.524 257.765 230.193 217.672 249.937 291.311 239.041 248.309 236.639 258.108 204.091 219.238 270.156 231.752 255.203 232.267 239.44 232.778 262.129 268.705 312.43 222.226 253.108 199.897 232.046 210.797 214.24 310.633 258.147 226.6 238.717 269.568 200.025 344.049 386.918 390.072 313.813 341.893 265.859 248.875 285.546 256.134 333.971 337.53 245.923 314.588 289.534 273.611 296.328 297.622 274.138 238.859 214.239 248.837 239.092 200.626 282.501 218.007 190.776 212.311 216.266 286.875 216.113 242.579 322.399 363.456 349.603 353.947 295.247 354.07 315.274 316.012 304.077 311.631 342.74 320.624 291.175 308.72 245.813 291.32 217.147 257.504 270.926 273.491 252.071 266.908 249.303 213.576 223.999 179.892 246.919 238.964 208.794 272.006 272.779 243.41 348.964 355.495 340.469 345.979 393.257 329.962 380.092 347.188 312.064 357.512 306.021 307.93 281.29 267.351 344.984 263.198 260.314 275.736 364.358 320.284 261.072 272.094 231.074 219.969 202.583 251.658 243.543 265.01 244.247 212.303 235.083 234.434 209.526 310.33 358.437 296.586 270.587 316.018 353.451 386.169 305.079 211.659 279.428 272.652 268.119 259.139 283.9 278.193 306.276 321.617 257.89 270.38 223.965 297.619 218.983 266.415 169.952 214.27 239.922 190.213 234.69 237.192 273.826 238.446 212.959 256.275 305.355 366.914 234.103 253.363 238.51 278.268 309.423 322.089 201.049 233.297 258.569 235.246 237.607 204.639 223.379 246.453 234.812 212.662 259.507 224.81 214.562 242.058 264.846 240.359 252.256 296.834 225.13 235.609 285.043 264.64 234.577 234.968 279.975 240.415 272.427 221.031 200.008 250.632 229.933 216.732 233.724 317.071 225.708 217.296 267.972 218.021 275.675 228.867 274.846 246.304 249.357 265.949 191.09 241.35 207.961 262.727 248.567 212.052 237.02 259.475 255.352 319.6 192.301 269.062 277.266 282.762 279.567 201.258 263.367 274.592 268.655 256.089 249.444 261.601 264.483 215.448 252.499 251.561 257.836 231.041 268.529 274.783 193.923 226.785 211.335 233.844 207.811 213.22 209.738 180.804 242.565 251.594 246.25 289.834 252.108 326.594 306.138 324.299 315.555 221.885 230.153 250.063 264.477 240.283 302.581 274.978 208.576 265.931 329.258 280.032 276.419 268.097 236.234 203.555 251.441 248.122 327.413 225.786 230.981 266.983 233.657 229.431 228.746 245.75 235.893 231.671 223.144 337.128 313.292 366.113 315.036 359.592 345.41 295.671 252.368 225.011 338.186 247.592 226.823 258.036 282.931 272.549 257.397 282.059 242.527 231.839 229.313 250.306 223.512 263.182 250.703 237.501 284.085 229.746 216.731 199.088 263.076 219.116 309.848 377.439 383.064 413.337 318.814 292.695 311.596 338.119 350.865 304.248 284.379 243.6 278.161 242.503 338.532 234.54 276.702 253.869 246.972 316.468 238.702 235.139 261.395 318.468 285.805 244.056 223.034 300.846 241.369 257.871 195.721 184.941 360.477 377.579 329.285 364.47 327.63 355.13 335.318 331.048 350.278 316.041 343.518 290.399 247.204 306.981 380.06 318.974 227.318 292.453 239.356 295.687 233.762 238.403 243.342 253.573 213.9 268.478 225.036 240.976 190.586 284.795 209.471 224.688 263.415 377.659 345.491 366.698 338.318 270.262 317.897 335.268 361.591 329.326 399.799 274.925 287.247 342.302 279.394 211.5 247.69 232.335 228.298 273.139 223.927 272.44 196.006 233.302 261.849 207.777 260.74 254.674 206.646 217.176 314.794 189.04 174.043 284.786 243.721 248.272 263.223 250.909 235.171 311.408 259.968 256.064 296.873 283.208 293.586 269.053 202.469 315.668 283.49 240.324 242.131 231.245 238.791 297.394 199.519 234.646 255.603 220.115 228.102 308.545 226.683 259.136 231.706 202.312 195.459 313.78 260.153 307.99 318.041 265.498 273.494 275.962 189.45 214.387 238.094 339.148 301.998 256.814 306.234 298.13 296.523 238.897 208.297 193.434 291.031 244.762 258.898 176.42 202.456 221.986 235.473 223.717 216.132 176.636 240.705 287.131 220.007 261.937 225.936 245.405 256.519 293.626 313.144 307.901 230.211 214.552 263.739 219.815 243.37 268.4 192.739 251.071 291.688 179.231 188.896 218.34 193.453 250.275 218.805 260.792 258.446 210.698 245.278 203.472 202.073 207.477 234.715 170.36 224.409 290.634 222.383 301.948 231.287 211.252 279.765 190.307 294.09 216.564 248.804 247.485 227.116 230.723 258.501 220.082 273.724 212.374 205.183 252.164 251.998 178.434 237.595 170.472 219.647 168.808 258.396 257.504 237.097 245.814 268.567 283.51 232.932 256.799 283.631 305.06 311.252 314.837 241.587 372.215 253.533 269.775 272.341 258.455 293.837 253.473 243.687 223.681 264.968 244.33 238.157 308.694 216.693 254.833 186.181 259.287 253.034 243.503 214.344 187.806 276.681 271.556 240.839 199.17 280.905 385.742 285.988 349.543 435.827 327.073 335.869 340.57 381.454 302.043 311.939 326.932 252.171 212.283 275.514 322.654 207.27 239.678 265.715 239.133 264.822 269.312 207.91 296.767 228.544 237.42 199.551 284.168 230.36 301.408 192.472 218.434 357.101 405.926 376.62 412.844 306.776 385.955 366.014 353.945 411.853 280.634 317.658 370.685 396.919 273.051 277.018 289.523 232.143 295.792 249.705 238.73 218.304 248.789 276.472 261.332 262.979 244.384 212.583 227.176 239.56 245.473 218.768 221.195 329.449 349.283 399.806 358.212 345.541 337.345 308.706 313.599 274.244 364.869 265.501 298.67 295.075 298.657 250.556 327.337 270.425 316.09 314.961 248.446 283.486 253.616 199.642 288.855 271.861 322.742 276.27 248.42 250.545 171.555 313.411 168.727 232.112 268.588 348.331 245.243 231.635 299.135 264.832 293.901 310.923 235.805 189.949 272.288 256.698 276.745 249.368 273.895 288.872 232.51 251.624 310.286 299.453 201.563 227.745 328.126 310.541 221.578 216.377 235.704 275.14 234.636 219.565 236.994 173.62 276.093 216.215 263.294 217.707 279.831 256.943 327.95 174.997 259.108 257.514 361.247 217.263 215.385 243.255 218.052 213.551 295.742 264.698 249.597 217.517 225.402 239.475 215.5 284.482 212.903 274.843 204.617 227.344 224.401 204.712 259.235 199.808 213.017 214.717 237.196 319.307 264.564 273.029 271.954 271.47 300.166 232.826 202.23 299.35 216.716 218.647 190.29 272.635 283.051 257.824 249.464 214.064 248.497 223.007 182.468 207.533 213.933 266.583 228.224 247.606 260.541 268.774 237.355 255.44 245.9 299.686 228.887 291.558 279.921 271.383 257.99 294.776 253.295 241.246 289.451 252.877 240.329 223.866 213.613 266.602 196.407 275.276 228.404 293.107 249.852 243.025 250.062 213.388 215.818 256.144 286.095 212.1 236.154 318.854 249.309 228.956 273.335 322.272 322.37 233.94 344.652 277.671 303.292 272.949 283.954 248.373 336.111 253.852 262.324 312.245 241.534 286.786 233.637 282.709 302.352 268.598 299.858 243.341 272.395 309.476 274.589 259.24 232.884 262.952 237.454 219.509 232.17 239.404 320.029 303.93 378.98 324.796 302.341 350.94 326.908 311.759 330.35 210.995 317.468 253.937 280.764 244.689 314.159 262.791 236.235 234.732 268.401 245.45 282.01 177.189 297.203 237.859 246.341 241.772 253.151 271.203 235.432 303.452 197.643 339.689 418.834 426.387 475.87 417.565 347.957 332.421 383.881 295.401 280.496 289.513 333.446 256.974 271.409 319.026 280.136 314.358 242.223 201.865 237.073 242.415 257.398 257.077 224.339 241.709 212.211 281.211 203.628 274.386 241.421 207.935 247.868 249.595 339.16 378.899 376.163 332.576 305.495 307.434 339.863 307.472 262.656 261.599 270.278 300.533 340.91 308.423 282.258 298.446 267.952 208.653 322.069 281.717 231.538 268.147 262.27 292.248 220.448 261.568 221.31 262.283 281.229 259.225 253.202 304.136 259.204 315.234 257.71 338.13 249.454 280.788 259.025 242.56 268.859 264.833 301.98 305.737 300.391 276.037 257.123 251.929 242.638 222.223 246.725 299.41 222.084 296.612 266.946 207.232 228.409 187.246 237.139 259.636 257.53 266.172 213.87 183.984 258.627 237.598 240.782 167.109 316.367 229.493 249.696 276.95 196.847 239.654 268.859 243.592 296.163 259.437 215.724 188.124 263.407 263.649 211.045 248.767 244.854 262.777 233.39 257.122 216.706 274.019 199.664 326.528 295.287 173.861 266.213 181.538 206.557 224.795 262.517 230.477 244.562 251.025 243.982 258.989 242.116 309.004 208.858 263.696 255.5 235.276 262.846 238.288 237.883 225.23 243.341 290.83 234.215 294.957 260.982 202.902 226.769 304.851 277.806 263.974 170.776 243.71 238.478 242.138 254.711 211.637 264.015 255.533 262.071 297.889 237.653 238.254 178.338 240.52 194.651 186.077 243.307 222.916 200.431 247.149 295.583 237.452 230.114 191.806 195.232 269.132 227.839 242.574 211.403 256.34 308.585 230.352 225.297 173.989 200.899 261.108 311.353 235.8 276.54 269.756 239.495 302.189 310.777 218.08 193.64 271.245 242.259 267.862 205.378 255.481 276.663 214.191 221.882 237.607 218.984 199.487 259.258 306.168 285.589 196.585 182.661 210.653 250.945 208.118 224.517 205.355 266.04 362.204 342.235 318.76 309.016 306.534 321.714 334.449 341.035 284.418 263.029 260.264 258.43 286.699 247.647 239.284 226.153 235.784 250.598 244.264 269.723 246.919 291.587 313.159 270.998 343.274 242.203 237.45 232.004 340.867 218.058 215.106 206.75 
SCALARS volume float 1
LOOKUP_TABLE default
14.6845 14.7549 14.7487 14.7509 14.7519 14.7535 14.755 14.7565 14.7581 14.7595 14.7609 14.7623 14.7636 14.7648 14.7658 14.7669 14.7678 14.7687 14.7695 14.7703 14.7709 14.7714 14.7719 14.7724 14.7725 14.773 14.7732 14.7727 14.7728 14.7746 14.7833 14.7857 14.72 14.7569 14.7603 14.7605 14.7606 14.7611 14.7618 14.7627 14.7637 14.7647 14.7656 14.7665 14.7673 14.7682 14.7689 14.7695 14.7702 14.7708 14.7713 14.7717 14.7721 14.7725 14.7727 14.7729 14.7731 14.7733 14.7735 14.7733 14.7755 14.7783 14.776 14.7639 14.7488 14.7663 14.7681 14.7684 14.7681 14.7682 14.7684 14.7689 14.7692 14.7699 14.7703 14.7709 14.7713 14.7718 14.7721 14.7725 14.7728 14.7731 14.7734 14.7736 14.7737 14.7739 14.7741 14.7741 14.7738 14.7739 14.7745 14.7749 14.771 14.775 14.7779 14.7874 14.7774 14.7746 14.7756 14.7754 14.7751 14.7748 14.7748 14.7748 14.7749 14.775 14.7752 14.7753 14.7754 14.7755 14.7755 14.7756 14.7756 14.7756 14.7755 14.7755 14.7754 14.7754 14.7751 14.7748 14.775 14.7753 14.7734 14.7712 14.776 14.7834 14.7745 14.7734 14.8052 14.7826 14.7826 14.7819 14.7815 14.7811 14.7808 14.7805 14.7803 14.7799 14.7798 14.7795 14.7794 14.779 14.7789 14.7785 14.7785 14.7781 14.7779 14.7776 14.7774 14.777 14.777 14.7766 14.7758 14.7746 14.7769 14.7773 14.7691 14.7657 14.7863 14.8028 14.8339 14.7905 14.7896 14.7882 14.788 14.7873 14.7869 14.7862 14.7857 14.7851 14.7846 14.7841 14.7834 14.7833 14.7824 14.7825 14.7815 14.7818 14.7808 14.781 14.7801 14.7801 14.7793 14.7788 14.7788 14.778 14.7764 14.7716 14.7773 14.7794 14.7721 14.7398 14.8651 14.7991 14.796 14.795 14.7948 14.7939 14.7934 14.7921 14.7917 14.7903 14.7899 14.7886 14.7881 14.787 14.7863 14.7856 14.7846 14.7841 14.783 14.7826 14.7815 14.7811 14.78 14.7796 14.7782 14.777 14.7782 14.7776 14.7746 14.7668 14.8005 14.8303 14.9152 14.797 14.804 14.8017 14.8016 14.7999 14.7992 14.7969 14.7963 14.7939 14.7933 14.791 14.7905 14.7884 14.7879 14.7863 14.7856 14.7843 14.7836 14.7826 14.7818 14.781 14.7802 14.7795 14.7785 14.778 14.7766 14.7742 14.7752 14.7737 14.7373 14.748 14.6933 14.7383 14.7419 14.7458 14.7484 14.7508 14.7529 14.7548 14.7566 14.7582 14.7597 14.7612 14.7625 14.7638 14.765 14.7662 14.7672 14.7681 14.769 14.7698 14.7705 14.7711 14.7717 14.772 14.7727 14.7727 14.773 14.7732 14.7747 14.7737 14.7745 14.7805 14.7282 14.7394 14.7514 14.755 14.7568 14.7583 14.7596 14.7609 14.7621 14.7632 14.7643 14.7653 14.7663 14.7672 14.768 14.7688 14.7695 14.7702 14.7707 14.7712 14.7717 14.7721 14.7724 14.7727 14.773 14.7731 14.7736 14.7733 14.774 14.7743 14.7725 14.7676 14.751 14.756 14.7612 14.7638 14.7649 14.7656 14.7663 14.767 14.7676 14.7683 14.769 14.7696 14.7702 14.7707 14.7711 14.7716 14.772 14.7722 14.7726 14.7728 14.7731 14.7732 14.7733 14.7734 14.7737 14.7735 14.7732 14.773 14.7745 14.7732 14.7636 14.7689 14.7741 14.7724 14.7723 14.7725 14.7726 14.7726 14.7729 14.7729 14.7733 14.7733 14.7737 14.7736 14.7739 14.7739 14.774 14.774 14.7741 14.7741 14.7741 14.774 14.774 14.774 14.7737 14.7738 14.7736 14.774 14.7735 14.7735 14.7729 14.7735 14.7782 14.7727 14.7968 14.7884 14.7829 14.7807 14.7798 14.7793 14.779 14.7786 14.7785 14.7781 14.7779 14.7776 14.7774 14.7771 14.7768 14.7767 14.7763 14.7763 14.7759 14.7759 14.7755 14.7755 14.7751 14.7751 14.7745 14.7743 14.7744 14.7751 14.7759 14.7731 14.7627 14.7618 14.821 14.8035 14.7926 14.7884 14.7868 14.7858 14.7851 14.7843 14.7835 14.783 14.7821 14.7818 14.7807 14.7807 14.7796 14.7798 14.7787 14.779 14.778 14.7783 14.7776 14.7777 14.7771 14.7769 14.7767 14.7761 14.7769 14.7735 14.7783 14.7722 14.7752 14.7736 14.8475 14.8167 14.7996 14.7957 14.7939 14.7929 14.7916 14.7909 14.7897 14.7892 14.788 14.7876 14.7867 14.7863 14.7856 14.7851 14.7846 14.7841 14.7836 14.783 14.7826 14.7821 14.7815 14.7805 14.7802 14.7781 14.7796 14.7752 14.7778 14.7683 14.7815 14.7812 14.896 14.81 14.8053 14.8028 14.801 14.8 14.7981 14.7972 14.7954 14.7944 14.7928 14.7916 14.7905 14.7889 14.7884 14.7865 14.7864 14.7843 14.7844 14.7824 14.7824 14.7806 14.7804 14.7789 14.7777 14.7771 14.7755 14.7745 14.7698 14.7746 14.7933 14.7608 14.6819 14.7361 14.7374 14.7419 14.7451 14.7481 14.7507 14.7529 14.7549 14.7567 14.7583 14.7598 14.7612 14.7626 14.7639 14.7651 14.7661 14.7672 14.7681 14.769 14.7697 14.7705 14.771 14.7717 14.772 14.7725 14.7726 14.7729 14.773 14.7749 14.7745 14.7731 14.7229 14.7343 14.746 14.7508 14.7537 14.7557 14.7574 14.7589 14.7603 14.7616 14.7627 14.7638 14.7648 14.7658 14.7667 14.7676 14.7683 14.7691 14.7697 14.7703 14.7709 14.7714 14.7718 14.7722 14.7725 14.7726 14.7729 14.7729 14.7737 14.7745 14.7706 14.7674 14.7461 14.7518 14.7567 14.7602 14.762 14.7632 14.7642 14.7651 14.7659 14.7667 14.7674 14.7681 14.7687 14.7694 14.7698 14.7705 14.7708 14.7714 14.7717 14.7721 14.7724 14.7727 14.7729 14.7731 14.7731 14.7732 14.7738 14.7735 14.7732 14.7744 14.7778 14.7819 14.7698 14.7694 14.7696 14.77 14.7703 14.7707 14.7709 14.7714 14.7716 14.7721 14.7723 14.7727 14.7729 14.7733 14.7733 14.7737 14.7738 14.774 14.774 14.7742 14.7743 14.7742 14.7742 14.7742 14.7742 14.7743 14.7736 14.773 14.7748 14.7744 14.7659 14.7601 14.7931 14.7869 14.7823 14.7797 14.7784 14.778 14.7777 14.7776 14.7775 14.7773 14.7773 14.7769 14.7771 14.7766 14.7768 14.7761 14.7764 14.7757 14.7759 14.7753 14.7754 14.7749 14.7749 14.7746 14.7742 14.7737 14.7742 14.7745 14.771 14.7707 14.7823 14.7877 14.8176 14.8035 14.7937 14.7885 14.7862 14.7849 14.7843 14.7832 14.7829 14.7817 14.7816 14.78 14.7801 14.7785 14.7786 14.777 14.7772 14.7757 14.7759 14.7747 14.7747 14.774 14.7737 14.7734 14.7728 14.7737 14.7716 14.7724 14.7709 14.772 14.7623 14.761 14.8438 14.8176 14.8013 14.7961 14.7933 14.7918 14.7906 14.7889 14.7885 14.7863 14.7866 14.7838 14.7847 14.7816 14.7828 14.7796 14.781 14.7781 14.7792 14.7769 14.7775 14.7761 14.7759 14.7756 14.774 14.7752 14.7726 14.776 14.7697 14.7705 14.7848 14.7868 14.8954 14.81 14.8066 14.8022 14.8001 14.7978 14.7961 14.7939 14.7924 14.7904 14.7891 14.7872 14.786 14.7845 14.7834 14.7824 14.7814 14.7807 14.78 14.7794 14.7789 14.7785 14.7781 14.7777 14.7773 14.7772 14.7757 14.7754 14.7737 14.7704 14.7682 14.7652 14.6741 14.7332 14.7345 14.7391 14.7425 14.7458 14.7486 14.7511 14.7532 14.7552 14.757 14.7586 14.7602 14.7616 14.763 14.7642 14.7655 14.7665 14.7676 14.7685 14.7694 14.7701 14.7708 14.7714 14.7719 14.7724 14.7727 14.7729 14.7734 14.7735 14.7746 14.7756 14.7183 14.7301 14.7426 14.7479 14.7512 14.7536 14.7556 14.7573 14.7588 14.7603 14.7615 14.7627 14.7639 14.7649 14.7659 14.7668 14.7677 14.7685 14.7692 14.7698 14.7705 14.771 14.7714 14.7718 14.7722 14.7724 14.773 14.7729 14.7732 14.772 14.7736 14.7735 14.7417 14.7481 14.7535 14.7576 14.7598 14.7613 14.7625 14.7635 14.7645 14.7653 14.7662 14.7668 14.7676 14.7681 14.7687 14.7691 14.7697 14.77 14.7704 14.7707 14.7711 14.7714 14.7716 14.7719 14.772 14.7722 14.7724 14.7723 14.7728 14.7728 14.7734 14.7724 14.7656 14.7661 14.767 14.7678 14.7684 14.7688 14.7693 14.7696 14.7701 14.7702 14.7707 14.7707 14.7711 14.7711 14.7714 14.7714 14.7717 14.7717 14.7718 14.7719 14.772 14.7721 14.7721 14.7723 14.7721 14.7723 14.7723 14.7728 14.7718 14.7718 14.773 14.7735 14.789 14.7842 14.7805 14.7779 14.7768 14.7761 14.7758 14.7756 14.7754 14.7753 14.7749 14.775 14.7745 14.7748 14.7742 14.7746 14.774 14.7744 14.774 14.7744 14.774 14.7743 14.774 14.7741 14.7738 14.7737 14.7733 14.7731 14.7729 14.7738 14.7733 14.7736 14.8136 14.8013 14.7926 14.7873 14.7848 14.7836 14.7824 14.7822 14.781 14.7811 14.7798 14.7803 14.7789 14.7795 14.7781 14.7786 14.7775 14.7779 14.7771 14.7772 14.7767 14.7765 14.7762 14.7757 14.7757 14.7747 14.7753 14.7742 14.7749 14.7705 14.7719 14.7702 14.84 14.816 14.8009 14.7955 14.7924 14.7912 14.7892 14.7891 14.7871 14.7876 14.7855 14.7864 14.7844 14.7852 14.7836 14.784 14.7829 14.7828 14.7821 14.7815 14.7811 14.7802 14.7798 14.7788 14.7784 14.777 14.7764 14.7757 14.7749 14.7761 14.7723 14.7718 14.8929 14.8105 14.8071 14.8033 14.8006 14.7993 14.797 14.796 14.7939 14.7928 14.7909 14.7893 14.7875 14.7853 14.7839 14.7812 14.7802 14.7774 14.7767 14.7743 14.7737 14.772 14.7713 14.7706 14.7697 14.7699 14.7683 14.7707 14.7694 14.771 14.7682 14.7651 14.6695 14.7314 14.7326 14.7371 14.7405 14.7438 14.7467 14.7492 14.7514 14.7534 14.7553 14.757 14.7586 14.7602 14.7616 14.763 14.7642 14.7654 14.7665 14.7675 14.7684 14.7693 14.7701 14.7707 14.7712 14.7718 14.7723 14.7726 14.7728 14.7731 14.7725 14.7722 14.7145 14.7268 14.7402 14.7458 14.7493 14.7517 14.7538 14.7555 14.7571 14.7586 14.7599 14.7612 14.7623 14.7635 14.7645 14.7656 14.7664 14.7674 14.7681 14.7689 14.7696 14.7702 14.7708 14.7713 14.7716 14.7721 14.7723 14.7728 14.7732 14.7734 14.7724 14.7736 14.7376 14.7447 14.7509 14.7554 14.7579 14.7595 14.7608 14.7619 14.7629 14.7639 14.7647 14.7656 14.7663 14.7672 14.7678 14.7685 14.769 14.7698 14.7702 14.7708 14.7711 14.7716 14.7719 14.7722 14.7724 14.7726 14.7729 14.7727 14.7728 14.7728 14.7742 14.7739 14.7614 14.7628 14.7645 14.7658 14.7666 14.7674 14.7677 14.7684 14.7688 14.7695 14.7697 14.7704 14.7706 14.7712 14.7713 14.7719 14.772 14.7724 14.7726 14.7728 14.773 14.7732 14.7733 14.7733 14.7734 14.7733 14.7733 14.7732 14.7737 14.7737 14.7714 14.7724 14.7848 14.7812 14.7782 14.7764 14.7754 14.7752 14.7749 14.7749 14.7749 14.7748 14.7749 14.7745 14.7747 14.7741 14.7744 14.7737 14.774 14.7733 14.7736 14.7729 14.7731 14.7727 14.7727 14.7725 14.7724 14.7724 14.7722 14.7724 14.7709 14.7715 14.7724 14.773 14.8094 14.7986 14.7907 14.786 14.7839 14.7825 14.782 14.7808 14.7808 14.7794 14.7796 14.7779 14.7782 14.7765 14.7767 14.7751 14.7752 14.774 14.7738 14.773 14.7726 14.7723 14.7718 14.7718 14.7711 14.7719 14.7708 14.7725 14.7705 14.773 14.769 14.7734 14.836 14.8136 14.7993 14.7942 14.7915 14.7893 14.7884 14.7862 14.786 14.7835 14.7837 14.7811 14.7815 14.779 14.7794 14.7774 14.7775 14.7762 14.7759 14.7752 14.7748 14.7745 14.7737 14.7739 14.7728 14.7734 14.7719 14.7723 14.7703 14.7695 14.7736 14.7715 14.8879 14.8086 14.8056 14.8008 14.7985 14.7956 14.794 14.7915 14.7902 14.7881 14.7868 14.7854 14.784 14.7836 14.7819 14.7825 14.7809 14.7822 14.7809 14.7825 14.7817 14.7828 14.7824 14.7824 14.7824 14.7808 14.7812 14.7775 14.7776 14.772 14.7729 14.7727 14.6679 14.7306 14.7316 14.7362 14.7393 14.7424 14.7452 14.7476 14.7499 14.752 14.754 14.7558 14.7575 14.7592 14.7607 14.7621 14.7635 14.7647 14.7659 14.767 14.768 14.7689 14.7697 14.7704 14.7711 14.7717 14.7722 14.7726 14.7729 14.7727 14.7732 14.7733 14.7113 14.7248 14.7389 14.7449 14.7482 14.7505 14.7524 14.7542 14.7558 14.7574 14.7588 14.7602 14.7615 14.7627 14.7638 14.7649 14.7658 14.7668 14.7676 14.7684 14.7691 14.7698 14.7704 14.7709 14.7714 14.7718 14.7722 14.7726 14.7729 14.7731 14.7734 14.7739 14.7338 14.7423 14.7493 14.7543 14.7567 14.7583 14.7595 14.7607 14.7617 14.7627 14.7636 14.7644 14.7652 14.7659 14.7666 14.7672 14.7679 14.7683 14.7689 14.7692 14.7698 14.7701 14.7705 14.771 14.7712 14.7717 14.7719 14.772 14.7722 14.7723 14.7726 14.7725 14.7573 14.76 14.7625 14.7643 14.7653 14.7659 14.7665 14.7668 14.7674 14.7676 14.7681 14.7683 14.7687 14.7689 14.7692 14.7694 14.7696 14.7698 14.77 14.7704 14.7705 14.7708 14.771 14.7713 14.7713 14.7715 14.7717 14.772 14.772 14.7729 14.773 14.7741 14.7806 14.7777 14.7757 14.7742 14.7736 14.7732 14.7731 14.7729 14.7728 14.7727 14.7724 14.7726 14.7721 14.7725 14.7719 14.7726 14.772 14.7727 14.7723 14.7729 14.7726 14.7731 14.773 14.7731 14.7733 14.7729 14.7733 14.7724 14.7728 14.7722 14.7726 14.7727 14.8052 14.7947 14.7878 14.7836 14.7818 14.781 14.7801 14.7801 14.779 14.7794 14.7781 14.7789 14.7775 14.7785 14.7771 14.7781 14.7768 14.7776 14.7767 14.777 14.7765 14.7763 14.7762 14.7755 14.7758 14.7744 14.7754 14.7739 14.775 14.7738 14.7743 14.7728 14.8316 14.8097 14.797 14.792 14.7899 14.7886 14.7871 14.7871 14.7851 14.786 14.7836 14.7852 14.7824 14.7844 14.7815 14.7834 14.7808 14.7822 14.7801 14.7806 14.7792 14.779 14.7782 14.7772 14.7773 14.7754 14.7765 14.7738 14.7752 14.7726 14.7734 14.7716 14.8804 14.8067 14.8041 14.8007 14.7985 14.7973 14.7955 14.7946 14.7929 14.792 14.7904 14.7891 14.7873 14.7855 14.7838 14.7815 14.7799 14.7775 14.7761 14.774 14.7728 14.7714 14.7705 14.7698 14.769 14.7692 14.7687 14.7702 14.7692 14.7719 14.771 14.7723 14.6709 14.729 14.7326 14.7363 14.7387 14.7412 14.7437 14.746 14.7483 14.7504 14.7523 14.7543 14.756 14.7578 14.7593 14.7609 14.7623 14.7636 14.7648 14.7661 14.7671 14.7681 14.769 14.7698 14.7706 14.7712 14.7718 14.7723 14.7726 14.7731 14.7732 14.7733 14.7095 14.7239 14.7405 14.7453 14.7476 14.7493 14.751 14.7526 14.7542 14.7558 14.7572 14.7587 14.76 14.7612 14.7624 14.7636 14.7646 14.7656 14.7665 14.7674 14.7682 14.7689 14.7696 14.7703 14.7708 14.7713 14.7718 14.7722 14.7726 14.773 14.7733 14.7736 14.731 14.7406 14.75 14.7541 14.756 14.757 14.7581 14.7591 14.7602 14.7612 14.7622 14.7632 14.764 14.765 14.7656 14.7665 14.7671 14.768 14.7684 14.7692 14.7696 14.7703 14.7706 14.7712 14.7715 14.7719 14.7723 14.7725 14.7727 14.773 14.7731 14.7736 14.7534 14.7574 14.7615 14.7633 14.7641 14.7647 14.7651 14.7659 14.7662 14.767 14.7674 14.7681 14.7684 14.7691 14.7693 14.7699 14.7703 14.7707 14.771 14.7714 14.7718 14.772 14.7723 14.7724 14.7726 14.7726 14.773 14.7728 14.7733 14.7732 14.7736 14.7734 14.7757 14.7741 14.773 14.7726 14.7723 14.7724 14.7724 14.7725 14.7727 14.7726 14.7729 14.7726 14.7731 14.7725 14.7731 14.7723 14.7731 14.7722 14.7729 14.7722 14.7727 14.7722 14.7725 14.7724 14.7723 14.7726 14.7724 14.7731 14.772 14.7731 14.772 14.7731 14.7995 14.7903 14.7838 14.7814 14.7804 14.7799 14.7796 14.7789 14.7788 14.7778 14.7778 14.7765 14.7767 14.7751 14.7756 14.7739 14.7744 14.7729 14.7732 14.7721 14.7722 14.7716 14.7714 14.7713 14.7709 14.7714 14.7708 14.772 14.7712 14.7728 14.7723 14.7736 14.826 14.8051 14.7923 14.7896 14.7881 14.7871 14.7863 14.7848 14.7843 14.7823 14.7821 14.7795 14.7797 14.7769 14.7771 14.7745 14.7747 14.7725 14.7725 14.7709 14.7708 14.7699 14.7697 14.7695 14.769 14.7696 14.7692 14.77 14.7694 14.7704 14.7708 14.7721 14.8701 14.803 14.8 14.7968 14.7955 14.7933 14.7922 14.7899 14.7889 14.7868 14.7858 14.7842 14.7829 14.7821 14.7804 14.7806 14.7786 14.7795 14.7775 14.7788 14.7772 14.7782 14.7772 14.7774 14.7772 14.776 14.777 14.7741 14.7759 14.7717 14.7745 14.774 14.6489 14.7478 14.7358 14.7376 14.7384 14.7402 14.7423 14.7445 14.7467 14.7488 14.7509 14.7529 14.7548 14.7566 14.7583 14.7599 14.7614 14.7628 14.7641 14.7654 14.7665 14.7676 14.7685 14.7694 14.7702 14.771 14.7716 14.7722 14.7726 14.7729 14.7732 14.7735 14.6899 14.7429 14.7466 14.7472 14.7474 14.7484 14.7497 14.7512 14.7528 14.7544 14.7559 14.7575 14.7589 14.7602 14.7615 14.7626 14.7638 14.7648 14.7658 14.7667 14.7677 14.7684 14.7691 14.7698 14.7705 14.771 14.7716 14.772 14.7726 14.7729 14.7732 14.7735 14.7155 14.7527 14.7542 14.7554 14.7556 14.7562 14.757 14.758 14.759 14.76 14.7611 14.762 14.7631 14.7639 14.7647 14.7654 14.7663 14.7669 14.7677 14.7682 14.7689 14.7694 14.7699 14.7705 14.7709 14.7714 14.7718 14.7724 14.7724 14.773 14.7731 14.7736 14.7422 14.7613 14.7623 14.763 14.7633 14.7637 14.7642 14.7646 14.7653 14.7656 14.7663 14.7666 14.7672 14.7675 14.7681 14.7683 14.7688 14.7691 14.7695 14.7699 14.7702 14.7706 14.7707 14.7712 14.7714 14.7717 14.772 14.7724 14.7726 14.7729 14.7732 14.7733 14.7691 14.7698 14.7704 14.7705 14.7708 14.771 14.7711 14.7712 14.7711 14.7713 14.7709 14.7714 14.7709 14.7714 14.7709 14.7715 14.771 14.7716 14.7712 14.7717 14.7716 14.772 14.772 14.7722 14.7724 14.7723 14.7729 14.7726 14.7732 14.7728 14.7734 14.7734 14.7977 14.7786 14.7784 14.7782 14.7784 14.7784 14.7781 14.7779 14.7773 14.7771 14.7764 14.7763 14.7755 14.7755 14.7747 14.7748 14.7741 14.7742 14.7737 14.7737 14.7734 14.7734 14.7732 14.7731 14.7731 14.7728 14.7731 14.7728 14.7736 14.7731 14.7743 14.773 14.8294 14.788 14.7863 14.786 14.7861 14.7857 14.7851 14.7844 14.7837 14.7831 14.7822 14.7818 14.7809 14.7807 14.7799 14.7798 14.7792 14.779 14.7785 14.7783 14.7778 14.7775 14.777 14.7767 14.7761 14.7757 14.7755 14.7749 14.7747 14.7741 14.7737 14.7735 14.8742 14.7896 14.7955 14.7942 14.794 14.7932 14.7922 14.7914 14.7902 14.7897 14.7884 14.7881 14.7868 14.7864 14.7849 14.7842 14.7827 14.7817 14.7802 14.7791 14.7777 14.7768 14.7756 14.775 14.7742 14.774 14.7735 14.7738 14.7735 14.7743 14.7735 14.7736 
SCALARS volume_diff float 1
LOOKUP_TABLE default
14.6825 14.7529 14.7467 14.7489 14.75 14.7515 14.753 14.7546 14.7561 14.7576 14.759 14.7604 14.7616 14.7628 14.7639 14.7649 14.7659 14.7668 14.7676 14.7683 14.7689 14.7695 14.77 14.7704 14.7706 14.771 14.7713 14.7707 14.7709 14.7727 14.7813 14.7837 14.7181 14.7549 14.7583 14.7586 14.7586 14.7591 14.7599 14.7608 14.7617 14.7627 14.7636 14.7646 14.7654 14.7662 14.7669 14.7676 14.7682 14.7688 14.7693 14.7698 14.7701 14.7705 14.7708 14.771 14.7712 14.7714 14.7715 14.7713 14.7735 14.7764 14.7741 14.762 14.7469 14.7643 14.7661 14.7665 14.7662 14.7662 14.7664 14.7669 14.7673 14.7679 14.7684 14.7689 14.7693 14.7698 14.7702 14.7706 14.7708 14.7712 14.7714 14.7716 14.7718 14.7719 14.7721 14.7721 14.7718 14.7719 14.7726 14.7729 14.769 14.7731 14.776 14.7855 14.7754 14.7726 14.7736 14.7734 14.7731 14.7729 14.7728 14.7729 14.773 14.7731 14.7732 14.7733 14.7734 14.7735 14.7736 14.7736 14.7737 14.7736 14.7736 14.7735 14.7735 14.7734 14.7732 14.7728 14.773 14.7734 14.7714 14.7692 14.774 14.7815 14.7725 14.7715 14.8033 14.7807 14.7807 14.7799 14.7795 14.7792 14.7789 14.7785 14.7784 14.778 14.7779 14.7775 14.7774 14.777 14.7769 14.7766 14.7765 14.7761 14.776 14.7756 14.7754 14.7751 14.775 14.7746 14.7738 14.7727 14.775 14.7753 14.7672 14.7637 14.7844 14.8009 14.832 14.7885 14.7877 14.7862 14.786 14.7854 14.785 14.7843 14.7838 14.7831 14.7826 14.7822 14.7815 14.7814 14.7804 14.7806 14.7796 14.7799 14.7788 14.779 14.7781 14.7782 14.7774 14.7768 14.7769 14.7761 14.7744 14.7697 14.7753 14.7775 14.7702 14.7378 14.8631 14.7971 14.794 14.793 14.7928 14.7919 14.7915 14.7902 14.7897 14.7884 14.7879 14.7866 14.7861 14.7851 14.7844 14.7836 14.7826 14.7822 14.781 14.7807 14.7795 14.7792 14.7781 14.7777 14.7762 14.775 14.7762 14.7757 14.7726 14.7648 14.7985 14.8283 14.9133 14.7951 14.8021 14.7997 14.7996 14.7979 14.7973 14.795 14.7943 14.7919 14.7914 14.789 14.7885 14.7865 14.7859 14.7843 14.7836 14.7824 14.7816 14.7807 14.7799 14.7791 14.7782 14.7776 14.7766 14.776 14.7747 14.7723 14.7732 14.7717 14.7354 14.7461 14.6914 14.7364 14.74 14.7438 14.7464 14.7488 14.7509 14.7529 14.7546 14.7563 14.7578 14.7592 14.7606 14.7619 14.7631 14.7642 14.7652 14.7662 14.767 14.7678 14.7685 14.7692 14.7697 14.7701 14.7707 14.7708 14.7711 14.7712 14.7727 14.7717 14.7725 14.7786 14.7263 14.7374 14.7494 14.753 14.7549 14.7563 14.7576 14.7589 14.7601 14.7613 14.7623 14.7634 14.7643 14.7652 14.766 14.7668 14.7676 14.7682 14.7688 14.7693 14.7698 14.7702 14.7705 14.7708 14.771 14.7712 14.7717 14.7713 14.772 14.7724 14.7705 14.7657 14.7491 14.7541 14.7593 14.7619 14.7629 14.7637 14.7643 14.7651 14.7657 14.7664 14.7671 14.7676 14.7682 14.7687 14.7692 14.7696 14.77 14.7703 14.7706 14.7709 14.7711 14.7712 14.7714 14.7714 14.7717 14.7715 14.7712 14.7711 14.7726 14.7712 14.7616 14.767 14.7721 14.7705 14.7703 14.7706 14.7707 14.7707 14.7709 14.771 14.7713 14.7714 14.7717 14.7717 14.772 14.7719 14.7721 14.7721 14.7722 14.7722 14.7721 14.7721 14.7721 14.772 14.7718 14.7718 14.7717 14.7721 14.7715 14.7716 14.7709 14.7715 14.7762 14.7707 14.7948 14.7865 14.781 14.7788 14.7779 14.7773 14.7771 14.7766 14.7765 14.7761 14.776 14.7756 14.7754 14.7752 14.7748 14.7747 14.7744 14.7743 14.7739 14.7739 14.7735 14.7735 14.7732 14.7732 14.7726 14.7723 14.7725 14.7731 14.7739 14.7712 14.7607 14.7599 14.8191 14.8016 14.7907 14.7864 14.7849 14.7839 14.7831 14.7824 14.7816 14.781 14.7801 14.7798 14.7787 14.7788 14.7776 14.7778 14.7767 14.7771 14.7761 14.7763 14.7756 14.7757 14.7752 14.7749 14.7748 14.7742 14.7749 14.7716 14.7764 14.7703 14.7732 14.7716 14.8455 14.8147 14.7976 14.7937 14.7919 14.7909 14.7896 14.789 14.7877 14.7872 14.7861 14.7857 14.7847 14.7843 14.7836 14.7831 14.7826 14.7822 14.7816 14.7811 14.7806 14.7801 14.7795 14.7786 14.7783 14.7761 14.7777 14.7733 14.7758 14.7663 14.7796 14.7792 14.894 14.8081 14.8033 14.8009 14.7991 14.798 14.7962 14.7952 14.7934 14.7924 14.7909 14.7897 14.7885 14.787 14.7864 14.7846 14.7844 14.7824 14.7824 14.7804 14.7805 14.7787 14.7784 14.777 14.7758 14.7751 14.7735 14.7725 14.7678 14.7727 14.7913 14.7589 14.68 14.7341 14.7354 14.74 14.7432 14.7461 14.7487 14.7509 14.7529 14.7547 14.7563 14.7578 14.7593 14.7607 14.7619 14.7631 14.7642 14.7652 14.7661 14.767 14.7678 14.7685 14.7691 14.7697 14.77 14.7706 14.7707 14.7709 14.771 14.7729 14.7726 14.7712 14.7209 14.7324 14.744 14.7489 14.7517 14.7538 14.7555 14.7569 14.7583 14.7596 14.7608 14.7619 14.7629 14.7639 14.7647 14.7656 14.7663 14.7671 14.7677 14.7684 14.769 14.7695 14.7698 14.7702 14.7705 14.7707 14.771 14.7709 14.7718 14.7725 14.7686 14.7655 14.7442 14.7499 14.7547 14.7582 14.7601 14.7612 14.7622 14.7631 14.7639 14.7648 14.7654 14.7662 14.7667 14.7674 14.7679 14.7685 14.7689 14.7694 14.7697 14.7702 14.7704 14.7707 14.7709 14.7712 14.7712 14.7712 14.7718 14.7715 14.7712 14.7725 14.7758 14.7799 14.7678 14.7674 14.7676 14.768 14.7683 14.7687 14.7689 14.7694 14.7696 14.7701 14.7703 14.7708 14.7709 14.7713 14.7714 14.7717 14.7718 14.772 14.7721 14.7722 14.7723 14.7723 14.7723 14.7722 14.7723 14.7723 14.7716 14.771 14.7729 14.7724 14.7639 14.7581 14.7911 14.785 14.7804 14.7778 14.7764 14.776 14.7757 14.7756 14.7755 14.7753 14.7753 14.775 14.7751 14.7746 14.7748 14.7742 14.7744 14.7738 14.774 14.7733 14.7734 14.7729 14.7729 14.7726 14.7722 14.7718 14.7722 14.7725 14.769 14.7687 14.7803 14.7857 14.8156 14.8015 14.7918 14.7865 14.7843 14.783 14.7823 14.7813 14.781 14.7797 14.7796 14.7781 14.7782 14.7765 14.7767 14.7751 14.7752 14.7738 14.7739 14.7728 14.7728 14.772 14.7717 14.7715 14.7708 14.7717 14.7697 14.7705 14.769 14.77 14.7604 14.7591 14.8419 14.8156 14.7993 14.7942 14.7914 14.7898 14.7887 14.787 14.7866 14.7844 14.7846 14.7818 14.7827 14.7796 14.7808 14.7777 14.779 14.7761 14.7773 14.775 14.7756 14.7741 14.774 14.7736 14.772 14.7733 14.7706 14.774 14.7678 14.7685 14.7829 14.7849 14.8934 14.808 14.8047 14.8003 14.7982 14.7959 14.7942 14.7919 14.7905 14.7885 14.7871 14.7853 14.7841 14.7826 14.7815 14.7804 14.7794 14.7787 14.778 14.7775 14.777 14.7765 14.7762 14.7758 14.7754 14.7752 14.7737 14.7735 14.7717 14.7685 14.7663 14.7632 14.6722 14.7313 14.7326 14.7371 14.7406 14.7438 14.7467 14.7491 14.7513 14.7532 14.755 14.7566 14.7582 14.7597 14.761 14.7623 14.7635 14.7646 14.7656 14.7665 14.7674 14.7682 14.7688 14.7694 14.77 14.7704 14.7707 14.7709 14.7715 14.7715 14.7727 14.7736 14.7164 14.7281 14.7407 14.746 14.7493 14.7516 14.7536 14.7554 14.7569 14.7583 14.7596 14.7608 14.762 14.763 14.764 14.7649 14.7658 14.7665 14.7673 14.7679 14.7685 14.769 14.7695 14.7699 14.7702 14.7705 14.771 14.771 14.7712 14.7701 14.7716 14.7715 14.7398 14.7461 14.7516 14.7556 14.7578 14.7594 14.7606 14.7616 14.7626 14.7633 14.7642 14.7649 14.7656 14.7661 14.7668 14.7672 14.7677 14.768 14.7685 14.7687 14.7692 14.7694 14.7696 14.7699 14.77 14.7703 14.7704 14.7704 14.7708 14.7708 14.7714 14.7705 14.7636 14.7642 14.7651 14.7658 14.7664 14.7669 14.7674 14.7676 14.7681 14.7682 14.7687 14.7688 14.7692 14.7692 14.7695 14.7695 14.7697 14.7697 14.7699 14.77 14.7701 14.7702 14.7702 14.7704 14.7702 14.7703 14.7704 14.7708 14.7699 14.7698 14.7711 14.7715 14.787 14.7822 14.7786 14.776 14.7748 14.7741 14.7738 14.7737 14.7734 14.7733 14.773 14.7731 14.7725 14.7728 14.7722 14.7726 14.772 14.7725 14.772 14.7724 14.772 14.7723 14.772 14.7721 14.7719 14.7718 14.7713 14.7712 14.771 14.7719 14.7713 14.7717 14.8117 14.7993 14.7906 14.7854 14.7828 14.7816 14.7805 14.7802 14.7791 14.7792 14.7779 14.7783 14.7769 14.7775 14.7762 14.7767 14.7756 14.776 14.7751 14.7752 14.7747 14.7745 14.7743 14.7737 14.7738 14.7728 14.7733 14.7722 14.773 14.7686 14.7699 14.7682 14.838 14.814 14.799 14.7936 14.7904 14.7892 14.7872 14.7871 14.7851 14.7857 14.7836 14.7844 14.7825 14.7833 14.7816 14.7821 14.7809 14.7809 14.7801 14.7796 14.7792 14.7783 14.7779 14.7768 14.7764 14.775 14.7745 14.7738 14.773 14.7742 14.7704 14.7699 14.8909 14.8086 14.8051 14.8014 14.7987 14.7973 14.795 14.7941 14.7919 14.7909 14.7889 14.7873 14.7856 14.7834 14.782 14.7793 14.7783 14.7755 14.7748 14.7723 14.7718 14.77 14.7694 14.7686 14.7677 14.7679 14.7664 14.7687 14.7674 14.769 14.7662 14.7631 14.6675 14.7294 14.7306 14.7352 14.7386 14.7418 14.7447 14.7473 14.7495 14.7515 14.7533 14.7551 14.7567 14.7582 14.7596 14.761 14.7623 14.7634 14.7645 14.7655 14.7665 14.7673 14.7681 14.7688 14.7693 14.7699 14.7704 14.7707 14.7708 14.7712 14.7706 14.7702 14.7125 14.7248 14.7383 14.7439 14.7473 14.7498 14.7518 14.7536 14.7551 14.7566 14.7579 14.7592 14.7604 14.7616 14.7625 14.7637 14.7645 14.7654 14.7661 14.767 14.7676 14.7683 14.7688 14.7693 14.7697 14.7701 14.7703 14.7709 14.7713 14.7715 14.7704 14.7717 14.7357 14.7428 14.7489 14.7534 14.7559 14.7576 14.7588 14.76 14.7609 14.7619 14.7628 14.7637 14.7644 14.7652 14.7658 14.7666 14.7671 14.7678 14.7682 14.7688 14.7692 14.7696 14.7699 14.7703 14.7705 14.7707 14.771 14.7708 14.7709 14.7709 14.7722 14.772 14.7594 14.7609 14.7626 14.7639 14.7647 14.7654 14.7658 14.7665 14.7668 14.7675 14.7678 14.7685 14.7686 14.7693 14.7694 14.77 14.7701 14.7705 14.7706 14.7709 14.7711 14.7712 14.7713 14.7714 14.7715 14.7713 14.7713 14.7712 14.7717 14.7717 14.7695 14.7704 14.7828 14.7793 14.7762 14.7745 14.7735 14.7732 14.773 14.773 14.773 14.7728 14.7729 14.7726 14.7728 14.7722 14.7725 14.7717 14.7721 14.7713 14.7716 14.7709 14.7712 14.7707 14.7708 14.7706 14.7704 14.7705 14.7703 14.7704 14.7689 14.7696 14.7704 14.771 14.8074 14.7966 14.7887 14.7841 14.7819 14.7805 14.78 14.7789 14.7789 14.7775 14.7776 14.776 14.7762 14.7746 14.7747 14.7731 14.7732 14.772 14.7718 14.771 14.7707 14.7704 14.7699 14.7699 14.7692 14.7699 14.7688 14.7706 14.7685 14.771 14.767 14.7715 14.834 14.8116 14.7974 14.7922 14.7895 14.7873 14.7864 14.7843 14.7841 14.7816 14.7817 14.7791 14.7795 14.7771 14.7775 14.7754 14.7756 14.7742 14.774 14.7732 14.7728 14.7725 14.7718 14.7719 14.7708 14.7714 14.77 14.7703 14.7683 14.7676 14.7716 14.7695 14.8859 14.8067 14.8037 14.7988 14.7966 14.7936 14.7921 14.7895 14.7883 14.7862 14.7849 14.7835 14.782 14.7816 14.7799 14.7805 14.7789 14.7803 14.7789 14.7806 14.7797 14.7809 14.7804 14.7805 14.7805 14.7788 14.7793 14.7755 14.7756 14.77 14.771 14.7707 14.666 14.7287 14.7297 14.7343 14.7374 14.7404 14.7432 14.7457 14.748 14.75 14.752 14.7538 14.7556 14.7572 14.7588 14.7601 14.7615 14.7628 14.764 14.765 14.766 14.7669 14.7677 14.7685 14.7692 14.7698 14.7702 14.7706 14.771 14.7707 14.7712 14.7714 14.7093 14.7228 14.7369 14.743 14.7462 14.7485 14.7504 14.7523 14.7539 14.7554 14.7569 14.7582 14.7595 14.7608 14.7618 14.7629 14.7639 14.7648 14.7657 14.7664 14.7672 14.7678 14.7684 14.769 14.7695 14.7699 14.7703 14.7706 14.7709 14.7711 14.7715 14.7719 14.7318 14.7403 14.7473 14.7524 14.7548 14.7564 14.7576 14.7587 14.7597 14.7607 14.7616 14.7624 14.7633 14.7639 14.7647 14.7652 14.7659 14.7663 14.7669 14.7673 14.7678 14.7682 14.7686 14.769 14.7693 14.7697 14.7699 14.7701 14.7703 14.7703 14.7706 14.7705 14.7554 14.758 14.7605 14.7623 14.7633 14.7639 14.7645 14.7649 14.7654 14.7657 14.7662 14.7664 14.7668 14.7669 14.7672 14.7674 14.7676 14.7679 14.7681 14.7684 14.7685 14.7689 14.769 14.7693 14.7694 14.7696 14.7697 14.77 14.7701 14.771 14.7711 14.7722 14.7787 14.7758 14.7737 14.7722 14.7717 14.7713 14.7711 14.771 14.7708 14.7708 14.7704 14.7706 14.7701 14.7706 14.77 14.7706 14.7701 14.7707 14.7703 14.7709 14.7707 14.7711 14.771 14.7712 14.7713 14.771 14.7713 14.7705 14.7709 14.7702 14.7707 14.7707 14.8033 14.7928 14.7858 14.7817 14.7799 14.779 14.7781 14.7781 14.777 14.7775 14.7762 14.777 14.7755 14.7765 14.7751 14.7762 14.7749 14.7756 14.7747 14.7751 14.7745 14.7744 14.7743 14.7735 14.7739 14.7725 14.7735 14.7719 14.7731 14.7718 14.7724 14.7708 14.8297 14.8077 14.795 14.7901 14.7879 14.7867 14.7851 14.7851 14.7832 14.784 14.7816 14.7832 14.7805 14.7824 14.7796 14.7815 14.7788 14.7802 14.7781 14.7787 14.7772 14.777 14.7763 14.7752 14.7754 14.7734 14.7745 14.7718 14.7733 14.7706 14.7715 14.7696 14.8785 14.8047 14.8021 14.7987 14.7966 14.7953 14.7935 14.7926 14.791 14.7901 14.7884 14.7871 14.7854 14.7836 14.7818 14.7795 14.7779 14.7755 14.7741 14.772 14.7709 14.7694 14.7685 14.7678 14.767 14.7673 14.7667 14.7683 14.7672 14.7699 14.769 14.7703 14.6689 14.727 14.7307 14.7343 14.7368 14.7393 14.7417 14.7441 14.7463 14.7484 14.7504 14.7523 14.7541 14.7558 14.7574 14.7589 14.7603 14.7617 14.7629 14.7641 14.7651 14.7661 14.767 14.7679 14.7686 14.7693 14.7699 14.7704 14.7706 14.7711 14.7712 14.7713 14.7076 14.7219 14.7386 14.7433 14.7457 14.7474 14.749 14.7507 14.7523 14.7538 14.7553 14.7567 14.758 14.7593 14.7605 14.7616 14.7626 14.7637 14.7646 14.7655 14.7663 14.767 14.7677 14.7684 14.7688 14.7694 14.7698 14.7702 14.7707 14.771 14.7714 14.7716 14.7291 14.7387 14.748 14.7521 14.754 14.7551 14.7562 14.7572 14.7582 14.7592 14.7602 14.7612 14.762 14.763 14.7637 14.7646 14.7651 14.7661 14.7665 14.7673 14.7677 14.7683 14.7687 14.7693 14.7695 14.77 14.7704 14.7705 14.7708 14.771 14.7711 14.7717 14.7515 14.7554 14.7596 14.7614 14.7622 14.7628 14.7632 14.7639 14.7643 14.7651 14.7654 14.7661 14.7664 14.7671 14.7674 14.768 14.7683 14.7688 14.7691 14.7694 14.7698 14.77 14.7703 14.7704 14.7707 14.7707 14.7711 14.7708 14.7714 14.7713 14.7716 14.7714 14.7737 14.7722 14.7711 14.7707 14.7703 14.7705 14.7705 14.7706 14.7707 14.7707 14.771 14.7706 14.7712 14.7705 14.7712 14.7704 14.7711 14.7702 14.7709 14.7702 14.7708 14.7703 14.7705 14.7704 14.7704 14.7707 14.7704 14.7711 14.7701 14.7712 14.77 14.7712 14.7976 14.7884 14.7819 14.7795 14.7784 14.778 14.7776 14.777 14.7769 14.7758 14.7759 14.7745 14.7748 14.7732 14.7736 14.772 14.7724 14.7709 14.7712 14.7701 14.7702 14.7696 14.7694 14.7694 14.7689 14.7694 14.7688 14.77 14.7693 14.7709 14.7703 14.7717 14.824 14.8031 14.7904 14.7877 14.7862 14.7851 14.7843 14.7829 14.7824 14.7803 14.7801 14.7775 14.7777 14.7749 14.7752 14.7725 14.7727 14.7705 14.7706 14.769 14.7689 14.768 14.7677 14.7676 14.7671 14.7676 14.7673 14.7681 14.7675 14.7684 14.7689 14.7702 14.8681 14.8011 14.798 14.7948 14.7936 14.7914 14.7902 14.7879 14.787 14.7848 14.7838 14.7822 14.7809 14.7801 14.7785 14.7787 14.7766 14.7776 14.7756 14.7768 14.7752 14.7763 14.7753 14.7754 14.7753 14.774 14.775 14.7722 14.7739 14.7698 14.7726 14.772 14.6469 14.7458 14.7338 14.7356 14.7365 14.7383 14.7404 14.7425 14.7448 14.7469 14.749 14.7509 14.7529 14.7546 14.7563 14.7579 14.7595 14.7609 14.7622 14.7634 14.7645 14.7656 14.7665 14.7675 14.7682 14.7691 14.7697 14.7702 14.7707 14.7709 14.7712 14.7716 14.6879 14.7409 14.7447 14.7452 14.7455 14.7465 14.7477 14.7493 14.7509 14.7525 14.754 14.7555 14.7569 14.7583 14.7595 14.7607 14.7618 14.7629 14.7639 14.7648 14.7657 14.7665 14.7672 14.7679 14.7685 14.7691 14.7697 14.7701 14.7707 14.771 14.7713 14.7715 14.7136 14.7508 14.7523 14.7534 14.7537 14.7543 14.755 14.756 14.7571 14.7581 14.7591 14.7601 14.7611 14.7619 14.7628 14.7635 14.7644 14.7649 14.7657 14.7663 14.767 14.7675 14.768 14.7685 14.7689 14.7695 14.7698 14.7704 14.7705 14.7711 14.7712 14.7716 14.7403 14.7593 14.7603 14.7611 14.7614 14.7617 14.7622 14.7627 14.7633 14.7637 14.7643 14.7646 14.7653 14.7655 14.7661 14.7664 14.7669 14.7672 14.7676 14.7679 14.7682 14.7686 14.7688 14.7692 14.7695 14.7698 14.7701 14.7704 14.7707 14.771 14.7713 14.7714 14.7672 14.7679 14.7684 14.7686 14.7689 14.769 14.7691 14.7692 14.7691 14.7694 14.769 14.7694 14.7689 14.7695 14.7689 14.7695 14.7691 14.7697 14.7693 14.7698 14.7697 14.77 14.7701 14.7702 14.7704 14.7704 14.7709 14.7706 14.7713 14.7709 14.7714 14.7715 14.7958 14.7766 14.7765 14.7763 14.7765 14.7764 14.7761 14.7759 14.7753 14.7752 14.7744 14.7743 14.7735 14.7735 14.7727 14.7728 14.7722 14.7723 14.7718 14.7717 14.7714 14.7714 14.7712 14.7712 14.7711 14.7709 14.7712 14.7708 14.7717 14.7712 14.7723 14.7711 14.8275 14.7861 14.7843 14.784 14.7841 14.7837 14.7832 14.7825 14.7817 14.7811 14.7802 14.7798 14.779 14.7788 14.7779 14.7779 14.7772 14.7771 14.7765 14.7763 14.7758 14.7755 14.775 14.7747 14.7742 14.7737 14.7735 14.7729 14.7728 14.7721 14.7717 14.7715 14.8722 14.7877 14.7935 14.7923 14.792 14.7913 14.7902 14.7895 14.7883 14.7878 14.7865 14.7862 14.7848 14.7845 14.7829 14.7823 14.7808 14.7797 14.7782 14.7772 14.7757 14.7748 14.7736 14.7731 14.7722 14.772 14.7716 14.7719 14.7715 14.7724 14.7716 14.7716 
