# vtk DataFile Version 5.1
vtk output
ASCII

DATASET UNSTRUCTURED_GRID
POINTS 18785 float
0 0 4.4
0.0625 0 4.4
0.125 0 4.4
0.1875 0 4.4
0.25 0 4.4
0.3125 0 4.4
0.375 0 4.4
0.4375 0 4.4
0.5 0 4.4
0.5625 0 4.4
0.625 0 4.4
0.6875 0 4.4
0.75 0 4.4
0.8125 0 4.4
0.875 0 4.4
0.9375 0 4.4
1 0 4.4
1.0625 0 4.4
1.125 0 4.4
1.1875 0 4.4
1.25 0 4.4
1.3125 0 4.4
1.375 0 4.4
1.4375 0 4.4
1.5 0 4.4
1.5625 0 4.4
1.625 0 4.4
1.6875 0 4.4
1.75 0 4.4
1.8125 0 4.4
1.875 0 4.4
1.9375 0 4.4
2 0 4.4
2.0625 0 4.4
2.125 0 4.4
2.1875 0 4.4
2.25 0 4.4
2.3125 0 4.4
2.375 0 4.4
2.4375 0 4.4
2.5 0 4.4
2.5625 0 4.4
2.625 0 4.4
2.6875 0 4.4
2.75 0 4.4
2.8125 0 4.4
2.875 0 4.4
2.9375 0 4.4
3 0 4.4
3.0625 0 4.4
3.125 0 4.4
3.1875 0 4.4
3.25 0 4.4
3.3125 0 4.4
3.375 0 4.4
3.4375 0 4.4
3.5 0 4.4
3.5625 0 4.4
3.625 0 4.4
3.6875 0 4.4
3.75 0 4.4
3.8125 0 4.4
3.875 0 4.4
3.9375 0 4.4
4 0 4.4
0 0.0625 4.4
0.0625 0.0625 4.4
0.125 0.0625 4.4
0.1875 0.0625 4.4
0.25 0.0625 4.4
0.3125 0.0625 4.4
0.375 0.0625 4.4
0.4375 0.0625 4.4
0.5 0.0625 4.4
0.5625 0.0625 4.4
0.625 0.0625 4.4
0.6875 0.0625 4.4
0.75 0.0625 4.4
0.8125 0.0625 4.4
0.875 0.0625 4.4
0.9375 0.0625 4.4
1 0.0625 4.4
1.0625 0.0625 4.4
1.125 0.0625 4.4
1.1875 0.0625 4.4
1.25 0.0625 4.4
1.3125 0.0625 4.4
1.375 0.0625 4.4
1.4375 0.0625 4.4
1.5 0.0625 4.4
1.5625 0.0625 4.4
1.625 0.0625 4.4
1.6875 0.0625 4.4
1.75 0.0625 4.4
1.8125 0.0625 4.4
1.875 0.0625 4.4
1.9375 0.0625 4.4
2 0.0625 4.4
2.0625 0.0625 4.4
2.125 0.0625 4.4
2.1875 0.0625 4.4
2.25 0.0625 4.4
2.3125 0.0625 4.4
2.375 0.0625 4.4
2.4375 0.0625 4.4
2.5 0.0625 4.4
2.5625 0.0625 4.4
2.625 0.0625 4.4
2.6875 0.0625 4.4
2.75 0.0625 4.4
2.8125 0.0625 4.4
2.875 0.0625 4.4
2.9375 0.0625 4.4
3 0.0625 4.4
3.0625 0.0625 4.4
3.125 0.0625 4.4
3.1875 0.0625 4.4
3.25 0.0625 4.4
3.3125 0.0625 4.4
3.375 0.0625 4.4
3.4375 0.0625 4.4
3.5 0.0625 4.4
3.5625 0.0625 4.4
3.625 0.0625 4.4
3.6875 0.0625 4.4
3.75 0.0625 4.4
3.8125 0.0625 4.4
3.875 0.0625 4.4
3.9375 0.0625 4.4
4 0.0625 4.4
0 0.125 4.4
0.0625 0.125 4.4
0.125 0.125 4.4
0.1875 0.125 4.4
0.25 0.125 4.4
0.3125 0.125 4.4
0.375 0.125 4.4
0.4375 0.125 4.4
0.5 0.125 4.4
0.5625 0.125 4.4
0.625 0.125 4.4
0.6875 0.125 4.4
0.75 0.125 4.4
0.8125 0.125 4.4
0.875 0.125 4.4
0.9375 0.125 4.4
1 0.125 4.4
1.0625 0.125 4.4
1.125 0.125 4.4
1.1875 0.125 4.4
1.25 0.125 4.4
1.3125 0.125 4.4
1.375 0.125 4.4
1.4375 0.125 4.4
1.5 0.125 4.4
1.5625 0.125 4.4
1.625 0.125 4.4
1.6875 0.125 4.4
1.75 0.125 4.4
1.8125 0.125 4.4
1.875 0.125 4.4
1.9375 0.125 4.4
2 0.125 4.4
2.0625 0.125 4.4
2.125 0.125 4.4
2.1875 0.125 4.4
2.25 0.125 4.4
2.3125 0.125 4.4
2.375 0.125 4.4
2.4375 0.125 4.4
2.5 0.125 4.4
2.5625 0.125 4.4
2.625 0.125 4.4
2.6875 0.125 4.4
2.75 0.125 4.4
2.8125 0.125 4.4
2.875 0.125 4.4
2.9375 0.125 4.4
3 0.125 4.4
3.0625 0.125 4.4
3.125 0.125 4.4
3.1875 0.125 4.4
3.25 0.125 4.4
3.3125 0.125 4.4
3.375 0.125 4.4
3.4375 0.125 4.4
3.5 0.125 4.4
3.5625 0.125 4.4
3.625 0.125 4.4
3.6875 0.125 4.4
3.75 0.125 4.4
3.8125 0.125 4.4
3.875 0.125 4.4
3.9375 0.125 4.4
4 0.125 4.4
0 0.1875 4.4
0.0625 0.1875 4.4
0.125 0.1875 4.4
0.1875 0.1875 4.4
0.25 0.1875 4.4
0.3125 0.1875 4.4
0.375 0.1875 4.4
0.4375 0.1875 4.4
0.5 0.1875 4.4
0.5625 0.1875 4.4
0.625 0.1875 4.4
0.6875 0.1875 4.4
0.75 0.1875 4.4
0.8125 0.1875 4.4
0.875 0.1875 4.4
0.9375 0.1875 4.4
1 0.1875 4.4
1.0625 0.1875 4.4
1.125 0.1875 4.4
1.1875 0.1875 4.4
1.25 0.1875 4.4
1.3125 0.1875 4.4
1.375 0.1875 4.4
1.4375 0.1875 4.4
1.5 0.1875 4.4
1.5625 0.1875 4.4
1.625 0.1875 4.4
1.6875 0.1875 4.4
1.75 0.1875 4.4
1.8125 0.1875 4.4
1.875 0.1875 4.4
1.9375 0.1875 4.4
2 0.1875 4.4
2.0625 0.1875 4.4
2.125 0.1875 4.4
2.1875 0.1875 4.4
2.25 0.1875 4.4
2.3125 0.1875 4.4
2.375 0.1875 4.4
2.4375 0.1875 4.4
2.5 0.1875 4.4
2.5625 0.1875 4.4
2.625 0.1875 4.4
2.6875 0.1875 4.4
2.75 0.1875 4.4
2.8125 0.1875 4.4
2.875 0.1875 4.4
2.9375 0.1875 4.4
3 0.1875 4.4
3.0625 0.1875 4.4
3.125 0.1875 4.4
3.1875 0.1875 4.4
3.25 0.1875 4.4
3.3125 0.1875 4.4
3.375 0.1875 4.4
3.4375 0.1875 4.4
3.5 0.1875 4.4
3.5625 0.1875 4.4
3.625 0.1875 4.4
3.6875 0.1875 4.4
3.75 0.1875 4.4
3.8125 0.1875 4.4
3.875 0.1875 4.4
3.9375 0.1875 4.4
4 0.1875 4.4
0 0.25 4.4
0.0625 0.25 4.4
0.125 0.25 4.4
0.1875 0.25 4.4
0.25 0.25 4.4
0.3125 0.25 4.4
0.375 0.25 4.4
0.4375 0.25 4.4
0.5 0.25 4.4
0.5625 0.25 4.4
0.625 0.25 4.4
0.6875 0.25 4.4
0.75 0.25 4.4
0.8125 0.25 4.4
0.875 0.25 4.4
0.9375 0.25 4.4
1 0.25 4.4
1.0625 0.25 4.4
1.125 0.25 4.4
1.1875 0.25 4.4
1.25 0.25 4.4
1.3125 0.25 4.4
1.375 0.25 4.4
1.4375 0.25 4.4
1.5 0.25 4.4
1.5625 0.25 4.4
1.625 0.25 4.4
1.6875 0.25 4.4
1.75 0.25 4.4
1.8125 0.25 4.4
1.875 0.25 4.4
1.9375 0.25 4.4
2 0.25 4.4
2.0625 0.25 4.4
2.125 0.25 4.4
2.1875 0.25 4.4
2.25 0.25 4.4
2.3125 0.25 4.4
2.375 0.25 4.4
2.4375 0.25 4.4
2.5 0.25 4.4
2.5625 0.25 4.4
2.625 0.25 4.4
2.6875 0.25 4.4
2.75 0.25 4.4
2.8125 0.25 4.4
2.875 0.25 4.4
2.9375 0.25 4.4
3 0.25 4.4
3.0625 0.25 4.4
3.125 0.25 4.4
3.1875 0.25 4.4
3.25 0.25 4.4
3.3125 0.25 4.4
3.375 0.25 4.4
3.4375 0.25 4.4
3.5 0.25 4.4
3.5625 0.25 4.4
3.625 0.25 4.4
3.6875 0.25 4.4
3.75 0.25 4.4
3.8125 0.25 4.4
3.875 0.25 4.4
3.9375 0.25 4.4
4 0.25 4.4
0 0.3125 4.4
0.0625 0.3125 4.4
0.125 0.3125 4.4
0.1875 0.3125 4.4
0.25 0.3125 4.4
0.3125 0.3125 4.4
0.375 0.3125 4.4
0.4375 0.3125 4.4
0.5 0.3125 4.4
0.5625 0.3125 4.4
0.625 0.3125 4.4
0.6875 0.3125 4.4
0.75 0.3125 4.4
0.8125 0.3125 4.4
0.875 0.3125 4.4
0.9375 0.3125 4.4
1 0.3125 4.4
1.0625 0.3125 4.4
1.125 0.3125 4.4
1.1875 0.3125 4.4
1.25 0.3125 4.4
1.3125 0.3125 4.4
1.375 0.3125 4.4
1.4375 0.3125 4.4
1.5 0.3125 4.4
1.5625 0.3125 4.4
1.625 0.3125 4.4
1.6875 0.3125 4.4
1.75 0.3125 4.4
1.8125 0.3125 4.4
1.875 0.3125 4.4
1.9375 0.3125 4.4
2 0.3125 4.4
2.0625 0.3125 4.4
2.125 0.3125 4.4
2.1875 0.3125 4.4
2.25 0.3125 4.4
2.3125 0.3125 4.4
2.375 0.3125 4.4
2.4375 0.3125 4.4
2.5 0.3125 4.4
2.5625 0.3125 4.4
2.625 0.3125 4.4
2.6875 0.3125 4.4
2.75 0.3125 4.4
2.8125 0.3125 4.4
2.875 0.3125 4.4
2.9375 0.3125 4.4
3 0.3125 4.4
3.0625 0.3125 4.4
3.125 0.3125 4.4
3.1875 0.3125 4.4
3.25 0.3125 4.4
3.3125 0.3125 4.4
3.375 0.3125 4.4
3.4375 0.3125 4.4
3.5 0.3125 4.4
3.5625 0.3125 4.4
3.625 0.3125 4.4
3.6875 0.3125 4.4
3.75 0.3125 4.4
3.8125 0.3125 4.4
3.875 0.3125 4.4
3.9375 0.3125 4.4
4 0.3125 4.4
0 0.375 4.4
0.0625 0.375 4.4
0.125 0.375 4.4
0.1875 0.375 4.4
0.25 0.375 4.4
0.3125 0.375 4.4
0.375 0.375 4.4
0.4375 0.375 4.4
0.5 0.375 4.4
0.5625 0.375 4.4
0.625 0.375 4.4
0.6875 0.375 4.4
0.75 0.375 4.4
0.8125 0.375 4.4
0.875 0.375 4.4
0.9375 0.375 4.4
1 0.375 4.4
1.0625 0.375 4.4
1.125 0.375 4.4
1.1875 0.375 4.4
1.25 0.375 4.4
1.3125 0.375 4.4
1.375 0.375 4.4
1.4375 0.375 4.4
1.5 0.375 4.4
1.5625 0.375 4.4
1.625 0.375 4.4
1.6875 0.375 4.4
1.75 0.375 4.4
1.8125 0.375 4.4
1.875 0.375 4.4
1.9375 0.375 4.4
2 0.375 4.4
2.0625 0.375 4.4
2.125 0.375 4.4
2.1875 0.375 4.4
2.25 0.375 4.4
2.3125 0.375 4.4
2.375 0.375 4.4
2.4375 0.375 4.4
2.5 0.375 4.4
2.5625 0.375 4.4
2.625 0.375 4.4
2.6875 0.375 4.4
2.75 0.375 4.4
2.8125 0.375 4.4
2.875 0.375 4.4
2.9375 0.375 4.4
3 0.375 4.4
3.0625 0.375 4.4
3.125 0.375 4.4
3.1875 0.375 4.4
3.25 0.375 4.4
3.3125 0.375 4.4
3.375 0.375 4.4
3.4375 0.375 4.4
3.5 0.375 4.4
3.5625 0.375 4.4
3.625 0.375 4.4
3.6875 0.375 4.4
3.75 0.375 4.4
3.8125 0.375 4.4
3.875 0.375 4.4
3.9375 0.375 4.4
4 0.375 4.4
0 0.4375 4.4
0.0625 0.4375 4.4
0.125 0.4375 4.4
0.1875 0.4375 4.4
0.25 0.4375 4.4
0.3125 0.4375 4.4
0.375 0.4375 4.4
0.4375 0.4375 4.4
0.5 0.4375 4.4
0.5625 0.4375 4.4
0.625 0.4375 4.4
0.6875 0.4375 4.4
0.75 0.4375 4.4
0.8125 0.4375 4.4
0.875 0.4375 4.4
0.9375 0.4375 4.4
1 0.4375 4.4
1.0625 0.4375 4.4
1.125 0.4375 4.4
1.1875 0.4375 4.4
1.25 0.4375 4.4
1.3125 0.4375 4.4
1.375 0.4375 4.4
1.4375 0.4375 4.4
1.5 0.4375 4.4
1.5625 0.4375 4.4
1.625 0.4375 4.4
1.6875 0.4375 4.4
1.75 0.4375 4.4
1.8125 0.4375 4.4
1.875 0.4375 4.4
1.9375 0.4375 4.4
2 0.4375 4.4
2.0625 0.4375 4.4
2.125 0.4375 4.4
2.1875 0.4375 4.4
2.25 0.4375 4.4
2.3125 0.4375 4.4
2.375 0.4375 4.4
2.4375 0.4375 4.4
2.5 0.4375 4.4
2.5625 0.4375 4.4
2.625 0.4375 4.4
2.6875 0.4375 4.4
2.75 0.4375 4.4
2.8125 0.4375 4.4
2.875 0.4375 4.4
2.9375 0.4375 4.4
3 0.4375 4.4
3.0625 0.4375 4.4
3.125 0.4375 4.4
3.1875 0.4375 4.4
3.25 0.4375 4.4
3.3125 0.4375 4.4
3.375 0.4375 4.4
3.4375 0.4375 4.4
3.5 0.4375 4.4
3.5625 0.4375 4.4
3.625 0.4375 4.4
3.6875 0.4375 4.4
3.75 0.4375 4.4
3.8125 0.4375 4.4
3.875 0.4375 4.4
3.9375 0.4375 4.4
4 0.4375 4.4
0 0.5 4.4
0.0625 0.5 4.4
0.125 0.5 4.4
0.1875 0.5 4.4
0.25 0.5 4.4
0.3125 0.5 4.4
0.375 0.5 4.4
0.4375 0.5 4.4
0.5 0.5 4.4
0.5625 0.5 4.4
0.625 0.5 4.4
0.6875 0.5 4.4
0.75 0.5 4.4
0.8125 0.5 4.4
0.875 0.5 4.4
0.9375 0.5 4.4
1 0.5 4.4
1.0625 0.5 4.4
1.125 0.5 4.4
1.1875 0.5 4.4
1.25 0.5 4.4
1.3125 0.5 4.4
1.375 0.5 4.4
1.4375 0.5 4.4
1.5 0.5 4.4
1.5625 0.5 4.4
1.625 0.5 4.4
1.6875 0.5 4.4
1.75 0.5 4.4
1.8125 0.5 4.4
1.875 0.5 4.4
1.9375 0.5 4.4
2 0.5 4.4
2.0625 0.5 4.4
2.125 0.5 4.4
2.1875 0.5 4.4
2.25 0.5 4.4
2.3125 0.5 4.4
2.375 0.5 4.4
2.4375 0.5 4.4
2.5 0.5 4.4
2.5625 0.5 4.4
2.625 0.5 4.4
2.6875 0.5 4.4
2.75 0.5 4.4
2.8125 0.5 4.4
2.875 0.5 4.4
2.9375 0.5 4.4
3 0.5 4.4
3.0625 0.5 4.4
3.125 0.5 4.4
3.1875 0.5 4.4
3.25 0.5 4.4
3.3125 0.5 4.4
3.375 0.5 4.4
3.4375 0.5 4.4
3.5 0.5 4.4
3.5625 0.5 4.4
3.625 0.5 4.4
3.6875 0.5 4.4
3.75 0.5 4.4
3.8125 0.5 4.4
3.875 0.5 4.4
3.9375 0.5 4.4
4 0.5 4.4
0 0.5625 4.4
0.0625 0.5625 4.4
0.125 0.5625 4.4
0.1875 0.5625 4.4
0.25 0.5625 4.4
0.3125 0.5625 4.4
0.375 0.5625 4.4
0.4375 0.5625 4.4
0.5 0.5625 4.4
0.5625 0.5625 4.4
0.625 0.5625 4.4
0.6875 0.5625 4.4
0.75 0.5625 4.4
0.8125 0.5625 4.4
0.875 0.5625 4.4
0.9375 0.5625 4.4
1 0.5625 4.4
1.0625 0.5625 4.4
1.125 0.5625 4.4
1.1875 0.5625 4.4
1.25 0.5625 4.4
1.3125 0.5625 4.4
1.375 0.5625 4.4
1.4375 0.5625 4.4
1.5 0.5625 4.4
1.5625 0.5625 4.4
1.625 0.5625 4.4
1.6875 0.5625 4.4
1.75 0.5625 4.4
1.8125 0.5625 4.4
1.875 0.5625 4.4
1.9375 0.5625 4.4
2 0.5625 4.4
2.0625 0.5625 4.4
2.125 0.5625 4.4
2.1875 0.5625 4.4
2.25 0.5625 4.4
2.3125 0.5625 4.4
2.375 0.5625 4.4
2.4375 0.5625 4.4
2.5 0.5625 4.4
2.5625 0.5625 4.4
2.625 0.5625 4.4
2.6875 0.5625 4.4
2.75 0.5625 4.4
2.8125 0.5625 4.4
2.875 0.5625 4.4
2.9375 0.5625 4.4
3 0.5625 4.4
3.0625 0.5625 4.4
3.125 0.5625 4.4
3.1875 0.5625 4.4
3.25 0.5625 4.4
3.3125 0.5625 4.4
3.375 0.5625 4.4
3.4375 0.5625 4.4
3.5 0.5625 4.4
3.5625 0.5625 4.4
3.625 0.5625 4.4
3.6875 0.5625 4.4
3.75 0.5625 4.4
3.8125 0.5625 4.4
3.875 0.5625 4.4
3.9375 0.5625 4.4
4 0.5625 4.4
0 0.625 4.4
0.0625 0.625 4.4
0.125 0.625 4.4
0.1875 0.625 4.4
0.25 0.625 4.4
0.3125 0.625 4.4
0.375 0.625 4.4
0.4375 0.625 4.4
0.5 0.625 4.4
0.5625 0.625 4.4
0.625 0.625 4.4
0.6875 0.625 4.4
0.75 0.625 4.4
0.8125 0.625 4.4
0.875 0.625 4.4
0.9375 0.625 4.4
1 0.625 4.4
1.0625 0.625 4.4
1.125 0.625 4.4
1.1875 0.625 4.4
1.25 0.625 4.4
1.3125 0.625 4.4
1.375 0.625 4.4
1.4375 0.625 4.4
1.5 0.625 4.4
1.5625 0.625 4.4
1.625 0.625 4.4
1.6875 0.625 4.4
1.75 0.625 4.4
1.8125 0.625 4.4
1.875 0.625 4.4
1.9375 0.625 4.4
2 0.625 4.4
2.0625 0.625 4.4
2.125 0.625 4.4
2.1875 0.625 4.4
2.25 0.625 4.4
2.3125 0.625 4.4
2.375 0.625 4.4
2.4375 0.625 4.4
2.5 0.625 4.4
2.5625 0.625 4.4
2.625 0.625 4.4
2.6875 0.625 4.4
2.75 0.625 4.4
2.8125 0.625 4.4
2.875 0.625 4.4
2.9375 0.625 4.4
3 0.625 4.4
3.0625 0.625 4.4
3.125 0.625 4.4
3.1875 0.625 4.4
3.25 0.625 4.4
3.3125 0.625 4.4
3.375 0.625 4.4
3.4375 0.625 4.4
3.5 0.625 4.4
3.5625 0.625 4.4
3.625 0.625 4.4
3.6875 0.625 4.4
3.75 0.625 4.4
3.8125 0.625 4.4
3.875 0.625 4.4
3.9375 0.625 4.4
4 0.625 4.4
0 0.6875 4.4
0.0625 0.6875 4.4
0.125 0.6875 4.4
0.1875 0.6875 4.4
0.25 0.6875 4.4
0.3125 0.6875 4.4
0.375 0.6875 4.4
0.4375 0.6875 4.4
0.5 0.6875 4.4
0.5625 0.6875 4.4
0.625 0.6875 4.4
0.6875 0.6875 4.4
0.75 0.6875 4.4
0.8125 0.6875 4.4
0.875 0.6875 4.4
0.9375 0.6875 4.4
1 0.6875 4.4
1.0625 0.6875 4.4
1.125 0.6875 4.4
1.1875 0.6875 4.4
1.25 0.6875 4.4
1.3125 0.6875 4.4
1.375 0.6875 4.4
1.4375 0.6875 4.4
1.5 0.6875 4.4
1.5625 0.6875 4.4
1.625 0.6875 4.4
1.6875 0.6875 4.4
1.75 0.6875 4.4
1.8125 0.6875 4.4
1.875 0.6875 4.4
1.9375 0.6875 4.4
2 0.6875 4.4
2.0625 0.6875 4.4
2.125 0.6875 4.4
2.1875 0.6875 4.4
2.25 0.6875 4.4
2.3125 0.6875 4.4
2.375 0.6875 4.4
2.4375 0.6875 4.4
2.5 0.6875 4.4
2.5625 0.6875 4.4
2.625 0.6875 4.4
2.6875 0.6875 4.4
2.75 0.6875 4.4
2.8125 0.6875 4.4
2.875 0.6875 4.4
2.9375 0.6875 4.4
3 0.6875 4.4
3.0625 0.6875 4.4
3.125 0.6875 4.4
3.1875 0.6875 4.4
3.25 0.6875 4.4
3.3125 0.6875 4.4
3.375 0.6875 4.4
3.4375 0.6875 4.4
3.5 0.6875 4.4
3.5625 0.6875 4.4
3.625 0.6875 4.4
3.6875 0.6875 4.4
3.75 0.6875 4.4
3.8125 0.6875 4.4
3.875 0.6875 4.4
3.9375 0.6875 4.4
4 0.6875 4.4
0 0.75 4.4
0.0625 0.75 4.4
0.125 0.75 4.4
0.1875 0.75 4.4
0.25 0.75 4.4
0.3125 0.75 4.4
0.375 0.75 4.4
0.4375 0.75 4.4
0.5 0.75 4.4
0.5625 0.75 4.4
0.625 0.75 4.4
0.6875 0.75 4.4
0.75 0.75 4.4
0.8125 0.75 4.4
0.875 0.75 4.4
0.9375 0.75 4.4
1 0.75 4.4
1.0625 0.75 4.4
1.125 0.75 4.4
1.1875 0.75 4.4
1.25 0.75 4.4
1.3125 0.75 4.4
1.375 0.75 4.4
1.4375 0.75 4.4
1.5 0.75 4.4
1.5625 0.75 4.4
1.625 0.75 4.4
1.6875 0.75 4.4
1.75 0.75 4.4
1.8125 0.75 4.4
1.875 0.75 4.4
1.9375 0.75 4.4
2 0.75 4.4
2.0625 0.75 4.4
2.125 0.75 4.4
2.1875 0.75 4.4
2.25 0.75 4.4
2.3125 0.75 4.4
2.375 0.75 4.4
2.4375 0.75 4.4
2.5 0.75 4.4
2.5625 0.75 4.4
2.625 0.75 4.4
2.6875 0.75 4.4
2.75 0.75 4.4
2.8125 0.75 4.4
2.875 0.75 4.4
2.9375 0.75 4.4
3 0.75 4.4
3.0625 0.75 4.4
3.125 0.75 4.4
3.1875 0.75 4.4
3.25 0.75 4.4
3.3125 0.75 4.4
3.375 0.75 4.4
3.4375 0.75 4.4
3.5 0.75 4.4
3.5625 0.75 4.4
3.625 0.75 4.4
3.6875 0.75 4.4
3.75 0.75 4.4
3.8125 0.75 4.4
3.875 0.75 4.4
3.9375 0.75 4.4
4 0.75 4.4
0 0.8125 4.4
0.0625 0.8125 4.4
0.125 0.8125 4.4
0.1875 0.8125 4.4
0.25 0.8125 4.4
0.3125 0.8125 4.4
0.375 0.8125 4.4
0.4375 0.8125 4.4
0.5 0.8125 4.4
0.5625 0.8125 4.4
0.625 0.8125 4.4
0.6875 0.8125 4.4
0.75 0.8125 4.4
0.8125 0.8125 4.4
0.875 0.8125 4.4
0.9375 0.8125 4.4
1 0.8125 4.4
1.0625 0.8125 4.4
1.125 0.8125 4.4
1.1875 0.8125 4.4
1.25 0.8125 4.4
1.3125 0.8125 4.4
1.375 0.8125 4.4
1.4375 0.8125 4.4
1.5 0.8125 4.4
1.5625 0.8125 4.4
1.625 0.8125 4.4
1.6875 0.8125 4.4
1.75 0.8125 4.4
1.8125 0.8125 4.4
1.875 0.8125 4.4
1.9375 0.8125 4.4
2 0.8125 4.4
2.0625 0.8125 4.4
2.125 0.8125 4.4
2.1875 0.8125 4.4
2.25 0.8125 4.4
2.3125 0.8125 4.4
2.375 0.8125 4.4
2.4375 0.8125 4.4
2.5 0.8125 4.4
2.5625 0.8125 4.4
2.625 0.8125 4.4
2.6875 0.8125 4.4
2.75 0.8125 4.4
2.8125 0.8125 4.4
2.875 0.8125 4.4
2.9375 0.8125 4.4
3 0.8125 4.4
3.0625 0.8125 4.4
3.125 0.8125 4.4
3.1875 0.8125 4.4
3.25 0.8125 4.4
3.3125 0.8125 4.4
3.375 0.8125 4.4
3.4375 0.8125 4.4
3.5 0.8125 4.4
3.5625 0.8125 4.4
3.625 0.8125 4.4
3.6875 0.8125 4.4
3.75 0.8125 4.4
3.8125 0.8125 4.4
3.875 0.8125 4.4
3.9375 0.8125 4.4
4 0.8125 4.4
0 0.875 4.4
0.0625 0.875 4.4
0.125 0.875 4.4
0.1875 0.875 4.4
0.25 0.875 4.4
0.3125 0.875 4.4
0.375 0.875 4.4
0.4375 0.875 4.4
0.5 0.875 4.4
0.5625 0.875 4.4
0.625 0.875 4.4
0.6875 0.875 4.4
0.75 0.875 4.4
0.8125 0.875 4.4
0.875 0.875 4.4
0.9375 0.875 4.4
1 0.875 4.4
1.0625 0.875 4.4
1.125 0.875 4.4
1.1875 0.875 4.4
1.25 0.875 4.4
1.3125 0.875 4.4
1.375 0.875 4.4
1.4375 0.875 4.4
1.5 0.875 4.4
1.5625 0.875 4.4
1.625 0.875 4.4
1.6875 0.875 4.4
1.75 0.875 4.4
1.8125 0.875 4.4
1.875 0.875 4.4
1.9375 0.875 4.4
2 0.875 4.4
2.0625 0.875 4.4
2.125 0.875 4.4
2.1875 0.875 4.4
2.25 0.875 4.4
2.3125 0.875 4.4
2.375 0.875 4.4
2.4375 0.875 4.4
2.5 0.875 4.4
2.5625 0.875 4.4
2.625 0.875 4.4
2.6875 0.875 4.4
2.75 0.875 4.4
2.8125 0.875 4.4
2.875 0.875 4.4
2.9375 0.875 4.4
3 0.875 4.4
3.0625 0.875 4.4
3.125 0.875 4.4
3.1875 0.875 4.4
3.25 0.875 4.4
3.3125 0.875 4.4
3.375 0.875 4.4
3.4375 0.875 4.4
3.5 0.875 4.4
3.5625 0.875 4.4
3.625 0.875 4.4
3.6875 0.875 4.4
3.75 0.875 4.4
3.8125 0.875 4.4
3.875 0.875 4.4
3.9375 0.875 4.4
4 0.875 4.4
0 0.9375 4.4
0.0625 0.9375 4.4
0.125 0.9375 4.4
0.1875 0.9375 4.4
0.25 0.9375 4.4
0.3125 0.9375 4.4
0.375 0.9375 4.4
0.4375 0.9375 4.4
0.5 0.9375 4.4
0.5625 0.9375 4.4
0.625 0.9375 4.4
0.6875 0.9375 4.4
0.75 0.9375 4.4
0.8125 0.9375 4.4
0.875 0.9375 4.4
0.9375 0.9375 4.4
1 0.9375 4.4
1.0625 0.9375 4.4
1.125 0.9375 4.4
1.1875 0.9375 4.4
1.25 0.9375 4.4
1.3125 0.9375 4.4
1.375 0.9375 4.4
1.4375 0.9375 4.4
1.5 0.9375 4.4
1.5625 0.9375 4.4
1.625 0.9375 4.4
1.6875 0.9375 4.4
1.75 0.9375 4.4
1.8125 0.9375 4.4
1.875 0.9375 4.4
1.9375 0.9375 4.4
2 0.9375 4.4
2.0625 0.9375 4.4
2.125 0.9375 4.4
2.1875 0.9375 4.4
2.25 0.9375 4.4
2.3125 0.9375 4.4
2.375 0.9375 4.4
2.4375 0.9375 4.4
2.5 0.9375 4.4
2.5625 0.9375 4.4
2.625 0.9375 4.4
2.6875 0.9375 4.4
2.75 0.9375 4.4
2.8125 0.9375 4.4
2.875 0.9375 4.4
2.9375 0.9375 4.4
3 0.9375 4.4
3.0625 0.9375 4.4
3.125 0.9375 4.4
3.1875 0.9375 4.4
3.25 0.9375 4.4
3.3125 0.9375 4.4
3.375 0.9375 4.4
3.4375 0.9375 4.4
3.5 0.9375 4.4
3.5625 0.9375 4.4
3.625 0.9375 4.4
3.6875 0.9375 4.4
3.75 0.9375 4.4
3.8125 0.9375 4.4
3.875 0.9375 4.4
3.9375 0.9375 4.4
4 0.9375 4.4
0 1 4.4
0.0625 1 4.4
0.125 1 4.4
0.1875 1 4.4
0.25 1 4.4
0.3125 1 4.4
0.375 1 4.4
0.4375 1 4.4
0.5 1 4.4
0.5625 1 4.4
0.625 1 4.4
0.6875 1 4.4
0.75 1 4.4
0.8125 1 4.4
0.875 1 4.4
0.9375 1 4.4
1 1 4.4
1.0625 1 4.4
1.125 1 4.4
1.1875 1 4.4
1.25 1 4.4
1.3125 1 4.4
1.375 1 4.4
1.4375 1 4.4
1.5 1 4.4
1.5625 1 4.4
1.625 1 4.4
1.6875 1 4.4
1.75 1 4.4
1.8125 1 4.4
1.875 1 4.4
1.9375 1 4.4
2 1 4.4
2.0625 1 4.4
2.125 1 4.4
2.1875 1 4.4
2.25 1 4.4
2.3125 1 4.4
2.375 1 4.4
2.4375 1 4.4
2.5 1 4.4
2.5625 1 4.4
2.625 1 4.4
2.6875 1 4.4
2.75 1 4.4
2.8125 1 4.4
2.875 1 4.4
2.9375 1 4.4
3 1 4.4
3.0625 1 4.4
3.125 1 4.4
3.1875 1 4.4
3.25 1 4.4
3.3125 1 4.4
3.375 1 4.4
3.4375 1 4.4
3.5 1 4.4
3.5625 1 4.4
3.625 1 4.4
3.6875 1 4.4
3.75 1 4.4
3.8125 1 4.4
3.875 1 4.4
3.9375 1 4.4
4 1 4.4
0 0 4.4625
0.0625 0 4.4625
0.125 0 4.4625
0.1875 0 4.4625
0.25 0 4.4625
0.3125 0 4.4625
0.375 0 4.4625
0.4375 0 4.4625
0.5 0 4.4625
0.5625 0 4.4625
0.625 0 4.4625
0.6875 0 4.4625
0.75 0 4.4625
0.8125 0 4.4625
0.875 0 4.4625
0.9375 0 4.4625
1 0 4.4625
1.0625 0 4.4625
1.125 0 4.4625
1.1875 0 4.4625
1.25 0 4.4625
1.3125 0 4.4625
1.375 0 4.4625
1.4375 0 4.4625
1.5 0 4.4625
1.5625 0 4.4625
1.625 0 4.4625
1.6875 0 4.4625
1.75 0 4.4625
1.8125 0 4.4625
1.875 0 4.4625
1.9375 0 4.4625
2 0 4.4625
2.0625 0 4.4625
2.125 0 4.4625
2.1875 0 4.4625
2.25 0 4.4625
2.3125 0 4.4625
2.375 0 4.4625
2.4375 0 4.4625
2.5 0 4.4625
2.5625 0 4.4625
2.625 0 4.4625
2.6875 0 4.4625
2.75 0 4.4625
2.8125 0 4.4625
2.875 0 4.4625
2.9375 0 4.4625
3 0 4.4625
3.0625 0 4.4625
3.125 0 4.4625
3.1875 0 4.4625
3.25 0 4.4625
3.3125 0 4.4625
3.375 0 4.4625
3.4375 0 4.4625
3.5 0 4.4625
3.5625 0 4.4625
3.625 0 4.4625
3.6875 0 4.4625
3.75 0 4.4625
3.8125 0 4.4625
3.875 0 4.4625
3.9375 0 4.4625
4 0 4.4625
0 0.0625 4.4625
0.0625 0.0625 4.4625
0.125 0.0625 4.4625
0.1875 0.0625 4.4625
0.25 0.0625 4.4625
0.3125 0.0625 4.4625
0.375 0.0625 4.4625
0.4375 0.0625 4.4625
0.5 0.0625 4.4625
0.5625 0.0625 4.4625
0.625 0.0625 4.4625
0.6875 0.0625 4.4625
0.75 0.0625 4.4625
0.8125 0.0625 4.4625
0.875 0.0625 4.4625
0.9375 0.0625 4.4625
1 0.0625 4.4625
1.0625 0.0625 4.4625
1.125 0.0625 4.4625
1.1875 0.0625 4.4625
1.25 0.0625 4.4625
1.3125 0.0625 4.4625
1.375 0.0625 4.4625
1.4375 0.0625 4.4625
1.5 0.0625 4.4625
1.5625 0.0625 4.4625
1.625 0.0625 4.4625
1.6875 0.0625 4.4625
1.75 0.0625 4.4625
1.8125 0.0625 4.4625
1.875 0.0625 4.4625
1.9375 0.0625 4.4625
2 0.0625 4.4625
2.0625 0.0625 4.4625
2.125 0.0625 4.4625
2.1875 0.0625 4.4625
2.25 0.0625 4.4625
2.3125 0.0625 4.4625
2.375 0.0625 4.4625
2.4375 0.0625 4.4625
2.5 0.0625 4.4625
2.5625 0.0625 4.4625
2.625 0.0625 4.4625
2.6875 0.0625 4.4625
2.75 0.0625 4.4625
2.8125 0.0625 4.4625
2.875 0.0625 4.4625
2.9375 0.0625 4.4625
3 0.0625 4.4625
3.0625 0.0625 4.4625
3.125 0.0625 4.4625
3.1875 0.0625 4.4625
3.25 0.0625 4.4625
3.3125 0.0625 4.4625
3.375 0.0625 4.4625
3.4375 0.0625 4.4625
3.5 0.0625 4.4625
3.5625 0.0625 4.4625
3.625 0.0625 4.4625
3.6875 0.0625 4.4625
3.75 0.0625 4.4625
3.8125 0.0625 4.4625
3.875 0.0625 4.4625
3.9375 0.0625 4.4625
4 0.0625 4.4625
0 0.125 4.4625
0.0625 0.125 4.4625
0.125 0.125 4.4625
0.1875 0.125 4.4625
0.25 0.125 4.4625
0.3125 0.125 4.4625
0.375 0.125 4.4625
0.4375 0.125 4.4625
0.5 0.125 4.4625
0.5625 0.125 4.4625
0.625 0.125 4.4625
0.6875 0.125 4.4625
0.75 0.125 4.4625
0.8125 0.125 4.4625
0.875 0.125 4.4625
0.9375 0.125 4.4625
1 0.125 4.4625
1.0625 0.125 4.4625
1.125 0.125 4.4625
1.1875 0.125 4.4625
1.25 0.125 4.4625
1.3125 0.125 4.4625
1.375 0.125 4.4625
1.4375 0.125 4.4625
1.5 0.125 4.4625
1.5625 0.125 4.4625
1.625 0.125 4.4625
1.6875 0.125 4.4625
1.75 0.125 4.4625
1.8125 0.125 4.4625
1.875 0.125 4.4625
1.9375 0.125 4.4625
2 0.125 4.4625
2.0625 0.125 4.4625
2.125 0.125 4.4625
2.1875 0.125 4.4625
2.25 0.125 4.4625
2.3125 0.125 4.4625
2.375 0.125 4.4625
2.4375 0.125 4.4625
2.5 0.125 4.4625
2.5625 0.125 4.4625
2.625 0.125 4.4625
2.6875 0.125 4.4625
2.75 0.125 4.4625
2.8125 0.125 4.4625
2.875 0.125 4.4625
2.9375 0.125 4.4625
3 0.125 4.4625
3.0625 0.125 4.4625
3.125 0.125 4.4625
3.1875 0.125 4.4625
3.25 0.125 4.4625
3.3125 0.125 4.4625
3.375 0.125 4.4625
3.4375 0.125 4.4625
3.5 0.125 4.4625
3.5625 0.125 4.4625
3.625 0.125 4.4625
3.6875 0.125 4.4625
3.75 0.125 4.4625
3.8125 0.125 4.4625
3.875 0.125 4.4625
3.9375 0.125 4.4625
4 0.125 4.4625
0 0.1875 4.4625
0.0625 0.1875 4.4625
0.125 0.1875 4.4625
0.1875 0.1875 4.4625
0.25 0.1875 4.4625
0.3125 0.1875 4.4625
0.375 0.1875 4.4625
0.4375 0.1875 4.4625
0.5 0.1875 4.4625
0.5625 0.1875 4.4625
0.625 0.1875 4.4625
0.6875 0.1875 4.4625
0.75 0.1875 4.4625
0.8125 0.1875 4.4625
0.875 0.1875 4.4625
0.9375 0.1875 4.4625
1 0.1875 4.4625
1.0625 0.1875 4.4625
1.125 0.1875 4.4625
1.1875 0.1875 4.4625
1.25 0.1875 4.4625
1.3125 0.1875 4.4625
1.375 0.1875 4.4625
1.4375 0.1875 4.4625
1.5 0.1875 4.4625
1.5625 0.1875 4.4625
1.625 0.1875 4.4625
1.6875 0.1875 4.4625
1.75 0.1875 4.4625
1.8125 0.1875 4.4625
1.875 0.1875 4.4625
1.9375 0.1875 4.4625
2 0.1875 4.4625
2.0625 0.1875 4.4625
2.125 0.1875 4.4625
2.1875 0.1875 4.4625
2.25 0.1875 4.4625
2.3125 0.1875 4.4625
2.375 0.1875 4.4625
2.4375 0.1875 4.4625
2.5 0.1875 4.4625
2.5625 0.1875 4.4625
2.625 0.1875 4.4625
2.6875 0.1875 4.4625
2.75 0.1875 4.4625
2.8125 0.1875 4.4625
2.875 0.1875 4.4625
2.9375 0.1875 4.4625
3 0.1875 4.4625
3.0625 0.1875 4.4625
3.125 0.1875 4.4625
3.1875 0.1875 4.4625
3.25 0.1875 4.4625
3.3125 0.1875 4.4625
3.375 0.1875 4.4625
3.4375 0.1875 4.4625
3.5 0.1875 4.4625
3.5625 0.1875 4.4625
3.625 0.1875 4.4625
3.6875 0.1875 4.4625
3.75 0.1875 4.4625
3.8125 0.1875 4.4625
3.875 0.1875 4.4625
3.9375 0.1875 4.4625
4 0.1875 4.4625
0 0.25 4.4625
0.0625 0.25 4.4625
0.125 0.25 4.4625
0.1875 0.25 4.4625
0.25 0.25 4.4625
0.3125 0.25 4.4625
0.375 0.25 4.4625
0.4375 0.25 4.4625
0.5 0.25 4.4625
0.5625 0.25 4.4625
0.625 0.25 4.4625
0.6875 0.25 4.4625
0.75 0.25 4.4625
0.8125 0.25 4.4625
0.875 0.25 4.4625
0.9375 0.25 4.4625
1 0.25 4.4625
1.0625 0.25 4.4625
1.125 0.25 4.4625
1.1875 0.25 4.4625
1.25 0.25 4.4625
1.3125 0.25 4.4625
1.375 0.25 4.4625
1.4375 0.25 4.4625
1.5 0.25 4.4625
1.5625 0.25 4.4625
1.625 0.25 4.4625
1.6875 0.25 4.4625
1.75 0.25 4.4625
1.8125 0.25 4.4625
1.875 0.25 4.4625
1.9375 0.25 4.4625
2 0.25 4.4625
2.0625 0.25 4.4625
2.125 0.25 4.4625
2.1875 0.25 4.4625
2.25 0.25 4.4625
2.3125 0.25 4.4625
2.375 0.25 4.4625
2.4375 0.25 4.4625
2.5 0.25 4.4625
2.5625 0.25 4.4625
2.625 0.25 4.4625
2.6875 0.25 4.4625
2.75 0.25 4.4625
2.8125 0.25 4.4625
2.875 0.25 4.4625
2.9375 0.25 4.4625
3 0.25 4.4625
3.0625 0.25 4.4625
3.125 0.25 4.4625
3.1875 0.25 4.4625
3.25 0.25 4.4625
3.3125 0.25 4.4625
3.375 0.25 4.4625
3.4375 0.25 4.4625
3.5 0.25 4.4625
3.5625 0.25 4.4625
3.625 0.25 4.4625
3.6875 0.25 4.4625
3.75 0.25 4.4625
3.8125 0.25 4.4625
3.875 0.25 4.4625
3.9375 0.25 4.4625
4 0.25 4.4625
0 0.3125 4.4625
0.0625 0.3125 4.4625
0.125 0.3125 4.4625
0.1875 0.3125 4.4625
0.25 0.3125 4.4625
0.3125 0.3125 4.4625
0.375 0.3125 4.4625
0.4375 0.3125 4.4625
0.5 0.3125 4.4625
0.5625 0.3125 4.4625
0.625 0.3125 4.4625
0.6875 0.3125 4.4625
0.75 0.3125 4.4625
0.8125 0.3125 4.4625
0.875 0.3125 4.4625
0.9375 0.3125 4.4625
1 0.3125 4.4625
1.0625 0.3125 4.4625
1.125 0.3125 4.4625
1.1875 0.3125 4.4625
1.25 0.3125 4.4625
1.3125 0.3125 4.4625
1.375 0.3125 4.4625
1.4375 0.3125 4.4625
1.5 0.3125 4.4625
1.5625 0.3125 4.4625
1.625 0.3125 4.4625
1.6875 0.3125 4.4625
1.75 0.3125 4.4625
1.8125 0.3125 4.4625
1.875 0.3125 4.4625
1.9375 0.3125 4.4625
2 0.3125 4.4625
2.0625 0.3125 4.4625
2.125 0.3125 4.4625
2.1875 0.3125 4.4625
2.25 0.3125 4.4625
2.3125 0.3125 4.4625
2.375 0.3125 4.4625
2.4375 0.3125 4.4625
2.5 0.3125 4.4625
2.5625 0.3125 4.4625
2.625 0.3125 4.4625
2.6875 0.3125 4.4625
2.75 0.3125 4.4625
2.8125 0.3125 4.4625
2.875 0.3125 4.4625
2.9375 0.3125 4.4625
3 0.3125 4.4625
3.0625 0.3125 4.4625
3.125 0.3125 4.4625
3.1875 0.3125 4.4625
3.25 0.3125 4.4625
3.3125 0.3125 4.4625
3.375 0.3125 4.4625
3.4375 0.3125 4.4625
3.5 0.3125 4.4625
3.5625 0.3125 4.4625
3.625 0.3125 4.4625
3.6875 0.3125 4.4625
3.75 0.3125 4.4625
3.8125 0.3125 4.4625
3.875 0.3125 4.4625
3.9375 0.3125 4.4625
4 0.3125 4.4625
0 0.375 4.4625
0.0625 0.375 4.4625
0.125 0.375 4.4625
0.1875 0.375 4.4625
0.25 0.375 4.4625
0.3125 0.375 4.4625
0.375 0.375 4.4625
0.4375 0.375 4.4625
0.5 0.375 4.4625
0.5625 0.375 4.4625
0.625 0.375 4.4625
0.6875 0.375 4.4625
0.75 0.375 4.4625
0.8125 0.375 4.4625
0.875 0.375 4.4625
0.9375 0.375 4.4625
1 0.375 4.4625
1.0625 0.375 4.4625
1.125 0.375 4.4625
1.1875 0.375 4.4625
1.25 0.375 4.4625
1.3125 0.375 4.4625
1.375 0.375 4.4625
1.4375 0.375 4.4625
1.5 0.375 4.4625
1.5625 0.375 4.4625
1.625 0.375 4.4625
1.6875 0.375 4.4625
1.75 0.375 4.4625
1.8125 0.375 4.4625
1.875 0.375 4.4625
1.9375 0.375 4.4625
2 0.375 4.4625
2.0625 0.375 4.4625
2.125 0.375 4.4625
2.1875 0.375 4.4625
2.25 0.375 4.4625
2.3125 0.375 4.4625
2.375 0.375 4.4625
2.4375 0.375 4.4625
2.5 0.375 4.4625
2.5625 0.375 4.4625
2.625 0.375 4.4625
2.6875 0.375 4.4625
2.75 0.375 4.4625
2.8125 0.375 4.4625
2.875 0.375 4.4625
2.9375 0.375 4.4625
3 0.375 4.4625
3.0625 0.375 4.4625
3.125 0.375 4.4625
3.1875 0.375 4.4625
3.25 0.375 4.4625
3.3125 0.375 4.4625
3.375 0.375 4.4625
3.4375 0.375 4.4625
3.5 0.375 4.4625
3.5625 0.375 4.4625
3.625 0.375 4.4625
3.6875 0.375 4.4625
3.75 0.375 4.4625
3.8125 0.375 4.4625
3.875 0.375 4.4625
3.9375 0.375 4.4625
4 0.375 4.4625
0 0.4375 4.4625
0.0625 0.4375 4.4625
0.125 0.4375 4.4625
0.1875 0.4375 4.4625
0.25 0.4375 4.4625
0.3125 0.4375 4.4625
0.375 0.4375 4.4625
0.4375 0.4375 4.4625
0.5 0.4375 4.4625
0.5625 0.4375 4.4625
0.625 0.4375 4.4625
0.6875 0.4375 4.4625
0.75 0.4375 4.4625
0.8125 0.4375 4.4625
0.875 0.4375 4.4625
0.9375 0.4375 4.4625
1 0.4375 4.4625
1.0625 0.4375 4.4625
1.125 0.4375 4.4625
1.1875 0.4375 4.4625
1.25 0.4375 4.4625
1.3125 0.4375 4.4625
1.375 0.4375 4.4625
1.4375 0.4375 4.4625
1.5 0.4375 4.4625
1.5625 0.4375 4.4625
1.625 0.4375 4.4625
1.6875 0.4375 4.4625
1.75 0.4375 4.4625
1.8125 0.4375 4.4625
1.875 0.4375 4.4625
1.9375 0.4375 4.4625
2 0.4375 4.4625
2.0625 0.4375 4.4625
2.125 0.4375 4.4625
2.1875 0.4375 4.4625
2.25 0.4375 4.4625
2.3125 0.4375 4.4625
2.375 0.4375 4.4625
2.4375 0.4375 4.4625
2.5 0.4375 4.4625
2.5625 0.4375 4.4625
2.625 0.4375 4.4625
2.6875 0.4375 4.4625
2.75 0.4375 4.4625
2.8125 0.4375 4.4625
2.875 0.4375 4.4625
2.9375 0.4375 4.4625
3 0.4375 4.4625
3.0625 0.4375 4.4625
3.125 0.4375 4.4625
3.1875 0.4375 4.4625
3.25 0.4375 4.4625
3.3125 0.4375 4.4625
3.375 0.4375 4.4625
3.4375 0.4375 4.4625
3.5 0.4375 4.4625
3.5625 0.4375 4.4625
3.625 0.4375 4.4625
3.6875 0.4375 4.4625
3.75 0.4375 4.4625
3.8125 0.4375 4.4625
3.875 0.4375 4.4625
3.9375 0.4375 4.4625
4 0.4375 4.4625
0 0.5 4.4625
0.0625 0.5 4.4625
0.125 0.5 4.4625
0.1875 0.5 4.4625
0.25 0.5 4.4625
0.3125 0.5 4.4625
0.375 0.5 4.4625
0.4375 0.5 4.4625
0.5 0.5 4.4625
0.5625 0.5 4.4625
0.625 0.5 4.4625
0.6875 0.5 4.4625
0.75 0.5 4.4625
0.8125 0.5 4.4625
0.875 0.5 4.4625
0.9375 0.5 4.4625
1 0.5 4.4625
1.0625 0.5 4.4625
1.125 0.5 4.4625
1.1875 0.5 4.4625
1.25 0.5 4.4625
1.3125 0.5 4.4625
1.375 0.5 4.4625
1.4375 0.5 4.4625
1.5 0.5 4.4625
1.5625 0.5 4.4625
1.625 0.5 4.4625
1.6875 0.5 4.4625
1.75 0.5 4.4625
1.8125 0.5 4.4625
1.875 0.5 4.4625
1.9375 0.5 4.4625
2 0.5 4.4625
2.0625 0.5 4.4625
2.125 0.5 4.4625
2.1875 0.5 4.4625
2.25 0.5 4.4625
2.3125 0.5 4.4625
2.375 0.5 4.4625
2.4375 0.5 4.4625
2.5 0.5 4.4625
2.5625 0.5 4.4625
2.625 0.5 4.4625
2.6875 0.5 4.4625
2.75 0.5 4.4625
2.8125 0.5 4.4625
2.875 0.5 4.4625
2.9375 0.5 4.4625
3 0.5 4.4625
3.0625 0.5 4.4625
3.125 0.5 4.4625
3.1875 0.5 4.4625
3.25 0.5 4.4625
3.3125 0.5 4.4625
3.375 0.5 4.4625
3.4375 0.5 4.4625
3.5 0.5 4.4625
3.5625 0.5 4.4625
3.625 0.5 4.4625
3.6875 0.5 4.4625
3.75 0.5 4.4625
3.8125 0.5 4.4625
3.875 0.5 4.4625
3.9375 0.5 4.4625
4 0.5 4.4625
0 0.5625 4.4625
0.0625 0.5625 4.4625
0.125 0.5625 4.4625
0.1875 0.5625 4.4625
0.25 0.5625 4.4625
0.3125 0.5625 4.4625
0.375 0.5625 4.4625
0.4375 0.5625 4.4625
0.5 0.5625 4.4625
0.5625 0.5625 4.4625
0.625 0.5625 4.4625
0.6875 0.5625 4.4625
0.75 0.5625 4.4625
0.8125 0.5625 4.4625
0.875 0.5625 4.4625
0.9375 0.5625 4.4625
1 0.5625 4.4625
1.0625 0.5625 4.4625
1.125 0.5625 4.4625
1.1875 0.5625 4.4625
1.25 0.5625 4.4625
1.3125 0.5625 4.4625
1.375 0.5625 4.4625
1.4375 0.5625 4.4625
1.5 0.5625 4.4625
1.5625 0.5625 4.4625
1.625 0.5625 4.4625
1.6875 0.5625 4.4625
1.75 0.5625 4.4625
1.8125 0.5625 4.4625
1.875 0.5625 4.4625
1.9375 0.5625 4.4625
2 0.5625 4.4625
2.0625 0.5625 4.4625
2.125 0.5625 4.4625
2.1875 0.5625 4.4625
2.25 0.5625 4.4625
2.3125 0.5625 4.4625
2.375 0.5625 4.4625
2.4375 0.5625 4.4625
2.5 0.5625 4.4625
2.5625 0.5625 4.4625
2.625 0.5625 4.4625
2.6875 0.5625 4.4625
2.75 0.5625 4.4625
2.8125 0.5625 4.4625
2.875 0.5625 4.4625
2.9375 0.5625 4.4625
3 0.5625 4.4625
3.0625 0.5625 4.4625
3.125 0.5625 4.4625
3.1875 0.5625 4.4625
3.25 0.5625 4.4625
3.3125 0.5625 4.4625
3.375 0.5625 4.4625
3.4375 0.5625 4.4625
3.5 0.5625 4.4625
3.5625 0.5625 4.4625
3.625 0.5625 4.4625
3.6875 0.5625 4.4625
3.75 0.5625 4.4625
3.8125 0.5625 4.4625
3.875 0.5625 4.4625
3.9375 0.5625 4.4625
4 0.5625 4.4625
0 0.625 4.4625
0.0625 0.625 4.4625
0.125 0.625 4.4625
0.1875 0.625 4.4625
0.25 0.625 4.4625
0.3125 0.625 4.4625
0.375 0.625 4.4625
0.4375 0.625 4.4625
0.5 0.625 4.4625
0.5625 0.625 4.4625
0.625 0.625 4.4625
0.6875 0.625 4.4625
0.75 0.625 4.4625
0.8125 0.625 4.4625
0.875 0.625 4.4625
0.9375 0.625 4.4625
1 0.625 4.4625
1.0625 0.625 4.4625
1.125 0.625 4.4625
1.1875 0.625 4.4625
1.25 0.625 4.4625
1.3125 0.625 4.4625
1.375 0.625 4.4625
1.4375 0.625 4.4625
1.5 0.625 4.4625
1.5625 0.625 4.4625
1.625 0.625 4.4625
1.6875 0.625 4.4625
1.75 0.625 4.4625
1.8125 0.625 4.4625
1.875 0.625 4.4625
1.9375 0.625 4.4625
2 0.625 4.4625
2.0625 0.625 4.4625
2.125 0.625 4.4625
2.1875 0.625 4.4625
2.25 0.625 4.4625
2.3125 0.625 4.4625
2.375 0.625 4.4625
2.4375 0.625 4.4625
2.5 0.625 4.4625
2.5625 0.625 4.4625
2.625 0.625 4.4625
2.6875 0.625 4.4625
2.75 0.625 4.4625
2.8125 0.625 4.4625
2.875 0.625 4.4625
2.9375 0.625 4.4625
3 0.625 4.4625
3.0625 0.625 4.4625
3.125 0.625 4.4625
3.1875 0.625 4.4625
3.25 0.625 4.4625
3.3125 0.625 4.4625
3.375 0.625 4.4625
3.4375 0.625 4.4625
3.5 0.625 4.4625
3.5625 0.625 4.4625
3.625 0.625 4.4625
3.6875 0.625 4.4625
3.75 0.625 4.4625
3.8125 0.625 4.4625
3.875 0.625 4.4625
3.9375 0.625 4.4625
4 0.625 4.4625
0 0.6875 4.4625
0.0625 0.6875 4.4625
0.125 0.6875 4.4625
0.1875 0.6875 4.4625
0.25 0.6875 4.4625
0.3125 0.6875 4.4625
0.375 0.6875 4.4625
0.4375 0.6875 4.4625
0.5 0.6875 4.4625
0.5625 0.6875 4.4625
0.625 0.6875 4.4625
0.6875 0.6875 4.4625
0.75 0.6875 4.4625
0.8125 0.6875 4.4625
0.875 0.6875 4.4625
0.9375 0.6875 4.4625
1 0.6875 4.4625
1.0625 0.6875 4.4625
1.125 0.6875 4.4625
1.1875 0.6875 4.4625
1.25 0.6875 4.4625
1.3125 0.6875 4.4625
1.375 0.6875 4.4625
1.4375 0.6875 4.4625
1.5 0.6875 4.4625
1.5625 0.6875 4.4625
1.625 0.6875 4.4625
1.6875 0.6875 4.4625
1.75 0.6875 4.4625
1.8125 0.6875 4.4625
1.875 0.6875 4.4625
1.9375 0.6875 4.4625
2 0.6875 4.4625
2.0625 0.6875 4.4625
2.125 0.6875 4.4625
2.1875 0.6875 4.4625
2.25 0.6875 4.4625
2.3125 0.6875 4.4625
2.375 0.6875 4.4625
2.4375 0.6875 4.4625
2.5 0.6875 4.4625
2.5625 0.6875 4.4625
2.625 0.6875 4.4625
2.6875 0.6875 4.4625
2.75 0.6875 4.4625
2.8125 0.6875 4.4625
2.875 0.6875 4.4625
2.9375 0.6875 4.4625
3 0.6875 4.4625
3.0625 0.6875 4.4625
3.125 0.6875 4.4625
3.1875 0.6875 4.4625
3.25 0.6875 4.4625
3.3125 0.6875 4.4625
3.375 0.6875 4.4625
3.4375 0.6875 4.4625
3.5 0.6875 4.4625
3.5625 0.6875 4.4625
3.625 0.6875 4.4625
3.6875 0.6875 4.4625
3.75 0.6875 4.4625
3.8125 0.6875 4.4625
3.875 0.6875 4.4625
3.9375 0.6875 4.4625
4 0.6875 4.4625
0 0.75 4.4625
0.0625 0.75 4.4625
0.125 0.75 4.4625
0.1875 0.75 4.4625
0.25 0.75 4.4625
0.3125 0.75 4.4625
0.375 0.75 4.4625
0.4375 0.75 4.4625
0.5 0.75 4.4625
0.5625 0.75 4.4625
0.625 0.75 4.4625
0.6875 0.75 4.4625
0.75 0.75 4.4625
0.8125 0.75 4.4625
0.875 0.75 4.4625
0.9375 0.75 4.4625
1 0.75 4.4625
1.0625 0.75 4.4625
1.125 0.75 4.4625
1.1875 0.75 4.4625
1.25 0.75 4.4625
1.3125 0.75 4.4625
1.375 0.75 4.4625
1.4375 0.75 4.4625
1.5 0.75 4.4625
1.5625 0.75 4.4625
1.625 0.75 4.4625
1.6875 0.75 4.4625
1.75 0.75 4.4625
1.8125 0.75 4.4625
1.875 0.75 4.4625
1.9375 0.75 4.4625
2 0.75 4.4625
2.0625 0.75 4.4625
2.125 0.75 4.4625
2.1875 0.75 4.4625
2.25 0.75 4.4625
2.3125 0.75 4.4625
2.375 0.75 4.4625
2.4375 0.75 4.4625
2.5 0.75 4.4625
2.5625 0.75 4.4625
2.625 0.75 4.4625
2.6875 0.75 4.4625
2.75 0.75 4.4625
2.8125 0.75 4.4625
2.875 0.75 4.4625
2.9375 0.75 4.4625
3 0.75 4.4625
3.0625 0.75 4.4625
3.125 0.75 4.4625
3.1875 0.75 4.4625
3.25 0.75 4.4625
3.3125 0.75 4.4625
3.375 0.75 4.4625
3.4375 0.75 4.4625
3.5 0.75 4.4625
3.5625 0.75 4.4625
3.625 0.75 4.4625
3.6875 0.75 4.4625
3.75 0.75 4.4625
3.8125 0.75 4.4625
3.875 0.75 4.4625
3.9375 0.75 4.4625
4 0.75 4.4625
0 0.8125 4.4625
0.0625 0.8125 4.4625
0.125 0.8125 4.4625
0.1875 0.8125 4.4625
0.25 0.8125 4.4625
0.3125 0.8125 4.4625
0.375 0.8125 4.4625
0.4375 0.8125 4.4625
0.5 0.8125 4.4625
0.5625 0.8125 4.4625
0.625 0.8125 4.4625
0.6875 0.8125 4.4625
0.75 0.8125 4.4625
0.8125 0.8125 4.4625
0.875 0.8125 4.4625
0.9375 0.8125 4.4625
1 0.8125 4.4625
1.0625 0.8125 4.4625
1.125 0.8125 4.4625
1.1875 0.8125 4.4625
1.25 0.8125 4.4625
1.3125 0.8125 4.4625
1.375 0.8125 4.4625
1.4375 0.8125 4.4625
1.5 0.8125 4.4625
1.5625 0.8125 4.4625
1.625 0.8125 4.4625
1.6875 0.8125 4.4625
1.75 0.8125 4.4625
1.8125 0.8125 4.4625
1.875 0.8125 4.4625
1.9375 0.8125 4.4625
2 0.8125 4.4625
2.0625 0.8125 4.4625
2.125 0.8125 4.4625
2.1875 0.8125 4.4625
2.25 0.8125 4.4625
2.3125 0.8125 4.4625
2.375 0.8125 4.4625
2.4375 0.8125 4.4625
2.5 0.8125 4.4625
2.5625 0.8125 4.4625
2.625 0.8125 4.4625
2.6875 0.8125 4.4625
2.75 0.8125 4.4625
2.8125 0.8125 4.4625
2.875 0.8125 4.4625
2.9375 0.8125 4.4625
3 0.8125 4.4625
3.0625 0.8125 4.4625
3.125 0.8125 4.4625
3.1875 0.8125 4.4625
3.25 0.8125 4.4625
3.3125 0.8125 4.4625
3.375 0.8125 4.4625
3.4375 0.8125 4.4625
3.5 0.8125 4.4625
3.5625 0.8125 4.4625
3.625 0.8125 4.4625
3.6875 0.8125 4.4625
3.75 0.8125 4.4625
3.8125 0.8125 4.4625
3.875 0.8125 4.4625
3.9375 0.8125 4.4625
4 0.8125 4.4625
0 0.875 4.4625
0.0625 0.875 4.4625
0.125 0.875 4.4625
0.1875 0.875 4.4625
0.25 0.875 4.4625
0.3125 0.875 4.4625
0.375 0.875 4.4625
0.4375 0.875 4.4625
0.5 0.875 4.4625
0.5625 0.875 4.4625
0.625 0.875 4.4625
0.6875 0.875 4.4625
0.75 0.875 4.4625
0.8125 0.875 4.4625
0.875 0.875 4.4625
0.9375 0.875 4.4625
1 0.875 4.4625
1.0625 0.875 4.4625
1.125 0.875 4.4625
1.1875 0.875 4.4625
1.25 0.875 4.4625
1.3125 0.875 4.4625
1.375 0.875 4.4625
1.4375 0.875 4.4625
1.5 0.875 4.4625
1.5625 0.875 4.4625
1.625 0.875 4.4625
1.6875 0.875 4.4625
1.75 0.875 4.4625
1.8125 0.875 4.4625
1.875 0.875 4.4625
1.9375 0.875 4.4625
2 0.875 4.4625
2.0625 0.875 4.4625
2.125 0.875 4.4625
2.1875 0.875 4.4625
2.25 0.875 4.4625
2.3125 0.875 4.4625
2.375 0.875 4.4625
2.4375 0.875 4.4625
2.5 0.875 4.4625
2.5625 0.875 4.4625
2.625 0.875 4.4625
2.6875 0.875 4.4625
2.75 0.875 4.4625
2.8125 0.875 4.4625
2.875 0.875 4.4625
2.9375 0.875 4.4625
3 0.875 4.4625
3.0625 0.875 4.4625
3.125 0.875 4.4625
3.1875 0.875 4.4625
3.25 0.875 4.4625
3.3125 0.875 4.4625
3.375 0.875 4.4625
3.4375 0.875 4.4625
3.5 0.875 4.4625
3.5625 0.875 4.4625
3.625 0.875 4.4625
3.6875 0.875 4.4625
3.75 0.875 4.4625
3.8125 0.875 4.4625
3.875 0.875 4.4625
3.9375 0.875 4.4625
4 0.875 4.4625
0 0.9375 4.4625
0.0625 0.9375 4.4625
0.125 0.9375 4.4625
0.1875 0.9375 4.4625
0.25 0.9375 4.4625
0.3125 0.9375 4.4625
0.375 0.9375 4.4625
0.4375 0.9375 4.4625
0.5 0.9375 4.4625
0.5625 0.9375 4.4625
0.625 0.9375 4.4625
0.6875 0.9375 4.4625
0.75 0.9375 4.4625
0.8125 0.9375 4.4625
0.875 0.9375 4.4625
0.9375 0.9375 4.4625
1 0.9375 4.4625
1.0625 0.9375 4.4625
1.125 0.9375 4.4625
1.1875 0.9375 4.4625
1.25 0.9375 4.4625
1.3125 0.9375 4.4625
1.375 0.9375 4.4625
1.4375 0.9375 4.4625
1.5 0.9375 4.4625
1.5625 0.9375 4.4625
1.625 0.9375 4.4625
1.6875 0.9375 4.4625
1.75 0.9375 4.4625
1.8125 0.9375 4.4625
1.875 0.9375 4.4625
1.9375 0.9375 4.4625
2 0.9375 4.4625
2.0625 0.9375 4.4625
2.125 0.9375 4.4625
2.1875 0.9375 4.4625
2.25 0.9375 4.4625
2.3125 0.9375 4.4625
2.375 0.9375 4.4625
2.4375 0.9375 4.4625
2.5 0.9375 4.4625
2.5625 0.9375 4.4625
2.625 0.9375 4.4625
2.6875 0.9375 4.4625
2.75 0.9375 4.4625
2.8125 0.9375 4.4625
2.875 0.9375 4.4625
2.9375 0.9375 4.4625
3 0.9375 4.4625
3.0625 0.9375 4.4625
3.125 0.9375 4.4625
3.1875 0.9375 4.4625
3.25 0.9375 4.4625
3.3125 0.9375 4.4625
3.375 0.9375 4.4625
3.4375 0.9375 4.4625
3.5 0.9375 4.4625
3.5625 0.9375 4.4625
3.625 0.9375 4.4625
3.6875 0.9375 4.4625
3.75 0.9375 4.4625
3.8125 0.9375 4.4625
3.875 0.9375 4.4625
3.9375 0.9375 4.4625
4 0.9375 4.4625
0 1 4.4625
0.0625 1 4.4625
0.125 1 4.4625
0.1875 1 4.4625
0.25 1 4.4625
0.3125 1 4.4625
0.375 1 4.4625
0.4375 1 4.4625
0.5 1 4.4625
0.5625 1 4.4625
0.625 1 4.4625
0.6875 1 4.4625
0.75 1 4.4625
0.8125 1 4.4625
0.875 1 4.4625
0.9375 1 4.4625
1 1 4.4625
1.0625 1 4.4625
1.125 1 4.4625
1.1875 1 4.4625
1.25 1 4.4625
1.3125 1 4.4625
1.375 1 4.4625
1.4375 1 4.4625
1.5 1 4.4625
1.5625 1 4.4625
1.625 1 4.4625
1.6875 1 4.4625
1.75 1 4.4625
1.8125 1 4.4625
1.875 1 4.4625
1.9375 1 4.4625
2 1 4.4625
2.0625 1 4.4625
2.125 1 4.4625
2.1875 1 4.4625
2.25 1 4.4625
2.3125 1 4.4625
2.375 1 4.4625
2.4375 1 4.4625
2.5 1 4.4625
2.5625 1 4.4625
2.625 1 4.4625
2.6875 1 4.4625
2.75 1 4.4625
2.8125 1 4.4625
2.875 1 4.4625
2.9375 1 4.4625
3 1 4.4625
3.0625 1 4.4625
3.125 1 4.4625
3.1875 1 4.4625
3.25 1 4.4625
3.3125 1 4.4625
3.375 1 4.4625
3.4375 1 4.4625
3.5 1 4.4625
3.5625 1 4.4625
3.625 1 4.4625
3.6875 1 4.4625
3.75 1 4.4625
3.8125 1 4.4625
3.875 1 4.4625
3.9375 1 4.4625
4 1 4.4625
0 0 4.525
0.0625 0 4.525
0.125 0 4.525
0.1875 0 4.525
0.25 0 4.525
0.3125 0 4.525
0.375 0 4.525
0.4375 0 4.525
0.5 0 4.525
0.5625 0 4.525
0.625 0 4.525
0.6875 0 4.525
0.75 0 4.525
0.8125 0 4.525
0.875 0 4.525
0.9375 0 4.525
1 0 4.525
1.0625 0 4.525
1.125 0 4.525
1.1875 0 4.525
1.25 0 4.525
1.3125 0 4.525
1.375 0 4.525
1.4375 0 4.525
1.5 0 4.525
1.5625 0 4.525
1.625 0 4.525
1.6875 0 4.525
1.75 0 4.525
1.8125 0 4.525
1.875 0 4.525
1.9375 0 4.525
2 0 4.525
2.0625 0 4.525
2.125 0 4.525
2.1875 0 4.525
2.25 0 4.525
2.3125 0 4.525
2.375 0 4.525
2.4375 0 4.525
2.5 0 4.525
2.5625 0 4.525
2.625 0 4.525
2.6875 0 4.525
2.75 0 4.525
2.8125 0 4.525
2.875 0 4.525
2.9375 0 4.525
3 0 4.525
3.0625 0 4.525
3.125 0 4.525
3.1875 0 4.525
3.25 0 4.525
3.3125 0 4.525
3.375 0 4.525
3.4375 0 4.525
3.5 0 4.525
3.5625 0 4.525
3.625 0 4.525
3.6875 0 4.525
3.75 0 4.525
3.8125 0 4.525
3.875 0 4.525
3.9375 0 4.525
4 0 4.525
0 0.0625 4.525
0.0625 0.0625 4.525
0.125 0.0625 4.525
0.1875 0.0625 4.525
0.25 0.0625 4.525
0.3125 0.0625 4.525
0.375 0.0625 4.525
0.4375 0.0625 4.525
0.5 0.0625 4.525
0.5625 0.0625 4.525
0.625 0.0625 4.525
0.6875 0.0625 4.525
0.75 0.0625 4.525
0.8125 0.0625 4.525
0.875 0.0625 4.525
0.9375 0.0625 4.525
1 0.0625 4.525
1.0625 0.0625 4.525
1.125 0.0625 4.525
1.1875 0.0625 4.525
1.25 0.0625 4.525
1.3125 0.0625 4.525
1.375 0.0625 4.525
1.4375 0.0625 4.525
1.5 0.0625 4.525
1.5625 0.0625 4.525
1.625 0.0625 4.525
1.6875 0.0625 4.525
1.75 0.0625 4.525
1.8125 0.0625 4.525
1.875 0.0625 4.525
1.9375 0.0625 4.525
2 0.0625 4.525
2.0625 0.0625 4.525
2.125 0.0625 4.525
2.1875 0.0625 4.525
2.25 0.0625 4.525
2.3125 0.0625 4.525
2.375 0.0625 4.525
2.4375 0.0625 4.525
2.5 0.0625 4.525
2.5625 0.0625 4.525
2.625 0.0625 4.525
2.6875 0.0625 4.525
2.75 0.0625 4.525
2.8125 0.0625 4.525
2.875 0.0625 4.525
2.9375 0.0625 4.525
3 0.0625 4.525
3.0625 0.0625 4.525
3.125 0.0625 4.525
3.1875 0.0625 4.525
3.25 0.0625 4.525
3.3125 0.0625 4.525
3.375 0.0625 4.525
3.4375 0.0625 4.525
3.5 0.0625 4.525
3.5625 0.0625 4.525
3.625 0.0625 4.525
3.6875 0.0625 4.525
3.75 0.0625 4.525
3.8125 0.0625 4.525
3.875 0.0625 4.525
3.9375 0.0625 4.525
4 0.0625 4.525
0 0.125 4.525
0.0625 0.125 4.525
0.125 0.125 4.525
0.1875 0.125 4.525
0.25 0.125 4.525
0.3125 0.125 4.525
0.375 0.125 4.525
0.4375 0.125 4.525
0.5 0.125 4.525
0.5625 0.125 4.525
0.625 0.125 4.525
0.6875 0.125 4.525
0.75 0.125 4.525
0.8125 0.125 4.525
0.875 0.125 4.525
0.9375 0.125 4.525
1 0.125 4.525
1.0625 0.125 4.525
1.125 0.125 4.525
1.1875 0.125 4.525
1.25 0.125 4.525
1.3125 0.125 4.525
1.375 0.125 4.525
1.4375 0.125 4.525
1.5 0.125 4.525
1.5625 0.125 4.525
1.625 0.125 4.525
1.6875 0.125 4.525
1.75 0.125 4.525
1.8125 0.125 4.525
1.875 0.125 4.525
1.9375 0.125 4.525
2 0.125 4.525
2.0625 0.125 4.525
2.125 0.125 4.525
2.1875 0.125 4.525
2.25 0.125 4.525
2.3125 0.125 4.525
2.375 0.125 4.525
2.4375 0.125 4.525
2.5 0.125 4.525
2.5625 0.125 4.525
2.625 0.125 4.525
2.6875 0.125 4.525
2.75 0.125 4.525
2.8125 0.125 4.525
2.875 0.125 4.525
2.9375 0.125 4.525
3 0.125 4.525
3.0625 0.125 4.525
3.125 0.125 4.525
3.1875 0.125 4.525
3.25 0.125 4.525
3.3125 0.125 4.525
3.375 0.125 4.525
3.4375 0.125 4.525
3.5 0.125 4.525
3.5625 0.125 4.525
3.625 0.125 4.525
3.6875 0.125 4.525
3.75 0.125 4.525
3.8125 0.125 4.525
3.875 0.125 4.525
3.9375 0.125 4.525
4 0.125 4.525
0 0.1875 4.525
0.0625 0.1875 4.525
0.125 0.1875 4.525
0.1875 0.1875 4.525
0.25 0.1875 4.525
0.3125 0.1875 4.525
0.375 0.1875 4.525
0.4375 0.1875 4.525
0.5 0.1875 4.525
0.5625 0.1875 4.525
0.625 0.1875 4.525
0.6875 0.1875 4.525
0.75 0.1875 4.525
0.8125 0.1875 4.525
0.875 0.1875 4.525
0.9375 0.1875 4.525
1 0.1875 4.525
1.0625 0.1875 4.525
1.125 0.1875 4.525
1.1875 0.1875 4.525
1.25 0.1875 4.525
1.3125 0.1875 4.525
1.375 0.1875 4.525
1.4375 0.1875 4.525
1.5 0.1875 4.525
1.5625 0.1875 4.525
1.625 0.1875 4.525
1.6875 0.1875 4.525
1.75 0.1875 4.525
1.8125 0.1875 4.525
1.875 0.1875 4.525
1.9375 0.1875 4.525
2 0.1875 4.525
2.0625 0.1875 4.525
2.125 0.1875 4.525
2.1875 0.1875 4.525
2.25 0.1875 4.525
2.3125 0.1875 4.525
2.375 0.1875 4.525
2.4375 0.1875 4.525
2.5 0.1875 4.525
2.5625 0.1875 4.525
2.625 0.1875 4.525
2.6875 0.1875 4.525
2.75 0.1875 4.525
2.8125 0.1875 4.525
2.875 0.1875 4.525
2.9375 0.1875 4.525
3 0.1875 4.525
3.0625 0.1875 4.525
3.125 0.1875 4.525
3.1875 0.1875 4.525
3.25 0.1875 4.525
3.3125 0.1875 4.525
3.375 0.1875 4.525
3.4375 0.1875 4.525
3.5 0.1875 4.525
3.5625 0.1875 4.525
3.625 0.1875 4.525
3.6875 0.1875 4.525
3.75 0.1875 4.525
3.8125 0.1875 4.525
3.875 0.1875 4.525
3.9375 0.1875 4.525
4 0.1875 4.525
0 0.25 4.525
0.0625 0.25 4.525
0.125 0.25 4.525
0.1875 0.25 4.525
0.25 0.25 4.525
0.3125 0.25 4.525
0.375 0.25 4.525
0.4375 0.25 4.525
0.5 0.25 4.525
0.5625 0.25 4.525
0.625 0.25 4.525
0.6875 0.25 4.525
0.75 0.25 4.525
0.8125 0.25 4.525
0.875 0.25 4.525
0.9375 0.25 4.525
1 0.25 4.525
1.0625 0.25 4.525
1.125 0.25 4.525
1.1875 0.25 4.525
1.25 0.25 4.525
1.3125 0.25 4.525
1.375 0.25 4.525
1.4375 0.25 4.525
1.5 0.25 4.525
1.5625 0.25 4.525
1.625 0.25 4.525
1.6875 0.25 4.525
1.75 0.25 4.525
1.8125 0.25 4.525
1.875 0.25 4.525
1.9375 0.25 4.525
2 0.25 4.525
2.0625 0.25 4.525
2.125 0.25 4.525
2.1875 0.25 4.525
2.25 0.25 4.525
2.3125 0.25 4.525
2.375 0.25 4.525
2.4375 0.25 4.525
2.5 0.25 4.525
2.5625 0.25 4.525
2.625 0.25 4.525
2.6875 0.25 4.525
2.75 0.25 4.525
2.8125 0.25 4.525
2.875 0.25 4.525
2.9375 0.25 4.525
3 0.25 4.525
3.0625 0.25 4.525
3.125 0.25 4.525
3.1875 0.25 4.525
3.25 0.25 4.525
3.3125 0.25 4.525
3.375 0.25 4.525
3.4375 0.25 4.525
3.5 0.25 4.525
3.5625 0.25 4.525
3.625 0.25 4.525
3.6875 0.25 4.525
3.75 0.25 4.525
3.8125 0.25 4.525
3.875 0.25 4.525
3.9375 0.25 4.525
4 0.25 4.525
0 0.3125 4.525
0.0625 0.3125 4.525
0.125 0.3125 4.525
0.1875 0.3125 4.525
0.25 0.3125 4.525
0.3125 0.3125 4.525
0.375 0.3125 4.525
0.4375 0.3125 4.525
0.5 0.3125 4.525
0.5625 0.3125 4.525
0.625 0.3125 4.525
0.6875 0.3125 4.525
0.75 0.3125 4.525
0.8125 0.3125 4.525
0.875 0.3125 4.525
0.9375 0.3125 4.525
1 0.3125 4.525
1.0625 0.3125 4.525
1.125 0.3125 4.525
1.1875 0.3125 4.525
1.25 0.3125 4.525
1.3125 0.3125 4.525
1.375 0.3125 4.525
1.4375 0.3125 4.525
1.5 0.3125 4.525
1.5625 0.3125 4.525
1.625 0.3125 4.525
1.6875 0.3125 4.525
1.75 0.3125 4.525
1.8125 0.3125 4.525
1.875 0.3125 4.525
1.9375 0.3125 4.525
2 0.3125 4.525
2.0625 0.3125 4.525
2.125 0.3125 4.525
2.1875 0.3125 4.525
2.25 0.3125 4.525
2.3125 0.3125 4.525
2.375 0.3125 4.525
2.4375 0.3125 4.525
2.5 0.3125 4.525
2.5625 0.3125 4.525
2.625 0.3125 4.525
2.6875 0.3125 4.525
2.75 0.3125 4.525
2.8125 0.3125 4.525
2.875 0.3125 4.525
2.9375 0.3125 4.525
3 0.3125 4.525
3.0625 0.3125 4.525
3.125 0.3125 4.525
3.1875 0.3125 4.525
3.25 0.3125 4.525
3.3125 0.3125 4.525
3.375 0.3125 4.525
3.4375 0.3125 4.525
3.5 0.3125 4.525
3.5625 0.3125 4.525
3.625 0.3125 4.525
3.6875 0.3125 4.525
3.75 0.3125 4.525
3.8125 0.3125 4.525
3.875 0.3125 4.525
3.9375 0.3125 4.525
4 0.3125 4.525
0 0.375 4.525
0.0625 0.375 4.525
0.125 0.375 4.525
0.1875 0.375 4.525
0.25 0.375 4.525
0.3125 0.375 4.525
0.375 0.375 4.525
0.4375 0.375 4.525
0.5 0.375 4.525
0.5625 0.375 4.525
0.625 0.375 4.525
0.6875 0.375 4.525
0.75 0.375 4.525
0.8125 0.375 4.525
0.875 0.375 4.525
0.9375 0.375 4.525
1 0.375 4.525
1.0625 0.375 4.525
1.125 0.375 4.525
1.1875 0.375 4.525
1.25 0.375 4.525
1.3125 0.375 4.525
1.375 0.375 4.525
1.4375 0.375 4.525
1.5 0.375 4.525
1.5625 0.375 4.525
1.625 0.375 4.525
1.6875 0.375 4.525
1.75 0.375 4.525
1.8125 0.375 4.525
1.875 0.375 4.525
1.9375 0.375 4.525
2 0.375 4.525
2.0625 0.375 4.525
2.125 0.375 4.525
2.1875 0.375 4.525
2.25 0.375 4.525
2.3125 0.375 4.525
2.375 0.375 4.525
2.4375 0.375 4.525
2.5 0.375 4.525
2.5625 0.375 4.525
2.625 0.375 4.525
2.6875 0.375 4.525
2.75 0.375 4.525
2.8125 0.375 4.525
2.875 0.375 4.525
2.9375 0.375 4.525
3 0.375 4.525
3.0625 0.375 4.525
3.125 0.375 4.525
3.1875 0.375 4.525
3.25 0.375 4.525
3.3125 0.375 4.525
3.375 0.375 4.525
3.4375 0.375 4.525
3.5 0.375 4.525
3.5625 0.375 4.525
3.625 0.375 4.525
3.6875 0.375 4.525
3.75 0.375 4.525
3.8125 0.375 4.525
3.875 0.375 4.525
3.9375 0.375 4.525
4 0.375 4.525
0 0.4375 4.525
0.0625 0.4375 4.525
0.125 0.4375 4.525
0.1875 0.4375 4.525
0.25 0.4375 4.525
0.3125 0.4375 4.525
0.375 0.4375 4.525
0.4375 0.4375 4.525
0.5 0.4375 4.525
0.5625 0.4375 4.525
0.625 0.4375 4.525
0.6875 0.4375 4.525
0.75 0.4375 4.525
0.8125 0.4375 4.525
0.875 0.4375 4.525
0.9375 0.4375 4.525
1 0.4375 4.525
1.0625 0.4375 4.525
1.125 0.4375 4.525
1.1875 0.4375 4.525
1.25 0.4375 4.525
1.3125 0.4375 4.525
1.375 0.4375 4.525
1.4375 0.4375 4.525
1.5 0.4375 4.525
1.5625 0.4375 4.525
1.625 0.4375 4.525
1.6875 0.4375 4.525
1.75 0.4375 4.525
1.8125 0.4375 4.525
1.875 0.4375 4.525
1.9375 0.4375 4.525
2 0.4375 4.525
2.0625 0.4375 4.525
2.125 0.4375 4.525
2.1875 0.4375 4.525
2.25 0.4375 4.525
2.3125 0.4375 4.525
2.375 0.4375 4.525
2.4375 0.4375 4.525
2.5 0.4375 4.525
2.5625 0.4375 4.525
2.625 0.4375 4.525
2.6875 0.4375 4.525
2.75 0.4375 4.525
2.8125 0.4375 4.525
2.875 0.4375 4.525
2.9375 0.4375 4.525
3 0.4375 4.525
3.0625 0.4375 4.525
3.125 0.4375 4.525
3.1875 0.4375 4.525
3.25 0.4375 4.525
3.3125 0.4375 4.525
3.375 0.4375 4.525
3.4375 0.4375 4.525
3.5 0.4375 4.525
3.5625 0.4375 4.525
3.625 0.4375 4.525
3.6875 0.4375 4.525
3.75 0.4375 4.525
3.8125 0.4375 4.525
3.875 0.4375 4.525
3.9375 0.4375 4.525
4 0.4375 4.525
0 0.5 4.525
0.0625 0.5 4.525
0.125 0.5 4.525
0.1875 0.5 4.525
0.25 0.5 4.525
0.3125 0.5 4.525
0.375 0.5 4.525
0.4375 0.5 4.525
0.5 0.5 4.525
0.5625 0.5 4.525
0.625 0.5 4.525
0.6875 0.5 4.525
0.75 0.5 4.525
0.8125 0.5 4.525
0.875 0.5 4.525
0.9375 0.5 4.525
1 0.5 4.525
1.0625 0.5 4.525
1.125 0.5 4.525
1.1875 0.5 4.525
1.25 0.5 4.525
1.3125 0.5 4.525
1.375 0.5 4.525
1.4375 0.5 4.525
1.5 0.5 4.525
1.5625 0.5 4.525
1.625 0.5 4.525
1.6875 0.5 4.525
1.75 0.5 4.525
1.8125 0.5 4.525
1.875 0.5 4.525
1.9375 0.5 4.525
2 0.5 4.525
2.0625 0.5 4.525
2.125 0.5 4.525
2.1875 0.5 4.525
2.25 0.5 4.525
2.3125 0.5 4.525
2.375 0.5 4.525
2.4375 0.5 4.525
2.5 0.5 4.525
2.5625 0.5 4.525
2.625 0.5 4.525
2.6875 0.5 4.525
2.75 0.5 4.525
2.8125 0.5 4.525
2.875 0.5 4.525
2.9375 0.5 4.525
3 0.5 4.525
3.0625 0.5 4.525
3.125 0.5 4.525
3.1875 0.5 4.525
3.25 0.5 4.525
3.3125 0.5 4.525
3.375 0.5 4.525
3.4375 0.5 4.525
3.5 0.5 4.525
3.5625 0.5 4.525
3.625 0.5 4.525
3.6875 0.5 4.525
3.75 0.5 4.525
3.8125 0.5 4.525
3.875 0.5 4.525
3.9375 0.5 4.525
4 0.5 4.525
0 0.5625 4.525
0.0625 0.5625 4.525
0.125 0.5625 4.525
0.1875 0.5625 4.525
0.25 0.5625 4.525
0.3125 0.5625 4.525
0.375 0.5625 4.525
0.4375 0.5625 4.525
0.5 0.5625 4.525
0.5625 0.5625 4.525
0.625 0.5625 4.525
0.6875 0.5625 4.525
0.75 0.5625 4.525
0.8125 0.5625 4.525
0.875 0.5625 4.525
0.9375 0.5625 4.525
1 0.5625 4.525
1.0625 0.5625 4.525
1.125 0.5625 4.525
1.1875 0.5625 4.525
1.25 0.5625 4.525
1.3125 0.5625 4.525
1.375 0.5625 4.525
1.4375 0.5625 4.525
1.5 0.5625 4.525
1.5625 0.5625 4.525
1.625 0.5625 4.525
1.6875 0.5625 4.525
1.75 0.5625 4.525
1.8125 0.5625 4.525
1.875 0.5625 4.525
1.9375 0.5625 4.525
2 0.5625 4.525
2.0625 0.5625 4.525
2.125 0.5625 4.525
2.1875 0.5625 4.525
2.25 0.5625 4.525
2.3125 0.5625 4.525
2.375 0.5625 4.525
2.4375 0.5625 4.525
2.5 0.5625 4.525
2.5625 0.5625 4.525
2.625 0.5625 4.525
2.6875 0.5625 4.525
2.75 0.5625 4.525
2.8125 0.5625 4.525
2.875 0.5625 4.525
2.9375 0.5625 4.525
3 0.5625 4.525
3.0625 0.5625 4.525
3.125 0.5625 4.525
3.1875 0.5625 4.525
3.25 0.5625 4.525
3.3125 0.5625 4.525
3.375 0.5625 4.525
3.4375 0.5625 4.525
3.5 0.5625 4.525
3.5625 0.5625 4.525
3.625 0.5625 4.525
3.6875 0.5625 4.525
3.75 0.5625 4.525
3.8125 0.5625 4.525
3.875 0.5625 4.525
3.9375 0.5625 4.525
4 0.5625 4.525
0 0.625 4.525
0.0625 0.625 4.525
0.125 0.625 4.525
0.1875 0.625 4.525
0.25 0.625 4.525
0.3125 0.625 4.525
0.375 0.625 4.525
0.4375 0.625 4.525
0.5 0.625 4.525
0.5625 0.625 4.525
0.625 0.625 4.525
0.6875 0.625 4.525
0.75 0.625 4.525
0.8125 0.625 4.525
0.875 0.625 4.525
0.9375 0.625 4.525
1 0.625 4.525
1.0625 0.625 4.525
1.125 0.625 4.525
1.1875 0.625 4.525
1.25 0.625 4.525
1.3125 0.625 4.525
1.375 0.625 4.525
1.4375 0.625 4.525
1.5 0.625 4.525
1.5625 0.625 4.525
1.625 0.625 4.525
1.6875 0.625 4.525
1.75 0.625 4.525
1.8125 0.625 4.525
1.875 0.625 4.525
1.9375 0.625 4.525
2 0.625 4.525
2.0625 0.625 4.525
2.125 0.625 4.525
2.1875 0.625 4.525
2.25 0.625 4.525
2.3125 0.625 4.525
2.375 0.625 4.525
2.4375 0.625 4.525
2.5 0.625 4.525
2.5625 0.625 4.525
2.625 0.625 4.525
2.6875 0.625 4.525
2.75 0.625 4.525
2.8125 0.625 4.525
2.875 0.625 4.525
2.9375 0.625 4.525
3 0.625 4.525
3.0625 0.625 4.525
3.125 0.625 4.525
3.1875 0.625 4.525
3.25 0.625 4.525
3.3125 0.625 4.525
3.375 0.625 4.525
3.4375 0.625 4.525
3.5 0.625 4.525
3.5625 0.625 4.525
3.625 0.625 4.525
3.6875 0.625 4.525
3.75 0.625 4.525
3.8125 0.625 4.525
3.875 0.625 4.525
3.9375 0.625 4.525
4 0.625 4.525
0 0.6875 4.525
0.0625 0.6875 4.525
0.125 0.6875 4.525
0.1875 0.6875 4.525
0.25 0.6875 4.525
0.3125 0.6875 4.525
0.375 0.6875 4.525
0.4375 0.6875 4.525
0.5 0.6875 4.525
0.5625 0.6875 4.525
0.625 0.6875 4.525
0.6875 0.6875 4.525
0.75 0.6875 4.525
0.8125 0.6875 4.525
0.875 0.6875 4.525
0.9375 0.6875 4.525
1 0.6875 4.525
1.0625 0.6875 4.525
1.125 0.6875 4.525
1.1875 0.6875 4.525
1.25 0.6875 4.525
1.3125 0.6875 4.525
1.375 0.6875 4.525
1.4375 0.6875 4.525
1.5 0.6875 4.525
1.5625 0.6875 4.525
1.625 0.6875 4.525
1.6875 0.6875 4.525
1.75 0.6875 4.525
1.8125 0.6875 4.525
1.875 0.6875 4.525
1.9375 0.6875 4.525
2 0.6875 4.525
2.0625 0.6875 4.525
2.125 0.6875 4.525
2.1875 0.6875 4.525
2.25 0.6875 4.525
2.3125 0.6875 4.525
2.375 0.6875 4.525
2.4375 0.6875 4.525
2.5 0.6875 4.525
2.5625 0.6875 4.525
2.625 0.6875 4.525
2.6875 0.6875 4.525
2.75 0.6875 4.525
2.8125 0.6875 4.525
2.875 0.6875 4.525
2.9375 0.6875 4.525
3 0.6875 4.525
3.0625 0.6875 4.525
3.125 0.6875 4.525
3.1875 0.6875 4.525
3.25 0.6875 4.525
3.3125 0.6875 4.525
3.375 0.6875 4.525
3.4375 0.6875 4.525
3.5 0.6875 4.525
3.5625 0.6875 4.525
3.625 0.6875 4.525
3.6875 0.6875 4.525
3.75 0.6875 4.525
3.8125 0.6875 4.525
3.875 0.6875 4.525
3.9375 0.6875 4.525
4 0.6875 4.525
0 0.75 4.525
0.0625 0.75 4.525
0.125 0.75 4.525
0.1875 0.75 4.525
0.25 0.75 4.525
0.3125 0.75 4.525
0.375 0.75 4.525
0.4375 0.75 4.525
0.5 0.75 4.525
0.5625 0.75 4.525
0.625 0.75 4.525
0.6875 0.75 4.525
0.75 0.75 4.525
0.8125 0.75 4.525
0.875 0.75 4.525
0.9375 0.75 4.525
1 0.75 4.525
1.0625 0.75 4.525
1.125 0.75 4.525
1.1875 0.75 4.525
1.25 0.75 4.525
1.3125 0.75 4.525
1.375 0.75 4.525
1.4375 0.75 4.525
1.5 0.75 4.525
1.5625 0.75 4.525
1.625 0.75 4.525
1.6875 0.75 4.525
1.75 0.75 4.525
1.8125 0.75 4.525
1.875 0.75 4.525
1.9375 0.75 4.525
2 0.75 4.525
2.0625 0.75 4.525
2.125 0.75 4.525
2.1875 0.75 4.525
2.25 0.75 4.525
2.3125 0.75 4.525
2.375 0.75 4.525
2.4375 0.75 4.525
2.5 0.75 4.525
2.5625 0.75 4.525
2.625 0.75 4.525
2.6875 0.75 4.525
2.75 0.75 4.525
2.8125 0.75 4.525
2.875 0.75 4.525
2.9375 0.75 4.525
3 0.75 4.525
3.0625 0.75 4.525
3.125 0.75 4.525
3.1875 0.75 4.525
3.25 0.75 4.525
3.3125 0.75 4.525
3.375 0.75 4.525
3.4375 0.75 4.525
3.5 0.75 4.525
3.5625 0.75 4.525
3.625 0.75 4.525
3.6875 0.75 4.525
3.75 0.75 4.525
3.8125 0.75 4.525
3.875 0.75 4.525
3.9375 0.75 4.525
4 0.75 4.525
0 0.8125 4.525
0.0625 0.8125 4.525
0.125 0.8125 4.525
0.1875 0.8125 4.525
0.25 0.8125 4.525
0.3125 0.8125 4.525
0.375 0.8125 4.525
0.4375 0.8125 4.525
0.5 0.8125 4.525
0.5625 0.8125 4.525
0.625 0.8125 4.525
0.6875 0.8125 4.525
0.75 0.8125 4.525
0.8125 0.8125 4.525
0.875 0.8125 4.525
0.9375 0.8125 4.525
1 0.8125 4.525
1.0625 0.8125 4.525
1.125 0.8125 4.525
1.1875 0.8125 4.525
1.25 0.8125 4.525
1.3125 0.8125 4.525
1.375 0.8125 4.525
1.4375 0.8125 4.525
1.5 0.8125 4.525
1.5625 0.8125 4.525
1.625 0.8125 4.525
1.6875 0.8125 4.525
1.75 0.8125 4.525
1.8125 0.8125 4.525
1.875 0.8125 4.525
1.9375 0.8125 4.525
2 0.8125 4.525
2.0625 0.8125 4.525
2.125 0.8125 4.525
2.1875 0.8125 4.525
2.25 0.8125 4.525
2.3125 0.8125 4.525
2.375 0.8125 4.525
2.4375 0.8125 4.525
2.5 0.8125 4.525
2.5625 0.8125 4.525
2.625 0.8125 4.525
2.6875 0.8125 4.525
2.75 0.8125 4.525
2.8125 0.8125 4.525
2.875 0.8125 4.525
2.9375 0.8125 4.525
3 0.8125 4.525
3.0625 0.8125 4.525
3.125 0.8125 4.525
3.1875 0.8125 4.525
3.25 0.8125 4.525
3.3125 0.8125 4.525
3.375 0.8125 4.525
3.4375 0.8125 4.525
3.5 0.8125 4.525
3.5625 0.8125 4.525
3.625 0.8125 4.525
3.6875 0.8125 4.525
3.75 0.8125 4.525
3.8125 0.8125 4.525
3.875 0.8125 4.525
3.9375 0.8125 4.525
4 0.8125 4.525
0 0.875 4.525
0.0625 0.875 4.525
0.125 0.875 4.525
0.1875 0.875 4.525
0.25 0.875 4.525
0.3125 0.875 4.525
0.375 0.875 4.525
0.4375 0.875 4.525
0.5 0.875 4.525
0.5625 0.875 4.525
0.625 0.875 4.525
0.6875 0.875 4.525
0.75 0.875 4.525
0.8125 0.875 4.525
0.875 0.875 4.525
0.9375 0.875 4.525
1 0.875 4.525
1.0625 0.875 4.525
1.125 0.875 4.525
1.1875 0.875 4.525
1.25 0.875 4.525
1.3125 0.875 4.525
1.375 0.875 4.525
1.4375 0.875 4.525
1.5 0.875 4.525
1.5625 0.875 4.525
1.625 0.875 4.525
1.6875 0.875 4.525
1.75 0.875 4.525
1.8125 0.875 4.525
1.875 0.875 4.525
1.9375 0.875 4.525
2 0.875 4.525
2.0625 0.875 4.525
2.125 0.875 4.525
2.1875 0.875 4.525
2.25 0.875 4.525
2.3125 0.875 4.525
2.375 0.875 4.525
2.4375 0.875 4.525
2.5 0.875 4.525
2.5625 0.875 4.525
2.625 0.875 4.525
2.6875 0.875 4.525
2.75 0.875 4.525
2.8125 0.875 4.525
2.875 0.875 4.525
2.9375 0.875 4.525
3 0.875 4.525
3.0625 0.875 4.525
3.125 0.875 4.525
3.1875 0.875 4.525
3.25 0.875 4.525
3.3125 0.875 4.525
3.375 0.875 4.525
3.4375 0.875 4.525
3.5 0.875 4.525
3.5625 0.875 4.525
3.625 0.875 4.525
3.6875 0.875 4.525
3.75 0.875 4.525
3.8125 0.875 4.525
3.875 0.875 4.525
3.9375 0.875 4.525
4 0.875 4.525
0 0.9375 4.525
0.0625 0.9375 4.525
0.125 0.9375 4.525
0.1875 0.9375 4.525
0.25 0.9375 4.525
0.3125 0.9375 4.525
0.375 0.9375 4.525
0.4375 0.9375 4.525
0.5 0.9375 4.525
0.5625 0.9375 4.525
0.625 0.9375 4.525
0.6875 0.9375 4.525
0.75 0.9375 4.525
0.8125 0.9375 4.525
0.875 0.9375 4.525
0.9375 0.9375 4.525
1 0.9375 4.525
1.0625 0.9375 4.525
1.125 0.9375 4.525
1.1875 0.9375 4.525
1.25 0.9375 4.525
1.3125 0.9375 4.525
1.375 0.9375 4.525
1.4375 0.9375 4.525
1.5 0.9375 4.525
1.5625 0.9375 4.525
1.625 0.9375 4.525
1.6875 0.9375 4.525
1.75 0.9375 4.525
1.8125 0.9375 4.525
1.875 0.9375 4.525
1.9375 0.9375 4.525
2 0.9375 4.525
2.0625 0.9375 4.525
2.125 0.9375 4.525
2.1875 0.9375 4.525
2.25 0.9375 4.525
2.3125 0.9375 4.525
2.375 0.9375 4.525
2.4375 0.9375 4.525
2.5 0.9375 4.525
2.5625 0.9375 4.525
2.625 0.9375 4.525
2.6875 0.9375 4.525
2.75 0.9375 4.525
2.8125 0.9375 4.525
2.875 0.9375 4.525
2.9375 0.9375 4.525
3 0.9375 4.525
3.0625 0.9375 4.525
3.125 0.9375 4.525
3.1875 0.9375 4.525
3.25 0.9375 4.525
3.3125 0.9375 4.525
3.375 0.9375 4.525
3.4375 0.9375 4.525
3.5 0.9375 4.525
3.5625 0.9375 4.525
3.625 0.9375 4.525
3.6875 0.9375 4.525
3.75 0.9375 4.525
3.8125 0.9375 4.525
3.875 0.9375 4.525
3.9375 0.9375 4.525
4 0.9375 4.525
0 1 4.525
0.0625 1 4.525
0.125 1 4.525
0.1875 1 4.525
0.25 1 4.525
0.3125 1 4.525
0.375 1 4.525
0.4375 1 4.525
0.5 1 4.525
0.5625 1 4.525
0.625 1 4.525
0.6875 1 4.525
0.75 1 4.525
0.8125 1 4.525
0.875 1 4.525
0.9375 1 4.525
1 1 4.525
1.0625 1 4.525
1.125 1 4.525
1.1875 1 4.525
1.25 1 4.525
1.3125 1 4.525
1.375 1 4.525
1.4375 1 4.525
1.5 1 4.525
1.5625 1 4.525
1.625 1 4.525
1.6875 1 4.525
1.75 1 4.525
1.8125 1 4.525
1.875 1 4.525
1.9375 1 4.525
2 1 4.525
2.0625 1 4.525
2.125 1 4.525
2.1875 1 4.525
2.25 1 4.525
2.3125 1 4.525
2.375 1 4.525
2.4375 1 4.525
2.5 1 4.525
2.5625 1 4.525
2.625 1 4.525
2.6875 1 4.525
2.75 1 4.525
2.8125 1 4.525
2.875 1 4.525
2.9375 1 4.525
3 1 4.525
3.0625 1 4.525
3.125 1 4.525
3.1875 1 4.525
3.25 1 4.525
3.3125 1 4.525
3.375 1 4.525
3.4375 1 4.525
3.5 1 4.525
3.5625 1 4.525
3.625 1 4.525
3.6875 1 4.525
3.75 1 4.525
3.8125 1 4.525
3.875 1 4.525
3.9375 1 4.525
4 1 4.525
0 0 4.5875
0.0625 0 4.5875
0.125 0 4.5875
0.1875 0 4.5875
0.25 0 4.5875
0.3125 0 4.5875
0.375 0 4.5875
0.4375 0 4.5875
0.5 0 4.5875
0.5625 0 4.5875
0.625 0 4.5875
0.6875 0 4.5875
0.75 0 4.5875
0.8125 0 4.5875
0.875 0 4.5875
0.9375 0 4.5875
1 0 4.5875
1.0625 0 4.5875
1.125 0 4.5875
1.1875 0 4.5875
1.25 0 4.5875
1.3125 0 4.5875
1.375 0 4.5875
1.4375 0 4.5875
1.5 0 4.5875
1.5625 0 4.5875
1.625 0 4.5875
1.6875 0 4.5875
1.75 0 4.5875
1.8125 0 4.5875
1.875 0 4.5875
1.9375 0 4.5875
2 0 4.5875
2.0625 0 4.5875
2.125 0 4.5875
2.1875 0 4.5875
2.25 0 4.5875
2.3125 0 4.5875
2.375 0 4.5875
2.4375 0 4.5875
2.5 0 4.5875
2.5625 0 4.5875
2.625 0 4.5875
2.6875 0 4.5875
2.75 0 4.5875
2.8125 0 4.5875
2.875 0 4.5875
2.9375 0 4.5875
3 0 4.5875
3.0625 0 4.5875
3.125 0 4.5875
3.1875 0 4.5875
3.25 0 4.5875
3.3125 0 4.5875
3.375 0 4.5875
3.4375 0 4.5875
3.5 0 4.5875
3.5625 0 4.5875
3.625 0 4.5875
3.6875 0 4.5875
3.75 0 4.5875
3.8125 0 4.5875
3.875 0 4.5875
3.9375 0 4.5875
4 0 4.5875
0 0.0625 4.5875
0.0625 0.0625 4.5875
0.125 0.0625 4.5875
0.1875 0.0625 4.5875
0.25 0.0625 4.5875
0.3125 0.0625 4.5875
0.375 0.0625 4.5875
0.4375 0.0625 4.5875
0.5 0.0625 4.5875
0.5625 0.0625 4.5875
0.625 0.0625 4.5875
0.6875 0.0625 4.5875
0.75 0.0625 4.5875
0.8125 0.0625 4.5875
0.875 0.0625 4.5875
0.9375 0.0625 4.5875
1 0.0625 4.5875
1.0625 0.0625 4.5875
1.125 0.0625 4.5875
1.1875 0.0625 4.5875
1.25 0.0625 4.5875
1.3125 0.0625 4.5875
1.375 0.0625 4.5875
1.4375 0.0625 4.5875
1.5 0.0625 4.5875
1.5625 0.0625 4.5875
1.625 0.0625 4.5875
1.6875 0.0625 4.5875
1.75 0.0625 4.5875
1.8125 0.0625 4.5875
1.875 0.0625 4.5875
1.9375 0.0625 4.5875
2 0.0625 4.5875
2.0625 0.0625 4.5875
2.125 0.0625 4.5875
2.1875 0.0625 4.5875
2.25 0.0625 4.5875
2.3125 0.0625 4.5875
2.375 0.0625 4.5875
2.4375 0.0625 4.5875
2.5 0.0625 4.5875
2.5625 0.0625 4.5875
2.625 0.0625 4.5875
2.6875 0.0625 4.5875
2.75 0.0625 4.5875
2.8125 0.0625 4.5875
2.875 0.0625 4.5875
2.9375 0.0625 4.5875
3 0.0625 4.5875
3.0625 0.0625 4.5875
3.125 0.0625 4.5875
3.1875 0.0625 4.5875
3.25 0.0625 4.5875
3.3125 0.0625 4.5875
3.375 0.0625 4.5875
3.4375 0.0625 4.5875
3.5 0.0625 4.5875
3.5625 0.0625 4.5875
3.625 0.0625 4.5875
3.6875 0.0625 4.5875
3.75 0.0625 4.5875
3.8125 0.0625 4.5875
3.875 0.0625 4.5875
3.9375 0.0625 4.5875
4 0.0625 4.5875
0 0.125 4.5875
0.0625 0.125 4.5875
0.125 0.125 4.5875
0.1875 0.125 4.5875
0.25 0.125 4.5875
0.3125 0.125 4.5875
0.375 0.125 4.5875
0.4375 0.125 4.5875
0.5 0.125 4.5875
0.5625 0.125 4.5875
0.625 0.125 4.5875
0.6875 0.125 4.5875
0.75 0.125 4.5875
0.8125 0.125 4.5875
0.875 0.125 4.5875
0.9375 0.125 4.5875
1 0.125 4.5875
1.0625 0.125 4.5875
1.125 0.125 4.5875
1.1875 0.125 4.5875
1.25 0.125 4.5875
1.3125 0.125 4.5875
1.375 0.125 4.5875
1.4375 0.125 4.5875
1.5 0.125 4.5875
1.5625 0.125 4.5875
1.625 0.125 4.5875
1.6875 0.125 4.5875
1.75 0.125 4.5875
1.8125 0.125 4.5875
1.875 0.125 4.5875
1.9375 0.125 4.5875
2 0.125 4.5875
2.0625 0.125 4.5875
2.125 0.125 4.5875
2.1875 0.125 4.5875
2.25 0.125 4.5875
2.3125 0.125 4.5875
2.375 0.125 4.5875
2.4375 0.125 4.5875
2.5 0.125 4.5875
2.5625 0.125 4.5875
2.625 0.125 4.5875
2.6875 0.125 4.5875
2.75 0.125 4.5875
2.8125 0.125 4.5875
2.875 0.125 4.5875
2.9375 0.125 4.5875
3 0.125 4.5875
3.0625 0.125 4.5875
3.125 0.125 4.5875
3.1875 0.125 4.5875
3.25 0.125 4.5875
3.3125 0.125 4.5875
3.375 0.125 4.5875
3.4375 0.125 4.5875
3.5 0.125 4.5875
3.5625 0.125 4.5875
3.625 0.125 4.5875
3.6875 0.125 4.5875
3.75 0.125 4.5875
3.8125 0.125 4.5875
3.875 0.125 4.5875
3.9375 0.125 4.5875
4 0.125 4.5875
0 0.1875 4.5875
0.0625 0.1875 4.5875
0.125 0.1875 4.5875
0.1875 0.1875 4.5875
0.25 0.1875 4.5875
0.3125 0.1875 4.5875
0.375 0.1875 4.5875
0.4375 0.1875 4.5875
0.5 0.1875 4.5875
0.5625 0.1875 4.5875
0.625 0.1875 4.5875
0.6875 0.1875 4.5875
0.75 0.1875 4.5875
0.8125 0.1875 4.5875
0.875 0.1875 4.5875
0.9375 0.1875 4.5875
1 0.1875 4.5875
1.0625 0.1875 4.5875
1.125 0.1875 4.5875
1.1875 0.1875 4.5875
1.25 0.1875 4.5875
1.3125 0.1875 4.5875
1.375 0.1875 4.5875
1.4375 0.1875 4.5875
1.5 0.1875 4.5875
1.5625 0.1875 4.5875
1.625 0.1875 4.5875
1.6875 0.1875 4.5875
1.75 0.1875 4.5875
1.8125 0.1875 4.5875
1.875 0.1875 4.5875
1.9375 0.1875 4.5875
2 0.1875 4.5875
2.0625 0.1875 4.5875
2.125 0.1875 4.5875
2.1875 0.1875 4.5875
2.25 0.1875 4.5875
2.3125 0.1875 4.5875
2.375 0.1875 4.5875
2.4375 0.1875 4.5875
2.5 0.1875 4.5875
2.5625 0.1875 4.5875
2.625 0.1875 4.5875
2.6875 0.1875 4.5875
2.75 0.1875 4.5875
2.8125 0.1875 4.5875
2.875 0.1875 4.5875
2.9375 0.1875 4.5875
3 0.1875 4.5875
3.0625 0.1875 4.5875
3.125 0.1875 4.5875
3.1875 0.1875 4.5875
3.25 0.1875 4.5875
3.3125 0.1875 4.5875
3.375 0.1875 4.5875
3.4375 0.1875 4.5875
3.5 0.1875 4.5875
3.5625 0.1875 4.5875
3.625 0.1875 4.5875
3.6875 0.1875 4.5875
3.75 0.1875 4.5875
3.8125 0.1875 4.5875
3.875 0.1875 4.5875
3.9375 0.1875 4.5875
4 0.1875 4.5875
0 0.25 4.5875
0.0625 0.25 4.5875
0.125 0.25 4.5875
0.1875 0.25 4.5875
0.25 0.25 4.5875
0.3125 0.25 4.5875
0.375 0.25 4.5875
0.4375 0.25 4.5875
0.5 0.25 4.5875
0.5625 0.25 4.5875
0.625 0.25 4.5875
0.6875 0.25 4.5875
0.75 0.25 4.5875
0.8125 0.25 4.5875
0.875 0.25 4.5875
0.9375 0.25 4.5875
1 0.25 4.5875
1.0625 0.25 4.5875
1.125 0.25 4.5875
1.1875 0.25 4.5875
1.25 0.25 4.5875
1.3125 0.25 4.5875
1.375 0.25 4.5875
1.4375 0.25 4.5875
1.5 0.25 4.5875
1.5625 0.25 4.5875
1.625 0.25 4.5875
1.6875 0.25 4.5875
1.75 0.25 4.5875
1.8125 0.25 4.5875
1.875 0.25 4.5875
1.9375 0.25 4.5875
2 0.25 4.5875
2.0625 0.25 4.5875
2.125 0.25 4.5875
2.1875 0.25 4.5875
2.25 0.25 4.5875
2.3125 0.25 4.5875
2.375 0.25 4.5875
2.4375 0.25 4.5875
2.5 0.25 4.5875
2.5625 0.25 4.5875
2.625 0.25 4.5875
2.6875 0.25 4.5875
2.75 0.25 4.5875
2.8125 0.25 4.5875
2.875 0.25 4.5875
2.9375 0.25 4.5875
3 0.25 4.5875
3.0625 0.25 4.5875
3.125 0.25 4.5875
3.1875 0.25 4.5875
3.25 0.25 4.5875
3.3125 0.25 4.5875
3.375 0.25 4.5875
3.4375 0.25 4.5875
3.5 0.25 4.5875
3.5625 0.25 4.5875
3.625 0.25 4.5875
3.6875 0.25 4.5875
3.75 0.25 4.5875
3.8125 0.25 4.5875
3.875 0.25 4.5875
3.9375 0.25 4.5875
4 0.25 4.5875
0 0.3125 4.5875
0.0625 0.3125 4.5875
0.125 0.3125 4.5875
0.1875 0.3125 4.5875
0.25 0.3125 4.5875
0.3125 0.3125 4.5875
0.375 0.3125 4.5875
0.4375 0.3125 4.5875
0.5 0.3125 4.5875
0.5625 0.3125 4.5875
0.625 0.3125 4.5875
0.6875 0.3125 4.5875
0.75 0.3125 4.5875
0.8125 0.3125 4.5875
0.875 0.3125 4.5875
0.9375 0.3125 4.5875
1 0.3125 4.5875
1.0625 0.3125 4.5875
1.125 0.3125 4.5875
1.1875 0.3125 4.5875
1.25 0.3125 4.5875
1.3125 0.3125 4.5875
1.375 0.3125 4.5875
1.4375 0.3125 4.5875
1.5 0.3125 4.5875
1.5625 0.3125 4.5875
1.625 0.3125 4.5875
1.6875 0.3125 4.5875
1.75 0.3125 4.5875
1.8125 0.3125 4.5875
1.875 0.3125 4.5875
1.9375 0.3125 4.5875
2 0.3125 4.5875
2.0625 0.3125 4.5875
2.125 0.3125 4.5875
2.1875 0.3125 4.5875
2.25 0.3125 4.5875
2.3125 0.3125 4.5875
2.375 0.3125 4.5875
2.4375 0.3125 4.5875
2.5 0.3125 4.5875
2.5625 0.3125 4.5875
2.625 0.3125 4.5875
2.6875 0.3125 4.5875
2.75 0.3125 4.5875
2.8125 0.3125 4.5875
2.875 0.3125 4.5875
2.9375 0.3125 4.5875
3 0.3125 4.5875
3.0625 0.3125 4.5875
3.125 0.3125 4.5875
3.1875 0.3125 4.5875
3.25 0.3125 4.5875
3.3125 0.3125 4.5875
3.375 0.3125 4.5875
3.4375 0.3125 4.5875
3.5 0.3125 4.5875
3.5625 0.3125 4.5875
3.625 0.3125 4.5875
3.6875 0.3125 4.5875
3.75 0.3125 4.5875
3.8125 0.3125 4.5875
3.875 0.3125 4.5875
3.9375 0.3125 4.5875
4 0.3125 4.5875
0 0.375 4.5875
0.0625 0.375 4.5875
0.125 0.375 4.5875
0.1875 0.375 4.5875
0.25 0.375 4.5875
0.3125 0.375 4.5875
0.375 0.375 4.5875
0.4375 0.375 4.5875
0.5 0.375 4.5875
0.5625 0.375 4.5875
0.625 0.375 4.5875
0.6875 0.375 4.5875
0.75 0.375 4.5875
0.8125 0.375 4.5875
0.875 0.375 4.5875
0.9375 0.375 4.5875
1 0.375 4.5875
1.0625 0.375 4.5875
1.125 0.375 4.5875
1.1875 0.375 4.5875
1.25 0.375 4.5875
1.3125 0.375 4.5875
1.375 0.375 4.5875
1.4375 0.375 4.5875
1.5 0.375 4.5875
1.5625 0.375 4.5875
1.625 0.375 4.5875
1.6875 0.375 4.5875
1.75 0.375 4.5875
1.8125 0.375 4.5875
1.875 0.375 4.5875
1.9375 0.375 4.5875
2 0.375 4.5875
2.0625 0.375 4.5875
2.125 0.375 4.5875
2.1875 0.375 4.5875
2.25 0.375 4.5875
2.3125 0.375 4.5875
2.375 0.375 4.5875
2.4375 0.375 4.5875
2.5 0.375 4.5875
2.5625 0.375 4.5875
2.625 0.375 4.5875
2.6875 0.375 4.5875
2.75 0.375 4.5875
2.8125 0.375 4.5875
2.875 0.375 4.5875
2.9375 0.375 4.5875
3 0.375 4.5875
3.0625 0.375 4.5875
3.125 0.375 4.5875
3.1875 0.375 4.5875
3.25 0.375 4.5875
3.3125 0.375 4.5875
3.375 0.375 4.5875
3.4375 0.375 4.5875
3.5 0.375 4.5875
3.5625 0.375 4.5875
3.625 0.375 4.5875
3.6875 0.375 4.5875
3.75 0.375 4.5875
3.8125 0.375 4.5875
3.875 0.375 4.5875
3.9375 0.375 4.5875
4 0.375 4.5875
0 0.4375 4.5875
0.0625 0.4375 4.5875
0.125 0.4375 4.5875
0.1875 0.4375 4.5875
0.25 0.4375 4.5875
0.3125 0.4375 4.5875
0.375 0.4375 4.5875
0.4375 0.4375 4.5875
0.5 0.4375 4.5875
0.5625 0.4375 4.5875
0.625 0.4375 4.5875
0.6875 0.4375 4.5875
0.75 0.4375 4.5875
0.8125 0.4375 4.5875
0.875 0.4375 4.5875
0.9375 0.4375 4.5875
1 0.4375 4.5875
1.0625 0.4375 4.5875
1.125 0.4375 4.5875
1.1875 0.4375 4.5875
1.25 0.4375 4.5875
1.3125 0.4375 4.5875
1.375 0.4375 4.5875
1.4375 0.4375 4.5875
1.5 0.4375 4.5875
1.5625 0.4375 4.5875
1.625 0.4375 4.5875
1.6875 0.4375 4.5875
1.75 0.4375 4.5875
1.8125 0.4375 4.5875
1.875 0.4375 4.5875
1.9375 0.4375 4.5875
2 0.4375 4.5875
2.0625 0.4375 4.5875
2.125 0.4375 4.5875
2.1875 0.4375 4.5875
2.25 0.4375 4.5875
2.3125 0.4375 4.5875
2.375 0.4375 4.5875
2.4375 0.4375 4.5875
2.5 0.4375 4.5875
2.5625 0.4375 4.5875
2.625 0.4375 4.5875
2.6875 0.4375 4.5875
2.75 0.4375 4.5875
2.8125 0.4375 4.5875
2.875 0.4375 4.5875
2.9375 0.4375 4.5875
3 0.4375 4.5875
3.0625 0.4375 4.5875
3.125 0.4375 4.5875
3.1875 0.4375 4.5875
3.25 0.4375 4.5875
3.3125 0.4375 4.5875
3.375 0.4375 4.5875
3.4375 0.4375 4.5875
3.5 0.4375 4.5875
3.5625 0.4375 4.5875
3.625 0.4375 4.5875
3.6875 0.4375 4.5875
3.75 0.4375 4.5875
3.8125 0.4375 4.5875
3.875 0.4375 4.5875
3.9375 0.4375 4.5875
4 0.4375 4.5875
0 0.5 4.5875
0.0625 0.5 4.5875
0.125 0.5 4.5875
0.1875 0.5 4.5875
0.25 0.5 4.5875
0.3125 0.5 4.5875
0.375 0.5 4.5875
0.4375 0.5 4.5875
0.5 0.5 4.5875
0.5625 0.5 4.5875
0.625 0.5 4.5875
0.6875 0.5 4.5875
0.75 0.5 4.5875
0.8125 0.5 4.5875
0.875 0.5 4.5875
0.9375 0.5 4.5875
1 0.5 4.5875
1.0625 0.5 4.5875
1.125 0.5 4.5875
1.1875 0.5 4.5875
1.25 0.5 4.5875
1.3125 0.5 4.5875
1.375 0.5 4.5875
1.4375 0.5 4.5875
1.5 0.5 4.5875
1.5625 0.5 4.5875
1.625 0.5 4.5875
1.6875 0.5 4.5875
1.75 0.5 4.5875
1.8125 0.5 4.5875
1.875 0.5 4.5875
1.9375 0.5 4.5875
2 0.5 4.5875
2.0625 0.5 4.5875
2.125 0.5 4.5875
2.1875 0.5 4.5875
2.25 0.5 4.5875
2.3125 0.5 4.5875
2.375 0.5 4.5875
2.4375 0.5 4.5875
2.5 0.5 4.5875
2.5625 0.5 4.5875
2.625 0.5 4.5875
2.6875 0.5 4.5875
2.75 0.5 4.5875
2.8125 0.5 4.5875
2.875 0.5 4.5875
2.9375 0.5 4.5875
3 0.5 4.5875
3.0625 0.5 4.5875
3.125 0.5 4.5875
3.1875 0.5 4.5875
3.25 0.5 4.5875
3.3125 0.5 4.5875
3.375 0.5 4.5875
3.4375 0.5 4.5875
3.5 0.5 4.5875
3.5625 0.5 4.5875
3.625 0.5 4.5875
3.6875 0.5 4.5875
3.75 0.5 4.5875
3.8125 0.5 4.5875
3.875 0.5 4.5875
3.9375 0.5 4.5875
4 0.5 4.5875
0 0.5625 4.5875
0.0625 0.5625 4.5875
0.125 0.5625 4.5875
0.1875 0.5625 4.5875
0.25 0.5625 4.5875
0.3125 0.5625 4.5875
0.375 0.5625 4.5875
0.4375 0.5625 4.5875
0.5 0.5625 4.5875
0.5625 0.5625 4.5875
0.625 0.5625 4.5875
0.6875 0.5625 4.5875
0.75 0.5625 4.5875
0.8125 0.5625 4.5875
0.875 0.5625 4.5875
0.9375 0.5625 4.5875
1 0.5625 4.5875
1.0625 0.5625 4.5875
1.125 0.5625 4.5875
1.1875 0.5625 4.5875
1.25 0.5625 4.5875
1.3125 0.5625 4.5875
1.375 0.5625 4.5875
1.4375 0.5625 4.5875
1.5 0.5625 4.5875
1.5625 0.5625 4.5875
1.625 0.5625 4.5875
1.6875 0.5625 4.5875
1.75 0.5625 4.5875
1.8125 0.5625 4.5875
1.875 0.5625 4.5875
1.9375 0.5625 4.5875
2 0.5625 4.5875
2.0625 0.5625 4.5875
2.125 0.5625 4.5875
2.1875 0.5625 4.5875
2.25 0.5625 4.5875
2.3125 0.5625 4.5875
2.375 0.5625 4.5875
2.4375 0.5625 4.5875
2.5 0.5625 4.5875
2.5625 0.5625 4.5875
2.625 0.5625 4.5875
2.6875 0.5625 4.5875
2.75 0.5625 4.5875
2.8125 0.5625 4.5875
2.875 0.5625 4.5875
2.9375 0.5625 4.5875
3 0.5625 4.5875
3.0625 0.5625 4.5875
3.125 0.5625 4.5875
3.1875 0.5625 4.5875
3.25 0.5625 4.5875
3.3125 0.5625 4.5875
3.375 0.5625 4.5875
3.4375 0.5625 4.5875
3.5 0.5625 4.5875
3.5625 0.5625 4.5875
3.625 0.5625 4.5875
3.6875 0.5625 4.5875
3.75 0.5625 4.5875
3.8125 0.5625 4.5875
3.875 0.5625 4.5875
3.9375 0.5625 4.5875
4 0.5625 4.5875
0 0.625 4.5875
0.0625 0.625 4.5875
0.125 0.625 4.5875
0.1875 0.625 4.5875
0.25 0.625 4.5875
0.3125 0.625 4.5875
0.375 0.625 4.5875
0.4375 0.625 4.5875
0.5 0.625 4.5875
0.5625 0.625 4.5875
0.625 0.625 4.5875
0.6875 0.625 4.5875
0.75 0.625 4.5875
0.8125 0.625 4.5875
0.875 0.625 4.5875
0.9375 0.625 4.5875
1 0.625 4.5875
1.0625 0.625 4.5875
1.125 0.625 4.5875
1.1875 0.625 4.5875
1.25 0.625 4.5875
1.3125 0.625 4.5875
1.375 0.625 4.5875
1.4375 0.625 4.5875
1.5 0.625 4.5875
1.5625 0.625 4.5875
1.625 0.625 4.5875
1.6875 0.625 4.5875
1.75 0.625 4.5875
1.8125 0.625 4.5875
1.875 0.625 4.5875
1.9375 0.625 4.5875
2 0.625 4.5875
2.0625 0.625 4.5875
2.125 0.625 4.5875
2.1875 0.625 4.5875
2.25 0.625 4.5875
2.3125 0.625 4.5875
2.375 0.625 4.5875
2.4375 0.625 4.5875
2.5 0.625 4.5875
2.5625 0.625 4.5875
2.625 0.625 4.5875
2.6875 0.625 4.5875
2.75 0.625 4.5875
2.8125 0.625 4.5875
2.875 0.625 4.5875
2.9375 0.625 4.5875
3 0.625 4.5875
3.0625 0.625 4.5875
3.125 0.625 4.5875
3.1875 0.625 4.5875
3.25 0.625 4.5875
3.3125 0.625 4.5875
3.375 0.625 4.5875
3.4375 0.625 4.5875
3.5 0.625 4.5875
3.5625 0.625 4.5875
3.625 0.625 4.5875
3.6875 0.625 4.5875
3.75 0.625 4.5875
3.8125 0.625 4.5875
3.875 0.625 4.5875
3.9375 0.625 4.5875
4 0.625 4.5875
0 0.6875 4.5875
0.0625 0.6875 4.5875
0.125 0.6875 4.5875
0.1875 0.6875 4.5875
0.25 0.6875 4.5875
0.3125 0.6875 4.5875
0.375 0.6875 4.5875
0.4375 0.6875 4.5875
0.5 0.6875 4.5875
0.5625 0.6875 4.5875
0.625 0.6875 4.5875
0.6875 0.6875 4.5875
0.75 0.6875 4.5875
0.8125 0.6875 4.5875
0.875 0.6875 4.5875
0.9375 0.6875 4.5875
1 0.6875 4.5875
1.0625 0.6875 4.5875
1.125 0.6875 4.5875
1.1875 0.6875 4.5875
1.25 0.6875 4.5875
1.3125 0.6875 4.5875
1.375 0.6875 4.5875
1.4375 0.6875 4.5875
1.5 0.6875 4.5875
1.5625 0.6875 4.5875
1.625 0.6875 4.5875
1.6875 0.6875 4.5875
1.75 0.6875 4.5875
1.8125 0.6875 4.5875
1.875 0.6875 4.5875
1.9375 0.6875 4.5875
2 0.6875 4.5875
2.0625 0.6875 4.5875
2.125 0.6875 4.5875
2.1875 0.6875 4.5875
2.25 0.6875 4.5875
2.3125 0.6875 4.5875
2.375 0.6875 4.5875
2.4375 0.6875 4.5875
2.5 0.6875 4.5875
2.5625 0.6875 4.5875
2.625 0.6875 4.5875
2.6875 0.6875 4.5875
2.75 0.6875 4.5875
2.8125 0.6875 4.5875
2.875 0.6875 4.5875
2.9375 0.6875 4.5875
3 0.6875 4.5875
3.0625 0.6875 4.5875
3.125 0.6875 4.5875
3.1875 0.6875 4.5875
3.25 0.6875 4.5875
3.3125 0.6875 4.5875
3.375 0.6875 4.5875
3.4375 0.6875 4.5875
3.5 0.6875 4.5875
3.5625 0.6875 4.5875
3.625 0.6875 4.5875
3.6875 0.6875 4.5875
3.75 0.6875 4.5875
3.8125 0.6875 4.5875
3.875 0.6875 4.5875
3.9375 0.6875 4.5875
4 0.6875 4.5875
0 0.75 4.5875
0.0625 0.75 4.5875
0.125 0.75 4.5875
0.1875 0.75 4.5875
0.25 0.75 4.5875
0.3125 0.75 4.5875
0.375 0.75 4.5875
0.4375 0.75 4.5875
0.5 0.75 4.5875
0.5625 0.75 4.5875
0.625 0.75 4.5875
0.6875 0.75 4.5875
0.75 0.75 4.5875
0.8125 0.75 4.5875
0.875 0.75 4.5875
0.9375 0.75 4.5875
1 0.75 4.5875
1.0625 0.75 4.5875
1.125 0.75 4.5875
1.1875 0.75 4.5875
1.25 0.75 4.5875
1.3125 0.75 4.5875
1.375 0.75 4.5875
1.4375 0.75 4.5875
1.5 0.75 4.5875
1.5625 0.75 4.5875
1.625 0.75 4.5875
1.6875 0.75 4.5875
1.75 0.75 4.5875
1.8125 0.75 4.5875
1.875 0.75 4.5875
1.9375 0.75 4.5875
2 0.75 4.5875
2.0625 0.75 4.5875
2.125 0.75 4.5875
2.1875 0.75 4.5875
2.25 0.75 4.5875
2.3125 0.75 4.5875
2.375 0.75 4.5875
2.4375 0.75 4.5875
2.5 0.75 4.5875
2.5625 0.75 4.5875
2.625 0.75 4.5875
2.6875 0.75 4.5875
2.75 0.75 4.5875
2.8125 0.75 4.5875
2.875 0.75 4.5875
2.9375 0.75 4.5875
3 0.75 4.5875
3.0625 0.75 4.5875
3.125 0.75 4.5875
3.1875 0.75 4.5875
3.25 0.75 4.5875
3.3125 0.75 4.5875
3.375 0.75 4.5875
3.4375 0.75 4.5875
3.5 0.75 4.5875
3.5625 0.75 4.5875
3.625 0.75 4.5875
3.6875 0.75 4.5875
3.75 0.75 4.5875
3.8125 0.75 4.5875
3.875 0.75 4.5875
3.9375 0.75 4.5875
4 0.75 4.5875
0 0.8125 4.5875
0.0625 0.8125 4.5875
0.125 0.8125 4.5875
0.1875 0.8125 4.5875
0.25 0.8125 4.5875
0.3125 0.8125 4.5875
0.375 0.8125 4.5875
0.4375 0.8125 4.5875
0.5 0.8125 4.5875
0.5625 0.8125 4.5875
0.625 0.8125 4.5875
0.6875 0.8125 4.5875
0.75 0.8125 4.5875
0.8125 0.8125 4.5875
0.875 0.8125 4.5875
0.9375 0.8125 4.5875
1 0.8125 4.5875
1.0625 0.8125 4.5875
1.125 0.8125 4.5875
1.1875 0.8125 4.5875
1.25 0.8125 4.5875
1.3125 0.8125 4.5875
1.375 0.8125 4.5875
1.4375 0.8125 4.5875
1.5 0.8125 4.5875
1.5625 0.8125 4.5875
1.625 0.8125 4.5875
1.6875 0.8125 4.5875
1.75 0.8125 4.5875
1.8125 0.8125 4.5875
1.875 0.8125 4.5875
1.9375 0.8125 4.5875
2 0.8125 4.5875
2.0625 0.8125 4.5875
2.125 0.8125 4.5875
2.1875 0.8125 4.5875
2.25 0.8125 4.5875
2.3125 0.8125 4.5875
2.375 0.8125 4.5875
2.4375 0.8125 4.5875
2.5 0.8125 4.5875
2.5625 0.8125 4.5875
2.625 0.8125 4.5875
2.6875 0.8125 4.5875
2.75 0.8125 4.5875
2.8125 0.8125 4.5875
2.875 0.8125 4.5875
2.9375 0.8125 4.5875
3 0.8125 4.5875
3.0625 0.8125 4.5875
3.125 0.8125 4.5875
3.1875 0.8125 4.5875
3.25 0.8125 4.5875
3.3125 0.8125 4.5875
3.375 0.8125 4.5875
3.4375 0.8125 4.5875
3.5 0.8125 4.5875
3.5625 0.8125 4.5875
3.625 0.8125 4.5875
3.6875 0.8125 4.5875
3.75 0.8125 4.5875
3.8125 0.8125 4.5875
3.875 0.8125 4.5875
3.9375 0.8125 4.5875
4 0.8125 4.5875
0 0.875 4.5875
0.0625 0.875 4.5875
0.125 0.875 4.5875
0.1875 0.875 4.5875
0.25 0.875 4.5875
0.3125 0.875 4.5875
0.375 0.875 4.5875
0.4375 0.875 4.5875
0.5 0.875 4.5875
0.5625 0.875 4.5875
0.625 0.875 4.5875
0.6875 0.875 4.5875
0.75 0.875 4.5875
0.8125 0.875 4.5875
0.875 0.875 4.5875
0.9375 0.875 4.5875
1 0.875 4.5875
1.0625 0.875 4.5875
1.125 0.875 4.5875
1.1875 0.875 4.5875
1.25 0.875 4.5875
1.3125 0.875 4.5875
1.375 0.875 4.5875
1.4375 0.875 4.5875
1.5 0.875 4.5875
1.5625 0.875 4.5875
1.625 0.875 4.5875
1.6875 0.875 4.5875
1.75 0.875 4.5875
1.8125 0.875 4.5875
1.875 0.875 4.5875
1.9375 0.875 4.5875
2 0.875 4.5875
2.0625 0.875 4.5875
2.125 0.875 4.5875
2.1875 0.875 4.5875
2.25 0.875 4.5875
2.3125 0.875 4.5875
2.375 0.875 4.5875
2.4375 0.875 4.5875
2.5 0.875 4.5875
2.5625 0.875 4.5875
2.625 0.875 4.5875
2.6875 0.875 4.5875
2.75 0.875 4.5875
2.8125 0.875 4.5875
2.875 0.875 4.5875
2.9375 0.875 4.5875
3 0.875 4.5875
3.0625 0.875 4.5875
3.125 0.875 4.5875
3.1875 0.875 4.5875
3.25 0.875 4.5875
3.3125 0.875 4.5875
3.375 0.875 4.5875
3.4375 0.875 4.5875
3.5 0.875 4.5875
3.5625 0.875 4.5875
3.625 0.875 4.5875
3.6875 0.875 4.5875
3.75 0.875 4.5875
3.8125 0.875 4.5875
3.875 0.875 4.5875
3.9375 0.875 4.5875
4 0.875 4.5875
0 0.9375 4.5875
0.0625 0.9375 4.5875
0.125 0.9375 4.5875
0.1875 0.9375 4.5875
0.25 0.9375 4.5875
0.3125 0.9375 4.5875
0.375 0.9375 4.5875
0.4375 0.9375 4.5875
0.5 0.9375 4.5875
0.5625 0.9375 4.5875
0.625 0.9375 4.5875
0.6875 0.9375 4.5875
0.75 0.9375 4.5875
0.8125 0.9375 4.5875
0.875 0.9375 4.5875
0.9375 0.9375 4.5875
1 0.9375 4.5875
1.0625 0.9375 4.5875
1.125 0.9375 4.5875
1.1875 0.9375 4.5875
1.25 0.9375 4.5875
1.3125 0.9375 4.5875
1.375 0.9375 4.5875
1.4375 0.9375 4.5875
1.5 0.9375 4.5875
1.5625 0.9375 4.5875
1.625 0.9375 4.5875
1.6875 0.9375 4.5875
1.75 0.9375 4.5875
1.8125 0.9375 4.5875
1.875 0.9375 4.5875
1.9375 0.9375 4.5875
2 0.9375 4.5875
2.0625 0.9375 4.5875
2.125 0.9375 4.5875
2.1875 0.9375 4.5875
2.25 0.9375 4.5875
2.3125 0.9375 4.5875
2.375 0.9375 4.5875
2.4375 0.9375 4.5875
2.5 0.9375 4.5875
2.5625 0.9375 4.5875
2.625 0.9375 4.5875
2.6875 0.9375 4.5875
2.75 0.9375 4.5875
2.8125 0.9375 4.5875
2.875 0.9375 4.5875
2.9375 0.9375 4.5875
3 0.9375 4.5875
3.0625 0.9375 4.5875
3.125 0.9375 4.5875
3.1875 0.9375 4.5875
3.25 0.9375 4.5875
3.3125 0.9375 4.5875
3.375 0.9375 4.5875
3.4375 0.9375 4.5875
3.5 0.9375 4.5875
3.5625 0.9375 4.5875
3.625 0.9375 4.5875
3.6875 0.9375 4.5875
3.75 0.9375 4.5875
3.8125 0.9375 4.5875
3.875 0.9375 4.5875
3.9375 0.9375 4.5875
4 0.9375 4.5875
0 1 4.5875
0.0625 1 4.5875
0.125 1 4.5875
0.1875 1 4.5875
0.25 1 4.5875
0.3125 1 4.5875
0.375 1 4.5875
0.4375 1 4.5875
0.5 1 4.5875
0.5625 1 4.5875
0.625 1 4.5875
0.6875 1 4.5875
0.75 1 4.5875
0.8125 1 4.5875
0.875 1 4.5875
0.9375 1 4.5875
1 1 4.5875
1.0625 1 4.5875
1.125 1 4.5875
1.1875 1 4.5875
1.25 1 4.5875
1.3125 1 4.5875
1.375 1 4.5875
1.4375 1 4.5875
1.5 1 4.5875
1.5625 1 4.5875
1.625 1 4.5875
1.6875 1 4.5875
1.75 1 4.5875
1.8125 1 4.5875
1.875 1 4.5875
1.9375 1 4.5875
2 1 4.5875
2.0625 1 4.5875
2.125 1 4.5875
2.1875 1 4.5875
2.25 1 4.5875
2.3125 1 4.5875
2.375 1 4.5875
2.4375 1 4.5875
2.5 1 4.5875
2.5625 1 4.5875
2.625 1 4.5875
2.6875 1 4.5875
2.75 1 4.5875
2.8125 1 4.5875
2.875 1 4.5875
2.9375 1 4.5875
3 1 4.5875
3.0625 1 4.5875
3.125 1 4.5875
3.1875 1 4.5875
3.25 1 4.5875
3.3125 1 4.5875
3.375 1 4.5875
3.4375 1 4.5875
3.5 1 4.5875
3.5625 1 4.5875
3.625 1 4.5875
3.6875 1 4.5875
3.75 1 4.5875
3.8125 1 4.5875
3.875 1 4.5875
3.9375 1 4.5875
4 1 4.5875
0 0 4.65
0.0625 0 4.65
0.125 0 4.65
0.1875 0 4.65
0.25 0 4.65
0.3125 0 4.65
0.375 0 4.65
0.4375 0 4.65
0.5 0 4.65
0.5625 0 4.65
0.625 0 4.65
0.6875 0 4.65
0.75 0 4.65
0.8125 0 4.65
0.875 0 4.65
0.9375 0 4.65
1 0 4.65
1.0625 0 4.65
1.125 0 4.65
1.1875 0 4.65
1.25 0 4.65
1.3125 0 4.65
1.375 0 4.65
1.4375 0 4.65
1.5 0 4.65
1.5625 0 4.65
1.625 0 4.65
1.6875 0 4.65
1.75 0 4.65
1.8125 0 4.65
1.875 0 4.65
1.9375 0 4.65
2 0 4.65
2.0625 0 4.65
2.125 0 4.65
2.1875 0 4.65
2.25 0 4.65
2.3125 0 4.65
2.375 0 4.65
2.4375 0 4.65
2.5 0 4.65
2.5625 0 4.65
2.625 0 4.65
2.6875 0 4.65
2.75 0 4.65
2.8125 0 4.65
2.875 0 4.65
2.9375 0 4.65
3 0 4.65
3.0625 0 4.65
3.125 0 4.65
3.1875 0 4.65
3.25 0 4.65
3.3125 0 4.65
3.375 0 4.65
3.4375 0 4.65
3.5 0 4.65
3.5625 0 4.65
3.625 0 4.65
3.6875 0 4.65
3.75 0 4.65
3.8125 0 4.65
3.875 0 4.65
3.9375 0 4.65
4 0 4.65
0 0.0625 4.65
0.0625 0.0625 4.65
0.125 0.0625 4.65
0.1875 0.0625 4.65
0.25 0.0625 4.65
0.3125 0.0625 4.65
0.375 0.0625 4.65
0.4375 0.0625 4.65
0.5 0.0625 4.65
0.5625 0.0625 4.65
0.625 0.0625 4.65
0.6875 0.0625 4.65
0.75 0.0625 4.65
0.8125 0.0625 4.65
0.875 0.0625 4.65
0.9375 0.0625 4.65
1 0.0625 4.65
1.0625 0.0625 4.65
1.125 0.0625 4.65
1.1875 0.0625 4.65
1.25 0.0625 4.65
1.3125 0.0625 4.65
1.375 0.0625 4.65
1.4375 0.0625 4.65
1.5 0.0625 4.65
1.5625 0.0625 4.65
1.625 0.0625 4.65
1.6875 0.0625 4.65
1.75 0.0625 4.65
1.8125 0.0625 4.65
1.875 0.0625 4.65
1.9375 0.0625 4.65
2 0.0625 4.65
2.0625 0.0625 4.65
2.125 0.0625 4.65
2.1875 0.0625 4.65
2.25 0.0625 4.65
2.3125 0.0625 4.65
2.375 0.0625 4.65
2.4375 0.0625 4.65
2.5 0.0625 4.65
2.5625 0.0625 4.65
2.625 0.0625 4.65
2.6875 0.0625 4.65
2.75 0.0625 4.65
2.8125 0.0625 4.65
2.875 0.0625 4.65
2.9375 0.0625 4.65
3 0.0625 4.65
3.0625 0.0625 4.65
3.125 0.0625 4.65
3.1875 0.0625 4.65
3.25 0.0625 4.65
3.3125 0.0625 4.65
3.375 0.0625 4.65
3.4375 0.0625 4.65
3.5 0.0625 4.65
3.5625 0.0625 4.65
3.625 0.0625 4.65
3.6875 0.0625 4.65
3.75 0.0625 4.65
3.8125 0.0625 4.65
3.875 0.0625 4.65
3.9375 0.0625 4.65
4 0.0625 4.65
0 0.125 4.65
0.0625 0.125 4.65
0.125 0.125 4.65
0.1875 0.125 4.65
0.25 0.125 4.65
0.3125 0.125 4.65
0.375 0.125 4.65
0.4375 0.125 4.65
0.5 0.125 4.65
0.5625 0.125 4.65
0.625 0.125 4.65
0.6875 0.125 4.65
0.75 0.125 4.65
0.8125 0.125 4.65
0.875 0.125 4.65
0.9375 0.125 4.65
1 0.125 4.65
1.0625 0.125 4.65
1.125 0.125 4.65
1.1875 0.125 4.65
1.25 0.125 4.65
1.3125 0.125 4.65
1.375 0.125 4.65
1.4375 0.125 4.65
1.5 0.125 4.65
1.5625 0.125 4.65
1.625 0.125 4.65
1.6875 0.125 4.65
1.75 0.125 4.65
1.8125 0.125 4.65
1.875 0.125 4.65
1.9375 0.125 4.65
2 0.125 4.65
2.0625 0.125 4.65
2.125 0.125 4.65
2.1875 0.125 4.65
2.25 0.125 4.65
2.3125 0.125 4.65
2.375 0.125 4.65
2.4375 0.125 4.65
2.5 0.125 4.65
2.5625 0.125 4.65
2.625 0.125 4.65
2.6875 0.125 4.65
2.75 0.125 4.65
2.8125 0.125 4.65
2.875 0.125 4.65
2.9375 0.125 4.65
3 0.125 4.65
3.0625 0.125 4.65
3.125 0.125 4.65
3.1875 0.125 4.65
3.25 0.125 4.65
3.3125 0.125 4.65
3.375 0.125 4.65
3.4375 0.125 4.65
3.5 0.125 4.65
3.5625 0.125 4.65
3.625 0.125 4.65
3.6875 0.125 4.65
3.75 0.125 4.65
3.8125 0.125 4.65
3.875 0.125 4.65
3.9375 0.125 4.65
4 0.125 4.65
0 0.1875 4.65
0.0625 0.1875 4.65
0.125 0.1875 4.65
0.1875 0.1875 4.65
0.25 0.1875 4.65
0.3125 0.1875 4.65
0.375 0.1875 4.65
0.4375 0.1875 4.65
0.5 0.1875 4.65
0.5625 0.1875 4.65
0.625 0.1875 4.65
0.6875 0.1875 4.65
0.75 0.1875 4.65
0.8125 0.1875 4.65
0.875 0.1875 4.65
0.9375 0.1875 4.65
1 0.1875 4.65
1.0625 0.1875 4.65
1.125 0.1875 4.65
1.1875 0.1875 4.65
1.25 0.1875 4.65
1.3125 0.1875 4.65
1.375 0.1875 4.65
1.4375 0.1875 4.65
1.5 0.1875 4.65
1.5625 0.1875 4.65
1.625 0.1875 4.65
1.6875 0.1875 4.65
1.75 0.1875 4.65
1.8125 0.1875 4.65
1.875 0.1875 4.65
1.9375 0.1875 4.65
2 0.1875 4.65
2.0625 0.1875 4.65
2.125 0.1875 4.65
2.1875 0.1875 4.65
2.25 0.1875 4.65
2.3125 0.1875 4.65
2.375 0.1875 4.65
2.4375 0.1875 4.65
2.5 0.1875 4.65
2.5625 0.1875 4.65
2.625 0.1875 4.65
2.6875 0.1875 4.65
2.75 0.1875 4.65
2.8125 0.1875 4.65
2.875 0.1875 4.65
2.9375 0.1875 4.65
3 0.1875 4.65
3.0625 0.1875 4.65
3.125 0.1875 4.65
3.1875 0.1875 4.65
3.25 0.1875 4.65
3.3125 0.1875 4.65
3.375 0.1875 4.65
3.4375 0.1875 4.65
3.5 0.1875 4.65
3.5625 0.1875 4.65
3.625 0.1875 4.65
3.6875 0.1875 4.65
3.75 0.1875 4.65
3.8125 0.1875 4.65
3.875 0.1875 4.65
3.9375 0.1875 4.65
4 0.1875 4.65
0 0.25 4.65
0.0625 0.25 4.65
0.125 0.25 4.65
0.1875 0.25 4.65
0.25 0.25 4.65
0.3125 0.25 4.65
0.375 0.25 4.65
0.4375 0.25 4.65
0.5 0.25 4.65
0.5625 0.25 4.65
0.625 0.25 4.65
0.6875 0.25 4.65
0.75 0.25 4.65
0.8125 0.25 4.65
0.875 0.25 4.65
0.9375 0.25 4.65
1 0.25 4.65
1.0625 0.25 4.65
1.125 0.25 4.65
1.1875 0.25 4.65
1.25 0.25 4.65
1.3125 0.25 4.65
1.375 0.25 4.65
1.4375 0.25 4.65
1.5 0.25 4.65
1.5625 0.25 4.65
1.625 0.25 4.65
1.6875 0.25 4.65
1.75 0.25 4.65
1.8125 0.25 4.65
1.875 0.25 4.65
1.9375 0.25 4.65
2 0.25 4.65
2.0625 0.25 4.65
2.125 0.25 4.65
2.1875 0.25 4.65
2.25 0.25 4.65
2.3125 0.25 4.65
2.375 0.25 4.65
2.4375 0.25 4.65
2.5 0.25 4.65
2.5625 0.25 4.65
2.625 0.25 4.65
2.6875 0.25 4.65
2.75 0.25 4.65
2.8125 0.25 4.65
2.875 0.25 4.65
2.9375 0.25 4.65
3 0.25 4.65
3.0625 0.25 4.65
3.125 0.25 4.65
3.1875 0.25 4.65
3.25 0.25 4.65
3.3125 0.25 4.65
3.375 0.25 4.65
3.4375 0.25 4.65
3.5 0.25 4.65
3.5625 0.25 4.65
3.625 0.25 4.65
3.6875 0.25 4.65
3.75 0.25 4.65
3.8125 0.25 4.65
3.875 0.25 4.65
3.9375 0.25 4.65
4 0.25 4.65
0 0.3125 4.65
0.0625 0.3125 4.65
0.125 0.3125 4.65
0.1875 0.3125 4.65
0.25 0.3125 4.65
0.3125 0.3125 4.65
0.375 0.3125 4.65
0.4375 0.3125 4.65
0.5 0.3125 4.65
0.5625 0.3125 4.65
0.625 0.3125 4.65
0.6875 0.3125 4.65
0.75 0.3125 4.65
0.8125 0.3125 4.65
0.875 0.3125 4.65
0.9375 0.3125 4.65
1 0.3125 4.65
1.0625 0.3125 4.65
1.125 0.3125 4.65
1.1875 0.3125 4.65
1.25 0.3125 4.65
1.3125 0.3125 4.65
1.375 0.3125 4.65
1.4375 0.3125 4.65
1.5 0.3125 4.65
1.5625 0.3125 4.65
1.625 0.3125 4.65
1.6875 0.3125 4.65
1.75 0.3125 4.65
1.8125 0.3125 4.65
1.875 0.3125 4.65
1.9375 0.3125 4.65
2 0.3125 4.65
2.0625 0.3125 4.65
2.125 0.3125 4.65
2.1875 0.3125 4.65
2.25 0.3125 4.65
2.3125 0.3125 4.65
2.375 0.3125 4.65
2.4375 0.3125 4.65
2.5 0.3125 4.65
2.5625 0.3125 4.65
2.625 0.3125 4.65
2.6875 0.3125 4.65
2.75 0.3125 4.65
2.8125 0.3125 4.65
2.875 0.3125 4.65
2.9375 0.3125 4.65
3 0.3125 4.65
3.0625 0.3125 4.65
3.125 0.3125 4.65
3.1875 0.3125 4.65
3.25 0.3125 4.65
3.3125 0.3125 4.65
3.375 0.3125 4.65
3.4375 0.3125 4.65
3.5 0.3125 4.65
3.5625 0.3125 4.65
3.625 0.3125 4.65
3.6875 0.3125 4.65
3.75 0.3125 4.65
3.8125 0.3125 4.65
3.875 0.3125 4.65
3.9375 0.3125 4.65
4 0.3125 4.65
0 0.375 4.65
0.0625 0.375 4.65
0.125 0.375 4.65
0.1875 0.375 4.65
0.25 0.375 4.65
0.3125 0.375 4.65
0.375 0.375 4.65
0.4375 0.375 4.65
0.5 0.375 4.65
0.5625 0.375 4.65
0.625 0.375 4.65
0.6875 0.375 4.65
0.75 0.375 4.65
0.8125 0.375 4.65
0.875 0.375 4.65
0.9375 0.375 4.65
1 0.375 4.65
1.0625 0.375 4.65
1.125 0.375 4.65
1.1875 0.375 4.65
1.25 0.375 4.65
1.3125 0.375 4.65
1.375 0.375 4.65
1.4375 0.375 4.65
1.5 0.375 4.65
1.5625 0.375 4.65
1.625 0.375 4.65
1.6875 0.375 4.65
1.75 0.375 4.65
1.8125 0.375 4.65
1.875 0.375 4.65
1.9375 0.375 4.65
2 0.375 4.65
2.0625 0.375 4.65
2.125 0.375 4.65
2.1875 0.375 4.65
2.25 0.375 4.65
2.3125 0.375 4.65
2.375 0.375 4.65
2.4375 0.375 4.65
2.5 0.375 4.65
2.5625 0.375 4.65
2.625 0.375 4.65
2.6875 0.375 4.65
2.75 0.375 4.65
2.8125 0.375 4.65
2.875 0.375 4.65
2.9375 0.375 4.65
3 0.375 4.65
3.0625 0.375 4.65
3.125 0.375 4.65
3.1875 0.375 4.65
3.25 0.375 4.65
3.3125 0.375 4.65
3.375 0.375 4.65
3.4375 0.375 4.65
3.5 0.375 4.65
3.5625 0.375 4.65
3.625 0.375 4.65
3.6875 0.375 4.65
3.75 0.375 4.65
3.8125 0.375 4.65
3.875 0.375 4.65
3.9375 0.375 4.65
4 0.375 4.65
0 0.4375 4.65
0.0625 0.4375 4.65
0.125 0.4375 4.65
0.1875 0.4375 4.65
0.25 0.4375 4.65
0.3125 0.4375 4.65
0.375 0.4375 4.65
0.4375 0.4375 4.65
0.5 0.4375 4.65
0.5625 0.4375 4.65
0.625 0.4375 4.65
0.6875 0.4375 4.65
0.75 0.4375 4.65
0.8125 0.4375 4.65
0.875 0.4375 4.65
0.9375 0.4375 4.65
1 0.4375 4.65
1.0625 0.4375 4.65
1.125 0.4375 4.65
1.1875 0.4375 4.65
1.25 0.4375 4.65
1.3125 0.4375 4.65
1.375 0.4375 4.65
1.4375 0.4375 4.65
1.5 0.4375 4.65
1.5625 0.4375 4.65
1.625 0.4375 4.65
1.6875 0.4375 4.65
1.75 0.4375 4.65
1.8125 0.4375 4.65
1.875 0.4375 4.65
1.9375 0.4375 4.65
2 0.4375 4.65
2.0625 0.4375 4.65
2.125 0.4375 4.65
2.1875 0.4375 4.65
2.25 0.4375 4.65
2.3125 0.4375 4.65
2.375 0.4375 4.65
2.4375 0.4375 4.65
2.5 0.4375 4.65
2.5625 0.4375 4.65
2.625 0.4375 4.65
2.6875 0.4375 4.65
2.75 0.4375 4.65
2.8125 0.4375 4.65
2.875 0.4375 4.65
2.9375 0.4375 4.65
3 0.4375 4.65
3.0625 0.4375 4.65
3.125 0.4375 4.65
3.1875 0.4375 4.65
3.25 0.4375 4.65
3.3125 0.4375 4.65
3.375 0.4375 4.65
3.4375 0.4375 4.65
3.5 0.4375 4.65
3.5625 0.4375 4.65
3.625 0.4375 4.65
3.6875 0.4375 4.65
3.75 0.4375 4.65
3.8125 0.4375 4.65
3.875 0.4375 4.65
3.9375 0.4375 4.65
4 0.4375 4.65
0 0.5 4.65
0.0625 0.5 4.65
0.125 0.5 4.65
0.1875 0.5 4.65
0.25 0.5 4.65
0.3125 0.5 4.65
0.375 0.5 4.65
0.4375 0.5 4.65
0.5 0.5 4.65
0.5625 0.5 4.65
0.625 0.5 4.65
0.6875 0.5 4.65
0.75 0.5 4.65
0.8125 0.5 4.65
0.875 0.5 4.65
0.9375 0.5 4.65
1 0.5 4.65
1.0625 0.5 4.65
1.125 0.5 4.65
1.1875 0.5 4.65
1.25 0.5 4.65
1.3125 0.5 4.65
1.375 0.5 4.65
1.4375 0.5 4.65
1.5 0.5 4.65
1.5625 0.5 4.65
1.625 0.5 4.65
1.6875 0.5 4.65
1.75 0.5 4.65
1.8125 0.5 4.65
1.875 0.5 4.65
1.9375 0.5 4.65
2 0.5 4.65
2.0625 0.5 4.65
2.125 0.5 4.65
2.1875 0.5 4.65
2.25 0.5 4.65
2.3125 0.5 4.65
2.375 0.5 4.65
2.4375 0.5 4.65
2.5 0.5 4.65
2.5625 0.5 4.65
2.625 0.5 4.65
2.6875 0.5 4.65
2.75 0.5 4.65
2.8125 0.5 4.65
2.875 0.5 4.65
2.9375 0.5 4.65
3 0.5 4.65
3.0625 0.5 4.65
3.125 0.5 4.65
3.1875 0.5 4.65
3.25 0.5 4.65
3.3125 0.5 4.65
3.375 0.5 4.65
3.4375 0.5 4.65
3.5 0.5 4.65
3.5625 0.5 4.65
3.625 0.5 4.65
3.6875 0.5 4.65
3.75 0.5 4.65
3.8125 0.5 4.65
3.875 0.5 4.65
3.9375 0.5 4.65
4 0.5 4.65
0 0.5625 4.65
0.0625 0.5625 4.65
0.125 0.5625 4.65
0.1875 0.5625 4.65
0.25 0.5625 4.65
0.3125 0.5625 4.65
0.375 0.5625 4.65
0.4375 0.5625 4.65
0.5 0.5625 4.65
0.5625 0.5625 4.65
0.625 0.5625 4.65
0.6875 0.5625 4.65
0.75 0.5625 4.65
0.8125 0.5625 4.65
0.875 0.5625 4.65
0.9375 0.5625 4.65
1 0.5625 4.65
1.0625 0.5625 4.65
1.125 0.5625 4.65
1.1875 0.5625 4.65
1.25 0.5625 4.65
1.3125 0.5625 4.65
1.375 0.5625 4.65
1.4375 0.5625 4.65
1.5 0.5625 4.65
1.5625 0.5625 4.65
1.625 0.5625 4.65
1.6875 0.5625 4.65
1.75 0.5625 4.65
1.8125 0.5625 4.65
1.875 0.5625 4.65
1.9375 0.5625 4.65
2 0.5625 4.65
2.0625 0.5625 4.65
2.125 0.5625 4.65
2.1875 0.5625 4.65
2.25 0.5625 4.65
2.3125 0.5625 4.65
2.375 0.5625 4.65
2.4375 0.5625 4.65
2.5 0.5625 4.65
2.5625 0.5625 4.65
2.625 0.5625 4.65
2.6875 0.5625 4.65
2.75 0.5625 4.65
2.8125 0.5625 4.65
2.875 0.5625 4.65
2.9375 0.5625 4.65
3 0.5625 4.65
3.0625 0.5625 4.65
3.125 0.5625 4.65
3.1875 0.5625 4.65
3.25 0.5625 4.65
3.3125 0.5625 4.65
3.375 0.5625 4.65
3.4375 0.5625 4.65
3.5 0.5625 4.65
3.5625 0.5625 4.65
3.625 0.5625 4.65
3.6875 0.5625 4.65
3.75 0.5625 4.65
3.8125 0.5625 4.65
3.875 0.5625 4.65
3.9375 0.5625 4.65
4 0.5625 4.65
0 0.625 4.65
0.0625 0.625 4.65
0.125 0.625 4.65
0.1875 0.625 4.65
0.25 0.625 4.65
0.3125 0.625 4.65
0.375 0.625 4.65
0.4375 0.625 4.65
0.5 0.625 4.65
0.5625 0.625 4.65
0.625 0.625 4.65
0.6875 0.625 4.65
0.75 0.625 4.65
0.8125 0.625 4.65
0.875 0.625 4.65
0.9375 0.625 4.65
1 0.625 4.65
1.0625 0.625 4.65
1.125 0.625 4.65
1.1875 0.625 4.65
1.25 0.625 4.65
1.3125 0.625 4.65
1.375 0.625 4.65
1.4375 0.625 4.65
1.5 0.625 4.65
1.5625 0.625 4.65
1.625 0.625 4.65
1.6875 0.625 4.65
1.75 0.625 4.65
1.8125 0.625 4.65
1.875 0.625 4.65
1.9375 0.625 4.65
2 0.625 4.65
2.0625 0.625 4.65
2.125 0.625 4.65
2.1875 0.625 4.65
2.25 0.625 4.65
2.3125 0.625 4.65
2.375 0.625 4.65
2.4375 0.625 4.65
2.5 0.625 4.65
2.5625 0.625 4.65
2.625 0.625 4.65
2.6875 0.625 4.65
2.75 0.625 4.65
2.8125 0.625 4.65
2.875 0.625 4.65
2.9375 0.625 4.65
3 0.625 4.65
3.0625 0.625 4.65
3.125 0.625 4.65
3.1875 0.625 4.65
3.25 0.625 4.65
3.3125 0.625 4.65
3.375 0.625 4.65
3.4375 0.625 4.65
3.5 0.625 4.65
3.5625 0.625 4.65
3.625 0.625 4.65
3.6875 0.625 4.65
3.75 0.625 4.65
3.8125 0.625 4.65
3.875 0.625 4.65
3.9375 0.625 4.65
4 0.625 4.65
0 0.6875 4.65
0.0625 0.6875 4.65
0.125 0.6875 4.65
0.1875 0.6875 4.65
0.25 0.6875 4.65
0.3125 0.6875 4.65
0.375 0.6875 4.65
0.4375 0.6875 4.65
0.5 0.6875 4.65
0.5625 0.6875 4.65
0.625 0.6875 4.65
0.6875 0.6875 4.65
0.75 0.6875 4.65
0.8125 0.6875 4.65
0.875 0.6875 4.65
0.9375 0.6875 4.65
1 0.6875 4.65
1.0625 0.6875 4.65
1.125 0.6875 4.65
1.1875 0.6875 4.65
1.25 0.6875 4.65
1.3125 0.6875 4.65
1.375 0.6875 4.65
1.4375 0.6875 4.65
1.5 0.6875 4.65
1.5625 0.6875 4.65
1.625 0.6875 4.65
1.6875 0.6875 4.65
1.75 0.6875 4.65
1.8125 0.6875 4.65
1.875 0.6875 4.65
1.9375 0.6875 4.65
2 0.6875 4.65
2.0625 0.6875 4.65
2.125 0.6875 4.65
2.1875 0.6875 4.65
2.25 0.6875 4.65
2.3125 0.6875 4.65
2.375 0.6875 4.65
2.4375 0.6875 4.65
2.5 0.6875 4.65
2.5625 0.6875 4.65
2.625 0.6875 4.65
2.6875 0.6875 4.65
2.75 0.6875 4.65
2.8125 0.6875 4.65
2.875 0.6875 4.65
2.9375 0.6875 4.65
3 0.6875 4.65
3.0625 0.6875 4.65
3.125 0.6875 4.65
3.1875 0.6875 4.65
3.25 0.6875 4.65
3.3125 0.6875 4.65
3.375 0.6875 4.65
3.4375 0.6875 4.65
3.5 0.6875 4.65
3.5625 0.6875 4.65
3.625 0.6875 4.65
3.6875 0.6875 4.65
3.75 0.6875 4.65
3.8125 0.6875 4.65
3.875 0.6875 4.65
3.9375 0.6875 4.65
4 0.6875 4.65
0 0.75 4.65
0.0625 0.75 4.65
0.125 0.75 4.65
0.1875 0.75 4.65
0.25 0.75 4.65
0.3125 0.75 4.65
0.375 0.75 4.65
0.4375 0.75 4.65
0.5 0.75 4.65
0.5625 0.75 4.65
0.625 0.75 4.65
0.6875 0.75 4.65
0.75 0.75 4.65
0.8125 0.75 4.65
0.875 0.75 4.65
0.9375 0.75 4.65
1 0.75 4.65
1.0625 0.75 4.65
1.125 0.75 4.65
1.1875 0.75 4.65
1.25 0.75 4.65
1.3125 0.75 4.65
1.375 0.75 4.65
1.4375 0.75 4.65
1.5 0.75 4.65
1.5625 0.75 4.65
1.625 0.75 4.65
1.6875 0.75 4.65
1.75 0.75 4.65
1.8125 0.75 4.65
1.875 0.75 4.65
1.9375 0.75 4.65
2 0.75 4.65
2.0625 0.75 4.65
2.125 0.75 4.65
2.1875 0.75 4.65
2.25 0.75 4.65
2.3125 0.75 4.65
2.375 0.75 4.65
2.4375 0.75 4.65
2.5 0.75 4.65
2.5625 0.75 4.65
2.625 0.75 4.65
2.6875 0.75 4.65
2.75 0.75 4.65
2.8125 0.75 4.65
2.875 0.75 4.65
2.9375 0.75 4.65
3 0.75 4.65
3.0625 0.75 4.65
3.125 0.75 4.65
3.1875 0.75 4.65
3.25 0.75 4.65
3.3125 0.75 4.65
3.375 0.75 4.65
3.4375 0.75 4.65
3.5 0.75 4.65
3.5625 0.75 4.65
3.625 0.75 4.65
3.6875 0.75 4.65
3.75 0.75 4.65
3.8125 0.75 4.65
3.875 0.75 4.65
3.9375 0.75 4.65
4 0.75 4.65
0 0.8125 4.65
0.0625 0.8125 4.65
0.125 0.8125 4.65
0.1875 0.8125 4.65
0.25 0.8125 4.65
0.3125 0.8125 4.65
0.375 0.8125 4.65
0.4375 0.8125 4.65
0.5 0.8125 4.65
0.5625 0.8125 4.65
0.625 0.8125 4.65
0.6875 0.8125 4.65
0.75 0.8125 4.65
0.8125 0.8125 4.65
0.875 0.8125 4.65
0.9375 0.8125 4.65
1 0.8125 4.65
1.0625 0.8125 4.65
1.125 0.8125 4.65
1.1875 0.8125 4.65
1.25 0.8125 4.65
1.3125 0.8125 4.65
1.375 0.8125 4.65
1.4375 0.8125 4.65
1.5 0.8125 4.65
1.5625 0.8125 4.65
1.625 0.8125 4.65
1.6875 0.8125 4.65
1.75 0.8125 4.65
1.8125 0.8125 4.65
1.875 0.8125 4.65
1.9375 0.8125 4.65
2 0.8125 4.65
2.0625 0.8125 4.65
2.125 0.8125 4.65
2.1875 0.8125 4.65
2.25 0.8125 4.65
2.3125 0.8125 4.65
2.375 0.8125 4.65
2.4375 0.8125 4.65
2.5 0.8125 4.65
2.5625 0.8125 4.65
2.625 0.8125 4.65
2.6875 0.8125 4.65
2.75 0.8125 4.65
2.8125 0.8125 4.65
2.875 0.8125 4.65
2.9375 0.8125 4.65
3 0.8125 4.65
3.0625 0.8125 4.65
3.125 0.8125 4.65
3.1875 0.8125 4.65
3.25 0.8125 4.65
3.3125 0.8125 4.65
3.375 0.8125 4.65
3.4375 0.8125 4.65
3.5 0.8125 4.65
3.5625 0.8125 4.65
3.625 0.8125 4.65
3.6875 0.8125 4.65
3.75 0.8125 4.65
3.8125 0.8125 4.65
3.875 0.8125 4.65
3.9375 0.8125 4.65
4 0.8125 4.65
0 0.875 4.65
0.0625 0.875 4.65
0.125 0.875 4.65
0.1875 0.875 4.65
0.25 0.875 4.65
0.3125 0.875 4.65
0.375 0.875 4.65
0.4375 0.875 4.65
0.5 0.875 4.65
0.5625 0.875 4.65
0.625 0.875 4.65
0.6875 0.875 4.65
0.75 0.875 4.65
0.8125 0.875 4.65
0.875 0.875 4.65
0.9375 0.875 4.65
1 0.875 4.65
1.0625 0.875 4.65
1.125 0.875 4.65
1.1875 0.875 4.65
1.25 0.875 4.65
1.3125 0.875 4.65
1.375 0.875 4.65
1.4375 0.875 4.65
1.5 0.875 4.65
1.5625 0.875 4.65
1.625 0.875 4.65
1.6875 0.875 4.65
1.75 0.875 4.65
1.8125 0.875 4.65
1.875 0.875 4.65
1.9375 0.875 4.65
2 0.875 4.65
2.0625 0.875 4.65
2.125 0.875 4.65
2.1875 0.875 4.65
2.25 0.875 4.65
2.3125 0.875 4.65
2.375 0.875 4.65
2.4375 0.875 4.65
2.5 0.875 4.65
2.5625 0.875 4.65
2.625 0.875 4.65
2.6875 0.875 4.65
2.75 0.875 4.65
2.8125 0.875 4.65
2.875 0.875 4.65
2.9375 0.875 4.65
3 0.875 4.65
3.0625 0.875 4.65
3.125 0.875 4.65
3.1875 0.875 4.65
3.25 0.875 4.65
3.3125 0.875 4.65
3.375 0.875 4.65
3.4375 0.875 4.65
3.5 0.875 4.65
3.5625 0.875 4.65
3.625 0.875 4.65
3.6875 0.875 4.65
3.75 0.875 4.65
3.8125 0.875 4.65
3.875 0.875 4.65
3.9375 0.875 4.65
4 0.875 4.65
0 0.9375 4.65
0.0625 0.9375 4.65
0.125 0.9375 4.65
0.1875 0.9375 4.65
0.25 0.9375 4.65
0.3125 0.9375 4.65
0.375 0.9375 4.65
0.4375 0.9375 4.65
0.5 0.9375 4.65
0.5625 0.9375 4.65
0.625 0.9375 4.65
0.6875 0.9375 4.65
0.75 0.9375 4.65
0.8125 0.9375 4.65
0.875 0.9375 4.65
0.9375 0.9375 4.65
1 0.9375 4.65
1.0625 0.9375 4.65
1.125 0.9375 4.65
1.1875 0.9375 4.65
1.25 0.9375 4.65
1.3125 0.9375 4.65
1.375 0.9375 4.65
1.4375 0.9375 4.65
1.5 0.9375 4.65
1.5625 0.9375 4.65
1.625 0.9375 4.65
1.6875 0.9375 4.65
1.75 0.9375 4.65
1.8125 0.9375 4.65
1.875 0.9375 4.65
1.9375 0.9375 4.65
2 0.9375 4.65
2.0625 0.9375 4.65
2.125 0.9375 4.65
2.1875 0.9375 4.65
2.25 0.9375 4.65
2.3125 0.9375 4.65
2.375 0.9375 4.65
2.4375 0.9375 4.65
2.5 0.9375 4.65
2.5625 0.9375 4.65
2.625 0.9375 4.65
2.6875 0.9375 4.65
2.75 0.9375 4.65
2.8125 0.9375 4.65
2.875 0.9375 4.65
2.9375 0.9375 4.65
3 0.9375 4.65
3.0625 0.9375 4.65
3.125 0.9375 4.65
3.1875 0.9375 4.65
3.25 0.9375 4.65
3.3125 0.9375 4.65
3.375 0.9375 4.65
3.4375 0.9375 4.65
3.5 0.9375 4.65
3.5625 0.9375 4.65
3.625 0.9375 4.65
3.6875 0.9375 4.65
3.75 0.9375 4.65
3.8125 0.9375 4.65
3.875 0.9375 4.65
3.9375 0.9375 4.65
4 0.9375 4.65
0 1 4.65
0.0625 1 4.65
0.125 1 4.65
0.1875 1 4.65
0.25 1 4.65
0.3125 1 4.65
0.375 1 4.65
0.4375 1 4.65
0.5 1 4.65
0.5625 1 4.65
0.625 1 4.65
0.6875 1 4.65
0.75 1 4.65
0.8125 1 4.65
0.875 1 4.65
0.9375 1 4.65
1 1 4.65
1.0625 1 4.65
1.125 1 4.65
1.1875 1 4.65
1.25 1 4.65
1.3125 1 4.65
1.375 1 4.65
1.4375 1 4.65
1.5 1 4.65
1.5625 1 4.65
1.625 1 4.65
1.6875 1 4.65
1.75 1 4.65
1.8125 1 4.65
1.875 1 4.65
1.9375 1 4.65
2 1 4.65
2.0625 1 4.65
2.125 1 4.65
2.1875 1 4.65
2.25 1 4.65
2.3125 1 4.65
2.375 1 4.65
2.4375 1 4.65
2.5 1 4.65
2.5625 1 4.65
2.625 1 4.65
2.6875 1 4.65
2.75 1 4.65
2.8125 1 4.65
2.875 1 4.65
2.9375 1 4.65
3 1 4.65
3.0625 1 4.65
3.125 1 4.65
3.1875 1 4.65
3.25 1 4.65
3.3125 1 4.65
3.375 1 4.65
3.4375 1 4.65
3.5 1 4.65
3.5625 1 4.65
3.625 1 4.65
3.6875 1 4.65
3.75 1 4.65
3.8125 1 4.65
3.875 1 4.65
3.9375 1 4.65
4 1 4.65
0 0 4.7125
0.0625 0 4.7125
0.125 0 4.7125
0.1875 0 4.7125
0.25 0 4.7125
0.3125 0 4.7125
0.375 0 4.7125
0.4375 0 4.7125
0.5 0 4.7125
0.5625 0 4.7125
0.625 0 4.7125
0.6875 0 4.7125
0.75 0 4.7125
0.8125 0 4.7125
0.875 0 4.7125
0.9375 0 4.7125
1 0 4.7125
1.0625 0 4.7125
1.125 0 4.7125
1.1875 0 4.7125
1.25 0 4.7125
1.3125 0 4.7125
1.375 0 4.7125
1.4375 0 4.7125
1.5 0 4.7125
1.5625 0 4.7125
1.625 0 4.7125
1.6875 0 4.7125
1.75 0 4.7125
1.8125 0 4.7125
1.875 0 4.7125
1.9375 0 4.7125
2 0 4.7125
2.0625 0 4.7125
2.125 0 4.7125
2.1875 0 4.7125
2.25 0 4.7125
2.3125 0 4.7125
2.375 0 4.7125
2.4375 0 4.7125
2.5 0 4.7125
2.5625 0 4.7125
2.625 0 4.7125
2.6875 0 4.7125
2.75 0 4.7125
2.8125 0 4.7125
2.875 0 4.7125
2.9375 0 4.7125
3 0 4.7125
3.0625 0 4.7125
3.125 0 4.7125
3.1875 0 4.7125
3.25 0 4.7125
3.3125 0 4.7125
3.375 0 4.7125
3.4375 0 4.7125
3.5 0 4.7125
3.5625 0 4.7125
3.625 0 4.7125
3.6875 0 4.7125
3.75 0 4.7125
3.8125 0 4.7125
3.875 0 4.7125
3.9375 0 4.7125
4 0 4.7125
0 0.0625 4.7125
0.0625 0.0625 4.7125
0.125 0.0625 4.7125
0.1875 0.0625 4.7125
0.25 0.0625 4.7125
0.3125 0.0625 4.7125
0.375 0.0625 4.7125
0.4375 0.0625 4.7125
0.5 0.0625 4.7125
0.5625 0.0625 4.7125
0.625 0.0625 4.7125
0.6875 0.0625 4.7125
0.75 0.0625 4.7125
0.8125 0.0625 4.7125
0.875 0.0625 4.7125
0.9375 0.0625 4.7125
1 0.0625 4.7125
1.0625 0.0625 4.7125
1.125 0.0625 4.7125
1.1875 0.0625 4.7125
1.25 0.0625 4.7125
1.3125 0.0625 4.7125
1.375 0.0625 4.7125
1.4375 0.0625 4.7125
1.5 0.0625 4.7125
1.5625 0.0625 4.7125
1.625 0.0625 4.7125
1.6875 0.0625 4.7125
1.75 0.0625 4.7125
1.8125 0.0625 4.7125
1.875 0.0625 4.7125
1.9375 0.0625 4.7125
2 0.0625 4.7125
2.0625 0.0625 4.7125
2.125 0.0625 4.7125
2.1875 0.0625 4.7125
2.25 0.0625 4.7125
2.3125 0.0625 4.7125
2.375 0.0625 4.7125
2.4375 0.0625 4.7125
2.5 0.0625 4.7125
2.5625 0.0625 4.7125
2.625 0.0625 4.7125
2.6875 0.0625 4.7125
2.75 0.0625 4.7125
2.8125 0.0625 4.7125
2.875 0.0625 4.7125
2.9375 0.0625 4.7125
3 0.0625 4.7125
3.0625 0.0625 4.7125
3.125 0.0625 4.7125
3.1875 0.0625 4.7125
3.25 0.0625 4.7125
3.3125 0.0625 4.7125
3.375 0.0625 4.7125
3.4375 0.0625 4.7125
3.5 0.0625 4.7125
3.5625 0.0625 4.7125
3.625 0.0625 4.7125
3.6875 0.0625 4.7125
3.75 0.0625 4.7125
3.8125 0.0625 4.7125
3.875 0.0625 4.7125
3.9375 0.0625 4.7125
4 0.0625 4.7125
0 0.125 4.7125
0.0625 0.125 4.7125
0.125 0.125 4.7125
0.1875 0.125 4.7125
0.25 0.125 4.7125
0.3125 0.125 4.7125
0.375 0.125 4.7125
0.4375 0.125 4.7125
0.5 0.125 4.7125
0.5625 0.125 4.7125
0.625 0.125 4.7125
0.6875 0.125 4.7125
0.75 0.125 4.7125
0.8125 0.125 4.7125
0.875 0.125 4.7125
0.9375 0.125 4.7125
1 0.125 4.7125
1.0625 0.125 4.7125
1.125 0.125 4.7125
1.1875 0.125 4.7125
1.25 0.125 4.7125
1.3125 0.125 4.7125
1.375 0.125 4.7125
1.4375 0.125 4.7125
1.5 0.125 4.7125
1.5625 0.125 4.7125
1.625 0.125 4.7125
1.6875 0.125 4.7125
1.75 0.125 4.7125
1.8125 0.125 4.7125
1.875 0.125 4.7125
1.9375 0.125 4.7125
2 0.125 4.7125
2.0625 0.125 4.7125
2.125 0.125 4.7125
2.1875 0.125 4.7125
2.25 0.125 4.7125
2.3125 0.125 4.7125
2.375 0.125 4.7125
2.4375 0.125 4.7125
2.5 0.125 4.7125
2.5625 0.125 4.7125
2.625 0.125 4.7125
2.6875 0.125 4.7125
2.75 0.125 4.7125
2.8125 0.125 4.7125
2.875 0.125 4.7125
2.9375 0.125 4.7125
3 0.125 4.7125
3.0625 0.125 4.7125
3.125 0.125 4.7125
3.1875 0.125 4.7125
3.25 0.125 4.7125
3.3125 0.125 4.7125
3.375 0.125 4.7125
3.4375 0.125 4.7125
3.5 0.125 4.7125
3.5625 0.125 4.7125
3.625 0.125 4.7125
3.6875 0.125 4.7125
3.75 0.125 4.7125
3.8125 0.125 4.7125
3.875 0.125 4.7125
3.9375 0.125 4.7125
4 0.125 4.7125
0 0.1875 4.7125
0.0625 0.1875 4.7125
0.125 0.1875 4.7125
0.1875 0.1875 4.7125
0.25 0.1875 4.7125
0.3125 0.1875 4.7125
0.375 0.1875 4.7125
0.4375 0.1875 4.7125
0.5 0.1875 4.7125
0.5625 0.1875 4.7125
0.625 0.1875 4.7125
0.6875 0.1875 4.7125
0.75 0.1875 4.7125
0.8125 0.1875 4.7125
0.875 0.1875 4.7125
0.9375 0.1875 4.7125
1 0.1875 4.7125
1.0625 0.1875 4.7125
1.125 0.1875 4.7125
1.1875 0.1875 4.7125
1.25 0.1875 4.7125
1.3125 0.1875 4.7125
1.375 0.1875 4.7125
1.4375 0.1875 4.7125
1.5 0.1875 4.7125
1.5625 0.1875 4.7125
1.625 0.1875 4.7125
1.6875 0.1875 4.7125
1.75 0.1875 4.7125
1.8125 0.1875 4.7125
1.875 0.1875 4.7125
1.9375 0.1875 4.7125
2 0.1875 4.7125
2.0625 0.1875 4.7125
2.125 0.1875 4.7125
2.1875 0.1875 4.7125
2.25 0.1875 4.7125
2.3125 0.1875 4.7125
2.375 0.1875 4.7125
2.4375 0.1875 4.7125
2.5 0.1875 4.7125
2.5625 0.1875 4.7125
2.625 0.1875 4.7125
2.6875 0.1875 4.7125
2.75 0.1875 4.7125
2.8125 0.1875 4.7125
2.875 0.1875 4.7125
2.9375 0.1875 4.7125
3 0.1875 4.7125
3.0625 0.1875 4.7125
3.125 0.1875 4.7125
3.1875 0.1875 4.7125
3.25 0.1875 4.7125
3.3125 0.1875 4.7125
3.375 0.1875 4.7125
3.4375 0.1875 4.7125
3.5 0.1875 4.7125
3.5625 0.1875 4.7125
3.625 0.1875 4.7125
3.6875 0.1875 4.7125
3.75 0.1875 4.7125
3.8125 0.1875 4.7125
3.875 0.1875 4.7125
3.9375 0.1875 4.7125
4 0.1875 4.7125
0 0.25 4.7125
0.0625 0.25 4.7125
0.125 0.25 4.7125
0.1875 0.25 4.7125
0.25 0.25 4.7125
0.3125 0.25 4.7125
0.375 0.25 4.7125
0.4375 0.25 4.7125
0.5 0.25 4.7125
0.5625 0.25 4.7125
0.625 0.25 4.7125
0.6875 0.25 4.7125
0.75 0.25 4.7125
0.8125 0.25 4.7125
0.875 0.25 4.7125
0.9375 0.25 4.7125
1 0.25 4.7125
1.0625 0.25 4.7125
1.125 0.25 4.7125
1.1875 0.25 4.7125
1.25 0.25 4.7125
1.3125 0.25 4.7125
1.375 0.25 4.7125
1.4375 0.25 4.7125
1.5 0.25 4.7125
1.5625 0.25 4.7125
1.625 0.25 4.7125
1.6875 0.25 4.7125
1.75 0.25 4.7125
1.8125 0.25 4.7125
1.875 0.25 4.7125
1.9375 0.25 4.7125
2 0.25 4.7125
2.0625 0.25 4.7125
2.125 0.25 4.7125
2.1875 0.25 4.7125
2.25 0.25 4.7125
2.3125 0.25 4.7125
2.375 0.25 4.7125
2.4375 0.25 4.7125
2.5 0.25 4.7125
2.5625 0.25 4.7125
2.625 0.25 4.7125
2.6875 0.25 4.7125
2.75 0.25 4.7125
2.8125 0.25 4.7125
2.875 0.25 4.7125
2.9375 0.25 4.7125
3 0.25 4.7125
3.0625 0.25 4.7125
3.125 0.25 4.7125
3.1875 0.25 4.7125
3.25 0.25 4.7125
3.3125 0.25 4.7125
3.375 0.25 4.7125
3.4375 0.25 4.7125
3.5 0.25 4.7125
3.5625 0.25 4.7125
3.625 0.25 4.7125
3.6875 0.25 4.7125
3.75 0.25 4.7125
3.8125 0.25 4.7125
3.875 0.25 4.7125
3.9375 0.25 4.7125
4 0.25 4.7125
0 0.3125 4.7125
0.0625 0.3125 4.7125
0.125 0.3125 4.7125
0.1875 0.3125 4.7125
0.25 0.3125 4.7125
0.3125 0.3125 4.7125
0.375 0.3125 4.7125
0.4375 0.3125 4.7125
0.5 0.3125 4.7125
0.5625 0.3125 4.7125
0.625 0.3125 4.7125
0.6875 0.3125 4.7125
0.75 0.3125 4.7125
0.8125 0.3125 4.7125
0.875 0.3125 4.7125
0.9375 0.3125 4.7125
1 0.3125 4.7125
1.0625 0.3125 4.7125
1.125 0.3125 4.7125
1.1875 0.3125 4.7125
1.25 0.3125 4.7125
1.3125 0.3125 4.7125
1.375 0.3125 4.7125
1.4375 0.3125 4.7125
1.5 0.3125 4.7125
1.5625 0.3125 4.7125
1.625 0.3125 4.7125
1.6875 0.3125 4.7125
1.75 0.3125 4.7125
1.8125 0.3125 4.7125
1.875 0.3125 4.7125
1.9375 0.3125 4.7125
2 0.3125 4.7125
2.0625 0.3125 4.7125
2.125 0.3125 4.7125
2.1875 0.3125 4.7125
2.25 0.3125 4.7125
2.3125 0.3125 4.7125
2.375 0.3125 4.7125
2.4375 0.3125 4.7125
2.5 0.3125 4.7125
2.5625 0.3125 4.7125
2.625 0.3125 4.7125
2.6875 0.3125 4.7125
2.75 0.3125 4.7125
2.8125 0.3125 4.7125
2.875 0.3125 4.7125
2.9375 0.3125 4.7125
3 0.3125 4.7125
3.0625 0.3125 4.7125
3.125 0.3125 4.7125
3.1875 0.3125 4.7125
3.25 0.3125 4.7125
3.3125 0.3125 4.7125
3.375 0.3125 4.7125
3.4375 0.3125 4.7125
3.5 0.3125 4.7125
3.5625 0.3125 4.7125
3.625 0.3125 4.7125
3.6875 0.3125 4.7125
3.75 0.3125 4.7125
3.8125 0.3125 4.7125
3.875 0.3125 4.7125
3.9375 0.3125 4.7125
4 0.3125 4.7125
0 0.375 4.7125
0.0625 0.375 4.7125
0.125 0.375 4.7125
0.1875 0.375 4.7125
0.25 0.375 4.7125
0.3125 0.375 4.7125
0.375 0.375 4.7125
0.4375 0.375 4.7125
0.5 0.375 4.7125
0.5625 0.375 4.7125
0.625 0.375 4.7125
0.6875 0.375 4.7125
0.75 0.375 4.7125
0.8125 0.375 4.7125
0.875 0.375 4.7125
0.9375 0.375 4.7125
1 0.375 4.7125
1.0625 0.375 4.7125
1.125 0.375 4.7125
1.1875 0.375 4.7125
1.25 0.375 4.7125
1.3125 0.375 4.7125
1.375 0.375 4.7125
1.4375 0.375 4.7125
1.5 0.375 4.7125
1.5625 0.375 4.7125
1.625 0.375 4.7125
1.6875 0.375 4.7125
1.75 0.375 4.7125
1.8125 0.375 4.7125
1.875 0.375 4.7125
1.9375 0.375 4.7125
2 0.375 4.7125
2.0625 0.375 4.7125
2.125 0.375 4.7125
2.1875 0.375 4.7125
2.25 0.375 4.7125
2.3125 0.375 4.7125
2.375 0.375 4.7125
2.4375 0.375 4.7125
2.5 0.375 4.7125
2.5625 0.375 4.7125
2.625 0.375 4.7125
2.6875 0.375 4.7125
2.75 0.375 4.7125
2.8125 0.375 4.7125
2.875 0.375 4.7125
2.9375 0.375 4.7125
3 0.375 4.7125
3.0625 0.375 4.7125
3.125 0.375 4.7125
3.1875 0.375 4.7125
3.25 0.375 4.7125
3.3125 0.375 4.7125
3.375 0.375 4.7125
3.4375 0.375 4.7125
3.5 0.375 4.7125
3.5625 0.375 4.7125
3.625 0.375 4.7125
3.6875 0.375 4.7125
3.75 0.375 4.7125
3.8125 0.375 4.7125
3.875 0.375 4.7125
3.9375 0.375 4.7125
4 0.375 4.7125
0 0.4375 4.7125
0.0625 0.4375 4.7125
0.125 0.4375 4.7125
0.1875 0.4375 4.7125
0.25 0.4375 4.7125
0.3125 0.4375 4.7125
0.375 0.4375 4.7125
0.4375 0.4375 4.7125
0.5 0.4375 4.7125
0.5625 0.4375 4.7125
0.625 0.4375 4.7125
0.6875 0.4375 4.7125
0.75 0.4375 4.7125
0.8125 0.4375 4.7125
0.875 0.4375 4.7125
0.9375 0.4375 4.7125
1 0.4375 4.7125
1.0625 0.4375 4.7125
1.125 0.4375 4.7125
1.1875 0.4375 4.7125
1.25 0.4375 4.7125
1.3125 0.4375 4.7125
1.375 0.4375 4.7125
1.4375 0.4375 4.7125
1.5 0.4375 4.7125
1.5625 0.4375 4.7125
1.625 0.4375 4.7125
1.6875 0.4375 4.7125
1.75 0.4375 4.7125
1.8125 0.4375 4.7125
1.875 0.4375 4.7125
1.9375 0.4375 4.7125
2 0.4375 4.7125
2.0625 0.4375 4.7125
2.125 0.4375 4.7125
2.1875 0.4375 4.7125
2.25 0.4375 4.7125
2.3125 0.4375 4.7125
2.375 0.4375 4.7125
2.4375 0.4375 4.7125
2.5 0.4375 4.7125
2.5625 0.4375 4.7125
2.625 0.4375 4.7125
2.6875 0.4375 4.7125
2.75 0.4375 4.7125
2.8125 0.4375 4.7125
2.875 0.4375 4.7125
2.9375 0.4375 4.7125
3 0.4375 4.7125
3.0625 0.4375 4.7125
3.125 0.4375 4.7125
3.1875 0.4375 4.7125
3.25 0.4375 4.7125
3.3125 0.4375 4.7125
3.375 0.4375 4.7125
3.4375 0.4375 4.7125
3.5 0.4375 4.7125
3.5625 0.4375 4.7125
3.625 0.4375 4.7125
3.6875 0.4375 4.7125
3.75 0.4375 4.7125
3.8125 0.4375 4.7125
3.875 0.4375 4.7125
3.9375 0.4375 4.7125
4 0.4375 4.7125
0 0.5 4.7125
0.0625 0.5 4.7125
0.125 0.5 4.7125
0.1875 0.5 4.7125
0.25 0.5 4.7125
0.3125 0.5 4.7125
0.375 0.5 4.7125
0.4375 0.5 4.7125
0.5 0.5 4.7125
0.5625 0.5 4.7125
0.625 0.5 4.7125
0.6875 0.5 4.7125
0.75 0.5 4.7125
0.8125 0.5 4.7125
0.875 0.5 4.7125
0.9375 0.5 4.7125
1 0.5 4.7125
1.0625 0.5 4.7125
1.125 0.5 4.7125
1.1875 0.5 4.7125
1.25 0.5 4.7125
1.3125 0.5 4.7125
1.375 0.5 4.7125
1.4375 0.5 4.7125
1.5 0.5 4.7125
1.5625 0.5 4.7125
1.625 0.5 4.7125
1.6875 0.5 4.7125
1.75 0.5 4.7125
1.8125 0.5 4.7125
1.875 0.5 4.7125
1.9375 0.5 4.7125
2 0.5 4.7125
2.0625 0.5 4.7125
2.125 0.5 4.7125
2.1875 0.5 4.7125
2.25 0.5 4.7125
2.3125 0.5 4.7125
2.375 0.5 4.7125
2.4375 0.5 4.7125
2.5 0.5 4.7125
2.5625 0.5 4.7125
2.625 0.5 4.7125
2.6875 0.5 4.7125
2.75 0.5 4.7125
2.8125 0.5 4.7125
2.875 0.5 4.7125
2.9375 0.5 4.7125
3 0.5 4.7125
3.0625 0.5 4.7125
3.125 0.5 4.7125
3.1875 0.5 4.7125
3.25 0.5 4.7125
3.3125 0.5 4.7125
3.375 0.5 4.7125
3.4375 0.5 4.7125
3.5 0.5 4.7125
3.5625 0.5 4.7125
3.625 0.5 4.7125
3.6875 0.5 4.7125
3.75 0.5 4.7125
3.8125 0.5 4.7125
3.875 0.5 4.7125
3.9375 0.5 4.7125
4 0.5 4.7125
0 0.5625 4.7125
0.0625 0.5625 4.7125
0.125 0.5625 4.7125
0.1875 0.5625 4.7125
0.25 0.5625 4.7125
0.3125 0.5625 4.7125
0.375 0.5625 4.7125
0.4375 0.5625 4.7125
0.5 0.5625 4.7125
0.5625 0.5625 4.7125
0.625 0.5625 4.7125
0.6875 0.5625 4.7125
0.75 0.5625 4.7125
0.8125 0.5625 4.7125
0.875 0.5625 4.7125
0.9375 0.5625 4.7125
1 0.5625 4.7125
1.0625 0.5625 4.7125
1.125 0.5625 4.7125
1.1875 0.5625 4.7125
1.25 0.5625 4.7125
1.3125 0.5625 4.7125
1.375 0.5625 4.7125
1.4375 0.5625 4.7125
1.5 0.5625 4.7125
1.5625 0.5625 4.7125
1.625 0.5625 4.7125
1.6875 0.5625 4.7125
1.75 0.5625 4.7125
1.8125 0.5625 4.7125
1.875 0.5625 4.7125
1.9375 0.5625 4.7125
2 0.5625 4.7125
2.0625 0.5625 4.7125
2.125 0.5625 4.7125
2.1875 0.5625 4.7125
2.25 0.5625 4.7125
2.3125 0.5625 4.7125
2.375 0.5625 4.7125
2.4375 0.5625 4.7125
2.5 0.5625 4.7125
2.5625 0.5625 4.7125
2.625 0.5625 4.7125
2.6875 0.5625 4.7125
2.75 0.5625 4.7125
2.8125 0.5625 4.7125
2.875 0.5625 4.7125
2.9375 0.5625 4.7125
3 0.5625 4.7125
3.0625 0.5625 4.7125
3.125 0.5625 4.7125
3.1875 0.5625 4.7125
3.25 0.5625 4.7125
3.3125 0.5625 4.7125
3.375 0.5625 4.7125
3.4375 0.5625 4.7125
3.5 0.5625 4.7125
3.5625 0.5625 4.7125
3.625 0.5625 4.7125
3.6875 0.5625 4.7125
3.75 0.5625 4.7125
3.8125 0.5625 4.7125
3.875 0.5625 4.7125
3.9375 0.5625 4.7125
4 0.5625 4.7125
0 0.625 4.7125
0.0625 0.625 4.7125
0.125 0.625 4.7125
0.1875 0.625 4.7125
0.25 0.625 4.7125
0.3125 0.625 4.7125
0.375 0.625 4.7125
0.4375 0.625 4.7125
0.5 0.625 4.7125
0.5625 0.625 4.7125
0.625 0.625 4.7125
0.6875 0.625 4.7125
0.75 0.625 4.7125
0.8125 0.625 4.7125
0.875 0.625 4.7125
0.9375 0.625 4.7125
1 0.625 4.7125
1.0625 0.625 4.7125
1.125 0.625 4.7125
1.1875 0.625 4.7125
1.25 0.625 4.7125
1.3125 0.625 4.7125
1.375 0.625 4.7125
1.4375 0.625 4.7125
1.5 0.625 4.7125
1.5625 0.625 4.7125
1.625 0.625 4.7125
1.6875 0.625 4.7125
1.75 0.625 4.7125
1.8125 0.625 4.7125
1.875 0.625 4.7125
1.9375 0.625 4.7125
2 0.625 4.7125
2.0625 0.625 4.7125
2.125 0.625 4.7125
2.1875 0.625 4.7125
2.25 0.625 4.7125
2.3125 0.625 4.7125
2.375 0.625 4.7125
2.4375 0.625 4.7125
2.5 0.625 4.7125
2.5625 0.625 4.7125
2.625 0.625 4.7125
2.6875 0.625 4.7125
2.75 0.625 4.7125
2.8125 0.625 4.7125
2.875 0.625 4.7125
2.9375 0.625 4.7125
3 0.625 4.7125
3.0625 0.625 4.7125
3.125 0.625 4.7125
3.1875 0.625 4.7125
3.25 0.625 4.7125
3.3125 0.625 4.7125
3.375 0.625 4.7125
3.4375 0.625 4.7125
3.5 0.625 4.7125
3.5625 0.625 4.7125
3.625 0.625 4.7125
3.6875 0.625 4.7125
3.75 0.625 4.7125
3.8125 0.625 4.7125
3.875 0.625 4.7125
3.9375 0.625 4.7125
4 0.625 4.7125
0 0.6875 4.7125
0.0625 0.6875 4.7125
0.125 0.6875 4.7125
0.1875 0.6875 4.7125
0.25 0.6875 4.7125
0.3125 0.6875 4.7125
0.375 0.6875 4.7125
0.4375 0.6875 4.7125
0.5 0.6875 4.7125
0.5625 0.6875 4.7125
0.625 0.6875 4.7125
0.6875 0.6875 4.7125
0.75 0.6875 4.7125
0.8125 0.6875 4.7125
0.875 0.6875 4.7125
0.9375 0.6875 4.7125
1 0.6875 4.7125
1.0625 0.6875 4.7125
1.125 0.6875 4.7125
1.1875 0.6875 4.7125
1.25 0.6875 4.7125
1.3125 0.6875 4.7125
1.375 0.6875 4.7125
1.4375 0.6875 4.7125
1.5 0.6875 4.7125
1.5625 0.6875 4.7125
1.625 0.6875 4.7125
1.6875 0.6875 4.7125
1.75 0.6875 4.7125
1.8125 0.6875 4.7125
1.875 0.6875 4.7125
1.9375 0.6875 4.7125
2 0.6875 4.7125
2.0625 0.6875 4.7125
2.125 0.6875 4.7125
2.1875 0.6875 4.7125
2.25 0.6875 4.7125
2.3125 0.6875 4.7125
2.375 0.6875 4.7125
2.4375 0.6875 4.7125
2.5 0.6875 4.7125
2.5625 0.6875 4.7125
2.625 0.6875 4.7125
2.6875 0.6875 4.7125
2.75 0.6875 4.7125
2.8125 0.6875 4.7125
2.875 0.6875 4.7125
2.9375 0.6875 4.7125
3 0.6875 4.7125
3.0625 0.6875 4.7125
3.125 0.6875 4.7125
3.1875 0.6875 4.7125
3.25 0.6875 4.7125
3.3125 0.6875 4.7125
3.375 0.6875 4.7125
3.4375 0.6875 4.7125
3.5 0.6875 4.7125
3.5625 0.6875 4.7125
3.625 0.6875 4.7125
3.6875 0.6875 4.7125
3.75 0.6875 4.7125
3.8125 0.6875 4.7125
3.875 0.6875 4.7125
3.9375 0.6875 4.7125
4 0.6875 4.7125
0 0.75 4.7125
0.0625 0.75 4.7125
0.125 0.75 4.7125
0.1875 0.75 4.7125
0.25 0.75 4.7125
0.3125 0.75 4.7125
0.375 0.75 4.7125
0.4375 0.75 4.7125
0.5 0.75 4.7125
0.5625 0.75 4.7125
0.625 0.75 4.7125
0.6875 0.75 4.7125
0.75 0.75 4.7125
0.8125 0.75 4.7125
0.875 0.75 4.7125
0.9375 0.75 4.7125
1 0.75 4.7125
1.0625 0.75 4.7125
1.125 0.75 4.7125
1.1875 0.75 4.7125
1.25 0.75 4.7125
1.3125 0.75 4.7125
1.375 0.75 4.7125
1.4375 0.75 4.7125
1.5 0.75 4.7125
1.5625 0.75 4.7125
1.625 0.75 4.7125
1.6875 0.75 4.7125
1.75 0.75 4.7125
1.8125 0.75 4.7125
1.875 0.75 4.7125
1.9375 0.75 4.7125
2 0.75 4.7125
2.0625 0.75 4.7125
2.125 0.75 4.7125
2.1875 0.75 4.7125
2.25 0.75 4.7125
2.3125 0.75 4.7125
2.375 0.75 4.7125
2.4375 0.75 4.7125
2.5 0.75 4.7125
2.5625 0.75 4.7125
2.625 0.75 4.7125
2.6875 0.75 4.7125
2.75 0.75 4.7125
2.8125 0.75 4.7125
2.875 0.75 4.7125
2.9375 0.75 4.7125
3 0.75 4.7125
3.0625 0.75 4.7125
3.125 0.75 4.7125
3.1875 0.75 4.7125
3.25 0.75 4.7125
3.3125 0.75 4.7125
3.375 0.75 4.7125
3.4375 0.75 4.7125
3.5 0.75 4.7125
3.5625 0.75 4.7125
3.625 0.75 4.7125
3.6875 0.75 4.7125
3.75 0.75 4.7125
3.8125 0.75 4.7125
3.875 0.75 4.7125
3.9375 0.75 4.7125
4 0.75 4.7125
0 0.8125 4.7125
0.0625 0.8125 4.7125
0.125 0.8125 4.7125
0.1875 0.8125 4.7125
0.25 0.8125 4.7125
0.3125 0.8125 4.7125
0.375 0.8125 4.7125
0.4375 0.8125 4.7125
0.5 0.8125 4.7125
0.5625 0.8125 4.7125
0.625 0.8125 4.7125
0.6875 0.8125 4.7125
0.75 0.8125 4.7125
0.8125 0.8125 4.7125
0.875 0.8125 4.7125
0.9375 0.8125 4.7125
1 0.8125 4.7125
1.0625 0.8125 4.7125
1.125 0.8125 4.7125
1.1875 0.8125 4.7125
1.25 0.8125 4.7125
1.3125 0.8125 4.7125
1.375 0.8125 4.7125
1.4375 0.8125 4.7125
1.5 0.8125 4.7125
1.5625 0.8125 4.7125
1.625 0.8125 4.7125
1.6875 0.8125 4.7125
1.75 0.8125 4.7125
1.8125 0.8125 4.7125
1.875 0.8125 4.7125
1.9375 0.8125 4.7125
2 0.8125 4.7125
2.0625 0.8125 4.7125
2.125 0.8125 4.7125
2.1875 0.8125 4.7125
2.25 0.8125 4.7125
2.3125 0.8125 4.7125
2.375 0.8125 4.7125
2.4375 0.8125 4.7125
2.5 0.8125 4.7125
2.5625 0.8125 4.7125
2.625 0.8125 4.7125
2.6875 0.8125 4.7125
2.75 0.8125 4.7125
2.8125 0.8125 4.7125
2.875 0.8125 4.7125
2.9375 0.8125 4.7125
3 0.8125 4.7125
3.0625 0.8125 4.7125
3.125 0.8125 4.7125
3.1875 0.8125 4.7125
3.25 0.8125 4.7125
3.3125 0.8125 4.7125
3.375 0.8125 4.7125
3.4375 0.8125 4.7125
3.5 0.8125 4.7125
3.5625 0.8125 4.7125
3.625 0.8125 4.7125
3.6875 0.8125 4.7125
3.75 0.8125 4.7125
3.8125 0.8125 4.7125
3.875 0.8125 4.7125
3.9375 0.8125 4.7125
4 0.8125 4.7125
0 0.875 4.7125
0.0625 0.875 4.7125
0.125 0.875 4.7125
0.1875 0.875 4.7125
0.25 0.875 4.7125
0.3125 0.875 4.7125
0.375 0.875 4.7125
0.4375 0.875 4.7125
0.5 0.875 4.7125
0.5625 0.875 4.7125
0.625 0.875 4.7125
0.6875 0.875 4.7125
0.75 0.875 4.7125
0.8125 0.875 4.7125
0.875 0.875 4.7125
0.9375 0.875 4.7125
1 0.875 4.7125
1.0625 0.875 4.7125
1.125 0.875 4.7125
1.1875 0.875 4.7125
1.25 0.875 4.7125
1.3125 0.875 4.7125
1.375 0.875 4.7125
1.4375 0.875 4.7125
1.5 0.875 4.7125
1.5625 0.875 4.7125
1.625 0.875 4.7125
1.6875 0.875 4.7125
1.75 0.875 4.7125
1.8125 0.875 4.7125
1.875 0.875 4.7125
1.9375 0.875 4.7125
2 0.875 4.7125
2.0625 0.875 4.7125
2.125 0.875 4.7125
2.1875 0.875 4.7125
2.25 0.875 4.7125
2.3125 0.875 4.7125
2.375 0.875 4.7125
2.4375 0.875 4.7125
2.5 0.875 4.7125
2.5625 0.875 4.7125
2.625 0.875 4.7125
2.6875 0.875 4.7125
2.75 0.875 4.7125
2.8125 0.875 4.7125
2.875 0.875 4.7125
2.9375 0.875 4.7125
3 0.875 4.7125
3.0625 0.875 4.7125
3.125 0.875 4.7125
3.1875 0.875 4.7125
3.25 0.875 4.7125
3.3125 0.875 4.7125
3.375 0.875 4.7125
3.4375 0.875 4.7125
3.5 0.875 4.7125
3.5625 0.875 4.7125
3.625 0.875 4.7125
3.6875 0.875 4.7125
3.75 0.875 4.7125
3.8125 0.875 4.7125
3.875 0.875 4.7125
3.9375 0.875 4.7125
4 0.875 4.7125
0 0.9375 4.7125
0.0625 0.9375 4.7125
0.125 0.9375 4.7125
0.1875 0.9375 4.7125
0.25 0.9375 4.7125
0.3125 0.9375 4.7125
0.375 0.9375 4.7125
0.4375 0.9375 4.7125
0.5 0.9375 4.7125
0.5625 0.9375 4.7125
0.625 0.9375 4.7125
0.6875 0.9375 4.7125
0.75 0.9375 4.7125
0.8125 0.9375 4.7125
0.875 0.9375 4.7125
0.9375 0.9375 4.7125
1 0.9375 4.7125
1.0625 0.9375 4.7125
1.125 0.9375 4.7125
1.1875 0.9375 4.7125
1.25 0.9375 4.7125
1.3125 0.9375 4.7125
1.375 0.9375 4.7125
1.4375 0.9375 4.7125
1.5 0.9375 4.7125
1.5625 0.9375 4.7125
1.625 0.9375 4.7125
1.6875 0.9375 4.7125
1.75 0.9375 4.7125
1.8125 0.9375 4.7125
1.875 0.9375 4.7125
1.9375 0.9375 4.7125
2 0.9375 4.7125
2.0625 0.9375 4.7125
2.125 0.9375 4.7125
2.1875 0.9375 4.7125
2.25 0.9375 4.7125
2.3125 0.9375 4.7125
2.375 0.9375 4.7125
2.4375 0.9375 4.7125
2.5 0.9375 4.7125
2.5625 0.9375 4.7125
2.625 0.9375 4.7125
2.6875 0.9375 4.7125
2.75 0.9375 4.7125
2.8125 0.9375 4.7125
2.875 0.9375 4.7125
2.9375 0.9375 4.7125
3 0.9375 4.7125
3.0625 0.9375 4.7125
3.125 0.9375 4.7125
3.1875 0.9375 4.7125
3.25 0.9375 4.7125
3.3125 0.9375 4.7125
3.375 0.9375 4.7125
3.4375 0.9375 4.7125
3.5 0.9375 4.7125
3.5625 0.9375 4.7125
3.625 0.9375 4.7125
3.6875 0.9375 4.7125
3.75 0.9375 4.7125
3.8125 0.9375 4.7125
3.875 0.9375 4.7125
3.9375 0.9375 4.7125
4 0.9375 4.7125
0 1 4.7125
0.0625 1 4.7125
0.125 1 4.7125
0.1875 1 4.7125
0.25 1 4.7125
0.3125 1 4.7125
0.375 1 4.7125
0.4375 1 4.7125
0.5 1 4.7125
0.5625 1 4.7125
0.625 1 4.7125
0.6875 1 4.7125
0.75 1 4.7125
0.8125 1 4.7125
0.875 1 4.7125
0.9375 1 4.7125
1 1 4.7125
1.0625 1 4.7125
1.125 1 4.7125
1.1875 1 4.7125
1.25 1 4.7125
1.3125 1 4.7125
1.375 1 4.7125
1.4375 1 4.7125
1.5 1 4.7125
1.5625 1 4.7125
1.625 1 4.7125
1.6875 1 4.7125
1.75 1 4.7125
1.8125 1 4.7125
1.875 1 4.7125
1.9375 1 4.7125
2 1 4.7125
2.0625 1 4.7125
2.125 1 4.7125
2.1875 1 4.7125
2.25 1 4.7125
2.3125 1 4.7125
2.375 1 4.7125
2.4375 1 4.7125
2.5 1 4.7125
2.5625 1 4.7125
2.625 1 4.7125
2.6875 1 4.7125
2.75 1 4.7125
2.8125 1 4.7125
2.875 1 4.7125
2.9375 1 4.7125
3 1 4.7125
3.0625 1 4.7125
3.125 1 4.7125
3.1875 1 4.7125
3.25 1 4.7125
3.3125 1 4.7125
3.375 1 4.7125
3.4375 1 4.7125
3.5 1 4.7125
3.5625 1 4.7125
3.625 1 4.7125
3.6875 1 4.7125
3.75 1 4.7125
3.8125 1 4.7125
3.875 1 4.7125
3.9375 1 4.7125
4 1 4.7125
0 0 4.775
0.0625 0 4.775
0.125 0 4.775
0.1875 0 4.775
0.25 0 4.775
0.3125 0 4.775
0.375 0 4.775
0.4375 0 4.775
0.5 0 4.775
0.5625 0 4.775
0.625 0 4.775
0.6875 0 4.775
0.75 0 4.775
0.8125 0 4.775
0.875 0 4.775
0.9375 0 4.775
1 0 4.775
1.0625 0 4.775
1.125 0 4.775
1.1875 0 4.775
1.25 0 4.775
1.3125 0 4.775
1.375 0 4.775
1.4375 0 4.775
1.5 0 4.775
1.5625 0 4.775
1.625 0 4.775
1.6875 0 4.775
1.75 0 4.775
1.8125 0 4.775
1.875 0 4.775
1.9375 0 4.775
2 0 4.775
2.0625 0 4.775
2.125 0 4.775
2.1875 0 4.775
2.25 0 4.775
2.3125 0 4.775
2.375 0 4.775
2.4375 0 4.775
2.5 0 4.775
2.5625 0 4.775
2.625 0 4.775
2.6875 0 4.775
2.75 0 4.775
2.8125 0 4.775
2.875 0 4.775
2.9375 0 4.775
3 0 4.775
3.0625 0 4.775
3.125 0 4.775
3.1875 0 4.775
3.25 0 4.775
3.3125 0 4.775
3.375 0 4.775
3.4375 0 4.775
3.5 0 4.775
3.5625 0 4.775
3.625 0 4.775
3.6875 0 4.775
3.75 0 4.775
3.8125 0 4.775
3.875 0 4.775
3.9375 0 4.775
4 0 4.775
0 0.0625 4.775
0.0625 0.0625 4.775
0.125 0.0625 4.775
0.1875 0.0625 4.775
0.25 0.0625 4.775
0.3125 0.0625 4.775
0.375 0.0625 4.775
0.4375 0.0625 4.775
0.5 0.0625 4.775
0.5625 0.0625 4.775
0.625 0.0625 4.775
0.6875 0.0625 4.775
0.75 0.0625 4.775
0.8125 0.0625 4.775
0.875 0.0625 4.775
0.9375 0.0625 4.775
1 0.0625 4.775
1.0625 0.0625 4.775
1.125 0.0625 4.775
1.1875 0.0625 4.775
1.25 0.0625 4.775
1.3125 0.0625 4.775
1.375 0.0625 4.775
1.4375 0.0625 4.775
1.5 0.0625 4.775
1.5625 0.0625 4.775
1.625 0.0625 4.775
1.6875 0.0625 4.775
1.75 0.0625 4.775
1.8125 0.0625 4.775
1.875 0.0625 4.775
1.9375 0.0625 4.775
2 0.0625 4.775
2.0625 0.0625 4.775
2.125 0.0625 4.775
2.1875 0.0625 4.775
2.25 0.0625 4.775
2.3125 0.0625 4.775
2.375 0.0625 4.775
2.4375 0.0625 4.775
2.5 0.0625 4.775
2.5625 0.0625 4.775
2.625 0.0625 4.775
2.6875 0.0625 4.775
2.75 0.0625 4.775
2.8125 0.0625 4.775
2.875 0.0625 4.775
2.9375 0.0625 4.775
3 0.0625 4.775
3.0625 0.0625 4.775
3.125 0.0625 4.775
3.1875 0.0625 4.775
3.25 0.0625 4.775
3.3125 0.0625 4.775
3.375 0.0625 4.775
3.4375 0.0625 4.775
3.5 0.0625 4.775
3.5625 0.0625 4.775
3.625 0.0625 4.775
3.6875 0.0625 4.775
3.75 0.0625 4.775
3.8125 0.0625 4.775
3.875 0.0625 4.775
3.9375 0.0625 4.775
4 0.0625 4.775
0 0.125 4.775
0.0625 0.125 4.775
0.125 0.125 4.775
0.1875 0.125 4.775
0.25 0.125 4.775
0.3125 0.125 4.775
0.375 0.125 4.775
0.4375 0.125 4.775
0.5 0.125 4.775
0.5625 0.125 4.775
0.625 0.125 4.775
0.6875 0.125 4.775
0.75 0.125 4.775
0.8125 0.125 4.775
0.875 0.125 4.775
0.9375 0.125 4.775
1 0.125 4.775
1.0625 0.125 4.775
1.125 0.125 4.775
1.1875 0.125 4.775
1.25 0.125 4.775
1.3125 0.125 4.775
1.375 0.125 4.775
1.4375 0.125 4.775
1.5 0.125 4.775
1.5625 0.125 4.775
1.625 0.125 4.775
1.6875 0.125 4.775
1.75 0.125 4.775
1.8125 0.125 4.775
1.875 0.125 4.775
1.9375 0.125 4.775
2 0.125 4.775
2.0625 0.125 4.775
2.125 0.125 4.775
2.1875 0.125 4.775
2.25 0.125 4.775
2.3125 0.125 4.775
2.375 0.125 4.775
2.4375 0.125 4.775
2.5 0.125 4.775
2.5625 0.125 4.775
2.625 0.125 4.775
2.6875 0.125 4.775
2.75 0.125 4.775
2.8125 0.125 4.775
2.875 0.125 4.775
2.9375 0.125 4.775
3 0.125 4.775
3.0625 0.125 4.775
3.125 0.125 4.775
3.1875 0.125 4.775
3.25 0.125 4.775
3.3125 0.125 4.775
3.375 0.125 4.775
3.4375 0.125 4.775
3.5 0.125 4.775
3.5625 0.125 4.775
3.625 0.125 4.775
3.6875 0.125 4.775
3.75 0.125 4.775
3.8125 0.125 4.775
3.875 0.125 4.775
3.9375 0.125 4.775
4 0.125 4.775
0 0.1875 4.775
0.0625 0.1875 4.775
0.125 0.1875 4.775
0.1875 0.1875 4.775
0.25 0.1875 4.775
0.3125 0.1875 4.775
0.375 0.1875 4.775
0.4375 0.1875 4.775
0.5 0.1875 4.775
0.5625 0.1875 4.775
0.625 0.1875 4.775
0.6875 0.1875 4.775
0.75 0.1875 4.775
0.8125 0.1875 4.775
0.875 0.1875 4.775
0.9375 0.1875 4.775
1 0.1875 4.775
1.0625 0.1875 4.775
1.125 0.1875 4.775
1.1875 0.1875 4.775
1.25 0.1875 4.775
1.3125 0.1875 4.775
1.375 0.1875 4.775
1.4375 0.1875 4.775
1.5 0.1875 4.775
1.5625 0.1875 4.775
1.625 0.1875 4.775
1.6875 0.1875 4.775
1.75 0.1875 4.775
1.8125 0.1875 4.775
1.875 0.1875 4.775
1.9375 0.1875 4.775
2 0.1875 4.775
2.0625 0.1875 4.775
2.125 0.1875 4.775
2.1875 0.1875 4.775
2.25 0.1875 4.775
2.3125 0.1875 4.775
2.375 0.1875 4.775
2.4375 0.1875 4.775
2.5 0.1875 4.775
2.5625 0.1875 4.775
2.625 0.1875 4.775
2.6875 0.1875 4.775
2.75 0.1875 4.775
2.8125 0.1875 4.775
2.875 0.1875 4.775
2.9375 0.1875 4.775
3 0.1875 4.775
3.0625 0.1875 4.775
3.125 0.1875 4.775
3.1875 0.1875 4.775
3.25 0.1875 4.775
3.3125 0.1875 4.775
3.375 0.1875 4.775
3.4375 0.1875 4.775
3.5 0.1875 4.775
3.5625 0.1875 4.775
3.625 0.1875 4.775
3.6875 0.1875 4.775
3.75 0.1875 4.775
3.8125 0.1875 4.775
3.875 0.1875 4.775
3.9375 0.1875 4.775
4 0.1875 4.775
0 0.25 4.775
0.0625 0.25 4.775
0.125 0.25 4.775
0.1875 0.25 4.775
0.25 0.25 4.775
0.3125 0.25 4.775
0.375 0.25 4.775
0.4375 0.25 4.775
0.5 0.25 4.775
0.5625 0.25 4.775
0.625 0.25 4.775
0.6875 0.25 4.775
0.75 0.25 4.775
0.8125 0.25 4.775
0.875 0.25 4.775
0.9375 0.25 4.775
1 0.25 4.775
1.0625 0.25 4.775
1.125 0.25 4.775
1.1875 0.25 4.775
1.25 0.25 4.775
1.3125 0.25 4.775
1.375 0.25 4.775
1.4375 0.25 4.775
1.5 0.25 4.775
1.5625 0.25 4.775
1.625 0.25 4.775
1.6875 0.25 4.775
1.75 0.25 4.775
1.8125 0.25 4.775
1.875 0.25 4.775
1.9375 0.25 4.775
2 0.25 4.775
2.0625 0.25 4.775
2.125 0.25 4.775
2.1875 0.25 4.775
2.25 0.25 4.775
2.3125 0.25 4.775
2.375 0.25 4.775
2.4375 0.25 4.775
2.5 0.25 4.775
2.5625 0.25 4.775
2.625 0.25 4.775
2.6875 0.25 4.775
2.75 0.25 4.775
2.8125 0.25 4.775
2.875 0.25 4.775
2.9375 0.25 4.775
3 0.25 4.775
3.0625 0.25 4.775
3.125 0.25 4.775
3.1875 0.25 4.775
3.25 0.25 4.775
3.3125 0.25 4.775
3.375 0.25 4.775
3.4375 0.25 4.775
3.5 0.25 4.775
3.5625 0.25 4.775
3.625 0.25 4.775
3.6875 0.25 4.775
3.75 0.25 4.775
3.8125 0.25 4.775
3.875 0.25 4.775
3.9375 0.25 4.775
4 0.25 4.775
0 0.3125 4.775
0.0625 0.3125 4.775
0.125 0.3125 4.775
0.1875 0.3125 4.775
0.25 0.3125 4.775
0.3125 0.3125 4.775
0.375 0.3125 4.775
0.4375 0.3125 4.775
0.5 0.3125 4.775
0.5625 0.3125 4.775
0.625 0.3125 4.775
0.6875 0.3125 4.775
0.75 0.3125 4.775
0.8125 0.3125 4.775
0.875 0.3125 4.775
0.9375 0.3125 4.775
1 0.3125 4.775
1.0625 0.3125 4.775
1.125 0.3125 4.775
1.1875 0.3125 4.775
1.25 0.3125 4.775
1.3125 0.3125 4.775
1.375 0.3125 4.775
1.4375 0.3125 4.775
1.5 0.3125 4.775
1.5625 0.3125 4.775
1.625 0.3125 4.775
1.6875 0.3125 4.775
1.75 0.3125 4.775
1.8125 0.3125 4.775
1.875 0.3125 4.775
1.9375 0.3125 4.775
2 0.3125 4.775
2.0625 0.3125 4.775
2.125 0.3125 4.775
2.1875 0.3125 4.775
2.25 0.3125 4.775
2.3125 0.3125 4.775
2.375 0.3125 4.775
2.4375 0.3125 4.775
2.5 0.3125 4.775
2.5625 0.3125 4.775
2.625 0.3125 4.775
2.6875 0.3125 4.775
2.75 0.3125 4.775
2.8125 0.3125 4.775
2.875 0.3125 4.775
2.9375 0.3125 4.775
3 0.3125 4.775
3.0625 0.3125 4.775
3.125 0.3125 4.775
3.1875 0.3125 4.775
3.25 0.3125 4.775
3.3125 0.3125 4.775
3.375 0.3125 4.775
3.4375 0.3125 4.775
3.5 0.3125 4.775
3.5625 0.3125 4.775
3.625 0.3125 4.775
3.6875 0.3125 4.775
3.75 0.3125 4.775
3.8125 0.3125 4.775
3.875 0.3125 4.775
3.9375 0.3125 4.775
4 0.3125 4.775
0 0.375 4.775
0.0625 0.375 4.775
0.125 0.375 4.775
0.1875 0.375 4.775
0.25 0.375 4.775
0.3125 0.375 4.775
0.375 0.375 4.775
0.4375 0.375 4.775
0.5 0.375 4.775
0.5625 0.375 4.775
0.625 0.375 4.775
0.6875 0.375 4.775
0.75 0.375 4.775
0.8125 0.375 4.775
0.875 0.375 4.775
0.9375 0.375 4.775
1 0.375 4.775
1.0625 0.375 4.775
1.125 0.375 4.775
1.1875 0.375 4.775
1.25 0.375 4.775
1.3125 0.375 4.775
1.375 0.375 4.775
1.4375 0.375 4.775
1.5 0.375 4.775
1.5625 0.375 4.775
1.625 0.375 4.775
1.6875 0.375 4.775
1.75 0.375 4.775
1.8125 0.375 4.775
1.875 0.375 4.775
1.9375 0.375 4.775
2 0.375 4.775
2.0625 0.375 4.775
2.125 0.375 4.775
2.1875 0.375 4.775
2.25 0.375 4.775
2.3125 0.375 4.775
2.375 0.375 4.775
2.4375 0.375 4.775
2.5 0.375 4.775
2.5625 0.375 4.775
2.625 0.375 4.775
2.6875 0.375 4.775
2.75 0.375 4.775
2.8125 0.375 4.775
2.875 0.375 4.775
2.9375 0.375 4.775
3 0.375 4.775
3.0625 0.375 4.775
3.125 0.375 4.775
3.1875 0.375 4.775
3.25 0.375 4.775
3.3125 0.375 4.775
3.375 0.375 4.775
3.4375 0.375 4.775
3.5 0.375 4.775
3.5625 0.375 4.775
3.625 0.375 4.775
3.6875 0.375 4.775
3.75 0.375 4.775
3.8125 0.375 4.775
3.875 0.375 4.775
3.9375 0.375 4.775
4 0.375 4.775
0 0.4375 4.775
0.0625 0.4375 4.775
0.125 0.4375 4.775
0.1875 0.4375 4.775
0.25 0.4375 4.775
0.3125 0.4375 4.775
0.375 0.4375 4.775
0.4375 0.4375 4.775
0.5 0.4375 4.775
0.5625 0.4375 4.775
0.625 0.4375 4.775
0.6875 0.4375 4.775
0.75 0.4375 4.775
0.8125 0.4375 4.775
0.875 0.4375 4.775
0.9375 0.4375 4.775
1 0.4375 4.775
1.0625 0.4375 4.775
1.125 0.4375 4.775
1.1875 0.4375 4.775
1.25 0.4375 4.775
1.3125 0.4375 4.775
1.375 0.4375 4.775
1.4375 0.4375 4.775
1.5 0.4375 4.775
1.5625 0.4375 4.775
1.625 0.4375 4.775
1.6875 0.4375 4.775
1.75 0.4375 4.775
1.8125 0.4375 4.775
1.875 0.4375 4.775
1.9375 0.4375 4.775
2 0.4375 4.775
2.0625 0.4375 4.775
2.125 0.4375 4.775
2.1875 0.4375 4.775
2.25 0.4375 4.775
2.3125 0.4375 4.775
2.375 0.4375 4.775
2.4375 0.4375 4.775
2.5 0.4375 4.775
2.5625 0.4375 4.775
2.625 0.4375 4.775
2.6875 0.4375 4.775
2.75 0.4375 4.775
2.8125 0.4375 4.775
2.875 0.4375 4.775
2.9375 0.4375 4.775
3 0.4375 4.775
3.0625 0.4375 4.775
3.125 0.4375 4.775
3.1875 0.4375 4.775
3.25 0.4375 4.775
3.3125 0.4375 4.775
3.375 0.4375 4.775
3.4375 0.4375 4.775
3.5 0.4375 4.775
3.5625 0.4375 4.775
3.625 0.4375 4.775
3.6875 0.4375 4.775
3.75 0.4375 4.775
3.8125 0.4375 4.775
3.875 0.4375 4.775
3.9375 0.4375 4.775
4 0.4375 4.775
0 0.5 4.775
0.0625 0.5 4.775
0.125 0.5 4.775
0.1875 0.5 4.775
0.25 0.5 4.775
0.3125 0.5 4.775
0.375 0.5 4.775
0.4375 0.5 4.775
0.5 0.5 4.775
0.5625 0.5 4.775
0.625 0.5 4.775
0.6875 0.5 4.775
0.75 0.5 4.775
0.8125 0.5 4.775
0.875 0.5 4.775
0.9375 0.5 4.775
1 0.5 4.775
1.0625 0.5 4.775
1.125 0.5 4.775
1.1875 0.5 4.775
1.25 0.5 4.775
1.3125 0.5 4.775
1.375 0.5 4.775
1.4375 0.5 4.775
1.5 0.5 4.775
1.5625 0.5 4.775
1.625 0.5 4.775
1.6875 0.5 4.775
1.75 0.5 4.775
1.8125 0.5 4.775
1.875 0.5 4.775
1.9375 0.5 4.775
2 0.5 4.775
2.0625 0.5 4.775
2.125 0.5 4.775
2.1875 0.5 4.775
2.25 0.5 4.775
2.3125 0.5 4.775
2.375 0.5 4.775
2.4375 0.5 4.775
2.5 0.5 4.775
2.5625 0.5 4.775
2.625 0.5 4.775
2.6875 0.5 4.775
2.75 0.5 4.775
2.8125 0.5 4.775
2.875 0.5 4.775
2.9375 0.5 4.775
3 0.5 4.775
3.0625 0.5 4.775
3.125 0.5 4.775
3.1875 0.5 4.775
3.25 0.5 4.775
3.3125 0.5 4.775
3.375 0.5 4.775
3.4375 0.5 4.775
3.5 0.5 4.775
3.5625 0.5 4.775
3.625 0.5 4.775
3.6875 0.5 4.775
3.75 0.5 4.775
3.8125 0.5 4.775
3.875 0.5 4.775
3.9375 0.5 4.775
4 0.5 4.775
0 0.5625 4.775
0.0625 0.5625 4.775
0.125 0.5625 4.775
0.1875 0.5625 4.775
0.25 0.5625 4.775
0.3125 0.5625 4.775
0.375 0.5625 4.775
0.4375 0.5625 4.775
0.5 0.5625 4.775
0.5625 0.5625 4.775
0.625 0.5625 4.775
0.6875 0.5625 4.775
0.75 0.5625 4.775
0.8125 0.5625 4.775
0.875 0.5625 4.775
0.9375 0.5625 4.775
1 0.5625 4.775
1.0625 0.5625 4.775
1.125 0.5625 4.775
1.1875 0.5625 4.775
1.25 0.5625 4.775
1.3125 0.5625 4.775
1.375 0.5625 4.775
1.4375 0.5625 4.775
1.5 0.5625 4.775
1.5625 0.5625 4.775
1.625 0.5625 4.775
1.6875 0.5625 4.775
1.75 0.5625 4.775
1.8125 0.5625 4.775
1.875 0.5625 4.775
1.9375 0.5625 4.775
2 0.5625 4.775
2.0625 0.5625 4.775
2.125 0.5625 4.775
2.1875 0.5625 4.775
2.25 0.5625 4.775
2.3125 0.5625 4.775
2.375 0.5625 4.775
2.4375 0.5625 4.775
2.5 0.5625 4.775
2.5625 0.5625 4.775
2.625 0.5625 4.775
2.6875 0.5625 4.775
2.75 0.5625 4.775
2.8125 0.5625 4.775
2.875 0.5625 4.775
2.9375 0.5625 4.775
3 0.5625 4.775
3.0625 0.5625 4.775
3.125 0.5625 4.775
3.1875 0.5625 4.775
3.25 0.5625 4.775
3.3125 0.5625 4.775
3.375 0.5625 4.775
3.4375 0.5625 4.775
3.5 0.5625 4.775
3.5625 0.5625 4.775
3.625 0.5625 4.775
3.6875 0.5625 4.775
3.75 0.5625 4.775
3.8125 0.5625 4.775
3.875 0.5625 4.775
3.9375 0.5625 4.775
4 0.5625 4.775
0 0.625 4.775
0.0625 0.625 4.775
0.125 0.625 4.775
0.1875 0.625 4.775
0.25 0.625 4.775
0.3125 0.625 4.775
0.375 0.625 4.775
0.4375 0.625 4.775
0.5 0.625 4.775
0.5625 0.625 4.775
0.625 0.625 4.775
0.6875 0.625 4.775
0.75 0.625 4.775
0.8125 0.625 4.775
0.875 0.625 4.775
0.9375 0.625 4.775
1 0.625 4.775
1.0625 0.625 4.775
1.125 0.625 4.775
1.1875 0.625 4.775
1.25 0.625 4.775
1.3125 0.625 4.775
1.375 0.625 4.775
1.4375 0.625 4.775
1.5 0.625 4.775
1.5625 0.625 4.775
1.625 0.625 4.775
1.6875 0.625 4.775
1.75 0.625 4.775
1.8125 0.625 4.775
1.875 0.625 4.775
1.9375 0.625 4.775
2 0.625 4.775
2.0625 0.625 4.775
2.125 0.625 4.775
2.1875 0.625 4.775
2.25 0.625 4.775
2.3125 0.625 4.775
2.375 0.625 4.775
2.4375 0.625 4.775
2.5 0.625 4.775
2.5625 0.625 4.775
2.625 0.625 4.775
2.6875 0.625 4.775
2.75 0.625 4.775
2.8125 0.625 4.775
2.875 0.625 4.775
2.9375 0.625 4.775
3 0.625 4.775
3.0625 0.625 4.775
3.125 0.625 4.775
3.1875 0.625 4.775
3.25 0.625 4.775
3.3125 0.625 4.775
3.375 0.625 4.775
3.4375 0.625 4.775
3.5 0.625 4.775
3.5625 0.625 4.775
3.625 0.625 4.775
3.6875 0.625 4.775
3.75 0.625 4.775
3.8125 0.625 4.775
3.875 0.625 4.775
3.9375 0.625 4.775
4 0.625 4.775
0 0.6875 4.775
0.0625 0.6875 4.775
0.125 0.6875 4.775
0.1875 0.6875 4.775
0.25 0.6875 4.775
0.3125 0.6875 4.775
0.375 0.6875 4.775
0.4375 0.6875 4.775
0.5 0.6875 4.775
0.5625 0.6875 4.775
0.625 0.6875 4.775
0.6875 0.6875 4.775
0.75 0.6875 4.775
0.8125 0.6875 4.775
0.875 0.6875 4.775
0.9375 0.6875 4.775
1 0.6875 4.775
1.0625 0.6875 4.775
1.125 0.6875 4.775
1.1875 0.6875 4.775
1.25 0.6875 4.775
1.3125 0.6875 4.775
1.375 0.6875 4.775
1.4375 0.6875 4.775
1.5 0.6875 4.775
1.5625 0.6875 4.775
1.625 0.6875 4.775
1.6875 0.6875 4.775
1.75 0.6875 4.775
1.8125 0.6875 4.775
1.875 0.6875 4.775
1.9375 0.6875 4.775
2 0.6875 4.775
2.0625 0.6875 4.775
2.125 0.6875 4.775
2.1875 0.6875 4.775
2.25 0.6875 4.775
2.3125 0.6875 4.775
2.375 0.6875 4.775
2.4375 0.6875 4.775
2.5 0.6875 4.775
2.5625 0.6875 4.775
2.625 0.6875 4.775
2.6875 0.6875 4.775
2.75 0.6875 4.775
2.8125 0.6875 4.775
2.875 0.6875 4.775
2.9375 0.6875 4.775
3 0.6875 4.775
3.0625 0.6875 4.775
3.125 0.6875 4.775
3.1875 0.6875 4.775
3.25 0.6875 4.775
3.3125 0.6875 4.775
3.375 0.6875 4.775
3.4375 0.6875 4.775
3.5 0.6875 4.775
3.5625 0.6875 4.775
3.625 0.6875 4.775
3.6875 0.6875 4.775
3.75 0.6875 4.775
3.8125 0.6875 4.775
3.875 0.6875 4.775
3.9375 0.6875 4.775
4 0.6875 4.775
0 0.75 4.775
0.0625 0.75 4.775
0.125 0.75 4.775
0.1875 0.75 4.775
0.25 0.75 4.775
0.3125 0.75 4.775
0.375 0.75 4.775
0.4375 0.75 4.775
0.5 0.75 4.775
0.5625 0.75 4.775
0.625 0.75 4.775
0.6875 0.75 4.775
0.75 0.75 4.775
0.8125 0.75 4.775
0.875 0.75 4.775
0.9375 0.75 4.775
1 0.75 4.775
1.0625 0.75 4.775
1.125 0.75 4.775
1.1875 0.75 4.775
1.25 0.75 4.775
1.3125 0.75 4.775
1.375 0.75 4.775
1.4375 0.75 4.775
1.5 0.75 4.775
1.5625 0.75 4.775
1.625 0.75 4.775
1.6875 0.75 4.775
1.75 0.75 4.775
1.8125 0.75 4.775
1.875 0.75 4.775
1.9375 0.75 4.775
2 0.75 4.775
2.0625 0.75 4.775
2.125 0.75 4.775
2.1875 0.75 4.775
2.25 0.75 4.775
2.3125 0.75 4.775
2.375 0.75 4.775
2.4375 0.75 4.775
2.5 0.75 4.775
2.5625 0.75 4.775
2.625 0.75 4.775
2.6875 0.75 4.775
2.75 0.75 4.775
2.8125 0.75 4.775
2.875 0.75 4.775
2.9375 0.75 4.775
3 0.75 4.775
3.0625 0.75 4.775
3.125 0.75 4.775
3.1875 0.75 4.775
3.25 0.75 4.775
3.3125 0.75 4.775
3.375 0.75 4.775
3.4375 0.75 4.775
3.5 0.75 4.775
3.5625 0.75 4.775
3.625 0.75 4.775
3.6875 0.75 4.775
3.75 0.75 4.775
3.8125 0.75 4.775
3.875 0.75 4.775
3.9375 0.75 4.775
4 0.75 4.775
0 0.8125 4.775
0.0625 0.8125 4.775
0.125 0.8125 4.775
0.1875 0.8125 4.775
0.25 0.8125 4.775
0.3125 0.8125 4.775
0.375 0.8125 4.775
0.4375 0.8125 4.775
0.5 0.8125 4.775
0.5625 0.8125 4.775
0.625 0.8125 4.775
0.6875 0.8125 4.775
0.75 0.8125 4.775
0.8125 0.8125 4.775
0.875 0.8125 4.775
0.9375 0.8125 4.775
1 0.8125 4.775
1.0625 0.8125 4.775
1.125 0.8125 4.775
1.1875 0.8125 4.775
1.25 0.8125 4.775
1.3125 0.8125 4.775
1.375 0.8125 4.775
1.4375 0.8125 4.775
1.5 0.8125 4.775
1.5625 0.8125 4.775
1.625 0.8125 4.775
1.6875 0.8125 4.775
1.75 0.8125 4.775
1.8125 0.8125 4.775
1.875 0.8125 4.775
1.9375 0.8125 4.775
2 0.8125 4.775
2.0625 0.8125 4.775
2.125 0.8125 4.775
2.1875 0.8125 4.775
2.25 0.8125 4.775
2.3125 0.8125 4.775
2.375 0.8125 4.775
2.4375 0.8125 4.775
2.5 0.8125 4.775
2.5625 0.8125 4.775
2.625 0.8125 4.775
2.6875 0.8125 4.775
2.75 0.8125 4.775
2.8125 0.8125 4.775
2.875 0.8125 4.775
2.9375 0.8125 4.775
3 0.8125 4.775
3.0625 0.8125 4.775
3.125 0.8125 4.775
3.1875 0.8125 4.775
3.25 0.8125 4.775
3.3125 0.8125 4.775
3.375 0.8125 4.775
3.4375 0.8125 4.775
3.5 0.8125 4.775
3.5625 0.8125 4.775
3.625 0.8125 4.775
3.6875 0.8125 4.775
3.75 0.8125 4.775
3.8125 0.8125 4.775
3.875 0.8125 4.775
3.9375 0.8125 4.775
4 0.8125 4.775
0 0.875 4.775
0.0625 0.875 4.775
0.125 0.875 4.775
0.1875 0.875 4.775
0.25 0.875 4.775
0.3125 0.875 4.775
0.375 0.875 4.775
0.4375 0.875 4.775
0.5 0.875 4.775
0.5625 0.875 4.775
0.625 0.875 4.775
0.6875 0.875 4.775
0.75 0.875 4.775
0.8125 0.875 4.775
0.875 0.875 4.775
0.9375 0.875 4.775
1 0.875 4.775
1.0625 0.875 4.775
1.125 0.875 4.775
1.1875 0.875 4.775
1.25 0.875 4.775
1.3125 0.875 4.775
1.375 0.875 4.775
1.4375 0.875 4.775
1.5 0.875 4.775
1.5625 0.875 4.775
1.625 0.875 4.775
1.6875 0.875 4.775
1.75 0.875 4.775
1.8125 0.875 4.775
1.875 0.875 4.775
1.9375 0.875 4.775
2 0.875 4.775
2.0625 0.875 4.775
2.125 0.875 4.775
2.1875 0.875 4.775
2.25 0.875 4.775
2.3125 0.875 4.775
2.375 0.875 4.775
2.4375 0.875 4.775
2.5 0.875 4.775
2.5625 0.875 4.775
2.625 0.875 4.775
2.6875 0.875 4.775
2.75 0.875 4.775
2.8125 0.875 4.775
2.875 0.875 4.775
2.9375 0.875 4.775
3 0.875 4.775
3.0625 0.875 4.775
3.125 0.875 4.775
3.1875 0.875 4.775
3.25 0.875 4.775
3.3125 0.875 4.775
3.375 0.875 4.775
3.4375 0.875 4.775
3.5 0.875 4.775
3.5625 0.875 4.775
3.625 0.875 4.775
3.6875 0.875 4.775
3.75 0.875 4.775
3.8125 0.875 4.775
3.875 0.875 4.775
3.9375 0.875 4.775
4 0.875 4.775
0 0.9375 4.775
0.0625 0.9375 4.775
0.125 0.9375 4.775
0.1875 0.9375 4.775
0.25 0.9375 4.775
0.3125 0.9375 4.775
0.375 0.9375 4.775
0.4375 0.9375 4.775
0.5 0.9375 4.775
0.5625 0.9375 4.775
0.625 0.9375 4.775
0.6875 0.9375 4.775
0.75 0.9375 4.775
0.8125 0.9375 4.775
0.875 0.9375 4.775
0.9375 0.9375 4.775
1 0.9375 4.775
1.0625 0.9375 4.775
1.125 0.9375 4.775
1.1875 0.9375 4.775
1.25 0.9375 4.775
1.3125 0.9375 4.775
1.375 0.9375 4.775
1.4375 0.9375 4.775
1.5 0.9375 4.775
1.5625 0.9375 4.775
1.625 0.9375 4.775
1.6875 0.9375 4.775
1.75 0.9375 4.775
1.8125 0.9375 4.775
1.875 0.9375 4.775
1.9375 0.9375 4.775
2 0.9375 4.775
2.0625 0.9375 4.775
2.125 0.9375 4.775
2.1875 0.9375 4.775
2.25 0.9375 4.775
2.3125 0.9375 4.775
2.375 0.9375 4.775
2.4375 0.9375 4.775
2.5 0.9375 4.775
2.5625 0.9375 4.775
2.625 0.9375 4.775
2.6875 0.9375 4.775
2.75 0.9375 4.775
2.8125 0.9375 4.775
2.875 0.9375 4.775
2.9375 0.9375 4.775
3 0.9375 4.775
3.0625 0.9375 4.775
3.125 0.9375 4.775
3.1875 0.9375 4.775
3.25 0.9375 4.775
3.3125 0.9375 4.775
3.375 0.9375 4.775
3.4375 0.9375 4.775
3.5 0.9375 4.775
3.5625 0.9375 4.775
3.625 0.9375 4.775
3.6875 0.9375 4.775
3.75 0.9375 4.775
3.8125 0.9375 4.775
3.875 0.9375 4.775
3.9375 0.9375 4.775
4 0.9375 4.775
0 1 4.775
0.0625 1 4.775
0.125 1 4.775
0.1875 1 4.775
0.25 1 4.775
0.3125 1 4.775
0.375 1 4.775
0.4375 1 4.775
0.5 1 4.775
0.5625 1 4.775
0.625 1 4.775
0.6875 1 4.775
0.75 1 4.775
0.8125 1 4.775
0.875 1 4.775
0.9375 1 4.775
1 1 4.775
1.0625 1 4.775
1.125 1 4.775
1.1875 1 4.775
1.25 1 4.775
1.3125 1 4.775
1.375 1 4.775
1.4375 1 4.775
1.5 1 4.775
1.5625 1 4.775
1.625 1 4.775
1.6875 1 4.775
1.75 1 4.775
1.8125 1 4.775
1.875 1 4.775
1.9375 1 4.775
2 1 4.775
2.0625 1 4.775
2.125 1 4.775
2.1875 1 4.775
2.25 1 4.775
2.3125 1 4.775
2.375 1 4.775
2.4375 1 4.775
2.5 1 4.775
2.5625 1 4.775
2.625 1 4.775
2.6875 1 4.775
2.75 1 4.775
2.8125 1 4.775
2.875 1 4.775
2.9375 1 4.775
3 1 4.775
3.0625 1 4.775
3.125 1 4.775
3.1875 1 4.775
3.25 1 4.775
3.3125 1 4.775
3.375 1 4.775
3.4375 1 4.775
3.5 1 4.775
3.5625 1 4.775
3.625 1 4.775
3.6875 1 4.775
3.75 1 4.775
3.8125 1 4.775
3.875 1 4.775
3.9375 1 4.775
4 1 4.775
0 0 4.8375
0.0625 0 4.8375
0.125 0 4.8375
0.1875 0 4.8375
0.25 0 4.8375
0.3125 0 4.8375
0.375 0 4.8375
0.4375 0 4.8375
0.5 0 4.8375
0.5625 0 4.8375
0.625 0 4.8375
0.6875 0 4.8375
0.75 0 4.8375
0.8125 0 4.8375
0.875 0 4.8375
0.9375 0 4.8375
1 0 4.8375
1.0625 0 4.8375
1.125 0 4.8375
1.1875 0 4.8375
1.25 0 4.8375
1.3125 0 4.8375
1.375 0 4.8375
1.4375 0 4.8375
1.5 0 4.8375
1.5625 0 4.8375
1.625 0 4.8375
1.6875 0 4.8375
1.75 0 4.8375
1.8125 0 4.8375
1.875 0 4.8375
1.9375 0 4.8375
2 0 4.8375
2.0625 0 4.8375
2.125 0 4.8375
2.1875 0 4.8375
2.25 0 4.8375
2.3125 0 4.8375
2.375 0 4.8375
2.4375 0 4.8375
2.5 0 4.8375
2.5625 0 4.8375
2.625 0 4.8375
2.6875 0 4.8375
2.75 0 4.8375
2.8125 0 4.8375
2.875 0 4.8375
2.9375 0 4.8375
3 0 4.8375
3.0625 0 4.8375
3.125 0 4.8375
3.1875 0 4.8375
3.25 0 4.8375
3.3125 0 4.8375
3.375 0 4.8375
3.4375 0 4.8375
3.5 0 4.8375
3.5625 0 4.8375
3.625 0 4.8375
3.6875 0 4.8375
3.75 0 4.8375
3.8125 0 4.8375
3.875 0 4.8375
3.9375 0 4.8375
4 0 4.8375
0 0.0625 4.8375
0.0625 0.0625 4.8375
0.125 0.0625 4.8375
0.1875 0.0625 4.8375
0.25 0.0625 4.8375
0.3125 0.0625 4.8375
0.375 0.0625 4.8375
0.4375 0.0625 4.8375
0.5 0.0625 4.8375
0.5625 0.0625 4.8375
0.625 0.0625 4.8375
0.6875 0.0625 4.8375
0.75 0.0625 4.8375
0.8125 0.0625 4.8375
0.875 0.0625 4.8375
0.9375 0.0625 4.8375
1 0.0625 4.8375
1.0625 0.0625 4.8375
1.125 0.0625 4.8375
1.1875 0.0625 4.8375
1.25 0.0625 4.8375
1.3125 0.0625 4.8375
1.375 0.0625 4.8375
1.4375 0.0625 4.8375
1.5 0.0625 4.8375
1.5625 0.0625 4.8375
1.625 0.0625 4.8375
1.6875 0.0625 4.8375
1.75 0.0625 4.8375
1.8125 0.0625 4.8375
1.875 0.0625 4.8375
1.9375 0.0625 4.8375
2 0.0625 4.8375
2.0625 0.0625 4.8375
2.125 0.0625 4.8375
2.1875 0.0625 4.8375
2.25 0.0625 4.8375
2.3125 0.0625 4.8375
2.375 0.0625 4.8375
2.4375 0.0625 4.8375
2.5 0.0625 4.8375
2.5625 0.0625 4.8375
2.625 0.0625 4.8375
2.6875 0.0625 4.8375
2.75 0.0625 4.8375
2.8125 0.0625 4.8375
2.875 0.0625 4.8375
2.9375 0.0625 4.8375
3 0.0625 4.8375
3.0625 0.0625 4.8375
3.125 0.0625 4.8375
3.1875 0.0625 4.8375
3.25 0.0625 4.8375
3.3125 0.0625 4.8375
3.375 0.0625 4.8375
3.4375 0.0625 4.8375
3.5 0.0625 4.8375
3.5625 0.0625 4.8375
3.625 0.0625 4.8375
3.6875 0.0625 4.8375
3.75 0.0625 4.8375
3.8125 0.0625 4.8375
3.875 0.0625 4.8375
3.9375 0.0625 4.8375
4 0.0625 4.8375
0 0.125 4.8375
0.0625 0.125 4.8375
0.125 0.125 4.8375
0.1875 0.125 4.8375
0.25 0.125 4.8375
0.3125 0.125 4.8375
0.375 0.125 4.8375
0.4375 0.125 4.8375
0.5 0.125 4.8375
0.5625 0.125 4.8375
0.625 0.125 4.8375
0.6875 0.125 4.8375
0.75 0.125 4.8375
0.8125 0.125 4.8375
0.875 0.125 4.8375
0.9375 0.125 4.8375
1 0.125 4.8375
1.0625 0.125 4.8375
1.125 0.125 4.8375
1.1875 0.125 4.8375
1.25 0.125 4.8375
1.3125 0.125 4.8375
1.375 0.125 4.8375
1.4375 0.125 4.8375
1.5 0.125 4.8375
1.5625 0.125 4.8375
1.625 0.125 4.8375
1.6875 0.125 4.8375
1.75 0.125 4.8375
1.8125 0.125 4.8375
1.875 0.125 4.8375
1.9375 0.125 4.8375
2 0.125 4.8375
2.0625 0.125 4.8375
2.125 0.125 4.8375
2.1875 0.125 4.8375
2.25 0.125 4.8375
2.3125 0.125 4.8375
2.375 0.125 4.8375
2.4375 0.125 4.8375
2.5 0.125 4.8375
2.5625 0.125 4.8375
2.625 0.125 4.8375
2.6875 0.125 4.8375
2.75 0.125 4.8375
2.8125 0.125 4.8375
2.875 0.125 4.8375
2.9375 0.125 4.8375
3 0.125 4.8375
3.0625 0.125 4.8375
3.125 0.125 4.8375
3.1875 0.125 4.8375
3.25 0.125 4.8375
3.3125 0.125 4.8375
3.375 0.125 4.8375
3.4375 0.125 4.8375
3.5 0.125 4.8375
3.5625 0.125 4.8375
3.625 0.125 4.8375
3.6875 0.125 4.8375
3.75 0.125 4.8375
3.8125 0.125 4.8375
3.875 0.125 4.8375
3.9375 0.125 4.8375
4 0.125 4.8375
0 0.1875 4.8375
0.0625 0.1875 4.8375
0.125 0.1875 4.8375
0.1875 0.1875 4.8375
0.25 0.1875 4.8375
0.3125 0.1875 4.8375
0.375 0.1875 4.8375
0.4375 0.1875 4.8375
0.5 0.1875 4.8375
0.5625 0.1875 4.8375
0.625 0.1875 4.8375
0.6875 0.1875 4.8375
0.75 0.1875 4.8375
0.8125 0.1875 4.8375
0.875 0.1875 4.8375
0.9375 0.1875 4.8375
1 0.1875 4.8375
1.0625 0.1875 4.8375
1.125 0.1875 4.8375
1.1875 0.1875 4.8375
1.25 0.1875 4.8375
1.3125 0.1875 4.8375
1.375 0.1875 4.8375
1.4375 0.1875 4.8375
1.5 0.1875 4.8375
1.5625 0.1875 4.8375
1.625 0.1875 4.8375
1.6875 0.1875 4.8375
1.75 0.1875 4.8375
1.8125 0.1875 4.8375
1.875 0.1875 4.8375
1.9375 0.1875 4.8375
2 0.1875 4.8375
2.0625 0.1875 4.8375
2.125 0.1875 4.8375
2.1875 0.1875 4.8375
2.25 0.1875 4.8375
2.3125 0.1875 4.8375
2.375 0.1875 4.8375
2.4375 0.1875 4.8375
2.5 0.1875 4.8375
2.5625 0.1875 4.8375
2.625 0.1875 4.8375
2.6875 0.1875 4.8375
2.75 0.1875 4.8375
2.8125 0.1875 4.8375
2.875 0.1875 4.8375
2.9375 0.1875 4.8375
3 0.1875 4.8375
3.0625 0.1875 4.8375
3.125 0.1875 4.8375
3.1875 0.1875 4.8375
3.25 0.1875 4.8375
3.3125 0.1875 4.8375
3.375 0.1875 4.8375
3.4375 0.1875 4.8375
3.5 0.1875 4.8375
3.5625 0.1875 4.8375
3.625 0.1875 4.8375
3.6875 0.1875 4.8375
3.75 0.1875 4.8375
3.8125 0.1875 4.8375
3.875 0.1875 4.8375
3.9375 0.1875 4.8375
4 0.1875 4.8375
0 0.25 4.8375
0.0625 0.25 4.8375
0.125 0.25 4.8375
0.1875 0.25 4.8375
0.25 0.25 4.8375
0.3125 0.25 4.8375
0.375 0.25 4.8375
0.4375 0.25 4.8375
0.5 0.25 4.8375
0.5625 0.25 4.8375
0.625 0.25 4.8375
0.6875 0.25 4.8375
0.75 0.25 4.8375
0.8125 0.25 4.8375
0.875 0.25 4.8375
0.9375 0.25 4.8375
1 0.25 4.8375
1.0625 0.25 4.8375
1.125 0.25 4.8375
1.1875 0.25 4.8375
1.25 0.25 4.8375
1.3125 0.25 4.8375
1.375 0.25 4.8375
1.4375 0.25 4.8375
1.5 0.25 4.8375
1.5625 0.25 4.8375
1.625 0.25 4.8375
1.6875 0.25 4.8375
1.75 0.25 4.8375
1.8125 0.25 4.8375
1.875 0.25 4.8375
1.9375 0.25 4.8375
2 0.25 4.8375
2.0625 0.25 4.8375
2.125 0.25 4.8375
2.1875 0.25 4.8375
2.25 0.25 4.8375
2.3125 0.25 4.8375
2.375 0.25 4.8375
2.4375 0.25 4.8375
2.5 0.25 4.8375
2.5625 0.25 4.8375
2.625 0.25 4.8375
2.6875 0.25 4.8375
2.75 0.25 4.8375
2.8125 0.25 4.8375
2.875 0.25 4.8375
2.9375 0.25 4.8375
3 0.25 4.8375
3.0625 0.25 4.8375
3.125 0.25 4.8375
3.1875 0.25 4.8375
3.25 0.25 4.8375
3.3125 0.25 4.8375
3.375 0.25 4.8375
3.4375 0.25 4.8375
3.5 0.25 4.8375
3.5625 0.25 4.8375
3.625 0.25 4.8375
3.6875 0.25 4.8375
3.75 0.25 4.8375
3.8125 0.25 4.8375
3.875 0.25 4.8375
3.9375 0.25 4.8375
4 0.25 4.8375
0 0.3125 4.8375
0.0625 0.3125 4.8375
0.125 0.3125 4.8375
0.1875 0.3125 4.8375
0.25 0.3125 4.8375
0.3125 0.3125 4.8375
0.375 0.3125 4.8375
0.4375 0.3125 4.8375
0.5 0.3125 4.8375
0.5625 0.3125 4.8375
0.625 0.3125 4.8375
0.6875 0.3125 4.8375
0.75 0.3125 4.8375
0.8125 0.3125 4.8375
0.875 0.3125 4.8375
0.9375 0.3125 4.8375
1 0.3125 4.8375
1.0625 0.3125 4.8375
1.125 0.3125 4.8375
1.1875 0.3125 4.8375
1.25 0.3125 4.8375
1.3125 0.3125 4.8375
1.375 0.3125 4.8375
1.4375 0.3125 4.8375
1.5 0.3125 4.8375
1.5625 0.3125 4.8375
1.625 0.3125 4.8375
1.6875 0.3125 4.8375
1.75 0.3125 4.8375
1.8125 0.3125 4.8375
1.875 0.3125 4.8375
1.9375 0.3125 4.8375
2 0.3125 4.8375
2.0625 0.3125 4.8375
2.125 0.3125 4.8375
2.1875 0.3125 4.8375
2.25 0.3125 4.8375
2.3125 0.3125 4.8375
2.375 0.3125 4.8375
2.4375 0.3125 4.8375
2.5 0.3125 4.8375
2.5625 0.3125 4.8375
2.625 0.3125 4.8375
2.6875 0.3125 4.8375
2.75 0.3125 4.8375
2.8125 0.3125 4.8375
2.875 0.3125 4.8375
2.9375 0.3125 4.8375
3 0.3125 4.8375
3.0625 0.3125 4.8375
3.125 0.3125 4.8375
3.1875 0.3125 4.8375
3.25 0.3125 4.8375
3.3125 0.3125 4.8375
3.375 0.3125 4.8375
3.4375 0.3125 4.8375
3.5 0.3125 4.8375
3.5625 0.3125 4.8375
3.625 0.3125 4.8375
3.6875 0.3125 4.8375
3.75 0.3125 4.8375
3.8125 0.3125 4.8375
3.875 0.3125 4.8375
3.9375 0.3125 4.8375
4 0.3125 4.8375
0 0.375 4.8375
0.0625 0.375 4.8375
0.125 0.375 4.8375
0.1875 0.375 4.8375
0.25 0.375 4.8375
0.3125 0.375 4.8375
0.375 0.375 4.8375
0.4375 0.375 4.8375
0.5 0.375 4.8375
0.5625 0.375 4.8375
0.625 0.375 4.8375
0.6875 0.375 4.8375
0.75 0.375 4.8375
0.8125 0.375 4.8375
0.875 0.375 4.8375
0.9375 0.375 4.8375
1 0.375 4.8375
1.0625 0.375 4.8375
1.125 0.375 4.8375
1.1875 0.375 4.8375
1.25 0.375 4.8375
1.3125 0.375 4.8375
1.375 0.375 4.8375
1.4375 0.375 4.8375
1.5 0.375 4.8375
1.5625 0.375 4.8375
1.625 0.375 4.8375
1.6875 0.375 4.8375
1.75 0.375 4.8375
1.8125 0.375 4.8375
1.875 0.375 4.8375
1.9375 0.375 4.8375
2 0.375 4.8375
2.0625 0.375 4.8375
2.125 0.375 4.8375
2.1875 0.375 4.8375
2.25 0.375 4.8375
2.3125 0.375 4.8375
2.375 0.375 4.8375
2.4375 0.375 4.8375
2.5 0.375 4.8375
2.5625 0.375 4.8375
2.625 0.375 4.8375
2.6875 0.375 4.8375
2.75 0.375 4.8375
2.8125 0.375 4.8375
2.875 0.375 4.8375
2.9375 0.375 4.8375
3 0.375 4.8375
3.0625 0.375 4.8375
3.125 0.375 4.8375
3.1875 0.375 4.8375
3.25 0.375 4.8375
3.3125 0.375 4.8375
3.375 0.375 4.8375
3.4375 0.375 4.8375
3.5 0.375 4.8375
3.5625 0.375 4.8375
3.625 0.375 4.8375
3.6875 0.375 4.8375
3.75 0.375 4.8375
3.8125 0.375 4.8375
3.875 0.375 4.8375
3.9375 0.375 4.8375
4 0.375 4.8375
0 0.4375 4.8375
0.0625 0.4375 4.8375
0.125 0.4375 4.8375
0.1875 0.4375 4.8375
0.25 0.4375 4.8375
0.3125 0.4375 4.8375
0.375 0.4375 4.8375
0.4375 0.4375 4.8375
0.5 0.4375 4.8375
0.5625 0.4375 4.8375
0.625 0.4375 4.8375
0.6875 0.4375 4.8375
0.75 0.4375 4.8375
0.8125 0.4375 4.8375
0.875 0.4375 4.8375
0.9375 0.4375 4.8375
1 0.4375 4.8375
1.0625 0.4375 4.8375
1.125 0.4375 4.8375
1.1875 0.4375 4.8375
1.25 0.4375 4.8375
1.3125 0.4375 4.8375
1.375 0.4375 4.8375
1.4375 0.4375 4.8375
1.5 0.4375 4.8375
1.5625 0.4375 4.8375
1.625 0.4375 4.8375
1.6875 0.4375 4.8375
1.75 0.4375 4.8375
1.8125 0.4375 4.8375
1.875 0.4375 4.8375
1.9375 0.4375 4.8375
2 0.4375 4.8375
2.0625 0.4375 4.8375
2.125 0.4375 4.8375
2.1875 0.4375 4.8375
2.25 0.4375 4.8375
2.3125 0.4375 4.8375
2.375 0.4375 4.8375
2.4375 0.4375 4.8375
2.5 0.4375 4.8375
2.5625 0.4375 4.8375
2.625 0.4375 4.8375
2.6875 0.4375 4.8375
2.75 0.4375 4.8375
2.8125 0.4375 4.8375
2.875 0.4375 4.8375
2.9375 0.4375 4.8375
3 0.4375 4.8375
3.0625 0.4375 4.8375
3.125 0.4375 4.8375
3.1875 0.4375 4.8375
3.25 0.4375 4.8375
3.3125 0.4375 4.8375
3.375 0.4375 4.8375
3.4375 0.4375 4.8375
3.5 0.4375 4.8375
3.5625 0.4375 4.8375
3.625 0.4375 4.8375
3.6875 0.4375 4.8375
3.75 0.4375 4.8375
3.8125 0.4375 4.8375
3.875 0.4375 4.8375
3.9375 0.4375 4.8375
4 0.4375 4.8375
0 0.5 4.8375
0.0625 0.5 4.8375
0.125 0.5 4.8375
0.1875 0.5 4.8375
0.25 0.5 4.8375
0.3125 0.5 4.8375
0.375 0.5 4.8375
0.4375 0.5 4.8375
0.5 0.5 4.8375
0.5625 0.5 4.8375
0.625 0.5 4.8375
0.6875 0.5 4.8375
0.75 0.5 4.8375
0.8125 0.5 4.8375
0.875 0.5 4.8375
0.9375 0.5 4.8375
1 0.5 4.8375
1.0625 0.5 4.8375
1.125 0.5 4.8375
1.1875 0.5 4.8375
1.25 0.5 4.8375
1.3125 0.5 4.8375
1.375 0.5 4.8375
1.4375 0.5 4.8375
1.5 0.5 4.8375
1.5625 0.5 4.8375
1.625 0.5 4.8375
1.6875 0.5 4.8375
1.75 0.5 4.8375
1.8125 0.5 4.8375
1.875 0.5 4.8375
1.9375 0.5 4.8375
2 0.5 4.8375
2.0625 0.5 4.8375
2.125 0.5 4.8375
2.1875 0.5 4.8375
2.25 0.5 4.8375
2.3125 0.5 4.8375
2.375 0.5 4.8375
2.4375 0.5 4.8375
2.5 0.5 4.8375
2.5625 0.5 4.8375
2.625 0.5 4.8375
2.6875 0.5 4.8375
2.75 0.5 4.8375
2.8125 0.5 4.8375
2.875 0.5 4.8375
2.9375 0.5 4.8375
3 0.5 4.8375
3.0625 0.5 4.8375
3.125 0.5 4.8375
3.1875 0.5 4.8375
3.25 0.5 4.8375
3.3125 0.5 4.8375
3.375 0.5 4.8375
3.4375 0.5 4.8375
3.5 0.5 4.8375
3.5625 0.5 4.8375
3.625 0.5 4.8375
3.6875 0.5 4.8375
3.75 0.5 4.8375
3.8125 0.5 4.8375
3.875 0.5 4.8375
3.9375 0.5 4.8375
4 0.5 4.8375
0 0.5625 4.8375
0.0625 0.5625 4.8375
0.125 0.5625 4.8375
0.1875 0.5625 4.8375
0.25 0.5625 4.8375
0.3125 0.5625 4.8375
0.375 0.5625 4.8375
0.4375 0.5625 4.8375
0.5 0.5625 4.8375
0.5625 0.5625 4.8375
0.625 0.5625 4.8375
0.6875 0.5625 4.8375
0.75 0.5625 4.8375
0.8125 0.5625 4.8375
0.875 0.5625 4.8375
0.9375 0.5625 4.8375
1 0.5625 4.8375
1.0625 0.5625 4.8375
1.125 0.5625 4.8375
1.1875 0.5625 4.8375
1.25 0.5625 4.8375
1.3125 0.5625 4.8375
1.375 0.5625 4.8375
1.4375 0.5625 4.8375
1.5 0.5625 4.8375
1.5625 0.5625 4.8375
1.625 0.5625 4.8375
1.6875 0.5625 4.8375
1.75 0.5625 4.8375
1.8125 0.5625 4.8375
1.875 0.5625 4.8375
1.9375 0.5625 4.8375
2 0.5625 4.8375
2.0625 0.5625 4.8375
2.125 0.5625 4.8375
2.1875 0.5625 4.8375
2.25 0.5625 4.8375
2.3125 0.5625 4.8375
2.375 0.5625 4.8375
2.4375 0.5625 4.8375
2.5 0.5625 4.8375
2.5625 0.5625 4.8375
2.625 0.5625 4.8375
2.6875 0.5625 4.8375
2.75 0.5625 4.8375
2.8125 0.5625 4.8375
2.875 0.5625 4.8375
2.9375 0.5625 4.8375
3 0.5625 4.8375
3.0625 0.5625 4.8375
3.125 0.5625 4.8375
3.1875 0.5625 4.8375
3.25 0.5625 4.8375
3.3125 0.5625 4.8375
3.375 0.5625 4.8375
3.4375 0.5625 4.8375
3.5 0.5625 4.8375
3.5625 0.5625 4.8375
3.625 0.5625 4.8375
3.6875 0.5625 4.8375
3.75 0.5625 4.8375
3.8125 0.5625 4.8375
3.875 0.5625 4.8375
3.9375 0.5625 4.8375
4 0.5625 4.8375
0 0.625 4.8375
0.0625 0.625 4.8375
0.125 0.625 4.8375
0.1875 0.625 4.8375
0.25 0.625 4.8375
0.3125 0.625 4.8375
0.375 0.625 4.8375
0.4375 0.625 4.8375
0.5 0.625 4.8375
0.5625 0.625 4.8375
0.625 0.625 4.8375
0.6875 0.625 4.8375
0.75 0.625 4.8375
0.8125 0.625 4.8375
0.875 0.625 4.8375
0.9375 0.625 4.8375
1 0.625 4.8375
1.0625 0.625 4.8375
1.125 0.625 4.8375
1.1875 0.625 4.8375
1.25 0.625 4.8375
1.3125 0.625 4.8375
1.375 0.625 4.8375
1.4375 0.625 4.8375
1.5 0.625 4.8375
1.5625 0.625 4.8375
1.625 0.625 4.8375
1.6875 0.625 4.8375
1.75 0.625 4.8375
1.8125 0.625 4.8375
1.875 0.625 4.8375
1.9375 0.625 4.8375
2 0.625 4.8375
2.0625 0.625 4.8375
2.125 0.625 4.8375
2.1875 0.625 4.8375
2.25 0.625 4.8375
2.3125 0.625 4.8375
2.375 0.625 4.8375
2.4375 0.625 4.8375
2.5 0.625 4.8375
2.5625 0.625 4.8375
2.625 0.625 4.8375
2.6875 0.625 4.8375
2.75 0.625 4.8375
2.8125 0.625 4.8375
2.875 0.625 4.8375
2.9375 0.625 4.8375
3 0.625 4.8375
3.0625 0.625 4.8375
3.125 0.625 4.8375
3.1875 0.625 4.8375
3.25 0.625 4.8375
3.3125 0.625 4.8375
3.375 0.625 4.8375
3.4375 0.625 4.8375
3.5 0.625 4.8375
3.5625 0.625 4.8375
3.625 0.625 4.8375
3.6875 0.625 4.8375
3.75 0.625 4.8375
3.8125 0.625 4.8375
3.875 0.625 4.8375
3.9375 0.625 4.8375
4 0.625 4.8375
0 0.6875 4.8375
0.0625 0.6875 4.8375
0.125 0.6875 4.8375
0.1875 0.6875 4.8375
0.25 0.6875 4.8375
0.3125 0.6875 4.8375
0.375 0.6875 4.8375
0.4375 0.6875 4.8375
0.5 0.6875 4.8375
0.5625 0.6875 4.8375
0.625 0.6875 4.8375
0.6875 0.6875 4.8375
0.75 0.6875 4.8375
0.8125 0.6875 4.8375
0.875 0.6875 4.8375
0.9375 0.6875 4.8375
1 0.6875 4.8375
1.0625 0.6875 4.8375
1.125 0.6875 4.8375
1.1875 0.6875 4.8375
1.25 0.6875 4.8375
1.3125 0.6875 4.8375
1.375 0.6875 4.8375
1.4375 0.6875 4.8375
1.5 0.6875 4.8375
1.5625 0.6875 4.8375
1.625 0.6875 4.8375
1.6875 0.6875 4.8375
1.75 0.6875 4.8375
1.8125 0.6875 4.8375
1.875 0.6875 4.8375
1.9375 0.6875 4.8375
2 0.6875 4.8375
2.0625 0.6875 4.8375
2.125 0.6875 4.8375
2.1875 0.6875 4.8375
2.25 0.6875 4.8375
2.3125 0.6875 4.8375
2.375 0.6875 4.8375
2.4375 0.6875 4.8375
2.5 0.6875 4.8375
2.5625 0.6875 4.8375
2.625 0.6875 4.8375
2.6875 0.6875 4.8375
2.75 0.6875 4.8375
2.8125 0.6875 4.8375
2.875 0.6875 4.8375
2.9375 0.6875 4.8375
3 0.6875 4.8375
3.0625 0.6875 4.8375
3.125 0.6875 4.8375
3.1875 0.6875 4.8375
3.25 0.6875 4.8375
3.3125 0.6875 4.8375
3.375 0.6875 4.8375
3.4375 0.6875 4.8375
3.5 0.6875 4.8375
3.5625 0.6875 4.8375
3.625 0.6875 4.8375
3.6875 0.6875 4.8375
3.75 0.6875 4.8375
3.8125 0.6875 4.8375
3.875 0.6875 4.8375
3.9375 0.6875 4.8375
4 0.6875 4.8375
0 0.75 4.8375
0.0625 0.75 4.8375
0.125 0.75 4.8375
0.1875 0.75 4.8375
0.25 0.75 4.8375
0.3125 0.75 4.8375
0.375 0.75 4.8375
0.4375 0.75 4.8375
0.5 0.75 4.8375
0.5625 0.75 4.8375
0.625 0.75 4.8375
0.6875 0.75 4.8375
0.75 0.75 4.8375
0.8125 0.75 4.8375
0.875 0.75 4.8375
0.9375 0.75 4.8375
1 0.75 4.8375
1.0625 0.75 4.8375
1.125 0.75 4.8375
1.1875 0.75 4.8375
1.25 0.75 4.8375
1.3125 0.75 4.8375
1.375 0.75 4.8375
1.4375 0.75 4.8375
1.5 0.75 4.8375
1.5625 0.75 4.8375
1.625 0.75 4.8375
1.6875 0.75 4.8375
1.75 0.75 4.8375
1.8125 0.75 4.8375
1.875 0.75 4.8375
1.9375 0.75 4.8375
2 0.75 4.8375
2.0625 0.75 4.8375
2.125 0.75 4.8375
2.1875 0.75 4.8375
2.25 0.75 4.8375
2.3125 0.75 4.8375
2.375 0.75 4.8375
2.4375 0.75 4.8375
2.5 0.75 4.8375
2.5625 0.75 4.8375
2.625 0.75 4.8375
2.6875 0.75 4.8375
2.75 0.75 4.8375
2.8125 0.75 4.8375
2.875 0.75 4.8375
2.9375 0.75 4.8375
3 0.75 4.8375
3.0625 0.75 4.8375
3.125 0.75 4.8375
3.1875 0.75 4.8375
3.25 0.75 4.8375
3.3125 0.75 4.8375
3.375 0.75 4.8375
3.4375 0.75 4.8375
3.5 0.75 4.8375
3.5625 0.75 4.8375
3.625 0.75 4.8375
3.6875 0.75 4.8375
3.75 0.75 4.8375
3.8125 0.75 4.8375
3.875 0.75 4.8375
3.9375 0.75 4.8375
4 0.75 4.8375
0 0.8125 4.8375
0.0625 0.8125 4.8375
0.125 0.8125 4.8375
0.1875 0.8125 4.8375
0.25 0.8125 4.8375
0.3125 0.8125 4.8375
0.375 0.8125 4.8375
0.4375 0.8125 4.8375
0.5 0.8125 4.8375
0.5625 0.8125 4.8375
0.625 0.8125 4.8375
0.6875 0.8125 4.8375
0.75 0.8125 4.8375
0.8125 0.8125 4.8375
0.875 0.8125 4.8375
0.9375 0.8125 4.8375
1 0.8125 4.8375
1.0625 0.8125 4.8375
1.125 0.8125 4.8375
1.1875 0.8125 4.8375
1.25 0.8125 4.8375
1.3125 0.8125 4.8375
1.375 0.8125 4.8375
1.4375 0.8125 4.8375
1.5 0.8125 4.8375
1.5625 0.8125 4.8375
1.625 0.8125 4.8375
1.6875 0.8125 4.8375
1.75 0.8125 4.8375
1.8125 0.8125 4.8375
1.875 0.8125 4.8375
1.9375 0.8125 4.8375
2 0.8125 4.8375
2.0625 0.8125 4.8375
2.125 0.8125 4.8375
2.1875 0.8125 4.8375
2.25 0.8125 4.8375
2.3125 0.8125 4.8375
2.375 0.8125 4.8375
2.4375 0.8125 4.8375
2.5 0.8125 4.8375
2.5625 0.8125 4.8375
2.625 0.8125 4.8375
2.6875 0.8125 4.8375
2.75 0.8125 4.8375
2.8125 0.8125 4.8375
2.875 0.8125 4.8375
2.9375 0.8125 4.8375
3 0.8125 4.8375
3.0625 0.8125 4.8375
3.125 0.8125 4.8375
3.1875 0.8125 4.8375
3.25 0.8125 4.8375
3.3125 0.8125 4.8375
3.375 0.8125 4.8375
3.4375 0.8125 4.8375
3.5 0.8125 4.8375
3.5625 0.8125 4.8375
3.625 0.8125 4.8375
3.6875 0.8125 4.8375
3.75 0.8125 4.8375
3.8125 0.8125 4.8375
3.875 0.8125 4.8375
3.9375 0.8125 4.8375
4 0.8125 4.8375
0 0.875 4.8375
0.0625 0.875 4.8375
0.125 0.875 4.8375
0.1875 0.875 4.8375
0.25 0.875 4.8375
0.3125 0.875 4.8375
0.375 0.875 4.8375
0.4375 0.875 4.8375
0.5 0.875 4.8375
0.5625 0.875 4.8375
0.625 0.875 4.8375
0.6875 0.875 4.8375
0.75 0.875 4.8375
0.8125 0.875 4.8375
0.875 0.875 4.8375
0.9375 0.875 4.8375
1 0.875 4.8375
1.0625 0.875 4.8375
1.125 0.875 4.8375
1.1875 0.875 4.8375
1.25 0.875 4.8375
1.3125 0.875 4.8375
1.375 0.875 4.8375
1.4375 0.875 4.8375
1.5 0.875 4.8375
1.5625 0.875 4.8375
1.625 0.875 4.8375
1.6875 0.875 4.8375
1.75 0.875 4.8375
1.8125 0.875 4.8375
1.875 0.875 4.8375
1.9375 0.875 4.8375
2 0.875 4.8375
2.0625 0.875 4.8375
2.125 0.875 4.8375
2.1875 0.875 4.8375
2.25 0.875 4.8375
2.3125 0.875 4.8375
2.375 0.875 4.8375
2.4375 0.875 4.8375
2.5 0.875 4.8375
2.5625 0.875 4.8375
2.625 0.875 4.8375
2.6875 0.875 4.8375
2.75 0.875 4.8375
2.8125 0.875 4.8375
2.875 0.875 4.8375
2.9375 0.875 4.8375
3 0.875 4.8375
3.0625 0.875 4.8375
3.125 0.875 4.8375
3.1875 0.875 4.8375
3.25 0.875 4.8375
3.3125 0.875 4.8375
3.375 0.875 4.8375
3.4375 0.875 4.8375
3.5 0.875 4.8375
3.5625 0.875 4.8375
3.625 0.875 4.8375
3.6875 0.875 4.8375
3.75 0.875 4.8375
3.8125 0.875 4.8375
3.875 0.875 4.8375
3.9375 0.875 4.8375
4 0.875 4.8375
0 0.9375 4.8375
0.0625 0.9375 4.8375
0.125 0.9375 4.8375
0.1875 0.9375 4.8375
0.25 0.9375 4.8375
0.3125 0.9375 4.8375
0.375 0.9375 4.8375
0.4375 0.9375 4.8375
0.5 0.9375 4.8375
0.5625 0.9375 4.8375
0.625 0.9375 4.8375
0.6875 0.9375 4.8375
0.75 0.9375 4.8375
0.8125 0.9375 4.8375
0.875 0.9375 4.8375
0.9375 0.9375 4.8375
1 0.9375 4.8375
1.0625 0.9375 4.8375
1.125 0.9375 4.8375
1.1875 0.9375 4.8375
1.25 0.9375 4.8375
1.3125 0.9375 4.8375
1.375 0.9375 4.8375
1.4375 0.9375 4.8375
1.5 0.9375 4.8375
1.5625 0.9375 4.8375
1.625 0.9375 4.8375
1.6875 0.9375 4.8375
1.75 0.9375 4.8375
1.8125 0.9375 4.8375
1.875 0.9375 4.8375
1.9375 0.9375 4.8375
2 0.9375 4.8375
2.0625 0.9375 4.8375
2.125 0.9375 4.8375
2.1875 0.9375 4.8375
2.25 0.9375 4.8375
2.3125 0.9375 4.8375
2.375 0.9375 4.8375
2.4375 0.9375 4.8375
2.5 0.9375 4.8375
2.5625 0.9375 4.8375
2.625 0.9375 4.8375
2.6875 0.9375 4.8375
2.75 0.9375 4.8375
2.8125 0.9375 4.8375
2.875 0.9375 4.8375
2.9375 0.9375 4.8375
3 0.9375 4.8375
3.0625 0.9375 4.8375
3.125 0.9375 4.8375
3.1875 0.9375 4.8375
3.25 0.9375 4.8375
3.3125 0.9375 4.8375
3.375 0.9375 4.8375
3.4375 0.9375 4.8375
3.5 0.9375 4.8375
3.5625 0.9375 4.8375
3.625 0.9375 4.8375
3.6875 0.9375 4.8375
3.75 0.9375 4.8375
3.8125 0.9375 4.8375
3.875 0.9375 4.8375
3.9375 0.9375 4.8375
4 0.9375 4.8375
0 1 4.8375
0.0625 1 4.8375
0.125 1 4.8375
0.1875 1 4.8375
0.25 1 4.8375
0.3125 1 4.8375
0.375 1 4.8375
0.4375 1 4.8375
0.5 1 4.8375
0.5625 1 4.8375
0.625 1 4.8375
0.6875 1 4.8375
0.75 1 4.8375
0.8125 1 4.8375
0.875 1 4.8375
0.9375 1 4.8375
1 1 4.8375
1.0625 1 4.8375
1.125 1 4.8375
1.1875 1 4.8375
1.25 1 4.8375
1.3125 1 4.8375
1.375 1 4.8375
1.4375 1 4.8375
1.5 1 4.8375
1.5625 1 4.8375
1.625 1 4.8375
1.6875 1 4.8375
1.75 1 4.8375
1.8125 1 4.8375
1.875 1 4.8375
1.9375 1 4.8375
2 1 4.8375
2.0625 1 4.8375
2.125 1 4.8375
2.1875 1 4.8375
2.25 1 4.8375
2.3125 1 4.8375
2.375 1 4.8375
2.4375 1 4.8375
2.5 1 4.8375
2.5625 1 4.8375
2.625 1 4.8375
2.6875 1 4.8375
2.75 1 4.8375
2.8125 1 4.8375
2.875 1 4.8375
2.9375 1 4.8375
3 1 4.8375
3.0625 1 4.8375
3.125 1 4.8375
3.1875 1 4.8375
3.25 1 4.8375
3.3125 1 4.8375
3.375 1 4.8375
3.4375 1 4.8375
3.5 1 4.8375
3.5625 1 4.8375
3.625 1 4.8375
3.6875 1 4.8375
3.75 1 4.8375
3.8125 1 4.8375
3.875 1 4.8375
3.9375 1 4.8375
4 1 4.8375
0 0 4.9
0.0625 0 4.9
0.125 0 4.9
0.1875 0 4.9
0.25 0 4.9
0.3125 0 4.9
0.375 0 4.9
0.4375 0 4.9
0.5 0 4.9
0.5625 0 4.9
0.625 0 4.9
0.6875 0 4.9
0.75 0 4.9
0.8125 0 4.9
0.875 0 4.9
0.9375 0 4.9
1 0 4.9
1.0625 0 4.9
1.125 0 4.9
1.1875 0 4.9
1.25 0 4.9
1.3125 0 4.9
1.375 0 4.9
1.4375 0 4.9
1.5 0 4.9
1.5625 0 4.9
1.625 0 4.9
1.6875 0 4.9
1.75 0 4.9
1.8125 0 4.9
1.875 0 4.9
1.9375 0 4.9
2 0 4.9
2.0625 0 4.9
2.125 0 4.9
2.1875 0 4.9
2.25 0 4.9
2.3125 0 4.9
2.375 0 4.9
2.4375 0 4.9
2.5 0 4.9
2.5625 0 4.9
2.625 0 4.9
2.6875 0 4.9
2.75 0 4.9
2.8125 0 4.9
2.875 0 4.9
2.9375 0 4.9
3 0 4.9
3.0625 0 4.9
3.125 0 4.9
3.1875 0 4.9
3.25 0 4.9
3.3125 0 4.9
3.375 0 4.9
3.4375 0 4.9
3.5 0 4.9
3.5625 0 4.9
3.625 0 4.9
3.6875 0 4.9
3.75 0 4.9
3.8125 0 4.9
3.875 0 4.9
3.9375 0 4.9
4 0 4.9
0 0.0625 4.9
0.0625 0.0625 4.9
0.125 0.0625 4.9
0.1875 0.0625 4.9
0.25 0.0625 4.9
0.3125 0.0625 4.9
0.375 0.0625 4.9
0.4375 0.0625 4.9
0.5 0.0625 4.9
0.5625 0.0625 4.9
0.625 0.0625 4.9
0.6875 0.0625 4.9
0.75 0.0625 4.9
0.8125 0.0625 4.9
0.875 0.0625 4.9
0.9375 0.0625 4.9
1 0.0625 4.9
1.0625 0.0625 4.9
1.125 0.0625 4.9
1.1875 0.0625 4.9
1.25 0.0625 4.9
1.3125 0.0625 4.9
1.375 0.0625 4.9
1.4375 0.0625 4.9
1.5 0.0625 4.9
1.5625 0.0625 4.9
1.625 0.0625 4.9
1.6875 0.0625 4.9
1.75 0.0625 4.9
1.8125 0.0625 4.9
1.875 0.0625 4.9
1.9375 0.0625 4.9
2 0.0625 4.9
2.0625 0.0625 4.9
2.125 0.0625 4.9
2.1875 0.0625 4.9
2.25 0.0625 4.9
2.3125 0.0625 4.9
2.375 0.0625 4.9
2.4375 0.0625 4.9
2.5 0.0625 4.9
2.5625 0.0625 4.9
2.625 0.0625 4.9
2.6875 0.0625 4.9
2.75 0.0625 4.9
2.8125 0.0625 4.9
2.875 0.0625 4.9
2.9375 0.0625 4.9
3 0.0625 4.9
3.0625 0.0625 4.9
3.125 0.0625 4.9
3.1875 0.0625 4.9
3.25 0.0625 4.9
3.3125 0.0625 4.9
3.375 0.0625 4.9
3.4375 0.0625 4.9
3.5 0.0625 4.9
3.5625 0.0625 4.9
3.625 0.0625 4.9
3.6875 0.0625 4.9
3.75 0.0625 4.9
3.8125 0.0625 4.9
3.875 0.0625 4.9
3.9375 0.0625 4.9
4 0.0625 4.9
0 0.125 4.9
0.0625 0.125 4.9
0.125 0.125 4.9
0.1875 0.125 4.9
0.25 0.125 4.9
0.3125 0.125 4.9
0.375 0.125 4.9
0.4375 0.125 4.9
0.5 0.125 4.9
0.5625 0.125 4.9
0.625 0.125 4.9
0.6875 0.125 4.9
0.75 0.125 4.9
0.8125 0.125 4.9
0.875 0.125 4.9
0.9375 0.125 4.9
1 0.125 4.9
1.0625 0.125 4.9
1.125 0.125 4.9
1.1875 0.125 4.9
1.25 0.125 4.9
1.3125 0.125 4.9
1.375 0.125 4.9
1.4375 0.125 4.9
1.5 0.125 4.9
1.5625 0.125 4.9
1.625 0.125 4.9
1.6875 0.125 4.9
1.75 0.125 4.9
1.8125 0.125 4.9
1.875 0.125 4.9
1.9375 0.125 4.9
2 0.125 4.9
2.0625 0.125 4.9
2.125 0.125 4.9
2.1875 0.125 4.9
2.25 0.125 4.9
2.3125 0.125 4.9
2.375 0.125 4.9
2.4375 0.125 4.9
2.5 0.125 4.9
2.5625 0.125 4.9
2.625 0.125 4.9
2.6875 0.125 4.9
2.75 0.125 4.9
2.8125 0.125 4.9
2.875 0.125 4.9
2.9375 0.125 4.9
3 0.125 4.9
3.0625 0.125 4.9
3.125 0.125 4.9
3.1875 0.125 4.9
3.25 0.125 4.9
3.3125 0.125 4.9
3.375 0.125 4.9
3.4375 0.125 4.9
3.5 0.125 4.9
3.5625 0.125 4.9
3.625 0.125 4.9
3.6875 0.125 4.9
3.75 0.125 4.9
3.8125 0.125 4.9
3.875 0.125 4.9
3.9375 0.125 4.9
4 0.125 4.9
0 0.1875 4.9
0.0625 0.1875 4.9
0.125 0.1875 4.9
0.1875 0.1875 4.9
0.25 0.1875 4.9
0.3125 0.1875 4.9
0.375 0.1875 4.9
0.4375 0.1875 4.9
0.5 0.1875 4.9
0.5625 0.1875 4.9
0.625 0.1875 4.9
0.6875 0.1875 4.9
0.75 0.1875 4.9
0.8125 0.1875 4.9
0.875 0.1875 4.9
0.9375 0.1875 4.9
1 0.1875 4.9
1.0625 0.1875 4.9
1.125 0.1875 4.9
1.1875 0.1875 4.9
1.25 0.1875 4.9
1.3125 0.1875 4.9
1.375 0.1875 4.9
1.4375 0.1875 4.9
1.5 0.1875 4.9
1.5625 0.1875 4.9
1.625 0.1875 4.9
1.6875 0.1875 4.9
1.75 0.1875 4.9
1.8125 0.1875 4.9
1.875 0.1875 4.9
1.9375 0.1875 4.9
2 0.1875 4.9
2.0625 0.1875 4.9
2.125 0.1875 4.9
2.1875 0.1875 4.9
2.25 0.1875 4.9
2.3125 0.1875 4.9
2.375 0.1875 4.9
2.4375 0.1875 4.9
2.5 0.1875 4.9
2.5625 0.1875 4.9
2.625 0.1875 4.9
2.6875 0.1875 4.9
2.75 0.1875 4.9
2.8125 0.1875 4.9
2.875 0.1875 4.9
2.9375 0.1875 4.9
3 0.1875 4.9
3.0625 0.1875 4.9
3.125 0.1875 4.9
3.1875 0.1875 4.9
3.25 0.1875 4.9
3.3125 0.1875 4.9
3.375 0.1875 4.9
3.4375 0.1875 4.9
3.5 0.1875 4.9
3.5625 0.1875 4.9
3.625 0.1875 4.9
3.6875 0.1875 4.9
3.75 0.1875 4.9
3.8125 0.1875 4.9
3.875 0.1875 4.9
3.9375 0.1875 4.9
4 0.1875 4.9
0 0.25 4.9
0.0625 0.25 4.9
0.125 0.25 4.9
0.1875 0.25 4.9
0.25 0.25 4.9
0.3125 0.25 4.9
0.375 0.25 4.9
0.4375 0.25 4.9
0.5 0.25 4.9
0.5625 0.25 4.9
0.625 0.25 4.9
0.6875 0.25 4.9
0.75 0.25 4.9
0.8125 0.25 4.9
0.875 0.25 4.9
0.9375 0.25 4.9
1 0.25 4.9
1.0625 0.25 4.9
1.125 0.25 4.9
1.1875 0.25 4.9
1.25 0.25 4.9
1.3125 0.25 4.9
1.375 0.25 4.9
1.4375 0.25 4.9
1.5 0.25 4.9
1.5625 0.25 4.9
1.625 0.25 4.9
1.6875 0.25 4.9
1.75 0.25 4.9
1.8125 0.25 4.9
1.875 0.25 4.9
1.9375 0.25 4.9
2 0.25 4.9
2.0625 0.25 4.9
2.125 0.25 4.9
2.1875 0.25 4.9
2.25 0.25 4.9
2.3125 0.25 4.9
2.375 0.25 4.9
2.4375 0.25 4.9
2.5 0.25 4.9
2.5625 0.25 4.9
2.625 0.25 4.9
2.6875 0.25 4.9
2.75 0.25 4.9
2.8125 0.25 4.9
2.875 0.25 4.9
2.9375 0.25 4.9
3 0.25 4.9
3.0625 0.25 4.9
3.125 0.25 4.9
3.1875 0.25 4.9
3.25 0.25 4.9
3.3125 0.25 4.9
3.375 0.25 4.9
3.4375 0.25 4.9
3.5 0.25 4.9
3.5625 0.25 4.9
3.625 0.25 4.9
3.6875 0.25 4.9
3.75 0.25 4.9
3.8125 0.25 4.9
3.875 0.25 4.9
3.9375 0.25 4.9
4 0.25 4.9
0 0.3125 4.9
0.0625 0.3125 4.9
0.125 0.3125 4.9
0.1875 0.3125 4.9
0.25 0.3125 4.9
0.3125 0.3125 4.9
0.375 0.3125 4.9
0.4375 0.3125 4.9
0.5 0.3125 4.9
0.5625 0.3125 4.9
0.625 0.3125 4.9
0.6875 0.3125 4.9
0.75 0.3125 4.9
0.8125 0.3125 4.9
0.875 0.3125 4.9
0.9375 0.3125 4.9
1 0.3125 4.9
1.0625 0.3125 4.9
1.125 0.3125 4.9
1.1875 0.3125 4.9
1.25 0.3125 4.9
1.3125 0.3125 4.9
1.375 0.3125 4.9
1.4375 0.3125 4.9
1.5 0.3125 4.9
1.5625 0.3125 4.9
1.625 0.3125 4.9
1.6875 0.3125 4.9
1.75 0.3125 4.9
1.8125 0.3125 4.9
1.875 0.3125 4.9
1.9375 0.3125 4.9
2 0.3125 4.9
2.0625 0.3125 4.9
2.125 0.3125 4.9
2.1875 0.3125 4.9
2.25 0.3125 4.9
2.3125 0.3125 4.9
2.375 0.3125 4.9
2.4375 0.3125 4.9
2.5 0.3125 4.9
2.5625 0.3125 4.9
2.625 0.3125 4.9
2.6875 0.3125 4.9
2.75 0.3125 4.9
2.8125 0.3125 4.9
2.875 0.3125 4.9
2.9375 0.3125 4.9
3 0.3125 4.9
3.0625 0.3125 4.9
3.125 0.3125 4.9
3.1875 0.3125 4.9
3.25 0.3125 4.9
3.3125 0.3125 4.9
3.375 0.3125 4.9
3.4375 0.3125 4.9
3.5 0.3125 4.9
3.5625 0.3125 4.9
3.625 0.3125 4.9
3.6875 0.3125 4.9
3.75 0.3125 4.9
3.8125 0.3125 4.9
3.875 0.3125 4.9
3.9375 0.3125 4.9
4 0.3125 4.9
0 0.375 4.9
0.0625 0.375 4.9
0.125 0.375 4.9
0.1875 0.375 4.9
0.25 0.375 4.9
0.3125 0.375 4.9
0.375 0.375 4.9
0.4375 0.375 4.9
0.5 0.375 4.9
0.5625 0.375 4.9
0.625 0.375 4.9
0.6875 0.375 4.9
0.75 0.375 4.9
0.8125 0.375 4.9
0.875 0.375 4.9
0.9375 0.375 4.9
1 0.375 4.9
1.0625 0.375 4.9
1.125 0.375 4.9
1.1875 0.375 4.9
1.25 0.375 4.9
1.3125 0.375 4.9
1.375 0.375 4.9
1.4375 0.375 4.9
1.5 0.375 4.9
1.5625 0.375 4.9
1.625 0.375 4.9
1.6875 0.375 4.9
1.75 0.375 4.9
1.8125 0.375 4.9
1.875 0.375 4.9
1.9375 0.375 4.9
2 0.375 4.9
2.0625 0.375 4.9
2.125 0.375 4.9
2.1875 0.375 4.9
2.25 0.375 4.9
2.3125 0.375 4.9
2.375 0.375 4.9
2.4375 0.375 4.9
2.5 0.375 4.9
2.5625 0.375 4.9
2.625 0.375 4.9
2.6875 0.375 4.9
2.75 0.375 4.9
2.8125 0.375 4.9
2.875 0.375 4.9
2.9375 0.375 4.9
3 0.375 4.9
3.0625 0.375 4.9
3.125 0.375 4.9
3.1875 0.375 4.9
3.25 0.375 4.9
3.3125 0.375 4.9
3.375 0.375 4.9
3.4375 0.375 4.9
3.5 0.375 4.9
3.5625 0.375 4.9
3.625 0.375 4.9
3.6875 0.375 4.9
3.75 0.375 4.9
3.8125 0.375 4.9
3.875 0.375 4.9
3.9375 0.375 4.9
4 0.375 4.9
0 0.4375 4.9
0.0625 0.4375 4.9
0.125 0.4375 4.9
0.1875 0.4375 4.9
0.25 0.4375 4.9
0.3125 0.4375 4.9
0.375 0.4375 4.9
0.4375 0.4375 4.9
0.5 0.4375 4.9
0.5625 0.4375 4.9
0.625 0.4375 4.9
0.6875 0.4375 4.9
0.75 0.4375 4.9
0.8125 0.4375 4.9
0.875 0.4375 4.9
0.9375 0.4375 4.9
1 0.4375 4.9
1.0625 0.4375 4.9
1.125 0.4375 4.9
1.1875 0.4375 4.9
1.25 0.4375 4.9
1.3125 0.4375 4.9
1.375 0.4375 4.9
1.4375 0.4375 4.9
1.5 0.4375 4.9
1.5625 0.4375 4.9
1.625 0.4375 4.9
1.6875 0.4375 4.9
1.75 0.4375 4.9
1.8125 0.4375 4.9
1.875 0.4375 4.9
1.9375 0.4375 4.9
2 0.4375 4.9
2.0625 0.4375 4.9
2.125 0.4375 4.9
2.1875 0.4375 4.9
2.25 0.4375 4.9
2.3125 0.4375 4.9
2.375 0.4375 4.9
2.4375 0.4375 4.9
2.5 0.4375 4.9
2.5625 0.4375 4.9
2.625 0.4375 4.9
2.6875 0.4375 4.9
2.75 0.4375 4.9
2.8125 0.4375 4.9
2.875 0.4375 4.9
2.9375 0.4375 4.9
3 0.4375 4.9
3.0625 0.4375 4.9
3.125 0.4375 4.9
3.1875 0.4375 4.9
3.25 0.4375 4.9
3.3125 0.4375 4.9
3.375 0.4375 4.9
3.4375 0.4375 4.9
3.5 0.4375 4.9
3.5625 0.4375 4.9
3.625 0.4375 4.9
3.6875 0.4375 4.9
3.75 0.4375 4.9
3.8125 0.4375 4.9
3.875 0.4375 4.9
3.9375 0.4375 4.9
4 0.4375 4.9
0 0.5 4.9
0.0625 0.5 4.9
0.125 0.5 4.9
0.1875 0.5 4.9
0.25 0.5 4.9
0.3125 0.5 4.9
0.375 0.5 4.9
0.4375 0.5 4.9
0.5 0.5 4.9
0.5625 0.5 4.9
0.625 0.5 4.9
0.6875 0.5 4.9
0.75 0.5 4.9
0.8125 0.5 4.9
0.875 0.5 4.9
0.9375 0.5 4.9
1 0.5 4.9
1.0625 0.5 4.9
1.125 0.5 4.9
1.1875 0.5 4.9
1.25 0.5 4.9
1.3125 0.5 4.9
1.375 0.5 4.9
1.4375 0.5 4.9
1.5 0.5 4.9
1.5625 0.5 4.9
1.625 0.5 4.9
1.6875 0.5 4.9
1.75 0.5 4.9
1.8125 0.5 4.9
1.875 0.5 4.9
1.9375 0.5 4.9
2 0.5 4.9
2.0625 0.5 4.9
2.125 0.5 4.9
2.1875 0.5 4.9
2.25 0.5 4.9
2.3125 0.5 4.9
2.375 0.5 4.9
2.4375 0.5 4.9
2.5 0.5 4.9
2.5625 0.5 4.9
2.625 0.5 4.9
2.6875 0.5 4.9
2.75 0.5 4.9
2.8125 0.5 4.9
2.875 0.5 4.9
2.9375 0.5 4.9
3 0.5 4.9
3.0625 0.5 4.9
3.125 0.5 4.9
3.1875 0.5 4.9
3.25 0.5 4.9
3.3125 0.5 4.9
3.375 0.5 4.9
3.4375 0.5 4.9
3.5 0.5 4.9
3.5625 0.5 4.9
3.625 0.5 4.9
3.6875 0.5 4.9
3.75 0.5 4.9
3.8125 0.5 4.9
3.875 0.5 4.9
3.9375 0.5 4.9
4 0.5 4.9
0 0.5625 4.9
0.0625 0.5625 4.9
0.125 0.5625 4.9
0.1875 0.5625 4.9
0.25 0.5625 4.9
0.3125 0.5625 4.9
0.375 0.5625 4.9
0.4375 0.5625 4.9
0.5 0.5625 4.9
0.5625 0.5625 4.9
0.625 0.5625 4.9
0.6875 0.5625 4.9
0.75 0.5625 4.9
0.8125 0.5625 4.9
0.875 0.5625 4.9
0.9375 0.5625 4.9
1 0.5625 4.9
1.0625 0.5625 4.9
1.125 0.5625 4.9
1.1875 0.5625 4.9
1.25 0.5625 4.9
1.3125 0.5625 4.9
1.375 0.5625 4.9
1.4375 0.5625 4.9
1.5 0.5625 4.9
1.5625 0.5625 4.9
1.625 0.5625 4.9
1.6875 0.5625 4.9
1.75 0.5625 4.9
1.8125 0.5625 4.9
1.875 0.5625 4.9
1.9375 0.5625 4.9
2 0.5625 4.9
2.0625 0.5625 4.9
2.125 0.5625 4.9
2.1875 0.5625 4.9
2.25 0.5625 4.9
2.3125 0.5625 4.9
2.375 0.5625 4.9
2.4375 0.5625 4.9
2.5 0.5625 4.9
2.5625 0.5625 4.9
2.625 0.5625 4.9
2.6875 0.5625 4.9
2.75 0.5625 4.9
2.8125 0.5625 4.9
2.875 0.5625 4.9
2.9375 0.5625 4.9
3 0.5625 4.9
3.0625 0.5625 4.9
3.125 0.5625 4.9
3.1875 0.5625 4.9
3.25 0.5625 4.9
3.3125 0.5625 4.9
3.375 0.5625 4.9
3.4375 0.5625 4.9
3.5 0.5625 4.9
3.5625 0.5625 4.9
3.625 0.5625 4.9
3.6875 0.5625 4.9
3.75 0.5625 4.9
3.8125 0.5625 4.9
3.875 0.5625 4.9
3.9375 0.5625 4.9
4 0.5625 4.9
0 0.625 4.9
0.0625 0.625 4.9
0.125 0.625 4.9
0.1875 0.625 4.9
0.25 0.625 4.9
0.3125 0.625 4.9
0.375 0.625 4.9
0.4375 0.625 4.9
0.5 0.625 4.9
0.5625 0.625 4.9
0.625 0.625 4.9
0.6875 0.625 4.9
0.75 0.625 4.9
0.8125 0.625 4.9
0.875 0.625 4.9
0.9375 0.625 4.9
1 0.625 4.9
1.0625 0.625 4.9
1.125 0.625 4.9
1.1875 0.625 4.9
1.25 0.625 4.9
1.3125 0.625 4.9
1.375 0.625 4.9
1.4375 0.625 4.9
1.5 0.625 4.9
1.5625 0.625 4.9
1.625 0.625 4.9
1.6875 0.625 4.9
1.75 0.625 4.9
1.8125 0.625 4.9
1.875 0.625 4.9
1.9375 0.625 4.9
2 0.625 4.9
2.0625 0.625 4.9
2.125 0.625 4.9
2.1875 0.625 4.9
2.25 0.625 4.9
2.3125 0.625 4.9
2.375 0.625 4.9
2.4375 0.625 4.9
2.5 0.625 4.9
2.5625 0.625 4.9
2.625 0.625 4.9
2.6875 0.625 4.9
2.75 0.625 4.9
2.8125 0.625 4.9
2.875 0.625 4.9
2.9375 0.625 4.9
3 0.625 4.9
3.0625 0.625 4.9
3.125 0.625 4.9
3.1875 0.625 4.9
3.25 0.625 4.9
3.3125 0.625 4.9
3.375 0.625 4.9
3.4375 0.625 4.9
3.5 0.625 4.9
3.5625 0.625 4.9
3.625 0.625 4.9
3.6875 0.625 4.9
3.75 0.625 4.9
3.8125 0.625 4.9
3.875 0.625 4.9
3.9375 0.625 4.9
4 0.625 4.9
0 0.6875 4.9
0.0625 0.6875 4.9
0.125 0.6875 4.9
0.1875 0.6875 4.9
0.25 0.6875 4.9
0.3125 0.6875 4.9
0.375 0.6875 4.9
0.4375 0.6875 4.9
0.5 0.6875 4.9
0.5625 0.6875 4.9
0.625 0.6875 4.9
0.6875 0.6875 4.9
0.75 0.6875 4.9
0.8125 0.6875 4.9
0.875 0.6875 4.9
0.9375 0.6875 4.9
1 0.6875 4.9
1.0625 0.6875 4.9
1.125 0.6875 4.9
1.1875 0.6875 4.9
1.25 0.6875 4.9
1.3125 0.6875 4.9
1.375 0.6875 4.9
1.4375 0.6875 4.9
1.5 0.6875 4.9
1.5625 0.6875 4.9
1.625 0.6875 4.9
1.6875 0.6875 4.9
1.75 0.6875 4.9
1.8125 0.6875 4.9
1.875 0.6875 4.9
1.9375 0.6875 4.9
2 0.6875 4.9
2.0625 0.6875 4.9
2.125 0.6875 4.9
2.1875 0.6875 4.9
2.25 0.6875 4.9
2.3125 0.6875 4.9
2.375 0.6875 4.9
2.4375 0.6875 4.9
2.5 0.6875 4.9
2.5625 0.6875 4.9
2.625 0.6875 4.9
2.6875 0.6875 4.9
2.75 0.6875 4.9
2.8125 0.6875 4.9
2.875 0.6875 4.9
2.9375 0.6875 4.9
3 0.6875 4.9
3.0625 0.6875 4.9
3.125 0.6875 4.9
3.1875 0.6875 4.9
3.25 0.6875 4.9
3.3125 0.6875 4.9
3.375 0.6875 4.9
3.4375 0.6875 4.9
3.5 0.6875 4.9
3.5625 0.6875 4.9
3.625 0.6875 4.9
3.6875 0.6875 4.9
3.75 0.6875 4.9
3.8125 0.6875 4.9
3.875 0.6875 4.9
3.9375 0.6875 4.9
4 0.6875 4.9
0 0.75 4.9
0.0625 0.75 4.9
0.125 0.75 4.9
0.1875 0.75 4.9
0.25 0.75 4.9
0.3125 0.75 4.9
0.375 0.75 4.9
0.4375 0.75 4.9
0.5 0.75 4.9
0.5625 0.75 4.9
0.625 0.75 4.9
0.6875 0.75 4.9
0.75 0.75 4.9
0.8125 0.75 4.9
0.875 0.75 4.9
0.9375 0.75 4.9
1 0.75 4.9
1.0625 0.75 4.9
1.125 0.75 4.9
1.1875 0.75 4.9
1.25 0.75 4.9
1.3125 0.75 4.9
1.375 0.75 4.9
1.4375 0.75 4.9
1.5 0.75 4.9
1.5625 0.75 4.9
1.625 0.75 4.9
1.6875 0.75 4.9
1.75 0.75 4.9
1.8125 0.75 4.9
1.875 0.75 4.9
1.9375 0.75 4.9
2 0.75 4.9
2.0625 0.75 4.9
2.125 0.75 4.9
2.1875 0.75 4.9
2.25 0.75 4.9
2.3125 0.75 4.9
2.375 0.75 4.9
2.4375 0.75 4.9
2.5 0.75 4.9
2.5625 0.75 4.9
2.625 0.75 4.9
2.6875 0.75 4.9
2.75 0.75 4.9
2.8125 0.75 4.9
2.875 0.75 4.9
2.9375 0.75 4.9
3 0.75 4.9
3.0625 0.75 4.9
3.125 0.75 4.9
3.1875 0.75 4.9
3.25 0.75 4.9
3.3125 0.75 4.9
3.375 0.75 4.9
3.4375 0.75 4.9
3.5 0.75 4.9
3.5625 0.75 4.9
3.625 0.75 4.9
3.6875 0.75 4.9
3.75 0.75 4.9
3.8125 0.75 4.9
3.875 0.75 4.9
3.9375 0.75 4.9
4 0.75 4.9
0 0.8125 4.9
0.0625 0.8125 4.9
0.125 0.8125 4.9
0.1875 0.8125 4.9
0.25 0.8125 4.9
0.3125 0.8125 4.9
0.375 0.8125 4.9
0.4375 0.8125 4.9
0.5 0.8125 4.9
0.5625 0.8125 4.9
0.625 0.8125 4.9
0.6875 0.8125 4.9
0.75 0.8125 4.9
0.8125 0.8125 4.9
0.875 0.8125 4.9
0.9375 0.8125 4.9
1 0.8125 4.9
1.0625 0.8125 4.9
1.125 0.8125 4.9
1.1875 0.8125 4.9
1.25 0.8125 4.9
1.3125 0.8125 4.9
1.375 0.8125 4.9
1.4375 0.8125 4.9
1.5 0.8125 4.9
1.5625 0.8125 4.9
1.625 0.8125 4.9
1.6875 0.8125 4.9
1.75 0.8125 4.9
1.8125 0.8125 4.9
1.875 0.8125 4.9
1.9375 0.8125 4.9
2 0.8125 4.9
2.0625 0.8125 4.9
2.125 0.8125 4.9
2.1875 0.8125 4.9
2.25 0.8125 4.9
2.3125 0.8125 4.9
2.375 0.8125 4.9
2.4375 0.8125 4.9
2.5 0.8125 4.9
2.5625 0.8125 4.9
2.625 0.8125 4.9
2.6875 0.8125 4.9
2.75 0.8125 4.9
2.8125 0.8125 4.9
2.875 0.8125 4.9
2.9375 0.8125 4.9
3 0.8125 4.9
3.0625 0.8125 4.9
3.125 0.8125 4.9
3.1875 0.8125 4.9
3.25 0.8125 4.9
3.3125 0.8125 4.9
3.375 0.8125 4.9
3.4375 0.8125 4.9
3.5 0.8125 4.9
3.5625 0.8125 4.9
3.625 0.8125 4.9
3.6875 0.8125 4.9
3.75 0.8125 4.9
3.8125 0.8125 4.9
3.875 0.8125 4.9
3.9375 0.8125 4.9
4 0.8125 4.9
0 0.875 4.9
0.0625 0.875 4.9
0.125 0.875 4.9
0.1875 0.875 4.9
0.25 0.875 4.9
0.3125 0.875 4.9
0.375 0.875 4.9
0.4375 0.875 4.9
0.5 0.875 4.9
0.5625 0.875 4.9
0.625 0.875 4.9
0.6875 0.875 4.9
0.75 0.875 4.9
0.8125 0.875 4.9
0.875 0.875 4.9
0.9375 0.875 4.9
1 0.875 4.9
1.0625 0.875 4.9
1.125 0.875 4.9
1.1875 0.875 4.9
1.25 0.875 4.9
1.3125 0.875 4.9
1.375 0.875 4.9
1.4375 0.875 4.9
1.5 0.875 4.9
1.5625 0.875 4.9
1.625 0.875 4.9
1.6875 0.875 4.9
1.75 0.875 4.9
1.8125 0.875 4.9
1.875 0.875 4.9
1.9375 0.875 4.9
2 0.875 4.9
2.0625 0.875 4.9
2.125 0.875 4.9
2.1875 0.875 4.9
2.25 0.875 4.9
2.3125 0.875 4.9
2.375 0.875 4.9
2.4375 0.875 4.9
2.5 0.875 4.9
2.5625 0.875 4.9
2.625 0.875 4.9
2.6875 0.875 4.9
2.75 0.875 4.9
2.8125 0.875 4.9
2.875 0.875 4.9
2.9375 0.875 4.9
3 0.875 4.9
3.0625 0.875 4.9
3.125 0.875 4.9
3.1875 0.875 4.9
3.25 0.875 4.9
3.3125 0.875 4.9
3.375 0.875 4.9
3.4375 0.875 4.9
3.5 0.875 4.9
3.5625 0.875 4.9
3.625 0.875 4.9
3.6875 0.875 4.9
3.75 0.875 4.9
3.8125 0.875 4.9
3.875 0.875 4.9
3.9375 0.875 4.9
4 0.875 4.9
0 0.9375 4.9
0.0625 0.9375 4.9
0.125 0.9375 4.9
0.1875 0.9375 4.9
0.25 0.9375 4.9
0.3125 0.9375 4.9
0.375 0.9375 4.9
0.4375 0.9375 4.9
0.5 0.9375 4.9
0.5625 0.9375 4.9
0.625 0.9375 4.9
0.6875 0.9375 4.9
0.75 0.9375 4.9
0.8125 0.9375 4.9
0.875 0.9375 4.9
0.9375 0.9375 4.9
1 0.9375 4.9
1.0625 0.9375 4.9
1.125 0.9375 4.9
1.1875 0.9375 4.9
1.25 0.9375 4.9
1.3125 0.9375 4.9
1.375 0.9375 4.9
1.4375 0.9375 4.9
1.5 0.9375 4.9
1.5625 0.9375 4.9
1.625 0.9375 4.9
1.6875 0.9375 4.9
1.75 0.9375 4.9
1.8125 0.9375 4.9
1.875 0.9375 4.9
1.9375 0.9375 4.9
2 0.9375 4.9
2.0625 0.9375 4.9
2.125 0.9375 4.9
2.1875 0.9375 4.9
2.25 0.9375 4.9
2.3125 0.9375 4.9
2.375 0.9375 4.9
2.4375 0.9375 4.9
2.5 0.9375 4.9
2.5625 0.9375 4.9
2.625 0.9375 4.9
2.6875 0.9375 4.9
2.75 0.9375 4.9
2.8125 0.9375 4.9
2.875 0.9375 4.9
2.9375 0.9375 4.9
3 0.9375 4.9
3.0625 0.9375 4.9
3.125 0.9375 4.9
3.1875 0.9375 4.9
3.25 0.9375 4.9
3.3125 0.9375 4.9
3.375 0.9375 4.9
3.4375 0.9375 4.9
3.5 0.9375 4.9
3.5625 0.9375 4.9
3.625 0.9375 4.9
3.6875 0.9375 4.9
3.75 0.9375 4.9
3.8125 0.9375 4.9
3.875 0.9375 4.9
3.9375 0.9375 4.9
4 0.9375 4.9
0 1 4.9
0.0625 1 4.9
0.125 1 4.9
0.1875 1 4.9
0.25 1 4.9
0.3125 1 4.9
0.375 1 4.9
0.4375 1 4.9
0.5 1 4.9
0.5625 1 4.9
0.625 1 4.9
0.6875 1 4.9
0.75 1 4.9
0.8125 1 4.9
0.875 1 4.9
0.9375 1 4.9
1 1 4.9
1.0625 1 4.9
1.125 1 4.9
1.1875 1 4.9
1.25 1 4.9
1.3125 1 4.9
1.375 1 4.9
1.4375 1 4.9
1.5 1 4.9
1.5625 1 4.9
1.625 1 4.9
1.6875 1 4.9
1.75 1 4.9
1.8125 1 4.9
1.875 1 4.9
1.9375 1 4.9
2 1 4.9
2.0625 1 4.9
2.125 1 4.9
2.1875 1 4.9
2.25 1 4.9
2.3125 1 4.9
2.375 1 4.9
2.4375 1 4.9
2.5 1 4.9
2.5625 1 4.9
2.625 1 4.9
2.6875 1 4.9
2.75 1 4.9
2.8125 1 4.9
2.875 1 4.9
2.9375 1 4.9
3 1 4.9
3.0625 1 4.9
3.125 1 4.9
3.1875 1 4.9
3.25 1 4.9
3.3125 1 4.9
3.375 1 4.9
3.4375 1 4.9
3.5 1 4.9
3.5625 1 4.9
3.625 1 4.9
3.6875 1 4.9
3.75 1 4.9
3.8125 1 4.9
3.875 1 4.9
3.9375 1 4.9
4 1 4.9
0 0 4.9625
0.0625 0 4.9625
0.125 0 4.9625
0.1875 0 4.9625
0.25 0 4.9625
0.3125 0 4.9625
0.375 0 4.9625
0.4375 0 4.9625
0.5 0 4.9625
0.5625 0 4.9625
0.625 0 4.9625
0.6875 0 4.9625
0.75 0 4.9625
0.8125 0 4.9625
0.875 0 4.9625
0.9375 0 4.9625
1 0 4.9625
1.0625 0 4.9625
1.125 0 4.9625
1.1875 0 4.9625
1.25 0 4.9625
1.3125 0 4.9625
1.375 0 4.9625
1.4375 0 4.9625
1.5 0 4.9625
1.5625 0 4.9625
1.625 0 4.9625
1.6875 0 4.9625
1.75 0 4.9625
1.8125 0 4.9625
1.875 0 4.9625
1.9375 0 4.9625
2 0 4.9625
2.0625 0 4.9625
2.125 0 4.9625
2.1875 0 4.9625
2.25 0 4.9625
2.3125 0 4.9625
2.375 0 4.9625
2.4375 0 4.9625
2.5 0 4.9625
2.5625 0 4.9625
2.625 0 4.9625
2.6875 0 4.9625
2.75 0 4.9625
2.8125 0 4.9625
2.875 0 4.9625
2.9375 0 4.9625
3 0 4.9625
3.0625 0 4.9625
3.125 0 4.9625
3.1875 0 4.9625
3.25 0 4.9625
3.3125 0 4.9625
3.375 0 4.9625
3.4375 0 4.9625
3.5 0 4.9625
3.5625 0 4.9625
3.625 0 4.9625
3.6875 0 4.9625
3.75 0 4.9625
3.8125 0 4.9625
3.875 0 4.9625
3.9375 0 4.9625
4 0 4.9625
0 0.0625 4.9625
0.0625 0.0625 4.9625
0.125 0.0625 4.9625
0.1875 0.0625 4.9625
0.25 0.0625 4.9625
0.3125 0.0625 4.9625
0.375 0.0625 4.9625
0.4375 0.0625 4.9625
0.5 0.0625 4.9625
0.5625 0.0625 4.9625
0.625 0.0625 4.9625
0.6875 0.0625 4.9625
0.75 0.0625 4.9625
0.8125 0.0625 4.9625
0.875 0.0625 4.9625
0.9375 0.0625 4.9625
1 0.0625 4.9625
1.0625 0.0625 4.9625
1.125 0.0625 4.9625
1.1875 0.0625 4.9625
1.25 0.0625 4.9625
1.3125 0.0625 4.9625
1.375 0.0625 4.9625
1.4375 0.0625 4.9625
1.5 0.0625 4.9625
1.5625 0.0625 4.9625
1.625 0.0625 4.9625
1.6875 0.0625 4.9625
1.75 0.0625 4.9625
1.8125 0.0625 4.9625
1.875 0.0625 4.9625
1.9375 0.0625 4.9625
2 0.0625 4.9625
2.0625 0.0625 4.9625
2.125 0.0625 4.9625
2.1875 0.0625 4.9625
2.25 0.0625 4.9625
2.3125 0.0625 4.9625
2.375 0.0625 4.9625
2.4375 0.0625 4.9625
2.5 0.0625 4.9625
2.5625 0.0625 4.9625
2.625 0.0625 4.9625
2.6875 0.0625 4.9625
2.75 0.0625 4.9625
2.8125 0.0625 4.9625
2.875 0.0625 4.9625
2.9375 0.0625 4.9625
3 0.0625 4.9625
3.0625 0.0625 4.9625
3.125 0.0625 4.9625
3.1875 0.0625 4.9625
3.25 0.0625 4.9625
3.3125 0.0625 4.9625
3.375 0.0625 4.9625
3.4375 0.0625 4.9625
3.5 0.0625 4.9625
3.5625 0.0625 4.9625
3.625 0.0625 4.9625
3.6875 0.0625 4.9625
3.75 0.0625 4.9625
3.8125 0.0625 4.9625
3.875 0.0625 4.9625
3.9375 0.0625 4.9625
4 0.0625 4.9625
0 0.125 4.9625
0.0625 0.125 4.9625
0.125 0.125 4.9625
0.1875 0.125 4.9625
0.25 0.125 4.9625
0.3125 0.125 4.9625
0.375 0.125 4.9625
0.4375 0.125 4.9625
0.5 0.125 4.9625
0.5625 0.125 4.9625
0.625 0.125 4.9625
0.6875 0.125 4.9625
0.75 0.125 4.9625
0.8125 0.125 4.9625
0.875 0.125 4.9625
0.9375 0.125 4.9625
1 0.125 4.9625
1.0625 0.125 4.9625
1.125 0.125 4.9625
1.1875 0.125 4.9625
1.25 0.125 4.9625
1.3125 0.125 4.9625
1.375 0.125 4.9625
1.4375 0.125 4.9625
1.5 0.125 4.9625
1.5625 0.125 4.9625
1.625 0.125 4.9625
1.6875 0.125 4.9625
1.75 0.125 4.9625
1.8125 0.125 4.9625
1.875 0.125 4.9625
1.9375 0.125 4.9625
2 0.125 4.9625
2.0625 0.125 4.9625
2.125 0.125 4.9625
2.1875 0.125 4.9625
2.25 0.125 4.9625
2.3125 0.125 4.9625
2.375 0.125 4.9625
2.4375 0.125 4.9625
2.5 0.125 4.9625
2.5625 0.125 4.9625
2.625 0.125 4.9625
2.6875 0.125 4.9625
2.75 0.125 4.9625
2.8125 0.125 4.9625
2.875 0.125 4.9625
2.9375 0.125 4.9625
3 0.125 4.9625
3.0625 0.125 4.9625
3.125 0.125 4.9625
3.1875 0.125 4.9625
3.25 0.125 4.9625
3.3125 0.125 4.9625
3.375 0.125 4.9625
3.4375 0.125 4.9625
3.5 0.125 4.9625
3.5625 0.125 4.9625
3.625 0.125 4.9625
3.6875 0.125 4.9625
3.75 0.125 4.9625
3.8125 0.125 4.9625
3.875 0.125 4.9625
3.9375 0.125 4.9625
4 0.125 4.9625
0 0.1875 4.9625
0.0625 0.1875 4.9625
0.125 0.1875 4.9625
0.1875 0.1875 4.9625
0.25 0.1875 4.9625
0.3125 0.1875 4.9625
0.375 0.1875 4.9625
0.4375 0.1875 4.9625
0.5 0.1875 4.9625
0.5625 0.1875 4.9625
0.625 0.1875 4.9625
0.6875 0.1875 4.9625
0.75 0.1875 4.9625
0.8125 0.1875 4.9625
0.875 0.1875 4.9625
0.9375 0.1875 4.9625
1 0.1875 4.9625
1.0625 0.1875 4.9625
1.125 0.1875 4.9625
1.1875 0.1875 4.9625
1.25 0.1875 4.9625
1.3125 0.1875 4.9625
1.375 0.1875 4.9625
1.4375 0.1875 4.9625
1.5 0.1875 4.9625
1.5625 0.1875 4.9625
1.625 0.1875 4.9625
1.6875 0.1875 4.9625
1.75 0.1875 4.9625
1.8125 0.1875 4.9625
1.875 0.1875 4.9625
1.9375 0.1875 4.9625
2 0.1875 4.9625
2.0625 0.1875 4.9625
2.125 0.1875 4.9625
2.1875 0.1875 4.9625
2.25 0.1875 4.9625
2.3125 0.1875 4.9625
2.375 0.1875 4.9625
2.4375 0.1875 4.9625
2.5 0.1875 4.9625
2.5625 0.1875 4.9625
2.625 0.1875 4.9625
2.6875 0.1875 4.9625
2.75 0.1875 4.9625
2.8125 0.1875 4.9625
2.875 0.1875 4.9625
2.9375 0.1875 4.9625
3 0.1875 4.9625
3.0625 0.1875 4.9625
3.125 0.1875 4.9625
3.1875 0.1875 4.9625
3.25 0.1875 4.9625
3.3125 0.1875 4.9625
3.375 0.1875 4.9625
3.4375 0.1875 4.9625
3.5 0.1875 4.9625
3.5625 0.1875 4.9625
3.625 0.1875 4.9625
3.6875 0.1875 4.9625
3.75 0.1875 4.9625
3.8125 0.1875 4.9625
3.875 0.1875 4.9625
3.9375 0.1875 4.9625
4 0.1875 4.9625
0 0.25 4.9625
0.0625 0.25 4.9625
0.125 0.25 4.9625
0.1875 0.25 4.9625
0.25 0.25 4.9625
0.3125 0.25 4.9625
0.375 0.25 4.9625
0.4375 0.25 4.9625
0.5 0.25 4.9625
0.5625 0.25 4.9625
0.625 0.25 4.9625
0.6875 0.25 4.9625
0.75 0.25 4.9625
0.8125 0.25 4.9625
0.875 0.25 4.9625
0.9375 0.25 4.9625
1 0.25 4.9625
1.0625 0.25 4.9625
1.125 0.25 4.9625
1.1875 0.25 4.9625
1.25 0.25 4.9625
1.3125 0.25 4.9625
1.375 0.25 4.9625
1.4375 0.25 4.9625
1.5 0.25 4.9625
1.5625 0.25 4.9625
1.625 0.25 4.9625
1.6875 0.25 4.9625
1.75 0.25 4.9625
1.8125 0.25 4.9625
1.875 0.25 4.9625
1.9375 0.25 4.9625
2 0.25 4.9625
2.0625 0.25 4.9625
2.125 0.25 4.9625
2.1875 0.25 4.9625
2.25 0.25 4.9625
2.3125 0.25 4.9625
2.375 0.25 4.9625
2.4375 0.25 4.9625
2.5 0.25 4.9625
2.5625 0.25 4.9625
2.625 0.25 4.9625
2.6875 0.25 4.9625
2.75 0.25 4.9625
2.8125 0.25 4.9625
2.875 0.25 4.9625
2.9375 0.25 4.9625
3 0.25 4.9625
3.0625 0.25 4.9625
3.125 0.25 4.9625
3.1875 0.25 4.9625
3.25 0.25 4.9625
3.3125 0.25 4.9625
3.375 0.25 4.9625
3.4375 0.25 4.9625
3.5 0.25 4.9625
3.5625 0.25 4.9625
3.625 0.25 4.9625
3.6875 0.25 4.9625
3.75 0.25 4.9625
3.8125 0.25 4.9625
3.875 0.25 4.9625
3.9375 0.25 4.9625
4 0.25 4.9625
0 0.3125 4.9625
0.0625 0.3125 4.9625
0.125 0.3125 4.9625
0.1875 0.3125 4.9625
0.25 0.3125 4.9625
0.3125 0.3125 4.9625
0.375 0.3125 4.9625
0.4375 0.3125 4.9625
0.5 0.3125 4.9625
0.5625 0.3125 4.9625
0.625 0.3125 4.9625
0.6875 0.3125 4.9625
0.75 0.3125 4.9625
0.8125 0.3125 4.9625
0.875 0.3125 4.9625
0.9375 0.3125 4.9625
1 0.3125 4.9625
1.0625 0.3125 4.9625
1.125 0.3125 4.9625
1.1875 0.3125 4.9625
1.25 0.3125 4.9625
1.3125 0.3125 4.9625
1.375 0.3125 4.9625
1.4375 0.3125 4.9625
1.5 0.3125 4.9625
1.5625 0.3125 4.9625
1.625 0.3125 4.9625
1.6875 0.3125 4.9625
1.75 0.3125 4.9625
1.8125 0.3125 4.9625
1.875 0.3125 4.9625
1.9375 0.3125 4.9625
2 0.3125 4.9625
2.0625 0.3125 4.9625
2.125 0.3125 4.9625
2.1875 0.3125 4.9625
2.25 0.3125 4.9625
2.3125 0.3125 4.9625
2.375 0.3125 4.9625
2.4375 0.3125 4.9625
2.5 0.3125 4.9625
2.5625 0.3125 4.9625
2.625 0.3125 4.9625
2.6875 0.3125 4.9625
2.75 0.3125 4.9625
2.8125 0.3125 4.9625
2.875 0.3125 4.9625
2.9375 0.3125 4.9625
3 0.3125 4.9625
3.0625 0.3125 4.9625
3.125 0.3125 4.9625
3.1875 0.3125 4.9625
3.25 0.3125 4.9625
3.3125 0.3125 4.9625
3.375 0.3125 4.9625
3.4375 0.3125 4.9625
3.5 0.3125 4.9625
3.5625 0.3125 4.9625
3.625 0.3125 4.9625
3.6875 0.3125 4.9625
3.75 0.3125 4.9625
3.8125 0.3125 4.9625
3.875 0.3125 4.9625
3.9375 0.3125 4.9625
4 0.3125 4.9625
0 0.375 4.9625
0.0625 0.375 4.9625
0.125 0.375 4.9625
0.1875 0.375 4.9625
0.25 0.375 4.9625
0.3125 0.375 4.9625
0.375 0.375 4.9625
0.4375 0.375 4.9625
0.5 0.375 4.9625
0.5625 0.375 4.9625
0.625 0.375 4.9625
0.6875 0.375 4.9625
0.75 0.375 4.9625
0.8125 0.375 4.9625
0.875 0.375 4.9625
0.9375 0.375 4.9625
1 0.375 4.9625
1.0625 0.375 4.9625
1.125 0.375 4.9625
1.1875 0.375 4.9625
1.25 0.375 4.9625
1.3125 0.375 4.9625
1.375 0.375 4.9625
1.4375 0.375 4.9625
1.5 0.375 4.9625
1.5625 0.375 4.9625
1.625 0.375 4.9625
1.6875 0.375 4.9625
1.75 0.375 4.9625
1.8125 0.375 4.9625
1.875 0.375 4.9625
1.9375 0.375 4.9625
2 0.375 4.9625
2.0625 0.375 4.9625
2.125 0.375 4.9625
2.1875 0.375 4.9625
2.25 0.375 4.9625
2.3125 0.375 4.9625
2.375 0.375 4.9625
2.4375 0.375 4.9625
2.5 0.375 4.9625
2.5625 0.375 4.9625
2.625 0.375 4.9625
2.6875 0.375 4.9625
2.75 0.375 4.9625
2.8125 0.375 4.9625
2.875 0.375 4.9625
2.9375 0.375 4.9625
3 0.375 4.9625
3.0625 0.375 4.9625
3.125 0.375 4.9625
3.1875 0.375 4.9625
3.25 0.375 4.9625
3.3125 0.375 4.9625
3.375 0.375 4.9625
3.4375 0.375 4.9625
3.5 0.375 4.9625
3.5625 0.375 4.9625
3.625 0.375 4.9625
3.6875 0.375 4.9625
3.75 0.375 4.9625
3.8125 0.375 4.9625
3.875 0.375 4.9625
3.9375 0.375 4.9625
4 0.375 4.9625
0 0.4375 4.9625
0.0625 0.4375 4.9625
0.125 0.4375 4.9625
0.1875 0.4375 4.9625
0.25 0.4375 4.9625
0.3125 0.4375 4.9625
0.375 0.4375 4.9625
0.4375 0.4375 4.9625
0.5 0.4375 4.9625
0.5625 0.4375 4.9625
0.625 0.4375 4.9625
0.6875 0.4375 4.9625
0.75 0.4375 4.9625
0.8125 0.4375 4.9625
0.875 0.4375 4.9625
0.9375 0.4375 4.9625
1 0.4375 4.9625
1.0625 0.4375 4.9625
1.125 0.4375 4.9625
1.1875 0.4375 4.9625
1.25 0.4375 4.9625
1.3125 0.4375 4.9625
1.375 0.4375 4.9625
1.4375 0.4375 4.9625
1.5 0.4375 4.9625
1.5625 0.4375 4.9625
1.625 0.4375 4.9625
1.6875 0.4375 4.9625
1.75 0.4375 4.9625
1.8125 0.4375 4.9625
1.875 0.4375 4.9625
1.9375 0.4375 4.9625
2 0.4375 4.9625
2.0625 0.4375 4.9625
2.125 0.4375 4.9625
2.1875 0.4375 4.9625
2.25 0.4375 4.9625
2.3125 0.4375 4.9625
2.375 0.4375 4.9625
2.4375 0.4375 4.9625
2.5 0.4375 4.9625
2.5625 0.4375 4.9625
2.625 0.4375 4.9625
2.6875 0.4375 4.9625
2.75 0.4375 4.9625
2.8125 0.4375 4.9625
2.875 0.4375 4.9625
2.9375 0.4375 4.9625
3 0.4375 4.9625
3.0625 0.4375 4.9625
3.125 0.4375 4.9625
3.1875 0.4375 4.9625
3.25 0.4375 4.9625
3.3125 0.4375 4.9625
3.375 0.4375 4.9625
3.4375 0.4375 4.9625
3.5 0.4375 4.9625
3.5625 0.4375 4.9625
3.625 0.4375 4.9625
3.6875 0.4375 4.9625
3.75 0.4375 4.9625
3.8125 0.4375 4.9625
3.875 0.4375 4.9625
3.9375 0.4375 4.9625
4 0.4375 4.9625
0 0.5 4.9625
0.0625 0.5 4.9625
0.125 0.5 4.9625
0.1875 0.5 4.9625
0.25 0.5 4.9625
0.3125 0.5 4.9625
0.375 0.5 4.9625
0.4375 0.5 4.9625
0.5 0.5 4.9625
0.5625 0.5 4.9625
0.625 0.5 4.9625
0.6875 0.5 4.9625
0.75 0.5 4.9625
0.8125 0.5 4.9625
0.875 0.5 4.9625
0.9375 0.5 4.9625
1 0.5 4.9625
1.0625 0.5 4.9625
1.125 0.5 4.9625
1.1875 0.5 4.9625
1.25 0.5 4.9625
1.3125 0.5 4.9625
1.375 0.5 4.9625
1.4375 0.5 4.9625
1.5 0.5 4.9625
1.5625 0.5 4.9625
1.625 0.5 4.9625
1.6875 0.5 4.9625
1.75 0.5 4.9625
1.8125 0.5 4.9625
1.875 0.5 4.9625
1.9375 0.5 4.9625
2 0.5 4.9625
2.0625 0.5 4.9625
2.125 0.5 4.9625
2.1875 0.5 4.9625
2.25 0.5 4.9625
2.3125 0.5 4.9625
2.375 0.5 4.9625
2.4375 0.5 4.9625
2.5 0.5 4.9625
2.5625 0.5 4.9625
2.625 0.5 4.9625
2.6875 0.5 4.9625
2.75 0.5 4.9625
2.8125 0.5 4.9625
2.875 0.5 4.9625
2.9375 0.5 4.9625
3 0.5 4.9625
3.0625 0.5 4.9625
3.125 0.5 4.9625
3.1875 0.5 4.9625
3.25 0.5 4.9625
3.3125 0.5 4.9625
3.375 0.5 4.9625
3.4375 0.5 4.9625
3.5 0.5 4.9625
3.5625 0.5 4.9625
3.625 0.5 4.9625
3.6875 0.5 4.9625
3.75 0.5 4.9625
3.8125 0.5 4.9625
3.875 0.5 4.9625
3.9375 0.5 4.9625
4 0.5 4.9625
0 0.5625 4.9625
0.0625 0.5625 4.9625
0.125 0.5625 4.9625
0.1875 0.5625 4.9625
0.25 0.5625 4.9625
0.3125 0.5625 4.9625
0.375 0.5625 4.9625
0.4375 0.5625 4.9625
0.5 0.5625 4.9625
0.5625 0.5625 4.9625
0.625 0.5625 4.9625
0.6875 0.5625 4.9625
0.75 0.5625 4.9625
0.8125 0.5625 4.9625
0.875 0.5625 4.9625
0.9375 0.5625 4.9625
1 0.5625 4.9625
1.0625 0.5625 4.9625
1.125 0.5625 4.9625
1.1875 0.5625 4.9625
1.25 0.5625 4.9625
1.3125 0.5625 4.9625
1.375 0.5625 4.9625
1.4375 0.5625 4.9625
1.5 0.5625 4.9625
1.5625 0.5625 4.9625
1.625 0.5625 4.9625
1.6875 0.5625 4.9625
1.75 0.5625 4.9625
1.8125 0.5625 4.9625
1.875 0.5625 4.9625
1.9375 0.5625 4.9625
2 0.5625 4.9625
2.0625 0.5625 4.9625
2.125 0.5625 4.9625
2.1875 0.5625 4.9625
2.25 0.5625 4.9625
2.3125 0.5625 4.9625
2.375 0.5625 4.9625
2.4375 0.5625 4.9625
2.5 0.5625 4.9625
2.5625 0.5625 4.9625
2.625 0.5625 4.9625
2.6875 0.5625 4.9625
2.75 0.5625 4.9625
2.8125 0.5625 4.9625
2.875 0.5625 4.9625
2.9375 0.5625 4.9625
3 0.5625 4.9625
3.0625 0.5625 4.9625
3.125 0.5625 4.9625
3.1875 0.5625 4.9625
3.25 0.5625 4.9625
3.3125 0.5625 4.9625
3.375 0.5625 4.9625
3.4375 0.5625 4.9625
3.5 0.5625 4.9625
3.5625 0.5625 4.9625
3.625 0.5625 4.9625
3.6875 0.5625 4.9625
3.75 0.5625 4.9625
3.8125 0.5625 4.9625
3.875 0.5625 4.9625
3.9375 0.5625 4.9625
4 0.5625 4.9625
0 0.625 4.9625
0.0625 0.625 4.9625
0.125 0.625 4.9625
0.1875 0.625 4.9625
0.25 0.625 4.9625
0.3125 0.625 4.9625
0.375 0.625 4.9625
0.4375 0.625 4.9625
0.5 0.625 4.9625
0.5625 0.625 4.9625
0.625 0.625 4.9625
0.6875 0.625 4.9625
0.75 0.625 4.9625
0.8125 0.625 4.9625
0.875 0.625 4.9625
0.9375 0.625 4.9625
1 0.625 4.9625
1.0625 0.625 4.9625
1.125 0.625 4.9625
1.1875 0.625 4.9625
1.25 0.625 4.9625
1.3125 0.625 4.9625
1.375 0.625 4.9625
1.4375 0.625 4.9625
1.5 0.625 4.9625
1.5625 0.625 4.9625
1.625 0.625 4.9625
1.6875 0.625 4.9625
1.75 0.625 4.9625
1.8125 0.625 4.9625
1.875 0.625 4.9625
1.9375 0.625 4.9625
2 0.625 4.9625
2.0625 0.625 4.9625
2.125 0.625 4.9625
2.1875 0.625 4.9625
2.25 0.625 4.9625
2.3125 0.625 4.9625
2.375 0.625 4.9625
2.4375 0.625 4.9625
2.5 0.625 4.9625
2.5625 0.625 4.9625
2.625 0.625 4.9625
2.6875 0.625 4.9625
2.75 0.625 4.9625
2.8125 0.625 4.9625
2.875 0.625 4.9625
2.9375 0.625 4.9625
3 0.625 4.9625
3.0625 0.625 4.9625
3.125 0.625 4.9625
3.1875 0.625 4.9625
3.25 0.625 4.9625
3.3125 0.625 4.9625
3.375 0.625 4.9625
3.4375 0.625 4.9625
3.5 0.625 4.9625
3.5625 0.625 4.9625
3.625 0.625 4.9625
3.6875 0.625 4.9625
3.75 0.625 4.9625
3.8125 0.625 4.9625
3.875 0.625 4.9625
3.9375 0.625 4.9625
4 0.625 4.9625
0 0.6875 4.9625
0.0625 0.6875 4.9625
0.125 0.6875 4.9625
0.1875 0.6875 4.9625
0.25 0.6875 4.9625
0.3125 0.6875 4.9625
0.375 0.6875 4.9625
0.4375 0.6875 4.9625
0.5 0.6875 4.9625
0.5625 0.6875 4.9625
0.625 0.6875 4.9625
0.6875 0.6875 4.9625
0.75 0.6875 4.9625
0.8125 0.6875 4.9625
0.875 0.6875 4.9625
0.9375 0.6875 4.9625
1 0.6875 4.9625
1.0625 0.6875 4.9625
1.125 0.6875 4.9625
1.1875 0.6875 4.9625
1.25 0.6875 4.9625
1.3125 0.6875 4.9625
1.375 0.6875 4.9625
1.4375 0.6875 4.9625
1.5 0.6875 4.9625
1.5625 0.6875 4.9625
1.625 0.6875 4.9625
1.6875 0.6875 4.9625
1.75 0.6875 4.9625
1.8125 0.6875 4.9625
1.875 0.6875 4.9625
1.9375 0.6875 4.9625
2 0.6875 4.9625
2.0625 0.6875 4.9625
2.125 0.6875 4.9625
2.1875 0.6875 4.9625
2.25 0.6875 4.9625
2.3125 0.6875 4.9625
2.375 0.6875 4.9625
2.4375 0.6875 4.9625
2.5 0.6875 4.9625
2.5625 0.6875 4.9625
2.625 0.6875 4.9625
2.6875 0.6875 4.9625
2.75 0.6875 4.9625
2.8125 0.6875 4.9625
2.875 0.6875 4.9625
2.9375 0.6875 4.9625
3 0.6875 4.9625
3.0625 0.6875 4.9625
3.125 0.6875 4.9625
3.1875 0.6875 4.9625
3.25 0.6875 4.9625
3.3125 0.6875 4.9625
3.375 0.6875 4.9625
3.4375 0.6875 4.9625
3.5 0.6875 4.9625
3.5625 0.6875 4.9625
3.625 0.6875 4.9625
3.6875 0.6875 4.9625
3.75 0.6875 4.9625
3.8125 0.6875 4.9625
3.875 0.6875 4.9625
3.9375 0.6875 4.9625
4 0.6875 4.9625
0 0.75 4.9625
0.0625 0.75 4.9625
0.125 0.75 4.9625
0.1875 0.75 4.9625
0.25 0.75 4.9625
0.3125 0.75 4.9625
0.375 0.75 4.9625
0.4375 0.75 4.9625
0.5 0.75 4.9625
0.5625 0.75 4.9625
0.625 0.75 4.9625
0.6875 0.75 4.9625
0.75 0.75 4.9625
0.8125 0.75 4.9625
0.875 0.75 4.9625
0.9375 0.75 4.9625
1 0.75 4.9625
1.0625 0.75 4.9625
1.125 0.75 4.9625
1.1875 0.75 4.9625
1.25 0.75 4.9625
1.3125 0.75 4.9625
1.375 0.75 4.9625
1.4375 0.75 4.9625
1.5 0.75 4.9625
1.5625 0.75 4.9625
1.625 0.75 4.9625
1.6875 0.75 4.9625
1.75 0.75 4.9625
1.8125 0.75 4.9625
1.875 0.75 4.9625
1.9375 0.75 4.9625
2 0.75 4.9625
2.0625 0.75 4.9625
2.125 0.75 4.9625
2.1875 0.75 4.9625
2.25 0.75 4.9625
2.3125 0.75 4.9625
2.375 0.75 4.9625
2.4375 0.75 4.9625
2.5 0.75 4.9625
2.5625 0.75 4.9625
2.625 0.75 4.9625
2.6875 0.75 4.9625
2.75 0.75 4.9625
2.8125 0.75 4.9625
2.875 0.75 4.9625
2.9375 0.75 4.9625
3 0.75 4.9625
3.0625 0.75 4.9625
3.125 0.75 4.9625
3.1875 0.75 4.9625
3.25 0.75 4.9625
3.3125 0.75 4.9625
3.375 0.75 4.9625
3.4375 0.75 4.9625
3.5 0.75 4.9625
3.5625 0.75 4.9625
3.625 0.75 4.9625
3.6875 0.75 4.9625
3.75 0.75 4.9625
3.8125 0.75 4.9625
3.875 0.75 4.9625
3.9375 0.75 4.9625
4 0.75 4.9625
0 0.8125 4.9625
0.0625 0.8125 4.9625
0.125 0.8125 4.9625
0.1875 0.8125 4.9625
0.25 0.8125 4.9625
0.3125 0.8125 4.9625
0.375 0.8125 4.9625
0.4375 0.8125 4.9625
0.5 0.8125 4.9625
0.5625 0.8125 4.9625
0.625 0.8125 4.9625
0.6875 0.8125 4.9625
0.75 0.8125 4.9625
0.8125 0.8125 4.9625
0.875 0.8125 4.9625
0.9375 0.8125 4.9625
1 0.8125 4.9625
1.0625 0.8125 4.9625
1.125 0.8125 4.9625
1.1875 0.8125 4.9625
1.25 0.8125 4.9625
1.3125 0.8125 4.9625
1.375 0.8125 4.9625
1.4375 0.8125 4.9625
1.5 0.8125 4.9625
1.5625 0.8125 4.9625
1.625 0.8125 4.9625
1.6875 0.8125 4.9625
1.75 0.8125 4.9625
1.8125 0.8125 4.9625
1.875 0.8125 4.9625
1.9375 0.8125 4.9625
2 0.8125 4.9625
2.0625 0.8125 4.9625
2.125 0.8125 4.9625
2.1875 0.8125 4.9625
2.25 0.8125 4.9625
2.3125 0.8125 4.9625
2.375 0.8125 4.9625
2.4375 0.8125 4.9625
2.5 0.8125 4.9625
2.5625 0.8125 4.9625
2.625 0.8125 4.9625
2.6875 0.8125 4.9625
2.75 0.8125 4.9625
2.8125 0.8125 4.9625
2.875 0.8125 4.9625
2.9375 0.8125 4.9625
3 0.8125 4.9625
3.0625 0.8125 4.9625
3.125 0.8125 4.9625
3.1875 0.8125 4.9625
3.25 0.8125 4.9625
3.3125 0.8125 4.9625
3.375 0.8125 4.9625
3.4375 0.8125 4.9625
3.5 0.8125 4.9625
3.5625 0.8125 4.9625
3.625 0.8125 4.9625
3.6875 0.8125 4.9625
3.75 0.8125 4.9625
3.8125 0.8125 4.9625
3.875 0.8125 4.9625
3.9375 0.8125 4.9625
4 0.8125 4.9625
0 0.875 4.9625
0.0625 0.875 4.9625
0.125 0.875 4.9625
0.1875 0.875 4.9625
0.25 0.875 4.9625
0.3125 0.875 4.9625
0.375 0.875 4.9625
0.4375 0.875 4.9625
0.5 0.875 4.9625
0.5625 0.875 4.9625
0.625 0.875 4.9625
0.6875 0.875 4.9625
0.75 0.875 4.9625
0.8125 0.875 4.9625
0.875 0.875 4.9625
0.9375 0.875 4.9625
1 0.875 4.9625
1.0625 0.875 4.9625
1.125 0.875 4.9625
1.1875 0.875 4.9625
1.25 0.875 4.9625
1.3125 0.875 4.9625
1.375 0.875 4.9625
1.4375 0.875 4.9625
1.5 0.875 4.9625
1.5625 0.875 4.9625
1.625 0.875 4.9625
1.6875 0.875 4.9625
1.75 0.875 4.9625
1.8125 0.875 4.9625
1.875 0.875 4.9625
1.9375 0.875 4.9625
2 0.875 4.9625
2.0625 0.875 4.9625
2.125 0.875 4.9625
2.1875 0.875 4.9625
2.25 0.875 4.9625
2.3125 0.875 4.9625
2.375 0.875 4.9625
2.4375 0.875 4.9625
2.5 0.875 4.9625
2.5625 0.875 4.9625
2.625 0.875 4.9625
2.6875 0.875 4.9625
2.75 0.875 4.9625
2.8125 0.875 4.9625
2.875 0.875 4.9625
2.9375 0.875 4.9625
3 0.875 4.9625
3.0625 0.875 4.9625
3.125 0.875 4.9625
3.1875 0.875 4.9625
3.25 0.875 4.9625
3.3125 0.875 4.9625
3.375 0.875 4.9625
3.4375 0.875 4.9625
3.5 0.875 4.9625
3.5625 0.875 4.9625
3.625 0.875 4.9625
3.6875 0.875 4.9625
3.75 0.875 4.9625
3.8125 0.875 4.9625
3.875 0.875 4.9625
3.9375 0.875 4.9625
4 0.875 4.9625
0 0.9375 4.9625
0.0625 0.9375 4.9625
0.125 0.9375 4.9625
0.1875 0.9375 4.9625
0.25 0.9375 4.9625
0.3125 0.9375 4.9625
0.375 0.9375 4.9625
0.4375 0.9375 4.9625
0.5 0.9375 4.9625
0.5625 0.9375 4.9625
0.625 0.9375 4.9625
0.6875 0.9375 4.9625
0.75 0.9375 4.9625
0.8125 0.9375 4.9625
0.875 0.9375 4.9625
0.9375 0.9375 4.9625
1 0.9375 4.9625
1.0625 0.9375 4.9625
1.125 0.9375 4.9625
1.1875 0.9375 4.9625
1.25 0.9375 4.9625
1.3125 0.9375 4.9625
1.375 0.9375 4.9625
1.4375 0.9375 4.9625
1.5 0.9375 4.9625
1.5625 0.9375 4.9625
1.625 0.9375 4.9625
1.6875 0.9375 4.9625
1.75 0.9375 4.9625
1.8125 0.9375 4.9625
1.875 0.9375 4.9625
1.9375 0.9375 4.9625
2 0.9375 4.9625
2.0625 0.9375 4.9625
2.125 0.9375 4.9625
2.1875 0.9375 4.9625
2.25 0.9375 4.9625
2.3125 0.9375 4.9625
2.375 0.9375 4.9625
2.4375 0.9375 4.9625
2.5 0.9375 4.9625
2.5625 0.9375 4.9625
2.625 0.9375 4.9625
2.6875 0.9375 4.9625
2.75 0.9375 4.9625
2.8125 0.9375 4.9625
2.875 0.9375 4.9625
2.9375 0.9375 4.9625
3 0.9375 4.9625
3.0625 0.9375 4.9625
3.125 0.9375 4.9625
3.1875 0.9375 4.9625
3.25 0.9375 4.9625
3.3125 0.9375 4.9625
3.375 0.9375 4.9625
3.4375 0.9375 4.9625
3.5 0.9375 4.9625
3.5625 0.9375 4.9625
3.625 0.9375 4.9625
3.6875 0.9375 4.9625
3.75 0.9375 4.9625
3.8125 0.9375 4.9625
3.875 0.9375 4.9625
3.9375 0.9375 4.9625
4 0.9375 4.9625
0 1 4.9625
0.0625 1 4.9625
0.125 1 4.9625
0.1875 1 4.9625
0.25 1 4.9625
0.3125 1 4.9625
0.375 1 4.9625
0.4375 1 4.9625
0.5 1 4.9625
0.5625 1 4.9625
0.625 1 4.9625
0.6875 1 4.9625
0.75 1 4.9625
0.8125 1 4.9625
0.875 1 4.9625
0.9375 1 4.9625
1 1 4.9625
1.0625 1 4.9625
1.125 1 4.9625
1.1875 1 4.9625
1.25 1 4.9625
1.3125 1 4.9625
1.375 1 4.9625
1.4375 1 4.9625
1.5 1 4.9625
1.5625 1 4.9625
1.625 1 4.9625
1.6875 1 4.9625
1.75 1 4.9625
1.8125 1 4.9625
1.875 1 4.9625
1.9375 1 4.9625
2 1 4.9625
2.0625 1 4.9625
2.125 1 4.9625
2.1875 1 4.9625
2.25 1 4.9625
2.3125 1 4.9625
2.375 1 4.9625
2.4375 1 4.9625
2.5 1 4.9625
2.5625 1 4.9625
2.625 1 4.9625
2.6875 1 4.9625
2.75 1 4.9625
2.8125 1 4.9625
2.875 1 4.9625
2.9375 1 4.9625
3 1 4.9625
3.0625 1 4.9625
3.125 1 4.9625
3.1875 1 4.9625
3.25 1 4.9625
3.3125 1 4.9625
3.375 1 4.9625
3.4375 1 4.9625
3.5 1 4.9625
3.5625 1 4.9625
3.625 1 4.9625
3.6875 1 4.9625
3.75 1 4.9625
3.8125 1 4.9625
3.875 1 4.9625
3.9375 1 4.9625
4 1 4.9625
0 0 5.025
0.0625 0 5.025
0.125 0 5.025
0.1875 0 5.025
0.25 0 5.025
0.3125 0 5.025
0.375 0 5.025
0.4375 0 5.025
0.5 0 5.025
0.5625 0 5.025
0.625 0 5.025
0.6875 0 5.025
0.75 0 5.025
0.8125 0 5.025
0.875 0 5.025
0.9375 0 5.025
1 0 5.025
1.0625 0 5.025
1.125 0 5.025
1.1875 0 5.025
1.25 0 5.025
1.3125 0 5.025
1.375 0 5.025
1.4375 0 5.025
1.5 0 5.025
1.5625 0 5.025
1.625 0 5.025
1.6875 0 5.025
1.75 0 5.025
1.8125 0 5.025
1.875 0 5.025
1.9375 0 5.025
2 0 5.025
2.0625 0 5.025
2.125 0 5.025
2.1875 0 5.025
2.25 0 5.025
2.3125 0 5.025
2.375 0 5.025
2.4375 0 5.025
2.5 0 5.025
2.5625 0 5.025
2.625 0 5.025
2.6875 0 5.025
2.75 0 5.025
2.8125 0 5.025
2.875 0 5.025
2.9375 0 5.025
3 0 5.025
3.0625 0 5.025
3.125 0 5.025
3.1875 0 5.025
3.25 0 5.025
3.3125 0 5.025
3.375 0 5.025
3.4375 0 5.025
3.5 0 5.025
3.5625 0 5.025
3.625 0 5.025
3.6875 0 5.025
3.75 0 5.025
3.8125 0 5.025
3.875 0 5.025
3.9375 0 5.025
4 0 5.025
0 0.0625 5.025
0.0625 0.0625 5.025
0.125 0.0625 5.025
0.1875 0.0625 5.025
0.25 0.0625 5.025
0.3125 0.0625 5.025
0.375 0.0625 5.025
0.4375 0.0625 5.025
0.5 0.0625 5.025
0.5625 0.0625 5.025
0.625 0.0625 5.025
0.6875 0.0625 5.025
0.75 0.0625 5.025
0.8125 0.0625 5.025
0.875 0.0625 5.025
0.9375 0.0625 5.025
1 0.0625 5.025
1.0625 0.0625 5.025
1.125 0.0625 5.025
1.1875 0.0625 5.025
1.25 0.0625 5.025
1.3125 0.0625 5.025
1.375 0.0625 5.025
1.4375 0.0625 5.025
1.5 0.0625 5.025
1.5625 0.0625 5.025
1.625 0.0625 5.025
1.6875 0.0625 5.025
1.75 0.0625 5.025
1.8125 0.0625 5.025
1.875 0.0625 5.025
1.9375 0.0625 5.025
2 0.0625 5.025
2.0625 0.0625 5.025
2.125 0.0625 5.025
2.1875 0.0625 5.025
2.25 0.0625 5.025
2.3125 0.0625 5.025
2.375 0.0625 5.025
2.4375 0.0625 5.025
2.5 0.0625 5.025
2.5625 0.0625 5.025
2.625 0.0625 5.025
2.6875 0.0625 5.025
2.75 0.0625 5.025
2.8125 0.0625 5.025
2.875 0.0625 5.025
2.9375 0.0625 5.025
3 0.0625 5.025
3.0625 0.0625 5.025
3.125 0.0625 5.025
3.1875 0.0625 5.025
3.25 0.0625 5.025
3.3125 0.0625 5.025
3.375 0.0625 5.025
3.4375 0.0625 5.025
3.5 0.0625 5.025
3.5625 0.0625 5.025
3.625 0.0625 5.025
3.6875 0.0625 5.025
3.75 0.0625 5.025
3.8125 0.0625 5.025
3.875 0.0625 5.025
3.9375 0.0625 5.025
4 0.0625 5.025
0 0.125 5.025
0.0625 0.125 5.025
0.125 0.125 5.025
0.1875 0.125 5.025
0.25 0.125 5.025
0.3125 0.125 5.025
0.375 0.125 5.025
0.4375 0.125 5.025
0.5 0.125 5.025
0.5625 0.125 5.025
0.625 0.125 5.025
0.6875 0.125 5.025
0.75 0.125 5.025
0.8125 0.125 5.025
0.875 0.125 5.025
0.9375 0.125 5.025
1 0.125 5.025
1.0625 0.125 5.025
1.125 0.125 5.025
1.1875 0.125 5.025
1.25 0.125 5.025
1.3125 0.125 5.025
1.375 0.125 5.025
1.4375 0.125 5.025
1.5 0.125 5.025
1.5625 0.125 5.025
1.625 0.125 5.025
1.6875 0.125 5.025
1.75 0.125 5.025
1.8125 0.125 5.025
1.875 0.125 5.025
1.9375 0.125 5.025
2 0.125 5.025
2.0625 0.125 5.025
2.125 0.125 5.025
2.1875 0.125 5.025
2.25 0.125 5.025
2.3125 0.125 5.025
2.375 0.125 5.025
2.4375 0.125 5.025
2.5 0.125 5.025
2.5625 0.125 5.025
2.625 0.125 5.025
2.6875 0.125 5.025
2.75 0.125 5.025
2.8125 0.125 5.025
2.875 0.125 5.025
2.9375 0.125 5.025
3 0.125 5.025
3.0625 0.125 5.025
3.125 0.125 5.025
3.1875 0.125 5.025
3.25 0.125 5.025
3.3125 0.125 5.025
3.375 0.125 5.025
3.4375 0.125 5.025
3.5 0.125 5.025
3.5625 0.125 5.025
3.625 0.125 5.025
3.6875 0.125 5.025
3.75 0.125 5.025
3.8125 0.125 5.025
3.875 0.125 5.025
3.9375 0.125 5.025
4 0.125 5.025
0 0.1875 5.025
0.0625 0.1875 5.025
0.125 0.1875 5.025
0.1875 0.1875 5.025
0.25 0.1875 5.025
0.3125 0.1875 5.025
0.375 0.1875 5.025
0.4375 0.1875 5.025
0.5 0.1875 5.025
0.5625 0.1875 5.025
0.625 0.1875 5.025
0.6875 0.1875 5.025
0.75 0.1875 5.025
0.8125 0.1875 5.025
0.875 0.1875 5.025
0.9375 0.1875 5.025
1 0.1875 5.025
1.0625 0.1875 5.025
1.125 0.1875 5.025
1.1875 0.1875 5.025
1.25 0.1875 5.025
1.3125 0.1875 5.025
1.375 0.1875 5.025
1.4375 0.1875 5.025
1.5 0.1875 5.025
1.5625 0.1875 5.025
1.625 0.1875 5.025
1.6875 0.1875 5.025
1.75 0.1875 5.025
1.8125 0.1875 5.025
1.875 0.1875 5.025
1.9375 0.1875 5.025
2 0.1875 5.025
2.0625 0.1875 5.025
2.125 0.1875 5.025
2.1875 0.1875 5.025
2.25 0.1875 5.025
2.3125 0.1875 5.025
2.375 0.1875 5.025
2.4375 0.1875 5.025
2.5 0.1875 5.025
2.5625 0.1875 5.025
2.625 0.1875 5.025
2.6875 0.1875 5.025
2.75 0.1875 5.025
2.8125 0.1875 5.025
2.875 0.1875 5.025
2.9375 0.1875 5.025
3 0.1875 5.025
3.0625 0.1875 5.025
3.125 0.1875 5.025
3.1875 0.1875 5.025
3.25 0.1875 5.025
3.3125 0.1875 5.025
3.375 0.1875 5.025
3.4375 0.1875 5.025
3.5 0.1875 5.025
3.5625 0.1875 5.025
3.625 0.1875 5.025
3.6875 0.1875 5.025
3.75 0.1875 5.025
3.8125 0.1875 5.025
3.875 0.1875 5.025
3.9375 0.1875 5.025
4 0.1875 5.025
0 0.25 5.025
0.0625 0.25 5.025
0.125 0.25 5.025
0.1875 0.25 5.025
0.25 0.25 5.025
0.3125 0.25 5.025
0.375 0.25 5.025
0.4375 0.25 5.025
0.5 0.25 5.025
0.5625 0.25 5.025
0.625 0.25 5.025
0.6875 0.25 5.025
0.75 0.25 5.025
0.8125 0.25 5.025
0.875 0.25 5.025
0.9375 0.25 5.025
1 0.25 5.025
1.0625 0.25 5.025
1.125 0.25 5.025
1.1875 0.25 5.025
1.25 0.25 5.025
1.3125 0.25 5.025
1.375 0.25 5.025
1.4375 0.25 5.025
1.5 0.25 5.025
1.5625 0.25 5.025
1.625 0.25 5.025
1.6875 0.25 5.025
1.75 0.25 5.025
1.8125 0.25 5.025
1.875 0.25 5.025
1.9375 0.25 5.025
2 0.25 5.025
2.0625 0.25 5.025
2.125 0.25 5.025
2.1875 0.25 5.025
2.25 0.25 5.025
2.3125 0.25 5.025
2.375 0.25 5.025
2.4375 0.25 5.025
2.5 0.25 5.025
2.5625 0.25 5.025
2.625 0.25 5.025
2.6875 0.25 5.025
2.75 0.25 5.025
2.8125 0.25 5.025
2.875 0.25 5.025
2.9375 0.25 5.025
3 0.25 5.025
3.0625 0.25 5.025
3.125 0.25 5.025
3.1875 0.25 5.025
3.25 0.25 5.025
3.3125 0.25 5.025
3.375 0.25 5.025
3.4375 0.25 5.025
3.5 0.25 5.025
3.5625 0.25 5.025
3.625 0.25 5.025
3.6875 0.25 5.025
3.75 0.25 5.025
3.8125 0.25 5.025
3.875 0.25 5.025
3.9375 0.25 5.025
4 0.25 5.025
0 0.3125 5.025
0.0625 0.3125 5.025
0.125 0.3125 5.025
0.1875 0.3125 5.025
0.25 0.3125 5.025
0.3125 0.3125 5.025
0.375 0.3125 5.025
0.4375 0.3125 5.025
0.5 0.3125 5.025
0.5625 0.3125 5.025
0.625 0.3125 5.025
0.6875 0.3125 5.025
0.75 0.3125 5.025
0.8125 0.3125 5.025
0.875 0.3125 5.025
0.9375 0.3125 5.025
1 0.3125 5.025
1.0625 0.3125 5.025
1.125 0.3125 5.025
1.1875 0.3125 5.025
1.25 0.3125 5.025
1.3125 0.3125 5.025
1.375 0.3125 5.025
1.4375 0.3125 5.025
1.5 0.3125 5.025
1.5625 0.3125 5.025
1.625 0.3125 5.025
1.6875 0.3125 5.025
1.75 0.3125 5.025
1.8125 0.3125 5.025
1.875 0.3125 5.025
1.9375 0.3125 5.025
2 0.3125 5.025
2.0625 0.3125 5.025
2.125 0.3125 5.025
2.1875 0.3125 5.025
2.25 0.3125 5.025
2.3125 0.3125 5.025
2.375 0.3125 5.025
2.4375 0.3125 5.025
2.5 0.3125 5.025
2.5625 0.3125 5.025
2.625 0.3125 5.025
2.6875 0.3125 5.025
2.75 0.3125 5.025
2.8125 0.3125 5.025
2.875 0.3125 5.025
2.9375 0.3125 5.025
3 0.3125 5.025
3.0625 0.3125 5.025
3.125 0.3125 5.025
3.1875 0.3125 5.025
3.25 0.3125 5.025
3.3125 0.3125 5.025
3.375 0.3125 5.025
3.4375 0.3125 5.025
3.5 0.3125 5.025
3.5625 0.3125 5.025
3.625 0.3125 5.025
3.6875 0.3125 5.025
3.75 0.3125 5.025
3.8125 0.3125 5.025
3.875 0.3125 5.025
3.9375 0.3125 5.025
4 0.3125 5.025
0 0.375 5.025
0.0625 0.375 5.025
0.125 0.375 5.025
0.1875 0.375 5.025
0.25 0.375 5.025
0.3125 0.375 5.025
0.375 0.375 5.025
0.4375 0.375 5.025
0.5 0.375 5.025
0.5625 0.375 5.025
0.625 0.375 5.025
0.6875 0.375 5.025
0.75 0.375 5.025
0.8125 0.375 5.025
0.875 0.375 5.025
0.9375 0.375 5.025
1 0.375 5.025
1.0625 0.375 5.025
1.125 0.375 5.025
1.1875 0.375 5.025
1.25 0.375 5.025
1.3125 0.375 5.025
1.375 0.375 5.025
1.4375 0.375 5.025
1.5 0.375 5.025
1.5625 0.375 5.025
1.625 0.375 5.025
1.6875 0.375 5.025
1.75 0.375 5.025
1.8125 0.375 5.025
1.875 0.375 5.025
1.9375 0.375 5.025
2 0.375 5.025
2.0625 0.375 5.025
2.125 0.375 5.025
2.1875 0.375 5.025
2.25 0.375 5.025
2.3125 0.375 5.025
2.375 0.375 5.025
2.4375 0.375 5.025
2.5 0.375 5.025
2.5625 0.375 5.025
2.625 0.375 5.025
2.6875 0.375 5.025
2.75 0.375 5.025
2.8125 0.375 5.025
2.875 0.375 5.025
2.9375 0.375 5.025
3 0.375 5.025
3.0625 0.375 5.025
3.125 0.375 5.025
3.1875 0.375 5.025
3.25 0.375 5.025
3.3125 0.375 5.025
3.375 0.375 5.025
3.4375 0.375 5.025
3.5 0.375 5.025
3.5625 0.375 5.025
3.625 0.375 5.025
3.6875 0.375 5.025
3.75 0.375 5.025
3.8125 0.375 5.025
3.875 0.375 5.025
3.9375 0.375 5.025
4 0.375 5.025
0 0.4375 5.025
0.0625 0.4375 5.025
0.125 0.4375 5.025
0.1875 0.4375 5.025
0.25 0.4375 5.025
0.3125 0.4375 5.025
0.375 0.4375 5.025
0.4375 0.4375 5.025
0.5 0.4375 5.025
0.5625 0.4375 5.025
0.625 0.4375 5.025
0.6875 0.4375 5.025
0.75 0.4375 5.025
0.8125 0.4375 5.025
0.875 0.4375 5.025
0.9375 0.4375 5.025
1 0.4375 5.025
1.0625 0.4375 5.025
1.125 0.4375 5.025
1.1875 0.4375 5.025
1.25 0.4375 5.025
1.3125 0.4375 5.025
1.375 0.4375 5.025
1.4375 0.4375 5.025
1.5 0.4375 5.025
1.5625 0.4375 5.025
1.625 0.4375 5.025
1.6875 0.4375 5.025
1.75 0.4375 5.025
1.8125 0.4375 5.025
1.875 0.4375 5.025
1.9375 0.4375 5.025
2 0.4375 5.025
2.0625 0.4375 5.025
2.125 0.4375 5.025
2.1875 0.4375 5.025
2.25 0.4375 5.025
2.3125 0.4375 5.025
2.375 0.4375 5.025
2.4375 0.4375 5.025
2.5 0.4375 5.025
2.5625 0.4375 5.025
2.625 0.4375 5.025
2.6875 0.4375 5.025
2.75 0.4375 5.025
2.8125 0.4375 5.025
2.875 0.4375 5.025
2.9375 0.4375 5.025
3 0.4375 5.025
3.0625 0.4375 5.025
3.125 0.4375 5.025
3.1875 0.4375 5.025
3.25 0.4375 5.025
3.3125 0.4375 5.025
3.375 0.4375 5.025
3.4375 0.4375 5.025
3.5 0.4375 5.025
3.5625 0.4375 5.025
3.625 0.4375 5.025
3.6875 0.4375 5.025
3.75 0.4375 5.025
3.8125 0.4375 5.025
3.875 0.4375 5.025
3.9375 0.4375 5.025
4 0.4375 5.025
0 0.5 5.025
0.0625 0.5 5.025
0.125 0.5 5.025
0.1875 0.5 5.025
0.25 0.5 5.025
0.3125 0.5 5.025
0.375 0.5 5.025
0.4375 0.5 5.025
0.5 0.5 5.025
0.5625 0.5 5.025
0.625 0.5 5.025
0.6875 0.5 5.025
0.75 0.5 5.025
0.8125 0.5 5.025
0.875 0.5 5.025
0.9375 0.5 5.025
1 0.5 5.025
1.0625 0.5 5.025
1.125 0.5 5.025
1.1875 0.5 5.025
1.25 0.5 5.025
1.3125 0.5 5.025
1.375 0.5 5.025
1.4375 0.5 5.025
1.5 0.5 5.025
1.5625 0.5 5.025
1.625 0.5 5.025
1.6875 0.5 5.025
1.75 0.5 5.025
1.8125 0.5 5.025
1.875 0.5 5.025
1.9375 0.5 5.025
2 0.5 5.025
2.0625 0.5 5.025
2.125 0.5 5.025
2.1875 0.5 5.025
2.25 0.5 5.025
2.3125 0.5 5.025
2.375 0.5 5.025
2.4375 0.5 5.025
2.5 0.5 5.025
2.5625 0.5 5.025
2.625 0.5 5.025
2.6875 0.5 5.025
2.75 0.5 5.025
2.8125 0.5 5.025
2.875 0.5 5.025
2.9375 0.5 5.025
3 0.5 5.025
3.0625 0.5 5.025
3.125 0.5 5.025
3.1875 0.5 5.025
3.25 0.5 5.025
3.3125 0.5 5.025
3.375 0.5 5.025
3.4375 0.5 5.025
3.5 0.5 5.025
3.5625 0.5 5.025
3.625 0.5 5.025
3.6875 0.5 5.025
3.75 0.5 5.025
3.8125 0.5 5.025
3.875 0.5 5.025
3.9375 0.5 5.025
4 0.5 5.025
0 0.5625 5.025
0.0625 0.5625 5.025
0.125 0.5625 5.025
0.1875 0.5625 5.025
0.25 0.5625 5.025
0.3125 0.5625 5.025
0.375 0.5625 5.025
0.4375 0.5625 5.025
0.5 0.5625 5.025
0.5625 0.5625 5.025
0.625 0.5625 5.025
0.6875 0.5625 5.025
0.75 0.5625 5.025
0.8125 0.5625 5.025
0.875 0.5625 5.025
0.9375 0.5625 5.025
1 0.5625 5.025
1.0625 0.5625 5.025
1.125 0.5625 5.025
1.1875 0.5625 5.025
1.25 0.5625 5.025
1.3125 0.5625 5.025
1.375 0.5625 5.025
1.4375 0.5625 5.025
1.5 0.5625 5.025
1.5625 0.5625 5.025
1.625 0.5625 5.025
1.6875 0.5625 5.025
1.75 0.5625 5.025
1.8125 0.5625 5.025
1.875 0.5625 5.025
1.9375 0.5625 5.025
2 0.5625 5.025
2.0625 0.5625 5.025
2.125 0.5625 5.025
2.1875 0.5625 5.025
2.25 0.5625 5.025
2.3125 0.5625 5.025
2.375 0.5625 5.025
2.4375 0.5625 5.025
2.5 0.5625 5.025
2.5625 0.5625 5.025
2.625 0.5625 5.025
2.6875 0.5625 5.025
2.75 0.5625 5.025
2.8125 0.5625 5.025
2.875 0.5625 5.025
2.9375 0.5625 5.025
3 0.5625 5.025
3.0625 0.5625 5.025
3.125 0.5625 5.025
3.1875 0.5625 5.025
3.25 0.5625 5.025
3.3125 0.5625 5.025
3.375 0.5625 5.025
3.4375 0.5625 5.025
3.5 0.5625 5.025
3.5625 0.5625 5.025
3.625 0.5625 5.025
3.6875 0.5625 5.025
3.75 0.5625 5.025
3.8125 0.5625 5.025
3.875 0.5625 5.025
3.9375 0.5625 5.025
4 0.5625 5.025
0 0.625 5.025
0.0625 0.625 5.025
0.125 0.625 5.025
0.1875 0.625 5.025
0.25 0.625 5.025
0.3125 0.625 5.025
0.375 0.625 5.025
0.4375 0.625 5.025
0.5 0.625 5.025
0.5625 0.625 5.025
0.625 0.625 5.025
0.6875 0.625 5.025
0.75 0.625 5.025
0.8125 0.625 5.025
0.875 0.625 5.025
0.9375 0.625 5.025
1 0.625 5.025
1.0625 0.625 5.025
1.125 0.625 5.025
1.1875 0.625 5.025
1.25 0.625 5.025
1.3125 0.625 5.025
1.375 0.625 5.025
1.4375 0.625 5.025
1.5 0.625 5.025
1.5625 0.625 5.025
1.625 0.625 5.025
1.6875 0.625 5.025
1.75 0.625 5.025
1.8125 0.625 5.025
1.875 0.625 5.025
1.9375 0.625 5.025
2 0.625 5.025
2.0625 0.625 5.025
2.125 0.625 5.025
2.1875 0.625 5.025
2.25 0.625 5.025
2.3125 0.625 5.025
2.375 0.625 5.025
2.4375 0.625 5.025
2.5 0.625 5.025
2.5625 0.625 5.025
2.625 0.625 5.025
2.6875 0.625 5.025
2.75 0.625 5.025
2.8125 0.625 5.025
2.875 0.625 5.025
2.9375 0.625 5.025
3 0.625 5.025
3.0625 0.625 5.025
3.125 0.625 5.025
3.1875 0.625 5.025
3.25 0.625 5.025
3.3125 0.625 5.025
3.375 0.625 5.025
3.4375 0.625 5.025
3.5 0.625 5.025
3.5625 0.625 5.025
3.625 0.625 5.025
3.6875 0.625 5.025
3.75 0.625 5.025
3.8125 0.625 5.025
3.875 0.625 5.025
3.9375 0.625 5.025
4 0.625 5.025
0 0.6875 5.025
0.0625 0.6875 5.025
0.125 0.6875 5.025
0.1875 0.6875 5.025
0.25 0.6875 5.025
0.3125 0.6875 5.025
0.375 0.6875 5.025
0.4375 0.6875 5.025
0.5 0.6875 5.025
0.5625 0.6875 5.025
0.625 0.6875 5.025
0.6875 0.6875 5.025
0.75 0.6875 5.025
0.8125 0.6875 5.025
0.875 0.6875 5.025
0.9375 0.6875 5.025
1 0.6875 5.025
1.0625 0.6875 5.025
1.125 0.6875 5.025
1.1875 0.6875 5.025
1.25 0.6875 5.025
1.3125 0.6875 5.025
1.375 0.6875 5.025
1.4375 0.6875 5.025
1.5 0.6875 5.025
1.5625 0.6875 5.025
1.625 0.6875 5.025
1.6875 0.6875 5.025
1.75 0.6875 5.025
1.8125 0.6875 5.025
1.875 0.6875 5.025
1.9375 0.6875 5.025
2 0.6875 5.025
2.0625 0.6875 5.025
2.125 0.6875 5.025
2.1875 0.6875 5.025
2.25 0.6875 5.025
2.3125 0.6875 5.025
2.375 0.6875 5.025
2.4375 0.6875 5.025
2.5 0.6875 5.025
2.5625 0.6875 5.025
2.625 0.6875 5.025
2.6875 0.6875 5.025
2.75 0.6875 5.025
2.8125 0.6875 5.025
2.875 0.6875 5.025
2.9375 0.6875 5.025
3 0.6875 5.025
3.0625 0.6875 5.025
3.125 0.6875 5.025
3.1875 0.6875 5.025
3.25 0.6875 5.025
3.3125 0.6875 5.025
3.375 0.6875 5.025
3.4375 0.6875 5.025
3.5 0.6875 5.025
3.5625 0.6875 5.025
3.625 0.6875 5.025
3.6875 0.6875 5.025
3.75 0.6875 5.025
3.8125 0.6875 5.025
3.875 0.6875 5.025
3.9375 0.6875 5.025
4 0.6875 5.025
0 0.75 5.025
0.0625 0.75 5.025
0.125 0.75 5.025
0.1875 0.75 5.025
0.25 0.75 5.025
0.3125 0.75 5.025
0.375 0.75 5.025
0.4375 0.75 5.025
0.5 0.75 5.025
0.5625 0.75 5.025
0.625 0.75 5.025
0.6875 0.75 5.025
0.75 0.75 5.025
0.8125 0.75 5.025
0.875 0.75 5.025
0.9375 0.75 5.025
1 0.75 5.025
1.0625 0.75 5.025
1.125 0.75 5.025
1.1875 0.75 5.025
1.25 0.75 5.025
1.3125 0.75 5.025
1.375 0.75 5.025
1.4375 0.75 5.025
1.5 0.75 5.025
1.5625 0.75 5.025
1.625 0.75 5.025
1.6875 0.75 5.025
1.75 0.75 5.025
1.8125 0.75 5.025
1.875 0.75 5.025
1.9375 0.75 5.025
2 0.75 5.025
2.0625 0.75 5.025
2.125 0.75 5.025
2.1875 0.75 5.025
2.25 0.75 5.025
2.3125 0.75 5.025
2.375 0.75 5.025
2.4375 0.75 5.025
2.5 0.75 5.025
2.5625 0.75 5.025
2.625 0.75 5.025
2.6875 0.75 5.025
2.75 0.75 5.025
2.8125 0.75 5.025
2.875 0.75 5.025
2.9375 0.75 5.025
3 0.75 5.025
3.0625 0.75 5.025
3.125 0.75 5.025
3.1875 0.75 5.025
3.25 0.75 5.025
3.3125 0.75 5.025
3.375 0.75 5.025
3.4375 0.75 5.025
3.5 0.75 5.025
3.5625 0.75 5.025
3.625 0.75 5.025
3.6875 0.75 5.025
3.75 0.75 5.025
3.8125 0.75 5.025
3.875 0.75 5.025
3.9375 0.75 5.025
4 0.75 5.025
0 0.8125 5.025
0.0625 0.8125 5.025
0.125 0.8125 5.025
0.1875 0.8125 5.025
0.25 0.8125 5.025
0.3125 0.8125 5.025
0.375 0.8125 5.025
0.4375 0.8125 5.025
0.5 0.8125 5.025
0.5625 0.8125 5.025
0.625 0.8125 5.025
0.6875 0.8125 5.025
0.75 0.8125 5.025
0.8125 0.8125 5.025
0.875 0.8125 5.025
0.9375 0.8125 5.025
1 0.8125 5.025
1.0625 0.8125 5.025
1.125 0.8125 5.025
1.1875 0.8125 5.025
1.25 0.8125 5.025
1.3125 0.8125 5.025
1.375 0.8125 5.025
1.4375 0.8125 5.025
1.5 0.8125 5.025
1.5625 0.8125 5.025
1.625 0.8125 5.025
1.6875 0.8125 5.025
1.75 0.8125 5.025
1.8125 0.8125 5.025
1.875 0.8125 5.025
1.9375 0.8125 5.025
2 0.8125 5.025
2.0625 0.8125 5.025
2.125 0.8125 5.025
2.1875 0.8125 5.025
2.25 0.8125 5.025
2.3125 0.8125 5.025
2.375 0.8125 5.025
2.4375 0.8125 5.025
2.5 0.8125 5.025
2.5625 0.8125 5.025
2.625 0.8125 5.025
2.6875 0.8125 5.025
2.75 0.8125 5.025
2.8125 0.8125 5.025
2.875 0.8125 5.025
2.9375 0.8125 5.025
3 0.8125 5.025
3.0625 0.8125 5.025
3.125 0.8125 5.025
3.1875 0.8125 5.025
3.25 0.8125 5.025
3.3125 0.8125 5.025
3.375 0.8125 5.025
3.4375 0.8125 5.025
3.5 0.8125 5.025
3.5625 0.8125 5.025
3.625 0.8125 5.025
3.6875 0.8125 5.025
3.75 0.8125 5.025
3.8125 0.8125 5.025
3.875 0.8125 5.025
3.9375 0.8125 5.025
4 0.8125 5.025
0 0.875 5.025
0.0625 0.875 5.025
0.125 0.875 5.025
0.1875 0.875 5.025
0.25 0.875 5.025
0.3125 0.875 5.025
0.375 0.875 5.025
0.4375 0.875 5.025
0.5 0.875 5.025
0.5625 0.875 5.025
0.625 0.875 5.025
0.6875 0.875 5.025
0.75 0.875 5.025
0.8125 0.875 5.025
0.875 0.875 5.025
0.9375 0.875 5.025
1 0.875 5.025
1.0625 0.875 5.025
1.125 0.875 5.025
1.1875 0.875 5.025
1.25 0.875 5.025
1.3125 0.875 5.025
1.375 0.875 5.025
1.4375 0.875 5.025
1.5 0.875 5.025
1.5625 0.875 5.025
1.625 0.875 5.025
1.6875 0.875 5.025
1.75 0.875 5.025
1.8125 0.875 5.025
1.875 0.875 5.025
1.9375 0.875 5.025
2 0.875 5.025
2.0625 0.875 5.025
2.125 0.875 5.025
2.1875 0.875 5.025
2.25 0.875 5.025
2.3125 0.875 5.025
2.375 0.875 5.025
2.4375 0.875 5.025
2.5 0.875 5.025
2.5625 0.875 5.025
2.625 0.875 5.025
2.6875 0.875 5.025
2.75 0.875 5.025
2.8125 0.875 5.025
2.875 0.875 5.025
2.9375 0.875 5.025
3 0.875 5.025
3.0625 0.875 5.025
3.125 0.875 5.025
3.1875 0.875 5.025
3.25 0.875 5.025
3.3125 0.875 5.025
3.375 0.875 5.025
3.4375 0.875 5.025
3.5 0.875 5.025
3.5625 0.875 5.025
3.625 0.875 5.025
3.6875 0.875 5.025
3.75 0.875 5.025
3.8125 0.875 5.025
3.875 0.875 5.025
3.9375 0.875 5.025
4 0.875 5.025
0 0.9375 5.025
0.0625 0.9375 5.025
0.125 0.9375 5.025
0.1875 0.9375 5.025
0.25 0.9375 5.025
0.3125 0.9375 5.025
0.375 0.9375 5.025
0.4375 0.9375 5.025
0.5 0.9375 5.025
0.5625 0.9375 5.025
0.625 0.9375 5.025
0.6875 0.9375 5.025
0.75 0.9375 5.025
0.8125 0.9375 5.025
0.875 0.9375 5.025
0.9375 0.9375 5.025
1 0.9375 5.025
1.0625 0.9375 5.025
1.125 0.9375 5.025
1.1875 0.9375 5.025
1.25 0.9375 5.025
1.3125 0.9375 5.025
1.375 0.9375 5.025
1.4375 0.9375 5.025
1.5 0.9375 5.025
1.5625 0.9375 5.025
1.625 0.9375 5.025
1.6875 0.9375 5.025
1.75 0.9375 5.025
1.8125 0.9375 5.025
1.875 0.9375 5.025
1.9375 0.9375 5.025
2 0.9375 5.025
2.0625 0.9375 5.025
2.125 0.9375 5.025
2.1875 0.9375 5.025
2.25 0.9375 5.025
2.3125 0.9375 5.025
2.375 0.9375 5.025
2.4375 0.9375 5.025
2.5 0.9375 5.025
2.5625 0.9375 5.025
2.625 0.9375 5.025
2.6875 0.9375 5.025
2.75 0.9375 5.025
2.8125 0.9375 5.025
2.875 0.9375 5.025
2.9375 0.9375 5.025
3 0.9375 5.025
3.0625 0.9375 5.025
3.125 0.9375 5.025
3.1875 0.9375 5.025
3.25 0.9375 5.025
3.3125 0.9375 5.025
3.375 0.9375 5.025
3.4375 0.9375 5.025
3.5 0.9375 5.025
3.5625 0.9375 5.025
3.625 0.9375 5.025
3.6875 0.9375 5.025
3.75 0.9375 5.025
3.8125 0.9375 5.025
3.875 0.9375 5.025
3.9375 0.9375 5.025
4 0.9375 5.025
0 1 5.025
0.0625 1 5.025
0.125 1 5.025
0.1875 1 5.025
0.25 1 5.025
0.3125 1 5.025
0.375 1 5.025
0.4375 1 5.025
0.5 1 5.025
0.5625 1 5.025
0.625 1 5.025
0.6875 1 5.025
0.75 1 5.025
0.8125 1 5.025
0.875 1 5.025
0.9375 1 5.025
1 1 5.025
1.0625 1 5.025
1.125 1 5.025
1.1875 1 5.025
1.25 1 5.025
1.3125 1 5.025
1.375 1 5.025
1.4375 1 5.025
1.5 1 5.025
1.5625 1 5.025
1.625 1 5.025
1.6875 1 5.025
1.75 1 5.025
1.8125 1 5.025
1.875 1 5.025
1.9375 1 5.025
2 1 5.025
2.0625 1 5.025
2.125 1 5.025
2.1875 1 5.025
2.25 1 5.025
2.3125 1 5.025
2.375 1 5.025
2.4375 1 5.025
2.5 1 5.025
2.5625 1 5.025
2.625 1 5.025
2.6875 1 5.025
2.75 1 5.025
2.8125 1 5.025
2.875 1 5.025
2.9375 1 5.025
3 1 5.025
3.0625 1 5.025
3.125 1 5.025
3.1875 1 5.025
3.25 1 5.025
3.3125 1 5.025
3.375 1 5.025
3.4375 1 5.025
3.5 1 5.025
3.5625 1 5.025
3.625 1 5.025
3.6875 1 5.025
3.75 1 5.025
3.8125 1 5.025
3.875 1 5.025
3.9375 1 5.025
4 1 5.025
0 0 5.0875
0.0625 0 5.0875
0.125 0 5.0875
0.1875 0 5.0875
0.25 0 5.0875
0.3125 0 5.0875
0.375 0 5.0875
0.4375 0 5.0875
0.5 0 5.0875
0.5625 0 5.0875
0.625 0 5.0875
0.6875 0 5.0875
0.75 0 5.0875
0.8125 0 5.0875
0.875 0 5.0875
0.9375 0 5.0875
1 0 5.0875
1.0625 0 5.0875
1.125 0 5.0875
1.1875 0 5.0875
1.25 0 5.0875
1.3125 0 5.0875
1.375 0 5.0875
1.4375 0 5.0875
1.5 0 5.0875
1.5625 0 5.0875
1.625 0 5.0875
1.6875 0 5.0875
1.75 0 5.0875
1.8125 0 5.0875
1.875 0 5.0875
1.9375 0 5.0875
2 0 5.0875
2.0625 0 5.0875
2.125 0 5.0875
2.1875 0 5.0875
2.25 0 5.0875
2.3125 0 5.0875
2.375 0 5.0875
2.4375 0 5.0875
2.5 0 5.0875
2.5625 0 5.0875
2.625 0 5.0875
2.6875 0 5.0875
2.75 0 5.0875
2.8125 0 5.0875
2.875 0 5.0875
2.9375 0 5.0875
3 0 5.0875
3.0625 0 5.0875
3.125 0 5.0875
3.1875 0 5.0875
3.25 0 5.0875
3.3125 0 5.0875
3.375 0 5.0875
3.4375 0 5.0875
3.5 0 5.0875
3.5625 0 5.0875
3.625 0 5.0875
3.6875 0 5.0875
3.75 0 5.0875
3.8125 0 5.0875
3.875 0 5.0875
3.9375 0 5.0875
4 0 5.0875
0 0.0625 5.0875
0.0625 0.0625 5.0875
0.125 0.0625 5.0875
0.1875 0.0625 5.0875
0.25 0.0625 5.0875
0.3125 0.0625 5.0875
0.375 0.0625 5.0875
0.4375 0.0625 5.0875
0.5 0.0625 5.0875
0.5625 0.0625 5.0875
0.625 0.0625 5.0875
0.6875 0.0625 5.0875
0.75 0.0625 5.0875
0.8125 0.0625 5.0875
0.875 0.0625 5.0875
0.9375 0.0625 5.0875
1 0.0625 5.0875
1.0625 0.0625 5.0875
1.125 0.0625 5.0875
1.1875 0.0625 5.0875
1.25 0.0625 5.0875
1.3125 0.0625 5.0875
1.375 0.0625 5.0875
1.4375 0.0625 5.0875
1.5 0.0625 5.0875
1.5625 0.0625 5.0875
1.625 0.0625 5.0875
1.6875 0.0625 5.0875
1.75 0.0625 5.0875
1.8125 0.0625 5.0875
1.875 0.0625 5.0875
1.9375 0.0625 5.0875
2 0.0625 5.0875
2.0625 0.0625 5.0875
2.125 0.0625 5.0875
2.1875 0.0625 5.0875
2.25 0.0625 5.0875
2.3125 0.0625 5.0875
2.375 0.0625 5.0875
2.4375 0.0625 5.0875
2.5 0.0625 5.0875
2.5625 0.0625 5.0875
2.625 0.0625 5.0875
2.6875 0.0625 5.0875
2.75 0.0625 5.0875
2.8125 0.0625 5.0875
2.875 0.0625 5.0875
2.9375 0.0625 5.0875
3 0.0625 5.0875
3.0625 0.0625 5.0875
3.125 0.0625 5.0875
3.1875 0.0625 5.0875
3.25 0.0625 5.0875
3.3125 0.0625 5.0875
3.375 0.0625 5.0875
3.4375 0.0625 5.0875
3.5 0.0625 5.0875
3.5625 0.0625 5.0875
3.625 0.0625 5.0875
3.6875 0.0625 5.0875
3.75 0.0625 5.0875
3.8125 0.0625 5.0875
3.875 0.0625 5.0875
3.9375 0.0625 5.0875
4 0.0625 5.0875
0 0.125 5.0875
0.0625 0.125 5.0875
0.125 0.125 5.0875
0.1875 0.125 5.0875
0.25 0.125 5.0875
0.3125 0.125 5.0875
0.375 0.125 5.0875
0.4375 0.125 5.0875
0.5 0.125 5.0875
0.5625 0.125 5.0875
0.625 0.125 5.0875
0.6875 0.125 5.0875
0.75 0.125 5.0875
0.8125 0.125 5.0875
0.875 0.125 5.0875
0.9375 0.125 5.0875
1 0.125 5.0875
1.0625 0.125 5.0875
1.125 0.125 5.0875
1.1875 0.125 5.0875
1.25 0.125 5.0875
1.3125 0.125 5.0875
1.375 0.125 5.0875
1.4375 0.125 5.0875
1.5 0.125 5.0875
1.5625 0.125 5.0875
1.625 0.125 5.0875
1.6875 0.125 5.0875
1.75 0.125 5.0875
1.8125 0.125 5.0875
1.875 0.125 5.0875
1.9375 0.125 5.0875
2 0.125 5.0875
2.0625 0.125 5.0875
2.125 0.125 5.0875
2.1875 0.125 5.0875
2.25 0.125 5.0875
2.3125 0.125 5.0875
2.375 0.125 5.0875
2.4375 0.125 5.0875
2.5 0.125 5.0875
2.5625 0.125 5.0875
2.625 0.125 5.0875
2.6875 0.125 5.0875
2.75 0.125 5.0875
2.8125 0.125 5.0875
2.875 0.125 5.0875
2.9375 0.125 5.0875
3 0.125 5.0875
3.0625 0.125 5.0875
3.125 0.125 5.0875
3.1875 0.125 5.0875
3.25 0.125 5.0875
3.3125 0.125 5.0875
3.375 0.125 5.0875
3.4375 0.125 5.0875
3.5 0.125 5.0875
3.5625 0.125 5.0875
3.625 0.125 5.0875
3.6875 0.125 5.0875
3.75 0.125 5.0875
3.8125 0.125 5.0875
3.875 0.125 5.0875
3.9375 0.125 5.0875
4 0.125 5.0875
0 0.1875 5.0875
0.0625 0.1875 5.0875
0.125 0.1875 5.0875
0.1875 0.1875 5.0875
0.25 0.1875 5.0875
0.3125 0.1875 5.0875
0.375 0.1875 5.0875
0.4375 0.1875 5.0875
0.5 0.1875 5.0875
0.5625 0.1875 5.0875
0.625 0.1875 5.0875
0.6875 0.1875 5.0875
0.75 0.1875 5.0875
0.8125 0.1875 5.0875
0.875 0.1875 5.0875
0.9375 0.1875 5.0875
1 0.1875 5.0875
1.0625 0.1875 5.0875
1.125 0.1875 5.0875
1.1875 0.1875 5.0875
1.25 0.1875 5.0875
1.3125 0.1875 5.0875
1.375 0.1875 5.0875
1.4375 0.1875 5.0875
1.5 0.1875 5.0875
1.5625 0.1875 5.0875
1.625 0.1875 5.0875
1.6875 0.1875 5.0875
1.75 0.1875 5.0875
1.8125 0.1875 5.0875
1.875 0.1875 5.0875
1.9375 0.1875 5.0875
2 0.1875 5.0875
2.0625 0.1875 5.0875
2.125 0.1875 5.0875
2.1875 0.1875 5.0875
2.25 0.1875 5.0875
2.3125 0.1875 5.0875
2.375 0.1875 5.0875
2.4375 0.1875 5.0875
2.5 0.1875 5.0875
2.5625 0.1875 5.0875
2.625 0.1875 5.0875
2.6875 0.1875 5.0875
2.75 0.1875 5.0875
2.8125 0.1875 5.0875
2.875 0.1875 5.0875
2.9375 0.1875 5.0875
3 0.1875 5.0875
3.0625 0.1875 5.0875
3.125 0.1875 5.0875
3.1875 0.1875 5.0875
3.25 0.1875 5.0875
3.3125 0.1875 5.0875
3.375 0.1875 5.0875
3.4375 0.1875 5.0875
3.5 0.1875 5.0875
3.5625 0.1875 5.0875
3.625 0.1875 5.0875
3.6875 0.1875 5.0875
3.75 0.1875 5.0875
3.8125 0.1875 5.0875
3.875 0.1875 5.0875
3.9375 0.1875 5.0875
4 0.1875 5.0875
0 0.25 5.0875
0.0625 0.25 5.0875
0.125 0.25 5.0875
0.1875 0.25 5.0875
0.25 0.25 5.0875
0.3125 0.25 5.0875
0.375 0.25 5.0875
0.4375 0.25 5.0875
0.5 0.25 5.0875
0.5625 0.25 5.0875
0.625 0.25 5.0875
0.6875 0.25 5.0875
0.75 0.25 5.0875
0.8125 0.25 5.0875
0.875 0.25 5.0875
0.9375 0.25 5.0875
1 0.25 5.0875
1.0625 0.25 5.0875
1.125 0.25 5.0875
1.1875 0.25 5.0875
1.25 0.25 5.0875
1.3125 0.25 5.0875
1.375 0.25 5.0875
1.4375 0.25 5.0875
1.5 0.25 5.0875
1.5625 0.25 5.0875
1.625 0.25 5.0875
1.6875 0.25 5.0875
1.75 0.25 5.0875
1.8125 0.25 5.0875
1.875 0.25 5.0875
1.9375 0.25 5.0875
2 0.25 5.0875
2.0625 0.25 5.0875
2.125 0.25 5.0875
2.1875 0.25 5.0875
2.25 0.25 5.0875
2.3125 0.25 5.0875
2.375 0.25 5.0875
2.4375 0.25 5.0875
2.5 0.25 5.0875
2.5625 0.25 5.0875
2.625 0.25 5.0875
2.6875 0.25 5.0875
2.75 0.25 5.0875
2.8125 0.25 5.0875
2.875 0.25 5.0875
2.9375 0.25 5.0875
3 0.25 5.0875
3.0625 0.25 5.0875
3.125 0.25 5.0875
3.1875 0.25 5.0875
3.25 0.25 5.0875
3.3125 0.25 5.0875
3.375 0.25 5.0875
3.4375 0.25 5.0875
3.5 0.25 5.0875
3.5625 0.25 5.0875
3.625 0.25 5.0875
3.6875 0.25 5.0875
3.75 0.25 5.0875
3.8125 0.25 5.0875
3.875 0.25 5.0875
3.9375 0.25 5.0875
4 0.25 5.0875
0 0.3125 5.0875
0.0625 0.3125 5.0875
0.125 0.3125 5.0875
0.1875 0.3125 5.0875
0.25 0.3125 5.0875
0.3125 0.3125 5.0875
0.375 0.3125 5.0875
0.4375 0.3125 5.0875
0.5 0.3125 5.0875
0.5625 0.3125 5.0875
0.625 0.3125 5.0875
0.6875 0.3125 5.0875
0.75 0.3125 5.0875
0.8125 0.3125 5.0875
0.875 0.3125 5.0875
0.9375 0.3125 5.0875
1 0.3125 5.0875
1.0625 0.3125 5.0875
1.125 0.3125 5.0875
1.1875 0.3125 5.0875
1.25 0.3125 5.0875
1.3125 0.3125 5.0875
1.375 0.3125 5.0875
1.4375 0.3125 5.0875
1.5 0.3125 5.0875
1.5625 0.3125 5.0875
1.625 0.3125 5.0875
1.6875 0.3125 5.0875
1.75 0.3125 5.0875
1.8125 0.3125 5.0875
1.875 0.3125 5.0875
1.9375 0.3125 5.0875
2 0.3125 5.0875
2.0625 0.3125 5.0875
2.125 0.3125 5.0875
2.1875 0.3125 5.0875
2.25 0.3125 5.0875
2.3125 0.3125 5.0875
2.375 0.3125 5.0875
2.4375 0.3125 5.0875
2.5 0.3125 5.0875
2.5625 0.3125 5.0875
2.625 0.3125 5.0875
2.6875 0.3125 5.0875
2.75 0.3125 5.0875
2.8125 0.3125 5.0875
2.875 0.3125 5.0875
2.9375 0.3125 5.0875
3 0.3125 5.0875
3.0625 0.3125 5.0875
3.125 0.3125 5.0875
3.1875 0.3125 5.0875
3.25 0.3125 5.0875
3.3125 0.3125 5.0875
3.375 0.3125 5.0875
3.4375 0.3125 5.0875
3.5 0.3125 5.0875
3.5625 0.3125 5.0875
3.625 0.3125 5.0875
3.6875 0.3125 5.0875
3.75 0.3125 5.0875
3.8125 0.3125 5.0875
3.875 0.3125 5.0875
3.9375 0.3125 5.0875
4 0.3125 5.0875
0 0.375 5.0875
0.0625 0.375 5.0875
0.125 0.375 5.0875
0.1875 0.375 5.0875
0.25 0.375 5.0875
0.3125 0.375 5.0875
0.375 0.375 5.0875
0.4375 0.375 5.0875
0.5 0.375 5.0875
0.5625 0.375 5.0875
0.625 0.375 5.0875
0.6875 0.375 5.0875
0.75 0.375 5.0875
0.8125 0.375 5.0875
0.875 0.375 5.0875
0.9375 0.375 5.0875
1 0.375 5.0875
1.0625 0.375 5.0875
1.125 0.375 5.0875
1.1875 0.375 5.0875
1.25 0.375 5.0875
1.3125 0.375 5.0875
1.375 0.375 5.0875
1.4375 0.375 5.0875
1.5 0.375 5.0875
1.5625 0.375 5.0875
1.625 0.375 5.0875
1.6875 0.375 5.0875
1.75 0.375 5.0875
1.8125 0.375 5.0875
1.875 0.375 5.0875
1.9375 0.375 5.0875
2 0.375 5.0875
2.0625 0.375 5.0875
2.125 0.375 5.0875
2.1875 0.375 5.0875
2.25 0.375 5.0875
2.3125 0.375 5.0875
2.375 0.375 5.0875
2.4375 0.375 5.0875
2.5 0.375 5.0875
2.5625 0.375 5.0875
2.625 0.375 5.0875
2.6875 0.375 5.0875
2.75 0.375 5.0875
2.8125 0.375 5.0875
2.875 0.375 5.0875
2.9375 0.375 5.0875
3 0.375 5.0875
3.0625 0.375 5.0875
3.125 0.375 5.0875
3.1875 0.375 5.0875
3.25 0.375 5.0875
3.3125 0.375 5.0875
3.375 0.375 5.0875
3.4375 0.375 5.0875
3.5 0.375 5.0875
3.5625 0.375 5.0875
3.625 0.375 5.0875
3.6875 0.375 5.0875
3.75 0.375 5.0875
3.8125 0.375 5.0875
3.875 0.375 5.0875
3.9375 0.375 5.0875
4 0.375 5.0875
0 0.4375 5.0875
0.0625 0.4375 5.0875
0.125 0.4375 5.0875
0.1875 0.4375 5.0875
0.25 0.4375 5.0875
0.3125 0.4375 5.0875
0.375 0.4375 5.0875
0.4375 0.4375 5.0875
0.5 0.4375 5.0875
0.5625 0.4375 5.0875
0.625 0.4375 5.0875
0.6875 0.4375 5.0875
0.75 0.4375 5.0875
0.8125 0.4375 5.0875
0.875 0.4375 5.0875
0.9375 0.4375 5.0875
1 0.4375 5.0875
1.0625 0.4375 5.0875
1.125 0.4375 5.0875
1.1875 0.4375 5.0875
1.25 0.4375 5.0875
1.3125 0.4375 5.0875
1.375 0.4375 5.0875
1.4375 0.4375 5.0875
1.5 0.4375 5.0875
1.5625 0.4375 5.0875
1.625 0.4375 5.0875
1.6875 0.4375 5.0875
1.75 0.4375 5.0875
1.8125 0.4375 5.0875
1.875 0.4375 5.0875
1.9375 0.4375 5.0875
2 0.4375 5.0875
2.0625 0.4375 5.0875
2.125 0.4375 5.0875
2.1875 0.4375 5.0875
2.25 0.4375 5.0875
2.3125 0.4375 5.0875
2.375 0.4375 5.0875
2.4375 0.4375 5.0875
2.5 0.4375 5.0875
2.5625 0.4375 5.0875
2.625 0.4375 5.0875
2.6875 0.4375 5.0875
2.75 0.4375 5.0875
2.8125 0.4375 5.0875
2.875 0.4375 5.0875
2.9375 0.4375 5.0875
3 0.4375 5.0875
3.0625 0.4375 5.0875
3.125 0.4375 5.0875
3.1875 0.4375 5.0875
3.25 0.4375 5.0875
3.3125 0.4375 5.0875
3.375 0.4375 5.0875
3.4375 0.4375 5.0875
3.5 0.4375 5.0875
3.5625 0.4375 5.0875
3.625 0.4375 5.0875
3.6875 0.4375 5.0875
3.75 0.4375 5.0875
3.8125 0.4375 5.0875
3.875 0.4375 5.0875
3.9375 0.4375 5.0875
4 0.4375 5.0875
0 0.5 5.0875
0.0625 0.5 5.0875
0.125 0.5 5.0875
0.1875 0.5 5.0875
0.25 0.5 5.0875
0.3125 0.5 5.0875
0.375 0.5 5.0875
0.4375 0.5 5.0875
0.5 0.5 5.0875
0.5625 0.5 5.0875
0.625 0.5 5.0875
0.6875 0.5 5.0875
0.75 0.5 5.0875
0.8125 0.5 5.0875
0.875 0.5 5.0875
0.9375 0.5 5.0875
1 0.5 5.0875
1.0625 0.5 5.0875
1.125 0.5 5.0875
1.1875 0.5 5.0875
1.25 0.5 5.0875
1.3125 0.5 5.0875
1.375 0.5 5.0875
1.4375 0.5 5.0875
1.5 0.5 5.0875
1.5625 0.5 5.0875
1.625 0.5 5.0875
1.6875 0.5 5.0875
1.75 0.5 5.0875
1.8125 0.5 5.0875
1.875 0.5 5.0875
1.9375 0.5 5.0875
2 0.5 5.0875
2.0625 0.5 5.0875
2.125 0.5 5.0875
2.1875 0.5 5.0875
2.25 0.5 5.0875
2.3125 0.5 5.0875
2.375 0.5 5.0875
2.4375 0.5 5.0875
2.5 0.5 5.0875
2.5625 0.5 5.0875
2.625 0.5 5.0875
2.6875 0.5 5.0875
2.75 0.5 5.0875
2.8125 0.5 5.0875
2.875 0.5 5.0875
2.9375 0.5 5.0875
3 0.5 5.0875
3.0625 0.5 5.0875
3.125 0.5 5.0875
3.1875 0.5 5.0875
3.25 0.5 5.0875
3.3125 0.5 5.0875
3.375 0.5 5.0875
3.4375 0.5 5.0875
3.5 0.5 5.0875
3.5625 0.5 5.0875
3.625 0.5 5.0875
3.6875 0.5 5.0875
3.75 0.5 5.0875
3.8125 0.5 5.0875
3.875 0.5 5.0875
3.9375 0.5 5.0875
4 0.5 5.0875
0 0.5625 5.0875
0.0625 0.5625 5.0875
0.125 0.5625 5.0875
0.1875 0.5625 5.0875
0.25 0.5625 5.0875
0.3125 0.5625 5.0875
0.375 0.5625 5.0875
0.4375 0.5625 5.0875
0.5 0.5625 5.0875
0.5625 0.5625 5.0875
0.625 0.5625 5.0875
0.6875 0.5625 5.0875
0.75 0.5625 5.0875
0.8125 0.5625 5.0875
0.875 0.5625 5.0875
0.9375 0.5625 5.0875
1 0.5625 5.0875
1.0625 0.5625 5.0875
1.125 0.5625 5.0875
1.1875 0.5625 5.0875
1.25 0.5625 5.0875
1.3125 0.5625 5.0875
1.375 0.5625 5.0875
1.4375 0.5625 5.0875
1.5 0.5625 5.0875
1.5625 0.5625 5.0875
1.625 0.5625 5.0875
1.6875 0.5625 5.0875
1.75 0.5625 5.0875
1.8125 0.5625 5.0875
1.875 0.5625 5.0875
1.9375 0.5625 5.0875
2 0.5625 5.0875
2.0625 0.5625 5.0875
2.125 0.5625 5.0875
2.1875 0.5625 5.0875
2.25 0.5625 5.0875
2.3125 0.5625 5.0875
2.375 0.5625 5.0875
2.4375 0.5625 5.0875
2.5 0.5625 5.0875
2.5625 0.5625 5.0875
2.625 0.5625 5.0875
2.6875 0.5625 5.0875
2.75 0.5625 5.0875
2.8125 0.5625 5.0875
2.875 0.5625 5.0875
2.9375 0.5625 5.0875
3 0.5625 5.0875
3.0625 0.5625 5.0875
3.125 0.5625 5.0875
3.1875 0.5625 5.0875
3.25 0.5625 5.0875
3.3125 0.5625 5.0875
3.375 0.5625 5.0875
3.4375 0.5625 5.0875
3.5 0.5625 5.0875
3.5625 0.5625 5.0875
3.625 0.5625 5.0875
3.6875 0.5625 5.0875
3.75 0.5625 5.0875
3.8125 0.5625 5.0875
3.875 0.5625 5.0875
3.9375 0.5625 5.0875
4 0.5625 5.0875
0 0.625 5.0875
0.0625 0.625 5.0875
0.125 0.625 5.0875
0.1875 0.625 5.0875
0.25 0.625 5.0875
0.3125 0.625 5.0875
0.375 0.625 5.0875
0.4375 0.625 5.0875
0.5 0.625 5.0875
0.5625 0.625 5.0875
0.625 0.625 5.0875
0.6875 0.625 5.0875
0.75 0.625 5.0875
0.8125 0.625 5.0875
0.875 0.625 5.0875
0.9375 0.625 5.0875
1 0.625 5.0875
1.0625 0.625 5.0875
1.125 0.625 5.0875
1.1875 0.625 5.0875
1.25 0.625 5.0875
1.3125 0.625 5.0875
1.375 0.625 5.0875
1.4375 0.625 5.0875
1.5 0.625 5.0875
1.5625 0.625 5.0875
1.625 0.625 5.0875
1.6875 0.625 5.0875
1.75 0.625 5.0875
1.8125 0.625 5.0875
1.875 0.625 5.0875
1.9375 0.625 5.0875
2 0.625 5.0875
2.0625 0.625 5.0875
2.125 0.625 5.0875
2.1875 0.625 5.0875
2.25 0.625 5.0875
2.3125 0.625 5.0875
2.375 0.625 5.0875
2.4375 0.625 5.0875
2.5 0.625 5.0875
2.5625 0.625 5.0875
2.625 0.625 5.0875
2.6875 0.625 5.0875
2.75 0.625 5.0875
2.8125 0.625 5.0875
2.875 0.625 5.0875
2.9375 0.625 5.0875
3 0.625 5.0875
3.0625 0.625 5.0875
3.125 0.625 5.0875
3.1875 0.625 5.0875
3.25 0.625 5.0875
3.3125 0.625 5.0875
3.375 0.625 5.0875
3.4375 0.625 5.0875
3.5 0.625 5.0875
3.5625 0.625 5.0875
3.625 0.625 5.0875
3.6875 0.625 5.0875
3.75 0.625 5.0875
3.8125 0.625 5.0875
3.875 0.625 5.0875
3.9375 0.625 5.0875
4 0.625 5.0875
0 0.6875 5.0875
0.0625 0.6875 5.0875
0.125 0.6875 5.0875
0.1875 0.6875 5.0875
0.25 0.6875 5.0875
0.3125 0.6875 5.0875
0.375 0.6875 5.0875
0.4375 0.6875 5.0875
0.5 0.6875 5.0875
0.5625 0.6875 5.0875
0.625 0.6875 5.0875
0.6875 0.6875 5.0875
0.75 0.6875 5.0875
0.8125 0.6875 5.0875
0.875 0.6875 5.0875
0.9375 0.6875 5.0875
1 0.6875 5.0875
1.0625 0.6875 5.0875
1.125 0.6875 5.0875
1.1875 0.6875 5.0875
1.25 0.6875 5.0875
1.3125 0.6875 5.0875
1.375 0.6875 5.0875
1.4375 0.6875 5.0875
1.5 0.6875 5.0875
1.5625 0.6875 5.0875
1.625 0.6875 5.0875
1.6875 0.6875 5.0875
1.75 0.6875 5.0875
1.8125 0.6875 5.0875
1.875 0.6875 5.0875
1.9375 0.6875 5.0875
2 0.6875 5.0875
2.0625 0.6875 5.0875
2.125 0.6875 5.0875
2.1875 0.6875 5.0875
2.25 0.6875 5.0875
2.3125 0.6875 5.0875
2.375 0.6875 5.0875
2.4375 0.6875 5.0875
2.5 0.6875 5.0875
2.5625 0.6875 5.0875
2.625 0.6875 5.0875
2.6875 0.6875 5.0875
2.75 0.6875 5.0875
2.8125 0.6875 5.0875
2.875 0.6875 5.0875
2.9375 0.6875 5.0875
3 0.6875 5.0875
3.0625 0.6875 5.0875
3.125 0.6875 5.0875
3.1875 0.6875 5.0875
3.25 0.6875 5.0875
3.3125 0.6875 5.0875
3.375 0.6875 5.0875
3.4375 0.6875 5.0875
3.5 0.6875 5.0875
3.5625 0.6875 5.0875
3.625 0.6875 5.0875
3.6875 0.6875 5.0875
3.75 0.6875 5.0875
3.8125 0.6875 5.0875
3.875 0.6875 5.0875
3.9375 0.6875 5.0875
4 0.6875 5.0875
0 0.75 5.0875
0.0625 0.75 5.0875
0.125 0.75 5.0875
0.1875 0.75 5.0875
0.25 0.75 5.0875
0.3125 0.75 5.0875
0.375 0.75 5.0875
0.4375 0.75 5.0875
0.5 0.75 5.0875
0.5625 0.75 5.0875
0.625 0.75 5.0875
0.6875 0.75 5.0875
0.75 0.75 5.0875
0.8125 0.75 5.0875
0.875 0.75 5.0875
0.9375 0.75 5.0875
1 0.75 5.0875
1.0625 0.75 5.0875
1.125 0.75 5.0875
1.1875 0.75 5.0875
1.25 0.75 5.0875
1.3125 0.75 5.0875
1.375 0.75 5.0875
1.4375 0.75 5.0875
1.5 0.75 5.0875
1.5625 0.75 5.0875
1.625 0.75 5.0875
1.6875 0.75 5.0875
1.75 0.75 5.0875
1.8125 0.75 5.0875
1.875 0.75 5.0875
1.9375 0.75 5.0875
2 0.75 5.0875
2.0625 0.75 5.0875
2.125 0.75 5.0875
2.1875 0.75 5.0875
2.25 0.75 5.0875
2.3125 0.75 5.0875
2.375 0.75 5.0875
2.4375 0.75 5.0875
2.5 0.75 5.0875
2.5625 0.75 5.0875
2.625 0.75 5.0875
2.6875 0.75 5.0875
2.75 0.75 5.0875
2.8125 0.75 5.0875
2.875 0.75 5.0875
2.9375 0.75 5.0875
3 0.75 5.0875
3.0625 0.75 5.0875
3.125 0.75 5.0875
3.1875 0.75 5.0875
3.25 0.75 5.0875
3.3125 0.75 5.0875
3.375 0.75 5.0875
3.4375 0.75 5.0875
3.5 0.75 5.0875
3.5625 0.75 5.0875
3.625 0.75 5.0875
3.6875 0.75 5.0875
3.75 0.75 5.0875
3.8125 0.75 5.0875
3.875 0.75 5.0875
3.9375 0.75 5.0875
4 0.75 5.0875
0 0.8125 5.0875
0.0625 0.8125 5.0875
0.125 0.8125 5.0875
0.1875 0.8125 5.0875
0.25 0.8125 5.0875
0.3125 0.8125 5.0875
0.375 0.8125 5.0875
0.4375 0.8125 5.0875
0.5 0.8125 5.0875
0.5625 0.8125 5.0875
0.625 0.8125 5.0875
0.6875 0.8125 5.0875
0.75 0.8125 5.0875
0.8125 0.8125 5.0875
0.875 0.8125 5.0875
0.9375 0.8125 5.0875
1 0.8125 5.0875
1.0625 0.8125 5.0875
1.125 0.8125 5.0875
1.1875 0.8125 5.0875
1.25 0.8125 5.0875
1.3125 0.8125 5.0875
1.375 0.8125 5.0875
1.4375 0.8125 5.0875
1.5 0.8125 5.0875
1.5625 0.8125 5.0875
1.625 0.8125 5.0875
1.6875 0.8125 5.0875
1.75 0.8125 5.0875
1.8125 0.8125 5.0875
1.875 0.8125 5.0875
1.9375 0.8125 5.0875
2 0.8125 5.0875
2.0625 0.8125 5.0875
2.125 0.8125 5.0875
2.1875 0.8125 5.0875
2.25 0.8125 5.0875
2.3125 0.8125 5.0875
2.375 0.8125 5.0875
2.4375 0.8125 5.0875
2.5 0.8125 5.0875
2.5625 0.8125 5.0875
2.625 0.8125 5.0875
2.6875 0.8125 5.0875
2.75 0.8125 5.0875
2.8125 0.8125 5.0875
2.875 0.8125 5.0875
2.9375 0.8125 5.0875
3 0.8125 5.0875
3.0625 0.8125 5.0875
3.125 0.8125 5.0875
3.1875 0.8125 5.0875
3.25 0.8125 5.0875
3.3125 0.8125 5.0875
3.375 0.8125 5.0875
3.4375 0.8125 5.0875
3.5 0.8125 5.0875
3.5625 0.8125 5.0875
3.625 0.8125 5.0875
3.6875 0.8125 5.0875
3.75 0.8125 5.0875
3.8125 0.8125 5.0875
3.875 0.8125 5.0875
3.9375 0.8125 5.0875
4 0.8125 5.0875
0 0.875 5.0875
0.0625 0.875 5.0875
0.125 0.875 5.0875
0.1875 0.875 5.0875
0.25 0.875 5.0875
0.3125 0.875 5.0875
0.375 0.875 5.0875
0.4375 0.875 5.0875
0.5 0.875 5.0875
0.5625 0.875 5.0875
0.625 0.875 5.0875
0.6875 0.875 5.0875
0.75 0.875 5.0875
0.8125 0.875 5.0875
0.875 0.875 5.0875
0.9375 0.875 5.0875
1 0.875 5.0875
1.0625 0.875 5.0875
1.125 0.875 5.0875
1.1875 0.875 5.0875
1.25 0.875 5.0875
1.3125 0.875 5.0875
1.375 0.875 5.0875
1.4375 0.875 5.0875
1.5 0.875 5.0875
1.5625 0.875 5.0875
1.625 0.875 5.0875
1.6875 0.875 5.0875
1.75 0.875 5.0875
1.8125 0.875 5.0875
1.875 0.875 5.0875
1.9375 0.875 5.0875
2 0.875 5.0875
2.0625 0.875 5.0875
2.125 0.875 5.0875
2.1875 0.875 5.0875
2.25 0.875 5.0875
2.3125 0.875 5.0875
2.375 0.875 5.0875
2.4375 0.875 5.0875
2.5 0.875 5.0875
2.5625 0.875 5.0875
2.625 0.875 5.0875
2.6875 0.875 5.0875
2.75 0.875 5.0875
2.8125 0.875 5.0875
2.875 0.875 5.0875
2.9375 0.875 5.0875
3 0.875 5.0875
3.0625 0.875 5.0875
3.125 0.875 5.0875
3.1875 0.875 5.0875
3.25 0.875 5.0875
3.3125 0.875 5.0875
3.375 0.875 5.0875
3.4375 0.875 5.0875
3.5 0.875 5.0875
3.5625 0.875 5.0875
3.625 0.875 5.0875
3.6875 0.875 5.0875
3.75 0.875 5.0875
3.8125 0.875 5.0875
3.875 0.875 5.0875
3.9375 0.875 5.0875
4 0.875 5.0875
0 0.9375 5.0875
0.0625 0.9375 5.0875
0.125 0.9375 5.0875
0.1875 0.9375 5.0875
0.25 0.9375 5.0875
0.3125 0.9375 5.0875
0.375 0.9375 5.0875
0.4375 0.9375 5.0875
0.5 0.9375 5.0875
0.5625 0.9375 5.0875
0.625 0.9375 5.0875
0.6875 0.9375 5.0875
0.75 0.9375 5.0875
0.8125 0.9375 5.0875
0.875 0.9375 5.0875
0.9375 0.9375 5.0875
1 0.9375 5.0875
1.0625 0.9375 5.0875
1.125 0.9375 5.0875
1.1875 0.9375 5.0875
1.25 0.9375 5.0875
1.3125 0.9375 5.0875
1.375 0.9375 5.0875
1.4375 0.9375 5.0875
1.5 0.9375 5.0875
1.5625 0.9375 5.0875
1.625 0.9375 5.0875
1.6875 0.9375 5.0875
1.75 0.9375 5.0875
1.8125 0.9375 5.0875
1.875 0.9375 5.0875
1.9375 0.9375 5.0875
2 0.9375 5.0875
2.0625 0.9375 5.0875
2.125 0.9375 5.0875
2.1875 0.9375 5.0875
2.25 0.9375 5.0875
2.3125 0.9375 5.0875
2.375 0.9375 5.0875
2.4375 0.9375 5.0875
2.5 0.9375 5.0875
2.5625 0.9375 5.0875
2.625 0.9375 5.0875
2.6875 0.9375 5.0875
2.75 0.9375 5.0875
2.8125 0.9375 5.0875
2.875 0.9375 5.0875
2.9375 0.9375 5.0875
3 0.9375 5.0875
3.0625 0.9375 5.0875
3.125 0.9375 5.0875
3.1875 0.9375 5.0875
3.25 0.9375 5.0875
3.3125 0.9375 5.0875
3.375 0.9375 5.0875
3.4375 0.9375 5.0875
3.5 0.9375 5.0875
3.5625 0.9375 5.0875
3.625 0.9375 5.0875
3.6875 0.9375 5.0875
3.75 0.9375 5.0875
3.8125 0.9375 5.0875
3.875 0.9375 5.0875
3.9375 0.9375 5.0875
4 0.9375 5.0875
0 1 5.0875
0.0625 1 5.0875
0.125 1 5.0875
0.1875 1 5.0875
0.25 1 5.0875
0.3125 1 5.0875
0.375 1 5.0875
0.4375 1 5.0875
0.5 1 5.0875
0.5625 1 5.0875
0.625 1 5.0875
0.6875 1 5.0875
0.75 1 5.0875
0.8125 1 5.0875
0.875 1 5.0875
0.9375 1 5.0875
1 1 5.0875
1.0625 1 5.0875
1.125 1 5.0875
1.1875 1 5.0875
1.25 1 5.0875
1.3125 1 5.0875
1.375 1 5.0875
1.4375 1 5.0875
1.5 1 5.0875
1.5625 1 5.0875
1.625 1 5.0875
1.6875 1 5.0875
1.75 1 5.0875
1.8125 1 5.0875
1.875 1 5.0875
1.9375 1 5.0875
2 1 5.0875
2.0625 1 5.0875
2.125 1 5.0875
2.1875 1 5.0875
2.25 1 5.0875
2.3125 1 5.0875
2.375 1 5.0875
2.4375 1 5.0875
2.5 1 5.0875
2.5625 1 5.0875
2.625 1 5.0875
2.6875 1 5.0875
2.75 1 5.0875
2.8125 1 5.0875
2.875 1 5.0875
2.9375 1 5.0875
3 1 5.0875
3.0625 1 5.0875
3.125 1 5.0875
3.1875 1 5.0875
3.25 1 5.0875
3.3125 1 5.0875
3.375 1 5.0875
3.4375 1 5.0875
3.5 1 5.0875
3.5625 1 5.0875
3.625 1 5.0875
3.6875 1 5.0875
3.75 1 5.0875
3.8125 1 5.0875
3.875 1 5.0875
3.9375 1 5.0875
4 1 5.0875
0 0 5.15
0.0625 0 5.15
0.125 0 5.15
0.1875 0 5.15
0.25 0 5.15
0.3125 0 5.15
0.375 0 5.15
0.4375 0 5.15
0.5 0 5.15
0.5625 0 5.15
0.625 0 5.15
0.6875 0 5.15
0.75 0 5.15
0.8125 0 5.15
0.875 0 5.15
0.9375 0 5.15
1 0 5.15
1.0625 0 5.15
1.125 0 5.15
1.1875 0 5.15
1.25 0 5.15
1.3125 0 5.15
1.375 0 5.15
1.4375 0 5.15
1.5 0 5.15
1.5625 0 5.15
1.625 0 5.15
1.6875 0 5.15
1.75 0 5.15
1.8125 0 5.15
1.875 0 5.15
1.9375 0 5.15
2 0 5.15
2.0625 0 5.15
2.125 0 5.15
2.1875 0 5.15
2.25 0 5.15
2.3125 0 5.15
2.375 0 5.15
2.4375 0 5.15
2.5 0 5.15
2.5625 0 5.15
2.625 0 5.15
2.6875 0 5.15
2.75 0 5.15
2.8125 0 5.15
2.875 0 5.15
2.9375 0 5.15
3 0 5.15
3.0625 0 5.15
3.125 0 5.15
3.1875 0 5.15
3.25 0 5.15
3.3125 0 5.15
3.375 0 5.15
3.4375 0 5.15
3.5 0 5.15
3.5625 0 5.15
3.625 0 5.15
3.6875 0 5.15
3.75 0 5.15
3.8125 0 5.15
3.875 0 5.15
3.9375 0 5.15
4 0 5.15
0 0.0625 5.15
0.0625 0.0625 5.15
0.125 0.0625 5.15
0.1875 0.0625 5.15
0.25 0.0625 5.15
0.3125 0.0625 5.15
0.375 0.0625 5.15
0.4375 0.0625 5.15
0.5 0.0625 5.15
0.5625 0.0625 5.15
0.625 0.0625 5.15
0.6875 0.0625 5.15
0.75 0.0625 5.15
0.8125 0.0625 5.15
0.875 0.0625 5.15
0.9375 0.0625 5.15
1 0.0625 5.15
1.0625 0.0625 5.15
1.125 0.0625 5.15
1.1875 0.0625 5.15
1.25 0.0625 5.15
1.3125 0.0625 5.15
1.375 0.0625 5.15
1.4375 0.0625 5.15
1.5 0.0625 5.15
1.5625 0.0625 5.15
1.625 0.0625 5.15
1.6875 0.0625 5.15
1.75 0.0625 5.15
1.8125 0.0625 5.15
1.875 0.0625 5.15
1.9375 0.0625 5.15
2 0.0625 5.15
2.0625 0.0625 5.15
2.125 0.0625 5.15
2.1875 0.0625 5.15
2.25 0.0625 5.15
2.3125 0.0625 5.15
2.375 0.0625 5.15
2.4375 0.0625 5.15
2.5 0.0625 5.15
2.5625 0.0625 5.15
2.625 0.0625 5.15
2.6875 0.0625 5.15
2.75 0.0625 5.15
2.8125 0.0625 5.15
2.875 0.0625 5.15
2.9375 0.0625 5.15
3 0.0625 5.15
3.0625 0.0625 5.15
3.125 0.0625 5.15
3.1875 0.0625 5.15
3.25 0.0625 5.15
3.3125 0.0625 5.15
3.375 0.0625 5.15
3.4375 0.0625 5.15
3.5 0.0625 5.15
3.5625 0.0625 5.15
3.625 0.0625 5.15
3.6875 0.0625 5.15
3.75 0.0625 5.15
3.8125 0.0625 5.15
3.875 0.0625 5.15
3.9375 0.0625 5.15
4 0.0625 5.15
0 0.125 5.15
0.0625 0.125 5.15
0.125 0.125 5.15
0.1875 0.125 5.15
0.25 0.125 5.15
0.3125 0.125 5.15
0.375 0.125 5.15
0.4375 0.125 5.15
0.5 0.125 5.15
0.5625 0.125 5.15
0.625 0.125 5.15
0.6875 0.125 5.15
0.75 0.125 5.15
0.8125 0.125 5.15
0.875 0.125 5.15
0.9375 0.125 5.15
1 0.125 5.15
1.0625 0.125 5.15
1.125 0.125 5.15
1.1875 0.125 5.15
1.25 0.125 5.15
1.3125 0.125 5.15
1.375 0.125 5.15
1.4375 0.125 5.15
1.5 0.125 5.15
1.5625 0.125 5.15
1.625 0.125 5.15
1.6875 0.125 5.15
1.75 0.125 5.15
1.8125 0.125 5.15
1.875 0.125 5.15
1.9375 0.125 5.15
2 0.125 5.15
2.0625 0.125 5.15
2.125 0.125 5.15
2.1875 0.125 5.15
2.25 0.125 5.15
2.3125 0.125 5.15
2.375 0.125 5.15
2.4375 0.125 5.15
2.5 0.125 5.15
2.5625 0.125 5.15
2.625 0.125 5.15
2.6875 0.125 5.15
2.75 0.125 5.15
2.8125 0.125 5.15
2.875 0.125 5.15
2.9375 0.125 5.15
3 0.125 5.15
3.0625 0.125 5.15
3.125 0.125 5.15
3.1875 0.125 5.15
3.25 0.125 5.15
3.3125 0.125 5.15
3.375 0.125 5.15
3.4375 0.125 5.15
3.5 0.125 5.15
3.5625 0.125 5.15
3.625 0.125 5.15
3.6875 0.125 5.15
3.75 0.125 5.15
3.8125 0.125 5.15
3.875 0.125 5.15
3.9375 0.125 5.15
4 0.125 5.15
0 0.1875 5.15
0.0625 0.1875 5.15
0.125 0.1875 5.15
0.1875 0.1875 5.15
0.25 0.1875 5.15
0.3125 0.1875 5.15
0.375 0.1875 5.15
0.4375 0.1875 5.15
0.5 0.1875 5.15
0.5625 0.1875 5.15
0.625 0.1875 5.15
0.6875 0.1875 5.15
0.75 0.1875 5.15
0.8125 0.1875 5.15
0.875 0.1875 5.15
0.9375 0.1875 5.15
1 0.1875 5.15
1.0625 0.1875 5.15
1.125 0.1875 5.15
1.1875 0.1875 5.15
1.25 0.1875 5.15
1.3125 0.1875 5.15
1.375 0.1875 5.15
1.4375 0.1875 5.15
1.5 0.1875 5.15
1.5625 0.1875 5.15
1.625 0.1875 5.15
1.6875 0.1875 5.15
1.75 0.1875 5.15
1.8125 0.1875 5.15
1.875 0.1875 5.15
1.9375 0.1875 5.15
2 0.1875 5.15
2.0625 0.1875 5.15
2.125 0.1875 5.15
2.1875 0.1875 5.15
2.25 0.1875 5.15
2.3125 0.1875 5.15
2.375 0.1875 5.15
2.4375 0.1875 5.15
2.5 0.1875 5.15
2.5625 0.1875 5.15
2.625 0.1875 5.15
2.6875 0.1875 5.15
2.75 0.1875 5.15
2.8125 0.1875 5.15
2.875 0.1875 5.15
2.9375 0.1875 5.15
3 0.1875 5.15
3.0625 0.1875 5.15
3.125 0.1875 5.15
3.1875 0.1875 5.15
3.25 0.1875 5.15
3.3125 0.1875 5.15
3.375 0.1875 5.15
3.4375 0.1875 5.15
3.5 0.1875 5.15
3.5625 0.1875 5.15
3.625 0.1875 5.15
3.6875 0.1875 5.15
3.75 0.1875 5.15
3.8125 0.1875 5.15
3.875 0.1875 5.15
3.9375 0.1875 5.15
4 0.1875 5.15
0 0.25 5.15
0.0625 0.25 5.15
0.125 0.25 5.15
0.1875 0.25 5.15
0.25 0.25 5.15
0.3125 0.25 5.15
0.375 0.25 5.15
0.4375 0.25 5.15
0.5 0.25 5.15
0.5625 0.25 5.15
0.625 0.25 5.15
0.6875 0.25 5.15
0.75 0.25 5.15
0.8125 0.25 5.15
0.875 0.25 5.15
0.9375 0.25 5.15
1 0.25 5.15
1.0625 0.25 5.15
1.125 0.25 5.15
1.1875 0.25 5.15
1.25 0.25 5.15
1.3125 0.25 5.15
1.375 0.25 5.15
1.4375 0.25 5.15
1.5 0.25 5.15
1.5625 0.25 5.15
1.625 0.25 5.15
1.6875 0.25 5.15
1.75 0.25 5.15
1.8125 0.25 5.15
1.875 0.25 5.15
1.9375 0.25 5.15
2 0.25 5.15
2.0625 0.25 5.15
2.125 0.25 5.15
2.1875 0.25 5.15
2.25 0.25 5.15
2.3125 0.25 5.15
2.375 0.25 5.15
2.4375 0.25 5.15
2.5 0.25 5.15
2.5625 0.25 5.15
2.625 0.25 5.15
2.6875 0.25 5.15
2.75 0.25 5.15
2.8125 0.25 5.15
2.875 0.25 5.15
2.9375 0.25 5.15
3 0.25 5.15
3.0625 0.25 5.15
3.125 0.25 5.15
3.1875 0.25 5.15
3.25 0.25 5.15
3.3125 0.25 5.15
3.375 0.25 5.15
3.4375 0.25 5.15
3.5 0.25 5.15
3.5625 0.25 5.15
3.625 0.25 5.15
3.6875 0.25 5.15
3.75 0.25 5.15
3.8125 0.25 5.15
3.875 0.25 5.15
3.9375 0.25 5.15
4 0.25 5.15
0 0.3125 5.15
0.0625 0.3125 5.15
0.125 0.3125 5.15
0.1875 0.3125 5.15
0.25 0.3125 5.15
0.3125 0.3125 5.15
0.375 0.3125 5.15
0.4375 0.3125 5.15
0.5 0.3125 5.15
0.5625 0.3125 5.15
0.625 0.3125 5.15
0.6875 0.3125 5.15
0.75 0.3125 5.15
0.8125 0.3125 5.15
0.875 0.3125 5.15
0.9375 0.3125 5.15
1 0.3125 5.15
1.0625 0.3125 5.15
1.125 0.3125 5.15
1.1875 0.3125 5.15
1.25 0.3125 5.15
1.3125 0.3125 5.15
1.375 0.3125 5.15
1.4375 0.3125 5.15
1.5 0.3125 5.15
1.5625 0.3125 5.15
1.625 0.3125 5.15
1.6875 0.3125 5.15
1.75 0.3125 5.15
1.8125 0.3125 5.15
1.875 0.3125 5.15
1.9375 0.3125 5.15
2 0.3125 5.15
2.0625 0.3125 5.15
2.125 0.3125 5.15
2.1875 0.3125 5.15
2.25 0.3125 5.15
2.3125 0.3125 5.15
2.375 0.3125 5.15
2.4375 0.3125 5.15
2.5 0.3125 5.15
2.5625 0.3125 5.15
2.625 0.3125 5.15
2.6875 0.3125 5.15
2.75 0.3125 5.15
2.8125 0.3125 5.15
2.875 0.3125 5.15
2.9375 0.3125 5.15
3 0.3125 5.15
3.0625 0.3125 5.15
3.125 0.3125 5.15
3.1875 0.3125 5.15
3.25 0.3125 5.15
3.3125 0.3125 5.15
3.375 0.3125 5.15
3.4375 0.3125 5.15
3.5 0.3125 5.15
3.5625 0.3125 5.15
3.625 0.3125 5.15
3.6875 0.3125 5.15
3.75 0.3125 5.15
3.8125 0.3125 5.15
3.875 0.3125 5.15
3.9375 0.3125 5.15
4 0.3125 5.15
0 0.375 5.15
0.0625 0.375 5.15
0.125 0.375 5.15
0.1875 0.375 5.15
0.25 0.375 5.15
0.3125 0.375 5.15
0.375 0.375 5.15
0.4375 0.375 5.15
0.5 0.375 5.15
0.5625 0.375 5.15
0.625 0.375 5.15
0.6875 0.375 5.15
0.75 0.375 5.15
0.8125 0.375 5.15
0.875 0.375 5.15
0.9375 0.375 5.15
1 0.375 5.15
1.0625 0.375 5.15
1.125 0.375 5.15
1.1875 0.375 5.15
1.25 0.375 5.15
1.3125 0.375 5.15
1.375 0.375 5.15
1.4375 0.375 5.15
1.5 0.375 5.15
1.5625 0.375 5.15
1.625 0.375 5.15
1.6875 0.375 5.15
1.75 0.375 5.15
1.8125 0.375 5.15
1.875 0.375 5.15
1.9375 0.375 5.15
2 0.375 5.15
2.0625 0.375 5.15
2.125 0.375 5.15
2.1875 0.375 5.15
2.25 0.375 5.15
2.3125 0.375 5.15
2.375 0.375 5.15
2.4375 0.375 5.15
2.5 0.375 5.15
2.5625 0.375 5.15
2.625 0.375 5.15
2.6875 0.375 5.15
2.75 0.375 5.15
2.8125 0.375 5.15
2.875 0.375 5.15
2.9375 0.375 5.15
3 0.375 5.15
3.0625 0.375 5.15
3.125 0.375 5.15
3.1875 0.375 5.15
3.25 0.375 5.15
3.3125 0.375 5.15
3.375 0.375 5.15
3.4375 0.375 5.15
3.5 0.375 5.15
3.5625 0.375 5.15
3.625 0.375 5.15
3.6875 0.375 5.15
3.75 0.375 5.15
3.8125 0.375 5.15
3.875 0.375 5.15
3.9375 0.375 5.15
4 0.375 5.15
0 0.4375 5.15
0.0625 0.4375 5.15
0.125 0.4375 5.15
0.1875 0.4375 5.15
0.25 0.4375 5.15
0.3125 0.4375 5.15
0.375 0.4375 5.15
0.4375 0.4375 5.15
0.5 0.4375 5.15
0.5625 0.4375 5.15
0.625 0.4375 5.15
0.6875 0.4375 5.15
0.75 0.4375 5.15
0.8125 0.4375 5.15
0.875 0.4375 5.15
0.9375 0.4375 5.15
1 0.4375 5.15
1.0625 0.4375 5.15
1.125 0.4375 5.15
1.1875 0.4375 5.15
1.25 0.4375 5.15
1.3125 0.4375 5.15
1.375 0.4375 5.15
1.4375 0.4375 5.15
1.5 0.4375 5.15
1.5625 0.4375 5.15
1.625 0.4375 5.15
1.6875 0.4375 5.15
1.75 0.4375 5.15
1.8125 0.4375 5.15
1.875 0.4375 5.15
1.9375 0.4375 5.15
2 0.4375 5.15
2.0625 0.4375 5.15
2.125 0.4375 5.15
2.1875 0.4375 5.15
2.25 0.4375 5.15
2.3125 0.4375 5.15
2.375 0.4375 5.15
2.4375 0.4375 5.15
2.5 0.4375 5.15
2.5625 0.4375 5.15
2.625 0.4375 5.15
2.6875 0.4375 5.15
2.75 0.4375 5.15
2.8125 0.4375 5.15
2.875 0.4375 5.15
2.9375 0.4375 5.15
3 0.4375 5.15
3.0625 0.4375 5.15
3.125 0.4375 5.15
3.1875 0.4375 5.15
3.25 0.4375 5.15
3.3125 0.4375 5.15
3.375 0.4375 5.15
3.4375 0.4375 5.15
3.5 0.4375 5.15
3.5625 0.4375 5.15
3.625 0.4375 5.15
3.6875 0.4375 5.15
3.75 0.4375 5.15
3.8125 0.4375 5.15
3.875 0.4375 5.15
3.9375 0.4375 5.15
4 0.4375 5.15
0 0.5 5.15
0.0625 0.5 5.15
0.125 0.5 5.15
0.1875 0.5 5.15
0.25 0.5 5.15
0.3125 0.5 5.15
0.375 0.5 5.15
0.4375 0.5 5.15
0.5 0.5 5.15
0.5625 0.5 5.15
0.625 0.5 5.15
0.6875 0.5 5.15
0.75 0.5 5.15
0.8125 0.5 5.15
0.875 0.5 5.15
0.9375 0.5 5.15
1 0.5 5.15
1.0625 0.5 5.15
1.125 0.5 5.15
1.1875 0.5 5.15
1.25 0.5 5.15
1.3125 0.5 5.15
1.375 0.5 5.15
1.4375 0.5 5.15
1.5 0.5 5.15
1.5625 0.5 5.15
1.625 0.5 5.15
1.6875 0.5 5.15
1.75 0.5 5.15
1.8125 0.5 5.15
1.875 0.5 5.15
1.9375 0.5 5.15
2 0.5 5.15
2.0625 0.5 5.15
2.125 0.5 5.15
2.1875 0.5 5.15
2.25 0.5 5.15
2.3125 0.5 5.15
2.375 0.5 5.15
2.4375 0.5 5.15
2.5 0.5 5.15
2.5625 0.5 5.15
2.625 0.5 5.15
2.6875 0.5 5.15
2.75 0.5 5.15
2.8125 0.5 5.15
2.875 0.5 5.15
2.9375 0.5 5.15
3 0.5 5.15
3.0625 0.5 5.15
3.125 0.5 5.15
3.1875 0.5 5.15
3.25 0.5 5.15
3.3125 0.5 5.15
3.375 0.5 5.15
3.4375 0.5 5.15
3.5 0.5 5.15
3.5625 0.5 5.15
3.625 0.5 5.15
3.6875 0.5 5.15
3.75 0.5 5.15
3.8125 0.5 5.15
3.875 0.5 5.15
3.9375 0.5 5.15
4 0.5 5.15
0 0.5625 5.15
0.0625 0.5625 5.15
0.125 0.5625 5.15
0.1875 0.5625 5.15
0.25 0.5625 5.15
0.3125 0.5625 5.15
0.375 0.5625 5.15
0.4375 0.5625 5.15
0.5 0.5625 5.15
0.5625 0.5625 5.15
0.625 0.5625 5.15
0.6875 0.5625 5.15
0.75 0.5625 5.15
0.8125 0.5625 5.15
0.875 0.5625 5.15
0.9375 0.5625 5.15
1 0.5625 5.15
1.0625 0.5625 5.15
1.125 0.5625 5.15
1.1875 0.5625 5.15
1.25 0.5625 5.15
1.3125 0.5625 5.15
1.375 0.5625 5.15
1.4375 0.5625 5.15
1.5 0.5625 5.15
1.5625 0.5625 5.15
1.625 0.5625 5.15
1.6875 0.5625 5.15
1.75 0.5625 5.15
1.8125 0.5625 5.15
1.875 0.5625 5.15
1.9375 0.5625 5.15
2 0.5625 5.15
2.0625 0.5625 5.15
2.125 0.5625 5.15
2.1875 0.5625 5.15
2.25 0.5625 5.15
2.3125 0.5625 5.15
2.375 0.5625 5.15
2.4375 0.5625 5.15
2.5 0.5625 5.15
2.5625 0.5625 5.15
2.625 0.5625 5.15
2.6875 0.5625 5.15
2.75 0.5625 5.15
2.8125 0.5625 5.15
2.875 0.5625 5.15
2.9375 0.5625 5.15
3 0.5625 5.15
3.0625 0.5625 5.15
3.125 0.5625 5.15
3.1875 0.5625 5.15
3.25 0.5625 5.15
3.3125 0.5625 5.15
3.375 0.5625 5.15
3.4375 0.5625 5.15
3.5 0.5625 5.15
3.5625 0.5625 5.15
3.625 0.5625 5.15
3.6875 0.5625 5.15
3.75 0.5625 5.15
3.8125 0.5625 5.15
3.875 0.5625 5.15
3.9375 0.5625 5.15
4 0.5625 5.15
0 0.625 5.15
0.0625 0.625 5.15
0.125 0.625 5.15
0.1875 0.625 5.15
0.25 0.625 5.15
0.3125 0.625 5.15
0.375 0.625 5.15
0.4375 0.625 5.15
0.5 0.625 5.15
0.5625 0.625 5.15
0.625 0.625 5.15
0.6875 0.625 5.15
0.75 0.625 5.15
0.8125 0.625 5.15
0.875 0.625 5.15
0.9375 0.625 5.15
1 0.625 5.15
1.0625 0.625 5.15
1.125 0.625 5.15
1.1875 0.625 5.15
1.25 0.625 5.15
1.3125 0.625 5.15
1.375 0.625 5.15
1.4375 0.625 5.15
1.5 0.625 5.15
1.5625 0.625 5.15
1.625 0.625 5.15
1.6875 0.625 5.15
1.75 0.625 5.15
1.8125 0.625 5.15
1.875 0.625 5.15
1.9375 0.625 5.15
2 0.625 5.15
2.0625 0.625 5.15
2.125 0.625 5.15
2.1875 0.625 5.15
2.25 0.625 5.15
2.3125 0.625 5.15
2.375 0.625 5.15
2.4375 0.625 5.15
2.5 0.625 5.15
2.5625 0.625 5.15
2.625 0.625 5.15
2.6875 0.625 5.15
2.75 0.625 5.15
2.8125 0.625 5.15
2.875 0.625 5.15
2.9375 0.625 5.15
3 0.625 5.15
3.0625 0.625 5.15
3.125 0.625 5.15
3.1875 0.625 5.15
3.25 0.625 5.15
3.3125 0.625 5.15
3.375 0.625 5.15
3.4375 0.625 5.15
3.5 0.625 5.15
3.5625 0.625 5.15
3.625 0.625 5.15
3.6875 0.625 5.15
3.75 0.625 5.15
3.8125 0.625 5.15
3.875 0.625 5.15
3.9375 0.625 5.15
4 0.625 5.15
0 0.6875 5.15
0.0625 0.6875 5.15
0.125 0.6875 5.15
0.1875 0.6875 5.15
0.25 0.6875 5.15
0.3125 0.6875 5.15
0.375 0.6875 5.15
0.4375 0.6875 5.15
0.5 0.6875 5.15
0.5625 0.6875 5.15
0.625 0.6875 5.15
0.6875 0.6875 5.15
0.75 0.6875 5.15
0.8125 0.6875 5.15
0.875 0.6875 5.15
0.9375 0.6875 5.15
1 0.6875 5.15
1.0625 0.6875 5.15
1.125 0.6875 5.15
1.1875 0.6875 5.15
1.25 0.6875 5.15
1.3125 0.6875 5.15
1.375 0.6875 5.15
1.4375 0.6875 5.15
1.5 0.6875 5.15
1.5625 0.6875 5.15
1.625 0.6875 5.15
1.6875 0.6875 5.15
1.75 0.6875 5.15
1.8125 0.6875 5.15
1.875 0.6875 5.15
1.9375 0.6875 5.15
2 0.6875 5.15
2.0625 0.6875 5.15
2.125 0.6875 5.15
2.1875 0.6875 5.15
2.25 0.6875 5.15
2.3125 0.6875 5.15
2.375 0.6875 5.15
2.4375 0.6875 5.15
2.5 0.6875 5.15
2.5625 0.6875 5.15
2.625 0.6875 5.15
2.6875 0.6875 5.15
2.75 0.6875 5.15
2.8125 0.6875 5.15
2.875 0.6875 5.15
2.9375 0.6875 5.15
3 0.6875 5.15
3.0625 0.6875 5.15
3.125 0.6875 5.15
3.1875 0.6875 5.15
3.25 0.6875 5.15
3.3125 0.6875 5.15
3.375 0.6875 5.15
3.4375 0.6875 5.15
3.5 0.6875 5.15
3.5625 0.6875 5.15
3.625 0.6875 5.15
3.6875 0.6875 5.15
3.75 0.6875 5.15
3.8125 0.6875 5.15
3.875 0.6875 5.15
3.9375 0.6875 5.15
4 0.6875 5.15
0 0.75 5.15
0.0625 0.75 5.15
0.125 0.75 5.15
0.1875 0.75 5.15
0.25 0.75 5.15
0.3125 0.75 5.15
0.375 0.75 5.15
0.4375 0.75 5.15
0.5 0.75 5.15
0.5625 0.75 5.15
0.625 0.75 5.15
0.6875 0.75 5.15
0.75 0.75 5.15
0.8125 0.75 5.15
0.875 0.75 5.15
0.9375 0.75 5.15
1 0.75 5.15
1.0625 0.75 5.15
1.125 0.75 5.15
1.1875 0.75 5.15
1.25 0.75 5.15
1.3125 0.75 5.15
1.375 0.75 5.15
1.4375 0.75 5.15
1.5 0.75 5.15
1.5625 0.75 5.15
1.625 0.75 5.15
1.6875 0.75 5.15
1.75 0.75 5.15
1.8125 0.75 5.15
1.875 0.75 5.15
1.9375 0.75 5.15
2 0.75 5.15
2.0625 0.75 5.15
2.125 0.75 5.15
2.1875 0.75 5.15
2.25 0.75 5.15
2.3125 0.75 5.15
2.375 0.75 5.15
2.4375 0.75 5.15
2.5 0.75 5.15
2.5625 0.75 5.15
2.625 0.75 5.15
2.6875 0.75 5.15
2.75 0.75 5.15
2.8125 0.75 5.15
2.875 0.75 5.15
2.9375 0.75 5.15
3 0.75 5.15
3.0625 0.75 5.15
3.125 0.75 5.15
3.1875 0.75 5.15
3.25 0.75 5.15
3.3125 0.75 5.15
3.375 0.75 5.15
3.4375 0.75 5.15
3.5 0.75 5.15
3.5625 0.75 5.15
3.625 0.75 5.15
3.6875 0.75 5.15
3.75 0.75 5.15
3.8125 0.75 5.15
3.875 0.75 5.15
3.9375 0.75 5.15
4 0.75 5.15
0 0.8125 5.15
0.0625 0.8125 5.15
0.125 0.8125 5.15
0.1875 0.8125 5.15
0.25 0.8125 5.15
0.3125 0.8125 5.15
0.375 0.8125 5.15
0.4375 0.8125 5.15
0.5 0.8125 5.15
0.5625 0.8125 5.15
0.625 0.8125 5.15
0.6875 0.8125 5.15
0.75 0.8125 5.15
0.8125 0.8125 5.15
0.875 0.8125 5.15
0.9375 0.8125 5.15
1 0.8125 5.15
1.0625 0.8125 5.15
1.125 0.8125 5.15
1.1875 0.8125 5.15
1.25 0.8125 5.15
1.3125 0.8125 5.15
1.375 0.8125 5.15
1.4375 0.8125 5.15
1.5 0.8125 5.15
1.5625 0.8125 5.15
1.625 0.8125 5.15
1.6875 0.8125 5.15
1.75 0.8125 5.15
1.8125 0.8125 5.15
1.875 0.8125 5.15
1.9375 0.8125 5.15
2 0.8125 5.15
2.0625 0.8125 5.15
2.125 0.8125 5.15
2.1875 0.8125 5.15
2.25 0.8125 5.15
2.3125 0.8125 5.15
2.375 0.8125 5.15
2.4375 0.8125 5.15
2.5 0.8125 5.15
2.5625 0.8125 5.15
2.625 0.8125 5.15
2.6875 0.8125 5.15
2.75 0.8125 5.15
2.8125 0.8125 5.15
2.875 0.8125 5.15
2.9375 0.8125 5.15
3 0.8125 5.15
3.0625 0.8125 5.15
3.125 0.8125 5.15
3.1875 0.8125 5.15
3.25 0.8125 5.15
3.3125 0.8125 5.15
3.375 0.8125 5.15
3.4375 0.8125 5.15
3.5 0.8125 5.15
3.5625 0.8125 5.15
3.625 0.8125 5.15
3.6875 0.8125 5.15
3.75 0.8125 5.15
3.8125 0.8125 5.15
3.875 0.8125 5.15
3.9375 0.8125 5.15
4 0.8125 5.15
0 0.875 5.15
0.0625 0.875 5.15
0.125 0.875 5.15
0.1875 0.875 5.15
0.25 0.875 5.15
0.3125 0.875 5.15
0.375 0.875 5.15
0.4375 0.875 5.15
0.5 0.875 5.15
0.5625 0.875 5.15
0.625 0.875 5.15
0.6875 0.875 5.15
0.75 0.875 5.15
0.8125 0.875 5.15
0.875 0.875 5.15
0.9375 0.875 5.15
1 0.875 5.15
1.0625 0.875 5.15
1.125 0.875 5.15
1.1875 0.875 5.15
1.25 0.875 5.15
1.3125 0.875 5.15
1.375 0.875 5.15
1.4375 0.875 5.15
1.5 0.875 5.15
1.5625 0.875 5.15
1.625 0.875 5.15
1.6875 0.875 5.15
1.75 0.875 5.15
1.8125 0.875 5.15
1.875 0.875 5.15
1.9375 0.875 5.15
2 0.875 5.15
2.0625 0.875 5.15
2.125 0.875 5.15
2.1875 0.875 5.15
2.25 0.875 5.15
2.3125 0.875 5.15
2.375 0.875 5.15
2.4375 0.875 5.15
2.5 0.875 5.15
2.5625 0.875 5.15
2.625 0.875 5.15
2.6875 0.875 5.15
2.75 0.875 5.15
2.8125 0.875 5.15
2.875 0.875 5.15
2.9375 0.875 5.15
3 0.875 5.15
3.0625 0.875 5.15
3.125 0.875 5.15
3.1875 0.875 5.15
3.25 0.875 5.15
3.3125 0.875 5.15
3.375 0.875 5.15
3.4375 0.875 5.15
3.5 0.875 5.15
3.5625 0.875 5.15
3.625 0.875 5.15
3.6875 0.875 5.15
3.75 0.875 5.15
3.8125 0.875 5.15
3.875 0.875 5.15
3.9375 0.875 5.15
4 0.875 5.15
0 0.9375 5.15
0.0625 0.9375 5.15
0.125 0.9375 5.15
0.1875 0.9375 5.15
0.25 0.9375 5.15
0.3125 0.9375 5.15
0.375 0.9375 5.15
0.4375 0.9375 5.15
0.5 0.9375 5.15
0.5625 0.9375 5.15
0.625 0.9375 5.15
0.6875 0.9375 5.15
0.75 0.9375 5.15
0.8125 0.9375 5.15
0.875 0.9375 5.15
0.9375 0.9375 5.15
1 0.9375 5.15
1.0625 0.9375 5.15
1.125 0.9375 5.15
1.1875 0.9375 5.15
1.25 0.9375 5.15
1.3125 0.9375 5.15
1.375 0.9375 5.15
1.4375 0.9375 5.15
1.5 0.9375 5.15
1.5625 0.9375 5.15
1.625 0.9375 5.15
1.6875 0.9375 5.15
1.75 0.9375 5.15
1.8125 0.9375 5.15
1.875 0.9375 5.15
1.9375 0.9375 5.15
2 0.9375 5.15
2.0625 0.9375 5.15
2.125 0.9375 5.15
2.1875 0.9375 5.15
2.25 0.9375 5.15
2.3125 0.9375 5.15
2.375 0.9375 5.15
2.4375 0.9375 5.15
2.5 0.9375 5.15
2.5625 0.9375 5.15
2.625 0.9375 5.15
2.6875 0.9375 5.15
2.75 0.9375 5.15
2.8125 0.9375 5.15
2.875 0.9375 5.15
2.9375 0.9375 5.15
3 0.9375 5.15
3.0625 0.9375 5.15
3.125 0.9375 5.15
3.1875 0.9375 5.15
3.25 0.9375 5.15
3.3125 0.9375 5.15
3.375 0.9375 5.15
3.4375 0.9375 5.15
3.5 0.9375 5.15
3.5625 0.9375 5.15
3.625 0.9375 5.15
3.6875 0.9375 5.15
3.75 0.9375 5.15
3.8125 0.9375 5.15
3.875 0.9375 5.15
3.9375 0.9375 5.15
4 0.9375 5.15
0 1 5.15
0.0625 1 5.15
0.125 1 5.15
0.1875 1 5.15
0.25 1 5.15
0.3125 1 5.15
0.375 1 5.15
0.4375 1 5.15
0.5 1 5.15
0.5625 1 5.15
0.625 1 5.15
0.6875 1 5.15
0.75 1 5.15
0.8125 1 5.15
0.875 1 5.15
0.9375 1 5.15
1 1 5.15
1.0625 1 5.15
1.125 1 5.15
1.1875 1 5.15
1.25 1 5.15
1.3125 1 5.15
1.375 1 5.15
1.4375 1 5.15
1.5 1 5.15
1.5625 1 5.15
1.625 1 5.15
1.6875 1 5.15
1.75 1 5.15
1.8125 1 5.15
1.875 1 5.15
1.9375 1 5.15
2 1 5.15
2.0625 1 5.15
2.125 1 5.15
2.1875 1 5.15
2.25 1 5.15
2.3125 1 5.15
2.375 1 5.15
2.4375 1 5.15
2.5 1 5.15
2.5625 1 5.15
2.625 1 5.15
2.6875 1 5.15
2.75 1 5.15
2.8125 1 5.15
2.875 1 5.15
2.9375 1 5.15
3 1 5.15
3.0625 1 5.15
3.125 1 5.15
3.1875 1 5.15
3.25 1 5.15
3.3125 1 5.15
3.375 1 5.15
3.4375 1 5.15
3.5 1 5.15
3.5625 1 5.15
3.625 1 5.15
3.6875 1 5.15
3.75 1 5.15
3.8125 1 5.15
3.875 1 5.15
3.9375 1 5.15
4 1 5.15
0 0 5.2125
0.0625 0 5.2125
0.125 0 5.2125
0.1875 0 5.2125
0.25 0 5.2125
0.3125 0 5.2125
0.375 0 5.2125
0.4375 0 5.2125
0.5 0 5.2125
0.5625 0 5.2125
0.625 0 5.2125
0.6875 0 5.2125
0.75 0 5.2125
0.8125 0 5.2125
0.875 0 5.2125
0.9375 0 5.2125
1 0 5.2125
1.0625 0 5.2125
1.125 0 5.2125
1.1875 0 5.2125
1.25 0 5.2125
1.3125 0 5.2125
1.375 0 5.2125
1.4375 0 5.2125
1.5 0 5.2125
1.5625 0 5.2125
1.625 0 5.2125
1.6875 0 5.2125
1.75 0 5.2125
1.8125 0 5.2125
1.875 0 5.2125
1.9375 0 5.2125
2 0 5.2125
2.0625 0 5.2125
2.125 0 5.2125
2.1875 0 5.2125
2.25 0 5.2125
2.3125 0 5.2125
2.375 0 5.2125
2.4375 0 5.2125
2.5 0 5.2125
2.5625 0 5.2125
2.625 0 5.2125
2.6875 0 5.2125
2.75 0 5.2125
2.8125 0 5.2125
2.875 0 5.2125
2.9375 0 5.2125
3 0 5.2125
3.0625 0 5.2125
3.125 0 5.2125
3.1875 0 5.2125
3.25 0 5.2125
3.3125 0 5.2125
3.375 0 5.2125
3.4375 0 5.2125
3.5 0 5.2125
3.5625 0 5.2125
3.625 0 5.2125
3.6875 0 5.2125
3.75 0 5.2125
3.8125 0 5.2125
3.875 0 5.2125
3.9375 0 5.2125
4 0 5.2125
0 0.0625 5.2125
0.0625 0.0625 5.2125
0.125 0.0625 5.2125
0.1875 0.0625 5.2125
0.25 0.0625 5.2125
0.3125 0.0625 5.2125
0.375 0.0625 5.2125
0.4375 0.0625 5.2125
0.5 0.0625 5.2125
0.5625 0.0625 5.2125
0.625 0.0625 5.2125
0.6875 0.0625 5.2125
0.75 0.0625 5.2125
0.8125 0.0625 5.2125
0.875 0.0625 5.2125
0.9375 0.0625 5.2125
1 0.0625 5.2125
1.0625 0.0625 5.2125
1.125 0.0625 5.2125
1.1875 0.0625 5.2125
1.25 0.0625 5.2125
1.3125 0.0625 5.2125
1.375 0.0625 5.2125
1.4375 0.0625 5.2125
1.5 0.0625 5.2125
1.5625 0.0625 5.2125
1.625 0.0625 5.2125
1.6875 0.0625 5.2125
1.75 0.0625 5.2125
1.8125 0.0625 5.2125
1.875 0.0625 5.2125
1.9375 0.0625 5.2125
2 0.0625 5.2125
2.0625 0.0625 5.2125
2.125 0.0625 5.2125
2.1875 0.0625 5.2125
2.25 0.0625 5.2125
2.3125 0.0625 5.2125
2.375 0.0625 5.2125
2.4375 0.0625 5.2125
2.5 0.0625 5.2125
2.5625 0.0625 5.2125
2.625 0.0625 5.2125
2.6875 0.0625 5.2125
2.75 0.0625 5.2125
2.8125 0.0625 5.2125
2.875 0.0625 5.2125
2.9375 0.0625 5.2125
3 0.0625 5.2125
3.0625 0.0625 5.2125
3.125 0.0625 5.2125
3.1875 0.0625 5.2125
3.25 0.0625 5.2125
3.3125 0.0625 5.2125
3.375 0.0625 5.2125
3.4375 0.0625 5.2125
3.5 0.0625 5.2125
3.5625 0.0625 5.2125
3.625 0.0625 5.2125
3.6875 0.0625 5.2125
3.75 0.0625 5.2125
3.8125 0.0625 5.2125
3.875 0.0625 5.2125
3.9375 0.0625 5.2125
4 0.0625 5.2125
0 0.125 5.2125
0.0625 0.125 5.2125
0.125 0.125 5.2125
0.1875 0.125 5.2125
0.25 0.125 5.2125
0.3125 0.125 5.2125
0.375 0.125 5.2125
0.4375 0.125 5.2125
0.5 0.125 5.2125
0.5625 0.125 5.2125
0.625 0.125 5.2125
0.6875 0.125 5.2125
0.75 0.125 5.2125
0.8125 0.125 5.2125
0.875 0.125 5.2125
0.9375 0.125 5.2125
1 0.125 5.2125
1.0625 0.125 5.2125
1.125 0.125 5.2125
1.1875 0.125 5.2125
1.25 0.125 5.2125
1.3125 0.125 5.2125
1.375 0.125 5.2125
1.4375 0.125 5.2125
1.5 0.125 5.2125
1.5625 0.125 5.2125
1.625 0.125 5.2125
1.6875 0.125 5.2125
1.75 0.125 5.2125
1.8125 0.125 5.2125
1.875 0.125 5.2125
1.9375 0.125 5.2125
2 0.125 5.2125
2.0625 0.125 5.2125
2.125 0.125 5.2125
2.1875 0.125 5.2125
2.25 0.125 5.2125
2.3125 0.125 5.2125
2.375 0.125 5.2125
2.4375 0.125 5.2125
2.5 0.125 5.2125
2.5625 0.125 5.2125
2.625 0.125 5.2125
2.6875 0.125 5.2125
2.75 0.125 5.2125
2.8125 0.125 5.2125
2.875 0.125 5.2125
2.9375 0.125 5.2125
3 0.125 5.2125
3.0625 0.125 5.2125
3.125 0.125 5.2125
3.1875 0.125 5.2125
3.25 0.125 5.2125
3.3125 0.125 5.2125
3.375 0.125 5.2125
3.4375 0.125 5.2125
3.5 0.125 5.2125
3.5625 0.125 5.2125
3.625 0.125 5.2125
3.6875 0.125 5.2125
3.75 0.125 5.2125
3.8125 0.125 5.2125
3.875 0.125 5.2125
3.9375 0.125 5.2125
4 0.125 5.2125
0 0.1875 5.2125
0.0625 0.1875 5.2125
0.125 0.1875 5.2125
0.1875 0.1875 5.2125
0.25 0.1875 5.2125
0.3125 0.1875 5.2125
0.375 0.1875 5.2125
0.4375 0.1875 5.2125
0.5 0.1875 5.2125
0.5625 0.1875 5.2125
0.625 0.1875 5.2125
0.6875 0.1875 5.2125
0.75 0.1875 5.2125
0.8125 0.1875 5.2125
0.875 0.1875 5.2125
0.9375 0.1875 5.2125
1 0.1875 5.2125
1.0625 0.1875 5.2125
1.125 0.1875 5.2125
1.1875 0.1875 5.2125
1.25 0.1875 5.2125
1.3125 0.1875 5.2125
1.375 0.1875 5.2125
1.4375 0.1875 5.2125
1.5 0.1875 5.2125
1.5625 0.1875 5.2125
1.625 0.1875 5.2125
1.6875 0.1875 5.2125
1.75 0.1875 5.2125
1.8125 0.1875 5.2125
1.875 0.1875 5.2125
1.9375 0.1875 5.2125
2 0.1875 5.2125
2.0625 0.1875 5.2125
2.125 0.1875 5.2125
2.1875 0.1875 5.2125
2.25 0.1875 5.2125
2.3125 0.1875 5.2125
2.375 0.1875 5.2125
2.4375 0.1875 5.2125
2.5 0.1875 5.2125
2.5625 0.1875 5.2125
2.625 0.1875 5.2125
2.6875 0.1875 5.2125
2.75 0.1875 5.2125
2.8125 0.1875 5.2125
2.875 0.1875 5.2125
2.9375 0.1875 5.2125
3 0.1875 5.2125
3.0625 0.1875 5.2125
3.125 0.1875 5.2125
3.1875 0.1875 5.2125
3.25 0.1875 5.2125
3.3125 0.1875 5.2125
3.375 0.1875 5.2125
3.4375 0.1875 5.2125
3.5 0.1875 5.2125
3.5625 0.1875 5.2125
3.625 0.1875 5.2125
3.6875 0.1875 5.2125
3.75 0.1875 5.2125
3.8125 0.1875 5.2125
3.875 0.1875 5.2125
3.9375 0.1875 5.2125
4 0.1875 5.2125
0 0.25 5.2125
0.0625 0.25 5.2125
0.125 0.25 5.2125
0.1875 0.25 5.2125
0.25 0.25 5.2125
0.3125 0.25 5.2125
0.375 0.25 5.2125
0.4375 0.25 5.2125
0.5 0.25 5.2125
0.5625 0.25 5.2125
0.625 0.25 5.2125
0.6875 0.25 5.2125
0.75 0.25 5.2125
0.8125 0.25 5.2125
0.875 0.25 5.2125
0.9375 0.25 5.2125
1 0.25 5.2125
1.0625 0.25 5.2125
1.125 0.25 5.2125
1.1875 0.25 5.2125
1.25 0.25 5.2125
1.3125 0.25 5.2125
1.375 0.25 5.2125
1.4375 0.25 5.2125
1.5 0.25 5.2125
1.5625 0.25 5.2125
1.625 0.25 5.2125
1.6875 0.25 5.2125
1.75 0.25 5.2125
1.8125 0.25 5.2125
1.875 0.25 5.2125
1.9375 0.25 5.2125
2 0.25 5.2125
2.0625 0.25 5.2125
2.125 0.25 5.2125
2.1875 0.25 5.2125
2.25 0.25 5.2125
2.3125 0.25 5.2125
2.375 0.25 5.2125
2.4375 0.25 5.2125
2.5 0.25 5.2125
2.5625 0.25 5.2125
2.625 0.25 5.2125
2.6875 0.25 5.2125
2.75 0.25 5.2125
2.8125 0.25 5.2125
2.875 0.25 5.2125
2.9375 0.25 5.2125
3 0.25 5.2125
3.0625 0.25 5.2125
3.125 0.25 5.2125
3.1875 0.25 5.2125
3.25 0.25 5.2125
3.3125 0.25 5.2125
3.375 0.25 5.2125
3.4375 0.25 5.2125
3.5 0.25 5.2125
3.5625 0.25 5.2125
3.625 0.25 5.2125
3.6875 0.25 5.2125
3.75 0.25 5.2125
3.8125 0.25 5.2125
3.875 0.25 5.2125
3.9375 0.25 5.2125
4 0.25 5.2125
0 0.3125 5.2125
0.0625 0.3125 5.2125
0.125 0.3125 5.2125
0.1875 0.3125 5.2125
0.25 0.3125 5.2125
0.3125 0.3125 5.2125
0.375 0.3125 5.2125
0.4375 0.3125 5.2125
0.5 0.3125 5.2125
0.5625 0.3125 5.2125
0.625 0.3125 5.2125
0.6875 0.3125 5.2125
0.75 0.3125 5.2125
0.8125 0.3125 5.2125
0.875 0.3125 5.2125
0.9375 0.3125 5.2125
1 0.3125 5.2125
1.0625 0.3125 5.2125
1.125 0.3125 5.2125
1.1875 0.3125 5.2125
1.25 0.3125 5.2125
1.3125 0.3125 5.2125
1.375 0.3125 5.2125
1.4375 0.3125 5.2125
1.5 0.3125 5.2125
1.5625 0.3125 5.2125
1.625 0.3125 5.2125
1.6875 0.3125 5.2125
1.75 0.3125 5.2125
1.8125 0.3125 5.2125
1.875 0.3125 5.2125
1.9375 0.3125 5.2125
2 0.3125 5.2125
2.0625 0.3125 5.2125
2.125 0.3125 5.2125
2.1875 0.3125 5.2125
2.25 0.3125 5.2125
2.3125 0.3125 5.2125
2.375 0.3125 5.2125
2.4375 0.3125 5.2125
2.5 0.3125 5.2125
2.5625 0.3125 5.2125
2.625 0.3125 5.2125
2.6875 0.3125 5.2125
2.75 0.3125 5.2125
2.8125 0.3125 5.2125
2.875 0.3125 5.2125
2.9375 0.3125 5.2125
3 0.3125 5.2125
3.0625 0.3125 5.2125
3.125 0.3125 5.2125
3.1875 0.3125 5.2125
3.25 0.3125 5.2125
3.3125 0.3125 5.2125
3.375 0.3125 5.2125
3.4375 0.3125 5.2125
3.5 0.3125 5.2125
3.5625 0.3125 5.2125
3.625 0.3125 5.2125
3.6875 0.3125 5.2125
3.75 0.3125 5.2125
3.8125 0.3125 5.2125
3.875 0.3125 5.2125
3.9375 0.3125 5.2125
4 0.3125 5.2125
0 0.375 5.2125
0.0625 0.375 5.2125
0.125 0.375 5.2125
0.1875 0.375 5.2125
0.25 0.375 5.2125
0.3125 0.375 5.2125
0.375 0.375 5.2125
0.4375 0.375 5.2125
0.5 0.375 5.2125
0.5625 0.375 5.2125
0.625 0.375 5.2125
0.6875 0.375 5.2125
0.75 0.375 5.2125
0.8125 0.375 5.2125
0.875 0.375 5.2125
0.9375 0.375 5.2125
1 0.375 5.2125
1.0625 0.375 5.2125
1.125 0.375 5.2125
1.1875 0.375 5.2125
1.25 0.375 5.2125
1.3125 0.375 5.2125
1.375 0.375 5.2125
1.4375 0.375 5.2125
1.5 0.375 5.2125
1.5625 0.375 5.2125
1.625 0.375 5.2125
1.6875 0.375 5.2125
1.75 0.375 5.2125
1.8125 0.375 5.2125
1.875 0.375 5.2125
1.9375 0.375 5.2125
2 0.375 5.2125
2.0625 0.375 5.2125
2.125 0.375 5.2125
2.1875 0.375 5.2125
2.25 0.375 5.2125
2.3125 0.375 5.2125
2.375 0.375 5.2125
2.4375 0.375 5.2125
2.5 0.375 5.2125
2.5625 0.375 5.2125
2.625 0.375 5.2125
2.6875 0.375 5.2125
2.75 0.375 5.2125
2.8125 0.375 5.2125
2.875 0.375 5.2125
2.9375 0.375 5.2125
3 0.375 5.2125
3.0625 0.375 5.2125
3.125 0.375 5.2125
3.1875 0.375 5.2125
3.25 0.375 5.2125
3.3125 0.375 5.2125
3.375 0.375 5.2125
3.4375 0.375 5.2125
3.5 0.375 5.2125
3.5625 0.375 5.2125
3.625 0.375 5.2125
3.6875 0.375 5.2125
3.75 0.375 5.2125
3.8125 0.375 5.2125
3.875 0.375 5.2125
3.9375 0.375 5.2125
4 0.375 5.2125
0 0.4375 5.2125
0.0625 0.4375 5.2125
0.125 0.4375 5.2125
0.1875 0.4375 5.2125
0.25 0.4375 5.2125
0.3125 0.4375 5.2125
0.375 0.4375 5.2125
0.4375 0.4375 5.2125
0.5 0.4375 5.2125
0.5625 0.4375 5.2125
0.625 0.4375 5.2125
0.6875 0.4375 5.2125
0.75 0.4375 5.2125
0.8125 0.4375 5.2125
0.875 0.4375 5.2125
0.9375 0.4375 5.2125
1 0.4375 5.2125
1.0625 0.4375 5.2125
1.125 0.4375 5.2125
1.1875 0.4375 5.2125
1.25 0.4375 5.2125
1.3125 0.4375 5.2125
1.375 0.4375 5.2125
1.4375 0.4375 5.2125
1.5 0.4375 5.2125
1.5625 0.4375 5.2125
1.625 0.4375 5.2125
1.6875 0.4375 5.2125
1.75 0.4375 5.2125
1.8125 0.4375 5.2125
1.875 0.4375 5.2125
1.9375 0.4375 5.2125
2 0.4375 5.2125
2.0625 0.4375 5.2125
2.125 0.4375 5.2125
2.1875 0.4375 5.2125
2.25 0.4375 5.2125
2.3125 0.4375 5.2125
2.375 0.4375 5.2125
2.4375 0.4375 5.2125
2.5 0.4375 5.2125
2.5625 0.4375 5.2125
2.625 0.4375 5.2125
2.6875 0.4375 5.2125
2.75 0.4375 5.2125
2.8125 0.4375 5.2125
2.875 0.4375 5.2125
2.9375 0.4375 5.2125
3 0.4375 5.2125
3.0625 0.4375 5.2125
3.125 0.4375 5.2125
3.1875 0.4375 5.2125
3.25 0.4375 5.2125
3.3125 0.4375 5.2125
3.375 0.4375 5.2125
3.4375 0.4375 5.2125
3.5 0.4375 5.2125
3.5625 0.4375 5.2125
3.625 0.4375 5.2125
3.6875 0.4375 5.2125
3.75 0.4375 5.2125
3.8125 0.4375 5.2125
3.875 0.4375 5.2125
3.9375 0.4375 5.2125
4 0.4375 5.2125
0 0.5 5.2125
0.0625 0.5 5.2125
0.125 0.5 5.2125
0.1875 0.5 5.2125
0.25 0.5 5.2125
0.3125 0.5 5.2125
0.375 0.5 5.2125
0.4375 0.5 5.2125
0.5 0.5 5.2125
0.5625 0.5 5.2125
0.625 0.5 5.2125
0.6875 0.5 5.2125
0.75 0.5 5.2125
0.8125 0.5 5.2125
0.875 0.5 5.2125
0.9375 0.5 5.2125
1 0.5 5.2125
1.0625 0.5 5.2125
1.125 0.5 5.2125
1.1875 0.5 5.2125
1.25 0.5 5.2125
1.3125 0.5 5.2125
1.375 0.5 5.2125
1.4375 0.5 5.2125
1.5 0.5 5.2125
1.5625 0.5 5.2125
1.625 0.5 5.2125
1.6875 0.5 5.2125
1.75 0.5 5.2125
1.8125 0.5 5.2125
1.875 0.5 5.2125
1.9375 0.5 5.2125
2 0.5 5.2125
2.0625 0.5 5.2125
2.125 0.5 5.2125
2.1875 0.5 5.2125
2.25 0.5 5.2125
2.3125 0.5 5.2125
2.375 0.5 5.2125
2.4375 0.5 5.2125
2.5 0.5 5.2125
2.5625 0.5 5.2125
2.625 0.5 5.2125
2.6875 0.5 5.2125
2.75 0.5 5.2125
2.8125 0.5 5.2125
2.875 0.5 5.2125
2.9375 0.5 5.2125
3 0.5 5.2125
3.0625 0.5 5.2125
3.125 0.5 5.2125
3.1875 0.5 5.2125
3.25 0.5 5.2125
3.3125 0.5 5.2125
3.375 0.5 5.2125
3.4375 0.5 5.2125
3.5 0.5 5.2125
3.5625 0.5 5.2125
3.625 0.5 5.2125
3.6875 0.5 5.2125
3.75 0.5 5.2125
3.8125 0.5 5.2125
3.875 0.5 5.2125
3.9375 0.5 5.2125
4 0.5 5.2125
0 0.5625 5.2125
0.0625 0.5625 5.2125
0.125 0.5625 5.2125
0.1875 0.5625 5.2125
0.25 0.5625 5.2125
0.3125 0.5625 5.2125
0.375 0.5625 5.2125
0.4375 0.5625 5.2125
0.5 0.5625 5.2125
0.5625 0.5625 5.2125
0.625 0.5625 5.2125
0.6875 0.5625 5.2125
0.75 0.5625 5.2125
0.8125 0.5625 5.2125
0.875 0.5625 5.2125
0.9375 0.5625 5.2125
1 0.5625 5.2125
1.0625 0.5625 5.2125
1.125 0.5625 5.2125
1.1875 0.5625 5.2125
1.25 0.5625 5.2125
1.3125 0.5625 5.2125
1.375 0.5625 5.2125
1.4375 0.5625 5.2125
1.5 0.5625 5.2125
1.5625 0.5625 5.2125
1.625 0.5625 5.2125
1.6875 0.5625 5.2125
1.75 0.5625 5.2125
1.8125 0.5625 5.2125
1.875 0.5625 5.2125
1.9375 0.5625 5.2125
2 0.5625 5.2125
2.0625 0.5625 5.2125
2.125 0.5625 5.2125
2.1875 0.5625 5.2125
2.25 0.5625 5.2125
2.3125 0.5625 5.2125
2.375 0.5625 5.2125
2.4375 0.5625 5.2125
2.5 0.5625 5.2125
2.5625 0.5625 5.2125
2.625 0.5625 5.2125
2.6875 0.5625 5.2125
2.75 0.5625 5.2125
2.8125 0.5625 5.2125
2.875 0.5625 5.2125
2.9375 0.5625 5.2125
3 0.5625 5.2125
3.0625 0.5625 5.2125
3.125 0.5625 5.2125
3.1875 0.5625 5.2125
3.25 0.5625 5.2125
3.3125 0.5625 5.2125
3.375 0.5625 5.2125
3.4375 0.5625 5.2125
3.5 0.5625 5.2125
3.5625 0.5625 5.2125
3.625 0.5625 5.2125
3.6875 0.5625 5.2125
3.75 0.5625 5.2125
3.8125 0.5625 5.2125
3.875 0.5625 5.2125
3.9375 0.5625 5.2125
4 0.5625 5.2125
0 0.625 5.2125
0.0625 0.625 5.2125
0.125 0.625 5.2125
0.1875 0.625 5.2125
0.25 0.625 5.2125
0.3125 0.625 5.2125
0.375 0.625 5.2125
0.4375 0.625 5.2125
0.5 0.625 5.2125
0.5625 0.625 5.2125
0.625 0.625 5.2125
0.6875 0.625 5.2125
0.75 0.625 5.2125
0.8125 0.625 5.2125
0.875 0.625 5.2125
0.9375 0.625 5.2125
1 0.625 5.2125
1.0625 0.625 5.2125
1.125 0.625 5.2125
1.1875 0.625 5.2125
1.25 0.625 5.2125
1.3125 0.625 5.2125
1.375 0.625 5.2125
1.4375 0.625 5.2125
1.5 0.625 5.2125
1.5625 0.625 5.2125
1.625 0.625 5.2125
1.6875 0.625 5.2125
1.75 0.625 5.2125
1.8125 0.625 5.2125
1.875 0.625 5.2125
1.9375 0.625 5.2125
2 0.625 5.2125
2.0625 0.625 5.2125
2.125 0.625 5.2125
2.1875 0.625 5.2125
2.25 0.625 5.2125
2.3125 0.625 5.2125
2.375 0.625 5.2125
2.4375 0.625 5.2125
2.5 0.625 5.2125
2.5625 0.625 5.2125
2.625 0.625 5.2125
2.6875 0.625 5.2125
2.75 0.625 5.2125
2.8125 0.625 5.2125
2.875 0.625 5.2125
2.9375 0.625 5.2125
3 0.625 5.2125
3.0625 0.625 5.2125
3.125 0.625 5.2125
3.1875 0.625 5.2125
3.25 0.625 5.2125
3.3125 0.625 5.2125
3.375 0.625 5.2125
3.4375 0.625 5.2125
3.5 0.625 5.2125
3.5625 0.625 5.2125
3.625 0.625 5.2125
3.6875 0.625 5.2125
3.75 0.625 5.2125
3.8125 0.625 5.2125
3.875 0.625 5.2125
3.9375 0.625 5.2125
4 0.625 5.2125
0 0.6875 5.2125
0.0625 0.6875 5.2125
0.125 0.6875 5.2125
0.1875 0.6875 5.2125
0.25 0.6875 5.2125
0.3125 0.6875 5.2125
0.375 0.6875 5.2125
0.4375 0.6875 5.2125
0.5 0.6875 5.2125
0.5625 0.6875 5.2125
0.625 0.6875 5.2125
0.6875 0.6875 5.2125
0.75 0.6875 5.2125
0.8125 0.6875 5.2125
0.875 0.6875 5.2125
0.9375 0.6875 5.2125
1 0.6875 5.2125
1.0625 0.6875 5.2125
1.125 0.6875 5.2125
1.1875 0.6875 5.2125
1.25 0.6875 5.2125
1.3125 0.6875 5.2125
1.375 0.6875 5.2125
1.4375 0.6875 5.2125
1.5 0.6875 5.2125
1.5625 0.6875 5.2125
1.625 0.6875 5.2125
1.6875 0.6875 5.2125
1.75 0.6875 5.2125
1.8125 0.6875 5.2125
1.875 0.6875 5.2125
1.9375 0.6875 5.2125
2 0.6875 5.2125
2.0625 0.6875 5.2125
2.125 0.6875 5.2125
2.1875 0.6875 5.2125
2.25 0.6875 5.2125
2.3125 0.6875 5.2125
2.375 0.6875 5.2125
2.4375 0.6875 5.2125
2.5 0.6875 5.2125
2.5625 0.6875 5.2125
2.625 0.6875 5.2125
2.6875 0.6875 5.2125
2.75 0.6875 5.2125
2.8125 0.6875 5.2125
2.875 0.6875 5.2125
2.9375 0.6875 5.2125
3 0.6875 5.2125
3.0625 0.6875 5.2125
3.125 0.6875 5.2125
3.1875 0.6875 5.2125
3.25 0.6875 5.2125
3.3125 0.6875 5.2125
3.375 0.6875 5.2125
3.4375 0.6875 5.2125
3.5 0.6875 5.2125
3.5625 0.6875 5.2125
3.625 0.6875 5.2125
3.6875 0.6875 5.2125
3.75 0.6875 5.2125
3.8125 0.6875 5.2125
3.875 0.6875 5.2125
3.9375 0.6875 5.2125
4 0.6875 5.2125
0 0.75 5.2125
0.0625 0.75 5.2125
0.125 0.75 5.2125
0.1875 0.75 5.2125
0.25 0.75 5.2125
0.3125 0.75 5.2125
0.375 0.75 5.2125
0.4375 0.75 5.2125
0.5 0.75 5.2125
0.5625 0.75 5.2125
0.625 0.75 5.2125
0.6875 0.75 5.2125
0.75 0.75 5.2125
0.8125 0.75 5.2125
0.875 0.75 5.2125
0.9375 0.75 5.2125
1 0.75 5.2125
1.0625 0.75 5.2125
1.125 0.75 5.2125
1.1875 0.75 5.2125
1.25 0.75 5.2125
1.3125 0.75 5.2125
1.375 0.75 5.2125
1.4375 0.75 5.2125
1.5 0.75 5.2125
1.5625 0.75 5.2125
1.625 0.75 5.2125
1.6875 0.75 5.2125
1.75 0.75 5.2125
1.8125 0.75 5.2125
1.875 0.75 5.2125
1.9375 0.75 5.2125
2 0.75 5.2125
2.0625 0.75 5.2125
2.125 0.75 5.2125
2.1875 0.75 5.2125
2.25 0.75 5.2125
2.3125 0.75 5.2125
2.375 0.75 5.2125
2.4375 0.75 5.2125
2.5 0.75 5.2125
2.5625 0.75 5.2125
2.625 0.75 5.2125
2.6875 0.75 5.2125
2.75 0.75 5.2125
2.8125 0.75 5.2125
2.875 0.75 5.2125
2.9375 0.75 5.2125
3 0.75 5.2125
3.0625 0.75 5.2125
3.125 0.75 5.2125
3.1875 0.75 5.2125
3.25 0.75 5.2125
3.3125 0.75 5.2125
3.375 0.75 5.2125
3.4375 0.75 5.2125
3.5 0.75 5.2125
3.5625 0.75 5.2125
3.625 0.75 5.2125
3.6875 0.75 5.2125
3.75 0.75 5.2125
3.8125 0.75 5.2125
3.875 0.75 5.2125
3.9375 0.75 5.2125
4 0.75 5.2125
0 0.8125 5.2125
0.0625 0.8125 5.2125
0.125 0.8125 5.2125
0.1875 0.8125 5.2125
0.25 0.8125 5.2125
0.3125 0.8125 5.2125
0.375 0.8125 5.2125
0.4375 0.8125 5.2125
0.5 0.8125 5.2125
0.5625 0.8125 5.2125
0.625 0.8125 5.2125
0.6875 0.8125 5.2125
0.75 0.8125 5.2125
0.8125 0.8125 5.2125
0.875 0.8125 5.2125
0.9375 0.8125 5.2125
1 0.8125 5.2125
1.0625 0.8125 5.2125
1.125 0.8125 5.2125
1.1875 0.8125 5.2125
1.25 0.8125 5.2125
1.3125 0.8125 5.2125
1.375 0.8125 5.2125
1.4375 0.8125 5.2125
1.5 0.8125 5.2125
1.5625 0.8125 5.2125
1.625 0.8125 5.2125
1.6875 0.8125 5.2125
1.75 0.8125 5.2125
1.8125 0.8125 5.2125
1.875 0.8125 5.2125
1.9375 0.8125 5.2125
2 0.8125 5.2125
2.0625 0.8125 5.2125
2.125 0.8125 5.2125
2.1875 0.8125 5.2125
2.25 0.8125 5.2125
2.3125 0.8125 5.2125
2.375 0.8125 5.2125
2.4375 0.8125 5.2125
2.5 0.8125 5.2125
2.5625 0.8125 5.2125
2.625 0.8125 5.2125
2.6875 0.8125 5.2125
2.75 0.8125 5.2125
2.8125 0.8125 5.2125
2.875 0.8125 5.2125
2.9375 0.8125 5.2125
3 0.8125 5.2125
3.0625 0.8125 5.2125
3.125 0.8125 5.2125
3.1875 0.8125 5.2125
3.25 0.8125 5.2125
3.3125 0.8125 5.2125
3.375 0.8125 5.2125
3.4375 0.8125 5.2125
3.5 0.8125 5.2125
3.5625 0.8125 5.2125
3.625 0.8125 5.2125
3.6875 0.8125 5.2125
3.75 0.8125 5.2125
3.8125 0.8125 5.2125
3.875 0.8125 5.2125
3.9375 0.8125 5.2125
4 0.8125 5.2125
0 0.875 5.2125
0.0625 0.875 5.2125
0.125 0.875 5.2125
0.1875 0.875 5.2125
0.25 0.875 5.2125
0.3125 0.875 5.2125
0.375 0.875 5.2125
0.4375 0.875 5.2125
0.5 0.875 5.2125
0.5625 0.875 5.2125
0.625 0.875 5.2125
0.6875 0.875 5.2125
0.75 0.875 5.2125
0.8125 0.875 5.2125
0.875 0.875 5.2125
0.9375 0.875 5.2125
1 0.875 5.2125
1.0625 0.875 5.2125
1.125 0.875 5.2125
1.1875 0.875 5.2125
1.25 0.875 5.2125
1.3125 0.875 5.2125
1.375 0.875 5.2125
1.4375 0.875 5.2125
1.5 0.875 5.2125
1.5625 0.875 5.2125
1.625 0.875 5.2125
1.6875 0.875 5.2125
1.75 0.875 5.2125
1.8125 0.875 5.2125
1.875 0.875 5.2125
1.9375 0.875 5.2125
2 0.875 5.2125
2.0625 0.875 5.2125
2.125 0.875 5.2125
2.1875 0.875 5.2125
2.25 0.875 5.2125
2.3125 0.875 5.2125
2.375 0.875 5.2125
2.4375 0.875 5.2125
2.5 0.875 5.2125
2.5625 0.875 5.2125
2.625 0.875 5.2125
2.6875 0.875 5.2125
2.75 0.875 5.2125
2.8125 0.875 5.2125
2.875 0.875 5.2125
2.9375 0.875 5.2125
3 0.875 5.2125
3.0625 0.875 5.2125
3.125 0.875 5.2125
3.1875 0.875 5.2125
3.25 0.875 5.2125
3.3125 0.875 5.2125
3.375 0.875 5.2125
3.4375 0.875 5.2125
3.5 0.875 5.2125
3.5625 0.875 5.2125
3.625 0.875 5.2125
3.6875 0.875 5.2125
3.75 0.875 5.2125
3.8125 0.875 5.2125
3.875 0.875 5.2125
3.9375 0.875 5.2125
4 0.875 5.2125
0 0.9375 5.2125
0.0625 0.9375 5.2125
0.125 0.9375 5.2125
0.1875 0.9375 5.2125
0.25 0.9375 5.2125
0.3125 0.9375 5.2125
0.375 0.9375 5.2125
0.4375 0.9375 5.2125
0.5 0.9375 5.2125
0.5625 0.9375 5.2125
0.625 0.9375 5.2125
0.6875 0.9375 5.2125
0.75 0.9375 5.2125
0.8125 0.9375 5.2125
0.875 0.9375 5.2125
0.9375 0.9375 5.2125
1 0.9375 5.2125
1.0625 0.9375 5.2125
1.125 0.9375 5.2125
1.1875 0.9375 5.2125
1.25 0.9375 5.2125
1.3125 0.9375 5.2125
1.375 0.9375 5.2125
1.4375 0.9375 5.2125
1.5 0.9375 5.2125
1.5625 0.9375 5.2125
1.625 0.9375 5.2125
1.6875 0.9375 5.2125
1.75 0.9375 5.2125
1.8125 0.9375 5.2125
1.875 0.9375 5.2125
1.9375 0.9375 5.2125
2 0.9375 5.2125
2.0625 0.9375 5.2125
2.125 0.9375 5.2125
2.1875 0.9375 5.2125
2.25 0.9375 5.2125
2.3125 0.9375 5.2125
2.375 0.9375 5.2125
2.4375 0.9375 5.2125
2.5 0.9375 5.2125
2.5625 0.9375 5.2125
2.625 0.9375 5.2125
2.6875 0.9375 5.2125
2.75 0.9375 5.2125
2.8125 0.9375 5.2125
2.875 0.9375 5.2125
2.9375 0.9375 5.2125
3 0.9375 5.2125
3.0625 0.9375 5.2125
3.125 0.9375 5.2125
3.1875 0.9375 5.2125
3.25 0.9375 5.2125
3.3125 0.9375 5.2125
3.375 0.9375 5.2125
3.4375 0.9375 5.2125
3.5 0.9375 5.2125
3.5625 0.9375 5.2125
3.625 0.9375 5.2125
3.6875 0.9375 5.2125
3.75 0.9375 5.2125
3.8125 0.9375 5.2125
3.875 0.9375 5.2125
3.9375 0.9375 5.2125
4 0.9375 5.2125
0 1 5.2125
0.0625 1 5.2125
0.125 1 5.2125
0.1875 1 5.2125
0.25 1 5.2125
0.3125 1 5.2125
0.375 1 5.2125
0.4375 1 5.2125
0.5 1 5.2125
0.5625 1 5.2125
0.625 1 5.2125
0.6875 1 5.2125
0.75 1 5.2125
0.8125 1 5.2125
0.875 1 5.2125
0.9375 1 5.2125
1 1 5.2125
1.0625 1 5.2125
1.125 1 5.2125
1.1875 1 5.2125
1.25 1 5.2125
1.3125 1 5.2125
1.375 1 5.2125
1.4375 1 5.2125
1.5 1 5.2125
1.5625 1 5.2125
1.625 1 5.2125
1.6875 1 5.2125
1.75 1 5.2125
1.8125 1 5.2125
1.875 1 5.2125
1.9375 1 5.2125
2 1 5.2125
2.0625 1 5.2125
2.125 1 5.2125
2.1875 1 5.2125
2.25 1 5.2125
2.3125 1 5.2125
2.375 1 5.2125
2.4375 1 5.2125
2.5 1 5.2125
2.5625 1 5.2125
2.625 1 5.2125
2.6875 1 5.2125
2.75 1 5.2125
2.8125 1 5.2125
2.875 1 5.2125
2.9375 1 5.2125
3 1 5.2125
3.0625 1 5.2125
3.125 1 5.2125
3.1875 1 5.2125
3.25 1 5.2125
3.3125 1 5.2125
3.375 1 5.2125
3.4375 1 5.2125
3.5 1 5.2125
3.5625 1 5.2125
3.625 1 5.2125
3.6875 1 5.2125
3.75 1 5.2125
3.8125 1 5.2125
3.875 1 5.2125
3.9375 1 5.2125
4 1 5.2125
0 0 5.275
0.0625 0 5.275
0.125 0 5.275
0.1875 0 5.275
0.25 0 5.275
0.3125 0 5.275
0.375 0 5.275
0.4375 0 5.275
0.5 0 5.275
0.5625 0 5.275
0.625 0 5.275
0.6875 0 5.275
0.75 0 5.275
0.8125 0 5.275
0.875 0 5.275
0.9375 0 5.275
1 0 5.275
1.0625 0 5.275
1.125 0 5.275
1.1875 0 5.275
1.25 0 5.275
1.3125 0 5.275
1.375 0 5.275
1.4375 0 5.275
1.5 0 5.275
1.5625 0 5.275
1.625 0 5.275
1.6875 0 5.275
1.75 0 5.275
1.8125 0 5.275
1.875 0 5.275
1.9375 0 5.275
2 0 5.275
2.0625 0 5.275
2.125 0 5.275
2.1875 0 5.275
2.25 0 5.275
2.3125 0 5.275
2.375 0 5.275
2.4375 0 5.275
2.5 0 5.275
2.5625 0 5.275
2.625 0 5.275
2.6875 0 5.275
2.75 0 5.275
2.8125 0 5.275
2.875 0 5.275
2.9375 0 5.275
3 0 5.275
3.0625 0 5.275
3.125 0 5.275
3.1875 0 5.275
3.25 0 5.275
3.3125 0 5.275
3.375 0 5.275
3.4375 0 5.275
3.5 0 5.275
3.5625 0 5.275
3.625 0 5.275
3.6875 0 5.275
3.75 0 5.275
3.8125 0 5.275
3.875 0 5.275
3.9375 0 5.275
4 0 5.275
0 0.0625 5.275
0.0625 0.0625 5.275
0.125 0.0625 5.275
0.1875 0.0625 5.275
0.25 0.0625 5.275
0.3125 0.0625 5.275
0.375 0.0625 5.275
0.4375 0.0625 5.275
0.5 0.0625 5.275
0.5625 0.0625 5.275
0.625 0.0625 5.275
0.6875 0.0625 5.275
0.75 0.0625 5.275
0.8125 0.0625 5.275
0.875 0.0625 5.275
0.9375 0.0625 5.275
1 0.0625 5.275
1.0625 0.0625 5.275
1.125 0.0625 5.275
1.1875 0.0625 5.275
1.25 0.0625 5.275
1.3125 0.0625 5.275
1.375 0.0625 5.275
1.4375 0.0625 5.275
1.5 0.0625 5.275
1.5625 0.0625 5.275
1.625 0.0625 5.275
1.6875 0.0625 5.275
1.75 0.0625 5.275
1.8125 0.0625 5.275
1.875 0.0625 5.275
1.9375 0.0625 5.275
2 0.0625 5.275
2.0625 0.0625 5.275
2.125 0.0625 5.275
2.1875 0.0625 5.275
2.25 0.0625 5.275
2.3125 0.0625 5.275
2.375 0.0625 5.275
2.4375 0.0625 5.275
2.5 0.0625 5.275
2.5625 0.0625 5.275
2.625 0.0625 5.275
2.6875 0.0625 5.275
2.75 0.0625 5.275
2.8125 0.0625 5.275
2.875 0.0625 5.275
2.9375 0.0625 5.275
3 0.0625 5.275
3.0625 0.0625 5.275
3.125 0.0625 5.275
3.1875 0.0625 5.275
3.25 0.0625 5.275
3.3125 0.0625 5.275
3.375 0.0625 5.275
3.4375 0.0625 5.275
3.5 0.0625 5.275
3.5625 0.0625 5.275
3.625 0.0625 5.275
3.6875 0.0625 5.275
3.75 0.0625 5.275
3.8125 0.0625 5.275
3.875 0.0625 5.275
3.9375 0.0625 5.275
4 0.0625 5.275
0 0.125 5.275
0.0625 0.125 5.275
0.125 0.125 5.275
0.1875 0.125 5.275
0.25 0.125 5.275
0.3125 0.125 5.275
0.375 0.125 5.275
0.4375 0.125 5.275
0.5 0.125 5.275
0.5625 0.125 5.275
0.625 0.125 5.275
0.6875 0.125 5.275
0.75 0.125 5.275
0.8125 0.125 5.275
0.875 0.125 5.275
0.9375 0.125 5.275
1 0.125 5.275
1.0625 0.125 5.275
1.125 0.125 5.275
1.1875 0.125 5.275
1.25 0.125 5.275
1.3125 0.125 5.275
1.375 0.125 5.275
1.4375 0.125 5.275
1.5 0.125 5.275
1.5625 0.125 5.275
1.625 0.125 5.275
1.6875 0.125 5.275
1.75 0.125 5.275
1.8125 0.125 5.275
1.875 0.125 5.275
1.9375 0.125 5.275
2 0.125 5.275
2.0625 0.125 5.275
2.125 0.125 5.275
2.1875 0.125 5.275
2.25 0.125 5.275
2.3125 0.125 5.275
2.375 0.125 5.275
2.4375 0.125 5.275
2.5 0.125 5.275
2.5625 0.125 5.275
2.625 0.125 5.275
2.6875 0.125 5.275
2.75 0.125 5.275
2.8125 0.125 5.275
2.875 0.125 5.275
2.9375 0.125 5.275
3 0.125 5.275
3.0625 0.125 5.275
3.125 0.125 5.275
3.1875 0.125 5.275
3.25 0.125 5.275
3.3125 0.125 5.275
3.375 0.125 5.275
3.4375 0.125 5.275
3.5 0.125 5.275
3.5625 0.125 5.275
3.625 0.125 5.275
3.6875 0.125 5.275
3.75 0.125 5.275
3.8125 0.125 5.275
3.875 0.125 5.275
3.9375 0.125 5.275
4 0.125 5.275
0 0.1875 5.275
0.0625 0.1875 5.275
0.125 0.1875 5.275
0.1875 0.1875 5.275
0.25 0.1875 5.275
0.3125 0.1875 5.275
0.375 0.1875 5.275
0.4375 0.1875 5.275
0.5 0.1875 5.275
0.5625 0.1875 5.275
0.625 0.1875 5.275
0.6875 0.1875 5.275
0.75 0.1875 5.275
0.8125 0.1875 5.275
0.875 0.1875 5.275
0.9375 0.1875 5.275
1 0.1875 5.275
1.0625 0.1875 5.275
1.125 0.1875 5.275
1.1875 0.1875 5.275
1.25 0.1875 5.275
1.3125 0.1875 5.275
1.375 0.1875 5.275
1.4375 0.1875 5.275
1.5 0.1875 5.275
1.5625 0.1875 5.275
1.625 0.1875 5.275
1.6875 0.1875 5.275
1.75 0.1875 5.275
1.8125 0.1875 5.275
1.875 0.1875 5.275
1.9375 0.1875 5.275
2 0.1875 5.275
2.0625 0.1875 5.275
2.125 0.1875 5.275
2.1875 0.1875 5.275
2.25 0.1875 5.275
2.3125 0.1875 5.275
2.375 0.1875 5.275
2.4375 0.1875 5.275
2.5 0.1875 5.275
2.5625 0.1875 5.275
2.625 0.1875 5.275
2.6875 0.1875 5.275
2.75 0.1875 5.275
2.8125 0.1875 5.275
2.875 0.1875 5.275
2.9375 0.1875 5.275
3 0.1875 5.275
3.0625 0.1875 5.275
3.125 0.1875 5.275
3.1875 0.1875 5.275
3.25 0.1875 5.275
3.3125 0.1875 5.275
3.375 0.1875 5.275
3.4375 0.1875 5.275
3.5 0.1875 5.275
3.5625 0.1875 5.275
3.625 0.1875 5.275
3.6875 0.1875 5.275
3.75 0.1875 5.275
3.8125 0.1875 5.275
3.875 0.1875 5.275
3.9375 0.1875 5.275
4 0.1875 5.275
0 0.25 5.275
0.0625 0.25 5.275
0.125 0.25 5.275
0.1875 0.25 5.275
0.25 0.25 5.275
0.3125 0.25 5.275
0.375 0.25 5.275
0.4375 0.25 5.275
0.5 0.25 5.275
0.5625 0.25 5.275
0.625 0.25 5.275
0.6875 0.25 5.275
0.75 0.25 5.275
0.8125 0.25 5.275
0.875 0.25 5.275
0.9375 0.25 5.275
1 0.25 5.275
1.0625 0.25 5.275
1.125 0.25 5.275
1.1875 0.25 5.275
1.25 0.25 5.275
1.3125 0.25 5.275
1.375 0.25 5.275
1.4375 0.25 5.275
1.5 0.25 5.275
1.5625 0.25 5.275
1.625 0.25 5.275
1.6875 0.25 5.275
1.75 0.25 5.275
1.8125 0.25 5.275
1.875 0.25 5.275
1.9375 0.25 5.275
2 0.25 5.275
2.0625 0.25 5.275
2.125 0.25 5.275
2.1875 0.25 5.275
2.25 0.25 5.275
2.3125 0.25 5.275
2.375 0.25 5.275
2.4375 0.25 5.275
2.5 0.25 5.275
2.5625 0.25 5.275
2.625 0.25 5.275
2.6875 0.25 5.275
2.75 0.25 5.275
2.8125 0.25 5.275
2.875 0.25 5.275
2.9375 0.25 5.275
3 0.25 5.275
3.0625 0.25 5.275
3.125 0.25 5.275
3.1875 0.25 5.275
3.25 0.25 5.275
3.3125 0.25 5.275
3.375 0.25 5.275
3.4375 0.25 5.275
3.5 0.25 5.275
3.5625 0.25 5.275
3.625 0.25 5.275
3.6875 0.25 5.275
3.75 0.25 5.275
3.8125 0.25 5.275
3.875 0.25 5.275
3.9375 0.25 5.275
4 0.25 5.275
0 0.3125 5.275
0.0625 0.3125 5.275
0.125 0.3125 5.275
0.1875 0.3125 5.275
0.25 0.3125 5.275
0.3125 0.3125 5.275
0.375 0.3125 5.275
0.4375 0.3125 5.275
0.5 0.3125 5.275
0.5625 0.3125 5.275
0.625 0.3125 5.275
0.6875 0.3125 5.275
0.75 0.3125 5.275
0.8125 0.3125 5.275
0.875 0.3125 5.275
0.9375 0.3125 5.275
1 0.3125 5.275
1.0625 0.3125 5.275
1.125 0.3125 5.275
1.1875 0.3125 5.275
1.25 0.3125 5.275
1.3125 0.3125 5.275
1.375 0.3125 5.275
1.4375 0.3125 5.275
1.5 0.3125 5.275
1.5625 0.3125 5.275
1.625 0.3125 5.275
1.6875 0.3125 5.275
1.75 0.3125 5.275
1.8125 0.3125 5.275
1.875 0.3125 5.275
1.9375 0.3125 5.275
2 0.3125 5.275
2.0625 0.3125 5.275
2.125 0.3125 5.275
2.1875 0.3125 5.275
2.25 0.3125 5.275
2.3125 0.3125 5.275
2.375 0.3125 5.275
2.4375 0.3125 5.275
2.5 0.3125 5.275
2.5625 0.3125 5.275
2.625 0.3125 5.275
2.6875 0.3125 5.275
2.75 0.3125 5.275
2.8125 0.3125 5.275
2.875 0.3125 5.275
2.9375 0.3125 5.275
3 0.3125 5.275
3.0625 0.3125 5.275
3.125 0.3125 5.275
3.1875 0.3125 5.275
3.25 0.3125 5.275
3.3125 0.3125 5.275
3.375 0.3125 5.275
3.4375 0.3125 5.275
3.5 0.3125 5.275
3.5625 0.3125 5.275
3.625 0.3125 5.275
3.6875 0.3125 5.275
3.75 0.3125 5.275
3.8125 0.3125 5.275
3.875 0.3125 5.275
3.9375 0.3125 5.275
4 0.3125 5.275
0 0.375 5.275
0.0625 0.375 5.275
0.125 0.375 5.275
0.1875 0.375 5.275
0.25 0.375 5.275
0.3125 0.375 5.275
0.375 0.375 5.275
0.4375 0.375 5.275
0.5 0.375 5.275
0.5625 0.375 5.275
0.625 0.375 5.275
0.6875 0.375 5.275
0.75 0.375 5.275
0.8125 0.375 5.275
0.875 0.375 5.275
0.9375 0.375 5.275
1 0.375 5.275
1.0625 0.375 5.275
1.125 0.375 5.275
1.1875 0.375 5.275
1.25 0.375 5.275
1.3125 0.375 5.275
1.375 0.375 5.275
1.4375 0.375 5.275
1.5 0.375 5.275
1.5625 0.375 5.275
1.625 0.375 5.275
1.6875 0.375 5.275
1.75 0.375 5.275
1.8125 0.375 5.275
1.875 0.375 5.275
1.9375 0.375 5.275
2 0.375 5.275
2.0625 0.375 5.275
2.125 0.375 5.275
2.1875 0.375 5.275
2.25 0.375 5.275
2.3125 0.375 5.275
2.375 0.375 5.275
2.4375 0.375 5.275
2.5 0.375 5.275
2.5625 0.375 5.275
2.625 0.375 5.275
2.6875 0.375 5.275
2.75 0.375 5.275
2.8125 0.375 5.275
2.875 0.375 5.275
2.9375 0.375 5.275
3 0.375 5.275
3.0625 0.375 5.275
3.125 0.375 5.275
3.1875 0.375 5.275
3.25 0.375 5.275
3.3125 0.375 5.275
3.375 0.375 5.275
3.4375 0.375 5.275
3.5 0.375 5.275
3.5625 0.375 5.275
3.625 0.375 5.275
3.6875 0.375 5.275
3.75 0.375 5.275
3.8125 0.375 5.275
3.875 0.375 5.275
3.9375 0.375 5.275
4 0.375 5.275
0 0.4375 5.275
0.0625 0.4375 5.275
0.125 0.4375 5.275
0.1875 0.4375 5.275
0.25 0.4375 5.275
0.3125 0.4375 5.275
0.375 0.4375 5.275
0.4375 0.4375 5.275
0.5 0.4375 5.275
0.5625 0.4375 5.275
0.625 0.4375 5.275
0.6875 0.4375 5.275
0.75 0.4375 5.275
0.8125 0.4375 5.275
0.875 0.4375 5.275
0.9375 0.4375 5.275
1 0.4375 5.275
1.0625 0.4375 5.275
1.125 0.4375 5.275
1.1875 0.4375 5.275
1.25 0.4375 5.275
1.3125 0.4375 5.275
1.375 0.4375 5.275
1.4375 0.4375 5.275
1.5 0.4375 5.275
1.5625 0.4375 5.275
1.625 0.4375 5.275
1.6875 0.4375 5.275
1.75 0.4375 5.275
1.8125 0.4375 5.275
1.875 0.4375 5.275
1.9375 0.4375 5.275
2 0.4375 5.275
2.0625 0.4375 5.275
2.125 0.4375 5.275
2.1875 0.4375 5.275
2.25 0.4375 5.275
2.3125 0.4375 5.275
2.375 0.4375 5.275
2.4375 0.4375 5.275
2.5 0.4375 5.275
2.5625 0.4375 5.275
2.625 0.4375 5.275
2.6875 0.4375 5.275
2.75 0.4375 5.275
2.8125 0.4375 5.275
2.875 0.4375 5.275
2.9375 0.4375 5.275
3 0.4375 5.275
3.0625 0.4375 5.275
3.125 0.4375 5.275
3.1875 0.4375 5.275
3.25 0.4375 5.275
3.3125 0.4375 5.275
3.375 0.4375 5.275
3.4375 0.4375 5.275
3.5 0.4375 5.275
3.5625 0.4375 5.275
3.625 0.4375 5.275
3.6875 0.4375 5.275
3.75 0.4375 5.275
3.8125 0.4375 5.275
3.875 0.4375 5.275
3.9375 0.4375 5.275
4 0.4375 5.275
0 0.5 5.275
0.0625 0.5 5.275
0.125 0.5 5.275
0.1875 0.5 5.275
0.25 0.5 5.275
0.3125 0.5 5.275
0.375 0.5 5.275
0.4375 0.5 5.275
0.5 0.5 5.275
0.5625 0.5 5.275
0.625 0.5 5.275
0.6875 0.5 5.275
0.75 0.5 5.275
0.8125 0.5 5.275
0.875 0.5 5.275
0.9375 0.5 5.275
1 0.5 5.275
1.0625 0.5 5.275
1.125 0.5 5.275
1.1875 0.5 5.275
1.25 0.5 5.275
1.3125 0.5 5.275
1.375 0.5 5.275
1.4375 0.5 5.275
1.5 0.5 5.275
1.5625 0.5 5.275
1.625 0.5 5.275
1.6875 0.5 5.275
1.75 0.5 5.275
1.8125 0.5 5.275
1.875 0.5 5.275
1.9375 0.5 5.275
2 0.5 5.275
2.0625 0.5 5.275
2.125 0.5 5.275
2.1875 0.5 5.275
2.25 0.5 5.275
2.3125 0.5 5.275
2.375 0.5 5.275
2.4375 0.5 5.275
2.5 0.5 5.275
2.5625 0.5 5.275
2.625 0.5 5.275
2.6875 0.5 5.275
2.75 0.5 5.275
2.8125 0.5 5.275
2.875 0.5 5.275
2.9375 0.5 5.275
3 0.5 5.275
3.0625 0.5 5.275
3.125 0.5 5.275
3.1875 0.5 5.275
3.25 0.5 5.275
3.3125 0.5 5.275
3.375 0.5 5.275
3.4375 0.5 5.275
3.5 0.5 5.275
3.5625 0.5 5.275
3.625 0.5 5.275
3.6875 0.5 5.275
3.75 0.5 5.275
3.8125 0.5 5.275
3.875 0.5 5.275
3.9375 0.5 5.275
4 0.5 5.275
0 0.5625 5.275
0.0625 0.5625 5.275
0.125 0.5625 5.275
0.1875 0.5625 5.275
0.25 0.5625 5.275
0.3125 0.5625 5.275
0.375 0.5625 5.275
0.4375 0.5625 5.275
0.5 0.5625 5.275
0.5625 0.5625 5.275
0.625 0.5625 5.275
0.6875 0.5625 5.275
0.75 0.5625 5.275
0.8125 0.5625 5.275
0.875 0.5625 5.275
0.9375 0.5625 5.275
1 0.5625 5.275
1.0625 0.5625 5.275
1.125 0.5625 5.275
1.1875 0.5625 5.275
1.25 0.5625 5.275
1.3125 0.5625 5.275
1.375 0.5625 5.275
1.4375 0.5625 5.275
1.5 0.5625 5.275
1.5625 0.5625 5.275
1.625 0.5625 5.275
1.6875 0.5625 5.275
1.75 0.5625 5.275
1.8125 0.5625 5.275
1.875 0.5625 5.275
1.9375 0.5625 5.275
2 0.5625 5.275
2.0625 0.5625 5.275
2.125 0.5625 5.275
2.1875 0.5625 5.275
2.25 0.5625 5.275
2.3125 0.5625 5.275
2.375 0.5625 5.275
2.4375 0.5625 5.275
2.5 0.5625 5.275
2.5625 0.5625 5.275
2.625 0.5625 5.275
2.6875 0.5625 5.275
2.75 0.5625 5.275
2.8125 0.5625 5.275
2.875 0.5625 5.275
2.9375 0.5625 5.275
3 0.5625 5.275
3.0625 0.5625 5.275
3.125 0.5625 5.275
3.1875 0.5625 5.275
3.25 0.5625 5.275
3.3125 0.5625 5.275
3.375 0.5625 5.275
3.4375 0.5625 5.275
3.5 0.5625 5.275
3.5625 0.5625 5.275
3.625 0.5625 5.275
3.6875 0.5625 5.275
3.75 0.5625 5.275
3.8125 0.5625 5.275
3.875 0.5625 5.275
3.9375 0.5625 5.275
4 0.5625 5.275
0 0.625 5.275
0.0625 0.625 5.275
0.125 0.625 5.275
0.1875 0.625 5.275
0.25 0.625 5.275
0.3125 0.625 5.275
0.375 0.625 5.275
0.4375 0.625 5.275
0.5 0.625 5.275
0.5625 0.625 5.275
0.625 0.625 5.275
0.6875 0.625 5.275
0.75 0.625 5.275
0.8125 0.625 5.275
0.875 0.625 5.275
0.9375 0.625 5.275
1 0.625 5.275
1.0625 0.625 5.275
1.125 0.625 5.275
1.1875 0.625 5.275
1.25 0.625 5.275
1.3125 0.625 5.275
1.375 0.625 5.275
1.4375 0.625 5.275
1.5 0.625 5.275
1.5625 0.625 5.275
1.625 0.625 5.275
1.6875 0.625 5.275
1.75 0.625 5.275
1.8125 0.625 5.275
1.875 0.625 5.275
1.9375 0.625 5.275
2 0.625 5.275
2.0625 0.625 5.275
2.125 0.625 5.275
2.1875 0.625 5.275
2.25 0.625 5.275
2.3125 0.625 5.275
2.375 0.625 5.275
2.4375 0.625 5.275
2.5 0.625 5.275
2.5625 0.625 5.275
2.625 0.625 5.275
2.6875 0.625 5.275
2.75 0.625 5.275
2.8125 0.625 5.275
2.875 0.625 5.275
2.9375 0.625 5.275
3 0.625 5.275
3.0625 0.625 5.275
3.125 0.625 5.275
3.1875 0.625 5.275
3.25 0.625 5.275
3.3125 0.625 5.275
3.375 0.625 5.275
3.4375 0.625 5.275
3.5 0.625 5.275
3.5625 0.625 5.275
3.625 0.625 5.275
3.6875 0.625 5.275
3.75 0.625 5.275
3.8125 0.625 5.275
3.875 0.625 5.275
3.9375 0.625 5.275
4 0.625 5.275
0 0.6875 5.275
0.0625 0.6875 5.275
0.125 0.6875 5.275
0.1875 0.6875 5.275
0.25 0.6875 5.275
0.3125 0.6875 5.275
0.375 0.6875 5.275
0.4375 0.6875 5.275
0.5 0.6875 5.275
0.5625 0.6875 5.275
0.625 0.6875 5.275
0.6875 0.6875 5.275
0.75 0.6875 5.275
0.8125 0.6875 5.275
0.875 0.6875 5.275
0.9375 0.6875 5.275
1 0.6875 5.275
1.0625 0.6875 5.275
1.125 0.6875 5.275
1.1875 0.6875 5.275
1.25 0.6875 5.275
1.3125 0.6875 5.275
1.375 0.6875 5.275
1.4375 0.6875 5.275
1.5 0.6875 5.275
1.5625 0.6875 5.275
1.625 0.6875 5.275
1.6875 0.6875 5.275
1.75 0.6875 5.275
1.8125 0.6875 5.275
1.875 0.6875 5.275
1.9375 0.6875 5.275
2 0.6875 5.275
2.0625 0.6875 5.275
2.125 0.6875 5.275
2.1875 0.6875 5.275
2.25 0.6875 5.275
2.3125 0.6875 5.275
2.375 0.6875 5.275
2.4375 0.6875 5.275
2.5 0.6875 5.275
2.5625 0.6875 5.275
2.625 0.6875 5.275
2.6875 0.6875 5.275
2.75 0.6875 5.275
2.8125 0.6875 5.275
2.875 0.6875 5.275
2.9375 0.6875 5.275
3 0.6875 5.275
3.0625 0.6875 5.275
3.125 0.6875 5.275
3.1875 0.6875 5.275
3.25 0.6875 5.275
3.3125 0.6875 5.275
3.375 0.6875 5.275
3.4375 0.6875 5.275
3.5 0.6875 5.275
3.5625 0.6875 5.275
3.625 0.6875 5.275
3.6875 0.6875 5.275
3.75 0.6875 5.275
3.8125 0.6875 5.275
3.875 0.6875 5.275
3.9375 0.6875 5.275
4 0.6875 5.275
0 0.75 5.275
0.0625 0.75 5.275
0.125 0.75 5.275
0.1875 0.75 5.275
0.25 0.75 5.275
0.3125 0.75 5.275
0.375 0.75 5.275
0.4375 0.75 5.275
0.5 0.75 5.275
0.5625 0.75 5.275
0.625 0.75 5.275
0.6875 0.75 5.275
0.75 0.75 5.275
0.8125 0.75 5.275
0.875 0.75 5.275
0.9375 0.75 5.275
1 0.75 5.275
1.0625 0.75 5.275
1.125 0.75 5.275
1.1875 0.75 5.275
1.25 0.75 5.275
1.3125 0.75 5.275
1.375 0.75 5.275
1.4375 0.75 5.275
1.5 0.75 5.275
1.5625 0.75 5.275
1.625 0.75 5.275
1.6875 0.75 5.275
1.75 0.75 5.275
1.8125 0.75 5.275
1.875 0.75 5.275
1.9375 0.75 5.275
2 0.75 5.275
2.0625 0.75 5.275
2.125 0.75 5.275
2.1875 0.75 5.275
2.25 0.75 5.275
2.3125 0.75 5.275
2.375 0.75 5.275
2.4375 0.75 5.275
2.5 0.75 5.275
2.5625 0.75 5.275
2.625 0.75 5.275
2.6875 0.75 5.275
2.75 0.75 5.275
2.8125 0.75 5.275
2.875 0.75 5.275
2.9375 0.75 5.275
3 0.75 5.275
3.0625 0.75 5.275
3.125 0.75 5.275
3.1875 0.75 5.275
3.25 0.75 5.275
3.3125 0.75 5.275
3.375 0.75 5.275
3.4375 0.75 5.275
3.5 0.75 5.275
3.5625 0.75 5.275
3.625 0.75 5.275
3.6875 0.75 5.275
3.75 0.75 5.275
3.8125 0.75 5.275
3.875 0.75 5.275
3.9375 0.75 5.275
4 0.75 5.275
0 0.8125 5.275
0.0625 0.8125 5.275
0.125 0.8125 5.275
0.1875 0.8125 5.275
0.25 0.8125 5.275
0.3125 0.8125 5.275
0.375 0.8125 5.275
0.4375 0.8125 5.275
0.5 0.8125 5.275
0.5625 0.8125 5.275
0.625 0.8125 5.275
0.6875 0.8125 5.275
0.75 0.8125 5.275
0.8125 0.8125 5.275
0.875 0.8125 5.275
0.9375 0.8125 5.275
1 0.8125 5.275
1.0625 0.8125 5.275
1.125 0.8125 5.275
1.1875 0.8125 5.275
1.25 0.8125 5.275
1.3125 0.8125 5.275
1.375 0.8125 5.275
1.4375 0.8125 5.275
1.5 0.8125 5.275
1.5625 0.8125 5.275
1.625 0.8125 5.275
1.6875 0.8125 5.275
1.75 0.8125 5.275
1.8125 0.8125 5.275
1.875 0.8125 5.275
1.9375 0.8125 5.275
2 0.8125 5.275
2.0625 0.8125 5.275
2.125 0.8125 5.275
2.1875 0.8125 5.275
2.25 0.8125 5.275
2.3125 0.8125 5.275
2.375 0.8125 5.275
2.4375 0.8125 5.275
2.5 0.8125 5.275
2.5625 0.8125 5.275
2.625 0.8125 5.275
2.6875 0.8125 5.275
2.75 0.8125 5.275
2.8125 0.8125 5.275
2.875 0.8125 5.275
2.9375 0.8125 5.275
3 0.8125 5.275
3.0625 0.8125 5.275
3.125 0.8125 5.275
3.1875 0.8125 5.275
3.25 0.8125 5.275
3.3125 0.8125 5.275
3.375 0.8125 5.275
3.4375 0.8125 5.275
3.5 0.8125 5.275
3.5625 0.8125 5.275
3.625 0.8125 5.275
3.6875 0.8125 5.275
3.75 0.8125 5.275
3.8125 0.8125 5.275
3.875 0.8125 5.275
3.9375 0.8125 5.275
4 0.8125 5.275
0 0.875 5.275
0.0625 0.875 5.275
0.125 0.875 5.275
0.1875 0.875 5.275
0.25 0.875 5.275
0.3125 0.875 5.275
0.375 0.875 5.275
0.4375 0.875 5.275
0.5 0.875 5.275
0.5625 0.875 5.275
0.625 0.875 5.275
0.6875 0.875 5.275
0.75 0.875 5.275
0.8125 0.875 5.275
0.875 0.875 5.275
0.9375 0.875 5.275
1 0.875 5.275
1.0625 0.875 5.275
1.125 0.875 5.275
1.1875 0.875 5.275
1.25 0.875 5.275
1.3125 0.875 5.275
1.375 0.875 5.275
1.4375 0.875 5.275
1.5 0.875 5.275
1.5625 0.875 5.275
1.625 0.875 5.275
1.6875 0.875 5.275
1.75 0.875 5.275
1.8125 0.875 5.275
1.875 0.875 5.275
1.9375 0.875 5.275
2 0.875 5.275
2.0625 0.875 5.275
2.125 0.875 5.275
2.1875 0.875 5.275
2.25 0.875 5.275
2.3125 0.875 5.275
2.375 0.875 5.275
2.4375 0.875 5.275
2.5 0.875 5.275
2.5625 0.875 5.275
2.625 0.875 5.275
2.6875 0.875 5.275
2.75 0.875 5.275
2.8125 0.875 5.275
2.875 0.875 5.275
2.9375 0.875 5.275
3 0.875 5.275
3.0625 0.875 5.275
3.125 0.875 5.275
3.1875 0.875 5.275
3.25 0.875 5.275
3.3125 0.875 5.275
3.375 0.875 5.275
3.4375 0.875 5.275
3.5 0.875 5.275
3.5625 0.875 5.275
3.625 0.875 5.275
3.6875 0.875 5.275
3.75 0.875 5.275
3.8125 0.875 5.275
3.875 0.875 5.275
3.9375 0.875 5.275
4 0.875 5.275
0 0.9375 5.275
0.0625 0.9375 5.275
0.125 0.9375 5.275
0.1875 0.9375 5.275
0.25 0.9375 5.275
0.3125 0.9375 5.275
0.375 0.9375 5.275
0.4375 0.9375 5.275
0.5 0.9375 5.275
0.5625 0.9375 5.275
0.625 0.9375 5.275
0.6875 0.9375 5.275
0.75 0.9375 5.275
0.8125 0.9375 5.275
0.875 0.9375 5.275
0.9375 0.9375 5.275
1 0.9375 5.275
1.0625 0.9375 5.275
1.125 0.9375 5.275
1.1875 0.9375 5.275
1.25 0.9375 5.275
1.3125 0.9375 5.275
1.375 0.9375 5.275
1.4375 0.9375 5.275
1.5 0.9375 5.275
1.5625 0.9375 5.275
1.625 0.9375 5.275
1.6875 0.9375 5.275
1.75 0.9375 5.275
1.8125 0.9375 5.275
1.875 0.9375 5.275
1.9375 0.9375 5.275
2 0.9375 5.275
2.0625 0.9375 5.275
2.125 0.9375 5.275
2.1875 0.9375 5.275
2.25 0.9375 5.275
2.3125 0.9375 5.275
2.375 0.9375 5.275
2.4375 0.9375 5.275
2.5 0.9375 5.275
2.5625 0.9375 5.275
2.625 0.9375 5.275
2.6875 0.9375 5.275
2.75 0.9375 5.275
2.8125 0.9375 5.275
2.875 0.9375 5.275
2.9375 0.9375 5.275
3 0.9375 5.275
3.0625 0.9375 5.275
3.125 0.9375 5.275
3.1875 0.9375 5.275
3.25 0.9375 5.275
3.3125 0.9375 5.275
3.375 0.9375 5.275
3.4375 0.9375 5.275
3.5 0.9375 5.275
3.5625 0.9375 5.275
3.625 0.9375 5.275
3.6875 0.9375 5.275
3.75 0.9375 5.275
3.8125 0.9375 5.275
3.875 0.9375 5.275
3.9375 0.9375 5.275
4 0.9375 5.275
0 1 5.275
0.0625 1 5.275
0.125 1 5.275
0.1875 1 5.275
0.25 1 5.275
0.3125 1 5.275
0.375 1 5.275
0.4375 1 5.275
0.5 1 5.275
0.5625 1 5.275
0.625 1 5.275
0.6875 1 5.275
0.75 1 5.275
0.8125 1 5.275
0.875 1 5.275
0.9375 1 5.275
1 1 5.275
1.0625 1 5.275
1.125 1 5.275
1.1875 1 5.275
1.25 1 5.275
1.3125 1 5.275
1.375 1 5.275
1.4375 1 5.275
1.5 1 5.275
1.5625 1 5.275
1.625 1 5.275
1.6875 1 5.275
1.75 1 5.275
1.8125 1 5.275
1.875 1 5.275
1.9375 1 5.275
2 1 5.275
2.0625 1 5.275
2.125 1 5.275
2.1875 1 5.275
2.25 1 5.275
2.3125 1 5.275
2.375 1 5.275
2.4375 1 5.275
2.5 1 5.275
2.5625 1 5.275
2.625 1 5.275
2.6875 1 5.275
2.75 1 5.275
2.8125 1 5.275
2.875 1 5.275
2.9375 1 5.275
3 1 5.275
3.0625 1 5.275
3.125 1 5.275
3.1875 1 5.275
3.25 1 5.275
3.3125 1 5.275
3.375 1 5.275
3.4375 1 5.275
3.5 1 5.275
3.5625 1 5.275
3.625 1 5.275
3.6875 1 5.275
3.75 1 5.275
3.8125 1 5.275
3.875 1 5.275
3.9375 1 5.275
4 1 5.275
0 0 5.3375
0.0625 0 5.3375
0.125 0 5.3375
0.1875 0 5.3375
0.25 0 5.3375
0.3125 0 5.3375
0.375 0 5.3375
0.4375 0 5.3375
0.5 0 5.3375
0.5625 0 5.3375
0.625 0 5.3375
0.6875 0 5.3375
0.75 0 5.3375
0.8125 0 5.3375
0.875 0 5.3375
0.9375 0 5.3375
1 0 5.3375
1.0625 0 5.3375
1.125 0 5.3375
1.1875 0 5.3375
1.25 0 5.3375
1.3125 0 5.3375
1.375 0 5.3375
1.4375 0 5.3375
1.5 0 5.3375
1.5625 0 5.3375
1.625 0 5.3375
1.6875 0 5.3375
1.75 0 5.3375
1.8125 0 5.3375
1.875 0 5.3375
1.9375 0 5.3375
2 0 5.3375
2.0625 0 5.3375
2.125 0 5.3375
2.1875 0 5.3375
2.25 0 5.3375
2.3125 0 5.3375
2.375 0 5.3375
2.4375 0 5.3375
2.5 0 5.3375
2.5625 0 5.3375
2.625 0 5.3375
2.6875 0 5.3375
2.75 0 5.3375
2.8125 0 5.3375
2.875 0 5.3375
2.9375 0 5.3375
3 0 5.3375
3.0625 0 5.3375
3.125 0 5.3375
3.1875 0 5.3375
3.25 0 5.3375
3.3125 0 5.3375
3.375 0 5.3375
3.4375 0 5.3375
3.5 0 5.3375
3.5625 0 5.3375
3.625 0 5.3375
3.6875 0 5.3375
3.75 0 5.3375
3.8125 0 5.3375
3.875 0 5.3375
3.9375 0 5.3375
4 0 5.3375
0 0.0625 5.3375
0.0625 0.0625 5.3375
0.125 0.0625 5.3375
0.1875 0.0625 5.3375
0.25 0.0625 5.3375
0.3125 0.0625 5.3375
0.375 0.0625 5.3375
0.4375 0.0625 5.3375
0.5 0.0625 5.3375
0.5625 0.0625 5.3375
0.625 0.0625 5.3375
0.6875 0.0625 5.3375
0.75 0.0625 5.3375
0.8125 0.0625 5.3375
0.875 0.0625 5.3375
0.9375 0.0625 5.3375
1 0.0625 5.3375
1.0625 0.0625 5.3375
1.125 0.0625 5.3375
1.1875 0.0625 5.3375
1.25 0.0625 5.3375
1.3125 0.0625 5.3375
1.375 0.0625 5.3375
1.4375 0.0625 5.3375
1.5 0.0625 5.3375
1.5625 0.0625 5.3375
1.625 0.0625 5.3375
1.6875 0.0625 5.3375
1.75 0.0625 5.3375
1.8125 0.0625 5.3375
1.875 0.0625 5.3375
1.9375 0.0625 5.3375
2 0.0625 5.3375
2.0625 0.0625 5.3375
2.125 0.0625 5.3375
2.1875 0.0625 5.3375
2.25 0.0625 5.3375
2.3125 0.0625 5.3375
2.375 0.0625 5.3375
2.4375 0.0625 5.3375
2.5 0.0625 5.3375
2.5625 0.0625 5.3375
2.625 0.0625 5.3375
2.6875 0.0625 5.3375
2.75 0.0625 5.3375
2.8125 0.0625 5.3375
2.875 0.0625 5.3375
2.9375 0.0625 5.3375
3 0.0625 5.3375
3.0625 0.0625 5.3375
3.125 0.0625 5.3375
3.1875 0.0625 5.3375
3.25 0.0625 5.3375
3.3125 0.0625 5.3375
3.375 0.0625 5.3375
3.4375 0.0625 5.3375
3.5 0.0625 5.3375
3.5625 0.0625 5.3375
3.625 0.0625 5.3375
3.6875 0.0625 5.3375
3.75 0.0625 5.3375
3.8125 0.0625 5.3375
3.875 0.0625 5.3375
3.9375 0.0625 5.3375
4 0.0625 5.3375
0 0.125 5.3375
0.0625 0.125 5.3375
0.125 0.125 5.3375
0.1875 0.125 5.3375
0.25 0.125 5.3375
0.3125 0.125 5.3375
0.375 0.125 5.3375
0.4375 0.125 5.3375
0.5 0.125 5.3375
0.5625 0.125 5.3375
0.625 0.125 5.3375
0.6875 0.125 5.3375
0.75 0.125 5.3375
0.8125 0.125 5.3375
0.875 0.125 5.3375
0.9375 0.125 5.3375
1 0.125 5.3375
1.0625 0.125 5.3375
1.125 0.125 5.3375
1.1875 0.125 5.3375
1.25 0.125 5.3375
1.3125 0.125 5.3375
1.375 0.125 5.3375
1.4375 0.125 5.3375
1.5 0.125 5.3375
1.5625 0.125 5.3375
1.625 0.125 5.3375
1.6875 0.125 5.3375
1.75 0.125 5.3375
1.8125 0.125 5.3375
1.875 0.125 5.3375
1.9375 0.125 5.3375
2 0.125 5.3375
2.0625 0.125 5.3375
2.125 0.125 5.3375
2.1875 0.125 5.3375
2.25 0.125 5.3375
2.3125 0.125 5.3375
2.375 0.125 5.3375
2.4375 0.125 5.3375
2.5 0.125 5.3375
2.5625 0.125 5.3375
2.625 0.125 5.3375
2.6875 0.125 5.3375
2.75 0.125 5.3375
2.8125 0.125 5.3375
2.875 0.125 5.3375
2.9375 0.125 5.3375
3 0.125 5.3375
3.0625 0.125 5.3375
3.125 0.125 5.3375
3.1875 0.125 5.3375
3.25 0.125 5.3375
3.3125 0.125 5.3375
3.375 0.125 5.3375
3.4375 0.125 5.3375
3.5 0.125 5.3375
3.5625 0.125 5.3375
3.625 0.125 5.3375
3.6875 0.125 5.3375
3.75 0.125 5.3375
3.8125 0.125 5.3375
3.875 0.125 5.3375
3.9375 0.125 5.3375
4 0.125 5.3375
0 0.1875 5.3375
0.0625 0.1875 5.3375
0.125 0.1875 5.3375
0.1875 0.1875 5.3375
0.25 0.1875 5.3375
0.3125 0.1875 5.3375
0.375 0.1875 5.3375
0.4375 0.1875 5.3375
0.5 0.1875 5.3375
0.5625 0.1875 5.3375
0.625 0.1875 5.3375
0.6875 0.1875 5.3375
0.75 0.1875 5.3375
0.8125 0.1875 5.3375
0.875 0.1875 5.3375
0.9375 0.1875 5.3375
1 0.1875 5.3375
1.0625 0.1875 5.3375
1.125 0.1875 5.3375
1.1875 0.1875 5.3375
1.25 0.1875 5.3375
1.3125 0.1875 5.3375
1.375 0.1875 5.3375
1.4375 0.1875 5.3375
1.5 0.1875 5.3375
1.5625 0.1875 5.3375
1.625 0.1875 5.3375
1.6875 0.1875 5.3375
1.75 0.1875 5.3375
1.8125 0.1875 5.3375
1.875 0.1875 5.3375
1.9375 0.1875 5.3375
2 0.1875 5.3375
2.0625 0.1875 5.3375
2.125 0.1875 5.3375
2.1875 0.1875 5.3375
2.25 0.1875 5.3375
2.3125 0.1875 5.3375
2.375 0.1875 5.3375
2.4375 0.1875 5.3375
2.5 0.1875 5.3375
2.5625 0.1875 5.3375
2.625 0.1875 5.3375
2.6875 0.1875 5.3375
2.75 0.1875 5.3375
2.8125 0.1875 5.3375
2.875 0.1875 5.3375
2.9375 0.1875 5.3375
3 0.1875 5.3375
3.0625 0.1875 5.3375
3.125 0.1875 5.3375
3.1875 0.1875 5.3375
3.25 0.1875 5.3375
3.3125 0.1875 5.3375
3.375 0.1875 5.3375
3.4375 0.1875 5.3375
3.5 0.1875 5.3375
3.5625 0.1875 5.3375
3.625 0.1875 5.3375
3.6875 0.1875 5.3375
3.75 0.1875 5.3375
3.8125 0.1875 5.3375
3.875 0.1875 5.3375
3.9375 0.1875 5.3375
4 0.1875 5.3375
0 0.25 5.3375
0.0625 0.25 5.3375
0.125 0.25 5.3375
0.1875 0.25 5.3375
0.25 0.25 5.3375
0.3125 0.25 5.3375
0.375 0.25 5.3375
0.4375 0.25 5.3375
0.5 0.25 5.3375
0.5625 0.25 5.3375
0.625 0.25 5.3375
0.6875 0.25 5.3375
0.75 0.25 5.3375
0.8125 0.25 5.3375
0.875 0.25 5.3375
0.9375 0.25 5.3375
1 0.25 5.3375
1.0625 0.25 5.3375
1.125 0.25 5.3375
1.1875 0.25 5.3375
1.25 0.25 5.3375
1.3125 0.25 5.3375
1.375 0.25 5.3375
1.4375 0.25 5.3375
1.5 0.25 5.3375
1.5625 0.25 5.3375
1.625 0.25 5.3375
1.6875 0.25 5.3375
1.75 0.25 5.3375
1.8125 0.25 5.3375
1.875 0.25 5.3375
1.9375 0.25 5.3375
2 0.25 5.3375
2.0625 0.25 5.3375
2.125 0.25 5.3375
2.1875 0.25 5.3375
2.25 0.25 5.3375
2.3125 0.25 5.3375
2.375 0.25 5.3375
2.4375 0.25 5.3375
2.5 0.25 5.3375
2.5625 0.25 5.3375
2.625 0.25 5.3375
2.6875 0.25 5.3375
2.75 0.25 5.3375
2.8125 0.25 5.3375
2.875 0.25 5.3375
2.9375 0.25 5.3375
3 0.25 5.3375
3.0625 0.25 5.3375
3.125 0.25 5.3375
3.1875 0.25 5.3375
3.25 0.25 5.3375
3.3125 0.25 5.3375
3.375 0.25 5.3375
3.4375 0.25 5.3375
3.5 0.25 5.3375
3.5625 0.25 5.3375
3.625 0.25 5.3375
3.6875 0.25 5.3375
3.75 0.25 5.3375
3.8125 0.25 5.3375
3.875 0.25 5.3375
3.9375 0.25 5.3375
4 0.25 5.3375
0 0.3125 5.3375
0.0625 0.3125 5.3375
0.125 0.3125 5.3375
0.1875 0.3125 5.3375
0.25 0.3125 5.3375
0.3125 0.3125 5.3375
0.375 0.3125 5.3375
0.4375 0.3125 5.3375
0.5 0.3125 5.3375
0.5625 0.3125 5.3375
0.625 0.3125 5.3375
0.6875 0.3125 5.3375
0.75 0.3125 5.3375
0.8125 0.3125 5.3375
0.875 0.3125 5.3375
0.9375 0.3125 5.3375
1 0.3125 5.3375
1.0625 0.3125 5.3375
1.125 0.3125 5.3375
1.1875 0.3125 5.3375
1.25 0.3125 5.3375
1.3125 0.3125 5.3375
1.375 0.3125 5.3375
1.4375 0.3125 5.3375
1.5 0.3125 5.3375
1.5625 0.3125 5.3375
1.625 0.3125 5.3375
1.6875 0.3125 5.3375
1.75 0.3125 5.3375
1.8125 0.3125 5.3375
1.875 0.3125 5.3375
1.9375 0.3125 5.3375
2 0.3125 5.3375
2.0625 0.3125 5.3375
2.125 0.3125 5.3375
2.1875 0.3125 5.3375
2.25 0.3125 5.3375
2.3125 0.3125 5.3375
2.375 0.3125 5.3375
2.4375 0.3125 5.3375
2.5 0.3125 5.3375
2.5625 0.3125 5.3375
2.625 0.3125 5.3375
2.6875 0.3125 5.3375
2.75 0.3125 5.3375
2.8125 0.3125 5.3375
2.875 0.3125 5.3375
2.9375 0.3125 5.3375
3 0.3125 5.3375
3.0625 0.3125 5.3375
3.125 0.3125 5.3375
3.1875 0.3125 5.3375
3.25 0.3125 5.3375
3.3125 0.3125 5.3375
3.375 0.3125 5.3375
3.4375 0.3125 5.3375
3.5 0.3125 5.3375
3.5625 0.3125 5.3375
3.625 0.3125 5.3375
3.6875 0.3125 5.3375
3.75 0.3125 5.3375
3.8125 0.3125 5.3375
3.875 0.3125 5.3375
3.9375 0.3125 5.3375
4 0.3125 5.3375
0 0.375 5.3375
0.0625 0.375 5.3375
0.125 0.375 5.3375
0.1875 0.375 5.3375
0.25 0.375 5.3375
0.3125 0.375 5.3375
0.375 0.375 5.3375
0.4375 0.375 5.3375
0.5 0.375 5.3375
0.5625 0.375 5.3375
0.625 0.375 5.3375
0.6875 0.375 5.3375
0.75 0.375 5.3375
0.8125 0.375 5.3375
0.875 0.375 5.3375
0.9375 0.375 5.3375
1 0.375 5.3375
1.0625 0.375 5.3375
1.125 0.375 5.3375
1.1875 0.375 5.3375
1.25 0.375 5.3375
1.3125 0.375 5.3375
1.375 0.375 5.3375
1.4375 0.375 5.3375
1.5 0.375 5.3375
1.5625 0.375 5.3375
1.625 0.375 5.3375
1.6875 0.375 5.3375
1.75 0.375 5.3375
1.8125 0.375 5.3375
1.875 0.375 5.3375
1.9375 0.375 5.3375
2 0.375 5.3375
2.0625 0.375 5.3375
2.125 0.375 5.3375
2.1875 0.375 5.3375
2.25 0.375 5.3375
2.3125 0.375 5.3375
2.375 0.375 5.3375
2.4375 0.375 5.3375
2.5 0.375 5.3375
2.5625 0.375 5.3375
2.625 0.375 5.3375
2.6875 0.375 5.3375
2.75 0.375 5.3375
2.8125 0.375 5.3375
2.875 0.375 5.3375
2.9375 0.375 5.3375
3 0.375 5.3375
3.0625 0.375 5.3375
3.125 0.375 5.3375
3.1875 0.375 5.3375
3.25 0.375 5.3375
3.3125 0.375 5.3375
3.375 0.375 5.3375
3.4375 0.375 5.3375
3.5 0.375 5.3375
3.5625 0.375 5.3375
3.625 0.375 5.3375
3.6875 0.375 5.3375
3.75 0.375 5.3375
3.8125 0.375 5.3375
3.875 0.375 5.3375
3.9375 0.375 5.3375
4 0.375 5.3375
0 0.4375 5.3375
0.0625 0.4375 5.3375
0.125 0.4375 5.3375
0.1875 0.4375 5.3375
0.25 0.4375 5.3375
0.3125 0.4375 5.3375
0.375 0.4375 5.3375
0.4375 0.4375 5.3375
0.5 0.4375 5.3375
0.5625 0.4375 5.3375
0.625 0.4375 5.3375
0.6875 0.4375 5.3375
0.75 0.4375 5.3375
0.8125 0.4375 5.3375
0.875 0.4375 5.3375
0.9375 0.4375 5.3375
1 0.4375 5.3375
1.0625 0.4375 5.3375
1.125 0.4375 5.3375
1.1875 0.4375 5.3375
1.25 0.4375 5.3375
1.3125 0.4375 5.3375
1.375 0.4375 5.3375
1.4375 0.4375 5.3375
1.5 0.4375 5.3375
1.5625 0.4375 5.3375
1.625 0.4375 5.3375
1.6875 0.4375 5.3375
1.75 0.4375 5.3375
1.8125 0.4375 5.3375
1.875 0.4375 5.3375
1.9375 0.4375 5.3375
2 0.4375 5.3375
2.0625 0.4375 5.3375
2.125 0.4375 5.3375
2.1875 0.4375 5.3375
2.25 0.4375 5.3375
2.3125 0.4375 5.3375
2.375 0.4375 5.3375
2.4375 0.4375 5.3375
2.5 0.4375 5.3375
2.5625 0.4375 5.3375
2.625 0.4375 5.3375
2.6875 0.4375 5.3375
2.75 0.4375 5.3375
2.8125 0.4375 5.3375
2.875 0.4375 5.3375
2.9375 0.4375 5.3375
3 0.4375 5.3375
3.0625 0.4375 5.3375
3.125 0.4375 5.3375
3.1875 0.4375 5.3375
3.25 0.4375 5.3375
3.3125 0.4375 5.3375
3.375 0.4375 5.3375
3.4375 0.4375 5.3375
3.5 0.4375 5.3375
3.5625 0.4375 5.3375
3.625 0.4375 5.3375
3.6875 0.4375 5.3375
3.75 0.4375 5.3375
3.8125 0.4375 5.3375
3.875 0.4375 5.3375
3.9375 0.4375 5.3375
4 0.4375 5.3375
0 0.5 5.3375
0.0625 0.5 5.3375
0.125 0.5 5.3375
0.1875 0.5 5.3375
0.25 0.5 5.3375
0.3125 0.5 5.3375
0.375 0.5 5.3375
0.4375 0.5 5.3375
0.5 0.5 5.3375
0.5625 0.5 5.3375
0.625 0.5 5.3375
0.6875 0.5 5.3375
0.75 0.5 5.3375
0.8125 0.5 5.3375
0.875 0.5 5.3375
0.9375 0.5 5.3375
1 0.5 5.3375
1.0625 0.5 5.3375
1.125 0.5 5.3375
1.1875 0.5 5.3375
1.25 0.5 5.3375
1.3125 0.5 5.3375
1.375 0.5 5.3375
1.4375 0.5 5.3375
1.5 0.5 5.3375
1.5625 0.5 5.3375
1.625 0.5 5.3375
1.6875 0.5 5.3375
1.75 0.5 5.3375
1.8125 0.5 5.3375
1.875 0.5 5.3375
1.9375 0.5 5.3375
2 0.5 5.3375
2.0625 0.5 5.3375
2.125 0.5 5.3375
2.1875 0.5 5.3375
2.25 0.5 5.3375
2.3125 0.5 5.3375
2.375 0.5 5.3375
2.4375 0.5 5.3375
2.5 0.5 5.3375
2.5625 0.5 5.3375
2.625 0.5 5.3375
2.6875 0.5 5.3375
2.75 0.5 5.3375
2.8125 0.5 5.3375
2.875 0.5 5.3375
2.9375 0.5 5.3375
3 0.5 5.3375
3.0625 0.5 5.3375
3.125 0.5 5.3375
3.1875 0.5 5.3375
3.25 0.5 5.3375
3.3125 0.5 5.3375
3.375 0.5 5.3375
3.4375 0.5 5.3375
3.5 0.5 5.3375
3.5625 0.5 5.3375
3.625 0.5 5.3375
3.6875 0.5 5.3375
3.75 0.5 5.3375
3.8125 0.5 5.3375
3.875 0.5 5.3375
3.9375 0.5 5.3375
4 0.5 5.3375
0 0.5625 5.3375
0.0625 0.5625 5.3375
0.125 0.5625 5.3375
0.1875 0.5625 5.3375
0.25 0.5625 5.3375
0.3125 0.5625 5.3375
0.375 0.5625 5.3375
0.4375 0.5625 5.3375
0.5 0.5625 5.3375
0.5625 0.5625 5.3375
0.625 0.5625 5.3375
0.6875 0.5625 5.3375
0.75 0.5625 5.3375
0.8125 0.5625 5.3375
0.875 0.5625 5.3375
0.9375 0.5625 5.3375
1 0.5625 5.3375
1.0625 0.5625 5.3375
1.125 0.5625 5.3375
1.1875 0.5625 5.3375
1.25 0.5625 5.3375
1.3125 0.5625 5.3375
1.375 0.5625 5.3375
1.4375 0.5625 5.3375
1.5 0.5625 5.3375
1.5625 0.5625 5.3375
1.625 0.5625 5.3375
1.6875 0.5625 5.3375
1.75 0.5625 5.3375
1.8125 0.5625 5.3375
1.875 0.5625 5.3375
1.9375 0.5625 5.3375
2 0.5625 5.3375
2.0625 0.5625 5.3375
2.125 0.5625 5.3375
2.1875 0.5625 5.3375
2.25 0.5625 5.3375
2.3125 0.5625 5.3375
2.375 0.5625 5.3375
2.4375 0.5625 5.3375
2.5 0.5625 5.3375
2.5625 0.5625 5.3375
2.625 0.5625 5.3375
2.6875 0.5625 5.3375
2.75 0.5625 5.3375
2.8125 0.5625 5.3375
2.875 0.5625 5.3375
2.9375 0.5625 5.3375
3 0.5625 5.3375
3.0625 0.5625 5.3375
3.125 0.5625 5.3375
3.1875 0.5625 5.3375
3.25 0.5625 5.3375
3.3125 0.5625 5.3375
3.375 0.5625 5.3375
3.4375 0.5625 5.3375
3.5 0.5625 5.3375
3.5625 0.5625 5.3375
3.625 0.5625 5.3375
3.6875 0.5625 5.3375
3.75 0.5625 5.3375
3.8125 0.5625 5.3375
3.875 0.5625 5.3375
3.9375 0.5625 5.3375
4 0.5625 5.3375
0 0.625 5.3375
0.0625 0.625 5.3375
0.125 0.625 5.3375
0.1875 0.625 5.3375
0.25 0.625 5.3375
0.3125 0.625 5.3375
0.375 0.625 5.3375
0.4375 0.625 5.3375
0.5 0.625 5.3375
0.5625 0.625 5.3375
0.625 0.625 5.3375
0.6875 0.625 5.3375
0.75 0.625 5.3375
0.8125 0.625 5.3375
0.875 0.625 5.3375
0.9375 0.625 5.3375
1 0.625 5.3375
1.0625 0.625 5.3375
1.125 0.625 5.3375
1.1875 0.625 5.3375
1.25 0.625 5.3375
1.3125 0.625 5.3375
1.375 0.625 5.3375
1.4375 0.625 5.3375
1.5 0.625 5.3375
1.5625 0.625 5.3375
1.625 0.625 5.3375
1.6875 0.625 5.3375
1.75 0.625 5.3375
1.8125 0.625 5.3375
1.875 0.625 5.3375
1.9375 0.625 5.3375
2 0.625 5.3375
2.0625 0.625 5.3375
2.125 0.625 5.3375
2.1875 0.625 5.3375
2.25 0.625 5.3375
2.3125 0.625 5.3375
2.375 0.625 5.3375
2.4375 0.625 5.3375
2.5 0.625 5.3375
2.5625 0.625 5.3375
2.625 0.625 5.3375
2.6875 0.625 5.3375
2.75 0.625 5.3375
2.8125 0.625 5.3375
2.875 0.625 5.3375
2.9375 0.625 5.3375
3 0.625 5.3375
3.0625 0.625 5.3375
3.125 0.625 5.3375
3.1875 0.625 5.3375
3.25 0.625 5.3375
3.3125 0.625 5.3375
3.375 0.625 5.3375
3.4375 0.625 5.3375
3.5 0.625 5.3375
3.5625 0.625 5.3375
3.625 0.625 5.3375
3.6875 0.625 5.3375
3.75 0.625 5.3375
3.8125 0.625 5.3375
3.875 0.625 5.3375
3.9375 0.625 5.3375
4 0.625 5.3375
0 0.6875 5.3375
0.0625 0.6875 5.3375
0.125 0.6875 5.3375
0.1875 0.6875 5.3375
0.25 0.6875 5.3375
0.3125 0.6875 5.3375
0.375 0.6875 5.3375
0.4375 0.6875 5.3375
0.5 0.6875 5.3375
0.5625 0.6875 5.3375
0.625 0.6875 5.3375
0.6875 0.6875 5.3375
0.75 0.6875 5.3375
0.8125 0.6875 5.3375
0.875 0.6875 5.3375
0.9375 0.6875 5.3375
1 0.6875 5.3375
1.0625 0.6875 5.3375
1.125 0.6875 5.3375
1.1875 0.6875 5.3375
1.25 0.6875 5.3375
1.3125 0.6875 5.3375
1.375 0.6875 5.3375
1.4375 0.6875 5.3375
1.5 0.6875 5.3375
1.5625 0.6875 5.3375
1.625 0.6875 5.3375
1.6875 0.6875 5.3375
1.75 0.6875 5.3375
1.8125 0.6875 5.3375
1.875 0.6875 5.3375
1.9375 0.6875 5.3375
2 0.6875 5.3375
2.0625 0.6875 5.3375
2.125 0.6875 5.3375
2.1875 0.6875 5.3375
2.25 0.6875 5.3375
2.3125 0.6875 5.3375
2.375 0.6875 5.3375
2.4375 0.6875 5.3375
2.5 0.6875 5.3375
2.5625 0.6875 5.3375
2.625 0.6875 5.3375
2.6875 0.6875 5.3375
2.75 0.6875 5.3375
2.8125 0.6875 5.3375
2.875 0.6875 5.3375
2.9375 0.6875 5.3375
3 0.6875 5.3375
3.0625 0.6875 5.3375
3.125 0.6875 5.3375
3.1875 0.6875 5.3375
3.25 0.6875 5.3375
3.3125 0.6875 5.3375
3.375 0.6875 5.3375
3.4375 0.6875 5.3375
3.5 0.6875 5.3375
3.5625 0.6875 5.3375
3.625 0.6875 5.3375
3.6875 0.6875 5.3375
3.75 0.6875 5.3375
3.8125 0.6875 5.3375
3.875 0.6875 5.3375
3.9375 0.6875 5.3375
4 0.6875 5.3375
0 0.75 5.3375
0.0625 0.75 5.3375
0.125 0.75 5.3375
0.1875 0.75 5.3375
0.25 0.75 5.3375
0.3125 0.75 5.3375
0.375 0.75 5.3375
0.4375 0.75 5.3375
0.5 0.75 5.3375
0.5625 0.75 5.3375
0.625 0.75 5.3375
0.6875 0.75 5.3375
0.75 0.75 5.3375
0.8125 0.75 5.3375
0.875 0.75 5.3375
0.9375 0.75 5.3375
1 0.75 5.3375
1.0625 0.75 5.3375
1.125 0.75 5.3375
1.1875 0.75 5.3375
1.25 0.75 5.3375
1.3125 0.75 5.3375
1.375 0.75 5.3375
1.4375 0.75 5.3375
1.5 0.75 5.3375
1.5625 0.75 5.3375
1.625 0.75 5.3375
1.6875 0.75 5.3375
1.75 0.75 5.3375
1.8125 0.75 5.3375
1.875 0.75 5.3375
1.9375 0.75 5.3375
2 0.75 5.3375
2.0625 0.75 5.3375
2.125 0.75 5.3375
2.1875 0.75 5.3375
2.25 0.75 5.3375
2.3125 0.75 5.3375
2.375 0.75 5.3375
2.4375 0.75 5.3375
2.5 0.75 5.3375
2.5625 0.75 5.3375
2.625 0.75 5.3375
2.6875 0.75 5.3375
2.75 0.75 5.3375
2.8125 0.75 5.3375
2.875 0.75 5.3375
2.9375 0.75 5.3375
3 0.75 5.3375
3.0625 0.75 5.3375
3.125 0.75 5.3375
3.1875 0.75 5.3375
3.25 0.75 5.3375
3.3125 0.75 5.3375
3.375 0.75 5.3375
3.4375 0.75 5.3375
3.5 0.75 5.3375
3.5625 0.75 5.3375
3.625 0.75 5.3375
3.6875 0.75 5.3375
3.75 0.75 5.3375
3.8125 0.75 5.3375
3.875 0.75 5.3375
3.9375 0.75 5.3375
4 0.75 5.3375
0 0.8125 5.3375
0.0625 0.8125 5.3375
0.125 0.8125 5.3375
0.1875 0.8125 5.3375
0.25 0.8125 5.3375
0.3125 0.8125 5.3375
0.375 0.8125 5.3375
0.4375 0.8125 5.3375
0.5 0.8125 5.3375
0.5625 0.8125 5.3375
0.625 0.8125 5.3375
0.6875 0.8125 5.3375
0.75 0.8125 5.3375
0.8125 0.8125 5.3375
0.875 0.8125 5.3375
0.9375 0.8125 5.3375
1 0.8125 5.3375
1.0625 0.8125 5.3375
1.125 0.8125 5.3375
1.1875 0.8125 5.3375
1.25 0.8125 5.3375
1.3125 0.8125 5.3375
1.375 0.8125 5.3375
1.4375 0.8125 5.3375
1.5 0.8125 5.3375
1.5625 0.8125 5.3375
1.625 0.8125 5.3375
1.6875 0.8125 5.3375
1.75 0.8125 5.3375
1.8125 0.8125 5.3375
1.875 0.8125 5.3375
1.9375 0.8125 5.3375
2 0.8125 5.3375
2.0625 0.8125 5.3375
2.125 0.8125 5.3375
2.1875 0.8125 5.3375
2.25 0.8125 5.3375
2.3125 0.8125 5.3375
2.375 0.8125 5.3375
2.4375 0.8125 5.3375
2.5 0.8125 5.3375
2.5625 0.8125 5.3375
2.625 0.8125 5.3375
2.6875 0.8125 5.3375
2.75 0.8125 5.3375
2.8125 0.8125 5.3375
2.875 0.8125 5.3375
2.9375 0.8125 5.3375
3 0.8125 5.3375
3.0625 0.8125 5.3375
3.125 0.8125 5.3375
3.1875 0.8125 5.3375
3.25 0.8125 5.3375
3.3125 0.8125 5.3375
3.375 0.8125 5.3375
3.4375 0.8125 5.3375
3.5 0.8125 5.3375
3.5625 0.8125 5.3375
3.625 0.8125 5.3375
3.6875 0.8125 5.3375
3.75 0.8125 5.3375
3.8125 0.8125 5.3375
3.875 0.8125 5.3375
3.9375 0.8125 5.3375
4 0.8125 5.3375
0 0.875 5.3375
0.0625 0.875 5.3375
0.125 0.875 5.3375
0.1875 0.875 5.3375
0.25 0.875 5.3375
0.3125 0.875 5.3375
0.375 0.875 5.3375
0.4375 0.875 5.3375
0.5 0.875 5.3375
0.5625 0.875 5.3375
0.625 0.875 5.3375
0.6875 0.875 5.3375
0.75 0.875 5.3375
0.8125 0.875 5.3375
0.875 0.875 5.3375
0.9375 0.875 5.3375
1 0.875 5.3375
1.0625 0.875 5.3375
1.125 0.875 5.3375
1.1875 0.875 5.3375
1.25 0.875 5.3375
1.3125 0.875 5.3375
1.375 0.875 5.3375
1.4375 0.875 5.3375
1.5 0.875 5.3375
1.5625 0.875 5.3375
1.625 0.875 5.3375
1.6875 0.875 5.3375
1.75 0.875 5.3375
1.8125 0.875 5.3375
1.875 0.875 5.3375
1.9375 0.875 5.3375
2 0.875 5.3375
2.0625 0.875 5.3375
2.125 0.875 5.3375
2.1875 0.875 5.3375
2.25 0.875 5.3375
2.3125 0.875 5.3375
2.375 0.875 5.3375
2.4375 0.875 5.3375
2.5 0.875 5.3375
2.5625 0.875 5.3375
2.625 0.875 5.3375
2.6875 0.875 5.3375
2.75 0.875 5.3375
2.8125 0.875 5.3375
2.875 0.875 5.3375
2.9375 0.875 5.3375
3 0.875 5.3375
3.0625 0.875 5.3375
3.125 0.875 5.3375
3.1875 0.875 5.3375
3.25 0.875 5.3375
3.3125 0.875 5.3375
3.375 0.875 5.3375
3.4375 0.875 5.3375
3.5 0.875 5.3375
3.5625 0.875 5.3375
3.625 0.875 5.3375
3.6875 0.875 5.3375
3.75 0.875 5.3375
3.8125 0.875 5.3375
3.875 0.875 5.3375
3.9375 0.875 5.3375
4 0.875 5.3375
0 0.9375 5.3375
0.0625 0.9375 5.3375
0.125 0.9375 5.3375
0.1875 0.9375 5.3375
0.25 0.9375 5.3375
0.3125 0.9375 5.3375
0.375 0.9375 5.3375
0.4375 0.9375 5.3375
0.5 0.9375 5.3375
0.5625 0.9375 5.3375
0.625 0.9375 5.3375
0.6875 0.9375 5.3375
0.75 0.9375 5.3375
0.8125 0.9375 5.3375
0.875 0.9375 5.3375
0.9375 0.9375 5.3375
1 0.9375 5.3375
1.0625 0.9375 5.3375
1.125 0.9375 5.3375
1.1875 0.9375 5.3375
1.25 0.9375 5.3375
1.3125 0.9375 5.3375
1.375 0.9375 5.3375
1.4375 0.9375 5.3375
1.5 0.9375 5.3375
1.5625 0.9375 5.3375
1.625 0.9375 5.3375
1.6875 0.9375 5.3375
1.75 0.9375 5.3375
1.8125 0.9375 5.3375
1.875 0.9375 5.3375
1.9375 0.9375 5.3375
2 0.9375 5.3375
2.0625 0.9375 5.3375
2.125 0.9375 5.3375
2.1875 0.9375 5.3375
2.25 0.9375 5.3375
2.3125 0.9375 5.3375
2.375 0.9375 5.3375
2.4375 0.9375 5.3375
2.5 0.9375 5.3375
2.5625 0.9375 5.3375
2.625 0.9375 5.3375
2.6875 0.9375 5.3375
2.75 0.9375 5.3375
2.8125 0.9375 5.3375
2.875 0.9375 5.3375
2.9375 0.9375 5.3375
3 0.9375 5.3375
3.0625 0.9375 5.3375
3.125 0.9375 5.3375
3.1875 0.9375 5.3375
3.25 0.9375 5.3375
3.3125 0.9375 5.3375
3.375 0.9375 5.3375
3.4375 0.9375 5.3375
3.5 0.9375 5.3375
3.5625 0.9375 5.3375
3.625 0.9375 5.3375
3.6875 0.9375 5.3375
3.75 0.9375 5.3375
3.8125 0.9375 5.3375
3.875 0.9375 5.3375
3.9375 0.9375 5.3375
4 0.9375 5.3375
0 1 5.3375
0.0625 1 5.3375
0.125 1 5.3375
0.1875 1 5.3375
0.25 1 5.3375
0.3125 1 5.3375
0.375 1 5.3375
0.4375 1 5.3375
0.5 1 5.3375
0.5625 1 5.3375
0.625 1 5.3375
0.6875 1 5.3375
0.75 1 5.3375
0.8125 1 5.3375
0.875 1 5.3375
0.9375 1 5.3375
1 1 5.3375
1.0625 1 5.3375
1.125 1 5.3375
1.1875 1 5.3375
1.25 1 5.3375
1.3125 1 5.3375
1.375 1 5.3375
1.4375 1 5.3375
1.5 1 5.3375
1.5625 1 5.3375
1.625 1 5.3375
1.6875 1 5.3375
1.75 1 5.3375
1.8125 1 5.3375
1.875 1 5.3375
1.9375 1 5.3375
2 1 5.3375
2.0625 1 5.3375
2.125 1 5.3375
2.1875 1 5.3375
2.25 1 5.3375
2.3125 1 5.3375
2.375 1 5.3375
2.4375 1 5.3375
2.5 1 5.3375
2.5625 1 5.3375
2.625 1 5.3375
2.6875 1 5.3375
2.75 1 5.3375
2.8125 1 5.3375
2.875 1 5.3375
2.9375 1 5.3375
3 1 5.3375
3.0625 1 5.3375
3.125 1 5.3375
3.1875 1 5.3375
3.25 1 5.3375
3.3125 1 5.3375
3.375 1 5.3375
3.4375 1 5.3375
3.5 1 5.3375
3.5625 1 5.3375
3.625 1 5.3375
3.6875 1 5.3375
3.75 1 5.3375
3.8125 1 5.3375
3.875 1 5.3375
3.9375 1 5.3375
4 1 5.3375
0 0 5.4
0.0625 0 5.4
0.125 0 5.4
0.1875 0 5.4
0.25 0 5.4
0.3125 0 5.4
0.375 0 5.4
0.4375 0 5.4
0.5 0 5.4
0.5625 0 5.4
0.625 0 5.4
0.6875 0 5.4
0.75 0 5.4
0.8125 0 5.4
0.875 0 5.4
0.9375 0 5.4
1 0 5.4
1.0625 0 5.4
1.125 0 5.4
1.1875 0 5.4
1.25 0 5.4
1.3125 0 5.4
1.375 0 5.4
1.4375 0 5.4
1.5 0 5.4
1.5625 0 5.4
1.625 0 5.4
1.6875 0 5.4
1.75 0 5.4
1.8125 0 5.4
1.875 0 5.4
1.9375 0 5.4
2 0 5.4
2.0625 0 5.4
2.125 0 5.4
2.1875 0 5.4
2.25 0 5.4
2.3125 0 5.4
2.375 0 5.4
2.4375 0 5.4
2.5 0 5.4
2.5625 0 5.4
2.625 0 5.4
2.6875 0 5.4
2.75 0 5.4
2.8125 0 5.4
2.875 0 5.4
2.9375 0 5.4
3 0 5.4
3.0625 0 5.4
3.125 0 5.4
3.1875 0 5.4
3.25 0 5.4
3.3125 0 5.4
3.375 0 5.4
3.4375 0 5.4
3.5 0 5.4
3.5625 0 5.4
3.625 0 5.4
3.6875 0 5.4
3.75 0 5.4
3.8125 0 5.4
3.875 0 5.4
3.9375 0 5.4
4 0 5.4
0 0.0625 5.4
0.0625 0.0625 5.4
0.125 0.0625 5.4
0.1875 0.0625 5.4
0.25 0.0625 5.4
0.3125 0.0625 5.4
0.375 0.0625 5.4
0.4375 0.0625 5.4
0.5 0.0625 5.4
0.5625 0.0625 5.4
0.625 0.0625 5.4
0.6875 0.0625 5.4
0.75 0.0625 5.4
0.8125 0.0625 5.4
0.875 0.0625 5.4
0.9375 0.0625 5.4
1 0.0625 5.4
1.0625 0.0625 5.4
1.125 0.0625 5.4
1.1875 0.0625 5.4
1.25 0.0625 5.4
1.3125 0.0625 5.4
1.375 0.0625 5.4
1.4375 0.0625 5.4
1.5 0.0625 5.4
1.5625 0.0625 5.4
1.625 0.0625 5.4
1.6875 0.0625 5.4
1.75 0.0625 5.4
1.8125 0.0625 5.4
1.875 0.0625 5.4
1.9375 0.0625 5.4
2 0.0625 5.4
2.0625 0.0625 5.4
2.125 0.0625 5.4
2.1875 0.0625 5.4
2.25 0.0625 5.4
2.3125 0.0625 5.4
2.375 0.0625 5.4
2.4375 0.0625 5.4
2.5 0.0625 5.4
2.5625 0.0625 5.4
2.625 0.0625 5.4
2.6875 0.0625 5.4
2.75 0.0625 5.4
2.8125 0.0625 5.4
2.875 0.0625 5.4
2.9375 0.0625 5.4
3 0.0625 5.4
3.0625 0.0625 5.4
3.125 0.0625 5.4
3.1875 0.0625 5.4
3.25 0.0625 5.4
3.3125 0.0625 5.4
3.375 0.0625 5.4
3.4375 0.0625 5.4
3.5 0.0625 5.4
3.5625 0.0625 5.4
3.625 0.0625 5.4
3.6875 0.0625 5.4
3.75 0.0625 5.4
3.8125 0.0625 5.4
3.875 0.0625 5.4
3.9375 0.0625 5.4
4 0.0625 5.4
0 0.125 5.4
0.0625 0.125 5.4
0.125 0.125 5.4
0.1875 0.125 5.4
0.25 0.125 5.4
0.3125 0.125 5.4
0.375 0.125 5.4
0.4375 0.125 5.4
0.5 0.125 5.4
0.5625 0.125 5.4
0.625 0.125 5.4
0.6875 0.125 5.4
0.75 0.125 5.4
0.8125 0.125 5.4
0.875 0.125 5.4
0.9375 0.125 5.4
1 0.125 5.4
1.0625 0.125 5.4
1.125 0.125 5.4
1.1875 0.125 5.4
1.25 0.125 5.4
1.3125 0.125 5.4
1.375 0.125 5.4
1.4375 0.125 5.4
1.5 0.125 5.4
1.5625 0.125 5.4
1.625 0.125 5.4
1.6875 0.125 5.4
1.75 0.125 5.4
1.8125 0.125 5.4
1.875 0.125 5.4
1.9375 0.125 5.4
2 0.125 5.4
2.0625 0.125 5.4
2.125 0.125 5.4
2.1875 0.125 5.4
2.25 0.125 5.4
2.3125 0.125 5.4
2.375 0.125 5.4
2.4375 0.125 5.4
2.5 0.125 5.4
2.5625 0.125 5.4
2.625 0.125 5.4
2.6875 0.125 5.4
2.75 0.125 5.4
2.8125 0.125 5.4
2.875 0.125 5.4
2.9375 0.125 5.4
3 0.125 5.4
3.0625 0.125 5.4
3.125 0.125 5.4
3.1875 0.125 5.4
3.25 0.125 5.4
3.3125 0.125 5.4
3.375 0.125 5.4
3.4375 0.125 5.4
3.5 0.125 5.4
3.5625 0.125 5.4
3.625 0.125 5.4
3.6875 0.125 5.4
3.75 0.125 5.4
3.8125 0.125 5.4
3.875 0.125 5.4
3.9375 0.125 5.4
4 0.125 5.4
0 0.1875 5.4
0.0625 0.1875 5.4
0.125 0.1875 5.4
0.1875 0.1875 5.4
0.25 0.1875 5.4
0.3125 0.1875 5.4
0.375 0.1875 5.4
0.4375 0.1875 5.4
0.5 0.1875 5.4
0.5625 0.1875 5.4
0.625 0.1875 5.4
0.6875 0.1875 5.4
0.75 0.1875 5.4
0.8125 0.1875 5.4
0.875 0.1875 5.4
0.9375 0.1875 5.4
1 0.1875 5.4
1.0625 0.1875 5.4
1.125 0.1875 5.4
1.1875 0.1875 5.4
1.25 0.1875 5.4
1.3125 0.1875 5.4
1.375 0.1875 5.4
1.4375 0.1875 5.4
1.5 0.1875 5.4
1.5625 0.1875 5.4
1.625 0.1875 5.4
1.6875 0.1875 5.4
1.75 0.1875 5.4
1.8125 0.1875 5.4
1.875 0.1875 5.4
1.9375 0.1875 5.4
2 0.1875 5.4
2.0625 0.1875 5.4
2.125 0.1875 5.4
2.1875 0.1875 5.4
2.25 0.1875 5.4
2.3125 0.1875 5.4
2.375 0.1875 5.4
2.4375 0.1875 5.4
2.5 0.1875 5.4
2.5625 0.1875 5.4
2.625 0.1875 5.4
2.6875 0.1875 5.4
2.75 0.1875 5.4
2.8125 0.1875 5.4
2.875 0.1875 5.4
2.9375 0.1875 5.4
3 0.1875 5.4
3.0625 0.1875 5.4
3.125 0.1875 5.4
3.1875 0.1875 5.4
3.25 0.1875 5.4
3.3125 0.1875 5.4
3.375 0.1875 5.4
3.4375 0.1875 5.4
3.5 0.1875 5.4
3.5625 0.1875 5.4
3.625 0.1875 5.4
3.6875 0.1875 5.4
3.75 0.1875 5.4
3.8125 0.1875 5.4
3.875 0.1875 5.4
3.9375 0.1875 5.4
4 0.1875 5.4
0 0.25 5.4
0.0625 0.25 5.4
0.125 0.25 5.4
0.1875 0.25 5.4
0.25 0.25 5.4
0.3125 0.25 5.4
0.375 0.25 5.4
0.4375 0.25 5.4
0.5 0.25 5.4
0.5625 0.25 5.4
0.625 0.25 5.4
0.6875 0.25 5.4
0.75 0.25 5.4
0.8125 0.25 5.4
0.875 0.25 5.4
0.9375 0.25 5.4
1 0.25 5.4
1.0625 0.25 5.4
1.125 0.25 5.4
1.1875 0.25 5.4
1.25 0.25 5.4
1.3125 0.25 5.4
1.375 0.25 5.4
1.4375 0.25 5.4
1.5 0.25 5.4
1.5625 0.25 5.4
1.625 0.25 5.4
1.6875 0.25 5.4
1.75 0.25 5.4
1.8125 0.25 5.4
1.875 0.25 5.4
1.9375 0.25 5.4
2 0.25 5.4
2.0625 0.25 5.4
2.125 0.25 5.4
2.1875 0.25 5.4
2.25 0.25 5.4
2.3125 0.25 5.4
2.375 0.25 5.4
2.4375 0.25 5.4
2.5 0.25 5.4
2.5625 0.25 5.4
2.625 0.25 5.4
2.6875 0.25 5.4
2.75 0.25 5.4
2.8125 0.25 5.4
2.875 0.25 5.4
2.9375 0.25 5.4
3 0.25 5.4
3.0625 0.25 5.4
3.125 0.25 5.4
3.1875 0.25 5.4
3.25 0.25 5.4
3.3125 0.25 5.4
3.375 0.25 5.4
3.4375 0.25 5.4
3.5 0.25 5.4
3.5625 0.25 5.4
3.625 0.25 5.4
3.6875 0.25 5.4
3.75 0.25 5.4
3.8125 0.25 5.4
3.875 0.25 5.4
3.9375 0.25 5.4
4 0.25 5.4
0 0.3125 5.4
0.0625 0.3125 5.4
0.125 0.3125 5.4
0.1875 0.3125 5.4
0.25 0.3125 5.4
0.3125 0.3125 5.4
0.375 0.3125 5.4
0.4375 0.3125 5.4
0.5 0.3125 5.4
0.5625 0.3125 5.4
0.625 0.3125 5.4
0.6875 0.3125 5.4
0.75 0.3125 5.4
0.8125 0.3125 5.4
0.875 0.3125 5.4
0.9375 0.3125 5.4
1 0.3125 5.4
1.0625 0.3125 5.4
1.125 0.3125 5.4
1.1875 0.3125 5.4
1.25 0.3125 5.4
1.3125 0.3125 5.4
1.375 0.3125 5.4
1.4375 0.3125 5.4
1.5 0.3125 5.4
1.5625 0.3125 5.4
1.625 0.3125 5.4
1.6875 0.3125 5.4
1.75 0.3125 5.4
1.8125 0.3125 5.4
1.875 0.3125 5.4
1.9375 0.3125 5.4
2 0.3125 5.4
2.0625 0.3125 5.4
2.125 0.3125 5.4
2.1875 0.3125 5.4
2.25 0.3125 5.4
2.3125 0.3125 5.4
2.375 0.3125 5.4
2.4375 0.3125 5.4
2.5 0.3125 5.4
2.5625 0.3125 5.4
2.625 0.3125 5.4
2.6875 0.3125 5.4
2.75 0.3125 5.4
2.8125 0.3125 5.4
2.875 0.3125 5.4
2.9375 0.3125 5.4
3 0.3125 5.4
3.0625 0.3125 5.4
3.125 0.3125 5.4
3.1875 0.3125 5.4
3.25 0.3125 5.4
3.3125 0.3125 5.4
3.375 0.3125 5.4
3.4375 0.3125 5.4
3.5 0.3125 5.4
3.5625 0.3125 5.4
3.625 0.3125 5.4
3.6875 0.3125 5.4
3.75 0.3125 5.4
3.8125 0.3125 5.4
3.875 0.3125 5.4
3.9375 0.3125 5.4
4 0.3125 5.4
0 0.375 5.4
0.0625 0.375 5.4
0.125 0.375 5.4
0.1875 0.375 5.4
0.25 0.375 5.4
0.3125 0.375 5.4
0.375 0.375 5.4
0.4375 0.375 5.4
0.5 0.375 5.4
0.5625 0.375 5.4
0.625 0.375 5.4
0.6875 0.375 5.4
0.75 0.375 5.4
0.8125 0.375 5.4
0.875 0.375 5.4
0.9375 0.375 5.4
1 0.375 5.4
1.0625 0.375 5.4
1.125 0.375 5.4
1.1875 0.375 5.4
1.25 0.375 5.4
1.3125 0.375 5.4
1.375 0.375 5.4
1.4375 0.375 5.4
1.5 0.375 5.4
1.5625 0.375 5.4
1.625 0.375 5.4
1.6875 0.375 5.4
1.75 0.375 5.4
1.8125 0.375 5.4
1.875 0.375 5.4
1.9375 0.375 5.4
2 0.375 5.4
2.0625 0.375 5.4
2.125 0.375 5.4
2.1875 0.375 5.4
2.25 0.375 5.4
2.3125 0.375 5.4
2.375 0.375 5.4
2.4375 0.375 5.4
2.5 0.375 5.4
2.5625 0.375 5.4
2.625 0.375 5.4
2.6875 0.375 5.4
2.75 0.375 5.4
2.8125 0.375 5.4
2.875 0.375 5.4
2.9375 0.375 5.4
3 0.375 5.4
3.0625 0.375 5.4
3.125 0.375 5.4
3.1875 0.375 5.4
3.25 0.375 5.4
3.3125 0.375 5.4
3.375 0.375 5.4
3.4375 0.375 5.4
3.5 0.375 5.4
3.5625 0.375 5.4
3.625 0.375 5.4
3.6875 0.375 5.4
3.75 0.375 5.4
3.8125 0.375 5.4
3.875 0.375 5.4
3.9375 0.375 5.4
4 0.375 5.4
0 0.4375 5.4
0.0625 0.4375 5.4
0.125 0.4375 5.4
0.1875 0.4375 5.4
0.25 0.4375 5.4
0.3125 0.4375 5.4
0.375 0.4375 5.4
0.4375 0.4375 5.4
0.5 0.4375 5.4
0.5625 0.4375 5.4
0.625 0.4375 5.4
0.6875 0.4375 5.4
0.75 0.4375 5.4
0.8125 0.4375 5.4
0.875 0.4375 5.4
0.9375 0.4375 5.4
1 0.4375 5.4
1.0625 0.4375 5.4
1.125 0.4375 5.4
1.1875 0.4375 5.4
1.25 0.4375 5.4
1.3125 0.4375 5.4
1.375 0.4375 5.4
1.4375 0.4375 5.4
1.5 0.4375 5.4
1.5625 0.4375 5.4
1.625 0.4375 5.4
1.6875 0.4375 5.4
1.75 0.4375 5.4
1.8125 0.4375 5.4
1.875 0.4375 5.4
1.9375 0.4375 5.4
2 0.4375 5.4
2.0625 0.4375 5.4
2.125 0.4375 5.4
2.1875 0.4375 5.4
2.25 0.4375 5.4
2.3125 0.4375 5.4
2.375 0.4375 5.4
2.4375 0.4375 5.4
2.5 0.4375 5.4
2.5625 0.4375 5.4
2.625 0.4375 5.4
2.6875 0.4375 5.4
2.75 0.4375 5.4
2.8125 0.4375 5.4
2.875 0.4375 5.4
2.9375 0.4375 5.4
3 0.4375 5.4
3.0625 0.4375 5.4
3.125 0.4375 5.4
3.1875 0.4375 5.4
3.25 0.4375 5.4
3.3125 0.4375 5.4
3.375 0.4375 5.4
3.4375 0.4375 5.4
3.5 0.4375 5.4
3.5625 0.4375 5.4
3.625 0.4375 5.4
3.6875 0.4375 5.4
3.75 0.4375 5.4
3.8125 0.4375 5.4
3.875 0.4375 5.4
3.9375 0.4375 5.4
4 0.4375 5.4
0 0.5 5.4
0.0625 0.5 5.4
0.125 0.5 5.4
0.1875 0.5 5.4
0.25 0.5 5.4
0.3125 0.5 5.4
0.375 0.5 5.4
0.4375 0.5 5.4
0.5 0.5 5.4
0.5625 0.5 5.4
0.625 0.5 5.4
0.6875 0.5 5.4
0.75 0.5 5.4
0.8125 0.5 5.4
0.875 0.5 5.4
0.9375 0.5 5.4
1 0.5 5.4
1.0625 0.5 5.4
1.125 0.5 5.4
1.1875 0.5 5.4
1.25 0.5 5.4
1.3125 0.5 5.4
1.375 0.5 5.4
1.4375 0.5 5.4
1.5 0.5 5.4
1.5625 0.5 5.4
1.625 0.5 5.4
1.6875 0.5 5.4
1.75 0.5 5.4
1.8125 0.5 5.4
1.875 0.5 5.4
1.9375 0.5 5.4
2 0.5 5.4
2.0625 0.5 5.4
2.125 0.5 5.4
2.1875 0.5 5.4
2.25 0.5 5.4
2.3125 0.5 5.4
2.375 0.5 5.4
2.4375 0.5 5.4
2.5 0.5 5.4
2.5625 0.5 5.4
2.625 0.5 5.4
2.6875 0.5 5.4
2.75 0.5 5.4
2.8125 0.5 5.4
2.875 0.5 5.4
2.9375 0.5 5.4
3 0.5 5.4
3.0625 0.5 5.4
3.125 0.5 5.4
3.1875 0.5 5.4
3.25 0.5 5.4
3.3125 0.5 5.4
3.375 0.5 5.4
3.4375 0.5 5.4
3.5 0.5 5.4
3.5625 0.5 5.4
3.625 0.5 5.4
3.6875 0.5 5.4
3.75 0.5 5.4
3.8125 0.5 5.4
3.875 0.5 5.4
3.9375 0.5 5.4
4 0.5 5.4
0 0.5625 5.4
0.0625 0.5625 5.4
0.125 0.5625 5.4
0.1875 0.5625 5.4
0.25 0.5625 5.4
0.3125 0.5625 5.4
0.375 0.5625 5.4
0.4375 0.5625 5.4
0.5 0.5625 5.4
0.5625 0.5625 5.4
0.625 0.5625 5.4
0.6875 0.5625 5.4
0.75 0.5625 5.4
0.8125 0.5625 5.4
0.875 0.5625 5.4
0.9375 0.5625 5.4
1 0.5625 5.4
1.0625 0.5625 5.4
1.125 0.5625 5.4
1.1875 0.5625 5.4
1.25 0.5625 5.4
1.3125 0.5625 5.4
1.375 0.5625 5.4
1.4375 0.5625 5.4
1.5 0.5625 5.4
1.5625 0.5625 5.4
1.625 0.5625 5.4
1.6875 0.5625 5.4
1.75 0.5625 5.4
1.8125 0.5625 5.4
1.875 0.5625 5.4
1.9375 0.5625 5.4
2 0.5625 5.4
2.0625 0.5625 5.4
2.125 0.5625 5.4
2.1875 0.5625 5.4
2.25 0.5625 5.4
2.3125 0.5625 5.4
2.375 0.5625 5.4
2.4375 0.5625 5.4
2.5 0.5625 5.4
2.5625 0.5625 5.4
2.625 0.5625 5.4
2.6875 0.5625 5.4
2.75 0.5625 5.4
2.8125 0.5625 5.4
2.875 0.5625 5.4
2.9375 0.5625 5.4
3 0.5625 5.4
3.0625 0.5625 5.4
3.125 0.5625 5.4
3.1875 0.5625 5.4
3.25 0.5625 5.4
3.3125 0.5625 5.4
3.375 0.5625 5.4
3.4375 0.5625 5.4
3.5 0.5625 5.4
3.5625 0.5625 5.4
3.625 0.5625 5.4
3.6875 0.5625 5.4
3.75 0.5625 5.4
3.8125 0.5625 5.4
3.875 0.5625 5.4
3.9375 0.5625 5.4
4 0.5625 5.4
0 0.625 5.4
0.0625 0.625 5.4
0.125 0.625 5.4
0.1875 0.625 5.4
0.25 0.625 5.4
0.3125 0.625 5.4
0.375 0.625 5.4
0.4375 0.625 5.4
0.5 0.625 5.4
0.5625 0.625 5.4
0.625 0.625 5.4
0.6875 0.625 5.4
0.75 0.625 5.4
0.8125 0.625 5.4
0.875 0.625 5.4
0.9375 0.625 5.4
1 0.625 5.4
1.0625 0.625 5.4
1.125 0.625 5.4
1.1875 0.625 5.4
1.25 0.625 5.4
1.3125 0.625 5.4
1.375 0.625 5.4
1.4375 0.625 5.4
1.5 0.625 5.4
1.5625 0.625 5.4
1.625 0.625 5.4
1.6875 0.625 5.4
1.75 0.625 5.4
1.8125 0.625 5.4
1.875 0.625 5.4
1.9375 0.625 5.4
2 0.625 5.4
2.0625 0.625 5.4
2.125 0.625 5.4
2.1875 0.625 5.4
2.25 0.625 5.4
2.3125 0.625 5.4
2.375 0.625 5.4
2.4375 0.625 5.4
2.5 0.625 5.4
2.5625 0.625 5.4
2.625 0.625 5.4
2.6875 0.625 5.4
2.75 0.625 5.4
2.8125 0.625 5.4
2.875 0.625 5.4
2.9375 0.625 5.4
3 0.625 5.4
3.0625 0.625 5.4
3.125 0.625 5.4
3.1875 0.625 5.4
3.25 0.625 5.4
3.3125 0.625 5.4
3.375 0.625 5.4
3.4375 0.625 5.4
3.5 0.625 5.4
3.5625 0.625 5.4
3.625 0.625 5.4
3.6875 0.625 5.4
3.75 0.625 5.4
3.8125 0.625 5.4
3.875 0.625 5.4
3.9375 0.625 5.4
4 0.625 5.4
0 0.6875 5.4
0.0625 0.6875 5.4
0.125 0.6875 5.4
0.1875 0.6875 5.4
0.25 0.6875 5.4
0.3125 0.6875 5.4
0.375 0.6875 5.4
0.4375 0.6875 5.4
0.5 0.6875 5.4
0.5625 0.6875 5.4
0.625 0.6875 5.4
0.6875 0.6875 5.4
0.75 0.6875 5.4
0.8125 0.6875 5.4
0.875 0.6875 5.4
0.9375 0.6875 5.4
1 0.6875 5.4
1.0625 0.6875 5.4
1.125 0.6875 5.4
1.1875 0.6875 5.4
1.25 0.6875 5.4
1.3125 0.6875 5.4
1.375 0.6875 5.4
1.4375 0.6875 5.4
1.5 0.6875 5.4
1.5625 0.6875 5.4
1.625 0.6875 5.4
1.6875 0.6875 5.4
1.75 0.6875 5.4
1.8125 0.6875 5.4
1.875 0.6875 5.4
1.9375 0.6875 5.4
2 0.6875 5.4
2.0625 0.6875 5.4
2.125 0.6875 5.4
2.1875 0.6875 5.4
2.25 0.6875 5.4
2.3125 0.6875 5.4
2.375 0.6875 5.4
2.4375 0.6875 5.4
2.5 0.6875 5.4
2.5625 0.6875 5.4
2.625 0.6875 5.4
2.6875 0.6875 5.4
2.75 0.6875 5.4
2.8125 0.6875 5.4
2.875 0.6875 5.4
2.9375 0.6875 5.4
3 0.6875 5.4
3.0625 0.6875 5.4
3.125 0.6875 5.4
3.1875 0.6875 5.4
3.25 0.6875 5.4
3.3125 0.6875 5.4
3.375 0.6875 5.4
3.4375 0.6875 5.4
3.5 0.6875 5.4
3.5625 0.6875 5.4
3.625 0.6875 5.4
3.6875 0.6875 5.4
3.75 0.6875 5.4
3.8125 0.6875 5.4
3.875 0.6875 5.4
3.9375 0.6875 5.4
4 0.6875 5.4
0 0.75 5.4
0.0625 0.75 5.4
0.125 0.75 5.4
0.1875 0.75 5.4
0.25 0.75 5.4
0.3125 0.75 5.4
0.375 0.75 5.4
0.4375 0.75 5.4
0.5 0.75 5.4
0.5625 0.75 5.4
0.625 0.75 5.4
0.6875 0.75 5.4
0.75 0.75 5.4
0.8125 0.75 5.4
0.875 0.75 5.4
0.9375 0.75 5.4
1 0.75 5.4
1.0625 0.75 5.4
1.125 0.75 5.4
1.1875 0.75 5.4
1.25 0.75 5.4
1.3125 0.75 5.4
1.375 0.75 5.4
1.4375 0.75 5.4
1.5 0.75 5.4
1.5625 0.75 5.4
1.625 0.75 5.4
1.6875 0.75 5.4
1.75 0.75 5.4
1.8125 0.75 5.4
1.875 0.75 5.4
1.9375 0.75 5.4
2 0.75 5.4
2.0625 0.75 5.4
2.125 0.75 5.4
2.1875 0.75 5.4
2.25 0.75 5.4
2.3125 0.75 5.4
2.375 0.75 5.4
2.4375 0.75 5.4
2.5 0.75 5.4
2.5625 0.75 5.4
2.625 0.75 5.4
2.6875 0.75 5.4
2.75 0.75 5.4
2.8125 0.75 5.4
2.875 0.75 5.4
2.9375 0.75 5.4
3 0.75 5.4
3.0625 0.75 5.4
3.125 0.75 5.4
3.1875 0.75 5.4
3.25 0.75 5.4
3.3125 0.75 5.4
3.375 0.75 5.4
3.4375 0.75 5.4
3.5 0.75 5.4
3.5625 0.75 5.4
3.625 0.75 5.4
3.6875 0.75 5.4
3.75 0.75 5.4
3.8125 0.75 5.4
3.875 0.75 5.4
3.9375 0.75 5.4
4 0.75 5.4
0 0.8125 5.4
0.0625 0.8125 5.4
0.125 0.8125 5.4
0.1875 0.8125 5.4
0.25 0.8125 5.4
0.3125 0.8125 5.4
0.375 0.8125 5.4
0.4375 0.8125 5.4
0.5 0.8125 5.4
0.5625 0.8125 5.4
0.625 0.8125 5.4
0.6875 0.8125 5.4
0.75 0.8125 5.4
0.8125 0.8125 5.4
0.875 0.8125 5.4
0.9375 0.8125 5.4
1 0.8125 5.4
1.0625 0.8125 5.4
1.125 0.8125 5.4
1.1875 0.8125 5.4
1.25 0.8125 5.4
1.3125 0.8125 5.4
1.375 0.8125 5.4
1.4375 0.8125 5.4
1.5 0.8125 5.4
1.5625 0.8125 5.4
1.625 0.8125 5.4
1.6875 0.8125 5.4
1.75 0.8125 5.4
1.8125 0.8125 5.4
1.875 0.8125 5.4
1.9375 0.8125 5.4
2 0.8125 5.4
2.0625 0.8125 5.4
2.125 0.8125 5.4
2.1875 0.8125 5.4
2.25 0.8125 5.4
2.3125 0.8125 5.4
2.375 0.8125 5.4
2.4375 0.8125 5.4
2.5 0.8125 5.4
2.5625 0.8125 5.4
2.625 0.8125 5.4
2.6875 0.8125 5.4
2.75 0.8125 5.4
2.8125 0.8125 5.4
2.875 0.8125 5.4
2.9375 0.8125 5.4
3 0.8125 5.4
3.0625 0.8125 5.4
3.125 0.8125 5.4
3.1875 0.8125 5.4
3.25 0.8125 5.4
3.3125 0.8125 5.4
3.375 0.8125 5.4
3.4375 0.8125 5.4
3.5 0.8125 5.4
3.5625 0.8125 5.4
3.625 0.8125 5.4
3.6875 0.8125 5.4
3.75 0.8125 5.4
3.8125 0.8125 5.4
3.875 0.8125 5.4
3.9375 0.8125 5.4
4 0.8125 5.4
0 0.875 5.4
0.0625 0.875 5.4
0.125 0.875 5.4
0.1875 0.875 5.4
0.25 0.875 5.4
0.3125 0.875 5.4
0.375 0.875 5.4
0.4375 0.875 5.4
0.5 0.875 5.4
0.5625 0.875 5.4
0.625 0.875 5.4
0.6875 0.875 5.4
0.75 0.875 5.4
0.8125 0.875 5.4
0.875 0.875 5.4
0.9375 0.875 5.4
1 0.875 5.4
1.0625 0.875 5.4
1.125 0.875 5.4
1.1875 0.875 5.4
1.25 0.875 5.4
1.3125 0.875 5.4
1.375 0.875 5.4
1.4375 0.875 5.4
1.5 0.875 5.4
1.5625 0.875 5.4
1.625 0.875 5.4
1.6875 0.875 5.4
1.75 0.875 5.4
1.8125 0.875 5.4
1.875 0.875 5.4
1.9375 0.875 5.4
2 0.875 5.4
2.0625 0.875 5.4
2.125 0.875 5.4
2.1875 0.875 5.4
2.25 0.875 5.4
2.3125 0.875 5.4
2.375 0.875 5.4
2.4375 0.875 5.4
2.5 0.875 5.4
2.5625 0.875 5.4
2.625 0.875 5.4
2.6875 0.875 5.4
2.75 0.875 5.4
2.8125 0.875 5.4
2.875 0.875 5.4
2.9375 0.875 5.4
3 0.875 5.4
3.0625 0.875 5.4
3.125 0.875 5.4
3.1875 0.875 5.4
3.25 0.875 5.4
3.3125 0.875 5.4
3.375 0.875 5.4
3.4375 0.875 5.4
3.5 0.875 5.4
3.5625 0.875 5.4
3.625 0.875 5.4
3.6875 0.875 5.4
3.75 0.875 5.4
3.8125 0.875 5.4
3.875 0.875 5.4
3.9375 0.875 5.4
4 0.875 5.4
0 0.9375 5.4
0.0625 0.9375 5.4
0.125 0.9375 5.4
0.1875 0.9375 5.4
0.25 0.9375 5.4
0.3125 0.9375 5.4
0.375 0.9375 5.4
0.4375 0.9375 5.4
0.5 0.9375 5.4
0.5625 0.9375 5.4
0.625 0.9375 5.4
0.6875 0.9375 5.4
0.75 0.9375 5.4
0.8125 0.9375 5.4
0.875 0.9375 5.4
0.9375 0.9375 5.4
1 0.9375 5.4
1.0625 0.9375 5.4
1.125 0.9375 5.4
1.1875 0.9375 5.4
1.25 0.9375 5.4
1.3125 0.9375 5.4
1.375 0.9375 5.4
1.4375 0.9375 5.4
1.5 0.9375 5.4
1.5625 0.9375 5.4
1.625 0.9375 5.4
1.6875 0.9375 5.4
1.75 0.9375 5.4
1.8125 0.9375 5.4
1.875 0.9375 5.4
1.9375 0.9375 5.4
2 0.9375 5.4
2.0625 0.9375 5.4
2.125 0.9375 5.4
2.1875 0.9375 5.4
2.25 0.9375 5.4
2.3125 0.9375 5.4
2.375 0.9375 5.4
2.4375 0.9375 5.4
2.5 0.9375 5.4
2.5625 0.9375 5.4
2.625 0.9375 5.4
2.6875 0.9375 5.4
2.75 0.9375 5.4
2.8125 0.9375 5.4
2.875 0.9375 5.4
2.9375 0.9375 5.4
3 0.9375 5.4
3.0625 0.9375 5.4
3.125 0.9375 5.4
3.1875 0.9375 5.4
3.25 0.9375 5.4
3.3125 0.9375 5.4
3.375 0.9375 5.4
3.4375 0.9375 5.4
3.5 0.9375 5.4
3.5625 0.9375 5.4
3.625 0.9375 5.4
3.6875 0.9375 5.4
3.75 0.9375 5.4
3.8125 0.9375 5.4
3.875 0.9375 5.4
3.9375 0.9375 5.4
4 0.9375 5.4
0 1 5.4
0.0625 1 5.4
0.125 1 5.4
0.1875 1 5.4
0.25 1 5.4
0.3125 1 5.4
0.375 1 5.4
0.4375 1 5.4
0.5 1 5.4
0.5625 1 5.4
0.625 1 5.4
0.6875 1 5.4
0.75 1 5.4
0.8125 1 5.4
0.875 1 5.4
0.9375 1 5.4
1 1 5.4
1.0625 1 5.4
1.125 1 5.4
1.1875 1 5.4
1.25 1 5.4
1.3125 1 5.4
1.375 1 5.4
1.4375 1 5.4
1.5 1 5.4
1.5625 1 5.4
1.625 1 5.4
1.6875 1 5.4
1.75 1 5.4
1.8125 1 5.4
1.875 1 5.4
1.9375 1 5.4
2 1 5.4
2.0625 1 5.4
2.125 1 5.4
2.1875 1 5.4
2.25 1 5.4
2.3125 1 5.4
2.375 1 5.4
2.4375 1 5.4
2.5 1 5.4
2.5625 1 5.4
2.625 1 5.4
2.6875 1 5.4
2.75 1 5.4
2.8125 1 5.4
2.875 1 5.4
2.9375 1 5.4
3 1 5.4
3.0625 1 5.4
3.125 1 5.4
3.1875 1 5.4
3.25 1 5.4
3.3125 1 5.4
3.375 1 5.4
3.4375 1 5.4
3.5 1 5.4
3.5625 1 5.4
3.625 1 5.4
3.6875 1 5.4
3.75 1 5.4
3.8125 1 5.4
3.875 1 5.4
3.9375 1 5.4
4 1 5.4

CELLS 16385 131072
OFFSETS vtktypeint64
0 8 16 24 32 40 48 56 64 72 80 88 96 104 112 120 128 136 144 152 160 168 176 184 192 200 208 216 224 232 240 248 256 264 272 280 288 296 304 312 320 328 336 344 352 360 368 376 384 392 400 408 416 424 432 440 448 456 464 472 480 488 496 504 512 520 528 536 544 552 560 568 576 584 592 600 608 616 624 632 640 648 656 664 672 680 688 696 704 712 720 728 736 744 752 760 768 776 784 792 800 808 816 824 832 840 848 856 864 872 880 888 896 904 912 920 928 936 944 952 960 968 976 984 992 1000 1008 1016 1024 1032 1040 1048 1056 1064 1072 1080 1088 1096 1104 1112 1120 1128 1136 1144 1152 1160 1168 1176 1184 1192 1200 1208 1216 1224 1232 1240 1248 1256 1264 1272 1280 1288 1296 1304 1312 1320 1328 1336 1344 1352 1360 1368 1376 1384 1392 1400 1408 1416 1424 1432 1440 1448 1456 1464 1472 1480 1488 1496 1504 1512 1520 1528 1536 1544 1552 1560 1568 1576 1584 1592 1600 1608 1616 1624 1632 1640 1648 1656 1664 1672 1680 1688 1696 1704 1712 1720 1728 1736 1744 1752 1760 1768 1776 1784 1792 1800 1808 1816 1824 1832 1840 1848 1856 1864 1872 1880 1888 1896 1904 1912 1920 1928 1936 1944 1952 1960 1968 1976 1984 1992 2000 2008 2016 2024 2032 2040 2048 2056 2064 2072 2080 2088 2096 2104 2112 2120 2128 2136 2144 2152 2160 2168 2176 2184 2192 2200 2208 2216 2224 2232 2240 2248 2256 2264 2272 2280 2288 2296 2304 2312 2320 2328 2336 2344 2352 2360 2368 2376 2384 2392 2400 2408 2416 2424 2432 2440 2448 2456 2464 2472 2480 2488 2496 2504 2512 2520 2528 2536 2544 2552 2560 2568 2576 2584 2592 2600 2608 2616 2624 2632 2640 2648 2656 2664 2672 2680 2688 2696 2704 2712 2720 2728 2736 2744 2752 2760 2768 2776 2784 2792 2800 2808 2816 2824 2832 2840 2848 2856 2864 2872 2880 2888 2896 2904 2912 2920 2928 2936 2944 2952 2960 2968 2976 2984 2992 3000 3008 3016 3024 3032 3040 3048 3056 3064 3072 3080 3088 3096 3104 3112 3120 3128 3136 3144 3152 3160 3168 3176 3184 3192 3200 3208 3216 3224 3232 3240 3248 3256 3264 3272 3280 3288 3296 3304 3312 3320 3328 3336 3344 3352 3360 3368 3376 3384 3392 3400 3408 3416 3424 3432 3440 3448 3456 3464 3472 3480 3488 3496 3504 3512 3520 3528 3536 3544 3552 3560 3568 3576 3584 3592 3600 3608 3616 3624 3632 3640 3648 3656 3664 3672 3680 3688 3696 3704 3712 3720 3728 3736 3744 3752 3760 3768 3776 3784 3792 3800 3808 3816 3824 3832 3840 3848 3856 3864 3872 3880 3888 3896 3904 3912 3920 3928 3936 3944 3952 3960 3968 3976 3984 3992 4000 4008 4016 4024 4032 4040 4048 4056 4064 4072 4080 4088 4096 4104 4112 4120 4128 4136 4144 4152 4160 4168 4176 4184 4192 4200 4208 4216 4224 4232 4240 4248 4256 4264 4272 4280 4288 4296 4304 4312 4320 4328 4336 4344 4352 4360 4368 4376 4384 4392 4400 4408 4416 4424 4432 4440 4448 4456 4464 4472 4480 4488 4496 4504 4512 4520 4528 4536 4544 4552 4560 4568 4576 4584 4592 4600 4608 4616 4624 4632 4640 4648 4656 4664 4672 4680 4688 4696 4704 4712 4720 4728 4736 4744 4752 4760 4768 4776 4784 4792 4800 4808 4816 4824 4832 4840 4848 4856 4864 4872 4880 4888 4896 4904 4912 4920 4928 4936 4944 4952 4960 4968 4976 4984 4992 5000 5008 5016 5024 5032 5040 5048 5056 5064 5072 5080 5088 5096 5104 5112 5120 5128 5136 5144 5152 5160 5168 5176 5184 5192 5200 5208 5216 5224 5232 5240 5248 5256 5264 5272 5280 5288 5296 5304 5312 5320 5328 5336 5344 5352 5360 5368 5376 5384 5392 5400 5408 5416 5424 5432 5440 5448 5456 5464 5472 5480 5488 5496 5504 5512 5520 5528 5536 5544 5552 5560 5568 5576 5584 5592 5600 5608 5616 5624 5632 5640 5648 5656 5664 5672 5680 5688 5696 5704 5712 5720 5728 5736 5744 5752 5760 5768 5776 5784 5792 5800 5808 5816 5824 5832 5840 5848 5856 5864 5872 5880 5888 5896 5904 5912 5920 5928 5936 5944 5952 5960 5968 5976 5984 5992 6000 6008 6016 6024 6032 6040 6048 6056 6064 6072 6080 6088 6096 6104 6112 6120 6128 6136 6144 6152 6160 6168 6176 6184 6192 6200 6208 6216 6224 6232 6240 6248 6256 6264 6272 6280 6288 6296 6304 6312 6320 6328 6336 6344 6352 6360 6368 6376 6384 6392 6400 6408 6416 6424 6432 6440 6448 6456 6464 6472 6480 6488 6496 6504 6512 6520 6528 6536 6544 6552 6560 6568 6576 6584 6592 6600 6608 6616 6624 6632 6640 6648 6656 6664 6672 6680 6688 6696 6704 6712 6720 6728 6736 6744 6752 6760 6768 6776 6784 6792 6800 6808 6816 6824 6832 6840 6848 6856 6864 6872 6880 6888 6896 6904 6912 6920 6928 6936 6944 6952 6960 6968 6976 6984 6992 7000 7008 7016 7024 7032 7040 7048 7056 7064 7072 7080 7088 7096 7104 7112 7120 7128 7136 7144 7152 7160 7168 7176 7184 7192 7200 7208 7216 7224 7232 7240 7248 7256 7264 7272 7280 7288 7296 7304 7312 7320 7328 7336 7344 7352 7360 7368 7376 7384 7392 7400 7408 7416 7424 7432 7440 7448 7456 7464 7472 7480 7488 7496 7504 7512 7520 7528 7536 7544 7552 7560 7568 7576 7584 7592 7600 7608 7616 7624 7632 7640 7648 7656 7664 7672 7680 7688 7696 7704 7712 7720 7728 7736 7744 7752 7760 7768 7776 7784 7792 7800 7808 7816 7824 7832 7840 7848 7856 7864 7872 7880 7888 7896 7904 7912 7920 7928 7936 7944 7952 7960 7968 7976 7984 7992 8000 8008 8016 8024 8032 8040 8048 8056 8064 8072 8080 8088 8096 8104 8112 8120 8128 8136 8144 8152 8160 8168 8176 8184 8192 8200 8208 8216 8224 8232 8240 8248 8256 8264 8272 8280 8288 8296 8304 8312 8320 8328 8336 8344 8352 8360 8368 8376 8384 8392 8400 8408 8416 8424 8432 8440 8448 8456 8464 8472 8480 8488 8496 8504 8512 8520 8528 8536 8544 8552 8560 8568 8576 8584 8592 8600 8608 8616 8624 8632 8640 8648 8656 8664 8672 8680 8688 8696 8704 8712 8720 8728 8736 8744 8752 8760 8768 8776 8784 8792 8800 8808 8816 8824 8832 8840 8848 8856 8864 8872 8880 8888 8896 8904 8912 8920 8928 8936 8944 8952 8960 8968 8976 8984 8992 9000 9008 9016 9024 9032 9040 9048 9056 9064 9072 9080 9088 9096 9104 9112 9120 9128 9136 9144 9152 9160 9168 9176 9184 9192 9200 9208 9216 9224 9232 9240 9248 9256 9264 9272 9280 9288 9296 9304 9312 9320 9328 9336 9344 9352 9360 9368 9376 9384 9392 9400 9408 9416 9424 9432 9440 9448 9456 9464 9472 9480 9488 9496 9504 9512 9520 9528 9536 9544 9552 9560 9568 9576 9584 9592 9600 9608 9616 9624 9632 9640 9648 9656 9664 9672 9680 9688 9696 9704 9712 9720 9728 9736 9744 9752 9760 9768 9776 9784 9792 9800 9808 9816 9824 9832 9840 9848 9856 9864 9872 9880 9888 9896 9904 9912 9920 9928 9936 9944 9952 9960 9968 9976 9984 9992 10000 10008 10016 10024 10032 10040 10048 10056 10064 10072 10080 10088 10096 10104 10112 10120 10128 10136 10144 10152 10160 10168 10176 10184 10192 10200 10208 10216 10224 10232 10240 10248 10256 10264 10272 10280 10288 10296 10304 10312 10320 10328 10336 10344 10352 10360 10368 10376 10384 10392 10400 10408 10416 10424 10432 10440 10448 10456 10464 10472 10480 10488 10496 10504 10512 10520 10528 10536 10544 10552 10560 10568 10576 10584 10592 10600 10608 10616 10624 10632 10640 10648 10656 10664 10672 10680 10688 10696 10704 10712 10720 10728 10736 10744 10752 10760 10768 10776 10784 10792 10800 10808 10816 10824 10832 10840 10848 10856 10864 10872 10880 10888 10896 10904 10912 10920 10928 10936 10944 10952 10960 10968 10976 10984 10992 11000 11008 11016 11024 11032 11040 11048 11056 11064 11072 11080 11088 11096 11104 11112 11120 11128 11136 11144 11152 11160 11168 11176 11184 11192 11200 11208 11216 11224 11232 11240 11248 11256 11264 11272 11280 11288 11296 11304 11312 11320 11328 11336 11344 11352 11360 11368 11376 11384 11392 11400 11408 11416 11424 11432 11440 11448 11456 11464 11472 11480 11488 11496 11504 11512 11520 11528 11536 11544 11552 11560 11568 11576 11584 11592 11600 11608 11616 11624 11632 11640 11648 11656 11664 11672 11680 11688 11696 11704 11712 11720 11728 11736 11744 11752 11760 11768 11776 11784 11792 11800 11808 11816 11824 11832 11840 11848 11856 11864 11872 11880 11888 11896 11904 11912 11920 11928 11936 11944 11952 11960 11968 11976 11984 11992 12000 12008 12016 12024 12032 12040 12048 12056 12064 12072 12080 12088 12096 12104 12112 12120 12128 12136 12144 12152 12160 12168 12176 12184 12192 12200 12208 12216 12224 12232 12240 12248 12256 12264 12272 12280 12288 12296 12304 12312 12320 12328 12336 12344 12352 12360 12368 12376 12384 12392 12400 12408 12416 12424 12432 12440 12448 12456 12464 12472 12480 12488 12496 12504 12512 12520 12528 12536 12544 12552 12560 12568 12576 12584 12592 12600 12608 12616 12624 12632 12640 12648 12656 12664 12672 12680 12688 12696 12704 12712 12720 12728 12736 12744 12752 12760 12768 12776 12784 12792 12800 12808 12816 12824 12832 12840 12848 12856 12864 12872 12880 12888 12896 12904 12912 12920 12928 12936 12944 12952 12960 12968 12976 12984 12992 13000 13008 13016 13024 13032 13040 13048 13056 13064 13072 13080 13088 13096 13104 13112 13120 13128 13136 13144 13152 13160 13168 13176 13184 13192 13200 13208 13216 13224 13232 13240 13248 13256 13264 13272 13280 13288 13296 13304 13312 13320 13328 13336 13344 13352 13360 13368 13376 13384 13392 13400 13408 13416 13424 13432 13440 13448 13456 13464 13472 13480 13488 13496 13504 13512 13520 13528 13536 13544 13552 13560 13568 13576 13584 13592 13600 13608 13616 13624 13632 13640 13648 13656 13664 13672 13680 13688 13696 13704 13712 13720 13728 13736 13744 13752 13760 13768 13776 13784 13792 13800 13808 13816 13824 13832 13840 13848 13856 13864 13872 13880 13888 13896 13904 13912 13920 13928 13936 13944 13952 13960 13968 13976 13984 13992 14000 14008 14016 14024 14032 14040 14048 14056 14064 14072 14080 14088 14096 14104 14112 14120 14128 14136 14144 14152 14160 14168 14176 14184 14192 14200 14208 14216 14224 14232 14240 14248 14256 14264 14272 14280 14288 14296 14304 14312 14320 14328 14336 14344 14352 14360 14368 14376 14384 14392 14400 14408 14416 14424 14432 14440 14448 14456 14464 14472 14480 14488 14496 14504 14512 14520 14528 14536 14544 14552 14560 14568 14576 14584 14592 14600 14608 14616 14624 14632 14640 14648 14656 14664 14672 14680 14688 14696 14704 14712 14720 14728 14736 14744 14752 14760 14768 14776 14784 14792 14800 14808 14816 14824 14832 14840 14848 14856 14864 14872 14880 14888 14896 14904 14912 14920 14928 14936 14944 14952 14960 14968 14976 14984 14992 15000 15008 15016 15024 15032 15040 15048 15056 15064 15072 15080 15088 15096 15104 15112 15120 15128 15136 15144 15152 15160 15168 15176 15184 15192 15200 15208 15216 15224 15232 15240 15248 15256 15264 15272 15280 15288 15296 15304 15312 15320 15328 15336 15344 15352 15360 15368 15376 15384 15392 15400 15408 15416 15424 15432 15440 15448 15456 15464 15472 15480 15488 15496 15504 15512 15520 15528 15536 15544 15552 15560 15568 15576 15584 15592 15600 15608 15616 15624 15632 15640 15648 15656 15664 15672 15680 15688 15696 15704 15712 15720 15728 15736 15744 15752 15760 15768 15776 15784 15792 15800 15808 15816 15824 15832 15840 15848 15856 15864 15872 15880 15888 15896 15904 15912 15920 15928 15936 15944 15952 15960 15968 15976 15984 15992 16000 16008 16016 16024 16032 16040 16048 16056 16064 16072 16080 16088 16096 16104 16112 16120 16128 16136 16144 16152 16160 16168 16176 16184 16192 16200 16208 16216 16224 16232 16240 16248 16256 16264 16272 16280 16288 16296 16304 16312 16320 16328 16336 16344 16352 16360 16368 16376 16384 16392 16400 16408 16416 16424 16432 16440 16448 16456 16464 16472 16480 16488 16496 16504 16512 16520 16528 16536 16544 16552 16560 16568 16576 16584 16592 16600 16608 16616 16624 16632 16640 16648 16656 16664 16672 16680 16688 16696 16704 16712 16720 16728 16736 16744 16752 16760 16768 16776 16784 16792 16800 16808 16816 16824 16832 16840 16848 16856 16864 16872 16880 16888 16896 16904 16912 16920 16928 16936 16944 16952 16960 16968 16976 16984 16992 17000 17008 17016 17024 17032 17040 17048 17056 17064 17072 17080 17088 17096 17104 17112 17120 17128 17136 17144 17152 17160 17168 17176 17184 17192 17200 17208 17216 17224 17232 17240 17248 17256 17264 17272 17280 17288 17296 17304 17312 17320 17328 17336 17344 17352 17360 17368 17376 17384 17392 17400 17408 17416 17424 17432 17440 17448 17456 17464 17472 17480 17488 17496 17504 17512 17520 17528 17536 17544 17552 17560 17568 17576 17584 17592 17600 17608 17616 17624 17632 17640 17648 17656 17664 17672 17680 17688 17696 17704 17712 17720 17728 17736 17744 17752 17760 17768 17776 17784 17792 17800 17808 17816 17824 17832 17840 17848 17856 17864 17872 17880 17888 17896 17904 17912 17920 17928 17936 17944 17952 17960 17968 17976 17984 17992 18000 18008 18016 18024 18032 18040 18048 18056 18064 18072 18080 18088 18096 18104 18112 18120 18128 18136 18144 18152 18160 18168 18176 18184 18192 18200 18208 18216 18224 18232 18240 18248 18256 18264 18272 18280 18288 18296 18304 18312 18320 18328 18336 18344 18352 18360 18368 18376 18384 18392 18400 18408 18416 18424 18432 18440 18448 18456 18464 18472 18480 18488 18496 18504 18512 18520 18528 18536 18544 18552 18560 18568 18576 18584 18592 18600 18608 18616 18624 18632 18640 18648 18656 18664 18672 18680 18688 18696 18704 18712 18720 18728 18736 18744 18752 18760 18768 18776 18784 18792 18800 18808 18816 18824 18832 18840 18848 18856 18864 18872 18880 18888 18896 18904 18912 18920 18928 18936 18944 18952 18960 18968 18976 18984 18992 19000 19008 19016 19024 19032 19040 19048 19056 19064 19072 19080 19088 19096 19104 19112 19120 19128 19136 19144 19152 19160 19168 19176 19184 19192 19200 19208 19216 19224 19232 19240 19248 19256 19264 19272 19280 19288 19296 19304 19312 19320 19328 19336 19344 19352 19360 19368 19376 19384 19392 19400 19408 19416 19424 19432 19440 19448 19456 19464 19472 19480 19488 19496 19504 19512 19520 19528 19536 19544 19552 19560 19568 19576 19584 19592 19600 19608 19616 19624 19632 19640 19648 19656 19664 19672 19680 19688 19696 19704 19712 19720 19728 19736 19744 19752 19760 19768 19776 19784 19792 19800 19808 19816 19824 19832 19840 19848 19856 19864 19872 19880 19888 19896 19904 19912 19920 19928 19936 19944 19952 19960 19968 19976 19984 19992 20000 20008 20016 20024 20032 20040 20048 20056 20064 20072 20080 20088 20096 20104 20112 20120 20128 20136 20144 20152 20160 20168 20176 20184 20192 20200 20208 20216 20224 20232 20240 20248 20256 20264 20272 20280 20288 20296 20304 20312 20320 20328 20336 20344 20352 20360 20368 20376 20384 20392 20400 20408 20416 20424 20432 20440 20448 20456 20464 20472 20480 20488 20496 20504 20512 20520 20528 20536 20544 20552 20560 20568 20576 20584 20592 20600 20608 20616 20624 20632 20640 20648 20656 20664 20672 20680 20688 20696 20704 20712 20720 20728 20736 20744 20752 20760 20768 20776 20784 20792 20800 20808 20816 20824 20832 20840 20848 20856 20864 20872 20880 20888 20896 20904 20912 20920 20928 20936 20944 20952 20960 20968 20976 20984 20992 21000 21008 21016 21024 21032 21040 21048 21056 21064 21072 21080 21088 21096 21104 21112 21120 21128 21136 21144 21152 21160 21168 21176 21184 21192 21200 21208 21216 21224 21232 21240 21248 21256 21264 21272 21280 21288 21296 21304 21312 21320 21328 21336 21344 21352 21360 21368 21376 21384 21392 21400 21408 21416 21424 21432 21440 21448 21456 21464 21472 21480 21488 21496 21504 21512 21520 21528 21536 21544 21552 21560 21568 21576 21584 21592 21600 21608 21616 21624 21632 21640 21648 21656 21664 21672 21680 21688 21696 21704 21712 21720 21728 21736 21744 21752 21760 21768 21776 21784 21792 21800 21808 21816 21824 21832 21840 21848 21856 21864 21872 21880 21888 21896 21904 21912 21920 21928 21936 21944 21952 21960 21968 21976 21984 21992 22000 22008 22016 22024 22032 22040 22048 22056 22064 22072 22080 22088 22096 22104 22112 22120 22128 22136 22144 22152 22160 22168 22176 22184 22192 22200 22208 22216 22224 22232 22240 22248 22256 22264 22272 22280 22288 22296 22304 22312 22320 22328 22336 22344 22352 22360 22368 22376 22384 22392 22400 22408 22416 22424 22432 22440 22448 22456 22464 22472 22480 22488 22496 22504 22512 22520 22528 22536 22544 22552 22560 22568 22576 22584 22592 22600 22608 22616 22624 22632 22640 22648 22656 22664 22672 22680 22688 22696 22704 22712 22720 22728 22736 22744 22752 22760 22768 22776 22784 22792 22800 22808 22816 22824 22832 22840 22848 22856 22864 22872 22880 22888 22896 22904 22912 22920 22928 22936 22944 22952 22960 22968 22976 22984 22992 23000 23008 23016 23024 23032 23040 23048 23056 23064 23072 23080 23088 23096 23104 23112 23120 23128 23136 23144 23152 23160 23168 23176 23184 23192 23200 23208 23216 23224 23232 23240 23248 23256 23264 23272 23280 23288 23296 23304 23312 23320 23328 23336 23344 23352 23360 23368 23376 23384 23392 23400 23408 23416 23424 23432 23440 23448 23456 23464 23472 23480 23488 23496 23504 23512 23520 23528 23536 23544 23552 23560 23568 23576 23584 23592 23600 23608 23616 23624 23632 23640 23648 23656 23664 23672 23680 23688 23696 23704 23712 23720 23728 23736 23744 23752 23760 23768 23776 23784 23792 23800 23808 23816 23824 23832 23840 23848 23856 23864 23872 23880 23888 23896 23904 23912 23920 23928 23936 23944 23952 23960 23968 23976 23984 23992 24000 24008 24016 24024 24032 24040 24048 24056 24064 24072 24080 24088 24096 24104 24112 24120 24128 24136 24144 24152 24160 24168 24176 24184 24192 24200 24208 24216 24224 24232 24240 24248 24256 24264 24272 24280 24288 24296 24304 24312 24320 24328 24336 24344 24352 24360 24368 24376 24384 24392 24400 24408 24416 24424 24432 24440 24448 24456 24464 24472 24480 24488 24496 24504 24512 24520 24528 24536 24544 24552 24560 24568 24576 24584 24592 24600 24608 24616 24624 24632 24640 24648 24656 24664 24672 24680 24688 24696 24704 24712 24720 24728 24736 24744 24752 24760 24768 24776 24784 24792 24800 24808 24816 24824 24832 24840 24848 24856 24864 24872 24880 24888 24896 24904 24912 24920 24928 24936 24944 24952 24960 24968 24976 24984 24992 25000 25008 25016 25024 25032 25040 25048 25056 25064 25072 25080 25088 25096 25104 25112 25120 25128 25136 25144 25152 25160 25168 25176 25184 25192 25200 25208 25216 25224 25232 25240 25248 25256 25264 25272 25280 25288 25296 25304 25312 25320 25328 25336 25344 25352 25360 25368 25376 25384 25392 25400 25408 25416 25424 25432 25440 25448 25456 25464 25472 25480 25488 25496 25504 25512 25520 25528 25536 25544 25552 25560 25568 25576 25584 25592 25600 25608 25616 25624 25632 25640 25648 25656 25664 25672 25680 25688 25696 25704 25712 25720 25728 25736 25744 25752 25760 25768 25776 25784 25792 25800 25808 25816 25824 25832 25840 25848 25856 25864 25872 25880 25888 25896 25904 25912 25920 25928 25936 25944 25952 25960 25968 25976 25984 25992 26000 26008 26016 26024 26032 26040 26048 26056 26064 26072 26080 26088 26096 26104 26112 26120 26128 26136 26144 26152 26160 26168 26176 26184 26192 26200 26208 26216 26224 26232 26240 26248 26256 26264 26272 26280 26288 26296 26304 26312 26320 26328 26336 26344 26352 26360 26368 26376 26384 26392 26400 26408 26416 26424 26432 26440 26448 26456 26464 26472 26480 26488 26496 26504 26512 26520 26528 26536 26544 26552 26560 26568 26576 26584 26592 26600 26608 26616 26624 26632 26640 26648 26656 26664 26672 26680 26688 26696 26704 26712 26720 26728 26736 26744 26752 26760 26768 26776 26784 26792 26800 26808 26816 26824 26832 26840 26848 26856 26864 26872 26880 26888 26896 26904 26912 26920 26928 26936 26944 26952 26960 26968 26976 26984 26992 27000 27008 27016 27024 27032 27040 27048 27056 27064 27072 27080 27088 27096 27104 27112 27120 27128 27136 27144 27152 27160 27168 27176 27184 27192 27200 27208 27216 27224 27232 27240 27248 27256 27264 27272 27280 27288 27296 27304 27312 27320 27328 27336 27344 27352 27360 27368 27376 27384 27392 27400 27408 27416 27424 27432 27440 27448 27456 27464 27472 27480 27488 27496 27504 27512 27520 27528 27536 27544 27552 27560 27568 27576 27584 27592 27600 27608 27616 27624 27632 27640 27648 27656 27664 27672 27680 27688 27696 27704 27712 27720 27728 27736 27744 27752 27760 27768 27776 27784 27792 27800 27808 27816 27824 27832 27840 27848 27856 27864 27872 27880 27888 27896 27904 27912 27920 27928 27936 27944 27952 27960 27968 27976 27984 27992 28000 28008 28016 28024 28032 28040 28048 28056 28064 28072 28080 28088 28096 28104 28112 28120 28128 28136 28144 28152 28160 28168 28176 28184 28192 28200 28208 28216 28224 28232 28240 28248 28256 28264 28272 28280 28288 28296 28304 28312 28320 28328 28336 28344 28352 28360 28368 28376 28384 28392 28400 28408 28416 28424 28432 28440 28448 28456 28464 28472 28480 28488 28496 28504 28512 28520 28528 28536 28544 28552 28560 28568 28576 28584 28592 28600 28608 28616 28624 28632 28640 28648 28656 28664 28672 28680 28688 28696 28704 28712 28720 28728 28736 28744 28752 28760 28768 28776 28784 28792 28800 28808 28816 28824 28832 28840 28848 28856 28864 28872 28880 28888 28896 28904 28912 28920 28928 28936 28944 28952 28960 28968 28976 28984 28992 29000 29008 29016 29024 29032 29040 29048 29056 29064 29072 29080 29088 29096 29104 29112 29120 29128 29136 29144 29152 29160 29168 29176 29184 29192 29200 29208 29216 29224 29232 29240 29248 29256 29264 29272 29280 29288 29296 29304 29312 29320 29328 29336 29344 29352 29360 29368 29376 29384 29392 29400 29408 29416 29424 29432 29440 29448 29456 29464 29472 29480 29488 29496 29504 29512 29520 29528 29536 29544 29552 29560 29568 29576 29584 29592 29600 29608 29616 29624 29632 29640 29648 29656 29664 29672 29680 29688 29696 29704 29712 29720 29728 29736 29744 29752 29760 29768 29776 29784 29792 29800 29808 29816 29824 29832 29840 29848 29856 29864 29872 29880 29888 29896 29904 29912 29920 29928 29936 29944 29952 29960 29968 29976 29984 29992 30000 30008 30016 30024 30032 30040 30048 30056 30064 30072 30080 30088 30096 30104 30112 30120 30128 30136 30144 30152 30160 30168 30176 30184 30192 30200 30208 30216 30224 30232 30240 30248 30256 30264 30272 30280 30288 30296 30304 30312 30320 30328 30336 30344 30352 30360 30368 30376 30384 30392 30400 30408 30416 30424 30432 30440 30448 30456 30464 30472 30480 30488 30496 30504 30512 30520 30528 30536 30544 30552 30560 30568 30576 30584 30592 30600 30608 30616 30624 30632 30640 30648 30656 30664 30672 30680 30688 30696 30704 30712 30720 30728 30736 30744 30752 30760 30768 30776 30784 30792 30800 30808 30816 30824 30832 30840 30848 30856 30864 30872 30880 30888 30896 30904 30912 30920 30928 30936 30944 30952 30960 30968 30976 30984 30992 31000 31008 31016 31024 31032 31040 31048 31056 31064 31072 31080 31088 31096 31104 31112 31120 31128 31136 31144 31152 31160 31168 31176 31184 31192 31200 31208 31216 31224 31232 31240 31248 31256 31264 31272 31280 31288 31296 31304 31312 31320 31328 31336 31344 31352 31360 31368 31376 31384 31392 31400 31408 31416 31424 31432 31440 31448 31456 31464 31472 31480 31488 31496 31504 31512 31520 31528 31536 31544 31552 31560 31568 31576 31584 31592 31600 31608 31616 31624 31632 31640 31648 31656 31664 31672 31680 31688 31696 31704 31712 31720 31728 31736 31744 31752 31760 31768 31776 31784 31792 31800 31808 31816 31824 31832 31840 31848 31856 31864 31872 31880 31888 31896 31904 31912 31920 31928 31936 31944 31952 31960 31968 31976 31984 31992 32000 32008 32016 32024 32032 32040 32048 32056 32064 32072 32080 32088 32096 32104 32112 32120 32128 32136 32144 32152 32160 32168 32176 32184 32192 32200 32208 32216 32224 32232 32240 32248 32256 32264 32272 32280 32288 32296 32304 32312 32320 32328 32336 32344 32352 32360 32368 32376 32384 32392 32400 32408 32416 32424 32432 32440 32448 32456 32464 32472 32480 32488 32496 32504 32512 32520 32528 32536 32544 32552 32560 32568 32576 32584 32592 32600 32608 32616 32624 32632 32640 32648 32656 32664 32672 32680 32688 32696 32704 32712 32720 32728 32736 32744 32752 32760 32768 32776 32784 32792 32800 32808 32816 32824 32832 32840 32848 32856 32864 32872 32880 32888 32896 32904 32912 32920 32928 32936 32944 32952 32960 32968 32976 32984 32992 33000 33008 33016 33024 33032 33040 33048 33056 33064 33072 33080 33088 33096 33104 33112 33120 33128 33136 33144 33152 33160 33168 33176 33184 33192 33200 33208 33216 33224 33232 33240 33248 33256 33264 33272 33280 33288 33296 33304 33312 33320 33328 33336 33344 33352 33360 33368 33376 33384 33392 33400 33408 33416 33424 33432 33440 33448 33456 33464 33472 33480 33488 33496 33504 33512 33520 33528 33536 33544 33552 33560 33568 33576 33584 33592 33600 33608 33616 33624 33632 33640 33648 33656 33664 33672 33680 33688 33696 33704 33712 33720 33728 33736 33744 33752 33760 33768 33776 33784 33792 33800 33808 33816 33824 33832 33840 33848 33856 33864 33872 33880 33888 33896 33904 33912 33920 33928 33936 33944 33952 33960 33968 33976 33984 33992 34000 34008 34016 34024 34032 34040 34048 34056 34064 34072 34080 34088 34096 34104 34112 34120 34128 34136 34144 34152 34160 34168 34176 34184 34192 34200 34208 34216 34224 34232 34240 34248 34256 34264 34272 34280 34288 34296 34304 34312 34320 34328 34336 34344 34352 34360 34368 34376 34384 34392 34400 34408 34416 34424 34432 34440 34448 34456 34464 34472 34480 34488 34496 34504 34512 34520 34528 34536 34544 34552 34560 34568 34576 34584 34592 34600 34608 34616 34624 34632 34640 34648 34656 34664 34672 34680 34688 34696 34704 34712 34720 34728 34736 34744 34752 34760 34768 34776 34784 34792 34800 34808 34816 34824 34832 34840 34848 34856 34864 34872 34880 34888 34896 34904 34912 34920 34928 34936 34944 34952 34960 34968 34976 34984 34992 35000 35008 35016 35024 35032 35040 35048 35056 35064 35072 35080 35088 35096 35104 35112 35120 35128 35136 35144 35152 35160 35168 35176 35184 35192 35200 35208 35216 35224 35232 35240 35248 35256 35264 35272 35280 35288 35296 35304 35312 35320 35328 35336 35344 35352 35360 35368 35376 35384 35392 35400 35408 35416 35424 35432 35440 35448 35456 35464 35472 35480 35488 35496 35504 35512 35520 35528 35536 35544 35552 35560 35568 35576 35584 35592 35600 35608 35616 35624 35632 35640 35648 35656 35664 35672 35680 35688 35696 35704 35712 35720 35728 35736 35744 35752 35760 35768 35776 35784 35792 35800 35808 35816 35824 35832 35840 35848 35856 35864 35872 35880 35888 35896 35904 35912 35920 35928 35936 35944 35952 35960 35968 35976 35984 35992 36000 36008 36016 36024 36032 36040 36048 36056 36064 36072 36080 36088 36096 36104 36112 36120 36128 36136 36144 36152 36160 36168 36176 36184 36192 36200 36208 36216 36224 36232 36240 36248 36256 36264 36272 36280 36288 36296 36304 36312 36320 36328 36336 36344 36352 36360 36368 36376 36384 36392 36400 36408 36416 36424 36432 36440 36448 36456 36464 36472 36480 36488 36496 36504 36512 36520 36528 36536 36544 36552 36560 36568 36576 36584 36592 36600 36608 36616 36624 36632 36640 36648 36656 36664 36672 36680 36688 36696 36704 36712 36720 36728 36736 36744 36752 36760 36768 36776 36784 36792 36800 36808 36816 36824 36832 36840 36848 36856 36864 36872 36880 36888 36896 36904 36912 36920 36928 36936 36944 36952 36960 36968 36976 36984 36992 37000 37008 37016 37024 37032 37040 37048 37056 37064 37072 37080 37088 37096 37104 37112 37120 37128 37136 37144 37152 37160 37168 37176 37184 37192 37200 37208 37216 37224 37232 37240 37248 37256 37264 37272 37280 37288 37296 37304 37312 37320 37328 37336 37344 37352 37360 37368 37376 37384 37392 37400 37408 37416 37424 37432 37440 37448 37456 37464 37472 37480 37488 37496 37504 37512 37520 37528 37536 37544 37552 37560 37568 37576 37584 37592 37600 37608 37616 37624 37632 37640 37648 37656 37664 37672 37680 37688 37696 37704 37712 37720 37728 37736 37744 37752 37760 37768 37776 37784 37792 37800 37808 37816 37824 37832 37840 37848 37856 37864 37872 37880 37888 37896 37904 37912 37920 37928 37936 37944 37952 37960 37968 37976 37984 37992 38000 38008 38016 38024 38032 38040 38048 38056 38064 38072 38080 38088 38096 38104 38112 38120 38128 38136 38144 38152 38160 38168 38176 38184 38192 38200 38208 38216 38224 38232 38240 38248 38256 38264 38272 38280 38288 38296 38304 38312 38320 38328 38336 38344 38352 38360 38368 38376 38384 38392 38400 38408 38416 38424 38432 38440 38448 38456 38464 38472 38480 38488 38496 38504 38512 38520 38528 38536 38544 38552 38560 38568 38576 38584 38592 38600 38608 38616 38624 38632 38640 38648 38656 38664 38672 38680 38688 38696 38704 38712 38720 38728 38736 38744 38752 38760 38768 38776 38784 38792 38800 38808 38816 38824 38832 38840 38848 38856 38864 38872 38880 38888 38896 38904 38912 38920 38928 38936 38944 38952 38960 38968 38976 38984 38992 39000 39008 39016 39024 39032 39040 39048 39056 39064 39072 39080 39088 39096 39104 39112 39120 39128 39136 39144 39152 39160 39168 39176 39184 39192 39200 39208 39216 39224 39232 39240 39248 39256 39264 39272 39280 39288 39296 39304 39312 39320 39328 39336 39344 39352 39360 39368 39376 39384 39392 39400 39408 39416 39424 39432 39440 39448 39456 39464 39472 39480 39488 39496 39504 39512 39520 39528 39536 39544 39552 39560 39568 39576 39584 39592 39600 39608 39616 39624 39632 39640 39648 39656 39664 39672 39680 39688 39696 39704 39712 39720 39728 39736 39744 39752 39760 39768 39776 39784 39792 39800 39808 39816 39824 39832 39840 39848 39856 39864 39872 39880 39888 39896 39904 39912 39920 39928 39936 39944 39952 39960 39968 39976 39984 39992 40000 40008 40016 40024 40032 40040 40048 40056 40064 40072 40080 40088 40096 40104 40112 40120 40128 40136 40144 40152 40160 40168 40176 40184 40192 40200 40208 40216 40224 40232 40240 40248 40256 40264 40272 40280 40288 40296 40304 40312 40320 40328 40336 40344 40352 40360 40368 40376 40384 40392 40400 40408 40416 40424 40432 40440 40448 40456 40464 40472 40480 40488 40496 40504 40512 40520 40528 40536 40544 40552 40560 40568 40576 40584 40592 40600 40608 40616 40624 40632 40640 40648 40656 40664 40672 40680 40688 40696 40704 40712 40720 40728 40736 40744 40752 40760 40768 40776 40784 40792 40800 40808 40816 40824 40832 40840 40848 40856 40864 40872 40880 40888 40896 40904 40912 40920 40928 40936 40944 40952 40960 40968 40976 40984 40992 41000 41008 41016 41024 41032 41040 41048 41056 41064 41072 41080 41088 41096 41104 41112 41120 41128 41136 41144 41152 41160 41168 41176 41184 41192 41200 41208 41216 41224 41232 41240 41248 41256 41264 41272 41280 41288 41296 41304 41312 41320 41328 41336 41344 41352 41360 41368 41376 41384 41392 41400 41408 41416 41424 41432 41440 41448 41456 41464 41472 41480 41488 41496 41504 41512 41520 41528 41536 41544 41552 41560 41568 41576 41584 41592 41600 41608 41616 41624 41632 41640 41648 41656 41664 41672 41680 41688 41696 41704 41712 41720 41728 41736 41744 41752 41760 41768 41776 41784 41792 41800 41808 41816 41824 41832 41840 41848 41856 41864 41872 41880 41888 41896 41904 41912 41920 41928 41936 41944 41952 41960 41968 41976 41984 41992 42000 42008 42016 42024 42032 42040 42048 42056 42064 42072 42080 42088 42096 42104 42112 42120 42128 42136 42144 42152 42160 42168 42176 42184 42192 42200 42208 42216 42224 42232 42240 42248 42256 42264 42272 42280 42288 42296 42304 42312 42320 42328 42336 42344 42352 42360 42368 42376 42384 42392 42400 42408 42416 42424 42432 42440 42448 42456 42464 42472 42480 42488 42496 42504 42512 42520 42528 42536 42544 42552 42560 42568 42576 42584 42592 42600 42608 42616 42624 42632 42640 42648 42656 42664 42672 42680 42688 42696 42704 42712 42720 42728 42736 42744 42752 42760 42768 42776 42784 42792 42800 42808 42816 42824 42832 42840 42848 42856 42864 42872 42880 42888 42896 42904 42912 42920 42928 42936 42944 42952 42960 42968 42976 42984 42992 43000 43008 43016 43024 43032 43040 43048 43056 43064 43072 43080 43088 43096 43104 43112 43120 43128 43136 43144 43152 43160 43168 43176 43184 43192 43200 43208 43216 43224 43232 43240 43248 43256 43264 43272 43280 43288 43296 43304 43312 43320 43328 43336 43344 43352 43360 43368 43376 43384 43392 43400 43408 43416 43424 43432 43440 43448 43456 43464 43472 43480 43488 43496 43504 43512 43520 43528 43536 43544 43552 43560 43568 43576 43584 43592 43600 43608 43616 43624 43632 43640 43648 43656 43664 43672 43680 43688 43696 43704 43712 43720 43728 43736 43744 43752 43760 43768 43776 43784 43792 43800 43808 43816 43824 43832 43840 43848 43856 43864 43872 43880 43888 43896 43904 43912 43920 43928 43936 43944 43952 43960 43968 43976 43984 43992 44000 44008 44016 44024 44032 44040 44048 44056 44064 44072 44080 44088 44096 44104 44112 44120 44128 44136 44144 44152 44160 44168 44176 44184 44192 44200 44208 44216 44224 44232 44240 44248 44256 44264 44272 44280 44288 44296 44304 44312 44320 44328 44336 44344 44352 44360 44368 44376 44384 44392 44400 44408 44416 44424 44432 44440 44448 44456 44464 44472 44480 44488 44496 44504 44512 44520 44528 44536 44544 44552 44560 44568 44576 44584 44592 44600 44608 44616 44624 44632 44640 44648 44656 44664 44672 44680 44688 44696 44704 44712 44720 44728 44736 44744 44752 44760 44768 44776 44784 44792 44800 44808 44816 44824 44832 44840 44848 44856 44864 44872 44880 44888 44896 44904 44912 44920 44928 44936 44944 44952 44960 44968 44976 44984 44992 45000 45008 45016 45024 45032 45040 45048 45056 45064 45072 45080 45088 45096 45104 45112 45120 45128 45136 45144 45152 45160 45168 45176 45184 45192 45200 45208 45216 45224 45232 45240 45248 45256 45264 45272 45280 45288 45296 45304 45312 45320 45328 45336 45344 45352 45360 45368 45376 45384 45392 45400 45408 45416 45424 45432 45440 45448 45456 45464 45472 45480 45488 45496 45504 45512 45520 45528 45536 45544 45552 45560 45568 45576 45584 45592 45600 45608 45616 45624 45632 45640 45648 45656 45664 45672 45680 45688 45696 45704 45712 45720 45728 45736 45744 45752 45760 45768 45776 45784 45792 45800 45808 45816 45824 45832 45840 45848 45856 45864 45872 45880 45888 45896 45904 45912 45920 45928 45936 45944 45952 45960 45968 45976 45984 45992 46000 46008 46016 46024 46032 46040 46048 46056 46064 46072 46080 46088 46096 46104 46112 46120 46128 46136 46144 46152 46160 46168 46176 46184 46192 46200 46208 46216 46224 46232 46240 46248 46256 46264 46272 46280 46288 46296 46304 46312 46320 46328 46336 46344 46352 46360 46368 46376 46384 46392 46400 46408 46416 46424 46432 46440 46448 46456 46464 46472 46480 46488 46496 46504 46512 46520 46528 46536 46544 46552 46560 46568 46576 46584 46592 46600 46608 46616 46624 46632 46640 46648 46656 46664 46672 46680 46688 46696 46704 46712 46720 46728 46736 46744 46752 46760 46768 46776 46784 46792 46800 46808 46816 46824 46832 46840 46848 46856 46864 46872 46880 46888 46896 46904 46912 46920 46928 46936 46944 46952 46960 46968 46976 46984 46992 47000 47008 47016 47024 47032 47040 47048 47056 47064 47072 47080 47088 47096 47104 47112 47120 47128 47136 47144 47152 47160 47168 47176 47184 47192 47200 47208 47216 47224 47232 47240 47248 47256 47264 47272 47280 47288 47296 47304 47312 47320 47328 47336 47344 47352 47360 47368 47376 47384 47392 47400 47408 47416 47424 47432 47440 47448 47456 47464 47472 47480 47488 47496 47504 47512 47520 47528 47536 47544 47552 47560 47568 47576 47584 47592 47600 47608 47616 47624 47632 47640 47648 47656 47664 47672 47680 47688 47696 47704 47712 47720 47728 47736 47744 47752 47760 47768 47776 47784 47792 47800 47808 47816 47824 47832 47840 47848 47856 47864 47872 47880 47888 47896 47904 47912 47920 47928 47936 47944 47952 47960 47968 47976 47984 47992 48000 48008 48016 48024 48032 48040 48048 48056 48064 48072 48080 48088 48096 48104 48112 48120 48128 48136 48144 48152 48160 48168 48176 48184 48192 48200 48208 48216 48224 48232 48240 48248 48256 48264 48272 48280 48288 48296 48304 48312 48320 48328 48336 48344 48352 48360 48368 48376 48384 48392 48400 48408 48416 48424 48432 48440 48448 48456 48464 48472 48480 48488 48496 48504 48512 48520 48528 48536 48544 48552 48560 48568 48576 48584 48592 48600 48608 48616 48624 48632 48640 48648 48656 48664 48672 48680 48688 48696 48704 48712 48720 48728 48736 48744 48752 48760 48768 48776 48784 48792 48800 48808 48816 48824 48832 48840 48848 48856 48864 48872 48880 48888 48896 48904 48912 48920 48928 48936 48944 48952 48960 48968 48976 48984 48992 49000 49008 49016 49024 49032 49040 49048 49056 49064 49072 49080 49088 49096 49104 49112 49120 49128 49136 49144 49152 49160 49168 49176 49184 49192 49200 49208 49216 49224 49232 49240 49248 49256 49264 49272 49280 49288 49296 49304 49312 49320 49328 49336 49344 49352 49360 49368 49376 49384 49392 49400 49408 49416 49424 49432 49440 49448 49456 49464 49472 49480 49488 49496 49504 49512 49520 49528 49536 49544 49552 49560 49568 49576 49584 49592 49600 49608 49616 49624 49632 49640 49648 49656 49664 49672 49680 49688 49696 49704 49712 49720 49728 49736 49744 49752 49760 49768 49776 49784 49792 49800 49808 49816 49824 49832 49840 49848 49856 49864 49872 49880 49888 49896 49904 49912 49920 49928 49936 49944 49952 49960 49968 49976 49984 49992 50000 50008 50016 50024 50032 50040 50048 50056 50064 50072 50080 50088 50096 50104 50112 50120 50128 50136 50144 50152 50160 50168 50176 50184 50192 50200 50208 50216 50224 50232 50240 50248 50256 50264 50272 50280 50288 50296 50304 50312 50320 50328 50336 50344 50352 50360 50368 50376 50384 50392 50400 50408 50416 50424 50432 50440 50448 50456 50464 50472 50480 50488 50496 50504 50512 50520 50528 50536 50544 50552 50560 50568 50576 50584 50592 50600 50608 50616 50624 50632 50640 50648 50656 50664 50672 50680 50688 50696 50704 50712 50720 50728 50736 50744 50752 50760 50768 50776 50784 50792 50800 50808 50816 50824 50832 50840 50848 50856 50864 50872 50880 50888 50896 50904 50912 50920 50928 50936 50944 50952 50960 50968 50976 50984 50992 51000 51008 51016 51024 51032 51040 51048 51056 51064 51072 51080 51088 51096 51104 51112 51120 51128 51136 51144 51152 51160 51168 51176 51184 51192 51200 51208 51216 51224 51232 51240 51248 51256 51264 51272 51280 51288 51296 51304 51312 51320 51328 51336 51344 51352 51360 51368 51376 51384 51392 51400 51408 51416 51424 51432 51440 51448 51456 51464 51472 51480 51488 51496 51504 51512 51520 51528 51536 51544 51552 51560 51568 51576 51584 51592 51600 51608 51616 51624 51632 51640 51648 51656 51664 51672 51680 51688 51696 51704 51712 51720 51728 51736 51744 51752 51760 51768 51776 51784 51792 51800 51808 51816 51824 51832 51840 51848 51856 51864 51872 51880 51888 51896 51904 51912 51920 51928 51936 51944 51952 51960 51968 51976 51984 51992 52000 52008 52016 52024 52032 52040 52048 52056 52064 52072 52080 52088 52096 52104 52112 52120 52128 52136 52144 52152 52160 52168 52176 52184 52192 52200 52208 52216 52224 52232 52240 52248 52256 52264 52272 52280 52288 52296 52304 52312 52320 52328 52336 52344 52352 52360 52368 52376 52384 52392 52400 52408 52416 52424 52432 52440 52448 52456 52464 52472 52480 52488 52496 52504 52512 52520 52528 52536 52544 52552 52560 52568 52576 52584 52592 52600 52608 52616 52624 52632 52640 52648 52656 52664 52672 52680 52688 52696 52704 52712 52720 52728 52736 52744 52752 52760 52768 52776 52784 52792 52800 52808 52816 52824 52832 52840 52848 52856 52864 52872 52880 52888 52896 52904 52912 52920 52928 52936 52944 52952 52960 52968 52976 52984 52992 53000 53008 53016 53024 53032 53040 53048 53056 53064 53072 53080 53088 53096 53104 53112 53120 53128 53136 53144 53152 53160 53168 53176 53184 53192 53200 53208 53216 53224 53232 53240 53248 53256 53264 53272 53280 53288 53296 53304 53312 53320 53328 53336 53344 53352 53360 53368 53376 53384 53392 53400 53408 53416 53424 53432 53440 53448 53456 53464 53472 53480 53488 53496 53504 53512 53520 53528 53536 53544 53552 53560 53568 53576 53584 53592 53600 53608 53616 53624 53632 53640 53648 53656 53664 53672 53680 53688 53696 53704 53712 53720 53728 53736 53744 53752 53760 53768 53776 53784 53792 53800 53808 53816 53824 53832 53840 53848 53856 53864 53872 53880 53888 53896 53904 53912 53920 53928 53936 53944 53952 53960 53968 53976 53984 53992 54000 54008 54016 54024 54032 54040 54048 54056 54064 54072 54080 54088 54096 54104 54112 54120 54128 54136 54144 54152 54160 54168 54176 54184 54192 54200 54208 54216 54224 54232 54240 54248 54256 54264 54272 54280 54288 54296 54304 54312 54320 54328 54336 54344 54352 54360 54368 54376 54384 54392 54400 54408 54416 54424 54432 54440 54448 54456 54464 54472 54480 54488 54496 54504 54512 54520 54528 54536 54544 54552 54560 54568 54576 54584 54592 54600 54608 54616 54624 54632 54640 54648 54656 54664 54672 54680 54688 54696 54704 54712 54720 54728 54736 54744 54752 54760 54768 54776 54784 54792 54800 54808 54816 54824 54832 54840 54848 54856 54864 54872 54880 54888 54896 54904 54912 54920 54928 54936 54944 54952 54960 54968 54976 54984 54992 55000 55008 55016 55024 55032 55040 55048 55056 55064 55072 55080 55088 55096 55104 55112 55120 55128 55136 55144 55152 55160 55168 55176 55184 55192 55200 55208 55216 55224 55232 55240 55248 55256 55264 55272 55280 55288 55296 55304 55312 55320 55328 55336 55344 55352 55360 55368 55376 55384 55392 55400 55408 55416 55424 55432 55440 55448 55456 55464 55472 55480 55488 55496 55504 55512 55520 55528 55536 55544 55552 55560 55568 55576 55584 55592 55600 55608 55616 55624 55632 55640 55648 55656 55664 55672 55680 55688 55696 55704 55712 55720 55728 55736 55744 55752 55760 55768 55776 55784 55792 55800 55808 55816 55824 55832 55840 55848 55856 55864 55872 55880 55888 55896 55904 55912 55920 55928 55936 55944 55952 55960 55968 55976 55984 55992 56000 56008 56016 56024 56032 56040 56048 56056 56064 56072 56080 56088 56096 56104 56112 56120 56128 56136 56144 56152 56160 56168 56176 56184 56192 56200 56208 56216 56224 56232 56240 56248 56256 56264 56272 56280 56288 56296 56304 56312 56320 56328 56336 56344 56352 56360 56368 56376 56384 56392 56400 56408 56416 56424 56432 56440 56448 56456 56464 56472 56480 56488 56496 56504 56512 56520 56528 56536 56544 56552 56560 56568 56576 56584 56592 56600 56608 56616 56624 56632 56640 56648 56656 56664 56672 56680 56688 56696 56704 56712 56720 56728 56736 56744 56752 56760 56768 56776 56784 56792 56800 56808 56816 56824 56832 56840 56848 56856 56864 56872 56880 56888 56896 56904 56912 56920 56928 56936 56944 56952 56960 56968 56976 56984 56992 57000 57008 57016 57024 57032 57040 57048 57056 57064 57072 57080 57088 57096 57104 57112 57120 57128 57136 57144 57152 57160 57168 57176 57184 57192 57200 57208 57216 57224 57232 57240 57248 57256 57264 57272 57280 57288 57296 57304 57312 57320 57328 57336 57344 57352 57360 57368 57376 57384 57392 57400 57408 57416 57424 57432 57440 57448 57456 57464 57472 57480 57488 57496 57504 57512 57520 57528 57536 57544 57552 57560 57568 57576 57584 57592 57600 57608 57616 57624 57632 57640 57648 57656 57664 57672 57680 57688 57696 57704 57712 57720 57728 57736 57744 57752 57760 57768 57776 57784 57792 57800 57808 57816 57824 57832 57840 57848 57856 57864 57872 57880 57888 57896 57904 57912 57920 57928 57936 57944 57952 57960 57968 57976 57984 57992 58000 58008 58016 58024 58032 58040 58048 58056 58064 58072 58080 58088 58096 58104 58112 58120 58128 58136 58144 58152 58160 58168 58176 58184 58192 58200 58208 58216 58224 58232 58240 58248 58256 58264 58272 58280 58288 58296 58304 58312 58320 58328 58336 58344 58352 58360 58368 58376 58384 58392 58400 58408 58416 58424 58432 58440 58448 58456 58464 58472 58480 58488 58496 58504 58512 58520 58528 58536 58544 58552 58560 58568 58576 58584 58592 58600 58608 58616 58624 58632 58640 58648 58656 58664 58672 58680 58688 58696 58704 58712 58720 58728 58736 58744 58752 58760 58768 58776 58784 58792 58800 58808 58816 58824 58832 58840 58848 58856 58864 58872 58880 58888 58896 58904 58912 58920 58928 58936 58944 58952 58960 58968 58976 58984 58992 59000 59008 59016 59024 59032 59040 59048 59056 59064 59072 59080 59088 59096 59104 59112 59120 59128 59136 59144 59152 59160 59168 59176 59184 59192 59200 59208 59216 59224 59232 59240 59248 59256 59264 59272 59280 59288 59296 59304 59312 59320 59328 59336 59344 59352 59360 59368 59376 59384 59392 59400 59408 59416 59424 59432 59440 59448 59456 59464 59472 59480 59488 59496 59504 59512 59520 59528 59536 59544 59552 59560 59568 59576 59584 59592 59600 59608 59616 59624 59632 59640 59648 59656 59664 59672 59680 59688 59696 59704 59712 59720 59728 59736 59744 59752 59760 59768 59776 59784 59792 59800 59808 59816 59824 59832 59840 59848 59856 59864 59872 59880 59888 59896 59904 59912 59920 59928 59936 59944 59952 59960 59968 59976 59984 59992 60000 60008 60016 60024 60032 60040 60048 60056 60064 60072 60080 60088 60096 60104 60112 60120 60128 60136 60144 60152 60160 60168 60176 60184 60192 60200 60208 60216 60224 60232 60240 60248 60256 60264 60272 60280 60288 60296 60304 60312 60320 60328 60336 60344 60352 60360 60368 60376 60384 60392 60400 60408 60416 60424 60432 60440 60448 60456 60464 60472 60480 60488 60496 60504 60512 60520 60528 60536 60544 60552 60560 60568 60576 60584 60592 60600 60608 60616 60624 60632 60640 60648 60656 60664 60672 60680 60688 60696 60704 60712 60720 60728 60736 60744 60752 60760 60768 60776 60784 60792 60800 60808 60816 60824 60832 60840 60848 60856 60864 60872 60880 60888 60896 60904 60912 60920 60928 60936 60944 60952 60960 60968 60976 60984 60992 61000 61008 61016 61024 61032 61040 61048 61056 61064 61072 61080 61088 61096 61104 61112 61120 61128 61136 61144 61152 61160 61168 61176 61184 61192 61200 61208 61216 61224 61232 61240 61248 61256 61264 61272 61280 61288 61296 61304 61312 61320 61328 61336 61344 61352 61360 61368 61376 61384 61392 61400 61408 61416 61424 61432 61440 61448 61456 61464 61472 61480 61488 61496 61504 61512 61520 61528 61536 61544 61552 61560 61568 61576 61584 61592 61600 61608 61616 61624 61632 61640 61648 61656 61664 61672 61680 61688 61696 61704 61712 61720 61728 61736 61744 61752 61760 61768 61776 61784 61792 61800 61808 61816 61824 61832 61840 61848 61856 61864 61872 61880 61888 61896 61904 61912 61920 61928 61936 61944 61952 61960 61968 61976 61984 61992 62000 62008 62016 62024 62032 62040 62048 62056 62064 62072 62080 62088 62096 62104 62112 62120 62128 62136 62144 62152 62160 62168 62176 62184 62192 62200 62208 62216 62224 62232 62240 62248 62256 62264 62272 62280 62288 62296 62304 62312 62320 62328 62336 62344 62352 62360 62368 62376 62384 62392 62400 62408 62416 62424 62432 62440 62448 62456 62464 62472 62480 62488 62496 62504 62512 62520 62528 62536 62544 62552 62560 62568 62576 62584 62592 62600 62608 62616 62624 62632 62640 62648 62656 62664 62672 62680 62688 62696 62704 62712 62720 62728 62736 62744 62752 62760 62768 62776 62784 62792 62800 62808 62816 62824 62832 62840 62848 62856 62864 62872 62880 62888 62896 62904 62912 62920 62928 62936 62944 62952 62960 62968 62976 62984 62992 63000 63008 63016 63024 63032 63040 63048 63056 63064 63072 63080 63088 63096 63104 63112 63120 63128 63136 63144 63152 63160 63168 63176 63184 63192 63200 63208 63216 63224 63232 63240 63248 63256 63264 63272 63280 63288 63296 63304 63312 63320 63328 63336 63344 63352 63360 63368 63376 63384 63392 63400 63408 63416 63424 63432 63440 63448 63456 63464 63472 63480 63488 63496 63504 63512 63520 63528 63536 63544 63552 63560 63568 63576 63584 63592 63600 63608 63616 63624 63632 63640 63648 63656 63664 63672 63680 63688 63696 63704 63712 63720 63728 63736 63744 63752 63760 63768 63776 63784 63792 63800 63808 63816 63824 63832 63840 63848 63856 63864 63872 63880 63888 63896 63904 63912 63920 63928 63936 63944 63952 63960 63968 63976 63984 63992 64000 64008 64016 64024 64032 64040 64048 64056 64064 64072 64080 64088 64096 64104 64112 64120 64128 64136 64144 64152 64160 64168 64176 64184 64192 64200 64208 64216 64224 64232 64240 64248 64256 64264 64272 64280 64288 64296 64304 64312 64320 64328 64336 64344 64352 64360 64368 64376 64384 64392 64400 64408 64416 64424 64432 64440 64448 64456 64464 64472 64480 64488 64496 64504 64512 64520 64528 64536 64544 64552 64560 64568 64576 64584 64592 64600 64608 64616 64624 64632 64640 64648 64656 64664 64672 64680 64688 64696 64704 64712 64720 64728 64736 64744 64752 64760 64768 64776 64784 64792 64800 64808 64816 64824 64832 64840 64848 64856 64864 64872 64880 64888 64896 64904 64912 64920 64928 64936 64944 64952 64960 64968 64976 64984 64992 65000 65008 65016 65024 65032 65040 65048 65056 65064 65072 65080 65088 65096 65104 65112 65120 65128 65136 65144 65152 65160 65168 65176 65184 65192 65200 65208 65216 65224 65232 65240 65248 65256 65264 65272 65280 65288 65296 65304 65312 65320 65328 65336 65344 65352 65360 65368 65376 65384 65392 65400 65408 65416 65424 65432 65440 65448 65456 65464 65472 65480 65488 65496 65504 65512 65520 65528 65536 65544 65552 65560 65568 65576 65584 65592 65600 65608 65616 65624 65632 65640 65648 65656 65664 65672 65680 65688 65696 65704 65712 65720 65728 65736 65744 65752 65760 65768 65776 65784 65792 65800 65808 65816 65824 65832 65840 65848 65856 65864 65872 65880 65888 65896 65904 65912 65920 65928 65936 65944 65952 65960 65968 65976 65984 65992 66000 66008 66016 66024 66032 66040 66048 66056 66064 66072 66080 66088 66096 66104 66112 66120 66128 66136 66144 66152 66160 66168 66176 66184 66192 66200 66208 66216 66224 66232 66240 66248 66256 66264 66272 66280 66288 66296 66304 66312 66320 66328 66336 66344 66352 66360 66368 66376 66384 66392 66400 66408 66416 66424 66432 66440 66448 66456 66464 66472 66480 66488 66496 66504 66512 66520 66528 66536 66544 66552 66560 66568 66576 66584 66592 66600 66608 66616 66624 66632 66640 66648 66656 66664 66672 66680 66688 66696 66704 66712 66720 66728 66736 66744 66752 66760 66768 66776 66784 66792 66800 66808 66816 66824 66832 66840 66848 66856 66864 66872 66880 66888 66896 66904 66912 66920 66928 66936 66944 66952 66960 66968 66976 66984 66992 67000 67008 67016 67024 67032 67040 67048 67056 67064 67072 67080 67088 67096 67104 67112 67120 67128 67136 67144 67152 67160 67168 67176 67184 67192 67200 67208 67216 67224 67232 67240 67248 67256 67264 67272 67280 67288 67296 67304 67312 67320 67328 67336 67344 67352 67360 67368 67376 67384 67392 67400 67408 67416 67424 67432 67440 67448 67456 67464 67472 67480 67488 67496 67504 67512 67520 67528 67536 67544 67552 67560 67568 67576 67584 67592 67600 67608 67616 67624 67632 67640 67648 67656 67664 67672 67680 67688 67696 67704 67712 67720 67728 67736 67744 67752 67760 67768 67776 67784 67792 67800 67808 67816 67824 67832 67840 67848 67856 67864 67872 67880 67888 67896 67904 67912 67920 67928 67936 67944 67952 67960 67968 67976 67984 67992 68000 68008 68016 68024 68032 68040 68048 68056 68064 68072 68080 68088 68096 68104 68112 68120 68128 68136 68144 68152 68160 68168 68176 68184 68192 68200 68208 68216 68224 68232 68240 68248 68256 68264 68272 68280 68288 68296 68304 68312 68320 68328 68336 68344 68352 68360 68368 68376 68384 68392 68400 68408 68416 68424 68432 68440 68448 68456 68464 68472 68480 68488 68496 68504 68512 68520 68528 68536 68544 68552 68560 68568 68576 68584 68592 68600 68608 68616 68624 68632 68640 68648 68656 68664 68672 68680 68688 68696 68704 68712 68720 68728 68736 68744 68752 68760 68768 68776 68784 68792 68800 68808 68816 68824 68832 68840 68848 68856 68864 68872 68880 68888 68896 68904 68912 68920 68928 68936 68944 68952 68960 68968 68976 68984 68992 69000 69008 69016 69024 69032 69040 69048 69056 69064 69072 69080 69088 69096 69104 69112 69120 69128 69136 69144 69152 69160 69168 69176 69184 69192 69200 69208 69216 69224 69232 69240 69248 69256 69264 69272 69280 69288 69296 69304 69312 69320 69328 69336 69344 69352 69360 69368 69376 69384 69392 69400 69408 69416 69424 69432 69440 69448 69456 69464 69472 69480 69488 69496 69504 69512 69520 69528 69536 69544 69552 69560 69568 69576 69584 69592 69600 69608 69616 69624 69632 69640 69648 69656 69664 69672 69680 69688 69696 69704 69712 69720 69728 69736 69744 69752 69760 69768 69776 69784 69792 69800 69808 69816 69824 69832 69840 69848 69856 69864 69872 69880 69888 69896 69904 69912 69920 69928 69936 69944 69952 69960 69968 69976 69984 69992 70000 70008 70016 70024 70032 70040 70048 70056 70064 70072 70080 70088 70096 70104 70112 70120 70128 70136 70144 70152 70160 70168 70176 70184 70192 70200 70208 70216 70224 70232 70240 70248 70256 70264 70272 70280 70288 70296 70304 70312 70320 70328 70336 70344 70352 70360 70368 70376 70384 70392 70400 70408 70416 70424 70432 70440 70448 70456 70464 70472 70480 70488 70496 70504 70512 70520 70528 70536 70544 70552 70560 70568 70576 70584 70592 70600 70608 70616 70624 70632 70640 70648 70656 70664 70672 70680 70688 70696 70704 70712 70720 70728 70736 70744 70752 70760 70768 70776 70784 70792 70800 70808 70816 70824 70832 70840 70848 70856 70864 70872 70880 70888 70896 70904 70912 70920 70928 70936 70944 70952 70960 70968 70976 70984 70992 71000 71008 71016 71024 71032 71040 71048 71056 71064 71072 71080 71088 71096 71104 71112 71120 71128 71136 71144 71152 71160 71168 71176 71184 71192 71200 71208 71216 71224 71232 71240 71248 71256 71264 71272 71280 71288 71296 71304 71312 71320 71328 71336 71344 71352 71360 71368 71376 71384 71392 71400 71408 71416 71424 71432 71440 71448 71456 71464 71472 71480 71488 71496 71504 71512 71520 71528 71536 71544 71552 71560 71568 71576 71584 71592 71600 71608 71616 71624 71632 71640 71648 71656 71664 71672 71680 71688 71696 71704 71712 71720 71728 71736 71744 71752 71760 71768 71776 71784 71792 71800 71808 71816 71824 71832 71840 71848 71856 71864 71872 71880 71888 71896 71904 71912 71920 71928 71936 71944 71952 71960 71968 71976 71984 71992 72000 72008 72016 72024 72032 72040 72048 72056 72064 72072 72080 72088 72096 72104 72112 72120 72128 72136 72144 72152 72160 72168 72176 72184 72192 72200 72208 72216 72224 72232 72240 72248 72256 72264 72272 72280 72288 72296 72304 72312 72320 72328 72336 72344 72352 72360 72368 72376 72384 72392 72400 72408 72416 72424 72432 72440 72448 72456 72464 72472 72480 72488 72496 72504 72512 72520 72528 72536 72544 72552 72560 72568 72576 72584 72592 72600 72608 72616 72624 72632 72640 72648 72656 72664 72672 72680 72688 72696 72704 72712 72720 72728 72736 72744 72752 72760 72768 72776 72784 72792 72800 72808 72816 72824 72832 72840 72848 72856 72864 72872 72880 72888 72896 72904 72912 72920 72928 72936 72944 72952 72960 72968 72976 72984 72992 73000 73008 73016 73024 73032 73040 73048 73056 73064 73072 73080 73088 73096 73104 73112 73120 73128 73136 73144 73152 73160 73168 73176 73184 73192 73200 73208 73216 73224 73232 73240 73248 73256 73264 73272 73280 73288 73296 73304 73312 73320 73328 73336 73344 73352 73360 73368 73376 73384 73392 73400 73408 73416 73424 73432 73440 73448 73456 73464 73472 73480 73488 73496 73504 73512 73520 73528 73536 73544 73552 73560 73568 73576 73584 73592 73600 73608 73616 73624 73632 73640 73648 73656 73664 73672 73680 73688 73696 73704 73712 73720 73728 73736 73744 73752 73760 73768 73776 73784 73792 73800 73808 73816 73824 73832 73840 73848 73856 73864 73872 73880 73888 73896 73904 73912 73920 73928 73936 73944 73952 73960 73968 73976 73984 73992 74000 74008 74016 74024 74032 74040 74048 74056 74064 74072 74080 74088 74096 74104 74112 74120 74128 74136 74144 74152 74160 74168 74176 74184 74192 74200 74208 74216 74224 74232 74240 74248 74256 74264 74272 74280 74288 74296 74304 74312 74320 74328 74336 74344 74352 74360 74368 74376 74384 74392 74400 74408 74416 74424 74432 74440 74448 74456 74464 74472 74480 74488 74496 74504 74512 74520 74528 74536 74544 74552 74560 74568 74576 74584 74592 74600 74608 74616 74624 74632 74640 74648 74656 74664 74672 74680 74688 74696 74704 74712 74720 74728 74736 74744 74752 74760 74768 74776 74784 74792 74800 74808 74816 74824 74832 74840 74848 74856 74864 74872 74880 74888 74896 74904 74912 74920 74928 74936 74944 74952 74960 74968 74976 74984 74992 75000 75008 75016 75024 75032 75040 75048 75056 75064 75072 75080 75088 75096 75104 75112 75120 75128 75136 75144 75152 75160 75168 75176 75184 75192 75200 75208 75216 75224 75232 75240 75248 75256 75264 75272 75280 75288 75296 75304 75312 75320 75328 75336 75344 75352 75360 75368 75376 75384 75392 75400 75408 75416 75424 75432 75440 75448 75456 75464 75472 75480 75488 75496 75504 75512 75520 75528 75536 75544 75552 75560 75568 75576 75584 75592 75600 75608 75616 75624 75632 75640 75648 75656 75664 75672 75680 75688 75696 75704 75712 75720 75728 75736 75744 75752 75760 75768 75776 75784 75792 75800 75808 75816 75824 75832 75840 75848 75856 75864 75872 75880 75888 75896 75904 75912 75920 75928 75936 75944 75952 75960 75968 75976 75984 75992 76000 76008 76016 76024 76032 76040 76048 76056 76064 76072 76080 76088 76096 76104 76112 76120 76128 76136 76144 76152 76160 76168 76176 76184 76192 76200 76208 76216 76224 76232 76240 76248 76256 76264 76272 76280 76288 76296 76304 76312 76320 76328 76336 76344 76352 76360 76368 76376 76384 76392 76400 76408 76416 76424 76432 76440 76448 76456 76464 76472 76480 76488 76496 76504 76512 76520 76528 76536 76544 76552 76560 76568 76576 76584 76592 76600 76608 76616 76624 76632 76640 76648 76656 76664 76672 76680 76688 76696 76704 76712 76720 76728 76736 76744 76752 76760 76768 76776 76784 76792 76800 76808 76816 76824 76832 76840 76848 76856 76864 76872 76880 76888 76896 76904 76912 76920 76928 76936 76944 76952 76960 76968 76976 76984 76992 77000 77008 77016 77024 77032 77040 77048 77056 77064 77072 77080 77088 77096 77104 77112 77120 77128 77136 77144 77152 77160 77168 77176 77184 77192 77200 77208 77216 77224 77232 77240 77248 77256 77264 77272 77280 77288 77296 77304 77312 77320 77328 77336 77344 77352 77360 77368 77376 77384 77392 77400 77408 77416 77424 77432 77440 77448 77456 77464 77472 77480 77488 77496 77504 77512 77520 77528 77536 77544 77552 77560 77568 77576 77584 77592 77600 77608 77616 77624 77632 77640 77648 77656 77664 77672 77680 77688 77696 77704 77712 77720 77728 77736 77744 77752 77760 77768 77776 77784 77792 77800 77808 77816 77824 77832 77840 77848 77856 77864 77872 77880 77888 77896 77904 77912 77920 77928 77936 77944 77952 77960 77968 77976 77984 77992 78000 78008 78016 78024 78032 78040 78048 78056 78064 78072 78080 78088 78096 78104 78112 78120 78128 78136 78144 78152 78160 78168 78176 78184 78192 78200 78208 78216 78224 78232 78240 78248 78256 78264 78272 78280 78288 78296 78304 78312 78320 78328 78336 78344 78352 78360 78368 78376 78384 78392 78400 78408 78416 78424 78432 78440 78448 78456 78464 78472 78480 78488 78496 78504 78512 78520 78528 78536 78544 78552 78560 78568 78576 78584 78592 78600 78608 78616 78624 78632 78640 78648 78656 78664 78672 78680 78688 78696 78704 78712 78720 78728 78736 78744 78752 78760 78768 78776 78784 78792 78800 78808 78816 78824 78832 78840 78848 78856 78864 78872 78880 78888 78896 78904 78912 78920 78928 78936 78944 78952 78960 78968 78976 78984 78992 79000 79008 79016 79024 79032 79040 79048 79056 79064 79072 79080 79088 79096 79104 79112 79120 79128 79136 79144 79152 79160 79168 79176 79184 79192 79200 79208 79216 79224 79232 79240 79248 79256 79264 79272 79280 79288 79296 79304 79312 79320 79328 79336 79344 79352 79360 79368 79376 79384 79392 79400 79408 79416 79424 79432 79440 79448 79456 79464 79472 79480 79488 79496 79504 79512 79520 79528 79536 79544 79552 79560 79568 79576 79584 79592 79600 79608 79616 79624 79632 79640 79648 79656 79664 79672 79680 79688 79696 79704 79712 79720 79728 79736 79744 79752 79760 79768 79776 79784 79792 79800 79808 79816 79824 79832 79840 79848 79856 79864 79872 79880 79888 79896 79904 79912 79920 79928 79936 79944 79952 79960 79968 79976 79984 79992 80000 80008 80016 80024 80032 80040 80048 80056 80064 80072 80080 80088 80096 80104 80112 80120 80128 80136 80144 80152 80160 80168 80176 80184 80192 80200 80208 80216 80224 80232 80240 80248 80256 80264 80272 80280 80288 80296 80304 80312 80320 80328 80336 80344 80352 80360 80368 80376 80384 80392 80400 80408 80416 80424 80432 80440 80448 80456 80464 80472 80480 80488 80496 80504 80512 80520 80528 80536 80544 80552 80560 80568 80576 80584 80592 80600 80608 80616 80624 80632 80640 80648 80656 80664 80672 80680 80688 80696 80704 80712 80720 80728 80736 80744 80752 80760 80768 80776 80784 80792 80800 80808 80816 80824 80832 80840 80848 80856 80864 80872 80880 80888 80896 80904 80912 80920 80928 80936 80944 80952 80960 80968 80976 80984 80992 81000 81008 81016 81024 81032 81040 81048 81056 81064 81072 81080 81088 81096 81104 81112 81120 81128 81136 81144 81152 81160 81168 81176 81184 81192 81200 81208 81216 81224 81232 81240 81248 81256 81264 81272 81280 81288 81296 81304 81312 81320 81328 81336 81344 81352 81360 81368 81376 81384 81392 81400 81408 81416 81424 81432 81440 81448 81456 81464 81472 81480 81488 81496 81504 81512 81520 81528 81536 81544 81552 81560 81568 81576 81584 81592 81600 81608 81616 81624 81632 81640 81648 81656 81664 81672 81680 81688 81696 81704 81712 81720 81728 81736 81744 81752 81760 81768 81776 81784 81792 81800 81808 81816 81824 81832 81840 81848 81856 81864 81872 81880 81888 81896 81904 81912 81920 81928 81936 81944 81952 81960 81968 81976 81984 81992 82000 82008 82016 82024 82032 82040 82048 82056 82064 82072 82080 82088 82096 82104 82112 82120 82128 82136 82144 82152 82160 82168 82176 82184 82192 82200 82208 82216 82224 82232 82240 82248 82256 82264 82272 82280 82288 82296 82304 82312 82320 82328 82336 82344 82352 82360 82368 82376 82384 82392 82400 82408 82416 82424 82432 82440 82448 82456 82464 82472 82480 82488 82496 82504 82512 82520 82528 82536 82544 82552 82560 82568 82576 82584 82592 82600 82608 82616 82624 82632 82640 82648 82656 82664 82672 82680 82688 82696 82704 82712 82720 82728 82736 82744 82752 82760 82768 82776 82784 82792 82800 82808 82816 82824 82832 82840 82848 82856 82864 82872 82880 82888 82896 82904 82912 82920 82928 82936 82944 82952 82960 82968 82976 82984 82992 83000 83008 83016 83024 83032 83040 83048 83056 83064 83072 83080 83088 83096 83104 83112 83120 83128 83136 83144 83152 83160 83168 83176 83184 83192 83200 83208 83216 83224 83232 83240 83248 83256 83264 83272 83280 83288 83296 83304 83312 83320 83328 83336 83344 83352 83360 83368 83376 83384 83392 83400 83408 83416 83424 83432 83440 83448 83456 83464 83472 83480 83488 83496 83504 83512 83520 83528 83536 83544 83552 83560 83568 83576 83584 83592 83600 83608 83616 83624 83632 83640 83648 83656 83664 83672 83680 83688 83696 83704 83712 83720 83728 83736 83744 83752 83760 83768 83776 83784 83792 83800 83808 83816 83824 83832 83840 83848 83856 83864 83872 83880 83888 83896 83904 83912 83920 83928 83936 83944 83952 83960 83968 83976 83984 83992 84000 84008 84016 84024 84032 84040 84048 84056 84064 84072 84080 84088 84096 84104 84112 84120 84128 84136 84144 84152 84160 84168 84176 84184 84192 84200 84208 84216 84224 84232 84240 84248 84256 84264 84272 84280 84288 84296 84304 84312 84320 84328 84336 84344 84352 84360 84368 84376 84384 84392 84400 84408 84416 84424 84432 84440 84448 84456 84464 84472 84480 84488 84496 84504 84512 84520 84528 84536 84544 84552 84560 84568 84576 84584 84592 84600 84608 84616 84624 84632 84640 84648 84656 84664 84672 84680 84688 84696 84704 84712 84720 84728 84736 84744 84752 84760 84768 84776 84784 84792 84800 84808 84816 84824 84832 84840 84848 84856 84864 84872 84880 84888 84896 84904 84912 84920 84928 84936 84944 84952 84960 84968 84976 84984 84992 85000 85008 85016 85024 85032 85040 85048 85056 85064 85072 85080 85088 85096 85104 85112 85120 85128 85136 85144 85152 85160 85168 85176 85184 85192 85200 85208 85216 85224 85232 85240 85248 85256 85264 85272 85280 85288 85296 85304 85312 85320 85328 85336 85344 85352 85360 85368 85376 85384 85392 85400 85408 85416 85424 85432 85440 85448 85456 85464 85472 85480 85488 85496 85504 85512 85520 85528 85536 85544 85552 85560 85568 85576 85584 85592 85600 85608 85616 85624 85632 85640 85648 85656 85664 85672 85680 85688 85696 85704 85712 85720 85728 85736 85744 85752 85760 85768 85776 85784 85792 85800 85808 85816 85824 85832 85840 85848 85856 85864 85872 85880 85888 85896 85904 85912 85920 85928 85936 85944 85952 85960 85968 85976 85984 85992 86000 86008 86016 86024 86032 86040 86048 86056 86064 86072 86080 86088 86096 86104 86112 86120 86128 86136 86144 86152 86160 86168 86176 86184 86192 86200 86208 86216 86224 86232 86240 86248 86256 86264 86272 86280 86288 86296 86304 86312 86320 86328 86336 86344 86352 86360 86368 86376 86384 86392 86400 86408 86416 86424 86432 86440 86448 86456 86464 86472 86480 86488 86496 86504 86512 86520 86528 86536 86544 86552 86560 86568 86576 86584 86592 86600 86608 86616 86624 86632 86640 86648 86656 86664 86672 86680 86688 86696 86704 86712 86720 86728 86736 86744 86752 86760 86768 86776 86784 86792 86800 86808 86816 86824 86832 86840 86848 86856 86864 86872 86880 86888 86896 86904 86912 86920 86928 86936 86944 86952 86960 86968 86976 86984 86992 87000 87008 87016 87024 87032 87040 87048 87056 87064 87072 87080 87088 87096 87104 87112 87120 87128 87136 87144 87152 87160 87168 87176 87184 87192 87200 87208 87216 87224 87232 87240 87248 87256 87264 87272 87280 87288 87296 87304 87312 87320 87328 87336 87344 87352 87360 87368 87376 87384 87392 87400 87408 87416 87424 87432 87440 87448 87456 87464 87472 87480 87488 87496 87504 87512 87520 87528 87536 87544 87552 87560 87568 87576 87584 87592 87600 87608 87616 87624 87632 87640 87648 87656 87664 87672 87680 87688 87696 87704 87712 87720 87728 87736 87744 87752 87760 87768 87776 87784 87792 87800 87808 87816 87824 87832 87840 87848 87856 87864 87872 87880 87888 87896 87904 87912 87920 87928 87936 87944 87952 87960 87968 87976 87984 87992 88000 88008 88016 88024 88032 88040 88048 88056 88064 88072 88080 88088 88096 88104 88112 88120 88128 88136 88144 88152 88160 88168 88176 88184 88192 88200 88208 88216 88224 88232 88240 88248 88256 88264 88272 88280 88288 88296 88304 88312 88320 88328 88336 88344 88352 88360 88368 88376 88384 88392 88400 88408 88416 88424 88432 88440 88448 88456 88464 88472 88480 88488 88496 88504 88512 88520 88528 88536 88544 88552 88560 88568 88576 88584 88592 88600 88608 88616 88624 88632 88640 88648 88656 88664 88672 88680 88688 88696 88704 88712 88720 88728 88736 88744 88752 88760 88768 88776 88784 88792 88800 88808 88816 88824 88832 88840 88848 88856 88864 88872 88880 88888 88896 88904 88912 88920 88928 88936 88944 88952 88960 88968 88976 88984 88992 89000 89008 89016 89024 89032 89040 89048 89056 89064 89072 89080 89088 89096 89104 89112 89120 89128 89136 89144 89152 89160 89168 89176 89184 89192 89200 89208 89216 89224 89232 89240 89248 89256 89264 89272 89280 89288 89296 89304 89312 89320 89328 89336 89344 89352 89360 89368 89376 89384 89392 89400 89408 89416 89424 89432 89440 89448 89456 89464 89472 89480 89488 89496 89504 89512 89520 89528 89536 89544 89552 89560 89568 89576 89584 89592 89600 89608 89616 89624 89632 89640 89648 89656 89664 89672 89680 89688 89696 89704 89712 89720 89728 89736 89744 89752 89760 89768 89776 89784 89792 89800 89808 89816 89824 89832 89840 89848 89856 89864 89872 89880 89888 89896 89904 89912 89920 89928 89936 89944 89952 89960 89968 89976 89984 89992 90000 90008 90016 90024 90032 90040 90048 90056 90064 90072 90080 90088 90096 90104 90112 90120 90128 90136 90144 90152 90160 90168 90176 90184 90192 90200 90208 90216 90224 90232 90240 90248 90256 90264 90272 90280 90288 90296 90304 90312 90320 90328 90336 90344 90352 90360 90368 90376 90384 90392 90400 90408 90416 90424 90432 90440 90448 90456 90464 90472 90480 90488 90496 90504 90512 90520 90528 90536 90544 90552 90560 90568 90576 90584 90592 90600 90608 90616 90624 90632 90640 90648 90656 90664 90672 90680 90688 90696 90704 90712 90720 90728 90736 90744 90752 90760 90768 90776 90784 90792 90800 90808 90816 90824 90832 90840 90848 90856 90864 90872 90880 90888 90896 90904 90912 90920 90928 90936 90944 90952 90960 90968 90976 90984 90992 91000 91008 91016 91024 91032 91040 91048 91056 91064 91072 91080 91088 91096 91104 91112 91120 91128 91136 91144 91152 91160 91168 91176 91184 91192 91200 91208 91216 91224 91232 91240 91248 91256 91264 91272 91280 91288 91296 91304 91312 91320 91328 91336 91344 91352 91360 91368 91376 91384 91392 91400 91408 91416 91424 91432 91440 91448 91456 91464 91472 91480 91488 91496 91504 91512 91520 91528 91536 91544 91552 91560 91568 91576 91584 91592 91600 91608 91616 91624 91632 91640 91648 91656 91664 91672 91680 91688 91696 91704 91712 91720 91728 91736 91744 91752 91760 91768 91776 91784 91792 91800 91808 91816 91824 91832 91840 91848 91856 91864 91872 91880 91888 91896 91904 91912 91920 91928 91936 91944 91952 91960 91968 91976 91984 91992 92000 92008 92016 92024 92032 92040 92048 92056 92064 92072 92080 92088 92096 92104 92112 92120 92128 92136 92144 92152 92160 92168 92176 92184 92192 92200 92208 92216 92224 92232 92240 92248 92256 92264 92272 92280 92288 92296 92304 92312 92320 92328 92336 92344 92352 92360 92368 92376 92384 92392 92400 92408 92416 92424 92432 92440 92448 92456 92464 92472 92480 92488 92496 92504 92512 92520 92528 92536 92544 92552 92560 92568 92576 92584 92592 92600 92608 92616 92624 92632 92640 92648 92656 92664 92672 92680 92688 92696 92704 92712 92720 92728 92736 92744 92752 92760 92768 92776 92784 92792 92800 92808 92816 92824 92832 92840 92848 92856 92864 92872 92880 92888 92896 92904 92912 92920 92928 92936 92944 92952 92960 92968 92976 92984 92992 93000 93008 93016 93024 93032 93040 93048 93056 93064 93072 93080 93088 93096 93104 93112 93120 93128 93136 93144 93152 93160 93168 93176 93184 93192 93200 93208 93216 93224 93232 93240 93248 93256 93264 93272 93280 93288 93296 93304 93312 93320 93328 93336 93344 93352 93360 93368 93376 93384 93392 93400 93408 93416 93424 93432 93440 93448 93456 93464 93472 93480 93488 93496 93504 93512 93520 93528 93536 93544 93552 93560 93568 93576 93584 93592 93600 93608 93616 93624 93632 93640 93648 93656 93664 93672 93680 93688 93696 93704 93712 93720 93728 93736 93744 93752 93760 93768 93776 93784 93792 93800 93808 93816 93824 93832 93840 93848 93856 93864 93872 93880 93888 93896 93904 93912 93920 93928 93936 93944 93952 93960 93968 93976 93984 93992 94000 94008 94016 94024 94032 94040 94048 94056 94064 94072 94080 94088 94096 94104 94112 94120 94128 94136 94144 94152 94160 94168 94176 94184 94192 94200 94208 94216 94224 94232 94240 94248 94256 94264 94272 94280 94288 94296 94304 94312 94320 94328 94336 94344 94352 94360 94368 94376 94384 94392 94400 94408 94416 94424 94432 94440 94448 94456 94464 94472 94480 94488 94496 94504 94512 94520 94528 94536 94544 94552 94560 94568 94576 94584 94592 94600 94608 94616 94624 94632 94640 94648 94656 94664 94672 94680 94688 94696 94704 94712 94720 94728 94736 94744 94752 94760 94768 94776 94784 94792 94800 94808 94816 94824 94832 94840 94848 94856 94864 94872 94880 94888 94896 94904 94912 94920 94928 94936 94944 94952 94960 94968 94976 94984 94992 95000 95008 95016 95024 95032 95040 95048 95056 95064 95072 95080 95088 95096 95104 95112 95120 95128 95136 95144 95152 95160 95168 95176 95184 95192 95200 95208 95216 95224 95232 95240 95248 95256 95264 95272 95280 95288 95296 95304 95312 95320 95328 95336 95344 95352 95360 95368 95376 95384 95392 95400 95408 95416 95424 95432 95440 95448 95456 95464 95472 95480 95488 95496 95504 95512 95520 95528 95536 95544 95552 95560 95568 95576 95584 95592 95600 95608 95616 95624 95632 95640 95648 95656 95664 95672 95680 95688 95696 95704 95712 95720 95728 95736 95744 95752 95760 95768 95776 95784 95792 95800 95808 95816 95824 95832 95840 95848 95856 95864 95872 95880 95888 95896 95904 95912 95920 95928 95936 95944 95952 95960 95968 95976 95984 95992 96000 96008 96016 96024 96032 96040 96048 96056 96064 96072 96080 96088 96096 96104 96112 96120 96128 96136 96144 96152 96160 96168 96176 96184 96192 96200 96208 96216 96224 96232 96240 96248 96256 96264 96272 96280 96288 96296 96304 96312 96320 96328 96336 96344 96352 96360 96368 96376 96384 96392 96400 96408 96416 96424 96432 96440 96448 96456 96464 96472 96480 96488 96496 96504 96512 96520 96528 96536 96544 96552 96560 96568 96576 96584 96592 96600 96608 96616 96624 96632 96640 96648 96656 96664 96672 96680 96688 96696 96704 96712 96720 96728 96736 96744 96752 96760 96768 96776 96784 96792 96800 96808 96816 96824 96832 96840 96848 96856 96864 96872 96880 96888 96896 96904 96912 96920 96928 96936 96944 96952 96960 96968 96976 96984 96992 97000 97008 97016 97024 97032 97040 97048 97056 97064 97072 97080 97088 97096 97104 97112 97120 97128 97136 97144 97152 97160 97168 97176 97184 97192 97200 97208 97216 97224 97232 97240 97248 97256 97264 97272 97280 97288 97296 97304 97312 97320 97328 97336 97344 97352 97360 97368 97376 97384 97392 97400 97408 97416 97424 97432 97440 97448 97456 97464 97472 97480 97488 97496 97504 97512 97520 97528 97536 97544 97552 97560 97568 97576 97584 97592 97600 97608 97616 97624 97632 97640 97648 97656 97664 97672 97680 97688 97696 97704 97712 97720 97728 97736 97744 97752 97760 97768 97776 97784 97792 97800 97808 97816 97824 97832 97840 97848 97856 97864 97872 97880 97888 97896 97904 97912 97920 97928 97936 97944 97952 97960 97968 97976 97984 97992 98000 98008 98016 98024 98032 98040 98048 98056 98064 98072 98080 98088 98096 98104 98112 98120 98128 98136 98144 98152 98160 98168 98176 98184 98192 98200 98208 98216 98224 98232 98240 98248 98256 98264 98272 98280 98288 98296 98304 98312 98320 98328 98336 98344 98352 98360 98368 98376 98384 98392 98400 98408 98416 98424 98432 98440 98448 98456 98464 98472 98480 98488 98496 98504 98512 98520 98528 98536 98544 98552 98560 98568 98576 98584 98592 98600 98608 98616 98624 98632 98640 98648 98656 98664 98672 98680 98688 98696 98704 98712 98720 98728 98736 98744 98752 98760 98768 98776 98784 98792 98800 98808 98816 98824 98832 98840 98848 98856 98864 98872 98880 98888 98896 98904 98912 98920 98928 98936 98944 98952 98960 98968 98976 98984 98992 99000 99008 99016 99024 99032 99040 99048 99056 99064 99072 99080 99088 99096 99104 99112 99120 99128 99136 99144 99152 99160 99168 99176 99184 99192 99200 99208 99216 99224 99232 99240 99248 99256 99264 99272 99280 99288 99296 99304 99312 99320 99328 99336 99344 99352 99360 99368 99376 99384 99392 99400 99408 99416 99424 99432 99440 99448 99456 99464 99472 99480 99488 99496 99504 99512 99520 99528 99536 99544 99552 99560 99568 99576 99584 99592 99600 99608 99616 99624 99632 99640 99648 99656 99664 99672 99680 99688 99696 99704 99712 99720 99728 99736 99744 99752 99760 99768 99776 99784 99792 99800 99808 99816 99824 99832 99840 99848 99856 99864 99872 99880 99888 99896 99904 99912 99920 99928 99936 99944 99952 99960 99968 99976 99984 99992 100000 100008 100016 100024 100032 100040 100048 100056 100064 100072 100080 100088 100096 100104 100112 100120 100128 100136 100144 100152 100160 100168 100176 100184 100192 100200 100208 100216 100224 100232 100240 100248 100256 100264 100272 100280 100288 100296 100304 100312 100320 100328 100336 100344 100352 100360 100368 100376 100384 100392 100400 100408 100416 100424 100432 100440 100448 100456 100464 100472 100480 100488 100496 100504 100512 100520 100528 100536 100544 100552 100560 100568 100576 100584 100592 100600 100608 100616 100624 100632 100640 100648 100656 100664 100672 100680 100688 100696 100704 100712 100720 100728 100736 100744 100752 100760 100768 100776 100784 100792 100800 100808 100816 100824 100832 100840 100848 100856 100864 100872 100880 100888 100896 100904 100912 100920 100928 100936 100944 100952 100960 100968 100976 100984 100992 101000 101008 101016 101024 101032 101040 101048 101056 101064 101072 101080 101088 101096 101104 101112 101120 101128 101136 101144 101152 101160 101168 101176 101184 101192 101200 101208 101216 101224 101232 101240 101248 101256 101264 101272 101280 101288 101296 101304 101312 101320 101328 101336 101344 101352 101360 101368 101376 101384 101392 101400 101408 101416 101424 101432 101440 101448 101456 101464 101472 101480 101488 101496 101504 101512 101520 101528 101536 101544 101552 101560 101568 101576 101584 101592 101600 101608 101616 101624 101632 101640 101648 101656 101664 101672 101680 101688 101696 101704 101712 101720 101728 101736 101744 101752 101760 101768 101776 101784 101792 101800 101808 101816 101824 101832 101840 101848 101856 101864 101872 101880 101888 101896 101904 101912 101920 101928 101936 101944 101952 101960 101968 101976 101984 101992 102000 102008 102016 102024 102032 102040 102048 102056 102064 102072 102080 102088 102096 102104 102112 102120 102128 102136 102144 102152 102160 102168 102176 102184 102192 102200 102208 102216 102224 102232 102240 102248 102256 102264 102272 102280 102288 102296 102304 102312 102320 102328 102336 102344 102352 102360 102368 102376 102384 102392 102400 102408 102416 102424 102432 102440 102448 102456 102464 102472 102480 102488 102496 102504 102512 102520 102528 102536 102544 102552 102560 102568 102576 102584 102592 102600 102608 102616 102624 102632 102640 102648 102656 102664 102672 102680 102688 102696 102704 102712 102720 102728 102736 102744 102752 102760 102768 102776 102784 102792 102800 102808 102816 102824 102832 102840 102848 102856 102864 102872 102880 102888 102896 102904 102912 102920 102928 102936 102944 102952 102960 102968 102976 102984 102992 103000 103008 103016 103024 103032 103040 103048 103056 103064 103072 103080 103088 103096 103104 103112 103120 103128 103136 103144 103152 103160 103168 103176 103184 103192 103200 103208 103216 103224 103232 103240 103248 103256 103264 103272 103280 103288 103296 103304 103312 103320 103328 103336 103344 103352 103360 103368 103376 103384 103392 103400 103408 103416 103424 103432 103440 103448 103456 103464 103472 103480 103488 103496 103504 103512 103520 103528 103536 103544 103552 103560 103568 103576 103584 103592 103600 103608 103616 103624 103632 103640 103648 103656 103664 103672 103680 103688 103696 103704 103712 103720 103728 103736 103744 103752 103760 103768 103776 103784 103792 103800 103808 103816 103824 103832 103840 103848 103856 103864 103872 103880 103888 103896 103904 103912 103920 103928 103936 103944 103952 103960 103968 103976 103984 103992 104000 104008 104016 104024 104032 104040 104048 104056 104064 104072 104080 104088 104096 104104 104112 104120 104128 104136 104144 104152 104160 104168 104176 104184 104192 104200 104208 104216 104224 104232 104240 104248 104256 104264 104272 104280 104288 104296 104304 104312 104320 104328 104336 104344 104352 104360 104368 104376 104384 104392 104400 104408 104416 104424 104432 104440 104448 104456 104464 104472 104480 104488 104496 104504 104512 104520 104528 104536 104544 104552 104560 104568 104576 104584 104592 104600 104608 104616 104624 104632 104640 104648 104656 104664 104672 104680 104688 104696 104704 104712 104720 104728 104736 104744 104752 104760 104768 104776 104784 104792 104800 104808 104816 104824 104832 104840 104848 104856 104864 104872 104880 104888 104896 104904 104912 104920 104928 104936 104944 104952 104960 104968 104976 104984 104992 105000 105008 105016 105024 105032 105040 105048 105056 105064 105072 105080 105088 105096 105104 105112 105120 105128 105136 105144 105152 105160 105168 105176 105184 105192 105200 105208 105216 105224 105232 105240 105248 105256 105264 105272 105280 105288 105296 105304 105312 105320 105328 105336 105344 105352 105360 105368 105376 105384 105392 105400 105408 105416 105424 105432 105440 105448 105456 105464 105472 105480 105488 105496 105504 105512 105520 105528 105536 105544 105552 105560 105568 105576 105584 105592 105600 105608 105616 105624 105632 105640 105648 105656 105664 105672 105680 105688 105696 105704 105712 105720 105728 105736 105744 105752 105760 105768 105776 105784 105792 105800 105808 105816 105824 105832 105840 105848 105856 105864 105872 105880 105888 105896 105904 105912 105920 105928 105936 105944 105952 105960 105968 105976 105984 105992 106000 106008 106016 106024 106032 106040 106048 106056 106064 106072 106080 106088 106096 106104 106112 106120 106128 106136 106144 106152 106160 106168 106176 106184 106192 106200 106208 106216 106224 106232 106240 106248 106256 106264 106272 106280 106288 106296 106304 106312 106320 106328 106336 106344 106352 106360 106368 106376 106384 106392 106400 106408 106416 106424 106432 106440 106448 106456 106464 106472 106480 106488 106496 106504 106512 106520 106528 106536 106544 106552 106560 106568 106576 106584 106592 106600 106608 106616 106624 106632 106640 106648 106656 106664 106672 106680 106688 106696 106704 106712 106720 106728 106736 106744 106752 106760 106768 106776 106784 106792 106800 106808 106816 106824 106832 106840 106848 106856 106864 106872 106880 106888 106896 106904 106912 106920 106928 106936 106944 106952 106960 106968 106976 106984 106992 107000 107008 107016 107024 107032 107040 107048 107056 107064 107072 107080 107088 107096 107104 107112 107120 107128 107136 107144 107152 107160 107168 107176 107184 107192 107200 107208 107216 107224 107232 107240 107248 107256 107264 107272 107280 107288 107296 107304 107312 107320 107328 107336 107344 107352 107360 107368 107376 107384 107392 107400 107408 107416 107424 107432 107440 107448 107456 107464 107472 107480 107488 107496 107504 107512 107520 107528 107536 107544 107552 107560 107568 107576 107584 107592 107600 107608 107616 107624 107632 107640 107648 107656 107664 107672 107680 107688 107696 107704 107712 107720 107728 107736 107744 107752 107760 107768 107776 107784 107792 107800 107808 107816 107824 107832 107840 107848 107856 107864 107872 107880 107888 107896 107904 107912 107920 107928 107936 107944 107952 107960 107968 107976 107984 107992 108000 108008 108016 108024 108032 108040 108048 108056 108064 108072 108080 108088 108096 108104 108112 108120 108128 108136 108144 108152 108160 108168 108176 108184 108192 108200 108208 108216 108224 108232 108240 108248 108256 108264 108272 108280 108288 108296 108304 108312 108320 108328 108336 108344 108352 108360 108368 108376 108384 108392 108400 108408 108416 108424 108432 108440 108448 108456 108464 108472 108480 108488 108496 108504 108512 108520 108528 108536 108544 108552 108560 108568 108576 108584 108592 108600 108608 108616 108624 108632 108640 108648 108656 108664 108672 108680 108688 108696 108704 108712 108720 108728 108736 108744 108752 108760 108768 108776 108784 108792 108800 108808 108816 108824 108832 108840 108848 108856 108864 108872 108880 108888 108896 108904 108912 108920 108928 108936 108944 108952 108960 108968 108976 108984 108992 109000 109008 109016 109024 109032 109040 109048 109056 109064 109072 109080 109088 109096 109104 109112 109120 109128 109136 109144 109152 109160 109168 109176 109184 109192 109200 109208 109216 109224 109232 109240 109248 109256 109264 109272 109280 109288 109296 109304 109312 109320 109328 109336 109344 109352 109360 109368 109376 109384 109392 109400 109408 109416 109424 109432 109440 109448 109456 109464 109472 109480 109488 109496 109504 109512 109520 109528 109536 109544 109552 109560 109568 109576 109584 109592 109600 109608 109616 109624 109632 109640 109648 109656 109664 109672 109680 109688 109696 109704 109712 109720 109728 109736 109744 109752 109760 109768 109776 109784 109792 109800 109808 109816 109824 109832 109840 109848 109856 109864 109872 109880 109888 109896 109904 109912 109920 109928 109936 109944 109952 109960 109968 109976 109984 109992 110000 110008 110016 110024 110032 110040 110048 110056 110064 110072 110080 110088 110096 110104 110112 110120 110128 110136 110144 110152 110160 110168 110176 110184 110192 110200 110208 110216 110224 110232 110240 110248 110256 110264 110272 110280 110288 110296 110304 110312 110320 110328 110336 110344 110352 110360 110368 110376 110384 110392 110400 110408 110416 110424 110432 110440 110448 110456 110464 110472 110480 110488 110496 110504 110512 110520 110528 110536 110544 110552 110560 110568 110576 110584 110592 110600 110608 110616 110624 110632 110640 110648 110656 110664 110672 110680 110688 110696 110704 110712 110720 110728 110736 110744 110752 110760 110768 110776 110784 110792 110800 110808 110816 110824 110832 110840 110848 110856 110864 110872 110880 110888 110896 110904 110912 110920 110928 110936 110944 110952 110960 110968 110976 110984 110992 111000 111008 111016 111024 111032 111040 111048 111056 111064 111072 111080 111088 111096 111104 111112 111120 111128 111136 111144 111152 111160 111168 111176 111184 111192 111200 111208 111216 111224 111232 111240 111248 111256 111264 111272 111280 111288 111296 111304 111312 111320 111328 111336 111344 111352 111360 111368 111376 111384 111392 111400 111408 111416 111424 111432 111440 111448 111456 111464 111472 111480 111488 111496 111504 111512 111520 111528 111536 111544 111552 111560 111568 111576 111584 111592 111600 111608 111616 111624 111632 111640 111648 111656 111664 111672 111680 111688 111696 111704 111712 111720 111728 111736 111744 111752 111760 111768 111776 111784 111792 111800 111808 111816 111824 111832 111840 111848 111856 111864 111872 111880 111888 111896 111904 111912 111920 111928 111936 111944 111952 111960 111968 111976 111984 111992 112000 112008 112016 112024 112032 112040 112048 112056 112064 112072 112080 112088 112096 112104 112112 112120 112128 112136 112144 112152 112160 112168 112176 112184 112192 112200 112208 112216 112224 112232 112240 112248 112256 112264 112272 112280 112288 112296 112304 112312 112320 112328 112336 112344 112352 112360 112368 112376 112384 112392 112400 112408 112416 112424 112432 112440 112448 112456 112464 112472 112480 112488 112496 112504 112512 112520 112528 112536 112544 112552 112560 112568 112576 112584 112592 112600 112608 112616 112624 112632 112640 112648 112656 112664 112672 112680 112688 112696 112704 112712 112720 112728 112736 112744 112752 112760 112768 112776 112784 112792 112800 112808 112816 112824 112832 112840 112848 112856 112864 112872 112880 112888 112896 112904 112912 112920 112928 112936 112944 112952 112960 112968 112976 112984 112992 113000 113008 113016 113024 113032 113040 113048 113056 113064 113072 113080 113088 113096 113104 113112 113120 113128 113136 113144 113152 113160 113168 113176 113184 113192 113200 113208 113216 113224 113232 113240 113248 113256 113264 113272 113280 113288 113296 113304 113312 113320 113328 113336 113344 113352 113360 113368 113376 113384 113392 113400 113408 113416 113424 113432 113440 113448 113456 113464 113472 113480 113488 113496 113504 113512 113520 113528 113536 113544 113552 113560 113568 113576 113584 113592 113600 113608 113616 113624 113632 113640 113648 113656 113664 113672 113680 113688 113696 113704 113712 113720 113728 113736 113744 113752 113760 113768 113776 113784 113792 113800 113808 113816 113824 113832 113840 113848 113856 113864 113872 113880 113888 113896 113904 113912 113920 113928 113936 113944 113952 113960 113968 113976 113984 113992 114000 114008 114016 114024 114032 114040 114048 114056 114064 114072 114080 114088 114096 114104 114112 114120 114128 114136 114144 114152 114160 114168 114176 114184 114192 114200 114208 114216 114224 114232 114240 114248 114256 114264 114272 114280 114288 114296 114304 114312 114320 114328 114336 114344 114352 114360 114368 114376 114384 114392 114400 114408 114416 114424 114432 114440 114448 114456 114464 114472 114480 114488 114496 114504 114512 114520 114528 114536 114544 114552 114560 114568 114576 114584 114592 114600 114608 114616 114624 114632 114640 114648 114656 114664 114672 114680 114688 114696 114704 114712 114720 114728 114736 114744 114752 114760 114768 114776 114784 114792 114800 114808 114816 114824 114832 114840 114848 114856 114864 114872 114880 114888 114896 114904 114912 114920 114928 114936 114944 114952 114960 114968 114976 114984 114992 115000 115008 115016 115024 115032 115040 115048 115056 115064 115072 115080 115088 115096 115104 115112 115120 115128 115136 115144 115152 115160 115168 115176 115184 115192 115200 115208 115216 115224 115232 115240 115248 115256 115264 115272 115280 115288 115296 115304 115312 115320 115328 115336 115344 115352 115360 115368 115376 115384 115392 115400 115408 115416 115424 115432 115440 115448 115456 115464 115472 115480 115488 115496 115504 115512 115520 115528 115536 115544 115552 115560 115568 115576 115584 115592 115600 115608 115616 115624 115632 115640 115648 115656 115664 115672 115680 115688 115696 115704 115712 115720 115728 115736 115744 115752 115760 115768 115776 115784 115792 115800 115808 115816 115824 115832 115840 115848 115856 115864 115872 115880 115888 115896 115904 115912 115920 115928 115936 115944 115952 115960 115968 115976 115984 115992 116000 116008 116016 116024 116032 116040 116048 116056 116064 116072 116080 116088 116096 116104 116112 116120 116128 116136 116144 116152 116160 116168 116176 116184 116192 116200 116208 116216 116224 116232 116240 116248 116256 116264 116272 116280 116288 116296 116304 116312 116320 116328 116336 116344 116352 116360 116368 116376 116384 116392 116400 116408 116416 116424 116432 116440 116448 116456 116464 116472 116480 116488 116496 116504 116512 116520 116528 116536 116544 116552 116560 116568 116576 116584 116592 116600 116608 116616 116624 116632 116640 116648 116656 116664 116672 116680 116688 116696 116704 116712 116720 116728 116736 116744 116752 116760 116768 116776 116784 116792 116800 116808 116816 116824 116832 116840 116848 116856 116864 116872 116880 116888 116896 116904 116912 116920 116928 116936 116944 116952 116960 116968 116976 116984 116992 117000 117008 117016 117024 117032 117040 117048 117056 117064 117072 117080 117088 117096 117104 117112 117120 117128 117136 117144 117152 117160 117168 117176 117184 117192 117200 117208 117216 117224 117232 117240 117248 117256 117264 117272 117280 117288 117296 117304 117312 117320 117328 117336 117344 117352 117360 117368 117376 117384 117392 117400 117408 117416 117424 117432 117440 117448 117456 117464 117472 117480 117488 117496 117504 117512 117520 117528 117536 117544 117552 117560 117568 117576 117584 117592 117600 117608 117616 117624 117632 117640 117648 117656 117664 117672 117680 117688 117696 117704 117712 117720 117728 117736 117744 117752 117760 117768 117776 117784 117792 117800 117808 117816 117824 117832 117840 117848 117856 117864 117872 117880 117888 117896 117904 117912 117920 117928 117936 117944 117952 117960 117968 117976 117984 117992 118000 118008 118016 118024 118032 118040 118048 118056 118064 118072 118080 118088 118096 118104 118112 118120 118128 118136 118144 118152 118160 118168 118176 118184 118192 118200 118208 118216 118224 118232 118240 118248 118256 118264 118272 118280 118288 118296 118304 118312 118320 118328 118336 118344 118352 118360 118368 118376 118384 118392 118400 118408 118416 118424 118432 118440 118448 118456 118464 118472 118480 118488 118496 118504 118512 118520 118528 118536 118544 118552 118560 118568 118576 118584 118592 118600 118608 118616 118624 118632 118640 118648 118656 118664 118672 118680 118688 118696 118704 118712 118720 118728 118736 118744 118752 118760 118768 118776 118784 118792 118800 118808 118816 118824 118832 118840 118848 118856 118864 118872 118880 118888 118896 118904 118912 118920 118928 118936 118944 118952 118960 118968 118976 118984 118992 119000 119008 119016 119024 119032 119040 119048 119056 119064 119072 119080 119088 119096 119104 119112 119120 119128 119136 119144 119152 119160 119168 119176 119184 119192 119200 119208 119216 119224 119232 119240 119248 119256 119264 119272 119280 119288 119296 119304 119312 119320 119328 119336 119344 119352 119360 119368 119376 119384 119392 119400 119408 119416 119424 119432 119440 119448 119456 119464 119472 119480 119488 119496 119504 119512 119520 119528 119536 119544 119552 119560 119568 119576 119584 119592 119600 119608 119616 119624 119632 119640 119648 119656 119664 119672 119680 119688 119696 119704 119712 119720 119728 119736 119744 119752 119760 119768 119776 119784 119792 119800 119808 119816 119824 119832 119840 119848 119856 119864 119872 119880 119888 119896 119904 119912 119920 119928 119936 119944 119952 119960 119968 119976 119984 119992 120000 120008 120016 120024 120032 120040 120048 120056 120064 120072 120080 120088 120096 120104 120112 120120 120128 120136 120144 120152 120160 120168 120176 120184 120192 120200 120208 120216 120224 120232 120240 120248 120256 120264 120272 120280 120288 120296 120304 120312 120320 120328 120336 120344 120352 120360 120368 120376 120384 120392 120400 120408 120416 120424 120432 120440 120448 120456 120464 120472 120480 120488 120496 120504 120512 120520 120528 120536 120544 120552 120560 120568 120576 120584 120592 120600 120608 120616 120624 120632 120640 120648 120656 120664 120672 120680 120688 120696 120704 120712 120720 120728 120736 120744 120752 120760 120768 120776 120784 120792 120800 120808 120816 120824 120832 120840 120848 120856 120864 120872 120880 120888 120896 120904 120912 120920 120928 120936 120944 120952 120960 120968 120976 120984 120992 121000 121008 121016 121024 121032 121040 121048 121056 121064 121072 121080 121088 121096 121104 121112 121120 121128 121136 121144 121152 121160 121168 121176 121184 121192 121200 121208 121216 121224 121232 121240 121248 121256 121264 121272 121280 121288 121296 121304 121312 121320 121328 121336 121344 121352 121360 121368 121376 121384 121392 121400 121408 121416 121424 121432 121440 121448 121456 121464 121472 121480 121488 121496 121504 121512 121520 121528 121536 121544 121552 121560 121568 121576 121584 121592 121600 121608 121616 121624 121632 121640 121648 121656 121664 121672 121680 121688 121696 121704 121712 121720 121728 121736 121744 121752 121760 121768 121776 121784 121792 121800 121808 121816 121824 121832 121840 121848 121856 121864 121872 121880 121888 121896 121904 121912 121920 121928 121936 121944 121952 121960 121968 121976 121984 121992 122000 122008 122016 122024 122032 122040 122048 122056 122064 122072 122080 122088 122096 122104 122112 122120 122128 122136 122144 122152 122160 122168 122176 122184 122192 122200 122208 122216 122224 122232 122240 122248 122256 122264 122272 122280 122288 122296 122304 122312 122320 122328 122336 122344 122352 122360 122368 122376 122384 122392 122400 122408 122416 122424 122432 122440 122448 122456 122464 122472 122480 122488 122496 122504 122512 122520 122528 122536 122544 122552 122560 122568 122576 122584 122592 122600 122608 122616 122624 122632 122640 122648 122656 122664 122672 122680 122688 122696 122704 122712 122720 122728 122736 122744 122752 122760 122768 122776 122784 122792 122800 122808 122816 122824 122832 122840 122848 122856 122864 122872 122880 122888 122896 122904 122912 122920 122928 122936 122944 122952 122960 122968 122976 122984 122992 123000 123008 123016 123024 123032 123040 123048 123056 123064 123072 123080 123088 123096 123104 123112 123120 123128 123136 123144 123152 123160 123168 123176 123184 123192 123200 123208 123216 123224 123232 123240 123248 123256 123264 123272 123280 123288 123296 123304 123312 123320 123328 123336 123344 123352 123360 123368 123376 123384 123392 123400 123408 123416 123424 123432 123440 123448 123456 123464 123472 123480 123488 123496 123504 123512 123520 123528 123536 123544 123552 123560 123568 123576 123584 123592 123600 123608 123616 123624 123632 123640 123648 123656 123664 123672 123680 123688 123696 123704 123712 123720 123728 123736 123744 123752 123760 123768 123776 123784 123792 123800 123808 123816 123824 123832 123840 123848 123856 123864 123872 123880 123888 123896 123904 123912 123920 123928 123936 123944 123952 123960 123968 123976 123984 123992 124000 124008 124016 124024 124032 124040 124048 124056 124064 124072 124080 124088 124096 124104 124112 124120 124128 124136 124144 124152 124160 124168 124176 124184 124192 124200 124208 124216 124224 124232 124240 124248 124256 124264 124272 124280 124288 124296 124304 124312 124320 124328 124336 124344 124352 124360 124368 124376 124384 124392 124400 124408 124416 124424 124432 124440 124448 124456 124464 124472 124480 124488 124496 124504 124512 124520 124528 124536 124544 124552 124560 124568 124576 124584 124592 124600 124608 124616 124624 124632 124640 124648 124656 124664 124672 124680 124688 124696 124704 124712 124720 124728 124736 124744 124752 124760 124768 124776 124784 124792 124800 124808 124816 124824 124832 124840 124848 124856 124864 124872 124880 124888 124896 124904 124912 124920 124928 124936 124944 124952 124960 124968 124976 124984 124992 125000 125008 125016 125024 125032 125040 125048 125056 125064 125072 125080 125088 125096 125104 125112 125120 125128 125136 125144 125152 125160 125168 125176 125184 125192 125200 125208 125216 125224 125232 125240 125248 125256 125264 125272 125280 125288 125296 125304 125312 125320 125328 125336 125344 125352 125360 125368 125376 125384 125392 125400 125408 125416 125424 125432 125440 125448 125456 125464 125472 125480 125488 125496 125504 125512 125520 125528 125536 125544 125552 125560 125568 125576 125584 125592 125600 125608 125616 125624 125632 125640 125648 125656 125664 125672 125680 125688 125696 125704 125712 125720 125728 125736 125744 125752 125760 125768 125776 125784 125792 125800 125808 125816 125824 125832 125840 125848 125856 125864 125872 125880 125888 125896 125904 125912 125920 125928 125936 125944 125952 125960 125968 125976 125984 125992 126000 126008 126016 126024 126032 126040 126048 126056 126064 126072 126080 126088 126096 126104 126112 126120 126128 126136 126144 126152 126160 126168 126176 126184 126192 126200 126208 126216 126224 126232 126240 126248 126256 126264 126272 126280 126288 126296 126304 126312 126320 126328 126336 126344 126352 126360 126368 126376 126384 126392 126400 126408 126416 126424 126432 126440 126448 126456 126464 126472 126480 126488 126496 126504 126512 126520 126528 126536 126544 126552 126560 126568 126576 126584 126592 126600 126608 126616 126624 126632 126640 126648 126656 126664 126672 126680 126688 126696 126704 126712 126720 126728 126736 126744 126752 126760 126768 126776 126784 126792 126800 126808 126816 126824 126832 126840 126848 126856 126864 126872 126880 126888 126896 126904 126912 126920 126928 126936 126944 126952 126960 126968 126976 126984 126992 127000 127008 127016 127024 127032 127040 127048 127056 127064 127072 127080 127088 127096 127104 127112 127120 127128 127136 127144 127152 127160 127168 127176 127184 127192 127200 127208 127216 127224 127232 127240 127248 127256 127264 127272 127280 127288 127296 127304 127312 127320 127328 127336 127344 127352 127360 127368 127376 127384 127392 127400 127408 127416 127424 127432 127440 127448 127456 127464 127472 127480 127488 127496 127504 127512 127520 127528 127536 127544 127552 127560 127568 127576 127584 127592 127600 127608 127616 127624 127632 127640 127648 127656 127664 127672 127680 127688 127696 127704 127712 127720 127728 127736 127744 127752 127760 127768 127776 127784 127792 127800 127808 127816 127824 127832 127840 127848 127856 127864 127872 127880 127888 127896 127904 127912 127920 127928 127936 127944 127952 127960 127968 127976 127984 127992 128000 128008 128016 128024 128032 128040 128048 128056 128064 128072 128080 128088 128096 128104 128112 128120 128128 128136 128144 128152 128160 128168 128176 128184 128192 128200 128208 128216 128224 128232 128240 128248 128256 128264 128272 128280 128288 128296 128304 128312 128320 128328 128336 128344 128352 128360 128368 128376 128384 128392 128400 128408 128416 128424 128432 128440 128448 128456 128464 128472 128480 128488 128496 128504 128512 128520 128528 128536 128544 128552 128560 128568 128576 128584 128592 128600 128608 128616 128624 128632 128640 128648 128656 128664 128672 128680 128688 128696 128704 128712 128720 128728 128736 128744 128752 128760 128768 128776 128784 128792 128800 128808 128816 128824 128832 128840 128848 128856 128864 128872 128880 128888 128896 128904 128912 128920 128928 128936 128944 128952 128960 128968 128976 128984 128992 129000 129008 129016 129024 129032 129040 129048 129056 129064 129072 129080 129088 129096 129104 129112 129120 129128 129136 129144 129152 129160 129168 129176 129184 129192 129200 129208 129216 129224 129232 129240 129248 129256 129264 129272 129280 129288 129296 129304 129312 129320 129328 129336 129344 129352 129360 129368 129376 129384 129392 129400 129408 129416 129424 129432 129440 129448 129456 129464 129472 129480 129488 129496 129504 129512 129520 129528 129536 129544 129552 129560 129568 129576 129584 129592 129600 129608 129616 129624 129632 129640 129648 129656 129664 129672 129680 129688 129696 129704 129712 129720 129728 129736 129744 129752 129760 129768 129776 129784 129792 129800 129808 129816 129824 129832 129840 129848 129856 129864 129872 129880 129888 129896 129904 129912 129920 129928 129936 129944 129952 129960 129968 129976 129984 129992 130000 130008 130016 130024 130032 130040 130048 130056 130064 130072 130080 130088 130096 130104 130112 130120 130128 130136 130144 130152 130160 130168 130176 130184 130192 130200 130208 130216 130224 130232 130240 130248 130256 130264 130272 130280 130288 130296 130304 130312 130320 130328 130336 130344 130352 130360 130368 130376 130384 130392 130400 130408 130416 130424 130432 130440 130448 130456 130464 130472 130480 130488 130496 130504 130512 130520 130528 130536 130544 130552 130560 130568 130576 130584 130592 130600 130608 130616 130624 130632 130640 130648 130656 130664 130672 130680 130688 130696 130704 130712 130720 130728 130736 130744 130752 130760 130768 130776 130784 130792 130800 130808 130816 130824 130832 130840 130848 130856 130864 130872 130880 130888 130896 130904 130912 130920 130928 130936 130944 130952 130960 130968 130976 130984 130992 131000 131008 131016 131024 131032 131040 131048 131056 131064 131072 
CONNECTIVITY vtktypeint64
0 1 1106 1105 65 66 1171 1170 
1 2 1107 1106 66 67 1172 1171 
2 3 1108 1107 67 68 1173 1172 
3 4 1109 1108 68 69 1174 1173 
4 5 1110 1109 69 70 1175 1174 
5 6 1111 1110 70 71 1176 1175 
6 7 1112 1111 71 72 1177 1176 
7 8 1113 1112 72 73 1178 1177 
8 9 1114 1113 73 74 1179 1178 
9 10 1115 1114 74 75 1180 1179 
10 11 1116 1115 75 76 1181 1180 
11 12 1117 1116 76 77 1182 1181 
12 13 1118 1117 77 78 1183 1182 
13 14 1119 1118 78 79 1184 1183 
14 15 1120 1119 79 80 1185 1184 
15 16 1121 1120 80 81 1186 1185 
16 17 1122 1121 81 82 1187 1186 
17 18 1123 1122 82 83 1188 1187 
18 19 1124 1123 83 84 1189 1188 
19 20 1125 1124 84 85 1190 1189 
20 21 1126 1125 85 86 1191 1190 
21 22 1127 1126 86 87 1192 1191 
22 23 1128 1127 87 88 1193 1192 
23 24 1129 1128 88 89 1194 1193 
24 25 1130 1129 89 90 1195 1194 
25 26 1131 1130 90 91 1196 1195 
26 27 1132 1131 91 92 1197 1196 
27 28 1133 1132 92 93 1198 1197 
28 29 1134 1133 93 94 1199 1198 
29 30 1135 1134 94 95 1200 1199 
30 31 1136 1135 95 96 1201 1200 
31 32 1137 1136 96 97 1202 1201 
32 33 1138 1137 97 98 1203 1202 
33 34 1139 1138 98 99 1204 1203 
34 35 1140 1139 99 100 1205 1204 
35 36 1141 1140 100 101 1206 1205 
36 37 1142 1141 101 102 1207 1206 
37 38 1143 1142 102 103 1208 1207 
38 39 1144 1143 103 104 1209 1208 
39 40 1145 1144 104 105 1210 1209 
40 41 1146 1145 105 106 1211 1210 
41 42 1147 1146 106 107 1212 1211 
42 43 1148 1147 107 108 1213 1212 
43 44 1149 1148 108 109 1214 1213 
44 45 1150 1149 109 110 1215 1214 
45 46 1151 1150 110 111 1216 1215 
46 47 1152 1151 111 112 1217 1216 
47 48 1153 1152 112 113 1218 1217 
48 49 1154 1153 113 114 1219 1218 
49 50 1155 1154 114 115 1220 1219 
50 51 1156 1155 115 116 1221 1220 
51 52 1157 1156 116 117 1222 1221 
52 53 1158 1157 117 118 1223 1222 
53 54 1159 1158 118 119 1224 1223 
54 55 1160 1159 119 120 1225 1224 
55 56 1161 1160 120 121 1226 1225 
56 57 1162 1161 121 122 1227 1226 
57 58 1163 1162 122 123 1228 1227 
58 59 1164 1163 123 124 1229 1228 
59 60 1165 1164 124 125 1230 1229 
60 61 1166 1165 125 126 1231 1230 
61 62 1167 1166 126 127 1232 1231 
62 63 1168 1167 127 128 1233 1232 
63 64 1169 1168 128 129 1234 1233 
65 66 1171 1170 130 131 1236 1235 
66 67 1172 1171 131 132 1237 1236 
67 68 1173 1172 132 133 1238 1237 
68 69 1174 1173 133 134 1239 1238 
69 70 1175 1174 134 135 1240 1239 
70 71 1176 1175 135 136 1241 1240 
71 72 1177 1176 136 137 1242 1241 
72 73 1178 1177 137 138 1243 1242 
73 74 1179 1178 138 139 1244 1243 
74 75 1180 1179 139 140 1245 1244 
75 76 1181 1180 140 141 1246 1245 
76 77 1182 1181 141 142 1247 1246 
77 78 1183 1182 142 143 1248 1247 
78 79 1184 1183 143 144 1249 1248 
79 80 1185 1184 144 145 1250 1249 
80 81 1186 1185 145 146 1251 1250 
81 82 1187 1186 146 147 1252 1251 
82 83 1188 1187 147 148 1253 1252 
83 84 1189 1188 148 149 1254 1253 
84 85 1190 1189 149 150 1255 1254 
85 86 1191 1190 150 151 1256 1255 
86 87 1192 1191 151 152 1257 1256 
87 88 1193 1192 152 153 1258 1257 
88 89 1194 1193 153 154 1259 1258 
89 90 1195 1194 154 155 1260 1259 
90 91 1196 1195 155 156 1261 1260 
91 92 1197 1196 156 157 1262 1261 
92 93 1198 1197 157 158 1263 1262 
93 94 1199 1198 158 159 1264 1263 
94 95 1200 1199 159 160 1265 1264 
95 96 1201 1200 160 161 1266 1265 
96 97 1202 1201 161 162 1267 1266 
97 98 1203 1202 162 163 1268 1267 
98 99 1204 1203 163 164 1269 1268 
99 100 1205 1204 164 165 1270 1269 
100 101 1206 1205 165 166 1271 1270 
101 102 1207 1206 166 167 1272 1271 
102 103 1208 1207 167 168 1273 1272 
103 104 1209 1208 168 169 1274 1273 
104 105 1210 1209 169 170 1275 1274 
105 106 1211 1210 170 171 1276 1275 
106 107 1212 1211 171 172 1277 1276 
107 108 1213 1212 172 173 1278 1277 
108 109 1214 1213 173 174 1279 1278 
109 110 1215 1214 174 175 1280 1279 
110 111 1216 1215 175 176 1281 1280 
111 112 1217 1216 176 177 1282 1281 
112 113 1218 1217 177 178 1283 1282 
113 114 1219 1218 178 179 1284 1283 
114 115 1220 1219 179 180 1285 1284 
115 116 1221 1220 180 181 1286 1285 
116 117 1222 1221 181 182 1287 1286 
117 118 1223 1222 182 183 1288 1287 
118 119 1224 1223 183 184 1289 1288 
119 120 1225 1224 184 185 1290 1289 
120 121 1226 1225 185 186 1291 1290 
121 122 1227 1226 186 187 1292 1291 
122 123 1228 1227 187 188 1293 1292 
123 124 1229 1228 188 189 1294 1293 
124 125 1230 1229 189 190 1295 1294 
125 126 1231 1230 190 191 1296 1295 
126 127 1232 1231 191 192 1297 1296 
127 128 1233 1232 192 193 1298 1297 
128 129 1234 1233 193 194 1299 1298 
130 131 1236 1235 195 196 1301 1300 
131 132 1237 1236 196 197 1302 1301 
132 133 1238 1237 197 198 1303 1302 
133 134 1239 1238 198 199 1304 1303 
134 135 1240 1239 199 200 1305 1304 
135 136 1241 1240 200 201 1306 1305 
136 137 1242 1241 201 202 1307 1306 
137 138 1243 1242 202 203 1308 1307 
138 139 1244 1243 203 204 1309 1308 
139 140 1245 1244 204 205 1310 1309 
140 141 1246 1245 205 206 1311 1310 
141 142 1247 1246 206 207 1312 1311 
142 143 1248 1247 207 208 1313 1312 
143 144 1249 1248 208 209 1314 1313 
144 145 1250 1249 209 210 1315 1314 
145 146 1251 1250 210 211 1316 1315 
146 147 1252 1251 211 212 1317 1316 
147 148 1253 1252 212 213 1318 1317 
148 149 1254 1253 213 214 1319 1318 
149 150 1255 1254 214 215 1320 1319 
150 151 1256 1255 215 216 1321 1320 
151 152 1257 1256 216 217 1322 1321 
152 153 1258 1257 217 218 1323 1322 
153 154 1259 1258 218 219 1324 1323 
154 155 1260 1259 219 220 1325 1324 
155 156 1261 1260 220 221 1326 1325 
156 157 1262 1261 221 222 1327 1326 
157 158 1263 1262 222 223 1328 1327 
158 159 1264 1263 223 224 1329 1328 
159 160 1265 1264 224 225 1330 1329 
160 161 1266 1265 225 226 1331 1330 
161 162 1267 1266 226 227 1332 1331 
162 163 1268 1267 227 228 1333 1332 
163 164 1269 1268 228 229 1334 1333 
164 165 1270 1269 229 230 1335 1334 
165 166 1271 1270 230 231 1336 1335 
166 167 1272 1271 231 232 1337 1336 
167 168 1273 1272 232 233 1338 1337 
168 169 1274 1273 233 234 1339 1338 
169 170 1275 1274 234 235 1340 1339 
170 171 1276 1275 235 236 1341 1340 
171 172 1277 1276 236 237 1342 1341 
172 173 1278 1277 237 238 1343 1342 
173 174 1279 1278 238 239 1344 1343 
174 175 1280 1279 239 240 1345 1344 
175 176 1281 1280 240 241 1346 1345 
176 177 1282 1281 241 242 1347 1346 
177 178 1283 1282 242 243 1348 1347 
178 179 1284 1283 243 244 1349 1348 
179 180 1285 1284 244 245 1350 1349 
180 181 1286 1285 245 246 1351 1350 
181 182 1287 1286 246 247 1352 1351 
182 183 1288 1287 247 248 1353 1352 
183 184 1289 1288 248 249 1354 1353 
184 185 1290 1289 249 250 1355 1354 
185 186 1291 1290 250 251 1356 1355 
186 187 1292 1291 251 252 1357 1356 
187 188 1293 1292 252 253 1358 1357 
188 189 1294 1293 253 254 1359 1358 
189 190 1295 1294 254 255 1360 1359 
190 191 1296 1295 255 256 1361 1360 
191 192 1297 1296 256 257 1362 1361 
192 193 1298 1297 257 258 1363 1362 
193 194 1299 1298 258 259 1364 1363 
195 196 1301 1300 260 261 1366 1365 
196 197 1302 1301 261 262 1367 1366 
197 198 1303 1302 262 263 1368 1367 
198 199 1304 1303 263 264 1369 1368 
199 200 1305 1304 264 265 1370 1369 
200 201 1306 1305 265 266 1371 1370 
201 202 1307 1306 266 267 1372 1371 
202 203 1308 1307 267 268 1373 1372 
203 204 1309 1308 268 269 1374 1373 
204 205 1310 1309 269 270 1375 1374 
205 206 1311 1310 270 271 1376 1375 
206 207 1312 1311 271 272 1377 1376 
207 208 1313 1312 272 273 1378 1377 
208 209 1314 1313 273 274 1379 1378 
209 210 1315 1314 274 275 1380 1379 
210 211 1316 1315 275 276 1381 1380 
211 212 1317 1316 276 277 1382 1381 
212 213 1318 1317 277 278 1383 1382 
213 214 1319 1318 278 279 1384 1383 
214 215 1320 1319 279 280 1385 1384 
215 216 1321 1320 280 281 1386 1385 
216 217 1322 1321 281 282 1387 1386 
217 218 1323 1322 282 283 1388 1387 
218 219 1324 1323 283 284 1389 1388 
219 220 1325 1324 284 285 1390 1389 
220 221 1326 1325 285 286 1391 1390 
221 222 1327 1326 286 287 1392 1391 
222 223 1328 1327 287 288 1393 1392 
223 224 1329 1328 288 289 1394 1393 
224 225 1330 1329 289 290 1395 1394 
225 226 1331 1330 290 291 1396 1395 
226 227 1332 1331 291 292 1397 1396 
227 228 1333 1332 292 293 1398 1397 
228 229 1334 1333 293 294 1399 1398 
229 230 1335 1334 294 295 1400 1399 
230 231 1336 1335 295 296 1401 1400 
231 232 1337 1336 296 297 1402 1401 
232 233 1338 1337 297 298 1403 1402 
233 234 1339 1338 298 299 1404 1403 
234 235 1340 1339 299 300 1405 1404 
235 236 1341 1340 300 301 1406 1405 
236 237 1342 1341 301 302 1407 1406 
237 238 1343 1342 302 303 1408 1407 
238 239 1344 1343 303 304 1409 1408 
239 240 1345 1344 304 305 1410 1409 
240 241 1346 1345 305 306 1411 1410 
241 242 1347 1346 306 307 1412 1411 
242 243 1348 1347 307 308 1413 1412 
243 244 1349 1348 308 309 1414 1413 
244 245 1350 1349 309 310 1415 1414 
245 246 1351 1350 310 311 1416 1415 
246 247 1352 1351 311 312 1417 1416 
247 248 1353 1352 312 313 1418 1417 
248 249 1354 1353 313 314 1419 1418 
249 250 1355 1354 314 315 1420 1419 
250 251 1356 1355 315 316 1421 1420 
251 252 1357 1356 316 317 1422 1421 
252 253 1358 1357 317 318 1423 1422 
253 254 1359 1358 318 319 1424 1423 
254 255 1360 1359 319 320 1425 1424 
255 256 1361 1360 320 321 1426 1425 
256 257 1362 1361 321 322 1427 1426 
257 258 1363 1362 322 323 1428 1427 
258 259 1364 1363 323 324 1429 1428 
260 261 1366 1365 325 326 1431 1430 
261 262 1367 1366 326 327 1432 1431 
262 263 1368 1367 327 328 1433 1432 
263 264 1369 1368 328 329 1434 1433 
264 265 1370 1369 329 330 1435 1434 
265 266 1371 1370 330 331 1436 1435 
266 267 1372 1371 331 332 1437 1436 
267 268 1373 1372 332 333 1438 1437 
268 269 1374 1373 333 334 1439 1438 
269 270 1375 1374 334 335 1440 1439 
270 271 1376 1375 335 336 1441 1440 
271 272 1377 1376 336 337 1442 1441 
272 273 1378 1377 337 338 1443 1442 
273 274 1379 1378 338 339 1444 1443 
274 275 1380 1379 339 340 1445 1444 
275 276 1381 1380 340 341 1446 1445 
276 277 1382 1381 341 342 1447 1446 
277 278 1383 1382 342 343 1448 1447 
278 279 1384 1383 343 344 1449 1448 
279 280 1385 1384 344 345 1450 1449 
280 281 1386 1385 345 346 1451 1450 
281 282 1387 1386 346 347 1452 1451 
282 283 1388 1387 347 348 1453 1452 
283 284 1389 1388 348 349 1454 1453 
284 285 1390 1389 349 350 1455 1454 
285 286 1391 1390 350 351 1456 1455 
286 287 1392 1391 351 352 1457 1456 
287 288 1393 1392 352 353 1458 1457 
288 289 1394 1393 353 354 1459 1458 
289 290 1395 1394 354 355 1460 1459 
290 291 1396 1395 355 356 1461 1460 
291 292 1397 1396 356 357 1462 1461 
292 293 1398 1397 357 358 1463 1462 
293 294 1399 1398 358 359 1464 1463 
294 295 1400 1399 359 360 1465 1464 
295 296 1401 1400 360 361 1466 1465 
296 297 1402 1401 361 362 1467 1466 
297 298 1403 1402 362 363 1468 1467 
298 299 1404 1403 363 364 1469 1468 
299 300 1405 1404 364 365 1470 1469 
300 301 1406 1405 365 366 1471 1470 
301 302 1407 1406 366 367 1472 1471 
302 303 1408 1407 367 368 1473 1472 
303 304 1409 1408 368 369 1474 1473 
304 305 1410 1409 369 370 1475 1474 
305 306 1411 1410 370 371 1476 1475 
306 307 1412 1411 371 372 1477 1476 
307 308 1413 1412 372 373 1478 1477 
308 309 1414 1413 373 374 1479 1478 
309 310 1415 1414 374 375 1480 1479 
310 311 1416 1415 375 376 1481 1480 
311 312 1417 1416 376 377 1482 1481 
312 313 1418 1417 377 378 1483 1482 
313 314 1419 1418 378 379 1484 1483 
314 315 1420 1419 379 380 1485 1484 
315 316 1421 1420 380 381 1486 1485 
316 317 1422 1421 381 382 1487 1486 
317 318 1423 1422 382 383 1488 1487 
318 319 1424 1423 383 384 1489 1488 
319 320 1425 1424 384 385 1490 1489 
320 321 1426 1425 385 386 1491 1490 
321 322 1427 1426 386 387 1492 1491 
322 323 1428 1427 387 388 1493 1492 
323 324 1429 1428 388 389 1494 1493 
325 326 1431 1430 390 391 1496 1495 
326 327 1432 1431 391 392 1497 1496 
327 328 1433 1432 392 393 1498 1497 
328 329 1434 1433 393 394 1499 1498 
329 330 1435 1434 394 395 1500 1499 
330 331 1436 1435 395 396 1501 1500 
331 332 1437 1436 396 397 1502 1501 
332 333 1438 1437 397 398 1503 1502 
333 334 1439 1438 398 399 1504 1503 
334 335 1440 1439 399 400 1505 1504 
335 336 1441 1440 400 401 1506 1505 
336 337 1442 1441 401 402 1507 1506 
337 338 1443 1442 402 403 1508 1507 
338 339 1444 1443 403 404 1509 1508 
339 340 1445 1444 404 405 1510 1509 
340 341 1446 1445 405 406 1511 1510 
341 342 1447 1446 406 407 1512 1511 
342 343 1448 1447 407 408 1513 1512 
343 344 1449 1448 408 409 1514 1513 
344 345 1450 1449 409 410 1515 1514 
345 346 1451 1450 410 411 1516 1515 
346 347 1452 1451 411 412 1517 1516 
347 348 1453 1452 412 413 1518 1517 
348 349 1454 1453 413 414 1519 1518 
349 350 1455 1454 414 415 1520 1519 
350 351 1456 1455 415 416 1521 1520 
351 352 1457 1456 416 417 1522 1521 
352 353 1458 1457 417 418 1523 1522 
353 354 1459 1458 418 419 1524 1523 
354 355 1460 1459 419 420 1525 1524 
355 356 1461 1460 420 421 1526 1525 
356 357 1462 1461 421 422 1527 1526 
357 358 1463 1462 422 423 1528 1527 
358 359 1464 1463 423 424 1529 1528 
359 360 1465 1464 424 425 1530 1529 
360 361 1466 1465 425 426 1531 1530 
361 362 1467 1466 426 427 1532 1531 
362 363 1468 1467 427 428 1533 1532 
363 364 1469 1468 428 429 1534 1533 
364 365 1470 1469 429 430 1535 1534 
365 366 1471 1470 430 431 1536 1535 
366 367 1472 1471 431 432 1537 1536 
367 368 1473 1472 432 433 1538 1537 
368 369 1474 1473 433 434 1539 1538 
369 370 1475 1474 434 435 1540 1539 
370 371 1476 1475 435 436 1541 1540 
371 372 1477 1476 436 437 1542 1541 
372 373 1478 1477 437 438 1543 1542 
373 374 1479 1478 438 439 1544 1543 
374 375 1480 1479 439 440 1545 1544 
375 376 1481 1480 440 441 1546 1545 
376 377 1482 1481 441 442 1547 1546 
377 378 1483 1482 442 443 1548 1547 
378 379 1484 1483 443 444 1549 1548 
379 380 1485 1484 444 445 1550 1549 
380 381 1486 1485 445 446 1551 1550 
381 382 1487 1486 446 447 1552 1551 
382 383 1488 1487 447 448 1553 1552 
383 384 1489 1488 448 449 1554 1553 
384 385 1490 1489 449 450 1555 1554 
385 386 1491 1490 450 451 1556 1555 
386 387 1492 1491 451 452 1557 1556 
387 388 1493 1492 452 453 1558 1557 
388 389 1494 1493 453 454 1559 1558 
390 391 1496 1495 455 456 1561 1560 
391 392 1497 1496 456 457 1562 1561 
392 393 1498 1497 457 458 1563 1562 
393 394 1499 1498 458 459 1564 1563 
394 395 1500 1499 459 460 1565 1564 
395 396 1501 1500 460 461 1566 1565 
396 397 1502 1501 461 462 1567 1566 
397 398 1503 1502 462 463 1568 1567 
398 399 1504 1503 463 464 1569 1568 
399 400 1505 1504 464 465 1570 1569 
400 401 1506 1505 465 466 1571 1570 
401 402 1507 1506 466 467 1572 1571 
402 403 1508 1507 467 468 1573 1572 
403 404 1509 1508 468 469 1574 1573 
404 405 1510 1509 469 470 1575 1574 
405 406 1511 1510 470 471 1576 1575 
406 407 1512 1511 471 472 1577 1576 
407 408 1513 1512 472 473 1578 1577 
408 409 1514 1513 473 474 1579 1578 
409 410 1515 1514 474 475 1580 1579 
410 411 1516 1515 475 476 1581 1580 
411 412 1517 1516 476 477 1582 1581 
412 413 1518 1517 477 478 1583 1582 
413 414 1519 1518 478 479 1584 1583 
414 415 1520 1519 479 480 1585 1584 
415 416 1521 1520 480 481 1586 1585 
416 417 1522 1521 481 482 1587 1586 
417 418 1523 1522 482 483 1588 1587 
418 419 1524 1523 483 484 1589 1588 
419 420 1525 1524 484 485 1590 1589 
420 421 1526 1525 485 486 1591 1590 
421 422 1527 1526 486 487 1592 1591 
422 423 1528 1527 487 488 1593 1592 
423 424 1529 1528 488 489 1594 1593 
424 425 1530 1529 489 490 1595 1594 
425 426 1531 1530 490 491 1596 1595 
426 427 1532 1531 491 492 1597 1596 
427 428 1533 1532 492 493 1598 1597 
428 429 1534 1533 493 494 1599 1598 
429 430 1535 1534 494 495 1600 1599 
430 431 1536 1535 495 496 1601 1600 
431 432 1537 1536 496 497 1602 1601 
432 433 1538 1537 497 498 1603 1602 
433 434 1539 1538 498 499 1604 1603 
434 435 1540 1539 499 500 1605 1604 
435 436 1541 1540 500 501 1606 1605 
436 437 1542 1541 501 502 1607 1606 
437 438 1543 1542 502 503 1608 1607 
438 439 1544 1543 503 504 1609 1608 
439 440 1545 1544 504 505 1610 1609 
440 441 1546 1545 505 506 1611 1610 
441 442 1547 1546 506 507 1612 1611 
442 443 1548 1547 507 508 1613 1612 
443 444 1549 1548 508 509 1614 1613 
444 445 1550 1549 509 510 1615 1614 
445 446 1551 1550 510 511 1616 1615 
446 447 1552 1551 511 512 1617 1616 
447 448 1553 1552 512 513 1618 1617 
448 449 1554 1553 513 514 1619 1618 
449 450 1555 1554 514 515 1620 1619 
450 451 1556 1555 515 516 1621 1620 
451 452 1557 1556 516 517 1622 1621 
452 453 1558 1557 517 518 1623 1622 
453 454 1559 1558 518 519 1624 1623 
455 456 1561 1560 520 521 1626 1625 
456 457 1562 1561 521 522 1627 1626 
457 458 1563 1562 522 523 1628 1627 
458 459 1564 1563 523 524 1629 1628 
459 460 1565 1564 524 525 1630 1629 
460 461 1566 1565 525 526 1631 1630 
461 462 1567 1566 526 527 1632 1631 
462 463 1568 1567 527 528 1633 1632 
463 464 1569 1568 528 529 1634 1633 
464 465 1570 1569 529 530 1635 1634 
465 466 1571 1570 530 531 1636 1635 
466 467 1572 1571 531 532 1637 1636 
467 468 1573 1572 532 533 1638 1637 
468 469 1574 1573 533 534 1639 1638 
469 470 1575 1574 534 535 1640 1639 
470 471 1576 1575 535 536 1641 1640 
471 472 1577 1576 536 537 1642 1641 
472 473 1578 1577 537 538 1643 1642 
473 474 1579 1578 538 539 1644 1643 
474 475 1580 1579 539 540 1645 1644 
475 476 1581 1580 540 541 1646 1645 
476 477 1582 1581 541 542 1647 1646 
477 478 1583 1582 542 543 1648 1647 
478 479 1584 1583 543 544 1649 1648 
479 480 1585 1584 544 545 1650 1649 
480 481 1586 1585 545 546 1651 1650 
481 482 1587 1586 546 547 1652 1651 
482 483 1588 1587 547 548 1653 1652 
483 484 1589 1588 548 549 1654 1653 
484 485 1590 1589 549 550 1655 1654 
485 486 1591 1590 550 551 1656 1655 
486 487 1592 1591 551 552 1657 1656 
487 488 1593 1592 552 553 1658 1657 
488 489 1594 1593 553 554 1659 1658 
489 490 1595 1594 554 555 1660 1659 
490 491 1596 1595 555 556 1661 1660 
491 492 1597 1596 556 557 1662 1661 
492 493 1598 1597 557 558 1663 1662 
493 494 1599 1598 558 559 1664 1663 
494 495 1600 1599 559 560 1665 1664 
495 496 1601 1600 560 561 1666 1665 
496 497 1602 1601 561 562 1667 1666 
497 498 1603 1602 562 563 1668 1667 
498 499 1604 1603 563 564 1669 1668 
499 500 1605 1604 564 565 1670 1669 
500 501 1606 1605 565 566 1671 1670 
501 502 1607 1606 566 567 1672 1671 
502 503 1608 1607 567 568 1673 1672 
503 504 1609 1608 568 569 1674 1673 
504 505 1610 1609 569 570 1675 1674 
505 506 1611 1610 570 571 1676 1675 
506 507 1612 1611 571 572 1677 1676 
507 508 1613 1612 572 573 1678 1677 
508 509 1614 1613 573 574 1679 1678 
509 510 1615 1614 574 575 1680 1679 
510 511 1616 1615 575 576 1681 1680 
511 512 1617 1616 576 577 1682 1681 
512 513 1618 1617 577 578 1683 1682 
513 514 1619 1618 578 579 1684 1683 
514 515 1620 1619 579 580 1685 1684 
515 516 1621 1620 580 581 1686 1685 
516 517 1622 1621 581 582 1687 1686 
517 518 1623 1622 582 583 1688 1687 
518 519 1624 1623 583 584 1689 1688 
520 521 1626 1625 585 586 1691 1690 
521 522 1627 1626 586 587 1692 1691 
522 523 1628 1627 587 588 1693 1692 
523 524 1629 1628 588 589 1694 1693 
524 525 1630 1629 589 590 1695 1694 
525 526 1631 1630 590 591 1696 1695 
526 527 1632 1631 591 592 1697 1696 
527 528 1633 1632 592 593 1698 1697 
528 529 1634 1633 593 594 1699 1698 
529 530 1635 1634 594 595 1700 1699 
530 531 1636 1635 595 596 1701 1700 
531 532 1637 1636 596 597 1702 1701 
532 533 1638 1637 597 598 1703 1702 
533 534 1639 1638 598 599 1704 1703 
534 535 1640 1639 599 600 1705 1704 
535 536 1641 1640 600 601 1706 1705 
536 537 1642 1641 601 602 1707 1706 
537 538 1643 1642 602 603 1708 1707 
538 539 1644 1643 603 604 1709 1708 
539 540 1645 1644 604 605 1710 1709 
540 541 1646 1645 605 606 1711 1710 
541 542 1647 1646 606 607 1712 1711 
542 543 1648 1647 607 608 1713 1712 
543 544 1649 1648 608 609 1714 1713 
544 545 1650 1649 609 610 1715 1714 
545 546 1651 1650 610 611 1716 1715 
546 547 1652 1651 611 612 1717 1716 
547 548 1653 1652 612 613 1718 1717 
548 549 1654 1653 613 614 1719 1718 
549 550 1655 1654 614 615 1720 1719 
550 551 1656 1655 615 616 1721 1720 
551 552 1657 1656 616 617 1722 1721 
552 553 1658 1657 617 618 1723 1722 
553 554 1659 1658 618 619 1724 1723 
554 555 1660 1659 619 620 1725 1724 
555 556 1661 1660 620 621 1726 1725 
556 557 1662 1661 621 622 1727 1726 
557 558 1663 1662 622 623 1728 1727 
558 559 1664 1663 623 624 1729 1728 
559 560 1665 1664 624 625 1730 1729 
560 561 1666 1665 625 626 1731 1730 
561 562 1667 1666 626 627 1732 1731 
562 563 1668 1667 627 628 1733 1732 
563 564 1669 1668 628 629 1734 1733 
564 565 1670 1669 629 630 1735 1734 
565 566 1671 1670 630 631 1736 1735 
566 567 1672 1671 631 632 1737 1736 
567 568 1673 1672 632 633 1738 1737 
568 569 1674 1673 633 634 1739 1738 
569 570 1675 1674 634 635 1740 1739 
570 571 1676 1675 635 636 1741 1740 
571 572 1677 1676 636 637 1742 1741 
572 573 1678 1677 637 638 1743 1742 
573 574 1679 1678 638 639 1744 1743 
574 575 1680 1679 639 640 1745 1744 
575 576 1681 1680 640 641 1746 1745 
576 577 1682 1681 641 642 1747 1746 
577 578 1683 1682 642 643 1748 1747 
578 579 1684 1683 643 644 1749 1748 
579 580 1685 1684 644 645 1750 1749 
580 581 1686 1685 645 646 1751 1750 
581 582 1687 1686 646 647 1752 1751 
582 583 1688 1687 647 648 1753 1752 
583 584 1689 1688 648 649 1754 1753 
585 586 1691 1690 650 651 1756 1755 
586 587 1692 1691 651 652 1757 1756 
587 588 1693 1692 652 653 1758 1757 
588 589 1694 1693 653 654 1759 1758 
589 590 1695 1694 654 655 1760 1759 
590 591 1696 1695 655 656 1761 1760 
591 592 1697 1696 656 657 1762 1761 
592 593 1698 1697 657 658 1763 1762 
593 594 1699 1698 658 659 1764 1763 
594 595 1700 1699 659 660 1765 1764 
595 596 1701 1700 660 661 1766 1765 
596 597 1702 1701 661 662 1767 1766 
597 598 1703 1702 662 663 1768 1767 
598 599 1704 1703 663 664 1769 1768 
599 600 1705 1704 664 665 1770 1769 
600 601 1706 1705 665 666 1771 1770 
601 602 1707 1706 666 667 1772 1771 
602 603 1708 1707 667 668 1773 1772 
603 604 1709 1708 668 669 1774 1773 
604 605 1710 1709 669 670 1775 1774 
605 606 1711 1710 670 671 1776 1775 
606 607 1712 1711 671 672 1777 1776 
607 608 1713 1712 672 673 1778 1777 
608 609 1714 1713 673 674 1779 1778 
609 610 1715 1714 674 675 1780 1779 
610 611 1716 1715 675 676 1781 1780 
611 612 1717 1716 676 677 1782 1781 
612 613 1718 1717 677 678 1783 1782 
613 614 1719 1718 678 679 1784 1783 
614 615 1720 1719 679 680 1785 1784 
615 616 1721 1720 680 681 1786 1785 
616 617 1722 1721 681 682 1787 1786 
617 618 1723 1722 682 683 1788 1787 
618 619 1724 1723 683 684 1789 1788 
619 620 1725 1724 684 685 1790 1789 
620 621 1726 1725 685 686 1791 1790 
621 622 1727 1726 686 687 1792 1791 
622 623 1728 1727 687 688 1793 1792 
623 624 1729 1728 688 689 1794 1793 
624 625 1730 1729 689 690 1795 1794 
625 626 1731 1730 690 691 1796 1795 
626 627 1732 1731 691 692 1797 1796 
627 628 1733 1732 692 693 1798 1797 
628 629 1734 1733 693 694 1799 1798 
629 630 1735 1734 694 695 1800 1799 
630 631 1736 1735 695 696 1801 1800 
631 632 1737 1736 696 697 1802 1801 
632 633 1738 1737 697 698 1803 1802 
633 634 1739 1738 698 699 1804 1803 
634 635 1740 1739 699 700 1805 1804 
635 636 1741 1740 700 701 1806 1805 
636 637 1742 1741 701 702 1807 1806 
637 638 1743 1742 702 703 1808 1807 
638 639 1744 1743 703 704 1809 1808 
639 640 1745 1744 704 705 1810 1809 
640 641 1746 1745 705 706 1811 1810 
641 642 1747 1746 706 707 1812 1811 
642 643 1748 1747 707 708 1813 1812 
643 644 1749 1748 708 709 1814 1813 
644 645 1750 1749 709 710 1815 1814 
645 646 1751 1750 710 711 1816 1815 
646 647 1752 1751 711 712 1817 1816 
647 648 1753 1752 712 713 1818 1817 
648 649 1754 1753 713 714 1819 1818 
650 651 1756 1755 715 716 1821 1820 
651 652 1757 1756 716 717 1822 1821 
652 653 1758 1757 717 718 1823 1822 
653 654 1759 1758 718 719 1824 1823 
654 655 1760 1759 719 720 1825 1824 
655 656 1761 1760 720 721 1826 1825 
656 657 1762 1761 721 722 1827 1826 
657 658 1763 1762 722 723 1828 1827 
658 659 1764 1763 723 724 1829 1828 
659 660 1765 1764 724 725 1830 1829 
660 661 1766 1765 725 726 1831 1830 
661 662 1767 1766 726 727 1832 1831 
662 663 1768 1767 727 728 1833 1832 
663 664 1769 1768 728 729 1834 1833 
664 665 1770 1769 729 730 1835 1834 
665 666 1771 1770 730 731 1836 1835 
666 667 1772 1771 731 732 1837 1836 
667 668 1773 1772 732 733 1838 1837 
668 669 1774 1773 733 734 1839 1838 
669 670 1775 1774 734 735 1840 1839 
670 671 1776 1775 735 736 1841 1840 
671 672 1777 1776 736 737 1842 1841 
672 673 1778 1777 737 738 1843 1842 
673 674 1779 1778 738 739 1844 1843 
674 675 1780 1779 739 740 1845 1844 
675 676 1781 1780 740 741 1846 1845 
676 677 1782 1781 741 742 1847 1846 
677 678 1783 1782 742 743 1848 1847 
678 679 1784 1783 743 744 1849 1848 
679 680 1785 1784 744 745 1850 1849 
680 681 1786 1785 745 746 1851 1850 
681 682 1787 1786 746 747 1852 1851 
682 683 1788 1787 747 748 1853 1852 
683 684 1789 1788 748 749 1854 1853 
684 685 1790 1789 749 750 1855 1854 
685 686 1791 1790 750 751 1856 1855 
686 687 1792 1791 751 752 1857 1856 
687 688 1793 1792 752 753 1858 1857 
688 689 1794 1793 753 754 1859 1858 
689 690 1795 1794 754 755 1860 1859 
690 691 1796 1795 755 756 1861 1860 
691 692 1797 1796 756 757 1862 1861 
692 693 1798 1797 757 758 1863 1862 
693 694 1799 1798 758 759 1864 1863 
694 695 1800 1799 759 760 1865 1864 
695 696 1801 1800 760 761 1866 1865 
696 697 1802 1801 761 762 1867 1866 
697 698 1803 1802 762 763 1868 1867 
698 699 1804 1803 763 764 1869 1868 
699 700 1805 1804 764 765 1870 1869 
700 701 1806 1805 765 766 1871 1870 
701 702 1807 1806 766 767 1872 1871 
702 703 1808 1807 767 768 1873 1872 
703 704 1809 1808 768 769 1874 1873 
704 705 1810 1809 769 770 1875 1874 
705 706 1811 1810 770 771 1876 1875 
706 707 1812 1811 771 772 1877 1876 
707 708 1813 1812 772 773 1878 1877 
708 709 1814 1813 773 774 1879 1878 
709 710 1815 1814 774 775 1880 1879 
710 711 1816 1815 775 776 1881 1880 
711 712 1817 1816 776 777 1882 1881 
712 713 1818 1817 777 778 1883 1882 
713 714 1819 1818 778 779 1884 1883 
715 716 1821 1820 780 781 1886 1885 
716 717 1822 1821 781 782 1887 1886 
717 718 1823 1822 782 783 1888 1887 
718 719 1824 1823 783 784 1889 1888 
719 720 1825 1824 784 785 1890 1889 
720 721 1826 1825 785 786 1891 1890 
721 722 1827 1826 786 787 1892 1891 
722 723 1828 1827 787 788 1893 1892 
723 724 1829 1828 788 789 1894 1893 
724 725 1830 1829 789 790 1895 1894 
725 726 1831 1830 790 791 1896 1895 
726 727 1832 1831 791 792 1897 1896 
727 728 1833 1832 792 793 1898 1897 
728 729 1834 1833 793 794 1899 1898 
729 730 1835 1834 794 795 1900 1899 
730 731 1836 1835 795 796 1901 1900 
731 732 1837 1836 796 797 1902 1901 
732 733 1838 1837 797 798 1903 1902 
733 734 1839 1838 798 799 1904 1903 
734 735 1840 1839 799 800 1905 1904 
735 736 1841 1840 800 801 1906 1905 
736 737 1842 1841 801 802 1907 1906 
737 738 1843 1842 802 803 1908 1907 
738 739 1844 1843 803 804 1909 1908 
739 740 1845 1844 804 805 1910 1909 
740 741 1846 1845 805 806 1911 1910 
741 742 1847 1846 806 807 1912 1911 
742 743 1848 1847 807 808 1913 1912 
743 744 1849 1848 808 809 1914 1913 
744 745 1850 1849 809 810 1915 1914 
745 746 1851 1850 810 811 1916 1915 
746 747 1852 1851 811 812 1917 1916 
747 748 1853 1852 812 813 1918 1917 
748 749 1854 1853 813 814 1919 1918 
749 750 1855 1854 814 815 1920 1919 
750 751 1856 1855 815 816 1921 1920 
751 752 1857 1856 816 817 1922 1921 
752 753 1858 1857 817 818 1923 1922 
753 754 1859 1858 818 819 1924 1923 
754 755 1860 1859 819 820 1925 1924 
755 756 1861 1860 820 821 1926 1925 
756 757 1862 1861 821 822 1927 1926 
757 758 1863 1862 822 823 1928 1927 
758 759 1864 1863 823 824 1929 1928 
759 760 1865 1864 824 825 1930 1929 
760 761 1866 1865 825 826 1931 1930 
761 762 1867 1866 826 827 1932 1931 
762 763 1868 1867 827 828 1933 1932 
763 764 1869 1868 828 829 1934 1933 
764 765 1870 1869 829 830 1935 1934 
765 766 1871 1870 830 831 1936 1935 
766 767 1872 1871 831 832 1937 1936 
767 768 1873 1872 832 833 1938 1937 
768 769 1874 1873 833 834 1939 1938 
769 770 1875 1874 834 835 1940 1939 
770 771 1876 1875 835 836 1941 1940 
771 772 1877 1876 836 837 1942 1941 
772 773 1878 1877 837 838 1943 1942 
773 774 1879 1878 838 839 1944 1943 
774 775 1880 1879 839 840 1945 1944 
775 776 1881 1880 840 841 1946 1945 
776 777 1882 1881 841 842 1947 1946 
777 778 1883 1882 842 843 1948 1947 
778 779 1884 1883 843 844 1949 1948 
780 781 1886 1885 845 846 1951 1950 
781 782 1887 1886 846 847 1952 1951 
782 783 1888 1887 847 848 1953 1952 
783 784 1889 1888 848 849 1954 1953 
784 785 1890 1889 849 850 1955 1954 
785 786 1891 1890 850 851 1956 1955 
786 787 1892 1891 851 852 1957 1956 
787 788 1893 1892 852 853 1958 1957 
788 789 1894 1893 853 854 1959 1958 
789 790 1895 1894 854 855 1960 1959 
790 791 1896 1895 855 856 1961 1960 
791 792 1897 1896 856 857 1962 1961 
792 793 1898 1897 857 858 1963 1962 
793 794 1899 1898 858 859 1964 1963 
794 795 1900 1899 859 860 1965 1964 
795 796 1901 1900 860 861 1966 1965 
796 797 1902 1901 861 862 1967 1966 
797 798 1903 1902 862 863 1968 1967 
798 799 1904 1903 863 864 1969 1968 
799 800 1905 1904 864 865 1970 1969 
800 801 1906 1905 865 866 1971 1970 
801 802 1907 1906 866 867 1972 1971 
802 803 1908 1907 867 868 1973 1972 
803 804 1909 1908 868 869 1974 1973 
804 805 1910 1909 869 870 1975 1974 
805 806 1911 1910 870 871 1976 1975 
806 807 1912 1911 871 872 1977 1976 
807 808 1913 1912 872 873 1978 1977 
808 809 1914 1913 873 874 1979 1978 
809 810 1915 1914 874 875 1980 1979 
810 811 1916 1915 875 876 1981 1980 
811 812 1917 1916 876 877 1982 1981 
812 813 1918 1917 877 878 1983 1982 
813 814 1919 1918 878 879 1984 1983 
814 815 1920 1919 879 880 1985 1984 
815 816 1921 1920 880 881 1986 1985 
816 817 1922 1921 881 882 1987 1986 
817 818 1923 1922 882 883 1988 1987 
818 819 1924 1923 883 884 1989 1988 
819 820 1925 1924 884 885 1990 1989 
820 821 1926 1925 885 886 1991 1990 
821 822 1927 1926 886 887 1992 1991 
822 823 1928 1927 887 888 1993 1992 
823 824 1929 1928 888 889 1994 1993 
824 825 1930 1929 889 890 1995 1994 
825 826 1931 1930 890 891 1996 1995 
826 827 1932 1931 891 892 1997 1996 
827 828 1933 1932 892 893 1998 1997 
828 829 1934 1933 893 894 1999 1998 
829 830 1935 1934 894 895 2000 1999 
830 831 1936 1935 895 896 2001 2000 
831 832 1937 1936 896 897 2002 2001 
832 833 1938 1937 897 898 2003 2002 
833 834 1939 1938 898 899 2004 2003 
834 835 1940 1939 899 900 2005 2004 
835 836 1941 1940 900 901 2006 2005 
836 837 1942 1941 901 902 2007 2006 
837 838 1943 1942 902 903 2008 2007 
838 839 1944 1943 903 904 2009 2008 
839 840 1945 1944 904 905 2010 2009 
840 841 1946 1945 905 906 2011 2010 
841 842 1947 1946 906 907 2012 2011 
842 843 1948 1947 907 908 2013 2012 
843 844 1949 1948 908 909 2014 2013 
845 846 1951 1950 910 911 2016 2015 
846 847 1952 1951 911 912 2017 2016 
847 848 1953 1952 912 913 2018 2017 
848 849 1954 1953 913 914 2019 2018 
849 850 1955 1954 914 915 2020 2019 
850 851 1956 1955 915 916 2021 2020 
851 852 1957 1956 916 917 2022 2021 
852 853 1958 1957 917 918 2023 2022 
853 854 1959 1958 918 919 2024 2023 
854 855 1960 1959 919 920 2025 2024 
855 856 1961 1960 920 921 2026 2025 
856 857 1962 1961 921 922 2027 2026 
857 858 1963 1962 922 923 2028 2027 
858 859 1964 1963 923 924 2029 2028 
859 860 1965 1964 924 925 2030 2029 
860 861 1966 1965 925 926 2031 2030 
861 862 1967 1966 926 927 2032 2031 
862 863 1968 1967 927 928 2033 2032 
863 864 1969 1968 928 929 2034 2033 
864 865 1970 1969 929 930 2035 2034 
865 866 1971 1970 930 931 2036 2035 
866 867 1972 1971 931 932 2037 2036 
867 868 1973 1972 932 933 2038 2037 
868 869 1974 1973 933 934 2039 2038 
869 870 1975 1974 934 935 2040 2039 
870 871 1976 1975 935 936 2041 2040 
871 872 1977 1976 936 937 2042 2041 
872 873 1978 1977 937 938 2043 2042 
873 874 1979 1978 938 939 2044 2043 
874 875 1980 1979 939 940 2045 2044 
875 876 1981 1980 940 941 2046 2045 
876 877 1982 1981 941 942 2047 2046 
877 878 1983 1982 942 943 2048 2047 
878 879 1984 1983 943 944 2049 2048 
879 880 1985 1984 944 945 2050 2049 
880 881 1986 1985 945 946 2051 2050 
881 882 1987 1986 946 947 2052 2051 
882 883 1988 1987 947 948 2053 2052 
883 884 1989 1988 948 949 2054 2053 
884 885 1990 1989 949 950 2055 2054 
885 886 1991 1990 950 951 2056 2055 
886 887 1992 1991 951 952 2057 2056 
887 888 1993 1992 952 953 2058 2057 
888 889 1994 1993 953 954 2059 2058 
889 890 1995 1994 954 955 2060 2059 
890 891 1996 1995 955 956 2061 2060 
891 892 1997 1996 956 957 2062 2061 
892 893 1998 1997 957 958 2063 2062 
893 894 1999 1998 958 959 2064 2063 
894 895 2000 1999 959 960 2065 2064 
895 896 2001 2000 960 961 2066 2065 
896 897 2002 2001 961 962 2067 2066 
897 898 2003 2002 962 963 2068 2067 
898 899 2004 2003 963 964 2069 2068 
899 900 2005 2004 964 965 2070 2069 
900 901 2006 2005 965 966 2071 2070 
901 902 2007 2006 966 967 2072 2071 
902 903 2008 2007 967 968 2073 2072 
903 904 2009 2008 968 969 2074 2073 
904 905 2010 2009 969 970 2075 2074 
905 906 2011 2010 970 971 2076 2075 
906 907 2012 2011 971 972 2077 2076 
907 908 2013 2012 972 973 2078 2077 
908 909 2014 2013 973 974 2079 2078 
910 911 2016 2015 975 976 2081 2080 
911 912 2017 2016 976 977 2082 2081 
912 913 2018 2017 977 978 2083 2082 
913 914 2019 2018 978 979 2084 2083 
914 915 2020 2019 979 980 2085 2084 
915 916 2021 2020 980 981 2086 2085 
916 917 2022 2021 981 982 2087 2086 
917 918 2023 2022 982 983 2088 2087 
918 919 2024 2023 983 984 2089 2088 
919 920 2025 2024 984 985 2090 2089 
920 921 2026 2025 985 986 2091 2090 
921 922 2027 2026 986 987 2092 2091 
922 923 2028 2027 987 988 2093 2092 
923 924 2029 2028 988 989 2094 2093 
924 925 2030 2029 989 990 2095 2094 
925 926 2031 2030 990 991 2096 2095 
926 927 2032 2031 991 992 2097 2096 
927 928 2033 2032 992 993 2098 2097 
928 929 2034 2033 993 994 2099 2098 
929 930 2035 2034 994 995 2100 2099 
930 931 2036 2035 995 996 2101 2100 
931 932 2037 2036 996 997 2102 2101 
932 933 2038 2037 997 998 2103 2102 
933 934 2039 2038 998 999 2104 2103 
934 935 2040 2039 999 1000 2105 2104 
935 936 2041 2040 1000 1001 2106 2105 
936 937 2042 2041 1001 1002 2107 2106 
937 938 2043 2042 1002 1003 2108 2107 
938 939 2044 2043 1003 1004 2109 2108 
939 940 2045 2044 1004 1005 2110 2109 
940 941 2046 2045 1005 1006 2111 2110 
941 942 2047 2046 1006 1007 2112 2111 
942 943 2048 2047 1007 1008 2113 2112 
943 944 2049 2048 1008 1009 2114 2113 
944 945 2050 2049 1009 1010 2115 2114 
945 946 2051 2050 1010 1011 2116 2115 
946 947 2052 2051 1011 1012 2117 2116 
947 948 2053 2052 1012 1013 2118 2117 
948 949 2054 2053 1013 1014 2119 2118 
949 950 2055 2054 1014 1015 2120 2119 
950 951 2056 2055 1015 1016 2121 2120 
951 952 2057 2056 1016 1017 2122 2121 
952 953 2058 2057 1017 1018 2123 2122 
953 954 2059 2058 1018 1019 2124 2123 
954 955 2060 2059 1019 1020 2125 2124 
955 956 2061 2060 1020 1021 2126 2125 
956 957 2062 2061 1021 1022 2127 2126 
957 958 2063 2062 1022 1023 2128 2127 
958 959 2064 2063 1023 1024 2129 2128 
959 960 2065 2064 1024 1025 2130 2129 
960 961 2066 2065 1025 1026 2131 2130 
961 962 2067 2066 1026 1027 2132 2131 
962 963 2068 2067 1027 1028 2133 2132 
963 964 2069 2068 1028 1029 2134 2133 
964 965 2070 2069 1029 1030 2135 2134 
965 966 2071 2070 1030 1031 2136 2135 
966 967 2072 2071 1031 1032 2137 2136 
967 968 2073 2072 1032 1033 2138 2137 
968 969 2074 2073 1033 1034 2139 2138 
969 970 2075 2074 1034 1035 2140 2139 
970 971 2076 2075 1035 1036 2141 2140 
971 972 2077 2076 1036 1037 2142 2141 
972 973 2078 2077 1037 1038 2143 2142 
973 974 2079 2078 1038 1039 2144 2143 
975 976 2081 2080 1040 1041 2146 2145 
976 977 2082 2081 1041 1042 2147 2146 
977 978 2083 2082 1042 1043 2148 2147 
978 979 2084 2083 1043 1044 2149 2148 
979 980 2085 2084 1044 1045 2150 2149 
980 981 2086 2085 1045 1046 2151 2150 
981 982 2087 2086 1046 1047 2152 2151 
982 983 2088 2087 1047 1048 2153 2152 
983 984 2089 2088 1048 1049 2154 2153 
984 985 2090 2089 1049 1050 2155 2154 
985 986 2091 2090 1050 1051 2156 2155 
986 987 2092 2091 1051 1052 2157 2156 
987 988 2093 2092 1052 1053 2158 2157 
988 989 2094 2093 1053 1054 2159 2158 
989 990 2095 2094 1054 1055 2160 2159 
990 991 2096 2095 1055 1056 2161 2160 
991 992 2097 2096 1056 1057 2162 2161 
992 993 2098 2097 1057 1058 2163 2162 
993 994 2099 2098 1058 1059 2164 2163 
994 995 2100 2099 1059 1060 2165 2164 
995 996 2101 2100 1060 1061 2166 2165 
996 997 2102 2101 1061 1062 2167 2166 
997 998 2103 2102 1062 1063 2168 2167 
998 999 2104 2103 1063 1064 2169 2168 
999 1000 2105 2104 1064 1065 2170 2169 
1000 1001 2106 2105 1065 1066 2171 2170 
1001 1002 2107 2106 1066 1067 2172 2171 
1002 1003 2108 2107 1067 1068 2173 2172 
1003 1004 2109 2108 1068 1069 2174 2173 
1004 1005 2110 2109 1069 1070 2175 2174 
1005 1006 2111 2110 1070 1071 2176 2175 
1006 1007 2112 2111 1071 1072 2177 2176 
1007 1008 2113 2112 1072 1073 2178 2177 
1008 1009 2114 2113 1073 1074 2179 2178 
1009 1010 2115 2114 1074 1075 2180 2179 
1010 1011 2116 2115 1075 1076 2181 2180 
1011 1012 2117 2116 1076 1077 2182 2181 
1012 1013 2118 2117 1077 1078 2183 2182 
1013 1014 2119 2118 1078 1079 2184 2183 
1014 1015 2120 2119 1079 1080 2185 2184 
1015 1016 2121 2120 1080 1081 2186 2185 
1016 1017 2122 2121 1081 1082 2187 2186 
1017 1018 2123 2122 1082 1083 2188 2187 
1018 1019 2124 2123 1083 1084 2189 2188 
1019 1020 2125 2124 1084 1085 2190 2189 
1020 1021 2126 2125 1085 1086 2191 2190 
1021 1022 2127 2126 1086 1087 2192 2191 
1022 1023 2128 2127 1087 1088 2193 2192 
1023 1024 2129 2128 1088 1089 2194 2193 
1024 1025 2130 2129 1089 1090 2195 2194 
1025 1026 2131 2130 1090 1091 2196 2195 
1026 1027 2132 2131 1091 1092 2197 2196 
1027 1028 2133 2132 1092 1093 2198 2197 
1028 1029 2134 2133 1093 1094 2199 2198 
1029 1030 2135 2134 1094 1095 2200 2199 
1030 1031 2136 2135 1095 1096 2201 2200 
1031 1032 2137 2136 1096 1097 2202 2201 
1032 1033 2138 2137 1097 1098 2203 2202 
1033 1034 2139 2138 1098 1099 2204 2203 
1034 1035 2140 2139 1099 1100 2205 2204 
1035 1036 2141 2140 1100 1101 2206 2205 
1036 1037 2142 2141 1101 1102 2207 2206 
1037 1038 2143 2142 1102 1103 2208 2207 
1038 1039 2144 2143 1103 1104 2209 2208 
1105 1106 2211 2210 1170 1171 2276 2275 
1106 1107 2212 2211 1171 1172 2277 2276 
1107 1108 2213 2212 1172 1173 2278 2277 
1108 1109 2214 2213 1173 1174 2279 2278 
1109 1110 2215 2214 1174 1175 2280 2279 
1110 1111 2216 2215 1175 1176 2281 2280 
1111 1112 2217 2216 1176 1177 2282 2281 
1112 1113 2218 2217 1177 1178 2283 2282 
1113 1114 2219 2218 1178 1179 2284 2283 
1114 1115 2220 2219 1179 1180 2285 2284 
1115 1116 2221 2220 1180 1181 2286 2285 
1116 1117 2222 2221 1181 1182 2287 2286 
1117 1118 2223 2222 1182 1183 2288 2287 
1118 1119 2224 2223 1183 1184 2289 2288 
1119 1120 2225 2224 1184 1185 2290 2289 
1120 1121 2226 2225 1185 1186 2291 2290 
1121 1122 2227 2226 1186 1187 2292 2291 
1122 1123 2228 2227 1187 1188 2293 2292 
1123 1124 2229 2228 1188 1189 2294 2293 
1124 1125 2230 2229 1189 1190 2295 2294 
1125 1126 2231 2230 1190 1191 2296 2295 
1126 1127 2232 2231 1191 1192 2297 2296 
1127 1128 2233 2232 1192 1193 2298 2297 
1128 1129 2234 2233 1193 1194 2299 2298 
1129 1130 2235 2234 1194 1195 2300 2299 
1130 1131 2236 2235 1195 1196 2301 2300 
1131 1132 2237 2236 1196 1197 2302 2301 
1132 1133 2238 2237 1197 1198 2303 2302 
1133 1134 2239 2238 1198 1199 2304 2303 
1134 1135 2240 2239 1199 1200 2305 2304 
1135 1136 2241 2240 1200 1201 2306 2305 
1136 1137 2242 2241 1201 1202 2307 2306 
1137 1138 2243 2242 1202 1203 2308 2307 
1138 1139 2244 2243 1203 1204 2309 2308 
1139 1140 2245 2244 1204 1205 2310 2309 
1140 1141 2246 2245 1205 1206 2311 2310 
1141 1142 2247 2246 1206 1207 2312 2311 
1142 1143 2248 2247 1207 1208 2313 2312 
1143 1144 2249 2248 1208 1209 2314 2313 
1144 1145 2250 2249 1209 1210 2315 2314 
1145 1146 2251 2250 1210 1211 2316 2315 
1146 1147 2252 2251 1211 1212 2317 2316 
1147 1148 2253 2252 1212 1213 2318 2317 
1148 1149 2254 2253 1213 1214 2319 2318 
1149 1150 2255 2254 1214 1215 2320 2319 
1150 1151 2256 2255 1215 1216 2321 2320 
1151 1152 2257 2256 1216 1217 2322 2321 
1152 1153 2258 2257 1217 1218 2323 2322 
1153 1154 2259 2258 1218 1219 2324 2323 
1154 1155 2260 2259 1219 1220 2325 2324 
1155 1156 2261 2260 1220 1221 2326 2325 
1156 1157 2262 2261 1221 1222 2327 2326 
1157 1158 2263 2262 1222 1223 2328 2327 
1158 1159 2264 2263 1223 1224 2329 2328 
1159 1160 2265 2264 1224 1225 2330 2329 
1160 1161 2266 2265 1225 1226 2331 2330 
1161 1162 2267 2266 1226 1227 2332 2331 
1162 1163 2268 2267 1227 1228 2333 2332 
1163 1164 2269 2268 1228 1229 2334 2333 
1164 1165 2270 2269 1229 1230 2335 2334 
1165 1166 2271 2270 1230 1231 2336 2335 
1166 1167 2272 2271 1231 1232 2337 2336 
1167 1168 2273 2272 1232 1233 2338 2337 
1168 1169 2274 2273 1233 1234 2339 2338 
1170 1171 2276 2275 1235 1236 2341 2340 
1171 1172 2277 2276 1236 1237 2342 2341 
1172 1173 2278 2277 1237 1238 2343 2342 
1173 1174 2279 2278 1238 1239 2344 2343 
1174 1175 2280 2279 1239 1240 2345 2344 
1175 1176 2281 2280 1240 1241 2346 2345 
1176 1177 2282 2281 1241 1242 2347 2346 
1177 1178 2283 2282 1242 1243 2348 2347 
1178 1179 2284 2283 1243 1244 2349 2348 
1179 1180 2285 2284 1244 1245 2350 2349 
1180 1181 2286 2285 1245 1246 2351 2350 
1181 1182 2287 2286 1246 1247 2352 2351 
1182 1183 2288 2287 1247 1248 2353 2352 
1183 1184 2289 2288 1248 1249 2354 2353 
1184 1185 2290 2289 1249 1250 2355 2354 
1185 1186 2291 2290 1250 1251 2356 2355 
1186 1187 2292 2291 1251 1252 2357 2356 
1187 1188 2293 2292 1252 1253 2358 2357 
1188 1189 2294 2293 1253 1254 2359 2358 
1189 1190 2295 2294 1254 1255 2360 2359 
1190 1191 2296 2295 1255 1256 2361 2360 
1191 1192 2297 2296 1256 1257 2362 2361 
1192 1193 2298 2297 1257 1258 2363 2362 
1193 1194 2299 2298 1258 1259 2364 2363 
1194 1195 2300 2299 1259 1260 2365 2364 
1195 1196 2301 2300 1260 1261 2366 2365 
1196 1197 2302 2301 1261 1262 2367 2366 
1197 1198 2303 2302 1262 1263 2368 2367 
1198 1199 2304 2303 1263 1264 2369 2368 
1199 1200 2305 2304 1264 1265 2370 2369 
1200 1201 2306 2305 1265 1266 2371 2370 
1201 1202 2307 2306 1266 1267 2372 2371 
1202 1203 2308 2307 1267 1268 2373 2372 
1203 1204 2309 2308 1268 1269 2374 2373 
1204 1205 2310 2309 1269 1270 2375 2374 
1205 1206 2311 2310 1270 1271 2376 2375 
1206 1207 2312 2311 1271 1272 2377 2376 
1207 1208 2313 2312 1272 1273 2378 2377 
1208 1209 2314 2313 1273 1274 2379 2378 
1209 1210 2315 2314 1274 1275 2380 2379 
1210 1211 2316 2315 1275 1276 2381 2380 
1211 1212 2317 2316 1276 1277 2382 2381 
1212 1213 2318 2317 1277 1278 2383 2382 
1213 1214 2319 2318 1278 1279 2384 2383 
1214 1215 2320 2319 1279 1280 2385 2384 
1215 1216 2321 2320 1280 1281 2386 2385 
1216 1217 2322 2321 1281 1282 2387 2386 
1217 1218 2323 2322 1282 1283 2388 2387 
1218 1219 2324 2323 1283 1284 2389 2388 
1219 1220 2325 2324 1284 1285 2390 2389 
1220 1221 2326 2325 1285 1286 2391 2390 
1221 1222 2327 2326 1286 1287 2392 2391 
1222 1223 2328 2327 1287 1288 2393 2392 
1223 1224 2329 2328 1288 1289 2394 2393 
1224 1225 2330 2329 1289 1290 2395 2394 
1225 1226 2331 2330 1290 1291 2396 2395 
1226 1227 2332 2331 1291 1292 2397 2396 
1227 1228 2333 2332 1292 1293 2398 2397 
1228 1229 2334 2333 1293 1294 2399 2398 
1229 1230 2335 2334 1294 1295 2400 2399 
1230 1231 2336 2335 1295 1296 2401 2400 
1231 1232 2337 2336 1296 1297 2402 2401 
1232 1233 2338 2337 1297 1298 2403 2402 
1233 1234 2339 2338 1298 1299 2404 2403 
1235 1236 2341 2340 1300 1301 2406 2405 
1236 1237 2342 2341 1301 1302 2407 2406 
1237 1238 2343 2342 1302 1303 2408 2407 
1238 1239 2344 2343 1303 1304 2409 2408 
1239 1240 2345 2344 1304 1305 2410 2409 
1240 1241 2346 2345 1305 1306 2411 2410 
1241 1242 2347 2346 1306 1307 2412 2411 
1242 1243 2348 2347 1307 1308 2413 2412 
1243 1244 2349 2348 1308 1309 2414 2413 
1244 1245 2350 2349 1309 1310 2415 2414 
1245 1246 2351 2350 1310 1311 2416 2415 
1246 1247 2352 2351 1311 1312 2417 2416 
1247 1248 2353 2352 1312 1313 2418 2417 
1248 1249 2354 2353 1313 1314 2419 2418 
1249 1250 2355 2354 1314 1315 2420 2419 
1250 1251 2356 2355 1315 1316 2421 2420 
1251 1252 2357 2356 1316 1317 2422 2421 
1252 1253 2358 2357 1317 1318 2423 2422 
1253 1254 2359 2358 1318 1319 2424 2423 
1254 1255 2360 2359 1319 1320 2425 2424 
1255 1256 2361 2360 1320 1321 2426 2425 
1256 1257 2362 2361 1321 1322 2427 2426 
1257 1258 2363 2362 1322 1323 2428 2427 
1258 1259 2364 2363 1323 1324 2429 2428 
1259 1260 2365 2364 1324 1325 2430 2429 
1260 1261 2366 2365 1325 1326 2431 2430 
1261 1262 2367 2366 1326 1327 2432 2431 
1262 1263 2368 2367 1327 1328 2433 2432 
1263 1264 2369 2368 1328 1329 2434 2433 
1264 1265 2370 2369 1329 1330 2435 2434 
1265 1266 2371 2370 1330 1331 2436 2435 
1266 1267 2372 2371 1331 1332 2437 2436 
1267 1268 2373 2372 1332 1333 2438 2437 
1268 1269 2374 2373 1333 1334 2439 2438 
1269 1270 2375 2374 1334 1335 2440 2439 
1270 1271 2376 2375 1335 1336 2441 2440 
1271 1272 2377 2376 1336 1337 2442 2441 
1272 1273 2378 2377 1337 1338 2443 2442 
1273 1274 2379 2378 1338 1339 2444 2443 
1274 1275 2380 2379 1339 1340 2445 2444 
1275 1276 2381 2380 1340 1341 2446 2445 
1276 1277 2382 2381 1341 1342 2447 2446 
1277 1278 2383 2382 1342 1343 2448 2447 
1278 1279 2384 2383 1343 1344 2449 2448 
1279 1280 2385 2384 1344 1345 2450 2449 
1280 1281 2386 2385 1345 1346 2451 2450 
1281 1282 2387 2386 1346 1347 2452 2451 
1282 1283 2388 2387 1347 1348 2453 2452 
1283 1284 2389 2388 1348 1349 2454 2453 
1284 1285 2390 2389 1349 1350 2455 2454 
1285 1286 2391 2390 1350 1351 2456 2455 
1286 1287 2392 2391 1351 1352 2457 2456 
1287 1288 2393 2392 1352 1353 2458 2457 
1288 1289 2394 2393 1353 1354 2459 2458 
1289 1290 2395 2394 1354 1355 2460 2459 
1290 1291 2396 2395 1355 1356 2461 2460 
1291 1292 2397 2396 1356 1357 2462 2461 
1292 1293 2398 2397 1357 1358 2463 2462 
1293 1294 2399 2398 1358 1359 2464 2463 
1294 1295 2400 2399 1359 1360 2465 2464 
1295 1296 2401 2400 1360 1361 2466 2465 
1296 1297 2402 2401 1361 1362 2467 2466 
1297 1298 2403 2402 1362 1363 2468 2467 
1298 1299 2404 2403 1363 1364 2469 2468 
1300 1301 2406 2405 1365 1366 2471 2470 
1301 1302 2407 2406 1366 1367 2472 2471 
1302 1303 2408 2407 1367 1368 2473 2472 
1303 1304 2409 2408 1368 1369 2474 2473 
1304 1305 2410 2409 1369 1370 2475 2474 
1305 1306 2411 2410 1370 1371 2476 2475 
1306 1307 2412 2411 1371 1372 2477 2476 
1307 1308 2413 2412 1372 1373 2478 2477 
1308 1309 2414 2413 1373 1374 2479 2478 
1309 1310 2415 2414 1374 1375 2480 2479 
1310 1311 2416 2415 1375 1376 2481 2480 
1311 1312 2417 2416 1376 1377 2482 2481 
1312 1313 2418 2417 1377 1378 2483 2482 
1313 1314 2419 2418 1378 1379 2484 2483 
1314 1315 2420 2419 1379 1380 2485 2484 
1315 1316 2421 2420 1380 1381 2486 2485 
1316 1317 2422 2421 1381 1382 2487 2486 
1317 1318 2423 2422 1382 1383 2488 2487 
1318 1319 2424 2423 1383 1384 2489 2488 
1319 1320 2425 2424 1384 1385 2490 2489 
1320 1321 2426 2425 1385 1386 2491 2490 
1321 1322 2427 2426 1386 1387 2492 2491 
1322 1323 2428 2427 1387 1388 2493 2492 
1323 1324 2429 2428 1388 1389 2494 2493 
1324 1325 2430 2429 1389 1390 2495 2494 
1325 1326 2431 2430 1390 1391 2496 2495 
1326 1327 2432 2431 1391 1392 2497 2496 
1327 1328 2433 2432 1392 1393 2498 2497 
1328 1329 2434 2433 1393 1394 2499 2498 
1329 1330 2435 2434 1394 1395 2500 2499 
1330 1331 2436 2435 1395 1396 2501 2500 
1331 1332 2437 2436 1396 1397 2502 2501 
1332 1333 2438 2437 1397 1398 2503 2502 
1333 1334 2439 2438 1398 1399 2504 2503 
1334 1335 2440 2439 1399 1400 2505 2504 
1335 1336 2441 2440 1400 1401 2506 2505 
1336 1337 2442 2441 1401 1402 2507 2506 
1337 1338 2443 2442 1402 1403 2508 2507 
1338 1339 2444 2443 1403 1404 2509 2508 
1339 1340 2445 2444 1404 1405 2510 2509 
1340 1341 2446 2445 1405 1406 2511 2510 
1341 1342 2447 2446 1406 1407 2512 2511 
1342 1343 2448 2447 1407 1408 2513 2512 
1343 1344 2449 2448 1408 1409 2514 2513 
1344 1345 2450 2449 1409 1410 2515 2514 
1345 1346 2451 2450 1410 1411 2516 2515 
1346 1347 2452 2451 1411 1412 2517 2516 
1347 1348 2453 2452 1412 1413 2518 2517 
1348 1349 2454 2453 1413 1414 2519 2518 
1349 1350 2455 2454 1414 1415 2520 2519 
1350 1351 2456 2455 1415 1416 2521 2520 
1351 1352 2457 2456 1416 1417 2522 2521 
1352 1353 2458 2457 1417 1418 2523 2522 
1353 1354 2459 2458 1418 1419 2524 2523 
1354 1355 2460 2459 1419 1420 2525 2524 
1355 1356 2461 2460 1420 1421 2526 2525 
1356 1357 2462 2461 1421 1422 2527 2526 
1357 1358 2463 2462 1422 1423 2528 2527 
1358 1359 2464 2463 1423 1424 2529 2528 
1359 1360 2465 2464 1424 1425 2530 2529 
1360 1361 2466 2465 1425 1426 2531 2530 
1361 1362 2467 2466 1426 1427 2532 2531 
1362 1363 2468 2467 1427 1428 2533 2532 
1363 1364 2469 2468 1428 1429 2534 2533 
1365 1366 2471 2470 1430 1431 2536 2535 
1366 1367 2472 2471 1431 1432 2537 2536 
1367 1368 2473 2472 1432 1433 2538 2537 
1368 1369 2474 2473 1433 1434 2539 2538 
1369 1370 2475 2474 1434 1435 2540 2539 
1370 1371 2476 2475 1435 1436 2541 2540 
1371 1372 2477 2476 1436 1437 2542 2541 
1372 1373 2478 2477 1437 1438 2543 2542 
1373 1374 2479 2478 1438 1439 2544 2543 
1374 1375 2480 2479 1439 1440 2545 2544 
1375 1376 2481 2480 1440 1441 2546 2545 
1376 1377 2482 2481 1441 1442 2547 2546 
1377 1378 2483 2482 1442 1443 2548 2547 
1378 1379 2484 2483 1443 1444 2549 2548 
1379 1380 2485 2484 1444 1445 2550 2549 
1380 1381 2486 2485 1445 1446 2551 2550 
1381 1382 2487 2486 1446 1447 2552 2551 
1382 1383 2488 2487 1447 1448 2553 2552 
1383 1384 2489 2488 1448 1449 2554 2553 
1384 1385 2490 2489 1449 1450 2555 2554 
1385 1386 2491 2490 1450 1451 2556 2555 
1386 1387 2492 2491 1451 1452 2557 2556 
1387 1388 2493 2492 1452 1453 2558 2557 
1388 1389 2494 2493 1453 1454 2559 2558 
1389 1390 2495 2494 1454 1455 2560 2559 
1390 1391 2496 2495 1455 1456 2561 2560 
1391 1392 2497 2496 1456 1457 2562 2561 
1392 1393 2498 2497 1457 1458 2563 2562 
1393 1394 2499 2498 1458 1459 2564 2563 
1394 1395 2500 2499 1459 1460 2565 2564 
1395 1396 2501 2500 1460 1461 2566 2565 
1396 1397 2502 2501 1461 1462 2567 2566 
1397 1398 2503 2502 1462 1463 2568 2567 
1398 1399 2504 2503 1463 1464 2569 2568 
1399 1400 2505 2504 1464 1465 2570 2569 
1400 1401 2506 2505 1465 1466 2571 2570 
1401 1402 2507 2506 1466 1467 2572 2571 
1402 1403 2508 2507 1467 1468 2573 2572 
1403 1404 2509 2508 1468 1469 2574 2573 
1404 1405 2510 2509 1469 1470 2575 2574 
1405 1406 2511 2510 1470 1471 2576 2575 
1406 1407 2512 2511 1471 1472 2577 2576 
1407 1408 2513 2512 1472 1473 2578 2577 
1408 1409 2514 2513 1473 1474 2579 2578 
1409 1410 2515 2514 1474 1475 2580 2579 
1410 1411 2516 2515 1475 1476 2581 2580 
1411 1412 2517 2516 1476 1477 2582 2581 
1412 1413 2518 2517 1477 1478 2583 2582 
1413 1414 2519 2518 1478 1479 2584 2583 
1414 1415 2520 2519 1479 1480 2585 2584 
1415 1416 2521 2520 1480 1481 2586 2585 
1416 1417 2522 2521 1481 1482 2587 2586 
1417 1418 2523 2522 1482 1483 2588 2587 
1418 1419 2524 2523 1483 1484 2589 2588 
1419 1420 2525 2524 1484 1485 2590 2589 
1420 1421 2526 2525 1485 1486 2591 2590 
1421 1422 2527 2526 1486 1487 2592 2591 
1422 1423 2528 2527 1487 1488 2593 2592 
1423 1424 2529 2528 1488 1489 2594 2593 
1424 1425 2530 2529 1489 1490 2595 2594 
1425 1426 2531 2530 1490 1491 2596 2595 
1426 1427 2532 2531 1491 1492 2597 2596 
1427 1428 2533 2532 1492 1493 2598 2597 
1428 1429 2534 2533 1493 1494 2599 2598 
1430 1431 2536 2535 1495 1496 2601 2600 
1431 1432 2537 2536 1496 1497 2602 2601 
1432 1433 2538 2537 1497 1498 2603 2602 
1433 1434 2539 2538 1498 1499 2604 2603 
1434 1435 2540 2539 1499 1500 2605 2604 
1435 1436 2541 2540 1500 1501 2606 2605 
1436 1437 2542 2541 1501 1502 2607 2606 
1437 1438 2543 2542 1502 1503 2608 2607 
1438 1439 2544 2543 1503 1504 2609 2608 
1439 1440 2545 2544 1504 1505 2610 2609 
1440 1441 2546 2545 1505 1506 2611 2610 
1441 1442 2547 2546 1506 1507 2612 2611 
1442 1443 2548 2547 1507 1508 2613 2612 
1443 1444 2549 2548 1508 1509 2614 2613 
1444 1445 2550 2549 1509 1510 2615 2614 
1445 1446 2551 2550 1510 1511 2616 2615 
1446 1447 2552 2551 1511 1512 2617 2616 
1447 1448 2553 2552 1512 1513 2618 2617 
1448 1449 2554 2553 1513 1514 2619 2618 
1449 1450 2555 2554 1514 1515 2620 2619 
1450 1451 2556 2555 1515 1516 2621 2620 
1451 1452 2557 2556 1516 1517 2622 2621 
1452 1453 2558 2557 1517 1518 2623 2622 
1453 1454 2559 2558 1518 1519 2624 2623 
1454 1455 2560 2559 1519 1520 2625 2624 
1455 1456 2561 2560 1520 1521 2626 2625 
1456 1457 2562 2561 1521 1522 2627 2626 
1457 1458 2563 2562 1522 1523 2628 2627 
1458 1459 2564 2563 1523 1524 2629 2628 
1459 1460 2565 2564 1524 1525 2630 2629 
1460 1461 2566 2565 1525 1526 2631 2630 
1461 1462 2567 2566 1526 1527 2632 2631 
1462 1463 2568 2567 1527 1528 2633 2632 
1463 1464 2569 2568 1528 1529 2634 2633 
1464 1465 2570 2569 1529 1530 2635 2634 
1465 1466 2571 2570 1530 1531 2636 2635 
1466 1467 2572 2571 1531 1532 2637 2636 
1467 1468 2573 2572 1532 1533 2638 2637 
1468 1469 2574 2573 1533 1534 2639 2638 
1469 1470 2575 2574 1534 1535 2640 2639 
1470 1471 2576 2575 1535 1536 2641 2640 
1471 1472 2577 2576 1536 1537 2642 2641 
1472 1473 2578 2577 1537 1538 2643 2642 
1473 1474 2579 2578 1538 1539 2644 2643 
1474 1475 2580 2579 1539 1540 2645 2644 
1475 1476 2581 2580 1540 1541 2646 2645 
1476 1477 2582 2581 1541 1542 2647 2646 
1477 1478 2583 2582 1542 1543 2648 2647 
1478 1479 2584 2583 1543 1544 2649 2648 
1479 1480 2585 2584 1544 1545 2650 2649 
1480 1481 2586 2585 1545 1546 2651 2650 
1481 1482 2587 2586 1546 1547 2652 2651 
1482 1483 2588 2587 1547 1548 2653 2652 
1483 1484 2589 2588 1548 1549 2654 2653 
1484 1485 2590 2589 1549 1550 2655 2654 
1485 1486 2591 2590 1550 1551 2656 2655 
1486 1487 2592 2591 1551 1552 2657 2656 
1487 1488 2593 2592 1552 1553 2658 2657 
1488 1489 2594 2593 1553 1554 2659 2658 
1489 1490 2595 2594 1554 1555 2660 2659 
1490 1491 2596 2595 1555 1556 2661 2660 
1491 1492 2597 2596 1556 1557 2662 2661 
1492 1493 2598 2597 1557 1558 2663 2662 
1493 1494 2599 2598 1558 1559 2664 2663 
1495 1496 2601 2600 1560 1561 2666 2665 
1496 1497 2602 2601 1561 1562 2667 2666 
1497 1498 2603 2602 1562 1563 2668 2667 
1498 1499 2604 2603 1563 1564 2669 2668 
1499 1500 2605 2604 1564 1565 2670 2669 
1500 1501 2606 2605 1565 1566 2671 2670 
1501 1502 2607 2606 1566 1567 2672 2671 
1502 1503 2608 2607 1567 1568 2673 2672 
1503 1504 2609 2608 1568 1569 2674 2673 
1504 1505 2610 2609 1569 1570 2675 2674 
1505 1506 2611 2610 1570 1571 2676 2675 
1506 1507 2612 2611 1571 1572 2677 2676 
1507 1508 2613 2612 1572 1573 2678 2677 
1508 1509 2614 2613 1573 1574 2679 2678 
1509 1510 2615 2614 1574 1575 2680 2679 
1510 1511 2616 2615 1575 1576 2681 2680 
1511 1512 2617 2616 1576 1577 2682 2681 
1512 1513 2618 2617 1577 1578 2683 2682 
1513 1514 2619 2618 1578 1579 2684 2683 
1514 1515 2620 2619 1579 1580 2685 2684 
1515 1516 2621 2620 1580 1581 2686 2685 
1516 1517 2622 2621 1581 1582 2687 2686 
1517 1518 2623 2622 1582 1583 2688 2687 
1518 1519 2624 2623 1583 1584 2689 2688 
1519 1520 2625 2624 1584 1585 2690 2689 
1520 1521 2626 2625 1585 1586 2691 2690 
1521 1522 2627 2626 1586 1587 2692 2691 
1522 1523 2628 2627 1587 1588 2693 2692 
1523 1524 2629 2628 1588 1589 2694 2693 
1524 1525 2630 2629 1589 1590 2695 2694 
1525 1526 2631 2630 1590 1591 2696 2695 
1526 1527 2632 2631 1591 1592 2697 2696 
1527 1528 2633 2632 1592 1593 2698 2697 
1528 1529 2634 2633 1593 1594 2699 2698 
1529 1530 2635 2634 1594 1595 2700 2699 
1530 1531 2636 2635 1595 1596 2701 2700 
1531 1532 2637 2636 1596 1597 2702 2701 
1532 1533 2638 2637 1597 1598 2703 2702 
1533 1534 2639 2638 1598 1599 2704 2703 
1534 1535 2640 2639 1599 1600 2705 2704 
1535 1536 2641 2640 1600 1601 2706 2705 
1536 1537 2642 2641 1601 1602 2707 2706 
1537 1538 2643 2642 1602 1603 2708 2707 
1538 1539 2644 2643 1603 1604 2709 2708 
1539 1540 2645 2644 1604 1605 2710 2709 
1540 1541 2646 2645 1605 1606 2711 2710 
1541 1542 2647 2646 1606 1607 2712 2711 
1542 1543 2648 2647 1607 1608 2713 2712 
1543 1544 2649 2648 1608 1609 2714 2713 
1544 1545 2650 2649 1609 1610 2715 2714 
1545 1546 2651 2650 1610 1611 2716 2715 
1546 1547 2652 2651 1611 1612 2717 2716 
1547 1548 2653 2652 1612 1613 2718 2717 
1548 1549 2654 2653 1613 1614 2719 2718 
1549 1550 2655 2654 1614 1615 2720 2719 
1550 1551 2656 2655 1615 1616 2721 2720 
1551 1552 2657 2656 1616 1617 2722 2721 
1552 1553 2658 2657 1617 1618 2723 2722 
1553 1554 2659 2658 1618 1619 2724 2723 
1554 1555 2660 2659 1619 1620 2725 2724 
1555 1556 2661 2660 1620 1621 2726 2725 
1556 1557 2662 2661 1621 1622 2727 2726 
1557 1558 2663 2662 1622 1623 2728 2727 
1558 1559 2664 2663 1623 1624 2729 2728 
1560 1561 2666 2665 1625 1626 2731 2730 
1561 1562 2667 2666 1626 1627 2732 2731 
1562 1563 2668 2667 1627 1628 2733 2732 
1563 1564 2669 2668 1628 1629 2734 2733 
1564 1565 2670 2669 1629 1630 2735 2734 
1565 1566 2671 2670 1630 1631 2736 2735 
1566 1567 2672 2671 1631 1632 2737 2736 
1567 1568 2673 2672 1632 1633 2738 2737 
1568 1569 2674 2673 1633 1634 2739 2738 
1569 1570 2675 2674 1634 1635 2740 2739 
1570 1571 2676 2675 1635 1636 2741 2740 
1571 1572 2677 2676 1636 1637 2742 2741 
1572 1573 2678 2677 1637 1638 2743 2742 
1573 1574 2679 2678 1638 1639 2744 2743 
1574 1575 2680 2679 1639 1640 2745 2744 
1575 1576 2681 2680 1640 1641 2746 2745 
1576 1577 2682 2681 1641 1642 2747 2746 
1577 1578 2683 2682 1642 1643 2748 2747 
1578 1579 2684 2683 1643 1644 2749 2748 
1579 1580 2685 2684 1644 1645 2750 2749 
1580 1581 2686 2685 1645 1646 2751 2750 
1581 1582 2687 2686 1646 1647 2752 2751 
1582 1583 2688 2687 1647 1648 2753 2752 
1583 1584 2689 2688 1648 1649 2754 2753 
1584 1585 2690 2689 1649 1650 2755 2754 
1585 1586 2691 2690 1650 1651 2756 2755 
1586 1587 2692 2691 1651 1652 2757 2756 
1587 1588 2693 2692 1652 1653 2758 2757 
1588 1589 2694 2693 1653 1654 2759 2758 
1589 1590 2695 2694 1654 1655 2760 2759 
1590 1591 2696 2695 1655 1656 2761 2760 
1591 1592 2697 2696 1656 1657 2762 2761 
1592 1593 2698 2697 1657 1658 2763 2762 
1593 1594 2699 2698 1658 1659 2764 2763 
1594 1595 2700 2699 1659 1660 2765 2764 
1595 1596 2701 2700 1660 1661 2766 2765 
1596 1597 2702 2701 1661 1662 2767 2766 
1597 1598 2703 2702 1662 1663 2768 2767 
1598 1599 2704 2703 1663 1664 2769 2768 
1599 1600 2705 2704 1664 1665 2770 2769 
1600 1601 2706 2705 1665 1666 2771 2770 
1601 1602 2707 2706 1666 1667 2772 2771 
1602 1603 2708 2707 1667 1668 2773 2772 
1603 1604 2709 2708 1668 1669 2774 2773 
1604 1605 2710 2709 1669 1670 2775 2774 
1605 1606 2711 2710 1670 1671 2776 2775 
1606 1607 2712 2711 1671 1672 2777 2776 
1607 1608 2713 2712 1672 1673 2778 2777 
1608 1609 2714 2713 1673 1674 2779 2778 
1609 1610 2715 2714 1674 1675 2780 2779 
1610 1611 2716 2715 1675 1676 2781 2780 
1611 1612 2717 2716 1676 1677 2782 2781 
1612 1613 2718 2717 1677 1678 2783 2782 
1613 1614 2719 2718 1678 1679 2784 2783 
1614 1615 2720 2719 1679 1680 2785 2784 
1615 1616 2721 2720 1680 1681 2786 2785 
1616 1617 2722 2721 1681 1682 2787 2786 
1617 1618 2723 2722 1682 1683 2788 2787 
1618 1619 2724 2723 1683 1684 2789 2788 
1619 1620 2725 2724 1684 1685 2790 2789 
1620 1621 2726 2725 1685 1686 2791 2790 
1621 1622 2727 2726 1686 1687 2792 2791 
1622 1623 2728 2727 1687 1688 2793 2792 
1623 1624 2729 2728 1688 1689 2794 2793 
1625 1626 2731 2730 1690 1691 2796 2795 
1626 1627 2732 2731 1691 1692 2797 2796 
1627 1628 2733 2732 1692 1693 2798 2797 
1628 1629 2734 2733 1693 1694 2799 2798 
1629 1630 2735 2734 1694 1695 2800 2799 
1630 1631 2736 2735 1695 1696 2801 2800 
1631 1632 2737 2736 1696 1697 2802 2801 
1632 1633 2738 2737 1697 1698 2803 2802 
1633 1634 2739 2738 1698 1699 2804 2803 
1634 1635 2740 2739 1699 1700 2805 2804 
1635 1636 2741 2740 1700 1701 2806 2805 
1636 1637 2742 2741 1701 1702 2807 2806 
1637 1638 2743 2742 1702 1703 2808 2807 
1638 1639 2744 2743 1703 1704 2809 2808 
1639 1640 2745 2744 1704 1705 2810 2809 
1640 1641 2746 2745 1705 1706 2811 2810 
1641 1642 2747 2746 1706 1707 2812 2811 
1642 1643 2748 2747 1707 1708 2813 2812 
1643 1644 2749 2748 1708 1709 2814 2813 
1644 1645 2750 2749 1709 1710 2815 2814 
1645 1646 2751 2750 1710 1711 2816 2815 
1646 1647 2752 2751 1711 1712 2817 2816 
1647 1648 2753 2752 1712 1713 2818 2817 
1648 1649 2754 2753 1713 1714 2819 2818 
1649 1650 2755 2754 1714 1715 2820 2819 
1650 1651 2756 2755 1715 1716 2821 2820 
1651 1652 2757 2756 1716 1717 2822 2821 
1652 1653 2758 2757 1717 1718 2823 2822 
1653 1654 2759 2758 1718 1719 2824 2823 
1654 1655 2760 2759 1719 1720 2825 2824 
1655 1656 2761 2760 1720 1721 2826 2825 
1656 1657 2762 2761 1721 1722 2827 2826 
1657 1658 2763 2762 1722 1723 2828 2827 
1658 1659 2764 2763 1723 1724 2829 2828 
1659 1660 2765 2764 1724 1725 2830 2829 
1660 1661 2766 2765 1725 1726 2831 2830 
1661 1662 2767 2766 1726 1727 2832 2831 
1662 1663 2768 2767 1727 1728 2833 2832 
1663 1664 2769 2768 1728 1729 2834 2833 
1664 1665 2770 2769 1729 1730 2835 2834 
1665 1666 2771 2770 1730 1731 2836 2835 
1666 1667 2772 2771 1731 1732 2837 2836 
1667 1668 2773 2772 1732 1733 2838 2837 
1668 1669 2774 2773 1733 1734 2839 2838 
1669 1670 2775 2774 1734 1735 2840 2839 
1670 1671 2776 2775 1735 1736 2841 2840 
1671 1672 2777 2776 1736 1737 2842 2841 
1672 1673 2778 2777 1737 1738 2843 2842 
1673 1674 2779 2778 1738 1739 2844 2843 
1674 1675 2780 2779 1739 1740 2845 2844 
1675 1676 2781 2780 1740 1741 2846 2845 
1676 1677 2782 2781 1741 1742 2847 2846 
1677 1678 2783 2782 1742 1743 2848 2847 
1678 1679 2784 2783 1743 1744 2849 2848 
1679 1680 2785 2784 1744 1745 2850 2849 
1680 1681 2786 2785 1745 1746 2851 2850 
1681 1682 2787 2786 1746 1747 2852 2851 
1682 1683 2788 2787 1747 1748 2853 2852 
1683 1684 2789 2788 1748 1749 2854 2853 
1684 1685 2790 2789 1749 1750 2855 2854 
1685 1686 2791 2790 1750 1751 2856 2855 
1686 1687 2792 2791 1751 1752 2857 2856 
1687 1688 2793 2792 1752 1753 2858 2857 
1688 1689 2794 2793 1753 1754 2859 2858 
1690 1691 2796 2795 1755 1756 2861 2860 
1691 1692 2797 2796 1756 1757 2862 2861 
1692 1693 2798 2797 1757 1758 2863 2862 
1693 1694 2799 2798 1758 1759 2864 2863 
1694 1695 2800 2799 1759 1760 2865 2864 
1695 1696 2801 2800 1760 1761 2866 2865 
1696 1697 2802 2801 1761 1762 2867 2866 
1697 1698 2803 2802 1762 1763 2868 2867 
1698 1699 2804 2803 1763 1764 2869 2868 
1699 1700 2805 2804 1764 1765 2870 2869 
1700 1701 2806 2805 1765 1766 2871 2870 
1701 1702 2807 2806 1766 1767 2872 2871 
1702 1703 2808 2807 1767 1768 2873 2872 
1703 1704 2809 2808 1768 1769 2874 2873 
1704 1705 2810 2809 1769 1770 2875 2874 
1705 1706 2811 2810 1770 1771 2876 2875 
1706 1707 2812 2811 1771 1772 2877 2876 
1707 1708 2813 2812 1772 1773 2878 2877 
1708 1709 2814 2813 1773 1774 2879 2878 
1709 1710 2815 2814 1774 1775 2880 2879 
1710 1711 2816 2815 1775 1776 2881 2880 
1711 1712 2817 2816 1776 1777 2882 2881 
1712 1713 2818 2817 1777 1778 2883 2882 
1713 1714 2819 2818 1778 1779 2884 2883 
1714 1715 2820 2819 1779 1780 2885 2884 
1715 1716 2821 2820 1780 1781 2886 2885 
1716 1717 2822 2821 1781 1782 2887 2886 
1717 1718 2823 2822 1782 1783 2888 2887 
1718 1719 2824 2823 1783 1784 2889 2888 
1719 1720 2825 2824 1784 1785 2890 2889 
1720 1721 2826 2825 1785 1786 2891 2890 
1721 1722 2827 2826 1786 1787 2892 2891 
1722 1723 2828 2827 1787 1788 2893 2892 
1723 1724 2829 2828 1788 1789 2894 2893 
1724 1725 2830 2829 1789 1790 2895 2894 
1725 1726 2831 2830 1790 1791 2896 2895 
1726 1727 2832 2831 1791 1792 2897 2896 
1727 1728 2833 2832 1792 1793 2898 2897 
1728 1729 2834 2833 1793 1794 2899 2898 
1729 1730 2835 2834 1794 1795 2900 2899 
1730 1731 2836 2835 1795 1796 2901 2900 
1731 1732 2837 2836 1796 1797 2902 2901 
1732 1733 2838 2837 1797 1798 2903 2902 
1733 1734 2839 2838 1798 1799 2904 2903 
1734 1735 2840 2839 1799 1800 2905 2904 
1735 1736 2841 2840 1800 1801 2906 2905 
1736 1737 2842 2841 1801 1802 2907 2906 
1737 1738 2843 2842 1802 1803 2908 2907 
1738 1739 2844 2843 1803 1804 2909 2908 
1739 1740 2845 2844 1804 1805 2910 2909 
1740 1741 2846 2845 1805 1806 2911 2910 
1741 1742 2847 2846 1806 1807 2912 2911 
1742 1743 2848 2847 1807 1808 2913 2912 
1743 1744 2849 2848 1808 1809 2914 2913 
1744 1745 2850 2849 1809 1810 2915 2914 
1745 1746 2851 2850 1810 1811 2916 2915 
1746 1747 2852 2851 1811 1812 2917 2916 
1747 1748 2853 2852 1812 1813 2918 2917 
1748 1749 2854 2853 1813 1814 2919 2918 
1749 1750 2855 2854 1814 1815 2920 2919 
1750 1751 2856 2855 1815 1816 2921 2920 
1751 1752 2857 2856 1816 1817 2922 2921 
1752 1753 2858 2857 1817 1818 2923 2922 
1753 1754 2859 2858 1818 1819 2924 2923 
1755 1756 2861 2860 1820 1821 2926 2925 
1756 1757 2862 2861 1821 1822 2927 2926 
1757 1758 2863 2862 1822 1823 2928 2927 
1758 1759 2864 2863 1823 1824 2929 2928 
1759 1760 2865 2864 1824 1825 2930 2929 
1760 1761 2866 2865 1825 1826 2931 2930 
1761 1762 2867 2866 1826 1827 2932 2931 
1762 1763 2868 2867 1827 1828 2933 2932 
1763 1764 2869 2868 1828 1829 2934 2933 
1764 1765 2870 2869 1829 1830 2935 2934 
1765 1766 2871 2870 1830 1831 2936 2935 
1766 1767 2872 2871 1831 1832 2937 2936 
1767 1768 2873 2872 1832 1833 2938 2937 
1768 1769 2874 2873 1833 1834 2939 2938 
1769 1770 2875 2874 1834 1835 2940 2939 
1770 1771 2876 2875 1835 1836 2941 2940 
1771 1772 2877 2876 1836 1837 2942 2941 
1772 1773 2878 2877 1837 1838 2943 2942 
1773 1774 2879 2878 1838 1839 2944 2943 
1774 1775 2880 2879 1839 1840 2945 2944 
1775 1776 2881 2880 1840 1841 2946 2945 
1776 1777 2882 2881 1841 1842 2947 2946 
1777 1778 2883 2882 1842 1843 2948 2947 
1778 1779 2884 2883 1843 1844 2949 2948 
1779 1780 2885 2884 1844 1845 2950 2949 
1780 1781 2886 2885 1845 1846 2951 2950 
1781 1782 2887 2886 1846 1847 2952 2951 
1782 1783 2888 2887 1847 1848 2953 2952 
1783 1784 2889 2888 1848 1849 2954 2953 
1784 1785 2890 2889 1849 1850 2955 2954 
1785 1786 2891 2890 1850 1851 2956 2955 
1786 1787 2892 2891 1851 1852 2957 2956 
1787 1788 2893 2892 1852 1853 2958 2957 
1788 1789 2894 2893 1853 1854 2959 2958 
1789 1790 2895 2894 1854 1855 2960 2959 
1790 1791 2896 2895 1855 1856 2961 2960 
1791 1792 2897 2896 1856 1857 2962 2961 
1792 1793 2898 2897 1857 1858 2963 2962 
1793 1794 2899 2898 1858 1859 2964 2963 
1794 1795 2900 2899 1859 1860 2965 2964 
1795 1796 2901 2900 1860 1861 2966 2965 
1796 1797 2902 2901 1861 1862 2967 2966 
1797 1798 2903 2902 1862 1863 2968 2967 
1798 1799 2904 2903 1863 1864 2969 2968 
1799 1800 2905 2904 1864 1865 2970 2969 
1800 1801 2906 2905 1865 1866 2971 2970 
1801 1802 2907 2906 1866 1867 2972 2971 
1802 1803 2908 2907 1867 1868 2973 2972 
1803 1804 2909 2908 1868 1869 2974 2973 
1804 1805 2910 2909 1869 1870 2975 2974 
1805 1806 2911 2910 1870 1871 2976 2975 
1806 1807 2912 2911 1871 1872 2977 2976 
1807 1808 2913 2912 1872 1873 2978 2977 
1808 1809 2914 2913 1873 1874 2979 2978 
1809 1810 2915 2914 1874 1875 2980 2979 
1810 1811 2916 2915 1875 1876 2981 2980 
1811 1812 2917 2916 1876 1877 2982 2981 
1812 1813 2918 2917 1877 1878 2983 2982 
1813 1814 2919 2918 1878 1879 2984 2983 
1814 1815 2920 2919 1879 1880 2985 2984 
1815 1816 2921 2920 1880 1881 2986 2985 
1816 1817 2922 2921 1881 1882 2987 2986 
1817 1818 2923 2922 1882 1883 2988 2987 
1818 1819 2924 2923 1883 1884 2989 2988 
1820 1821 2926 2925 1885 1886 2991 2990 
1821 1822 2927 2926 1886 1887 2992 2991 
1822 1823 2928 2927 1887 1888 2993 2992 
1823 1824 2929 2928 1888 1889 2994 2993 
1824 1825 2930 2929 1889 1890 2995 2994 
1825 1826 2931 2930 1890 1891 2996 2995 
1826 1827 2932 2931 1891 1892 2997 2996 
1827 1828 2933 2932 1892 1893 2998 2997 
1828 1829 2934 2933 1893 1894 2999 2998 
1829 1830 2935 2934 1894 1895 3000 2999 
1830 1831 2936 2935 1895 1896 3001 3000 
1831 1832 2937 2936 1896 1897 3002 3001 
1832 1833 2938 2937 1897 1898 3003 3002 
1833 1834 2939 2938 1898 1899 3004 3003 
1834 1835 2940 2939 1899 1900 3005 3004 
1835 1836 2941 2940 1900 1901 3006 3005 
1836 1837 2942 2941 1901 1902 3007 3006 
1837 1838 2943 2942 1902 1903 3008 3007 
1838 1839 2944 2943 1903 1904 3009 3008 
1839 1840 2945 2944 1904 1905 3010 3009 
1840 1841 2946 2945 1905 1906 3011 3010 
1841 1842 2947 2946 1906 1907 3012 3011 
1842 1843 2948 2947 1907 1908 3013 3012 
1843 1844 2949 2948 1908 1909 3014 3013 
1844 1845 2950 2949 1909 1910 3015 3014 
1845 1846 2951 2950 1910 1911 3016 3015 
1846 1847 2952 2951 1911 1912 3017 3016 
1847 1848 2953 2952 1912 1913 3018 3017 
1848 1849 2954 2953 1913 1914 3019 3018 
1849 1850 2955 2954 1914 1915 3020 3019 
1850 1851 2956 2955 1915 1916 3021 3020 
1851 1852 2957 2956 1916 1917 3022 3021 
1852 1853 2958 2957 1917 1918 3023 3022 
1853 1854 2959 2958 1918 1919 3024 3023 
1854 1855 2960 2959 1919 1920 3025 3024 
1855 1856 2961 2960 1920 1921 3026 3025 
1856 1857 2962 2961 1921 1922 3027 3026 
1857 1858 2963 2962 1922 1923 3028 3027 
1858 1859 2964 2963 1923 1924 3029 3028 
1859 1860 2965 2964 1924 1925 3030 3029 
1860 1861 2966 2965 1925 1926 3031 3030 
1861 1862 2967 2966 1926 1927 3032 3031 
1862 1863 2968 2967 1927 1928 3033 3032 
1863 1864 2969 2968 1928 1929 3034 3033 
1864 1865 2970 2969 1929 1930 3035 3034 
1865 1866 2971 2970 1930 1931 3036 3035 
1866 1867 2972 2971 1931 1932 3037 3036 
1867 1868 2973 2972 1932 1933 3038 3037 
1868 1869 2974 2973 1933 1934 3039 3038 
1869 1870 2975 2974 1934 1935 3040 3039 
1870 1871 2976 2975 1935 1936 3041 3040 
1871 1872 2977 2976 1936 1937 3042 3041 
1872 1873 2978 2977 1937 1938 3043 3042 
1873 1874 2979 2978 1938 1939 3044 3043 
1874 1875 2980 2979 1939 1940 3045 3044 
1875 1876 2981 2980 1940 1941 3046 3045 
1876 1877 2982 2981 1941 1942 3047 3046 
1877 1878 2983 2982 1942 1943 3048 3047 
1878 1879 2984 2983 1943 1944 3049 3048 
1879 1880 2985 2984 1944 1945 3050 3049 
1880 1881 2986 2985 1945 1946 3051 3050 
1881 1882 2987 2986 1946 1947 3052 3051 
1882 1883 2988 2987 1947 1948 3053 3052 
1883 1884 2989 2988 1948 1949 3054 3053 
1885 1886 2991 2990 1950 1951 3056 3055 
1886 1887 2992 2991 1951 1952 3057 3056 
1887 1888 2993 2992 1952 1953 3058 3057 
1888 1889 2994 2993 1953 1954 3059 3058 
1889 1890 2995 2994 1954 1955 3060 3059 
1890 1891 2996 2995 1955 1956 3061 3060 
1891 1892 2997 2996 1956 1957 3062 3061 
1892 1893 2998 2997 1957 1958 3063 3062 
1893 1894 2999 2998 1958 1959 3064 3063 
1894 1895 3000 2999 1959 1960 3065 3064 
1895 1896 3001 3000 1960 1961 3066 3065 
1896 1897 3002 3001 1961 1962 3067 3066 
1897 1898 3003 3002 1962 1963 3068 3067 
1898 1899 3004 3003 1963 1964 3069 3068 
1899 1900 3005 3004 1964 1965 3070 3069 
1900 1901 3006 3005 1965 1966 3071 3070 
1901 1902 3007 3006 1966 1967 3072 3071 
1902 1903 3008 3007 1967 1968 3073 3072 
1903 1904 3009 3008 1968 1969 3074 3073 
1904 1905 3010 3009 1969 1970 3075 3074 
1905 1906 3011 3010 1970 1971 3076 3075 
1906 1907 3012 3011 1971 1972 3077 3076 
1907 1908 3013 3012 1972 1973 3078 3077 
1908 1909 3014 3013 1973 1974 3079 3078 
1909 1910 3015 3014 1974 1975 3080 3079 
1910 1911 3016 3015 1975 1976 3081 3080 
1911 1912 3017 3016 1976 1977 3082 3081 
1912 1913 3018 3017 1977 1978 3083 3082 
1913 1914 3019 3018 1978 1979 3084 3083 
1914 1915 3020 3019 1979 1980 3085 3084 
1915 1916 3021 3020 1980 1981 3086 3085 
1916 1917 3022 3021 1981 1982 3087 3086 
1917 1918 3023 3022 1982 1983 3088 3087 
1918 1919 3024 3023 1983 1984 3089 3088 
1919 1920 3025 3024 1984 1985 3090 3089 
1920 1921 3026 3025 1985 1986 3091 3090 
1921 1922 3027 3026 1986 1987 3092 3091 
1922 1923 3028 3027 1987 1988 3093 3092 
1923 1924 3029 3028 1988 1989 3094 3093 
1924 1925 3030 3029 1989 1990 3095 3094 
1925 1926 3031 3030 1990 1991 3096 3095 
1926 1927 3032 3031 1991 1992 3097 3096 
1927 1928 3033 3032 1992 1993 3098 3097 
1928 1929 3034 3033 1993 1994 3099 3098 
1929 1930 3035 3034 1994 1995 3100 3099 
1930 1931 3036 3035 1995 1996 3101 3100 
1931 1932 3037 3036 1996 1997 3102 3101 
1932 1933 3038 3037 1997 1998 3103 3102 
1933 1934 3039 3038 1998 1999 3104 3103 
1934 1935 3040 3039 1999 2000 3105 3104 
1935 1936 3041 3040 2000 2001 3106 3105 
1936 1937 3042 3041 2001 2002 3107 3106 
1937 1938 3043 3042 2002 2003 3108 3107 
1938 1939 3044 3043 2003 2004 3109 3108 
1939 1940 3045 3044 2004 2005 3110 3109 
1940 1941 3046 3045 2005 2006 3111 3110 
1941 1942 3047 3046 2006 2007 3112 3111 
1942 1943 3048 3047 2007 2008 3113 3112 
1943 1944 3049 3048 2008 2009 3114 3113 
1944 1945 3050 3049 2009 2010 3115 3114 
1945 1946 3051 3050 2010 2011 3116 3115 
1946 1947 3052 3051 2011 2012 3117 3116 
1947 1948 3053 3052 2012 2013 3118 3117 
1948 1949 3054 3053 2013 2014 3119 3118 
1950 1951 3056 3055 2015 2016 3121 3120 
1951 1952 3057 3056 2016 2017 3122 3121 
1952 1953 3058 3057 2017 2018 3123 3122 
1953 1954 3059 3058 2018 2019 3124 3123 
1954 1955 3060 3059 2019 2020 3125 3124 
1955 1956 3061 3060 2020 2021 3126 3125 
1956 1957 3062 3061 2021 2022 3127 3126 
1957 1958 3063 3062 2022 2023 3128 3127 
1958 1959 3064 3063 2023 2024 3129 3128 
1959 1960 3065 3064 2024 2025 3130 3129 
1960 1961 3066 3065 2025 2026 3131 3130 
1961 1962 3067 3066 2026 2027 3132 3131 
1962 1963 3068 3067 2027 2028 3133 3132 
1963 1964 3069 3068 2028 2029 3134 3133 
1964 1965 3070 3069 2029 2030 3135 3134 
1965 1966 3071 3070 2030 2031 3136 3135 
1966 1967 3072 3071 2031 2032 3137 3136 
1967 1968 3073 3072 2032 2033 3138 3137 
1968 1969 3074 3073 2033 2034 3139 3138 
1969 1970 3075 3074 2034 2035 3140 3139 
1970 1971 3076 3075 2035 2036 3141 3140 
1971 1972 3077 3076 2036 2037 3142 3141 
1972 1973 3078 3077 2037 2038 3143 3142 
1973 1974 3079 3078 2038 2039 3144 3143 
1974 1975 3080 3079 2039 2040 3145 3144 
1975 1976 3081 3080 2040 2041 3146 3145 
1976 1977 3082 3081 2041 2042 3147 3146 
1977 1978 3083 3082 2042 2043 3148 3147 
1978 1979 3084 3083 2043 2044 3149 3148 
1979 1980 3085 3084 2044 2045 3150 3149 
1980 1981 3086 3085 2045 2046 3151 3150 
1981 1982 3087 3086 2046 2047 3152 3151 
1982 1983 3088 3087 2047 2048 3153 3152 
1983 1984 3089 3088 2048 2049 3154 3153 
1984 1985 3090 3089 2049 2050 3155 3154 
1985 1986 3091 3090 2050 2051 3156 3155 
1986 1987 3092 3091 2051 2052 3157 3156 
1987 1988 3093 3092 2052 2053 3158 3157 
1988 1989 3094 3093 2053 2054 3159 3158 
1989 1990 3095 3094 2054 2055 3160 3159 
1990 1991 3096 3095 2055 2056 3161 3160 
1991 1992 3097 3096 2056 2057 3162 3161 
1992 1993 3098 3097 2057 2058 3163 3162 
1993 1994 3099 3098 2058 2059 3164 3163 
1994 1995 3100 3099 2059 2060 3165 3164 
1995 1996 3101 3100 2060 2061 3166 3165 
1996 1997 3102 3101 2061 2062 3167 3166 
1997 1998 3103 3102 2062 2063 3168 3167 
1998 1999 3104 3103 2063 2064 3169 3168 
1999 2000 3105 3104 2064 2065 3170 3169 
2000 2001 3106 3105 2065 2066 3171 3170 
2001 2002 3107 3106 2066 2067 3172 3171 
2002 2003 3108 3107 2067 2068 3173 3172 
2003 2004 3109 3108 2068 2069 3174 3173 
2004 2005 3110 3109 2069 2070 3175 3174 
2005 2006 3111 3110 2070 2071 3176 3175 
2006 2007 3112 3111 2071 2072 3177 3176 
2007 2008 3113 3112 2072 2073 3178 3177 
2008 2009 3114 3113 2073 2074 3179 3178 
2009 2010 3115 3114 2074 2075 3180 3179 
2010 2011 3116 3115 2075 2076 3181 3180 
2011 2012 3117 3116 2076 2077 3182 3181 
2012 2013 3118 3117 2077 2078 3183 3182 
2013 2014 3119 3118 2078 2079 3184 3183 
2015 2016 3121 3120 2080 2081 3186 3185 
2016 2017 3122 3121 2081 2082 3187 3186 
2017 2018 3123 3122 2082 2083 3188 3187 
2018 2019 3124 3123 2083 2084 3189 3188 
2019 2020 3125 3124 2084 2085 3190 3189 
2020 2021 3126 3125 2085 2086 3191 3190 
2021 2022 3127 3126 2086 2087 3192 3191 
2022 2023 3128 3127 2087 2088 3193 3192 
2023 2024 3129 3128 2088 2089 3194 3193 
2024 2025 3130 3129 2089 2090 3195 3194 
2025 2026 3131 3130 2090 2091 3196 3195 
2026 2027 3132 3131 2091 2092 3197 3196 
2027 2028 3133 3132 2092 2093 3198 3197 
2028 2029 3134 3133 2093 2094 3199 3198 
2029 2030 3135 3134 2094 2095 3200 3199 
2030 2031 3136 3135 2095 2096 3201 3200 
2031 2032 3137 3136 2096 2097 3202 3201 
2032 2033 3138 3137 2097 2098 3203 3202 
2033 2034 3139 3138 2098 2099 3204 3203 
2034 2035 3140 3139 2099 2100 3205 3204 
2035 2036 3141 3140 2100 2101 3206 3205 
2036 2037 3142 3141 2101 2102 3207 3206 
2037 2038 3143 3142 2102 2103 3208 3207 
2038 2039 3144 3143 2103 2104 3209 3208 
2039 2040 3145 3144 2104 2105 3210 3209 
2040 2041 3146 3145 2105 2106 3211 3210 
2041 2042 3147 3146 2106 2107 3212 3211 
2042 2043 3148 3147 2107 2108 3213 3212 
2043 2044 3149 3148 2108 2109 3214 3213 
2044 2045 3150 3149 2109 2110 3215 3214 
2045 2046 3151 3150 2110 2111 3216 3215 
2046 2047 3152 3151 2111 2112 3217 3216 
2047 2048 3153 3152 2112 2113 3218 3217 
2048 2049 3154 3153 2113 2114 3219 3218 
2049 2050 3155 3154 2114 2115 3220 3219 
2050 2051 3156 3155 2115 2116 3221 3220 
2051 2052 3157 3156 2116 2117 3222 3221 
2052 2053 3158 3157 2117 2118 3223 3222 
2053 2054 3159 3158 2118 2119 3224 3223 
2054 2055 3160 3159 2119 2120 3225 3224 
2055 2056 3161 3160 2120 2121 3226 3225 
2056 2057 3162 3161 2121 2122 3227 3226 
2057 2058 3163 3162 2122 2123 3228 3227 
2058 2059 3164 3163 2123 2124 3229 3228 
2059 2060 3165 3164 2124 2125 3230 3229 
2060 2061 3166 3165 2125 2126 3231 3230 
2061 2062 3167 3166 2126 2127 3232 3231 
2062 2063 3168 3167 2127 2128 3233 3232 
2063 2064 3169 3168 2128 2129 3234 3233 
2064 2065 3170 3169 2129 2130 3235 3234 
2065 2066 3171 3170 2130 2131 3236 3235 
2066 2067 3172 3171 2131 2132 3237 3236 
2067 2068 3173 3172 2132 2133 3238 3237 
2068 2069 3174 3173 2133 2134 3239 3238 
2069 2070 3175 3174 2134 2135 3240 3239 
2070 2071 3176 3175 2135 2136 3241 3240 
2071 2072 3177 3176 2136 2137 3242 3241 
2072 2073 3178 3177 2137 2138 3243 3242 
2073 2074 3179 3178 2138 2139 3244 3243 
2074 2075 3180 3179 2139 2140 3245 3244 
2075 2076 3181 3180 2140 2141 3246 3245 
2076 2077 3182 3181 2141 2142 3247 3246 
2077 2078 3183 3182 2142 2143 3248 3247 
2078 2079 3184 3183 2143 2144 3249 3248 
2080 2081 3186 3185 2145 2146 3251 3250 
2081 2082 3187 3186 2146 2147 3252 3251 
2082 2083 3188 3187 2147 2148 3253 3252 
2083 2084 3189 3188 2148 2149 3254 3253 
2084 2085 3190 3189 2149 2150 3255 3254 
2085 2086 3191 3190 2150 2151 3256 3255 
2086 2087 3192 3191 2151 2152 3257 3256 
2087 2088 3193 3192 2152 2153 3258 3257 
2088 2089 3194 3193 2153 2154 3259 3258 
2089 2090 3195 3194 2154 2155 3260 3259 
2090 2091 3196 3195 2155 2156 3261 3260 
2091 2092 3197 3196 2156 2157 3262 3261 
2092 2093 3198 3197 2157 2158 3263 3262 
2093 2094 3199 3198 2158 2159 3264 3263 
2094 2095 3200 3199 2159 2160 3265 3264 
2095 2096 3201 3200 2160 2161 3266 3265 
2096 2097 3202 3201 2161 2162 3267 3266 
2097 2098 3203 3202 2162 2163 3268 3267 
2098 2099 3204 3203 2163 2164 3269 3268 
2099 2100 3205 3204 2164 2165 3270 3269 
2100 2101 3206 3205 2165 2166 3271 3270 
2101 2102 3207 3206 2166 2167 3272 3271 
2102 2103 3208 3207 2167 2168 3273 3272 
2103 2104 3209 3208 2168 2169 3274 3273 
2104 2105 3210 3209 2169 2170 3275 3274 
2105 2106 3211 3210 2170 2171 3276 3275 
2106 2107 3212 3211 2171 2172 3277 3276 
2107 2108 3213 3212 2172 2173 3278 3277 
2108 2109 3214 3213 2173 2174 3279 3278 
2109 2110 3215 3214 2174 2175 3280 3279 
2110 2111 3216 3215 2175 2176 3281 3280 
2111 2112 3217 3216 2176 2177 3282 3281 
2112 2113 3218 3217 2177 2178 3283 3282 
2113 2114 3219 3218 2178 2179 3284 3283 
2114 2115 3220 3219 2179 2180 3285 3284 
2115 2116 3221 3220 2180 2181 3286 3285 
2116 2117 3222 3221 2181 2182 3287 3286 
2117 2118 3223 3222 2182 2183 3288 3287 
2118 2119 3224 3223 2183 2184 3289 3288 
2119 2120 3225 3224 2184 2185 3290 3289 
2120 2121 3226 3225 2185 2186 3291 3290 
2121 2122 3227 3226 2186 2187 3292 3291 
2122 2123 3228 3227 2187 2188 3293 3292 
2123 2124 3229 3228 2188 2189 3294 3293 
2124 2125 3230 3229 2189 2190 3295 3294 
2125 2126 3231 3230 2190 2191 3296 3295 
2126 2127 3232 3231 2191 2192 3297 3296 
2127 2128 3233 3232 2192 2193 3298 3297 
2128 2129 3234 3233 2193 2194 3299 3298 
2129 2130 3235 3234 2194 2195 3300 3299 
2130 2131 3236 3235 2195 2196 3301 3300 
2131 2132 3237 3236 2196 2197 3302 3301 
2132 2133 3238 3237 2197 2198 3303 3302 
2133 2134 3239 3238 2198 2199 3304 3303 
2134 2135 3240 3239 2199 2200 3305 3304 
2135 2136 3241 3240 2200 2201 3306 3305 
2136 2137 3242 3241 2201 2202 3307 3306 
2137 2138 3243 3242 2202 2203 3308 3307 
2138 2139 3244 3243 2203 2204 3309 3308 
2139 2140 3245 3244 2204 2205 3310 3309 
2140 2141 3246 3245 2205 2206 3311 3310 
2141 2142 3247 3246 2206 2207 3312 3311 
2142 2143 3248 3247 2207 2208 3313 3312 
2143 2144 3249 3248 2208 2209 3314 3313 
2210 2211 3316 3315 2275 2276 3381 3380 
2211 2212 3317 3316 2276 2277 3382 3381 
2212 2213 3318 3317 2277 2278 3383 3382 
2213 2214 3319 3318 2278 2279 3384 3383 
2214 2215 3320 3319 2279 2280 3385 3384 
2215 2216 3321 3320 2280 2281 3386 3385 
2216 2217 3322 3321 2281 2282 3387 3386 
2217 2218 3323 3322 2282 2283 3388 3387 
2218 2219 3324 3323 2283 2284 3389 3388 
2219 2220 3325 3324 2284 2285 3390 3389 
2220 2221 3326 3325 2285 2286 3391 3390 
2221 2222 3327 3326 2286 2287 3392 3391 
2222 2223 3328 3327 2287 2288 3393 3392 
2223 2224 3329 3328 2288 2289 3394 3393 
2224 2225 3330 3329 2289 2290 3395 3394 
2225 2226 3331 3330 2290 2291 3396 3395 
2226 2227 3332 3331 2291 2292 3397 3396 
2227 2228 3333 3332 2292 2293 3398 3397 
2228 2229 3334 3333 2293 2294 3399 3398 
2229 2230 3335 3334 2294 2295 3400 3399 
2230 2231 3336 3335 2295 2296 3401 3400 
2231 2232 3337 3336 2296 2297 3402 3401 
2232 2233 3338 3337 2297 2298 3403 3402 
2233 2234 3339 3338 2298 2299 3404 3403 
2234 2235 3340 3339 2299 2300 3405 3404 
2235 2236 3341 3340 2300 2301 3406 3405 
2236 2237 3342 3341 2301 2302 3407 3406 
2237 2238 3343 3342 2302 2303 3408 3407 
2238 2239 3344 3343 2303 2304 3409 3408 
2239 2240 3345 3344 2304 2305 3410 3409 
2240 2241 3346 3345 2305 2306 3411 3410 
2241 2242 3347 3346 2306 2307 3412 3411 
2242 2243 3348 3347 2307 2308 3413 3412 
2243 2244 3349 3348 2308 2309 3414 3413 
2244 2245 3350 3349 2309 2310 3415 3414 
2245 2246 3351 3350 2310 2311 3416 3415 
2246 2247 3352 3351 2311 2312 3417 3416 
2247 2248 3353 3352 2312 2313 3418 3417 
2248 2249 3354 3353 2313 2314 3419 3418 
2249 2250 3355 3354 2314 2315 3420 3419 
2250 2251 3356 3355 2315 2316 3421 3420 
2251 2252 3357 3356 2316 2317 3422 3421 
2252 2253 3358 3357 2317 2318 3423 3422 
2253 2254 3359 3358 2318 2319 3424 3423 
2254 2255 3360 3359 2319 2320 3425 3424 
2255 2256 3361 3360 2320 2321 3426 3425 
2256 2257 3362 3361 2321 2322 3427 3426 
2257 2258 3363 3362 2322 2323 3428 3427 
2258 2259 3364 3363 2323 2324 3429 3428 
2259 2260 3365 3364 2324 2325 3430 3429 
2260 2261 3366 3365 2325 2326 3431 3430 
2261 2262 3367 3366 2326 2327 3432 3431 
2262 2263 3368 3367 2327 2328 3433 3432 
2263 2264 3369 3368 2328 2329 3434 3433 
2264 2265 3370 3369 2329 2330 3435 3434 
2265 2266 3371 3370 2330 2331 3436 3435 
2266 2267 3372 3371 2331 2332 3437 3436 
2267 2268 3373 3372 2332 2333 3438 3437 
2268 2269 3374 3373 2333 2334 3439 3438 
2269 2270 3375 3374 2334 2335 3440 3439 
2270 2271 3376 3375 2335 2336 3441 3440 
2271 2272 3377 3376 2336 2337 3442 3441 
2272 2273 3378 3377 2337 2338 3443 3442 
2273 2274 3379 3378 2338 2339 3444 3443 
2275 2276 3381 3380 2340 2341 3446 3445 
2276 2277 3382 3381 2341 2342 3447 3446 
2277 2278 3383 3382 2342 2343 3448 3447 
2278 2279 3384 3383 2343 2344 3449 3448 
2279 2280 3385 3384 2344 2345 3450 3449 
2280 2281 3386 3385 2345 2346 3451 3450 
2281 2282 3387 3386 2346 2347 3452 3451 
2282 2283 3388 3387 2347 2348 3453 3452 
2283 2284 3389 3388 2348 2349 3454 3453 
2284 2285 3390 3389 2349 2350 3455 3454 
2285 2286 3391 3390 2350 2351 3456 3455 
2286 2287 3392 3391 2351 2352 3457 3456 
2287 2288 3393 3392 2352 2353 3458 3457 
2288 2289 3394 3393 2353 2354 3459 3458 
2289 2290 3395 3394 2354 2355 3460 3459 
2290 2291 3396 3395 2355 2356 3461 3460 
2291 2292 3397 3396 2356 2357 3462 3461 
2292 2293 3398 3397 2357 2358 3463 3462 
2293 2294 3399 3398 2358 2359 3464 3463 
2294 2295 3400 3399 2359 2360 3465 3464 
2295 2296 3401 3400 2360 2361 3466 3465 
2296 2297 3402 3401 2361 2362 3467 3466 
2297 2298 3403 3402 2362 2363 3468 3467 
2298 2299 3404 3403 2363 2364 3469 3468 
2299 2300 3405 3404 2364 2365 3470 3469 
2300 2301 3406 3405 2365 2366 3471 3470 
2301 2302 3407 3406 2366 2367 3472 3471 
2302 2303 3408 3407 2367 2368 3473 3472 
2303 2304 3409 3408 2368 2369 3474 3473 
2304 2305 3410 3409 2369 2370 3475 3474 
2305 2306 3411 3410 2370 2371 3476 3475 
2306 2307 3412 3411 2371 2372 3477 3476 
2307 2308 3413 3412 2372 2373 3478 3477 
2308 2309 3414 3413 2373 2374 3479 3478 
2309 2310 3415 3414 2374 2375 3480 3479 
2310 2311 3416 3415 2375 2376 3481 3480 
2311 2312 3417 3416 2376 2377 3482 3481 
2312 2313 3418 3417 2377 2378 3483 3482 
2313 2314 3419 3418 2378 2379 3484 3483 
2314 2315 3420 3419 2379 2380 3485 3484 
2315 2316 3421 3420 2380 2381 3486 3485 
2316 2317 3422 3421 2381 2382 3487 3486 
2317 2318 3423 3422 2382 2383 3488 3487 
2318 2319 3424 3423 2383 2384 3489 3488 
2319 2320 3425 3424 2384 2385 3490 3489 
2320 2321 3426 3425 2385 2386 3491 3490 
2321 2322 3427 3426 2386 2387 3492 3491 
2322 2323 3428 3427 2387 2388 3493 3492 
2323 2324 3429 3428 2388 2389 3494 3493 
2324 2325 3430 3429 2389 2390 3495 3494 
2325 2326 3431 3430 2390 2391 3496 3495 
2326 2327 3432 3431 2391 2392 3497 3496 
2327 2328 3433 3432 2392 2393 3498 3497 
2328 2329 3434 3433 2393 2394 3499 3498 
2329 2330 3435 3434 2394 2395 3500 3499 
2330 2331 3436 3435 2395 2396 3501 3500 
2331 2332 3437 3436 2396 2397 3502 3501 
2332 2333 3438 3437 2397 2398 3503 3502 
2333 2334 3439 3438 2398 2399 3504 3503 
2334 2335 3440 3439 2399 2400 3505 3504 
2335 2336 3441 3440 2400 2401 3506 3505 
2336 2337 3442 3441 2401 2402 3507 3506 
2337 2338 3443 3442 2402 2403 3508 3507 
2338 2339 3444 3443 2403 2404 3509 3508 
2340 2341 3446 3445 2405 2406 3511 3510 
2341 2342 3447 3446 2406 2407 3512 3511 
2342 2343 3448 3447 2407 2408 3513 3512 
2343 2344 3449 3448 2408 2409 3514 3513 
2344 2345 3450 3449 2409 2410 3515 3514 
2345 2346 3451 3450 2410 2411 3516 3515 
2346 2347 3452 3451 2411 2412 3517 3516 
2347 2348 3453 3452 2412 2413 3518 3517 
2348 2349 3454 3453 2413 2414 3519 3518 
2349 2350 3455 3454 2414 2415 3520 3519 
2350 2351 3456 3455 2415 2416 3521 3520 
2351 2352 3457 3456 2416 2417 3522 3521 
2352 2353 3458 3457 2417 2418 3523 3522 
2353 2354 3459 3458 2418 2419 3524 3523 
2354 2355 3460 3459 2419 2420 3525 3524 
2355 2356 3461 3460 2420 2421 3526 3525 
2356 2357 3462 3461 2421 2422 3527 3526 
2357 2358 3463 3462 2422 2423 3528 3527 
2358 2359 3464 3463 2423 2424 3529 3528 
2359 2360 3465 3464 2424 2425 3530 3529 
2360 2361 3466 3465 2425 2426 3531 3530 
2361 2362 3467 3466 2426 2427 3532 3531 
2362 2363 3468 3467 2427 2428 3533 3532 
2363 2364 3469 3468 2428 2429 3534 3533 
2364 2365 3470 3469 2429 2430 3535 3534 
2365 2366 3471 3470 2430 2431 3536 3535 
2366 2367 3472 3471 2431 2432 3537 3536 
2367 2368 3473 3472 2432 2433 3538 3537 
2368 2369 3474 3473 2433 2434 3539 3538 
2369 2370 3475 3474 2434 2435 3540 3539 
2370 2371 3476 3475 2435 2436 3541 3540 
2371 2372 3477 3476 2436 2437 3542 3541 
2372 2373 3478 3477 2437 2438 3543 3542 
2373 2374 3479 3478 2438 2439 3544 3543 
2374 2375 3480 3479 2439 2440 3545 3544 
2375 2376 3481 3480 2440 2441 3546 3545 
2376 2377 3482 3481 2441 2442 3547 3546 
2377 2378 3483 3482 2442 2443 3548 3547 
2378 2379 3484 3483 2443 2444 3549 3548 
2379 2380 3485 3484 2444 2445 3550 3549 
2380 2381 3486 3485 2445 2446 3551 3550 
2381 2382 3487 3486 2446 2447 3552 3551 
2382 2383 3488 3487 2447 2448 3553 3552 
2383 2384 3489 3488 2448 2449 3554 3553 
2384 2385 3490 3489 2449 2450 3555 3554 
2385 2386 3491 3490 2450 2451 3556 3555 
2386 2387 3492 3491 2451 2452 3557 3556 
2387 2388 3493 3492 2452 2453 3558 3557 
2388 2389 3494 3493 2453 2454 3559 3558 
2389 2390 3495 3494 2454 2455 3560 3559 
2390 2391 3496 3495 2455 2456 3561 3560 
2391 2392 3497 3496 2456 2457 3562 3561 
2392 2393 3498 3497 2457 2458 3563 3562 
2393 2394 3499 3498 2458 2459 3564 3563 
2394 2395 3500 3499 2459 2460 3565 3564 
2395 2396 3501 3500 2460 2461 3566 3565 
2396 2397 3502 3501 2461 2462 3567 3566 
2397 2398 3503 3502 2462 2463 3568 3567 
2398 2399 3504 3503 2463 2464 3569 3568 
2399 2400 3505 3504 2464 2465 3570 3569 
2400 2401 3506 3505 2465 2466 3571 3570 
2401 2402 3507 3506 2466 2467 3572 3571 
2402 2403 3508 3507 2467 2468 3573 3572 
2403 2404 3509 3508 2468 2469 3574 3573 
2405 2406 3511 3510 2470 2471 3576 3575 
2406 2407 3512 3511 2471 2472 3577 3576 
2407 2408 3513 3512 2472 2473 3578 3577 
2408 2409 3514 3513 2473 2474 3579 3578 
2409 2410 3515 3514 2474 2475 3580 3579 
2410 2411 3516 3515 2475 2476 3581 3580 
2411 2412 3517 3516 2476 2477 3582 3581 
2412 2413 3518 3517 2477 2478 3583 3582 
2413 2414 3519 3518 2478 2479 3584 3583 
2414 2415 3520 3519 2479 2480 3585 3584 
2415 2416 3521 3520 2480 2481 3586 3585 
2416 2417 3522 3521 2481 2482 3587 3586 
2417 2418 3523 3522 2482 2483 3588 3587 
2418 2419 3524 3523 2483 2484 3589 3588 
2419 2420 3525 3524 2484 2485 3590 3589 
2420 2421 3526 3525 2485 2486 3591 3590 
2421 2422 3527 3526 2486 2487 3592 3591 
2422 2423 3528 3527 2487 2488 3593 3592 
2423 2424 3529 3528 2488 2489 3594 3593 
2424 2425 3530 3529 2489 2490 3595 3594 
2425 2426 3531 3530 2490 2491 3596 3595 
2426 2427 3532 3531 2491 2492 3597 3596 
2427 2428 3533 3532 2492 2493 3598 3597 
2428 2429 3534 3533 2493 2494 3599 3598 
2429 2430 3535 3534 2494 2495 3600 3599 
2430 2431 3536 3535 2495 2496 3601 3600 
2431 2432 3537 3536 2496 2497 3602 3601 
2432 2433 3538 3537 2497 2498 3603 3602 
2433 2434 3539 3538 2498 2499 3604 3603 
2434 2435 3540 3539 2499 2500 3605 3604 
2435 2436 3541 3540 2500 2501 3606 3605 
2436 2437 3542 3541 2501 2502 3607 3606 
2437 2438 3543 3542 2502 2503 3608 3607 
2438 2439 3544 3543 2503 2504 3609 3608 
2439 2440 3545 3544 2504 2505 3610 3609 
2440 2441 3546 3545 2505 2506 3611 3610 
2441 2442 3547 3546 2506 2507 3612 3611 
2442 2443 3548 3547 2507 2508 3613 3612 
2443 2444 3549 3548 2508 2509 3614 3613 
2444 2445 3550 3549 2509 2510 3615 3614 
2445 2446 3551 3550 2510 2511 3616 3615 
2446 2447 3552 3551 2511 2512 3617 3616 
2447 2448 3553 3552 2512 2513 3618 3617 
2448 2449 3554 3553 2513 2514 3619 3618 
2449 2450 3555 3554 2514 2515 3620 3619 
2450 2451 3556 3555 2515 2516 3621 3620 
2451 2452 3557 3556 2516 2517 3622 3621 
2452 2453 3558 3557 2517 2518 3623 3622 
2453 2454 3559 3558 2518 2519 3624 3623 
2454 2455 3560 3559 2519 2520 3625 3624 
2455 2456 3561 3560 2520 2521 3626 3625 
2456 2457 3562 3561 2521 2522 3627 3626 
2457 2458 3563 3562 2522 2523 3628 3627 
2458 2459 3564 3563 2523 2524 3629 3628 
2459 2460 3565 3564 2524 2525 3630 3629 
2460 2461 3566 3565 2525 2526 3631 3630 
2461 2462 3567 3566 2526 2527 3632 3631 
2462 2463 3568 3567 2527 2528 3633 3632 
2463 2464 3569 3568 2528 2529 3634 3633 
2464 2465 3570 3569 2529 2530 3635 3634 
2465 2466 3571 3570 2530 2531 3636 3635 
2466 2467 3572 3571 2531 2532 3637 3636 
2467 2468 3573 3572 2532 2533 3638 3637 
2468 2469 3574 3573 2533 2534 3639 3638 
2470 2471 3576 3575 2535 2536 3641 3640 
2471 2472 3577 3576 2536 2537 3642 3641 
2472 2473 3578 3577 2537 2538 3643 3642 
2473 2474 3579 3578 2538 2539 3644 3643 
2474 2475 3580 3579 2539 2540 3645 3644 
2475 2476 3581 3580 2540 2541 3646 3645 
2476 2477 3582 3581 2541 2542 3647 3646 
2477 2478 3583 3582 2542 2543 3648 3647 
2478 2479 3584 3583 2543 2544 3649 3648 
2479 2480 3585 3584 2544 2545 3650 3649 
2480 2481 3586 3585 2545 2546 3651 3650 
2481 2482 3587 3586 2546 2547 3652 3651 
2482 2483 3588 3587 2547 2548 3653 3652 
2483 2484 3589 3588 2548 2549 3654 3653 
2484 2485 3590 3589 2549 2550 3655 3654 
2485 2486 3591 3590 2550 2551 3656 3655 
2486 2487 3592 3591 2551 2552 3657 3656 
2487 2488 3593 3592 2552 2553 3658 3657 
2488 2489 3594 3593 2553 2554 3659 3658 
2489 2490 3595 3594 2554 2555 3660 3659 
2490 2491 3596 3595 2555 2556 3661 3660 
2491 2492 3597 3596 2556 2557 3662 3661 
2492 2493 3598 3597 2557 2558 3663 3662 
2493 2494 3599 3598 2558 2559 3664 3663 
2494 2495 3600 3599 2559 2560 3665 3664 
2495 2496 3601 3600 2560 2561 3666 3665 
2496 2497 3602 3601 2561 2562 3667 3666 
2497 2498 3603 3602 2562 2563 3668 3667 
2498 2499 3604 3603 2563 2564 3669 3668 
2499 2500 3605 3604 2564 2565 3670 3669 
2500 2501 3606 3605 2565 2566 3671 3670 
2501 2502 3607 3606 2566 2567 3672 3671 
2502 2503 3608 3607 2567 2568 3673 3672 
2503 2504 3609 3608 2568 2569 3674 3673 
2504 2505 3610 3609 2569 2570 3675 3674 
2505 2506 3611 3610 2570 2571 3676 3675 
2506 2507 3612 3611 2571 2572 3677 3676 
2507 2508 3613 3612 2572 2573 3678 3677 
2508 2509 3614 3613 2573 2574 3679 3678 
2509 2510 3615 3614 2574 2575 3680 3679 
2510 2511 3616 3615 2575 2576 3681 3680 
2511 2512 3617 3616 2576 2577 3682 3681 
2512 2513 3618 3617 2577 2578 3683 3682 
2513 2514 3619 3618 2578 2579 3684 3683 
2514 2515 3620 3619 2579 2580 3685 3684 
2515 2516 3621 3620 2580 2581 3686 3685 
2516 2517 3622 3621 2581 2582 3687 3686 
2517 2518 3623 3622 2582 2583 3688 3687 
2518 2519 3624 3623 2583 2584 3689 3688 
2519 2520 3625 3624 2584 2585 3690 3689 
2520 2521 3626 3625 2585 2586 3691 3690 
2521 2522 3627 3626 2586 2587 3692 3691 
2522 2523 3628 3627 2587 2588 3693 3692 
2523 2524 3629 3628 2588 2589 3694 3693 
2524 2525 3630 3629 2589 2590 3695 3694 
2525 2526 3631 3630 2590 2591 3696 3695 
2526 2527 3632 3631 2591 2592 3697 3696 
2527 2528 3633 3632 2592 2593 3698 3697 
2528 2529 3634 3633 2593 2594 3699 3698 
2529 2530 3635 3634 2594 2595 3700 3699 
2530 2531 3636 3635 2595 2596 3701 3700 
2531 2532 3637 3636 2596 2597 3702 3701 
2532 2533 3638 3637 2597 2598 3703 3702 
2533 2534 3639 3638 2598 2599 3704 3703 
2535 2536 3641 3640 2600 2601 3706 3705 
2536 2537 3642 3641 2601 2602 3707 3706 
2537 2538 3643 3642 2602 2603 3708 3707 
2538 2539 3644 3643 2603 2604 3709 3708 
2539 2540 3645 3644 2604 2605 3710 3709 
2540 2541 3646 3645 2605 2606 3711 3710 
2541 2542 3647 3646 2606 2607 3712 3711 
2542 2543 3648 3647 2607 2608 3713 3712 
2543 2544 3649 3648 2608 2609 3714 3713 
2544 2545 3650 3649 2609 2610 3715 3714 
2545 2546 3651 3650 2610 2611 3716 3715 
2546 2547 3652 3651 2611 2612 3717 3716 
2547 2548 3653 3652 2612 2613 3718 3717 
2548 2549 3654 3653 2613 2614 3719 3718 
2549 2550 3655 3654 2614 2615 3720 3719 
2550 2551 3656 3655 2615 2616 3721 3720 
2551 2552 3657 3656 2616 2617 3722 3721 
2552 2553 3658 3657 2617 2618 3723 3722 
2553 2554 3659 3658 2618 2619 3724 3723 
2554 2555 3660 3659 2619 2620 3725 3724 
2555 2556 3661 3660 2620 2621 3726 3725 
2556 2557 3662 3661 2621 2622 3727 3726 
2557 2558 3663 3662 2622 2623 3728 3727 
2558 2559 3664 3663 2623 2624 3729 3728 
2559 2560 3665 3664 2624 2625 3730 3729 
2560 2561 3666 3665 2625 2626 3731 3730 
2561 2562 3667 3666 2626 2627 3732 3731 
2562 2563 3668 3667 2627 2628 3733 3732 
2563 2564 3669 3668 2628 2629 3734 3733 
2564 2565 3670 3669 2629 2630 3735 3734 
2565 2566 3671 3670 2630 2631 3736 3735 
2566 2567 3672 3671 2631 2632 3737 3736 
2567 2568 3673 3672 2632 2633 3738 3737 
2568 2569 3674 3673 2633 2634 3739 3738 
2569 2570 3675 3674 2634 2635 3740 3739 
2570 2571 3676 3675 2635 2636 3741 3740 
2571 2572 3677 3676 2636 2637 3742 3741 
2572 2573 3678 3677 2637 2638 3743 3742 
2573 2574 3679 3678 2638 2639 3744 3743 
2574 2575 3680 3679 2639 2640 3745 3744 
2575 2576 3681 3680 2640 2641 3746 3745 
2576 2577 3682 3681 2641 2642 3747 3746 
2577 2578 3683 3682 2642 2643 3748 3747 
2578 2579 3684 3683 2643 2644 3749 3748 
2579 2580 3685 3684 2644 2645 3750 3749 
2580 2581 3686 3685 2645 2646 3751 3750 
2581 2582 3687 3686 2646 2647 3752 3751 
2582 2583 3688 3687 2647 2648 3753 3752 
2583 2584 3689 3688 2648 2649 3754 3753 
2584 2585 3690 3689 2649 2650 3755 3754 
2585 2586 3691 3690 2650 2651 3756 3755 
2586 2587 3692 3691 2651 2652 3757 3756 
2587 2588 3693 3692 2652 2653 3758 3757 
2588 2589 3694 3693 2653 2654 3759 3758 
2589 2590 3695 3694 2654 2655 3760 3759 
2590 2591 3696 3695 2655 2656 3761 3760 
2591 2592 3697 3696 2656 2657 3762 3761 
2592 2593 3698 3697 2657 2658 3763 3762 
2593 2594 3699 3698 2658 2659 3764 3763 
2594 2595 3700 3699 2659 2660 3765 3764 
2595 2596 3701 3700 2660 2661 3766 3765 
2596 2597 3702 3701 2661 2662 3767 3766 
2597 2598 3703 3702 2662 2663 3768 3767 
2598 2599 3704 3703 2663 2664 3769 3768 
2600 2601 3706 3705 2665 2666 3771 3770 
2601 2602 3707 3706 2666 2667 3772 3771 
2602 2603 3708 3707 2667 2668 3773 3772 
2603 2604 3709 3708 2668 2669 3774 3773 
2604 2605 3710 3709 2669 2670 3775 3774 
2605 2606 3711 3710 2670 2671 3776 3775 
2606 2607 3712 3711 2671 2672 3777 3776 
2607 2608 3713 3712 2672 2673 3778 3777 
2608 2609 3714 3713 2673 2674 3779 3778 
2609 2610 3715 3714 2674 2675 3780 3779 
2610 2611 3716 3715 2675 2676 3781 3780 
2611 2612 3717 3716 2676 2677 3782 3781 
2612 2613 3718 3717 2677 2678 3783 3782 
2613 2614 3719 3718 2678 2679 3784 3783 
2614 2615 3720 3719 2679 2680 3785 3784 
2615 2616 3721 3720 2680 2681 3786 3785 
2616 2617 3722 3721 2681 2682 3787 3786 
2617 2618 3723 3722 2682 2683 3788 3787 
2618 2619 3724 3723 2683 2684 3789 3788 
2619 2620 3725 3724 2684 2685 3790 3789 
2620 2621 3726 3725 2685 2686 3791 3790 
2621 2622 3727 3726 2686 2687 3792 3791 
2622 2623 3728 3727 2687 2688 3793 3792 
2623 2624 3729 3728 2688 2689 3794 3793 
2624 2625 3730 3729 2689 2690 3795 3794 
2625 2626 3731 3730 2690 2691 3796 3795 
2626 2627 3732 3731 2691 2692 3797 3796 
2627 2628 3733 3732 2692 2693 3798 3797 
2628 2629 3734 3733 2693 2694 3799 3798 
2629 2630 3735 3734 2694 2695 3800 3799 
2630 2631 3736 3735 2695 2696 3801 3800 
2631 2632 3737 3736 2696 2697 3802 3801 
2632 2633 3738 3737 2697 2698 3803 3802 
2633 2634 3739 3738 2698 2699 3804 3803 
2634 2635 3740 3739 2699 2700 3805 3804 
2635 2636 3741 3740 2700 2701 3806 3805 
2636 2637 3742 3741 2701 2702 3807 3806 
2637 2638 3743 3742 2702 2703 3808 3807 
2638 2639 3744 3743 2703 2704 3809 3808 
2639 2640 3745 3744 2704 2705 3810 3809 
2640 2641 3746 3745 2705 2706 3811 3810 
2641 2642 3747 3746 2706 2707 3812 3811 
2642 2643 3748 3747 2707 2708 3813 3812 
2643 2644 3749 3748 2708 2709 3814 3813 
2644 2645 3750 3749 2709 2710 3815 3814 
2645 2646 3751 3750 2710 2711 3816 3815 
2646 2647 3752 3751 2711 2712 3817 3816 
2647 2648 3753 3752 2712 2713 3818 3817 
2648 2649 3754 3753 2713 2714 3819 3818 
2649 2650 3755 3754 2714 2715 3820 3819 
2650 2651 3756 3755 2715 2716 3821 3820 
2651 2652 3757 3756 2716 2717 3822 3821 
2652 2653 3758 3757 2717 2718 3823 3822 
2653 2654 3759 3758 2718 2719 3824 3823 
2654 2655 3760 3759 2719 2720 3825 3824 
2655 2656 3761 3760 2720 2721 3826 3825 
2656 2657 3762 3761 2721 2722 3827 3826 
2657 2658 3763 3762 2722 2723 3828 3827 
2658 2659 3764 3763 2723 2724 3829 3828 
2659 2660 3765 3764 2724 2725 3830 3829 
2660 2661 3766 3765 2725 2726 3831 3830 
2661 2662 3767 3766 2726 2727 3832 3831 
2662 2663 3768 3767 2727 2728 3833 3832 
2663 2664 3769 3768 2728 2729 3834 3833 
2665 2666 3771 3770 2730 2731 3836 3835 
2666 2667 3772 3771 2731 2732 3837 3836 
2667 2668 3773 3772 2732 2733 3838 3837 
2668 2669 3774 3773 2733 2734 3839 3838 
2669 2670 3775 3774 2734 2735 3840 3839 
2670 2671 3776 3775 2735 2736 3841 3840 
2671 2672 3777 3776 2736 2737 3842 3841 
2672 2673 3778 3777 2737 2738 3843 3842 
2673 2674 3779 3778 2738 2739 3844 3843 
2674 2675 3780 3779 2739 2740 3845 3844 
2675 2676 3781 3780 2740 2741 3846 3845 
2676 2677 3782 3781 2741 2742 3847 3846 
2677 2678 3783 3782 2742 2743 3848 3847 
2678 2679 3784 3783 2743 2744 3849 3848 
2679 2680 3785 3784 2744 2745 3850 3849 
2680 2681 3786 3785 2745 2746 3851 3850 
2681 2682 3787 3786 2746 2747 3852 3851 
2682 2683 3788 3787 2747 2748 3853 3852 
2683 2684 3789 3788 2748 2749 3854 3853 
2684 2685 3790 3789 2749 2750 3855 3854 
2685 2686 3791 3790 2750 2751 3856 3855 
2686 2687 3792 3791 2751 2752 3857 3856 
2687 2688 3793 3792 2752 2753 3858 3857 
2688 2689 3794 3793 2753 2754 3859 3858 
2689 2690 3795 3794 2754 2755 3860 3859 
2690 2691 3796 3795 2755 2756 3861 3860 
2691 2692 3797 3796 2756 2757 3862 3861 
2692 2693 3798 3797 2757 2758 3863 3862 
2693 2694 3799 3798 2758 2759 3864 3863 
2694 2695 3800 3799 2759 2760 3865 3864 
2695 2696 3801 3800 2760 2761 3866 3865 
2696 2697 3802 3801 2761 2762 3867 3866 
2697 2698 3803 3802 2762 2763 3868 3867 
2698 2699 3804 3803 2763 2764 3869 3868 
2699 2700 3805 3804 2764 2765 3870 3869 
2700 2701 3806 3805 2765 2766 3871 3870 
2701 2702 3807 3806 2766 2767 3872 3871 
2702 2703 3808 3807 2767 2768 3873 3872 
2703 2704 3809 3808 2768 2769 3874 3873 
2704 2705 3810 3809 2769 2770 3875 3874 
2705 2706 3811 3810 2770 2771 3876 3875 
2706 2707 3812 3811 2771 2772 3877 3876 
2707 2708 3813 3812 2772 2773 3878 3877 
2708 2709 3814 3813 2773 2774 3879 3878 
2709 2710 3815 3814 2774 2775 3880 3879 
2710 2711 3816 3815 2775 2776 3881 3880 
2711 2712 3817 3816 2776 2777 3882 3881 
2712 2713 3818 3817 2777 2778 3883 3882 
2713 2714 3819 3818 2778 2779 3884 3883 
2714 2715 3820 3819 2779 2780 3885 3884 
2715 2716 3821 3820 2780 2781 3886 3885 
2716 2717 3822 3821 2781 2782 3887 3886 
2717 2718 3823 3822 2782 2783 3888 3887 
2718 2719 3824 3823 2783 2784 3889 3888 
2719 2720 3825 3824 2784 2785 3890 3889 
2720 2721 3826 3825 2785 2786 3891 3890 
2721 2722 3827 3826 2786 2787 3892 3891 
2722 2723 3828 3827 2787 2788 3893 3892 
2723 2724 3829 3828 2788 2789 3894 3893 
2724 2725 3830 3829 2789 2790 3895 3894 
2725 2726 3831 3830 2790 2791 3896 3895 
2726 2727 3832 3831 2791 2792 3897 3896 
2727 2728 3833 3832 2792 2793 3898 3897 
2728 2729 3834 3833 2793 2794 3899 3898 
2730 2731 3836 3835 2795 2796 3901 3900 
2731 2732 3837 3836 2796 2797 3902 3901 
2732 2733 3838 3837 2797 2798 3903 3902 
2733 2734 3839 3838 2798 2799 3904 3903 
2734 2735 3840 3839 2799 2800 3905 3904 
2735 2736 3841 3840 2800 2801 3906 3905 
2736 2737 3842 3841 2801 2802 3907 3906 
2737 2738 3843 3842 2802 2803 3908 3907 
2738 2739 3844 3843 2803 2804 3909 3908 
2739 2740 3845 3844 2804 2805 3910 3909 
2740 2741 3846 3845 2805 2806 3911 3910 
2741 2742 3847 3846 2806 2807 3912 3911 
2742 2743 3848 3847 2807 2808 3913 3912 
2743 2744 3849 3848 2808 2809 3914 3913 
2744 2745 3850 3849 2809 2810 3915 3914 
2745 2746 3851 3850 2810 2811 3916 3915 
2746 2747 3852 3851 2811 2812 3917 3916 
2747 2748 3853 3852 2812 2813 3918 3917 
2748 2749 3854 3853 2813 2814 3919 3918 
2749 2750 3855 3854 2814 2815 3920 3919 
2750 2751 3856 3855 2815 2816 3921 3920 
2751 2752 3857 3856 2816 2817 3922 3921 
2752 2753 3858 3857 2817 2818 3923 3922 
2753 2754 3859 3858 2818 2819 3924 3923 
2754 2755 3860 3859 2819 2820 3925 3924 
2755 2756 3861 3860 2820 2821 3926 3925 
2756 2757 3862 3861 2821 2822 3927 3926 
2757 2758 3863 3862 2822 2823 3928 3927 
2758 2759 3864 3863 2823 2824 3929 3928 
2759 2760 3865 3864 2824 2825 3930 3929 
2760 2761 3866 3865 2825 2826 3931 3930 
2761 2762 3867 3866 2826 2827 3932 3931 
2762 2763 3868 3867 2827 2828 3933 3932 
2763 2764 3869 3868 2828 2829 3934 3933 
2764 2765 3870 3869 2829 2830 3935 3934 
2765 2766 3871 3870 2830 2831 3936 3935 
2766 2767 3872 3871 2831 2832 3937 3936 
2767 2768 3873 3872 2832 2833 3938 3937 
2768 2769 3874 3873 2833 2834 3939 3938 
2769 2770 3875 3874 2834 2835 3940 3939 
2770 2771 3876 3875 2835 2836 3941 3940 
2771 2772 3877 3876 2836 2837 3942 3941 
2772 2773 3878 3877 2837 2838 3943 3942 
2773 2774 3879 3878 2838 2839 3944 3943 
2774 2775 3880 3879 2839 2840 3945 3944 
2775 2776 3881 3880 2840 2841 3946 3945 
2776 2777 3882 3881 2841 2842 3947 3946 
2777 2778 3883 3882 2842 2843 3948 3947 
2778 2779 3884 3883 2843 2844 3949 3948 
2779 2780 3885 3884 2844 2845 3950 3949 
2780 2781 3886 3885 2845 2846 3951 3950 
2781 2782 3887 3886 2846 2847 3952 3951 
2782 2783 3888 3887 2847 2848 3953 3952 
2783 2784 3889 3888 2848 2849 3954 3953 
2784 2785 3890 3889 2849 2850 3955 3954 
2785 2786 3891 3890 2850 2851 3956 3955 
2786 2787 3892 3891 2851 2852 3957 3956 
2787 2788 3893 3892 2852 2853 3958 3957 
2788 2789 3894 3893 2853 2854 3959 3958 
2789 2790 3895 3894 2854 2855 3960 3959 
2790 2791 3896 3895 2855 2856 3961 3960 
2791 2792 3897 3896 2856 2857 3962 3961 
2792 2793 3898 3897 2857 2858 3963 3962 
2793 2794 3899 3898 2858 2859 3964 3963 
2795 2796 3901 3900 2860 2861 3966 3965 
2796 2797 3902 3901 2861 2862 3967 3966 
2797 2798 3903 3902 2862 2863 3968 3967 
2798 2799 3904 3903 2863 2864 3969 3968 
2799 2800 3905 3904 2864 2865 3970 3969 
2800 2801 3906 3905 2865 2866 3971 3970 
2801 2802 3907 3906 2866 2867 3972 3971 
2802 2803 3908 3907 2867 2868 3973 3972 
2803 2804 3909 3908 2868 2869 3974 3973 
2804 2805 3910 3909 2869 2870 3975 3974 
2805 2806 3911 3910 2870 2871 3976 3975 
2806 2807 3912 3911 2871 2872 3977 3976 
2807 2808 3913 3912 2872 2873 3978 3977 
2808 2809 3914 3913 2873 2874 3979 3978 
2809 2810 3915 3914 2874 2875 3980 3979 
2810 2811 3916 3915 2875 2876 3981 3980 
2811 2812 3917 3916 2876 2877 3982 3981 
2812 2813 3918 3917 2877 2878 3983 3982 
2813 2814 3919 3918 2878 2879 3984 3983 
2814 2815 3920 3919 2879 2880 3985 3984 
2815 2816 3921 3920 2880 2881 3986 3985 
2816 2817 3922 3921 2881 2882 3987 3986 
2817 2818 3923 3922 2882 2883 3988 3987 
2818 2819 3924 3923 2883 2884 3989 3988 
2819 2820 3925 3924 2884 2885 3990 3989 
2820 2821 3926 3925 2885 2886 3991 3990 
2821 2822 3927 3926 2886 2887 3992 3991 
2822 2823 3928 3927 2887 2888 3993 3992 
2823 2824 3929 3928 2888 2889 3994 3993 
2824 2825 3930 3929 2889 2890 3995 3994 
2825 2826 3931 3930 2890 2891 3996 3995 
2826 2827 3932 3931 2891 2892 3997 3996 
2827 2828 3933 3932 2892 2893 3998 3997 
2828 2829 3934 3933 2893 2894 3999 3998 
2829 2830 3935 3934 2894 2895 4000 3999 
2830 2831 3936 3935 2895 2896 4001 4000 
2831 2832 3937 3936 2896 2897 4002 4001 
2832 2833 3938 3937 2897 2898 4003 4002 
2833 2834 3939 3938 2898 2899 4004 4003 
2834 2835 3940 3939 2899 2900 4005 4004 
2835 2836 3941 3940 2900 2901 4006 4005 
2836 2837 3942 3941 2901 2902 4007 4006 
2837 2838 3943 3942 2902 2903 4008 4007 
2838 2839 3944 3943 2903 2904 4009 4008 
2839 2840 3945 3944 2904 2905 4010 4009 
2840 2841 3946 3945 2905 2906 4011 4010 
2841 2842 3947 3946 2906 2907 4012 4011 
2842 2843 3948 3947 2907 2908 4013 4012 
2843 2844 3949 3948 2908 2909 4014 4013 
2844 2845 3950 3949 2909 2910 4015 4014 
2845 2846 3951 3950 2910 2911 4016 4015 
2846 2847 3952 3951 2911 2912 4017 4016 
2847 2848 3953 3952 2912 2913 4018 4017 
2848 2849 3954 3953 2913 2914 4019 4018 
2849 2850 3955 3954 2914 2915 4020 4019 
2850 2851 3956 3955 2915 2916 4021 4020 
2851 2852 3957 3956 2916 2917 4022 4021 
2852 2853 3958 3957 2917 2918 4023 4022 
2853 2854 3959 3958 2918 2919 4024 4023 
2854 2855 3960 3959 2919 2920 4025 4024 
2855 2856 3961 3960 2920 2921 4026 4025 
2856 2857 3962 3961 2921 2922 4027 4026 
2857 2858 3963 3962 2922 2923 4028 4027 
2858 2859 3964 3963 2923 2924 4029 4028 
2860 2861 3966 3965 2925 2926 4031 4030 
2861 2862 3967 3966 2926 2927 4032 4031 
2862 2863 3968 3967 2927 2928 4033 4032 
2863 2864 3969 3968 2928 2929 4034 4033 
2864 2865 3970 3969 2929 2930 4035 4034 
2865 2866 3971 3970 2930 2931 4036 4035 
2866 2867 3972 3971 2931 2932 4037 4036 
2867 2868 3973 3972 2932 2933 4038 4037 
2868 2869 3974 3973 2933 2934 4039 4038 
2869 2870 3975 3974 2934 2935 4040 4039 
2870 2871 3976 3975 2935 2936 4041 4040 
2871 2872 3977 3976 2936 2937 4042 4041 
2872 2873 3978 3977 2937 2938 4043 4042 
2873 2874 3979 3978 2938 2939 4044 4043 
2874 2875 3980 3979 2939 2940 4045 4044 
2875 2876 3981 3980 2940 2941 4046 4045 
2876 2877 3982 3981 2941 2942 4047 4046 
2877 2878 3983 3982 2942 2943 4048 4047 
2878 2879 3984 3983 2943 2944 4049 4048 
2879 2880 3985 3984 2944 2945 4050 4049 
2880 2881 3986 3985 2945 2946 4051 4050 
2881 2882 3987 3986 2946 2947 4052 4051 
2882 2883 3988 3987 2947 2948 4053 4052 
2883 2884 3989 3988 2948 2949 4054 4053 
2884 2885 3990 3989 2949 2950 4055 4054 
2885 2886 3991 3990 2950 2951 4056 4055 
2886 2887 3992 3991 2951 2952 4057 4056 
2887 2888 3993 3992 2952 2953 4058 4057 
2888 2889 3994 3993 2953 2954 4059 4058 
2889 2890 3995 3994 2954 2955 4060 4059 
2890 2891 3996 3995 2955 2956 4061 4060 
2891 2892 3997 3996 2956 2957 4062 4061 
2892 2893 3998 3997 2957 2958 4063 4062 
2893 2894 3999 3998 2958 2959 4064 4063 
2894 2895 4000 3999 2959 2960 4065 4064 
2895 2896 4001 4000 2960 2961 4066 4065 
2896 2897 4002 4001 2961 2962 4067 4066 
2897 2898 4003 4002 2962 2963 4068 4067 
2898 2899 4004 4003 2963 2964 4069 4068 
2899 2900 4005 4004 2964 2965 4070 4069 
2900 2901 4006 4005 2965 2966 4071 4070 
2901 2902 4007 4006 2966 2967 4072 4071 
2902 2903 4008 4007 2967 2968 4073 4072 
2903 2904 4009 4008 2968 2969 4074 4073 
2904 2905 4010 4009 2969 2970 4075 4074 
2905 2906 4011 4010 2970 2971 4076 4075 
2906 2907 4012 4011 2971 2972 4077 4076 
2907 2908 4013 4012 2972 2973 4078 4077 
2908 2909 4014 4013 2973 2974 4079 4078 
2909 2910 4015 4014 2974 2975 4080 4079 
2910 2911 4016 4015 2975 2976 4081 4080 
2911 2912 4017 4016 2976 2977 4082 4081 
2912 2913 4018 4017 2977 2978 4083 4082 
2913 2914 4019 4018 2978 2979 4084 4083 
2914 2915 4020 4019 2979 2980 4085 4084 
2915 2916 4021 4020 2980 2981 4086 4085 
2916 2917 4022 4021 2981 2982 4087 4086 
2917 2918 4023 4022 2982 2983 4088 4087 
2918 2919 4024 4023 2983 2984 4089 4088 
2919 2920 4025 4024 2984 2985 4090 4089 
2920 2921 4026 4025 2985 2986 4091 4090 
2921 2922 4027 4026 2986 2987 4092 4091 
2922 2923 4028 4027 2987 2988 4093 4092 
2923 2924 4029 4028 2988 2989 4094 4093 
2925 2926 4031 4030 2990 2991 4096 4095 
2926 2927 4032 4031 2991 2992 4097 4096 
2927 2928 4033 4032 2992 2993 4098 4097 
2928 2929 4034 4033 2993 2994 4099 4098 
2929 2930 4035 4034 2994 2995 4100 4099 
2930 2931 4036 4035 2995 2996 4101 4100 
2931 2932 4037 4036 2996 2997 4102 4101 
2932 2933 4038 4037 2997 2998 4103 4102 
2933 2934 4039 4038 2998 2999 4104 4103 
2934 2935 4040 4039 2999 3000 4105 4104 
2935 2936 4041 4040 3000 3001 4106 4105 
2936 2937 4042 4041 3001 3002 4107 4106 
2937 2938 4043 4042 3002 3003 4108 4107 
2938 2939 4044 4043 3003 3004 4109 4108 
2939 2940 4045 4044 3004 3005 4110 4109 
2940 2941 4046 4045 3005 3006 4111 4110 
2941 2942 4047 4046 3006 3007 4112 4111 
2942 2943 4048 4047 3007 3008 4113 4112 
2943 2944 4049 4048 3008 3009 4114 4113 
2944 2945 4050 4049 3009 3010 4115 4114 
2945 2946 4051 4050 3010 3011 4116 4115 
2946 2947 4052 4051 3011 3012 4117 4116 
2947 2948 4053 4052 3012 3013 4118 4117 
2948 2949 4054 4053 3013 3014 4119 4118 
2949 2950 4055 4054 3014 3015 4120 4119 
2950 2951 4056 4055 3015 3016 4121 4120 
2951 2952 4057 4056 3016 3017 4122 4121 
2952 2953 4058 4057 3017 3018 4123 4122 
2953 2954 4059 4058 3018 3019 4124 4123 
2954 2955 4060 4059 3019 3020 4125 4124 
2955 2956 4061 4060 3020 3021 4126 4125 
2956 2957 4062 4061 3021 3022 4127 4126 
2957 2958 4063 4062 3022 3023 4128 4127 
2958 2959 4064 4063 3023 3024 4129 4128 
2959 2960 4065 4064 3024 3025 4130 4129 
2960 2961 4066 4065 3025 3026 4131 4130 
2961 2962 4067 4066 3026 3027 4132 4131 
2962 2963 4068 4067 3027 3028 4133 4132 
2963 2964 4069 4068 3028 3029 4134 4133 
2964 2965 4070 4069 3029 3030 4135 4134 
2965 2966 4071 4070 3030 3031 4136 4135 
2966 2967 4072 4071 3031 3032 4137 4136 
2967 2968 4073 4072 3032 3033 4138 4137 
2968 2969 4074 4073 3033 3034 4139 4138 
2969 2970 4075 4074 3034 3035 4140 4139 
2970 2971 4076 4075 3035 3036 4141 4140 
2971 2972 4077 4076 3036 3037 4142 4141 
2972 2973 4078 4077 3037 3038 4143 4142 
2973 2974 4079 4078 3038 3039 4144 4143 
2974 2975 4080 4079 3039 3040 4145 4144 
2975 2976 4081 4080 3040 3041 4146 4145 
2976 2977 4082 4081 3041 3042 4147 4146 
2977 2978 4083 4082 3042 3043 4148 4147 
2978 2979 4084 4083 3043 3044 4149 4148 
2979 2980 4085 4084 3044 3045 4150 4149 
2980 2981 4086 4085 3045 3046 4151 4150 
2981 2982 4087 4086 3046 3047 4152 4151 
2982 2983 4088 4087 3047 3048 4153 4152 
2983 2984 4089 4088 3048 3049 4154 4153 
2984 2985 4090 4089 3049 3050 4155 4154 
2985 2986 4091 4090 3050 3051 4156 4155 
2986 2987 4092 4091 3051 3052 4157 4156 
2987 2988 4093 4092 3052 3053 4158 4157 
2988 2989 4094 4093 3053 3054 4159 4158 
2990 2991 4096 4095 3055 3056 4161 4160 
2991 2992 4097 4096 3056 3057 4162 4161 
2992 2993 4098 4097 3057 3058 4163 4162 
2993 2994 4099 4098 3058 3059 4164 4163 
2994 2995 4100 4099 3059 3060 4165 4164 
2995 2996 4101 4100 3060 3061 4166 4165 
2996 2997 4102 4101 3061 3062 4167 4166 
2997 2998 4103 4102 3062 3063 4168 4167 
2998 2999 4104 4103 3063 3064 4169 4168 
2999 3000 4105 4104 3064 3065 4170 4169 
3000 3001 4106 4105 3065 3066 4171 4170 
3001 3002 4107 4106 3066 3067 4172 4171 
3002 3003 4108 4107 3067 3068 4173 4172 
3003 3004 4109 4108 3068 3069 4174 4173 
3004 3005 4110 4109 3069 3070 4175 4174 
3005 3006 4111 4110 3070 3071 4176 4175 
3006 3007 4112 4111 3071 3072 4177 4176 
3007 3008 4113 4112 3072 3073 4178 4177 
3008 3009 4114 4113 3073 3074 4179 4178 
3009 3010 4115 4114 3074 3075 4180 4179 
3010 3011 4116 4115 3075 3076 4181 4180 
3011 3012 4117 4116 3076 3077 4182 4181 
3012 3013 4118 4117 3077 3078 4183 4182 
3013 3014 4119 4118 3078 3079 4184 4183 
3014 3015 4120 4119 3079 3080 4185 4184 
3015 3016 4121 4120 3080 3081 4186 4185 
3016 3017 4122 4121 3081 3082 4187 4186 
3017 3018 4123 4122 3082 3083 4188 4187 
3018 3019 4124 4123 3083 3084 4189 4188 
3019 3020 4125 4124 3084 3085 4190 4189 
3020 3021 4126 4125 3085 3086 4191 4190 
3021 3022 4127 4126 3086 3087 4192 4191 
3022 3023 4128 4127 3087 3088 4193 4192 
3023 3024 4129 4128 3088 3089 4194 4193 
3024 3025 4130 4129 3089 3090 4195 4194 
3025 3026 4131 4130 3090 3091 4196 4195 
3026 3027 4132 4131 3091 3092 4197 4196 
3027 3028 4133 4132 3092 3093 4198 4197 
3028 3029 4134 4133 3093 3094 4199 4198 
3029 3030 4135 4134 3094 3095 4200 4199 
3030 3031 4136 4135 3095 3096 4201 4200 
3031 3032 4137 4136 3096 3097 4202 4201 
3032 3033 4138 4137 3097 3098 4203 4202 
3033 3034 4139 4138 3098 3099 4204 4203 
3034 3035 4140 4139 3099 3100 4205 4204 
3035 3036 4141 4140 3100 3101 4206 4205 
3036 3037 4142 4141 3101 3102 4207 4206 
3037 3038 4143 4142 3102 3103 4208 4207 
3038 3039 4144 4143 3103 3104 4209 4208 
3039 3040 4145 4144 3104 3105 4210 4209 
3040 3041 4146 4145 3105 3106 4211 4210 
3041 3042 4147 4146 3106 3107 4212 4211 
3042 3043 4148 4147 3107 3108 4213 4212 
3043 3044 4149 4148 3108 3109 4214 4213 
3044 3045 4150 4149 3109 3110 4215 4214 
3045 3046 4151 4150 3110 3111 4216 4215 
3046 3047 4152 4151 3111 3112 4217 4216 
3047 3048 4153 4152 3112 3113 4218 4217 
3048 3049 4154 4153 3113 3114 4219 4218 
3049 3050 4155 4154 3114 3115 4220 4219 
3050 3051 4156 4155 3115 3116 4221 4220 
3051 3052 4157 4156 3116 3117 4222 4221 
3052 3053 4158 4157 3117 3118 4223 4222 
3053 3054 4159 4158 3118 3119 4224 4223 
3055 3056 4161 4160 3120 3121 4226 4225 
3056 3057 4162 4161 3121 3122 4227 4226 
3057 3058 4163 4162 3122 3123 4228 4227 
3058 3059 4164 4163 3123 3124 4229 4228 
3059 3060 4165 4164 3124 3125 4230 4229 
3060 3061 4166 4165 3125 3126 4231 4230 
3061 3062 4167 4166 3126 3127 4232 4231 
3062 3063 4168 4167 3127 3128 4233 4232 
3063 3064 4169 4168 3128 3129 4234 4233 
3064 3065 4170 4169 3129 3130 4235 4234 
3065 3066 4171 4170 3130 3131 4236 4235 
3066 3067 4172 4171 3131 3132 4237 4236 
3067 3068 4173 4172 3132 3133 4238 4237 
3068 3069 4174 4173 3133 3134 4239 4238 
3069 3070 4175 4174 3134 3135 4240 4239 
3070 3071 4176 4175 3135 3136 4241 4240 
3071 3072 4177 4176 3136 3137 4242 4241 
3072 3073 4178 4177 3137 3138 4243 4242 
3073 3074 4179 4178 3138 3139 4244 4243 
3074 3075 4180 4179 3139 3140 4245 4244 
3075 3076 4181 4180 3140 3141 4246 4245 
3076 3077 4182 4181 3141 3142 4247 4246 
3077 3078 4183 4182 3142 3143 4248 4247 
3078 3079 4184 4183 3143 3144 4249 4248 
3079 3080 4185 4184 3144 3145 4250 4249 
3080 3081 4186 4185 3145 3146 4251 4250 
3081 3082 4187 4186 3146 3147 4252 4251 
3082 3083 4188 4187 3147 3148 4253 4252 
3083 3084 4189 4188 3148 3149 4254 4253 
3084 3085 4190 4189 3149 3150 4255 4254 
3085 3086 4191 4190 3150 3151 4256 4255 
3086 3087 4192 4191 3151 3152 4257 4256 
3087 3088 4193 4192 3152 3153 4258 4257 
3088 3089 4194 4193 3153 3154 4259 4258 
3089 3090 4195 4194 3154 3155 4260 4259 
3090 3091 4196 4195 3155 3156 4261 4260 
3091 3092 4197 4196 3156 3157 4262 4261 
3092 3093 4198 4197 3157 3158 4263 4262 
3093 3094 4199 4198 3158 3159 4264 4263 
3094 3095 4200 4199 3159 3160 4265 4264 
3095 3096 4201 4200 3160 3161 4266 4265 
3096 3097 4202 4201 3161 3162 4267 4266 
3097 3098 4203 4202 3162 3163 4268 4267 
3098 3099 4204 4203 3163 3164 4269 4268 
3099 3100 4205 4204 3164 3165 4270 4269 
3100 3101 4206 4205 3165 3166 4271 4270 
3101 3102 4207 4206 3166 3167 4272 4271 
3102 3103 4208 4207 3167 3168 4273 4272 
3103 3104 4209 4208 3168 3169 4274 4273 
3104 3105 4210 4209 3169 3170 4275 4274 
3105 3106 4211 4210 3170 3171 4276 4275 
3106 3107 4212 4211 3171 3172 4277 4276 
3107 3108 4213 4212 3172 3173 4278 4277 
3108 3109 4214 4213 3173 3174 4279 4278 
3109 3110 4215 4214 3174 3175 4280 4279 
3110 3111 4216 4215 3175 3176 4281 4280 
3111 3112 4217 4216 3176 3177 4282 4281 
3112 3113 4218 4217 3177 3178 4283 4282 
3113 3114 4219 4218 3178 3179 4284 4283 
3114 3115 4220 4219 3179 3180 4285 4284 
3115 3116 4221 4220 3180 3181 4286 4285 
3116 3117 4222 4221 3181 3182 4287 4286 
3117 3118 4223 4222 3182 3183 4288 4287 
3118 3119 4224 4223 3183 3184 4289 4288 
3120 3121 4226 4225 3185 3186 4291 4290 
3121 3122 4227 4226 3186 3187 4292 4291 
3122 3123 4228 4227 3187 3188 4293 4292 
3123 3124 4229 4228 3188 3189 4294 4293 
3124 3125 4230 4229 3189 3190 4295 4294 
3125 3126 4231 4230 3190 3191 4296 4295 
3126 3127 4232 4231 3191 3192 4297 4296 
3127 3128 4233 4232 3192 3193 4298 4297 
3128 3129 4234 4233 3193 3194 4299 4298 
3129 3130 4235 4234 3194 3195 4300 4299 
3130 3131 4236 4235 3195 3196 4301 4300 
3131 3132 4237 4236 3196 3197 4302 4301 
3132 3133 4238 4237 3197 3198 4303 4302 
3133 3134 4239 4238 3198 3199 4304 4303 
3134 3135 4240 4239 3199 3200 4305 4304 
3135 3136 4241 4240 3200 3201 4306 4305 
3136 3137 4242 4241 3201 3202 4307 4306 
3137 3138 4243 4242 3202 3203 4308 4307 
3138 3139 4244 4243 3203 3204 4309 4308 
3139 3140 4245 4244 3204 3205 4310 4309 
3140 3141 4246 4245 3205 3206 4311 4310 
3141 3142 4247 4246 3206 3207 4312 4311 
3142 3143 4248 4247 3207 3208 4313 4312 
3143 3144 4249 4248 3208 3209 4314 4313 
3144 3145 4250 4249 3209 3210 4315 4314 
3145 3146 4251 4250 3210 3211 4316 4315 
3146 3147 4252 4251 3211 3212 4317 4316 
3147 3148 4253 4252 3212 3213 4318 4317 
3148 3149 4254 4253 3213 3214 4319 4318 
3149 3150 4255 4254 3214 3215 4320 4319 
3150 3151 4256 4255 3215 3216 4321 4320 
3151 3152 4257 4256 3216 3217 4322 4321 
3152 3153 4258 4257 3217 3218 4323 4322 
3153 3154 4259 4258 3218 3219 4324 4323 
3154 3155 4260 4259 3219 3220 4325 4324 
3155 3156 4261 4260 3220 3221 4326 4325 
3156 3157 4262 4261 3221 3222 4327 4326 
3157 3158 4263 4262 3222 3223 4328 4327 
3158 3159 4264 4263 3223 3224 4329 4328 
3159 3160 4265 4264 3224 3225 4330 4329 
3160 3161 4266 4265 3225 3226 4331 4330 
3161 3162 4267 4266 3226 3227 4332 4331 
3162 3163 4268 4267 3227 3228 4333 4332 
3163 3164 4269 4268 3228 3229 4334 4333 
3164 3165 4270 4269 3229 3230 4335 4334 
3165 3166 4271 4270 3230 3231 4336 4335 
3166 3167 4272 4271 3231 3232 4337 4336 
3167 3168 4273 4272 3232 3233 4338 4337 
3168 3169 4274 4273 3233 3234 4339 4338 
3169 3170 4275 4274 3234 3235 4340 4339 
3170 3171 4276 4275 3235 3236 4341 4340 
3171 3172 4277 4276 3236 3237 4342 4341 
3172 3173 4278 4277 3237 3238 4343 4342 
3173 3174 4279 4278 3238 3239 4344 4343 
3174 3175 4280 4279 3239 3240 4345 4344 
3175 3176 4281 4280 3240 3241 4346 4345 
3176 3177 4282 4281 3241 3242 4347 4346 
3177 3178 4283 4282 3242 3243 4348 4347 
3178 3179 4284 4283 3243 3244 4349 4348 
3179 3180 4285 4284 3244 3245 4350 4349 
3180 3181 4286 4285 3245 3246 4351 4350 
3181 3182 4287 4286 3246 3247 4352 4351 
3182 3183 4288 4287 3247 3248 4353 4352 
3183 3184 4289 4288 3248 3249 4354 4353 
3185 3186 4291 4290 3250 3251 4356 4355 
3186 3187 4292 4291 3251 3252 4357 4356 
3187 3188 4293 4292 3252 3253 4358 4357 
3188 3189 4294 4293 3253 3254 4359 4358 
3189 3190 4295 4294 3254 3255 4360 4359 
3190 3191 4296 4295 3255 3256 4361 4360 
3191 3192 4297 4296 3256 3257 4362 4361 
3192 3193 4298 4297 3257 3258 4363 4362 
3193 3194 4299 4298 3258 3259 4364 4363 
3194 3195 4300 4299 3259 3260 4365 4364 
3195 3196 4301 4300 3260 3261 4366 4365 
3196 3197 4302 4301 3261 3262 4367 4366 
3197 3198 4303 4302 3262 3263 4368 4367 
3198 3199 4304 4303 3263 3264 4369 4368 
3199 3200 4305 4304 3264 3265 4370 4369 
3200 3201 4306 4305 3265 3266 4371 4370 
3201 3202 4307 4306 3266 3267 4372 4371 
3202 3203 4308 4307 3267 3268 4373 4372 
3203 3204 4309 4308 3268 3269 4374 4373 
3204 3205 4310 4309 3269 3270 4375 4374 
3205 3206 4311 4310 3270 3271 4376 4375 
3206 3207 4312 4311 3271 3272 4377 4376 
3207 3208 4313 4312 3272 3273 4378 4377 
3208 3209 4314 4313 3273 3274 4379 4378 
3209 3210 4315 4314 3274 3275 4380 4379 
3210 3211 4316 4315 3275 3276 4381 4380 
3211 3212 4317 4316 3276 3277 4382 4381 
3212 3213 4318 4317 3277 3278 4383 4382 
3213 3214 4319 4318 3278 3279 4384 4383 
3214 3215 4320 4319 3279 3280 4385 4384 
3215 3216 4321 4320 3280 3281 4386 4385 
3216 3217 4322 4321 3281 3282 4387 4386 
3217 3218 4323 4322 3282 3283 4388 4387 
3218 3219 4324 4323 3283 3284 4389 4388 
3219 3220 4325 4324 3284 3285 4390 4389 
3220 3221 4326 4325 3285 3286 4391 4390 
3221 3222 4327 4326 3286 3287 4392 4391 
3222 3223 4328 4327 3287 3288 4393 4392 
3223 3224 4329 4328 3288 3289 4394 4393 
3224 3225 4330 4329 3289 3290 4395 4394 
3225 3226 4331 4330 3290 3291 4396 4395 
3226 3227 4332 4331 3291 3292 4397 4396 
3227 3228 4333 4332 3292 3293 4398 4397 
3228 3229 4334 4333 3293 3294 4399 4398 
3229 3230 4335 4334 3294 3295 4400 4399 
3230 3231 4336 4335 3295 3296 4401 4400 
3231 3232 4337 4336 3296 3297 4402 4401 
3232 3233 4338 4337 3297 3298 4403 4402 
3233 3234 4339 4338 3298 3299 4404 4403 
3234 3235 4340 4339 3299 3300 4405 4404 
3235 3236 4341 4340 3300 3301 4406 4405 
3236 3237 4342 4341 3301 3302 4407 4406 
3237 3238 4343 4342 3302 3303 4408 4407 
3238 3239 4344 4343 3303 3304 4409 4408 
3239 3240 4345 4344 3304 3305 4410 4409 
3240 3241 4346 4345 3305 3306 4411 4410 
3241 3242 4347 4346 3306 3307 4412 4411 
3242 3243 4348 4347 3307 3308 4413 4412 
3243 3244 4349 4348 3308 3309 4414 4413 
3244 3245 4350 4349 3309 3310 4415 4414 
3245 3246 4351 4350 3310 3311 4416 4415 
3246 3247 4352 4351 3311 3312 4417 4416 
3247 3248 4353 4352 3312 3313 4418 4417 
3248 3249 4354 4353 3313 3314 4419 4418 
3315 3316 4421 4420 3380 3381 4486 4485 
3316 3317 4422 4421 3381 3382 4487 4486 
3317 3318 4423 4422 3382 3383 4488 4487 
3318 3319 4424 4423 3383 3384 4489 4488 
3319 3320 4425 4424 3384 3385 4490 4489 
3320 3321 4426 4425 3385 3386 4491 4490 
3321 3322 4427 4426 3386 3387 4492 4491 
3322 3323 4428 4427 3387 3388 4493 4492 
3323 3324 4429 4428 3388 3389 4494 4493 
3324 3325 4430 4429 3389 3390 4495 4494 
3325 3326 4431 4430 3390 3391 4496 4495 
3326 3327 4432 4431 3391 3392 4497 4496 
3327 3328 4433 4432 3392 3393 4498 4497 
3328 3329 4434 4433 3393 3394 4499 4498 
3329 3330 4435 4434 3394 3395 4500 4499 
3330 3331 4436 4435 3395 3396 4501 4500 
3331 3332 4437 4436 3396 3397 4502 4501 
3332 3333 4438 4437 3397 3398 4503 4502 
3333 3334 4439 4438 3398 3399 4504 4503 
3334 3335 4440 4439 3399 3400 4505 4504 
3335 3336 4441 4440 3400 3401 4506 4505 
3336 3337 4442 4441 3401 3402 4507 4506 
3337 3338 4443 4442 3402 3403 4508 4507 
3338 3339 4444 4443 3403 3404 4509 4508 
3339 3340 4445 4444 3404 3405 4510 4509 
3340 3341 4446 4445 3405 3406 4511 4510 
3341 3342 4447 4446 3406 3407 4512 4511 
3342 3343 4448 4447 3407 3408 4513 4512 
3343 3344 4449 4448 3408 3409 4514 4513 
3344 3345 4450 4449 3409 3410 4515 4514 
3345 3346 4451 4450 3410 3411 4516 4515 
3346 3347 4452 4451 3411 3412 4517 4516 
3347 3348 4453 4452 3412 3413 4518 4517 
3348 3349 4454 4453 3413 3414 4519 4518 
3349 3350 4455 4454 3414 3415 4520 4519 
3350 3351 4456 4455 3415 3416 4521 4520 
3351 3352 4457 4456 3416 3417 4522 4521 
3352 3353 4458 4457 3417 3418 4523 4522 
3353 3354 4459 4458 3418 3419 4524 4523 
3354 3355 4460 4459 3419 3420 4525 4524 
3355 3356 4461 4460 3420 3421 4526 4525 
3356 3357 4462 4461 3421 3422 4527 4526 
3357 3358 4463 4462 3422 3423 4528 4527 
3358 3359 4464 4463 3423 3424 4529 4528 
3359 3360 4465 4464 3424 3425 4530 4529 
3360 3361 4466 4465 3425 3426 4531 4530 
3361 3362 4467 4466 3426 3427 4532 4531 
3362 3363 4468 4467 3427 3428 4533 4532 
3363 3364 4469 4468 3428 3429 4534 4533 
3364 3365 4470 4469 3429 3430 4535 4534 
3365 3366 4471 4470 3430 3431 4536 4535 
3366 3367 4472 4471 3431 3432 4537 4536 
3367 3368 4473 4472 3432 3433 4538 4537 
3368 3369 4474 4473 3433 3434 4539 4538 
3369 3370 4475 4474 3434 3435 4540 4539 
3370 3371 4476 4475 3435 3436 4541 4540 
3371 3372 4477 4476 3436 3437 4542 4541 
3372 3373 4478 4477 3437 3438 4543 4542 
3373 3374 4479 4478 3438 3439 4544 4543 
3374 3375 4480 4479 3439 3440 4545 4544 
3375 3376 4481 4480 3440 3441 4546 4545 
3376 3377 4482 4481 3441 3442 4547 4546 
3377 3378 4483 4482 3442 3443 4548 4547 
3378 3379 4484 4483 3443 3444 4549 4548 
3380 3381 4486 4485 3445 3446 4551 4550 
3381 3382 4487 4486 3446 3447 4552 4551 
3382 3383 4488 4487 3447 3448 4553 4552 
3383 3384 4489 4488 3448 3449 4554 4553 
3384 3385 4490 4489 3449 3450 4555 4554 
3385 3386 4491 4490 3450 3451 4556 4555 
3386 3387 4492 4491 3451 3452 4557 4556 
3387 3388 4493 4492 3452 3453 4558 4557 
3388 3389 4494 4493 3453 3454 4559 4558 
3389 3390 4495 4494 3454 3455 4560 4559 
3390 3391 4496 4495 3455 3456 4561 4560 
3391 3392 4497 4496 3456 3457 4562 4561 
3392 3393 4498 4497 3457 3458 4563 4562 
3393 3394 4499 4498 3458 3459 4564 4563 
3394 3395 4500 4499 3459 3460 4565 4564 
3395 3396 4501 4500 3460 3461 4566 4565 
3396 3397 4502 4501 3461 3462 4567 4566 
3397 3398 4503 4502 3462 3463 4568 4567 
3398 3399 4504 4503 3463 3464 4569 4568 
3399 3400 4505 4504 3464 3465 4570 4569 
3400 3401 4506 4505 3465 3466 4571 4570 
3401 3402 4507 4506 3466 3467 4572 4571 
3402 3403 4508 4507 3467 3468 4573 4572 
3403 3404 4509 4508 3468 3469 4574 4573 
3404 3405 4510 4509 3469 3470 4575 4574 
3405 3406 4511 4510 3470 3471 4576 4575 
3406 3407 4512 4511 3471 3472 4577 4576 
3407 3408 4513 4512 3472 3473 4578 4577 
3408 3409 4514 4513 3473 3474 4579 4578 
3409 3410 4515 4514 3474 3475 4580 4579 
3410 3411 4516 4515 3475 3476 4581 4580 
3411 3412 4517 4516 3476 3477 4582 4581 
3412 3413 4518 4517 3477 3478 4583 4582 
3413 3414 4519 4518 3478 3479 4584 4583 
3414 3415 4520 4519 3479 3480 4585 4584 
3415 3416 4521 4520 3480 3481 4586 4585 
3416 3417 4522 4521 3481 3482 4587 4586 
3417 3418 4523 4522 3482 3483 4588 4587 
3418 3419 4524 4523 3483 3484 4589 4588 
3419 3420 4525 4524 3484 3485 4590 4589 
3420 3421 4526 4525 3485 3486 4591 4590 
3421 3422 4527 4526 3486 3487 4592 4591 
3422 3423 4528 4527 3487 3488 4593 4592 
3423 3424 4529 4528 3488 3489 4594 4593 
3424 3425 4530 4529 3489 3490 4595 4594 
3425 3426 4531 4530 3490 3491 4596 4595 
3426 3427 4532 4531 3491 3492 4597 4596 
3427 3428 4533 4532 3492 3493 4598 4597 
3428 3429 4534 4533 3493 3494 4599 4598 
3429 3430 4535 4534 3494 3495 4600 4599 
3430 3431 4536 4535 3495 3496 4601 4600 
3431 3432 4537 4536 3496 3497 4602 4601 
3432 3433 4538 4537 3497 3498 4603 4602 
3433 3434 4539 4538 3498 3499 4604 4603 
3434 3435 4540 4539 3499 3500 4605 4604 
3435 3436 4541 4540 3500 3501 4606 4605 
3436 3437 4542 4541 3501 3502 4607 4606 
3437 3438 4543 4542 3502 3503 4608 4607 
3438 3439 4544 4543 3503 3504 4609 4608 
3439 3440 4545 4544 3504 3505 4610 4609 
3440 3441 4546 4545 3505 3506 4611 4610 
3441 3442 4547 4546 3506 3507 4612 4611 
3442 3443 4548 4547 3507 3508 4613 4612 
3443 3444 4549 4548 3508 3509 4614 4613 
3445 3446 4551 4550 3510 3511 4616 4615 
3446 3447 4552 4551 3511 3512 4617 4616 
3447 3448 4553 4552 3512 3513 4618 4617 
3448 3449 4554 4553 3513 3514 4619 4618 
3449 3450 4555 4554 3514 3515 4620 4619 
3450 3451 4556 4555 3515 3516 4621 4620 
3451 3452 4557 4556 3516 3517 4622 4621 
3452 3453 4558 4557 3517 3518 4623 4622 
3453 3454 4559 4558 3518 3519 4624 4623 
3454 3455 4560 4559 3519 3520 4625 4624 
3455 3456 4561 4560 3520 3521 4626 4625 
3456 3457 4562 4561 3521 3522 4627 4626 
3457 3458 4563 4562 3522 3523 4628 4627 
3458 3459 4564 4563 3523 3524 4629 4628 
3459 3460 4565 4564 3524 3525 4630 4629 
3460 3461 4566 4565 3525 3526 4631 4630 
3461 3462 4567 4566 3526 3527 4632 4631 
3462 3463 4568 4567 3527 3528 4633 4632 
3463 3464 4569 4568 3528 3529 4634 4633 
3464 3465 4570 4569 3529 3530 4635 4634 
3465 3466 4571 4570 3530 3531 4636 4635 
3466 3467 4572 4571 3531 3532 4637 4636 
3467 3468 4573 4572 3532 3533 4638 4637 
3468 3469 4574 4573 3533 3534 4639 4638 
3469 3470 4575 4574 3534 3535 4640 4639 
3470 3471 4576 4575 3535 3536 4641 4640 
3471 3472 4577 4576 3536 3537 4642 4641 
3472 3473 4578 4577 3537 3538 4643 4642 
3473 3474 4579 4578 3538 3539 4644 4643 
3474 3475 4580 4579 3539 3540 4645 4644 
3475 3476 4581 4580 3540 3541 4646 4645 
3476 3477 4582 4581 3541 3542 4647 4646 
3477 3478 4583 4582 3542 3543 4648 4647 
3478 3479 4584 4583 3543 3544 4649 4648 
3479 3480 4585 4584 3544 3545 4650 4649 
3480 3481 4586 4585 3545 3546 4651 4650 
3481 3482 4587 4586 3546 3547 4652 4651 
3482 3483 4588 4587 3547 3548 4653 4652 
3483 3484 4589 4588 3548 3549 4654 4653 
3484 3485 4590 4589 3549 3550 4655 4654 
3485 3486 4591 4590 3550 3551 4656 4655 
3486 3487 4592 4591 3551 3552 4657 4656 
3487 3488 4593 4592 3552 3553 4658 4657 
3488 3489 4594 4593 3553 3554 4659 4658 
3489 3490 4595 4594 3554 3555 4660 4659 
3490 3491 4596 4595 3555 3556 4661 4660 
3491 3492 4597 4596 3556 3557 4662 4661 
3492 3493 4598 4597 3557 3558 4663 4662 
3493 3494 4599 4598 3558 3559 4664 4663 
3494 3495 4600 4599 3559 3560 4665 4664 
3495 3496 4601 4600 3560 3561 4666 4665 
3496 3497 4602 4601 3561 3562 4667 4666 
3497 3498 4603 4602 3562 3563 4668 4667 
3498 3499 4604 4603 3563 3564 4669 4668 
3499 3500 4605 4604 3564 3565 4670 4669 
3500 3501 4606 4605 3565 3566 4671 4670 
3501 3502 4607 4606 3566 3567 4672 4671 
3502 3503 4608 4607 3567 3568 4673 4672 
3503 3504 4609 4608 3568 3569 4674 4673 
3504 3505 4610 4609 3569 3570 4675 4674 
3505 3506 4611 4610 3570 3571 4676 4675 
3506 3507 4612 4611 3571 3572 4677 4676 
3507 3508 4613 4612 3572 3573 4678 4677 
3508 3509 4614 4613 3573 3574 4679 4678 
3510 3511 4616 4615 3575 3576 4681 4680 
3511 3512 4617 4616 3576 3577 4682 4681 
3512 3513 4618 4617 3577 3578 4683 4682 
3513 3514 4619 4618 3578 3579 4684 4683 
3514 3515 4620 4619 3579 3580 4685 4684 
3515 3516 4621 4620 3580 3581 4686 4685 
3516 3517 4622 4621 3581 3582 4687 4686 
3517 3518 4623 4622 3582 3583 4688 4687 
3518 3519 4624 4623 3583 3584 4689 4688 
3519 3520 4625 4624 3584 3585 4690 4689 
3520 3521 4626 4625 3585 3586 4691 4690 
3521 3522 4627 4626 3586 3587 4692 4691 
3522 3523 4628 4627 3587 3588 4693 4692 
3523 3524 4629 4628 3588 3589 4694 4693 
3524 3525 4630 4629 3589 3590 4695 4694 
3525 3526 4631 4630 3590 3591 4696 4695 
3526 3527 4632 4631 3591 3592 4697 4696 
3527 3528 4633 4632 3592 3593 4698 4697 
3528 3529 4634 4633 3593 3594 4699 4698 
3529 3530 4635 4634 3594 3595 4700 4699 
3530 3531 4636 4635 3595 3596 4701 4700 
3531 3532 4637 4636 3596 3597 4702 4701 
3532 3533 4638 4637 3597 3598 4703 4702 
3533 3534 4639 4638 3598 3599 4704 4703 
3534 3535 4640 4639 3599 3600 4705 4704 
3535 3536 4641 4640 3600 3601 4706 4705 
3536 3537 4642 4641 3601 3602 4707 4706 
3537 3538 4643 4642 3602 3603 4708 4707 
3538 3539 4644 4643 3603 3604 4709 4708 
3539 3540 4645 4644 3604 3605 4710 4709 
3540 3541 4646 4645 3605 3606 4711 4710 
3541 3542 4647 4646 3606 3607 4712 4711 
3542 3543 4648 4647 3607 3608 4713 4712 
3543 3544 4649 4648 3608 3609 4714 4713 
3544 3545 4650 4649 3609 3610 4715 4714 
3545 3546 4651 4650 3610 3611 4716 4715 
3546 3547 4652 4651 3611 3612 4717 4716 
3547 3548 4653 4652 3612 3613 4718 4717 
3548 3549 4654 4653 3613 3614 4719 4718 
3549 3550 4655 4654 3614 3615 4720 4719 
3550 3551 4656 4655 3615 3616 4721 4720 
3551 3552 4657 4656 3616 3617 4722 4721 
3552 3553 4658 4657 3617 3618 4723 4722 
3553 3554 4659 4658 3618 3619 4724 4723 
3554 3555 4660 4659 3619 3620 4725 4724 
3555 3556 4661 4660 3620 3621 4726 4725 
3556 3557 4662 4661 3621 3622 4727 4726 
3557 3558 4663 4662 3622 3623 4728 4727 
3558 3559 4664 4663 3623 3624 4729 4728 
3559 3560 4665 4664 3624 3625 4730 4729 
3560 3561 4666 4665 3625 3626 4731 4730 
3561 3562 4667 4666 3626 3627 4732 4731 
3562 3563 4668 4667 3627 3628 4733 4732 
3563 3564 4669 4668 3628 3629 4734 4733 
3564 3565 4670 4669 3629 3630 4735 4734 
3565 3566 4671 4670 3630 3631 4736 4735 
3566 3567 4672 4671 3631 3632 4737 4736 
3567 3568 4673 4672 3632 3633 4738 4737 
3568 3569 4674 4673 3633 3634 4739 4738 
3569 3570 4675 4674 3634 3635 4740 4739 
3570 3571 4676 4675 3635 3636 4741 4740 
3571 3572 4677 4676 3636 3637 4742 4741 
3572 3573 4678 4677 3637 3638 4743 4742 
3573 3574 4679 4678 3638 3639 4744 4743 
3575 3576 4681 4680 3640 3641 4746 4745 
3576 3577 4682 4681 3641 3642 4747 4746 
3577 3578 4683 4682 3642 3643 4748 4747 
3578 3579 4684 4683 3643 3644 4749 4748 
3579 3580 4685 4684 3644 3645 4750 4749 
3580 3581 4686 4685 3645 3646 4751 4750 
3581 3582 4687 4686 3646 3647 4752 4751 
3582 3583 4688 4687 3647 3648 4753 4752 
3583 3584 4689 4688 3648 3649 4754 4753 
3584 3585 4690 4689 3649 3650 4755 4754 
3585 3586 4691 4690 3650 3651 4756 4755 
3586 3587 4692 4691 3651 3652 4757 4756 
3587 3588 4693 4692 3652 3653 4758 4757 
3588 3589 4694 4693 3653 3654 4759 4758 
3589 3590 4695 4694 3654 3655 4760 4759 
3590 3591 4696 4695 3655 3656 4761 4760 
3591 3592 4697 4696 3656 3657 4762 4761 
3592 3593 4698 4697 3657 3658 4763 4762 
3593 3594 4699 4698 3658 3659 4764 4763 
3594 3595 4700 4699 3659 3660 4765 4764 
3595 3596 4701 4700 3660 3661 4766 4765 
3596 3597 4702 4701 3661 3662 4767 4766 
3597 3598 4703 4702 3662 3663 4768 4767 
3598 3599 4704 4703 3663 3664 4769 4768 
3599 3600 4705 4704 3664 3665 4770 4769 
3600 3601 4706 4705 3665 3666 4771 4770 
3601 3602 4707 4706 3666 3667 4772 4771 
3602 3603 4708 4707 3667 3668 4773 4772 
3603 3604 4709 4708 3668 3669 4774 4773 
3604 3605 4710 4709 3669 3670 4775 4774 
3605 3606 4711 4710 3670 3671 4776 4775 
3606 3607 4712 4711 3671 3672 4777 4776 
3607 3608 4713 4712 3672 3673 4778 4777 
3608 3609 4714 4713 3673 3674 4779 4778 
3609 3610 4715 4714 3674 3675 4780 4779 
3610 3611 4716 4715 3675 3676 4781 4780 
3611 3612 4717 4716 3676 3677 4782 4781 
3612 3613 4718 4717 3677 3678 4783 4782 
3613 3614 4719 4718 3678 3679 4784 4783 
3614 3615 4720 4719 3679 3680 4785 4784 
3615 3616 4721 4720 3680 3681 4786 4785 
3616 3617 4722 4721 3681 3682 4787 4786 
3617 3618 4723 4722 3682 3683 4788 4787 
3618 3619 4724 4723 3683 3684 4789 4788 
3619 3620 4725 4724 3684 3685 4790 4789 
3620 3621 4726 4725 3685 3686 4791 4790 
3621 3622 4727 4726 3686 3687 4792 4791 
3622 3623 4728 4727 3687 3688 4793 4792 
3623 3624 4729 4728 3688 3689 4794 4793 
3624 3625 4730 4729 3689 3690 4795 4794 
3625 3626 4731 4730 3690 3691 4796 4795 
3626 3627 4732 4731 3691 3692 4797 4796 
3627 3628 4733 4732 3692 3693 4798 4797 
3628 3629 4734 4733 3693 3694 4799 4798 
3629 3630 4735 4734 3694 3695 4800 4799 
3630 3631 4736 4735 3695 3696 4801 4800 
3631 3632 4737 4736 3696 3697 4802 4801 
3632 3633 4738 4737 3697 3698 4803 4802 
3633 3634 4739 4738 3698 3699 4804 4803 
3634 3635 4740 4739 3699 3700 4805 4804 
3635 3636 4741 4740 3700 3701 4806 4805 
3636 3637 4742 4741 3701 3702 4807 4806 
3637 3638 4743 4742 3702 3703 4808 4807 
3638 3639 4744 4743 3703 3704 4809 4808 
3640 3641 4746 4745 3705 3706 4811 4810 
3641 3642 4747 4746 3706 3707 4812 4811 
3642 3643 4748 4747 3707 3708 4813 4812 
3643 3644 4749 4748 3708 3709 4814 4813 
3644 3645 4750 4749 3709 3710 4815 4814 
3645 3646 4751 4750 3710 3711 4816 4815 
3646 3647 4752 4751 3711 3712 4817 4816 
3647 3648 4753 4752 3712 3713 4818 4817 
3648 3649 4754 4753 3713 3714 4819 4818 
3649 3650 4755 4754 3714 3715 4820 4819 
3650 3651 4756 4755 3715 3716 4821 4820 
3651 3652 4757 4756 3716 3717 4822 4821 
3652 3653 4758 4757 3717 3718 4823 4822 
3653 3654 4759 4758 3718 3719 4824 4823 
3654 3655 4760 4759 3719 3720 4825 4824 
3655 3656 4761 4760 3720 3721 4826 4825 
3656 3657 4762 4761 3721 3722 4827 4826 
3657 3658 4763 4762 3722 3723 4828 4827 
3658 3659 4764 4763 3723 3724 4829 4828 
3659 3660 4765 4764 3724 3725 4830 4829 
3660 3661 4766 4765 3725 3726 4831 4830 
3661 3662 4767 4766 3726 3727 4832 4831 
3662 3663 4768 4767 3727 3728 4833 4832 
3663 3664 4769 4768 3728 3729 4834 4833 
3664 3665 4770 4769 3729 3730 4835 4834 
3665 3666 4771 4770 3730 3731 4836 4835 
3666 3667 4772 4771 3731 3732 4837 4836 
3667 3668 4773 4772 3732 3733 4838 4837 
3668 3669 4774 4773 3733 3734 4839 4838 
3669 3670 4775 4774 3734 3735 4840 4839 
3670 3671 4776 4775 3735 3736 4841 4840 
3671 3672 4777 4776 3736 3737 4842 4841 
3672 3673 4778 4777 3737 3738 4843 4842 
3673 3674 4779 4778 3738 3739 4844 4843 
3674 3675 4780 4779 3739 3740 4845 4844 
3675 3676 4781 4780 3740 3741 4846 4845 
3676 3677 4782 4781 3741 3742 4847 4846 
3677 3678 4783 4782 3742 3743 4848 4847 
3678 3679 4784 4783 3743 3744 4849 4848 
3679 3680 4785 4784 3744 3745 4850 4849 
3680 3681 4786 4785 3745 3746 4851 4850 
3681 3682 4787 4786 3746 3747 4852 4851 
3682 3683 4788 4787 3747 3748 4853 4852 
3683 3684 4789 4788 3748 3749 4854 4853 
3684 3685 4790 4789 3749 3750 4855 4854 
3685 3686 4791 4790 3750 3751 4856 4855 
3686 3687 4792 4791 3751 3752 4857 4856 
3687 3688 4793 4792 3752 3753 4858 4857 
3688 3689 4794 4793 3753 3754 4859 4858 
3689 3690 4795 4794 3754 3755 4860 4859 
3690 3691 4796 4795 3755 3756 4861 4860 
3691 3692 4797 4796 3756 3757 4862 4861 
3692 3693 4798 4797 3757 3758 4863 4862 
3693 3694 4799 4798 3758 3759 4864 4863 
3694 3695 4800 4799 3759 3760 4865 4864 
3695 3696 4801 4800 3760 3761 4866 4865 
3696 3697 4802 4801 3761 3762 4867 4866 
3697 3698 4803 4802 3762 3763 4868 4867 
3698 3699 4804 4803 3763 3764 4869 4868 
3699 3700 4805 4804 3764 3765 4870 4869 
3700 3701 4806 4805 3765 3766 4871 4870 
3701 3702 4807 4806 3766 3767 4872 4871 
3702 3703 4808 4807 3767 3768 4873 4872 
3703 3704 4809 4808 3768 3769 4874 4873 
3705 3706 4811 4810 3770 3771 4876 4875 
3706 3707 4812 4811 3771 3772 4877 4876 
3707 3708 4813 4812 3772 3773 4878 4877 
3708 3709 4814 4813 3773 3774 4879 4878 
3709 3710 4815 4814 3774 3775 4880 4879 
3710 3711 4816 4815 3775 3776 4881 4880 
3711 3712 4817 4816 3776 3777 4882 4881 
3712 3713 4818 4817 3777 3778 4883 4882 
3713 3714 4819 4818 3778 3779 4884 4883 
3714 3715 4820 4819 3779 3780 4885 4884 
3715 3716 4821 4820 3780 3781 4886 4885 
3716 3717 4822 4821 3781 3782 4887 4886 
3717 3718 4823 4822 3782 3783 4888 4887 
3718 3719 4824 4823 3783 3784 4889 4888 
3719 3720 4825 4824 3784 3785 4890 4889 
3720 3721 4826 4825 3785 3786 4891 4890 
3721 3722 4827 4826 3786 3787 4892 4891 
3722 3723 4828 4827 3787 3788 4893 4892 
3723 3724 4829 4828 3788 3789 4894 4893 
3724 3725 4830 4829 3789 3790 4895 4894 
3725 3726 4831 4830 3790 3791 4896 4895 
3726 3727 4832 4831 3791 3792 4897 4896 
3727 3728 4833 4832 3792 3793 4898 4897 
3728 3729 4834 4833 3793 3794 4899 4898 
3729 3730 4835 4834 3794 3795 4900 4899 
3730 3731 4836 4835 3795 3796 4901 4900 
3731 3732 4837 4836 3796 3797 4902 4901 
3732 3733 4838 4837 3797 3798 4903 4902 
3733 3734 4839 4838 3798 3799 4904 4903 
3734 3735 4840 4839 3799 3800 4905 4904 
3735 3736 4841 4840 3800 3801 4906 4905 
3736 3737 4842 4841 3801 3802 4907 4906 
3737 3738 4843 4842 3802 3803 4908 4907 
3738 3739 4844 4843 3803 3804 4909 4908 
3739 3740 4845 4844 3804 3805 4910 4909 
3740 3741 4846 4845 3805 3806 4911 4910 
3741 3742 4847 4846 3806 3807 4912 4911 
3742 3743 4848 4847 3807 3808 4913 4912 
3743 3744 4849 4848 3808 3809 4914 4913 
3744 3745 4850 4849 3809 3810 4915 4914 
3745 3746 4851 4850 3810 3811 4916 4915 
3746 3747 4852 4851 3811 3812 4917 4916 
3747 3748 4853 4852 3812 3813 4918 4917 
3748 3749 4854 4853 3813 3814 4919 4918 
3749 3750 4855 4854 3814 3815 4920 4919 
3750 3751 4856 4855 3815 3816 4921 4920 
3751 3752 4857 4856 3816 3817 4922 4921 
3752 3753 4858 4857 3817 3818 4923 4922 
3753 3754 4859 4858 3818 3819 4924 4923 
3754 3755 4860 4859 3819 3820 4925 4924 
3755 3756 4861 4860 3820 3821 4926 4925 
3756 3757 4862 4861 3821 3822 4927 4926 
3757 3758 4863 4862 3822 3823 4928 4927 
3758 3759 4864 4863 3823 3824 4929 4928 
3759 3760 4865 4864 3824 3825 4930 4929 
3760 3761 4866 4865 3825 3826 4931 4930 
3761 3762 4867 4866 3826 3827 4932 4931 
3762 3763 4868 4867 3827 3828 4933 4932 
3763 3764 4869 4868 3828 3829 4934 4933 
3764 3765 4870 4869 3829 3830 4935 4934 
3765 3766 4871 4870 3830 3831 4936 4935 
3766 3767 4872 4871 3831 3832 4937 4936 
3767 3768 4873 4872 3832 3833 4938 4937 
3768 3769 4874 4873 3833 3834 4939 4938 
3770 3771 4876 4875 3835 3836 4941 4940 
3771 3772 4877 4876 3836 3837 4942 4941 
3772 3773 4878 4877 3837 3838 4943 4942 
3773 3774 4879 4878 3838 3839 4944 4943 
3774 3775 4880 4879 3839 3840 4945 4944 
3775 3776 4881 4880 3840 3841 4946 4945 
3776 3777 4882 4881 3841 3842 4947 4946 
3777 3778 4883 4882 3842 3843 4948 4947 
3778 3779 4884 4883 3843 3844 4949 4948 
3779 3780 4885 4884 3844 3845 4950 4949 
3780 3781 4886 4885 3845 3846 4951 4950 
3781 3782 4887 4886 3846 3847 4952 4951 
3782 3783 4888 4887 3847 3848 4953 4952 
3783 3784 4889 4888 3848 3849 4954 4953 
3784 3785 4890 4889 3849 3850 4955 4954 
3785 3786 4891 4890 3850 3851 4956 4955 
3786 3787 4892 4891 3851 3852 4957 4956 
3787 3788 4893 4892 3852 3853 4958 4957 
3788 3789 4894 4893 3853 3854 4959 4958 
3789 3790 4895 4894 3854 3855 4960 4959 
3790 3791 4896 4895 3855 3856 4961 4960 
3791 3792 4897 4896 3856 3857 4962 4961 
3792 3793 4898 4897 3857 3858 4963 4962 
3793 3794 4899 4898 3858 3859 4964 4963 
3794 3795 4900 4899 3859 3860 4965 4964 
3795 3796 4901 4900 3860 3861 4966 4965 
3796 3797 4902 4901 3861 3862 4967 4966 
3797 3798 4903 4902 3862 3863 4968 4967 
3798 3799 4904 4903 3863 3864 4969 4968 
3799 3800 4905 4904 3864 3865 4970 4969 
3800 3801 4906 4905 3865 3866 4971 4970 
3801 3802 4907 4906 3866 3867 4972 4971 
3802 3803 4908 4907 3867 3868 4973 4972 
3803 3804 4909 4908 3868 3869 4974 4973 
3804 3805 4910 4909 3869 3870 4975 4974 
3805 3806 4911 4910 3870 3871 4976 4975 
3806 3807 4912 4911 3871 3872 4977 4976 
3807 3808 4913 4912 3872 3873 4978 4977 
3808 3809 4914 4913 3873 3874 4979 4978 
3809 3810 4915 4914 3874 3875 4980 4979 
3810 3811 4916 4915 3875 3876 4981 4980 
3811 3812 4917 4916 3876 3877 4982 4981 
3812 3813 4918 4917 3877 3878 4983 4982 
3813 3814 4919 4918 3878 3879 4984 4983 
3814 3815 4920 4919 3879 3880 4985 4984 
3815 3816 4921 4920 3880 3881 4986 4985 
3816 3817 4922 4921 3881 3882 4987 4986 
3817 3818 4923 4922 3882 3883 4988 4987 
3818 3819 4924 4923 3883 3884 4989 4988 
3819 3820 4925 4924 3884 3885 4990 4989 
3820 3821 4926 4925 3885 3886 4991 4990 
3821 3822 4927 4926 3886 3887 4992 4991 
3822 3823 4928 4927 3887 3888 4993 4992 
3823 3824 4929 4928 3888 3889 4994 4993 
3824 3825 4930 4929 3889 3890 4995 4994 
3825 3826 4931 4930 3890 3891 4996 4995 
3826 3827 4932 4931 3891 3892 4997 4996 
3827 3828 4933 4932 3892 3893 4998 4997 
3828 3829 4934 4933 3893 3894 4999 4998 
3829 3830 4935 4934 3894 3895 5000 4999 
3830 3831 4936 4935 3895 3896 5001 5000 
3831 3832 4937 4936 3896 3897 5002 5001 
3832 3833 4938 4937 3897 3898 5003 5002 
3833 3834 4939 4938 3898 3899 5004 5003 
3835 3836 4941 4940 3900 3901 5006 5005 
3836 3837 4942 4941 3901 3902 5007 5006 
3837 3838 4943 4942 3902 3903 5008 5007 
3838 3839 4944 4943 3903 3904 5009 5008 
3839 3840 4945 4944 3904 3905 5010 5009 
3840 3841 4946 4945 3905 3906 5011 5010 
3841 3842 4947 4946 3906 3907 5012 5011 
3842 3843 4948 4947 3907 3908 5013 5012 
3843 3844 4949 4948 3908 3909 5014 5013 
3844 3845 4950 4949 3909 3910 5015 5014 
3845 3846 4951 4950 3910 3911 5016 5015 
3846 3847 4952 4951 3911 3912 5017 5016 
3847 3848 4953 4952 3912 3913 5018 5017 
3848 3849 4954 4953 3913 3914 5019 5018 
3849 3850 4955 4954 3914 3915 5020 5019 
3850 3851 4956 4955 3915 3916 5021 5020 
3851 3852 4957 4956 3916 3917 5022 5021 
3852 3853 4958 4957 3917 3918 5023 5022 
3853 3854 4959 4958 3918 3919 5024 5023 
3854 3855 4960 4959 3919 3920 5025 5024 
3855 3856 4961 4960 3920 3921 5026 5025 
3856 3857 4962 4961 3921 3922 5027 5026 
3857 3858 4963 4962 3922 3923 5028 5027 
3858 3859 4964 4963 3923 3924 5029 5028 
3859 3860 4965 4964 3924 3925 5030 5029 
3860 3861 4966 4965 3925 3926 5031 5030 
3861 3862 4967 4966 3926 3927 5032 5031 
3862 3863 4968 4967 3927 3928 5033 5032 
3863 3864 4969 4968 3928 3929 5034 5033 
3864 3865 4970 4969 3929 3930 5035 5034 
3865 3866 4971 4970 3930 3931 5036 5035 
3866 3867 4972 4971 3931 3932 5037 5036 
3867 3868 4973 4972 3932 3933 5038 5037 
3868 3869 4974 4973 3933 3934 5039 5038 
3869 3870 4975 4974 3934 3935 5040 5039 
3870 3871 4976 4975 3935 3936 5041 5040 
3871 3872 4977 4976 3936 3937 5042 5041 
3872 3873 4978 4977 3937 3938 5043 5042 
3873 3874 4979 4978 3938 3939 5044 5043 
3874 3875 4980 4979 3939 3940 5045 5044 
3875 3876 4981 4980 3940 3941 5046 5045 
3876 3877 4982 4981 3941 3942 5047 5046 
3877 3878 4983 4982 3942 3943 5048 5047 
3878 3879 4984 4983 3943 3944 5049 5048 
3879 3880 4985 4984 3944 3945 5050 5049 
3880 3881 4986 4985 3945 3946 5051 5050 
3881 3882 4987 4986 3946 3947 5052 5051 
3882 3883 4988 4987 3947 3948 5053 5052 
3883 3884 4989 4988 3948 3949 5054 5053 
3884 3885 4990 4989 3949 3950 5055 5054 
3885 3886 4991 4990 3950 3951 5056 5055 
3886 3887 4992 4991 3951 3952 5057 5056 
3887 3888 4993 4992 3952 3953 5058 5057 
3888 3889 4994 4993 3953 3954 5059 5058 
3889 3890 4995 4994 3954 3955 5060 5059 
3890 3891 4996 4995 3955 3956 5061 5060 
3891 3892 4997 4996 3956 3957 5062 5061 
3892 3893 4998 4997 3957 3958 5063 5062 
3893 3894 4999 4998 3958 3959 5064 5063 
3894 3895 5000 4999 3959 3960 5065 5064 
3895 3896 5001 5000 3960 3961 5066 5065 
3896 3897 5002 5001 3961 3962 5067 5066 
3897 3898 5003 5002 3962 3963 5068 5067 
3898 3899 5004 5003 3963 3964 5069 5068 
3900 3901 5006 5005 3965 3966 5071 5070 
3901 3902 5007 5006 3966 3967 5072 5071 
3902 3903 5008 5007 3967 3968 5073 5072 
3903 3904 5009 5008 3968 3969 5074 5073 
3904 3905 5010 5009 3969 3970 5075 5074 
3905 3906 5011 5010 3970 3971 5076 5075 
3906 3907 5012 5011 3971 3972 5077 5076 
3907 3908 5013 5012 3972 3973 5078 5077 
3908 3909 5014 5013 3973 3974 5079 5078 
3909 3910 5015 5014 3974 3975 5080 5079 
3910 3911 5016 5015 3975 3976 5081 5080 
3911 3912 5017 5016 3976 3977 5082 5081 
3912 3913 5018 5017 3977 3978 5083 5082 
3913 3914 5019 5018 3978 3979 5084 5083 
3914 3915 5020 5019 3979 3980 5085 5084 
3915 3916 5021 5020 3980 3981 5086 5085 
3916 3917 5022 5021 3981 3982 5087 5086 
3917 3918 5023 5022 3982 3983 5088 5087 
3918 3919 5024 5023 3983 3984 5089 5088 
3919 3920 5025 5024 3984 3985 5090 5089 
3920 3921 5026 5025 3985 3986 5091 5090 
3921 3922 5027 5026 3986 3987 5092 5091 
3922 3923 5028 5027 3987 3988 5093 5092 
3923 3924 5029 5028 3988 3989 5094 5093 
3924 3925 5030 5029 3989 3990 5095 5094 
3925 3926 5031 5030 3990 3991 5096 5095 
3926 3927 5032 5031 3991 3992 5097 5096 
3927 3928 5033 5032 3992 3993 5098 5097 
3928 3929 5034 5033 3993 3994 5099 5098 
3929 3930 5035 5034 3994 3995 5100 5099 
3930 3931 5036 5035 3995 3996 5101 5100 
3931 3932 5037 5036 3996 3997 5102 5101 
3932 3933 5038 5037 3997 3998 5103 5102 
3933 3934 5039 5038 3998 3999 5104 5103 
3934 3935 5040 5039 3999 4000 5105 5104 
3935 3936 5041 5040 4000 4001 5106 5105 
3936 3937 5042 5041 4001 4002 5107 5106 
3937 3938 5043 5042 4002 4003 5108 5107 
3938 3939 5044 5043 4003 4004 5109 5108 
3939 3940 5045 5044 4004 4005 5110 5109 
3940 3941 5046 5045 4005 4006 5111 5110 
3941 3942 5047 5046 4006 4007 5112 5111 
3942 3943 5048 5047 4007 4008 5113 5112 
3943 3944 5049 5048 4008 4009 5114 5113 
3944 3945 5050 5049 4009 4010 5115 5114 
3945 3946 5051 5050 4010 4011 5116 5115 
3946 3947 5052 5051 4011 4012 5117 5116 
3947 3948 5053 5052 4012 4013 5118 5117 
3948 3949 5054 5053 4013 4014 5119 5118 
3949 3950 5055 5054 4014 4015 5120 5119 
3950 3951 5056 5055 4015 4016 5121 5120 
3951 3952 5057 5056 4016 4017 5122 5121 
3952 3953 5058 5057 4017 4018 5123 5122 
3953 3954 5059 5058 4018 4019 5124 5123 
3954 3955 5060 5059 4019 4020 5125 5124 
3955 3956 5061 5060 4020 4021 5126 5125 
3956 3957 5062 5061 4021 4022 5127 5126 
3957 3958 5063 5062 4022 4023 5128 5127 
3958 3959 5064 5063 4023 4024 5129 5128 
3959 3960 5065 5064 4024 4025 5130 5129 
3960 3961 5066 5065 4025 4026 5131 5130 
3961 3962 5067 5066 4026 4027 5132 5131 
3962 3963 5068 5067 4027 4028 5133 5132 
3963 3964 5069 5068 4028 4029 5134 5133 
3965 3966 5071 5070 4030 4031 5136 5135 
3966 3967 5072 5071 4031 4032 5137 5136 
3967 3968 5073 5072 4032 4033 5138 5137 
3968 3969 5074 5073 4033 4034 5139 5138 
3969 3970 5075 5074 4034 4035 5140 5139 
3970 3971 5076 5075 4035 4036 5141 5140 
3971 3972 5077 5076 4036 4037 5142 5141 
3972 3973 5078 5077 4037 4038 5143 5142 
3973 3974 5079 5078 4038 4039 5144 5143 
3974 3975 5080 5079 4039 4040 5145 5144 
3975 3976 5081 5080 4040 4041 5146 5145 
3976 3977 5082 5081 4041 4042 5147 5146 
3977 3978 5083 5082 4042 4043 5148 5147 
3978 3979 5084 5083 4043 4044 5149 5148 
3979 3980 5085 5084 4044 4045 5150 5149 
3980 3981 5086 5085 4045 4046 5151 5150 
3981 3982 5087 5086 4046 4047 5152 5151 
3982 3983 5088 5087 4047 4048 5153 5152 
3983 3984 5089 5088 4048 4049 5154 5153 
3984 3985 5090 5089 4049 4050 5155 5154 
3985 3986 5091 5090 4050 4051 5156 5155 
3986 3987 5092 5091 4051 4052 5157 5156 
3987 3988 5093 5092 4052 4053 5158 5157 
3988 3989 5094 5093 4053 4054 5159 5158 
3989 3990 5095 5094 4054 4055 5160 5159 
3990 3991 5096 5095 4055 4056 5161 5160 
3991 3992 5097 5096 4056 4057 5162 5161 
3992 3993 5098 5097 4057 4058 5163 5162 
3993 3994 5099 5098 4058 4059 5164 5163 
3994 3995 5100 5099 4059 4060 5165 5164 
3995 3996 5101 5100 4060 4061 5166 5165 
3996 3997 5102 5101 4061 4062 5167 5166 
3997 3998 5103 5102 4062 4063 5168 5167 
3998 3999 5104 5103 4063 4064 5169 5168 
3999 4000 5105 5104 4064 4065 5170 5169 
4000 4001 5106 5105 4065 4066 5171 5170 
4001 4002 5107 5106 4066 4067 5172 5171 
4002 4003 5108 5107 4067 4068 5173 5172 
4003 4004 5109 5108 4068 4069 5174 5173 
4004 4005 5110 5109 4069 4070 5175 5174 
4005 4006 5111 5110 4070 4071 5176 5175 
4006 4007 5112 5111 4071 4072 5177 5176 
4007 4008 5113 5112 4072 4073 5178 5177 
4008 4009 5114 5113 4073 4074 5179 5178 
4009 4010 5115 5114 4074 4075 5180 5179 
4010 4011 5116 5115 4075 4076 5181 5180 
4011 4012 5117 5116 4076 4077 5182 5181 
4012 4013 5118 5117 4077 4078 5183 5182 
4013 4014 5119 5118 4078 4079 5184 5183 
4014 4015 5120 5119 4079 4080 5185 5184 
4015 4016 5121 5120 4080 4081 5186 5185 
4016 4017 5122 5121 4081 4082 5187 5186 
4017 4018 5123 5122 4082 4083 5188 5187 
4018 4019 5124 5123 4083 4084 5189 5188 
4019 4020 5125 5124 4084 4085 5190 5189 
4020 4021 5126 5125 4085 4086 5191 5190 
4021 4022 5127 5126 4086 4087 5192 5191 
4022 4023 5128 5127 4087 4088 5193 5192 
4023 4024 5129 5128 4088 4089 5194 5193 
4024 4025 5130 5129 4089 4090 5195 5194 
4025 4026 5131 5130 4090 4091 5196 5195 
4026 4027 5132 5131 4091 4092 5197 5196 
4027 4028 5133 5132 4092 4093 5198 5197 
4028 4029 5134 5133 4093 4094 5199 5198 
4030 4031 5136 5135 4095 4096 5201 5200 
4031 4032 5137 5136 4096 4097 5202 5201 
4032 4033 5138 5137 4097 4098 5203 5202 
4033 4034 5139 5138 4098 4099 5204 5203 
4034 4035 5140 5139 4099 4100 5205 5204 
4035 4036 5141 5140 4100 4101 5206 5205 
4036 4037 5142 5141 4101 4102 5207 5206 
4037 4038 5143 5142 4102 4103 5208 5207 
4038 4039 5144 5143 4103 4104 5209 5208 
4039 4040 5145 5144 4104 4105 5210 5209 
4040 4041 5146 5145 4105 4106 5211 5210 
4041 4042 5147 5146 4106 4107 5212 5211 
4042 4043 5148 5147 4107 4108 5213 5212 
4043 4044 5149 5148 4108 4109 5214 5213 
4044 4045 5150 5149 4109 4110 5215 5214 
4045 4046 5151 5150 4110 4111 5216 5215 
4046 4047 5152 5151 4111 4112 5217 5216 
4047 4048 5153 5152 4112 4113 5218 5217 
4048 4049 5154 5153 4113 4114 5219 5218 
4049 4050 5155 5154 4114 4115 5220 5219 
4050 4051 5156 5155 4115 4116 5221 5220 
4051 4052 5157 5156 4116 4117 5222 5221 
4052 4053 5158 5157 4117 4118 5223 5222 
4053 4054 5159 5158 4118 4119 5224 5223 
4054 4055 5160 5159 4119 4120 5225 5224 
4055 4056 5161 5160 4120 4121 5226 5225 
4056 4057 5162 5161 4121 4122 5227 5226 
4057 4058 5163 5162 4122 4123 5228 5227 
4058 4059 5164 5163 4123 4124 5229 5228 
4059 4060 5165 5164 4124 4125 5230 5229 
4060 4061 5166 5165 4125 4126 5231 5230 
4061 4062 5167 5166 4126 4127 5232 5231 
4062 4063 5168 5167 4127 4128 5233 5232 
4063 4064 5169 5168 4128 4129 5234 5233 
4064 4065 5170 5169 4129 4130 5235 5234 
4065 4066 5171 5170 4130 4131 5236 5235 
4066 4067 5172 5171 4131 4132 5237 5236 
4067 4068 5173 5172 4132 4133 5238 5237 
4068 4069 5174 5173 4133 4134 5239 5238 
4069 4070 5175 5174 4134 4135 5240 5239 
4070 4071 5176 5175 4135 4136 5241 5240 
4071 4072 5177 5176 4136 4137 5242 5241 
4072 4073 5178 5177 4137 4138 5243 5242 
4073 4074 5179 5178 4138 4139 5244 5243 
4074 4075 5180 5179 4139 4140 5245 5244 
4075 4076 5181 5180 4140 4141 5246 5245 
4076 4077 5182 5181 4141 4142 5247 5246 
4077 4078 5183 5182 4142 4143 5248 5247 
4078 4079 5184 5183 4143 4144 5249 5248 
4079 4080 5185 5184 4144 4145 5250 5249 
4080 4081 5186 5185 4145 4146 5251 5250 
4081 4082 5187 5186 4146 4147 5252 5251 
4082 4083 5188 5187 4147 4148 5253 5252 
4083 4084 5189 5188 4148 4149 5254 5253 
4084 4085 5190 5189 4149 4150 5255 5254 
4085 4086 5191 5190 4150 4151 5256 5255 
4086 4087 5192 5191 4151 4152 5257 5256 
4087 4088 5193 5192 4152 4153 5258 5257 
4088 4089 5194 5193 4153 4154 5259 5258 
4089 4090 5195 5194 4154 4155 5260 5259 
4090 4091 5196 5195 4155 4156 5261 5260 
4091 4092 5197 5196 4156 4157 5262 5261 
4092 4093 5198 5197 4157 4158 5263 5262 
4093 4094 5199 5198 4158 4159 5264 5263 
4095 4096 5201 5200 4160 4161 5266 5265 
4096 4097 5202 5201 4161 4162 5267 5266 
4097 4098 5203 5202 4162 4163 5268 5267 
4098 4099 5204 5203 4163 4164 5269 5268 
4099 4100 5205 5204 4164 4165 5270 5269 
4100 4101 5206 5205 4165 4166 5271 5270 
4101 4102 5207 5206 4166 4167 5272 5271 
4102 4103 5208 5207 4167 4168 5273 5272 
4103 4104 5209 5208 4168 4169 5274 5273 
4104 4105 5210 5209 4169 4170 5275 5274 
4105 4106 5211 5210 4170 4171 5276 5275 
4106 4107 5212 5211 4171 4172 5277 5276 
4107 4108 5213 5212 4172 4173 5278 5277 
4108 4109 5214 5213 4173 4174 5279 5278 
4109 4110 5215 5214 4174 4175 5280 5279 
4110 4111 5216 5215 4175 4176 5281 5280 
4111 4112 5217 5216 4176 4177 5282 5281 
4112 4113 5218 5217 4177 4178 5283 5282 
4113 4114 5219 5218 4178 4179 5284 5283 
4114 4115 5220 5219 4179 4180 5285 5284 
4115 4116 5221 5220 4180 4181 5286 5285 
4116 4117 5222 5221 4181 4182 5287 5286 
4117 4118 5223 5222 4182 4183 5288 5287 
4118 4119 5224 5223 4183 4184 5289 5288 
4119 4120 5225 5224 4184 4185 5290 5289 
4120 4121 5226 5225 4185 4186 5291 5290 
4121 4122 5227 5226 4186 4187 5292 5291 
4122 4123 5228 5227 4187 4188 5293 5292 
4123 4124 5229 5228 4188 4189 5294 5293 
4124 4125 5230 5229 4189 4190 5295 5294 
4125 4126 5231 5230 4190 4191 5296 5295 
4126 4127 5232 5231 4191 4192 5297 5296 
4127 4128 5233 5232 4192 4193 5298 5297 
4128 4129 5234 5233 4193 4194 5299 5298 
4129 4130 5235 5234 4194 4195 5300 5299 
4130 4131 5236 5235 4195 4196 5301 5300 
4131 4132 5237 5236 4196 4197 5302 5301 
4132 4133 5238 5237 4197 4198 5303 5302 
4133 4134 5239 5238 4198 4199 5304 5303 
4134 4135 5240 5239 4199 4200 5305 5304 
4135 4136 5241 5240 4200 4201 5306 5305 
4136 4137 5242 5241 4201 4202 5307 5306 
4137 4138 5243 5242 4202 4203 5308 5307 
4138 4139 5244 5243 4203 4204 5309 5308 
4139 4140 5245 5244 4204 4205 5310 5309 
4140 4141 5246 5245 4205 4206 5311 5310 
4141 4142 5247 5246 4206 4207 5312 5311 
4142 4143 5248 5247 4207 4208 5313 5312 
4143 4144 5249 5248 4208 4209 5314 5313 
4144 4145 5250 5249 4209 4210 5315 5314 
4145 4146 5251 5250 4210 4211 5316 5315 
4146 4147 5252 5251 4211 4212 5317 5316 
4147 4148 5253 5252 4212 4213 5318 5317 
4148 4149 5254 5253 4213 4214 5319 5318 
4149 4150 5255 5254 4214 4215 5320 5319 
4150 4151 5256 5255 4215 4216 5321 5320 
4151 4152 5257 5256 4216 4217 5322 5321 
4152 4153 5258 5257 4217 4218 5323 5322 
4153 4154 5259 5258 4218 4219 5324 5323 
4154 4155 5260 5259 4219 4220 5325 5324 
4155 4156 5261 5260 4220 4221 5326 5325 
4156 4157 5262 5261 4221 4222 5327 5326 
4157 4158 5263 5262 4222 4223 5328 5327 
4158 4159 5264 5263 4223 4224 5329 5328 
4160 4161 5266 5265 4225 4226 5331 5330 
4161 4162 5267 5266 4226 4227 5332 5331 
4162 4163 5268 5267 4227 4228 5333 5332 
4163 4164 5269 5268 4228 4229 5334 5333 
4164 4165 5270 5269 4229 4230 5335 5334 
4165 4166 5271 5270 4230 4231 5336 5335 
4166 4167 5272 5271 4231 4232 5337 5336 
4167 4168 5273 5272 4232 4233 5338 5337 
4168 4169 5274 5273 4233 4234 5339 5338 
4169 4170 5275 5274 4234 4235 5340 5339 
4170 4171 5276 5275 4235 4236 5341 5340 
4171 4172 5277 5276 4236 4237 5342 5341 
4172 4173 5278 5277 4237 4238 5343 5342 
4173 4174 5279 5278 4238 4239 5344 5343 
4174 4175 5280 5279 4239 4240 5345 5344 
4175 4176 5281 5280 4240 4241 5346 5345 
4176 4177 5282 5281 4241 4242 5347 5346 
4177 4178 5283 5282 4242 4243 5348 5347 
4178 4179 5284 5283 4243 4244 5349 5348 
4179 4180 5285 5284 4244 4245 5350 5349 
4180 4181 5286 5285 4245 4246 5351 5350 
4181 4182 5287 5286 4246 4247 5352 5351 
4182 4183 5288 5287 4247 4248 5353 5352 
4183 4184 5289 5288 4248 4249 5354 5353 
4184 4185 5290 5289 4249 4250 5355 5354 
4185 4186 5291 5290 4250 4251 5356 5355 
4186 4187 5292 5291 4251 4252 5357 5356 
4187 4188 5293 5292 4252 4253 5358 5357 
4188 4189 5294 5293 4253 4254 5359 5358 
4189 4190 5295 5294 4254 4255 5360 5359 
4190 4191 5296 5295 4255 4256 5361 5360 
4191 4192 5297 5296 4256 4257 5362 5361 
4192 4193 5298 5297 4257 4258 5363 5362 
4193 4194 5299 5298 4258 4259 5364 5363 
4194 4195 5300 5299 4259 4260 5365 5364 
4195 4196 5301 5300 4260 4261 5366 5365 
4196 4197 5302 5301 4261 4262 5367 5366 
4197 4198 5303 5302 4262 4263 5368 5367 
4198 4199 5304 5303 4263 4264 5369 5368 
4199 4200 5305 5304 4264 4265 5370 5369 
4200 4201 5306 5305 4265 4266 5371 5370 
4201 4202 5307 5306 4266 4267 5372 5371 
4202 4203 5308 5307 4267 4268 5373 5372 
4203 4204 5309 5308 4268 4269 5374 5373 
4204 4205 5310 5309 4269 4270 5375 5374 
4205 4206 5311 5310 4270 4271 5376 5375 
4206 4207 5312 5311 4271 4272 5377 5376 
4207 4208 5313 5312 4272 4273 5378 5377 
4208 4209 5314 5313 4273 4274 5379 5378 
4209 4210 5315 5314 4274 4275 5380 5379 
4210 4211 5316 5315 4275 4276 5381 5380 
4211 4212 5317 5316 4276 4277 5382 5381 
4212 4213 5318 5317 4277 4278 5383 5382 
4213 4214 5319 5318 4278 4279 5384 5383 
4214 4215 5320 5319 4279 4280 5385 5384 
4215 4216 5321 5320 4280 4281 5386 5385 
4216 4217 5322 5321 4281 4282 5387 5386 
4217 4218 5323 5322 4282 4283 5388 5387 
4218 4219 5324 5323 4283 4284 5389 5388 
4219 4220 5325 5324 4284 4285 5390 5389 
4220 4221 5326 5325 4285 4286 5391 5390 
4221 4222 5327 5326 4286 4287 5392 5391 
4222 4223 5328 5327 4287 4288 5393 5392 
4223 4224 5329 5328 4288 4289 5394 5393 
4225 4226 5331 5330 4290 4291 5396 5395 
4226 4227 5332 5331 4291 4292 5397 5396 
4227 4228 5333 5332 4292 4293 5398 5397 
4228 4229 5334 5333 4293 4294 5399 5398 
4229 4230 5335 5334 4294 4295 5400 5399 
4230 4231 5336 5335 4295 4296 5401 5400 
4231 4232 5337 5336 4296 4297 5402 5401 
4232 4233 5338 5337 4297 4298 5403 5402 
4233 4234 5339 5338 4298 4299 5404 5403 
4234 4235 5340 5339 4299 4300 5405 5404 
4235 4236 5341 5340 4300 4301 5406 5405 
4236 4237 5342 5341 4301 4302 5407 5406 
4237 4238 5343 5342 4302 4303 5408 5407 
4238 4239 5344 5343 4303 4304 5409 5408 
4239 4240 5345 5344 4304 4305 5410 5409 
4240 4241 5346 5345 4305 4306 5411 5410 
4241 4242 5347 5346 4306 4307 5412 5411 
4242 4243 5348 5347 4307 4308 5413 5412 
4243 4244 5349 5348 4308 4309 5414 5413 
4244 4245 5350 5349 4309 4310 5415 5414 
4245 4246 5351 5350 4310 4311 5416 5415 
4246 4247 5352 5351 4311 4312 5417 5416 
4247 4248 5353 5352 4312 4313 5418 5417 
4248 4249 5354 5353 4313 4314 5419 5418 
4249 4250 5355 5354 4314 4315 5420 5419 
4250 4251 5356 5355 4315 4316 5421 5420 
4251 4252 5357 5356 4316 4317 5422 5421 
4252 4253 5358 5357 4317 4318 5423 5422 
4253 4254 5359 5358 4318 4319 5424 5423 
4254 4255 5360 5359 4319 4320 5425 5424 
4255 4256 5361 5360 4320 4321 5426 5425 
4256 4257 5362 5361 4321 4322 5427 5426 
4257 4258 5363 5362 4322 4323 5428 5427 
4258 4259 5364 5363 4323 4324 5429 5428 
4259 4260 5365 5364 4324 4325 5430 5429 
4260 4261 5366 5365 4325 4326 5431 5430 
4261 4262 5367 5366 4326 4327 5432 5431 
4262 4263 5368 5367 4327 4328 5433 5432 
4263 4264 5369 5368 4328 4329 5434 5433 
4264 4265 5370 5369 4329 4330 5435 5434 
4265 4266 5371 5370 4330 4331 5436 5435 
4266 4267 5372 5371 4331 4332 5437 5436 
4267 4268 5373 5372 4332 4333 5438 5437 
4268 4269 5374 5373 4333 4334 5439 5438 
4269 4270 5375 5374 4334 4335 5440 5439 
4270 4271 5376 5375 4335 4336 5441 5440 
4271 4272 5377 5376 4336 4337 5442 5441 
4272 4273 5378 5377 4337 4338 5443 5442 
4273 4274 5379 5378 4338 4339 5444 5443 
4274 4275 5380 5379 4339 4340 5445 5444 
4275 4276 5381 5380 4340 4341 5446 5445 
4276 4277 5382 5381 4341 4342 5447 5446 
4277 4278 5383 5382 4342 4343 5448 5447 
4278 4279 5384 5383 4343 4344 5449 5448 
4279 4280 5385 5384 4344 4345 5450 5449 
4280 4281 5386 5385 4345 4346 5451 5450 
4281 4282 5387 5386 4346 4347 5452 5451 
4282 4283 5388 5387 4347 4348 5453 5452 
4283 4284 5389 5388 4348 4349 5454 5453 
4284 4285 5390 5389 4349 4350 5455 5454 
4285 4286 5391 5390 4350 4351 5456 5455 
4286 4287 5392 5391 4351 4352 5457 5456 
4287 4288 5393 5392 4352 4353 5458 5457 
4288 4289 5394 5393 4353 4354 5459 5458 
4290 4291 5396 5395 4355 4356 5461 5460 
4291 4292 5397 5396 4356 4357 5462 5461 
4292 4293 5398 5397 4357 4358 5463 5462 
4293 4294 5399 5398 4358 4359 5464 5463 
4294 4295 5400 5399 4359 4360 5465 5464 
4295 4296 5401 5400 4360 4361 5466 5465 
4296 4297 5402 5401 4361 4362 5467 5466 
4297 4298 5403 5402 4362 4363 5468 5467 
4298 4299 5404 5403 4363 4364 5469 5468 
4299 4300 5405 5404 4364 4365 5470 5469 
4300 4301 5406 5405 4365 4366 5471 5470 
4301 4302 5407 5406 4366 4367 5472 5471 
4302 4303 5408 5407 4367 4368 5473 5472 
4303 4304 5409 5408 4368 4369 5474 5473 
4304 4305 5410 5409 4369 4370 5475 5474 
4305 4306 5411 5410 4370 4371 5476 5475 
4306 4307 5412 5411 4371 4372 5477 5476 
4307 4308 5413 5412 4372 4373 5478 5477 
4308 4309 5414 5413 4373 4374 5479 5478 
4309 4310 5415 5414 4374 4375 5480 5479 
4310 4311 5416 5415 4375 4376 5481 5480 
4311 4312 5417 5416 4376 4377 5482 5481 
4312 4313 5418 5417 4377 4378 5483 5482 
4313 4314 5419 5418 4378 4379 5484 5483 
4314 4315 5420 5419 4379 4380 5485 5484 
4315 4316 5421 5420 4380 4381 5486 5485 
4316 4317 5422 5421 4381 4382 5487 5486 
4317 4318 5423 5422 4382 4383 5488 5487 
4318 4319 5424 5423 4383 4384 5489 5488 
4319 4320 5425 5424 4384 4385 5490 5489 
4320 4321 5426 5425 4385 4386 5491 5490 
4321 4322 5427 5426 4386 4387 5492 5491 
4322 4323 5428 5427 4387 4388 5493 5492 
4323 4324 5429 5428 4388 4389 5494 5493 
4324 4325 5430 5429 4389 4390 5495 5494 
4325 4326 5431 5430 4390 4391 5496 5495 
4326 4327 5432 5431 4391 4392 5497 5496 
4327 4328 5433 5432 4392 4393 5498 5497 
4328 4329 5434 5433 4393 4394 5499 5498 
4329 4330 5435 5434 4394 4395 5500 5499 
4330 4331 5436 5435 4395 4396 5501 5500 
4331 4332 5437 5436 4396 4397 5502 5501 
4332 4333 5438 5437 4397 4398 5503 5502 
4333 4334 5439 5438 4398 4399 5504 5503 
4334 4335 5440 5439 4399 4400 5505 5504 
4335 4336 5441 5440 4400 4401 5506 5505 
4336 4337 5442 5441 4401 4402 5507 5506 
4337 4338 5443 5442 4402 4403 5508 5507 
4338 4339 5444 5443 4403 4404 5509 5508 
4339 4340 5445 5444 4404 4405 5510 5509 
4340 4341 5446 5445 4405 4406 5511 5510 
4341 4342 5447 5446 4406 4407 5512 5511 
4342 4343 5448 5447 4407 4408 5513 5512 
4343 4344 5449 5448 4408 4409 5514 5513 
4344 4345 5450 5449 4409 4410 5515 5514 
4345 4346 5451 5450 4410 4411 5516 5515 
4346 4347 5452 5451 4411 4412 5517 5516 
4347 4348 5453 5452 4412 4413 5518 5517 
4348 4349 5454 5453 4413 4414 5519 5518 
4349 4350 5455 5454 4414 4415 5520 5519 
4350 4351 5456 5455 4415 4416 5521 5520 
4351 4352 5457 5456 4416 4417 5522 5521 
4352 4353 5458 5457 4417 4418 5523 5522 
4353 4354 5459 5458 4418 4419 5524 5523 
4420 4421 5526 5525 4485 4486 5591 5590 
4421 4422 5527 5526 4486 4487 5592 5591 
4422 4423 5528 5527 4487 4488 5593 5592 
4423 4424 5529 5528 4488 4489 5594 5593 
4424 4425 5530 5529 4489 4490 5595 5594 
4425 4426 5531 5530 4490 4491 5596 5595 
4426 4427 5532 5531 4491 4492 5597 5596 
4427 4428 5533 5532 4492 4493 5598 5597 
4428 4429 5534 5533 4493 4494 5599 5598 
4429 4430 5535 5534 4494 4495 5600 5599 
4430 4431 5536 5535 4495 4496 5601 5600 
4431 4432 5537 5536 4496 4497 5602 5601 
4432 4433 5538 5537 4497 4498 5603 5602 
4433 4434 5539 5538 4498 4499 5604 5603 
4434 4435 5540 5539 4499 4500 5605 5604 
4435 4436 5541 5540 4500 4501 5606 5605 
4436 4437 5542 5541 4501 4502 5607 5606 
4437 4438 5543 5542 4502 4503 5608 5607 
4438 4439 5544 5543 4503 4504 5609 5608 
4439 4440 5545 5544 4504 4505 5610 5609 
4440 4441 5546 5545 4505 4506 5611 5610 
4441 4442 5547 5546 4506 4507 5612 5611 
4442 4443 5548 5547 4507 4508 5613 5612 
4443 4444 5549 5548 4508 4509 5614 5613 
4444 4445 5550 5549 4509 4510 5615 5614 
4445 4446 5551 5550 4510 4511 5616 5615 
4446 4447 5552 5551 4511 4512 5617 5616 
4447 4448 5553 5552 4512 4513 5618 5617 
4448 4449 5554 5553 4513 4514 5619 5618 
4449 4450 5555 5554 4514 4515 5620 5619 
4450 4451 5556 5555 4515 4516 5621 5620 
4451 4452 5557 5556 4516 4517 5622 5621 
4452 4453 5558 5557 4517 4518 5623 5622 
4453 4454 5559 5558 4518 4519 5624 5623 
4454 4455 5560 5559 4519 4520 5625 5624 
4455 4456 5561 5560 4520 4521 5626 5625 
4456 4457 5562 5561 4521 4522 5627 5626 
4457 4458 5563 5562 4522 4523 5628 5627 
4458 4459 5564 5563 4523 4524 5629 5628 
4459 4460 5565 5564 4524 4525 5630 5629 
4460 4461 5566 5565 4525 4526 5631 5630 
4461 4462 5567 5566 4526 4527 5632 5631 
4462 4463 5568 5567 4527 4528 5633 5632 
4463 4464 5569 5568 4528 4529 5634 5633 
4464 4465 5570 5569 4529 4530 5635 5634 
4465 4466 5571 5570 4530 4531 5636 5635 
4466 4467 5572 5571 4531 4532 5637 5636 
4467 4468 5573 5572 4532 4533 5638 5637 
4468 4469 5574 5573 4533 4534 5639 5638 
4469 4470 5575 5574 4534 4535 5640 5639 
4470 4471 5576 5575 4535 4536 5641 5640 
4471 4472 5577 5576 4536 4537 5642 5641 
4472 4473 5578 5577 4537 4538 5643 5642 
4473 4474 5579 5578 4538 4539 5644 5643 
4474 4475 5580 5579 4539 4540 5645 5644 
4475 4476 5581 5580 4540 4541 5646 5645 
4476 4477 5582 5581 4541 4542 5647 5646 
4477 4478 5583 5582 4542 4543 5648 5647 
4478 4479 5584 5583 4543 4544 5649 5648 
4479 4480 5585 5584 4544 4545 5650 5649 
4480 4481 5586 5585 4545 4546 5651 5650 
4481 4482 5587 5586 4546 4547 5652 5651 
4482 4483 5588 5587 4547 4548 5653 5652 
4483 4484 5589 5588 4548 4549 5654 5653 
4485 4486 5591 5590 4550 4551 5656 5655 
4486 4487 5592 5591 4551 4552 5657 5656 
4487 4488 5593 5592 4552 4553 5658 5657 
4488 4489 5594 5593 4553 4554 5659 5658 
4489 4490 5595 5594 4554 4555 5660 5659 
4490 4491 5596 5595 4555 4556 5661 5660 
4491 4492 5597 5596 4556 4557 5662 5661 
4492 4493 5598 5597 4557 4558 5663 5662 
4493 4494 5599 5598 4558 4559 5664 5663 
4494 4495 5600 5599 4559 4560 5665 5664 
4495 4496 5601 5600 4560 4561 5666 5665 
4496 4497 5602 5601 4561 4562 5667 5666 
4497 4498 5603 5602 4562 4563 5668 5667 
4498 4499 5604 5603 4563 4564 5669 5668 
4499 4500 5605 5604 4564 4565 5670 5669 
4500 4501 5606 5605 4565 4566 5671 5670 
4501 4502 5607 5606 4566 4567 5672 5671 
4502 4503 5608 5607 4567 4568 5673 5672 
4503 4504 5609 5608 4568 4569 5674 5673 
4504 4505 5610 5609 4569 4570 5675 5674 
4505 4506 5611 5610 4570 4571 5676 5675 
4506 4507 5612 5611 4571 4572 5677 5676 
4507 4508 5613 5612 4572 4573 5678 5677 
4508 4509 5614 5613 4573 4574 5679 5678 
4509 4510 5615 5614 4574 4575 5680 5679 
4510 4511 5616 5615 4575 4576 5681 5680 
4511 4512 5617 5616 4576 4577 5682 5681 
4512 4513 5618 5617 4577 4578 5683 5682 
4513 4514 5619 5618 4578 4579 5684 5683 
4514 4515 5620 5619 4579 4580 5685 5684 
4515 4516 5621 5620 4580 4581 5686 5685 
4516 4517 5622 5621 4581 4582 5687 5686 
4517 4518 5623 5622 4582 4583 5688 5687 
4518 4519 5624 5623 4583 4584 5689 5688 
4519 4520 5625 5624 4584 4585 5690 5689 
4520 4521 5626 5625 4585 4586 5691 5690 
4521 4522 5627 5626 4586 4587 5692 5691 
4522 4523 5628 5627 4587 4588 5693 5692 
4523 4524 5629 5628 4588 4589 5694 5693 
4524 4525 5630 5629 4589 4590 5695 5694 
4525 4526 5631 5630 4590 4591 5696 5695 
4526 4527 5632 5631 4591 4592 5697 5696 
4527 4528 5633 5632 4592 4593 5698 5697 
4528 4529 5634 5633 4593 4594 5699 5698 
4529 4530 5635 5634 4594 4595 5700 5699 
4530 4531 5636 5635 4595 4596 5701 5700 
4531 4532 5637 5636 4596 4597 5702 5701 
4532 4533 5638 5637 4597 4598 5703 5702 
4533 4534 5639 5638 4598 4599 5704 5703 
4534 4535 5640 5639 4599 4600 5705 5704 
4535 4536 5641 5640 4600 4601 5706 5705 
4536 4537 5642 5641 4601 4602 5707 5706 
4537 4538 5643 5642 4602 4603 5708 5707 
4538 4539 5644 5643 4603 4604 5709 5708 
4539 4540 5645 5644 4604 4605 5710 5709 
4540 4541 5646 5645 4605 4606 5711 5710 
4541 4542 5647 5646 4606 4607 5712 5711 
4542 4543 5648 5647 4607 4608 5713 5712 
4543 4544 5649 5648 4608 4609 5714 5713 
4544 4545 5650 5649 4609 4610 5715 5714 
4545 4546 5651 5650 4610 4611 5716 5715 
4546 4547 5652 5651 4611 4612 5717 5716 
4547 4548 5653 5652 4612 4613 5718 5717 
4548 4549 5654 5653 4613 4614 5719 5718 
4550 4551 5656 5655 4615 4616 5721 5720 
4551 4552 5657 5656 4616 4617 5722 5721 
4552 4553 5658 5657 4617 4618 5723 5722 
4553 4554 5659 5658 4618 4619 5724 5723 
4554 4555 5660 5659 4619 4620 5725 5724 
4555 4556 5661 5660 4620 4621 5726 5725 
4556 4557 5662 5661 4621 4622 5727 5726 
4557 4558 5663 5662 4622 4623 5728 5727 
4558 4559 5664 5663 4623 4624 5729 5728 
4559 4560 5665 5664 4624 4625 5730 5729 
4560 4561 5666 5665 4625 4626 5731 5730 
4561 4562 5667 5666 4626 4627 5732 5731 
4562 4563 5668 5667 4627 4628 5733 5732 
4563 4564 5669 5668 4628 4629 5734 5733 
4564 4565 5670 5669 4629 4630 5735 5734 
4565 4566 5671 5670 4630 4631 5736 5735 
4566 4567 5672 5671 4631 4632 5737 5736 
4567 4568 5673 5672 4632 4633 5738 5737 
4568 4569 5674 5673 4633 4634 5739 5738 
4569 4570 5675 5674 4634 4635 5740 5739 
4570 4571 5676 5675 4635 4636 5741 5740 
4571 4572 5677 5676 4636 4637 5742 5741 
4572 4573 5678 5677 4637 4638 5743 5742 
4573 4574 5679 5678 4638 4639 5744 5743 
4574 4575 5680 5679 4639 4640 5745 5744 
4575 4576 5681 5680 4640 4641 5746 5745 
4576 4577 5682 5681 4641 4642 5747 5746 
4577 4578 5683 5682 4642 4643 5748 5747 
4578 4579 5684 5683 4643 4644 5749 5748 
4579 4580 5685 5684 4644 4645 5750 5749 
4580 4581 5686 5685 4645 4646 5751 5750 
4581 4582 5687 5686 4646 4647 5752 5751 
4582 4583 5688 5687 4647 4648 5753 5752 
4583 4584 5689 5688 4648 4649 5754 5753 
4584 4585 5690 5689 4649 4650 5755 5754 
4585 4586 5691 5690 4650 4651 5756 5755 
4586 4587 5692 5691 4651 4652 5757 5756 
4587 4588 5693 5692 4652 4653 5758 5757 
4588 4589 5694 5693 4653 4654 5759 5758 
4589 4590 5695 5694 4654 4655 5760 5759 
4590 4591 5696 5695 4655 4656 5761 5760 
4591 4592 5697 5696 4656 4657 5762 5761 
4592 4593 5698 5697 4657 4658 5763 5762 
4593 4594 5699 5698 4658 4659 5764 5763 
4594 4595 5700 5699 4659 4660 5765 5764 
4595 4596 5701 5700 4660 4661 5766 5765 
4596 4597 5702 5701 4661 4662 5767 5766 
4597 4598 5703 5702 4662 4663 5768 5767 
4598 4599 5704 5703 4663 4664 5769 5768 
4599 4600 5705 5704 4664 4665 5770 5769 
4600 4601 5706 5705 4665 4666 5771 5770 
4601 4602 5707 5706 4666 4667 5772 5771 
4602 4603 5708 5707 4667 4668 5773 5772 
4603 4604 5709 5708 4668 4669 5774 5773 
4604 4605 5710 5709 4669 4670 5775 5774 
4605 4606 5711 5710 4670 4671 5776 5775 
4606 4607 5712 5711 4671 4672 5777 5776 
4607 4608 5713 5712 4672 4673 5778 5777 
4608 4609 5714 5713 4673 4674 5779 5778 
4609 4610 5715 5714 4674 4675 5780 5779 
4610 4611 5716 5715 4675 4676 5781 5780 
4611 4612 5717 5716 4676 4677 5782 5781 
4612 4613 5718 5717 4677 4678 5783 5782 
4613 4614 5719 5718 4678 4679 5784 5783 
4615 4616 5721 5720 4680 4681 5786 5785 
4616 4617 5722 5721 4681 4682 5787 5786 
4617 4618 5723 5722 4682 4683 5788 5787 
4618 4619 5724 5723 4683 4684 5789 5788 
4619 4620 5725 5724 4684 4685 5790 5789 
4620 4621 5726 5725 4685 4686 5791 5790 
4621 4622 5727 5726 4686 4687 5792 5791 
4622 4623 5728 5727 4687 4688 5793 5792 
4623 4624 5729 5728 4688 4689 5794 5793 
4624 4625 5730 5729 4689 4690 5795 5794 
4625 4626 5731 5730 4690 4691 5796 5795 
4626 4627 5732 5731 4691 4692 5797 5796 
4627 4628 5733 5732 4692 4693 5798 5797 
4628 4629 5734 5733 4693 4694 5799 5798 
4629 4630 5735 5734 4694 4695 5800 5799 
4630 4631 5736 5735 4695 4696 5801 5800 
4631 4632 5737 5736 4696 4697 5802 5801 
4632 4633 5738 5737 4697 4698 5803 5802 
4633 4634 5739 5738 4698 4699 5804 5803 
4634 4635 5740 5739 4699 4700 5805 5804 
4635 4636 5741 5740 4700 4701 5806 5805 
4636 4637 5742 5741 4701 4702 5807 5806 
4637 4638 5743 5742 4702 4703 5808 5807 
4638 4639 5744 5743 4703 4704 5809 5808 
4639 4640 5745 5744 4704 4705 5810 5809 
4640 4641 5746 5745 4705 4706 5811 5810 
4641 4642 5747 5746 4706 4707 5812 5811 
4642 4643 5748 5747 4707 4708 5813 5812 
4643 4644 5749 5748 4708 4709 5814 5813 
4644 4645 5750 5749 4709 4710 5815 5814 
4645 4646 5751 5750 4710 4711 5816 5815 
4646 4647 5752 5751 4711 4712 5817 5816 
4647 4648 5753 5752 4712 4713 5818 5817 
4648 4649 5754 5753 4713 4714 5819 5818 
4649 4650 5755 5754 4714 4715 5820 5819 
4650 4651 5756 5755 4715 4716 5821 5820 
4651 4652 5757 5756 4716 4717 5822 5821 
4652 4653 5758 5757 4717 4718 5823 5822 
4653 4654 5759 5758 4718 4719 5824 5823 
4654 4655 5760 5759 4719 4720 5825 5824 
4655 4656 5761 5760 4720 4721 5826 5825 
4656 4657 5762 5761 4721 4722 5827 5826 
4657 4658 5763 5762 4722 4723 5828 5827 
4658 4659 5764 5763 4723 4724 5829 5828 
4659 4660 5765 5764 4724 4725 5830 5829 
4660 4661 5766 5765 4725 4726 5831 5830 
4661 4662 5767 5766 4726 4727 5832 5831 
4662 4663 5768 5767 4727 4728 5833 5832 
4663 4664 5769 5768 4728 4729 5834 5833 
4664 4665 5770 5769 4729 4730 5835 5834 
4665 4666 5771 5770 4730 4731 5836 5835 
4666 4667 5772 5771 4731 4732 5837 5836 
4667 4668 5773 5772 4732 4733 5838 5837 
4668 4669 5774 5773 4733 4734 5839 5838 
4669 4670 5775 5774 4734 4735 5840 5839 
4670 4671 5776 5775 4735 4736 5841 5840 
4671 4672 5777 5776 4736 4737 5842 5841 
4672 4673 5778 5777 4737 4738 5843 5842 
4673 4674 5779 5778 4738 4739 5844 5843 
4674 4675 5780 5779 4739 4740 5845 5844 
4675 4676 5781 5780 4740 4741 5846 5845 
4676 4677 5782 5781 4741 4742 5847 5846 
4677 4678 5783 5782 4742 4743 5848 5847 
4678 4679 5784 5783 4743 4744 5849 5848 
4680 4681 5786 5785 4745 4746 5851 5850 
4681 4682 5787 5786 4746 4747 5852 5851 
4682 4683 5788 5787 4747 4748 5853 5852 
4683 4684 5789 5788 4748 4749 5854 5853 
4684 4685 5790 5789 4749 4750 5855 5854 
4685 4686 5791 5790 4750 4751 5856 5855 
4686 4687 5792 5791 4751 4752 5857 5856 
4687 4688 5793 5792 4752 4753 5858 5857 
4688 4689 5794 5793 4753 4754 5859 5858 
4689 4690 5795 5794 4754 4755 5860 5859 
4690 4691 5796 5795 4755 4756 5861 5860 
4691 4692 5797 5796 4756 4757 5862 5861 
4692 4693 5798 5797 4757 4758 5863 5862 
4693 4694 5799 5798 4758 4759 5864 5863 
4694 4695 5800 5799 4759 4760 5865 5864 
4695 4696 5801 5800 4760 4761 5866 5865 
4696 4697 5802 5801 4761 4762 5867 5866 
4697 4698 5803 5802 4762 4763 5868 5867 
4698 4699 5804 5803 4763 4764 5869 5868 
4699 4700 5805 5804 4764 4765 5870 5869 
4700 4701 5806 5805 4765 4766 5871 5870 
4701 4702 5807 5806 4766 4767 5872 5871 
4702 4703 5808 5807 4767 4768 5873 5872 
4703 4704 5809 5808 4768 4769 5874 5873 
4704 4705 5810 5809 4769 4770 5875 5874 
4705 4706 5811 5810 4770 4771 5876 5875 
4706 4707 5812 5811 4771 4772 5877 5876 
4707 4708 5813 5812 4772 4773 5878 5877 
4708 4709 5814 5813 4773 4774 5879 5878 
4709 4710 5815 5814 4774 4775 5880 5879 
4710 4711 5816 5815 4775 4776 5881 5880 
4711 4712 5817 5816 4776 4777 5882 5881 
4712 4713 5818 5817 4777 4778 5883 5882 
4713 4714 5819 5818 4778 4779 5884 5883 
4714 4715 5820 5819 4779 4780 5885 5884 
4715 4716 5821 5820 4780 4781 5886 5885 
4716 4717 5822 5821 4781 4782 5887 5886 
4717 4718 5823 5822 4782 4783 5888 5887 
4718 4719 5824 5823 4783 4784 5889 5888 
4719 4720 5825 5824 4784 4785 5890 5889 
4720 4721 5826 5825 4785 4786 5891 5890 
4721 4722 5827 5826 4786 4787 5892 5891 
4722 4723 5828 5827 4787 4788 5893 5892 
4723 4724 5829 5828 4788 4789 5894 5893 
4724 4725 5830 5829 4789 4790 5895 5894 
4725 4726 5831 5830 4790 4791 5896 5895 
4726 4727 5832 5831 4791 4792 5897 5896 
4727 4728 5833 5832 4792 4793 5898 5897 
4728 4729 5834 5833 4793 4794 5899 5898 
4729 4730 5835 5834 4794 4795 5900 5899 
4730 4731 5836 5835 4795 4796 5901 5900 
4731 4732 5837 5836 4796 4797 5902 5901 
4732 4733 5838 5837 4797 4798 5903 5902 
4733 4734 5839 5838 4798 4799 5904 5903 
4734 4735 5840 5839 4799 4800 5905 5904 
4735 4736 5841 5840 4800 4801 5906 5905 
4736 4737 5842 5841 4801 4802 5907 5906 
4737 4738 5843 5842 4802 4803 5908 5907 
4738 4739 5844 5843 4803 4804 5909 5908 
4739 4740 5845 5844 4804 4805 5910 5909 
4740 4741 5846 5845 4805 4806 5911 5910 
4741 4742 5847 5846 4806 4807 5912 5911 
4742 4743 5848 5847 4807 4808 5913 5912 
4743 4744 5849 5848 4808 4809 5914 5913 
4745 4746 5851 5850 4810 4811 5916 5915 
4746 4747 5852 5851 4811 4812 5917 5916 
4747 4748 5853 5852 4812 4813 5918 5917 
4748 4749 5854 5853 4813 4814 5919 5918 
4749 4750 5855 5854 4814 4815 5920 5919 
4750 4751 5856 5855 4815 4816 5921 5920 
4751 4752 5857 5856 4816 4817 5922 5921 
4752 4753 5858 5857 4817 4818 5923 5922 
4753 4754 5859 5858 4818 4819 5924 5923 
4754 4755 5860 5859 4819 4820 5925 5924 
4755 4756 5861 5860 4820 4821 5926 5925 
4756 4757 5862 5861 4821 4822 5927 5926 
4757 4758 5863 5862 4822 4823 5928 5927 
4758 4759 5864 5863 4823 4824 5929 5928 
4759 4760 5865 5864 4824 4825 5930 5929 
4760 4761 5866 5865 4825 4826 5931 5930 
4761 4762 5867 5866 4826 4827 5932 5931 
4762 4763 5868 5867 4827 4828 5933 5932 
4763 4764 5869 5868 4828 4829 5934 5933 
4764 4765 5870 5869 4829 4830 5935 5934 
4765 4766 5871 5870 4830 4831 5936 5935 
4766 4767 5872 5871 4831 4832 5937 5936 
4767 4768 5873 5872 4832 4833 5938 5937 
4768 4769 5874 5873 4833 4834 5939 5938 
4769 4770 5875 5874 4834 4835 5940 5939 
4770 4771 5876 5875 4835 4836 5941 5940 
4771 4772 5877 5876 4836 4837 5942 5941 
4772 4773 5878 5877 4837 4838 5943 5942 
4773 4774 5879 5878 4838 4839 5944 5943 
4774 4775 5880 5879 4839 4840 5945 5944 
4775 4776 5881 5880 4840 4841 5946 5945 
4776 4777 5882 5881 4841 4842 5947 5946 
4777 4778 5883 5882 4842 4843 5948 5947 
4778 4779 5884 5883 4843 4844 5949 5948 
4779 4780 5885 5884 4844 4845 5950 5949 
4780 4781 5886 5885 4845 4846 5951 5950 
4781 4782 5887 5886 4846 4847 5952 5951 
4782 4783 5888 5887 4847 4848 5953 5952 
4783 4784 5889 5888 4848 4849 5954 5953 
4784 4785 5890 5889 4849 4850 5955 5954 
4785 4786 5891 5890 4850 4851 5956 5955 
4786 4787 5892 5891 4851 4852 5957 5956 
4787 4788 5893 5892 4852 4853 5958 5957 
4788 4789 5894 5893 4853 4854 5959 5958 
4789 4790 5895 5894 4854 4855 5960 5959 
4790 4791 5896 5895 4855 4856 5961 5960 
4791 4792 5897 5896 4856 4857 5962 5961 
4792 4793 5898 5897 4857 4858 5963 5962 
4793 4794 5899 5898 4858 4859 5964 5963 
4794 4795 5900 5899 4859 4860 5965 5964 
4795 4796 5901 5900 4860 4861 5966 5965 
4796 4797 5902 5901 4861 4862 5967 5966 
4797 4798 5903 5902 4862 4863 5968 5967 
4798 4799 5904 5903 4863 4864 5969 5968 
4799 4800 5905 5904 4864 4865 5970 5969 
4800 4801 5906 5905 4865 4866 5971 5970 
4801 4802 5907 5906 4866 4867 5972 5971 
4802 4803 5908 5907 4867 4868 5973 5972 
4803 4804 5909 5908 4868 4869 5974 5973 
4804 4805 5910 5909 4869 4870 5975 5974 
4805 4806 5911 5910 4870 4871 5976 5975 
4806 4807 5912 5911 4871 4872 5977 5976 
4807 4808 5913 5912 4872 4873 5978 5977 
4808 4809 5914 5913 4873 4874 5979 5978 
4810 4811 5916 5915 4875 4876 5981 5980 
4811 4812 5917 5916 4876 4877 5982 5981 
4812 4813 5918 5917 4877 4878 5983 5982 
4813 4814 5919 5918 4878 4879 5984 5983 
4814 4815 5920 5919 4879 4880 5985 5984 
4815 4816 5921 5920 4880 4881 5986 5985 
4816 4817 5922 5921 4881 4882 5987 5986 
4817 4818 5923 5922 4882 4883 5988 5987 
4818 4819 5924 5923 4883 4884 5989 5988 
4819 4820 5925 5924 4884 4885 5990 5989 
4820 4821 5926 5925 4885 4886 5991 5990 
4821 4822 5927 5926 4886 4887 5992 5991 
4822 4823 5928 5927 4887 4888 5993 5992 
4823 4824 5929 5928 4888 4889 5994 5993 
4824 4825 5930 5929 4889 4890 5995 5994 
4825 4826 5931 5930 4890 4891 5996 5995 
4826 4827 5932 5931 4891 4892 5997 5996 
4827 4828 5933 5932 4892 4893 5998 5997 
4828 4829 5934 5933 4893 4894 5999 5998 
4829 4830 5935 5934 4894 4895 6000 5999 
4830 4831 5936 5935 4895 4896 6001 6000 
4831 4832 5937 5936 4896 4897 6002 6001 
4832 4833 5938 5937 4897 4898 6003 6002 
4833 4834 5939 5938 4898 4899 6004 6003 
4834 4835 5940 5939 4899 4900 6005 6004 
4835 4836 5941 5940 4900 4901 6006 6005 
4836 4837 5942 5941 4901 4902 6007 6006 
4837 4838 5943 5942 4902 4903 6008 6007 
4838 4839 5944 5943 4903 4904 6009 6008 
4839 4840 5945 5944 4904 4905 6010 6009 
4840 4841 5946 5945 4905 4906 6011 6010 
4841 4842 5947 5946 4906 4907 6012 6011 
4842 4843 5948 5947 4907 4908 6013 6012 
4843 4844 5949 5948 4908 4909 6014 6013 
4844 4845 5950 5949 4909 4910 6015 6014 
4845 4846 5951 5950 4910 4911 6016 6015 
4846 4847 5952 5951 4911 4912 6017 6016 
4847 4848 5953 5952 4912 4913 6018 6017 
4848 4849 5954 5953 4913 4914 6019 6018 
4849 4850 5955 5954 4914 4915 6020 6019 
4850 4851 5956 5955 4915 4916 6021 6020 
4851 4852 5957 5956 4916 4917 6022 6021 
4852 4853 5958 5957 4917 4918 6023 6022 
4853 4854 5959 5958 4918 4919 6024 6023 
4854 4855 5960 5959 4919 4920 6025 6024 
4855 4856 5961 5960 4920 4921 6026 6025 
4856 4857 5962 5961 4921 4922 6027 6026 
4857 4858 5963 5962 4922 4923 6028 6027 
4858 4859 5964 5963 4923 4924 6029 6028 
4859 4860 5965 5964 4924 4925 6030 6029 
4860 4861 5966 5965 4925 4926 6031 6030 
4861 4862 5967 5966 4926 4927 6032 6031 
4862 4863 5968 5967 4927 4928 6033 6032 
4863 4864 5969 5968 4928 4929 6034 6033 
4864 4865 5970 5969 4929 4930 6035 6034 
4865 4866 5971 5970 4930 4931 6036 6035 
4866 4867 5972 5971 4931 4932 6037 6036 
4867 4868 5973 5972 4932 4933 6038 6037 
4868 4869 5974 5973 4933 4934 6039 6038 
4869 4870 5975 5974 4934 4935 6040 6039 
4870 4871 5976 5975 4935 4936 6041 6040 
4871 4872 5977 5976 4936 4937 6042 6041 
4872 4873 5978 5977 4937 4938 6043 6042 
4873 4874 5979 5978 4938 4939 6044 6043 
4875 4876 5981 5980 4940 4941 6046 6045 
4876 4877 5982 5981 4941 4942 6047 6046 
4877 4878 5983 5982 4942 4943 6048 6047 
4878 4879 5984 5983 4943 4944 6049 6048 
4879 4880 5985 5984 4944 4945 6050 6049 
4880 4881 5986 5985 4945 4946 6051 6050 
4881 4882 5987 5986 4946 4947 6052 6051 
4882 4883 5988 5987 4947 4948 6053 6052 
4883 4884 5989 5988 4948 4949 6054 6053 
4884 4885 5990 5989 4949 4950 6055 6054 
4885 4886 5991 5990 4950 4951 6056 6055 
4886 4887 5992 5991 4951 4952 6057 6056 
4887 4888 5993 5992 4952 4953 6058 6057 
4888 4889 5994 5993 4953 4954 6059 6058 
4889 4890 5995 5994 4954 4955 6060 6059 
4890 4891 5996 5995 4955 4956 6061 6060 
4891 4892 5997 5996 4956 4957 6062 6061 
4892 4893 5998 5997 4957 4958 6063 6062 
4893 4894 5999 5998 4958 4959 6064 6063 
4894 4895 6000 5999 4959 4960 6065 6064 
4895 4896 6001 6000 4960 4961 6066 6065 
4896 4897 6002 6001 4961 4962 6067 6066 
4897 4898 6003 6002 4962 4963 6068 6067 
4898 4899 6004 6003 4963 4964 6069 6068 
4899 4900 6005 6004 4964 4965 6070 6069 
4900 4901 6006 6005 4965 4966 6071 6070 
4901 4902 6007 6006 4966 4967 6072 6071 
4902 4903 6008 6007 4967 4968 6073 6072 
4903 4904 6009 6008 4968 4969 6074 6073 
4904 4905 6010 6009 4969 4970 6075 6074 
4905 4906 6011 6010 4970 4971 6076 6075 
4906 4907 6012 6011 4971 4972 6077 6076 
4907 4908 6013 6012 4972 4973 6078 6077 
4908 4909 6014 6013 4973 4974 6079 6078 
4909 4910 6015 6014 4974 4975 6080 6079 
4910 4911 6016 6015 4975 4976 6081 6080 
4911 4912 6017 6016 4976 4977 6082 6081 
4912 4913 6018 6017 4977 4978 6083 6082 
4913 4914 6019 6018 4978 4979 6084 6083 
4914 4915 6020 6019 4979 4980 6085 6084 
4915 4916 6021 6020 4980 4981 6086 6085 
4916 4917 6022 6021 4981 4982 6087 6086 
4917 4918 6023 6022 4982 4983 6088 6087 
4918 4919 6024 6023 4983 4984 6089 6088 
4919 4920 6025 6024 4984 4985 6090 6089 
4920 4921 6026 6025 4985 4986 6091 6090 
4921 4922 6027 6026 4986 4987 6092 6091 
4922 4923 6028 6027 4987 4988 6093 6092 
4923 4924 6029 6028 4988 4989 6094 6093 
4924 4925 6030 6029 4989 4990 6095 6094 
4925 4926 6031 6030 4990 4991 6096 6095 
4926 4927 6032 6031 4991 4992 6097 6096 
4927 4928 6033 6032 4992 4993 6098 6097 
4928 4929 6034 6033 4993 4994 6099 6098 
4929 4930 6035 6034 4994 4995 6100 6099 
4930 4931 6036 6035 4995 4996 6101 6100 
4931 4932 6037 6036 4996 4997 6102 6101 
4932 4933 6038 6037 4997 4998 6103 6102 
4933 4934 6039 6038 4998 4999 6104 6103 
4934 4935 6040 6039 4999 5000 6105 6104 
4935 4936 6041 6040 5000 5001 6106 6105 
4936 4937 6042 6041 5001 5002 6107 6106 
4937 4938 6043 6042 5002 5003 6108 6107 
4938 4939 6044 6043 5003 5004 6109 6108 
4940 4941 6046 6045 5005 5006 6111 6110 
4941 4942 6047 6046 5006 5007 6112 6111 
4942 4943 6048 6047 5007 5008 6113 6112 
4943 4944 6049 6048 5008 5009 6114 6113 
4944 4945 6050 6049 5009 5010 6115 6114 
4945 4946 6051 6050 5010 5011 6116 6115 
4946 4947 6052 6051 5011 5012 6117 6116 
4947 4948 6053 6052 5012 5013 6118 6117 
4948 4949 6054 6053 5013 5014 6119 6118 
4949 4950 6055 6054 5014 5015 6120 6119 
4950 4951 6056 6055 5015 5016 6121 6120 
4951 4952 6057 6056 5016 5017 6122 6121 
4952 4953 6058 6057 5017 5018 6123 6122 
4953 4954 6059 6058 5018 5019 6124 6123 
4954 4955 6060 6059 5019 5020 6125 6124 
4955 4956 6061 6060 5020 5021 6126 6125 
4956 4957 6062 6061 5021 5022 6127 6126 
4957 4958 6063 6062 5022 5023 6128 6127 
4958 4959 6064 6063 5023 5024 6129 6128 
4959 4960 6065 6064 5024 5025 6130 6129 
4960 4961 6066 6065 5025 5026 6131 6130 
4961 4962 6067 6066 5026 5027 6132 6131 
4962 4963 6068 6067 5027 5028 6133 6132 
4963 4964 6069 6068 5028 5029 6134 6133 
4964 4965 6070 6069 5029 5030 6135 6134 
4965 4966 6071 6070 5030 5031 6136 6135 
4966 4967 6072 6071 5031 5032 6137 6136 
4967 4968 6073 6072 5032 5033 6138 6137 
4968 4969 6074 6073 5033 5034 6139 6138 
4969 4970 6075 6074 5034 5035 6140 6139 
4970 4971 6076 6075 5035 5036 6141 6140 
4971 4972 6077 6076 5036 5037 6142 6141 
4972 4973 6078 6077 5037 5038 6143 6142 
4973 4974 6079 6078 5038 5039 6144 6143 
4974 4975 6080 6079 5039 5040 6145 6144 
4975 4976 6081 6080 5040 5041 6146 6145 
4976 4977 6082 6081 5041 5042 6147 6146 
4977 4978 6083 6082 5042 5043 6148 6147 
4978 4979 6084 6083 5043 5044 6149 6148 
4979 4980 6085 6084 5044 5045 6150 6149 
4980 4981 6086 6085 5045 5046 6151 6150 
4981 4982 6087 6086 5046 5047 6152 6151 
4982 4983 6088 6087 5047 5048 6153 6152 
4983 4984 6089 6088 5048 5049 6154 6153 
4984 4985 6090 6089 5049 5050 6155 6154 
4985 4986 6091 6090 5050 5051 6156 6155 
4986 4987 6092 6091 5051 5052 6157 6156 
4987 4988 6093 6092 5052 5053 6158 6157 
4988 4989 6094 6093 5053 5054 6159 6158 
4989 4990 6095 6094 5054 5055 6160 6159 
4990 4991 6096 6095 5055 5056 6161 6160 
4991 4992 6097 6096 5056 5057 6162 6161 
4992 4993 6098 6097 5057 5058 6163 6162 
4993 4994 6099 6098 5058 5059 6164 6163 
4994 4995 6100 6099 5059 5060 6165 6164 
4995 4996 6101 6100 5060 5061 6166 6165 
4996 4997 6102 6101 5061 5062 6167 6166 
4997 4998 6103 6102 5062 5063 6168 6167 
4998 4999 6104 6103 5063 5064 6169 6168 
4999 5000 6105 6104 5064 5065 6170 6169 
5000 5001 6106 6105 5065 5066 6171 6170 
5001 5002 6107 6106 5066 5067 6172 6171 
5002 5003 6108 6107 5067 5068 6173 6172 
5003 5004 6109 6108 5068 5069 6174 6173 
5005 5006 6111 6110 5070 5071 6176 6175 
5006 5007 6112 6111 5071 5072 6177 6176 
5007 5008 6113 6112 5072 5073 6178 6177 
5008 5009 6114 6113 5073 5074 6179 6178 
5009 5010 6115 6114 5074 5075 6180 6179 
5010 5011 6116 6115 5075 5076 6181 6180 
5011 5012 6117 6116 5076 5077 6182 6181 
5012 5013 6118 6117 5077 5078 6183 6182 
5013 5014 6119 6118 5078 5079 6184 6183 
5014 5015 6120 6119 5079 5080 6185 6184 
5015 5016 6121 6120 5080 5081 6186 6185 
5016 5017 6122 6121 5081 5082 6187 6186 
5017 5018 6123 6122 5082 5083 6188 6187 
5018 5019 6124 6123 5083 5084 6189 6188 
5019 5020 6125 6124 5084 5085 6190 6189 
5020 5021 6126 6125 5085 5086 6191 6190 
5021 5022 6127 6126 5086 5087 6192 6191 
5022 5023 6128 6127 5087 5088 6193 6192 
5023 5024 6129 6128 5088 5089 6194 6193 
5024 5025 6130 6129 5089 5090 6195 6194 
5025 5026 6131 6130 5090 5091 6196 6195 
5026 5027 6132 6131 5091 5092 6197 6196 
5027 5028 6133 6132 5092 5093 6198 6197 
5028 5029 6134 6133 5093 5094 6199 6198 
5029 5030 6135 6134 5094 5095 6200 6199 
5030 5031 6136 6135 5095 5096 6201 6200 
5031 5032 6137 6136 5096 5097 6202 6201 
5032 5033 6138 6137 5097 5098 6203 6202 
5033 5034 6139 6138 5098 5099 6204 6203 
5034 5035 6140 6139 5099 5100 6205 6204 
5035 5036 6141 6140 5100 5101 6206 6205 
5036 5037 6142 6141 5101 5102 6207 6206 
5037 5038 6143 6142 5102 5103 6208 6207 
5038 5039 6144 6143 5103 5104 6209 6208 
5039 5040 6145 6144 5104 5105 6210 6209 
5040 5041 6146 6145 5105 5106 6211 6210 
5041 5042 6147 6146 5106 5107 6212 6211 
5042 5043 6148 6147 5107 5108 6213 6212 
5043 5044 6149 6148 5108 5109 6214 6213 
5044 5045 6150 6149 5109 5110 6215 6214 
5045 5046 6151 6150 5110 5111 6216 6215 
5046 5047 6152 6151 5111 5112 6217 6216 
5047 5048 6153 6152 5112 5113 6218 6217 
5048 5049 6154 6153 5113 5114 6219 6218 
5049 5050 6155 6154 5114 5115 6220 6219 
5050 5051 6156 6155 5115 5116 6221 6220 
5051 5052 6157 6156 5116 5117 6222 6221 
5052 5053 6158 6157 5117 5118 6223 6222 
5053 5054 6159 6158 5118 5119 6224 6223 
5054 5055 6160 6159 5119 5120 6225 6224 
5055 5056 6161 6160 5120 5121 6226 6225 
5056 5057 6162 6161 5121 5122 6227 6226 
5057 5058 6163 6162 5122 5123 6228 6227 
5058 5059 6164 6163 5123 5124 6229 6228 
5059 5060 6165 6164 5124 5125 6230 6229 
5060 5061 6166 6165 5125 5126 6231 6230 
5061 5062 6167 6166 5126 5127 6232 6231 
5062 5063 6168 6167 5127 5128 6233 6232 
5063 5064 6169 6168 5128 5129 6234 6233 
5064 5065 6170 6169 5129 5130 6235 6234 
5065 5066 6171 6170 5130 5131 6236 6235 
5066 5067 6172 6171 5131 5132 6237 6236 
5067 5068 6173 6172 5132 5133 6238 6237 
5068 5069 6174 6173 5133 5134 6239 6238 
5070 5071 6176 6175 5135 5136 6241 6240 
5071 5072 6177 6176 5136 5137 6242 6241 
5072 5073 6178 6177 5137 5138 6243 6242 
5073 5074 6179 6178 5138 5139 6244 6243 
5074 5075 6180 6179 5139 5140 6245 6244 
5075 5076 6181 6180 5140 5141 6246 6245 
5076 5077 6182 6181 5141 5142 6247 6246 
5077 5078 6183 6182 5142 5143 6248 6247 
5078 5079 6184 6183 5143 5144 6249 6248 
5079 5080 6185 6184 5144 5145 6250 6249 
5080 5081 6186 6185 5145 5146 6251 6250 
5081 5082 6187 6186 5146 5147 6252 6251 
5082 5083 6188 6187 5147 5148 6253 6252 
5083 5084 6189 6188 5148 5149 6254 6253 
5084 5085 6190 6189 5149 5150 6255 6254 
5085 5086 6191 6190 5150 5151 6256 6255 
5086 5087 6192 6191 5151 5152 6257 6256 
5087 5088 6193 6192 5152 5153 6258 6257 
5088 5089 6194 6193 5153 5154 6259 6258 
5089 5090 6195 6194 5154 5155 6260 6259 
5090 5091 6196 6195 5155 5156 6261 6260 
5091 5092 6197 6196 5156 5157 6262 6261 
5092 5093 6198 6197 5157 5158 6263 6262 
5093 5094 6199 6198 5158 5159 6264 6263 
5094 5095 6200 6199 5159 5160 6265 6264 
5095 5096 6201 6200 5160 5161 6266 6265 
5096 5097 6202 6201 5161 5162 6267 6266 
5097 5098 6203 6202 5162 5163 6268 6267 
5098 5099 6204 6203 5163 5164 6269 6268 
5099 5100 6205 6204 5164 5165 6270 6269 
5100 5101 6206 6205 5165 5166 6271 6270 
5101 5102 6207 6206 5166 5167 6272 6271 
5102 5103 6208 6207 5167 5168 6273 6272 
5103 5104 6209 6208 5168 5169 6274 6273 
5104 5105 6210 6209 5169 5170 6275 6274 
5105 5106 6211 6210 5170 5171 6276 6275 
5106 5107 6212 6211 5171 5172 6277 6276 
5107 5108 6213 6212 5172 5173 6278 6277 
5108 5109 6214 6213 5173 5174 6279 6278 
5109 5110 6215 6214 5174 5175 6280 6279 
5110 5111 6216 6215 5175 5176 6281 6280 
5111 5112 6217 6216 5176 5177 6282 6281 
5112 5113 6218 6217 5177 5178 6283 6282 
5113 5114 6219 6218 5178 5179 6284 6283 
5114 5115 6220 6219 5179 5180 6285 6284 
5115 5116 6221 6220 5180 5181 6286 6285 
5116 5117 6222 6221 5181 5182 6287 6286 
5117 5118 6223 6222 5182 5183 6288 6287 
5118 5119 6224 6223 5183 5184 6289 6288 
5119 5120 6225 6224 5184 5185 6290 6289 
5120 5121 6226 6225 5185 5186 6291 6290 
5121 5122 6227 6226 5186 5187 6292 6291 
5122 5123 6228 6227 5187 5188 6293 6292 
5123 5124 6229 6228 5188 5189 6294 6293 
5124 5125 6230 6229 5189 5190 6295 6294 
5125 5126 6231 6230 5190 5191 6296 6295 
5126 5127 6232 6231 5191 5192 6297 6296 
5127 5128 6233 6232 5192 5193 6298 6297 
5128 5129 6234 6233 5193 5194 6299 6298 
5129 5130 6235 6234 5194 5195 6300 6299 
5130 5131 6236 6235 5195 5196 6301 6300 
5131 5132 6237 6236 5196 5197 6302 6301 
5132 5133 6238 6237 5197 5198 6303 6302 
5133 5134 6239 6238 5198 5199 6304 6303 
5135 5136 6241 6240 5200 5201 6306 6305 
5136 5137 6242 6241 5201 5202 6307 6306 
5137 5138 6243 6242 5202 5203 6308 6307 
5138 5139 6244 6243 5203 5204 6309 6308 
5139 5140 6245 6244 5204 5205 6310 6309 
5140 5141 6246 6245 5205 5206 6311 6310 
5141 5142 6247 6246 5206 5207 6312 6311 
5142 5143 6248 6247 5207 5208 6313 6312 
5143 5144 6249 6248 5208 5209 6314 6313 
5144 5145 6250 6249 5209 5210 6315 6314 
5145 5146 6251 6250 5210 5211 6316 6315 
5146 5147 6252 6251 5211 5212 6317 6316 
5147 5148 6253 6252 5212 5213 6318 6317 
5148 5149 6254 6253 5213 5214 6319 6318 
5149 5150 6255 6254 5214 5215 6320 6319 
5150 5151 6256 6255 5215 5216 6321 6320 
5151 5152 6257 6256 5216 5217 6322 6321 
5152 5153 6258 6257 5217 5218 6323 6322 
5153 5154 6259 6258 5218 5219 6324 6323 
5154 5155 6260 6259 5219 5220 6325 6324 
5155 5156 6261 6260 5220 5221 6326 6325 
5156 5157 6262 6261 5221 5222 6327 6326 
5157 5158 6263 6262 5222 5223 6328 6327 
5158 5159 6264 6263 5223 5224 6329 6328 
5159 5160 6265 6264 5224 5225 6330 6329 
5160 5161 6266 6265 5225 5226 6331 6330 
5161 5162 6267 6266 5226 5227 6332 6331 
5162 5163 6268 6267 5227 5228 6333 6332 
5163 5164 6269 6268 5228 5229 6334 6333 
5164 5165 6270 6269 5229 5230 6335 6334 
5165 5166 6271 6270 5230 5231 6336 6335 
5166 5167 6272 6271 5231 5232 6337 6336 
5167 5168 6273 6272 5232 5233 6338 6337 
5168 5169 6274 6273 5233 5234 6339 6338 
5169 5170 6275 6274 5234 5235 6340 6339 
5170 5171 6276 6275 5235 5236 6341 6340 
5171 5172 6277 6276 5236 5237 6342 6341 
5172 5173 6278 6277 5237 5238 6343 6342 
5173 5174 6279 6278 5238 5239 6344 6343 
5174 5175 6280 6279 5239 5240 6345 6344 
5175 5176 6281 6280 5240 5241 6346 6345 
5176 5177 6282 6281 5241 5242 6347 6346 
5177 5178 6283 6282 5242 5243 6348 6347 
5178 5179 6284 6283 5243 5244 6349 6348 
5179 5180 6285 6284 5244 5245 6350 6349 
5180 5181 6286 6285 5245 5246 6351 6350 
5181 5182 6287 6286 5246 5247 6352 6351 
5182 5183 6288 6287 5247 5248 6353 6352 
5183 5184 6289 6288 5248 5249 6354 6353 
5184 5185 6290 6289 5249 5250 6355 6354 
5185 5186 6291 6290 5250 5251 6356 6355 
5186 5187 6292 6291 5251 5252 6357 6356 
5187 5188 6293 6292 5252 5253 6358 6357 
5188 5189 6294 6293 5253 5254 6359 6358 
5189 5190 6295 6294 5254 5255 6360 6359 
5190 5191 6296 6295 5255 5256 6361 6360 
5191 5192 6297 6296 5256 5257 6362 6361 
5192 5193 6298 6297 5257 5258 6363 6362 
5193 5194 6299 6298 5258 5259 6364 6363 
5194 5195 6300 6299 5259 5260 6365 6364 
5195 5196 6301 6300 5260 5261 6366 6365 
5196 5197 6302 6301 5261 5262 6367 6366 
5197 5198 6303 6302 5262 5263 6368 6367 
5198 5199 6304 6303 5263 5264 6369 6368 
5200 5201 6306 6305 5265 5266 6371 6370 
5201 5202 6307 6306 5266 5267 6372 6371 
5202 5203 6308 6307 5267 5268 6373 6372 
5203 5204 6309 6308 5268 5269 6374 6373 
5204 5205 6310 6309 5269 5270 6375 6374 
5205 5206 6311 6310 5270 5271 6376 6375 
5206 5207 6312 6311 5271 5272 6377 6376 
5207 5208 6313 6312 5272 5273 6378 6377 
5208 5209 6314 6313 5273 5274 6379 6378 
5209 5210 6315 6314 5274 5275 6380 6379 
5210 5211 6316 6315 5275 5276 6381 6380 
5211 5212 6317 6316 5276 5277 6382 6381 
5212 5213 6318 6317 5277 5278 6383 6382 
5213 5214 6319 6318 5278 5279 6384 6383 
5214 5215 6320 6319 5279 5280 6385 6384 
5215 5216 6321 6320 5280 5281 6386 6385 
5216 5217 6322 6321 5281 5282 6387 6386 
5217 5218 6323 6322 5282 5283 6388 6387 
5218 5219 6324 6323 5283 5284 6389 6388 
5219 5220 6325 6324 5284 5285 6390 6389 
5220 5221 6326 6325 5285 5286 6391 6390 
5221 5222 6327 6326 5286 5287 6392 6391 
5222 5223 6328 6327 5287 5288 6393 6392 
5223 5224 6329 6328 5288 5289 6394 6393 
5224 5225 6330 6329 5289 5290 6395 6394 
5225 5226 6331 6330 5290 5291 6396 6395 
5226 5227 6332 6331 5291 5292 6397 6396 
5227 5228 6333 6332 5292 5293 6398 6397 
5228 5229 6334 6333 5293 5294 6399 6398 
5229 5230 6335 6334 5294 5295 6400 6399 
5230 5231 6336 6335 5295 5296 6401 6400 
5231 5232 6337 6336 5296 5297 6402 6401 
5232 5233 6338 6337 5297 5298 6403 6402 
5233 5234 6339 6338 5298 5299 6404 6403 
5234 5235 6340 6339 5299 5300 6405 6404 
5235 5236 6341 6340 5300 5301 6406 6405 
5236 5237 6342 6341 5301 5302 6407 6406 
5237 5238 6343 6342 5302 5303 6408 6407 
5238 5239 6344 6343 5303 5304 6409 6408 
5239 5240 6345 6344 5304 5305 6410 6409 
5240 5241 6346 6345 5305 5306 6411 6410 
5241 5242 6347 6346 5306 5307 6412 6411 
5242 5243 6348 6347 5307 5308 6413 6412 
5243 5244 6349 6348 5308 5309 6414 6413 
5244 5245 6350 6349 5309 5310 6415 6414 
5245 5246 6351 6350 5310 5311 6416 6415 
5246 5247 6352 6351 5311 5312 6417 6416 
5247 5248 6353 6352 5312 5313 6418 6417 
5248 5249 6354 6353 5313 5314 6419 6418 
5249 5250 6355 6354 5314 5315 6420 6419 
5250 5251 6356 6355 5315 5316 6421 6420 
5251 5252 6357 6356 5316 5317 6422 6421 
5252 5253 6358 6357 5317 5318 6423 6422 
5253 5254 6359 6358 5318 5319 6424 6423 
5254 5255 6360 6359 5319 5320 6425 6424 
5255 5256 6361 6360 5320 5321 6426 6425 
5256 5257 6362 6361 5321 5322 6427 6426 
5257 5258 6363 6362 5322 5323 6428 6427 
5258 5259 6364 6363 5323 5324 6429 6428 
5259 5260 6365 6364 5324 5325 6430 6429 
5260 5261 6366 6365 5325 5326 6431 6430 
5261 5262 6367 6366 5326 5327 6432 6431 
5262 5263 6368 6367 5327 5328 6433 6432 
5263 5264 6369 6368 5328 5329 6434 6433 
5265 5266 6371 6370 5330 5331 6436 6435 
5266 5267 6372 6371 5331 5332 6437 6436 
5267 5268 6373 6372 5332 5333 6438 6437 
5268 5269 6374 6373 5333 5334 6439 6438 
5269 5270 6375 6374 5334 5335 6440 6439 
5270 5271 6376 6375 5335 5336 6441 6440 
5271 5272 6377 6376 5336 5337 6442 6441 
5272 5273 6378 6377 5337 5338 6443 6442 
5273 5274 6379 6378 5338 5339 6444 6443 
5274 5275 6380 6379 5339 5340 6445 6444 
5275 5276 6381 6380 5340 5341 6446 6445 
5276 5277 6382 6381 5341 5342 6447 6446 
5277 5278 6383 6382 5342 5343 6448 6447 
5278 5279 6384 6383 5343 5344 6449 6448 
5279 5280 6385 6384 5344 5345 6450 6449 
5280 5281 6386 6385 5345 5346 6451 6450 
5281 5282 6387 6386 5346 5347 6452 6451 
5282 5283 6388 6387 5347 5348 6453 6452 
5283 5284 6389 6388 5348 5349 6454 6453 
5284 5285 6390 6389 5349 5350 6455 6454 
5285 5286 6391 6390 5350 5351 6456 6455 
5286 5287 6392 6391 5351 5352 6457 6456 
5287 5288 6393 6392 5352 5353 6458 6457 
5288 5289 6394 6393 5353 5354 6459 6458 
5289 5290 6395 6394 5354 5355 6460 6459 
5290 5291 6396 6395 5355 5356 6461 6460 
5291 5292 6397 6396 5356 5357 6462 6461 
5292 5293 6398 6397 5357 5358 6463 6462 
5293 5294 6399 6398 5358 5359 6464 6463 
5294 5295 6400 6399 5359 5360 6465 6464 
5295 5296 6401 6400 5360 5361 6466 6465 
5296 5297 6402 6401 5361 5362 6467 6466 
5297 5298 6403 6402 5362 5363 6468 6467 
5298 5299 6404 6403 5363 5364 6469 6468 
5299 5300 6405 6404 5364 5365 6470 6469 
5300 5301 6406 6405 5365 5366 6471 6470 
5301 5302 6407 6406 5366 5367 6472 6471 
5302 5303 6408 6407 5367 5368 6473 6472 
5303 5304 6409 6408 5368 5369 6474 6473 
5304 5305 6410 6409 5369 5370 6475 6474 
5305 5306 6411 6410 5370 5371 6476 6475 
5306 5307 6412 6411 5371 5372 6477 6476 
5307 5308 6413 6412 5372 5373 6478 6477 
5308 5309 6414 6413 5373 5374 6479 6478 
5309 5310 6415 6414 5374 5375 6480 6479 
5310 5311 6416 6415 5375 5376 6481 6480 
5311 5312 6417 6416 5376 5377 6482 6481 
5312 5313 6418 6417 5377 5378 6483 6482 
5313 5314 6419 6418 5378 5379 6484 6483 
5314 5315 6420 6419 5379 5380 6485 6484 
5315 5316 6421 6420 5380 5381 6486 6485 
5316 5317 6422 6421 5381 5382 6487 6486 
5317 5318 6423 6422 5382 5383 6488 6487 
5318 5319 6424 6423 5383 5384 6489 6488 
5319 5320 6425 6424 5384 5385 6490 6489 
5320 5321 6426 6425 5385 5386 6491 6490 
5321 5322 6427 6426 5386 5387 6492 6491 
5322 5323 6428 6427 5387 5388 6493 6492 
5323 5324 6429 6428 5388 5389 6494 6493 
5324 5325 6430 6429 5389 5390 6495 6494 
5325 5326 6431 6430 5390 5391 6496 6495 
5326 5327 6432 6431 5391 5392 6497 6496 
5327 5328 6433 6432 5392 5393 6498 6497 
5328 5329 6434 6433 5393 5394 6499 6498 
5330 5331 6436 6435 5395 5396 6501 6500 
5331 5332 6437 6436 5396 5397 6502 6501 
5332 5333 6438 6437 5397 5398 6503 6502 
5333 5334 6439 6438 5398 5399 6504 6503 
5334 5335 6440 6439 5399 5400 6505 6504 
5335 5336 6441 6440 5400 5401 6506 6505 
5336 5337 6442 6441 5401 5402 6507 6506 
5337 5338 6443 6442 5402 5403 6508 6507 
5338 5339 6444 6443 5403 5404 6509 6508 
5339 5340 6445 6444 5404 5405 6510 6509 
5340 5341 6446 6445 5405 5406 6511 6510 
5341 5342 6447 6446 5406 5407 6512 6511 
5342 5343 6448 6447 5407 5408 6513 6512 
5343 5344 6449 6448 5408 5409 6514 6513 
5344 5345 6450 6449 5409 5410 6515 6514 
5345 5346 6451 6450 5410 5411 6516 6515 
5346 5347 6452 6451 5411 5412 6517 6516 
5347 5348 6453 6452 5412 5413 6518 6517 
5348 5349 6454 6453 5413 5414 6519 6518 
5349 5350 6455 6454 5414 5415 6520 6519 
5350 5351 6456 6455 5415 5416 6521 6520 
5351 5352 6457 6456 5416 5417 6522 6521 
5352 5353 6458 6457 5417 5418 6523 6522 
5353 5354 6459 6458 5418 5419 6524 6523 
5354 5355 6460 6459 5419 5420 6525 6524 
5355 5356 6461 6460 5420 5421 6526 6525 
5356 5357 6462 6461 5421 5422 6527 6526 
5357 5358 6463 6462 5422 5423 6528 6527 
5358 5359 6464 6463 5423 5424 6529 6528 
5359 5360 6465 6464 5424 5425 6530 6529 
5360 5361 6466 6465 5425 5426 6531 6530 
5361 5362 6467 6466 5426 5427 6532 6531 
5362 5363 6468 6467 5427 5428 6533 6532 
5363 5364 6469 6468 5428 5429 6534 6533 
5364 5365 6470 6469 5429 5430 6535 6534 
5365 5366 6471 6470 5430 5431 6536 6535 
5366 5367 6472 6471 5431 5432 6537 6536 
5367 5368 6473 6472 5432 5433 6538 6537 
5368 5369 6474 6473 5433 5434 6539 6538 
5369 5370 6475 6474 5434 5435 6540 6539 
5370 5371 6476 6475 5435 5436 6541 6540 
5371 5372 6477 6476 5436 5437 6542 6541 
5372 5373 6478 6477 5437 5438 6543 6542 
5373 5374 6479 6478 5438 5439 6544 6543 
5374 5375 6480 6479 5439 5440 6545 6544 
5375 5376 6481 6480 5440 5441 6546 6545 
5376 5377 6482 6481 5441 5442 6547 6546 
5377 5378 6483 6482 5442 5443 6548 6547 
5378 5379 6484 6483 5443 5444 6549 6548 
5379 5380 6485 6484 5444 5445 6550 6549 
5380 5381 6486 6485 5445 5446 6551 6550 
5381 5382 6487 6486 5446 5447 6552 6551 
5382 5383 6488 6487 5447 5448 6553 6552 
5383 5384 6489 6488 5448 5449 6554 6553 
5384 5385 6490 6489 5449 5450 6555 6554 
5385 5386 6491 6490 5450 5451 6556 6555 
5386 5387 6492 6491 5451 5452 6557 6556 
5387 5388 6493 6492 5452 5453 6558 6557 
5388 5389 6494 6493 5453 5454 6559 6558 
5389 5390 6495 6494 5454 5455 6560 6559 
5390 5391 6496 6495 5455 5456 6561 6560 
5391 5392 6497 6496 5456 5457 6562 6561 
5392 5393 6498 6497 5457 5458 6563 6562 
5393 5394 6499 6498 5458 5459 6564 6563 
5395 5396 6501 6500 5460 5461 6566 6565 
5396 5397 6502 6501 5461 5462 6567 6566 
5397 5398 6503 6502 5462 5463 6568 6567 
5398 5399 6504 6503 5463 5464 6569 6568 
5399 5400 6505 6504 5464 5465 6570 6569 
5400 5401 6506 6505 5465 5466 6571 6570 
5401 5402 6507 6506 5466 5467 6572 6571 
5402 5403 6508 6507 5467 5468 6573 6572 
5403 5404 6509 6508 5468 5469 6574 6573 
5404 5405 6510 6509 5469 5470 6575 6574 
5405 5406 6511 6510 5470 5471 6576 6575 
5406 5407 6512 6511 5471 5472 6577 6576 
5407 5408 6513 6512 5472 5473 6578 6577 
5408 5409 6514 6513 5473 5474 6579 6578 
5409 5410 6515 6514 5474 5475 6580 6579 
5410 5411 6516 6515 5475 5476 6581 6580 
5411 5412 6517 6516 5476 5477 6582 6581 
5412 5413 6518 6517 5477 5478 6583 6582 
5413 5414 6519 6518 5478 5479 6584 6583 
5414 5415 6520 6519 5479 5480 6585 6584 
5415 5416 6521 6520 5480 5481 6586 6585 
5416 5417 6522 6521 5481 5482 6587 6586 
5417 5418 6523 6522 5482 5483 6588 6587 
5418 5419 6524 6523 5483 5484 6589 6588 
5419 5420 6525 6524 5484 5485 6590 6589 
5420 5421 6526 6525 5485 5486 6591 6590 
5421 5422 6527 6526 5486 5487 6592 6591 
5422 5423 6528 6527 5487 5488 6593 6592 
5423 5424 6529 6528 5488 5489 6594 6593 
5424 5425 6530 6529 5489 5490 6595 6594 
5425 5426 6531 6530 5490 5491 6596 6595 
5426 5427 6532 6531 5491 5492 6597 6596 
5427 5428 6533 6532 5492 5493 6598 6597 
5428 5429 6534 6533 5493 5494 6599 6598 
5429 5430 6535 6534 5494 5495 6600 6599 
5430 5431 6536 6535 5495 5496 6601 6600 
5431 5432 6537 6536 5496 5497 6602 6601 
5432 5433 6538 6537 5497 5498 6603 6602 
5433 5434 6539 6538 5498 5499 6604 6603 
5434 5435 6540 6539 5499 5500 6605 6604 
5435 5436 6541 6540 5500 5501 6606 6605 
5436 5437 6542 6541 5501 5502 6607 6606 
5437 5438 6543 6542 5502 5503 6608 6607 
5438 5439 6544 6543 5503 5504 6609 6608 
5439 5440 6545 6544 5504 5505 6610 6609 
5440 5441 6546 6545 5505 5506 6611 6610 
5441 5442 6547 6546 5506 5507 6612 6611 
5442 5443 6548 6547 5507 5508 6613 6612 
5443 5444 6549 6548 5508 5509 6614 6613 
5444 5445 6550 6549 5509 5510 6615 6614 
5445 5446 6551 6550 5510 5511 6616 6615 
5446 5447 6552 6551 5511 5512 6617 6616 
5447 5448 6553 6552 5512 5513 6618 6617 
5448 5449 6554 6553 5513 5514 6619 6618 
5449 5450 6555 6554 5514 5515 6620 6619 
5450 5451 6556 6555 5515 5516 6621 6620 
5451 5452 6557 6556 5516 5517 6622 6621 
5452 5453 6558 6557 5517 5518 6623 6622 
5453 5454 6559 6558 5518 5519 6624 6623 
5454 5455 6560 6559 5519 5520 6625 6624 
5455 5456 6561 6560 5520 5521 6626 6625 
5456 5457 6562 6561 5521 5522 6627 6626 
5457 5458 6563 6562 5522 5523 6628 6627 
5458 5459 6564 6563 5523 5524 6629 6628 
5525 5526 6631 6630 5590 5591 6696 6695 
5526 5527 6632 6631 5591 5592 6697 6696 
5527 5528 6633 6632 5592 5593 6698 6697 
5528 5529 6634 6633 5593 5594 6699 6698 
5529 5530 6635 6634 5594 5595 6700 6699 
5530 5531 6636 6635 5595 5596 6701 6700 
5531 5532 6637 6636 5596 5597 6702 6701 
5532 5533 6638 6637 5597 5598 6703 6702 
5533 5534 6639 6638 5598 5599 6704 6703 
5534 5535 6640 6639 5599 5600 6705 6704 
5535 5536 6641 6640 5600 5601 6706 6705 
5536 5537 6642 6641 5601 5602 6707 6706 
5537 5538 6643 6642 5602 5603 6708 6707 
5538 5539 6644 6643 5603 5604 6709 6708 
5539 5540 6645 6644 5604 5605 6710 6709 
5540 5541 6646 6645 5605 5606 6711 6710 
5541 5542 6647 6646 5606 5607 6712 6711 
5542 5543 6648 6647 5607 5608 6713 6712 
5543 5544 6649 6648 5608 5609 6714 6713 
5544 5545 6650 6649 5609 5610 6715 6714 
5545 5546 6651 6650 5610 5611 6716 6715 
5546 5547 6652 6651 5611 5612 6717 6716 
5547 5548 6653 6652 5612 5613 6718 6717 
5548 5549 6654 6653 5613 5614 6719 6718 
5549 5550 6655 6654 5614 5615 6720 6719 
5550 5551 6656 6655 5615 5616 6721 6720 
5551 5552 6657 6656 5616 5617 6722 6721 
5552 5553 6658 6657 5617 5618 6723 6722 
5553 5554 6659 6658 5618 5619 6724 6723 
5554 5555 6660 6659 5619 5620 6725 6724 
5555 5556 6661 6660 5620 5621 6726 6725 
5556 5557 6662 6661 5621 5622 6727 6726 
5557 5558 6663 6662 5622 5623 6728 6727 
5558 5559 6664 6663 5623 5624 6729 6728 
5559 5560 6665 6664 5624 5625 6730 6729 
5560 5561 6666 6665 5625 5626 6731 6730 
5561 5562 6667 6666 5626 5627 6732 6731 
5562 5563 6668 6667 5627 5628 6733 6732 
5563 5564 6669 6668 5628 5629 6734 6733 
5564 5565 6670 6669 5629 5630 6735 6734 
5565 5566 6671 6670 5630 5631 6736 6735 
5566 5567 6672 6671 5631 5632 6737 6736 
5567 5568 6673 6672 5632 5633 6738 6737 
5568 5569 6674 6673 5633 5634 6739 6738 
5569 5570 6675 6674 5634 5635 6740 6739 
5570 5571 6676 6675 5635 5636 6741 6740 
5571 5572 6677 6676 5636 5637 6742 6741 
5572 5573 6678 6677 5637 5638 6743 6742 
5573 5574 6679 6678 5638 5639 6744 6743 
5574 5575 6680 6679 5639 5640 6745 6744 
5575 5576 6681 6680 5640 5641 6746 6745 
5576 5577 6682 6681 5641 5642 6747 6746 
5577 5578 6683 6682 5642 5643 6748 6747 
5578 5579 6684 6683 5643 5644 6749 6748 
5579 5580 6685 6684 5644 5645 6750 6749 
5580 5581 6686 6685 5645 5646 6751 6750 
5581 5582 6687 6686 5646 5647 6752 6751 
5582 5583 6688 6687 5647 5648 6753 6752 
5583 5584 6689 6688 5648 5649 6754 6753 
5584 5585 6690 6689 5649 5650 6755 6754 
5585 5586 6691 6690 5650 5651 6756 6755 
5586 5587 6692 6691 5651 5652 6757 6756 
5587 5588 6693 6692 5652 5653 6758 6757 
5588 5589 6694 6693 5653 5654 6759 6758 
5590 5591 6696 6695 5655 5656 6761 6760 
5591 5592 6697 6696 5656 5657 6762 6761 
5592 5593 6698 6697 5657 5658 6763 6762 
5593 5594 6699 6698 5658 5659 6764 6763 
5594 5595 6700 6699 5659 5660 6765 6764 
5595 5596 6701 6700 5660 5661 6766 6765 
5596 5597 6702 6701 5661 5662 6767 6766 
5597 5598 6703 6702 5662 5663 6768 6767 
5598 5599 6704 6703 5663 5664 6769 6768 
5599 5600 6705 6704 5664 5665 6770 6769 
5600 5601 6706 6705 5665 5666 6771 6770 
5601 5602 6707 6706 5666 5667 6772 6771 
5602 5603 6708 6707 5667 5668 6773 6772 
5603 5604 6709 6708 5668 5669 6774 6773 
5604 5605 6710 6709 5669 5670 6775 6774 
5605 5606 6711 6710 5670 5671 6776 6775 
5606 5607 6712 6711 5671 5672 6777 6776 
5607 5608 6713 6712 5672 5673 6778 6777 
5608 5609 6714 6713 5673 5674 6779 6778 
5609 5610 6715 6714 5674 5675 6780 6779 
5610 5611 6716 6715 5675 5676 6781 6780 
5611 5612 6717 6716 5676 5677 6782 6781 
5612 5613 6718 6717 5677 5678 6783 6782 
5613 5614 6719 6718 5678 5679 6784 6783 
5614 5615 6720 6719 5679 5680 6785 6784 
5615 5616 6721 6720 5680 5681 6786 6785 
5616 5617 6722 6721 5681 5682 6787 6786 
5617 5618 6723 6722 5682 5683 6788 6787 
5618 5619 6724 6723 5683 5684 6789 6788 
5619 5620 6725 6724 5684 5685 6790 6789 
5620 5621 6726 6725 5685 5686 6791 6790 
5621 5622 6727 6726 5686 5687 6792 6791 
5622 5623 6728 6727 5687 5688 6793 6792 
5623 5624 6729 6728 5688 5689 6794 6793 
5624 5625 6730 6729 5689 5690 6795 6794 
5625 5626 6731 6730 5690 5691 6796 6795 
5626 5627 6732 6731 5691 5692 6797 6796 
5627 5628 6733 6732 5692 5693 6798 6797 
5628 5629 6734 6733 5693 5694 6799 6798 
5629 5630 6735 6734 5694 5695 6800 6799 
5630 5631 6736 6735 5695 5696 6801 6800 
5631 5632 6737 6736 5696 5697 6802 6801 
5632 5633 6738 6737 5697 5698 6803 6802 
5633 5634 6739 6738 5698 5699 6804 6803 
5634 5635 6740 6739 5699 5700 6805 6804 
5635 5636 6741 6740 5700 5701 6806 6805 
5636 5637 6742 6741 5701 5702 6807 6806 
5637 5638 6743 6742 5702 5703 6808 6807 
5638 5639 6744 6743 5703 5704 6809 6808 
5639 5640 6745 6744 5704 5705 6810 6809 
5640 5641 6746 6745 5705 5706 6811 6810 
5641 5642 6747 6746 5706 5707 6812 6811 
5642 5643 6748 6747 5707 5708 6813 6812 
5643 5644 6749 6748 5708 5709 6814 6813 
5644 5645 6750 6749 5709 5710 6815 6814 
5645 5646 6751 6750 5710 5711 6816 6815 
5646 5647 6752 6751 5711 5712 6817 6816 
5647 5648 6753 6752 5712 5713 6818 6817 
5648 5649 6754 6753 5713 5714 6819 6818 
5649 5650 6755 6754 5714 5715 6820 6819 
5650 5651 6756 6755 5715 5716 6821 6820 
5651 5652 6757 6756 5716 5717 6822 6821 
5652 5653 6758 6757 5717 5718 6823 6822 
5653 5654 6759 6758 5718 5719 6824 6823 
5655 5656 6761 6760 5720 5721 6826 6825 
5656 5657 6762 6761 5721 5722 6827 6826 
5657 5658 6763 6762 5722 5723 6828 6827 
5658 5659 6764 6763 5723 5724 6829 6828 
5659 5660 6765 6764 5724 5725 6830 6829 
5660 5661 6766 6765 5725 5726 6831 6830 
5661 5662 6767 6766 5726 5727 6832 6831 
5662 5663 6768 6767 5727 5728 6833 6832 
5663 5664 6769 6768 5728 5729 6834 6833 
5664 5665 6770 6769 5729 5730 6835 6834 
5665 5666 6771 6770 5730 5731 6836 6835 
5666 5667 6772 6771 5731 5732 6837 6836 
5667 5668 6773 6772 5732 5733 6838 6837 
5668 5669 6774 6773 5733 5734 6839 6838 
5669 5670 6775 6774 5734 5735 6840 6839 
5670 5671 6776 6775 5735 5736 6841 6840 
5671 5672 6777 6776 5736 5737 6842 6841 
5672 5673 6778 6777 5737 5738 6843 6842 
5673 5674 6779 6778 5738 5739 6844 6843 
5674 5675 6780 6779 5739 5740 6845 6844 
5675 5676 6781 6780 5740 5741 6846 6845 
5676 5677 6782 6781 5741 5742 6847 6846 
5677 5678 6783 6782 5742 5743 6848 6847 
5678 5679 6784 6783 5743 5744 6849 6848 
5679 5680 6785 6784 5744 5745 6850 6849 
5680 5681 6786 6785 5745 5746 6851 6850 
5681 5682 6787 6786 5746 5747 6852 6851 
5682 5683 6788 6787 5747 5748 6853 6852 
5683 5684 6789 6788 5748 5749 6854 6853 
5684 5685 6790 6789 5749 5750 6855 6854 
5685 5686 6791 6790 5750 5751 6856 6855 
5686 5687 6792 6791 5751 5752 6857 6856 
5687 5688 6793 6792 5752 5753 6858 6857 
5688 5689 6794 6793 5753 5754 6859 6858 
5689 5690 6795 6794 5754 5755 6860 6859 
5690 5691 6796 6795 5755 5756 6861 6860 
5691 5692 6797 6796 5756 5757 6862 6861 
5692 5693 6798 6797 5757 5758 6863 6862 
5693 5694 6799 6798 5758 5759 6864 6863 
5694 5695 6800 6799 5759 5760 6865 6864 
5695 5696 6801 6800 5760 5761 6866 6865 
5696 5697 6802 6801 5761 5762 6867 6866 
5697 5698 6803 6802 5762 5763 6868 6867 
5698 5699 6804 6803 5763 5764 6869 6868 
5699 5700 6805 6804 5764 5765 6870 6869 
5700 5701 6806 6805 5765 5766 6871 6870 
5701 5702 6807 6806 5766 5767 6872 6871 
5702 5703 6808 6807 5767 5768 6873 6872 
5703 5704 6809 6808 5768 5769 6874 6873 
5704 5705 6810 6809 5769 5770 6875 6874 
5705 5706 6811 6810 5770 5771 6876 6875 
5706 5707 6812 6811 5771 5772 6877 6876 
5707 5708 6813 6812 5772 5773 6878 6877 
5708 5709 6814 6813 5773 5774 6879 6878 
5709 5710 6815 6814 5774 5775 6880 6879 
5710 5711 6816 6815 5775 5776 6881 6880 
5711 5712 6817 6816 5776 5777 6882 6881 
5712 5713 6818 6817 5777 5778 6883 6882 
5713 5714 6819 6818 5778 5779 6884 6883 
5714 5715 6820 6819 5779 5780 6885 6884 
5715 5716 6821 6820 5780 5781 6886 6885 
5716 5717 6822 6821 5781 5782 6887 6886 
5717 5718 6823 6822 5782 5783 6888 6887 
5718 5719 6824 6823 5783 5784 6889 6888 
5720 5721 6826 6825 5785 5786 6891 6890 
5721 5722 6827 6826 5786 5787 6892 6891 
5722 5723 6828 6827 5787 5788 6893 6892 
5723 5724 6829 6828 5788 5789 6894 6893 
5724 5725 6830 6829 5789 5790 6895 6894 
5725 5726 6831 6830 5790 5791 6896 6895 
5726 5727 6832 6831 5791 5792 6897 6896 
5727 5728 6833 6832 5792 5793 6898 6897 
5728 5729 6834 6833 5793 5794 6899 6898 
5729 5730 6835 6834 5794 5795 6900 6899 
5730 5731 6836 6835 5795 5796 6901 6900 
5731 5732 6837 6836 5796 5797 6902 6901 
5732 5733 6838 6837 5797 5798 6903 6902 
5733 5734 6839 6838 5798 5799 6904 6903 
5734 5735 6840 6839 5799 5800 6905 6904 
5735 5736 6841 6840 5800 5801 6906 6905 
5736 5737 6842 6841 5801 5802 6907 6906 
5737 5738 6843 6842 5802 5803 6908 6907 
5738 5739 6844 6843 5803 5804 6909 6908 
5739 5740 6845 6844 5804 5805 6910 6909 
5740 5741 6846 6845 5805 5806 6911 6910 
5741 5742 6847 6846 5806 5807 6912 6911 
5742 5743 6848 6847 5807 5808 6913 6912 
5743 5744 6849 6848 5808 5809 6914 6913 
5744 5745 6850 6849 5809 5810 6915 6914 
5745 5746 6851 6850 5810 5811 6916 6915 
5746 5747 6852 6851 5811 5812 6917 6916 
5747 5748 6853 6852 5812 5813 6918 6917 
5748 5749 6854 6853 5813 5814 6919 6918 
5749 5750 6855 6854 5814 5815 6920 6919 
5750 5751 6856 6855 5815 5816 6921 6920 
5751 5752 6857 6856 5816 5817 6922 6921 
5752 5753 6858 6857 5817 5818 6923 6922 
5753 5754 6859 6858 5818 5819 6924 6923 
5754 5755 6860 6859 5819 5820 6925 6924 
5755 5756 6861 6860 5820 5821 6926 6925 
5756 5757 6862 6861 5821 5822 6927 6926 
5757 5758 6863 6862 5822 5823 6928 6927 
5758 5759 6864 6863 5823 5824 6929 6928 
5759 5760 6865 6864 5824 5825 6930 6929 
5760 5761 6866 6865 5825 5826 6931 6930 
5761 5762 6867 6866 5826 5827 6932 6931 
5762 5763 6868 6867 5827 5828 6933 6932 
5763 5764 6869 6868 5828 5829 6934 6933 
5764 5765 6870 6869 5829 5830 6935 6934 
5765 5766 6871 6870 5830 5831 6936 6935 
5766 5767 6872 6871 5831 5832 6937 6936 
5767 5768 6873 6872 5832 5833 6938 6937 
5768 5769 6874 6873 5833 5834 6939 6938 
5769 5770 6875 6874 5834 5835 6940 6939 
5770 5771 6876 6875 5835 5836 6941 6940 
5771 5772 6877 6876 5836 5837 6942 6941 
5772 5773 6878 6877 5837 5838 6943 6942 
5773 5774 6879 6878 5838 5839 6944 6943 
5774 5775 6880 6879 5839 5840 6945 6944 
5775 5776 6881 6880 5840 5841 6946 6945 
5776 5777 6882 6881 5841 5842 6947 6946 
5777 5778 6883 6882 5842 5843 6948 6947 
5778 5779 6884 6883 5843 5844 6949 6948 
5779 5780 6885 6884 5844 5845 6950 6949 
5780 5781 6886 6885 5845 5846 6951 6950 
5781 5782 6887 6886 5846 5847 6952 6951 
5782 5783 6888 6887 5847 5848 6953 6952 
5783 5784 6889 6888 5848 5849 6954 6953 
5785 5786 6891 6890 5850 5851 6956 6955 
5786 5787 6892 6891 5851 5852 6957 6956 
5787 5788 6893 6892 5852 5853 6958 6957 
5788 5789 6894 6893 5853 5854 6959 6958 
5789 5790 6895 6894 5854 5855 6960 6959 
5790 5791 6896 6895 5855 5856 6961 6960 
5791 5792 6897 6896 5856 5857 6962 6961 
5792 5793 6898 6897 5857 5858 6963 6962 
5793 5794 6899 6898 5858 5859 6964 6963 
5794 5795 6900 6899 5859 5860 6965 6964 
5795 5796 6901 6900 5860 5861 6966 6965 
5796 5797 6902 6901 5861 5862 6967 6966 
5797 5798 6903 6902 5862 5863 6968 6967 
5798 5799 6904 6903 5863 5864 6969 6968 
5799 5800 6905 6904 5864 5865 6970 6969 
5800 5801 6906 6905 5865 5866 6971 6970 
5801 5802 6907 6906 5866 5867 6972 6971 
5802 5803 6908 6907 5867 5868 6973 6972 
5803 5804 6909 6908 5868 5869 6974 6973 
5804 5805 6910 6909 5869 5870 6975 6974 
5805 5806 6911 6910 5870 5871 6976 6975 
5806 5807 6912 6911 5871 5872 6977 6976 
5807 5808 6913 6912 5872 5873 6978 6977 
5808 5809 6914 6913 5873 5874 6979 6978 
5809 5810 6915 6914 5874 5875 6980 6979 
5810 5811 6916 6915 5875 5876 6981 6980 
5811 5812 6917 6916 5876 5877 6982 6981 
5812 5813 6918 6917 5877 5878 6983 6982 
5813 5814 6919 6918 5878 5879 6984 6983 
5814 5815 6920 6919 5879 5880 6985 6984 
5815 5816 6921 6920 5880 5881 6986 6985 
5816 5817 6922 6921 5881 5882 6987 6986 
5817 5818 6923 6922 5882 5883 6988 6987 
5818 5819 6924 6923 5883 5884 6989 6988 
5819 5820 6925 6924 5884 5885 6990 6989 
5820 5821 6926 6925 5885 5886 6991 6990 
5821 5822 6927 6926 5886 5887 6992 6991 
5822 5823 6928 6927 5887 5888 6993 6992 
5823 5824 6929 6928 5888 5889 6994 6993 
5824 5825 6930 6929 5889 5890 6995 6994 
5825 5826 6931 6930 5890 5891 6996 6995 
5826 5827 6932 6931 5891 5892 6997 6996 
5827 5828 6933 6932 5892 5893 6998 6997 
5828 5829 6934 6933 5893 5894 6999 6998 
5829 5830 6935 6934 5894 5895 7000 6999 
5830 5831 6936 6935 5895 5896 7001 7000 
5831 5832 6937 6936 5896 5897 7002 7001 
5832 5833 6938 6937 5897 5898 7003 7002 
5833 5834 6939 6938 5898 5899 7004 7003 
5834 5835 6940 6939 5899 5900 7005 7004 
5835 5836 6941 6940 5900 5901 7006 7005 
5836 5837 6942 6941 5901 5902 7007 7006 
5837 5838 6943 6942 5902 5903 7008 7007 
5838 5839 6944 6943 5903 5904 7009 7008 
5839 5840 6945 6944 5904 5905 7010 7009 
5840 5841 6946 6945 5905 5906 7011 7010 
5841 5842 6947 6946 5906 5907 7012 7011 
5842 5843 6948 6947 5907 5908 7013 7012 
5843 5844 6949 6948 5908 5909 7014 7013 
5844 5845 6950 6949 5909 5910 7015 7014 
5845 5846 6951 6950 5910 5911 7016 7015 
5846 5847 6952 6951 5911 5912 7017 7016 
5847 5848 6953 6952 5912 5913 7018 7017 
5848 5849 6954 6953 5913 5914 7019 7018 
5850 5851 6956 6955 5915 5916 7021 7020 
5851 5852 6957 6956 5916 5917 7022 7021 
5852 5853 6958 6957 5917 5918 7023 7022 
5853 5854 6959 6958 5918 5919 7024 7023 
5854 5855 6960 6959 5919 5920 7025 7024 
5855 5856 6961 6960 5920 5921 7026 7025 
5856 5857 6962 6961 5921 5922 7027 7026 
5857 5858 6963 6962 5922 5923 7028 7027 
5858 5859 6964 6963 5923 5924 7029 7028 
5859 5860 6965 6964 5924 5925 7030 7029 
5860 5861 6966 6965 5925 5926 7031 7030 
5861 5862 6967 6966 5926 5927 7032 7031 
5862 5863 6968 6967 5927 5928 7033 7032 
5863 5864 6969 6968 5928 5929 7034 7033 
5864 5865 6970 6969 5929 5930 7035 7034 
5865 5866 6971 6970 5930 5931 7036 7035 
5866 5867 6972 6971 5931 5932 7037 7036 
5867 5868 6973 6972 5932 5933 7038 7037 
5868 5869 6974 6973 5933 5934 7039 7038 
5869 5870 6975 6974 5934 5935 7040 7039 
5870 5871 6976 6975 5935 5936 7041 7040 
5871 5872 6977 6976 5936 5937 7042 7041 
5872 5873 6978 6977 5937 5938 7043 7042 
5873 5874 6979 6978 5938 5939 7044 7043 
5874 5875 6980 6979 5939 5940 7045 7044 
5875 5876 6981 6980 5940 5941 7046 7045 
5876 5877 6982 6981 5941 5942 7047 7046 
5877 5878 6983 6982 5942 5943 7048 7047 
5878 5879 6984 6983 5943 5944 7049 7048 
5879 5880 6985 6984 5944 5945 7050 7049 
5880 5881 6986 6985 5945 5946 7051 7050 
5881 5882 6987 6986 5946 5947 7052 7051 
5882 5883 6988 6987 5947 5948 7053 7052 
5883 5884 6989 6988 5948 5949 7054 7053 
5884 5885 6990 6989 5949 5950 7055 7054 
5885 5886 6991 6990 5950 5951 7056 7055 
5886 5887 6992 6991 5951 5952 7057 7056 
5887 5888 6993 6992 5952 5953 7058 7057 
5888 5889 6994 6993 5953 5954 7059 7058 
5889 5890 6995 6994 5954 5955 7060 7059 
5890 5891 6996 6995 5955 5956 7061 7060 
5891 5892 6997 6996 5956 5957 7062 7061 
5892 5893 6998 6997 5957 5958 7063 7062 
5893 5894 6999 6998 5958 5959 7064 7063 
5894 5895 7000 6999 5959 5960 7065 7064 
5895 5896 7001 7000 5960 5961 7066 7065 
5896 5897 7002 7001 5961 5962 7067 7066 
5897 5898 7003 7002 5962 5963 7068 7067 
5898 5899 7004 7003 5963 5964 7069 7068 
5899 5900 7005 7004 5964 5965 7070 7069 
5900 5901 7006 7005 5965 5966 7071 7070 
5901 5902 7007 7006 5966 5967 7072 7071 
5902 5903 7008 7007 5967 5968 7073 7072 
5903 5904 7009 7008 5968 5969 7074 7073 
5904 5905 7010 7009 5969 5970 7075 7074 
5905 5906 7011 7010 5970 5971 7076 7075 
5906 5907 7012 7011 5971 5972 7077 7076 
5907 5908 7013 7012 5972 5973 7078 7077 
5908 5909 7014 7013 5973 5974 7079 7078 
5909 5910 7015 7014 5974 5975 7080 7079 
5910 5911 7016 7015 5975 5976 7081 7080 
5911 5912 7017 7016 5976 5977 7082 7081 
5912 5913 7018 7017 5977 5978 7083 7082 
5913 5914 7019 7018 5978 5979 7084 7083 
5915 5916 7021 7020 5980 5981 7086 7085 
5916 5917 7022 7021 5981 5982 7087 7086 
5917 5918 7023 7022 5982 5983 7088 7087 
5918 5919 7024 7023 5983 5984 7089 7088 
5919 5920 7025 7024 5984 5985 7090 7089 
5920 5921 7026 7025 5985 5986 7091 7090 
5921 5922 7027 7026 5986 5987 7092 7091 
5922 5923 7028 7027 5987 5988 7093 7092 
5923 5924 7029 7028 5988 5989 7094 7093 
5924 5925 7030 7029 5989 5990 7095 7094 
5925 5926 7031 7030 5990 5991 7096 7095 
5926 5927 7032 7031 5991 5992 7097 7096 
5927 5928 7033 7032 5992 5993 7098 7097 
5928 5929 7034 7033 5993 5994 7099 7098 
5929 5930 7035 7034 5994 5995 7100 7099 
5930 5931 7036 7035 5995 5996 7101 7100 
5931 5932 7037 7036 5996 5997 7102 7101 
5932 5933 7038 7037 5997 5998 7103 7102 
5933 5934 7039 7038 5998 5999 7104 7103 
5934 5935 7040 7039 5999 6000 7105 7104 
5935 5936 7041 7040 6000 6001 7106 7105 
5936 5937 7042 7041 6001 6002 7107 7106 
5937 5938 7043 7042 6002 6003 7108 7107 
5938 5939 7044 7043 6003 6004 7109 7108 
5939 5940 7045 7044 6004 6005 7110 7109 
5940 5941 7046 7045 6005 6006 7111 7110 
5941 5942 7047 7046 6006 6007 7112 7111 
5942 5943 7048 7047 6007 6008 7113 7112 
5943 5944 7049 7048 6008 6009 7114 7113 
5944 5945 7050 7049 6009 6010 7115 7114 
5945 5946 7051 7050 6010 6011 7116 7115 
5946 5947 7052 7051 6011 6012 7117 7116 
5947 5948 7053 7052 6012 6013 7118 7117 
5948 5949 7054 7053 6013 6014 7119 7118 
5949 5950 7055 7054 6014 6015 7120 7119 
5950 5951 7056 7055 6015 6016 7121 7120 
5951 5952 7057 7056 6016 6017 7122 7121 
5952 5953 7058 7057 6017 6018 7123 7122 
5953 5954 7059 7058 6018 6019 7124 7123 
5954 5955 7060 7059 6019 6020 7125 7124 
5955 5956 7061 7060 6020 6021 7126 7125 
5956 5957 7062 7061 6021 6022 7127 7126 
5957 5958 7063 7062 6022 6023 7128 7127 
5958 5959 7064 7063 6023 6024 7129 7128 
5959 5960 7065 7064 6024 6025 7130 7129 
5960 5961 7066 7065 6025 6026 7131 7130 
5961 5962 7067 7066 6026 6027 7132 7131 
5962 5963 7068 7067 6027 6028 7133 7132 
5963 5964 7069 7068 6028 6029 7134 7133 
5964 5965 7070 7069 6029 6030 7135 7134 
5965 5966 7071 7070 6030 6031 7136 7135 
5966 5967 7072 7071 6031 6032 7137 7136 
5967 5968 7073 7072 6032 6033 7138 7137 
5968 5969 7074 7073 6033 6034 7139 7138 
5969 5970 7075 7074 6034 6035 7140 7139 
5970 5971 7076 7075 6035 6036 7141 7140 
5971 5972 7077 7076 6036 6037 7142 7141 
5972 5973 7078 7077 6037 6038 7143 7142 
5973 5974 7079 7078 6038 6039 7144 7143 
5974 5975 7080 7079 6039 6040 7145 7144 
5975 5976 7081 7080 6040 6041 7146 7145 
5976 5977 7082 7081 6041 6042 7147 7146 
5977 5978 7083 7082 6042 6043 7148 7147 
5978 5979 7084 7083 6043 6044 7149 7148 
5980 5981 7086 7085 6045 6046 7151 7150 
5981 5982 7087 7086 6046 6047 7152 7151 
5982 5983 7088 7087 6047 6048 7153 7152 
5983 5984 7089 7088 6048 6049 7154 7153 
5984 5985 7090 7089 6049 6050 7155 7154 
5985 5986 7091 7090 6050 6051 7156 7155 
5986 5987 7092 7091 6051 6052 7157 7156 
5987 5988 7093 7092 6052 6053 7158 7157 
5988 5989 7094 7093 6053 6054 7159 7158 
5989 5990 7095 7094 6054 6055 7160 7159 
5990 5991 7096 7095 6055 6056 7161 7160 
5991 5992 7097 7096 6056 6057 7162 7161 
5992 5993 7098 7097 6057 6058 7163 7162 
5993 5994 7099 7098 6058 6059 7164 7163 
5994 5995 7100 7099 6059 6060 7165 7164 
5995 5996 7101 7100 6060 6061 7166 7165 
5996 5997 7102 7101 6061 6062 7167 7166 
5997 5998 7103 7102 6062 6063 7168 7167 
5998 5999 7104 7103 6063 6064 7169 7168 
5999 6000 7105 7104 6064 6065 7170 7169 
6000 6001 7106 7105 6065 6066 7171 7170 
6001 6002 7107 7106 6066 6067 7172 7171 
6002 6003 7108 7107 6067 6068 7173 7172 
6003 6004 7109 7108 6068 6069 7174 7173 
6004 6005 7110 7109 6069 6070 7175 7174 
6005 6006 7111 7110 6070 6071 7176 7175 
6006 6007 7112 7111 6071 6072 7177 7176 
6007 6008 7113 7112 6072 6073 7178 7177 
6008 6009 7114 7113 6073 6074 7179 7178 
6009 6010 7115 7114 6074 6075 7180 7179 
6010 6011 7116 7115 6075 6076 7181 7180 
6011 6012 7117 7116 6076 6077 7182 7181 
6012 6013 7118 7117 6077 6078 7183 7182 
6013 6014 7119 7118 6078 6079 7184 7183 
6014 6015 7120 7119 6079 6080 7185 7184 
6015 6016 7121 7120 6080 6081 7186 7185 
6016 6017 7122 7121 6081 6082 7187 7186 
6017 6018 7123 7122 6082 6083 7188 7187 
6018 6019 7124 7123 6083 6084 7189 7188 
6019 6020 7125 7124 6084 6085 7190 7189 
6020 6021 7126 7125 6085 6086 7191 7190 
6021 6022 7127 7126 6086 6087 7192 7191 
6022 6023 7128 7127 6087 6088 7193 7192 
6023 6024 7129 7128 6088 6089 7194 7193 
6024 6025 7130 7129 6089 6090 7195 7194 
6025 6026 7131 7130 6090 6091 7196 7195 
6026 6027 7132 7131 6091 6092 7197 7196 
6027 6028 7133 7132 6092 6093 7198 7197 
6028 6029 7134 7133 6093 6094 7199 7198 
6029 6030 7135 7134 6094 6095 7200 7199 
6030 6031 7136 7135 6095 6096 7201 7200 
6031 6032 7137 7136 6096 6097 7202 7201 
6032 6033 7138 7137 6097 6098 7203 7202 
6033 6034 7139 7138 6098 6099 7204 7203 
6034 6035 7140 7139 6099 6100 7205 7204 
6035 6036 7141 7140 6100 6101 7206 7205 
6036 6037 7142 7141 6101 6102 7207 7206 
6037 6038 7143 7142 6102 6103 7208 7207 
6038 6039 7144 7143 6103 6104 7209 7208 
6039 6040 7145 7144 6104 6105 7210 7209 
6040 6041 7146 7145 6105 6106 7211 7210 
6041 6042 7147 7146 6106 6107 7212 7211 
6042 6043 7148 7147 6107 6108 7213 7212 
6043 6044 7149 7148 6108 6109 7214 7213 
6045 6046 7151 7150 6110 6111 7216 7215 
6046 6047 7152 7151 6111 6112 7217 7216 
6047 6048 7153 7152 6112 6113 7218 7217 
6048 6049 7154 7153 6113 6114 7219 7218 
6049 6050 7155 7154 6114 6115 7220 7219 
6050 6051 7156 7155 6115 6116 7221 7220 
6051 6052 7157 7156 6116 6117 7222 7221 
6052 6053 7158 7157 6117 6118 7223 7222 
6053 6054 7159 7158 6118 6119 7224 7223 
6054 6055 7160 7159 6119 6120 7225 7224 
6055 6056 7161 7160 6120 6121 7226 7225 
6056 6057 7162 7161 6121 6122 7227 7226 
6057 6058 7163 7162 6122 6123 7228 7227 
6058 6059 7164 7163 6123 6124 7229 7228 
6059 6060 7165 7164 6124 6125 7230 7229 
6060 6061 7166 7165 6125 6126 7231 7230 
6061 6062 7167 7166 6126 6127 7232 7231 
6062 6063 7168 7167 6127 6128 7233 7232 
6063 6064 7169 7168 6128 6129 7234 7233 
6064 6065 7170 7169 6129 6130 7235 7234 
6065 6066 7171 7170 6130 6131 7236 7235 
6066 6067 7172 7171 6131 6132 7237 7236 
6067 6068 7173 7172 6132 6133 7238 7237 
6068 6069 7174 7173 6133 6134 7239 7238 
6069 6070 7175 7174 6134 6135 7240 7239 
6070 6071 7176 7175 6135 6136 7241 7240 
6071 6072 7177 7176 6136 6137 7242 7241 
6072 6073 7178 7177 6137 6138 7243 7242 
6073 6074 7179 7178 6138 6139 7244 7243 
6074 6075 7180 7179 6139 6140 7245 7244 
6075 6076 7181 7180 6140 6141 7246 7245 
6076 6077 7182 7181 6141 6142 7247 7246 
6077 6078 7183 7182 6142 6143 7248 7247 
6078 6079 7184 7183 6143 6144 7249 7248 
6079 6080 7185 7184 6144 6145 7250 7249 
6080 6081 7186 7185 6145 6146 7251 7250 
6081 6082 7187 7186 6146 6147 7252 7251 
6082 6083 7188 7187 6147 6148 7253 7252 
6083 6084 7189 7188 6148 6149 7254 7253 
6084 6085 7190 7189 6149 6150 7255 7254 
6085 6086 7191 7190 6150 6151 7256 7255 
6086 6087 7192 7191 6151 6152 7257 7256 
6087 6088 7193 7192 6152 6153 7258 7257 
6088 6089 7194 7193 6153 6154 7259 7258 
6089 6090 7195 7194 6154 6155 7260 7259 
6090 6091 7196 7195 6155 6156 7261 7260 
6091 6092 7197 7196 6156 6157 7262 7261 
6092 6093 7198 7197 6157 6158 7263 7262 
6093 6094 7199 7198 6158 6159 7264 7263 
6094 6095 7200 7199 6159 6160 7265 7264 
6095 6096 7201 7200 6160 6161 7266 7265 
6096 6097 7202 7201 6161 6162 7267 7266 
6097 6098 7203 7202 6162 6163 7268 7267 
6098 6099 7204 7203 6163 6164 7269 7268 
6099 6100 7205 7204 6164 6165 7270 7269 
6100 6101 7206 7205 6165 6166 7271 7270 
6101 6102 7207 7206 6166 6167 7272 7271 
6102 6103 7208 7207 6167 6168 7273 7272 
6103 6104 7209 7208 6168 6169 7274 7273 
6104 6105 7210 7209 6169 6170 7275 7274 
6105 6106 7211 7210 6170 6171 7276 7275 
6106 6107 7212 7211 6171 6172 7277 7276 
6107 6108 7213 7212 6172 6173 7278 7277 
6108 6109 7214 7213 6173 6174 7279 7278 
6110 6111 7216 7215 6175 6176 7281 7280 
6111 6112 7217 7216 6176 6177 7282 7281 
6112 6113 7218 7217 6177 6178 7283 7282 
6113 6114 7219 7218 6178 6179 7284 7283 
6114 6115 7220 7219 6179 6180 7285 7284 
6115 6116 7221 7220 6180 6181 7286 7285 
6116 6117 7222 7221 6181 6182 7287 7286 
6117 6118 7223 7222 6182 6183 7288 7287 
6118 6119 7224 7223 6183 6184 7289 7288 
6119 6120 7225 7224 6184 6185 7290 7289 
6120 6121 7226 7225 6185 6186 7291 7290 
6121 6122 7227 7226 6186 6187 7292 7291 
6122 6123 7228 7227 6187 6188 7293 7292 
6123 6124 7229 7228 6188 6189 7294 7293 
6124 6125 7230 7229 6189 6190 7295 7294 
6125 6126 7231 7230 6190 6191 7296 7295 
6126 6127 7232 7231 6191 6192 7297 7296 
6127 6128 7233 7232 6192 6193 7298 7297 
6128 6129 7234 7233 6193 6194 7299 7298 
6129 6130 7235 7234 6194 6195 7300 7299 
6130 6131 7236 7235 6195 6196 7301 7300 
6131 6132 7237 7236 6196 6197 7302 7301 
6132 6133 7238 7237 6197 6198 7303 7302 
6133 6134 7239 7238 6198 6199 7304 7303 
6134 6135 7240 7239 6199 6200 7305 7304 
6135 6136 7241 7240 6200 6201 7306 7305 
6136 6137 7242 7241 6201 6202 7307 7306 
6137 6138 7243 7242 6202 6203 7308 7307 
6138 6139 7244 7243 6203 6204 7309 7308 
6139 6140 7245 7244 6204 6205 7310 7309 
6140 6141 7246 7245 6205 6206 7311 7310 
6141 6142 7247 7246 6206 6207 7312 7311 
6142 6143 7248 7247 6207 6208 7313 7312 
6143 6144 7249 7248 6208 6209 7314 7313 
6144 6145 7250 7249 6209 6210 7315 7314 
6145 6146 7251 7250 6210 6211 7316 7315 
6146 6147 7252 7251 6211 6212 7317 7316 
6147 6148 7253 7252 6212 6213 7318 7317 
6148 6149 7254 7253 6213 6214 7319 7318 
6149 6150 7255 7254 6214 6215 7320 7319 
6150 6151 7256 7255 6215 6216 7321 7320 
6151 6152 7257 7256 6216 6217 7322 7321 
6152 6153 7258 7257 6217 6218 7323 7322 
6153 6154 7259 7258 6218 6219 7324 7323 
6154 6155 7260 7259 6219 6220 7325 7324 
6155 6156 7261 7260 6220 6221 7326 7325 
6156 6157 7262 7261 6221 6222 7327 7326 
6157 6158 7263 7262 6222 6223 7328 7327 
6158 6159 7264 7263 6223 6224 7329 7328 
6159 6160 7265 7264 6224 6225 7330 7329 
6160 6161 7266 7265 6225 6226 7331 7330 
6161 6162 7267 7266 6226 6227 7332 7331 
6162 6163 7268 7267 6227 6228 7333 7332 
6163 6164 7269 7268 6228 6229 7334 7333 
6164 6165 7270 7269 6229 6230 7335 7334 
6165 6166 7271 7270 6230 6231 7336 7335 
6166 6167 7272 7271 6231 6232 7337 7336 
6167 6168 7273 7272 6232 6233 7338 7337 
6168 6169 7274 7273 6233 6234 7339 7338 
6169 6170 7275 7274 6234 6235 7340 7339 
6170 6171 7276 7275 6235 6236 7341 7340 
6171 6172 7277 7276 6236 6237 7342 7341 
6172 6173 7278 7277 6237 6238 7343 7342 
6173 6174 7279 7278 6238 6239 7344 7343 
6175 6176 7281 7280 6240 6241 7346 7345 
6176 6177 7282 7281 6241 6242 7347 7346 
6177 6178 7283 7282 6242 6243 7348 7347 
6178 6179 7284 7283 6243 6244 7349 7348 
6179 6180 7285 7284 6244 6245 7350 7349 
6180 6181 7286 7285 6245 6246 7351 7350 
6181 6182 7287 7286 6246 6247 7352 7351 
6182 6183 7288 7287 6247 6248 7353 7352 
6183 6184 7289 7288 6248 6249 7354 7353 
6184 6185 7290 7289 6249 6250 7355 7354 
6185 6186 7291 7290 6250 6251 7356 7355 
6186 6187 7292 7291 6251 6252 7357 7356 
6187 6188 7293 7292 6252 6253 7358 7357 
6188 6189 7294 7293 6253 6254 7359 7358 
6189 6190 7295 7294 6254 6255 7360 7359 
6190 6191 7296 7295 6255 6256 7361 7360 
6191 6192 7297 7296 6256 6257 7362 7361 
6192 6193 7298 7297 6257 6258 7363 7362 
6193 6194 7299 7298 6258 6259 7364 7363 
6194 6195 7300 7299 6259 6260 7365 7364 
6195 6196 7301 7300 6260 6261 7366 7365 
6196 6197 7302 7301 6261 6262 7367 7366 
6197 6198 7303 7302 6262 6263 7368 7367 
6198 6199 7304 7303 6263 6264 7369 7368 
6199 6200 7305 7304 6264 6265 7370 7369 
6200 6201 7306 7305 6265 6266 7371 7370 
6201 6202 7307 7306 6266 6267 7372 7371 
6202 6203 7308 7307 6267 6268 7373 7372 
6203 6204 7309 7308 6268 6269 7374 7373 
6204 6205 7310 7309 6269 6270 7375 7374 
6205 6206 7311 7310 6270 6271 7376 7375 
6206 6207 7312 7311 6271 6272 7377 7376 
6207 6208 7313 7312 6272 6273 7378 7377 
6208 6209 7314 7313 6273 6274 7379 7378 
6209 6210 7315 7314 6274 6275 7380 7379 
6210 6211 7316 7315 6275 6276 7381 7380 
6211 6212 7317 7316 6276 6277 7382 7381 
6212 6213 7318 7317 6277 6278 7383 7382 
6213 6214 7319 7318 6278 6279 7384 7383 
6214 6215 7320 7319 6279 6280 7385 7384 
6215 6216 7321 7320 6280 6281 7386 7385 
6216 6217 7322 7321 6281 6282 7387 7386 
6217 6218 7323 7322 6282 6283 7388 7387 
6218 6219 7324 7323 6283 6284 7389 7388 
6219 6220 7325 7324 6284 6285 7390 7389 
6220 6221 7326 7325 6285 6286 7391 7390 
6221 6222 7327 7326 6286 6287 7392 7391 
6222 6223 7328 7327 6287 6288 7393 7392 
6223 6224 7329 7328 6288 6289 7394 7393 
6224 6225 7330 7329 6289 6290 7395 7394 
6225 6226 7331 7330 6290 6291 7396 7395 
6226 6227 7332 7331 6291 6292 7397 7396 
6227 6228 7333 7332 6292 6293 7398 7397 
6228 6229 7334 7333 6293 6294 7399 7398 
6229 6230 7335 7334 6294 6295 7400 7399 
6230 6231 7336 7335 6295 6296 7401 7400 
6231 6232 7337 7336 6296 6297 7402 7401 
6232 6233 7338 7337 6297 6298 7403 7402 
6233 6234 7339 7338 6298 6299 7404 7403 
6234 6235 7340 7339 6299 6300 7405 7404 
6235 6236 7341 7340 6300 6301 7406 7405 
6236 6237 7342 7341 6301 6302 7407 7406 
6237 6238 7343 7342 6302 6303 7408 7407 
6238 6239 7344 7343 6303 6304 7409 7408 
6240 6241 7346 7345 6305 6306 7411 7410 
6241 6242 7347 7346 6306 6307 7412 7411 
6242 6243 7348 7347 6307 6308 7413 7412 
6243 6244 7349 7348 6308 6309 7414 7413 
6244 6245 7350 7349 6309 6310 7415 7414 
6245 6246 7351 7350 6310 6311 7416 7415 
6246 6247 7352 7351 6311 6312 7417 7416 
6247 6248 7353 7352 6312 6313 7418 7417 
6248 6249 7354 7353 6313 6314 7419 7418 
6249 6250 7355 7354 6314 6315 7420 7419 
6250 6251 7356 7355 6315 6316 7421 7420 
6251 6252 7357 7356 6316 6317 7422 7421 
6252 6253 7358 7357 6317 6318 7423 7422 
6253 6254 7359 7358 6318 6319 7424 7423 
6254 6255 7360 7359 6319 6320 7425 7424 
6255 6256 7361 7360 6320 6321 7426 7425 
6256 6257 7362 7361 6321 6322 7427 7426 
6257 6258 7363 7362 6322 6323 7428 7427 
6258 6259 7364 7363 6323 6324 7429 7428 
6259 6260 7365 7364 6324 6325 7430 7429 
6260 6261 7366 7365 6325 6326 7431 7430 
6261 6262 7367 7366 6326 6327 7432 7431 
6262 6263 7368 7367 6327 6328 7433 7432 
6263 6264 7369 7368 6328 6329 7434 7433 
6264 6265 7370 7369 6329 6330 7435 7434 
6265 6266 7371 7370 6330 6331 7436 7435 
6266 6267 7372 7371 6331 6332 7437 7436 
6267 6268 7373 7372 6332 6333 7438 7437 
6268 6269 7374 7373 6333 6334 7439 7438 
6269 6270 7375 7374 6334 6335 7440 7439 
6270 6271 7376 7375 6335 6336 7441 7440 
6271 6272 7377 7376 6336 6337 7442 7441 
6272 6273 7378 7377 6337 6338 7443 7442 
6273 6274 7379 7378 6338 6339 7444 7443 
6274 6275 7380 7379 6339 6340 7445 7444 
6275 6276 7381 7380 6340 6341 7446 7445 
6276 6277 7382 7381 6341 6342 7447 7446 
6277 6278 7383 7382 6342 6343 7448 7447 
6278 6279 7384 7383 6343 6344 7449 7448 
6279 6280 7385 7384 6344 6345 7450 7449 
6280 6281 7386 7385 6345 6346 7451 7450 
6281 6282 7387 7386 6346 6347 7452 7451 
6282 6283 7388 7387 6347 6348 7453 7452 
6283 6284 7389 7388 6348 6349 7454 7453 
6284 6285 7390 7389 6349 6350 7455 7454 
6285 6286 7391 7390 6350 6351 7456 7455 
6286 6287 7392 7391 6351 6352 7457 7456 
6287 6288 7393 7392 6352 6353 7458 7457 
6288 6289 7394 7393 6353 6354 7459 7458 
6289 6290 7395 7394 6354 6355 7460 7459 
6290 6291 7396 7395 6355 6356 7461 7460 
6291 6292 7397 7396 6356 6357 7462 7461 
6292 6293 7398 7397 6357 6358 7463 7462 
6293 6294 7399 7398 6358 6359 7464 7463 
6294 6295 7400 7399 6359 6360 7465 7464 
6295 6296 7401 7400 6360 6361 7466 7465 
6296 6297 7402 7401 6361 6362 7467 7466 
6297 6298 7403 7402 6362 6363 7468 7467 
6298 6299 7404 7403 6363 6364 7469 7468 
6299 6300 7405 7404 6364 6365 7470 7469 
6300 6301 7406 7405 6365 6366 7471 7470 
6301 6302 7407 7406 6366 6367 7472 7471 
6302 6303 7408 7407 6367 6368 7473 7472 
6303 6304 7409 7408 6368 6369 7474 7473 
6305 6306 7411 7410 6370 6371 7476 7475 
6306 6307 7412 7411 6371 6372 7477 7476 
6307 6308 7413 7412 6372 6373 7478 7477 
6308 6309 7414 7413 6373 6374 7479 7478 
6309 6310 7415 7414 6374 6375 7480 7479 
6310 6311 7416 7415 6375 6376 7481 7480 
6311 6312 7417 7416 6376 6377 7482 7481 
6312 6313 7418 7417 6377 6378 7483 7482 
6313 6314 7419 7418 6378 6379 7484 7483 
6314 6315 7420 7419 6379 6380 7485 7484 
6315 6316 7421 7420 6380 6381 7486 7485 
6316 6317 7422 7421 6381 6382 7487 7486 
6317 6318 7423 7422 6382 6383 7488 7487 
6318 6319 7424 7423 6383 6384 7489 7488 
6319 6320 7425 7424 6384 6385 7490 7489 
6320 6321 7426 7425 6385 6386 7491 7490 
6321 6322 7427 7426 6386 6387 7492 7491 
6322 6323 7428 7427 6387 6388 7493 7492 
6323 6324 7429 7428 6388 6389 7494 7493 
6324 6325 7430 7429 6389 6390 7495 7494 
6325 6326 7431 7430 6390 6391 7496 7495 
6326 6327 7432 7431 6391 6392 7497 7496 
6327 6328 7433 7432 6392 6393 7498 7497 
6328 6329 7434 7433 6393 6394 7499 7498 
6329 6330 7435 7434 6394 6395 7500 7499 
6330 6331 7436 7435 6395 6396 7501 7500 
6331 6332 7437 7436 6396 6397 7502 7501 
6332 6333 7438 7437 6397 6398 7503 7502 
6333 6334 7439 7438 6398 6399 7504 7503 
6334 6335 7440 7439 6399 6400 7505 7504 
6335 6336 7441 7440 6400 6401 7506 7505 
6336 6337 7442 7441 6401 6402 7507 7506 
6337 6338 7443 7442 6402 6403 7508 7507 
6338 6339 7444 7443 6403 6404 7509 7508 
6339 6340 7445 7444 6404 6405 7510 7509 
6340 6341 7446 7445 6405 6406 7511 7510 
6341 6342 7447 7446 6406 6407 7512 7511 
6342 6343 7448 7447 6407 6408 7513 7512 
6343 6344 7449 7448 6408 6409 7514 7513 
6344 6345 7450 7449 6409 6410 7515 7514 
6345 6346 7451 7450 6410 6411 7516 7515 
6346 6347 7452 7451 6411 6412 7517 7516 
6347 6348 7453 7452 6412 6413 7518 7517 
6348 6349 7454 7453 6413 6414 7519 7518 
6349 6350 7455 7454 6414 6415 7520 7519 
6350 6351 7456 7455 6415 6416 7521 7520 
6351 6352 7457 7456 6416 6417 7522 7521 
6352 6353 7458 7457 6417 6418 7523 7522 
6353 6354 7459 7458 6418 6419 7524 7523 
6354 6355 7460 7459 6419 6420 7525 7524 
6355 6356 7461 7460 6420 6421 7526 7525 
6356 6357 7462 7461 6421 6422 7527 7526 
6357 6358 7463 7462 6422 6423 7528 7527 
6358 6359 7464 7463 6423 6424 7529 7528 
6359 6360 7465 7464 6424 6425 7530 7529 
6360 6361 7466 7465 6425 6426 7531 7530 
6361 6362 7467 7466 6426 6427 7532 7531 
6362 6363 7468 7467 6427 6428 7533 7532 
6363 6364 7469 7468 6428 6429 7534 7533 
6364 6365 7470 7469 6429 6430 7535 7534 
6365 6366 7471 7470 6430 6431 7536 7535 
6366 6367 7472 7471 6431 6432 7537 7536 
6367 6368 7473 7472 6432 6433 7538 7537 
6368 6369 7474 7473 6433 6434 7539 7538 
6370 6371 7476 7475 6435 6436 7541 7540 
6371 6372 7477 7476 6436 6437 7542 7541 
6372 6373 7478 7477 6437 6438 7543 7542 
6373 6374 7479 7478 6438 6439 7544 7543 
6374 6375 7480 7479 6439 6440 7545 7544 
6375 6376 7481 7480 6440 6441 7546 7545 
6376 6377 7482 7481 6441 6442 7547 7546 
6377 6378 7483 7482 6442 6443 7548 7547 
6378 6379 7484 7483 6443 6444 7549 7548 
6379 6380 7485 7484 6444 6445 7550 7549 
6380 6381 7486 7485 6445 6446 7551 7550 
6381 6382 7487 7486 6446 6447 7552 7551 
6382 6383 7488 7487 6447 6448 7553 7552 
6383 6384 7489 7488 6448 6449 7554 7553 
6384 6385 7490 7489 6449 6450 7555 7554 
6385 6386 7491 7490 6450 6451 7556 7555 
6386 6387 7492 7491 6451 6452 7557 7556 
6387 6388 7493 7492 6452 6453 7558 7557 
6388 6389 7494 7493 6453 6454 7559 7558 
6389 6390 7495 7494 6454 6455 7560 7559 
6390 6391 7496 7495 6455 6456 7561 7560 
6391 6392 7497 7496 6456 6457 7562 7561 
6392 6393 7498 7497 6457 6458 7563 7562 
6393 6394 7499 7498 6458 6459 7564 7563 
6394 6395 7500 7499 6459 6460 7565 7564 
6395 6396 7501 7500 6460 6461 7566 7565 
6396 6397 7502 7501 6461 6462 7567 7566 
6397 6398 7503 7502 6462 6463 7568 7567 
6398 6399 7504 7503 6463 6464 7569 7568 
6399 6400 7505 7504 6464 6465 7570 7569 
6400 6401 7506 7505 6465 6466 7571 7570 
6401 6402 7507 7506 6466 6467 7572 7571 
6402 6403 7508 7507 6467 6468 7573 7572 
6403 6404 7509 7508 6468 6469 7574 7573 
6404 6405 7510 7509 6469 6470 7575 7574 
6405 6406 7511 7510 6470 6471 7576 7575 
6406 6407 7512 7511 6471 6472 7577 7576 
6407 6408 7513 7512 6472 6473 7578 7577 
6408 6409 7514 7513 6473 6474 7579 7578 
6409 6410 7515 7514 6474 6475 7580 7579 
6410 6411 7516 7515 6475 6476 7581 7580 
6411 6412 7517 7516 6476 6477 7582 7581 
6412 6413 7518 7517 6477 6478 7583 7582 
6413 6414 7519 7518 6478 6479 7584 7583 
6414 6415 7520 7519 6479 6480 7585 7584 
6415 6416 7521 7520 6480 6481 7586 7585 
6416 6417 7522 7521 6481 6482 7587 7586 
6417 6418 7523 7522 6482 6483 7588 7587 
6418 6419 7524 7523 6483 6484 7589 7588 
6419 6420 7525 7524 6484 6485 7590 7589 
6420 6421 7526 7525 6485 6486 7591 7590 
6421 6422 7527 7526 6486 6487 7592 7591 
6422 6423 7528 7527 6487 6488 7593 7592 
6423 6424 7529 7528 6488 6489 7594 7593 
6424 6425 7530 7529 6489 6490 7595 7594 
6425 6426 7531 7530 6490 6491 7596 7595 
6426 6427 7532 7531 6491 6492 7597 7596 
6427 6428 7533 7532 6492 6493 7598 7597 
6428 6429 7534 7533 6493 6494 7599 7598 
6429 6430 7535 7534 6494 6495 7600 7599 
6430 6431 7536 7535 6495 6496 7601 7600 
6431 6432 7537 7536 6496 6497 7602 7601 
6432 6433 7538 7537 6497 6498 7603 7602 
6433 6434 7539 7538 6498 6499 7604 7603 
6435 6436 7541 7540 6500 6501 7606 7605 
6436 6437 7542 7541 6501 6502 7607 7606 
6437 6438 7543 7542 6502 6503 7608 7607 
6438 6439 7544 7543 6503 6504 7609 7608 
6439 6440 7545 7544 6504 6505 7610 7609 
6440 6441 7546 7545 6505 6506 7611 7610 
6441 6442 7547 7546 6506 6507 7612 7611 
6442 6443 7548 7547 6507 6508 7613 7612 
6443 6444 7549 7548 6508 6509 7614 7613 
6444 6445 7550 7549 6509 6510 7615 7614 
6445 6446 7551 7550 6510 6511 7616 7615 
6446 6447 7552 7551 6511 6512 7617 7616 
6447 6448 7553 7552 6512 6513 7618 7617 
6448 6449 7554 7553 6513 6514 7619 7618 
6449 6450 7555 7554 6514 6515 7620 7619 
6450 6451 7556 7555 6515 6516 7621 7620 
6451 6452 7557 7556 6516 6517 7622 7621 
6452 6453 7558 7557 6517 6518 7623 7622 
6453 6454 7559 7558 6518 6519 7624 7623 
6454 6455 7560 7559 6519 6520 7625 7624 
6455 6456 7561 7560 6520 6521 7626 7625 
6456 6457 7562 7561 6521 6522 7627 7626 
6457 6458 7563 7562 6522 6523 7628 7627 
6458 6459 7564 7563 6523 6524 7629 7628 
6459 6460 7565 7564 6524 6525 7630 7629 
6460 6461 7566 7565 6525 6526 7631 7630 
6461 6462 7567 7566 6526 6527 7632 7631 
6462 6463 7568 7567 6527 6528 7633 7632 
6463 6464 7569 7568 6528 6529 7634 7633 
6464 6465 7570 7569 6529 6530 7635 7634 
6465 6466 7571 7570 6530 6531 7636 7635 
6466 6467 7572 7571 6531 6532 7637 7636 
6467 6468 7573 7572 6532 6533 7638 7637 
6468 6469 7574 7573 6533 6534 7639 7638 
6469 6470 7575 7574 6534 6535 7640 7639 
6470 6471 7576 7575 6535 6536 7641 7640 
6471 6472 7577 7576 6536 6537 7642 7641 
6472 6473 7578 7577 6537 6538 7643 7642 
6473 6474 7579 7578 6538 6539 7644 7643 
6474 6475 7580 7579 6539 6540 7645 7644 
6475 6476 7581 7580 6540 6541 7646 7645 
6476 6477 7582 7581 6541 6542 7647 7646 
6477 6478 7583 7582 6542 6543 7648 7647 
6478 6479 7584 7583 6543 6544 7649 7648 
6479 6480 7585 7584 6544 6545 7650 7649 
6480 6481 7586 7585 6545 6546 7651 7650 
6481 6482 7587 7586 6546 6547 7652 7651 
6482 6483 7588 7587 6547 6548 7653 7652 
6483 6484 7589 7588 6548 6549 7654 7653 
6484 6485 7590 7589 6549 6550 7655 7654 
6485 6486 7591 7590 6550 6551 7656 7655 
6486 6487 7592 7591 6551 6552 7657 7656 
6487 6488 7593 7592 6552 6553 7658 7657 
6488 6489 7594 7593 6553 6554 7659 7658 
6489 6490 7595 7594 6554 6555 7660 7659 
6490 6491 7596 7595 6555 6556 7661 7660 
6491 6492 7597 7596 6556 6557 7662 7661 
6492 6493 7598 7597 6557 6558 7663 7662 
6493 6494 7599 7598 6558 6559 7664 7663 
6494 6495 7600 7599 6559 6560 7665 7664 
6495 6496 7601 7600 6560 6561 7666 7665 
6496 6497 7602 7601 6561 6562 7667 7666 
6497 6498 7603 7602 6562 6563 7668 7667 
6498 6499 7604 7603 6563 6564 7669 7668 
6500 6501 7606 7605 6565 6566 7671 7670 
6501 6502 7607 7606 6566 6567 7672 7671 
6502 6503 7608 7607 6567 6568 7673 7672 
6503 6504 7609 7608 6568 6569 7674 7673 
6504 6505 7610 7609 6569 6570 7675 7674 
6505 6506 7611 7610 6570 6571 7676 7675 
6506 6507 7612 7611 6571 6572 7677 7676 
6507 6508 7613 7612 6572 6573 7678 7677 
6508 6509 7614 7613 6573 6574 7679 7678 
6509 6510 7615 7614 6574 6575 7680 7679 
6510 6511 7616 7615 6575 6576 7681 7680 
6511 6512 7617 7616 6576 6577 7682 7681 
6512 6513 7618 7617 6577 6578 7683 7682 
6513 6514 7619 7618 6578 6579 7684 7683 
6514 6515 7620 7619 6579 6580 7685 7684 
6515 6516 7621 7620 6580 6581 7686 7685 
6516 6517 7622 7621 6581 6582 7687 7686 
6517 6518 7623 7622 6582 6583 7688 7687 
6518 6519 7624 7623 6583 6584 7689 7688 
6519 6520 7625 7624 6584 6585 7690 7689 
6520 6521 7626 7625 6585 6586 7691 7690 
6521 6522 7627 7626 6586 6587 7692 7691 
6522 6523 7628 7627 6587 6588 7693 7692 
6523 6524 7629 7628 6588 6589 7694 7693 
6524 6525 7630 7629 6589 6590 7695 7694 
6525 6526 7631 7630 6590 6591 7696 7695 
6526 6527 7632 7631 6591 6592 7697 7696 
6527 6528 7633 7632 6592 6593 7698 7697 
6528 6529 7634 7633 6593 6594 7699 7698 
6529 6530 7635 7634 6594 6595 7700 7699 
6530 6531 7636 7635 6595 6596 7701 7700 
6531 6532 7637 7636 6596 6597 7702 7701 
6532 6533 7638 7637 6597 6598 7703 7702 
6533 6534 7639 7638 6598 6599 7704 7703 
6534 6535 7640 7639 6599 6600 7705 7704 
6535 6536 7641 7640 6600 6601 7706 7705 
6536 6537 7642 7641 6601 6602 7707 7706 
6537 6538 7643 7642 6602 6603 7708 7707 
6538 6539 7644 7643 6603 6604 7709 7708 
6539 6540 7645 7644 6604 6605 7710 7709 
6540 6541 7646 7645 6605 6606 7711 7710 
6541 6542 7647 7646 6606 6607 7712 7711 
6542 6543 7648 7647 6607 6608 7713 7712 
6543 6544 7649 7648 6608 6609 7714 7713 
6544 6545 7650 7649 6609 6610 7715 7714 
6545 6546 7651 7650 6610 6611 7716 7715 
6546 6547 7652 7651 6611 6612 7717 7716 
6547 6548 7653 7652 6612 6613 7718 7717 
6548 6549 7654 7653 6613 6614 7719 7718 
6549 6550 7655 7654 6614 6615 7720 7719 
6550 6551 7656 7655 6615 6616 7721 7720 
6551 6552 7657 7656 6616 6617 7722 7721 
6552 6553 7658 7657 6617 6618 7723 7722 
6553 6554 7659 7658 6618 6619 7724 7723 
6554 6555 7660 7659 6619 6620 7725 7724 
6555 6556 7661 7660 6620 6621 7726 7725 
6556 6557 7662 7661 6621 6622 7727 7726 
6557 6558 7663 7662 6622 6623 7728 7727 
6558 6559 7664 7663 6623 6624 7729 7728 
6559 6560 7665 7664 6624 6625 7730 7729 
6560 6561 7666 7665 6625 6626 7731 7730 
6561 6562 7667 7666 6626 6627 7732 7731 
6562 6563 7668 7667 6627 6628 7733 7732 
6563 6564 7669 7668 6628 6629 7734 7733 
6630 6631 7736 7735 6695 6696 7801 7800 
6631 6632 7737 7736 6696 6697 7802 7801 
6632 6633 7738 7737 6697 6698 7803 7802 
6633 6634 7739 7738 6698 6699 7804 7803 
6634 6635 7740 7739 6699 6700 7805 7804 
6635 6636 7741 7740 6700 6701 7806 7805 
6636 6637 7742 7741 6701 6702 7807 7806 
6637 6638 7743 7742 6702 6703 7808 7807 
6638 6639 7744 7743 6703 6704 7809 7808 
6639 6640 7745 7744 6704 6705 7810 7809 
6640 6641 7746 7745 6705 6706 7811 7810 
6641 6642 7747 7746 6706 6707 7812 7811 
6642 6643 7748 7747 6707 6708 7813 7812 
6643 6644 7749 7748 6708 6709 7814 7813 
6644 6645 7750 7749 6709 6710 7815 7814 
6645 6646 7751 7750 6710 6711 7816 7815 
6646 6647 7752 7751 6711 6712 7817 7816 
6647 6648 7753 7752 6712 6713 7818 7817 
6648 6649 7754 7753 6713 6714 7819 7818 
6649 6650 7755 7754 6714 6715 7820 7819 
6650 6651 7756 7755 6715 6716 7821 7820 
6651 6652 7757 7756 6716 6717 7822 7821 
6652 6653 7758 7757 6717 6718 7823 7822 
6653 6654 7759 7758 6718 6719 7824 7823 
6654 6655 7760 7759 6719 6720 7825 7824 
6655 6656 7761 7760 6720 6721 7826 7825 
6656 6657 7762 7761 6721 6722 7827 7826 
6657 6658 7763 7762 6722 6723 7828 7827 
6658 6659 7764 7763 6723 6724 7829 7828 
6659 6660 7765 7764 6724 6725 7830 7829 
6660 6661 7766 7765 6725 6726 7831 7830 
6661 6662 7767 7766 6726 6727 7832 7831 
6662 6663 7768 7767 6727 6728 7833 7832 
6663 6664 7769 7768 6728 6729 7834 7833 
6664 6665 7770 7769 6729 6730 7835 7834 
6665 6666 7771 7770 6730 6731 7836 7835 
6666 6667 7772 7771 6731 6732 7837 7836 
6667 6668 7773 7772 6732 6733 7838 7837 
6668 6669 7774 7773 6733 6734 7839 7838 
6669 6670 7775 7774 6734 6735 7840 7839 
6670 6671 7776 7775 6735 6736 7841 7840 
6671 6672 7777 7776 6736 6737 7842 7841 
6672 6673 7778 7777 6737 6738 7843 7842 
6673 6674 7779 7778 6738 6739 7844 7843 
6674 6675 7780 7779 6739 6740 7845 7844 
6675 6676 7781 7780 6740 6741 7846 7845 
6676 6677 7782 7781 6741 6742 7847 7846 
6677 6678 7783 7782 6742 6743 7848 7847 
6678 6679 7784 7783 6743 6744 7849 7848 
6679 6680 7785 7784 6744 6745 7850 7849 
6680 6681 7786 7785 6745 6746 7851 7850 
6681 6682 7787 7786 6746 6747 7852 7851 
6682 6683 7788 7787 6747 6748 7853 7852 
6683 6684 7789 7788 6748 6749 7854 7853 
6684 6685 7790 7789 6749 6750 7855 7854 
6685 6686 7791 7790 6750 6751 7856 7855 
6686 6687 7792 7791 6751 6752 7857 7856 
6687 6688 7793 7792 6752 6753 7858 7857 
6688 6689 7794 7793 6753 6754 7859 7858 
6689 6690 7795 7794 6754 6755 7860 7859 
6690 6691 7796 7795 6755 6756 7861 7860 
6691 6692 7797 7796 6756 6757 7862 7861 
6692 6693 7798 7797 6757 6758 7863 7862 
6693 6694 7799 7798 6758 6759 7864 7863 
6695 6696 7801 7800 6760 6761 7866 7865 
6696 6697 7802 7801 6761 6762 7867 7866 
6697 6698 7803 7802 6762 6763 7868 7867 
6698 6699 7804 7803 6763 6764 7869 7868 
6699 6700 7805 7804 6764 6765 7870 7869 
6700 6701 7806 7805 6765 6766 7871 7870 
6701 6702 7807 7806 6766 6767 7872 7871 
6702 6703 7808 7807 6767 6768 7873 7872 
6703 6704 7809 7808 6768 6769 7874 7873 
6704 6705 7810 7809 6769 6770 7875 7874 
6705 6706 7811 7810 6770 6771 7876 7875 
6706 6707 7812 7811 6771 6772 7877 7876 
6707 6708 7813 7812 6772 6773 7878 7877 
6708 6709 7814 7813 6773 6774 7879 7878 
6709 6710 7815 7814 6774 6775 7880 7879 
6710 6711 7816 7815 6775 6776 7881 7880 
6711 6712 7817 7816 6776 6777 7882 7881 
6712 6713 7818 7817 6777 6778 7883 7882 
6713 6714 7819 7818 6778 6779 7884 7883 
6714 6715 7820 7819 6779 6780 7885 7884 
6715 6716 7821 7820 6780 6781 7886 7885 
6716 6717 7822 7821 6781 6782 7887 7886 
6717 6718 7823 7822 6782 6783 7888 7887 
6718 6719 7824 7823 6783 6784 7889 7888 
6719 6720 7825 7824 6784 6785 7890 7889 
6720 6721 7826 7825 6785 6786 7891 7890 
6721 6722 7827 7826 6786 6787 7892 7891 
6722 6723 7828 7827 6787 6788 7893 7892 
6723 6724 7829 7828 6788 6789 7894 7893 
6724 6725 7830 7829 6789 6790 7895 7894 
6725 6726 7831 7830 6790 6791 7896 7895 
6726 6727 7832 7831 6791 6792 7897 7896 
6727 6728 7833 7832 6792 6793 7898 7897 
6728 6729 7834 7833 6793 6794 7899 7898 
6729 6730 7835 7834 6794 6795 7900 7899 
6730 6731 7836 7835 6795 6796 7901 7900 
6731 6732 7837 7836 6796 6797 7902 7901 
6732 6733 7838 7837 6797 6798 7903 7902 
6733 6734 7839 7838 6798 6799 7904 7903 
6734 6735 7840 7839 6799 6800 7905 7904 
6735 6736 7841 7840 6800 6801 7906 7905 
6736 6737 7842 7841 6801 6802 7907 7906 
6737 6738 7843 7842 6802 6803 7908 7907 
6738 6739 7844 7843 6803 6804 7909 7908 
6739 6740 7845 7844 6804 6805 7910 7909 
6740 6741 7846 7845 6805 6806 7911 7910 
6741 6742 7847 7846 6806 6807 7912 7911 
6742 6743 7848 7847 6807 6808 7913 7912 
6743 6744 7849 7848 6808 6809 7914 7913 
6744 6745 7850 7849 6809 6810 7915 7914 
6745 6746 7851 7850 6810 6811 7916 7915 
6746 6747 7852 7851 6811 6812 7917 7916 
6747 6748 7853 7852 6812 6813 7918 7917 
6748 6749 7854 7853 6813 6814 7919 7918 
6749 6750 7855 7854 6814 6815 7920 7919 
6750 6751 7856 7855 6815 6816 7921 7920 
6751 6752 7857 7856 6816 6817 7922 7921 
6752 6753 7858 7857 6817 6818 7923 7922 
6753 6754 7859 7858 6818 6819 7924 7923 
6754 6755 7860 7859 6819 6820 7925 7924 
6755 6756 7861 7860 6820 6821 7926 7925 
6756 6757 7862 7861 6821 6822 7927 7926 
6757 6758 7863 7862 6822 6823 7928 7927 
6758 6759 7864 7863 6823 6824 7929 7928 
6760 6761 7866 7865 6825 6826 7931 7930 
6761 6762 7867 7866 6826 6827 7932 7931 
6762 6763 7868 7867 6827 6828 7933 7932 
6763 6764 7869 7868 6828 6829 7934 7933 
6764 6765 7870 7869 6829 6830 7935 7934 
6765 6766 7871 7870 6830 6831 7936 7935 
6766 6767 7872 7871 6831 6832 7937 7936 
6767 6768 7873 7872 6832 6833 7938 7937 
6768 6769 7874 7873 6833 6834 7939 7938 
6769 6770 7875 7874 6834 6835 7940 7939 
6770 6771 7876 7875 6835 6836 7941 7940 
6771 6772 7877 7876 6836 6837 7942 7941 
6772 6773 7878 7877 6837 6838 7943 7942 
6773 6774 7879 7878 6838 6839 7944 7943 
6774 6775 7880 7879 6839 6840 7945 7944 
6775 6776 7881 7880 6840 6841 7946 7945 
6776 6777 7882 7881 6841 6842 7947 7946 
6777 6778 7883 7882 6842 6843 7948 7947 
6778 6779 7884 7883 6843 6844 7949 7948 
6779 6780 7885 7884 6844 6845 7950 7949 
6780 6781 7886 7885 6845 6846 7951 7950 
6781 6782 7887 7886 6846 6847 7952 7951 
6782 6783 7888 7887 6847 6848 7953 7952 
6783 6784 7889 7888 6848 6849 7954 7953 
6784 6785 7890 7889 6849 6850 7955 7954 
6785 6786 7891 7890 6850 6851 7956 7955 
6786 6787 7892 7891 6851 6852 7957 7956 
6787 6788 7893 7892 6852 6853 7958 7957 
6788 6789 7894 7893 6853 6854 7959 7958 
6789 6790 7895 7894 6854 6855 7960 7959 
6790 6791 7896 7895 6855 6856 7961 7960 
6791 6792 7897 7896 6856 6857 7962 7961 
6792 6793 7898 7897 6857 6858 7963 7962 
6793 6794 7899 7898 6858 6859 7964 7963 
6794 6795 7900 7899 6859 6860 7965 7964 
6795 6796 7901 7900 6860 6861 7966 7965 
6796 6797 7902 7901 6861 6862 7967 7966 
6797 6798 7903 7902 6862 6863 7968 7967 
6798 6799 7904 7903 6863 6864 7969 7968 
6799 6800 7905 7904 6864 6865 7970 7969 
6800 6801 7906 7905 6865 6866 7971 7970 
6801 6802 7907 7906 6866 6867 7972 7971 
6802 6803 7908 7907 6867 6868 7973 7972 
6803 6804 7909 7908 6868 6869 7974 7973 
6804 6805 7910 7909 6869 6870 7975 7974 
6805 6806 7911 7910 6870 6871 7976 7975 
6806 6807 7912 7911 6871 6872 7977 7976 
6807 6808 7913 7912 6872 6873 7978 7977 
6808 6809 7914 7913 6873 6874 7979 7978 
6809 6810 7915 7914 6874 6875 7980 7979 
6810 6811 7916 7915 6875 6876 7981 7980 
6811 6812 7917 7916 6876 6877 7982 7981 
6812 6813 7918 7917 6877 6878 7983 7982 
6813 6814 7919 7918 6878 6879 7984 7983 
6814 6815 7920 7919 6879 6880 7985 7984 
6815 6816 7921 7920 6880 6881 7986 7985 
6816 6817 7922 7921 6881 6882 7987 7986 
6817 6818 7923 7922 6882 6883 7988 7987 
6818 6819 7924 7923 6883 6884 7989 7988 
6819 6820 7925 7924 6884 6885 7990 7989 
6820 6821 7926 7925 6885 6886 7991 7990 
6821 6822 7927 7926 6886 6887 7992 7991 
6822 6823 7928 7927 6887 6888 7993 7992 
6823 6824 7929 7928 6888 6889 7994 7993 
6825 6826 7931 7930 6890 6891 7996 7995 
6826 6827 7932 7931 6891 6892 7997 7996 
6827 6828 7933 7932 6892 6893 7998 7997 
6828 6829 7934 7933 6893 6894 7999 7998 
6829 6830 7935 7934 6894 6895 8000 7999 
6830 6831 7936 7935 6895 6896 8001 8000 
6831 6832 7937 7936 6896 6897 8002 8001 
6832 6833 7938 7937 6897 6898 8003 8002 
6833 6834 7939 7938 6898 6899 8004 8003 
6834 6835 7940 7939 6899 6900 8005 8004 
6835 6836 7941 7940 6900 6901 8006 8005 
6836 6837 7942 7941 6901 6902 8007 8006 
6837 6838 7943 7942 6902 6903 8008 8007 
6838 6839 7944 7943 6903 6904 8009 8008 
6839 6840 7945 7944 6904 6905 8010 8009 
6840 6841 7946 7945 6905 6906 8011 8010 
6841 6842 7947 7946 6906 6907 8012 8011 
6842 6843 7948 7947 6907 6908 8013 8012 
6843 6844 7949 7948 6908 6909 8014 8013 
6844 6845 7950 7949 6909 6910 8015 8014 
6845 6846 7951 7950 6910 6911 8016 8015 
6846 6847 7952 7951 6911 6912 8017 8016 
6847 6848 7953 7952 6912 6913 8018 8017 
6848 6849 7954 7953 6913 6914 8019 8018 
6849 6850 7955 7954 6914 6915 8020 8019 
6850 6851 7956 7955 6915 6916 8021 8020 
6851 6852 7957 7956 6916 6917 8022 8021 
6852 6853 7958 7957 6917 6918 8023 8022 
6853 6854 7959 7958 6918 6919 8024 8023 
6854 6855 7960 7959 6919 6920 8025 8024 
6855 6856 7961 7960 6920 6921 8026 8025 
6856 6857 7962 7961 6921 6922 8027 8026 
6857 6858 7963 7962 6922 6923 8028 8027 
6858 6859 7964 7963 6923 6924 8029 8028 
6859 6860 7965 7964 6924 6925 8030 8029 
6860 6861 7966 7965 6925 6926 8031 8030 
6861 6862 7967 7966 6926 6927 8032 8031 
6862 6863 7968 7967 6927 6928 8033 8032 
6863 6864 7969 7968 6928 6929 8034 8033 
6864 6865 7970 7969 6929 6930 8035 8034 
6865 6866 7971 7970 6930 6931 8036 8035 
6866 6867 7972 7971 6931 6932 8037 8036 
6867 6868 7973 7972 6932 6933 8038 8037 
6868 6869 7974 7973 6933 6934 8039 8038 
6869 6870 7975 7974 6934 6935 8040 8039 
6870 6871 7976 7975 6935 6936 8041 8040 
6871 6872 7977 7976 6936 6937 8042 8041 
6872 6873 7978 7977 6937 6938 8043 8042 
6873 6874 7979 7978 6938 6939 8044 8043 
6874 6875 7980 7979 6939 6940 8045 8044 
6875 6876 7981 7980 6940 6941 8046 8045 
6876 6877 7982 7981 6941 6942 8047 8046 
6877 6878 7983 7982 6942 6943 8048 8047 
6878 6879 7984 7983 6943 6944 8049 8048 
6879 6880 7985 7984 6944 6945 8050 8049 
6880 6881 7986 7985 6945 6946 8051 8050 
6881 6882 7987 7986 6946 6947 8052 8051 
6882 6883 7988 7987 6947 6948 8053 8052 
6883 6884 7989 7988 6948 6949 8054 8053 
6884 6885 7990 7989 6949 6950 8055 8054 
6885 6886 7991 7990 6950 6951 8056 8055 
6886 6887 7992 7991 6951 6952 8057 8056 
6887 6888 7993 7992 6952 6953 8058 8057 
6888 6889 7994 7993 6953 6954 8059 8058 
6890 6891 7996 7995 6955 6956 8061 8060 
6891 6892 7997 7996 6956 6957 8062 8061 
6892 6893 7998 7997 6957 6958 8063 8062 
6893 6894 7999 7998 6958 6959 8064 8063 
6894 6895 8000 7999 6959 6960 8065 8064 
6895 6896 8001 8000 6960 6961 8066 8065 
6896 6897 8002 8001 6961 6962 8067 8066 
6897 6898 8003 8002 6962 6963 8068 8067 
6898 6899 8004 8003 6963 6964 8069 8068 
6899 6900 8005 8004 6964 6965 8070 8069 
6900 6901 8006 8005 6965 6966 8071 8070 
6901 6902 8007 8006 6966 6967 8072 8071 
6902 6903 8008 8007 6967 6968 8073 8072 
6903 6904 8009 8008 6968 6969 8074 8073 
6904 6905 8010 8009 6969 6970 8075 8074 
6905 6906 8011 8010 6970 6971 8076 8075 
6906 6907 8012 8011 6971 6972 8077 8076 
6907 6908 8013 8012 6972 6973 8078 8077 
6908 6909 8014 8013 6973 6974 8079 8078 
6909 6910 8015 8014 6974 6975 8080 8079 
6910 6911 8016 8015 6975 6976 8081 8080 
6911 6912 8017 8016 6976 6977 8082 8081 
6912 6913 8018 8017 6977 6978 8083 8082 
6913 6914 8019 8018 6978 6979 8084 8083 
6914 6915 8020 8019 6979 6980 8085 8084 
6915 6916 8021 8020 6980 6981 8086 8085 
6916 6917 8022 8021 6981 6982 8087 8086 
6917 6918 8023 8022 6982 6983 8088 8087 
6918 6919 8024 8023 6983 6984 8089 8088 
6919 6920 8025 8024 6984 6985 8090 8089 
6920 6921 8026 8025 6985 6986 8091 8090 
6921 6922 8027 8026 6986 6987 8092 8091 
6922 6923 8028 8027 6987 6988 8093 8092 
6923 6924 8029 8028 6988 6989 8094 8093 
6924 6925 8030 8029 6989 6990 8095 8094 
6925 6926 8031 8030 6990 6991 8096 8095 
6926 6927 8032 8031 6991 6992 8097 8096 
6927 6928 8033 8032 6992 6993 8098 8097 
6928 6929 8034 8033 6993 6994 8099 8098 
6929 6930 8035 8034 6994 6995 8100 8099 
6930 6931 8036 8035 6995 6996 8101 8100 
6931 6932 8037 8036 6996 6997 8102 8101 
6932 6933 8038 8037 6997 6998 8103 8102 
6933 6934 8039 8038 6998 6999 8104 8103 
6934 6935 8040 8039 6999 7000 8105 8104 
6935 6936 8041 8040 7000 7001 8106 8105 
6936 6937 8042 8041 7001 7002 8107 8106 
6937 6938 8043 8042 7002 7003 8108 8107 
6938 6939 8044 8043 7003 7004 8109 8108 
6939 6940 8045 8044 7004 7005 8110 8109 
6940 6941 8046 8045 7005 7006 8111 8110 
6941 6942 8047 8046 7006 7007 8112 8111 
6942 6943 8048 8047 7007 7008 8113 8112 
6943 6944 8049 8048 7008 7009 8114 8113 
6944 6945 8050 8049 7009 7010 8115 8114 
6945 6946 8051 8050 7010 7011 8116 8115 
6946 6947 8052 8051 7011 7012 8117 8116 
6947 6948 8053 8052 7012 7013 8118 8117 
6948 6949 8054 8053 7013 7014 8119 8118 
6949 6950 8055 8054 7014 7015 8120 8119 
6950 6951 8056 8055 7015 7016 8121 8120 
6951 6952 8057 8056 7016 7017 8122 8121 
6952 6953 8058 8057 7017 7018 8123 8122 
6953 6954 8059 8058 7018 7019 8124 8123 
6955 6956 8061 8060 7020 7021 8126 8125 
6956 6957 8062 8061 7021 7022 8127 8126 
6957 6958 8063 8062 7022 7023 8128 8127 
6958 6959 8064 8063 7023 7024 8129 8128 
6959 6960 8065 8064 7024 7025 8130 8129 
6960 6961 8066 8065 7025 7026 8131 8130 
6961 6962 8067 8066 7026 7027 8132 8131 
6962 6963 8068 8067 7027 7028 8133 8132 
6963 6964 8069 8068 7028 7029 8134 8133 
6964 6965 8070 8069 7029 7030 8135 8134 
6965 6966 8071 8070 7030 7031 8136 8135 
6966 6967 8072 8071 7031 7032 8137 8136 
6967 6968 8073 8072 7032 7033 8138 8137 
6968 6969 8074 8073 7033 7034 8139 8138 
6969 6970 8075 8074 7034 7035 8140 8139 
6970 6971 8076 8075 7035 7036 8141 8140 
6971 6972 8077 8076 7036 7037 8142 8141 
6972 6973 8078 8077 7037 7038 8143 8142 
6973 6974 8079 8078 7038 7039 8144 8143 
6974 6975 8080 8079 7039 7040 8145 8144 
6975 6976 8081 8080 7040 7041 8146 8145 
6976 6977 8082 8081 7041 7042 8147 8146 
6977 6978 8083 8082 7042 7043 8148 8147 
6978 6979 8084 8083 7043 7044 8149 8148 
6979 6980 8085 8084 7044 7045 8150 8149 
6980 6981 8086 8085 7045 7046 8151 8150 
6981 6982 8087 8086 7046 7047 8152 8151 
6982 6983 8088 8087 7047 7048 8153 8152 
6983 6984 8089 8088 7048 7049 8154 8153 
6984 6985 8090 8089 7049 7050 8155 8154 
6985 6986 8091 8090 7050 7051 8156 8155 
6986 6987 8092 8091 7051 7052 8157 8156 
6987 6988 8093 8092 7052 7053 8158 8157 
6988 6989 8094 8093 7053 7054 8159 8158 
6989 6990 8095 8094 7054 7055 8160 8159 
6990 6991 8096 8095 7055 7056 8161 8160 
6991 6992 8097 8096 7056 7057 8162 8161 
6992 6993 8098 8097 7057 7058 8163 8162 
6993 6994 8099 8098 7058 7059 8164 8163 
6994 6995 8100 8099 7059 7060 8165 8164 
6995 6996 8101 8100 7060 7061 8166 8165 
6996 6997 8102 8101 7061 7062 8167 8166 
6997 6998 8103 8102 7062 7063 8168 8167 
6998 6999 8104 8103 7063 7064 8169 8168 
6999 7000 8105 8104 7064 7065 8170 8169 
7000 7001 8106 8105 7065 7066 8171 8170 
7001 7002 8107 8106 7066 7067 8172 8171 
7002 7003 8108 8107 7067 7068 8173 8172 
7003 7004 8109 8108 7068 7069 8174 8173 
7004 7005 8110 8109 7069 7070 8175 8174 
7005 7006 8111 8110 7070 7071 8176 8175 
7006 7007 8112 8111 7071 7072 8177 8176 
7007 7008 8113 8112 7072 7073 8178 8177 
7008 7009 8114 8113 7073 7074 8179 8178 
7009 7010 8115 8114 7074 7075 8180 8179 
7010 7011 8116 8115 7075 7076 8181 8180 
7011 7012 8117 8116 7076 7077 8182 8181 
7012 7013 8118 8117 7077 7078 8183 8182 
7013 7014 8119 8118 7078 7079 8184 8183 
7014 7015 8120 8119 7079 7080 8185 8184 
7015 7016 8121 8120 7080 7081 8186 8185 
7016 7017 8122 8121 7081 7082 8187 8186 
7017 7018 8123 8122 7082 7083 8188 8187 
7018 7019 8124 8123 7083 7084 8189 8188 
7020 7021 8126 8125 7085 7086 8191 8190 
7021 7022 8127 8126 7086 7087 8192 8191 
7022 7023 8128 8127 7087 7088 8193 8192 
7023 7024 8129 8128 7088 7089 8194 8193 
7024 7025 8130 8129 7089 7090 8195 8194 
7025 7026 8131 8130 7090 7091 8196 8195 
7026 7027 8132 8131 7091 7092 8197 8196 
7027 7028 8133 8132 7092 7093 8198 8197 
7028 7029 8134 8133 7093 7094 8199 8198 
7029 7030 8135 8134 7094 7095 8200 8199 
7030 7031 8136 8135 7095 7096 8201 8200 
7031 7032 8137 8136 7096 7097 8202 8201 
7032 7033 8138 8137 7097 7098 8203 8202 
7033 7034 8139 8138 7098 7099 8204 8203 
7034 7035 8140 8139 7099 7100 8205 8204 
7035 7036 8141 8140 7100 7101 8206 8205 
7036 7037 8142 8141 7101 7102 8207 8206 
7037 7038 8143 8142 7102 7103 8208 8207 
7038 7039 8144 8143 7103 7104 8209 8208 
7039 7040 8145 8144 7104 7105 8210 8209 
7040 7041 8146 8145 7105 7106 8211 8210 
7041 7042 8147 8146 7106 7107 8212 8211 
7042 7043 8148 8147 7107 7108 8213 8212 
7043 7044 8149 8148 7108 7109 8214 8213 
7044 7045 8150 8149 7109 7110 8215 8214 
7045 7046 8151 8150 7110 7111 8216 8215 
7046 7047 8152 8151 7111 7112 8217 8216 
7047 7048 8153 8152 7112 7113 8218 8217 
7048 7049 8154 8153 7113 7114 8219 8218 
7049 7050 8155 8154 7114 7115 8220 8219 
7050 7051 8156 8155 7115 7116 8221 8220 
7051 7052 8157 8156 7116 7117 8222 8221 
7052 7053 8158 8157 7117 7118 8223 8222 
7053 7054 8159 8158 7118 7119 8224 8223 
7054 7055 8160 8159 7119 7120 8225 8224 
7055 7056 8161 8160 7120 7121 8226 8225 
7056 7057 8162 8161 7121 7122 8227 8226 
7057 7058 8163 8162 7122 7123 8228 8227 
7058 7059 8164 8163 7123 7124 8229 8228 
7059 7060 8165 8164 7124 7125 8230 8229 
7060 7061 8166 8165 7125 7126 8231 8230 
7061 7062 8167 8166 7126 7127 8232 8231 
7062 7063 8168 8167 7127 7128 8233 8232 
7063 7064 8169 8168 7128 7129 8234 8233 
7064 7065 8170 8169 7129 7130 8235 8234 
7065 7066 8171 8170 7130 7131 8236 8235 
7066 7067 8172 8171 7131 7132 8237 8236 
7067 7068 8173 8172 7132 7133 8238 8237 
7068 7069 8174 8173 7133 7134 8239 8238 
7069 7070 8175 8174 7134 7135 8240 8239 
7070 7071 8176 8175 7135 7136 8241 8240 
7071 7072 8177 8176 7136 7137 8242 8241 
7072 7073 8178 8177 7137 7138 8243 8242 
7073 7074 8179 8178 7138 7139 8244 8243 
7074 7075 8180 8179 7139 7140 8245 8244 
7075 7076 8181 8180 7140 7141 8246 8245 
7076 7077 8182 8181 7141 7142 8247 8246 
7077 7078 8183 8182 7142 7143 8248 8247 
7078 7079 8184 8183 7143 7144 8249 8248 
7079 7080 8185 8184 7144 7145 8250 8249 
7080 7081 8186 8185 7145 7146 8251 8250 
7081 7082 8187 8186 7146 7147 8252 8251 
7082 7083 8188 8187 7147 7148 8253 8252 
7083 7084 8189 8188 7148 7149 8254 8253 
7085 7086 8191 8190 7150 7151 8256 8255 
7086 7087 8192 8191 7151 7152 8257 8256 
7087 7088 8193 8192 7152 7153 8258 8257 
7088 7089 8194 8193 7153 7154 8259 8258 
7089 7090 8195 8194 7154 7155 8260 8259 
7090 7091 8196 8195 7155 7156 8261 8260 
7091 7092 8197 8196 7156 7157 8262 8261 
7092 7093 8198 8197 7157 7158 8263 8262 
7093 7094 8199 8198 7158 7159 8264 8263 
7094 7095 8200 8199 7159 7160 8265 8264 
7095 7096 8201 8200 7160 7161 8266 8265 
7096 7097 8202 8201 7161 7162 8267 8266 
7097 7098 8203 8202 7162 7163 8268 8267 
7098 7099 8204 8203 7163 7164 8269 8268 
7099 7100 8205 8204 7164 7165 8270 8269 
7100 7101 8206 8205 7165 7166 8271 8270 
7101 7102 8207 8206 7166 7167 8272 8271 
7102 7103 8208 8207 7167 7168 8273 8272 
7103 7104 8209 8208 7168 7169 8274 8273 
7104 7105 8210 8209 7169 7170 8275 8274 
7105 7106 8211 8210 7170 7171 8276 8275 
7106 7107 8212 8211 7171 7172 8277 8276 
7107 7108 8213 8212 7172 7173 8278 8277 
7108 7109 8214 8213 7173 7174 8279 8278 
7109 7110 8215 8214 7174 7175 8280 8279 
7110 7111 8216 8215 7175 7176 8281 8280 
7111 7112 8217 8216 7176 7177 8282 8281 
7112 7113 8218 8217 7177 7178 8283 8282 
7113 7114 8219 8218 7178 7179 8284 8283 
7114 7115 8220 8219 7179 7180 8285 8284 
7115 7116 8221 8220 7180 7181 8286 8285 
7116 7117 8222 8221 7181 7182 8287 8286 
7117 7118 8223 8222 7182 7183 8288 8287 
7118 7119 8224 8223 7183 7184 8289 8288 
7119 7120 8225 8224 7184 7185 8290 8289 
7120 7121 8226 8225 7185 7186 8291 8290 
7121 7122 8227 8226 7186 7187 8292 8291 
7122 7123 8228 8227 7187 7188 8293 8292 
7123 7124 8229 8228 7188 7189 8294 8293 
7124 7125 8230 8229 7189 7190 8295 8294 
7125 7126 8231 8230 7190 7191 8296 8295 
7126 7127 8232 8231 7191 7192 8297 8296 
7127 7128 8233 8232 7192 7193 8298 8297 
7128 7129 8234 8233 7193 7194 8299 8298 
7129 7130 8235 8234 7194 7195 8300 8299 
7130 7131 8236 8235 7195 7196 8301 8300 
7131 7132 8237 8236 7196 7197 8302 8301 
7132 7133 8238 8237 7197 7198 8303 8302 
7133 7134 8239 8238 7198 7199 8304 8303 
7134 7135 8240 8239 7199 7200 8305 8304 
7135 7136 8241 8240 7200 7201 8306 8305 
7136 7137 8242 8241 7201 7202 8307 8306 
7137 7138 8243 8242 7202 7203 8308 8307 
7138 7139 8244 8243 7203 7204 8309 8308 
7139 7140 8245 8244 7204 7205 8310 8309 
7140 7141 8246 8245 7205 7206 8311 8310 
7141 7142 8247 8246 7206 7207 8312 8311 
7142 7143 8248 8247 7207 7208 8313 8312 
7143 7144 8249 8248 7208 7209 8314 8313 
7144 7145 8250 8249 7209 7210 8315 8314 
7145 7146 8251 8250 7210 7211 8316 8315 
7146 7147 8252 8251 7211 7212 8317 8316 
7147 7148 8253 8252 7212 7213 8318 8317 
7148 7149 8254 8253 7213 7214 8319 8318 
7150 7151 8256 8255 7215 7216 8321 8320 
7151 7152 8257 8256 7216 7217 8322 8321 
7152 7153 8258 8257 7217 7218 8323 8322 
7153 7154 8259 8258 7218 7219 8324 8323 
7154 7155 8260 8259 7219 7220 8325 8324 
7155 7156 8261 8260 7220 7221 8326 8325 
7156 7157 8262 8261 7221 7222 8327 8326 
7157 7158 8263 8262 7222 7223 8328 8327 
7158 7159 8264 8263 7223 7224 8329 8328 
7159 7160 8265 8264 7224 7225 8330 8329 
7160 7161 8266 8265 7225 7226 8331 8330 
7161 7162 8267 8266 7226 7227 8332 8331 
7162 7163 8268 8267 7227 7228 8333 8332 
7163 7164 8269 8268 7228 7229 8334 8333 
7164 7165 8270 8269 7229 7230 8335 8334 
7165 7166 8271 8270 7230 7231 8336 8335 
7166 7167 8272 8271 7231 7232 8337 8336 
7167 7168 8273 8272 7232 7233 8338 8337 
7168 7169 8274 8273 7233 7234 8339 8338 
7169 7170 8275 8274 7234 7235 8340 8339 
7170 7171 8276 8275 7235 7236 8341 8340 
7171 7172 8277 8276 7236 7237 8342 8341 
7172 7173 8278 8277 7237 7238 8343 8342 
7173 7174 8279 8278 7238 7239 8344 8343 
7174 7175 8280 8279 7239 7240 8345 8344 
7175 7176 8281 8280 7240 7241 8346 8345 
7176 7177 8282 8281 7241 7242 8347 8346 
7177 7178 8283 8282 7242 7243 8348 8347 
7178 7179 8284 8283 7243 7244 8349 8348 
7179 7180 8285 8284 7244 7245 8350 8349 
7180 7181 8286 8285 7245 7246 8351 8350 
7181 7182 8287 8286 7246 7247 8352 8351 
7182 7183 8288 8287 7247 7248 8353 8352 
7183 7184 8289 8288 7248 7249 8354 8353 
7184 7185 8290 8289 7249 7250 8355 8354 
7185 7186 8291 8290 7250 7251 8356 8355 
7186 7187 8292 8291 7251 7252 8357 8356 
7187 7188 8293 8292 7252 7253 8358 8357 
7188 7189 8294 8293 7253 7254 8359 8358 
7189 7190 8295 8294 7254 7255 8360 8359 
7190 7191 8296 8295 7255 7256 8361 8360 
7191 7192 8297 8296 7256 7257 8362 8361 
7192 7193 8298 8297 7257 7258 8363 8362 
7193 7194 8299 8298 7258 7259 8364 8363 
7194 7195 8300 8299 7259 7260 8365 8364 
7195 7196 8301 8300 7260 7261 8366 8365 
7196 7197 8302 8301 7261 7262 8367 8366 
7197 7198 8303 8302 7262 7263 8368 8367 
7198 7199 8304 8303 7263 7264 8369 8368 
7199 7200 8305 8304 7264 7265 8370 8369 
7200 7201 8306 8305 7265 7266 8371 8370 
7201 7202 8307 8306 7266 7267 8372 8371 
7202 7203 8308 8307 7267 7268 8373 8372 
7203 7204 8309 8308 7268 7269 8374 8373 
7204 7205 8310 8309 7269 7270 8375 8374 
7205 7206 8311 8310 7270 7271 8376 8375 
7206 7207 8312 8311 7271 7272 8377 8376 
7207 7208 8313 8312 7272 7273 8378 8377 
7208 7209 8314 8313 7273 7274 8379 8378 
7209 7210 8315 8314 7274 7275 8380 8379 
7210 7211 8316 8315 7275 7276 8381 8380 
7211 7212 8317 8316 7276 7277 8382 8381 
7212 7213 8318 8317 7277 7278 8383 8382 
7213 7214 8319 8318 7278 7279 8384 8383 
7215 7216 8321 8320 7280 7281 8386 8385 
7216 7217 8322 8321 7281 7282 8387 8386 
7217 7218 8323 8322 7282 7283 8388 8387 
7218 7219 8324 8323 7283 7284 8389 8388 
7219 7220 8325 8324 7284 7285 8390 8389 
7220 7221 8326 8325 7285 7286 8391 8390 
7221 7222 8327 8326 7286 7287 8392 8391 
7222 7223 8328 8327 7287 7288 8393 8392 
7223 7224 8329 8328 7288 7289 8394 8393 
7224 7225 8330 8329 7289 7290 8395 8394 
7225 7226 8331 8330 7290 7291 8396 8395 
7226 7227 8332 8331 7291 7292 8397 8396 
7227 7228 8333 8332 7292 7293 8398 8397 
7228 7229 8334 8333 7293 7294 8399 8398 
7229 7230 8335 8334 7294 7295 8400 8399 
7230 7231 8336 8335 7295 7296 8401 8400 
7231 7232 8337 8336 7296 7297 8402 8401 
7232 7233 8338 8337 7297 7298 8403 8402 
7233 7234 8339 8338 7298 7299 8404 8403 
7234 7235 8340 8339 7299 7300 8405 8404 
7235 7236 8341 8340 7300 7301 8406 8405 
7236 7237 8342 8341 7301 7302 8407 8406 
7237 7238 8343 8342 7302 7303 8408 8407 
7238 7239 8344 8343 7303 7304 8409 8408 
7239 7240 8345 8344 7304 7305 8410 8409 
7240 7241 8346 8345 7305 7306 8411 8410 
7241 7242 8347 8346 7306 7307 8412 8411 
7242 7243 8348 8347 7307 7308 8413 8412 
7243 7244 8349 8348 7308 7309 8414 8413 
7244 7245 8350 8349 7309 7310 8415 8414 
7245 7246 8351 8350 7310 7311 8416 8415 
7246 7247 8352 8351 7311 7312 8417 8416 
7247 7248 8353 8352 7312 7313 8418 8417 
7248 7249 8354 8353 7313 7314 8419 8418 
7249 7250 8355 8354 7314 7315 8420 8419 
7250 7251 8356 8355 7315 7316 8421 8420 
7251 7252 8357 8356 7316 7317 8422 8421 
7252 7253 8358 8357 7317 7318 8423 8422 
7253 7254 8359 8358 7318 7319 8424 8423 
7254 7255 8360 8359 7319 7320 8425 8424 
7255 7256 8361 8360 7320 7321 8426 8425 
7256 7257 8362 8361 7321 7322 8427 8426 
7257 7258 8363 8362 7322 7323 8428 8427 
7258 7259 8364 8363 7323 7324 8429 8428 
7259 7260 8365 8364 7324 7325 8430 8429 
7260 7261 8366 8365 7325 7326 8431 8430 
7261 7262 8367 8366 7326 7327 8432 8431 
7262 7263 8368 8367 7327 7328 8433 8432 
7263 7264 8369 8368 7328 7329 8434 8433 
7264 7265 8370 8369 7329 7330 8435 8434 
7265 7266 8371 8370 7330 7331 8436 8435 
7266 7267 8372 8371 7331 7332 8437 8436 
7267 7268 8373 8372 7332 7333 8438 8437 
7268 7269 8374 8373 7333 7334 8439 8438 
7269 7270 8375 8374 7334 7335 8440 8439 
7270 7271 8376 8375 7335 7336 8441 8440 
7271 7272 8377 8376 7336 7337 8442 8441 
7272 7273 8378 8377 7337 7338 8443 8442 
7273 7274 8379 8378 7338 7339 8444 8443 
7274 7275 8380 8379 7339 7340 8445 8444 
7275 7276 8381 8380 7340 7341 8446 8445 
7276 7277 8382 8381 7341 7342 8447 8446 
7277 7278 8383 8382 7342 7343 8448 8447 
7278 7279 8384 8383 7343 7344 8449 8448 
7280 7281 8386 8385 7345 7346 8451 8450 
7281 7282 8387 8386 7346 7347 8452 8451 
7282 7283 8388 8387 7347 7348 8453 8452 
7283 7284 8389 8388 7348 7349 8454 8453 
7284 7285 8390 8389 7349 7350 8455 8454 
7285 7286 8391 8390 7350 7351 8456 8455 
7286 7287 8392 8391 7351 7352 8457 8456 
7287 7288 8393 8392 7352 7353 8458 8457 
7288 7289 8394 8393 7353 7354 8459 8458 
7289 7290 8395 8394 7354 7355 8460 8459 
7290 7291 8396 8395 7355 7356 8461 8460 
7291 7292 8397 8396 7356 7357 8462 8461 
7292 7293 8398 8397 7357 7358 8463 8462 
7293 7294 8399 8398 7358 7359 8464 8463 
7294 7295 8400 8399 7359 7360 8465 8464 
7295 7296 8401 8400 7360 7361 8466 8465 
7296 7297 8402 8401 7361 7362 8467 8466 
7297 7298 8403 8402 7362 7363 8468 8467 
7298 7299 8404 8403 7363 7364 8469 8468 
7299 7300 8405 8404 7364 7365 8470 8469 
7300 7301 8406 8405 7365 7366 8471 8470 
7301 7302 8407 8406 7366 7367 8472 8471 
7302 7303 8408 8407 7367 7368 8473 8472 
7303 7304 8409 8408 7368 7369 8474 8473 
7304 7305 8410 8409 7369 7370 8475 8474 
7305 7306 8411 8410 7370 7371 8476 8475 
7306 7307 8412 8411 7371 7372 8477 8476 
7307 7308 8413 8412 7372 7373 8478 8477 
7308 7309 8414 8413 7373 7374 8479 8478 
7309 7310 8415 8414 7374 7375 8480 8479 
7310 7311 8416 8415 7375 7376 8481 8480 
7311 7312 8417 8416 7376 7377 8482 8481 
7312 7313 8418 8417 7377 7378 8483 8482 
7313 7314 8419 8418 7378 7379 8484 8483 
7314 7315 8420 8419 7379 7380 8485 8484 
7315 7316 8421 8420 7380 7381 8486 8485 
7316 7317 8422 8421 7381 7382 8487 8486 
7317 7318 8423 8422 7382 7383 8488 8487 
7318 7319 8424 8423 7383 7384 8489 8488 
7319 7320 8425 8424 7384 7385 8490 8489 
7320 7321 8426 8425 7385 7386 8491 8490 
7321 7322 8427 8426 7386 7387 8492 8491 
7322 7323 8428 8427 7387 7388 8493 8492 
7323 7324 8429 8428 7388 7389 8494 8493 
7324 7325 8430 8429 7389 7390 8495 8494 
7325 7326 8431 8430 7390 7391 8496 8495 
7326 7327 8432 8431 7391 7392 8497 8496 
7327 7328 8433 8432 7392 7393 8498 8497 
7328 7329 8434 8433 7393 7394 8499 8498 
7329 7330 8435 8434 7394 7395 8500 8499 
7330 7331 8436 8435 7395 7396 8501 8500 
7331 7332 8437 8436 7396 7397 8502 8501 
7332 7333 8438 8437 7397 7398 8503 8502 
7333 7334 8439 8438 7398 7399 8504 8503 
7334 7335 8440 8439 7399 7400 8505 8504 
7335 7336 8441 8440 7400 7401 8506 8505 
7336 7337 8442 8441 7401 7402 8507 8506 
7337 7338 8443 8442 7402 7403 8508 8507 
7338 7339 8444 8443 7403 7404 8509 8508 
7339 7340 8445 8444 7404 7405 8510 8509 
7340 7341 8446 8445 7405 7406 8511 8510 
7341 7342 8447 8446 7406 7407 8512 8511 
7342 7343 8448 8447 7407 7408 8513 8512 
7343 7344 8449 8448 7408 7409 8514 8513 
7345 7346 8451 8450 7410 7411 8516 8515 
7346 7347 8452 8451 7411 7412 8517 8516 
7347 7348 8453 8452 7412 7413 8518 8517 
7348 7349 8454 8453 7413 7414 8519 8518 
7349 7350 8455 8454 7414 7415 8520 8519 
7350 7351 8456 8455 7415 7416 8521 8520 
7351 7352 8457 8456 7416 7417 8522 8521 
7352 7353 8458 8457 7417 7418 8523 8522 
7353 7354 8459 8458 7418 7419 8524 8523 
7354 7355 8460 8459 7419 7420 8525 8524 
7355 7356 8461 8460 7420 7421 8526 8525 
7356 7357 8462 8461 7421 7422 8527 8526 
7357 7358 8463 8462 7422 7423 8528 8527 
7358 7359 8464 8463 7423 7424 8529 8528 
7359 7360 8465 8464 7424 7425 8530 8529 
7360 7361 8466 8465 7425 7426 8531 8530 
7361 7362 8467 8466 7426 7427 8532 8531 
7362 7363 8468 8467 7427 7428 8533 8532 
7363 7364 8469 8468 7428 7429 8534 8533 
7364 7365 8470 8469 7429 7430 8535 8534 
7365 7366 8471 8470 7430 7431 8536 8535 
7366 7367 8472 8471 7431 7432 8537 8536 
7367 7368 8473 8472 7432 7433 8538 8537 
7368 7369 8474 8473 7433 7434 8539 8538 
7369 7370 8475 8474 7434 7435 8540 8539 
7370 7371 8476 8475 7435 7436 8541 8540 
7371 7372 8477 8476 7436 7437 8542 8541 
7372 7373 8478 8477 7437 7438 8543 8542 
7373 7374 8479 8478 7438 7439 8544 8543 
7374 7375 8480 8479 7439 7440 8545 8544 
7375 7376 8481 8480 7440 7441 8546 8545 
7376 7377 8482 8481 7441 7442 8547 8546 
7377 7378 8483 8482 7442 7443 8548 8547 
7378 7379 8484 8483 7443 7444 8549 8548 
7379 7380 8485 8484 7444 7445 8550 8549 
7380 7381 8486 8485 7445 7446 8551 8550 
7381 7382 8487 8486 7446 7447 8552 8551 
7382 7383 8488 8487 7447 7448 8553 8552 
7383 7384 8489 8488 7448 7449 8554 8553 
7384 7385 8490 8489 7449 7450 8555 8554 
7385 7386 8491 8490 7450 7451 8556 8555 
7386 7387 8492 8491 7451 7452 8557 8556 
7387 7388 8493 8492 7452 7453 8558 8557 
7388 7389 8494 8493 7453 7454 8559 8558 
7389 7390 8495 8494 7454 7455 8560 8559 
7390 7391 8496 8495 7455 7456 8561 8560 
7391 7392 8497 8496 7456 7457 8562 8561 
7392 7393 8498 8497 7457 7458 8563 8562 
7393 7394 8499 8498 7458 7459 8564 8563 
7394 7395 8500 8499 7459 7460 8565 8564 
7395 7396 8501 8500 7460 7461 8566 8565 
7396 7397 8502 8501 7461 7462 8567 8566 
7397 7398 8503 8502 7462 7463 8568 8567 
7398 7399 8504 8503 7463 7464 8569 8568 
7399 7400 8505 8504 7464 7465 8570 8569 
7400 7401 8506 8505 7465 7466 8571 8570 
7401 7402 8507 8506 7466 7467 8572 8571 
7402 7403 8508 8507 7467 7468 8573 8572 
7403 7404 8509 8508 7468 7469 8574 8573 
7404 7405 8510 8509 7469 7470 8575 8574 
7405 7406 8511 8510 7470 7471 8576 8575 
7406 7407 8512 8511 7471 7472 8577 8576 
7407 7408 8513 8512 7472 7473 8578 8577 
7408 7409 8514 8513 7473 7474 8579 8578 
7410 7411 8516 8515 7475 7476 8581 8580 
7411 7412 8517 8516 7476 7477 8582 8581 
7412 7413 8518 8517 7477 7478 8583 8582 
7413 7414 8519 8518 7478 7479 8584 8583 
7414 7415 8520 8519 7479 7480 8585 8584 
7415 7416 8521 8520 7480 7481 8586 8585 
7416 7417 8522 8521 7481 7482 8587 8586 
7417 7418 8523 8522 7482 7483 8588 8587 
7418 7419 8524 8523 7483 7484 8589 8588 
7419 7420 8525 8524 7484 7485 8590 8589 
7420 7421 8526 8525 7485 7486 8591 8590 
7421 7422 8527 8526 7486 7487 8592 8591 
7422 7423 8528 8527 7487 7488 8593 8592 
7423 7424 8529 8528 7488 7489 8594 8593 
7424 7425 8530 8529 7489 7490 8595 8594 
7425 7426 8531 8530 7490 7491 8596 8595 
7426 7427 8532 8531 7491 7492 8597 8596 
7427 7428 8533 8532 7492 7493 8598 8597 
7428 7429 8534 8533 7493 7494 8599 8598 
7429 7430 8535 8534 7494 7495 8600 8599 
7430 7431 8536 8535 7495 7496 8601 8600 
7431 7432 8537 8536 7496 7497 8602 8601 
7432 7433 8538 8537 7497 7498 8603 8602 
7433 7434 8539 8538 7498 7499 8604 8603 
7434 7435 8540 8539 7499 7500 8605 8604 
7435 7436 8541 8540 7500 7501 8606 8605 
7436 7437 8542 8541 7501 7502 8607 8606 
7437 7438 8543 8542 7502 7503 8608 8607 
7438 7439 8544 8543 7503 7504 8609 8608 
7439 7440 8545 8544 7504 7505 8610 8609 
7440 7441 8546 8545 7505 7506 8611 8610 
7441 7442 8547 8546 7506 7507 8612 8611 
7442 7443 8548 8547 7507 7508 8613 8612 
7443 7444 8549 8548 7508 7509 8614 8613 
7444 7445 8550 8549 7509 7510 8615 8614 
7445 7446 8551 8550 7510 7511 8616 8615 
7446 7447 8552 8551 7511 7512 8617 8616 
7447 7448 8553 8552 7512 7513 8618 8617 
7448 7449 8554 8553 7513 7514 8619 8618 
7449 7450 8555 8554 7514 7515 8620 8619 
7450 7451 8556 8555 7515 7516 8621 8620 
7451 7452 8557 8556 7516 7517 8622 8621 
7452 7453 8558 8557 7517 7518 8623 8622 
7453 7454 8559 8558 7518 7519 8624 8623 
7454 7455 8560 8559 7519 7520 8625 8624 
7455 7456 8561 8560 7520 7521 8626 8625 
7456 7457 8562 8561 7521 7522 8627 8626 
7457 7458 8563 8562 7522 7523 8628 8627 
7458 7459 8564 8563 7523 7524 8629 8628 
7459 7460 8565 8564 7524 7525 8630 8629 
7460 7461 8566 8565 7525 7526 8631 8630 
7461 7462 8567 8566 7526 7527 8632 8631 
7462 7463 8568 8567 7527 7528 8633 8632 
7463 7464 8569 8568 7528 7529 8634 8633 
7464 7465 8570 8569 7529 7530 8635 8634 
7465 7466 8571 8570 7530 7531 8636 8635 
7466 7467 8572 8571 7531 7532 8637 8636 
7467 7468 8573 8572 7532 7533 8638 8637 
7468 7469 8574 8573 7533 7534 8639 8638 
7469 7470 8575 8574 7534 7535 8640 8639 
7470 7471 8576 8575 7535 7536 8641 8640 
7471 7472 8577 8576 7536 7537 8642 8641 
7472 7473 8578 8577 7537 7538 8643 8642 
7473 7474 8579 8578 7538 7539 8644 8643 
7475 7476 8581 8580 7540 7541 8646 8645 
7476 7477 8582 8581 7541 7542 8647 8646 
7477 7478 8583 8582 7542 7543 8648 8647 
7478 7479 8584 8583 7543 7544 8649 8648 
7479 7480 8585 8584 7544 7545 8650 8649 
7480 7481 8586 8585 7545 7546 8651 8650 
7481 7482 8587 8586 7546 7547 8652 8651 
7482 7483 8588 8587 7547 7548 8653 8652 
7483 7484 8589 8588 7548 7549 8654 8653 
7484 7485 8590 8589 7549 7550 8655 8654 
7485 7486 8591 8590 7550 7551 8656 8655 
7486 7487 8592 8591 7551 7552 8657 8656 
7487 7488 8593 8592 7552 7553 8658 8657 
7488 7489 8594 8593 7553 7554 8659 8658 
7489 7490 8595 8594 7554 7555 8660 8659 
7490 7491 8596 8595 7555 7556 8661 8660 
7491 7492 8597 8596 7556 7557 8662 8661 
7492 7493 8598 8597 7557 7558 8663 8662 
7493 7494 8599 8598 7558 7559 8664 8663 
7494 7495 8600 8599 7559 7560 8665 8664 
7495 7496 8601 8600 7560 7561 8666 8665 
7496 7497 8602 8601 7561 7562 8667 8666 
7497 7498 8603 8602 7562 7563 8668 8667 
7498 7499 8604 8603 7563 7564 8669 8668 
7499 7500 8605 8604 7564 7565 8670 8669 
7500 7501 8606 8605 7565 7566 8671 8670 
7501 7502 8607 8606 7566 7567 8672 8671 
7502 7503 8608 8607 7567 7568 8673 8672 
7503 7504 8609 8608 7568 7569 8674 8673 
7504 7505 8610 8609 7569 7570 8675 8674 
7505 7506 8611 8610 7570 7571 8676 8675 
7506 7507 8612 8611 7571 7572 8677 8676 
7507 7508 8613 8612 7572 7573 8678 8677 
7508 7509 8614 8613 7573 7574 8679 8678 
7509 7510 8615 8614 7574 7575 8680 8679 
7510 7511 8616 8615 7575 7576 8681 8680 
7511 7512 8617 8616 7576 7577 8682 8681 
7512 7513 8618 8617 7577 7578 8683 8682 
7513 7514 8619 8618 7578 7579 8684 8683 
7514 7515 8620 8619 7579 7580 8685 8684 
7515 7516 8621 8620 7580 7581 8686 8685 
7516 7517 8622 8621 7581 7582 8687 8686 
7517 7518 8623 8622 7582 7583 8688 8687 
7518 7519 8624 8623 7583 7584 8689 8688 
7519 7520 8625 8624 7584 7585 8690 8689 
7520 7521 8626 8625 7585 7586 8691 8690 
7521 7522 8627 8626 7586 7587 8692 8691 
7522 7523 8628 8627 7587 7588 8693 8692 
7523 7524 8629 8628 7588 7589 8694 8693 
7524 7525 8630 8629 7589 7590 8695 8694 
7525 7526 8631 8630 7590 7591 8696 8695 
7526 7527 8632 8631 7591 7592 8697 8696 
7527 7528 8633 8632 7592 7593 8698 8697 
7528 7529 8634 8633 7593 7594 8699 8698 
7529 7530 8635 8634 7594 7595 8700 8699 
7530 7531 8636 8635 7595 7596 8701 8700 
7531 7532 8637 8636 7596 7597 8702 8701 
7532 7533 8638 8637 7597 7598 8703 8702 
7533 7534 8639 8638 7598 7599 8704 8703 
7534 7535 8640 8639 7599 7600 8705 8704 
7535 7536 8641 8640 7600 7601 8706 8705 
7536 7537 8642 8641 7601 7602 8707 8706 
7537 7538 8643 8642 7602 7603 8708 8707 
7538 7539 8644 8643 7603 7604 8709 8708 
7540 7541 8646 8645 7605 7606 8711 8710 
7541 7542 8647 8646 7606 7607 8712 8711 
7542 7543 8648 8647 7607 7608 8713 8712 
7543 7544 8649 8648 7608 7609 8714 8713 
7544 7545 8650 8649 7609 7610 8715 8714 
7545 7546 8651 8650 7610 7611 8716 8715 
7546 7547 8652 8651 7611 7612 8717 8716 
7547 7548 8653 8652 7612 7613 8718 8717 
7548 7549 8654 8653 7613 7614 8719 8718 
7549 7550 8655 8654 7614 7615 8720 8719 
7550 7551 8656 8655 7615 7616 8721 8720 
7551 7552 8657 8656 7616 7617 8722 8721 
7552 7553 8658 8657 7617 7618 8723 8722 
7553 7554 8659 8658 7618 7619 8724 8723 
7554 7555 8660 8659 7619 7620 8725 8724 
7555 7556 8661 8660 7620 7621 8726 8725 
7556 7557 8662 8661 7621 7622 8727 8726 
7557 7558 8663 8662 7622 7623 8728 8727 
7558 7559 8664 8663 7623 7624 8729 8728 
7559 7560 8665 8664 7624 7625 8730 8729 
7560 7561 8666 8665 7625 7626 8731 8730 
7561 7562 8667 8666 7626 7627 8732 8731 
7562 7563 8668 8667 7627 7628 8733 8732 
7563 7564 8669 8668 7628 7629 8734 8733 
7564 7565 8670 8669 7629 7630 8735 8734 
7565 7566 8671 8670 7630 7631 8736 8735 
7566 7567 8672 8671 7631 7632 8737 8736 
7567 7568 8673 8672 7632 7633 8738 8737 
7568 7569 8674 8673 7633 7634 8739 8738 
7569 7570 8675 8674 7634 7635 8740 8739 
7570 7571 8676 8675 7635 7636 8741 8740 
7571 7572 8677 8676 7636 7637 8742 8741 
7572 7573 8678 8677 7637 7638 8743 8742 
7573 7574 8679 8678 7638 7639 8744 8743 
7574 7575 8680 8679 7639 7640 8745 8744 
7575 7576 8681 8680 7640 7641 8746 8745 
7576 7577 8682 8681 7641 7642 8747 8746 
7577 7578 8683 8682 7642 7643 8748 8747 
7578 7579 8684 8683 7643 7644 8749 8748 
7579 7580 8685 8684 7644 7645 8750 8749 
7580 7581 8686 8685 7645 7646 8751 8750 
7581 7582 8687 8686 7646 7647 8752 8751 
7582 7583 8688 8687 7647 7648 8753 8752 
7583 7584 8689 8688 7648 7649 8754 8753 
7584 7585 8690 8689 7649 7650 8755 8754 
7585 7586 8691 8690 7650 7651 8756 8755 
7586 7587 8692 8691 7651 7652 8757 8756 
7587 7588 8693 8692 7652 7653 8758 8757 
7588 7589 8694 8693 7653 7654 8759 8758 
7589 7590 8695 8694 7654 7655 8760 8759 
7590 7591 8696 8695 7655 7656 8761 8760 
7591 7592 8697 8696 7656 7657 8762 8761 
7592 7593 8698 8697 7657 7658 8763 8762 
7593 7594 8699 8698 7658 7659 8764 8763 
7594 7595 8700 8699 7659 7660 8765 8764 
7595 7596 8701 8700 7660 7661 8766 8765 
7596 7597 8702 8701 7661 7662 8767 8766 
7597 7598 8703 8702 7662 7663 8768 8767 
7598 7599 8704 8703 7663 7664 8769 8768 
7599 7600 8705 8704 7664 7665 8770 8769 
7600 7601 8706 8705 7665 7666 8771 8770 
7601 7602 8707 8706 7666 7667 8772 8771 
7602 7603 8708 8707 7667 7668 8773 8772 
7603 7604 8709 8708 7668 7669 8774 8773 
7605 7606 8711 8710 7670 7671 8776 8775 
7606 7607 8712 8711 7671 7672 8777 8776 
7607 7608 8713 8712 7672 7673 8778 8777 
7608 7609 8714 8713 7673 7674 8779 8778 
7609 7610 8715 8714 7674 7675 8780 8779 
7610 7611 8716 8715 7675 7676 8781 8780 
7611 7612 8717 8716 7676 7677 8782 8781 
7612 7613 8718 8717 7677 7678 8783 8782 
7613 7614 8719 8718 7678 7679 8784 8783 
7614 7615 8720 8719 7679 7680 8785 8784 
7615 7616 8721 8720 7680 7681 8786 8785 
7616 7617 8722 8721 7681 7682 8787 8786 
7617 7618 8723 8722 7682 7683 8788 8787 
7618 7619 8724 8723 7683 7684 8789 8788 
7619 7620 8725 8724 7684 7685 8790 8789 
7620 7621 8726 8725 7685 7686 8791 8790 
7621 7622 8727 8726 7686 7687 8792 8791 
7622 7623 8728 8727 7687 7688 8793 8792 
7623 7624 8729 8728 7688 7689 8794 8793 
7624 7625 8730 8729 7689 7690 8795 8794 
7625 7626 8731 8730 7690 7691 8796 8795 
7626 7627 8732 8731 7691 7692 8797 8796 
7627 7628 8733 8732 7692 7693 8798 8797 
7628 7629 8734 8733 7693 7694 8799 8798 
7629 7630 8735 8734 7694 7695 8800 8799 
7630 7631 8736 8735 7695 7696 8801 8800 
7631 7632 8737 8736 7696 7697 8802 8801 
7632 7633 8738 8737 7697 7698 8803 8802 
7633 7634 8739 8738 7698 7699 8804 8803 
7634 7635 8740 8739 7699 7700 8805 8804 
7635 7636 8741 8740 7700 7701 8806 8805 
7636 7637 8742 8741 7701 7702 8807 8806 
7637 7638 8743 8742 7702 7703 8808 8807 
7638 7639 8744 8743 7703 7704 8809 8808 
7639 7640 8745 8744 7704 7705 8810 8809 
7640 7641 8746 8745 7705 7706 8811 8810 
7641 7642 8747 8746 7706 7707 8812 8811 
7642 7643 8748 8747 7707 7708 8813 8812 
7643 7644 8749 8748 7708 7709 8814 8813 
7644 7645 8750 8749 7709 7710 8815 8814 
7645 7646 8751 8750 7710 7711 8816 8815 
7646 7647 8752 8751 7711 7712 8817 8816 
7647 7648 8753 8752 7712 7713 8818 8817 
7648 7649 8754 8753 7713 7714 8819 8818 
7649 7650 8755 8754 7714 7715 8820 8819 
7650 7651 8756 8755 7715 7716 8821 8820 
7651 7652 8757 8756 7716 7717 8822 8821 
7652 7653 8758 8757 7717 7718 8823 8822 
7653 7654 8759 8758 7718 7719 8824 8823 
7654 7655 8760 8759 7719 7720 8825 8824 
7655 7656 8761 8760 7720 7721 8826 8825 
7656 7657 8762 8761 7721 7722 8827 8826 
7657 7658 8763 8762 7722 7723 8828 8827 
7658 7659 8764 8763 7723 7724 8829 8828 
7659 7660 8765 8764 7724 7725 8830 8829 
7660 7661 8766 8765 7725 7726 8831 8830 
7661 7662 8767 8766 7726 7727 8832 8831 
7662 7663 8768 8767 7727 7728 8833 8832 
7663 7664 8769 8768 7728 7729 8834 8833 
7664 7665 8770 8769 7729 7730 8835 8834 
7665 7666 8771 8770 7730 7731 8836 8835 
7666 7667 8772 8771 7731 7732 8837 8836 
7667 7668 8773 8772 7732 7733 8838 8837 
7668 7669 8774 8773 7733 7734 8839 8838 
7735 7736 8841 8840 7800 7801 8906 8905 
7736 7737 8842 8841 7801 7802 8907 8906 
7737 7738 8843 8842 7802 7803 8908 8907 
7738 7739 8844 8843 7803 7804 8909 8908 
7739 7740 8845 8844 7804 7805 8910 8909 
7740 7741 8846 8845 7805 7806 8911 8910 
7741 7742 8847 8846 7806 7807 8912 8911 
7742 7743 8848 8847 7807 7808 8913 8912 
7743 7744 8849 8848 7808 7809 8914 8913 
7744 7745 8850 8849 7809 7810 8915 8914 
7745 7746 8851 8850 7810 7811 8916 8915 
7746 7747 8852 8851 7811 7812 8917 8916 
7747 7748 8853 8852 7812 7813 8918 8917 
7748 7749 8854 8853 7813 7814 8919 8918 
7749 7750 8855 8854 7814 7815 8920 8919 
7750 7751 8856 8855 7815 7816 8921 8920 
7751 7752 8857 8856 7816 7817 8922 8921 
7752 7753 8858 8857 7817 7818 8923 8922 
7753 7754 8859 8858 7818 7819 8924 8923 
7754 7755 8860 8859 7819 7820 8925 8924 
7755 7756 8861 8860 7820 7821 8926 8925 
7756 7757 8862 8861 7821 7822 8927 8926 
7757 7758 8863 8862 7822 7823 8928 8927 
7758 7759 8864 8863 7823 7824 8929 8928 
7759 7760 8865 8864 7824 7825 8930 8929 
7760 7761 8866 8865 7825 7826 8931 8930 
7761 7762 8867 8866 7826 7827 8932 8931 
7762 7763 8868 8867 7827 7828 8933 8932 
7763 7764 8869 8868 7828 7829 8934 8933 
7764 7765 8870 8869 7829 7830 8935 8934 
7765 7766 8871 8870 7830 7831 8936 8935 
7766 7767 8872 8871 7831 7832 8937 8936 
7767 7768 8873 8872 7832 7833 8938 8937 
7768 7769 8874 8873 7833 7834 8939 8938 
7769 7770 8875 8874 7834 7835 8940 8939 
7770 7771 8876 8875 7835 7836 8941 8940 
7771 7772 8877 8876 7836 7837 8942 8941 
7772 7773 8878 8877 7837 7838 8943 8942 
7773 7774 8879 8878 7838 7839 8944 8943 
7774 7775 8880 8879 7839 7840 8945 8944 
7775 7776 8881 8880 7840 7841 8946 8945 
7776 7777 8882 8881 7841 7842 8947 8946 
7777 7778 8883 8882 7842 7843 8948 8947 
7778 7779 8884 8883 7843 7844 8949 8948 
7779 7780 8885 8884 7844 7845 8950 8949 
7780 7781 8886 8885 7845 7846 8951 8950 
7781 7782 8887 8886 7846 7847 8952 8951 
7782 7783 8888 8887 7847 7848 8953 8952 
7783 7784 8889 8888 7848 7849 8954 8953 
7784 7785 8890 8889 7849 7850 8955 8954 
7785 7786 8891 8890 7850 7851 8956 8955 
7786 7787 8892 8891 7851 7852 8957 8956 
7787 7788 8893 8892 7852 7853 8958 8957 
7788 7789 8894 8893 7853 7854 8959 8958 
7789 7790 8895 8894 7854 7855 8960 8959 
7790 7791 8896 8895 7855 7856 8961 8960 
7791 7792 8897 8896 7856 7857 8962 8961 
7792 7793 8898 8897 7857 7858 8963 8962 
7793 7794 8899 8898 7858 7859 8964 8963 
7794 7795 8900 8899 7859 7860 8965 8964 
7795 7796 8901 8900 7860 7861 8966 8965 
7796 7797 8902 8901 7861 7862 8967 8966 
7797 7798 8903 8902 7862 7863 8968 8967 
7798 7799 8904 8903 7863 7864 8969 8968 
7800 7801 8906 8905 7865 7866 8971 8970 
7801 7802 8907 8906 7866 7867 8972 8971 
7802 7803 8908 8907 7867 7868 8973 8972 
7803 7804 8909 8908 7868 7869 8974 8973 
7804 7805 8910 8909 7869 7870 8975 8974 
7805 7806 8911 8910 7870 7871 8976 8975 
7806 7807 8912 8911 7871 7872 8977 8976 
7807 7808 8913 8912 7872 7873 8978 8977 
7808 7809 8914 8913 7873 7874 8979 8978 
7809 7810 8915 8914 7874 7875 8980 8979 
7810 7811 8916 8915 7875 7876 8981 8980 
7811 7812 8917 8916 7876 7877 8982 8981 
7812 7813 8918 8917 7877 7878 8983 8982 
7813 7814 8919 8918 7878 7879 8984 8983 
7814 7815 8920 8919 7879 7880 8985 8984 
7815 7816 8921 8920 7880 7881 8986 8985 
7816 7817 8922 8921 7881 7882 8987 8986 
7817 7818 8923 8922 7882 7883 8988 8987 
7818 7819 8924 8923 7883 7884 8989 8988 
7819 7820 8925 8924 7884 7885 8990 8989 
7820 7821 8926 8925 7885 7886 8991 8990 
7821 7822 8927 8926 7886 7887 8992 8991 
7822 7823 8928 8927 7887 7888 8993 8992 
7823 7824 8929 8928 7888 7889 8994 8993 
7824 7825 8930 8929 7889 7890 8995 8994 
7825 7826 8931 8930 7890 7891 8996 8995 
7826 7827 8932 8931 7891 7892 8997 8996 
7827 7828 8933 8932 7892 7893 8998 8997 
7828 7829 8934 8933 7893 7894 8999 8998 
7829 7830 8935 8934 7894 7895 9000 8999 
7830 7831 8936 8935 7895 7896 9001 9000 
7831 7832 8937 8936 7896 7897 9002 9001 
7832 7833 8938 8937 7897 7898 9003 9002 
7833 7834 8939 8938 7898 7899 9004 9003 
7834 7835 8940 8939 7899 7900 9005 9004 
7835 7836 8941 8940 7900 7901 9006 9005 
7836 7837 8942 8941 7901 7902 9007 9006 
7837 7838 8943 8942 7902 7903 9008 9007 
7838 7839 8944 8943 7903 7904 9009 9008 
7839 7840 8945 8944 7904 7905 9010 9009 
7840 7841 8946 8945 7905 7906 9011 9010 
7841 7842 8947 8946 7906 7907 9012 9011 
7842 7843 8948 8947 7907 7908 9013 9012 
7843 7844 8949 8948 7908 7909 9014 9013 
7844 7845 8950 8949 7909 7910 9015 9014 
7845 7846 8951 8950 7910 7911 9016 9015 
7846 7847 8952 8951 7911 7912 9017 9016 
7847 7848 8953 8952 7912 7913 9018 9017 
7848 7849 8954 8953 7913 7914 9019 9018 
7849 7850 8955 8954 7914 7915 9020 9019 
7850 7851 8956 8955 7915 7916 9021 9020 
7851 7852 8957 8956 7916 7917 9022 9021 
7852 7853 8958 8957 7917 7918 9023 9022 
7853 7854 8959 8958 7918 7919 9024 9023 
7854 7855 8960 8959 7919 7920 9025 9024 
7855 7856 8961 8960 7920 7921 9026 9025 
7856 7857 8962 8961 7921 7922 9027 9026 
7857 7858 8963 8962 7922 7923 9028 9027 
7858 7859 8964 8963 7923 7924 9029 9028 
7859 7860 8965 8964 7924 7925 9030 9029 
7860 7861 8966 8965 7925 7926 9031 9030 
7861 7862 8967 8966 7926 7927 9032 9031 
7862 7863 8968 8967 7927 7928 9033 9032 
7863 7864 8969 8968 7928 7929 9034 9033 
7865 7866 8971 8970 7930 7931 9036 9035 
7866 7867 8972 8971 7931 7932 9037 9036 
7867 7868 8973 8972 7932 7933 9038 9037 
7868 7869 8974 8973 7933 7934 9039 9038 
7869 7870 8975 8974 7934 7935 9040 9039 
7870 7871 8976 8975 7935 7936 9041 9040 
7871 7872 8977 8976 7936 7937 9042 9041 
7872 7873 8978 8977 7937 7938 9043 9042 
7873 7874 8979 8978 7938 7939 9044 9043 
7874 7875 8980 8979 7939 7940 9045 9044 
7875 7876 8981 8980 7940 7941 9046 9045 
7876 7877 8982 8981 7941 7942 9047 9046 
7877 7878 8983 8982 7942 7943 9048 9047 
7878 7879 8984 8983 7943 7944 9049 9048 
7879 7880 8985 8984 7944 7945 9050 9049 
7880 7881 8986 8985 7945 7946 9051 9050 
7881 7882 8987 8986 7946 7947 9052 9051 
7882 7883 8988 8987 7947 7948 9053 9052 
7883 7884 8989 8988 7948 7949 9054 9053 
7884 7885 8990 8989 7949 7950 9055 9054 
7885 7886 8991 8990 7950 7951 9056 9055 
7886 7887 8992 8991 7951 7952 9057 9056 
7887 7888 8993 8992 7952 7953 9058 9057 
7888 7889 8994 8993 7953 7954 9059 9058 
7889 7890 8995 8994 7954 7955 9060 9059 
7890 7891 8996 8995 7955 7956 9061 9060 
7891 7892 8997 8996 7956 7957 9062 9061 
7892 7893 8998 8997 7957 7958 9063 9062 
7893 7894 8999 8998 7958 7959 9064 9063 
7894 7895 9000 8999 7959 7960 9065 9064 
7895 7896 9001 9000 7960 7961 9066 9065 
7896 7897 9002 9001 7961 7962 9067 9066 
7897 7898 9003 9002 7962 7963 9068 9067 
7898 7899 9004 9003 7963 7964 9069 9068 
7899 7900 9005 9004 7964 7965 9070 9069 
7900 7901 9006 9005 7965 7966 9071 9070 
7901 7902 9007 9006 7966 7967 9072 9071 
7902 7903 9008 9007 7967 7968 9073 9072 
7903 7904 9009 9008 7968 7969 9074 9073 
7904 7905 9010 9009 7969 7970 9075 9074 
7905 7906 9011 9010 7970 7971 9076 9075 
7906 7907 9012 9011 7971 7972 9077 9076 
7907 7908 9013 9012 7972 7973 9078 9077 
7908 7909 9014 9013 7973 7974 9079 9078 
7909 7910 9015 9014 7974 7975 9080 9079 
7910 7911 9016 9015 7975 7976 9081 9080 
7911 7912 9017 9016 7976 7977 9082 9081 
7912 7913 9018 9017 7977 7978 9083 9082 
7913 7914 9019 9018 7978 7979 9084 9083 
7914 7915 9020 9019 7979 7980 9085 9084 
7915 7916 9021 9020 7980 7981 9086 9085 
7916 7917 9022 9021 7981 7982 9087 9086 
7917 7918 9023 9022 7982 7983 9088 9087 
7918 7919 9024 9023 7983 7984 9089 9088 
7919 7920 9025 9024 7984 7985 9090 9089 
7920 7921 9026 9025 7985 7986 9091 9090 
7921 7922 9027 9026 7986 7987 9092 9091 
7922 7923 9028 9027 7987 7988 9093 9092 
7923 7924 9029 9028 7988 7989 9094 9093 
7924 7925 9030 9029 7989 7990 9095 9094 
7925 7926 9031 9030 7990 7991 9096 9095 
7926 7927 9032 9031 7991 7992 9097 9096 
7927 7928 9033 9032 7992 7993 9098 9097 
7928 7929 9034 9033 7993 7994 9099 9098 
7930 7931 9036 9035 7995 7996 9101 9100 
7931 7932 9037 9036 7996 7997 9102 9101 
7932 7933 9038 9037 7997 7998 9103 9102 
7933 7934 9039 9038 7998 7999 9104 9103 
7934 7935 9040 9039 7999 8000 9105 9104 
7935 7936 9041 9040 8000 8001 9106 9105 
7936 7937 9042 9041 8001 8002 9107 9106 
7937 7938 9043 9042 8002 8003 9108 9107 
7938 7939 9044 9043 8003 8004 9109 9108 
7939 7940 9045 9044 8004 8005 9110 9109 
7940 7941 9046 9045 8005 8006 9111 9110 
7941 7942 9047 9046 8006 8007 9112 9111 
7942 7943 9048 9047 8007 8008 9113 9112 
7943 7944 9049 9048 8008 8009 9114 9113 
7944 7945 9050 9049 8009 8010 9115 9114 
7945 7946 9051 9050 8010 8011 9116 9115 
7946 7947 9052 9051 8011 8012 9117 9116 
7947 7948 9053 9052 8012 8013 9118 9117 
7948 7949 9054 9053 8013 8014 9119 9118 
7949 7950 9055 9054 8014 8015 9120 9119 
7950 7951 9056 9055 8015 8016 9121 9120 
7951 7952 9057 9056 8016 8017 9122 9121 
7952 7953 9058 9057 8017 8018 9123 9122 
7953 7954 9059 9058 8018 8019 9124 9123 
7954 7955 9060 9059 8019 8020 9125 9124 
7955 7956 9061 9060 8020 8021 9126 9125 
7956 7957 9062 9061 8021 8022 9127 9126 
7957 7958 9063 9062 8022 8023 9128 9127 
7958 7959 9064 9063 8023 8024 9129 9128 
7959 7960 9065 9064 8024 8025 9130 9129 
7960 7961 9066 9065 8025 8026 9131 9130 
7961 7962 9067 9066 8026 8027 9132 9131 
7962 7963 9068 9067 8027 8028 9133 9132 
7963 7964 9069 9068 8028 8029 9134 9133 
7964 7965 9070 9069 8029 8030 9135 9134 
7965 7966 9071 9070 8030 8031 9136 9135 
7966 7967 9072 9071 8031 8032 9137 9136 
7967 7968 9073 9072 8032 8033 9138 9137 
7968 7969 9074 9073 8033 8034 9139 9138 
7969 7970 9075 9074 8034 8035 9140 9139 
7970 7971 9076 9075 8035 8036 9141 9140 
7971 7972 9077 9076 8036 8037 9142 9141 
7972 7973 9078 9077 8037 8038 9143 9142 
7973 7974 9079 9078 8038 8039 9144 9143 
7974 7975 9080 9079 8039 8040 9145 9144 
7975 7976 9081 9080 8040 8041 9146 9145 
7976 7977 9082 9081 8041 8042 9147 9146 
7977 7978 9083 9082 8042 8043 9148 9147 
7978 7979 9084 9083 8043 8044 9149 9148 
7979 7980 9085 9084 8044 8045 9150 9149 
7980 7981 9086 9085 8045 8046 9151 9150 
7981 7982 9087 9086 8046 8047 9152 9151 
7982 7983 9088 9087 8047 8048 9153 9152 
7983 7984 9089 9088 8048 8049 9154 9153 
7984 7985 9090 9089 8049 8050 9155 9154 
7985 7986 9091 9090 8050 8051 9156 9155 
7986 7987 9092 9091 8051 8052 9157 9156 
7987 7988 9093 9092 8052 8053 9158 9157 
7988 7989 9094 9093 8053 8054 9159 9158 
7989 7990 9095 9094 8054 8055 9160 9159 
7990 7991 9096 9095 8055 8056 9161 9160 
7991 7992 9097 9096 8056 8057 9162 9161 
7992 7993 9098 9097 8057 8058 9163 9162 
7993 7994 9099 9098 8058 8059 9164 9163 
7995 7996 9101 9100 8060 8061 9166 9165 
7996 7997 9102 9101 8061 8062 9167 9166 
7997 7998 9103 9102 8062 8063 9168 9167 
7998 7999 9104 9103 8063 8064 9169 9168 
7999 8000 9105 9104 8064 8065 9170 9169 
8000 8001 9106 9105 8065 8066 9171 9170 
8001 8002 9107 9106 8066 8067 9172 9171 
8002 8003 9108 9107 8067 8068 9173 9172 
8003 8004 9109 9108 8068 8069 9174 9173 
8004 8005 9110 9109 8069 8070 9175 9174 
8005 8006 9111 9110 8070 8071 9176 9175 
8006 8007 9112 9111 8071 8072 9177 9176 
8007 8008 9113 9112 8072 8073 9178 9177 
8008 8009 9114 9113 8073 8074 9179 9178 
8009 8010 9115 9114 8074 8075 9180 9179 
8010 8011 9116 9115 8075 8076 9181 9180 
8011 8012 9117 9116 8076 8077 9182 9181 
8012 8013 9118 9117 8077 8078 9183 9182 
8013 8014 9119 9118 8078 8079 9184 9183 
8014 8015 9120 9119 8079 8080 9185 9184 
8015 8016 9121 9120 8080 8081 9186 9185 
8016 8017 9122 9121 8081 8082 9187 9186 
8017 8018 9123 9122 8082 8083 9188 9187 
8018 8019 9124 9123 8083 8084 9189 9188 
8019 8020 9125 9124 8084 8085 9190 9189 
8020 8021 9126 9125 8085 8086 9191 9190 
8021 8022 9127 9126 8086 8087 9192 9191 
8022 8023 9128 9127 8087 8088 9193 9192 
8023 8024 9129 9128 8088 8089 9194 9193 
8024 8025 9130 9129 8089 8090 9195 9194 
8025 8026 9131 9130 8090 8091 9196 9195 
8026 8027 9132 9131 8091 8092 9197 9196 
8027 8028 9133 9132 8092 8093 9198 9197 
8028 8029 9134 9133 8093 8094 9199 9198 
8029 8030 9135 9134 8094 8095 9200 9199 
8030 8031 9136 9135 8095 8096 9201 9200 
8031 8032 9137 9136 8096 8097 9202 9201 
8032 8033 9138 9137 8097 8098 9203 9202 
8033 8034 9139 9138 8098 8099 9204 9203 
8034 8035 9140 9139 8099 8100 9205 9204 
8035 8036 9141 9140 8100 8101 9206 9205 
8036 8037 9142 9141 8101 8102 9207 9206 
8037 8038 9143 9142 8102 8103 9208 9207 
8038 8039 9144 9143 8103 8104 9209 9208 
8039 8040 9145 9144 8104 8105 9210 9209 
8040 8041 9146 9145 8105 8106 9211 9210 
8041 8042 9147 9146 8106 8107 9212 9211 
8042 8043 9148 9147 8107 8108 9213 9212 
8043 8044 9149 9148 8108 8109 9214 9213 
8044 8045 9150 9149 8109 8110 9215 9214 
8045 8046 9151 9150 8110 8111 9216 9215 
8046 8047 9152 9151 8111 8112 9217 9216 
8047 8048 9153 9152 8112 8113 9218 9217 
8048 8049 9154 9153 8113 8114 9219 9218 
8049 8050 9155 9154 8114 8115 9220 9219 
8050 8051 9156 9155 8115 8116 9221 9220 
8051 8052 9157 9156 8116 8117 9222 9221 
8052 8053 9158 9157 8117 8118 9223 9222 
8053 8054 9159 9158 8118 8119 9224 9223 
8054 8055 9160 9159 8119 8120 9225 9224 
8055 8056 9161 9160 8120 8121 9226 9225 
8056 8057 9162 9161 8121 8122 9227 9226 
8057 8058 9163 9162 8122 8123 9228 9227 
8058 8059 9164 9163 8123 8124 9229 9228 
8060 8061 9166 9165 8125 8126 9231 9230 
8061 8062 9167 9166 8126 8127 9232 9231 
8062 8063 9168 9167 8127 8128 9233 9232 
8063 8064 9169 9168 8128 8129 9234 9233 
8064 8065 9170 9169 8129 8130 9235 9234 
8065 8066 9171 9170 8130 8131 9236 9235 
8066 8067 9172 9171 8131 8132 9237 9236 
8067 8068 9173 9172 8132 8133 9238 9237 
8068 8069 9174 9173 8133 8134 9239 9238 
8069 8070 9175 9174 8134 8135 9240 9239 
8070 8071 9176 9175 8135 8136 9241 9240 
8071 8072 9177 9176 8136 8137 9242 9241 
8072 8073 9178 9177 8137 8138 9243 9242 
8073 8074 9179 9178 8138 8139 9244 9243 
8074 8075 9180 9179 8139 8140 9245 9244 
8075 8076 9181 9180 8140 8141 9246 9245 
8076 8077 9182 9181 8141 8142 9247 9246 
8077 8078 9183 9182 8142 8143 9248 9247 
8078 8079 9184 9183 8143 8144 9249 9248 
8079 8080 9185 9184 8144 8145 9250 9249 
8080 8081 9186 9185 8145 8146 9251 9250 
8081 8082 9187 9186 8146 8147 9252 9251 
8082 8083 9188 9187 8147 8148 9253 9252 
8083 8084 9189 9188 8148 8149 9254 9253 
8084 8085 9190 9189 8149 8150 9255 9254 
8085 8086 9191 9190 8150 8151 9256 9255 
8086 8087 9192 9191 8151 8152 9257 9256 
8087 8088 9193 9192 8152 8153 9258 9257 
8088 8089 9194 9193 8153 8154 9259 9258 
8089 8090 9195 9194 8154 8155 9260 9259 
8090 8091 9196 9195 8155 8156 9261 9260 
8091 8092 9197 9196 8156 8157 9262 9261 
8092 8093 9198 9197 8157 8158 9263 9262 
8093 8094 9199 9198 8158 8159 9264 9263 
8094 8095 9200 9199 8159 8160 9265 9264 
8095 8096 9201 9200 8160 8161 9266 9265 
8096 8097 9202 9201 8161 8162 9267 9266 
8097 8098 9203 9202 8162 8163 9268 9267 
8098 8099 9204 9203 8163 8164 9269 9268 
8099 8100 9205 9204 8164 8165 9270 9269 
8100 8101 9206 9205 8165 8166 9271 9270 
8101 8102 9207 9206 8166 8167 9272 9271 
8102 8103 9208 9207 8167 8168 9273 9272 
8103 8104 9209 9208 8168 8169 9274 9273 
8104 8105 9210 9209 8169 8170 9275 9274 
8105 8106 9211 9210 8170 8171 9276 9275 
8106 8107 9212 9211 8171 8172 9277 9276 
8107 8108 9213 9212 8172 8173 9278 9277 
8108 8109 9214 9213 8173 8174 9279 9278 
8109 8110 9215 9214 8174 8175 9280 9279 
8110 8111 9216 9215 8175 8176 9281 9280 
8111 8112 9217 9216 8176 8177 9282 9281 
8112 8113 9218 9217 8177 8178 9283 9282 
8113 8114 9219 9218 8178 8179 9284 9283 
8114 8115 9220 9219 8179 8180 9285 9284 
8115 8116 9221 9220 8180 8181 9286 9285 
8116 8117 9222 9221 8181 8182 9287 9286 
8117 8118 9223 9222 8182 8183 9288 9287 
8118 8119 9224 9223 8183 8184 9289 9288 
8119 8120 9225 9224 8184 8185 9290 9289 
8120 8121 9226 9225 8185 8186 9291 9290 
8121 8122 9227 9226 8186 8187 9292 9291 
8122 8123 9228 9227 8187 8188 9293 9292 
8123 8124 9229 9228 8188 8189 9294 9293 
8125 8126 9231 9230 8190 8191 9296 9295 
8126 8127 9232 9231 8191 8192 9297 9296 
8127 8128 9233 9232 8192 8193 9298 9297 
8128 8129 9234 9233 8193 8194 9299 9298 
8129 8130 9235 9234 8194 8195 9300 9299 
8130 8131 9236 9235 8195 8196 9301 9300 
8131 8132 9237 9236 8196 8197 9302 9301 
8132 8133 9238 9237 8197 8198 9303 9302 
8133 8134 9239 9238 8198 8199 9304 9303 
8134 8135 9240 9239 8199 8200 9305 9304 
8135 8136 9241 9240 8200 8201 9306 9305 
8136 8137 9242 9241 8201 8202 9307 9306 
8137 8138 9243 9242 8202 8203 9308 9307 
8138 8139 9244 9243 8203 8204 9309 9308 
8139 8140 9245 9244 8204 8205 9310 9309 
8140 8141 9246 9245 8205 8206 9311 9310 
8141 8142 9247 9246 8206 8207 9312 9311 
8142 8143 9248 9247 8207 8208 9313 9312 
8143 8144 9249 9248 8208 8209 9314 9313 
8144 8145 9250 9249 8209 8210 9315 9314 
8145 8146 9251 9250 8210 8211 9316 9315 
8146 8147 9252 9251 8211 8212 9317 9316 
8147 8148 9253 9252 8212 8213 9318 9317 
8148 8149 9254 9253 8213 8214 9319 9318 
8149 8150 9255 9254 8214 8215 9320 9319 
8150 8151 9256 9255 8215 8216 9321 9320 
8151 8152 9257 9256 8216 8217 9322 9321 
8152 8153 9258 9257 8217 8218 9323 9322 
8153 8154 9259 9258 8218 8219 9324 9323 
8154 8155 9260 9259 8219 8220 9325 9324 
8155 8156 9261 9260 8220 8221 9326 9325 
8156 8157 9262 9261 8221 8222 9327 9326 
8157 8158 9263 9262 8222 8223 9328 9327 
8158 8159 9264 9263 8223 8224 9329 9328 
8159 8160 9265 9264 8224 8225 9330 9329 
8160 8161 9266 9265 8225 8226 9331 9330 
8161 8162 9267 9266 8226 8227 9332 9331 
8162 8163 9268 9267 8227 8228 9333 9332 
8163 8164 9269 9268 8228 8229 9334 9333 
8164 8165 9270 9269 8229 8230 9335 9334 
8165 8166 9271 9270 8230 8231 9336 9335 
8166 8167 9272 9271 8231 8232 9337 9336 
8167 8168 9273 9272 8232 8233 9338 9337 
8168 8169 9274 9273 8233 8234 9339 9338 
8169 8170 9275 9274 8234 8235 9340 9339 
8170 8171 9276 9275 8235 8236 9341 9340 
8171 8172 9277 9276 8236 8237 9342 9341 
8172 8173 9278 9277 8237 8238 9343 9342 
8173 8174 9279 9278 8238 8239 9344 9343 
8174 8175 9280 9279 8239 8240 9345 9344 
8175 8176 9281 9280 8240 8241 9346 9345 
8176 8177 9282 9281 8241 8242 9347 9346 
8177 8178 9283 9282 8242 8243 9348 9347 
8178 8179 9284 9283 8243 8244 9349 9348 
8179 8180 9285 9284 8244 8245 9350 9349 
8180 8181 9286 9285 8245 8246 9351 9350 
8181 8182 9287 9286 8246 8247 9352 9351 
8182 8183 9288 9287 8247 8248 9353 9352 
8183 8184 9289 9288 8248 8249 9354 9353 
8184 8185 9290 9289 8249 8250 9355 9354 
8185 8186 9291 9290 8250 8251 9356 9355 
8186 8187 9292 9291 8251 8252 9357 9356 
8187 8188 9293 9292 8252 8253 9358 9357 
8188 8189 9294 9293 8253 8254 9359 9358 
8190 8191 9296 9295 8255 8256 9361 9360 
8191 8192 9297 9296 8256 8257 9362 9361 
8192 8193 9298 9297 8257 8258 9363 9362 
8193 8194 9299 9298 8258 8259 9364 9363 
8194 8195 9300 9299 8259 8260 9365 9364 
8195 8196 9301 9300 8260 8261 9366 9365 
8196 8197 9302 9301 8261 8262 9367 9366 
8197 8198 9303 9302 8262 8263 9368 9367 
8198 8199 9304 9303 8263 8264 9369 9368 
8199 8200 9305 9304 8264 8265 9370 9369 
8200 8201 9306 9305 8265 8266 9371 9370 
8201 8202 9307 9306 8266 8267 9372 9371 
8202 8203 9308 9307 8267 8268 9373 9372 
8203 8204 9309 9308 8268 8269 9374 9373 
8204 8205 9310 9309 8269 8270 9375 9374 
8205 8206 9311 9310 8270 8271 9376 9375 
8206 8207 9312 9311 8271 8272 9377 9376 
8207 8208 9313 9312 8272 8273 9378 9377 
8208 8209 9314 9313 8273 8274 9379 9378 
8209 8210 9315 9314 8274 8275 9380 9379 
8210 8211 9316 9315 8275 8276 9381 9380 
8211 8212 9317 9316 8276 8277 9382 9381 
8212 8213 9318 9317 8277 8278 9383 9382 
8213 8214 9319 9318 8278 8279 9384 9383 
8214 8215 9320 9319 8279 8280 9385 9384 
8215 8216 9321 9320 8280 8281 9386 9385 
8216 8217 9322 9321 8281 8282 9387 9386 
8217 8218 9323 9322 8282 8283 9388 9387 
8218 8219 9324 9323 8283 8284 9389 9388 
8219 8220 9325 9324 8284 8285 9390 9389 
8220 8221 9326 9325 8285 8286 9391 9390 
8221 8222 9327 9326 8286 8287 9392 9391 
8222 8223 9328 9327 8287 8288 9393 9392 
8223 8224 9329 9328 8288 8289 9394 9393 
8224 8225 9330 9329 8289 8290 9395 9394 
8225 8226 9331 9330 8290 8291 9396 9395 
8226 8227 9332 9331 8291 8292 9397 9396 
8227 8228 9333 9332 8292 8293 9398 9397 
8228 8229 9334 9333 8293 8294 9399 9398 
8229 8230 9335 9334 8294 8295 9400 9399 
8230 8231 9336 9335 8295 8296 9401 9400 
8231 8232 9337 9336 8296 8297 9402 9401 
8232 8233 9338 9337 8297 8298 9403 9402 
8233 8234 9339 9338 8298 8299 9404 9403 
8234 8235 9340 9339 8299 8300 9405 9404 
8235 8236 9341 9340 8300 8301 9406 9405 
8236 8237 9342 9341 8301 8302 9407 9406 
8237 8238 9343 9342 8302 8303 9408 9407 
8238 8239 9344 9343 8303 8304 9409 9408 
8239 8240 9345 9344 8304 8305 9410 9409 
8240 8241 9346 9345 8305 8306 9411 9410 
8241 8242 9347 9346 8306 8307 9412 9411 
8242 8243 9348 9347 8307 8308 9413 9412 
8243 8244 9349 9348 8308 8309 9414 9413 
8244 8245 9350 9349 8309 8310 9415 9414 
8245 8246 9351 9350 8310 8311 9416 9415 
8246 8247 9352 9351 8311 8312 9417 9416 
8247 8248 9353 9352 8312 8313 9418 9417 
8248 8249 9354 9353 8313 8314 9419 9418 
8249 8250 9355 9354 8314 8315 9420 9419 
8250 8251 9356 9355 8315 8316 9421 9420 
8251 8252 9357 9356 8316 8317 9422 9421 
8252 8253 9358 9357 8317 8318 9423 9422 
8253 8254 9359 9358 8318 8319 9424 9423 
8255 8256 9361 9360 8320 8321 9426 9425 
8256 8257 9362 9361 8321 8322 9427 9426 
8257 8258 9363 9362 8322 8323 9428 9427 
8258 8259 9364 9363 8323 8324 9429 9428 
8259 8260 9365 9364 8324 8325 9430 9429 
8260 8261 9366 9365 8325 8326 9431 9430 
8261 8262 9367 9366 8326 8327 9432 9431 
8262 8263 9368 9367 8327 8328 9433 9432 
8263 8264 9369 9368 8328 8329 9434 9433 
8264 8265 9370 9369 8329 8330 9435 9434 
8265 8266 9371 9370 8330 8331 9436 9435 
8266 8267 9372 9371 8331 8332 9437 9436 
8267 8268 9373 9372 8332 8333 9438 9437 
8268 8269 9374 9373 8333 8334 9439 9438 
8269 8270 9375 9374 8334 8335 9440 9439 
8270 8271 9376 9375 8335 8336 9441 9440 
8271 8272 9377 9376 8336 8337 9442 9441 
8272 8273 9378 9377 8337 8338 9443 9442 
8273 8274 9379 9378 8338 8339 9444 9443 
8274 8275 9380 9379 8339 8340 9445 9444 
8275 8276 9381 9380 8340 8341 9446 9445 
8276 8277 9382 9381 8341 8342 9447 9446 
8277 8278 9383 9382 8342 8343 9448 9447 
8278 8279 9384 9383 8343 8344 9449 9448 
8279 8280 9385 9384 8344 8345 9450 9449 
8280 8281 9386 9385 8345 8346 9451 9450 
8281 8282 9387 9386 8346 8347 9452 9451 
8282 8283 9388 9387 8347 8348 9453 9452 
8283 8284 9389 9388 8348 8349 9454 9453 
8284 8285 9390 9389 8349 8350 9455 9454 
8285 8286 9391 9390 8350 8351 9456 9455 
8286 8287 9392 9391 8351 8352 9457 9456 
8287 8288 9393 9392 8352 8353 9458 9457 
8288 8289 9394 9393 8353 8354 9459 9458 
8289 8290 9395 9394 8354 8355 9460 9459 
8290 8291 9396 9395 8355 8356 9461 9460 
8291 8292 9397 9396 8356 8357 9462 9461 
8292 8293 9398 9397 8357 8358 9463 9462 
8293 8294 9399 9398 8358 8359 9464 9463 
8294 8295 9400 9399 8359 8360 9465 9464 
8295 8296 9401 9400 8360 8361 9466 9465 
8296 8297 9402 9401 8361 8362 9467 9466 
8297 8298 9403 9402 8362 8363 9468 9467 
8298 8299 9404 9403 8363 8364 9469 9468 
8299 8300 9405 9404 8364 8365 9470 9469 
8300 8301 9406 9405 8365 8366 9471 9470 
8301 8302 9407 9406 8366 8367 9472 9471 
8302 8303 9408 9407 8367 8368 9473 9472 
8303 8304 9409 9408 8368 8369 9474 9473 
8304 8305 9410 9409 8369 8370 9475 9474 
8305 8306 9411 9410 8370 8371 9476 9475 
8306 8307 9412 9411 8371 8372 9477 9476 
8307 8308 9413 9412 8372 8373 9478 9477 
8308 8309 9414 9413 8373 8374 9479 9478 
8309 8310 9415 9414 8374 8375 9480 9479 
8310 8311 9416 9415 8375 8376 9481 9480 
8311 8312 9417 9416 8376 8377 9482 9481 
8312 8313 9418 9417 8377 8378 9483 9482 
8313 8314 9419 9418 8378 8379 9484 9483 
8314 8315 9420 9419 8379 8380 9485 9484 
8315 8316 9421 9420 8380 8381 9486 9485 
8316 8317 9422 9421 8381 8382 9487 9486 
8317 8318 9423 9422 8382 8383 9488 9487 
8318 8319 9424 9423 8383 8384 9489 9488 
8320 8321 9426 9425 8385 8386 9491 9490 
8321 8322 9427 9426 8386 8387 9492 9491 
8322 8323 9428 9427 8387 8388 9493 9492 
8323 8324 9429 9428 8388 8389 9494 9493 
8324 8325 9430 9429 8389 8390 9495 9494 
8325 8326 9431 9430 8390 8391 9496 9495 
8326 8327 9432 9431 8391 8392 9497 9496 
8327 8328 9433 9432 8392 8393 9498 9497 
8328 8329 9434 9433 8393 8394 9499 9498 
8329 8330 9435 9434 8394 8395 9500 9499 
8330 8331 9436 9435 8395 8396 9501 9500 
8331 8332 9437 9436 8396 8397 9502 9501 
8332 8333 9438 9437 8397 8398 9503 9502 
8333 8334 9439 9438 8398 8399 9504 9503 
8334 8335 9440 9439 8399 8400 9505 9504 
8335 8336 9441 9440 8400 8401 9506 9505 
8336 8337 9442 9441 8401 8402 9507 9506 
8337 8338 9443 9442 8402 8403 9508 9507 
8338 8339 9444 9443 8403 8404 9509 9508 
8339 8340 9445 9444 8404 8405 9510 9509 
8340 8341 9446 9445 8405 8406 9511 9510 
8341 8342 9447 9446 8406 8407 9512 9511 
8342 8343 9448 9447 8407 8408 9513 9512 
8343 8344 9449 9448 8408 8409 9514 9513 
8344 8345 9450 9449 8409 8410 9515 9514 
8345 8346 9451 9450 8410 8411 9516 9515 
8346 8347 9452 9451 8411 8412 9517 9516 
8347 8348 9453 9452 8412 8413 9518 9517 
8348 8349 9454 9453 8413 8414 9519 9518 
8349 8350 9455 9454 8414 8415 9520 9519 
8350 8351 9456 9455 8415 8416 9521 9520 
8351 8352 9457 9456 8416 8417 9522 9521 
8352 8353 9458 9457 8417 8418 9523 9522 
8353 8354 9459 9458 8418 8419 9524 9523 
8354 8355 9460 9459 8419 8420 9525 9524 
8355 8356 9461 9460 8420 8421 9526 9525 
8356 8357 9462 9461 8421 8422 9527 9526 
8357 8358 9463 9462 8422 8423 9528 9527 
8358 8359 9464 9463 8423 8424 9529 9528 
8359 8360 9465 9464 8424 8425 9530 9529 
8360 8361 9466 9465 8425 8426 9531 9530 
8361 8362 9467 9466 8426 8427 9532 9531 
8362 8363 9468 9467 8427 8428 9533 9532 
8363 8364 9469 9468 8428 8429 9534 9533 
8364 8365 9470 9469 8429 8430 9535 9534 
8365 8366 9471 9470 8430 8431 9536 9535 
8366 8367 9472 9471 8431 8432 9537 9536 
8367 8368 9473 9472 8432 8433 9538 9537 
8368 8369 9474 9473 8433 8434 9539 9538 
8369 8370 9475 9474 8434 8435 9540 9539 
8370 8371 9476 9475 8435 8436 9541 9540 
8371 8372 9477 9476 8436 8437 9542 9541 
8372 8373 9478 9477 8437 8438 9543 9542 
8373 8374 9479 9478 8438 8439 9544 9543 
8374 8375 9480 9479 8439 8440 9545 9544 
8375 8376 9481 9480 8440 8441 9546 9545 
8376 8377 9482 9481 8441 8442 9547 9546 
8377 8378 9483 9482 8442 8443 9548 9547 
8378 8379 9484 9483 8443 8444 9549 9548 
8379 8380 9485 9484 8444 8445 9550 9549 
8380 8381 9486 9485 8445 8446 9551 9550 
8381 8382 9487 9486 8446 8447 9552 9551 
8382 8383 9488 9487 8447 8448 9553 9552 
8383 8384 9489 9488 8448 8449 9554 9553 
8385 8386 9491 9490 8450 8451 9556 9555 
8386 8387 9492 9491 8451 8452 9557 9556 
8387 8388 9493 9492 8452 8453 9558 9557 
8388 8389 9494 9493 8453 8454 9559 9558 
8389 8390 9495 9494 8454 8455 9560 9559 
8390 8391 9496 9495 8455 8456 9561 9560 
8391 8392 9497 9496 8456 8457 9562 9561 
8392 8393 9498 9497 8457 8458 9563 9562 
8393 8394 9499 9498 8458 8459 9564 9563 
8394 8395 9500 9499 8459 8460 9565 9564 
8395 8396 9501 9500 8460 8461 9566 9565 
8396 8397 9502 9501 8461 8462 9567 9566 
8397 8398 9503 9502 8462 8463 9568 9567 
8398 8399 9504 9503 8463 8464 9569 9568 
8399 8400 9505 9504 8464 8465 9570 9569 
8400 8401 9506 9505 8465 8466 9571 9570 
8401 8402 9507 9506 8466 8467 9572 9571 
8402 8403 9508 9507 8467 8468 9573 9572 
8403 8404 9509 9508 8468 8469 9574 9573 
8404 8405 9510 9509 8469 8470 9575 9574 
8405 8406 9511 9510 8470 8471 9576 9575 
8406 8407 9512 9511 8471 8472 9577 9576 
8407 8408 9513 9512 8472 8473 9578 9577 
8408 8409 9514 9513 8473 8474 9579 9578 
8409 8410 9515 9514 8474 8475 9580 9579 
8410 8411 9516 9515 8475 8476 9581 9580 
8411 8412 9517 9516 8476 8477 9582 9581 
8412 8413 9518 9517 8477 8478 9583 9582 
8413 8414 9519 9518 8478 8479 9584 9583 
8414 8415 9520 9519 8479 8480 9585 9584 
8415 8416 9521 9520 8480 8481 9586 9585 
8416 8417 9522 9521 8481 8482 9587 9586 
8417 8418 9523 9522 8482 8483 9588 9587 
8418 8419 9524 9523 8483 8484 9589 9588 
8419 8420 9525 9524 8484 8485 9590 9589 
8420 8421 9526 9525 8485 8486 9591 9590 
8421 8422 9527 9526 8486 8487 9592 9591 
8422 8423 9528 9527 8487 8488 9593 9592 
8423 8424 9529 9528 8488 8489 9594 9593 
8424 8425 9530 9529 8489 8490 9595 9594 
8425 8426 9531 9530 8490 8491 9596 9595 
8426 8427 9532 9531 8491 8492 9597 9596 
8427 8428 9533 9532 8492 8493 9598 9597 
8428 8429 9534 9533 8493 8494 9599 9598 
8429 8430 9535 9534 8494 8495 9600 9599 
8430 8431 9536 9535 8495 8496 9601 9600 
8431 8432 9537 9536 8496 8497 9602 9601 
8432 8433 9538 9537 8497 8498 9603 9602 
8433 8434 9539 9538 8498 8499 9604 9603 
8434 8435 9540 9539 8499 8500 9605 9604 
8435 8436 9541 9540 8500 8501 9606 9605 
8436 8437 9542 9541 8501 8502 9607 9606 
8437 8438 9543 9542 8502 8503 9608 9607 
8438 8439 9544 9543 8503 8504 9609 9608 
8439 8440 9545 9544 8504 8505 9610 9609 
8440 8441 9546 9545 8505 8506 9611 9610 
8441 8442 9547 9546 8506 8507 9612 9611 
8442 8443 9548 9547 8507 8508 9613 9612 
8443 8444 9549 9548 8508 8509 9614 9613 
8444 8445 9550 9549 8509 8510 9615 9614 
8445 8446 9551 9550 8510 8511 9616 9615 
8446 8447 9552 9551 8511 8512 9617 9616 
8447 8448 9553 9552 8512 8513 9618 9617 
8448 8449 9554 9553 8513 8514 9619 9618 
8450 8451 9556 9555 8515 8516 9621 9620 
8451 8452 9557 9556 8516 8517 9622 9621 
8452 8453 9558 9557 8517 8518 9623 9622 
8453 8454 9559 9558 8518 8519 9624 9623 
8454 8455 9560 9559 8519 8520 9625 9624 
8455 8456 9561 9560 8520 8521 9626 9625 
8456 8457 9562 9561 8521 8522 9627 9626 
8457 8458 9563 9562 8522 8523 9628 9627 
8458 8459 9564 9563 8523 8524 9629 9628 
8459 8460 9565 9564 8524 8525 9630 9629 
8460 8461 9566 9565 8525 8526 9631 9630 
8461 8462 9567 9566 8526 8527 9632 9631 
8462 8463 9568 9567 8527 8528 9633 9632 
8463 8464 9569 9568 8528 8529 9634 9633 
8464 8465 9570 9569 8529 8530 9635 9634 
8465 8466 9571 9570 8530 8531 9636 9635 
8466 8467 9572 9571 8531 8532 9637 9636 
8467 8468 9573 9572 8532 8533 9638 9637 
8468 8469 9574 9573 8533 8534 9639 9638 
8469 8470 9575 9574 8534 8535 9640 9639 
8470 8471 9576 9575 8535 8536 9641 9640 
8471 8472 9577 9576 8536 8537 9642 9641 
8472 8473 9578 9577 8537 8538 9643 9642 
8473 8474 9579 9578 8538 8539 9644 9643 
8474 8475 9580 9579 8539 8540 9645 9644 
8475 8476 9581 9580 8540 8541 9646 9645 
8476 8477 9582 9581 8541 8542 9647 9646 
8477 8478 9583 9582 8542 8543 9648 9647 
8478 8479 9584 9583 8543 8544 9649 9648 
8479 8480 9585 9584 8544 8545 9650 9649 
8480 8481 9586 9585 8545 8546 9651 9650 
8481 8482 9587 9586 8546 8547 9652 9651 
8482 8483 9588 9587 8547 8548 9653 9652 
8483 8484 9589 9588 8548 8549 9654 9653 
8484 8485 9590 9589 8549 8550 9655 9654 
8485 8486 9591 9590 8550 8551 9656 9655 
8486 8487 9592 9591 8551 8552 9657 9656 
8487 8488 9593 9592 8552 8553 9658 9657 
8488 8489 9594 9593 8553 8554 9659 9658 
8489 8490 9595 9594 8554 8555 9660 9659 
8490 8491 9596 9595 8555 8556 9661 9660 
8491 8492 9597 9596 8556 8557 9662 9661 
8492 8493 9598 9597 8557 8558 9663 9662 
8493 8494 9599 9598 8558 8559 9664 9663 
8494 8495 9600 9599 8559 8560 9665 9664 
8495 8496 9601 9600 8560 8561 9666 9665 
8496 8497 9602 9601 8561 8562 9667 9666 
8497 8498 9603 9602 8562 8563 9668 9667 
8498 8499 9604 9603 8563 8564 9669 9668 
8499 8500 9605 9604 8564 8565 9670 9669 
8500 8501 9606 9605 8565 8566 9671 9670 
8501 8502 9607 9606 8566 8567 9672 9671 
8502 8503 9608 9607 8567 8568 9673 9672 
8503 8504 9609 9608 8568 8569 9674 9673 
8504 8505 9610 9609 8569 8570 9675 9674 
8505 8506 9611 9610 8570 8571 9676 9675 
8506 8507 9612 9611 8571 8572 9677 9676 
8507 8508 9613 9612 8572 8573 9678 9677 
8508 8509 9614 9613 8573 8574 9679 9678 
8509 8510 9615 9614 8574 8575 9680 9679 
8510 8511 9616 9615 8575 8576 9681 9680 
8511 8512 9617 9616 8576 8577 9682 9681 
8512 8513 9618 9617 8577 8578 9683 9682 
8513 8514 9619 9618 8578 8579 9684 9683 
8515 8516 9621 9620 8580 8581 9686 9685 
8516 8517 9622 9621 8581 8582 9687 9686 
8517 8518 9623 9622 8582 8583 9688 9687 
8518 8519 9624 9623 8583 8584 9689 9688 
8519 8520 9625 9624 8584 8585 9690 9689 
8520 8521 9626 9625 8585 8586 9691 9690 
8521 8522 9627 9626 8586 8587 9692 9691 
8522 8523 9628 9627 8587 8588 9693 9692 
8523 8524 9629 9628 8588 8589 9694 9693 
8524 8525 9630 9629 8589 8590 9695 9694 
8525 8526 9631 9630 8590 8591 9696 9695 
8526 8527 9632 9631 8591 8592 9697 9696 
8527 8528 9633 9632 8592 8593 9698 9697 
8528 8529 9634 9633 8593 8594 9699 9698 
8529 8530 9635 9634 8594 8595 9700 9699 
8530 8531 9636 9635 8595 8596 9701 9700 
8531 8532 9637 9636 8596 8597 9702 9701 
8532 8533 9638 9637 8597 8598 9703 9702 
8533 8534 9639 9638 8598 8599 9704 9703 
8534 8535 9640 9639 8599 8600 9705 9704 
8535 8536 9641 9640 8600 8601 9706 9705 
8536 8537 9642 9641 8601 8602 9707 9706 
8537 8538 9643 9642 8602 8603 9708 9707 
8538 8539 9644 9643 8603 8604 9709 9708 
8539 8540 9645 9644 8604 8605 9710 9709 
8540 8541 9646 9645 8605 8606 9711 9710 
8541 8542 9647 9646 8606 8607 9712 9711 
8542 8543 9648 9647 8607 8608 9713 9712 
8543 8544 9649 9648 8608 8609 9714 9713 
8544 8545 9650 9649 8609 8610 9715 9714 
8545 8546 9651 9650 8610 8611 9716 9715 
8546 8547 9652 9651 8611 8612 9717 9716 
8547 8548 9653 9652 8612 8613 9718 9717 
8548 8549 9654 9653 8613 8614 9719 9718 
8549 8550 9655 9654 8614 8615 9720 9719 
8550 8551 9656 9655 8615 8616 9721 9720 
8551 8552 9657 9656 8616 8617 9722 9721 
8552 8553 9658 9657 8617 8618 9723 9722 
8553 8554 9659 9658 8618 8619 9724 9723 
8554 8555 9660 9659 8619 8620 9725 9724 
8555 8556 9661 9660 8620 8621 9726 9725 
8556 8557 9662 9661 8621 8622 9727 9726 
8557 8558 9663 9662 8622 8623 9728 9727 
8558 8559 9664 9663 8623 8624 9729 9728 
8559 8560 9665 9664 8624 8625 9730 9729 
8560 8561 9666 9665 8625 8626 9731 9730 
8561 8562 9667 9666 8626 8627 9732 9731 
8562 8563 9668 9667 8627 8628 9733 9732 
8563 8564 9669 9668 8628 8629 9734 9733 
8564 8565 9670 9669 8629 8630 9735 9734 
8565 8566 9671 9670 8630 8631 9736 9735 
8566 8567 9672 9671 8631 8632 9737 9736 
8567 8568 9673 9672 8632 8633 9738 9737 
8568 8569 9674 9673 8633 8634 9739 9738 
8569 8570 9675 9674 8634 8635 9740 9739 
8570 8571 9676 9675 8635 8636 9741 9740 
8571 8572 9677 9676 8636 8637 9742 9741 
8572 8573 9678 9677 8637 8638 9743 9742 
8573 8574 9679 9678 8638 8639 9744 9743 
8574 8575 9680 9679 8639 8640 9745 9744 
8575 8576 9681 9680 8640 8641 9746 9745 
8576 8577 9682 9681 8641 8642 9747 9746 
8577 8578 9683 9682 8642 8643 9748 9747 
8578 8579 9684 9683 8643 8644 9749 9748 
8580 8581 9686 9685 8645 8646 9751 9750 
8581 8582 9687 9686 8646 8647 9752 9751 
8582 8583 9688 9687 8647 8648 9753 9752 
8583 8584 9689 9688 8648 8649 9754 9753 
8584 8585 9690 9689 8649 8650 9755 9754 
8585 8586 9691 9690 8650 8651 9756 9755 
8586 8587 9692 9691 8651 8652 9757 9756 
8587 8588 9693 9692 8652 8653 9758 9757 
8588 8589 9694 9693 8653 8654 9759 9758 
8589 8590 9695 9694 8654 8655 9760 9759 
8590 8591 9696 9695 8655 8656 9761 9760 
8591 8592 9697 9696 8656 8657 9762 9761 
8592 8593 9698 9697 8657 8658 9763 9762 
8593 8594 9699 9698 8658 8659 9764 9763 
8594 8595 9700 9699 8659 8660 9765 9764 
8595 8596 9701 9700 8660 8661 9766 9765 
8596 8597 9702 9701 8661 8662 9767 9766 
8597 8598 9703 9702 8662 8663 9768 9767 
8598 8599 9704 9703 8663 8664 9769 9768 
8599 8600 9705 9704 8664 8665 9770 9769 
8600 8601 9706 9705 8665 8666 9771 9770 
8601 8602 9707 9706 8666 8667 9772 9771 
8602 8603 9708 9707 8667 8668 9773 9772 
8603 8604 9709 9708 8668 8669 9774 9773 
8604 8605 9710 9709 8669 8670 9775 9774 
8605 8606 9711 9710 8670 8671 9776 9775 
8606 8607 9712 9711 8671 8672 9777 9776 
8607 8608 9713 9712 8672 8673 9778 9777 
8608 8609 9714 9713 8673 8674 9779 9778 
8609 8610 9715 9714 8674 8675 9780 9779 
8610 8611 9716 9715 8675 8676 9781 9780 
8611 8612 9717 9716 8676 8677 9782 9781 
8612 8613 9718 9717 8677 8678 9783 9782 
8613 8614 9719 9718 8678 8679 9784 9783 
8614 8615 9720 9719 8679 8680 9785 9784 
8615 8616 9721 9720 8680 8681 9786 9785 
8616 8617 9722 9721 8681 8682 9787 9786 
8617 8618 9723 9722 8682 8683 9788 9787 
8618 8619 9724 9723 8683 8684 9789 9788 
8619 8620 9725 9724 8684 8685 9790 9789 
8620 8621 9726 9725 8685 8686 9791 9790 
8621 8622 9727 9726 8686 8687 9792 9791 
8622 8623 9728 9727 8687 8688 9793 9792 
8623 8624 9729 9728 8688 8689 9794 9793 
8624 8625 9730 9729 8689 8690 9795 9794 
8625 8626 9731 9730 8690 8691 9796 9795 
8626 8627 9732 9731 8691 8692 9797 9796 
8627 8628 9733 9732 8692 8693 9798 9797 
8628 8629 9734 9733 8693 8694 9799 9798 
8629 8630 9735 9734 8694 8695 9800 9799 
8630 8631 9736 9735 8695 8696 9801 9800 
8631 8632 9737 9736 8696 8697 9802 9801 
8632 8633 9738 9737 8697 8698 9803 9802 
8633 8634 9739 9738 8698 8699 9804 9803 
8634 8635 9740 9739 8699 8700 9805 9804 
8635 8636 9741 9740 8700 8701 9806 9805 
8636 8637 9742 9741 8701 8702 9807 9806 
8637 8638 9743 9742 8702 8703 9808 9807 
8638 8639 9744 9743 8703 8704 9809 9808 
8639 8640 9745 9744 8704 8705 9810 9809 
8640 8641 9746 9745 8705 8706 9811 9810 
8641 8642 9747 9746 8706 8707 9812 9811 
8642 8643 9748 9747 8707 8708 9813 9812 
8643 8644 9749 9748 8708 8709 9814 9813 
8645 8646 9751 9750 8710 8711 9816 9815 
8646 8647 9752 9751 8711 8712 9817 9816 
8647 8648 9753 9752 8712 8713 9818 9817 
8648 8649 9754 9753 8713 8714 9819 9818 
8649 8650 9755 9754 8714 8715 9820 9819 
8650 8651 9756 9755 8715 8716 9821 9820 
8651 8652 9757 9756 8716 8717 9822 9821 
8652 8653 9758 9757 8717 8718 9823 9822 
8653 8654 9759 9758 8718 8719 9824 9823 
8654 8655 9760 9759 8719 8720 9825 9824 
8655 8656 9761 9760 8720 8721 9826 9825 
8656 8657 9762 9761 8721 8722 9827 9826 
8657 8658 9763 9762 8722 8723 9828 9827 
8658 8659 9764 9763 8723 8724 9829 9828 
8659 8660 9765 9764 8724 8725 9830 9829 
8660 8661 9766 9765 8725 8726 9831 9830 
8661 8662 9767 9766 8726 8727 9832 9831 
8662 8663 9768 9767 8727 8728 9833 9832 
8663 8664 9769 9768 8728 8729 9834 9833 
8664 8665 9770 9769 8729 8730 9835 9834 
8665 8666 9771 9770 8730 8731 9836 9835 
8666 8667 9772 9771 8731 8732 9837 9836 
8667 8668 9773 9772 8732 8733 9838 9837 
8668 8669 9774 9773 8733 8734 9839 9838 
8669 8670 9775 9774 8734 8735 9840 9839 
8670 8671 9776 9775 8735 8736 9841 9840 
8671 8672 9777 9776 8736 8737 9842 9841 
8672 8673 9778 9777 8737 8738 9843 9842 
8673 8674 9779 9778 8738 8739 9844 9843 
8674 8675 9780 9779 8739 8740 9845 9844 
8675 8676 9781 9780 8740 8741 9846 9845 
8676 8677 9782 9781 8741 8742 9847 9846 
8677 8678 9783 9782 8742 8743 9848 9847 
8678 8679 9784 9783 8743 8744 9849 9848 
8679 8680 9785 9784 8744 8745 9850 9849 
8680 8681 9786 9785 8745 8746 9851 9850 
8681 8682 9787 9786 8746 8747 9852 9851 
8682 8683 9788 9787 8747 8748 9853 9852 
8683 8684 9789 9788 8748 8749 9854 9853 
8684 8685 9790 9789 8749 8750 9855 9854 
8685 8686 9791 9790 8750 8751 9856 9855 
8686 8687 9792 9791 8751 8752 9857 9856 
8687 8688 9793 9792 8752 8753 9858 9857 
8688 8689 9794 9793 8753 8754 9859 9858 
8689 8690 9795 9794 8754 8755 9860 9859 
8690 8691 9796 9795 8755 8756 9861 9860 
8691 8692 9797 9796 8756 8757 9862 9861 
8692 8693 9798 9797 8757 8758 9863 9862 
8693 8694 9799 9798 8758 8759 9864 9863 
8694 8695 9800 9799 8759 8760 9865 9864 
8695 8696 9801 9800 8760 8761 9866 9865 
8696 8697 9802 9801 8761 8762 9867 9866 
8697 8698 9803 9802 8762 8763 9868 9867 
8698 8699 9804 9803 8763 8764 9869 9868 
8699 8700 9805 9804 8764 8765 9870 9869 
8700 8701 9806 9805 8765 8766 9871 9870 
8701 8702 9807 9806 8766 8767 9872 9871 
8702 8703 9808 9807 8767 8768 9873 9872 
8703 8704 9809 9808 8768 8769 9874 9873 
8704 8705 9810 9809 8769 8770 9875 9874 
8705 8706 9811 9810 8770 8771 9876 9875 
8706 8707 9812 9811 8771 8772 9877 9876 
8707 8708 9813 9812 8772 8773 9878 9877 
8708 8709 9814 9813 8773 8774 9879 9878 
8710 8711 9816 9815 8775 8776 9881 9880 
8711 8712 9817 9816 8776 8777 9882 9881 
8712 8713 9818 9817 8777 8778 9883 9882 
8713 8714 9819 9818 8778 8779 9884 9883 
8714 8715 9820 9819 8779 8780 9885 9884 
8715 8716 9821 9820 8780 8781 9886 9885 
8716 8717 9822 9821 8781 8782 9887 9886 
8717 8718 9823 9822 8782 8783 9888 9887 
8718 8719 9824 9823 8783 8784 9889 9888 
8719 8720 9825 9824 8784 8785 9890 9889 
8720 8721 9826 9825 8785 8786 9891 9890 
8721 8722 9827 9826 8786 8787 9892 9891 
8722 8723 9828 9827 8787 8788 9893 9892 
8723 8724 9829 9828 8788 8789 9894 9893 
8724 8725 9830 9829 8789 8790 9895 9894 
8725 8726 9831 9830 8790 8791 9896 9895 
8726 8727 9832 9831 8791 8792 9897 9896 
8727 8728 9833 9832 8792 8793 9898 9897 
8728 8729 9834 9833 8793 8794 9899 9898 
8729 8730 9835 9834 8794 8795 9900 9899 
8730 8731 9836 9835 8795 8796 9901 9900 
8731 8732 9837 9836 8796 8797 9902 9901 
8732 8733 9838 9837 8797 8798 9903 9902 
8733 8734 9839 9838 8798 8799 9904 9903 
8734 8735 9840 9839 8799 8800 9905 9904 
8735 8736 9841 9840 8800 8801 9906 9905 
8736 8737 9842 9841 8801 8802 9907 9906 
8737 8738 9843 9842 8802 8803 9908 9907 
8738 8739 9844 9843 8803 8804 9909 9908 
8739 8740 9845 9844 8804 8805 9910 9909 
8740 8741 9846 9845 8805 8806 9911 9910 
8741 8742 9847 9846 8806 8807 9912 9911 
8742 8743 9848 9847 8807 8808 9913 9912 
8743 8744 9849 9848 8808 8809 9914 9913 
8744 8745 9850 9849 8809 8810 9915 9914 
8745 8746 9851 9850 8810 8811 9916 9915 
8746 8747 9852 9851 8811 8812 9917 9916 
8747 8748 9853 9852 8812 8813 9918 9917 
8748 8749 9854 9853 8813 8814 9919 9918 
8749 8750 9855 9854 8814 8815 9920 9919 
8750 8751 9856 9855 8815 8816 9921 9920 
8751 8752 9857 9856 8816 8817 9922 9921 
8752 8753 9858 9857 8817 8818 9923 9922 
8753 8754 9859 9858 8818 8819 9924 9923 
8754 8755 9860 9859 8819 8820 9925 9924 
8755 8756 9861 9860 8820 8821 9926 9925 
8756 8757 9862 9861 8821 8822 9927 9926 
8757 8758 9863 9862 8822 8823 9928 9927 
8758 8759 9864 9863 8823 8824 9929 9928 
8759 8760 9865 9864 8824 8825 9930 9929 
8760 8761 9866 9865 8825 8826 9931 9930 
8761 8762 9867 9866 8826 8827 9932 9931 
8762 8763 9868 9867 8827 8828 9933 9932 
8763 8764 9869 9868 8828 8829 9934 9933 
8764 8765 9870 9869 8829 8830 9935 9934 
8765 8766 9871 9870 8830 8831 9936 9935 
8766 8767 9872 9871 8831 8832 9937 9936 
8767 8768 9873 9872 8832 8833 9938 9937 
8768 8769 9874 9873 8833 8834 9939 9938 
8769 8770 9875 9874 8834 8835 9940 9939 
8770 8771 9876 9875 8835 8836 9941 9940 
8771 8772 9877 9876 8836 8837 9942 9941 
8772 8773 9878 9877 8837 8838 9943 9942 
8773 8774 9879 9878 8838 8839 9944 9943 
8840 8841 9946 9945 8905 8906 10011 10010 
8841 8842 9947 9946 8906 8907 10012 10011 
8842 8843 9948 9947 8907 8908 10013 10012 
8843 8844 9949 9948 8908 8909 10014 10013 
8844 8845 9950 9949 8909 8910 10015 10014 
8845 8846 9951 9950 8910 8911 10016 10015 
8846 8847 9952 9951 8911 8912 10017 10016 
8847 8848 9953 9952 8912 8913 10018 10017 
8848 8849 9954 9953 8913 8914 10019 10018 
8849 8850 9955 9954 8914 8915 10020 10019 
8850 8851 9956 9955 8915 8916 10021 10020 
8851 8852 9957 9956 8916 8917 10022 10021 
8852 8853 9958 9957 8917 8918 10023 10022 
8853 8854 9959 9958 8918 8919 10024 10023 
8854 8855 9960 9959 8919 8920 10025 10024 
8855 8856 9961 9960 8920 8921 10026 10025 
8856 8857 9962 9961 8921 8922 10027 10026 
8857 8858 9963 9962 8922 8923 10028 10027 
8858 8859 9964 9963 8923 8924 10029 10028 
8859 8860 9965 9964 8924 8925 10030 10029 
8860 8861 9966 9965 8925 8926 10031 10030 
8861 8862 9967 9966 8926 8927 10032 10031 
8862 8863 9968 9967 8927 8928 10033 10032 
8863 8864 9969 9968 8928 8929 10034 10033 
8864 8865 9970 9969 8929 8930 10035 10034 
8865 8866 9971 9970 8930 8931 10036 10035 
8866 8867 9972 9971 8931 8932 10037 10036 
8867 8868 9973 9972 8932 8933 10038 10037 
8868 8869 9974 9973 8933 8934 10039 10038 
8869 8870 9975 9974 8934 8935 10040 10039 
8870 8871 9976 9975 8935 8936 10041 10040 
8871 8872 9977 9976 8936 8937 10042 10041 
8872 8873 9978 9977 8937 8938 10043 10042 
8873 8874 9979 9978 8938 8939 10044 10043 
8874 8875 9980 9979 8939 8940 10045 10044 
8875 8876 9981 9980 8940 8941 10046 10045 
8876 8877 9982 9981 8941 8942 10047 10046 
8877 8878 9983 9982 8942 8943 10048 10047 
8878 8879 9984 9983 8943 8944 10049 10048 
8879 8880 9985 9984 8944 8945 10050 10049 
8880 8881 9986 9985 8945 8946 10051 10050 
8881 8882 9987 9986 8946 8947 10052 10051 
8882 8883 9988 9987 8947 8948 10053 10052 
8883 8884 9989 9988 8948 8949 10054 10053 
8884 8885 9990 9989 8949 8950 10055 10054 
8885 8886 9991 9990 8950 8951 10056 10055 
8886 8887 9992 9991 8951 8952 10057 10056 
8887 8888 9993 9992 8952 8953 10058 10057 
8888 8889 9994 9993 8953 8954 10059 10058 
8889 8890 9995 9994 8954 8955 10060 10059 
8890 8891 9996 9995 8955 8956 10061 10060 
8891 8892 9997 9996 8956 8957 10062 10061 
8892 8893 9998 9997 8957 8958 10063 10062 
8893 8894 9999 9998 8958 8959 10064 10063 
8894 8895 10000 9999 8959 8960 10065 10064 
8895 8896 10001 10000 8960 8961 10066 10065 
8896 8897 10002 10001 8961 8962 10067 10066 
8897 8898 10003 10002 8962 8963 10068 10067 
8898 8899 10004 10003 8963 8964 10069 10068 
8899 8900 10005 10004 8964 8965 10070 10069 
8900 8901 10006 10005 8965 8966 10071 10070 
8901 8902 10007 10006 8966 8967 10072 10071 
8902 8903 10008 10007 8967 8968 10073 10072 
8903 8904 10009 10008 8968 8969 10074 10073 
8905 8906 10011 10010 8970 8971 10076 10075 
8906 8907 10012 10011 8971 8972 10077 10076 
8907 8908 10013 10012 8972 8973 10078 10077 
8908 8909 10014 10013 8973 8974 10079 10078 
8909 8910 10015 10014 8974 8975 10080 10079 
8910 8911 10016 10015 8975 8976 10081 10080 
8911 8912 10017 10016 8976 8977 10082 10081 
8912 8913 10018 10017 8977 8978 10083 10082 
8913 8914 10019 10018 8978 8979 10084 10083 
8914 8915 10020 10019 8979 8980 10085 10084 
8915 8916 10021 10020 8980 8981 10086 10085 
8916 8917 10022 10021 8981 8982 10087 10086 
8917 8918 10023 10022 8982 8983 10088 10087 
8918 8919 10024 10023 8983 8984 10089 10088 
8919 8920 10025 10024 8984 8985 10090 10089 
8920 8921 10026 10025 8985 8986 10091 10090 
8921 8922 10027 10026 8986 8987 10092 10091 
8922 8923 10028 10027 8987 8988 10093 10092 
8923 8924 10029 10028 8988 8989 10094 10093 
8924 8925 10030 10029 8989 8990 10095 10094 
8925 8926 10031 10030 8990 8991 10096 10095 
8926 8927 10032 10031 8991 8992 10097 10096 
8927 8928 10033 10032 8992 8993 10098 10097 
8928 8929 10034 10033 8993 8994 10099 10098 
8929 8930 10035 10034 8994 8995 10100 10099 
8930 8931 10036 10035 8995 8996 10101 10100 
8931 8932 10037 10036 8996 8997 10102 10101 
8932 8933 10038 10037 8997 8998 10103 10102 
8933 8934 10039 10038 8998 8999 10104 10103 
8934 8935 10040 10039 8999 9000 10105 10104 
8935 8936 10041 10040 9000 9001 10106 10105 
8936 8937 10042 10041 9001 9002 10107 10106 
8937 8938 10043 10042 9002 9003 10108 10107 
8938 8939 10044 10043 9003 9004 10109 10108 
8939 8940 10045 10044 9004 9005 10110 10109 
8940 8941 10046 10045 9005 9006 10111 10110 
8941 8942 10047 10046 9006 9007 10112 10111 
8942 8943 10048 10047 9007 9008 10113 10112 
8943 8944 10049 10048 9008 9009 10114 10113 
8944 8945 10050 10049 9009 9010 10115 10114 
8945 8946 10051 10050 9010 9011 10116 10115 
8946 8947 10052 10051 9011 9012 10117 10116 
8947 8948 10053 10052 9012 9013 10118 10117 
8948 8949 10054 10053 9013 9014 10119 10118 
8949 8950 10055 10054 9014 9015 10120 10119 
8950 8951 10056 10055 9015 9016 10121 10120 
8951 8952 10057 10056 9016 9017 10122 10121 
8952 8953 10058 10057 9017 9018 10123 10122 
8953 8954 10059 10058 9018 9019 10124 10123 
8954 8955 10060 10059 9019 9020 10125 10124 
8955 8956 10061 10060 9020 9021 10126 10125 
8956 8957 10062 10061 9021 9022 10127 10126 
8957 8958 10063 10062 9022 9023 10128 10127 
8958 8959 10064 10063 9023 9024 10129 10128 
8959 8960 10065 10064 9024 9025 10130 10129 
8960 8961 10066 10065 9025 9026 10131 10130 
8961 8962 10067 10066 9026 9027 10132 10131 
8962 8963 10068 10067 9027 9028 10133 10132 
8963 8964 10069 10068 9028 9029 10134 10133 
8964 8965 10070 10069 9029 9030 10135 10134 
8965 8966 10071 10070 9030 9031 10136 10135 
8966 8967 10072 10071 9031 9032 10137 10136 
8967 8968 10073 10072 9032 9033 10138 10137 
8968 8969 10074 10073 9033 9034 10139 10138 
8970 8971 10076 10075 9035 9036 10141 10140 
8971 8972 10077 10076 9036 9037 10142 10141 
8972 8973 10078 10077 9037 9038 10143 10142 
8973 8974 10079 10078 9038 9039 10144 10143 
8974 8975 10080 10079 9039 9040 10145 10144 
8975 8976 10081 10080 9040 9041 10146 10145 
8976 8977 10082 10081 9041 9042 10147 10146 
8977 8978 10083 10082 9042 9043 10148 10147 
8978 8979 10084 10083 9043 9044 10149 10148 
8979 8980 10085 10084 9044 9045 10150 10149 
8980 8981 10086 10085 9045 9046 10151 10150 
8981 8982 10087 10086 9046 9047 10152 10151 
8982 8983 10088 10087 9047 9048 10153 10152 
8983 8984 10089 10088 9048 9049 10154 10153 
8984 8985 10090 10089 9049 9050 10155 10154 
8985 8986 10091 10090 9050 9051 10156 10155 
8986 8987 10092 10091 9051 9052 10157 10156 
8987 8988 10093 10092 9052 9053 10158 10157 
8988 8989 10094 10093 9053 9054 10159 10158 
8989 8990 10095 10094 9054 9055 10160 10159 
8990 8991 10096 10095 9055 9056 10161 10160 
8991 8992 10097 10096 9056 9057 10162 10161 
8992 8993 10098 10097 9057 9058 10163 10162 
8993 8994 10099 10098 9058 9059 10164 10163 
8994 8995 10100 10099 9059 9060 10165 10164 
8995 8996 10101 10100 9060 9061 10166 10165 
8996 8997 10102 10101 9061 9062 10167 10166 
8997 8998 10103 10102 9062 9063 10168 10167 
8998 8999 10104 10103 9063 9064 10169 10168 
8999 9000 10105 10104 9064 9065 10170 10169 
9000 9001 10106 10105 9065 9066 10171 10170 
9001 9002 10107 10106 9066 9067 10172 10171 
9002 9003 10108 10107 9067 9068 10173 10172 
9003 9004 10109 10108 9068 9069 10174 10173 
9004 9005 10110 10109 9069 9070 10175 10174 
9005 9006 10111 10110 9070 9071 10176 10175 
9006 9007 10112 10111 9071 9072 10177 10176 
9007 9008 10113 10112 9072 9073 10178 10177 
9008 9009 10114 10113 9073 9074 10179 10178 
9009 9010 10115 10114 9074 9075 10180 10179 
9010 9011 10116 10115 9075 9076 10181 10180 
9011 9012 10117 10116 9076 9077 10182 10181 
9012 9013 10118 10117 9077 9078 10183 10182 
9013 9014 10119 10118 9078 9079 10184 10183 
9014 9015 10120 10119 9079 9080 10185 10184 
9015 9016 10121 10120 9080 9081 10186 10185 
9016 9017 10122 10121 9081 9082 10187 10186 
9017 9018 10123 10122 9082 9083 10188 10187 
9018 9019 10124 10123 9083 9084 10189 10188 
9019 9020 10125 10124 9084 9085 10190 10189 
9020 9021 10126 10125 9085 9086 10191 10190 
9021 9022 10127 10126 9086 9087 10192 10191 
9022 9023 10128 10127 9087 9088 10193 10192 
9023 9024 10129 10128 9088 9089 10194 10193 
9024 9025 10130 10129 9089 9090 10195 10194 
9025 9026 10131 10130 9090 9091 10196 10195 
9026 9027 10132 10131 9091 9092 10197 10196 
9027 9028 10133 10132 9092 9093 10198 10197 
9028 9029 10134 10133 9093 9094 10199 10198 
9029 9030 10135 10134 9094 9095 10200 10199 
9030 9031 10136 10135 9095 9096 10201 10200 
9031 9032 10137 10136 9096 9097 10202 10201 
9032 9033 10138 10137 9097 9098 10203 10202 
9033 9034 10139 10138 9098 9099 10204 10203 
9035 9036 10141 10140 9100 9101 10206 10205 
9036 9037 10142 10141 9101 9102 10207 10206 
9037 9038 10143 10142 9102 9103 10208 10207 
9038 9039 10144 10143 9103 9104 10209 10208 
9039 9040 10145 10144 9104 9105 10210 10209 
9040 9041 10146 10145 9105 9106 10211 10210 
9041 9042 10147 10146 9106 9107 10212 10211 
9042 9043 10148 10147 9107 9108 10213 10212 
9043 9044 10149 10148 9108 9109 10214 10213 
9044 9045 10150 10149 9109 9110 10215 10214 
9045 9046 10151 10150 9110 9111 10216 10215 
9046 9047 10152 10151 9111 9112 10217 10216 
9047 9048 10153 10152 9112 9113 10218 10217 
9048 9049 10154 10153 9113 9114 10219 10218 
9049 9050 10155 10154 9114 9115 10220 10219 
9050 9051 10156 10155 9115 9116 10221 10220 
9051 9052 10157 10156 9116 9117 10222 10221 
9052 9053 10158 10157 9117 9118 10223 10222 
9053 9054 10159 10158 9118 9119 10224 10223 
9054 9055 10160 10159 9119 9120 10225 10224 
9055 9056 10161 10160 9120 9121 10226 10225 
9056 9057 10162 10161 9121 9122 10227 10226 
9057 9058 10163 10162 9122 9123 10228 10227 
9058 9059 10164 10163 9123 9124 10229 10228 
9059 9060 10165 10164 9124 9125 10230 10229 
9060 9061 10166 10165 9125 9126 10231 10230 
9061 9062 10167 10166 9126 9127 10232 10231 
9062 9063 10168 10167 9127 9128 10233 10232 
9063 9064 10169 10168 9128 9129 10234 10233 
9064 9065 10170 10169 9129 9130 10235 10234 
9065 9066 10171 10170 9130 9131 10236 10235 
9066 9067 10172 10171 9131 9132 10237 10236 
9067 9068 10173 10172 9132 9133 10238 10237 
9068 9069 10174 10173 9133 9134 10239 10238 
9069 9070 10175 10174 9134 9135 10240 10239 
9070 9071 10176 10175 9135 9136 10241 10240 
9071 9072 10177 10176 9136 9137 10242 10241 
9072 9073 10178 10177 9137 9138 10243 10242 
9073 9074 10179 10178 9138 9139 10244 10243 
9074 9075 10180 10179 9139 9140 10245 10244 
9075 9076 10181 10180 9140 9141 10246 10245 
9076 9077 10182 10181 9141 9142 10247 10246 
9077 9078 10183 10182 9142 9143 10248 10247 
9078 9079 10184 10183 9143 9144 10249 10248 
9079 9080 10185 10184 9144 9145 10250 10249 
9080 9081 10186 10185 9145 9146 10251 10250 
9081 9082 10187 10186 9146 9147 10252 10251 
9082 9083 10188 10187 9147 9148 10253 10252 
9083 9084 10189 10188 9148 9149 10254 10253 
9084 9085 10190 10189 9149 9150 10255 10254 
9085 9086 10191 10190 9150 9151 10256 10255 
9086 9087 10192 10191 9151 9152 10257 10256 
9087 9088 10193 10192 9152 9153 10258 10257 
9088 9089 10194 10193 9153 9154 10259 10258 
9089 9090 10195 10194 9154 9155 10260 10259 
9090 9091 10196 10195 9155 9156 10261 10260 
9091 9092 10197 10196 9156 9157 10262 10261 
9092 9093 10198 10197 9157 9158 10263 10262 
9093 9094 10199 10198 9158 9159 10264 10263 
9094 9095 10200 10199 9159 9160 10265 10264 
9095 9096 10201 10200 9160 9161 10266 10265 
9096 9097 10202 10201 9161 9162 10267 10266 
9097 9098 10203 10202 9162 9163 10268 10267 
9098 9099 10204 10203 9163 9164 10269 10268 
9100 9101 10206 10205 9165 9166 10271 10270 
9101 9102 10207 10206 9166 9167 10272 10271 
9102 9103 10208 10207 9167 9168 10273 10272 
9103 9104 10209 10208 9168 9169 10274 10273 
9104 9105 10210 10209 9169 9170 10275 10274 
9105 9106 10211 10210 9170 9171 10276 10275 
9106 9107 10212 10211 9171 9172 10277 10276 
9107 9108 10213 10212 9172 9173 10278 10277 
9108 9109 10214 10213 9173 9174 10279 10278 
9109 9110 10215 10214 9174 9175 10280 10279 
9110 9111 10216 10215 9175 9176 10281 10280 
9111 9112 10217 10216 9176 9177 10282 10281 
9112 9113 10218 10217 9177 9178 10283 10282 
9113 9114 10219 10218 9178 9179 10284 10283 
9114 9115 10220 10219 9179 9180 10285 10284 
9115 9116 10221 10220 9180 9181 10286 10285 
9116 9117 10222 10221 9181 9182 10287 10286 
9117 9118 10223 10222 9182 9183 10288 10287 
9118 9119 10224 10223 9183 9184 10289 10288 
9119 9120 10225 10224 9184 9185 10290 10289 
9120 9121 10226 10225 9185 9186 10291 10290 
9121 9122 10227 10226 9186 9187 10292 10291 
9122 9123 10228 10227 9187 9188 10293 10292 
9123 9124 10229 10228 9188 9189 10294 10293 
9124 9125 10230 10229 9189 9190 10295 10294 
9125 9126 10231 10230 9190 9191 10296 10295 
9126 9127 10232 10231 9191 9192 10297 10296 
9127 9128 10233 10232 9192 9193 10298 10297 
9128 9129 10234 10233 9193 9194 10299 10298 
9129 9130 10235 10234 9194 9195 10300 10299 
9130 9131 10236 10235 9195 9196 10301 10300 
9131 9132 10237 10236 9196 9197 10302 10301 
9132 9133 10238 10237 9197 9198 10303 10302 
9133 9134 10239 10238 9198 9199 10304 10303 
9134 9135 10240 10239 9199 9200 10305 10304 
9135 9136 10241 10240 9200 9201 10306 10305 
9136 9137 10242 10241 9201 9202 10307 10306 
9137 9138 10243 10242 9202 9203 10308 10307 
9138 9139 10244 10243 9203 9204 10309 10308 
9139 9140 10245 10244 9204 9205 10310 10309 
9140 9141 10246 10245 9205 9206 10311 10310 
9141 9142 10247 10246 9206 9207 10312 10311 
9142 9143 10248 10247 9207 9208 10313 10312 
9143 9144 10249 10248 9208 9209 10314 10313 
9144 9145 10250 10249 9209 9210 10315 10314 
9145 9146 10251 10250 9210 9211 10316 10315 
9146 9147 10252 10251 9211 9212 10317 10316 
9147 9148 10253 10252 9212 9213 10318 10317 
9148 9149 10254 10253 9213 9214 10319 10318 
9149 9150 10255 10254 9214 9215 10320 10319 
9150 9151 10256 10255 9215 9216 10321 10320 
9151 9152 10257 10256 9216 9217 10322 10321 
9152 9153 10258 10257 9217 9218 10323 10322 
9153 9154 10259 10258 9218 9219 10324 10323 
9154 9155 10260 10259 9219 9220 10325 10324 
9155 9156 10261 10260 9220 9221 10326 10325 
9156 9157 10262 10261 9221 9222 10327 10326 
9157 9158 10263 10262 9222 9223 10328 10327 
9158 9159 10264 10263 9223 9224 10329 10328 
9159 9160 10265 10264 9224 9225 10330 10329 
9160 9161 10266 10265 9225 9226 10331 10330 
9161 9162 10267 10266 9226 9227 10332 10331 
9162 9163 10268 10267 9227 9228 10333 10332 
9163 9164 10269 10268 9228 9229 10334 10333 
9165 9166 10271 10270 9230 9231 10336 10335 
9166 9167 10272 10271 9231 9232 10337 10336 
9167 9168 10273 10272 9232 9233 10338 10337 
9168 9169 10274 10273 9233 9234 10339 10338 
9169 9170 10275 10274 9234 9235 10340 10339 
9170 9171 10276 10275 9235 9236 10341 10340 
9171 9172 10277 10276 9236 9237 10342 10341 
9172 9173 10278 10277 9237 9238 10343 10342 
9173 9174 10279 10278 9238 9239 10344 10343 
9174 9175 10280 10279 9239 9240 10345 10344 
9175 9176 10281 10280 9240 9241 10346 10345 
9176 9177 10282 10281 9241 9242 10347 10346 
9177 9178 10283 10282 9242 9243 10348 10347 
9178 9179 10284 10283 9243 9244 10349 10348 
9179 9180 10285 10284 9244 9245 10350 10349 
9180 9181 10286 10285 9245 9246 10351 10350 
9181 9182 10287 10286 9246 9247 10352 10351 
9182 9183 10288 10287 9247 9248 10353 10352 
9183 9184 10289 10288 9248 9249 10354 10353 
9184 9185 10290 10289 9249 9250 10355 10354 
9185 9186 10291 10290 9250 9251 10356 10355 
9186 9187 10292 10291 9251 9252 10357 10356 
9187 9188 10293 10292 9252 9253 10358 10357 
9188 9189 10294 10293 9253 9254 10359 10358 
9189 9190 10295 10294 9254 9255 10360 10359 
9190 9191 10296 10295 9255 9256 10361 10360 
9191 9192 10297 10296 9256 9257 10362 10361 
9192 9193 10298 10297 9257 9258 10363 10362 
9193 9194 10299 10298 9258 9259 10364 10363 
9194 9195 10300 10299 9259 9260 10365 10364 
9195 9196 10301 10300 9260 9261 10366 10365 
9196 9197 10302 10301 9261 9262 10367 10366 
9197 9198 10303 10302 9262 9263 10368 10367 
9198 9199 10304 10303 9263 9264 10369 10368 
9199 9200 10305 10304 9264 9265 10370 10369 
9200 9201 10306 10305 9265 9266 10371 10370 
9201 9202 10307 10306 9266 9267 10372 10371 
9202 9203 10308 10307 9267 9268 10373 10372 
9203 9204 10309 10308 9268 9269 10374 10373 
9204 9205 10310 10309 9269 9270 10375 10374 
9205 9206 10311 10310 9270 9271 10376 10375 
9206 9207 10312 10311 9271 9272 10377 10376 
9207 9208 10313 10312 9272 9273 10378 10377 
9208 9209 10314 10313 9273 9274 10379 10378 
9209 9210 10315 10314 9274 9275 10380 10379 
9210 9211 10316 10315 9275 9276 10381 10380 
9211 9212 10317 10316 9276 9277 10382 10381 
9212 9213 10318 10317 9277 9278 10383 10382 
9213 9214 10319 10318 9278 9279 10384 10383 
9214 9215 10320 10319 9279 9280 10385 10384 
9215 9216 10321 10320 9280 9281 10386 10385 
9216 9217 10322 10321 9281 9282 10387 10386 
9217 9218 10323 10322 9282 9283 10388 10387 
9218 9219 10324 10323 9283 9284 10389 10388 
9219 9220 10325 10324 9284 9285 10390 10389 
9220 9221 10326 10325 9285 9286 10391 10390 
9221 9222 10327 10326 9286 9287 10392 10391 
9222 9223 10328 10327 9287 9288 10393 10392 
9223 9224 10329 10328 9288 9289 10394 10393 
9224 9225 10330 10329 9289 9290 10395 10394 
9225 9226 10331 10330 9290 9291 10396 10395 
9226 9227 10332 10331 9291 9292 10397 10396 
9227 9228 10333 10332 9292 9293 10398 10397 
9228 9229 10334 10333 9293 9294 10399 10398 
9230 9231 10336 10335 9295 9296 10401 10400 
9231 9232 10337 10336 9296 9297 10402 10401 
9232 9233 10338 10337 9297 9298 10403 10402 
9233 9234 10339 10338 9298 9299 10404 10403 
9234 9235 10340 10339 9299 9300 10405 10404 
9235 9236 10341 10340 9300 9301 10406 10405 
9236 9237 10342 10341 9301 9302 10407 10406 
9237 9238 10343 10342 9302 9303 10408 10407 
9238 9239 10344 10343 9303 9304 10409 10408 
9239 9240 10345 10344 9304 9305 10410 10409 
9240 9241 10346 10345 9305 9306 10411 10410 
9241 9242 10347 10346 9306 9307 10412 10411 
9242 9243 10348 10347 9307 9308 10413 10412 
9243 9244 10349 10348 9308 9309 10414 10413 
9244 9245 10350 10349 9309 9310 10415 10414 
9245 9246 10351 10350 9310 9311 10416 10415 
9246 9247 10352 10351 9311 9312 10417 10416 
9247 9248 10353 10352 9312 9313 10418 10417 
9248 9249 10354 10353 9313 9314 10419 10418 
9249 9250 10355 10354 9314 9315 10420 10419 
9250 9251 10356 10355 9315 9316 10421 10420 
9251 9252 10357 10356 9316 9317 10422 10421 
9252 9253 10358 10357 9317 9318 10423 10422 
9253 9254 10359 10358 9318 9319 10424 10423 
9254 9255 10360 10359 9319 9320 10425 10424 
9255 9256 10361 10360 9320 9321 10426 10425 
9256 9257 10362 10361 9321 9322 10427 10426 
9257 9258 10363 10362 9322 9323 10428 10427 
9258 9259 10364 10363 9323 9324 10429 10428 
9259 9260 10365 10364 9324 9325 10430 10429 
9260 9261 10366 10365 9325 9326 10431 10430 
9261 9262 10367 10366 9326 9327 10432 10431 
9262 9263 10368 10367 9327 9328 10433 10432 
9263 9264 10369 10368 9328 9329 10434 10433 
9264 9265 10370 10369 9329 9330 10435 10434 
9265 9266 10371 10370 9330 9331 10436 10435 
9266 9267 10372 10371 9331 9332 10437 10436 
9267 9268 10373 10372 9332 9333 10438 10437 
9268 9269 10374 10373 9333 9334 10439 10438 
9269 9270 10375 10374 9334 9335 10440 10439 
9270 9271 10376 10375 9335 9336 10441 10440 
9271 9272 10377 10376 9336 9337 10442 10441 
9272 9273 10378 10377 9337 9338 10443 10442 
9273 9274 10379 10378 9338 9339 10444 10443 
9274 9275 10380 10379 9339 9340 10445 10444 
9275 9276 10381 10380 9340 9341 10446 10445 
9276 9277 10382 10381 9341 9342 10447 10446 
9277 9278 10383 10382 9342 9343 10448 10447 
9278 9279 10384 10383 9343 9344 10449 10448 
9279 9280 10385 10384 9344 9345 10450 10449 
9280 9281 10386 10385 9345 9346 10451 10450 
9281 9282 10387 10386 9346 9347 10452 10451 
9282 9283 10388 10387 9347 9348 10453 10452 
9283 9284 10389 10388 9348 9349 10454 10453 
9284 9285 10390 10389 9349 9350 10455 10454 
9285 9286 10391 10390 9350 9351 10456 10455 
9286 9287 10392 10391 9351 9352 10457 10456 
9287 9288 10393 10392 9352 9353 10458 10457 
9288 9289 10394 10393 9353 9354 10459 10458 
9289 9290 10395 10394 9354 9355 10460 10459 
9290 9291 10396 10395 9355 9356 10461 10460 
9291 9292 10397 10396 9356 9357 10462 10461 
9292 9293 10398 10397 9357 9358 10463 10462 
9293 9294 10399 10398 9358 9359 10464 10463 
9295 9296 10401 10400 9360 9361 10466 10465 
9296 9297 10402 10401 9361 9362 10467 10466 
9297 9298 10403 10402 9362 9363 10468 10467 
9298 9299 10404 10403 9363 9364 10469 10468 
9299 9300 10405 10404 9364 9365 10470 10469 
9300 9301 10406 10405 9365 9366 10471 10470 
9301 9302 10407 10406 9366 9367 10472 10471 
9302 9303 10408 10407 9367 9368 10473 10472 
9303 9304 10409 10408 9368 9369 10474 10473 
9304 9305 10410 10409 9369 9370 10475 10474 
9305 9306 10411 10410 9370 9371 10476 10475 
9306 9307 10412 10411 9371 9372 10477 10476 
9307 9308 10413 10412 9372 9373 10478 10477 
9308 9309 10414 10413 9373 9374 10479 10478 
9309 9310 10415 10414 9374 9375 10480 10479 
9310 9311 10416 10415 9375 9376 10481 10480 
9311 9312 10417 10416 9376 9377 10482 10481 
9312 9313 10418 10417 9377 9378 10483 10482 
9313 9314 10419 10418 9378 9379 10484 10483 
9314 9315 10420 10419 9379 9380 10485 10484 
9315 9316 10421 10420 9380 9381 10486 10485 
9316 9317 10422 10421 9381 9382 10487 10486 
9317 9318 10423 10422 9382 9383 10488 10487 
9318 9319 10424 10423 9383 9384 10489 10488 
9319 9320 10425 10424 9384 9385 10490 10489 
9320 9321 10426 10425 9385 9386 10491 10490 
9321 9322 10427 10426 9386 9387 10492 10491 
9322 9323 10428 10427 9387 9388 10493 10492 
9323 9324 10429 10428 9388 9389 10494 10493 
9324 9325 10430 10429 9389 9390 10495 10494 
9325 9326 10431 10430 9390 9391 10496 10495 
9326 9327 10432 10431 9391 9392 10497 10496 
9327 9328 10433 10432 9392 9393 10498 10497 
9328 9329 10434 10433 9393 9394 10499 10498 
9329 9330 10435 10434 9394 9395 10500 10499 
9330 9331 10436 10435 9395 9396 10501 10500 
9331 9332 10437 10436 9396 9397 10502 10501 
9332 9333 10438 10437 9397 9398 10503 10502 
9333 9334 10439 10438 9398 9399 10504 10503 
9334 9335 10440 10439 9399 9400 10505 10504 
9335 9336 10441 10440 9400 9401 10506 10505 
9336 9337 10442 10441 9401 9402 10507 10506 
9337 9338 10443 10442 9402 9403 10508 10507 
9338 9339 10444 10443 9403 9404 10509 10508 
9339 9340 10445 10444 9404 9405 10510 10509 
9340 9341 10446 10445 9405 9406 10511 10510 
9341 9342 10447 10446 9406 9407 10512 10511 
9342 9343 10448 10447 9407 9408 10513 10512 
9343 9344 10449 10448 9408 9409 10514 10513 
9344 9345 10450 10449 9409 9410 10515 10514 
9345 9346 10451 10450 9410 9411 10516 10515 
9346 9347 10452 10451 9411 9412 10517 10516 
9347 9348 10453 10452 9412 9413 10518 10517 
9348 9349 10454 10453 9413 9414 10519 10518 
9349 9350 10455 10454 9414 9415 10520 10519 
9350 9351 10456 10455 9415 9416 10521 10520 
9351 9352 10457 10456 9416 9417 10522 10521 
9352 9353 10458 10457 9417 9418 10523 10522 
9353 9354 10459 10458 9418 9419 10524 10523 
9354 9355 10460 10459 9419 9420 10525 10524 
9355 9356 10461 10460 9420 9421 10526 10525 
9356 9357 10462 10461 9421 9422 10527 10526 
9357 9358 10463 10462 9422 9423 10528 10527 
9358 9359 10464 10463 9423 9424 10529 10528 
9360 9361 10466 10465 9425 9426 10531 10530 
9361 9362 10467 10466 9426 9427 10532 10531 
9362 9363 10468 10467 9427 9428 10533 10532 
9363 9364 10469 10468 9428 9429 10534 10533 
9364 9365 10470 10469 9429 9430 10535 10534 
9365 9366 10471 10470 9430 9431 10536 10535 
9366 9367 10472 10471 9431 9432 10537 10536 
9367 9368 10473 10472 9432 9433 10538 10537 
9368 9369 10474 10473 9433 9434 10539 10538 
9369 9370 10475 10474 9434 9435 10540 10539 
9370 9371 10476 10475 9435 9436 10541 10540 
9371 9372 10477 10476 9436 9437 10542 10541 
9372 9373 10478 10477 9437 9438 10543 10542 
9373 9374 10479 10478 9438 9439 10544 10543 
9374 9375 10480 10479 9439 9440 10545 10544 
9375 9376 10481 10480 9440 9441 10546 10545 
9376 9377 10482 10481 9441 9442 10547 10546 
9377 9378 10483 10482 9442 9443 10548 10547 
9378 9379 10484 10483 9443 9444 10549 10548 
9379 9380 10485 10484 9444 9445 10550 10549 
9380 9381 10486 10485 9445 9446 10551 10550 
9381 9382 10487 10486 9446 9447 10552 10551 
9382 9383 10488 10487 9447 9448 10553 10552 
9383 9384 10489 10488 9448 9449 10554 10553 
9384 9385 10490 10489 9449 9450 10555 10554 
9385 9386 10491 10490 9450 9451 10556 10555 
9386 9387 10492 10491 9451 9452 10557 10556 
9387 9388 10493 10492 9452 9453 10558 10557 
9388 9389 10494 10493 9453 9454 10559 10558 
9389 9390 10495 10494 9454 9455 10560 10559 
9390 9391 10496 10495 9455 9456 10561 10560 
9391 9392 10497 10496 9456 9457 10562 10561 
9392 9393 10498 10497 9457 9458 10563 10562 
9393 9394 10499 10498 9458 9459 10564 10563 
9394 9395 10500 10499 9459 9460 10565 10564 
9395 9396 10501 10500 9460 9461 10566 10565 
9396 9397 10502 10501 9461 9462 10567 10566 
9397 9398 10503 10502 9462 9463 10568 10567 
9398 9399 10504 10503 9463 9464 10569 10568 
9399 9400 10505 10504 9464 9465 10570 10569 
9400 9401 10506 10505 9465 9466 10571 10570 
9401 9402 10507 10506 9466 9467 10572 10571 
9402 9403 10508 10507 9467 9468 10573 10572 
9403 9404 10509 10508 9468 9469 10574 10573 
9404 9405 10510 10509 9469 9470 10575 10574 
9405 9406 10511 10510 9470 9471 10576 10575 
9406 9407 10512 10511 9471 9472 10577 10576 
9407 9408 10513 10512 9472 9473 10578 10577 
9408 9409 10514 10513 9473 9474 10579 10578 
9409 9410 10515 10514 9474 9475 10580 10579 
9410 9411 10516 10515 9475 9476 10581 10580 
9411 9412 10517 10516 9476 9477 10582 10581 
9412 9413 10518 10517 9477 9478 10583 10582 
9413 9414 10519 10518 9478 9479 10584 10583 
9414 9415 10520 10519 9479 9480 10585 10584 
9415 9416 10521 10520 9480 9481 10586 10585 
9416 9417 10522 10521 9481 9482 10587 10586 
9417 9418 10523 10522 9482 9483 10588 10587 
9418 9419 10524 10523 9483 9484 10589 10588 
9419 9420 10525 10524 9484 9485 10590 10589 
9420 9421 10526 10525 9485 9486 10591 10590 
9421 9422 10527 10526 9486 9487 10592 10591 
9422 9423 10528 10527 9487 9488 10593 10592 
9423 9424 10529 10528 9488 9489 10594 10593 
9425 9426 10531 10530 9490 9491 10596 10595 
9426 9427 10532 10531 9491 9492 10597 10596 
9427 9428 10533 10532 9492 9493 10598 10597 
9428 9429 10534 10533 9493 9494 10599 10598 
9429 9430 10535 10534 9494 9495 10600 10599 
9430 9431 10536 10535 9495 9496 10601 10600 
9431 9432 10537 10536 9496 9497 10602 10601 
9432 9433 10538 10537 9497 9498 10603 10602 
9433 9434 10539 10538 9498 9499 10604 10603 
9434 9435 10540 10539 9499 9500 10605 10604 
9435 9436 10541 10540 9500 9501 10606 10605 
9436 9437 10542 10541 9501 9502 10607 10606 
9437 9438 10543 10542 9502 9503 10608 10607 
9438 9439 10544 10543 9503 9504 10609 10608 
9439 9440 10545 10544 9504 9505 10610 10609 
9440 9441 10546 10545 9505 9506 10611 10610 
9441 9442 10547 10546 9506 9507 10612 10611 
9442 9443 10548 10547 9507 9508 10613 10612 
9443 9444 10549 10548 9508 9509 10614 10613 
9444 9445 10550 10549 9509 9510 10615 10614 
9445 9446 10551 10550 9510 9511 10616 10615 
9446 9447 10552 10551 9511 9512 10617 10616 
9447 9448 10553 10552 9512 9513 10618 10617 
9448 9449 10554 10553 9513 9514 10619 10618 
9449 9450 10555 10554 9514 9515 10620 10619 
9450 9451 10556 10555 9515 9516 10621 10620 
9451 9452 10557 10556 9516 9517 10622 10621 
9452 9453 10558 10557 9517 9518 10623 10622 
9453 9454 10559 10558 9518 9519 10624 10623 
9454 9455 10560 10559 9519 9520 10625 10624 
9455 9456 10561 10560 9520 9521 10626 10625 
9456 9457 10562 10561 9521 9522 10627 10626 
9457 9458 10563 10562 9522 9523 10628 10627 
9458 9459 10564 10563 9523 9524 10629 10628 
9459 9460 10565 10564 9524 9525 10630 10629 
9460 9461 10566 10565 9525 9526 10631 10630 
9461 9462 10567 10566 9526 9527 10632 10631 
9462 9463 10568 10567 9527 9528 10633 10632 
9463 9464 10569 10568 9528 9529 10634 10633 
9464 9465 10570 10569 9529 9530 10635 10634 
9465 9466 10571 10570 9530 9531 10636 10635 
9466 9467 10572 10571 9531 9532 10637 10636 
9467 9468 10573 10572 9532 9533 10638 10637 
9468 9469 10574 10573 9533 9534 10639 10638 
9469 9470 10575 10574 9534 9535 10640 10639 
9470 9471 10576 10575 9535 9536 10641 10640 
9471 9472 10577 10576 9536 9537 10642 10641 
9472 9473 10578 10577 9537 9538 10643 10642 
9473 9474 10579 10578 9538 9539 10644 10643 
9474 9475 10580 10579 9539 9540 10645 10644 
9475 9476 10581 10580 9540 9541 10646 10645 
9476 9477 10582 10581 9541 9542 10647 10646 
9477 9478 10583 10582 9542 9543 10648 10647 
9478 9479 10584 10583 9543 9544 10649 10648 
9479 9480 10585 10584 9544 9545 10650 10649 
9480 9481 10586 10585 9545 9546 10651 10650 
9481 9482 10587 10586 9546 9547 10652 10651 
9482 9483 10588 10587 9547 9548 10653 10652 
9483 9484 10589 10588 9548 9549 10654 10653 
9484 9485 10590 10589 9549 9550 10655 10654 
9485 9486 10591 10590 9550 9551 10656 10655 
9486 9487 10592 10591 9551 9552 10657 10656 
9487 9488 10593 10592 9552 9553 10658 10657 
9488 9489 10594 10593 9553 9554 10659 10658 
9490 9491 10596 10595 9555 9556 10661 10660 
9491 9492 10597 10596 9556 9557 10662 10661 
9492 9493 10598 10597 9557 9558 10663 10662 
9493 9494 10599 10598 9558 9559 10664 10663 
9494 9495 10600 10599 9559 9560 10665 10664 
9495 9496 10601 10600 9560 9561 10666 10665 
9496 9497 10602 10601 9561 9562 10667 10666 
9497 9498 10603 10602 9562 9563 10668 10667 
9498 9499 10604 10603 9563 9564 10669 10668 
9499 9500 10605 10604 9564 9565 10670 10669 
9500 9501 10606 10605 9565 9566 10671 10670 
9501 9502 10607 10606 9566 9567 10672 10671 
9502 9503 10608 10607 9567 9568 10673 10672 
9503 9504 10609 10608 9568 9569 10674 10673 
9504 9505 10610 10609 9569 9570 10675 10674 
9505 9506 10611 10610 9570 9571 10676 10675 
9506 9507 10612 10611 9571 9572 10677 10676 
9507 9508 10613 10612 9572 9573 10678 10677 
9508 9509 10614 10613 9573 9574 10679 10678 
9509 9510 10615 10614 9574 9575 10680 10679 
9510 9511 10616 10615 9575 9576 10681 10680 
9511 9512 10617 10616 9576 9577 10682 10681 
9512 9513 10618 10617 9577 9578 10683 10682 
9513 9514 10619 10618 9578 9579 10684 10683 
9514 9515 10620 10619 9579 9580 10685 10684 
9515 9516 10621 10620 9580 9581 10686 10685 
9516 9517 10622 10621 9581 9582 10687 10686 
9517 9518 10623 10622 9582 9583 10688 10687 
9518 9519 10624 10623 9583 9584 10689 10688 
9519 9520 10625 10624 9584 9585 10690 10689 
9520 9521 10626 10625 9585 9586 10691 10690 
9521 9522 10627 10626 9586 9587 10692 10691 
9522 9523 10628 10627 9587 9588 10693 10692 
9523 9524 10629 10628 9588 9589 10694 10693 
9524 9525 10630 10629 9589 9590 10695 10694 
9525 9526 10631 10630 9590 9591 10696 10695 
9526 9527 10632 10631 9591 9592 10697 10696 
9527 9528 10633 10632 9592 9593 10698 10697 
9528 9529 10634 10633 9593 9594 10699 10698 
9529 9530 10635 10634 9594 9595 10700 10699 
9530 9531 10636 10635 9595 9596 10701 10700 
9531 9532 10637 10636 9596 9597 10702 10701 
9532 9533 10638 10637 9597 9598 10703 10702 
9533 9534 10639 10638 9598 9599 10704 10703 
9534 9535 10640 10639 9599 9600 10705 10704 
9535 9536 10641 10640 9600 9601 10706 10705 
9536 9537 10642 10641 9601 9602 10707 10706 
9537 9538 10643 10642 9602 9603 10708 10707 
9538 9539 10644 10643 9603 9604 10709 10708 
9539 9540 10645 10644 9604 9605 10710 10709 
9540 9541 10646 10645 9605 9606 10711 10710 
9541 9542 10647 10646 9606 9607 10712 10711 
9542 9543 10648 10647 9607 9608 10713 10712 
9543 9544 10649 10648 9608 9609 10714 10713 
9544 9545 10650 10649 9609 9610 10715 10714 
9545 9546 10651 10650 9610 9611 10716 10715 
9546 9547 10652 10651 9611 9612 10717 10716 
9547 9548 10653 10652 9612 9613 10718 10717 
9548 9549 10654 10653 9613 9614 10719 10718 
9549 9550 10655 10654 9614 9615 10720 10719 
9550 9551 10656 10655 9615 9616 10721 10720 
9551 9552 10657 10656 9616 9617 10722 10721 
9552 9553 10658 10657 9617 9618 10723 10722 
9553 9554 10659 10658 9618 9619 10724 10723 
9555 9556 10661 10660 9620 9621 10726 10725 
9556 9557 10662 10661 9621 9622 10727 10726 
9557 9558 10663 10662 9622 9623 10728 10727 
9558 9559 10664 10663 9623 9624 10729 10728 
9559 9560 10665 10664 9624 9625 10730 10729 
9560 9561 10666 10665 9625 9626 10731 10730 
9561 9562 10667 10666 9626 9627 10732 10731 
9562 9563 10668 10667 9627 9628 10733 10732 
9563 9564 10669 10668 9628 9629 10734 10733 
9564 9565 10670 10669 9629 9630 10735 10734 
9565 9566 10671 10670 9630 9631 10736 10735 
9566 9567 10672 10671 9631 9632 10737 10736 
9567 9568 10673 10672 9632 9633 10738 10737 
9568 9569 10674 10673 9633 9634 10739 10738 
9569 9570 10675 10674 9634 9635 10740 10739 
9570 9571 10676 10675 9635 9636 10741 10740 
9571 9572 10677 10676 9636 9637 10742 10741 
9572 9573 10678 10677 9637 9638 10743 10742 
9573 9574 10679 10678 9638 9639 10744 10743 
9574 9575 10680 10679 9639 9640 10745 10744 
9575 9576 10681 10680 9640 9641 10746 10745 
9576 9577 10682 10681 9641 9642 10747 10746 
9577 9578 10683 10682 9642 9643 10748 10747 
9578 9579 10684 10683 9643 9644 10749 10748 
9579 9580 10685 10684 9644 9645 10750 10749 
9580 9581 10686 10685 9645 9646 10751 10750 
9581 9582 10687 10686 9646 9647 10752 10751 
9582 9583 10688 10687 9647 9648 10753 10752 
9583 9584 10689 10688 9648 9649 10754 10753 
9584 9585 10690 10689 9649 9650 10755 10754 
9585 9586 10691 10690 9650 9651 10756 10755 
9586 9587 10692 10691 9651 9652 10757 10756 
9587 9588 10693 10692 9652 9653 10758 10757 
9588 9589 10694 10693 9653 9654 10759 10758 
9589 9590 10695 10694 9654 9655 10760 10759 
9590 9591 10696 10695 9655 9656 10761 10760 
9591 9592 10697 10696 9656 9657 10762 10761 
9592 9593 10698 10697 9657 9658 10763 10762 
9593 9594 10699 10698 9658 9659 10764 10763 
9594 9595 10700 10699 9659 9660 10765 10764 
9595 9596 10701 10700 9660 9661 10766 10765 
9596 9597 10702 10701 9661 9662 10767 10766 
9597 9598 10703 10702 9662 9663 10768 10767 
9598 9599 10704 10703 9663 9664 10769 10768 
9599 9600 10705 10704 9664 9665 10770 10769 
9600 9601 10706 10705 9665 9666 10771 10770 
9601 9602 10707 10706 9666 9667 10772 10771 
9602 9603 10708 10707 9667 9668 10773 10772 
9603 9604 10709 10708 9668 9669 10774 10773 
9604 9605 10710 10709 9669 9670 10775 10774 
9605 9606 10711 10710 9670 9671 10776 10775 
9606 9607 10712 10711 9671 9672 10777 10776 
9607 9608 10713 10712 9672 9673 10778 10777 
9608 9609 10714 10713 9673 9674 10779 10778 
9609 9610 10715 10714 9674 9675 10780 10779 
9610 9611 10716 10715 9675 9676 10781 10780 
9611 9612 10717 10716 9676 9677 10782 10781 
9612 9613 10718 10717 9677 9678 10783 10782 
9613 9614 10719 10718 9678 9679 10784 10783 
9614 9615 10720 10719 9679 9680 10785 10784 
9615 9616 10721 10720 9680 9681 10786 10785 
9616 9617 10722 10721 9681 9682 10787 10786 
9617 9618 10723 10722 9682 9683 10788 10787 
9618 9619 10724 10723 9683 9684 10789 10788 
9620 9621 10726 10725 9685 9686 10791 10790 
9621 9622 10727 10726 9686 9687 10792 10791 
9622 9623 10728 10727 9687 9688 10793 10792 
9623 9624 10729 10728 9688 9689 10794 10793 
9624 9625 10730 10729 9689 9690 10795 10794 
9625 9626 10731 10730 9690 9691 10796 10795 
9626 9627 10732 10731 9691 9692 10797 10796 
9627 9628 10733 10732 9692 9693 10798 10797 
9628 9629 10734 10733 9693 9694 10799 10798 
9629 9630 10735 10734 9694 9695 10800 10799 
9630 9631 10736 10735 9695 9696 10801 10800 
9631 9632 10737 10736 9696 9697 10802 10801 
9632 9633 10738 10737 9697 9698 10803 10802 
9633 9634 10739 10738 9698 9699 10804 10803 
9634 9635 10740 10739 9699 9700 10805 10804 
9635 9636 10741 10740 9700 9701 10806 10805 
9636 9637 10742 10741 9701 9702 10807 10806 
9637 9638 10743 10742 9702 9703 10808 10807 
9638 9639 10744 10743 9703 9704 10809 10808 
9639 9640 10745 10744 9704 9705 10810 10809 
9640 9641 10746 10745 9705 9706 10811 10810 
9641 9642 10747 10746 9706 9707 10812 10811 
9642 9643 10748 10747 9707 9708 10813 10812 
9643 9644 10749 10748 9708 9709 10814 10813 
9644 9645 10750 10749 9709 9710 10815 10814 
9645 9646 10751 10750 9710 9711 10816 10815 
9646 9647 10752 10751 9711 9712 10817 10816 
9647 9648 10753 10752 9712 9713 10818 10817 
9648 9649 10754 10753 9713 9714 10819 10818 
9649 9650 10755 10754 9714 9715 10820 10819 
9650 9651 10756 10755 9715 9716 10821 10820 
9651 9652 10757 10756 9716 9717 10822 10821 
9652 9653 10758 10757 9717 9718 10823 10822 
9653 9654 10759 10758 9718 9719 10824 10823 
9654 9655 10760 10759 9719 9720 10825 10824 
9655 9656 10761 10760 9720 9721 10826 10825 
9656 9657 10762 10761 9721 9722 10827 10826 
9657 9658 10763 10762 9722 9723 10828 10827 
9658 9659 10764 10763 9723 9724 10829 10828 
9659 9660 10765 10764 9724 9725 10830 10829 
9660 9661 10766 10765 9725 9726 10831 10830 
9661 9662 10767 10766 9726 9727 10832 10831 
9662 9663 10768 10767 9727 9728 10833 10832 
9663 9664 10769 10768 9728 9729 10834 10833 
9664 9665 10770 10769 9729 9730 10835 10834 
9665 9666 10771 10770 9730 9731 10836 10835 
9666 9667 10772 10771 9731 9732 10837 10836 
9667 9668 10773 10772 9732 9733 10838 10837 
9668 9669 10774 10773 9733 9734 10839 10838 
9669 9670 10775 10774 9734 9735 10840 10839 
9670 9671 10776 10775 9735 9736 10841 10840 
9671 9672 10777 10776 9736 9737 10842 10841 
9672 9673 10778 10777 9737 9738 10843 10842 
9673 9674 10779 10778 9738 9739 10844 10843 
9674 9675 10780 10779 9739 9740 10845 10844 
9675 9676 10781 10780 9740 9741 10846 10845 
9676 9677 10782 10781 9741 9742 10847 10846 
9677 9678 10783 10782 9742 9743 10848 10847 
9678 9679 10784 10783 9743 9744 10849 10848 
9679 9680 10785 10784 9744 9745 10850 10849 
9680 9681 10786 10785 9745 9746 10851 10850 
9681 9682 10787 10786 9746 9747 10852 10851 
9682 9683 10788 10787 9747 9748 10853 10852 
9683 9684 10789 10788 9748 9749 10854 10853 
9685 9686 10791 10790 9750 9751 10856 10855 
9686 9687 10792 10791 9751 9752 10857 10856 
9687 9688 10793 10792 9752 9753 10858 10857 
9688 9689 10794 10793 9753 9754 10859 10858 
9689 9690 10795 10794 9754 9755 10860 10859 
9690 9691 10796 10795 9755 9756 10861 10860 
9691 9692 10797 10796 9756 9757 10862 10861 
9692 9693 10798 10797 9757 9758 10863 10862 
9693 9694 10799 10798 9758 9759 10864 10863 
9694 9695 10800 10799 9759 9760 10865 10864 
9695 9696 10801 10800 9760 9761 10866 10865 
9696 9697 10802 10801 9761 9762 10867 10866 
9697 9698 10803 10802 9762 9763 10868 10867 
9698 9699 10804 10803 9763 9764 10869 10868 
9699 9700 10805 10804 9764 9765 10870 10869 
9700 9701 10806 10805 9765 9766 10871 10870 
9701 9702 10807 10806 9766 9767 10872 10871 
9702 9703 10808 10807 9767 9768 10873 10872 
9703 9704 10809 10808 9768 9769 10874 10873 
9704 9705 10810 10809 9769 9770 10875 10874 
9705 9706 10811 10810 9770 9771 10876 10875 
9706 9707 10812 10811 9771 9772 10877 10876 
9707 9708 10813 10812 9772 9773 10878 10877 
9708 9709 10814 10813 9773 9774 10879 10878 
9709 9710 10815 10814 9774 9775 10880 10879 
9710 9711 10816 10815 9775 9776 10881 10880 
9711 9712 10817 10816 9776 9777 10882 10881 
9712 9713 10818 10817 9777 9778 10883 10882 
9713 9714 10819 10818 9778 9779 10884 10883 
9714 9715 10820 10819 9779 9780 10885 10884 
9715 9716 10821 10820 9780 9781 10886 10885 
9716 9717 10822 10821 9781 9782 10887 10886 
9717 9718 10823 10822 9782 9783 10888 10887 
9718 9719 10824 10823 9783 9784 10889 10888 
9719 9720 10825 10824 9784 9785 10890 10889 
9720 9721 10826 10825 9785 9786 10891 10890 
9721 9722 10827 10826 9786 9787 10892 10891 
9722 9723 10828 10827 9787 9788 10893 10892 
9723 9724 10829 10828 9788 9789 10894 10893 
9724 9725 10830 10829 9789 9790 10895 10894 
9725 9726 10831 10830 9790 9791 10896 10895 
9726 9727 10832 10831 9791 9792 10897 10896 
9727 9728 10833 10832 9792 9793 10898 10897 
9728 9729 10834 10833 9793 9794 10899 10898 
9729 9730 10835 10834 9794 9795 10900 10899 
9730 9731 10836 10835 9795 9796 10901 10900 
9731 9732 10837 10836 9796 9797 10902 10901 
9732 9733 10838 10837 9797 9798 10903 10902 
9733 9734 10839 10838 9798 9799 10904 10903 
9734 9735 10840 10839 9799 9800 10905 10904 
9735 9736 10841 10840 9800 9801 10906 10905 
9736 9737 10842 10841 9801 9802 10907 10906 
9737 9738 10843 10842 9802 9803 10908 10907 
9738 9739 10844 10843 9803 9804 10909 10908 
9739 9740 10845 10844 9804 9805 10910 10909 
9740 9741 10846 10845 9805 9806 10911 10910 
9741 9742 10847 10846 9806 9807 10912 10911 
9742 9743 10848 10847 9807 9808 10913 10912 
9743 9744 10849 10848 9808 9809 10914 10913 
9744 9745 10850 10849 9809 9810 10915 10914 
9745 9746 10851 10850 9810 9811 10916 10915 
9746 9747 10852 10851 9811 9812 10917 10916 
9747 9748 10853 10852 9812 9813 10918 10917 
9748 9749 10854 10853 9813 9814 10919 10918 
9750 9751 10856 10855 9815 9816 10921 10920 
9751 9752 10857 10856 9816 9817 10922 10921 
9752 9753 10858 10857 9817 9818 10923 10922 
9753 9754 10859 10858 9818 9819 10924 10923 
9754 9755 10860 10859 9819 9820 10925 10924 
9755 9756 10861 10860 9820 9821 10926 10925 
9756 9757 10862 10861 9821 9822 10927 10926 
9757 9758 10863 10862 9822 9823 10928 10927 
9758 9759 10864 10863 9823 9824 10929 10928 
9759 9760 10865 10864 9824 9825 10930 10929 
9760 9761 10866 10865 9825 9826 10931 10930 
9761 9762 10867 10866 9826 9827 10932 10931 
9762 9763 10868 10867 9827 9828 10933 10932 
9763 9764 10869 10868 9828 9829 10934 10933 
9764 9765 10870 10869 9829 9830 10935 10934 
9765 9766 10871 10870 9830 9831 10936 10935 
9766 9767 10872 10871 9831 9832 10937 10936 
9767 9768 10873 10872 9832 9833 10938 10937 
9768 9769 10874 10873 9833 9834 10939 10938 
9769 9770 10875 10874 9834 9835 10940 10939 
9770 9771 10876 10875 9835 9836 10941 10940 
9771 9772 10877 10876 9836 9837 10942 10941 
9772 9773 10878 10877 9837 9838 10943 10942 
9773 9774 10879 10878 9838 9839 10944 10943 
9774 9775 10880 10879 9839 9840 10945 10944 
9775 9776 10881 10880 9840 9841 10946 10945 
9776 9777 10882 10881 9841 9842 10947 10946 
9777 9778 10883 10882 9842 9843 10948 10947 
9778 9779 10884 10883 9843 9844 10949 10948 
9779 9780 10885 10884 9844 9845 10950 10949 
9780 9781 10886 10885 9845 9846 10951 10950 
9781 9782 10887 10886 9846 9847 10952 10951 
9782 9783 10888 10887 9847 9848 10953 10952 
9783 9784 10889 10888 9848 9849 10954 10953 
9784 9785 10890 10889 9849 9850 10955 10954 
9785 9786 10891 10890 9850 9851 10956 10955 
9786 9787 10892 10891 9851 9852 10957 10956 
9787 9788 10893 10892 9852 9853 10958 10957 
9788 9789 10894 10893 9853 9854 10959 10958 
9789 9790 10895 10894 9854 9855 10960 10959 
9790 9791 10896 10895 9855 9856 10961 10960 
9791 9792 10897 10896 9856 9857 10962 10961 
9792 9793 10898 10897 9857 9858 10963 10962 
9793 9794 10899 10898 9858 9859 10964 10963 
9794 9795 10900 10899 9859 9860 10965 10964 
9795 9796 10901 10900 9860 9861 10966 10965 
9796 9797 10902 10901 9861 9862 10967 10966 
9797 9798 10903 10902 9862 9863 10968 10967 
9798 9799 10904 10903 9863 9864 10969 10968 
9799 9800 10905 10904 9864 9865 10970 10969 
9800 9801 10906 10905 9865 9866 10971 10970 
9801 9802 10907 10906 9866 9867 10972 10971 
9802 9803 10908 10907 9867 9868 10973 10972 
9803 9804 10909 10908 9868 9869 10974 10973 
9804 9805 10910 10909 9869 9870 10975 10974 
9805 9806 10911 10910 9870 9871 10976 10975 
9806 9807 10912 10911 9871 9872 10977 10976 
9807 9808 10913 10912 9872 9873 10978 10977 
9808 9809 10914 10913 9873 9874 10979 10978 
9809 9810 10915 10914 9874 9875 10980 10979 
9810 9811 10916 10915 9875 9876 10981 10980 
9811 9812 10917 10916 9876 9877 10982 10981 
9812 9813 10918 10917 9877 9878 10983 10982 
9813 9814 10919 10918 9878 9879 10984 10983 
9815 9816 10921 10920 9880 9881 10986 10985 
9816 9817 10922 10921 9881 9882 10987 10986 
9817 9818 10923 10922 9882 9883 10988 10987 
9818 9819 10924 10923 9883 9884 10989 10988 
9819 9820 10925 10924 9884 9885 10990 10989 
9820 9821 10926 10925 9885 9886 10991 10990 
9821 9822 10927 10926 9886 9887 10992 10991 
9822 9823 10928 10927 9887 9888 10993 10992 
9823 9824 10929 10928 9888 9889 10994 10993 
9824 9825 10930 10929 9889 9890 10995 10994 
9825 9826 10931 10930 9890 9891 10996 10995 
9826 9827 10932 10931 9891 9892 10997 10996 
9827 9828 10933 10932 9892 9893 10998 10997 
9828 9829 10934 10933 9893 9894 10999 10998 
9829 9830 10935 10934 9894 9895 11000 10999 
9830 9831 10936 10935 9895 9896 11001 11000 
9831 9832 10937 10936 9896 9897 11002 11001 
9832 9833 10938 10937 9897 9898 11003 11002 
9833 9834 10939 10938 9898 9899 11004 11003 
9834 9835 10940 10939 9899 9900 11005 11004 
9835 9836 10941 10940 9900 9901 11006 11005 
9836 9837 10942 10941 9901 9902 11007 11006 
9837 9838 10943 10942 9902 9903 11008 11007 
9838 9839 10944 10943 9903 9904 11009 11008 
9839 9840 10945 10944 9904 9905 11010 11009 
9840 9841 10946 10945 9905 9906 11011 11010 
9841 9842 10947 10946 9906 9907 11012 11011 
9842 9843 10948 10947 9907 9908 11013 11012 
9843 9844 10949 10948 9908 9909 11014 11013 
9844 9845 10950 10949 9909 9910 11015 11014 
9845 9846 10951 10950 9910 9911 11016 11015 
9846 9847 10952 10951 9911 9912 11017 11016 
9847 9848 10953 10952 9912 9913 11018 11017 
9848 9849 10954 10953 9913 9914 11019 11018 
9849 9850 10955 10954 9914 9915 11020 11019 
9850 9851 10956 10955 9915 9916 11021 11020 
9851 9852 10957 10956 9916 9917 11022 11021 
9852 9853 10958 10957 9917 9918 11023 11022 
9853 9854 10959 10958 9918 9919 11024 11023 
9854 9855 10960 10959 9919 9920 11025 11024 
9855 9856 10961 10960 9920 9921 11026 11025 
9856 9857 10962 10961 9921 9922 11027 11026 
9857 9858 10963 10962 9922 9923 11028 11027 
9858 9859 10964 10963 9923 9924 11029 11028 
9859 9860 10965 10964 9924 9925 11030 11029 
9860 9861 10966 10965 9925 9926 11031 11030 
9861 9862 10967 10966 9926 9927 11032 11031 
9862 9863 10968 10967 9927 9928 11033 11032 
9863 9864 10969 10968 9928 9929 11034 11033 
9864 9865 10970 10969 9929 9930 11035 11034 
9865 9866 10971 10970 9930 9931 11036 11035 
9866 9867 10972 10971 9931 9932 11037 11036 
9867 9868 10973 10972 9932 9933 11038 11037 
9868 9869 10974 10973 9933 9934 11039 11038 
9869 9870 10975 10974 9934 9935 11040 11039 
9870 9871 10976 10975 9935 9936 11041 11040 
9871 9872 10977 10976 9936 9937 11042 11041 
9872 9873 10978 10977 9937 9938 11043 11042 
9873 9874 10979 10978 9938 9939 11044 11043 
9874 9875 10980 10979 9939 9940 11045 11044 
9875 9876 10981 10980 9940 9941 11046 11045 
9876 9877 10982 10981 9941 9942 11047 11046 
9877 9878 10983 10982 9942 9943 11048 11047 
9878 9879 10984 10983 9943 9944 11049 11048 
9945 9946 11051 11050 10010 10011 11116 11115 
9946 9947 11052 11051 10011 10012 11117 11116 
9947 9948 11053 11052 10012 10013 11118 11117 
9948 9949 11054 11053 10013 10014 11119 11118 
9949 9950 11055 11054 10014 10015 11120 11119 
9950 9951 11056 11055 10015 10016 11121 11120 
9951 9952 11057 11056 10016 10017 11122 11121 
9952 9953 11058 11057 10017 10018 11123 11122 
9953 9954 11059 11058 10018 10019 11124 11123 
9954 9955 11060 11059 10019 10020 11125 11124 
9955 9956 11061 11060 10020 10021 11126 11125 
9956 9957 11062 11061 10021 10022 11127 11126 
9957 9958 11063 11062 10022 10023 11128 11127 
9958 9959 11064 11063 10023 10024 11129 11128 
9959 9960 11065 11064 10024 10025 11130 11129 
9960 9961 11066 11065 10025 10026 11131 11130 
9961 9962 11067 11066 10026 10027 11132 11131 
9962 9963 11068 11067 10027 10028 11133 11132 
9963 9964 11069 11068 10028 10029 11134 11133 
9964 9965 11070 11069 10029 10030 11135 11134 
9965 9966 11071 11070 10030 10031 11136 11135 
9966 9967 11072 11071 10031 10032 11137 11136 
9967 9968 11073 11072 10032 10033 11138 11137 
9968 9969 11074 11073 10033 10034 11139 11138 
9969 9970 11075 11074 10034 10035 11140 11139 
9970 9971 11076 11075 10035 10036 11141 11140 
9971 9972 11077 11076 10036 10037 11142 11141 
9972 9973 11078 11077 10037 10038 11143 11142 
9973 9974 11079 11078 10038 10039 11144 11143 
9974 9975 11080 11079 10039 10040 11145 11144 
9975 9976 11081 11080 10040 10041 11146 11145 
9976 9977 11082 11081 10041 10042 11147 11146 
9977 9978 11083 11082 10042 10043 11148 11147 
9978 9979 11084 11083 10043 10044 11149 11148 
9979 9980 11085 11084 10044 10045 11150 11149 
9980 9981 11086 11085 10045 10046 11151 11150 
9981 9982 11087 11086 10046 10047 11152 11151 
9982 9983 11088 11087 10047 10048 11153 11152 
9983 9984 11089 11088 10048 10049 11154 11153 
9984 9985 11090 11089 10049 10050 11155 11154 
9985 9986 11091 11090 10050 10051 11156 11155 
9986 9987 11092 11091 10051 10052 11157 11156 
9987 9988 11093 11092 10052 10053 11158 11157 
9988 9989 11094 11093 10053 10054 11159 11158 
9989 9990 11095 11094 10054 10055 11160 11159 
9990 9991 11096 11095 10055 10056 11161 11160 
9991 9992 11097 11096 10056 10057 11162 11161 
9992 9993 11098 11097 10057 10058 11163 11162 
9993 9994 11099 11098 10058 10059 11164 11163 
9994 9995 11100 11099 10059 10060 11165 11164 
9995 9996 11101 11100 10060 10061 11166 11165 
9996 9997 11102 11101 10061 10062 11167 11166 
9997 9998 11103 11102 10062 10063 11168 11167 
9998 9999 11104 11103 10063 10064 11169 11168 
9999 10000 11105 11104 10064 10065 11170 11169 
10000 10001 11106 11105 10065 10066 11171 11170 
10001 10002 11107 11106 10066 10067 11172 11171 
10002 10003 11108 11107 10067 10068 11173 11172 
10003 10004 11109 11108 10068 10069 11174 11173 
10004 10005 11110 11109 10069 10070 11175 11174 
10005 10006 11111 11110 10070 10071 11176 11175 
10006 10007 11112 11111 10071 10072 11177 11176 
10007 10008 11113 11112 10072 10073 11178 11177 
10008 10009 11114 11113 10073 10074 11179 11178 
10010 10011 11116 11115 10075 10076 11181 11180 
10011 10012 11117 11116 10076 10077 11182 11181 
10012 10013 11118 11117 10077 10078 11183 11182 
10013 10014 11119 11118 10078 10079 11184 11183 
10014 10015 11120 11119 10079 10080 11185 11184 
10015 10016 11121 11120 10080 10081 11186 11185 
10016 10017 11122 11121 10081 10082 11187 11186 
10017 10018 11123 11122 10082 10083 11188 11187 
10018 10019 11124 11123 10083 10084 11189 11188 
10019 10020 11125 11124 10084 10085 11190 11189 
10020 10021 11126 11125 10085 10086 11191 11190 
10021 10022 11127 11126 10086 10087 11192 11191 
10022 10023 11128 11127 10087 10088 11193 11192 
10023 10024 11129 11128 10088 10089 11194 11193 
10024 10025 11130 11129 10089 10090 11195 11194 
10025 10026 11131 11130 10090 10091 11196 11195 
10026 10027 11132 11131 10091 10092 11197 11196 
10027 10028 11133 11132 10092 10093 11198 11197 
10028 10029 11134 11133 10093 10094 11199 11198 
10029 10030 11135 11134 10094 10095 11200 11199 
10030 10031 11136 11135 10095 10096 11201 11200 
10031 10032 11137 11136 10096 10097 11202 11201 
10032 10033 11138 11137 10097 10098 11203 11202 
10033 10034 11139 11138 10098 10099 11204 11203 
10034 10035 11140 11139 10099 10100 11205 11204 
10035 10036 11141 11140 10100 10101 11206 11205 
10036 10037 11142 11141 10101 10102 11207 11206 
10037 10038 11143 11142 10102 10103 11208 11207 
10038 10039 11144 11143 10103 10104 11209 11208 
10039 10040 11145 11144 10104 10105 11210 11209 
10040 10041 11146 11145 10105 10106 11211 11210 
10041 10042 11147 11146 10106 10107 11212 11211 
10042 10043 11148 11147 10107 10108 11213 11212 
10043 10044 11149 11148 10108 10109 11214 11213 
10044 10045 11150 11149 10109 10110 11215 11214 
10045 10046 11151 11150 10110 10111 11216 11215 
10046 10047 11152 11151 10111 10112 11217 11216 
10047 10048 11153 11152 10112 10113 11218 11217 
10048 10049 11154 11153 10113 10114 11219 11218 
10049 10050 11155 11154 10114 10115 11220 11219 
10050 10051 11156 11155 10115 10116 11221 11220 
10051 10052 11157 11156 10116 10117 11222 11221 
10052 10053 11158 11157 10117 10118 11223 11222 
10053 10054 11159 11158 10118 10119 11224 11223 
10054 10055 11160 11159 10119 10120 11225 11224 
10055 10056 11161 11160 10120 10121 11226 11225 
10056 10057 11162 11161 10121 10122 11227 11226 
10057 10058 11163 11162 10122 10123 11228 11227 
10058 10059 11164 11163 10123 10124 11229 11228 
10059 10060 11165 11164 10124 10125 11230 11229 
10060 10061 11166 11165 10125 10126 11231 11230 
10061 10062 11167 11166 10126 10127 11232 11231 
10062 10063 11168 11167 10127 10128 11233 11232 
10063 10064 11169 11168 10128 10129 11234 11233 
10064 10065 11170 11169 10129 10130 11235 11234 
10065 10066 11171 11170 10130 10131 11236 11235 
10066 10067 11172 11171 10131 10132 11237 11236 
10067 10068 11173 11172 10132 10133 11238 11237 
10068 10069 11174 11173 10133 10134 11239 11238 
10069 10070 11175 11174 10134 10135 11240 11239 
10070 10071 11176 11175 10135 10136 11241 11240 
10071 10072 11177 11176 10136 10137 11242 11241 
10072 10073 11178 11177 10137 10138 11243 11242 
10073 10074 11179 11178 10138 10139 11244 11243 
10075 10076 11181 11180 10140 10141 11246 11245 
10076 10077 11182 11181 10141 10142 11247 11246 
10077 10078 11183 11182 10142 10143 11248 11247 
10078 10079 11184 11183 10143 10144 11249 11248 
10079 10080 11185 11184 10144 10145 11250 11249 
10080 10081 11186 11185 10145 10146 11251 11250 
10081 10082 11187 11186 10146 10147 11252 11251 
10082 10083 11188 11187 10147 10148 11253 11252 
10083 10084 11189 11188 10148 10149 11254 11253 
10084 10085 11190 11189 10149 10150 11255 11254 
10085 10086 11191 11190 10150 10151 11256 11255 
10086 10087 11192 11191 10151 10152 11257 11256 
10087 10088 11193 11192 10152 10153 11258 11257 
10088 10089 11194 11193 10153 10154 11259 11258 
10089 10090 11195 11194 10154 10155 11260 11259 
10090 10091 11196 11195 10155 10156 11261 11260 
10091 10092 11197 11196 10156 10157 11262 11261 
10092 10093 11198 11197 10157 10158 11263 11262 
10093 10094 11199 11198 10158 10159 11264 11263 
10094 10095 11200 11199 10159 10160 11265 11264 
10095 10096 11201 11200 10160 10161 11266 11265 
10096 10097 11202 11201 10161 10162 11267 11266 
10097 10098 11203 11202 10162 10163 11268 11267 
10098 10099 11204 11203 10163 10164 11269 11268 
10099 10100 11205 11204 10164 10165 11270 11269 
10100 10101 11206 11205 10165 10166 11271 11270 
10101 10102 11207 11206 10166 10167 11272 11271 
10102 10103 11208 11207 10167 10168 11273 11272 
10103 10104 11209 11208 10168 10169 11274 11273 
10104 10105 11210 11209 10169 10170 11275 11274 
10105 10106 11211 11210 10170 10171 11276 11275 
10106 10107 11212 11211 10171 10172 11277 11276 
10107 10108 11213 11212 10172 10173 11278 11277 
10108 10109 11214 11213 10173 10174 11279 11278 
10109 10110 11215 11214 10174 10175 11280 11279 
10110 10111 11216 11215 10175 10176 11281 11280 
10111 10112 11217 11216 10176 10177 11282 11281 
10112 10113 11218 11217 10177 10178 11283 11282 
10113 10114 11219 11218 10178 10179 11284 11283 
10114 10115 11220 11219 10179 10180 11285 11284 
10115 10116 11221 11220 10180 10181 11286 11285 
10116 10117 11222 11221 10181 10182 11287 11286 
10117 10118 11223 11222 10182 10183 11288 11287 
10118 10119 11224 11223 10183 10184 11289 11288 
10119 10120 11225 11224 10184 10185 11290 11289 
10120 10121 11226 11225 10185 10186 11291 11290 
10121 10122 11227 11226 10186 10187 11292 11291 
10122 10123 11228 11227 10187 10188 11293 11292 
10123 10124 11229 11228 10188 10189 11294 11293 
10124 10125 11230 11229 10189 10190 11295 11294 
10125 10126 11231 11230 10190 10191 11296 11295 
10126 10127 11232 11231 10191 10192 11297 11296 
10127 10128 11233 11232 10192 10193 11298 11297 
10128 10129 11234 11233 10193 10194 11299 11298 
10129 10130 11235 11234 10194 10195 11300 11299 
10130 10131 11236 11235 10195 10196 11301 11300 
10131 10132 11237 11236 10196 10197 11302 11301 
10132 10133 11238 11237 10197 10198 11303 11302 
10133 10134 11239 11238 10198 10199 11304 11303 
10134 10135 11240 11239 10199 10200 11305 11304 
10135 10136 11241 11240 10200 10201 11306 11305 
10136 10137 11242 11241 10201 10202 11307 11306 
10137 10138 11243 11242 10202 10203 11308 11307 
10138 10139 11244 11243 10203 10204 11309 11308 
10140 10141 11246 11245 10205 10206 11311 11310 
10141 10142 11247 11246 10206 10207 11312 11311 
10142 10143 11248 11247 10207 10208 11313 11312 
10143 10144 11249 11248 10208 10209 11314 11313 
10144 10145 11250 11249 10209 10210 11315 11314 
10145 10146 11251 11250 10210 10211 11316 11315 
10146 10147 11252 11251 10211 10212 11317 11316 
10147 10148 11253 11252 10212 10213 11318 11317 
10148 10149 11254 11253 10213 10214 11319 11318 
10149 10150 11255 11254 10214 10215 11320 11319 
10150 10151 11256 11255 10215 10216 11321 11320 
10151 10152 11257 11256 10216 10217 11322 11321 
10152 10153 11258 11257 10217 10218 11323 11322 
10153 10154 11259 11258 10218 10219 11324 11323 
10154 10155 11260 11259 10219 10220 11325 11324 
10155 10156 11261 11260 10220 10221 11326 11325 
10156 10157 11262 11261 10221 10222 11327 11326 
10157 10158 11263 11262 10222 10223 11328 11327 
10158 10159 11264 11263 10223 10224 11329 11328 
10159 10160 11265 11264 10224 10225 11330 11329 
10160 10161 11266 11265 10225 10226 11331 11330 
10161 10162 11267 11266 10226 10227 11332 11331 
10162 10163 11268 11267 10227 10228 11333 11332 
10163 10164 11269 11268 10228 10229 11334 11333 
10164 10165 11270 11269 10229 10230 11335 11334 
10165 10166 11271 11270 10230 10231 11336 11335 
10166 10167 11272 11271 10231 10232 11337 11336 
10167 10168 11273 11272 10232 10233 11338 11337 
10168 10169 11274 11273 10233 10234 11339 11338 
10169 10170 11275 11274 10234 10235 11340 11339 
10170 10171 11276 11275 10235 10236 11341 11340 
10171 10172 11277 11276 10236 10237 11342 11341 
10172 10173 11278 11277 10237 10238 11343 11342 
10173 10174 11279 11278 10238 10239 11344 11343 
10174 10175 11280 11279 10239 10240 11345 11344 
10175 10176 11281 11280 10240 10241 11346 11345 
10176 10177 11282 11281 10241 10242 11347 11346 
10177 10178 11283 11282 10242 10243 11348 11347 
10178 10179 11284 11283 10243 10244 11349 11348 
10179 10180 11285 11284 10244 10245 11350 11349 
10180 10181 11286 11285 10245 10246 11351 11350 
10181 10182 11287 11286 10246 10247 11352 11351 
10182 10183 11288 11287 10247 10248 11353 11352 
10183 10184 11289 11288 10248 10249 11354 11353 
10184 10185 11290 11289 10249 10250 11355 11354 
10185 10186 11291 11290 10250 10251 11356 11355 
10186 10187 11292 11291 10251 10252 11357 11356 
10187 10188 11293 11292 10252 10253 11358 11357 
10188 10189 11294 11293 10253 10254 11359 11358 
10189 10190 11295 11294 10254 10255 11360 11359 
10190 10191 11296 11295 10255 10256 11361 11360 
10191 10192 11297 11296 10256 10257 11362 11361 
10192 10193 11298 11297 10257 10258 11363 11362 
10193 10194 11299 11298 10258 10259 11364 11363 
10194 10195 11300 11299 10259 10260 11365 11364 
10195 10196 11301 11300 10260 10261 11366 11365 
10196 10197 11302 11301 10261 10262 11367 11366 
10197 10198 11303 11302 10262 10263 11368 11367 
10198 10199 11304 11303 10263 10264 11369 11368 
10199 10200 11305 11304 10264 10265 11370 11369 
10200 10201 11306 11305 10265 10266 11371 11370 
10201 10202 11307 11306 10266 10267 11372 11371 
10202 10203 11308 11307 10267 10268 11373 11372 
10203 10204 11309 11308 10268 10269 11374 11373 
10205 10206 11311 11310 10270 10271 11376 11375 
10206 10207 11312 11311 10271 10272 11377 11376 
10207 10208 11313 11312 10272 10273 11378 11377 
10208 10209 11314 11313 10273 10274 11379 11378 
10209 10210 11315 11314 10274 10275 11380 11379 
10210 10211 11316 11315 10275 10276 11381 11380 
10211 10212 11317 11316 10276 10277 11382 11381 
10212 10213 11318 11317 10277 10278 11383 11382 
10213 10214 11319 11318 10278 10279 11384 11383 
10214 10215 11320 11319 10279 10280 11385 11384 
10215 10216 11321 11320 10280 10281 11386 11385 
10216 10217 11322 11321 10281 10282 11387 11386 
10217 10218 11323 11322 10282 10283 11388 11387 
10218 10219 11324 11323 10283 10284 11389 11388 
10219 10220 11325 11324 10284 10285 11390 11389 
10220 10221 11326 11325 10285 10286 11391 11390 
10221 10222 11327 11326 10286 10287 11392 11391 
10222 10223 11328 11327 10287 10288 11393 11392 
10223 10224 11329 11328 10288 10289 11394 11393 
10224 10225 11330 11329 10289 10290 11395 11394 
10225 10226 11331 11330 10290 10291 11396 11395 
10226 10227 11332 11331 10291 10292 11397 11396 
10227 10228 11333 11332 10292 10293 11398 11397 
10228 10229 11334 11333 10293 10294 11399 11398 
10229 10230 11335 11334 10294 10295 11400 11399 
10230 10231 11336 11335 10295 10296 11401 11400 
10231 10232 11337 11336 10296 10297 11402 11401 
10232 10233 11338 11337 10297 10298 11403 11402 
10233 10234 11339 11338 10298 10299 11404 11403 
10234 10235 11340 11339 10299 10300 11405 11404 
10235 10236 11341 11340 10300 10301 11406 11405 
10236 10237 11342 11341 10301 10302 11407 11406 
10237 10238 11343 11342 10302 10303 11408 11407 
10238 10239 11344 11343 10303 10304 11409 11408 
10239 10240 11345 11344 10304 10305 11410 11409 
10240 10241 11346 11345 10305 10306 11411 11410 
10241 10242 11347 11346 10306 10307 11412 11411 
10242 10243 11348 11347 10307 10308 11413 11412 
10243 10244 11349 11348 10308 10309 11414 11413 
10244 10245 11350 11349 10309 10310 11415 11414 
10245 10246 11351 11350 10310 10311 11416 11415 
10246 10247 11352 11351 10311 10312 11417 11416 
10247 10248 11353 11352 10312 10313 11418 11417 
10248 10249 11354 11353 10313 10314 11419 11418 
10249 10250 11355 11354 10314 10315 11420 11419 
10250 10251 11356 11355 10315 10316 11421 11420 
10251 10252 11357 11356 10316 10317 11422 11421 
10252 10253 11358 11357 10317 10318 11423 11422 
10253 10254 11359 11358 10318 10319 11424 11423 
10254 10255 11360 11359 10319 10320 11425 11424 
10255 10256 11361 11360 10320 10321 11426 11425 
10256 10257 11362 11361 10321 10322 11427 11426 
10257 10258 11363 11362 10322 10323 11428 11427 
10258 10259 11364 11363 10323 10324 11429 11428 
10259 10260 11365 11364 10324 10325 11430 11429 
10260 10261 11366 11365 10325 10326 11431 11430 
10261 10262 11367 11366 10326 10327 11432 11431 
10262 10263 11368 11367 10327 10328 11433 11432 
10263 10264 11369 11368 10328 10329 11434 11433 
10264 10265 11370 11369 10329 10330 11435 11434 
10265 10266 11371 11370 10330 10331 11436 11435 
10266 10267 11372 11371 10331 10332 11437 11436 
10267 10268 11373 11372 10332 10333 11438 11437 
10268 10269 11374 11373 10333 10334 11439 11438 
10270 10271 11376 11375 10335 10336 11441 11440 
10271 10272 11377 11376 10336 10337 11442 11441 
10272 10273 11378 11377 10337 10338 11443 11442 
10273 10274 11379 11378 10338 10339 11444 11443 
10274 10275 11380 11379 10339 10340 11445 11444 
10275 10276 11381 11380 10340 10341 11446 11445 
10276 10277 11382 11381 10341 10342 11447 11446 
10277 10278 11383 11382 10342 10343 11448 11447 
10278 10279 11384 11383 10343 10344 11449 11448 
10279 10280 11385 11384 10344 10345 11450 11449 
10280 10281 11386 11385 10345 10346 11451 11450 
10281 10282 11387 11386 10346 10347 11452 11451 
10282 10283 11388 11387 10347 10348 11453 11452 
10283 10284 11389 11388 10348 10349 11454 11453 
10284 10285 11390 11389 10349 10350 11455 11454 
10285 10286 11391 11390 10350 10351 11456 11455 
10286 10287 11392 11391 10351 10352 11457 11456 
10287 10288 11393 11392 10352 10353 11458 11457 
10288 10289 11394 11393 10353 10354 11459 11458 
10289 10290 11395 11394 10354 10355 11460 11459 
10290 10291 11396 11395 10355 10356 11461 11460 
10291 10292 11397 11396 10356 10357 11462 11461 
10292 10293 11398 11397 10357 10358 11463 11462 
10293 10294 11399 11398 10358 10359 11464 11463 
10294 10295 11400 11399 10359 10360 11465 11464 
10295 10296 11401 11400 10360 10361 11466 11465 
10296 10297 11402 11401 10361 10362 11467 11466 
10297 10298 11403 11402 10362 10363 11468 11467 
10298 10299 11404 11403 10363 10364 11469 11468 
10299 10300 11405 11404 10364 10365 11470 11469 
10300 10301 11406 11405 10365 10366 11471 11470 
10301 10302 11407 11406 10366 10367 11472 11471 
10302 10303 11408 11407 10367 10368 11473 11472 
10303 10304 11409 11408 10368 10369 11474 11473 
10304 10305 11410 11409 10369 10370 11475 11474 
10305 10306 11411 11410 10370 10371 11476 11475 
10306 10307 11412 11411 10371 10372 11477 11476 
10307 10308 11413 11412 10372 10373 11478 11477 
10308 10309 11414 11413 10373 10374 11479 11478 
10309 10310 11415 11414 10374 10375 11480 11479 
10310 10311 11416 11415 10375 10376 11481 11480 
10311 10312 11417 11416 10376 10377 11482 11481 
10312 10313 11418 11417 10377 10378 11483 11482 
10313 10314 11419 11418 10378 10379 11484 11483 
10314 10315 11420 11419 10379 10380 11485 11484 
10315 10316 11421 11420 10380 10381 11486 11485 
10316 10317 11422 11421 10381 10382 11487 11486 
10317 10318 11423 11422 10382 10383 11488 11487 
10318 10319 11424 11423 10383 10384 11489 11488 
10319 10320 11425 11424 10384 10385 11490 11489 
10320 10321 11426 11425 10385 10386 11491 11490 
10321 10322 11427 11426 10386 10387 11492 11491 
10322 10323 11428 11427 10387 10388 11493 11492 
10323 10324 11429 11428 10388 10389 11494 11493 
10324 10325 11430 11429 10389 10390 11495 11494 
10325 10326 11431 11430 10390 10391 11496 11495 
10326 10327 11432 11431 10391 10392 11497 11496 
10327 10328 11433 11432 10392 10393 11498 11497 
10328 10329 11434 11433 10393 10394 11499 11498 
10329 10330 11435 11434 10394 10395 11500 11499 
10330 10331 11436 11435 10395 10396 11501 11500 
10331 10332 11437 11436 10396 10397 11502 11501 
10332 10333 11438 11437 10397 10398 11503 11502 
10333 10334 11439 11438 10398 10399 11504 11503 
10335 10336 11441 11440 10400 10401 11506 11505 
10336 10337 11442 11441 10401 10402 11507 11506 
10337 10338 11443 11442 10402 10403 11508 11507 
10338 10339 11444 11443 10403 10404 11509 11508 
10339 10340 11445 11444 10404 10405 11510 11509 
10340 10341 11446 11445 10405 10406 11511 11510 
10341 10342 11447 11446 10406 10407 11512 11511 
10342 10343 11448 11447 10407 10408 11513 11512 
10343 10344 11449 11448 10408 10409 11514 11513 
10344 10345 11450 11449 10409 10410 11515 11514 
10345 10346 11451 11450 10410 10411 11516 11515 
10346 10347 11452 11451 10411 10412 11517 11516 
10347 10348 11453 11452 10412 10413 11518 11517 
10348 10349 11454 11453 10413 10414 11519 11518 
10349 10350 11455 11454 10414 10415 11520 11519 
10350 10351 11456 11455 10415 10416 11521 11520 
10351 10352 11457 11456 10416 10417 11522 11521 
10352 10353 11458 11457 10417 10418 11523 11522 
10353 10354 11459 11458 10418 10419 11524 11523 
10354 10355 11460 11459 10419 10420 11525 11524 
10355 10356 11461 11460 10420 10421 11526 11525 
10356 10357 11462 11461 10421 10422 11527 11526 
10357 10358 11463 11462 10422 10423 11528 11527 
10358 10359 11464 11463 10423 10424 11529 11528 
10359 10360 11465 11464 10424 10425 11530 11529 
10360 10361 11466 11465 10425 10426 11531 11530 
10361 10362 11467 11466 10426 10427 11532 11531 
10362 10363 11468 11467 10427 10428 11533 11532 
10363 10364 11469 11468 10428 10429 11534 11533 
10364 10365 11470 11469 10429 10430 11535 11534 
10365 10366 11471 11470 10430 10431 11536 11535 
10366 10367 11472 11471 10431 10432 11537 11536 
10367 10368 11473 11472 10432 10433 11538 11537 
10368 10369 11474 11473 10433 10434 11539 11538 
10369 10370 11475 11474 10434 10435 11540 11539 
10370 10371 11476 11475 10435 10436 11541 11540 
10371 10372 11477 11476 10436 10437 11542 11541 
10372 10373 11478 11477 10437 10438 11543 11542 
10373 10374 11479 11478 10438 10439 11544 11543 
10374 10375 11480 11479 10439 10440 11545 11544 
10375 10376 11481 11480 10440 10441 11546 11545 
10376 10377 11482 11481 10441 10442 11547 11546 
10377 10378 11483 11482 10442 10443 11548 11547 
10378 10379 11484 11483 10443 10444 11549 11548 
10379 10380 11485 11484 10444 10445 11550 11549 
10380 10381 11486 11485 10445 10446 11551 11550 
10381 10382 11487 11486 10446 10447 11552 11551 
10382 10383 11488 11487 10447 10448 11553 11552 
10383 10384 11489 11488 10448 10449 11554 11553 
10384 10385 11490 11489 10449 10450 11555 11554 
10385 10386 11491 11490 10450 10451 11556 11555 
10386 10387 11492 11491 10451 10452 11557 11556 
10387 10388 11493 11492 10452 10453 11558 11557 
10388 10389 11494 11493 10453 10454 11559 11558 
10389 10390 11495 11494 10454 10455 11560 11559 
10390 10391 11496 11495 10455 10456 11561 11560 
10391 10392 11497 11496 10456 10457 11562 11561 
10392 10393 11498 11497 10457 10458 11563 11562 
10393 10394 11499 11498 10458 10459 11564 11563 
10394 10395 11500 11499 10459 10460 11565 11564 
10395 10396 11501 11500 10460 10461 11566 11565 
10396 10397 11502 11501 10461 10462 11567 11566 
10397 10398 11503 11502 10462 10463 11568 11567 
10398 10399 11504 11503 10463 10464 11569 11568 
10400 10401 11506 11505 10465 10466 11571 11570 
10401 10402 11507 11506 10466 10467 11572 11571 
10402 10403 11508 11507 10467 10468 11573 11572 
10403 10404 11509 11508 10468 10469 11574 11573 
10404 10405 11510 11509 10469 10470 11575 11574 
10405 10406 11511 11510 10470 10471 11576 11575 
10406 10407 11512 11511 10471 10472 11577 11576 
10407 10408 11513 11512 10472 10473 11578 11577 
10408 10409 11514 11513 10473 10474 11579 11578 
10409 10410 11515 11514 10474 10475 11580 11579 
10410 10411 11516 11515 10475 10476 11581 11580 
10411 10412 11517 11516 10476 10477 11582 11581 
10412 10413 11518 11517 10477 10478 11583 11582 
10413 10414 11519 11518 10478 10479 11584 11583 
10414 10415 11520 11519 10479 10480 11585 11584 
10415 10416 11521 11520 10480 10481 11586 11585 
10416 10417 11522 11521 10481 10482 11587 11586 
10417 10418 11523 11522 10482 10483 11588 11587 
10418 10419 11524 11523 10483 10484 11589 11588 
10419 10420 11525 11524 10484 10485 11590 11589 
10420 10421 11526 11525 10485 10486 11591 11590 
10421 10422 11527 11526 10486 10487 11592 11591 
10422 10423 11528 11527 10487 10488 11593 11592 
10423 10424 11529 11528 10488 10489 11594 11593 
10424 10425 11530 11529 10489 10490 11595 11594 
10425 10426 11531 11530 10490 10491 11596 11595 
10426 10427 11532 11531 10491 10492 11597 11596 
10427 10428 11533 11532 10492 10493 11598 11597 
10428 10429 11534 11533 10493 10494 11599 11598 
10429 10430 11535 11534 10494 10495 11600 11599 
10430 10431 11536 11535 10495 10496 11601 11600 
10431 10432 11537 11536 10496 10497 11602 11601 
10432 10433 11538 11537 10497 10498 11603 11602 
10433 10434 11539 11538 10498 10499 11604 11603 
10434 10435 11540 11539 10499 10500 11605 11604 
10435 10436 11541 11540 10500 10501 11606 11605 
10436 10437 11542 11541 10501 10502 11607 11606 
10437 10438 11543 11542 10502 10503 11608 11607 
10438 10439 11544 11543 10503 10504 11609 11608 
10439 10440 11545 11544 10504 10505 11610 11609 
10440 10441 11546 11545 10505 10506 11611 11610 
10441 10442 11547 11546 10506 10507 11612 11611 
10442 10443 11548 11547 10507 10508 11613 11612 
10443 10444 11549 11548 10508 10509 11614 11613 
10444 10445 11550 11549 10509 10510 11615 11614 
10445 10446 11551 11550 10510 10511 11616 11615 
10446 10447 11552 11551 10511 10512 11617 11616 
10447 10448 11553 11552 10512 10513 11618 11617 
10448 10449 11554 11553 10513 10514 11619 11618 
10449 10450 11555 11554 10514 10515 11620 11619 
10450 10451 11556 11555 10515 10516 11621 11620 
10451 10452 11557 11556 10516 10517 11622 11621 
10452 10453 11558 11557 10517 10518 11623 11622 
10453 10454 11559 11558 10518 10519 11624 11623 
10454 10455 11560 11559 10519 10520 11625 11624 
10455 10456 11561 11560 10520 10521 11626 11625 
10456 10457 11562 11561 10521 10522 11627 11626 
10457 10458 11563 11562 10522 10523 11628 11627 
10458 10459 11564 11563 10523 10524 11629 11628 
10459 10460 11565 11564 10524 10525 11630 11629 
10460 10461 11566 11565 10525 10526 11631 11630 
10461 10462 11567 11566 10526 10527 11632 11631 
10462 10463 11568 11567 10527 10528 11633 11632 
10463 10464 11569 11568 10528 10529 11634 11633 
10465 10466 11571 11570 10530 10531 11636 11635 
10466 10467 11572 11571 10531 10532 11637 11636 
10467 10468 11573 11572 10532 10533 11638 11637 
10468 10469 11574 11573 10533 10534 11639 11638 
10469 10470 11575 11574 10534 10535 11640 11639 
10470 10471 11576 11575 10535 10536 11641 11640 
10471 10472 11577 11576 10536 10537 11642 11641 
10472 10473 11578 11577 10537 10538 11643 11642 
10473 10474 11579 11578 10538 10539 11644 11643 
10474 10475 11580 11579 10539 10540 11645 11644 
10475 10476 11581 11580 10540 10541 11646 11645 
10476 10477 11582 11581 10541 10542 11647 11646 
10477 10478 11583 11582 10542 10543 11648 11647 
10478 10479 11584 11583 10543 10544 11649 11648 
10479 10480 11585 11584 10544 10545 11650 11649 
10480 10481 11586 11585 10545 10546 11651 11650 
10481 10482 11587 11586 10546 10547 11652 11651 
10482 10483 11588 11587 10547 10548 11653 11652 
10483 10484 11589 11588 10548 10549 11654 11653 
10484 10485 11590 11589 10549 10550 11655 11654 
10485 10486 11591 11590 10550 10551 11656 11655 
10486 10487 11592 11591 10551 10552 11657 11656 
10487 10488 11593 11592 10552 10553 11658 11657 
10488 10489 11594 11593 10553 10554 11659 11658 
10489 10490 11595 11594 10554 10555 11660 11659 
10490 10491 11596 11595 10555 10556 11661 11660 
10491 10492 11597 11596 10556 10557 11662 11661 
10492 10493 11598 11597 10557 10558 11663 11662 
10493 10494 11599 11598 10558 10559 11664 11663 
10494 10495 11600 11599 10559 10560 11665 11664 
10495 10496 11601 11600 10560 10561 11666 11665 
10496 10497 11602 11601 10561 10562 11667 11666 
10497 10498 11603 11602 10562 10563 11668 11667 
10498 10499 11604 11603 10563 10564 11669 11668 
10499 10500 11605 11604 10564 10565 11670 11669 
10500 10501 11606 11605 10565 10566 11671 11670 
10501 10502 11607 11606 10566 10567 11672 11671 
10502 10503 11608 11607 10567 10568 11673 11672 
10503 10504 11609 11608 10568 10569 11674 11673 
10504 10505 11610 11609 10569 10570 11675 11674 
10505 10506 11611 11610 10570 10571 11676 11675 
10506 10507 11612 11611 10571 10572 11677 11676 
10507 10508 11613 11612 10572 10573 11678 11677 
10508 10509 11614 11613 10573 10574 11679 11678 
10509 10510 11615 11614 10574 10575 11680 11679 
10510 10511 11616 11615 10575 10576 11681 11680 
10511 10512 11617 11616 10576 10577 11682 11681 
10512 10513 11618 11617 10577 10578 11683 11682 
10513 10514 11619 11618 10578 10579 11684 11683 
10514 10515 11620 11619 10579 10580 11685 11684 
10515 10516 11621 11620 10580 10581 11686 11685 
10516 10517 11622 11621 10581 10582 11687 11686 
10517 10518 11623 11622 10582 10583 11688 11687 
10518 10519 11624 11623 10583 10584 11689 11688 
10519 10520 11625 11624 10584 10585 11690 11689 
10520 10521 11626 11625 10585 10586 11691 11690 
10521 10522 11627 11626 10586 10587 11692 11691 
10522 10523 11628 11627 10587 10588 11693 11692 
10523 10524 11629 11628 10588 10589 11694 11693 
10524 10525 11630 11629 10589 10590 11695 11694 
10525 10526 11631 11630 10590 10591 11696 11695 
10526 10527 11632 11631 10591 10592 11697 11696 
10527 10528 11633 11632 10592 10593 11698 11697 
10528 10529 11634 11633 10593 10594 11699 11698 
10530 10531 11636 11635 10595 10596 11701 11700 
10531 10532 11637 11636 10596 10597 11702 11701 
10532 10533 11638 11637 10597 10598 11703 11702 
10533 10534 11639 11638 10598 10599 11704 11703 
10534 10535 11640 11639 10599 10600 11705 11704 
10535 10536 11641 11640 10600 10601 11706 11705 
10536 10537 11642 11641 10601 10602 11707 11706 
10537 10538 11643 11642 10602 10603 11708 11707 
10538 10539 11644 11643 10603 10604 11709 11708 
10539 10540 11645 11644 10604 10605 11710 11709 
10540 10541 11646 11645 10605 10606 11711 11710 
10541 10542 11647 11646 10606 10607 11712 11711 
10542 10543 11648 11647 10607 10608 11713 11712 
10543 10544 11649 11648 10608 10609 11714 11713 
10544 10545 11650 11649 10609 10610 11715 11714 
10545 10546 11651 11650 10610 10611 11716 11715 
10546 10547 11652 11651 10611 10612 11717 11716 
10547 10548 11653 11652 10612 10613 11718 11717 
10548 10549 11654 11653 10613 10614 11719 11718 
10549 10550 11655 11654 10614 10615 11720 11719 
10550 10551 11656 11655 10615 10616 11721 11720 
10551 10552 11657 11656 10616 10617 11722 11721 
10552 10553 11658 11657 10617 10618 11723 11722 
10553 10554 11659 11658 10618 10619 11724 11723 
10554 10555 11660 11659 10619 10620 11725 11724 
10555 10556 11661 11660 10620 10621 11726 11725 
10556 10557 11662 11661 10621 10622 11727 11726 
10557 10558 11663 11662 10622 10623 11728 11727 
10558 10559 11664 11663 10623 10624 11729 11728 
10559 10560 11665 11664 10624 10625 11730 11729 
10560 10561 11666 11665 10625 10626 11731 11730 
10561 10562 11667 11666 10626 10627 11732 11731 
10562 10563 11668 11667 10627 10628 11733 11732 
10563 10564 11669 11668 10628 10629 11734 11733 
10564 10565 11670 11669 10629 10630 11735 11734 
10565 10566 11671 11670 10630 10631 11736 11735 
10566 10567 11672 11671 10631 10632 11737 11736 
10567 10568 11673 11672 10632 10633 11738 11737 
10568 10569 11674 11673 10633 10634 11739 11738 
10569 10570 11675 11674 10634 10635 11740 11739 
10570 10571 11676 11675 10635 10636 11741 11740 
10571 10572 11677 11676 10636 10637 11742 11741 
10572 10573 11678 11677 10637 10638 11743 11742 
10573 10574 11679 11678 10638 10639 11744 11743 
10574 10575 11680 11679 10639 10640 11745 11744 
10575 10576 11681 11680 10640 10641 11746 11745 
10576 10577 11682 11681 10641 10642 11747 11746 
10577 10578 11683 11682 10642 10643 11748 11747 
10578 10579 11684 11683 10643 10644 11749 11748 
10579 10580 11685 11684 10644 10645 11750 11749 
10580 10581 11686 11685 10645 10646 11751 11750 
10581 10582 11687 11686 10646 10647 11752 11751 
10582 10583 11688 11687 10647 10648 11753 11752 
10583 10584 11689 11688 10648 10649 11754 11753 
10584 10585 11690 11689 10649 10650 11755 11754 
10585 10586 11691 11690 10650 10651 11756 11755 
10586 10587 11692 11691 10651 10652 11757 11756 
10587 10588 11693 11692 10652 10653 11758 11757 
10588 10589 11694 11693 10653 10654 11759 11758 
10589 10590 11695 11694 10654 10655 11760 11759 
10590 10591 11696 11695 10655 10656 11761 11760 
10591 10592 11697 11696 10656 10657 11762 11761 
10592 10593 11698 11697 10657 10658 11763 11762 
10593 10594 11699 11698 10658 10659 11764 11763 
10595 10596 11701 11700 10660 10661 11766 11765 
10596 10597 11702 11701 10661 10662 11767 11766 
10597 10598 11703 11702 10662 10663 11768 11767 
10598 10599 11704 11703 10663 10664 11769 11768 
10599 10600 11705 11704 10664 10665 11770 11769 
10600 10601 11706 11705 10665 10666 11771 11770 
10601 10602 11707 11706 10666 10667 11772 11771 
10602 10603 11708 11707 10667 10668 11773 11772 
10603 10604 11709 11708 10668 10669 11774 11773 
10604 10605 11710 11709 10669 10670 11775 11774 
10605 10606 11711 11710 10670 10671 11776 11775 
10606 10607 11712 11711 10671 10672 11777 11776 
10607 10608 11713 11712 10672 10673 11778 11777 
10608 10609 11714 11713 10673 10674 11779 11778 
10609 10610 11715 11714 10674 10675 11780 11779 
10610 10611 11716 11715 10675 10676 11781 11780 
10611 10612 11717 11716 10676 10677 11782 11781 
10612 10613 11718 11717 10677 10678 11783 11782 
10613 10614 11719 11718 10678 10679 11784 11783 
10614 10615 11720 11719 10679 10680 11785 11784 
10615 10616 11721 11720 10680 10681 11786 11785 
10616 10617 11722 11721 10681 10682 11787 11786 
10617 10618 11723 11722 10682 10683 11788 11787 
10618 10619 11724 11723 10683 10684 11789 11788 
10619 10620 11725 11724 10684 10685 11790 11789 
10620 10621 11726 11725 10685 10686 11791 11790 
10621 10622 11727 11726 10686 10687 11792 11791 
10622 10623 11728 11727 10687 10688 11793 11792 
10623 10624 11729 11728 10688 10689 11794 11793 
10624 10625 11730 11729 10689 10690 11795 11794 
10625 10626 11731 11730 10690 10691 11796 11795 
10626 10627 11732 11731 10691 10692 11797 11796 
10627 10628 11733 11732 10692 10693 11798 11797 
10628 10629 11734 11733 10693 10694 11799 11798 
10629 10630 11735 11734 10694 10695 11800 11799 
10630 10631 11736 11735 10695 10696 11801 11800 
10631 10632 11737 11736 10696 10697 11802 11801 
10632 10633 11738 11737 10697 10698 11803 11802 
10633 10634 11739 11738 10698 10699 11804 11803 
10634 10635 11740 11739 10699 10700 11805 11804 
10635 10636 11741 11740 10700 10701 11806 11805 
10636 10637 11742 11741 10701 10702 11807 11806 
10637 10638 11743 11742 10702 10703 11808 11807 
10638 10639 11744 11743 10703 10704 11809 11808 
10639 10640 11745 11744 10704 10705 11810 11809 
10640 10641 11746 11745 10705 10706 11811 11810 
10641 10642 11747 11746 10706 10707 11812 11811 
10642 10643 11748 11747 10707 10708 11813 11812 
10643 10644 11749 11748 10708 10709 11814 11813 
10644 10645 11750 11749 10709 10710 11815 11814 
10645 10646 11751 11750 10710 10711 11816 11815 
10646 10647 11752 11751 10711 10712 11817 11816 
10647 10648 11753 11752 10712 10713 11818 11817 
10648 10649 11754 11753 10713 10714 11819 11818 
10649 10650 11755 11754 10714 10715 11820 11819 
10650 10651 11756 11755 10715 10716 11821 11820 
10651 10652 11757 11756 10716 10717 11822 11821 
10652 10653 11758 11757 10717 10718 11823 11822 
10653 10654 11759 11758 10718 10719 11824 11823 
10654 10655 11760 11759 10719 10720 11825 11824 
10655 10656 11761 11760 10720 10721 11826 11825 
10656 10657 11762 11761 10721 10722 11827 11826 
10657 10658 11763 11762 10722 10723 11828 11827 
10658 10659 11764 11763 10723 10724 11829 11828 
10660 10661 11766 11765 10725 10726 11831 11830 
10661 10662 11767 11766 10726 10727 11832 11831 
10662 10663 11768 11767 10727 10728 11833 11832 
10663 10664 11769 11768 10728 10729 11834 11833 
10664 10665 11770 11769 10729 10730 11835 11834 
10665 10666 11771 11770 10730 10731 11836 11835 
10666 10667 11772 11771 10731 10732 11837 11836 
10667 10668 11773 11772 10732 10733 11838 11837 
10668 10669 11774 11773 10733 10734 11839 11838 
10669 10670 11775 11774 10734 10735 11840 11839 
10670 10671 11776 11775 10735 10736 11841 11840 
10671 10672 11777 11776 10736 10737 11842 11841 
10672 10673 11778 11777 10737 10738 11843 11842 
10673 10674 11779 11778 10738 10739 11844 11843 
10674 10675 11780 11779 10739 10740 11845 11844 
10675 10676 11781 11780 10740 10741 11846 11845 
10676 10677 11782 11781 10741 10742 11847 11846 
10677 10678 11783 11782 10742 10743 11848 11847 
10678 10679 11784 11783 10743 10744 11849 11848 
10679 10680 11785 11784 10744 10745 11850 11849 
10680 10681 11786 11785 10745 10746 11851 11850 
10681 10682 11787 11786 10746 10747 11852 11851 
10682 10683 11788 11787 10747 10748 11853 11852 
10683 10684 11789 11788 10748 10749 11854 11853 
10684 10685 11790 11789 10749 10750 11855 11854 
10685 10686 11791 11790 10750 10751 11856 11855 
10686 10687 11792 11791 10751 10752 11857 11856 
10687 10688 11793 11792 10752 10753 11858 11857 
10688 10689 11794 11793 10753 10754 11859 11858 
10689 10690 11795 11794 10754 10755 11860 11859 
10690 10691 11796 11795 10755 10756 11861 11860 
10691 10692 11797 11796 10756 10757 11862 11861 
10692 10693 11798 11797 10757 10758 11863 11862 
10693 10694 11799 11798 10758 10759 11864 11863 
10694 10695 11800 11799 10759 10760 11865 11864 
10695 10696 11801 11800 10760 10761 11866 11865 
10696 10697 11802 11801 10761 10762 11867 11866 
10697 10698 11803 11802 10762 10763 11868 11867 
10698 10699 11804 11803 10763 10764 11869 11868 
10699 10700 11805 11804 10764 10765 11870 11869 
10700 10701 11806 11805 10765 10766 11871 11870 
10701 10702 11807 11806 10766 10767 11872 11871 
10702 10703 11808 11807 10767 10768 11873 11872 
10703 10704 11809 11808 10768 10769 11874 11873 
10704 10705 11810 11809 10769 10770 11875 11874 
10705 10706 11811 11810 10770 10771 11876 11875 
10706 10707 11812 11811 10771 10772 11877 11876 
10707 10708 11813 11812 10772 10773 11878 11877 
10708 10709 11814 11813 10773 10774 11879 11878 
10709 10710 11815 11814 10774 10775 11880 11879 
10710 10711 11816 11815 10775 10776 11881 11880 
10711 10712 11817 11816 10776 10777 11882 11881 
10712 10713 11818 11817 10777 10778 11883 11882 
10713 10714 11819 11818 10778 10779 11884 11883 
10714 10715 11820 11819 10779 10780 11885 11884 
10715 10716 11821 11820 10780 10781 11886 11885 
10716 10717 11822 11821 10781 10782 11887 11886 
10717 10718 11823 11822 10782 10783 11888 11887 
10718 10719 11824 11823 10783 10784 11889 11888 
10719 10720 11825 11824 10784 10785 11890 11889 
10720 10721 11826 11825 10785 10786 11891 11890 
10721 10722 11827 11826 10786 10787 11892 11891 
10722 10723 11828 11827 10787 10788 11893 11892 
10723 10724 11829 11828 10788 10789 11894 11893 
10725 10726 11831 11830 10790 10791 11896 11895 
10726 10727 11832 11831 10791 10792 11897 11896 
10727 10728 11833 11832 10792 10793 11898 11897 
10728 10729 11834 11833 10793 10794 11899 11898 
10729 10730 11835 11834 10794 10795 11900 11899 
10730 10731 11836 11835 10795 10796 11901 11900 
10731 10732 11837 11836 10796 10797 11902 11901 
10732 10733 11838 11837 10797 10798 11903 11902 
10733 10734 11839 11838 10798 10799 11904 11903 
10734 10735 11840 11839 10799 10800 11905 11904 
10735 10736 11841 11840 10800 10801 11906 11905 
10736 10737 11842 11841 10801 10802 11907 11906 
10737 10738 11843 11842 10802 10803 11908 11907 
10738 10739 11844 11843 10803 10804 11909 11908 
10739 10740 11845 11844 10804 10805 11910 11909 
10740 10741 11846 11845 10805 10806 11911 11910 
10741 10742 11847 11846 10806 10807 11912 11911 
10742 10743 11848 11847 10807 10808 11913 11912 
10743 10744 11849 11848 10808 10809 11914 11913 
10744 10745 11850 11849 10809 10810 11915 11914 
10745 10746 11851 11850 10810 10811 11916 11915 
10746 10747 11852 11851 10811 10812 11917 11916 
10747 10748 11853 11852 10812 10813 11918 11917 
10748 10749 11854 11853 10813 10814 11919 11918 
10749 10750 11855 11854 10814 10815 11920 11919 
10750 10751 11856 11855 10815 10816 11921 11920 
10751 10752 11857 11856 10816 10817 11922 11921 
10752 10753 11858 11857 10817 10818 11923 11922 
10753 10754 11859 11858 10818 10819 11924 11923 
10754 10755 11860 11859 10819 10820 11925 11924 
10755 10756 11861 11860 10820 10821 11926 11925 
10756 10757 11862 11861 10821 10822 11927 11926 
10757 10758 11863 11862 10822 10823 11928 11927 
10758 10759 11864 11863 10823 10824 11929 11928 
10759 10760 11865 11864 10824 10825 11930 11929 
10760 10761 11866 11865 10825 10826 11931 11930 
10761 10762 11867 11866 10826 10827 11932 11931 
10762 10763 11868 11867 10827 10828 11933 11932 
10763 10764 11869 11868 10828 10829 11934 11933 
10764 10765 11870 11869 10829 10830 11935 11934 
10765 10766 11871 11870 10830 10831 11936 11935 
10766 10767 11872 11871 10831 10832 11937 11936 
10767 10768 11873 11872 10832 10833 11938 11937 
10768 10769 11874 11873 10833 10834 11939 11938 
10769 10770 11875 11874 10834 10835 11940 11939 
10770 10771 11876 11875 10835 10836 11941 11940 
10771 10772 11877 11876 10836 10837 11942 11941 
10772 10773 11878 11877 10837 10838 11943 11942 
10773 10774 11879 11878 10838 10839 11944 11943 
10774 10775 11880 11879 10839 10840 11945 11944 
10775 10776 11881 11880 10840 10841 11946 11945 
10776 10777 11882 11881 10841 10842 11947 11946 
10777 10778 11883 11882 10842 10843 11948 11947 
10778 10779 11884 11883 10843 10844 11949 11948 
10779 10780 11885 11884 10844 10845 11950 11949 
10780 10781 11886 11885 10845 10846 11951 11950 
10781 10782 11887 11886 10846 10847 11952 11951 
10782 10783 11888 11887 10847 10848 11953 11952 
10783 10784 11889 11888 10848 10849 11954 11953 
10784 10785 11890 11889 10849 10850 11955 11954 
10785 10786 11891 11890 10850 10851 11956 11955 
10786 10787 11892 11891 10851 10852 11957 11956 
10787 10788 11893 11892 10852 10853 11958 11957 
10788 10789 11894 11893 10853 10854 11959 11958 
10790 10791 11896 11895 10855 10856 11961 11960 
10791 10792 11897 11896 10856 10857 11962 11961 
10792 10793 11898 11897 10857 10858 11963 11962 
10793 10794 11899 11898 10858 10859 11964 11963 
10794 10795 11900 11899 10859 10860 11965 11964 
10795 10796 11901 11900 10860 10861 11966 11965 
10796 10797 11902 11901 10861 10862 11967 11966 
10797 10798 11903 11902 10862 10863 11968 11967 
10798 10799 11904 11903 10863 10864 11969 11968 
10799 10800 11905 11904 10864 10865 11970 11969 
10800 10801 11906 11905 10865 10866 11971 11970 
10801 10802 11907 11906 10866 10867 11972 11971 
10802 10803 11908 11907 10867 10868 11973 11972 
10803 10804 11909 11908 10868 10869 11974 11973 
10804 10805 11910 11909 10869 10870 11975 11974 
10805 10806 11911 11910 10870 10871 11976 11975 
10806 10807 11912 11911 10871 10872 11977 11976 
10807 10808 11913 11912 10872 10873 11978 11977 
10808 10809 11914 11913 10873 10874 11979 11978 
10809 10810 11915 11914 10874 10875 11980 11979 
10810 10811 11916 11915 10875 10876 11981 11980 
10811 10812 11917 11916 10876 10877 11982 11981 
10812 10813 11918 11917 10877 10878 11983 11982 
10813 10814 11919 11918 10878 10879 11984 11983 
10814 10815 11920 11919 10879 10880 11985 11984 
10815 10816 11921 11920 10880 10881 11986 11985 
10816 10817 11922 11921 10881 10882 11987 11986 
10817 10818 11923 11922 10882 10883 11988 11987 
10818 10819 11924 11923 10883 10884 11989 11988 
10819 10820 11925 11924 10884 10885 11990 11989 
10820 10821 11926 11925 10885 10886 11991 11990 
10821 10822 11927 11926 10886 10887 11992 11991 
10822 10823 11928 11927 10887 10888 11993 11992 
10823 10824 11929 11928 10888 10889 11994 11993 
10824 10825 11930 11929 10889 10890 11995 11994 
10825 10826 11931 11930 10890 10891 11996 11995 
10826 10827 11932 11931 10891 10892 11997 11996 
10827 10828 11933 11932 10892 10893 11998 11997 
10828 10829 11934 11933 10893 10894 11999 11998 
10829 10830 11935 11934 10894 10895 12000 11999 
10830 10831 11936 11935 10895 10896 12001 12000 
10831 10832 11937 11936 10896 10897 12002 12001 
10832 10833 11938 11937 10897 10898 12003 12002 
10833 10834 11939 11938 10898 10899 12004 12003 
10834 10835 11940 11939 10899 10900 12005 12004 
10835 10836 11941 11940 10900 10901 12006 12005 
10836 10837 11942 11941 10901 10902 12007 12006 
10837 10838 11943 11942 10902 10903 12008 12007 
10838 10839 11944 11943 10903 10904 12009 12008 
10839 10840 11945 11944 10904 10905 12010 12009 
10840 10841 11946 11945 10905 10906 12011 12010 
10841 10842 11947 11946 10906 10907 12012 12011 
10842 10843 11948 11947 10907 10908 12013 12012 
10843 10844 11949 11948 10908 10909 12014 12013 
10844 10845 11950 11949 10909 10910 12015 12014 
10845 10846 11951 11950 10910 10911 12016 12015 
10846 10847 11952 11951 10911 10912 12017 12016 
10847 10848 11953 11952 10912 10913 12018 12017 
10848 10849 11954 11953 10913 10914 12019 12018 
10849 10850 11955 11954 10914 10915 12020 12019 
10850 10851 11956 11955 10915 10916 12021 12020 
10851 10852 11957 11956 10916 10917 12022 12021 
10852 10853 11958 11957 10917 10918 12023 12022 
10853 10854 11959 11958 10918 10919 12024 12023 
10855 10856 11961 11960 10920 10921 12026 12025 
10856 10857 11962 11961 10921 10922 12027 12026 
10857 10858 11963 11962 10922 10923 12028 12027 
10858 10859 11964 11963 10923 10924 12029 12028 
10859 10860 11965 11964 10924 10925 12030 12029 
10860 10861 11966 11965 10925 10926 12031 12030 
10861 10862 11967 11966 10926 10927 12032 12031 
10862 10863 11968 11967 10927 10928 12033 12032 
10863 10864 11969 11968 10928 10929 12034 12033 
10864 10865 11970 11969 10929 10930 12035 12034 
10865 10866 11971 11970 10930 10931 12036 12035 
10866 10867 11972 11971 10931 10932 12037 12036 
10867 10868 11973 11972 10932 10933 12038 12037 
10868 10869 11974 11973 10933 10934 12039 12038 
10869 10870 11975 11974 10934 10935 12040 12039 
10870 10871 11976 11975 10935 10936 12041 12040 
10871 10872 11977 11976 10936 10937 12042 12041 
10872 10873 11978 11977 10937 10938 12043 12042 
10873 10874 11979 11978 10938 10939 12044 12043 
10874 10875 11980 11979 10939 10940 12045 12044 
10875 10876 11981 11980 10940 10941 12046 12045 
10876 10877 11982 11981 10941 10942 12047 12046 
10877 10878 11983 11982 10942 10943 12048 12047 
10878 10879 11984 11983 10943 10944 12049 12048 
10879 10880 11985 11984 10944 10945 12050 12049 
10880 10881 11986 11985 10945 10946 12051 12050 
10881 10882 11987 11986 10946 10947 12052 12051 
10882 10883 11988 11987 10947 10948 12053 12052 
10883 10884 11989 11988 10948 10949 12054 12053 
10884 10885 11990 11989 10949 10950 12055 12054 
10885 10886 11991 11990 10950 10951 12056 12055 
10886 10887 11992 11991 10951 10952 12057 12056 
10887 10888 11993 11992 10952 10953 12058 12057 
10888 10889 11994 11993 10953 10954 12059 12058 
10889 10890 11995 11994 10954 10955 12060 12059 
10890 10891 11996 11995 10955 10956 12061 12060 
10891 10892 11997 11996 10956 10957 12062 12061 
10892 10893 11998 11997 10957 10958 12063 12062 
10893 10894 11999 11998 10958 10959 12064 12063 
10894 10895 12000 11999 10959 10960 12065 12064 
10895 10896 12001 12000 10960 10961 12066 12065 
10896 10897 12002 12001 10961 10962 12067 12066 
10897 10898 12003 12002 10962 10963 12068 12067 
10898 10899 12004 12003 10963 10964 12069 12068 
10899 10900 12005 12004 10964 10965 12070 12069 
10900 10901 12006 12005 10965 10966 12071 12070 
10901 10902 12007 12006 10966 10967 12072 12071 
10902 10903 12008 12007 10967 10968 12073 12072 
10903 10904 12009 12008 10968 10969 12074 12073 
10904 10905 12010 12009 10969 10970 12075 12074 
10905 10906 12011 12010 10970 10971 12076 12075 
10906 10907 12012 12011 10971 10972 12077 12076 
10907 10908 12013 12012 10972 10973 12078 12077 
10908 10909 12014 12013 10973 10974 12079 12078 
10909 10910 12015 12014 10974 10975 12080 12079 
10910 10911 12016 12015 10975 10976 12081 12080 
10911 10912 12017 12016 10976 10977 12082 12081 
10912 10913 12018 12017 10977 10978 12083 12082 
10913 10914 12019 12018 10978 10979 12084 12083 
10914 10915 12020 12019 10979 10980 12085 12084 
10915 10916 12021 12020 10980 10981 12086 12085 
10916 10917 12022 12021 10981 10982 12087 12086 
10917 10918 12023 12022 10982 10983 12088 12087 
10918 10919 12024 12023 10983 10984 12089 12088 
10920 10921 12026 12025 10985 10986 12091 12090 
10921 10922 12027 12026 10986 10987 12092 12091 
10922 10923 12028 12027 10987 10988 12093 12092 
10923 10924 12029 12028 10988 10989 12094 12093 
10924 10925 12030 12029 10989 10990 12095 12094 
10925 10926 12031 12030 10990 10991 12096 12095 
10926 10927 12032 12031 10991 10992 12097 12096 
10927 10928 12033 12032 10992 10993 12098 12097 
10928 10929 12034 12033 10993 10994 12099 12098 
10929 10930 12035 12034 10994 10995 12100 12099 
10930 10931 12036 12035 10995 10996 12101 12100 
10931 10932 12037 12036 10996 10997 12102 12101 
10932 10933 12038 12037 10997 10998 12103 12102 
10933 10934 12039 12038 10998 10999 12104 12103 
10934 10935 12040 12039 10999 11000 12105 12104 
10935 10936 12041 12040 11000 11001 12106 12105 
10936 10937 12042 12041 11001 11002 12107 12106 
10937 10938 12043 12042 11002 11003 12108 12107 
10938 10939 12044 12043 11003 11004 12109 12108 
10939 10940 12045 12044 11004 11005 12110 12109 
10940 10941 12046 12045 11005 11006 12111 12110 
10941 10942 12047 12046 11006 11007 12112 12111 
10942 10943 12048 12047 11007 11008 12113 12112 
10943 10944 12049 12048 11008 11009 12114 12113 
10944 10945 12050 12049 11009 11010 12115 12114 
10945 10946 12051 12050 11010 11011 12116 12115 
10946 10947 12052 12051 11011 11012 12117 12116 
10947 10948 12053 12052 11012 11013 12118 12117 
10948 10949 12054 12053 11013 11014 12119 12118 
10949 10950 12055 12054 11014 11015 12120 12119 
10950 10951 12056 12055 11015 11016 12121 12120 
10951 10952 12057 12056 11016 11017 12122 12121 
10952 10953 12058 12057 11017 11018 12123 12122 
10953 10954 12059 12058 11018 11019 12124 12123 
10954 10955 12060 12059 11019 11020 12125 12124 
10955 10956 12061 12060 11020 11021 12126 12125 
10956 10957 12062 12061 11021 11022 12127 12126 
10957 10958 12063 12062 11022 11023 12128 12127 
10958 10959 12064 12063 11023 11024 12129 12128 
10959 10960 12065 12064 11024 11025 12130 12129 
10960 10961 12066 12065 11025 11026 12131 12130 
10961 10962 12067 12066 11026 11027 12132 12131 
10962 10963 12068 12067 11027 11028 12133 12132 
10963 10964 12069 12068 11028 11029 12134 12133 
10964 10965 12070 12069 11029 11030 12135 12134 
10965 10966 12071 12070 11030 11031 12136 12135 
10966 10967 12072 12071 11031 11032 12137 12136 
10967 10968 12073 12072 11032 11033 12138 12137 
10968 10969 12074 12073 11033 11034 12139 12138 
10969 10970 12075 12074 11034 11035 12140 12139 
10970 10971 12076 12075 11035 11036 12141 12140 
10971 10972 12077 12076 11036 11037 12142 12141 
10972 10973 12078 12077 11037 11038 12143 12142 
10973 10974 12079 12078 11038 11039 12144 12143 
10974 10975 12080 12079 11039 11040 12145 12144 
10975 10976 12081 12080 11040 11041 12146 12145 
10976 10977 12082 12081 11041 11042 12147 12146 
10977 10978 12083 12082 11042 11043 12148 12147 
10978 10979 12084 12083 11043 11044 12149 12148 
10979 10980 12085 12084 11044 11045 12150 12149 
10980 10981 12086 12085 11045 11046 12151 12150 
10981 10982 12087 12086 11046 11047 12152 12151 
10982 10983 12088 12087 11047 11048 12153 12152 
10983 10984 12089 12088 11048 11049 12154 12153 
11050 11051 12156 12155 11115 11116 12221 12220 
11051 11052 12157 12156 11116 11117 12222 12221 
11052 11053 12158 12157 11117 11118 12223 12222 
11053 11054 12159 12158 11118 11119 12224 12223 
11054 11055 12160 12159 11119 11120 12225 12224 
11055 11056 12161 12160 11120 11121 12226 12225 
11056 11057 12162 12161 11121 11122 12227 12226 
11057 11058 12163 12162 11122 11123 12228 12227 
11058 11059 12164 12163 11123 11124 12229 12228 
11059 11060 12165 12164 11124 11125 12230 12229 
11060 11061 12166 12165 11125 11126 12231 12230 
11061 11062 12167 12166 11126 11127 12232 12231 
11062 11063 12168 12167 11127 11128 12233 12232 
11063 11064 12169 12168 11128 11129 12234 12233 
11064 11065 12170 12169 11129 11130 12235 12234 
11065 11066 12171 12170 11130 11131 12236 12235 
11066 11067 12172 12171 11131 11132 12237 12236 
11067 11068 12173 12172 11132 11133 12238 12237 
11068 11069 12174 12173 11133 11134 12239 12238 
11069 11070 12175 12174 11134 11135 12240 12239 
11070 11071 12176 12175 11135 11136 12241 12240 
11071 11072 12177 12176 11136 11137 12242 12241 
11072 11073 12178 12177 11137 11138 12243 12242 
11073 11074 12179 12178 11138 11139 12244 12243 
11074 11075 12180 12179 11139 11140 12245 12244 
11075 11076 12181 12180 11140 11141 12246 12245 
11076 11077 12182 12181 11141 11142 12247 12246 
11077 11078 12183 12182 11142 11143 12248 12247 
11078 11079 12184 12183 11143 11144 12249 12248 
11079 11080 12185 12184 11144 11145 12250 12249 
11080 11081 12186 12185 11145 11146 12251 12250 
11081 11082 12187 12186 11146 11147 12252 12251 
11082 11083 12188 12187 11147 11148 12253 12252 
11083 11084 12189 12188 11148 11149 12254 12253 
11084 11085 12190 12189 11149 11150 12255 12254 
11085 11086 12191 12190 11150 11151 12256 12255 
11086 11087 12192 12191 11151 11152 12257 12256 
11087 11088 12193 12192 11152 11153 12258 12257 
11088 11089 12194 12193 11153 11154 12259 12258 
11089 11090 12195 12194 11154 11155 12260 12259 
11090 11091 12196 12195 11155 11156 12261 12260 
11091 11092 12197 12196 11156 11157 12262 12261 
11092 11093 12198 12197 11157 11158 12263 12262 
11093 11094 12199 12198 11158 11159 12264 12263 
11094 11095 12200 12199 11159 11160 12265 12264 
11095 11096 12201 12200 11160 11161 12266 12265 
11096 11097 12202 12201 11161 11162 12267 12266 
11097 11098 12203 12202 11162 11163 12268 12267 
11098 11099 12204 12203 11163 11164 12269 12268 
11099 11100 12205 12204 11164 11165 12270 12269 
11100 11101 12206 12205 11165 11166 12271 12270 
11101 11102 12207 12206 11166 11167 12272 12271 
11102 11103 12208 12207 11167 11168 12273 12272 
11103 11104 12209 12208 11168 11169 12274 12273 
11104 11105 12210 12209 11169 11170 12275 12274 
11105 11106 12211 12210 11170 11171 12276 12275 
11106 11107 12212 12211 11171 11172 12277 12276 
11107 11108 12213 12212 11172 11173 12278 12277 
11108 11109 12214 12213 11173 11174 12279 12278 
11109 11110 12215 12214 11174 11175 12280 12279 
11110 11111 12216 12215 11175 11176 12281 12280 
11111 11112 12217 12216 11176 11177 12282 12281 
11112 11113 12218 12217 11177 11178 12283 12282 
11113 11114 12219 12218 11178 11179 12284 12283 
11115 11116 12221 12220 11180 11181 12286 12285 
11116 11117 12222 12221 11181 11182 12287 12286 
11117 11118 12223 12222 11182 11183 12288 12287 
11118 11119 12224 12223 11183 11184 12289 12288 
11119 11120 12225 12224 11184 11185 12290 12289 
11120 11121 12226 12225 11185 11186 12291 12290 
11121 11122 12227 12226 11186 11187 12292 12291 
11122 11123 12228 12227 11187 11188 12293 12292 
11123 11124 12229 12228 11188 11189 12294 12293 
11124 11125 12230 12229 11189 11190 12295 12294 
11125 11126 12231 12230 11190 11191 12296 12295 
11126 11127 12232 12231 11191 11192 12297 12296 
11127 11128 12233 12232 11192 11193 12298 12297 
11128 11129 12234 12233 11193 11194 12299 12298 
11129 11130 12235 12234 11194 11195 12300 12299 
11130 11131 12236 12235 11195 11196 12301 12300 
11131 11132 12237 12236 11196 11197 12302 12301 
11132 11133 12238 12237 11197 11198 12303 12302 
11133 11134 12239 12238 11198 11199 12304 12303 
11134 11135 12240 12239 11199 11200 12305 12304 
11135 11136 12241 12240 11200 11201 12306 12305 
11136 11137 12242 12241 11201 11202 12307 12306 
11137 11138 12243 12242 11202 11203 12308 12307 
11138 11139 12244 12243 11203 11204 12309 12308 
11139 11140 12245 12244 11204 11205 12310 12309 
11140 11141 12246 12245 11205 11206 12311 12310 
11141 11142 12247 12246 11206 11207 12312 12311 
11142 11143 12248 12247 11207 11208 12313 12312 
11143 11144 12249 12248 11208 11209 12314 12313 
11144 11145 12250 12249 11209 11210 12315 12314 
11145 11146 12251 12250 11210 11211 12316 12315 
11146 11147 12252 12251 11211 11212 12317 12316 
11147 11148 12253 12252 11212 11213 12318 12317 
11148 11149 12254 12253 11213 11214 12319 12318 
11149 11150 12255 12254 11214 11215 12320 12319 
11150 11151 12256 12255 11215 11216 12321 12320 
11151 11152 12257 12256 11216 11217 12322 12321 
11152 11153 12258 12257 11217 11218 12323 12322 
11153 11154 12259 12258 11218 11219 12324 12323 
11154 11155 12260 12259 11219 11220 12325 12324 
11155 11156 12261 12260 11220 11221 12326 12325 
11156 11157 12262 12261 11221 11222 12327 12326 
11157 11158 12263 12262 11222 11223 12328 12327 
11158 11159 12264 12263 11223 11224 12329 12328 
11159 11160 12265 12264 11224 11225 12330 12329 
11160 11161 12266 12265 11225 11226 12331 12330 
11161 11162 12267 12266 11226 11227 12332 12331 
11162 11163 12268 12267 11227 11228 12333 12332 
11163 11164 12269 12268 11228 11229 12334 12333 
11164 11165 12270 12269 11229 11230 12335 12334 
11165 11166 12271 12270 11230 11231 12336 12335 
11166 11167 12272 12271 11231 11232 12337 12336 
11167 11168 12273 12272 11232 11233 12338 12337 
11168 11169 12274 12273 11233 11234 12339 12338 
11169 11170 12275 12274 11234 11235 12340 12339 
11170 11171 12276 12275 11235 11236 12341 12340 
11171 11172 12277 12276 11236 11237 12342 12341 
11172 11173 12278 12277 11237 11238 12343 12342 
11173 11174 12279 12278 11238 11239 12344 12343 
11174 11175 12280 12279 11239 11240 12345 12344 
11175 11176 12281 12280 11240 11241 12346 12345 
11176 11177 12282 12281 11241 11242 12347 12346 
11177 11178 12283 12282 11242 11243 12348 12347 
11178 11179 12284 12283 11243 11244 12349 12348 
11180 11181 12286 12285 11245 11246 12351 12350 
11181 11182 12287 12286 11246 11247 12352 12351 
11182 11183 12288 12287 11247 11248 12353 12352 
11183 11184 12289 12288 11248 11249 12354 12353 
11184 11185 12290 12289 11249 11250 12355 12354 
11185 11186 12291 12290 11250 11251 12356 12355 
11186 11187 12292 12291 11251 11252 12357 12356 
11187 11188 12293 12292 11252 11253 12358 12357 
11188 11189 12294 12293 11253 11254 12359 12358 
11189 11190 12295 12294 11254 11255 12360 12359 
11190 11191 12296 12295 11255 11256 12361 12360 
11191 11192 12297 12296 11256 11257 12362 12361 
11192 11193 12298 12297 11257 11258 12363 12362 
11193 11194 12299 12298 11258 11259 12364 12363 
11194 11195 12300 12299 11259 11260 12365 12364 
11195 11196 12301 12300 11260 11261 12366 12365 
11196 11197 12302 12301 11261 11262 12367 12366 
11197 11198 12303 12302 11262 11263 12368 12367 
11198 11199 12304 12303 11263 11264 12369 12368 
11199 11200 12305 12304 11264 11265 12370 12369 
11200 11201 12306 12305 11265 11266 12371 12370 
11201 11202 12307 12306 11266 11267 12372 12371 
11202 11203 12308 12307 11267 11268 12373 12372 
11203 11204 12309 12308 11268 11269 12374 12373 
11204 11205 12310 12309 11269 11270 12375 12374 
11205 11206 12311 12310 11270 11271 12376 12375 
11206 11207 12312 12311 11271 11272 12377 12376 
11207 11208 12313 12312 11272 11273 12378 12377 
11208 11209 12314 12313 11273 11274 12379 12378 
11209 11210 12315 12314 11274 11275 12380 12379 
11210 11211 12316 12315 11275 11276 12381 12380 
11211 11212 12317 12316 11276 11277 12382 12381 
11212 11213 12318 12317 11277 11278 12383 12382 
11213 11214 12319 12318 11278 11279 12384 12383 
11214 11215 12320 12319 11279 11280 12385 12384 
11215 11216 12321 12320 11280 11281 12386 12385 
11216 11217 12322 12321 11281 11282 12387 12386 
11217 11218 12323 12322 11282 11283 12388 12387 
11218 11219 12324 12323 11283 11284 12389 12388 
11219 11220 12325 12324 11284 11285 12390 12389 
11220 11221 12326 12325 11285 11286 12391 12390 
11221 11222 12327 12326 11286 11287 12392 12391 
11222 11223 12328 12327 11287 11288 12393 12392 
11223 11224 12329 12328 11288 11289 12394 12393 
11224 11225 12330 12329 11289 11290 12395 12394 
11225 11226 12331 12330 11290 11291 12396 12395 
11226 11227 12332 12331 11291 11292 12397 12396 
11227 11228 12333 12332 11292 11293 12398 12397 
11228 11229 12334 12333 11293 11294 12399 12398 
11229 11230 12335 12334 11294 11295 12400 12399 
11230 11231 12336 12335 11295 11296 12401 12400 
11231 11232 12337 12336 11296 11297 12402 12401 
11232 11233 12338 12337 11297 11298 12403 12402 
11233 11234 12339 12338 11298 11299 12404 12403 
11234 11235 12340 12339 11299 11300 12405 12404 
11235 11236 12341 12340 11300 11301 12406 12405 
11236 11237 12342 12341 11301 11302 12407 12406 
11237 11238 12343 12342 11302 11303 12408 12407 
11238 11239 12344 12343 11303 11304 12409 12408 
11239 11240 12345 12344 11304 11305 12410 12409 
11240 11241 12346 12345 11305 11306 12411 12410 
11241 11242 12347 12346 11306 11307 12412 12411 
11242 11243 12348 12347 11307 11308 12413 12412 
11243 11244 12349 12348 11308 11309 12414 12413 
11245 11246 12351 12350 11310 11311 12416 12415 
11246 11247 12352 12351 11311 11312 12417 12416 
11247 11248 12353 12352 11312 11313 12418 12417 
11248 11249 12354 12353 11313 11314 12419 12418 
11249 11250 12355 12354 11314 11315 12420 12419 
11250 11251 12356 12355 11315 11316 12421 12420 
11251 11252 12357 12356 11316 11317 12422 12421 
11252 11253 12358 12357 11317 11318 12423 12422 
11253 11254 12359 12358 11318 11319 12424 12423 
11254 11255 12360 12359 11319 11320 12425 12424 
11255 11256 12361 12360 11320 11321 12426 12425 
11256 11257 12362 12361 11321 11322 12427 12426 
11257 11258 12363 12362 11322 11323 12428 12427 
11258 11259 12364 12363 11323 11324 12429 12428 
11259 11260 12365 12364 11324 11325 12430 12429 
11260 11261 12366 12365 11325 11326 12431 12430 
11261 11262 12367 12366 11326 11327 12432 12431 
11262 11263 12368 12367 11327 11328 12433 12432 
11263 11264 12369 12368 11328 11329 12434 12433 
11264 11265 12370 12369 11329 11330 12435 12434 
11265 11266 12371 12370 11330 11331 12436 12435 
11266 11267 12372 12371 11331 11332 12437 12436 
11267 11268 12373 12372 11332 11333 12438 12437 
11268 11269 12374 12373 11333 11334 12439 12438 
11269 11270 12375 12374 11334 11335 12440 12439 
11270 11271 12376 12375 11335 11336 12441 12440 
11271 11272 12377 12376 11336 11337 12442 12441 
11272 11273 12378 12377 11337 11338 12443 12442 
11273 11274 12379 12378 11338 11339 12444 12443 
11274 11275 12380 12379 11339 11340 12445 12444 
11275 11276 12381 12380 11340 11341 12446 12445 
11276 11277 12382 12381 11341 11342 12447 12446 
11277 11278 12383 12382 11342 11343 12448 12447 
11278 11279 12384 12383 11343 11344 12449 12448 
11279 11280 12385 12384 11344 11345 12450 12449 
11280 11281 12386 12385 11345 11346 12451 12450 
11281 11282 12387 12386 11346 11347 12452 12451 
11282 11283 12388 12387 11347 11348 12453 12452 
11283 11284 12389 12388 11348 11349 12454 12453 
11284 11285 12390 12389 11349 11350 12455 12454 
11285 11286 12391 12390 11350 11351 12456 12455 
11286 11287 12392 12391 11351 11352 12457 12456 
11287 11288 12393 12392 11352 11353 12458 12457 
11288 11289 12394 12393 11353 11354 12459 12458 
11289 11290 12395 12394 11354 11355 12460 12459 
11290 11291 12396 12395 11355 11356 12461 12460 
11291 11292 12397 12396 11356 11357 12462 12461 
11292 11293 12398 12397 11357 11358 12463 12462 
11293 11294 12399 12398 11358 11359 12464 12463 
11294 11295 12400 12399 11359 11360 12465 12464 
11295 11296 12401 12400 11360 11361 12466 12465 
11296 11297 12402 12401 11361 11362 12467 12466 
11297 11298 12403 12402 11362 11363 12468 12467 
11298 11299 12404 12403 11363 11364 12469 12468 
11299 11300 12405 12404 11364 11365 12470 12469 
11300 11301 12406 12405 11365 11366 12471 12470 
11301 11302 12407 12406 11366 11367 12472 12471 
11302 11303 12408 12407 11367 11368 12473 12472 
11303 11304 12409 12408 11368 11369 12474 12473 
11304 11305 12410 12409 11369 11370 12475 12474 
11305 11306 12411 12410 11370 11371 12476 12475 
11306 11307 12412 12411 11371 11372 12477 12476 
11307 11308 12413 12412 11372 11373 12478 12477 
11308 11309 12414 12413 11373 11374 12479 12478 
11310 11311 12416 12415 11375 11376 12481 12480 
11311 11312 12417 12416 11376 11377 12482 12481 
11312 11313 12418 12417 11377 11378 12483 12482 
11313 11314 12419 12418 11378 11379 12484 12483 
11314 11315 12420 12419 11379 11380 12485 12484 
11315 11316 12421 12420 11380 11381 12486 12485 
11316 11317 12422 12421 11381 11382 12487 12486 
11317 11318 12423 12422 11382 11383 12488 12487 
11318 11319 12424 12423 11383 11384 12489 12488 
11319 11320 12425 12424 11384 11385 12490 12489 
11320 11321 12426 12425 11385 11386 12491 12490 
11321 11322 12427 12426 11386 11387 12492 12491 
11322 11323 12428 12427 11387 11388 12493 12492 
11323 11324 12429 12428 11388 11389 12494 12493 
11324 11325 12430 12429 11389 11390 12495 12494 
11325 11326 12431 12430 11390 11391 12496 12495 
11326 11327 12432 12431 11391 11392 12497 12496 
11327 11328 12433 12432 11392 11393 12498 12497 
11328 11329 12434 12433 11393 11394 12499 12498 
11329 11330 12435 12434 11394 11395 12500 12499 
11330 11331 12436 12435 11395 11396 12501 12500 
11331 11332 12437 12436 11396 11397 12502 12501 
11332 11333 12438 12437 11397 11398 12503 12502 
11333 11334 12439 12438 11398 11399 12504 12503 
11334 11335 12440 12439 11399 11400 12505 12504 
11335 11336 12441 12440 11400 11401 12506 12505 
11336 11337 12442 12441 11401 11402 12507 12506 
11337 11338 12443 12442 11402 11403 12508 12507 
11338 11339 12444 12443 11403 11404 12509 12508 
11339 11340 12445 12444 11404 11405 12510 12509 
11340 11341 12446 12445 11405 11406 12511 12510 
11341 11342 12447 12446 11406 11407 12512 12511 
11342 11343 12448 12447 11407 11408 12513 12512 
11343 11344 12449 12448 11408 11409 12514 12513 
11344 11345 12450 12449 11409 11410 12515 12514 
11345 11346 12451 12450 11410 11411 12516 12515 
11346 11347 12452 12451 11411 11412 12517 12516 
11347 11348 12453 12452 11412 11413 12518 12517 
11348 11349 12454 12453 11413 11414 12519 12518 
11349 11350 12455 12454 11414 11415 12520 12519 
11350 11351 12456 12455 11415 11416 12521 12520 
11351 11352 12457 12456 11416 11417 12522 12521 
11352 11353 12458 12457 11417 11418 12523 12522 
11353 11354 12459 12458 11418 11419 12524 12523 
11354 11355 12460 12459 11419 11420 12525 12524 
11355 11356 12461 12460 11420 11421 12526 12525 
11356 11357 12462 12461 11421 11422 12527 12526 
11357 11358 12463 12462 11422 11423 12528 12527 
11358 11359 12464 12463 11423 11424 12529 12528 
11359 11360 12465 12464 11424 11425 12530 12529 
11360 11361 12466 12465 11425 11426 12531 12530 
11361 11362 12467 12466 11426 11427 12532 12531 
11362 11363 12468 12467 11427 11428 12533 12532 
11363 11364 12469 12468 11428 11429 12534 12533 
11364 11365 12470 12469 11429 11430 12535 12534 
11365 11366 12471 12470 11430 11431 12536 12535 
11366 11367 12472 12471 11431 11432 12537 12536 
11367 11368 12473 12472 11432 11433 12538 12537 
11368 11369 12474 12473 11433 11434 12539 12538 
11369 11370 12475 12474 11434 11435 12540 12539 
11370 11371 12476 12475 11435 11436 12541 12540 
11371 11372 12477 12476 11436 11437 12542 12541 
11372 11373 12478 12477 11437 11438 12543 12542 
11373 11374 12479 12478 11438 11439 12544 12543 
11375 11376 12481 12480 11440 11441 12546 12545 
11376 11377 12482 12481 11441 11442 12547 12546 
11377 11378 12483 12482 11442 11443 12548 12547 
11378 11379 12484 12483 11443 11444 12549 12548 
11379 11380 12485 12484 11444 11445 12550 12549 
11380 11381 12486 12485 11445 11446 12551 12550 
11381 11382 12487 12486 11446 11447 12552 12551 
11382 11383 12488 12487 11447 11448 12553 12552 
11383 11384 12489 12488 11448 11449 12554 12553 
11384 11385 12490 12489 11449 11450 12555 12554 
11385 11386 12491 12490 11450 11451 12556 12555 
11386 11387 12492 12491 11451 11452 12557 12556 
11387 11388 12493 12492 11452 11453 12558 12557 
11388 11389 12494 12493 11453 11454 12559 12558 
11389 11390 12495 12494 11454 11455 12560 12559 
11390 11391 12496 12495 11455 11456 12561 12560 
11391 11392 12497 12496 11456 11457 12562 12561 
11392 11393 12498 12497 11457 11458 12563 12562 
11393 11394 12499 12498 11458 11459 12564 12563 
11394 11395 12500 12499 11459 11460 12565 12564 
11395 11396 12501 12500 11460 11461 12566 12565 
11396 11397 12502 12501 11461 11462 12567 12566 
11397 11398 12503 12502 11462 11463 12568 12567 
11398 11399 12504 12503 11463 11464 12569 12568 
11399 11400 12505 12504 11464 11465 12570 12569 
11400 11401 12506 12505 11465 11466 12571 12570 
11401 11402 12507 12506 11466 11467 12572 12571 
11402 11403 12508 12507 11467 11468 12573 12572 
11403 11404 12509 12508 11468 11469 12574 12573 
11404 11405 12510 12509 11469 11470 12575 12574 
11405 11406 12511 12510 11470 11471 12576 12575 
11406 11407 12512 12511 11471 11472 12577 12576 
11407 11408 12513 12512 11472 11473 12578 12577 
11408 11409 12514 12513 11473 11474 12579 12578 
11409 11410 12515 12514 11474 11475 12580 12579 
11410 11411 12516 12515 11475 11476 12581 12580 
11411 11412 12517 12516 11476 11477 12582 12581 
11412 11413 12518 12517 11477 11478 12583 12582 
11413 11414 12519 12518 11478 11479 12584 12583 
11414 11415 12520 12519 11479 11480 12585 12584 
11415 11416 12521 12520 11480 11481 12586 12585 
11416 11417 12522 12521 11481 11482 12587 12586 
11417 11418 12523 12522 11482 11483 12588 12587 
11418 11419 12524 12523 11483 11484 12589 12588 
11419 11420 12525 12524 11484 11485 12590 12589 
11420 11421 12526 12525 11485 11486 12591 12590 
11421 11422 12527 12526 11486 11487 12592 12591 
11422 11423 12528 12527 11487 11488 12593 12592 
11423 11424 12529 12528 11488 11489 12594 12593 
11424 11425 12530 12529 11489 11490 12595 12594 
11425 11426 12531 12530 11490 11491 12596 12595 
11426 11427 12532 12531 11491 11492 12597 12596 
11427 11428 12533 12532 11492 11493 12598 12597 
11428 11429 12534 12533 11493 11494 12599 12598 
11429 11430 12535 12534 11494 11495 12600 12599 
11430 11431 12536 12535 11495 11496 12601 12600 
11431 11432 12537 12536 11496 11497 12602 12601 
11432 11433 12538 12537 11497 11498 12603 12602 
11433 11434 12539 12538 11498 11499 12604 12603 
11434 11435 12540 12539 11499 11500 12605 12604 
11435 11436 12541 12540 11500 11501 12606 12605 
11436 11437 12542 12541 11501 11502 12607 12606 
11437 11438 12543 12542 11502 11503 12608 12607 
11438 11439 12544 12543 11503 11504 12609 12608 
11440 11441 12546 12545 11505 11506 12611 12610 
11441 11442 12547 12546 11506 11507 12612 12611 
11442 11443 12548 12547 11507 11508 12613 12612 
11443 11444 12549 12548 11508 11509 12614 12613 
11444 11445 12550 12549 11509 11510 12615 12614 
11445 11446 12551 12550 11510 11511 12616 12615 
11446 11447 12552 12551 11511 11512 12617 12616 
11447 11448 12553 12552 11512 11513 12618 12617 
11448 11449 12554 12553 11513 11514 12619 12618 
11449 11450 12555 12554 11514 11515 12620 12619 
11450 11451 12556 12555 11515 11516 12621 12620 
11451 11452 12557 12556 11516 11517 12622 12621 
11452 11453 12558 12557 11517 11518 12623 12622 
11453 11454 12559 12558 11518 11519 12624 12623 
11454 11455 12560 12559 11519 11520 12625 12624 
11455 11456 12561 12560 11520 11521 12626 12625 
11456 11457 12562 12561 11521 11522 12627 12626 
11457 11458 12563 12562 11522 11523 12628 12627 
11458 11459 12564 12563 11523 11524 12629 12628 
11459 11460 12565 12564 11524 11525 12630 12629 
11460 11461 12566 12565 11525 11526 12631 12630 
11461 11462 12567 12566 11526 11527 12632 12631 
11462 11463 12568 12567 11527 11528 12633 12632 
11463 11464 12569 12568 11528 11529 12634 12633 
11464 11465 12570 12569 11529 11530 12635 12634 
11465 11466 12571 12570 11530 11531 12636 12635 
11466 11467 12572 12571 11531 11532 12637 12636 
11467 11468 12573 12572 11532 11533 12638 12637 
11468 11469 12574 12573 11533 11534 12639 12638 
11469 11470 12575 12574 11534 11535 12640 12639 
11470 11471 12576 12575 11535 11536 12641 12640 
11471 11472 12577 12576 11536 11537 12642 12641 
11472 11473 12578 12577 11537 11538 12643 12642 
11473 11474 12579 12578 11538 11539 12644 12643 
11474 11475 12580 12579 11539 11540 12645 12644 
11475 11476 12581 12580 11540 11541 12646 12645 
11476 11477 12582 12581 11541 11542 12647 12646 
11477 11478 12583 12582 11542 11543 12648 12647 
11478 11479 12584 12583 11543 11544 12649 12648 
11479 11480 12585 12584 11544 11545 12650 12649 
11480 11481 12586 12585 11545 11546 12651 12650 
11481 11482 12587 12586 11546 11547 12652 12651 
11482 11483 12588 12587 11547 11548 12653 12652 
11483 11484 12589 12588 11548 11549 12654 12653 
11484 11485 12590 12589 11549 11550 12655 12654 
11485 11486 12591 12590 11550 11551 12656 12655 
11486 11487 12592 12591 11551 11552 12657 12656 
11487 11488 12593 12592 11552 11553 12658 12657 
11488 11489 12594 12593 11553 11554 12659 12658 
11489 11490 12595 12594 11554 11555 12660 12659 
11490 11491 12596 12595 11555 11556 12661 12660 
11491 11492 12597 12596 11556 11557 12662 12661 
11492 11493 12598 12597 11557 11558 12663 12662 
11493 11494 12599 12598 11558 11559 12664 12663 
11494 11495 12600 12599 11559 11560 12665 12664 
11495 11496 12601 12600 11560 11561 12666 12665 
11496 11497 12602 12601 11561 11562 12667 12666 
11497 11498 12603 12602 11562 11563 12668 12667 
11498 11499 12604 12603 11563 11564 12669 12668 
11499 11500 12605 12604 11564 11565 12670 12669 
11500 11501 12606 12605 11565 11566 12671 12670 
11501 11502 12607 12606 11566 11567 12672 12671 
11502 11503 12608 12607 11567 11568 12673 12672 
11503 11504 12609 12608 11568 11569 12674 12673 
11505 11506 12611 12610 11570 11571 12676 12675 
11506 11507 12612 12611 11571 11572 12677 12676 
11507 11508 12613 12612 11572 11573 12678 12677 
11508 11509 12614 12613 11573 11574 12679 12678 
11509 11510 12615 12614 11574 11575 12680 12679 
11510 11511 12616 12615 11575 11576 12681 12680 
11511 11512 12617 12616 11576 11577 12682 12681 
11512 11513 12618 12617 11577 11578 12683 12682 
11513 11514 12619 12618 11578 11579 12684 12683 
11514 11515 12620 12619 11579 11580 12685 12684 
11515 11516 12621 12620 11580 11581 12686 12685 
11516 11517 12622 12621 11581 11582 12687 12686 
11517 11518 12623 12622 11582 11583 12688 12687 
11518 11519 12624 12623 11583 11584 12689 12688 
11519 11520 12625 12624 11584 11585 12690 12689 
11520 11521 12626 12625 11585 11586 12691 12690 
11521 11522 12627 12626 11586 11587 12692 12691 
11522 11523 12628 12627 11587 11588 12693 12692 
11523 11524 12629 12628 11588 11589 12694 12693 
11524 11525 12630 12629 11589 11590 12695 12694 
11525 11526 12631 12630 11590 11591 12696 12695 
11526 11527 12632 12631 11591 11592 12697 12696 
11527 11528 12633 12632 11592 11593 12698 12697 
11528 11529 12634 12633 11593 11594 12699 12698 
11529 11530 12635 12634 11594 11595 12700 12699 
11530 11531 12636 12635 11595 11596 12701 12700 
11531 11532 12637 12636 11596 11597 12702 12701 
11532 11533 12638 12637 11597 11598 12703 12702 
11533 11534 12639 12638 11598 11599 12704 12703 
11534 11535 12640 12639 11599 11600 12705 12704 
11535 11536 12641 12640 11600 11601 12706 12705 
11536 11537 12642 12641 11601 11602 12707 12706 
11537 11538 12643 12642 11602 11603 12708 12707 
11538 11539 12644 12643 11603 11604 12709 12708 
11539 11540 12645 12644 11604 11605 12710 12709 
11540 11541 12646 12645 11605 11606 12711 12710 
11541 11542 12647 12646 11606 11607 12712 12711 
11542 11543 12648 12647 11607 11608 12713 12712 
11543 11544 12649 12648 11608 11609 12714 12713 
11544 11545 12650 12649 11609 11610 12715 12714 
11545 11546 12651 12650 11610 11611 12716 12715 
11546 11547 12652 12651 11611 11612 12717 12716 
11547 11548 12653 12652 11612 11613 12718 12717 
11548 11549 12654 12653 11613 11614 12719 12718 
11549 11550 12655 12654 11614 11615 12720 12719 
11550 11551 12656 12655 11615 11616 12721 12720 
11551 11552 12657 12656 11616 11617 12722 12721 
11552 11553 12658 12657 11617 11618 12723 12722 
11553 11554 12659 12658 11618 11619 12724 12723 
11554 11555 12660 12659 11619 11620 12725 12724 
11555 11556 12661 12660 11620 11621 12726 12725 
11556 11557 12662 12661 11621 11622 12727 12726 
11557 11558 12663 12662 11622 11623 12728 12727 
11558 11559 12664 12663 11623 11624 12729 12728 
11559 11560 12665 12664 11624 11625 12730 12729 
11560 11561 12666 12665 11625 11626 12731 12730 
11561 11562 12667 12666 11626 11627 12732 12731 
11562 11563 12668 12667 11627 11628 12733 12732 
11563 11564 12669 12668 11628 11629 12734 12733 
11564 11565 12670 12669 11629 11630 12735 12734 
11565 11566 12671 12670 11630 11631 12736 12735 
11566 11567 12672 12671 11631 11632 12737 12736 
11567 11568 12673 12672 11632 11633 12738 12737 
11568 11569 12674 12673 11633 11634 12739 12738 
11570 11571 12676 12675 11635 11636 12741 12740 
11571 11572 12677 12676 11636 11637 12742 12741 
11572 11573 12678 12677 11637 11638 12743 12742 
11573 11574 12679 12678 11638 11639 12744 12743 
11574 11575 12680 12679 11639 11640 12745 12744 
11575 11576 12681 12680 11640 11641 12746 12745 
11576 11577 12682 12681 11641 11642 12747 12746 
11577 11578 12683 12682 11642 11643 12748 12747 
11578 11579 12684 12683 11643 11644 12749 12748 
11579 11580 12685 12684 11644 11645 12750 12749 
11580 11581 12686 12685 11645 11646 12751 12750 
11581 11582 12687 12686 11646 11647 12752 12751 
11582 11583 12688 12687 11647 11648 12753 12752 
11583 11584 12689 12688 11648 11649 12754 12753 
11584 11585 12690 12689 11649 11650 12755 12754 
11585 11586 12691 12690 11650 11651 12756 12755 
11586 11587 12692 12691 11651 11652 12757 12756 
11587 11588 12693 12692 11652 11653 12758 12757 
11588 11589 12694 12693 11653 11654 12759 12758 
11589 11590 12695 12694 11654 11655 12760 12759 
11590 11591 12696 12695 11655 11656 12761 12760 
11591 11592 12697 12696 11656 11657 12762 12761 
11592 11593 12698 12697 11657 11658 12763 12762 
11593 11594 12699 12698 11658 11659 12764 12763 
11594 11595 12700 12699 11659 11660 12765 12764 
11595 11596 12701 12700 11660 11661 12766 12765 
11596 11597 12702 12701 11661 11662 12767 12766 
11597 11598 12703 12702 11662 11663 12768 12767 
11598 11599 12704 12703 11663 11664 12769 12768 
11599 11600 12705 12704 11664 11665 12770 12769 
11600 11601 12706 12705 11665 11666 12771 12770 
11601 11602 12707 12706 11666 11667 12772 12771 
11602 11603 12708 12707 11667 11668 12773 12772 
11603 11604 12709 12708 11668 11669 12774 12773 
11604 11605 12710 12709 11669 11670 12775 12774 
11605 11606 12711 12710 11670 11671 12776 12775 
11606 11607 12712 12711 11671 11672 12777 12776 
11607 11608 12713 12712 11672 11673 12778 12777 
11608 11609 12714 12713 11673 11674 12779 12778 
11609 11610 12715 12714 11674 11675 12780 12779 
11610 11611 12716 12715 11675 11676 12781 12780 
11611 11612 12717 12716 11676 11677 12782 12781 
11612 11613 12718 12717 11677 11678 12783 12782 
11613 11614 12719 12718 11678 11679 12784 12783 
11614 11615 12720 12719 11679 11680 12785 12784 
11615 11616 12721 12720 11680 11681 12786 12785 
11616 11617 12722 12721 11681 11682 12787 12786 
11617 11618 12723 12722 11682 11683 12788 12787 
11618 11619 12724 12723 11683 11684 12789 12788 
11619 11620 12725 12724 11684 11685 12790 12789 
11620 11621 12726 12725 11685 11686 12791 12790 
11621 11622 12727 12726 11686 11687 12792 12791 
11622 11623 12728 12727 11687 11688 12793 12792 
11623 11624 12729 12728 11688 11689 12794 12793 
11624 11625 12730 12729 11689 11690 12795 12794 
11625 11626 12731 12730 11690 11691 12796 12795 
11626 11627 12732 12731 11691 11692 12797 12796 
11627 11628 12733 12732 11692 11693 12798 12797 
11628 11629 12734 12733 11693 11694 12799 12798 
11629 11630 12735 12734 11694 11695 12800 12799 
11630 11631 12736 12735 11695 11696 12801 12800 
11631 11632 12737 12736 11696 11697 12802 12801 
11632 11633 12738 12737 11697 11698 12803 12802 
11633 11634 12739 12738 11698 11699 12804 12803 
11635 11636 12741 12740 11700 11701 12806 12805 
11636 11637 12742 12741 11701 11702 12807 12806 
11637 11638 12743 12742 11702 11703 12808 12807 
11638 11639 12744 12743 11703 11704 12809 12808 
11639 11640 12745 12744 11704 11705 12810 12809 
11640 11641 12746 12745 11705 11706 12811 12810 
11641 11642 12747 12746 11706 11707 12812 12811 
11642 11643 12748 12747 11707 11708 12813 12812 
11643 11644 12749 12748 11708 11709 12814 12813 
11644 11645 12750 12749 11709 11710 12815 12814 
11645 11646 12751 12750 11710 11711 12816 12815 
11646 11647 12752 12751 11711 11712 12817 12816 
11647 11648 12753 12752 11712 11713 12818 12817 
11648 11649 12754 12753 11713 11714 12819 12818 
11649 11650 12755 12754 11714 11715 12820 12819 
11650 11651 12756 12755 11715 11716 12821 12820 
11651 11652 12757 12756 11716 11717 12822 12821 
11652 11653 12758 12757 11717 11718 12823 12822 
11653 11654 12759 12758 11718 11719 12824 12823 
11654 11655 12760 12759 11719 11720 12825 12824 
11655 11656 12761 12760 11720 11721 12826 12825 
11656 11657 12762 12761 11721 11722 12827 12826 
11657 11658 12763 12762 11722 11723 12828 12827 
11658 11659 12764 12763 11723 11724 12829 12828 
11659 11660 12765 12764 11724 11725 12830 12829 
11660 11661 12766 12765 11725 11726 12831 12830 
11661 11662 12767 12766 11726 11727 12832 12831 
11662 11663 12768 12767 11727 11728 12833 12832 
11663 11664 12769 12768 11728 11729 12834 12833 
11664 11665 12770 12769 11729 11730 12835 12834 
11665 11666 12771 12770 11730 11731 12836 12835 
11666 11667 12772 12771 11731 11732 12837 12836 
11667 11668 12773 12772 11732 11733 12838 12837 
11668 11669 12774 12773 11733 11734 12839 12838 
11669 11670 12775 12774 11734 11735 12840 12839 
11670 11671 12776 12775 11735 11736 12841 12840 
11671 11672 12777 12776 11736 11737 12842 12841 
11672 11673 12778 12777 11737 11738 12843 12842 
11673 11674 12779 12778 11738 11739 12844 12843 
11674 11675 12780 12779 11739 11740 12845 12844 
11675 11676 12781 12780 11740 11741 12846 12845 
11676 11677 12782 12781 11741 11742 12847 12846 
11677 11678 12783 12782 11742 11743 12848 12847 
11678 11679 12784 12783 11743 11744 12849 12848 
11679 11680 12785 12784 11744 11745 12850 12849 
11680 11681 12786 12785 11745 11746 12851 12850 
11681 11682 12787 12786 11746 11747 12852 12851 
11682 11683 12788 12787 11747 11748 12853 12852 
11683 11684 12789 12788 11748 11749 12854 12853 
11684 11685 12790 12789 11749 11750 12855 12854 
11685 11686 12791 12790 11750 11751 12856 12855 
11686 11687 12792 12791 11751 11752 12857 12856 
11687 11688 12793 12792 11752 11753 12858 12857 
11688 11689 12794 12793 11753 11754 12859 12858 
11689 11690 12795 12794 11754 11755 12860 12859 
11690 11691 12796 12795 11755 11756 12861 12860 
11691 11692 12797 12796 11756 11757 12862 12861 
11692 11693 12798 12797 11757 11758 12863 12862 
11693 11694 12799 12798 11758 11759 12864 12863 
11694 11695 12800 12799 11759 11760 12865 12864 
11695 11696 12801 12800 11760 11761 12866 12865 
11696 11697 12802 12801 11761 11762 12867 12866 
11697 11698 12803 12802 11762 11763 12868 12867 
11698 11699 12804 12803 11763 11764 12869 12868 
11700 11701 12806 12805 11765 11766 12871 12870 
11701 11702 12807 12806 11766 11767 12872 12871 
11702 11703 12808 12807 11767 11768 12873 12872 
11703 11704 12809 12808 11768 11769 12874 12873 
11704 11705 12810 12809 11769 11770 12875 12874 
11705 11706 12811 12810 11770 11771 12876 12875 
11706 11707 12812 12811 11771 11772 12877 12876 
11707 11708 12813 12812 11772 11773 12878 12877 
11708 11709 12814 12813 11773 11774 12879 12878 
11709 11710 12815 12814 11774 11775 12880 12879 
11710 11711 12816 12815 11775 11776 12881 12880 
11711 11712 12817 12816 11776 11777 12882 12881 
11712 11713 12818 12817 11777 11778 12883 12882 
11713 11714 12819 12818 11778 11779 12884 12883 
11714 11715 12820 12819 11779 11780 12885 12884 
11715 11716 12821 12820 11780 11781 12886 12885 
11716 11717 12822 12821 11781 11782 12887 12886 
11717 11718 12823 12822 11782 11783 12888 12887 
11718 11719 12824 12823 11783 11784 12889 12888 
11719 11720 12825 12824 11784 11785 12890 12889 
11720 11721 12826 12825 11785 11786 12891 12890 
11721 11722 12827 12826 11786 11787 12892 12891 
11722 11723 12828 12827 11787 11788 12893 12892 
11723 11724 12829 12828 11788 11789 12894 12893 
11724 11725 12830 12829 11789 11790 12895 12894 
11725 11726 12831 12830 11790 11791 12896 12895 
11726 11727 12832 12831 11791 11792 12897 12896 
11727 11728 12833 12832 11792 11793 12898 12897 
11728 11729 12834 12833 11793 11794 12899 12898 
11729 11730 12835 12834 11794 11795 12900 12899 
11730 11731 12836 12835 11795 11796 12901 12900 
11731 11732 12837 12836 11796 11797 12902 12901 
11732 11733 12838 12837 11797 11798 12903 12902 
11733 11734 12839 12838 11798 11799 12904 12903 
11734 11735 12840 12839 11799 11800 12905 12904 
11735 11736 12841 12840 11800 11801 12906 12905 
11736 11737 12842 12841 11801 11802 12907 12906 
11737 11738 12843 12842 11802 11803 12908 12907 
11738 11739 12844 12843 11803 11804 12909 12908 
11739 11740 12845 12844 11804 11805 12910 12909 
11740 11741 12846 12845 11805 11806 12911 12910 
11741 11742 12847 12846 11806 11807 12912 12911 
11742 11743 12848 12847 11807 11808 12913 12912 
11743 11744 12849 12848 11808 11809 12914 12913 
11744 11745 12850 12849 11809 11810 12915 12914 
11745 11746 12851 12850 11810 11811 12916 12915 
11746 11747 12852 12851 11811 11812 12917 12916 
11747 11748 12853 12852 11812 11813 12918 12917 
11748 11749 12854 12853 11813 11814 12919 12918 
11749 11750 12855 12854 11814 11815 12920 12919 
11750 11751 12856 12855 11815 11816 12921 12920 
11751 11752 12857 12856 11816 11817 12922 12921 
11752 11753 12858 12857 11817 11818 12923 12922 
11753 11754 12859 12858 11818 11819 12924 12923 
11754 11755 12860 12859 11819 11820 12925 12924 
11755 11756 12861 12860 11820 11821 12926 12925 
11756 11757 12862 12861 11821 11822 12927 12926 
11757 11758 12863 12862 11822 11823 12928 12927 
11758 11759 12864 12863 11823 11824 12929 12928 
11759 11760 12865 12864 11824 11825 12930 12929 
11760 11761 12866 12865 11825 11826 12931 12930 
11761 11762 12867 12866 11826 11827 12932 12931 
11762 11763 12868 12867 11827 11828 12933 12932 
11763 11764 12869 12868 11828 11829 12934 12933 
11765 11766 12871 12870 11830 11831 12936 12935 
11766 11767 12872 12871 11831 11832 12937 12936 
11767 11768 12873 12872 11832 11833 12938 12937 
11768 11769 12874 12873 11833 11834 12939 12938 
11769 11770 12875 12874 11834 11835 12940 12939 
11770 11771 12876 12875 11835 11836 12941 12940 
11771 11772 12877 12876 11836 11837 12942 12941 
11772 11773 12878 12877 11837 11838 12943 12942 
11773 11774 12879 12878 11838 11839 12944 12943 
11774 11775 12880 12879 11839 11840 12945 12944 
11775 11776 12881 12880 11840 11841 12946 12945 
11776 11777 12882 12881 11841 11842 12947 12946 
11777 11778 12883 12882 11842 11843 12948 12947 
11778 11779 12884 12883 11843 11844 12949 12948 
11779 11780 12885 12884 11844 11845 12950 12949 
11780 11781 12886 12885 11845 11846 12951 12950 
11781 11782 12887 12886 11846 11847 12952 12951 
11782 11783 12888 12887 11847 11848 12953 12952 
11783 11784 12889 12888 11848 11849 12954 12953 
11784 11785 12890 12889 11849 11850 12955 12954 
11785 11786 12891 12890 11850 11851 12956 12955 
11786 11787 12892 12891 11851 11852 12957 12956 
11787 11788 12893 12892 11852 11853 12958 12957 
11788 11789 12894 12893 11853 11854 12959 12958 
11789 11790 12895 12894 11854 11855 12960 12959 
11790 11791 12896 12895 11855 11856 12961 12960 
11791 11792 12897 12896 11856 11857 12962 12961 
11792 11793 12898 12897 11857 11858 12963 12962 
11793 11794 12899 12898 11858 11859 12964 12963 
11794 11795 12900 12899 11859 11860 12965 12964 
11795 11796 12901 12900 11860 11861 12966 12965 
11796 11797 12902 12901 11861 11862 12967 12966 
11797 11798 12903 12902 11862 11863 12968 12967 
11798 11799 12904 12903 11863 11864 12969 12968 
11799 11800 12905 12904 11864 11865 12970 12969 
11800 11801 12906 12905 11865 11866 12971 12970 
11801 11802 12907 12906 11866 11867 12972 12971 
11802 11803 12908 12907 11867 11868 12973 12972 
11803 11804 12909 12908 11868 11869 12974 12973 
11804 11805 12910 12909 11869 11870 12975 12974 
11805 11806 12911 12910 11870 11871 12976 12975 
11806 11807 12912 12911 11871 11872 12977 12976 
11807 11808 12913 12912 11872 11873 12978 12977 
11808 11809 12914 12913 11873 11874 12979 12978 
11809 11810 12915 12914 11874 11875 12980 12979 
11810 11811 12916 12915 11875 11876 12981 12980 
11811 11812 12917 12916 11876 11877 12982 12981 
11812 11813 12918 12917 11877 11878 12983 12982 
11813 11814 12919 12918 11878 11879 12984 12983 
11814 11815 12920 12919 11879 11880 12985 12984 
11815 11816 12921 12920 11880 11881 12986 12985 
11816 11817 12922 12921 11881 11882 12987 12986 
11817 11818 12923 12922 11882 11883 12988 12987 
11818 11819 12924 12923 11883 11884 12989 12988 
11819 11820 12925 12924 11884 11885 12990 12989 
11820 11821 12926 12925 11885 11886 12991 12990 
11821 11822 12927 12926 11886 11887 12992 12991 
11822 11823 12928 12927 11887 11888 12993 12992 
11823 11824 12929 12928 11888 11889 12994 12993 
11824 11825 12930 12929 11889 11890 12995 12994 
11825 11826 12931 12930 11890 11891 12996 12995 
11826 11827 12932 12931 11891 11892 12997 12996 
11827 11828 12933 12932 11892 11893 12998 12997 
11828 11829 12934 12933 11893 11894 12999 12998 
11830 11831 12936 12935 11895 11896 13001 13000 
11831 11832 12937 12936 11896 11897 13002 13001 
11832 11833 12938 12937 11897 11898 13003 13002 
11833 11834 12939 12938 11898 11899 13004 13003 
11834 11835 12940 12939 11899 11900 13005 13004 
11835 11836 12941 12940 11900 11901 13006 13005 
11836 11837 12942 12941 11901 11902 13007 13006 
11837 11838 12943 12942 11902 11903 13008 13007 
11838 11839 12944 12943 11903 11904 13009 13008 
11839 11840 12945 12944 11904 11905 13010 13009 
11840 11841 12946 12945 11905 11906 13011 13010 
11841 11842 12947 12946 11906 11907 13012 13011 
11842 11843 12948 12947 11907 11908 13013 13012 
11843 11844 12949 12948 11908 11909 13014 13013 
11844 11845 12950 12949 11909 11910 13015 13014 
11845 11846 12951 12950 11910 11911 13016 13015 
11846 11847 12952 12951 11911 11912 13017 13016 
11847 11848 12953 12952 11912 11913 13018 13017 
11848 11849 12954 12953 11913 11914 13019 13018 
11849 11850 12955 12954 11914 11915 13020 13019 
11850 11851 12956 12955 11915 11916 13021 13020 
11851 11852 12957 12956 11916 11917 13022 13021 
11852 11853 12958 12957 11917 11918 13023 13022 
11853 11854 12959 12958 11918 11919 13024 13023 
11854 11855 12960 12959 11919 11920 13025 13024 
11855 11856 12961 12960 11920 11921 13026 13025 
11856 11857 12962 12961 11921 11922 13027 13026 
11857 11858 12963 12962 11922 11923 13028 13027 
11858 11859 12964 12963 11923 11924 13029 13028 
11859 11860 12965 12964 11924 11925 13030 13029 
11860 11861 12966 12965 11925 11926 13031 13030 
11861 11862 12967 12966 11926 11927 13032 13031 
11862 11863 12968 12967 11927 11928 13033 13032 
11863 11864 12969 12968 11928 11929 13034 13033 
11864 11865 12970 12969 11929 11930 13035 13034 
11865 11866 12971 12970 11930 11931 13036 13035 
11866 11867 12972 12971 11931 11932 13037 13036 
11867 11868 12973 12972 11932 11933 13038 13037 
11868 11869 12974 12973 11933 11934 13039 13038 
11869 11870 12975 12974 11934 11935 13040 13039 
11870 11871 12976 12975 11935 11936 13041 13040 
11871 11872 12977 12976 11936 11937 13042 13041 
11872 11873 12978 12977 11937 11938 13043 13042 
11873 11874 12979 12978 11938 11939 13044 13043 
11874 11875 12980 12979 11939 11940 13045 13044 
11875 11876 12981 12980 11940 11941 13046 13045 
11876 11877 12982 12981 11941 11942 13047 13046 
11877 11878 12983 12982 11942 11943 13048 13047 
11878 11879 12984 12983 11943 11944 13049 13048 
11879 11880 12985 12984 11944 11945 13050 13049 
11880 11881 12986 12985 11945 11946 13051 13050 
11881 11882 12987 12986 11946 11947 13052 13051 
11882 11883 12988 12987 11947 11948 13053 13052 
11883 11884 12989 12988 11948 11949 13054 13053 
11884 11885 12990 12989 11949 11950 13055 13054 
11885 11886 12991 12990 11950 11951 13056 13055 
11886 11887 12992 12991 11951 11952 13057 13056 
11887 11888 12993 12992 11952 11953 13058 13057 
11888 11889 12994 12993 11953 11954 13059 13058 
11889 11890 12995 12994 11954 11955 13060 13059 
11890 11891 12996 12995 11955 11956 13061 13060 
11891 11892 12997 12996 11956 11957 13062 13061 
11892 11893 12998 12997 11957 11958 13063 13062 
11893 11894 12999 12998 11958 11959 13064 13063 
11895 11896 13001 13000 11960 11961 13066 13065 
11896 11897 13002 13001 11961 11962 13067 13066 
11897 11898 13003 13002 11962 11963 13068 13067 
11898 11899 13004 13003 11963 11964 13069 13068 
11899 11900 13005 13004 11964 11965 13070 13069 
11900 11901 13006 13005 11965 11966 13071 13070 
11901 11902 13007 13006 11966 11967 13072 13071 
11902 11903 13008 13007 11967 11968 13073 13072 
11903 11904 13009 13008 11968 11969 13074 13073 
11904 11905 13010 13009 11969 11970 13075 13074 
11905 11906 13011 13010 11970 11971 13076 13075 
11906 11907 13012 13011 11971 11972 13077 13076 
11907 11908 13013 13012 11972 11973 13078 13077 
11908 11909 13014 13013 11973 11974 13079 13078 
11909 11910 13015 13014 11974 11975 13080 13079 
11910 11911 13016 13015 11975 11976 13081 13080 
11911 11912 13017 13016 11976 11977 13082 13081 
11912 11913 13018 13017 11977 11978 13083 13082 
11913 11914 13019 13018 11978 11979 13084 13083 
11914 11915 13020 13019 11979 11980 13085 13084 
11915 11916 13021 13020 11980 11981 13086 13085 
11916 11917 13022 13021 11981 11982 13087 13086 
11917 11918 13023 13022 11982 11983 13088 13087 
11918 11919 13024 13023 11983 11984 13089 13088 
11919 11920 13025 13024 11984 11985 13090 13089 
11920 11921 13026 13025 11985 11986 13091 13090 
11921 11922 13027 13026 11986 11987 13092 13091 
11922 11923 13028 13027 11987 11988 13093 13092 
11923 11924 13029 13028 11988 11989 13094 13093 
11924 11925 13030 13029 11989 11990 13095 13094 
11925 11926 13031 13030 11990 11991 13096 13095 
11926 11927 13032 13031 11991 11992 13097 13096 
11927 11928 13033 13032 11992 11993 13098 13097 
11928 11929 13034 13033 11993 11994 13099 13098 
11929 11930 13035 13034 11994 11995 13100 13099 
11930 11931 13036 13035 11995 11996 13101 13100 
11931 11932 13037 13036 11996 11997 13102 13101 
11932 11933 13038 13037 11997 11998 13103 13102 
11933 11934 13039 13038 11998 11999 13104 13103 
11934 11935 13040 13039 11999 12000 13105 13104 
11935 11936 13041 13040 12000 12001 13106 13105 
11936 11937 13042 13041 12001 12002 13107 13106 
11937 11938 13043 13042 12002 12003 13108 13107 
11938 11939 13044 13043 12003 12004 13109 13108 
11939 11940 13045 13044 12004 12005 13110 13109 
11940 11941 13046 13045 12005 12006 13111 13110 
11941 11942 13047 13046 12006 12007 13112 13111 
11942 11943 13048 13047 12007 12008 13113 13112 
11943 11944 13049 13048 12008 12009 13114 13113 
11944 11945 13050 13049 12009 12010 13115 13114 
11945 11946 13051 13050 12010 12011 13116 13115 
11946 11947 13052 13051 12011 12012 13117 13116 
11947 11948 13053 13052 12012 12013 13118 13117 
11948 11949 13054 13053 12013 12014 13119 13118 
11949 11950 13055 13054 12014 12015 13120 13119 
11950 11951 13056 13055 12015 12016 13121 13120 
11951 11952 13057 13056 12016 12017 13122 13121 
11952 11953 13058 13057 12017 12018 13123 13122 
11953 11954 13059 13058 12018 12019 13124 13123 
11954 11955 13060 13059 12019 12020 13125 13124 
11955 11956 13061 13060 12020 12021 13126 13125 
11956 11957 13062 13061 12021 12022 13127 13126 
11957 11958 13063 13062 12022 12023 13128 13127 
11958 11959 13064 13063 12023 12024 13129 13128 
11960 11961 13066 13065 12025 12026 13131 13130 
11961 11962 13067 13066 12026 12027 13132 13131 
11962 11963 13068 13067 12027 12028 13133 13132 
11963 11964 13069 13068 12028 12029 13134 13133 
11964 11965 13070 13069 12029 12030 13135 13134 
11965 11966 13071 13070 12030 12031 13136 13135 
11966 11967 13072 13071 12031 12032 13137 13136 
11967 11968 13073 13072 12032 12033 13138 13137 
11968 11969 13074 13073 12033 12034 13139 13138 
11969 11970 13075 13074 12034 12035 13140 13139 
11970 11971 13076 13075 12035 12036 13141 13140 
11971 11972 13077 13076 12036 12037 13142 13141 
11972 11973 13078 13077 12037 12038 13143 13142 
11973 11974 13079 13078 12038 12039 13144 13143 
11974 11975 13080 13079 12039 12040 13145 13144 
11975 11976 13081 13080 12040 12041 13146 13145 
11976 11977 13082 13081 12041 12042 13147 13146 
11977 11978 13083 13082 12042 12043 13148 13147 
11978 11979 13084 13083 12043 12044 13149 13148 
11979 11980 13085 13084 12044 12045 13150 13149 
11980 11981 13086 13085 12045 12046 13151 13150 
11981 11982 13087 13086 12046 12047 13152 13151 
11982 11983 13088 13087 12047 12048 13153 13152 
11983 11984 13089 13088 12048 12049 13154 13153 
11984 11985 13090 13089 12049 12050 13155 13154 
11985 11986 13091 13090 12050 12051 13156 13155 
11986 11987 13092 13091 12051 12052 13157 13156 
11987 11988 13093 13092 12052 12053 13158 13157 
11988 11989 13094 13093 12053 12054 13159 13158 
11989 11990 13095 13094 12054 12055 13160 13159 
11990 11991 13096 13095 12055 12056 13161 13160 
11991 11992 13097 13096 12056 12057 13162 13161 
11992 11993 13098 13097 12057 12058 13163 13162 
11993 11994 13099 13098 12058 12059 13164 13163 
11994 11995 13100 13099 12059 12060 13165 13164 
11995 11996 13101 13100 12060 12061 13166 13165 
11996 11997 13102 13101 12061 12062 13167 13166 
11997 11998 13103 13102 12062 12063 13168 13167 
11998 11999 13104 13103 12063 12064 13169 13168 
11999 12000 13105 13104 12064 12065 13170 13169 
12000 12001 13106 13105 12065 12066 13171 13170 
12001 12002 13107 13106 12066 12067 13172 13171 
12002 12003 13108 13107 12067 12068 13173 13172 
12003 12004 13109 13108 12068 12069 13174 13173 
12004 12005 13110 13109 12069 12070 13175 13174 
12005 12006 13111 13110 12070 12071 13176 13175 
12006 12007 13112 13111 12071 12072 13177 13176 
12007 12008 13113 13112 12072 12073 13178 13177 
12008 12009 13114 13113 12073 12074 13179 13178 
12009 12010 13115 13114 12074 12075 13180 13179 
12010 12011 13116 13115 12075 12076 13181 13180 
12011 12012 13117 13116 12076 12077 13182 13181 
12012 12013 13118 13117 12077 12078 13183 13182 
12013 12014 13119 13118 12078 12079 13184 13183 
12014 12015 13120 13119 12079 12080 13185 13184 
12015 12016 13121 13120 12080 12081 13186 13185 
12016 12017 13122 13121 12081 12082 13187 13186 
12017 12018 13123 13122 12082 12083 13188 13187 
12018 12019 13124 13123 12083 12084 13189 13188 
12019 12020 13125 13124 12084 12085 13190 13189 
12020 12021 13126 13125 12085 12086 13191 13190 
12021 12022 13127 13126 12086 12087 13192 13191 
12022 12023 13128 13127 12087 12088 13193 13192 
12023 12024 13129 13128 12088 12089 13194 13193 
12025 12026 13131 13130 12090 12091 13196 13195 
12026 12027 13132 13131 12091 12092 13197 13196 
12027 12028 13133 13132 12092 12093 13198 13197 
12028 12029 13134 13133 12093 12094 13199 13198 
12029 12030 13135 13134 12094 12095 13200 13199 
12030 12031 13136 13135 12095 12096 13201 13200 
12031 12032 13137 13136 12096 12097 13202 13201 
12032 12033 13138 13137 12097 12098 13203 13202 
12033 12034 13139 13138 12098 12099 13204 13203 
12034 12035 13140 13139 12099 12100 13205 13204 
12035 12036 13141 13140 12100 12101 13206 13205 
12036 12037 13142 13141 12101 12102 13207 13206 
12037 12038 13143 13142 12102 12103 13208 13207 
12038 12039 13144 13143 12103 12104 13209 13208 
12039 12040 13145 13144 12104 12105 13210 13209 
12040 12041 13146 13145 12105 12106 13211 13210 
12041 12042 13147 13146 12106 12107 13212 13211 
12042 12043 13148 13147 12107 12108 13213 13212 
12043 12044 13149 13148 12108 12109 13214 13213 
12044 12045 13150 13149 12109 12110 13215 13214 
12045 12046 13151 13150 12110 12111 13216 13215 
12046 12047 13152 13151 12111 12112 13217 13216 
12047 12048 13153 13152 12112 12113 13218 13217 
12048 12049 13154 13153 12113 12114 13219 13218 
12049 12050 13155 13154 12114 12115 13220 13219 
12050 12051 13156 13155 12115 12116 13221 13220 
12051 12052 13157 13156 12116 12117 13222 13221 
12052 12053 13158 13157 12117 12118 13223 13222 
12053 12054 13159 13158 12118 12119 13224 13223 
12054 12055 13160 13159 12119 12120 13225 13224 
12055 12056 13161 13160 12120 12121 13226 13225 
12056 12057 13162 13161 12121 12122 13227 13226 
12057 12058 13163 13162 12122 12123 13228 13227 
12058 12059 13164 13163 12123 12124 13229 13228 
12059 12060 13165 13164 12124 12125 13230 13229 
12060 12061 13166 13165 12125 12126 13231 13230 
12061 12062 13167 13166 12126 12127 13232 13231 
12062 12063 13168 13167 12127 12128 13233 13232 
12063 12064 13169 13168 12128 12129 13234 13233 
12064 12065 13170 13169 12129 12130 13235 13234 
12065 12066 13171 13170 12130 12131 13236 13235 
12066 12067 13172 13171 12131 12132 13237 13236 
12067 12068 13173 13172 12132 12133 13238 13237 
12068 12069 13174 13173 12133 12134 13239 13238 
12069 12070 13175 13174 12134 12135 13240 13239 
12070 12071 13176 13175 12135 12136 13241 13240 
12071 12072 13177 13176 12136 12137 13242 13241 
12072 12073 13178 13177 12137 12138 13243 13242 
12073 12074 13179 13178 12138 12139 13244 13243 
12074 12075 13180 13179 12139 12140 13245 13244 
12075 12076 13181 13180 12140 12141 13246 13245 
12076 12077 13182 13181 12141 12142 13247 13246 
12077 12078 13183 13182 12142 12143 13248 13247 
12078 12079 13184 13183 12143 12144 13249 13248 
12079 12080 13185 13184 12144 12145 13250 13249 
12080 12081 13186 13185 12145 12146 13251 13250 
12081 12082 13187 13186 12146 12147 13252 13251 
12082 12083 13188 13187 12147 12148 13253 13252 
12083 12084 13189 13188 12148 12149 13254 13253 
12084 12085 13190 13189 12149 12150 13255 13254 
12085 12086 13191 13190 12150 12151 13256 13255 
12086 12087 13192 13191 12151 12152 13257 13256 
12087 12088 13193 13192 12152 12153 13258 13257 
12088 12089 13194 13193 12153 12154 13259 13258 
12155 12156 13261 13260 12220 12221 13326 13325 
12156 12157 13262 13261 12221 12222 13327 13326 
12157 12158 13263 13262 12222 12223 13328 13327 
12158 12159 13264 13263 12223 12224 13329 13328 
12159 12160 13265 13264 12224 12225 13330 13329 
12160 12161 13266 13265 12225 12226 13331 13330 
12161 12162 13267 13266 12226 12227 13332 13331 
12162 12163 13268 13267 12227 12228 13333 13332 
12163 12164 13269 13268 12228 12229 13334 13333 
12164 12165 13270 13269 12229 12230 13335 13334 
12165 12166 13271 13270 12230 12231 13336 13335 
12166 12167 13272 13271 12231 12232 13337 13336 
12167 12168 13273 13272 12232 12233 13338 13337 
12168 12169 13274 13273 12233 12234 13339 13338 
12169 12170 13275 13274 12234 12235 13340 13339 
12170 12171 13276 13275 12235 12236 13341 13340 
12171 12172 13277 13276 12236 12237 13342 13341 
12172 12173 13278 13277 12237 12238 13343 13342 
12173 12174 13279 13278 12238 12239 13344 13343 
12174 12175 13280 13279 12239 12240 13345 13344 
12175 12176 13281 13280 12240 12241 13346 13345 
12176 12177 13282 13281 12241 12242 13347 13346 
12177 12178 13283 13282 12242 12243 13348 13347 
12178 12179 13284 13283 12243 12244 13349 13348 
12179 12180 13285 13284 12244 12245 13350 13349 
12180 12181 13286 13285 12245 12246 13351 13350 
12181 12182 13287 13286 12246 12247 13352 13351 
12182 12183 13288 13287 12247 12248 13353 13352 
12183 12184 13289 13288 12248 12249 13354 13353 
12184 12185 13290 13289 12249 12250 13355 13354 
12185 12186 13291 13290 12250 12251 13356 13355 
12186 12187 13292 13291 12251 12252 13357 13356 
12187 12188 13293 13292 12252 12253 13358 13357 
12188 12189 13294 13293 12253 12254 13359 13358 
12189 12190 13295 13294 12254 12255 13360 13359 
12190 12191 13296 13295 12255 12256 13361 13360 
12191 12192 13297 13296 12256 12257 13362 13361 
12192 12193 13298 13297 12257 12258 13363 13362 
12193 12194 13299 13298 12258 12259 13364 13363 
12194 12195 13300 13299 12259 12260 13365 13364 
12195 12196 13301 13300 12260 12261 13366 13365 
12196 12197 13302 13301 12261 12262 13367 13366 
12197 12198 13303 13302 12262 12263 13368 13367 
12198 12199 13304 13303 12263 12264 13369 13368 
12199 12200 13305 13304 12264 12265 13370 13369 
12200 12201 13306 13305 12265 12266 13371 13370 
12201 12202 13307 13306 12266 12267 13372 13371 
12202 12203 13308 13307 12267 12268 13373 13372 
12203 12204 13309 13308 12268 12269 13374 13373 
12204 12205 13310 13309 12269 12270 13375 13374 
12205 12206 13311 13310 12270 12271 13376 13375 
12206 12207 13312 13311 12271 12272 13377 13376 
12207 12208 13313 13312 12272 12273 13378 13377 
12208 12209 13314 13313 12273 12274 13379 13378 
12209 12210 13315 13314 12274 12275 13380 13379 
12210 12211 13316 13315 12275 12276 13381 13380 
12211 12212 13317 13316 12276 12277 13382 13381 
12212 12213 13318 13317 12277 12278 13383 13382 
12213 12214 13319 13318 12278 12279 13384 13383 
12214 12215 13320 13319 12279 12280 13385 13384 
12215 12216 13321 13320 12280 12281 13386 13385 
12216 12217 13322 13321 12281 12282 13387 13386 
12217 12218 13323 13322 12282 12283 13388 13387 
12218 12219 13324 13323 12283 12284 13389 13388 
12220 12221 13326 13325 12285 12286 13391 13390 
12221 12222 13327 13326 12286 12287 13392 13391 
12222 12223 13328 13327 12287 12288 13393 13392 
12223 12224 13329 13328 12288 12289 13394 13393 
12224 12225 13330 13329 12289 12290 13395 13394 
12225 12226 13331 13330 12290 12291 13396 13395 
12226 12227 13332 13331 12291 12292 13397 13396 
12227 12228 13333 13332 12292 12293 13398 13397 
12228 12229 13334 13333 12293 12294 13399 13398 
12229 12230 13335 13334 12294 12295 13400 13399 
12230 12231 13336 13335 12295 12296 13401 13400 
12231 12232 13337 13336 12296 12297 13402 13401 
12232 12233 13338 13337 12297 12298 13403 13402 
12233 12234 13339 13338 12298 12299 13404 13403 
12234 12235 13340 13339 12299 12300 13405 13404 
12235 12236 13341 13340 12300 12301 13406 13405 
12236 12237 13342 13341 12301 12302 13407 13406 
12237 12238 13343 13342 12302 12303 13408 13407 
12238 12239 13344 13343 12303 12304 13409 13408 
12239 12240 13345 13344 12304 12305 13410 13409 
12240 12241 13346 13345 12305 12306 13411 13410 
12241 12242 13347 13346 12306 12307 13412 13411 
12242 12243 13348 13347 12307 12308 13413 13412 
12243 12244 13349 13348 12308 12309 13414 13413 
12244 12245 13350 13349 12309 12310 13415 13414 
12245 12246 13351 13350 12310 12311 13416 13415 
12246 12247 13352 13351 12311 12312 13417 13416 
12247 12248 13353 13352 12312 12313 13418 13417 
12248 12249 13354 13353 12313 12314 13419 13418 
12249 12250 13355 13354 12314 12315 13420 13419 
12250 12251 13356 13355 12315 12316 13421 13420 
12251 12252 13357 13356 12316 12317 13422 13421 
12252 12253 13358 13357 12317 12318 13423 13422 
12253 12254 13359 13358 12318 12319 13424 13423 
12254 12255 13360 13359 12319 12320 13425 13424 
12255 12256 13361 13360 12320 12321 13426 13425 
12256 12257 13362 13361 12321 12322 13427 13426 
12257 12258 13363 13362 12322 12323 13428 13427 
12258 12259 13364 13363 12323 12324 13429 13428 
12259 12260 13365 13364 12324 12325 13430 13429 
12260 12261 13366 13365 12325 12326 13431 13430 
12261 12262 13367 13366 12326 12327 13432 13431 
12262 12263 13368 13367 12327 12328 13433 13432 
12263 12264 13369 13368 12328 12329 13434 13433 
12264 12265 13370 13369 12329 12330 13435 13434 
12265 12266 13371 13370 12330 12331 13436 13435 
12266 12267 13372 13371 12331 12332 13437 13436 
12267 12268 13373 13372 12332 12333 13438 13437 
12268 12269 13374 13373 12333 12334 13439 13438 
12269 12270 13375 13374 12334 12335 13440 13439 
12270 12271 13376 13375 12335 12336 13441 13440 
12271 12272 13377 13376 12336 12337 13442 13441 
12272 12273 13378 13377 12337 12338 13443 13442 
12273 12274 13379 13378 12338 12339 13444 13443 
12274 12275 13380 13379 12339 12340 13445 13444 
12275 12276 13381 13380 12340 12341 13446 13445 
12276 12277 13382 13381 12341 12342 13447 13446 
12277 12278 13383 13382 12342 12343 13448 13447 
12278 12279 13384 13383 12343 12344 13449 13448 
12279 12280 13385 13384 12344 12345 13450 13449 
12280 12281 13386 13385 12345 12346 13451 13450 
12281 12282 13387 13386 12346 12347 13452 13451 
12282 12283 13388 13387 12347 12348 13453 13452 
12283 12284 13389 13388 12348 12349 13454 13453 
12285 12286 13391 13390 12350 12351 13456 13455 
12286 12287 13392 13391 12351 12352 13457 13456 
12287 12288 13393 13392 12352 12353 13458 13457 
12288 12289 13394 13393 12353 12354 13459 13458 
12289 12290 13395 13394 12354 12355 13460 13459 
12290 12291 13396 13395 12355 12356 13461 13460 
12291 12292 13397 13396 12356 12357 13462 13461 
12292 12293 13398 13397 12357 12358 13463 13462 
12293 12294 13399 13398 12358 12359 13464 13463 
12294 12295 13400 13399 12359 12360 13465 13464 
12295 12296 13401 13400 12360 12361 13466 13465 
12296 12297 13402 13401 12361 12362 13467 13466 
12297 12298 13403 13402 12362 12363 13468 13467 
12298 12299 13404 13403 12363 12364 13469 13468 
12299 12300 13405 13404 12364 12365 13470 13469 
12300 12301 13406 13405 12365 12366 13471 13470 
12301 12302 13407 13406 12366 12367 13472 13471 
12302 12303 13408 13407 12367 12368 13473 13472 
12303 12304 13409 13408 12368 12369 13474 13473 
12304 12305 13410 13409 12369 12370 13475 13474 
12305 12306 13411 13410 12370 12371 13476 13475 
12306 12307 13412 13411 12371 12372 13477 13476 
12307 12308 13413 13412 12372 12373 13478 13477 
12308 12309 13414 13413 12373 12374 13479 13478 
12309 12310 13415 13414 12374 12375 13480 13479 
12310 12311 13416 13415 12375 12376 13481 13480 
12311 12312 13417 13416 12376 12377 13482 13481 
12312 12313 13418 13417 12377 12378 13483 13482 
12313 12314 13419 13418 12378 12379 13484 13483 
12314 12315 13420 13419 12379 12380 13485 13484 
12315 12316 13421 13420 12380 12381 13486 13485 
12316 12317 13422 13421 12381 12382 13487 13486 
12317 12318 13423 13422 12382 12383 13488 13487 
12318 12319 13424 13423 12383 12384 13489 13488 
12319 12320 13425 13424 12384 12385 13490 13489 
12320 12321 13426 13425 12385 12386 13491 13490 
12321 12322 13427 13426 12386 12387 13492 13491 
12322 12323 13428 13427 12387 12388 13493 13492 
12323 12324 13429 13428 12388 12389 13494 13493 
12324 12325 13430 13429 12389 12390 13495 13494 
12325 12326 13431 13430 12390 12391 13496 13495 
12326 12327 13432 13431 12391 12392 13497 13496 
12327 12328 13433 13432 12392 12393 13498 13497 
12328 12329 13434 13433 12393 12394 13499 13498 
12329 12330 13435 13434 12394 12395 13500 13499 
12330 12331 13436 13435 12395 12396 13501 13500 
12331 12332 13437 13436 12396 12397 13502 13501 
12332 12333 13438 13437 12397 12398 13503 13502 
12333 12334 13439 13438 12398 12399 13504 13503 
12334 12335 13440 13439 12399 12400 13505 13504 
12335 12336 13441 13440 12400 12401 13506 13505 
12336 12337 13442 13441 12401 12402 13507 13506 
12337 12338 13443 13442 12402 12403 13508 13507 
12338 12339 13444 13443 12403 12404 13509 13508 
12339 12340 13445 13444 12404 12405 13510 13509 
12340 12341 13446 13445 12405 12406 13511 13510 
12341 12342 13447 13446 12406 12407 13512 13511 
12342 12343 13448 13447 12407 12408 13513 13512 
12343 12344 13449 13448 12408 12409 13514 13513 
12344 12345 13450 13449 12409 12410 13515 13514 
12345 12346 13451 13450 12410 12411 13516 13515 
12346 12347 13452 13451 12411 12412 13517 13516 
12347 12348 13453 13452 12412 12413 13518 13517 
12348 12349 13454 13453 12413 12414 13519 13518 
12350 12351 13456 13455 12415 12416 13521 13520 
12351 12352 13457 13456 12416 12417 13522 13521 
12352 12353 13458 13457 12417 12418 13523 13522 
12353 12354 13459 13458 12418 12419 13524 13523 
12354 12355 13460 13459 12419 12420 13525 13524 
12355 12356 13461 13460 12420 12421 13526 13525 
12356 12357 13462 13461 12421 12422 13527 13526 
12357 12358 13463 13462 12422 12423 13528 13527 
12358 12359 13464 13463 12423 12424 13529 13528 
12359 12360 13465 13464 12424 12425 13530 13529 
12360 12361 13466 13465 12425 12426 13531 13530 
12361 12362 13467 13466 12426 12427 13532 13531 
12362 12363 13468 13467 12427 12428 13533 13532 
12363 12364 13469 13468 12428 12429 13534 13533 
12364 12365 13470 13469 12429 12430 13535 13534 
12365 12366 13471 13470 12430 12431 13536 13535 
12366 12367 13472 13471 12431 12432 13537 13536 
12367 12368 13473 13472 12432 12433 13538 13537 
12368 12369 13474 13473 12433 12434 13539 13538 
12369 12370 13475 13474 12434 12435 13540 13539 
12370 12371 13476 13475 12435 12436 13541 13540 
12371 12372 13477 13476 12436 12437 13542 13541 
12372 12373 13478 13477 12437 12438 13543 13542 
12373 12374 13479 13478 12438 12439 13544 13543 
12374 12375 13480 13479 12439 12440 13545 13544 
12375 12376 13481 13480 12440 12441 13546 13545 
12376 12377 13482 13481 12441 12442 13547 13546 
12377 12378 13483 13482 12442 12443 13548 13547 
12378 12379 13484 13483 12443 12444 13549 13548 
12379 12380 13485 13484 12444 12445 13550 13549 
12380 12381 13486 13485 12445 12446 13551 13550 
12381 12382 13487 13486 12446 12447 13552 13551 
12382 12383 13488 13487 12447 12448 13553 13552 
12383 12384 13489 13488 12448 12449 13554 13553 
12384 12385 13490 13489 12449 12450 13555 13554 
12385 12386 13491 13490 12450 12451 13556 13555 
12386 12387 13492 13491 12451 12452 13557 13556 
12387 12388 13493 13492 12452 12453 13558 13557 
12388 12389 13494 13493 12453 12454 13559 13558 
12389 12390 13495 13494 12454 12455 13560 13559 
12390 12391 13496 13495 12455 12456 13561 13560 
12391 12392 13497 13496 12456 12457 13562 13561 
12392 12393 13498 13497 12457 12458 13563 13562 
12393 12394 13499 13498 12458 12459 13564 13563 
12394 12395 13500 13499 12459 12460 13565 13564 
12395 12396 13501 13500 12460 12461 13566 13565 
12396 12397 13502 13501 12461 12462 13567 13566 
12397 12398 13503 13502 12462 12463 13568 13567 
12398 12399 13504 13503 12463 12464 13569 13568 
12399 12400 13505 13504 12464 12465 13570 13569 
12400 12401 13506 13505 12465 12466 13571 13570 
12401 12402 13507 13506 12466 12467 13572 13571 
12402 12403 13508 13507 12467 12468 13573 13572 
12403 12404 13509 13508 12468 12469 13574 13573 
12404 12405 13510 13509 12469 12470 13575 13574 
12405 12406 13511 13510 12470 12471 13576 13575 
12406 12407 13512 13511 12471 12472 13577 13576 
12407 12408 13513 13512 12472 12473 13578 13577 
12408 12409 13514 13513 12473 12474 13579 13578 
12409 12410 13515 13514 12474 12475 13580 13579 
12410 12411 13516 13515 12475 12476 13581 13580 
12411 12412 13517 13516 12476 12477 13582 13581 
12412 12413 13518 13517 12477 12478 13583 13582 
12413 12414 13519 13518 12478 12479 13584 13583 
12415 12416 13521 13520 12480 12481 13586 13585 
12416 12417 13522 13521 12481 12482 13587 13586 
12417 12418 13523 13522 12482 12483 13588 13587 
12418 12419 13524 13523 12483 12484 13589 13588 
12419 12420 13525 13524 12484 12485 13590 13589 
12420 12421 13526 13525 12485 12486 13591 13590 
12421 12422 13527 13526 12486 12487 13592 13591 
12422 12423 13528 13527 12487 12488 13593 13592 
12423 12424 13529 13528 12488 12489 13594 13593 
12424 12425 13530 13529 12489 12490 13595 13594 
12425 12426 13531 13530 12490 12491 13596 13595 
12426 12427 13532 13531 12491 12492 13597 13596 
12427 12428 13533 13532 12492 12493 13598 13597 
12428 12429 13534 13533 12493 12494 13599 13598 
12429 12430 13535 13534 12494 12495 13600 13599 
12430 12431 13536 13535 12495 12496 13601 13600 
12431 12432 13537 13536 12496 12497 13602 13601 
12432 12433 13538 13537 12497 12498 13603 13602 
12433 12434 13539 13538 12498 12499 13604 13603 
12434 12435 13540 13539 12499 12500 13605 13604 
12435 12436 13541 13540 12500 12501 13606 13605 
12436 12437 13542 13541 12501 12502 13607 13606 
12437 12438 13543 13542 12502 12503 13608 13607 
12438 12439 13544 13543 12503 12504 13609 13608 
12439 12440 13545 13544 12504 12505 13610 13609 
12440 12441 13546 13545 12505 12506 13611 13610 
12441 12442 13547 13546 12506 12507 13612 13611 
12442 12443 13548 13547 12507 12508 13613 13612 
12443 12444 13549 13548 12508 12509 13614 13613 
12444 12445 13550 13549 12509 12510 13615 13614 
12445 12446 13551 13550 12510 12511 13616 13615 
12446 12447 13552 13551 12511 12512 13617 13616 
12447 12448 13553 13552 12512 12513 13618 13617 
12448 12449 13554 13553 12513 12514 13619 13618 
12449 12450 13555 13554 12514 12515 13620 13619 
12450 12451 13556 13555 12515 12516 13621 13620 
12451 12452 13557 13556 12516 12517 13622 13621 
12452 12453 13558 13557 12517 12518 13623 13622 
12453 12454 13559 13558 12518 12519 13624 13623 
12454 12455 13560 13559 12519 12520 13625 13624 
12455 12456 13561 13560 12520 12521 13626 13625 
12456 12457 13562 13561 12521 12522 13627 13626 
12457 12458 13563 13562 12522 12523 13628 13627 
12458 12459 13564 13563 12523 12524 13629 13628 
12459 12460 13565 13564 12524 12525 13630 13629 
12460 12461 13566 13565 12525 12526 13631 13630 
12461 12462 13567 13566 12526 12527 13632 13631 
12462 12463 13568 13567 12527 12528 13633 13632 
12463 12464 13569 13568 12528 12529 13634 13633 
12464 12465 13570 13569 12529 12530 13635 13634 
12465 12466 13571 13570 12530 12531 13636 13635 
12466 12467 13572 13571 12531 12532 13637 13636 
12467 12468 13573 13572 12532 12533 13638 13637 
12468 12469 13574 13573 12533 12534 13639 13638 
12469 12470 13575 13574 12534 12535 13640 13639 
12470 12471 13576 13575 12535 12536 13641 13640 
12471 12472 13577 13576 12536 12537 13642 13641 
12472 12473 13578 13577 12537 12538 13643 13642 
12473 12474 13579 13578 12538 12539 13644 13643 
12474 12475 13580 13579 12539 12540 13645 13644 
12475 12476 13581 13580 12540 12541 13646 13645 
12476 12477 13582 13581 12541 12542 13647 13646 
12477 12478 13583 13582 12542 12543 13648 13647 
12478 12479 13584 13583 12543 12544 13649 13648 
12480 12481 13586 13585 12545 12546 13651 13650 
12481 12482 13587 13586 12546 12547 13652 13651 
12482 12483 13588 13587 12547 12548 13653 13652 
12483 12484 13589 13588 12548 12549 13654 13653 
12484 12485 13590 13589 12549 12550 13655 13654 
12485 12486 13591 13590 12550 12551 13656 13655 
12486 12487 13592 13591 12551 12552 13657 13656 
12487 12488 13593 13592 12552 12553 13658 13657 
12488 12489 13594 13593 12553 12554 13659 13658 
12489 12490 13595 13594 12554 12555 13660 13659 
12490 12491 13596 13595 12555 12556 13661 13660 
12491 12492 13597 13596 12556 12557 13662 13661 
12492 12493 13598 13597 12557 12558 13663 13662 
12493 12494 13599 13598 12558 12559 13664 13663 
12494 12495 13600 13599 12559 12560 13665 13664 
12495 12496 13601 13600 12560 12561 13666 13665 
12496 12497 13602 13601 12561 12562 13667 13666 
12497 12498 13603 13602 12562 12563 13668 13667 
12498 12499 13604 13603 12563 12564 13669 13668 
12499 12500 13605 13604 12564 12565 13670 13669 
12500 12501 13606 13605 12565 12566 13671 13670 
12501 12502 13607 13606 12566 12567 13672 13671 
12502 12503 13608 13607 12567 12568 13673 13672 
12503 12504 13609 13608 12568 12569 13674 13673 
12504 12505 13610 13609 12569 12570 13675 13674 
12505 12506 13611 13610 12570 12571 13676 13675 
12506 12507 13612 13611 12571 12572 13677 13676 
12507 12508 13613 13612 12572 12573 13678 13677 
12508 12509 13614 13613 12573 12574 13679 13678 
12509 12510 13615 13614 12574 12575 13680 13679 
12510 12511 13616 13615 12575 12576 13681 13680 
12511 12512 13617 13616 12576 12577 13682 13681 
12512 12513 13618 13617 12577 12578 13683 13682 
12513 12514 13619 13618 12578 12579 13684 13683 
12514 12515 13620 13619 12579 12580 13685 13684 
12515 12516 13621 13620 12580 12581 13686 13685 
12516 12517 13622 13621 12581 12582 13687 13686 
12517 12518 13623 13622 12582 12583 13688 13687 
12518 12519 13624 13623 12583 12584 13689 13688 
12519 12520 13625 13624 12584 12585 13690 13689 
12520 12521 13626 13625 12585 12586 13691 13690 
12521 12522 13627 13626 12586 12587 13692 13691 
12522 12523 13628 13627 12587 12588 13693 13692 
12523 12524 13629 13628 12588 12589 13694 13693 
12524 12525 13630 13629 12589 12590 13695 13694 
12525 12526 13631 13630 12590 12591 13696 13695 
12526 12527 13632 13631 12591 12592 13697 13696 
12527 12528 13633 13632 12592 12593 13698 13697 
12528 12529 13634 13633 12593 12594 13699 13698 
12529 12530 13635 13634 12594 12595 13700 13699 
12530 12531 13636 13635 12595 12596 13701 13700 
12531 12532 13637 13636 12596 12597 13702 13701 
12532 12533 13638 13637 12597 12598 13703 13702 
12533 12534 13639 13638 12598 12599 13704 13703 
12534 12535 13640 13639 12599 12600 13705 13704 
12535 12536 13641 13640 12600 12601 13706 13705 
12536 12537 13642 13641 12601 12602 13707 13706 
12537 12538 13643 13642 12602 12603 13708 13707 
12538 12539 13644 13643 12603 12604 13709 13708 
12539 12540 13645 13644 12604 12605 13710 13709 
12540 12541 13646 13645 12605 12606 13711 13710 
12541 12542 13647 13646 12606 12607 13712 13711 
12542 12543 13648 13647 12607 12608 13713 13712 
12543 12544 13649 13648 12608 12609 13714 13713 
12545 12546 13651 13650 12610 12611 13716 13715 
12546 12547 13652 13651 12611 12612 13717 13716 
12547 12548 13653 13652 12612 12613 13718 13717 
12548 12549 13654 13653 12613 12614 13719 13718 
12549 12550 13655 13654 12614 12615 13720 13719 
12550 12551 13656 13655 12615 12616 13721 13720 
12551 12552 13657 13656 12616 12617 13722 13721 
12552 12553 13658 13657 12617 12618 13723 13722 
12553 12554 13659 13658 12618 12619 13724 13723 
12554 12555 13660 13659 12619 12620 13725 13724 
12555 12556 13661 13660 12620 12621 13726 13725 
12556 12557 13662 13661 12621 12622 13727 13726 
12557 12558 13663 13662 12622 12623 13728 13727 
12558 12559 13664 13663 12623 12624 13729 13728 
12559 12560 13665 13664 12624 12625 13730 13729 
12560 12561 13666 13665 12625 12626 13731 13730 
12561 12562 13667 13666 12626 12627 13732 13731 
12562 12563 13668 13667 12627 12628 13733 13732 
12563 12564 13669 13668 12628 12629 13734 13733 
12564 12565 13670 13669 12629 12630 13735 13734 
12565 12566 13671 13670 12630 12631 13736 13735 
12566 12567 13672 13671 12631 12632 13737 13736 
12567 12568 13673 13672 12632 12633 13738 13737 
12568 12569 13674 13673 12633 12634 13739 13738 
12569 12570 13675 13674 12634 12635 13740 13739 
12570 12571 13676 13675 12635 12636 13741 13740 
12571 12572 13677 13676 12636 12637 13742 13741 
12572 12573 13678 13677 12637 12638 13743 13742 
12573 12574 13679 13678 12638 12639 13744 13743 
12574 12575 13680 13679 12639 12640 13745 13744 
12575 12576 13681 13680 12640 12641 13746 13745 
12576 12577 13682 13681 12641 12642 13747 13746 
12577 12578 13683 13682 12642 12643 13748 13747 
12578 12579 13684 13683 12643 12644 13749 13748 
12579 12580 13685 13684 12644 12645 13750 13749 
12580 12581 13686 13685 12645 12646 13751 13750 
12581 12582 13687 13686 12646 12647 13752 13751 
12582 12583 13688 13687 12647 12648 13753 13752 
12583 12584 13689 13688 12648 12649 13754 13753 
12584 12585 13690 13689 12649 12650 13755 13754 
12585 12586 13691 13690 12650 12651 13756 13755 
12586 12587 13692 13691 12651 12652 13757 13756 
12587 12588 13693 13692 12652 12653 13758 13757 
12588 12589 13694 13693 12653 12654 13759 13758 
12589 12590 13695 13694 12654 12655 13760 13759 
12590 12591 13696 13695 12655 12656 13761 13760 
12591 12592 13697 13696 12656 12657 13762 13761 
12592 12593 13698 13697 12657 12658 13763 13762 
12593 12594 13699 13698 12658 12659 13764 13763 
12594 12595 13700 13699 12659 12660 13765 13764 
12595 12596 13701 13700 12660 12661 13766 13765 
12596 12597 13702 13701 12661 12662 13767 13766 
12597 12598 13703 13702 12662 12663 13768 13767 
12598 12599 13704 13703 12663 12664 13769 13768 
12599 12600 13705 13704 12664 12665 13770 13769 
12600 12601 13706 13705 12665 12666 13771 13770 
12601 12602 13707 13706 12666 12667 13772 13771 
12602 12603 13708 13707 12667 12668 13773 13772 
12603 12604 13709 13708 12668 12669 13774 13773 
12604 12605 13710 13709 12669 12670 13775 13774 
12605 12606 13711 13710 12670 12671 13776 13775 
12606 12607 13712 13711 12671 12672 13777 13776 
12607 12608 13713 13712 12672 12673 13778 13777 
12608 12609 13714 13713 12673 12674 13779 13778 
12610 12611 13716 13715 12675 12676 13781 13780 
12611 12612 13717 13716 12676 12677 13782 13781 
12612 12613 13718 13717 12677 12678 13783 13782 
12613 12614 13719 13718 12678 12679 13784 13783 
12614 12615 13720 13719 12679 12680 13785 13784 
12615 12616 13721 13720 12680 12681 13786 13785 
12616 12617 13722 13721 12681 12682 13787 13786 
12617 12618 13723 13722 12682 12683 13788 13787 
12618 12619 13724 13723 12683 12684 13789 13788 
12619 12620 13725 13724 12684 12685 13790 13789 
12620 12621 13726 13725 12685 12686 13791 13790 
12621 12622 13727 13726 12686 12687 13792 13791 
12622 12623 13728 13727 12687 12688 13793 13792 
12623 12624 13729 13728 12688 12689 13794 13793 
12624 12625 13730 13729 12689 12690 13795 13794 
12625 12626 13731 13730 12690 12691 13796 13795 
12626 12627 13732 13731 12691 12692 13797 13796 
12627 12628 13733 13732 12692 12693 13798 13797 
12628 12629 13734 13733 12693 12694 13799 13798 
12629 12630 13735 13734 12694 12695 13800 13799 
12630 12631 13736 13735 12695 12696 13801 13800 
12631 12632 13737 13736 12696 12697 13802 13801 
12632 12633 13738 13737 12697 12698 13803 13802 
12633 12634 13739 13738 12698 12699 13804 13803 
12634 12635 13740 13739 12699 12700 13805 13804 
12635 12636 13741 13740 12700 12701 13806 13805 
12636 12637 13742 13741 12701 12702 13807 13806 
12637 12638 13743 13742 12702 12703 13808 13807 
12638 12639 13744 13743 12703 12704 13809 13808 
12639 12640 13745 13744 12704 12705 13810 13809 
12640 12641 13746 13745 12705 12706 13811 13810 
12641 12642 13747 13746 12706 12707 13812 13811 
12642 12643 13748 13747 12707 12708 13813 13812 
12643 12644 13749 13748 12708 12709 13814 13813 
12644 12645 13750 13749 12709 12710 13815 13814 
12645 12646 13751 13750 12710 12711 13816 13815 
12646 12647 13752 13751 12711 12712 13817 13816 
12647 12648 13753 13752 12712 12713 13818 13817 
12648 12649 13754 13753 12713 12714 13819 13818 
12649 12650 13755 13754 12714 12715 13820 13819 
12650 12651 13756 13755 12715 12716 13821 13820 
12651 12652 13757 13756 12716 12717 13822 13821 
12652 12653 13758 13757 12717 12718 13823 13822 
12653 12654 13759 13758 12718 12719 13824 13823 
12654 12655 13760 13759 12719 12720 13825 13824 
12655 12656 13761 13760 12720 12721 13826 13825 
12656 12657 13762 13761 12721 12722 13827 13826 
12657 12658 13763 13762 12722 12723 13828 13827 
12658 12659 13764 13763 12723 12724 13829 13828 
12659 12660 13765 13764 12724 12725 13830 13829 
12660 12661 13766 13765 12725 12726 13831 13830 
12661 12662 13767 13766 12726 12727 13832 13831 
12662 12663 13768 13767 12727 12728 13833 13832 
12663 12664 13769 13768 12728 12729 13834 13833 
12664 12665 13770 13769 12729 12730 13835 13834 
12665 12666 13771 13770 12730 12731 13836 13835 
12666 12667 13772 13771 12731 12732 13837 13836 
12667 12668 13773 13772 12732 12733 13838 13837 
12668 12669 13774 13773 12733 12734 13839 13838 
12669 12670 13775 13774 12734 12735 13840 13839 
12670 12671 13776 13775 12735 12736 13841 13840 
12671 12672 13777 13776 12736 12737 13842 13841 
12672 12673 13778 13777 12737 12738 13843 13842 
12673 12674 13779 13778 12738 12739 13844 13843 
12675 12676 13781 13780 12740 12741 13846 13845 
12676 12677 13782 13781 12741 12742 13847 13846 
12677 12678 13783 13782 12742 12743 13848 13847 
12678 12679 13784 13783 12743 12744 13849 13848 
12679 12680 13785 13784 12744 12745 13850 13849 
12680 12681 13786 13785 12745 12746 13851 13850 
12681 12682 13787 13786 12746 12747 13852 13851 
12682 12683 13788 13787 12747 12748 13853 13852 
12683 12684 13789 13788 12748 12749 13854 13853 
12684 12685 13790 13789 12749 12750 13855 13854 
12685 12686 13791 13790 12750 12751 13856 13855 
12686 12687 13792 13791 12751 12752 13857 13856 
12687 12688 13793 13792 12752 12753 13858 13857 
12688 12689 13794 13793 12753 12754 13859 13858 
12689 12690 13795 13794 12754 12755 13860 13859 
12690 12691 13796 13795 12755 12756 13861 13860 
12691 12692 13797 13796 12756 12757 13862 13861 
12692 12693 13798 13797 12757 12758 13863 13862 
12693 12694 13799 13798 12758 12759 13864 13863 
12694 12695 13800 13799 12759 12760 13865 13864 
12695 12696 13801 13800 12760 12761 13866 13865 
12696 12697 13802 13801 12761 12762 13867 13866 
12697 12698 13803 13802 12762 12763 13868 13867 
12698 12699 13804 13803 12763 12764 13869 13868 
12699 12700 13805 13804 12764 12765 13870 13869 
12700 12701 13806 13805 12765 12766 13871 13870 
12701 12702 13807 13806 12766 12767 13872 13871 
12702 12703 13808 13807 12767 12768 13873 13872 
12703 12704 13809 13808 12768 12769 13874 13873 
12704 12705 13810 13809 12769 12770 13875 13874 
12705 12706 13811 13810 12770 12771 13876 13875 
12706 12707 13812 13811 12771 12772 13877 13876 
12707 12708 13813 13812 12772 12773 13878 13877 
12708 12709 13814 13813 12773 12774 13879 13878 
12709 12710 13815 13814 12774 12775 13880 13879 
12710 12711 13816 13815 12775 12776 13881 13880 
12711 12712 13817 13816 12776 12777 13882 13881 
12712 12713 13818 13817 12777 12778 13883 13882 
12713 12714 13819 13818 12778 12779 13884 13883 
12714 12715 13820 13819 12779 12780 13885 13884 
12715 12716 13821 13820 12780 12781 13886 13885 
12716 12717 13822 13821 12781 12782 13887 13886 
12717 12718 13823 13822 12782 12783 13888 13887 
12718 12719 13824 13823 12783 12784 13889 13888 
12719 12720 13825 13824 12784 12785 13890 13889 
12720 12721 13826 13825 12785 12786 13891 13890 
12721 12722 13827 13826 12786 12787 13892 13891 
12722 12723 13828 13827 12787 12788 13893 13892 
12723 12724 13829 13828 12788 12789 13894 13893 
12724 12725 13830 13829 12789 12790 13895 13894 
12725 12726 13831 13830 12790 12791 13896 13895 
12726 12727 13832 13831 12791 12792 13897 13896 
12727 12728 13833 13832 12792 12793 13898 13897 
12728 12729 13834 13833 12793 12794 13899 13898 
12729 12730 13835 13834 12794 12795 13900 13899 
12730 12731 13836 13835 12795 12796 13901 13900 
12731 12732 13837 13836 12796 12797 13902 13901 
12732 12733 13838 13837 12797 12798 13903 13902 
12733 12734 13839 13838 12798 12799 13904 13903 
12734 12735 13840 13839 12799 12800 13905 13904 
12735 12736 13841 13840 12800 12801 13906 13905 
12736 12737 13842 13841 12801 12802 13907 13906 
12737 12738 13843 13842 12802 12803 13908 13907 
12738 12739 13844 13843 12803 12804 13909 13908 
12740 12741 13846 13845 12805 12806 13911 13910 
12741 12742 13847 13846 12806 12807 13912 13911 
12742 12743 13848 13847 12807 12808 13913 13912 
12743 12744 13849 13848 12808 12809 13914 13913 
12744 12745 13850 13849 12809 12810 13915 13914 
12745 12746 13851 13850 12810 12811 13916 13915 
12746 12747 13852 13851 12811 12812 13917 13916 
12747 12748 13853 13852 12812 12813 13918 13917 
12748 12749 13854 13853 12813 12814 13919 13918 
12749 12750 13855 13854 12814 12815 13920 13919 
12750 12751 13856 13855 12815 12816 13921 13920 
12751 12752 13857 13856 12816 12817 13922 13921 
12752 12753 13858 13857 12817 12818 13923 13922 
12753 12754 13859 13858 12818 12819 13924 13923 
12754 12755 13860 13859 12819 12820 13925 13924 
12755 12756 13861 13860 12820 12821 13926 13925 
12756 12757 13862 13861 12821 12822 13927 13926 
12757 12758 13863 13862 12822 12823 13928 13927 
12758 12759 13864 13863 12823 12824 13929 13928 
12759 12760 13865 13864 12824 12825 13930 13929 
12760 12761 13866 13865 12825 12826 13931 13930 
12761 12762 13867 13866 12826 12827 13932 13931 
12762 12763 13868 13867 12827 12828 13933 13932 
12763 12764 13869 13868 12828 12829 13934 13933 
12764 12765 13870 13869 12829 12830 13935 13934 
12765 12766 13871 13870 12830 12831 13936 13935 
12766 12767 13872 13871 12831 12832 13937 13936 
12767 12768 13873 13872 12832 12833 13938 13937 
12768 12769 13874 13873 12833 12834 13939 13938 
12769 12770 13875 13874 12834 12835 13940 13939 
12770 12771 13876 13875 12835 12836 13941 13940 
12771 12772 13877 13876 12836 12837 13942 13941 
12772 12773 13878 13877 12837 12838 13943 13942 
12773 12774 13879 13878 12838 12839 13944 13943 
12774 12775 13880 13879 12839 12840 13945 13944 
12775 12776 13881 13880 12840 12841 13946 13945 
12776 12777 13882 13881 12841 12842 13947 13946 
12777 12778 13883 13882 12842 12843 13948 13947 
12778 12779 13884 13883 12843 12844 13949 13948 
12779 12780 13885 13884 12844 12845 13950 13949 
12780 12781 13886 13885 12845 12846 13951 13950 
12781 12782 13887 13886 12846 12847 13952 13951 
12782 12783 13888 13887 12847 12848 13953 13952 
12783 12784 13889 13888 12848 12849 13954 13953 
12784 12785 13890 13889 12849 12850 13955 13954 
12785 12786 13891 13890 12850 12851 13956 13955 
12786 12787 13892 13891 12851 12852 13957 13956 
12787 12788 13893 13892 12852 12853 13958 13957 
12788 12789 13894 13893 12853 12854 13959 13958 
12789 12790 13895 13894 12854 12855 13960 13959 
12790 12791 13896 13895 12855 12856 13961 13960 
12791 12792 13897 13896 12856 12857 13962 13961 
12792 12793 13898 13897 12857 12858 13963 13962 
12793 12794 13899 13898 12858 12859 13964 13963 
12794 12795 13900 13899 12859 12860 13965 13964 
12795 12796 13901 13900 12860 12861 13966 13965 
12796 12797 13902 13901 12861 12862 13967 13966 
12797 12798 13903 13902 12862 12863 13968 13967 
12798 12799 13904 13903 12863 12864 13969 13968 
12799 12800 13905 13904 12864 12865 13970 13969 
12800 12801 13906 13905 12865 12866 13971 13970 
12801 12802 13907 13906 12866 12867 13972 13971 
12802 12803 13908 13907 12867 12868 13973 13972 
12803 12804 13909 13908 12868 12869 13974 13973 
12805 12806 13911 13910 12870 12871 13976 13975 
12806 12807 13912 13911 12871 12872 13977 13976 
12807 12808 13913 13912 12872 12873 13978 13977 
12808 12809 13914 13913 12873 12874 13979 13978 
12809 12810 13915 13914 12874 12875 13980 13979 
12810 12811 13916 13915 12875 12876 13981 13980 
12811 12812 13917 13916 12876 12877 13982 13981 
12812 12813 13918 13917 12877 12878 13983 13982 
12813 12814 13919 13918 12878 12879 13984 13983 
12814 12815 13920 13919 12879 12880 13985 13984 
12815 12816 13921 13920 12880 12881 13986 13985 
12816 12817 13922 13921 12881 12882 13987 13986 
12817 12818 13923 13922 12882 12883 13988 13987 
12818 12819 13924 13923 12883 12884 13989 13988 
12819 12820 13925 13924 12884 12885 13990 13989 
12820 12821 13926 13925 12885 12886 13991 13990 
12821 12822 13927 13926 12886 12887 13992 13991 
12822 12823 13928 13927 12887 12888 13993 13992 
12823 12824 13929 13928 12888 12889 13994 13993 
12824 12825 13930 13929 12889 12890 13995 13994 
12825 12826 13931 13930 12890 12891 13996 13995 
12826 12827 13932 13931 12891 12892 13997 13996 
12827 12828 13933 13932 12892 12893 13998 13997 
12828 12829 13934 13933 12893 12894 13999 13998 
12829 12830 13935 13934 12894 12895 14000 13999 
12830 12831 13936 13935 12895 12896 14001 14000 
12831 12832 13937 13936 12896 12897 14002 14001 
12832 12833 13938 13937 12897 12898 14003 14002 
12833 12834 13939 13938 12898 12899 14004 14003 
12834 12835 13940 13939 12899 12900 14005 14004 
12835 12836 13941 13940 12900 12901 14006 14005 
12836 12837 13942 13941 12901 12902 14007 14006 
12837 12838 13943 13942 12902 12903 14008 14007 
12838 12839 13944 13943 12903 12904 14009 14008 
12839 12840 13945 13944 12904 12905 14010 14009 
12840 12841 13946 13945 12905 12906 14011 14010 
12841 12842 13947 13946 12906 12907 14012 14011 
12842 12843 13948 13947 12907 12908 14013 14012 
12843 12844 13949 13948 12908 12909 14014 14013 
12844 12845 13950 13949 12909 12910 14015 14014 
12845 12846 13951 13950 12910 12911 14016 14015 
12846 12847 13952 13951 12911 12912 14017 14016 
12847 12848 13953 13952 12912 12913 14018 14017 
12848 12849 13954 13953 12913 12914 14019 14018 
12849 12850 13955 13954 12914 12915 14020 14019 
12850 12851 13956 13955 12915 12916 14021 14020 
12851 12852 13957 13956 12916 12917 14022 14021 
12852 12853 13958 13957 12917 12918 14023 14022 
12853 12854 13959 13958 12918 12919 14024 14023 
12854 12855 13960 13959 12919 12920 14025 14024 
12855 12856 13961 13960 12920 12921 14026 14025 
12856 12857 13962 13961 12921 12922 14027 14026 
12857 12858 13963 13962 12922 12923 14028 14027 
12858 12859 13964 13963 12923 12924 14029 14028 
12859 12860 13965 13964 12924 12925 14030 14029 
12860 12861 13966 13965 12925 12926 14031 14030 
12861 12862 13967 13966 12926 12927 14032 14031 
12862 12863 13968 13967 12927 12928 14033 14032 
12863 12864 13969 13968 12928 12929 14034 14033 
12864 12865 13970 13969 12929 12930 14035 14034 
12865 12866 13971 13970 12930 12931 14036 14035 
12866 12867 13972 13971 12931 12932 14037 14036 
12867 12868 13973 13972 12932 12933 14038 14037 
12868 12869 13974 13973 12933 12934 14039 14038 
12870 12871 13976 13975 12935 12936 14041 14040 
12871 12872 13977 13976 12936 12937 14042 14041 
12872 12873 13978 13977 12937 12938 14043 14042 
12873 12874 13979 13978 12938 12939 14044 14043 
12874 12875 13980 13979 12939 12940 14045 14044 
12875 12876 13981 13980 12940 12941 14046 14045 
12876 12877 13982 13981 12941 12942 14047 14046 
12877 12878 13983 13982 12942 12943 14048 14047 
12878 12879 13984 13983 12943 12944 14049 14048 
12879 12880 13985 13984 12944 12945 14050 14049 
12880 12881 13986 13985 12945 12946 14051 14050 
12881 12882 13987 13986 12946 12947 14052 14051 
12882 12883 13988 13987 12947 12948 14053 14052 
12883 12884 13989 13988 12948 12949 14054 14053 
12884 12885 13990 13989 12949 12950 14055 14054 
12885 12886 13991 13990 12950 12951 14056 14055 
12886 12887 13992 13991 12951 12952 14057 14056 
12887 12888 13993 13992 12952 12953 14058 14057 
12888 12889 13994 13993 12953 12954 14059 14058 
12889 12890 13995 13994 12954 12955 14060 14059 
12890 12891 13996 13995 12955 12956 14061 14060 
12891 12892 13997 13996 12956 12957 14062 14061 
12892 12893 13998 13997 12957 12958 14063 14062 
12893 12894 13999 13998 12958 12959 14064 14063 
12894 12895 14000 13999 12959 12960 14065 14064 
12895 12896 14001 14000 12960 12961 14066 14065 
12896 12897 14002 14001 12961 12962 14067 14066 
12897 12898 14003 14002 12962 12963 14068 14067 
12898 12899 14004 14003 12963 12964 14069 14068 
12899 12900 14005 14004 12964 12965 14070 14069 
12900 12901 14006 14005 12965 12966 14071 14070 
12901 12902 14007 14006 12966 12967 14072 14071 
12902 12903 14008 14007 12967 12968 14073 14072 
12903 12904 14009 14008 12968 12969 14074 14073 
12904 12905 14010 14009 12969 12970 14075 14074 
12905 12906 14011 14010 12970 12971 14076 14075 
12906 12907 14012 14011 12971 12972 14077 14076 
12907 12908 14013 14012 12972 12973 14078 14077 
12908 12909 14014 14013 12973 12974 14079 14078 
12909 12910 14015 14014 12974 12975 14080 14079 
12910 12911 14016 14015 12975 12976 14081 14080 
12911 12912 14017 14016 12976 12977 14082 14081 
12912 12913 14018 14017 12977 12978 14083 14082 
12913 12914 14019 14018 12978 12979 14084 14083 
12914 12915 14020 14019 12979 12980 14085 14084 
12915 12916 14021 14020 12980 12981 14086 14085 
12916 12917 14022 14021 12981 12982 14087 14086 
12917 12918 14023 14022 12982 12983 14088 14087 
12918 12919 14024 14023 12983 12984 14089 14088 
12919 12920 14025 14024 12984 12985 14090 14089 
12920 12921 14026 14025 12985 12986 14091 14090 
12921 12922 14027 14026 12986 12987 14092 14091 
12922 12923 14028 14027 12987 12988 14093 14092 
12923 12924 14029 14028 12988 12989 14094 14093 
12924 12925 14030 14029 12989 12990 14095 14094 
12925 12926 14031 14030 12990 12991 14096 14095 
12926 12927 14032 14031 12991 12992 14097 14096 
12927 12928 14033 14032 12992 12993 14098 14097 
12928 12929 14034 14033 12993 12994 14099 14098 
12929 12930 14035 14034 12994 12995 14100 14099 
12930 12931 14036 14035 12995 12996 14101 14100 
12931 12932 14037 14036 12996 12997 14102 14101 
12932 12933 14038 14037 12997 12998 14103 14102 
12933 12934 14039 14038 12998 12999 14104 14103 
12935 12936 14041 14040 13000 13001 14106 14105 
12936 12937 14042 14041 13001 13002 14107 14106 
12937 12938 14043 14042 13002 13003 14108 14107 
12938 12939 14044 14043 13003 13004 14109 14108 
12939 12940 14045 14044 13004 13005 14110 14109 
12940 12941 14046 14045 13005 13006 14111 14110 
12941 12942 14047 14046 13006 13007 14112 14111 
12942 12943 14048 14047 13007 13008 14113 14112 
12943 12944 14049 14048 13008 13009 14114 14113 
12944 12945 14050 14049 13009 13010 14115 14114 
12945 12946 14051 14050 13010 13011 14116 14115 
12946 12947 14052 14051 13011 13012 14117 14116 
12947 12948 14053 14052 13012 13013 14118 14117 
12948 12949 14054 14053 13013 13014 14119 14118 
12949 12950 14055 14054 13014 13015 14120 14119 
12950 12951 14056 14055 13015 13016 14121 14120 
12951 12952 14057 14056 13016 13017 14122 14121 
12952 12953 14058 14057 13017 13018 14123 14122 
12953 12954 14059 14058 13018 13019 14124 14123 
12954 12955 14060 14059 13019 13020 14125 14124 
12955 12956 14061 14060 13020 13021 14126 14125 
12956 12957 14062 14061 13021 13022 14127 14126 
12957 12958 14063 14062 13022 13023 14128 14127 
12958 12959 14064 14063 13023 13024 14129 14128 
12959 12960 14065 14064 13024 13025 14130 14129 
12960 12961 14066 14065 13025 13026 14131 14130 
12961 12962 14067 14066 13026 13027 14132 14131 
12962 12963 14068 14067 13027 13028 14133 14132 
12963 12964 14069 14068 13028 13029 14134 14133 
12964 12965 14070 14069 13029 13030 14135 14134 
12965 12966 14071 14070 13030 13031 14136 14135 
12966 12967 14072 14071 13031 13032 14137 14136 
12967 12968 14073 14072 13032 13033 14138 14137 
12968 12969 14074 14073 13033 13034 14139 14138 
12969 12970 14075 14074 13034 13035 14140 14139 
12970 12971 14076 14075 13035 13036 14141 14140 
12971 12972 14077 14076 13036 13037 14142 14141 
12972 12973 14078 14077 13037 13038 14143 14142 
12973 12974 14079 14078 13038 13039 14144 14143 
12974 12975 14080 14079 13039 13040 14145 14144 
12975 12976 14081 14080 13040 13041 14146 14145 
12976 12977 14082 14081 13041 13042 14147 14146 
12977 12978 14083 14082 13042 13043 14148 14147 
12978 12979 14084 14083 13043 13044 14149 14148 
12979 12980 14085 14084 13044 13045 14150 14149 
12980 12981 14086 14085 13045 13046 14151 14150 
12981 12982 14087 14086 13046 13047 14152 14151 
12982 12983 14088 14087 13047 13048 14153 14152 
12983 12984 14089 14088 13048 13049 14154 14153 
12984 12985 14090 14089 13049 13050 14155 14154 
12985 12986 14091 14090 13050 13051 14156 14155 
12986 12987 14092 14091 13051 13052 14157 14156 
12987 12988 14093 14092 13052 13053 14158 14157 
12988 12989 14094 14093 13053 13054 14159 14158 
12989 12990 14095 14094 13054 13055 14160 14159 
12990 12991 14096 14095 13055 13056 14161 14160 
12991 12992 14097 14096 13056 13057 14162 14161 
12992 12993 14098 14097 13057 13058 14163 14162 
12993 12994 14099 14098 13058 13059 14164 14163 
12994 12995 14100 14099 13059 13060 14165 14164 
12995 12996 14101 14100 13060 13061 14166 14165 
12996 12997 14102 14101 13061 13062 14167 14166 
12997 12998 14103 14102 13062 13063 14168 14167 
12998 12999 14104 14103 13063 13064 14169 14168 
13000 13001 14106 14105 13065 13066 14171 14170 
13001 13002 14107 14106 13066 13067 14172 14171 
13002 13003 14108 14107 13067 13068 14173 14172 
13003 13004 14109 14108 13068 13069 14174 14173 
13004 13005 14110 14109 13069 13070 14175 14174 
13005 13006 14111 14110 13070 13071 14176 14175 
13006 13007 14112 14111 13071 13072 14177 14176 
13007 13008 14113 14112 13072 13073 14178 14177 
13008 13009 14114 14113 13073 13074 14179 14178 
13009 13010 14115 14114 13074 13075 14180 14179 
13010 13011 14116 14115 13075 13076 14181 14180 
13011 13012 14117 14116 13076 13077 14182 14181 
13012 13013 14118 14117 13077 13078 14183 14182 
13013 13014 14119 14118 13078 13079 14184 14183 
13014 13015 14120 14119 13079 13080 14185 14184 
13015 13016 14121 14120 13080 13081 14186 14185 
13016 13017 14122 14121 13081 13082 14187 14186 
13017 13018 14123 14122 13082 13083 14188 14187 
13018 13019 14124 14123 13083 13084 14189 14188 
13019 13020 14125 14124 13084 13085 14190 14189 
13020 13021 14126 14125 13085 13086 14191 14190 
13021 13022 14127 14126 13086 13087 14192 14191 
13022 13023 14128 14127 13087 13088 14193 14192 
13023 13024 14129 14128 13088 13089 14194 14193 
13024 13025 14130 14129 13089 13090 14195 14194 
13025 13026 14131 14130 13090 13091 14196 14195 
13026 13027 14132 14131 13091 13092 14197 14196 
13027 13028 14133 14132 13092 13093 14198 14197 
13028 13029 14134 14133 13093 13094 14199 14198 
13029 13030 14135 14134 13094 13095 14200 14199 
13030 13031 14136 14135 13095 13096 14201 14200 
13031 13032 14137 14136 13096 13097 14202 14201 
13032 13033 14138 14137 13097 13098 14203 14202 
13033 13034 14139 14138 13098 13099 14204 14203 
13034 13035 14140 14139 13099 13100 14205 14204 
13035 13036 14141 14140 13100 13101 14206 14205 
13036 13037 14142 14141 13101 13102 14207 14206 
13037 13038 14143 14142 13102 13103 14208 14207 
13038 13039 14144 14143 13103 13104 14209 14208 
13039 13040 14145 14144 13104 13105 14210 14209 
13040 13041 14146 14145 13105 13106 14211 14210 
13041 13042 14147 14146 13106 13107 14212 14211 
13042 13043 14148 14147 13107 13108 14213 14212 
13043 13044 14149 14148 13108 13109 14214 14213 
13044 13045 14150 14149 13109 13110 14215 14214 
13045 13046 14151 14150 13110 13111 14216 14215 
13046 13047 14152 14151 13111 13112 14217 14216 
13047 13048 14153 14152 13112 13113 14218 14217 
13048 13049 14154 14153 13113 13114 14219 14218 
13049 13050 14155 14154 13114 13115 14220 14219 
13050 13051 14156 14155 13115 13116 14221 14220 
13051 13052 14157 14156 13116 13117 14222 14221 
13052 13053 14158 14157 13117 13118 14223 14222 
13053 13054 14159 14158 13118 13119 14224 14223 
13054 13055 14160 14159 13119 13120 14225 14224 
13055 13056 14161 14160 13120 13121 14226 14225 
13056 13057 14162 14161 13121 13122 14227 14226 
13057 13058 14163 14162 13122 13123 14228 14227 
13058 13059 14164 14163 13123 13124 14229 14228 
13059 13060 14165 14164 13124 13125 14230 14229 
13060 13061 14166 14165 13125 13126 14231 14230 
13061 13062 14167 14166 13126 13127 14232 14231 
13062 13063 14168 14167 13127 13128 14233 14232 
13063 13064 14169 14168 13128 13129 14234 14233 
13065 13066 14171 14170 13130 13131 14236 14235 
13066 13067 14172 14171 13131 13132 14237 14236 
13067 13068 14173 14172 13132 13133 14238 14237 
13068 13069 14174 14173 13133 13134 14239 14238 
13069 13070 14175 14174 13134 13135 14240 14239 
13070 13071 14176 14175 13135 13136 14241 14240 
13071 13072 14177 14176 13136 13137 14242 14241 
13072 13073 14178 14177 13137 13138 14243 14242 
13073 13074 14179 14178 13138 13139 14244 14243 
13074 13075 14180 14179 13139 13140 14245 14244 
13075 13076 14181 14180 13140 13141 14246 14245 
13076 13077 14182 14181 13141 13142 14247 14246 
13077 13078 14183 14182 13142 13143 14248 14247 
13078 13079 14184 14183 13143 13144 14249 14248 
13079 13080 14185 14184 13144 13145 14250 14249 
13080 13081 14186 14185 13145 13146 14251 14250 
13081 13082 14187 14186 13146 13147 14252 14251 
13082 13083 14188 14187 13147 13148 14253 14252 
13083 13084 14189 14188 13148 13149 14254 14253 
13084 13085 14190 14189 13149 13150 14255 14254 
13085 13086 14191 14190 13150 13151 14256 14255 
13086 13087 14192 14191 13151 13152 14257 14256 
13087 13088 14193 14192 13152 13153 14258 14257 
13088 13089 14194 14193 13153 13154 14259 14258 
13089 13090 14195 14194 13154 13155 14260 14259 
13090 13091 14196 14195 13155 13156 14261 14260 
13091 13092 14197 14196 13156 13157 14262 14261 
13092 13093 14198 14197 13157 13158 14263 14262 
13093 13094 14199 14198 13158 13159 14264 14263 
13094 13095 14200 14199 13159 13160 14265 14264 
13095 13096 14201 14200 13160 13161 14266 14265 
13096 13097 14202 14201 13161 13162 14267 14266 
13097 13098 14203 14202 13162 13163 14268 14267 
13098 13099 14204 14203 13163 13164 14269 14268 
13099 13100 14205 14204 13164 13165 14270 14269 
13100 13101 14206 14205 13165 13166 14271 14270 
13101 13102 14207 14206 13166 13167 14272 14271 
13102 13103 14208 14207 13167 13168 14273 14272 
13103 13104 14209 14208 13168 13169 14274 14273 
13104 13105 14210 14209 13169 13170 14275 14274 
13105 13106 14211 14210 13170 13171 14276 14275 
13106 13107 14212 14211 13171 13172 14277 14276 
13107 13108 14213 14212 13172 13173 14278 14277 
13108 13109 14214 14213 13173 13174 14279 14278 
13109 13110 14215 14214 13174 13175 14280 14279 
13110 13111 14216 14215 13175 13176 14281 14280 
13111 13112 14217 14216 13176 13177 14282 14281 
13112 13113 14218 14217 13177 13178 14283 14282 
13113 13114 14219 14218 13178 13179 14284 14283 
13114 13115 14220 14219 13179 13180 14285 14284 
13115 13116 14221 14220 13180 13181 14286 14285 
13116 13117 14222 14221 13181 13182 14287 14286 
13117 13118 14223 14222 13182 13183 14288 14287 
13118 13119 14224 14223 13183 13184 14289 14288 
13119 13120 14225 14224 13184 13185 14290 14289 
13120 13121 14226 14225 13185 13186 14291 14290 
13121 13122 14227 14226 13186 13187 14292 14291 
13122 13123 14228 14227 13187 13188 14293 14292 
13123 13124 14229 14228 13188 13189 14294 14293 
13124 13125 14230 14229 13189 13190 14295 14294 
13125 13126 14231 14230 13190 13191 14296 14295 
13126 13127 14232 14231 13191 13192 14297 14296 
13127 13128 14233 14232 13192 13193 14298 14297 
13128 13129 14234 14233 13193 13194 14299 14298 
13130 13131 14236 14235 13195 13196 14301 14300 
13131 13132 14237 14236 13196 13197 14302 14301 
13132 13133 14238 14237 13197 13198 14303 14302 
13133 13134 14239 14238 13198 13199 14304 14303 
13134 13135 14240 14239 13199 13200 14305 14304 
13135 13136 14241 14240 13200 13201 14306 14305 
13136 13137 14242 14241 13201 13202 14307 14306 
13137 13138 14243 14242 13202 13203 14308 14307 
13138 13139 14244 14243 13203 13204 14309 14308 
13139 13140 14245 14244 13204 13205 14310 14309 
13140 13141 14246 14245 13205 13206 14311 14310 
13141 13142 14247 14246 13206 13207 14312 14311 
13142 13143 14248 14247 13207 13208 14313 14312 
13143 13144 14249 14248 13208 13209 14314 14313 
13144 13145 14250 14249 13209 13210 14315 14314 
13145 13146 14251 14250 13210 13211 14316 14315 
13146 13147 14252 14251 13211 13212 14317 14316 
13147 13148 14253 14252 13212 13213 14318 14317 
13148 13149 14254 14253 13213 13214 14319 14318 
13149 13150 14255 14254 13214 13215 14320 14319 
13150 13151 14256 14255 13215 13216 14321 14320 
13151 13152 14257 14256 13216 13217 14322 14321 
13152 13153 14258 14257 13217 13218 14323 14322 
13153 13154 14259 14258 13218 13219 14324 14323 
13154 13155 14260 14259 13219 13220 14325 14324 
13155 13156 14261 14260 13220 13221 14326 14325 
13156 13157 14262 14261 13221 13222 14327 14326 
13157 13158 14263 14262 13222 13223 14328 14327 
13158 13159 14264 14263 13223 13224 14329 14328 
13159 13160 14265 14264 13224 13225 14330 14329 
13160 13161 14266 14265 13225 13226 14331 14330 
13161 13162 14267 14266 13226 13227 14332 14331 
13162 13163 14268 14267 13227 13228 14333 14332 
13163 13164 14269 14268 13228 13229 14334 14333 
13164 13165 14270 14269 13229 13230 14335 14334 
13165 13166 14271 14270 13230 13231 14336 14335 
13166 13167 14272 14271 13231 13232 14337 14336 
13167 13168 14273 14272 13232 13233 14338 14337 
13168 13169 14274 14273 13233 13234 14339 14338 
13169 13170 14275 14274 13234 13235 14340 14339 
13170 13171 14276 14275 13235 13236 14341 14340 
13171 13172 14277 14276 13236 13237 14342 14341 
13172 13173 14278 14277 13237 13238 14343 14342 
13173 13174 14279 14278 13238 13239 14344 14343 
13174 13175 14280 14279 13239 13240 14345 14344 
13175 13176 14281 14280 13240 13241 14346 14345 
13176 13177 14282 14281 13241 13242 14347 14346 
13177 13178 14283 14282 13242 13243 14348 14347 
13178 13179 14284 14283 13243 13244 14349 14348 
13179 13180 14285 14284 13244 13245 14350 14349 
13180 13181 14286 14285 13245 13246 14351 14350 
13181 13182 14287 14286 13246 13247 14352 14351 
13182 13183 14288 14287 13247 13248 14353 14352 
13183 13184 14289 14288 13248 13249 14354 14353 
13184 13185 14290 14289 13249 13250 14355 14354 
13185 13186 14291 14290 13250 13251 14356 14355 
13186 13187 14292 14291 13251 13252 14357 14356 
13187 13188 14293 14292 13252 13253 14358 14357 
13188 13189 14294 14293 13253 13254 14359 14358 
13189 13190 14295 14294 13254 13255 14360 14359 
13190 13191 14296 14295 13255 13256 14361 14360 
13191 13192 14297 14296 13256 13257 14362 14361 
13192 13193 14298 14297 13257 13258 14363 14362 
13193 13194 14299 14298 13258 13259 14364 14363 
13260 13261 14366 14365 13325 13326 14431 14430 
13261 13262 14367 14366 13326 13327 14432 14431 
13262 13263 14368 14367 13327 13328 14433 14432 
13263 13264 14369 14368 13328 13329 14434 14433 
13264 13265 14370 14369 13329 13330 14435 14434 
13265 13266 14371 14370 13330 13331 14436 14435 
13266 13267 14372 14371 13331 13332 14437 14436 
13267 13268 14373 14372 13332 13333 14438 14437 
13268 13269 14374 14373 13333 13334 14439 14438 
13269 13270 14375 14374 13334 13335 14440 14439 
13270 13271 14376 14375 13335 13336 14441 14440 
13271 13272 14377 14376 13336 13337 14442 14441 
13272 13273 14378 14377 13337 13338 14443 14442 
13273 13274 14379 14378 13338 13339 14444 14443 
13274 13275 14380 14379 13339 13340 14445 14444 
13275 13276 14381 14380 13340 13341 14446 14445 
13276 13277 14382 14381 13341 13342 14447 14446 
13277 13278 14383 14382 13342 13343 14448 14447 
13278 13279 14384 14383 13343 13344 14449 14448 
13279 13280 14385 14384 13344 13345 14450 14449 
13280 13281 14386 14385 13345 13346 14451 14450 
13281 13282 14387 14386 13346 13347 14452 14451 
13282 13283 14388 14387 13347 13348 14453 14452 
13283 13284 14389 14388 13348 13349 14454 14453 
13284 13285 14390 14389 13349 13350 14455 14454 
13285 13286 14391 14390 13350 13351 14456 14455 
13286 13287 14392 14391 13351 13352 14457 14456 
13287 13288 14393 14392 13352 13353 14458 14457 
13288 13289 14394 14393 13353 13354 14459 14458 
13289 13290 14395 14394 13354 13355 14460 14459 
13290 13291 14396 14395 13355 13356 14461 14460 
13291 13292 14397 14396 13356 13357 14462 14461 
13292 13293 14398 14397 13357 13358 14463 14462 
13293 13294 14399 14398 13358 13359 14464 14463 
13294 13295 14400 14399 13359 13360 14465 14464 
13295 13296 14401 14400 13360 13361 14466 14465 
13296 13297 14402 14401 13361 13362 14467 14466 
13297 13298 14403 14402 13362 13363 14468 14467 
13298 13299 14404 14403 13363 13364 14469 14468 
13299 13300 14405 14404 13364 13365 14470 14469 
13300 13301 14406 14405 13365 13366 14471 14470 
13301 13302 14407 14406 13366 13367 14472 14471 
13302 13303 14408 14407 13367 13368 14473 14472 
13303 13304 14409 14408 13368 13369 14474 14473 
13304 13305 14410 14409 13369 13370 14475 14474 
13305 13306 14411 14410 13370 13371 14476 14475 
13306 13307 14412 14411 13371 13372 14477 14476 
13307 13308 14413 14412 13372 13373 14478 14477 
13308 13309 14414 14413 13373 13374 14479 14478 
13309 13310 14415 14414 13374 13375 14480 14479 
13310 13311 14416 14415 13375 13376 14481 14480 
13311 13312 14417 14416 13376 13377 14482 14481 
13312 13313 14418 14417 13377 13378 14483 14482 
13313 13314 14419 14418 13378 13379 14484 14483 
13314 13315 14420 14419 13379 13380 14485 14484 
13315 13316 14421 14420 13380 13381 14486 14485 
13316 13317 14422 14421 13381 13382 14487 14486 
13317 13318 14423 14422 13382 13383 14488 14487 
13318 13319 14424 14423 13383 13384 14489 14488 
13319 13320 14425 14424 13384 13385 14490 14489 
13320 13321 14426 14425 13385 13386 14491 14490 
13321 13322 14427 14426 13386 13387 14492 14491 
13322 13323 14428 14427 13387 13388 14493 14492 
13323 13324 14429 14428 13388 13389 14494 14493 
13325 13326 14431 14430 13390 13391 14496 14495 
13326 13327 14432 14431 13391 13392 14497 14496 
13327 13328 14433 14432 13392 13393 14498 14497 
13328 13329 14434 14433 13393 13394 14499 14498 
13329 13330 14435 14434 13394 13395 14500 14499 
13330 13331 14436 14435 13395 13396 14501 14500 
13331 13332 14437 14436 13396 13397 14502 14501 
13332 13333 14438 14437 13397 13398 14503 14502 
13333 13334 14439 14438 13398 13399 14504 14503 
13334 13335 14440 14439 13399 13400 14505 14504 
13335 13336 14441 14440 13400 13401 14506 14505 
13336 13337 14442 14441 13401 13402 14507 14506 
13337 13338 14443 14442 13402 13403 14508 14507 
13338 13339 14444 14443 13403 13404 14509 14508 
13339 13340 14445 14444 13404 13405 14510 14509 
13340 13341 14446 14445 13405 13406 14511 14510 
13341 13342 14447 14446 13406 13407 14512 14511 
13342 13343 14448 14447 13407 13408 14513 14512 
13343 13344 14449 14448 13408 13409 14514 14513 
13344 13345 14450 14449 13409 13410 14515 14514 
13345 13346 14451 14450 13410 13411 14516 14515 
13346 13347 14452 14451 13411 13412 14517 14516 
13347 13348 14453 14452 13412 13413 14518 14517 
13348 13349 14454 14453 13413 13414 14519 14518 
13349 13350 14455 14454 13414 13415 14520 14519 
13350 13351 14456 14455 13415 13416 14521 14520 
13351 13352 14457 14456 13416 13417 14522 14521 
13352 13353 14458 14457 13417 13418 14523 14522 
13353 13354 14459 14458 13418 13419 14524 14523 
13354 13355 14460 14459 13419 13420 14525 14524 
13355 13356 14461 14460 13420 13421 14526 14525 
13356 13357 14462 14461 13421 13422 14527 14526 
13357 13358 14463 14462 13422 13423 14528 14527 
13358 13359 14464 14463 13423 13424 14529 14528 
13359 13360 14465 14464 13424 13425 14530 14529 
13360 13361 14466 14465 13425 13426 14531 14530 
13361 13362 14467 14466 13426 13427 14532 14531 
13362 13363 14468 14467 13427 13428 14533 14532 
13363 13364 14469 14468 13428 13429 14534 14533 
13364 13365 14470 14469 13429 13430 14535 14534 
13365 13366 14471 14470 13430 13431 14536 14535 
13366 13367 14472 14471 13431 13432 14537 14536 
13367 13368 14473 14472 13432 13433 14538 14537 
13368 13369 14474 14473 13433 13434 14539 14538 
13369 13370 14475 14474 13434 13435 14540 14539 
13370 13371 14476 14475 13435 13436 14541 14540 
13371 13372 14477 14476 13436 13437 14542 14541 
13372 13373 14478 14477 13437 13438 14543 14542 
13373 13374 14479 14478 13438 13439 14544 14543 
13374 13375 14480 14479 13439 13440 14545 14544 
13375 13376 14481 14480 13440 13441 14546 14545 
13376 13377 14482 14481 13441 13442 14547 14546 
13377 13378 14483 14482 13442 13443 14548 14547 
13378 13379 14484 14483 13443 13444 14549 14548 
13379 13380 14485 14484 13444 13445 14550 14549 
13380 13381 14486 14485 13445 13446 14551 14550 
13381 13382 14487 14486 13446 13447 14552 14551 
13382 13383 14488 14487 13447 13448 14553 14552 
13383 13384 14489 14488 13448 13449 14554 14553 
13384 13385 14490 14489 13449 13450 14555 14554 
13385 13386 14491 14490 13450 13451 14556 14555 
13386 13387 14492 14491 13451 13452 14557 14556 
13387 13388 14493 14492 13452 13453 14558 14557 
13388 13389 14494 14493 13453 13454 14559 14558 
13390 13391 14496 14495 13455 13456 14561 14560 
13391 13392 14497 14496 13456 13457 14562 14561 
13392 13393 14498 14497 13457 13458 14563 14562 
13393 13394 14499 14498 13458 13459 14564 14563 
13394 13395 14500 14499 13459 13460 14565 14564 
13395 13396 14501 14500 13460 13461 14566 14565 
13396 13397 14502 14501 13461 13462 14567 14566 
13397 13398 14503 14502 13462 13463 14568 14567 
13398 13399 14504 14503 13463 13464 14569 14568 
13399 13400 14505 14504 13464 13465 14570 14569 
13400 13401 14506 14505 13465 13466 14571 14570 
13401 13402 14507 14506 13466 13467 14572 14571 
13402 13403 14508 14507 13467 13468 14573 14572 
13403 13404 14509 14508 13468 13469 14574 14573 
13404 13405 14510 14509 13469 13470 14575 14574 
13405 13406 14511 14510 13470 13471 14576 14575 
13406 13407 14512 14511 13471 13472 14577 14576 
13407 13408 14513 14512 13472 13473 14578 14577 
13408 13409 14514 14513 13473 13474 14579 14578 
13409 13410 14515 14514 13474 13475 14580 14579 
13410 13411 14516 14515 13475 13476 14581 14580 
13411 13412 14517 14516 13476 13477 14582 14581 
13412 13413 14518 14517 13477 13478 14583 14582 
13413 13414 14519 14518 13478 13479 14584 14583 
13414 13415 14520 14519 13479 13480 14585 14584 
13415 13416 14521 14520 13480 13481 14586 14585 
13416 13417 14522 14521 13481 13482 14587 14586 
13417 13418 14523 14522 13482 13483 14588 14587 
13418 13419 14524 14523 13483 13484 14589 14588 
13419 13420 14525 14524 13484 13485 14590 14589 
13420 13421 14526 14525 13485 13486 14591 14590 
13421 13422 14527 14526 13486 13487 14592 14591 
13422 13423 14528 14527 13487 13488 14593 14592 
13423 13424 14529 14528 13488 13489 14594 14593 
13424 13425 14530 14529 13489 13490 14595 14594 
13425 13426 14531 14530 13490 13491 14596 14595 
13426 13427 14532 14531 13491 13492 14597 14596 
13427 13428 14533 14532 13492 13493 14598 14597 
13428 13429 14534 14533 13493 13494 14599 14598 
13429 13430 14535 14534 13494 13495 14600 14599 
13430 13431 14536 14535 13495 13496 14601 14600 
13431 13432 14537 14536 13496 13497 14602 14601 
13432 13433 14538 14537 13497 13498 14603 14602 
13433 13434 14539 14538 13498 13499 14604 14603 
13434 13435 14540 14539 13499 13500 14605 14604 
13435 13436 14541 14540 13500 13501 14606 14605 
13436 13437 14542 14541 13501 13502 14607 14606 
13437 13438 14543 14542 13502 13503 14608 14607 
13438 13439 14544 14543 13503 13504 14609 14608 
13439 13440 14545 14544 13504 13505 14610 14609 
13440 13441 14546 14545 13505 13506 14611 14610 
13441 13442 14547 14546 13506 13507 14612 14611 
13442 13443 14548 14547 13507 13508 14613 14612 
13443 13444 14549 14548 13508 13509 14614 14613 
13444 13445 14550 14549 13509 13510 14615 14614 
13445 13446 14551 14550 13510 13511 14616 14615 
13446 13447 14552 14551 13511 13512 14617 14616 
13447 13448 14553 14552 13512 13513 14618 14617 
13448 13449 14554 14553 13513 13514 14619 14618 
13449 13450 14555 14554 13514 13515 14620 14619 
13450 13451 14556 14555 13515 13516 14621 14620 
13451 13452 14557 14556 13516 13517 14622 14621 
13452 13453 14558 14557 13517 13518 14623 14622 
13453 13454 14559 14558 13518 13519 14624 14623 
13455 13456 14561 14560 13520 13521 14626 14625 
13456 13457 14562 14561 13521 13522 14627 14626 
13457 13458 14563 14562 13522 13523 14628 14627 
13458 13459 14564 14563 13523 13524 14629 14628 
13459 13460 14565 14564 13524 13525 14630 14629 
13460 13461 14566 14565 13525 13526 14631 14630 
13461 13462 14567 14566 13526 13527 14632 14631 
13462 13463 14568 14567 13527 13528 14633 14632 
13463 13464 14569 14568 13528 13529 14634 14633 
13464 13465 14570 14569 13529 13530 14635 14634 
13465 13466 14571 14570 13530 13531 14636 14635 
13466 13467 14572 14571 13531 13532 14637 14636 
13467 13468 14573 14572 13532 13533 14638 14637 
13468 13469 14574 14573 13533 13534 14639 14638 
13469 13470 14575 14574 13534 13535 14640 14639 
13470 13471 14576 14575 13535 13536 14641 14640 
13471 13472 14577 14576 13536 13537 14642 14641 
13472 13473 14578 14577 13537 13538 14643 14642 
13473 13474 14579 14578 13538 13539 14644 14643 
13474 13475 14580 14579 13539 13540 14645 14644 
13475 13476 14581 14580 13540 13541 14646 14645 
13476 13477 14582 14581 13541 13542 14647 14646 
13477 13478 14583 14582 13542 13543 14648 14647 
13478 13479 14584 14583 13543 13544 14649 14648 
13479 13480 14585 14584 13544 13545 14650 14649 
13480 13481 14586 14585 13545 13546 14651 14650 
13481 13482 14587 14586 13546 13547 14652 14651 
13482 13483 14588 14587 13547 13548 14653 14652 
13483 13484 14589 14588 13548 13549 14654 14653 
13484 13485 14590 14589 13549 13550 14655 14654 
13485 13486 14591 14590 13550 13551 14656 14655 
13486 13487 14592 14591 13551 13552 14657 14656 
13487 13488 14593 14592 13552 13553 14658 14657 
13488 13489 14594 14593 13553 13554 14659 14658 
13489 13490 14595 14594 13554 13555 14660 14659 
13490 13491 14596 14595 13555 13556 14661 14660 
13491 13492 14597 14596 13556 13557 14662 14661 
13492 13493 14598 14597 13557 13558 14663 14662 
13493 13494 14599 14598 13558 13559 14664 14663 
13494 13495 14600 14599 13559 13560 14665 14664 
13495 13496 14601 14600 13560 13561 14666 14665 
13496 13497 14602 14601 13561 13562 14667 14666 
13497 13498 14603 14602 13562 13563 14668 14667 
13498 13499 14604 14603 13563 13564 14669 14668 
13499 13500 14605 14604 13564 13565 14670 14669 
13500 13501 14606 14605 13565 13566 14671 14670 
13501 13502 14607 14606 13566 13567 14672 14671 
13502 13503 14608 14607 13567 13568 14673 14672 
13503 13504 14609 14608 13568 13569 14674 14673 
13504 13505 14610 14609 13569 13570 14675 14674 
13505 13506 14611 14610 13570 13571 14676 14675 
13506 13507 14612 14611 13571 13572 14677 14676 
13507 13508 14613 14612 13572 13573 14678 14677 
13508 13509 14614 14613 13573 13574 14679 14678 
13509 13510 14615 14614 13574 13575 14680 14679 
13510 13511 14616 14615 13575 13576 14681 14680 
13511 13512 14617 14616 13576 13577 14682 14681 
13512 13513 14618 14617 13577 13578 14683 14682 
13513 13514 14619 14618 13578 13579 14684 14683 
13514 13515 14620 14619 13579 13580 14685 14684 
13515 13516 14621 14620 13580 13581 14686 14685 
13516 13517 14622 14621 13581 13582 14687 14686 
13517 13518 14623 14622 13582 13583 14688 14687 
13518 13519 14624 14623 13583 13584 14689 14688 
13520 13521 14626 14625 13585 13586 14691 14690 
13521 13522 14627 14626 13586 13587 14692 14691 
13522 13523 14628 14627 13587 13588 14693 14692 
13523 13524 14629 14628 13588 13589 14694 14693 
13524 13525 14630 14629 13589 13590 14695 14694 
13525 13526 14631 14630 13590 13591 14696 14695 
13526 13527 14632 14631 13591 13592 14697 14696 
13527 13528 14633 14632 13592 13593 14698 14697 
13528 13529 14634 14633 13593 13594 14699 14698 
13529 13530 14635 14634 13594 13595 14700 14699 
13530 13531 14636 14635 13595 13596 14701 14700 
13531 13532 14637 14636 13596 13597 14702 14701 
13532 13533 14638 14637 13597 13598 14703 14702 
13533 13534 14639 14638 13598 13599 14704 14703 
13534 13535 14640 14639 13599 13600 14705 14704 
13535 13536 14641 14640 13600 13601 14706 14705 
13536 13537 14642 14641 13601 13602 14707 14706 
13537 13538 14643 14642 13602 13603 14708 14707 
13538 13539 14644 14643 13603 13604 14709 14708 
13539 13540 14645 14644 13604 13605 14710 14709 
13540 13541 14646 14645 13605 13606 14711 14710 
13541 13542 14647 14646 13606 13607 14712 14711 
13542 13543 14648 14647 13607 13608 14713 14712 
13543 13544 14649 14648 13608 13609 14714 14713 
13544 13545 14650 14649 13609 13610 14715 14714 
13545 13546 14651 14650 13610 13611 14716 14715 
13546 13547 14652 14651 13611 13612 14717 14716 
13547 13548 14653 14652 13612 13613 14718 14717 
13548 13549 14654 14653 13613 13614 14719 14718 
13549 13550 14655 14654 13614 13615 14720 14719 
13550 13551 14656 14655 13615 13616 14721 14720 
13551 13552 14657 14656 13616 13617 14722 14721 
13552 13553 14658 14657 13617 13618 14723 14722 
13553 13554 14659 14658 13618 13619 14724 14723 
13554 13555 14660 14659 13619 13620 14725 14724 
13555 13556 14661 14660 13620 13621 14726 14725 
13556 13557 14662 14661 13621 13622 14727 14726 
13557 13558 14663 14662 13622 13623 14728 14727 
13558 13559 14664 14663 13623 13624 14729 14728 
13559 13560 14665 14664 13624 13625 14730 14729 
13560 13561 14666 14665 13625 13626 14731 14730 
13561 13562 14667 14666 13626 13627 14732 14731 
13562 13563 14668 14667 13627 13628 14733 14732 
13563 13564 14669 14668 13628 13629 14734 14733 
13564 13565 14670 14669 13629 13630 14735 14734 
13565 13566 14671 14670 13630 13631 14736 14735 
13566 13567 14672 14671 13631 13632 14737 14736 
13567 13568 14673 14672 13632 13633 14738 14737 
13568 13569 14674 14673 13633 13634 14739 14738 
13569 13570 14675 14674 13634 13635 14740 14739 
13570 13571 14676 14675 13635 13636 14741 14740 
13571 13572 14677 14676 13636 13637 14742 14741 
13572 13573 14678 14677 13637 13638 14743 14742 
13573 13574 14679 14678 13638 13639 14744 14743 
13574 13575 14680 14679 13639 13640 14745 14744 
13575 13576 14681 14680 13640 13641 14746 14745 
13576 13577 14682 14681 13641 13642 14747 14746 
13577 13578 14683 14682 13642 13643 14748 14747 
13578 13579 14684 14683 13643 13644 14749 14748 
13579 13580 14685 14684 13644 13645 14750 14749 
13580 13581 14686 14685 13645 13646 14751 14750 
13581 13582 14687 14686 13646 13647 14752 14751 
13582 13583 14688 14687 13647 13648 14753 14752 
13583 13584 14689 14688 13648 13649 14754 14753 
13585 13586 14691 14690 13650 13651 14756 14755 
13586 13587 14692 14691 13651 13652 14757 14756 
13587 13588 14693 14692 13652 13653 14758 14757 
13588 13589 14694 14693 13653 13654 14759 14758 
13589 13590 14695 14694 13654 13655 14760 14759 
13590 13591 14696 14695 13655 13656 14761 14760 
13591 13592 14697 14696 13656 13657 14762 14761 
13592 13593 14698 14697 13657 13658 14763 14762 
13593 13594 14699 14698 13658 13659 14764 14763 
13594 13595 14700 14699 13659 13660 14765 14764 
13595 13596 14701 14700 13660 13661 14766 14765 
13596 13597 14702 14701 13661 13662 14767 14766 
13597 13598 14703 14702 13662 13663 14768 14767 
13598 13599 14704 14703 13663 13664 14769 14768 
13599 13600 14705 14704 13664 13665 14770 14769 
13600 13601 14706 14705 13665 13666 14771 14770 
13601 13602 14707 14706 13666 13667 14772 14771 
13602 13603 14708 14707 13667 13668 14773 14772 
13603 13604 14709 14708 13668 13669 14774 14773 
13604 13605 14710 14709 13669 13670 14775 14774 
13605 13606 14711 14710 13670 13671 14776 14775 
13606 13607 14712 14711 13671 13672 14777 14776 
13607 13608 14713 14712 13672 13673 14778 14777 
13608 13609 14714 14713 13673 13674 14779 14778 
13609 13610 14715 14714 13674 13675 14780 14779 
13610 13611 14716 14715 13675 13676 14781 14780 
13611 13612 14717 14716 13676 13677 14782 14781 
13612 13613 14718 14717 13677 13678 14783 14782 
13613 13614 14719 14718 13678 13679 14784 14783 
13614 13615 14720 14719 13679 13680 14785 14784 
13615 13616 14721 14720 13680 13681 14786 14785 
13616 13617 14722 14721 13681 13682 14787 14786 
13617 13618 14723 14722 13682 13683 14788 14787 
13618 13619 14724 14723 13683 13684 14789 14788 
13619 13620 14725 14724 13684 13685 14790 14789 
13620 13621 14726 14725 13685 13686 14791 14790 
13621 13622 14727 14726 13686 13687 14792 14791 
13622 13623 14728 14727 13687 13688 14793 14792 
13623 13624 14729 14728 13688 13689 14794 14793 
13624 13625 14730 14729 13689 13690 14795 14794 
13625 13626 14731 14730 13690 13691 14796 14795 
13626 13627 14732 14731 13691 13692 14797 14796 
13627 13628 14733 14732 13692 13693 14798 14797 
13628 13629 14734 14733 13693 13694 14799 14798 
13629 13630 14735 14734 13694 13695 14800 14799 
13630 13631 14736 14735 13695 13696 14801 14800 
13631 13632 14737 14736 13696 13697 14802 14801 
13632 13633 14738 14737 13697 13698 14803 14802 
13633 13634 14739 14738 13698 13699 14804 14803 
13634 13635 14740 14739 13699 13700 14805 14804 
13635 13636 14741 14740 13700 13701 14806 14805 
13636 13637 14742 14741 13701 13702 14807 14806 
13637 13638 14743 14742 13702 13703 14808 14807 
13638 13639 14744 14743 13703 13704 14809 14808 
13639 13640 14745 14744 13704 13705 14810 14809 
13640 13641 14746 14745 13705 13706 14811 14810 
13641 13642 14747 14746 13706 13707 14812 14811 
13642 13643 14748 14747 13707 13708 14813 14812 
13643 13644 14749 14748 13708 13709 14814 14813 
13644 13645 14750 14749 13709 13710 14815 14814 
13645 13646 14751 14750 13710 13711 14816 14815 
13646 13647 14752 14751 13711 13712 14817 14816 
13647 13648 14753 14752 13712 13713 14818 14817 
13648 13649 14754 14753 13713 13714 14819 14818 
13650 13651 14756 14755 13715 13716 14821 14820 
13651 13652 14757 14756 13716 13717 14822 14821 
13652 13653 14758 14757 13717 13718 14823 14822 
13653 13654 14759 14758 13718 13719 14824 14823 
13654 13655 14760 14759 13719 13720 14825 14824 
13655 13656 14761 14760 13720 13721 14826 14825 
13656 13657 14762 14761 13721 13722 14827 14826 
13657 13658 14763 14762 13722 13723 14828 14827 
13658 13659 14764 14763 13723 13724 14829 14828 
13659 13660 14765 14764 13724 13725 14830 14829 
13660 13661 14766 14765 13725 13726 14831 14830 
13661 13662 14767 14766 13726 13727 14832 14831 
13662 13663 14768 14767 13727 13728 14833 14832 
13663 13664 14769 14768 13728 13729 14834 14833 
13664 13665 14770 14769 13729 13730 14835 14834 
13665 13666 14771 14770 13730 13731 14836 14835 
13666 13667 14772 14771 13731 13732 14837 14836 
13667 13668 14773 14772 13732 13733 14838 14837 
13668 13669 14774 14773 13733 13734 14839 14838 
13669 13670 14775 14774 13734 13735 14840 14839 
13670 13671 14776 14775 13735 13736 14841 14840 
13671 13672 14777 14776 13736 13737 14842 14841 
13672 13673 14778 14777 13737 13738 14843 14842 
13673 13674 14779 14778 13738 13739 14844 14843 
13674 13675 14780 14779 13739 13740 14845 14844 
13675 13676 14781 14780 13740 13741 14846 14845 
13676 13677 14782 14781 13741 13742 14847 14846 
13677 13678 14783 14782 13742 13743 14848 14847 
13678 13679 14784 14783 13743 13744 14849 14848 
13679 13680 14785 14784 13744 13745 14850 14849 
13680 13681 14786 14785 13745 13746 14851 14850 
13681 13682 14787 14786 13746 13747 14852 14851 
13682 13683 14788 14787 13747 13748 14853 14852 
13683 13684 14789 14788 13748 13749 14854 14853 
13684 13685 14790 14789 13749 13750 14855 14854 
13685 13686 14791 14790 13750 13751 14856 14855 
13686 13687 14792 14791 13751 13752 14857 14856 
13687 13688 14793 14792 13752 13753 14858 14857 
13688 13689 14794 14793 13753 13754 14859 14858 
13689 13690 14795 14794 13754 13755 14860 14859 
13690 13691 14796 14795 13755 13756 14861 14860 
13691 13692 14797 14796 13756 13757 14862 14861 
13692 13693 14798 14797 13757 13758 14863 14862 
13693 13694 14799 14798 13758 13759 14864 14863 
13694 13695 14800 14799 13759 13760 14865 14864 
13695 13696 14801 14800 13760 13761 14866 14865 
13696 13697 14802 14801 13761 13762 14867 14866 
13697 13698 14803 14802 13762 13763 14868 14867 
13698 13699 14804 14803 13763 13764 14869 14868 
13699 13700 14805 14804 13764 13765 14870 14869 
13700 13701 14806 14805 13765 13766 14871 14870 
13701 13702 14807 14806 13766 13767 14872 14871 
13702 13703 14808 14807 13767 13768 14873 14872 
13703 13704 14809 14808 13768 13769 14874 14873 
13704 13705 14810 14809 13769 13770 14875 14874 
13705 13706 14811 14810 13770 13771 14876 14875 
13706 13707 14812 14811 13771 13772 14877 14876 
13707 13708 14813 14812 13772 13773 14878 14877 
13708 13709 14814 14813 13773 13774 14879 14878 
13709 13710 14815 14814 13774 13775 14880 14879 
13710 13711 14816 14815 13775 13776 14881 14880 
13711 13712 14817 14816 13776 13777 14882 14881 
13712 13713 14818 14817 13777 13778 14883 14882 
13713 13714 14819 14818 13778 13779 14884 14883 
13715 13716 14821 14820 13780 13781 14886 14885 
13716 13717 14822 14821 13781 13782 14887 14886 
13717 13718 14823 14822 13782 13783 14888 14887 
13718 13719 14824 14823 13783 13784 14889 14888 
13719 13720 14825 14824 13784 13785 14890 14889 
13720 13721 14826 14825 13785 13786 14891 14890 
13721 13722 14827 14826 13786 13787 14892 14891 
13722 13723 14828 14827 13787 13788 14893 14892 
13723 13724 14829 14828 13788 13789 14894 14893 
13724 13725 14830 14829 13789 13790 14895 14894 
13725 13726 14831 14830 13790 13791 14896 14895 
13726 13727 14832 14831 13791 13792 14897 14896 
13727 13728 14833 14832 13792 13793 14898 14897 
13728 13729 14834 14833 13793 13794 14899 14898 
13729 13730 14835 14834 13794 13795 14900 14899 
13730 13731 14836 14835 13795 13796 14901 14900 
13731 13732 14837 14836 13796 13797 14902 14901 
13732 13733 14838 14837 13797 13798 14903 14902 
13733 13734 14839 14838 13798 13799 14904 14903 
13734 13735 14840 14839 13799 13800 14905 14904 
13735 13736 14841 14840 13800 13801 14906 14905 
13736 13737 14842 14841 13801 13802 14907 14906 
13737 13738 14843 14842 13802 13803 14908 14907 
13738 13739 14844 14843 13803 13804 14909 14908 
13739 13740 14845 14844 13804 13805 14910 14909 
13740 13741 14846 14845 13805 13806 14911 14910 
13741 13742 14847 14846 13806 13807 14912 14911 
13742 13743 14848 14847 13807 13808 14913 14912 
13743 13744 14849 14848 13808 13809 14914 14913 
13744 13745 14850 14849 13809 13810 14915 14914 
13745 13746 14851 14850 13810 13811 14916 14915 
13746 13747 14852 14851 13811 13812 14917 14916 
13747 13748 14853 14852 13812 13813 14918 14917 
13748 13749 14854 14853 13813 13814 14919 14918 
13749 13750 14855 14854 13814 13815 14920 14919 
13750 13751 14856 14855 13815 13816 14921 14920 
13751 13752 14857 14856 13816 13817 14922 14921 
13752 13753 14858 14857 13817 13818 14923 14922 
13753 13754 14859 14858 13818 13819 14924 14923 
13754 13755 14860 14859 13819 13820 14925 14924 
13755 13756 14861 14860 13820 13821 14926 14925 
13756 13757 14862 14861 13821 13822 14927 14926 
13757 13758 14863 14862 13822 13823 14928 14927 
13758 13759 14864 14863 13823 13824 14929 14928 
13759 13760 14865 14864 13824 13825 14930 14929 
13760 13761 14866 14865 13825 13826 14931 14930 
13761 13762 14867 14866 13826 13827 14932 14931 
13762 13763 14868 14867 13827 13828 14933 14932 
13763 13764 14869 14868 13828 13829 14934 14933 
13764 13765 14870 14869 13829 13830 14935 14934 
13765 13766 14871 14870 13830 13831 14936 14935 
13766 13767 14872 14871 13831 13832 14937 14936 
13767 13768 14873 14872 13832 13833 14938 14937 
13768 13769 14874 14873 13833 13834 14939 14938 
13769 13770 14875 14874 13834 13835 14940 14939 
13770 13771 14876 14875 13835 13836 14941 14940 
13771 13772 14877 14876 13836 13837 14942 14941 
13772 13773 14878 14877 13837 13838 14943 14942 
13773 13774 14879 14878 13838 13839 14944 14943 
13774 13775 14880 14879 13839 13840 14945 14944 
13775 13776 14881 14880 13840 13841 14946 14945 
13776 13777 14882 14881 13841 13842 14947 14946 
13777 13778 14883 14882 13842 13843 14948 14947 
13778 13779 14884 14883 13843 13844 14949 14948 
13780 13781 14886 14885 13845 13846 14951 14950 
13781 13782 14887 14886 13846 13847 14952 14951 
13782 13783 14888 14887 13847 13848 14953 14952 
13783 13784 14889 14888 13848 13849 14954 14953 
13784 13785 14890 14889 13849 13850 14955 14954 
13785 13786 14891 14890 13850 13851 14956 14955 
13786 13787 14892 14891 13851 13852 14957 14956 
13787 13788 14893 14892 13852 13853 14958 14957 
13788 13789 14894 14893 13853 13854 14959 14958 
13789 13790 14895 14894 13854 13855 14960 14959 
13790 13791 14896 14895 13855 13856 14961 14960 
13791 13792 14897 14896 13856 13857 14962 14961 
13792 13793 14898 14897 13857 13858 14963 14962 
13793 13794 14899 14898 13858 13859 14964 14963 
13794 13795 14900 14899 13859 13860 14965 14964 
13795 13796 14901 14900 13860 13861 14966 14965 
13796 13797 14902 14901 13861 13862 14967 14966 
13797 13798 14903 14902 13862 13863 14968 14967 
13798 13799 14904 14903 13863 13864 14969 14968 
13799 13800 14905 14904 13864 13865 14970 14969 
13800 13801 14906 14905 13865 13866 14971 14970 
13801 13802 14907 14906 13866 13867 14972 14971 
13802 13803 14908 14907 13867 13868 14973 14972 
13803 13804 14909 14908 13868 13869 14974 14973 
13804 13805 14910 14909 13869 13870 14975 14974 
13805 13806 14911 14910 13870 13871 14976 14975 
13806 13807 14912 14911 13871 13872 14977 14976 
13807 13808 14913 14912 13872 13873 14978 14977 
13808 13809 14914 14913 13873 13874 14979 14978 
13809 13810 14915 14914 13874 13875 14980 14979 
13810 13811 14916 14915 13875 13876 14981 14980 
13811 13812 14917 14916 13876 13877 14982 14981 
13812 13813 14918 14917 13877 13878 14983 14982 
13813 13814 14919 14918 13878 13879 14984 14983 
13814 13815 14920 14919 13879 13880 14985 14984 
13815 13816 14921 14920 13880 13881 14986 14985 
13816 13817 14922 14921 13881 13882 14987 14986 
13817 13818 14923 14922 13882 13883 14988 14987 
13818 13819 14924 14923 13883 13884 14989 14988 
13819 13820 14925 14924 13884 13885 14990 14989 
13820 13821 14926 14925 13885 13886 14991 14990 
13821 13822 14927 14926 13886 13887 14992 14991 
13822 13823 14928 14927 13887 13888 14993 14992 
13823 13824 14929 14928 13888 13889 14994 14993 
13824 13825 14930 14929 13889 13890 14995 14994 
13825 13826 14931 14930 13890 13891 14996 14995 
13826 13827 14932 14931 13891 13892 14997 14996 
13827 13828 14933 14932 13892 13893 14998 14997 
13828 13829 14934 14933 13893 13894 14999 14998 
13829 13830 14935 14934 13894 13895 15000 14999 
13830 13831 14936 14935 13895 13896 15001 15000 
13831 13832 14937 14936 13896 13897 15002 15001 
13832 13833 14938 14937 13897 13898 15003 15002 
13833 13834 14939 14938 13898 13899 15004 15003 
13834 13835 14940 14939 13899 13900 15005 15004 
13835 13836 14941 14940 13900 13901 15006 15005 
13836 13837 14942 14941 13901 13902 15007 15006 
13837 13838 14943 14942 13902 13903 15008 15007 
13838 13839 14944 14943 13903 13904 15009 15008 
13839 13840 14945 14944 13904 13905 15010 15009 
13840 13841 14946 14945 13905 13906 15011 15010 
13841 13842 14947 14946 13906 13907 15012 15011 
13842 13843 14948 14947 13907 13908 15013 15012 
13843 13844 14949 14948 13908 13909 15014 15013 
13845 13846 14951 14950 13910 13911 15016 15015 
13846 13847 14952 14951 13911 13912 15017 15016 
13847 13848 14953 14952 13912 13913 15018 15017 
13848 13849 14954 14953 13913 13914 15019 15018 
13849 13850 14955 14954 13914 13915 15020 15019 
13850 13851 14956 14955 13915 13916 15021 15020 
13851 13852 14957 14956 13916 13917 15022 15021 
13852 13853 14958 14957 13917 13918 15023 15022 
13853 13854 14959 14958 13918 13919 15024 15023 
13854 13855 14960 14959 13919 13920 15025 15024 
13855 13856 14961 14960 13920 13921 15026 15025 
13856 13857 14962 14961 13921 13922 15027 15026 
13857 13858 14963 14962 13922 13923 15028 15027 
13858 13859 14964 14963 13923 13924 15029 15028 
13859 13860 14965 14964 13924 13925 15030 15029 
13860 13861 14966 14965 13925 13926 15031 15030 
13861 13862 14967 14966 13926 13927 15032 15031 
13862 13863 14968 14967 13927 13928 15033 15032 
13863 13864 14969 14968 13928 13929 15034 15033 
13864 13865 14970 14969 13929 13930 15035 15034 
13865 13866 14971 14970 13930 13931 15036 15035 
13866 13867 14972 14971 13931 13932 15037 15036 
13867 13868 14973 14972 13932 13933 15038 15037 
13868 13869 14974 14973 13933 13934 15039 15038 
13869 13870 14975 14974 13934 13935 15040 15039 
13870 13871 14976 14975 13935 13936 15041 15040 
13871 13872 14977 14976 13936 13937 15042 15041 
13872 13873 14978 14977 13937 13938 15043 15042 
13873 13874 14979 14978 13938 13939 15044 15043 
13874 13875 14980 14979 13939 13940 15045 15044 
13875 13876 14981 14980 13940 13941 15046 15045 
13876 13877 14982 14981 13941 13942 15047 15046 
13877 13878 14983 14982 13942 13943 15048 15047 
13878 13879 14984 14983 13943 13944 15049 15048 
13879 13880 14985 14984 13944 13945 15050 15049 
13880 13881 14986 14985 13945 13946 15051 15050 
13881 13882 14987 14986 13946 13947 15052 15051 
13882 13883 14988 14987 13947 13948 15053 15052 
13883 13884 14989 14988 13948 13949 15054 15053 
13884 13885 14990 14989 13949 13950 15055 15054 
13885 13886 14991 14990 13950 13951 15056 15055 
13886 13887 14992 14991 13951 13952 15057 15056 
13887 13888 14993 14992 13952 13953 15058 15057 
13888 13889 14994 14993 13953 13954 15059 15058 
13889 13890 14995 14994 13954 13955 15060 15059 
13890 13891 14996 14995 13955 13956 15061 15060 
13891 13892 14997 14996 13956 13957 15062 15061 
13892 13893 14998 14997 13957 13958 15063 15062 
13893 13894 14999 14998 13958 13959 15064 15063 
13894 13895 15000 14999 13959 13960 15065 15064 
13895 13896 15001 15000 13960 13961 15066 15065 
13896 13897 15002 15001 13961 13962 15067 15066 
13897 13898 15003 15002 13962 13963 15068 15067 
13898 13899 15004 15003 13963 13964 15069 15068 
13899 13900 15005 15004 13964 13965 15070 15069 
13900 13901 15006 15005 13965 13966 15071 15070 
13901 13902 15007 15006 13966 13967 15072 15071 
13902 13903 15008 15007 13967 13968 15073 15072 
13903 13904 15009 15008 13968 13969 15074 15073 
13904 13905 15010 15009 13969 13970 15075 15074 
13905 13906 15011 15010 13970 13971 15076 15075 
13906 13907 15012 15011 13971 13972 15077 15076 
13907 13908 15013 15012 13972 13973 15078 15077 
13908 13909 15014 15013 13973 13974 15079 15078 
13910 13911 15016 15015 13975 13976 15081 15080 
13911 13912 15017 15016 13976 13977 15082 15081 
13912 13913 15018 15017 13977 13978 15083 15082 
13913 13914 15019 15018 13978 13979 15084 15083 
13914 13915 15020 15019 13979 13980 15085 15084 
13915 13916 15021 15020 13980 13981 15086 15085 
13916 13917 15022 15021 13981 13982 15087 15086 
13917 13918 15023 15022 13982 13983 15088 15087 
13918 13919 15024 15023 13983 13984 15089 15088 
13919 13920 15025 15024 13984 13985 15090 15089 
13920 13921 15026 15025 13985 13986 15091 15090 
13921 13922 15027 15026 13986 13987 15092 15091 
13922 13923 15028 15027 13987 13988 15093 15092 
13923 13924 15029 15028 13988 13989 15094 15093 
13924 13925 15030 15029 13989 13990 15095 15094 
13925 13926 15031 15030 13990 13991 15096 15095 
13926 13927 15032 15031 13991 13992 15097 15096 
13927 13928 15033 15032 13992 13993 15098 15097 
13928 13929 15034 15033 13993 13994 15099 15098 
13929 13930 15035 15034 13994 13995 15100 15099 
13930 13931 15036 15035 13995 13996 15101 15100 
13931 13932 15037 15036 13996 13997 15102 15101 
13932 13933 15038 15037 13997 13998 15103 15102 
13933 13934 15039 15038 13998 13999 15104 15103 
13934 13935 15040 15039 13999 14000 15105 15104 
13935 13936 15041 15040 14000 14001 15106 15105 
13936 13937 15042 15041 14001 14002 15107 15106 
13937 13938 15043 15042 14002 14003 15108 15107 
13938 13939 15044 15043 14003 14004 15109 15108 
13939 13940 15045 15044 14004 14005 15110 15109 
13940 13941 15046 15045 14005 14006 15111 15110 
13941 13942 15047 15046 14006 14007 15112 15111 
13942 13943 15048 15047 14007 14008 15113 15112 
13943 13944 15049 15048 14008 14009 15114 15113 
13944 13945 15050 15049 14009 14010 15115 15114 
13945 13946 15051 15050 14010 14011 15116 15115 
13946 13947 15052 15051 14011 14012 15117 15116 
13947 13948 15053 15052 14012 14013 15118 15117 
13948 13949 15054 15053 14013 14014 15119 15118 
13949 13950 15055 15054 14014 14015 15120 15119 
13950 13951 15056 15055 14015 14016 15121 15120 
13951 13952 15057 15056 14016 14017 15122 15121 
13952 13953 15058 15057 14017 14018 15123 15122 
13953 13954 15059 15058 14018 14019 15124 15123 
13954 13955 15060 15059 14019 14020 15125 15124 
13955 13956 15061 15060 14020 14021 15126 15125 
13956 13957 15062 15061 14021 14022 15127 15126 
13957 13958 15063 15062 14022 14023 15128 15127 
13958 13959 15064 15063 14023 14024 15129 15128 
13959 13960 15065 15064 14024 14025 15130 15129 
13960 13961 15066 15065 14025 14026 15131 15130 
13961 13962 15067 15066 14026 14027 15132 15131 
13962 13963 15068 15067 14027 14028 15133 15132 
13963 13964 15069 15068 14028 14029 15134 15133 
13964 13965 15070 15069 14029 14030 15135 15134 
13965 13966 15071 15070 14030 14031 15136 15135 
13966 13967 15072 15071 14031 14032 15137 15136 
13967 13968 15073 15072 14032 14033 15138 15137 
13968 13969 15074 15073 14033 14034 15139 15138 
13969 13970 15075 15074 14034 14035 15140 15139 
13970 13971 15076 15075 14035 14036 15141 15140 
13971 13972 15077 15076 14036 14037 15142 15141 
13972 13973 15078 15077 14037 14038 15143 15142 
13973 13974 15079 15078 14038 14039 15144 15143 
13975 13976 15081 15080 14040 14041 15146 15145 
13976 13977 15082 15081 14041 14042 15147 15146 
13977 13978 15083 15082 14042 14043 15148 15147 
13978 13979 15084 15083 14043 14044 15149 15148 
13979 13980 15085 15084 14044 14045 15150 15149 
13980 13981 15086 15085 14045 14046 15151 15150 
13981 13982 15087 15086 14046 14047 15152 15151 
13982 13983 15088 15087 14047 14048 15153 15152 
13983 13984 15089 15088 14048 14049 15154 15153 
13984 13985 15090 15089 14049 14050 15155 15154 
13985 13986 15091 15090 14050 14051 15156 15155 
13986 13987 15092 15091 14051 14052 15157 15156 
13987 13988 15093 15092 14052 14053 15158 15157 
13988 13989 15094 15093 14053 14054 15159 15158 
13989 13990 15095 15094 14054 14055 15160 15159 
13990 13991 15096 15095 14055 14056 15161 15160 
13991 13992 15097 15096 14056 14057 15162 15161 
13992 13993 15098 15097 14057 14058 15163 15162 
13993 13994 15099 15098 14058 14059 15164 15163 
13994 13995 15100 15099 14059 14060 15165 15164 
13995 13996 15101 15100 14060 14061 15166 15165 
13996 13997 15102 15101 14061 14062 15167 15166 
13997 13998 15103 15102 14062 14063 15168 15167 
13998 13999 15104 15103 14063 14064 15169 15168 
13999 14000 15105 15104 14064 14065 15170 15169 
14000 14001 15106 15105 14065 14066 15171 15170 
14001 14002 15107 15106 14066 14067 15172 15171 
14002 14003 15108 15107 14067 14068 15173 15172 
14003 14004 15109 15108 14068 14069 15174 15173 
14004 14005 15110 15109 14069 14070 15175 15174 
14005 14006 15111 15110 14070 14071 15176 15175 
14006 14007 15112 15111 14071 14072 15177 15176 
14007 14008 15113 15112 14072 14073 15178 15177 
14008 14009 15114 15113 14073 14074 15179 15178 
14009 14010 15115 15114 14074 14075 15180 15179 
14010 14011 15116 15115 14075 14076 15181 15180 
14011 14012 15117 15116 14076 14077 15182 15181 
14012 14013 15118 15117 14077 14078 15183 15182 
14013 14014 15119 15118 14078 14079 15184 15183 
14014 14015 15120 15119 14079 14080 15185 15184 
14015 14016 15121 15120 14080 14081 15186 15185 
14016 14017 15122 15121 14081 14082 15187 15186 
14017 14018 15123 15122 14082 14083 15188 15187 
14018 14019 15124 15123 14083 14084 15189 15188 
14019 14020 15125 15124 14084 14085 15190 15189 
14020 14021 15126 15125 14085 14086 15191 15190 
14021 14022 15127 15126 14086 14087 15192 15191 
14022 14023 15128 15127 14087 14088 15193 15192 
14023 14024 15129 15128 14088 14089 15194 15193 
14024 14025 15130 15129 14089 14090 15195 15194 
14025 14026 15131 15130 14090 14091 15196 15195 
14026 14027 15132 15131 14091 14092 15197 15196 
14027 14028 15133 15132 14092 14093 15198 15197 
14028 14029 15134 15133 14093 14094 15199 15198 
14029 14030 15135 15134 14094 14095 15200 15199 
14030 14031 15136 15135 14095 14096 15201 15200 
14031 14032 15137 15136 14096 14097 15202 15201 
14032 14033 15138 15137 14097 14098 15203 15202 
14033 14034 15139 15138 14098 14099 15204 15203 
14034 14035 15140 15139 14099 14100 15205 15204 
14035 14036 15141 15140 14100 14101 15206 15205 
14036 14037 15142 15141 14101 14102 15207 15206 
14037 14038 15143 15142 14102 14103 15208 15207 
14038 14039 15144 15143 14103 14104 15209 15208 
14040 14041 15146 15145 14105 14106 15211 15210 
14041 14042 15147 15146 14106 14107 15212 15211 
14042 14043 15148 15147 14107 14108 15213 15212 
14043 14044 15149 15148 14108 14109 15214 15213 
14044 14045 15150 15149 14109 14110 15215 15214 
14045 14046 15151 15150 14110 14111 15216 15215 
14046 14047 15152 15151 14111 14112 15217 15216 
14047 14048 15153 15152 14112 14113 15218 15217 
14048 14049 15154 15153 14113 14114 15219 15218 
14049 14050 15155 15154 14114 14115 15220 15219 
14050 14051 15156 15155 14115 14116 15221 15220 
14051 14052 15157 15156 14116 14117 15222 15221 
14052 14053 15158 15157 14117 14118 15223 15222 
14053 14054 15159 15158 14118 14119 15224 15223 
14054 14055 15160 15159 14119 14120 15225 15224 
14055 14056 15161 15160 14120 14121 15226 15225 
14056 14057 15162 15161 14121 14122 15227 15226 
14057 14058 15163 15162 14122 14123 15228 15227 
14058 14059 15164 15163 14123 14124 15229 15228 
14059 14060 15165 15164 14124 14125 15230 15229 
14060 14061 15166 15165 14125 14126 15231 15230 
14061 14062 15167 15166 14126 14127 15232 15231 
14062 14063 15168 15167 14127 14128 15233 15232 
14063 14064 15169 15168 14128 14129 15234 15233 
14064 14065 15170 15169 14129 14130 15235 15234 
14065 14066 15171 15170 14130 14131 15236 15235 
14066 14067 15172 15171 14131 14132 15237 15236 
14067 14068 15173 15172 14132 14133 15238 15237 
14068 14069 15174 15173 14133 14134 15239 15238 
14069 14070 15175 15174 14134 14135 15240 15239 
14070 14071 15176 15175 14135 14136 15241 15240 
14071 14072 15177 15176 14136 14137 15242 15241 
14072 14073 15178 15177 14137 14138 15243 15242 
14073 14074 15179 15178 14138 14139 15244 15243 
14074 14075 15180 15179 14139 14140 15245 15244 
14075 14076 15181 15180 14140 14141 15246 15245 
14076 14077 15182 15181 14141 14142 15247 15246 
14077 14078 15183 15182 14142 14143 15248 15247 
14078 14079 15184 15183 14143 14144 15249 15248 
14079 14080 15185 15184 14144 14145 15250 15249 
14080 14081 15186 15185 14145 14146 15251 15250 
14081 14082 15187 15186 14146 14147 15252 15251 
14082 14083 15188 15187 14147 14148 15253 15252 
14083 14084 15189 15188 14148 14149 15254 15253 
14084 14085 15190 15189 14149 14150 15255 15254 
14085 14086 15191 15190 14150 14151 15256 15255 
14086 14087 15192 15191 14151 14152 15257 15256 
14087 14088 15193 15192 14152 14153 15258 15257 
14088 14089 15194 15193 14153 14154 15259 15258 
14089 14090 15195 15194 14154 14155 15260 15259 
14090 14091 15196 15195 14155 14156 15261 15260 
14091 14092 15197 15196 14156 14157 15262 15261 
14092 14093 15198 15197 14157 14158 15263 15262 
14093 14094 15199 15198 14158 14159 15264 15263 
14094 14095 15200 15199 14159 14160 15265 15264 
14095 14096 15201 15200 14160 14161 15266 15265 
14096 14097 15202 15201 14161 14162 15267 15266 
14097 14098 15203 15202 14162 14163 15268 15267 
14098 14099 15204 15203 14163 14164 15269 15268 
14099 14100 15205 15204 14164 14165 15270 15269 
14100 14101 15206 15205 14165 14166 15271 15270 
14101 14102 15207 15206 14166 14167 15272 15271 
14102 14103 15208 15207 14167 14168 15273 15272 
14103 14104 15209 15208 14168 14169 15274 15273 
14105 14106 15211 15210 14170 14171 15276 15275 
14106 14107 15212 15211 14171 14172 15277 15276 
14107 14108 15213 15212 14172 14173 15278 15277 
14108 14109 15214 15213 14173 14174 15279 15278 
14109 14110 15215 15214 14174 14175 15280 15279 
14110 14111 15216 15215 14175 14176 15281 15280 
14111 14112 15217 15216 14176 14177 15282 15281 
14112 14113 15218 15217 14177 14178 15283 15282 
14113 14114 15219 15218 14178 14179 15284 15283 
14114 14115 15220 15219 14179 14180 15285 15284 
14115 14116 15221 15220 14180 14181 15286 15285 
14116 14117 15222 15221 14181 14182 15287 15286 
14117 14118 15223 15222 14182 14183 15288 15287 
14118 14119 15224 15223 14183 14184 15289 15288 
14119 14120 15225 15224 14184 14185 15290 15289 
14120 14121 15226 15225 14185 14186 15291 15290 
14121 14122 15227 15226 14186 14187 15292 15291 
14122 14123 15228 15227 14187 14188 15293 15292 
14123 14124 15229 15228 14188 14189 15294 15293 
14124 14125 15230 15229 14189 14190 15295 15294 
14125 14126 15231 15230 14190 14191 15296 15295 
14126 14127 15232 15231 14191 14192 15297 15296 
14127 14128 15233 15232 14192 14193 15298 15297 
14128 14129 15234 15233 14193 14194 15299 15298 
14129 14130 15235 15234 14194 14195 15300 15299 
14130 14131 15236 15235 14195 14196 15301 15300 
14131 14132 15237 15236 14196 14197 15302 15301 
14132 14133 15238 15237 14197 14198 15303 15302 
14133 14134 15239 15238 14198 14199 15304 15303 
14134 14135 15240 15239 14199 14200 15305 15304 
14135 14136 15241 15240 14200 14201 15306 15305 
14136 14137 15242 15241 14201 14202 15307 15306 
14137 14138 15243 15242 14202 14203 15308 15307 
14138 14139 15244 15243 14203 14204 15309 15308 
14139 14140 15245 15244 14204 14205 15310 15309 
14140 14141 15246 15245 14205 14206 15311 15310 
14141 14142 15247 15246 14206 14207 15312 15311 
14142 14143 15248 15247 14207 14208 15313 15312 
14143 14144 15249 15248 14208 14209 15314 15313 
14144 14145 15250 15249 14209 14210 15315 15314 
14145 14146 15251 15250 14210 14211 15316 15315 
14146 14147 15252 15251 14211 14212 15317 15316 
14147 14148 15253 15252 14212 14213 15318 15317 
14148 14149 15254 15253 14213 14214 15319 15318 
14149 14150 15255 15254 14214 14215 15320 15319 
14150 14151 15256 15255 14215 14216 15321 15320 
14151 14152 15257 15256 14216 14217 15322 15321 
14152 14153 15258 15257 14217 14218 15323 15322 
14153 14154 15259 15258 14218 14219 15324 15323 
14154 14155 15260 15259 14219 14220 15325 15324 
14155 14156 15261 15260 14220 14221 15326 15325 
14156 14157 15262 15261 14221 14222 15327 15326 
14157 14158 15263 15262 14222 14223 15328 15327 
14158 14159 15264 15263 14223 14224 15329 15328 
14159 14160 15265 15264 14224 14225 15330 15329 
14160 14161 15266 15265 14225 14226 15331 15330 
14161 14162 15267 15266 14226 14227 15332 15331 
14162 14163 15268 15267 14227 14228 15333 15332 
14163 14164 15269 15268 14228 14229 15334 15333 
14164 14165 15270 15269 14229 14230 15335 15334 
14165 14166 15271 15270 14230 14231 15336 15335 
14166 14167 15272 15271 14231 14232 15337 15336 
14167 14168 15273 15272 14232 14233 15338 15337 
14168 14169 15274 15273 14233 14234 15339 15338 
14170 14171 15276 15275 14235 14236 15341 15340 
14171 14172 15277 15276 14236 14237 15342 15341 
14172 14173 15278 15277 14237 14238 15343 15342 
14173 14174 15279 15278 14238 14239 15344 15343 
14174 14175 15280 15279 14239 14240 15345 15344 
14175 14176 15281 15280 14240 14241 15346 15345 
14176 14177 15282 15281 14241 14242 15347 15346 
14177 14178 15283 15282 14242 14243 15348 15347 
14178 14179 15284 15283 14243 14244 15349 15348 
14179 14180 15285 15284 14244 14245 15350 15349 
14180 14181 15286 15285 14245 14246 15351 15350 
14181 14182 15287 15286 14246 14247 15352 15351 
14182 14183 15288 15287 14247 14248 15353 15352 
14183 14184 15289 15288 14248 14249 15354 15353 
14184 14185 15290 15289 14249 14250 15355 15354 
14185 14186 15291 15290 14250 14251 15356 15355 
14186 14187 15292 15291 14251 14252 15357 15356 
14187 14188 15293 15292 14252 14253 15358 15357 
14188 14189 15294 15293 14253 14254 15359 15358 
14189 14190 15295 15294 14254 14255 15360 15359 
14190 14191 15296 15295 14255 14256 15361 15360 
14191 14192 15297 15296 14256 14257 15362 15361 
14192 14193 15298 15297 14257 14258 15363 15362 
14193 14194 15299 15298 14258 14259 15364 15363 
14194 14195 15300 15299 14259 14260 15365 15364 
14195 14196 15301 15300 14260 14261 15366 15365 
14196 14197 15302 15301 14261 14262 15367 15366 
14197 14198 15303 15302 14262 14263 15368 15367 
14198 14199 15304 15303 14263 14264 15369 15368 
14199 14200 15305 15304 14264 14265 15370 15369 
14200 14201 15306 15305 14265 14266 15371 15370 
14201 14202 15307 15306 14266 14267 15372 15371 
14202 14203 15308 15307 14267 14268 15373 15372 
14203 14204 15309 15308 14268 14269 15374 15373 
14204 14205 15310 15309 14269 14270 15375 15374 
14205 14206 15311 15310 14270 14271 15376 15375 
14206 14207 15312 15311 14271 14272 15377 15376 
14207 14208 15313 15312 14272 14273 15378 15377 
14208 14209 15314 15313 14273 14274 15379 15378 
14209 14210 15315 15314 14274 14275 15380 15379 
14210 14211 15316 15315 14275 14276 15381 15380 
14211 14212 15317 15316 14276 14277 15382 15381 
14212 14213 15318 15317 14277 14278 15383 15382 
14213 14214 15319 15318 14278 14279 15384 15383 
14214 14215 15320 15319 14279 14280 15385 15384 
14215 14216 15321 15320 14280 14281 15386 15385 
14216 14217 15322 15321 14281 14282 15387 15386 
14217 14218 15323 15322 14282 14283 15388 15387 
14218 14219 15324 15323 14283 14284 15389 15388 
14219 14220 15325 15324 14284 14285 15390 15389 
14220 14221 15326 15325 14285 14286 15391 15390 
14221 14222 15327 15326 14286 14287 15392 15391 
14222 14223 15328 15327 14287 14288 15393 15392 
14223 14224 15329 15328 14288 14289 15394 15393 
14224 14225 15330 15329 14289 14290 15395 15394 
14225 14226 15331 15330 14290 14291 15396 15395 
14226 14227 15332 15331 14291 14292 15397 15396 
14227 14228 15333 15332 14292 14293 15398 15397 
14228 14229 15334 15333 14293 14294 15399 15398 
14229 14230 15335 15334 14294 14295 15400 15399 
14230 14231 15336 15335 14295 14296 15401 15400 
14231 14232 15337 15336 14296 14297 15402 15401 
14232 14233 15338 15337 14297 14298 15403 15402 
14233 14234 15339 15338 14298 14299 15404 15403 
14235 14236 15341 15340 14300 14301 15406 15405 
14236 14237 15342 15341 14301 14302 15407 15406 
14237 14238 15343 15342 14302 14303 15408 15407 
14238 14239 15344 15343 14303 14304 15409 15408 
14239 14240 15345 15344 14304 14305 15410 15409 
14240 14241 15346 15345 14305 14306 15411 15410 
14241 14242 15347 15346 14306 14307 15412 15411 
14242 14243 15348 15347 14307 14308 15413 15412 
14243 14244 15349 15348 14308 14309 15414 15413 
14244 14245 15350 15349 14309 14310 15415 15414 
14245 14246 15351 15350 14310 14311 15416 15415 
14246 14247 15352 15351 14311 14312 15417 15416 
14247 14248 15353 15352 14312 14313 15418 15417 
14248 14249 15354 15353 14313 14314 15419 15418 
14249 14250 15355 15354 14314 14315 15420 15419 
14250 14251 15356 15355 14315 14316 15421 15420 
14251 14252 15357 15356 14316 14317 15422 15421 
14252 14253 15358 15357 14317 14318 15423 15422 
14253 14254 15359 15358 14318 14319 15424 15423 
14254 14255 15360 15359 14319 14320 15425 15424 
14255 14256 15361 15360 14320 14321 15426 15425 
14256 14257 15362 15361 14321 14322 15427 15426 
14257 14258 15363 15362 14322 14323 15428 15427 
14258 14259 15364 15363 14323 14324 15429 15428 
14259 14260 15365 15364 14324 14325 15430 15429 
14260 14261 15366 15365 14325 14326 15431 15430 
14261 14262 15367 15366 14326 14327 15432 15431 
14262 14263 15368 15367 14327 14328 15433 15432 
14263 14264 15369 15368 14328 14329 15434 15433 
14264 14265 15370 15369 14329 14330 15435 15434 
14265 14266 15371 15370 14330 14331 15436 15435 
14266 14267 15372 15371 14331 14332 15437 15436 
14267 14268 15373 15372 14332 14333 15438 15437 
14268 14269 15374 15373 14333 14334 15439 15438 
14269 14270 15375 15374 14334 14335 15440 15439 
14270 14271 15376 15375 14335 14336 15441 15440 
14271 14272 15377 15376 14336 14337 15442 15441 
14272 14273 15378 15377 14337 14338 15443 15442 
14273 14274 15379 15378 14338 14339 15444 15443 
14274 14275 15380 15379 14339 14340 15445 15444 
14275 14276 15381 15380 14340 14341 15446 15445 
14276 14277 15382 15381 14341 14342 15447 15446 
14277 14278 15383 15382 14342 14343 15448 15447 
14278 14279 15384 15383 14343 14344 15449 15448 
14279 14280 15385 15384 14344 14345 15450 15449 
14280 14281 15386 15385 14345 14346 15451 15450 
14281 14282 15387 15386 14346 14347 15452 15451 
14282 14283 15388 15387 14347 14348 15453 15452 
14283 14284 15389 15388 14348 14349 15454 15453 
14284 14285 15390 15389 14349 14350 15455 15454 
14285 14286 15391 15390 14350 14351 15456 15455 
14286 14287 15392 15391 14351 14352 15457 15456 
14287 14288 15393 15392 14352 14353 15458 15457 
14288 14289 15394 15393 14353 14354 15459 15458 
14289 14290 15395 15394 14354 14355 15460 15459 
14290 14291 15396 15395 14355 14356 15461 15460 
14291 14292 15397 15396 14356 14357 15462 15461 
14292 14293 15398 15397 14357 14358 15463 15462 
14293 14294 15399 15398 14358 14359 15464 15463 
14294 14295 15400 15399 14359 14360 15465 15464 
14295 14296 15401 15400 14360 14361 15466 15465 
14296 14297 15402 15401 14361 14362 15467 15466 
14297 14298 15403 15402 14362 14363 15468 15467 
14298 14299 15404 15403 14363 14364 15469 15468 
14365 14366 15471 15470 14430 14431 15536 15535 
14366 14367 15472 15471 14431 14432 15537 15536 
14367 14368 15473 15472 14432 14433 15538 15537 
14368 14369 15474 15473 14433 14434 15539 15538 
14369 14370 15475 15474 14434 14435 15540 15539 
14370 14371 15476 15475 14435 14436 15541 15540 
14371 14372 15477 15476 14436 14437 15542 15541 
14372 14373 15478 15477 14437 14438 15543 15542 
14373 14374 15479 15478 14438 14439 15544 15543 
14374 14375 15480 15479 14439 14440 15545 15544 
14375 14376 15481 15480 14440 14441 15546 15545 
14376 14377 15482 15481 14441 14442 15547 15546 
14377 14378 15483 15482 14442 14443 15548 15547 
14378 14379 15484 15483 14443 14444 15549 15548 
14379 14380 15485 15484 14444 14445 15550 15549 
14380 14381 15486 15485 14445 14446 15551 15550 
14381 14382 15487 15486 14446 14447 15552 15551 
14382 14383 15488 15487 14447 14448 15553 15552 
14383 14384 15489 15488 14448 14449 15554 15553 
14384 14385 15490 15489 14449 14450 15555 15554 
14385 14386 15491 15490 14450 14451 15556 15555 
14386 14387 15492 15491 14451 14452 15557 15556 
14387 14388 15493 15492 14452 14453 15558 15557 
14388 14389 15494 15493 14453 14454 15559 15558 
14389 14390 15495 15494 14454 14455 15560 15559 
14390 14391 15496 15495 14455 14456 15561 15560 
14391 14392 15497 15496 14456 14457 15562 15561 
14392 14393 15498 15497 14457 14458 15563 15562 
14393 14394 15499 15498 14458 14459 15564 15563 
14394 14395 15500 15499 14459 14460 15565 15564 
14395 14396 15501 15500 14460 14461 15566 15565 
14396 14397 15502 15501 14461 14462 15567 15566 
14397 14398 15503 15502 14462 14463 15568 15567 
14398 14399 15504 15503 14463 14464 15569 15568 
14399 14400 15505 15504 14464 14465 15570 15569 
14400 14401 15506 15505 14465 14466 15571 15570 
14401 14402 15507 15506 14466 14467 15572 15571 
14402 14403 15508 15507 14467 14468 15573 15572 
14403 14404 15509 15508 14468 14469 15574 15573 
14404 14405 15510 15509 14469 14470 15575 15574 
14405 14406 15511 15510 14470 14471 15576 15575 
14406 14407 15512 15511 14471 14472 15577 15576 
14407 14408 15513 15512 14472 14473 15578 15577 
14408 14409 15514 15513 14473 14474 15579 15578 
14409 14410 15515 15514 14474 14475 15580 15579 
14410 14411 15516 15515 14475 14476 15581 15580 
14411 14412 15517 15516 14476 14477 15582 15581 
14412 14413 15518 15517 14477 14478 15583 15582 
14413 14414 15519 15518 14478 14479 15584 15583 
14414 14415 15520 15519 14479 14480 15585 15584 
14415 14416 15521 15520 14480 14481 15586 15585 
14416 14417 15522 15521 14481 14482 15587 15586 
14417 14418 15523 15522 14482 14483 15588 15587 
14418 14419 15524 15523 14483 14484 15589 15588 
14419 14420 15525 15524 14484 14485 15590 15589 
14420 14421 15526 15525 14485 14486 15591 15590 
14421 14422 15527 15526 14486 14487 15592 15591 
14422 14423 15528 15527 14487 14488 15593 15592 
14423 14424 15529 15528 14488 14489 15594 15593 
14424 14425 15530 15529 14489 14490 15595 15594 
14425 14426 15531 15530 14490 14491 15596 15595 
14426 14427 15532 15531 14491 14492 15597 15596 
14427 14428 15533 15532 14492 14493 15598 15597 
14428 14429 15534 15533 14493 14494 15599 15598 
14430 14431 15536 15535 14495 14496 15601 15600 
14431 14432 15537 15536 14496 14497 15602 15601 
14432 14433 15538 15537 14497 14498 15603 15602 
14433 14434 15539 15538 14498 14499 15604 15603 
14434 14435 15540 15539 14499 14500 15605 15604 
14435 14436 15541 15540 14500 14501 15606 15605 
14436 14437 15542 15541 14501 14502 15607 15606 
14437 14438 15543 15542 14502 14503 15608 15607 
14438 14439 15544 15543 14503 14504 15609 15608 
14439 14440 15545 15544 14504 14505 15610 15609 
14440 14441 15546 15545 14505 14506 15611 15610 
14441 14442 15547 15546 14506 14507 15612 15611 
14442 14443 15548 15547 14507 14508 15613 15612 
14443 14444 15549 15548 14508 14509 15614 15613 
14444 14445 15550 15549 14509 14510 15615 15614 
14445 14446 15551 15550 14510 14511 15616 15615 
14446 14447 15552 15551 14511 14512 15617 15616 
14447 14448 15553 15552 14512 14513 15618 15617 
14448 14449 15554 15553 14513 14514 15619 15618 
14449 14450 15555 15554 14514 14515 15620 15619 
14450 14451 15556 15555 14515 14516 15621 15620 
14451 14452 15557 15556 14516 14517 15622 15621 
14452 14453 15558 15557 14517 14518 15623 15622 
14453 14454 15559 15558 14518 14519 15624 15623 
14454 14455 15560 15559 14519 14520 15625 15624 
14455 14456 15561 15560 14520 14521 15626 15625 
14456 14457 15562 15561 14521 14522 15627 15626 
14457 14458 15563 15562 14522 14523 15628 15627 
14458 14459 15564 15563 14523 14524 15629 15628 
14459 14460 15565 15564 14524 14525 15630 15629 
14460 14461 15566 15565 14525 14526 15631 15630 
14461 14462 15567 15566 14526 14527 15632 15631 
14462 14463 15568 15567 14527 14528 15633 15632 
14463 14464 15569 15568 14528 14529 15634 15633 
14464 14465 15570 15569 14529 14530 15635 15634 
14465 14466 15571 15570 14530 14531 15636 15635 
14466 14467 15572 15571 14531 14532 15637 15636 
14467 14468 15573 15572 14532 14533 15638 15637 
14468 14469 15574 15573 14533 14534 15639 15638 
14469 14470 15575 15574 14534 14535 15640 15639 
14470 14471 15576 15575 14535 14536 15641 15640 
14471 14472 15577 15576 14536 14537 15642 15641 
14472 14473 15578 15577 14537 14538 15643 15642 
14473 14474 15579 15578 14538 14539 15644 15643 
14474 14475 15580 15579 14539 14540 15645 15644 
14475 14476 15581 15580 14540 14541 15646 15645 
14476 14477 15582 15581 14541 14542 15647 15646 
14477 14478 15583 15582 14542 14543 15648 15647 
14478 14479 15584 15583 14543 14544 15649 15648 
14479 14480 15585 15584 14544 14545 15650 15649 
14480 14481 15586 15585 14545 14546 15651 15650 
14481 14482 15587 15586 14546 14547 15652 15651 
14482 14483 15588 15587 14547 14548 15653 15652 
14483 14484 15589 15588 14548 14549 15654 15653 
14484 14485 15590 15589 14549 14550 15655 15654 
14485 14486 15591 15590 14550 14551 15656 15655 
14486 14487 15592 15591 14551 14552 15657 15656 
14487 14488 15593 15592 14552 14553 15658 15657 
14488 14489 15594 15593 14553 14554 15659 15658 
14489 14490 15595 15594 14554 14555 15660 15659 
14490 14491 15596 15595 14555 14556 15661 15660 
14491 14492 15597 15596 14556 14557 15662 15661 
14492 14493 15598 15597 14557 14558 15663 15662 
14493 14494 15599 15598 14558 14559 15664 15663 
14495 14496 15601 15600 14560 14561 15666 15665 
14496 14497 15602 15601 14561 14562 15667 15666 
14497 14498 15603 15602 14562 14563 15668 15667 
14498 14499 15604 15603 14563 14564 15669 15668 
14499 14500 15605 15604 14564 14565 15670 15669 
14500 14501 15606 15605 14565 14566 15671 15670 
14501 14502 15607 15606 14566 14567 15672 15671 
14502 14503 15608 15607 14567 14568 15673 15672 
14503 14504 15609 15608 14568 14569 15674 15673 
14504 14505 15610 15609 14569 14570 15675 15674 
14505 14506 15611 15610 14570 14571 15676 15675 
14506 14507 15612 15611 14571 14572 15677 15676 
14507 14508 15613 15612 14572 14573 15678 15677 
14508 14509 15614 15613 14573 14574 15679 15678 
14509 14510 15615 15614 14574 14575 15680 15679 
14510 14511 15616 15615 14575 14576 15681 15680 
14511 14512 15617 15616 14576 14577 15682 15681 
14512 14513 15618 15617 14577 14578 15683 15682 
14513 14514 15619 15618 14578 14579 15684 15683 
14514 14515 15620 15619 14579 14580 15685 15684 
14515 14516 15621 15620 14580 14581 15686 15685 
14516 14517 15622 15621 14581 14582 15687 15686 
14517 14518 15623 15622 14582 14583 15688 15687 
14518 14519 15624 15623 14583 14584 15689 15688 
14519 14520 15625 15624 14584 14585 15690 15689 
14520 14521 15626 15625 14585 14586 15691 15690 
14521 14522 15627 15626 14586 14587 15692 15691 
14522 14523 15628 15627 14587 14588 15693 15692 
14523 14524 15629 15628 14588 14589 15694 15693 
14524 14525 15630 15629 14589 14590 15695 15694 
14525 14526 15631 15630 14590 14591 15696 15695 
14526 14527 15632 15631 14591 14592 15697 15696 
14527 14528 15633 15632 14592 14593 15698 15697 
14528 14529 15634 15633 14593 14594 15699 15698 
14529 14530 15635 15634 14594 14595 15700 15699 
14530 14531 15636 15635 14595 14596 15701 15700 
14531 14532 15637 15636 14596 14597 15702 15701 
14532 14533 15638 15637 14597 14598 15703 15702 
14533 14534 15639 15638 14598 14599 15704 15703 
14534 14535 15640 15639 14599 14600 15705 15704 
14535 14536 15641 15640 14600 14601 15706 15705 
14536 14537 15642 15641 14601 14602 15707 15706 
14537 14538 15643 15642 14602 14603 15708 15707 
14538 14539 15644 15643 14603 14604 15709 15708 
14539 14540 15645 15644 14604 14605 15710 15709 
14540 14541 15646 15645 14605 14606 15711 15710 
14541 14542 15647 15646 14606 14607 15712 15711 
14542 14543 15648 15647 14607 14608 15713 15712 
14543 14544 15649 15648 14608 14609 15714 15713 
14544 14545 15650 15649 14609 14610 15715 15714 
14545 14546 15651 15650 14610 14611 15716 15715 
14546 14547 15652 15651 14611 14612 15717 15716 
14547 14548 15653 15652 14612 14613 15718 15717 
14548 14549 15654 15653 14613 14614 15719 15718 
14549 14550 15655 15654 14614 14615 15720 15719 
14550 14551 15656 15655 14615 14616 15721 15720 
14551 14552 15657 15656 14616 14617 15722 15721 
14552 14553 15658 15657 14617 14618 15723 15722 
14553 14554 15659 15658 14618 14619 15724 15723 
14554 14555 15660 15659 14619 14620 15725 15724 
14555 14556 15661 15660 14620 14621 15726 15725 
14556 14557 15662 15661 14621 14622 15727 15726 
14557 14558 15663 15662 14622 14623 15728 15727 
14558 14559 15664 15663 14623 14624 15729 15728 
14560 14561 15666 15665 14625 14626 15731 15730 
14561 14562 15667 15666 14626 14627 15732 15731 
14562 14563 15668 15667 14627 14628 15733 15732 
14563 14564 15669 15668 14628 14629 15734 15733 
14564 14565 15670 15669 14629 14630 15735 15734 
14565 14566 15671 15670 14630 14631 15736 15735 
14566 14567 15672 15671 14631 14632 15737 15736 
14567 14568 15673 15672 14632 14633 15738 15737 
14568 14569 15674 15673 14633 14634 15739 15738 
14569 14570 15675 15674 14634 14635 15740 15739 
14570 14571 15676 15675 14635 14636 15741 15740 
14571 14572 15677 15676 14636 14637 15742 15741 
14572 14573 15678 15677 14637 14638 15743 15742 
14573 14574 15679 15678 14638 14639 15744 15743 
14574 14575 15680 15679 14639 14640 15745 15744 
14575 14576 15681 15680 14640 14641 15746 15745 
14576 14577 15682 15681 14641 14642 15747 15746 
14577 14578 15683 15682 14642 14643 15748 15747 
14578 14579 15684 15683 14643 14644 15749 15748 
14579 14580 15685 15684 14644 14645 15750 15749 
14580 14581 15686 15685 14645 14646 15751 15750 
14581 14582 15687 15686 14646 14647 15752 15751 
14582 14583 15688 15687 14647 14648 15753 15752 
14583 14584 15689 15688 14648 14649 15754 15753 
14584 14585 15690 15689 14649 14650 15755 15754 
14585 14586 15691 15690 14650 14651 15756 15755 
14586 14587 15692 15691 14651 14652 15757 15756 
14587 14588 15693 15692 14652 14653 15758 15757 
14588 14589 15694 15693 14653 14654 15759 15758 
14589 14590 15695 15694 14654 14655 15760 15759 
14590 14591 15696 15695 14655 14656 15761 15760 
14591 14592 15697 15696 14656 14657 15762 15761 
14592 14593 15698 15697 14657 14658 15763 15762 
14593 14594 15699 15698 14658 14659 15764 15763 
14594 14595 15700 15699 14659 14660 15765 15764 
14595 14596 15701 15700 14660 14661 15766 15765 
14596 14597 15702 15701 14661 14662 15767 15766 
14597 14598 15703 15702 14662 14663 15768 15767 
14598 14599 15704 15703 14663 14664 15769 15768 
14599 14600 15705 15704 14664 14665 15770 15769 
14600 14601 15706 15705 14665 14666 15771 15770 
14601 14602 15707 15706 14666 14667 15772 15771 
14602 14603 15708 15707 14667 14668 15773 15772 
14603 14604 15709 15708 14668 14669 15774 15773 
14604 14605 15710 15709 14669 14670 15775 15774 
14605 14606 15711 15710 14670 14671 15776 15775 
14606 14607 15712 15711 14671 14672 15777 15776 
14607 14608 15713 15712 14672 14673 15778 15777 
14608 14609 15714 15713 14673 14674 15779 15778 
14609 14610 15715 15714 14674 14675 15780 15779 
14610 14611 15716 15715 14675 14676 15781 15780 
14611 14612 15717 15716 14676 14677 15782 15781 
14612 14613 15718 15717 14677 14678 15783 15782 
14613 14614 15719 15718 14678 14679 15784 15783 
14614 14615 15720 15719 14679 14680 15785 15784 
14615 14616 15721 15720 14680 14681 15786 15785 
14616 14617 15722 15721 14681 14682 15787 15786 
14617 14618 15723 15722 14682 14683 15788 15787 
14618 14619 15724 15723 14683 14684 15789 15788 
14619 14620 15725 15724 14684 14685 15790 15789 
14620 14621 15726 15725 14685 14686 15791 15790 
14621 14622 15727 15726 14686 14687 15792 15791 
14622 14623 15728 15727 14687 14688 15793 15792 
14623 14624 15729 15728 14688 14689 15794 15793 
14625 14626 15731 15730 14690 14691 15796 15795 
14626 14627 15732 15731 14691 14692 15797 15796 
14627 14628 15733 15732 14692 14693 15798 15797 
14628 14629 15734 15733 14693 14694 15799 15798 
14629 14630 15735 15734 14694 14695 15800 15799 
14630 14631 15736 15735 14695 14696 15801 15800 
14631 14632 15737 15736 14696 14697 15802 15801 
14632 14633 15738 15737 14697 14698 15803 15802 
14633 14634 15739 15738 14698 14699 15804 15803 
14634 14635 15740 15739 14699 14700 15805 15804 
14635 14636 15741 15740 14700 14701 15806 15805 
14636 14637 15742 15741 14701 14702 15807 15806 
14637 14638 15743 15742 14702 14703 15808 15807 
14638 14639 15744 15743 14703 14704 15809 15808 
14639 14640 15745 15744 14704 14705 15810 15809 
14640 14641 15746 15745 14705 14706 15811 15810 
14641 14642 15747 15746 14706 14707 15812 15811 
14642 14643 15748 15747 14707 14708 15813 15812 
14643 14644 15749 15748 14708 14709 15814 15813 
14644 14645 15750 15749 14709 14710 15815 15814 
14645 14646 15751 15750 14710 14711 15816 15815 
14646 14647 15752 15751 14711 14712 15817 15816 
14647 14648 15753 15752 14712 14713 15818 15817 
14648 14649 15754 15753 14713 14714 15819 15818 
14649 14650 15755 15754 14714 14715 15820 15819 
14650 14651 15756 15755 14715 14716 15821 15820 
14651 14652 15757 15756 14716 14717 15822 15821 
14652 14653 15758 15757 14717 14718 15823 15822 
14653 14654 15759 15758 14718 14719 15824 15823 
14654 14655 15760 15759 14719 14720 15825 15824 
14655 14656 15761 15760 14720 14721 15826 15825 
14656 14657 15762 15761 14721 14722 15827 15826 
14657 14658 15763 15762 14722 14723 15828 15827 
14658 14659 15764 15763 14723 14724 15829 15828 
14659 14660 15765 15764 14724 14725 15830 15829 
14660 14661 15766 15765 14725 14726 15831 15830 
14661 14662 15767 15766 14726 14727 15832 15831 
14662 14663 15768 15767 14727 14728 15833 15832 
14663 14664 15769 15768 14728 14729 15834 15833 
14664 14665 15770 15769 14729 14730 15835 15834 
14665 14666 15771 15770 14730 14731 15836 15835 
14666 14667 15772 15771 14731 14732 15837 15836 
14667 14668 15773 15772 14732 14733 15838 15837 
14668 14669 15774 15773 14733 14734 15839 15838 
14669 14670 15775 15774 14734 14735 15840 15839 
14670 14671 15776 15775 14735 14736 15841 15840 
14671 14672 15777 15776 14736 14737 15842 15841 
14672 14673 15778 15777 14737 14738 15843 15842 
14673 14674 15779 15778 14738 14739 15844 15843 
14674 14675 15780 15779 14739 14740 15845 15844 
14675 14676 15781 15780 14740 14741 15846 15845 
14676 14677 15782 15781 14741 14742 15847 15846 
14677 14678 15783 15782 14742 14743 15848 15847 
14678 14679 15784 15783 14743 14744 15849 15848 
14679 14680 15785 15784 14744 14745 15850 15849 
14680 14681 15786 15785 14745 14746 15851 15850 
14681 14682 15787 15786 14746 14747 15852 15851 
14682 14683 15788 15787 14747 14748 15853 15852 
14683 14684 15789 15788 14748 14749 15854 15853 
14684 14685 15790 15789 14749 14750 15855 15854 
14685 14686 15791 15790 14750 14751 15856 15855 
14686 14687 15792 15791 14751 14752 15857 15856 
14687 14688 15793 15792 14752 14753 15858 15857 
14688 14689 15794 15793 14753 14754 15859 15858 
14690 14691 15796 15795 14755 14756 15861 15860 
14691 14692 15797 15796 14756 14757 15862 15861 
14692 14693 15798 15797 14757 14758 15863 15862 
14693 14694 15799 15798 14758 14759 15864 15863 
14694 14695 15800 15799 14759 14760 15865 15864 
14695 14696 15801 15800 14760 14761 15866 15865 
14696 14697 15802 15801 14761 14762 15867 15866 
14697 14698 15803 15802 14762 14763 15868 15867 
14698 14699 15804 15803 14763 14764 15869 15868 
14699 14700 15805 15804 14764 14765 15870 15869 
14700 14701 15806 15805 14765 14766 15871 15870 
14701 14702 15807 15806 14766 14767 15872 15871 
14702 14703 15808 15807 14767 14768 15873 15872 
14703 14704 15809 15808 14768 14769 15874 15873 
14704 14705 15810 15809 14769 14770 15875 15874 
14705 14706 15811 15810 14770 14771 15876 15875 
14706 14707 15812 15811 14771 14772 15877 15876 
14707 14708 15813 15812 14772 14773 15878 15877 
14708 14709 15814 15813 14773 14774 15879 15878 
14709 14710 15815 15814 14774 14775 15880 15879 
14710 14711 15816 15815 14775 14776 15881 15880 
14711 14712 15817 15816 14776 14777 15882 15881 
14712 14713 15818 15817 14777 14778 15883 15882 
14713 14714 15819 15818 14778 14779 15884 15883 
14714 14715 15820 15819 14779 14780 15885 15884 
14715 14716 15821 15820 14780 14781 15886 15885 
14716 14717 15822 15821 14781 14782 15887 15886 
14717 14718 15823 15822 14782 14783 15888 15887 
14718 14719 15824 15823 14783 14784 15889 15888 
14719 14720 15825 15824 14784 14785 15890 15889 
14720 14721 15826 15825 14785 14786 15891 15890 
14721 14722 15827 15826 14786 14787 15892 15891 
14722 14723 15828 15827 14787 14788 15893 15892 
14723 14724 15829 15828 14788 14789 15894 15893 
14724 14725 15830 15829 14789 14790 15895 15894 
14725 14726 15831 15830 14790 14791 15896 15895 
14726 14727 15832 15831 14791 14792 15897 15896 
14727 14728 15833 15832 14792 14793 15898 15897 
14728 14729 15834 15833 14793 14794 15899 15898 
14729 14730 15835 15834 14794 14795 15900 15899 
14730 14731 15836 15835 14795 14796 15901 15900 
14731 14732 15837 15836 14796 14797 15902 15901 
14732 14733 15838 15837 14797 14798 15903 15902 
14733 14734 15839 15838 14798 14799 15904 15903 
14734 14735 15840 15839 14799 14800 15905 15904 
14735 14736 15841 15840 14800 14801 15906 15905 
14736 14737 15842 15841 14801 14802 15907 15906 
14737 14738 15843 15842 14802 14803 15908 15907 
14738 14739 15844 15843 14803 14804 15909 15908 
14739 14740 15845 15844 14804 14805 15910 15909 
14740 14741 15846 15845 14805 14806 15911 15910 
14741 14742 15847 15846 14806 14807 15912 15911 
14742 14743 15848 15847 14807 14808 15913 15912 
14743 14744 15849 15848 14808 14809 15914 15913 
14744 14745 15850 15849 14809 14810 15915 15914 
14745 14746 15851 15850 14810 14811 15916 15915 
14746 14747 15852 15851 14811 14812 15917 15916 
14747 14748 15853 15852 14812 14813 15918 15917 
14748 14749 15854 15853 14813 14814 15919 15918 
14749 14750 15855 15854 14814 14815 15920 15919 
14750 14751 15856 15855 14815 14816 15921 15920 
14751 14752 15857 15856 14816 14817 15922 15921 
14752 14753 15858 15857 14817 14818 15923 15922 
14753 14754 15859 15858 14818 14819 15924 15923 
14755 14756 15861 15860 14820 14821 15926 15925 
14756 14757 15862 15861 14821 14822 15927 15926 
14757 14758 15863 15862 14822 14823 15928 15927 
14758 14759 15864 15863 14823 14824 15929 15928 
14759 14760 15865 15864 14824 14825 15930 15929 
14760 14761 15866 15865 14825 14826 15931 15930 
14761 14762 15867 15866 14826 14827 15932 15931 
14762 14763 15868 15867 14827 14828 15933 15932 
14763 14764 15869 15868 14828 14829 15934 15933 
14764 14765 15870 15869 14829 14830 15935 15934 
14765 14766 15871 15870 14830 14831 15936 15935 
14766 14767 15872 15871 14831 14832 15937 15936 
14767 14768 15873 15872 14832 14833 15938 15937 
14768 14769 15874 15873 14833 14834 15939 15938 
14769 14770 15875 15874 14834 14835 15940 15939 
14770 14771 15876 15875 14835 14836 15941 15940 
14771 14772 15877 15876 14836 14837 15942 15941 
14772 14773 15878 15877 14837 14838 15943 15942 
14773 14774 15879 15878 14838 14839 15944 15943 
14774 14775 15880 15879 14839 14840 15945 15944 
14775 14776 15881 15880 14840 14841 15946 15945 
14776 14777 15882 15881 14841 14842 15947 15946 
14777 14778 15883 15882 14842 14843 15948 15947 
14778 14779 15884 15883 14843 14844 15949 15948 
14779 14780 15885 15884 14844 14845 15950 15949 
14780 14781 15886 15885 14845 14846 15951 15950 
14781 14782 15887 15886 14846 14847 15952 15951 
14782 14783 15888 15887 14847 14848 15953 15952 
14783 14784 15889 15888 14848 14849 15954 15953 
14784 14785 15890 15889 14849 14850 15955 15954 
14785 14786 15891 15890 14850 14851 15956 15955 
14786 14787 15892 15891 14851 14852 15957 15956 
14787 14788 15893 15892 14852 14853 15958 15957 
14788 14789 15894 15893 14853 14854 15959 15958 
14789 14790 15895 15894 14854 14855 15960 15959 
14790 14791 15896 15895 14855 14856 15961 15960 
14791 14792 15897 15896 14856 14857 15962 15961 
14792 14793 15898 15897 14857 14858 15963 15962 
14793 14794 15899 15898 14858 14859 15964 15963 
14794 14795 15900 15899 14859 14860 15965 15964 
14795 14796 15901 15900 14860 14861 15966 15965 
14796 14797 15902 15901 14861 14862 15967 15966 
14797 14798 15903 15902 14862 14863 15968 15967 
14798 14799 15904 15903 14863 14864 15969 15968 
14799 14800 15905 15904 14864 14865 15970 15969 
14800 14801 15906 15905 14865 14866 15971 15970 
14801 14802 15907 15906 14866 14867 15972 15971 
14802 14803 15908 15907 14867 14868 15973 15972 
14803 14804 15909 15908 14868 14869 15974 15973 
14804 14805 15910 15909 14869 14870 15975 15974 
14805 14806 15911 15910 14870 14871 15976 15975 
14806 14807 15912 15911 14871 14872 15977 15976 
14807 14808 15913 15912 14872 14873 15978 15977 
14808 14809 15914 15913 14873 14874 15979 15978 
14809 14810 15915 15914 14874 14875 15980 15979 
14810 14811 15916 15915 14875 14876 15981 15980 
14811 14812 15917 15916 14876 14877 15982 15981 
14812 14813 15918 15917 14877 14878 15983 15982 
14813 14814 15919 15918 14878 14879 15984 15983 
14814 14815 15920 15919 14879 14880 15985 15984 
14815 14816 15921 15920 14880 14881 15986 15985 
14816 14817 15922 15921 14881 14882 15987 15986 
14817 14818 15923 15922 14882 14883 15988 15987 
14818 14819 15924 15923 14883 14884 15989 15988 
14820 14821 15926 15925 14885 14886 15991 15990 
14821 14822 15927 15926 14886 14887 15992 15991 
14822 14823 15928 15927 14887 14888 15993 15992 
14823 14824 15929 15928 14888 14889 15994 15993 
14824 14825 15930 15929 14889 14890 15995 15994 
14825 14826 15931 15930 14890 14891 15996 15995 
14826 14827 15932 15931 14891 14892 15997 15996 
14827 14828 15933 15932 14892 14893 15998 15997 
14828 14829 15934 15933 14893 14894 15999 15998 
14829 14830 15935 15934 14894 14895 16000 15999 
14830 14831 15936 15935 14895 14896 16001 16000 
14831 14832 15937 15936 14896 14897 16002 16001 
14832 14833 15938 15937 14897 14898 16003 16002 
14833 14834 15939 15938 14898 14899 16004 16003 
14834 14835 15940 15939 14899 14900 16005 16004 
14835 14836 15941 15940 14900 14901 16006 16005 
14836 14837 15942 15941 14901 14902 16007 16006 
14837 14838 15943 15942 14902 14903 16008 16007 
14838 14839 15944 15943 14903 14904 16009 16008 
14839 14840 15945 15944 14904 14905 16010 16009 
14840 14841 15946 15945 14905 14906 16011 16010 
14841 14842 15947 15946 14906 14907 16012 16011 
14842 14843 15948 15947 14907 14908 16013 16012 
14843 14844 15949 15948 14908 14909 16014 16013 
14844 14845 15950 15949 14909 14910 16015 16014 
14845 14846 15951 15950 14910 14911 16016 16015 
14846 14847 15952 15951 14911 14912 16017 16016 
14847 14848 15953 15952 14912 14913 16018 16017 
14848 14849 15954 15953 14913 14914 16019 16018 
14849 14850 15955 15954 14914 14915 16020 16019 
14850 14851 15956 15955 14915 14916 16021 16020 
14851 14852 15957 15956 14916 14917 16022 16021 
14852 14853 15958 15957 14917 14918 16023 16022 
14853 14854 15959 15958 14918 14919 16024 16023 
14854 14855 15960 15959 14919 14920 16025 16024 
14855 14856 15961 15960 14920 14921 16026 16025 
14856 14857 15962 15961 14921 14922 16027 16026 
14857 14858 15963 15962 14922 14923 16028 16027 
14858 14859 15964 15963 14923 14924 16029 16028 
14859 14860 15965 15964 14924 14925 16030 16029 
14860 14861 15966 15965 14925 14926 16031 16030 
14861 14862 15967 15966 14926 14927 16032 16031 
14862 14863 15968 15967 14927 14928 16033 16032 
14863 14864 15969 15968 14928 14929 16034 16033 
14864 14865 15970 15969 14929 14930 16035 16034 
14865 14866 15971 15970 14930 14931 16036 16035 
14866 14867 15972 15971 14931 14932 16037 16036 
14867 14868 15973 15972 14932 14933 16038 16037 
14868 14869 15974 15973 14933 14934 16039 16038 
14869 14870 15975 15974 14934 14935 16040 16039 
14870 14871 15976 15975 14935 14936 16041 16040 
14871 14872 15977 15976 14936 14937 16042 16041 
14872 14873 15978 15977 14937 14938 16043 16042 
14873 14874 15979 15978 14938 14939 16044 16043 
14874 14875 15980 15979 14939 14940 16045 16044 
14875 14876 15981 15980 14940 14941 16046 16045 
14876 14877 15982 15981 14941 14942 16047 16046 
14877 14878 15983 15982 14942 14943 16048 16047 
14878 14879 15984 15983 14943 14944 16049 16048 
14879 14880 15985 15984 14944 14945 16050 16049 
14880 14881 15986 15985 14945 14946 16051 16050 
14881 14882 15987 15986 14946 14947 16052 16051 
14882 14883 15988 15987 14947 14948 16053 16052 
14883 14884 15989 15988 14948 14949 16054 16053 
14885 14886 15991 15990 14950 14951 16056 16055 
14886 14887 15992 15991 14951 14952 16057 16056 
14887 14888 15993 15992 14952 14953 16058 16057 
14888 14889 15994 15993 14953 14954 16059 16058 
14889 14890 15995 15994 14954 14955 16060 16059 
14890 14891 15996 15995 14955 14956 16061 16060 
14891 14892 15997 15996 14956 14957 16062 16061 
14892 14893 15998 15997 14957 14958 16063 16062 
14893 14894 15999 15998 14958 14959 16064 16063 
14894 14895 16000 15999 14959 14960 16065 16064 
14895 14896 16001 16000 14960 14961 16066 16065 
14896 14897 16002 16001 14961 14962 16067 16066 
14897 14898 16003 16002 14962 14963 16068 16067 
14898 14899 16004 16003 14963 14964 16069 16068 
14899 14900 16005 16004 14964 14965 16070 16069 
14900 14901 16006 16005 14965 14966 16071 16070 
14901 14902 16007 16006 14966 14967 16072 16071 
14902 14903 16008 16007 14967 14968 16073 16072 
14903 14904 16009 16008 14968 14969 16074 16073 
14904 14905 16010 16009 14969 14970 16075 16074 
14905 14906 16011 16010 14970 14971 16076 16075 
14906 14907 16012 16011 14971 14972 16077 16076 
14907 14908 16013 16012 14972 14973 16078 16077 
14908 14909 16014 16013 14973 14974 16079 16078 
14909 14910 16015 16014 14974 14975 16080 16079 
14910 14911 16016 16015 14975 14976 16081 16080 
14911 14912 16017 16016 14976 14977 16082 16081 
14912 14913 16018 16017 14977 14978 16083 16082 
14913 14914 16019 16018 14978 14979 16084 16083 
14914 14915 16020 16019 14979 14980 16085 16084 
14915 14916 16021 16020 14980 14981 16086 16085 
14916 14917 16022 16021 14981 14982 16087 16086 
14917 14918 16023 16022 14982 14983 16088 16087 
14918 14919 16024 16023 14983 14984 16089 16088 
14919 14920 16025 16024 14984 14985 16090 16089 
14920 14921 16026 16025 14985 14986 16091 16090 
14921 14922 16027 16026 14986 14987 16092 16091 
14922 14923 16028 16027 14987 14988 16093 16092 
14923 14924 16029 16028 14988 14989 16094 16093 
14924 14925 16030 16029 14989 14990 16095 16094 
14925 14926 16031 16030 14990 14991 16096 16095 
14926 14927 16032 16031 14991 14992 16097 16096 
14927 14928 16033 16032 14992 14993 16098 16097 
14928 14929 16034 16033 14993 14994 16099 16098 
14929 14930 16035 16034 14994 14995 16100 16099 
14930 14931 16036 16035 14995 14996 16101 16100 
14931 14932 16037 16036 14996 14997 16102 16101 
14932 14933 16038 16037 14997 14998 16103 16102 
14933 14934 16039 16038 14998 14999 16104 16103 
14934 14935 16040 16039 14999 15000 16105 16104 
14935 14936 16041 16040 15000 15001 16106 16105 
14936 14937 16042 16041 15001 15002 16107 16106 
14937 14938 16043 16042 15002 15003 16108 16107 
14938 14939 16044 16043 15003 15004 16109 16108 
14939 14940 16045 16044 15004 15005 16110 16109 
14940 14941 16046 16045 15005 15006 16111 16110 
14941 14942 16047 16046 15006 15007 16112 16111 
14942 14943 16048 16047 15007 15008 16113 16112 
14943 14944 16049 16048 15008 15009 16114 16113 
14944 14945 16050 16049 15009 15010 16115 16114 
14945 14946 16051 16050 15010 15011 16116 16115 
14946 14947 16052 16051 15011 15012 16117 16116 
14947 14948 16053 16052 15012 15013 16118 16117 
14948 14949 16054 16053 15013 15014 16119 16118 
14950 14951 16056 16055 15015 15016 16121 16120 
14951 14952 16057 16056 15016 15017 16122 16121 
14952 14953 16058 16057 15017 15018 16123 16122 
14953 14954 16059 16058 15018 15019 16124 16123 
14954 14955 16060 16059 15019 15020 16125 16124 
14955 14956 16061 16060 15020 15021 16126 16125 
14956 14957 16062 16061 15021 15022 16127 16126 
14957 14958 16063 16062 15022 15023 16128 16127 
14958 14959 16064 16063 15023 15024 16129 16128 
14959 14960 16065 16064 15024 15025 16130 16129 
14960 14961 16066 16065 15025 15026 16131 16130 
14961 14962 16067 16066 15026 15027 16132 16131 
14962 14963 16068 16067 15027 15028 16133 16132 
14963 14964 16069 16068 15028 15029 16134 16133 
14964 14965 16070 16069 15029 15030 16135 16134 
14965 14966 16071 16070 15030 15031 16136 16135 
14966 14967 16072 16071 15031 15032 16137 16136 
14967 14968 16073 16072 15032 15033 16138 16137 
14968 14969 16074 16073 15033 15034 16139 16138 
14969 14970 16075 16074 15034 15035 16140 16139 
14970 14971 16076 16075 15035 15036 16141 16140 
14971 14972 16077 16076 15036 15037 16142 16141 
14972 14973 16078 16077 15037 15038 16143 16142 
14973 14974 16079 16078 15038 15039 16144 16143 
14974 14975 16080 16079 15039 15040 16145 16144 
14975 14976 16081 16080 15040 15041 16146 16145 
14976 14977 16082 16081 15041 15042 16147 16146 
14977 14978 16083 16082 15042 15043 16148 16147 
14978 14979 16084 16083 15043 15044 16149 16148 
14979 14980 16085 16084 15044 15045 16150 16149 
14980 14981 16086 16085 15045 15046 16151 16150 
14981 14982 16087 16086 15046 15047 16152 16151 
14982 14983 16088 16087 15047 15048 16153 16152 
14983 14984 16089 16088 15048 15049 16154 16153 
14984 14985 16090 16089 15049 15050 16155 16154 
14985 14986 16091 16090 15050 15051 16156 16155 
14986 14987 16092 16091 15051 15052 16157 16156 
14987 14988 16093 16092 15052 15053 16158 16157 
14988 14989 16094 16093 15053 15054 16159 16158 
14989 14990 16095 16094 15054 15055 16160 16159 
14990 14991 16096 16095 15055 15056 16161 16160 
14991 14992 16097 16096 15056 15057 16162 16161 
14992 14993 16098 16097 15057 15058 16163 16162 
14993 14994 16099 16098 15058 15059 16164 16163 
14994 14995 16100 16099 15059 15060 16165 16164 
14995 14996 16101 16100 15060 15061 16166 16165 
14996 14997 16102 16101 15061 15062 16167 16166 
14997 14998 16103 16102 15062 15063 16168 16167 
14998 14999 16104 16103 15063 15064 16169 16168 
14999 15000 16105 16104 15064 15065 16170 16169 
15000 15001 16106 16105 15065 15066 16171 16170 
15001 15002 16107 16106 15066 15067 16172 16171 
15002 15003 16108 16107 15067 15068 16173 16172 
15003 15004 16109 16108 15068 15069 16174 16173 
15004 15005 16110 16109 15069 15070 16175 16174 
15005 15006 16111 16110 15070 15071 16176 16175 
15006 15007 16112 16111 15071 15072 16177 16176 
15007 15008 16113 16112 15072 15073 16178 16177 
15008 15009 16114 16113 15073 15074 16179 16178 
15009 15010 16115 16114 15074 15075 16180 16179 
15010 15011 16116 16115 15075 15076 16181 16180 
15011 15012 16117 16116 15076 15077 16182 16181 
15012 15013 16118 16117 15077 15078 16183 16182 
15013 15014 16119 16118 15078 15079 16184 16183 
15015 15016 16121 16120 15080 15081 16186 16185 
15016 15017 16122 16121 15081 15082 16187 16186 
15017 15018 16123 16122 15082 15083 16188 16187 
15018 15019 16124 16123 15083 15084 16189 16188 
15019 15020 16125 16124 15084 15085 16190 16189 
15020 15021 16126 16125 15085 15086 16191 16190 
15021 15022 16127 16126 15086 15087 16192 16191 
15022 15023 16128 16127 15087 15088 16193 16192 
15023 15024 16129 16128 15088 15089 16194 16193 
15024 15025 16130 16129 15089 15090 16195 16194 
15025 15026 16131 16130 15090 15091 16196 16195 
15026 15027 16132 16131 15091 15092 16197 16196 
15027 15028 16133 16132 15092 15093 16198 16197 
15028 15029 16134 16133 15093 15094 16199 16198 
15029 15030 16135 16134 15094 15095 16200 16199 
15030 15031 16136 16135 15095 15096 16201 16200 
15031 15032 16137 16136 15096 15097 16202 16201 
15032 15033 16138 16137 15097 15098 16203 16202 
15033 15034 16139 16138 15098 15099 16204 16203 
15034 15035 16140 16139 15099 15100 16205 16204 
15035 15036 16141 16140 15100 15101 16206 16205 
15036 15037 16142 16141 15101 15102 16207 16206 
15037 15038 16143 16142 15102 15103 16208 16207 
15038 15039 16144 16143 15103 15104 16209 16208 
15039 15040 16145 16144 15104 15105 16210 16209 
15040 15041 16146 16145 15105 15106 16211 16210 
15041 15042 16147 16146 15106 15107 16212 16211 
15042 15043 16148 16147 15107 15108 16213 16212 
15043 15044 16149 16148 15108 15109 16214 16213 
15044 15045 16150 16149 15109 15110 16215 16214 
15045 15046 16151 16150 15110 15111 16216 16215 
15046 15047 16152 16151 15111 15112 16217 16216 
15047 15048 16153 16152 15112 15113 16218 16217 
15048 15049 16154 16153 15113 15114 16219 16218 
15049 15050 16155 16154 15114 15115 16220 16219 
15050 15051 16156 16155 15115 15116 16221 16220 
15051 15052 16157 16156 15116 15117 16222 16221 
15052 15053 16158 16157 15117 15118 16223 16222 
15053 15054 16159 16158 15118 15119 16224 16223 
15054 15055 16160 16159 15119 15120 16225 16224 
15055 15056 16161 16160 15120 15121 16226 16225 
15056 15057 16162 16161 15121 15122 16227 16226 
15057 15058 16163 16162 15122 15123 16228 16227 
15058 15059 16164 16163 15123 15124 16229 16228 
15059 15060 16165 16164 15124 15125 16230 16229 
15060 15061 16166 16165 15125 15126 16231 16230 
15061 15062 16167 16166 15126 15127 16232 16231 
15062 15063 16168 16167 15127 15128 16233 16232 
15063 15064 16169 16168 15128 15129 16234 16233 
15064 15065 16170 16169 15129 15130 16235 16234 
15065 15066 16171 16170 15130 15131 16236 16235 
15066 15067 16172 16171 15131 15132 16237 16236 
15067 15068 16173 16172 15132 15133 16238 16237 
15068 15069 16174 16173 15133 15134 16239 16238 
15069 15070 16175 16174 15134 15135 16240 16239 
15070 15071 16176 16175 15135 15136 16241 16240 
15071 15072 16177 16176 15136 15137 16242 16241 
15072 15073 16178 16177 15137 15138 16243 16242 
15073 15074 16179 16178 15138 15139 16244 16243 
15074 15075 16180 16179 15139 15140 16245 16244 
15075 15076 16181 16180 15140 15141 16246 16245 
15076 15077 16182 16181 15141 15142 16247 16246 
15077 15078 16183 16182 15142 15143 16248 16247 
15078 15079 16184 16183 15143 15144 16249 16248 
15080 15081 16186 16185 15145 15146 16251 16250 
15081 15082 16187 16186 15146 15147 16252 16251 
15082 15083 16188 16187 15147 15148 16253 16252 
15083 15084 16189 16188 15148 15149 16254 16253 
15084 15085 16190 16189 15149 15150 16255 16254 
15085 15086 16191 16190 15150 15151 16256 16255 
15086 15087 16192 16191 15151 15152 16257 16256 
15087 15088 16193 16192 15152 15153 16258 16257 
15088 15089 16194 16193 15153 15154 16259 16258 
15089 15090 16195 16194 15154 15155 16260 16259 
15090 15091 16196 16195 15155 15156 16261 16260 
15091 15092 16197 16196 15156 15157 16262 16261 
15092 15093 16198 16197 15157 15158 16263 16262 
15093 15094 16199 16198 15158 15159 16264 16263 
15094 15095 16200 16199 15159 15160 16265 16264 
15095 15096 16201 16200 15160 15161 16266 16265 
15096 15097 16202 16201 15161 15162 16267 16266 
15097 15098 16203 16202 15162 15163 16268 16267 
15098 15099 16204 16203 15163 15164 16269 16268 
15099 15100 16205 16204 15164 15165 16270 16269 
15100 15101 16206 16205 15165 15166 16271 16270 
15101 15102 16207 16206 15166 15167 16272 16271 
15102 15103 16208 16207 15167 15168 16273 16272 
15103 15104 16209 16208 15168 15169 16274 16273 
15104 15105 16210 16209 15169 15170 16275 16274 
15105 15106 16211 16210 15170 15171 16276 16275 
15106 15107 16212 16211 15171 15172 16277 16276 
15107 15108 16213 16212 15172 15173 16278 16277 
15108 15109 16214 16213 15173 15174 16279 16278 
15109 15110 16215 16214 15174 15175 16280 16279 
15110 15111 16216 16215 15175 15176 16281 16280 
15111 15112 16217 16216 15176 15177 16282 16281 
15112 15113 16218 16217 15177 15178 16283 16282 
15113 15114 16219 16218 15178 15179 16284 16283 
15114 15115 16220 16219 15179 15180 16285 16284 
15115 15116 16221 16220 15180 15181 16286 16285 
15116 15117 16222 16221 15181 15182 16287 16286 
15117 15118 16223 16222 15182 15183 16288 16287 
15118 15119 16224 16223 15183 15184 16289 16288 
15119 15120 16225 16224 15184 15185 16290 16289 
15120 15121 16226 16225 15185 15186 16291 16290 
15121 15122 16227 16226 15186 15187 16292 16291 
15122 15123 16228 16227 15187 15188 16293 16292 
15123 15124 16229 16228 15188 15189 16294 16293 
15124 15125 16230 16229 15189 15190 16295 16294 
15125 15126 16231 16230 15190 15191 16296 16295 
15126 15127 16232 16231 15191 15192 16297 16296 
15127 15128 16233 16232 15192 15193 16298 16297 
15128 15129 16234 16233 15193 15194 16299 16298 
15129 15130 16235 16234 15194 15195 16300 16299 
15130 15131 16236 16235 15195 15196 16301 16300 
15131 15132 16237 16236 15196 15197 16302 16301 
15132 15133 16238 16237 15197 15198 16303 16302 
15133 15134 16239 16238 15198 15199 16304 16303 
15134 15135 16240 16239 15199 15200 16305 16304 
15135 15136 16241 16240 15200 15201 16306 16305 
15136 15137 16242 16241 15201 15202 16307 16306 
15137 15138 16243 16242 15202 15203 16308 16307 
15138 15139 16244 16243 15203 15204 16309 16308 
15139 15140 16245 16244 15204 15205 16310 16309 
15140 15141 16246 16245 15205 15206 16311 16310 
15141 15142 16247 16246 15206 15207 16312 16311 
15142 15143 16248 16247 15207 15208 16313 16312 
15143 15144 16249 16248 15208 15209 16314 16313 
15145 15146 16251 16250 15210 15211 16316 16315 
15146 15147 16252 16251 15211 15212 16317 16316 
15147 15148 16253 16252 15212 15213 16318 16317 
15148 15149 16254 16253 15213 15214 16319 16318 
15149 15150 16255 16254 15214 15215 16320 16319 
15150 15151 16256 16255 15215 15216 16321 16320 
15151 15152 16257 16256 15216 15217 16322 16321 
15152 15153 16258 16257 15217 15218 16323 16322 
15153 15154 16259 16258 15218 15219 16324 16323 
15154 15155 16260 16259 15219 15220 16325 16324 
15155 15156 16261 16260 15220 15221 16326 16325 
15156 15157 16262 16261 15221 15222 16327 16326 
15157 15158 16263 16262 15222 15223 16328 16327 
15158 15159 16264 16263 15223 15224 16329 16328 
15159 15160 16265 16264 15224 15225 16330 16329 
15160 15161 16266 16265 15225 15226 16331 16330 
15161 15162 16267 16266 15226 15227 16332 16331 
15162 15163 16268 16267 15227 15228 16333 16332 
15163 15164 16269 16268 15228 15229 16334 16333 
15164 15165 16270 16269 15229 15230 16335 16334 
15165 15166 16271 16270 15230 15231 16336 16335 
15166 15167 16272 16271 15231 15232 16337 16336 
15167 15168 16273 16272 15232 15233 16338 16337 
15168 15169 16274 16273 15233 15234 16339 16338 
15169 15170 16275 16274 15234 15235 16340 16339 
15170 15171 16276 16275 15235 15236 16341 16340 
15171 15172 16277 16276 15236 15237 16342 16341 
15172 15173 16278 16277 15237 15238 16343 16342 
15173 15174 16279 16278 15238 15239 16344 16343 
15174 15175 16280 16279 15239 15240 16345 16344 
15175 15176 16281 16280 15240 15241 16346 16345 
15176 15177 16282 16281 15241 15242 16347 16346 
15177 15178 16283 16282 15242 15243 16348 16347 
15178 15179 16284 16283 15243 15244 16349 16348 
15179 15180 16285 16284 15244 15245 16350 16349 
15180 15181 16286 16285 15245 15246 16351 16350 
15181 15182 16287 16286 15246 15247 16352 16351 
15182 15183 16288 16287 15247 15248 16353 16352 
15183 15184 16289 16288 15248 15249 16354 16353 
15184 15185 16290 16289 15249 15250 16355 16354 
15185 15186 16291 16290 15250 15251 16356 16355 
15186 15187 16292 16291 15251 15252 16357 16356 
15187 15188 16293 16292 15252 15253 16358 16357 
15188 15189 16294 16293 15253 15254 16359 16358 
15189 15190 16295 16294 15254 15255 16360 16359 
15190 15191 16296 16295 15255 15256 16361 16360 
15191 15192 16297 16296 15256 15257 16362 16361 
15192 15193 16298 16297 15257 15258 16363 16362 
15193 15194 16299 16298 15258 15259 16364 16363 
15194 15195 16300 16299 15259 15260 16365 16364 
15195 15196 16301 16300 15260 15261 16366 16365 
15196 15197 16302 16301 15261 15262 16367 16366 
15197 15198 16303 16302 15262 15263 16368 16367 
15198 15199 16304 16303 15263 15264 16369 16368 
15199 15200 16305 16304 15264 15265 16370 16369 
15200 15201 16306 16305 15265 15266 16371 16370 
15201 15202 16307 16306 15266 15267 16372 16371 
15202 15203 16308 16307 15267 15268 16373 16372 
15203 15204 16309 16308 15268 15269 16374 16373 
15204 15205 16310 16309 15269 15270 16375 16374 
15205 15206 16311 16310 15270 15271 16376 16375 
15206 15207 16312 16311 15271 15272 16377 16376 
15207 15208 16313 16312 15272 15273 16378 16377 
15208 15209 16314 16313 15273 15274 16379 16378 
15210 15211 16316 16315 15275 15276 16381 16380 
15211 15212 16317 16316 15276 15277 16382 16381 
15212 15213 16318 16317 15277 15278 16383 16382 
15213 15214 16319 16318 15278 15279 16384 16383 
15214 15215 16320 16319 15279 15280 16385 16384 
15215 15216 16321 16320 15280 15281 16386 16385 
15216 15217 16322 16321 15281 15282 16387 16386 
15217 15218 16323 16322 15282 15283 16388 16387 
15218 15219 16324 16323 15283 15284 16389 16388 
15219 15220 16325 16324 15284 15285 16390 16389 
15220 15221 16326 16325 15285 15286 16391 16390 
15221 15222 16327 16326 15286 15287 16392 16391 
15222 15223 16328 16327 15287 15288 16393 16392 
15223 15224 16329 16328 15288 15289 16394 16393 
15224 15225 16330 16329 15289 15290 16395 16394 
15225 15226 16331 16330 15290 15291 16396 16395 
15226 15227 16332 16331 15291 15292 16397 16396 
15227 15228 16333 16332 15292 15293 16398 16397 
15228 15229 16334 16333 15293 15294 16399 16398 
15229 15230 16335 16334 15294 15295 16400 16399 
15230 15231 16336 16335 15295 15296 16401 16400 
15231 15232 16337 16336 15296 15297 16402 16401 
15232 15233 16338 16337 15297 15298 16403 16402 
15233 15234 16339 16338 15298 15299 16404 16403 
15234 15235 16340 16339 15299 15300 16405 16404 
15235 15236 16341 16340 15300 15301 16406 16405 
15236 15237 16342 16341 15301 15302 16407 16406 
15237 15238 16343 16342 15302 15303 16408 16407 
15238 15239 16344 16343 15303 15304 16409 16408 
15239 15240 16345 16344 15304 15305 16410 16409 
15240 15241 16346 16345 15305 15306 16411 16410 
15241 15242 16347 16346 15306 15307 16412 16411 
15242 15243 16348 16347 15307 15308 16413 16412 
15243 15244 16349 16348 15308 15309 16414 16413 
15244 15245 16350 16349 15309 15310 16415 16414 
15245 15246 16351 16350 15310 15311 16416 16415 
15246 15247 16352 16351 15311 15312 16417 16416 
15247 15248 16353 16352 15312 15313 16418 16417 
15248 15249 16354 16353 15313 15314 16419 16418 
15249 15250 16355 16354 15314 15315 16420 16419 
15250 15251 16356 16355 15315 15316 16421 16420 
15251 15252 16357 16356 15316 15317 16422 16421 
15252 15253 16358 16357 15317 15318 16423 16422 
15253 15254 16359 16358 15318 15319 16424 16423 
15254 15255 16360 16359 15319 15320 16425 16424 
15255 15256 16361 16360 15320 15321 16426 16425 
15256 15257 16362 16361 15321 15322 16427 16426 
15257 15258 16363 16362 15322 15323 16428 16427 
15258 15259 16364 16363 15323 15324 16429 16428 
15259 15260 16365 16364 15324 15325 16430 16429 
15260 15261 16366 16365 15325 15326 16431 16430 
15261 15262 16367 16366 15326 15327 16432 16431 
15262 15263 16368 16367 15327 15328 16433 16432 
15263 15264 16369 16368 15328 15329 16434 16433 
15264 15265 16370 16369 15329 15330 16435 16434 
15265 15266 16371 16370 15330 15331 16436 16435 
15266 15267 16372 16371 15331 15332 16437 16436 
15267 15268 16373 16372 15332 15333 16438 16437 
15268 15269 16374 16373 15333 15334 16439 16438 
15269 15270 16375 16374 15334 15335 16440 16439 
15270 15271 16376 16375 15335 15336 16441 16440 
15271 15272 16377 16376 15336 15337 16442 16441 
15272 15273 16378 16377 15337 15338 16443 16442 
15273 15274 16379 16378 15338 15339 16444 16443 
15275 15276 16381 16380 15340 15341 16446 16445 
15276 15277 16382 16381 15341 15342 16447 16446 
15277 15278 16383 16382 15342 15343 16448 16447 
15278 15279 16384 16383 15343 15344 16449 16448 
15279 15280 16385 16384 15344 15345 16450 16449 
15280 15281 16386 16385 15345 15346 16451 16450 
15281 15282 16387 16386 15346 15347 16452 16451 
15282 15283 16388 16387 15347 15348 16453 16452 
15283 15284 16389 16388 15348 15349 16454 16453 
15284 15285 16390 16389 15349 15350 16455 16454 
15285 15286 16391 16390 15350 15351 16456 16455 
15286 15287 16392 16391 15351 15352 16457 16456 
15287 15288 16393 16392 15352 15353 16458 16457 
15288 15289 16394 16393 15353 15354 16459 16458 
15289 15290 16395 16394 15354 15355 16460 16459 
15290 15291 16396 16395 15355 15356 16461 16460 
15291 15292 16397 16396 15356 15357 16462 16461 
15292 15293 16398 16397 15357 15358 16463 16462 
15293 15294 16399 16398 15358 15359 16464 16463 
15294 15295 16400 16399 15359 15360 16465 16464 
15295 15296 16401 16400 15360 15361 16466 16465 
15296 15297 16402 16401 15361 15362 16467 16466 
15297 15298 16403 16402 15362 15363 16468 16467 
15298 15299 16404 16403 15363 15364 16469 16468 
15299 15300 16405 16404 15364 15365 16470 16469 
15300 15301 16406 16405 15365 15366 16471 16470 
15301 15302 16407 16406 15366 15367 16472 16471 
15302 15303 16408 16407 15367 15368 16473 16472 
15303 15304 16409 16408 15368 15369 16474 16473 
15304 15305 16410 16409 15369 15370 16475 16474 
15305 15306 16411 16410 15370 15371 16476 16475 
15306 15307 16412 16411 15371 15372 16477 16476 
15307 15308 16413 16412 15372 15373 16478 16477 
15308 15309 16414 16413 15373 15374 16479 16478 
15309 15310 16415 16414 15374 15375 16480 16479 
15310 15311 16416 16415 15375 15376 16481 16480 
15311 15312 16417 16416 15376 15377 16482 16481 
15312 15313 16418 16417 15377 15378 16483 16482 
15313 15314 16419 16418 15378 15379 16484 16483 
15314 15315 16420 16419 15379 15380 16485 16484 
15315 15316 16421 16420 15380 15381 16486 16485 
15316 15317 16422 16421 15381 15382 16487 16486 
15317 15318 16423 16422 15382 15383 16488 16487 
15318 15319 16424 16423 15383 15384 16489 16488 
15319 15320 16425 16424 15384 15385 16490 16489 
15320 15321 16426 16425 15385 15386 16491 16490 
15321 15322 16427 16426 15386 15387 16492 16491 
15322 15323 16428 16427 15387 15388 16493 16492 
15323 15324 16429 16428 15388 15389 16494 16493 
15324 15325 16430 16429 15389 15390 16495 16494 
15325 15326 16431 16430 15390 15391 16496 16495 
15326 15327 16432 16431 15391 15392 16497 16496 
15327 15328 16433 16432 15392 15393 16498 16497 
15328 15329 16434 16433 15393 15394 16499 16498 
15329 15330 16435 16434 15394 15395 16500 16499 
15330 15331 16436 16435 15395 15396 16501 16500 
15331 15332 16437 16436 15396 15397 16502 16501 
15332 15333 16438 16437 15397 15398 16503 16502 
15333 15334 16439 16438 15398 15399 16504 16503 
15334 15335 16440 16439 15399 15400 16505 16504 
15335 15336 16441 16440 15400 15401 16506 16505 
15336 15337 16442 16441 15401 15402 16507 16506 
15337 15338 16443 16442 15402 15403 16508 16507 
15338 15339 16444 16443 15403 15404 16509 16508 
15340 15341 16446 16445 15405 15406 16511 16510 
15341 15342 16447 16446 15406 15407 16512 16511 
15342 15343 16448 16447 15407 15408 16513 16512 
15343 15344 16449 16448 15408 15409 16514 16513 
15344 15345 16450 16449 15409 15410 16515 16514 
15345 15346 16451 16450 15410 15411 16516 16515 
15346 15347 16452 16451 15411 15412 16517 16516 
15347 15348 16453 16452 15412 15413 16518 16517 
15348 15349 16454 16453 15413 15414 16519 16518 
15349 15350 16455 16454 15414 15415 16520 16519 
15350 15351 16456 16455 15415 15416 16521 16520 
15351 15352 16457 16456 15416 15417 16522 16521 
15352 15353 16458 16457 15417 15418 16523 16522 
15353 15354 16459 16458 15418 15419 16524 16523 
15354 15355 16460 16459 15419 15420 16525 16524 
15355 15356 16461 16460 15420 15421 16526 16525 
15356 15357 16462 16461 15421 15422 16527 16526 
15357 15358 16463 16462 15422 15423 16528 16527 
15358 15359 16464 16463 15423 15424 16529 16528 
15359 15360 16465 16464 15424 15425 16530 16529 
15360 15361 16466 16465 15425 15426 16531 16530 
15361 15362 16467 16466 15426 15427 16532 16531 
15362 15363 16468 16467 15427 15428 16533 16532 
15363 15364 16469 16468 15428 15429 16534 16533 
15364 15365 16470 16469 15429 15430 16535 16534 
15365 15366 16471 16470 15430 15431 16536 16535 
15366 15367 16472 16471 15431 15432 16537 16536 
15367 15368 16473 16472 15432 15433 16538 16537 
15368 15369 16474 16473 15433 15434 16539 16538 
15369 15370 16475 16474 15434 15435 16540 16539 
15370 15371 16476 16475 15435 15436 16541 16540 
15371 15372 16477 16476 15436 15437 16542 16541 
15372 15373 16478 16477 15437 15438 16543 16542 
15373 15374 16479 16478 15438 15439 16544 16543 
15374 15375 16480 16479 15439 15440 16545 16544 
15375 15376 16481 16480 15440 15441 16546 16545 
15376 15377 16482 16481 15441 15442 16547 16546 
15377 15378 16483 16482 15442 15443 16548 16547 
15378 15379 16484 16483 15443 15444 16549 16548 
15379 15380 16485 16484 15444 15445 16550 16549 
15380 15381 16486 16485 15445 15446 16551 16550 
15381 15382 16487 16486 15446 15447 16552 16551 
15382 15383 16488 16487 15447 15448 16553 16552 
15383 15384 16489 16488 15448 15449 16554 16553 
15384 15385 16490 16489 15449 15450 16555 16554 
15385 15386 16491 16490 15450 15451 16556 16555 
15386 15387 16492 16491 15451 15452 16557 16556 
15387 15388 16493 16492 15452 15453 16558 16557 
15388 15389 16494 16493 15453 15454 16559 16558 
15389 15390 16495 16494 15454 15455 16560 16559 
15390 15391 16496 16495 15455 15456 16561 16560 
15391 15392 16497 16496 15456 15457 16562 16561 
15392 15393 16498 16497 15457 15458 16563 16562 
15393 15394 16499 16498 15458 15459 16564 16563 
15394 15395 16500 16499 15459 15460 16565 16564 
15395 15396 16501 16500 15460 15461 16566 16565 
15396 15397 16502 16501 15461 15462 16567 16566 
15397 15398 16503 16502 15462 15463 16568 16567 
15398 15399 16504 16503 15463 15464 16569 16568 
15399 15400 16505 16504 15464 15465 16570 16569 
15400 15401 16506 16505 15465 15466 16571 16570 
15401 15402 16507 16506 15466 15467 16572 16571 
15402 15403 16508 16507 15467 15468 16573 16572 
15403 15404 16509 16508 15468 15469 16574 16573 
15470 15471 16576 16575 15535 15536 16641 16640 
15471 15472 16577 16576 15536 15537 16642 16641 
15472 15473 16578 16577 15537 15538 16643 16642 
15473 15474 16579 16578 15538 15539 16644 16643 
15474 15475 16580 16579 15539 15540 16645 16644 
15475 15476 16581 16580 15540 15541 16646 16645 
15476 15477 16582 16581 15541 15542 16647 16646 
15477 15478 16583 16582 15542 15543 16648 16647 
15478 15479 16584 16583 15543 15544 16649 16648 
15479 15480 16585 16584 15544 15545 16650 16649 
15480 15481 16586 16585 15545 15546 16651 16650 
15481 15482 16587 16586 15546 15547 16652 16651 
15482 15483 16588 16587 15547 15548 16653 16652 
15483 15484 16589 16588 15548 15549 16654 16653 
15484 15485 16590 16589 15549 15550 16655 16654 
15485 15486 16591 16590 15550 15551 16656 16655 
15486 15487 16592 16591 15551 15552 16657 16656 
15487 15488 16593 16592 15552 15553 16658 16657 
15488 15489 16594 16593 15553 15554 16659 16658 
15489 15490 16595 16594 15554 15555 16660 16659 
15490 15491 16596 16595 15555 15556 16661 16660 
15491 15492 16597 16596 15556 15557 16662 16661 
15492 15493 16598 16597 15557 15558 16663 16662 
15493 15494 16599 16598 15558 15559 16664 16663 
15494 15495 16600 16599 15559 15560 16665 16664 
15495 15496 16601 16600 15560 15561 16666 16665 
15496 15497 16602 16601 15561 15562 16667 16666 
15497 15498 16603 16602 15562 15563 16668 16667 
15498 15499 16604 16603 15563 15564 16669 16668 
15499 15500 16605 16604 15564 15565 16670 16669 
15500 15501 16606 16605 15565 15566 16671 16670 
15501 15502 16607 16606 15566 15567 16672 16671 
15502 15503 16608 16607 15567 15568 16673 16672 
15503 15504 16609 16608 15568 15569 16674 16673 
15504 15505 16610 16609 15569 15570 16675 16674 
15505 15506 16611 16610 15570 15571 16676 16675 
15506 15507 16612 16611 15571 15572 16677 16676 
15507 15508 16613 16612 15572 15573 16678 16677 
15508 15509 16614 16613 15573 15574 16679 16678 
15509 15510 16615 16614 15574 15575 16680 16679 
15510 15511 16616 16615 15575 15576 16681 16680 
15511 15512 16617 16616 15576 15577 16682 16681 
15512 15513 16618 16617 15577 15578 16683 16682 
15513 15514 16619 16618 15578 15579 16684 16683 
15514 15515 16620 16619 15579 15580 16685 16684 
15515 15516 16621 16620 15580 15581 16686 16685 
15516 15517 16622 16621 15581 15582 16687 16686 
15517 15518 16623 16622 15582 15583 16688 16687 
15518 15519 16624 16623 15583 15584 16689 16688 
15519 15520 16625 16624 15584 15585 16690 16689 
15520 15521 16626 16625 15585 15586 16691 16690 
15521 15522 16627 16626 15586 15587 16692 16691 
15522 15523 16628 16627 15587 15588 16693 16692 
15523 15524 16629 16628 15588 15589 16694 16693 
15524 15525 16630 16629 15589 15590 16695 16694 
15525 15526 16631 16630 15590 15591 16696 16695 
15526 15527 16632 16631 15591 15592 16697 16696 
15527 15528 16633 16632 15592 15593 16698 16697 
15528 15529 16634 16633 15593 15594 16699 16698 
15529 15530 16635 16634 15594 15595 16700 16699 
15530 15531 16636 16635 15595 15596 16701 16700 
15531 15532 16637 16636 15596 15597 16702 16701 
15532 15533 16638 16637 15597 15598 16703 16702 
15533 15534 16639 16638 15598 15599 16704 16703 
15535 15536 16641 16640 15600 15601 16706 16705 
15536 15537 16642 16641 15601 15602 16707 16706 
15537 15538 16643 16642 15602 15603 16708 16707 
15538 15539 16644 16643 15603 15604 16709 16708 
15539 15540 16645 16644 15604 15605 16710 16709 
15540 15541 16646 16645 15605 15606 16711 16710 
15541 15542 16647 16646 15606 15607 16712 16711 
15542 15543 16648 16647 15607 15608 16713 16712 
15543 15544 16649 16648 15608 15609 16714 16713 
15544 15545 16650 16649 15609 15610 16715 16714 
15545 15546 16651 16650 15610 15611 16716 16715 
15546 15547 16652 16651 15611 15612 16717 16716 
15547 15548 16653 16652 15612 15613 16718 16717 
15548 15549 16654 16653 15613 15614 16719 16718 
15549 15550 16655 16654 15614 15615 16720 16719 
15550 15551 16656 16655 15615 15616 16721 16720 
15551 15552 16657 16656 15616 15617 16722 16721 
15552 15553 16658 16657 15617 15618 16723 16722 
15553 15554 16659 16658 15618 15619 16724 16723 
15554 15555 16660 16659 15619 15620 16725 16724 
15555 15556 16661 16660 15620 15621 16726 16725 
15556 15557 16662 16661 15621 15622 16727 16726 
15557 15558 16663 16662 15622 15623 16728 16727 
15558 15559 16664 16663 15623 15624 16729 16728 
15559 15560 16665 16664 15624 15625 16730 16729 
15560 15561 16666 16665 15625 15626 16731 16730 
15561 15562 16667 16666 15626 15627 16732 16731 
15562 15563 16668 16667 15627 15628 16733 16732 
15563 15564 16669 16668 15628 15629 16734 16733 
15564 15565 16670 16669 15629 15630 16735 16734 
15565 15566 16671 16670 15630 15631 16736 16735 
15566 15567 16672 16671 15631 15632 16737 16736 
15567 15568 16673 16672 15632 15633 16738 16737 
15568 15569 16674 16673 15633 15634 16739 16738 
15569 15570 16675 16674 15634 15635 16740 16739 
15570 15571 16676 16675 15635 15636 16741 16740 
15571 15572 16677 16676 15636 15637 16742 16741 
15572 15573 16678 16677 15637 15638 16743 16742 
15573 15574 16679 16678 15638 15639 16744 16743 
15574 15575 16680 16679 15639 15640 16745 16744 
15575 15576 16681 16680 15640 15641 16746 16745 
15576 15577 16682 16681 15641 15642 16747 16746 
15577 15578 16683 16682 15642 15643 16748 16747 
15578 15579 16684 16683 15643 15644 16749 16748 
15579 15580 16685 16684 15644 15645 16750 16749 
15580 15581 16686 16685 15645 15646 16751 16750 
15581 15582 16687 16686 15646 15647 16752 16751 
15582 15583 16688 16687 15647 15648 16753 16752 
15583 15584 16689 16688 15648 15649 16754 16753 
15584 15585 16690 16689 15649 15650 16755 16754 
15585 15586 16691 16690 15650 15651 16756 16755 
15586 15587 16692 16691 15651 15652 16757 16756 
15587 15588 16693 16692 15652 15653 16758 16757 
15588 15589 16694 16693 15653 15654 16759 16758 
15589 15590 16695 16694 15654 15655 16760 16759 
15590 15591 16696 16695 15655 15656 16761 16760 
15591 15592 16697 16696 15656 15657 16762 16761 
15592 15593 16698 16697 15657 15658 16763 16762 
15593 15594 16699 16698 15658 15659 16764 16763 
15594 15595 16700 16699 15659 15660 16765 16764 
15595 15596 16701 16700 15660 15661 16766 16765 
15596 15597 16702 16701 15661 15662 16767 16766 
15597 15598 16703 16702 15662 15663 16768 16767 
15598 15599 16704 16703 15663 15664 16769 16768 
15600 15601 16706 16705 15665 15666 16771 16770 
15601 15602 16707 16706 15666 15667 16772 16771 
15602 15603 16708 16707 15667 15668 16773 16772 
15603 15604 16709 16708 15668 15669 16774 16773 
15604 15605 16710 16709 15669 15670 16775 16774 
15605 15606 16711 16710 15670 15671 16776 16775 
15606 15607 16712 16711 15671 15672 16777 16776 
15607 15608 16713 16712 15672 15673 16778 16777 
15608 15609 16714 16713 15673 15674 16779 16778 
15609 15610 16715 16714 15674 15675 16780 16779 
15610 15611 16716 16715 15675 15676 16781 16780 
15611 15612 16717 16716 15676 15677 16782 16781 
15612 15613 16718 16717 15677 15678 16783 16782 
15613 15614 16719 16718 15678 15679 16784 16783 
15614 15615 16720 16719 15679 15680 16785 16784 
15615 15616 16721 16720 15680 15681 16786 16785 
15616 15617 16722 16721 15681 15682 16787 16786 
15617 15618 16723 16722 15682 15683 16788 16787 
15618 15619 16724 16723 15683 15684 16789 16788 
15619 15620 16725 16724 15684 15685 16790 16789 
15620 15621 16726 16725 15685 15686 16791 16790 
15621 15622 16727 16726 15686 15687 16792 16791 
15622 15623 16728 16727 15687 15688 16793 16792 
15623 15624 16729 16728 15688 15689 16794 16793 
15624 15625 16730 16729 15689 15690 16795 16794 
15625 15626 16731 16730 15690 15691 16796 16795 
15626 15627 16732 16731 15691 15692 16797 16796 
15627 15628 16733 16732 15692 15693 16798 16797 
15628 15629 16734 16733 15693 15694 16799 16798 
15629 15630 16735 16734 15694 15695 16800 16799 
15630 15631 16736 16735 15695 15696 16801 16800 
15631 15632 16737 16736 15696 15697 16802 16801 
15632 15633 16738 16737 15697 15698 16803 16802 
15633 15634 16739 16738 15698 15699 16804 16803 
15634 15635 16740 16739 15699 15700 16805 16804 
15635 15636 16741 16740 15700 15701 16806 16805 
15636 15637 16742 16741 15701 15702 16807 16806 
15637 15638 16743 16742 15702 15703 16808 16807 
15638 15639 16744 16743 15703 15704 16809 16808 
15639 15640 16745 16744 15704 15705 16810 16809 
15640 15641 16746 16745 15705 15706 16811 16810 
15641 15642 16747 16746 15706 15707 16812 16811 
15642 15643 16748 16747 15707 15708 16813 16812 
15643 15644 16749 16748 15708 15709 16814 16813 
15644 15645 16750 16749 15709 15710 16815 16814 
15645 15646 16751 16750 15710 15711 16816 16815 
15646 15647 16752 16751 15711 15712 16817 16816 
15647 15648 16753 16752 15712 15713 16818 16817 
15648 15649 16754 16753 15713 15714 16819 16818 
15649 15650 16755 16754 15714 15715 16820 16819 
15650 15651 16756 16755 15715 15716 16821 16820 
15651 15652 16757 16756 15716 15717 16822 16821 
15652 15653 16758 16757 15717 15718 16823 16822 
15653 15654 16759 16758 15718 15719 16824 16823 
15654 15655 16760 16759 15719 15720 16825 16824 
15655 15656 16761 16760 15720 15721 16826 16825 
15656 15657 16762 16761 15721 15722 16827 16826 
15657 15658 16763 16762 15722 15723 16828 16827 
15658 15659 16764 16763 15723 15724 16829 16828 
15659 15660 16765 16764 15724 15725 16830 16829 
15660 15661 16766 16765 15725 15726 16831 16830 
15661 15662 16767 16766 15726 15727 16832 16831 
15662 15663 16768 16767 15727 15728 16833 16832 
15663 15664 16769 16768 15728 15729 16834 16833 
15665 15666 16771 16770 15730 15731 16836 16835 
15666 15667 16772 16771 15731 15732 16837 16836 
15667 15668 16773 16772 15732 15733 16838 16837 
15668 15669 16774 16773 15733 15734 16839 16838 
15669 15670 16775 16774 15734 15735 16840 16839 
15670 15671 16776 16775 15735 15736 16841 16840 
15671 15672 16777 16776 15736 15737 16842 16841 
15672 15673 16778 16777 15737 15738 16843 16842 
15673 15674 16779 16778 15738 15739 16844 16843 
15674 15675 16780 16779 15739 15740 16845 16844 
15675 15676 16781 16780 15740 15741 16846 16845 
15676 15677 16782 16781 15741 15742 16847 16846 
15677 15678 16783 16782 15742 15743 16848 16847 
15678 15679 16784 16783 15743 15744 16849 16848 
15679 15680 16785 16784 15744 15745 16850 16849 
15680 15681 16786 16785 15745 15746 16851 16850 
15681 15682 16787 16786 15746 15747 16852 16851 
15682 15683 16788 16787 15747 15748 16853 16852 
15683 15684 16789 16788 15748 15749 16854 16853 
15684 15685 16790 16789 15749 15750 16855 16854 
15685 15686 16791 16790 15750 15751 16856 16855 
15686 15687 16792 16791 15751 15752 16857 16856 
15687 15688 16793 16792 15752 15753 16858 16857 
15688 15689 16794 16793 15753 15754 16859 16858 
15689 15690 16795 16794 15754 15755 16860 16859 
15690 15691 16796 16795 15755 15756 16861 16860 
15691 15692 16797 16796 15756 15757 16862 16861 
15692 15693 16798 16797 15757 15758 16863 16862 
15693 15694 16799 16798 15758 15759 16864 16863 
15694 15695 16800 16799 15759 15760 16865 16864 
15695 15696 16801 16800 15760 15761 16866 16865 
15696 15697 16802 16801 15761 15762 16867 16866 
15697 15698 16803 16802 15762 15763 16868 16867 
15698 15699 16804 16803 15763 15764 16869 16868 
15699 15700 16805 16804 15764 15765 16870 16869 
15700 15701 16806 16805 15765 15766 16871 16870 
15701 15702 16807 16806 15766 15767 16872 16871 
15702 15703 16808 16807 15767 15768 16873 16872 
15703 15704 16809 16808 15768 15769 16874 16873 
15704 15705 16810 16809 15769 15770 16875 16874 
15705 15706 16811 16810 15770 15771 16876 16875 
15706 15707 16812 16811 15771 15772 16877 16876 
15707 15708 16813 16812 15772 15773 16878 16877 
15708 15709 16814 16813 15773 15774 16879 16878 
15709 15710 16815 16814 15774 15775 16880 16879 
15710 15711 16816 16815 15775 15776 16881 16880 
15711 15712 16817 16816 15776 15777 16882 16881 
15712 15713 16818 16817 15777 15778 16883 16882 
15713 15714 16819 16818 15778 15779 16884 16883 
15714 15715 16820 16819 15779 15780 16885 16884 
15715 15716 16821 16820 15780 15781 16886 16885 
15716 15717 16822 16821 15781 15782 16887 16886 
15717 15718 16823 16822 15782 15783 16888 16887 
15718 15719 16824 16823 15783 15784 16889 16888 
15719 15720 16825 16824 15784 15785 16890 16889 
15720 15721 16826 16825 15785 15786 16891 16890 
15721 15722 16827 16826 15786 15787 16892 16891 
15722 15723 16828 16827 15787 15788 16893 16892 
15723 15724 16829 16828 15788 15789 16894 16893 
15724 15725 16830 16829 15789 15790 16895 16894 
15725 15726 16831 16830 15790 15791 16896 16895 
15726 15727 16832 16831 15791 15792 16897 16896 
15727 15728 16833 16832 15792 15793 16898 16897 
15728 15729 16834 16833 15793 15794 16899 16898 
15730 15731 16836 16835 15795 15796 16901 16900 
15731 15732 16837 16836 15796 15797 16902 16901 
15732 15733 16838 16837 15797 15798 16903 16902 
15733 15734 16839 16838 15798 15799 16904 16903 
15734 15735 16840 16839 15799 15800 16905 16904 
15735 15736 16841 16840 15800 15801 16906 16905 
15736 15737 16842 16841 15801 15802 16907 16906 
15737 15738 16843 16842 15802 15803 16908 16907 
15738 15739 16844 16843 15803 15804 16909 16908 
15739 15740 16845 16844 15804 15805 16910 16909 
15740 15741 16846 16845 15805 15806 16911 16910 
15741 15742 16847 16846 15806 15807 16912 16911 
15742 15743 16848 16847 15807 15808 16913 16912 
15743 15744 16849 16848 15808 15809 16914 16913 
15744 15745 16850 16849 15809 15810 16915 16914 
15745 15746 16851 16850 15810 15811 16916 16915 
15746 15747 16852 16851 15811 15812 16917 16916 
15747 15748 16853 16852 15812 15813 16918 16917 
15748 15749 16854 16853 15813 15814 16919 16918 
15749 15750 16855 16854 15814 15815 16920 16919 
15750 15751 16856 16855 15815 15816 16921 16920 
15751 15752 16857 16856 15816 15817 16922 16921 
15752 15753 16858 16857 15817 15818 16923 16922 
15753 15754 16859 16858 15818 15819 16924 16923 
15754 15755 16860 16859 15819 15820 16925 16924 
15755 15756 16861 16860 15820 15821 16926 16925 
15756 15757 16862 16861 15821 15822 16927 16926 
15757 15758 16863 16862 15822 15823 16928 16927 
15758 15759 16864 16863 15823 15824 16929 16928 
15759 15760 16865 16864 15824 15825 16930 16929 
15760 15761 16866 16865 15825 15826 16931 16930 
15761 15762 16867 16866 15826 15827 16932 16931 
15762 15763 16868 16867 15827 15828 16933 16932 
15763 15764 16869 16868 15828 15829 16934 16933 
15764 15765 16870 16869 15829 15830 16935 16934 
15765 15766 16871 16870 15830 15831 16936 16935 
15766 15767 16872 16871 15831 15832 16937 16936 
15767 15768 16873 16872 15832 15833 16938 16937 
15768 15769 16874 16873 15833 15834 16939 16938 
15769 15770 16875 16874 15834 15835 16940 16939 
15770 15771 16876 16875 15835 15836 16941 16940 
15771 15772 16877 16876 15836 15837 16942 16941 
15772 15773 16878 16877 15837 15838 16943 16942 
15773 15774 16879 16878 15838 15839 16944 16943 
15774 15775 16880 16879 15839 15840 16945 16944 
15775 15776 16881 16880 15840 15841 16946 16945 
15776 15777 16882 16881 15841 15842 16947 16946 
15777 15778 16883 16882 15842 15843 16948 16947 
15778 15779 16884 16883 15843 15844 16949 16948 
15779 15780 16885 16884 15844 15845 16950 16949 
15780 15781 16886 16885 15845 15846 16951 16950 
15781 15782 16887 16886 15846 15847 16952 16951 
15782 15783 16888 16887 15847 15848 16953 16952 
15783 15784 16889 16888 15848 15849 16954 16953 
15784 15785 16890 16889 15849 15850 16955 16954 
15785 15786 16891 16890 15850 15851 16956 16955 
15786 15787 16892 16891 15851 15852 16957 16956 
15787 15788 16893 16892 15852 15853 16958 16957 
15788 15789 16894 16893 15853 15854 16959 16958 
15789 15790 16895 16894 15854 15855 16960 16959 
15790 15791 16896 16895 15855 15856 16961 16960 
15791 15792 16897 16896 15856 15857 16962 16961 
15792 15793 16898 16897 15857 15858 16963 16962 
15793 15794 16899 16898 15858 15859 16964 16963 
15795 15796 16901 16900 15860 15861 16966 16965 
15796 15797 16902 16901 15861 15862 16967 16966 
15797 15798 16903 16902 15862 15863 16968 16967 
15798 15799 16904 16903 15863 15864 16969 16968 
15799 15800 16905 16904 15864 15865 16970 16969 
15800 15801 16906 16905 15865 15866 16971 16970 
15801 15802 16907 16906 15866 15867 16972 16971 
15802 15803 16908 16907 15867 15868 16973 16972 
15803 15804 16909 16908 15868 15869 16974 16973 
15804 15805 16910 16909 15869 15870 16975 16974 
15805 15806 16911 16910 15870 15871 16976 16975 
15806 15807 16912 16911 15871 15872 16977 16976 
15807 15808 16913 16912 15872 15873 16978 16977 
15808 15809 16914 16913 15873 15874 16979 16978 
15809 15810 16915 16914 15874 15875 16980 16979 
15810 15811 16916 16915 15875 15876 16981 16980 
15811 15812 16917 16916 15876 15877 16982 16981 
15812 15813 16918 16917 15877 15878 16983 16982 
15813 15814 16919 16918 15878 15879 16984 16983 
15814 15815 16920 16919 15879 15880 16985 16984 
15815 15816 16921 16920 15880 15881 16986 16985 
15816 15817 16922 16921 15881 15882 16987 16986 
15817 15818 16923 16922 15882 15883 16988 16987 
15818 15819 16924 16923 15883 15884 16989 16988 
15819 15820 16925 16924 15884 15885 16990 16989 
15820 15821 16926 16925 15885 15886 16991 16990 
15821 15822 16927 16926 15886 15887 16992 16991 
15822 15823 16928 16927 15887 15888 16993 16992 
15823 15824 16929 16928 15888 15889 16994 16993 
15824 15825 16930 16929 15889 15890 16995 16994 
15825 15826 16931 16930 15890 15891 16996 16995 
15826 15827 16932 16931 15891 15892 16997 16996 
15827 15828 16933 16932 15892 15893 16998 16997 
15828 15829 16934 16933 15893 15894 16999 16998 
15829 15830 16935 16934 15894 15895 17000 16999 
15830 15831 16936 16935 15895 15896 17001 17000 
15831 15832 16937 16936 15896 15897 17002 17001 
15832 15833 16938 16937 15897 15898 17003 17002 
15833 15834 16939 16938 15898 15899 17004 17003 
15834 15835 16940 16939 15899 15900 17005 17004 
15835 15836 16941 16940 15900 15901 17006 17005 
15836 15837 16942 16941 15901 15902 17007 17006 
15837 15838 16943 16942 15902 15903 17008 17007 
15838 15839 16944 16943 15903 15904 17009 17008 
15839 15840 16945 16944 15904 15905 17010 17009 
15840 15841 16946 16945 15905 15906 17011 17010 
15841 15842 16947 16946 15906 15907 17012 17011 
15842 15843 16948 16947 15907 15908 17013 17012 
15843 15844 16949 16948 15908 15909 17014 17013 
15844 15845 16950 16949 15909 15910 17015 17014 
15845 15846 16951 16950 15910 15911 17016 17015 
15846 15847 16952 16951 15911 15912 17017 17016 
15847 15848 16953 16952 15912 15913 17018 17017 
15848 15849 16954 16953 15913 15914 17019 17018 
15849 15850 16955 16954 15914 15915 17020 17019 
15850 15851 16956 16955 15915 15916 17021 17020 
15851 15852 16957 16956 15916 15917 17022 17021 
15852 15853 16958 16957 15917 15918 17023 17022 
15853 15854 16959 16958 15918 15919 17024 17023 
15854 15855 16960 16959 15919 15920 17025 17024 
15855 15856 16961 16960 15920 15921 17026 17025 
15856 15857 16962 16961 15921 15922 17027 17026 
15857 15858 16963 16962 15922 15923 17028 17027 
15858 15859 16964 16963 15923 15924 17029 17028 
15860 15861 16966 16965 15925 15926 17031 17030 
15861 15862 16967 16966 15926 15927 17032 17031 
15862 15863 16968 16967 15927 15928 17033 17032 
15863 15864 16969 16968 15928 15929 17034 17033 
15864 15865 16970 16969 15929 15930 17035 17034 
15865 15866 16971 16970 15930 15931 17036 17035 
15866 15867 16972 16971 15931 15932 17037 17036 
15867 15868 16973 16972 15932 15933 17038 17037 
15868 15869 16974 16973 15933 15934 17039 17038 
15869 15870 16975 16974 15934 15935 17040 17039 
15870 15871 16976 16975 15935 15936 17041 17040 
15871 15872 16977 16976 15936 15937 17042 17041 
15872 15873 16978 16977 15937 15938 17043 17042 
15873 15874 16979 16978 15938 15939 17044 17043 
15874 15875 16980 16979 15939 15940 17045 17044 
15875 15876 16981 16980 15940 15941 17046 17045 
15876 15877 16982 16981 15941 15942 17047 17046 
15877 15878 16983 16982 15942 15943 17048 17047 
15878 15879 16984 16983 15943 15944 17049 17048 
15879 15880 16985 16984 15944 15945 17050 17049 
15880 15881 16986 16985 15945 15946 17051 17050 
15881 15882 16987 16986 15946 15947 17052 17051 
15882 15883 16988 16987 15947 15948 17053 17052 
15883 15884 16989 16988 15948 15949 17054 17053 
15884 15885 16990 16989 15949 15950 17055 17054 
15885 15886 16991 16990 15950 15951 17056 17055 
15886 15887 16992 16991 15951 15952 17057 17056 
15887 15888 16993 16992 15952 15953 17058 17057 
15888 15889 16994 16993 15953 15954 17059 17058 
15889 15890 16995 16994 15954 15955 17060 17059 
15890 15891 16996 16995 15955 15956 17061 17060 
15891 15892 16997 16996 15956 15957 17062 17061 
15892 15893 16998 16997 15957 15958 17063 17062 
15893 15894 16999 16998 15958 15959 17064 17063 
15894 15895 17000 16999 15959 15960 17065 17064 
15895 15896 17001 17000 15960 15961 17066 17065 
15896 15897 17002 17001 15961 15962 17067 17066 
15897 15898 17003 17002 15962 15963 17068 17067 
15898 15899 17004 17003 15963 15964 17069 17068 
15899 15900 17005 17004 15964 15965 17070 17069 
15900 15901 17006 17005 15965 15966 17071 17070 
15901 15902 17007 17006 15966 15967 17072 17071 
15902 15903 17008 17007 15967 15968 17073 17072 
15903 15904 17009 17008 15968 15969 17074 17073 
15904 15905 17010 17009 15969 15970 17075 17074 
15905 15906 17011 17010 15970 15971 17076 17075 
15906 15907 17012 17011 15971 15972 17077 17076 
15907 15908 17013 17012 15972 15973 17078 17077 
15908 15909 17014 17013 15973 15974 17079 17078 
15909 15910 17015 17014 15974 15975 17080 17079 
15910 15911 17016 17015 15975 15976 17081 17080 
15911 15912 17017 17016 15976 15977 17082 17081 
15912 15913 17018 17017 15977 15978 17083 17082 
15913 15914 17019 17018 15978 15979 17084 17083 
15914 15915 17020 17019 15979 15980 17085 17084 
15915 15916 17021 17020 15980 15981 17086 17085 
15916 15917 17022 17021 15981 15982 17087 17086 
15917 15918 17023 17022 15982 15983 17088 17087 
15918 15919 17024 17023 15983 15984 17089 17088 
15919 15920 17025 17024 15984 15985 17090 17089 
15920 15921 17026 17025 15985 15986 17091 17090 
15921 15922 17027 17026 15986 15987 17092 17091 
15922 15923 17028 17027 15987 15988 17093 17092 
15923 15924 17029 17028 15988 15989 17094 17093 
15925 15926 17031 17030 15990 15991 17096 17095 
15926 15927 17032 17031 15991 15992 17097 17096 
15927 15928 17033 17032 15992 15993 17098 17097 
15928 15929 17034 17033 15993 15994 17099 17098 
15929 15930 17035 17034 15994 15995 17100 17099 
15930 15931 17036 17035 15995 15996 17101 17100 
15931 15932 17037 17036 15996 15997 17102 17101 
15932 15933 17038 17037 15997 15998 17103 17102 
15933 15934 17039 17038 15998 15999 17104 17103 
15934 15935 17040 17039 15999 16000 17105 17104 
15935 15936 17041 17040 16000 16001 17106 17105 
15936 15937 17042 17041 16001 16002 17107 17106 
15937 15938 17043 17042 16002 16003 17108 17107 
15938 15939 17044 17043 16003 16004 17109 17108 
15939 15940 17045 17044 16004 16005 17110 17109 
15940 15941 17046 17045 16005 16006 17111 17110 
15941 15942 17047 17046 16006 16007 17112 17111 
15942 15943 17048 17047 16007 16008 17113 17112 
15943 15944 17049 17048 16008 16009 17114 17113 
15944 15945 17050 17049 16009 16010 17115 17114 
15945 15946 17051 17050 16010 16011 17116 17115 
15946 15947 17052 17051 16011 16012 17117 17116 
15947 15948 17053 17052 16012 16013 17118 17117 
15948 15949 17054 17053 16013 16014 17119 17118 
15949 15950 17055 17054 16014 16015 17120 17119 
15950 15951 17056 17055 16015 16016 17121 17120 
15951 15952 17057 17056 16016 16017 17122 17121 
15952 15953 17058 17057 16017 16018 17123 17122 
15953 15954 17059 17058 16018 16019 17124 17123 
15954 15955 17060 17059 16019 16020 17125 17124 
15955 15956 17061 17060 16020 16021 17126 17125 
15956 15957 17062 17061 16021 16022 17127 17126 
15957 15958 17063 17062 16022 16023 17128 17127 
15958 15959 17064 17063 16023 16024 17129 17128 
15959 15960 17065 17064 16024 16025 17130 17129 
15960 15961 17066 17065 16025 16026 17131 17130 
15961 15962 17067 17066 16026 16027 17132 17131 
15962 15963 17068 17067 16027 16028 17133 17132 
15963 15964 17069 17068 16028 16029 17134 17133 
15964 15965 17070 17069 16029 16030 17135 17134 
15965 15966 17071 17070 16030 16031 17136 17135 
15966 15967 17072 17071 16031 16032 17137 17136 
15967 15968 17073 17072 16032 16033 17138 17137 
15968 15969 17074 17073 16033 16034 17139 17138 
15969 15970 17075 17074 16034 16035 17140 17139 
15970 15971 17076 17075 16035 16036 17141 17140 
15971 15972 17077 17076 16036 16037 17142 17141 
15972 15973 17078 17077 16037 16038 17143 17142 
15973 15974 17079 17078 16038 16039 17144 17143 
15974 15975 17080 17079 16039 16040 17145 17144 
15975 15976 17081 17080 16040 16041 17146 17145 
15976 15977 17082 17081 16041 16042 17147 17146 
15977 15978 17083 17082 16042 16043 17148 17147 
15978 15979 17084 17083 16043 16044 17149 17148 
15979 15980 17085 17084 16044 16045 17150 17149 
15980 15981 17086 17085 16045 16046 17151 17150 
15981 15982 17087 17086 16046 16047 17152 17151 
15982 15983 17088 17087 16047 16048 17153 17152 
15983 15984 17089 17088 16048 16049 17154 17153 
15984 15985 17090 17089 16049 16050 17155 17154 
15985 15986 17091 17090 16050 16051 17156 17155 
15986 15987 17092 17091 16051 16052 17157 17156 
15987 15988 17093 17092 16052 16053 17158 17157 
15988 15989 17094 17093 16053 16054 17159 17158 
15990 15991 17096 17095 16055 16056 17161 17160 
15991 15992 17097 17096 16056 16057 17162 17161 
15992 15993 17098 17097 16057 16058 17163 17162 
15993 15994 17099 17098 16058 16059 17164 17163 
15994 15995 17100 17099 16059 16060 17165 17164 
15995 15996 17101 17100 16060 16061 17166 17165 
15996 15997 17102 17101 16061 16062 17167 17166 
15997 15998 17103 17102 16062 16063 17168 17167 
15998 15999 17104 17103 16063 16064 17169 17168 
15999 16000 17105 17104 16064 16065 17170 17169 
16000 16001 17106 17105 16065 16066 17171 17170 
16001 16002 17107 17106 16066 16067 17172 17171 
16002 16003 17108 17107 16067 16068 17173 17172 
16003 16004 17109 17108 16068 16069 17174 17173 
16004 16005 17110 17109 16069 16070 17175 17174 
16005 16006 17111 17110 16070 16071 17176 17175 
16006 16007 17112 17111 16071 16072 17177 17176 
16007 16008 17113 17112 16072 16073 17178 17177 
16008 16009 17114 17113 16073 16074 17179 17178 
16009 16010 17115 17114 16074 16075 17180 17179 
16010 16011 17116 17115 16075 16076 17181 17180 
16011 16012 17117 17116 16076 16077 17182 17181 
16012 16013 17118 17117 16077 16078 17183 17182 
16013 16014 17119 17118 16078 16079 17184 17183 
16014 16015 17120 17119 16079 16080 17185 17184 
16015 16016 17121 17120 16080 16081 17186 17185 
16016 16017 17122 17121 16081 16082 17187 17186 
16017 16018 17123 17122 16082 16083 17188 17187 
16018 16019 17124 17123 16083 16084 17189 17188 
16019 16020 17125 17124 16084 16085 17190 17189 
16020 16021 17126 17125 16085 16086 17191 17190 
16021 16022 17127 17126 16086 16087 17192 17191 
16022 16023 17128 17127 16087 16088 17193 17192 
16023 16024 17129 17128 16088 16089 17194 17193 
16024 16025 17130 17129 16089 16090 17195 17194 
16025 16026 17131 17130 16090 16091 17196 17195 
16026 16027 17132 17131 16091 16092 17197 17196 
16027 16028 17133 17132 16092 16093 17198 17197 
16028 16029 17134 17133 16093 16094 17199 17198 
16029 16030 17135 17134 16094 16095 17200 17199 
16030 16031 17136 17135 16095 16096 17201 17200 
16031 16032 17137 17136 16096 16097 17202 17201 
16032 16033 17138 17137 16097 16098 17203 17202 
16033 16034 17139 17138 16098 16099 17204 17203 
16034 16035 17140 17139 16099 16100 17205 17204 
16035 16036 17141 17140 16100 16101 17206 17205 
16036 16037 17142 17141 16101 16102 17207 17206 
16037 16038 17143 17142 16102 16103 17208 17207 
16038 16039 17144 17143 16103 16104 17209 17208 
16039 16040 17145 17144 16104 16105 17210 17209 
16040 16041 17146 17145 16105 16106 17211 17210 
16041 16042 17147 17146 16106 16107 17212 17211 
16042 16043 17148 17147 16107 16108 17213 17212 
16043 16044 17149 17148 16108 16109 17214 17213 
16044 16045 17150 17149 16109 16110 17215 17214 
16045 16046 17151 17150 16110 16111 17216 17215 
16046 16047 17152 17151 16111 16112 17217 17216 
16047 16048 17153 17152 16112 16113 17218 17217 
16048 16049 17154 17153 16113 16114 17219 17218 
16049 16050 17155 17154 16114 16115 17220 17219 
16050 16051 17156 17155 16115 16116 17221 17220 
16051 16052 17157 17156 16116 16117 17222 17221 
16052 16053 17158 17157 16117 16118 17223 17222 
16053 16054 17159 17158 16118 16119 17224 17223 
16055 16056 17161 17160 16120 16121 17226 17225 
16056 16057 17162 17161 16121 16122 17227 17226 
16057 16058 17163 17162 16122 16123 17228 17227 
16058 16059 17164 17163 16123 16124 17229 17228 
16059 16060 17165 17164 16124 16125 17230 17229 
16060 16061 17166 17165 16125 16126 17231 17230 
16061 16062 17167 17166 16126 16127 17232 17231 
16062 16063 17168 17167 16127 16128 17233 17232 
16063 16064 17169 17168 16128 16129 17234 17233 
16064 16065 17170 17169 16129 16130 17235 17234 
16065 16066 17171 17170 16130 16131 17236 17235 
16066 16067 17172 17171 16131 16132 17237 17236 
16067 16068 17173 17172 16132 16133 17238 17237 
16068 16069 17174 17173 16133 16134 17239 17238 
16069 16070 17175 17174 16134 16135 17240 17239 
16070 16071 17176 17175 16135 16136 17241 17240 
16071 16072 17177 17176 16136 16137 17242 17241 
16072 16073 17178 17177 16137 16138 17243 17242 
16073 16074 17179 17178 16138 16139 17244 17243 
16074 16075 17180 17179 16139 16140 17245 17244 
16075 16076 17181 17180 16140 16141 17246 17245 
16076 16077 17182 17181 16141 16142 17247 17246 
16077 16078 17183 17182 16142 16143 17248 17247 
16078 16079 17184 17183 16143 16144 17249 17248 
16079 16080 17185 17184 16144 16145 17250 17249 
16080 16081 17186 17185 16145 16146 17251 17250 
16081 16082 17187 17186 16146 16147 17252 17251 
16082 16083 17188 17187 16147 16148 17253 17252 
16083 16084 17189 17188 16148 16149 17254 17253 
16084 16085 17190 17189 16149 16150 17255 17254 
16085 16086 17191 17190 16150 16151 17256 17255 
16086 16087 17192 17191 16151 16152 17257 17256 
16087 16088 17193 17192 16152 16153 17258 17257 
16088 16089 17194 17193 16153 16154 17259 17258 
16089 16090 17195 17194 16154 16155 17260 17259 
16090 16091 17196 17195 16155 16156 17261 17260 
16091 16092 17197 17196 16156 16157 17262 17261 
16092 16093 17198 17197 16157 16158 17263 17262 
16093 16094 17199 17198 16158 16159 17264 17263 
16094 16095 17200 17199 16159 16160 17265 17264 
16095 16096 17201 17200 16160 16161 17266 17265 
16096 16097 17202 17201 16161 16162 17267 17266 
16097 16098 17203 17202 16162 16163 17268 17267 
16098 16099 17204 17203 16163 16164 17269 17268 
16099 16100 17205 17204 16164 16165 17270 17269 
16100 16101 17206 17205 16165 16166 17271 17270 
16101 16102 17207 17206 16166 16167 17272 17271 
16102 16103 17208 17207 16167 16168 17273 17272 
16103 16104 17209 17208 16168 16169 17274 17273 
16104 16105 17210 17209 16169 16170 17275 17274 
16105 16106 17211 17210 16170 16171 17276 17275 
16106 16107 17212 17211 16171 16172 17277 17276 
16107 16108 17213 17212 16172 16173 17278 17277 
16108 16109 17214 17213 16173 16174 17279 17278 
16109 16110 17215 17214 16174 16175 17280 17279 
16110 16111 17216 17215 16175 16176 17281 17280 
16111 16112 17217 17216 16176 16177 17282 17281 
16112 16113 17218 17217 16177 16178 17283 17282 
16113 16114 17219 17218 16178 16179 17284 17283 
16114 16115 17220 17219 16179 16180 17285 17284 
16115 16116 17221 17220 16180 16181 17286 17285 
16116 16117 17222 17221 16181 16182 17287 17286 
16117 16118 17223 17222 16182 16183 17288 17287 
16118 16119 17224 17223 16183 16184 17289 17288 
16120 16121 17226 17225 16185 16186 17291 17290 
16121 16122 17227 17226 16186 16187 17292 17291 
16122 16123 17228 17227 16187 16188 17293 17292 
16123 16124 17229 17228 16188 16189 17294 17293 
16124 16125 17230 17229 16189 16190 17295 17294 
16125 16126 17231 17230 16190 16191 17296 17295 
16126 16127 17232 17231 16191 16192 17297 17296 
16127 16128 17233 17232 16192 16193 17298 17297 
16128 16129 17234 17233 16193 16194 17299 17298 
16129 16130 17235 17234 16194 16195 17300 17299 
16130 16131 17236 17235 16195 16196 17301 17300 
16131 16132 17237 17236 16196 16197 17302 17301 
16132 16133 17238 17237 16197 16198 17303 17302 
16133 16134 17239 17238 16198 16199 17304 17303 
16134 16135 17240 17239 16199 16200 17305 17304 
16135 16136 17241 17240 16200 16201 17306 17305 
16136 16137 17242 17241 16201 16202 17307 17306 
16137 16138 17243 17242 16202 16203 17308 17307 
16138 16139 17244 17243 16203 16204 17309 17308 
16139 16140 17245 17244 16204 16205 17310 17309 
16140 16141 17246 17245 16205 16206 17311 17310 
16141 16142 17247 17246 16206 16207 17312 17311 
16142 16143 17248 17247 16207 16208 17313 17312 
16143 16144 17249 17248 16208 16209 17314 17313 
16144 16145 17250 17249 16209 16210 17315 17314 
16145 16146 17251 17250 16210 16211 17316 17315 
16146 16147 17252 17251 16211 16212 17317 17316 
16147 16148 17253 17252 16212 16213 17318 17317 
16148 16149 17254 17253 16213 16214 17319 17318 
16149 16150 17255 17254 16214 16215 17320 17319 
16150 16151 17256 17255 16215 16216 17321 17320 
16151 16152 17257 17256 16216 16217 17322 17321 
16152 16153 17258 17257 16217 16218 17323 17322 
16153 16154 17259 17258 16218 16219 17324 17323 
16154 16155 17260 17259 16219 16220 17325 17324 
16155 16156 17261 17260 16220 16221 17326 17325 
16156 16157 17262 17261 16221 16222 17327 17326 
16157 16158 17263 17262 16222 16223 17328 17327 
16158 16159 17264 17263 16223 16224 17329 17328 
16159 16160 17265 17264 16224 16225 17330 17329 
16160 16161 17266 17265 16225 16226 17331 17330 
16161 16162 17267 17266 16226 16227 17332 17331 
16162 16163 17268 17267 16227 16228 17333 17332 
16163 16164 17269 17268 16228 16229 17334 17333 
16164 16165 17270 17269 16229 16230 17335 17334 
16165 16166 17271 17270 16230 16231 17336 17335 
16166 16167 17272 17271 16231 16232 17337 17336 
16167 16168 17273 17272 16232 16233 17338 17337 
16168 16169 17274 17273 16233 16234 17339 17338 
16169 16170 17275 17274 16234 16235 17340 17339 
16170 16171 17276 17275 16235 16236 17341 17340 
16171 16172 17277 17276 16236 16237 17342 17341 
16172 16173 17278 17277 16237 16238 17343 17342 
16173 16174 17279 17278 16238 16239 17344 17343 
16174 16175 17280 17279 16239 16240 17345 17344 
16175 16176 17281 17280 16240 16241 17346 17345 
16176 16177 17282 17281 16241 16242 17347 17346 
16177 16178 17283 17282 16242 16243 17348 17347 
16178 16179 17284 17283 16243 16244 17349 17348 
16179 16180 17285 17284 16244 16245 17350 17349 
16180 16181 17286 17285 16245 16246 17351 17350 
16181 16182 17287 17286 16246 16247 17352 17351 
16182 16183 17288 17287 16247 16248 17353 17352 
16183 16184 17289 17288 16248 16249 17354 17353 
16185 16186 17291 17290 16250 16251 17356 17355 
16186 16187 17292 17291 16251 16252 17357 17356 
16187 16188 17293 17292 16252 16253 17358 17357 
16188 16189 17294 17293 16253 16254 17359 17358 
16189 16190 17295 17294 16254 16255 17360 17359 
16190 16191 17296 17295 16255 16256 17361 17360 
16191 16192 17297 17296 16256 16257 17362 17361 
16192 16193 17298 17297 16257 16258 17363 17362 
16193 16194 17299 17298 16258 16259 17364 17363 
16194 16195 17300 17299 16259 16260 17365 17364 
16195 16196 17301 17300 16260 16261 17366 17365 
16196 16197 17302 17301 16261 16262 17367 17366 
16197 16198 17303 17302 16262 16263 17368 17367 
16198 16199 17304 17303 16263 16264 17369 17368 
16199 16200 17305 17304 16264 16265 17370 17369 
16200 16201 17306 17305 16265 16266 17371 17370 
16201 16202 17307 17306 16266 16267 17372 17371 
16202 16203 17308 17307 16267 16268 17373 17372 
16203 16204 17309 17308 16268 16269 17374 17373 
16204 16205 17310 17309 16269 16270 17375 17374 
16205 16206 17311 17310 16270 16271 17376 17375 
16206 16207 17312 17311 16271 16272 17377 17376 
16207 16208 17313 17312 16272 16273 17378 17377 
16208 16209 17314 17313 16273 16274 17379 17378 
16209 16210 17315 17314 16274 16275 17380 17379 
16210 16211 17316 17315 16275 16276 17381 17380 
16211 16212 17317 17316 16276 16277 17382 17381 
16212 16213 17318 17317 16277 16278 17383 17382 
16213 16214 17319 17318 16278 16279 17384 17383 
16214 16215 17320 17319 16279 16280 17385 17384 
16215 16216 17321 17320 16280 16281 17386 17385 
16216 16217 17322 17321 16281 16282 17387 17386 
16217 16218 17323 17322 16282 16283 17388 17387 
16218 16219 17324 17323 16283 16284 17389 17388 
16219 16220 17325 17324 16284 16285 17390 17389 
16220 16221 17326 17325 16285 16286 17391 17390 
16221 16222 17327 17326 16286 16287 17392 17391 
16222 16223 17328 17327 16287 16288 17393 17392 
16223 16224 17329 17328 16288 16289 17394 17393 
16224 16225 17330 17329 16289 16290 17395 17394 
16225 16226 17331 17330 16290 16291 17396 17395 
16226 16227 17332 17331 16291 16292 17397 17396 
16227 16228 17333 17332 16292 16293 17398 17397 
16228 16229 17334 17333 16293 16294 17399 17398 
16229 16230 17335 17334 16294 16295 17400 17399 
16230 16231 17336 17335 16295 16296 17401 17400 
16231 16232 17337 17336 16296 16297 17402 17401 
16232 16233 17338 17337 16297 16298 17403 17402 
16233 16234 17339 17338 16298 16299 17404 17403 
16234 16235 17340 17339 16299 16300 17405 17404 
16235 16236 17341 17340 16300 16301 17406 17405 
16236 16237 17342 17341 16301 16302 17407 17406 
16237 16238 17343 17342 16302 16303 17408 17407 
16238 16239 17344 17343 16303 16304 17409 17408 
16239 16240 17345 17344 16304 16305 17410 17409 
16240 16241 17346 17345 16305 16306 17411 17410 
16241 16242 17347 17346 16306 16307 17412 17411 
16242 16243 17348 17347 16307 16308 17413 17412 
16243 16244 17349 17348 16308 16309 17414 17413 
16244 16245 17350 17349 16309 16310 17415 17414 
16245 16246 17351 17350 16310 16311 17416 17415 
16246 16247 17352 17351 16311 16312 17417 17416 
16247 16248 17353 17352 16312 16313 17418 17417 
16248 16249 17354 17353 16313 16314 17419 17418 
16250 16251 17356 17355 16315 16316 17421 17420 
16251 16252 17357 17356 16316 16317 17422 17421 
16252 16253 17358 17357 16317 16318 17423 17422 
16253 16254 17359 17358 16318 16319 17424 17423 
16254 16255 17360 17359 16319 16320 17425 17424 
16255 16256 17361 17360 16320 16321 17426 17425 
16256 16257 17362 17361 16321 16322 17427 17426 
16257 16258 17363 17362 16322 16323 17428 17427 
16258 16259 17364 17363 16323 16324 17429 17428 
16259 16260 17365 17364 16324 16325 17430 17429 
16260 16261 17366 17365 16325 16326 17431 17430 
16261 16262 17367 17366 16326 16327 17432 17431 
16262 16263 17368 17367 16327 16328 17433 17432 
16263 16264 17369 17368 16328 16329 17434 17433 
16264 16265 17370 17369 16329 16330 17435 17434 
16265 16266 17371 17370 16330 16331 17436 17435 
16266 16267 17372 17371 16331 16332 17437 17436 
16267 16268 17373 17372 16332 16333 17438 17437 
16268 16269 17374 17373 16333 16334 17439 17438 
16269 16270 17375 17374 16334 16335 17440 17439 
16270 16271 17376 17375 16335 16336 17441 17440 
16271 16272 17377 17376 16336 16337 17442 17441 
16272 16273 17378 17377 16337 16338 17443 17442 
16273 16274 17379 17378 16338 16339 17444 17443 
16274 16275 17380 17379 16339 16340 17445 17444 
16275 16276 17381 17380 16340 16341 17446 17445 
16276 16277 17382 17381 16341 16342 17447 17446 
16277 16278 17383 17382 16342 16343 17448 17447 
16278 16279 17384 17383 16343 16344 17449 17448 
16279 16280 17385 17384 16344 16345 17450 17449 
16280 16281 17386 17385 16345 16346 17451 17450 
16281 16282 17387 17386 16346 16347 17452 17451 
16282 16283 17388 17387 16347 16348 17453 17452 
16283 16284 17389 17388 16348 16349 17454 17453 
16284 16285 17390 17389 16349 16350 17455 17454 
16285 16286 17391 17390 16350 16351 17456 17455 
16286 16287 17392 17391 16351 16352 17457 17456 
16287 16288 17393 17392 16352 16353 17458 17457 
16288 16289 17394 17393 16353 16354 17459 17458 
16289 16290 17395 17394 16354 16355 17460 17459 
16290 16291 17396 17395 16355 16356 17461 17460 
16291 16292 17397 17396 16356 16357 17462 17461 
16292 16293 17398 17397 16357 16358 17463 17462 
16293 16294 17399 17398 16358 16359 17464 17463 
16294 16295 17400 17399 16359 16360 17465 17464 
16295 16296 17401 17400 16360 16361 17466 17465 
16296 16297 17402 17401 16361 16362 17467 17466 
16297 16298 17403 17402 16362 16363 17468 17467 
16298 16299 17404 17403 16363 16364 17469 17468 
16299 16300 17405 17404 16364 16365 17470 17469 
16300 16301 17406 17405 16365 16366 17471 17470 
16301 16302 17407 17406 16366 16367 17472 17471 
16302 16303 17408 17407 16367 16368 17473 17472 
16303 16304 17409 17408 16368 16369 17474 17473 
16304 16305 17410 17409 16369 16370 17475 17474 
16305 16306 17411 17410 16370 16371 17476 17475 
16306 16307 17412 17411 16371 16372 17477 17476 
16307 16308 17413 17412 16372 16373 17478 17477 
16308 16309 17414 17413 16373 16374 17479 17478 
16309 16310 17415 17414 16374 16375 17480 17479 
16310 16311 17416 17415 16375 16376 17481 17480 
16311 16312 17417 17416 16376 16377 17482 17481 
16312 16313 17418 17417 16377 16378 17483 17482 
16313 16314 17419 17418 16378 16379 17484 17483 
16315 16316 17421 17420 16380 16381 17486 17485 
16316 16317 17422 17421 16381 16382 17487 17486 
16317 16318 17423 17422 16382 16383 17488 17487 
16318 16319 17424 17423 16383 16384 17489 17488 
16319 16320 17425 17424 16384 16385 17490 17489 
16320 16321 17426 17425 16385 16386 17491 17490 
16321 16322 17427 17426 16386 16387 17492 17491 
16322 16323 17428 17427 16387 16388 17493 17492 
16323 16324 17429 17428 16388 16389 17494 17493 
16324 16325 17430 17429 16389 16390 17495 17494 
16325 16326 17431 17430 16390 16391 17496 17495 
16326 16327 17432 17431 16391 16392 17497 17496 
16327 16328 17433 17432 16392 16393 17498 17497 
16328 16329 17434 17433 16393 16394 17499 17498 
16329 16330 17435 17434 16394 16395 17500 17499 
16330 16331 17436 17435 16395 16396 17501 17500 
16331 16332 17437 17436 16396 16397 17502 17501 
16332 16333 17438 17437 16397 16398 17503 17502 
16333 16334 17439 17438 16398 16399 17504 17503 
16334 16335 17440 17439 16399 16400 17505 17504 
16335 16336 17441 17440 16400 16401 17506 17505 
16336 16337 17442 17441 16401 16402 17507 17506 
16337 16338 17443 17442 16402 16403 17508 17507 
16338 16339 17444 17443 16403 16404 17509 17508 
16339 16340 17445 17444 16404 16405 17510 17509 
16340 16341 17446 17445 16405 16406 17511 17510 
16341 16342 17447 17446 16406 16407 17512 17511 
16342 16343 17448 17447 16407 16408 17513 17512 
16343 16344 17449 17448 16408 16409 17514 17513 
16344 16345 17450 17449 16409 16410 17515 17514 
16345 16346 17451 17450 16410 16411 17516 17515 
16346 16347 17452 17451 16411 16412 17517 17516 
16347 16348 17453 17452 16412 16413 17518 17517 
16348 16349 17454 17453 16413 16414 17519 17518 
16349 16350 17455 17454 16414 16415 17520 17519 
16350 16351 17456 17455 16415 16416 17521 17520 
16351 16352 17457 17456 16416 16417 17522 17521 
16352 16353 17458 17457 16417 16418 17523 17522 
16353 16354 17459 17458 16418 16419 17524 17523 
16354 16355 17460 17459 16419 16420 17525 17524 
16355 16356 17461 17460 16420 16421 17526 17525 
16356 16357 17462 17461 16421 16422 17527 17526 
16357 16358 17463 17462 16422 16423 17528 17527 
16358 16359 17464 17463 16423 16424 17529 17528 
16359 16360 17465 17464 16424 16425 17530 17529 
16360 16361 17466 17465 16425 16426 17531 17530 
16361 16362 17467 17466 16426 16427 17532 17531 
16362 16363 17468 17467 16427 16428 17533 17532 
16363 16364 17469 17468 16428 16429 17534 17533 
16364 16365 17470 17469 16429 16430 17535 17534 
16365 16366 17471 17470 16430 16431 17536 17535 
16366 16367 17472 17471 16431 16432 17537 17536 
16367 16368 17473 17472 16432 16433 17538 17537 
16368 16369 17474 17473 16433 16434 17539 17538 
16369 16370 17475 17474 16434 16435 17540 17539 
16370 16371 17476 17475 16435 16436 17541 17540 
16371 16372 17477 17476 16436 16437 17542 17541 
16372 16373 17478 17477 16437 16438 17543 17542 
16373 16374 17479 17478 16438 16439 17544 17543 
16374 16375 17480 17479 16439 16440 17545 17544 
16375 16376 17481 17480 16440 16441 17546 17545 
16376 16377 17482 17481 16441 16442 17547 17546 
16377 16378 17483 17482 16442 16443 17548 17547 
16378 16379 17484 17483 16443 16444 17549 17548 
16380 16381 17486 17485 16445 16446 17551 17550 
16381 16382 17487 17486 16446 16447 17552 17551 
16382 16383 17488 17487 16447 16448 17553 17552 
16383 16384 17489 17488 16448 16449 17554 17553 
16384 16385 17490 17489 16449 16450 17555 17554 
16385 16386 17491 17490 16450 16451 17556 17555 
16386 16387 17492 17491 16451 16452 17557 17556 
16387 16388 17493 17492 16452 16453 17558 17557 
16388 16389 17494 17493 16453 16454 17559 17558 
16389 16390 17495 17494 16454 16455 17560 17559 
16390 16391 17496 17495 16455 16456 17561 17560 
16391 16392 17497 17496 16456 16457 17562 17561 
16392 16393 17498 17497 16457 16458 17563 17562 
16393 16394 17499 17498 16458 16459 17564 17563 
16394 16395 17500 17499 16459 16460 17565 17564 
16395 16396 17501 17500 16460 16461 17566 17565 
16396 16397 17502 17501 16461 16462 17567 17566 
16397 16398 17503 17502 16462 16463 17568 17567 
16398 16399 17504 17503 16463 16464 17569 17568 
16399 16400 17505 17504 16464 16465 17570 17569 
16400 16401 17506 17505 16465 16466 17571 17570 
16401 16402 17507 17506 16466 16467 17572 17571 
16402 16403 17508 17507 16467 16468 17573 17572 
16403 16404 17509 17508 16468 16469 17574 17573 
16404 16405 17510 17509 16469 16470 17575 17574 
16405 16406 17511 17510 16470 16471 17576 17575 
16406 16407 17512 17511 16471 16472 17577 17576 
16407 16408 17513 17512 16472 16473 17578 17577 
16408 16409 17514 17513 16473 16474 17579 17578 
16409 16410 17515 17514 16474 16475 17580 17579 
16410 16411 17516 17515 16475 16476 17581 17580 
16411 16412 17517 17516 16476 16477 17582 17581 
16412 16413 17518 17517 16477 16478 17583 17582 
16413 16414 17519 17518 16478 16479 17584 17583 
16414 16415 17520 17519 16479 16480 17585 17584 
16415 16416 17521 17520 16480 16481 17586 17585 
16416 16417 17522 17521 16481 16482 17587 17586 
16417 16418 17523 17522 16482 16483 17588 17587 
16418 16419 17524 17523 16483 16484 17589 17588 
16419 16420 17525 17524 16484 16485 17590 17589 
16420 16421 17526 17525 16485 16486 17591 17590 
16421 16422 17527 17526 16486 16487 17592 17591 
16422 16423 17528 17527 16487 16488 17593 17592 
16423 16424 17529 17528 16488 16489 17594 17593 
16424 16425 17530 17529 16489 16490 17595 17594 
16425 16426 17531 17530 16490 16491 17596 17595 
16426 16427 17532 17531 16491 16492 17597 17596 
16427 16428 17533 17532 16492 16493 17598 17597 
16428 16429 17534 17533 16493 16494 17599 17598 
16429 16430 17535 17534 16494 16495 17600 17599 
16430 16431 17536 17535 16495 16496 17601 17600 
16431 16432 17537 17536 16496 16497 17602 17601 
16432 16433 17538 17537 16497 16498 17603 17602 
16433 16434 17539 17538 16498 16499 17604 17603 
16434 16435 17540 17539 16499 16500 17605 17604 
16435 16436 17541 17540 16500 16501 17606 17605 
16436 16437 17542 17541 16501 16502 17607 17606 
16437 16438 17543 17542 16502 16503 17608 17607 
16438 16439 17544 17543 16503 16504 17609 17608 
16439 16440 17545 17544 16504 16505 17610 17609 
16440 16441 17546 17545 16505 16506 17611 17610 
16441 16442 17547 17546 16506 16507 17612 17611 
16442 16443 17548 17547 16507 16508 17613 17612 
16443 16444 17549 17548 16508 16509 17614 17613 
16445 16446 17551 17550 16510 16511 17616 17615 
16446 16447 17552 17551 16511 16512 17617 17616 
16447 16448 17553 17552 16512 16513 17618 17617 
16448 16449 17554 17553 16513 16514 17619 17618 
16449 16450 17555 17554 16514 16515 17620 17619 
16450 16451 17556 17555 16515 16516 17621 17620 
16451 16452 17557 17556 16516 16517 17622 17621 
16452 16453 17558 17557 16517 16518 17623 17622 
16453 16454 17559 17558 16518 16519 17624 17623 
16454 16455 17560 17559 16519 16520 17625 17624 
16455 16456 17561 17560 16520 16521 17626 17625 
16456 16457 17562 17561 16521 16522 17627 17626 
16457 16458 17563 17562 16522 16523 17628 17627 
16458 16459 17564 17563 16523 16524 17629 17628 
16459 16460 17565 17564 16524 16525 17630 17629 
16460 16461 17566 17565 16525 16526 17631 17630 
16461 16462 17567 17566 16526 16527 17632 17631 
16462 16463 17568 17567 16527 16528 17633 17632 
16463 16464 17569 17568 16528 16529 17634 17633 
16464 16465 17570 17569 16529 16530 17635 17634 
16465 16466 17571 17570 16530 16531 17636 17635 
16466 16467 17572 17571 16531 16532 17637 17636 
16467 16468 17573 17572 16532 16533 17638 17637 
16468 16469 17574 17573 16533 16534 17639 17638 
16469 16470 17575 17574 16534 16535 17640 17639 
16470 16471 17576 17575 16535 16536 17641 17640 
16471 16472 17577 17576 16536 16537 17642 17641 
16472 16473 17578 17577 16537 16538 17643 17642 
16473 16474 17579 17578 16538 16539 17644 17643 
16474 16475 17580 17579 16539 16540 17645 17644 
16475 16476 17581 17580 16540 16541 17646 17645 
16476 16477 17582 17581 16541 16542 17647 17646 
16477 16478 17583 17582 16542 16543 17648 17647 
16478 16479 17584 17583 16543 16544 17649 17648 
16479 16480 17585 17584 16544 16545 17650 17649 
16480 16481 17586 17585 16545 16546 17651 17650 
16481 16482 17587 17586 16546 16547 17652 17651 
16482 16483 17588 17587 16547 16548 17653 17652 
16483 16484 17589 17588 16548 16549 17654 17653 
16484 16485 17590 17589 16549 16550 17655 17654 
16485 16486 17591 17590 16550 16551 17656 17655 
16486 16487 17592 17591 16551 16552 17657 17656 
16487 16488 17593 17592 16552 16553 17658 17657 
16488 16489 17594 17593 16553 16554 17659 17658 
16489 16490 17595 17594 16554 16555 17660 17659 
16490 16491 17596 17595 16555 16556 17661 17660 
16491 16492 17597 17596 16556 16557 17662 17661 
16492 16493 17598 17597 16557 16558 17663 17662 
16493 16494 17599 17598 16558 16559 17664 17663 
16494 16495 17600 17599 16559 16560 17665 17664 
16495 16496 17601 17600 16560 16561 17666 17665 
16496 16497 17602 17601 16561 16562 17667 17666 
16497 16498 17603 17602 16562 16563 17668 17667 
16498 16499 17604 17603 16563 16564 17669 17668 
16499 16500 17605 17604 16564 16565 17670 17669 
16500 16501 17606 17605 16565 16566 17671 17670 
16501 16502 17607 17606 16566 16567 17672 17671 
16502 16503 17608 17607 16567 16568 17673 17672 
16503 16504 17609 17608 16568 16569 17674 17673 
16504 16505 17610 17609 16569 16570 17675 17674 
16505 16506 17611 17610 16570 16571 17676 17675 
16506 16507 17612 17611 16571 16572 17677 17676 
16507 16508 17613 17612 16572 16573 17678 17677 
16508 16509 17614 17613 16573 16574 17679 17678 
16575 16576 17681 17680 16640 16641 17746 17745 
16576 16577 17682 17681 16641 16642 17747 17746 
16577 16578 17683 17682 16642 16643 17748 17747 
16578 16579 17684 17683 16643 16644 17749 17748 
16579 16580 17685 17684 16644 16645 17750 17749 
16580 16581 17686 17685 16645 16646 17751 17750 
16581 16582 17687 17686 16646 16647 17752 17751 
16582 16583 17688 17687 16647 16648 17753 17752 
16583 16584 17689 17688 16648 16649 17754 17753 
16584 16585 17690 17689 16649 16650 17755 17754 
16585 16586 17691 17690 16650 16651 17756 17755 
16586 16587 17692 17691 16651 16652 17757 17756 
16587 16588 17693 17692 16652 16653 17758 17757 
16588 16589 17694 17693 16653 16654 17759 17758 
16589 16590 17695 17694 16654 16655 17760 17759 
16590 16591 17696 17695 16655 16656 17761 17760 
16591 16592 17697 17696 16656 16657 17762 17761 
16592 16593 17698 17697 16657 16658 17763 17762 
16593 16594 17699 17698 16658 16659 17764 17763 
16594 16595 17700 17699 16659 16660 17765 17764 
16595 16596 17701 17700 16660 16661 17766 17765 
16596 16597 17702 17701 16661 16662 17767 17766 
16597 16598 17703 17702 16662 16663 17768 17767 
16598 16599 17704 17703 16663 16664 17769 17768 
16599 16600 17705 17704 16664 16665 17770 17769 
16600 16601 17706 17705 16665 16666 17771 17770 
16601 16602 17707 17706 16666 16667 17772 17771 
16602 16603 17708 17707 16667 16668 17773 17772 
16603 16604 17709 17708 16668 16669 17774 17773 
16604 16605 17710 17709 16669 16670 17775 17774 
16605 16606 17711 17710 16670 16671 17776 17775 
16606 16607 17712 17711 16671 16672 17777 17776 
16607 16608 17713 17712 16672 16673 17778 17777 
16608 16609 17714 17713 16673 16674 17779 17778 
16609 16610 17715 17714 16674 16675 17780 17779 
16610 16611 17716 17715 16675 16676 17781 17780 
16611 16612 17717 17716 16676 16677 17782 17781 
16612 16613 17718 17717 16677 16678 17783 17782 
16613 16614 17719 17718 16678 16679 17784 17783 
16614 16615 17720 17719 16679 16680 17785 17784 
16615 16616 17721 17720 16680 16681 17786 17785 
16616 16617 17722 17721 16681 16682 17787 17786 
16617 16618 17723 17722 16682 16683 17788 17787 
16618 16619 17724 17723 16683 16684 17789 17788 
16619 16620 17725 17724 16684 16685 17790 17789 
16620 16621 17726 17725 16685 16686 17791 17790 
16621 16622 17727 17726 16686 16687 17792 17791 
16622 16623 17728 17727 16687 16688 17793 17792 
16623 16624 17729 17728 16688 16689 17794 17793 
16624 16625 17730 17729 16689 16690 17795 17794 
16625 16626 17731 17730 16690 16691 17796 17795 
16626 16627 17732 17731 16691 16692 17797 17796 
16627 16628 17733 17732 16692 16693 17798 17797 
16628 16629 17734 17733 16693 16694 17799 17798 
16629 16630 17735 17734 16694 16695 17800 17799 
16630 16631 17736 17735 16695 16696 17801 17800 
16631 16632 17737 17736 16696 16697 17802 17801 
16632 16633 17738 17737 16697 16698 17803 17802 
16633 16634 17739 17738 16698 16699 17804 17803 
16634 16635 17740 17739 16699 16700 17805 17804 
16635 16636 17741 17740 16700 16701 17806 17805 
16636 16637 17742 17741 16701 16702 17807 17806 
16637 16638 17743 17742 16702 16703 17808 17807 
16638 16639 17744 17743 16703 16704 17809 17808 
16640 16641 17746 17745 16705 16706 17811 17810 
16641 16642 17747 17746 16706 16707 17812 17811 
16642 16643 17748 17747 16707 16708 17813 17812 
16643 16644 17749 17748 16708 16709 17814 17813 
16644 16645 17750 17749 16709 16710 17815 17814 
16645 16646 17751 17750 16710 16711 17816 17815 
16646 16647 17752 17751 16711 16712 17817 17816 
16647 16648 17753 17752 16712 16713 17818 17817 
16648 16649 17754 17753 16713 16714 17819 17818 
16649 16650 17755 17754 16714 16715 17820 17819 
16650 16651 17756 17755 16715 16716 17821 17820 
16651 16652 17757 17756 16716 16717 17822 17821 
16652 16653 17758 17757 16717 16718 17823 17822 
16653 16654 17759 17758 16718 16719 17824 17823 
16654 16655 17760 17759 16719 16720 17825 17824 
16655 16656 17761 17760 16720 16721 17826 17825 
16656 16657 17762 17761 16721 16722 17827 17826 
16657 16658 17763 17762 16722 16723 17828 17827 
16658 16659 17764 17763 16723 16724 17829 17828 
16659 16660 17765 17764 16724 16725 17830 17829 
16660 16661 17766 17765 16725 16726 17831 17830 
16661 16662 17767 17766 16726 16727 17832 17831 
16662 16663 17768 17767 16727 16728 17833 17832 
16663 16664 17769 17768 16728 16729 17834 17833 
16664 16665 17770 17769 16729 16730 17835 17834 
16665 16666 17771 17770 16730 16731 17836 17835 
16666 16667 17772 17771 16731 16732 17837 17836 
16667 16668 17773 17772 16732 16733 17838 17837 
16668 16669 17774 17773 16733 16734 17839 17838 
16669 16670 17775 17774 16734 16735 17840 17839 
16670 16671 17776 17775 16735 16736 17841 17840 
16671 16672 17777 17776 16736 16737 17842 17841 
16672 16673 17778 17777 16737 16738 17843 17842 
16673 16674 17779 17778 16738 16739 17844 17843 
16674 16675 17780 17779 16739 16740 17845 17844 
16675 16676 17781 17780 16740 16741 17846 17845 
16676 16677 17782 17781 16741 16742 17847 17846 
16677 16678 17783 17782 16742 16743 17848 17847 
16678 16679 17784 17783 16743 16744 17849 17848 
16679 16680 17785 17784 16744 16745 17850 17849 
16680 16681 17786 17785 16745 16746 17851 17850 
16681 16682 17787 17786 16746 16747 17852 17851 
16682 16683 17788 17787 16747 16748 17853 17852 
16683 16684 17789 17788 16748 16749 17854 17853 
16684 16685 17790 17789 16749 16750 17855 17854 
16685 16686 17791 17790 16750 16751 17856 17855 
16686 16687 17792 17791 16751 16752 17857 17856 
16687 16688 17793 17792 16752 16753 17858 17857 
16688 16689 17794 17793 16753 16754 17859 17858 
16689 16690 17795 17794 16754 16755 17860 17859 
16690 16691 17796 17795 16755 16756 17861 17860 
16691 16692 17797 17796 16756 16757 17862 17861 
16692 16693 17798 17797 16757 16758 17863 17862 
16693 16694 17799 17798 16758 16759 17864 17863 
16694 16695 17800 17799 16759 16760 17865 17864 
16695 16696 17801 17800 16760 16761 17866 17865 
16696 16697 17802 17801 16761 16762 17867 17866 
16697 16698 17803 17802 16762 16763 17868 17867 
16698 16699 17804 17803 16763 16764 17869 17868 
16699 16700 17805 17804 16764 16765 17870 17869 
16700 16701 17806 17805 16765 16766 17871 17870 
16701 16702 17807 17806 16766 16767 17872 17871 
16702 16703 17808 17807 16767 16768 17873 17872 
16703 16704 17809 17808 16768 16769 17874 17873 
16705 16706 17811 17810 16770 16771 17876 17875 
16706 16707 17812 17811 16771 16772 17877 17876 
16707 16708 17813 17812 16772 16773 17878 17877 
16708 16709 17814 17813 16773 16774 17879 17878 
16709 16710 17815 17814 16774 16775 17880 17879 
16710 16711 17816 17815 16775 16776 17881 17880 
16711 16712 17817 17816 16776 16777 17882 17881 
16712 16713 17818 17817 16777 16778 17883 17882 
16713 16714 17819 17818 16778 16779 17884 17883 
16714 16715 17820 17819 16779 16780 17885 17884 
16715 16716 17821 17820 16780 16781 17886 17885 
16716 16717 17822 17821 16781 16782 17887 17886 
16717 16718 17823 17822 16782 16783 17888 17887 
16718 16719 17824 17823 16783 16784 17889 17888 
16719 16720 17825 17824 16784 16785 17890 17889 
16720 16721 17826 17825 16785 16786 17891 17890 
16721 16722 17827 17826 16786 16787 17892 17891 
16722 16723 17828 17827 16787 16788 17893 17892 
16723 16724 17829 17828 16788 16789 17894 17893 
16724 16725 17830 17829 16789 16790 17895 17894 
16725 16726 17831 17830 16790 16791 17896 17895 
16726 16727 17832 17831 16791 16792 17897 17896 
16727 16728 17833 17832 16792 16793 17898 17897 
16728 16729 17834 17833 16793 16794 17899 17898 
16729 16730 17835 17834 16794 16795 17900 17899 
16730 16731 17836 17835 16795 16796 17901 17900 
16731 16732 17837 17836 16796 16797 17902 17901 
16732 16733 17838 17837 16797 16798 17903 17902 
16733 16734 17839 17838 16798 16799 17904 17903 
16734 16735 17840 17839 16799 16800 17905 17904 
16735 16736 17841 17840 16800 16801 17906 17905 
16736 16737 17842 17841 16801 16802 17907 17906 
16737 16738 17843 17842 16802 16803 17908 17907 
16738 16739 17844 17843 16803 16804 17909 17908 
16739 16740 17845 17844 16804 16805 17910 17909 
16740 16741 17846 17845 16805 16806 17911 17910 
16741 16742 17847 17846 16806 16807 17912 17911 
16742 16743 17848 17847 16807 16808 17913 17912 
16743 16744 17849 17848 16808 16809 17914 17913 
16744 16745 17850 17849 16809 16810 17915 17914 
16745 16746 17851 17850 16810 16811 17916 17915 
16746 16747 17852 17851 16811 16812 17917 17916 
16747 16748 17853 17852 16812 16813 17918 17917 
16748 16749 17854 17853 16813 16814 17919 17918 
16749 16750 17855 17854 16814 16815 17920 17919 
16750 16751 17856 17855 16815 16816 17921 17920 
16751 16752 17857 17856 16816 16817 17922 17921 
16752 16753 17858 17857 16817 16818 17923 17922 
16753 16754 17859 17858 16818 16819 17924 17923 
16754 16755 17860 17859 16819 16820 17925 17924 
16755 16756 17861 17860 16820 16821 17926 17925 
16756 16757 17862 17861 16821 16822 17927 17926 
16757 16758 17863 17862 16822 16823 17928 17927 
16758 16759 17864 17863 16823 16824 17929 17928 
16759 16760 17865 17864 16824 16825 17930 17929 
16760 16761 17866 17865 16825 16826 17931 17930 
16761 16762 17867 17866 16826 16827 17932 17931 
16762 16763 17868 17867 16827 16828 17933 17932 
16763 16764 17869 17868 16828 16829 17934 17933 
16764 16765 17870 17869 16829 16830 17935 17934 
16765 16766 17871 17870 16830 16831 17936 17935 
16766 16767 17872 17871 16831 16832 17937 17936 
16767 16768 17873 17872 16832 16833 17938 17937 
16768 16769 17874 17873 16833 16834 17939 17938 
16770 16771 17876 17875 16835 16836 17941 17940 
16771 16772 17877 17876 16836 16837 17942 17941 
16772 16773 17878 17877 16837 16838 17943 17942 
16773 16774 17879 17878 16838 16839 17944 17943 
16774 16775 17880 17879 16839 16840 17945 17944 
16775 16776 17881 17880 16840 16841 17946 17945 
16776 16777 17882 17881 16841 16842 17947 17946 
16777 16778 17883 17882 16842 16843 17948 17947 
16778 16779 17884 17883 16843 16844 17949 17948 
16779 16780 17885 17884 16844 16845 17950 17949 
16780 16781 17886 17885 16845 16846 17951 17950 
16781 16782 17887 17886 16846 16847 17952 17951 
16782 16783 17888 17887 16847 16848 17953 17952 
16783 16784 17889 17888 16848 16849 17954 17953 
16784 16785 17890 17889 16849 16850 17955 17954 
16785 16786 17891 17890 16850 16851 17956 17955 
16786 16787 17892 17891 16851 16852 17957 17956 
16787 16788 17893 17892 16852 16853 17958 17957 
16788 16789 17894 17893 16853 16854 17959 17958 
16789 16790 17895 17894 16854 16855 17960 17959 
16790 16791 17896 17895 16855 16856 17961 17960 
16791 16792 17897 17896 16856 16857 17962 17961 
16792 16793 17898 17897 16857 16858 17963 17962 
16793 16794 17899 17898 16858 16859 17964 17963 
16794 16795 17900 17899 16859 16860 17965 17964 
16795 16796 17901 17900 16860 16861 17966 17965 
16796 16797 17902 17901 16861 16862 17967 17966 
16797 16798 17903 17902 16862 16863 17968 17967 
16798 16799 17904 17903 16863 16864 17969 17968 
16799 16800 17905 17904 16864 16865 17970 17969 
16800 16801 17906 17905 16865 16866 17971 17970 
16801 16802 17907 17906 16866 16867 17972 17971 
16802 16803 17908 17907 16867 16868 17973 17972 
16803 16804 17909 17908 16868 16869 17974 17973 
16804 16805 17910 17909 16869 16870 17975 17974 
16805 16806 17911 17910 16870 16871 17976 17975 
16806 16807 17912 17911 16871 16872 17977 17976 
16807 16808 17913 17912 16872 16873 17978 17977 
16808 16809 17914 17913 16873 16874 17979 17978 
16809 16810 17915 17914 16874 16875 17980 17979 
16810 16811 17916 17915 16875 16876 17981 17980 
16811 16812 17917 17916 16876 16877 17982 17981 
16812 16813 17918 17917 16877 16878 17983 17982 
16813 16814 17919 17918 16878 16879 17984 17983 
16814 16815 17920 17919 16879 16880 17985 17984 
16815 16816 17921 17920 16880 16881 17986 17985 
16816 16817 17922 17921 16881 16882 17987 17986 
16817 16818 17923 17922 16882 16883 17988 17987 
16818 16819 17924 17923 16883 16884 17989 17988 
16819 16820 17925 17924 16884 16885 17990 17989 
16820 16821 17926 17925 16885 16886 17991 17990 
16821 16822 17927 17926 16886 16887 17992 17991 
16822 16823 17928 17927 16887 16888 17993 17992 
16823 16824 17929 17928 16888 16889 17994 17993 
16824 16825 17930 17929 16889 16890 17995 17994 
16825 16826 17931 17930 16890 16891 17996 17995 
16826 16827 17932 17931 16891 16892 17997 17996 
16827 16828 17933 17932 16892 16893 17998 17997 
16828 16829 17934 17933 16893 16894 17999 17998 
16829 16830 17935 17934 16894 16895 18000 17999 
16830 16831 17936 17935 16895 16896 18001 18000 
16831 16832 17937 17936 16896 16897 18002 18001 
16832 16833 17938 17937 16897 16898 18003 18002 
16833 16834 17939 17938 16898 16899 18004 18003 
16835 16836 17941 17940 16900 16901 18006 18005 
16836 16837 17942 17941 16901 16902 18007 18006 
16837 16838 17943 17942 16902 16903 18008 18007 
16838 16839 17944 17943 16903 16904 18009 18008 
16839 16840 17945 17944 16904 16905 18010 18009 
16840 16841 17946 17945 16905 16906 18011 18010 
16841 16842 17947 17946 16906 16907 18012 18011 
16842 16843 17948 17947 16907 16908 18013 18012 
16843 16844 17949 17948 16908 16909 18014 18013 
16844 16845 17950 17949 16909 16910 18015 18014 
16845 16846 17951 17950 16910 16911 18016 18015 
16846 16847 17952 17951 16911 16912 18017 18016 
16847 16848 17953 17952 16912 16913 18018 18017 
16848 16849 17954 17953 16913 16914 18019 18018 
16849 16850 17955 17954 16914 16915 18020 18019 
16850 16851 17956 17955 16915 16916 18021 18020 
16851 16852 17957 17956 16916 16917 18022 18021 
16852 16853 17958 17957 16917 16918 18023 18022 
16853 16854 17959 17958 16918 16919 18024 18023 
16854 16855 17960 17959 16919 16920 18025 18024 
16855 16856 17961 17960 16920 16921 18026 18025 
16856 16857 17962 17961 16921 16922 18027 18026 
16857 16858 17963 17962 16922 16923 18028 18027 
16858 16859 17964 17963 16923 16924 18029 18028 
16859 16860 17965 17964 16924 16925 18030 18029 
16860 16861 17966 17965 16925 16926 18031 18030 
16861 16862 17967 17966 16926 16927 18032 18031 
16862 16863 17968 17967 16927 16928 18033 18032 
16863 16864 17969 17968 16928 16929 18034 18033 
16864 16865 17970 17969 16929 16930 18035 18034 
16865 16866 17971 17970 16930 16931 18036 18035 
16866 16867 17972 17971 16931 16932 18037 18036 
16867 16868 17973 17972 16932 16933 18038 18037 
16868 16869 17974 17973 16933 16934 18039 18038 
16869 16870 17975 17974 16934 16935 18040 18039 
16870 16871 17976 17975 16935 16936 18041 18040 
16871 16872 17977 17976 16936 16937 18042 18041 
16872 16873 17978 17977 16937 16938 18043 18042 
16873 16874 17979 17978 16938 16939 18044 18043 
16874 16875 17980 17979 16939 16940 18045 18044 
16875 16876 17981 17980 16940 16941 18046 18045 
16876 16877 17982 17981 16941 16942 18047 18046 
16877 16878 17983 17982 16942 16943 18048 18047 
16878 16879 17984 17983 16943 16944 18049 18048 
16879 16880 17985 17984 16944 16945 18050 18049 
16880 16881 17986 17985 16945 16946 18051 18050 
16881 16882 17987 17986 16946 16947 18052 18051 
16882 16883 17988 17987 16947 16948 18053 18052 
16883 16884 17989 17988 16948 16949 18054 18053 
16884 16885 17990 17989 16949 16950 18055 18054 
16885 16886 17991 17990 16950 16951 18056 18055 
16886 16887 17992 17991 16951 16952 18057 18056 
16887 16888 17993 17992 16952 16953 18058 18057 
16888 16889 17994 17993 16953 16954 18059 18058 
16889 16890 17995 17994 16954 16955 18060 18059 
16890 16891 17996 17995 16955 16956 18061 18060 
16891 16892 17997 17996 16956 16957 18062 18061 
16892 16893 17998 17997 16957 16958 18063 18062 
16893 16894 17999 17998 16958 16959 18064 18063 
16894 16895 18000 17999 16959 16960 18065 18064 
16895 16896 18001 18000 16960 16961 18066 18065 
16896 16897 18002 18001 16961 16962 18067 18066 
16897 16898 18003 18002 16962 16963 18068 18067 
16898 16899 18004 18003 16963 16964 18069 18068 
16900 16901 18006 18005 16965 16966 18071 18070 
16901 16902 18007 18006 16966 16967 18072 18071 
16902 16903 18008 18007 16967 16968 18073 18072 
16903 16904 18009 18008 16968 16969 18074 18073 
16904 16905 18010 18009 16969 16970 18075 18074 
16905 16906 18011 18010 16970 16971 18076 18075 
16906 16907 18012 18011 16971 16972 18077 18076 
16907 16908 18013 18012 16972 16973 18078 18077 
16908 16909 18014 18013 16973 16974 18079 18078 
16909 16910 18015 18014 16974 16975 18080 18079 
16910 16911 18016 18015 16975 16976 18081 18080 
16911 16912 18017 18016 16976 16977 18082 18081 
16912 16913 18018 18017 16977 16978 18083 18082 
16913 16914 18019 18018 16978 16979 18084 18083 
16914 16915 18020 18019 16979 16980 18085 18084 
16915 16916 18021 18020 16980 16981 18086 18085 
16916 16917 18022 18021 16981 16982 18087 18086 
16917 16918 18023 18022 16982 16983 18088 18087 
16918 16919 18024 18023 16983 16984 18089 18088 
16919 16920 18025 18024 16984 16985 18090 18089 
16920 16921 18026 18025 16985 16986 18091 18090 
16921 16922 18027 18026 16986 16987 18092 18091 
16922 16923 18028 18027 16987 16988 18093 18092 
16923 16924 18029 18028 16988 16989 18094 18093 
16924 16925 18030 18029 16989 16990 18095 18094 
16925 16926 18031 18030 16990 16991 18096 18095 
16926 16927 18032 18031 16991 16992 18097 18096 
16927 16928 18033 18032 16992 16993 18098 18097 
16928 16929 18034 18033 16993 16994 18099 18098 
16929 16930 18035 18034 16994 16995 18100 18099 
16930 16931 18036 18035 16995 16996 18101 18100 
16931 16932 18037 18036 16996 16997 18102 18101 
16932 16933 18038 18037 16997 16998 18103 18102 
16933 16934 18039 18038 16998 16999 18104 18103 
16934 16935 18040 18039 16999 17000 18105 18104 
16935 16936 18041 18040 17000 17001 18106 18105 
16936 16937 18042 18041 17001 17002 18107 18106 
16937 16938 18043 18042 17002 17003 18108 18107 
16938 16939 18044 18043 17003 17004 18109 18108 
16939 16940 18045 18044 17004 17005 18110 18109 
16940 16941 18046 18045 17005 17006 18111 18110 
16941 16942 18047 18046 17006 17007 18112 18111 
16942 16943 18048 18047 17007 17008 18113 18112 
16943 16944 18049 18048 17008 17009 18114 18113 
16944 16945 18050 18049 17009 17010 18115 18114 
16945 16946 18051 18050 17010 17011 18116 18115 
16946 16947 18052 18051 17011 17012 18117 18116 
16947 16948 18053 18052 17012 17013 18118 18117 
16948 16949 18054 18053 17013 17014 18119 18118 
16949 16950 18055 18054 17014 17015 18120 18119 
16950 16951 18056 18055 17015 17016 18121 18120 
16951 16952 18057 18056 17016 17017 18122 18121 
16952 16953 18058 18057 17017 17018 18123 18122 
16953 16954 18059 18058 17018 17019 18124 18123 
16954 16955 18060 18059 17019 17020 18125 18124 
16955 16956 18061 18060 17020 17021 18126 18125 
16956 16957 18062 18061 17021 17022 18127 18126 
16957 16958 18063 18062 17022 17023 18128 18127 
16958 16959 18064 18063 17023 17024 18129 18128 
16959 16960 18065 18064 17024 17025 18130 18129 
16960 16961 18066 18065 17025 17026 18131 18130 
16961 16962 18067 18066 17026 17027 18132 18131 
16962 16963 18068 18067 17027 17028 18133 18132 
16963 16964 18069 18068 17028 17029 18134 18133 
16965 16966 18071 18070 17030 17031 18136 18135 
16966 16967 18072 18071 17031 17032 18137 18136 
16967 16968 18073 18072 17032 17033 18138 18137 
16968 16969 18074 18073 17033 17034 18139 18138 
16969 16970 18075 18074 17034 17035 18140 18139 
16970 16971 18076 18075 17035 17036 18141 18140 
16971 16972 18077 18076 17036 17037 18142 18141 
16972 16973 18078 18077 17037 17038 18143 18142 
16973 16974 18079 18078 17038 17039 18144 18143 
16974 16975 18080 18079 17039 17040 18145 18144 
16975 16976 18081 18080 17040 17041 18146 18145 
16976 16977 18082 18081 17041 17042 18147 18146 
16977 16978 18083 18082 17042 17043 18148 18147 
16978 16979 18084 18083 17043 17044 18149 18148 
16979 16980 18085 18084 17044 17045 18150 18149 
16980 16981 18086 18085 17045 17046 18151 18150 
16981 16982 18087 18086 17046 17047 18152 18151 
16982 16983 18088 18087 17047 17048 18153 18152 
16983 16984 18089 18088 17048 17049 18154 18153 
16984 16985 18090 18089 17049 17050 18155 18154 
16985 16986 18091 18090 17050 17051 18156 18155 
16986 16987 18092 18091 17051 17052 18157 18156 
16987 16988 18093 18092 17052 17053 18158 18157 
16988 16989 18094 18093 17053 17054 18159 18158 
16989 16990 18095 18094 17054 17055 18160 18159 
16990 16991 18096 18095 17055 17056 18161 18160 
16991 16992 18097 18096 17056 17057 18162 18161 
16992 16993 18098 18097 17057 17058 18163 18162 
16993 16994 18099 18098 17058 17059 18164 18163 
16994 16995 18100 18099 17059 17060 18165 18164 
16995 16996 18101 18100 17060 17061 18166 18165 
16996 16997 18102 18101 17061 17062 18167 18166 
16997 16998 18103 18102 17062 17063 18168 18167 
16998 16999 18104 18103 17063 17064 18169 18168 
16999 17000 18105 18104 17064 17065 18170 18169 
17000 17001 18106 18105 17065 17066 18171 18170 
17001 17002 18107 18106 17066 17067 18172 18171 
17002 17003 18108 18107 17067 17068 18173 18172 
17003 17004 18109 18108 17068 17069 18174 18173 
17004 17005 18110 18109 17069 17070 18175 18174 
17005 17006 18111 18110 17070 17071 18176 18175 
17006 17007 18112 18111 17071 17072 18177 18176 
17007 17008 18113 18112 17072 17073 18178 18177 
17008 17009 18114 18113 17073 17074 18179 18178 
17009 17010 18115 18114 17074 17075 18180 18179 
17010 17011 18116 18115 17075 17076 18181 18180 
17011 17012 18117 18116 17076 17077 18182 18181 
17012 17013 18118 18117 17077 17078 18183 18182 
17013 17014 18119 18118 17078 17079 18184 18183 
17014 17015 18120 18119 17079 17080 18185 18184 
17015 17016 18121 18120 17080 17081 18186 18185 
17016 17017 18122 18121 17081 17082 18187 18186 
17017 17018 18123 18122 17082 17083 18188 18187 
17018 17019 18124 18123 17083 17084 18189 18188 
17019 17020 18125 18124 17084 17085 18190 18189 
17020 17021 18126 18125 17085 17086 18191 18190 
17021 17022 18127 18126 17086 17087 18192 18191 
17022 17023 18128 18127 17087 17088 18193 18192 
17023 17024 18129 18128 17088 17089 18194 18193 
17024 17025 18130 18129 17089 17090 18195 18194 
17025 17026 18131 18130 17090 17091 18196 18195 
17026 17027 18132 18131 17091 17092 18197 18196 
17027 17028 18133 18132 17092 17093 18198 18197 
17028 17029 18134 18133 17093 17094 18199 18198 
17030 17031 18136 18135 17095 17096 18201 18200 
17031 17032 18137 18136 17096 17097 18202 18201 
17032 17033 18138 18137 17097 17098 18203 18202 
17033 17034 18139 18138 17098 17099 18204 18203 
17034 17035 18140 18139 17099 17100 18205 18204 
17035 17036 18141 18140 17100 17101 18206 18205 
17036 17037 18142 18141 17101 17102 18207 18206 
17037 17038 18143 18142 17102 17103 18208 18207 
17038 17039 18144 18143 17103 17104 18209 18208 
17039 17040 18145 18144 17104 17105 18210 18209 
17040 17041 18146 18145 17105 17106 18211 18210 
17041 17042 18147 18146 17106 17107 18212 18211 
17042 17043 18148 18147 17107 17108 18213 18212 
17043 17044 18149 18148 17108 17109 18214 18213 
17044 17045 18150 18149 17109 17110 18215 18214 
17045 17046 18151 18150 17110 17111 18216 18215 
17046 17047 18152 18151 17111 17112 18217 18216 
17047 17048 18153 18152 17112 17113 18218 18217 
17048 17049 18154 18153 17113 17114 18219 18218 
17049 17050 18155 18154 17114 17115 18220 18219 
17050 17051 18156 18155 17115 17116 18221 18220 
17051 17052 18157 18156 17116 17117 18222 18221 
17052 17053 18158 18157 17117 17118 18223 18222 
17053 17054 18159 18158 17118 17119 18224 18223 
17054 17055 18160 18159 17119 17120 18225 18224 
17055 17056 18161 18160 17120 17121 18226 18225 
17056 17057 18162 18161 17121 17122 18227 18226 
17057 17058 18163 18162 17122 17123 18228 18227 
17058 17059 18164 18163 17123 17124 18229 18228 
17059 17060 18165 18164 17124 17125 18230 18229 
17060 17061 18166 18165 17125 17126 18231 18230 
17061 17062 18167 18166 17126 17127 18232 18231 
17062 17063 18168 18167 17127 17128 18233 18232 
17063 17064 18169 18168 17128 17129 18234 18233 
17064 17065 18170 18169 17129 17130 18235 18234 
17065 17066 18171 18170 17130 17131 18236 18235 
17066 17067 18172 18171 17131 17132 18237 18236 
17067 17068 18173 18172 17132 17133 18238 18237 
17068 17069 18174 18173 17133 17134 18239 18238 
17069 17070 18175 18174 17134 17135 18240 18239 
17070 17071 18176 18175 17135 17136 18241 18240 
17071 17072 18177 18176 17136 17137 18242 18241 
17072 17073 18178 18177 17137 17138 18243 18242 
17073 17074 18179 18178 17138 17139 18244 18243 
17074 17075 18180 18179 17139 17140 18245 18244 
17075 17076 18181 18180 17140 17141 18246 18245 
17076 17077 18182 18181 17141 17142 18247 18246 
17077 17078 18183 18182 17142 17143 18248 18247 
17078 17079 18184 18183 17143 17144 18249 18248 
17079 17080 18185 18184 17144 17145 18250 18249 
17080 17081 18186 18185 17145 17146 18251 18250 
17081 17082 18187 18186 17146 17147 18252 18251 
17082 17083 18188 18187 17147 17148 18253 18252 
17083 17084 18189 18188 17148 17149 18254 18253 
17084 17085 18190 18189 17149 17150 18255 18254 
17085 17086 18191 18190 17150 17151 18256 18255 
17086 17087 18192 18191 17151 17152 18257 18256 
17087 17088 18193 18192 17152 17153 18258 18257 
17088 17089 18194 18193 17153 17154 18259 18258 
17089 17090 18195 18194 17154 17155 18260 18259 
17090 17091 18196 18195 17155 17156 18261 18260 
17091 17092 18197 18196 17156 17157 18262 18261 
17092 17093 18198 18197 17157 17158 18263 18262 
17093 17094 18199 18198 17158 17159 18264 18263 
17095 17096 18201 18200 17160 17161 18266 18265 
17096 17097 18202 18201 17161 17162 18267 18266 
17097 17098 18203 18202 17162 17163 18268 18267 
17098 17099 18204 18203 17163 17164 18269 18268 
17099 17100 18205 18204 17164 17165 18270 18269 
17100 17101 18206 18205 17165 17166 18271 18270 
17101 17102 18207 18206 17166 17167 18272 18271 
17102 17103 18208 18207 17167 17168 18273 18272 
17103 17104 18209 18208 17168 17169 18274 18273 
17104 17105 18210 18209 17169 17170 18275 18274 
17105 17106 18211 18210 17170 17171 18276 18275 
17106 17107 18212 18211 17171 17172 18277 18276 
17107 17108 18213 18212 17172 17173 18278 18277 
17108 17109 18214 18213 17173 17174 18279 18278 
17109 17110 18215 18214 17174 17175 18280 18279 
17110 17111 18216 18215 17175 17176 18281 18280 
17111 17112 18217 18216 17176 17177 18282 18281 
17112 17113 18218 18217 17177 17178 18283 18282 
17113 17114 18219 18218 17178 17179 18284 18283 
17114 17115 18220 18219 17179 17180 18285 18284 
17115 17116 18221 18220 17180 17181 18286 18285 
17116 17117 18222 18221 17181 17182 18287 18286 
17117 17118 18223 18222 17182 17183 18288 18287 
17118 17119 18224 18223 17183 17184 18289 18288 
17119 17120 18225 18224 17184 17185 18290 18289 
17120 17121 18226 18225 17185 17186 18291 18290 
17121 17122 18227 18226 17186 17187 18292 18291 
17122 17123 18228 18227 17187 17188 18293 18292 
17123 17124 18229 18228 17188 17189 18294 18293 
17124 17125 18230 18229 17189 17190 18295 18294 
17125 17126 18231 18230 17190 17191 18296 18295 
17126 17127 18232 18231 17191 17192 18297 18296 
17127 17128 18233 18232 17192 17193 18298 18297 
17128 17129 18234 18233 17193 17194 18299 18298 
17129 17130 18235 18234 17194 17195 18300 18299 
17130 17131 18236 18235 17195 17196 18301 18300 
17131 17132 18237 18236 17196 17197 18302 18301 
17132 17133 18238 18237 17197 17198 18303 18302 
17133 17134 18239 18238 17198 17199 18304 18303 
17134 17135 18240 18239 17199 17200 18305 18304 
17135 17136 18241 18240 17200 17201 18306 18305 
17136 17137 18242 18241 17201 17202 18307 18306 
17137 17138 18243 18242 17202 17203 18308 18307 
17138 17139 18244 18243 17203 17204 18309 18308 
17139 17140 18245 18244 17204 17205 18310 18309 
17140 17141 18246 18245 17205 17206 18311 18310 
17141 17142 18247 18246 17206 17207 18312 18311 
17142 17143 18248 18247 17207 17208 18313 18312 
17143 17144 18249 18248 17208 17209 18314 18313 
17144 17145 18250 18249 17209 17210 18315 18314 
17145 17146 18251 18250 17210 17211 18316 18315 
17146 17147 18252 18251 17211 17212 18317 18316 
17147 17148 18253 18252 17212 17213 18318 18317 
17148 17149 18254 18253 17213 17214 18319 18318 
17149 17150 18255 18254 17214 17215 18320 18319 
17150 17151 18256 18255 17215 17216 18321 18320 
17151 17152 18257 18256 17216 17217 18322 18321 
17152 17153 18258 18257 17217 17218 18323 18322 
17153 17154 18259 18258 17218 17219 18324 18323 
17154 17155 18260 18259 17219 17220 18325 18324 
17155 17156 18261 18260 17220 17221 18326 18325 
17156 17157 18262 18261 17221 17222 18327 18326 
17157 17158 18263 18262 17222 17223 18328 18327 
17158 17159 18264 18263 17223 17224 18329 18328 
17160 17161 18266 18265 17225 17226 18331 18330 
17161 17162 18267 18266 17226 17227 18332 18331 
17162 17163 18268 18267 17227 17228 18333 18332 
17163 17164 18269 18268 17228 17229 18334 18333 
17164 17165 18270 18269 17229 17230 18335 18334 
17165 17166 18271 18270 17230 17231 18336 18335 
17166 17167 18272 18271 17231 17232 18337 18336 
17167 17168 18273 18272 17232 17233 18338 18337 
17168 17169 18274 18273 17233 17234 18339 18338 
17169 17170 18275 18274 17234 17235 18340 18339 
17170 17171 18276 18275 17235 17236 18341 18340 
17171 17172 18277 18276 17236 17237 18342 18341 
17172 17173 18278 18277 17237 17238 18343 18342 
17173 17174 18279 18278 17238 17239 18344 18343 
17174 17175 18280 18279 17239 17240 18345 18344 
17175 17176 18281 18280 17240 17241 18346 18345 
17176 17177 18282 18281 17241 17242 18347 18346 
17177 17178 18283 18282 17242 17243 18348 18347 
17178 17179 18284 18283 17243 17244 18349 18348 
17179 17180 18285 18284 17244 17245 18350 18349 
17180 17181 18286 18285 17245 17246 18351 18350 
17181 17182 18287 18286 17246 17247 18352 18351 
17182 17183 18288 18287 17247 17248 18353 18352 
17183 17184 18289 18288 17248 17249 18354 18353 
17184 17185 18290 18289 17249 17250 18355 18354 
17185 17186 18291 18290 17250 17251 18356 18355 
17186 17187 18292 18291 17251 17252 18357 18356 
17187 17188 18293 18292 17252 17253 18358 18357 
17188 17189 18294 18293 17253 17254 18359 18358 
17189 17190 18295 18294 17254 17255 18360 18359 
17190 17191 18296 18295 17255 17256 18361 18360 
17191 17192 18297 18296 17256 17257 18362 18361 
17192 17193 18298 18297 17257 17258 18363 18362 
17193 17194 18299 18298 17258 17259 18364 18363 
17194 17195 18300 18299 17259 17260 18365 18364 
17195 17196 18301 18300 17260 17261 18366 18365 
17196 17197 18302 18301 17261 17262 18367 18366 
17197 17198 18303 18302 17262 17263 18368 18367 
17198 17199 18304 18303 17263 17264 18369 18368 
17199 17200 18305 18304 17264 17265 18370 18369 
17200 17201 18306 18305 17265 17266 18371 18370 
17201 17202 18307 18306 17266 17267 18372 18371 
17202 17203 18308 18307 17267 17268 18373 18372 
17203 17204 18309 18308 17268 17269 18374 18373 
17204 17205 18310 18309 17269 17270 18375 18374 
17205 17206 18311 18310 17270 17271 18376 18375 
17206 17207 18312 18311 17271 17272 18377 18376 
17207 17208 18313 18312 17272 17273 18378 18377 
17208 17209 18314 18313 17273 17274 18379 18378 
17209 17210 18315 18314 17274 17275 18380 18379 
17210 17211 18316 18315 17275 17276 18381 18380 
17211 17212 18317 18316 17276 17277 18382 18381 
17212 17213 18318 18317 17277 17278 18383 18382 
17213 17214 18319 18318 17278 17279 18384 18383 
17214 17215 18320 18319 17279 17280 18385 18384 
17215 17216 18321 18320 17280 17281 18386 18385 
17216 17217 18322 18321 17281 17282 18387 18386 
17217 17218 18323 18322 17282 17283 18388 18387 
17218 17219 18324 18323 17283 17284 18389 18388 
17219 17220 18325 18324 17284 17285 18390 18389 
17220 17221 18326 18325 17285 17286 18391 18390 
17221 17222 18327 18326 17286 17287 18392 18391 
17222 17223 18328 18327 17287 17288 18393 18392 
17223 17224 18329 18328 17288 17289 18394 18393 
17225 17226 18331 18330 17290 17291 18396 18395 
17226 17227 18332 18331 17291 17292 18397 18396 
17227 17228 18333 18332 17292 17293 18398 18397 
17228 17229 18334 18333 17293 17294 18399 18398 
17229 17230 18335 18334 17294 17295 18400 18399 
17230 17231 18336 18335 17295 17296 18401 18400 
17231 17232 18337 18336 17296 17297 18402 18401 
17232 17233 18338 18337 17297 17298 18403 18402 
17233 17234 18339 18338 17298 17299 18404 18403 
17234 17235 18340 18339 17299 17300 18405 18404 
17235 17236 18341 18340 17300 17301 18406 18405 
17236 17237 18342 18341 17301 17302 18407 18406 
17237 17238 18343 18342 17302 17303 18408 18407 
17238 17239 18344 18343 17303 17304 18409 18408 
17239 17240 18345 18344 17304 17305 18410 18409 
17240 17241 18346 18345 17305 17306 18411 18410 
17241 17242 18347 18346 17306 17307 18412 18411 
17242 17243 18348 18347 17307 17308 18413 18412 
17243 17244 18349 18348 17308 17309 18414 18413 
17244 17245 18350 18349 17309 17310 18415 18414 
17245 17246 18351 18350 17310 17311 18416 18415 
17246 17247 18352 18351 17311 17312 18417 18416 
17247 17248 18353 18352 17312 17313 18418 18417 
17248 17249 18354 18353 17313 17314 18419 18418 
17249 17250 18355 18354 17314 17315 18420 18419 
17250 17251 18356 18355 17315 17316 18421 18420 
17251 17252 18357 18356 17316 17317 18422 18421 
17252 17253 18358 18357 17317 17318 18423 18422 
17253 17254 18359 18358 17318 17319 18424 18423 
17254 17255 18360 18359 17319 17320 18425 18424 
17255 17256 18361 18360 17320 17321 18426 18425 
17256 17257 18362 18361 17321 17322 18427 18426 
17257 17258 18363 18362 17322 17323 18428 18427 
17258 17259 18364 18363 17323 17324 18429 18428 
17259 17260 18365 18364 17324 17325 18430 18429 
17260 17261 18366 18365 17325 17326 18431 18430 
17261 17262 18367 18366 17326 17327 18432 18431 
17262 17263 18368 18367 17327 17328 18433 18432 
17263 17264 18369 18368 17328 17329 18434 18433 
17264 17265 18370 18369 17329 17330 18435 18434 
17265 17266 18371 18370 17330 17331 18436 18435 
17266 17267 18372 18371 17331 17332 18437 18436 
17267 17268 18373 18372 17332 17333 18438 18437 
17268 17269 18374 18373 17333 17334 18439 18438 
17269 17270 18375 18374 17334 17335 18440 18439 
17270 17271 18376 18375 17335 17336 18441 18440 
17271 17272 18377 18376 17336 17337 18442 18441 
17272 17273 18378 18377 17337 17338 18443 18442 
17273 17274 18379 18378 17338 17339 18444 18443 
17274 17275 18380 18379 17339 17340 18445 18444 
17275 17276 18381 18380 17340 17341 18446 18445 
17276 17277 18382 18381 17341 17342 18447 18446 
17277 17278 18383 18382 17342 17343 18448 18447 
17278 17279 18384 18383 17343 17344 18449 18448 
17279 17280 18385 18384 17344 17345 18450 18449 
17280 17281 18386 18385 17345 17346 18451 18450 
17281 17282 18387 18386 17346 17347 18452 18451 
17282 17283 18388 18387 17347 17348 18453 18452 
17283 17284 18389 18388 17348 17349 18454 18453 
17284 17285 18390 18389 17349 17350 18455 18454 
17285 17286 18391 18390 17350 17351 18456 18455 
17286 17287 18392 18391 17351 17352 18457 18456 
17287 17288 18393 18392 17352 17353 18458 18457 
17288 17289 18394 18393 17353 17354 18459 18458 
17290 17291 18396 18395 17355 17356 18461 18460 
17291 17292 18397 18396 17356 17357 18462 18461 
17292 17293 18398 18397 17357 17358 18463 18462 
17293 17294 18399 18398 17358 17359 18464 18463 
17294 17295 18400 18399 17359 17360 18465 18464 
17295 17296 18401 18400 17360 17361 18466 18465 
17296 17297 18402 18401 17361 17362 18467 18466 
17297 17298 18403 18402 17362 17363 18468 18467 
17298 17299 18404 18403 17363 17364 18469 18468 
17299 17300 18405 18404 17364 17365 18470 18469 
17300 17301 18406 18405 17365 17366 18471 18470 
17301 17302 18407 18406 17366 17367 18472 18471 
17302 17303 18408 18407 17367 17368 18473 18472 
17303 17304 18409 18408 17368 17369 18474 18473 
17304 17305 18410 18409 17369 17370 18475 18474 
17305 17306 18411 18410 17370 17371 18476 18475 
17306 17307 18412 18411 17371 17372 18477 18476 
17307 17308 18413 18412 17372 17373 18478 18477 
17308 17309 18414 18413 17373 17374 18479 18478 
17309 17310 18415 18414 17374 17375 18480 18479 
17310 17311 18416 18415 17375 17376 18481 18480 
17311 17312 18417 18416 17376 17377 18482 18481 
17312 17313 18418 18417 17377 17378 18483 18482 
17313 17314 18419 18418 17378 17379 18484 18483 
17314 17315 18420 18419 17379 17380 18485 18484 
17315 17316 18421 18420 17380 17381 18486 18485 
17316 17317 18422 18421 17381 17382 18487 18486 
17317 17318 18423 18422 17382 17383 18488 18487 
17318 17319 18424 18423 17383 17384 18489 18488 
17319 17320 18425 18424 17384 17385 18490 18489 
17320 17321 18426 18425 17385 17386 18491 18490 
17321 17322 18427 18426 17386 17387 18492 18491 
17322 17323 18428 18427 17387 17388 18493 18492 
17323 17324 18429 18428 17388 17389 18494 18493 
17324 17325 18430 18429 17389 17390 18495 18494 
17325 17326 18431 18430 17390 17391 18496 18495 
17326 17327 18432 18431 17391 17392 18497 18496 
17327 17328 18433 18432 17392 17393 18498 18497 
17328 17329 18434 18433 17393 17394 18499 18498 
17329 17330 18435 18434 17394 17395 18500 18499 
17330 17331 18436 18435 17395 17396 18501 18500 
17331 17332 18437 18436 17396 17397 18502 18501 
17332 17333 18438 18437 17397 17398 18503 18502 
17333 17334 18439 18438 17398 17399 18504 18503 
17334 17335 18440 18439 17399 17400 18505 18504 
17335 17336 18441 18440 17400 17401 18506 18505 
17336 17337 18442 18441 17401 17402 18507 18506 
17337 17338 18443 18442 17402 17403 18508 18507 
17338 17339 18444 18443 17403 17404 18509 18508 
17339 17340 18445 18444 17404 17405 18510 18509 
17340 17341 18446 18445 17405 17406 18511 18510 
17341 17342 18447 18446 17406 17407 18512 18511 
17342 17343 18448 18447 17407 17408 18513 18512 
17343 17344 18449 18448 17408 17409 18514 18513 
17344 17345 18450 18449 17409 17410 18515 18514 
17345 17346 18451 18450 17410 17411 18516 18515 
17346 17347 18452 18451 17411 17412 18517 18516 
17347 17348 18453 18452 17412 17413 18518 18517 
17348 17349 18454 18453 17413 17414 18519 18518 
17349 17350 18455 18454 17414 17415 18520 18519 
17350 17351 18456 18455 17415 17416 18521 18520 
17351 17352 18457 18456 17416 17417 18522 18521 
17352 17353 18458 18457 17417 17418 18523 18522 
17353 17354 18459 18458 17418 17419 18524 18523 
17355 17356 18461 18460 17420 17421 18526 18525 
17356 17357 18462 18461 17421 17422 18527 18526 
17357 17358 18463 18462 17422 17423 18528 18527 
17358 17359 18464 18463 17423 17424 18529 18528 
17359 17360 18465 18464 17424 17425 18530 18529 
17360 17361 18466 18465 17425 17426 18531 18530 
17361 17362 18467 18466 17426 17427 18532 18531 
17362 17363 18468 18467 17427 17428 18533 18532 
17363 17364 18469 18468 17428 17429 18534 18533 
17364 17365 18470 18469 17429 17430 18535 18534 
17365 17366 18471 18470 17430 17431 18536 18535 
17366 17367 18472 18471 17431 17432 18537 18536 
17367 17368 18473 18472 17432 17433 18538 18537 
17368 17369 18474 18473 17433 17434 18539 18538 
17369 17370 18475 18474 17434 17435 18540 18539 
17370 17371 18476 18475 17435 17436 18541 18540 
17371 17372 18477 18476 17436 17437 18542 18541 
17372 17373 18478 18477 17437 17438 18543 18542 
17373 17374 18479 18478 17438 17439 18544 18543 
17374 17375 18480 18479 17439 17440 18545 18544 
17375 17376 18481 18480 17440 17441 18546 18545 
17376 17377 18482 18481 17441 17442 18547 18546 
17377 17378 18483 18482 17442 17443 18548 18547 
17378 17379 18484 18483 17443 17444 18549 18548 
17379 17380 18485 18484 17444 17445 18550 18549 
17380 17381 18486 18485 17445 17446 18551 18550 
17381 17382 18487 18486 17446 17447 18552 18551 
17382 17383 18488 18487 17447 17448 18553 18552 
17383 17384 18489 18488 17448 17449 18554 18553 
17384 17385 18490 18489 17449 17450 18555 18554 
17385 17386 18491 18490 17450 17451 18556 18555 
17386 17387 18492 18491 17451 17452 18557 18556 
17387 17388 18493 18492 17452 17453 18558 18557 
17388 17389 18494 18493 17453 17454 18559 18558 
17389 17390 18495 18494 17454 17455 18560 18559 
17390 17391 18496 18495 17455 17456 18561 18560 
17391 17392 18497 18496 17456 17457 18562 18561 
17392 17393 18498 18497 17457 17458 18563 18562 
17393 17394 18499 18498 17458 17459 18564 18563 
17394 17395 18500 18499 17459 17460 18565 18564 
17395 17396 18501 18500 17460 17461 18566 18565 
17396 17397 18502 18501 17461 17462 18567 18566 
17397 17398 18503 18502 17462 17463 18568 18567 
17398 17399 18504 18503 17463 17464 18569 18568 
17399 17400 18505 18504 17464 17465 18570 18569 
17400 17401 18506 18505 17465 17466 18571 18570 
17401 17402 18507 18506 17466 17467 18572 18571 
17402 17403 18508 18507 17467 17468 18573 18572 
17403 17404 18509 18508 17468 17469 18574 18573 
17404 17405 18510 18509 17469 17470 18575 18574 
17405 17406 18511 18510 17470 17471 18576 18575 
17406 17407 18512 18511 17471 17472 18577 18576 
17407 17408 18513 18512 17472 17473 18578 18577 
17408 17409 18514 18513 17473 17474 18579 18578 
17409 17410 18515 18514 17474 17475 18580 18579 
17410 17411 18516 18515 17475 17476 18581 18580 
17411 17412 18517 18516 17476 17477 18582 18581 
17412 17413 18518 18517 17477 17478 18583 18582 
17413 17414 18519 18518 17478 17479 18584 18583 
17414 17415 18520 18519 17479 17480 18585 18584 
17415 17416 18521 18520 17480 17481 18586 18585 
17416 17417 18522 18521 17481 17482 18587 18586 
17417 17418 18523 18522 17482 17483 18588 18587 
17418 17419 18524 18523 17483 17484 18589 18588 
17420 17421 18526 18525 17485 17486 18591 18590 
17421 17422 18527 18526 17486 17487 18592 18591 
17422 17423 18528 18527 17487 17488 18593 18592 
17423 17424 18529 18528 17488 17489 18594 18593 
17424 17425 18530 18529 17489 17490 18595 18594 
17425 17426 18531 18530 17490 17491 18596 18595 
17426 17427 18532 18531 17491 17492 18597 18596 
17427 17428 18533 18532 17492 17493 18598 18597 
17428 17429 18534 18533 17493 17494 18599 18598 
17429 17430 18535 18534 17494 17495 18600 18599 
17430 17431 18536 18535 17495 17496 18601 18600 
17431 17432 18537 18536 17496 17497 18602 18601 
17432 17433 18538 18537 17497 17498 18603 18602 
17433 17434 18539 18538 17498 17499 18604 18603 
17434 17435 18540 18539 17499 17500 18605 18604 
17435 17436 18541 18540 17500 17501 18606 18605 
17436 17437 18542 18541 17501 17502 18607 18606 
17437 17438 18543 18542 17502 17503 18608 18607 
17438 17439 18544 18543 17503 17504 18609 18608 
17439 17440 18545 18544 17504 17505 18610 18609 
17440 17441 18546 18545 17505 17506 18611 18610 
17441 17442 18547 18546 17506 17507 18612 18611 
17442 17443 18548 18547 17507 17508 18613 18612 
17443 17444 18549 18548 17508 17509 18614 18613 
17444 17445 18550 18549 17509 17510 18615 18614 
17445 17446 18551 18550 17510 17511 18616 18615 
17446 17447 18552 18551 17511 17512 18617 18616 
17447 17448 18553 18552 17512 17513 18618 18617 
17448 17449 18554 18553 17513 17514 18619 18618 
17449 17450 18555 18554 17514 17515 18620 18619 
17450 17451 18556 18555 17515 17516 18621 18620 
17451 17452 18557 18556 17516 17517 18622 18621 
17452 17453 18558 18557 17517 17518 18623 18622 
17453 17454 18559 18558 17518 17519 18624 18623 
17454 17455 18560 18559 17519 17520 18625 18624 
17455 17456 18561 18560 17520 17521 18626 18625 
17456 17457 18562 18561 17521 17522 18627 18626 
17457 17458 18563 18562 17522 17523 18628 18627 
17458 17459 18564 18563 17523 17524 18629 18628 
17459 17460 18565 18564 17524 17525 18630 18629 
17460 17461 18566 18565 17525 17526 18631 18630 
17461 17462 18567 18566 17526 17527 18632 18631 
17462 17463 18568 18567 17527 17528 18633 18632 
17463 17464 18569 18568 17528 17529 18634 18633 
17464 17465 18570 18569 17529 17530 18635 18634 
17465 17466 18571 18570 17530 17531 18636 18635 
17466 17467 18572 18571 17531 17532 18637 18636 
17467 17468 18573 18572 17532 17533 18638 18637 
17468 17469 18574 18573 17533 17534 18639 18638 
17469 17470 18575 18574 17534 17535 18640 18639 
17470 17471 18576 18575 17535 17536 18641 18640 
17471 17472 18577 18576 17536 17537 18642 18641 
17472 17473 18578 18577 17537 17538 18643 18642 
17473 17474 18579 18578 17538 17539 18644 18643 
17474 17475 18580 18579 17539 17540 18645 18644 
17475 17476 18581 18580 17540 17541 18646 18645 
17476 17477 18582 18581 17541 17542 18647 18646 
17477 17478 18583 18582 17542 17543 18648 18647 
17478 17479 18584 18583 17543 17544 18649 18648 
17479 17480 18585 18584 17544 17545 18650 18649 
17480 17481 18586 18585 17545 17546 18651 18650 
17481 17482 18587 18586 17546 17547 18652 18651 
17482 17483 18588 18587 17547 17548 18653 18652 
17483 17484 18589 18588 17548 17549 18654 18653 
17485 17486 18591 18590 17550 17551 18656 18655 
17486 17487 18592 18591 17551 17552 18657 18656 
17487 17488 18593 18592 17552 17553 18658 18657 
17488 17489 18594 18593 17553 17554 18659 18658 
17489 17490 18595 18594 17554 17555 18660 18659 
17490 17491 18596 18595 17555 17556 18661 18660 
17491 17492 18597 18596 17556 17557 18662 18661 
17492 17493 18598 18597 17557 17558 18663 18662 
17493 17494 18599 18598 17558 17559 18664 18663 
17494 17495 18600 18599 17559 17560 18665 18664 
17495 17496 18601 18600 17560 17561 18666 18665 
17496 17497 18602 18601 17561 17562 18667 18666 
17497 17498 18603 18602 17562 17563 18668 18667 
17498 17499 18604 18603 17563 17564 18669 18668 
17499 17500 18605 18604 17564 17565 18670 18669 
17500 17501 18606 18605 17565 17566 18671 18670 
17501 17502 18607 18606 17566 17567 18672 18671 
17502 17503 18608 18607 17567 17568 18673 18672 
17503 17504 18609 18608 17568 17569 18674 18673 
17504 17505 18610 18609 17569 17570 18675 18674 
17505 17506 18611 18610 17570 17571 18676 18675 
17506 17507 18612 18611 17571 17572 18677 18676 
17507 17508 18613 18612 17572 17573 18678 18677 
17508 17509 18614 18613 17573 17574 18679 18678 
17509 17510 18615 18614 17574 17575 18680 18679 
17510 17511 18616 18615 17575 17576 18681 18680 
17511 17512 18617 18616 17576 17577 18682 18681 
17512 17513 18618 18617 17577 17578 18683 18682 
17513 17514 18619 18618 17578 17579 18684 18683 
17514 17515 18620 18619 17579 17580 18685 18684 
17515 17516 18621 18620 17580 17581 18686 18685 
17516 17517 18622 18621 17581 17582 18687 18686 
17517 17518 18623 18622 17582 17583 18688 18687 
17518 17519 18624 18623 17583 17584 18689 18688 
17519 17520 18625 18624 17584 17585 18690 18689 
17520 17521 18626 18625 17585 17586 18691 18690 
17521 17522 18627 18626 17586 17587 18692 18691 
17522 17523 18628 18627 17587 17588 18693 18692 
17523 17524 18629 18628 17588 17589 18694 18693 
17524 17525 18630 18629 17589 17590 18695 18694 
17525 17526 18631 18630 17590 17591 18696 18695 
17526 17527 18632 18631 17591 17592 18697 18696 
17527 17528 18633 18632 17592 17593 18698 18697 
17528 17529 18634 18633 17593 17594 18699 18698 
17529 17530 18635 18634 17594 17595 18700 18699 
17530 17531 18636 18635 17595 17596 18701 18700 
17531 17532 18637 18636 17596 17597 18702 18701 
17532 17533 18638 18637 17597 17598 18703 18702 
17533 17534 18639 18638 17598 17599 18704 18703 
17534 17535 18640 18639 17599 17600 18705 18704 
17535 17536 18641 18640 17600 17601 18706 18705 
17536 17537 18642 18641 17601 17602 18707 18706 
17537 17538 18643 18642 17602 17603 18708 18707 
17538 17539 18644 18643 17603 17604 18709 18708 
17539 17540 18645 18644 17604 17605 18710 18709 
17540 17541 18646 18645 17605 17606 18711 18710 
17541 17542 18647 18646 17606 17607 18712 18711 
17542 17543 18648 18647 17607 17608 18713 18712 
17543 17544 18649 18648 17608 17609 18714 18713 
17544 17545 18650 18649 17609 17610 18715 18714 
17545 17546 18651 18650 17610 17611 18716 18715 
17546 17547 18652 18651 17611 17612 18717 18716 
17547 17548 18653 18652 17612 17613 18718 18717 
17548 17549 18654 18653 17613 17614 18719 18718 
17550 17551 18656 18655 17615 17616 18721 18720 
17551 17552 18657 18656 17616 17617 18722 18721 
17552 17553 18658 18657 17617 17618 18723 18722 
17553 17554 18659 18658 17618 17619 18724 18723 
17554 17555 18660 18659 17619 17620 18725 18724 
17555 17556 18661 18660 17620 17621 18726 18725 
17556 17557 18662 18661 17621 17622 18727 18726 
17557 17558 18663 18662 17622 17623 18728 18727 
17558 17559 18664 18663 17623 17624 18729 18728 
17559 17560 18665 18664 17624 17625 18730 18729 
17560 17561 18666 18665 17625 17626 18731 18730 
17561 17562 18667 18666 17626 17627 18732 18731 
17562 17563 18668 18667 17627 17628 18733 18732 
17563 17564 18669 18668 17628 17629 18734 18733 
17564 17565 18670 18669 17629 17630 18735 18734 
17565 17566 18671 18670 17630 17631 18736 18735 
17566 17567 18672 18671 17631 17632 18737 18736 
17567 17568 18673 18672 17632 17633 18738 18737 
17568 17569 18674 18673 17633 17634 18739 18738 
17569 17570 18675 18674 17634 17635 18740 18739 
17570 17571 18676 18675 17635 17636 18741 18740 
17571 17572 18677 18676 17636 17637 18742 18741 
17572 17573 18678 18677 17637 17638 18743 18742 
17573 17574 18679 18678 17638 17639 18744 18743 
17574 17575 18680 18679 17639 17640 18745 18744 
17575 17576 18681 18680 17640 17641 18746 18745 
17576 17577 18682 18681 17641 17642 18747 18746 
17577 17578 18683 18682 17642 17643 18748 18747 
17578 17579 18684 18683 17643 17644 18749 18748 
17579 17580 18685 18684 17644 17645 18750 18749 
17580 17581 18686 18685 17645 17646 18751 18750 
17581 17582 18687 18686 17646 17647 18752 18751 
17582 17583 18688 18687 17647 17648 18753 18752 
17583 17584 18689 18688 17648 17649 18754 18753 
17584 17585 18690 18689 17649 17650 18755 18754 
17585 17586 18691 18690 17650 17651 18756 18755 
17586 17587 18692 18691 17651 17652 18757 18756 
17587 17588 18693 18692 17652 17653 18758 18757 
17588 17589 18694 18693 17653 17654 18759 18758 
17589 17590 18695 18694 17654 17655 18760 18759 
17590 17591 18696 18695 17655 17656 18761 18760 
17591 17592 18697 18696 17656 17657 18762 18761 
17592 17593 18698 18697 17657 17658 18763 18762 
17593 17594 18699 18698 17658 17659 18764 18763 
17594 17595 18700 18699 17659 17660 18765 18764 
17595 17596 18701 18700 17660 17661 18766 18765 
17596 17597 18702 18701 17661 17662 18767 18766 
17597 17598 18703 18702 17662 17663 18768 18767 
17598 17599 18704 18703 17663 17664 18769 18768 
17599 17600 18705 18704 17664 17665 18770 18769 
17600 17601 18706 18705 17665 17666 18771 18770 
17601 17602 18707 18706 17666 17667 18772 18771 
17602 17603 18708 18707 17667 17668 18773 18772 
17603 17604 18709 18708 17668 17669 18774 18773 
17604 17605 18710 18709 17669 17670 18775 18774 
17605 17606 18711 18710 17670 17671 18776 18775 
17606 17607 18712 18711 17671 17672 18777 18776 
17607 17608 18713 18712 17672 17673 18778 18777 
17608 17609 18714 18713 17673 17674 18779 18778 
17609 17610 18715 18714 17674 17675 18780 18779 
17610 17611 18716 18715 17675 17676 18781 18780 
17611 17612 18717 18716 17676 17677 18782 18781 
17612 17613 18718 18717 17677 17678 18783 18782 
17613 17614 18719 18718 17678 17679 18784 18783 
CELL_TYPES 16384
12 12 12 12 12 12 12 12 12 12 12 12 12 12 12 12 12 12 12 12 12 12 12 12 12 12 12 12 12 12 12 12 12 12 12 12 12 12 12 12 12 12 12 12 12 12 12 12 12 12 12 12 12 12 12 12 12 12 12 12 12 12 12 12 12 12 12 12 12 12 12 12 12 12 12 12 12 12 12 12 12 12 12 12 12 12 12 12 12 12 12 12 12 12 12 12 12 12 12 12 12 12 12 12 12 12 12 12 12 12 12 12 12 12 12 12 12 12 12 12 12 12 12 12 12 12 12 12 12 12 12 12 12 12 12 12 12 12 12 12 12 12 12 12 12 12 12 12 12 12 12 12 12 12 12 12 12 12 12 12 12 12 12 12 12 12 12 12 12 12 12 12 12 12 12 12 12 12 12 12 12 12 12 12 12 12 12 12 12 12 12 12 12 12 12 12 12 12 12 12 12 12 12 12 12 12 12 12 12 12 12 12 12 12 12 12 12 12 12 12 12 12 12 12 12 12 12 12 12 12 12 12 12 12 12 12 12 12 12 12 12 12 12 12 12 12 12 12 12 12 12 12 12 12 12 12 12 12 12 12 12 12 12 12 12 12 12 12 12 12 12 12 12 12 12 12 12 12 12 12 12 12 12 12 12 12 12 12 12 12 12 12 12 12 12 12 12 12 12 12 12 12 12 12 12 12 12 12 12 12 12 12 12 12 12 12 12 12 12 12 12 12 12 12 12 12 12 12 12 12 12 12 12 12 12 12 12 12 12 12 12 12 12 12 12 12 12 12 12 12 12 12 12 12 12 12 12 12 12 12 12 12 12 12 12 12 12 12 12 12 12 12 12 12 12 12 12 12 12 12 12 12 12 12 12 12 12 12 12 12 12 12 12 12 12 12 12 12 12 12 12 12 12 12 12 12 12 12 12 12 12 12 12 12 12 12 12 12 12 12 12 12 12 12 12 12 12 12 12 12 12 12 12 12 12 12 12 12 12 12 12 12 12 12 12 12 12 12 12 12 12 12 12 12 12 12 12 12 12 12 12 12 12 12 12 12 12 12 12 12 12 12 12 12 12 12 12 12 12 12 12 12 12 12 12 12 12 12 12 12 12 12 12 12 12 12 12 12 12 12 12 12 12 12 12 12 12 12 12 12 12 12 12 12 12 12 12 12 12 12 12 12 12 12 12 12 12 12 12 12 12 12 12 12 12 12 12 12 12 12 12 12 12 12 12 12 12 12 12 12 12 12 12 12 12 12 12 12 12 12 12 12 12 12 12 12 12 12 12 12 12 12 12 12 12 12 12 12 12 12 12 12 12 12 12 12 12 12 12 12 12 12 12 12 12 12 12 12 12 12 12 12 12 12 12 12 12 12 12 12 12 12 12 12 12 12 12 12 12 12 12 12 12 12 12 12 12 12 12 12 12 12 12 12 12 12 12 12 12 12 12 12 12 12 12 12 12 12 12 12 12 12 12 12 12 12 12 12 12 12 12 12 12 12 12 12 12 12 12 12 12 12 12 12 12 12 12 12 12 12 12 12 12 12 12 12 12 12 12 12 12 12 12 12 12 12 12 12 12 12 12 12 12 12 12 12 12 12 12 12 12 12 12 12 12 12 12 12 12 12 12 12 12 12 12 12 12 12 12 12 12 12 12 12 12 12 12 12 12 12 12 12 12 12 12 12 12 12 12 12 12 12 12 12 12 12 12 12 12 12 12 12 12 12 12 12 12 12 12 12 12 12 12 12 12 12 12 12 12 12 12 12 12 12 12 12 12 12 12 12 12 12 12 12 12 12 12 12 12 12 12 12 12 12 12 12 12 12 12 12 12 12 12 12 12 12 12 12 12 12 12 12 12 12 12 12 12 12 12 12 12 12 12 12 12 12 12 12 12 12 12 12 12 12 12 12 12 12 12 12 12 12 12 12 12 12 12 12 12 12 12 12 12 12 12 12 12 12 12 12 12 12 12 12 12 12 12 12 12 12 12 12 12 12 12 12 12 12 12 12 12 12 12 12 12 12 12 12 12 12 12 12 12 12 12 12 12 12 12 12 12 12 12 12 12 12 12 12 12 12 12 12 12 12 12 12 12 12 12 12 12 12 12 12 12 12 12 12 12 12 12 12 12 12 12 12 12 12 12 12 12 12 12 12 12 12 12 12 12 12 12 12 12 12 12 12 12 12 12 12 12 12 12 12 12 12 12 12 12 12 12 12 12 12 12 12 12 12 12 12 12 12 12 12 12 12 12 12 12 12 12 12 12 12 12 12 12 12 12 12 12 12 12 12 12 12 12 12 12 12 12 12 12 12 12 12 12 12 12 12 12 12 12 12 12 12 12 12 12 12 12 12 12 12 12 12 12 12 12 12 12 12 12 12 12 12 12 12 12 12 12 12 12 12 12 12 12 12 12 12 12 12 12 12 12 12 12 12 12 12 12 12 12 12 12 12 12 12 12 12 12 12 12 12 12 12 12 12 12 12 12 12 12 12 12 12 12 12 12 12 12 12 12 12 12 12 12 12 12 12 12 12 12 12 12 12 12 12 12 12 12 12 12 12 12 12 12 12 12 12 12 12 12 12 12 12 12 12 12 12 12 12 12 12 12 12 12 12 12 12 12 12 12 12 12 12 12 12 12 12 12 12 12 12 12 12 12 12 12 12 12 12 12 12 12 12 12 12 12 12 12 12 12 12 12 12 12 12 12 12 12 12 12 12 12 12 12 12 12 12 12 12 12 12 12 12 12 12 12 12 12 12 12 12 12 12 12 12 12 12 12 12 12 12 12 12 12 12 12 12 12 12 12 12 12 12 12 12 12 12 12 12 12 12 12 12 12 12 12 12 12 12 12 12 12 12 12 12 12 12 12 12 12 12 12 12 12 12 12 12 12 12 12 12 12 12 12 12 12 12 12 12 12 12 12 12 12 12 12 12 12 12 12 12 12 12 12 12 12 12 12 12 12 12 12 12 12 12 12 12 12 12 12 12 12 12 12 12 12 12 12 12 12 12 12 12 12 12 12 12 12 12 12 12 12 12 12 12 12 12 12 12 12 12 12 12 12 12 12 12 12 12 12 12 12 12 12 12 12 12 12 12 12 12 12 12 12 12 12 12 12 12 12 12 12 12 12 12 12 12 12 12 12 12 12 12 12 12 12 12 12 12 12 12 12 12 12 12 12 12 12 12 12 12 12 12 12 12 12 12 12 12 12 12 12 12 12 12 12 12 12 12 12 12 12 12 12 12 12 12 12 12 12 12 12 12 12 12 12 12 12 12 12 12 12 12 12 12 12 12 12 12 12 12 12 12 12 12 12 12 12 12 12 12 12 12 12 12 12 12 12 12 12 12 12 12 12 12 12 12 12 12 12 12 12 12 12 12 12 12 12 12 12 12 12 12 12 12 12 12 12 12 12 12 12 12 12 12 12 12 12 12 12 12 12 12 12 12 12 12 12 12 12 12 12 12 12 12 12 12 12 12 12 12 12 12 12 12 12 12 12 12 12 12 12 12 12 12 12 12 12 12 12 12 12 12 12 12 12 12 12 12 12 12 12 12 12 12 12 12 12 12 12 12 12 12 12 12 12 12 12 12 12 12 12 12 12 12 12 12 12 12 12 12 12 12 12 12 12 12 12 12 12 12 12 12 12 12 12 12 12 12 12 12 12 12 12 12 12 12 12 12 12 12 12 12 12 12 12 12 12 12 12 12 12 12 12 12 12 12 12 12 12 12 12 12 12 12 12 12 12 12 12 12 12 12 12 12 12 12 12 12 12 12 12 12 12 12 12 12 12 12 12 12 12 12 12 12 12 12 12 12 12 12 12 12 12 12 12 12 12 12 12 12 12 12 12 12 12 12 12 12 12 12 12 12 12 12 12 12 12 12 12 12 12 12 12 12 12 12 12 12 12 12 12 12 12 12 12 12 12 12 12 12 12 12 12 12 12 12 12 12 12 12 12 12 12 12 12 12 12 12 12 12 12 12 12 12 12 12 12 12 12 12 12 12 12 12 12 12 12 12 12 12 12 12 12 12 12 12 12 12 12 12 12 12 12 12 12 12 12 12 12 12 12 12 12 12 12 12 12 12 12 12 12 12 12 12 12 12 12 12 12 12 12 12 12 12 12 12 12 12 12 12 12 12 12 12 12 12 12 12 12 12 12 12 12 12 12 12 12 12 12 12 12 12 12 12 12 12 12 12 12 12 12 12 12 12 12 12 12 12 12 12 12 12 12 12 12 12 12 12 12 12 12 12 12 12 12 12 12 12 12 12 12 12 12 12 12 12 12 12 12 12 12 12 12 12 12 12 12 12 12 12 12 12 12 12 12 12 12 12 12 12 12 12 12 12 12 12 12 12 12 12 12 12 12 12 12 12 12 12 12 12 12 12 12 12 12 12 12 12 12 12 12 12 12 12 12 12 12 12 12 12 12 12 12 12 12 12 12 12 12 12 12 12 12 12 12 12 12 12 12 12 12 12 12 12 12 12 12 12 12 12 12 12 12 12 12 12 12 12 12 12 12 12 12 12 12 12 12 12 12 12 12 12 12 12 12 12 12 12 12 12 12 12 12 12 12 12 12 12 12 12 12 12 12 12 12 12 12 12 12 12 12 12 12 12 12 12 12 12 12 12 12 12 12 12 12 12 12 12 12 12 12 12 12 12 12 12 12 12 12 12 12 12 12 12 12 12 12 12 12 12 12 12 12 12 12 12 12 12 12 12 12 12 12 12 12 12 12 12 12 12 12 12 12 12 12 12 12 12 12 12 12 12 12 12 12 12 12 12 12 12 12 12 12 12 12 12 12 12 12 12 12 12 12 12 12 12 12 12 12 12 12 12 12 12 12 12 12 12 12 12 12 12 12 12 12 12 12 12 12 12 12 12 12 12 12 12 12 12 12 12 12 12 12 12 12 12 12 12 12 12 12 12 12 12 12 12 12 12 12 12 12 12 12 12 12 12 12 12 12 12 12 12 12 12 12 12 12 12 12 12 12 12 12 12 12 12 12 12 12 12 12 12 12 12 12 12 12 12 12 12 12 12 12 12 12 12 12 12 12 12 12 12 12 12 12 12 12 12 12 12 12 12 12 12 12 12 12 12 12 12 12 12 12 12 12 12 12 12 12 12 12 12 12 12 12 12 12 12 12 12 12 12 12 12 12 12 12 12 12 12 12 12 12 12 12 12 12 12 12 12 12 12 12 12 12 12 12 12 12 12 12 12 12 12 12 12 12 12 12 12 12 12 12 12 12 12 12 12 12 12 12 12 12 12 12 12 12 12 12 12 12 12 12 12 12 12 12 12 12 12 12 12 12 12 12 12 12 12 12 12 12 12 12 12 12 12 12 12 12 12 12 12 12 12 12 12 12 12 12 12 12 12 12 12 12 12 12 12 12 12 12 12 12 12 12 12 12 12 12 12 12 12 12 12 12 12 12 12 12 12 12 12 12 12 12 12 12 12 12 12 12 12 12 12 12 12 12 12 12 12 12 12 12 12 12 12 12 12 12 12 12 12 12 12 12 12 12 12 12 12 12 12 12 12 12 12 12 12 12 12 12 12 12 12 12 12 12 12 12 12 12 12 12 12 12 12 12 12 12 12 12 12 12 12 12 12 12 12 12 12 12 12 12 12 12 12 12 12 12 12 12 12 12 12 12 12 12 12 12 12 12 12 12 12 12 12 12 12 12 12 12 12 12 12 12 12 12 12 12 12 12 12 12 12 12 12 12 12 12 12 12 12 12 12 12 12 12 12 12 12 12 12 12 12 12 12 12 12 12 12 12 12 12 12 12 12 12 12 12 12 12 12 12 12 12 12 12 12 12 12 12 12 12 12 12 12 12 12 12 12 12 12 12 12 12 12 12 12 12 12 12 12 12 12 12 12 12 12 12 12 12 12 12 12 12 12 12 12 12 12 12 12 12 12 12 12 12 12 12 12 12 12 12 12 12 12 12 12 12 12 12 12 12 12 12 12 12 12 12 12 12 12 12 12 12 12 12 12 12 12 12 12 12 12 12 12 12 12 12 12 12 12 12 12 12 12 12 12 12 12 12 12 12 12 12 12 12 12 12 12 12 12 12 12 12 12 12 12 12 12 12 12 12 12 12 12 12 12 12 12 12 12 12 12 12 12 12 12 12 12 12 12 12 12 12 12 12 12 12 12 12 12 12 12 12 12 12 12 12 12 12 12 12 12 12 12 12 12 12 12 12 12 12 12 12 12 12 12 12 12 12 12 12 12 12 12 12 12 12 12 12 12 12 12 12 12 12 12 12 12 12 12 12 12 12 12 12 12 12 12 12 12 12 12 12 12 12 12 12 12 12 12 12 12 12 12 12 12 12 12 12 12 12 12 12 12 12 12 12 12 12 12 12 12 12 12 12 12 12 12 12 12 12 12 12 12 12 12 12 12 12 12 12 12 12 12 12 12 12 12 12 12 12 12 12 12 12 12 12 12 12 12 12 12 12 12 12 12 12 12 12 12 12 12 12 12 12 12 12 12 12 12 12 12 12 12 12 12 12 12 12 12 12 12 12 12 12 12 12 12 12 12 12 12 12 12 12 12 12 12 12 12 12 12 12 12 12 12 12 12 12 12 12 12 12 12 12 12 12 12 12 12 12 12 12 12 12 12 12 12 12 12 12 12 12 12 12 12 12 12 12 12 12 12 12 12 12 12 12 12 12 12 12 12 12 12 12 12 12 12 12 12 12 12 12 12 12 12 12 12 12 12 12 12 12 12 12 12 12 12 12 12 12 12 12 12 12 12 12 12 12 12 12 12 12 12 12 12 12 12 12 12 12 12 12 12 12 12 12 12 12 12 12 12 12 12 12 12 12 12 12 12 12 12 12 12 12 12 12 12 12 12 12 12 12 12 12 12 12 12 12 12 12 12 12 12 12 12 12 12 12 12 12 12 12 12 12 12 12 12 12 12 12 12 12 12 12 12 12 12 12 12 12 12 12 12 12 12 12 12 12 12 12 12 12 12 12 12 12 12 12 12 12 12 12 12 12 12 12 12 12 12 12 12 12 12 12 12 12 12 12 12 12 12 12 12 12 12 12 12 12 12 12 12 12 12 12 12 12 12 12 12 12 12 12 12 12 12 12 12 12 12 12 12 12 12 12 12 12 12 12 12 12 12 12 12 12 12 12 12 12 12 12 12 12 12 12 12 12 12 12 12 12 12 12 12 12 12 12 12 12 12 12 12 12 12 12 12 12 12 12 12 12 12 12 12 12 12 12 12 12 12 12 12 12 12 12 12 12 12 12 12 12 12 12 12 12 12 12 12 12 12 12 12 12 12 12 12 12 12 12 12 12 12 12 12 12 12 12 12 12 12 12 12 12 12 12 12 12 12 12 12 12 12 12 12 12 12 12 12 12 12 12 12 12 12 12 12 12 12 12 12 12 12 12 12 12 12 12 12 12 12 12 12 12 12 12 12 12 12 12 12 12 12 12 12 12 12 12 12 12 12 12 12 12 12 12 12 12 12 12 12 12 12 12 12 12 12 12 12 12 12 12 12 12 12 12 12 12 12 12 12 12 12 12 12 12 12 12 12 12 12 12 12 12 12 12 12 12 12 12 12 12 12 12 12 12 12 12 12 12 12 12 12 12 12 12 12 12 12 12 12 12 12 12 12 12 12 12 12 12 12 12 12 12 12 12 12 12 12 12 12 12 12 12 12 12 12 12 12 12 12 12 12 12 12 12 12 12 12 12 12 12 12 12 12 12 12 12 12 12 12 12 12 12 12 12 12 12 12 12 12 12 12 12 12 12 12 12 12 12 12 12 12 12 12 12 12 12 12 12 12 12 12 12 12 12 12 12 12 12 12 12 12 12 12 12 12 12 12 12 12 12 12 12 12 12 12 12 12 12 12 12 12 12 12 12 12 12 12 12 12 12 12 12 12 12 12 12 12 12 12 12 12 12 12 12 12 12 12 12 12 12 12 12 12 12 12 12 12 12 12 12 12 12 12 12 12 12 12 12 12 12 12 12 12 12 12 12 12 12 12 12 12 12 12 12 12 12 12 12 12 12 12 12 12 12 12 12 12 12 12 12 12 12 12 12 12 12 12 12 12 12 12 12 12 12 12 12 12 12 12 12 12 12 12 12 12 12 12 12 12 12 12 12 12 12 12 12 12 12 12 12 12 12 12 12 12 12 12 12 12 12 12 12 12 12 12 12 12 12 12 12 12 12 12 12 12 12 12 12 12 12 12 12 12 12 12 12 12 12 12 12 12 12 12 12 12 12 12 12 12 12 12 12 12 12 12 12 12 12 12 12 12 12 12 12 12 12 12 12 12 12 12 12 12 12 12 12 12 12 12 12 12 12 12 12 12 12 12 12 12 12 12 12 12 12 12 12 12 12 12 12 12 12 12 12 12 12 12 12 12 12 12 12 12 12 12 12 12 12 12 12 12 12 12 12 12 12 12 12 12 12 12 12 12 12 12 12 12 12 12 12 12 12 12 12 12 12 12 12 12 12 12 12 12 12 12 12 12 12 12 12 12 12 12 12 12 12 12 12 12 12 12 12 12 12 12 12 12 12 12 12 12 12 12 12 12 12 12 12 12 12 12 12 12 12 12 12 12 12 12 12 12 12 12 12 12 12 12 12 12 12 12 12 12 12 12 12 12 12 12 12 12 12 12 12 12 12 12 12 12 12 12 12 12 12 12 12 12 12 12 12 12 12 12 12 12 12 12 12 12 12 12 12 12 12 12 12 12 12 12 12 12 12 12 12 12 12 12 12 12 12 12 12 12 12 12 12 12 12 12 12 12 12 12 12 12 12 12 12 12 12 12 12 12 12 12 12 12 12 12 12 12 12 12 12 12 12 12 12 12 12 12 12 12 12 12 12 12 12 12 12 12 12 12 12 12 12 12 12 12 12 12 12 12 12 12 12 12 12 12 12 12 12 12 12 12 12 12 12 12 12 12 12 12 12 12 12 12 12 12 12 12 12 12 12 12 12 12 12 12 12 12 12 12 12 12 12 12 12 12 12 12 12 12 12 12 12 12 12 12 12 12 12 12 12 12 12 12 12 12 12 12 12 12 12 12 12 12 12 12 12 12 12 12 12 12 12 12 12 12 12 12 12 12 12 12 12 12 12 12 12 12 12 12 12 12 12 12 12 12 12 12 12 12 12 12 12 12 12 12 12 12 12 12 12 12 12 12 12 12 12 12 12 12 12 12 12 12 12 12 12 12 12 12 12 12 12 12 12 12 12 12 12 12 12 12 12 12 12 12 12 12 12 12 12 12 12 12 12 12 12 12 12 12 12 12 12 12 12 12 12 12 12 12 12 12 12 12 12 12 12 12 12 12 12 12 12 12 12 12 12 12 12 12 12 12 12 12 12 12 12 12 12 12 12 12 12 12 12 12 12 12 12 12 12 12 12 12 12 12 12 12 12 12 12 12 12 12 12 12 12 12 12 12 12 12 12 12 12 12 12 12 12 12 12 12 12 12 12 12 12 12 12 12 12 12 12 12 12 12 12 12 12 12 12 12 12 12 12 12 12 12 12 12 12 12 12 12 12 12 12 12 12 12 12 12 12 12 12 12 12 12 12 12 12 12 12 12 12 12 12 12 12 12 12 12 12 12 12 12 12 12 12 12 12 12 12 12 12 12 12 12 12 12 12 12 12 12 12 12 12 12 12 12 12 12 12 12 12 12 12 12 12 12 12 12 12 12 12 12 12 12 12 12 12 12 12 12 12 12 12 12 12 12 12 12 12 12 12 12 12 12 12 12 12 12 12 12 12 12 12 12 12 12 12 12 12 12 12 12 12 12 12 12 12 12 12 12 12 12 12 12 12 12 12 12 12 12 12 12 12 12 12 12 12 12 12 12 12 12 12 12 12 12 12 12 12 12 12 12 12 12 12 12 12 12 12 12 12 12 12 12 12 12 12 12 12 12 12 12 12 12 12 12 12 12 12 12 12 12 12 12 12 12 12 12 12 12 12 12 12 12 12 12 12 12 12 12 12 12 12 12 12 12 12 12 12 12 12 12 12 12 12 12 12 12 12 12 12 12 12 12 12 12 12 12 12 12 12 12 12 12 12 12 12 12 12 12 12 12 12 12 12 12 12 12 12 12 12 12 12 12 12 12 12 12 12 12 12 12 12 12 12 12 12 12 12 12 12 12 12 12 12 12 12 12 12 12 12 12 12 12 12 12 12 12 12 12 12 12 12 12 12 12 12 12 12 12 12 12 12 12 12 12 12 12 12 12 12 12 12 12 12 12 12 12 12 12 12 12 12 12 12 12 12 12 12 12 12 12 12 12 12 12 12 12 12 12 12 12 12 12 12 12 12 12 12 12 12 12 12 12 12 12 12 12 12 12 12 12 12 12 12 12 12 12 12 12 12 12 12 12 12 12 12 12 12 12 12 12 12 12 12 12 12 12 12 12 12 12 12 12 12 12 12 12 12 12 12 12 12 12 12 12 12 12 12 12 12 12 12 12 12 12 12 12 12 12 12 12 12 12 12 12 12 12 12 12 12 12 12 12 12 12 12 12 12 12 12 12 12 12 12 12 12 12 12 12 12 12 12 12 12 12 12 12 12 12 12 12 12 12 12 12 12 12 12 12 12 12 12 12 12 12 12 12 12 12 12 12 12 12 12 12 12 12 12 12 12 12 12 12 12 12 12 12 12 12 12 12 12 12 12 12 12 12 12 12 12 12 12 12 12 12 12 12 12 12 12 12 12 12 12 12 12 12 12 12 12 12 12 12 12 12 12 12 12 12 12 12 12 12 12 12 12 12 12 12 12 12 12 12 12 12 12 12 12 12 12 12 12 12 12 12 12 12 12 12 12 12 12 12 12 12 12 12 12 12 12 12 12 12 12 12 12 12 12 12 12 12 12 12 12 12 12 12 12 12 12 12 12 12 12 12 12 12 12 12 12 12 12 12 12 12 12 12 12 12 12 12 12 12 12 12 12 12 12 12 12 12 12 12 12 12 12 12 12 12 12 12 12 12 12 12 12 12 12 12 12 12 12 12 12 12 12 12 12 12 12 12 12 12 12 12 12 12 12 12 12 12 12 12 12 12 12 12 12 12 12 12 12 12 12 12 12 12 12 12 12 12 12 12 12 12 12 12 12 12 12 12 12 12 12 12 12 12 12 12 12 12 12 12 12 12 12 12 12 12 12 12 12 12 12 12 12 12 12 12 12 12 12 12 12 12 12 12 12 12 12 12 12 12 12 12 12 12 12 12 12 12 12 12 12 12 12 12 12 12 12 12 12 12 12 12 12 12 12 12 12 12 12 12 12 12 12 12 12 12 12 12 12 12 12 12 12 12 12 12 12 12 12 12 12 12 12 12 12 12 12 12 12 12 12 12 12 12 12 12 12 12 12 12 12 12 12 12 12 12 12 12 12 12 12 12 12 12 12 12 12 12 12 12 12 12 12 12 12 12 12 12 12 12 12 12 12 12 12 12 12 12 12 12 12 12 12 12 12 12 12 12 12 12 12 12 12 12 12 12 12 12 12 12 12 12 12 12 12 12 12 12 12 12 12 12 12 12 12 12 12 12 12 12 12 12 12 12 12 12 12 12 12 12 12 12 12 12 12 12 12 12 12 12 12 12 12 12 12 12 12 12 12 12 12 12 12 12 12 12 12 12 12 12 12 12 12 12 12 12 12 12 12 12 12 12 12 12 12 12 12 12 12 12 12 12 12 12 12 12 12 12 12 12 12 12 12 12 12 12 12 12 12 12 12 12 12 12 12 12 12 12 12 12 12 12 12 12 12 12 12 12 12 12 12 12 12 12 12 12 12 12 12 12 12 12 12 12 12 12 12 12 12 12 12 12 12 12 12 12 12 12 12 12 12 12 12 12 12 12 12 12 12 12 12 12 12 12 12 12 12 12 12 12 12 12 12 12 12 12 12 12 12 12 12 12 12 12 12 12 12 12 12 12 12 12 12 12 12 12 12 12 12 12 12 12 12 12 12 12 12 12 12 12 12 12 12 12 12 12 12 12 12 12 12 12 12 12 12 12 12 12 12 12 12 12 12 12 12 12 12 12 12 12 12 12 12 12 12 12 12 12 12 12 12 12 12 12 12 12 12 12 12 12 12 12 12 12 12 12 12 12 12 12 12 12 12 12 12 12 12 12 12 12 12 12 12 12 12 12 12 12 12 12 12 12 12 12 12 12 12 12 12 12 12 12 12 12 12 12 12 12 12 12 12 12 12 12 12 12 12 12 12 12 12 12 12 12 12 12 12 12 12 12 12 12 12 12 12 12 12 12 12 12 12 12 12 12 12 12 12 12 12 12 12 12 12 12 12 12 12 12 12 12 12 12 12 12 12 12 12 12 12 12 12 12 12 12 12 12 12 12 12 12 12 12 12 12 12 12 12 12 12 12 12 12 12 12 12 12 12 12 12 12 12 12 12 12 12 12 12 12 12 12 12 12 12 12 12 12 12 12 12 12 12 12 12 12 12 12 12 12 12 12 12 12 12 12 12 12 12 12 12 12 12 12 12 12 12 12 12 12 12 12 12 12 12 12 12 12 12 12 12 12 12 12 12 12 12 12 12 12 12 12 12 12 12 12 12 12 12 12 12 12 12 12 12 12 12 12 12 12 12 12 12 12 12 12 12 12 12 12 12 12 12 12 12 12 12 12 12 12 12 12 12 12 12 12 12 12 12 12 12 12 12 12 12 12 12 12 12 12 12 12 12 12 12 12 12 12 12 12 12 12 12 12 12 12 12 12 12 12 12 12 12 12 12 12 12 12 12 12 12 12 12 12 12 12 12 12 12 12 12 12 12 12 12 12 12 12 12 12 12 12 12 12 12 12 12 12 12 12 12 12 12 12 12 12 12 12 12 12 12 12 12 12 12 12 12 12 12 12 12 12 12 12 12 12 12 12 12 12 12 12 12 12 12 12 12 12 12 12 12 12 12 12 12 12 12 12 12 12 12 12 12 12 12 12 12 12 12 12 12 12 12 12 12 12 12 12 12 12 12 12 12 12 12 12 12 12 12 12 12 12 12 12 12 12 12 12 12 12 12 12 12 12 12 12 12 12 12 12 12 12 12 12 12 12 12 12 12 12 12 12 12 12 12 12 12 12 12 12 12 12 12 12 12 12 12 12 12 12 12 12 12 12 12 12 12 12 12 12 12 12 12 12 12 12 12 12 12 12 12 12 12 12 12 12 12 12 12 12 12 12 12 12 12 12 12 12 12 12 12 12 12 12 12 12 12 12 12 12 12 12 12 12 12 12 12 12 12 12 12 12 12 12 12 12 12 12 12 12 12 12 12 12 12 12 12 12 12 12 12 12 12 12 12 12 12 12 12 12 12 12 12 12 12 12 12 12 12 12 12 12 12 12 12 12 12 12 12 12 12 12 12 12 12 12 12 12 12 12 12 12 12 12 12 12 12 12 12 12 12 12 12 12 12 12 12 12 12 12 12 12 12 12 12 12 12 12 12 12 12 12 12 12 12 12 12 12 12 12 12 12 12 12 12 12 12 12 12 12 12 12 12 12 12 12 12 12 12 12 12 12 12 12 12 12 12 12 12 12 12 12 12 12 12 12 12 12 12 12 12 12 12 12 12 12 12 12 12 12 12 12 12 12 12 12 12 12 12 12 12 12 12 12 12 12 12 12 12 12 12 12 12 12 12 12 12 12 12 12 12 12 12 12 12 12 12 12 12 12 12 12 12 12 12 12 12 12 12 12 12 12 12 12 12 12 12 12 12 12 12 12 12 12 12 12 12 12 12 12 12 12 12 12 12 12 12 12 12 12 12 12 12 12 12 12 12 12 12 12 12 12 12 12 12 12 12 12 12 12 12 12 12 12 12 12 12 12 12 12 12 12 12 12 12 12 12 12 12 12 12 12 12 12 12 12 12 12 12 12 12 12 12 12 12 12 12 12 12 12 12 12 12 12 12 12 12 12 12 12 12 12 12 12 12 12 12 12 12 12 12 12 12 12 12 12 12 12 12 12 12 12 12 12 12 12 12 12 12 12 12 12 12 12 12 12 12 12 12 12 12 12 12 12 12 12 12 12 12 12 12 12 12 12 12 12 12 12 12 12 12 12 12 12 12 12 12 12 12 12 12 12 12 12 12 12 12 12 12 12 12 12 12 12 12 12 12 12 12 12 12 12 12 12 12 12 12 12 12 12 12 12 12 12 12 12 12 12 12 12 12 12 12 12 12 12 12 12 12 12 12 12 12 12 12 12 12 12 12 12 12 12 12 12 12 12 12 12 12 12 12 12 12 12 12 12 12 12 12 12 12 12 12 12 12 12 12 12 12 12 12 12 12 12 12 12 12 12 12 12 12 12 12 12 12 12 12 12 12 12 12 12 12 12 12 12 12 12 12 12 12 12 12 12 12 12 12 12 12 12 12 12 12 12 12 12 12 12 12 12 12 12 12 12 12 12 12 12 12 12 12 12 12 12 12 12 12 12 12 12 12 12 12 12 12 12 12 12 12 12 12 12 12 12 12 12 12 12 12 12 12 12 12 12 12 12 12 12 12 12 12 12 12 12 12 12 12 12 12 12 12 12 12 12 12 12 12 12 12 12 12 12 12 12 12 12 12 12 12 12 12 12 12 12 12 12 12 12 12 12 12 12 12 12 12 12 12 12 12 12 12 12 12 12 12 12 12 12 12 12 12 12 12 12 12 12 12 12 12 12 12 12 12 12 12 12 12 12 12 12 12 12 12 12 12 12 12 12 12 12 12 12 12 12 12 12 12 12 12 12 12 12 12 12 12 12 12 12 12 12 12 12 12 12 12 12 12 12 12 12 12 12 12 12 12 12 12 12 12 12 12 12 12 12 12 12 12 12 12 12 12 12 12 12 12 12 12 12 12 12 12 12 12 12 12 12 12 12 12 12 12 12 12 12 12 12 12 12 12 12 12 12 12 12 12 12 12 12 12 12 12 12 12 12 12 12 12 12 12 12 12 12 12 12 12 12 12 12 12 12 12 12 12 12 12 12 12 12 12 12 12 12 12 12 12 12 12 12 12 12 12 12 12 12 12 12 12 12 12 12 12 12 12 12 12 12 12 12 12 12 12 12 12 12 12 12 12 12 12 12 12 12 12 12 12 12 12 12 12 12 12 12 12 12 12 12 12 12 12 12 12 12 12 12 12 12 12 12 12 12 12 12 12 12 12 12 12 12 12 12 12 12 12 12 12 12 12 12 12 12 12 12 12 12 12 12 12 12 12 12 12 12 12 12 12 12 12 12 12 12 12 12 12 12 12 12 12 12 12 12 12 12 12 12 12 12 12 12 12 12 12 12 12 12 12 12 12 12 12 12 12 12 12 12 12 12 12 12 12 12 12 12 12 12 12 12 12 12 12 12 12 12 12 12 12 12 12 12 12 12 12 12 12 12 12 12 12 12 12 12 12 12 12 12 12 12 12 12 12 12 12 12 12 12 12 12 12 12 12 12 12 12 12 12 12 12 12 12 12 12 12 12 12 12 12 12 12 12 12 12 12 12 12 12 12 12 12 12 12 12 12 12 12 12 12 12 12 12 12 12 12 12 12 12 12 12 12 12 12 12 12 12 12 12 12 12 12 12 12 12 12 12 12 12 12 12 12 12 12 12 12 12 12 12 12 12 12 12 12 12 12 12 12 12 12 12 12 12 12 12 12 12 12 12 12 12 12 12 12 12 12 12 12 12 12 12 12 12 12 12 12 12 12 12 12 12 12 12 12 12 12 12 12 12 12 12 12 12 12 12 12 12 12 12 12 12 12 12 12 12 12 12 12 12 12 12 12 12 12 12 12 12 12 12 12 12 12 12 12 12 12 12 12 12 12 12 12 12 12 12 12 12 12 12 12 12 12 12 12 12 12 12 12 12 12 12 12 12 12 12 12 12 12 12 12 12 12 12 12 12 12 12 12 12 12 12 12 12 12 12 12 12 12 12 12 12 12 12 12 12 12 12 12 12 12 12 12 12 12 12 12 12 12 12 12 12 12 12 12 12 12 12 12 12 12 12 12 12 12 12 12 12 12 12 12 12 12 12 12 12 12 12 12 12 12 12 12 12 12 12 12 12 12 12 12 12 12 12 12 12 12 12 12 12 12 12 12 12 12 12 12 12 12 12 12 12 12 12 12 12 12 12 12 12 12 12 12 12 12 12 12 12 12 12 12 12 12 12 12 12 12 12 12 12 12 12 12 12 12 12 12 12 12 12 12 12 12 12 12 12 12 12 12 12 12 12 12 12 12 12 12 12 12 12 12 12 12 12 12 12 12 12 12 12 12 12 12 12 12 12 12 12 12 12 12 12 12 12 12 12 12 12 12 12 12 12 12 12 12 12 12 12 12 12 12 12 12 12 12 12 12 12 12 12 12 12 12 12 12 12 12 12 12 12 12 12 12 12 12 12 12 12 12 12 12 12 12 12 12 12 12 12 12 12 12 12 12 12 12 12 12 12 12 12 12 12 12 12 12 12 12 12 12 12 12 12 12 12 12 12 12 12 12 12 12 12 12 12 12 12 12 12 12 12 12 12 12 12 12 12 12 12 12 12 12 12 12 12 12 12 12 12 12 12 12 12 12 12 12 12 12 12 12 12 12 12 12 12 12 12 12 12 12 12 12 12 12 12 12 12 12 12 12 12 12 12 12 12 12 12 12 12 12 12 12 12 12 12 12 12 12 12 12 12 12 12 12 12 12 12 12 12 12 12 12 12 12 12 12 12 12 12 12 12 12 12 12 12 12 12 12 12 12 12 12 12 12 12 12 12 12 12 12 12 12 12 12 12 12 12 12 12 12 12 12 12 12 12 12 12 12 12 12 12 12 12 12 12 12 12 12 12 12 12 12 12 12 12 12 12 12 12 12 12 12 12 12 12 12 12 12 12 12 12 12 12 12 12 12 12 12 12 12 12 12 12 12 12 12 12 12 12 12 12 12 12 12 12 12 12 12 12 12 12 12 12 12 12 12 12 12 12 12 12 12 12 12 12 12 12 12 12 12 12 12 12 12 12 12 12 12 12 12 12 12 12 12 12 12 12 12 12 12 12 12 12 12 12 12 12 12 12 12 12 12 12 12 12 12 12 12 12 12 12 12 12 12 12 12 12 12 12 12 12 12 12 12 12 12 12 12 12 12 12 12 12 12 12 12 12 12 12 12 12 12 12 12 12 12 12 12 12 12 12 12 12 12 12 12 12 12 12 12 12 12 12 12 12 12 12 12 12 12 12 12 12 12 12 12 12 12 12 12 12 12 12 12 12 12 12 12 12 12 12 12 12 12 12 12 12 12 12 12 12 12 12 12 12 12 12 12 12 12 12 12 12 12 12 12 12 12 12 12 12 12 12 12 12 12 12 12 12 12 12 12 12 12 12 12 12 12 12 12 12 12 12 12 12 12 12 12 12 12 12 12 12 12 12 12 12 12 12 12 12 12 12 12 12 12 12 12 12 12 12 12 12 12 12 12 12 12 12 12 12 12 12 12 12 12 12 12 12 12 12 12 12 12 12 12 12 12 12 12 12 12 12 12 12 12 12 12 12 12 12 12 12 12 12 12 12 12 12 12 12 12 12 12 12 12 12 12 12 12 12 12 12 12 12 12 12 12 12 12 12 12 12 12 12 12 12 12 12 12 12 12 12 12 12 12 12 12 12 12 12 12 12 12 12 12 12 12 12 12 12 12 12 12 12 12 12 12 12 12 12 12 12 12 12 12 12 12 12 12 12 12 12 12 12 12 12 12 12 12 12 12 12 12 12 12 12 12 12 12 12 12 12 12 12 12 12 12 12 12 12 12 12 12 12 12 12 12 12 12 12 12 12 12 12 12 12 12 12 12 12 12 12 12 12 12 12 12 12 12 12 12 12 12 12 12 12 12 12 12 12 12 12 12 12 12 12 12 12 12 12 12 12 12 12 12 12 12 12 12 12 12 12 12 12 12 12 12 12 12 12 12 12 12 12 12 12 12 12 12 12 12 12 12 12 12 12 12 12 12 12 12 12 12 12 12 12 12 12 12 12 12 12 12 12 12 12 12 12 12 12 12 12 12 12 12 12 12 12 12 12 12 12 12 12 12 12 12 12 12 12 12 12 12 12 12 12 12 12 12 12 12 12 12 12 12 12 12 12 12 12 12 12 12 12 12 12 12 12 12 12 12 12 12 12 12 12 12 12 12 12 12 12 12 12 12 12 12 12 12 12 12 12 12 12 12 12 12 12 12 12 12 12 12 12 12 12 12 12 12 12 12 12 12 12 12 12 12 12 12 12 12 12 12 12 12 12 12 12 12 12 12 12 12 12 12 12 12 12 12 12 12 12 12 12 12 12 12 12 12 12 12 12 12 12 12 12 12 12 12 12 12 12 12 12 12 12 12 12 12 12 12 12 12 12 12 12 12 12 12 12 12 12 12 12 12 12 12 12 12 12 12 12 12 12 12 12 12 12 12 12 12 12 12 12 12 12 12 12 12 12 12 12 12 12 12 12 12 12 12 12 12 12 12 12 12 12 12 12 12 12 12 12 12 12 12 12 12 12 12 12 12 12 12 12 12 12 12 12 12 12 12 12 12 12 12 12 12 12 12 12 12 12 12 12 12 12 12 12 12 12 12 12 12 12 12 12 12 12 12 12 12 12 12 12 12 12 12 12 12 12 12 12 12 12 12 12 12 12 12 12 12 12 12 12 12 12 12 12 12 12 12 12 12 12 12 12 12 12 12 12 12 12 12 12 12 12 12 12 12 12 12 12 12 12 12 12 12 12 12 12 12 12 12 12 12 12 12 12 12 12 12 12 12 12 12 12 12 12 12 12 12 12 12 12 12 12 12 12 12 12 12 12 12 12 12 12 12 12 12 12 12 12 12 12 12 12 12 12 12 12 12 12 12 12 12 12 12 12 12 12 12 12 12 12 12 12 12 12 12 12 12 12 12 12 12 12 12 12 12 12 12 12 12 12 12 12 12 12 12 12 12 12 12 12 12 12 12 12 12 12 12 12 12 12 12 12 12 12 12 12 12 12 12 12 12 12 12 12 12 12 12 12 12 12 12 12 12 12 12 12 12 12 12 12 12 12 12 12 12 12 12 12 12 12 12 12 12 12 12 12 12 12 12 12 12 12 12 12 12 12 12 12 12 12 12 12 12 12 12 12 12 12 12 12 12 12 12 12 12 12 12 12 12 12 12 12 12 12 12 12 12 12 12 12 12 12 12 12 12 12 12 12 12 12 12 12 12 12 12 12 12 12 12 12 12 12 12 12 12 12 12 12 12 12 12 12 12 12 12 12 12 12 12 12 12 12 12 12 12 12 12 12 12 12 12 12 12 12 12 12 12 12 12 12 12 12 12 12 12 12 12 12 12 12 12 12 12 12 12 12 12 12 12 12 12 12 12 12 12 12 12 12 12 12 12 12 12 12 12 12 12 12 12 12 12 12 12 12 12 12 12 12 12 12 12 12 12 12 12 12 12 12 12 12 12 12 12 12 12 12 12 12 12 12 12 12 12 12 12 12 12 12 12 12 12 12 12 12 12 12 12 12 12 12 12 12 12 12 12 12 12 12 12 12 12 12 12 12 12 12 12 12 12 12 12 12 12 12 12 12 12 12 12 12 12 12 12 12 12 12 12 12 12 12 12 12 12 12 12 12 12 12 12 12 12 12 12 12 12 12 12 12 12 12 12 12 12 12 12 12 12 12 12 12 12 12 12 12 12 12 12 12 12 12 12 12 12 12 12 12 12 12 12 12 12 12 12 12 12 12 12 12 12 12 12 12 12 12 12 12 12 12 12 12 12 12 12 12 12 12 12 12 12 12 12 12 12 12 12 12 12 12 12 12 12 12 12 12 12 12 12 12 12 12 12 12 12 12 12 12 12 12 12 12 12 12 12 12 12 12 12 12 12 12 12 12 12 12 12 12 12 12 12 12 12 12 12 12 12 12 12 12 12 12 12 12 12 12 12 12 12 12 12 12 12 12 12 12 12 12 12 12 12 12 12 12 12 12 12 12 12 12 12 12 12 12 12 12 12 12 12 12 12 12 12 12 12 12 12 12 12 12 12 12 12 12 12 12 12 12 12 12 12 12 12 12 12 12 12 12 12 12 12 12 12 12 12 12 12 12 12 12 12 12 12 12 12 12 12 12 12 12 12 12 12 12 12 12 12 12 12 12 12 12 12 12 12 12 12 12 12 12 12 12 12 12 12 12 12 12 12 12 12 12 12 12 12 12 12 12 12 12 12 12 12 12 12 12 12 12 12 12 12 12 12 12 12 12 12 12 12 12 12 12 12 12 12 12 12 12 12 12 12 12 12 12 12 12 12 12 12 12 12 12 12 12 12 12 12 12 12 12 12 12 12 12 12 12 12 12 12 12 12 12 12 12 12 12 12 12 12 12 12 12 12 12 12 12 12 12 12 12 12 12 12 12 12 12 12 12 12 12 12 12 12 12 12 12 12 12 12 12 12 12 12 12 12 12 12 12 12 12 12 12 12 12 12 12 12 12 12 12 12 12 12 12 12 12 12 12 12 12 12 12 12 12 12 12 12 12 12 12 12 12 12 12 12 12 12 12 12 12 12 12 12 12 12 12 12 12 12 12 12 12 12 12 12 12 12 12 12 12 12 12 12 12 12 12 12 12 12 12 12 12 12 12 12 12 12 12 12 12 12 12 12 12 12 12 12 12 12 12 12 12 12 12 12 12 12 12 12 12 12 12 12 12 12 12 12 12 12 12 12 12 12 12 12 12 12 12 12 12 12 12 12 12 12 12 12 12 12 12 12 12 12 12 12 12 12 12 12 12 12 12 12 12 12 12 12 12 12 12 12 12 12 12 12 12 12 12 12 12 12 12 12 12 12 12 12 12 12 12 12 12 12 12 12 12 12 12 12 12 12 12 12 12 12 12 12 12 12 12 12 12 12 12 12 12 12 12 12 12 12 12 12 12 12 12 12 12 12 12 12 12 12 12 12 12 12 12 12 12 12 12 12 12 12 12 12 12 12 12 12 12 12 12 12 12 12 12 12 12 12 12 12 12 12 12 12 12 12 12 12 12 12 12 12 12 12 12 12 12 12 12 12 12 12 12 12 12 12 12 12 12 12 12 12 12 12 12 12 12 12 12 12 12 12 12 12 12 12 12 12 12 12 12 12 12 12 12 12 12 12 12 12 12 12 12 12 12 12 12 12 12 12 12 12 12 12 12 12 12 12 12 12 12 12 12 12 12 12 12 12 12 12 12 12 12 12 12 12 12 12 12 12 12 12 12 12 12 12 12 12 12 12 12 12 12 12 12 12 12 12 12 12 12 12 12 12 12 12 12 12 12 12 12 12 12 12 12 12 12 12 12 12 12 12 12 12 12 12 12 12 12 12 12 12 12 12 12 12 12 12 12 12 12 12 12 12 12 12 12 12 12 12 12 12 12 12 12 12 12 12 12 12 12 12 12 12 12 12 12 12 12 12 12 12 12 12 12 12 12 12 12 12 12 12 12 12 12 12 12 12 12 12 12 12 12 12 12 12 12 12 12 12 12 12 12 12 12 12 12 12 12 12 12 12 12 12 12 12 12 12 12 12 12 12 12 12 12 12 12 12 12 12 12 12 12 12 12 12 12 12 12 12 12 12 12 12 12 12 12 12 12 12 12 12 12 12 12 12 12 12 12 12 12 12 12 12 12 12 12 12 12 12 12 12 12 12 12 12 12 12 12 12 12 12 12 12 12 12 12 12 12 12 12 12 12 12 12 12 12 12 12 12 12 12 12 12 12 12 12 12 12 12 12 12 12 12 12 12 12 12 12 12 12 12 12 12 12 12 12 12 12 12 12 12 12 12 12 12 12 12 12 12 12 12 12 12 12 12 12 12 12 12 12 12 12 12 12 12 12 12 12 12 12 12 12 12 12 12 12 12 12 12 12 12 12 12 12 12 12 12 12 12 12 12 12 12 12 12 12 12 12 12 12 12 12 12 12 12 12 12 12 12 12 12 12 12 12 12 12 12 12 12 12 12 12 12 12 12 12 12 12 12 12 12 12 12 12 12 12 12 12 12 12 12 12 12 12 12 12 12 12 12 12 12 12 12 12 12 12 12 12 12 12 12 12 12 12 12 12 12 12 12 12 12 12 12 12 12 12 12 12 12 12 12 12 12 12 12 12 12 12 12 12 12 12 12 12 12 12 12 12 12 12 12 12 12 12 12 12 12 12 12 12 12 12 12 12 12 12 12 12 12 12 12 12 12 12 12 12 12 12 12 12 12 12 12 12 12 12 12 12 12 12 12 12 12 12 12 12 12 12 12 12 12 12 12 12 12 12 12 12 12 12 12 12 12 12 12 12 12 12 12 12 12 12 12 12 12 12 12 12 12 12 12 12 12 12 12 12 12 12 12 12 12 12 12 12 12 12 12 12 12 12 12 12 12 12 12 12 12 12 12 12 12 12 12 12 12 12 12 12 12 12 12 12 12 12 12 12 12 12 12 12 12 12 12 12 12 12 12 12 12 12 12 12 12 12 12 12 12 12 12 12 12 12 12 12 12 12 12 12 12 12 12 12 12 12 12 12 12 12 12 12 12 12 12 12 12 12 12 12 12 12 12 12 12 12 12 12 12 12 12 12 12 12 12 12 12 12 12 12 12 12 12 12 12 12 12 12 12 12 12 12 12 12 12 12 12 12 12 12 12 12 12 12 12 12 12 12 12 12 12 12 12 12 12 12 12 12 12 12 12 12 12 12 12 12 12 12 12 12 12 12 12 12 12 12 12 12 12 12 12 12 12 12 12 12 12 12 12 12 12 12 12 12 12 12 12 12 12 12 12 12 12 12 12 12 12 12 12 12 12 12 12 12 12 12 12 12 12 12 12 12 12 12 12 12 12 12 12 12 12 12 12 12 12 12 12 12 12 12 12 12 12 12 12 12 12 12 12 12 12 12 12 12 12 12 12 12 12 12 12 12 12 12 12 12 12 12 12 12 12 12 12 12 12 12 12 12 12 12 12 12 12 12 12 12 12 12 12 12 12 12 12 12 12 12 12 12 12 12 12 12 12 12 12 12 12 12 12 12 12 12 12 12 12 12 12 12 12 12 12 12 12 12 12 12 12 12 12 12 12 12 12 12 12 12 12 12 12 12 12 12 12 12 12 12 12 12 12 12 12 12 12 12 12 12 12 12 12 12 12 12 12 12 12 12 12 12 12 12 12 12 12 12 12 12 12 12 12 12 12 12 12 12 12 12 12 12 12 12 12 12 12 12 12 12 12 12 12 12 12 12 12 12 12 12 12 12 12 12 12 12 12 12 12 12 12 12 12 12 12 12 12 12 12 12 12 12 12 12 12 12 12 12 12 12 12 12 12 12 12 12 12 12 12 12 12 12 12 12 12 12 12 12 12 12 12 12 12 12 12 12 12 12 12 12 12 12 12 12 12 12 12 12 12 12 12 12 12 12 12 12 12 12 12 12 12 12 12 12 12 12 12 12 12 12 12 12 12 12 12 12 12 12 12 12 12 12 12 12 12 12 12 12 12 12 12 12 12 12 12 12 12 12 12 12 12 12 12 12 12 12 12 12 12 12 12 12 12 12 12 12 12 12 12 12 12 12 12 12 12 12 12 12 12 12 12 12 12 12 12 12 12 12 12 12 12 12 12 12 12 12 12 12 12 12 12 12 12 12 12 12 12 12 12 12 12 12 12 12 12 12 12 12 12 12 12 12 12 12 12 12 12 12 12 12 12 12 12 12 12 12 12 12 12 12 12 12 12 12 12 12 12 12 12 12 12 12 12 12 12 12 12 12 12 12 12 12 12 12 12 12 12 12 12 12 12 12 12 12 12 12 12 12 12 12 12 12 12 12 12 12 12 12 12 12 12 12 12 12 12 12 12 12 12 12 12 12 12 12 12 12 12 12 12 12 12 12 12 12 12 12 12 12 12 12 12 12 12 12 12 12 12 12 12 12 12 12 12 12 12 12 12 12 12 12 12 12 12 12 12 12 12 12 12 12 12 12 12 12 12 12 12 12 12 12 12 12 12 12 12 12 12 12 12 12 12 12 12 12 12 12 12 12 12 12 12 12 12 12 12 12 12 12 12 12 12 12 12 12 12 12 12 12 12 12 12 12 12 12 12 12 12 12 12 12 12 12 12 12 12 12 12 12 12 12 12 12 12 12 12 12 12 12 12 12 12 12 12 12 12 12 12 12 12 12 12 12 12 12 12 12 12 12 12 12 12 12 12 12 12 12 12 12 12 12 12 12 12 12 12 12 12 12 12 12 12 12 12 12 12 12 12 12 12 12 12 12 12 12 12 12 12 12 12 12 12 12 12 12 12 12 12 12 12 12 12 12 12 12 12 12 12 12 12 12 12 12 12 12 12 12 12 12 12 12 12 12 12 12 12 12 12 12 12 12 12 12 12 12 12 12 12 12 12 12 12 12 12 12 12 12 12 12 12 12 12 12 12 12 12 12 12 12 12 12 12 12 12 12 12 12 12 12 12 12 12 12 12 12 12 12 12 12 12 12 12 12 12 12 12 12 12 12 12 12 12 12 12 12 12 12 12 12 12 12 12 12 12 12 12 12 12 12 12 12 12 12 12 12 12 12 12 12 12 12 12 12 12 12 12 12 12 12 12 12 12 12 12 12 12 12 12 12 12 12 12 12 12 12 12 12 12 12 12 12 12 12 12 12 12 12 12 12 12 12 12 12 12 12 12 12 12 12 12 12 12 12 12 12 12 12 12 12 12 12 12 12 12 12 12 12 12 12 12 12 12 12 12 12 12 12 12 12 12 12 12 12 12 12 12 12 12 12 12 12 12 12 12 12 12 12 12 12 12 12 12 12 12 12 12 12 12 12 12 12 12 12 12 12 12 12 12 12 12 12 12 12 12 12 12 12 12 12 12 12 12 12 12 12 12 12 12 12 12 12 12 12 12 12 12 12 12 12 12 12 12 12 12 12 12 12 12 12 12 12 12 12 12 12 12 12 12 12 12 12 12 12 12 12 12 12 12 12 12 12 12 12 12 12 12 12 12 12 12 12 12 12 12 12 12 12 12 12 12 12 12 12 12 12 12 12 12 12 12 12 12 12 12 12 12 12 12 12 12 12 12 12 12 12 12 12 12 12 12 12 12 12 12 12 12 12 12 12 12 12 12 12 12 12 12 12 12 12 12 12 12 12 12 12 12 12 12 12 12 12 12 12 12 12 12 12 12 12 12 12 12 12 12 12 12 12 12 12 12 12 12 12 12 12 12 12 12 12 12 12 12 12 12 12 12 12 12 12 12 12 12 12 12 12 12 12 12 12 12 12 12 12 12 12 12 12 12 12 12 12 12 12 12 12 12 12 12 12 12 12 12 12 12 12 12 12 12 12 12 12 12 12 12 12 12 12 12 12 12 12 12 12 12 12 12 12 12 12 12 12 12 12 12 12 12 12 12 12 12 12 12 12 12 12 12 12 12 12 12 12 12 12 12 12 12 12 12 12 12 12 12 12 12 12 12 12 12 12 12 12 12 12 12 12 12 12 12 12 12 12 12 12 12 12 12 12 12 12 12 12 12 12 12 12 12 12 12 12 12 12 12 12 12 12 12 12 12 12 12 12 12 12 12 12 12 12 12 12 12 12 12 12 12 12 12 12 12 12 12 12 12 12 12 12 12 12 12 12 12 12 12 12 12 12 12 12 12 12 12 12 12 12 12 12 12 12 12 12 12 12 12 12 12 12 12 12 12 12 12 12 12 12 12 12 12 12 12 12 12 12 12 12 12 12 12 12 12 12 12 12 12 12 12 12 12 12 12 12 12 12 12 12 12 12 12 12 12 12 12 12 12 12 12 12 12 12 12 12 12 12 12 12 12 12 12 12 12 12 12 12 12 12 12 12 12 12 12 12 12 12 12 12 12 12 12 12 12 12 12 12 12 12 12 12 12 12 12 12 12 12 12 12 12 12 12 12 12 12 12 12 12 12 12 12 12 12 12 12 12 12 12 12 12 12 12 12 12 12 12 12 12 12 12 12 12 12 12 12 12 12 12 12 12 12 12 12 12 12 12 12 12 12 12 12 12 12 12 12 12 12 12 12 12 12 12 12 12 12 12 12 12 12 12 12 12 12 12 12 12 12 12 12 12 12 12 12 12 12 12 12 12 12 12 12 12 12 12 12 12 12 12 12 12 12 12 12 12 12 12 12 12 12 12 12 12 12 12 12 12 12 12 12 12 12 12 12 12 12 12 12 12 12 12 12 12 12 12 12 12 12 12 12 12 12 12 12 12 12 12 12 12 12 12 12 12 12 12 12 12 12 12 12 12 12 12 12 12 12 12 12 12 12 12 12 12 12 12 12 12 12 12 12 12 12 12 12 12 12 12 12 12 12 12 12 12 12 12 12 12 12 12 12 12 12 12 12 12 12 12 12 12 12 12 12 12 12 12 12 12 12 12 12 12 12 12 12 12 12 12 12 12 12 12 12 12 12 12 12 12 12 12 12 12 12 12 12 12 12 12 12 12 12 12 12 12 12 12 12 12 12 12 12 12 12 12 12 12 12 12 12 12 12 12 12 12 12 12 12 12 12 12 12 12 12 12 12 12 12 12 12 12 12 12 12 12 12 12 12 12 12 12 12 12 12 12 12 12 12 12 12 12 12 12 12 12 12 12 12 12 12 12 12 12 12 12 12 12 12 12 12 12 12 12 12 12 12 12 12 12 12 12 12 12 12 12 12 12 12 12 12 12 12 12 12 12 12 12 12 12 12 12 12 12 12 12 12 12 12 12 12 12 12 12 12 12 12 12 12 12 12 12 12 12 12 12 12 12 12 12 12 12 12 12 12 12 12 12 12 12 12 12 12 12 12 12 12 12 12 12 12 12 12 12 12 12 12 12 12 12 12 12 12 12 12 12 12 12 12 12 12 12 12 12 12 12 12 12 12 12 12 12 12 12 12 12 12 12 12 12 12 12 12 12 12 12 12 12 12 12 12 12 12 12 12 12 12 12 12 12 12 12 12 12 12 12 12 12 12 12 12 12 12 12 12 12 12 12 12 12 12 12 12 12 12 12 12 12 12 12 12 12 12 12 12 12 12 12 12 12 12 12 12 12 12 12 12 12 12 12 12 12 12 12 12 12 12 12 12 12 12 12 12 12 12 12 12 12 12 12 12 12 12 12 12 12 12 12 12 12 12 12 12 12 12 12 12 12 12 12 12 12 12 12 12 12 12 12 12 12 12 12 12 12 12 12 12 12 12 12 12 12 12 12 12 12 12 12 12 12 12 12 12 12 12 12 12 12 12 12 12 12 12 12 12 12 12 12 12 12 12 12 12 12 12 12 12 12 12 12 12 12 12 12 12 12 12 12 12 12 12 12 12 12 12 12 12 12 12 12 12 12 12 12 12 12 12 12 12 12 12 12 12 12 12 12 12 12 12 12 12 12 12 12 12 12 12 12 12 12 12 12 12 12 12 12 12 12 12 12 12 12 12 12 12 12 12 12 12 12 12 12 12 12 12 12 12 12 12 12 12 12 12 12 12 12 12 12 12 12 12 12 12 12 12 12 12 12 12 12 12 12 12 12 12 12 12 12 12 12 12 12 12 12 12 12 12 12 12 12 12 12 12 12 12 12 12 12 12 12 12 12 12 12 12 12 12 12 12 12 12 12 12 12 12 12 12 12 12 12 12 12 12 12 12 12 12 12 12 12 12 12 12 12 12 12 12 12 12 12 12 12 12 12 12 12 12 12 12 12 12 12 12 12 12 12 12 12 12 12 12 12 12 12 12 12 12 12 12 12 12 12 12 12 12 12 12 12 12 12 12 12 12 12 12 12 12 12 12 12 12 12 12 12 12 12 12 12 12 12 12 12 12 12 12 12 12 12 12 12 12 12 12 12 12 12 12 12 12 12 12 12 12 12 12 12 12 12 12 12 12 12 12 12 12 12 12 12 12 12 12 12 12 12 12 12 12 12 12 12 12 12 12 12 12 12 12 12 12 12 12 12 12 12 12 12 12 12 12 12 12 12 12 12 12 12 12 12 12 12 12 12 12 12 12 12 12 12 12 12 12 12 12 12 12 12 12 12 12 12 12 12 12 12 12 12 12 12 12 12 12 12 12 12 12 12 12 12 12 12 12 12 12 12 12 12 12 12 12 12 12 12 12 12 12 12 12 12 12 12 12 12 12 12 12 12 12 12 12 12 12 12 12 12 12 12 12 12 12 12 12 12 12 12 12 12 12 12 12 12 12 12 12 12 12 12 12 12 12 12 12 12 12 12 12 12 12 12 12 12 12 12 12 12 12 12 12 12 12 12 12 12 12 12 12 12 12 12 12 12 12 12 12 12 12 12 12 12 12 12 12 12 12 12 12 12 12 12 12 12 12 12 12 12 12 12 12 12 12 12 12 12 12 12 12 12 12 12 12 12 12 12 12 12 12 12 12 12 12 12 12 12 12 12 12 12 12 12 12 12 12 12 12 12 12 12 12 12 12 12 12 12 12 12 12 12 12 12 12 12 12 12 12 12 12 12 12 12 12 12 12 12 12 12 12 12 12 12 12 12 12 12 12 12 12 12 12 12 12 12 12 12 12 12 12 12 12 12 12 12 12 12 12 12 12 12 12 12 12 12 12 12 12 12 12 12 12 12 12 12 12 12 12 12 12 12 12 12 12 12 12 12 12 12 12 12 12 12 12 12 12 12 12 12 12 12 12 12 12 12 12 12 12 12 12 12 12 12 12 12 12 12 12 12 12 12 12 12 12 12 12 12 12 12 12 12 12 12 12 12 12 12 12 12 12 12 12 12 12 12 12 12 12 12 12 12 12 12 12 12 12 12 12 12 12 12 12 12 12 12 12 12 12 12 12 12 12 12 12 12 12 12 12 12 12 12 12 12 12 12 12 12 12 12 12 12 12 12 12 12 12 12 12 12 12 12 12 12 12 12 12 12 12 12 12 12 12 12 12 12 12 12 12 12 12 12 12 12 12 12 12 12 12 12 12 12 12 12 12 12 12 12 12 12 12 12 12 12 12 12 12 12 12 12 12 12 12 12 12 12 12 12 12 12 12 12 12 12 12 12 12 12 12 12 12 12 12 12 12 12 12 12 12 12 12 12 12 12 12 12 12 12 12 12 12 12 12 12 12 12 12 12 12 12 12 12 12 12 12 12 12 12 12 12 12 12 12 12 12 12 12 12 12 12 12 12 12 12 12 12 12 12 12 12 12 12 12 12 12 12 12 12 12 12 12 12 12 12 12 12 12 12 12 12 12 12 12 12 12 12 12 12 12 12 12 12 12 12 12 12 12 12 12 12 12 12 12 12 12 12 12 12 12 12 12 12 12 12 12 12 12 12 12 12 12 12 12 12 12 12 12 12 12 12 12 12 12 12 12 12 12 12 12 12 12 12 12 12 12 12 12 12 12 12 12 12 12 12 12 12 12 12 12 12 12 12 12 12 12 12 12 12 12 12 12 12 12 12 12 12 12 12 12 12 12 12 12 12 12 12 12 12 12 12 12 12 12 12 12 12 12 12 12 12 12 12 12 12 12 12 12 12 12 12 12 12 12 12 12 12 12 12 12 12 12 12 12 12 12 12 12 12 12 12 12 12 12 12 12 12 12 12 12 12 12 12 12 12 12 12 12 12 12 12 12 12 12 12 12 12 12 12 12 12 12 12 12 12 12 12 12 12 12 12 12 12 12 12 12 12 12 12 12 12 12 12 12 12 12 12 12 12 12 12 12 12 12 12 12 12 12 12 12 12 12 12 12 12 12 12 12 12 12 12 12 12 12 12 12 12 12 12 12 12 12 12 12 12 12 12 12 12 12 12 12 12 12 12 12 12 12 12 12 12 12 12 12 12 12 12 12 12 12 12 12 12 12 12 12 12 12 12 12 12 12 12 12 12 12 12 12 12 12 12 12 12 12 12 12 12 12 12 12 12 12 12 12 12 12 12 12 12 12 12 12 12 12 12 12 12 12 12 12 12 12 12 12 12 12 12 12 12 12 12 12 12 12 12 12 12 12 12 12 12 12 12 12 12 12 12 12 12 12 12 12 12 12 12 12 12 12 12 12 12 12 12 12 12 12 12 12 12 12 12 12 12 12 12 12 12 12 12 12 12 12 12 12 12 12 12 12 12 12 12 12 12 12 12 12 12 12 12 12 12 12 12 12 12 12 12 12 12 12 12 12 12 12 12 12 12 12 12 12 12 12 12 12 12 12 12 12 12 12 12 12 12 12 12 12 12 12 12 12 12 12 12 12 12 12 12 12 12 12 12 12 12 12 12 12 12 12 12 12 12 12 12 12 12 12 12 12 12 12 12 12 12 12 12 12 12 12 12 12 12 12 12 12 12 12 12 12 12 12 12 12 12 12 12 12 12 12 12 12 12 12 12 12 12 12 12 12 12 12 12 12 12 12 12 12 12 12 12 12 12 12 12 12 12 12 12 12 12 12 12 12 12 12 12 12 12 12 12 12 12 12 12 12 12 12 12 12 12 12 12 12 12 12 12 12 12 12 12 12 12 12 12 12 12 12 12 12 12 12 12 12 12 12 12 12 12 12 12 12 12 12 12 12 12 12 12 12 12 12 12 12 12 12 12 12 12 12 12 12 12 12 12 12 12 12 12 12 12 12 12 12 12 12 12 12 12 12 12 12 12 12 12 12 12 12 12 12 12 12 12 12 12 12 12 12 12 12 12 12 12 12 12 12 12 12 12 12 12 12 12 12 12 12 12 12 12 12 12 12 12 12 12 12 12 12 12 12 12 12 12 12 12 12 12 12 12 12 12 12 12 12 12 12 12 12 12 12 12 12 12 12 12 12 12 12 12 12 12 12 12 12 12 12 12 12 12 12 12 12 12 12 12 12 12 12 12 12 12 12 12 12 12 12 12 12 12 12 12 12 12 12 12 12 12 12 12 12 12 12 12 12 12 12 12 12 12 12 12 12 12 12 12 12 12 12 12 12 12 12 12 12 12 12 12 12 12 12 12 12 12 12 12 12 12 12 12 12 12 12 12 12 12 12 12 12 12 12 12 12 12 12 12 12 12 12 12 12 12 12 12 12 12 12 12 12 12 12 12 12 12 12 12 12 12 12 12 12 12 12 12 12 12 12 12 12 12 12 12 12 12 12 12 12 12 12 12 12 12 12 12 12 12 12 12 12 12 12 12 12 12 12 12 12 12 12 12 12 12 12 12 12 12 12 12 12 12 12 12 12 12 12 12 12 12 12 12 12 12 12 12 12 12 12 12 12 12 12 12 12 12 12 12 12 12 12 12 12 12 12 12 12 12 12 12 12 12 12 12 12 12 12 12 12 12 12 12 12 12 12 12 12 12 12 12 12 12 12 12 12 12 12 12 12 12 12 12 12 12 12 12 12 12 12 12 12 12 12 12 12 12 12 12 12 12 12 12 12 12 12 12 12 12 12 12 12 12 12 12 12 12 12 12 12 12 12 12 12 12 12 12 12 12 12 12 12 12 12 12 12 12 12 12 12 12 12 12 12 12 12 12 12 12 12 12 12 12 12 12 12 12 12 12 12 12 12 12 12 12 12 12 12 12 12 12 12 12 12 12 12 12 12 12 12 12 12 12 12 12 12 12 12 12 12 12 12 12 12 12 12 12 12 12 12 12 12 12 12 12 12 12 12 12 12 12 12 12 12 12 12 12 12 12 12 12 12 12 12 12 12 12 12 12 12 12 12 12 12 12 12 12 12 12 12 12 12 12 12 12 12 12 12 12 12 12 12 12 12 12 12 12 12 12 12 12 12 12 12 12 12 12 12 12 12 12 12 12 12 12 12 12 12 12 12 12 12 12 12 12 12 12 12 12 12 12 12 12 12 12 12 12 12 12 12 12 12 12 12 12 12 12 12 12 12 12 12 12 12 12 12 12 12 12 12 12 12 12 12 12 12 12 12 12 12 12 12 12 12 12 12 12 12 12 12 12 12 12 12 12 12 12 12 12 12 12 12 12 12 12 12 12 12 12 12 12 12 12 12 12 12 12 12 12 12 12 12 12 12 12 12 12 12 12 12 12 12 12 12 12 12 12 12 12 12 12 12 12 12 12 12 12 12 12 12 12 12 12 12 12 12 12 12 12 12 12 12 12 12 12 12 12 12 12 12 12 12 12 12 12 12 12 12 12 12 12 12 12 12 12 12 12 12 12 12 12 12 12 12 12 12 12 12 12 12 12 12 12 12 12 12 12 12 12 12 12 12 12 12 12 12 12 12 12 12 12 12 12 12 12 12 12 12 12 12 12 12 12 12 12 12 12 12 12 12 12 12 12 12 12 12 12 12 12 12 12 12 12 12 12 12 12 12 12 12 12 12 12 12 12 12 12 12 12 12 12 12 12 12 12 12 12 12 12 12 12 12 12 12 12 12 12 12 12 12 12 12 12 12 12 12 12 12 12 12 12 12 12 12 12 12 12 12 12 12 12 12 12 12 12 12 12 12 12 12 12 12 12 12 12 12 12 12 12 12 12 12 12 12 12 12 12 12 12 12 12 12 12 12 12 12 12 12 12 12 12 12 12 12 12 12 12 12 12 12 12 12 12 12 12 12 12 12 12 12 12 12 12 12 12 12 12 12 12 12 12 12 12 12 12 12 12 12 12 12 12 12 12 12 12 12 12 12 12 12 12 12 12 12 12 12 12 12 12 12 12 12 12 12 12 12 12 12 12 12 12 12 12 12 12 12 12 12 12 12 12 12 12 12 12 12 12 12 12 12 12 12 12 12 12 12 12 12 12 12 12 12 12 12 12 12 12 12 12 12 12 12 12 12 12 12 12 12 12 12 12 12 12 12 12 12 12 12 12 12 12 12 12 12 12 12 12 12 12 12 12 12 12 12 12 12 12 12 12 12 12 12 12 12 12 12 12 12 12 12 12 12 12 12 12 12 12 12 12 12 12 12 12 12 12 12 12 12 12 12 12 12 12 12 12 12 12 12 12 12 12 12 12 12 12 12 12 12 12 12 12 12 12 12 12 12 12 12 12 12 12 12 12 12 12 12 12 12 12 12 12 12 12 12 12 12 12 12 12 12 12 12 12 12 12 12 12 12 12 12 12 12 12 12 12 12 12 12 12 12 12 12 12 12 12 12 12 12 12 12 12 12 12 12 12 12 12 12 12 12 12 12 12 12 12 12 12 12 12 12 12 12 12 12 12 12 12 12 12 12 12 12 12 12 12 12 12 12 12 12 12 12 12 12 12 12 12 12 12 12 12 12 12 12 12 12 12 12 12 12 12 12 12 12 12 12 12 12 12 12 12 12 12 12 12 12 12 12 12 12 12 12 12 12 12 12 12 12 12 12 12 12 12 12 12 12 12 12 12 12 12 12 12 12 12 12 12 12 12 12 12 12 12 12 12 12 12 12 12 12 12 12 12 12 12 12 12 12 12 12 12 12 12 12 12 12 12 12 12 12 12 12 12 12 12 12 12 12 12 12 12 12 12 12 12 12 12 12 12 12 12 12 12 12 12 12 12 12 12 12 12 12 12 12 12 12 12 12 12 12 12 12 12 12 12 12 12 12 12 12 12 12 12 12 12 12 12 12 12 12 12 12 12 12 12 12 12 12 12 12 12 12 12 12 12 12 12 12 12 12 12 12 12 12 12 12 12 12 12 12 12 12 12 12 12 12 12 12 12 12 12 12 12 12 12 12 12 12 12 12 12 12 12 12 12 12 12 12 12 12 12 12 12 12 12 12 12 12 12 12 12 12 12 12 12 12 12 12 12 12 12 12 12 12 12 12 12 12 12 12 12 12 12 12 12 12 12 12 12 12 12 12 12 12 12 12 12 12 12 12 12 12 12 12 12 12 12 12 12 12 12 12 12 12 12 12 12 12 12 12 12 12 12 12 12 12 12 12 12 12 12 12 12 12 12 12 12 12 12 12 12 12 12 12 12 12 12 12 12 12 12 12 12 12 12 12 12 12 12 12 12 12 12 12 12 12 12 12 12 12 12 12 12 12 12 12 12 12 12 12 12 12 12 12 12 12 12 12 12 12 12 12 12 12 12 12 12 12 12 12 12 12 12 12 12 12 12 12 12 12 12 12 12 12 12 12 12 12 12 12 12 12 12 12 12 12 12 12 12 12 12 12 12 12 12 12 12 12 12 12 12 12 12 12 12 12 12 12 12 12 12 12 12 12 12 12 12 12 12 12 12 12 12 12 12 12 12 12 12 12 12 12 12 12 12 12 12 12 12 12 12 12 12 12 12 12 12 12 12 12 12 12 12 12 12 12 12 12 12 12 12 12 12 12 12 12 12 12 12 12 12 12 12 12 12 12 12 12 12 12 12 12 12 12 12 12 12 12 12 12 12 12 12 12 12 12 12 12 12 12 12 12 12 12 12 12 12 12 12 12 12 12 12 12 12 12 12 12 12 12 12 12 12 12 12 12 12 12 12 12 12 12 12 12 12 12 12 12 12 12 12 12 12 12 12 12 12 12 12 12 12 12 12 12 12 12 12 12 12 12 12 12 12 12 12 12 12 12 12 12 12 12 12 12 12 12 12 12 12 12 12 12 12 12 12 12 12 12 12 12 12 12 12 12 12 12 12 12 12 12 12 12 12 12 12 12 12 12 12 12 12 12 12 12 12 12 12 12 12 12 12 12 12 12 12 12 12 12 12 12 12 12 12 12 12 12 12 12 12 12 12 12 12 12 12 12 12 12 12 12 12 12 12 12 12 12 12 12 12 12 12 12 12 12 12 12 12 12 12 12 12 12 12 12 12 12 12 12 12 12 12 12 12 12 12 12 12 12 12 12 12 12 12 12 12 12 12 12 12 12 12 12 12 12 12 12 12 12 12 12 12 12 12 12 12 12 12 12 12 12 12 12 12 12 12 12 12 12 12 12 12 12 12 12 12 12 12 12 12 12 12 12 12 12 12 12 12 12 12 12 12 12 12 12 12 12 12 12 12 12 12 12 12 12 12 12 12 12 12 12 12 12 12 12 12 12 12 12 12 12 12 12 12 12 12 12 12 12 12 12 12 12 12 12 12 12 12 12 12 12 12 12 12 12 12 12 12 12 12 12 12 12 12 12 12 12 12 12 12 12 12 12 12 12 12 12 12 12 12 12 12 12 12 12 12 12 12 12 12 12 12 12 12 12 12 12 12 12 12 12 12 12 12 12 12 12 12 12 12 12 12 12 12 12 12 12 12 12 12 12 12 12 12 12 12 12 12 12 12 12 12 12 12 12 12 12 12 12 12 12 12 12 12 12 12 12 12 12 12 12 12 12 12 12 12 12 12 12 12 12 12 12 12 12 12 12 12 12 12 12 12 12 12 12 12 12 12 12 12 12 12 12 12 12 12 12 12 12 12 12 12 12 12 12 12 12 12 12 12 12 12 12 12 12 12 12 12 12 12 12 12 12 12 12 12 12 12 12 12 12 12 12 12 12 12 12 12 12 12 12 12 12 12 12 12 12 12 12 12 12 12 12 12 12 12 12 12 12 12 12 12 12 12 12 12 12 12 12 12 12 12 12 12 12 12 12 12 12 12 12 12 12 12 12 12 12 12 12 12 12 12 12 12 12 12 12 12 12 12 12 12 12 12 12 12 12 12 12 12 12 12 12 12 12 12 12 12 12 12 12 12 12 12 12 12 12 12 12 12 12 12 12 12 12 12 12 12 12 12 12 12 12 12 12 12 12 12 12 12 12 12 12 12 12 12 12 12 12 12 12 12 12 12 12 12 12 12 12 12 12 12 12 12 12 12 12 12 12 12 12 12 12 12 12 12 12 12 12 12 12 12 12 12 12 12 12 12 12 12 12 12 12 12 12 12 12 12 12 12 12 12 12 12 12 12 12 12 12 12 12 12 12 12 12 12 12 12 12 12 12 12 12 12 12 12 12 12 12 12 12 12 12 12 12 12 12 12 12 12 12 12 12 12 12 12 12 12 12 12 12 12 12 12 12 12 12 12 12 12 12 12 12 12 12 12 12 12 12 12 12 12 12 12 12 12 12 12 12 12 12 12 12 12 12 12 12 12 12 12 12 12 12 12 12 12 12 12 12 12 12 12 12 12 12 12 12 12 12 12 12 12 12 12 12 12 12 12 12 12 12 12 12 12 12 12 12 12 12 12 12 12 12 12 12 12 12 12 12 12 12 12 12 12 12 12 12 12 12 12 12 12 12 12 12 12 12 12 12 12 12 12 12 12 12 12 12 12 12 12 12 12 12 12 12 12 12 12 12 12 12 12 12 12 12 12 12 12 12 12 12 12 12 12 12 12 12 12 12 12 12 12 12 12 12 12 12 12 12 12 12 12 12 12 12 12 12 12 12 12 12 12 12 12 12 12 12 12 12 12 12 12 12 12 12 12 12 12 12 12 12 12 12 12 12 12 12 12 12 12 12 12 12 12 12 12 12 12 12 12 12 12 12 12 12 12 12 12 12 12 12 12 12 12 12 12 12 12 12 12 12 12 12 12 12 12 12 12 12 12 12 12 12 12 12 12 12 12 12 12 12 12 12 12 12 12 12 12 12 12 12 12 12 12 12 12 12 12 12 12 12 12 12 12 12 12 12 12 12 12 12 12 12 12 12 12 12 12 12 12 12 12 12 12 12 12 12 12 12 12 12 12 12 12 12 12 12 12 12 12 12 12 12 12 12 12 12 12 12 12 12 12 12 12 12 12 12 12 12 12 12 12 12 12 12 12 12 12 12 12 12 12 12 12 12 12 12 12 12 12 12 12 12 12 12 12 12 12 12 12 12 12 12 12 12 12 12 12 12 12 12 12 12 12 12 12 12 12 12 12 12 12 12 12 12 12 12 12 12 12 12 12 12 12 12 12 12 12 12 12 12 12 12 12 12 12 12 12 12 12 12 12 12 12 12 12 12 12 12 12 12 12 12 12 12 12 12 12 12 12 12 12 12 12 12 12 12 12 12 12 12 12 12 12 12 12 12 12 12 

POINT_DATA 18785
SCALARS weights float 1
LOOKUP_TABLE default
0.0305176 0.0610353 0.0610353 0.0610353 0.0610353 0.0610353 0.0610353 0.0610353 0.0610352 0.0610352 0.0610353 0.0610353 0.0610353 0.0610353 0.0610352 0.0610352 0.0610353 0.0610352 0.0610352 0.0610353 0.0610353 0.0610353 0.0610353 0.0610352 0.0610353 0.0610353 0.0610352 0.0610353 0.0610353 0.0610352 0.0610353 0.0610353 0.0610353 0.0610352 0.0610352 0.0610352 0.0610353 0.0610353 0.0610352 0.0610353 0.0610353 0.0610353 0.0610352 0.0610352 0.0610352 0.0610353 0.0610353 0.0610352 0.0610353 0.0610353 0.0610352 0.0610353 0.0610352 0.0610352 0.0610353 0.0610354 0.0610353 0.0610352 0.0610353 0.0610353 0.0610353 0.0610352 0.0610352 0.0610353 0.0305177 0.0610353 0.122071 0.122071 0.122071 0.122071 0.122071 0.122071 0.122071 0.12207 0.12207 0.122071 0.122071 0.122071 0.122071 0.12207 0.12207 0.122071 0.12207 0.12207 0.122071 0.122071 0.122071 0.122071 0.12207 0.122071 0.122071 0.12207 0.122071 0.122071 0.12207 0.122071 0.122071 0.122071 0.12207 0.12207 0.12207 0.122071 0.122071 0.12207 0.122071 0.122071 0.122071 0.12207 0.12207 0.12207 0.122071 0.122071 0.12207 0.122071 0.122071 0.12207 0.122071 0.12207 0.12207 0.122071 0.122071 0.122071 0.12207 0.122071 0.122071 0.122071 0.12207 0.12207 0.122071 0.0610354 0.0610353 0.122071 0.122071 0.122071 0.122071 0.122071 0.122071 0.122071 0.12207 0.12207 0.122071 0.12207 0.122071 0.122071 0.12207 0.12207 0.12207 0.12207 0.12207 0.12207 0.122071 0.122071 0.122071 0.12207 0.122071 0.122071 0.12207 0.122071 0.122071 0.12207 0.122071 0.122071 0.122071 0.12207 0.12207 0.12207 0.122071 0.122071 0.12207 0.122071 0.122071 0.122071 0.12207 0.12207 0.12207 0.122071 0.122071 0.12207 0.122071 0.122071 0.12207 0.122071 0.12207 0.12207 0.122071 0.122071 0.122071 0.12207 0.122071 0.122071 0.122071 0.12207 0.12207 0.122071 0.0610353 0.0610353 0.122071 0.12207 0.122071 0.122071 0.122071 0.122071 0.122071 0.12207 0.12207 0.122071 0.12207 0.122071 0.122071 0.12207 0.12207 0.12207 0.12207 0.12207 0.12207 0.122071 0.122071 0.122071 0.12207 0.122071 0.122071 0.12207 0.122071 0.122071 0.12207 0.122071 0.122071 0.122071 0.12207 0.12207 0.12207 0.122071 0.122071 0.12207 0.122071 0.122071 0.122071 0.12207 0.12207 0.12207 0.122071 0.122071 0.12207 0.122071 0.122071 0.12207 0.122071 0.12207 0.12207 0.122071 0.122071 0.122071 0.12207 0.122071 0.122071 0.122071 0.12207 0.12207 0.122071 0.0610353 0.0610353 0.122071 0.122071 0.122071 0.122071 0.122071 0.122071 0.122071 0.12207 0.12207 0.122071 0.12207 0.122071 0.122071 0.12207 0.12207 0.12207 0.12207 0.12207 0.12207 0.122071 0.122071 0.122071 0.12207 0.122071 0.122071 0.12207 0.122071 0.122071 0.12207 0.122071 0.122071 0.122071 0.12207 0.12207 0.12207 0.122071 0.122071 0.12207 0.122071 0.122071 0.122071 0.12207 0.12207 0.12207 0.122071 0.122071 0.12207 0.122071 0.122071 0.12207 0.122071 0.12207 0.12207 0.122071 0.122071 0.122071 0.12207 0.122071 0.122071 0.122071 0.12207 0.12207 0.122071 0.0610354 0.0610353 0.122071 0.12207 0.12207 0.12207 0.12207 0.122071 0.122071 0.12207 0.12207 0.122071 0.12207 0.122071 0.122071 0.12207 0.12207 0.12207 0.12207 0.12207 0.12207 0.122071 0.122071 0.122071 0.12207 0.122071 0.122071 0.12207 0.122071 0.122071 0.12207 0.122071 0.122071 0.122071 0.12207 0.12207 0.12207 0.122071 0.122071 0.12207 0.122071 0.122071 0.122071 0.12207 0.12207 0.12207 0.122071 0.122071 0.12207 0.122071 0.122071 0.12207 0.122071 0.12207 0.12207 0.122071 0.122071 0.122071 0.12207 0.122071 0.122071 0.122071 0.12207 0.12207 0.122071 0.0610353 0.0610353 0.122071 0.122071 0.122071 0.122071 0.122071 0.122071 0.122071 0.12207 0.12207 0.122071 0.122071 0.122071 0.122071 0.12207 0.12207 0.122071 0.12207 0.12207 0.122071 0.122071 0.122071 0.122071 0.12207 0.122071 0.122071 0.12207 0.122071 0.122071 0.12207 0.122071 0.122071 0.122071 0.12207 0.12207 0.12207 0.122071 0.122071 0.12207 0.122071 0.122071 0.122071 0.12207 0.12207 0.12207 0.122071 0.122071 0.12207 0.122071 0.122071 0.12207 0.122071 0.12207 0.12207 0.122071 0.122071 0.122071 0.12207 0.122071 0.122071 0.122071 0.12207 0.12207 0.122071 0.0610354 0.0610353 0.122071 0.12207 0.122071 0.122071 0.122071 0.122071 0.122071 0.12207 0.12207 0.122071 0.122071 0.122071 0.122071 0.12207 0.12207 0.122071 0.12207 0.12207 0.122071 0.122071 0.122071 0.122071 0.12207 0.122071 0.122071 0.12207 0.122071 0.122071 0.12207 0.12207 0.12207 0.122071 0.12207 0.12207 0.12207 0.122071 0.122071 0.12207 0.122071 0.122071 0.122071 0.12207 0.12207 0.12207 0.122071 0.122071 0.12207 0.122071 0.122071 0.12207 0.122071 0.12207 0.12207 0.122071 0.122071 0.122071 0.12207 0.122071 0.122071 0.122071 0.12207 0.12207 0.122071 0.0610354 0.0610352 0.12207 0.12207 0.12207 0.12207 0.12207 0.122071 0.12207 0.12207 0.12207 0.12207 0.12207 0.122071 0.122071 0.12207 0.12207 0.12207 0.12207 0.12207 0.12207 0.12207 0.12207 0.12207 0.12207 0.122071 0.122071 0.12207 0.12207 0.12207 0.12207 0.12207 0.12207 0.12207 0.12207 0.12207 0.12207 0.12207 0.12207 0.12207 0.12207 0.12207 0.122071 0.12207 0.12207 0.12207 0.12207 0.12207 0.12207 0.122071 0.122071 0.12207 0.122071 0.12207 0.12207 0.122071 0.122071 0.122071 0.12207 0.122071 0.122071 0.122071 0.12207 0.12207 0.122071 0.0610353 0.0610352 0.12207 0.12207 0.12207 0.12207 0.12207 0.12207 0.12207 0.12207 0.12207 0.12207 0.12207 0.122071 0.122071 0.12207 0.12207 0.12207 0.12207 0.12207 0.12207 0.12207 0.12207 0.12207 0.12207 0.122071 0.122071 0.12207 0.12207 0.12207 0.12207 0.12207 0.12207 0.12207 0.12207 0.12207 0.12207 0.12207 0.12207 0.12207 0.12207 0.12207 0.122071 0.12207 0.12207 0.12207 0.12207 0.12207 0.12207 0.122071 0.122071 0.12207 0.122071 0.12207 0.12207 0.122071 0.122071 0.122071 0.12207 0.122071 0.122071 0.122071 0.12207 0.12207 0.122071 0.0610353 0.0610352 0.12207 0.12207 0.12207 0.12207 0.12207 0.122071 0.122071 0.12207 0.12207 0.122071 0.12207 0.122071 0.122071 0.12207 0.12207 0.12207 0.12207 0.12207 0.12207 0.122071 0.122071 0.122071 0.12207 0.122071 0.122071 0.12207 0.12207 0.12207 0.12207 0.12207 0.12207 0.122071 0.12207 0.12207 0.12207 0.12207 0.12207 0.12207 0.12207 0.12207 0.122071 0.12207 0.12207 0.12207 0.12207 0.122071 0.12207 0.122071 0.122071 0.12207 0.122071 0.12207 0.12207 0.122071 0.122071 0.122071 0.12207 0.122071 0.122071 0.122071 0.12207 0.12207 0.122071 0.0610353 0.0610352 0.12207 0.12207 0.12207 0.12207 0.12207 0.122071 0.122071 0.12207 0.12207 0.122071 0.12207 0.122071 0.122071 0.12207 0.12207 0.122071 0.12207 0.12207 0.12207 0.122071 0.122071 0.122071 0.12207 0.122071 0.122071 0.12207 0.12207 0.122071 0.12207 0.12207 0.12207 0.122071 0.12207 0.12207 0.12207 0.12207 0.122071 0.12207 0.12207 0.12207 0.122071 0.12207 0.12207 0.12207 0.122071 0.122071 0.12207 0.122071 0.122071 0.12207 0.122071 0.12207 0.12207 0.122071 0.122071 0.122071 0.12207 0.122071 0.122071 0.122071 0.12207 0.12207 0.122071 0.0610353 0.0610353 0.122071 0.122071 0.122071 0.122071 0.122071 0.122071 0.122071 0.122071 0.122071 0.122071 0.122071 0.122071 0.122071 0.122071 0.122071 0.122071 0.12207 0.12207 0.122071 0.122071 0.122071 0.122071 0.122071 0.122071 0.122071 0.12207 0.122071 0.122071 0.12207 0.122071 0.122071 0.122071 0.122071 0.122071 0.12207 0.122071 0.122071 0.12207 0.122071 0.122071 0.122071 0.122071 0.122071 0.12207 0.122071 0.122071 0.122071 0.122071 0.122071 0.122071 0.122071 0.12207 0.12207 0.122071 0.122071 0.122071 0.12207 0.122071 0.122071 0.122071 0.122071 0.12207 0.122071 0.0610354 0.0610353 0.122071 0.122071 0.122071 0.122071 0.122071 0.122071 0.122071 0.12207 0.122071 0.122071 0.122071 0.122071 0.122071 0.122071 0.122071 0.122071 0.12207 0.12207 0.122071 0.122071 0.122071 0.122071 0.122071 0.122071 0.122071 0.12207 0.122071 0.122071 0.12207 0.122071 0.122071 0.122071 0.12207 0.12207 0.12207 0.122071 0.122071 0.12207 0.122071 0.122071 0.122071 0.12207 0.12207 0.12207 0.122071 0.122071 0.12207 0.122071 0.122071 0.122071 0.122071 0.12207 0.12207 0.122071 0.122071 0.122071 0.12207 0.122071 0.122071 0.122071 0.12207 0.12207 0.122071 0.0610354 0.0610352 0.12207 0.12207 0.12207 0.12207 0.12207 0.12207 0.12207 0.12207 0.12207 0.12207 0.12207 0.12207 0.12207 0.12207 0.12207 0.12207 0.12207 0.12207 0.12207 0.12207 0.12207 0.12207 0.12207 0.12207 0.122071 0.12207 0.12207 0.12207 0.12207 0.12207 0.12207 0.12207 0.12207 0.12207 0.12207 0.12207 0.12207 0.12207 0.12207 0.12207 0.12207 0.12207 0.12207 0.12207 0.12207 0.12207 0.12207 0.122071 0.122071 0.12207 0.122071 0.12207 0.12207 0.12207 0.122071 0.122071 0.12207 0.122071 0.122071 0.122071 0.12207 0.12207 0.12207 0.0610353 0.0610352 0.12207 0.12207 0.12207 0.12207 0.12207 0.12207 0.12207 0.12207 0.12207 0.12207 0.12207 0.122071 0.122071 0.12207 0.12207 0.12207 0.12207 0.12207 0.12207 0.12207 0.122071 0.12207 0.12207 0.122071 0.122071 0.12207 0.12207 0.12207 0.12207 0.12207 0.12207 0.12207 0.12207 0.12207 0.12207 0.12207 0.12207 0.12207 0.12207 0.12207 0.122071 0.12207 0.12207 0.12207 0.12207 0.12207 0.12207 0.122071 0.122071 0.12207 0.122071 0.12207 0.12207 0.122071 0.122071 0.122071 0.12207 0.122071 0.122071 0.122071 0.12207 0.12207 0.122071 0.0610353 0.0305176 0.0610352 0.0610352 0.0610352 0.0610352 0.0610352 0.0610353 0.0610353 0.0610352 0.0610352 0.0610353 0.0610352 0.0610353 0.0610353 0.0610352 0.0610352 0.0610352 0.0610352 0.0610352 0.0610352 0.0610353 0.0610353 0.0610353 0.0610352 0.0610353 0.0610353 0.0610352 0.0610353 0.0610353 0.0610352 0.0610352 0.0610352 0.0610353 0.0610352 0.0610352 0.0610352 0.0610353 0.0610353 0.0610352 0.0610352 0.0610352 0.0610353 0.0610352 0.0610352 0.0610352 0.0610353 0.0610353 0.0610352 0.0610353 0.0610353 0.0610352 0.0610353 0.0610352 0.0610352 0.0610353 0.0610354 0.0610353 0.0610352 0.0610353 0.0610353 0.0610353 0.0610352 0.0610352 0.0610353 0.0305177 0.0610352 0.12207 0.12207 0.12207 0.12207 0.12207 0.12207 0.12207 0.12207 0.12207 0.12207 0.12207 0.12207 0.12207 0.12207 0.12207 0.12207 0.12207 0.12207 0.12207 0.12207 0.12207 0.12207 0.12207 0.12207 0.12207 0.12207 0.12207 0.12207 0.12207 0.12207 0.12207 0.12207 0.12207 0.12207 0.12207 0.12207 0.12207 0.12207 0.12207 0.12207 0.12207 0.12207 0.12207 0.12207 0.12207 0.12207 0.12207 0.122071 0.12207 0.12207 0.12207 0.12207 0.12207 0.12207 0.122071 0.12207 0.12207 0.122071 0.122071 0.122071 0.12207 0.12207 0.12207 0.0610353 0.12207 0.244141 0.244141 0.244141 0.244141 0.244141 0.244141 0.244141 0.244141 0.244141 0.244141 0.244141 0.244141 0.244141 0.244141 0.244141 0.244141 0.244141 0.244141 0.244141 0.244141 0.244141 0.244141 0.244141 0.244141 0.244141 0.244141 0.244141 0.244141 0.244141 0.244141 0.244141 0.244141 0.244141 0.244141 0.244141 0.244141 0.244141 0.244141 0.244141 0.244141 0.244141 0.244141 0.244141 0.244141 0.244141 0.244141 0.244141 0.244141 0.244141 0.244141 0.244141 0.244141 0.24414 0.244141 0.244141 0.244141 0.244141 0.244141 0.244141 0.244141 0.244141 0.24414 0.244141 0.122071 0.12207 0.244141 0.244141 0.244141 0.244141 0.244141 0.244141 0.244141 0.244141 0.244141 0.244141 0.244141 0.244141 0.244141 0.244141 0.244141 0.244141 0.244141 0.244141 0.244141 0.244141 0.244141 0.244141 0.244141 0.244141 0.244141 0.244141 0.244141 0.244141 0.244141 0.244141 0.244141 0.244141 0.244141 0.244141 0.244141 0.244141 0.244141 0.244141 0.244141 0.244141 0.244141 0.244141 0.244141 0.244141 0.244141 0.244141 0.244141 0.244141 0.244141 0.244141 0.244141 0.244141 0.24414 0.244141 0.244141 0.244141 0.244141 0.244141 0.244141 0.244141 0.244141 0.24414 0.244141 0.122071 0.12207 0.244141 0.244141 0.244141 0.244141 0.244141 0.244141 0.244141 0.244141 0.244141 0.244141 0.244141 0.244141 0.244141 0.244141 0.244141 0.244141 0.244141 0.244141 0.244141 0.244141 0.244141 0.244141 0.244141 0.244141 0.244141 0.244141 0.244141 0.244141 0.244141 0.244141 0.244141 0.244141 0.244141 0.244141 0.244141 0.244141 0.244141 0.244141 0.244141 0.244141 0.244141 0.244141 0.244141 0.244141 0.244141 0.244141 0.244141 0.244141 0.244141 0.244141 0.244141 0.244141 0.24414 0.244141 0.244141 0.244141 0.244141 0.244141 0.244141 0.244141 0.244141 0.24414 0.244141 0.122071 0.12207 0.244141 0.244141 0.244141 0.244141 0.244141 0.244141 0.244141 0.244141 0.244141 0.244141 0.244141 0.244141 0.244141 0.244141 0.244141 0.244141 0.244141 0.244141 0.244141 0.244141 0.244141 0.244141 0.244141 0.244141 0.244141 0.244141 0.244141 0.244141 0.244141 0.244141 0.244141 0.244141 0.244141 0.244141 0.244141 0.244141 0.244141 0.244141 0.244141 0.244141 0.244141 0.244141 0.244141 0.244141 0.244141 0.244141 0.244141 0.244141 0.244141 0.244141 0.244141 0.244141 0.24414 0.244141 0.244141 0.244141 0.244141 0.244141 0.244141 0.244141 0.244141 0.24414 0.244141 0.122071 0.12207 0.244141 0.244141 0.244141 0.244141 0.244141 0.244141 0.244141 0.244141 0.244141 0.244141 0.244141 0.244141 0.244141 0.244141 0.244141 0.244141 0.244141 0.244141 0.244141 0.244141 0.244141 0.244141 0.244141 0.244141 0.244141 0.244141 0.244141 0.244141 0.244141 0.244141 0.244141 0.244141 0.244141 0.244141 0.244141 0.244141 0.244141 0.244141 0.244141 0.244141 0.244141 0.244141 0.244141 0.244141 0.244141 0.244141 0.244141 0.244141 0.244141 0.244141 0.244141 0.244141 0.24414 0.244141 0.244141 0.244141 0.244141 0.244141 0.244141 0.244141 0.244141 0.24414 0.244141 0.122071 0.12207 0.244141 0.244141 0.244141 0.244141 0.244141 0.244141 0.244141 0.244141 0.244141 0.244141 0.244141 0.244141 0.244141 0.244141 0.244141 0.244141 0.244141 0.244141 0.244141 0.244141 0.244141 0.244141 0.244141 0.244141 0.244141 0.244141 0.244141 0.244141 0.244141 0.244141 0.244141 0.244141 0.244141 0.244141 0.244141 0.244141 0.244141 0.244141 0.244141 0.244141 0.244141 0.244141 0.244141 0.244141 0.244141 0.244141 0.244141 0.244141 0.244141 0.244141 0.244141 0.244141 0.24414 0.244141 0.244141 0.244141 0.244141 0.244141 0.244141 0.244141 0.244141 0.24414 0.244141 0.122071 0.12207 0.244141 0.244141 0.244141 0.244141 0.244141 0.244141 0.244141 0.244141 0.244141 0.244141 0.244141 0.244141 0.244141 0.244141 0.244141 0.244141 0.244141 0.244141 0.244141 0.244141 0.244141 0.244141 0.244141 0.244141 0.244141 0.244141 0.244141 0.244141 0.244141 0.244141 0.244141 0.244141 0.244141 0.244141 0.244141 0.244141 0.244141 0.244141 0.244141 0.244141 0.244141 0.244141 0.244141 0.244141 0.244141 0.244141 0.244141 0.244141 0.244141 0.244141 0.244141 0.244141 0.24414 0.244141 0.244141 0.244141 0.244141 0.244141 0.244141 0.244141 0.244141 0.24414 0.244141 0.122071 0.12207 0.244141 0.244141 0.244141 0.244141 0.244141 0.244141 0.244141 0.244141 0.244141 0.244141 0.244141 0.244141 0.244141 0.244141 0.244141 0.244141 0.244141 0.244141 0.244141 0.244141 0.244141 0.244141 0.244141 0.244141 0.244141 0.244141 0.244141 0.244141 0.244141 0.244141 0.244141 0.244141 0.244141 0.244141 0.244141 0.244141 0.244141 0.244141 0.244141 0.244141 0.244141 0.244141 0.244141 0.244141 0.244141 0.244141 0.244141 0.244141 0.244141 0.244141 0.244141 0.244141 0.24414 0.244141 0.244141 0.244141 0.244141 0.244141 0.244141 0.244141 0.244141 0.24414 0.244141 0.122071 0.12207 0.244141 0.244141 0.244141 0.244141 0.244141 0.244141 0.244141 0.244141 0.244141 0.244141 0.244141 0.244141 0.244141 0.244141 0.244141 0.244141 0.244141 0.244141 0.244141 0.244141 0.244141 0.244141 0.244141 0.244141 0.244141 0.244141 0.244141 0.244141 0.244141 0.244141 0.244141 0.244141 0.244141 0.244141 0.244141 0.244141 0.244141 0.244141 0.244141 0.244141 0.244141 0.244141 0.244141 0.244141 0.244141 0.244141 0.244141 0.244141 0.244141 0.244141 0.244141 0.244141 0.24414 0.244141 0.244141 0.244141 0.244141 0.244141 0.244141 0.244141 0.244141 0.24414 0.244141 0.122071 0.12207 0.244141 0.244141 0.244141 0.244141 0.244141 0.244141 0.244141 0.244141 0.244141 0.244141 0.244141 0.244141 0.244141 0.244141 0.244141 0.244141 0.244141 0.244141 0.244141 0.244141 0.244141 0.244141 0.244141 0.244141 0.244141 0.244141 0.244141 0.244141 0.244141 0.244141 0.244141 0.244141 0.244141 0.244141 0.244141 0.244141 0.244141 0.244141 0.244141 0.244141 0.244141 0.244141 0.244141 0.244141 0.244141 0.244141 0.244141 0.244141 0.244141 0.244141 0.244141 0.244141 0.24414 0.244141 0.244141 0.244141 0.244141 0.244141 0.244141 0.244141 0.244141 0.24414 0.244141 0.122071 0.12207 0.244141 0.244141 0.244141 0.244141 0.244141 0.244141 0.244141 0.244141 0.244141 0.244141 0.244141 0.244141 0.244141 0.244141 0.244141 0.244141 0.244141 0.244141 0.244141 0.244141 0.244141 0.244141 0.244141 0.244141 0.244141 0.244141 0.244141 0.244141 0.244141 0.244141 0.244141 0.244141 0.244141 0.244141 0.244141 0.244141 0.244141 0.244141 0.244141 0.244141 0.244141 0.244141 0.244141 0.244141 0.244141 0.244141 0.244141 0.244141 0.244141 0.244141 0.244141 0.244141 0.24414 0.244141 0.244141 0.244141 0.244141 0.244141 0.244141 0.244141 0.244141 0.24414 0.244141 0.122071 0.12207 0.244141 0.244141 0.244141 0.244141 0.244141 0.244141 0.244141 0.244141 0.244141 0.244141 0.244141 0.244141 0.244141 0.244141 0.244141 0.244141 0.244141 0.244141 0.244141 0.244141 0.244141 0.244141 0.244141 0.244141 0.244141 0.244141 0.244141 0.244141 0.244141 0.244141 0.244141 0.244141 0.244141 0.244141 0.244141 0.244141 0.244141 0.244141 0.244141 0.244141 0.244141 0.244141 0.244141 0.244141 0.244141 0.244141 0.244141 0.244141 0.244141 0.244141 0.244141 0.244141 0.244141 0.244141 0.244141 0.244141 0.244141 0.244141 0.244141 0.244141 0.244141 0.244141 0.244141 0.122071 0.12207 0.244141 0.244141 0.244141 0.244141 0.244141 0.244141 0.244141 0.244141 0.244141 0.244141 0.244141 0.244141 0.244141 0.244141 0.244141 0.244141 0.244141 0.244141 0.244141 0.244141 0.244141 0.244141 0.244141 0.244141 0.244141 0.244141 0.244141 0.244141 0.244141 0.244141 0.244141 0.244141 0.244141 0.244141 0.244141 0.244141 0.244141 0.244141 0.244141 0.244141 0.244141 0.244141 0.244141 0.244141 0.244141 0.244141 0.244141 0.244141 0.244141 0.244141 0.244141 0.244141 0.24414 0.244141 0.244141 0.244141 0.244141 0.244141 0.244141 0.244141 0.244141 0.24414 0.244141 0.122071 0.12207 0.244141 0.244141 0.244141 0.244141 0.244141 0.244141 0.244141 0.244141 0.244141 0.244141 0.244141 0.244141 0.244141 0.244141 0.244141 0.244141 0.244141 0.244141 0.244141 0.244141 0.244141 0.244141 0.244141 0.244141 0.244141 0.244141 0.244141 0.244141 0.244141 0.244141 0.244141 0.244141 0.244141 0.244141 0.244141 0.244141 0.244141 0.244141 0.244141 0.244141 0.244141 0.244141 0.244141 0.244141 0.244141 0.244141 0.244141 0.244141 0.244141 0.244141 0.244141 0.244141 0.24414 0.244141 0.244141 0.244141 0.24414 0.244141 0.244141 0.244141 0.244141 0.24414 0.244141 0.122071 0.12207 0.244141 0.244141 0.244141 0.244141 0.244141 0.244141 0.244141 0.244141 0.244141 0.244141 0.244141 0.244141 0.244141 0.244141 0.244141 0.244141 0.244141 0.244141 0.244141 0.244141 0.244141 0.244141 0.244141 0.244141 0.244141 0.244141 0.244141 0.244141 0.244141 0.244141 0.244141 0.244141 0.244141 0.244141 0.244141 0.244141 0.244141 0.244141 0.244141 0.244141 0.244141 0.244141 0.244141 0.244141 0.244141 0.244141 0.244141 0.244141 0.244141 0.244141 0.244141 0.244141 0.24414 0.244141 0.244141 0.244141 0.244141 0.244141 0.244141 0.244141 0.244141 0.24414 0.244141 0.122071 0.0610352 0.12207 0.12207 0.12207 0.12207 0.12207 0.12207 0.12207 0.12207 0.12207 0.12207 0.12207 0.12207 0.12207 0.12207 0.12207 0.12207 0.12207 0.12207 0.12207 0.12207 0.12207 0.12207 0.12207 0.12207 0.12207 0.12207 0.12207 0.12207 0.12207 0.12207 0.12207 0.12207 0.12207 0.12207 0.12207 0.12207 0.12207 0.12207 0.12207 0.12207 0.12207 0.12207 0.12207 0.12207 0.12207 0.12207 0.12207 0.122071 0.12207 0.12207 0.12207 0.12207 0.12207 0.12207 0.122071 0.12207 0.12207 0.122071 0.122071 0.12207 0.12207 0.12207 0.12207 0.0610353 0.0610351 0.12207 0.12207 0.12207 0.12207 0.12207 0.12207 0.12207 0.12207 0.12207 0.12207 0.12207 0.12207 0.12207 0.12207 0.12207 0.12207 0.12207 0.12207 0.12207 0.12207 0.12207 0.12207 0.12207 0.12207 0.12207 0.12207 0.12207 0.12207 0.12207 0.12207 0.12207 0.12207 0.12207 0.12207 0.12207 0.12207 0.12207 0.12207 0.12207 0.12207 0.12207 0.12207 0.12207 0.12207 0.12207 0.12207 0.12207 0.12207 0.12207 0.12207 0.12207 0.12207 0.12207 0.12207 0.12207 0.12207 0.12207 0.12207 0.12207 0.12207 0.12207 0.12207 0.12207 0.0610352 0.12207 0.244141 0.244141 0.244141 0.244141 0.244141 0.244141 0.244141 0.244141 0.244141 0.244141 0.24414 0.244141 0.244141 0.244141 0.244141 0.244141 0.24414 0.24414 0.244141 0.244141 0.244141 0.244141 0.244141 0.244141 0.244141 0.24414 0.244141 0.244141 0.24414 0.244141 0.244141 0.244141 0.24414 0.24414 0.24414 0.244141 0.244141 0.24414 0.244141 0.244141 0.244141 0.244141 0.24414 0.24414 0.244141 0.244141 0.24414 0.244141 0.244141 0.244141 0.244141 0.24414 0.24414 0.244141 0.244141 0.244141 0.24414 0.244141 0.244141 0.244141 0.24414 0.24414 0.244141 0.12207 0.12207 0.244141 0.244141 0.244141 0.244141 0.244141 0.244141 0.244141 0.24414 0.24414 0.244141 0.24414 0.244141 0.244141 0.24414 0.24414 0.244141 0.24414 0.24414 0.244141 0.244141 0.244141 0.244141 0.24414 0.244141 0.244141 0.24414 0.24414 0.244141 0.24414 0.24414 0.24414 0.244141 0.24414 0.24414 0.24414 0.244141 0.244141 0.24414 0.24414 0.24414 0.244141 0.24414 0.24414 0.24414 0.244141 0.244141 0.24414 0.244141 0.244141 0.244141 0.244141 0.24414 0.24414 0.244141 0.244141 0.244141 0.24414 0.244141 0.244141 0.244141 0.24414 0.24414 0.244141 0.12207 0.12207 0.244141 0.244141 0.244141 0.244141 0.244141 0.244141 0.244141 0.24414 0.24414 0.244141 0.24414 0.244141 0.244141 0.24414 0.24414 0.244141 0.24414 0.24414 0.244141 0.244141 0.244141 0.244141 0.24414 0.244141 0.244141 0.24414 0.244141 0.244141 0.24414 0.24414 0.24414 0.244141 0.24414 0.24414 0.24414 0.244141 0.244141 0.24414 0.244141 0.244141 0.244141 0.24414 0.24414 0.24414 0.244141 0.244141 0.24414 0.244141 0.244141 0.244141 0.244141 0.24414 0.24414 0.244141 0.244141 0.244141 0.24414 0.244141 0.244141 0.244141 0.24414 0.24414 0.244141 0.12207 0.12207 0.244141 0.244141 0.244141 0.244141 0.244141 0.244141 0.244141 0.24414 0.24414 0.244141 0.24414 0.244141 0.244141 0.24414 0.24414 0.244141 0.24414 0.24414 0.244141 0.244141 0.244141 0.244141 0.24414 0.244141 0.244141 0.24414 0.244141 0.244141 0.24414 0.24414 0.24414 0.244141 0.24414 0.24414 0.24414 0.244141 0.244141 0.24414 0.244141 0.24414 0.244141 0.24414 0.24414 0.24414 0.244141 0.244141 0.24414 0.244141 0.244141 0.244141 0.244141 0.24414 0.24414 0.244141 0.244141 0.244141 0.24414 0.244141 0.244141 0.244141 0.24414 0.24414 0.244141 0.12207 0.12207 0.244141 0.244141 0.244141 0.244141 0.244141 0.244141 0.24414 0.24414 0.24414 0.244141 0.24414 0.244141 0.244141 0.24414 0.24414 0.244141 0.24414 0.24414 0.244141 0.244141 0.244141 0.244141 0.24414 0.244141 0.244141 0.24414 0.24414 0.24414 0.24414 0.24414 0.24414 0.244141 0.24414 0.24414 0.24414 0.24414 0.24414 0.24414 0.24414 0.24414 0.244141 0.24414 0.24414 0.24414 0.244141 0.244141 0.24414 0.244141 0.244141 0.244141 0.244141 0.24414 0.24414 0.244141 0.244141 0.244141 0.24414 0.244141 0.244141 0.244141 0.24414 0.24414 0.244141 0.12207 0.12207 0.244141 0.244141 0.244141 0.244141 0.244141 0.244141 0.244141 0.24414 0.24414 0.244141 0.244141 0.244141 0.244141 0.24414 0.24414 0.244141 0.24414 0.24414 0.244141 0.244141 0.244141 0.244141 0.24414 0.244141 0.244141 0.24414 0.244141 0.244141 0.24414 0.244141 0.244141 0.244141 0.24414 0.24414 0.24414 0.244141 0.244141 0.24414 0.244141 0.244141 0.244141 0.24414 0.24414 0.24414 0.244141 0.244141 0.24414 0.244141 0.244141 0.244141 0.244141 0.24414 0.24414 0.244141 0.244141 0.244141 0.24414 0.244141 0.244141 0.244141 0.24414 0.24414 0.244141 0.12207 0.12207 0.244141 0.244141 0.244141 0.244141 0.244141 0.244141 0.244141 0.24414 0.24414 0.244141 0.24414 0.244141 0.244141 0.24414 0.24414 0.244141 0.24414 0.24414 0.244141 0.244141 0.244141 0.244141 0.24414 0.244141 0.244141 0.24414 0.244141 0.244141 0.24414 0.244141 0.244141 0.244141 0.24414 0.24414 0.24414 0.244141 0.244141 0.24414 0.244141 0.244141 0.244141 0.24414 0.24414 0.24414 0.244141 0.244141 0.24414 0.244141 0.244141 0.24414 0.244141 0.24414 0.24414 0.244141 0.244141 0.244141 0.24414 0.244141 0.244141 0.244141 0.24414 0.24414 0.244141 0.12207 0.12207 0.24414 0.24414 0.24414 0.24414 0.24414 0.24414 0.24414 0.24414 0.24414 0.24414 0.24414 0.24414 0.244141 0.24414 0.24414 0.24414 0.24414 0.24414 0.24414 0.24414 0.24414 0.24414 0.24414 0.244141 0.244141 0.24414 0.24414 0.24414 0.24414 0.24414 0.24414 0.244141 0.24414 0.24414 0.24414 0.24414 0.24414 0.24414 0.24414 0.24414 0.244141 0.24414 0.24414 0.24414 0.24414 0.24414 0.24414 0.244141 0.244141 0.24414 0.244141 0.24414 0.24414 0.244141 0.244141 0.244141 0.24414 0.244141 0.244141 0.244141 0.24414 0.24414 0.244141 0.12207 0.12207 0.24414 0.24414 0.24414 0.24414 0.24414 0.244141 0.24414 0.24414 0.24414 0.24414 0.24414 0.24414 0.244141 0.24414 0.24414 0.24414 0.24414 0.24414 0.24414 0.24414 0.24414 0.24414 0.24414 0.244141 0.244141 0.24414 0.24414 0.24414 0.24414 0.24414 0.24414 0.244141 0.24414 0.24414 0.24414 0.24414 0.24414 0.24414 0.24414 0.24414 0.244141 0.24414 0.24414 0.24414 0.24414 0.24414 0.24414 0.244141 0.244141 0.24414 0.244141 0.24414 0.24414 0.244141 0.244141 0.244141 0.24414 0.244141 0.244141 0.244141 0.24414 0.24414 0.244141 0.12207 0.12207 0.24414 0.24414 0.24414 0.24414 0.24414 0.244141 0.24414 0.24414 0.24414 0.244141 0.24414 0.244141 0.244141 0.24414 0.24414 0.24414 0.24414 0.24414 0.24414 0.244141 0.244141 0.244141 0.24414 0.244141 0.244141 0.24414 0.24414 0.24414 0.24414 0.24414 0.24414 0.244141 0.24414 0.24414 0.24414 0.24414 0.24414 0.24414 0.24414 0.24414 0.244141 0.24414 0.24414 0.24414 0.24414 0.244141 0.24414 0.244141 0.244141 0.24414 0.244141 0.24414 0.24414 0.244141 0.244141 0.244141 0.24414 0.244141 0.244141 0.244141 0.24414 0.24414 0.244141 0.12207 0.12207 0.244141 0.24414 0.244141 0.244141 0.244141 0.244141 0.24414 0.24414 0.24414 0.244141 0.24414 0.244141 0.244141 0.24414 0.24414 0.244141 0.24414 0.24414 0.244141 0.244141 0.244141 0.244141 0.24414 0.244141 0.244141 0.24414 0.24414 0.24414 0.24414 0.24414 0.24414 0.244141 0.24414 0.24414 0.24414 0.24414 0.24414 0.24414 0.24414 0.24414 0.244141 0.24414 0.24414 0.24414 0.244141 0.244141 0.24414 0.244141 0.244141 0.24414 0.244141 0.24414 0.24414 0.244141 0.244141 0.244141 0.24414 0.244141 0.244141 0.244141 0.24414 0.24414 0.244141 0.12207 0.12207 0.244141 0.244141 0.244141 0.244141 0.244141 0.244141 0.244141 0.244141 0.244141 0.244141 0.244141 0.244141 0.244141 0.244141 0.244141 0.244141 0.24414 0.24414 0.244141 0.244141 0.244141 0.244141 0.244141 0.244141 0.244141 0.24414 0.244141 0.244141 0.24414 0.244141 0.244141 0.244141 0.244141 0.244141 0.24414 0.244141 0.244141 0.24414 0.244141 0.244141 0.244141 0.244141 0.244141 0.24414 0.244141 0.244141 0.24414 0.244141 0.244141 0.244141 0.244141 0.24414 0.24414 0.244141 0.244141 0.244141 0.24414 0.244141 0.244141 0.244141 0.244141 0.24414 0.244141 0.12207 0.12207 0.244141 0.244141 0.244141 0.244141 0.244141 0.244141 0.244141 0.244141 0.244141 0.244141 0.244141 0.244141 0.244141 0.244141 0.244141 0.244141 0.24414 0.24414 0.244141 0.244141 0.244141 0.244141 0.244141 0.244141 0.244141 0.24414 0.244141 0.244141 0.24414 0.244141 0.244141 0.244141 0.24414 0.24414 0.24414 0.244141 0.244141 0.24414 0.244141 0.244141 0.244141 0.244141 0.244141 0.24414 0.244141 0.244141 0.24414 0.244141 0.244141 0.244141 0.244141 0.24414 0.24414 0.244141 0.244141 0.244141 0.24414 0.244141 0.244141 0.244141 0.24414 0.24414 0.244141 0.12207 0.12207 0.24414 0.24414 0.24414 0.24414 0.24414 0.24414 0.24414 0.24414 0.24414 0.24414 0.24414 0.24414 0.24414 0.24414 0.24414 0.24414 0.24414 0.24414 0.24414 0.24414 0.24414 0.24414 0.24414 0.24414 0.244141 0.24414 0.24414 0.24414 0.24414 0.24414 0.24414 0.24414 0.24414 0.24414 0.24414 0.24414 0.24414 0.24414 0.24414 0.24414 0.24414 0.24414 0.24414 0.24414 0.24414 0.24414 0.24414 0.244141 0.244141 0.24414 0.244141 0.24414 0.24414 0.24414 0.244141 0.244141 0.24414 0.244141 0.244141 0.244141 0.24414 0.24414 0.24414 0.12207 0.12207 0.24414 0.24414 0.24414 0.24414 0.24414 0.24414 0.24414 0.24414 0.24414 0.24414 0.24414 0.24414 0.244141 0.24414 0.24414 0.24414 0.24414 0.24414 0.24414 0.24414 0.244141 0.24414 0.24414 0.244141 0.244141 0.24414 0.24414 0.24414 0.24414 0.24414 0.24414 0.244141 0.24414 0.24414 0.24414 0.24414 0.24414 0.24414 0.24414 0.24414 0.244141 0.24414 0.24414 0.24414 0.24414 0.24414 0.24414 0.244141 0.244141 0.24414 0.244141 0.24414 0.24414 0.244141 0.244141 0.244141 0.24414 0.244141 0.244141 0.244141 0.24414 0.24414 0.244141 0.12207 0.0610351 0.12207 0.12207 0.12207 0.12207 0.12207 0.12207 0.12207 0.12207 0.12207 0.12207 0.12207 0.12207 0.12207 0.12207 0.12207 0.12207 0.12207 0.12207 0.12207 0.12207 0.12207 0.12207 0.12207 0.12207 0.12207 0.12207 0.12207 0.12207 0.12207 0.12207 0.12207 0.12207 0.12207 0.12207 0.12207 0.12207 0.12207 0.12207 0.12207 0.12207 0.12207 0.12207 0.12207 0.12207 0.12207 0.12207 0.12207 0.12207 0.12207 0.12207 0.12207 0.12207 0.12207 0.12207 0.12207 0.12207 0.12207 0.12207 0.12207 0.12207 0.12207 0.12207 0.12207 0.0610352 0.0610351 0.12207 0.12207 0.12207 0.12207 0.12207 0.12207 0.12207 0.12207 0.12207 0.12207 0.12207 0.12207 0.12207 0.12207 0.12207 0.12207 0.12207 0.12207 0.12207 0.12207 0.12207 0.12207 0.12207 0.12207 0.12207 0.12207 0.12207 0.12207 0.12207 0.12207 0.12207 0.12207 0.12207 0.12207 0.12207 0.12207 0.12207 0.12207 0.12207 0.12207 0.12207 0.12207 0.12207 0.12207 0.12207 0.12207 0.12207 0.12207 0.12207 0.12207 0.12207 0.12207 0.12207 0.12207 0.12207 0.12207 0.12207 0.12207 0.12207 0.12207 0.12207 0.12207 0.12207 0.0610352 0.12207 0.24414 0.24414 0.24414 0.24414 0.24414 0.24414 0.24414 0.24414 0.24414 0.24414 0.24414 0.24414 0.24414 0.24414 0.24414 0.24414 0.24414 0.24414 0.24414 0.24414 0.24414 0.24414 0.24414 0.24414 0.24414 0.24414 0.24414 0.24414 0.24414 0.24414 0.24414 0.24414 0.24414 0.24414 0.24414 0.24414 0.24414 0.24414 0.24414 0.24414 0.24414 0.24414 0.24414 0.24414 0.24414 0.24414 0.24414 0.244141 0.244141 0.24414 0.244141 0.24414 0.24414 0.24414 0.244141 0.24414 0.24414 0.244141 0.244141 0.244141 0.24414 0.24414 0.24414 0.12207 0.12207 0.24414 0.24414 0.24414 0.24414 0.24414 0.24414 0.24414 0.24414 0.24414 0.24414 0.24414 0.24414 0.24414 0.24414 0.24414 0.24414 0.24414 0.24414 0.24414 0.24414 0.24414 0.24414 0.24414 0.24414 0.24414 0.24414 0.24414 0.24414 0.24414 0.24414 0.24414 0.24414 0.24414 0.24414 0.24414 0.24414 0.24414 0.24414 0.24414 0.24414 0.24414 0.24414 0.24414 0.24414 0.24414 0.24414 0.24414 0.244141 0.24414 0.24414 0.24414 0.24414 0.24414 0.24414 0.244141 0.24414 0.24414 0.244141 0.244141 0.244141 0.24414 0.24414 0.24414 0.12207 0.12207 0.24414 0.24414 0.24414 0.24414 0.24414 0.24414 0.24414 0.24414 0.24414 0.24414 0.24414 0.24414 0.24414 0.24414 0.24414 0.24414 0.24414 0.24414 0.24414 0.24414 0.24414 0.24414 0.24414 0.24414 0.24414 0.24414 0.24414 0.24414 0.24414 0.24414 0.24414 0.24414 0.24414 0.24414 0.24414 0.24414 0.24414 0.24414 0.24414 0.24414 0.24414 0.24414 0.24414 0.24414 0.24414 0.24414 0.24414 0.244141 0.24414 0.24414 0.24414 0.24414 0.24414 0.24414 0.244141 0.24414 0.24414 0.244141 0.244141 0.244141 0.24414 0.24414 0.24414 0.12207 0.12207 0.24414 0.24414 0.24414 0.24414 0.24414 0.24414 0.24414 0.24414 0.24414 0.24414 0.24414 0.24414 0.24414 0.24414 0.24414 0.24414 0.24414 0.24414 0.24414 0.24414 0.24414 0.24414 0.24414 0.24414 0.24414 0.24414 0.24414 0.24414 0.24414 0.24414 0.24414 0.24414 0.24414 0.24414 0.24414 0.24414 0.24414 0.24414 0.24414 0.24414 0.24414 0.24414 0.24414 0.24414 0.24414 0.24414 0.24414 0.244141 0.24414 0.24414 0.24414 0.24414 0.24414 0.24414 0.244141 0.24414 0.24414 0.244141 0.244141 0.244141 0.24414 0.24414 0.24414 0.12207 0.12207 0.24414 0.24414 0.24414 0.24414 0.24414 0.24414 0.24414 0.24414 0.24414 0.24414 0.24414 0.24414 0.24414 0.24414 0.24414 0.24414 0.24414 0.24414 0.24414 0.24414 0.24414 0.24414 0.24414 0.24414 0.24414 0.24414 0.24414 0.24414 0.24414 0.24414 0.24414 0.24414 0.24414 0.24414 0.24414 0.24414 0.24414 0.24414 0.24414 0.24414 0.24414 0.24414 0.24414 0.24414 0.24414 0.24414 0.24414 0.244141 0.24414 0.24414 0.24414 0.24414 0.24414 0.24414 0.244141 0.24414 0.24414 0.244141 0.244141 0.244141 0.24414 0.24414 0.24414 0.12207 0.12207 0.24414 0.24414 0.24414 0.24414 0.24414 0.24414 0.24414 0.24414 0.24414 0.24414 0.24414 0.24414 0.24414 0.24414 0.24414 0.24414 0.24414 0.24414 0.24414 0.24414 0.24414 0.24414 0.24414 0.24414 0.24414 0.24414 0.24414 0.24414 0.24414 0.24414 0.24414 0.24414 0.24414 0.24414 0.24414 0.24414 0.24414 0.24414 0.24414 0.24414 0.24414 0.24414 0.24414 0.24414 0.24414 0.24414 0.24414 0.244141 0.24414 0.24414 0.24414 0.24414 0.24414 0.24414 0.244141 0.24414 0.24414 0.244141 0.244141 0.244141 0.24414 0.24414 0.24414 0.12207 0.12207 0.24414 0.24414 0.24414 0.24414 0.24414 0.24414 0.24414 0.24414 0.24414 0.24414 0.24414 0.24414 0.24414 0.24414 0.24414 0.24414 0.24414 0.24414 0.24414 0.24414 0.24414 0.24414 0.24414 0.24414 0.24414 0.24414 0.24414 0.24414 0.24414 0.24414 0.24414 0.24414 0.24414 0.24414 0.24414 0.24414 0.24414 0.24414 0.24414 0.24414 0.24414 0.24414 0.24414 0.24414 0.24414 0.24414 0.24414 0.244141 0.24414 0.24414 0.24414 0.24414 0.24414 0.24414 0.244141 0.24414 0.24414 0.244141 0.244141 0.244141 0.24414 0.24414 0.24414 0.12207 0.12207 0.24414 0.24414 0.24414 0.24414 0.24414 0.24414 0.24414 0.24414 0.24414 0.24414 0.24414 0.24414 0.24414 0.24414 0.24414 0.24414 0.24414 0.24414 0.24414 0.24414 0.24414 0.24414 0.24414 0.24414 0.24414 0.24414 0.24414 0.24414 0.24414 0.24414 0.24414 0.24414 0.24414 0.24414 0.24414 0.24414 0.24414 0.24414 0.24414 0.24414 0.24414 0.24414 0.24414 0.24414 0.24414 0.24414 0.24414 0.244141 0.24414 0.24414 0.24414 0.24414 0.24414 0.24414 0.244141 0.24414 0.24414 0.244141 0.244141 0.24414 0.24414 0.24414 0.24414 0.12207 0.12207 0.24414 0.24414 0.24414 0.24414 0.24414 0.24414 0.24414 0.24414 0.24414 0.24414 0.24414 0.24414 0.24414 0.24414 0.24414 0.24414 0.24414 0.24414 0.24414 0.24414 0.24414 0.24414 0.24414 0.24414 0.24414 0.24414 0.24414 0.24414 0.24414 0.24414 0.24414 0.24414 0.24414 0.24414 0.24414 0.24414 0.24414 0.24414 0.24414 0.24414 0.24414 0.24414 0.24414 0.24414 0.24414 0.24414 0.24414 0.244141 0.24414 0.24414 0.24414 0.24414 0.24414 0.24414 0.244141 0.24414 0.24414 0.244141 0.244141 0.24414 0.24414 0.24414 0.24414 0.12207 0.12207 0.24414 0.24414 0.24414 0.24414 0.24414 0.24414 0.24414 0.24414 0.24414 0.24414 0.24414 0.24414 0.24414 0.24414 0.24414 0.24414 0.24414 0.24414 0.24414 0.24414 0.24414 0.24414 0.24414 0.24414 0.24414 0.24414 0.24414 0.24414 0.24414 0.24414 0.24414 0.24414 0.24414 0.24414 0.24414 0.24414 0.24414 0.24414 0.24414 0.24414 0.24414 0.24414 0.24414 0.24414 0.24414 0.24414 0.24414 0.244141 0.24414 0.24414 0.24414 0.24414 0.24414 0.24414 0.244141 0.24414 0.24414 0.244141 0.244141 0.244141 0.24414 0.24414 0.24414 0.12207 0.12207 0.24414 0.24414 0.24414 0.24414 0.24414 0.24414 0.24414 0.24414 0.24414 0.24414 0.24414 0.24414 0.24414 0.24414 0.24414 0.24414 0.24414 0.24414 0.24414 0.24414 0.24414 0.24414 0.24414 0.24414 0.24414 0.24414 0.24414 0.24414 0.24414 0.24414 0.24414 0.24414 0.24414 0.24414 0.24414 0.24414 0.24414 0.24414 0.24414 0.24414 0.24414 0.24414 0.24414 0.24414 0.24414 0.24414 0.24414 0.244141 0.24414 0.24414 0.24414 0.24414 0.24414 0.24414 0.244141 0.24414 0.24414 0.244141 0.244141 0.244141 0.24414 0.24414 0.24414 0.12207 0.12207 0.24414 0.24414 0.24414 0.24414 0.24414 0.24414 0.24414 0.24414 0.24414 0.24414 0.24414 0.24414 0.24414 0.24414 0.24414 0.24414 0.24414 0.24414 0.24414 0.24414 0.24414 0.24414 0.24414 0.24414 0.244141 0.24414 0.24414 0.24414 0.24414 0.24414 0.24414 0.244141 0.24414 0.24414 0.24414 0.24414 0.24414 0.24414 0.24414 0.24414 0.244141 0.24414 0.24414 0.24414 0.24414 0.24414 0.24414 0.244141 0.244141 0.24414 0.244141 0.24414 0.24414 0.24414 0.244141 0.244141 0.24414 0.244141 0.244141 0.244141 0.24414 0.24414 0.24414 0.12207 0.12207 0.24414 0.24414 0.24414 0.24414 0.24414 0.24414 0.24414 0.24414 0.24414 0.24414 0.24414 0.24414 0.24414 0.24414 0.24414 0.24414 0.24414 0.24414 0.24414 0.24414 0.24414 0.24414 0.24414 0.24414 0.24414 0.24414 0.24414 0.24414 0.24414 0.24414 0.24414 0.24414 0.24414 0.24414 0.24414 0.24414 0.24414 0.24414 0.24414 0.24414 0.24414 0.24414 0.24414 0.24414 0.24414 0.24414 0.24414 0.244141 0.244141 0.24414 0.244141 0.24414 0.24414 0.24414 0.244141 0.24414 0.24414 0.244141 0.244141 0.244141 0.24414 0.24414 0.24414 0.12207 0.12207 0.24414 0.24414 0.24414 0.24414 0.24414 0.24414 0.24414 0.24414 0.24414 0.24414 0.24414 0.24414 0.24414 0.24414 0.24414 0.24414 0.24414 0.24414 0.24414 0.24414 0.24414 0.24414 0.24414 0.24414 0.24414 0.24414 0.24414 0.24414 0.24414 0.24414 0.24414 0.24414 0.24414 0.24414 0.24414 0.24414 0.24414 0.24414 0.24414 0.24414 0.24414 0.24414 0.24414 0.24414 0.24414 0.24414 0.24414 0.244141 0.24414 0.24414 0.24414 0.24414 0.24414 0.24414 0.244141 0.24414 0.24414 0.244141 0.244141 0.24414 0.24414 0.24414 0.24414 0.12207 0.12207 0.24414 0.24414 0.24414 0.24414 0.24414 0.24414 0.24414 0.24414 0.24414 0.24414 0.24414 0.24414 0.24414 0.24414 0.24414 0.24414 0.24414 0.24414 0.24414 0.24414 0.24414 0.24414 0.24414 0.24414 0.24414 0.24414 0.24414 0.24414 0.24414 0.24414 0.24414 0.24414 0.24414 0.24414 0.24414 0.24414 0.24414 0.24414 0.24414 0.24414 0.24414 0.24414 0.24414 0.24414 0.24414 0.24414 0.24414 0.244141 0.24414 0.24414 0.24414 0.24414 0.24414 0.24414 0.244141 0.24414 0.24414 0.244141 0.244141 0.24414 0.24414 0.24414 0.24414 0.12207 0.0610351 0.12207 0.12207 0.12207 0.12207 0.12207 0.12207 0.12207 0.12207 0.12207 0.12207 0.12207 0.12207 0.12207 0.12207 0.12207 0.12207 0.12207 0.12207 0.12207 0.12207 0.12207 0.12207 0.12207 0.12207 0.12207 0.12207 0.12207 0.12207 0.12207 0.12207 0.12207 0.12207 0.12207 0.12207 0.12207 0.12207 0.12207 0.12207 0.12207 0.12207 0.12207 0.12207 0.12207 0.12207 0.12207 0.12207 0.12207 0.12207 0.12207 0.12207 0.12207 0.12207 0.12207 0.12207 0.12207 0.12207 0.12207 0.12207 0.12207 0.12207 0.12207 0.12207 0.12207 0.0610352 0.0610351 0.12207 0.12207 0.12207 0.12207 0.12207 0.12207 0.12207 0.12207 0.12207 0.12207 0.12207 0.12207 0.12207 0.12207 0.12207 0.12207 0.12207 0.12207 0.12207 0.12207 0.12207 0.12207 0.12207 0.12207 0.12207 0.12207 0.12207 0.12207 0.12207 0.12207 0.12207 0.12207 0.12207 0.12207 0.12207 0.12207 0.12207 0.12207 0.12207 0.12207 0.12207 0.12207 0.12207 0.12207 0.12207 0.12207 0.12207 0.12207 0.12207 0.12207 0.12207 0.12207 0.12207 0.12207 0.12207 0.12207 0.12207 0.12207 0.12207 0.12207 0.12207 0.12207 0.12207 0.0610352 0.12207 0.244141 0.244141 0.244141 0.244141 0.244141 0.244141 0.244141 0.244141 0.244141 0.244141 0.244141 0.244141 0.244141 0.244141 0.244141 0.244141 0.24414 0.24414 0.244141 0.244141 0.244141 0.244141 0.244141 0.244141 0.244141 0.24414 0.244141 0.244141 0.24414 0.244141 0.244141 0.244141 0.244141 0.244141 0.24414 0.244141 0.244141 0.24414 0.244141 0.244141 0.244141 0.244141 0.244141 0.24414 0.244141 0.244141 0.24414 0.244141 0.244141 0.244141 0.244141 0.24414 0.24414 0.244141 0.244141 0.244141 0.24414 0.244141 0.244141 0.244141 0.24414 0.24414 0.244141 0.12207 0.12207 0.244141 0.244141 0.244141 0.244141 0.244141 0.244141 0.244141 0.24414 0.244141 0.244141 0.244141 0.244141 0.244141 0.244141 0.244141 0.244141 0.24414 0.24414 0.244141 0.244141 0.244141 0.244141 0.244141 0.244141 0.244141 0.24414 0.244141 0.244141 0.24414 0.244141 0.244141 0.244141 0.24414 0.24414 0.24414 0.244141 0.244141 0.24414 0.244141 0.244141 0.244141 0.244141 0.244141 0.24414 0.244141 0.244141 0.24414 0.244141 0.244141 0.244141 0.244141 0.24414 0.24414 0.244141 0.244141 0.244141 0.24414 0.244141 0.244141 0.244141 0.24414 0.24414 0.244141 0.12207 0.12207 0.244141 0.244141 0.244141 0.244141 0.244141 0.244141 0.244141 0.24414 0.244141 0.244141 0.244141 0.244141 0.244141 0.244141 0.244141 0.244141 0.24414 0.24414 0.244141 0.244141 0.244141 0.244141 0.244141 0.244141 0.244141 0.24414 0.244141 0.244141 0.24414 0.244141 0.244141 0.244141 0.24414 0.24414 0.24414 0.244141 0.244141 0.24414 0.244141 0.244141 0.244141 0.244141 0.244141 0.24414 0.244141 0.244141 0.24414 0.244141 0.244141 0.244141 0.244141 0.24414 0.24414 0.244141 0.244141 0.244141 0.24414 0.244141 0.244141 0.244141 0.24414 0.24414 0.244141 0.12207 0.12207 0.244141 0.244141 0.244141 0.244141 0.244141 0.244141 0.244141 0.24414 0.244141 0.244141 0.244141 0.244141 0.244141 0.244141 0.244141 0.244141 0.24414 0.24414 0.244141 0.244141 0.244141 0.244141 0.244141 0.244141 0.244141 0.24414 0.244141 0.244141 0.24414 0.244141 0.244141 0.244141 0.24414 0.24414 0.24414 0.244141 0.244141 0.24414 0.244141 0.244141 0.244141 0.244141 0.244141 0.24414 0.244141 0.244141 0.24414 0.244141 0.244141 0.244141 0.244141 0.24414 0.24414 0.244141 0.244141 0.244141 0.24414 0.244141 0.244141 0.244141 0.24414 0.24414 0.244141 0.12207 0.12207 0.244141 0.244141 0.244141 0.244141 0.244141 0.244141 0.244141 0.24414 0.244141 0.244141 0.244141 0.244141 0.244141 0.24414 0.244141 0.244141 0.24414 0.24414 0.244141 0.244141 0.244141 0.244141 0.24414 0.244141 0.244141 0.24414 0.244141 0.244141 0.24414 0.244141 0.244141 0.244141 0.24414 0.24414 0.24414 0.244141 0.244141 0.24414 0.244141 0.244141 0.244141 0.24414 0.24414 0.24414 0.244141 0.244141 0.24414 0.244141 0.244141 0.24414 0.244141 0.24414 0.24414 0.244141 0.244141 0.244141 0.24414 0.244141 0.244141 0.244141 0.24414 0.24414 0.244141 0.12207 0.12207 0.244141 0.244141 0.244141 0.244141 0.244141 0.244141 0.244141 0.244141 0.244141 0.244141 0.244141 0.244141 0.244141 0.244141 0.244141 0.244141 0.24414 0.24414 0.244141 0.244141 0.244141 0.244141 0.244141 0.244141 0.244141 0.24414 0.244141 0.244141 0.24414 0.244141 0.244141 0.244141 0.24414 0.24414 0.24414 0.244141 0.244141 0.24414 0.244141 0.244141 0.244141 0.24414 0.244141 0.24414 0.244141 0.244141 0.24414 0.244141 0.244141 0.244141 0.244141 0.24414 0.24414 0.244141 0.244141 0.244141 0.24414 0.244141 0.244141 0.244141 0.24414 0.24414 0.244141 0.12207 0.12207 0.244141 0.244141 0.244141 0.244141 0.244141 0.244141 0.244141 0.24414 0.244141 0.244141 0.244141 0.244141 0.244141 0.244141 0.244141 0.244141 0.24414 0.24414 0.244141 0.244141 0.244141 0.244141 0.244141 0.244141 0.244141 0.24414 0.244141 0.244141 0.24414 0.244141 0.244141 0.244141 0.24414 0.24414 0.24414 0.244141 0.244141 0.24414 0.244141 0.244141 0.244141 0.24414 0.244141 0.24414 0.244141 0.244141 0.24414 0.244141 0.244141 0.244141 0.244141 0.24414 0.24414 0.244141 0.244141 0.244141 0.24414 0.244141 0.244141 0.244141 0.24414 0.24414 0.244141 0.12207 0.12207 0.24414 0.24414 0.24414 0.24414 0.24414 0.244141 0.244141 0.24414 0.24414 0.244141 0.24414 0.244141 0.244141 0.24414 0.24414 0.24414 0.24414 0.24414 0.24414 0.244141 0.244141 0.24414 0.24414 0.244141 0.244141 0.24414 0.24414 0.24414 0.24414 0.24414 0.24414 0.244141 0.24414 0.24414 0.24414 0.24414 0.24414 0.24414 0.24414 0.24414 0.244141 0.24414 0.24414 0.24414 0.24414 0.24414 0.24414 0.244141 0.244141 0.24414 0.244141 0.24414 0.24414 0.244141 0.244141 0.244141 0.24414 0.244141 0.244141 0.244141 0.24414 0.24414 0.244141 0.12207 0.12207 0.24414 0.24414 0.24414 0.24414 0.24414 0.244141 0.24414 0.24414 0.24414 0.24414 0.24414 0.244141 0.244141 0.24414 0.24414 0.24414 0.24414 0.24414 0.24414 0.24414 0.244141 0.24414 0.24414 0.244141 0.244141 0.24414 0.24414 0.24414 0.24414 0.24414 0.24414 0.244141 0.24414 0.24414 0.24414 0.24414 0.24414 0.24414 0.24414 0.24414 0.244141 0.24414 0.24414 0.24414 0.24414 0.244141 0.24414 0.244141 0.244141 0.24414 0.244141 0.24414 0.24414 0.244141 0.244141 0.244141 0.24414 0.244141 0.244141 0.244141 0.24414 0.24414 0.244141 0.12207 0.12207 0.244141 0.244141 0.244141 0.244141 0.244141 0.244141 0.244141 0.24414 0.24414 0.244141 0.244141 0.244141 0.244141 0.24414 0.24414 0.244141 0.24414 0.24414 0.24414 0.244141 0.244141 0.244141 0.24414 0.244141 0.244141 0.24414 0.244141 0.244141 0.24414 0.24414 0.244141 0.244141 0.24414 0.24414 0.24414 0.244141 0.244141 0.24414 0.244141 0.244141 0.244141 0.24414 0.24414 0.24414 0.244141 0.244141 0.24414 0.244141 0.244141 0.24414 0.244141 0.24414 0.24414 0.244141 0.244141 0.244141 0.24414 0.244141 0.244141 0.244141 0.24414 0.24414 0.244141 0.12207 0.12207 0.244141 0.244141 0.244141 0.244141 0.244141 0.244141 0.244141 0.24414 0.244141 0.244141 0.244141 0.244141 0.244141 0.24414 0.24414 0.244141 0.24414 0.24414 0.244141 0.244141 0.244141 0.244141 0.24414 0.244141 0.244141 0.24414 0.244141 0.244141 0.24414 0.244141 0.244141 0.244141 0.24414 0.24414 0.24414 0.244141 0.244141 0.24414 0.244141 0.244141 0.244141 0.24414 0.24414 0.24414 0.244141 0.244141 0.24414 0.244141 0.244141 0.24414 0.244141 0.24414 0.24414 0.244141 0.244141 0.244141 0.24414 0.244141 0.244141 0.244141 0.24414 0.24414 0.244141 0.12207 0.12207 0.244141 0.244141 0.244141 0.244141 0.244141 0.244141 0.244141 0.244141 0.244141 0.244141 0.244141 0.244141 0.244141 0.244141 0.244141 0.244141 0.244141 0.244141 0.244141 0.244141 0.244141 0.244141 0.244141 0.244141 0.244141 0.24414 0.244141 0.244141 0.24414 0.244141 0.244141 0.244141 0.244141 0.244141 0.24414 0.244141 0.244141 0.24414 0.244141 0.244141 0.244141 0.244141 0.244141 0.24414 0.244141 0.244141 0.244141 0.244141 0.244141 0.244141 0.244141 0.24414 0.24414 0.244141 0.244141 0.244141 0.24414 0.244141 0.244141 0.244141 0.244141 0.24414 0.244141 0.12207 0.12207 0.244141 0.244141 0.244141 0.244141 0.244141 0.244141 0.244141 0.244141 0.244141 0.244141 0.244141 0.244141 0.244141 0.244141 0.244141 0.244141 0.24414 0.24414 0.244141 0.244141 0.244141 0.244141 0.244141 0.244141 0.244141 0.24414 0.244141 0.244141 0.24414 0.244141 0.244141 0.244141 0.244141 0.244141 0.24414 0.244141 0.244141 0.24414 0.244141 0.244141 0.244141 0.244141 0.244141 0.24414 0.244141 0.244141 0.244141 0.244141 0.244141 0.244141 0.244141 0.24414 0.24414 0.244141 0.244141 0.244141 0.24414 0.244141 0.244141 0.244141 0.244141 0.24414 0.244141 0.12207 0.12207 0.24414 0.24414 0.24414 0.24414 0.24414 0.244141 0.24414 0.24414 0.24414 0.24414 0.24414 0.24414 0.244141 0.24414 0.24414 0.24414 0.24414 0.24414 0.24414 0.24414 0.244141 0.24414 0.24414 0.244141 0.244141 0.24414 0.24414 0.24414 0.24414 0.24414 0.24414 0.244141 0.24414 0.24414 0.24414 0.24414 0.24414 0.24414 0.24414 0.24414 0.244141 0.24414 0.24414 0.24414 0.24414 0.24414 0.24414 0.244141 0.244141 0.24414 0.244141 0.24414 0.24414 0.244141 0.244141 0.244141 0.24414 0.244141 0.244141 0.244141 0.24414 0.24414 0.244141 0.12207 0.12207 0.244141 0.244141 0.244141 0.244141 0.24414 0.244141 0.244141 0.24414 0.24414 0.244141 0.24414 0.244141 0.244141 0.24414 0.24414 0.244141 0.24414 0.24414 0.24414 0.244141 0.244141 0.244141 0.24414 0.244141 0.244141 0.24414 0.24414 0.24414 0.24414 0.24414 0.24414 0.244141 0.24414 0.24414 0.24414 0.24414 0.24414 0.24414 0.24414 0.24414 0.244141 0.24414 0.24414 0.24414 0.24414 0.244141 0.24414 0.244141 0.244141 0.24414 0.244141 0.24414 0.24414 0.244141 0.244141 0.244141 0.24414 0.244141 0.244141 0.244141 0.24414 0.24414 0.244141 0.12207 0.0610351 0.12207 0.12207 0.12207 0.12207 0.12207 0.12207 0.12207 0.12207 0.12207 0.12207 0.12207 0.12207 0.12207 0.12207 0.12207 0.12207 0.12207 0.12207 0.12207 0.12207 0.12207 0.12207 0.12207 0.12207 0.12207 0.12207 0.12207 0.12207 0.12207 0.12207 0.12207 0.12207 0.12207 0.12207 0.12207 0.12207 0.12207 0.12207 0.12207 0.12207 0.12207 0.12207 0.12207 0.12207 0.12207 0.12207 0.12207 0.12207 0.12207 0.12207 0.12207 0.12207 0.12207 0.12207 0.12207 0.12207 0.12207 0.12207 0.12207 0.12207 0.12207 0.12207 0.12207 0.0610352 0.0610352 0.12207 0.12207 0.12207 0.12207 0.12207 0.12207 0.12207 0.12207 0.12207 0.12207 0.12207 0.12207 0.12207 0.12207 0.12207 0.12207 0.12207 0.12207 0.12207 0.12207 0.12207 0.12207 0.12207 0.12207 0.122071 0.12207 0.12207 0.12207 0.12207 0.12207 0.12207 0.12207 0.12207 0.12207 0.12207 0.12207 0.12207 0.12207 0.12207 0.12207 0.12207 0.12207 0.12207 0.12207 0.12207 0.12207 0.12207 0.122071 0.122071 0.12207 0.122071 0.12207 0.12207 0.12207 0.122071 0.12207 0.12207 0.122071 0.122071 0.122071 0.12207 0.12207 0.12207 0.0610353 0.12207 0.244141 0.244141 0.244141 0.244141 0.244141 0.244141 0.244141 0.244141 0.244141 0.244141 0.244141 0.244141 0.244141 0.244141 0.244141 0.244141 0.244141 0.244141 0.244141 0.244141 0.244141 0.244141 0.244141 0.244141 0.244141 0.244141 0.244141 0.244141 0.244141 0.244141 0.244141 0.244141 0.244141 0.244141 0.244141 0.244141 0.244141 0.244141 0.244141 0.244141 0.244141 0.244141 0.244141 0.244141 0.244141 0.244141 0.244141 0.244141 0.244141 0.244141 0.244141 0.244141 0.244141 0.244141 0.244141 0.244141 0.244141 0.244141 0.244141 0.244141 0.244141 0.244141 0.244141 0.122071 0.12207 0.244141 0.244141 0.244141 0.244141 0.244141 0.244141 0.244141 0.244141 0.244141 0.244141 0.244141 0.244141 0.244141 0.244141 0.244141 0.244141 0.244141 0.244141 0.244141 0.244141 0.244141 0.244141 0.244141 0.244141 0.244141 0.244141 0.244141 0.244141 0.244141 0.244141 0.244141 0.244141 0.244141 0.244141 0.244141 0.244141 0.244141 0.244141 0.244141 0.244141 0.244141 0.244141 0.244141 0.244141 0.244141 0.244141 0.244141 0.244141 0.244141 0.244141 0.244141 0.244141 0.244141 0.244141 0.244141 0.244141 0.244141 0.244141 0.244141 0.244141 0.244141 0.244141 0.244141 0.122071 0.12207 0.244141 0.244141 0.244141 0.244141 0.244141 0.244141 0.244141 0.244141 0.244141 0.244141 0.244141 0.244141 0.244141 0.244141 0.244141 0.244141 0.244141 0.244141 0.244141 0.244141 0.244141 0.244141 0.244141 0.244141 0.244141 0.244141 0.244141 0.244141 0.244141 0.244141 0.244141 0.244141 0.244141 0.244141 0.244141 0.244141 0.244141 0.244141 0.244141 0.244141 0.244141 0.244141 0.244141 0.244141 0.244141 0.244141 0.244141 0.244141 0.244141 0.244141 0.244141 0.244141 0.244141 0.244141 0.244141 0.244141 0.244141 0.244141 0.244141 0.244141 0.244141 0.244141 0.244141 0.122071 0.12207 0.244141 0.244141 0.244141 0.244141 0.244141 0.244141 0.244141 0.244141 0.244141 0.244141 0.244141 0.244141 0.244141 0.244141 0.244141 0.244141 0.244141 0.244141 0.244141 0.244141 0.244141 0.244141 0.244141 0.244141 0.244141 0.244141 0.244141 0.244141 0.244141 0.244141 0.244141 0.244141 0.244141 0.244141 0.244141 0.244141 0.244141 0.244141 0.244141 0.244141 0.244141 0.244141 0.244141 0.244141 0.244141 0.244141 0.244141 0.244141 0.244141 0.244141 0.244141 0.244141 0.244141 0.244141 0.244141 0.244141 0.244141 0.244141 0.244141 0.244141 0.244141 0.244141 0.244141 0.122071 0.12207 0.244141 0.244141 0.244141 0.244141 0.244141 0.244141 0.244141 0.244141 0.244141 0.244141 0.244141 0.244141 0.244141 0.244141 0.244141 0.244141 0.244141 0.244141 0.244141 0.244141 0.244141 0.244141 0.244141 0.244141 0.244141 0.244141 0.244141 0.244141 0.244141 0.244141 0.244141 0.244141 0.244141 0.244141 0.244141 0.244141 0.244141 0.244141 0.244141 0.244141 0.244141 0.244141 0.244141 0.244141 0.244141 0.244141 0.244141 0.244141 0.244141 0.244141 0.244141 0.244141 0.244141 0.244141 0.244141 0.244141 0.244141 0.244141 0.244141 0.244141 0.244141 0.244141 0.244141 0.122071 0.12207 0.244141 0.244141 0.244141 0.244141 0.244141 0.244141 0.244141 0.244141 0.244141 0.244141 0.244141 0.244141 0.244141 0.244141 0.244141 0.244141 0.244141 0.244141 0.244141 0.244141 0.244141 0.244141 0.244141 0.244141 0.244141 0.244141 0.244141 0.244141 0.244141 0.244141 0.244141 0.244141 0.244141 0.244141 0.244141 0.244141 0.244141 0.244141 0.244141 0.244141 0.244141 0.244141 0.244141 0.244141 0.244141 0.244141 0.244141 0.244141 0.244141 0.244141 0.244141 0.244141 0.244141 0.244141 0.244141 0.244141 0.244141 0.244141 0.244141 0.244141 0.244141 0.244141 0.244141 0.122071 0.12207 0.244141 0.244141 0.244141 0.244141 0.244141 0.244141 0.244141 0.244141 0.244141 0.244141 0.244141 0.244141 0.244141 0.244141 0.244141 0.244141 0.244141 0.244141 0.244141 0.244141 0.244141 0.244141 0.244141 0.244141 0.244141 0.244141 0.244141 0.244141 0.244141 0.244141 0.244141 0.244141 0.244141 0.244141 0.244141 0.244141 0.244141 0.244141 0.244141 0.244141 0.244141 0.244141 0.244141 0.244141 0.244141 0.244141 0.244141 0.244141 0.244141 0.244141 0.244141 0.244141 0.244141 0.244141 0.244141 0.244141 0.244141 0.244141 0.244141 0.244141 0.244141 0.244141 0.244141 0.122071 0.12207 0.244141 0.244141 0.244141 0.244141 0.244141 0.244141 0.244141 0.244141 0.244141 0.244141 0.244141 0.244141 0.244141 0.244141 0.244141 0.244141 0.244141 0.244141 0.244141 0.244141 0.244141 0.244141 0.244141 0.244141 0.244141 0.244141 0.244141 0.244141 0.244141 0.244141 0.244141 0.244141 0.244141 0.244141 0.244141 0.244141 0.244141 0.244141 0.244141 0.244141 0.244141 0.244141 0.244141 0.244141 0.244141 0.244141 0.244141 0.244141 0.244141 0.244141 0.244141 0.244141 0.24414 0.244141 0.244141 0.244141 0.244141 0.244141 0.244141 0.244141 0.244141 0.24414 0.244141 0.122071 0.12207 0.244141 0.244141 0.244141 0.244141 0.244141 0.244141 0.244141 0.244141 0.244141 0.244141 0.244141 0.244141 0.244141 0.244141 0.244141 0.244141 0.244141 0.244141 0.244141 0.244141 0.244141 0.244141 0.244141 0.244141 0.244141 0.244141 0.244141 0.244141 0.244141 0.244141 0.244141 0.244141 0.244141 0.244141 0.244141 0.244141 0.244141 0.244141 0.244141 0.244141 0.244141 0.244141 0.244141 0.244141 0.244141 0.244141 0.244141 0.244141 0.244141 0.244141 0.244141 0.244141 0.24414 0.244141 0.244141 0.244141 0.244141 0.244141 0.244141 0.244141 0.244141 0.24414 0.244141 0.122071 0.12207 0.244141 0.244141 0.244141 0.244141 0.244141 0.244141 0.244141 0.244141 0.244141 0.244141 0.244141 0.244141 0.244141 0.244141 0.244141 0.244141 0.244141 0.244141 0.244141 0.244141 0.244141 0.244141 0.244141 0.244141 0.244141 0.244141 0.244141 0.244141 0.244141 0.244141 0.244141 0.244141 0.244141 0.244141 0.244141 0.244141 0.244141 0.244141 0.244141 0.244141 0.244141 0.244141 0.244141 0.244141 0.244141 0.244141 0.244141 0.244141 0.244141 0.244141 0.244141 0.244141 0.24414 0.244141 0.244141 0.244141 0.244141 0.244141 0.244141 0.244141 0.244141 0.24414 0.244141 0.122071 0.12207 0.244141 0.244141 0.244141 0.244141 0.244141 0.244141 0.244141 0.244141 0.244141 0.244141 0.244141 0.244141 0.244141 0.244141 0.244141 0.244141 0.244141 0.244141 0.244141 0.244141 0.244141 0.244141 0.244141 0.244141 0.244141 0.244141 0.244141 0.244141 0.244141 0.244141 0.244141 0.244141 0.244141 0.244141 0.244141 0.244141 0.244141 0.244141 0.244141 0.244141 0.244141 0.244141 0.244141 0.244141 0.244141 0.244141 0.244141 0.244141 0.244141 0.244141 0.244141 0.244141 0.24414 0.244141 0.244141 0.244141 0.244141 0.244141 0.244141 0.244141 0.244141 0.24414 0.244141 0.122071 0.12207 0.244141 0.244141 0.244141 0.244141 0.244141 0.244141 0.244141 0.244141 0.244141 0.244141 0.244141 0.244141 0.244141 0.244141 0.244141 0.244141 0.244141 0.244141 0.244141 0.244141 0.244141 0.244141 0.244141 0.244141 0.244141 0.244141 0.244141 0.244141 0.244141 0.244141 0.244141 0.244141 0.244141 0.244141 0.244141 0.244141 0.244141 0.244141 0.244141 0.244141 0.244141 0.244141 0.244141 0.244141 0.244141 0.244141 0.244141 0.244141 0.244141 0.244141 0.244141 0.244141 0.244141 0.244141 0.244141 0.244141 0.244141 0.244141 0.244141 0.244141 0.244141 0.244141 0.244141 0.122071 0.12207 0.244141 0.244141 0.244141 0.244141 0.244141 0.244141 0.244141 0.244141 0.244141 0.244141 0.244141 0.244141 0.244141 0.244141 0.244141 0.244141 0.244141 0.244141 0.244141 0.244141 0.244141 0.244141 0.244141 0.244141 0.244141 0.244141 0.244141 0.244141 0.244141 0.244141 0.244141 0.244141 0.244141 0.244141 0.244141 0.244141 0.244141 0.244141 0.244141 0.244141 0.244141 0.244141 0.244141 0.244141 0.244141 0.244141 0.244141 0.244141 0.244141 0.244141 0.244141 0.244141 0.244141 0.244141 0.244141 0.244141 0.244141 0.244141 0.244141 0.244141 0.244141 0.244141 0.244141 0.122071 0.12207 0.244141 0.244141 0.244141 0.244141 0.244141 0.244141 0.244141 0.244141 0.244141 0.244141 0.244141 0.244141 0.244141 0.244141 0.244141 0.244141 0.244141 0.244141 0.244141 0.244141 0.244141 0.244141 0.244141 0.244141 0.244141 0.244141 0.244141 0.244141 0.244141 0.244141 0.244141 0.244141 0.244141 0.244141 0.244141 0.244141 0.244141 0.244141 0.244141 0.244141 0.244141 0.244141 0.244141 0.244141 0.244141 0.244141 0.244141 0.244141 0.244141 0.244141 0.244141 0.244141 0.24414 0.244141 0.244141 0.244141 0.244141 0.244141 0.244141 0.244141 0.244141 0.24414 0.244141 0.122071 0.12207 0.244141 0.244141 0.244141 0.244141 0.244141 0.244141 0.244141 0.244141 0.244141 0.244141 0.244141 0.244141 0.244141 0.244141 0.244141 0.244141 0.244141 0.244141 0.244141 0.244141 0.244141 0.244141 0.244141 0.244141 0.244141 0.244141 0.244141 0.244141 0.244141 0.244141 0.244141 0.244141 0.244141 0.244141 0.244141 0.244141 0.244141 0.244141 0.244141 0.244141 0.244141 0.244141 0.244141 0.244141 0.244141 0.244141 0.244141 0.244141 0.244141 0.244141 0.244141 0.244141 0.24414 0.244141 0.244141 0.244141 0.244141 0.244141 0.244141 0.244141 0.244141 0.24414 0.244141 0.122071 0.0610352 0.12207 0.12207 0.12207 0.12207 0.12207 0.12207 0.12207 0.12207 0.12207 0.12207 0.12207 0.12207 0.12207 0.12207 0.12207 0.12207 0.12207 0.12207 0.12207 0.12207 0.12207 0.12207 0.12207 0.12207 0.12207 0.12207 0.12207 0.12207 0.12207 0.12207 0.12207 0.12207 0.12207 0.12207 0.12207 0.12207 0.12207 0.12207 0.12207 0.12207 0.12207 0.12207 0.12207 0.12207 0.12207 0.12207 0.12207 0.122071 0.12207 0.12207 0.12207 0.12207 0.12207 0.12207 0.122071 0.12207 0.12207 0.122071 0.122071 0.122071 0.12207 0.12207 0.12207 0.0610353 0.0610353 0.122071 0.122071 0.122071 0.122071 0.122071 0.122071 0.122071 0.122071 0.122071 0.122071 0.122071 0.122071 0.122071 0.122071 0.122071 0.122071 0.122071 0.122071 0.122071 0.122071 0.122071 0.122071 0.122071 0.122071 0.122071 0.12207 0.122071 0.122071 0.12207 0.122071 0.122071 0.122071 0.122071 0.122071 0.12207 0.122071 0.122071 0.12207 0.122071 0.122071 0.122071 0.122071 0.122071 0.122071 0.122071 0.122071 0.122071 0.122071 0.122071 0.122071 0.122071 0.122071 0.12207 0.122071 0.122071 0.122071 0.12207 0.122071 0.122071 0.122071 0.122071 0.12207 0.122071 0.0610354 0.122071 0.244141 0.244141 0.244141 0.244141 0.244141 0.244141 0.244141 0.244141 0.244141 0.244141 0.244141 0.244141 0.244141 0.244141 0.244141 0.244141 0.244141 0.244141 0.244141 0.244141 0.244141 0.244141 0.244141 0.244141 0.244141 0.244141 0.244141 0.244141 0.244141 0.244141 0.244141 0.244141 0.244141 0.244141 0.244141 0.244141 0.244141 0.244141 0.244141 0.244141 0.244141 0.244141 0.244141 0.244141 0.244141 0.244141 0.244141 0.244141 0.244141 0.244141 0.244141 0.244141 0.244141 0.244141 0.244142 0.244141 0.244141 0.244141 0.244141 0.244141 0.244141 0.244141 0.244141 0.122071 0.122071 0.244141 0.244141 0.244141 0.244141 0.244141 0.244141 0.244141 0.244141 0.244141 0.244141 0.244141 0.244141 0.244141 0.244141 0.244141 0.244141 0.244141 0.244141 0.244141 0.244141 0.244141 0.244141 0.244141 0.244141 0.244141 0.244141 0.244141 0.244141 0.244141 0.244141 0.244141 0.244141 0.244141 0.244141 0.244141 0.244141 0.244141 0.244141 0.244141 0.244141 0.244141 0.244141 0.244141 0.244141 0.244141 0.244141 0.244141 0.244141 0.244141 0.244141 0.244141 0.244141 0.244141 0.244141 0.244142 0.244141 0.244141 0.244141 0.244141 0.244141 0.244141 0.244141 0.244141 0.122071 0.122071 0.244141 0.244141 0.244141 0.244141 0.244141 0.244141 0.244141 0.244141 0.244141 0.244141 0.244141 0.244141 0.244141 0.244141 0.244141 0.244141 0.244141 0.244141 0.244141 0.244141 0.244141 0.244141 0.244141 0.244141 0.244141 0.244141 0.244141 0.244141 0.244141 0.244141 0.244141 0.244141 0.244141 0.244141 0.244141 0.244141 0.244141 0.244141 0.244141 0.244141 0.244141 0.244141 0.244141 0.244141 0.244141 0.244141 0.244141 0.244141 0.244141 0.244141 0.244141 0.244141 0.244141 0.244141 0.244142 0.244141 0.244141 0.244141 0.244141 0.244141 0.244141 0.244141 0.244141 0.122071 0.122071 0.244141 0.244141 0.244141 0.244141 0.244141 0.244141 0.244141 0.244141 0.244141 0.244141 0.244141 0.244141 0.244141 0.244141 0.244141 0.244141 0.244141 0.244141 0.244141 0.244141 0.244141 0.244141 0.244141 0.244141 0.244141 0.244141 0.244141 0.244141 0.244141 0.244141 0.244141 0.244141 0.244141 0.244141 0.244141 0.244141 0.244141 0.244141 0.244141 0.244141 0.244141 0.244141 0.244141 0.244141 0.244141 0.244141 0.244141 0.244141 0.244141 0.244141 0.244141 0.244141 0.244141 0.244141 0.244142 0.244141 0.244141 0.244141 0.244141 0.244141 0.244141 0.244141 0.244141 0.122071 0.122071 0.244141 0.244141 0.244141 0.244141 0.244141 0.244141 0.244141 0.244141 0.244141 0.244141 0.244141 0.244141 0.244141 0.244141 0.244141 0.244141 0.244141 0.244141 0.244141 0.244141 0.244141 0.244141 0.244141 0.244141 0.244141 0.244141 0.244141 0.244141 0.244141 0.244141 0.244141 0.244141 0.244141 0.244141 0.244141 0.244141 0.244141 0.244141 0.244141 0.244141 0.244141 0.244141 0.244141 0.244141 0.244141 0.244141 0.244141 0.244141 0.244141 0.244141 0.244141 0.244141 0.244141 0.244141 0.244142 0.244141 0.244141 0.244141 0.244141 0.244141 0.244141 0.244141 0.244141 0.122071 0.122071 0.244141 0.244141 0.244141 0.244141 0.244141 0.244141 0.244141 0.244141 0.244141 0.244141 0.244141 0.244141 0.244141 0.244141 0.244141 0.244141 0.244141 0.244141 0.244141 0.244141 0.244141 0.244141 0.244141 0.244141 0.244141 0.244141 0.244141 0.244141 0.244141 0.244141 0.244141 0.244141 0.244141 0.244141 0.244141 0.244141 0.244141 0.244141 0.244141 0.244141 0.244141 0.244141 0.244141 0.244141 0.244141 0.244141 0.244141 0.244141 0.244141 0.244141 0.244141 0.244141 0.244141 0.244141 0.244142 0.244141 0.244141 0.244141 0.244141 0.244141 0.244141 0.244141 0.244141 0.122071 0.122071 0.244141 0.244141 0.244141 0.244141 0.244141 0.244141 0.244141 0.244141 0.244141 0.244141 0.244141 0.244141 0.244141 0.244141 0.244141 0.244141 0.244141 0.244141 0.244141 0.244141 0.244141 0.244141 0.244141 0.244141 0.244141 0.244141 0.244141 0.244141 0.244141 0.244141 0.244141 0.244141 0.244141 0.244141 0.244141 0.244141 0.244141 0.244141 0.244141 0.244141 0.244141 0.244141 0.244141 0.244141 0.244141 0.244141 0.244141 0.244141 0.244141 0.244141 0.244141 0.244141 0.244141 0.244141 0.244142 0.244141 0.244141 0.244141 0.244141 0.244141 0.244141 0.244141 0.244141 0.122071 0.122071 0.244141 0.244141 0.244141 0.244141 0.244141 0.244141 0.244141 0.244141 0.244141 0.244141 0.244141 0.244141 0.244141 0.244141 0.244141 0.244141 0.244141 0.244141 0.244141 0.244141 0.244141 0.244141 0.244141 0.244141 0.244141 0.244141 0.244141 0.244141 0.244141 0.244141 0.244141 0.244141 0.244141 0.244141 0.244141 0.244141 0.244141 0.244141 0.244141 0.244141 0.244141 0.244141 0.244141 0.244141 0.244141 0.244141 0.244141 0.244141 0.244141 0.244141 0.244141 0.244141 0.244141 0.244141 0.244142 0.244141 0.244141 0.244141 0.244141 0.244141 0.244141 0.244141 0.244141 0.122071 0.122071 0.244141 0.244141 0.244141 0.244141 0.244141 0.244141 0.244141 0.244141 0.244141 0.244141 0.244141 0.244141 0.244141 0.244141 0.244141 0.244141 0.244141 0.244141 0.244141 0.244141 0.244141 0.244141 0.244141 0.244141 0.244141 0.244141 0.244141 0.244141 0.244141 0.244141 0.244141 0.244141 0.244141 0.244141 0.244141 0.244141 0.244141 0.244141 0.244141 0.244141 0.244141 0.244141 0.244141 0.244141 0.244141 0.244141 0.244141 0.244141 0.244141 0.244141 0.244141 0.244141 0.244141 0.244141 0.244141 0.244141 0.244141 0.244141 0.244141 0.244141 0.244141 0.244141 0.244141 0.122071 0.122071 0.244141 0.244141 0.244141 0.244141 0.244141 0.244141 0.244141 0.244141 0.244141 0.244141 0.244141 0.244141 0.244141 0.244141 0.244141 0.244141 0.244141 0.244141 0.244141 0.244141 0.244141 0.244141 0.244141 0.244141 0.244141 0.244141 0.244141 0.244141 0.244141 0.244141 0.244141 0.244141 0.244141 0.244141 0.244141 0.244141 0.244141 0.244141 0.244141 0.244141 0.244141 0.244141 0.244141 0.244141 0.244141 0.244141 0.244141 0.244141 0.244141 0.244141 0.244141 0.244141 0.244141 0.244141 0.244142 0.244141 0.244141 0.244141 0.244141 0.244141 0.244141 0.244141 0.244141 0.122071 0.122071 0.244141 0.244141 0.244141 0.244141 0.244141 0.244141 0.244141 0.244141 0.244141 0.244141 0.244141 0.244141 0.244141 0.244141 0.244141 0.244141 0.244141 0.244141 0.244141 0.244141 0.244141 0.244141 0.244141 0.244141 0.244141 0.244141 0.244141 0.244141 0.244141 0.244141 0.244141 0.244141 0.244141 0.244141 0.244141 0.244141 0.244141 0.244141 0.244141 0.244141 0.244141 0.244141 0.244141 0.244141 0.244141 0.244141 0.244141 0.244141 0.244141 0.244141 0.244141 0.244141 0.244141 0.244141 0.244142 0.244141 0.244141 0.244141 0.244141 0.244141 0.244141 0.244141 0.244141 0.122071 0.122071 0.244141 0.244141 0.244141 0.244141 0.244141 0.244141 0.244141 0.244141 0.244141 0.244141 0.244141 0.244141 0.244141 0.244141 0.244141 0.244141 0.244141 0.244141 0.244141 0.244141 0.244141 0.244141 0.244141 0.244141 0.244141 0.244141 0.244141 0.244141 0.244141 0.244141 0.244141 0.244141 0.244141 0.244141 0.244141 0.244141 0.244141 0.244141 0.244141 0.244141 0.244141 0.244141 0.244141 0.244141 0.244141 0.244141 0.244141 0.244141 0.244141 0.244141 0.244141 0.244141 0.244141 0.244141 0.244142 0.244141 0.244141 0.244141 0.244142 0.244141 0.244141 0.244141 0.244141 0.122071 0.122071 0.244141 0.244141 0.244141 0.244141 0.244141 0.244141 0.244141 0.244141 0.244141 0.244141 0.244141 0.244141 0.244141 0.244141 0.244141 0.244141 0.244141 0.244141 0.244141 0.244141 0.244141 0.244141 0.244141 0.244141 0.244141 0.244141 0.244141 0.244141 0.244141 0.244141 0.244141 0.244141 0.244141 0.244141 0.244141 0.244141 0.244141 0.244141 0.244141 0.244141 0.244141 0.244141 0.244141 0.244141 0.244141 0.244141 0.244141 0.244141 0.244141 0.244141 0.244141 0.244141 0.244141 0.244141 0.244142 0.244141 0.244141 0.244141 0.244141 0.244141 0.244141 0.244141 0.244141 0.122071 0.122071 0.244141 0.244141 0.244141 0.244141 0.244141 0.244141 0.244141 0.244141 0.244141 0.244141 0.244141 0.244141 0.244141 0.244141 0.244141 0.244141 0.244141 0.244141 0.244141 0.244141 0.244141 0.244141 0.244141 0.244141 0.244141 0.244141 0.244141 0.244141 0.244141 0.244141 0.244141 0.244141 0.244141 0.244141 0.244141 0.244141 0.244141 0.244141 0.244141 0.244141 0.244141 0.244141 0.244141 0.244141 0.244141 0.244141 0.244141 0.244141 0.244141 0.244141 0.244141 0.244141 0.244141 0.244141 0.244141 0.244141 0.244141 0.244141 0.244141 0.244141 0.244141 0.244141 0.244141 0.122071 0.122071 0.244141 0.244141 0.244141 0.244141 0.244141 0.244141 0.244141 0.244141 0.244141 0.244141 0.244141 0.244141 0.244141 0.244141 0.244141 0.244141 0.244141 0.244141 0.244141 0.244141 0.244141 0.244141 0.244141 0.244141 0.244141 0.244141 0.244141 0.244141 0.244141 0.244141 0.244141 0.244141 0.244141 0.244141 0.244141 0.244141 0.244141 0.244141 0.244141 0.244141 0.244141 0.244141 0.244141 0.244141 0.244141 0.244141 0.244141 0.244141 0.244141 0.244141 0.244141 0.244141 0.244141 0.244141 0.244142 0.244141 0.244141 0.244141 0.244141 0.244141 0.244141 0.244141 0.244141 0.122071 0.0610353 0.122071 0.122071 0.122071 0.122071 0.122071 0.122071 0.122071 0.122071 0.122071 0.122071 0.122071 0.122071 0.122071 0.122071 0.122071 0.122071 0.122071 0.122071 0.122071 0.122071 0.122071 0.122071 0.122071 0.122071 0.122071 0.12207 0.122071 0.122071 0.12207 0.122071 0.122071 0.122071 0.122071 0.122071 0.12207 0.122071 0.122071 0.12207 0.122071 0.122071 0.122071 0.122071 0.122071 0.12207 0.122071 0.122071 0.122071 0.122071 0.122071 0.122071 0.122071 0.122071 0.12207 0.122071 0.122071 0.122071 0.12207 0.122071 0.122071 0.122071 0.122071 0.12207 0.122071 0.0610354 0.0610351 0.12207 0.12207 0.12207 0.12207 0.12207 0.12207 0.12207 0.12207 0.12207 0.12207 0.12207 0.12207 0.12207 0.12207 0.12207 0.12207 0.12207 0.12207 0.12207 0.12207 0.12207 0.12207 0.12207 0.12207 0.12207 0.12207 0.12207 0.12207 0.12207 0.12207 0.12207 0.12207 0.12207 0.12207 0.12207 0.12207 0.12207 0.12207 0.12207 0.12207 0.12207 0.12207 0.12207 0.12207 0.12207 0.12207 0.12207 0.12207 0.12207 0.12207 0.12207 0.12207 0.12207 0.12207 0.12207 0.12207 0.12207 0.12207 0.12207 0.12207 0.12207 0.12207 0.12207 0.0610352 0.12207 0.24414 0.24414 0.24414 0.24414 0.24414 0.244141 0.244141 0.24414 0.24414 0.244141 0.24414 0.244141 0.244141 0.24414 0.24414 0.24414 0.24414 0.24414 0.24414 0.244141 0.244141 0.24414 0.24414 0.244141 0.244141 0.24414 0.244141 0.24414 0.24414 0.24414 0.244141 0.244141 0.24414 0.24414 0.24414 0.244141 0.24414 0.24414 0.24414 0.244141 0.244141 0.24414 0.24414 0.24414 0.244141 0.244141 0.24414 0.244141 0.244141 0.24414 0.244141 0.24414 0.24414 0.244141 0.244141 0.244141 0.24414 0.244141 0.244141 0.244141 0.24414 0.24414 0.244141 0.12207 0.12207 0.24414 0.24414 0.24414 0.24414 0.24414 0.244141 0.24414 0.24414 0.24414 0.244141 0.24414 0.244141 0.244141 0.24414 0.24414 0.24414 0.24414 0.24414 0.24414 0.244141 0.244141 0.24414 0.24414 0.244141 0.244141 0.24414 0.24414 0.24414 0.24414 0.24414 0.24414 0.244141 0.24414 0.24414 0.24414 0.244141 0.24414 0.24414 0.24414 0.24414 0.244141 0.24414 0.24414 0.24414 0.24414 0.24414 0.24414 0.244141 0.244141 0.24414 0.244141 0.24414 0.24414 0.244141 0.244141 0.244141 0.24414 0.244141 0.244141 0.244141 0.24414 0.24414 0.244141 0.12207 0.12207 0.24414 0.24414 0.24414 0.24414 0.24414 0.244141 0.24414 0.24414 0.24414 0.244141 0.24414 0.244141 0.244141 0.24414 0.24414 0.24414 0.24414 0.24414 0.24414 0.244141 0.244141 0.24414 0.24414 0.244141 0.244141 0.24414 0.24414 0.24414 0.24414 0.24414 0.24414 0.244141 0.24414 0.24414 0.24414 0.24414 0.24414 0.24414 0.24414 0.24414 0.244141 0.24414 0.24414 0.24414 0.24414 0.244141 0.24414 0.244141 0.244141 0.24414 0.244141 0.24414 0.24414 0.244141 0.244141 0.244141 0.24414 0.244141 0.244141 0.244141 0.24414 0.24414 0.244141 0.12207 0.12207 0.24414 0.24414 0.24414 0.24414 0.24414 0.244141 0.24414 0.24414 0.24414 0.244141 0.24414 0.244141 0.244141 0.24414 0.24414 0.24414 0.24414 0.24414 0.24414 0.244141 0.244141 0.24414 0.24414 0.244141 0.244141 0.24414 0.244141 0.24414 0.24414 0.24414 0.24414 0.244141 0.24414 0.24414 0.24414 0.244141 0.24414 0.24414 0.24414 0.244141 0.244141 0.24414 0.24414 0.24414 0.244141 0.244141 0.24414 0.244141 0.244141 0.24414 0.244141 0.24414 0.24414 0.244141 0.244141 0.244141 0.24414 0.244141 0.244141 0.244141 0.24414 0.24414 0.244141 0.12207 0.12207 0.24414 0.24414 0.24414 0.24414 0.24414 0.244141 0.24414 0.24414 0.24414 0.244141 0.24414 0.24414 0.244141 0.24414 0.24414 0.24414 0.24414 0.24414 0.24414 0.244141 0.244141 0.24414 0.24414 0.244141 0.244141 0.24414 0.24414 0.24414 0.24414 0.24414 0.24414 0.244141 0.24414 0.24414 0.24414 0.24414 0.24414 0.24414 0.24414 0.24414 0.244141 0.24414 0.24414 0.24414 0.24414 0.24414 0.24414 0.244141 0.244141 0.24414 0.244141 0.24414 0.24414 0.244141 0.244141 0.244141 0.24414 0.244141 0.244141 0.244141 0.24414 0.24414 0.244141 0.12207 0.12207 0.244141 0.24414 0.24414 0.24414 0.24414 0.244141 0.24414 0.24414 0.24414 0.244141 0.24414 0.244141 0.244141 0.24414 0.24414 0.24414 0.24414 0.24414 0.24414 0.244141 0.244141 0.244141 0.24414 0.244141 0.244141 0.24414 0.24414 0.24414 0.24414 0.24414 0.24414 0.244141 0.24414 0.24414 0.24414 0.24414 0.24414 0.24414 0.24414 0.24414 0.244141 0.24414 0.24414 0.24414 0.244141 0.244141 0.24414 0.244141 0.244141 0.24414 0.244141 0.24414 0.24414 0.244141 0.244141 0.244141 0.24414 0.244141 0.244141 0.244141 0.24414 0.24414 0.244141 0.12207 0.12207 0.24414 0.24414 0.24414 0.24414 0.24414 0.244141 0.244141 0.24414 0.24414 0.244141 0.24414 0.244141 0.244141 0.24414 0.24414 0.24414 0.24414 0.24414 0.24414 0.244141 0.244141 0.24414 0.24414 0.244141 0.244141 0.24414 0.244141 0.24414 0.24414 0.24414 0.24414 0.244141 0.24414 0.24414 0.24414 0.244141 0.24414 0.24414 0.244141 0.244141 0.244141 0.24414 0.24414 0.24414 0.24414 0.244141 0.24414 0.244141 0.244141 0.24414 0.244141 0.24414 0.24414 0.244141 0.244141 0.244141 0.24414 0.244141 0.244141 0.244141 0.24414 0.24414 0.244141 0.12207 0.12207 0.24414 0.24414 0.24414 0.24414 0.24414 0.24414 0.24414 0.24414 0.24414 0.24414 0.24414 0.24414 0.244141 0.24414 0.24414 0.24414 0.24414 0.24414 0.24414 0.24414 0.24414 0.24414 0.24414 0.24414 0.244141 0.24414 0.24414 0.24414 0.24414 0.24414 0.24414 0.24414 0.24414 0.24414 0.24414 0.24414 0.24414 0.24414 0.24414 0.24414 0.24414 0.24414 0.24414 0.24414 0.24414 0.24414 0.24414 0.244141 0.244141 0.24414 0.244141 0.24414 0.24414 0.24414 0.244141 0.244141 0.24414 0.244141 0.244141 0.244141 0.24414 0.24414 0.24414 0.12207 0.12207 0.24414 0.24414 0.24414 0.24414 0.24414 0.24414 0.24414 0.24414 0.24414 0.24414 0.24414 0.24414 0.244141 0.24414 0.24414 0.24414 0.24414 0.24414 0.24414 0.24414 0.24414 0.24414 0.24414 0.24414 0.244141 0.24414 0.24414 0.24414 0.24414 0.24414 0.24414 0.24414 0.24414 0.24414 0.24414 0.24414 0.24414 0.24414 0.24414 0.24414 0.24414 0.24414 0.24414 0.24414 0.24414 0.24414 0.24414 0.244141 0.244141 0.24414 0.244141 0.24414 0.24414 0.24414 0.244141 0.244141 0.24414 0.244141 0.244141 0.244141 0.24414 0.24414 0.24414 0.12207 0.12207 0.24414 0.24414 0.24414 0.24414 0.24414 0.244141 0.24414 0.24414 0.24414 0.24414 0.24414 0.244141 0.244141 0.24414 0.24414 0.24414 0.24414 0.24414 0.24414 0.244141 0.244141 0.24414 0.24414 0.244141 0.244141 0.24414 0.24414 0.24414 0.24414 0.24414 0.24414 0.244141 0.24414 0.24414 0.24414 0.24414 0.24414 0.24414 0.24414 0.24414 0.244141 0.24414 0.24414 0.24414 0.24414 0.24414 0.24414 0.244141 0.244141 0.24414 0.244141 0.24414 0.24414 0.244141 0.244141 0.244141 0.24414 0.244141 0.244141 0.244141 0.24414 0.24414 0.244141 0.12207 0.12207 0.24414 0.24414 0.24414 0.24414 0.24414 0.244141 0.24414 0.24414 0.24414 0.244141 0.24414 0.24414 0.244141 0.24414 0.24414 0.24414 0.24414 0.24414 0.24414 0.244141 0.244141 0.24414 0.24414 0.244141 0.244141 0.24414 0.24414 0.24414 0.24414 0.24414 0.24414 0.244141 0.24414 0.24414 0.24414 0.24414 0.24414 0.24414 0.24414 0.24414 0.244141 0.24414 0.24414 0.24414 0.24414 0.24414 0.24414 0.244141 0.244141 0.24414 0.244141 0.24414 0.24414 0.244141 0.244141 0.244141 0.24414 0.244141 0.244141 0.244141 0.24414 0.24414 0.244141 0.12207 0.12207 0.244141 0.244141 0.244141 0.244141 0.244141 0.244141 0.244141 0.244141 0.244141 0.244141 0.244141 0.244141 0.244141 0.244141 0.244141 0.244141 0.24414 0.24414 0.244141 0.244141 0.244141 0.244141 0.244141 0.244141 0.244141 0.24414 0.244141 0.244141 0.24414 0.244141 0.244141 0.244141 0.24414 0.24414 0.24414 0.244141 0.244141 0.24414 0.244141 0.244141 0.244141 0.244141 0.244141 0.24414 0.244141 0.244141 0.24414 0.244141 0.244141 0.244141 0.244141 0.24414 0.24414 0.244141 0.244141 0.244141 0.24414 0.244141 0.244141 0.244141 0.244141 0.24414 0.244141 0.12207 0.12207 0.244141 0.244141 0.244141 0.24414 0.244141 0.244141 0.244141 0.24414 0.24414 0.244141 0.244141 0.244141 0.244141 0.24414 0.24414 0.244141 0.24414 0.24414 0.244141 0.244141 0.244141 0.244141 0.24414 0.244141 0.244141 0.24414 0.244141 0.244141 0.24414 0.244141 0.244141 0.244141 0.24414 0.24414 0.24414 0.244141 0.244141 0.24414 0.244141 0.244141 0.244141 0.24414 0.24414 0.24414 0.244141 0.244141 0.24414 0.244141 0.244141 0.24414 0.244141 0.24414 0.24414 0.244141 0.244141 0.244141 0.24414 0.244141 0.244141 0.244141 0.24414 0.24414 0.244141 0.12207 0.12207 0.24414 0.24414 0.24414 0.24414 0.24414 0.24414 0.24414 0.24414 0.24414 0.24414 0.24414 0.24414 0.24414 0.24414 0.24414 0.24414 0.24414 0.24414 0.24414 0.24414 0.24414 0.24414 0.24414 0.24414 0.244141 0.24414 0.24414 0.24414 0.24414 0.24414 0.24414 0.24414 0.24414 0.24414 0.24414 0.24414 0.24414 0.24414 0.24414 0.24414 0.24414 0.24414 0.24414 0.24414 0.24414 0.24414 0.24414 0.244141 0.244141 0.24414 0.244141 0.24414 0.24414 0.24414 0.244141 0.24414 0.24414 0.244141 0.244141 0.244141 0.24414 0.24414 0.24414 0.12207 0.12207 0.24414 0.24414 0.24414 0.24414 0.24414 0.24414 0.24414 0.24414 0.24414 0.24414 0.24414 0.24414 0.244141 0.24414 0.24414 0.24414 0.24414 0.24414 0.24414 0.24414 0.24414 0.24414 0.24414 0.244141 0.244141 0.24414 0.24414 0.24414 0.24414 0.24414 0.24414 0.24414 0.24414 0.24414 0.24414 0.24414 0.24414 0.24414 0.24414 0.24414 0.244141 0.24414 0.24414 0.24414 0.24414 0.24414 0.24414 0.244141 0.244141 0.24414 0.244141 0.24414 0.24414 0.24414 0.244141 0.244141 0.24414 0.244141 0.244141 0.244141 0.24414 0.24414 0.24414 0.12207 0.0610351 0.12207 0.12207 0.12207 0.12207 0.12207 0.12207 0.12207 0.12207 0.12207 0.12207 0.12207 0.12207 0.12207 0.12207 0.12207 0.12207 0.12207 0.12207 0.12207 0.12207 0.12207 0.12207 0.12207 0.12207 0.12207 0.12207 0.12207 0.12207 0.12207 0.12207 0.12207 0.12207 0.12207 0.12207 0.12207 0.12207 0.12207 0.12207 0.12207 0.12207 0.12207 0.12207 0.12207 0.12207 0.12207 0.12207 0.12207 0.12207 0.12207 0.12207 0.12207 0.12207 0.12207 0.12207 0.12207 0.12207 0.12207 0.12207 0.12207 0.12207 0.12207 0.12207 0.12207 0.0610352 0.061035 0.12207 0.12207 0.12207 0.12207 0.12207 0.12207 0.12207 0.12207 0.12207 0.12207 0.12207 0.12207 0.12207 0.12207 0.12207 0.12207 0.12207 0.12207 0.12207 0.12207 0.12207 0.12207 0.12207 0.12207 0.12207 0.12207 0.12207 0.12207 0.12207 0.12207 0.12207 0.12207 0.12207 0.12207 0.12207 0.12207 0.12207 0.12207 0.12207 0.12207 0.12207 0.12207 0.12207 0.12207 0.12207 0.12207 0.12207 0.12207 0.12207 0.12207 0.12207 0.12207 0.12207 0.12207 0.12207 0.12207 0.12207 0.12207 0.12207 0.12207 0.12207 0.12207 0.12207 0.0610351 0.12207 0.24414 0.24414 0.24414 0.24414 0.24414 0.24414 0.24414 0.24414 0.24414 0.24414 0.24414 0.24414 0.24414 0.24414 0.24414 0.24414 0.24414 0.24414 0.24414 0.24414 0.24414 0.24414 0.24414 0.24414 0.24414 0.24414 0.24414 0.24414 0.24414 0.24414 0.24414 0.24414 0.24414 0.24414 0.24414 0.24414 0.24414 0.24414 0.24414 0.24414 0.24414 0.24414 0.24414 0.24414 0.24414 0.24414 0.24414 0.24414 0.24414 0.24414 0.24414 0.24414 0.24414 0.24414 0.24414 0.24414 0.24414 0.24414 0.24414 0.24414 0.24414 0.24414 0.24414 0.12207 0.12207 0.24414 0.24414 0.24414 0.24414 0.24414 0.24414 0.24414 0.24414 0.24414 0.24414 0.24414 0.24414 0.24414 0.24414 0.24414 0.24414 0.24414 0.24414 0.24414 0.24414 0.24414 0.24414 0.24414 0.24414 0.24414 0.24414 0.24414 0.24414 0.24414 0.24414 0.24414 0.24414 0.24414 0.24414 0.24414 0.24414 0.24414 0.24414 0.24414 0.24414 0.24414 0.24414 0.24414 0.24414 0.24414 0.24414 0.24414 0.24414 0.24414 0.24414 0.24414 0.24414 0.24414 0.24414 0.24414 0.24414 0.24414 0.24414 0.24414 0.24414 0.24414 0.24414 0.24414 0.12207 0.12207 0.24414 0.24414 0.24414 0.24414 0.24414 0.24414 0.24414 0.24414 0.24414 0.24414 0.24414 0.24414 0.24414 0.24414 0.24414 0.24414 0.24414 0.24414 0.24414 0.24414 0.24414 0.24414 0.24414 0.24414 0.24414 0.24414 0.24414 0.24414 0.24414 0.24414 0.24414 0.24414 0.24414 0.24414 0.24414 0.24414 0.24414 0.24414 0.24414 0.24414 0.24414 0.24414 0.24414 0.24414 0.24414 0.24414 0.24414 0.24414 0.24414 0.24414 0.24414 0.24414 0.24414 0.24414 0.24414 0.24414 0.24414 0.24414 0.24414 0.24414 0.24414 0.24414 0.24414 0.12207 0.12207 0.24414 0.24414 0.24414 0.24414 0.24414 0.24414 0.24414 0.24414 0.24414 0.24414 0.24414 0.24414 0.24414 0.24414 0.24414 0.24414 0.24414 0.24414 0.24414 0.24414 0.24414 0.24414 0.24414 0.24414 0.24414 0.24414 0.24414 0.24414 0.24414 0.24414 0.24414 0.24414 0.24414 0.24414 0.24414 0.24414 0.24414 0.24414 0.24414 0.24414 0.24414 0.24414 0.24414 0.24414 0.24414 0.24414 0.24414 0.24414 0.24414 0.24414 0.24414 0.24414 0.24414 0.24414 0.24414 0.24414 0.24414 0.24414 0.24414 0.24414 0.24414 0.24414 0.24414 0.12207 0.12207 0.24414 0.24414 0.24414 0.24414 0.24414 0.24414 0.24414 0.24414 0.24414 0.24414 0.24414 0.24414 0.24414 0.24414 0.24414 0.24414 0.24414 0.24414 0.24414 0.24414 0.24414 0.24414 0.24414 0.24414 0.24414 0.24414 0.24414 0.24414 0.24414 0.24414 0.24414 0.24414 0.24414 0.24414 0.24414 0.24414 0.24414 0.24414 0.24414 0.24414 0.24414 0.24414 0.24414 0.24414 0.24414 0.24414 0.24414 0.24414 0.24414 0.24414 0.24414 0.24414 0.24414 0.24414 0.24414 0.24414 0.24414 0.24414 0.24414 0.24414 0.24414 0.24414 0.24414 0.12207 0.12207 0.24414 0.24414 0.24414 0.24414 0.24414 0.24414 0.24414 0.24414 0.24414 0.24414 0.24414 0.24414 0.24414 0.24414 0.24414 0.24414 0.24414 0.24414 0.24414 0.24414 0.24414 0.24414 0.24414 0.24414 0.24414 0.24414 0.24414 0.24414 0.24414 0.24414 0.24414 0.24414 0.24414 0.24414 0.24414 0.24414 0.24414 0.24414 0.24414 0.24414 0.24414 0.24414 0.24414 0.24414 0.24414 0.24414 0.24414 0.24414 0.24414 0.24414 0.24414 0.24414 0.24414 0.24414 0.24414 0.24414 0.24414 0.24414 0.24414 0.24414 0.24414 0.24414 0.24414 0.12207 0.12207 0.24414 0.24414 0.24414 0.24414 0.24414 0.24414 0.24414 0.24414 0.24414 0.24414 0.24414 0.24414 0.24414 0.24414 0.24414 0.24414 0.24414 0.24414 0.24414 0.24414 0.24414 0.24414 0.24414 0.24414 0.24414 0.24414 0.24414 0.24414 0.24414 0.24414 0.24414 0.24414 0.24414 0.24414 0.24414 0.24414 0.24414 0.24414 0.24414 0.24414 0.24414 0.24414 0.24414 0.24414 0.24414 0.24414 0.24414 0.24414 0.24414 0.24414 0.24414 0.24414 0.24414 0.24414 0.24414 0.24414 0.24414 0.24414 0.24414 0.24414 0.24414 0.24414 0.24414 0.12207 0.12207 0.24414 0.24414 0.24414 0.24414 0.24414 0.24414 0.24414 0.24414 0.24414 0.24414 0.24414 0.24414 0.24414 0.24414 0.24414 0.24414 0.24414 0.24414 0.24414 0.24414 0.24414 0.24414 0.24414 0.24414 0.24414 0.24414 0.24414 0.24414 0.24414 0.24414 0.24414 0.24414 0.24414 0.24414 0.24414 0.24414 0.24414 0.24414 0.24414 0.24414 0.24414 0.24414 0.24414 0.24414 0.24414 0.24414 0.24414 0.24414 0.24414 0.24414 0.24414 0.24414 0.24414 0.24414 0.24414 0.24414 0.24414 0.24414 0.24414 0.24414 0.24414 0.24414 0.24414 0.12207 0.12207 0.24414 0.24414 0.24414 0.24414 0.24414 0.24414 0.24414 0.24414 0.24414 0.24414 0.24414 0.24414 0.24414 0.24414 0.24414 0.24414 0.24414 0.24414 0.24414 0.24414 0.24414 0.24414 0.24414 0.24414 0.24414 0.24414 0.24414 0.24414 0.24414 0.24414 0.24414 0.24414 0.24414 0.24414 0.24414 0.24414 0.24414 0.24414 0.24414 0.24414 0.24414 0.24414 0.24414 0.24414 0.24414 0.24414 0.24414 0.24414 0.24414 0.24414 0.24414 0.24414 0.24414 0.24414 0.24414 0.24414 0.24414 0.24414 0.24414 0.24414 0.24414 0.24414 0.24414 0.12207 0.12207 0.24414 0.24414 0.24414 0.24414 0.24414 0.24414 0.24414 0.24414 0.24414 0.24414 0.24414 0.24414 0.24414 0.24414 0.24414 0.24414 0.24414 0.24414 0.24414 0.24414 0.24414 0.24414 0.24414 0.24414 0.24414 0.24414 0.24414 0.24414 0.24414 0.24414 0.24414 0.24414 0.24414 0.24414 0.24414 0.24414 0.24414 0.24414 0.24414 0.24414 0.24414 0.24414 0.24414 0.24414 0.24414 0.24414 0.24414 0.24414 0.24414 0.24414 0.24414 0.24414 0.24414 0.24414 0.24414 0.24414 0.24414 0.24414 0.24414 0.24414 0.24414 0.24414 0.24414 0.12207 0.12207 0.24414 0.24414 0.24414 0.24414 0.24414 0.24414 0.24414 0.24414 0.24414 0.24414 0.24414 0.24414 0.24414 0.24414 0.24414 0.24414 0.24414 0.24414 0.24414 0.24414 0.24414 0.24414 0.24414 0.24414 0.24414 0.24414 0.24414 0.24414 0.24414 0.24414 0.24414 0.24414 0.24414 0.24414 0.24414 0.24414 0.24414 0.24414 0.24414 0.24414 0.24414 0.24414 0.24414 0.24414 0.24414 0.24414 0.24414 0.24414 0.24414 0.24414 0.24414 0.24414 0.24414 0.24414 0.24414 0.24414 0.24414 0.24414 0.24414 0.24414 0.24414 0.24414 0.24414 0.12207 0.12207 0.24414 0.24414 0.24414 0.24414 0.24414 0.24414 0.24414 0.24414 0.24414 0.24414 0.24414 0.24414 0.24414 0.24414 0.24414 0.24414 0.24414 0.24414 0.24414 0.24414 0.24414 0.24414 0.24414 0.24414 0.24414 0.24414 0.24414 0.24414 0.24414 0.24414 0.24414 0.24414 0.24414 0.24414 0.24414 0.24414 0.24414 0.24414 0.24414 0.24414 0.24414 0.24414 0.24414 0.24414 0.24414 0.24414 0.24414 0.24414 0.24414 0.24414 0.24414 0.24414 0.24414 0.24414 0.24414 0.24414 0.24414 0.24414 0.24414 0.24414 0.24414 0.24414 0.24414 0.12207 0.12207 0.24414 0.24414 0.24414 0.24414 0.24414 0.24414 0.24414 0.24414 0.24414 0.24414 0.24414 0.24414 0.24414 0.24414 0.24414 0.24414 0.24414 0.24414 0.24414 0.24414 0.24414 0.24414 0.24414 0.24414 0.24414 0.24414 0.24414 0.24414 0.24414 0.24414 0.24414 0.24414 0.24414 0.24414 0.24414 0.24414 0.24414 0.24414 0.24414 0.24414 0.24414 0.24414 0.24414 0.24414 0.24414 0.24414 0.24414 0.24414 0.24414 0.24414 0.24414 0.24414 0.24414 0.24414 0.24414 0.24414 0.24414 0.24414 0.24414 0.24414 0.24414 0.24414 0.24414 0.12207 0.12207 0.24414 0.24414 0.24414 0.24414 0.24414 0.24414 0.24414 0.24414 0.24414 0.24414 0.24414 0.24414 0.24414 0.24414 0.24414 0.24414 0.24414 0.24414 0.24414 0.24414 0.24414 0.24414 0.24414 0.24414 0.24414 0.24414 0.24414 0.24414 0.24414 0.24414 0.24414 0.24414 0.24414 0.24414 0.24414 0.24414 0.24414 0.24414 0.24414 0.24414 0.24414 0.24414 0.24414 0.24414 0.24414 0.24414 0.24414 0.24414 0.24414 0.24414 0.24414 0.24414 0.24414 0.24414 0.24414 0.24414 0.24414 0.24414 0.24414 0.24414 0.24414 0.24414 0.24414 0.12207 0.12207 0.24414 0.24414 0.24414 0.24414 0.24414 0.24414 0.24414 0.24414 0.24414 0.24414 0.24414 0.24414 0.24414 0.24414 0.24414 0.24414 0.24414 0.24414 0.24414 0.24414 0.24414 0.24414 0.24414 0.24414 0.24414 0.24414 0.24414 0.24414 0.24414 0.24414 0.24414 0.24414 0.24414 0.24414 0.24414 0.24414 0.24414 0.24414 0.24414 0.24414 0.24414 0.24414 0.24414 0.24414 0.24414 0.24414 0.24414 0.24414 0.24414 0.24414 0.24414 0.24414 0.24414 0.24414 0.24414 0.24414 0.24414 0.24414 0.24414 0.24414 0.24414 0.24414 0.24414 0.12207 0.061035 0.12207 0.12207 0.12207 0.12207 0.12207 0.12207 0.12207 0.12207 0.12207 0.12207 0.12207 0.12207 0.12207 0.12207 0.12207 0.12207 0.12207 0.12207 0.12207 0.12207 0.12207 0.12207 0.12207 0.12207 0.12207 0.12207 0.12207 0.12207 0.12207 0.12207 0.12207 0.12207 0.12207 0.12207 0.12207 0.12207 0.12207 0.12207 0.12207 0.12207 0.12207 0.12207 0.12207 0.12207 0.12207 0.12207 0.12207 0.12207 0.12207 0.12207 0.12207 0.12207 0.12207 0.12207 0.12207 0.12207 0.12207 0.12207 0.12207 0.12207 0.12207 0.12207 0.12207 0.0610351 0.0610352 0.12207 0.12207 0.12207 0.12207 0.12207 0.12207 0.12207 0.12207 0.12207 0.12207 0.12207 0.12207 0.12207 0.12207 0.12207 0.12207 0.12207 0.12207 0.12207 0.12207 0.12207 0.12207 0.12207 0.12207 0.12207 0.12207 0.12207 0.12207 0.12207 0.12207 0.12207 0.12207 0.12207 0.12207 0.12207 0.12207 0.12207 0.12207 0.12207 0.12207 0.12207 0.12207 0.12207 0.12207 0.12207 0.12207 0.12207 0.122071 0.12207 0.12207 0.12207 0.12207 0.12207 0.12207 0.122071 0.12207 0.12207 0.12207 0.122071 0.12207 0.12207 0.12207 0.12207 0.0610353 0.12207 0.244141 0.244141 0.244141 0.244141 0.244141 0.244141 0.244141 0.244141 0.244141 0.244141 0.244141 0.244141 0.244141 0.244141 0.244141 0.244141 0.244141 0.244141 0.244141 0.244141 0.244141 0.244141 0.244141 0.244141 0.244141 0.244141 0.244141 0.244141 0.244141 0.244141 0.244141 0.244141 0.244141 0.244141 0.244141 0.244141 0.244141 0.244141 0.244141 0.244141 0.244141 0.244141 0.244141 0.244141 0.244141 0.244141 0.244141 0.244141 0.244141 0.244141 0.244141 0.244141 0.24414 0.244141 0.244141 0.244141 0.244141 0.244141 0.244141 0.244141 0.244141 0.24414 0.244141 0.122071 0.12207 0.244141 0.244141 0.244141 0.244141 0.244141 0.244141 0.244141 0.244141 0.244141 0.244141 0.244141 0.244141 0.244141 0.244141 0.244141 0.244141 0.244141 0.244141 0.244141 0.244141 0.244141 0.244141 0.244141 0.244141 0.244141 0.244141 0.244141 0.244141 0.244141 0.244141 0.244141 0.244141 0.244141 0.244141 0.244141 0.244141 0.244141 0.244141 0.244141 0.244141 0.244141 0.244141 0.244141 0.244141 0.244141 0.244141 0.244141 0.244141 0.244141 0.244141 0.244141 0.244141 0.24414 0.244141 0.244141 0.244141 0.244141 0.244141 0.244141 0.244141 0.244141 0.24414 0.244141 0.122071 0.12207 0.244141 0.244141 0.244141 0.244141 0.244141 0.244141 0.244141 0.244141 0.244141 0.244141 0.244141 0.244141 0.244141 0.244141 0.244141 0.244141 0.244141 0.244141 0.244141 0.244141 0.244141 0.244141 0.244141 0.244141 0.244141 0.244141 0.244141 0.244141 0.244141 0.244141 0.244141 0.244141 0.244141 0.244141 0.244141 0.244141 0.244141 0.244141 0.244141 0.244141 0.244141 0.244141 0.244141 0.244141 0.244141 0.244141 0.244141 0.244141 0.244141 0.244141 0.244141 0.244141 0.24414 0.244141 0.244141 0.244141 0.244141 0.244141 0.244141 0.244141 0.244141 0.24414 0.244141 0.122071 0.12207 0.244141 0.244141 0.244141 0.244141 0.244141 0.244141 0.244141 0.244141 0.244141 0.244141 0.244141 0.244141 0.244141 0.244141 0.244141 0.244141 0.244141 0.244141 0.244141 0.244141 0.244141 0.244141 0.244141 0.244141 0.244141 0.244141 0.244141 0.244141 0.244141 0.244141 0.244141 0.244141 0.244141 0.244141 0.244141 0.244141 0.244141 0.244141 0.244141 0.244141 0.244141 0.244141 0.244141 0.244141 0.244141 0.244141 0.244141 0.244141 0.244141 0.244141 0.244141 0.244141 0.24414 0.244141 0.244141 0.244141 0.244141 0.244141 0.244141 0.244141 0.244141 0.24414 0.244141 0.122071 0.12207 0.244141 0.244141 0.244141 0.244141 0.244141 0.244141 0.244141 0.244141 0.244141 0.244141 0.244141 0.244141 0.244141 0.244141 0.244141 0.244141 0.244141 0.244141 0.244141 0.244141 0.244141 0.244141 0.244141 0.244141 0.244141 0.244141 0.244141 0.244141 0.244141 0.244141 0.244141 0.244141 0.244141 0.244141 0.244141 0.244141 0.244141 0.244141 0.244141 0.244141 0.244141 0.244141 0.244141 0.244141 0.244141 0.244141 0.244141 0.244141 0.244141 0.244141 0.244141 0.244141 0.24414 0.244141 0.244141 0.244141 0.24414 0.244141 0.244141 0.244141 0.244141 0.24414 0.244141 0.122071 0.12207 0.244141 0.244141 0.244141 0.244141 0.244141 0.244141 0.244141 0.244141 0.244141 0.244141 0.244141 0.244141 0.244141 0.244141 0.244141 0.244141 0.244141 0.244141 0.244141 0.244141 0.244141 0.244141 0.244141 0.244141 0.244141 0.244141 0.244141 0.244141 0.244141 0.244141 0.244141 0.244141 0.244141 0.244141 0.244141 0.244141 0.244141 0.244141 0.244141 0.244141 0.244141 0.244141 0.244141 0.244141 0.244141 0.244141 0.244141 0.244141 0.244141 0.244141 0.244141 0.244141 0.24414 0.244141 0.244141 0.244141 0.244141 0.244141 0.244141 0.244141 0.244141 0.24414 0.244141 0.122071 0.12207 0.244141 0.244141 0.244141 0.244141 0.244141 0.244141 0.244141 0.244141 0.244141 0.244141 0.244141 0.244141 0.244141 0.244141 0.244141 0.244141 0.244141 0.244141 0.244141 0.244141 0.244141 0.244141 0.244141 0.244141 0.244141 0.244141 0.244141 0.244141 0.244141 0.244141 0.244141 0.244141 0.244141 0.244141 0.244141 0.244141 0.244141 0.244141 0.244141 0.244141 0.244141 0.244141 0.244141 0.244141 0.244141 0.244141 0.244141 0.244141 0.244141 0.244141 0.244141 0.244141 0.24414 0.244141 0.244141 0.244141 0.244141 0.244141 0.244141 0.244141 0.244141 0.24414 0.244141 0.122071 0.12207 0.244141 0.244141 0.244141 0.244141 0.244141 0.244141 0.244141 0.244141 0.244141 0.244141 0.244141 0.244141 0.244141 0.244141 0.244141 0.244141 0.244141 0.244141 0.244141 0.244141 0.244141 0.244141 0.244141 0.244141 0.244141 0.244141 0.244141 0.244141 0.244141 0.244141 0.244141 0.244141 0.244141 0.244141 0.244141 0.244141 0.244141 0.244141 0.244141 0.244141 0.244141 0.244141 0.244141 0.244141 0.244141 0.244141 0.244141 0.244141 0.244141 0.244141 0.244141 0.244141 0.24414 0.244141 0.244141 0.244141 0.24414 0.244141 0.244141 0.244141 0.244141 0.24414 0.244141 0.122071 0.12207 0.244141 0.244141 0.244141 0.244141 0.244141 0.244141 0.244141 0.244141 0.244141 0.244141 0.244141 0.244141 0.244141 0.244141 0.244141 0.244141 0.244141 0.244141 0.244141 0.244141 0.244141 0.244141 0.244141 0.244141 0.244141 0.244141 0.244141 0.244141 0.244141 0.244141 0.244141 0.244141 0.244141 0.244141 0.244141 0.244141 0.244141 0.244141 0.244141 0.244141 0.244141 0.244141 0.244141 0.244141 0.244141 0.244141 0.244141 0.244141 0.244141 0.244141 0.244141 0.244141 0.24414 0.244141 0.244141 0.244141 0.24414 0.244141 0.244141 0.244141 0.244141 0.24414 0.244141 0.122071 0.12207 0.244141 0.244141 0.244141 0.244141 0.244141 0.244141 0.244141 0.244141 0.244141 0.244141 0.244141 0.244141 0.244141 0.244141 0.244141 0.244141 0.244141 0.244141 0.244141 0.244141 0.244141 0.244141 0.244141 0.244141 0.244141 0.244141 0.244141 0.244141 0.244141 0.244141 0.244141 0.244141 0.244141 0.244141 0.244141 0.244141 0.244141 0.244141 0.244141 0.244141 0.244141 0.244141 0.244141 0.244141 0.244141 0.244141 0.244141 0.244141 0.244141 0.244141 0.244141 0.244141 0.24414 0.244141 0.244141 0.244141 0.24414 0.244141 0.244141 0.244141 0.244141 0.24414 0.244141 0.122071 0.12207 0.244141 0.244141 0.244141 0.244141 0.244141 0.244141 0.244141 0.244141 0.244141 0.244141 0.244141 0.244141 0.244141 0.244141 0.244141 0.244141 0.244141 0.244141 0.244141 0.244141 0.244141 0.244141 0.244141 0.244141 0.244141 0.244141 0.244141 0.244141 0.244141 0.244141 0.244141 0.244141 0.244141 0.244141 0.244141 0.244141 0.244141 0.244141 0.244141 0.244141 0.244141 0.244141 0.244141 0.244141 0.244141 0.244141 0.244141 0.244141 0.244141 0.244141 0.244141 0.244141 0.24414 0.244141 0.244141 0.244141 0.24414 0.244141 0.244141 0.244141 0.244141 0.24414 0.244141 0.122071 0.12207 0.244141 0.244141 0.244141 0.244141 0.244141 0.244141 0.244141 0.244141 0.244141 0.244141 0.244141 0.244141 0.244141 0.244141 0.244141 0.244141 0.244141 0.244141 0.244141 0.244141 0.244141 0.244141 0.244141 0.244141 0.244141 0.244141 0.244141 0.244141 0.244141 0.244141 0.244141 0.244141 0.244141 0.244141 0.244141 0.244141 0.244141 0.244141 0.244141 0.244141 0.244141 0.244141 0.244141 0.244141 0.244141 0.244141 0.244141 0.244141 0.244141 0.244141 0.244141 0.244141 0.24414 0.244141 0.244141 0.244141 0.244141 0.244141 0.244141 0.244141 0.244141 0.24414 0.244141 0.122071 0.12207 0.244141 0.244141 0.244141 0.244141 0.244141 0.244141 0.244141 0.244141 0.244141 0.244141 0.244141 0.244141 0.244141 0.244141 0.244141 0.244141 0.244141 0.244141 0.244141 0.244141 0.244141 0.244141 0.244141 0.244141 0.244141 0.244141 0.244141 0.244141 0.244141 0.244141 0.244141 0.244141 0.244141 0.244141 0.244141 0.244141 0.244141 0.244141 0.244141 0.244141 0.244141 0.244141 0.244141 0.244141 0.244141 0.244141 0.244141 0.244141 0.244141 0.244141 0.244141 0.244141 0.24414 0.244141 0.244141 0.244141 0.244141 0.244141 0.244141 0.244141 0.244141 0.24414 0.244141 0.122071 0.12207 0.244141 0.244141 0.244141 0.244141 0.244141 0.244141 0.244141 0.244141 0.244141 0.244141 0.244141 0.244141 0.244141 0.244141 0.244141 0.244141 0.244141 0.244141 0.244141 0.244141 0.244141 0.244141 0.244141 0.244141 0.244141 0.244141 0.244141 0.244141 0.24414 0.244141 0.244141 0.244141 0.244141 0.244141 0.244141 0.244141 0.244141 0.24414 0.244141 0.244141 0.244141 0.244141 0.244141 0.244141 0.244141 0.244141 0.244141 0.244141 0.244141 0.244141 0.244141 0.244141 0.24414 0.244141 0.244141 0.244141 0.24414 0.244141 0.244141 0.244141 0.244141 0.24414 0.244141 0.122071 0.12207 0.244141 0.244141 0.244141 0.244141 0.244141 0.244141 0.244141 0.244141 0.244141 0.244141 0.244141 0.244141 0.244141 0.244141 0.244141 0.244141 0.244141 0.244141 0.244141 0.244141 0.244141 0.244141 0.244141 0.244141 0.244141 0.244141 0.244141 0.244141 0.244141 0.244141 0.244141 0.244141 0.244141 0.244141 0.244141 0.244141 0.244141 0.244141 0.244141 0.244141 0.244141 0.244141 0.244141 0.244141 0.244141 0.244141 0.244141 0.244141 0.244141 0.244141 0.244141 0.244141 0.24414 0.244141 0.244141 0.244141 0.24414 0.244141 0.244141 0.244141 0.244141 0.24414 0.244141 0.122071 0.0610352 0.12207 0.12207 0.12207 0.12207 0.12207 0.12207 0.12207 0.12207 0.12207 0.12207 0.12207 0.12207 0.12207 0.12207 0.12207 0.12207 0.12207 0.12207 0.12207 0.12207 0.12207 0.12207 0.12207 0.12207 0.12207 0.12207 0.12207 0.12207 0.12207 0.12207 0.12207 0.12207 0.12207 0.12207 0.12207 0.12207 0.12207 0.12207 0.12207 0.12207 0.12207 0.12207 0.12207 0.12207 0.12207 0.12207 0.12207 0.12207 0.12207 0.12207 0.12207 0.12207 0.12207 0.12207 0.122071 0.12207 0.12207 0.12207 0.122071 0.12207 0.12207 0.12207 0.12207 0.0610353 0.0610352 0.12207 0.12207 0.12207 0.12207 0.12207 0.12207 0.12207 0.12207 0.12207 0.12207 0.12207 0.12207 0.122071 0.12207 0.12207 0.12207 0.12207 0.12207 0.12207 0.122071 0.122071 0.12207 0.12207 0.122071 0.122071 0.12207 0.12207 0.12207 0.12207 0.12207 0.12207 0.122071 0.12207 0.12207 0.12207 0.12207 0.12207 0.12207 0.12207 0.12207 0.122071 0.12207 0.12207 0.12207 0.12207 0.12207 0.12207 0.122071 0.122071 0.12207 0.122071 0.12207 0.12207 0.122071 0.122071 0.122071 0.12207 0.122071 0.122071 0.122071 0.12207 0.12207 0.122071 0.0610353 0.12207 0.244141 0.244141 0.244141 0.244141 0.244141 0.244141 0.244141 0.244141 0.244141 0.244141 0.244141 0.244141 0.244141 0.244141 0.244141 0.244141 0.244141 0.244141 0.244141 0.244141 0.244141 0.244141 0.244141 0.244141 0.244141 0.244141 0.244141 0.244141 0.244141 0.244141 0.244141 0.244141 0.244141 0.244141 0.244141 0.244141 0.244141 0.244141 0.244141 0.244141 0.244141 0.244141 0.244141 0.244141 0.244141 0.244141 0.244141 0.244141 0.244141 0.244141 0.244141 0.244141 0.244141 0.244141 0.244141 0.244141 0.244141 0.244141 0.244141 0.244141 0.244141 0.244141 0.244141 0.122071 0.12207 0.244141 0.244141 0.244141 0.244141 0.244141 0.244141 0.244141 0.244141 0.244141 0.244141 0.244141 0.244141 0.244141 0.244141 0.244141 0.244141 0.244141 0.244141 0.244141 0.244141 0.244141 0.244141 0.244141 0.244141 0.244141 0.244141 0.244141 0.244141 0.244141 0.244141 0.244141 0.244141 0.244141 0.244141 0.244141 0.244141 0.244141 0.244141 0.244141 0.244141 0.244141 0.244141 0.244141 0.244141 0.244141 0.244141 0.244141 0.244141 0.244141 0.244141 0.244141 0.244141 0.244141 0.244141 0.244141 0.244141 0.244141 0.244141 0.244141 0.244141 0.244141 0.244141 0.244141 0.122071 0.12207 0.244141 0.244141 0.244141 0.244141 0.244141 0.244141 0.244141 0.244141 0.244141 0.244141 0.244141 0.244141 0.244141 0.244141 0.244141 0.244141 0.244141 0.244141 0.244141 0.244141 0.244141 0.244141 0.244141 0.244141 0.244141 0.244141 0.244141 0.244141 0.244141 0.244141 0.244141 0.244141 0.244141 0.244141 0.244141 0.244141 0.244141 0.244141 0.244141 0.244141 0.244141 0.244141 0.244141 0.244141 0.244141 0.244141 0.244141 0.244141 0.244141 0.244141 0.244141 0.244141 0.244141 0.244141 0.244141 0.244141 0.244141 0.244141 0.244141 0.244141 0.244141 0.244141 0.244141 0.122071 0.12207 0.244141 0.244141 0.244141 0.244141 0.244141 0.244141 0.244141 0.244141 0.244141 0.244141 0.244141 0.244141 0.244141 0.244141 0.244141 0.244141 0.244141 0.244141 0.244141 0.244141 0.244141 0.244141 0.244141 0.244141 0.244141 0.244141 0.244141 0.244141 0.244141 0.244141 0.244141 0.244141 0.244141 0.244141 0.244141 0.244141 0.244141 0.244141 0.244141 0.244141 0.244141 0.244141 0.244141 0.244141 0.244141 0.244141 0.244141 0.244141 0.244141 0.244141 0.244141 0.244141 0.244141 0.244141 0.244141 0.244141 0.244141 0.244141 0.244141 0.244141 0.244141 0.244141 0.244141 0.122071 0.12207 0.244141 0.244141 0.244141 0.244141 0.244141 0.244141 0.244141 0.244141 0.244141 0.244141 0.244141 0.244141 0.244141 0.244141 0.244141 0.244141 0.244141 0.244141 0.244141 0.244141 0.244141 0.244141 0.244141 0.244141 0.244141 0.244141 0.244141 0.244141 0.244141 0.244141 0.244141 0.244141 0.244141 0.244141 0.244141 0.244141 0.244141 0.244141 0.244141 0.244141 0.244141 0.244141 0.244141 0.244141 0.244141 0.244141 0.244141 0.244141 0.244141 0.244141 0.244141 0.244141 0.244141 0.244141 0.244141 0.244141 0.244141 0.244141 0.244141 0.244141 0.244141 0.244141 0.244141 0.122071 0.12207 0.244141 0.244141 0.244141 0.244141 0.244141 0.244141 0.244141 0.244141 0.244141 0.244141 0.244141 0.244141 0.244141 0.244141 0.244141 0.244141 0.244141 0.244141 0.244141 0.244141 0.244141 0.244141 0.244141 0.244141 0.244141 0.244141 0.244141 0.244141 0.244141 0.244141 0.244141 0.244141 0.244141 0.244141 0.244141 0.244141 0.244141 0.244141 0.244141 0.244141 0.244141 0.244141 0.244141 0.244141 0.244141 0.244141 0.244141 0.244141 0.244141 0.244141 0.244141 0.244141 0.244141 0.244141 0.244141 0.244141 0.244141 0.244141 0.244141 0.244141 0.244141 0.244141 0.244141 0.122071 0.12207 0.244141 0.244141 0.244141 0.244141 0.244141 0.244141 0.244141 0.244141 0.244141 0.244141 0.244141 0.244141 0.244141 0.244141 0.244141 0.244141 0.244141 0.244141 0.244141 0.244141 0.244141 0.244141 0.244141 0.244141 0.244141 0.244141 0.244141 0.244141 0.244141 0.244141 0.244141 0.244141 0.244141 0.244141 0.244141 0.244141 0.244141 0.244141 0.244141 0.244141 0.244141 0.244141 0.244141 0.244141 0.244141 0.244141 0.244141 0.244141 0.244141 0.244141 0.244141 0.244141 0.244141 0.244141 0.244141 0.244141 0.244141 0.244141 0.244141 0.244141 0.244141 0.244141 0.244141 0.122071 0.12207 0.244141 0.244141 0.244141 0.244141 0.244141 0.244141 0.244141 0.244141 0.244141 0.244141 0.244141 0.244141 0.244141 0.244141 0.244141 0.244141 0.244141 0.244141 0.244141 0.244141 0.244141 0.244141 0.244141 0.244141 0.244141 0.244141 0.244141 0.244141 0.244141 0.244141 0.244141 0.244141 0.244141 0.244141 0.244141 0.244141 0.244141 0.244141 0.244141 0.244141 0.244141 0.244141 0.244141 0.244141 0.244141 0.244141 0.244141 0.244141 0.244141 0.244141 0.244141 0.244141 0.244141 0.244141 0.244141 0.244141 0.244141 0.244141 0.244141 0.244141 0.244141 0.244141 0.244141 0.122071 0.12207 0.244141 0.244141 0.244141 0.244141 0.244141 0.244141 0.244141 0.244141 0.244141 0.244141 0.244141 0.244141 0.244141 0.244141 0.244141 0.244141 0.244141 0.244141 0.244141 0.244141 0.244141 0.244141 0.244141 0.244141 0.244141 0.244141 0.244141 0.244141 0.244141 0.244141 0.244141 0.244141 0.244141 0.244141 0.244141 0.244141 0.244141 0.244141 0.244141 0.244141 0.244141 0.244141 0.244141 0.244141 0.244141 0.244141 0.244141 0.244141 0.244141 0.244141 0.244141 0.244141 0.244141 0.244141 0.244141 0.244141 0.244141 0.244141 0.244141 0.244141 0.244141 0.244141 0.244141 0.122071 0.12207 0.244141 0.244141 0.244141 0.244141 0.244141 0.244141 0.244141 0.244141 0.244141 0.244141 0.244141 0.244141 0.244141 0.244141 0.244141 0.244141 0.244141 0.244141 0.244141 0.244141 0.244141 0.244141 0.244141 0.244141 0.244141 0.244141 0.244141 0.244141 0.244141 0.244141 0.244141 0.244141 0.244141 0.244141 0.244141 0.244141 0.244141 0.244141 0.244141 0.244141 0.244141 0.244141 0.244141 0.244141 0.244141 0.244141 0.244141 0.244141 0.244141 0.244141 0.244141 0.244141 0.244141 0.244141 0.244141 0.244141 0.244141 0.244141 0.244141 0.244141 0.244141 0.244141 0.244141 0.122071 0.12207 0.244141 0.244141 0.244141 0.244141 0.244141 0.244141 0.244141 0.244141 0.244141 0.244141 0.244141 0.244141 0.244141 0.244141 0.244141 0.244141 0.244141 0.244141 0.244141 0.244141 0.244141 0.244141 0.244141 0.244141 0.244141 0.244141 0.244141 0.244141 0.244141 0.244141 0.244141 0.244141 0.244141 0.244141 0.244141 0.244141 0.244141 0.244141 0.244141 0.244141 0.244141 0.244141 0.244141 0.244141 0.244141 0.244141 0.244141 0.244141 0.244141 0.244141 0.244141 0.244141 0.244141 0.244141 0.244141 0.244141 0.244141 0.244141 0.244141 0.244141 0.244141 0.244141 0.244141 0.122071 0.122071 0.244141 0.244141 0.244141 0.244141 0.244141 0.244141 0.244141 0.244141 0.244141 0.244141 0.244141 0.244141 0.244141 0.244141 0.244141 0.244141 0.244141 0.244141 0.244141 0.244141 0.244141 0.244141 0.244141 0.244141 0.244141 0.244141 0.244141 0.244141 0.244141 0.244141 0.244141 0.244141 0.244141 0.244141 0.244141 0.244141 0.244141 0.244141 0.244141 0.244141 0.244141 0.244141 0.244141 0.244141 0.244141 0.244141 0.244141 0.244141 0.244141 0.244141 0.244141 0.244141 0.244141 0.244141 0.244141 0.244141 0.244141 0.244141 0.244141 0.244141 0.244141 0.244141 0.244141 0.122071 0.12207 0.244141 0.244141 0.244141 0.244141 0.244141 0.244141 0.244141 0.244141 0.244141 0.244141 0.244141 0.244141 0.244141 0.244141 0.244141 0.244141 0.244141 0.244141 0.244141 0.244141 0.244141 0.244141 0.244141 0.244141 0.244141 0.244141 0.244141 0.244141 0.244141 0.244141 0.244141 0.244141 0.244141 0.244141 0.244141 0.244141 0.244141 0.244141 0.244141 0.244141 0.244141 0.244141 0.244141 0.244141 0.244141 0.244141 0.244141 0.244141 0.244141 0.244141 0.244141 0.244141 0.244141 0.244141 0.244141 0.244141 0.244141 0.244141 0.244141 0.244141 0.244141 0.244141 0.244141 0.122071 0.12207 0.244141 0.244141 0.244141 0.244141 0.244141 0.244141 0.244141 0.244141 0.244141 0.244141 0.244141 0.244141 0.244141 0.244141 0.244141 0.244141 0.244141 0.244141 0.244141 0.244141 0.244141 0.244141 0.244141 0.244141 0.244141 0.244141 0.244141 0.244141 0.244141 0.244141 0.244141 0.244141 0.244141 0.244141 0.244141 0.244141 0.244141 0.244141 0.244141 0.244141 0.244141 0.244141 0.244141 0.244141 0.244141 0.244141 0.244141 0.244141 0.244141 0.244141 0.244141 0.244141 0.244141 0.244141 0.244141 0.244141 0.244141 0.244141 0.244141 0.244141 0.244141 0.244141 0.244141 0.122071 0.12207 0.244141 0.244141 0.244141 0.244141 0.244141 0.244141 0.244141 0.244141 0.244141 0.244141 0.244141 0.244141 0.244141 0.244141 0.244141 0.244141 0.244141 0.244141 0.244141 0.244141 0.244141 0.244141 0.244141 0.244141 0.244141 0.244141 0.244141 0.244141 0.244141 0.244141 0.244141 0.244141 0.244141 0.244141 0.244141 0.244141 0.244141 0.244141 0.244141 0.244141 0.244141 0.244141 0.244141 0.244141 0.244141 0.244141 0.244141 0.244141 0.244141 0.244141 0.244141 0.244141 0.244141 0.244141 0.244141 0.244141 0.244141 0.244141 0.244141 0.244141 0.244141 0.244141 0.244141 0.122071 0.0610352 0.12207 0.12207 0.12207 0.12207 0.12207 0.12207 0.12207 0.12207 0.12207 0.12207 0.12207 0.12207 0.122071 0.12207 0.12207 0.12207 0.12207 0.12207 0.12207 0.12207 0.12207 0.12207 0.12207 0.12207 0.122071 0.12207 0.12207 0.12207 0.12207 0.12207 0.12207 0.12207 0.12207 0.12207 0.12207 0.12207 0.12207 0.12207 0.12207 0.12207 0.12207 0.12207 0.12207 0.12207 0.12207 0.12207 0.12207 0.122071 0.122071 0.12207 0.122071 0.12207 0.12207 0.122071 0.122071 0.122071 0.12207 0.122071 0.122071 0.122071 0.12207 0.12207 0.122071 0.0610353 0.0610351 0.12207 0.12207 0.12207 0.12207 0.12207 0.12207 0.12207 0.12207 0.12207 0.12207 0.12207 0.12207 0.12207 0.12207 0.12207 0.12207 0.12207 0.12207 0.12207 0.12207 0.12207 0.12207 0.12207 0.12207 0.12207 0.12207 0.12207 0.12207 0.12207 0.12207 0.12207 0.12207 0.12207 0.12207 0.12207 0.12207 0.12207 0.12207 0.12207 0.12207 0.12207 0.12207 0.12207 0.12207 0.12207 0.12207 0.12207 0.12207 0.12207 0.12207 0.12207 0.12207 0.12207 0.12207 0.12207 0.12207 0.12207 0.12207 0.12207 0.12207 0.12207 0.12207 0.12207 0.0610352 0.12207 0.244141 0.244141 0.244141 0.244141 0.244141 0.244141 0.244141 0.24414 0.24414 0.244141 0.24414 0.244141 0.244141 0.24414 0.24414 0.244141 0.24414 0.24414 0.244141 0.244141 0.244141 0.244141 0.24414 0.244141 0.244141 0.24414 0.244141 0.244141 0.24414 0.24414 0.24414 0.244141 0.24414 0.24414 0.24414 0.244141 0.244141 0.24414 0.24414 0.24414 0.244141 0.24414 0.24414 0.24414 0.244141 0.244141 0.24414 0.244141 0.244141 0.24414 0.244141 0.24414 0.24414 0.244141 0.244141 0.244141 0.24414 0.244141 0.244141 0.244141 0.24414 0.24414 0.244141 0.12207 0.12207 0.244141 0.244141 0.244141 0.244141 0.244141 0.244141 0.24414 0.24414 0.24414 0.244141 0.24414 0.244141 0.244141 0.24414 0.24414 0.244141 0.24414 0.24414 0.244141 0.244141 0.244141 0.244141 0.24414 0.244141 0.244141 0.24414 0.24414 0.24414 0.24414 0.24414 0.24414 0.244141 0.24414 0.24414 0.24414 0.24414 0.24414 0.24414 0.24414 0.24414 0.244141 0.24414 0.24414 0.24414 0.244141 0.244141 0.24414 0.244141 0.244141 0.24414 0.244141 0.24414 0.24414 0.244141 0.244141 0.244141 0.24414 0.244141 0.244141 0.244141 0.24414 0.24414 0.244141 0.12207 0.12207 0.244141 0.244141 0.244141 0.244141 0.244141 0.244141 0.24414 0.24414 0.24414 0.244141 0.24414 0.244141 0.244141 0.24414 0.24414 0.24414 0.24414 0.24414 0.24414 0.244141 0.244141 0.244141 0.24414 0.244141 0.244141 0.24414 0.244141 0.24414 0.24414 0.24414 0.24414 0.244141 0.24414 0.24414 0.24414 0.244141 0.24414 0.24414 0.24414 0.24414 0.244141 0.24414 0.24414 0.24414 0.244141 0.244141 0.24414 0.244141 0.244141 0.24414 0.244141 0.24414 0.24414 0.244141 0.244141 0.244141 0.24414 0.244141 0.244141 0.244141 0.24414 0.24414 0.244141 0.12207 0.12207 0.244141 0.244141 0.244141 0.244141 0.244141 0.244141 0.244141 0.24414 0.24414 0.244141 0.24414 0.244141 0.244141 0.24414 0.24414 0.244141 0.24414 0.24414 0.24414 0.244141 0.244141 0.244141 0.24414 0.244141 0.244141 0.24414 0.24414 0.24414 0.24414 0.24414 0.24414 0.244141 0.24414 0.24414 0.24414 0.24414 0.24414 0.24414 0.24414 0.24414 0.244141 0.24414 0.24414 0.24414 0.244141 0.244141 0.24414 0.244141 0.244141 0.24414 0.244141 0.24414 0.24414 0.244141 0.244141 0.244141 0.24414 0.244141 0.244141 0.244141 0.24414 0.24414 0.244141 0.12207 0.12207 0.244141 0.244141 0.244141 0.244141 0.244141 0.244141 0.24414 0.24414 0.24414 0.244141 0.24414 0.244141 0.244141 0.24414 0.24414 0.244141 0.24414 0.24414 0.24414 0.244141 0.244141 0.244141 0.24414 0.244141 0.244141 0.24414 0.24414 0.24414 0.24414 0.24414 0.24414 0.244141 0.24414 0.24414 0.24414 0.24414 0.24414 0.24414 0.24414 0.24414 0.244141 0.24414 0.24414 0.24414 0.244141 0.244141 0.24414 0.244141 0.244141 0.24414 0.244141 0.24414 0.24414 0.244141 0.244141 0.244141 0.24414 0.244141 0.244141 0.244141 0.24414 0.24414 0.244141 0.12207 0.12207 0.244141 0.244141 0.244141 0.244141 0.244141 0.244141 0.244141 0.24414 0.24414 0.244141 0.244141 0.244141 0.244141 0.24414 0.24414 0.244141 0.24414 0.24414 0.244141 0.244141 0.244141 0.244141 0.24414 0.244141 0.244141 0.24414 0.244141 0.244141 0.24414 0.244141 0.24414 0.244141 0.24414 0.24414 0.24414 0.244141 0.244141 0.24414 0.244141 0.244141 0.244141 0.24414 0.24414 0.24414 0.244141 0.244141 0.24414 0.244141 0.244141 0.24414 0.244141 0.24414 0.24414 0.244141 0.244141 0.244141 0.24414 0.244141 0.244141 0.244141 0.24414 0.24414 0.244141 0.12207 0.12207 0.244141 0.244141 0.244141 0.244141 0.244141 0.244141 0.244141 0.24414 0.24414 0.244141 0.24414 0.244141 0.244141 0.24414 0.24414 0.244141 0.24414 0.24414 0.244141 0.244141 0.244141 0.244141 0.24414 0.244141 0.244141 0.24414 0.24414 0.244141 0.24414 0.24414 0.24414 0.244141 0.24414 0.24414 0.24414 0.24414 0.244141 0.24414 0.24414 0.24414 0.244141 0.24414 0.24414 0.24414 0.244141 0.244141 0.24414 0.244141 0.244141 0.24414 0.244141 0.24414 0.24414 0.244141 0.244141 0.244141 0.24414 0.244141 0.244141 0.244141 0.24414 0.24414 0.244141 0.12207 0.12207 0.24414 0.24414 0.24414 0.24414 0.24414 0.24414 0.24414 0.24414 0.24414 0.24414 0.24414 0.24414 0.24414 0.24414 0.24414 0.24414 0.24414 0.24414 0.24414 0.24414 0.24414 0.24414 0.24414 0.244141 0.244141 0.24414 0.24414 0.24414 0.24414 0.24414 0.24414 0.24414 0.24414 0.24414 0.24414 0.24414 0.24414 0.24414 0.24414 0.24414 0.244141 0.24414 0.24414 0.24414 0.24414 0.24414 0.24414 0.244141 0.244141 0.24414 0.244141 0.24414 0.24414 0.24414 0.244141 0.244141 0.24414 0.244141 0.244141 0.244141 0.24414 0.24414 0.24414 0.12207 0.12207 0.24414 0.24414 0.24414 0.24414 0.24414 0.24414 0.24414 0.24414 0.24414 0.24414 0.24414 0.24414 0.244141 0.24414 0.24414 0.24414 0.24414 0.24414 0.24414 0.24414 0.24414 0.24414 0.24414 0.244141 0.244141 0.24414 0.24414 0.24414 0.24414 0.24414 0.24414 0.24414 0.24414 0.24414 0.24414 0.24414 0.24414 0.24414 0.24414 0.24414 0.244141 0.24414 0.24414 0.24414 0.24414 0.24414 0.24414 0.244141 0.244141 0.24414 0.244141 0.24414 0.24414 0.24414 0.244141 0.244141 0.24414 0.244141 0.244141 0.244141 0.24414 0.24414 0.24414 0.12207 0.12207 0.24414 0.24414 0.24414 0.24414 0.24414 0.244141 0.24414 0.24414 0.24414 0.244141 0.24414 0.244141 0.244141 0.24414 0.24414 0.24414 0.24414 0.24414 0.24414 0.244141 0.244141 0.24414 0.24414 0.244141 0.244141 0.24414 0.24414 0.24414 0.24414 0.24414 0.24414 0.244141 0.24414 0.24414 0.24414 0.24414 0.24414 0.24414 0.24414 0.24414 0.244141 0.24414 0.24414 0.24414 0.24414 0.24414 0.24414 0.244141 0.244141 0.24414 0.244141 0.24414 0.24414 0.244141 0.244141 0.244141 0.24414 0.244141 0.244141 0.244141 0.24414 0.24414 0.244141 0.12207 0.12207 0.244141 0.24414 0.24414 0.24414 0.24414 0.244141 0.24414 0.24414 0.24414 0.244141 0.24414 0.244141 0.244141 0.24414 0.24414 0.24414 0.24414 0.24414 0.244141 0.244141 0.244141 0.244141 0.24414 0.244141 0.244141 0.24414 0.24414 0.24414 0.24414 0.24414 0.24414 0.244141 0.24414 0.24414 0.24414 0.24414 0.24414 0.24414 0.24414 0.24414 0.244141 0.24414 0.24414 0.24414 0.24414 0.244141 0.24414 0.244141 0.244141 0.24414 0.244141 0.24414 0.24414 0.244141 0.244141 0.244141 0.24414 0.244141 0.244141 0.244141 0.24414 0.24414 0.244141 0.12207 0.12207 0.244141 0.244141 0.244141 0.244141 0.244141 0.244141 0.244141 0.244141 0.244141 0.244141 0.244141 0.244141 0.244141 0.244141 0.244141 0.244141 0.24414 0.24414 0.244141 0.244141 0.244141 0.244141 0.244141 0.244141 0.244141 0.24414 0.244141 0.244141 0.24414 0.244141 0.244141 0.244141 0.244141 0.244141 0.24414 0.244141 0.244141 0.24414 0.244141 0.244141 0.244141 0.244141 0.244141 0.24414 0.244141 0.244141 0.24414 0.244141 0.244141 0.244141 0.244141 0.24414 0.24414 0.244141 0.244141 0.244141 0.24414 0.244141 0.244141 0.244141 0.244141 0.24414 0.244141 0.12207 0.12207 0.244141 0.244141 0.244141 0.244141 0.244141 0.244141 0.244141 0.244141 0.244141 0.244141 0.24414 0.244141 0.244141 0.24414 0.24414 0.244141 0.24414 0.24414 0.244141 0.244141 0.244141 0.244141 0.24414 0.244141 0.244141 0.24414 0.244141 0.244141 0.24414 0.24414 0.24414 0.244141 0.24414 0.24414 0.24414 0.244141 0.244141 0.24414 0.244141 0.244141 0.244141 0.24414 0.24414 0.24414 0.244141 0.244141 0.24414 0.244141 0.244141 0.244141 0.244141 0.24414 0.24414 0.244141 0.244141 0.244141 0.24414 0.244141 0.244141 0.244141 0.24414 0.24414 0.244141 0.12207 0.12207 0.24414 0.24414 0.24414 0.24414 0.24414 0.24414 0.24414 0.24414 0.24414 0.24414 0.24414 0.24414 0.24414 0.24414 0.24414 0.24414 0.24414 0.24414 0.24414 0.24414 0.24414 0.24414 0.24414 0.24414 0.244141 0.24414 0.24414 0.24414 0.24414 0.24414 0.24414 0.24414 0.24414 0.24414 0.24414 0.24414 0.24414 0.24414 0.24414 0.24414 0.24414 0.24414 0.24414 0.24414 0.24414 0.24414 0.24414 0.244141 0.244141 0.24414 0.244141 0.24414 0.24414 0.24414 0.244141 0.244141 0.24414 0.244141 0.244141 0.244141 0.24414 0.24414 0.24414 0.12207 0.12207 0.24414 0.24414 0.24414 0.24414 0.24414 0.24414 0.24414 0.24414 0.24414 0.24414 0.24414 0.24414 0.244141 0.24414 0.24414 0.24414 0.24414 0.24414 0.24414 0.24414 0.24414 0.24414 0.24414 0.244141 0.244141 0.24414 0.24414 0.24414 0.24414 0.24414 0.24414 0.244141 0.24414 0.24414 0.24414 0.24414 0.24414 0.24414 0.24414 0.24414 0.244141 0.24414 0.24414 0.24414 0.24414 0.24414 0.24414 0.244141 0.244141 0.24414 0.244141 0.24414 0.24414 0.244141 0.244141 0.244141 0.24414 0.244141 0.244141 0.244141 0.24414 0.24414 0.244141 0.12207 0.0610351 0.12207 0.12207 0.12207 0.12207 0.12207 0.12207 0.12207 0.12207 0.12207 0.12207 0.12207 0.12207 0.12207 0.12207 0.12207 0.12207 0.12207 0.12207 0.12207 0.12207 0.12207 0.12207 0.12207 0.12207 0.12207 0.12207 0.12207 0.12207 0.12207 0.12207 0.12207 0.12207 0.12207 0.12207 0.12207 0.12207 0.12207 0.12207 0.12207 0.12207 0.12207 0.12207 0.12207 0.12207 0.12207 0.12207 0.12207 0.12207 0.12207 0.12207 0.12207 0.12207 0.12207 0.12207 0.12207 0.12207 0.12207 0.12207 0.12207 0.12207 0.12207 0.12207 0.12207 0.0610352 0.061035 0.12207 0.12207 0.12207 0.12207 0.12207 0.12207 0.12207 0.12207 0.12207 0.12207 0.12207 0.12207 0.12207 0.12207 0.12207 0.12207 0.12207 0.12207 0.12207 0.12207 0.12207 0.12207 0.12207 0.12207 0.12207 0.12207 0.12207 0.12207 0.12207 0.12207 0.12207 0.12207 0.12207 0.12207 0.12207 0.12207 0.12207 0.12207 0.12207 0.12207 0.12207 0.12207 0.12207 0.12207 0.12207 0.12207 0.12207 0.12207 0.12207 0.12207 0.12207 0.12207 0.12207 0.12207 0.12207 0.12207 0.12207 0.12207 0.12207 0.12207 0.12207 0.12207 0.12207 0.0610351 0.12207 0.24414 0.24414 0.24414 0.24414 0.24414 0.24414 0.24414 0.24414 0.24414 0.24414 0.24414 0.24414 0.24414 0.24414 0.24414 0.24414 0.24414 0.24414 0.24414 0.24414 0.24414 0.24414 0.24414 0.24414 0.24414 0.24414 0.24414 0.24414 0.24414 0.24414 0.24414 0.24414 0.24414 0.24414 0.24414 0.24414 0.24414 0.24414 0.24414 0.24414 0.24414 0.24414 0.24414 0.24414 0.24414 0.24414 0.24414 0.24414 0.24414 0.24414 0.24414 0.24414 0.24414 0.24414 0.244141 0.24414 0.24414 0.24414 0.24414 0.24414 0.24414 0.24414 0.24414 0.12207 0.12207 0.24414 0.24414 0.24414 0.24414 0.24414 0.24414 0.24414 0.24414 0.24414 0.24414 0.24414 0.24414 0.24414 0.24414 0.24414 0.24414 0.24414 0.24414 0.24414 0.24414 0.24414 0.24414 0.24414 0.24414 0.24414 0.24414 0.24414 0.24414 0.24414 0.24414 0.24414 0.24414 0.24414 0.24414 0.24414 0.24414 0.24414 0.24414 0.24414 0.24414 0.24414 0.24414 0.24414 0.24414 0.24414 0.24414 0.24414 0.24414 0.24414 0.24414 0.24414 0.24414 0.24414 0.24414 0.244141 0.24414 0.24414 0.24414 0.24414 0.24414 0.24414 0.24414 0.24414 0.12207 0.12207 0.24414 0.24414 0.24414 0.24414 0.24414 0.24414 0.24414 0.24414 0.24414 0.24414 0.24414 0.24414 0.24414 0.24414 0.24414 0.24414 0.24414 0.24414 0.24414 0.24414 0.24414 0.24414 0.24414 0.24414 0.24414 0.24414 0.24414 0.24414 0.24414 0.24414 0.24414 0.24414 0.24414 0.24414 0.24414 0.24414 0.24414 0.24414 0.24414 0.24414 0.24414 0.24414 0.24414 0.24414 0.24414 0.24414 0.24414 0.24414 0.24414 0.24414 0.24414 0.24414 0.24414 0.24414 0.244141 0.24414 0.24414 0.24414 0.24414 0.24414 0.24414 0.24414 0.24414 0.12207 0.12207 0.24414 0.24414 0.24414 0.24414 0.24414 0.24414 0.24414 0.24414 0.24414 0.24414 0.24414 0.24414 0.24414 0.24414 0.24414 0.24414 0.24414 0.24414 0.24414 0.24414 0.24414 0.24414 0.24414 0.24414 0.24414 0.24414 0.24414 0.24414 0.24414 0.24414 0.24414 0.24414 0.24414 0.24414 0.24414 0.24414 0.24414 0.24414 0.24414 0.24414 0.24414 0.24414 0.24414 0.24414 0.24414 0.24414 0.24414 0.24414 0.24414 0.24414 0.24414 0.24414 0.24414 0.24414 0.244141 0.24414 0.24414 0.24414 0.24414 0.24414 0.24414 0.24414 0.24414 0.12207 0.12207 0.24414 0.24414 0.24414 0.24414 0.24414 0.24414 0.24414 0.24414 0.24414 0.24414 0.24414 0.24414 0.24414 0.24414 0.24414 0.24414 0.24414 0.24414 0.24414 0.24414 0.24414 0.24414 0.24414 0.24414 0.24414 0.24414 0.24414 0.24414 0.24414 0.24414 0.24414 0.24414 0.24414 0.24414 0.24414 0.24414 0.24414 0.24414 0.24414 0.24414 0.24414 0.24414 0.24414 0.24414 0.24414 0.24414 0.24414 0.24414 0.24414 0.24414 0.24414 0.24414 0.24414 0.24414 0.244141 0.24414 0.24414 0.24414 0.24414 0.24414 0.24414 0.24414 0.24414 0.12207 0.12207 0.24414 0.24414 0.24414 0.24414 0.24414 0.24414 0.24414 0.24414 0.24414 0.24414 0.24414 0.24414 0.24414 0.24414 0.24414 0.24414 0.24414 0.24414 0.24414 0.24414 0.24414 0.24414 0.24414 0.24414 0.24414 0.24414 0.24414 0.24414 0.24414 0.24414 0.24414 0.24414 0.24414 0.24414 0.24414 0.24414 0.24414 0.24414 0.24414 0.24414 0.24414 0.24414 0.24414 0.24414 0.24414 0.24414 0.24414 0.24414 0.24414 0.24414 0.24414 0.24414 0.24414 0.24414 0.244141 0.24414 0.24414 0.24414 0.24414 0.24414 0.24414 0.24414 0.24414 0.12207 0.12207 0.24414 0.24414 0.24414 0.24414 0.24414 0.24414 0.24414 0.24414 0.24414 0.24414 0.24414 0.24414 0.24414 0.24414 0.24414 0.24414 0.24414 0.24414 0.24414 0.24414 0.24414 0.24414 0.24414 0.24414 0.24414 0.24414 0.24414 0.24414 0.24414 0.24414 0.24414 0.24414 0.24414 0.24414 0.24414 0.24414 0.24414 0.24414 0.24414 0.24414 0.24414 0.24414 0.24414 0.24414 0.24414 0.24414 0.24414 0.24414 0.24414 0.24414 0.24414 0.24414 0.24414 0.24414 0.244141 0.24414 0.24414 0.24414 0.24414 0.24414 0.24414 0.24414 0.24414 0.12207 0.12207 0.24414 0.24414 0.24414 0.24414 0.24414 0.24414 0.24414 0.24414 0.24414 0.24414 0.24414 0.24414 0.24414 0.24414 0.24414 0.24414 0.24414 0.24414 0.24414 0.24414 0.24414 0.24414 0.24414 0.24414 0.24414 0.24414 0.24414 0.24414 0.24414 0.24414 0.24414 0.24414 0.24414 0.24414 0.24414 0.24414 0.24414 0.24414 0.24414 0.24414 0.24414 0.24414 0.24414 0.24414 0.24414 0.24414 0.24414 0.24414 0.24414 0.24414 0.24414 0.24414 0.24414 0.24414 0.24414 0.24414 0.24414 0.24414 0.24414 0.24414 0.24414 0.24414 0.24414 0.12207 0.12207 0.24414 0.24414 0.24414 0.24414 0.24414 0.24414 0.24414 0.24414 0.24414 0.24414 0.24414 0.24414 0.24414 0.24414 0.24414 0.24414 0.24414 0.24414 0.24414 0.24414 0.24414 0.24414 0.24414 0.24414 0.24414 0.24414 0.24414 0.24414 0.24414 0.24414 0.24414 0.24414 0.24414 0.24414 0.24414 0.24414 0.24414 0.24414 0.24414 0.24414 0.24414 0.24414 0.24414 0.24414 0.24414 0.24414 0.24414 0.24414 0.24414 0.24414 0.24414 0.24414 0.24414 0.24414 0.24414 0.24414 0.24414 0.24414 0.24414 0.24414 0.24414 0.24414 0.24414 0.12207 0.12207 0.24414 0.24414 0.24414 0.24414 0.24414 0.24414 0.24414 0.24414 0.24414 0.24414 0.24414 0.24414 0.24414 0.24414 0.24414 0.24414 0.24414 0.24414 0.24414 0.24414 0.24414 0.24414 0.24414 0.24414 0.24414 0.24414 0.24414 0.24414 0.24414 0.24414 0.24414 0.24414 0.24414 0.24414 0.24414 0.24414 0.24414 0.24414 0.24414 0.24414 0.24414 0.24414 0.24414 0.24414 0.24414 0.24414 0.24414 0.24414 0.24414 0.24414 0.24414 0.24414 0.24414 0.24414 0.244141 0.24414 0.24414 0.24414 0.24414 0.24414 0.24414 0.24414 0.24414 0.12207 0.12207 0.24414 0.24414 0.24414 0.24414 0.24414 0.24414 0.24414 0.24414 0.24414 0.24414 0.24414 0.24414 0.24414 0.24414 0.24414 0.24414 0.24414 0.24414 0.24414 0.24414 0.24414 0.24414 0.24414 0.24414 0.24414 0.24414 0.24414 0.24414 0.24414 0.24414 0.24414 0.24414 0.24414 0.24414 0.24414 0.24414 0.24414 0.24414 0.24414 0.24414 0.24414 0.24414 0.24414 0.24414 0.24414 0.24414 0.24414 0.24414 0.24414 0.24414 0.24414 0.24414 0.24414 0.24414 0.244141 0.24414 0.24414 0.24414 0.24414 0.24414 0.24414 0.24414 0.24414 0.12207 0.12207 0.24414 0.24414 0.24414 0.24414 0.24414 0.24414 0.24414 0.24414 0.24414 0.24414 0.24414 0.24414 0.24414 0.24414 0.24414 0.24414 0.24414 0.24414 0.24414 0.24414 0.24414 0.24414 0.24414 0.24414 0.24414 0.24414 0.24414 0.24414 0.24414 0.24414 0.24414 0.24414 0.24414 0.24414 0.24414 0.24414 0.24414 0.24414 0.24414 0.24414 0.24414 0.24414 0.24414 0.24414 0.24414 0.24414 0.24414 0.24414 0.24414 0.24414 0.24414 0.24414 0.24414 0.24414 0.244141 0.24414 0.24414 0.24414 0.24414 0.24414 0.24414 0.24414 0.24414 0.12207 0.12207 0.24414 0.24414 0.24414 0.24414 0.24414 0.24414 0.24414 0.24414 0.24414 0.24414 0.24414 0.24414 0.24414 0.24414 0.24414 0.24414 0.24414 0.24414 0.24414 0.24414 0.24414 0.24414 0.24414 0.24414 0.24414 0.24414 0.24414 0.24414 0.24414 0.24414 0.24414 0.24414 0.24414 0.24414 0.24414 0.24414 0.24414 0.24414 0.24414 0.24414 0.24414 0.24414 0.24414 0.24414 0.24414 0.24414 0.24414 0.24414 0.24414 0.24414 0.24414 0.24414 0.24414 0.24414 0.244141 0.24414 0.24414 0.24414 0.24414 0.24414 0.24414 0.24414 0.24414 0.12207 0.12207 0.24414 0.24414 0.24414 0.24414 0.24414 0.24414 0.24414 0.24414 0.24414 0.24414 0.24414 0.24414 0.24414 0.24414 0.24414 0.24414 0.24414 0.24414 0.24414 0.24414 0.24414 0.24414 0.24414 0.24414 0.24414 0.24414 0.24414 0.24414 0.24414 0.24414 0.24414 0.24414 0.24414 0.24414 0.24414 0.24414 0.24414 0.24414 0.24414 0.24414 0.24414 0.24414 0.24414 0.24414 0.24414 0.24414 0.24414 0.24414 0.24414 0.24414 0.24414 0.24414 0.24414 0.24414 0.24414 0.24414 0.24414 0.24414 0.24414 0.24414 0.24414 0.24414 0.24414 0.12207 0.12207 0.24414 0.24414 0.24414 0.24414 0.24414 0.24414 0.24414 0.24414 0.24414 0.24414 0.24414 0.24414 0.24414 0.24414 0.24414 0.24414 0.24414 0.24414 0.24414 0.24414 0.24414 0.24414 0.24414 0.24414 0.24414 0.24414 0.24414 0.24414 0.24414 0.24414 0.24414 0.24414 0.24414 0.24414 0.24414 0.24414 0.24414 0.24414 0.24414 0.24414 0.24414 0.24414 0.24414 0.24414 0.24414 0.24414 0.24414 0.24414 0.24414 0.24414 0.24414 0.24414 0.24414 0.24414 0.24414 0.24414 0.24414 0.24414 0.24414 0.24414 0.24414 0.24414 0.24414 0.12207 0.061035 0.12207 0.12207 0.12207 0.12207 0.12207 0.12207 0.12207 0.12207 0.12207 0.12207 0.12207 0.12207 0.12207 0.12207 0.12207 0.12207 0.12207 0.12207 0.12207 0.12207 0.12207 0.12207 0.12207 0.12207 0.12207 0.12207 0.12207 0.12207 0.12207 0.12207 0.12207 0.12207 0.12207 0.12207 0.12207 0.12207 0.12207 0.12207 0.12207 0.12207 0.12207 0.12207 0.12207 0.12207 0.12207 0.12207 0.12207 0.12207 0.12207 0.12207 0.12207 0.12207 0.12207 0.12207 0.12207 0.12207 0.12207 0.12207 0.12207 0.12207 0.12207 0.12207 0.12207 0.0610351 0.0610351 0.12207 0.12207 0.12207 0.12207 0.12207 0.12207 0.12207 0.12207 0.12207 0.12207 0.12207 0.12207 0.12207 0.12207 0.12207 0.12207 0.12207 0.12207 0.12207 0.12207 0.12207 0.12207 0.12207 0.12207 0.12207 0.12207 0.12207 0.12207 0.12207 0.12207 0.12207 0.12207 0.12207 0.12207 0.12207 0.12207 0.12207 0.12207 0.12207 0.12207 0.12207 0.12207 0.12207 0.12207 0.12207 0.12207 0.12207 0.12207 0.12207 0.12207 0.12207 0.12207 0.12207 0.12207 0.12207 0.12207 0.12207 0.12207 0.12207 0.12207 0.12207 0.12207 0.12207 0.0610352 0.12207 0.24414 0.24414 0.24414 0.24414 0.24414 0.24414 0.24414 0.24414 0.24414 0.24414 0.24414 0.24414 0.24414 0.24414 0.24414 0.24414 0.24414 0.24414 0.24414 0.24414 0.24414 0.24414 0.24414 0.24414 0.24414 0.24414 0.24414 0.24414 0.24414 0.24414 0.24414 0.24414 0.24414 0.24414 0.24414 0.24414 0.24414 0.24414 0.24414 0.24414 0.24414 0.24414 0.24414 0.24414 0.24414 0.24414 0.24414 0.244141 0.24414 0.24414 0.24414 0.24414 0.24414 0.24414 0.244141 0.24414 0.24414 0.244141 0.244141 0.24414 0.24414 0.24414 0.24414 0.12207 0.12207 0.24414 0.24414 0.24414 0.24414 0.24414 0.24414 0.24414 0.24414 0.24414 0.24414 0.24414 0.24414 0.24414 0.24414 0.24414 0.24414 0.24414 0.24414 0.24414 0.24414 0.24414 0.24414 0.24414 0.24414 0.24414 0.24414 0.24414 0.24414 0.24414 0.24414 0.24414 0.24414 0.24414 0.24414 0.24414 0.24414 0.24414 0.24414 0.24414 0.24414 0.24414 0.24414 0.24414 0.24414 0.24414 0.24414 0.24414 0.244141 0.24414 0.24414 0.24414 0.24414 0.24414 0.24414 0.244141 0.24414 0.24414 0.244141 0.244141 0.24414 0.24414 0.24414 0.24414 0.12207 0.12207 0.24414 0.24414 0.24414 0.24414 0.24414 0.24414 0.24414 0.24414 0.24414 0.24414 0.24414 0.24414 0.24414 0.24414 0.24414 0.24414 0.24414 0.24414 0.24414 0.24414 0.24414 0.24414 0.24414 0.24414 0.24414 0.24414 0.24414 0.24414 0.24414 0.24414 0.24414 0.24414 0.24414 0.24414 0.24414 0.24414 0.24414 0.24414 0.24414 0.24414 0.24414 0.24414 0.24414 0.24414 0.24414 0.24414 0.24414 0.244141 0.24414 0.24414 0.24414 0.24414 0.24414 0.24414 0.244141 0.24414 0.24414 0.244141 0.244141 0.24414 0.24414 0.24414 0.24414 0.12207 0.12207 0.24414 0.24414 0.24414 0.24414 0.24414 0.24414 0.24414 0.24414 0.24414 0.24414 0.24414 0.24414 0.24414 0.24414 0.24414 0.24414 0.24414 0.24414 0.24414 0.24414 0.24414 0.24414 0.24414 0.24414 0.24414 0.24414 0.24414 0.24414 0.24414 0.24414 0.24414 0.24414 0.24414 0.24414 0.24414 0.24414 0.24414 0.24414 0.24414 0.24414 0.24414 0.24414 0.24414 0.24414 0.24414 0.24414 0.24414 0.244141 0.24414 0.24414 0.24414 0.24414 0.24414 0.24414 0.244141 0.24414 0.24414 0.244141 0.244141 0.24414 0.24414 0.24414 0.24414 0.12207 0.12207 0.24414 0.24414 0.24414 0.24414 0.24414 0.24414 0.24414 0.24414 0.24414 0.24414 0.24414 0.24414 0.24414 0.24414 0.24414 0.24414 0.24414 0.24414 0.24414 0.24414 0.24414 0.24414 0.24414 0.24414 0.24414 0.24414 0.24414 0.24414 0.24414 0.24414 0.24414 0.24414 0.24414 0.24414 0.24414 0.24414 0.24414 0.24414 0.24414 0.24414 0.24414 0.24414 0.24414 0.24414 0.24414 0.24414 0.24414 0.244141 0.24414 0.24414 0.24414 0.24414 0.24414 0.24414 0.244141 0.24414 0.24414 0.244141 0.244141 0.24414 0.24414 0.24414 0.24414 0.12207 0.12207 0.24414 0.24414 0.24414 0.24414 0.24414 0.24414 0.24414 0.24414 0.24414 0.24414 0.24414 0.24414 0.24414 0.24414 0.24414 0.24414 0.24414 0.24414 0.24414 0.24414 0.24414 0.24414 0.24414 0.24414 0.24414 0.24414 0.24414 0.24414 0.24414 0.24414 0.24414 0.24414 0.24414 0.24414 0.24414 0.24414 0.24414 0.24414 0.24414 0.24414 0.24414 0.24414 0.24414 0.24414 0.24414 0.24414 0.24414 0.244141 0.24414 0.24414 0.24414 0.24414 0.24414 0.24414 0.244141 0.24414 0.24414 0.244141 0.244141 0.24414 0.24414 0.24414 0.24414 0.12207 0.12207 0.24414 0.24414 0.24414 0.24414 0.24414 0.24414 0.24414 0.24414 0.24414 0.24414 0.24414 0.24414 0.24414 0.24414 0.24414 0.24414 0.24414 0.24414 0.24414 0.24414 0.24414 0.24414 0.24414 0.24414 0.24414 0.24414 0.24414 0.24414 0.24414 0.24414 0.24414 0.24414 0.24414 0.24414 0.24414 0.24414 0.24414 0.24414 0.24414 0.24414 0.24414 0.24414 0.24414 0.24414 0.24414 0.24414 0.24414 0.244141 0.24414 0.24414 0.24414 0.24414 0.24414 0.24414 0.244141 0.24414 0.24414 0.244141 0.244141 0.24414 0.24414 0.24414 0.24414 0.12207 0.12207 0.24414 0.24414 0.24414 0.24414 0.24414 0.24414 0.24414 0.24414 0.24414 0.24414 0.24414 0.24414 0.24414 0.24414 0.24414 0.24414 0.24414 0.24414 0.24414 0.24414 0.24414 0.24414 0.24414 0.24414 0.24414 0.24414 0.24414 0.24414 0.24414 0.24414 0.24414 0.24414 0.24414 0.24414 0.24414 0.24414 0.24414 0.24414 0.24414 0.24414 0.24414 0.24414 0.24414 0.24414 0.24414 0.24414 0.24414 0.24414 0.24414 0.24414 0.24414 0.24414 0.24414 0.24414 0.244141 0.24414 0.24414 0.24414 0.244141 0.24414 0.24414 0.24414 0.24414 0.12207 0.12207 0.24414 0.24414 0.24414 0.24414 0.24414 0.24414 0.24414 0.24414 0.24414 0.24414 0.24414 0.24414 0.24414 0.24414 0.24414 0.24414 0.24414 0.24414 0.24414 0.24414 0.24414 0.24414 0.24414 0.24414 0.24414 0.24414 0.24414 0.24414 0.24414 0.24414 0.24414 0.24414 0.24414 0.24414 0.24414 0.24414 0.24414 0.24414 0.24414 0.24414 0.24414 0.24414 0.24414 0.24414 0.24414 0.24414 0.24414 0.24414 0.24414 0.24414 0.24414 0.24414 0.24414 0.24414 0.244141 0.24414 0.24414 0.24414 0.244141 0.24414 0.24414 0.24414 0.24414 0.12207 0.12207 0.24414 0.24414 0.24414 0.24414 0.24414 0.24414 0.24414 0.24414 0.24414 0.24414 0.24414 0.24414 0.24414 0.24414 0.24414 0.24414 0.24414 0.24414 0.24414 0.24414 0.24414 0.24414 0.24414 0.24414 0.24414 0.24414 0.24414 0.24414 0.24414 0.24414 0.24414 0.24414 0.24414 0.24414 0.24414 0.24414 0.24414 0.24414 0.24414 0.24414 0.24414 0.24414 0.24414 0.24414 0.24414 0.24414 0.24414 0.244141 0.24414 0.24414 0.24414 0.24414 0.24414 0.24414 0.244141 0.24414 0.24414 0.24414 0.244141 0.24414 0.24414 0.24414 0.24414 0.12207 0.12207 0.24414 0.24414 0.24414 0.24414 0.24414 0.24414 0.24414 0.24414 0.24414 0.24414 0.24414 0.24414 0.24414 0.24414 0.24414 0.24414 0.24414 0.24414 0.24414 0.24414 0.24414 0.24414 0.24414 0.24414 0.24414 0.24414 0.24414 0.24414 0.24414 0.24414 0.24414 0.24414 0.24414 0.24414 0.24414 0.24414 0.24414 0.24414 0.24414 0.24414 0.24414 0.24414 0.24414 0.24414 0.24414 0.24414 0.24414 0.244141 0.24414 0.24414 0.24414 0.24414 0.24414 0.24414 0.244141 0.24414 0.24414 0.24414 0.244141 0.24414 0.24414 0.24414 0.24414 0.12207 0.12207 0.24414 0.24414 0.24414 0.24414 0.24414 0.24414 0.24414 0.24414 0.24414 0.24414 0.24414 0.24414 0.24414 0.24414 0.24414 0.24414 0.24414 0.24414 0.24414 0.24414 0.24414 0.24414 0.24414 0.24414 0.24414 0.24414 0.24414 0.24414 0.24414 0.24414 0.24414 0.24414 0.24414 0.24414 0.24414 0.24414 0.24414 0.24414 0.24414 0.24414 0.24414 0.24414 0.24414 0.24414 0.24414 0.24414 0.24414 0.244141 0.24414 0.24414 0.24414 0.24414 0.24414 0.24414 0.244141 0.24414 0.24414 0.244141 0.244141 0.244141 0.24414 0.24414 0.24414 0.12207 0.12207 0.24414 0.24414 0.24414 0.24414 0.24414 0.24414 0.24414 0.24414 0.24414 0.24414 0.24414 0.24414 0.24414 0.24414 0.24414 0.24414 0.24414 0.24414 0.24414 0.24414 0.24414 0.24414 0.24414 0.24414 0.24414 0.24414 0.24414 0.24414 0.24414 0.24414 0.24414 0.24414 0.24414 0.24414 0.24414 0.24414 0.24414 0.24414 0.24414 0.24414 0.24414 0.24414 0.24414 0.24414 0.24414 0.24414 0.24414 0.244141 0.24414 0.24414 0.24414 0.24414 0.24414 0.24414 0.244141 0.24414 0.24414 0.244141 0.244141 0.24414 0.24414 0.24414 0.24414 0.12207 0.12207 0.24414 0.24414 0.24414 0.24414 0.24414 0.24414 0.24414 0.24414 0.24414 0.24414 0.24414 0.24414 0.24414 0.24414 0.24414 0.24414 0.24414 0.24414 0.24414 0.24414 0.24414 0.24414 0.24414 0.24414 0.24414 0.24414 0.24414 0.24414 0.24414 0.24414 0.24414 0.24414 0.24414 0.24414 0.24414 0.24414 0.24414 0.24414 0.24414 0.24414 0.24414 0.24414 0.24414 0.24414 0.24414 0.24414 0.24414 0.24414 0.24414 0.24414 0.24414 0.24414 0.24414 0.24414 0.244141 0.24414 0.24414 0.24414 0.244141 0.24414 0.24414 0.24414 0.24414 0.12207 0.12207 0.24414 0.24414 0.24414 0.24414 0.24414 0.24414 0.24414 0.24414 0.24414 0.24414 0.24414 0.24414 0.24414 0.24414 0.24414 0.24414 0.24414 0.24414 0.24414 0.24414 0.24414 0.24414 0.24414 0.24414 0.24414 0.24414 0.24414 0.24414 0.24414 0.24414 0.24414 0.24414 0.24414 0.24414 0.24414 0.24414 0.24414 0.24414 0.24414 0.24414 0.24414 0.24414 0.24414 0.24414 0.24414 0.24414 0.24414 0.24414 0.24414 0.24414 0.24414 0.24414 0.24414 0.24414 0.244141 0.24414 0.24414 0.24414 0.244141 0.24414 0.24414 0.24414 0.24414 0.12207 0.0610351 0.12207 0.12207 0.12207 0.12207 0.12207 0.12207 0.12207 0.12207 0.12207 0.12207 0.12207 0.12207 0.12207 0.12207 0.12207 0.12207 0.12207 0.12207 0.12207 0.12207 0.12207 0.12207 0.12207 0.12207 0.12207 0.12207 0.12207 0.12207 0.12207 0.12207 0.12207 0.12207 0.12207 0.12207 0.12207 0.12207 0.12207 0.12207 0.12207 0.12207 0.12207 0.12207 0.12207 0.12207 0.12207 0.12207 0.12207 0.12207 0.12207 0.12207 0.12207 0.12207 0.12207 0.12207 0.12207 0.12207 0.12207 0.12207 0.12207 0.12207 0.12207 0.12207 0.12207 0.0610352 0.0610352 0.12207 0.12207 0.12207 0.12207 0.12207 0.12207 0.12207 0.12207 0.12207 0.12207 0.12207 0.12207 0.12207 0.12207 0.12207 0.12207 0.12207 0.12207 0.12207 0.12207 0.12207 0.12207 0.12207 0.12207 0.12207 0.12207 0.12207 0.12207 0.12207 0.12207 0.12207 0.12207 0.12207 0.12207 0.12207 0.12207 0.12207 0.12207 0.12207 0.12207 0.12207 0.12207 0.12207 0.12207 0.12207 0.12207 0.12207 0.122071 0.12207 0.12207 0.12207 0.12207 0.12207 0.12207 0.122071 0.12207 0.12207 0.122071 0.122071 0.12207 0.12207 0.12207 0.12207 0.0610353 0.12207 0.244141 0.244141 0.244141 0.244141 0.244141 0.244141 0.244141 0.244141 0.244141 0.244141 0.244141 0.244141 0.244141 0.244141 0.244141 0.244141 0.244141 0.244141 0.244141 0.244141 0.244141 0.244141 0.244141 0.244141 0.244141 0.244141 0.244141 0.244141 0.244141 0.244141 0.244141 0.244141 0.244141 0.244141 0.244141 0.244141 0.244141 0.244141 0.244141 0.244141 0.244141 0.244141 0.244141 0.244141 0.244141 0.244141 0.244141 0.244141 0.244141 0.244141 0.244141 0.244141 0.24414 0.244141 0.244141 0.244141 0.244141 0.244141 0.244141 0.244141 0.244141 0.24414 0.244141 0.122071 0.12207 0.244141 0.244141 0.244141 0.244141 0.244141 0.244141 0.244141 0.244141 0.244141 0.244141 0.244141 0.244141 0.244141 0.244141 0.244141 0.244141 0.244141 0.244141 0.244141 0.244141 0.244141 0.244141 0.244141 0.244141 0.244141 0.244141 0.244141 0.244141 0.244141 0.244141 0.244141 0.244141 0.244141 0.244141 0.244141 0.244141 0.244141 0.244141 0.244141 0.244141 0.244141 0.244141 0.244141 0.244141 0.244141 0.244141 0.244141 0.244141 0.244141 0.244141 0.244141 0.244141 0.24414 0.244141 0.244141 0.244141 0.244141 0.244141 0.244141 0.244141 0.244141 0.24414 0.244141 0.122071 0.12207 0.244141 0.244141 0.244141 0.244141 0.244141 0.244141 0.244141 0.244141 0.244141 0.244141 0.244141 0.244141 0.244141 0.244141 0.244141 0.244141 0.244141 0.244141 0.244141 0.244141 0.244141 0.244141 0.244141 0.244141 0.244141 0.244141 0.244141 0.244141 0.244141 0.244141 0.244141 0.244141 0.244141 0.244141 0.244141 0.244141 0.244141 0.244141 0.244141 0.244141 0.244141 0.244141 0.244141 0.244141 0.244141 0.244141 0.244141 0.244141 0.244141 0.244141 0.244141 0.244141 0.24414 0.244141 0.244141 0.244141 0.244141 0.244141 0.244141 0.244141 0.244141 0.24414 0.244141 0.122071 0.12207 0.244141 0.244141 0.244141 0.244141 0.244141 0.244141 0.244141 0.244141 0.244141 0.244141 0.244141 0.244141 0.244141 0.244141 0.244141 0.244141 0.244141 0.244141 0.244141 0.244141 0.244141 0.244141 0.244141 0.244141 0.244141 0.244141 0.244141 0.244141 0.244141 0.244141 0.244141 0.244141 0.244141 0.244141 0.244141 0.244141 0.244141 0.244141 0.244141 0.244141 0.244141 0.244141 0.244141 0.244141 0.244141 0.244141 0.244141 0.244141 0.244141 0.244141 0.244141 0.244141 0.24414 0.244141 0.244141 0.244141 0.244141 0.244141 0.244141 0.244141 0.244141 0.24414 0.244141 0.122071 0.12207 0.244141 0.244141 0.244141 0.244141 0.244141 0.244141 0.244141 0.244141 0.244141 0.244141 0.244141 0.244141 0.244141 0.244141 0.244141 0.244141 0.244141 0.244141 0.244141 0.244141 0.244141 0.244141 0.244141 0.244141 0.244141 0.244141 0.244141 0.244141 0.244141 0.244141 0.244141 0.244141 0.244141 0.244141 0.244141 0.244141 0.244141 0.244141 0.244141 0.244141 0.244141 0.244141 0.244141 0.244141 0.244141 0.244141 0.244141 0.244141 0.244141 0.244141 0.244141 0.244141 0.24414 0.244141 0.244141 0.244141 0.244141 0.244141 0.244141 0.244141 0.244141 0.24414 0.244141 0.122071 0.12207 0.244141 0.244141 0.244141 0.244141 0.244141 0.244141 0.244141 0.244141 0.244141 0.244141 0.244141 0.244141 0.244141 0.244141 0.244141 0.244141 0.244141 0.244141 0.244141 0.244141 0.244141 0.244141 0.244141 0.244141 0.244141 0.244141 0.244141 0.244141 0.244141 0.244141 0.244141 0.244141 0.244141 0.244141 0.244141 0.244141 0.244141 0.244141 0.244141 0.244141 0.244141 0.244141 0.244141 0.244141 0.244141 0.244141 0.244141 0.244141 0.244141 0.244141 0.244141 0.244141 0.24414 0.244141 0.244141 0.244141 0.244141 0.244141 0.244141 0.244141 0.244141 0.24414 0.244141 0.122071 0.12207 0.244141 0.244141 0.244141 0.244141 0.244141 0.244141 0.244141 0.244141 0.244141 0.244141 0.244141 0.244141 0.244141 0.244141 0.244141 0.244141 0.244141 0.244141 0.244141 0.244141 0.244141 0.244141 0.244141 0.244141 0.244141 0.244141 0.244141 0.244141 0.244141 0.244141 0.244141 0.244141 0.244141 0.244141 0.244141 0.244141 0.244141 0.244141 0.244141 0.244141 0.244141 0.244141 0.244141 0.244141 0.244141 0.244141 0.244141 0.244141 0.244141 0.244141 0.244141 0.244141 0.24414 0.244141 0.244141 0.244141 0.244141 0.244141 0.244141 0.244141 0.244141 0.24414 0.244141 0.122071 0.12207 0.244141 0.244141 0.244141 0.244141 0.244141 0.244141 0.244141 0.244141 0.244141 0.244141 0.244141 0.244141 0.244141 0.244141 0.244141 0.244141 0.244141 0.244141 0.244141 0.244141 0.244141 0.244141 0.244141 0.244141 0.244141 0.244141 0.244141 0.244141 0.244141 0.244141 0.244141 0.244141 0.244141 0.244141 0.244141 0.244141 0.244141 0.244141 0.244141 0.244141 0.244141 0.244141 0.244141 0.244141 0.244141 0.244141 0.244141 0.244141 0.244141 0.244141 0.244141 0.244141 0.24414 0.244141 0.244141 0.244141 0.24414 0.244141 0.244141 0.244141 0.244141 0.24414 0.244141 0.122071 0.12207 0.244141 0.244141 0.244141 0.244141 0.244141 0.244141 0.244141 0.244141 0.244141 0.244141 0.244141 0.244141 0.244141 0.244141 0.244141 0.244141 0.244141 0.244141 0.244141 0.244141 0.244141 0.244141 0.244141 0.244141 0.244141 0.244141 0.244141 0.244141 0.244141 0.244141 0.244141 0.244141 0.244141 0.244141 0.244141 0.244141 0.244141 0.244141 0.244141 0.244141 0.244141 0.244141 0.244141 0.244141 0.244141 0.244141 0.244141 0.244141 0.244141 0.244141 0.244141 0.244141 0.24414 0.244141 0.244141 0.244141 0.24414 0.244141 0.244141 0.244141 0.244141 0.24414 0.244141 0.122071 0.12207 0.244141 0.244141 0.244141 0.244141 0.244141 0.244141 0.244141 0.244141 0.244141 0.244141 0.244141 0.244141 0.244141 0.244141 0.244141 0.244141 0.244141 0.244141 0.244141 0.244141 0.244141 0.244141 0.244141 0.244141 0.244141 0.244141 0.244141 0.244141 0.244141 0.244141 0.244141 0.244141 0.244141 0.244141 0.244141 0.244141 0.244141 0.244141 0.244141 0.244141 0.244141 0.244141 0.244141 0.244141 0.244141 0.244141 0.244141 0.244141 0.244141 0.244141 0.244141 0.244141 0.24414 0.244141 0.244141 0.244141 0.244141 0.244141 0.244141 0.244141 0.244141 0.24414 0.244141 0.122071 0.12207 0.244141 0.244141 0.244141 0.244141 0.244141 0.244141 0.244141 0.244141 0.244141 0.244141 0.244141 0.244141 0.244141 0.244141 0.244141 0.244141 0.244141 0.244141 0.244141 0.244141 0.244141 0.244141 0.244141 0.244141 0.244141 0.244141 0.244141 0.244141 0.244141 0.244141 0.244141 0.244141 0.244141 0.244141 0.244141 0.244141 0.244141 0.244141 0.244141 0.244141 0.244141 0.244141 0.244141 0.244141 0.244141 0.244141 0.244141 0.244141 0.244141 0.244141 0.244141 0.244141 0.24414 0.244141 0.244141 0.244141 0.244141 0.244141 0.244141 0.244141 0.244141 0.24414 0.244141 0.122071 0.12207 0.244141 0.244141 0.244141 0.244141 0.244141 0.244141 0.244141 0.244141 0.244141 0.244141 0.244141 0.244141 0.244141 0.244141 0.244141 0.244141 0.244141 0.244141 0.244141 0.244141 0.244141 0.244141 0.244141 0.244141 0.244141 0.244141 0.244141 0.244141 0.244141 0.244141 0.244141 0.244141 0.244141 0.244141 0.244141 0.244141 0.244141 0.244141 0.244141 0.244141 0.244141 0.244141 0.244141 0.244141 0.244141 0.244141 0.244141 0.244141 0.244141 0.244141 0.244141 0.244141 0.24414 0.244141 0.244141 0.244141 0.244141 0.244141 0.244141 0.244141 0.244141 0.24414 0.244141 0.122071 0.12207 0.244141 0.244141 0.244141 0.244141 0.244141 0.244141 0.244141 0.244141 0.244141 0.244141 0.244141 0.244141 0.244141 0.244141 0.244141 0.244141 0.244141 0.244141 0.244141 0.244141 0.244141 0.244141 0.244141 0.244141 0.244141 0.244141 0.244141 0.244141 0.244141 0.244141 0.244141 0.244141 0.244141 0.244141 0.244141 0.244141 0.244141 0.244141 0.244141 0.244141 0.244141 0.244141 0.244141 0.244141 0.244141 0.244141 0.244141 0.244141 0.244141 0.244141 0.244141 0.244141 0.24414 0.244141 0.244141 0.244141 0.244141 0.244141 0.244141 0.244141 0.244141 0.24414 0.244141 0.122071 0.12207 0.244141 0.244141 0.244141 0.244141 0.244141 0.244141 0.244141 0.244141 0.244141 0.244141 0.244141 0.244141 0.244141 0.244141 0.244141 0.244141 0.244141 0.244141 0.244141 0.244141 0.244141 0.244141 0.244141 0.244141 0.244141 0.244141 0.244141 0.244141 0.244141 0.244141 0.244141 0.244141 0.244141 0.244141 0.244141 0.244141 0.244141 0.244141 0.244141 0.244141 0.244141 0.244141 0.244141 0.244141 0.244141 0.244141 0.244141 0.244141 0.244141 0.244141 0.244141 0.244141 0.24414 0.244141 0.244141 0.244141 0.24414 0.244141 0.244141 0.244141 0.244141 0.24414 0.244141 0.122071 0.12207 0.244141 0.244141 0.244141 0.244141 0.244141 0.244141 0.244141 0.244141 0.244141 0.244141 0.244141 0.244141 0.244141 0.244141 0.244141 0.244141 0.244141 0.244141 0.244141 0.244141 0.244141 0.244141 0.244141 0.244141 0.244141 0.244141 0.244141 0.244141 0.244141 0.244141 0.244141 0.244141 0.244141 0.244141 0.244141 0.244141 0.244141 0.244141 0.244141 0.244141 0.244141 0.244141 0.244141 0.244141 0.244141 0.244141 0.244141 0.244141 0.244141 0.244141 0.244141 0.244141 0.24414 0.244141 0.244141 0.244141 0.24414 0.244141 0.244141 0.244141 0.244141 0.24414 0.244141 0.122071 0.0610352 0.12207 0.12207 0.12207 0.12207 0.12207 0.12207 0.12207 0.12207 0.12207 0.12207 0.12207 0.12207 0.12207 0.12207 0.12207 0.12207 0.12207 0.12207 0.12207 0.12207 0.12207 0.12207 0.12207 0.12207 0.12207 0.12207 0.12207 0.12207 0.12207 0.12207 0.12207 0.12207 0.12207 0.12207 0.12207 0.12207 0.12207 0.12207 0.12207 0.12207 0.12207 0.12207 0.12207 0.12207 0.12207 0.12207 0.12207 0.12207 0.12207 0.12207 0.12207 0.12207 0.12207 0.12207 0.122071 0.12207 0.12207 0.12207 0.122071 0.12207 0.12207 0.12207 0.12207 0.0610353 0.0610352 0.12207 0.12207 0.12207 0.12207 0.12207 0.12207 0.12207 0.12207 0.12207 0.12207 0.12207 0.12207 0.12207 0.12207 0.12207 0.12207 0.12207 0.12207 0.12207 0.12207 0.12207 0.12207 0.12207 0.12207 0.12207 0.12207 0.12207 0.12207 0.12207 0.12207 0.12207 0.12207 0.12207 0.12207 0.12207 0.12207 0.12207 0.12207 0.12207 0.12207 0.12207 0.12207 0.12207 0.12207 0.12207 0.12207 0.12207 0.122071 0.12207 0.12207 0.12207 0.12207 0.12207 0.12207 0.122071 0.12207 0.12207 0.122071 0.122071 0.122071 0.12207 0.12207 0.12207 0.0610353 0.12207 0.244141 0.244141 0.244141 0.244141 0.244141 0.244141 0.244141 0.244141 0.244141 0.244141 0.244141 0.244141 0.244141 0.244141 0.244141 0.244141 0.244141 0.244141 0.244141 0.244141 0.244141 0.244141 0.244141 0.244141 0.244141 0.244141 0.244141 0.244141 0.244141 0.244141 0.244141 0.244141 0.244141 0.244141 0.244141 0.244141 0.244141 0.244141 0.244141 0.244141 0.244141 0.244141 0.244141 0.244141 0.244141 0.244141 0.244141 0.244141 0.244141 0.244141 0.244141 0.244141 0.24414 0.244141 0.244141 0.244141 0.244141 0.244141 0.244141 0.244141 0.244141 0.24414 0.244141 0.122071 0.12207 0.244141 0.244141 0.244141 0.244141 0.244141 0.244141 0.244141 0.244141 0.244141 0.244141 0.244141 0.244141 0.244141 0.244141 0.244141 0.244141 0.244141 0.244141 0.244141 0.244141 0.244141 0.244141 0.244141 0.244141 0.244141 0.244141 0.244141 0.244141 0.244141 0.244141 0.244141 0.244141 0.244141 0.244141 0.244141 0.244141 0.244141 0.244141 0.244141 0.244141 0.244141 0.244141 0.244141 0.244141 0.244141 0.244141 0.244141 0.244141 0.244141 0.244141 0.244141 0.244141 0.24414 0.244141 0.244141 0.244141 0.244141 0.244141 0.244141 0.244141 0.244141 0.24414 0.244141 0.122071 0.12207 0.244141 0.244141 0.244141 0.244141 0.244141 0.244141 0.244141 0.244141 0.244141 0.244141 0.244141 0.244141 0.244141 0.244141 0.244141 0.244141 0.244141 0.244141 0.244141 0.244141 0.244141 0.244141 0.244141 0.244141 0.244141 0.244141 0.244141 0.244141 0.244141 0.244141 0.244141 0.244141 0.244141 0.244141 0.244141 0.244141 0.244141 0.244141 0.244141 0.244141 0.244141 0.244141 0.244141 0.244141 0.244141 0.244141 0.244141 0.244141 0.244141 0.244141 0.244141 0.244141 0.24414 0.244141 0.244141 0.244141 0.244141 0.244141 0.244141 0.244141 0.244141 0.24414 0.244141 0.122071 0.12207 0.244141 0.244141 0.244141 0.244141 0.244141 0.244141 0.244141 0.244141 0.244141 0.244141 0.244141 0.244141 0.244141 0.244141 0.244141 0.244141 0.244141 0.244141 0.244141 0.244141 0.244141 0.244141 0.244141 0.244141 0.244141 0.244141 0.244141 0.244141 0.244141 0.244141 0.244141 0.244141 0.244141 0.244141 0.244141 0.244141 0.244141 0.244141 0.244141 0.244141 0.244141 0.244141 0.244141 0.244141 0.244141 0.244141 0.244141 0.244141 0.244141 0.244141 0.244141 0.244141 0.24414 0.244141 0.244141 0.244141 0.244141 0.244141 0.244141 0.244141 0.244141 0.24414 0.244141 0.122071 0.12207 0.244141 0.244141 0.244141 0.244141 0.244141 0.244141 0.244141 0.244141 0.244141 0.244141 0.244141 0.244141 0.244141 0.244141 0.244141 0.244141 0.244141 0.244141 0.244141 0.244141 0.244141 0.244141 0.244141 0.244141 0.244141 0.244141 0.244141 0.244141 0.244141 0.244141 0.244141 0.244141 0.244141 0.244141 0.244141 0.244141 0.244141 0.244141 0.244141 0.244141 0.244141 0.244141 0.244141 0.244141 0.244141 0.244141 0.244141 0.244141 0.244141 0.244141 0.244141 0.244141 0.24414 0.244141 0.244141 0.244141 0.244141 0.244141 0.244141 0.244141 0.244141 0.24414 0.244141 0.122071 0.12207 0.244141 0.244141 0.244141 0.244141 0.244141 0.244141 0.244141 0.244141 0.244141 0.244141 0.244141 0.244141 0.244141 0.244141 0.244141 0.244141 0.244141 0.244141 0.244141 0.244141 0.244141 0.244141 0.244141 0.244141 0.244141 0.244141 0.244141 0.244141 0.244141 0.244141 0.244141 0.244141 0.244141 0.244141 0.244141 0.244141 0.244141 0.244141 0.244141 0.244141 0.244141 0.244141 0.244141 0.244141 0.244141 0.244141 0.244141 0.244141 0.244141 0.244141 0.244141 0.244141 0.24414 0.244141 0.244141 0.244141 0.244141 0.244141 0.244141 0.244141 0.244141 0.24414 0.244141 0.122071 0.12207 0.244141 0.244141 0.244141 0.244141 0.244141 0.244141 0.244141 0.244141 0.244141 0.244141 0.244141 0.244141 0.244141 0.244141 0.244141 0.244141 0.244141 0.244141 0.244141 0.244141 0.244141 0.244141 0.244141 0.244141 0.244141 0.244141 0.244141 0.244141 0.244141 0.244141 0.244141 0.244141 0.244141 0.244141 0.244141 0.244141 0.244141 0.244141 0.244141 0.244141 0.244141 0.244141 0.244141 0.244141 0.244141 0.244141 0.244141 0.244141 0.244141 0.244141 0.244141 0.244141 0.24414 0.244141 0.244141 0.244141 0.244141 0.244141 0.244141 0.244141 0.244141 0.24414 0.244141 0.122071 0.12207 0.244141 0.244141 0.244141 0.244141 0.244141 0.244141 0.244141 0.244141 0.244141 0.244141 0.244141 0.244141 0.244141 0.244141 0.244141 0.244141 0.244141 0.244141 0.244141 0.244141 0.244141 0.244141 0.244141 0.244141 0.244141 0.244141 0.244141 0.244141 0.244141 0.244141 0.244141 0.244141 0.244141 0.244141 0.244141 0.244141 0.244141 0.244141 0.244141 0.244141 0.244141 0.244141 0.244141 0.244141 0.244141 0.244141 0.244141 0.244141 0.244141 0.244141 0.244141 0.244141 0.24414 0.244141 0.244141 0.244141 0.24414 0.244141 0.244141 0.244141 0.244141 0.24414 0.244141 0.122071 0.12207 0.244141 0.244141 0.244141 0.244141 0.244141 0.244141 0.244141 0.244141 0.244141 0.244141 0.244141 0.244141 0.244141 0.244141 0.244141 0.244141 0.244141 0.244141 0.244141 0.244141 0.244141 0.244141 0.244141 0.244141 0.244141 0.244141 0.244141 0.244141 0.244141 0.244141 0.244141 0.244141 0.244141 0.244141 0.244141 0.244141 0.244141 0.244141 0.244141 0.244141 0.244141 0.244141 0.244141 0.244141 0.244141 0.244141 0.244141 0.244141 0.244141 0.244141 0.244141 0.244141 0.24414 0.244141 0.244141 0.244141 0.24414 0.244141 0.244141 0.244141 0.244141 0.24414 0.244141 0.122071 0.12207 0.244141 0.244141 0.244141 0.244141 0.244141 0.244141 0.244141 0.244141 0.244141 0.244141 0.244141 0.244141 0.244141 0.244141 0.244141 0.244141 0.244141 0.244141 0.244141 0.244141 0.244141 0.244141 0.244141 0.244141 0.244141 0.244141 0.244141 0.244141 0.244141 0.244141 0.244141 0.244141 0.244141 0.244141 0.244141 0.244141 0.244141 0.244141 0.244141 0.244141 0.244141 0.244141 0.244141 0.244141 0.244141 0.244141 0.244141 0.244141 0.244141 0.244141 0.244141 0.244141 0.24414 0.244141 0.244141 0.244141 0.244141 0.244141 0.244141 0.244141 0.244141 0.24414 0.244141 0.122071 0.12207 0.244141 0.244141 0.244141 0.244141 0.244141 0.244141 0.244141 0.244141 0.244141 0.244141 0.244141 0.244141 0.244141 0.244141 0.244141 0.244141 0.244141 0.244141 0.244141 0.244141 0.244141 0.244141 0.244141 0.244141 0.244141 0.244141 0.244141 0.244141 0.244141 0.244141 0.244141 0.244141 0.244141 0.244141 0.244141 0.244141 0.244141 0.244141 0.244141 0.244141 0.244141 0.244141 0.244141 0.244141 0.244141 0.244141 0.244141 0.244141 0.244141 0.244141 0.244141 0.244141 0.24414 0.244141 0.244141 0.244141 0.244141 0.244141 0.244141 0.244141 0.244141 0.24414 0.244141 0.122071 0.12207 0.244141 0.244141 0.244141 0.244141 0.244141 0.244141 0.244141 0.244141 0.244141 0.244141 0.244141 0.244141 0.244141 0.244141 0.244141 0.244141 0.244141 0.244141 0.244141 0.244141 0.244141 0.244141 0.244141 0.244141 0.244141 0.244141 0.244141 0.244141 0.244141 0.244141 0.244141 0.244141 0.244141 0.244141 0.244141 0.244141 0.244141 0.244141 0.244141 0.244141 0.244141 0.244141 0.244141 0.244141 0.244141 0.244141 0.244141 0.244141 0.244141 0.244141 0.244141 0.244141 0.244141 0.244141 0.244141 0.244141 0.244141 0.244141 0.244141 0.244141 0.244141 0.244141 0.244141 0.122071 0.12207 0.244141 0.244141 0.244141 0.244141 0.244141 0.244141 0.244141 0.244141 0.244141 0.244141 0.244141 0.244141 0.244141 0.244141 0.244141 0.244141 0.244141 0.244141 0.244141 0.244141 0.244141 0.244141 0.244141 0.244141 0.244141 0.244141 0.244141 0.244141 0.244141 0.244141 0.244141 0.244141 0.244141 0.244141 0.244141 0.244141 0.244141 0.244141 0.244141 0.244141 0.244141 0.244141 0.244141 0.244141 0.244141 0.244141 0.244141 0.244141 0.244141 0.244141 0.244141 0.244141 0.24414 0.244141 0.244141 0.244141 0.244141 0.244141 0.244141 0.244141 0.244141 0.24414 0.244141 0.122071 0.12207 0.244141 0.244141 0.244141 0.244141 0.244141 0.244141 0.244141 0.244141 0.244141 0.244141 0.244141 0.244141 0.244141 0.244141 0.244141 0.244141 0.244141 0.244141 0.244141 0.244141 0.244141 0.244141 0.244141 0.244141 0.244141 0.244141 0.244141 0.244141 0.244141 0.244141 0.244141 0.244141 0.244141 0.244141 0.244141 0.244141 0.244141 0.244141 0.244141 0.244141 0.244141 0.244141 0.244141 0.244141 0.244141 0.244141 0.244141 0.244141 0.244141 0.244141 0.244141 0.244141 0.24414 0.244141 0.244141 0.244141 0.24414 0.244141 0.244141 0.244141 0.244141 0.24414 0.244141 0.122071 0.12207 0.244141 0.244141 0.244141 0.244141 0.244141 0.244141 0.244141 0.244141 0.244141 0.244141 0.244141 0.244141 0.244141 0.244141 0.244141 0.244141 0.244141 0.244141 0.244141 0.244141 0.244141 0.244141 0.244141 0.244141 0.244141 0.244141 0.244141 0.244141 0.244141 0.244141 0.244141 0.244141 0.244141 0.244141 0.244141 0.244141 0.244141 0.244141 0.244141 0.244141 0.244141 0.244141 0.244141 0.244141 0.244141 0.244141 0.244141 0.244141 0.244141 0.244141 0.244141 0.244141 0.24414 0.244141 0.244141 0.244141 0.244141 0.244141 0.244141 0.244141 0.244141 0.24414 0.244141 0.122071 0.0610352 0.12207 0.12207 0.12207 0.12207 0.12207 0.12207 0.12207 0.12207 0.12207 0.12207 0.12207 0.12207 0.12207 0.12207 0.12207 0.12207 0.12207 0.12207 0.12207 0.12207 0.12207 0.12207 0.12207 0.12207 0.12207 0.12207 0.12207 0.12207 0.12207 0.12207 0.12207 0.12207 0.12207 0.12207 0.12207 0.12207 0.12207 0.12207 0.12207 0.12207 0.12207 0.12207 0.12207 0.12207 0.12207 0.12207 0.12207 0.122071 0.12207 0.12207 0.12207 0.12207 0.12207 0.12207 0.122071 0.12207 0.12207 0.122071 0.122071 0.12207 0.12207 0.12207 0.12207 0.0610353 0.0305176 0.0610352 0.0610352 0.0610352 0.0610352 0.0610352 0.0610352 0.0610352 0.0610352 0.0610352 0.0610352 0.0610352 0.0610352 0.0610352 0.0610352 0.0610352 0.0610352 0.0610352 0.0610352 0.0610352 0.0610352 0.0610352 0.0610352 0.0610352 0.0610352 0.0610352 0.0610352 0.0610352 0.0610352 0.0610352 0.0610352 0.0610352 0.0610352 0.0610352 0.0610352 0.0610352 0.0610352 0.0610352 0.0610352 0.0610352 0.0610352 0.0610352 0.0610352 0.0610352 0.0610352 0.0610352 0.0610352 0.0610352 0.0610352 0.0610352 0.0610352 0.0610352 0.0610352 0.0610351 0.0610352 0.0610353 0.0610352 0.0610351 0.0610352 0.0610353 0.0610352 0.0610352 0.0610351 0.0610352 0.0305176 0.0610352 0.12207 0.12207 0.12207 0.12207 0.12207 0.12207 0.12207 0.12207 0.12207 0.12207 0.12207 0.12207 0.12207 0.12207 0.12207 0.12207 0.12207 0.12207 0.12207 0.12207 0.12207 0.12207 0.12207 0.12207 0.12207 0.12207 0.12207 0.12207 0.12207 0.12207 0.12207 0.12207 0.12207 0.12207 0.12207 0.12207 0.12207 0.12207 0.12207 0.12207 0.12207 0.12207 0.12207 0.12207 0.12207 0.12207 0.12207 0.12207 0.12207 0.12207 0.12207 0.12207 0.12207 0.12207 0.122071 0.12207 0.12207 0.12207 0.122071 0.12207 0.12207 0.12207 0.12207 0.0610353 0.0610352 0.12207 0.12207 0.12207 0.12207 0.12207 0.12207 0.12207 0.12207 0.12207 0.12207 0.12207 0.12207 0.12207 0.12207 0.12207 0.12207 0.12207 0.12207 0.12207 0.12207 0.12207 0.12207 0.12207 0.12207 0.12207 0.12207 0.12207 0.12207 0.12207 0.12207 0.12207 0.12207 0.12207 0.12207 0.12207 0.12207 0.12207 0.12207 0.12207 0.12207 0.12207 0.12207 0.12207 0.12207 0.12207 0.12207 0.12207 0.12207 0.12207 0.12207 0.12207 0.12207 0.12207 0.12207 0.122071 0.12207 0.12207 0.12207 0.122071 0.12207 0.12207 0.12207 0.12207 0.0610353 0.0610352 0.12207 0.12207 0.12207 0.12207 0.12207 0.12207 0.12207 0.12207 0.12207 0.12207 0.12207 0.12207 0.12207 0.12207 0.12207 0.12207 0.12207 0.12207 0.12207 0.12207 0.12207 0.12207 0.12207 0.12207 0.12207 0.12207 0.12207 0.12207 0.12207 0.12207 0.12207 0.12207 0.12207 0.12207 0.12207 0.12207 0.12207 0.12207 0.12207 0.12207 0.12207 0.12207 0.12207 0.12207 0.12207 0.12207 0.12207 0.12207 0.12207 0.12207 0.12207 0.12207 0.12207 0.12207 0.122071 0.12207 0.12207 0.12207 0.122071 0.12207 0.12207 0.12207 0.12207 0.0610353 0.0610352 0.12207 0.12207 0.12207 0.12207 0.12207 0.12207 0.12207 0.12207 0.12207 0.12207 0.12207 0.12207 0.12207 0.12207 0.12207 0.12207 0.12207 0.12207 0.12207 0.12207 0.12207 0.12207 0.12207 0.12207 0.12207 0.12207 0.12207 0.12207 0.12207 0.12207 0.12207 0.12207 0.12207 0.12207 0.12207 0.12207 0.12207 0.12207 0.12207 0.12207 0.12207 0.12207 0.12207 0.12207 0.12207 0.12207 0.12207 0.12207 0.12207 0.12207 0.12207 0.12207 0.12207 0.12207 0.122071 0.12207 0.12207 0.12207 0.122071 0.12207 0.12207 0.12207 0.12207 0.0610353 0.0610352 0.12207 0.12207 0.12207 0.12207 0.12207 0.12207 0.12207 0.12207 0.12207 0.12207 0.12207 0.12207 0.12207 0.12207 0.12207 0.12207 0.12207 0.12207 0.12207 0.12207 0.12207 0.12207 0.12207 0.12207 0.12207 0.12207 0.12207 0.12207 0.12207 0.12207 0.12207 0.12207 0.12207 0.12207 0.12207 0.12207 0.12207 0.12207 0.12207 0.12207 0.12207 0.12207 0.12207 0.12207 0.12207 0.12207 0.12207 0.12207 0.12207 0.12207 0.12207 0.12207 0.12207 0.12207 0.122071 0.12207 0.12207 0.12207 0.122071 0.12207 0.12207 0.12207 0.12207 0.0610353 0.0610352 0.12207 0.12207 0.12207 0.12207 0.12207 0.12207 0.12207 0.12207 0.12207 0.12207 0.12207 0.12207 0.12207 0.12207 0.12207 0.12207 0.12207 0.12207 0.12207 0.12207 0.12207 0.12207 0.12207 0.12207 0.12207 0.12207 0.12207 0.12207 0.12207 0.12207 0.12207 0.12207 0.12207 0.12207 0.12207 0.12207 0.12207 0.12207 0.12207 0.12207 0.12207 0.12207 0.12207 0.12207 0.12207 0.12207 0.12207 0.12207 0.12207 0.12207 0.12207 0.12207 0.12207 0.12207 0.122071 0.12207 0.12207 0.12207 0.122071 0.12207 0.12207 0.12207 0.12207 0.0610353 0.0610352 0.12207 0.12207 0.12207 0.12207 0.12207 0.12207 0.12207 0.12207 0.12207 0.12207 0.12207 0.12207 0.12207 0.12207 0.12207 0.12207 0.12207 0.12207 0.12207 0.12207 0.12207 0.12207 0.12207 0.12207 0.12207 0.12207 0.12207 0.12207 0.12207 0.12207 0.12207 0.12207 0.12207 0.12207 0.12207 0.12207 0.12207 0.12207 0.12207 0.12207 0.12207 0.12207 0.12207 0.12207 0.12207 0.12207 0.12207 0.12207 0.12207 0.12207 0.12207 0.12207 0.12207 0.12207 0.122071 0.12207 0.12207 0.12207 0.122071 0.12207 0.12207 0.12207 0.12207 0.0610353 0.0610352 0.12207 0.12207 0.12207 0.12207 0.12207 0.12207 0.12207 0.12207 0.12207 0.12207 0.12207 0.12207 0.12207 0.12207 0.12207 0.12207 0.12207 0.12207 0.12207 0.12207 0.12207 0.12207 0.12207 0.12207 0.12207 0.12207 0.12207 0.12207 0.12207 0.12207 0.12207 0.12207 0.12207 0.12207 0.12207 0.12207 0.12207 0.12207 0.12207 0.12207 0.12207 0.12207 0.12207 0.12207 0.12207 0.12207 0.12207 0.12207 0.12207 0.12207 0.12207 0.12207 0.12207 0.12207 0.122071 0.12207 0.12207 0.12207 0.122071 0.12207 0.12207 0.12207 0.12207 0.0610353 0.0610352 0.12207 0.12207 0.12207 0.12207 0.12207 0.12207 0.12207 0.12207 0.12207 0.12207 0.12207 0.12207 0.12207 0.12207 0.12207 0.12207 0.12207 0.12207 0.12207 0.12207 0.12207 0.12207 0.12207 0.12207 0.12207 0.12207 0.12207 0.12207 0.12207 0.12207 0.12207 0.12207 0.12207 0.12207 0.12207 0.12207 0.12207 0.12207 0.12207 0.12207 0.12207 0.12207 0.12207 0.12207 0.12207 0.12207 0.12207 0.12207 0.12207 0.12207 0.12207 0.12207 0.12207 0.12207 0.122071 0.12207 0.12207 0.12207 0.122071 0.12207 0.12207 0.12207 0.12207 0.0610353 0.0610352 0.12207 0.12207 0.12207 0.12207 0.12207 0.12207 0.12207 0.12207 0.12207 0.12207 0.12207 0.12207 0.12207 0.12207 0.12207 0.12207 0.12207 0.12207 0.12207 0.12207 0.12207 0.12207 0.12207 0.12207 0.12207 0.12207 0.12207 0.12207 0.12207 0.12207 0.12207 0.12207 0.12207 0.12207 0.12207 0.12207 0.12207 0.12207 0.12207 0.12207 0.12207 0.12207 0.12207 0.12207 0.12207 0.12207 0.12207 0.12207 0.12207 0.12207 0.12207 0.12207 0.12207 0.12207 0.122071 0.12207 0.12207 0.12207 0.122071 0.12207 0.12207 0.12207 0.12207 0.0610353 0.0610352 0.12207 0.12207 0.12207 0.12207 0.12207 0.12207 0.12207 0.12207 0.12207 0.12207 0.12207 0.12207 0.12207 0.12207 0.12207 0.12207 0.12207 0.12207 0.12207 0.12207 0.12207 0.12207 0.12207 0.12207 0.12207 0.12207 0.12207 0.12207 0.12207 0.12207 0.12207 0.12207 0.12207 0.12207 0.12207 0.12207 0.12207 0.12207 0.12207 0.12207 0.12207 0.12207 0.12207 0.12207 0.12207 0.12207 0.12207 0.12207 0.12207 0.12207 0.12207 0.12207 0.12207 0.12207 0.122071 0.12207 0.12207 0.12207 0.122071 0.12207 0.12207 0.12207 0.12207 0.0610353 0.0610352 0.12207 0.12207 0.12207 0.12207 0.12207 0.12207 0.12207 0.12207 0.12207 0.12207 0.12207 0.12207 0.12207 0.12207 0.12207 0.12207 0.12207 0.12207 0.12207 0.12207 0.12207 0.12207 0.12207 0.12207 0.12207 0.12207 0.12207 0.12207 0.12207 0.12207 0.12207 0.12207 0.12207 0.12207 0.12207 0.12207 0.12207 0.12207 0.12207 0.12207 0.12207 0.12207 0.12207 0.12207 0.12207 0.12207 0.12207 0.122071 0.12207 0.12207 0.12207 0.12207 0.12207 0.12207 0.122071 0.12207 0.12207 0.122071 0.122071 0.122071 0.12207 0.12207 0.12207 0.0610353 0.0610352 0.12207 0.12207 0.12207 0.12207 0.12207 0.12207 0.12207 0.12207 0.12207 0.12207 0.12207 0.12207 0.12207 0.12207 0.12207 0.12207 0.12207 0.12207 0.12207 0.12207 0.12207 0.12207 0.12207 0.12207 0.12207 0.12207 0.12207 0.12207 0.12207 0.12207 0.12207 0.12207 0.12207 0.12207 0.12207 0.12207 0.12207 0.12207 0.12207 0.12207 0.12207 0.12207 0.12207 0.12207 0.12207 0.12207 0.12207 0.122071 0.12207 0.12207 0.12207 0.12207 0.12207 0.12207 0.122071 0.12207 0.12207 0.122071 0.122071 0.12207 0.12207 0.12207 0.12207 0.0610353 0.0610352 0.12207 0.12207 0.12207 0.12207 0.12207 0.12207 0.12207 0.12207 0.12207 0.12207 0.12207 0.12207 0.12207 0.12207 0.12207 0.12207 0.12207 0.12207 0.12207 0.12207 0.12207 0.12207 0.12207 0.12207 0.12207 0.12207 0.12207 0.12207 0.12207 0.12207 0.12207 0.12207 0.12207 0.12207 0.12207 0.12207 0.12207 0.12207 0.12207 0.12207 0.12207 0.12207 0.12207 0.12207 0.12207 0.12207 0.12207 0.12207 0.12207 0.12207 0.12207 0.12207 0.12207 0.12207 0.122071 0.12207 0.12207 0.12207 0.122071 0.12207 0.12207 0.12207 0.12207 0.0610353 0.0610352 0.12207 0.12207 0.12207 0.12207 0.12207 0.12207 0.12207 0.12207 0.12207 0.12207 0.12207 0.12207 0.12207 0.12207 0.12207 0.12207 0.12207 0.12207 0.12207 0.12207 0.12207 0.12207 0.12207 0.12207 0.12207 0.12207 0.12207 0.12207 0.12207 0.12207 0.12207 0.12207 0.12207 0.12207 0.12207 0.12207 0.12207 0.12207 0.12207 0.12207 0.12207 0.12207 0.12207 0.12207 0.12207 0.12207 0.12207 0.12207 0.12207 0.12207 0.12207 0.12207 0.12207 0.12207 0.122071 0.12207 0.12207 0.12207 0.122071 0.12207 0.12207 0.12207 0.12207 0.0610353 0.0305176 0.0610352 0.0610352 0.0610352 0.0610352 0.0610352 0.0610352 0.0610352 0.0610352 0.0610352 0.0610352 0.0610352 0.0610352 0.0610352 0.0610352 0.0610352 0.0610352 0.0610352 0.0610352 0.0610352 0.0610352 0.0610352 0.0610352 0.0610352 0.0610352 0.0610352 0.0610351 0.0610352 0.0610352 0.0610351 0.0610352 0.0610352 0.0610352 0.0610352 0.0610352 0.0610351 0.0610352 0.0610352 0.0610351 0.0610352 0.0610352 0.0610352 0.0610352 0.0610352 0.0610352 0.0610352 0.0610352 0.0610352 0.0610352 0.0610352 0.0610352 0.0610352 0.0610352 0.0610351 0.0610352 0.0610353 0.0610352 0.0610351 0.0610352 0.0610353 0.0610352 0.0610352 0.0610351 0.0610352 0.0305176 
VECTORS u float
0 0 0  -0.00145425 -0.00203966 -0.00382757  -0.00370044 -0.00272248 -0.00594234  -0.00591451 -0.00343564 -0.00729179  -0.00806262 -0.00446906 -0.00815201  -0.0101684 -0.00587053 -0.0086484  -0.0122479 -0.00763453 -0.00888538  -0.0143054 -0.00972815 -0.00895548  -0.0163402 -0.0121356 -0.00890064  -0.0183492 -0.0148354 -0.00874519  -0.0203287 -0.0178071 -0.00854111  -0.0222747 -0.0210314 -0.00828552  -0.0241856 -0.0244955 -0.00801039  -0.0260569 -0.028191 -0.0077157  -0.0278854 -0.0321005 -0.007411  -0.0296701 -0.0362065 -0.00711727  -0.0314093 -0.0405081 -0.00682735  -0.0331024 -0.0449966 -0.00654268  -0.0347499 -0.0496673 -0.00625181  -0.0363494 -0.0545086 -0.00597715  -0.0379033 -0.059515 -0.00570011  -0.0394119 -0.0646769 -0.00543022  -0.0408769 -0.0699872 -0.00516224  -0.0422981 -0.0754379 -0.00491047  -0.0436754 -0.0810269 -0.00465393  -0.0450091 -0.0867444 -0.00440788  -0.046301 -0.0925805 -0.00416899  -0.0475508 -0.098529 -0.00394535  -0.0487599 -0.104583 -0.00372267  -0.0499312 -0.110738 -0.00351477  -0.0510634 -0.116994 -0.00331497  -0.0521563 -0.123349 -0.00310135  -0.0532115 -0.129783 -0.00290775  -0.054229 -0.136291 -0.00272083  -0.055212 -0.142871 -0.00254583  -0.0561626 -0.14952 -0.00237751  -0.057081 -0.156237 -0.00220728  -0.0579679 -0.163018 -0.00204754  -0.0588217 -0.169849 -0.00188351  -0.0596459 -0.176728 -0.00173616  -0.0604403 -0.183652 -0.00158787  -0.0612063 -0.190618 -0.00144243  -0.0619452 -0.197617 -0.00131702  -0.0626566 -0.20465 -0.00118971  -0.0633419 -0.211709 -0.00107718  -0.064003 -0.218789 -0.000967503  -0.0646403 -0.225895 -0.000861645  -0.0652552 -0.233027 -0.000752926  -0.0658474 -0.240173 -0.00065136  -0.0664182 -0.247332 -0.00054884  -0.0669687 -0.254497 -0.000465393  -0.0675023 -0.261669 -0.000375271  -0.0680182 -0.268837 -0.000309944  -0.068517 -0.276008 -0.000247478  -0.0690019 -0.283188 -0.000180244  -0.0694728 -0.29036 -0.00013113  -0.0699306 -0.29753 -7.72476e-05  -0.0703776 -0.304695 -3.62396e-05  -0.0708146 -0.311848 4.76837e-07  -0.0712414 -0.318994 2.90871e-05  -0.071661 -0.326131 5.53131e-05  -0.0720747 -0.333255 7.24792e-05  -0.0724835 -0.340371 9.01222e-05  -0.0728908 -0.347482 0.000105381  -0.0732973 -0.354592 0.000128269  0 0 0  -0.00108584 -0.00103145 -0.00294876  -0.00294841 -0.00171945 -0.00492859  -0.00486146 -0.00253151 -0.0061264  -0.00671531 -0.00363589 -0.00685024  -0.00852135 -0.00507963 -0.0072751  -0.0103 -0.00686623 -0.00749445  -0.012063 -0.00898244 -0.00756407  -0.0138125 -0.01141 -0.00753212  -0.0155473 -0.0141302 -0.00742674  -0.0172653 -0.0171264 -0.00724792  -0.0189625 -0.0203753 -0.00704718  -0.0206343 -0.023869 -0.00683069  -0.0222779 -0.0275931 -0.00658274  -0.0238912 -0.0315337 -0.0063386  -0.0254706 -0.0356766 -0.00608015  -0.027014 -0.040014 -0.00583744  -0.0285196 -0.0445412 -0.00559664  -0.0299865 -0.0492481 -0.00535536  -0.0314159 -0.0541266 -0.00511217  -0.0328079 -0.0591689 -0.00487947  -0.0341626 -0.0643656 -0.00464773  -0.0354798 -0.0697127 -0.00442028  -0.0367606 -0.0751994 -0.0042057  -0.0380059 -0.080821 -0.00399065  -0.0392162 -0.086571 -0.00378609  -0.0403916 -0.0924397 -0.00357294  -0.0415326 -0.0984185 -0.00338411  -0.0426396 -0.104506 -0.00319195  -0.0437117 -0.110692 -0.00301743  -0.044749 -0.116977 -0.00283623  -0.0457562 -0.123358 -0.00267029  -0.0467319 -0.129819 -0.00249767  -0.0476773 -0.136353 -0.00234318  -0.0485928 -0.14296 -0.00219202  -0.0494783 -0.149633 -0.00203657  -0.0503356 -0.156374 -0.00189066  -0.0511661 -0.163174 -0.00175667  -0.0519705 -0.170025 -0.00162506  -0.0527484 -0.176923 -0.00149393  -0.0535023 -0.183865 -0.00136805  -0.0542326 -0.190849 -0.00125122  -0.0549381 -0.197865 -0.00112963  -0.0556216 -0.204914 -0.0010252  -0.0562818 -0.211988 -0.000933647  -0.0569198 -0.219084 -0.000835896  -0.0575366 -0.226204 -0.000746727  -0.0581341 -0.233346 -0.000648499  -0.0587127 -0.240504 -0.000562191  -0.0592744 -0.247671 -0.000483036  -0.0598207 -0.254846 -0.000402927  -0.0603509 -0.262024 -0.000325203  -0.0608633 -0.269201 -0.000270367  -0.0613623 -0.27638 -0.000214577  -0.0618484 -0.283564 -0.000162125  -0.0623207 -0.290742 -0.000117779  -0.0627823 -0.297917 -7.15256e-05  -0.0632343 -0.305084 -3.33786e-05  -0.0636759 -0.312241 -8.58307e-06  -0.0641098 -0.31939 2.28882e-05  -0.0645354 -0.326529 4.62532e-05  -0.0649533 -0.333655 6.7234e-05  -0.0653675 -0.340773 9.25064e-05  -0.065778 -0.347884 0.00010252  -0.0661879 -0.35499 0.000127792  0 0 0  -0.000868872 -0.000342555 -0.00256777  -0.00233351 -0.000903942 -0.00408316  -0.00389521 -0.00173824 -0.00509119  -0.00545222 -0.00288139 -0.00572491  -0.0069848 -0.00435857 -0.00609159  -0.00849721 -0.00616911 -0.00628567  -0.00999549 -0.00830767 -0.00635433  -0.0114842 -0.010756 -0.00632906  -0.0129632 -0.0134975 -0.00624609  -0.0144299 -0.016514 -0.00611258  -0.0158826 -0.0197891 -0.00594139  -0.0173182 -0.0233078 -0.00575447  -0.0187339 -0.0270585 -0.00556469  -0.0201284 -0.031029 -0.00535011  -0.0214984 -0.0352035 -0.0051403  -0.0228409 -0.039575 -0.00493336  -0.0241543 -0.044135 -0.00472736  -0.025439 -0.0488768 -0.00452232  -0.0266943 -0.0537886 -0.0043211  -0.0279187 -0.0588631 -0.00412226  -0.0291127 -0.0640932 -0.00393343  -0.030279 -0.0694739 -0.00374556  -0.0314159 -0.0749921 -0.00355196  -0.0325245 -0.0806461 -0.00337267  -0.0336046 -0.0864258 -0.00320005  -0.0346563 -0.092324 -0.00303078  -0.0356804 -0.0983327 -0.00286055  -0.0366772 -0.10445 -0.00269938  -0.0376472 -0.110665 -0.00254393  -0.0385909 -0.116978 -0.00240278  -0.0395073 -0.123382 -0.00225639  -0.0403982 -0.129868 -0.00212145  -0.0412641 -0.136428 -0.00198269  -0.0421052 -0.143059 -0.0018549  -0.0429225 -0.149755 -0.00172663  -0.0437162 -0.156517 -0.00159693  -0.0444872 -0.163335 -0.00148869  -0.0452371 -0.170207 -0.00137091  -0.0459654 -0.177122 -0.00126219  -0.0466728 -0.184083 -0.00115442  -0.0473597 -0.191082 -0.00105476  -0.0480275 -0.198115 -0.000957489  -0.048677 -0.205178 -0.000863552  -0.0493073 -0.212266 -0.000782967  -0.0499198 -0.219378 -0.000705719  -0.0505145 -0.22651 -0.000626564  -0.0510931 -0.233662 -0.000549793  -0.051656 -0.24083 -0.000477791  -0.0522027 -0.248006 -0.000410557  -0.0527358 -0.25519 -0.000340462  -0.0532544 -0.262375 -0.000274658  -0.0537589 -0.26956 -0.000224113  -0.0542512 -0.276749 -0.000174046  -0.0547338 -0.283936 -0.000133991  -0.0552049 -0.291119 -9.34601e-05  -0.0556662 -0.298299 -4.91142e-05  -0.0561175 -0.305469 -2.00272e-05  -0.0565605 -0.312631 4.29153e-06  -0.056994 -0.319782 2.52724e-05  -0.0574226 -0.326923 4.57764e-05  -0.0578439 -0.334054 7.34329e-05  -0.0582583 -0.341174 9.25064e-05  -0.0586689 -0.348285 0.000109673  -0.059078 -0.355387 0.000125885  0 0 0  -0.000675969 9.1821e-05 -0.00217819  -0.00181852 -0.000304043 -0.00338984  -0.00305986 -0.00109741 -0.00418901  -0.0043209 -0.00224476 -0.00469732  -0.00557703 -0.0037403 -0.0050025  -0.00682572 -0.0055736 -0.00516939  -0.00806722 -0.00773183 -0.00523615  -0.00930196 -0.0102009 -0.00521088  -0.0105314 -0.0129641 -0.00514317  -0.0117539 -0.0159994 -0.00503302  -0.0129672 -0.0192978 -0.00490093  -0.0141686 -0.0228391 -0.00474977  -0.0153575 -0.0266145 -0.00458002  -0.0165324 -0.0306106 -0.00442028  -0.0176911 -0.0348143 -0.00424385  -0.0188314 -0.0392138 -0.0040741  -0.0199516 -0.0438037 -0.00390482  -0.0210493 -0.0485749 -0.00372648  -0.0221257 -0.0535174 -0.00356245  -0.0231798 -0.0586201 -0.00340223  -0.0242119 -0.0638812 -0.00324297  -0.0252218 -0.0692907 -0.00309181  -0.0262114 -0.0748368 -0.00293493  -0.02718 -0.0805198 -0.00278378  -0.0281254 -0.0863269 -0.00264168  -0.0290504 -0.0922518 -0.00250244  -0.0299551 -0.0982881 -0.00236368  -0.0308388 -0.104431 -0.00222778  -0.0317018 -0.110673 -0.00210333  -0.0325441 -0.117009 -0.00197363  -0.0333667 -0.123436 -0.001863  -0.0341688 -0.129944 -0.00174713  -0.0349526 -0.136529 -0.00163507  -0.0357172 -0.14318 -0.00152826  -0.0364618 -0.149898 -0.00141621  -0.0371888 -0.156679 -0.00131941  -0.0378981 -0.163515 -0.00121689  -0.0385888 -0.170404 -0.00113201  -0.0392621 -0.177337 -0.00104141  -0.0399208 -0.184312 -0.000944614  -0.0405648 -0.191326 -0.000860691  -0.041193 -0.198373 -0.000778675  -0.041805 -0.205449 -0.000707626  -0.0424008 -0.21255 -0.000641823  -0.0429819 -0.219676 -0.000575542  -0.0435503 -0.226819 -0.000505447  -0.0441058 -0.233982 -0.000447273  -0.0446467 -0.241157 -0.000385284  -0.0451758 -0.248343 -0.000335693  -0.0456917 -0.255534 -0.000276089  -0.0461969 -0.262726 -0.000221729  -0.0466933 -0.26992 -0.000174046  -0.047179 -0.277114 -0.00013113  -0.047653 -0.284307 -9.44138e-05  -0.0481181 -0.291495 -6.81877e-05  -0.0485764 -0.298678 -3.09944e-05  -0.0490258 -0.305853 -7.15256e-06  -0.0494664 -0.313019 1.43051e-05  -0.0498996 -0.320174 3.62396e-05  -0.0503237 -0.327317 5.14984e-05  -0.0507424 -0.334451 6.96182e-05  -0.0511582 -0.341573 9.10759e-05  -0.0515699 -0.348683 0.000102997  -0.0519788 -0.355781 0.000129223  0 0 0  -0.000513956 0.000367522 -0.00176239  -0.00137676 0.000118613 -0.00272465  -0.00232519 -0.000610366 -0.00333214  -0.00330178 -0.00174119 -0.00371838  -0.00428599 -0.00324179 -0.00396061  -0.00527191 -0.00509152 -0.00409746  -0.00625685 -0.0072671 -0.00414848  -0.00724003 -0.00975412 -0.00414133  -0.00822186 -0.0125363 -0.00408268  -0.00920117 -0.0155904 -0.00400066  -0.0101774 -0.0189083 -0.00389004  -0.0111484 -0.0224711 -0.00377607  -0.0121116 -0.0262685 -0.00364637  -0.0130674 -0.0302856 -0.00350952  -0.0140142 -0.0345152 -0.00336409  -0.0149496 -0.0389392 -0.00323439  -0.0158722 -0.0435554 -0.00309134  -0.0167816 -0.0483513 -0.00295591  -0.0176773 -0.053319 -0.00282574  -0.0185591 -0.0584487 -0.00270128  -0.0194278 -0.0637356 -0.00257635  -0.0202808 -0.0691689 -0.00245047  -0.0211179 -0.0747418 -0.0023303  -0.0219414 -0.0804494 -0.00221682  -0.0227515 -0.0862803 -0.00208998  -0.0235484 -0.0922296 -0.00198221  -0.0243301 -0.0982901 -0.00186777  -0.0250969 -0.104456 -0.00177002  -0.0258497 -0.110721 -0.00166941  -0.0265887 -0.117079 -0.0015626  -0.0273147 -0.123526 -0.0014677  -0.0280269 -0.130053 -0.00138521  -0.0287254 -0.136658 -0.00129271  -0.0294082 -0.14333 -0.00120497  -0.0300784 -0.150066 -0.00112295  -0.030736 -0.156864 -0.00103807  -0.0313785 -0.163716 -0.000959396  -0.0320091 -0.170619 -0.000887871  -0.0326288 -0.177568 -0.000818253  -0.0332365 -0.184556 -0.000746727  -0.033833 -0.191584 -0.000679493  -0.0344174 -0.198645 -0.000608921  -0.0349886 -0.205733 -0.000555038  -0.0355465 -0.212845 -0.000505447  -0.0360949 -0.219982 -0.000444889  -0.0366325 -0.227137 -0.000390053  -0.0371604 -0.234307 -0.000339508  -0.037679 -0.241491 -0.000298023  -0.0381863 -0.248684 -0.000252724  -0.0386856 -0.255882 -0.000201702  -0.0391765 -0.26308 -0.000162125  -0.0396581 -0.270282 -0.000129223  -0.0401313 -0.277481 -9.29832e-05  -0.0405977 -0.284679 -5.67436e-05  -0.041055 -0.291871 -2.76566e-05  -0.0415049 -0.299058 -1.04904e-05  -0.0419478 -0.306238 5.72205e-06  -0.0423839 -0.313406 2.81334e-05  -0.0428128 -0.320566 4.48227e-05  -0.043237 -0.327711 6.05583e-05  -0.0436566 -0.334847 7.34329e-05  -0.044071 -0.341969 8.96454e-05  -0.0444834 -0.349079 0.000100136  -0.044894 -0.356172 0.000126839  0 0 0  -0.000369616 0.000539601 -0.00133276  -0.000984982 0.000403672 -0.00204897  -0.00166272 -0.000264794 -0.00248384  -0.00236915 -0.00137094 -0.00276613  -0.0030888 -0.00287056 -0.0029459  -0.003815 -0.00472802 -0.00304794  -0.00454405 -0.00691915 -0.00308657  -0.00527596 -0.00942054 -0.003088  -0.00601113 -0.0122183 -0.00304413  -0.00674856 -0.0152909 -0.00297976  -0.00748676 -0.018625 -0.00289726  -0.00822598 -0.0222077 -0.00281286  -0.00896478 -0.0260231 -0.0027194  -0.00970113 -0.0300598 -0.00261164  -0.010435 -0.0343087 -0.00250721  -0.0111647 -0.038756 -0.00240564  -0.011891 -0.0433928 -0.00230694  -0.0126122 -0.0482107 -0.00220442  -0.0133269 -0.0531984 -0.00210762  -0.014034 -0.0583526 -0.00200558  -0.0147336 -0.0636598 -0.00191402  -0.0154257 -0.0691145 -0.00182438  -0.0161108 -0.0747101 -0.00172997  -0.0167905 -0.0804393 -0.00164127  -0.0174625 -0.0862899 -0.00155544  -0.0181258 -0.0922608 -0.00147533  -0.0187825 -0.0983435 -0.00138712  -0.0194312 -0.104528 -0.00131226  -0.020072 -0.110814 -0.00122881  -0.0207052 -0.117192 -0.00115585  -0.0213311 -0.123656 -0.00108385  -0.0219489 -0.1302 -0.00102234  -0.0225592 -0.136821 -0.000960827  -0.0231605 -0.14351 -0.00089407  -0.023752 -0.150263 -0.000827789  -0.0243368 -0.157075 -0.000763893  -0.0249159 -0.163943 -0.000700951  -0.0254858 -0.170858 -0.000654697  -0.026046 -0.17782 -0.000594139  -0.0265994 -0.18482 -0.000536442  -0.0271456 -0.19186 -0.000486374  -0.0276835 -0.198933 -0.000441551  -0.0282133 -0.206031 -0.000400543  -0.0287354 -0.213153 -0.000364304  -0.029249 -0.2203 -0.000316143  -0.0297544 -0.227464 -0.000267029  -0.0302529 -0.234643 -0.000233173  -0.0307446 -0.241832 -0.000202179  -0.0312314 -0.249031 -0.00016737  -0.0317106 -0.256235 -0.000138283  -0.0321822 -0.26344 -0.000103951  -0.0326486 -0.270648 -7.77245e-05  -0.0331089 -0.277853 -5.29289e-05  -0.0335622 -0.285054 -2.47955e-05  -0.0340087 -0.29225 3.33786e-06  -0.0344489 -0.299441 1.62125e-05  -0.0348845 -0.306624 3.14713e-05  -0.0353169 -0.313794 4.05312e-05  -0.0357447 -0.320957 5.43594e-05  -0.0361652 -0.328104 6.81877e-05  -0.0365808 -0.335242 7.82013e-05  -0.0369937 -0.342365 8.86917e-05  -0.0374036 -0.349473 0.000106812  -0.0378103 -0.356564 0.000125885  0 0 0  -0.000234719 0.000640363 -0.000887871  -0.000622414 0.000579953 -0.00135994  -0.00105022 -4.41074e-05 -0.0016489  -0.00149855 -0.00112966 -0.00183105  -0.00195944 -0.00262681 -0.00194979  -0.00242841 -0.00448823 -0.00201464  -0.00290391 -0.00669032 -0.00204468  -0.00338525 -0.00920376 -0.00204659  -0.0038746 -0.0120147 -0.00201559  -0.0043695 -0.0151016 -0.00196934  -0.00487071 -0.0184501 -0.00191927  -0.00537884 -0.0220485 -0.00185966  -0.00589103 -0.0258792 -0.00179863  -0.00640875 -0.0299336 -0.00172138  -0.00693119 -0.0341977 -0.00166035  -0.00745696 -0.0386644 -0.00159407  -0.00798404 -0.0433185 -0.00152493  -0.00851262 -0.0481543 -0.00145292  -0.00904286 -0.0531606 -0.0013876  -0.00957489 -0.0583333 -0.00132322  -0.0101072 -0.0636582 -0.00126266  -0.0106398 -0.0691313 -0.00120401  -0.0111718 -0.0747451 -0.00113726  -0.0117022 -0.080491 -0.00107718  -0.0122324 -0.0863608 -0.00101185  -0.0127631 -0.0923493 -0.00096035  -0.0132931 -0.0984495 -0.000905514  -0.0138221 -0.104653 -0.000855923  -0.0143507 -0.110955 -0.000801563  -0.0148776 -0.117349 -0.000747204  -0.0154027 -0.123828 -0.000706673  -0.0159247 -0.130386 -0.000666142  -0.016443 -0.137021 -0.000623703  -0.0169594 -0.143725 -0.000582218  -0.0174735 -0.150492 -0.000536919  -0.0179853 -0.157316 -0.000487328  -0.0184937 -0.164196 -0.000453472  -0.0189984 -0.171124 -0.00041008  -0.0194991 -0.178096 -0.00037241  -0.0199959 -0.185108 -0.000339508  -0.0204899 -0.192157 -0.000310421  -0.0209806 -0.199239 -0.000272274  -0.0214677 -0.206347 -0.00024128  -0.0219498 -0.213477 -0.000216961  -0.022428 -0.220632 -0.000180244  -0.0229023 -0.227803 -0.000154972  -0.0233719 -0.234988 -0.000126839  -0.0238369 -0.242184 -0.000106812  -0.0242968 -0.249389 -8.44002e-05  -0.0247533 -0.256597 -6.24657e-05  -0.0252075 -0.263809 -4.24385e-05  -0.0256572 -0.27102 -2.19345e-05  -0.0261016 -0.278229 -6.19888e-06  -0.0265417 -0.285433 1.57356e-05  -0.0269766 -0.292633 2.43187e-05  -0.0274076 -0.299827 3.48091e-05  -0.0278347 -0.307011 4.673e-05  -0.0282583 -0.314186 5.8651e-05  -0.0286789 -0.321349 6.58035e-05  -0.0290952 -0.3285 8.10623e-05  -0.0295086 -0.335638 9.05991e-05  -0.0299201 -0.342761 9.58443e-05  -0.0303307 -0.349869 0.000106335  -0.0307388 -0.356956 0.000119209  0 0 0  -0.000107933 0.000687152 -0.00043869  -0.0002812 0.000664532 -0.000669479  -0.000469044 6.40154e-05 -0.000804424  -0.000667676 -0.00101173 -0.000902176  -0.000874519 -0.00250751 -0.000955105  -0.00108913 -0.00437382 -0.000989437  -0.00131232 -0.00658292 -0.00100994  -0.00154522 -0.00910667 -0.00101137  -0.00178784 -0.0119274 -0.000989437  -0.00204247 -0.0150256 -0.000968933  -0.00230843 -0.0183862 -0.00094223  -0.00258392 -0.0219951 -0.000915527  -0.0028702 -0.025839 -0.000883579  -0.00316817 -0.0299064 -0.00084734  -0.00347817 -0.0341853 -0.000816822  -0.00379711 -0.0386644 -0.000778675  -0.00412488 -0.0433348 -0.000747681  -0.00446248 -0.0481831 -0.00070858  -0.00480974 -0.0532061 -0.000679016  -0.0051651 -0.058393 -0.000636578  -0.00552773 -0.063734 -0.000614643  -0.00589657 -0.0692217 -0.000576019  -0.00627291 -0.0748504 -0.000549793  -0.00665677 -0.0806082 -0.000508785  -0.00704622 -0.0864948 -0.000479221  -0.00744259 -0.0924978 -0.000451088  -0.00784624 -0.0986104 -0.000423431  -0.00825536 -0.10483 -0.000398159  -0.00866973 -0.111145 -0.000374317  -0.00908792 -0.117554 -0.00035429  -0.00950956 -0.124045 -0.000322819  -0.00993431 -0.130615 -0.000305653  -0.0103612 -0.137261 -0.000284672  -0.0107923 -0.143976 -0.000264168  -0.0112252 -0.150754 -0.000247002  -0.0116611 -0.15759 -0.000217438  -0.0120995 -0.164479 -0.000193596  -0.0125403 -0.171418 -0.000174999  -0.0129805 -0.178397 -0.000153065  -0.0134215 -0.18542 -0.000141621  -0.0138638 -0.192477 -0.000122547  -0.0143063 -0.199565 -0.000101089  -0.0147486 -0.20668 -8.39233e-05  -0.0151896 -0.213819 -7.48634e-05  -0.0156302 -0.220978 -6.1512e-05  -0.0160697 -0.228156 -3.71933e-05  -0.0165074 -0.235345 -2.3365e-05  -0.0169432 -0.242547 -1.19209e-05  -0.0173788 -0.249757 -2.86102e-06  -0.0178127 -0.256968 1.23978e-05  -0.018245 -0.264186 2.28882e-05  -0.018676 -0.271399 3.14713e-05  -0.0191054 -0.278611 3.48091e-05  -0.0195301 -0.285819 4.76837e-05  -0.0199525 -0.293022 5.67436e-05  -0.0203731 -0.300217 6.62804e-05  -0.0207918 -0.307404 6.91414e-05  -0.0212088 -0.314581 7.53403e-05  -0.0216227 -0.321745 8.39233e-05  -0.0220358 -0.328897 9.20296e-05  -0.0224464 -0.336036 9.10759e-05  -0.0228536 -0.34316 0.000104427  -0.0232577 -0.350268 0.000115395  -0.0236607 -0.357352 0.00012064  0 0 0  1.7643e-05 0.00068754 2.43187e-05  5.38826e-05 0.000665665 2.95639e-05  9.83924e-05 6.79493e-05 3.05176e-05  0.000145495 -0.00101179 3.00407e-05  0.000189543 -0.00250992 2.6226e-05  0.000225931 -0.00438371 2.3365e-05  0.000251621 -0.00659844 2.09808e-05  0.000265956 -0.00913098 2.47955e-05  0.000268161 -0.0119575 2.3365e-05  0.000257015 -0.0150649 2.71797e-05  0.000229061 -0.0184349 2.47955e-05  0.000183463 -0.0220519 2.71797e-05  0.000121593 -0.025904 1.7643e-05  4.37498e-05 -0.0299806 2.47955e-05  -5.00679e-05 -0.0342704 2.52724e-05  -0.00016284 -0.0387584 2.76566e-05  -0.000293136 -0.0434406 3.05176e-05  -0.000438809 -0.0483002 2.6226e-05  -0.000600934 -0.0533354 3.52859e-05  -0.000778675 -0.0585337 3.57628e-05  -0.000971079 -0.0638867 4.14848e-05  -0.00117803 -0.0693868 4.05312e-05  -0.00140035 -0.0750258 5.14984e-05  -0.00163662 -0.0807955 5.00679e-05  -0.0018872 -0.0866928 5.43594e-05  -0.00214899 -0.0927067 5.62668e-05  -0.00242352 -0.0988313 5.34058e-05  -0.00271046 -0.105062 5.14984e-05  -0.00300825 -0.111388 5.48363e-05  -0.00331736 -0.117807 5.43594e-05  -0.00363684 -0.124308 5.53131e-05  -0.0039649 -0.130888 5.05447e-05  -0.00430131 -0.137544 4.81606e-05  -0.00464559 -0.144267 5.53131e-05  -0.00499916 -0.151054 5.72205e-05  -0.00535941 -0.157898 6.05583e-05  -0.0057261 -0.164795 6.24657e-05  -0.00610042 -0.171741 6.58035e-05  -0.00647855 -0.178728 6.96182e-05  -0.00686073 -0.185757 6.81877e-05  -0.00724792 -0.192821 6.38962e-05  -0.00764036 -0.199914 6.7234e-05  -0.00803661 -0.207034 7.53403e-05  -0.00843596 -0.21418 6.53267e-05  -0.0088377 -0.221343 7.62939e-05  -0.00924349 -0.228526 7.39098e-05  -0.00965047 -0.23572 7.10487e-05  -0.0100577 -0.242924 7.86781e-05  -0.0104675 -0.250136 7.53403e-05  -0.0108798 -0.257352 8.05855e-05  -0.0112913 -0.264572 7.67708e-05  -0.0117006 -0.271786 8.4877e-05  -0.0121112 -0.279002 8.2016e-05  -0.0125239 -0.286212 8.24928e-05  -0.012934 -0.293417 8.58307e-05  -0.0133424 -0.300613 9.39369e-05  -0.0137534 -0.3078 9.01222e-05  -0.0141637 -0.314977 9.15527e-05  -0.0145726 -0.322143 9.9659e-05  -0.0149817 -0.329298 9.53674e-05  -0.0153871 -0.336436 9.9659e-05  -0.0157912 -0.343562 0.000108242  -0.0161924 -0.35067 0.000115871  -0.0165911 -0.357752 0.000121593  0 0 0  0.00014171 0.000644207 0.000473022  0.000387907 0.000587821 0.00072813  0.000665605 -3.1352e-05 0.000873566  0.00095579 -0.00112784 0.000956535  0.00124842 -0.00263625 0.00100851  0.00153688 -0.00451738 0.00104523  0.00181451 -0.00673914 0.00105572  0.00207686 -0.00927657 0.0010519  0.00232375 -0.012108 0.00103855  0.00255203 -0.015219 0.00101995  0.00275964 -0.0185961 0.000991344  0.00294703 -0.0222177 0.000965595  0.00311166 -0.0260764 0.00093317  0.00325269 -0.0301579 0.000902653  0.00337005 -0.0344527 0.000867367  0.00346267 -0.0389491 0.000834465  0.00353229 -0.0436375 0.000805855  0.00357902 -0.0485071 0.000778198  0.00360215 -0.0535488 0.000742912  0.00360191 -0.0587561 0.000719547  0.00357854 -0.0641174 0.000685215  0.00353336 -0.0696265 0.000660896  0.00346649 -0.0752738 0.000635147  0.00337839 -0.0810523 0.000614166  0.0032711 -0.0869572 0.00058794  0.00314283 -0.0929793 0.000563622  0.0029937 -0.0991123 0.000531197  0.00282705 -0.10535 0.000501156  0.0026437 -0.111684 0.000487328  0.00244462 -0.11811 0.000459194  0.00222909 -0.124619 0.000434875  0.00199723 -0.131207 0.000408173  0.00175166 -0.13787 0.000390053  0.00149369 -0.144598 0.000369072  0.00122261 -0.151392 0.000356197  0.000938416 -0.158243 0.000339508  0.000644445 -0.165145 0.00032568  0.000340939 -0.172095 0.000307083  2.52724e-05 -0.179089 0.000284195  -0.0003016 -0.186121 0.00027132  -0.000636816 -0.193188 0.000252247  -0.000980139 -0.200286 0.000238895  -0.00133014 -0.20741 0.000226974  -0.00168872 -0.21456 0.000219822  -0.00205541 -0.221726 0.000198364  -0.00242543 -0.228911 0.000189781  -0.00279927 -0.236109 0.000178814  -0.00317764 -0.243313 0.000169754  -0.00355959 -0.250528 0.000160217  -0.00394607 -0.257748 0.000145912  -0.0043366 -0.264968 0.00013876  -0.00472856 -0.272184 0.000132561  -0.0051229 -0.279402 0.000130177  -0.00551891 -0.286612 0.000128746  -0.00591731 -0.293818 0.000121117  -0.00631714 -0.301014 0.000117779  -0.00671768 -0.308201 0.000114441  -0.00712013 -0.315377 0.000104904  -0.00752401 -0.322543 0.000106812  -0.00792813 -0.329699 0.000104427  -0.00833225 -0.33684 0.000101089  -0.0087347 -0.343965 9.9659e-05  -0.00913572 -0.351074 0.00010252  -0.00953341 -0.358155 0.000107765  0 0 0  0.00026644 0.000554025 0.000924587  0.000724673 0.000429571 0.00141382  0.00123994 -0.000236392 0.00170517  0.00177959 -0.00136173 0.00187922  0.00232577 -0.00288641 0.00199556  0.00286701 -0.0047757 0.00206232  0.00339583 -0.00700301 0.0020833  0.00390917 -0.00954229 0.00208235  0.00440145 -0.0123773 0.00204945  0.00486988 -0.01549 0.00200748  0.00531453 -0.018867 0.00195694  0.00573146 -0.0224923 0.0019002  0.00611925 -0.0263535 0.00184345  0.00647783 -0.0304374 0.00177479  0.00680703 -0.0347347 0.00170326  0.00710726 -0.0392357 0.00164366  0.00737524 -0.0439287 0.00158262  0.0076108 -0.048803 0.00151634  0.0078162 -0.0538476 0.00146103  0.00799179 -0.0590606 0.00139618  0.00813854 -0.0644266 0.00134039  0.00825536 -0.0699417 0.00128651  0.00834298 -0.0755957 0.00123167  0.00840271 -0.0813785 0.00117397  0.00843418 -0.0872886 0.001122  0.00843918 -0.093316 0.00106764  0.00841963 -0.0994526 0.00102043  0.00837564 -0.105695 0.000964642  0.00830781 -0.112034 0.000909805  0.0082165 -0.118465 0.000858784  0.00810492 -0.12498 0.000813484  0.00797248 -0.131573 0.000770569  0.00781798 -0.138239 0.00072813  0.00764465 -0.144973 0.000691891  0.00745416 -0.15177 0.000650406  0.00724864 -0.158625 0.000611782  0.00702667 -0.16553 0.000574589  0.00678682 -0.172482 0.000542641  0.00653219 -0.17948 0.000509262  0.00626397 -0.186514 0.000473976  0.00598288 -0.193581 0.000441074  0.00568914 -0.200683 0.00041008  0.00538278 -0.207809 0.000380993  0.00506663 -0.21496 0.000359058  0.00474072 -0.22213 0.00033474  0.00440502 -0.229315 0.000304222  0.00406027 -0.236513 0.000283241  0.00370836 -0.24372 0.000266552  0.00335026 -0.250934 0.00024128  0.00298667 -0.258154 0.000220299  0.00261927 -0.265375 0.000200272  0.00224757 -0.272594 0.000187874  0.00187063 -0.279811 0.000173092  0.00148869 -0.287022 0.000164032  0.00110245 -0.294226 0.000158787  0.000713825 -0.301421 0.000151157  0.000320673 -0.308607 0.000137329  -7.43866e-05 -0.315781 0.000123501  -0.000471115 -0.322948 0.000121117  -0.000870943 -0.330102 0.000111103  -0.00127196 -0.337245 0.000101089  -0.0016737 -0.34437 9.67979e-05  -0.00207567 -0.351478 8.91685e-05  -0.00247598 -0.358562 7.86781e-05  0 0 0  0.000395976 0.000408709 0.00136423  0.00107859 0.000181198 0.00208521  0.00184259 -0.000552952 0.00252962  0.00263789 -0.00171596 0.00280094  0.0034402 -0.00325936 0.00298166  0.00423744 -0.00515777 0.0030756  0.00502113 -0.00738668 0.00311232  0.00578392 -0.00992644 0.00310373  0.0065214 -0.012762 0.00305986  0.00723088 -0.0158736 0.00299931  0.00790858 -0.019248 0.00293064  0.00855458 -0.0228732 0.00284004  0.00916797 -0.0267334 0.00274563  0.00974452 -0.0308181 0.00264215  0.0102825 -0.0351157 0.00255251  0.0107836 -0.0396171 0.0024538  0.0112494 -0.0443122 0.0023551  0.0116786 -0.0491875 0.00226355  0.0120682 -0.0542341 0.0021677  0.0124186 -0.0594475 0.0020833  0.012732 -0.0648169 0.00199366  0.0130098 -0.070334 0.00190306  0.0132536 -0.0759903 0.00181961  0.013461 -0.0817768 0.00173616  0.0136335 -0.0876886 0.00165653  0.0137728 -0.0937168 0.00158167  0.0138795 -0.0998556 0.00150585  0.0139552 -0.106099 0.00142431  0.0140015 -0.11244 0.00134325  0.0140195 -0.118873 0.00127029  0.0140088 -0.125391 0.00119734  0.0139716 -0.131985 0.00113869  0.0139101 -0.138654 0.00106525  0.0138235 -0.14539 0.00100279  0.0137131 -0.152189 0.000943184  0.0135803 -0.159045 0.000888348  0.0134277 -0.165951 0.000833035  0.0132554 -0.172903 0.00078392  0.0130615 -0.1799 0.000731468  0.0128484 -0.186935 0.000679493  0.0126188 -0.194002 0.000627518  0.0123723 -0.201103 0.000577927  0.0121109 -0.208232 0.000537395  0.0118363 -0.215383 0.000497341  0.0115459 -0.222552 0.00045681  0.0112441 -0.229737 0.00041914  0.0109313 -0.236935 0.000387669  0.0106082 -0.244142 0.000356674  0.0102761 -0.251355 0.000321865  0.0099349 -0.258574 0.000296593  0.00958657 -0.265795 0.000266552  0.00923109 -0.273015 0.000235081  0.00887036 -0.280228 0.000217438  0.00850272 -0.287439 0.000202179  0.00812936 -0.294642 0.000185966  0.00775099 -0.301836 0.000178337  0.00736809 -0.309019 0.000161171  0.0069797 -0.316192 0.000144005  0.00658727 -0.323356 0.000127316  0.00619173 -0.330508 0.000123978  0.00579214 -0.33765 0.000111103  0.00539017 -0.344775 9.9659e-05  0.00498748 -0.351883 8.63075e-05  0.00458574 -0.35897 6.34193e-05  0 0 0  0.000533909 0.000194252 0.00178242  0.00145885 -0.000173509 0.00275135  0.00248767 -0.000990987 0.00334835  0.00355202 -0.00219417 0.00372887  0.00461987 -0.00375563 0.00396729  0.00567582 -0.00566036 0.00409651  0.00671157 -0.00788838 0.00414515  0.0077216 -0.0104263 0.00413084  0.00870305 -0.0132582 0.0040822  0.00965255 -0.0163669 0.00399733  0.010567 -0.0197377 0.00389862  0.0114424 -0.0233604 0.00378752  0.0122769 -0.0272161 0.00366211  0.0130693 -0.0312998 0.00352669  0.0138187 -0.0355945 0.0033927  0.0145251 -0.0400946 0.00326681  0.0151868 -0.0447874 0.0031414  0.0158026 -0.0496612 0.00300789  0.0163735 -0.054708 0.00288486  0.0168988 -0.0599188 0.00276756  0.0173801 -0.0652875 0.00265169  0.0178189 -0.0708038 0.00252342  0.0182139 -0.0764585 0.00241232  0.0185668 -0.0822462 0.00230312  0.0188801 -0.0881557 0.00219345  0.0191523 -0.094182 0.00209475  0.019384 -0.10032 0.00198793  0.0195786 -0.106563 0.00188684  0.0197376 -0.112903 0.00178051  0.0198625 -0.119334 0.00168324  0.0199542 -0.125851 0.0015893  0.0200129 -0.132446 0.00149965  0.0200408 -0.139114 0.00141621  0.0200393 -0.14585 0.00132561  0.0200078 -0.152648 0.00124359  0.019949 -0.159503 0.00116396  0.0198641 -0.166408 0.00108671  0.0197549 -0.173358 0.00102139  0.0196216 -0.180351 0.000956535  0.0194643 -0.187385 0.000881195  0.0192864 -0.194451 0.000816345  0.0190873 -0.201549 0.000754833  0.0188687 -0.208678 0.00068903  0.0186319 -0.215826 0.000641346  0.0183783 -0.222993 0.00058794  0.0181096 -0.230178 0.000529289  0.0178275 -0.237373 0.000479698  0.0175319 -0.24458 0.000445843  0.0172241 -0.251791 0.000401974  0.0169044 -0.259009 0.000364304  0.0165744 -0.266225 0.000324726  0.0162354 -0.273445 0.000283241  0.015887 -0.280656 0.000262737  0.0155306 -0.287865 0.000245571  0.0151682 -0.295065 0.00021553  0.0147989 -0.302256 0.000191689  0.0144227 -0.309436 0.000174999  0.0140409 -0.316607 0.00016737  0.0136535 -0.323769 0.000145435  0.0132606 -0.330918 0.0001297  0.0128641 -0.338057 0.000118256  0.012465 -0.345181 0.000102043  0.0120652 -0.352289 8.7738e-05  0.0116663 -0.359383 6.05583e-05  0 0 0  0.000684798 -0.000117481 0.00218058  0.00188152 -0.000658274 0.00339746  0.00319934 -0.00156331 0.00416565  0.00454414 -0.00280058 0.00466394  0.00588027 -0.00437438 0.00496721  0.00719684 -0.00627959 0.00512457  0.0084874 -0.00850481 0.00518751  0.00974596 -0.0110373 0.00517416  0.0109714 -0.0138628 0.0051074  0.0121613 -0.0169678 0.00500298  0.0133103 -0.0203344 0.004879  0.0144158 -0.0239515 0.00473738  0.015474 -0.0278019 0.00458527  0.0164825 -0.031881 0.00441456  0.0174406 -0.036172 0.00425768  0.0183483 -0.0406675 0.00409079  0.0192055 -0.0453553 0.00393391  0.0200107 -0.050224 0.00376558  0.0207622 -0.0552673 0.00360966  0.0214599 -0.0604742 0.00345898  0.0221068 -0.0658372 0.00330591  0.0227014 -0.0713505 0.00316191  0.0232465 -0.0770015 0.00301123  0.023744 -0.0827851 0.0028677  0.0241941 -0.0886903 0.00273466  0.0245962 -0.0947128 0.0026083  0.024953 -0.100846 0.0024848  0.0252665 -0.107085 0.0023489  0.0255368 -0.113422 0.00222301  0.0257678 -0.119849 0.00209522  0.0259595 -0.126363 0.0019803  0.0261118 -0.132956 0.001863  0.0262272 -0.139621 0.0017581  0.0263062 -0.146353 0.00165224  0.0263522 -0.153148 0.00154543  0.026366 -0.16 0.00144148  0.0263507 -0.166901 0.00134563  0.0263047 -0.173846 0.00125933  0.0262287 -0.180835 0.00117207  0.0261257 -0.187863 0.00108957  0.0259962 -0.194928 0.00100851  0.0258431 -0.202021 0.000926971  0.0256648 -0.209147 0.000854492  0.0254669 -0.216291 0.000776291  0.0252497 -0.223457 0.000710011  0.0250132 -0.230637 0.000646591  0.0247581 -0.237828 0.000583172  0.0244861 -0.245032 0.000526428  0.0241997 -0.252241 0.000477314  0.0238996 -0.259455 0.0004282  0.0235877 -0.266668 0.000377178  0.0232608 -0.273885 0.000340462  0.0229228 -0.281095 0.000302315  0.0225773 -0.288297 0.00027132  0.0222239 -0.295494 0.000246525  0.021863 -0.302681 0.000216007  0.0214946 -0.309859 0.000198364  0.0211177 -0.317027 0.000179768  0.0207345 -0.324185 0.000156403  0.0203459 -0.331332 0.000137806  0.0199525 -0.338466 0.000119209  0.0195544 -0.345589 0.000104904  0.0191524 -0.352698 8.24928e-05  0.0187497 -0.359795 6.29425e-05  0 0 0  0.00086154 -0.000576437 0.00254536  0.00236811 -0.0013082 0.00404167  0.00399874 -0.00228113 0.00503397  0.00563627 -0.00353575 0.00564909  0.00724769 -0.00510919 0.00601101  0.00882638 -0.00700939 0.00619841  0.0103712 -0.00922734 0.00626564  0.0118805 -0.011754 0.00624323  0.0133508 -0.0145735 0.0061636  0.0147798 -0.0176739 0.00603914  0.016165 -0.0210359 0.00587416  0.0174995 -0.024644 0.00570536  0.0187796 -0.0284894 0.00551891  0.0200038 -0.0325597 0.00532532  0.0211724 -0.036845 0.00513172  0.0222825 -0.0413363 0.0049324  0.0233331 -0.0460142 0.00473309  0.0243245 -0.0508755 0.00453663  0.0252546 -0.0559095 0.00435114  0.0261227 -0.0611103 0.00416279  0.0269307 -0.0664678 0.00398016  0.0276819 -0.071973 0.00380182  0.0283763 -0.077617 0.00362253  0.0290147 -0.083393 0.00345039  0.0296004 -0.0892919 0.00328732  0.0301329 -0.095309 0.00312901  0.0306128 -0.101434 0.00297594  0.0310413 -0.107665 0.00282288  0.0314204 -0.113997 0.00266552  0.0317513 -0.120418 0.00252104  0.0320375 -0.126926 0.00237417  0.0322819 -0.133513 0.00224113  0.0324841 -0.140173 0.00209999  0.0326452 -0.146899 0.00197363  0.0327675 -0.153689 0.00184917  0.0328529 -0.160535 0.00172901  0.0329013 -0.16743 0.00161839  0.0329156 -0.174368 0.0014987  0.0328963 -0.181352 0.00139284  0.0328441 -0.188371 0.0012989  0.0327609 -0.19543 0.00119877  0.032649 -0.202519 0.00111055  0.0325112 -0.209639 0.00101185  0.0323482 -0.21678 0.000924587  0.0321608 -0.223939 0.000838757  0.0319519 -0.231113 0.00075531  0.0317237 -0.2383 0.00069046  0.0314777 -0.245498 0.000620365  0.0312116 -0.252703 0.000555515  0.0309272 -0.259911 0.000500679  0.0306263 -0.267122 0.000439644  0.0303135 -0.274334 0.000391006  0.029989 -0.28154 0.00034523  0.0296516 -0.288738 0.000309467  0.0293043 -0.295929 0.000273228  0.0289474 -0.303111 0.000246048  0.0285807 -0.310284 0.000216484  0.0282049 -0.31745 0.000190735  0.027823 -0.324603 0.000166416  0.027437 -0.331747 0.000144005  0.0270457 -0.338878 0.000123024  0.0266495 -0.346 0.000103951  0.0262516 -0.35311 8.58307e-05  0.0258541 -0.36021 7.10487e-05  0 0 0  0.00105305 -0.00126469 0.00290442  0.00294055 -0.0021615 0.00484657  0.00492087 -0.00314397 0.00601768  0.00685668 -0.00438428 0.00671816  0.00873902 -0.00594479 0.00712299  0.0105788 -0.00783563 0.00733137  0.0123818 -0.0100456 0.0073967  0.0141452 -0.0125685 0.00737667  0.0158661 -0.015383 0.00726509  0.0175405 -0.0184808 0.00711393  0.0191627 -0.0218363 0.00692225  0.0207277 -0.0254353 0.00672054  0.0222315 -0.0292733 0.00650787  0.0236715 -0.0333325 0.00627899  0.0250449 -0.037612 0.00603914  0.0263538 -0.0420941 0.00580168  0.0275977 -0.0467622 0.00556469  0.028773 -0.0516121 0.00534105  0.0298793 -0.0566331 0.00511789  0.030916 -0.0618243 0.00489187  0.0318857 -0.0671755 0.00467777  0.0327895 -0.0726693 0.00447083  0.0336298 -0.0783036 0.00425863  0.0344092 -0.0840688 0.00405407  0.0351263 -0.0899594 0.00386095  0.0357825 -0.0959666 0.00367928  0.0363809 -0.102081 0.00348902  0.0369219 -0.108302 0.0033083  0.0374056 -0.114625 0.00313616  0.037838 -0.12104 0.00295877  0.0382193 -0.127539 0.00278091  0.0385513 -0.134119 0.00261736  0.0388374 -0.140769 0.00246239  0.0390766 -0.147487 0.00230265  0.0392694 -0.15427 0.00215101  0.0394204 -0.161106 0.00201368  0.0395312 -0.167995 0.0018754  0.0396035 -0.174924 0.00174522  0.0396364 -0.181897 0.00162506  0.0396326 -0.188909 0.00150871  0.039593 -0.195958 0.00140142  0.0395215 -0.203041 0.00128412  0.0394204 -0.210154 0.0011735  0.0392911 -0.217289 0.00105858  0.0391345 -0.224441 0.000962257  0.0389526 -0.231607 0.000881195  0.0387454 -0.238787 0.000790596  0.0385158 -0.245978 0.000713348  0.0382659 -0.253175 0.00063467  0.037997 -0.260378 0.000565052  0.0377107 -0.267585 0.000498772  0.0374064 -0.27479 0.000435352  0.0370862 -0.28199 0.000379562  0.0367544 -0.289184 0.00032711  0.036412 -0.296367 0.000293732  0.036057 -0.303543 0.000259876  0.0356896 -0.310713 0.000232697  0.0353141 -0.317874 0.000199795  0.0349309 -0.325025 0.000172138  0.0345402 -0.332165 0.000150204  0.0341456 -0.339291 0.000125885  0.0337479 -0.34641 0.000113487  0.0333486 -0.353521 9.87053e-05  0.0329466 -0.360623 7.43866e-05  0 0 0  0.00140704 -0.00224763 0.00377274  0.00369151 -0.00318885 0.00579453  0.00596678 -0.00410968 0.00707054  0.00817722 -0.0053075 0.00788593  0.0103408 -0.00685048 0.00835991  0.0124639 -0.00873226 0.00859547  0.0145445 -0.0109402 0.00867081  0.0165802 -0.0134604 0.00861883  0.0185646 -0.0162737 0.00849199  0.0204908 -0.0193709 0.00829029  0.0223562 -0.0227179 0.00807095  0.0241548 -0.0263088 0.00782871  0.0258815 -0.0301365 0.00757647  0.0275352 -0.0341839 0.00730944  0.0291152 -0.0384578 0.00702524  0.0306221 -0.042927 0.00673962  0.0320537 -0.0475864 0.00646162  0.0334092 -0.0524201 0.00620508  0.0346873 -0.0574275 0.00594473  0.0358891 -0.0626059 0.00569105  0.0370167 -0.0679472 0.00542736  0.0380728 -0.0734297 0.0051775  0.0390558 -0.0790517 0.00493479  0.0399667 -0.084805 0.004704  0.0408106 -0.090682 0.00447559  0.0415883 -0.096679 0.00425577  0.0423008 -0.10278 0.00404692  0.0429502 -0.108991 0.00383663  0.0435385 -0.115301 0.00362587  0.0440675 -0.121707 0.00341988  0.04454 -0.128197 0.00321198  0.0449567 -0.134766 0.00302076  0.0453186 -0.141405 0.0028367  0.0456288 -0.14811 0.0026598  0.0458908 -0.154886 0.00248384  0.0461056 -0.161711 0.002316  0.0462728 -0.16859 0.00215387  0.0463963 -0.17551 0.00200987  0.0464785 -0.18247 0.00186586  0.04652 -0.189473 0.00173664  0.0465243 -0.196508 0.0016036  0.0464897 -0.203586 0.00146723  0.0464199 -0.210692 0.00133562  0.0463185 -0.217817 0.00120735  0.0461872 -0.224961 0.00109053  0.0460267 -0.232116 0.000997543  0.0458369 -0.239286 0.000897408  0.0456226 -0.246469 0.00080204  0.0453861 -0.253659 0.000715256  0.0451267 -0.260856 0.000623226  0.0448465 -0.268058 0.000542164  0.0445495 -0.275251 0.000472546  0.0442328 -0.282446 0.000409603  0.0438986 -0.289633 0.000349998  0.0435514 -0.296811 0.000301361  0.0431936 -0.303978 0.000267982  0.0428238 -0.311142 0.000231743  0.042443 -0.318297 0.000202179  0.0420532 -0.325447 0.000167847  0.0416584 -0.332582 0.000142574  0.0412598 -0.339705 0.000131607  0.040858 -0.346821 0.000112057  0.0404544 -0.353933 9.63211e-05  0.0400538 -0.361035 8.34465e-05  0 0 0  -0.00103185 -0.00199735 -0.00289249  -0.00301779 -0.00339689 -0.00481844  -0.0052726 -0.00453404 -0.00609827  -0.00757761 -0.00575323 -0.00693417  -0.00985751 -0.00721317 -0.00743198  -0.0120891 -0.00896604 -0.00768852  -0.0142689 -0.0110258 -0.00778055  -0.016399 -0.0133841 -0.00775385  -0.0184798 -0.0160276 -0.00763083  -0.0205131 -0.0189427 -0.00745821  -0.0224984 -0.0221107 -0.00723934  -0.0244344 -0.0255208 -0.00699663  -0.0263215 -0.0291622 -0.00674248  -0.0281581 -0.0330211 -0.00647497  -0.0299453 -0.0370846 -0.00621414  -0.0316839 -0.0413437 -0.00596142  -0.0333757 -0.0457935 -0.00570726  -0.0350202 -0.0504272 -0.00545454  -0.0366172 -0.0552323 -0.00521374  -0.0381674 -0.0602019 -0.00497055  -0.0396705 -0.0653271 -0.00473452  -0.0411291 -0.0706021 -0.00449753  -0.0425438 -0.0760219 -0.00427628  -0.0439138 -0.0815791 -0.00405502  -0.0452397 -0.0872657 -0.00383949  -0.0465232 -0.0930713 -0.00362921  -0.047766 -0.0989924 -0.00343704  -0.0489682 -0.10502 -0.00323963  -0.0501312 -0.11115 -0.00305605  -0.0512567 -0.117384 -0.00288486  -0.0523432 -0.123708 -0.00269985  -0.0533901 -0.130119 -0.00253248  -0.0544004 -0.136605 -0.00237036  -0.0553772 -0.143166 -0.00221491  -0.0563216 -0.149796 -0.00206852  -0.0572352 -0.156494 -0.00191689  -0.0581152 -0.163252 -0.00178146  -0.0589619 -0.170062 -0.00163889  -0.0597787 -0.176922 -0.00150967  -0.0605676 -0.18383 -0.0013814  -0.061327 -0.190779 -0.00125313  -0.0620584 -0.197764 -0.00114441  -0.0627637 -0.204784 -0.00103331  -0.0634427 -0.211829 -0.000936508  -0.0640972 -0.218898 -0.00083828  -0.0647287 -0.225991 -0.000745773  -0.0653396 -0.23311 -0.00065136  -0.0659266 -0.240242 -0.000564098  -0.0664916 -0.247387 -0.000474453  -0.0670373 -0.254542 -0.000400543  -0.0675654 -0.261706 -0.000320911  -0.0680757 -0.268868 -0.000265121  -0.0685699 -0.276034 -0.000209808  -0.0690496 -0.283204 -0.000151157  -0.069515 -0.290369 -0.000108719  -0.0699685 -0.297535 -6.10352e-05  -0.0704112 -0.304696 -2.6226e-05  -0.0708435 -0.311846 6.19888e-06  -0.0712671 -0.31899 3.14713e-05  -0.0716841 -0.326126 5.43594e-05  -0.0720949 -0.333251 7.00951e-05  -0.0725026 -0.34037 8.72612e-05  -0.0729086 -0.347482 0.00010252  -0.0733151 -0.354593 0.000123978  0 0 0  -0.000685919 -0.00125013 -0.00224447  -0.0022935 -0.00238734 -0.00400352  -0.00423504 -0.00348541 -0.00515175  -0.00623558 -0.00474434 -0.0058732  -0.00820926 -0.00626004 -0.0063076  -0.0101382 -0.00806387 -0.00654125  -0.0120234 -0.0101722 -0.00662422  -0.0138685 -0.0125728 -0.00660944  -0.0156757 -0.015255 -0.00652409  -0.0174454 -0.0182085 -0.00636816  -0.0191786 -0.0214143 -0.0061903  -0.0208763 -0.0248626 -0.00599957  -0.0225366 -0.0285405 -0.00577879  -0.0241588 -0.0324366 -0.00556278  -0.0257416 -0.0365397 -0.00533247  -0.0272854 -0.0408373 -0.00511599  -0.0287906 -0.0453274 -0.00490427  -0.0302566 -0.049998 -0.00469112  -0.0316828 -0.0548417 -0.00447655  -0.0330695 -0.0598479 -0.00427294  -0.0344176 -0.0650108 -0.00406837  -0.035728 -0.0703221 -0.00386715  -0.0370027 -0.0757792 -0.00367641  -0.0382421 -0.0813698 -0.00348711  -0.0394456 -0.0870896 -0.00330877  -0.0406133 -0.0929286 -0.0031209  -0.041746 -0.0988813 -0.00295591  -0.0428441 -0.104941 -0.00278664  -0.0439097 -0.111103 -0.00263357  -0.0449427 -0.117366 -0.00247622  -0.0459425 -0.123718 -0.00233126  -0.0469114 -0.130155 -0.00218105  -0.0478492 -0.136667 -0.00204468  -0.0487583 -0.143254 -0.00191212  -0.0496378 -0.149907 -0.00177526  -0.0504892 -0.15663 -0.00164843  -0.0513134 -0.163409 -0.00153208  -0.0521114 -0.170241 -0.00141621  -0.0528817 -0.17712 -0.00130367  -0.0536275 -0.184047 -0.00119019  -0.0543504 -0.191013 -0.00108862  -0.0550506 -0.198015 -0.000980854  -0.0557282 -0.20505 -0.000890255  -0.0563836 -0.21211 -0.000810146  -0.057018 -0.219195 -0.000724316  -0.0576313 -0.226302 -0.000644684  -0.0582235 -0.233431 -0.000562668  -0.0587964 -0.240575 -0.000483513  -0.0593526 -0.24773 -0.000414848  -0.0598919 -0.254895 -0.000340939  -0.0604146 -0.262065 -0.000275612  -0.0609217 -0.269235 -0.000227928  -0.0614161 -0.27641 -0.000175953  -0.0618963 -0.283585 -0.000134468  -0.0623627 -0.290756 -9.44138e-05  -0.0628188 -0.297926 -5.24521e-05  -0.0632653 -0.305089 -2.0504e-05  -0.063704 -0.312244 1.90735e-06  -0.0641334 -0.31939 2.95639e-05  -0.0645554 -0.326527 4.86374e-05  -0.0649722 -0.333654 7.05719e-05  -0.0653856 -0.340773 9.39369e-05  -0.0657971 -0.347885 0.000102997  -0.0662065 -0.354992 0.000124454  0 0 0  -0.000557799 -0.000712961 -0.00192118  -0.00183249 -0.00156302 -0.00331879  -0.00340097 -0.00258759 -0.00428915  -0.00505592 -0.00385878 -0.00492048  -0.00671431 -0.00541231 -0.00529528  -0.00834706 -0.00725865 -0.00549984  -0.00994831 -0.00940684 -0.00558138  -0.01152 -0.0118455 -0.0055666  -0.013064 -0.0145642 -0.00549698  -0.0145804 -0.0175496 -0.00538254  -0.0160682 -0.0207904 -0.00522709  -0.017528 -0.0242718 -0.0050621  -0.0189605 -0.0279833 -0.00489187  -0.0203648 -0.0319139 -0.0046978  -0.0217397 -0.0360521 -0.00451088  -0.0230838 -0.0403855 -0.00432682  -0.024397 -0.0449108 -0.00414515  -0.0256803 -0.0496173 -0.00396204  -0.0269322 -0.0544945 -0.00378513  -0.0281523 -0.0595354 -0.00361109  -0.0293428 -0.0647321 -0.00344372  -0.0305037 -0.0700787 -0.00327587  -0.0316353 -0.0755681 -0.00310755  -0.0327367 -0.0811909 -0.00294828  -0.0338105 -0.0869426 -0.00279617  -0.034857 -0.0928112 -0.00264788  -0.0358753 -0.0987945 -0.00249815  -0.0368644 -0.104883 -0.00235605  -0.0378269 -0.111076 -0.0022192  -0.0387628 -0.117364 -0.00209713  -0.0396729 -0.123744 -0.00197077  -0.0405564 -0.130205 -0.00185299  -0.0414159 -0.136743 -0.00172758  -0.0422516 -0.143353 -0.00161791  -0.0430634 -0.150032 -0.00150299  -0.0438523 -0.156772 -0.00139141  -0.0446181 -0.163574 -0.001297  -0.0453627 -0.170425 -0.00119305  -0.0460851 -0.177323 -0.0010972  -0.0467868 -0.184268 -0.00100327  -0.0474677 -0.19125 -0.000916481  -0.0481293 -0.198268 -0.000830173  -0.0487721 -0.205317 -0.000748158  -0.0493968 -0.212391 -0.000678062  -0.0500045 -0.219491 -0.000608444  -0.0505953 -0.226613 -0.00053978  -0.0511694 -0.233751 -0.000472069  -0.0517271 -0.240905 -0.000410557  -0.0522702 -0.24807 -0.000349998  -0.052798 -0.255244 -0.000289917  -0.0533094 -0.26242 -0.00023222  -0.0538085 -0.269599 -0.000186443  -0.0542972 -0.276782 -0.000140667  -0.054776 -0.283962 -0.000104427  -0.0552435 -0.291139 -7.10487e-05  -0.0556998 -0.298312 -3.14713e-05  -0.0561471 -0.305479 -7.15256e-06  -0.0565853 -0.312637 1.43051e-05  -0.0570171 -0.319786 3.19481e-05  -0.0574431 -0.326925 5.19753e-05  -0.057863 -0.334054 7.53403e-05  -0.0582767 -0.341174 9.29832e-05  -0.0586867 -0.348285 0.000107765  -0.0590973 -0.355389 0.000122547  0 0 0  -0.000433009 -0.000336006 -0.00161934  -0.00143708 -0.000948176 -0.00274754  -0.00267906 -0.00188313 -0.00353193  -0.00400728 -0.00313939 -0.00404406  -0.00535631 -0.00470822 -0.00435781  -0.00669855 -0.00658436 -0.00452805  -0.00802395 -0.00876147 -0.00460529  -0.00932938 -0.0112316 -0.00458956  -0.0106139 -0.0139811 -0.00453138  -0.0118787 -0.0169952 -0.00443459  -0.0131236 -0.0202656 -0.00431728  -0.0143478 -0.0237752 -0.00418186  -0.0155517 -0.0275177 -0.00402737  -0.0167358 -0.0314782 -0.00388432  -0.0178998 -0.035647 -0.0037241  -0.0190424 -0.0400119 -0.00357294  -0.0201626 -0.0445682 -0.00342226  -0.0212591 -0.0493049 -0.00326633  -0.0223328 -0.0542138 -0.00311947  -0.0233837 -0.0592846 -0.00298023  -0.0244117 -0.0645123 -0.00283813  -0.0254186 -0.0698908 -0.0027051  -0.0264041 -0.075408 -0.00256491  -0.0273669 -0.0810601 -0.0024333  -0.0283073 -0.0868404 -0.00230932  -0.0292263 -0.0927365 -0.00218582  -0.0301247 -0.0987469 -0.0020628  -0.0310025 -0.104863 -0.00194311  -0.0318606 -0.111082 -0.00183296  -0.0326976 -0.117394 -0.00172091  -0.0335135 -0.123798 -0.00162601  -0.0343093 -0.130281 -0.00152588  -0.0350857 -0.136843 -0.00142384  -0.0358443 -0.143476 -0.00133038  -0.0365853 -0.150174 -0.00123215  -0.0373075 -0.156934 -0.00114679  -0.0380123 -0.163754 -0.0010581  -0.0386989 -0.170623 -0.000987053  -0.0393693 -0.17754 -0.00090313  -0.0400233 -0.184499 -0.000819683  -0.0406611 -0.191497 -0.000743866  -0.0412836 -0.198528 -0.00067234  -0.0418899 -0.205591 -0.000611305  -0.0424807 -0.212678 -0.000555515  -0.0430589 -0.219791 -0.000495911  -0.0436223 -0.226924 -0.000432491  -0.0441723 -0.234073 -0.0003829  -0.0447097 -0.241236 -0.000328541  -0.0452335 -0.248412 -0.000285625  -0.0457463 -0.255592 -0.00023365  -0.0462475 -0.262776 -0.000183105  -0.0467386 -0.269962 -0.000138283  -0.0472188 -0.27715 -0.000102997  -0.0476885 -0.284336 -7.20024e-05  -0.0481498 -0.291518 -4.76837e-05  -0.0486038 -0.298695 -1.57356e-05  -0.0490491 -0.305866 5.24521e-06  -0.0494871 -0.313028 2.28882e-05  -0.049917 -0.320179 4.33922e-05  -0.0503409 -0.327322 5.38826e-05  -0.0507593 -0.334453 7.34329e-05  -0.0511746 -0.341573 9.25064e-05  -0.0515871 -0.348683 0.000102043  -0.0519981 -0.355782 0.000123024  0 0 0  -0.000328328 -7.91848e-05 -0.00130844  -0.0010905 -0.000508234 -0.00220776  -0.00203952 -0.00135878 -0.00281096  -0.00306399 -0.00258426 -0.00320673  -0.00411585 -0.00415426 -0.00345421  -0.00517276 -0.00604858 -0.00359535  -0.00622299 -0.00824647 -0.00365305  -0.00726214 -0.0107408 -0.00365257  -0.00828993 -0.0135158 -0.00360203  -0.00930476 -0.016555 -0.00352859  -0.0103065 -0.0198503 -0.00342798  -0.0112967 -0.0233855 -0.00332403  -0.0122747 -0.0271528 -0.00320768  -0.0132395 -0.0311394 -0.00308418  -0.0141912 -0.035334 -0.00295305  -0.0151291 -0.0397267 -0.00283623  -0.0160524 -0.0443095 -0.00270987  -0.0169603 -0.0490724 -0.00258923  -0.0178533 -0.0540082 -0.00247526  -0.0187328 -0.0591063 -0.00236225  -0.0195988 -0.0643611 -0.0022521  -0.0204482 -0.0697645 -0.00214672  -0.0212814 -0.0753084 -0.00203848  -0.0221013 -0.0809866 -0.00193739  -0.0229077 -0.0867906 -0.00182581  -0.0236986 -0.0927119 -0.00172997  -0.0244751 -0.098747 -0.00162935  -0.0252368 -0.104887 -0.001544  -0.0259852 -0.111128 -0.00145578  -0.0267191 -0.117462 -0.00136042  -0.0274391 -0.123887 -0.00127792  -0.028146 -0.130391 -0.0012064  -0.0288393 -0.136973 -0.00112724  -0.0295174 -0.143625 -0.00105  -0.0301819 -0.150342 -0.000976086  -0.0308347 -0.157119 -0.000902653  -0.0314751 -0.163955 -0.000833988  -0.0321023 -0.17084 -0.000770569  -0.0327175 -0.177774 -0.000709534  -0.03332 -0.184744 -0.000646591  -0.0339117 -0.191757 -0.000586987  -0.0344911 -0.198801 -0.000524044  -0.0350583 -0.205876 -0.000479221  -0.035614 -0.212975 -0.000435829  -0.0361588 -0.220099 -0.00038147  -0.0366931 -0.227242 -0.000331879  -0.0372176 -0.234401 -0.000287533  -0.0377319 -0.241573 -0.000251293  -0.0382378 -0.248756 -0.000212669  -0.0387321 -0.255943 -0.00016737  -0.0392172 -0.263134 -0.00013113  -0.0396953 -0.270327 -0.000101566  -0.0401666 -0.27752 -6.86646e-05  -0.0406294 -0.28471 -3.67165e-05  -0.0410831 -0.291897 -1.33514e-05  -0.0415294 -0.299078 2.86102e-06  -0.041971 -0.306252 1.66893e-05  -0.0424049 -0.313417 3.43323e-05  -0.0428333 -0.320572 5.05447e-05  -0.0432558 -0.327717 6.4373e-05  -0.0436728 -0.334851 7.48634e-05  -0.0440857 -0.34197 8.82149e-05  -0.044498 -0.349079 0.000100613  -0.0449102 -0.356172 0.00012207  0 0 0  -0.000234108 8.91089e-05 -0.00098896  -0.000779197 -0.000209659 -0.00166273  -0.0014596 -0.000989199 -0.00209761  -0.00220105 -0.00218228 -0.00238752  -0.00296941 -0.00374734 -0.00257206  -0.00374636 -0.00564972 -0.00268173  -0.00452414 -0.00786415 -0.00272274  -0.00529939 -0.0103768 -0.00272894  -0.00606912 -0.0131716 -0.00269079  -0.00683349 -0.0162322 -0.00263119  -0.00759327 -0.0195473 -0.00255728  -0.00834823 -0.0231056 -0.00247765  -0.00909793 -0.0268933 -0.00239515  -0.00984216 -0.0309012 -0.00229597  -0.0105801 -0.0351171 -0.00220394  -0.0113125 -0.039534 -0.00210953  -0.0120388 -0.0441386 -0.00202179  -0.0127591 -0.0489243 -0.00193024  -0.0134732 -0.0538824 -0.00184536  -0.0141786 -0.0590039 -0.00175619  -0.0148749 -0.0642824 -0.00167704  -0.0155642 -0.0697067 -0.00159788  -0.0162469 -0.0752735 -0.00151396  -0.0169227 -0.0809745 -0.00143337  -0.0175906 -0.0867983 -0.00136042  -0.0182507 -0.0927422 -0.00129032  -0.0189028 -0.0987983 -0.00121021  -0.0195473 -0.104959 -0.00114393  -0.0201845 -0.11122 -0.0010705  -0.0208132 -0.117574 -0.0010047  -0.0214349 -0.124016 -0.00094223  -0.0220481 -0.130538 -0.000890732  -0.0226545 -0.137138 -0.000836372  -0.0232537 -0.143805 -0.000778675  -0.0238433 -0.150539 -0.000720024  -0.0244234 -0.157332 -0.00066328  -0.0249951 -0.164181 -0.000605583  -0.0255611 -0.171081 -0.000567436  -0.0261197 -0.178027 -0.00051403  -0.0266685 -0.18501 -0.000463009  -0.0272093 -0.192034 -0.000418663  -0.0277436 -0.199089 -0.000379562  -0.02827 -0.206176 -0.000343323  -0.0287879 -0.213285 -0.000312328  -0.0292988 -0.220419 -0.000270367  -0.0298016 -0.22757 -0.000225544  -0.0302973 -0.234738 -0.000195026  -0.0307863 -0.241918 -0.000168324  -0.0312684 -0.249106 -0.000135899  -0.0317454 -0.256299 -0.000112057  -0.0322158 -0.263496 -7.96318e-05  -0.0326791 -0.270695 -5.62668e-05  -0.0331368 -0.277892 -3.48091e-05  -0.0335879 -0.285087 -1.19209e-05  -0.0340321 -0.292277 1.43051e-05  -0.0344698 -0.299463 2.38419e-05  -0.034903 -0.306641 3.8147e-05  -0.0353327 -0.313808 4.81606e-05  -0.0357566 -0.320966 5.76973e-05  -0.0361762 -0.328112 6.91414e-05  -0.0365918 -0.335246 7.72476e-05  -0.0370064 -0.342366 9.01222e-05  -0.0374172 -0.349475 0.00010252  -0.0378237 -0.356563 0.00012064  0 0 0  -0.000147279 0.000190794 -0.000662804  -0.000490911 -2.46465e-05 -0.00110579  -0.000921786 -0.000753045 -0.00139618  -0.00139399 -0.0019218 -0.00158358  -0.00188762 -0.00348061 -0.0017066  -0.00239259 -0.00538662 -0.00177574  -0.00290143 -0.0076136 -0.00181055  -0.00341257 -0.0101396 -0.00181437  -0.00392693 -0.0129504 -0.00178528  -0.00444198 -0.0160265 -0.00174665  -0.00495774 -0.0193591 -0.00169754  -0.00547618 -0.0229348 -0.00164461  -0.0059967 -0.0267401 -0.00158787  -0.0065195 -0.0307654 -0.00151587  -0.00704509 -0.0349994 -0.0014596  -0.00757337 -0.0394354 -0.00139952  -0.0081023 -0.0440589 -0.00133848  -0.00863039 -0.0488627 -0.00127602  -0.00915837 -0.0538407 -0.00121593  -0.0096885 -0.0589812 -0.00115776  -0.0102199 -0.0642788 -0.00110483  -0.0107505 -0.0697221 -0.00105333  -0.0112802 -0.0753071 -0.000995636  -0.0118084 -0.0810257 -0.000946522  -0.0123359 -0.0868679 -0.00088501  -0.0128629 -0.0928308 -0.000839233  -0.0133891 -0.0989043 -0.000792027  -0.0139147 -0.105083 -0.000745773  -0.0144397 -0.111361 -0.000697136  -0.0149624 -0.117731 -0.000648975  -0.0154839 -0.124189 -0.000612736  -0.0160043 -0.130725 -0.000579357  -0.0165215 -0.137339 -0.000545025  -0.0170341 -0.144021 -0.000507355  -0.017545 -0.150769 -0.000466824  -0.0180535 -0.157575 -0.00042057  -0.0185583 -0.164437 -0.000393391  -0.0190589 -0.171347 -0.000353813  -0.0195565 -0.178305 -0.000321865  -0.0200512 -0.185298 -0.00028944  -0.0205431 -0.192331 -0.000266075  -0.0210304 -0.199397 -0.00023222  -0.0215132 -0.206493 -0.000204563  -0.0219922 -0.213611 -0.000183105  -0.0224683 -0.220751 -0.000149727  -0.0229406 -0.22791 -0.000126839  -0.0234082 -0.235085 -0.000104427  -0.023869 -0.242271 -8.67844e-05  -0.0243273 -0.249466 -6.58035e-05  -0.0247817 -0.256662 -4.62532e-05  -0.0252335 -0.263866 -2.57492e-05  -0.0256813 -0.271068 -8.58307e-06  -0.0261235 -0.278269 3.8147e-06  -0.0265596 -0.285467 2.28882e-05  -0.0269916 -0.292663 3.09944e-05  -0.027421 -0.29985 4.05312e-05  -0.0278482 -0.307031 5.00679e-05  -0.0282726 -0.3142 6.29425e-05  -0.0286925 -0.321361 6.7234e-05  -0.0291078 -0.328507 8.15392e-05  -0.0295205 -0.335642 9.10759e-05  -0.0299304 -0.342764 9.48906e-05  -0.0303392 -0.349872 0.000107765  -0.0307474 -0.356956 0.000116348  0 0 0  -6.64033e-05 0.000239998 -0.000328541  -0.000220545 6.58333e-05 -0.000547886  -0.000412673 -0.00063473 -0.000686169  -0.000625059 -0.00179207 -0.000784874  -0.000850379 -0.00334749 -0.000844002  -0.001084 -0.00525779 -0.000879765  -0.00132591 -0.0074935 -0.000901699  -0.00157657 -0.0100305 -0.000902653  -0.00183415 -0.012852 -0.000884533  -0.00210005 -0.0159407 -0.000861645  -0.00237519 -0.0192866 -0.00083828  -0.00265855 -0.0228747 -0.000815392  -0.00295037 -0.0266933 -0.000785828  -0.00325203 -0.0307334 -0.000750542  -0.00356346 -0.0349822 -0.000720978  -0.00388378 -0.0394322 -0.000689983  -0.0042125 -0.0440718 -0.000659943  -0.00454986 -0.04889 -0.000624657  -0.00489616 -0.053884 -0.000597  -0.00524998 -0.0590399 -0.00055933  -0.00561142 -0.064353 -0.000540733  -0.00597978 -0.069812 -0.000506878  -0.00635529 -0.0754124 -0.000482559  -0.00673652 -0.0811432 -0.000448704  -0.00712335 -0.0870018 -0.000421047  -0.00751722 -0.0929796 -0.000394821  -0.00791693 -0.0990677 -0.000370502  -0.0083226 -0.105261 -0.000346184  -0.00873411 -0.111553 -0.000325203  -0.00915015 -0.117936 -0.000308514  -0.00957 -0.124406 -0.000279903  -0.00999248 -0.130955 -0.000267506  -0.0104177 -0.137581 -0.000248909  -0.0108459 -0.144276 -0.000230312  -0.011277 -0.151033 -0.00021553  -0.0117109 -0.157852 -0.00018692  -0.0121453 -0.164723 -0.000165462  -0.0125828 -0.171643 -0.000147343  -0.0130219 -0.178608 -0.000130653  -0.0134604 -0.185612 -0.000119686  -0.0138988 -0.192653 -0.000101089  -0.0143383 -0.199726 -8.29697e-05  -0.0147779 -0.206828 -6.86646e-05  -0.0152173 -0.213953 -5.8651e-05  -0.0156567 -0.221099 -4.76837e-05  -0.0160947 -0.228265 -2.47955e-05  -0.0165298 -0.235444 -1.52588e-05  -0.0169661 -0.242636 -2.38419e-06  -0.0174017 -0.249834 4.76837e-06  -0.0178347 -0.257036 2.00272e-05  -0.0182645 -0.264243 2.81334e-05  -0.018692 -0.271449 3.62396e-05  -0.0191176 -0.278655 3.86238e-05  -0.0195408 -0.285854 4.91142e-05  -0.0199625 -0.293054 5.8651e-05  -0.0203822 -0.300242 6.67572e-05  -0.0208001 -0.307423 6.96182e-05  -0.0212162 -0.314595 7.53403e-05  -0.0216308 -0.321757 8.39233e-05  -0.0220432 -0.328905 9.34601e-05  -0.0224526 -0.336041 9.05991e-05  -0.0228601 -0.343162 0.000103951  -0.0232663 -0.350269 0.00011301  -0.0236697 -0.357352 0.000118732  0 0 0  1.37836e-05 0.000243127 1.52588e-05  4.58509e-05 7.24792e-05 1.95503e-05  8.66354e-05 -0.000625998 1.62125e-05  0.000128686 -0.00178584 1.52588e-05  0.000167102 -0.00334442 1.04904e-05  0.000197738 -0.0052608 9.53674e-06  0.000218749 -0.00750396 7.15256e-06  0.000229299 -0.0100488 1.04904e-05  0.000226796 -0.0128772 7.62939e-06  0.00021106 -0.0159748 1.00136e-05  0.000180244 -0.0193306 1.28746e-05  0.000132442 -0.0229271 1.4782e-05  6.87838e-05 -0.026756 5.72205e-06  -1.0848e-05 -0.0308054 1.04904e-05  -0.000107229 -0.0350658 1.19209e-05  -0.000221074 -0.039526 1.71661e-05  -0.000351071 -0.0441764 1.7643e-05  -0.000497103 -0.0490074 1.66893e-05  -0.00065887 -0.054013 2.47955e-05  -0.000835776 -0.0591809 2.6226e-05  -0.00102735 -0.0645059 3.05176e-05  -0.00123417 -0.0699775 3.24249e-05  -0.00145459 -0.0755895 4.14848e-05  -0.00168848 -0.081331 4.29153e-05  -0.0019362 -0.0872015 4.52995e-05  -0.00219631 -0.0931903 4.57764e-05  -0.00246954 -0.0992905 4.673e-05  -0.00275469 -0.105495 4.3869e-05  -0.00305092 -0.111797 4.72069e-05  -0.00335801 -0.118191 4.81606e-05  -0.0036751 -0.124671 4.86374e-05  -0.0040009 -0.13123 4.43459e-05  -0.00433707 -0.137865 4.29153e-05  -0.00468063 -0.144569 4.76837e-05  -0.00502992 -0.151335 5.14984e-05  -0.0053885 -0.158162 5.48363e-05  -0.00575447 -0.165041 5.76973e-05  -0.00612569 -0.171968 6.00815e-05  -0.00650287 -0.178938 6.38962e-05  -0.00688434 -0.185951 6.10352e-05  -0.00727105 -0.192999 5.96046e-05  -0.00766206 -0.200076 6.34193e-05  -0.00805664 -0.207182 6.96182e-05  -0.0084548 -0.214316 6.19888e-05  -0.00885463 -0.221466 7.24792e-05  -0.00925756 -0.228636 7.05719e-05  -0.00966477 -0.235817 6.91414e-05  -0.0100718 -0.243012 7.24792e-05  -0.0104792 -0.250214 7.20024e-05  -0.0108893 -0.257421 7.9155e-05  -0.0113001 -0.26463 7.39098e-05  -0.0117095 -0.271839 7.96318e-05  -0.0121207 -0.279047 8.05855e-05  -0.0125318 -0.286249 8.2016e-05  -0.0129421 -0.293448 8.15392e-05  -0.01335 -0.300638 9.10759e-05  -0.0137579 -0.30782 8.86917e-05  -0.0141668 -0.314993 8.82149e-05  -0.0145752 -0.322155 9.77516e-05  -0.0149834 -0.329305 9.53674e-05  -0.0153916 -0.336442 9.9659e-05  -0.0157969 -0.343562 0.000107288  -0.0162005 -0.350668 0.000113964  -0.0166008 -0.35775 0.000119209  0 0 0  9.24245e-05 0.000202537 0.000347614  0.000309676 -1.49012e-06 0.000584126  0.00058265 -0.000724196 0.000729561  0.000878006 -0.00190067 0.000814915  0.00117949 -0.00347042 0.00086832  0.00147828 -0.00539464 0.00090313  0.00176486 -0.00764453 0.000918865  0.00203377 -0.0101937 0.000916004  0.00228536 -0.0130267 0.00090313  0.0025174 -0.01613 0.000888348  0.00272804 -0.0194907 0.000860214  0.00291753 -0.0230924 0.000837326  0.00308275 -0.0269291 0.000810623  0.00322437 -0.030982 0.000780582  0.00334179 -0.0352497 0.000749588  0.00343478 -0.0397177 0.000722408  0.0035044 -0.0443749 0.000695705  0.00355053 -0.049215 0.000673294  0.0035727 -0.0542278 0.000640392  0.00357246 -0.0594054 0.000622272  0.00354993 -0.0647382 0.000592709  0.00350511 -0.0702194 0.000571728  0.00343812 -0.075839 0.000552177  0.00335097 -0.0815904 0.000533104  0.00324476 -0.0874677 0.000509739  0.00311828 -0.0934646 0.000491142  0.00297189 -0.0995734 0.000462532  0.00280702 -0.105786 0.000435352  0.00262535 -0.112096 0.000423908  0.00242805 -0.118497 0.000397682  0.00221348 -0.124985 0.000379562  0.00198245 -0.131551 0.000357151  0.00173879 -0.138193 0.000338554  0.0014801 -0.144903 0.000321865  0.00120854 -0.151675 0.000311852  0.000926256 -0.158507 0.000297546  0.000633478 -0.165392 0.000284672  0.000329494 -0.172323 0.000267029  1.45435e-05 -0.1793 0.000251293  -0.000310898 -0.186316 0.000239849  -0.000644207 -0.193369 0.000219822  -0.000985384 -0.200451 0.000210762  -0.00133514 -0.207559 0.000200748  -0.00169277 -0.214699 0.000197887  -0.00205731 -0.221851 0.000180721  -0.0024271 -0.229023 0.000169277  -0.00279975 -0.236208 0.000160217  -0.00317764 -0.243403 0.000153065  -0.00356078 -0.250607 0.000144005  -0.00394797 -0.257818 0.000133991  -0.00433731 -0.265028 0.000126839  -0.00472927 -0.272237 0.000122547  -0.00512457 -0.279447 0.00012064  -0.0055213 -0.286651 0.00012064  -0.00591898 -0.29385 0.000114441  -0.00631809 -0.301041 0.000110626  -0.00671792 -0.308223 0.000108719  -0.00712013 -0.315395 0.000101089  -0.00752306 -0.322556 0.00010252  -0.0079267 -0.329707 0.000102043  -0.00833082 -0.336843 0.000101089  -0.00873351 -0.343965 9.87053e-05  -0.00913358 -0.35107 0.000102997  -0.00953245 -0.358151 0.000107288  0 0 0  0.000172779 0.000115812 0.000684738  0.000579104 -0.000158489 0.00113869  0.00108907 -0.000930369 0.00142956  0.00164279 -0.00213784 0.00160789  0.00221074 -0.00372624 0.00172758  0.00277555 -0.00565863 0.0017972  0.00332755 -0.00791353 0.00181961  0.00386006 -0.0104645 0.00181913  0.00436777 -0.0133002 0.00179434  0.00484788 -0.0164052 0.00175571  0.00529999 -0.0197657 0.00170708  0.00572228 -0.0233707 0.00165939  0.00611496 -0.0272091 0.00160694  0.0064767 -0.0312647 0.00154686  0.00680697 -0.0355347 0.0014801  0.00710654 -0.0400069 0.00142717  0.00737441 -0.0446693 0.00137758  0.00761068 -0.0495135 0.00131893  0.00781655 -0.0545301 0.00126982  0.00799215 -0.0597129 0.00121212  0.00813806 -0.0650523 0.00116396  0.00825536 -0.0705375 0.00111866  0.00834417 -0.0761638 0.00107288  0.00840437 -0.0819203 0.00102282  0.00843608 -0.0878028 0.0009799  0.00844145 -0.0938036 0.000930309  0.00842237 -0.0999174 0.000887871  0.00838017 -0.106135 0.00083828  0.00831366 -0.11245 0.000791073  0.00822294 -0.118856 0.000747681  0.00811028 -0.125348 0.00070715  0.00797772 -0.131921 0.000671864  0.00782442 -0.138565 0.000636101  0.00765228 -0.145279 0.000604153  0.0074625 -0.152055 0.00056839  0.00725532 -0.158891 0.00053215  0.00703335 -0.165778 0.000501156  0.00679445 -0.172712 0.00047636  0.00653934 -0.179693 0.000445366  0.00627136 -0.186711 0.000415325  0.00598884 -0.193764 0.000385284  0.00569463 -0.200849 0.000360489  0.00538969 -0.20796 0.000336647  0.00507379 -0.2151 0.000315189  0.00474811 -0.222256 0.000297546  0.00441194 -0.229427 0.00027132  0.00406671 -0.236614 0.000252724  0.00371623 -0.24381 0.000239372  0.00335956 -0.251014 0.00021553  0.00299644 -0.258226 0.000196457  0.00262809 -0.265437 0.000178337  0.00225449 -0.272646 0.000170231  0.0018754 -0.279855 0.000156879  0.00149274 -0.28706 0.000151157  0.00110674 -0.294258 0.000147343  0.000717402 -0.301449 0.000141144  0.000324965 -0.30863 0.0001297  -6.98566e-05 -0.3158 0.000115395  -0.000466108 -0.32296 0.000114918  -0.000864983 -0.330112 0.000106335  -0.00126553 -0.337248 9.91821e-05  -0.00166798 -0.344371 9.87053e-05  -0.00206923 -0.351475 9.15527e-05  -0.00246859 -0.358558 8.4877e-05  0 0 0  0.000257246 -2.34246e-05 0.00101185  0.000861451 -0.000408173 0.00168228  0.00161821 -0.00125223 0.00212383  0.00243807 -0.00250226 0.00240135  0.00327846 -0.00411206 0.00258398  0.00411671 -0.00605357 0.0026803  0.00493717 -0.0083105 0.0027194  0.00573117 -0.0108598 0.00271702  0.00649303 -0.0136963 0.0026803  0.00722033 -0.0167973 0.00262642  0.00791234 -0.0201551 0.00256538  0.00856864 -0.0237599 0.00248146  0.0091874 -0.0275956 0.00239658  0.00976801 -0.0316526 0.00230551  0.01031 -0.0359221 0.00222778  0.0108132 -0.0403937 0.00213766  0.0112787 -0.0450581 0.00204945  0.0117062 -0.0499034 0.00196934  0.012095 -0.0549211 0.00188875  0.0124454 -0.0601052 0.00181341  0.0127589 -0.0654463 0.00173664  0.0130358 -0.0709339 0.00165653  0.0132772 -0.0765619 0.00158262  0.013484 -0.0823219 0.00151396  0.013657 -0.0882064 0.00144386  0.0137976 -0.0942085 0.00137806  0.0139049 -0.100324 0.00131416  0.0139806 -0.106543 0.00124121  0.0140265 -0.11286 0.00116968  0.0140443 -0.119269 0.00110483  0.0140332 -0.125763 0.00104427  0.0139961 -0.132336 0.000990391  0.0139351 -0.138983 0.000927448  0.0138483 -0.145699 0.000874519  0.013737 -0.152477 0.000823498  0.0136044 -0.159312 0.000775337  0.0134511 -0.1662 0.000727177  0.0132775 -0.173136 0.000684261  0.0130856 -0.180115 0.000638485  0.0128729 -0.187134 0.00059557  0.0126436 -0.194187 0.000547886  0.0123963 -0.201274 0.000506878  0.0121336 -0.208385 0.000471592  0.0118558 -0.215522 0.000438213  0.0115652 -0.222679 0.000402927  0.0112631 -0.22985 0.000370026  0.0109503 -0.237036 0.000342369  0.0106275 -0.244232 0.00031662  0.0102937 -0.251436 0.000286102  0.00995111 -0.258646 0.000264168  0.00960207 -0.265855 0.000236511  0.00924563 -0.273065 0.000211716  0.008883 -0.280273 0.000194073  0.00851536 -0.287477 0.000183105  0.00814128 -0.294673 0.000169754  0.00776219 -0.301861 0.000163555  0.00737882 -0.309042 0.00014925  0.00698924 -0.316211 0.000137329  0.00659657 -0.323368 0.000121117  0.00620079 -0.330518 0.000118732  0.00580263 -0.337655 0.000109673  0.00540352 -0.344778 9.82285e-05  0.00500345 -0.351883 8.82149e-05  0.00460434 -0.35897 7.10487e-05  0 0 0  0.000347182 -0.000226259 0.00131989  0.00116427 -0.000766873 0.00222111  0.0021866 -0.0017032 0.00281191  0.00328845 -0.00300193 0.00319386  0.00441149 -0.004632 0.00343752  0.00552517 -0.00658071 0.00357199  0.00661311 -0.00883514 0.00362635  0.00766671 -0.0113804 0.00361967  0.00868219 -0.01421 0.00357533  0.00965703 -0.0173056 0.00350189  0.0105889 -0.0206578 0.00341368  0.0114772 -0.024258 0.00331545  0.0123217 -0.0280893 0.00320148  0.0131204 -0.0321435 0.0030818  0.0138728 -0.0364107 0.00296211  0.0145802 -0.0408782 0.00284863  0.0152429 -0.0455409 0.00273895  0.0158595 -0.0503843 0.00262165  0.0164291 -0.055401 0.00251627  0.0169535 -0.0605825 0.00241423  0.0174339 -0.0659215 0.00231028  0.0178707 -0.0714091 0.0021987  0.0182644 -0.0770352 0.00210285  0.0186167 -0.082795 0.00200748  0.0189276 -0.088679 0.00191259  0.019199 -0.0946789 0.00182724  0.0194318 -0.100793 0.00173378  0.0196265 -0.107011 0.00164557  0.0197854 -0.113327 0.00155115  0.0199097 -0.119734 0.00146532  0.0200005 -0.126229 0.00138378  0.0200591 -0.132801 0.00130844  0.0200863 -0.139448 0.00123453  0.020083 -0.146162 0.00115728  0.0200505 -0.15294 0.00108576  0.0199916 -0.159773 0.00101566  0.0199058 -0.166659 0.000949383  0.0197952 -0.173592 0.000891685  0.0196612 -0.180568 0.000835419  0.0195038 -0.187586 0.000768661  0.0193231 -0.194638 0.000715733  0.0191231 -0.201721 0.000658035  0.0189033 -0.208832 0.00060463  0.0186651 -0.215966 0.000561714  0.0184107 -0.223122 0.000516415  0.0181415 -0.230291 0.000463963  0.0178573 -0.237476 0.00042057  0.0175612 -0.244669 0.000393391  0.017252 -0.251872 0.000356197  0.0169303 -0.259079 0.000323772  0.0165987 -0.266285 0.000287533  0.0162566 -0.273496 0.000252247  0.0159061 -0.280701 0.000237465  0.0155492 -0.287901 0.000221252  0.0151856 -0.295096 0.000195026  0.0148158 -0.30228 0.000174522  0.0144382 -0.309458 0.000161648  0.0140548 -0.316625 0.000156403  0.0136676 -0.323781 0.000137329  0.0132749 -0.330928 0.000125408  0.0128789 -0.338063 0.000113964  0.0124798 -0.345185 0.000101089  0.0120816 -0.352291 8.72612e-05  0.0116839 -0.359385 6.7234e-05  0 0 0  0.000446729 -0.00051266 0.00161791  0.00150141 -0.00125903 0.00274372  0.00281169 -0.00230181 0.00349665  0.00421104 -0.00364625 0.00399494  0.00562504 -0.0052911 0.00430346  0.00701848 -0.00723952 0.00446558  0.00837559 -0.00948554 0.00453663  0.00968981 -0.012023 0.00453281  0.0109586 -0.0148394 0.00447321  0.0121797 -0.0179283 0.00438261  0.0133517 -0.0212722 0.00427437  0.0144726 -0.0248644 0.00414562  0.0155421 -0.028689 0.00401258  0.0165582 -0.0327373 0.00386  0.0175209 -0.0369986 0.00372124  0.0184309 -0.0414607 0.00357342  0.0192878 -0.0461168 0.00343323  0.0200919 -0.050956 0.0032835  0.0208429 -0.0559682 0.00314856  0.0215402 -0.0611447 0.00301838  0.0221851 -0.0664784 0.00288343  0.022779 -0.0719621 0.00275946  0.0233228 -0.0775841 0.00262737  0.0238175 -0.0833389 0.00250101  0.0242647 -0.0892194 0.00238562  0.0246661 -0.0952158 0.00227833  0.0250231 -0.101324 0.00216675  0.025337 -0.107538 0.00204754  0.0256064 -0.11385 0.00194025  0.0258353 -0.120254 0.00182438  0.0260245 -0.126744 0.00172615  0.0261745 -0.133314 0.00162554  0.026289 -0.139956 0.00153446  0.0263686 -0.146668 0.00144196  0.0264139 -0.153442 0.00134897  0.026427 -0.160271 0.00125885  0.026408 -0.167154 0.00117397  0.0263584 -0.174082 0.00110006  0.0262804 -0.181054 0.00102568  0.0261753 -0.188066 0.000950813  0.0260465 -0.195115 0.000880718  0.025892 -0.202194 0.000812531  0.025713 -0.209303 0.000749111  0.0255134 -0.216432 0.000680447  0.0252929 -0.223584 0.000622272  0.0250545 -0.230751 0.000567913  0.0247984 -0.237932 0.000512123  0.0245264 -0.245123 0.000463009  0.0242386 -0.252321 0.000421524  0.0239365 -0.259523 0.000375748  0.0236206 -0.266728 0.00033474  0.0232918 -0.273935 0.000305176  0.0229521 -0.281136 0.000272751  0.022604 -0.288332 0.00024271  0.0222487 -0.295524 0.000221252  0.0218854 -0.302704 0.000193596  0.0215139 -0.309878 0.000181198  0.0211353 -0.317042 0.00016737  0.0207498 -0.324196 0.000148296  0.0203595 -0.33134 0.000131607  0.0199649 -0.338474 0.000115871  0.0195673 -0.345594 0.000102997  0.0191679 -0.352702 8.72612e-05  0.0187693 -0.359801 6.91414e-05  0 0 0  0.0005638 -0.000914037 0.00189877  0.0018802 -0.0019173 0.00327063  0.00351106 -0.00306755 0.00422239  0.00523138 -0.00444371 0.00483322  0.00694725 -0.00608963 0.00520039  0.00862533 -0.00802624 0.00539637  0.0102548 -0.0102577 0.00547314  0.0118309 -0.0127808 0.00546408  0.013352 -0.0155836 0.0053997  0.0148181 -0.0186609 0.00529003  0.0162281 -0.0219961 0.0051446  0.01758 -0.0255762 0.00499439  0.0188727 -0.0293924 0.00483084  0.0201055 -0.0334318 0.00465679  0.0212782 -0.0376833 0.00448465  0.0223902 -0.0421391 0.00431204  0.0234418 -0.0467845 0.00413227  0.024431 -0.0516162 0.00396061  0.0253592 -0.0566198 0.00379658  0.0262276 -0.0617895 0.00363445  0.027035 -0.0671157 0.00347757  0.0277833 -0.0725911 0.00331879  0.028475 -0.0782074 0.00316286  0.0291119 -0.0839531 0.00300932  0.0296946 -0.0898268 0.0028677  0.0302242 -0.0958173 0.00273085  0.0307019 -0.101917 0.00259876  0.03113 -0.108124 0.00246239  0.031509 -0.11443 0.00232649  0.0318402 -0.120827 0.00220346  0.0321248 -0.12731 0.00207281  0.0323665 -0.133874 0.00195503  0.0325661 -0.140511 0.00183392  0.0327234 -0.147216 0.00172329  0.0328424 -0.153984 0.00161457  0.0329254 -0.160809 0.00151014  0.0329733 -0.167684 0.00141478  0.0329859 -0.174607 0.00131035  0.032964 -0.181572 0.0012188  0.0329101 -0.188577 0.00113726  0.032825 -0.19562 0.00105  0.0327122 -0.202693 0.000973701  0.032573 -0.209795 0.000885963  0.0324073 -0.216921 0.000813484  0.0322173 -0.224066 0.000736713  0.0320065 -0.231228 0.000662327  0.031776 -0.238403 0.000605106  0.0315261 -0.245589 0.000543594  0.0312574 -0.252782 0.000490189  0.0309703 -0.259978 0.000442982  0.0306683 -0.267179 0.000391006  0.0303524 -0.274381 0.000345707  0.0300243 -0.281579 0.000306606  0.0296836 -0.288769 0.000279903  0.0293322 -0.295955 0.000244617  0.0289729 -0.303131 0.000223637  0.0286036 -0.310301 0.000198364  0.0282257 -0.317462 0.000178814  0.0278432 -0.324614 0.000155926  0.0274541 -0.331754 0.000136852  0.0270605 -0.338885 0.000118256  0.0266631 -0.346005 0.000102997  0.026264 -0.353115 8.67844e-05  0.0258641 -0.360217 7.62939e-05  0 0 0  0.000680253 -0.00146633 0.00220108  0.00232218 -0.00277239 0.0039196  0.00432085 -0.00401014 0.00503492  0.00638127 -0.00539094 0.00573206  0.00840491 -0.00701749 0.00614977  0.0103676 -0.00892991 0.00636911  0.0122673 -0.0111403 0.00644827  0.014106 -0.0136445 0.00644493  0.0158832 -0.0164334 0.0063529  0.0175963 -0.0194964 0.00622559  0.0192451 -0.0228204 0.00605679  0.0208284 -0.0263873 0.0058794  0.0223452 -0.030192 0.00569153  0.0237952 -0.0342196 0.0054884  0.0251749 -0.0384607 0.00528145  0.0264856 -0.0429054 0.00506639  0.0277286 -0.0475395 0.00485992  0.0289017 -0.0523595 0.00466156  0.030007 -0.0573505 0.00446558  0.0310428 -0.0625117 0.00426912  0.0320102 -0.0678282 0.00408459  0.0329119 -0.0732926 0.00390434  0.0337493 -0.078899 0.00371695  0.0345249 -0.0846344 0.00353718  0.0352384 -0.0904979 0.00337076  0.0358925 -0.0964782 0.00321198  0.0364888 -0.102569 0.00304508  0.0370278 -0.108765 0.00288963  0.0375112 -0.115062 0.002738  0.0379424 -0.121451 0.00258303  0.0383226 -0.127925 0.00242805  0.0386517 -0.13448 0.00228596  0.0389326 -0.141109 0.00214863  0.0391681 -0.147804 0.00200939  0.0393586 -0.154565 0.00187969  0.0395069 -0.161382 0.0017581  0.0396149 -0.168248 0.00163841  0.0396831 -0.175164 0.00152636  0.0397148 -0.18212 0.00142193  0.0397108 -0.189114 0.00132179  0.0396721 -0.19615 0.00122643  0.0396004 -0.203215 0.00112581  0.0394955 -0.210309 0.00103045  0.03936 -0.217429 0.000929356  0.0391979 -0.224566 0.000845909  0.0390122 -0.231721 0.000773907  0.0388033 -0.238888 0.000694752  0.0385721 -0.246067 0.000627041  0.0383198 -0.253255 0.000558376  0.0380495 -0.260443 0.000497818  0.0377595 -0.26764 0.000442982  0.0374525 -0.274834 0.000387192  0.0371282 -0.282025 0.000339508  0.0367901 -0.28921 0.000292778  0.0364411 -0.296389 0.000264168  0.0360823 -0.303561 0.000235558  0.0357137 -0.310726 0.000215054  0.0353358 -0.317884 0.000185013  0.03495 -0.325032 0.000166416  0.0345592 -0.332169 0.000145435  0.0341647 -0.339298 0.000123501  0.0337667 -0.346416 0.000110626  0.0333676 -0.353528 0.000100136  0.032969 -0.360632 7.96318e-05  0 0 0  0.00102754 -0.00222617 0.00283957  0.00305225 -0.00380242 0.004673  0.00535372 -0.00509119 0.00589514  0.00769645 -0.00644642 0.0066905  0.0100031 -0.00803959 0.00716782  0.0122501 -0.00991982 0.00741625  0.0144303 -0.0121071 0.007514  0.0165406 -0.0145904 0.00748491  0.01858 -0.017365 0.00738859  0.0205467 -0.0204135 0.00721979  0.022438 -0.0237243 0.00703049  0.0242544 -0.0272773 0.00682068  0.0259955 -0.0310687 0.00660181  0.0276598 -0.0350824 0.00636673  0.0292473 -0.039313 0.0061183  0.030756 -0.0437427 0.00586653  0.0321856 -0.0483657 0.00562572  0.0335388 -0.05317 0.00539923  0.0348151 -0.0581482 0.00517368  0.0360154 -0.063296 0.004951  0.0371416 -0.0686023 0.00472212  0.0381939 -0.0740528 0.0045042  0.0391731 -0.0796469 0.00429487  0.0400815 -0.0853713 0.00409603  0.040923 -0.0912213 0.0038929  0.0416985 -0.09719 0.0037055  0.0424092 -0.10327 0.00352287  0.0430582 -0.109455 0.0033412  0.0436465 -0.115739 0.00315428  0.0441749 -0.122117 0.00297642  0.0446435 -0.128581 0.00279665  0.0450566 -0.135125 0.00263071  0.0454159 -0.141743 0.00247192  0.0457246 -0.148426 0.00231409  0.0459838 -0.15518 0.00216293  0.0461946 -0.161984 0.00201845  0.0463581 -0.168841 0.00187969  0.0464776 -0.175747 0.00175524  0.0465567 -0.182694 0.00163031  0.0465977 -0.189676 0.00151682  0.0466006 -0.196701 0.00139952  0.0465658 -0.203757 0.00128508  0.046494 -0.210843 0.00117254  0.0463896 -0.217952 0.00105715  0.0462542 -0.225083 0.000957012  0.0460904 -0.232227 0.00087595  0.0458996 -0.239386 0.000789165  0.0456841 -0.246556 0.000704765  0.0454445 -0.253736 0.000630856  0.0451813 -0.260917 0.000552177  0.0448961 -0.268107 0.000482559  0.0445936 -0.275292 0.000418663  0.0442748 -0.282477 0.000367641  0.0439389 -0.289655 0.000317574  0.0435863 -0.296827 0.000277996  0.0432212 -0.303992 0.000247478  0.0428481 -0.311152 0.00021553  0.0424669 -0.318305 0.000191689  0.0420778 -0.325453 0.000164986  0.0416813 -0.332585 0.000142574  0.0412798 -0.339711 0.000133038  0.0408766 -0.346827 0.000113964  0.0404735 -0.353939 9.91821e-05  0.0400715 -0.361046 8.53539e-05  0 0 0  -0.00105954 -0.00244732 -0.00221586  -0.00295473 -0.00391809 -0.00382996  -0.0051226 -0.0052353 -0.00496864  -0.00739671 -0.00660942 -0.00574112  -0.0096924 -0.00816379 -0.0062232  -0.0119655 -0.00996199 -0.00649214  -0.0141974 -0.0120326 -0.00660229  -0.0163792 -0.0143765 -0.00660419  -0.0185054 -0.0169959 -0.00651741  -0.0205762 -0.0198766 -0.00637674  -0.0225921 -0.023009 -0.00619602  -0.024551 -0.0263817 -0.00599194  -0.0264553 -0.0299833 -0.00577354  -0.0283049 -0.0338039 -0.005548  -0.0301002 -0.0378341 -0.00532246  -0.031845 -0.0420563 -0.0051055  -0.0335406 -0.0464726 -0.00488138  -0.0351864 -0.0510752 -0.00466871  -0.036783 -0.0558493 -0.004457  -0.0383312 -0.0607891 -0.00425291  -0.0398314 -0.0658849 -0.00404739  -0.0412855 -0.0711311 -0.00384426  -0.0426959 -0.0765235 -0.00365114  -0.0440629 -0.0820536 -0.00346279  -0.0453855 -0.0877143 -0.00328159  -0.0466647 -0.0934955 -0.00309801  -0.0479026 -0.0993927 -0.00293493  -0.0490993 -0.1054 -0.00276423  -0.050257 -0.111509 -0.00260782  -0.0513783 -0.117721 -0.00245857  -0.0524614 -0.124023 -0.00230312  -0.0535057 -0.130414 -0.00216198  -0.054512 -0.136881 -0.00202465  -0.0554829 -0.14342 -0.00188923  -0.0564229 -0.150036 -0.0017643  -0.0573301 -0.156716 -0.00163126  -0.0582047 -0.163453 -0.00151873  -0.0590479 -0.170248 -0.00139618  -0.0598621 -0.177095 -0.00128651  -0.0606477 -0.183991 -0.00117493  -0.0614035 -0.190924 -0.00106716  -0.0621297 -0.197895 -0.000975132  -0.0628319 -0.204904 -0.000877857  -0.0635073 -0.211935 -0.000797272  -0.064158 -0.218993 -0.000710011  -0.0647857 -0.226076 -0.000629902  -0.065392 -0.233184 -0.000551701  -0.0659773 -0.240307 -0.00047493  -0.0665407 -0.247441 -0.00040102  -0.0670822 -0.25459 -0.000335693  -0.0676057 -0.261746 -0.000267982  -0.0681112 -0.2689 -0.000219822  -0.0686016 -0.276059 -0.000171185  -0.0690782 -0.283224 -0.000122547  -0.0695412 -0.290386 -8.4877e-05  -0.0699933 -0.297548 -4.3869e-05  -0.0704339 -0.304702 -1.62125e-05  -0.0708647 -0.311852 1.43051e-05  -0.0712876 -0.318992 3.52859e-05  -0.0717039 -0.326125 5.38826e-05  -0.0721152 -0.333251 7.05719e-05  -0.0725234 -0.340371 8.63075e-05  -0.0729313 -0.347484 0.000101089  -0.0733395 -0.354596 0.000119686  0 0 0  -0.000663869 -0.00155829 -0.00172997  -0.00216589 -0.00286829 -0.00318861  -0.0040223 -0.00415224 -0.00421858  -0.00600548 -0.00554947 -0.00490093  -0.00801337 -0.00714913 -0.00532627  -0.0100017 -0.00899632 -0.0055666  -0.0119506 -0.0111182 -0.00566578  -0.013855 -0.0135131 -0.00566816  -0.0157142 -0.0161773 -0.00560665  -0.0175267 -0.0191035 -0.00547886  -0.0192928 -0.0222801 -0.00532579  -0.0210156 -0.0256949 -0.00516129  -0.0226937 -0.0293393 -0.00497341  -0.0243275 -0.0332007 -0.00478506  -0.0259184 -0.0372712 -0.00458574  -0.0274663 -0.0415356 -0.00439501  -0.0289743 -0.0459947 -0.00421143  -0.0304419 -0.050635 -0.00402641  -0.0318679 -0.0554488 -0.00384521  -0.0332521 -0.0604259 -0.00366974  -0.0345974 -0.0655606 -0.00349283  -0.035905 -0.0708435 -0.00331593  -0.0371761 -0.0762741 -0.00314999  -0.0384103 -0.081839 -0.00298738  -0.0396082 -0.0875322 -0.00283337  -0.0407705 -0.0933484 -0.00267172  -0.0418974 -0.0992787 -0.00252962  -0.0429909 -0.105316 -0.00238514  -0.0440521 -0.111458 -0.00224972  -0.0450799 -0.1177 -0.00211954  -0.0460746 -0.12403 -0.00199461  -0.0470376 -0.130447 -0.00186777  -0.0479696 -0.136942 -0.00174952  -0.0488727 -0.143507 -0.00163555  -0.0497468 -0.150146 -0.00151682  -0.0505943 -0.15685 -0.00140905  -0.0514143 -0.16361 -0.00130653  -0.0522082 -0.170427 -0.00120783  -0.0529764 -0.177293 -0.00111341  -0.0537195 -0.184207 -0.00101519  -0.0544386 -0.191159 -0.000925064  -0.055135 -0.198146 -0.000832558  -0.0558069 -0.20517 -0.000758648  -0.0564554 -0.212218 -0.00068903  -0.0570834 -0.219292 -0.000613213  -0.0576911 -0.226391 -0.000543118  -0.0582809 -0.233507 -0.00047493  -0.0588512 -0.240641 -0.000407696  -0.0594032 -0.247787 -0.000345707  -0.0599384 -0.254944 -0.000282288  -0.0604572 -0.262108 -0.000227451  -0.0609603 -0.269271 -0.000185966  -0.06145 -0.276438 -0.00013876  -0.0619268 -0.283607 -0.000105381  -0.0623922 -0.290774 -7.05719e-05  -0.0628469 -0.297939 -3.48091e-05  -0.063292 -0.305099 -5.24521e-06  -0.0637286 -0.312251 1.23978e-05  -0.0641568 -0.319393 3.71933e-05  -0.0645788 -0.326528 5.38826e-05  -0.0649946 -0.333656 7.20024e-05  -0.065407 -0.340775 9.53674e-05  -0.0658169 -0.347887 0.000103474  -0.0662279 -0.354995 0.00012207  0 0 0  -0.000521403 -0.000973098 -0.0014782  -0.00167833 -0.00202479 -0.00264931  -0.00318144 -0.00322348 -0.00352573  -0.00483379 -0.00461424 -0.00411654  -0.00653031 -0.00624371 -0.00448513  -0.00821951 -0.00813363 -0.00469542  -0.00988218 -0.0103005 -0.00478888  -0.0115108 -0.0127422 -0.0047884  -0.0131034 -0.0154492 -0.00473404  -0.0146598 -0.0184161 -0.00464153  -0.0161788 -0.0216324 -0.00450993  -0.0176624 -0.0250863 -0.0043664  -0.0191126 -0.0287683 -0.00421715  -0.020529 -0.0326679 -0.00404739  -0.0219115 -0.0367748 -0.00388384  -0.0232608 -0.0410775 -0.0037241  -0.0245769 -0.0455741 -0.00356627  -0.0258602 -0.0502505 -0.003407  -0.0271102 -0.0550979 -0.00325584  -0.0283288 -0.0601115 -0.00310469  -0.0295163 -0.0652803 -0.00295973  -0.0306745 -0.0705994 -0.00281096  -0.0318025 -0.076063 -0.00266647  -0.0328996 -0.0816606 -0.00252962  -0.0339689 -0.0873856 -0.00239563  -0.0350103 -0.0932323 -0.00226879  -0.0360235 -0.0991929 -0.002141  -0.0370077 -0.105259 -0.00201893  -0.0379649 -0.111431 -0.00189877  -0.0388961 -0.117699 -0.00179577  -0.0398014 -0.124057 -0.00168705  -0.040681 -0.130498 -0.00158834  -0.0415366 -0.137018 -0.00147724  -0.0423667 -0.143608 -0.00138235  -0.0431743 -0.150269 -0.00128269  -0.0439577 -0.156994 -0.00118971  -0.044719 -0.163778 -0.00110626  -0.0454583 -0.170612 -0.00101852  -0.046176 -0.177497 -0.000935078  -0.0468745 -0.184429 -0.000853062  -0.0475531 -0.191398 -0.000779152  -0.0482099 -0.198403 -0.000705242  -0.0488479 -0.20544 -0.000635624  -0.0494678 -0.212502 -0.000574112  -0.0500708 -0.219592 -0.000513077  -0.0506575 -0.226702 -0.000452995  -0.0512271 -0.233829 -0.000397205  -0.0517807 -0.240973 -0.000342846  -0.0523202 -0.24813 -0.000288486  -0.052844 -0.255295 -0.000239372  -0.0533521 -0.262465 -0.000192642  -0.0538476 -0.269638 -0.000148296  -0.0543325 -0.276812 -0.000108719  -0.0548062 -0.283987 -7.62939e-05  -0.0552695 -0.291158 -4.86374e-05  -0.0557237 -0.298327 -1.43051e-05  -0.0561695 -0.30549 6.19888e-06  -0.0566077 -0.312645 2.3365e-05  -0.0570393 -0.319792 4.14848e-05  -0.0574648 -0.326929 5.81741e-05  -0.057883 -0.334057 7.86781e-05  -0.0582962 -0.341177 9.29832e-05  -0.0587084 -0.348287 0.000105858  -0.0591192 -0.355393 0.000120163  0 0 0  -0.000398252 -0.000568703 -0.00124216  -0.00129895 -0.00139613 -0.00219059  -0.00248748 -0.0024859 -0.00290298  -0.00381713 -0.0038482 -0.0033884  -0.00519994 -0.00548798 -0.00369501  -0.00659105 -0.00740801 -0.00386715  -0.00796849 -0.00960971 -0.00395489  -0.00932205 -0.0120886 -0.0039525  -0.0106489 -0.0148329 -0.00390863  -0.0119491 -0.0178359 -0.00382662  -0.0132226 -0.0210861 -0.00372696  -0.0144691 -0.0245735 -0.00361061  -0.0156889 -0.0282895 -0.00347519  -0.0168849 -0.0322227 -0.00334787  -0.0180562 -0.0363618 -0.00320816  -0.0192021 -0.0406986 -0.00307369  -0.0203245 -0.0452272 -0.00294447  -0.0214219 -0.0499351 -0.00281  -0.022495 -0.054814 -0.00268173  -0.0235438 -0.0598595 -0.00256252  -0.0245694 -0.0650585 -0.00243902  -0.0255738 -0.0704105 -0.00232077  -0.0265561 -0.0759032 -0.00220108  -0.0275149 -0.08153 -0.00208807  -0.0284514 -0.0872846 -0.0019803  -0.0293669 -0.0931581 -0.00187445  -0.0302606 -0.0991458 -0.00176764  -0.0311341 -0.105239 -0.0016613  -0.0319883 -0.111437 -0.00156832  -0.0328203 -0.117729 -0.00147295  -0.0336323 -0.124112 -0.0013938  -0.0344238 -0.130575 -0.00130796  -0.0351961 -0.137118 -0.0012188  -0.0359519 -0.143733 -0.00113392  -0.0366876 -0.150414 -0.00105143  -0.0374041 -0.157158 -0.000977993  -0.0381021 -0.163962 -0.000903606  -0.038784 -0.170813 -0.000841618  -0.0394514 -0.177715 -0.000764847  -0.0401018 -0.184661 -0.000698566  -0.0407343 -0.191646 -0.000630379  -0.0413523 -0.198667 -0.00056839  -0.0419548 -0.205715 -0.000517845  -0.0425425 -0.212791 -0.000469208  -0.043118 -0.219894 -0.000415802  -0.043678 -0.227014 -0.000364304  -0.0442245 -0.234154 -0.000317574  -0.0447576 -0.241307 -0.000274181  -0.045279 -0.248474 -0.000235081  -0.045788 -0.255646 -0.000190258  -0.0462861 -0.262822 -0.000145435  -0.0467732 -0.270003 -0.000104904  -0.0472498 -0.277183 -7.58171e-05  -0.0477171 -0.284363 -5.05447e-05  -0.0481772 -0.291539 -2.6226e-05  -0.0486286 -0.298712 -1.43051e-06  -0.0490711 -0.305879 1.66893e-05  -0.0495067 -0.313037 3.24249e-05  -0.0499361 -0.320187 4.86374e-05  -0.0503597 -0.327328 5.91278e-05  -0.0507803 -0.334457 7.77245e-05  -0.0511951 -0.341576 9.25064e-05  -0.051605 -0.348685 0.000100136  -0.0520163 -0.355787 0.000118256  0 0 0  -0.000299409 -0.000291348 -0.00100327  -0.000978492 -0.000940531 -0.00175905  -0.00188693 -0.00193237 -0.00231028  -0.00291346 -0.00325495 -0.00269032  -0.0039922 -0.00489263 -0.00293207  -0.00508714 -0.00683165 -0.00307322  -0.00617927 -0.0090574 -0.0031395  -0.00725922 -0.0115644 -0.00314856  -0.0083226 -0.0143399 -0.00310659  -0.00936747 -0.0173725 -0.00304794  -0.0103928 -0.0206516 -0.00296164  -0.0114017 -0.0241687 -0.0028677  -0.0123943 -0.027912 -0.00276756  -0.0133684 -0.0318749 -0.00266027  -0.0143257 -0.0360412 -0.00254393  -0.0152678 -0.0404082 -0.00244093  -0.016193 -0.0449637 -0.00233269  -0.0171018 -0.0496983 -0.00222778  -0.0179949 -0.0546067 -0.00212812  -0.0188735 -0.0596784 -0.00202799  -0.0197366 -0.0649046 -0.00193262  -0.0205841 -0.0702835 -0.00184631  -0.0214155 -0.0758021 -0.00175238  -0.0222331 -0.0814561 -0.00166082  -0.0230353 -0.0872352 -0.00156689  -0.0238211 -0.0931341 -0.00148392  -0.0245936 -0.0991456 -0.00139475  -0.0253527 -0.105264 -0.00131989  -0.0260975 -0.111485 -0.0012455  -0.0268271 -0.117797 -0.00116253  -0.0275431 -0.124201 -0.00109243  -0.0282457 -0.130686 -0.00103045  -0.0289352 -0.137248 -0.000962734  -0.0296104 -0.143884 -0.000897408  -0.0302718 -0.150583 -0.000833511  -0.0309198 -0.157346 -0.000767708  -0.0315566 -0.164164 -0.000709534  -0.0321801 -0.171033 -0.000655651  -0.0327897 -0.177951 -0.000603199  -0.0333884 -0.184909 -0.000548363  -0.0339777 -0.191908 -0.000496387  -0.0345533 -0.19894 -0.000443935  -0.0351169 -0.206002 -0.000404358  -0.0356703 -0.21309 -0.000366211  -0.0362127 -0.220203 -0.000320911  -0.0367427 -0.227334 -0.000276089  -0.0372629 -0.234484 -0.000239372  -0.0377746 -0.241646 -0.000202656  -0.0382781 -0.24882 -0.000173569  -0.0387704 -0.255999 -0.000135422  -0.039252 -0.263182 -0.000102043  -0.039727 -0.27037 -7.29561e-05  -0.0401943 -0.277554 -4.62532e-05  -0.0406523 -0.284739 -1.85966e-05  -0.0411024 -0.29192 -4.76837e-07  -0.0415471 -0.299097 1.62125e-05  -0.0419862 -0.306266 2.6226e-05  -0.0424199 -0.313429 4.24385e-05  -0.0428474 -0.32058 5.72205e-05  -0.0432706 -0.327725 6.86646e-05  -0.0436864 -0.334855 7.43866e-05  -0.0440989 -0.341973 8.7738e-05  -0.0445118 -0.349082 0.00010252  -0.0449235 -0.356178 0.000118732  0 0 0  -0.000212811 -0.000107229 -0.000756741  -0.000696726 -0.00062716 -0.00132418  -0.00134884 -0.00153977 -0.00172424  -0.00209165 -0.00282437 -0.00200272  -0.00287923 -0.00445423 -0.00218487  -0.00368521 -0.00640371 -0.0022974  -0.00449535 -0.00864571 -0.00234127  -0.0053024 -0.0111747 -0.00235367  -0.00610048 -0.0139739 -0.00232697  -0.00688845 -0.0170301 -0.00227547  -0.00766736 -0.0203338 -0.00221062  -0.0084368 -0.0238754 -0.00214052  -0.00919718 -0.0276423 -0.00206804  -0.00994968 -0.031628 -0.00198174  -0.0106933 -0.0358178 -0.00190163  -0.011429 -0.0402097 -0.00181627  -0.0121572 -0.0447882 -0.00174093  -0.0128778 -0.0495455 -0.00165987  -0.0135911 -0.0544794 -0.00158548  -0.0142953 -0.0595728 -0.00151157  -0.014991 -0.0648246 -0.00144196  -0.015679 -0.0702253 -0.00137281  -0.0163597 -0.0757667 -0.00129938  -0.0170314 -0.0814438 -0.00123072  -0.0176969 -0.0872441 -0.00116587  -0.0183558 -0.0931644 -0.00110626  -0.0190051 -0.0991971 -0.00103712  -0.0196459 -0.105338 -0.000978947  -0.020279 -0.111577 -0.000915527  -0.0209049 -0.11791 -0.000856876  -0.0215228 -0.124331 -0.000803947  -0.0221329 -0.130833 -0.000761032  -0.0227361 -0.137415 -0.000712395  -0.0233309 -0.144066 -0.000665188  -0.023917 -0.150782 -0.000613689  -0.0244942 -0.15756 -0.000565529  -0.0250626 -0.164392 -0.00051403  -0.0256245 -0.171277 -0.000480652  -0.0261793 -0.178207 -0.000435352  -0.0267253 -0.185176 -0.000392437  -0.0272622 -0.192186 -0.000354767  -0.0277927 -0.19923 -0.000319004  -0.0283167 -0.206304 -0.000287533  -0.0288332 -0.213402 -0.000261307  -0.0293417 -0.220523 -0.000225067  -0.0298426 -0.227664 -0.000185966  -0.0303364 -0.234822 -0.000156403  -0.0308232 -0.241992 -0.000135899  -0.0313029 -0.249172 -0.000106812  -0.0317762 -0.256357 -8.53539e-05  -0.0322437 -0.263546 -5.67436e-05  -0.0327044 -0.27074 -3.71933e-05  -0.0331583 -0.277929 -1.85966e-05  -0.0336068 -0.285118 4.76837e-07  -0.0340476 -0.292303 2.38419e-05  -0.0344837 -0.299483 3.09944e-05  -0.0349164 -0.306656 4.72069e-05  -0.0353456 -0.313821 5.38826e-05  -0.0357699 -0.320975 6.29425e-05  -0.0361896 -0.32812 6.91414e-05  -0.0366046 -0.335251 7.82013e-05  -0.0370173 -0.342371 9.15527e-05  -0.0374286 -0.349479 0.000101089  -0.0378387 -0.356569 0.000115395  0 0 0  -0.000133771 5.24521e-06 -0.000509262  -0.000437766 -0.000430316 -0.000881195  -0.000850454 -0.00128672 -0.00115013  -0.00132555 -0.00254378 -0.00132942  -0.00183463 -0.00416532 -0.00145149  -0.00235921 -0.00611994 -0.00152445  -0.00288999 -0.00837389 -0.00156212  -0.00342411 -0.0109201 -0.00156975  -0.00395793 -0.0137357 -0.00154495  -0.00449014 -0.0168109 -0.00151443  -0.00502044 -0.0201339 -0.00147152  -0.00554985 -0.0236948 -0.00142479  -0.00607949 -0.0274811 -0.00137472  -0.00660843 -0.0314849 -0.00131035  -0.00713724 -0.0356948 -0.00125837  -0.00766742 -0.040106 -0.0012064  -0.00819719 -0.0447043 -0.00115252  -0.008726 -0.0494812 -0.00110054  -0.00925398 -0.0544347 -0.00104856  -0.00978243 -0.0595484 -0.000993252  -0.0103127 -0.0648201 -0.000948906  -0.0108422 -0.0702402 -0.00090456  -0.0113697 -0.0758001 -0.0008564  -0.0118967 -0.0814956 -0.000814915  -0.0124223 -0.087314 -0.000761509  -0.0129471 -0.0932536 -0.000720024  -0.0134722 -0.0993035 -0.000678062  -0.0139964 -0.105462 -0.000637054  -0.0145179 -0.111718 -0.000595093  -0.0150367 -0.118068 -0.000554085  -0.0155549 -0.124505 -0.000520706  -0.0160712 -0.131022 -0.00049305  -0.0165854 -0.137618 -0.000466347  -0.0170972 -0.144284 -0.000432491  -0.0176051 -0.151013 -0.000398159  -0.0181096 -0.157804 -0.000356197  -0.0186105 -0.16465 -0.000333309  -0.0191078 -0.171545 -0.000301838  -0.0196028 -0.178487 -0.00026989  -0.0200961 -0.185466 -0.000240326  -0.0205855 -0.192484 -0.000222206  -0.0210702 -0.199538 -0.000193596  -0.0215511 -0.206621 -0.000170231  -0.0220289 -0.213728 -0.000150681  -0.0225019 -0.220857 -0.000121117  -0.0229702 -0.228006 -9.91821e-05  -0.0234349 -0.235171 -8.29697e-05  -0.0238955 -0.242347 -6.67572e-05  -0.0243526 -0.249531 -4.72069e-05  -0.0248058 -0.256723 -3.00407e-05  -0.025254 -0.263918 -1.09673e-05  -0.0256975 -0.271114 3.33786e-06  -0.0261383 -0.278309 1.4782e-05  -0.0265746 -0.2855 2.81334e-05  -0.0270066 -0.292689 3.86238e-05  -0.0274343 -0.299872 4.52995e-05  -0.027859 -0.307048 5.43594e-05  -0.028281 -0.314214 6.62804e-05  -0.0287006 -0.321372 7.05719e-05  -0.0291164 -0.328515 8.15392e-05  -0.0295289 -0.335648 8.91685e-05  -0.0299387 -0.34277 9.44138e-05  -0.0303469 -0.349876 0.000107288  -0.0307543 -0.356963 0.000114918  0 0 0  -5.98915e-05 6.06477e-05 -0.000253677  -0.000195898 -0.000331461 -0.000439167  -0.000381634 -0.00115752 -0.000568867  -0.000597239 -0.00240102 -0.000663757  -0.000831515 -0.00401828 -0.000723362  -0.00107789 -0.00597659 -0.000761509  -0.00133407 -0.00824186 -0.000780582  -0.00159812 -0.0107986 -0.00078392  -0.00186819 -0.0136276 -0.000771046  -0.00214398 -0.0167154 -0.000751019  -0.00242615 -0.0200534 -0.000729561  -0.00271612 -0.0236288 -0.000710487  -0.00301379 -0.02743 -0.000684738  -0.00331891 -0.0314479 -0.000652313  -0.00363219 -0.0356743 -0.00062561  -0.00395435 -0.0401004 -0.000598431  -0.00428402 -0.0447141 -0.000573158  -0.00462115 -0.049507 -0.000540257  -0.00496721 -0.0544761 -0.000514984  -0.00532007 -0.0596064 -0.000483036  -0.0056802 -0.0648943 -0.00046587  -0.00604868 -0.0703298 -0.000436783  -0.00642335 -0.0759054 -0.000414371  -0.00680292 -0.0816143 -0.000391006  -0.00718868 -0.0874483 -0.000361443  -0.00758123 -0.0934028 -0.000341415  -0.00797892 -0.0994682 -0.000317097  -0.0083822 -0.10564 -0.000297546  -0.00879109 -0.111911 -0.000276566  -0.00920558 -0.118273 -0.000262737  -0.00962281 -0.124724 -0.000238895  -0.0100429 -0.131254 -0.000227451  -0.0104668 -0.137861 -0.000213623  -0.0108941 -0.14454 -0.000195503  -0.0113232 -0.15128 -0.000183582  -0.0117548 -0.158082 -0.000156403  -0.012187 -0.164937 -0.000139236  -0.0126216 -0.171841 -0.00012064  -0.0130577 -0.178792 -0.000109196  -0.0134935 -0.185781 -9.77516e-05  -0.013931 -0.192807 -8.05855e-05  -0.014369 -0.199867 -6.58035e-05  -0.014807 -0.206957 -5.43594e-05  -0.015244 -0.214072 -4.3869e-05  -0.0156817 -0.221207 -3.33786e-05  -0.0161178 -0.228362 -1.43051e-05  -0.0165508 -0.235531 -8.58307e-06  -0.0169835 -0.242714 7.15256e-06  -0.0174162 -0.249901 1.14441e-05  -0.0178473 -0.257097 2.67029e-05  -0.0182767 -0.264296 3.09944e-05  -0.0187044 -0.271494 4.05312e-05  -0.0191302 -0.278694 4.1008e-05  -0.0195539 -0.285888 5.29289e-05  -0.019974 -0.293081 6.00815e-05  -0.0203917 -0.300266 6.91414e-05  -0.0208087 -0.307442 6.91414e-05  -0.0212238 -0.314609 7.53403e-05  -0.021637 -0.32177 8.29697e-05  -0.0220475 -0.328912 9.29832e-05  -0.0224578 -0.336047 9.15527e-05  -0.022866 -0.343167 0.000100613  -0.0232713 -0.350273 0.000110149  -0.0236759 -0.357358 0.000116348  0 0 0  1.20625e-05 6.71148e-05 1.00136e-05  4.04567e-05 -0.000320107 1.04904e-05  7.65771e-05 -0.00114357 7.62939e-06  0.000113934 -0.00238827 6.67572e-06  0.000148088 -0.00400895 1.43051e-06  0.000175148 -0.00597286 9.53674e-07  0.000192851 -0.0082472 -1.43051e-06  0.000199139 -0.0108102 0  0.000192404 -0.0136485 -1.43051e-06  0.0001719 -0.0167445 -4.76837e-07  0.000137687 -0.0200929 2.38419e-06  8.88109e-05 -0.0236779 3.8147e-06  2.37823e-05 -0.0274902 -2.86102e-06  -5.81741e-05 -0.0315179 -4.76837e-07  -0.00015676 -0.0357563 3.33786e-06  -0.000271142 -0.0401929 8.10623e-06  -0.000400305 -0.0448178 6.67572e-06  -0.000545859 -0.0496241 9.53674e-06  -0.000707388 -0.0546049 1.52588e-05  -0.000883818 -0.0597476 1.81198e-05  -0.00107551 -0.0650477 2.14577e-05  -0.00128186 -0.070496 2.57492e-05  -0.00150108 -0.0760832 3.09944e-05  -0.00173366 -0.0818022 3.52859e-05  -0.00198042 -0.0876487 3.57628e-05  -0.00223947 -0.0936144 3.71933e-05  -0.00251138 -0.0996925 4.00543e-05  -0.00279462 -0.105874 3.67165e-05  -0.00308907 -0.112156 4.05312e-05  -0.00339341 -0.118529 4.1008e-05  -0.00370908 -0.12499 4.19617e-05  -0.00403428 -0.131531 3.71933e-05  -0.00436759 -0.138147 3.91006e-05  -0.00470877 -0.144835 3.91006e-05  -0.00505805 -0.151583 4.57764e-05  -0.00541544 -0.158394 4.95911e-05  -0.00578022 -0.165256 5.24521e-05  -0.00615096 -0.172167 5.38826e-05  -0.00652599 -0.179124 5.72205e-05  -0.00690627 -0.186122 5.48363e-05  -0.00729036 -0.193154 5.62668e-05  -0.00767851 -0.20022 5.8651e-05  -0.00806975 -0.207314 6.29425e-05  -0.00846648 -0.214436 5.96046e-05  -0.00886726 -0.221574 6.77109e-05  -0.00927138 -0.228734 6.81877e-05  -0.00967765 -0.235906 6.7234e-05  -0.0100844 -0.243091 6.62804e-05  -0.0104916 -0.250283 6.86646e-05  -0.0108998 -0.257482 7.58171e-05  -0.0113077 -0.264682 7.15256e-05  -0.0117178 -0.271884 7.58171e-05  -0.0121279 -0.279085 7.86781e-05  -0.0125384 -0.286284 8.2016e-05  -0.0129488 -0.293477 7.9155e-05  -0.0133581 -0.300663 8.72612e-05  -0.0137656 -0.30784 8.4877e-05  -0.0141726 -0.315008 8.63075e-05  -0.0145807 -0.322168 9.48906e-05  -0.0149887 -0.329312 9.63211e-05  -0.0153959 -0.336447 9.91821e-05  -0.0158021 -0.343565 0.000105858  -0.0162063 -0.350671 0.000111103  -0.016607 -0.357755 0.000114441  0 0 0  8.27834e-05 2.63453e-05 0.000264168  0.000273705 -0.000392258 0.000460148  0.000531659 -0.00124109 0.000593185  0.000822812 -0.00250256 0.000676155  0.00112516 -0.00413549 0.000728607  0.00142664 -0.0061065 0.000761509  0.00171772 -0.00838774 0.000782013  0.00199306 -0.010955 0.000781059  0.00224906 -0.0137973 0.000768661  0.00248343 -0.0168995 0.000759125  0.00269651 -0.0202523 0.000730991  0.00288713 -0.0238417 0.000711441  0.00305343 -0.0276622 0.00069046  0.00319588 -0.0316947 0.000661373  0.00331485 -0.0359413 0.00063467  0.0034095 -0.040385 0.000611782  0.003479 -0.0450182 0.000590324  0.00352502 -0.0498332 0.000570774  0.00354743 -0.0548216 0.000542641  0.00354671 -0.0599728 0.000527382  0.0035243 -0.065282 0.00050354  0.00347984 -0.0707386 0.000484943  0.00341451 -0.0763347 0.000471115  0.00332856 -0.0820616 0.000454426  0.00322235 -0.0879163 0.000434875  0.00309634 -0.0938905 0.000418186  0.00295126 -0.0999772 0.000394344  0.00278807 -0.106167 0.000371456  0.00260675 -0.112457 0.000362396  0.00240886 -0.118838 0.000339985  0.00219607 -0.125305 0.000324726  0.00196767 -0.131855 0.000308037  0.00172353 -0.138477 0.000290394  0.00146556 -0.14517 0.000277519  0.0011971 -0.151924 0.000265598  0.000916958 -0.15874 0.000255108  0.000624895 -0.165608 0.000243187  0.00032115 -0.172525 0.000230312  6.19888e-06 -0.179486 0.000218868  -0.000319004 -0.186489 0.000207424  -0.000652552 -0.193527 0.000190258  -0.00099349 -0.200596 0.000183105  -0.00134182 -0.207692 0.00017643  -0.00169683 -0.214819 0.000174522  -0.00205827 -0.22196 0.000163555  -0.0024271 -0.229121 0.000150204  -0.00280142 -0.236297 0.000143528  -0.00318003 -0.243484 0.000137806  -0.00356269 -0.250678 0.0001297  -0.00394988 -0.257879 0.000123024  -0.00434041 -0.265082 0.000116825  -0.00473213 -0.272283 0.00011301  -0.00512457 -0.279486 0.000110626  -0.00551939 -0.286687 0.000112534  -0.00591588 -0.29388 0.000107288  -0.00631547 -0.301066 0.000105381  -0.00671721 -0.308242 0.000104427  -0.00712037 -0.315411 9.77516e-05  -0.00752234 -0.32257 9.82285e-05  -0.0079248 -0.329716 0.000101089  -0.00832796 -0.336849 0.000100136  -0.00873089 -0.343967 9.77516e-05  -0.00913262 -0.351073 0.000101089  -0.00953102 -0.358157 0.000105858  0 0 0  0.000156313 -6.38366e-05 0.000523567  0.000515565 -0.000551164 0.000899315  0.000999406 -0.00145084 0.0011673  0.00154668 -0.00274456 0.00133848  0.0021193 -0.00439686 0.00145864  0.0026955 -0.00637656 0.00152683  0.00326234 -0.00866151 0.0015502  0.00380826 -0.0112317 0.00155449  0.00432771 -0.0140737 0.00153685  0.00481844 -0.0171788 0.00150442  0.00527793 -0.0205308 0.00146055  0.00570589 -0.0241222 0.00142145  0.00610334 -0.0279438 0.00137186  0.00646979 -0.0319796 0.00132227  0.00680178 -0.0362287 0.00126266  0.00710106 -0.0406764 0.00121641  0.00736928 -0.0453147 0.00117636  0.00760615 -0.0501338 0.00112581  0.00781274 -0.0551256 0.00108194  0.00798893 -0.0602831 0.00103331  0.00813425 -0.0655974 0.000993252  0.00825131 -0.0710577 0.000953674  0.00834012 -0.0766606 0.000915051  0.00840127 -0.0823938 0.00087595  0.00843394 -0.0882524 0.00083971  0.00844026 -0.0942321 0.000796795  0.00842226 -0.100323 0.000758171  0.00838041 -0.106519 0.000716686  0.00831413 -0.112814 0.000675201  0.00822449 -0.1192 0.000641346  0.00811112 -0.12567 0.000605106  0.00797749 -0.132226 0.000574112  0.00782681 -0.138851 0.000544548  0.00765705 -0.145548 0.000516415  0.00746775 -0.152306 0.000489712  0.00725961 -0.159125 0.000455856  0.00703573 -0.165995 0.000429153  0.0067966 -0.172916 0.000409603  0.00654292 -0.179879 0.000383377  0.00627494 -0.186885 0.000359058  0.00599337 -0.193925 0.000331879  0.00569868 -0.200996 0.000312805  0.00539303 -0.208094 0.000292301  0.00507641 -0.215222 0.000273228  0.00475168 -0.222366 0.00026083  0.00441813 -0.229527 0.000239372  0.00407457 -0.236704 0.000223637  0.00372362 -0.243891 0.000211239  0.00336576 -0.251085 0.000190735  0.00300193 -0.258288 0.000173569  0.00263357 -0.265492 0.00015831  0.00225997 -0.272693 0.000152111  0.00188088 -0.279896 0.000142097  0.00149798 -0.287096 0.000136852  0.00111294 -0.294288 0.000134468  0.000723839 -0.301473 0.00013113  0.000331163 -0.308649 0.000120163  -6.48499e-05 -0.315818 0.000109196  -0.00046277 -0.322974 0.000107765  -0.00086236 -0.330121 0.000101089  -0.00126314 -0.337253 9.91821e-05  -0.00166464 -0.344372 0.000100613  -0.0020659 -0.351477 9.39369e-05  -0.00246692 -0.358563 9.25064e-05  0 0 0  0.00023409 -0.000208914 0.000772953  0.000770077 -0.000806451 0.00133419  0.00148842 -0.00178117 0.00173855  0.00230137 -0.00311995 0.00200367  0.00315401 -0.00479633 0.00218058  0.00401217 -0.00678343 0.0022769  0.00485417 -0.00907117 0.0023222  0.00566941 -0.0116376 0.00232363  0.00645077 -0.0144785 0.00229979  0.00719398 -0.0175788 0.00225258  0.00789988 -0.0209273 0.00220013  0.00856632 -0.0245168 0.00212717  0.00919187 -0.0283352 0.00205326  0.00977653 -0.0323711 0.00197411  0.010323 -0.0366192 0.00190639  0.0108305 -0.0410666 0.00182724  0.0112963 -0.0457068 0.0017519  0.0117236 -0.0505261 0.00168133  0.0121129 -0.055519 0.00161409  0.0124637 -0.0606782 0.00154924  0.0127773 -0.0659939 0.00148296  0.0130537 -0.0714561 0.00141668  0.0132939 -0.0770603 0.00135183  0.0135009 -0.0827973 0.00129366  0.0136746 -0.0886582 0.00123549  0.0138144 -0.0946394 0.00117779  0.0139222 -0.100732 0.00112581  0.0139986 -0.10693 0.00106192  0.0140452 -0.113227 0.000998974  0.0140629 -0.119614 0.000943184  0.0140522 -0.126087 0.000895023  0.0140157 -0.132644 0.000844955  0.0139537 -0.139272 0.000793457  0.0138652 -0.145968 0.000750065  0.0137534 -0.15273 0.000707626  0.0136206 -0.159548 0.000663757  0.0134666 -0.166418 0.000622749  0.0132928 -0.17334 0.000586987  0.0131004 -0.180303 0.000545979  0.0128891 -0.18731 0.000511646  0.0126591 -0.194349 0.000472069  0.0124114 -0.201421 0.000437737  0.0121486 -0.208519 0.000408649  0.0118711 -0.215645 0.000379562  0.01158 -0.222791 0.000349522  0.0112789 -0.229951 0.000320911  0.0109673 -0.237127 0.000295639  0.0106449 -0.244313 0.000276566  0.0103121 -0.251507 0.00025177  0.00996923 -0.258709 0.000231743  0.009619 -0.265911 0.000205517  0.00926042 -0.273113 0.000190735  0.00889373 -0.280314 0.000174046  0.00852156 -0.28751 0.000164509  0.00814581 -0.294702 0.000153542  0.00776887 -0.301886 0.000145912  0.00738573 -0.30906 0.000138283  0.00699592 -0.316227 0.000130177  0.00660205 -0.323382 0.000114918  0.00620532 -0.330528 0.000113487  0.00580788 -0.33766 0.000105858  0.00540996 -0.344781 9.72748e-05  0.00501204 -0.351886 9.10759e-05  0.00461435 -0.358976 7.82013e-05  0 0 0  0.000317365 -0.000421882 0.00100851  0.00104584 -0.00117391 0.00176334  0.00201967 -0.00224572 0.00230122  0.00311363 -0.0036394 0.002666  0.004253 -0.00533736 0.0029006  0.00539452 -0.00733036 0.00304031  0.00651342 -0.00961494 0.00309801  0.00759697 -0.0121744 0.00310421  0.00863904 -0.0150071 0.00306463  0.00963634 -0.0180982 0.00300646  0.0105856 -0.0214399 0.00293112  0.0114876 -0.0250228 0.00284481  0.012343 -0.0288363 0.00274515  0.0131502 -0.0328681 0.00264168  0.0139065 -0.0371129 0.00254011  0.0146154 -0.0415555 0.00243855  0.01528 -0.0461925 0.00234127  0.0158968 -0.0510105 0.00224447  0.0164665 -0.0560021 0.00215387  0.0169914 -0.0611578 0.00206566  0.017472 -0.0664714 0.00197554  0.0179082 -0.071934 0.00188112  0.0183012 -0.0775353 0.0017972  0.0186526 -0.0832719 0.00171661  0.0189629 -0.0891333 0.00163841  0.0192339 -0.0951115 0.00156403  0.0194662 -0.101204 0.00148344  0.0196606 -0.1074 0.00140905  0.0198187 -0.113696 0.00132513  0.0199428 -0.120082 0.00125265  0.020033 -0.126555 0.00118256  0.0200908 -0.133109 0.00112009  0.0201175 -0.139736 0.00105572  0.0201139 -0.146433 0.000991821  0.0200815 -0.153194 0.000929832  0.0200222 -0.16001 0.000869751  0.0199368 -0.166878 0.000814915  0.0198247 -0.173797 0.000762939  0.0196891 -0.180758 0.000717163  0.0195301 -0.187763 0.000659943  0.019351 -0.1948 0.00061512  0.0191507 -0.201871 0.000565529  0.01893 -0.208967 0.00052309  0.0186899 -0.216089 0.000484467  0.0184345 -0.223234 0.000444412  0.0181642 -0.230394 0.000401974  0.0178788 -0.237566 0.000364304  0.0175807 -0.24475 0.000340939  0.0172713 -0.251943 0.000312328  0.0169504 -0.259141 0.000281811  0.0166171 -0.266339 0.000253677  0.0162735 -0.273542 0.000222683  0.015923 -0.28074 0.000210285  0.0155652 -0.287934 0.00019598  0.0152004 -0.295123 0.000173569  0.0148275 -0.302304 0.000159264  0.0144496 -0.309477 0.000147343  0.0140665 -0.316641 0.000144482  0.013679 -0.323794 0.000128746  0.0132861 -0.330938 0.000120163  0.0128891 -0.33807 0.000112534  0.0124905 -0.345192 0.000100613  0.0120935 -0.352298 8.63075e-05  0.0116987 -0.359393 7.43866e-05  0 0 0  0.000412539 -0.000726223 0.00123882  0.00135934 -0.00167584 0.00218105  0.00260782 -0.00286454 0.0028677  0.00399786 -0.00431162 0.00333309  0.00543496 -0.00602579 0.00363493  0.00686511 -0.00801808 0.00379896  0.0082621 -0.01029 0.00387764  0.009615 -0.0128393 0.00388432  0.0109169 -0.0156558 0.00383663  0.0121644 -0.0187354 0.00376225  0.0133576 -0.0220665 0.00367069  0.0144951 -0.0256394 0.00355959  0.0155765 -0.0294441 0.00344515  0.016601 -0.0334687 0.00331306  0.0175709 -0.0377055 0.00318909  0.0184855 -0.0421424 0.00306416  0.0193442 -0.0467716 0.00294018  0.0201485 -0.0515861 0.00281143  0.0208988 -0.0565721 0.00269508  0.0215958 -0.061722 0.00258541  0.0222398 -0.0670305 0.00246954  0.0228337 -0.0724887 0.00236177  0.0233774 -0.0780859 0.00225163  0.0238706 -0.0838178 0.002141  0.0243163 -0.0896759 0.00204325  0.0247165 -0.0956492 0.00195265  0.0250732 -0.101736 0.00185251  0.0253863 -0.10793 0.0017519  0.025656 -0.11422 0.00166035  0.0258834 -0.120603 0.00156021  0.0260711 -0.127073 0.00147581  0.0262208 -0.133623 0.00139093  0.0263355 -0.140245 0.00131178  0.0264142 -0.146939 0.00123549  0.0264578 -0.153696 0.00115442  0.0264688 -0.160508 0.00107861  0.0264487 -0.167374 0.0010066  0.0264001 -0.174287 0.000943184  0.0263224 -0.181245 0.000881672  0.0262172 -0.188245 0.000814438  0.0260854 -0.195278 0.000756264  0.0259283 -0.202345 0.000699043  0.025749 -0.209438 0.000644207  0.0255487 -0.216555 0.00058794  0.0253265 -0.223696 0.000536442  0.0250864 -0.230853 0.000489712  0.0248287 -0.238022 0.000442505  0.0245535 -0.245202 0.000401974  0.0242629 -0.252392 0.000365257  0.0239584 -0.259585 0.000326633  0.0236406 -0.26678 0.000293255  0.0233116 -0.273978 0.000267029  0.0229723 -0.281174 0.000240803  0.0226235 -0.288363 0.000215054  0.022264 -0.295547 0.000197411  0.0218983 -0.302727 0.000172138  0.0215259 -0.309897 0.000164509  0.0211477 -0.317057 0.000153542  0.0207629 -0.324208 0.00014019  0.0203714 -0.331349 0.000126362  0.0199752 -0.338481 0.000113487  0.0195775 -0.345602 0.000101089  0.0191808 -0.352709 8.96454e-05  0.0187836 -0.359811 7.58171e-05  0 0 0  0.000529192 -0.00115305 0.0014596  0.00172403 -0.00234324 0.00260687  0.00328164 -0.00365549 0.00345802  0.00498912 -0.00514412 0.00403166  0.00673151 -0.00686306 0.00438929  0.00845352 -0.00884169 0.00458717  0.0101309 -0.0110943 0.00467348  0.0117522 -0.0136244 0.00467825  0.0133128 -0.016422 0.004632  0.0148104 -0.019486 0.00454044  0.0162433 -0.0228024 0.00441837  0.0176128 -0.0263627 0.00428724  0.0189192 -0.0301544 0.00414562  0.0201614 -0.0341699 0.0039959  0.0213394 -0.0383937 0.00384665  0.0224546 -0.0428224 0.00369596  0.0235084 -0.0474418 0.00353861  0.0244991 -0.052249 0.0033927  0.0254281 -0.057225 0.00324821  0.026296 -0.062368 0.00311327  0.0271035 -0.067669 0.00297976  0.0278521 -0.0731189 0.00284433  0.0285418 -0.07871 0.00271034  0.0291768 -0.0844335 0.0025754  0.0297582 -0.0902842 0.0024538  0.0302858 -0.0962516 0.00233936  0.0307622 -0.102329 0.00222492  0.0311887 -0.108516 0.00210762  0.031567 -0.114798 0.00199032  0.031898 -0.121177 0.0018878  0.0321832 -0.127639 0.00177479  0.032424 -0.134183 0.00167227  0.0326207 -0.1408 0.00157356  0.0327756 -0.147486 0.00147629  0.0328925 -0.154236 0.00138283  0.0329731 -0.161044 0.00129414  0.0330195 -0.167905 0.00121212  0.0330307 -0.174811 0.00112438  0.0330079 -0.181763 0.00104856  0.0329521 -0.188754 0.000976562  0.032867 -0.195783 0.00090456  0.0327539 -0.202843 0.000837326  0.0326149 -0.209931 0.000761509  0.0324488 -0.217044 0.000704288  0.0322576 -0.224177 0.000637054  0.0320444 -0.231328 0.000570297  0.0318112 -0.238493 0.000521183  0.0315599 -0.245668 0.000467777  0.0312896 -0.252852 0.000427246  0.0310013 -0.260038 0.000385284  0.0306976 -0.26723 0.000342369  0.0303793 -0.274423 0.000302315  0.0300484 -0.281614 0.000269413  0.0297058 -0.288798 0.000249386  0.0293531 -0.295978 0.000216961  0.0289915 -0.303153 0.000199318  0.028621 -0.31032 0.000180244  0.0282431 -0.317476 0.000164509  0.0278592 -0.324624 0.000144482  0.0274692 -0.331763 0.00013113  0.0270753 -0.338894 0.000113964  0.0266786 -0.346014 0.000101566  0.0262775 -0.353123 9.10759e-05  0.025877 -0.360227 8.15392e-05  0 0 0  0.000659026 -0.0017485 0.00169563  0.00219184 -0.003214 0.00311613  0.0040969 -0.00462133 0.00411177  0.0061298 -0.00612986 0.00476599  0.00817698 -0.00783515 0.00517702  0.0101868 -0.0097881 0.00540304  0.0121378 -0.012015 0.00549698  0.0140242 -0.0145178 0.00550652  0.0158417 -0.0172949 0.00544024  0.017587 -0.020339 0.00533628  0.0192602 -0.0236391 0.00519276  0.0208625 -0.0271839 0.00504208  0.0223947 -0.03096 0.00487852  0.0238541 -0.0349628 0.00470304  0.0252414 -0.0391734 0.00452662  0.0265566 -0.0435892 0.00433779  0.0278009 -0.0481973 0.0041604  0.0289742 -0.0529926 0.00398874  0.0300784 -0.057956 0.00381899  0.0311136 -0.0630901 0.00365353  0.032081 -0.0683808 0.00349808  0.0329822 -0.0738196 0.00334167  0.0338197 -0.0794012 0.00318003  0.034593 -0.0851141 0.00302744  0.0353051 -0.0909539 0.00288391  0.0359589 -0.096912 0.00274754  0.0365536 -0.10298 0.00260687  0.0370917 -0.109156 0.0024724  0.0375755 -0.11543 0.0023427  0.0380064 -0.121799 0.00220919  0.0383866 -0.128253 0.0020771  0.0387151 -0.134787 0.00195694  0.038995 -0.141397 0.00183773  0.0392287 -0.148073 0.001719  0.0394173 -0.154815 0.0016098  0.0395632 -0.161615 0.00150537  0.0396676 -0.168468 0.00140524  0.0397329 -0.175366 0.00130939  0.0397613 -0.182309 0.0012207  0.0397556 -0.18929 0.00113297  0.0397155 -0.196313 0.00105333  0.0396438 -0.203364 0.000968456  0.0395401 -0.210445 0.000889301  0.0394053 -0.217551 0.000802517  0.039243 -0.224676 0.000730515  0.0390556 -0.231818 0.000667572  0.0388436 -0.238976 0.000599384  0.03861 -0.246144 0.000541687  0.0383551 -0.253323 0.00048399  0.0380821 -0.260501 0.000431538  0.0377891 -0.267688 0.000388145  0.0374801 -0.274874 0.000339985  0.0371552 -0.282059 0.000300407  0.0368166 -0.289237 0.000258923  0.0364656 -0.296411 0.000235558  0.0361035 -0.303579 0.000210762  0.0357325 -0.310743 0.000195503  0.0353541 -0.317896 0.000172138  0.0349689 -0.325041 0.000158787  0.0345783 -0.332177 0.000137806  0.0341823 -0.339308 0.00012207  0.0337827 -0.346424 0.000110149  0.033381 -0.353534 0.000101089  0.03298 -0.360641 8.24928e-05  0 0 0  0.00104793 -0.00263768 0.0021677  0.00297412 -0.00427997 0.00370598  0.00517942 -0.00572908 0.00480032  0.00748366 -0.0072276 0.00553656  0.00979766 -0.00890434 0.00599813  0.0120767 -0.0108266 0.00625038  0.0142984 -0.0130246 0.00636578  0.0164494 -0.0154989 0.00636292  0.0185239 -0.0182545 0.00629425  0.0205196 -0.0212772 0.00615835  0.0224346 -0.0245608 0.00600386  0.0242692 -0.0280885 0.00582552  0.0260243 -0.0318461 0.00563765  0.0276995 -0.0358343 0.00543737  0.0292938 -0.0400306 0.00522423  0.0308065 -0.0444325 0.00500822  0.0322393 -0.0490257 0.00480175  0.0335941 -0.0538056 0.00460529  0.0348713 -0.0587563 0.00441599  0.036072 -0.0638782 0.00422335  0.0371974 -0.0691562 0.0040288  0.0382487 -0.0745816 0.00384331  0.0392268 -0.08015 0.00366497  0.0401354 -0.0858513 0.00349712  0.0409757 -0.0916781 0.00332117  0.0417496 -0.0976235 0.00316286  0.0424607 -0.103681 0.00300646  0.0431097 -0.109843 0.00285196  0.0436976 -0.116107 0.00268888  0.0442257 -0.122463 0.00253916  0.0446926 -0.128909 0.00238991  0.0451031 -0.13543 0.00224781  0.0454602 -0.142029 0.00211287  0.0457673 -0.148694 0.00197363  0.0460255 -0.155427 0.00184774  0.0462353 -0.162217 0.00172472  0.0463998 -0.16906 0.00160885  0.0465205 -0.175948 0.00150394  0.0465991 -0.18288 0.00139856  0.0466385 -0.18985 0.00129938  0.0466402 -0.196863 0.00119972  0.0466037 -0.203905 0.00110531  0.0465293 -0.210977 0.00101185  0.046422 -0.218074 0.000909805  0.0462847 -0.225189 0.000825882  0.0461202 -0.232321 0.00075388  0.0459297 -0.239469 0.000679493  0.0457125 -0.24663 0.000609398  0.0454717 -0.253801 0.000545979  0.0452073 -0.260973 0.000483513  0.0449226 -0.268151 0.000421047  0.0446174 -0.27533 0.000367165  0.0442941 -0.282506 0.000323772  0.0439551 -0.289679 0.000284672  0.0436025 -0.296846 0.000252247  0.0432396 -0.304007 0.00022459  0.0428655 -0.311165 0.000198364  0.0424833 -0.318317 0.00017786  0.0420952 -0.325458 0.000157833  0.0416992 -0.332592 0.000143051  0.0412982 -0.339719 0.000132084  0.0408964 -0.346835 0.000114918  0.0404952 -0.353944 9.87053e-05  0.0400925 -0.361055 9.15527e-05  0 0 0  -0.00106876 -0.00275634 -0.00170803  -0.00294878 -0.00440481 -0.00300074  -0.00508599 -0.00581351 -0.00395584  -0.00733213 -0.00727067 -0.00462437  -0.00961405 -0.00888738 -0.00506163  -0.0118913 -0.0107277 -0.0053196  -0.0141405 -0.0128162 -0.00543833  -0.0163454 -0.0151637 -0.00546074  -0.0184969 -0.0177723 -0.00540829  -0.0205914 -0.0206334 -0.00529909  -0.0226278 -0.0237458 -0.00515699  -0.0246047 -0.0270892 -0.00499201  -0.0265242 -0.0306641 -0.00480938  -0.0283859 -0.0344544 -0.0046258  -0.0301914 -0.0384587 -0.0044384  -0.0319438 -0.0426526 -0.00425243  -0.033644 -0.0470422 -0.00406408  -0.0352929 -0.0516165 -0.0038867  -0.036891 -0.0563659 -0.00371122  -0.0384389 -0.061279 -0.00354099  -0.0399389 -0.0663518 -0.00336885  -0.041391 -0.0715738 -0.00319862  -0.0427983 -0.0769452 -0.00303316  -0.0441628 -0.082453 -0.0028758  -0.0454832 -0.0880922 -0.00272846  -0.0467596 -0.0938525 -0.00257301  -0.0479947 -0.0997297 -0.00243759  -0.0491886 -0.105717 -0.00229645  -0.0503439 -0.111811 -0.00216293  -0.0514617 -0.118003 -0.00203609  -0.0525405 -0.124288 -0.00191069  -0.0535806 -0.13066 -0.00179577  -0.0545845 -0.137113 -0.00168324  -0.0555539 -0.143638 -0.00156784  -0.0564904 -0.150237 -0.00146341  -0.0573936 -0.156902 -0.00135136  -0.0582643 -0.163628 -0.00125837  -0.0591056 -0.17041 -0.0011549  -0.0599182 -0.177244 -0.00106335  -0.0607018 -0.184126 -0.000970364  -0.0614545 -0.191048 -0.000882626  -0.0621784 -0.198008 -0.000806332  -0.0628757 -0.205004 -0.000724316  -0.0635483 -0.212027 -0.000657082  -0.0641971 -0.219079 -0.000584602  -0.0648229 -0.226154 -0.0005126  -0.0654268 -0.23325 -0.000451565  -0.0660095 -0.240364 -0.000384808  -0.0665708 -0.247493 -0.000326157  -0.0671122 -0.254635 -0.000272274  -0.0676348 -0.261783 -0.000214577  -0.0681388 -0.268931 -0.000173092  -0.0686283 -0.276085 -0.00013113  -0.0691018 -0.283242 -9.29832e-05  -0.069562 -0.290402 -6.00815e-05  -0.0700111 -0.297558 -2.6226e-05  -0.0704517 -0.304711 -1.43051e-06  -0.0708833 -0.311856 2.28882e-05  -0.071305 -0.318995 4.00543e-05  -0.0717213 -0.326125 5.67436e-05  -0.0721335 -0.333255 7.15256e-05  -0.0725441 -0.340376 8.72612e-05  -0.0729527 -0.347487 0.000100136  -0.0733612 -0.354599 0.000116825  0 0 0  -0.000640295 -0.00178402 -0.00133705  -0.00211195 -0.00326573 -0.0025034  -0.00393337 -0.00466353 -0.00337219  -0.00589535 -0.0061578 -0.00397539  -0.00790387 -0.00782689 -0.00435829  -0.00990981 -0.00971969 -0.00459337  -0.011886 -0.0118611 -0.00470018  -0.0138223 -0.014264 -0.00471544  -0.0157135 -0.0169223 -0.00467539  -0.0175557 -0.0198326 -0.00457621  -0.0193481 -0.0229913 -0.00445127  -0.0210912 -0.0263828 -0.00431538  -0.0227844 -0.030002 -0.00416088  -0.0244299 -0.0338371 -0.00400066  -0.0260296 -0.0378815 -0.00383615  -0.0275838 -0.0421218 -0.00367308  -0.0290958 -0.0465533 -0.00351477  -0.0305655 -0.0511683 -0.00336218  -0.0319927 -0.0559562 -0.00321198  -0.033378 -0.0609098 -0.00306654  -0.0347221 -0.0660215 -0.00291634  -0.0360276 -0.0712818 -0.00276518  -0.0372957 -0.0766913 -0.00262451  -0.0385262 -0.0822347 -0.00248814  -0.0397199 -0.087907 -0.0023613  -0.0408788 -0.0937022 -0.00222301  -0.0420027 -0.0996124 -0.00210524  -0.0430925 -0.105631 -0.00198317  -0.04415 -0.111757 -0.0018692  -0.0451739 -0.11798 -0.00176334  -0.0461658 -0.124293 -0.00165749  -0.0471258 -0.130691 -0.00155687  -0.0480554 -0.137171 -0.00145483  -0.0489559 -0.143723 -0.00135994  -0.0498261 -0.150348 -0.00126076  -0.0506678 -0.157036 -0.0011692  -0.0514839 -0.163785 -0.00108099  -0.052274 -0.170587 -0.000999928  -0.0530391 -0.177442 -0.000922203  -0.0537798 -0.184342 -0.000839233  -0.0544963 -0.191282 -0.000762939  -0.0551891 -0.198261 -0.000684261  -0.0558589 -0.205272 -0.000626087  -0.0565052 -0.212311 -0.000568867  -0.0571301 -0.219377 -0.000502586  -0.0577354 -0.226468 -0.000441551  -0.0583229 -0.233575 -0.000384808  -0.0588918 -0.240699 -0.000331402  -0.0594425 -0.247839 -0.000276566  -0.0599761 -0.254989 -0.000225067  -0.0604913 -0.262145 -0.000180721  -0.0609913 -0.269304 -0.000143528  -0.0614789 -0.276465 -0.000102043  -0.0619538 -0.283629 -7.53403e-05  -0.0624168 -0.290792 -4.62532e-05  -0.0628688 -0.297952 -1.7643e-05  -0.0633104 -0.305109 8.58307e-06  -0.063745 -0.312257 2.38419e-05  -0.0641732 -0.319399 4.62532e-05  -0.064594 -0.326531 6.10352e-05  -0.0650117 -0.33366 7.62939e-05  -0.0654254 -0.340779 9.53674e-05  -0.0658364 -0.34789 0.000104904  -0.066246 -0.354999 0.000119686  0 0 0  -0.000495285 -0.0011554 -0.00113773  -0.00161052 -0.0023648 -0.00208664  -0.00307691 -0.00369114 -0.00282478  -0.00471264 -0.00518338 -0.00334597  -0.00641322 -0.00688505 -0.00368547  -0.00812438 -0.00882121 -0.00388718  -0.0098193 -0.0110115 -0.00398302  -0.011483 -0.0134631 -0.00399637  -0.0131084 -0.0161691 -0.0039587  -0.0146943 -0.0191254 -0.00388622  -0.016239 -0.022326 -0.00378036  -0.0177426 -0.0257616 -0.0036602  -0.0192084 -0.0294215 -0.00353384  -0.020637 -0.033297 -0.00339031  -0.022028 -0.0373783 -0.00325203  -0.0233829 -0.041658 -0.00311661  -0.0247025 -0.0461295 -0.00298405  -0.0259873 -0.0507802 -0.00285006  -0.0272377 -0.0556044 -0.00272608  -0.0284553 -0.0605949 -0.00259542  -0.0296422 -0.0657415 -0.00247478  -0.0307988 -0.0710376 -0.00234413  -0.0319248 -0.0764802 -0.00222588  -0.0330203 -0.082056 -0.00211048  -0.0340866 -0.0877604 -0.00199509  -0.0351239 -0.0935864 -0.00189114  -0.0361334 -0.0995277 -0.00178242  -0.0371144 -0.105576 -0.00168133  -0.0380682 -0.11173 -0.00158024  -0.0389962 -0.117981 -0.00149488  -0.0398973 -0.12432 -0.00140619  -0.0407732 -0.130744 -0.00132227  -0.0416238 -0.137248 -0.00123024  -0.0424492 -0.143824 -0.0011487  -0.0432532 -0.150473 -0.00106478  -0.0440338 -0.157183 -0.000986576  -0.0447929 -0.163953 -0.000916004  -0.0455298 -0.170773 -0.000844002  -0.0462439 -0.177647 -0.000774384  -0.0469379 -0.184565 -0.000703812  -0.0476143 -0.191522 -0.000641346  -0.0482705 -0.198516 -0.000579357  -0.0489061 -0.205543 -0.000524044  -0.0495224 -0.212596 -0.000472069  -0.0501223 -0.219677 -0.00041914  -0.050705 -0.226779 -0.000370026  -0.0512722 -0.2339 -0.000320911  -0.0518234 -0.241033 -0.000275612  -0.0523596 -0.248183 -0.000228405  -0.0528805 -0.25534 -0.000190735  -0.0533864 -0.262506 -0.000151634  -0.0538793 -0.269672 -0.00011301  -0.0543609 -0.276841 -7.62939e-05  -0.0548332 -0.28401 -4.91142e-05  -0.0552955 -0.291178 -2.71797e-05  -0.0557475 -0.298342 2.38419e-06  -0.056191 -0.305502 1.90735e-05  -0.0566258 -0.312653 3.29018e-05  -0.0570552 -0.319797 5.10216e-05  -0.0574794 -0.326934 6.67572e-05  -0.0578971 -0.334061 7.96318e-05  -0.0583107 -0.34118 9.44138e-05  -0.058723 -0.348291 0.000105381  -0.0591342 -0.355396 0.000116348  0 0 0  -0.000373308 -0.000724971 -0.000953674  -0.00123269 -0.00170147 -0.00172472  -0.00238523 -0.00292329 -0.0023284  -0.0037013 -0.00438461 -0.00275898  -0.00509217 -0.00609539 -0.00303936  -0.00650623 -0.00806239 -0.00320244  -0.00791332 -0.0102917 -0.00329447  -0.00929826 -0.0127823 -0.00330544  -0.0106556 -0.0155304 -0.00327253  -0.0119821 -0.018527 -0.00320816  -0.0132785 -0.0217651 -0.00312614  -0.0145458 -0.0252379 -0.00303078  -0.0157813 -0.0289337 -0.00291729  -0.0169877 -0.0328455 -0.00280523  -0.018167 -0.0369608 -0.00268936  -0.0193189 -0.041275 -0.00257301  -0.0204442 -0.0457799 -0.00246477  -0.0215436 -0.0504641 -0.00235224  -0.0226177 -0.0553203 -0.00224257  -0.0236666 -0.0603433 -0.00214577  -0.0246907 -0.0655206 -0.00204039  -0.0256925 -0.0708492 -0.00193834  -0.0266721 -0.0763209 -0.00183725  -0.0276287 -0.0819264 -0.00174284  -0.0285625 -0.0876597 -0.00165224  -0.029476 -0.0935145 -0.0015626  -0.0303677 -0.0994836 -0.00147343  -0.0312366 -0.105558 -0.0013814  -0.0320853 -0.111738 -0.00130367  -0.0329134 -0.118013 -0.00122833  -0.0337216 -0.124377 -0.00115967  -0.0345098 -0.130825 -0.00109148  -0.0352793 -0.13735 -0.00101328  -0.0360305 -0.143949 -0.000939846  -0.0367622 -0.150618 -0.000872612  -0.0374756 -0.157348 -0.000812054  -0.0381718 -0.164137 -0.000748634  -0.0388532 -0.170976 -0.000694752  -0.0395191 -0.177865 -0.000628948  -0.0401661 -0.184799 -0.00057745  -0.0407953 -0.191772 -0.000519753  -0.0414102 -0.198782 -0.000465393  -0.0420089 -0.20582 -0.000426769  -0.0425942 -0.212887 -0.000383854  -0.0431659 -0.219981 -0.000337124  -0.0437224 -0.227094 -0.000296116  -0.0442657 -0.234225 -0.000256062  -0.0447972 -0.241369 -0.000216961  -0.0453157 -0.248527 -0.000185966  -0.0458236 -0.255693 -0.000145912  -0.0463195 -0.262864 -0.000110626  -0.046803 -0.270039 -7.34329e-05  -0.0472758 -0.277213 -5.14984e-05  -0.0477397 -0.284388 -2.81334e-05  -0.048197 -0.291561 -5.72205e-06  -0.0486465 -0.298728 1.33514e-05  -0.0490882 -0.305892 2.71797e-05  -0.0495238 -0.313047 4.29153e-05  -0.049953 -0.320194 5.53131e-05  -0.0503767 -0.327334 6.62804e-05  -0.0507951 -0.33446 8.34465e-05  -0.0512094 -0.341578 9.01222e-05  -0.0516212 -0.34869 9.87053e-05  -0.0520325 -0.35579 0.000115395  0 0 0  -0.000278216 -0.000429809 -0.000769615  -0.000921085 -0.00122203 -0.00138474  -0.0017989 -0.00234459 -0.00185251  -0.00281569 -0.00376323 -0.00219297  -0.00390288 -0.00547017 -0.00241518  -0.00501761 -0.00745524 -0.00254822  -0.00613564 -0.00971329 -0.00261593  -0.00724331 -0.0122342 -0.00263405  -0.00833231 -0.0150165 -0.00260258  -0.00940055 -0.0180467 -0.00255728  -0.0104471 -0.0213172 -0.00248718  -0.0114719 -0.0248216 -0.00240564  -0.0124764 -0.0285477 -0.00232315  -0.0134611 -0.0324911 -0.00223351  -0.0144253 -0.0366357 -0.00213289  -0.0153713 -0.0409808 -0.00204372  -0.0163002 -0.0455138 -0.00195312  -0.0172111 -0.0502266 -0.00186682  -0.0181056 -0.0551126 -0.0017786  -0.0189832 -0.0601619 -0.00169706  -0.0198445 -0.0653676 -0.00161457  -0.0206903 -0.0707234 -0.00154448  -0.0215207 -0.0762216 -0.00146532  -0.0223356 -0.0818537 -0.00138569  -0.0231347 -0.0876118 -0.00130844  -0.0239189 -0.0934919 -0.00123835  -0.0246888 -0.0994854 -0.00116158  -0.0254447 -0.105585 -0.0010972  -0.0261873 -0.111788 -0.00103617  -0.0269142 -0.118083 -0.000966549  -0.0276266 -0.124471 -0.000908375  -0.0283251 -0.130937 -0.000856876  -0.0290098 -0.137484 -0.000799656  -0.0296812 -0.144103 -0.00074482  -0.03034 -0.150788 -0.000690937  -0.0309851 -0.157536 -0.000635147  -0.0316174 -0.164341 -0.000587463  -0.0322371 -0.171197 -0.000541687  -0.0328453 -0.178102 -0.000497341  -0.0334425 -0.18505 -0.000450134  -0.0340276 -0.192036 -0.000406265  -0.0345993 -0.199059 -0.000366688  -0.0351605 -0.206109 -0.000328064  -0.0357125 -0.213188 -0.000296116  -0.0362535 -0.220292 -0.000261784  -0.0367827 -0.227414 -0.000221729  -0.0373023 -0.234555 -0.000190258  -0.0378115 -0.241709 -0.00015831  -0.0383117 -0.248876 -0.000133038  -0.0388005 -0.256048 -0.000105381  -0.0392795 -0.263225 -7.39098e-05  -0.0397525 -0.270406 -4.72069e-05  -0.0402174 -0.277585 -2.52724e-05  -0.0406749 -0.284765 -1.90735e-06  -0.0411251 -0.291943 1.33514e-05  -0.0415673 -0.299114 2.81334e-05  -0.0420041 -0.306281 3.57628e-05  -0.0424349 -0.313439 4.95911e-05  -0.042861 -0.320589 6.34193e-05  -0.0432837 -0.327731 7.24792e-05  -0.0437014 -0.334858 7.39098e-05  -0.0441151 -0.341976 8.86917e-05  -0.0445268 -0.349086 0.000102997  -0.0449369 -0.356184 0.000113487  0 0 0  -0.000197012 -0.000232488 -0.000579834  -0.000654198 -0.000891447 -0.00104046  -0.00128327 -0.00193095 -0.0013833  -0.00201827 -0.00331014 -0.00163364  -0.00281236 -0.00500703 -0.00180101  -0.00363508 -0.00700229 -0.00190687  -0.00446627 -0.00927943 -0.00195265  -0.00529438 -0.0118246 -0.00196886  -0.00611454 -0.0146326 -0.00195265  -0.00692195 -0.0176899 -0.00191259  -0.00771618 -0.0209875 -0.00185633  -0.00849885 -0.0245173 -0.00179958  -0.00926983 -0.0282701 -0.00173712  -0.0100297 -0.0322378 -0.00166464  -0.0107793 -0.0364084 -0.00159645  -0.0115193 -0.0407785 -0.00152349  -0.0122498 -0.0453364 -0.00145864  -0.0129714 -0.050073 -0.00138998  -0.0136839 -0.0549841 -0.00132751  -0.0143876 -0.0600569 -0.00126505  -0.0150834 -0.0652865 -0.0012064  -0.0157715 -0.0706661 -0.00114822  -0.01645 -0.0761866 -0.00108719  -0.0171199 -0.0818417 -0.00102949  -0.0177828 -0.0876229 -0.000970364  -0.0184389 -0.0935237 -0.000923157  -0.0190866 -0.0995382 -0.000864029  -0.0197257 -0.10566 -0.000814915  -0.0203564 -0.111882 -0.000762463  -0.0209794 -0.118196 -0.000710011  -0.0215949 -0.124602 -0.000668526  -0.0222014 -0.131088 -0.000632286  -0.0228019 -0.137652 -0.000589848  -0.0233948 -0.144287 -0.000551224  -0.023978 -0.150988 -0.000508308  -0.0245521 -0.157752 -0.000468731  -0.0251172 -0.164571 -0.000424385  -0.0256772 -0.171441 -0.000393391  -0.0262296 -0.178359 -0.000357151  -0.0267723 -0.185319 -0.000322819  -0.0273068 -0.192317 -0.000292301  -0.0278347 -0.19935 -0.000258446  -0.0283566 -0.206413 -0.000232697  -0.0288706 -0.213501 -0.000210285  -0.0293787 -0.220613 -0.000179768  -0.0298779 -0.227744 -0.000146389  -0.0303681 -0.234893 -0.000121117  -0.0308509 -0.242057 -0.000102997  -0.0313277 -0.249229 -8.05855e-05  -0.0317998 -0.256408 -5.81741e-05  -0.0322664 -0.26359 -3.38554e-05  -0.032726 -0.270776 -1.90735e-05  -0.033179 -0.27796 -2.38419e-06  -0.0336261 -0.285144 1.33514e-05  -0.034066 -0.292326 3.14713e-05  -0.0345006 -0.299502 4.00543e-05  -0.0349324 -0.306671 5.48363e-05  -0.0353596 -0.313832 6.10352e-05  -0.0357826 -0.320984 6.86646e-05  -0.0362008 -0.328127 7.05719e-05  -0.0366144 -0.335255 7.9155e-05  -0.0370266 -0.342375 9.29832e-05  -0.0374377 -0.349484 0.000101566  -0.0378489 -0.356576 0.000113964  0 0 0  -0.000123218 -0.000110537 -0.00039053  -0.000409201 -0.000681132 -0.000695229  -0.000807568 -0.00166336 -0.000923634  -0.00127956 -0.003012 -0.0010829  -0.00179389 -0.00469971 -0.00119686  -0.0023295 -0.00670061 -0.00127029  -0.00287578 -0.00899029 -0.00130606  -0.00342679 -0.0115553 -0.00131559  -0.00397581 -0.0143813 -0.00129986  -0.00452185 -0.0174593 -0.00127459  -0.00506514 -0.0207778 -0.00124025  -0.0056048 -0.0243284 -0.0012002  -0.00614154 -0.0281029 -0.00115681  -0.0066762 -0.0320895 -0.00110292  -0.00720882 -0.036282 -0.00105715  -0.00774038 -0.0406716 -0.00101233  -0.00827169 -0.0452509 -0.000967503  -0.00880182 -0.0500075 -0.000923634  -0.00933063 -0.0549385 -0.000881195  -0.00985932 -0.060032 -0.000831127  -0.0103879 -0.0652814 -0.000792503  -0.0109158 -0.0706809 -0.000757217  -0.0114427 -0.0762205 -0.000716686  -0.0119689 -0.0818941 -0.000681877  -0.0124931 -0.0876942 -0.000638008  -0.0130172 -0.0936144 -0.000599384  -0.0135405 -0.0996456 -0.000565529  -0.0140615 -0.105785 -0.000529766  -0.0145808 -0.112024 -0.000495911  -0.0150977 -0.118354 -0.000460148  -0.0156134 -0.124775 -0.000430107  -0.0161275 -0.131277 -0.00041008  -0.0166385 -0.137857 -0.000388145  -0.0171471 -0.144507 -0.000357151  -0.0176528 -0.151222 -0.000330925  -0.0181539 -0.157998 -0.000294685  -0.0186534 -0.164829 -0.000273228  -0.0191505 -0.171712 -0.000248432  -0.0196435 -0.178642 -0.000218391  -0.0201333 -0.18561 -0.000193119  -0.0206211 -0.192618 -0.000178814  -0.0211053 -0.199659 -0.000156879  -0.0215847 -0.206731 -0.000135899  -0.0220604 -0.213829 -0.000117779  -0.0225308 -0.220948 -9.39369e-05  -0.0229952 -0.228088 -7.43866e-05  -0.0234575 -0.235243 -6.10352e-05  -0.0239174 -0.242414 -4.62532e-05  -0.0243731 -0.249588 -3.05176e-05  -0.0248244 -0.256775 -1.52588e-05  -0.0252709 -0.263961 1.90735e-06  -0.0257139 -0.271152 1.28746e-05  -0.0261533 -0.278341 2.67029e-05  -0.0265882 -0.285529 3.57628e-05  -0.027019 -0.292713 4.57764e-05  -0.027447 -0.299892 5.10216e-05  -0.0278716 -0.307063 5.91278e-05  -0.0282934 -0.314227 6.86646e-05  -0.0287111 -0.321381 7.39098e-05  -0.0291266 -0.328524 8.15392e-05  -0.0295386 -0.335653 8.82149e-05  -0.029948 -0.342774 9.44138e-05  -0.0303564 -0.34988 0.000104904  -0.0307631 -0.356971 0.000112534  0 0 0  -5.52684e-05 -4.99785e-05 -0.000195503  -0.000183925 -0.00057289 -0.000347137  -0.000363961 -0.0015254 -0.000459194  -0.000579655 -0.00285745 -0.000544548  -0.000818521 -0.00454056 -0.000601768  -0.00107282 -0.00654656 -0.000638008  -0.00133875 -0.00884536 -0.000654221  -0.00161159 -0.0114242 -0.000662804  -0.00189072 -0.0142634 -0.000649452  -0.00217569 -0.0173568 -0.000637054  -0.00246501 -0.0206897 -0.000617981  -0.00276113 -0.0242576 -0.000601292  -0.00306368 -0.0280477 -0.000579357  -0.00337249 -0.0320498 -0.000552654  -0.00368845 -0.0362582 -0.000527859  -0.00401223 -0.0406646 -0.000504494  -0.00434327 -0.0452589 -0.000485897  -0.00468051 -0.0500323 -0.000455856  -0.00502574 -0.0549793 -0.000432968  -0.00537777 -0.0600885 -0.000406742  -0.00573754 -0.065356 -0.000390053  -0.00610566 -0.0707707 -0.00036478  -0.00647902 -0.0763258 -0.000347614  -0.00685787 -0.082015 -0.000330448  -0.00724304 -0.0878286 -0.000302315  -0.0076344 -0.0937652 -0.000286579  -0.00803149 -0.0998104 -0.000263691  -0.0084337 -0.105965 -0.000248909  -0.00883973 -0.112217 -0.000229359  -0.00925112 -0.118562 -0.000216484  -0.00966704 -0.124995 -0.000198841  -0.0100843 -0.13151 -0.000188828  -0.0105062 -0.138103 -0.00017643  -0.0109315 -0.144764 -0.000162125  -0.011359 -0.15149 -0.000151634  -0.0117888 -0.158275 -0.000127792  -0.0122206 -0.165118 -0.00011158  -0.0126534 -0.17201 -9.63211e-05  -0.013088 -0.178948 -8.72612e-05  -0.0135241 -0.185924 -7.62939e-05  -0.0139606 -0.192941 -6.1512e-05  -0.0143955 -0.199989 -4.95911e-05  -0.0148299 -0.20707 -3.8147e-05  -0.0152647 -0.214175 -3.09944e-05  -0.0156999 -0.2213 -2.00272e-05  -0.016135 -0.228444 -3.8147e-06  -0.0165694 -0.235605 4.76837e-07  -0.0170019 -0.242778 1.38283e-05  -0.0174322 -0.249959 1.90735e-05  -0.0178623 -0.25715 3.09944e-05  -0.0182893 -0.26434 3.57628e-05  -0.0187147 -0.271534 4.29153e-05  -0.0191388 -0.278728 4.48227e-05  -0.019562 -0.285918 5.67436e-05  -0.0199823 -0.293104 6.05583e-05  -0.0204003 -0.300286 7.05719e-05  -0.0208173 -0.307458 7.00951e-05  -0.0212328 -0.314623 7.53403e-05  -0.021646 -0.321779 8.29697e-05  -0.0220571 -0.328921 9.10759e-05  -0.0224662 -0.336052 9.29832e-05  -0.0228741 -0.343172 9.63211e-05  -0.0232792 -0.350278 0.000107765  -0.0236838 -0.357367 0.000112534  0 0 0  1.14217e-05 -4.12464e-05 5.24521e-06  3.71188e-05 -0.000558138 5.72205e-06  6.90669e-05 -0.00150666 2.38419e-06  0.000103116 -0.00283873 0  0.000133544 -0.00452557 -2.86102e-06  0.000157148 -0.0065369 -5.24521e-06  0.000171274 -0.00884411 -5.24521e-06  0.000173748 -0.0114303 -6.19888e-06  0.000164032 -0.0142801 -7.62939e-06  0.000140786 -0.0173821 -6.67572e-06  0.000103414 -0.020726 -4.76837e-06  5.24521e-05 -0.024304 -6.19888e-06  -1.40071e-05 -0.0281058 -9.53674e-06  -9.75132e-05 -0.0321182 -7.62939e-06  -0.00019747 -0.0363393 -2.38419e-06  -0.000311613 -0.0407566 -1.90735e-06  -0.000440478 -0.0453626 -1.90735e-06  -0.000586033 -0.0501487 2.38419e-06  -0.000747204 -0.0551078 7.62939e-06  -0.000924468 -0.0602294 1.19209e-05  -0.00111675 -0.0655101 1.4782e-05  -0.00132227 -0.0709367 1.95503e-05  -0.00154138 -0.0765043 2.28882e-05  -0.001773 -0.0822039 2.57492e-05  -0.00201786 -0.0880305 2.81334e-05  -0.00227678 -0.0939765 2.86102e-05  -0.00254774 -0.100036 3.33786e-05  -0.00282979 -0.106199 2.90871e-05  -0.00312257 -0.112464 3.24249e-05  -0.00342453 -0.118819 3.33786e-05  -0.00373793 -0.125263 3.62396e-05  -0.00406265 -0.131788 3.29018e-05  -0.00439572 -0.13839 3.24249e-05  -0.00473642 -0.145061 3.38554e-05  -0.00508475 -0.151794 4.05312e-05  -0.00543952 -0.158588 4.33922e-05  -0.0058012 -0.165438 4.76837e-05  -0.00617027 -0.172338 4.86374e-05  -0.00654459 -0.179282 5.00679e-05  -0.00692391 -0.186266 5.14984e-05  -0.00730848 -0.193289 5.10216e-05  -0.00769567 -0.200343 5.29289e-05  -0.00808692 -0.207429 5.48363e-05  -0.00848246 -0.214538 5.81741e-05  -0.00888252 -0.221669 6.4373e-05  -0.0092833 -0.228816 6.4373e-05  -0.00968647 -0.235983 6.4373e-05  -0.0100913 -0.243157 6.1512e-05  -0.0104976 -0.250343 6.62804e-05  -0.0109053 -0.257534 7.10487e-05  -0.0113144 -0.26473 6.86646e-05  -0.011724 -0.271924 7.48634e-05  -0.0121334 -0.279121 7.34329e-05  -0.0125411 -0.286314 7.96318e-05  -0.0129499 -0.293502 7.96318e-05  -0.0133586 -0.300682 8.34465e-05  -0.013767 -0.307857 8.2016e-05  -0.0141754 -0.315021 8.29697e-05  -0.0145826 -0.322178 9.20296e-05  -0.0149891 -0.329321 9.72748e-05  -0.0153954 -0.336454 9.72748e-05  -0.0158002 -0.343571 0.000103951  -0.0162046 -0.350677 0.000107288  -0.016607 -0.357764 0.000110626  0 0 0  7.55712e-05 -8.21948e-05 0.000201225  0.000253528 -0.000630975 0.000356674  0.000499085 -0.00160235 0.000469208  0.0007824 -0.00295222 0.000544548  0.00108185 -0.00465196 0.000594616  0.00138307 -0.00667006 0.000624657  0.0016765 -0.00898403 0.000646114  0.00195545 -0.0115746 0.000646114  0.00221539 -0.0144293 0.000637054  0.00245339 -0.0175357 0.000630379  0.00266826 -0.0208861 0.000605106  0.00285918 -0.0244679 0.000587463  0.00302637 -0.0282764 0.000571251  0.00317013 -0.0322951 0.000545025  0.0032897 -0.0365251 0.00052166  0.00338447 -0.0409486 0.000505447  0.00345349 -0.0455635 0.000488281  0.00349903 -0.0503573 0.000472546  0.00352144 -0.0553249 0.000448227  0.00352228 -0.0604557 0.000435352  0.0035007 -0.0657444 0.000416279  0.00345683 -0.0711799 0.000399113  0.00339198 -0.0767562 0.000390053  0.00330722 -0.0824638 0.000376225  0.00320113 -0.0882995 0.000360966  0.00307512 -0.0942529 0.000348568  0.00293124 -0.100322 0.00032711  0.00276899 -0.106492 0.00030899  0.00258887 -0.112765 0.000302315  0.00239158 -0.119128 0.000284672  0.00217843 -0.125579 0.000268459  0.00195193 -0.132113 0.000258446  0.00171018 -0.13872 0.000243187  0.00145531 -0.145398 0.000231266  0.00118804 -0.152137 0.000220776  0.000907421 -0.158938 0.0002141  0.000614643 -0.165791 0.000204086  0.000310183 -0.172696 0.000193596  -4.29153e-06 -0.179645 0.000185966  -0.000328541 -0.186636 0.00017643  -0.000660419 -0.193662 0.000162601  -0.000999928 -0.20072 0.000154972  -0.00134659 -0.207808 0.000151634  -0.00170159 -0.214922 0.000150681  -0.00206375 -0.222056 0.000144958  -0.00243163 -0.229206 0.000133038  -0.00280547 -0.236374 0.000127792  -0.00318265 -0.243552 0.000123501  -0.00356436 -0.250739 0.000116348  -0.00395012 -0.257931 0.00011158  -0.00434089 -0.265129 0.000109196  -0.00473285 -0.272324 0.000101089  -0.005126 -0.279521 0.000101566  -0.00552106 -0.286715 0.00010252  -0.00591779 -0.293905 9.91821e-05  -0.00631666 -0.301086 0.000100613  -0.00671768 -0.308259 9.91821e-05  -0.00711942 -0.315424 9.48906e-05  -0.00752306 -0.322581 9.48906e-05  -0.0079267 -0.329723 9.87053e-05  -0.00833035 -0.336856 9.87053e-05  -0.00873232 -0.343973 9.63211e-05  -0.00913453 -0.351079 0.000101089  -0.0095346 -0.358164 0.000102997  0 0 0  0.000144131 -0.000174999 0.000398636  0.000479504 -0.000794291 0.000702858  0.00094083 -0.00181574 0.000930309  0.00147724 -0.00319946 0.00108385  0.00204918 -0.00491846 0.00119591  0.0026308 -0.00694537 0.00125837  0.00320467 -0.00926286 0.00128031  0.00375909 -0.0118557 0.00129128  0.00428724 -0.0147091 0.00127649  0.004785 -0.0178171 0.00125456  0.00525093 -0.0211681 0.00121546  0.00568539 -0.0247496 0.00118399  0.00608808 -0.0285591 0.00113726  0.00645715 -0.0325806 0.00109816  0.00679129 -0.0368145 0.00104809  0.00709224 -0.0412415 0.00101042  0.00736046 -0.0458611 0.00097847  0.0075978 -0.0506583 0.000934124  0.00780499 -0.0556309 0.0008955  0.00798154 -0.0607677 0.000858784  0.00812805 -0.0660602 0.000823498  0.00824678 -0.0715005 0.000789642  0.00833642 -0.0770817 0.000759602  0.00839663 -0.082796 0.000730038  0.00843036 -0.0886365 0.000699997  0.00843883 -0.0945957 0.00066328  0.00842035 -0.100669 0.000630856  0.00837755 -0.106846 0.000597  0.00831068 -0.113122 0.000562191  0.00822103 -0.11949 0.000534534  0.00810921 -0.125945 0.000506401  0.00797534 -0.132485 0.000479698  0.00782394 -0.139095 0.000452518  0.00765443 -0.145777 0.000429153  0.0074656 -0.15252 0.000411987  0.00725865 -0.159324 0.0003829  0.00703645 -0.16618 0.000358582  0.00679898 -0.173089 0.000344276  0.0065465 -0.180039 0.000321865  0.00627875 -0.187032 0.000301838  0.00599694 -0.194062 0.000281334  0.00570369 -0.201121 0.000265121  0.00539708 -0.20821 0.00025034  0.00508046 -0.215326 0.000233173  0.00475621 -0.22246 0.000222206  0.00442195 -0.229614 0.000207424  0.00407815 -0.236781 0.000193596  0.00372744 -0.24396 0.000183105  0.00337148 -0.251147 0.000165939  0.00300813 -0.25834 0.000152111  0.00263882 -0.265539 0.00013876  0.00226378 -0.272734 0.000136375  0.00188351 -0.279931 0.000127792  0.00150013 -0.287124 0.000123024  0.00111485 -0.294312 0.00012064  0.000727177 -0.301495 0.000120163  0.000335217 -0.308667 0.000113487  -6.07967e-05 -0.315832 0.000103474  -0.000458479 -0.322987 0.00010252  -0.000857592 -0.330129 9.77516e-05  -0.00125861 -0.337261 9.77516e-05  -0.00166011 -0.344378 0.000100613  -0.00206065 -0.351485 9.53674e-05  -0.00245833 -0.358572 9.77516e-05  0 0 0  0.000215985 -0.000325978 0.000587463  0.00071907 -0.00105846 0.00104523  0.00140746 -0.00215584 0.00138998  0.00220677 -0.00358564 0.00162315  0.00305918 -0.0053286 0.00178671  0.00392488 -0.00736368 0.00187635  0.00477922 -0.0096823 0.00192738  0.00560832 -0.0122719 0.00192928  0.00640357 -0.0151193 0.00191784  0.00716037 -0.0182238 0.00187683  0.00787753 -0.0215696 0.00183439  0.00855321 -0.0251477 0.0017724  0.00918585 -0.0289537 0.00171232  0.00977588 -0.0329738 0.00164557  0.0103252 -0.0372062 0.00158548  0.0108348 -0.0416343 0.00151968  0.0113034 -0.0462542 0.00145721  0.0117315 -0.051052 0.00139809  0.0121211 -0.0560259 0.00134373  0.0124733 -0.0611643 0.00128651  0.0127879 -0.0664579 0.0012331  0.0130646 -0.0718998 0.00118017  0.0133058 -0.0774828 0.00112391  0.0135132 -0.0831991 0.00107431  0.0136858 -0.0890423 0.00103045  0.0138247 -0.0950033 0.000980854  0.0139328 -0.101078 0.000937462  0.0140101 -0.107258 0.000884533  0.0140564 -0.113536 0.000830173  0.0140735 -0.119906 0.000785828  0.0140622 -0.126363 0.000745296  0.0140252 -0.132904 0.000700951  0.0139627 -0.139515 0.00066185  0.0138755 -0.146198 0.00062561  0.0137663 -0.152944 0.000592709  0.0136325 -0.159749 0.000555038  0.013479 -0.166604 0.000520229  0.0133049 -0.173514 0.000488758  0.0131123 -0.180463 0.00045681  0.0129001 -0.187457 0.0004282  0.0126693 -0.194487 0.000396252  0.0124226 -0.201546 0.000369549  0.0121598 -0.208635 0.000346184  0.0118823 -0.215749 0.000319958  0.0115921 -0.222884 0.0002985  0.0112906 -0.230038 0.00027132  0.0109775 -0.237203 0.000251293  0.0106523 -0.244382 0.000236034  0.010318 -0.251569 0.000218391  0.00997639 -0.258761 0.000198841  0.00962615 -0.265958 0.000176907  0.00926805 -0.273152 0.000168324  0.00890064 -0.280348 0.000155926  0.00852799 -0.28754 0.000146866  0.00815225 -0.294726 0.000136375  0.00777221 -0.301907 0.000128746  0.00738811 -0.309079 0.000126839  0.00699902 -0.316242 0.000121593  0.00660586 -0.323395 0.000109673  0.00620914 -0.330536 0.000109196  0.00581241 -0.337667 0.000102043  0.00541472 -0.344786 9.77516e-05  0.0050149 -0.351893 9.44138e-05  0.00461578 -0.358984 8.4877e-05  0 0 0  0.000294618 -0.000551105 0.000770092  0.000982568 -0.00143915 0.00138187  0.00191917 -0.00263542 0.00183868  0.00299469 -0.00412047 0.00216484  0.00413302 -0.00588715 0.00237703  0.00528631 -0.00792617 0.00251007  0.00642377 -0.010242 0.0025692  0.00752705 -0.0128201 0.0025835  0.00858754 -0.0156592 0.00255299  0.00960159 -0.0187514 0.00250673  0.0105659 -0.0220885 0.00244617  0.0114804 -0.0256588 0.0023737  0.0123454 -0.0294589 0.00228834  0.0131599 -0.0334748 0.00220346  0.013923 -0.0377007 0.00212002  0.0146356 -0.0421258 0.00203276  0.0153003 -0.0467415 0.00194645  0.0159192 -0.051537 0.0018692  0.0164905 -0.0565099 0.00179434  0.0170158 -0.0616436 0.001719  0.0174967 -0.0669363 0.00164223  0.0179329 -0.0723775 0.00156498  0.0183256 -0.0779592 0.00149584  0.0186765 -0.0836741 0.00142908  0.0189871 -0.0895171 0.00136566  0.0192578 -0.0954768 0.00130367  0.0194893 -0.10155 0.00123692  0.0196842 -0.107728 0.0011735  0.0198432 -0.114005 0.00110197  0.0199672 -0.120375 0.00104094  0.0200565 -0.126831 0.000986099  0.020113 -0.133369 0.000931263  0.0201402 -0.13998 0.000877857  0.0201361 -0.146662 0.000826836  0.0201025 -0.153408 0.000776291  0.0200415 -0.16021 0.000723839  0.0199549 -0.167065 0.000680923  0.0198426 -0.173971 0.000638008  0.0197065 -0.18092 0.000600338  0.0195489 -0.187911 0.000551701  0.0193696 -0.194938 0.00051403  0.0191684 -0.201997 0.00047636  0.0189478 -0.209083 0.000442028  0.0187111 -0.216194 0.000408173  0.0184562 -0.223328 0.00037384  0.0181849 -0.23048 0.000341415  0.0178993 -0.237643 0.00030899  0.0176008 -0.244819 0.000290394  0.0172889 -0.252005 0.000267982  0.0169654 -0.259194 0.00024128  0.0166316 -0.266387 0.000219345  0.0162871 -0.27358 0.000193596  0.0159333 -0.280773 0.000183582  0.0155735 -0.287963 0.000170708  0.0152075 -0.295146 0.000152111  0.0148351 -0.302324 0.000141621  0.0144553 -0.309494 0.000133514  0.0140707 -0.316656 0.000132084  0.0136831 -0.323807 0.000119686  0.0132921 -0.330946 0.000114441  0.012897 -0.338078 0.000110626  0.0125 -0.345197 0.000100136  0.0121019 -0.352305 8.72612e-05  0.0117044 -0.359399 8.05855e-05  0 0 0  0.00038638 -0.00087285 0.000949383  0.00128719 -0.00196177 0.00171137  0.00249317 -0.00327319 0.00229645  0.00386268 -0.0048148 0.0027051  0.00529867 -0.00659794 0.00297976  0.00674206 -0.00863451 0.00313902  0.00816116 -0.0109372 0.00321531  0.00953835 -0.0134991 0.00323296  0.0108636 -0.0163229 0.00319719  0.0121316 -0.0193986 0.00313854  0.0133411 -0.0227216 0.00306368  0.0144928 -0.0262814 0.00297213  0.0155852 -0.0300709 0.00287676  0.0166195 -0.0340784 0.0027647  0.0175961 -0.0382954 0.00265789  0.0185151 -0.0427133 0.00255394  0.0193779 -0.0473215 0.00244951  0.0201836 -0.0521126 0.00234318  0.0209335 -0.0570784 0.00224447  0.02163 -0.0622066 0.00215483  0.0222747 -0.0674941 0.00205755  0.0228689 -0.0729315 0.00196648  0.0234126 -0.0785094 0.00187683  0.0239067 -0.0842204 0.00178385  0.024352 -0.0900597 0.00170422  0.0247515 -0.0960144 0.00162792  0.025107 -0.102083 0.00154257  0.0254184 -0.108257 0.00145912  0.0256875 -0.114529 0.00138092  0.0259151 -0.120896 0.0012989  0.0261024 -0.127349 0.00122929  0.0262525 -0.133882 0.00115633  0.0263658 -0.140489 0.00109243  0.0264437 -0.147168 0.00102854  0.0264876 -0.15391 0.000961781  0.0264971 -0.160709 0.000900745  0.0264759 -0.16756 0.000842094  0.0264258 -0.174461 0.000785828  0.0263481 -0.181407 0.000739098  0.0262415 -0.188394 0.000680447  0.0261099 -0.195416 0.000635147  0.0259533 -0.202473 0.000586033  0.0257733 -0.209555 0.000542641  0.0255702 -0.216661 0.000495911  0.0253472 -0.223791 0.000452995  0.0251067 -0.230939 0.000411034  0.0248485 -0.238099 0.000375271  0.0245736 -0.24527 0.000340939  0.0242827 -0.252452 0.000310898  0.0239768 -0.259637 0.00028038  0.0236573 -0.266826 0.000250816  0.0233278 -0.274017 0.000229836  0.0229878 -0.281206 0.000209332  0.0226371 -0.288391 0.000187874  0.0222778 -0.295572 0.000174999  0.02191 -0.302746 0.000151634  0.0215366 -0.309912 0.000147343  0.021157 -0.317072 0.000139236  0.0207725 -0.324221 0.000130177  0.0203819 -0.331359 0.000121593  0.0199862 -0.33849 0.00011301  0.0195882 -0.345609 0.000100136  0.0191915 -0.352717 8.96454e-05  0.0187945 -0.359817 8.39233e-05  0 0 0  0.000502415 -0.00132459 0.00112104  0.00165124 -0.00265932 0.00204849  0.0031642 -0.00408989 0.00276518  0.00484684 -0.00567347 0.00326872  0.00658703 -0.00746065 0.00359631  0.00832307 -0.00948358 0.00378466  0.0100222 -0.011763 0.00387383  0.0116692 -0.0143024 0.00388861  0.0132549 -0.0171044 0.00385857  0.0147753 -0.0201603 0.00378799  0.0162275 -0.0234652 0.00368738  0.0176123 -0.0270109 0.00357866  0.0189309 -0.0307857 0.00345898  0.0201823 -0.0347808 0.003335  0.0213683 -0.0389854 0.00320673  0.0224893 -0.0433925 0.00307989  0.0235456 -0.0479912 0.00294638  0.0245384 -0.0527744 0.00282526  0.0254685 -0.0577303 0.00270367  0.0263368 -0.0628508 0.00259352  0.0271443 -0.0681311 0.00248337  0.0278925 -0.0735602 0.00236988  0.0285836 -0.0791306 0.00225925  0.0292188 -0.0848353 0.00214434  0.029799 -0.0906672 0.00204325  0.0303255 -0.0966145 0.00195074  0.0308013 -0.102676 0.00185204  0.0312275 -0.108843 0.00175476  0.0316041 -0.115108 0.00165606  0.0319337 -0.121469 0.00157213  0.0322189 -0.127915 0.00147581  0.0324595 -0.13444 0.00139189  0.0326564 -0.141043 0.00131321  0.0328114 -0.147713 0.00123072  0.0329275 -0.15445 0.00115299  0.0330083 -0.161243 0.00107718  0.0330529 -0.16809 0.00101185  0.0330615 -0.174983 0.0009408  0.0330365 -0.181924 0.00087738  0.0329807 -0.188903 0.000817299  0.0328953 -0.195921 0.000759125  0.0327821 -0.20297 0.000701904  0.0326416 -0.210048 0.000638485  0.0324762 -0.217148 0.000594616  0.032285 -0.224272 0.000537872  0.0320711 -0.231413 0.000479221  0.031836 -0.238569 0.000439644  0.0315807 -0.245734 0.000395775  0.0313077 -0.252911 0.00036335  0.0310197 -0.260091 0.00032711  0.0307164 -0.267274 0.000293732  0.0303977 -0.27446 0.000258923  0.0300648 -0.281646 0.000232697  0.0297217 -0.288825 0.000217915  0.0293679 -0.296001 0.000189781  0.0290055 -0.303171 0.000173569  0.0286355 -0.310334 0.000161648  0.0282574 -0.31749 0.00014925  0.0278726 -0.324636 0.000133038  0.0274811 -0.331773 0.000125408  0.027086 -0.338903 0.000109673  0.0266881 -0.34602 0.000101089  0.0262871 -0.353129 9.58443e-05  0.0258861 -0.360233 8.63075e-05  0 0 0  0.000633799 -0.00196111 0.00130606  0.00213169 -0.00358188 0.00244236  0.00399597 -0.00509518 0.00327682  0.005999 -0.00669163 0.00385284  0.00803614 -0.00846189 0.00422812  0.010055 -0.0104567 0.00444603  0.0120264 -0.0127075 0.00454807  0.0139364 -0.0152157 0.00456667  0.0157782 -0.0179929 0.0045228  0.0175468 -0.0210254 0.00444221  0.0192403 -0.0243106 0.00432777  0.0208585 -0.0278387 0.00420189  0.0224025 -0.031595 0.00406361  0.0238715 -0.0355766 0.0039196  0.0252655 -0.0397651 0.00377131  0.0265851 -0.0441595 0.00361156  0.0278329 -0.048746 0.00346279  0.0290093 -0.0535176 0.00331974  0.030115 -0.0584611 0.00317669  0.0311512 -0.063571 0.00304127  0.0321192 -0.0688416 0.002913  0.0330216 -0.0742584 0.00278139  0.0338585 -0.0798187 0.00264645  0.0346314 -0.0855138 0.00251913  0.0353431 -0.0913349 0.00239801  0.0359956 -0.0972735 0.00228596  0.0365896 -0.103324 0.00217056  0.037128 -0.109481 0.00205469  0.0376123 -0.115738 0.00194931  0.038043 -0.122089 0.00183487  0.0384206 -0.128527 0.00172853  0.0387475 -0.135043 0.00162888  0.0390255 -0.141638 0.00153065  0.0392582 -0.148298 0.00143051  0.0394464 -0.155027 0.00133991  0.0395913 -0.161811 0.00125551  0.039696 -0.168651 0.0011735  0.0397618 -0.175536 0.00109482  0.0397916 -0.182468 0.001019  0.0397849 -0.189438 0.000946045  0.0397427 -0.196449 0.000883102  0.039669 -0.203489 0.000810623  0.0395627 -0.21056 0.000747681  0.039427 -0.217653 0.000676155  0.0392652 -0.224769 0.000612736  0.0390782 -0.231901 0.00056076  0.0388668 -0.23905 0.00050354  0.0386319 -0.24621 0.000457764  0.0383761 -0.253378 0.000408649  0.0380993 -0.260553 0.000369072  0.0378048 -0.26773 0.000332355  0.0374961 -0.274909 0.000290871  0.0371716 -0.282089 0.000259399  0.0368316 -0.289263 0.000226021  0.0364788 -0.296433 0.000207424  0.0361164 -0.303596 0.000186443  0.0357451 -0.310758 0.00017643  0.0353663 -0.317908 0.00015831  0.0349808 -0.32505 0.000146866  0.0345907 -0.332187 0.000131607  0.0341945 -0.339315 0.000119209  0.0337954 -0.346432 0.000109196  0.033397 -0.353542 0.000101089  0.0329976 -0.360648 8.53539e-05  0 0 0  0.00105062 -0.0029301 0.00165987  0.00295196 -0.00473148 0.0028944  0.00511698 -0.00626177 0.00381565  0.00738636 -0.00783449 0.00445843  0.00968313 -0.00956821 0.00487518  0.0119599 -0.0115285 0.00511837  0.0141899 -0.0137467 0.00523949  0.0163582 -0.0162222 0.00525475  0.0184516 -0.0189726 0.00521326  0.0204659 -0.0219814 0.00510788  0.0223984 -0.025245 0.00498533  0.0242482 -0.0287534 0.00484037  0.0260153 -0.0324894 0.00468349  0.0276994 -0.0364535 0.0045166  0.0293002 -0.0406261 0.00434113  0.0308172 -0.0450066 0.00416279  0.032254 -0.0495769 0.00398636  0.0336117 -0.0543344 0.00382233  0.0348911 -0.0592629 0.00366735  0.0360924 -0.0643604 0.00350809  0.0372186 -0.0696179 0.00334549  0.0382712 -0.0750204 0.00319147  0.0392509 -0.0805681 0.00304317  0.0401598 -0.0862493 0.00290442  0.0410002 -0.0920585 0.00275898  0.0417742 -0.0979847 0.00262594  0.0424848 -0.104024 0.00249624  0.0431334 -0.110168 0.00236797  0.0437198 -0.116413 0.00223112  0.0442467 -0.122752 0.00210714  0.0447149 -0.129182 0.00198936  0.0451274 -0.135684 0.0018692  0.045486 -0.142271 0.00175714  0.0457933 -0.14892 0.00164032  0.0460501 -0.155637 0.00153685  0.0462589 -0.162412 0.00143528  0.0464211 -0.169241 0.00134087  0.0465403 -0.176117 0.00125504  0.046618 -0.183036 0.00116777  0.0466573 -0.189996 0.00108337  0.0466583 -0.196998 0.00100136  0.0466218 -0.204028 0.000927925  0.0465493 -0.211089 0.000851631  0.0464427 -0.218175 0.0007658  0.0463047 -0.22528 0.000696182  0.0461392 -0.232402 0.000631809  0.0459466 -0.239542 0.000570297  0.0457292 -0.246694 0.0005126  0.0454874 -0.253854 0.000461578  0.0452232 -0.261021 0.00041151  0.0449364 -0.26819 0.000360966  0.0446293 -0.275363 0.000317574  0.044307 -0.282534 0.000278473  0.0439684 -0.289702 0.00025034  0.0436158 -0.296865 0.00022459  0.0432522 -0.304023 0.000199318  0.0428793 -0.311181 0.00017786  0.0424986 -0.318326 0.000164509  0.0421097 -0.325464 0.000146866  0.0417128 -0.3326 0.00014019  0.0413129 -0.339725 0.000129223  0.0409102 -0.346842 0.000115395  0.0405054 -0.353953 0.000100136  0.0401015 -0.361058 9.53674e-05  0 0 0  -0.00109313 -0.00298031 -0.00129271  -0.0029719 -0.00476408 -0.00228834  -0.00508888 -0.00626126 -0.00304794  -0.00731236 -0.00778023 -0.00359392  -0.00957811 -0.009445 -0.00395966  -0.0118488 -0.0113155 -0.00418663  -0.0140984 -0.0134224 -0.00430155  -0.0163108 -0.0157779 -0.00433493  -0.0184751 -0.0183806 -0.00430632  -0.020584 -0.0212354 -0.00423002  -0.0226343 -0.024332 -0.00412226  -0.0246256 -0.0276583 -0.00399208  -0.0265571 -0.0312099 -0.00384855  -0.0284292 -0.0349809 -0.00370407  -0.0302433 -0.0389615 -0.00355577  -0.0320019 -0.0431362 -0.0034008  -0.0337068 -0.0475065 -0.00325203  -0.0353582 -0.0520574 -0.00310755  -0.0369576 -0.0567846 -0.00297165  -0.0385069 -0.0616806 -0.00283384  -0.0400077 -0.0667314 -0.00269413  -0.0414609 -0.0719367 -0.00255728  -0.0428674 -0.0772885 -0.0024209  -0.0442287 -0.0827797 -0.00229311  -0.0455467 -0.0884003 -0.00217772  -0.0468228 -0.0941456 -0.00205088  -0.0480568 -0.100005 -0.00194359  -0.0492499 -0.105978 -0.00183153  -0.050403 -0.112056 -0.00172234  -0.0515171 -0.118234 -0.00161791  -0.0525934 -0.124504 -0.00152111  -0.0536317 -0.130861 -0.00143194  -0.0546341 -0.137301 -0.0013423  -0.0556021 -0.143818 -0.00124884  -0.0565381 -0.150406 -0.00116348  -0.0574405 -0.15706 -0.00107479  -0.0583093 -0.163772 -0.000998974  -0.059149 -0.170544 -0.000916004  -0.0599577 -0.177366 -0.000841141  -0.0607364 -0.184237 -0.000767708  -0.0614862 -0.191148 -0.000699043  -0.0622101 -0.198102 -0.000636101  -0.062907 -0.205087 -0.000570297  -0.0635767 -0.212104 -0.000517368  -0.0642231 -0.21915 -0.000457764  -0.0648484 -0.226219 -0.000396252  -0.0654526 -0.233307 -0.000349045  -0.0660338 -0.240413 -0.000296116  -0.0665941 -0.247536 -0.000248909  -0.0671337 -0.254671 -0.000207424  -0.0676548 -0.261814 -0.000160694  -0.0681572 -0.26896 -0.000125885  -0.0686445 -0.276112 -9.05991e-05  -0.0691192 -0.283266 -6.1512e-05  -0.0695796 -0.290419 -3.57628e-05  -0.0700262 -0.29757 -8.58307e-06  -0.0704644 -0.304721 1.57356e-05  -0.0708938 -0.311861 3.33786e-05  -0.0713165 -0.319002 4.72069e-05  -0.0717342 -0.326133 6.4373e-05  -0.0721488 -0.33326 7.58171e-05  -0.0725601 -0.340379 8.72612e-05  -0.0729687 -0.347491 0.000100136  -0.0733793 -0.354604 0.000115871  0 0 0  -0.000634808 -0.00194551 -0.00101471  -0.00209185 -0.00355668 -0.00191307  -0.00389327 -0.00505311 -0.00260639  -0.00583965 -0.0066188 -0.00310373  -0.00784037 -0.00834267 -0.00342607  -0.00984862 -0.0102731 -0.00363588  -0.0118372 -0.012437 -0.00373888  -0.01379 -0.0148495 -0.00376081  -0.0156996 -0.0175082 -0.00373697  -0.0175605 -0.0204129 -0.00366402  -0.0193699 -0.0235601 -0.00356865  -0.0211273 -0.0269358 -0.00346184  -0.0228333 -0.0305357 -0.00333977  -0.0244901 -0.0343522 -0.00321054  -0.0260983 -0.0383759 -0.00308132  -0.027659 -0.0425967 -0.00294685  -0.0291749 -0.0470086 -0.00281715  -0.0306467 -0.0516025 -0.00269651  -0.0320753 -0.0563704 -0.00257492  -0.0334616 -0.0613059 -0.00246048  -0.0348058 -0.066397 -0.00233841  -0.0361108 -0.0716407 -0.00221252  -0.0373778 -0.0770308 -0.00209808  -0.0386077 -0.0825575 -0.00198889  -0.0398009 -0.088213 -0.0018878  -0.0409578 -0.0939914 -0.00177431  -0.0420799 -0.0998856 -0.0016799  -0.0431669 -0.10589 -0.00158167  -0.0442206 -0.112 -0.00148916  -0.0452421 -0.118209 -0.00140572  -0.0462308 -0.124507 -0.00132227  -0.0471877 -0.130892 -0.00124359  -0.0481138 -0.137359 -0.00116014  -0.0490122 -0.143901 -0.00108385  -0.0498822 -0.150514 -0.00100374  -0.0507233 -0.157192 -0.000930309  -0.0515375 -0.163927 -0.000856876  -0.0523264 -0.170719 -0.000793457  -0.0530913 -0.177563 -0.000729084  -0.0538294 -0.184453 -0.000663757  -0.0545416 -0.191383 -0.000600338  -0.0552287 -0.198355 -0.000538826  -0.0558937 -0.205357 -0.000491619  -0.0565391 -0.212389 -0.000446796  -0.0571632 -0.219449 -0.000393391  -0.0577664 -0.22653 -0.000342846  -0.0583525 -0.233633 -0.000293255  -0.0589199 -0.240749 -0.000253201  -0.0594695 -0.247883 -0.000207424  -0.0600009 -0.255027 -0.0001688  -0.0605145 -0.262178 -0.000133514  -0.0610147 -0.269333 -9.9659e-05  -0.061501 -0.276492 -6.62804e-05  -0.0619738 -0.283652 -4.43459e-05  -0.0624354 -0.29081 -2.14577e-05  -0.062887 -0.297966 1.90735e-06  -0.0633285 -0.30512 2.0504e-05  -0.0637605 -0.312264 3.62396e-05  -0.0641875 -0.319404 5.43594e-05  -0.0646095 -0.326538 6.81877e-05  -0.065026 -0.333665 8.01086e-05  -0.0654385 -0.340783 9.58443e-05  -0.0658491 -0.347895 0.000104427  -0.0662565 -0.355003 0.000113487  0 0 0  -0.00048561 -0.00128562 -0.000860214  -0.0015763 -0.00260993 -0.00159788  -0.00302134 -0.00403762 -0.00218487  -0.00464293 -0.00560898 -0.00261784  -0.00634038 -0.00736894 -0.00290871  -0.008059 -0.00934826 -0.00308514  -0.00976878 -0.0115638 -0.00317478  -0.0114515 -0.0140274 -0.00319767  -0.0130976 -0.0167382 -0.00317335  -0.0147038 -0.0196906 -0.00311899  -0.0162672 -0.0228819 -0.00304127  -0.0177879 -0.0263038 -0.00294352  -0.0192679 -0.0299481 -0.00284052  -0.0207067 -0.033805 -0.00272465  -0.0221051 -0.0378685 -0.0026145  -0.0234653 -0.04213 -0.0025053  -0.0247884 -0.04658 -0.00239754  -0.0260751 -0.0512122 -0.00229073  -0.0273275 -0.0560179 -0.00219202  -0.0285463 -0.0609895 -0.00208426  -0.0297332 -0.0661173 -0.00198507  -0.0308887 -0.0713958 -0.00187731  -0.0320126 -0.07682 -0.00178289  -0.0331056 -0.0823789 -0.00169039  -0.0341691 -0.0880671 -0.0015955  -0.0352042 -0.093876 -0.00151157  -0.0362113 -0.0998017 -0.00142241  -0.0371908 -0.105836 -0.00134134  -0.0381436 -0.111974 -0.0012598  -0.0390688 -0.118211 -0.00119305  -0.0399671 -0.124535 -0.00112438  -0.0408411 -0.130947 -0.00105429  -0.0416906 -0.137437 -0.000983238  -0.0425134 -0.144003 -0.000917912  -0.0433125 -0.15064 -0.000846386  -0.044091 -0.157338 -0.000782967  -0.0448475 -0.164095 -0.000724316  -0.0455832 -0.170906 -0.000669479  -0.0462964 -0.177769 -0.000614166  -0.0469885 -0.184677 -0.000555515  -0.0476604 -0.191626 -0.000503063  -0.0483136 -0.198612 -0.000453949  -0.0489466 -0.205629 -0.000412941  -0.0495603 -0.212676 -0.000370979  -0.0501573 -0.219749 -0.00032568  -0.050739 -0.226843 -0.000285625  -0.0513041 -0.233956 -0.000246048  -0.0518539 -0.241085 -0.000207901  -0.0523877 -0.248227 -0.000170231  -0.0529063 -0.255379 -0.000141144  -0.0534129 -0.262539 -0.000108719  -0.0539048 -0.269703 -7.72476e-05  -0.0543849 -0.276866 -4.62532e-05  -0.0548551 -0.284033 -2.3365e-05  -0.0553141 -0.291197 -5.24521e-06  -0.0557637 -0.298357 1.85966e-05  -0.0562055 -0.305513 3.05176e-05  -0.0566406 -0.312662 4.3869e-05  -0.0570691 -0.319803 5.91278e-05  -0.0574927 -0.32694 7.43866e-05  -0.0579104 -0.334066 8.15392e-05  -0.0583248 -0.341183 9.53674e-05  -0.0587373 -0.348295 0.000105858  -0.0591502 -0.3554 0.000114441  0 0 0  -0.000361688 -0.000834659 -0.000718594  -0.00119598 -0.00191878 -0.00131989  -0.00232732 -0.00323929 -0.00180292  -0.00363088 -0.0047819 -0.00216293  -0.00501993 -0.00655425 -0.00240088  -0.00644195 -0.00856571 -0.00254393  -0.00786462 -0.0108228 -0.00263119  -0.00926942 -0.0133284 -0.00264978  -0.010648 -0.0160841 -0.00262737  -0.0119952 -0.0190789 -0.00258064  -0.0133095 -0.0223097 -0.00251389  -0.0145912 -0.0257716 -0.00244045  -0.0158398 -0.0294552 -0.00235033  -0.0170567 -0.0333484 -0.00225782  -0.0182437 -0.0374479 -0.00216293  -0.0194011 -0.0417445 -0.002069  -0.0205296 -0.0462287 -0.00198317  -0.0216312 -0.0508954 -0.00188971  -0.0227064 -0.0557338 -0.00180101  -0.0237553 -0.0607381 -0.0017252  -0.0247794 -0.0658989 -0.00163889  -0.0257807 -0.0712083 -0.00155354  -0.0267589 -0.0766631 -0.00147152  -0.0277137 -0.0822506 -0.00139618  -0.028646 -0.087968 -0.00132322  -0.0295564 -0.0938054 -0.00124788  -0.0304464 -0.0997597 -0.00117683  -0.0313128 -0.10582 -0.0011034  -0.0321574 -0.111984 -0.00104094  -0.0329829 -0.118246 -0.000981331  -0.0337893 -0.124595 -0.000925064  -0.0345763 -0.131029 -0.000872135  -0.0353432 -0.137542 -0.000807762  -0.0360918 -0.144128 -0.00074625  -0.0368226 -0.150786 -0.000695229  -0.0375333 -0.157504 -0.000646114  -0.0382266 -0.164281 -0.000594139  -0.0389044 -0.17111 -0.000546455  -0.039566 -0.177989 -0.000495434  -0.0402095 -0.184914 -0.000456333  -0.0408375 -0.191878 -0.000408649  -0.0414493 -0.198878 -0.00036335  -0.0420468 -0.205909 -0.000333786  -0.0426307 -0.212969 -0.000297546  -0.0432005 -0.220053 -0.00026083  -0.0437555 -0.227159 -0.000228405  -0.0442979 -0.234281 -0.000194073  -0.0448275 -0.241421 -0.000161171  -0.0453458 -0.248573 -0.000135422  -0.0458515 -0.255733 -0.00010252  -0.0463426 -0.262899 -7.86781e-05  -0.0468233 -0.27007 -4.43459e-05  -0.0472951 -0.277238 -2.76566e-05  -0.0477602 -0.284411 -6.67572e-06  -0.0482168 -0.291581 1.43051e-05  -0.0486646 -0.298744 2.81334e-05  -0.0491052 -0.305903 3.8147e-05  -0.0495379 -0.313057 5.19753e-05  -0.0499663 -0.320201 6.53267e-05  -0.0503907 -0.327338 7.24792e-05  -0.0508089 -0.334464 8.63075e-05  -0.0512233 -0.341581 8.96454e-05  -0.0516367 -0.348693 9.82285e-05  -0.052048 -0.355794 0.000112534  0 0 0  -0.000269495 -0.000525072 -0.00057888  -0.000890017 -0.0014194 -0.00106096  -0.00174747 -0.00263807 -0.00143719  -0.00275324 -0.00413784 -0.00172091  -0.00384071 -0.00590712 -0.00191021  -0.00496528 -0.00793682 -0.00202751  -0.00609851 -0.0102248 -0.0020895  -0.00722337 -0.012764 -0.00211287  -0.00832969 -0.0155549 -0.00209332  -0.00941479 -0.0185859 -0.00205708  -0.0104778 -0.0218523 -0.00200272  -0.0115162 -0.0253476 -0.0019393  -0.0125309 -0.0290631 -0.00187254  -0.0135247 -0.0329906 -0.00179815  -0.0144963 -0.0371193 -0.00171947  -0.0154474 -0.0414472 -0.00164318  -0.0163795 -0.0459616 -0.0015707  -0.0172927 -0.0506581 -0.00150108  -0.0181878 -0.0555252 -0.00142813  -0.0190654 -0.0605584 -0.00136471  -0.0199262 -0.0657468 -0.00129557  -0.0207709 -0.0710843 -0.00124073  -0.0216001 -0.0765658 -0.00117588  -0.0224136 -0.0821798 -0.00111055  -0.0232116 -0.0879219 -0.00104809  -0.0239946 -0.0937853 -0.000991821  -0.0247626 -0.0997644 -0.000928402  -0.0255154 -0.105847 -0.000874043  -0.0262551 -0.112035 -0.000824928  -0.0269802 -0.118318 -0.000771523  -0.0276897 -0.124689 -0.000723839  -0.0283843 -0.131145 -0.000683784  -0.029067 -0.137677 -0.000636578  -0.0297375 -0.144283 -0.000590801  -0.0303936 -0.150957 -0.00055027  -0.0310373 -0.157694 -0.000502586  -0.0316677 -0.164488 -0.000464916  -0.0322847 -0.171333 -0.000430107  -0.0328908 -0.178228 -0.000390053  -0.0334864 -0.185166 -0.000351906  -0.0340686 -0.192143 -0.000318527  -0.0346394 -0.199156 -0.000287533  -0.0351996 -0.206199 -0.000251293  -0.0357497 -0.213269 -0.000228405  -0.0362885 -0.220365 -0.000200748  -0.0368152 -0.227481 -0.000168324  -0.0373309 -0.234614 -0.000141621  -0.0378366 -0.241762 -0.000115871  -0.0383322 -0.248923 -9.44138e-05  -0.0388196 -0.256089 -7.43866e-05  -0.0392988 -0.263261 -4.48227e-05  -0.0397696 -0.270437 -2.43187e-05  -0.0402336 -0.277612 -2.86102e-06  -0.0406897 -0.284788 1.43051e-05  -0.0411389 -0.291963 2.67029e-05  -0.0415812 -0.299131 3.91006e-05  -0.0420167 -0.306294 4.52995e-05  -0.0424488 -0.313449 5.72205e-05  -0.0428748 -0.320596 6.81877e-05  -0.0432968 -0.327734 7.67708e-05  -0.0437143 -0.334862 7.53403e-05  -0.0441279 -0.34198 9.01222e-05  -0.0445383 -0.349091 0.000101089  -0.0449479 -0.356188 0.000109196  0 0 0  -0.000188794 -0.000317425 -0.000434875  -0.000628293 -0.00107327 -0.000793934  -0.00124238 -0.0022065 -0.00107384  -0.00197023 -0.00366712 -0.00128222  -0.00276655 -0.00542569 -0.00142622  -0.0035975 -0.00746509 -0.0015192  -0.00444046 -0.00977409 -0.0015626  -0.00528222 -0.0123398 -0.00158072  -0.00611687 -0.0151583 -0.00156975  -0.00693917 -0.0182178 -0.00154305  -0.00774693 -0.0215134 -0.00149679  -0.00854111 -0.0250362 -0.00145292  -0.00932145 -0.0287787 -0.00140238  -0.0100881 -0.0327339 -0.00134563  -0.0108429 -0.0368892 -0.00128555  -0.0115872 -0.0412423 -0.00122833  -0.0123204 -0.0457835 -0.00117397  -0.0130427 -0.0505045 -0.00112009  -0.0137547 -0.0553968 -0.00106812  -0.0144585 -0.0604539 -0.00101757  -0.0151546 -0.0656666 -0.00096941  -0.0158421 -0.0710277 -0.00092268  -0.0165206 -0.0765328 -0.000874519  -0.0171899 -0.0821692 -0.000827789  -0.0178512 -0.0879338 -0.000775814  -0.0185055 -0.0938191 -0.000738144  -0.0191516 -0.0998185 -0.000690937  -0.0197891 -0.105924 -0.000649929  -0.0204183 -0.112132 -0.000608444  -0.0210376 -0.118432 -0.000565052  -0.0216492 -0.124823 -0.000534058  -0.0222539 -0.131297 -0.00050354  -0.02285 -0.137847 -0.000467777  -0.0234387 -0.144469 -0.00043726  -0.0240195 -0.151158 -0.000403404  -0.0245926 -0.157911 -0.000371456  -0.025157 -0.164719 -0.000335693  -0.0257154 -0.171579 -0.000305176  -0.0262659 -0.178487 -0.00028038  -0.0268064 -0.185437 -0.000253201  -0.0273407 -0.192425 -0.000227451  -0.027868 -0.199448 -0.000200272  -0.028389 -0.206504 -0.000177383  -0.0289032 -0.213583 -0.000157833  -0.0294099 -0.220688 -0.000133991  -0.029907 -0.227813 -0.000107765  -0.0303957 -0.234954 -8.86917e-05  -0.0308776 -0.24211 -7.15256e-05  -0.0313528 -0.249277 -5.48363e-05  -0.031821 -0.25645 -3.24249e-05  -0.0322843 -0.263627 -1.23978e-05  -0.0327413 -0.270808 -1.43051e-06  -0.0331917 -0.277988 1.33514e-05  -0.0336382 -0.285168 2.81334e-05  -0.0340791 -0.292346 3.86238e-05  -0.034514 -0.299518 4.91142e-05  -0.034945 -0.306685 6.1512e-05  -0.0353706 -0.313841 6.62804e-05  -0.0357924 -0.320992 7.48634e-05  -0.0362105 -0.328131 7.24792e-05  -0.0366259 -0.335261 8.15392e-05  -0.0370381 -0.342379 9.34601e-05  -0.0374491 -0.349488 0.00010252  -0.0378592 -0.356582 0.000112534  0 0 0  -0.000118338 -0.000187576 -0.000294685  -0.000393152 -0.000852197 -0.000533581  -0.000783101 -0.001926 -0.000715256  -0.00124976 -0.00335523 -0.000850201  -0.00176346 -0.00510398 -0.00094986  -0.00230563 -0.0071497 -0.00101376  -0.00286239 -0.00947231 -0.00104761  -0.00342444 -0.012058 -0.00105572  -0.0039854 -0.0148968 -0.00104952  -0.00454223 -0.0179789 -0.00102854  -0.00509453 -0.0212958 -0.00100374  -0.00564212 -0.0248418 -0.000970364  -0.00618505 -0.0286066 -0.000936508  -0.00672472 -0.0325827 -0.000890732  -0.00726163 -0.0367607 -0.000854492  -0.00779641 -0.0411348 -0.000816822  -0.00832915 -0.0456969 -0.000780106  -0.00885975 -0.0504387 -0.00074625  -0.00939 -0.0553522 -0.000710011  -0.00991905 -0.0604283 -0.000669003  -0.0104465 -0.0656624 -0.000636578  -0.0109739 -0.0710433 -0.000608444  -0.0115012 -0.0765672 -0.000575066  -0.0120268 -0.0822231 -0.000547886  -0.0125498 -0.0880064 -0.00051403  -0.0130719 -0.0939113 -0.000477791  -0.0135932 -0.0999275 -0.000452995  -0.0141118 -0.106051 -0.000424385  -0.0146292 -0.112276 -0.000395775  -0.0151455 -0.118592 -0.000365257  -0.015659 -0.124999 -0.000342369  -0.0161692 -0.131489 -0.00032711  -0.0166776 -0.138054 -0.000310421  -0.0171847 -0.14469 -0.000282764  -0.0176892 -0.151393 -0.00026226  -0.0181904 -0.158157 -0.000233173  -0.0186887 -0.164978 -0.000212669  -0.0191844 -0.171851 -0.000194073  -0.0196767 -0.178768 -0.000167847  -0.0201666 -0.185728 -0.000146866  -0.0206525 -0.192726 -0.000135899  -0.0211337 -0.199759 -0.000118732  -0.0216105 -0.206823 -0.000102043  -0.022084 -0.213913 -8.39233e-05  -0.0225537 -0.221024 -6.86646e-05  -0.0230184 -0.228157 -4.91142e-05  -0.0234814 -0.235304 -3.71933e-05  -0.0239403 -0.242468 -2.67029e-05  -0.0243926 -0.249638 -1.62125e-05  -0.0248413 -0.256818 -9.53674e-07  -0.0252857 -0.263999 1.4782e-05  -0.0257261 -0.271185 2.28882e-05  -0.0261626 -0.27837 3.67165e-05  -0.0265973 -0.285554 4.52995e-05  -0.0270286 -0.292733 5.19753e-05  -0.027457 -0.299909 5.8651e-05  -0.0278811 -0.307077 6.19888e-05  -0.0283008 -0.314237 7.29561e-05  -0.0287187 -0.321389 7.58171e-05  -0.0291338 -0.32853 8.34465e-05  -0.0295451 -0.335659 8.67844e-05  -0.0299551 -0.342779 9.44138e-05  -0.0303631 -0.349885 0.00010252  -0.0307703 -0.356977 0.000110149  0 0 0  -5.30742e-05 -0.000122041 -0.000146389  -0.000177197 -0.000737518 -0.000266552  -0.000353783 -0.00178039 -0.000358105  -0.000568748 -0.00319085 -0.000430107  -0.000810623 -0.00493553 -0.000481129  -0.00106966 -0.0069862 -0.000512123  -0.00134042 -0.0093185 -0.000527859  -0.00162002 -0.0119184 -0.000536919  -0.00190651 -0.0147711 -0.000525475  -0.00219792 -0.0178705 -0.000516415  -0.00249386 -0.021203 -0.00050211  -0.00279468 -0.0247663 -0.000489235  -0.00310081 -0.0285485 -0.000471592  -0.0034129 -0.0325407 -0.000448704  -0.00373125 -0.0367351 -0.000429153  -0.00405622 -0.0411264 -0.000408649  -0.00438881 -0.0457051 -0.000395298  -0.00472832 -0.0504628 -0.000370502  -0.00507367 -0.055393 -0.000351429  -0.00542545 -0.0604844 -0.000330448  -0.00578511 -0.065736 -0.000313759  -0.00615144 -0.0711335 -0.000292778  -0.00652385 -0.0766725 -0.000281811  -0.00690198 -0.0823449 -0.000267029  -0.00728691 -0.0881431 -0.00024271  -0.00767779 -0.0940632 -0.000230789  -0.00807321 -0.100094 -0.000211239  -0.00847375 -0.106232 -0.000198364  -0.00887871 -0.11247 -0.000184059  -0.00928783 -0.1188 -0.000170231  -0.00970197 -0.125219 -0.000157356  -0.0101192 -0.131722 -0.000152588  -0.0105391 -0.1383 -0.00013876  -0.010962 -0.144947 -0.000128269  -0.0113893 -0.151662 -0.000119209  -0.0118184 -0.158435 -0.000100136  -0.012249 -0.165267 -8.44002e-05  -0.012681 -0.172149 -7.15256e-05  -0.0131135 -0.179076 -6.4373e-05  -0.0135472 -0.186044 -5.43594e-05  -0.0139823 -0.193052 -4.1008e-05  -0.0144167 -0.200091 -3.48091e-05  -0.0148499 -0.207162 -2.3365e-05  -0.0152826 -0.21426 -1.85966e-05  -0.0157161 -0.221377 -5.24521e-06  -0.0161493 -0.228514 3.8147e-06  -0.0165823 -0.235667 1.28746e-05  -0.0170145 -0.242835 1.85966e-05  -0.0174446 -0.25001 2.76566e-05  -0.0178723 -0.257194 3.29018e-05  -0.0182986 -0.26438 4.1008e-05  -0.0187242 -0.271568 4.62532e-05  -0.0191491 -0.278757 4.95911e-05  -0.0195718 -0.285942 6.00815e-05  -0.0199916 -0.293125 6.34193e-05  -0.0204091 -0.300302 6.96182e-05  -0.0208259 -0.307472 7.29561e-05  -0.0212412 -0.314634 7.48634e-05  -0.0216529 -0.321787 8.24928e-05  -0.022063 -0.328928 8.91685e-05  -0.0224729 -0.336058 9.39369e-05  -0.0228815 -0.343178 9.34601e-05  -0.0232878 -0.350283 0.000104904  -0.0236917 -0.357373 0.000109196  0 0 0  1.0483e-05 -0.00011149 4.76837e-07  3.39746e-05 -0.000719339 3.8147e-06  6.35833e-05 -0.00175688 -2.38419e-06  9.40561e-05 -0.00316748 -3.8147e-06  0.000121534 -0.00491539 -5.24521e-06  0.000142366 -0.00697172 -9.05991e-06  0.000153959 -0.00931108 -7.62939e-06  0.000154376 -0.0119206 -9.53674e-06  0.000142455 -0.0147829 -1.00136e-05  0.000117302 -0.0178928 -1.14441e-05  7.73668e-05 -0.0212366 -7.15256e-06  2.28286e-05 -0.0248101 -1.28746e-05  -4.55379e-05 -0.0286044 -1.4782e-05  -0.000129759 -0.0326082 -1.28746e-05  -0.000230193 -0.0368149 -5.72205e-06  -0.000345588 -0.0412179 -9.05991e-06  -0.000475407 -0.0458089 -9.05991e-06  -0.000620842 -0.0505791 -3.33786e-06  -0.000782609 -0.0555207 1.43051e-06  -0.000959635 -0.0606258 8.58307e-06  -0.00115073 -0.0658894 8.58307e-06  -0.00135469 -0.0712994 1.23978e-05  -0.0015732 -0.0768499 1.7643e-05  -0.00180578 -0.0825348 1.66893e-05  -0.00205028 -0.0883451 2.14577e-05  -0.00230777 -0.0942762 2.00272e-05  -0.0025773 -0.100318 2.67029e-05  -0.0028578 -0.106468 2.00272e-05  -0.00314927 -0.112717 2.47955e-05  -0.00345135 -0.119058 2.43187e-05  -0.00376379 -0.125488 3.09944e-05  -0.00408733 -0.132 2.95639e-05  -0.00441957 -0.138589 2.6226e-05  -0.00475883 -0.145245 3.05176e-05  -0.0051043 -0.151967 3.29018e-05  -0.00545883 -0.15875 4.05312e-05  -0.00582004 -0.165588 4.05312e-05  -0.00618672 -0.172479 4.33922e-05  -0.0065589 -0.179412 4.43459e-05  -0.00693774 -0.186388 4.91142e-05  -0.00732088 -0.193401 4.43459e-05  -0.00770831 -0.200446 4.95911e-05  -0.00810075 -0.207522 4.91142e-05  -0.00849628 -0.214624 5.57899e-05  -0.00889397 -0.221748 6.10352e-05  -0.00929284 -0.228887 6.1512e-05  -0.00969505 -0.236045 6.05583e-05  -0.0100987 -0.243215 5.91278e-05  -0.0105047 -0.250394 6.24657e-05  -0.0109115 -0.257579 6.67572e-05  -0.0113192 -0.264768 6.67572e-05  -0.0117278 -0.27196 7.15256e-05  -0.0121362 -0.279151 6.96182e-05  -0.0125453 -0.286338 7.67708e-05  -0.0129538 -0.293523 7.82013e-05  -0.0133626 -0.3007 8.15392e-05  -0.0137725 -0.307871 8.01086e-05  -0.0141811 -0.315034 8.15392e-05  -0.0145888 -0.322187 8.86917e-05  -0.0149961 -0.329328 9.63211e-05  -0.0154023 -0.336459 9.48906e-05  -0.0158067 -0.343578 0.000102043  -0.0162103 -0.350682 0.000104427  -0.0166132 -0.357773 0.000108242  0 0 0  7.22706e-05 -0.000152349 0.000149727  0.000241429 -0.000792384 0.000267982  0.000477687 -0.00185251 0.000358105  0.000753909 -0.00328058 0.000423431  0.00104913 -0.00504088 0.0004673  0.00134909 -0.00710446 0.000492096  0.00164348 -0.00944948 0.000511646  0.00192434 -0.0120643 0.000513077  0.00218612 -0.0149313 0.000505447  0.00242633 -0.0180457 0.000502586  0.00264269 -0.0213962 0.000482559  0.00283456 -0.0249748 0.0004673  0.00300348 -0.0287737 0.000451088  0.00314832 -0.0327848 0.000429153  0.00326723 -0.0370002 0.000411987  0.00336111 -0.04141 0.00039959  0.0034306 -0.0460094 0.000389099  0.00347662 -0.0507879 0.000374317  0.0035007 -0.055738 0.000353813  0.00350213 -0.0608529 0.000344276  0.00348103 -0.0661241 0.000328541  0.00343692 -0.071543 0.00031662  0.00337267 -0.0771013 0.000307083  0.00328827 -0.082795 0.000299454  0.00318253 -0.0886143 0.000288963  0.0030576 -0.0945531 0.000278473  0.00291395 -0.100603 0.000259876  0.00275195 -0.106763 0.000247955  0.00257349 -0.113018 0.000239372  0.00237834 -0.119367 0.000230312  0.00216591 -0.125804 0.000213623  0.0019393 -0.132325 0.000207901  0.00169826 -0.13892 0.000195026  0.00144315 -0.145584 0.000185966  0.00117493 -0.152311 0.000178814  0.000895023 -0.1591 0.000173092  0.000603199 -0.165944 0.0001688  0.000299454 -0.172839 0.000157833  -1.40667e-05 -0.179776 0.000154018  -0.000336409 -0.186757 0.000144958  -0.000667572 -0.193774 0.000135899  -0.00100756 -0.200823 0.000128269  -0.00135493 -0.207902 0.000125408  -0.00170922 -0.215008 0.000128746  -0.00207019 -0.222135 0.000123501  -0.00243759 -0.229278 0.000118256  -0.00281119 -0.236437 0.000110626  -0.00318885 -0.243609 0.000108719  -0.00356984 -0.25079 0.000102043  -0.0039537 -0.257975 9.82285e-05  -0.0043416 -0.265167 9.91821e-05  -0.00473356 -0.272359 9.10759e-05  -0.00512934 -0.279551 9.15527e-05  -0.00552487 -0.28674 9.25064e-05  -0.00592065 -0.293925 8.91685e-05  -0.00631857 -0.301103 9.58443e-05  -0.00671911 -0.308275 9.44138e-05  -0.00712132 -0.315438 9.29832e-05  -0.00752521 -0.32259 9.44138e-05  -0.00792837 -0.329731 9.77516e-05  -0.00833154 -0.336862 9.77516e-05  -0.00873566 -0.343982 9.53674e-05  -0.00913644 -0.351084 0.000100136  -0.00953627 -0.358176 0.000102043  0 0 0  0.000137381 -0.000247478 0.000295639  0.0004576 -0.000959456 0.000534534  0.000903517 -0.00207025 0.00071764  0.00142872 -0.00353163 0.000845432  0.0019969 -0.00531155 0.0009408  0.00258005 -0.00738358 0.000995159  0.00315726 -0.00973266 0.00101614  0.00371629 -0.0123484 0.00102901  0.00425065 -0.0152142 0.00101757  0.00475484 -0.018328 0.00100327  0.0052256 -0.02168 0.000972271  0.00566429 -0.025258 0.000943661  0.00607038 -0.0290571 0.000904083  0.00644141 -0.0330706 0.000875473  0.00677806 -0.03729 0.000834465  0.00708032 -0.0417034 0.000807285  0.00735021 -0.0463064 0.000781059  0.00758839 -0.0510896 0.00074482  0.00779569 -0.0560445 0.000712395  0.00797284 -0.0611643 0.000684738  0.00812006 -0.0664392 0.000654221  0.00823867 -0.0718642 0.000626087  0.00832891 -0.0774275 0.000605583  0.00839019 -0.0831264 0.000583649  0.00842416 -0.0889514 0.000560284  0.00843179 -0.094895 0.000529766  0.00841367 -0.100951 0.000506401  0.00837135 -0.107116 0.000477314  0.00830543 -0.113374 0.000451088  0.00821579 -0.11973 0.0004282  0.00810504 -0.126171 0.000406265  0.00797367 -0.132696 0.000385284  0.00782251 -0.139296 0.000361919  0.00765395 -0.145965 0.000341892  0.00746679 -0.152695 0.000333786  0.00725961 -0.159486 0.000311375  0.00703621 -0.166334 0.000288486  0.00679755 -0.173231 0.000279903  0.00654459 -0.180171 0.000259876  0.00627661 -0.187154 0.000247002  0.00599575 -0.194174 0.000229836  0.00570321 -0.201225 0.000218391  0.00539994 -0.208306 0.000207424  0.00508451 -0.215412 0.000193119  0.00475812 -0.222538 0.000183105  0.00442386 -0.229685 0.000174046  0.00408173 -0.236845 0.000164509  0.00373173 -0.244018 0.000154495  0.00337458 -0.251199 0.000141621  0.00301027 -0.258385 0.000132561  0.00263834 -0.265577 0.000121593  0.00226378 -0.272767 0.000119686  0.00188494 -0.27996 0.000113487  0.00150013 -0.287149 0.000112534  0.00111222 -0.294332 0.000106812  0.0007236 -0.301511 0.000109196  0.00033164 -0.308682 0.000105858  -6.48499e-05 -0.315845 9.91821e-05  -0.000463009 -0.322997 9.77516e-05  -0.000862598 -0.330138 9.53674e-05  -0.00126195 -0.337268 9.58443e-05  -0.00166178 -0.344387 9.9659e-05  -0.00206232 -0.35149 9.72748e-05  -0.00246215 -0.358581 9.9659e-05  0 0 0  0.000206545 -0.000405192 0.000438213  0.000687733 -0.00123167 0.000797272  0.0013572 -0.00241905 0.00107479  0.00214344 -0.00392693 0.001266  0.0029898 -0.00573003 0.00140667  0.00385624 -0.00781035 0.00148582  0.00471696 -0.0101596 0.00153351  0.00555432 -0.0127711 0.00153828  0.0063588 -0.0156295 0.00153208  0.00712544 -0.0187381 0.00150061  0.00785071 -0.0220845 0.00146627  0.00853419 -0.0256585 0.00141716  0.00917429 -0.0294544 0.00137043  0.00977051 -0.0334657 0.00131607  0.0103234 -0.0376837 0.001266  0.0108348 -0.0420965 0.00121307  0.0113046 -0.0466998 0.00116444  0.0117339 -0.051483 0.00111628  0.0121242 -0.0564397 0.00107288  0.0124768 -0.06156 0.0010252  0.0127927 -0.0668365 0.000984192  0.0130707 -0.0722625 0.000942707  0.0133122 -0.0778296 0.000897884  0.0135182 -0.0835291 0.00085783  0.0136905 -0.0893559 0.000824451  0.0138301 -0.0953023 0.000785351  0.0139382 -0.101361 0.000749111  0.0140152 -0.107526 0.000708103  0.0140619 -0.113788 0.000662327  0.0140797 -0.120146 0.000629902  0.0140692 -0.12659 0.000597477  0.0140326 -0.133115 0.000558853  0.0139704 -0.139716 0.000530243  0.0138836 -0.146386 0.000499725  0.0137739 -0.153118 0.000477314  0.0136416 -0.159911 0.000448227  0.0134878 -0.166758 0.000417709  0.0133135 -0.173655 0.000392437  0.0131192 -0.180596 0.000369072  0.0129063 -0.18758 0.000346184  0.0126772 -0.1946 0.000321388  0.0124307 -0.201651 0.000301361  0.012167 -0.208732 0.000285149  0.0118909 -0.215836 0.00026083  0.0116024 -0.222962 0.000246525  0.0112994 -0.230109 0.00022459  0.0109839 -0.237269 0.000209332  0.0106595 -0.244441 0.000198364  0.0103257 -0.251621 0.000183582  0.00998306 -0.258805 0.000166416  0.00963235 -0.265997 0.00014925  0.00927353 -0.273186 0.000144482  0.00890756 -0.280376 0.000135899  0.00853586 -0.287564 0.000128269  0.00815868 -0.294746 0.00012064  0.0077765 -0.301924 0.000114441  0.0073905 -0.309093 0.000114918  0.00700045 -0.316255 0.000113487  0.00660777 -0.323407 0.000104904  0.00621343 -0.330547 0.000103951  0.00581527 -0.337676 0.000100136  0.00541568 -0.344793 9.63211e-05  0.00501776 -0.3519 9.63211e-05  0.00462246 -0.358992 8.86917e-05  0 0 0  0.000284642 -0.000640869 0.000578403  0.00094682 -0.00162524 0.00105286  0.00185779 -0.00291282 0.00142097  0.00291589 -0.00447536 0.0016942  0.0040476 -0.00630176 0.00187302  0.00520289 -0.00838614 0.00198793  0.00634891 -0.0107291 0.0020442  0.007465 -0.013329 0.00206089  0.00853854 -0.0161764 0.00204277  0.00956398 -0.0192729 0.00200415  0.0105399 -0.0226076 0.00195837  0.0114644 -0.0261736 0.00189924  0.0123372 -0.0299623 0.00183105  0.0131572 -0.033967 0.0017643  0.013926 -0.0381789 0.00169563  0.0146434 -0.0425881 0.0016284  0.0153102 -0.0471879 0.00155449  0.0159298 -0.051967 0.0014925  0.0165024 -0.0569218 0.00143433  0.0170294 -0.0620394 0.00137138  0.0175108 -0.0673138 0.00131035  0.0179472 -0.0727391 0.00125074  0.0183406 -0.078306 0.00119495  0.0186921 -0.0840034 0.00114298  0.0190016 -0.0898286 0.00109434  0.0192716 -0.0957752 0.00104523  0.0195036 -0.101832 0.000991821  0.0196991 -0.107996 0.000937939  0.019858 -0.114258 0.000880241  0.019981 -0.120615 0.000832081  0.0200704 -0.127057 0.000789165  0.0201271 -0.133581 0.000743866  0.0201521 -0.14018 0.000701904  0.0201485 -0.146849 0.000660896  0.0201156 -0.153582 0.000624657  0.0200555 -0.160374 0.000579357  0.019969 -0.167218 0.00054884  0.0198565 -0.174113 0.00051403  0.0197215 -0.181052 0.000484943  0.0195627 -0.188033 0.000444889  0.0193808 -0.195052 0.000415802  0.0191798 -0.202102 0.000388622  0.0189605 -0.209179 0.000358582  0.0187225 -0.216283 0.000331879  0.0184672 -0.223407 0.00030756  0.0181959 -0.23055 0.000279427  0.01791 -0.237709 0.000253677  0.0176098 -0.244877 0.000240326  0.0172975 -0.252056 0.00022459  0.0169742 -0.259237 0.000203133  0.0166395 -0.266426 0.000184059  0.0162957 -0.273614 0.000166893  0.0159419 -0.280801 0.00015831  0.0155804 -0.287986 0.000147343  0.0152125 -0.295166 0.000132084  0.0148392 -0.302341 0.000123024  0.0144603 -0.309507 0.000119209  0.0140753 -0.316668 0.000121117  0.0136852 -0.323819 0.000111103  0.0132928 -0.330957 0.000107288  0.0128992 -0.338086 0.000106812  0.0125012 -0.345204 0.00010252  0.0121007 -0.352312 9.05991e-05  0.0117035 -0.359407 8.53539e-05  0 0 0  0.000374846 -0.000976741 0.000713825  0.00124639 -0.00216609 0.00130653  0.00242583 -0.0035699 0.0017767  0.00377735 -0.00518769 0.0021143  0.0052048 -0.00703031 0.0023489  0.0066506 -0.00910974 0.00248909  0.00807971 -0.0114386 0.00255775  0.00946999 -0.0140188 0.00258017  0.0108095 -0.0168498 0.00255442  0.0120925 -0.0199282 0.00251293  0.0133151 -0.0232468 0.00245285  0.014477 -0.0267985 0.00238085  0.0155785 -0.0305768 0.00230503  0.0166206 -0.0345706 0.00221109  0.0176029 -0.0387729 0.00212574  0.0185258 -0.0431756 0.00204277  0.0193913 -0.0477674 0.00195742  0.0201993 -0.0525406 0.0018754  0.0209512 -0.0574893 0.00179386  0.0216496 -0.0626011 0.00172329  0.0222958 -0.0678708 0.00164413  0.0228903 -0.0732928 0.00157166  0.0234345 -0.0788547 0.00150061  0.0239291 -0.0845479 0.0014267  0.024375 -0.0903701 0.00136614  0.0247742 -0.0963112 0.00130367  0.0251287 -0.102365 0.00123405  0.0254391 -0.108523 0.0011673  0.025708 -0.114782 0.00110149  0.0259358 -0.121136 0.00103855  0.026122 -0.127574 0.000983715  0.0262706 -0.134093 0.000923634  0.0263839 -0.140689 0.000872135  0.0264621 -0.147353 0.000823498  0.0265055 -0.154085 0.000770092  0.026515 -0.160872 0.000724316  0.0264943 -0.167712 0.000676155  0.026444 -0.174603 0.000630379  0.0263648 -0.181539 0.000595093  0.0262582 -0.188515 0.000549316  0.0261254 -0.195531 0.000511646  0.0259695 -0.202577 0.00047493  0.0257881 -0.209649 0.000444412  0.0255837 -0.216749 0.000405788  0.0253606 -0.223871 0.000369072  0.0251207 -0.231009 0.00033474  0.0248613 -0.238163 0.00030756  0.0245857 -0.245327 0.00027895  0.0242944 -0.252503 0.000257492  0.0239885 -0.259681 0.000234127  0.0236695 -0.266865 0.000208855  0.0233376 -0.27405 0.000193119  0.0229945 -0.281233 0.000179768  0.0226424 -0.288415 0.000160217  0.0222824 -0.295591 0.000152588  0.0219152 -0.302763 0.000131607  0.0215416 -0.309926 0.0001297  0.0211611 -0.317084 0.000125885  0.0207753 -0.324232 0.000117779  0.0203857 -0.331368 0.000115871  0.0199909 -0.338497 0.000111103  0.019594 -0.345616 9.87053e-05  0.0191967 -0.352725 9.01222e-05  0.0187998 -0.359824 9.05991e-05  0 0 0  0.000491872 -0.00144804 0.000844955  0.00161183 -0.00289023 0.00156593  0.00309756 -0.00441349 0.00213623  0.0047611 -0.00607049 0.00255013  0.00649217 -0.00791311 0.0028286  0.00822887 -0.00997591 0.00299644  0.00993621 -0.0122814 0.00308037  0.0115953 -0.0148341 0.00309944  0.0131955 -0.0176416 0.00308323  0.0147307 -0.0206972 0.00302935  0.0161979 -0.0239967 0.00295258  0.0175957 -0.0275303 0.00286627  0.0189244 -0.0312932 0.00276947  0.0201847 -0.035273 0.00266981  0.0213771 -0.0394632 0.00256443  0.0225023 -0.0438543 0.00246239  0.0235621 -0.048436 0.00235415  0.0245572 -0.0532011 0.00225735  0.025489 -0.0581405 0.00216007  0.0263587 -0.0632436 0.00207329  0.027167 -0.0685056 0.00198793  0.0279151 -0.0739198 0.00189686  0.028607 -0.0794722 0.00180387  0.0292432 -0.0851607 0.00171423  0.0298227 -0.0909764 0.0016346  0.0303497 -0.0969083 0.00156069  0.0308254 -0.102956 0.0014801  0.0312511 -0.109108 0.00140381  0.0316267 -0.11536 0.00132513  0.0319554 -0.121706 0.00125599  0.0322393 -0.128139 0.00117874  0.0324793 -0.134651 0.00111103  0.0326762 -0.14124 0.00105286  0.0328319 -0.147899 0.000984669  0.0329485 -0.154624 0.00092268  0.0330279 -0.161406 0.000860691  0.033072 -0.16824 0.000813961  0.0330803 -0.175125 0.000757217  0.0330558 -0.182054 0.00070858  0.0330005 -0.189025 0.000657558  0.0329149 -0.196033 0.000613689  0.0327995 -0.203073 0.000566959  0.0326574 -0.210142 0.000517368  0.0324905 -0.217235 0.000483513  0.0322995 -0.224351 0.000437737  0.0320852 -0.231485 0.000389099  0.0318499 -0.238632 0.000360012  0.031594 -0.245791 0.000327587  0.0313194 -0.252959 0.000297546  0.0310292 -0.260134 0.00026989  0.0307248 -0.267311 0.000243664  0.030407 -0.274493 0.00021553  0.0300748 -0.281672 0.000197411  0.0297303 -0.288848 0.000186443  0.029376 -0.29602 0.000162601  0.0290129 -0.303188 0.00014925  0.0286405 -0.310348 0.000143528  0.0282621 -0.317501 0.000132561  0.0278769 -0.324646 0.000122547  0.0274856 -0.331782 0.00012064  0.0270903 -0.33891 0.000106812  0.0266929 -0.346028 0.000100136  0.0262926 -0.353137 0.000100136  0.0258932 -0.36024 9.10759e-05  0 0 0  0.00062722 -0.00211519 0.000988483  0.00210643 -0.00385404 0.0018611  0.00394428 -0.00545835 0.00252485  0.00592345 -0.00712031 0.00300026  0.00794655 -0.0089395 0.00331879  0.00996166 -0.0109712 0.00351095  0.0119386 -0.0132446 0.00361109  0.0138599 -0.0157627 0.00363302  0.0157145 -0.0185428 0.0036068  0.0174973 -0.0215706 0.00354767  0.0192051 -0.0248489 0.00345802  0.0208355 -0.0283619 0.00336123  0.0223886 -0.0321056 0.00324821  0.0238659 -0.0360681 0.00313282  0.0252671 -0.040244 0.00301552  0.0265925 -0.0446212 0.00288677  0.027844 -0.0491906 0.00276518  0.0290228 -0.0539429 0.00265217  0.0301301 -0.0588709 0.0025363  0.0311676 -0.063962 0.00242996  0.0321362 -0.0692137 0.00232983  0.0330387 -0.0746158 0.00222063  0.0338769 -0.0801573 0.00211382  0.0346503 -0.0858375 0.00201225  0.0353615 -0.0916434 0.00191545  0.0360136 -0.0975648 0.00182724  0.0366075 -0.103602 0.00173426  0.0371453 -0.109745 0.00163984  0.037629 -0.115988 0.00155544  0.0380597 -0.122324 0.00146389  0.0384364 -0.12875 0.00138235  0.038763 -0.135252 0.00130224  0.0390413 -0.141833 0.00122595  0.0392735 -0.148483 0.00114346  0.0394616 -0.155199 0.00107145  0.0396068 -0.161973 0.00100565  0.039712 -0.168801 0.0009408  0.0397782 -0.175676 0.000878334  0.0398064 -0.182598 0.000818729  0.0397985 -0.18956 0.000761032  0.039758 -0.196558 0.000711918  0.0396845 -0.20359 0.000654697  0.0395787 -0.210653 0.000606537  0.0394433 -0.217738 0.00054884  0.039279 -0.224845 0.000496387  0.0390904 -0.231972 0.000453472  0.0388772 -0.239113 0.000409603  0.0386419 -0.246265 0.000373363  0.0383856 -0.253425 0.000335693  0.0381093 -0.260595 0.000305176  0.0378151 -0.267765 0.000276089  0.0375032 -0.27494 0.000241756  0.0371778 -0.282115 0.000216961  0.0368397 -0.289285 0.000192642  0.0364883 -0.296452 0.000179768  0.0361254 -0.303612 0.000160694  0.035754 -0.31077 0.000156879  0.0353742 -0.317919 0.000143528  0.0349886 -0.32506 0.000133038  0.0345972 -0.332196 0.000123501  0.0342004 -0.339322 0.000116348  0.0338013 -0.346439 0.000107288  0.0334027 -0.353549 0.000100136  0.0330029 -0.360656 8.86917e-05  0 0 0  0.00106825 -0.0031451 0.00124693  0.00296044 -0.00506771 0.00220203  0.00509906 -0.00668007 0.00293303  0.00734207 -0.00830615 0.00345945  0.00961763 -0.0100806 0.00380898  0.0118824 -0.0120723 0.0040288  0.0141087 -0.0143063 0.00414085  0.0162791 -0.0167903 0.00416708  0.0183814 -0.0195386 0.00414371  0.0204063 -0.0225405 0.00406837  0.0223496 -0.0257928 0.00397396  0.024211 -0.0292838 0.00386095  0.0259879 -0.0330069 0.00373745  0.0276796 -0.0369497 0.00360298  0.0292863 -0.0411085 0.00346518  0.0308087 -0.0454698 0.00332212  0.0322491 -0.0500232 0.0031786  0.0336093 -0.0547605 0.00304747  0.0348912 -0.0596741 0.00292492  0.0360959 -0.0647516 0.00279951  0.0372231 -0.0699897 0.00266838  0.0382749 -0.0753762 0.00254536  0.0392544 -0.0809062 0.00242805  0.0401651 -0.0865728 0.00231504  0.0410075 -0.0923663 0.00219917  0.0417827 -0.0982773 0.00209522  0.0424925 -0.1043 0.00199175  0.0431404 -0.110431 0.0018878  0.043727 -0.116664 0.00177908  0.0442523 -0.122988 0.00168085  0.0447189 -0.129403 0.00159121  0.0451307 -0.135894 0.00149202  0.0454907 -0.142464 0.00140238  0.045799 -0.149104 0.00131083  0.0460556 -0.155808 0.00122786  0.0462639 -0.162571 0.0011487  0.0464268 -0.16939 0.00107527  0.0465465 -0.176253 0.00100803  0.0466247 -0.183166 0.000936508  0.0466635 -0.190118 0.000870705  0.0466633 -0.197106 0.000806332  0.046628 -0.204127 0.000749111  0.0465565 -0.21118 0.000688553  0.0464511 -0.218257 0.000622272  0.0463145 -0.225354 0.000563145  0.0461476 -0.232471 0.0005126  0.0459523 -0.239604 0.000461578  0.0457327 -0.246747 0.000417233  0.0454903 -0.2539 0.000376225  0.0452251 -0.26106 0.000338554  0.044939 -0.268223 0.000299454  0.0446336 -0.275391 0.000264645  0.0443096 -0.282558 0.000234127  0.0439703 -0.289723 0.0002141  0.0436199 -0.296883 0.000193596  0.0432577 -0.304036 0.000173092  0.0428834 -0.311191 0.00015831  0.0425034 -0.318335 0.000145435  0.0421162 -0.325473 0.000135899  0.0417206 -0.332607 0.000133991  0.0413218 -0.339732 0.000123501  0.04092 -0.34685 0.000114918  0.0405166 -0.35396 0.000102997  0.0401149 -0.36107 9.67979e-05  0 0 0  -0.00111323 -0.00313531 -0.000932693  -0.00299942 -0.00502325 -0.00165892  -0.00510673 -0.00658828 -0.00222254  -0.00731364 -0.0081568 -0.00263453  -0.00956485 -0.0098592 -0.00291586  -0.0118252 -0.0117514 -0.00309563  -0.0140702 -0.0138771 -0.00319672  -0.016283 -0.0162382 -0.00322866  -0.0184516 -0.0188404 -0.00321531  -0.0205686 -0.0216925 -0.00316668  -0.0226287 -0.0247771 -0.00308895  -0.0246295 -0.0280928 -0.00299406  -0.0265698 -0.0316307 -0.00288677  -0.0284503 -0.0353863 -0.00278091  -0.0302725 -0.0393486 -0.00267076  -0.0320365 -0.0435096 -0.00255299  -0.0337437 -0.0478652 -0.00244236  -0.0353973 -0.0523987 -0.00233173  -0.0369985 -0.0571083 -0.00223112  -0.0385492 -0.0619909 -0.00212812  -0.04005 -0.0670267 -0.00202084  -0.0415038 -0.0722185 -0.00191641  -0.0429119 -0.0775563 -0.00181007  -0.0442731 -0.0830327 -0.00171566  -0.0455896 -0.0886384 -0.00162697  -0.0468649 -0.0943727 -0.00153112  -0.0480981 -0.100218 -0.00145006  -0.0492907 -0.106181 -0.00136566  -0.0504422 -0.112248 -0.00128412  -0.0515547 -0.118414 -0.00120401  -0.0526296 -0.124673 -0.00113297  -0.0536674 -0.131019 -0.00106812  -0.0546699 -0.13745 -0.00100136  -0.0556378 -0.143955 -0.000929832  -0.0565715 -0.150535 -0.000864506  -0.0574713 -0.157179 -0.000798702  -0.0583384 -0.163885 -0.000743389  -0.0591755 -0.170647 -0.000677586  -0.0599828 -0.177461 -0.000621319  -0.0607619 -0.184325 -0.000564098  -0.061511 -0.191231 -0.000515938  -0.062232 -0.198177 -0.000464916  -0.0629272 -0.205154 -0.000415325  -0.0635967 -0.212165 -0.000378609  -0.0642431 -0.219205 -0.000329494  -0.0648682 -0.226268 -0.000280857  -0.0654714 -0.233352 -0.000246525  -0.0660508 -0.240454 -0.000207424  -0.0666094 -0.24757 -0.000170708  -0.0671496 -0.254701 -0.000141144  -0.0676696 -0.261837 -0.000104904  -0.0681708 -0.268982 -7.96318e-05  -0.0686569 -0.276132 -5.10216e-05  -0.0691288 -0.283285 -2.86102e-05  -0.0695884 -0.290434 -9.53674e-06  -0.0700378 -0.297582 1.09673e-05  -0.0704765 -0.304729 3.29018e-05  -0.0709062 -0.311869 4.673e-05  -0.0713282 -0.319005 5.57899e-05  -0.0717456 -0.32614 7.10487e-05  -0.0721595 -0.333264 8.29697e-05  -0.072571 -0.340381 8.96454e-05  -0.0729809 -0.347495 0.00010252  -0.07339 -0.354607 0.000113487  0 0 0  -0.000633169 -0.00205802 -0.000733852  -0.00208567 -0.0037638 -0.00139046  -0.00387682 -0.00533469 -0.00190306  -0.00581285 -0.00695675 -0.00228262  -0.00780544 -0.00872152 -0.00253391  -0.00981054 -0.010682 -0.0026989  -0.0118022 -0.0128669 -0.00278807  -0.0137627 -0.015289 -0.00281239  -0.0156822 -0.0179503 -0.00279713  -0.017554 -0.020854 -0.00275087  -0.019374 -0.0239923 -0.00268173  -0.0211421 -0.0273584 -0.00260496  -0.0228587 -0.0309458 -0.00251198  -0.0245244 -0.0347489 -0.00241518  -0.0261392 -0.0387573 -0.00231981  -0.0277058 -0.0429633 -0.00221491  -0.0292261 -0.0473604 -0.00211906  -0.0306995 -0.0519388 -0.00202799  -0.0321288 -0.0566921 -0.00193501  -0.0335159 -0.0616125 -0.00185251  -0.034862 -0.0666896 -0.00175667  -0.0361679 -0.0719191 -0.00165939  -0.0374336 -0.077295 -0.00157213  -0.0386627 -0.0828076 -0.00148726  -0.0398551 -0.0884499 -0.00141287  -0.04101 -0.094216 -0.00132656  -0.0421298 -0.100098 -0.00125408  -0.0432162 -0.106092 -0.0011797  -0.0442694 -0.11219 -0.00110865  -0.0452888 -0.118387 -0.00104856  -0.0462754 -0.124674 -0.000987053  -0.047232 -0.131048 -0.000928402  -0.0481591 -0.137506 -0.000864983  -0.0490558 -0.144039 -0.000806332  -0.0499229 -0.150644 -0.000746727  -0.0507622 -0.15731 -0.000690937  -0.0515738 -0.164038 -0.000634193  -0.0523591 -0.170823 -0.000586033  -0.0531201 -0.177658 -0.000536442  -0.0538573 -0.18454 -0.000488758  -0.05457 -0.191465 -0.000438213  -0.0552578 -0.198429 -0.000394821  -0.0559213 -0.205423 -0.000357628  -0.0565646 -0.212449 -0.000323772  -0.0571887 -0.219504 -0.000282764  -0.0577912 -0.226579 -0.000245571  -0.0583742 -0.233676 -0.000203609  -0.0589409 -0.24079 -0.000172615  -0.0594895 -0.247917 -0.00013876  -0.0600181 -0.255056 -0.000113964  -0.0605299 -0.262204 -8.39233e-05  -0.0610275 -0.269357 -5.57899e-05  -0.0615113 -0.276513 -3.24249e-05  -0.0619841 -0.28367 -1.52588e-05  -0.0624456 -0.290825 2.86102e-06  -0.0628974 -0.297979 2.38419e-05  -0.0633402 -0.305129 3.43323e-05  -0.0637734 -0.312271 4.81606e-05  -0.0641999 -0.31941 6.38962e-05  -0.0646214 -0.326544 7.53403e-05  -0.0650382 -0.33367 8.34465e-05  -0.0654514 -0.340786 9.63211e-05  -0.0658619 -0.347899 0.000102997  -0.0662704 -0.355007 0.000107765  0 0 0  -0.000480812 -0.00137699 -0.000619411  -0.0015597 -0.00278223 -0.00115919  -0.00299133 -0.0042849 -0.00159597  -0.00460175 -0.00591639 -0.0019269  -0.00629494 -0.00772179 -0.00215578  -0.0080156 -0.00973639 -0.0022974  -0.00973135 -0.0119749 -0.00237226  -0.0114233 -0.0144509 -0.00239754  -0.0130817 -0.0171674 -0.0023818  -0.014701 -0.0201189 -0.00234461  -0.0162777 -0.0233052 -0.00229216  -0.0178111 -0.026718 -0.00221682  -0.0193018 -0.0303511 -0.00213861  -0.0207481 -0.0341957 -0.00205421  -0.0221528 -0.0382475 -0.00196981  -0.0235181 -0.0424939 -0.00188684  -0.0248446 -0.0469288 -0.00180864  -0.0261354 -0.0515475 -0.0017252  -0.0273904 -0.0563398 -0.00165224  -0.0286094 -0.0612946 -0.0015707  -0.0297961 -0.0664105 -0.00149155  -0.0309511 -0.0716736 -0.0014081  -0.0320747 -0.0770838 -0.00133657  -0.0331672 -0.0826289 -0.00126839  -0.0342304 -0.0883044 -0.00119352  -0.0352638 -0.0941005 -0.00113201  -0.0362688 -0.100014 -0.00106096  -0.0372463 -0.106038 -0.000999451  -0.038196 -0.112165 -0.000939369  -0.0391184 -0.118388 -0.000890255  -0.0400159 -0.124703 -0.000839233  -0.0408876 -0.131104 -0.000785351  -0.0417342 -0.137585 -0.000733852  -0.0425582 -0.144142 -0.000685215  -0.0433581 -0.150768 -0.000628471  -0.0441341 -0.157459 -0.000579834  -0.0448875 -0.164207 -0.000533581  -0.0456204 -0.171012 -0.000492573  -0.0463316 -0.177865 -0.000452518  -0.0470216 -0.184765 -0.000406742  -0.0476923 -0.191707 -0.000365734  -0.0483429 -0.198685 -0.000329494  -0.0489748 -0.205696 -0.000300884  -0.0495884 -0.212736 -0.000267982  -0.050185 -0.219804 -0.00023365  -0.050765 -0.226891 -0.000199318  -0.0513287 -0.234 -0.000173092  -0.0518754 -0.241125 -0.00014019  -0.0524075 -0.248263 -0.00011301  -0.0529265 -0.255409 -8.86917e-05  -0.053432 -0.262566 -6.62804e-05  -0.0539241 -0.269726 -4.05312e-05  -0.0544038 -0.276887 -1.62125e-05  -0.0548711 -0.284049 0  -0.0553298 -0.29121 1.52588e-05  -0.0557799 -0.298369 3.38554e-05  -0.0562205 -0.305523 4.19617e-05  -0.0566549 -0.31267 5.62668e-05  -0.0570827 -0.319811 6.77109e-05  -0.0575044 -0.326944 7.96318e-05  -0.0579221 -0.334071 8.29697e-05  -0.0583365 -0.341187 9.58443e-05  -0.0587482 -0.3483 0.000105381  -0.0591598 -0.355404 0.000113964  0 0 0  -0.000355758 -0.000911132 -0.000516891  -0.00117595 -0.00206962 -0.000956535  -0.00229298 -0.00346112 -0.00131702  -0.00358737 -0.00506571 -0.0015974  -0.00497273 -0.00688756 -0.00178194  -0.00639683 -0.00893563 -0.0018959  -0.00782749 -0.0112178 -0.00196981  -0.0092448 -0.0137388 -0.00198984  -0.0106372 -0.0165016 -0.00197506  -0.0119978 -0.0194973 -0.00194311  -0.0133242 -0.0227261 -0.00189543  -0.014616 -0.0261805 -0.0018425  -0.0158743 -0.0298541 -0.00177336  -0.0171006 -0.033736 -0.00170135  -0.0182938 -0.0378244 -0.00163269  -0.0194561 -0.0421071 -0.00155926  -0.0205897 -0.0465766 -0.00149584  -0.0216933 -0.0512299 -0.00142431  -0.0227686 -0.0560558 -0.00135803  -0.0238181 -0.0610442 -0.00130033  -0.0248436 -0.0661926 -0.00123405  -0.0258439 -0.0714871 -0.00116634  -0.0268209 -0.0769277 -0.00110483  -0.0277746 -0.0825018 -0.00104666  -0.0287057 -0.0882068 -0.000992775  -0.0296141 -0.094031 -0.00093317  -0.0305016 -0.0999742 -0.000876904  -0.0313668 -0.106023 -0.000825882  -0.0322108 -0.112176 -0.000776291  -0.0330344 -0.118425 -0.000731468  -0.0338393 -0.124765 -0.000688076  -0.0346252 -0.131188 -0.000650883  -0.0353909 -0.13769 -0.000601768  -0.0361371 -0.144269 -0.000553131  -0.036865 -0.150915 -0.000516891  -0.0375762 -0.157627 -0.000477791  -0.03827 -0.164394 -0.000436306  -0.0389459 -0.171216 -0.00040102  -0.0396039 -0.178087 -0.000362396  -0.0402465 -0.185002 -0.000333786  -0.0408721 -0.191959 -0.000297546  -0.0414822 -0.198951 -0.00026226  -0.0420775 -0.205977 -0.000239372  -0.0426583 -0.213029 -0.000212193  -0.0432265 -0.22011 -0.000183105  -0.0437794 -0.227209 -0.000159264  -0.0443192 -0.234327 -0.000131607  -0.044847 -0.241463 -0.000105858  -0.045362 -0.24861 -8.53539e-05  -0.0458658 -0.255764 -6.05583e-05  -0.0463588 -0.262927 -4.43459e-05  -0.04684 -0.270093 -1.7643e-05  -0.0473115 -0.27726 -2.86102e-06  -0.0477753 -0.284428 1.62125e-05  -0.0482299 -0.291594 3.19481e-05  -0.048676 -0.298757 4.3869e-05  -0.0491159 -0.305913 4.86374e-05  -0.0495491 -0.313065 6.05583e-05  -0.049978 -0.320208 7.48634e-05  -0.0504019 -0.327341 7.72476e-05  -0.0508192 -0.334469 8.7738e-05  -0.0512321 -0.341587 9.15527e-05  -0.0516453 -0.348698 9.9659e-05  -0.0520575 -0.355799 0.000109196  0 0 0  -0.000262488 -0.000590265 -0.000414848  -0.000870652 -0.00155516 -0.000771523  -0.00171648 -0.00284189 -0.00105333  -0.0027142 -0.00440408 -0.00127125  -0.00380021 -0.00622439 -0.00141907  -0.00492877 -0.00829092 -0.001513  -0.00606948 -0.0106048 -0.00156498  -0.0072045 -0.0131628 -0.00158882  -0.00832278 -0.0159624 -0.00157881  -0.00941879 -0.0189965 -0.0015521  -0.0104926 -0.0222626 -0.00150967  -0.0115427 -0.0257502 -0.00146532  -0.0125673 -0.0294588 -0.00141668  -0.013567 -0.0333752 -0.00135756  -0.014545 -0.0374939 -0.00129843  -0.0155008 -0.0418076 -0.00124121  -0.0164356 -0.0463099 -0.00118303  -0.0173512 -0.0509915 -0.00113297  -0.0182477 -0.0558469 -0.00107574  -0.0191253 -0.0608652 -0.00102949  -0.0199848 -0.0660412 -0.000976562  -0.0208286 -0.0713643 -0.000934601  -0.0216571 -0.0768317 -0.000884533  -0.0224701 -0.0824318 -0.000832558  -0.023268 -0.0881627 -0.000785828  -0.02405 -0.0940122 -0.000741959  -0.0248168 -0.0999806 -0.000693321  -0.0255673 -0.106051 -0.000651836  -0.0263039 -0.112228 -0.00061512  -0.0270268 -0.118499 -0.000573158  -0.0277357 -0.12486 -0.000540257  -0.0284307 -0.131305 -0.000508785  -0.0291131 -0.137827 -0.000471592  -0.0297811 -0.144424 -0.00043869  -0.0304351 -0.151088 -0.000409126  -0.0310769 -0.157817 -0.000370979  -0.0317059 -0.164603 -0.000342369  -0.0323231 -0.17144 -0.00031662  -0.0329289 -0.178326 -0.000281334  -0.0335224 -0.185255 -0.000254631  -0.0341022 -0.192226 -0.000231266  -0.0346692 -0.199231 -0.000206947  -0.0352266 -0.206269 -0.000175953  -0.035774 -0.213332 -0.00015974  -0.0363116 -0.220424 -0.000139236  -0.0368376 -0.227533 -0.000114918  -0.0373535 -0.23466 -9.29832e-05  -0.0378587 -0.241804 -7.43866e-05  -0.0383537 -0.248959 -5.76973e-05  -0.0388398 -0.256122 -4.1008e-05  -0.0393171 -0.263289 -1.85966e-05  -0.0397866 -0.27046 -4.76837e-07  -0.0402486 -0.277633 1.81198e-05  -0.0407033 -0.284806 3.00407e-05  -0.0411508 -0.291978 4.14848e-05  -0.0415924 -0.299143 5.05447e-05  -0.0420291 -0.306304 5.57899e-05  -0.0424592 -0.313457 6.38962e-05  -0.0428839 -0.320603 7.39098e-05  -0.0433037 -0.327739 8.05855e-05  -0.043721 -0.334866 7.82013e-05  -0.0441356 -0.341986 9.05991e-05  -0.0445478 -0.349096 9.87053e-05  -0.0449586 -0.356193 0.000106812  0 0 0  -0.000184458 -0.000373989 -0.000312805  -0.000611961 -0.00119695 -0.000576019  -0.00121522 -0.00239804 -0.000787735  -0.00193898 -0.00391969 -0.000946999  -0.00273532 -0.00572911 -0.00106096  -0.00356957 -0.00780666 -0.0011363  -0.00441962 -0.0101418 -0.0011735  -0.00527024 -0.0127274 -0.00119114  -0.00611418 -0.0155565 -0.00118351  -0.00694704 -0.0186217 -0.00116682  -0.0077644 -0.0219168 -0.00113249  -0.00856686 -0.0254343 -0.00109911  -0.00935519 -0.029171 -0.00106287  -0.0101281 -0.0331163 -0.00102043  -0.0108877 -0.0372618 -0.000971794  -0.0116351 -0.0416016 -0.000927448  -0.0123708 -0.046131 -0.000886917  -0.0130951 -0.0508378 -0.000846863  -0.0138083 -0.0557176 -0.000808239  -0.0145121 -0.0607613 -0.000768185  -0.0152076 -0.0659617 -0.000730038  -0.015895 -0.0713094 -0.000694752  -0.0165733 -0.0768004 -0.000658512  -0.017242 -0.0824232 -0.000622749  -0.0179027 -0.0881755 -0.000581741  -0.018554 -0.0940487 -0.000553608  -0.0191969 -0.100036 -0.000517368  -0.019833 -0.106128 -0.000483036  -0.0204618 -0.112325 -0.000452995  -0.0210804 -0.118615 -0.000422001  -0.0216904 -0.124995 -0.000396729  -0.022293 -0.131459 -0.000374317  -0.0228858 -0.137998 -0.000348568  -0.0234718 -0.144612 -0.000323296  -0.0240521 -0.151292 -0.000296593  -0.0246248 -0.158034 -0.000274658  -0.0251896 -0.164835 -0.000246048  -0.0257478 -0.171686 -0.000218391  -0.0262971 -0.178586 -0.00020504  -0.0268364 -0.185527 -0.000182629  -0.027369 -0.192509 -0.000163555  -0.027895 -0.199526 -0.000141144  -0.0284135 -0.206574 -0.000121593  -0.0289252 -0.213648 -0.000105858  -0.0294285 -0.220748 -9.05991e-05  -0.0299234 -0.227866 -6.81877e-05  -0.0304132 -0.235001 -5.29289e-05  -0.0308969 -0.242152 -4.00543e-05  -0.0313718 -0.249314 -2.95639e-05  -0.0318391 -0.256484 -9.05991e-06  -0.0322993 -0.263655 7.62939e-06  -0.0327537 -0.270832 1.52588e-05  -0.0332036 -0.278009 2.76566e-05  -0.0336494 -0.285186 4.24385e-05  -0.0340896 -0.292362 4.673e-05  -0.0345235 -0.299531 5.76973e-05  -0.0349524 -0.306695 6.7234e-05  -0.0353775 -0.313851 7.20024e-05  -0.0358007 -0.320998 8.01086e-05  -0.0362208 -0.328136 7.72476e-05  -0.0366364 -0.335264 8.39233e-05  -0.0370498 -0.342383 9.44138e-05  -0.0374599 -0.349492 0.000101566  -0.0378685 -0.356587 0.000109673  0 0 0  -0.000114996 -0.00023827 -0.000212669  -0.000384644 -0.000967503 -0.000387192  -0.000769138 -0.00210801 -0.00052166  -0.00123128 -0.00359681 -0.000631809  -0.00174433 -0.0053972 -0.000709057  -0.00228912 -0.0074802 -0.000760555  -0.00285092 -0.00983176 -0.000786304  -0.00342003 -0.0124354 -0.000794888  -0.00398946 -0.0152881 -0.00079298  -0.00455409 -0.0183757 -0.000779629  -0.00511372 -0.0216941 -0.000761986  -0.0056684 -0.025236 -0.00073719  -0.00621736 -0.0289955 -0.000711441  -0.00676125 -0.0329635 -0.000675678  -0.00730091 -0.0371308 -0.000648022  -0.00783801 -0.0414939 -0.000617504  -0.00837231 -0.0460436 -0.000592709  -0.00890446 -0.0507725 -0.000565052  -0.00943613 -0.0556723 -0.000535011  -0.00996554 -0.0607359 -0.000506401  -0.010493 -0.0659576 -0.000480175  -0.0110193 -0.071326 -0.000457764  -0.0115445 -0.0768369 -0.000433445  -0.0120686 -0.0824791 -0.000412941  -0.0125914 -0.0882495 -0.000387192  -0.0131131 -0.0941412 -0.000356674  -0.0136343 -0.100147 -0.000338078  -0.0141523 -0.106256 -0.000319004  -0.0146685 -0.112471 -0.000293255  -0.0151825 -0.118776 -0.000270367  -0.0156935 -0.125172 -0.000256538  -0.0162015 -0.131652 -0.000245571  -0.0167084 -0.138207 -0.000230312  -0.0172143 -0.144834 -0.000209332  -0.0177176 -0.151526 -0.000193596  -0.0182192 -0.15828 -0.000170231  -0.0187171 -0.165094 -0.000154018  -0.0192106 -0.171957 -0.000139236  -0.019702 -0.178868 -0.000115871  -0.0201905 -0.185821 -0.000100613  -0.020674 -0.192811 -9.34601e-05  -0.0211527 -0.199838 -8.15392e-05  -0.0216284 -0.206896 -6.86646e-05  -0.0221004 -0.213979 -5.10216e-05  -0.0225689 -0.221086 -4.1008e-05  -0.0230343 -0.228211 -2.43187e-05  -0.0234952 -0.235352 -1.38283e-05  -0.0239534 -0.242508 -6.19888e-06  -0.0244074 -0.249678 0  -0.0248554 -0.256851 1.14441e-05  -0.0252988 -0.264029 2.81334e-05  -0.0257375 -0.271208 3.14713e-05  -0.0261736 -0.278391 4.72069e-05  -0.0266075 -0.285571 5.43594e-05  -0.0270395 -0.292749 6.00815e-05  -0.0274677 -0.29992 6.38962e-05  -0.0278916 -0.307087 6.58035e-05  -0.028312 -0.314245 7.58171e-05  -0.0287294 -0.321395 7.9155e-05  -0.0291438 -0.328534 8.53539e-05  -0.0295563 -0.335664 8.82149e-05  -0.0299668 -0.342781 9.48906e-05  -0.0303762 -0.349889 0.000101566  -0.0307825 -0.356981 0.000105858  0 0 0  -5.20796e-05 -0.000169039 -0.000104904  -0.000172555 -0.000848562 -0.000194073  -0.000346318 -0.00195527 -0.000264168  -0.00056164 -0.0034261 -0.000319481  -0.000804961 -0.00522149 -0.000362396  -0.00106704 -0.00730965 -0.000387192  -0.00134221 -0.00967214 -0.000400543  -0.00162703 -0.01229 -0.000407219  -0.0019182 -0.0151578 -0.00039959  -0.0022133 -0.0182617 -0.000394344  -0.00251287 -0.0215974 -0.000383377  -0.00281745 -0.0251571 -0.000375271  -0.00312734 -0.028935 -0.000360012  -0.00344223 -0.0329191 -0.0003438  -0.0037629 -0.0371042 -0.00032711  -0.00408989 -0.0414845 -0.000312328  -0.0044235 -0.0460513 -0.000299931  -0.00476348 -0.050797 -0.000282288  -0.00510848 -0.0557133 -0.00026989  -0.00546086 -0.060793 -0.00025177  -0.00582004 -0.0660309 -0.000239372  -0.00618541 -0.0714159 -0.000221729  -0.00655758 -0.0769424 -0.000215054  -0.00693619 -0.0826013 -0.000203133  -0.00732124 -0.0883867 -0.000180721  -0.00771117 -0.0942929 -0.000174522  -0.00810575 -0.100313 -0.000158787  -0.00850499 -0.106438 -0.000147343  -0.00890946 -0.112667 -0.000137806  -0.00931692 -0.118985 -0.000126362  -0.00972855 -0.125394 -0.000115871  -0.0101444 -0.131887 -0.000114441  -0.0105636 -0.138454 -0.00010252  -0.0109863 -0.145092 -9.44138e-05  -0.0114114 -0.151796 -8.58307e-05  -0.0118389 -0.15856 -7.00951e-05  -0.0122683 -0.165383 -5.76973e-05  -0.0127001 -0.172257 -4.57764e-05  -0.0131323 -0.179177 -4.24385e-05  -0.0135643 -0.186138 -3.29018e-05  -0.013998 -0.193137 -2.09808e-05  -0.0144322 -0.200171 -1.7643e-05  -0.0148652 -0.207235 -1.00136e-05  -0.0152984 -0.214327 -4.29153e-06  -0.0157323 -0.221439 9.53674e-06  -0.0161645 -0.228569 1.28746e-05  -0.0165968 -0.235716 2.47955e-05  -0.0170274 -0.242877 2.47955e-05  -0.0174558 -0.25005 3.33786e-05  -0.0178823 -0.257228 3.67165e-05  -0.018307 -0.26441 4.3869e-05  -0.0187304 -0.271593 5.10216e-05  -0.0191538 -0.278779 5.48363e-05  -0.0195756 -0.285961 6.29425e-05  -0.0199955 -0.29314 6.58035e-05  -0.0204144 -0.300315 7.29561e-05  -0.0208316 -0.307483 7.48634e-05  -0.0212464 -0.314642 7.58171e-05  -0.0216587 -0.321794 8.2016e-05  -0.0220687 -0.328934 8.86917e-05  -0.0224774 -0.336063 9.29832e-05  -0.0228865 -0.343181 9.34601e-05  -0.0232942 -0.350287 0.00010252  -0.0236988 -0.357378 0.000106335  0 0 0  9.51439e-06 -0.000156999 -1.90735e-06  3.13371e-05 -0.000826746 9.53674e-07  5.83977e-05 -0.0019291 -4.76837e-06  8.62777e-05 -0.00339922 -5.72205e-06  0.000111192 -0.00519729 -7.15256e-06  0.000130266 -0.00729188 -1.09673e-05  0.000140816 -0.00966105 -1.14441e-05  0.000139773 -0.01229 -1.04904e-05  0.000126123 -0.0151659 -1.28746e-05  9.94802e-05 -0.0182816 -1.28746e-05  5.78165e-05 -0.0216278 -7.15256e-06  1.07288e-06 -0.0251997 -1.43051e-05  -7.01547e-05 -0.0289889 -1.85966e-05  -0.00015527 -0.0329856 -1.52588e-05  -0.000254512 -0.037183 -9.05991e-06  -0.000370264 -0.0415756 -1.23978e-05  -0.000501633 -0.0461556 -1.38283e-05  -0.000647306 -0.0509135 -8.10623e-06  -0.00080812 -0.0558418 -2.86102e-06  -0.000983834 -0.0609342 4.76837e-06  -0.00117505 -0.0661837 3.8147e-06  -0.00138068 -0.0715808 5.72205e-06  -0.00159848 -0.0771194 1.00136e-05  -0.0018295 -0.0827914 1.04904e-05  -0.002074 -0.088589 1.43051e-05  -0.00233161 -0.0945077 1.38283e-05  -0.00259984 -0.100538 1.81198e-05  -0.00287879 -0.106676 1.33514e-05  -0.00317085 -0.112915 1.85966e-05  -0.00347352 -0.119244 1.71661e-05  -0.00378561 -0.125663 2.57492e-05  -0.00410688 -0.132166 2.47955e-05  -0.00443721 -0.138744 2.28882e-05  -0.00477529 -0.145389 2.52724e-05  -0.00512123 -0.152103 2.67029e-05  -0.00547576 -0.158876 3.76701e-05  -0.00583649 -0.165705 3.57628e-05  -0.00620246 -0.172587 3.8147e-05  -0.0065732 -0.179513 3.76701e-05  -0.00695062 -0.186482 4.62532e-05  -0.00733376 -0.193487 3.95775e-05  -0.00772095 -0.200526 4.52995e-05  -0.00811219 -0.207595 4.52995e-05  -0.00850654 -0.214692 5.14984e-05  -0.00890303 -0.221808 5.57899e-05  -0.00930166 -0.228943 5.8651e-05  -0.00970316 -0.236094 5.57899e-05  -0.0101078 -0.243259 5.72205e-05  -0.0105135 -0.250434 5.8651e-05  -0.0109181 -0.257615 6.10352e-05  -0.0113237 -0.264799 6.24657e-05  -0.0117309 -0.271987 6.91414e-05  -0.0121396 -0.279173 6.62804e-05  -0.0125492 -0.286357 7.58171e-05  -0.012959 -0.293537 7.53403e-05  -0.0133679 -0.300715 8.10623e-05  -0.0137756 -0.307883 7.82013e-05  -0.0141842 -0.315043 8.24928e-05  -0.0145934 -0.322195 8.82149e-05  -0.0150008 -0.329334 9.44138e-05  -0.0154064 -0.336464 9.39369e-05  -0.0158117 -0.343583 0.000101089  -0.0162141 -0.350687 0.000100613  -0.0166159 -0.357779 0.000108242  0 0 0  7.09072e-05 -0.000198185 0.000103951  0.000234142 -0.000899971 0.000192165  0.000463009 -0.00202513 0.000257492  0.000733912 -0.00351185 0.000309467  0.00102553 -0.00532186 0.000344753  0.00132382 -0.0074237 0.000362873  0.00161767 -0.00979829 0.000379562  0.0018993 -0.0124324 0.000380039  0.00216293 -0.0153131 0.000376225  0.00240409 -0.0184336 0.000374317  0.00262117 -0.0217859 0.000361443  0.00281405 -0.025364 0.000347137  0.00298423 -0.0291578 0.000330925  0.00312978 -0.0331631 0.000314713  0.00324863 -0.0373673 0.000305176  0.00334203 -0.0417677 0.000295639  0.00341213 -0.0463555 0.000288486  0.00345886 -0.0511221 0.000277519  0.00348294 -0.0560591 0.000260353  0.00348413 -0.0611603 0.000254631  0.00346315 -0.0664182 0.000241756  0.00341988 -0.0718243 0.000235081  0.00335538 -0.0773702 0.000226498  0.00327063 -0.083052 0.000222683  0.00316644 -0.0888579 0.000216007  0.00304222 -0.094786 0.000208378  0.00289881 -0.100823 0.000194073  0.00273728 -0.106971 0.000185966  0.00255942 -0.113216 0.00017643  0.00236475 -0.119554 0.000174999  0.00215352 -0.125982 0.000160217  0.00192738 -0.13249 0.000157356  0.00168633 -0.139076 0.000147343  0.00143242 -0.145728 0.000143528  0.00116539 -0.152448 0.000137806  0.000887632 -0.159227 0.000131607  0.000597477 -0.166063 0.000133991  0.000294447 -0.172948 0.000123024  -1.7643e-05 -0.179878 0.000121117  -0.000338316 -0.186851 0.00011158  -0.000669003 -0.193861 0.000108719  -0.00100994 -0.200904 0.000104427  -0.00135875 -0.207977 0.000102043  -0.00171328 -0.215075 0.000104904  -0.00207305 -0.222195 0.000101566  -0.00243998 -0.229333 0.00010252  -0.00281405 -0.236486 9.53674e-05  -0.00319171 -0.243654 9.39369e-05  -0.00357437 -0.250831 8.86917e-05  -0.00395942 -0.258012 8.39233e-05  -0.00434685 -0.265197 8.72612e-05  -0.00473809 -0.272387 8.05855e-05  -0.00513172 -0.279573 8.39233e-05  -0.0055275 -0.286759 8.29697e-05  -0.00592351 -0.293939 8.10623e-05  -0.00632191 -0.301118 8.86917e-05  -0.00672245 -0.308286 9.10759e-05  -0.00712585 -0.315447 9.20296e-05  -0.00752854 -0.322597 9.25064e-05  -0.00793147 -0.329738 9.67979e-05  -0.00833464 -0.336867 9.77516e-05  -0.00873923 -0.343986 9.67979e-05  -0.00914192 -0.351089 9.77516e-05  -0.00954127 -0.358183 0.000100613  0 0 0  0.000133172 -0.000296056 0.000209808  0.000443414 -0.00107121 0.000384808  0.000879318 -0.0022465 0.000524044  0.00139681 -0.00376624 0.000620842  0.00196028 -0.00559485 0.000695229  0.0025422 -0.00770557 0.000737667  0.00312084 -0.0100837 0.000755787  0.00368226 -0.0127174 0.000769615  0.00421965 -0.0155981 0.000759125  0.00472927 -0.0187161 0.000750065  0.00520527 -0.0220704 0.000729084  0.00564665 -0.0256477 0.000704288  0.00605321 -0.0294424 0.000674248  0.00642568 -0.0334493 0.00065279  0.00676411 -0.0376572 0.000621796  0.00706851 -0.0420598 0.000603199  0.00734067 -0.0466519 0.000583172  0.0075804 -0.0514233 0.000555515  0.0077883 -0.0563654 0.000530243  0.00796592 -0.061471 0.000508785  0.00811374 -0.0667345 0.000486374  0.00823128 -0.0721454 0.000464439  0.00832105 -0.0776961 0.000452042  0.00838327 -0.0833831 0.000436306  0.00841784 -0.0891954 0.000422001  0.00842559 -0.0951281 0.000397682  0.00840819 -0.101171 0.000381947  0.00836682 -0.107324 0.000356197  0.00830173 -0.113572 0.000338078  0.00821292 -0.119916 0.000322819  0.00810134 -0.126349 0.000306606  0.00796986 -0.13286 0.000289917  0.00781894 -0.139452 0.000270844  0.00764894 -0.146109 0.000257015  0.00746107 -0.152833 0.000254631  0.00725675 -0.159614 0.000237942  0.00703478 -0.166454 0.000219822  0.0067966 -0.17334 0.000214577  0.00654316 -0.180273 0.000199795  0.00627518 -0.187247 0.000192642  0.00599408 -0.19426 0.000178337  0.00570202 -0.201305 0.000170231  0.00539804 -0.208381 0.000164032  0.0050838 -0.215478 0.000153065  0.0047586 -0.222601 0.000145912  0.00442553 -0.229739 0.000139713  0.00408316 -0.236896 0.000135899  0.00373173 -0.244062 0.000129223  0.00337362 -0.251239 0.000117302  0.00300908 -0.25842 0.00011301  0.00263786 -0.265606 0.000105381  0.00226283 -0.272795 0.000101566  0.0018847 -0.279983 9.77516e-05  0.00150204 -0.287167 0.000101089  0.00111437 -0.294348 9.58443e-05  0.000724316 -0.301524 9.77516e-05  0.000331879 -0.308693 9.72748e-05  -6.38962e-05 -0.315854 9.44138e-05  -0.000463247 -0.323003 9.53674e-05  -0.000864506 -0.330144 9.39369e-05  -0.00126553 -0.337273 9.48906e-05  -0.00166559 -0.34439 9.63211e-05  -0.00206518 -0.351495 0.000100136  -0.00246239 -0.35859 9.87053e-05  0 0 0  0.000200436 -0.000459671 0.000313282  0.000669211 -0.00134909 0.000576973  0.00132561 -0.00260288 0.000785351  0.00210088 -0.00416857 0.000930786  0.00294125 -0.00601995 0.00104094  0.00380659 -0.00813919 0.00110435  0.00466928 -0.0105155 0.00114298  0.00551134 -0.0131444 0.00114965  0.00632232 -0.0160174 0.00114536  0.00709516 -0.0191288 0.00112391  0.00782639 -0.0224769 0.00109625  0.00851506 -0.0260494 0.00106001  0.00916052 -0.0298406 0.00102472  0.00976139 -0.0338446 0.000985146  0.0103174 -0.0380512 0.000947952  0.0108298 -0.0424525 0.000906944  0.0113006 -0.0470442 0.000871181  0.0117323 -0.0518157 0.000832081  0.0121243 -0.0567596 0.000802517  0.0124766 -0.061865 0.000763893  0.0127916 -0.0671303 0.000733376  0.0130703 -0.0725434 0.000704288  0.0133121 -0.0780973 0.000672817  0.013518 -0.0837847 0.000642776  0.0136902 -0.0895998 0.000617981  0.0138298 -0.0955358 0.000590324  0.0139389 -0.101581 0.00056076  0.0140172 -0.107735 0.000531673  0.0140642 -0.113985 0.000495911  0.0140817 -0.120332 0.000473022  0.0140723 -0.126766 0.00044775  0.0140359 -0.133279 0.000418663  0.0139742 -0.139872 0.000395775  0.0138888 -0.146532 0.000376225  0.0137782 -0.153257 0.000361919  0.0136454 -0.160038 0.000340939  0.0134914 -0.166879 0.000316143  0.0133169 -0.173765 0.0002985  0.0131235 -0.180699 0.000281334  0.0129118 -0.187673 0.000264645  0.0126817 -0.194687 0.000246525  0.0124354 -0.201732 0.000234604  0.0121737 -0.208806 0.000222683  0.0118964 -0.215904 0.000204563  0.0116055 -0.223025 0.000194073  0.011302 -0.230163 0.000180244  0.0109863 -0.237319 0.000168324  0.0106616 -0.244484 0.00015974  0.0103276 -0.251659 0.00014925  0.00998497 -0.25884 0.000135899  0.00963378 -0.266027 0.000123501  0.00927496 -0.273212 0.000121593  0.00890875 -0.2804 0.000114441  0.00853801 -0.287583 0.000110149  0.00816178 -0.294763 0.000106335  0.00777912 -0.301936 0.000102997  0.00739169 -0.309104 0.000103951  0.00700188 -0.316264 0.000104427  0.0066092 -0.323412 9.91821e-05  0.00621271 -0.330553 9.9659e-05  0.00581574 -0.337682 9.91821e-05  0.00541639 -0.344798 9.67979e-05  0.00501633 -0.351905 9.72748e-05  0.00461769 -0.359 9.15527e-05  0 0 0  0.000278637 -0.000702918 0.000413895  0.000924632 -0.00175279 0.000762939  0.00181806 -0.00310773 0.00103903  0.002864 -0.00472778 0.00124884  0.00398907 -0.00660181 0.00138855  0.00514275 -0.00872433 0.00147915  0.0062919 -0.0110924 0.00152445  0.00741446 -0.01371 0.00153971  0.0084967 -0.0165688 0.00153112  0.0095312 -0.0196688 0.00150156  0.0105149 -0.0230026 0.0014677  0.0114462 -0.026567 0.00142336  0.0123242 -0.0303488 0.00137234  0.0131494 -0.0343454 0.00132036  0.013922 -0.0385469 0.00126934  0.0146426 -0.0429439 0.00122118  0.0153133 -0.0475315 0.00116348  0.0159336 -0.0522996 0.00111723  0.0165067 -0.0572397 0.00107193  0.0170352 -0.0623441 0.0010252  0.0175184 -0.0676066 0.000979424  0.0179554 -0.0730197 0.000936508  0.0183486 -0.0785731 0.0008955  0.0186993 -0.0842586 0.000857353  0.0190092 -0.0900717 0.000822067  0.0192797 -0.0960071 0.000784874  0.0195119 -0.102052 0.00074625  0.0197073 -0.108203 0.000701904  0.0198658 -0.114455 0.000660419  0.0199885 -0.120799 0.000623226  0.0200769 -0.127232 0.000592232  0.0201333 -0.133745 0.000557899  0.0201595 -0.140335 0.000526905  0.020155 -0.146996 0.00049448  0.0201225 -0.153718 0.000471115  0.020062 -0.1605 0.00043726  0.0199752 -0.167337 0.000415325  0.0198641 -0.174223 0.000390053  0.0197294 -0.181156 0.000370026  0.0195706 -0.188127 0.000340462  0.0193884 -0.195139 0.000320911  0.0191863 -0.202181 0.000298977  0.0189667 -0.209252 0.000275135  0.0187297 -0.21635 0.000257492  0.0184746 -0.223469 0.000243187  0.0182033 -0.230605 0.000217915  0.0179164 -0.237758 0.000198841  0.0176158 -0.244921 0.000191689  0.0173039 -0.252093 0.000180244  0.0169797 -0.259273 0.000164986  0.0166445 -0.266457 0.00014925  0.0163004 -0.27364 0.000138283  0.0159473 -0.280824 0.000132084  0.0155854 -0.288005 0.000126839  0.0152152 -0.295183 0.000113964  0.0148404 -0.302353 0.000104904  0.0144613 -0.309519 0.000105381  0.0140762 -0.316677 0.000110149  0.0136869 -0.323825 0.000104904  0.0132945 -0.330963 9.91821e-05  0.0128989 -0.338091 0.000102997  0.0125017 -0.345209 0.000103474  0.012105 -0.352317 9.39369e-05  0.0117092 -0.359415 9.01222e-05  0 0 0  0.000367001 -0.00104821 0.000513077  0.0012221 -0.00230867 0.000946522  0.0023832 -0.00377977 0.00129747  0.00372031 -0.00545478 0.00155735  0.00514141 -0.00734353 0.00173903  0.00658679 -0.00945944 0.00185061  0.00801915 -0.0118123 0.00190783  0.0094161 -0.0144086 0.00192928  0.010764 -0.0172477 0.00191164  0.0120559 -0.0203288 0.00188303  0.0132878 -0.0236455 0.00184059  0.0144578 -0.0271951 0.0017848  0.0155671 -0.0309642 0.00172901  0.0166147 -0.034949 0.00165653  0.0176013 -0.0391411 0.00159025  0.0185279 -0.0435309 0.00153065  0.0193954 -0.0481107 0.00146437  0.0202066 -0.0528728 0.00140333  0.0209622 -0.0578058 0.00134277  0.0216616 -0.062906 0.0012908  0.0223075 -0.0681626 0.00123119  0.0229018 -0.0735713 0.00117731  0.023446 -0.07912 0.00112247  0.0239407 -0.0848017 0.00106907  0.0243864 -0.0906101 0.00102663  0.0247852 -0.0965403 0.000978947  0.025139 -0.102582 0.000925541  0.0254499 -0.108729 0.000875473  0.0257189 -0.114978 0.000822544  0.0259466 -0.121319 0.000778675  0.0261337 -0.127747 0.000738621  0.0262821 -0.134257 0.000691891  0.0263927 -0.140844 0.000654221  0.0264695 -0.147499 0.000617504  0.0265131 -0.154218 0.000579357  0.0265243 -0.160998 0.000546455  0.0265055 -0.167831 0.000508785  0.0264552 -0.174714 0.000476837  0.0263755 -0.181642 0.000452042  0.026269 -0.18861 0.000418663  0.0261366 -0.195618 0.000389576  0.0259795 -0.202655 0.000363827  0.0257983 -0.209723 0.00034523  0.0255952 -0.216816 0.000315666  0.0253704 -0.223932 0.000286579  0.0251281 -0.231064 0.000259876  0.0248699 -0.238212 0.000239849  0.0245955 -0.245372 0.000217915  0.0243042 -0.25254 0.000203133  0.0239978 -0.259716 0.000188351  0.0236773 -0.266895 0.000166893  0.023345 -0.274075 0.000158787  0.0230019 -0.281254 0.00014925  0.0226486 -0.288433 0.000134468  0.0222886 -0.295607 0.000128269  0.0219214 -0.302775 0.000112534  0.0215454 -0.309938 0.000114441  0.021163 -0.317092 0.00011301  0.0207765 -0.32424 0.000107288  0.0203879 -0.331375 0.000108242  0.0199959 -0.338503 0.000107288  0.0195982 -0.345621 9.91821e-05  0.0191984 -0.352731 9.15527e-05  0.0188017 -0.359832 9.53674e-05  0 0 0  0.000485934 -0.0015341 0.000608444  0.00159132 -0.00305313 0.00113726  0.00305972 -0.00464565 0.00155926  0.00470775 -0.00635743 0.00187111  0.00642914 -0.00824416 0.00209045  0.00816223 -0.0103392 0.0022254  0.00987098 -0.0126678 0.00230026  0.0115355 -0.0152329 0.00231361  0.0131438 -0.0180464 0.00230932  0.0146883 -0.0211031 0.00226879  0.0161653 -0.0244003 0.00221443  0.0175731 -0.0279287 0.00214863  0.0189107 -0.0316821 0.0020752  0.0201784 -0.0356513 0.00199842  0.0213759 -0.0398312 0.00192165  0.0225044 -0.04421 0.00184393  0.0235667 -0.048779 0.00176096  0.0245631 -0.0535306 0.00168991  0.0254954 -0.058456 0.00161695  0.0263662 -0.0635468 0.00155258  0.0271766 -0.0687954 0.00149107  0.0279273 -0.0741961 0.00142193  0.0286201 -0.0797366 0.00134802  0.0292556 -0.0854116 0.00128365  0.0298356 -0.0912139 0.00122738  0.0303625 -0.0971351 0.00116873  0.0308374 -0.10317 0.00110912  0.0312624 -0.109312 0.0010519  0.0316379 -0.115553 0.000994682  0.0319669 -0.121888 0.000939846  0.0322508 -0.128311 0.000883102  0.0324891 -0.134814 0.000833988  0.0326853 -0.141394 0.000789642  0.0328422 -0.148043 0.000739098  0.0329597 -0.154757 0.000691891  0.0330384 -0.161531 0.000647545  0.0330808 -0.168358 0.000615597  0.0330896 -0.175235 0.000573635  0.0330658 -0.182157 0.000538349  0.0330095 -0.189119 0.000500679  0.0329242 -0.196119 0.000466347  0.0328119 -0.203152 0.000432491  0.0326698 -0.210214 0.000397682  0.0325003 -0.2173 0.000373363  0.0323074 -0.22441 0.00033617  0.0320926 -0.231539 0.000300884  0.0318561 -0.238681 0.000281334  0.0316012 -0.245835 0.000257015  0.0313303 -0.252997 0.000232697  0.0310404 -0.260167 0.00021553  0.0307333 -0.26734 0.000193119  0.0304134 -0.274517 0.000172138  0.0300798 -0.281692 0.000163078  0.0297356 -0.288866 0.000154018  0.029382 -0.296035 0.000136375  0.0290177 -0.303199 0.000126362  0.0286448 -0.310359 0.000125408  0.0282664 -0.317509 0.000116348  0.0278809 -0.324656 0.00011158  0.0274904 -0.331789 0.000114441  0.0270963 -0.338916 0.000104904  0.0266991 -0.346033 9.82285e-05  0.0263009 -0.353144 0.00010252  0.0259018 -0.360248 9.53674e-05  0 0 0  0.000624597 -0.00222355 0.000713825  0.002096 -0.00405025 0.00134611  0.00391716 -0.0057227 0.00183916  0.00587913 -0.00743526 0.0022006  0.00789037 -0.00929308 0.00244665  0.00989878 -0.0113534 0.00260544  0.011874 -0.0136448 0.00268793  0.0137986 -0.0161742 0.00271082  0.0156597 -0.0189559 0.00269556  0.0174509 -0.0219843 0.0026536  0.0191671 -0.0252581 0.00258827  0.0208064 -0.0287622 0.00251675  0.022368 -0.0324967 0.0024333  0.023851 -0.0364469 0.00234509  0.0252571 -0.0406116 0.00225782  0.0265874 -0.0449762 0.00216007  0.0278418 -0.0495321 0.002069  0.0290236 -0.0542702 0.00198221  0.0301331 -0.0591861 0.00189877  0.0311713 -0.0642647 0.00181961  0.0321416 -0.0695006 0.0017457  0.0330454 -0.0748912 0.00166225  0.0338838 -0.0804203 0.00158072  0.0346582 -0.0860867 0.00150681  0.0353709 -0.0918796 0.00143385  0.036023 -0.097789 0.00137043  0.0366164 -0.103815 0.0012989  0.0371538 -0.109947 0.0012269  0.0376366 -0.116179 0.00116348  0.0380652 -0.122505 0.00109529  0.0384414 -0.128921 0.00103664  0.038769 -0.135416 0.000977039  0.0390491 -0.141984 0.000920773  0.0392823 -0.148626 0.000855923  0.0394714 -0.155332 0.000804901  0.0396175 -0.162097 0.00075388  0.0397224 -0.168916 0.000710011  0.0397871 -0.175785 0.000662327  0.0398138 -0.182698 0.000620365  0.0398061 -0.189653 0.000576973  0.0397651 -0.196644 0.000541687  0.0396905 -0.203669 0.000498772  0.0395865 -0.210723 0.000463486  0.0394516 -0.217802 0.000423431  0.0392878 -0.224903 0.000380516  0.0390985 -0.232026 0.000348091  0.0388842 -0.239163 0.000317097  0.0386479 -0.246308 0.000290394  0.0383902 -0.253463 0.000263691  0.0381143 -0.260626 0.000237942  0.0378199 -0.267793 0.000220299  0.0375073 -0.274963 0.000193119  0.0371804 -0.282133 0.000174046  0.0368404 -0.289301 0.000157833  0.0364892 -0.296465 0.000149727  0.0361288 -0.303625 0.000135422  0.0357583 -0.31078 0.000135899  0.0353796 -0.317927 0.000127316  0.0349956 -0.32507 0.000118256  0.0346055 -0.332203 0.000116348  0.0342097 -0.339329 0.00011301  0.0338106 -0.346444 0.000105858  0.0334089 -0.353556 9.91821e-05  0.0330062 -0.360663 9.48906e-05  0 0 0  0.00108287 -0.00329667 0.000893116  0.00297686 -0.00531375 0.00159359  0.00510176 -0.00698853 0.00213194  0.00732446 -0.00865769 0.00252962  0.00957966 -0.0104642 0.00280142  0.0118304 -0.0124785 0.00297832  0.0140501 -0.0147259 0.00307369  0.0162183 -0.017218 0.00310183  0.0183224 -0.0199653 0.00308943  0.0203527 -0.0229645 0.00304031  0.022303 -0.0262107 0.00296926  0.0241714 -0.0296891 0.00288582  0.0259546 -0.0334025 0.0027957  0.0276527 -0.0373322 0.00269508  0.0292646 -0.041478 0.00259256  0.0307921 -0.0458255 0.00248384  0.0322369 -0.050366 0.00237465  0.0335996 -0.0550875 0.00227737  0.0348822 -0.0599899 0.00218582  0.0360879 -0.0650536 0.00209332  0.0372169 -0.0702757 0.00199604  0.0382701 -0.0756522 0.0019021  0.0392514 -0.0811683 0.0018158  0.0401624 -0.0868219 0.00172853  0.0410054 -0.0926031 0.00164318  0.0417819 -0.0985003 0.00156879  0.0424926 -0.104513 0.00148964  0.0431396 -0.110633 0.00141191  0.0437242 -0.116854 0.00133133  0.0442499 -0.123168 0.00125885  0.0447177 -0.129573 0.00119352  0.0451303 -0.136058 0.00111866  0.0454903 -0.142614 0.00104904  0.0457976 -0.149244 0.000983238  0.0460553 -0.155941 0.000919819  0.0462649 -0.162694 0.000863552  0.0464272 -0.169502 0.000809669  0.0465472 -0.17636 0.000760078  0.0466263 -0.183264 0.000705719  0.0466638 -0.19021 0.000660896  0.0466623 -0.197189 0.000611305  0.0466256 -0.204205 0.00056982  0.0465546 -0.211249 0.000525951  0.0464511 -0.21832 0.00047493  0.0463154 -0.22541 0.000431061  0.0461485 -0.232523 0.000391483  0.0459549 -0.239653 0.000356197  0.0457356 -0.246788 0.000321388  0.0454926 -0.253937 0.000293255  0.045228 -0.26109 0.000266075  0.0449421 -0.26825 0.000236034  0.0446367 -0.275413 0.000211239  0.0443134 -0.282576 0.000189304  0.0439758 -0.289737 0.000175476  0.0436254 -0.296894 0.00015974  0.0432627 -0.304049 0.000144958  0.0428891 -0.3112 0.000137329  0.0425079 -0.318343 0.000125885  0.0421195 -0.325481 0.000121593  0.0417256 -0.332613 0.000124931  0.041328 -0.339738 0.000115395  0.0409272 -0.346852 0.000112534  0.0405252 -0.353965 0.000102043  0.0401239 -0.361078 9.91821e-05  0 0 0  -0.00112816 -0.00323997 -0.000606537  -0.00302164 -0.0051955 -0.00108337  -0.00512606 -0.00681146 -0.00145388  -0.00732379 -0.00841644 -0.00172901  -0.009563 -0.0101448 -0.00192022  -0.0118134 -0.0120563 -0.00204134  -0.0140525 -0.0141923 -0.00211763  -0.0162633 -0.016561 -0.00214243  -0.0184327 -0.0191647 -0.00213718  -0.0205532 -0.0220131 -0.00211  -0.0226189 -0.0250902 -0.00205851  -0.024626 -0.0283994 -0.00199604  -0.0265728 -0.0319292 -0.00192642  -0.0284599 -0.0356757 -0.00185633  -0.0302874 -0.0396255 -0.00178385  -0.0320558 -0.043777 -0.00170612  -0.0337656 -0.0481186 -0.00163555  -0.0354201 -0.0526441 -0.00155783  -0.0370228 -0.0573429 -0.00148916  -0.0385764 -0.062212 -0.00142288  -0.0400791 -0.0672379 -0.0013485  -0.0415332 -0.0724201 -0.00127506  -0.0429409 -0.0777498 -0.00120115  -0.0443019 -0.0832124 -0.00113916  -0.0456182 -0.0888096 -0.00107813  -0.0468919 -0.0945335 -0.0010128  -0.0481241 -0.100372 -0.000956535  -0.0493153 -0.106326 -0.000900745  -0.050467 -0.112385 -0.000845909  -0.0515789 -0.118544 -0.00079298  -0.0526524 -0.124794 -0.000745296  -0.0536892 -0.131132 -0.000704765  -0.0546918 -0.137556 -0.000658035  -0.0556586 -0.144055 -0.000611782  -0.0565915 -0.150628 -0.000564098  -0.057492 -0.157266 -0.000523567  -0.0583582 -0.163965 -0.000487328  -0.0591931 -0.170723 -0.000439644  -0.0599992 -0.17753 -0.00039959  -0.0607762 -0.184388 -0.000362396  -0.0615249 -0.191289 -0.000330925  -0.0622463 -0.19823 -0.000295639  -0.0629401 -0.205203 -0.000261784  -0.0636098 -0.212209 -0.000237942  -0.064256 -0.219244 -0.000202179  -0.0648787 -0.226305 -0.000166416  -0.0654798 -0.233386 -0.000144482  -0.0660598 -0.240487 -0.000118256  -0.0666177 -0.247596 -9.10759e-05  -0.0671573 -0.254723 -7.43866e-05  -0.067677 -0.261857 -4.76837e-05  -0.0681782 -0.269 -3.19481e-05  -0.0686638 -0.276146 -1.00136e-05  -0.0691352 -0.283296 2.86102e-06  -0.0695937 -0.290442 1.90735e-05  -0.0700433 -0.297592 3.52859e-05  -0.0704827 -0.304735 4.91142e-05  -0.0709138 -0.311875 6.05583e-05  -0.0713375 -0.319012 6.7234e-05  -0.071754 -0.326144 7.77245e-05  -0.0721662 -0.333266 9.05991e-05  -0.072578 -0.340385 9.44138e-05  -0.0729878 -0.347497 0.000104904  -0.0733964 -0.354611 0.000109673  0 0 0  -0.000633333 -0.00213315 -0.000477314  -0.0020851 -0.00390315 -0.000909805  -0.00387025 -0.00552611 -0.00124407  -0.00579891 -0.00718888 -0.00150013  -0.00778657 -0.00898282 -0.0016737  -0.00978813 -0.0109662 -0.0017848  -0.0117787 -0.0131648 -0.00185299  -0.0137416 -0.0155967 -0.00187063  -0.0156655 -0.0182606 -0.00186205  -0.0175433 -0.0211641 -0.00183725  -0.0193709 -0.0242963 -0.00179195  -0.0211473 -0.0276575 -0.00174332  -0.0228713 -0.0312368 -0.00168037  -0.0245431 -0.0350308 -0.00161743  -0.0261632 -0.0390301 -0.00155354  -0.0277337 -0.0432252 -0.0014801  -0.0292565 -0.0476112 -0.00141764  -0.0307325 -0.0521798 -0.00135803  -0.0321639 -0.0569226 -0.00129271  -0.0335519 -0.0618311 -0.00124216  -0.0348986 -0.0668992 -0.00117111  -0.0362049 -0.0721197 -0.00110531  -0.0374708 -0.0774857 -0.00104666  -0.0386975 -0.0829854 -0.000986099  -0.0398886 -0.0886194 -0.000936031  -0.0410435 -0.0943755 -0.000879288  -0.0421635 -0.10025 -0.000825882  -0.04325 -0.106236 -0.000775814  -0.0443017 -0.112327 -0.000728607  -0.0453194 -0.118514 -0.000693321  -0.0463054 -0.124795 -0.00065136  -0.0472616 -0.131161 -0.000610352  -0.0481873 -0.137614 -0.00056982  -0.049082 -0.144138 -0.000527859  -0.0499487 -0.150735 -0.000490189  -0.0507872 -0.157397 -0.000449657  -0.0515983 -0.16412 -0.000411987  -0.0523839 -0.170899 -0.000379086  -0.0531433 -0.177728 -0.0003438  -0.0538785 -0.184604 -0.000311375  -0.0545888 -0.191523 -0.000277996  -0.0552747 -0.19848 -0.000250816  -0.055939 -0.205471 -0.000223637  -0.0565817 -0.212493 -0.000201702  -0.0572042 -0.219543 -0.000171185  -0.057806 -0.226616 -0.000148296  -0.0583894 -0.23371 -0.000115395  -0.0589547 -0.240822 -9.39369e-05  -0.0595007 -0.247944 -7.00951e-05  -0.0600288 -0.255079 -5.8651e-05  -0.0605426 -0.262223 -3.29018e-05  -0.0610416 -0.269373 -1.33514e-05  -0.0615253 -0.276527 1.43051e-06  -0.0619953 -0.283682 1.28746e-05  -0.0624547 -0.290835 2.76566e-05  -0.0629053 -0.297988 4.48227e-05  -0.0633485 -0.305135 5.19753e-05  -0.0637827 -0.312277 5.96046e-05  -0.064208 -0.319417 7.29561e-05  -0.0646288 -0.326549 8.10623e-05  -0.0650454 -0.333673 8.82149e-05  -0.0654578 -0.340791 9.77516e-05  -0.0658686 -0.347901 0.000102997  -0.0662794 -0.355012 0.000105381  0 0 0  -0.000478309 -0.00143684 -0.000401974  -0.00155091 -0.00289925 -0.00075531  -0.00297549 -0.00445127 -0.0010438  -0.00457872 -0.00612576 -0.00127029  -0.00626689 -0.0079637 -0.00142384  -0.00798696 -0.0100038 -0.00152302  -0.00970525 -0.0122592 -0.00157785  -0.0114025 -0.0147463 -0.00160122  -0.0130679 -0.0174677 -0.00158834  -0.0146951 -0.020421 -0.00156784  -0.0162801 -0.0236036 -0.00153637  -0.0178211 -0.027012 -0.00148392  -0.0193182 -0.0306371 -0.00143147  -0.0207712 -0.0344745 -0.00137854  -0.0221809 -0.038517 -0.00131989  -0.0235505 -0.0427534 -0.00126505  -0.0248811 -0.0471791 -0.00121355  -0.0261744 -0.0517867 -0.00115538  -0.0274308 -0.0565685 -0.00110865  -0.0286521 -0.0615133 -0.00105333  -0.0298392 -0.0666197 -0.000996113  -0.0309931 -0.0718739 -0.000937462  -0.0321156 -0.0772726 -0.000889778  -0.0332079 -0.0828077 -0.000842571  -0.0342697 -0.0884735 -0.000791073  -0.0353022 -0.0942605 -0.000750065  -0.036307 -0.100166 -0.000698566  -0.037282 -0.106182 -0.000658512  -0.0382295 -0.112301 -0.000618458  -0.0391512 -0.118516 -0.000586033  -0.0400476 -0.124824 -0.000552177  -0.0409185 -0.131217 -0.000516415  -0.0417652 -0.137693 -0.000483036  -0.042588 -0.144244 -0.000448704  -0.0433865 -0.150861 -0.000410557  -0.0441618 -0.157546 -0.000374794  -0.0449145 -0.164289 -0.0003438  -0.0456455 -0.171087 -0.000315666  -0.0463562 -0.177935 -0.000288963  -0.0470459 -0.184829 -0.000257492  -0.0477157 -0.191765 -0.000226974  -0.0483654 -0.198737 -0.000204563  -0.0489948 -0.205744 -0.000187874  -0.0496058 -0.21278 -0.000165462  -0.0502014 -0.219844 -0.000139713  -0.0507801 -0.226929 -0.000114441  -0.0513427 -0.234033 -9.9659e-05  -0.0518899 -0.241156 -7.39098e-05  -0.0524225 -0.24829 -5.38826e-05  -0.0529408 -0.255432 -3.62396e-05  -0.0534444 -0.262584 -2.38419e-05  -0.0539348 -0.269743 -2.86102e-06  -0.054414 -0.276903 1.28746e-05  -0.0548823 -0.284063 2.3365e-05  -0.0553401 -0.291222 3.62396e-05  -0.0557888 -0.298378 5.00679e-05  -0.0562289 -0.305529 5.24521e-05  -0.0566628 -0.312676 7.00951e-05  -0.057092 -0.319816 7.62939e-05  -0.057514 -0.326949 8.24928e-05  -0.0579307 -0.334075 8.53539e-05  -0.0583436 -0.341192 9.63211e-05  -0.0587542 -0.348303 0.000105858  -0.059165 -0.355409 0.000111103  0 0 0  -0.000353415 -0.000961185 -0.000335693  -0.0011658 -0.00217012 -0.000622749  -0.0022731 -0.00360894 -0.000861645  -0.00356068 -0.00525707 -0.00105524  -0.00494385 -0.00711428 -0.00117874  -0.00636846 -0.00918953 -0.00125885  -0.00780293 -0.0114913 -0.00131226  -0.00922704 -0.0140241 -0.00132751  -0.0106263 -0.0167939 -0.00132084  -0.0119942 -0.0197928 -0.00130177  -0.0133289 -0.0230204 -0.00126934  -0.0146288 -0.0264694 -0.00123882  -0.0158941 -0.0301363 -0.00118876  -0.0171252 -0.0340129 -0.00113916  -0.0183238 -0.0380921 -0.00109625  -0.0194908 -0.0423658 -0.00104332  -0.0206271 -0.046827 -0.00100279  -0.0217329 -0.0514686 -0.000957489  -0.0228102 -0.0562852 -0.000911713  -0.0238614 -0.0612633 -0.000871658  -0.0248873 -0.0664016 -0.000827312  -0.025888 -0.0716869 -0.000778198  -0.0268637 -0.0771158 -0.000736713  -0.0278161 -0.0826822 -0.000696659  -0.0287466 -0.088377 -0.000658989  -0.0296538 -0.0941927 -0.000618935  -0.0305387 -0.100127 -0.000576496  -0.0314029 -0.106168 -0.000545025  -0.0322459 -0.112313 -0.000511169  -0.0330684 -0.118554 -0.000480652  -0.0338718 -0.124886 -0.000450134  -0.0346562 -0.131302 -0.000427723  -0.0354214 -0.137799 -0.000393867  -0.0361671 -0.144371 -0.000360966  -0.0368938 -0.15101 -0.000336647  -0.0376036 -0.157715 -0.000308514  -0.0382962 -0.164475 -0.000278473  -0.0389717 -0.171292 -0.000257015  -0.0396297 -0.178157 -0.000228405  -0.040272 -0.185067 -0.000209808  -0.0408978 -0.192018 -0.00018549  -0.0415061 -0.199005 -0.000160694  -0.0420997 -0.206026 -0.000145912  -0.0426805 -0.213074 -0.000125408  -0.0432463 -0.22015 -0.000106812  -0.0437975 -0.227246 -9.01222e-05  -0.044337 -0.23436 -6.96182e-05  -0.0448644 -0.241492 -5.19753e-05  -0.0453792 -0.248636 -3.71933e-05  -0.0458808 -0.255787 -1.85966e-05  -0.0463727 -0.262946 -8.10623e-06  -0.0468543 -0.270111 1.04904e-05  -0.0473249 -0.277276 2.19345e-05  -0.047787 -0.284441 3.86238e-05  -0.0482414 -0.291606 4.91142e-05  -0.0486872 -0.298765 5.67436e-05  -0.0491264 -0.305921 6.19888e-05  -0.0495601 -0.313071 6.77109e-05  -0.0499861 -0.320213 8.24928e-05  -0.0504084 -0.327346 8.34465e-05  -0.0508258 -0.334473 8.7738e-05  -0.0512409 -0.341591 9.29832e-05  -0.0516536 -0.348702 0.000100136  -0.0520642 -0.355803 0.000105858  0 0 0  -0.000258647 -0.000632808 -0.00027132  -0.000858776 -0.00164439 -0.000502586  -0.00169756 -0.00297648 -0.000691891  -0.00269043 -0.00458218 -0.000838757  -0.00377488 -0.00643878 -0.000939846  -0.00490394 -0.00853391 -0.00100613  -0.00604776 -0.0108685 -0.00104523  -0.00718787 -0.0134397 -0.00106382  -0.00831389 -0.0162472 -0.00106096  -0.0094189 -0.019286 -0.00104237  -0.0105004 -0.0225514 -0.00101233  -0.0115573 -0.0260358 -0.000985146  -0.0125889 -0.0297385 -0.000954628  -0.0135948 -0.0336494 -0.00091362  -0.0145764 -0.0377607 -0.000872135  -0.0155354 -0.0420665 -0.000835419  -0.0164728 -0.0465592 -0.00079298  -0.0173899 -0.0512307 -0.000761032  -0.0182877 -0.0560762 -0.000721931  -0.0191659 -0.0610848 -0.000692844  -0.0200262 -0.0662507 -0.000655174  -0.0208701 -0.0715645 -0.000626564  -0.0216984 -0.0770207 -0.000590324  -0.0225109 -0.0826125 -0.000554085  -0.0233074 -0.0883339 -0.00052166  -0.0240885 -0.0941758 -0.000490665  -0.0248537 -0.100134 -0.000458241  -0.0256025 -0.106198 -0.000430584  -0.0263377 -0.112366 -0.000404358  -0.0270592 -0.11863 -0.000374794  -0.0277671 -0.124983 -0.000353813  -0.0284611 -0.13142 -0.000333309  -0.0291409 -0.137936 -0.00030756  -0.0298085 -0.144526 -0.000286579  -0.0304627 -0.151184 -0.000267506  -0.0311036 -0.157905 -0.000240326  -0.0317311 -0.164683 -0.000219345  -0.0323472 -0.171516 -0.000202179  -0.0329525 -0.178396 -0.000173569  -0.0335441 -0.185321 -0.000158787  -0.0341227 -0.192285 -0.000144958  -0.0346899 -0.199286 -0.000126362  -0.0352457 -0.206318 -0.000102043  -0.0357904 -0.213379 -9.25064e-05  -0.0363252 -0.220465 -7.77245e-05  -0.0368512 -0.227571 -5.91278e-05  -0.0373676 -0.234694 -4.19617e-05  -0.0378733 -0.241833 -3.24249e-05  -0.0383677 -0.248985 -2.14577e-05  -0.0388532 -0.256145 -7.62939e-06  -0.03933 -0.263309 8.58307e-06  -0.0397995 -0.270479 2.19345e-05  -0.0402603 -0.277649 3.62396e-05  -0.0407128 -0.28482 4.48227e-05  -0.0411599 -0.291989 5.48363e-05  -0.0416014 -0.299152 6.29425e-05  -0.0420375 -0.306312 6.53267e-05  -0.0424674 -0.313463 7.20024e-05  -0.0428929 -0.320608 7.86781e-05  -0.0433137 -0.327743 8.34465e-05  -0.04373 -0.334871 8.05855e-05  -0.0441434 -0.341989 9.20296e-05  -0.0445561 -0.349099 9.82285e-05  -0.0449681 -0.356197 0.000105381  0 0 0  -0.000181962 -0.000411153 -0.000203609  -0.00060308 -0.00127801 -0.000379086  -0.00120045 -0.00252438 -0.000516415  -0.00192013 -0.00408784 -0.000623703  -0.0027146 -0.00593466 -0.000705719  -0.00354996 -0.00803977 -0.000759602  -0.00440374 -0.0103972 -0.00078392  -0.00526085 -0.0129964 -0.00080204  -0.00611109 -0.0158346 -0.000794888  -0.00695002 -0.0189054 -0.000785828  -0.00777429 -0.0222011 -0.000764847  -0.00858265 -0.0257168 -0.000739574  -0.00937539 -0.0294491 -0.000718117  -0.0101528 -0.0333882 -0.00069046  -0.0109162 -0.0375275 -0.000654221  -0.0116667 -0.0418599 -0.00062418  -0.0124053 -0.0463798 -0.000596046  -0.0131317 -0.0510778 -0.000569344  -0.0138463 -0.0559464 -0.000546932  -0.0145496 -0.0609815 -0.000517845  -0.0152444 -0.0661714 -0.000489712  -0.0159309 -0.0715104 -0.000463963  -0.016609 -0.0769905 -0.000439644  -0.0172778 -0.082605 -0.000415325  -0.0179368 -0.0883478 -0.000386715  -0.0185882 -0.0942129 -0.000368595  -0.019231 -0.100191 -0.000344276  -0.0198652 -0.106276 -0.000315666  -0.0204916 -0.112464 -0.000298023  -0.0211089 -0.118747 -0.000277042  -0.0217185 -0.125118 -0.000261307  -0.0223198 -0.131575 -0.000245094  -0.022913 -0.138107 -0.000228882  -0.0235 -0.144714 -0.000208855  -0.0240798 -0.151387 -0.000189304  -0.0246527 -0.158123 -0.000176907  -0.0252166 -0.164916 -0.000154018  -0.0257711 -0.171762 -0.000134468  -0.0263178 -0.178657 -0.000126839  -0.0268586 -0.185593 -0.000111103  -0.0273905 -0.192569 -9.91821e-05  -0.027914 -0.199582 -8.24928e-05  -0.0284302 -0.206624 -6.67572e-05  -0.0289402 -0.213696 -5.48363e-05  -0.0294433 -0.22079 -4.673e-05  -0.0299385 -0.227905 -2.81334e-05  -0.030427 -0.235035 -1.7643e-05  -0.0309081 -0.242182 -9.05991e-06  -0.0313833 -0.24934 -2.38419e-06  -0.0318499 -0.256507 1.28746e-05  -0.0323086 -0.263677 2.6226e-05  -0.0327623 -0.270851 3.19481e-05  -0.0332117 -0.278025 4.24385e-05  -0.0336566 -0.2852 5.62668e-05  -0.0340967 -0.292372 5.72205e-05  -0.0345318 -0.29954 6.53267e-05  -0.0349622 -0.306702 7.24792e-05  -0.0353887 -0.313857 7.77245e-05  -0.03581 -0.321003 8.58307e-05  -0.0362279 -0.32814 8.10623e-05  -0.0366421 -0.335269 8.67844e-05  -0.0370541 -0.342387 9.44138e-05  -0.0374649 -0.349495 9.91821e-05  -0.0378742 -0.356591 0.000106335  0 0 0  -0.000113335 -0.000272006 -0.000139236  -0.000379145 -0.00104257 -0.000249386  -0.000759304 -0.00222766 -0.000341892  -0.00121939 -0.00375861 -0.000421047  -0.0017333 -0.00559506 -0.000475407  -0.00227967 -0.00770676 -0.000511169  -0.00284401 -0.0100798 -0.000526905  -0.00341558 -0.012699 -0.000533581  -0.0039891 -0.0155615 -0.00053215  -0.00455904 -0.0186548 -0.000529289  -0.00512379 -0.0219749 -0.000515461  -0.00568378 -0.0255156 -0.000500202  -0.00623721 -0.0292714 -0.000483513  -0.0067848 -0.0332336 -0.000458241  -0.00732762 -0.0373955 -0.000439644  -0.00786614 -0.0417502 -0.000417233  -0.00840223 -0.0462925 -0.00040102  -0.00893676 -0.0510123 -0.000382423  -0.00946879 -0.0559008 -0.000359535  -0.00999892 -0.0609568 -0.000341892  -0.0105261 -0.0661666 -0.000323296  -0.0110512 -0.0715266 -0.000309944  -0.0115741 -0.0770273 -0.000292301  -0.0120972 -0.082662 -0.000276566  -0.0126207 -0.0884224 -0.000259399  -0.0131412 -0.094305 -0.000236988  -0.0136602 -0.100302 -0.000222683  -0.014178 -0.106405 -0.000211239  -0.0146931 -0.112609 -0.000192165  -0.0152051 -0.118908 -0.000176907  -0.0157155 -0.125295 -0.000167847  -0.0162256 -0.131769 -0.000162125  -0.0167336 -0.138314 -0.000149727  -0.01724 -0.144936 -0.000134945  -0.0177426 -0.151622 -0.000123978  -0.0182407 -0.158371 -0.000107288  -0.0187354 -0.165177 -9.58443e-05  -0.0192287 -0.172034 -8.53539e-05  -0.0197184 -0.17894 -6.62804e-05  -0.0202043 -0.185888 -5.43594e-05  -0.0206871 -0.192873 -5.19753e-05  -0.0211661 -0.199895 -4.43459e-05  -0.0216427 -0.206947 -3.29018e-05  -0.022115 -0.214026 -1.95503e-05  -0.022584 -0.221129 -1.14441e-05  -0.0230484 -0.228249 4.76837e-07  -0.0235085 -0.235387 8.58307e-06  -0.0239646 -0.24254 1.38283e-05  -0.0244164 -0.249705 1.71661e-05  -0.0248635 -0.256876 2.52724e-05  -0.0253065 -0.26405 4.05312e-05  -0.0257452 -0.271229 4.00543e-05  -0.026181 -0.278406 5.62668e-05  -0.026614 -0.285585 6.24657e-05  -0.0270441 -0.292759 6.67572e-05  -0.0274713 -0.299931 7.00951e-05  -0.0278959 -0.307094 7.10487e-05  -0.0283167 -0.314253 7.86781e-05  -0.028734 -0.321401 8.15392e-05  -0.0291479 -0.328539 8.67844e-05  -0.0295603 -0.335668 9.05991e-05  -0.0299716 -0.342784 9.48906e-05  -0.0303812 -0.349892 0.000100136  -0.0307889 -0.356985 0.000101089  0 0 0  -5.08465e-05 -0.000200093 -6.67572e-05  -0.000170082 -0.00091967 -0.000128746  -0.000343144 -0.00207013 -0.000174046  -0.000557005 -0.00358334 -0.000212193  -0.000800669 -0.00541487 -0.000245094  -0.00106478 -0.00753212 -0.00026083  -0.00134355 -0.0099152 -0.000271797  -0.00163227 -0.0125502 -0.000274658  -0.00192618 -0.015428 -0.000273228  -0.00222385 -0.0185376 -0.000269413  -0.00252569 -0.0218759 -0.000264168  -0.00283265 -0.0254344 -0.000257492  -0.00314546 -0.0292084 -0.000246525  -0.00346273 -0.0331879 -0.000236034  -0.00378507 -0.0373671 -0.00022316  -0.00411427 -0.0417404 -0.000212193  -0.00444901 -0.0462991 -0.000205517  -0.0047884 -0.0510357 -0.000194073  -0.00513387 -0.0559422 -0.000186443  -0.00548613 -0.0610143 -0.000170708  -0.00584507 -0.0662409 -0.000164032  -0.00620985 -0.0716157 -0.000151157  -0.00658119 -0.0771336 -0.00014782  -0.00695968 -0.0827839 -0.000137329  -0.00734389 -0.0885597 -0.000119209  -0.00773454 -0.0944569 -0.000116348  -0.00812924 -0.10047 -0.000106812  -0.00852644 -0.106587 -9.72748e-05  -0.00892937 -0.112805 -9.01222e-05  -0.00933754 -0.119118 -8.10623e-05  -0.00974822 -0.125518 -7.58171e-05  -0.0101625 -0.132004 -7.43866e-05  -0.0105808 -0.138563 -6.4373e-05  -0.0110023 -0.145195 -6.00815e-05  -0.0114269 -0.151895 -5.24521e-05  -0.0118544 -0.158652 -3.8147e-05  -0.0122848 -0.165468 -3.00407e-05  -0.0127153 -0.172334 -2.0504e-05  -0.0131464 -0.179249 -1.95503e-05  -0.0135782 -0.186205 -1.23978e-05  -0.0140107 -0.193199 -9.53674e-07  -0.0144432 -0.200228 -4.76837e-07  -0.0148745 -0.207287 2.86102e-06  -0.0153069 -0.214373 1.19209e-05  -0.0157387 -0.221482 2.09808e-05  -0.0161707 -0.228608 2.47955e-05  -0.0166035 -0.235751 3.48091e-05  -0.0170348 -0.242909 3.38554e-05  -0.0174634 -0.250079 3.8147e-05  -0.017889 -0.257254 4.1008e-05  -0.0183141 -0.264432 4.86374e-05  -0.0187385 -0.271612 5.48363e-05  -0.019161 -0.278794 6.00815e-05  -0.0195823 -0.285975 6.62804e-05  -0.0200024 -0.293151 6.91414e-05  -0.0204215 -0.300325 7.62939e-05  -0.0208375 -0.307491 7.67708e-05  -0.0212519 -0.31465 7.72476e-05  -0.0216653 -0.321799 8.39233e-05  -0.0220771 -0.328938 8.86917e-05  -0.0224857 -0.336068 9.15527e-05  -0.0228932 -0.343184 9.53674e-05  -0.0232999 -0.350291 9.9659e-05  -0.0237048 -0.357381 0.000105381  0 0 0  8.67993e-06 -0.000186861 -3.8147e-06  2.89381e-05 -0.000895977 -1.90735e-06  5.46277e-05 -0.00204244 -5.24521e-06  8.12411e-05 -0.00355354 -8.10623e-06  0.000105143 -0.00538874 -8.10623e-06  0.000122577 -0.00751138 -1.38283e-05  0.000131071 -0.00990248 -1.28746e-05  0.000128746 -0.0125482 -1.14441e-05  0.000113964 -0.0154341 -1.33514e-05  8.51154e-05 -0.0185558 -1.33514e-05  4.23193e-05 -0.021905 -6.67572e-06  -1.43051e-05 -0.0254755 -1.38283e-05  -8.56519e-05 -0.0292618 -2.00272e-05  -0.000171363 -0.0332524 -1.81198e-05  -0.000272274 -0.0374444 -1.23978e-05  -0.000388443 -0.0418315 -1.38283e-05  -0.000519633 -0.0464019 -1.71661e-05  -0.000666738 -0.051152 -1.04904e-05  -0.000828028 -0.0560707 -7.15256e-06  -0.00100315 -0.0611552 0  -0.0011934 -0.0663944 -9.53674e-07  -0.00139856 -0.0717808 9.53674e-07  -0.00161707 -0.0773109 1.90735e-06  -0.00184762 -0.0829739 2.86102e-06  -0.00209224 -0.0887631 1.04904e-05  -0.00234914 -0.0946727 9.05991e-06  -0.00261688 -0.100696 1.00136e-05  -0.00289619 -0.106824 7.15256e-06  -0.00318801 -0.113054 1.43051e-05  -0.00348973 -0.119378 1.14441e-05  -0.00380087 -0.125788 2.14577e-05  -0.00412071 -0.132284 1.7643e-05  -0.00444889 -0.138855 1.95503e-05  -0.00478625 -0.145494 2.00272e-05  -0.00513124 -0.152203 2.28882e-05  -0.00548315 -0.158968 3.33786e-05  -0.00584221 -0.16579 3.05176e-05  -0.00620914 -0.172664 3.52859e-05  -0.0065825 -0.179586 3.19481e-05  -0.00695968 -0.186548 4.1008e-05  -0.00734043 -0.193549 3.57628e-05  -0.00772643 -0.200584 4.05312e-05  -0.00811672 -0.207648 4.29153e-05  -0.00851035 -0.214739 4.52995e-05  -0.00890684 -0.221851 5.10216e-05  -0.00930619 -0.228982 5.48363e-05  -0.00970769 -0.236129 5.34058e-05  -0.010112 -0.243291 5.62668e-05  -0.0105178 -0.250464 5.53131e-05  -0.0109243 -0.257641 5.53131e-05  -0.0113306 -0.264821 5.72205e-05  -0.0117376 -0.272004 6.77109e-05  -0.012146 -0.279189 6.34193e-05  -0.0125539 -0.286371 7.39098e-05  -0.0129619 -0.293548 7.39098e-05  -0.0133705 -0.300724 7.96318e-05  -0.0137808 -0.307892 7.9155e-05  -0.0141909 -0.31505 8.39233e-05  -0.0145986 -0.322199 8.67844e-05  -0.0150042 -0.32934 9.20296e-05  -0.0154097 -0.336469 9.29832e-05  -0.0158153 -0.343586 0.000100613  -0.0162196 -0.350691 9.72748e-05  -0.0166214 -0.357782 0.000107288  0 0 0  6.91712e-05 -0.000229418 6.48499e-05  0.000228718 -0.000970185 0.000125408  0.000453636 -0.00213885 0.000164032  0.000720233 -0.00366658 0.000202179  0.0010094 -0.00551271 0.000226021  0.00130671 -0.00764233 0.000235558  0.00160059 -0.0100396 0.000248909  0.00188208 -0.0126895 0.000247955  0.00214571 -0.0155808 0.000246525  0.00238776 -0.0187069 0.000247478  0.00260663 -0.0220628 0.000239372  0.00280029 -0.025639 0.000228882  0.00296932 -0.0294318 0.000213623  0.0031141 -0.033429 0.000203133  0.00323337 -0.0376285 0.000199318  0.00332761 -0.0420225 0.000191689  0.00339818 -0.046602 0.000188351  0.00344694 -0.0513597 0.000178337  0.00347149 -0.056289 0.0001688  0.00347185 -0.0613792 0.000164986  0.00344968 -0.066629 0.000157356  0.00340664 -0.0720244 0.000154018  0.00334346 -0.0775622 0.000146389  0.00325906 -0.0832341 0.000147343  0.00315487 -0.0890338 0.000143528  0.0030309 -0.0949514 0.000139713  0.00288808 -0.100983 0.000127792  0.00272787 -0.107119 0.000124931  0.00254917 -0.113357 0.000115395  0.00235474 -0.119688 0.000118256  0.00214386 -0.126108 0.000108719  0.00191712 -0.132609 0.000105381  0.00167704 -0.139188 0.000100613  0.00142407 -0.145833 9.87053e-05  0.00115705 -0.152547 9.63211e-05  0.00087738 -0.159319 9.15527e-05  0.000586987 -0.166146 9.72748e-05  0.000285625 -0.173025 8.82149e-05  -2.47955e-05 -0.179952 8.67844e-05  -0.000344992 -0.186918 8.01086e-05  -0.000675678 -0.193924 8.10623e-05  -0.00101399 -0.200962 7.9155e-05  -0.00136209 -0.20803 8.15392e-05  -0.00171781 -0.215123 8.15392e-05  -0.00207901 -0.222238 8.10623e-05  -0.00244641 -0.229372 8.53539e-05  -0.00281906 -0.236523 8.10623e-05  -0.003196 -0.243686 8.01086e-05  -0.00357747 -0.250861 7.58171e-05  -0.00396156 -0.258037 6.91414e-05  -0.00434852 -0.26522 7.58171e-05  -0.00473857 -0.272405 7.05719e-05  -0.00513196 -0.27959 7.53403e-05  -0.00552845 -0.286773 7.53403e-05  -0.00592685 -0.293951 7.53403e-05  -0.00632691 -0.301126 8.10623e-05  -0.00672674 -0.308295 8.53539e-05  -0.00712824 -0.315455 8.96454e-05  -0.00753093 -0.322602 8.91685e-05  -0.00793624 -0.329742 9.53674e-05  -0.00834084 -0.336871 9.72748e-05  -0.00874448 -0.343989 9.77516e-05  -0.00914621 -0.351094 9.72748e-05  -0.00954533 -0.358186 9.82285e-05  0 0 0  0.000130922 -0.000329375 0.000133514  0.000435174 -0.00114548 0.000250816  0.000864342 -0.00236279 0.000342846  0.00137684 -0.00392437 0.000407696  0.00193691 -0.00578731 0.000456333  0.00251657 -0.00792664 0.000487328  0.00309446 -0.0103257 0.000498772  0.00365728 -0.0129755 0.000511169  0.004197 -0.0158663 0.000501633  0.00470871 -0.0189899 0.000494003  0.00518787 -0.0223464 0.000483513  0.00563198 -0.0259228 0.00046587  0.00603986 -0.0297162 0.000445843  0.0064134 -0.0337161 0.00042963  0.0067535 -0.0379179 0.000408649  0.00705993 -0.0423147 0.000396252  0.00733387 -0.0468976 0.000383854  0.00757432 -0.0516593 0.000366211  0.00778174 -0.056595 0.000349522  0.00795937 -0.0616884 0.000332832  0.00810623 -0.0669446 0.000319004  0.00822389 -0.0723465 0.000305176  0.00831318 -0.0778877 0.00029707  0.00837541 -0.083566 0.000288486  0.00841033 -0.0893705 0.000283241  0.0084188 -0.095294 0.000265598  0.00840247 -0.10133 0.000255585  0.00836051 -0.107473 0.000236988  0.00829518 -0.113714 0.000223637  0.00820804 -0.12005 0.000216007  0.00809848 -0.126475 0.000205994  0.00796819 -0.13298 0.000194073  0.00781608 -0.139564 0.000181198  0.00764537 -0.146213 0.000174046  0.00745702 -0.15293 0.000175476  0.00725317 -0.159705 0.000161171  0.00703216 -0.166537 0.000153065  0.00679493 -0.173419 0.00014925  0.00654292 -0.180347 0.000139713  0.00627613 -0.187316 0.000138283  0.00599551 -0.194323 0.000127792  0.00570178 -0.201365 0.000124931  0.00539827 -0.208433 0.000119209  0.00508428 -0.215527 0.00011301  0.0047586 -0.222644 0.00011158  0.0044241 -0.229779 0.000105381  0.0040803 -0.236932 0.000108719  0.00372887 -0.244095 0.000103474  0.00337172 -0.251269 9.15527e-05  0.00300908 -0.258446 9.15527e-05  0.00263953 -0.265629 8.82149e-05  0.00226569 -0.272815 8.2016e-05  0.00188684 -0.279999 8.39233e-05  0.00150323 -0.287181 8.7738e-05  0.00111628 -0.294361 8.58307e-05  0.000725269 -0.301533 8.7738e-05  0.00033021 -0.308701 8.86917e-05  -6.67572e-05 -0.315861 8.96454e-05  -0.000465393 -0.323007 9.39369e-05  -0.000864983 -0.330147 9.29832e-05  -0.00126553 -0.337276 9.39369e-05  -0.00166655 -0.344396 9.39369e-05  -0.00206447 -0.351502 9.91821e-05  -0.00246024 -0.358594 9.77516e-05  0 0 0  0.000197746 -0.000496149 0.000204086  0.000659049 -0.0014286 0.000373363  0.00130701 -0.00272435 0.000515461  0.00207436 -0.00433165 0.000611782  0.00290892 -0.00621736 0.000688076  0.00377229 -0.00836486 0.000731468  0.00463554 -0.010762 0.000759125  0.00548112 -0.0134055 0.000762463  0.0062964 -0.0162885 0.000760078  0.00707304 -0.0194043 0.000747681  0.00780815 -0.0227541 0.0007267  0.00849944 -0.0263256 0.000702858  0.00914735 -0.0301136 0.000677109  0.0097512 -0.0341118 0.000651836  0.0103096 -0.0383112 0.000629425  0.0108232 -0.042707 0.000601768  0.0112954 -0.047289 0.000576496  0.0117289 -0.0520519 0.000546932  0.0121223 -0.056988 0.000531197  0.0124754 -0.0620838 0.000504971  0.01279 -0.0673405 0.000483513  0.0130689 -0.072745 0.000465393  0.0133114 -0.0782885 0.000449657  0.0135173 -0.083968 0.000427246  0.0136899 -0.0897746 0.000412464  0.0138294 -0.0957011 0.000396252  0.0139376 -0.101739 0.00037384  0.0140156 -0.107883 0.000353813  0.0140626 -0.114126 0.000330448  0.0140802 -0.120464 0.000315189  0.0140711 -0.126891 0.00029707  0.0140352 -0.133398 0.000279903  0.0139725 -0.139983 0.00026226  0.013886 -0.146635 0.000253677  0.0137768 -0.153353 0.000245571  0.0136449 -0.160129 0.000233173  0.0134919 -0.166963 0.000214577  0.0133178 -0.173844 0.000205517  0.0131238 -0.180772 0.000194073  0.0129113 -0.187741 0.000184059  0.012681 -0.19475 0.000173569  0.0124352 -0.20179 0.000164986  0.0121734 -0.208858 0.000159264  0.0118976 -0.215951 0.00014925  0.0116086 -0.223069 0.00014019  0.0113068 -0.230203 0.000135899  0.0109911 -0.237355 0.000127316  0.0106659 -0.244517 0.00012207  0.0103316 -0.25169 0.000113487  0.00998902 -0.258867 0.000105858  0.00963664 -0.266048 9.91821e-05  0.00927591 -0.273232 9.82285e-05  0.0089097 -0.280415 9.34601e-05  0.00853825 -0.287595 9.10759e-05  0.00816131 -0.294776 9.20296e-05  0.0077796 -0.301945 9.20296e-05  0.00739336 -0.309112 9.44138e-05  0.00700188 -0.31627 9.53674e-05  0.00660777 -0.323418 9.48906e-05  0.00621176 -0.330556 9.53674e-05  0.00581574 -0.337684 9.58443e-05  0.00541711 -0.344804 9.82285e-05  0.00501704 -0.351911 0.000100136  0.00462103 -0.359006 9.34601e-05  0 0 0  0.000274338 -0.000743985 0.000267982  0.000910535 -0.00183922 0.000499725  0.00179365 -0.00323659 0.000680923  0.00283113 -0.00489819 0.000824451  0.00395146 -0.0068059 0.000916958  0.00510383 -0.00895613 0.000978947  0.00625384 -0.0113454 0.00101042  0.00737906 -0.0139756 0.00102234  0.00846595 -0.0168434 0.00101709  0.00950617 -0.0199462 0.00099802  0.0104954 -0.0232831 0.000974655  0.0114309 -0.0268443 0.000946522  0.0123124 -0.0306222 0.000911236  0.0131407 -0.0346131 0.000874043  0.0139167 -0.0388069 0.000843048  0.0146405 -0.043197 0.000810623  0.0153133 -0.0477763 0.000770092  0.0159352 -0.052536 0.000743389  0.0165086 -0.0574676 0.000709534  0.0170367 -0.0625628 0.000678539  0.0175196 -0.0678171 0.000647068  0.0179569 -0.0732192 0.000622272  0.01835 -0.0787634 0.00059557  0.0187011 -0.0844408 0.000572681  0.0190111 -0.0902453 0.000547409  0.0192827 -0.0961714 0.000522614  0.0195153 -0.102208 0.000498772  0.0197099 -0.108351 0.000465393  0.0198684 -0.114594 0.000439167  0.0199913 -0.120932 0.000415325  0.0200801 -0.127357 0.000395298  0.0201368 -0.133862 0.000370502  0.0201623 -0.140446 0.000352383  0.0201581 -0.147099 0.000329494  0.0201266 -0.153814 0.000316143  0.0200672 -0.160592 0.000296116  0.0199814 -0.167422 0.000281334  0.0198708 -0.174302 0.000265598  0.0197358 -0.181228 0.000254631  0.0195754 -0.188196 0.000238895  0.0193925 -0.195203 0.000226021  0.019192 -0.202238 0.000208378  0.0189719 -0.209306 0.000192642  0.0187333 -0.216398 0.000184059  0.0184782 -0.223512 0.00017643  0.0182056 -0.230645 0.000159264  0.0179179 -0.237794 0.000145435  0.0176182 -0.244953 0.000142574  0.0173056 -0.252122 0.000135899  0.0169811 -0.259298 0.000126362  0.0166464 -0.266476 0.000115395  0.0163014 -0.273658 0.000108719  0.0159478 -0.280839 0.000105858  0.0155878 -0.288018 0.000104904  0.0152199 -0.295196 9.67979e-05  0.0148444 -0.302362 8.96454e-05  0.0144622 -0.309526 9.20296e-05  0.0140769 -0.316682 9.9659e-05  0.0136881 -0.32383 9.77516e-05  0.0132954 -0.330969 9.39369e-05  0.0128992 -0.338095 0.000101089  0.0125012 -0.345213 0.000102043  0.0121033 -0.352321 9.29832e-05  0.0117054 -0.359421 9.53674e-05  0 0 0  0.000363976 -0.00109583 0.000332832  0.00120893 -0.00240499 0.00061655  0.0023573 -0.0039202 0.000850201  0.00368512 -0.00563556 0.00102329  0.00510058 -0.00755632 0.00114775  0.00654355 -0.00969905 0.00122452  0.00797629 -0.0120713 0.00126648  0.00937641 -0.01468 0.00128031  0.01073 -0.0175257 0.00126982  0.0120277 -0.0206096 0.00125217  0.0132651 -0.0239278 0.0012269  0.0144402 -0.0274742 0.00118732  0.0155551 -0.0312374 0.00114918  0.0166076 -0.0352169 0.00109816  0.0175968 -0.0394017 0.00105429  0.0185251 -0.0437821 0.00101709  0.0193946 -0.0483544 0.000971317  0.0202078 -0.0531079 0.000927925  0.0209651 -0.0580328 0.000889778  0.021666 -0.0631235 0.000859261  0.0223129 -0.068372 0.000818253  0.0229074 -0.0737693 0.000781536  0.0234506 -0.0793096 0.000745773  0.0239445 -0.0849824 0.000709534  0.0243907 -0.0907817 0.000685692  0.0247895 -0.0967033 0.000654221  0.0251435 -0.102736 0.00061655  0.0254543 -0.108876 0.000582695  0.0257226 -0.115116 0.000545025  0.0259494 -0.12145 0.000518799  0.0261369 -0.127872 0.000492573  0.0262856 -0.134373 0.000463009  0.026397 -0.140954 0.000436306  0.0264745 -0.147602 0.000411987  0.0265179 -0.154315 0.000388145  0.0265288 -0.161089 0.000366211  0.0265088 -0.167916 0.000342846  0.026458 -0.174792 0.000324249  0.0263796 -0.181713 0.000310421  0.0262737 -0.188678 0.000287056  0.0261419 -0.195681 0.000267982  0.0259845 -0.202712 0.000255108  0.0258043 -0.209776 0.000244141  0.0256026 -0.216864 0.000225067  0.025378 -0.223974 0.000205994  0.0251346 -0.231103 0.000186443  0.0248742 -0.238248 0.000170708  0.0245974 -0.245403 0.00015831  0.0243056 -0.252567 0.00014925  0.0239992 -0.259739 0.000140667  0.0236788 -0.266916 0.000126839  0.0233469 -0.274092 0.000123024  0.0230036 -0.28127 0.000119686  0.02265 -0.288446 0.000109673  0.0222893 -0.295619 0.00010252  0.0219219 -0.302784 9.39369e-05  0.0215466 -0.309945 9.9659e-05  0.0211656 -0.317098 0.000100136  0.0207787 -0.324245 9.91821e-05  0.0203888 -0.331381 9.87053e-05  0.0199964 -0.338507 0.000102997  0.0195992 -0.345624 0.000101089  0.0191996 -0.352733 9.48906e-05  0.0188017 -0.359836 9.77516e-05  0 0 0  0.00048279 -0.00159115 0.000397205  0.00157987 -0.00316423 0.000742912  0.00303902 -0.00480217 0.00101995  0.00467646 -0.00655365 0.00122738  0.00638911 -0.00846946 0.00137663  0.00811794 -0.01059 0.001472  0.00982705 -0.0129338 0.00152826  0.0114941 -0.015512 0.00153589  0.0131066 -0.0183294 0.00153589  0.0146569 -0.0213884 0.00150919  0.0161393 -0.0246832 0.0014739  0.0175526 -0.0282098 0.00142574  0.018895 -0.0319557 0.00137949  0.0201666 -0.0359191 0.00132465  0.0213693 -0.0400916 0.00127554  0.0225023 -0.0444606 0.00122499  0.0235661 -0.0490219 0.0011673  0.0245639 -0.0537643 0.00112009  0.0254974 -0.0586805 0.00107431  0.0263681 -0.0637636 0.00103188  0.0271796 -0.0690026 0.000991344  0.0279319 -0.0743925 0.000946045  0.0286251 -0.0799249 0.000893593  0.0292603 -0.0855908 0.000853062  0.0298405 -0.0913825 0.000817299  0.0303669 -0.0972971 0.000777721  0.0308415 -0.103323 0.000738144  0.0312659 -0.109457 0.000699997  0.0316416 -0.11569 0.00066185  0.0319711 -0.122018 0.000623226  0.0322541 -0.128434 0.000588894  0.0324917 -0.134931 0.000558376  0.0326877 -0.141504 0.000526905  0.0328441 -0.148145 0.000491619  0.0329626 -0.154853 0.000462055  0.0330424 -0.16162 0.000434399  0.0330856 -0.168442 0.000416756  0.0330949 -0.175312 0.000387669  0.0330718 -0.182228 0.000368118  0.0330164 -0.189186 0.0003438  0.0329304 -0.196182 0.000318527  0.0328162 -0.203208 0.0002985  0.0326738 -0.210266 0.000278473  0.0325053 -0.217348 0.000264168  0.0323131 -0.224452 0.000236034  0.0320978 -0.231576 0.000213146  0.0318613 -0.238715 0.000203133  0.0316064 -0.245865 0.000185013  0.031333 -0.253022 0.00016737  0.0310426 -0.26019 0.000160694  0.0307362 -0.267362 0.000145435  0.0304151 -0.274534 0.00013113  0.0300808 -0.281706 0.000127316  0.0297356 -0.288879 0.00012207  0.0293808 -0.296046 0.000108242  0.029017 -0.30321 0.000105381  0.028646 -0.310367 0.000106335  0.0282664 -0.317516 0.00010252  0.0278804 -0.324661 0.000101566  0.0274906 -0.331794 0.000106812  0.0270977 -0.338919 0.000101089  0.0267015 -0.346036 9.53674e-05  0.0263038 -0.353146 0.000102997  0.0259061 -0.360253 0.000100136  0 0 0  0.000623986 -0.0022946 0.000466347  0.00209187 -0.00418401 0.00087738  0.00390343 -0.00590277 0.00120306  0.00585487 -0.00765151 0.00144196  0.0078561 -0.00953656 0.00160933  0.00985739 -0.0116169 0.00172234  0.0118298 -0.0139216 0.00178242  0.0137543 -0.0164618 0.00179863  0.0156187 -0.019246 0.00179005  0.0174144 -0.0222756 0.00176334  0.0191357 -0.0255442 0.00172091  0.02078 -0.0290449 0.00167084  0.0223472 -0.0327729 0.001616  0.0238354 -0.036716 0.0015583  0.0252454 -0.0408726 0.00149822  0.0265789 -0.0452269 0.00143194  0.0278367 -0.0497746 0.00137091  0.0290202 -0.0545034 0.00131273  0.0301307 -0.0594085 0.00126123  0.0311702 -0.0644804 0.00121021  0.0321412 -0.0697063 0.00116014  0.0330458 -0.0750856 0.00110292  0.0338856 -0.0806077 0.00104856  0.0346609 -0.086264 0.00100088  0.0353732 -0.092046 0.000954151  0.0360252 -0.0979492 0.000912189  0.0366185 -0.103967 0.000864506  0.0371552 -0.110092 0.000815868  0.0376375 -0.116315 0.000772953  0.0380663 -0.122633 0.000728607  0.0384427 -0.129042 0.00069046  0.03877 -0.135531 0.000652313  0.0390499 -0.142093 0.000613213  0.0392835 -0.148728 0.000570297  0.0394714 -0.155426 0.000536919  0.039618 -0.162185 0.00050354  0.0397246 -0.168998 0.000476837  0.0397902 -0.175862 0.000449181  0.0398173 -0.18277 0.000421524  0.0398092 -0.189719 0.000393867  0.039767 -0.196704 0.000370979  0.0396922 -0.203724 0.0003438  0.0395854 -0.210775 0.000320911  0.0394506 -0.217849 0.00029707  0.0392885 -0.224945 0.000263691  0.0391009 -0.232063 0.00024271  0.0388877 -0.239197 0.000227451  0.0386515 -0.246335 0.000206947  0.0383942 -0.253487 0.000191212  0.0381179 -0.260648 0.000171185  0.0378225 -0.267814 0.000164032  0.0375102 -0.274981 0.000145435  0.037184 -0.282145 0.000131607  0.0368435 -0.289313 0.000121593  0.0364919 -0.296474 0.000118256  0.036128 -0.303635 0.000109673  0.0357559 -0.310787 0.000114918  0.035378 -0.317934 0.000109196  0.0349944 -0.325075 0.00010252  0.034605 -0.332208 0.000107288  0.0342107 -0.33933 0.000108242  0.0338132 -0.346446 0.000103474  0.0334129 -0.35356 0.000101566  0.0330124 -0.36067 9.9659e-05  0 0 0  0.0010943 -0.00339669 0.000576973  0.00299166 -0.00548011 0.00103855  0.00510876 -0.00720036 0.00138855  0.00731674 -0.00890058 0.00165558  0.00955746 -0.0107307 0.00183916  0.0117968 -0.0127597 0.00196457  0.0140092 -0.0150169 0.00203133  0.0161749 -0.0175176 0.0020566  0.0182787 -0.0202644 0.00204945  0.0203113 -0.0232639 0.00202036  0.0222661 -0.026502 0.00197077  0.0241382 -0.0299767 0.00191593  0.0259255 -0.0336815 0.0018568  0.027628 -0.0376044 0.00178957  0.029245 -0.0417405 0.00172091  0.0307766 -0.0460777 0.00164747  0.0322227 -0.0506092 0.00157404  0.033587 -0.0553214 0.00150919  0.0348712 -0.0602118 0.00145102  0.0360776 -0.0652701 0.00138903  0.0372084 -0.0704792 0.00132465  0.038263 -0.075847 0.00126219  0.0392444 -0.0813551 0.00120544  0.0401562 -0.0869988 0.00114536  0.0410005 -0.0927691 0.00108957  0.0417776 -0.098658 0.00104237  0.0424885 -0.104665 0.000990391  0.0431356 -0.110778 0.000940323  0.0437195 -0.116989 0.000887394  0.0442445 -0.123296 0.000837326  0.044713 -0.129694 0.000796795  0.0451257 -0.136172 0.000745773  0.0454853 -0.142721 0.000698566  0.0457938 -0.149346 0.000653744  0.0460536 -0.156034 0.000612736  0.0462632 -0.162782 0.000578403  0.0464265 -0.169583 0.000543594  0.0465477 -0.176438 0.000510693  0.0466273 -0.183335 0.000475883  0.046665 -0.190275 0.000451565  0.0466633 -0.197247 0.000418186  0.0466247 -0.204258 0.000391006  0.0465543 -0.211298 0.000360489  0.0464497 -0.218367 0.000329018  0.046313 -0.225452 0.000298977  0.0461457 -0.232561 0.000272751  0.0459518 -0.239687 0.000248432  0.0457351 -0.246816 0.000227451  0.0454926 -0.25396 0.000209332  0.0452268 -0.26111 0.000192165  0.0449395 -0.26827 0.000173092  0.0446339 -0.275431 0.00015831  0.0443122 -0.282587 0.000142574  0.0439756 -0.289747 0.000134468  0.0436254 -0.296901 0.000123501  0.0432627 -0.304058 0.000116348  0.0428898 -0.311206 0.000116348  0.0425069 -0.31835 0.000107765  0.0421183 -0.325487 0.000106812  0.0417252 -0.332617 0.000112534  0.0413289 -0.33974 0.000108242  0.0409296 -0.346855 0.000108719  0.0405285 -0.353973 9.9659e-05  0.0401287 -0.361085 0.00010252  0 0 0  -0.00113811 -0.00329978 -0.000300884  -0.00303642 -0.00529219 -0.000538349  -0.00513902 -0.00694248 -0.000720024  -0.00733213 -0.00856713 -0.00085783  -0.00956443 -0.0103104 -0.000955582  -0.0118079 -0.0122365 -0.00101376  -0.0140421 -0.0143764 -0.00105906  -0.0162511 -0.0167495 -0.00106907  -0.018421 -0.0193574 -0.0010705  -0.0205429 -0.0222006 -0.00105762  -0.0226114 -0.0252781 -0.00103188  -0.0246223 -0.0285802 -0.0010004  -0.0265734 -0.032107 -0.000965595  -0.0284625 -0.0358468 -0.000934124  -0.0302919 -0.0397935 -0.000895977  -0.0320628 -0.0439379 -0.000861168  -0.033775 -0.0482699 -0.000826359  -0.0354321 -0.0527917 -0.000785828  -0.0370365 -0.0574839 -0.000748634  -0.0385906 -0.0623421 -0.000715256  -0.0400951 -0.0673655 -0.000676155  -0.0415497 -0.0725408 -0.000633717  -0.0429572 -0.0778653 -0.000594139  -0.0443184 -0.0833195 -0.000563145  -0.0456349 -0.0889113 -0.00053072  -0.0469077 -0.0946262 -0.000495434  -0.0481391 -0.100465 -0.00046587  -0.0493306 -0.106411 -0.000433922  -0.0504829 -0.112468 -0.000407696  -0.0515928 -0.118618 -0.000384808  -0.0526649 -0.124866 -0.000358105  -0.0537003 -0.1312 -0.000341892  -0.0547013 -0.137621 -0.000312805  -0.0556681 -0.144117 -0.000291348  -0.0566001 -0.150683 -0.000266075  -0.0574999 -0.157318 -0.000245571  -0.058368 -0.164014 -0.000229359  -0.059206 -0.17077 -0.000202179  -0.0600126 -0.177572 -0.00017786  -0.0607889 -0.184426 -0.000161171  -0.0615377 -0.191324 -0.000143528  -0.0622592 -0.19826 -0.000128269  -0.0629516 -0.205232 -0.000110149  -0.0636189 -0.212236 -9.87053e-05  -0.0642645 -0.219268 -7.48634e-05  -0.0648878 -0.226326 -5.29289e-05  -0.0654879 -0.233404 -4.29153e-05  -0.066066 -0.240501 -2.95639e-05  -0.0666242 -0.247614 -1.23978e-05  -0.0671606 -0.254734 -7.62939e-06  -0.0676792 -0.261869 1.04904e-05  -0.068182 -0.269009 1.57356e-05  -0.0686684 -0.276156 3.19481e-05  -0.0691395 -0.283301 3.43323e-05  -0.0695987 -0.290448 4.91142e-05  -0.0700476 -0.297598 5.81741e-05  -0.0704873 -0.304739 6.7234e-05  -0.0709181 -0.311878 7.58171e-05  -0.0713406 -0.319016 7.67708e-05  -0.0717568 -0.326144 8.4877e-05  -0.0721688 -0.333267 9.77516e-05  -0.0725796 -0.340385 0.000100136  -0.0729892 -0.347497 0.000106335  -0.0733981 -0.354609 0.000108242  0 0 0  -0.000633229 -0.00217488 -0.000237465  -0.00208585 -0.00398213 -0.000452518  -0.0038691 -0.00563703 -0.000617027  -0.00579278 -0.00732281 -0.000744343  -0.00777587 -0.00913592 -0.000834465  -0.00977531 -0.0111328 -0.000888824  -0.0117647 -0.0133392 -0.000928879  -0.0137273 -0.0157764 -0.000937939  -0.0156533 -0.0184447 -0.000931263  -0.0175345 -0.021346 -0.00092411  -0.0193666 -0.0244778 -0.000898838  -0.0211477 -0.0278339 -0.000877857  -0.022876 -0.0314108 -0.000844955  -0.0245526 -0.0351996 -0.000815392  -0.026177 -0.0391938 -0.00078392  -0.0277492 -0.0433823 -0.000745773  -0.0292727 -0.0477611 -0.000713825  -0.0307506 -0.0523248 -0.000686646  -0.0321829 -0.0570602 -0.000650883  -0.0335712 -0.0619621 -0.000629425  -0.0349187 -0.0670244 -0.000585079  -0.0362256 -0.0722393 -0.000549316  -0.0374916 -0.0775987 -0.000522137  -0.0387177 -0.0830914 -0.00048542  -0.0399084 -0.0887199 -0.000459671  -0.0410644 -0.0944697 -0.000427723  -0.0421846 -0.100341 -0.000398636  -0.0432683 -0.106321 -0.00037241  -0.0443187 -0.112408 -0.000349998  -0.0453364 -0.118588 -0.000335217  -0.0463229 -0.124867 -0.000314236  -0.047277 -0.131229 -0.000292778  -0.0482011 -0.137679 -0.000274658  -0.0490961 -0.1442 -0.000249863  -0.0499623 -0.15079 -0.000231743  -0.050801 -0.157449 -0.000208855  -0.0516131 -0.164168 -0.00018692  -0.0523984 -0.170944 -0.000172615  -0.0531578 -0.177769 -0.000152111  -0.053894 -0.184642 -0.000133514  -0.0546041 -0.191558 -0.000119686  -0.0552883 -0.198512 -0.000104427  -0.0559514 -0.2055 -8.91685e-05  -0.0565939 -0.212519 -7.9155e-05  -0.0572155 -0.219566 -6.1512e-05  -0.0578165 -0.226638 -4.91142e-05  -0.058398 -0.233728 -2.81334e-05  -0.0589614 -0.240838 -1.57356e-05  -0.0595062 -0.24796 -3.33786e-06  -0.0600352 -0.255093 1.43051e-06  -0.060549 -0.262235 1.81198e-05  -0.0610464 -0.269383 2.95639e-05  -0.0615306 -0.276537 3.67165e-05  -0.0620012 -0.283687 4.19617e-05  -0.0624604 -0.290841 5.29289e-05  -0.0629101 -0.297993 6.38962e-05  -0.0633504 -0.305139 6.96182e-05  -0.0637846 -0.312282 7.29561e-05  -0.0642128 -0.319419 8.24928e-05  -0.0646341 -0.326549 8.72612e-05  -0.0650496 -0.333673 9.15527e-05  -0.0654604 -0.340791 9.87053e-05  -0.0658703 -0.347902 0.000105381  -0.0662806 -0.35501 0.000104427  0 0 0  -0.000477798 -0.00146971 -0.000197887  -0.00154693 -0.00296547 -0.000371456  -0.00296682 -0.0045471 -0.000515938  -0.00456609 -0.0062457 -0.00063467  -0.00625178 -0.00810601 -0.000710011  -0.00797063 -0.0101592 -0.000761986  -0.00969014 -0.0124261 -0.000789165  -0.0113905 -0.01492 -0.000806808  -0.0130591 -0.0176443 -0.000796318  -0.0146905 -0.0205993 -0.000788212  -0.01628 -0.0237812 -0.000776291  -0.0178255 -0.0271855 -0.000748634  -0.0193264 -0.0308086 -0.000721455  -0.0207825 -0.0346416 -0.00069809  -0.0221959 -0.0386779 -0.000668049  -0.0235688 -0.0429081 -0.000637531  -0.0249025 -0.0473282 -0.000613689  -0.0261974 -0.0519298 -0.000584126  -0.0274553 -0.0567049 -0.000561714  -0.0286769 -0.0616445 -0.000533104  -0.0298631 -0.0667434 -0.000501156  -0.0310162 -0.0719927 -0.0004673  -0.0321383 -0.0773852 -0.000442982  -0.0332311 -0.0829135 -0.000413418  -0.0342931 -0.0885735 -0.000388145  -0.0353251 -0.0943566 -0.000365734  -0.0363284 -0.100257 -0.00033617  -0.037303 -0.106267 -0.00031805  -0.0382501 -0.112382 -0.000297546  -0.0391706 -0.118593 -0.00028038  -0.0400654 -0.124896 -0.000267506  -0.0409352 -0.131286 -0.000246048  -0.0417809 -0.137758 -0.000231743  -0.0426037 -0.144303 -0.000210762  -0.0434039 -0.150916 -0.000189781  -0.0441799 -0.157596 -0.000169754  -0.0449321 -0.164337 -0.000154495  -0.0456636 -0.171131 -0.000140667  -0.0463738 -0.177976 -0.000123978  -0.0470624 -0.184867 -0.000108719  -0.0477309 -0.1918 -8.86917e-05  -0.0483801 -0.19877 -7.96318e-05  -0.0490098 -0.205774 -7.43866e-05  -0.0496197 -0.212807 -6.38962e-05  -0.0502129 -0.219868 -4.52995e-05  -0.0507908 -0.226951 -3.05176e-05  -0.0513523 -0.234052 -2.57492e-05  -0.0518985 -0.241173 -8.58307e-06  -0.0524304 -0.248304 4.76837e-06  -0.0529475 -0.255448 1.38283e-05  -0.0534496 -0.262596 1.71661e-05  -0.053941 -0.269753 3.43323e-05  -0.0544202 -0.276911 4.24385e-05  -0.054888 -0.28407 4.91142e-05  -0.0553458 -0.291229 5.76973e-05  -0.055794 -0.298383 6.67572e-05  -0.0562353 -0.305533 6.53267e-05  -0.0566697 -0.312678 8.10623e-05  -0.0570965 -0.319819 8.39233e-05  -0.0575175 -0.32695 8.63075e-05  -0.0579343 -0.334075 8.7738e-05  -0.0583487 -0.341194 9.72748e-05  -0.0587592 -0.348303 0.000105381  -0.0591688 -0.355409 0.000107765  0 0 0  -0.000351917 -0.000988513 -0.000164986  -0.00116058 -0.00222714 -0.000308037  -0.0022634 -0.0036938 -0.000426769  -0.0035473 -0.00536691 -0.000529766  -0.00492832 -0.00724596 -0.000588894  -0.00635362 -0.00933655 -0.000628948  -0.00779009 -0.0116514 -0.000658035  -0.00921559 -0.0141919 -0.000668526  -0.0106181 -0.016965 -0.000666142  -0.0119911 -0.0199675 -0.000657082  -0.0133313 -0.0231935 -0.000640392  -0.0146362 -0.0266407 -0.000630379  -0.0159053 -0.0303048 -0.000601768  -0.0171398 -0.0341772 -0.000574589  -0.0183414 -0.0382517 -0.000553131  -0.0195101 -0.0425194 -0.000525475  -0.0206476 -0.0469763 -0.000506401  -0.0217553 -0.0516115 -0.000486374  -0.0228348 -0.0564215 -0.000461102  -0.0238872 -0.061394 -0.000442028  -0.0249132 -0.0665256 -0.000417709  -0.0259132 -0.0718056 -0.000389576  -0.0268877 -0.0772285 -0.000368595  -0.0278386 -0.0827888 -0.000345707  -0.0287689 -0.0884778 -0.000323296  -0.0296768 -0.094289 -0.000303268  -0.0305622 -0.100217 -0.000277519  -0.0314254 -0.106254 -0.00026226  -0.0322676 -0.112394 -0.000246048  -0.0330899 -0.118631 -0.000227928  -0.0338932 -0.124957 -0.000211239  -0.0346774 -0.13137 -0.000204563  -0.0354416 -0.137864 -0.000185013  -0.0361862 -0.14443 -0.000169754  -0.0369122 -0.151065 -0.000154495  -0.0376205 -0.157764 -0.000141144  -0.0383112 -0.164523 -0.00012207  -0.0389857 -0.171335 -0.000111103  -0.0396433 -0.1782 -9.44138e-05  -0.0402839 -0.185105 -8.58307e-05  -0.0409095 -0.192053 -7.20024e-05  -0.0415201 -0.199038 -5.8651e-05  -0.0421145 -0.206056 -5.24521e-05  -0.0426941 -0.213101 -3.91006e-05  -0.0432591 -0.220174 -3.19481e-05  -0.0438097 -0.227268 -2.14577e-05  -0.0443482 -0.23438 -7.62939e-06  -0.044874 -0.241509 1.90735e-06  -0.045388 -0.24865 1.19209e-05  -0.0458908 -0.255801 2.14577e-05  -0.0463812 -0.262958 2.95639e-05  -0.0468621 -0.270121 4.00543e-05  -0.047334 -0.277284 4.72069e-05  -0.0477967 -0.28445 5.96046e-05  -0.0482507 -0.291612 6.67572e-05  -0.048696 -0.29877 6.77109e-05  -0.0491338 -0.305924 7.43866e-05  -0.0495656 -0.313072 7.58171e-05  -0.0499916 -0.320215 8.82149e-05  -0.0504127 -0.327349 8.7738e-05  -0.0508311 -0.334474 9.10759e-05  -0.0512464 -0.341594 9.34601e-05  -0.0516591 -0.348702 0.000100613  -0.0520711 -0.355804 0.000102043  0 0 0  -0.000258092 -0.000656158 -0.000137329  -0.000854462 -0.00169417 -0.000248909  -0.00168854 -0.00305352 -0.000343323  -0.00267786 -0.00468399 -0.000419617  -0.00375924 -0.00656213 -0.000470638  -0.00488824 -0.00867425 -0.000506878  -0.00603473 -0.0110237 -0.000527859  -0.00717902 -0.0136011 -0.000540257  -0.00830972 -0.0164147 -0.00053978  -0.00941992 -0.0194561 -0.000530243  -0.0105053 -0.0227203 -0.000513077  -0.0115653 -0.026206 -0.000500202  -0.0126001 -0.0299049 -0.000487328  -0.0136091 -0.0338112 -0.000466347  -0.0145929 -0.0379195 -0.000444412  -0.015554 -0.0422201 -0.000423908  -0.0164943 -0.0467086 -0.00040102  -0.0174128 -0.0513738 -0.000386238  -0.0183102 -0.0562125 -0.000367641  -0.0191892 -0.0612155 -0.000352859  -0.0200511 -0.0663753 -0.000331402  -0.0208956 -0.0716833 -0.000317097  -0.0217239 -0.0771334 -0.000295162  -0.0225351 -0.0827199 -0.000275135  -0.0233296 -0.088436 -0.000258446  -0.0241096 -0.0942724 -0.000236988  -0.0248739 -0.100223 -0.000223637  -0.0256227 -0.106285 -0.000207901  -0.0263584 -0.112448 -0.000192642  -0.027079 -0.118707 -0.000176907  -0.0277852 -0.125055 -0.000167847  -0.0284789 -0.131488 -0.000157833  -0.0291595 -0.138001 -0.000144958  -0.0298264 -0.144585 -0.000133038  -0.0304809 -0.151241 -0.000123978  -0.031122 -0.157956 -0.000107765  -0.0317488 -0.164732 -9.72748e-05  -0.0323637 -0.17156 -8.67844e-05  -0.0329659 -0.178439 -6.81877e-05  -0.0335572 -0.18536 -6.10352e-05  -0.0341363 -0.192321 -5.72205e-05  -0.0347033 -0.199318 -4.43459e-05  -0.0352597 -0.206349 -2.81334e-05  -0.035804 -0.213405 -2.52724e-05  -0.036339 -0.220489 -1.57356e-05  -0.0368638 -0.227592 -2.38419e-06  -0.0373785 -0.234714 8.10623e-06  -0.037883 -0.241851 1.04904e-05  -0.0383773 -0.249 1.52588e-05  -0.038862 -0.256157 2.43187e-05  -0.0393403 -0.263322 3.71933e-05  -0.0398095 -0.270489 4.48227e-05  -0.0402694 -0.277658 5.29289e-05  -0.0407226 -0.284828 6.00815e-05  -0.0411692 -0.291995 6.7234e-05  -0.0416102 -0.299156 7.53403e-05  -0.0420468 -0.306315 7.53403e-05  -0.0424769 -0.313465 7.96318e-05  -0.0429015 -0.32061 8.4877e-05  -0.0433209 -0.327746 8.53539e-05  -0.0437357 -0.334873 8.24928e-05  -0.0441477 -0.341991 9.05991e-05  -0.0445588 -0.3491 9.87053e-05  -0.0449698 -0.356197 0.00010252  0 0 0  -0.000180461 -0.000432134 -0.000101566  -0.000599451 -0.00132316 -0.000192165  -0.00119433 -0.00259581 -0.000254631  -0.00191079 -0.00418338 -0.000310898  -0.00270343 -0.00605193 -0.000356197  -0.00353879 -0.00817493 -0.000386715  -0.00439391 -0.0105472 -0.000398159  -0.00525379 -0.0131547 -0.000410557  -0.00610757 -0.015999 -0.000406742  -0.00694948 -0.0190722 -0.000402927  -0.00777811 -0.0223681 -0.000391006  -0.00859076 -0.0258849 -0.000379086  -0.009386 -0.0296135 -0.000370502  -0.0101668 -0.0335497 -0.000355721  -0.0109332 -0.0376847 -0.000334263  -0.011686 -0.0420148 -0.00031662  -0.0124254 -0.0465285 -0.000302792  -0.0131525 -0.051221 -0.00028944  -0.0138681 -0.0560831 -0.000283241  -0.0145729 -0.0611122 -0.000266552  -0.0152674 -0.0662963 -0.000249863  -0.0159529 -0.0716287 -0.000234604  -0.0166292 -0.0771032 -0.000220776  -0.0172974 -0.0827124 -0.000206947  -0.0179571 -0.0884495 -0.000192165  -0.0186076 -0.0943102 -0.000182629  -0.0192505 -0.10028 -0.000169277  -0.0198847 -0.106363 -0.000150681  -0.0205096 -0.112546 -0.000144482  -0.0211272 -0.118824 -0.000130653  -0.0217365 -0.125191 -0.000124454  -0.0223372 -0.131642 -0.000116348  -0.0229309 -0.138171 -0.000108719  -0.0235171 -0.144773 -9.39369e-05  -0.0240953 -0.151445 -8.39233e-05  -0.0246656 -0.158177 -7.72476e-05  -0.0252285 -0.164966 -6.19888e-05  -0.0257819 -0.171808 -5.29289e-05  -0.0263283 -0.178699 -4.81606e-05  -0.0268691 -0.185634 -3.76701e-05  -0.0274012 -0.192605 -3.38554e-05  -0.0279253 -0.199614 -2.43187e-05  -0.028441 -0.206655 -1.28746e-05  -0.0289507 -0.213722 -3.8147e-06  -0.0294528 -0.220814 -1.90735e-06  -0.029948 -0.227926 1.23978e-05  -0.0304358 -0.235055 1.71661e-05  -0.0309167 -0.2422 2.24113e-05  -0.0313904 -0.249356 2.38419e-05  -0.0318577 -0.256519 3.57628e-05  -0.0323181 -0.263689 4.43459e-05  -0.0327709 -0.270862 4.72069e-05  -0.0332186 -0.278035 5.62668e-05  -0.033663 -0.285209 6.81877e-05  -0.0341024 -0.292379 6.86646e-05  -0.0345378 -0.299545 7.43866e-05  -0.0349684 -0.306706 7.9155e-05  -0.0353942 -0.31386 8.4877e-05  -0.0358145 -0.321006 8.86917e-05  -0.0362315 -0.328144 8.63075e-05  -0.0366464 -0.335271 8.67844e-05  -0.0370588 -0.342388 9.63211e-05  -0.0374711 -0.349497 9.72748e-05  -0.0378811 -0.35659 0.000104427  0 0 0  -0.00011301 -0.00029099 -7.10487e-05  -0.000376008 -0.00108379 -0.000121117  -0.000752732 -0.0022954 -0.000170231  -0.00121175 -0.00385073 -0.000213623  -0.00172588 -0.00570849 -0.000244617  -0.00227427 -0.00783861 -0.00026226  -0.00284111 -0.0102242 -0.000270367  -0.00341454 -0.0128552 -0.000273705  -0.00398934 -0.0157224 -0.000270367  -0.00456256 -0.0188202 -0.000275135  -0.00512946 -0.0221413 -0.000267506  -0.00569046 -0.0256813 -0.000259876  -0.00624669 -0.0294346 -0.000253677  -0.00679666 -0.033394 -0.000237942  -0.00734127 -0.0375523 -0.000229359  -0.00788224 -0.0419053 -0.000216007  -0.00842071 -0.0464413 -0.000206947  -0.00895619 -0.0511546 -0.000197887  -0.00948858 -0.0560374 -0.000183582  -0.0100189 -0.0610872 -0.000175476  -0.0105461 -0.0662916 -0.00016737  -0.0110704 -0.0716443 -0.000162601  -0.0115937 -0.0771398 -0.000151634  -0.0121163 -0.0827691 -0.00014019  -0.0126389 -0.0885239 -0.000129223  -0.0131598 -0.0944021 -0.000119209  -0.0136769 -0.100393 -0.000107765  -0.0141935 -0.106492 -0.000101566  -0.0147084 -0.112691 -9.25064e-05  -0.0152197 -0.118986 -8.44002e-05  -0.0157294 -0.12537 -7.82013e-05  -0.0162385 -0.131836 -7.62939e-05  -0.0167458 -0.13838 -6.91414e-05  -0.0172501 -0.144996 -5.91278e-05  -0.0177534 -0.15168 -5.24521e-05  -0.0182531 -0.158426 -4.48227e-05  -0.018749 -0.165227 -3.76701e-05  -0.0192418 -0.17208 -3.09944e-05  -0.0197313 -0.178983 -1.7643e-05  -0.020216 -0.185927 -8.58307e-06  -0.0206983 -0.19291 -1.04904e-05  -0.0211778 -0.199928 -5.24521e-06  -0.0216537 -0.206976 3.33786e-06  -0.0221241 -0.214053 1.14441e-05  -0.0225925 -0.221153 2.00272e-05  -0.0230565 -0.228271 2.38419e-05  -0.023515 -0.235408 3.09944e-05  -0.0239701 -0.242558 3.38554e-05  -0.0244224 -0.24972 3.57628e-05  -0.0248699 -0.256889 4.00543e-05  -0.0253122 -0.264062 5.19753e-05  -0.0257521 -0.27124 5.05447e-05  -0.0261889 -0.278416 6.4373e-05  -0.0266213 -0.285593 7.05719e-05  -0.0270498 -0.292765 7.15256e-05  -0.0274756 -0.299936 7.58171e-05  -0.027899 -0.3071 7.58171e-05  -0.0283198 -0.314257 8.2016e-05  -0.028738 -0.321403 8.63075e-05  -0.0291529 -0.328542 8.63075e-05  -0.0295644 -0.33567 9.29832e-05  -0.0299749 -0.342787 9.25064e-05  -0.0303831 -0.349894 0.000100136  -0.0307918 -0.356986 9.87053e-05  0 0 0  -5.03287e-05 -0.000217408 -3.33786e-05  -0.00016921 -0.000958562 -6.38962e-05  -0.000342414 -0.00213501 -8.86917e-05  -0.000555083 -0.00367278 -0.000110149  -0.000798792 -0.00552621 -0.000127316  -0.0010643 -0.00766084 -0.000136852  -0.00134382 -0.0100569 -0.000141144  -0.00163317 -0.0127027 -0.000142574  -0.00192922 -0.0155871 -0.000144005  -0.00222957 -0.0187018 -0.000144005  -0.00253403 -0.0220415 -0.000141144  -0.00284374 -0.0255989 -0.00013876  -0.00315714 -0.0293708 -0.00013113  -0.00347501 -0.0333467 -0.000128269  -0.00379837 -0.0375232 -0.000119209  -0.00412816 -0.0418932 -0.00011158  -0.0044632 -0.0464478 -0.00011158  -0.0048033 -0.0511777 -0.000105381  -0.0051502 -0.0560782 -0.000100136  -0.00550318 -0.0611445 -9.10759e-05  -0.00586188 -0.0663647 -8.72612e-05  -0.00622702 -0.0717338 -8.10623e-05  -0.00659788 -0.0772457 -7.96318e-05  -0.00697494 -0.0828918 -7.29561e-05  -0.0073576 -0.0886626 -5.72205e-05  -0.0077467 -0.0945541 -5.62668e-05  -0.00814259 -0.100562 -5.14984e-05  -0.00854087 -0.106674 -4.95911e-05  -0.00894272 -0.112887 -4.14848e-05  -0.00934923 -0.119196 -3.62396e-05  -0.00975978 -0.125593 -3.38554e-05  -0.0101753 -0.132073 -3.38554e-05  -0.0105939 -0.138628 -2.52724e-05  -0.0110145 -0.145256 -2.67029e-05  -0.0114386 -0.151953 -1.71661e-05  -0.0118656 -0.158707 -7.62939e-06  -0.0122933 -0.165519 -9.53674e-07  -0.0127215 -0.17238 3.8147e-06  -0.0131521 -0.179292 4.29153e-06  -0.0135851 -0.186244 7.15256e-06  -0.0140173 -0.193235 1.81198e-05  -0.0144498 -0.200262 1.4782e-05  -0.0148821 -0.207317 1.71661e-05  -0.0153151 -0.2144 2.57492e-05  -0.0157483 -0.221505 3.09944e-05  -0.01618 -0.228631 3.8147e-05  -0.0166113 -0.235772 4.43459e-05  -0.01704 -0.242927 4.19617e-05  -0.017467 -0.250094 4.3869e-05  -0.017894 -0.257267 4.673e-05  -0.0183198 -0.264443 5.43594e-05  -0.018743 -0.271624 5.62668e-05  -0.0191648 -0.278803 6.58035e-05  -0.0195861 -0.285983 6.86646e-05  -0.0200064 -0.293156 7.34329e-05  -0.0204258 -0.30033 7.86781e-05  -0.0208418 -0.307496 7.96318e-05  -0.0212562 -0.314654 7.82013e-05  -0.0216682 -0.321803 8.4877e-05  -0.0220785 -0.32894 8.86917e-05  -0.0224881 -0.33607 9.15527e-05  -0.0228961 -0.343186 9.67979e-05  -0.023303 -0.350292 9.72748e-05  -0.0237072 -0.357384 0.00010252  0 0 0  8.3372e-06 -0.000204414 -2.86102e-06  2.77758e-05 -0.000935405 -2.86102e-06  5.31524e-05 -0.00210586 -5.24521e-06  7.87675e-05 -0.0036414 -9.05991e-06  0.000101328 -0.00549957 -9.53674e-06  0.000117868 -0.00763789 -1.43051e-05  0.000124454 -0.0100438 -1.19209e-05  0.000120521 -0.0126981 -1.09673e-05  0.000105977 -0.0155929 -1.43051e-05  7.79033e-05 -0.0187185 -1.14441e-05  3.49879e-05 -0.0220701 -6.19888e-06  -2.20537e-05 -0.0256393 -1.38283e-05  -9.44734e-05 -0.0294241 -1.95503e-05  -0.000181198 -0.0334108 -2.00272e-05  -0.000283003 -0.0376005 -1.33514e-05  -0.000399828 -0.041982 -1.66893e-05  -0.000531912 -0.04655 -1.95503e-05  -0.000679493 -0.0512931 -1.09673e-05  -0.000841498 -0.0562076 -1.00136e-05  -0.00101686 -0.0612852 -5.24521e-06  -0.00120628 -0.0665182 -5.72205e-06  -0.00140977 -0.0719002 -2.38419e-06  -0.0016278 -0.0774235 -4.76837e-06  -0.00185895 -0.0830826 -2.38419e-06  -0.00210321 -0.0888661 7.15256e-06  -0.00235987 -0.0947697 4.76837e-06  -0.00262761 -0.100789 3.8147e-06  -0.0029074 -0.106912 2.86102e-06  -0.00319827 -0.113136 8.58307e-06  -0.00349891 -0.119456 6.67572e-06  -0.00380981 -0.125863 1.62125e-05  -0.00412917 -0.132354 1.04904e-05  -0.00445652 -0.138919 1.52588e-05  -0.00479364 -0.145556 1.71661e-05  -0.00513887 -0.152261 1.66893e-05  -0.00549078 -0.159023 2.86102e-05  -0.00585032 -0.165843 2.57492e-05  -0.00621653 -0.172711 3.19481e-05  -0.00658846 -0.179629 2.81334e-05  -0.0069654 -0.186587 3.57628e-05  -0.00734711 -0.193584 3.09944e-05  -0.00773239 -0.200616 3.57628e-05  -0.00812268 -0.207679 4.05312e-05  -0.00851536 -0.214766 4.14848e-05  -0.00891185 -0.221875 4.72069e-05  -0.00931168 -0.229005 5.05447e-05  -0.00971389 -0.236152 5.29289e-05  -0.0101178 -0.24331 5.43594e-05  -0.0105231 -0.25048 5.38826e-05  -0.0109289 -0.257654 5.10216e-05  -0.0113351 -0.264834 5.34058e-05  -0.0117414 -0.272014 6.34193e-05  -0.0121496 -0.279198 6.10352e-05  -0.0125582 -0.286378 7.10487e-05  -0.0129662 -0.293555 7.15256e-05  -0.0133741 -0.300728 7.82013e-05  -0.0137835 -0.307897 8.2016e-05  -0.0141935 -0.315054 8.44002e-05  -0.014601 -0.322203 8.39233e-05  -0.0150075 -0.32934 9.10759e-05  -0.015414 -0.33647 9.10759e-05  -0.0158198 -0.343587 0.000100613  -0.0162251 -0.350693 9.72748e-05  -0.016628 -0.357783 0.000105381  0 0 0  6.74278e-05 -0.000247419 2.95639e-05  0.000225067 -0.00101 6.24657e-05  0.000447601 -0.0022037 7.67708e-05  0.000712514 -0.00375527 0.000100136  0.00100112 -0.00562334 0.000108719  0.00129774 -0.00777036 0.000112057  0.001591 -0.0101805 0.000118256  0.00187242 -0.0128407 0.000117302  0.00213486 -0.0157391 0.000119209  0.00237745 -0.0188695 0.000119209  0.00259793 -0.0222266 0.000116348  0.00279254 -0.0258031 0.000112057  0.00296128 -0.0295936 9.91821e-05  0.00310528 -0.0335875 9.34601e-05  0.00322497 -0.037784 9.25064e-05  0.00332034 -0.0421731 8.82149e-05  0.0033915 -0.0467483 8.72612e-05  0.00343966 -0.0515009 7.82013e-05  0.00346351 -0.0564256 7.96318e-05  0.0034641 -0.0615098 7.39098e-05  0.00344241 -0.0667534 7.43866e-05  0.00339866 -0.0721445 7.20024e-05  0.00333405 -0.077675 6.81877e-05  0.00324893 -0.0833434 7.05719e-05  0.0031445 -0.0891367 7.20024e-05  0.00302184 -0.0950496 7.10487e-05  0.00288022 -0.101076 6.1512e-05  0.00272048 -0.107208 6.29425e-05  0.00254285 -0.113439 5.67436e-05  0.00234866 -0.119767 6.00815e-05  0.00213945 -0.126182 5.76973e-05  0.0019145 -0.13268 5.57899e-05  0.00167418 -0.139252 5.34058e-05  0.00142097 -0.145895 5.43594e-05  0.00115538 -0.152605 5.34058e-05  0.000876904 -0.159373 5.29289e-05  0.000585794 -0.166198 5.96046e-05  0.00028348 -0.173073 5.48363e-05  -2.7895e-05 -0.179995 5.29289e-05  -0.00034833 -0.186958 5.05447e-05  -0.000677824 -0.193959 5.19753e-05  -0.00101614 -0.200995 5.48363e-05  -0.00136375 -0.20806 5.91278e-05  -0.00172043 -0.215151 6.10352e-05  -0.00208259 -0.222263 6.34193e-05  -0.00244904 -0.229395 6.77109e-05  -0.00282121 -0.236545 6.53267e-05  -0.00319791 -0.243706 6.58035e-05  -0.00357842 -0.250877 6.24657e-05  -0.00396204 -0.258053 5.57899e-05  -0.00434852 -0.265234 6.34193e-05  -0.00473881 -0.272414 6.24657e-05  -0.00513411 -0.2796 6.7234e-05  -0.00553083 -0.28678 6.81877e-05  -0.00592923 -0.293958 7.20024e-05  -0.00632977 -0.301131 7.62939e-05  -0.00673151 -0.308301 7.82013e-05  -0.00713134 -0.315458 8.53539e-05  -0.0075326 -0.322606 8.63075e-05  -0.00793505 -0.329744 9.34601e-05  -0.00833821 -0.336873 9.63211e-05  -0.00874233 -0.34399 9.72748e-05  -0.00914574 -0.351097 9.72748e-05  -0.00954723 -0.358187 9.87053e-05  0 0 0  0.000129491 -0.000348806 6.34193e-05  0.000431001 -0.00118566 0.000124454  0.000857279 -0.00243008 0.000170231  0.00136641 -0.00401437 0.000200272  0.00192341 -0.00589973 0.00022459  0.00250146 -0.0080564 0.000240803  0.00307912 -0.010468 0.000245571  0.00364262 -0.0131278 0.000253201  0.00418419 -0.0160255 0.000244617  0.00469637 -0.0191527 0.000240326  0.00517589 -0.0225101 0.000236034  0.00562096 -0.0260874 0.000227451  0.00603122 -0.0298782 0.000214577  0.00640684 -0.0338748 0.000207901  0.0067476 -0.0380729 0.000194073  0.00705373 -0.0424652 0.000190735  0.00732815 -0.0470428 0.000182152  0.00756967 -0.0518007 0.000176907  0.00777829 -0.056731 0.000166416  0.00795579 -0.0618191 0.000160217  0.00810218 -0.0670698 0.000151634  0.00821996 -0.0724655 0.000147343  0.00830901 -0.0780017 0.000144482  0.0083698 -0.083674 0.000143051  0.00840425 -0.0894746 0.000144005  0.00841284 -0.0953923 0.000133514  0.00839639 -0.101424 0.000128746  0.0083555 -0.10756 0.000119209  0.00829029 -0.113797 0.000109673  0.00820351 -0.120129 0.000107288  0.00809407 -0.12655 0.000104427  0.00796318 -0.133051 9.72748e-05  0.00781298 -0.139628 9.29832e-05  0.00764322 -0.146274 8.96454e-05  0.00745583 -0.152988 9.48906e-05  0.00725079 -0.15976 8.63075e-05  0.00702834 -0.166586 8.53539e-05  0.00679016 -0.173466 8.39233e-05  0.00653815 -0.18039 7.86781e-05  0.00627255 -0.187356 8.24928e-05  0.00599289 -0.19436 7.77245e-05  0.00570059 -0.201396 7.86781e-05  0.00539684 -0.208462 7.48634e-05  0.00508285 -0.215556 7.20024e-05  0.0047574 -0.222671 7.72476e-05  0.00442219 -0.229802 7.39098e-05  0.00407863 -0.236952 7.96318e-05  0.00373006 -0.244115 7.53403e-05  0.0033741 -0.251286 6.62804e-05  0.00301099 -0.258462 6.96182e-05  0.00264096 -0.265642 6.91414e-05  0.00226593 -0.272823 6.4373e-05  0.00188637 -0.280009 6.86646e-05  0.00150251 -0.287188 7.39098e-05  0.00111365 -0.294367 7.72476e-05  0.000720501 -0.301539 7.9155e-05  0.000324965 -0.308706 8.2016e-05  -7.20024e-05 -0.315863 8.24928e-05  -0.000468969 -0.323012 9.05991e-05  -0.000867844 -0.33015 9.01222e-05  -0.00126767 -0.337278 9.25064e-05  -0.00166678 -0.344396 9.29832e-05  -0.00206518 -0.351503 9.72748e-05  -0.00246191 -0.358596 9.77516e-05  0 0 0  0.000196554 -0.00051707 0.000101089  0.000653848 -0.00147277 0.000184059  0.00129625 -0.00279307 0.000256538  0.00205934 -0.00442547 0.000304699  0.00289112 -0.00633168 0.000343323  0.00375253 -0.00849646 0.000364304  0.00461587 -0.010907 0.000379562  0.00546283 -0.0135591 0.000375271  0.00627935 -0.0164493 0.000376701  0.00705856 -0.0195675 0.000369072  0.00779623 -0.0229187 0.000358105  0.00848907 -0.0264902 0.000346184  0.00913757 -0.0302759 0.000328541  0.00974274 -0.0342702 0.000317574  0.0103046 -0.0384662 0.000308037  0.0108221 -0.0428573 0.000295162  0.0112954 -0.0474343 0.000282764  0.0117276 -0.0521928 0.000262737  0.0121198 -0.0571232 0.000259399  0.0124725 -0.0622147 0.000247478  0.0127878 -0.0674654 0.000235081  0.0130664 -0.0728633 0.000226021  0.0133085 -0.0784023 0.000225067  0.0135158 -0.0840756 0.000210762  0.0136893 -0.089878 0.000205994  0.0138294 -0.0957983 0.000200272  0.0139369 -0.101832 0.000187397  0.0140146 -0.10797 0.000175476  0.0140616 -0.11421 0.000165462  0.0140795 -0.120543 0.000157833  0.0140709 -0.126966 0.000145435  0.014035 -0.133468 0.00014019  0.0139723 -0.140048 0.000129223  0.0138853 -0.146695 0.000132084  0.0137751 -0.153409 0.000128746  0.0136437 -0.160183 0.000124931  0.0134907 -0.167011 0.000113964  0.0133162 -0.17389 0.000111103  0.0131211 -0.180814 0.000108242  0.0129075 -0.187781 0.000104427  0.0126786 -0.194787 9.9659e-05  0.0124347 -0.201822 9.44138e-05  0.0121741 -0.208888 9.72748e-05  0.0118988 -0.21598 9.15527e-05  0.0116091 -0.223095 8.82149e-05  0.0113063 -0.230226 9.01222e-05  0.0109918 -0.237375 8.58307e-05  0.0106671 -0.244536 8.44002e-05  0.0103328 -0.251707 7.82013e-05  0.00998974 -0.258881 7.58171e-05  0.00963831 -0.26606 7.24792e-05  0.0092783 -0.273242 7.72476e-05  0.00891066 -0.280423 7.34329e-05  0.00853705 -0.287603 7.39098e-05  0.00815821 -0.29478 7.9155e-05  0.00777531 -0.301951 7.86781e-05  0.00738859 -0.309117 8.44002e-05  0.0069983 -0.316273 8.82149e-05  0.00660396 -0.32342 8.96454e-05  0.0062077 -0.330558 9.20296e-05  0.00581026 -0.337687 9.34601e-05  0.00541186 -0.344805 9.77516e-05  0.00501418 -0.351912 0.000101089  0.00461864 -0.359007 9.53674e-05  0 0 0  0.000272319 -0.000766516 0.000132561  0.000903875 -0.00188816 0.00025034  0.00178069 -0.00331026 0.000340462  0.00281274 -0.00499648 0.00041151  0.00393096 -0.00692433 0.000455379  0.0050824 -0.00909138 0.00048542  0.00623176 -0.011494 0.000502586  0.00735766 -0.014131 0.000505924  0.00844711 -0.0170065 0.00050354  0.00949079 -0.0201104 0.00049305  0.0104827 -0.0234493 0.000482082  0.0114213 -0.0270082 0.000468254  0.0123048 -0.0307851 0.000449657  0.0131347 -0.0347716 0.000427723  0.0139119 -0.0389617 0.000414848  0.0146371 -0.0433463 0.000397205  0.0153114 -0.0479209 0.000375748  0.0159353 -0.0526758 0.000367641  0.0165101 -0.0576032 0.000348091  0.017038 -0.0626936 0.000332832  0.0175195 -0.0679417 0.000317097  0.0179566 -0.0733379 0.000306129  0.0183507 -0.0788757 0.000295162  0.0187017 -0.0845473 0.000286579  0.0190126 -0.0903482 0.000272274  0.019284 -0.0962676 0.00026083  0.0195166 -0.102301 0.00025034  0.0197109 -0.108438 0.000231266  0.0198685 -0.114677 0.000216484  0.0199921 -0.121011 0.000206947  0.0200807 -0.127432 0.000199318  0.0201378 -0.133933 0.000183105  0.0201643 -0.140512 0.000178814  0.02016 -0.147159 0.000165462  0.0201278 -0.153871 0.000161171  0.0200679 -0.160643 0.000153065  0.0199809 -0.167471 0.000148296  0.0198696 -0.174346 0.00014019  0.0197349 -0.18127 0.000139713  0.0195758 -0.188235 0.000135422  0.0193939 -0.195239 0.000130177  0.0191922 -0.202272 0.000118732  0.0189724 -0.209337 0.00011158  0.0187345 -0.216425 0.000110626  0.0184791 -0.223537 0.000107288  0.0182083 -0.230668 0.000101566  0.0179205 -0.237814 9.25064e-05  0.0176203 -0.244972 9.20296e-05  0.017309 -0.252139 9.01222e-05  0.0169849 -0.259311 8.63075e-05  0.0166485 -0.266488 8.34465e-05  0.0163028 -0.273668 7.72476e-05  0.0159495 -0.280846 8.01086e-05  0.0155883 -0.288025 8.2016e-05  0.015219 -0.2952 7.86781e-05  0.0148427 -0.302367 7.62939e-05  0.0144598 -0.309532 8.10623e-05  0.0140743 -0.316685 8.72612e-05  0.0136867 -0.323832 8.91685e-05  0.0132933 -0.33097 9.15527e-05  0.0128963 -0.338097 9.91821e-05  0.0124991 -0.345213 9.87053e-05  0.0121007 -0.352322 9.34601e-05  0.0117035 -0.35942 9.87053e-05  0 0 0  0.00036215 -0.00112224 0.000165939  0.00120214 -0.0024597 0.000306606  0.00234514 -0.00400203 0.000423431  0.00366709 -0.00574064 0.000507832  0.00507727 -0.00768107 0.000569344  0.00651777 -0.00983918 0.000607491  0.00795093 -0.012224 0.000628471  0.00935322 -0.0148388 0.000636101  0.0107087 -0.0176914 0.000627518  0.0120088 -0.0207756 0.000621319  0.0132507 -0.0240947 0.000608921  0.0144298 -0.027638 0.000589371  0.0155469 -0.0313998 0.000565052  0.016602 -0.035376 0.000539303  0.0175932 -0.0395568 0.000518322  0.0185239 -0.0439309 0.000501633  0.0193957 -0.0484987 0.000475883  0.0202086 -0.0532473 0.000453472  0.0209646 -0.0581676 0.000435352  0.0216658 -0.0632532 0.000425816  0.0223135 -0.0684961 0.000402451  0.0229088 -0.0738876 0.000387192  0.0234523 -0.079421 0.000370026  0.023946 -0.0850883 0.000350952  0.0243919 -0.0908847 0.0003438  0.0247926 -0.0967995 0.000328064  0.025147 -0.102828 0.000308037  0.0254577 -0.108962 0.00028944  0.0257246 -0.115198 0.00026989  0.0259497 -0.121529 0.000257492  0.0261365 -0.127946 0.000246525  0.0262856 -0.134444 0.000232697  0.0263982 -0.141019 0.000217438  0.0264761 -0.147662 0.00020647  0.0265188 -0.154371 0.000197887  0.0265291 -0.161139 0.000187397  0.0265088 -0.167963 0.000176907  0.0264585 -0.174836 0.000173092  0.0263798 -0.181755 0.00016737  0.0262752 -0.188717 0.000154972  0.0261424 -0.195716 0.00014782  0.0259836 -0.202745 0.00014782  0.0258024 -0.209806 0.000141144  0.0256021 -0.216891 0.000132561  0.0253799 -0.223998 0.000124931  0.0251372 -0.231126 0.000111103  0.0248764 -0.238268 0.000104427  0.0245979 -0.245421 0.000100613  0.0243053 -0.252582 9.29832e-05  0.0239997 -0.259752 9.34601e-05  0.0236795 -0.266926 8.72612e-05  0.0233481 -0.274101 8.67844e-05  0.0230057 -0.281278 9.05991e-05  0.0226541 -0.288452 8.4877e-05  0.0222931 -0.295625 7.9155e-05  0.021924 -0.302789 7.72476e-05  0.0215471 -0.30995 8.44002e-05  0.0211649 -0.317101 8.86917e-05  0.0207782 -0.324247 9.25064e-05  0.0203876 -0.331383 9.05991e-05  0.019995 -0.338508 9.82285e-05  0.0195987 -0.345624 0.000100136  0.019201 -0.352734 9.58443e-05  0.0188046 -0.359837 0.000100136  0 0 0  0.000481635 -0.00162274 0.000199318  0.00157474 -0.00322771 0.000370026  0.00302856 -0.00489378 0.00050354  0.00466022 -0.0066691 0.00060606  0.00636765 -0.00860238 0.000682831  0.00809315 -0.0107363 0.000730991  0.009801 -0.0130907 0.00076437  0.0114681 -0.015676 0.000763893  0.0130827 -0.0184971 0.000764847  0.0146362 -0.0215569 0.000750065  0.0161227 -0.0248509 0.000730991  0.0175396 -0.0283745 0.000702381  0.018885 -0.0321178 0.000683308  0.0201594 -0.0360788 0.000648975  0.0213644 -0.0402468 0.000626564  0.0224988 -0.0446088 0.00060463  0.0235634 -0.0491649 0.000573158  0.0245626 -0.0539032 0.00054884  0.0254983 -0.0588143 0.000528336  0.0263706 -0.0638915 0.000510693  0.0271811 -0.0691257 0.000492096  0.0279325 -0.0745086 0.0004673  0.0286256 -0.0800365 0.000440121  0.029261 -0.0856962 0.000422001  0.0298412 -0.091484 0.000405312  0.0303675 -0.0973929 0.000387669  0.0308414 -0.103414 0.000367165  0.0312657 -0.109542 0.000349998  0.0316409 -0.115772 0.000329494  0.0319701 -0.122095 0.000306606  0.0322533 -0.128507 0.000293732  0.0324914 -0.135 0.000282288  0.0326877 -0.141567 0.000265598  0.0328441 -0.148205 0.000245571  0.0329621 -0.154908 0.000231266  0.0330422 -0.16167 0.000220299  0.0330858 -0.168489 0.000217438  0.0330961 -0.175356 0.000200748  0.0330732 -0.182269 0.000196934  0.0330184 -0.189225 0.000185966  0.0329325 -0.196218 0.000173569  0.0328176 -0.203241 0.000164986  0.032675 -0.210296 0.000159264  0.0325069 -0.217375 0.000154495  0.0323164 -0.224477 0.000135422  0.0321009 -0.231598 0.000126362  0.0318625 -0.238736 0.000124454  0.0316072 -0.245883 0.000112534  0.0313346 -0.253037 0.000103474  0.0310433 -0.260202 0.000104904  0.0307364 -0.267372 9.67979e-05  0.0304151 -0.274542 9.15527e-05  0.0300803 -0.281715 8.96454e-05  0.0297365 -0.288884 8.91685e-05  0.0293827 -0.296053 8.10623e-05  0.0290189 -0.303214 8.24928e-05  0.0286455 -0.310369 8.86917e-05  0.0282652 -0.317519 8.86917e-05  0.0278792 -0.324663 9.05991e-05  0.0274897 -0.331796 9.82285e-05  0.0270965 -0.33892 9.53674e-05  0.0267007 -0.346035 9.34601e-05  0.0263021 -0.353146 0.000103951  0.0259032 -0.360254 0.000104904  0 0 0  0.000624046 -0.00233305 0.000232697  0.00209115 -0.00426054 0.000435352  0.00389804 -0.0060069 0.000597477  0.00584334 -0.00777942 0.000710011  0.00783819 -0.00968015 0.000796795  0.00983381 -0.011772 0.000857353  0.0118037 -0.0140839 0.000887394  0.013729 -0.0166317 0.000894547  0.0155939 -0.0194164 0.000889778  0.0173907 -0.0224476 0.00087738  0.0191151 -0.0257131 0.000854015  0.020763 -0.0292126 0.000826836  0.022333 -0.032935 0.000799179  0.0238245 -0.0368762 0.000770092  0.0252376 -0.0410276 0.000739098  0.0265734 -0.0453757 0.000704288  0.0278324 -0.049917 0.000673294  0.0290154 -0.0546414 0.000645161  0.0301261 -0.0595405 0.000621796  0.0311662 -0.0646065 0.000600338  0.0321389 -0.069828 0.000573635  0.0330451 -0.0752007 0.000544548  0.0338846 -0.0807185 0.000515461  0.0346597 -0.0863685 0.000495434  0.0353715 -0.092145 0.00047493  0.0360242 -0.098045 0.000452518  0.0366184 -0.104057 0.000432491  0.0371543 -0.110177 0.000405788  0.037636 -0.116398 0.000384331  0.038064 -0.12271 0.000361443  0.0384401 -0.129113 0.00034523  0.0387669 -0.135599 0.000328064  0.0390472 -0.142156 0.000304699  0.0392804 -0.148787 0.000285625  0.0394692 -0.15548 0.000268459  0.0396156 -0.162236 0.000253201  0.0397229 -0.169045 0.000240803  0.0397894 -0.175905 0.000235558  0.0398173 -0.182809 0.000223637  0.0398085 -0.189757 0.000211716  0.039767 -0.19674 0.000198841  0.0396929 -0.203758 0.000190258  0.0395873 -0.210803 0.00017786  0.0394526 -0.217876 0.000169754  0.0392892 -0.22497 0.000148296  0.0391002 -0.232084 0.000138283  0.0388861 -0.239214 0.000135899  0.0386508 -0.246354 0.000122547  0.0383954 -0.253501 0.000116825  0.0381191 -0.26066 0.000105858  0.0378237 -0.267825 0.000109673  0.0375118 -0.27499 9.91821e-05  0.0371854 -0.282155 8.96454e-05  0.0368447 -0.289319 8.63075e-05  0.0364914 -0.296481 8.72612e-05  0.0361283 -0.303638 8.58307e-05  0.0357575 -0.310788 9.20296e-05  0.0353782 -0.317936 9.25064e-05  0.0349932 -0.325078 8.7738e-05  0.0346034 -0.332209 9.67979e-05  0.0342109 -0.339331 0.000101089  0.0338144 -0.346446 9.87053e-05  0.0334148 -0.353559 0.000103951  0.0330133 -0.360669 0.000103474  0 0 0  0.00110044 -0.00345147 0.000284672  0.00300075 -0.00557548 0.000514984  0.00511503 -0.0073241 0.000684261  0.00731492 -0.00904322 0.000817776  0.00954652 -0.0108892 0.000909805  0.0117784 -0.0129249 0.000975609  0.0139851 -0.0151885 0.00100946  0.0161475 -0.0176927 0.00102329  0.0182518 -0.0204412 0.00101948  0.0202855 -0.0234395 0.00100613  0.0222421 -0.0266744 0.000975132  0.0241174 -0.030148 0.000949383  0.0259079 -0.0338454 0.000918388  0.0276119 -0.037766 0.00088644  0.0292301 -0.0418963 0.000849247  0.0307628 -0.0462276 0.000812054  0.0322108 -0.0507513 0.00077486  0.0335767 -0.0554586 0.000741482  0.0348622 -0.0603436 0.000717163  0.0360695 -0.0653958 0.000688076  0.037201 -0.0706005 0.000651836  0.0382565 -0.0759625 0.000625134  0.0392395 -0.0814642 0.000595093  0.0401515 -0.0871038 0.000565052  0.0409955 -0.0928665 0.000536442  0.0417709 -0.0987533 0.000517368  0.0424809 -0.104755 0.000492573  0.0431285 -0.110864 0.000470161  0.0437142 -0.117072 0.000443935  0.0442407 -0.123371 0.000417709  0.0447088 -0.129763 0.000400543  0.0451217 -0.136238 0.000372887  0.0454812 -0.142784 0.000348091  0.045789 -0.149403 0.000323296  0.0460472 -0.156086 0.000306129  0.0462587 -0.162832 0.000292301  0.0464244 -0.169629 0.000277519  0.0465446 -0.176481 0.000263214  0.0466237 -0.183375 0.000247002  0.0466621 -0.190312 0.000242233  0.0466611 -0.197285 0.000226021  0.0466247 -0.204292 0.000210762  0.0465539 -0.211327 0.000196457  0.0464487 -0.218392 0.000182629  0.0463123 -0.225477 0.000167847  0.0461462 -0.232582 0.000156403  0.0459518 -0.239702 0.000141144  0.045732 -0.246832 0.000133514  0.0454881 -0.253972 0.000126362  0.0452235 -0.261124 0.000118732  0.0449383 -0.268281 0.000108719  0.0446341 -0.27544 0.000105381  0.0443115 -0.282596 9.53674e-05  0.0439746 -0.289752 9.10759e-05  0.0436246 -0.296908 8.82149e-05  0.0432618 -0.304061 8.58307e-05  0.0428879 -0.311206 9.39369e-05  0.0425055 -0.318351 8.91685e-05  0.0421166 -0.32549 9.29832e-05  0.0417233 -0.332619 9.9659e-05  0.0413263 -0.33974 0.000101089  0.0409272 -0.346854 0.000102997  0.0405264 -0.35397 9.9659e-05  0.0401254 -0.361081 0.000103474  0 0 0  -0.00114156 -0.00331785 -5.72205e-06  -0.00304268 -0.00532642 -8.58307e-06  -0.00514412 -0.00698537 -5.72205e-06  -0.00733396 -0.00861821 -5.24521e-06  -0.00956398 -0.0103644 -6.19888e-06  -0.0118057 -0.012298 -1.90735e-06  -0.0140383 -0.0144363 -8.58307e-06  -0.0162463 -0.0168125 -5.72205e-06  -0.0184165 -0.0194207 -7.62939e-06  -0.0205395 -0.022263 -1.00136e-05  -0.0226088 -0.0253396 -7.62939e-06  -0.0246206 -0.0286394 -3.8147e-06  -0.0265723 -0.0321668 -6.67572e-06  -0.0284631 -0.0359033 -1.00136e-05  -0.0302934 -0.0398491 -1.04904e-05  -0.0320643 -0.043992 -1.38283e-05  -0.0337783 -0.0483225 -1.62125e-05  -0.035437 -0.0528397 -1.23978e-05  -0.0370424 -0.0575309 -9.53674e-06  -0.038596 -0.0623871 -6.19888e-06  -0.0401005 -0.0674087 -2.38419e-06  -0.0415562 -0.0725826 5.72205e-06  -0.0429628 -0.0779013 1.09673e-05  -0.0443225 -0.0833563 1.28746e-05  -0.0456392 -0.0889438 1.57356e-05  -0.0469128 -0.0946578 2.3365e-05  -0.0481462 -0.100496 2.6226e-05  -0.0493374 -0.106439 3.09944e-05  -0.0504882 -0.112494 2.90871e-05  -0.0515972 -0.118643 2.28882e-05  -0.0526682 -0.12489 2.76566e-05  -0.0537035 -0.131224 2.09808e-05  -0.054704 -0.137643 2.95639e-05  -0.0556703 -0.144137 2.86102e-05  -0.0566034 -0.150702 3.09944e-05  -0.0575039 -0.157336 3.29018e-05  -0.0583725 -0.164031 2.95639e-05  -0.0592101 -0.170786 3.67165e-05  -0.0600166 -0.177587 4.33922e-05  -0.0607941 -0.184439 4.00543e-05  -0.0615435 -0.191335 4.43459e-05  -0.0622647 -0.19827 4.19617e-05  -0.0629594 -0.205243 4.05312e-05  -0.0636277 -0.212244 4.05312e-05  -0.0642738 -0.219276 5.38826e-05  -0.064894 -0.226333 5.8651e-05  -0.065491 -0.233411 5.76973e-05  -0.0660672 -0.240506 6.00815e-05  -0.0666237 -0.247619 6.4373e-05  -0.0671613 -0.254738 6.1512e-05  -0.0676811 -0.261871 6.77109e-05  -0.0681837 -0.269011 6.58035e-05  -0.0686722 -0.27616 7.29561e-05  -0.0691438 -0.283302 6.77109e-05  -0.0696023 -0.290451 7.82013e-05  -0.0700517 -0.2976 8.15392e-05  -0.0704901 -0.304739 8.58307e-05  -0.0709212 -0.311878 9.15527e-05  -0.0713449 -0.319013 8.63075e-05  -0.0717609 -0.326142 9.25064e-05  -0.0721712 -0.333266 0.000101566  -0.0725796 -0.340384 0.000103951  -0.0729878 -0.347496 0.000108719  -0.0733962 -0.354606 0.000106812  0 0 0  -0.000634082 -0.00218708 -5.72205e-06  -0.0020872 -0.0040091 -6.67572e-06  -0.0038697 -0.00567406 -4.29153e-06  -0.00579081 -0.0073664 -6.19888e-06  -0.00777161 -0.00918704 -4.76837e-06  -0.00977004 -0.0111878 -3.8147e-06  -0.0117594 -0.0133975 -1.14441e-05  -0.0137226 -0.0158352 -8.58307e-06  -0.0156487 -0.0185052 -4.76837e-06  -0.0175307 -0.0214058 -1.00136e-05  -0.0193638 -0.0245378 -7.15256e-06  -0.0211461 -0.0278922 -1.00136e-05  -0.022877 -0.0314684 -9.05991e-06  -0.024555 -0.0352564 -9.53674e-06  -0.026181 -0.0392473 -1.43051e-05  -0.0277551 -0.0434365 -1.19209e-05  -0.029279 -0.0478124 -1.00136e-05  -0.0307562 -0.0523732 -1.4782e-05  -0.0321884 -0.0571067 -9.05991e-06  -0.0335785 -0.0620063 -1.52588e-05  -0.0349263 -0.0670672 -4.76837e-07  -0.0362322 -0.0722788 5.72205e-06  -0.037499 -0.0776357 3.8147e-06  -0.0387267 -0.0831277 1.43051e-05  -0.0399176 -0.0887523 1.85966e-05  -0.0410734 -0.0945013 2.6226e-05  -0.0421928 -0.100372 2.52724e-05  -0.0432763 -0.106349 3.00407e-05  -0.0443258 -0.112434 2.6226e-05  -0.0453426 -0.118614 2.47955e-05  -0.0463276 -0.12489 2.00272e-05  -0.0472815 -0.131254 2.43187e-05  -0.0482063 -0.137699 2.09808e-05  -0.049103 -0.144219 2.90871e-05  -0.0499711 -0.150808 2.76566e-05  -0.0508108 -0.157466 3.14713e-05  -0.0516229 -0.164185 3.76701e-05  -0.0524082 -0.17096 3.24249e-05  -0.0531669 -0.177783 3.95775e-05  -0.0539002 -0.184655 4.43459e-05  -0.0546103 -0.19157 4.00543e-05  -0.0552964 -0.198523 4.33922e-05  -0.0559595 -0.20551 4.43459e-05  -0.056601 -0.212529 4.29153e-05  -0.0572209 -0.219575 4.673e-05  -0.0578229 -0.226645 5.14984e-05  -0.0584059 -0.233735 5.81741e-05  -0.0589678 -0.240843 6.1512e-05  -0.0595124 -0.247964 6.1512e-05  -0.0600402 -0.255096 6.24657e-05  -0.0605531 -0.262237 7.00951e-05  -0.0610516 -0.269385 7.24792e-05  -0.0615351 -0.276539 6.96182e-05  -0.062006 -0.283691 7.24792e-05  -0.0624664 -0.290844 7.86781e-05  -0.0629151 -0.297996 8.01086e-05  -0.0633545 -0.30514 8.58307e-05  -0.0637875 -0.312282 8.67844e-05  -0.064213 -0.319419 9.20296e-05  -0.0646327 -0.326549 9.25064e-05  -0.065048 -0.333673 9.53674e-05  -0.0654604 -0.340789 0.000100136  -0.0658698 -0.347901 0.000105858  -0.0662789 -0.355008 0.000102997  0 0 0  -0.000477664 -0.00147925 4.76837e-07  -0.00154551 -0.002987 4.76837e-07  -0.00296357 -0.00457962 -4.76837e-07  -0.00456154 -0.0062845 -1.04904e-05  -0.00624636 -0.00815329 -5.24521e-06  -0.00796437 -0.0102099 -7.62939e-06  -0.00968361 -0.012482 -4.29153e-06  -0.0113847 -0.0149767 -1.38283e-05  -0.013055 -0.0177025 -6.19888e-06  -0.0146879 -0.0206579 -6.67572e-06  -0.0162796 -0.0238395 -1.57356e-05  -0.0178266 -0.0272435 -1.09673e-05  -0.0193281 -0.0308648 -1.19209e-05  -0.0207856 -0.0346979 -1.57356e-05  -0.0222009 -0.0387314 -1.28746e-05  -0.0235749 -0.0429612 -1.04904e-05  -0.0249085 -0.0473784 -1.38283e-05  -0.0262038 -0.0519792 -1.09673e-05  -0.0274622 -0.0567498 -1.4782e-05  -0.0286844 -0.0616884 -1.33514e-05  -0.0298716 -0.0667843 -5.72205e-06  -0.0310259 -0.0720312 2.38419e-06  -0.032148 -0.0774227 5.24521e-06  -0.0332398 -0.0829487 1.43051e-05  -0.0343019 -0.0886069 1.57356e-05  -0.0353336 -0.0943883 1.81198e-05  -0.0363362 -0.100287 2.43187e-05  -0.0373105 -0.106295 2.52724e-05  -0.038258 -0.112408 2.24113e-05  -0.0391781 -0.118619 2.47955e-05  -0.0400728 -0.124919 1.81198e-05  -0.0409434 -0.131309 2.24113e-05  -0.0417888 -0.137778 2.00272e-05  -0.0426097 -0.144321 2.43187e-05  -0.0434077 -0.150935 3.14713e-05  -0.0441833 -0.157614 3.52859e-05  -0.0449359 -0.164354 3.38554e-05  -0.0456679 -0.171147 3.67165e-05  -0.0463798 -0.177991 4.00543e-05  -0.0470698 -0.184881 4.1008e-05  -0.0477366 -0.191812 4.62532e-05  -0.0483842 -0.198782 4.48227e-05  -0.0490136 -0.205784 4.00543e-05  -0.0496244 -0.212818 3.76701e-05  -0.0502186 -0.219876 4.91142e-05  -0.0507956 -0.226959 5.10216e-05  -0.0513561 -0.234059 4.81606e-05  -0.0519025 -0.241178 5.67436e-05  -0.052433 -0.248308 6.24657e-05  -0.0529497 -0.255451 6.29425e-05  -0.0534525 -0.2626 5.96046e-05  -0.0539434 -0.269756 7.20024e-05  -0.0544229 -0.276913 7.10487e-05  -0.0548911 -0.284073 7.48634e-05  -0.0553501 -0.291231 7.82013e-05  -0.0557997 -0.298385 8.2016e-05  -0.0562401 -0.305535 7.9155e-05  -0.0566726 -0.312679 8.96454e-05  -0.0570989 -0.319818 9.01222e-05  -0.0575197 -0.32695 9.05991e-05  -0.0579362 -0.334075 9.01222e-05  -0.0583494 -0.341193 0.000100136  -0.0587604 -0.348302 0.000103951  -0.0591702 -0.355406 0.000104904  0 0 0  -0.00035093 -0.000996366 -1.90735e-06  -0.00115835 -0.00224604 -1.43051e-06  -0.0022599 -0.00372206 -2.38419e-06  -0.0035423 -0.00540307 -1.14441e-05  -0.00492334 -0.00728895 -7.15256e-06  -0.00634944 -0.00938495 -2.38419e-06  -0.0077863 -0.0117042 -9.05991e-06  -0.00921184 -0.0142473 -1.33514e-05  -0.0106146 -0.0170208 -1.19209e-05  -0.0119893 -0.0200248 -1.23978e-05  -0.0133314 -0.0232509 -1.00136e-05  -0.0146388 -0.0266979 -2.00272e-05  -0.0159099 -0.0303608 -1.38283e-05  -0.0171452 -0.0342316 -1.04904e-05  -0.0183467 -0.0383055 -1.04904e-05  -0.0195154 -0.042571 -6.67572e-06  -0.0206542 -0.0470257 -7.62939e-06  -0.0217638 -0.0516606 -1.33514e-05  -0.0228436 -0.0564658 -9.53674e-06  -0.0238957 -0.0614378 -1.19209e-05  -0.0249208 -0.0665654 -9.53674e-06  -0.02592 -0.071844 -1.43051e-06  -0.0268953 -0.0772662 -9.53674e-07  -0.0278474 -0.0828236 5.72205e-06  -0.0287782 -0.0885112 1.38283e-05  -0.0296867 -0.0943211 1.23978e-05  -0.0305709 -0.100246 2.00272e-05  -0.0314333 -0.106282 1.81198e-05  -0.0322758 -0.11242 2.19345e-05  -0.0330987 -0.118656 2.28882e-05  -0.0339005 -0.124981 2.6226e-05  -0.0346825 -0.131393 1.66893e-05  -0.0354459 -0.137884 2.09808e-05  -0.036191 -0.144449 2.38419e-05  -0.0369167 -0.151084 2.57492e-05  -0.037626 -0.157782 2.76566e-05  -0.0383191 -0.164539 3.48091e-05  -0.0389943 -0.17135 3.24249e-05  -0.0396512 -0.178213 3.8147e-05  -0.0402908 -0.185119 3.67165e-05  -0.0409153 -0.192066 4.19617e-05  -0.0415246 -0.199049 4.3869e-05  -0.0421193 -0.206067 4.19617e-05  -0.0426986 -0.213112 4.52995e-05  -0.0432639 -0.220183 4.3869e-05  -0.0438159 -0.227275 4.72069e-05  -0.0443547 -0.234386 5.34058e-05  -0.0448799 -0.241515 5.43594e-05  -0.0453928 -0.248654 5.96046e-05  -0.0458937 -0.255805 6.00815e-05  -0.0463831 -0.262962 6.34193e-05  -0.0468633 -0.270124 7.05719e-05  -0.0473354 -0.277286 7.29561e-05  -0.0477986 -0.284451 8.05855e-05  -0.0482523 -0.291614 8.24928e-05  -0.0486977 -0.298773 8.10623e-05  -0.0491371 -0.305926 8.39233e-05  -0.0495691 -0.313074 8.44002e-05  -0.0499947 -0.320216 9.20296e-05  -0.0504148 -0.327349 9.34601e-05  -0.050832 -0.334475 9.48906e-05  -0.0512464 -0.341594 9.34601e-05  -0.0516579 -0.348701 0.000101566  -0.0520689 -0.355802 9.87053e-05  0 0 0  -0.000257935 -0.000663653 -6.19888e-06  -0.000853553 -0.00171031 -4.29153e-06  -0.00168581 -0.00307873 -3.33786e-06  -0.00267339 -0.00471769 -9.53674e-06  -0.00375369 -0.00660191 -9.05991e-06  -0.00488225 -0.00872119 -9.53674e-06  -0.00602967 -0.0110735 -1.14441e-05  -0.0071764 -0.013656 -1.52588e-05  -0.0083096 -0.0164689 -1.71661e-05  -0.00942093 -0.0195126 -1.71661e-05  -0.0105062 -0.0227767 -1.4782e-05  -0.0115671 -0.0262624 -1.28746e-05  -0.0126032 -0.0299602 -2.00272e-05  -0.013613 -0.0338645 -1.71661e-05  -0.0145984 -0.0379729 -1.52588e-05  -0.0155609 -0.0422718 -1.04904e-05  -0.0165013 -0.0467579 -6.19888e-06  -0.0174199 -0.0514222 -1.19209e-05  -0.0183181 -0.0562576 -1.23978e-05  -0.0191976 -0.0612589 -1.14441e-05  -0.0200592 -0.0664147 -6.67572e-06  -0.0209042 -0.0717213 -7.15256e-06  -0.0217315 -0.07717 -1.90735e-06  -0.0225414 -0.0827547 1.90735e-06  -0.0233362 -0.0884686 5.72205e-06  -0.0241168 -0.0943041 1.52588e-05  -0.0248814 -0.100252 1.04904e-05  -0.0256315 -0.106313 1.7643e-05  -0.0263665 -0.112473 1.57356e-05  -0.0270854 -0.118731 1.90735e-05  -0.0277916 -0.125079 1.85966e-05  -0.0284852 -0.13151 1.71661e-05  -0.0291646 -0.138021 1.81198e-05  -0.0298302 -0.144605 1.90735e-05  -0.0304844 -0.151259 2.09808e-05  -0.0311246 -0.157975 2.52724e-05  -0.0317516 -0.164748 2.57492e-05  -0.0323668 -0.171575 2.81334e-05  -0.03297 -0.178452 3.52859e-05  -0.033561 -0.185374 3.71933e-05  -0.0341418 -0.192334 3.24249e-05  -0.0347109 -0.199329 3.67165e-05  -0.0352674 -0.206359 4.48227e-05  -0.0358126 -0.213416 4.14848e-05  -0.0363467 -0.220496 4.3869e-05  -0.0368695 -0.227599 5.19753e-05  -0.0373833 -0.23472 5.67436e-05  -0.0378873 -0.241857 5.24521e-05  -0.0383818 -0.249005 5.24521e-05  -0.0388672 -0.256163 5.67436e-05  -0.0393436 -0.263325 6.62804e-05  -0.0398126 -0.270493 6.77109e-05  -0.0402727 -0.277661 7.10487e-05  -0.040725 -0.284831 7.53403e-05  -0.0411713 -0.291996 7.9155e-05  -0.0416129 -0.29916 8.7738e-05  -0.0420477 -0.306316 8.4877e-05  -0.0424781 -0.313469 8.82149e-05  -0.0429018 -0.320611 9.01222e-05  -0.0433214 -0.327747 8.67844e-05  -0.0437362 -0.334873 8.34465e-05  -0.0441492 -0.341992 8.86917e-05  -0.0445609 -0.349099 9.87053e-05  -0.0449724 -0.356196 0.000100613  0 0 0  -0.000179943 -0.000439376 -2.86102e-06  -0.000598386 -0.00133714 -8.58307e-06  -0.00119235 -0.002619 4.76837e-07  -0.00190759 -0.00421482 -3.8147e-06  -0.00269923 -0.00608951 -1.23978e-05  -0.0035345 -0.00822034 -1.71661e-05  -0.00439045 -0.0105954 -1.43051e-05  -0.0052512 -0.0132092 -1.81198e-05  -0.0061065 -0.0160534 -1.71661e-05  -0.0069499 -0.0191281 -1.95503e-05  -0.00777936 -0.0224241 -1.4782e-05  -0.00859308 -0.0259408 -1.81198e-05  -0.0093897 -0.0296681 -2.24113e-05  -0.0101717 -0.0336025 -1.81198e-05  -0.0109393 -0.037738 -1.28746e-05  -0.0116926 -0.0420666 -7.62939e-06  -0.0124326 -0.0465786 -9.53674e-06  -0.0131599 -0.0512678 -1.00136e-05  -0.0138762 -0.0561288 -1.71661e-05  -0.014582 -0.0611546 -1.52588e-05  -0.0152771 -0.0663363 -9.05991e-06  -0.0159621 -0.0716667 -7.15256e-06  -0.0166378 -0.0771387 -3.8147e-06  -0.0173053 -0.0827466 0  -0.0179644 -0.0884822 1.90735e-06  -0.0186144 -0.0943402 9.53674e-07  -0.0192566 -0.100311 7.62939e-06  -0.0198908 -0.106391 1.23978e-05  -0.0205168 -0.112572 1.14441e-05  -0.021134 -0.118848 1.4782e-05  -0.0217421 -0.125216 1.14441e-05  -0.0223427 -0.131663 1.28746e-05  -0.022938 -0.138193 1.33514e-05  -0.0235243 -0.144793 1.90735e-05  -0.0241013 -0.151463 1.95503e-05  -0.0246716 -0.158194 2.24113e-05  -0.0252328 -0.164982 2.71797e-05  -0.0257854 -0.171823 2.90871e-05  -0.0263329 -0.178712 3.09944e-05  -0.0268738 -0.185646 3.48091e-05  -0.0274062 -0.192619 3.14713e-05  -0.027931 -0.199625 3.52859e-05  -0.0284483 -0.206664 4.00543e-05  -0.0289557 -0.213732 4.43459e-05  -0.0294571 -0.220822 4.33922e-05  -0.0299528 -0.227933 5.19753e-05  -0.0304408 -0.235061 5.14984e-05  -0.0309212 -0.242206 5.24521e-05  -0.0313952 -0.249362 5.10216e-05  -0.031862 -0.256525 5.8651e-05  -0.0323219 -0.263693 6.24657e-05  -0.0327752 -0.270866 6.1512e-05  -0.0332236 -0.278039 7.00951e-05  -0.0336676 -0.285212 7.9155e-05  -0.0341058 -0.29238 7.77245e-05  -0.0345402 -0.299549 8.34465e-05  -0.034971 -0.306708 8.7738e-05  -0.0353978 -0.313862 9.10759e-05  -0.0358183 -0.321007 8.96454e-05  -0.0362344 -0.328144 8.91685e-05  -0.0366483 -0.335272 8.7738e-05  -0.0370605 -0.342389 9.67979e-05  -0.0374711 -0.349496 9.72748e-05  -0.0378804 -0.356591 0.000101089  0 0 0  -0.000112884 -0.000297397 -5.72205e-06  -0.000374421 -0.00109732 9.53674e-07  -0.000749707 -0.00231645 -2.86102e-06  -0.00120853 -0.00388068 -8.58307e-06  -0.00172317 -0.0057444 -1.62125e-05  -0.00227225 -0.00788203 -1.33514e-05  -0.00283968 -0.0102727 -1.52588e-05  -0.00341409 -0.0129078 -1.43051e-05  -0.00398946 -0.0157768 -1.09673e-05  -0.00456309 -0.0188761 -1.71661e-05  -0.00513113 -0.0221968 -2.00272e-05  -0.00569224 -0.0257369 -2.00272e-05  -0.00624853 -0.029489 -2.09808e-05  -0.00679964 -0.0334474 -1.7643e-05  -0.0073458 -0.0376048 -1.71661e-05  -0.00788909 -0.0419566 -1.23978e-05  -0.00842893 -0.0464909 -1.09673e-05  -0.00896418 -0.0512013 -1.43051e-05  -0.00949562 -0.0560834 -9.05991e-06  -0.0100245 -0.0611298 -9.53674e-06  -0.0105509 -0.0663323 -1.23978e-05  -0.011076 -0.0716833 -1.38283e-05  -0.0116005 -0.0771754 -9.53674e-06  -0.0121235 -0.082803 -3.8147e-06  -0.0126451 -0.0885566 0  -0.0131655 -0.0944334 4.76837e-07  -0.0136837 -0.100422 5.24521e-06  -0.0142002 -0.10652 7.62939e-06  -0.0147148 -0.112718 6.19888e-06  -0.0152262 -0.119011 1.00136e-05  -0.0157363 -0.125394 1.00136e-05  -0.0162445 -0.131857 1.00136e-05  -0.0167508 -0.138402 8.58307e-06  -0.0172551 -0.145017 1.62125e-05  -0.0177565 -0.151699 1.71661e-05  -0.018255 -0.158444 1.95503e-05  -0.0187514 -0.165243 2.14577e-05  -0.0192463 -0.172096 2.43187e-05  -0.0197346 -0.178995 2.95639e-05  -0.0202188 -0.185939 3.43323e-05  -0.0207026 -0.192923 3.33786e-05  -0.0211833 -0.199938 3.43323e-05  -0.0216582 -0.206987 3.67165e-05  -0.0221293 -0.214061 4.05312e-05  -0.0225959 -0.22116 4.81606e-05  -0.0230587 -0.228279 4.91142e-05  -0.0235183 -0.235414 5.29289e-05  -0.0239735 -0.242564 5.19753e-05  -0.024425 -0.249726 5.29289e-05  -0.0248737 -0.256894 5.48363e-05  -0.0253184 -0.264067 6.38962e-05  -0.025758 -0.271243 6.00815e-05  -0.0261929 -0.278419 7.15256e-05  -0.0266247 -0.285596 7.53403e-05  -0.0270519 -0.292768 7.48634e-05  -0.0274777 -0.299938 8.05855e-05  -0.0279014 -0.307102 8.10623e-05  -0.0283232 -0.314257 8.67844e-05  -0.0287423 -0.321404 9.15527e-05  -0.0291588 -0.328542 8.72612e-05  -0.0295711 -0.33567 9.29832e-05  -0.0299807 -0.342787 9.20296e-05  -0.0303893 -0.349893 9.72748e-05  -0.0307972 -0.356987 9.91821e-05  0 0 0  -5.09061e-05 -0.000224113 0  -0.000169076 -0.000971437 -9.53674e-07  -0.000340939 -0.00215471 -5.24521e-06  -0.000554428 -0.00370243 -9.53674e-06  -0.000798643 -0.00556126 -1.00136e-05  -0.00106478 -0.00770342 -1.28746e-05  -0.00134438 -0.0101051 -1.23978e-05  -0.00163311 -0.0127532 -1.38283e-05  -0.0019291 -0.0156411 -1.28746e-05  -0.00223005 -0.0187577 -1.85966e-05  -0.00253594 -0.0220964 -1.62125e-05  -0.00284666 -0.0256541 -1.85966e-05  -0.00316095 -0.0294245 -1.71661e-05  -0.00347918 -0.0334 -1.95503e-05  -0.00380296 -0.0375761 -1.43051e-05  -0.00413173 -0.0419439 -1.33514e-05  -0.00446653 -0.0464978 -1.71661e-05  -0.00480807 -0.0512245 -1.52588e-05  -0.00515652 -0.0561246 -1.19209e-05  -0.00551116 -0.0611869 -1.04904e-05  -0.00587022 -0.0664049 -1.23978e-05  -0.006235 -0.071773 -9.53674e-06  -0.00660586 -0.0772819 -1.33514e-05  -0.00698245 -0.0829258 -9.05991e-06  -0.00736392 -0.0886949 3.8147e-06  -0.00775158 -0.0945876 9.53674e-07  -0.00814474 -0.10059 5.24521e-06  -0.00854373 -0.106703 9.53674e-07  -0.00894701 -0.112915 6.19888e-06  -0.00935376 -0.119221 7.15256e-06  -0.00976419 -0.125617 7.15256e-06  -0.0101795 -0.132094 9.05991e-06  -0.0105991 -0.138649 1.14441e-05  -0.0110207 -0.145277 8.10623e-06  -0.0114439 -0.151971 1.66893e-05  -0.0118697 -0.158725 2.28882e-05  -0.0122976 -0.165534 2.67029e-05  -0.0127258 -0.172397 2.6226e-05  -0.0131552 -0.179305 2.71797e-05  -0.0135872 -0.186256 2.81334e-05  -0.0140193 -0.193247 3.29018e-05  -0.0144513 -0.200272 3.14713e-05  -0.0148852 -0.207327 3.24249e-05  -0.0153189 -0.214407 4.05312e-05  -0.0157518 -0.221513 4.14848e-05  -0.0161841 -0.228639 4.86374e-05  -0.0166147 -0.235779 5.38826e-05  -0.0170426 -0.242933 4.91142e-05  -0.017472 -0.2501 5.19753e-05  -0.0178995 -0.257271 5.19753e-05  -0.0183249 -0.264447 5.8651e-05  -0.0187488 -0.271626 5.8651e-05  -0.0191705 -0.278805 6.77109e-05  -0.0195916 -0.285984 7.24792e-05  -0.0200121 -0.293159 7.62939e-05  -0.0204296 -0.300331 7.9155e-05  -0.0208454 -0.307498 8.05855e-05  -0.0212598 -0.314654 7.9155e-05  -0.0216732 -0.321803 8.58307e-05  -0.0220835 -0.32894 8.63075e-05  -0.0224919 -0.33607 9.15527e-05  -0.0228994 -0.343187 9.53674e-05  -0.0233054 -0.350291 9.53674e-05  -0.0237105 -0.357385 9.91821e-05  0 0 0  8.35955e-06 -0.000210911 -1.90735e-06  2.78801e-05 -0.000948727 -2.86102e-06  5.3212e-05 -0.00212529 -5.72205e-06  7.86483e-05 -0.00367171 -8.58307e-06  0.000100195 -0.00553438 -8.58307e-06  0.000116229 -0.00768113 -1.4782e-05  0.000123173 -0.0100907 -1.04904e-05  0.000118852 -0.0127482 -1.00136e-05  0.000103533 -0.0156459 -1.66893e-05  7.55787e-05 -0.0187739 -1.14441e-05  3.34978e-05 -0.0221246 -6.67572e-06  -2.42591e-05 -0.0256951 -1.14441e-05  -9.75728e-05 -0.0294769 -1.7643e-05  -0.000185132 -0.0334649 -2.09808e-05  -0.00028652 -0.037653 -1.4782e-05  -0.000403523 -0.0420322 -1.85966e-05  -0.000536442 -0.0466003 -2.14577e-05  -0.000683546 -0.0513385 -1.38283e-05  -0.00084579 -0.056254 -1.14441e-05  -0.00102198 -0.061328 -9.05991e-06  -0.0012114 -0.0665587 -1.04904e-05  -0.00141478 -0.0719394 -7.15256e-06  -0.00163186 -0.0774603 -1.00136e-05  -0.00186336 -0.0831174 -7.15256e-06  -0.0021075 -0.0888992 2.86102e-06  -0.00236356 -0.0948024 -4.76837e-07  -0.00263238 -0.100818 -1.90735e-06  -0.00291288 -0.106942 -4.76837e-07  -0.00320256 -0.113163 4.76837e-07  -0.00350225 -0.11948 1.43051e-06  -0.00381291 -0.125886 9.53674e-06  -0.00413334 -0.132375 4.29153e-06  -0.004462 -0.138938 9.05991e-06  -0.00479865 -0.145576 1.28746e-05  -0.00514388 -0.15228 1.09673e-05  -0.00549555 -0.15904 2.3365e-05  -0.00585389 -0.165857 2.14577e-05  -0.00621986 -0.172727 2.81334e-05  -0.00659204 -0.179643 2.38419e-05  -0.00696874 -0.186599 3.05176e-05  -0.00735044 -0.193595 2.57492e-05  -0.00773644 -0.200628 2.95639e-05  -0.00812459 -0.207687 3.57628e-05  -0.00851703 -0.214774 3.71933e-05  -0.00891399 -0.221884 4.57764e-05  -0.00931382 -0.229013 4.673e-05  -0.00971603 -0.236158 5.14984e-05  -0.0101213 -0.243316 5.34058e-05  -0.0105257 -0.250484 4.95911e-05  -0.0109308 -0.257659 4.72069e-05  -0.011337 -0.264837 5.00679e-05  -0.011744 -0.272018 5.8651e-05  -0.012152 -0.2792 6.00815e-05  -0.0125606 -0.28638 6.67572e-05  -0.012969 -0.293556 7.10487e-05  -0.0133784 -0.300728 7.39098e-05  -0.0137873 -0.307898 8.29697e-05  -0.0141957 -0.315055 8.53539e-05  -0.0146024 -0.322204 8.10623e-05  -0.015008 -0.329341 9.10759e-05  -0.0154142 -0.336472 8.96454e-05  -0.01582 -0.343588 0.000100613  -0.0162251 -0.350693 9.77516e-05  -0.016628 -0.357784 0.000101566  0 0 0  6.73831e-05 -0.000254035 -4.76837e-06  0.000224486 -0.00102317 0  0.000446096 -0.00222433 -6.19888e-06  0.000710458 -0.00378472 -2.38419e-06  0.000998914 -0.00565976 -6.67572e-06  0.00129455 -0.00781375 -9.05991e-06  0.00158674 -0.010228 -1.09673e-05  0.00186795 -0.0128911 -1.14441e-05  0.00213146 -0.0157914 -9.05991e-06  0.00237471 -0.0189248 -1.00136e-05  0.00259489 -0.0222806 -7.62939e-06  0.00278944 -0.0258586 -6.19888e-06  0.0029583 -0.0296468 -1.4782e-05  0.00310194 -0.0336417 -1.62125e-05  0.00322181 -0.0378352 -1.66893e-05  0.00331724 -0.0422231 -1.52588e-05  0.00338864 -0.0467985 -1.66893e-05  0.00343645 -0.0515466 -1.81198e-05  0.00345969 -0.0564706 -1.28746e-05  0.00346124 -0.0615545 -1.62125e-05  0.0034399 -0.0667947 -8.58307e-06  0.00339532 -0.0721834 -7.15256e-06  0.00333011 -0.0777125 -1.00136e-05  0.00324512 -0.0833785 -4.76837e-06  0.00314116 -0.0891704 9.53674e-07  0.00301766 -0.0950803 2.86102e-06  0.00287461 -0.101105 -3.8147e-06  0.00271475 -0.107237 -1.43051e-06  0.00253785 -0.113466 -2.86102e-06  0.00234449 -0.119791 2.38419e-06  0.00213587 -0.126204 3.8147e-06  0.00191092 -0.1327 6.19888e-06  0.00167036 -0.139272 8.58307e-06  0.00141573 -0.145914 9.05991e-06  0.00114965 -0.152625 9.05991e-06  0.000872135 -0.159391 1.23978e-05  0.000583172 -0.166214 2.14577e-05  0.000282288 -0.173088 2.09808e-05  -3.00407e-05 -0.18001 2.00272e-05  -0.000351906 -0.186969 2.14577e-05  -0.000683069 -0.193969 2.47955e-05  -0.00102234 -0.201005 2.76566e-05  -0.00136757 -0.208069 3.52859e-05  -0.00171995 -0.215159 4.14848e-05  -0.00208068 -0.222273 4.33922e-05  -0.00244737 -0.229402 4.95911e-05  -0.00282097 -0.236551 4.86374e-05  -0.00319839 -0.243712 5.10216e-05  -0.00358009 -0.250881 4.91142e-05  -0.0039649 -0.258058 4.29153e-05  -0.00435209 -0.265237 5.19753e-05  -0.00474262 -0.272419 5.14984e-05  -0.00513625 -0.279602 5.96046e-05  -0.00553274 -0.286781 6.10352e-05  -0.00593162 -0.293958 6.58035e-05  -0.00633287 -0.30113 7.43866e-05  -0.00673699 -0.308301 7.39098e-05  -0.00713897 -0.315458 7.77245e-05  -0.00754023 -0.322608 8.34465e-05  -0.00794148 -0.329745 9.01222e-05  -0.00834394 -0.336875 9.48906e-05  -0.00874639 -0.343991 9.63211e-05  -0.00914907 -0.351096 9.72748e-05  -0.00955129 -0.358186 0.000101089  0 0 0  0.000129268 -0.00035584 -2.86102e-06  0.000429779 -0.00119919 1.43051e-06  0.000855312 -0.00245172 0  0.00136364 -0.00404429 -1.90735e-06  0.00191963 -0.0059374 -3.8147e-06  0.00249705 -0.00809962 -4.76837e-06  0.00307441 -0.010517 -6.19888e-06  0.00363827 -0.0131784 -5.24521e-06  0.00417942 -0.0160783 -1.09673e-05  0.00469148 -0.0192075 -1.43051e-05  0.0051713 -0.0225645 -1.00136e-05  0.00561678 -0.0261424 -1.14441e-05  0.00602794 -0.0299318 -1.71661e-05  0.00640446 -0.0339283 -1.62125e-05  0.00674522 -0.0381237 -1.95503e-05  0.00705147 -0.0425152 -1.62125e-05  0.00732493 -0.047092 -1.85966e-05  0.00756669 -0.0518474 -1.43051e-05  0.00777555 -0.0567746 -1.52588e-05  0.00795245 -0.0618653 -1.33514e-05  0.00809944 -0.0671113 -1.38283e-05  0.00821722 -0.0725042 -1.33514e-05  0.00830543 -0.0780398 -5.24521e-06  0.00836623 -0.0837091 -4.76837e-06  0.00840104 -0.0895085 4.76837e-06  0.00841033 -0.0954232 4.76837e-07  0.00839412 -0.101453 1.43051e-06  0.00835383 -0.107588 -1.43051e-06  0.00828946 -0.113824 -3.8147e-06  0.00820172 -0.120155 4.76837e-07  0.00809216 -0.126572 3.33786e-06  0.00796103 -0.133073 2.86102e-06  0.00780988 -0.139648 2.38419e-06  0.00763988 -0.146294 5.24521e-06  0.00745177 -0.153006 1.28746e-05  0.00724554 -0.159777 1.43051e-05  0.00702357 -0.166603 1.33514e-05  0.00678658 -0.17348 1.90735e-05  0.00653458 -0.180404 1.62125e-05  0.00627041 -0.187368 2.47955e-05  0.00599265 -0.194371 2.81334e-05  0.00570011 -0.201406 3.14713e-05  0.00539517 -0.208474 3.14713e-05  0.00507903 -0.215564 3.19481e-05  0.00475359 -0.222678 4.29153e-05  0.00441933 -0.22981 4.24385e-05  0.00407743 -0.236959 4.91142e-05  0.00372934 -0.244121 4.52995e-05  0.00337458 -0.25129 4.14848e-05  0.00301147 -0.258467 4.673e-05  0.00264072 -0.265646 5.10216e-05  0.00226378 -0.272828 4.86374e-05  0.00188208 -0.28001 5.29289e-05  0.00149679 -0.28719 6.34193e-05  0.00110769 -0.294367 6.86646e-05  0.000716209 -0.301538 7.20024e-05  0.000321627 -0.308709 7.29561e-05  -7.31945e-05 -0.315864 7.58171e-05  -0.000469923 -0.323013 8.39233e-05  -0.000868797 -0.330151 8.72612e-05  -0.00126839 -0.33728 9.01222e-05  -0.00166893 -0.344398 9.15527e-05  -0.00206923 -0.351502 9.67979e-05  -0.00246882 -0.358594 9.87053e-05  0 0 0  0.000196308 -0.000524819 0  0.000652984 -0.00148767 4.76837e-07  0.00129345 -0.00281632 4.29153e-06  0.00205454 -0.00445652 2.38419e-06  0.00288552 -0.0063706 9.53674e-07  0.00374672 -0.00853944 -4.76837e-07  0.00461009 -0.0109563 0  0.00545633 -0.0136104 -9.53674e-06  0.00627315 -0.0165027 -8.10623e-06  0.00705391 -0.0196223 -1.00136e-05  0.00779217 -0.0229735 -1.19209e-05  0.00848633 -0.0265445 -1.33514e-05  0.00913531 -0.0303304 -1.85966e-05  0.00974023 -0.0343229 -1.90735e-05  0.0103022 -0.0385168 -1.62125e-05  0.0108207 -0.0429076 -1.38283e-05  0.0112958 -0.0474826 -1.33514e-05  0.0117275 -0.0522397 -1.95503e-05  0.0121186 -0.0571672 -1.19209e-05  0.0124711 -0.0622594 -1.09673e-05  0.0127861 -0.0675068 -1.57356e-05  0.0130646 -0.0729018 -1.04904e-05  0.013307 -0.0784402 -2.86102e-06  0.0135145 -0.0841103 -5.24521e-06  0.0136881 -0.0899123 -3.33786e-06  0.0138285 -0.0958298 5.24521e-06  0.0139356 -0.101862 1.43051e-06  0.0140127 -0.107998 -1.90735e-06  0.0140595 -0.114237 -1.43051e-06  0.0140783 -0.12057 -1.90735e-06  0.01407 -0.12699 -3.8147e-06  0.0140338 -0.133492 -1.43051e-06  0.0139706 -0.140068 -4.76837e-07  0.0138829 -0.146714 8.10623e-06  0.0137727 -0.153426 1.14441e-05  0.0136397 -0.160201 1.43051e-05  0.0134854 -0.167026 1.43051e-05  0.0133109 -0.173904 1.4782e-05  0.0131173 -0.180828 2.14577e-05  0.0129061 -0.187793 2.24113e-05  0.0126779 -0.194797 2.3365e-05  0.0124335 -0.201832 2.52724e-05  0.0121727 -0.208899 3.48091e-05  0.0118976 -0.215989 3.33786e-05  0.0116081 -0.223103 3.62396e-05  0.0113058 -0.230235 4.33922e-05  0.0109923 -0.237383 4.29153e-05  0.0106678 -0.244543 4.43459e-05  0.0103345 -0.251711 4.14848e-05  0.00999093 -0.258885 4.43459e-05  0.00963664 -0.266064 4.673e-05  0.00927472 -0.273244 5.53131e-05  0.00890684 -0.280426 5.29289e-05  0.00853372 -0.287606 5.76973e-05  0.00815582 -0.294781 6.53267e-05  0.00777316 -0.301951 6.58035e-05  0.00738573 -0.309118 7.29561e-05  0.00699472 -0.316274 7.9155e-05  0.00660205 -0.32342 8.24928e-05  0.0062077 -0.330559 8.72612e-05  0.00581121 -0.337688 9.10759e-05  0.00541282 -0.344805 9.53674e-05  0.00501347 -0.351909 0.000101089  0.00461626 -0.359004 9.53674e-05  0 0 0  0.00027135 -0.000775754 1.43051e-06  0.000901386 -0.00190502 8.10623e-06  0.00177765 -0.003335 7.62939e-06  0.00280958 -0.00502998 4.76837e-06  0.00392655 -0.00696421 -1.90735e-06  0.00507629 -0.00913578 -2.86102e-06  0.00622478 -0.0115435 -2.38419e-06  0.00735068 -0.0141845 -8.10623e-06  0.00844073 -0.0170601 -1.14441e-05  0.00948465 -0.0201663 -1.14441e-05  0.0104769 -0.0235035 -1.19209e-05  0.0114166 -0.027062 -1.19209e-05  0.0123017 -0.0308396 -1.33514e-05  0.0131331 -0.034824 -1.95503e-05  0.0139112 -0.0390121 -1.38283e-05  0.0146368 -0.0433978 -1.57356e-05  0.0153106 -0.0479683 -1.85966e-05  0.0159341 -0.0527225 -1.04904e-05  0.0165097 -0.0576469 -1.38283e-05  0.0170375 -0.0627369 -1.33514e-05  0.0175192 -0.067982 -1.23978e-05  0.0179555 -0.073377 -9.05991e-06  0.0183496 -0.0789121 -8.10623e-06  0.018703 -0.0845826 -1.43051e-06  0.0190139 -0.0903814 -2.86102e-06  0.0192833 -0.0962994 0  0.0195142 -0.10233 1.43051e-06  0.0197084 -0.108466 -1.90735e-06  0.0198666 -0.114703 -7.62939e-06  0.0199902 -0.121037 -1.90735e-06  0.0200791 -0.127456 2.38419e-06  0.0201364 -0.133957 -2.86102e-06  0.0201633 -0.140533 3.33786e-06  0.02016 -0.147177 2.38419e-06  0.0201263 -0.153888 7.62939e-06  0.0200651 -0.160659 9.53674e-06  0.0199776 -0.167486 1.52588e-05  0.0198658 -0.17436 1.57356e-05  0.0197299 -0.181283 2.38419e-05  0.0195715 -0.188247 3.00407e-05  0.0193925 -0.195248 3.24249e-05  0.0191927 -0.202283 2.90871e-05  0.0189729 -0.209346 2.90871e-05  0.0187345 -0.216434 3.52859e-05  0.0184793 -0.223546 3.71933e-05  0.018208 -0.230676 4.14848e-05  0.017921 -0.237821 3.95775e-05  0.0176201 -0.244976 4.1008e-05  0.0173068 -0.252143 4.43459e-05  0.0169828 -0.259314 4.673e-05  0.0166476 -0.266492 5.05447e-05  0.0163026 -0.273669 4.62532e-05  0.0159478 -0.28085 5.48363e-05  0.0155857 -0.288027 5.81741e-05  0.0152164 -0.295201 6.19888e-05  0.0148401 -0.302369 6.19888e-05  0.0144584 -0.309531 6.81877e-05  0.0140731 -0.316686 7.48634e-05  0.013684 -0.323831 8.15392e-05  0.0132895 -0.33097 8.82149e-05  0.0128932 -0.338097 9.58443e-05  0.0124967 -0.345213 9.44138e-05  0.0121007 -0.35232 9.39369e-05  0.0117049 -0.359418 0.000101089  0 0 0  0.000361346 -0.00113273 4.29153e-06  0.00120026 -0.00247926 4.76837e-06  0.00234124 -0.00402898 6.67572e-06  0.00366053 -0.00577676 2.86102e-06  0.00506979 -0.00772315 -9.53674e-07  0.00650969 -0.00988626 -4.76837e-06  0.0079425 -0.0122755 -6.19888e-06  0.00934464 -0.0148931 -7.62939e-06  0.0107 -0.0177466 -1.23978e-05  0.0120017 -0.0208319 -1.09673e-05  0.0132456 -0.0241498 -1.19209e-05  0.0144271 -0.0276921 -1.04904e-05  0.015545 -0.0314554 -1.90735e-05  0.0166007 -0.0354281 -2.09808e-05  0.0175934 -0.0396075 -1.85966e-05  0.0185243 -0.0439818 -1.62125e-05  0.0193955 -0.048546 -2.00272e-05  0.0202078 -0.0532933 -2.00272e-05  0.0209638 -0.0582116 -1.90735e-05  0.0216646 -0.0632951 -8.10623e-06  0.0223113 -0.0685363 -1.23978e-05  0.0229068 -0.0739262 -1.04904e-05  0.0234511 -0.0794563 -6.19888e-06  0.0239445 -0.0851231 -6.67572e-06  0.0243899 -0.0909165 4.76837e-07  0.0247906 -0.0968304 4.76837e-07  0.0251462 -0.102859 -9.53674e-07  0.0254567 -0.108992 -4.29153e-06  0.0257231 -0.115225 -3.33786e-06  0.0259482 -0.121554 -4.29153e-06  0.0261351 -0.12797 -4.76837e-07  0.0262837 -0.134467 0  0.0263958 -0.141039 -1.90735e-06  0.0264728 -0.14768 9.53674e-07  0.0265169 -0.154388 6.19888e-06  0.0265276 -0.161154 8.58307e-06  0.0265081 -0.167978 8.58307e-06  0.0264583 -0.174849 2.0504e-05  0.0263801 -0.181768 2.24113e-05  0.0262744 -0.188729 2.28882e-05  0.0261409 -0.195727 2.95639e-05  0.0259833 -0.202757 3.76701e-05  0.0258033 -0.209814 3.91006e-05  0.0256011 -0.2169 3.95775e-05  0.0253801 -0.224006 4.05312e-05  0.0251393 -0.231133 3.57628e-05  0.0248783 -0.238275 3.95775e-05  0.0245996 -0.245425 4.33922e-05  0.0243046 -0.252587 3.8147e-05  0.023998 -0.259754 4.43459e-05  0.0236793 -0.26693 4.57764e-05  0.0233483 -0.274103 5.14984e-05  0.023005 -0.281281 6.00815e-05  0.0226519 -0.288453 5.76973e-05  0.0222888 -0.295626 5.81741e-05  0.0219188 -0.30279 5.96046e-05  0.0215421 -0.309949 6.86646e-05  0.0211601 -0.317102 7.67708e-05  0.0207732 -0.324245 8.44002e-05  0.0203819 -0.331382 8.34465e-05  0.0199888 -0.338507 9.15527e-05  0.019594 -0.345623 9.67979e-05  0.0191967 -0.352733 9.63211e-05  0.0187998 -0.359834 0.000104427  0 0 0  0.000481091 -0.00163358 5.72205e-06  0.00157331 -0.00324994 5.72205e-06  0.00302573 -0.00492471 -1.90735e-06  0.00465512 -0.00670773 -3.33786e-06  0.00636008 -0.00864804 -1.90735e-06  0.00808403 -0.0107856 -3.33786e-06  0.00979125 -0.0131443 2.86102e-06  0.0114591 -0.015731 -4.29153e-06  0.013075 -0.0185545 -7.62939e-06  0.0146302 -0.0216132 -9.05991e-06  0.0161178 -0.0249075 -1.28746e-05  0.0175353 -0.0284293 -2.0504e-05  0.0188817 -0.0321727 -1.71661e-05  0.0201567 -0.0361313 -2.6226e-05  0.0213614 -0.040297 -2.3365e-05  0.0224966 -0.0446587 -1.57356e-05  0.0235628 -0.0492121 -2.19345e-05  0.0245622 -0.0539491 -2.3365e-05  0.0254976 -0.0588577 -1.90735e-05  0.02637 -0.0639324 -1.28746e-05  0.0271809 -0.0691655 -8.58307e-06  0.0279311 -0.0745468 -1.09673e-05  0.0286232 -0.0800708 -1.38283e-05  0.0292586 -0.0857301 -1.00136e-05  0.0298395 -0.0915157 -8.58307e-06  0.0303659 -0.0974237 -9.53674e-07  0.0308403 -0.103445 -4.76837e-06  0.0312653 -0.109571 -9.53674e-07  0.0316405 -0.1158 -1.90735e-06  0.0319688 -0.12212 -9.05991e-06  0.0322517 -0.128531 -2.86102e-06  0.0324905 -0.135022 4.29153e-06  0.0326886 -0.141587 1.43051e-06  0.0328465 -0.148224 -4.76837e-07  0.032964 -0.154924 -4.76837e-07  0.0330429 -0.161686 6.19888e-06  0.0330865 -0.168503 1.57356e-05  0.033097 -0.17537 1.43051e-05  0.0330751 -0.182281 2.47955e-05  0.0330198 -0.189237 2.71797e-05  0.0329328 -0.196229 2.81334e-05  0.0328157 -0.203253 3.29018e-05  0.0326729 -0.210303 3.8147e-05  0.0325058 -0.217383 4.24385e-05  0.0323138 -0.224484 3.57628e-05  0.0320985 -0.231605 3.8147e-05  0.031862 -0.238742 4.48227e-05  0.0316074 -0.245887 4.05312e-05  0.0313342 -0.253042 3.86238e-05  0.0310438 -0.260205 4.91142e-05  0.0307362 -0.267375 4.91142e-05  0.0304148 -0.274546 5.19753e-05  0.0300817 -0.281716 5.10216e-05  0.0297368 -0.288884 5.72205e-05  0.0293806 -0.296053 5.24521e-05  0.029016 -0.303214 6.1512e-05  0.0286429 -0.310369 7.00951e-05  0.0282617 -0.31752 7.53403e-05  0.0278769 -0.324661 7.86781e-05  0.0274887 -0.331795 8.86917e-05  0.0270963 -0.338919 8.96454e-05  0.0266995 -0.346035 9.05991e-05  0.0263016 -0.353147 0.000103951  0.0259042 -0.360251 0.000107765  0 0 0  0.000623986 -0.00234574 4.76837e-06  0.00209071 -0.00428683 6.67572e-06  0.00389677 -0.00604284 4.76837e-06  0.00583971 -0.0078221 -8.10623e-06  0.00783271 -0.00972998 -3.8147e-06  0.00982726 -0.0118243 2.38419e-06  0.0117954 -0.0141387 -1.90735e-06  0.0137201 -0.0166887 -6.67572e-06  0.0155858 -0.0194755 -7.15256e-06  0.017383 -0.0225034 -8.10623e-06  0.0191084 -0.0257699 -1.4782e-05  0.0207568 -0.0292676 -1.71661e-05  0.0223271 -0.0329883 -2.00272e-05  0.02382 -0.0369297 -1.95503e-05  0.0252347 -0.0410771 -2.14577e-05  0.0265704 -0.0454258 -2.28882e-05  0.0278289 -0.049964 -2.43187e-05  0.0290133 -0.0546865 -2.38419e-05  0.0301247 -0.0595837 -1.71661e-05  0.0311649 -0.0646465 -1.04904e-05  0.0321374 -0.069867 -1.43051e-05  0.0330433 -0.0752383 -1.4782e-05  0.0338826 -0.0807534 -1.66893e-05  0.0346577 -0.0864021 -1.00136e-05  0.0353711 -0.0921771 -6.67572e-06  0.0360239 -0.0980769 -6.67572e-06  0.0366173 -0.104088 -4.76837e-07  0.0371537 -0.110205 -3.33786e-06  0.0376344 -0.116426 -2.86102e-06  0.0380626 -0.122736 -4.76837e-06  0.0384394 -0.129138 -1.43051e-06  0.0387676 -0.13562 9.53674e-07  0.0390472 -0.142176 -1.90735e-06  0.0392797 -0.148805 -9.53674e-07  0.0394695 -0.155496 -1.90735e-06  0.0396168 -0.16225 3.33786e-06  0.0397229 -0.169058 5.72205e-06  0.0397897 -0.175918 1.90735e-05  0.039819 -0.182822 2.57492e-05  0.0398116 -0.189768 2.76566e-05  0.0397689 -0.196751 2.81334e-05  0.0396936 -0.203768 3.43323e-05  0.0395875 -0.210812 3.67165e-05  0.0394533 -0.217883 4.1008e-05  0.0392895 -0.224978 3.43323e-05  0.0390978 -0.23209 3.57628e-05  0.038883 -0.239219 4.19617e-05  0.0386481 -0.246358 3.52859e-05  0.038393 -0.253507 4.19617e-05  0.0381167 -0.260664 4.14848e-05  0.037822 -0.267827 5.29289e-05  0.0375099 -0.274994 5.24521e-05  0.0371821 -0.282154 4.72069e-05  0.0368402 -0.289318 5.14984e-05  0.0364873 -0.296482 5.62668e-05  0.0361257 -0.303639 5.96046e-05  0.0357549 -0.310789 6.96182e-05  0.0353763 -0.317938 7.48634e-05  0.034991 -0.325077 7.48634e-05  0.0345995 -0.332208 8.7738e-05  0.0342047 -0.339329 9.20296e-05  0.033808 -0.346445 9.48906e-05  0.0334079 -0.353557 0.00010252  0.0330076 -0.360665 0.000107288  0 0 0  0.00110292 -0.00346941 3.33786e-06  0.00300451 -0.0056079 3.8147e-06  0.00511755 -0.00736552 -9.53674e-07  0.00731558 -0.00909197 -3.33786e-06  0.00954396 -0.0109434 -1.90735e-06  0.0117731 -0.0129817 -1.90735e-06  0.0139783 -0.0152447 -2.38419e-06  0.016139 -0.0177527 -4.29153e-06  0.0182418 -0.020501 -6.19888e-06  0.0202761 -0.0234959 -6.19888e-06  0.0222337 -0.0267324 -1.71661e-05  0.0241102 -0.0302025 -1.7643e-05  0.025902 -0.0339001 -1.66893e-05  0.0276067 -0.037819 -1.66893e-05  0.0292245 -0.0419464 -2.00272e-05  0.0307571 -0.0462776 -2.24113e-05  0.0322069 -0.0507977 -2.6226e-05  0.0335732 -0.0555043 -2.57492e-05  0.0348586 -0.0603861 -1.66893e-05  0.0360664 -0.0654352 -1.4782e-05  0.0371977 -0.0706406 -1.95503e-05  0.0382543 -0.0759983 -1.38283e-05  0.0392385 -0.0815012 -1.66893e-05  0.0401509 -0.0871367 -1.33514e-05  0.0409927 -0.0928987 -1.57356e-05  0.0417672 -0.0987858 -6.19888e-06  0.0424771 -0.104784 -6.19888e-06  0.0431243 -0.110891 -4.76837e-07  0.0437096 -0.117099 -1.43051e-06  0.0442363 -0.123398 -3.8147e-06  0.044705 -0.129787 4.29153e-06  0.0451174 -0.136257 -4.76837e-07  0.0454769 -0.142804 -2.86102e-06  0.0457854 -0.149422 -7.15256e-06  0.0460443 -0.156101 4.76837e-07  0.0462551 -0.162846 3.8147e-06  0.0464227 -0.169643 1.00136e-05  0.0465455 -0.176492 1.43051e-05  0.0466242 -0.183389 2.0504e-05  0.0466619 -0.190321 3.14713e-05  0.0466609 -0.197294 3.19481e-05  0.0466247 -0.204301 3.09944e-05  0.0465534 -0.211338 3.33786e-05  0.0464487 -0.218398 3.57628e-05  0.0463116 -0.225485 3.57628e-05  0.0461454 -0.232587 3.8147e-05  0.0459507 -0.239706 3.43323e-05  0.0457301 -0.246837 4.00543e-05  0.0454867 -0.253978 4.14848e-05  0.0452223 -0.261128 4.52995e-05  0.0449359 -0.268282 4.52995e-05  0.044631 -0.275442 5.00679e-05  0.0443106 -0.282595 4.81606e-05  0.0439732 -0.289754 4.91142e-05  0.0436225 -0.296909 5.19753e-05  0.0432582 -0.304064 5.91278e-05  0.0428851 -0.311208 6.91414e-05  0.0425026 -0.318354 7.24792e-05  0.042114 -0.32549 7.82013e-05  0.0417218 -0.332619 8.67844e-05  0.0413253 -0.339737 9.48906e-05  0.0409248 -0.346854 9.53674e-05  0.0405233 -0.353966 9.87053e-05  0.040122 -0.361079 0.00010252  0 0 0  -0.00113906 -0.00329725 0.000290394  -0.00303905 -0.00529569 0.00052166  -0.00514054 -0.0069444 0.000706196  -0.00733092 -0.00856817 0.000845432  -0.00956321 -0.0103101 0.000946045  -0.0118077 -0.0122393 0.00100899  -0.0140418 -0.0143764 0.00104237  -0.0162503 -0.0167496 0.00105762  -0.0184197 -0.0193584 0.00105286  -0.0205416 -0.0221996 0.00103807  -0.0226112 -0.0252762 0.00101757  -0.024622 -0.0285778 0.000990868  -0.026572 -0.0321069 0.000952721  -0.0284624 -0.0358461 0.000915527  -0.0302921 -0.0397919 0.000873566  -0.032062 -0.0439375 0.000833511  -0.0337763 -0.0482739 0.000796795  -0.0354352 -0.0527892 0.000761509  -0.0370396 -0.0574829 0.000730991  -0.0385926 -0.0623442 0.000699997  -0.0400965 -0.0673666 0.00067234  -0.0415517 -0.0725411 0.00064373  -0.042958 -0.0778591 0.000617504  -0.0443189 -0.0833204 0.000588417  -0.0456359 -0.0889078 0.000564575  -0.0469118 -0.0946261 0.000544071  -0.0481445 -0.100462 0.000517368  -0.0493344 -0.106408 0.000495911  -0.0504841 -0.112462 0.000465393  -0.0515938 -0.118617 0.000432491  -0.0526663 -0.124863 0.000413418  -0.0537027 -0.131201 0.000384808  -0.0547037 -0.137621 0.000369549  -0.0556712 -0.144116 0.000349045  -0.0566046 -0.150682 0.000329971  -0.0575051 -0.157315 0.000312328  -0.0583742 -0.164014 0.000288963  -0.0592105 -0.170768 0.000276089  -0.0600159 -0.177575 0.000263214  -0.0607929 -0.184428 0.000243664  -0.0615413 -0.191324 0.00023222  -0.0622628 -0.198262 0.000213623  -0.062958 -0.205232 0.000195026  -0.0636299 -0.212237 0.000182629  -0.064276 -0.219268 0.000180244  -0.0648966 -0.226325 0.000169754  -0.0654948 -0.233406 0.000154972  -0.066071 -0.240499 0.000148773  -0.0666263 -0.247609 0.000140667  -0.0671623 -0.254732 0.00013113  -0.0676813 -0.261865 0.000126362  -0.0681851 -0.269007 0.000117779  -0.0686738 -0.276155 0.000113487  -0.0691457 -0.283299 0.00010252  -0.0696054 -0.290448 0.000106812  -0.0700545 -0.297595 0.000105858  -0.0704932 -0.304737 0.000103474  -0.0709226 -0.311877 0.000105858  -0.0713444 -0.319009 9.82285e-05  -0.0717595 -0.32614 9.72748e-05  -0.0721688 -0.333263 0.000104904  -0.0725756 -0.340379 0.000103951  -0.0729809 -0.347495 0.000109673  -0.0733864 -0.354599 0.000104904  0 0 0  -0.000633638 -0.00217281 0.000226974  -0.00208641 -0.003984 0.00043726  -0.00386906 -0.00563907 0.000607967  -0.0057915 -0.00732152 0.000730038  -0.00777403 -0.00913713 0.000824451  -0.00977299 -0.011133 0.000879288  -0.011763 -0.0133414 0.000908852  -0.0137266 -0.0157746 0.000918865  -0.0156523 -0.0184448 0.00092268  -0.0175335 -0.0213448 0.000903606  -0.0193647 -0.024476 0.000884056  -0.0211457 -0.0278322 0.000859737  -0.0228755 -0.0314097 0.000826836  -0.0245514 -0.0351998 0.000795364  -0.0261753 -0.0391918 0.000756264  -0.0277501 -0.0433835 0.000725269  -0.0292753 -0.0477635 0.000691891  -0.0307525 -0.0523238 0.000658035  -0.032185 -0.0570596 0.000632763  -0.0335747 -0.0619622 0.000599384  -0.0349221 -0.0670248 0.000581741  -0.0362272 -0.0722372 0.00055933  -0.0374936 -0.0775954 0.00053215  -0.0387228 -0.0830907 0.000514507  -0.0399141 -0.088716 0.000495911  -0.0410684 -0.0944683 0.000476837  -0.0421876 -0.100339 0.000450611  -0.0432717 -0.106318 0.000432014  -0.0443219 -0.112403 0.000403881  -0.0453386 -0.118588 0.000381947  -0.0463227 -0.124865 0.000354767  -0.0472766 -0.13123 0.000340462  -0.0482016 -0.137675 0.00031805  -0.0490968 -0.144197 0.000305653  -0.0499644 -0.15079 0.000288486  -0.0508044 -0.157447 0.000273705  -0.0516169 -0.164168 0.00026226  -0.0524025 -0.170944 0.000238895  -0.0531626 -0.17777 0.000230312  -0.0538981 -0.184643 0.000220776  -0.0546091 -0.191559 0.000202179  -0.0552962 -0.198513 0.000190735  -0.0559595 -0.205501 0.000178337  -0.0566003 -0.212521 0.000164509  -0.0572214 -0.219566 0.000156403  -0.0578227 -0.226637 0.000151157  -0.0584044 -0.233729 0.000144005  -0.0589654 -0.240835 0.000135899  -0.0595093 -0.247957 0.000128746  -0.0600376 -0.255091 0.00012207  -0.06055 -0.262232 0.000122547  -0.0610483 -0.269381 0.000116348  -0.0615337 -0.276534 0.000102997  -0.062007 -0.283688 0.000106335  -0.0624673 -0.29084 0.000102997  -0.062917 -0.297992 9.82285e-05  -0.0633593 -0.305137 0.000102997  -0.0637925 -0.312279 9.77516e-05  -0.0642166 -0.319415 9.9659e-05  -0.0646365 -0.326546 9.91821e-05  -0.0650506 -0.333668 9.72748e-05  -0.0654604 -0.340786 0.000102997  -0.0658696 -0.347898 0.000104427  -0.0662773 -0.355002 0.000103474  0 0 0  -0.000477687 -0.00146781 0.000198364  -0.00154611 -0.00296521 0.000371456  -0.00296506 -0.00454932 0.00051403  -0.00456481 -0.00624417 0.000616074  -0.00625083 -0.00810666 0.00069809  -0.00796831 -0.0101582 0.000745773  -0.00968653 -0.0124277 0.000778198  -0.0113868 -0.0149183 0.000781059  -0.0130566 -0.0176441 0.000783443  -0.0146876 -0.0205979 0.000773907  -0.0162783 -0.0237806 0.000747681  -0.0178249 -0.0271845 0.000726223  -0.019326 -0.0308072 0.000699043  -0.0207839 -0.0346418 0.000667572  -0.0221983 -0.038677 0.000643253  -0.0235708 -0.0429103 0.000616074  -0.0249032 -0.0473289 0.000585079  -0.0261971 -0.0519302 0.000561714  -0.0274551 -0.0567038 0.000532627  -0.0286787 -0.0616438 0.000507832  -0.0298666 -0.0667415 0.000488281  -0.0310205 -0.0719897 0.000473499  -0.0321425 -0.0773833 0.000452518  -0.0332334 -0.082911 0.000441074  -0.0342947 -0.0885704 0.00042057  -0.0353273 -0.0943532 0.000402451  -0.0363314 -0.100255 0.000385284  -0.0373062 -0.106264 0.000367165  -0.0382538 -0.112378 0.000344276  -0.0391746 -0.118589 0.000328064  -0.0400708 -0.124895 0.000305176  -0.0409409 -0.131284 0.000290394  -0.041786 -0.137755 0.000270367  -0.0426075 -0.144298 0.000259876  -0.0434067 -0.150916 0.00025177  -0.0441823 -0.157595 0.000240803  -0.0449359 -0.164337 0.000224113  -0.0456684 -0.171132 0.000212669  -0.0463784 -0.177977 0.000204086  -0.0470672 -0.184868 0.000191212  -0.0477355 -0.1918 0.000179768  -0.0483828 -0.198771 0.000167847  -0.0490127 -0.205775 0.000153542  -0.0496259 -0.212807 0.000141144  -0.0502224 -0.219867 0.000143051  -0.0507991 -0.226949 0.000132561  -0.0513599 -0.234053 0.00012207  -0.0519047 -0.24117 0.000123024  -0.0524347 -0.248302 0.000117779  -0.0529504 -0.255445 0.000113487  -0.0534549 -0.262596 0.000104427  -0.0539463 -0.26975 0.000108719  -0.0544248 -0.276909 0.000101089  -0.0548923 -0.28407 9.87053e-05  -0.0553508 -0.291227 0.000102043  -0.0558007 -0.298381 9.67979e-05  -0.056241 -0.305532 9.25064e-05  -0.056674 -0.312676 9.87053e-05  -0.0571008 -0.319816 9.82285e-05  -0.0575206 -0.326948 9.29832e-05  -0.0579362 -0.334072 9.53674e-05  -0.0583489 -0.34119 0.000102043  -0.058758 -0.348299 0.00010252  -0.0591657 -0.355403 0.000100613  0 0 0  -0.000351224 -0.00098668 0.000162125  -0.00115996 -0.0022265 0.000306129  -0.00226244 -0.00369471 0.000420094  -0.00354567 -0.00536643 0.000506401  -0.00492761 -0.00724494 0.000575066  -0.00635335 -0.00933576 0.000623703  -0.0077894 -0.0116503 0.000639439  -0.00921515 -0.0141918 0.00064373  -0.0106174 -0.0169633 0.000640392  -0.0119905 -0.0199658 0.000633717  -0.0133305 -0.0231938 0.000619888  -0.0146362 -0.0266403 0.000592232  -0.0159072 -0.0303037 0.000575066  -0.0171415 -0.034177 0.000552177  -0.0183413 -0.0382518 0.000531673  -0.0195096 -0.042521 0.000511646  -0.0206475 -0.0469759 0.000490665  -0.0217564 -0.0516122 0.000460625  -0.0228362 -0.0564196 0.000442028  -0.0238883 -0.0613924 0.000417709  -0.0249139 -0.0665223 0.000398159  -0.0259137 -0.0718028 0.000385761  -0.0268896 -0.0772271 0.000368118  -0.0278422 -0.0827851 0.000357628  -0.0287725 -0.0884745 0.000349998  -0.0296807 -0.0942855 0.000329494  -0.030566 -0.100212 0.000315189  -0.0314293 -0.106251 0.000301361  -0.0322715 -0.11239 0.000286579  -0.0330929 -0.118627 0.000275135  -0.0338939 -0.124956 0.000261307  -0.0346763 -0.131368 0.000238419  -0.0354404 -0.137861 0.000227928  -0.0361841 -0.144427 0.000216961  -0.0369101 -0.151064 0.000205994  -0.0376208 -0.157765 0.000199795  -0.0383132 -0.164523 0.000190735  -0.0389881 -0.171336 0.000176907  -0.0396473 -0.178198 0.000170708  -0.0402899 -0.185105 0.000159264  -0.0409145 -0.192052 0.000154972  -0.0415232 -0.199038 0.000146389  -0.0421178 -0.206056 0.000137806  -0.0426979 -0.213101 0.000130653  -0.0432644 -0.220173 0.000120163  -0.0438163 -0.227266 0.000115871  -0.0443549 -0.23438 0.000113487  -0.0448804 -0.241508 0.000107765  -0.0453935 -0.248648 0.000106335  -0.0458953 -0.255799 0.000100613  -0.046386 -0.262958 9.67979e-05  -0.0468669 -0.270118 0.00010252  -0.0473399 -0.277283 9.9659e-05  -0.047802 -0.284448 0.000100136  -0.0482533 -0.291612 9.67979e-05  -0.0486979 -0.298769 9.67979e-05  -0.0491359 -0.305924 9.34601e-05  -0.0495677 -0.313072 9.53674e-05  -0.0499947 -0.320213 9.77516e-05  -0.0504165 -0.327347 9.82285e-05  -0.050833 -0.334474 9.67979e-05  -0.0512462 -0.341591 9.58443e-05  -0.0516562 -0.348698 0.000100136  -0.0520661 -0.355799 9.67979e-05  0 0 0  -0.000258975 -0.000655577 0.000126839  -0.000855409 -0.00169285 0.000239372  -0.00168781 -0.00305319 0.000335217  -0.00267619 -0.00468346 0.000401497  -0.00375828 -0.00656024 0.000453949  -0.00488734 -0.00867359 0.000486374  -0.00603375 -0.0110211 0.000505447  -0.00717881 -0.0136025 0.000510693  -0.00831038 -0.0164126 0.000506878  -0.00942016 -0.0194547 0.00049448  -0.010505 -0.0227208 0.00048399  -0.0115651 -0.0262056 0.000473976  -0.0125998 -0.0299044 0.000448227  -0.013609 -0.0338102 0.000430584  -0.0145938 -0.0379203 0.000415802  -0.0155557 -0.0422204 0.000403404  -0.0164952 -0.0467077 0.000387669  -0.0174143 -0.0513744 0.00036335  -0.0183138 -0.0562112 0.000345707  -0.019194 -0.0612123 0.000328064  -0.0200551 -0.0663712 0.000317574  -0.0208987 -0.0716796 0.000301838  -0.0217257 -0.0771308 0.00028944  -0.0225358 -0.082716 0.00027895  -0.0233307 -0.0884323 0.000269413  -0.02411 -0.0942675 0.000265598  -0.0248759 -0.100219 0.000248909  -0.0256269 -0.106281 0.000241756  -0.0263627 -0.112443 0.000226021  -0.0270827 -0.118703 0.000213623  -0.0277888 -0.125053 0.000205517  -0.0284812 -0.131485 0.000190258  -0.02916 -0.137998 0.000181198  -0.0298262 -0.144584 0.000172615  -0.0304804 -0.151237 0.000164509  -0.0311222 -0.157957 0.000156403  -0.0317502 -0.164732 0.000150204  -0.0323658 -0.171559 0.000142574  -0.032969 -0.178437 0.000139236  -0.0335605 -0.185359 0.000134945  -0.0341411 -0.19232 0.000123978  -0.0347116 -0.199317 0.000119686  -0.0352683 -0.206348 0.000114918  -0.0358119 -0.213406 0.000109673  -0.0363457 -0.220487 0.000102997  -0.0368698 -0.227591 0.000105858  -0.037384 -0.234713 0.000104904  -0.0378876 -0.241851 9.44138e-05  -0.0383813 -0.248998 9.01222e-05  -0.038867 -0.256157 8.96454e-05  -0.0393436 -0.263321 9.29832e-05  -0.0398118 -0.270488 9.15527e-05  -0.0402732 -0.277658 9.15527e-05  -0.0407271 -0.284827 9.15527e-05  -0.0411744 -0.291994 9.25064e-05  -0.041615 -0.299157 9.87053e-05  -0.0420501 -0.306316 9.39369e-05  -0.0424783 -0.313466 9.48906e-05  -0.0429003 -0.320608 9.34601e-05  -0.0433195 -0.327745 8.91685e-05  -0.0437357 -0.334873 8.58307e-05  -0.0441492 -0.341991 8.7738e-05  -0.0445607 -0.349096 9.91821e-05  -0.0449712 -0.356194 9.72748e-05  0 0 0  -0.000180114 -0.000431865 9.44138e-05  -0.000599816 -0.00132212 0.000177383  -0.00119452 -0.00259361 0.000253201  -0.00190967 -0.00418249 0.000303268  -0.00270173 -0.00604945 0.000330448  -0.00353694 -0.00817454 0.000353336  -0.00439221 -0.0105454 0.000370979  -0.00525275 -0.0131565 0.000375271  -0.00610805 -0.015998 0.000374317  -0.00695068 -0.0190712 0.000364304  -0.00777781 -0.0223685 0.000359535  -0.0085898 -0.025885 0.000344276  -0.00938648 -0.0296131 0.000326633  -0.0101675 -0.0335474 0.000319004  -0.0109341 -0.0376864 0.000308037  -0.0116868 -0.0420138 0.000300407  -0.0124267 -0.0465286 0.000285149  -0.0131541 -0.0512205 0.000267982  -0.0138699 -0.0560828 0.000248909  -0.0145752 -0.0611088 0.000238419  -0.0152705 -0.0662918 0.000230789  -0.0159562 -0.0716247 0.000221252  -0.0166332 -0.077099 0.000212669  -0.0173016 -0.0827076 0.00020647  -0.0179604 -0.0884465 0.000196457  -0.0186106 -0.0943038 0.00018549  -0.0192521 -0.100278 0.000183105  -0.0198859 -0.106359 0.000177383  -0.020512 -0.112542 0.000167847  -0.0211283 -0.11882 0.000159264  -0.0217369 -0.125188 0.000146389  -0.0223376 -0.131639 0.000141621  -0.0229313 -0.138168 0.000135422  -0.0235186 -0.144772 0.000133038  -0.0240979 -0.151441 0.000124931  -0.0246677 -0.158175 0.000120163  -0.0252295 -0.164965 0.000115395  -0.025785 -0.171806 0.000114441  -0.0263333 -0.178697 0.000109196  -0.0268741 -0.185631 0.000105858  -0.0274069 -0.192605 9.77516e-05  -0.027931 -0.199613 9.53674e-05  -0.0284467 -0.206654 9.34601e-05  -0.0289543 -0.213723 9.01222e-05  -0.0294554 -0.220813 8.82149e-05  -0.0299504 -0.227925 9.25064e-05  -0.0304387 -0.235055 8.72612e-05  -0.0309191 -0.2422 8.15392e-05  -0.0313928 -0.249355 8.01086e-05  -0.0318618 -0.25652 8.34465e-05  -0.0323243 -0.263688 8.34465e-05  -0.0327795 -0.27086 7.72476e-05  -0.0332284 -0.278035 8.34465e-05  -0.0336707 -0.285207 8.86917e-05  -0.0341079 -0.292378 8.63075e-05  -0.0345428 -0.299545 9.15527e-05  -0.0349731 -0.306707 9.53674e-05  -0.0353971 -0.31386 9.48906e-05  -0.0358183 -0.321005 9.53674e-05  -0.0362363 -0.328141 9.05991e-05  -0.0366518 -0.33527 9.01222e-05  -0.0370646 -0.342388 9.58443e-05  -0.0374734 -0.349493 9.58443e-05  -0.0378826 -0.356588 0.000100136  0 0 0  -0.000113133 -0.000291198 6.10352e-05  -0.000375308 -0.00108391 0.00012207  -0.000750571 -0.00229236 0.000164032  -0.00120956 -0.00384942 0.000197411  -0.00172493 -0.00570667 0.000214577  -0.00227386 -0.00783756 0.000234127  -0.00284106 -0.0102251 0.00024271  -0.00341526 -0.0128561 0.000243187  -0.00398916 -0.0157219 0.000248909  -0.00456089 -0.0188202 0.000239849  -0.00512809 -0.0221412 0.000228405  -0.00568938 -0.0256822 0.000219822  -0.00624502 -0.0294344 0.000211716  -0.006796 -0.0333925 0.000205517  -0.00734276 -0.0375539 0.000196457  -0.00788498 -0.0419036 0.000191689  -0.00842333 -0.0464412 0.000183582  -0.0089581 -0.0511536 0.000170231  -0.00948989 -0.0560383 0.000166893  -0.0100189 -0.0610849 0.000155926  -0.0105458 -0.066288 0.000144005  -0.0110719 -0.0716414 0.000136852  -0.0115972 -0.077135 0.000134468  -0.0121205 -0.0827633 0.00013113  -0.0126413 -0.0885214 0.000127316  -0.0131608 -0.0943985 0.000123024  -0.0136797 -0.100389 0.000118256  -0.014196 -0.106488 0.000115395  -0.0147111 -0.112688 0.000106812  -0.0152229 -0.118981 0.000103474  -0.0157331 -0.125366 9.9659e-05  -0.0162424 -0.131832 9.53674e-05  -0.0167496 -0.138377 8.72612e-05  -0.0172536 -0.144994 9.05991e-05  -0.0177548 -0.151677 8.63075e-05  -0.0182548 -0.158423 8.39233e-05  -0.0187521 -0.165225 8.24928e-05  -0.0192456 -0.172078 7.9155e-05  -0.0197351 -0.17898 7.72476e-05  -0.02022 -0.185924 7.77245e-05  -0.0207021 -0.192909 7.58171e-05  -0.0211818 -0.199925 7.29561e-05  -0.0216587 -0.206976 7.10487e-05  -0.0221303 -0.214052 7.00951e-05  -0.0225964 -0.221151 7.43866e-05  -0.0230594 -0.228271 7.53403e-05  -0.0235202 -0.235407 7.58171e-05  -0.0239763 -0.242557 7.00951e-05  -0.0244284 -0.24972 7.15256e-05  -0.0248771 -0.256888 6.86646e-05  -0.0253208 -0.264061 7.58171e-05  -0.0257599 -0.271238 6.81877e-05  -0.026196 -0.278415 7.72476e-05  -0.0266275 -0.285591 7.9155e-05  -0.0270569 -0.292765 8.05855e-05  -0.0274827 -0.299935 8.34465e-05  -0.0279069 -0.307099 8.72612e-05  -0.0283287 -0.314255 9.10759e-05  -0.0287459 -0.321402 9.48906e-05  -0.0291598 -0.328539 8.96454e-05  -0.0295711 -0.335668 9.10759e-05  -0.0299809 -0.342786 9.15527e-05  -0.0303895 -0.349891 9.58443e-05  -0.0307965 -0.356984 9.77516e-05  0 0 0  -5.05932e-05 -0.000218123 3.33786e-05  -0.000168294 -0.000957727 6.00815e-05  -0.000340387 -0.00213268 7.82013e-05  -0.000554815 -0.00367194 9.39369e-05  -0.000799417 -0.00552481 0.000106335  -0.00106514 -0.00766042 0.000112534  -0.00134438 -0.0100587 0.000115395  -0.00163242 -0.0127032 0.000116348  -0.0019275 -0.0155865 0.000115871  -0.00222778 -0.018703 0.000108719  -0.00253278 -0.0220411 0.000108242  -0.00284278 -0.0255997 0.000102043  -0.0031572 -0.0293702 9.72748e-05  -0.00347519 -0.0333467 8.91685e-05  -0.00379837 -0.0375248 9.01222e-05  -0.00412744 -0.0418925 8.4877e-05  -0.00446284 -0.0464472 7.86781e-05  -0.00480485 -0.0511774 7.53403e-05  -0.00515306 -0.0560796 7.62939e-05  -0.00550652 -0.0611426 7.15256e-05  -0.00586557 -0.0663618 6.29425e-05  -0.00622988 -0.071732 6.1512e-05  -0.00660086 -0.0772422 5.53131e-05  -0.00697803 -0.082886 5.53131e-05  -0.00736117 -0.08866 6.4373e-05  -0.00775003 -0.0945522 5.96046e-05  -0.00814307 -0.100557 5.8651e-05  -0.00854158 -0.106671 5.48363e-05  -0.00894463 -0.112884 5.24521e-05  -0.00935173 -0.119191 5.19753e-05  -0.00976336 -0.125588 4.91142e-05  -0.0101786 -0.132067 4.91142e-05  -0.0105977 -0.138624 4.95911e-05  -0.0110207 -0.145253 4.24385e-05  -0.0114448 -0.151948 4.86374e-05  -0.0118697 -0.158704 5.19753e-05  -0.0122955 -0.165516 5.24521e-05  -0.0127244 -0.172379 5.05447e-05  -0.0131564 -0.179289 5.00679e-05  -0.0135887 -0.186241 4.86374e-05  -0.0140209 -0.193233 4.72069e-05  -0.0144536 -0.200259 4.95911e-05  -0.0148871 -0.207316 4.72069e-05  -0.0153203 -0.214399 5.34058e-05  -0.015754 -0.221504 5.48363e-05  -0.0161855 -0.228631 5.91278e-05  -0.0166144 -0.235771 6.19888e-05  -0.0170438 -0.242926 5.67436e-05  -0.017473 -0.250094 5.96046e-05  -0.0179002 -0.257264 5.62668e-05  -0.0183272 -0.264441 6.29425e-05  -0.0187521 -0.271621 6.05583e-05  -0.0191746 -0.2788 6.96182e-05  -0.0195951 -0.28598 7.39098e-05  -0.0200126 -0.293156 7.77245e-05  -0.0204294 -0.300327 7.82013e-05  -0.0208452 -0.307494 8.15392e-05  -0.0212593 -0.314652 8.01086e-05  -0.0216718 -0.321801 8.72612e-05  -0.0220821 -0.32894 8.4877e-05  -0.0224905 -0.336066 9.15527e-05  -0.0228982 -0.343185 9.39369e-05  -0.0233047 -0.35029 9.44138e-05  -0.0237112 -0.357382 9.77516e-05  0 0 0  8.3521e-06 -0.000204623 -9.53674e-07  2.78354e-05 -0.000933945 -2.38419e-06  5.34803e-05 -0.00210425 -4.76837e-06  8.01384e-05 -0.00364205 -8.58307e-06  0.00010255 -0.00549829 -6.67572e-06  0.000117928 -0.00763932 -1.4782e-05  0.000125259 -0.0100444 -1.04904e-05  0.000121593 -0.0126982 -9.05991e-06  0.000105679 -0.0155926 -1.7643e-05  7.7188e-05 -0.0187194 -1.19209e-05  3.54052e-05 -0.0220697 -6.67572e-06  -2.19345e-05 -0.0256404 -9.05991e-06  -9.47118e-05 -0.0294232 -1.52588e-05  -0.000182271 -0.0334114 -2.00272e-05  -0.000284314 -0.0376006 -1.81198e-05  -0.000400484 -0.0419808 -2.19345e-05  -0.000532985 -0.0465497 -2.24113e-05  -0.000679851 -0.0512913 -1.81198e-05  -0.000842094 -0.0562079 -1.33514e-05  -0.00101924 -0.0612831 -1.28746e-05  -0.00120962 -0.0665157 -1.43051e-05  -0.00141275 -0.0718979 -1.23978e-05  -0.00162971 -0.0774215 -1.62125e-05  -0.00186181 -0.0830784 -9.05991e-06  -0.00210631 -0.088863 -2.38419e-06  -0.00236189 -0.0947674 -7.15256e-06  -0.00263119 -0.100784 -4.29153e-06  -0.00291169 -0.10691 -4.76837e-06  -0.0032022 -0.113132 -6.19888e-06  -0.00350213 -0.119451 -5.24521e-06  -0.00381124 -0.125859 3.33786e-06  -0.00413144 -0.132347 9.53674e-07  -0.00446153 -0.138914 3.8147e-06  -0.00479817 -0.145551 6.19888e-06  -0.00514293 -0.152256 6.67572e-06  -0.00549555 -0.159019 1.7643e-05  -0.00585413 -0.165839 1.62125e-05  -0.00621963 -0.172708 2.28882e-05  -0.00659132 -0.179625 2.0504e-05  -0.00696826 -0.186584 2.38419e-05  -0.00735021 -0.193582 2.19345e-05  -0.00773716 -0.200613 2.43187e-05  -0.00812793 -0.207675 2.95639e-05  -0.00852084 -0.214763 3.29018e-05  -0.00891733 -0.221876 4.33922e-05  -0.00931573 -0.229004 4.1008e-05  -0.00971699 -0.236149 4.95911e-05  -0.0101199 -0.243309 5.19753e-05  -0.0105247 -0.250478 4.48227e-05  -0.0109315 -0.257652 4.52995e-05  -0.0113385 -0.264831 4.72069e-05  -0.0117471 -0.272012 5.62668e-05  -0.0121572 -0.279193 5.76973e-05  -0.0125668 -0.286375 6.34193e-05  -0.0129752 -0.293553 6.7234e-05  -0.0133832 -0.300725 7.24792e-05  -0.0137913 -0.307894 8.2016e-05  -0.0141988 -0.315052 8.39233e-05  -0.0146062 -0.322202 7.96318e-05  -0.0150132 -0.32934 8.96454e-05  -0.0154195 -0.336469 8.96454e-05  -0.0158238 -0.343585 9.87053e-05  -0.0162272 -0.350691 9.82285e-05  -0.0166295 -0.357781 9.91821e-05  0 0 0  6.77332e-05 -0.000248075 -3.8147e-05  0.000225693 -0.00100899 -6.24657e-05  0.00044854 -0.00220227 -9.01222e-05  0.00071308 -0.00375634 -0.000104427  0.00100112 -0.00562346 -0.000121117  0.00129718 -0.00777149 -0.000130177  0.00158992 -0.0101817 -0.000138283  0.00187129 -0.0128404 -0.00014019  0.00213546 -0.0157396 -0.000137806  0.00237828 -0.0188699 -0.000138283  0.00259709 -0.0222263 -0.00013113  0.00279129 -0.0258033 -0.000124931  0.00296104 -0.0295925 -0.0001297  0.00310594 -0.0335877 -0.000127316  0.00322551 -0.0377824 -0.000125885  0.00332057 -0.0421709 -0.000119209  0.00339186 -0.0467485 -0.000119209  0.00343823 -0.0514984 -0.000112534  0.00346136 -0.0564241 -0.000106812  0.00346255 -0.0615091 -0.000103951  0.0034399 -0.0667509 -9.15527e-05  0.00339592 -0.0721405 -8.7738e-05  0.00333118 -0.0776733 -8.72612e-05  0.00324667 -0.0833403 -8.05855e-05  0.00314283 -0.0891329 -7.10487e-05  0.00301862 -0.0950456 -6.48499e-05  0.00287569 -0.101072 -6.81877e-05  0.00271606 -0.107206 -6.62804e-05  0.00253916 -0.113436 -6.10352e-05  0.00234497 -0.119762 -5.48363e-05  0.00213504 -0.126178 -5.05447e-05  0.00190997 -0.132673 -4.33922e-05  0.00166988 -0.139246 -3.76701e-05  0.00141573 -0.14589 -3.33786e-05  0.00114775 -0.1526 -3.38554e-05  0.000869036 -0.159369 -2.81334e-05  0.000580072 -0.166194 -1.7643e-05  0.000280142 -0.173069 -1.43051e-05  -3.12328e-05 -0.17999 -1.28746e-05  -0.000353575 -0.186954 -5.24521e-06  -0.000685453 -0.193957 -1.43051e-06  -0.00102425 -0.200991 4.76837e-07  -0.00136971 -0.208056 9.53674e-06  -0.00172329 -0.215149 2.00272e-05  -0.00208473 -0.222264 2.38419e-05  -0.00245237 -0.229394 3.24249e-05  -0.00282526 -0.236543 3.33786e-05  -0.00320196 -0.243704 3.71933e-05  -0.00358176 -0.250873 3.48091e-05  -0.00396514 -0.25805 2.90871e-05  -0.00435328 -0.26523 4.1008e-05  -0.00474477 -0.272412 4.14848e-05  -0.0051384 -0.279595 5.05447e-05  -0.00553536 -0.286777 5.48363e-05  -0.00593543 -0.293954 6.10352e-05  -0.00633717 -0.301128 7.05719e-05  -0.00673938 -0.308296 7.10487e-05  -0.00714087 -0.315455 7.29561e-05  -0.00754285 -0.322604 7.86781e-05  -0.0079453 -0.329742 8.7738e-05  -0.00834727 -0.336874 9.34601e-05  -0.00874925 -0.343989 9.58443e-05  -0.00915194 -0.351094 9.77516e-05  -0.009552 -0.358184 0.000101566  0 0 0  0.000129543 -0.000350237 -7.00951e-05  0.00043112 -0.001185 -0.00012064  0.00085786 -0.00242966 -0.000169277  0.00136828 -0.00401616 -0.000204563  0.00192586 -0.00590098 -0.000231743  0.00250283 -0.00805712 -0.000249386  0.00307959 -0.0104704 -0.000257492  0.00364321 -0.0131279 -0.000263691  0.00418377 -0.016026 -0.000265598  0.0046947 -0.0191541 -0.000267982  0.00517422 -0.0225096 -0.000256062  0.00562006 -0.0260866 -0.000251293  0.00603139 -0.0298766 -0.000248432  0.00640678 -0.0338745 -0.000238895  0.00674719 -0.0380705 -0.00023365  0.00705338 -0.0424635 -0.000221729  0.00732613 -0.0470423 -0.000218868  0.00756669 -0.0517991 -0.000205517  0.00777602 -0.0567282 -0.000197887  0.00795364 -0.0618201 -0.000187397  0.00810039 -0.0670669 -0.000179291  0.00821722 -0.0724617 -0.000171661  0.00830531 -0.0780006 -0.000154972  0.0083667 -0.0836715 -0.000151157  0.00840139 -0.0894706 -0.000133991  0.0084095 -0.0953879 -0.000131607  0.00839245 -0.10142 -0.000125408  0.00835299 -0.107557 -0.000124454  0.00828862 -0.113795 -0.000115395  0.00819993 -0.120126 -0.000105381  0.0080893 -0.126545 -9.63211e-05  0.0079577 -0.133046 -8.91685e-05  0.00780725 -0.139622 -8.67844e-05  0.00763798 -0.146271 -8.01086e-05  0.0074513 -0.152984 -6.77109e-05  0.00724649 -0.159756 -5.96046e-05  0.00702477 -0.166584 -5.62668e-05  0.00678635 -0.173461 -4.57764e-05  0.00653434 -0.180386 -4.43459e-05  0.00626945 -0.187352 -3.43323e-05  0.00599098 -0.194357 -2.24113e-05  0.00569916 -0.201394 -1.57356e-05  0.00539446 -0.208459 -9.53674e-06  0.00507855 -0.215553 -7.15256e-06  0.00475311 -0.222669 6.19888e-06  0.00441861 -0.229802 1.19209e-05  0.00407529 -0.236951 1.90735e-05  0.00372529 -0.244113 1.66893e-05  0.00336862 -0.251282 1.71661e-05  0.00300574 -0.258459 2.38419e-05  0.00263667 -0.265639 3.38554e-05  0.00225997 -0.272821 3.38554e-05  0.00187731 -0.280004 4.19617e-05  0.00149131 -0.287184 5.29289e-05  0.00110292 -0.294363 5.96046e-05  0.000712633 -0.301535 6.24657e-05  0.000318289 -0.308704 6.67572e-05  -7.93934e-05 -0.31586 6.91414e-05  -0.000477314 -0.323009 7.72476e-05  -0.00087595 -0.330148 8.39233e-05  -0.00127602 -0.337279 8.58307e-05  -0.00167656 -0.344394 9.20296e-05  -0.00207758 -0.3515 9.67979e-05  -0.00247622 -0.358591 0.000100613  0 0 0  0.00019706 -0.000518918 -0.000100613  0.000654519 -0.00147289 -0.000181675  0.001297 -0.00279468 -0.000247955  0.00206012 -0.00442779 -0.000298977  0.00289157 -0.00633377 -0.000340939  0.00375387 -0.008497 -0.000366688  0.00461838 -0.0109087 -0.000380993  0.0054636 -0.0135605 -0.000391006  0.00627899 -0.0164483 -0.000394344  0.0070582 -0.0195701 -0.000388622  0.00779533 -0.0229179 -0.000382423  0.00848937 -0.0264886 -0.000374794  0.00913858 -0.0302755 -0.000365257  0.0097428 -0.0342693 -0.000355244  0.0103028 -0.0384642 -0.000338554  0.0108194 -0.042856 -0.000323296  0.0112942 -0.047432 -0.000310898  0.0117267 -0.0521911 -0.000300884  0.0121182 -0.0571204 -0.000283241  0.012471 -0.0622143 -0.00027132  0.012786 -0.0674635 -0.000264168  0.0130645 -0.0728604 -0.000249386  0.0133067 -0.0784007 -0.000229836  0.0135134 -0.0840732 -0.000222683  0.0136865 -0.0898746 -0.000211239  0.0138272 -0.0957947 -0.000190735  0.013935 -0.101828 -0.000184059  0.0140113 -0.107967 -0.000179291  0.0140584 -0.114207 -0.000169754  0.0140769 -0.120541 -0.000160217  0.0140666 -0.126962 -0.000151634  0.014029 -0.133466 -0.000140667  0.0139656 -0.140044 -0.000129223  0.0138783 -0.146692 -0.000116348  0.0137687 -0.153405 -0.000107765  0.0136371 -0.160178 -9.53674e-05  0.0134845 -0.167008 -8.82149e-05  0.0133109 -0.173886 -8.01086e-05  0.0131166 -0.180811 -6.62804e-05  0.0129054 -0.187778 -5.91278e-05  0.0126765 -0.194782 -5.19753e-05  0.0124297 -0.201819 -4.24385e-05  0.0121691 -0.208886 -2.90871e-05  0.0118945 -0.215978 -2.43187e-05  0.0116036 -0.223092 -1.38283e-05  0.0113001 -0.230225 -4.29153e-06  0.0109863 -0.237374 0  0.0106626 -0.244534 2.86102e-06  0.010329 -0.251703 5.72205e-06  0.00998497 -0.258879 1.43051e-05  0.00963187 -0.266058 2.14577e-05  0.00927258 -0.273238 3.14713e-05  0.00890589 -0.280422 3.38554e-05  0.00853133 -0.2876 4.24385e-05  0.00815177 -0.294777 5.10216e-05  0.00776839 -0.301948 5.48363e-05  0.00738025 -0.309115 6.10352e-05  0.00699091 -0.31627 7.10487e-05  0.00659895 -0.323417 7.34329e-05  0.00620365 -0.330556 8.15392e-05  0.00580597 -0.337685 8.82149e-05  0.00540614 -0.344801 9.29832e-05  0.00500679 -0.351908 0.000101089  0.00460911 -0.359002 9.63211e-05  0 0 0  0.000271916 -0.000769556 -0.000127792  0.000904351 -0.00188941 -0.000235081  0.00178364 -0.00331247 -0.000326633  0.00281718 -0.00499982 -0.000401497  0.00393429 -0.00692713 -0.00045681  0.00508359 -0.00909215 -0.000489235  0.00623196 -0.0114944 -0.000507832  0.00735813 -0.0141337 -0.000522137  0.00844616 -0.0170052 -0.000523567  0.00948799 -0.020113 -0.000515938  0.0104803 -0.0234472 -0.000505924  0.0114193 -0.0270061 -0.00049305  0.0123044 -0.030785 -0.000477791  0.0131353 -0.0347698 -0.000466824  0.0139129 -0.0389597 -0.000443459  0.0146382 -0.0433461 -0.000428677  0.0153115 -0.0479175 -0.000411987  0.0159351 -0.0526733 -0.000389576  0.01651 -0.0576001 -0.000375271  0.0170374 -0.0626909 -0.000360966  0.0175178 -0.0679401 -0.000342369  0.0179541 -0.0733346 -0.000323296  0.018348 -0.0788725 -0.000312328  0.0187008 -0.0845449 -0.000290394  0.0190119 -0.090345 -0.000277042  0.0192809 -0.0962647 -0.000259399  0.0195111 -0.102297 -0.000245094  0.0197048 -0.108434 -0.000235081  0.0198627 -0.114674 -0.000230312  0.0199866 -0.121008 -0.000212669  0.0200773 -0.127427 -0.000195026  0.0201335 -0.133931 -0.000188828  0.0201581 -0.140508 -0.000172138  0.0201535 -0.147153 -0.000161171  0.0201192 -0.153866 -0.000143528  0.0200582 -0.160638 -0.000135422  0.0199721 -0.167466 -0.000117779  0.019861 -0.174343 -0.000109673  0.0197265 -0.181266 -9.20296e-05  0.0195694 -0.188233 -7.77245e-05  0.0193901 -0.195234 -6.62804e-05  0.0191908 -0.20227 -6.05583e-05  0.0189714 -0.209334 -5.34058e-05  0.0187328 -0.216423 -3.91006e-05  0.0184765 -0.223535 -3.24249e-05  0.0182052 -0.230666 -2.00272e-05  0.0179181 -0.237813 -1.43051e-05  0.0176175 -0.244969 -8.10623e-06  0.0173042 -0.252135 4.76837e-07  0.0169797 -0.259309 5.72205e-06  0.0166454 -0.266487 1.66893e-05  0.0163004 -0.273664 1.66893e-05  0.0159447 -0.280846 3.09944e-05  0.0155816 -0.288021 3.62396e-05  0.0152118 -0.295196 4.48227e-05  0.0148354 -0.302365 4.81606e-05  0.0144539 -0.309529 5.38826e-05  0.0140681 -0.316683 6.38962e-05  0.0136781 -0.323829 7.39098e-05  0.0132854 -0.330965 8.29697e-05  0.0128911 -0.338094 9.05991e-05  0.0124946 -0.345209 9.10759e-05  0.0120955 -0.352317 9.34601e-05  0.0116982 -0.359415 0.000103951  0 0 0  0.000362687 -0.0011254 -0.000158787  0.00120255 -0.00246167 -0.000296116  0.0023445 -0.00400448 -0.000409126  0.00366631 -0.00574315 -0.000504017  0.00507712 -0.00768501 -0.000571728  0.00651801 -0.0098415 -0.00061512  0.00795102 -0.0122253 -0.000639915  0.00935209 -0.0148413 -0.000649929  0.0107076 -0.017692 -0.000652313  0.0120091 -0.0207777 -0.000644207  0.0132505 -0.024094 -0.000630379  0.0144308 -0.0276361 -0.000611782  0.0155479 -0.0314001 -0.000600815  0.0166025 -0.0353738 -0.000583172  0.0175949 -0.039554 -0.000555515  0.0185261 -0.0439308 -0.000535011  0.0193974 -0.0484959 -0.000514507  0.0202079 -0.0532438 -0.000491619  0.020962 -0.0581643 -0.000473022  0.0216626 -0.0632487 -0.000442028  0.0223094 -0.0684933 -0.000427246  0.0229039 -0.0738843 -0.000406742  0.0234481 -0.0794157 -0.000384331  0.0239419 -0.0850853 -0.00036478  0.0243882 -0.0908803 -0.000342369  0.0247889 -0.0967968 -0.000327587  0.0251445 -0.102826 -0.000309944  0.0254552 -0.10896 -0.000296116  0.0257221 -0.115196 -0.000276566  0.0259482 -0.121525 -0.000266075  0.0261352 -0.127942 -0.000247002  0.0262845 -0.134442 -0.000231743  0.0263968 -0.141014 -0.000220299  0.0264726 -0.147657 -0.000202656  0.0265162 -0.154366 -0.000188828  0.0265276 -0.161134 -0.000169754  0.0265069 -0.167959 -0.00015974  0.0264575 -0.174832 -0.000133514  0.0263796 -0.181752 -0.00012207  0.026273 -0.188714 -0.000108719  0.0261402 -0.195711 -8.96454e-05  0.0259826 -0.202743 -7.29561e-05  0.0258029 -0.209803 -6.4373e-05  0.0256016 -0.216889 -5.29289e-05  0.0253806 -0.223994 -4.72069e-05  0.0251384 -0.231123 -3.8147e-05  0.0248761 -0.238265 -2.6226e-05  0.0245974 -0.245418 -1.43051e-05  0.0243034 -0.25258 -1.4782e-05  0.0239954 -0.259749 -4.76837e-06  0.0236754 -0.266924 3.33786e-06  0.023344 -0.274098 1.71661e-05  0.0229998 -0.281276 2.86102e-05  0.0226464 -0.288448 3.19481e-05  0.0222845 -0.29562 3.76701e-05  0.0219145 -0.302786 4.24385e-05  0.0215375 -0.309946 5.19753e-05  0.0211549 -0.317098 6.53267e-05  0.0207694 -0.324243 7.53403e-05  0.0203793 -0.331378 7.72476e-05  0.0199862 -0.338503 8.34465e-05  0.0195913 -0.345619 9.29832e-05  0.0191941 -0.352729 9.82285e-05  0.0187969 -0.35983 0.000106812  0 0 0  0.000481553 -0.00162494 -0.000188828  0.00157481 -0.00322974 -0.000358105  0.00302829 -0.00489771 -0.000505447  0.00465918 -0.00667018 -0.000612736  0.00636593 -0.00860709 -0.000685215  0.00809124 -0.0107392 -0.000737667  0.00979933 -0.0130932 -0.000758648  0.0114685 -0.0156772 -0.000775814  0.013084 -0.0185005 -0.000777721  0.0146371 -0.0215577 -0.000770092  0.0161234 -0.0248517 -0.000756264  0.0175397 -0.0283732 -0.000742912  0.0188851 -0.0321174 -0.000718117  0.020159 -0.0360781 -0.000698566  0.0213625 -0.0402434 -0.000672817  0.0224973 -0.0446075 -0.000637531  0.0235634 -0.0491626 -0.000617027  0.0245631 -0.0539001 -0.00059557  0.0254974 -0.0588114 -0.000565052  0.0263687 -0.0638869 -0.000535965  0.0271792 -0.0691214 -0.000509262  0.0279295 -0.0745068 -0.000487328  0.0286211 -0.0800299 -0.0004673  0.0292571 -0.0856922 -0.000443935  0.0298373 -0.0914806 -0.000419617  0.0303639 -0.0973893 -0.00039196  0.0308396 -0.103413 -0.000375748  0.0312653 -0.10954 -0.000353336  0.0316404 -0.115772 -0.000332355  0.0319686 -0.122093 -0.000322342  0.0322516 -0.128504 -0.0002985  0.0324914 -0.134996 -0.000276566  0.0326896 -0.141563 -0.000263691  0.0328457 -0.148201 -0.000245094  0.0329611 -0.154902 -0.000230312  0.03304 -0.161665 -0.000208855  0.0330853 -0.168483 -0.000187397  0.0330946 -0.175352 -0.000172138  0.0330713 -0.182265 -0.00014925  0.0330164 -0.18922 -0.00013113  0.0329287 -0.196213 -0.000114918  0.0328126 -0.203238 -9.9659e-05  0.0326705 -0.210292 -8.24928e-05  0.0325027 -0.217372 -6.91414e-05  0.0323107 -0.224472 -6.1512e-05  0.0320957 -0.231594 -5.24521e-05  0.0318604 -0.238731 -3.67165e-05  0.0316043 -0.245878 -3.09944e-05  0.0313282 -0.253036 -2.3365e-05  0.0310371 -0.260199 -7.15256e-06  0.030731 -0.267369 4.76837e-07  0.0304101 -0.27454 1.19209e-05  0.030077 -0.28171 1.28746e-05  0.0297308 -0.28888 2.76566e-05  0.0293734 -0.296048 2.67029e-05  0.0290074 -0.303211 4.00543e-05  0.0286353 -0.310366 5.14984e-05  0.0282564 -0.317517 6.29425e-05  0.0278704 -0.324659 6.77109e-05  0.0274811 -0.331792 7.96318e-05  0.0270884 -0.338914 8.4877e-05  0.0266917 -0.34603 8.86917e-05  0.0262928 -0.353141 0.000102997  0.0258965 -0.360245 0.000109673  0 0 0  0.000624187 -0.00233465 -0.000222206  0.00209115 -0.00426203 -0.000422955  0.00389887 -0.00601107 -0.000588894  0.00584376 -0.00778198 -0.000722885  0.00783795 -0.00968415 -0.000805855  0.00983509 -0.0117747 -0.000853062  0.0118053 -0.0140862 -0.000891685  0.013728 -0.0166319 -0.000905991  0.0155919 -0.019421 -0.000905514  0.0173897 -0.0224459 -0.000895023  0.0191143 -0.0257136 -0.000884056  0.0207632 -0.0292114 -0.000861645  0.0223334 -0.0329335 -0.000837803  0.0238248 -0.0368769 -0.0008111  0.0252377 -0.0410246 -0.000781059  0.0265713 -0.0453738 -0.000749588  0.0278292 -0.0499147 -0.000722408  0.0290135 -0.0546389 -0.000692844  0.0301251 -0.0595378 -0.000656605  0.0311657 -0.0646015 -0.000621796  0.0321376 -0.069824 -0.000599861  0.0330422 -0.0751978 -0.000574589  0.0338812 -0.0807135 -0.000546932  0.0346552 -0.0863637 -0.000515461  0.0353682 -0.0921429 -0.000489235  0.0360206 -0.0980427 -0.000462055  0.0366142 -0.104056 -0.000435352  0.0371519 -0.110174 -0.000412464  0.0376331 -0.116397 -0.00039053  0.0380611 -0.12271 -0.000370979  0.0384383 -0.129111 -0.000348091  0.0387669 -0.135593 -0.00032711  0.0390475 -0.142152 -0.00030756  0.0392814 -0.148782 -0.00028801  0.0394711 -0.155475 -0.00027132  0.0396175 -0.162229 -0.000247478  0.0397232 -0.169039 -0.000227928  0.0397906 -0.175899 -0.000199795  0.0398195 -0.182804 -0.000172615  0.0398107 -0.189751 -0.000157356  0.0397673 -0.196737 -0.000142097  0.0396914 -0.203754 -0.000119686  0.0395842 -0.2108 -0.000103951  0.0394485 -0.217869 -8.96454e-05  0.0392847 -0.224967 -7.86781e-05  0.0390949 -0.23208 -6.62804e-05  0.0388808 -0.239207 -5.43594e-05  0.0386457 -0.24635 -4.91142e-05  0.0383894 -0.253501 -3.38554e-05  0.0381122 -0.260658 -2.09808e-05  0.0378165 -0.26782 -4.29153e-06  0.0375054 -0.274987 4.76837e-06  0.0371783 -0.28215 6.19888e-06  0.0368373 -0.289315 1.66893e-05  0.0364854 -0.296479 2.52724e-05  0.0361226 -0.303636 3.57628e-05  0.0357497 -0.310787 4.81606e-05  0.0353692 -0.317934 5.76973e-05  0.0349832 -0.325074 6.34193e-05  0.0345907 -0.332204 8.10623e-05  0.0341954 -0.339325 8.39233e-05  0.0337985 -0.346443 9.20296e-05  0.0334013 -0.353553 0.000100136  0.0330029 -0.36066 0.000109673  0 0 0  0.0011017 -0.003452 -0.00028038  0.00300276 -0.00557673 -0.000504971  0.00511596 -0.00732583 -0.000688076  0.00731632 -0.00904894 -0.000823498  0.00954819 -0.0108906 -0.000915527  0.0117793 -0.0129277 -0.00097847  0.0139858 -0.0151891 -0.00101566  0.0161477 -0.0176937 -0.00102997  0.0182508 -0.0204449 -0.00103188  0.0202844 -0.0234355 -0.00101948  0.022241 -0.0266753 -0.00100851  0.0241157 -0.0301455 -0.000985622  0.0259062 -0.033845 -0.00095129  0.0276107 -0.0377645 -0.000920773  0.0292286 -0.0418946 -0.000887394  0.0307615 -0.0462256 -0.00085783  0.0322099 -0.0507489 -0.000826836  0.0335752 -0.055458 -0.00079155  0.0348606 -0.0603399 -0.000751972  0.0360677 -0.0653901 -0.000715733  0.0371977 -0.0705993 -0.000688553  0.0382535 -0.0759563 -0.000654697  0.0392365 -0.081462 -0.000626087  0.0401497 -0.0870978 -0.000594616  0.0409914 -0.0928658 -0.000564098  0.0417664 -0.0987527 -0.00053072  0.0424767 -0.104753 -0.00050354  0.0431232 -0.11086 -0.000471592  0.0437092 -0.11707 -0.00044775  0.0442361 -0.123373 -0.000424862  0.0447055 -0.129761 -0.000392914  0.045119 -0.136232 -0.00037384  0.0454786 -0.142781 -0.000353336  0.0457859 -0.1494 -0.00033474  0.046046 -0.156081 -0.00030756  0.0462589 -0.162824 -0.000284195  0.0464261 -0.169625 -0.000259399  0.0465486 -0.176473 -0.00023365  0.0466268 -0.18337 -0.000205517  0.0466642 -0.190304 -0.000178814  0.0466621 -0.19728 -0.000162601  0.0466239 -0.204288 -0.000148773  0.0465517 -0.211326 -0.000127792  0.0464449 -0.218382 -0.000108719  0.0463054 -0.225475 -9.58443e-05  0.0461397 -0.232578 -8.05855e-05  0.0459473 -0.239694 -7.24792e-05  0.0457275 -0.24683 -5.43594e-05  0.045485 -0.253972 -4.24385e-05  0.0452211 -0.261123 -2.81334e-05  0.0449362 -0.268277 -1.66893e-05  0.044631 -0.275435 -6.67572e-06  0.0443089 -0.282593 9.53674e-07  0.0439708 -0.289751 1.00136e-05  0.0436189 -0.296908 1.7643e-05  0.0432553 -0.304061 3.38554e-05  0.042881 -0.311205 4.673e-05  0.0424964 -0.318348 5.57899e-05  0.0421066 -0.325486 6.29425e-05  0.041714 -0.332615 7.48634e-05  0.0413165 -0.339735 8.86917e-05  0.040915 -0.346853 9.15527e-05  0.0405133 -0.353963 9.67979e-05  0.0401115 -0.361073 0.000103951  0 0 0  -0.00112982 -0.00323738 0.000598907  -0.00302425 -0.00519595 0.00106668  -0.00512806 -0.006816 0.00143671  -0.00732538 -0.0084149 0.00171375  -0.0095638 -0.0101436 0.00191259  -0.0118139 -0.0120595 0.00203466  -0.0140522 -0.014194 0.00210333  -0.0162608 -0.016559 0.00212622  -0.0184301 -0.0191683 0.00212002  -0.0205509 -0.0220105 0.00208998  -0.0226173 -0.0250873 0.00204563  -0.0246245 -0.0283958 0.00198555  -0.0265706 -0.0319271 0.00191164  -0.0284576 -0.0356745 0.00184155  -0.0302858 -0.0396252 0.00176001  -0.0320551 -0.0437766 0.0016818  -0.0337679 -0.0481205 0.00160885  -0.0354254 -0.0526414 0.00153732  -0.0370291 -0.0573419 0.00147009  -0.0385807 -0.0622102 0.00140429  -0.0400826 -0.0672394 0.00134516  -0.041537 -0.072419 0.00128269  -0.0429438 -0.0777422 0.00122595  -0.0443065 -0.0832099 0.00116539  -0.0456245 -0.0888033 0.00111389  -0.0468987 -0.0945275 0.00106382  -0.0481305 -0.100366 0.00100803  -0.0493215 -0.106321 0.000959873  -0.0504713 -0.112376 0.000902176  -0.0515835 -0.118538 0.000844479  -0.0526584 -0.124789 0.00080204  -0.0536964 -0.131129 0.000751019  -0.0546978 -0.137553 0.000708103  -0.0556643 -0.144052 0.000669479  -0.0565984 -0.150624 0.000629902  -0.0574996 -0.157261 0.000593662  -0.0583694 -0.163963 0.000548363  -0.0592058 -0.170721 0.000513554  -0.0600104 -0.177531 0.000483513  -0.0607877 -0.184389 0.000447273  -0.0615368 -0.191287 0.000420094  -0.062259 -0.198229 0.000384331  -0.0629559 -0.205202 0.000353813  -0.063627 -0.21221 0.000325203  -0.0642719 -0.219243 0.000305176  -0.0648921 -0.226303 0.00028038  -0.0654914 -0.233386 0.000254154  -0.066067 -0.240483 0.00023365  -0.0666225 -0.247594 0.000217915  -0.0671611 -0.25472 0.000198841  -0.0676825 -0.261853 0.00018549  -0.0681875 -0.268995 0.0001688  -0.0686748 -0.276142 0.000154495  -0.069149 -0.283292 0.000138283  -0.0696099 -0.290439 0.000133991  -0.0700583 -0.297586 0.000130177  -0.0704966 -0.30473 0.00012064  -0.070925 -0.311871 0.000119209  -0.0713446 -0.319008 0.000108242  -0.0717583 -0.326136 0.000103474  -0.0721681 -0.333261 0.000106335  -0.0725741 -0.340379 0.000103474  -0.072979 -0.347492 0.000107765  -0.0733826 -0.354596 0.000103474  0 0 0  -0.000632789 -0.00213216 0.000468254  -0.00208499 -0.00390442 0.000893593  -0.00387006 -0.0055296 0.00123405  -0.00579721 -0.00718681 0.00148249  -0.00778458 -0.00898404 0.00166559  -0.00978577 -0.0109668 0.00177145  -0.0117761 -0.0131676 0.00183439  -0.0137392 -0.0155941 0.00185251  -0.0156625 -0.0182628 0.00185061  -0.0175397 -0.0211624 0.00181866  -0.0193676 -0.0242943 0.00177622  -0.0211446 -0.0276533 0.00172758  -0.0228702 -0.0312352 0.00166321  -0.024543 -0.0350298 0.00159645  -0.0261641 -0.039029 0.00152636  -0.0277362 -0.0432253 0.00146389  -0.0292593 -0.0476126 0.00139332  -0.0307359 -0.0521783 0.00133181  -0.0321684 -0.0569203 0.00127459  -0.0335574 -0.0618297 0.00121355  -0.034904 -0.0668977 0.00116348  -0.0362095 -0.0721169 0.00111246  -0.0374765 -0.0774787 0.00106192  -0.0387052 -0.0829815 0.00101423  -0.039896 -0.0886121 0.000971317  -0.0410509 -0.0943692 0.000924587  -0.0421706 -0.100243 0.000878334  -0.0432557 -0.106231 0.000833988  -0.0443072 -0.112318 0.000784874  -0.0453254 -0.118509 0.00073719  -0.046311 -0.124791 0.000690937  -0.0472665 -0.13116 0.000656605  -0.0481913 -0.137609 0.000613689  -0.0490856 -0.144135 0.000580311  -0.0499523 -0.150731 0.000549316  -0.0507932 -0.157393 0.000515938  -0.0516067 -0.164117 0.000487328  -0.0523944 -0.170897 0.000447273  -0.0531559 -0.177728 0.000422955  -0.0538919 -0.184604 0.000396252  -0.0546031 -0.191522 0.00036478  -0.0552907 -0.19848 0.000337124  -0.0559542 -0.205472 0.000312328  -0.0565951 -0.212494 0.000283241  -0.0572157 -0.219542 0.000266075  -0.0578175 -0.226614 0.000249863  -0.0583994 -0.23371 0.000228405  -0.0589626 -0.240818 0.000212193  -0.0595074 -0.24794 0.00019598  -0.0600352 -0.255077 0.000181675  -0.0605476 -0.262219 0.000174046  -0.0610459 -0.26937 0.000160694  -0.061533 -0.276523 0.000140667  -0.0620065 -0.283679 0.000138283  -0.0624666 -0.290831 0.000128269  -0.0629179 -0.297983 0.000118732  -0.063359 -0.305131 0.00012064  -0.0637915 -0.312275 0.000108719  -0.0642159 -0.319414 0.000108719  -0.0646341 -0.326543 0.000105381  -0.0650477 -0.333667 9.91821e-05  -0.065459 -0.340784 0.000103951  -0.0658674 -0.347896 0.000103474  -0.0662746 -0.354999 0.00010252  0 0 0  -0.000478383 -0.00143576 0.00040102  -0.00154952 -0.00290018 0.000751972  -0.00297247 -0.00445304 0.00103951  -0.00457589 -0.00612409 0.00125408  -0.00626448 -0.00796477 0.00140953  -0.0079844 -0.010003 0.00150681  -0.00970244 -0.0122603 0.0015626  -0.011399 -0.0147457 0.00157785  -0.0130649 -0.0174668 0.00157452  -0.0146918 -0.0204204 0.0015521  -0.0162765 -0.0236033 0.00151205  -0.0178186 -0.0270098 0.00146437  -0.0193168 -0.030636 0.00141001  -0.0207714 -0.0344743 0.00135136  -0.0221831 -0.0385158 0.00129747  -0.0235536 -0.0427546 0.00124407  -0.0248852 -0.0471795 0.00118399  -0.0261786 -0.0517859 0.00113344  -0.0274354 -0.0565657 0.00108004  -0.0286578 -0.061512 0.00102854  -0.0298457 -0.0666149 0.000982285  -0.0309999 -0.0718694 0.000943661  -0.0321221 -0.0772673 0.000900269  -0.0332136 -0.0828014 0.000865936  -0.0342753 -0.0884659 0.000824928  -0.0353075 -0.0942535 0.000785351  -0.0363113 -0.100159 0.00074482  -0.0372874 -0.106176 0.000710011  -0.0382353 -0.112293 0.000665188  -0.0391566 -0.118511 0.000631332  -0.0400531 -0.124821 0.000593185  -0.0409241 -0.131214 0.000555992  -0.0417697 -0.137688 0.000522614  -0.0425925 -0.144238 0.000495911  -0.0433912 -0.150857 0.000471592  -0.0441673 -0.15754 0.000446796  -0.0449224 -0.164286 0.000416279  -0.0456562 -0.171085 0.00039053  -0.0463674 -0.177933 0.000365257  -0.0470562 -0.184828 0.000339985  -0.0477247 -0.191764 0.000314713  -0.0483749 -0.198737 0.000291348  -0.0490072 -0.205745 0.000267982  -0.0496209 -0.21278 0.000246048  -0.0502162 -0.219841 0.000236034  -0.0507929 -0.226926 0.000212669  -0.0513542 -0.234032 0.00019598  -0.0518999 -0.241152 0.00018692  -0.0524311 -0.248286 0.00017643  -0.0529487 -0.255431 0.000163555  -0.053453 -0.262582 0.000150681  -0.0539439 -0.269739 0.000144958  -0.0544221 -0.276898 0.00013113  -0.0548911 -0.284061 0.000124454  -0.0553493 -0.291219 0.000125408  -0.0557976 -0.298374 0.000112534  -0.0562384 -0.305527 0.000105858  -0.0566709 -0.312674 0.000108719  -0.0570972 -0.319813 0.000105381  -0.0575194 -0.326945 9.82285e-05  -0.0579371 -0.334068 0.000100613  -0.0583506 -0.341186 0.000102997  -0.0587604 -0.348295 9.87053e-05  -0.0591686 -0.355399 9.72748e-05  0 0 0  -0.000352811 -0.000959039 0.000331879  -0.00116495 -0.00217 0.000620842  -0.00227232 -0.00360921 0.000853062  -0.00355972 -0.00525633 0.00103331  -0.00494239 -0.00711279 0.00116301  -0.00636643 -0.00918844 0.00125217  -0.00780058 -0.0114898 0.0012908  -0.0092248 -0.0140246 0.00130415  -0.0106245 -0.0167913 0.00129414  -0.0119933 -0.0197915 0.00127792  -0.0133283 -0.02302 0.00124693  -0.0146291 -0.0264694 0.00120401  -0.0158958 -0.0301346 0.00116348  -0.0171275 -0.0340123 0.00111437  -0.0183258 -0.0380914 0.00107336  -0.0194919 -0.0423667 0.00102758  -0.0206276 -0.0468274 0.000986576  -0.0217355 -0.0514692 0.000934601  -0.0228146 -0.0562821 0.000891685  -0.0238661 -0.0612602 0.000845909  -0.0248923 -0.0663966 0.000807285  -0.0258934 -0.0716818 0.000774384  -0.0268697 -0.0771112 0.000737667  -0.0278225 -0.0826746 0.00070858  -0.0287526 -0.0883689 0.000684261  -0.0296608 -0.0941853 0.000646591  -0.0305471 -0.100118 0.000613213  -0.0314103 -0.106162 0.000580788  -0.0322527 -0.112305 0.000552177  -0.0330753 -0.118547 0.000525475  -0.0338787 -0.124881 0.000495434  -0.034662 -0.131297 0.000460148  -0.0354261 -0.137794 0.000433922  -0.0361714 -0.144365 0.000409603  -0.0368989 -0.151005 0.000386715  -0.0376089 -0.157709 0.000371456  -0.0383017 -0.164472 0.000347614  -0.0389762 -0.17129 0.000320435  -0.0396347 -0.178154 0.000306129  -0.0402775 -0.185065 0.000282764  -0.040904 -0.192016 0.000266075  -0.0415144 -0.199003 0.000249386  -0.04211 -0.206025 0.000231743  -0.0426912 -0.213075 0.000216484  -0.0432575 -0.220147 0.000197411  -0.0438113 -0.227243 0.000186443  -0.0443521 -0.234359 0.000174999  -0.0448787 -0.241488 0.000163555  -0.0453925 -0.248632 0.000152588  -0.0458946 -0.255784 0.000141144  -0.0463855 -0.262945 0.000131607  -0.0468657 -0.270107 0.000133991  -0.0473371 -0.277272 0.000126839  -0.0477986 -0.28444 0.000118732  -0.0482516 -0.291604 0.00011301  -0.0486963 -0.298763 0.000111103  -0.0491352 -0.305919 0.000105858  -0.0495694 -0.313069 0.000105858  -0.0499961 -0.320209 0.000103474  -0.0504172 -0.327343 0.000101566  -0.0508332 -0.334469 9.9659e-05  -0.0512464 -0.341585 9.63211e-05  -0.0516574 -0.348693 9.82285e-05  -0.0520678 -0.355795 9.48906e-05  0 0 0  -0.000260036 -0.000630423 0.000262737  -0.00086014 -0.00164387 0.000491142  -0.00169685 -0.0029746 0.000678539  -0.0026883 -0.00458132 0.000819206  -0.00377133 -0.0064355 0.000921249  -0.00490052 -0.00853212 0.000987053  -0.00604516 -0.010867 0.00102329  -0.00718638 -0.0134395 0.00103617  -0.00831348 -0.0162443 0.00102949  -0.0094192 -0.0192834 0.00100565  -0.010501 -0.0225503 0.000983715  -0.0115572 -0.0260366 0.000957966  -0.0125884 -0.0297368 0.000916004  -0.0135957 -0.0336478 0.000878334  -0.0145777 -0.0377603 0.000845432  -0.0155365 -0.0420671 0.000813961  -0.0164746 -0.0465592 0.000781059  -0.0173931 -0.0512323 0.000740051  -0.0182921 -0.0560735 0.000703335  -0.0191722 -0.0610796 0.000669003  -0.0200337 -0.0662454 0.000638962  -0.0208763 -0.0715592 0.000608921  -0.0217031 -0.077015 0.000580788  -0.0225146 -0.0826057 0.000557899  -0.0233111 -0.0883263 0.000533581  -0.0240911 -0.0941675 0.000514507  -0.0248559 -0.100125 0.000487328  -0.0256069 -0.10619 0.000464916  -0.0263427 -0.112358 0.000436306  -0.0270641 -0.118622 0.00041151  -0.027771 -0.124976 0.000390053  -0.028464 -0.131414 0.00036478  -0.0291436 -0.13793 0.0003438  -0.0298107 -0.144521 0.00032568  -0.0304646 -0.151179 0.000309467  -0.0311067 -0.157903 0.00028944  -0.0317357 -0.16468 0.000275135  -0.0323532 -0.171513 0.000257492  -0.0329578 -0.178394 0.000245094  -0.0335503 -0.185318 0.00023222  -0.0341315 -0.192282 0.000216007  -0.0347002 -0.199282 0.000201702  -0.0352578 -0.206316 0.000187874  -0.035804 -0.213377 0.000176907  -0.0363393 -0.220462 0.000164032  -0.0368626 -0.227568 0.000160217  -0.0373774 -0.234693 0.000153542  -0.0378823 -0.241832 0.000137329  -0.0383773 -0.248981 0.000128269  -0.0388641 -0.256141 0.000123978  -0.0393426 -0.263307 0.000120163  -0.0398118 -0.270475 0.000114441  -0.040273 -0.277648 0.000112534  -0.0407264 -0.284817 0.000106335  -0.041172 -0.291987 0.000104904  -0.0416112 -0.29915 0.000110149  -0.0420463 -0.306311 0.000103951  -0.0424757 -0.313461 9.9659e-05  -0.0429003 -0.320604 9.91821e-05  -0.0433214 -0.32774 9.20296e-05  -0.0437388 -0.334867 8.82149e-05  -0.0441523 -0.341984 8.91685e-05  -0.0445623 -0.34909 9.91821e-05  -0.0449724 -0.356189 9.39369e-05  0 0 0  -0.000182025 -0.000409693 0.000197887  -0.000604123 -0.00127855 0.000367641  -0.00120124 -0.00251958 0.000510693  -0.00191921 -0.00408614 0.000614643  -0.00271276 -0.00593042 0.000679016  -0.00354844 -0.00803861 0.000726223  -0.00440258 -0.0103959 0.000758171  -0.00526023 -0.0129971 0.000769138  -0.0061112 -0.0158321 0.000764847  -0.0069499 -0.0189026 0.000747681  -0.00777292 -0.0222002 0.000730515  -0.00858098 -0.0257175 0.000706673  -0.00937504 -0.0294477 0.000676155  -0.0101538 -0.033386 0.000652313  -0.0109184 -0.0375276 0.000629902  -0.011669 -0.0418607 0.000606537  -0.0124068 -0.0463795 0.000578403  -0.0131336 -0.0510783 0.000546932  -0.013849 -0.0559462 0.000514984  -0.0145543 -0.0609765 0.000492096  -0.0152497 -0.0661654 0.000470161  -0.0159353 -0.0715039 0.000449657  -0.016613 -0.0769833 0.000432014  -0.0172826 -0.0825972 0.000412464  -0.0179422 -0.0883409 0.000391483  -0.0185932 -0.0942031 0.00037241  -0.0192374 -0.100183 0.000358105  -0.0198715 -0.106266 0.000342369  -0.0204978 -0.112455 0.000322819  -0.0211154 -0.118738 0.000301838  -0.0217249 -0.12511 0.000282764  -0.0223271 -0.131567 0.000267982  -0.0229208 -0.1381 0.000256538  -0.0235081 -0.144707 0.000246525  -0.0240872 -0.151383 0.000231266  -0.0246582 -0.15812 0.00021553  -0.0252206 -0.164913 0.00020504  -0.0257764 -0.171759 0.000198841  -0.0263252 -0.178653 0.000187874  -0.0268662 -0.18559 0.000177383  -0.0273998 -0.192567 0.000164986  -0.0279245 -0.199577 0.000154018  -0.028441 -0.206621 0.000145435  -0.0289502 -0.213693 0.00013876  -0.029454 -0.220788 0.000134468  -0.0299501 -0.227903 0.000132561  -0.0304375 -0.235035 0.000123024  -0.0309174 -0.242181 0.000110626  -0.0313919 -0.249337 0.000110149  -0.0318601 -0.256503 0.000108242  -0.0323215 -0.263674 0.000104427  -0.032778 -0.270847 9.53674e-05  -0.0332286 -0.278024 9.58443e-05  -0.0336716 -0.285197 9.82285e-05  -0.0341101 -0.292371 9.44138e-05  -0.0345447 -0.299538 0.000101566  -0.0349734 -0.306701 9.87053e-05  -0.0353971 -0.313854 9.91821e-05  -0.0358176 -0.321 0.000100136  -0.0362356 -0.328136 9.29832e-05  -0.0366507 -0.335265 9.29832e-05  -0.0370624 -0.342382 9.44138e-05  -0.0374722 -0.349488 9.44138e-05  -0.0378807 -0.356582 9.77516e-05  0 0 0  -0.000113796 -0.000271887 0.00013113  -0.000377849 -0.0010426 0.000246525  -0.000755817 -0.00222322 0.000337124  -0.0012161 -0.00375628 0.000404835  -0.00173104 -0.00559244 0.000449181  -0.00227922 -0.00770605 0.00048399  -0.00284457 -0.0100784 0.000501633  -0.00341728 -0.0127008 0.00050354  -0.00398958 -0.0155581 0.000506878  -0.00455809 -0.0186534 0.00049448  -0.00512207 -0.0219741 0.00047636  -0.00568086 -0.0255162 0.000458717  -0.006235 -0.0292702 0.000443459  -0.00678414 -0.0332307 0.000427723  -0.00732923 -0.0373965 0.000409603  -0.00786924 -0.0417511 0.000394821  -0.00840521 -0.0462919 0.000376225  -0.00893879 -0.0510114 0.000353813  -0.00947082 -0.0559017 0.000342369  -0.0100013 -0.0609527 0.000323772  -0.0105299 -0.0661608 0.000301838  -0.0110564 -0.07152 0.00028801  -0.0115811 -0.0770198 0.000276089  -0.0121038 -0.0826521 0.000266075  -0.0126257 -0.0884164 0.000255108  -0.0131462 -0.0942968 0.000244617  -0.013665 -0.100294 0.00023222  -0.0141815 -0.106396 0.000223637  -0.0146971 -0.112601 0.000208378  -0.0152104 -0.118898 0.000197411  -0.0157223 -0.125287 0.000189781  -0.0162323 -0.131759 0.000178814  -0.0167401 -0.138307 0.000168324  -0.0172455 -0.144928 0.000162601  -0.0177474 -0.151619 0.000154495  -0.0182467 -0.158367 0.000148773  -0.018743 -0.165174 0.000141621  -0.0192363 -0.17203 0.000134945  -0.0197277 -0.178935 0.000127316  -0.0202157 -0.185882 0.00012207  -0.0206993 -0.19287 0.000115871  -0.0211785 -0.19989 0.000112534  -0.0216541 -0.206943 0.000104904  -0.0221257 -0.214023 0.000100613  -0.0225933 -0.221126 0.000100136  -0.0230572 -0.228249 0.000102043  -0.0235176 -0.235387 9.87053e-05  -0.0239744 -0.242537 8.86917e-05  -0.0244265 -0.249702 8.96454e-05  -0.0248742 -0.256872 8.34465e-05  -0.0253181 -0.264047 8.63075e-05  -0.0257571 -0.271225 7.77245e-05  -0.0261936 -0.278404 8.34465e-05  -0.0266273 -0.285581 8.4877e-05  -0.0270576 -0.292757 8.67844e-05  -0.0274854 -0.299928 8.67844e-05  -0.0279093 -0.307092 9.15527e-05  -0.0283294 -0.314248 9.48906e-05  -0.0287461 -0.321396 9.72748e-05  -0.02916 -0.328534 9.20296e-05  -0.0295701 -0.335663 8.86917e-05  -0.0299802 -0.342781 9.20296e-05  -0.0303879 -0.349885 9.34601e-05  -0.0307949 -0.356978 9.53674e-05  0 0 0  -5.08837e-05 -0.000199795 6.62804e-05  -0.000169247 -0.000917792 0.00012064  -0.00034228 -0.00206745 0.000166416  -0.000557229 -0.0035812 0.000197887  -0.000800878 -0.00541332 0.00022316  -0.0010643 -0.00753114 0.000238419  -0.00134239 -0.00991499 0.000244141  -0.00162974 -0.0125505 0.000245094  -0.00192356 -0.0154252 0.000247002  -0.00222272 -0.0185368 0.000236034  -0.00252563 -0.0218759 0.000231743  -0.00283355 -0.0254351 0.000222683  -0.00314629 -0.029208 0.000212669  -0.00346369 -0.0331857 0.000199318  -0.00378597 -0.0373679 0.000192165  -0.00411397 -0.041741 0.000184536  -0.00444901 -0.0462979 0.000173092  -0.00479162 -0.051035 0.0001688  -0.00513959 -0.0559413 0.000161171  -0.00549161 -0.0610103 0.000152111  -0.00585043 -0.0662347 0.000139236  -0.00621665 -0.0716109 0.000133514  -0.0065887 -0.0771263 0.000125408  -0.00696719 -0.0827744 0.00012207  -0.00735211 -0.0885551 0.000126839  -0.00774038 -0.0944496 0.000116825  -0.00813448 -0.100462 0.000112534  -0.00853288 -0.106578 0.000106335  -0.00893545 -0.112797 9.87053e-05  -0.00934291 -0.119107 9.72748e-05  -0.00975418 -0.125509 9.10759e-05  -0.01017 -0.131993 8.91685e-05  -0.0105894 -0.138555 8.72612e-05  -0.0110109 -0.145187 7.86781e-05  -0.011436 -0.151888 8.01086e-05  -0.011862 -0.158647 7.9155e-05  -0.0122893 -0.165464 7.77245e-05  -0.0127201 -0.172329 7.48634e-05  -0.0131521 -0.179243 7.24792e-05  -0.0135841 -0.186199 6.81877e-05  -0.0140169 -0.193195 6.4373e-05  -0.0144503 -0.200223 6.67572e-05  -0.0148842 -0.207283 6.19888e-05  -0.015317 -0.21437 6.62804e-05  -0.0157502 -0.221479 6.86646e-05  -0.0161822 -0.228607 6.7234e-05  -0.0166123 -0.235751 6.91414e-05  -0.017041 -0.242907 6.53267e-05  -0.0174706 -0.250075 6.67572e-05  -0.017899 -0.257249 6.05583e-05  -0.0183256 -0.264427 6.86646e-05  -0.0187516 -0.271608 6.34193e-05  -0.0191743 -0.278789 7.10487e-05  -0.0195947 -0.285969 7.43866e-05  -0.0200129 -0.293148 7.67708e-05  -0.0204289 -0.300321 7.77245e-05  -0.0208454 -0.307488 8.24928e-05  -0.0212607 -0.314645 8.10623e-05  -0.0216722 -0.321795 8.67844e-05  -0.0220838 -0.328936 8.67844e-05  -0.0224941 -0.336063 9.20296e-05  -0.0229006 -0.343181 9.05991e-05  -0.0233061 -0.350285 9.48906e-05  -0.0237114 -0.357375 9.72748e-05  0 0 0  8.88109e-06 -0.000186086 0  2.92659e-05 -0.000894636 -2.86102e-06  5.5939e-05 -0.00204024 -5.72205e-06  8.35955e-05 -0.00355282 -9.05991e-06  0.00010702 -0.00538796 -3.8147e-06  0.000122607 -0.00751126 -1.33514e-05  0.000130355 -0.00990298 -1.04904e-05  0.000127912 -0.012547 -8.58307e-06  0.00011307 -0.0154334 -1.66893e-05  8.57115e-05 -0.018555 -1.33514e-05  4.39286e-05 -0.0219048 -7.15256e-06  -1.2815e-05 -0.0254761 -8.58307e-06  -8.5175e-05 -0.0292614 -1.43051e-05  -0.000171781 -0.0332514 -2.14577e-05  -0.00027281 -0.0374429 -2.14577e-05  -0.000389576 -0.0418296 -2.67029e-05  -0.00052166 -0.0463992 -2.43187e-05  -0.000668645 -0.0511494 -2.43187e-05  -0.000830412 -0.0560687 -1.62125e-05  -0.00100815 -0.0611512 -1.57356e-05  -0.00119889 -0.066388 -1.90735e-05  -0.00140262 -0.0717764 -2.00272e-05  -0.00162005 -0.0773052 -2.14577e-05  -0.00185192 -0.0829672 -1.09673e-05  -0.00209594 -0.0887577 -1.04904e-05  -0.00235307 -0.0946665 -9.53674e-06  -0.00262272 -0.100688 -8.10623e-06  -0.0029031 -0.106817 -9.05991e-06  -0.00319457 -0.113045 -1.09673e-05  -0.00349486 -0.119368 -1.19209e-05  -0.00380576 -0.125779 -9.53674e-07  -0.00412667 -0.132272 -3.33786e-06  -0.00445747 -0.138844 -4.76837e-07  -0.00479674 -0.145486 4.76837e-07  -0.00514221 -0.152193 9.53674e-07  -0.00549483 -0.158962 1.23978e-05  -0.00585365 -0.165784 8.58307e-06  -0.00621867 -0.172658 1.71661e-05  -0.00658989 -0.179579 1.43051e-05  -0.00696683 -0.186542 1.90735e-05  -0.00734973 -0.193544 1.85966e-05  -0.00773668 -0.200578 2.0504e-05  -0.00812769 -0.207643 2.52724e-05  -0.00852203 -0.214735 2.81334e-05  -0.00891876 -0.221849 3.95775e-05  -0.00931716 -0.22898 3.62396e-05  -0.00971866 -0.236127 4.62532e-05  -0.0101225 -0.243288 4.86374e-05  -0.0105267 -0.250458 4.1008e-05  -0.0109322 -0.257635 4.24385e-05  -0.0113392 -0.264816 4.33922e-05  -0.0117471 -0.271999 5.38826e-05  -0.0121572 -0.279181 5.57899e-05  -0.012567 -0.286363 6.05583e-05  -0.0129762 -0.293543 6.48499e-05  -0.0133858 -0.300719 7.20024e-05  -0.0137937 -0.307884 7.9155e-05  -0.0142016 -0.315044 8.24928e-05  -0.0146101 -0.322194 7.86781e-05  -0.0150163 -0.329337 8.67844e-05  -0.0154209 -0.336464 9.05991e-05  -0.0158267 -0.343581 9.72748e-05  -0.0162313 -0.350686 9.72748e-05  -0.016634 -0.357775 9.72748e-05  0 0 0  6.8523e-05 -0.000229657 -7.15256e-05  0.000228405 -0.00096941 -0.000126362  0.000454113 -0.0021385 -0.000175953  0.000721186 -0.00366771 -0.000205517  0.00101066 -0.00551355 -0.000236988  0.00130853 -0.007644 -0.000253677  0.00160196 -0.0100413 -0.000266075  0.0018819 -0.0126889 -0.000269413  0.00214404 -0.0155816 -0.000265598  0.00238621 -0.0187066 -0.000264645  0.00260586 -0.0220615 -0.000254154  0.00280017 -0.0256381 -0.000244141  0.0029695 -0.0294302 -0.000246525  0.0031144 -0.0334269 -0.000238895  0.00323391 -0.0376256 -0.00023365  0.00332916 -0.0420182 -0.000225067  0.00340056 -0.0465984 -0.000220299  0.00344634 -0.051355 -0.000207424  0.00346839 -0.0562845 -0.000200272  0.00346863 -0.0613766 -0.000191212  0.00344682 -0.0666224 -0.000175476  0.00340343 -0.0720184 -0.000170231  0.00333893 -0.0775577 -0.000164986  0.00325382 -0.0832294 -0.000155926  0.0031476 -0.0890261 -0.000141144  0.00302327 -0.0949458 -0.000134468  0.00288129 -0.100975 -0.000133038  0.00272107 -0.107112 -0.000130177  0.00254297 -0.113349 -0.000117302  0.00234759 -0.11968 -0.000109673  0.00213706 -0.126098 -0.000103474  0.0019114 -0.132598 -9.05991e-05  0.00167203 -0.139176 -8.63075e-05  0.00141907 -0.145825 -7.62939e-05  0.00115156 -0.152537 -7.43866e-05  0.000870466 -0.159312 -6.7234e-05  0.000580549 -0.166139 -5.67436e-05  0.00028038 -0.173019 -5.00679e-05  -3.02792e-05 -0.179944 -4.52995e-05  -0.000351667 -0.186912 -3.38554e-05  -0.000683308 -0.193918 -2.81334e-05  -0.00102401 -0.200957 -2.38419e-05  -0.00137091 -0.208024 -1.62125e-05  -0.00172496 -0.215119 -1.90735e-06  -0.00208521 -0.222236 2.86102e-06  -0.00245166 -0.229371 1.57356e-05  -0.00282383 -0.236519 1.7643e-05  -0.00319982 -0.243682 2.14577e-05  -0.00357938 -0.250855 1.81198e-05  -0.00396347 -0.258032 1.62125e-05  -0.00435281 -0.265215 3.05176e-05  -0.00474477 -0.272397 3.14713e-05  -0.00514078 -0.279582 4.43459e-05  -0.00554013 -0.286765 4.95911e-05  -0.0059402 -0.293946 5.67436e-05  -0.0063405 -0.301121 6.4373e-05  -0.00674105 -0.308287 6.7234e-05  -0.00714207 -0.315447 6.77109e-05  -0.00754309 -0.322598 7.58171e-05  -0.00794601 -0.329739 8.39233e-05  -0.00834894 -0.336868 9.20296e-05  -0.00875139 -0.343984 9.63211e-05  -0.0091536 -0.351088 9.67979e-05  -0.00955367 -0.358179 0.000101566  0 0 0  0.0001304 -0.000331581 -0.000137806  0.000435412 -0.00114405 -0.000247955  0.000866443 -0.00236416 -0.000341892  0.00138018 -0.00392711 -0.00041151  0.00194061 -0.0057897 -0.000461102  0.00251821 -0.00792933 -0.000493526  0.00309482 -0.0103293 -0.000510216  0.00365806 -0.0129755 -0.000520706  0.00419807 -0.0158674 -0.000522614  0.00470805 -0.0189918 -0.000517845  0.00518513 -0.0223451 -0.000502586  0.00563008 -0.0259208 -0.000492573  0.00604004 -0.0297138 -0.000480652  0.00641423 -0.0337132 -0.000460625  0.00675368 -0.037915 -0.000446796  0.0070591 -0.0423093 -0.000426292  0.00733089 -0.0468941 -0.000417709  0.00757086 -0.0516544 -0.000395298  0.00777972 -0.0565896 -0.000380993  0.00795686 -0.061687 -0.000360012  0.0081023 -0.0669385 -0.000344276  0.00821888 -0.0723387 -0.000329018  0.00830698 -0.0778837 -0.000306129  0.00836766 -0.0835608 -0.000297546  0.00840259 -0.0893626 -0.000273228  0.00840998 -0.0952875 -0.000262737  0.00839269 -0.101322 -0.00025177  0.00835264 -0.107464 -0.000246525  0.00828838 -0.113708 -0.000227928  0.00820053 -0.120044 -0.000209808  0.0080905 -0.126467 -0.000195503  0.0079596 -0.132972 -0.000181675  0.00780797 -0.139552 -0.000174522  0.00763679 -0.146205 -0.000164032  0.00744891 -0.152922 -0.00014782  0.00724483 -0.159699 -0.000134945  0.00702333 -0.166529 -0.000124454  0.00678563 -0.173411 -0.000110149  0.00653195 -0.180339 -0.000102997  0.0062654 -0.18731 -9.10759e-05  0.00598669 -0.194317 -7.43866e-05  0.0056951 -0.201358 -6.4373e-05  0.00539088 -0.208427 -5.14984e-05  0.00507617 -0.215523 -4.76837e-05  0.00475144 -0.22264 -3.05176e-05  0.00441694 -0.229777 -2.14577e-05  0.00407457 -0.236928 -9.05991e-06  0.00372362 -0.24409 -1.09673e-05  0.00336528 -0.251263 -4.76837e-06  0.0030005 -0.25844 1.90735e-06  0.00263119 -0.265623 1.4782e-05  0.00225592 -0.272806 2.14577e-05  0.00187516 -0.279991 3.05176e-05  0.00149059 -0.287174 4.19617e-05  0.00110126 -0.294354 5.05447e-05  0.000709057 -0.301527 5.38826e-05  0.000315189 -0.308695 6.05583e-05  -8.17776e-05 -0.315855 6.62804e-05  -0.000479937 -0.323003 7.00951e-05  -0.000879049 -0.330143 8.15392e-05  -0.00127792 -0.337273 8.24928e-05  -0.00167704 -0.344389 9.15527e-05  -0.00207686 -0.351495 9.77516e-05  -0.00247574 -0.358586 0.00010252  0 0 0  0.000198424 -0.000498772 -0.000204086  0.000659809 -0.00142866 -0.000369072  0.00130765 -0.00272578 -0.000505924  0.0020763 -0.0043357 -0.00060606  0.00291136 -0.00622028 -0.000684738  0.00377443 -0.00836766 -0.00073576  0.00463817 -0.0107651 -0.000763416  0.00548244 -0.0134059 -0.000773907  0.00629622 -0.0162886 -0.000780106  0.00707352 -0.0194076 -0.000766754  0.00780946 -0.0227529 -0.000752449  0.00850034 -0.0263231 -0.000733852  0.00914681 -0.030111 -0.000710964  0.00974935 -0.0341083 -0.000689983  0.0103074 -0.0383083 -0.000658035  0.0108224 -0.0427018 -0.000631332  0.0112969 -0.0472854 -0.000608921  0.0117294 -0.0520468 -0.000583649  0.0121205 -0.0569828 -0.000555038  0.0124724 -0.0620816 -0.000530243  0.0127869 -0.0673356 -0.000511646  0.0130641 -0.0727379 -0.00048542  0.0133058 -0.078283 -0.000457764  0.0135124 -0.0839631 -0.000438213  0.0136839 -0.0897667 -0.000416756  0.0138236 -0.0956936 -0.000388145  0.0139326 -0.101732 -0.000370026  0.0140102 -0.107875 -0.000355721  0.0140566 -0.114121 -0.000337601  0.0140738 -0.120459 -0.000317574  0.0140631 -0.126884 -0.000298977  0.0140254 -0.133391 -0.000279427  0.0139627 -0.139972 -0.000259399  0.013876 -0.146625 -0.000242233  0.0137658 -0.153344 -0.000224113  0.0136335 -0.16012 -0.00020647  0.0134807 -0.166954 -0.000191212  0.0133069 -0.173836 -0.000173092  0.0131152 -0.180766 -0.000154972  0.0129037 -0.187737 -0.000139236  0.0126736 -0.194743 -0.000126362  0.0124276 -0.201783 -0.000110149  0.012166 -0.208852 -9.20296e-05  0.0118897 -0.215948 -8.2016e-05  0.0116005 -0.223064 -6.53267e-05  0.0112984 -0.2302 -5.19753e-05  0.0109835 -0.23735 -4.33922e-05  0.0106585 -0.244512 -3.57628e-05  0.0103242 -0.251684 -2.95639e-05  0.00998092 -0.258861 -1.57356e-05  0.00962901 -0.266043 -3.8147e-06  0.00927091 -0.273226 6.19888e-06  0.00890398 -0.280409 1.81198e-05  0.00852847 -0.287589 2.81334e-05  0.00814962 -0.294768 3.67165e-05  0.00776625 -0.30194 4.43459e-05  0.0073781 -0.309107 5.24521e-05  0.00698757 -0.316265 6.05583e-05  0.00659418 -0.323412 6.77109e-05  0.00619841 -0.330551 7.53403e-05  0.00580049 -0.337681 8.44002e-05  0.00540137 -0.344797 9.25064e-05  0.0050025 -0.351903 0.000101089  0.00460672 -0.358998 9.87053e-05  0 0 0  0.000275157 -0.000746131 -0.000263691  0.000913218 -0.00184089 -0.000484943  0.00179757 -0.00323892 -0.000668049  0.00283453 -0.00490266 -0.000813484  0.00395429 -0.00681019 -0.000915527  0.00510609 -0.00895888 -0.000979424  0.0062556 -0.0113472 -0.00101662  0.00737995 -0.0139763 -0.00103664  0.00846505 -0.0168434 -0.00103426  0.00950414 -0.0199485 -0.00102234  0.0104934 -0.0232809 -0.0010004  0.0114303 -0.026841 -0.000973701  0.0123129 -0.030619 -0.000941277  0.0131409 -0.0346093 -0.00091362  0.0139163 -0.0388024 -0.000874043  0.0146401 -0.0431926 -0.00083971  0.0153122 -0.0477706 -0.000806808  0.0159343 -0.0525299 -0.000767231  0.0165088 -0.0574617 -0.000737667  0.0170355 -0.0625598 -0.000706673  0.0175152 -0.0678126 -0.000669956  0.0179515 -0.073213 -0.000640392  0.0183452 -0.0787556 -0.000613689  0.0186965 -0.0844349 -0.000579834  0.0190072 -0.0902387 -0.000549316  0.0192764 -0.0961638 -0.000516891  0.0195075 -0.102201 -0.000491619  0.0197021 -0.108344 -0.000468254  0.0198603 -0.114589 -0.000451088  0.0199831 -0.120925 -0.000422955  0.0200728 -0.12735 -0.000394344  0.0201299 -0.133858 -0.00037241  0.0201559 -0.140436 -0.000346661  0.0201507 -0.147088 -0.000324249  0.0201173 -0.153805 -0.000298023  0.020057 -0.160581 -0.000277996  0.0199709 -0.167412 -0.000252724  0.0198603 -0.174295 -0.000234127  0.0197251 -0.181222 -0.000208378  0.0195663 -0.188191 -0.000183582  0.0193872 -0.195194 -0.000165939  0.0191865 -0.202233 -0.000150681  0.0189652 -0.2093 -0.000134945  0.0187263 -0.216393 -0.00011301  0.0184708 -0.223506 -0.000101089  0.0181992 -0.23064 -8.01086e-05  0.0179124 -0.237787 -6.81877e-05  0.0176103 -0.244948 -5.57899e-05  0.0172966 -0.252116 -4.3869e-05  0.0169728 -0.259292 -3.38554e-05  0.0166392 -0.266471 -1.81198e-05  0.0162935 -0.273653 -1.00136e-05  0.015939 -0.280833 5.72205e-06  0.015578 -0.288012 1.66893e-05  0.0152085 -0.295186 2.6226e-05  0.0148323 -0.302357 3.48091e-05  0.0144508 -0.309522 4.00543e-05  0.014065 -0.316677 5.43594e-05  0.013675 -0.323824 6.67572e-05  0.0132813 -0.33096 7.77245e-05  0.0128872 -0.338089 8.39233e-05  0.0124905 -0.345206 8.96454e-05  0.0120912 -0.352314 9.44138e-05  0.0116925 -0.359412 0.000106812  0 0 0  0.00036364 -0.00109822 -0.000326157  0.00120865 -0.00240695 -0.000605583  0.00235826 -0.00392479 -0.000833988  0.00368711 -0.00563967 -0.00102091  0.00510144 -0.00756282 -0.00114679  0.00654292 -0.00970232 -0.00123119  0.00797531 -0.0120735 -0.00127506  0.00937504 -0.0146816 -0.00129366  0.0107287 -0.0175276 -0.00129271  0.0120268 -0.0206107 -0.00127602  0.0132653 -0.0239264 -0.00124598  0.0144421 -0.0274695 -0.00121212  0.0155564 -0.0312352 -0.0011816  0.0166079 -0.0352135 -0.00114202  0.0175982 -0.0393959 -0.00109291  0.0185274 -0.0437784 -0.00105238  0.0193965 -0.0483485 -0.0010066  0.0202062 -0.0531014 -0.000962257  0.0209584 -0.0580267 -0.00092411  0.0216575 -0.0631185 -0.00087595  0.0223044 -0.0683673 -0.000843048  0.0228993 -0.0737627 -0.00080061  0.0234433 -0.0793008 -0.000762939  0.0239387 -0.0849754 -0.000724792  0.0243859 -0.090776 -0.000685215  0.0247855 -0.0966976 -0.000653744  0.0251397 -0.102731 -0.000618935  0.0254502 -0.108871 -0.000587463  0.0257176 -0.115111 -0.000551701  0.025944 -0.121444 -0.000525475  0.026131 -0.127865 -0.00049305  0.0262797 -0.13437 -0.000464916  0.0263917 -0.140945 -0.000436783  0.0264678 -0.147591 -0.000405788  0.0265107 -0.154303 -0.000381947  0.0265214 -0.161078 -0.000349522  0.0265012 -0.167904 -0.00032568  0.0264502 -0.174783 -0.000289917  0.0263715 -0.181707 -0.000264168  0.0262647 -0.188671 -0.000241756  0.0261321 -0.195671 -0.000209332  0.0259757 -0.202706 -0.000184536  0.0257967 -0.209769 -0.000166416  0.0255952 -0.216858 -0.000146866  0.0253727 -0.223967 -0.000132561  0.02513 -0.231097 -0.000112057  0.0248687 -0.238241 -9.20296e-05  0.024591 -0.245397 -7.48634e-05  0.0242975 -0.252561 -6.58035e-05  0.0239894 -0.259734 -5.14984e-05  0.0236692 -0.266908 -3.95775e-05  0.0233376 -0.274088 -1.7643e-05  0.0229952 -0.281263 -2.86102e-06  0.0226407 -0.28844 6.67572e-06  0.0222788 -0.29561 1.66893e-05  0.021909 -0.302779 2.6226e-05  0.0215311 -0.30994 3.8147e-05  0.0211482 -0.317092 5.34058e-05  0.0207617 -0.324237 6.53267e-05  0.0203714 -0.331373 7.20024e-05  0.0199778 -0.338499 7.77245e-05  0.0195816 -0.345617 9.05991e-05  0.0191846 -0.352725 9.77516e-05  0.0187888 -0.359826 0.000108242  0 0 0  0.000483431 -0.00159365 -0.000387192  0.00158052 -0.00316656 -0.000730515  0.00303815 -0.00480813 -0.00101948  0.00467387 -0.00655866 -0.00123167  0.00638688 -0.00847626 -0.00138092  0.00811654 -0.0105941 -0.0014782  0.00982645 -0.0129355 -0.00152445  0.0114951 -0.0155143 -0.00155067  0.0131079 -0.0183327 -0.00154734  0.0146577 -0.0213895 -0.00152922  0.01614 -0.0246823 -0.00149965  0.0175523 -0.0282058 -0.00146294  0.0188946 -0.0319536 -0.00141811  0.0201662 -0.0359176 -0.001369  0.0213668 -0.0400859 -0.00132036  0.0224997 -0.0444559 -0.00125933  0.0235648 -0.0490162 -0.0012126  0.0245627 -0.0537586 -0.00116491  0.0254956 -0.0586752 -0.0011096  0.0263652 -0.0637569 -0.00105667  0.0271746 -0.0689964 -0.00101089  0.0279251 -0.0743866 -0.000962734  0.0286168 -0.0799162 -0.000919342  0.0292519 -0.0855829 -0.000878334  0.0298326 -0.0913773 -0.00082922  0.0303599 -0.0972917 -0.00078392  0.030836 -0.103319 -0.000747204  0.0312618 -0.109453 -0.000705242  0.0316378 -0.115686 -0.00066185  0.0319656 -0.122014 -0.000635147  0.0322495 -0.128427 -0.000594139  0.0324895 -0.134924 -0.000557899  0.0326853 -0.141496 -0.000524998  0.0328412 -0.148136 -0.000489712  0.032959 -0.154842 -0.000459194  0.0330381 -0.161608 -0.000424385  0.0330811 -0.16843 -0.000388622  0.0330896 -0.175302 -0.000357151  0.0330656 -0.18222 -0.000324249  0.0330095 -0.189178 -0.000288486  0.0329227 -0.196174 -0.000259399  0.0328069 -0.203202 -0.000230789  0.0326645 -0.210259 -0.000204086  0.0324981 -0.21734 -0.000180721  0.0323067 -0.224445 -0.00015974  0.0320923 -0.231569 -0.000142574  0.0318563 -0.238708 -0.000117779  0.0316005 -0.245858 -0.000100613  0.0313265 -0.253018 -8.53539e-05  0.0310357 -0.260185 -6.38962e-05  0.0307295 -0.267354 -4.86374e-05  0.0304077 -0.274528 -2.90871e-05  0.0300713 -0.281699 -2.28882e-05  0.0297251 -0.288871 -1.90735e-06  0.0293686 -0.296039 3.8147e-06  0.0290024 -0.303203 2.0504e-05  0.0286288 -0.31036 3.33786e-05  0.0282502 -0.317511 4.95911e-05  0.0278649 -0.324653 6.00815e-05  0.0274734 -0.331787 7.10487e-05  0.0270796 -0.338911 7.86781e-05  0.0266819 -0.346028 8.86917e-05  0.026283 -0.353136 0.000102997  0.0258856 -0.36024 0.000109196  0 0 0  0.000623696 -0.00229615 -0.000457287  0.00209235 -0.00418603 -0.000865936  0.00390582 -0.00590771 -0.00119829  0.00585783 -0.00765866 -0.00145054  0.00785732 -0.00954235 -0.00161934  0.00985855 -0.0116205 -0.00172091  0.0118311 -0.0139225 -0.00178528  0.0137538 -0.0164641 -0.00180769  0.0156162 -0.0192494 -0.00180531  0.0174118 -0.0222753 -0.00178528  0.0191345 -0.0255426 -0.0017519  0.0207807 -0.0290428 -0.00170851  0.022348 -0.0327697 -0.00165367  0.0238358 -0.0367158 -0.00159979  0.0252452 -0.0408683 -0.00153685  0.0265766 -0.0452227 -0.00147486  0.0278327 -0.0497686 -0.00141954  0.0290148 -0.0544983 -0.00135946  0.0301248 -0.0594021 -0.00129652  0.0311654 -0.0644719 -0.00123405  0.0321364 -0.0696999 -0.00118256  0.0330403 -0.07508 -0.0011344  0.0338788 -0.0806002 -0.00107622  0.0346526 -0.0862553 -0.00102043  0.0353649 -0.0920404 -0.00097084  0.0360171 -0.0979453 -0.000917435  0.0366118 -0.103963 -0.000870705  0.0371499 -0.110087 -0.000822544  0.0376316 -0.116313 -0.000778675  0.0380608 -0.122631 -0.000736713  0.0384383 -0.129036 -0.000694275  0.0387657 -0.135521 -0.000654221  0.0390456 -0.142086 -0.000614166  0.0392799 -0.148719 -0.000573158  0.0394692 -0.155416 -0.000539303  0.0396147 -0.162172 -0.000498295  0.0397193 -0.168986 -0.000461578  0.0397859 -0.17585 -0.00041914  0.0398154 -0.182758 -0.000372887  0.0398078 -0.18971 -0.000342846  0.0397644 -0.196698 -0.000309467  0.0396876 -0.203718 -0.000275135  0.0395792 -0.210768 -0.00024271  0.039443 -0.217839 -0.000221729  0.0392799 -0.224939 -0.000191212  0.0390904 -0.232055 -0.0001688  0.0388772 -0.239186 -0.000150681  0.0386419 -0.24633 -0.000132084  0.0383849 -0.253484 -0.000107765  0.0381076 -0.260642 -8.34465e-05  0.037811 -0.267806 -5.8651e-05  0.037499 -0.274972 -4.3869e-05  0.0371723 -0.282139 -3.38554e-05  0.0368307 -0.289306 -1.71661e-05  0.0364769 -0.29647 -2.86102e-06  0.0361135 -0.303629 1.14441e-05  0.035742 -0.310781 2.76566e-05  0.0353622 -0.317929 4.1008e-05  0.0349758 -0.325069 5.24521e-05  0.0345838 -0.332198 7.39098e-05  0.0341883 -0.339322 7.9155e-05  0.0337889 -0.346439 9.01222e-05  0.0333874 -0.353547 9.9659e-05  0.0329862 -0.360651 0.000110626  0 0 0  0.00109478 -0.00339717 -0.000575542  0.00299345 -0.00548095 -0.00103045  0.00511043 -0.00720388 -0.00139332  0.00731692 -0.00890851 -0.00165987  0.00955808 -0.010735 -0.00184774  0.0117968 -0.0127608 -0.00196791  0.0140078 -0.0150176 -0.002038  0.0161733 -0.0175185 -0.00206423  0.0182771 -0.0202692 -0.00206089  0.0203096 -0.0232603 -0.00203657  0.0222635 -0.0265012 -0.00200176  0.0241355 -0.0299743 -0.00195265  0.0259247 -0.0336784 -0.00188971  0.0276278 -0.0376034 -0.00182581  0.0292433 -0.0417381 -0.00175619  0.030773 -0.0460743 -0.00169134  0.0322185 -0.0506024 -0.00162697  0.033582 -0.0553181 -0.00155592  0.0348669 -0.0602051 -0.00148678  0.0360733 -0.0652596 -0.00141716  0.0372024 -0.0704752 -0.00135708  0.0382564 -0.0758395 -0.00129509  0.0392386 -0.0813479 -0.00123644  0.0401506 -0.0869908 -0.00117493  0.0409929 -0.0927624 -0.00111341  0.0417681 -0.0986563 -0.00105476  0.0424784 -0.104661 -0.000999928  0.043126 -0.110773 -0.000942707  0.043713 -0.116987 -0.000895023  0.0442393 -0.123294 -0.000844955  0.044709 -0.129687 -0.000791073  0.0451236 -0.136161 -0.00074625  0.0454822 -0.142714 -0.000702858  0.0457892 -0.149339 -0.00066185  0.0460472 -0.156023 -0.000615597  0.0462592 -0.162768 -0.000573635  0.0464261 -0.169571 -0.000528336  0.0465462 -0.176424 -0.000481606  0.0466239 -0.183323 -0.000432014  0.0466616 -0.190264 -0.000389099  0.0466609 -0.197244 -0.000356674  0.0466218 -0.20425 -0.00032568  0.046546 -0.211293 -0.000287533  0.0464394 -0.218354 -0.000253201  0.0463018 -0.225447 -0.000226021  0.0461371 -0.232552 -0.000199795  0.0459445 -0.239673 -0.000180721  0.0457253 -0.246812 -0.00014782  0.0454836 -0.253955 -0.000127792  0.0452185 -0.261106 -0.000101089  0.0449321 -0.268263 -7.9155e-05  0.044626 -0.275421 -6.05583e-05  0.044301 -0.282582 -4.43459e-05  0.0439622 -0.289743 -2.71797e-05  0.043611 -0.296901 -1.4782e-05  0.0432475 -0.304053 8.10623e-06  0.0428729 -0.3112 2.52724e-05  0.0424907 -0.318345 3.91006e-05  0.0421009 -0.325481 5.05447e-05  0.0417042 -0.332609 6.48499e-05  0.0413048 -0.339732 8.29697e-05  0.0409038 -0.346847 8.7738e-05  0.0405011 -0.353957 9.87053e-05  0.0400982 -0.361061 0.000105858  0 0 0  -0.00111357 -0.00313417 0.000928879  -0.00299986 -0.00502175 0.00164318  -0.00510906 -0.00658906 0.00220776  -0.00731812 -0.00815384 0.00262022  -0.00956878 -0.00985694 0.00290871  -0.0118269 -0.0117542 0.00308609  -0.0140691 -0.0138784 0.00317955  -0.0162795 -0.0162371 0.00321054  -0.0184475 -0.0188434 0.00319815  -0.0205649 -0.0216914 0.00314808  -0.0226251 -0.0247719 0.00307751  -0.0246264 -0.0280901 0.00297928  -0.0265678 -0.0316276 0.0028739  -0.0284498 -0.0353841 0.0027647  -0.0302737 -0.039346 0.00264883  -0.0320397 -0.0435072 0.00253057  -0.0337493 -0.0478633 0.00242043  -0.0354038 -0.0523952 0.00231266  -0.0370069 -0.0571088 0.00221014  -0.0385582 -0.0619855 0.0021081  -0.0400593 -0.067026 0.00201654  -0.0415128 -0.0722155 0.00192261  -0.0429194 -0.0775497 0.00183344  -0.0442812 -0.0830233 0.00174475  -0.0455993 -0.0886286 0.00166178  -0.046874 -0.0943609 0.00158072  -0.0481063 -0.100208 0.00150061  -0.0492983 -0.106173 0.00142384  -0.0504501 -0.112237 0.00133944  -0.0515634 -0.118405 0.0012579  -0.0526379 -0.124666 0.00119019  -0.053676 -0.131011 0.00111961  -0.0546794 -0.137442 0.00104761  -0.0556467 -0.143948 0.000990868  -0.0565815 -0.150526 0.000929832  -0.0574837 -0.15717 0.000873089  -0.0583532 -0.163878 0.000809193  -0.0591919 -0.170639 0.000751972  -0.0599999 -0.177459 0.000703335  -0.0607791 -0.18432 0.000653267  -0.0615287 -0.191224 0.000605583  -0.0622501 -0.19817 0.000555992  -0.0629458 -0.20515 0.000511646  -0.0636148 -0.212163 0.000463486  -0.0642612 -0.219205 0.000431061  -0.0648842 -0.226267 0.000391006  -0.0654838 -0.23335 0.00035429  -0.0660622 -0.240453 0.000319958  -0.0666196 -0.247565 0.000294209  -0.067158 -0.254695 0.000266552  -0.0676787 -0.261832 0.000243187  -0.0681829 -0.268976 0.000221252  -0.0686722 -0.276124 0.00019455  -0.0691462 -0.283278 0.000173569  -0.0696065 -0.290427 0.000160694  -0.0700545 -0.297576 0.000152588  -0.0704923 -0.304723 0.00013876  -0.0709202 -0.311863 0.000133514  -0.0713408 -0.319003 0.000116825  -0.0717547 -0.326133 0.000109196  -0.0721636 -0.333256 0.000108242  -0.0725708 -0.340376 0.00010252  -0.0729773 -0.347488 0.000107765  -0.073385 -0.354593 0.000101089  0 0 0  -0.000632815 -0.00205904 0.000725269  -0.0020857 -0.00376441 0.00137711  -0.00387642 -0.00533629 0.00188923  -0.00581117 -0.00695558 0.0022645  -0.00780398 -0.00872055 0.00252771  -0.00980923 -0.0106837 0.00268221  -0.0117998 -0.0128681 0.00276947  -0.0137595 -0.0152891 0.00279427  -0.0156776 -0.0179511 0.00278091  -0.0175482 -0.0208542 0.00273371  -0.0193701 -0.023989 0.00266981  -0.0211404 -0.0273546 0.00259209  -0.0228586 -0.0309433 0.00249672  -0.0245258 -0.0347454 0.00239611  -0.0261427 -0.0387552 0.00229454  -0.0277105 -0.0429621 0.00220013  -0.029231 -0.0473594 0.00209427  -0.0307063 -0.0519358 0.0020051  -0.0321373 -0.0566897 0.00191545  -0.0335252 -0.0616077 0.00182533  -0.0348715 -0.0666863 0.00174284  -0.0361769 -0.0719157 0.00166655  -0.0374438 -0.0772868 0.00158978  -0.0386728 -0.0827984 0.001513  -0.0398635 -0.0884386 0.00144625  -0.0410187 -0.0942043 0.00137329  -0.0421387 -0.100086 0.0013032  -0.0432237 -0.106083 0.00123501  -0.0442755 -0.112179 0.00116587  -0.0452956 -0.118377 0.00109243  -0.0462848 -0.124669 0.00102997  -0.0472424 -0.131043 0.000971794  -0.0481684 -0.137498 0.000909328  -0.0490663 -0.144031 0.000855923  -0.0499351 -0.150633 0.000807285  -0.050776 -0.157302 0.000758171  -0.0515897 -0.164033 0.000710964  -0.0523765 -0.170816 0.000657082  -0.053139 -0.177655 0.000614166  -0.0538738 -0.184536 0.000568867  -0.0545852 -0.19146 0.000528812  -0.055274 -0.198423 0.000483036  -0.0559392 -0.20542 0.00044632  -0.0565836 -0.212446 0.000403881  -0.0572064 -0.219501 0.00037384  -0.0578072 -0.226577 0.000346184  -0.0583897 -0.233674 0.000313759  -0.058954 -0.240788 0.000288486  -0.0595005 -0.247912 0.000263691  -0.0600305 -0.255051 0.000239372  -0.0605428 -0.262197 0.000224113  -0.0610418 -0.26935 0.000203609  -0.0615282 -0.276505 0.000180721  -0.0620024 -0.283664 0.00016737  -0.0624633 -0.290818 0.000153065  -0.0629137 -0.297973 0.000139236  -0.0633559 -0.305123 0.000137329  -0.0637889 -0.312268 0.000121117  -0.0642133 -0.319408 0.000115871  -0.0646312 -0.326538 0.000108242  -0.0650449 -0.333662 0.000101566  -0.0654552 -0.340779 0.000103474  -0.0658636 -0.347891 0.000100613  -0.0662708 -0.354994 0.000101089  0 0 0  -0.000480354 -0.00137763 0.000616074  -0.0015576 -0.00278421 0.00115299  -0.00298814 -0.00428547 0.0015893  -0.00459905 -0.00591578 0.00191259  -0.00629199 -0.00772066 0.00213814  -0.00801238 -0.00973681 0.00228024  -0.00972793 -0.0119755 0.00235415  -0.0114199 -0.0144519 0.00237608  -0.0130783 -0.0171669 0.00236702  -0.0146973 -0.0201192 0.0023284  -0.0162737 -0.0233047 0.00227022  -0.0178074 -0.0267164 0.0022006  -0.0192987 -0.0303496 0.00211906  -0.0207469 -0.0341939 0.0020318  -0.0221541 -0.0382466 0.00195026  -0.023521 -0.0424935 0.00186777  -0.0248499 -0.0469295 0.00178242  -0.0261428 -0.0515458 0.00170517  -0.0273987 -0.0563351 0.00162363  -0.0286199 -0.0612907 0.00154781  -0.0298079 -0.0664043 0.00147629  -0.0309625 -0.0716687 0.00141144  -0.0320845 -0.077075 0.00134659  -0.0331758 -0.0826191 0.00128889  -0.0342388 -0.0882931 0.00122833  -0.0352725 -0.0940886 0.00116539  -0.0362773 -0.100002 0.00110626  -0.0372543 -0.106027 0.00105  -0.0382044 -0.112153 0.000987053  -0.0391284 -0.118379 0.000934601  -0.0400258 -0.124697 0.000878334  -0.0408977 -0.131097 0.000823498  -0.0417452 -0.137577 0.00077343  -0.0425689 -0.144134 0.000731945  -0.0433688 -0.150759 0.000691414  -0.0441456 -0.15745 0.000650406  -0.0449004 -0.164201 0.000608921  -0.045635 -0.171006 0.000567913  -0.0463462 -0.17786 0.000524998  -0.0470366 -0.184759 0.000487804  -0.0477083 -0.191701 0.000452042  -0.0483606 -0.19868 0.000417233  -0.0489936 -0.205692 0.000380993  -0.0496068 -0.212734 0.000350475  -0.0502024 -0.219799 0.000326633  -0.0507817 -0.226889 0.000295162  -0.0513449 -0.233998 0.000270367  -0.0518916 -0.241122 0.000251293  -0.0524228 -0.248259 0.000235558  -0.0529399 -0.255405 0.0002141  -0.0534449 -0.26256 0.000196457  -0.0539365 -0.269718 0.000181198  -0.0544164 -0.276881 0.000160694  -0.0548849 -0.284045 0.000151157  -0.0553432 -0.291205 0.000146866  -0.0557933 -0.298364 0.000130177  -0.0562341 -0.305519 0.000119686  -0.0566678 -0.312667 0.000118732  -0.0570953 -0.319807 0.000111103  -0.0575171 -0.326938 0.000104427  -0.0579331 -0.334064 0.000102997  -0.0583458 -0.34118 0.000102997  -0.0587559 -0.348291 9.44138e-05  -0.0591643 -0.355393 9.44138e-05  0 0 0  -0.000355832 -0.000909895 0.000511646  -0.00117572 -0.00207056 0.000952721  -0.00229141 -0.00345975 0.00130606  -0.00358477 -0.00506443 0.00157404  -0.00497055 -0.00688519 0.00176382  -0.00639471 -0.00893427 0.00188684  -0.00782463 -0.0112184 0.00194788  -0.00924179 -0.0137391 0.00196505  -0.0106341 -0.0165015 0.00194788  -0.0119949 -0.0194964 0.00191879  -0.0133221 -0.0227269 0.00187254  -0.0146152 -0.0261808 0.00181055  -0.0158744 -0.0298522 0.00174665  -0.0171011 -0.0337351 0.00167608  -0.0182954 -0.0378241 0.00161028  -0.0194582 -0.0421073 0.00154161  -0.0205913 -0.046579 0.00147915  -0.0216964 -0.0512301 0.00140762  -0.0227747 -0.0560514 0.00133991  -0.0238259 -0.0610397 0.00127172  -0.024852 -0.0661859 0.00121593  -0.0258533 -0.0714807 0.00116158  -0.0268306 -0.0769187 0.00110674  -0.0277841 -0.0824922 0.00105858  -0.0287143 -0.0881954 0.00101614  -0.0296222 -0.0940194 0.000962734  -0.0305094 -0.0999617 0.000911713  -0.0313747 -0.106012 0.000860214  -0.0322194 -0.112164 0.000817299  -0.0330439 -0.118414 0.00077486  -0.0338486 -0.124756 0.000728607  -0.0346328 -0.13118 0.000679493  -0.035398 -0.137683 0.000640392  -0.0361445 -0.14426 0.000601292  -0.0368745 -0.150907 0.000568867  -0.0375872 -0.157617 0.000542164  -0.038281 -0.164387 0.000503063  -0.0389571 -0.17121 0.000464916  -0.0396163 -0.178081 0.000440598  -0.0402589 -0.184996 0.000405788  -0.0408866 -0.191954 0.000380039  -0.0414994 -0.198947 0.000350952  -0.0420959 -0.205973 0.000326633  -0.0426769 -0.213027 0.000299931  -0.0432441 -0.220103 0.000276089  -0.0437984 -0.227205 0.000256538  -0.0443394 -0.234326 0.000237942  -0.0448661 -0.241459 0.000217438  -0.0453794 -0.248605 0.000197887  -0.0458822 -0.25576 0.000183105  -0.046375 -0.262921 0.000166893  -0.0468566 -0.270086 0.000164509  -0.0473285 -0.277254 0.000152111  -0.0477917 -0.284424 0.000139713  -0.0482466 -0.291589 0.000130177  -0.0486932 -0.298752 0.000124454  -0.0491331 -0.305911 0.000118732  -0.0495658 -0.31306 0.000114918  -0.0499914 -0.320203 0.000108719  -0.0504117 -0.327337 0.000104904  -0.0508296 -0.334463 0.000102043  -0.0512443 -0.341578 9.58443e-05  -0.051656 -0.348687 9.48906e-05  -0.0520656 -0.355788 9.10759e-05  0 0 0  -0.000262864 -0.000588387 0.000408173  -0.00086993 -0.00155529 0.000757694  -0.00171466 -0.00283912 0.00103712  -0.002712 -0.00440152 0.00124931  -0.00379622 -0.00622118 0.00139713  -0.00492311 -0.00828893 0.00149345  -0.00606436 -0.0106053 0.001544  -0.00720054 -0.0131623 0.00156116  -0.00832021 -0.0159616 0.00154781  -0.00941789 -0.0189943 0.00151539  -0.0104922 -0.0222628 0.0014801  -0.011542 -0.0257512 0.00143814  -0.0125669 -0.0294566 0.00138044  -0.0135685 -0.033374 0.00132418  -0.0145476 -0.0374939 0.00127125  -0.0155034 -0.0418096 0.00122166  -0.0164382 -0.0463113 0.00117159  -0.0173551 -0.0509931 0.00111341  -0.018253 -0.0558441 0.00106001  -0.019132 -0.0608597 0.00100756  -0.0199935 -0.0660346 0.00096035  -0.0208385 -0.0713567 0.000915051  -0.0216662 -0.0768223 0.000872135  -0.0224787 -0.0824228 0.000835896  -0.023276 -0.0881513 0.000799179  -0.0240576 -0.0940007 0.000762463  -0.0248237 -0.099968 0.000723839  -0.0255738 -0.10604 0.000685692  -0.0263108 -0.112216 0.000645638  -0.027034 -0.118487 0.000608444  -0.0277429 -0.12485 0.000572681  -0.0284371 -0.131295 0.000537395  -0.0291185 -0.137819 0.000506401  -0.0297868 -0.144414 0.000477791  -0.0304418 -0.151082 0.000452518  -0.031085 -0.157809 0.000424862  -0.0317159 -0.164595 0.000398636  -0.0323339 -0.171434 0.000372887  -0.0329397 -0.178319 0.000349998  -0.0335336 -0.18525 0.000330448  -0.0341151 -0.19222 0.000304699  -0.0346854 -0.199226 0.000283718  -0.0352442 -0.206265 0.000261307  -0.0357909 -0.213328 0.000243187  -0.0363266 -0.220418 0.00022459  -0.0368524 -0.22753 0.000216484  -0.0373681 -0.234661 0.000201702  -0.037873 -0.2418 0.000181675  -0.0383708 -0.248954 0.00016737  -0.0388582 -0.256116 0.000157356  -0.0393362 -0.263284 0.000148773  -0.039804 -0.270455 0.000135899  -0.0402653 -0.277628 0.000132561  -0.0407202 -0.284802 0.000121117  -0.041168 -0.291972 0.000117302  -0.0416088 -0.299139 0.00012064  -0.0420442 -0.306301 0.00011301  -0.0424731 -0.313454 0.000104904  -0.0428975 -0.320598 0.000104904  -0.0433192 -0.327734 9.63211e-05  -0.0437357 -0.33486 9.01222e-05  -0.0441494 -0.341976 9.05991e-05  -0.04456 -0.349084 9.67979e-05  -0.0449679 -0.356182 9.01222e-05  0 0 0  -0.000184596 -0.000373006 0.000309467  -0.000612751 -0.0011971 0.000565529  -0.00121522 -0.00239545 0.000780106  -0.00193632 -0.00391597 0.000933647  -0.0027318 -0.00572637 0.00103617  -0.00356841 -0.00780523 0.00110579  -0.00441951 -0.0101412 0.00114536  -0.00527015 -0.0127269 0.00116062  -0.00611365 -0.0155539 0.00115156  -0.00694579 -0.0186189 0.0011282  -0.00776321 -0.0219164 0.0010972  -0.00856495 -0.0254344 0.0010643  -0.00935364 -0.0291695 0.00102282  -0.0101292 -0.0331146 0.000983715  -0.0108897 -0.0372611 0.000947475  -0.0116374 -0.041604 0.000909328  -0.012374 -0.0461313 0.000868797  -0.0130988 -0.0508389 0.000822544  -0.0138139 -0.0557163 0.000780582  -0.0145203 -0.0607567 0.00074625  -0.0152164 -0.0659541 0.000708103  -0.0159014 -0.0713014 0.000676155  -0.0165782 -0.0767904 0.000649929  -0.0172466 -0.0824135 0.000618458  -0.0179076 -0.0881654 0.000586987  -0.0185611 -0.0940358 0.000557899  -0.0192064 -0.100024 0.000533104  -0.0198418 -0.106116 0.000505447  -0.0204685 -0.112313 0.000477791  -0.0210871 -0.118602 0.000445843  -0.0216982 -0.124983 0.00041914  -0.022302 -0.131446 0.000395775  -0.0228982 -0.137988 0.000376701  -0.0234852 -0.1446 0.000357628  -0.0240653 -0.151284 0.000337601  -0.0246365 -0.158027 0.000311852  -0.0252004 -0.164826 0.000296116  -0.0257576 -0.17168 0.000281811  -0.0263073 -0.178578 0.000267029  -0.0268493 -0.185521 0.000248432  -0.0273836 -0.192503 0.00023222  -0.0279105 -0.199521 0.0002141  -0.028429 -0.206569 0.000198841  -0.0289397 -0.213644 0.000188828  -0.0294433 -0.220744 0.000181675  -0.0299401 -0.227864 0.000173569  -0.0304286 -0.235001 0.000157356  -0.03091 -0.242148 0.000141621  -0.0313852 -0.249309 0.000137329  -0.0318525 -0.256477 0.00013113  -0.0323136 -0.263652 0.000124454  -0.0327702 -0.270828 0.000115395  -0.033221 -0.278005 0.000109196  -0.0336668 -0.285181 0.000109673  -0.0341077 -0.292357 0.000105381  -0.0345421 -0.299526 0.000109196  -0.0349708 -0.306691 0.000101089  -0.0353959 -0.313846 0.000103474  -0.0358179 -0.320992 0.000103474  -0.0362356 -0.32813 9.48906e-05  -0.0366504 -0.335259 9.39369e-05  -0.0370607 -0.342375 9.34601e-05  -0.0374696 -0.34948 9.29832e-05  -0.0378788 -0.356575 9.34601e-05  0 0 0  -0.000115138 -0.000238091 0.00020504  -0.000382036 -0.000966072 0.000376225  -0.000764519 -0.00210595 0.000518322  -0.00122882 -0.00359324 0.000617504  -0.00174397 -0.00539526 0.000686169  -0.00228876 -0.0074794 0.000733852  -0.00285098 -0.00983009 0.000761509  -0.00342023 -0.0124356 0.00076437  -0.00398815 -0.0152849 0.00076437  -0.00455141 -0.0183729 0.000745296  -0.00511014 -0.0216932 0.000721455  -0.00566578 -0.0252358 0.000697136  -0.00621611 -0.0289938 0.000672817  -0.00676167 -0.0329607 0.000647068  -0.00730425 -0.0371307 0.000622272  -0.0078423 -0.0414938 0.000593662  -0.00837708 -0.0460437 0.000566959  -0.00891006 -0.0507718 0.000535488  -0.00944138 -0.0556712 0.000516891  -0.00997102 -0.0607324 0.000490189  -0.0104994 -0.0659497 0.000459671  -0.0110266 -0.0713176 0.00043869  -0.0115526 -0.0768264 0.000418663  -0.0120771 -0.0824681 0.00039959  -0.0125997 -0.0882399 0.000384331  -0.0131208 -0.0941285 0.000366211  -0.0136405 -0.100134 0.00034523  -0.0141582 -0.106244 0.000332832  -0.0146753 -0.112458 0.000309467  -0.01519 -0.118762 0.000292301  -0.0157034 -0.12516 0.000279903  -0.0162139 -0.131637 0.00026226  -0.0167222 -0.138195 0.000246525  -0.0172274 -0.144821 0.000237465  -0.0177312 -0.151518 0.000220776  -0.0182312 -0.158274 0.000211716  -0.0187268 -0.165086 0.000199318  -0.0192211 -0.17195 0.000189781  -0.0197124 -0.178861 0.000176907  -0.0201998 -0.185814 0.000168324  -0.0206842 -0.192806 0.000157833  -0.0211651 -0.199833 0.000149727  -0.021642 -0.20689 0.000139713  -0.0221155 -0.213975 0.000132561  -0.0225861 -0.221083 0.000129223  -0.023051 -0.228209 0.000125885  -0.0235131 -0.235352 0.00012207  -0.0239694 -0.242506 0.000106812  -0.0244207 -0.249672 0.000105381  -0.0248678 -0.256846 9.82285e-05  -0.0253119 -0.264024 9.63211e-05  -0.0257525 -0.271206 8.7738e-05  -0.0261912 -0.278386 9.34601e-05  -0.0266247 -0.285564 9.01222e-05  -0.0270545 -0.292745 9.20296e-05  -0.0274813 -0.299916 9.20296e-05  -0.0279059 -0.307082 9.48906e-05  -0.0283265 -0.314239 9.63211e-05  -0.0287433 -0.321388 9.87053e-05  -0.0291567 -0.328527 9.39369e-05  -0.0295684 -0.335658 8.7738e-05  -0.0299788 -0.342775 9.34601e-05  -0.0303874 -0.349878 9.10759e-05  -0.0307944 -0.356968 9.39369e-05  0 0 0  -5.15766e-05 -0.000167757 0.000102043  -0.000172719 -0.000845879 0.000186443  -0.000346512 -0.00195277 0.000255585  -0.000559926 -0.00342396 0.000306129  -0.000802606 -0.00522065 0.000340462  -0.00106525 -0.00730866 0.00036335  -0.0013409 -0.00967062 0.000374794  -0.00162563 -0.0122904 0.000375271  -0.00191593 -0.0151551 0.000375748  -0.00221133 -0.018259 0.000361443  -0.00251222 -0.0215969 0.00035429  -0.00281698 -0.0251577 0.000339985  -0.00312775 -0.028932 0.000328064  -0.00344491 -0.0329163 0.00030899  -0.00376606 -0.0371035 0.000292778  -0.00409257 -0.0414833 0.000283241  -0.00442624 -0.0460496 0.000267029  -0.00476718 -0.0507954 0.000259876  -0.00511432 -0.0557109 0.000243664  -0.00546777 -0.0607892 0.00023222  -0.00582814 -0.0660233 0.000215054  -0.00619447 -0.0714082 0.000206947  -0.00656676 -0.0769325 0.000193119  -0.00694585 -0.0825902 0.000189781  -0.00733101 -0.0883779 0.000188351  -0.00771976 -0.0942822 0.000174046  -0.00811374 -0.100301 0.000166893  -0.00851309 -0.106426 0.000156403  -0.00891852 -0.112653 0.000147343  -0.00932741 -0.118971 0.000142097  -0.00974011 -0.125381 0.000130653  -0.0101563 -0.131871 0.000128746  -0.0105767 -0.13844 0.000123024  -0.0109997 -0.145081 0.00011301  -0.0114231 -0.151786 0.000110626  -0.0118496 -0.158554 0.000105858  -0.0122783 -0.165376 0.000103474  -0.0127075 -0.172249 9.72748e-05  -0.013139 -0.179169 9.44138e-05  -0.0135727 -0.186132 8.72612e-05  -0.0140064 -0.193132 8.34465e-05  -0.0144396 -0.200165 8.34465e-05  -0.0148745 -0.20723 7.82013e-05  -0.0153096 -0.214321 7.96318e-05  -0.0157433 -0.221437 8.05855e-05  -0.0161765 -0.228567 7.77245e-05  -0.0166087 -0.235714 7.48634e-05  -0.0170405 -0.242874 7.39098e-05  -0.0174704 -0.250045 7.29561e-05  -0.0178993 -0.257223 6.62804e-05  -0.018326 -0.264403 7.29561e-05  -0.0187507 -0.271588 6.67572e-05  -0.0191741 -0.278772 7.15256e-05  -0.0195951 -0.285952 7.53403e-05  -0.0200152 -0.293135 7.53403e-05  -0.0204329 -0.300309 7.82013e-05  -0.020849 -0.307476 8.24928e-05  -0.0212629 -0.314634 8.15392e-05  -0.0216761 -0.321786 8.63075e-05  -0.0220871 -0.328927 9.01222e-05  -0.0224957 -0.336056 9.15527e-05  -0.0229032 -0.343174 8.82149e-05  -0.0233085 -0.350277 9.44138e-05  -0.0237131 -0.357365 9.53674e-05  0 0 0  9.23872e-06 -0.000154793 -9.53674e-07  3.15309e-05 -0.000825256 -4.76837e-06  5.93215e-05 -0.00192732 -5.72205e-06  8.74996e-05 -0.0033991 -9.53674e-06  0.000112921 -0.00519747 -3.33786e-06  0.000131369 -0.00729144 -1.14441e-05  0.000139773 -0.00966081 -1.09673e-05  0.000138223 -0.0122905 -8.58307e-06  0.000125229 -0.015165 -1.66893e-05  9.87053e-05 -0.0182794 -1.33514e-05  5.84126e-05 -0.0216281 -9.53674e-06  2.98023e-06 -0.0251995 -9.53674e-06  -6.80089e-05 -0.0289858 -1.52588e-05  -0.000154376 -0.0329825 -2.38419e-05  -0.000255406 -0.0371799 -2.67029e-05  -0.000371397 -0.0415735 -3.19481e-05  -0.00050354 -0.046151 -2.86102e-05  -0.000651479 -0.0509101 -3.05176e-05  -0.000813127 -0.0558379 -2.0504e-05  -0.00098896 -0.0609296 -2.0504e-05  -0.00118005 -0.0661767 -2.43187e-05  -0.00138545 -0.071574 -2.67029e-05  -0.00160408 -0.0771115 -2.6226e-05  -0.00183606 -0.082781 -1.52588e-05  -0.00208139 -0.0885812 -1.71661e-05  -0.00234044 -0.0944984 -1.04904e-05  -0.0026108 -0.100527 -1.43051e-05  -0.00289106 -0.106664 -1.38283e-05  -0.00318134 -0.112902 -1.85966e-05  -0.00348258 -0.119232 -1.62125e-05  -0.00379467 -0.125649 -6.19888e-06  -0.00411606 -0.132151 -8.58307e-06  -0.00444674 -0.138728 -4.29153e-06  -0.00478649 -0.145379 -4.29153e-06  -0.00513411 -0.152092 -4.29153e-06  -0.0054872 -0.158866 5.24521e-06  -0.0058465 -0.165697 1.43051e-06  -0.00621247 -0.172576 9.05991e-06  -0.00658321 -0.179503 7.15256e-06  -0.00696111 -0.186474 1.43051e-05  -0.00734401 -0.193481 1.38283e-05  -0.00773191 -0.20052 1.71661e-05  -0.00812364 -0.207589 2.09808e-05  -0.00851822 -0.214686 2.38419e-05  -0.0089159 -0.221805 3.33786e-05  -0.00931525 -0.22894 3.19481e-05  -0.00971699 -0.236089 4.14848e-05  -0.0101204 -0.243253 4.3869e-05  -0.0105255 -0.250428 3.57628e-05  -0.0109313 -0.257608 3.76701e-05  -0.0113385 -0.264792 3.91006e-05  -0.0117474 -0.271978 4.95911e-05  -0.0121584 -0.279164 5.43594e-05  -0.0125706 -0.286347 5.96046e-05  -0.0129809 -0.293529 6.10352e-05  -0.0133901 -0.300705 7.05719e-05  -0.0137985 -0.307873 7.39098e-05  -0.0142057 -0.315034 8.05855e-05  -0.0146124 -0.322186 7.77245e-05  -0.0150192 -0.329328 8.44002e-05  -0.015424 -0.336457 8.86917e-05  -0.0158296 -0.343575 9.63211e-05  -0.0162342 -0.350677 9.58443e-05  -0.0166368 -0.357766 9.82285e-05  0 0 0  7.05346e-05 -0.000197828 -0.000107288  0.000234053 -0.000899196 -0.00019455  0.000463665 -0.00202572 -0.000267029  0.000735134 -0.00351405 -0.000311375  0.00102806 -0.00532353 -0.00035429  0.00132716 -0.00742483 -0.000380039  0.00162056 -0.00980037 -0.000392914  0.00189942 -0.0124336 -0.000398636  0.00216031 -0.0153132 -0.000392914  0.00240189 -0.0184324 -0.000392914  0.00262135 -0.0217854 -0.000378132  0.0028156 -0.0253616 -0.000365734  0.00298452 -0.0291556 -0.000361919  0.00312859 -0.0331582 -0.000352383  0.0032472 -0.0373632 -0.000339985  0.00334179 -0.0417631 -0.000332832  0.00341296 -0.0463496 -0.000320435  0.00345898 -0.0511164 -0.000304222  0.00348043 -0.0560542 -0.000292301  0.00347936 -0.0611545 -0.00028038  0.00345743 -0.0664101 -0.000261307  0.00341463 -0.0718166 -0.000253201  0.0033499 -0.0773634 -0.000243664  0.00326264 -0.0830417 -0.000228405  0.00315559 -0.0888496 -0.000213146  0.00303209 -0.0947767 -0.000205994  0.00288999 -0.100815 -0.000196934  0.00272894 -0.106959 -0.000193596  0.00254965 -0.113205 -0.000173569  0.00235271 -0.119543 -0.000162601  0.00213993 -0.125967 -0.000154018  0.00191379 -0.132476 -0.000140667  0.00167441 -0.13906 -0.000133991  0.0014205 -0.145717 -0.000121593  0.00115395 -0.152437 -0.000114918  0.000874519 -0.159215 -0.000106335  0.000583887 -0.166052 -9.53674e-05  0.000282288 -0.172936 -8.53539e-05  -3.00407e-05 -0.179867 -7.86781e-05  -0.000352621 -0.186843 -6.48499e-05  -0.000684023 -0.193854 -5.57899e-05  -0.00102401 -0.200898 -4.91142e-05  -0.00137162 -0.20797 -4.00543e-05  -0.00172472 -0.21507 -2.57492e-05  -0.00208426 -0.22219 -1.95503e-05  -0.00245094 -0.229329 -2.86102e-06  -0.00282359 -0.236481 1.43051e-06  -0.00320029 -0.243646 3.33786e-06  -0.00358081 -0.250824 2.86102e-06  -0.00396705 -0.258004 3.33786e-06  -0.00435781 -0.26519 2.0504e-05  -0.00475049 -0.272376 2.19345e-05  -0.00514507 -0.279564 3.62396e-05  -0.00554204 -0.286749 4.52995e-05  -0.00594234 -0.293932 5.29289e-05  -0.00634313 -0.301107 5.81741e-05  -0.00674415 -0.308275 6.29425e-05  -0.00714588 -0.315438 6.4373e-05  -0.00754881 -0.322589 7.34329e-05  -0.0079515 -0.329732 8.15392e-05  -0.00835323 -0.33686 9.05991e-05  -0.00875521 -0.343977 9.58443e-05  -0.00915694 -0.351081 9.67979e-05  -0.00955725 -0.358172 0.000101089  0 0 0  0.000133082 -0.000298083 -0.000212193  0.000443965 -0.00107127 -0.000383854  0.000881329 -0.00224918 -0.000523567  0.00140035 -0.00377053 -0.000625134  0.0019643 -0.00559795 -0.00069809  0.00254452 -0.00770861 -0.000739574  0.00312138 -0.0100874 -0.0007658  0.00368297 -0.0127192 -0.000779629  0.00422078 -0.0155984 -0.000780106  0.00472903 -0.0187176 -0.000767231  0.00520438 -0.0220687 -0.000748634  0.00564599 -0.0256435 -0.000733376  0.00605339 -0.0294407 -0.000711918  0.00642633 -0.0334438 -0.000683308  0.00676489 -0.0376529 -0.000660419  0.00706947 -0.0420541 -0.000631332  0.00734007 -0.0466459 -0.000614643  0.00757849 -0.0514155 -0.000585556  0.00778496 -0.0563594 -0.000562191  0.00796103 -0.0614643 -0.000533581  0.00810635 -0.0667259 -0.000507832  0.00822234 -0.0721367 -0.000488758  0.00831163 -0.0776892 -0.000459194  0.00837326 -0.0833743 -0.000442505  0.008407 -0.0891858 -0.000412941  0.00841379 -0.0951185 -0.000394344  0.00839627 -0.101163 -0.000379562  0.00835454 -0.107311 -0.000365734  0.0082885 -0.113563 -0.000341892  0.00820041 -0.119906 -0.000316143  0.00809038 -0.126336 -0.000295639  0.00795913 -0.132849 -0.000275135  0.00780702 -0.139437 -0.00026226  0.00763655 -0.146096 -0.000248432  0.00744796 -0.152821 -0.000226021  0.00724268 -0.159603 -0.000210285  0.00702143 -0.166441 -0.00019455  0.0067842 -0.173329 -0.000174999  0.00653267 -0.180263 -0.000162125  0.00626493 -0.187239 -0.000145435  0.00598311 -0.194253 -0.000126362  0.00569105 -0.201298 -0.000113964  0.00538731 -0.208374 -9.48906e-05  0.00507283 -0.215474 -8.91685e-05  0.00474882 -0.222594 -6.91414e-05  0.00441551 -0.229735 -5.53131e-05  0.0040729 -0.236887 -3.91006e-05  0.00372219 -0.244054 -3.62396e-05  0.00336456 -0.251232 -2.90871e-05  0.00300097 -0.258412 -1.81198e-05  0.00263023 -0.265598 -4.29153e-06  0.00225377 -0.272786 8.10623e-06  0.00187111 -0.279972 1.81198e-05  0.00148535 -0.287158 3.05176e-05  0.00109673 -0.29434 4.1008e-05  0.000705004 -0.301514 4.52995e-05  0.000310898 -0.308682 5.38826e-05  -8.53539e-05 -0.315845 6.19888e-05  -0.000483513 -0.322996 6.58035e-05  -0.000882626 -0.330137 7.72476e-05  -0.00128198 -0.337267 8.01086e-05  -0.0016818 -0.344383 8.96454e-05  -0.00208259 -0.351488 9.9659e-05  -0.0024817 -0.358579 0.000104427  0 0 0  0.000201285 -0.000462115 -0.000315189  0.000670582 -0.00135136 -0.000568867  0.00132751 -0.0026055 -0.000777721  0.00210413 -0.00417376 -0.000926018  0.00294521 -0.00602353 -0.00103712  0.00381017 -0.00814313 -0.00110912  0.00467208 -0.0105196 -0.00114918  0.00551438 -0.013145 -0.00116158  0.00632477 -0.0160189 -0.00116491  0.00709784 -0.0191314 -0.00114584  0.00782901 -0.0224752 -0.00112104  0.00851542 -0.0260447 -0.0010891  0.00915855 -0.0298371 -0.00105858  0.00975811 -0.033839 -0.00102234  0.0103137 -0.0380452 -0.000977993  0.0108278 -0.0424463 -0.000939369  0.0112995 -0.0470387 -0.00090456  0.0117294 -0.0518076 -0.000865459  0.0121197 -0.0567526 -0.000826359  0.0124726 -0.0618594 -0.000789642  0.0127875 -0.0671237 -0.000759125  0.0130645 -0.0725355 -0.000720501  0.0133053 -0.0780895 -0.000685692  0.0135105 -0.0837784 -0.000652313  0.013682 -0.0895901 -0.000620842  0.0138212 -0.0955253 -0.000585079  0.0139289 -0.101571 -0.000556469  0.0140059 -0.107723 -0.000531197  0.0140529 -0.113977 -0.000504017  0.0140711 -0.120321 -0.000475883  0.0140611 -0.126753 -0.000446796  0.014024 -0.133268 -0.000417233  0.0139618 -0.139858 -0.000392437  0.0138748 -0.146517 -0.000366211  0.0137644 -0.153243 -0.000341415  0.0136325 -0.160027 -0.00031662  0.0134785 -0.166865 -0.000292301  0.0133042 -0.173755 -0.000268459  0.0131116 -0.180689 -0.000243187  0.0128989 -0.187665 -0.000218391  0.0126688 -0.194678 -0.000202179  0.0124223 -0.201723 -0.000178814  0.0121601 -0.208798 -0.000155926  0.0118828 -0.215898 -0.000138283  0.0115921 -0.223017 -0.000118256  0.0112906 -0.230158 -0.000100136  0.0109775 -0.237311 -8.53539e-05  0.010653 -0.244477 -7.29561e-05  0.0103176 -0.251653 -6.29425e-05  0.00997281 -0.258832 -4.48227e-05  0.00962186 -0.266017 -3.09944e-05  0.00926304 -0.273204 -1.66893e-05  0.00889635 -0.280389 0  0.00852323 -0.287574 1.38283e-05  0.00814366 -0.294754 2.19345e-05  0.00776029 -0.301926 3.43323e-05  0.00737143 -0.309094 4.29153e-05  0.00698066 -0.316254 5.10216e-05  0.00658822 -0.323405 6.10352e-05  0.00619197 -0.330545 7.05719e-05  0.00579333 -0.337674 8.24928e-05  0.00539351 -0.344789 9.15527e-05  0.00499487 -0.351896 0.000100613  0.00459719 -0.35899 0.000102997  0 0 0  0.000278831 -0.000705063 -0.00041151  0.000926375 -0.00175655 -0.000751019  0.00182071 -0.00311017 -0.00102425  0.00286645 -0.00473225 -0.00123835  0.00399163 -0.00660622 -0.00138521  0.00514603 -0.00872737 -0.0014801  0.00629494 -0.0110961 -0.00153017  0.00741553 -0.01371 -0.00155115  0.00849646 -0.0165708 -0.00154686  0.00953066 -0.0196699 -0.00152731  0.0105145 -0.0230014 -0.00149298  0.0114464 -0.0265621 -0.00145292  0.0123256 -0.0303443 -0.00140285  0.0131505 -0.034341 -0.00135708  0.013922 -0.0385398 -0.00130272  0.0146427 -0.042937 -0.00125027  0.0153127 -0.0475253 -0.0012002  0.0159322 -0.0522916 -0.00114298  0.0165045 -0.0572328 -0.00110006  0.0170304 -0.0623388 -0.00105047  0.0175105 -0.0676016 -0.000998497  0.0179471 -0.0730108 -0.000956535  0.01834 -0.0785637 -0.000914097  0.0186907 -0.084251 -0.000868797  0.0190002 -0.0900632 -0.00082016  0.0192703 -0.0959958 -0.000777245  0.0195023 -0.102042 -0.000737667  0.0196974 -0.108193 -0.000703335  0.0198551 -0.114447 -0.00067091  0.019978 -0.120788 -0.000632763  0.0200682 -0.127221 -0.000593185  0.0201254 -0.133735 -0.000557423  0.0201499 -0.140322 -0.000520229  0.0201445 -0.146982 -0.000487328  0.0201116 -0.153704 -0.000454903  0.0200512 -0.160487 -0.00042057  0.0199649 -0.167323 -0.000390053  0.0198538 -0.174213 -0.000358582  0.0197191 -0.181146 -0.000322819  0.0195618 -0.18812 -0.000290871  0.019382 -0.19513 -0.000264645  0.0191798 -0.202173 -0.000239372  0.0189576 -0.209244 -0.00021553  0.0187178 -0.216342 -0.000189304  0.0184627 -0.22346 -0.0001688  0.0181911 -0.230598 -0.000140667  0.0179036 -0.237751 -0.00012207  0.0176032 -0.244914 -0.000102997  0.0172906 -0.252087 -8.91685e-05  0.0169673 -0.259264 -7.29561e-05  0.0166323 -0.266446 -5.38826e-05  0.0162878 -0.273631 -3.71933e-05  0.0159342 -0.280813 -2.19345e-05  0.0155716 -0.287997 -3.33786e-06  0.0152023 -0.295173 8.58307e-06  0.0148251 -0.302345 2.24113e-05  0.0144432 -0.309509 2.86102e-05  0.0140562 -0.316668 4.52995e-05  0.0136647 -0.323816 6.10352e-05  0.0132728 -0.330955 7.10487e-05  0.0128798 -0.338083 7.67708e-05  0.0124838 -0.345199 8.96454e-05  0.0120857 -0.352307 9.63211e-05  0.0116882 -0.359404 0.000110626  0 0 0  0.000366688 -0.00105131 -0.000504017  0.00122155 -0.00231194 -0.000936031  0.00238405 -0.00378329 -0.00128126  0.00372237 -0.00545907 -0.00155449  0.0051434 -0.00734842 -0.00173569  0.0065881 -0.00946283 -0.00185537  0.00801891 -0.0118144 -0.00191689  0.00941497 -0.0144107 -0.00193977  0.0107629 -0.0172501 -0.00193357  0.0120558 -0.02033 -0.00190735  0.0132889 -0.0236442 -0.00186157  0.0144604 -0.0271898 -0.00181103  0.0155692 -0.0309606 -0.00175762  0.016615 -0.0349448 -0.00169897  0.0176012 -0.0391337 -0.00162888  0.0185269 -0.0435243 -0.00156498  0.0193931 -0.0481035 -0.0014987  0.020202 -0.0528642 -0.00143242  0.0209547 -0.0577986 -0.00137377  0.0216532 -0.0628993 -0.00131035  0.0222993 -0.0681581 -0.00125694  0.0228934 -0.0735612 -0.00119591  0.023437 -0.0791106 -0.00114059  0.023932 -0.0847929 -0.0010848  0.0243788 -0.0906022 -0.00102758  0.0247775 -0.096531 -0.000975609  0.0251306 -0.102572 -0.000927448  0.0254408 -0.108721 -0.00087738  0.0257089 -0.11497 -0.000828266  0.0259358 -0.121308 -0.000783443  0.0261227 -0.127738 -0.000739574  0.0262725 -0.134246 -0.000697136  0.0263848 -0.140831 -0.000651836  0.0264616 -0.147486 -0.000610828  0.0265052 -0.154204 -0.000573635  0.0265148 -0.160984 -0.000530243  0.0264933 -0.167816 -0.000489712  0.0264416 -0.174701 -0.00044775  0.0263627 -0.181632 -0.000407219  0.0262558 -0.188601 -0.000374794  0.026124 -0.195607 -0.000330925  0.0259676 -0.202646 -0.000296116  0.0257878 -0.209713 -0.000268936  0.0255864 -0.216806 -0.000242233  0.0253632 -0.223922 -0.000215054  0.0251193 -0.231055 -0.000188828  0.024858 -0.238204 -0.00015831  0.02458 -0.245364 -0.000135899  0.0242872 -0.252532 -0.000118732  0.0239794 -0.259707 -9.58443e-05  0.0236597 -0.266884 -8.15392e-05  0.0233281 -0.274065 -5.53131e-05  0.0229862 -0.281243 -3.29018e-05  0.0226333 -0.288424 -1.85966e-05  0.0222714 -0.295596 -6.19888e-06  0.0219021 -0.302767 7.62939e-06  0.0215261 -0.309929 2.57492e-05  0.0211442 -0.317084 4.14848e-05  0.0207577 -0.32423 5.38826e-05  0.0203655 -0.331367 6.53267e-05  0.0199699 -0.338494 7.43866e-05  0.0195727 -0.345611 8.91685e-05  0.0191748 -0.352719 9.67979e-05  0.0187778 -0.359818 0.000109196  0 0 0  0.000486426 -0.00153768 -0.000600815  0.0015929 -0.00305617 -0.00112534  0.00306138 -0.00465035 -0.0015564  0.00470781 -0.00636286 -0.00187302  0.00642824 -0.00824904 -0.0020957  0.00816137 -0.0103439 -0.00223112  0.0098711 -0.0126675 -0.00229931  0.0115366 -0.0152375 -0.00232935  0.0131461 -0.0180494 -0.00232029  0.0146913 -0.0211051 -0.00228882  0.0161672 -0.024398 -0.00224018  0.017573 -0.027925 -0.0021801  0.0189098 -0.0316796 -0.00211573  0.0201771 -0.035647 -0.00203896  0.0213735 -0.039825 -0.00196409  0.0225024 -0.0442036 -0.00188065  0.0235645 -0.0487721 -0.00180483  0.0245593 -0.0535228 -0.00173283  0.0254912 -0.058448 -0.00165367  0.0263604 -0.0635389 -0.0015769  0.0271683 -0.06879 -0.00151062  0.0279189 -0.0741859 -0.00143814  0.0286108 -0.0797278 -0.00137091  0.0292453 -0.0854022 -0.00131083  0.029825 -0.0912045 -0.00123978  0.0303525 -0.0971274 -0.00117588  0.0308284 -0.103162 -0.00111675  0.0312538 -0.109305 -0.00105762  0.0316304 -0.115545 -0.000993729  0.0319589 -0.12188 -0.000947475  0.0322423 -0.128301 -0.000891685  0.0324826 -0.134803 -0.000839233  0.0326796 -0.141384 -0.000784874  0.0328355 -0.148031 -0.000734806  0.0329518 -0.154742 -0.000687599  0.0330303 -0.161516 -0.000638485  0.0330732 -0.168343 -0.00058794  0.0330815 -0.17522 -0.000541687  0.0330553 -0.182146 -0.000497341  0.0329995 -0.189108 -0.000446796  0.0329125 -0.196109 -0.000403404  0.0327959 -0.203142 -0.000362873  0.0326526 -0.210203 -0.000324249  0.0324855 -0.217289 -0.000293255  0.0322948 -0.224401 -0.000259876  0.0320814 -0.231528 -0.000231743  0.0318449 -0.23867 -0.000198364  0.031589 -0.245824 -0.000172615  0.0313146 -0.252989 -0.000148296  0.0310235 -0.260159 -0.00012207  0.0307183 -0.267331 -9.67979e-05  0.0303984 -0.274505 -7.15256e-05  0.0300632 -0.281681 -5.67436e-05  0.0297172 -0.288855 -3.43323e-05  0.0293615 -0.296024 -1.81198e-05  0.0289953 -0.30319 4.76837e-07  0.0286214 -0.310352 1.66893e-05  0.0282414 -0.317502 3.57628e-05  0.0278554 -0.324644 5.19753e-05  0.0274637 -0.331779 6.4373e-05  0.0270684 -0.338905 7.29561e-05  0.0266714 -0.346023 8.72612e-05  0.0262735 -0.353131 0.000102043  0.0258756 -0.360231 0.000109673  0 0 0  0.000624686 -0.00222504 -0.000706673  0.00209637 -0.00405288 -0.00133753  0.00391923 -0.00572681 -0.00183916  0.00588226 -0.00744128 -0.00220776  0.00789168 -0.0092988 -0.00245476  0.0098995 -0.0113562 -0.00260782  0.0118745 -0.0136442 -0.00268984  0.0137973 -0.0161782 -0.00271893  0.015658 -0.0189593 -0.00270891  0.0174484 -0.0219865 -0.00267649  0.0191648 -0.0252546 -0.00262117  0.0208049 -0.0287605 -0.00255442  0.0223673 -0.032494 -0.00247049  0.0238501 -0.0364447 -0.00238609  0.0252551 -0.0406073 -0.00229216  0.0265841 -0.0449703 -0.00220013  0.0278372 -0.0495253 -0.0021162  0.0290177 -0.0542633 -0.00202608  0.030126 -0.059176 -0.00193548  0.0311642 -0.0642544 -0.00184727  0.0321337 -0.0694944 -0.00176668  0.0330359 -0.0748808 -0.0016923  0.0338724 -0.080412 -0.00160646  0.0346466 -0.0860757 -0.00152683  0.03536 -0.0918685 -0.00145388  0.0360126 -0.0977821 -0.00137424  0.0366073 -0.103809 -0.00130606  0.0371455 -0.109941 -0.00123358  0.0376282 -0.116172 -0.0011673  0.0380582 -0.122498 -0.00110579  0.0384355 -0.12891 -0.00103807  0.0387621 -0.135403 -0.000979424  0.0390413 -0.141976 -0.000921726  0.0392745 -0.148613 -0.000858784  0.0394623 -0.155317 -0.000806332  0.0396078 -0.162082 -0.000747681  0.0397124 -0.168901 -0.000694752  0.0397792 -0.175769 -0.000637531  0.0398083 -0.182686 -0.000576019  0.0397992 -0.189641 -0.000526428  0.0397553 -0.196635 -0.000477314  0.0396793 -0.203659 -0.000429153  0.0395727 -0.210714 -0.000381947  0.0394373 -0.217791 -0.000350475  0.039274 -0.224895 -0.000306606  0.0390849 -0.232014 -0.000274181  0.0388718 -0.239149 -0.000246048  0.0386345 -0.246296 -0.000213623  0.0383754 -0.253454 -0.000180244  0.0380981 -0.260617 -0.000146389  0.0378034 -0.267785 -0.00011301  0.037492 -0.274951 -9.15527e-05  0.0371652 -0.282123 -7.43866e-05  0.0368235 -0.28929 -4.81606e-05  0.0364697 -0.296455 -3.09944e-05  0.0361075 -0.303617 -1.19209e-05  0.0357354 -0.310775 7.62939e-06  0.0353544 -0.317921 2.81334e-05  0.0349655 -0.325059 4.24385e-05  0.0345724 -0.33219 6.48499e-05  0.0341754 -0.339316 7.62939e-05  0.0337751 -0.346433 8.91685e-05  0.0333743 -0.353541 0.000101566  0.0329738 -0.360644 0.000112534  0 0 0  0.00108279 -0.00329715 -0.000892639  0.00297837 -0.00531435 -0.00159025  0.00510348 -0.00699258 -0.00213432  0.0073241 -0.00866282 -0.00253439  0.00957885 -0.0104702 -0.00281143  0.0118285 -0.0124787 -0.00298166  0.0140473 -0.0147263 -0.00307941  0.0162163 -0.017221 -0.00311136  0.0183195 -0.0199699 -0.00309849  0.0203499 -0.0229656 -0.00306034  0.0223013 -0.0262078 -0.00299883  0.0241699 -0.0296875 -0.00292444  0.0259538 -0.033399 -0.00283098  0.027652 -0.037331 -0.00273085  0.0292631 -0.0414751 -0.00262451  0.030789 -0.0458212 -0.00252581  0.032232 -0.0503591 -0.00242662  0.0335928 -0.0550821 -0.00232124  0.0348749 -0.0599792 -0.00222206  0.0360799 -0.0650414 -0.00212145  0.037207 -0.0702686 -0.00202656  0.0382614 -0.0756422 -0.00193739  0.0392433 -0.0811599 -0.00184822  0.0401534 -0.0868111 -0.00175571  0.0409954 -0.0925903 -0.00166702  0.0417706 -0.0984926 -0.00158072  0.0424806 -0.104507 -0.0014987  0.0431288 -0.110626 -0.00141764  0.043715 -0.116847 -0.00134182  0.0442404 -0.123161 -0.00126457  0.0447093 -0.129562 -0.00119162  0.0451245 -0.136043 -0.001122  0.0454848 -0.142604 -0.00105524  0.0457919 -0.149233 -0.000988007  0.0460491 -0.155926 -0.000922203  0.0462584 -0.162679 -0.000861645  0.046423 -0.169487 -0.000798702  0.0465438 -0.176346 -0.00072813  0.0466208 -0.183249 -0.000659943  0.0466585 -0.190197 -0.000601292  0.0466573 -0.197182 -0.000547409  0.0466185 -0.204196 -0.000501633  0.0465448 -0.211241 -0.000447273  0.0464377 -0.218309 -0.000398159  0.0462992 -0.225401 -0.000357151  0.046133 -0.232511 -0.000319958  0.0459387 -0.239638 -0.000287533  0.0457206 -0.246777 -0.000243187  0.0454783 -0.253928 -0.000211239  0.045212 -0.261083 -0.000173569  0.0449245 -0.268243 -0.000141144  0.0446193 -0.275402 -0.00011301  0.0442953 -0.282567 -8.86917e-05  0.0439579 -0.289727 -6.62804e-05  0.043606 -0.296887 -4.52995e-05  0.0432408 -0.304042 -1.71661e-05  0.042865 -0.311195 3.8147e-06  0.0424821 -0.318339 2.28882e-05  0.0420935 -0.325472 3.8147e-05  0.0416961 -0.3326 6.00815e-05  0.0412934 -0.339724 7.62939e-05  0.0408902 -0.346842 8.53539e-05  0.0404871 -0.353951 9.87053e-05  0.0400848 -0.361055 0.000107288  0 0 0  -0.00109288 -0.00297764 0.00129175  -0.00297195 -0.00476311 0.00227451  -0.00508964 -0.00625748 0.00303793  -0.00731477 -0.00777499 0.00358391  -0.00958204 -0.00944097 0.0039525  -0.0118509 -0.0113136 0.00417233  -0.0140972 -0.0134239 0.00428295  -0.016307 -0.0157766 0.0043149  -0.0184696 -0.0183804 0.00428724  -0.020579 -0.0212349 0.00421333  -0.0226299 -0.0243263 0.00411129  -0.0246221 -0.0276546 0.00397873  -0.0265561 -0.0312062 0.00383663  -0.0284306 -0.034976 0.00368881  -0.0302475 -0.0389555 0.00353575  -0.0320087 -0.0431333 0.00338221  -0.0337141 -0.0475027 0.00323009  -0.0353657 -0.052053 0.00308895  -0.0369667 -0.0567806 0.00295162  -0.0385166 -0.0616715 0.00281429  -0.0400175 -0.0667264 0.00268745  -0.0414697 -0.0719321 0.00256205  -0.0428754 -0.0772809 0.00244093  -0.0442367 -0.0827657 0.00232506  -0.0455552 -0.0883855 0.00221109  -0.0468314 -0.0941292 0.00209999  -0.0480651 -0.0999891 0.00199175  -0.0492579 -0.105966 0.0018878  -0.0504118 -0.112042 0.0017786  -0.051527 -0.118219 0.00167227  -0.0526049 -0.124492 0.00157928  -0.0536457 -0.130847 0.00148678  -0.054652 -0.137287 0.00139093  -0.0556216 -0.143802 0.00130987  -0.056556 -0.150387 0.00123072  -0.0574584 -0.157044 0.00115108  -0.0583293 -0.16376 0.00106955  -0.0591686 -0.170528 0.000992775  -0.0599794 -0.177357 0.00092411  -0.0607586 -0.184226 0.0008564  -0.0615084 -0.191138 0.000791073  -0.0622311 -0.198091 0.000727177  -0.062928 -0.20508 0.000665665  -0.063601 -0.212099 0.000603676  -0.0642481 -0.219147 0.000555515  -0.0648704 -0.226215 0.00050211  -0.0654707 -0.233303 0.000452995  -0.0660498 -0.240412 0.000408173  -0.066608 -0.247531 0.000369072  -0.0671473 -0.254663 0.000332832  -0.0676696 -0.261805 0.000299931  -0.068176 -0.26895 0.000273228  -0.0686653 -0.276103 0.000235081  -0.0691404 -0.283258 0.000206947  -0.0696013 -0.290412 0.00018692  -0.0700486 -0.297563 0.000172615  -0.0704856 -0.304713 0.000155926  -0.0709145 -0.311858 0.000145435  -0.0713351 -0.318997 0.000125885  -0.0717494 -0.326128 0.000112057  -0.0721591 -0.333251 0.000109673  -0.0725663 -0.340371 0.000100613  -0.0729713 -0.347481 0.000105858  -0.0733776 -0.354589 0.000100613  0 0 0  -0.000634879 -0.00194567 0.00100851  -0.00209159 -0.00355673 0.0019021  -0.00389314 -0.00505123 0.00259352  -0.00584003 -0.00661642 0.00308704  -0.00784039 -0.00833857 0.00342035  -0.00984812 -0.0102722 0.00361872  -0.0118358 -0.0124385 0.00371695  -0.0137878 -0.0148496 0.00374508  -0.0156966 -0.017507 0.00371647  -0.0175568 -0.0204136 0.00364828  -0.019367 -0.0235554 0.00356197  -0.0211261 -0.0269332 0.00345087  -0.0228333 -0.030532 0.00332737  -0.0244917 -0.0343472 0.0031929  -0.0261022 -0.0383719 0.00306082  -0.0276654 -0.0425947 0.0029335  -0.0291824 -0.0470054 0.00279522  -0.0306548 -0.0515984 0.00267601  -0.0320832 -0.0563662 0.00255299  -0.03347 -0.061298 0.00243616  -0.034817 -0.0663912 0.00232363  -0.0361229 -0.0716342 0.00221777  -0.0373894 -0.077021 0.00211573  -0.0386187 -0.0825435 0.00201273  -0.0398114 -0.0881977 0.00192022  -0.0409671 -0.0939754 0.00182104  -0.0420877 -0.0998694 0.00172901  -0.0431744 -0.105876 0.00163412  -0.0442276 -0.111985 0.00154448  -0.0452499 -0.118194 0.00145149  -0.0462413 -0.124494 0.00136757  -0.0472007 -0.130879 0.00128889  -0.0481296 -0.137344 0.00120497  -0.0490303 -0.143886 0.00113583  -0.0499022 -0.150498 0.00106573  -0.0507438 -0.157177 0.000999451  -0.0515575 -0.163915 0.000933647  -0.0523462 -0.170707 0.000867844  -0.0531089 -0.177552 0.000802517  -0.0538466 -0.184443 0.000743389  -0.054559 -0.191373 0.000689507  -0.0552485 -0.198344 0.000631332  -0.0559163 -0.205347 0.000580788  -0.0565622 -0.212384 0.000525951  -0.0571864 -0.219444 0.000480652  -0.0577893 -0.226526 0.000442028  -0.0583723 -0.233627 0.00040102  -0.0589373 -0.240748 0.000365257  -0.0594862 -0.247877 0.000334263  -0.0600183 -0.255018 0.000296593  -0.0605335 -0.262168 0.000273705  -0.0610325 -0.269323 0.000246048  -0.0615199 -0.276482 0.000218868  -0.0619934 -0.283644 0.00019598  -0.062454 -0.290803 0.000175953  -0.0629048 -0.29796 0.00015974  -0.0633459 -0.305114 0.000152588  -0.0637794 -0.312261 0.000134945  -0.0642047 -0.319401 0.00012064  -0.0646234 -0.326533 0.000112057  -0.065038 -0.333656 0.000103951  -0.0654485 -0.340774 0.000101089  -0.0658579 -0.347885 0.000101089  -0.066267 -0.354991 9.77516e-05  0 0 0  -0.000485051 -0.00128647 0.000854015  -0.0015747 -0.00260977 0.0015893  -0.00301804 -0.00403612 0.00217628  -0.00463924 -0.00560712 0.00260305  -0.00633821 -0.0073655 0.00289154  -0.00805709 -0.00934834 0.00306654  -0.00976506 -0.0115647 0.00315619  -0.0114475 -0.0140297 0.00317669  -0.0130935 -0.0167372 0.00315905  -0.0146992 -0.0196901 0.00309992  -0.0162635 -0.0228807 0.00302362  -0.0177863 -0.0263022 0.00293064  -0.0192673 -0.0299452 0.00282192  -0.0207074 -0.0338011 0.002707  -0.0221077 -0.0378668 0.00259829  -0.0234694 -0.0421284 0.00248718  -0.0247947 -0.0465791 0.00237799  -0.0260849 -0.0512089 0.00227451  -0.0273398 -0.0560134 0.00216436  -0.0285598 -0.0609822 0.00206423  -0.0297465 -0.0661099 0.00196743  -0.0309013 -0.0713876 0.00187778  -0.0320251 -0.0768085 0.00179052  -0.033118 -0.0823649 0.00171041  -0.0341817 -0.0880521 0.00163126  -0.0352169 -0.0938595 0.00154543  -0.0362236 -0.0997863 0.00146627  -0.0372007 -0.10582 0.0013876  -0.0381526 -0.111959 0.00130987  -0.0390787 -0.118195 0.00123644  -0.0399777 -0.124522 0.00116205  -0.0408516 -0.130933 0.00108957  -0.0417008 -0.137423 0.00102425  -0.0425253 -0.143989 0.000965118  -0.0433261 -0.150624 0.000910282  -0.044107 -0.157325 0.000855446  -0.0448647 -0.164083 0.000799179  -0.0455995 -0.170896 0.000744343  -0.046314 -0.177758 0.000686646  -0.0470071 -0.184667 0.000635147  -0.0476787 -0.191614 0.000589371  -0.0483329 -0.198602 0.000545025  -0.0489681 -0.205619 0.000495911  -0.0495846 -0.21267 0.000452995  -0.0501814 -0.219741 0.000415802  -0.0507612 -0.226838 0.000379086  -0.0513258 -0.233952 0.000345707  -0.0518742 -0.241082 0.00031662  -0.052407 -0.248221 0.000293255  -0.0529256 -0.255371 0.000264645  -0.0534315 -0.262529 0.000241756  -0.0539253 -0.269692 0.000217438  -0.0544059 -0.276858 0.000191689  -0.0548754 -0.284025 0.00017643  -0.0553343 -0.291188 0.000166893  -0.0557847 -0.298351 0.000148296  -0.0562282 -0.305508 0.000134945  -0.056664 -0.312658 0.000128269  -0.0570922 -0.319799 0.000118732  -0.057514 -0.326933 0.000107765  -0.057929 -0.334057 0.000103474  -0.0583408 -0.341174 0.000102997  -0.0587504 -0.348286 9.01222e-05  -0.0591593 -0.355388 9.10759e-05  0 0 0  -0.000361767 -0.000834137 0.000711918  -0.0011956 -0.00191845 0.00131464  -0.00232536 -0.00323582 0.00178719  -0.00362802 -0.00477989 0.00213909  -0.00501749 -0.00655158 0.00238371  -0.00643873 -0.00856465 0.00253153  -0.00786009 -0.0108238 0.0026083  -0.00926486 -0.0133311 0.00262499  -0.0106438 -0.0160846 0.00260115  -0.0119923 -0.0190774 0.00255537  -0.0133074 -0.0223111 0.00249338  -0.0145897 -0.0257721 0.00241137  -0.01584 -0.0294534 0.00232553  -0.0170584 -0.0333459 0.00223303  -0.0182462 -0.0374474 0.00214291  -0.0194049 -0.0417437 0.00205326  -0.0205349 -0.0462295 0.00196743  -0.0216371 -0.0508924 0.0018754  -0.0227147 -0.0557311 0.00178814  -0.023766 -0.0607316 0.00169706  -0.0247916 -0.0658908 0.00162268  -0.0257924 -0.0711993 0.00154638  -0.0267689 -0.0766507 0.00147438  -0.0277239 -0.0822377 0.00140858  -0.0286556 -0.087954 0.00134563  -0.029565 -0.0937895 0.00127649  -0.0304542 -0.099744 0.00121021  -0.0313222 -0.105803 0.00114107  -0.0321692 -0.111968 0.00108147  -0.0329952 -0.118229 0.00102329  -0.033801 -0.12458 0.000961304  -0.0345867 -0.131014 0.000897884  -0.0353539 -0.137528 0.000847816  -0.0361032 -0.144115 0.000794411  -0.036834 -0.150772 0.000752449  -0.0375466 -0.157491 0.000710487  -0.0382426 -0.164269 0.000660896  -0.0389228 -0.171099 0.000610352  -0.0395839 -0.177978 0.000574112  -0.0402291 -0.184903 0.000531197  -0.0408592 -0.191866 0.00049448  -0.0414729 -0.198869 0.000453472  -0.0420706 -0.205901 0.00042057  -0.0426519 -0.212961 0.00038147  -0.0432217 -0.220045 0.000354767  -0.0437791 -0.227154 0.000326157  -0.0443223 -0.234279 0.000300407  -0.0448513 -0.241416 0.00026989  -0.0453665 -0.248566 0.000243664  -0.0458691 -0.255725 0.000226498  -0.0463622 -0.262891 0.000202656  -0.046844 -0.27006 0.000195503  -0.0473168 -0.277232 0.000177383  -0.0477815 -0.284404 0.000162601  -0.048238 -0.291571 0.00014925  -0.0486872 -0.298739 0.000139713  -0.0491273 -0.305899 0.000129223  -0.0495596 -0.313051 0.000122547  -0.0499864 -0.320195 0.000113487  -0.0504081 -0.32733 0.000108242  -0.0508249 -0.334457 0.000104427  -0.0512388 -0.341573 9.53674e-05  -0.0516493 -0.348684 9.25064e-05  -0.0520585 -0.355782 8.58307e-05  0 0 0  -0.000268556 -0.000524193 0.000571728  -0.000887737 -0.00141896 0.00104475  -0.00174488 -0.00263457 0.00142193  -0.00275077 -0.00413547 0.00169659  -0.00383824 -0.00590496 0.00188684  -0.00496233 -0.00793521 0.00200748  -0.00609463 -0.0102247 0.00206709  -0.00721925 -0.0127655 0.00208569  -0.00832683 -0.0155564 0.0020628  -0.00941259 -0.0185844 0.00202036  -0.0104761 -0.0218533 0.00197172  -0.0115151 -0.0253482 0.00191164  -0.0125302 -0.0290619 0.0018363  -0.0135245 -0.0329883 0.00176668  -0.0144982 -0.0371192 0.00169373  -0.0154514 -0.0414468 0.00162506  -0.0163844 -0.0459618 0.00155687  -0.0172986 -0.0506557 0.00148535  -0.0181952 -0.0555227 0.0014143  -0.0190749 -0.060553 0.00134563  -0.0199376 -0.0657385 0.00128031  -0.0207829 -0.0710755 0.00122118  -0.0216119 -0.076553 0.00116158  -0.0224247 -0.0821671 0.00111246  -0.0232217 -0.0879077 0.00106049  -0.0240039 -0.093769 0.00101137  -0.0247726 -0.0997475 0.000957966  -0.0255247 -0.105831 0.000905514  -0.0262641 -0.112018 0.000856876  -0.0269895 -0.118301 0.000802994  -0.027699 -0.124673 0.000754833  -0.0283948 -0.131129 0.000709534  -0.0290782 -0.137663 0.000669003  -0.0297484 -0.144269 0.000629902  -0.0304062 -0.150945 0.00059557  -0.0310519 -0.157681 0.00056076  -0.0316837 -0.164475 0.000520706  -0.0323021 -0.171322 0.000487804  -0.0329096 -0.178216 0.000457287  -0.0335045 -0.185156 0.000425816  -0.0340867 -0.192133 0.000394344  -0.0346591 -0.199147 0.000365257  -0.0352204 -0.206192 0.000337124  -0.0357702 -0.213262 0.000309944  -0.0363081 -0.220358 0.000286102  -0.0368352 -0.227476 0.000272274  -0.0373523 -0.234611 0.000249386  -0.0378575 -0.241755 0.000223637  -0.0383549 -0.248916 0.000206947  -0.0388432 -0.256082 0.000188828  -0.0393209 -0.263254 0.00017786  -0.0397916 -0.270429 0.000158787  -0.0402555 -0.277605 0.000153542  -0.0407128 -0.284782 0.000137329  -0.0411618 -0.291954 0.000131607  -0.0416045 -0.299125 0.00013113  -0.0420406 -0.306288 0.000120163  -0.0424719 -0.313441 0.000111103  -0.0428975 -0.32059 0.000109673  -0.0433166 -0.327727 9.9659e-05  -0.0437324 -0.334855 9.20296e-05  -0.0441461 -0.341971 9.20296e-05  -0.0445566 -0.349078 9.05991e-05  -0.0449648 -0.356175 8.39233e-05  0 0 0  -0.00018879 -0.000317007 0.000432968  -0.000627458 -0.00107247 0.000782967  -0.00124051 -0.00220549 0.00106621  -0.00196779 -0.00366399 0.00126743  -0.00276402 -0.00542486 0.00140333  -0.00359586 -0.00746441 0.00149202  -0.00443986 -0.00977337 0.00153494  -0.00528172 -0.0123397 0.00154829  -0.00611478 -0.0151581 0.00153446  -0.00693625 -0.0182165 0.0015049  -0.00774455 -0.0215135 0.00146055  -0.00853854 -0.0250352 0.00141525  -0.00932014 -0.028777 0.00136518  -0.0100896 -0.0327317 0.0013113  -0.0108463 -0.0368885 0.0012598  -0.011591 -0.0412415 0.00120974  -0.0123245 -0.0457819 0.00115538  -0.0130485 -0.050503 0.0010972  -0.0137639 -0.0553935 0.0010438  -0.0144687 -0.0604496 0.000997543  -0.0151634 -0.0656582 0.000946045  -0.0158507 -0.0710198 0.000902653  -0.0165282 -0.07652 0.000865459  -0.0171978 -0.0821569 0.000822067  -0.0178596 -0.0879205 0.000784397  -0.0185137 -0.093804 0.000744343  -0.0191594 -0.099802 0.000706673  -0.0197974 -0.105907 0.000670433  -0.0204275 -0.112113 0.000631332  -0.0210483 -0.118415 0.000591278  -0.0216616 -0.124806 0.000556469  -0.0222669 -0.13128 0.000524044  -0.0228639 -0.137831 0.000496387  -0.023453 -0.144454 0.000469685  -0.0240343 -0.151146 0.000441074  -0.0246084 -0.157899 0.00041008  -0.0251744 -0.164706 0.000387192  -0.025733 -0.171568 0.000366688  -0.0262833 -0.178475 0.00034523  -0.0268266 -0.185426 0.000319958  -0.0273621 -0.192415 0.000298023  -0.02789 -0.19944 0.000274658  -0.0284107 -0.206496 0.000253201  -0.0289228 -0.213577 0.000240326  -0.0294271 -0.220683 0.000226974  -0.0299239 -0.22781 0.000214577  -0.0304132 -0.234951 0.000189781  -0.0308971 -0.242104 0.000174999  -0.0313735 -0.24927 0.000161648  -0.0318427 -0.256442 0.000153542  -0.032306 -0.263621 0.000143528  -0.0327623 -0.270801 0.000134468  -0.0332136 -0.277982 0.000123978  -0.0336599 -0.285161 0.000121593  -0.0341022 -0.292339 0.000116825  -0.0345378 -0.299511 0.000115395  -0.0349684 -0.306677 0.000106335  -0.0353947 -0.313833 0.000108242  -0.0358164 -0.320984 0.000106812  -0.0362341 -0.328124 9.67979e-05  -0.0366471 -0.335252 9.53674e-05  -0.0370591 -0.342369 9.39369e-05  -0.0374691 -0.349473 9.15527e-05  -0.0378788 -0.356567 8.91685e-05  0 0 0  -0.000117864 -0.000186741 0.000285149  -0.000391819 -0.000851214 0.000518322  -0.000780374 -0.0019252 0.000709534  -0.00124709 -0.00335267 0.000840664  -0.0017626 -0.0051043 0.000927448  -0.00230557 -0.00714898 0.000986576  -0.00286222 -0.0094724 0.00102234  -0.00342354 -0.0120562 0.00102472  -0.00398391 -0.0148951 0.001019  -0.00453955 -0.0179763 0.000990868  -0.00509143 -0.0212962 0.000963688  -0.0056408 -0.0248398 0.000933647  -0.00618583 -0.0286034 0.000896931  -0.00672668 -0.0325804 0.000863075  -0.00726432 -0.0367588 0.000830173  -0.00779986 -0.0411328 0.000790119  -0.00833392 -0.0456941 0.000756264  -0.00886703 -0.0504368 0.000716209  -0.00939739 -0.0553478 0.00068903  -0.0099268 -0.0604242 0.000654221  -0.0104558 -0.0656539 0.000617027  -0.0109832 -0.071035 0.000587463  -0.0115091 -0.0765551 0.00056076  -0.0120345 -0.0822109 0.000535011  -0.0125588 -0.087995 0.000511169  -0.0130813 -0.0938963 0.000486851  -0.0136032 -0.0999114 0.000459194  -0.014122 -0.106034 0.000439167  -0.0146395 -0.112257 0.000412941  -0.0151571 -0.118576 0.000388622  -0.0156715 -0.124982 0.000370026  -0.0161824 -0.131471 0.000344753  -0.0166914 -0.138036 0.000324249  -0.0171995 -0.144673 0.000311375  -0.017704 -0.151379 0.000288963  -0.0182056 -0.158145 0.000273705  -0.0187039 -0.164965 0.000257492  -0.0192003 -0.171839 0.000244617  -0.0196929 -0.178758 0.000227451  -0.0201807 -0.185719 0.000213623  -0.0206649 -0.192719 0.000202656  -0.0211468 -0.199753 0.000187397  -0.0216246 -0.206817 0.000174046  -0.0220993 -0.213909 0.000165462  -0.0225704 -0.221021 0.00015974  -0.0230379 -0.228154 0.000151157  -0.0235009 -0.2353 0.000144958  -0.0239577 -0.242462 0.000124454  -0.0244098 -0.249631 0.000121117  -0.0248594 -0.256809 0.000113487  -0.0253069 -0.263993 0.000109673  -0.0257499 -0.271177 9.87053e-05  -0.0261891 -0.278363 0.000104904  -0.026624 -0.285543 9.63211e-05  -0.027055 -0.292727 9.82285e-05  -0.0274825 -0.299899 9.72748e-05  -0.0279069 -0.307068 9.67979e-05  -0.0283263 -0.314227 9.58443e-05  -0.0287418 -0.321379 9.77516e-05  -0.0291564 -0.328522 9.48906e-05  -0.0295691 -0.335651 8.86917e-05  -0.029978 -0.342767 9.29832e-05  -0.0303857 -0.34987 9.15527e-05  -0.0307934 -0.356959 8.91685e-05  0 0 0  -5.27799e-05 -0.000120074 0.000142097  -0.000176258 -0.000736296 0.000259876  -0.000352502 -0.00177816 0.000348091  -0.000567377 -0.00319019 0.000417233  -0.000809103 -0.00493607 0.000460625  -0.0010685 -0.0069862 0.000490665  -0.00133958 -0.00931931 0.000502586  -0.00161952 -0.0119176 0.000505924  -0.00190449 -0.0147696 0.000500679  -0.002195 -0.0178676 0.000486374  -0.00249195 -0.021204 0.000474453  -0.00279385 -0.0247649 0.000455379  -0.00310165 -0.0285434 0.000440121  -0.00341558 -0.0325376 0.000416756  -0.00373507 -0.0367325 0.000392437  -0.00406075 -0.0411228 0.000380039  -0.00439286 -0.0457009 0.000357151  -0.00473213 -0.0504602 0.000348091  -0.00507927 -0.0553879 0.00032711  -0.00543272 -0.0604805 0.000311375  -0.00579214 -0.065728 0.000291824  -0.00615871 -0.0711251 0.000278473  -0.00653231 -0.076661 0.000262737  -0.00691307 -0.0823328 0.000255108  -0.00729918 -0.0881312 0.000249863  -0.00769031 -0.0940483 0.00023222  -0.00808573 -0.100078 0.000218868  -0.00848603 -0.106215 0.000208378  -0.00889146 -0.112453 0.000195026  -0.00930142 -0.118784 0.000187397  -0.0097158 -0.125203 0.000171185  -0.0101335 -0.131704 0.000167847  -0.0105536 -0.138281 0.00015831  -0.0109773 -0.144931 0.000148296  -0.0114043 -0.151647 0.000139236  -0.0118327 -0.158422 0.000133991  -0.0122616 -0.165254 0.000128269  -0.0126925 -0.172138 0.000119686  -0.0131247 -0.179066 0.000115395  -0.0135586 -0.186037 0.000109196  -0.013994 -0.193045 0.00010252  -0.0144291 -0.200085 9.91821e-05  -0.0148647 -0.207157 9.53674e-05  -0.0153 -0.214254 9.29832e-05  -0.0157356 -0.221375 9.48906e-05  -0.01617 -0.22851 8.82149e-05  -0.0166023 -0.235664 8.24928e-05  -0.0170331 -0.24283 8.15392e-05  -0.0174625 -0.250003 7.86781e-05  -0.0178914 -0.257186 7.34329e-05  -0.0183184 -0.264372 7.48634e-05  -0.0187445 -0.27156 7.00951e-05  -0.0191696 -0.278749 7.34329e-05  -0.0195923 -0.285931 7.86781e-05  -0.0200143 -0.293117 7.48634e-05  -0.0204325 -0.300293 8.01086e-05  -0.0208495 -0.307462 8.24928e-05  -0.0212655 -0.314623 8.34465e-05  -0.0216794 -0.321776 8.72612e-05  -0.0220904 -0.328919 9.01222e-05  -0.0224984 -0.33605 8.91685e-05  -0.0229063 -0.343167 8.96454e-05  -0.0233128 -0.350268 9.15527e-05  -0.0237157 -0.357355 9.44138e-05  0 0 0  9.84967e-06 -0.000109732 -2.38419e-06  3.32147e-05 -0.00071767 -8.10623e-06  6.31064e-05 -0.00175527 -7.15256e-06  9.42349e-05 -0.00316915 -9.53674e-06  0.000121653 -0.00491619 -4.29153e-06  0.000142217 -0.00697306 -1.28746e-05  0.000153452 -0.00931257 -1.04904e-05  0.000154495 -0.0119206 -1.14441e-05  0.000142634 -0.0147825 -1.57356e-05  0.000116765 -0.0178908 -1.57356e-05  7.76649e-05 -0.0212378 -1.14441e-05  2.46763e-05 -0.0248086 -1.43051e-05  -4.3869e-05 -0.0285993 -1.71661e-05  -0.000129759 -0.0326046 -2.67029e-05  -0.000231087 -0.0368114 -3.09944e-05  -0.000347018 -0.041214 -3.67165e-05  -0.000478268 -0.0458038 -3.24249e-05  -0.000625372 -0.0505755 -3.57628e-05  -0.000787139 -0.0555159 -2.71797e-05  -0.000963807 -0.0606202 -2.57492e-05  -0.00115645 -0.0658815 -2.90871e-05  -0.00136244 -0.0712912 -3.29018e-05  -0.00158167 -0.0768398 -3.09944e-05  -0.00181472 -0.0825227 -2.19345e-05  -0.00206065 -0.0883335 -2.19345e-05  -0.0023191 -0.0942636 -1.43051e-05  -0.00258982 -0.100304 -1.71661e-05  -0.00287127 -0.106452 -2.09808e-05  -0.00316441 -0.112701 -2.38419e-05  -0.00346851 -0.119042 -1.95503e-05  -0.00378156 -0.125471 -1.23978e-05  -0.0041033 -0.131983 -1.43051e-05  -0.00443459 -0.138569 -9.05991e-06  -0.00477409 -0.14523 -8.58307e-06  -0.00511956 -0.151952 -9.05991e-06  -0.00547171 -0.158735 -5.24521e-06  -0.00583172 -0.165575 -4.29153e-06  -0.00619864 -0.172465 -4.76837e-07  -0.00657201 -0.1794 4.76837e-07  -0.00695157 -0.186379 9.05991e-06  -0.00733566 -0.193393 8.58307e-06  -0.00772429 -0.200438 1.43051e-05  -0.00811625 -0.207516 1.52588e-05  -0.0085113 -0.214618 1.95503e-05  -0.00890827 -0.221744 2.52724e-05  -0.00930786 -0.228883 2.81334e-05  -0.00971127 -0.23604 3.57628e-05  -0.0101161 -0.243209 3.8147e-05  -0.0105224 -0.250387 3.09944e-05  -0.0109301 -0.257572 3.14713e-05  -0.0113394 -0.264759 3.52859e-05  -0.0117495 -0.27195 4.62532e-05  -0.0121601 -0.27914 5.14984e-05  -0.0125706 -0.286326 6.00815e-05  -0.0129821 -0.293511 5.81741e-05  -0.013392 -0.300689 6.67572e-05  -0.0137997 -0.307858 6.91414e-05  -0.0142074 -0.315023 7.86781e-05  -0.0146143 -0.322176 7.67708e-05  -0.0150213 -0.32932 8.29697e-05  -0.0154285 -0.336451 8.91685e-05  -0.0158348 -0.343568 9.44138e-05  -0.0162375 -0.350669 9.58443e-05  -0.0166404 -0.357756 9.9659e-05  0 0 0  7.29933e-05 -0.000151455 -0.000150681  0.000242844 -0.000791371 -0.00026989  0.000478476 -0.00185364 -0.000363827  0.000754952 -0.00328416 -0.000425339  0.00105163 -0.00504255 -0.000476837  0.00135252 -0.00710618 -0.000508308  0.0016458 -0.00945264 -0.000520706  0.00192446 -0.0120645 -0.000527382  0.00218582 -0.014932 -0.000522614  0.00242597 -0.0180449 -0.000519276  0.00264347 -0.0213953 -0.000504971  0.00283664 -0.0249717 -0.000486851  0.00300455 -0.0287699 -0.000478745  0.00314754 -0.0327811 -0.000464439  0.00326532 -0.0369956 -0.000448227  0.0033592 -0.0414059 -0.000439167  0.00342882 -0.0460029 -0.000422955  0.0034734 -0.0507829 -0.00040102  0.00349522 -0.0557316 -0.000384808  0.00349391 -0.0608454 -0.000368595  0.00347185 -0.0661145 -0.000349998  0.00342894 -0.0715342 -0.000337124  0.00336385 -0.0770925 -0.000322819  0.00327778 -0.0827825 -0.000301838  0.00317097 -0.0886035 -0.000285625  0.00304592 -0.0945414 -0.000277042  0.00290132 -0.100592 -0.00026083  0.002738 -0.106746 -0.000255108  0.00255764 -0.113004 -0.000231266  0.00236213 -0.119353 -0.000217438  0.00215125 -0.125789 -0.00020647  0.00192523 -0.132307 -0.000191689  0.00168371 -0.138902 -0.000180244  0.0014286 -0.145567 -0.000168324  0.00116134 -0.152296 -0.000157356  0.000880957 -0.159084 -0.000144958  0.000590324 -0.165929 -0.000135422  0.000287533 -0.172823 -0.000119686  -2.64645e-05 -0.179764 -0.000112534  -0.000349283 -0.186746 -9.58443e-05  -0.0006814 -0.193765 -8.39233e-05  -0.00102258 -0.200815 -7.48634e-05  -0.00137234 -0.207897 -6.24657e-05  -0.00172734 -0.215001 -5.10216e-05  -0.00208855 -0.222129 -4.19617e-05  -0.00245452 -0.229272 -2.28882e-05  -0.00282598 -0.236431 -1.57356e-05  -0.00320339 -0.2436 -1.38283e-05  -0.00358558 -0.250782 -1.09673e-05  -0.00397158 -0.257967 -9.05991e-06  -0.00436115 -0.265156 9.53674e-06  -0.00475454 -0.272349 1.23978e-05  -0.00515056 -0.279538 2.76566e-05  -0.00554872 -0.286728 3.86238e-05  -0.00594831 -0.293913 4.86374e-05  -0.00634861 -0.30109 5.24521e-05  -0.00674868 -0.30826 5.62668e-05  -0.0071516 -0.315426 6.19888e-05  -0.00755477 -0.322579 7.20024e-05  -0.00795794 -0.329723 7.96318e-05  -0.00835991 -0.336853 8.67844e-05  -0.00876093 -0.34397 9.44138e-05  -0.00916386 -0.351074 9.91821e-05  -0.0095644 -0.358161 0.000102043  0 0 0  0.000137694 -0.000247121 -0.000297546  0.000458539 -0.000960588 -0.000532627  0.000905633 -0.00207347 -0.000718117  0.00143194 -0.00353622 -0.000849724  0.00200018 -0.00531399 -0.00094223  0.00258216 -0.00738651 -0.000993252  0.00315875 -0.00973576 -0.00102568  0.0037176 -0.0123498 -0.00103998  0.00425148 -0.0152152 -0.00103712  0.0047555 -0.0183293 -0.00101757  0.00522733 -0.0216765 -0.000993729  0.0056662 -0.0252546 -0.000972748  0.00607067 -0.0290546 -0.000941277  0.00644034 -0.0330667 -0.000905514  0.0067758 -0.0372845 -0.000874043  0.00707865 -0.0416983 -0.000836849  0.00734854 -0.0462987 -0.000810146  0.00758588 -0.0510834 -0.000775337  0.00779212 -0.0560368 -0.000743389  0.007967 -0.0611563 -0.000708103  0.00811207 -0.0664294 -0.00067234  0.00822818 -0.0718546 -0.000648975  0.00831699 -0.0774183 -0.000613689  0.00837767 -0.0831153 -0.000586033  0.00841105 -0.0889397 -0.000552654  0.00841856 -0.094884 -0.000524998  0.00839972 -0.100939 -0.000505447  0.00835657 -0.107101 -0.000483036  0.00829005 -0.113362 -0.000454903  0.00820124 -0.119715 -0.000423908  0.00809145 -0.126156 -0.000397682  0.00796175 -0.132679 -0.000370026  0.00781083 -0.139278 -0.000350952  0.00764036 -0.145946 -0.000332832  0.00745201 -0.152679 -0.000305653  0.0072453 -0.159472 -0.000282288  0.00702095 -0.166317 -0.000264168  0.00678325 -0.173215 -0.00024128  0.00653052 -0.180158 -0.000221729  0.00626111 -0.187142 -0.000199795  0.00598025 -0.194163 -0.000179291  0.00568819 -0.201216 -0.000162601  0.00538373 -0.208298 -0.000139713  0.00506783 -0.215404 -0.0001297  0.00474215 -0.222533 -0.000107765  0.00440693 -0.229678 -8.82149e-05  0.00406408 -0.236837 -7.05719e-05  0.00371385 -0.244008 -6.1512e-05  0.0033555 -0.251189 -5.57899e-05  0.00299168 -0.258376 -3.8147e-05  0.00262165 -0.265564 -2.28882e-05  0.00224638 -0.272757 -7.62939e-06  0.00186586 -0.279946 5.24521e-06  0.00147986 -0.287136 1.85966e-05  0.00109076 -0.294321 3.09944e-05  0.00069952 -0.301498 3.67165e-05  0.000305414 -0.308666 4.81606e-05  -9.27448e-05 -0.315833 5.72205e-05  -0.000491381 -0.322987 6.34193e-05  -0.000888824 -0.330129 7.05719e-05  -0.00128722 -0.337258 7.9155e-05  -0.0016892 -0.344376 8.96454e-05  -0.00208855 -0.351481 0.000101089  -0.00248647 -0.358571 0.000107765  0 0 0  0.000206463 -0.000406504 -0.000439644  0.00068824 -0.00123358 -0.000788689  0.0013584 -0.00242329 -0.00106764  0.00214538 -0.00393093 -0.00126362  0.0029932 -0.00573313 -0.00140333  0.00386027 -0.00781447 -0.00149012  0.00471991 -0.0101626 -0.0015378  0.0055573 -0.0127714 -0.00155354  0.00636172 -0.0156328 -0.00154781  0.0071277 -0.0187396 -0.00152493  0.00785267 -0.0220812 -0.00148773  0.00853395 -0.025654 -0.00144434  0.00917298 -0.029452 -0.00140476  0.0097689 -0.0334608 -0.00135231  0.0103221 -0.0376775 -0.0012989  0.010833 -0.0420903 -0.00124693  0.0113018 -0.046692 -0.00119686  0.0117298 -0.051476 -0.00114727  0.0121195 -0.056431 -0.00109768  0.0124706 -0.061551 -0.00104952  0.0127836 -0.0668272 -0.0010066  0.0130603 -0.0722529 -0.000957489  0.0133017 -0.0778193 -0.000911713  0.0135072 -0.0835197 -0.000865459  0.0136784 -0.0893445 -0.000825882  0.0138171 -0.0952913 -0.000781536  0.0139241 -0.101348 -0.000742435  0.0140002 -0.107514 -0.000706673  0.0140476 -0.113776 -0.00067091  0.0140666 -0.12013 -0.000633717  0.014056 -0.126573 -0.000594616  0.0140185 -0.133099 -0.000556946  0.0139561 -0.139699 -0.000524998  0.013869 -0.146368 -0.000489235  0.0137579 -0.153101 -0.000458717  0.0136254 -0.159895 -0.000427723  0.0134726 -0.166742 -0.000393867  0.0132971 -0.17364 -0.000362396  0.0131035 -0.180582 -0.000332832  0.0128925 -0.187568 -0.000299931  0.0126619 -0.194589 -0.000277042  0.0124154 -0.201641 -0.000248432  0.0121536 -0.208722 -0.000220776  0.0118775 -0.215829 -0.00019598  0.0115879 -0.222956 -0.000171661  0.0112863 -0.230101 -0.000150204  0.0109708 -0.23726 -0.000124931  0.0106435 -0.24443 -0.000109673  0.0103076 -0.251609 -9.53674e-05  0.00996327 -0.258796 -7.43866e-05  0.00961208 -0.265984 -5.8651e-05  0.00925279 -0.273176 -3.76701e-05  0.00888705 -0.280363 -2.00272e-05  0.00851512 -0.287551 -9.53674e-07  0.00813723 -0.294734 7.62939e-06  0.0077529 -0.30191 2.43187e-05  0.00736475 -0.309079 3.48091e-05  0.00697374 -0.316243 4.19617e-05  0.00657892 -0.323397 5.57899e-05  0.00618148 -0.330536 6.77109e-05  0.0057838 -0.337666 7.9155e-05  0.00538707 -0.344784 8.96454e-05  0.00498915 -0.35189 0.000100136  0.00459194 -0.358983 0.000106335  0 0 0  0.000285089 -0.000642598 -0.000576973  0.000947729 -0.00162834 -0.00104094  0.00185879 -0.00291663 -0.00140715  0.00291806 -0.00447839 -0.00168514  0.00405115 -0.00630528 -0.00186968  0.00520647 -0.00838989 -0.0019908  0.00635183 -0.010732 -0.0020504  0.00746685 -0.0133285 -0.00206947  0.00854015 -0.0161809 -0.00205946  0.00956541 -0.0192741 -0.00202894  0.0105402 -0.0226046 -0.00198412  0.0114644 -0.0261686 -0.00192881  0.0123373 -0.0299584 -0.00186396  0.013157 -0.0339618 -0.00179768  0.0139239 -0.0381722 -0.00172806  0.0146409 -0.0425807 -0.00165939  0.0153083 -0.0471804 -0.00159121  0.0159267 -0.0519595 -0.00151777  0.0164976 -0.0569127 -0.00146055  0.0170221 -0.0620303 -0.00139427  0.0175016 -0.0673055 -0.00132751  0.017938 -0.0727282 -0.00127363  0.0183311 -0.0782948 -0.0012145  0.0186808 -0.083994 -0.00115538  0.0189899 -0.0898183 -0.00109148  0.0192603 -0.0957623 -0.0010376  0.019492 -0.10182 -0.000983715  0.0196862 -0.107985 -0.000937462  0.0198437 -0.114246 -0.000890255  0.019966 -0.120599 -0.000841141  0.0200547 -0.127041 -0.000789642  0.0201118 -0.133566 -0.000743866  0.0201378 -0.140164 -0.000693798  0.0201321 -0.146832 -0.000648975  0.0200984 -0.153563 -0.000609875  0.0200384 -0.160355 -0.000565529  0.0199525 -0.167202 -0.000524044  0.0198414 -0.174099 -0.000484943  0.0197074 -0.181039 -0.000437737  0.0195503 -0.188022 -0.00039959  0.019371 -0.195041 -0.000362396  0.0191693 -0.202091 -0.00032711  0.0189471 -0.20917 -0.000296116  0.0187063 -0.216274 -0.000265121  0.0184507 -0.223398 -0.000237942  0.0181789 -0.23054 -0.000201225  0.0178926 -0.237699 -0.00017786  0.0175931 -0.244866 -0.000150204  0.0172799 -0.252044 -0.000133038  0.0169549 -0.259228 -0.000111103  0.0166204 -0.266413 -8.7738e-05  0.0162752 -0.273603 -6.7234e-05  0.0159214 -0.280788 -4.72069e-05  0.0155597 -0.287975 -2.43187e-05  0.0151904 -0.295154 -9.05991e-06  0.0148156 -0.302328 8.58307e-06  0.0144336 -0.309496 1.90735e-05  0.014046 -0.316656 3.86238e-05  0.0136569 -0.323807 5.10216e-05  0.0132656 -0.330947 6.34193e-05  0.0128703 -0.338077 7.39098e-05  0.0124722 -0.345194 8.91685e-05  0.0120745 -0.3523 9.72748e-05  0.0116792 -0.359397 0.00011301  0 0 0  0.000374168 -0.000978649 -0.000702381  0.00124601 -0.00216925 -0.00129843  0.00242609 -0.00357276 -0.00176096  0.00377834 -0.00519019 -0.00211239  0.00520736 -0.00703394 -0.00234652  0.00665435 -0.00911301 -0.00249195  0.00808254 -0.0114409 -0.00256538  0.00947028 -0.0140195 -0.00258684  0.0108083 -0.0168536 -0.00257587  0.0120916 -0.0199294 -0.00253868  0.013316 -0.0232438 -0.00247526  0.0144793 -0.0267947 -0.00240755  0.0155811 -0.0305721 -0.00233078  0.0166216 -0.0345657 -0.00225306  0.017602 -0.0387664 -0.00216293  0.0185233 -0.043168 -0.00207472  0.0193864 -0.0477604 -0.00198936  0.0201937 -0.0525321 -0.00190306  0.0209457 -0.0574804 -0.0018239  0.0216434 -0.0625926 -0.00174284  0.0222887 -0.0678629 -0.00167036  0.022882 -0.0732807 -0.0015893  0.0234244 -0.0788426 -0.00151825  0.023918 -0.0845375 -0.00144339  0.0243642 -0.0903583 -0.00136995  0.0247635 -0.0962984 -0.001297  0.0251166 -0.102353 -0.00123405  0.0254271 -0.108512 -0.00116825  0.0256952 -0.114771 -0.00110435  0.0259218 -0.12112 -0.00104189  0.0261079 -0.127558 -0.000984192  0.0262563 -0.134079 -0.000929356  0.0263696 -0.140674 -0.00086832  0.0264485 -0.147339 -0.000816822  0.0264928 -0.154066 -0.000765324  0.0265024 -0.160852 -0.000708103  0.02648 -0.167696 -0.000655174  0.0264297 -0.174589 -0.00060463  0.0263517 -0.181527 -0.000549316  0.0262454 -0.188504 -0.000506401  0.0261121 -0.195518 -0.000452995  0.025955 -0.202564 -0.000409126  0.0257735 -0.209639 -0.000369549  0.0255713 -0.216738 -0.000338078  0.0253484 -0.22386 -0.00029707  0.0251062 -0.230998 -0.000263691  0.0248451 -0.238152 -0.000226021  0.0245683 -0.245317 -0.000197411  0.0242763 -0.25249 -0.000171661  0.0239692 -0.25967 -0.000141144  0.0236487 -0.266853 -0.000122547  0.0233169 -0.274036 -9.25064e-05  0.0229738 -0.281219 -6.4373e-05  0.0226216 -0.288402 -4.57764e-05  0.0222607 -0.295578 -2.81334e-05  0.0218906 -0.30275 -1.00136e-05  0.0215147 -0.309916 1.19209e-05  0.0211322 -0.317073 2.86102e-05  0.0207448 -0.324219 4.43459e-05  0.0203516 -0.331358 5.96046e-05  0.0199554 -0.338487 7.05719e-05  0.019558 -0.345603 8.86917e-05  0.0191586 -0.352712 9.87053e-05  0.0187602 -0.35981 0.00011158  0 0 0  0.000492513 -0.00145018 -0.00083971  0.00161456 -0.0028922 -0.00155687  0.00310187 -0.00441617 -0.00213242  0.00476438 -0.00607371 -0.00254822  0.00649393 -0.00791717 -0.00283241  0.00822905 -0.00997913 -0.00300121  0.00993571 -0.0122823 -0.00308323  0.0115954 -0.0148368 -0.00311375  0.0131966 -0.0176448 -0.00309753  0.0147322 -0.020699 -0.00304699  0.016198 -0.023994 -0.00297737  0.0175952 -0.0275269 -0.00289536  0.0189243 -0.0312892 -0.00280952  0.0201849 -0.0352681 -0.00270796  0.0213759 -0.0394576 -0.00260401  0.0224997 -0.0438477 -0.0024991  0.023558 -0.0484288 -0.00239611  0.0245509 -0.0531919 -0.00229883  0.025481 -0.0581309 -0.00219822  0.0263495 -0.0632349 -0.00209618  0.0271571 -0.0684966 -0.00200796  0.0279061 -0.0739068 -0.0019145  0.0285971 -0.0794611 -0.00182295  0.029231 -0.0851495 -0.00174093  0.0298108 -0.0909618 -0.00165081  0.030338 -0.0968972 -0.00156689  0.0308132 -0.102944 -0.00148582  0.0312377 -0.109097 -0.0014081  0.0316147 -0.115349 -0.00132751  0.0319449 -0.121693 -0.00125933  0.0322289 -0.128124 -0.00118828  0.0324683 -0.134639 -0.00111771  0.032665 -0.141227 -0.00104618  0.03282 -0.147885 -0.000978947  0.0329368 -0.154607 -0.000915527  0.0330172 -0.161387 -0.000852108  0.0330606 -0.168224 -0.000786304  0.0330684 -0.17511 -0.000727177  0.0330424 -0.182043 -0.000667095  0.0329852 -0.189012 -0.00060606  0.0328982 -0.196022 -0.000546455  0.0327833 -0.20306 -0.000494957  0.0326419 -0.21013 -0.000445366  0.032475 -0.217222 -0.000402927  0.0322828 -0.224339 -0.000361443  0.0320678 -0.231472 -0.000320435  0.0318313 -0.238618 -0.000279903  0.0315754 -0.245778 -0.000246048  0.0313008 -0.252947 -0.000210285  0.0310094 -0.260122 -0.000179291  0.0307028 -0.267299 -0.000144482  0.0303822 -0.274476 -0.000114918  0.0300484 -0.281656 -9.01222e-05  0.0297027 -0.288834 -6.67572e-05  0.0293479 -0.296006 -4.29153e-05  0.0289836 -0.303176 -2.14577e-05  0.0286095 -0.31034 3.8147e-06  0.0282285 -0.317491 2.47955e-05  0.027843 -0.324633 4.1008e-05  0.0274515 -0.33177 5.8651e-05  0.027055 -0.338898 6.86646e-05  0.0266562 -0.346014 8.58307e-05  0.0262558 -0.353124 0.000102997  0.025857 -0.360224 0.00011158  0 0 0  0.000628129 -0.0021162 -0.000983715  0.00210778 -0.00385463 -0.00185347  0.0039455 -0.0054608 -0.00252771  0.00592542 -0.00712448 -0.00300694  0.00794849 -0.00894451 -0.00332451  0.00996333 -0.0109745 -0.00351667  0.0119393 -0.0132446 -0.00361013  0.013859 -0.0157672 -0.00364113  0.0157134 -0.0185444 -0.00361967  0.0174953 -0.0215747 -0.0035677  0.0192026 -0.0248461 -0.00349188  0.020834 -0.0283587 -0.0033989  0.0223879 -0.032102 -0.00328779  0.0238637 -0.036064 -0.00316906  0.0252634 -0.0402395 -0.0030489  0.0265877 -0.0446144 -0.00292444  0.027838 -0.0491822 -0.00281286  0.0290159 -0.053934 -0.00269318  0.0301218 -0.0588602 -0.00257349  0.031158 -0.0639525 -0.00245953  0.0321261 -0.0692037 -0.00235128  0.0330274 -0.0746022 -0.00224876  0.0338635 -0.0801471 -0.00213814  0.0346371 -0.0858243 -0.00203562  0.0353497 -0.0916272 -0.00193739  0.0360026 -0.0975531 -0.00183392  0.0365975 -0.103591 -0.00174093  0.0371358 -0.109736 -0.00164604  0.0376186 -0.115977 -0.00155783  0.0380474 -0.122313 -0.00147486  0.0384248 -0.128735 -0.00138426  0.0387526 -0.135239 -0.00130749  0.0390308 -0.14182 -0.0012269  0.039263 -0.148468 -0.00114727  0.0394516 -0.155185 -0.00107145  0.0395975 -0.161955 -0.00099802  0.0397029 -0.168784 -0.000926971  0.0397677 -0.17566 -0.000854015  0.0397954 -0.182585 -0.000779152  0.0397861 -0.189547 -0.000707626  0.039741 -0.196549 -0.00064373  0.0396655 -0.20358 -0.000583172  0.0395591 -0.21064 -0.000522137  0.0394239 -0.217725 -0.000477791  0.0392606 -0.224833 -0.000424385  0.039073 -0.231959 -0.000380039  0.0388594 -0.239098 -0.000338554  0.0386205 -0.24625 -0.000294209  0.0383618 -0.253413 -0.000253201  0.0380855 -0.260581 -0.000211239  0.0377908 -0.267752 -0.000169277  0.0374799 -0.274924 -0.000138283  0.0371516 -0.282099 -0.000113487  0.0368109 -0.28927 -8.10623e-05  0.036459 -0.296437 -5.81741e-05  0.0360961 -0.303603 -3.48091e-05  0.0357232 -0.310764 -1.00136e-05  0.035342 -0.317911 1.62125e-05  0.0349536 -0.325048 3.48091e-05  0.0345602 -0.332182 5.62668e-05  0.0341628 -0.339308 7.29561e-05  0.0337641 -0.346424 8.67844e-05  0.0333641 -0.353534 0.000101566  0.0329623 -0.360638 0.000116348  0 0 0  0.00106787 -0.00314581 -0.00124645  0.00296187 -0.00506592 -0.00220442  0.00510231 -0.00668269 -0.0029335  0.00734407 -0.00831038 -0.00346279  0.00961673 -0.0100871 -0.00381708  0.0118798 -0.0120743 -0.00403118  0.0141062 -0.014308 -0.0041461  0.0162768 -0.0167947 -0.00417709  0.0183778 -0.0195408 -0.00414991  0.0204031 -0.0225439 -0.00409269  0.0223482 -0.0257905 -0.00400305  0.0242096 -0.0292799 -0.00390053  0.025986 -0.0330028 -0.00377321  0.0276777 -0.0369466 -0.00363922  0.0292847 -0.0411047 -0.00349569  0.0308069 -0.0454636 -0.00336075  0.0322454 -0.0500161 -0.00322676  0.0336024 -0.054751 -0.00308943  0.0348806 -0.0596627 -0.00295877  0.0360821 -0.0647405 -0.00282669  0.0372094 -0.0699777 -0.00270081  0.0382624 -0.0753642 -0.00257969  0.0392421 -0.080895 -0.00246191  0.0401515 -0.0865588 -0.00233841  0.0409939 -0.0923502 -0.00222492  0.04177 -0.0982639 -0.00210857  0.0424806 -0.104291 -0.00200033  0.043128 -0.110423 -0.001894  0.0437136 -0.116652 -0.001791  0.0442386 -0.122977 -0.00168705  0.0447072 -0.129386 -0.00159359  0.0451202 -0.135878 -0.00149965  0.0454803 -0.142449 -0.00141096  0.0457873 -0.149087 -0.00131512  0.0460434 -0.155794 -0.00123119  0.0462534 -0.162555 -0.00114679  0.0464175 -0.169372 -0.00106716  0.0465374 -0.176238 -0.000976562  0.0466151 -0.18315 -0.000889301  0.0466521 -0.190105 -0.000812531  0.0466506 -0.197097 -0.000739098  0.0466113 -0.204119 -0.000675678  0.0465369 -0.211168 -0.000606537  0.0464308 -0.218244 -0.000542164  0.046294 -0.22534 -0.000490189  0.0461257 -0.232458 -0.000438213  0.0459313 -0.239587 -0.000395775  0.0457127 -0.246732 -0.000339031  0.0454688 -0.253887 -0.000293732  0.045203 -0.261045 -0.000247002  0.0449159 -0.26821 -0.000203133  0.0446095 -0.275376 -0.000165939  0.0442867 -0.282543 -0.000132561  0.0439472 -0.289709 -0.000103951  0.0435951 -0.296871 -7.48634e-05  0.0432312 -0.304031 -4.14848e-05  0.0428562 -0.311185 -1.62125e-05  0.0424712 -0.318327 7.62939e-06  0.0420792 -0.325464 2.86102e-05  0.041682 -0.332592 5.43594e-05  0.0412812 -0.339718 7.24792e-05  0.0408773 -0.346833 8.4877e-05  0.0404742 -0.353943 9.72748e-05  0.0400724 -0.361051 0.000110149  0 0 0  -0.00106769 -0.00275436 0.00170994  -0.00294738 -0.00440269 0.00298834  -0.00508553 -0.00581031 0.00394869  -0.00733331 -0.00726253 0.00462103  -0.00961593 -0.00888305 0.00505352  -0.0118927 -0.0107226 0.00530434  -0.0141394 -0.0128176 0.00541687  -0.0163419 -0.0151627 0.0054388  -0.0184926 -0.0177706 0.00538969  -0.0205876 -0.0206302 0.00528669  -0.0226244 -0.0237405 0.00514746  -0.0246034 -0.0270861 0.00498343  -0.0265254 -0.0306575 0.00480223  -0.0283897 -0.0344488 0.00461388  -0.0301981 -0.0384511 0.0044241  -0.0319519 -0.0426518 0.00423336  -0.0336519 -0.0470396 0.0040431  -0.0353013 -0.0516131 0.00386763  -0.0369002 -0.0563583 0.00369453  -0.0384496 -0.0612698 0.00352335  -0.0399511 -0.066343 0.00336218  -0.0414028 -0.0715672 0.00320005  -0.0428088 -0.0769366 0.00305033  -0.0441715 -0.0824359 0.00290823  -0.0454916 -0.0880725 0.00276232  -0.0467681 -0.0938326 0.00262308  -0.0480036 -0.0997111 0.00248528  -0.0491983 -0.105699 0.00235415  -0.050354 -0.111792 0.00222015  -0.0514711 -0.117983 0.00208998  -0.0525515 -0.124269 0.00197077  -0.0535944 -0.13064 0.00185442  -0.0546012 -0.137092 0.00173616  -0.055573 -0.143616 0.00163174  -0.0565102 -0.150215 0.0015316  -0.0574155 -0.156881 0.00143242  -0.0582895 -0.163607 0.00132942  -0.0591314 -0.170391 0.00123453  -0.059943 -0.177226 0.00114489  -0.0607238 -0.184107 0.00105715  -0.0614753 -0.191031 0.000975609  -0.0621996 -0.197991 0.000895977  -0.0628979 -0.204989 0.000819683  -0.0635719 -0.212017 0.00074625  -0.0642214 -0.219074 0.000678539  -0.0648446 -0.22615 0.000611782  -0.0654464 -0.233248 0.000549316  -0.0660281 -0.240361 0.000497818  -0.0665908 -0.247488 0.000445366  -0.0671332 -0.254622 0.00039959  -0.0676579 -0.261769 0.000357151  -0.0681641 -0.268923 0.000320911  -0.0686545 -0.276077 0.000275135  -0.0691307 -0.283237 0.000240803  -0.0695918 -0.290395 0.000209808  -0.0700402 -0.29755 0.000192165  -0.0704796 -0.304703 0.000171661  -0.0709083 -0.311849 0.000154495  -0.0713279 -0.318989 0.000132561  -0.0717416 -0.32612 0.000115871  -0.0721526 -0.333247 0.00011158  -0.0725603 -0.340365 9.87053e-05  -0.0729654 -0.347474 0.000103951  -0.0733712 -0.354584 9.82285e-05  0 0 0  -0.0006405 -0.00178407 0.00133228  -0.00211187 -0.00326379 0.00249147  -0.0039327 -0.00466176 0.00336075  -0.00589538 -0.00615278 0.00396156  -0.00790453 -0.00782261 0.00435209  -0.00990978 -0.00971717 0.00457811  -0.0118863 -0.0118634 0.00467777  -0.0138215 -0.014263 0.00469971  -0.0157109 -0.0169211 0.00465298  -0.0175528 -0.0198314 0.00456095  -0.0193462 -0.0229878 0.00444794  -0.0210903 -0.0263813 0.00430584  -0.0227851 -0.0299972 0.00415087  -0.0244333 -0.0338319 0.0039854  -0.0260358 -0.0378769 0.00382042  -0.0275925 -0.0421195 0.00366211  -0.0291057 -0.0465508 0.00349426  -0.0305752 -0.0511631 0.00334072  -0.0320024 -0.0559496 0.00319004  -0.0333887 -0.0609013 0.00304508  -0.0347339 -0.0660125 0.00290251  -0.0360405 -0.0712731 0.00276852  -0.0373091 -0.0766797 0.00263929  -0.0385389 -0.0822172 0.0025115  -0.0397327 -0.0878881 0.00239372  -0.0408903 -0.0936819 0.00226736  -0.042014 -0.0995929 0.0021534  -0.0431032 -0.105612 0.00203228  -0.0441595 -0.111737 0.00192213  -0.045185 -0.11796 0.00181198  -0.0461789 -0.124273 0.00170422  -0.0471408 -0.130671 0.00160456  -0.0480733 -0.137151 0.00150061  -0.0489755 -0.143702 0.0014143  -0.0498488 -0.150326 0.00132608  -0.050693 -0.157014 0.00123739  -0.0515087 -0.163764 0.00115728  -0.052299 -0.170568 0.00107574  -0.0530629 -0.177424 0.000990868  -0.053802 -0.184324 0.000920296  -0.0545177 -0.191265 0.00084877  -0.0552099 -0.198244 0.000781536  -0.0558805 -0.205257 0.000714302  -0.0565276 -0.212302 0.000647545  -0.057153 -0.219371 0.000588894  -0.0577586 -0.22646 0.000538826  -0.0583446 -0.233569 0.000486851  -0.0589135 -0.240696 0.000443459  -0.0594637 -0.247831 0.00040102  -0.0599973 -0.254978 0.000356197  -0.0605145 -0.262132 0.000321865  -0.061017 -0.269294 0.000288963  -0.0615056 -0.276456 0.000255585  -0.06198 -0.283622 0.00022316  -0.062443 -0.290784 0.000199795  -0.0628963 -0.297945 0.000178814  -0.0633395 -0.305102 0.000166893  -0.063772 -0.31225 0.000144958  -0.0641971 -0.319392 0.000125885  -0.0646169 -0.326527 0.000116825  -0.0650311 -0.333651 0.000104904  -0.0654421 -0.340769 9.87053e-05  -0.06585 -0.347878 0.000101089  -0.0662589 -0.354985 9.63211e-05  0 0 0  -0.000494655 -0.00115539 0.0011301  -0.00160901 -0.00236297 0.00207663  -0.00307442 -0.00368839 0.00281239  -0.00470939 -0.00518111 0.00333309  -0.00641045 -0.0068818 0.00367165  -0.0081228 -0.0088216 0.0038681  -0.00981688 -0.0110137 0.00396109  -0.0114796 -0.0134647 0.00397921  -0.0131055 -0.0161683 0.00394535  -0.0146911 -0.0191245 0.00386572  -0.0162363 -0.0223254 0.00376844  -0.0177422 -0.0257606 0.00365067  -0.01921 -0.0294184 0.0035181  -0.0206404 -0.0332922 0.00337553  -0.0220333 -0.0373755 0.00323915  -0.0233892 -0.0416562 0.0031004  -0.0247093 -0.0461268 0.00296736  -0.0259955 -0.0507747 0.00283813  -0.0272489 -0.0555992 0.00270319  -0.0284685 -0.0605864 0.00257635  -0.0296562 -0.0657322 0.00245523  -0.0308123 -0.0710269 0.00234222  -0.0319378 -0.0764669 0.00223303  -0.0330337 -0.0820389 0.00213194  -0.0340996 -0.0877422 0.0020318  -0.0351362 -0.0935668 0.00192499  -0.0361447 -0.0995072 0.00182533  -0.037125 -0.105554 0.00172377  -0.0380794 -0.111709 0.00163126  -0.0390075 -0.11796 0.00153685  -0.0399097 -0.1243 0.00144482  -0.0407873 -0.130723 0.0013566  -0.0416403 -0.137227 0.00127459  -0.0424681 -0.143804 0.00119781  -0.043272 -0.150452 0.0011282  -0.0440526 -0.157162 0.00106239  -0.044812 -0.163932 0.000988007  -0.0455489 -0.170756 0.000920296  -0.0462651 -0.17763 0.000850201  -0.0469608 -0.184549 0.000783443  -0.0476353 -0.191505 0.000727177  -0.0482912 -0.198502 0.000671387  -0.048928 -0.205529 0.000612259  -0.049547 -0.212588 0.000555038  -0.0501468 -0.219668 0.000506401  -0.0507302 -0.226771 0.000463963  -0.0512977 -0.23389 0.000422001  -0.0518479 -0.241028 0.000380039  -0.0523818 -0.248173 0.000350952  -0.0529025 -0.25533 0.000314236  -0.0534093 -0.262493 0.000286579  -0.0539048 -0.269661 0.000254631  -0.054389 -0.276831 0.000223637  -0.0548618 -0.284002 0.000203609  -0.0553234 -0.291169 0.000186443  -0.055774 -0.298335 0.000164509  -0.0562167 -0.305495 0.000149727  -0.056653 -0.312647 0.000139713  -0.0570803 -0.319791 0.000123978  -0.0575016 -0.326928 0.00011158  -0.057919 -0.334052 0.000105381  -0.0583327 -0.341169 0.000101089  -0.058743 -0.34828 8.91685e-05  -0.0591526 -0.355382 8.58307e-05  0 0 0  -0.000372693 -0.000724047 0.000945568  -0.00123125 -0.0017004 0.00171947  -0.00238302 -0.00291932 0.00230932  -0.00369866 -0.00438337 0.00273609  -0.00508904 -0.00609346 0.00302219  -0.00650105 -0.00806315 0.00318623  -0.00790644 -0.0102931 0.0032711  -0.00929159 -0.0127865 0.00328016  -0.0106494 -0.0155309 0.00324917  -0.0119788 -0.0185267 0.00318718  -0.0132772 -0.0217652 0.00310516  -0.0145448 -0.0252384 0.00300455  -0.0157818 -0.028932 0.00289631  -0.01699 -0.0328422 0.0027833  -0.0181708 -0.0369579 0.00266933  -0.019324 -0.0412731 0.00255919  -0.0204507 -0.0457771 0.00245047  -0.021551 -0.0504587 0.00233889  -0.0226268 -0.0553161 0.00223351  -0.0236785 -0.0603355 0.00212097  -0.0247047 -0.0655116 0.0020256  -0.0257063 -0.0708377 0.00192928  -0.0266846 -0.0763072 0.00183773  -0.0276408 -0.0819104 0.00175714  -0.0285748 -0.0876426 0.0016737  -0.0294865 -0.0934959 0.00158978  -0.0303777 -0.0994624 0.00150633  -0.0312481 -0.105537 0.00142288  -0.0320977 -0.111717 0.00134468  -0.0329263 -0.117992 0.00127125  -0.0337348 -0.124356 0.00119305  -0.0345241 -0.130803 0.00111723  -0.035295 -0.137329 0.00105381  -0.0360475 -0.143929 0.000988483  -0.0367815 -0.150597 0.000933647  -0.0374966 -0.157329 0.00087738  -0.0381925 -0.164117 0.000817776  -0.0388734 -0.170958 0.000757217  -0.0395377 -0.177849 0.00070715  -0.040185 -0.184783 0.000654697  -0.040817 -0.191756 0.000608921  -0.0414338 -0.198767 0.000557423  -0.0420349 -0.205808 0.00051403  -0.0426209 -0.212879 0.000463963  -0.0431919 -0.219971 0.000433445  -0.0437498 -0.227086 0.000395298  -0.0442939 -0.234217 0.000363827  -0.0448234 -0.241362 0.000321865  -0.0453401 -0.248517 0.000289917  -0.0458462 -0.255682 0.000267982  -0.0463419 -0.262854 0.000239849  -0.0468264 -0.270026 0.000226021  -0.0473025 -0.277203 0.000203609  -0.0477695 -0.28438 0.00018549  -0.0482268 -0.291551 0.000168324  -0.0486767 -0.298721 0.000154972  -0.0491192 -0.305885 0.000139713  -0.0495529 -0.313039 0.000127316  -0.0499806 -0.320187 0.00012064  -0.0504031 -0.327324 0.000109196  -0.0508208 -0.33445 0.000107288  -0.0512352 -0.341566 9.48906e-05  -0.0516458 -0.348678 8.72612e-05  -0.0520542 -0.355775 8.01086e-05  0 0 0  -0.000277344 -0.000429064 0.000761509  -0.000919014 -0.00122161 0.00136757  -0.00179602 -0.00234111 0.00183964  -0.00281337 -0.00376296 0.00217009  -0.00390154 -0.00546856 0.00239277  -0.00501701 -0.00745523 0.00252771  -0.00613388 -0.00971386 0.00259018  -0.00723892 -0.0122377 0.00260448  -0.00832802 -0.0150182 0.00257444  -0.00939757 -0.0180462 0.00251961  -0.0104451 -0.0213173 0.00245571  -0.0114696 -0.0248213 0.00237513  -0.0124738 -0.028547 0.00228643  -0.0134599 -0.0324876 0.00220203  -0.0144271 -0.0366326 0.00211143  -0.0153766 -0.0409777 0.0020256  -0.0163068 -0.04551 0.00193882  -0.0172188 -0.0502217 0.00185347  -0.0181144 -0.0551077 0.00176382  -0.0189941 -0.0601566 0.00168467  -0.0198574 -0.0653586 0.00159931  -0.0207042 -0.0707128 0.00152683  -0.0215354 -0.0762074 0.00145102  -0.0223505 -0.081838 0.00138712  -0.0231495 -0.0875956 0.00131941  -0.0239333 -0.0934728 0.0012579  -0.0247028 -0.0994645 0.00119162  -0.0254583 -0.105564 0.00112629  -0.0261999 -0.111766 0.00106716  -0.0269266 -0.118062 0.000997543  -0.027639 -0.124448 0.000937462  -0.0283378 -0.130916 0.000883102  -0.0290241 -0.137463 0.000833035  -0.0296969 -0.144081 0.00078249  -0.0303576 -0.150769 0.000741005  -0.0310049 -0.157518 0.000694275  -0.0316389 -0.164323 0.000645161  -0.0322597 -0.17118 0.000602245  -0.0328684 -0.178086 0.000565052  -0.0334654 -0.185033 0.000522137  -0.0340509 -0.192022 0.000486374  -0.0346248 -0.199045 0.000446796  -0.035187 -0.206098 0.000413418  -0.0357382 -0.213179 0.000377178  -0.0362794 -0.220283 0.000349522  -0.0368102 -0.227408 0.000327587  -0.037329 -0.234549 0.00029707  -0.0378363 -0.241701 0.000264168  -0.0383337 -0.248865 0.000244617  -0.0388219 -0.256036 0.000222206  -0.0393023 -0.263215 0.00020504  -0.0397749 -0.270394 0.000185013  -0.0402408 -0.277576 0.000175476  -0.040699 -0.284756 0.000155449  -0.0411508 -0.291933 0.000147343  -0.041595 -0.299107 0.000141621  -0.0420318 -0.306274 0.000127792  -0.0424635 -0.31343 0.000118732  -0.0428898 -0.320582 0.000114918  -0.0433109 -0.327719 0.000102997  -0.0437274 -0.334848 9.39369e-05  -0.0441399 -0.341964 9.15527e-05  -0.0445499 -0.349073 8.44002e-05  -0.0449588 -0.356167 7.77245e-05  0 0 0  -0.00019566 -0.000232577 0.000576973  -0.000651278 -0.000890583 0.00102806  -0.00128022 -0.00192901 0.00137711  -0.00201651 -0.0033102 0.00161886  -0.00281188 -0.00500667 0.00178146  -0.00363442 -0.00700194 0.00188017  -0.00446504 -0.00928012 0.00192642  -0.00529319 -0.0118262 0.00193453  -0.0061115 -0.014634 0.00191164  -0.00691891 -0.0176887 0.00187588  -0.00771463 -0.0209871 0.00182009  -0.00849807 -0.0245154 0.00176144  -0.00926954 -0.0282678 0.00169992  -0.0100309 -0.0322341 0.0016346  -0.0107837 -0.0364052 0.00157166  -0.0115252 -0.0407746 0.00150537  -0.0122557 -0.0453313 0.00143814  -0.0129783 -0.0500693 0.00137091  -0.0136932 -0.0549788 0.00130653  -0.0143986 -0.0600515 0.00124264  -0.0150946 -0.0652783 0.00118399  -0.0157826 -0.0706559 0.00112724  -0.0164614 -0.0761734 0.00107908  -0.0171329 -0.0818276 0.00102711  -0.0177958 -0.087607 0.000978947  -0.0184507 -0.0935053 0.000930309  -0.0190994 -0.0995185 0.000881672  -0.019739 -0.105639 0.000837326  -0.0203705 -0.11186 0.000785351  -0.0209937 -0.118176 0.000737667  -0.0216087 -0.124579 0.000692844  -0.0222157 -0.131066 0.000652313  -0.0228136 -0.13763 0.000614166  -0.0234039 -0.144266 0.000582218  -0.0239871 -0.15097 0.000545025  -0.024565 -0.157734 0.000510216  -0.0251348 -0.164554 0.000478268  -0.0256958 -0.171425 0.000452042  -0.0262487 -0.178344 0.000423431  -0.026792 -0.185304 0.000393391  -0.0273283 -0.192305 0.00036335  -0.0278573 -0.199339 0.00033617  -0.028379 -0.206402 0.000308514  -0.0288942 -0.213492 0.000291824  -0.029402 -0.220607 0.000271797  -0.0299003 -0.227739 0.000253677  -0.0303919 -0.234888 0.000224113  -0.0308766 -0.242048 0.000209332  -0.0313551 -0.249219 0.000188351  -0.031827 -0.256396 0.000176907  -0.0322919 -0.26358 0.000164032  -0.0327492 -0.270766 0.000151157  -0.0332017 -0.277951 0.000139713  -0.0336502 -0.285135 0.000133514  -0.0340929 -0.292316 0.0001297  -0.0345299 -0.299492 0.000120163  -0.0349622 -0.306662 0.00011301  -0.0353904 -0.313822 0.000113487  -0.0358133 -0.320975 0.000107765  -0.0362298 -0.328116 9.77516e-05  -0.036644 -0.335245 9.48906e-05  -0.0370562 -0.342361 9.44138e-05  -0.0374672 -0.349467 8.96454e-05  -0.0378749 -0.356558 8.15392e-05  0 0 0  -0.000123262 -0.000110656 0.000380039  -0.000409558 -0.000680387 0.00067997  -0.000807241 -0.00166228 0.000916481  -0.0012776 -0.003012 0.00107336  -0.00179201 -0.00470138 0.00117731  -0.00232989 -0.00670099 0.00124407  -0.00287658 -0.00899187 0.00128078  -0.00342476 -0.0115548 0.00128031  -0.00397301 -0.0143813 0.00126982  -0.0045194 -0.0174578 0.00123405  -0.005063 -0.0207773 0.00120211  -0.00560319 -0.0243252 0.00116301  -0.00614107 -0.0280986 0.00111771  -0.00667709 -0.032086 0.00107479  -0.00721055 -0.0362782 0.00103235  -0.00774395 -0.0406679 0.000986099  -0.00827742 -0.0452447 0.000944138  -0.00880945 -0.0500039 0.0008955  -0.00933933 -0.0549326 0.000857353  -0.00986814 -0.0600249 0.000816822  -0.0103964 -0.0652744 0.00077343  -0.0109236 -0.0706707 0.000734806  -0.0114509 -0.0762079 0.000702381  -0.0119777 -0.0818811 0.000668049  -0.0125046 -0.0876802 0.000640869  -0.0130305 -0.0935967 0.000607967  -0.0135535 -0.0996274 0.000573635  -0.0140744 -0.105766 0.000543594  -0.0145938 -0.112002 0.000514984  -0.015112 -0.118336 0.00048542  -0.0156273 -0.124754 0.000459194  -0.0161406 -0.131257 0.000427723  -0.0166516 -0.137835 0.000402451  -0.0171599 -0.144485 0.000384808  -0.0176671 -0.151203 0.000358105  -0.0181701 -0.15798 0.000335217  -0.0186703 -0.164812 0.000317574  -0.0191684 -0.171695 0.000298977  -0.0196619 -0.178626 0.000277996  -0.0201519 -0.185598 0.000258923  -0.0206392 -0.192607 0.000247478  -0.0211222 -0.199651 0.000226974  -0.0216026 -0.206724 0.000211239  -0.0220788 -0.21382 0.000197411  -0.0225518 -0.220944 0.000191689  -0.02302 -0.228082 0.00017643  -0.023483 -0.235237 0.000166893  -0.023942 -0.242404 0.000144005  -0.0243964 -0.249581 0.000136852  -0.0248466 -0.256763 0.000128269  -0.0252938 -0.263952 0.000124454  -0.0257392 -0.271141 0.00011158  -0.02618 -0.278331 0.000115395  -0.0266151 -0.285517 0.000102997  -0.0270479 -0.292702 0.000105858  -0.0274765 -0.29988 0.000102043  -0.0279021 -0.307053 0.000100136  -0.0283234 -0.314215 9.58443e-05  -0.0287418 -0.321369 9.82285e-05  -0.0291579 -0.328512 9.58443e-05  -0.0295706 -0.335642 9.05991e-05  -0.0299811 -0.342758 9.15527e-05  -0.0303881 -0.349862 8.86917e-05  -0.0307939 -0.356951 8.58307e-05  0 0 0  -5.43147e-05 -4.94421e-05 0.000189781  -0.000181928 -0.000572652 0.000339031  -0.000362515 -0.00152433 0.000449657  -0.000579879 -0.00285852 0.000534534  -0.000819325 -0.00454339 0.000581741  -0.00107276 -0.00654811 0.00061655  -0.00133687 -0.00884801 0.000629902  -0.00160971 -0.0114236 0.00063467  -0.00188833 -0.0142635 0.000622749  -0.00217199 -0.0173555 0.000607967  -0.00246215 -0.020691 0.000592232  -0.00275946 -0.0242536 0.000570297  -0.00306338 -0.0280426 0.00054884  -0.00337356 -0.0320455 0.000520229  -0.00369149 -0.0362541 0.000492573  -0.00401533 -0.0406594 0.000473976  -0.00434649 -0.0452528 0.000447273  -0.00468552 -0.0500284 0.000433922  -0.00503206 -0.0549727 0.000411034  -0.00538599 -0.0600816 0.000388622  -0.00574625 -0.0653483 0.000367165  -0.00611353 -0.0707603 0.000350475  -0.00648844 -0.0763135 0.000331879  -0.00687099 -0.0820018 0.000322819  -0.00725806 -0.0878164 0.00030899  -0.00764942 -0.0937487 0.000290394  -0.00804675 -0.0997938 0.000272751  -0.00844836 -0.105945 0.000257969  -0.0088557 -0.112196 0.000244617  -0.00926721 -0.118544 0.00023222  -0.00968122 -0.124976 0.000213146  -0.0100996 -0.13149 0.000207424  -0.0105217 -0.13808 0.00019455  -0.0109472 -0.144742 0.000184536  -0.0113745 -0.151471 0.000169277  -0.0118032 -0.158256 0.000160217  -0.0122344 -0.165101 0.000152588  -0.0126679 -0.171993 0.000144482  -0.0131032 -0.178932 0.000136852  -0.0135393 -0.185914 0.000130653  -0.0139759 -0.192931 0.00012207  -0.0144138 -0.199982 0.000116825  -0.0148501 -0.207063 0.000110626  -0.0152845 -0.214166 0.000106335  -0.0157208 -0.221295 0.000108719  -0.0161555 -0.22844 9.72748e-05  -0.0165896 -0.235599 9.20296e-05  -0.0170236 -0.242772 8.86917e-05  -0.0174558 -0.249952 8.63075e-05  -0.0178854 -0.257139 8.01086e-05  -0.0183129 -0.264331 7.72476e-05  -0.0187385 -0.271524 7.43866e-05  -0.0191646 -0.278717 7.72476e-05  -0.0195889 -0.285906 8.24928e-05  -0.0200095 -0.293092 7.58171e-05  -0.0204279 -0.300273 8.2016e-05  -0.0208449 -0.307446 8.10623e-05  -0.0212619 -0.314611 8.72612e-05  -0.021677 -0.321765 8.67844e-05  -0.0220888 -0.32891 8.96454e-05  -0.0224986 -0.336041 8.82149e-05  -0.022907 -0.343158 9.10759e-05  -0.023314 -0.35026 9.01222e-05  -0.0237179 -0.357346 9.01222e-05  0 0 0  1.07884e-05 -4.1008e-05 -4.29153e-06  3.62843e-05 -0.000557154 -1.14441e-05  6.89924e-05 -0.00150633 -9.53674e-06  0.000102252 -0.0028412 -1.19209e-05  0.000132293 -0.00452814 -6.67572e-06  0.00015536 -0.00653937 -1.4782e-05  0.000170618 -0.00884658 -1.4782e-05  0.000176072 -0.0114308 -1.71661e-05  0.000166535 -0.0142801 -1.62125e-05  0.000141919 -0.0173821 -1.85966e-05  0.000104606 -0.0207268 -1.66893e-05  5.40018e-05 -0.024301 -2.14577e-05  -1.2815e-05 -0.0281005 -2.09808e-05  -9.78708e-05 -0.0321149 -2.86102e-05  -0.000198603 -0.0363352 -3.52859e-05  -0.000314116 -0.0407515 -4.14848e-05  -0.000444889 -0.0453569 -3.86238e-05  -0.000591516 -0.0501447 -4.1008e-05  -0.000753641 -0.0551008 -3.33786e-05  -0.000930905 -0.0602221 -3.24249e-05  -0.00112307 -0.0655017 -3.43323e-05  -0.00133049 -0.0709265 -3.76701e-05  -0.00155234 -0.0764925 -3.43323e-05  -0.00178611 -0.0821922 -3.00407e-05  -0.0020324 -0.0880183 -2.71797e-05  -0.00229073 -0.0939629 -2.0504e-05  -0.00256169 -0.10002 -2.14577e-05  -0.00284541 -0.106181 -2.71797e-05  -0.00314116 -0.112445 -2.67029e-05  -0.00344622 -0.118801 -2.57492e-05  -0.00375926 -0.125244 -1.95503e-05  -0.00408101 -0.131767 -2.14577e-05  -0.00441217 -0.138368 -1.33514e-05  -0.00475311 -0.145039 -1.33514e-05  -0.00510144 -0.151774 -1.66893e-05  -0.00545597 -0.158568 -1.28746e-05  -0.00581765 -0.16542 -1.09673e-05  -0.00618649 -0.172321 -6.19888e-06  -0.00656128 -0.179266 -5.24521e-06  -0.00694084 -0.186254 3.33786e-06  -0.00732493 -0.193278 3.33786e-06  -0.00771284 -0.200334 7.15256e-06  -0.00810671 -0.207422 1.23978e-05  -0.00850439 -0.21453 1.43051e-05  -0.00890398 -0.221662 1.85966e-05  -0.00930572 -0.228811 2.52724e-05  -0.00970864 -0.235975 3.00407e-05  -0.010112 -0.24315 3.09944e-05  -0.0105188 -0.250336 2.81334e-05  -0.0109277 -0.257525 2.67029e-05  -0.0113375 -0.264718 3.24249e-05  -0.0117486 -0.271914 4.33922e-05  -0.0121586 -0.279109 4.62532e-05  -0.0125692 -0.2863 5.96046e-05  -0.0129812 -0.293489 5.72205e-05  -0.013391 -0.300669 6.19888e-05  -0.0137999 -0.307842 6.62804e-05  -0.014209 -0.31501 7.67708e-05  -0.0146158 -0.322165 7.39098e-05  -0.015023 -0.329311 8.34465e-05  -0.01543 -0.336442 9.05991e-05  -0.015835 -0.343559 9.20296e-05  -0.0162389 -0.350661 9.63211e-05  -0.0166414 -0.357746 0.000100136  0 0 0  7.64951e-05 -8.18968e-05 -0.000204563  0.000255048 -0.000631213 -0.000355721  0.000499591 -0.00160432 -0.000471115  0.000782788 -0.00295585 -0.000546455  0.00108308 -0.00465429 -0.000605106  0.00138515 -0.0066734 -0.000641346  0.00167859 -0.00898558 -0.00065279  0.00195694 -0.0115753 -0.000658512  0.00221723 -0.014429 -0.000654697  0.00245535 -0.0175369 -0.000645161  0.00266981 -0.0208843 -0.000632763  0.00286072 -0.0244657 -0.000607967  0.00302726 -0.0282712 -0.000596046  0.00316972 -0.0322928 -0.000579357  0.00328809 -0.0365204 -0.000557423  0.00338101 -0.0409447 -0.000544071  0.00344884 -0.0455571 -0.00052309  0.00349355 -0.0503531 -0.000499249  0.00351608 -0.0553175 -0.000478745  0.00351477 -0.0604477 -0.00045681  0.00349104 -0.0657347 -0.000439167  0.00344682 -0.0711695 -0.000421524  0.00338149 -0.0767449 -0.000402451  0.00329483 -0.0824518 -0.000377655  0.00318789 -0.0882874 -0.000357628  0.00305998 -0.0942409 -0.000344753  0.00291359 -0.100305 -0.00032568  0.00275087 -0.106475 -0.000315666  0.00257039 -0.112747 -0.000289917  0.00237393 -0.119109 -0.000275135  0.00216103 -0.12556 -0.000260353  0.00193381 -0.132091 -0.00024271  0.00169086 -0.1387 -0.000226021  0.001436 -0.145376 -0.000216484  0.00116849 -0.152116 -0.000199795  0.000887394 -0.158917 -0.000184536  0.000595331 -0.165773 -0.000175476  0.000291586 -0.172681 -0.000154495  -2.31266e-05 -0.179631 -0.000144005  -0.000346422 -0.186621 -0.000128746  -0.000678301 -0.193651 -0.000112534  -0.00102019 -0.200709 -9.91821e-05  -0.00136971 -0.2078 -8.82149e-05  -0.00172448 -0.214913 -7.48634e-05  -0.00208569 -0.222048 -6.4373e-05  -0.00245309 -0.2292 -4.43459e-05  -0.00282645 -0.236366 -3.29018e-05  -0.0032053 -0.243542 -2.90871e-05  -0.00358868 -0.25073 -2.57492e-05  -0.00397515 -0.257921 -2.14577e-05  -0.00436425 -0.265116 -1.43051e-06  -0.00475717 -0.272313 3.33786e-06  -0.00515294 -0.279508 1.90735e-05  -0.00555062 -0.286701 3.33786e-05  -0.00595021 -0.293891 4.29153e-05  -0.00635052 -0.301071 4.52995e-05  -0.00675154 -0.308245 5.05447e-05  -0.00715399 -0.315412 5.96046e-05  -0.00755763 -0.322568 7.05719e-05  -0.00796151 -0.329713 7.67708e-05  -0.00836515 -0.336845 8.34465e-05  -0.00876737 -0.343961 9.20296e-05  -0.00916719 -0.351064 0.000100136  -0.00956726 -0.358151 0.000104904  0 0 0  0.000144295 -0.000174761 -0.000400066  0.000480801 -0.00079596 -0.000701427  0.000942677 -0.00181991 -0.000929356  0.00147912 -0.00320309 -0.00108957  0.00205112 -0.00492162 -0.00119543  0.00263214 -0.00694865 -0.00125456  0.0032064 -0.00926495 -0.00129128  0.00376147 -0.0118572 -0.00130129  0.00428909 -0.0147101 -0.00129461  0.00478697 -0.0178183 -0.00126886  0.00525349 -0.0211644 -0.0012393  0.00568765 -0.024748 -0.00121117  0.0060885 -0.0285555 -0.00116968  0.00645489 -0.0325783 -0.00112677  0.00678736 -0.0368097 -0.00108624  0.00708854 -0.0412368 -0.0010438  0.00735748 -0.0458539 -0.0010066  0.00759351 -0.0506536 -0.000964642  0.00779855 -0.0556236 -0.000924587  0.00797355 -0.0607586 -0.000882149  0.00811923 -0.0660489 -0.000840187  0.00823581 -0.0714905 -0.000809193  0.00832319 -0.0770702 -0.000767708  0.0083822 -0.0827827 -0.000730515  0.00841463 -0.0886236 -0.000693321  0.00842202 -0.0945832 -0.000658035  0.00840294 -0.100653 -0.000628948  0.00835764 -0.10683 -0.000598431  0.00828969 -0.113104 -0.00056839  0.008201 -0.11947 -0.000531197  0.00809014 -0.125926 -0.000500679  0.00795794 -0.132461 -0.000465393  0.00780678 -0.139075 -0.000440598  0.00763607 -0.145755 -0.000417709  0.00744629 -0.152498 -0.000385761  0.0072403 -0.159304 -0.000355721  0.00701833 -0.166162 -0.000332832  0.00677967 -0.173072 -0.00030756  0.00652623 -0.180026 -0.000282764  0.00625896 -0.187018 -0.000255108  0.00597692 -0.194049 -0.000231266  0.00568318 -0.201111 -0.000209808  0.00537753 -0.208201 -0.00018549  0.0050621 -0.215316 -0.000169754  0.00473547 -0.222452 -0.000145435  0.00440049 -0.229604 -0.000121593  0.00405717 -0.236773 -0.000101566  0.00370741 -0.24395 -8.7738e-05  0.00334907 -0.251136 -8.15392e-05  0.00298452 -0.25833 -6.05583e-05  0.00261402 -0.265524 -4.19617e-05  0.00223804 -0.272721 -2.47955e-05  0.00185752 -0.279916 -9.53674e-06  0.00147319 -0.287109 5.24521e-06  0.00108409 -0.294298 2.0504e-05  0.000691414 -0.301477 2.86102e-05  0.000295639 -0.308651 4.19617e-05  -0.000101328 -0.315817 5.14984e-05  -0.000498533 -0.322975 6.1512e-05  -0.000897646 -0.330117 6.48499e-05  -0.00129771 -0.33725 7.72476e-05  -0.00169754 -0.344367 9.05991e-05  -0.00209713 -0.351471 0.000101089  -0.00249314 -0.358559 0.000109673  0 0 0  0.00021524 -0.000327289 -0.000586033  0.000718355 -0.00106084 -0.00103807  0.00140841 -0.00216019 -0.00138283  0.00220883 -0.00358874 -0.00162363  0.0030621 -0.00533259 -0.00178289  0.00392807 -0.00736779 -0.00188112  0.00478193 -0.00968516 -0.00192881  0.00561005 -0.0122732 -0.00194693  0.00640529 -0.0151228 -0.00192976  0.0071618 -0.0182236 -0.0019021  0.00787848 -0.021567 -0.00185347  0.00855392 -0.0251457 -0.00180006  0.00918627 -0.0289514 -0.00174713  0.00977659 -0.0329713 -0.00168371  0.0103257 -0.0372018 -0.00161791  0.0108336 -0.041629 -0.00155258  0.0113007 -0.0462461 -0.00148916  0.0117276 -0.0510464 -0.00143003  0.012116 -0.0560184 -0.00136757  0.0124657 -0.0611544 -0.00130844  0.0127772 -0.0664467 -0.00125265  0.0130531 -0.0718892 -0.00119734  0.0132953 -0.0774702 -0.00113964  0.0135006 -0.0831862 -0.00107908  0.0136707 -0.0890289 -0.00102997  0.0138086 -0.0949892 -0.000977516  0.0139148 -0.101064 -0.000927448  0.0139908 -0.107243 -0.000881672  0.014037 -0.113519 -0.000838757  0.0140554 -0.119885 -0.000793457  0.0140457 -0.126343 -0.000742435  0.0140092 -0.132882 -0.000697136  0.0139465 -0.139495 -0.000657082  0.0138593 -0.146176 -0.000612736  0.0137496 -0.152921 -0.000575542  0.0136163 -0.159728 -0.000538349  0.0134621 -0.166587 -0.000494003  0.0132856 -0.173496 -0.000455856  0.0130908 -0.18045 -0.000422955  0.0128794 -0.187443 -0.0003829  0.01265 -0.194475 -0.000352383  0.0124025 -0.201536 -0.00031662  0.0121393 -0.208625 -0.000283241  0.0118628 -0.215741 -0.000254631  0.0115743 -0.222876 -0.000226498  0.0112729 -0.230027 -0.000199318  0.010957 -0.237196 -0.000165939  0.0106316 -0.244372 -0.000148296  0.0102975 -0.251556 -0.000129223  0.00995445 -0.258749 -0.000104904  0.00960159 -0.265942 -8.44002e-05  0.00923991 -0.273139 -5.96046e-05  0.00887227 -0.280332 -3.91006e-05  0.00850034 -0.287524 -1.90735e-05  0.00812387 -0.294711 -6.19888e-06  0.00774145 -0.30189 1.33514e-05  0.0073545 -0.309062 2.52724e-05  0.00696278 -0.316229 3.67165e-05  0.00656819 -0.323384 4.91142e-05  0.00617242 -0.330525 6.48499e-05  0.00577521 -0.337656 7.58171e-05  0.00537682 -0.344776 8.82149e-05  0.00497866 -0.35188 0.00010252  0.00458145 -0.358972 0.000109673  0 0 0  0.000295497 -0.00055337 -0.000770092  0.000983402 -0.00144172 -0.001369  0.0019193 -0.00263971 -0.00182533  0.00299612 -0.00412285 -0.00215912  0.00413549 -0.0058915 -0.00237465  0.00528777 -0.00793105 -0.00251102  0.00642529 -0.0102443 -0.00257683  0.00752968 -0.0128217 -0.00259113  0.00858986 -0.0156637 -0.00257111  0.00960284 -0.0187516 -0.00252819  0.0105662 -0.0220873 -0.00247097  0.0114793 -0.025656 -0.00240183  0.0123431 -0.0294563 -0.00232267  0.0131565 -0.03347 -0.00223732  0.0139192 -0.0376953 -0.00215197  0.0146332 -0.0421197 -0.00206757  0.0152981 -0.0467342 -0.00197983  0.015915 -0.0515303 -0.001894  0.0164853 -0.0565009 -0.00181913  0.017009 -0.0616347 -0.00173807  0.0174878 -0.0669259 -0.00165701  0.0179229 -0.0723652 -0.00159025  0.0183144 -0.0779462 -0.00151396  0.0186636 -0.0836614 -0.00144053  0.0189734 -0.0895028 -0.00136471  0.0192443 -0.0954617 -0.00129843  0.0194751 -0.101536 -0.00122929  0.0196689 -0.107714 -0.00117254  0.0198264 -0.11399 -0.00110912  0.0199491 -0.120355 -0.00104761  0.0200379 -0.126812 -0.000987053  0.0200953 -0.133349 -0.000929832  0.0201204 -0.139961 -0.000867844  0.0201147 -0.14664 -0.0008111  0.0200813 -0.153384 -0.000763893  0.0200217 -0.160189 -0.000711441  0.0199344 -0.167048 -0.000658035  0.0198226 -0.173954 -0.000610352  0.0196872 -0.180906 -0.000554085  0.0195289 -0.187897 -0.000507832  0.0193498 -0.194927 -0.000461102  0.0191495 -0.201986 -0.000416756  0.0189292 -0.209074 -0.000377178  0.0186896 -0.216186 -0.000339985  0.0184333 -0.223319 -0.000306606  0.0181642 -0.230468 -0.000264645  0.01788 -0.237634 -0.000235081  0.0175807 -0.244807 -0.000199318  0.0172672 -0.251991 -0.000175476  0.016942 -0.25918 -0.000150204  0.0166066 -0.266372 -0.00012064  0.0162621 -0.273566 -9.77516e-05  0.0159082 -0.280758 -7.20024e-05  0.0155451 -0.287945 -4.48227e-05  0.0151749 -0.295131 -2.6226e-05  0.0147998 -0.302308 -7.62939e-06  0.0144181 -0.309478 1.19209e-05  0.0140309 -0.316643 2.95639e-05  0.013643 -0.323796 3.95775e-05  0.0132523 -0.330936 5.67436e-05  0.0128567 -0.338066 7.24792e-05  0.0124583 -0.345185 8.72612e-05  0.0120606 -0.352291 9.72748e-05  0.0116644 -0.359386 0.000114918  0 0 0  0.000386573 -0.000874817 -0.000936985  0.00128758 -0.00196433 -0.00170469  0.00249441 -0.00327671 -0.00228262  0.0038653 -0.00481677 -0.0027051  0.00530216 -0.00660211 -0.00297832  0.00674662 -0.0086391 -0.00314474  0.00816491 -0.0109394 -0.00322056  0.0095402 -0.0135009 -0.00323677  0.0108643 -0.016327 -0.00321817  0.0121313 -0.0194003 -0.00316477  0.0133407 -0.0227208 -0.00308752  0.014492 -0.0262778 -0.00299883  0.0155844 -0.0300661 -0.00290489  0.0166183 -0.0340731 -0.00280285  0.0175928 -0.0382892 -0.00269365  0.0185089 -0.042706 -0.00258303  0.0193686 -0.0473149 -0.00247908  0.0201739 -0.0521035 -0.0023737  0.0209247 -0.0570691 -0.00227451  0.0216219 -0.0621976 -0.00217438  0.0222669 -0.0674838 -0.00208378  0.0228596 -0.0729184 -0.00198221  0.0234021 -0.0784961 -0.00189495  0.0238957 -0.0842069 -0.00180101  0.0243402 -0.090044 -0.00171089  0.0247389 -0.0959985 -0.00161982  0.0250936 -0.102069 -0.00154257  0.025404 -0.108242 -0.00146055  0.0256716 -0.114515 -0.00138092  0.0258991 -0.120878 -0.00130129  0.0260861 -0.12733 -0.00122881  0.0262346 -0.133864 -0.00116014  0.0263476 -0.14047 -0.00108767  0.0264249 -0.147147 -0.00102234  0.0264673 -0.153888 -0.000954628  0.0264771 -0.160688 -0.00088501  0.0264561 -0.167543 -0.000821114  0.0264044 -0.174444 -0.000759125  0.0263257 -0.181392 -0.000693321  0.0262213 -0.188381 -0.000638008  0.0260885 -0.195406 -0.000573635  0.0259316 -0.202461 -0.00052166  0.0257523 -0.209545 -0.000470638  0.0255523 -0.216652 -0.000432968  0.0253303 -0.223781 -0.00038147  0.0250874 -0.230926 -0.000338554  0.024827 -0.238087 -0.000296116  0.0245507 -0.245256 -0.000258923  0.0242589 -0.252437 -0.000226974  0.0239527 -0.259622 -0.000188828  0.0236318 -0.266811 -0.000162601  0.023299 -0.274 -0.000129223  0.0229568 -0.281188 -9.67979e-05  0.0226061 -0.288374 -7.39098e-05  0.0222456 -0.295555 -5.10216e-05  0.0218761 -0.30273 -2.67029e-05  0.0214992 -0.3099 -9.53674e-07  0.0211172 -0.31706 1.7643e-05  0.0207295 -0.324208 3.52859e-05  0.0203371 -0.331348 5.34058e-05  0.0199435 -0.338477 6.62804e-05  0.0195465 -0.345595 8.7738e-05  0.0191472 -0.352703 0.000102997  0.0187488 -0.3598 0.000114918  0 0 0  0.000503235 -0.00132591 -0.00111818  0.00165293 -0.00266063 -0.00204325  0.00316717 -0.00409126 -0.00276327  0.00485078 -0.00567621 -0.0032649  0.00659096 -0.00746399 -0.00359917  0.00832605 -0.00948733 -0.00378656  0.0100245 -0.0117648 -0.00387907  0.0116708 -0.0143051 -0.003901  0.0132552 -0.0171074 -0.00387478  0.0147754 -0.0201623 -0.00380373  0.0162277 -0.0234638 -0.0037117  0.0176125 -0.0270059 -0.00360966  0.0189309 -0.0307789 -0.00349951  0.020182 -0.0347754 -0.0033741  0.0213665 -0.0389796 -0.00324154  0.022485 -0.0433856 -0.0031147  0.0235393 -0.0479855 -0.00298738  0.0245306 -0.0527638 -0.00286484  0.0254586 -0.0577214 -0.00274038  0.0263252 -0.0628409 -0.00261545  0.0271323 -0.0681198 -0.00250387  0.0278808 -0.0735452 -0.00239134  0.0285717 -0.0791166 -0.00227499  0.0292059 -0.0848204 -0.00217056  0.0297871 -0.0906497 -0.00206375  0.0303146 -0.0965988 -0.00195551  0.0307888 -0.102661 -0.00185585  0.0312129 -0.108828 -0.00175619  0.0315892 -0.115094 -0.00166082  0.0319188 -0.121452 -0.00157166  0.0322021 -0.127897 -0.00148392  0.0324421 -0.134424 -0.00139713  0.0326393 -0.141024 -0.00130653  0.032795 -0.147695 -0.00122309  0.0329108 -0.154431 -0.00114298  0.0329902 -0.161222 -0.00106716  0.0330334 -0.168071 -0.000985622  0.0330422 -0.174967 -0.000913143  0.0330179 -0.181909 -0.000836372  0.0329611 -0.188892 -0.000762939  0.0328755 -0.19591 -0.000690937  0.0327606 -0.202959 -0.000628471  0.0326185 -0.210037 -0.000567913  0.0324516 -0.217138 -0.00051403  0.0322607 -0.22426 -0.000461578  0.0320473 -0.2314 -0.000410557  0.0318122 -0.238553 -0.000361919  0.0315573 -0.245718 -0.000318527  0.0312836 -0.252893 -0.000273228  0.0309923 -0.260074 -0.000234604  0.0306854 -0.267258 -0.000192642  0.0303655 -0.274442 -0.000157833  0.0300324 -0.281626 -0.000125885  0.0296874 -0.288807 -9.77516e-05  0.0293319 -0.295984 -7.00951e-05  0.0289683 -0.303157 -4.14848e-05  0.0285959 -0.310323 -1.14441e-05  0.0282152 -0.317478 1.33514e-05  0.027828 -0.324623 3.05176e-05  0.0274365 -0.331761 5.24521e-05  0.0270407 -0.33889 6.58035e-05  0.0266428 -0.346007 8.4877e-05  0.0262451 -0.353116 0.000102997  0.0258489 -0.360216 0.000114441  0 0 0  0.000634998 -0.00196201 -0.00130415  0.00213514 -0.00358069 -0.00243759  0.00399943 -0.00509542 -0.00327921  0.00600144 -0.0066945 -0.00386047  0.00803789 -0.00846553 -0.00423241  0.0100553 -0.010461 -0.0044508  0.0120262 -0.0127079 -0.00454664  0.0139359 -0.0152212 -0.00457096  0.0157775 -0.0179949 -0.00453711  0.0175453 -0.0210281 -0.00446033  0.0192394 -0.0243089 -0.00436115  0.0208583 -0.0278314 -0.00424194  0.0224013 -0.0315891 -0.00410128  0.0238692 -0.0355697 -0.00395393  0.0252622 -0.0397601 -0.00380325  0.0265809 -0.0441527 -0.00364876  0.0278265 -0.0487404 -0.00350809  0.029 -0.0535066 -0.00335884  0.030103 -0.0584518 -0.00321245  0.0311373 -0.0635611 -0.00307035  0.0321051 -0.0688286 -0.00293589  0.033007 -0.0742427 -0.00280666  0.0338429 -0.0798037 -0.00267076  0.0346164 -0.0854986 -0.00254488  0.0353286 -0.0913167 -0.00242138  0.035982 -0.0972575 -0.00229549  0.0365772 -0.103309 -0.00217724  0.0371145 -0.109469 -0.00205898  0.0375963 -0.115725 -0.00194693  0.038025 -0.122074 -0.00184393  0.0384027 -0.128509 -0.00173187  0.0387306 -0.135026 -0.00163794  0.039011 -0.141619 -0.00153399  0.0392444 -0.148282 -0.0014348  0.039433 -0.155009 -0.00133991  0.0395792 -0.161792 -0.00124645  0.0396836 -0.168631 -0.00115967  0.0397482 -0.175521 -0.00106859  0.0397739 -0.182454 -0.000978947  0.0397642 -0.189428 -0.000890255  0.0397208 -0.196437 -0.000811577  0.0396457 -0.203479 -0.000736713  0.0395398 -0.210549 -0.000664234  0.0394056 -0.217641 -0.000605583  0.0392423 -0.224755 -0.000541687  0.0390525 -0.231888 -0.000484943  0.0388391 -0.239033 -0.000432014  0.0386031 -0.246192 -0.000376701  0.0383465 -0.25336 -0.000328064  0.0380707 -0.260534 -0.000277996  0.0377767 -0.267713 -0.000226498  0.0374651 -0.27489 -0.000184536  0.0371377 -0.282069 -0.000152588  0.0367966 -0.289244 -0.000114441  0.0364447 -0.296415 -8.72612e-05  0.0360808 -0.303585 -5.67436e-05  0.0357072 -0.310746 -2.67029e-05  0.0353262 -0.317897 3.8147e-06  0.0349393 -0.325039 2.67029e-05  0.0345454 -0.332173 5.00679e-05  0.0341475 -0.339301 6.86646e-05  0.0337477 -0.346417 8.34465e-05  0.0333474 -0.353527 0.000101089  0.0329475 -0.360631 0.000119686  0 0 0  0.0010508 -0.00293082 -0.00165892  0.00295292 -0.00472873 -0.00290155  0.00511985 -0.00626266 -0.0038166  0.0073902 -0.00783712 -0.00445986  0.00968546 -0.00957358 -0.00487804  0.0119612 -0.0115322 -0.00512218  0.0141892 -0.0137478 -0.00524139  0.016354 -0.0162296 -0.00526428  0.0184469 -0.0189736 -0.00521755  0.0204626 -0.0219838 -0.00513744  0.022397 -0.0252429 -0.0050149  0.0242474 -0.0287438 -0.00488234  0.0260141 -0.0324854 -0.00471878  0.0276971 -0.0364473 -0.00455046  0.0292962 -0.0406217 -0.00437164  0.0308137 -0.0449978 -0.00420237  0.0322479 -0.0495724 -0.00402927  0.033602 -0.0543231 -0.0038619  0.0348773 -0.0592539 -0.0036974  0.0360768 -0.0643497 -0.00353575  0.0372021 -0.0696031 -0.00337982  0.0382541 -0.0750046 -0.0032258  0.0392337 -0.0805528 -0.00307798  0.0401428 -0.0862341 -0.0029273  0.0409846 -0.0920415 -0.00278473  0.0417608 -0.0979693 -0.0026412  0.0424705 -0.104009 -0.00250292  0.0431166 -0.110157 -0.00237179  0.043702 -0.116402 -0.00224257  0.0442284 -0.122739 -0.00211287  0.0446972 -0.129162 -0.00199699  0.0451097 -0.135666 -0.00187826  0.0454683 -0.14225 -0.00176764  0.0457764 -0.148902 -0.00164747  0.0460343 -0.155618 -0.00154257  0.046243 -0.162392 -0.00143433  0.0464048 -0.169219 -0.00133419  0.0465231 -0.176099 -0.00122643  0.0466018 -0.183022 -0.00112057  0.0466397 -0.189986 -0.00102425  0.0466373 -0.196987 -0.00093174  0.0465968 -0.204018 -0.000850201  0.0465224 -0.211078 -0.000766754  0.0464175 -0.21816 -0.000689507  0.0462818 -0.225265 -0.000624657  0.0461159 -0.232388 -0.000557423  0.0459206 -0.239524 -0.000502586  0.0457006 -0.246673 -0.000436306  0.0454574 -0.253836 -0.000375271  0.0451922 -0.261 -0.000321388  0.0449047 -0.268173 -0.000264645  0.0445983 -0.275344 -0.000216484  0.0442741 -0.282515 -0.000176907  0.043936 -0.289684 -0.000139236  0.0435836 -0.296849 -0.000102997  0.0432191 -0.304014 -6.53267e-05  0.0428443 -0.31117 -3.57628e-05  0.0424607 -0.318315 -5.72205e-06  0.0420675 -0.325456 2.28882e-05  0.0416696 -0.332584 4.673e-05  0.0412681 -0.33971 6.91414e-05  0.0408649 -0.346826 8.39233e-05  0.0404603 -0.353937 9.63211e-05  0.0400567 -0.361043 0.000114918  0 0 0  -0.00105829 -0.00244529 0.0022192  -0.00295292 -0.00391471 0.00381899  -0.00512272 -0.0052312 0.00496769  -0.00739786 -0.00660241 0.00573921  -0.00969258 -0.00815706 0.00621557  -0.0119661 -0.00995773 0.00647879  -0.014198 -0.0120318 0.00657892  -0.0163783 -0.0143768 0.00658083  -0.0185035 -0.0169942 0.00650024  -0.0205742 -0.0198693 0.00636768  -0.0225908 -0.0230032 0.00618935  -0.0245522 -0.0263761 0.00599003  -0.0264583 -0.0299747 0.00576878  -0.0283102 -0.0337961 0.0055418  -0.0301085 -0.037827 0.00531197  -0.0318549 -0.0420572 0.00508499  -0.033551 -0.0464712 0.0048604  -0.0351977 -0.0510713 0.00464821  -0.0367956 -0.0558408 0.00444031  -0.0383449 -0.0607789 0.0042367  -0.0398461 -0.0658749 0.00403929  -0.0413003 -0.0711222 0.00384283  -0.0427088 -0.0765116 0.00366497  -0.0440731 -0.082035 0.00349331  -0.0453959 -0.0876911 0.00331879  -0.0466752 -0.0934712 0.00314665  -0.0479121 -0.0993692 0.00298405  -0.0491087 -0.105375 0.0028224  -0.0502671 -0.111485 0.00266504  -0.0513898 -0.117695 0.00251245  -0.0524734 -0.123995 0.00236607  -0.0535194 -0.130386 0.00222301  -0.0545292 -0.13685 0.0020833  -0.0555046 -0.143392 0.00195599  -0.0564468 -0.150007 0.00183535  -0.0573556 -0.156689 0.00171471  -0.0582306 -0.163426 0.00159025  -0.0590751 -0.170224 0.00147438  -0.0598893 -0.177072 0.00136852  -0.060674 -0.183965 0.00126028  -0.061429 -0.190901 0.00116158  -0.0621562 -0.197875 0.00106478  -0.0628576 -0.204882 0.000972748  -0.0635335 -0.211921 0.000888824  -0.0641849 -0.218987 0.00080204  -0.0648117 -0.226074 0.000719547  -0.0654163 -0.23318 0.000646591  -0.0660002 -0.240299 0.000586033  -0.0665646 -0.247434 0.00052309  -0.0671091 -0.254576 0.0004673  -0.0676351 -0.261728 0.000414371  -0.0681436 -0.268889 0.000367165  -0.0686362 -0.276048 0.000315666  -0.0691149 -0.283215 0.000272274  -0.0695775 -0.290378 0.000232697  -0.0700281 -0.297538 0.000211716  -0.0704687 -0.304694 0.000185013  -0.0708978 -0.311844 0.000160217  -0.0713184 -0.318985 0.000137329  -0.0717337 -0.326118 0.000119686  -0.0721424 -0.333243 0.000110626  -0.0725489 -0.34036 9.67979e-05  -0.0729561 -0.34747 0.000102043  -0.0733633 -0.354579 9.39369e-05  0 0 0  -0.000663843 -0.00155771 0.00172615  -0.00216627 -0.00286631 0.00317717  -0.00402163 -0.0041494 0.0042057  -0.00600451 -0.00554522 0.0048933  -0.00801358 -0.00714344 0.00532055  -0.0100019 -0.00899508 0.00555515  -0.0119502 -0.011118 0.00564384  -0.0138533 -0.0135133 0.00565147  -0.0157115 -0.0161771 0.00558376  -0.0175247 -0.0190989 0.00546741  -0.0192926 -0.0222759 0.00532675  -0.0210162 -0.0256912 0.00515318  -0.0226959 -0.0293327 0.00497007  -0.0243323 -0.0331946 0.00477171  -0.0259257 -0.0372654 0.00457668  -0.0274759 -0.0415347 0.00438404  -0.0289842 -0.0459919 0.00419092  -0.0304525 -0.0506293 0.004004  -0.0318797 -0.0554395 0.00382662  -0.0332665 -0.0604161 0.00365114  -0.0346129 -0.0655482 0.00347853  -0.0359205 -0.0708335 0.00331926  -0.037191 -0.0762601 0.00316143  -0.0384252 -0.0818201 0.00301218  -0.0396223 -0.0875103 0.00286579  -0.040784 -0.0933243 0.00271702  -0.0419111 -0.0992551 0.00257683  -0.0430032 -0.10529 0.00243282  -0.0440636 -0.111433 0.00230122  -0.0450906 -0.117673 0.00217056  -0.0460868 -0.124003 0.00204182  -0.0470519 -0.130418 0.00191879  -0.0479856 -0.136912 0.00179672  -0.0488899 -0.143478 0.00169182  -0.049768 -0.150119 0.00158739  -0.0506182 -0.156823 0.00147772  -0.0514388 -0.163583 0.00138187  -0.0522318 -0.170401 0.00128222  -0.0529993 -0.17727 0.00118065  -0.0537424 -0.184183 0.00109768  -0.0544624 -0.191137 0.00101042  -0.0551581 -0.198127 0.000930309  -0.0558298 -0.205151 0.000850201  -0.0564806 -0.212205 0.000769615  -0.057111 -0.219284 0.000698566  -0.0577199 -0.226382 0.000636578  -0.0583096 -0.2335 0.000571728  -0.0588796 -0.240634 0.000521183  -0.0594313 -0.247778 0.000466347  -0.0599663 -0.25493 0.000415802  -0.0604868 -0.262092 0.000371933  -0.0609925 -0.269258 0.000330925  -0.0614827 -0.276426 0.000290871  -0.0619597 -0.283598 0.000250816  -0.0624263 -0.290766 0.000223637  -0.0628815 -0.297931 0.000197887  -0.0633254 -0.30509 0.000179291  -0.0637598 -0.312241 0.000153065  -0.0641863 -0.319387 0.000132084  -0.0646067 -0.326522 0.000122547  -0.0650229 -0.333647 0.000106812  -0.0654347 -0.340763 9.77516e-05  -0.0658433 -0.347872 9.9659e-05  -0.0662506 -0.354979 9.34601e-05  0 0 0  -0.000521068 -0.000972264 0.00146818  -0.00167637 -0.00202318 0.00263882  -0.00317951 -0.00322063 0.00351238  -0.00483158 -0.00461173 0.00410366  -0.00652674 -0.00624011 0.00447321  -0.00821698 -0.00813449 0.00467968  -0.00988027 -0.0103017 0.00476599  -0.0115093 -0.0127427 0.00477409  -0.0131017 -0.0154489 0.00472116  -0.0146568 -0.0184136 0.00462151  -0.0161771 -0.0216298 0.00450087  -0.0176631 -0.025084 0.00436115  -0.0191149 -0.028764 0.0042038  -0.0205331 -0.032663 0.0040369  -0.0219177 -0.0367702 0.00387287  -0.0232691 -0.0410746 0.00370836  -0.0245867 -0.0455705 0.0035491  -0.0258706 -0.0502432 0.00339651  -0.0271226 -0.0550907 0.0032382  -0.028343 -0.0601017 0.00308657  -0.0295315 -0.0652697 0.00294352  -0.0306902 -0.0705874 0.00280523  -0.0318179 -0.0760475 0.00267363  -0.0329154 -0.0816421 0.00255156  -0.0339842 -0.087363 0.00243139  -0.0350256 -0.09321 0.0023036  -0.0360374 -0.099168 0.00218153  -0.037021 -0.105234 0.00206041  -0.0379781 -0.111406 0.00195026  -0.0389098 -0.117673 0.00183821  -0.039816 -0.12403 0.00172806  -0.0406969 -0.130469 0.00162411  -0.0415533 -0.136989 0.00152254  -0.0423849 -0.143579 0.00143385  -0.0431924 -0.150242 0.00134516  -0.043978 -0.156967 0.00126696  -0.0447409 -0.16375 0.00117922  -0.0454819 -0.170587 0.00109673  -0.0462008 -0.177475 0.00101328  -0.0468993 -0.184405 0.000933647  -0.0475783 -0.191376 0.000866413  -0.048238 -0.198382 0.000798702  -0.0488791 -0.205422 0.000727177  -0.0495005 -0.21249 0.000658512  -0.0501032 -0.219581 0.000598907  -0.0506887 -0.226692 0.000549316  -0.0512581 -0.23382 0.000497341  -0.0518115 -0.240966 0.000445366  -0.0523481 -0.248118 0.000406742  -0.0528708 -0.255281 0.00036478  -0.0533803 -0.262451 0.000330448  -0.0538769 -0.269624 0.000292301  -0.0543623 -0.276799 0.000256538  -0.0548379 -0.283976 0.000231266  -0.0553033 -0.291149 0.000208378  -0.0557582 -0.298318 0.000179768  -0.0562029 -0.305481 0.000163078  -0.0566397 -0.312636 0.000150204  -0.0570705 -0.319784 0.00013113  -0.0574944 -0.326922 0.000115395  -0.0579123 -0.334047 0.000109673  -0.0583267 -0.341163 9.91821e-05  -0.058737 -0.348272 8.86917e-05  -0.0591464 -0.355376 8.15392e-05  0 0 0  -0.000397705 -0.000567853 0.0012331  -0.00129796 -0.00139417 0.00218534  -0.00248604 -0.00248384 0.00288343  -0.00381501 -0.00384566 0.00336599  -0.00519711 -0.00548594 0.00367737  -0.00658664 -0.00740921 0.0038476  -0.0079622 -0.00961164 0.00393009  -0.00931528 -0.0120898 0.00392914  -0.0106432 -0.0148325 0.00388718  -0.0119459 -0.0178341 0.00380945  -0.0132207 -0.0210832 0.00370598  -0.0144678 -0.0245728 0.00358582  -0.0156891 -0.0282854 0.00345659  -0.0168864 -0.0322185 0.00332737  -0.0180596 -0.0363565 0.00318956  -0.0192079 -0.0406942 0.00305891  -0.0203308 -0.0452219 0.00292969  -0.0214301 -0.0499279 0.00279856  -0.0225062 -0.0548077 0.00267458  -0.023559 -0.0598497 0.0025444  -0.0245872 -0.0650496 0.00242424  -0.0255901 -0.0703966 0.00231171  -0.0265713 -0.0758872 0.0022006  -0.0275304 -0.0815112 0.00210428  -0.0284677 -0.0872628 0.00200272  -0.0293831 -0.0931363 0.00190115  -0.0302765 -0.0991212 0.00180149  -0.0311497 -0.105215 0.00170469  -0.0320036 -0.111412 0.0016098  -0.0328358 -0.117704 0.00151873  -0.0336481 -0.124085 0.0014267  -0.0344418 -0.130548 0.00133801  -0.0352149 -0.137088 0.00125885  -0.0359685 -0.143704 0.00118256  -0.0367057 -0.150385 0.00111532  -0.0374248 -0.157131 0.00104618  -0.0381253 -0.163934 0.000973701  -0.0388081 -0.170789 0.000904083  -0.039474 -0.177692 0.000840187  -0.0401227 -0.184639 0.000776291  -0.0407572 -0.191626 0.000723839  -0.0413775 -0.198646 0.00066328  -0.0419834 -0.205699 0.000609398  -0.0425744 -0.21278 0.000549793  -0.043149 -0.219882 0.000510216  -0.0437095 -0.227006 0.000467777  -0.0442562 -0.234144 0.000426292  -0.0447893 -0.241299 0.000374794  -0.0453098 -0.24846 0.000337601  -0.0458195 -0.255631 0.000310421  -0.0463185 -0.262808 0.000277519  -0.0468056 -0.269988 0.000256062  -0.0472822 -0.277172 0.00023222  -0.0477498 -0.284351 0.000207424  -0.048209 -0.291529 0.000186443  -0.0486605 -0.298702 0.000170231  -0.049104 -0.30587 0.000151157  -0.04954 -0.313028 0.000133991  -0.0499694 -0.320179 0.000129223  -0.0503933 -0.327318 0.000111103  -0.0508115 -0.334446 0.000109196  -0.0512245 -0.341561 9.39369e-05  -0.0516353 -0.34867 8.34465e-05  -0.0520449 -0.355771 7.48634e-05  0 0 0  -0.00029856 -0.000291586 0.000994682  -0.000976518 -0.000939041 0.00174141  -0.00188464 -0.00193007 0.00229788  -0.00291182 -0.0032537 0.00267076  -0.00399131 -0.00489138 0.00291109  -0.00508606 -0.0068309 0.00305223  -0.00617778 -0.00905979 0.00311184  -0.00725618 -0.0115654 0.00311565  -0.00831801 -0.0143388 0.00307941  -0.00936335 -0.0173708 0.00301075  -0.0103907 -0.0206484 0.00293255  -0.0113998 -0.0241669 0.00283241  -0.0123917 -0.0279085 0.00273228  -0.0133679 -0.0318702 0.00263023  -0.0143278 -0.0360349 0.00252533  -0.015272 -0.0404021 0.00242376  -0.0161995 -0.0449563 0.00231743  -0.0171103 -0.0496912 0.00221777  -0.0180061 -0.0545996 0.0021143  -0.0188854 -0.0596699 0.00201893  -0.0197492 -0.0648968 0.00191975  -0.0205982 -0.0702704 0.00183105  -0.0214317 -0.0757869 0.00174046  -0.0222499 -0.0814378 0.00166225  -0.0230522 -0.0872156 0.00158024  -0.0238385 -0.0931122 0.00150251  -0.0246109 -0.0991217 0.00142622  -0.0253698 -0.105241 0.00134897  -0.0261146 -0.11146 0.00127602  -0.0268447 -0.117774 0.001194  -0.0275611 -0.124175 0.00112247  -0.0282627 -0.130659 0.00105572  -0.0289514 -0.13722 0.00099802  -0.0296278 -0.143855 0.000936985  -0.0302896 -0.150556 0.000885487  -0.0309391 -0.157318 0.000826836  -0.0315762 -0.164139 0.000771523  -0.0322006 -0.17101 0.000717163  -0.0328126 -0.177928 0.000674248  -0.0334134 -0.184889 0.000621319  -0.0340009 -0.191888 0.00057745  -0.0345776 -0.198923 0.000531673  -0.0351431 -0.205986 0.000489235  -0.035696 -0.213079 0.000444889  -0.0362387 -0.220192 0.000412941  -0.0367723 -0.227326 0.0003829  -0.0372946 -0.234474 0.000347137  -0.0378067 -0.241636 0.000307083  -0.0383084 -0.248805 0.000281334  -0.0387993 -0.255985 0.000254631  -0.0392809 -0.263168 0.00023365  -0.0397558 -0.270354 0.000212193  -0.0402236 -0.277544 0.000196457  -0.0406816 -0.284726 0.000173092  -0.0411334 -0.291909 0.000163078  -0.0415797 -0.299086 0.000153542  -0.0420196 -0.306257 0.000136375  -0.0424523 -0.313418 0.000126839  -0.0428801 -0.320573 0.000119209  -0.0433023 -0.327712 0.000106812  -0.0437207 -0.334841 9.53674e-05  -0.0441358 -0.341958 9.05991e-05  -0.0445478 -0.349067 8.2016e-05  -0.0449572 -0.35616 7.00951e-05  0 0 0  -0.000211913 -0.000107944 0.000752926  -0.000694096 -0.00062567 0.00131035  -0.00134574 -0.00153759 0.00172043  -0.00208956 -0.00282472 0.00198984  -0.00287795 -0.00445428 0.00216818  -0.00368455 -0.00640199 0.00226974  -0.0044941 -0.00864857 0.00231457  -0.00529924 -0.0111753 0.00231695  -0.00609744 -0.0139723 0.002285  -0.0068872 -0.0170283 0.00224113  -0.0076673 -0.0203311 0.00217438  -0.0084371 -0.0238709 0.0021019  -0.00919729 -0.0276385 0.00202847  -0.0099507 -0.0316224 0.00195456  -0.0106971 -0.0358118 0.00188065  -0.0114346 -0.0402025 0.00179863  -0.012163 -0.0447806 0.00172043  -0.0128851 -0.0495399 0.00164366  -0.013599 -0.0544716 0.00156498  -0.0143051 -0.0595661 0.00149012  -0.0150032 -0.0648161 0.00141954  -0.0156924 -0.0702129 0.00135231  -0.0163739 -0.075752 0.00129318  -0.0170476 -0.0814259 0.00123167  -0.0177131 -0.0872258 0.00117207  -0.0183713 -0.0931434 0.00111628  -0.0190221 -0.0991746 0.00105762  -0.0196643 -0.105313 0.00100231  -0.0202979 -0.111553 0.000939369  -0.0209233 -0.117886 0.00088501  -0.0215412 -0.124306 0.000829697  -0.0221508 -0.130808 0.000781536  -0.0227516 -0.137388 0.000733852  -0.023344 -0.144039 0.000694752  -0.0239313 -0.150757 0.000653267  -0.0245116 -0.157533 0.000613689  -0.0250833 -0.164369 0.000570774  -0.0256464 -0.171253 0.000538349  -0.0262008 -0.178185 0.000501156  -0.026747 -0.185159 0.000467777  -0.027287 -0.192169 0.000430584  -0.0278187 -0.199216 0.000397682  -0.0283422 -0.206288 0.000365257  -0.0288594 -0.21339 0.000342846  -0.0293691 -0.220514 0.000319481  -0.0298705 -0.227654 0.000291824  -0.0303643 -0.234813 0.000259876  -0.0308506 -0.24198 0.00024128  -0.0313308 -0.249158 0.000217915  -0.0318048 -0.256343 0.000202656  -0.0322723 -0.263533 0.000185966  -0.0327327 -0.270724 0.000170231  -0.0331879 -0.277918 0.000156403  -0.0336375 -0.285105 0.000148773  -0.0340812 -0.292291 0.000141621  -0.0345194 -0.299471 0.000128269  -0.0349531 -0.306645 0.000120163  -0.0353827 -0.313809 0.000119209  -0.0358062 -0.320964 0.000108242  -0.0362258 -0.328106 9.87053e-05  -0.0366418 -0.335236 9.58443e-05  -0.037055 -0.342354 9.44138e-05  -0.0374644 -0.349462 8.53539e-05  -0.0378723 -0.35655 7.48634e-05  0 0 0  -0.000133436 4.64916e-06 0.000498772  -0.000437602 -0.000428766 0.000867367  -0.000849754 -0.00128454 0.00114155  -0.00132419 -0.00254521 0.00132036  -0.00183335 -0.00416711 0.0014348  -0.0023593 -0.0061197 0.00150442  -0.00289029 -0.00837624 0.00153494  -0.00342187 -0.0109209 0.00153065  -0.00395358 -0.0137338 0.00151491  -0.00448596 -0.0168099 0.00147438  -0.00501812 -0.0201319 0.00143576  -0.00554872 -0.0236893 0.00138664  -0.00607908 -0.0274767 0.00133562  -0.00660956 -0.0314789 0.00128365  -0.0071404 -0.0356887 0.00123405  -0.00767207 -0.0400991 0.0011816  -0.00820315 -0.0446964 0.0011301  -0.00873327 -0.0494763 0.00107336  -0.00926375 -0.0544267 0.00102711  -0.00979328 -0.0595404 0.000976562  -0.0103221 -0.0648102 0.000928402  -0.0108517 -0.0702279 0.000882149  -0.0113806 -0.0757858 0.000843525  -0.0119085 -0.081479 0.000802517  -0.0124372 -0.0872977 0.000771046  -0.012965 -0.0932338 0.000730515  -0.0134901 -0.099283 0.000687122  -0.0140134 -0.105439 0.000651836  -0.0145354 -0.111694 0.000615597  -0.0150554 -0.118045 0.000581741  -0.0155723 -0.12448 0.000547409  -0.0160871 -0.130998 0.000513077  -0.0166004 -0.137592 0.000480652  -0.0171108 -0.144258 0.000458717  -0.0176191 -0.150989 0.000427723  -0.0181255 -0.157779 0.000398636  -0.0186298 -0.164626 0.000378609  -0.0191302 -0.171523 0.000354767  -0.0196259 -0.178464 0.000327587  -0.0201182 -0.18545 0.000307083  -0.0206077 -0.19247 0.000290871  -0.0210931 -0.199526 0.000266075  -0.0215752 -0.206608 0.000251293  -0.022054 -0.213717 0.000230312  -0.0225277 -0.220849 0.000221729  -0.0229971 -0.227995 0.000204563  -0.023463 -0.235161 0.000188351  -0.0239234 -0.242335 0.000165939  -0.0243795 -0.249519 0.000154495  -0.0248322 -0.256709 0.000143528  -0.0252807 -0.263903 0.000137806  -0.0257261 -0.2711 0.000125885  -0.0261691 -0.278295 0.000125408  -0.0266063 -0.285489 0.000111103  -0.0270386 -0.292675 0.00011158  -0.0274689 -0.29986 0.000109196  -0.0278955 -0.307034 0.000101566  -0.0283186 -0.314201 0.000100136  -0.0287395 -0.321357 0.000100613  -0.0291562 -0.328502 9.72748e-05  -0.0295691 -0.335633 9.20296e-05  -0.0299799 -0.342751 9.25064e-05  -0.0303876 -0.349855 8.34465e-05  -0.0307913 -0.356941 8.01086e-05  0 0 0  -5.87143e-05 6.00815e-05 0.000246048  -0.000193179 -0.000330627 0.000431061  -0.000379458 -0.0011571 0.000563145  -0.0005963 -0.00240311 0.000655651  -0.000831068 -0.00402251 0.000705719  -0.00107765 -0.0059793 0.000741005  -0.00133312 -0.00824428 0.00075531  -0.001596 -0.0108001 0.000758171  -0.00186503 -0.0136261 0.000744343  -0.002141 -0.0167156 0.000725269  -0.00242442 -0.0200521 0.000706673  -0.00271457 -0.0236236 0.0006814  -0.00301206 -0.0274255 0.000654697  -0.00331932 -0.0314425 0.00062418  -0.00363547 -0.0356682 0.000591755  -0.00395828 -0.0400932 0.000565529  -0.00428867 -0.0447065 0.000537872  -0.0046277 -0.0495021 0.000519753  -0.00497389 -0.0544678 0.000492096  -0.00532877 -0.0595973 0.000468254  -0.00569093 -0.0648839 0.000442028  -0.00605845 -0.0703169 0.000422001  -0.00643444 -0.0758921 0.000403404  -0.00681758 -0.0815997 0.000389099  -0.00720584 -0.0874337 0.000370026  -0.00759947 -0.093385 0.000348091  -0.00799882 -0.0994486 0.000328064  -0.00840318 -0.105618 0.000308514  -0.00881219 -0.111888 0.000293732  -0.00922394 -0.118251 0.000275612  -0.00964105 -0.1247 0.000256538  -0.0100616 -0.13123 0.000245571  -0.0104845 -0.137837 0.00023222  -0.0109115 -0.144513 0.000219822  -0.0113409 -0.151255 0.000199795  -0.0117722 -0.158056 0.000188351  -0.0122063 -0.164913 0.000180244  -0.0126419 -0.17182 0.000169277  -0.0130777 -0.17877 0.000160217  -0.0135162 -0.185765 0.000153065  -0.0139534 -0.192793 0.000142097  -0.0143907 -0.199856 0.000133991  -0.0148287 -0.206946 0.000124931  -0.0152676 -0.214061 0.000121593  -0.0157063 -0.221198 0.000121117  -0.0161428 -0.228352 0.000108242  -0.0165782 -0.235522 0.00010252  -0.0170124 -0.242702 9.77516e-05  -0.0174446 -0.24989 9.44138e-05  -0.0178757 -0.257082 8.63075e-05  -0.0183058 -0.264281 8.10623e-05  -0.0187345 -0.271482 7.9155e-05  -0.0191612 -0.278679 8.24928e-05  -0.0195861 -0.285876 8.67844e-05  -0.0200086 -0.293065 7.86781e-05  -0.0204296 -0.300251 8.34465e-05  -0.020848 -0.307426 8.15392e-05  -0.0212646 -0.314597 8.96454e-05  -0.0216789 -0.321753 8.72612e-05  -0.0220912 -0.328899 8.91685e-05  -0.0225005 -0.336032 8.96454e-05  -0.0229077 -0.343151 9.05991e-05  -0.023313 -0.350252 8.91685e-05  -0.0237174 -0.357337 8.72612e-05  0 0 0  1.25244e-05 6.71744e-05 -9.53674e-06  4.09782e-05 -0.000320077 -1.62125e-05  7.68304e-05 -0.00114486 -1.33514e-05  0.000113338 -0.00239098 -1.52588e-05  0.000146836 -0.00401327 -1.28746e-05  0.000174135 -0.00597632 -1.95503e-05  0.000193357 -0.00824943 -2.3365e-05  0.000201285 -0.0108122 -2.47955e-05  0.000195086 -0.0136484 -2.14577e-05  0.000174463 -0.0167467 -2.28882e-05  0.000140309 -0.0200913 -2.57492e-05  9.04799e-05 -0.0236748 -2.81334e-05  2.40207e-05 -0.0274854 -2.71797e-05  -5.85318e-05 -0.0315141 -3.29018e-05  -0.000157893 -0.0357514 -3.95775e-05  -0.000273764 -0.0401858 -4.673e-05  -0.000404835 -0.0448114 -4.48227e-05  -0.000551939 -0.0496197 -4.673e-05  -0.000714064 -0.0545955 -4.00543e-05  -0.000890732 -0.0597393 -3.86238e-05  -0.00108397 -0.0650379 -3.95775e-05  -0.00129306 -0.0704833 -4.05312e-05  -0.00151515 -0.07607 -3.95775e-05  -0.00175023 -0.0817899 -3.62396e-05  -0.00199759 -0.0876346 -3.43323e-05  -0.00225699 -0.0935977 -2.71797e-05  -0.00252903 -0.0996741 -2.71797e-05  -0.00281274 -0.105853 -3.19481e-05  -0.00310981 -0.112135 -2.90871e-05  -0.00341713 -0.118507 -3.19481e-05  -0.00373197 -0.124966 -2.67029e-05  -0.00405598 -0.131507 -2.76566e-05  -0.00439 -0.138124 -1.7643e-05  -0.00473261 -0.144809 -1.71661e-05  -0.00508189 -0.151557 -2.43187e-05  -0.00543737 -0.158368 -1.90735e-05  -0.00579977 -0.165233 -1.7643e-05  -0.00617051 -0.172148 -8.58307e-06  -0.00654769 -0.179105 -8.58307e-06  -0.00692797 -0.186104 -4.76837e-06  -0.00731349 -0.19314 4.76837e-07  -0.0077033 -0.200207 -9.53674e-07  -0.00809574 -0.207304 1.00136e-05  -0.00849342 -0.214424 1.19209e-05  -0.0088954 -0.221564 1.43051e-05  -0.00929904 -0.228722 2.0504e-05  -0.0097034 -0.235897 2.3365e-05  -0.010108 -0.24308 2.43187e-05  -0.010515 -0.250272 2.52724e-05  -0.0109243 -0.257467 2.43187e-05  -0.0113354 -0.264668 2.95639e-05  -0.0117474 -0.27187 4.05312e-05  -0.0121586 -0.279071 4.33922e-05  -0.0125692 -0.28627 5.67436e-05  -0.01298 -0.293462 5.91278e-05  -0.0133903 -0.300646 5.76973e-05  -0.0138011 -0.307824 6.67572e-05  -0.0142126 -0.314995 7.48634e-05  -0.0146222 -0.322151 7.24792e-05  -0.0150306 -0.329299 8.44002e-05  -0.0154362 -0.336432 8.91685e-05  -0.0158405 -0.343551 9.20296e-05  -0.0162439 -0.350652 9.44138e-05  -0.0166445 -0.357737 0.000101089  0 0 0  8.35806e-05 2.71797e-05 -0.000268936  0.000275239 -0.000392854 -0.00045681  0.000532106 -0.0012427 -0.000591278  0.000822544 -0.00250471 -0.000678539  0.00112551 -0.00413901 -0.000739098  0.00142676 -0.00610989 -0.000778675  0.00171909 -0.00838888 -0.000790119  0.00199628 -0.0109562 -0.000793457  0.00225365 -0.0137981 -0.000787735  0.00248826 -0.0169023 -0.000772476  0.00269949 -0.0202501 -0.000758648  0.00288874 -0.02384 -0.000730991  0.00305426 -0.0276564 -0.000714302  0.00319505 -0.0316921 -0.000694752  0.00331277 -0.0359368 -0.000669003  0.00340581 -0.040379 -0.000648975  0.0034734 -0.0450124 -0.000623703  0.00351763 -0.0498274 -0.000598907  0.00353861 -0.0548133 -0.000571251  0.00353622 -0.0599637 -0.000546932  0.00351214 -0.0652718 -0.000527382  0.00346673 -0.0707266 -0.000505924  0.00339997 -0.0763211 -0.000482559  0.00331318 -0.0820487 -0.000456333  0.00320613 -0.0879028 -0.000430584  0.00307739 -0.0938751 -0.000409603  0.00293005 -0.0999588 -0.000391483  0.00276613 -0.106147 -0.000375271  0.00258446 -0.112435 -0.000350475  0.00238752 -0.118815 -0.000332832  0.00217474 -0.125281 -0.000315189  0.00194573 -0.131829 -0.000293732  0.00170183 -0.138453 -0.000272751  0.0014441 -0.145145 -0.000262737  0.00117445 -0.151899 -0.00024271  0.000892401 -0.158716 -0.000224113  0.000599623 -0.165586 -0.000213623  0.000295401 -0.172506 -0.000189781  -1.93119e-05 -0.17947 -0.000173569  -0.000344515 -0.18647 -0.000160217  -0.000677347 -0.193512 -0.000142097  -0.00101781 -0.200582 -0.000123501  -0.00136781 -0.207683 -0.000114441  -0.00172424 -0.214806 -9.87053e-05  -0.00208592 -0.221949 -8.63075e-05  -0.00245285 -0.229111 -6.34193e-05  -0.00282645 -0.236287 -4.95911e-05  -0.00320506 -0.243472 -4.33922e-05  -0.00358963 -0.250666 -4.05312e-05  -0.00397706 -0.257864 -3.24249e-05  -0.00436735 -0.265065 -1.19209e-05  -0.00476003 -0.272269 -5.72205e-06  -0.00515699 -0.279472 1.14441e-05  -0.00555611 -0.286669 2.71797e-05  -0.0059557 -0.293864 3.57628e-05  -0.00635624 -0.301046 4.00543e-05  -0.00675964 -0.308227 4.673e-05  -0.00716186 -0.315395 5.43594e-05  -0.00756454 -0.322555 6.96182e-05  -0.00796771 -0.329702 7.29561e-05  -0.00837088 -0.336836 8.39233e-05  -0.00877333 -0.343954 8.91685e-05  -0.00917268 -0.351056 9.91821e-05  -0.00957155 -0.358141 0.000107765  0 0 0  0.000156812 -6.27041e-05 -0.000524998  0.000515491 -0.000552952 -0.000896931  0.000999525 -0.0014531 -0.00116587  0.00154752 -0.00274676 -0.00134373  0.00212082 -0.00440097 -0.00145769  0.002698 -0.00637984 -0.00152159  0.00326464 -0.00866401 -0.00155878  0.00381064 -0.0112327 -0.00156355  0.00432986 -0.0140761 -0.00155115  0.00482029 -0.0171793 -0.00152159  0.00528026 -0.0205293 -0.00148392  0.00570762 -0.0241197 -0.00144863  0.00610358 -0.0279385 -0.00139904  0.0064671 -0.0319773 -0.00134754  0.00679815 -0.0362248 -0.00129938  0.0070976 -0.0406716 -0.00125074  0.00736547 -0.0453086 -0.00120497  0.00760067 -0.0501267 -0.00115442  0.00780427 -0.0551192 -0.00110626  0.00797832 -0.0602734 -0.00105715  0.00812376 -0.065586 -0.00101042  0.00823927 -0.0710474 -0.000968933  0.0083257 -0.0766458 -0.000922203  0.00838351 -0.0823782 -0.000875473  0.00841475 -0.0882384 -0.000833511  0.0084219 -0.0942158 -0.000794411  0.00840247 -0.100306 -0.000752926  0.00835693 -0.1065 -0.000714302  0.00828886 -0.112791 -0.000680447  0.00819993 -0.119175 -0.000641823  0.00808918 -0.125647 -0.000601292  0.00795722 -0.132199 -0.000561714  0.00780535 -0.138827 -0.000533104  0.00763392 -0.145522 -0.000501633  0.00744367 -0.152281 -0.000465393  0.00723624 -0.159101 -0.000431061  0.00701308 -0.165975 -0.000402927  0.00677323 -0.172898 -0.00037241  0.00651884 -0.179864 -0.00034523  0.00625205 -0.186867 -0.000309944  0.00596929 -0.193911 -0.000280857  0.00567412 -0.200983 -0.000255585  0.00536871 -0.208084 -0.000229836  0.00505424 -0.21521 -0.000210285  0.00472856 -0.222354 -0.000181198  0.00439334 -0.229517 -0.000155926  0.00405002 -0.236692 -0.000132084  0.00369787 -0.243879 -0.000113964  0.00333929 -0.251072 -0.000105381  0.00297427 -0.258274 -8.29697e-05  0.00260568 -0.265474 -6.10352e-05  0.00222969 -0.272678 -4.00543e-05  0.00184822 -0.279879 -2.43187e-05  0.00146174 -0.287078 -6.19888e-06  0.00107169 -0.29427 1.09673e-05  0.000679731 -0.301454 2.09808e-05  0.000286102 -0.308632 3.38554e-05  -0.000108957 -0.315801 4.52995e-05  -0.000507116 -0.322961 5.76973e-05  -0.000906467 -0.330107 6.29425e-05  -0.0013063 -0.337241 7.34329e-05  -0.00170636 -0.344359 9.15527e-05  -0.00210667 -0.351462 0.000102997  -0.00250292 -0.358549 0.000109196  0 0 0  0.000233613 -0.00020808 -0.000768661  0.000769585 -0.000808537 -0.00132799  0.00148946 -0.00178391 -0.0017333  0.00230411 -0.00312299 -0.00200462  0.0031572 -0.00480068 -0.00217676  0.00401506 -0.0067876 -0.00227928  0.00485659 -0.00907445 -0.0023241  0.00567067 -0.011641 -0.00233841  0.00645149 -0.014481 -0.00231171  0.007195 -0.0175783 -0.00227737  0.00790083 -0.0209265 -0.00221777  0.00856793 -0.0245134 -0.00215483  0.00919247 -0.0283322 -0.00208616  0.00977647 -0.0323679 -0.00201464  0.0103215 -0.0366163 -0.00193691  0.0108266 -0.0410626 -0.00185919  0.0112926 -0.0456995 -0.00178337  0.0117195 -0.05052 -0.0017128  0.012107 -0.0555126 -0.00163841  0.0124561 -0.0606688 -0.00156736  0.0127667 -0.0659828 -0.00149775  0.0130417 -0.0714455 -0.00143766  0.0132824 -0.0770457 -0.00136709  0.0134872 -0.0827808 -0.00129414  0.013658 -0.0886427 -0.00123549  0.013796 -0.0946212 -0.00117302  0.0139021 -0.100715 -0.00111294  0.013978 -0.106911 -0.00105715  0.0140233 -0.113206 -0.00100422  0.0140406 -0.11959 -0.000951767  0.0140319 -0.126064 -0.000894547  0.0139961 -0.132617 -0.000836372  0.0139322 -0.139246 -0.000788689  0.013844 -0.145943 -0.000738621  0.0137341 -0.152704 -0.000692368  0.0136001 -0.159525 -0.000646591  0.0134444 -0.166398 -0.00059557  0.0132699 -0.173322 -0.000551224  0.013077 -0.180289 -0.0005126  0.0128651 -0.187293 -0.00046587  0.0126352 -0.194337 -0.000427246  0.012388 -0.201409 -0.000384808  0.0121257 -0.208511 -0.000345707  0.0118496 -0.215635 -0.000312328  0.0115595 -0.222778 -0.000279903  0.011256 -0.22994 -0.000246048  0.0109417 -0.237114 -0.000208855  0.0106175 -0.244299 -0.000188351  0.0102837 -0.251493 -0.000165939  0.0099411 -0.258693 -0.000136852  0.0095892 -0.265893 -0.000109673  0.00922823 -0.273096 -8.01086e-05  0.00886035 -0.280295 -5.72205e-05  0.0084877 -0.287491 -3.95775e-05  0.00811148 -0.294683 -2.14577e-05  0.00772977 -0.301868 1.43051e-06  0.00734234 -0.309043 1.62125e-05  0.00695086 -0.316212 3.14713e-05  0.00655675 -0.32337 4.3869e-05  0.00616121 -0.330515 5.91278e-05  0.00576425 -0.337648 7.29561e-05  0.00536656 -0.344767 8.72612e-05  0.00496864 -0.351872 0.000103951  0.00457096 -0.35896 0.000115395  0 0 0  0.000317283 -0.000422597 -0.00100756  0.00104558 -0.00117481 -0.00174999  0.00201999 -0.00224966 -0.00228739  0.0031144 -0.00364119 -0.00266266  0.00425306 -0.00534189 -0.00289679  0.00539392 -0.00733525 -0.00303984  0.00651395 -0.00961822 -0.00310707  0.007599 -0.0121785 -0.00311136  0.00864011 -0.0150099 -0.00307941  0.00963634 -0.0180985 -0.00302601  0.0105855 -0.0214401 -0.00295448  0.0114865 -0.0250192 -0.00287247  0.0123404 -0.0288329 -0.00277948  0.0131461 -0.032864 -0.00267601  0.013904 -0.0371076 -0.00257587  0.0146141 -0.0415515 -0.00247478  0.0152763 -0.0461856 -0.00237036  0.0158914 -0.0510041 -0.00226974  0.0164607 -0.0559936 -0.0021801  0.0169835 -0.0611491 -0.00208139  0.0174628 -0.0664608 -0.00198936  0.0178978 -0.0719222 -0.00190449  0.0182886 -0.0775207 -0.00181437  0.0186383 -0.0832552 -0.00172615  0.0189474 -0.0891156 -0.00163889  0.019218 -0.095094 -0.00155878  0.0194496 -0.101187 -0.00147676  0.0196437 -0.107383 -0.00140667  0.0198015 -0.113677 -0.00132942  0.0199246 -0.120059 -0.00125647  0.0200131 -0.126532 -0.00118256  0.0200689 -0.133084 -0.00111675  0.0200944 -0.139711 -0.00104237  0.0200908 -0.146407 -0.000975609  0.0200586 -0.153166 -0.000917912  0.0199978 -0.159987 -0.000854969  0.0199111 -0.166859 -0.000790119  0.0197985 -0.173778 -0.000736237  0.0196612 -0.180745 -0.000669479  0.0195041 -0.187748 -0.00061512  0.0193243 -0.194789 -0.000559807  0.0191238 -0.201859 -0.000506878  0.018904 -0.208959 -0.000459671  0.0186672 -0.216081 -0.000415325  0.0184128 -0.223222 -0.000375748  0.0181427 -0.230381 -0.000329018  0.0178576 -0.237553 -0.000291824  0.0175588 -0.244735 -0.000249863  0.0172462 -0.251925 -0.000218391  0.0169213 -0.259124 -0.000190258  0.0165865 -0.266323 -0.000154018  0.0162423 -0.273523 -0.000128269  0.0158896 -0.28072 -9.72748e-05  0.0155296 -0.287913 -6.58035e-05  0.015162 -0.295103 -4.57764e-05  0.0147882 -0.302286 -2.19345e-05  0.0144064 -0.30946 4.29153e-06  0.0140188 -0.316626 2.0504e-05  0.0136285 -0.323782 3.14713e-05  0.0132353 -0.330925 5.05447e-05  0.0128417 -0.338057 6.96182e-05  0.0124454 -0.345176 8.63075e-05  0.0120466 -0.352283 0.000100136  0.0116501 -0.359374 0.000117779  0 0 0  0.000412352 -0.000727415 -0.0012269  0.00135842 -0.0016768 -0.0021739  0.00260821 -0.00286758 -0.00285864  0.00400084 -0.00431305 -0.00333357  0.00543886 -0.00602996 -0.00363541  0.00686941 -0.00802368 -0.00380516  0.00826621 -0.0102944 -0.0038805  0.00961882 -0.0128422 -0.00388861  0.0109199 -0.01566 -0.00385618  0.0121657 -0.0187365 -0.00378513  0.0133565 -0.0220659 -0.00369453  0.0144936 -0.0256349 -0.00358725  0.0155749 -0.0294384 -0.00347614  0.0165997 -0.0334636 -0.00335169  0.0175673 -0.0376993 -0.00322104  0.0184784 -0.0421368 -0.00309038  0.0193353 -0.0467653 -0.00296736  0.0201384 -0.0515773 -0.00284481  0.0208881 -0.0565612 -0.00272608  0.0215856 -0.0617129 -0.00260782  0.0222297 -0.0670187 -0.00249577  0.0228218 -0.072475 -0.00237751  0.0233649 -0.0780701 -0.00227165  0.0238593 -0.0838009 -0.00215912  0.0243051 -0.0896576 -0.00204992  0.024704 -0.0956313 -0.00194454  0.0250583 -0.101719 -0.00185204  0.0253677 -0.107913 -0.00175047  0.0256357 -0.114202 -0.00166035  0.0258645 -0.120581 -0.00156164  0.0260525 -0.127051 -0.00147486  0.0262017 -0.133598 -0.00139141  0.0263147 -0.140221 -0.00130701  0.0263922 -0.146915 -0.00122595  0.0264354 -0.153671 -0.0011425  0.0264456 -0.160486 -0.0010643  0.0264242 -0.167354 -0.000986099  0.0263727 -0.174268 -0.00091362  0.0262942 -0.18123 -0.000839233  0.0261874 -0.188232 -0.000769615  0.0260561 -0.195268 -0.000695229  0.0259001 -0.202334 -0.000633717  0.0257204 -0.20943 -0.000574112  0.0255201 -0.216548 -0.000527382  0.0253 -0.223685 -0.000466347  0.0250621 -0.230839 -0.000415325  0.0248048 -0.238007 -0.000367641  0.0245295 -0.245186 -0.000320435  0.0242376 -0.252371 -0.000281334  0.0239313 -0.259566 -0.000236511  0.0236111 -0.266762 -0.000202179  0.0232792 -0.273957 -0.000165939  0.0229368 -0.281152 -0.0001297  0.0225847 -0.288341 -0.000101089  0.0222247 -0.295528 -7.39098e-05  0.0218563 -0.302709 -4.29153e-05  0.0214801 -0.30988 -1.38283e-05  0.0210998 -0.317044 6.19888e-06  0.0207157 -0.324196 2.43187e-05  0.0203269 -0.331339 4.673e-05  0.0199325 -0.338469 6.29425e-05  0.0195353 -0.345588 8.7738e-05  0.0191369 -0.352696 0.000105381  0.0187407 -0.35979 0.000119209  0 0 0  0.000528648 -0.00115305 -0.00145817  0.00172324 -0.00234371 -0.00260353  0.00328234 -0.00365525 -0.00346136  0.0049918 -0.00514549 -0.0040288  0.00673544 -0.00686538 -0.00439405  0.00845867 -0.00884777 -0.00458956  0.0101361 -0.0110983 -0.0046792  0.0117556 -0.013627 -0.00468779  0.0133136 -0.0164266 -0.00464725  0.0148101 -0.0194869 -0.00455809  0.0162439 -0.0228007 -0.00444365  0.0176129 -0.0263559 -0.00431967  0.0189174 -0.0301481 -0.00418568  0.0201588 -0.0341628 -0.00403595  0.0213367 -0.0383887 -0.00387907  0.0224507 -0.0428165 -0.00372839  0.0235008 -0.0474368 -0.00357437  0.0244889 -0.0522383 -0.00343227  0.0254154 -0.0572146 -0.00328064  0.026281 -0.062357 -0.00313425  0.0270872 -0.0676558 -0.00300026  0.0278362 -0.0731023 -0.00286865  0.0285282 -0.0786924 -0.00272846  0.0291634 -0.0844156 -0.00260115  0.0297449 -0.0902651 -0.00247717  0.0302728 -0.0962328 -0.00234461  0.0307477 -0.102312 -0.0022254  0.031172 -0.108501 -0.00210619  0.0315486 -0.114781 -0.00199366  0.0318781 -0.121156 -0.00188351  0.032162 -0.127619 -0.00178003  0.0324023 -0.134159 -0.00167608  0.0325997 -0.140775 -0.00156784  0.0327561 -0.147465 -0.00146723  0.0328746 -0.154213 -0.00137281  0.0329552 -0.161021 -0.00128269  0.0329988 -0.167883 -0.00118589  0.0330076 -0.174792 -0.00109768  0.0329826 -0.181747 -0.00100565  0.0329258 -0.188744 -0.000921249  0.032841 -0.195773 -0.000837803  0.0327275 -0.202834 -0.000759602  0.0325868 -0.209923 -0.000689507  0.0324209 -0.217035 -0.000625134  0.0322309 -0.224165 -0.000563145  0.0320182 -0.231314 -0.00050211  0.0317845 -0.238473 -0.000444412  0.0315292 -0.245648 -0.000391483  0.0312562 -0.252829 -0.000337124  0.030967 -0.260019 -0.000291348  0.0306623 -0.26721 -0.00024128  0.0303438 -0.274401 -0.000200748  0.0300117 -0.28159 -0.000161171  0.0296679 -0.288776 -0.000126839  0.0293128 -0.295958 -9.58443e-05  0.0289481 -0.303135 -6.1512e-05  0.0285769 -0.310304 -2.86102e-05  0.0281985 -0.317464 9.53674e-07  0.0278122 -0.324612 2.28882e-05  0.02742 -0.331751 4.48227e-05  0.0270245 -0.338882 6.48499e-05  0.0266261 -0.346 8.44002e-05  0.026228 -0.353108 0.000102997  0.0258298 -0.360207 0.000118732  0 0 0  0.000660554 -0.00174755 -0.00169659  0.00219598 -0.00321215 -0.00311613  0.00410199 -0.00462133 -0.00411177  0.00613362 -0.00613087 -0.00477266  0.00817853 -0.00783795 -0.00517654  0.0101867 -0.00979424 -0.00540543  0.012138 -0.0120174 -0.00549698  0.0140238 -0.0145214 -0.00550652  0.0158404 -0.0172989 -0.00545406  0.0175864 -0.0203397 -0.0053525  0.0192609 -0.0236357 -0.00522947  0.0208638 -0.0271747 -0.00508356  0.0223943 -0.0309536 -0.00491285  0.0238515 -0.0349551 -0.00473642  0.0252359 -0.0391681 -0.00455713  0.0265498 -0.0435818 -0.0043745  0.0277917 -0.0481936 -0.0042038  0.0289634 -0.0529807 -0.00402498  0.0300649 -0.0579479 -0.00385141  0.0310974 -0.0630788 -0.00368118  0.0320647 -0.0683658 -0.0035243  0.0329665 -0.0738019 -0.00336456  0.0338032 -0.0793821 -0.00320578  0.0345774 -0.0850965 -0.00305223  0.0352894 -0.0909343 -0.00290537  0.0359418 -0.0968934 -0.0027566  0.0365366 -0.102963 -0.0026145  0.0370749 -0.109142 -0.00247288  0.0375582 -0.115414 -0.00233746  0.037987 -0.121781 -0.00221205  0.0383642 -0.128233 -0.00208044  0.038693 -0.134764 -0.00196791  0.0389745 -0.141371 -0.0018425  0.0392075 -0.148052 -0.00172329  0.0393946 -0.154792 -0.0016098  0.0395403 -0.16159 -0.00149727  0.0396476 -0.168444 -0.00139523  0.0397141 -0.175348 -0.00128317  0.039741 -0.182293 -0.00117588  0.0397315 -0.18928 -0.00107479  0.0396881 -0.196301 -0.0009799  0.039614 -0.203355 -0.000894547  0.0395103 -0.210436 -0.000807285  0.039377 -0.217539 -0.000736237  0.0392139 -0.224663 -0.000656128  0.0390258 -0.231803 -0.000590801  0.0388148 -0.238955 -0.000527382  0.0385814 -0.24612 -0.000462532  0.0383244 -0.253299 -0.000400543  0.0380476 -0.26048 -0.000344276  0.0377536 -0.267666 -0.000282288  0.0374434 -0.274851 -0.000231266  0.0371168 -0.282036 -0.000191212  0.0367773 -0.289216 -0.00014782  0.0364263 -0.296391 -0.000116348  0.0360637 -0.303564 -7.67708e-05  0.0356896 -0.310728 -4.24385e-05  0.0353084 -0.317884 -1.00136e-05  0.0349209 -0.325029 2.00272e-05  0.034528 -0.332165 4.43459e-05  0.0341318 -0.339294 6.4373e-05  0.0337338 -0.346411 8.05855e-05  0.0333343 -0.353519 0.000100613  0.0329361 -0.360622 0.000121117  0 0 0  0.00104833 -0.00263584 -0.0021677  0.00297393 -0.00427729 -0.00371265  0.00517941 -0.00572973 -0.0048027  0.00748575 -0.00722837 -0.00553894  0.00980195 -0.00890893 -0.00600052  0.012081 -0.0108327 -0.00625467  0.0142986 -0.0130265 -0.00636244  0.016446 -0.0155045 -0.00636864  0.0185202 -0.0182566 -0.00630236  0.0205177 -0.0212797 -0.00618982  0.0224352 -0.0245547 -0.00603676  0.0242707 -0.0280787 -0.00586748  0.0260245 -0.0318408 -0.00566912  0.0276977 -0.0358269 -0.00546741  0.0292909 -0.0400243 -0.00525379  0.0308017 -0.0444232 -0.00505066  0.032231 -0.0490219 -0.00483894  0.0335816 -0.053795 -0.00463915  0.0348548 -0.0587497 -0.00444174  0.0360532 -0.0638669 -0.00424957  0.0371771 -0.0691399 -0.0040617  0.0382284 -0.0745633 -0.00387955  0.0392088 -0.0801315 -0.00369835  0.0401187 -0.0858339 -0.00352049  0.0409607 -0.0916586 -0.0033493  0.0417354 -0.0976055 -0.00317717  0.0424448 -0.103665 -0.0030098  0.0430899 -0.109831 -0.00285053  0.0436739 -0.116093 -0.00269556  0.0442002 -0.122446 -0.00254297  0.0446693 -0.128887 -0.00240231  0.0450828 -0.135406 -0.00226116  0.0454412 -0.142005 -0.00212336  0.0457485 -0.148671 -0.00198507  0.0460079 -0.155403 -0.00185537  0.0462191 -0.162191 -0.00172424  0.0463817 -0.169036 -0.00159979  0.0464995 -0.17593 -0.00147629  0.0465779 -0.182863 -0.00135422  0.0466156 -0.18984 -0.00123739  0.0466149 -0.196852 -0.00112534  0.0465755 -0.203896 -0.00102425  0.0465 -0.210967 -0.000927448  0.0463939 -0.218058 -0.00083828  0.0462577 -0.225176 -0.000758171  0.0460927 -0.232306 -0.000675201  0.0458989 -0.239449 -0.000606537  0.0456786 -0.246603 -0.00053215  0.0454357 -0.253776 -0.000458717  0.0451717 -0.260949 -0.000393391  0.0448856 -0.268128 -0.000325203  0.044579 -0.275305 -0.000267029  0.0442557 -0.282485 -0.000218391  0.0439179 -0.289658 -0.000173569  0.0435662 -0.296826 -0.00013113  0.0432014 -0.303995 -8.72612e-05  0.0428274 -0.311152 -5.34058e-05  0.0424438 -0.318303 -1.7643e-05  0.0420516 -0.325446 1.71661e-05  0.0416534 -0.332578 4.24385e-05  0.0412509 -0.339705 6.62804e-05  0.0408452 -0.346821 8.58307e-05  0.0404391 -0.353929 0.000100136  0.0400338 -0.361031 0.000117779  0 0 0  -0.00103088 -0.00199536 0.00289583  -0.00301643 -0.00339229 0.00481224  -0.00527245 -0.00452881 0.00610113  -0.00757791 -0.00574767 0.00693369  -0.00985757 -0.00720492 0.00742531  -0.0120905 -0.00896149 0.00768185  -0.0142713 -0.0110254 0.00775623  -0.0164007 -0.0133848 0.00772953  -0.0184803 -0.0160254 0.00761557  -0.020512 -0.0189354 0.00744963  -0.0224977 -0.0221029 0.00723696  -0.0244358 -0.0255123 0.00699902  -0.0263249 -0.0291506 0.00674105  -0.0281644 -0.0330115 0.00647354  -0.0299534 -0.0370782 0.00620604  -0.0316949 -0.041344 0.00594282  -0.0333886 -0.0457932 0.00568533  -0.0350342 -0.0504247 0.00543499  -0.0366319 -0.0552267 0.00519514  -0.0381832 -0.0601928 0.00495481  -0.0396869 -0.065318 0.00472212  -0.0411448 -0.0705928 0.00449419  -0.0425587 -0.0760063 0.00428724  -0.0439278 -0.0815565 0.00408316  -0.045254 -0.0872379 0.00388336  -0.0465378 -0.0930423 0.00367641  -0.0477792 -0.0989638 0.00348806  -0.0489792 -0.10499 0.00329447  -0.0501415 -0.111124 0.00311661  -0.0512674 -0.117353 0.00293827  -0.0523553 -0.123674 0.00276518  -0.0534048 -0.130082 0.00259542  -0.054419 -0.136568 0.00243664  -0.0553994 -0.14313 0.00228357  -0.0563457 -0.149763 0.00214338  -0.05726 -0.156462 0.0019989  -0.0581408 -0.163218 0.00185108  -0.0589893 -0.17003 0.00171804  -0.0598075 -0.176895 0.00159311  -0.0605965 -0.183803 0.00146723  -0.0613577 -0.190751 0.00135088  -0.0620911 -0.197741 0.00123501  -0.0627956 -0.20476 0.00112772  -0.0634751 -0.211812 0.00102997  -0.0641298 -0.218889 0.000926495  -0.0647597 -0.225988 0.00082922  -0.0653665 -0.233102 0.000743866  -0.0659533 -0.240233 0.000675201  -0.0665221 -0.247375 0.000600815  -0.06707 -0.254527 0.00053215  -0.0675981 -0.261685 0.000471592  -0.06811 -0.268851 0.000413895  -0.0686076 -0.276022 0.000355244  -0.0690908 -0.283194 0.000304699  -0.0695574 -0.290362 0.000253677  -0.0700104 -0.297526 0.000229359  -0.0704541 -0.304686 0.000196934  -0.0708857 -0.311838 0.000162601  -0.0713058 -0.318983 0.000139236  -0.0717201 -0.326118 0.000121593  -0.0721297 -0.333241 0.000106812  -0.0725377 -0.340357 9.48906e-05  -0.0729468 -0.347469 9.9659e-05  -0.0733562 -0.354576 9.10759e-05  0 0 0  -0.000685915 -0.00124821 0.00224113  -0.00229354 -0.00238543 0.00399351  -0.00423439 -0.00348096 0.00513697  -0.00623471 -0.00473964 0.00586796  -0.00820902 -0.00625328 0.00630474  -0.010138 -0.00806172 0.00652981  -0.0120226 -0.010172 0.00660276  -0.0138664 -0.0125737 0.00659084  -0.0156739 -0.0152547 0.00650406  -0.0174457 -0.0182018 0.00636148  -0.0191801 -0.0214072 0.00619268  -0.020879 -0.0248545 0.00599337  -0.0225408 -0.0285308 0.0057807  -0.0241645 -0.0324287 0.00555325  -0.0257491 -0.0365327 0.00532627  -0.0272941 -0.0408356 0.00510168  -0.0288005 -0.0453255 0.00488329  -0.0302689 -0.049994 0.00466776  -0.0316983 -0.0548336 0.00446033  -0.033088 -0.0598377 0.00425816  -0.0344383 -0.0649991 0.00405455  -0.0357497 -0.0703109 0.00386906  -0.037024 -0.0757615 0.00368643  -0.0382626 -0.0813476 0.00351477  -0.0394642 -0.0870632 0.00333738  -0.0406297 -0.0929003 0.00316858  -0.0417612 -0.098854 0.00300026  -0.0428584 -0.104911 0.0028367  -0.0439229 -0.111075 0.00268078  -0.0449545 -0.117335 0.00252867  -0.0459554 -0.123684 0.00238085  -0.0469263 -0.130118 0.00223446  -0.0478661 -0.136632 0.00209379  -0.0487761 -0.143218 0.00197029  -0.0496583 -0.149876 0.00184917  -0.0505126 -0.156596 0.00172043  -0.0513396 -0.163373 0.00160694  -0.0521393 -0.170208 0.00148821  -0.0529127 -0.177093 0.00137329  -0.0536597 -0.18402 0.00127459  -0.0543821 -0.190988 0.00117493  -0.0550816 -0.197992 0.00107765  -0.0557594 -0.205028 0.000985146  -0.0564144 -0.212095 0.000892162  -0.0570481 -0.219186 0.000809669  -0.0576601 -0.226296 0.000733376  -0.058253 -0.233423 0.000658989  -0.0588267 -0.240565 0.000598431  -0.059382 -0.247717 0.000532627  -0.0599213 -0.254878 0.00047493  -0.0604467 -0.262046 0.000425816  -0.0609555 -0.26922 0.00037241  -0.0614486 -0.276396 0.000324726  -0.0619302 -0.283575 0.00027895  -0.0624011 -0.290747 0.000248432  -0.06286 -0.297916 0.00021553  -0.0633063 -0.30508 0.000189781  -0.0637424 -0.312235 0.000161648  -0.0641716 -0.319383 0.000137806  -0.064594 -0.32652 0.000126839  -0.065011 -0.333643 0.000110149  -0.0654244 -0.340759 9.77516e-05  -0.0658343 -0.347869 9.72748e-05  -0.0662417 -0.354975 8.7738e-05  0 0 0  -0.000558052 -0.000711851 0.00191164  -0.00183156 -0.00156095 0.00330496  -0.00339906 -0.00258495 0.00428009  -0.00505315 -0.00385444 0.00490475  -0.0067105 -0.00540814 0.00528717  -0.00834414 -0.00725792 0.00548744  -0.00994706 -0.00940713 0.0055604  -0.01152 -0.0118457 0.00555277  -0.013063 -0.014563 0.00547981  -0.0145779 -0.0175447 0.00536299  -0.0160675 -0.020784 0.00522327  -0.0175297 -0.0242646 0.00505924  -0.0189631 -0.0279761 0.00488138  -0.0203683 -0.0319067 0.00468922  -0.0217448 -0.0360455 0.00450325  -0.0230919 -0.0403813 0.00431204  -0.0244086 -0.044908 0.00412989  -0.0256931 -0.0496104 0.0039506  -0.0269462 -0.0544864 0.00377274  -0.028169 -0.0595249 0.00359488  -0.0293622 -0.0647214 0.00343323  -0.0305244 -0.0700656 0.00326777  -0.0316558 -0.0755502 0.0031147  -0.0327573 -0.0811696 0.00296974  -0.0338303 -0.0869167 0.00283241  -0.034876 -0.0927846 0.00268316  -0.0358928 -0.0987676 0.00253773  -0.0368807 -0.104856 0.00239897  -0.0378433 -0.111047 0.00227118  -0.0387793 -0.117333 0.00214052  -0.0396893 -0.12371 0.00201321  -0.0405737 -0.130169 0.00189018  -0.0414338 -0.136708 0.00177288  -0.0422699 -0.143317 0.00166941  -0.0430832 -0.149998 0.0015645  -0.0438726 -0.15674 0.00147152  -0.0446393 -0.163538 0.00137043  -0.0453844 -0.170393 0.00127363  -0.0461075 -0.177297 0.00117493  -0.0468106 -0.184241 0.00108528  -0.0474939 -0.191227 0.0010047  -0.0481572 -0.198245 0.000926018  -0.0488021 -0.205297 0.000844955  -0.0494299 -0.212377 0.000763416  -0.0500388 -0.219482 0.000691891  -0.0506299 -0.226603 0.00063467  -0.051204 -0.233742 0.000571728  -0.0517604 -0.240894 0.000510693  -0.0523024 -0.248055 0.000463963  -0.05283 -0.255226 0.000415802  -0.0533416 -0.262403 0.000372887  -0.0538414 -0.269584 0.000330448  -0.054332 -0.276766 0.000290871  -0.054812 -0.283949 0.000258923  -0.0552793 -0.291127 0.000229836  -0.0557361 -0.298301 0.000196457  -0.0561841 -0.305468 0.000175476  -0.0566235 -0.312628 0.000160217  -0.0570555 -0.319779 0.000138283  -0.0574818 -0.326916 0.000119686  -0.0579014 -0.334043 0.000112534  -0.0583153 -0.341158 9.91821e-05  -0.0587263 -0.348267 8.58307e-05  -0.0591364 -0.355371 7.82013e-05  0 0 0  -0.000432875 -0.000336096 0.00161028  -0.00143676 -0.000945404 0.00274277  -0.00267804 -0.00188203 0.00351048  -0.00400524 -0.00313564 0.00402212  -0.00535357 -0.00470573 0.00433922  -0.00669512 -0.00658399 0.00450563  -0.00801978 -0.00876179 0.00457954  -0.00932452 -0.0112313 0.00456524  -0.0106104 -0.0139783 0.00451183  -0.0118769 -0.0169915 0.0044198  -0.013122 -0.0202593 0.0042944  -0.0143467 -0.0237698 0.0041585  -0.0155522 -0.0275116 0.00401068  -0.016738 -0.0314709 0.00386477  -0.0179036 -0.0356404 0.00370598  -0.0190476 -0.0400063 0.00355768  -0.0201688 -0.0445633 0.00340414  -0.0212685 -0.0492977 0.00326014  -0.0223469 -0.0542056 0.0031147  -0.0234013 -0.0592742 0.0029664  -0.0244319 -0.0645026 0.00282383  -0.0254388 -0.0698754 0.00269318  -0.0264238 -0.0753906 0.00256491  -0.0273868 -0.0810392 0.00245142  -0.0283277 -0.0868163 0.00233459  -0.0292468 -0.092711 0.002213  -0.0301443 -0.0987201 0.00209618  -0.0310217 -0.104836 0.00198698  -0.0318793 -0.111053 0.00187588  -0.0327162 -0.117364 0.00176907  -0.0335321 -0.123764 0.0016613  -0.0343286 -0.130247 0.00156021  -0.0351064 -0.136807 0.00146437  -0.0358655 -0.143439 0.00137854  -0.0366075 -0.15014 0.0012989  -0.0373313 -0.156901 0.00121498  -0.0380352 -0.16372 0.00113201  -0.0387218 -0.170592 0.00105047  -0.0393922 -0.177511 0.000974655  -0.040046 -0.184473 0.000899792  -0.0406849 -0.191474 0.000840664  -0.0413098 -0.198506 0.000770569  -0.0419197 -0.205572 0.000706673  -0.0425131 -0.212664 0.000638008  -0.0430913 -0.21978 0.00058651  -0.0436549 -0.226913 0.00053978  -0.0442064 -0.234062 0.000489712  -0.0447447 -0.241224 0.000429153  -0.0452685 -0.248394 0.000386715  -0.0457809 -0.255575 0.000353813  -0.0462828 -0.262758 0.000315666  -0.0467732 -0.269946 0.000285149  -0.0472529 -0.277135 0.000260353  -0.0477231 -0.284321 0.000227451  -0.0481863 -0.291506 0.000205994  -0.0486412 -0.298684 0.00018549  -0.0490885 -0.305854 0.000162601  -0.0495269 -0.313018 0.000143051  -0.0499582 -0.320171 0.000136375  -0.0503836 -0.327311 0.000115395  -0.0508037 -0.33444 0.000110626  -0.0512178 -0.341556 9.25064e-05  -0.0516286 -0.348665 8.29697e-05  -0.052038 -0.355764 6.67572e-05  0 0 0  -0.000328038 -8.03322e-05 0.00130033  -0.00108952 -0.000506699 0.00219107  -0.00203764 -0.001357 0.00279808  -0.00306188 -0.00258258 0.00319052  -0.00411409 -0.00415319 0.00343561  -0.00517064 -0.00604691 0.00357151  -0.00622058 -0.00824733 0.0036273  -0.00725964 -0.0107399 0.00361824  -0.00828588 -0.0135123 0.00357151  -0.00930065 -0.0165522 0.00349283  -0.0103045 -0.0198434 0.00340176  -0.0112957 -0.0233805 0.00328588  -0.0122741 -0.0271469 0.00317335  -0.01324 -0.0311322 0.00305653  -0.0141934 -0.0353264 0.00293589  -0.0151335 -0.0397197 0.00281954  -0.0160595 -0.0443026 0.00269794  -0.0169709 -0.0490648 0.0025816  -0.0178671 -0.0539997 0.00246334  -0.0187484 -0.0590962 0.00235415  -0.0196151 -0.0643508 0.00224066  -0.0204662 -0.0697502 0.00213671  -0.0213022 -0.0752914 0.00203085  -0.0221235 -0.0809668 0.00193977  -0.0229295 -0.0867684 0.00184107  -0.0237201 -0.0926879 0.00175095  -0.0244966 -0.0987196 0.00166082  -0.0252582 -0.10486 0.00157261  -0.0260054 -0.1111 0.00148582  -0.0267391 -0.117434 0.00139236  -0.0274594 -0.123855 0.00131035  -0.0281662 -0.130358 0.00123072  -0.0288587 -0.136937 0.00116444  -0.0295389 -0.14359 0.00109243  -0.0302043 -0.150309 0.00102997  -0.0308566 -0.157087 0.000962734  -0.0314984 -0.163924 0.000899315  -0.0321267 -0.170811 0.000833035  -0.0327423 -0.177745 0.000783443  -0.0333467 -0.18472 0.000721931  -0.0339389 -0.191734 0.000668526  -0.034518 -0.198781 0.000617027  -0.035085 -0.205857 0.000563145  -0.0356421 -0.212962 0.000513077  -0.03619 -0.220086 0.000477791  -0.036727 -0.22723 0.000439167  -0.0372529 -0.234388 0.000398636  -0.0377676 -0.241559 0.000350475  -0.0382721 -0.248739 0.000321865  -0.0387676 -0.255927 0.000287533  -0.0392523 -0.263116 0.000262737  -0.0397298 -0.27031 0.000239372  -0.0401998 -0.277504 0.000217915  -0.0406628 -0.284694 0.000191689  -0.0411186 -0.291884 0.000178814  -0.0415664 -0.299065 0.000165939  -0.0420079 -0.306239 0.000146389  -0.042444 -0.313407 0.000133514  -0.0428731 -0.320562 0.000123501  -0.0432959 -0.327704 0.000108719  -0.0437124 -0.334836 9.53674e-05  -0.0441263 -0.341954 9.29832e-05  -0.044539 -0.349061 8.10623e-05  -0.0449488 -0.356154 6.29425e-05  0 0 0  -0.000233606 8.85129e-05 0.000981331  -0.000776686 -0.000209093 0.001647  -0.00145657 -0.000987142 0.00209427  -0.00219841 -0.00218272 0.00237751  -0.0029667 -0.00374758 0.0025568  -0.00374359 -0.00564885 0.00265551  -0.0045208 -0.00786555 0.00269413  -0.0052951 -0.0103759 0.00269127  -0.0060662 -0.0131688 0.00265217  -0.00683248 -0.0162291 0.00259972  -0.00759292 -0.0195425 0.00252342  -0.00834787 -0.0230992 0.00243711  -0.00909775 -0.0268875 0.00235558  -0.00984293 -0.0308938 0.00227022  -0.0105829 -0.035109 0.0021863  -0.0113172 -0.0395254 0.00209188  -0.012045 -0.0441315 0.00200224  -0.0127668 -0.0489163 0.00191689  -0.013482 -0.0538743 0.00182486  -0.0141891 -0.0589949 0.0017395  -0.0148886 -0.064271 0.0016551  -0.0155804 -0.0696938 0.00157833  -0.0162649 -0.0752581 0.00150919  -0.0169419 -0.0809554 0.00143576  -0.017611 -0.0867781 0.00136805  -0.0182718 -0.0927195 0.00130081  -0.0189246 -0.0987719 0.00123453  -0.01957 -0.104932 0.00116682  -0.0202072 -0.111193 0.00109577  -0.0208352 -0.117545 0.0010314  -0.0214549 -0.123986 0.000968933  -0.0220668 -0.130506 0.000910759  -0.0226715 -0.137104 0.0008564  -0.0232692 -0.143774 0.000810146  -0.0238609 -0.150508 0.0007658  -0.0244453 -0.1573 0.000716686  -0.0250196 -0.164153 0.000665188  -0.0255852 -0.171052 0.00062561  -0.0261421 -0.177999 0.000579834  -0.0266924 -0.184988 0.000542641  -0.0272353 -0.192013 0.000499725  -0.0277698 -0.199072 0.000459194  -0.0282974 -0.206156 0.000424385  -0.0288188 -0.21327 0.000394821  -0.0293317 -0.220405 0.000366688  -0.029835 -0.227557 0.000330448  -0.0303307 -0.234724 0.000296593  -0.0308204 -0.241903 0.000274181  -0.0313029 -0.249089 0.000246525  -0.0317779 -0.256283 0.000227928  -0.0322473 -0.263478 0.000209808  -0.032711 -0.270677 0.000189781  -0.033169 -0.277876 0.000172138  -0.0336199 -0.285072 0.000164986  -0.034065 -0.292264 0.000152111  -0.0345061 -0.299449 0.000138283  -0.0349426 -0.306626 0.000128269  -0.0353737 -0.313796 0.000124931  -0.0357978 -0.320953 0.000109673  -0.0362177 -0.328098 0.000101566  -0.0366344 -0.335231 9.67979e-05  -0.0370464 -0.342351 9.39369e-05  -0.0374548 -0.349457 8.05855e-05  -0.0378606 -0.356545 6.77109e-05  0 0 0  -0.00014713 0.000190586 0.000652313  -0.000490457 -2.44081e-05 0.00109196  -0.000920013 -0.000751585 0.00138712  -0.00139178 -0.00192341 0.00157547  -0.00188574 -0.00348154 0.0016923  -0.0023908 -0.00538829 0.00175953  -0.00289917 -0.00761446 0.00178146  -0.00340948 -0.0101406 0.00177526  -0.00392216 -0.0129485 0.00175285  -0.00443745 -0.0160251 0.00170994  -0.00495529 -0.0193571 0.00166512  -0.00547487 -0.0229287 0.00160837  -0.00599748 -0.0267346 0.00155115  -0.00652206 -0.0307583 0.00149107  -0.00704831 -0.0349909 0.00143576  -0.00757718 -0.0394267 0.00137711  -0.00810671 -0.0440502 0.00131464  -0.00863719 -0.0488548 0.0012517  -0.00916886 -0.0538318 0.00119734  -0.0096997 -0.0589718 0.00113726  -0.0102303 -0.0642662 0.0010829  -0.0107616 -0.069709 0.00103188  -0.0112936 -0.0752933 0.000985622  -0.0118246 -0.0810077 0.000937939  -0.0123551 -0.0868501 0.000901699  -0.0128846 -0.0928095 0.000854492  -0.0134122 -0.0988803 0.000802517  -0.0139385 -0.105057 0.000762939  -0.0144639 -0.111334 0.00071764  -0.014987 -0.117703 0.000679493  -0.0155072 -0.124159 0.000635624  -0.0160245 -0.130695 0.000598907  -0.0165403 -0.137308 0.000561237  -0.0170534 -0.14399 0.00053215  -0.0175645 -0.150739 0.000497341  -0.0180736 -0.157545 0.000465393  -0.018579 -0.16441 0.000439644  -0.0190809 -0.171321 0.00041151  -0.0195806 -0.178277 0.000379086  -0.0200765 -0.185277 0.000355244  -0.0205674 -0.192312 0.000333786  -0.021055 -0.19938 0.000306129  -0.0215385 -0.206475 0.000290871  -0.0220187 -0.213596 0.000263691  -0.022495 -0.220738 0.000251293  -0.0229683 -0.227896 0.000232697  -0.0234368 -0.235071 0.000211239  -0.0239 -0.242255 0.000187397  -0.0243604 -0.249448 0.000175476  -0.0248158 -0.256646 0.00015831  -0.0252643 -0.263848 0.000149727  -0.0257108 -0.271051 0.000141621  -0.026154 -0.278253 0.000134945  -0.0265932 -0.285454 0.000119209  -0.027029 -0.292647 0.000119209  -0.0274608 -0.299834 0.000114441  -0.0278888 -0.307015 0.000105858  -0.0283136 -0.314186 0.000103474  -0.0287356 -0.321345 0.000104427  -0.0291533 -0.328493 9.77516e-05  -0.0295672 -0.335627 9.44138e-05  -0.0299785 -0.342747 9.25064e-05  -0.0303857 -0.349852 7.82013e-05  -0.0307889 -0.356936 7.10487e-05  0 0 0  -6.46859e-05 0.000239402 0.000317574  -0.00021676 6.54161e-05 0.000540257  -0.000409007 -0.000635892 0.000685692  -0.00062193 -0.00179416 0.000778198  -0.00084728 -0.00335038 0.00082922  -0.00108165 -0.0052622 0.000863075  -0.0013245 -0.0074957 0.000877857  -0.0015749 -0.010033 0.000875473  -0.00183243 -0.0128519 0.000860691  -0.00209856 -0.0159408 0.00083828  -0.00237334 -0.0192855 0.000816345  -0.00265604 -0.0228702 0.000786304  -0.00294828 -0.0266888 0.000757217  -0.00325179 -0.0307269 0.000726223  -0.00356561 -0.0349745 0.000690937  -0.00388777 -0.039424 0.000657082  -0.00421727 -0.0440622 0.000626564  -0.00455594 -0.048882 0.000605583  -0.00490308 -0.0538743 0.000572681  -0.00525796 -0.0590297 0.000547886  -0.00562131 -0.0643395 0.000518322  -0.00599182 -0.0697984 0.000492096  -0.00636852 -0.075398 0.000473022  -0.00675261 -0.0811284 0.000455379  -0.00714278 -0.086985 0.000430584  -0.00753915 -0.0929603 0.000406742  -0.00794137 -0.0990451 0.000383377  -0.00834775 -0.105236 0.000360012  -0.00875854 -0.111526 0.000341892  -0.00917244 -0.117908 0.000317574  -0.00959098 -0.124378 0.000301838  -0.0100141 -0.130926 0.000284195  -0.0104399 -0.137552 0.000270367  -0.0108678 -0.144246 0.000255585  -0.0112991 -0.151003 0.000231266  -0.0117333 -0.157823 0.000218391  -0.0121684 -0.164696 0.000208855  -0.0126061 -0.171618 0.00019598  -0.0130444 -0.178581 0.000185013  -0.0134847 -0.185591 0.000175476  -0.0139244 -0.192633 0.000161171  -0.0143645 -0.199709 0.000151634  -0.0148056 -0.206812 0.000142097  -0.0152469 -0.213939 0.000138283  -0.0156865 -0.221086 0.000133038  -0.0161242 -0.22825 0.000120163  -0.016562 -0.235431 0.00011301  -0.0169973 -0.242619 0.000104904  -0.0174313 -0.249817 0.00010252  -0.017864 -0.257019 9.15527e-05  -0.0182955 -0.264226 8.86917e-05  -0.0187235 -0.271432 8.34465e-05  -0.019151 -0.278637 8.86917e-05  -0.0195773 -0.28584 9.05991e-05  -0.0200014 -0.293035 8.24928e-05  -0.0204229 -0.300224 8.53539e-05  -0.0208428 -0.307407 8.34465e-05  -0.0212612 -0.314579 9.10759e-05  -0.0216756 -0.32174 8.63075e-05  -0.0220885 -0.32889 8.91685e-05  -0.0224993 -0.336025 8.86917e-05  -0.022907 -0.343146 8.86917e-05  -0.0233126 -0.350248 8.72612e-05  -0.0237176 -0.35733 8.67844e-05  0 0 0  1.42902e-05 0.000242829 -1.62125e-05  4.65512e-05 7.09295e-05 -2.3365e-05  8.69632e-05 -0.000629276 -2.14577e-05  0.000128686 -0.00178811 -2.3365e-05  0.000166893 -0.00334913 -2.19345e-05  0.000199437 -0.00526592 -3.09944e-05  0.000222504 -0.00750816 -3.33786e-05  0.000232756 -0.0100515 -3.48091e-05  0.000229836 -0.0128797 -3.00407e-05  0.000212967 -0.0159764 -3.09944e-05  0.000181198 -0.0193292 -3.67165e-05  0.000133514 -0.0229242 -3.52859e-05  6.88434e-05 -0.0267514 -3.52859e-05  -1.18017e-05 -0.0308 -4.1008e-05  -0.000109673 -0.0350598 -4.52995e-05  -0.000224888 -0.0395184 -5.34058e-05  -0.000356197 -0.0441681 -5.29289e-05  -0.000503778 -0.0489997 -5.29289e-05  -0.000666499 -0.0540031 -4.86374e-05  -0.000844836 -0.0591709 -4.57764e-05  -0.00103819 -0.0644935 -4.43459e-05  -0.00124609 -0.069964 -4.48227e-05  -0.00146878 -0.0755745 -4.62532e-05  -0.00170529 -0.0813176 -4.29153e-05  -0.00195515 -0.0871851 -4.1008e-05  -0.00221729 -0.0931717 -3.43323e-05  -0.00249112 -0.099269 -3.33786e-05  -0.00277674 -0.10547 -3.71933e-05  -0.00307429 -0.111772 -3.29018e-05  -0.00338268 -0.118163 -3.52859e-05  -0.0036993 -0.124644 -3.62396e-05  -0.00402427 -0.131202 -3.09944e-05  -0.00435948 -0.137837 -2.3365e-05  -0.00470304 -0.14454 -2.14577e-05  -0.00505447 -0.151305 -3.00407e-05  -0.00541425 -0.158134 -2.43187e-05  -0.00577927 -0.165015 -2.3365e-05  -0.00615025 -0.171943 -1.23978e-05  -0.0065279 -0.178915 -1.00136e-05  -0.00691056 -0.185929 -1.28746e-05  -0.00729704 -0.192978 -3.8147e-06  -0.00768852 -0.200059 -6.67572e-06  -0.00808454 -0.207169 5.72205e-06  -0.00848269 -0.2143 9.05991e-06  -0.00888467 -0.221452 1.23978e-05  -0.00928903 -0.228619 1.57356e-05  -0.00969577 -0.235805 1.95503e-05  -0.0101047 -0.242997 2.0504e-05  -0.0105138 -0.250197 2.09808e-05  -0.0109229 -0.257402 2.28882e-05  -0.0113337 -0.264614 2.67029e-05  -0.0117455 -0.27182 3.91006e-05  -0.0121579 -0.279028 4.00543e-05  -0.0125685 -0.286233 5.29289e-05  -0.012979 -0.29343 5.91278e-05  -0.013391 -0.30062 5.48363e-05  -0.013803 -0.307803 6.77109e-05  -0.0142138 -0.314976 7.29561e-05  -0.0146234 -0.322139 7.34329e-05  -0.0150309 -0.329289 8.2016e-05  -0.0154364 -0.336424 8.72612e-05  -0.0158417 -0.343545 9.10759e-05  -0.0162449 -0.350647 9.20296e-05  -0.0166452 -0.357729 9.91821e-05  0 0 0  9.29609e-05 0.000202954 -0.000354767  0.000310957 -3.21865e-06 -0.000580788  0.000583231 -0.000726819 -0.000725746  0.000878543 -0.00190276 -0.000819683  0.00118026 -0.00347543 -0.000878334  0.00147781 -0.00539964 -0.000918865  0.0017657 -0.00764841 -0.000930786  0.00203878 -0.0101964 -0.000932217  0.00229168 -0.0130304 -0.000920773  0.00252193 -0.016132 -0.000900269  0.00273091 -0.0194891 -0.00088501  0.0029192 -0.0230898 -0.00085783  0.00308388 -0.0269235 -0.000834465  0.00322372 -0.0309784 -0.000811577  0.00334018 -0.035245 -0.000782967  0.00343275 -0.0397111 -0.000756264  0.0035007 -0.044368 -0.000726223  0.00354445 -0.0492073 -0.000700474  0.00356424 -0.0542192 -0.000664234  0.00356185 -0.0593945 -0.000641346  0.00353718 -0.0647269 -0.00061512  0.00348997 -0.0702055 -0.000590801  0.00342178 -0.0758246 -0.000562668  0.00333428 -0.0815745 -0.000537872  0.0032264 -0.0874519 -0.00050354  0.00309682 -0.0934463 -0.000477314  0.0029484 -0.0995522 -0.000458717  0.0027827 -0.105762 -0.000436306  0.00260019 -0.112071 -0.000412464  0.00240254 -0.118472 -0.000391483  0.0021894 -0.124957 -0.000370502  0.0019598 -0.131525 -0.0003438  0.00171494 -0.138165 -0.000321388  0.0014565 -0.144875 -0.000308037  0.00118566 -0.151646 -0.000285625  0.000901699 -0.15848 -0.000264645  0.000605822 -0.165367 -0.000250816  0.000300646 -0.1723 -0.000225544  -1.40667e-05 -0.17928 -0.000204086  -0.000338793 -0.186295 -0.000189781  -0.000674248 -0.193349 -0.000170708  -0.00101686 -0.200432 -0.000150204  -0.00136781 -0.207547 -0.000139236  -0.0017252 -0.214681 -0.000120163  -0.00208879 -0.221836 -0.000108242  -0.00245643 -0.229006 -8.34465e-05  -0.00282931 -0.236194 -6.77109e-05  -0.00320768 -0.243389 -5.8651e-05  -0.00359106 -0.250592 -5.34058e-05  -0.00397897 -0.2578 -4.14848e-05  -0.00436974 -0.26501 -2.38419e-05  -0.00476289 -0.272219 -1.43051e-05  -0.00516033 -0.279428 6.19888e-06  -0.00556111 -0.286632 2.09808e-05  -0.00596213 -0.293831 3.05176e-05  -0.00636387 -0.301021 3.67165e-05  -0.00676656 -0.308205 4.24385e-05  -0.00716925 -0.315377 4.95911e-05  -0.0075717 -0.322541 6.67572e-05  -0.00797439 -0.32969 7.10487e-05  -0.00837874 -0.336825 8.44002e-05  -0.00878286 -0.343947 8.86917e-05  -0.00918412 -0.351049 9.91821e-05  -0.00958228 -0.358132 0.000108719  0 0 0  0.000172921 0.00011605 -0.000684738  0.000579223 -0.0001598 -0.0011344  0.00109001 -0.000932753 -0.0014286  0.00164443 -0.00214028 -0.00161123  0.00221279 -0.00373143 -0.00172663  0.00277883 -0.00566405 -0.00179243  0.00333086 -0.00791764 -0.00182533  0.00386226 -0.0104679 -0.00182533  0.00436944 -0.0133035 -0.00180864  0.00485009 -0.0164058 -0.00177574  0.00530237 -0.0197648 -0.00172949  0.00572389 -0.0233667 -0.00168657  0.00611496 -0.0272038 -0.00162983  0.00647569 -0.0312612 -0.00157166  0.0068053 -0.0355309 -0.00151491  0.00710285 -0.0400018 -0.00145769  0.0073694 -0.0446621 -0.00140619  0.00760448 -0.0495054 -0.00134563  0.00780797 -0.0545232 -0.00129032  0.00798094 -0.059702 -0.00123358  0.00812483 -0.0650402 -0.00118113  0.00824022 -0.0705237 -0.00113106  0.00832665 -0.0761486 -0.00107765  0.00838482 -0.0819023 -0.00102186  0.00841558 -0.0877849 -0.000976086  0.00842166 -0.0937856 -0.000930309  0.00840127 -0.0998966 -0.000877857  0.00835586 -0.106112 -0.000833511  0.00828707 -0.112425 -0.000794411  0.008196 -0.118831 -0.000751495  0.00808406 -0.125321 -0.000704288  0.00795174 -0.131893 -0.000660419  0.00779963 -0.138537 -0.000624657  0.00762725 -0.14525 -0.000589371  0.00743675 -0.152028 -0.000543594  0.00722861 -0.158863 -0.000506878  0.00700521 -0.165753 -0.000475407  0.00676465 -0.172692 -0.000434875  0.0065093 -0.179674 -0.000407696  0.0062418 -0.186691 -0.000365257  0.00596046 -0.193746 -0.000331402  0.0056653 -0.200832 -0.000301838  0.00535917 -0.207949 -0.000272274  0.00504375 -0.215085 -0.000251293  0.00471783 -0.22224 -0.000216484  0.00438261 -0.229413 -0.000187874  0.00404 -0.2366 -0.000163078  0.00368953 -0.243795 -0.000142097  0.00332999 -0.250999 -0.000128746  0.00296426 -0.258208 -0.000104904  0.00259376 -0.265417 -8.10623e-05  0.00221729 -0.272628 -5.38826e-05  0.00183487 -0.279835 -3.76701e-05  0.00144911 -0.28704 -1.62125e-05  0.00106096 -0.294238 0  0.000670433 -0.301428 1.28746e-05  0.000277758 -0.308611 2.43187e-05  -0.00011754 -0.315784 4.00543e-05  -0.000515699 -0.322946 5.24521e-05  -0.000915527 -0.330096 6.19888e-05  -0.00131488 -0.337231 7.10487e-05  -0.00171399 -0.344352 9.15527e-05  -0.0021131 -0.351456 0.000103951  -0.0025115 -0.35854 0.000112057  0 0 0  0.000257663 -2.29478e-05 -0.00100851  0.000862673 -0.000408769 -0.00167751  0.00161929 -0.00125474 -0.00211954  0.00244027 -0.00250542 -0.00240374  0.00328201 -0.00411737 -0.00258112  0.00411981 -0.00605941 -0.00268126  0.00493947 -0.00831527 -0.00272131  0.00573224 -0.010866 -0.00272703  0.00649387 -0.0136979 -0.00269365  0.00722182 -0.0167977 -0.00265026  0.00791466 -0.0201539 -0.0025835  0.00857031 -0.0237556 -0.00250912  0.0091868 -0.0275913 -0.00242567  0.00976562 -0.0316483 -0.00234747  0.0103077 -0.0359187 -0.00225687  0.0108118 -0.0403903 -0.00216818  0.0112774 -0.0450509 -0.00208187  0.0117028 -0.0498959 -0.00199652  0.0120885 -0.0549142 -0.00191164  0.0124371 -0.0600953 -0.00182915  0.0127478 -0.0654345 -0.00174713  0.0130222 -0.0709193 -0.00167847  0.0132611 -0.076546 -0.00159597  0.013466 -0.0823027 -0.00151253  0.0136377 -0.0881863 -0.00144434  0.0137758 -0.0941899 -0.00137138  0.0138828 -0.100304 -0.00130224  0.0139591 -0.106522 -0.00123453  0.0140039 -0.112838 -0.00117016  0.0140204 -0.119243 -0.00111103  0.014009 -0.125737 -0.00104666  0.0139706 -0.132308 -0.000977516  0.0139067 -0.138955 -0.000921249  0.0138195 -0.145668 -0.000864029  0.0137086 -0.152449 -0.000811577  0.0135756 -0.159285 -0.000754833  0.0134208 -0.166176 -0.00069809  0.0132482 -0.173116 -0.00065136  0.0130556 -0.180098 -0.000601292  0.0128424 -0.187117 -0.000546932  0.0126128 -0.194172 -0.000502586  0.012367 -0.201258 -0.000451088  0.0121045 -0.208375 -0.000410557  0.0118291 -0.21551 -0.000370502  0.0115404 -0.222665 -0.000331879  0.0112388 -0.229838 -0.000293732  0.0109253 -0.237022 -0.000252724  0.0106006 -0.244215 -0.000227928  0.0102661 -0.251418 -0.000203133  0.00992179 -0.258627 -0.000169277  0.00956988 -0.265836 -0.000135422  0.0092113 -0.273046 -0.000103474  0.00884652 -0.280253 -7.62939e-05  0.00847483 -0.287456 -5.91278e-05  0.00809836 -0.294652 -3.71933e-05  0.00771666 -0.301842 -1.00136e-05  0.0073297 -0.309024 7.62939e-06  0.00693846 -0.316194 2.52724e-05  0.00654387 -0.323355 4.00543e-05  0.00614762 -0.330503 5.29289e-05  0.00575161 -0.337639 7.00951e-05  0.00535417 -0.344759 8.44002e-05  0.00495791 -0.351865 0.000105381  0.00456381 -0.358953 0.00012064  0 0 0  0.000347339 -0.000225723 -0.00131655  0.00116578 -0.000766575 -0.00220966  0.00218926 -0.00170565 -0.00279713  0.00329077 -0.00300503 -0.00319099  0.00441268 -0.004637 -0.00343132  0.00552535 -0.00658703 -0.00357103  0.00661346 -0.00884074 -0.00363541  0.00766867 -0.0113871 -0.00363016  0.00868464 -0.0142121 -0.00358677  0.00965881 -0.017306 -0.00352144  0.0105898 -0.0206571 -0.00343466  0.0114772 -0.0242537 -0.00334167  0.0123205 -0.0280851 -0.00323534  0.0131181 -0.0321386 -0.00311565  0.0138707 -0.0364063 -0.00300312  0.0145773 -0.0408751 -0.00288391  0.0152369 -0.0455339 -0.00276279  0.0158513 -0.0503763 -0.00264883  0.0164201 -0.0553921 -0.00254345  0.0169431 -0.0605735 -0.00242615  0.0174222 -0.065909 -0.00232506  0.0178572 -0.0713936 -0.00222015  0.0182489 -0.0770179 -0.00211906  0.0186001 -0.0827749 -0.00201559  0.0189105 -0.0886579 -0.00191402  0.0191804 -0.0946595 -0.00182104  0.019412 -0.100773 -0.00172663  0.0196066 -0.106991 -0.00164127  0.0197649 -0.113307 -0.00155354  0.0198885 -0.11971 -0.00146675  0.019977 -0.126202 -0.00138092  0.0200329 -0.132773 -0.00130367  0.0200586 -0.139418 -0.00121975  0.0200546 -0.146131 -0.00114202  0.0200222 -0.15291 -0.00107384  0.0199618 -0.159746 -0.000999451  0.0198762 -0.166636 -0.000924587  0.0197642 -0.173573 -0.000860691  0.019628 -0.180553 -0.000786781  0.0194705 -0.187571 -0.000724792  0.0192914 -0.194625 -0.000658512  0.0190921 -0.20171 -0.000599861  0.0188746 -0.208822 -0.000544071  0.0186384 -0.215955 -0.000492573  0.018384 -0.22311 -0.000443459  0.0181141 -0.230279 -0.000393391  0.0178299 -0.23746 -0.000349045  0.0175302 -0.24465 -0.000299454  0.0172184 -0.25185 -0.000264168  0.0168958 -0.259058 -0.000230789  0.0165639 -0.266266 -0.000188828  0.0162218 -0.273474 -0.000159264  0.0158696 -0.280679 -0.000123501  0.0155096 -0.287877 -8.91685e-05  0.0151427 -0.295072 -6.58035e-05  0.0147691 -0.302261 -3.71933e-05  0.0143883 -0.309441 -4.76837e-06  0.0140033 -0.316608 1.19209e-05  0.0136154 -0.323768 2.47955e-05  0.0132225 -0.330914 4.673e-05  0.0128284 -0.338049 6.38962e-05  0.0124323 -0.34517 8.7738e-05  0.0120339 -0.352277 0.000103951  0.0116363 -0.359367 0.000122547  0 0 0  0.00044664 -0.000512958 -0.00160503  0.00150022 -0.00125855 -0.00273466  0.00281104 -0.00230277 -0.00349426  0.00421277 -0.00364882 -0.00399733  0.00562915 -0.00529563 -0.00430727  0.00702348 -0.00724661 -0.00447083  0.00838104 -0.00949144 -0.00454044  0.00969529 -0.0120277 -0.00453758  0.010963 -0.0148431 -0.00449085  0.0121824 -0.0179281 -0.00440264  0.0133528 -0.0212714 -0.00429964  0.0144728 -0.0248592 -0.00417423  0.0155405 -0.0286834 -0.00404501  0.0165559 -0.0327316 -0.003901  0.0175174 -0.0369928 -0.00374842  0.0184255 -0.0414567 -0.00359964  0.0192813 -0.046111 -0.00345755  0.020083 -0.0509475 -0.00331593  0.0208306 -0.0559576 -0.00317812  0.0215259 -0.0611349 -0.00304365  0.0221702 -0.0664646 -0.00290966  0.0227643 -0.0719457 -0.00277662  0.0233092 -0.0775648 -0.00265026  0.0238038 -0.0833185 -0.00252104  0.0242515 -0.0891978 -0.00239325  0.0246518 -0.0951952 -0.00226974  0.0250056 -0.101305 -0.00216198  0.0253159 -0.107521 -0.00204134  0.0255842 -0.113831 -0.0019393  0.0258123 -0.120231 -0.00182486  0.0260011 -0.126718 -0.00172234  0.0261517 -0.133285 -0.00162601  0.0262654 -0.139926 -0.00152922  0.0263438 -0.146637 -0.00143003  0.026387 -0.153412 -0.00133419  0.0263977 -0.160244 -0.00124359  0.0263765 -0.167131 -0.00115252  0.0263264 -0.174063 -0.0010705  0.0262487 -0.181039 -0.000984669  0.0261445 -0.188054 -0.000900745  0.0260143 -0.195105 -0.00082016  0.0258608 -0.202186 -0.00074482  0.0256836 -0.209294 -0.000678062  0.0254848 -0.216423 -0.000621319  0.0252645 -0.223572 -0.000554085  0.0250251 -0.230737 -0.000494003  0.0247688 -0.237913 -0.000440121  0.0244949 -0.245101 -0.000382423  0.0242047 -0.252297 -0.00033617  0.0238998 -0.259501 -0.000285149  0.023581 -0.266707 -0.000242233  0.0232513 -0.27391 -0.000202656  0.0229111 -0.281112 -0.000160694  0.0225627 -0.288307 -0.000128269  0.0222046 -0.295498 -9.63211e-05  0.021836 -0.302684 -5.91278e-05  0.0214605 -0.309861 -2.81334e-05  0.0210812 -0.317027 -6.19888e-06  0.0206966 -0.324183 1.43051e-05  0.0203078 -0.331328 3.86238e-05  0.0199142 -0.338461 6.19888e-05  0.0195172 -0.345582 8.7738e-05  0.0191207 -0.35269 0.000107288  0.0187268 -0.359785 0.000123501  0 0 0  0.000563756 -0.000913858 -0.00189829  0.00188041 -0.00191599 -0.00327063  0.00351182 -0.00306672 -0.00422859  0.00523385 -0.00444448 -0.00483418  0.00695148 -0.00609404 -0.00520706  0.00862971 -0.00803286 -0.00539923  0.0102588 -0.0102632 -0.00547886  0.0118352 -0.0127848 -0.00547171  0.0133561 -0.0155878 -0.00541258  0.0148207 -0.0186607 -0.00530577  0.0162299 -0.0219927 -0.00517225  0.0175822 -0.0255698 -0.00502777  0.0188735 -0.0293856 -0.00486803  0.0201042 -0.0334247 -0.0046978  0.0212749 -0.0376781 -0.00451612  0.022384 -0.0421326 -0.00434303  0.0234308 -0.0467795 -0.00416279  0.0244172 -0.051608 -0.00399876  0.0253438 -0.0566097 -0.00382376  0.0262105 -0.0617779 -0.00365448  0.0270185 -0.0671012 -0.00349903  0.0277686 -0.072573 -0.0033474  0.0284606 -0.0781863 -0.00318241  0.0290966 -0.0839326 -0.00303364  0.0296783 -0.0898046 -0.00289106  0.0302062 -0.0957955 -0.00273466  0.0306822 -0.101899 -0.00259733  0.0311092 -0.108108 -0.00245905  0.0314876 -0.114411 -0.00232887  0.0318187 -0.120805 -0.00219774  0.0321029 -0.127286 -0.00207663  0.0323427 -0.133845 -0.00195456  0.0325401 -0.140479 -0.00183105  0.032697 -0.147185 -0.00171423  0.0328174 -0.153953 -0.00160551  0.0328989 -0.16078 -0.00149965  0.0329437 -0.16766 -0.0013876  0.0329533 -0.174586 -0.00128317  0.0329282 -0.181557 -0.0011754  0.0328729 -0.188566 -0.00108147  0.0327897 -0.195611 -0.000985622  0.0326784 -0.202686 -0.000893116  0.0325394 -0.209788 -0.000812531  0.0323751 -0.216911 -0.000736713  0.032187 -0.224054 -0.000664234  0.0319769 -0.231212 -0.000594616  0.0317461 -0.238383 -0.000527382  0.0314944 -0.245565 -0.000465393  0.0312233 -0.252757 -0.00040102  0.030935 -0.259955 -0.000348568  0.0306308 -0.267156 -0.000290871  0.0303121 -0.274355 -0.000242233  0.0299799 -0.281551 -0.000198364  0.0296361 -0.288743 -0.000156403  0.0292828 -0.29593 -0.000120163  0.0289221 -0.303111 -8.4877e-05  0.0285518 -0.310284 -4.57764e-05  0.0281737 -0.317448 -1.28746e-05  0.0277896 -0.324601 1.57356e-05  0.0274005 -0.331742 3.71933e-05  0.0270078 -0.338875 6.34193e-05  0.0266118 -0.345994 8.34465e-05  0.0262144 -0.353102 0.000102043  0.025816 -0.360201 0.000125408  0 0 0  0.000680946 -0.00146466 -0.00220537  0.0023247 -0.00276989 -0.00392199  0.00432454 -0.00400865 -0.00503302  0.00638393 -0.00539154 -0.00573635  0.00840646 -0.00702256 -0.00614595  0.0103695 -0.00893623 -0.00637197  0.0122702 -0.0111459 -0.00644875  0.0141084 -0.0136495 -0.00644112  0.0158847 -0.0164368 -0.00636911  0.017599 -0.0194957 -0.00624418  0.0192488 -0.0228143 -0.00609636  0.0208312 -0.0263801 -0.00592136  0.0223461 -0.0301839 -0.00572491  0.0237921 -0.0342124 -0.00551796  0.0251693 -0.0384537 -0.00531149  0.0264785 -0.0428957 -0.00510406  0.0277182 -0.0475346 -0.0048995  0.028888 -0.052351 -0.00469637  0.0299892 -0.0573435 -0.00449038  0.0310227 -0.0624999 -0.00429583  0.0319904 -0.0678128 -0.0041132  0.0328933 -0.0732731 -0.00392723  0.0337322 -0.078877 -0.00374413  0.0345081 -0.0846143 -0.00356245  0.0352222 -0.0904753 -0.00339222  0.035875 -0.0964571 -0.0032177  0.0364686 -0.102551 -0.00305271  0.0370065 -0.10875 -0.00288916  0.0374897 -0.115044 -0.00272846  0.0379194 -0.121429 -0.00258112  0.0382985 -0.127901 -0.00242996  0.0386276 -0.134452 -0.0022974  0.038909 -0.141075 -0.0021534  0.0391445 -0.147775 -0.00201321  0.0393341 -0.154534 -0.00187778  0.0394821 -0.161351 -0.00175285  0.0395894 -0.168223 -0.00163078  0.0396557 -0.175141 -0.00149727  0.0396841 -0.182104 -0.00137663  0.0396781 -0.189105 -0.00126028  0.039638 -0.196143 -0.00115013  0.0395656 -0.203209 -0.00105143  0.0394626 -0.210302 -0.000952244  0.03933 -0.217419 -0.000866413  0.03917 -0.224553 -0.000772953  0.0389838 -0.231704 -0.000695705  0.0387719 -0.238867 -0.000621796  0.0385394 -0.24604 -0.000550747  0.038285 -0.253228 -0.000471592  0.0380108 -0.260417 -0.000410557  0.0377185 -0.267613 -0.000339508  0.0374095 -0.274807 -0.000279427  0.0370846 -0.281998 -0.000227451  0.0367463 -0.289184 -0.000179768  0.0363977 -0.296367 -0.000144482  0.0360367 -0.303541 -9.58443e-05  0.0356653 -0.310709 -5.96046e-05  0.0352862 -0.317869 -2.19345e-05  0.0348997 -0.325019 1.19209e-05  0.0345073 -0.332158 4.1008e-05  0.034111 -0.339288 6.05583e-05  0.0337131 -0.346407 7.96318e-05  0.0333145 -0.353513 0.000100136  0.0329151 -0.360614 0.000120163  0 0 0  0.00102719 -0.00222242 -0.00284004  0.00305125 -0.00379992 -0.00467873  0.00535309 -0.00508904 -0.00590086  0.00769889 -0.00644845 -0.00669575  0.0100075 -0.00804543 -0.00717163  0.0122534 -0.00992709 -0.0074172  0.0144308 -0.0121129 -0.00750685  0.0165398 -0.0145976 -0.00748873  0.0185798 -0.0173674 -0.00739717  0.020547 -0.0204114 -0.00725174  0.0224394 -0.0237157 -0.00706673  0.0242559 -0.0272706 -0.00686121  0.025996 -0.0310594 -0.00662994  0.0276589 -0.0350763 -0.00639582  0.0292448 -0.0393027 -0.00614882  0.0307502 -0.0437323 -0.00590515  0.032176 -0.0483594 -0.00566149  0.0335252 -0.0531617 -0.00542593  0.0347968 -0.0581431 -0.00519609  0.0359945 -0.0632858 -0.00497246  0.037119 -0.0685869 -0.00475311  0.038172 -0.074034 -0.0045414  0.0391531 -0.079625 -0.00432825  0.0400634 -0.0853508 -0.0041213  0.0409056 -0.0912001 -0.00392008  0.0416812 -0.0971678 -0.00372267  0.0423901 -0.103252 -0.00352144  0.043035 -0.109438 -0.00333548  0.0436195 -0.115722 -0.00315475  0.0441465 -0.122098 -0.00297832  0.0446173 -0.128557 -0.00281239  0.045033 -0.135097 -0.00264835  0.0453932 -0.14171 -0.00248051  0.0457006 -0.148397 -0.00232697  0.0459616 -0.155148 -0.00217438  0.0461733 -0.161952 -0.00201797  0.0463352 -0.168816 -0.00186872  0.0464535 -0.175725 -0.00172615  0.0465314 -0.182676 -0.00158882  0.046571 -0.189668 -0.00145292  0.046571 -0.196695 -0.00132179  0.0465331 -0.203752 -0.00120211  0.0464597 -0.210834 -0.0010891  0.0463557 -0.217942 -0.000988483  0.0462205 -0.225069 -0.000889301  0.0460563 -0.232209 -0.000795841  0.0458651 -0.239365 -0.000711441  0.0456476 -0.246527 -0.00062561  0.0454054 -0.253709 -0.000544548  0.0451436 -0.26089 -0.000464916  0.0448585 -0.268077 -0.000385284  0.0445528 -0.275265 -0.000316143  0.0442297 -0.282449 -0.00026083  0.0438919 -0.289629 -0.000206947  0.0435407 -0.296805 -0.00015974  0.0431783 -0.303975 -0.000107765  0.0428042 -0.311136 -6.91414e-05  0.0424201 -0.318291 -2.90871e-05  0.0420291 -0.325438 1.28746e-05  0.0416322 -0.332574 3.86238e-05  0.0412314 -0.339701 6.77109e-05  0.0408258 -0.346817 8.96454e-05  0.0404193 -0.353923 0.000105858  0.0400162 -0.361022 0.000118732  0 0 0  -0.00145267 -0.00203576 0.00382853  -0.00369845 -0.00271367 0.00594044  -0.00591345 -0.00342592 0.00729656  -0.00806044 -0.0044591 0.0081501  -0.0101658 -0.00586154 0.00864315  -0.012246 -0.00762605 0.00888205  -0.0143047 -0.00973125 0.00893068  -0.016342 -0.0121405 0.0088768  -0.0183523 -0.0148334 0.00872993  -0.0203312 -0.0177982 0.00853062  -0.0222768 -0.0210171 0.00828552  -0.0241873 -0.0244802 0.0080142  -0.0260603 -0.0281727 0.00771999  -0.0278915 -0.0320864 0.00741243  -0.0296778 -0.0362022 0.00710773  -0.0314178 -0.0405097 0.00680828  -0.0331129 -0.0450003 0.00651932  -0.0347629 -0.0496703 0.00623178  -0.0363657 -0.0545084 0.00595713  -0.0379229 -0.0595094 0.0056839  -0.039435 -0.0646706 0.00541544  -0.0409012 -0.0699776 0.00515604  -0.0423218 -0.0754192 0.00492001  -0.0436984 -0.0809984 0.00468349  -0.04503 -0.0867093 0.00445366  -0.0463201 -0.0925466 0.00421476  -0.0475682 -0.0984938 0.00399637  -0.0487756 -0.104546 0.00377607  -0.0499445 -0.110705 0.00357056  -0.0510747 -0.116958 0.00337029  -0.0521688 -0.123304 0.00316858  -0.0532267 -0.129737 0.00297356  -0.05425 -0.136247 0.00279379  -0.0552392 -0.14283 0.00261688  -0.0561917 -0.149482 0.00245333  -0.0571101 -0.1562 0.00228739  -0.057997 -0.162982 0.00211525  -0.0588524 -0.169812 0.00196314  -0.0596781 -0.176693 0.00182104  -0.0604737 -0.18362 0.00167513  -0.0612397 -0.190583 0.001544  -0.0619793 -0.197591 0.00140762  -0.0626907 -0.204627 0.00128317  -0.0633759 -0.211691 0.00117159  -0.0640376 -0.218784 0.00105381  -0.0646739 -0.225899 0.000937939  -0.0652869 -0.233023 0.000843048  -0.0658805 -0.240162 0.000763893  -0.0664539 -0.247312 0.000679016  -0.0670068 -0.254474 0.000596523  -0.0675409 -0.261642 0.000527859  -0.068058 -0.268817 0.000460625  -0.0685601 -0.275998 0.000392914  -0.0690475 -0.283177 0.00033474  -0.0695205 -0.290353 0.000274181  -0.0699792 -0.297517 0.000244617  -0.0704255 -0.304681 0.00020647  -0.0708597 -0.311841 0.000164032  -0.0712838 -0.318988 0.000138283  -0.0717027 -0.326125 0.000119686  -0.0721171 -0.333245 0.000104427  -0.0725274 -0.340356 9.29832e-05  -0.0729361 -0.347465 9.58443e-05  -0.0733449 -0.354572 8.91685e-05  0 0 0  -0.00108587 -0.00102653 0.00294542  -0.00294782 -0.00171351 0.00491953  -0.00485937 -0.00252454 0.00611258  -0.00671215 -0.00362689 0.00684643  -0.00851816 -0.00507144 0.00727367  -0.0102971 -0.00686027 0.00748539  -0.0120612 -0.00898391 0.00754261  -0.0138127 -0.011412 0.00751162  -0.0155497 -0.0141279 0.0074091  -0.017269 -0.0171165 0.00724316  -0.0189656 -0.0203627 0.00705004  -0.0206369 -0.0238552 0.0068264  -0.0222798 -0.0275774 0.00658703  -0.0238928 -0.0315218 0.00633097  -0.0254734 -0.0356702 0.00607443  -0.0270195 -0.0400134 0.00582218  -0.0285294 -0.0445415 0.00557756  -0.030002 -0.049247 0.00533342  -0.0314354 -0.054122 0.00509691  -0.0328301 -0.0591596 0.00486612  -0.0341876 -0.0643562 0.00463486  -0.0355082 -0.0696991 0.00442266  -0.0367899 -0.0751786 0.00421381  -0.0380335 -0.0807934 0.00401735  -0.039241 -0.0865389 0.00381374  -0.0404131 -0.0924062 0.00362015  -0.0415522 -0.0983857 0.00342941  -0.0426564 -0.10447 0.00324249  -0.0437268 -0.110658 0.00306225  -0.0447649 -0.116942 0.00288868  -0.0457712 -0.123315 0.00272226  -0.0467489 -0.129773 0.00255489  -0.0476975 -0.136309 0.00239468  -0.0486157 -0.142917 0.00225067  -0.0495038 -0.149594 0.00211143  -0.0503631 -0.156336 0.00196457  -0.0511949 -0.163136 0.00183344  -0.0520022 -0.169988 0.00169897  -0.052783 -0.17689 0.00156784  -0.0535367 -0.183834 0.00145102  -0.0542641 -0.190819 0.00133944  -0.0549688 -0.197841 0.0012269  -0.0556524 -0.204892 0.00112247  -0.0563142 -0.211971 0.00101471  -0.0569541 -0.219078 0.000920773  -0.0575747 -0.226202 0.000832081  -0.0581756 -0.23334 0.000748158  -0.0587542 -0.240489 0.000673771  -0.0593135 -0.247652 0.000598907  -0.0598569 -0.254823 0.000535011  -0.0603852 -0.262 0.000478745  -0.060899 -0.269181 0.000415802  -0.061399 -0.276367 0.000359058  -0.0618875 -0.283552 0.000309467  -0.0623643 -0.290733 0.000272751  -0.0628269 -0.297904 0.00023365  -0.0632775 -0.305071 0.000200748  -0.06372 -0.312233 0.000169754  -0.0641541 -0.319383 0.000144958  -0.0645812 -0.32652 0.000129223  -0.0650003 -0.333644 0.000112534  -0.0654151 -0.340757 9.82285e-05  -0.065825 -0.347864 9.29832e-05  -0.0662315 -0.354971 8.10623e-05  0 0 0  -0.00086806 -0.00033927 0.00255966  -0.00233208 -0.00089965 0.0040679  -0.00389279 -0.00173377 0.00508308  -0.00544856 -0.00287438 0.00570822  -0.0069795 -0.00435151 0.00608444  -0.00849161 -0.00616536 0.00627565  -0.00999227 -0.00830811 0.00633574  -0.011483 -0.0107545 0.00631428  -0.0129629 -0.0134939 0.00622606  -0.0144306 -0.0165051 0.00609493  -0.0158841 -0.0197772 0.00593901  -0.0173199 -0.0232951 0.00575352  -0.0187355 -0.027046 0.00555611  -0.0201301 -0.0310175 0.00534153  -0.0215018 -0.0351954 0.00513458  -0.0228479 -0.0395709 0.00491905  -0.0241655 -0.0441322 0.00471354  -0.0254532 -0.0488719 0.00450945  -0.0267105 -0.0537807 0.00430918  -0.027939 -0.0588531 0.00411034  -0.0291383 -0.0640815 0.0039258  -0.0303069 -0.0694577 0.00373507  -0.0314443 -0.0749708 0.00356054  -0.0325525 -0.080619 0.00339413  -0.0336306 -0.0863962 0.00323677  -0.0346802 -0.0922916 0.00306606  -0.0357033 -0.0983012 0.00289917  -0.0366991 -0.104416 0.00274324  -0.0376681 -0.110631 0.00259638  -0.0386094 -0.116941 0.00244522  -0.0395246 -0.123341 0.00230122  -0.040416 -0.129823 0.00216055  -0.0412836 -0.136384 0.00202799  -0.0421271 -0.143015 0.00190687  -0.0429454 -0.149715 0.00178719  -0.0437417 -0.156478 0.00167894  -0.0445149 -0.163298 0.0015626  -0.045265 -0.17017 0.00145149  -0.0459938 -0.177091 0.00133801  -0.0467019 -0.184053 0.00123787  -0.0473905 -0.191055 0.00114536  -0.048059 -0.198091 0.00105381  -0.0487087 -0.205158 0.000962734  -0.0493395 -0.21225 0.000870228  -0.0499549 -0.219369 0.000788212  -0.0505517 -0.226504 0.000720024  -0.051131 -0.233654 0.000647068  -0.0516942 -0.240813 0.000578403  -0.0522423 -0.247986 0.00052309  -0.0527744 -0.255167 0.0004673  -0.0532916 -0.262352 0.000415325  -0.0537963 -0.269541 0.000370502  -0.0542922 -0.276732 0.000326633  -0.0547755 -0.283921 0.000283718  -0.0552459 -0.291108 0.000249863  -0.0557067 -0.298286 0.000214577  -0.0561581 -0.305456 0.000187874  -0.0566006 -0.312621 0.000169754  -0.0570359 -0.319775 0.000145435  -0.0574651 -0.326913 0.000124931  -0.0578883 -0.334041 0.000114918  -0.0583036 -0.341155 9.77516e-05  -0.0587151 -0.348264 8.53539e-05  -0.0591264 -0.355366 7.29561e-05  0 0 0  -0.000675842 9.29832e-05 0.00217009  -0.00181766 -0.000300258 0.00338507  -0.00305721 -0.00109458 0.00416613  -0.00431694 -0.00224015 0.00467682  -0.00557289 -0.00373508 0.00498533  -0.00682136 -0.00557089 0.0051465  -0.00806299 -0.00773105 0.00520849  -0.00929919 -0.0101984 0.00518703  -0.0105302 -0.0129577 0.00512314  -0.0117531 -0.0159921 0.00502014  -0.012966 -0.0192869 0.00487852  -0.0141684 -0.0228276 0.00472879  -0.0153586 -0.0266044 0.00456524  -0.0165347 -0.0305993 0.00440216  -0.017695 -0.0348049 0.00422621  -0.0188365 -0.0392073 0.00405788  -0.0199586 -0.0437984 0.00388575  -0.0210608 -0.0485676 0.00372505  -0.0221418 -0.0535065 0.00356102  -0.0231998 -0.0586107 0.0033927  -0.0242351 -0.0638684 0.00323057  -0.0252483 -0.0692737 0.00308084  -0.0262393 -0.0748165 0.00293541  -0.0272069 -0.0804936 0.00280285  -0.0281519 -0.0862992 0.00266886  -0.0290753 -0.0922214 0.0025301  -0.0299783 -0.0982563 0.00239563  -0.0308613 -0.104398 0.00227308  -0.0317239 -0.110639 0.00214529  -0.0325658 -0.116974 0.00202417  -0.0333873 -0.123397 0.00189877  -0.0341887 -0.129901 0.00178576  -0.0349731 -0.136485 0.00167561  -0.0357392 -0.143137 0.00157881  -0.0364861 -0.149858 0.00148535  -0.0372121 -0.156639 0.00138521  -0.0379212 -0.163477 0.00129271  -0.0386147 -0.170368 0.00119925  -0.0392902 -0.177304 0.00111198  -0.0399499 -0.184283 0.00102663  -0.0405941 -0.191301 0.000958443  -0.0412233 -0.198349 0.000880718  -0.0418382 -0.205429 0.000804424  -0.0424364 -0.212534 0.0007267  -0.0430188 -0.219664 0.000663757  -0.0435872 -0.22681 0.000611305  -0.0441432 -0.233971 0.000554085  -0.0446858 -0.24114 0.000486374  -0.0452168 -0.248323 0.000438213  -0.0457349 -0.255512 0.000398159  -0.0462394 -0.262704 0.00035429  -0.0467331 -0.2699 0.000317097  -0.0472164 -0.277097 0.000286579  -0.0476916 -0.28429 0.000249863  -0.0481579 -0.291482 0.000225067  -0.0486152 -0.298666 0.000200272  -0.0490639 -0.305839 0.000175476  -0.0495062 -0.313007 0.000151157  -0.0499401 -0.320164 0.000142097  -0.0503681 -0.327306 0.000121117  -0.0507894 -0.334435 0.000111103  -0.0512047 -0.341553 9.39369e-05  -0.051615 -0.348662 7.9155e-05  -0.0520229 -0.355759 6.10352e-05  0 0 0  -0.000513628 0.00036788 0.00175524  -0.00137606 0.000120759 0.00270844  -0.0023227 -0.000608101 0.00331783  -0.00329813 -0.00174001 0.00370502  -0.00428155 -0.00323907 0.0039444  -0.00526711 -0.00509018 0.00407362  -0.00625214 -0.00726508 0.00412369  -0.00723591 -0.00975186 0.00410604  -0.00821829 -0.0125293 0.00405264  -0.00919878 -0.0155854 0.00396681  -0.0101758 -0.0188991 0.0038662  -0.0111475 -0.0224616 0.00373793  -0.012112 -0.0262593 0.00361347  -0.0130686 -0.0302757 0.00348234  -0.0140166 -0.0345054 0.0033493  -0.0149546 -0.0389307 0.00321817  -0.0158806 -0.0435476 0.00308228  -0.0167934 -0.0483425 0.00295067  -0.0176922 -0.0533086 0.00281668  -0.0185767 -0.0584383 0.00269365  -0.0194468 -0.063722 0.00256443  -0.0203029 -0.0691528 0.00244617  -0.0211431 -0.0747223 0.00232458  -0.021968 -0.0804254 0.00222206  -0.0227786 -0.086254 0.00210667  -0.0235742 -0.0922015 0.00200367  -0.0243553 -0.0982583 0.00189972  -0.0251206 -0.104423 0.00179625  -0.0258721 -0.110687 0.00169992  -0.0266104 -0.117045 0.00159454  -0.0273349 -0.123488 0.00150156  -0.0280474 -0.130014 0.00141239  -0.0287452 -0.136615 0.00133133  -0.0294292 -0.143289 0.00125217  -0.0301003 -0.150026 0.00117683  -0.0307591 -0.156824 0.00110102  -0.0314035 -0.163679 0.00102854  -0.0320349 -0.170586 0.000951767  -0.0326543 -0.177536 0.000893593  -0.0332627 -0.184529 0.000824928  -0.0338597 -0.19156 0.000761032  -0.0344429 -0.198621 0.000700951  -0.0350149 -0.205711 0.000638962  -0.0355783 -0.212829 0.000585079  -0.0361307 -0.219967 0.00054121  -0.0366704 -0.227124 0.000496864  -0.0372 -0.234293 0.000449181  -0.0377185 -0.241474 0.000396252  -0.0382271 -0.248664 0.000362396  -0.0387266 -0.25586 0.000322342  -0.0392172 -0.26306 0.000293255  -0.0396972 -0.270262 0.000266075  -0.0401704 -0.277462 0.000240326  -0.0406361 -0.284661 0.000211716  -0.041095 -0.291856 0.000195026  -0.0415459 -0.299044 0.00017786  -0.0419903 -0.306222 0.000156403  -0.042429 -0.313393 0.000142574  -0.0428607 -0.320552 0.000126839  -0.0432844 -0.327698 0.000110149  -0.0437021 -0.334829 9.58443e-05  -0.0441155 -0.341952 9.44138e-05  -0.0445256 -0.349058 8.05855e-05  -0.0449333 -0.356153 5.62668e-05  0 0 0  -0.000368174 0.000540555 0.00132179  -0.000982478 0.000404298 0.00203323  -0.00166027 -0.000262737 0.00248146  -0.00236598 -0.00137201 0.00275707  -0.00308463 -0.00287065 0.00293112  -0.00380966 -0.00472867 0.00302315  -0.0045386 -0.00691879 0.00305891  -0.00527075 -0.00941879 0.00305128  -0.00600702 -0.0122146 0.00301027  -0.00674534 -0.0152862 0.00294828  -0.00748479 -0.018619 0.00286865  -0.0082258 -0.0221997 0.00277185  -0.00896609 -0.0260148 0.00268173  -0.00970411 -0.0300502 0.00258636  -0.0104385 -0.0342986 0.002491  -0.0111706 -0.0387455 0.00238895  -0.0118992 -0.0433839 0.00228739  -0.0126209 -0.0482004 0.00219107  -0.0133363 -0.0531891 0.00208807  -0.0140465 -0.0583411 0.00199318  -0.0147494 -0.0636468 0.00189495  -0.0154444 -0.0690991 0.00180769  -0.0161337 -0.0746925 0.00173092  -0.0168151 -0.0804171 0.00164413  -0.0174874 -0.0862661 0.00156593  -0.0181515 -0.0922352 0.00148821  -0.0188073 -0.0983119 0.00141287  -0.0194559 -0.104497 0.00133562  -0.0200973 -0.110781 0.00125551  -0.0207301 -0.117158 0.00118065  -0.0213547 -0.12362 0.00111055  -0.0219713 -0.130164 0.00104332  -0.0225811 -0.13678 0.000984192  -0.0231833 -0.143471 0.000927925  -0.023778 -0.150224 0.000879288  -0.0243638 -0.157036 0.000819683  -0.0249417 -0.163908 0.000762939  -0.0255108 -0.170826 0.000712395  -0.0260715 -0.177789 0.000660896  -0.0266242 -0.184794 0.00061655  -0.0271702 -0.191837 0.000569344  -0.02771 -0.198907 0.00052309  -0.0282431 -0.206008 0.000484467  -0.0287673 -0.213136 0.000447273  -0.0292821 -0.220283 0.000413418  -0.0297909 -0.227447 0.000370502  -0.030293 -0.234625 0.00033474  -0.0307868 -0.241815 0.00030756  -0.0312722 -0.249011 0.000276089  -0.0317495 -0.256214 0.000251293  -0.0322196 -0.263421 0.000233173  -0.0326865 -0.270628 0.000210285  -0.0331469 -0.277832 0.000189304  -0.0336013 -0.285035 0.000180244  -0.034049 -0.292233 0.000161648  -0.0344925 -0.299424 0.000148296  -0.0349317 -0.306606 0.000136375  -0.0353632 -0.313781 0.000128746  -0.0357885 -0.320941 0.00011158  -0.0362115 -0.32809 0.000105381  -0.0366287 -0.335226 9.77516e-05  -0.0370398 -0.342349 9.15527e-05  -0.037446 -0.349456 7.62939e-05  -0.0378494 -0.356546 5.96046e-05  0 0 0  -0.000234511 0.000641227 0.000879288  -0.000621378 0.000578731 0.00134611  -0.00104749 -4.38988e-05 0.0016408  -0.00149497 -0.00113213 0.0018239  -0.00195459 -0.0026277 0.00193501  -0.00242305 -0.00449106 0.00200081  -0.00289845 -0.00669199 0.00201607  -0.00338066 -0.00920472 0.00201082  -0.00387061 -0.0120145 0.00198412  -0.00436699 -0.0150991 0.00193882  -0.00486958 -0.0184478 0.00188971  -0.00537753 -0.022043 0.00182772  -0.00589186 -0.0258724 0.00176573  -0.00641167 -0.0299249 0.00169945  -0.00693536 -0.0341874 0.00163698  -0.00746143 -0.0386531 0.00157166  -0.00799 -0.043308 0.00150013  -0.00852215 -0.0481433 0.00143337  -0.00905609 -0.0531501 0.00136948  -0.00958872 -0.0583215 0.00130081  -0.0101213 -0.0636453 0.0012393  -0.0106556 -0.0691166 0.00118446  -0.0111908 -0.0747298 0.00113058  -0.0117247 -0.0804713 0.00107527  -0.0122573 -0.0863389 0.00103235  -0.0127891 -0.0923256 0.000978947  -0.0133204 -0.0984206 0.000921249  -0.0138491 -0.104622 0.000874043  -0.0143766 -0.110923 0.000822544  -0.0149026 -0.117315 0.000778198  -0.0154258 -0.123794 0.00072813  -0.0159471 -0.130351 0.000685692  -0.0164669 -0.136985 0.000644684  -0.0169845 -0.143688 0.000609398  -0.017498 -0.150454 0.000567436  -0.0180097 -0.157281 0.000535488  -0.0185184 -0.164164 0.000500202  -0.0190237 -0.171093 0.000470638  -0.0195258 -0.178067 0.000432014  -0.0200238 -0.185081 0.000404835  -0.0205185 -0.192133 0.000377655  -0.0210092 -0.199213 0.000347137  -0.0214963 -0.206324 0.000329494  -0.0219808 -0.213459 0.000299454  -0.0224607 -0.220613 0.000281334  -0.022934 -0.227784 0.000259876  -0.0234044 -0.23497 0.000235558  -0.0238705 -0.242167 0.000208855  -0.0243318 -0.249369 0.000195503  -0.0247898 -0.256575 0.000174046  -0.025244 -0.263788 0.000163555  -0.0256927 -0.270998 0.000154495  -0.0261388 -0.278207 0.000145912  -0.0265813 -0.285414 0.0001297  -0.0270193 -0.292614 0.000126839  -0.0274515 -0.299807 0.000118256  -0.0278809 -0.306994 0.000110149  -0.0283072 -0.31417 0.000107288  -0.0287271 -0.321332 0.000104904  -0.0291431 -0.328485 9.87053e-05  -0.0295568 -0.335623 9.63211e-05  -0.0299671 -0.342746 9.10759e-05  -0.0303721 -0.349854 7.43866e-05  -0.0307744 -0.356939 6.29425e-05  0 0 0  -0.000105757 0.000686526 0.000425339  -0.000277698 0.00066191 0.000662327  -0.000465378 6.16014e-05 0.000807762  -0.000662804 -0.00101429 0.00089407  -0.000869155 -0.0025104 0.000944138  -0.00108394 -0.00437847 0.000974655  -0.00130767 -0.00658625 0.000989437  -0.00154176 -0.00911036 0.000985622  -0.00178629 -0.0119292 0.00096941  -0.0020408 -0.0150259 0.000945568  -0.00230604 -0.0183858 0.000920296  -0.00258219 -0.0219926 0.000888348  -0.0028699 -0.0258337 0.000856876  -0.00316894 -0.0298988 0.000824451  -0.00348037 -0.0341754 0.000789642  -0.00380212 -0.0386536 0.000749111  -0.00413251 -0.0433232 0.000716209  -0.00447154 -0.0481727 0.00069046  -0.00481868 -0.0531953 0.000655174  -0.00517523 -0.0583806 0.000626564  -0.00554049 -0.0637201 0.00059557  -0.00591409 -0.0692078 0.000565529  -0.00629282 -0.0748342 0.000538826  -0.00667751 -0.0805919 0.000521183  -0.00706935 -0.0864744 0.000492096  -0.0074681 -0.0924757 0.000466347  -0.00787246 -0.0985858 0.000439167  -0.00828135 -0.1048 0.000411987  -0.00869489 -0.111114 0.00039053  -0.00911283 -0.11752 0.00036335  -0.00953436 -0.124012 0.0003438  -0.0099591 -0.130581 0.000326633  -0.0103877 -0.137228 0.00030756  -0.010818 -0.143942 0.000290871  -0.0112519 -0.150719 0.000265121  -0.0116899 -0.157558 0.00025177  -0.0121286 -0.164448 0.000238419  -0.0125687 -0.171388 0.00022316  -0.0130098 -0.17837 0.000209332  -0.0134511 -0.185394 0.000198841  -0.0138931 -0.192451 0.000180244  -0.0143361 -0.19954 0.000171185  -0.014781 -0.206658 0.000161171  -0.0152228 -0.2138 0.000153065  -0.0156629 -0.220959 0.000146866  -0.0161026 -0.228137 0.000132561  -0.016542 -0.235327 0.000124931  -0.0169809 -0.242529 0.000114441  -0.0174167 -0.249735 0.000109673  -0.0178502 -0.256947 9.87053e-05  -0.0182831 -0.264163 9.63211e-05  -0.0187147 -0.271376 8.82149e-05  -0.0191443 -0.27859 9.44138e-05  -0.0195715 -0.285799 9.39369e-05  -0.0199952 -0.293002 8.4877e-05  -0.0204194 -0.300195 8.96454e-05  -0.0208418 -0.307385 8.4877e-05  -0.0212593 -0.314562 8.96454e-05  -0.0216737 -0.321728 8.67844e-05  -0.0220876 -0.328881 9.01222e-05  -0.0224986 -0.33602 8.67844e-05  -0.0229056 -0.343144 8.63075e-05  -0.0233114 -0.350252 8.63075e-05  -0.0237148 -0.357333 8.44002e-05  0 0 0  1.76504e-05 0.000686824 -2.6226e-05  5.44339e-05 0.000662625 -3.33786e-05  0.000100464 6.33001e-05 -3.57628e-05  0.000147969 -0.00101438 -3.67165e-05  0.000192106 -0.00251597 -3.71933e-05  0.000229985 -0.00438917 -4.673e-05  0.000256836 -0.00660464 -4.673e-05  0.00027138 -0.0091359 -4.86374e-05  0.000272691 -0.0119617 -4.24385e-05  0.000259042 -0.0150669 -4.33922e-05  0.000230849 -0.0184338 -5.05447e-05  0.000185609 -0.0220498 -4.62532e-05  0.00012368 -0.0258991 -4.673e-05  4.41074e-05 -0.0299743 -5.10216e-05  -5.26309e-05 -0.0342615 -5.48363e-05  -0.000167608 -0.03875 -6.10352e-05  -0.000300288 -0.0434304 -6.1512e-05  -0.000448227 -0.0482905 -6.05583e-05  -0.000612617 -0.0533252 -5.62668e-05  -0.000792027 -0.0585209 -5.38826e-05  -0.000985622 -0.0638734 -5.14984e-05  -0.00119424 -0.0693725 -5.24521e-05  -0.00141823 -0.0750097 -5.19753e-05  -0.00165677 -0.0807798 -4.95911e-05  -0.00190914 -0.0866729 -4.673e-05  -0.00217319 -0.0926855 -4.33922e-05  -0.0024488 -0.0988074 -3.91006e-05  -0.00273609 -0.105033 -4.33922e-05  -0.00303471 -0.111358 -3.76701e-05  -0.00334334 -0.117774 -4.19617e-05  -0.00366151 -0.124276 -4.33922e-05  -0.00399029 -0.130857 -3.52859e-05  -0.00432658 -0.137512 -2.95639e-05  -0.0046711 -0.144234 -2.67029e-05  -0.00502563 -0.151021 -3.33786e-05  -0.00538707 -0.157867 -2.95639e-05  -0.00575519 -0.164766 -2.67029e-05  -0.00612831 -0.171712 -1.7643e-05  -0.00650692 -0.178702 -1.14441e-05  -0.00689197 -0.185732 -1.81198e-05  -0.00728106 -0.192794 -7.15256e-06  -0.00767422 -0.19989 -1.14441e-05  -0.00807047 -0.207014 2.86102e-06  -0.00847149 -0.21416 5.72205e-06  -0.00887489 -0.221325 9.53674e-06  -0.00927877 -0.228507 1.14441e-05  -0.00968599 -0.235702 1.71661e-05  -0.0100946 -0.242906 1.85966e-05  -0.0105045 -0.250115 1.71661e-05  -0.0109155 -0.25733 2.00272e-05  -0.0113282 -0.264549 2.43187e-05  -0.0117414 -0.271765 3.86238e-05  -0.0121551 -0.27898 3.76701e-05  -0.012568 -0.286191 5.05447e-05  -0.0129797 -0.293395 5.67436e-05  -0.0133917 -0.300592 5.57899e-05  -0.0138052 -0.30778 6.67572e-05  -0.0142169 -0.314957 7.20024e-05  -0.014627 -0.322126 7.20024e-05  -0.0150337 -0.329279 7.82013e-05  -0.0154395 -0.336418 8.4877e-05  -0.0158448 -0.343543 8.96454e-05  -0.0162497 -0.350652 9.10759e-05  -0.0166516 -0.35773 9.63211e-05  0 0 0  0.000141956 0.000643313 -0.000480652  0.000388622 0.000584722 -0.000725746  0.000666916 -3.5882e-05 -0.000871181  0.000957727 -0.00113136 -0.000960827  0.00125057 -0.00264305 -0.001019  0.00153893 -0.00452459 -0.00105906  0.00181782 -0.00674564 -0.00107145  0.00208282 -0.00928217 -0.0010705  0.00232983 -0.0121128 -0.00105476  0.00255656 -0.0152222 -0.0010314  0.00276303 -0.0185934 -0.00101519  0.00294906 -0.0222142 -0.00098753  0.00311214 -0.0260714 -0.000956059  0.00325108 -0.030152 -0.000931263  0.00336677 -0.0344466 -0.000898361  0.00345922 -0.038942 -0.000867844  0.00352812 -0.043629 -0.000833988  0.00357127 -0.0484976 -0.000802517  0.00359046 -0.0535395 -0.000762463  0.0035876 -0.0587439 -0.000736713  0.00356221 -0.064105 -0.000705242  0.00351429 -0.069611 -0.000677109  0.00344503 -0.0752585 -0.000645161  0.00335622 -0.0810352 -0.000619888  0.00324774 -0.086937 -0.000580311  0.00311828 -0.0929573 -0.000548363  0.00296891 -0.0990889 -0.000526428  0.00280201 -0.105323 -0.000499725  0.00261879 -0.111655 -0.000475883  0.00241864 -0.118079 -0.000448227  0.00220215 -0.124587 -0.000427246  0.00197196 -0.131177 -0.000395298  0.00172687 -0.137838 -0.000370502  0.00146723 -0.144566 -0.000354767  0.00119424 -0.15136 -0.000328064  0.000909328 -0.158212 -0.000305176  0.000613689 -0.165117 -0.00028944  0.000306845 -0.172068 -0.000261307  -1.09673e-05 -0.179063 -0.000235558  -0.000337839 -0.186097 -0.000220299  -0.000672579 -0.193164 -0.000199318  -0.00101614 -0.200264 -0.000175953  -0.00136757 -0.207392 -0.000163078  -0.00172424 -0.21454 -0.000142574  -0.00208807 -0.221709 -0.000129223  -0.00245762 -0.228893 -0.000104427  -0.00283122 -0.236091 -8.67844e-05  -0.00321102 -0.243298 -7.39098e-05  -0.00359583 -0.250508 -6.53267e-05  -0.00398517 -0.257725 -5.14984e-05  -0.00437665 -0.264945 -3.62396e-05  -0.00477052 -0.272163 -2.19345e-05  -0.00516844 -0.279379 0  -0.00556731 -0.286591 1.52588e-05  -0.00596833 -0.293794 2.57492e-05  -0.00636959 -0.300993 3.09944e-05  -0.00677156 -0.30818 3.91006e-05  -0.00717568 -0.315359 4.62532e-05  -0.00757837 -0.322527 6.1512e-05  -0.0079813 -0.32968 6.86646e-05  -0.00838566 -0.33682 8.53539e-05  -0.00879025 -0.343944 8.82149e-05  -0.00919271 -0.351051 9.72748e-05  -0.00959182 -0.358131 0.000109196  0 0 0  0.000266403 0.000552356 -0.000923634  0.000726238 0.000427723 -0.00141239  0.00124288 -0.000239909 -0.00170469  0.00178283 -0.00136578 -0.00188255  0.00232911 -0.00289291 -0.00199461  0.00287074 -0.00478339 -0.00205898  0.00340039 -0.00700891 -0.00208759  0.00391316 -0.00954807 -0.00208664  0.0044052 -0.0123807 -0.00206518  0.00487292 -0.0154915 -0.00202847  0.00531638 -0.0188643 -0.0019784  0.0057326 -0.0224869 -0.0019269  0.00611943 -0.0263485 -0.00186491  0.00647777 -0.0304313 -0.00179958  0.00680673 -0.0347307 -0.00173616  0.00710452 -0.0392295 -0.00166893  0.00736988 -0.04392 -0.00161076  0.00760472 -0.0487935 -0.00154161  0.00780833 -0.0538393 -0.0014782  0.00798094 -0.0590489 -0.00141382  0.00812435 -0.0644152 -0.00135517  0.00823879 -0.0699257 -0.00129747  0.00832379 -0.0755782 -0.00123692  0.00838161 -0.0813606 -0.00117254  0.00841284 -0.0872666 -0.00112152  0.00841737 -0.0932932 -0.00106764  0.00839698 -0.0994301 -0.00100851  0.00835276 -0.105671 -0.000956059  0.0082835 -0.112007 -0.000909805  0.00819182 -0.118436 -0.000863552  0.00807917 -0.124948 -0.000809669  0.00794482 -0.131543 -0.000761032  0.00779057 -0.138208 -0.000718117  0.00761819 -0.14494 -0.000677109  0.00742602 -0.151738 -0.000624657  0.00721717 -0.158593 -0.000584602  0.00699091 -0.165501 -0.000546455  0.00675011 -0.172457 -0.000499725  0.00649548 -0.179455 -0.000469685  0.00622725 -0.186491 -0.000422001  0.00594544 -0.193561 -0.0003829  0.0056529 -0.200665 -0.000349522  0.00534868 -0.207794 -0.000316143  0.00503159 -0.214944 -0.000289917  0.00470448 -0.222112 -0.000253201  0.00436974 -0.229297 -0.000220776  0.00402641 -0.236495 -0.00019455  0.00367665 -0.243703 -0.000172615  0.00331855 -0.250916 -0.000151634  0.00295258 -0.258134 -0.000124931  0.00258136 -0.265352 -0.000101089  0.00220466 -0.272572 -6.86646e-05  0.00182343 -0.279787 -5.05447e-05  0.00143886 -0.286998 -2.86102e-05  0.00105143 -0.294202 -1.09673e-05  0.000660419 -0.301399 3.8147e-06  0.000266552 -0.308588 1.71661e-05  -0.000128984 -0.315765 3.43323e-05  -0.00052762 -0.322931 4.91142e-05  -0.000928879 -0.330084 6.00815e-05  -0.00132942 -0.337224 6.86646e-05  -0.00172877 -0.344347 9.01222e-05  -0.00212979 -0.351454 0.000106335  -0.00252962 -0.358538 0.000117779  0 0 0  0.000397444 0.000407159 -0.00136328  0.00108169 0.000181139 -0.00208235  0.00184503 -0.000555634 -0.00252485  0.00264019 -0.00171977 -0.00280571  0.00344419 -0.00326526 -0.00298071  0.00424218 -0.0051651 -0.0030756  0.00502554 -0.0073933 -0.00311279  0.00578749 -0.00993288 -0.00311089  0.00652456 -0.0127643 -0.00307417  0.00723445 -0.0158742 -0.0030241  0.00791341 -0.0192459 -0.00294924  0.00855821 -0.0228687 -0.00286388  0.00916815 -0.0267281 -0.00277138  0.00974232 -0.0308127 -0.00268364  0.0102808 -0.0351118 -0.0025835  0.0107837 -0.0396119 -0.00248432  0.0112475 -0.0443043 -0.00238419  0.0116719 -0.0491784 -0.00228643  0.0120583 -0.0542251 -0.00219107  0.0124067 -0.0594374 -0.00209475  0.0127182 -0.064804 -0.00200319  0.0129935 -0.0703174 -0.00192213  0.0132332 -0.0759703 -0.00183058  0.013438 -0.0817562 -0.00173569  0.0136099 -0.0876645 -0.00165749  0.0137495 -0.093694 -0.00157452  0.0138562 -0.0998337 -0.00149441  0.013932 -0.106077 -0.00141621  0.0139776 -0.112416 -0.00134039  0.0139945 -0.118845 -0.00127459  0.0139829 -0.12536 -0.00119877  0.0139444 -0.131954 -0.00112247  0.0138812 -0.138622 -0.00105858  0.0137932 -0.145357 -0.000992298  0.0136819 -0.152157 -0.00093174  0.0135474 -0.159012 -0.000866413  0.0133927 -0.165922 -0.000803471  0.0132172 -0.172881 -0.000750542  0.0130246 -0.179879 -0.000691891  0.0128121 -0.186915 -0.000628471  0.0125821 -0.193986 -0.000578403  0.0123363 -0.201091 -0.000520229  0.0120759 -0.208219 -0.000474453  0.0118027 -0.215368 -0.000432014  0.0115156 -0.222537 -0.000384808  0.0112145 -0.229721 -0.000340939  0.0109012 -0.236918 -0.00029707  0.0105765 -0.244122 -0.000267506  0.010242 -0.251337 -0.000239849  0.00989962 -0.258554 -0.000200748  0.00954843 -0.265771 -0.000161171  0.00918937 -0.272989 -0.000127316  0.00882435 -0.280205 -9.72748e-05  0.00845432 -0.287414 -7.72476e-05  0.00807738 -0.294616 -5.24521e-05  0.00769615 -0.301812 -2.24113e-05  0.00731087 -0.309001 -9.53674e-07  0.00692105 -0.316176 1.85966e-05  0.00652838 -0.32334 3.52859e-05  0.00613451 -0.330493 4.81606e-05  0.00573874 -0.337632 6.62804e-05  0.00534201 -0.344755 8.29697e-05  0.00494528 -0.351862 0.000104427  0.00455141 -0.358951 0.000123501  0 0 0  0.00053484 0.000193834 -0.00178003  0.00146095 -0.000172436 -0.00274134  0.00249128 -0.000991285 -0.00333691  0.00355628 -0.00219834 -0.0037241  0.00462317 -0.00376052 -0.00396061  0.00567845 -0.00566775 -0.0040946  0.00671461 -0.00789589 -0.00415468  0.00772679 -0.0104333 -0.00414467  0.00870961 -0.0132611 -0.00409126  0.0096584 -0.016367 -0.0040164  0.0105708 -0.0197355 -0.00391817  0.0114443 -0.0233555 -0.00381374  0.0122768 -0.0272113 -0.00369406  0.013068 -0.0312936 -0.0035615  0.0138166 -0.0355908 -0.00343418  0.0145205 -0.0400898 -0.00329876  0.0151802 -0.0447798 -0.00316286  0.0157946 -0.0496522 -0.00303364  0.0163642 -0.0546969 -0.00291348  0.0168883 -0.0599089 -0.00277901  0.0173671 -0.065273 -0.00266457  0.0178016 -0.0707862 -0.00254297  0.0181944 -0.0764377 -0.00242901  0.0185466 -0.0822217 -0.00231218  0.0188581 -0.088131 -0.00219488  0.0191293 -0.0941595 -0.00208855  0.0193623 -0.100299 -0.00198126  0.019558 -0.106542 -0.00188017  0.0197165 -0.11288 -0.00178099  0.0198393 -0.119309 -0.00167942  0.0199289 -0.125823 -0.00158405  0.0199859 -0.132415 -0.00149393  0.0200114 -0.139081 -0.00140095  0.0200081 -0.145816 -0.0013113  0.0199754 -0.152615 -0.00123215  0.0199161 -0.15947 -0.00114775  0.0198305 -0.166378 -0.00106096  0.0197191 -0.173336 -0.000988483  0.0195842 -0.180335 -0.00090456  0.0194283 -0.187369 -0.000835419  0.0192504 -0.194439 -0.000758171  0.0190523 -0.201542 -0.000692368  0.0188351 -0.208668 -0.000630379  0.0185997 -0.215814 -0.000568867  0.018347 -0.22298 -0.00051403  0.0180786 -0.230163 -0.000457764  0.0177948 -0.237355 -0.000408173  0.017498 -0.244558 -0.000350952  0.0171874 -0.25177 -0.000310898  0.0168648 -0.258986 -0.000271797  0.0165324 -0.266202 -0.000225067  0.0161912 -0.273417 -0.000189781  0.0158398 -0.280631 -0.000148296  0.0154822 -0.287838 -0.000113487  0.01512 -0.295038 -8.58307e-05  0.0147483 -0.302233 -5.10216e-05  0.014369 -0.309419 -1.62125e-05  0.0139852 -0.316591 2.38419e-06  0.013597 -0.323754 1.7643e-05  0.0132051 -0.330906 4.24385e-05  0.0128102 -0.338042 6.05583e-05  0.0124135 -0.345165 8.72612e-05  0.012017 -0.352273 0.000107765  0.0116205 -0.359365 0.0001297  0 0 0  0.000684775 -0.000116408 -0.0021677  0.00188221 -0.000656903 -0.00338888  0.00320064 -0.00156134 -0.00416517  0.00454628 -0.00280428 -0.0046711  0.0058856 -0.00437897 -0.00497389  0.00720337 -0.00628686 -0.00512981  0.00849372 -0.00851244 -0.0051918  0.00975382 -0.0110435 -0.00518131  0.0109797 -0.0138675 -0.00512266  0.0121681 -0.0169672 -0.00502205  0.013315 -0.0203311 -0.00490427  0.0144171 -0.0239446 -0.00476456  0.0154725 -0.0277973 -0.00461721  0.0164794 -0.0318735 -0.00445652  0.0174368 -0.0361678 -0.00428438  0.018344 -0.040662 -0.00411749  0.0191989 -0.0453478 -0.00395489  0.02 -0.0502154 -0.00379324  0.0207477 -0.0552557 -0.00363588  0.021444 -0.0604629 -0.00348473  0.0220903 -0.0658224 -0.00333166  0.0226859 -0.0713306 -0.00318193  0.0232311 -0.0769796 -0.00303555  0.0237266 -0.0827587 -0.00288725  0.0241747 -0.0886646 -0.0027442  0.0245776 -0.0946896 -0.00260162  0.0249331 -0.100826 -0.00247431  0.0252447 -0.107066 -0.00233841  0.0255147 -0.1134 -0.00222111  0.0257443 -0.119826 -0.00209236  0.0259341 -0.126335 -0.00197411  0.0260849 -0.132923 -0.00186491  0.0261986 -0.139586 -0.00175285  0.0262764 -0.146318 -0.00163984  0.0263216 -0.153114 -0.0015316  0.0263338 -0.159966 -0.00142622  0.026315 -0.166871 -0.00132179  0.0262656 -0.173824 -0.00122976  0.0261891 -0.18082 -0.00113297  0.0260847 -0.187851 -0.00103474  0.0259562 -0.194918 -0.000946522  0.0258057 -0.202017 -0.000861168  0.0256312 -0.209139 -0.00078249  0.025434 -0.216281 -0.000718117  0.0252161 -0.223445 -0.000639439  0.0249798 -0.230622 -0.000575542  0.024725 -0.237809 -0.000512123  0.0244513 -0.245008 -0.000445366  0.0241613 -0.252216 -0.000391483  0.0238574 -0.259429 -0.00033474  0.0235412 -0.266643 -0.000283718  0.0232134 -0.273857 -0.000237942  0.0228767 -0.281066 -0.000195503  0.0225291 -0.28827 -0.000154495  0.022171 -0.295467 -0.000118732  0.0218067 -0.302658 -7.62939e-05  0.0214355 -0.30984 -4.3869e-05  0.0210574 -0.31701 -1.7643e-05  0.020674 -0.324171 5.72205e-06  0.0202854 -0.33132 3.19481e-05  0.019892 -0.338456 6.1512e-05  0.0194957 -0.345577 8.67844e-05  0.0191 -0.352685 0.000106812  0.0187044 -0.359782 0.000128269  0 0 0  0.000861995 -0.000574291 -0.00254631  0.00236948 -0.00130659 -0.0040431  0.00400084 -0.00227857 -0.0050416  0.00563973 -0.00353605 -0.00565481  0.0072515 -0.00511473 -0.00601625  0.00882998 -0.00701553 -0.0062027  0.0103762 -0.0092358 -0.00627136  0.0118878 -0.0117601 -0.00625229  0.0133597 -0.0145779 -0.00617647  0.014788 -0.017672 -0.00605345  0.016171 -0.0210292 -0.00590467  0.0175045 -0.0246365 -0.00573921  0.0187827 -0.0284826 -0.00555611  0.0200036 -0.0325527 -0.00536299  0.0211679 -0.0368394 -0.00516129  0.0222744 -0.0413275 -0.0049634  0.0233215 -0.046007 -0.00475931  0.0243094 -0.0508673 -0.00457144  0.0252362 -0.0558997 -0.00437355  0.0261042 -0.0610992 -0.00418329  0.0269148 -0.0664517 -0.00400543  0.0276667 -0.0719516 -0.00383139  0.02836 -0.0775934 -0.00364304  0.0289983 -0.0833673 -0.00347233  0.0295823 -0.0892652 -0.00330973  0.0301114 -0.0952843 -0.00313091  0.0305899 -0.101415 -0.00297546  0.0310189 -0.107649 -0.0028162  0.0313982 -0.113977 -0.00266647  0.0317308 -0.120395 -0.0025177  0.0320171 -0.126898 -0.00237608  0.0322583 -0.133478 -0.0022378  0.0324571 -0.140135 -0.00209904  0.0326157 -0.146862 -0.00196362  0.0327349 -0.153651 -0.00184155  0.0328169 -0.160499 -0.00171804  0.0328634 -0.167399 -0.00159168  0.0328758 -0.174345 -0.001472  0.0328531 -0.181335 -0.00134802  0.0328009 -0.188362 -0.00124407  0.0327206 -0.195424 -0.0011344  0.0326111 -0.202516 -0.00102901  0.032475 -0.209633 -0.000937939  0.0323143 -0.216769 -0.000849724  0.0321286 -0.223928 -0.000768185  0.03192 -0.231097 -0.000687122  0.0316892 -0.238278 -0.000611305  0.0314384 -0.245472 -0.00053978  0.0311689 -0.252675 -0.000466824  0.0308838 -0.259884 -0.000406742  0.0305831 -0.267095 -0.000340462  0.0302677 -0.274305 -0.000285149  0.0299389 -0.281508 -0.000232697  0.0295982 -0.288707 -0.000186443  0.029248 -0.295901 -0.000146389  0.0288877 -0.303088 -0.000107288  0.0285196 -0.310265 -6.29425e-05  0.0281446 -0.317432 -2.67029e-05  0.0277634 -0.324591 6.19888e-06  0.0273762 -0.331736 3.05176e-05  0.0269852 -0.338871 5.91278e-05  0.0265906 -0.34599 8.29697e-05  0.0261931 -0.353097 0.000102043  0.0257955 -0.360198 0.0001297  0 0 0  0.00105347 -0.00126165 -0.00291109  0.0029421 -0.002159 -0.00485182  0.00492346 -0.00313932 -0.00601768  0.00685769 -0.00438297 -0.00671911  0.00874007 -0.00595087 -0.00712013  0.0105818 -0.00784171 -0.00733376  0.0123865 -0.0100569 -0.00739622  0.0141519 -0.0125759 -0.00737047  0.0158738 -0.0153878 -0.0072813  0.0175483 -0.0184754 -0.00713682  0.0191697 -0.0218267 -0.00696373  0.0207319 -0.0254272 -0.00676107  0.0222311 -0.0292645 -0.00653791  0.0236675 -0.0333266 -0.00630426  0.0250404 -0.037603 -0.00607347  0.0263479 -0.0420835 -0.00583792  0.0275867 -0.0467544 -0.00560188  0.0287571 -0.051605 -0.00537157  0.0298611 -0.0566263 -0.00513744  0.0308983 -0.0618143 -0.00491714  0.0318677 -0.0671585 -0.00470543  0.0327715 -0.0726465 -0.00449514  0.0336119 -0.0782781 -0.00428772  0.0343899 -0.0840434 -0.00407934  0.0351057 -0.0899318 -0.00388241  0.0357604 -0.0959413 -0.00368357  0.0363567 -0.102064 -0.00349331  0.0368975 -0.108289 -0.0033083  0.0373847 -0.114607 -0.00312519  0.0378182 -0.121017 -0.00295305  0.0381987 -0.127509 -0.00278378  0.0385289 -0.134081 -0.00262737  0.0388107 -0.140729 -0.00246572  0.0390458 -0.147448 -0.00230598  0.0392368 -0.154228 -0.00215006  0.0393851 -0.161069 -0.00200987  0.0394933 -0.167963 -0.00186634  0.0395622 -0.1749 -0.00171471  0.0395947 -0.181881 -0.00158024  0.0395911 -0.188901 -0.00144768  0.0395536 -0.195956 -0.00132179  0.0394847 -0.203041 -0.00120926  0.0393865 -0.210148 -0.00109816  0.0392578 -0.217279 -0.000996113  0.0391006 -0.224428 -0.000891209  0.0389175 -0.23159 -0.000801563  0.0387101 -0.238765 -0.000715256  0.0384793 -0.24595 -0.000637531  0.0382271 -0.253146 -0.000546455  0.0379548 -0.26035 -0.00047636  0.0376649 -0.267555 -0.000397682  0.0373602 -0.27476 -0.00032711  0.0370405 -0.281959 -0.000266552  0.0367062 -0.289151 -0.000213146  0.0363579 -0.296338 -0.000172138  0.0359986 -0.303521 -0.000116348  0.0356302 -0.310694 -7.77245e-05  0.035255 -0.317856 -3.48091e-05  0.0348718 -0.325012 3.8147e-06  0.034483 -0.332154 3.71933e-05  0.0340889 -0.339285 5.67436e-05  0.0336938 -0.346405 7.82013e-05  0.0332987 -0.353511 0.000100613  0.0329027 -0.360613 0.000119686  0 0 0  0.00140744 -0.00224257 -0.00377607  0.0036912 -0.00318575 -0.00579834  0.00596616 -0.00410295 -0.00707912  0.00817928 -0.00530791 -0.00789261  0.0103438 -0.00685668 -0.00836325  0.0124664 -0.00874114 -0.00859308  0.0145476 -0.0109548 -0.00866079  0.0165848 -0.0134714 -0.00861979  0.0185702 -0.0162785 -0.00850105  0.0204965 -0.0193598 -0.00832558  0.0223603 -0.0227069 -0.00810766  0.0241561 -0.0262993 -0.00786781  0.0258821 -0.030127 -0.00760508  0.0275346 -0.0341804 -0.00733519  0.0291124 -0.0384445 -0.00705624  0.0306145 -0.0429152 -0.00677395  0.0320414 -0.0475763 -0.00649643  0.0333937 -0.0524151 -0.00622654  0.0346694 -0.0574239 -0.00596189  0.0358691 -0.0625977 -0.00570726  0.036996 -0.0679311 -0.00545597  0.0380505 -0.0734055 -0.00521326  0.0390323 -0.0790237 -0.0049696  0.0399443 -0.0847785 -0.00473118  0.0407882 -0.090656 -0.00449896  0.0415657 -0.0966522 -0.00427628  0.0422772 -0.102766 -0.00404119  0.0429262 -0.108978 -0.00382996  0.0435128 -0.115285 -0.00362015  0.0440406 -0.121685 -0.00341845  0.0445129 -0.128164 -0.00322866  0.0449293 -0.134726 -0.00304079  0.0452917 -0.141365 -0.00284481  0.0456026 -0.14807 -0.00267267  0.045862 -0.154841 -0.00249529  0.046073 -0.16167 -0.00231743  0.0462379 -0.168559 -0.00214243  0.04636 -0.175487 -0.0019784  0.0464404 -0.182454 -0.00182676  0.0464809 -0.189466 -0.00167084  0.0464847 -0.196512 -0.00152206  0.0464525 -0.20359 -0.00138378  0.0463862 -0.210684 -0.00125456  0.0462859 -0.217808 -0.00113869  0.0461535 -0.224945 -0.00102234  0.0459907 -0.2321 -0.000914574  0.0458004 -0.239265 -0.000818729  0.0455863 -0.24644 -0.000720978  0.0453472 -0.253629 -0.000626564  0.045084 -0.260825 -0.000537395  0.044802 -0.268023 -0.00044632  0.0445006 -0.275223 -0.000365257  0.0441823 -0.282415 -0.000300884  0.043849 -0.289599 -0.000239849  0.0435009 -0.296779 -0.00018549  0.0431395 -0.303956 -0.000127792  0.0427673 -0.311124 -8.24928e-05  0.0423868 -0.318283 -3.76701e-05  0.0419998 -0.325435 9.05991e-06  0.0416067 -0.332572 3.67165e-05  0.0412073 -0.3397 7.05719e-05  0.0408041 -0.34682 9.44138e-05  0.0404031 -0.353927 0.00011158  0.0400052 -0.361024 0.000117779  
SCALARS smooth_stress float 1
LOOKUP_TABLE default
31.3332 60.9216 58.2007 56.3145 55.4447 55.0102 53.4278 51.7956 50.8 49.5119 49.0244 48.4583 46.3967 45.068 43.7127 42.1144 40.8047 39.1728 37.7827 36.2963 34.2874 32.2992 30.991 29.6732 28.6398 27.2986 25.7786 24.4875 22.8524 21.6932 21.0157 19.3827 18.0508 17.7828 16.269 15.3752 14.268 12.5424 12.3028 11.5956 10.1181 9.29169 8.69743 7.8742 7.54806 7.14781 6.36415 5.59304 5.07004 4.80366 4.23764 3.99972 3.47814 2.57186 2.38442 2.20308 1.94333 1.70971 1.51339 1.3968 1.05124 0.97127 1.04223 1.30035 0.825872 54.0922 107.723 106.451 104.628 103.028 101.371 98.8022 96.2275 94.9205 92.9471 91.4262 90.1485 86.9272 84.5467 82.2191 79.3224 76.7411 73.6881 70.4884 67.5832 64.3953 61.0715 58.391 56.0108 53.7624 51.2869 48.9857 46.3357 43.1665 41.2555 39.5345 37.3225 34.7985 33.0892 30.7641 28.4793 26.7852 24.7361 23.3094 21.3922 19.4535 18.0619 16.9283 15.445 14.5886 13.6327 12.2112 11.1082 10.2353 9.32426 8.03071 7.35378 6.53052 5.90761 5.77036 4.94429 4.29849 3.9948 3.25187 2.75293 2.83364 2.87572 2.55652 2.34197 1.23064 41.4965 84.1417 86.6979 88.025 87.449 86.0453 84.1683 82.5489 81.6508 80.3662 78.9406 77.9556 75.922 73.645 71.7906 69.2432 66.496 64.0243 61.8009 59.2983 57.0789 55.0601 52.3438 50.1372 47.9837 45.5805 43.9361 41.8993 38.7819 37.3102 35.5497 33.1623 30.8989 28.7574 27.2848 25.4386 24.1448 22.8025 21.066 19.2864 17.9942 16.9117 16.3562 15.4089 13.8728 13.0111 11.8313 10.6562 10.287 8.9915 7.92615 7.51062 7.04911 7.4609 6.89389 5.43507 4.43625 4.40992 3.81992 2.97946 3.48828 3.26226 2.87628 2.46511 0.918076 34.0763 67.8236 69.6671 71.5675 72.3371 72.2097 70.6497 70.0883 68.5707 67.3962 67.3288 66.9962 65.2188 62.8305 61.623 59.7897 57.3109 55.0325 53.4727 52.2477 50.606 48.8137 46.9272 44.9798 43.1512 40.6231 38.4727 36.8918 34.7283 33.2061 31.2875 29.0541 27.5602 26.041 24.9713 23.8853 22.7386 21.4545 19.7551 18.3779 17.3148 16.5686 16.3085 15.627 13.5602 12.7087 11.9052 10.3766 9.97012 9.33 8.66031 8.08205 7.63038 7.61631 6.98243 5.76477 4.99422 4.8814 4.06754 3.26726 3.43013 2.77251 2.66887 2.96627 1.32506 27.8121 54.09 54.2294 56.3259 58.0019 58.737 58.7008 58.8609 57.4805 56.6901 56.4214 56.3245 55.5959 53.5376 52.2633 50.7532 49.137 47.3604 45.8627 45.0407 43.144 41.381 40.1717 38.6209 37.1575 35.4793 33.8757 32.0531 30.4372 29.2153 27.6642 26.5376 25.4131 23.8836 22.8943 22.2136 21.3292 20.5359 19.2082 17.5268 16.5793 16.3669 15.5868 14.5737 13.2741 12.9141 12.6381 11.1464 10.6037 10.195 9.45619 8.62238 8.04 7.69396 7.30768 6.28416 5.43931 5.30253 4.38545 3.70949 3.53288 3.10253 3.01114 3.1901 1.61417 22.2845 41.279 39.0842 41.8382 44.3033 45.515 46.7302 47.4626 47.3594 47.1536 46.115 45.9455 46.4001 45.2007 43.6638 42.3849 41.6878 40.7599 39.7599 38.5776 36.6224 35.4575 34.6781 33.2708 31.9736 31.035 30.1124 29.2206 27.6482 26.4864 25.7309 24.5948 23.3167 22.1476 21.163 20.4135 19.4909 18.7463 18.4187 17.0023 15.8528 15.6829 14.7587 13.9761 13.3933 13.0389 12.9172 11.7291 11.0711 10.5616 9.81336 9.00493 8.6693 8.52486 7.56633 6.22517 5.38633 5.62241 5.32112 4.41541 3.81174 3.50374 3.39499 3.28201 1.55977 17.16 30.0427 26.3503 28.7508 31.8376 33.7924 35.2245 36.4909 37.6725 38.1746 37.7473 37.8908 38.1663 37.8766 37.3061 36.4511 35.9911 35.4012 34.4341 33.6398 32.895 31.9194 31.1078 29.9499 28.9361 27.979 26.8735 26.5123 25.6059 24.7862 23.9743 23.0004 22.1258 21.2607 20.556 19.4875 18.6616 18.182 17.4981 16.52 15.8362 15.3737 14.9025 14.5311 13.7397 12.7194 12.3841 11.8129 10.7772 10.1709 9.38098 8.64586 8.6174 8.44139 7.57463 6.45172 5.81444 6.01178 5.66863 4.54075 3.75199 3.48118 3.34709 2.96309 1.3333 12.6218 19.7826 15.377 18.5226 22.8745 26.2917 28.4361 29.9266 31.3814 32.4824 32.8995 33.3266 33.375 33.4033 33.2423 32.5783 31.9264 31.5733 30.9305 30.4254 30.1231 29.1449 28.07 27.3995 26.9894 26.2919 25.316 24.5293 23.9697 23.7651 22.9014 21.7716 21.239 20.5725 19.8381 19.0668 18.4477 18.1504 17.428 16.3496 15.7877 15.432 14.8641 14.3208 13.7471 12.7509 12.1775 11.6698 10.8605 10.0285 9.19447 8.93361 8.8204 8.18738 7.49296 6.73123 5.693 5.70946 5.57152 4.60669 3.90864 3.97166 3.96356 2.85229 1.08058 10.158 13.8386 9.28603 13.9924 19.4822 23.6303 26.3376 27.9703 29.2101 30.3598 31.11 31.521 31.5041 31.3979 31.1565 30.8503 30.4408 30.0494 29.632 29.2661 28.5696 27.7336 27.1035 26.5206 26.2118 25.7872 24.8549 24.1278 23.6045 23.2656 22.3936 21.2527 20.7327 20.3262 19.6817 18.9352 18.3626 18.1549 17.4783 16.3008 15.7629 15.378 14.7586 13.9683 13.8724 13.0392 12.2236 11.8536 10.9547 10.0441 9.28635 9.12133 8.84068 7.97685 7.32077 6.9115 6.14546 6.05793 5.5157 4.41153 4.06276 4.34998 4.17168 3.0962 1.26335 11.0439 16.8336 14.062 19.2308 23.9259 27.5366 29.7567 31.1517 32.1096 32.6162 33.162 33.4318 33.2184 33.0396 32.8115 32.3368 31.8462 31.1426 30.7778 30.4265 29.7591 29.2788 28.5368 27.4206 26.8865 26.5152 25.5974 24.6977 23.9515 23.3266 22.5165 21.6783 21.2387 20.5877 19.9706 19.519 18.8614 18.3095 17.3309 16.4646 16.074 15.3139 14.7097 14.1972 13.7366 12.9534 12.737 12.3407 11.0913 10.3679 9.73163 9.2377 8.73277 7.64579 6.83537 6.75854 6.66492 6.31634 5.621 4.71349 4.16332 3.99756 3.66386 3.37342 1.63517 14.5242 26.4375 25.7828 29.7876 33.2287 35.7894 37.193 38.1263 39.1517 39.2488 38.7392 38.68 38.2473 37.8586 37.5261 36.9786 36.2611 35.0541 34.0223 33.3448 32.6776 31.8423 30.8498 29.6393 28.8899 28.3195 27.5456 26.894 25.9449 24.5129 23.7186 22.8854 22.3454 21.4811 20.4597 20.0815 19.1637 18.386 17.5464 16.9707 16.4053 15.2332 14.7686 14.7325 13.7168 12.7607 12.6224 11.6541 11.0093 10.9186 10.5246 9.87654 8.69595 7.63368 6.69906 6.30686 6.40447 5.91834 5.33705 5.02184 4.34013 3.7743 3.44389 3.6911 2.05475 19.5675 37.8112 37.9012 41.4197 44.3239 46.2755 47.343 47.5716 48.087 47.9886 47.1129 46.5803 45.7771 44.7357 43.9928 43.6535 42.5496 40.6897 39.3448 38.1044 36.7944 35.3359 34.1484 33.2588 32.0809 31.0257 30.2751 29.4819 28.3331 26.6054 26.1768 25.614 24.63 23.2226 21.6202 21.04 19.8852 18.8021 17.992 17.407 16.5686 15.5519 15.1954 14.7165 13.7534 12.8493 11.9831 11.2689 11.0919 10.4671 9.95607 9.40359 8.1763 7.35838 7.08177 6.6382 6.29304 5.55107 4.70261 4.61761 4.19482 3.45457 3.15256 3.2499 1.66514 25.4824 49.899 51.002 55.418 58.0706 58.3881 58.0023 58.2379 57.922 57.2729 56.6021 55.2862 54.274 53.0086 51.9903 51.2234 49.7431 47.6443 45.8777 44.5549 43.0364 41.2132 39.9616 38.7867 36.7645 35.2255 33.9837 32.0236 30.5688 29.4676 28.7353 28.1681 27.0732 25.3544 23.43 22.3694 21.5548 20.2062 18.7257 17.9706 17.2725 16.3256 15.3609 14.5223 13.9442 13.1829 12.1931 11.9482 11.366 9.97467 8.99406 8.47863 7.90661 6.98097 7.11811 6.78763 5.87602 5.18864 4.69118 4.6431 4.06842 3.12537 3.17064 2.85525 0.969535 31.673 63.2072 65.7524 69.8048 71.4399 70.8466 69.8449 69.5104 68.6761 67.6086 66.3647 64.8195 63.3492 61.856 60.4553 58.8509 57.0164 55.1458 53.7391 51.7277 49.2789 47.3226 45.9245 44.0805 41.6001 40.0036 38.471 36.5256 34.3919 32.7629 31.2181 29.8357 28.6094 27.2182 25.2815 23.8876 23.3048 21.6595 19.8067 18.8807 18.0704 17.1191 15.8814 14.8912 14.427 13.3915 12.3214 11.9554 11.2979 9.93081 8.91254 8.50987 8.00311 6.72235 6.77903 6.80562 5.5294 4.74102 4.36362 4.33026 3.76041 2.84421 2.80525 2.58985 1.0363 38.6631 78.7969 82.9002 85.9931 85.9755 85.2554 84.5886 82.8042 81.1912 79.6994 77.7495 75.9443 74.1937 72.125 69.0543 66.7596 64.8891 62.9509 61.3385 58.3674 55.9585 53.8634 51.6331 49.6872 46.7658 44.3342 42.4328 41.0641 38.5166 36.3402 34.6315 32.658 31.1744 29.5869 27.7156 25.9163 24.9352 23.1816 21.4518 20.2447 19.178 18.2505 16.6152 15.4905 14.7493 13.4947 12.3334 11.4185 11.0789 10.2705 9.17691 8.27475 7.64923 6.75569 6.5383 6.30671 5.10616 4.7762 4.22052 3.65542 3.37617 2.69483 2.49668 2.64056 1.32392 48.0634 98.2454 102.607 104.239 102.898 100.985 98.5995 96.3518 94.7207 92.4248 90.3405 88.7479 86.5293 83.7449 79.6061 76.1357 74.0934 71.8428 68.7055 65.7844 63.9044 61.0066 58.089 55.7685 52.8793 50.0915 47.7476 45.8148 42.9306 40.4705 38.5915 36.5723 34.1485 32.1112 30.4472 28.1778 27.1344 25.4495 23.2381 21.4498 20.0307 19.4324 18.2193 16.813 15.3594 13.8499 12.4171 11.2839 10.678 10.3751 9.50098 8.04065 7.64554 7.09857 6.26838 5.40906 4.64235 4.6125 3.97529 3.08739 2.94976 2.84712 2.80078 2.70727 1.20898 26.7934 54.5377 56.452 56.6436 55.6407 54.3824 52.5194 51.4555 50.7465 49.2937 48.4153 47.9356 46.4951 44.84 42.8137 40.6783 39.4087 38.2175 36.4678 35.0688 33.8362 32.1192 30.6025 29.1745 27.9743 26.869 25.697 24.4358 22.8075 21.2869 20.2743 19.3961 17.7264 16.5569 15.765 14.6519 14.2284 13.3162 12.0016 10.9084 10.0059 10.0315 9.81907 8.88522 7.84834 6.90541 6.07966 5.64954 5.14938 5.01616 4.81721 4.03634 3.93121 3.54596 2.93974 2.59013 2.3363 2.05394 1.72273 1.43265 1.38057 1.50537 1.44676 1.16122 0.438661 57.8273 115.386 115.414 114.751 114.118 112.993 109.421 106.041 103.637 101.038 99.071 96.6808 93.0617 89.9963 87.2718 84.0254 81.0622 78.8571 75.6993 72.4357 69.1659 65.3784 62.269 59.0294 56.7305 54.2128 50.8199 48.6286 45.7926 43.1445 41.5205 38.5893 35.884 34.3086 32.2781 30.9399 28.2769 25.2766 24.4597 22.8264 20.2953 18.4341 17.0186 15.5772 14.7301 13.8498 12.7159 11.4023 10.2457 9.72994 8.88354 7.78456 6.59196 5.88178 5.67356 4.68937 3.67431 3.43737 3.08877 2.66146 2.12984 1.74016 2.09559 2.53333 1.33542 99.9078 204.805 211.676 213.328 212.526 209.384 203.128 197.703 193.958 189.265 185.219 180.359 173.956 168.8 163.638 158.259 153.331 147.7 140.983 135.126 129.495 122.779 116.78 111.894 107.408 102.143 96.762 92.431 86.8166 81.5749 78.169 73.8265 68.9267 65.1237 61.0592 57.3673 53.274 48.9345 45.6756 41.8923 38.4406 35.8968 33.4332 30.4567 28.3196 26.6318 24.4459 22.2361 20.3745 18.7287 16.7448 14.477 12.4352 12.0427 11.8384 10.2958 8.37218 7.31035 6.63631 5.85586 5.57847 5.14532 4.77105 4.80031 2.49537 76.1491 160.233 173.044 179.011 179.961 177.799 173.363 170.274 167.801 163.732 159.947 156.041 151.384 146.765 142.093 137.604 133.106 127.343 122.457 118.277 113.299 108.303 103.3 99.9837 96.1563 90.7273 87.1546 83.2338 77.6322 73.7564 70.2427 66.3768 62.4366 58.2604 54.4134 51.0304 48.0985 44.959 41.0324 37.5678 35.4557 33.5725 31.7962 29.5815 27.34 25.7224 23.0684 21.1942 20.5261 18.4811 16.6045 14.6226 13.2147 13.7517 13.0599 11.5633 9.33682 7.99128 7.70075 6.54269 6.74235 6.29662 5.15443 4.71881 2.24513 61.3632 127.82 138.653 145.082 148.386 148.685 145.449 143.785 141.328 138.375 136.1 134.587 131.281 125.839 122.175 118.549 114.049 109.631 106.246 103.657 99.5592 95.1513 91.5312 87.7256 84.307 79.9914 76.4141 73.2959 69.0344 66.2826 62.3237 58.229 55.4567 52.3283 49.534 46.7468 44.3552 42.072 38.7369 35.9743 34.3096 32.3094 30.7297 29.5968 27.2476 25.2554 22.8502 20.8683 20.3058 18.7797 17.3002 15.8443 14.8314 15.1145 14.0679 11.9977 10.1697 9.04921 8.18062 7.26124 6.99216 5.85941 5.24523 5.2134 2.44284 49.2696 100.466 107.535 115.04 119.818 121.23 120.805 120.034 117.906 116.356 114.382 113.63 111.756 107.238 104 100.732 97.2012 94.1461 91.5449 89.1994 85.5911 82.1248 78.903 74.9773 72.1907 69.8238 66.7284 64.084 60.8553 58.2155 55.5065 52.1227 49.4443 46.9006 44.8679 42.917 41.0191 39.3598 37.3091 34.8153 33.2839 31.8843 30.0235 28.7977 26.8554 25.3778 23.8569 21.4962 20.6066 19.3081 17.6851 16.8646 16.0071 15.2172 14.0655 12.1404 10.7007 10.1749 9.19026 8.17304 7.3219 6.55995 6.08098 5.68804 2.7843 39.0061 76.3631 78.7882 86.5977 91.8722 94.1037 96.1486 97.0305 96.4308 95.2964 93.2768 93.0244 92.3684 89.6085 86.8357 83.811 81.6584 79.6742 78.151 75.8619 72.5957 70.2434 68.2512 66.009 63.4951 61.2469 59.015 57.3681 54.3835 52.2382 50.9699 48.0384 45.491 43.3958 41.5097 40.1768 38.1735 36.3181 35.5464 33.4701 31.8335 30.9922 29.0494 27.7208 26.637 25.4262 24.2046 22.3557 21.6122 20.2532 18.3896 17.4569 16.5344 15.4135 13.9192 12.2249 11.0073 11.1629 10.8443 8.84697 7.53664 7.207 6.5012 6.05277 2.95283 29.13 55.0443 54.532 60.6685 66.7343 70.8434 73.392 75.2157 76.3515 76.3416 75.5685 76.1209 75.8994 74.6564 73.3312 71.4697 70.3329 68.7703 67.2064 65.7518 64.0395 61.9717 60.7549 59.4259 57.1234 54.8042 52.7858 51.5163 49.6209 48.221 46.5693 44.69 43.488 41.7628 40.3335 38.6967 36.757 35.2939 33.8331 31.9338 30.7659 29.9911 28.6248 27.5679 26.2687 24.529 23.7038 22.9816 21.7624 20.1305 18.3123 17.1257 16.4184 15.8617 14.3775 12.8384 11.9052 11.463 11.0137 9.17229 7.52317 7.09375 6.75191 6.07335 2.81594 20.0073 34.8515 33.0135 40.7332 49.1274 55.5568 59.4871 61.7955 63.9044 65.135 65.259 65.6037 65.4927 65.3275 64.6672 63.6093 62.5767 61.4876 60.1692 59.1925 58.2083 56.6138 55.2126 53.7784 52.307 50.9288 49.405 47.6523 46.3758 45.6754 44.27 42.649 41.6431 40.0523 38.5498 37.6069 36.3009 34.8747 33.6291 31.8754 30.7613 29.8222 28.3896 27.2055 25.8252 24.4974 23.8994 23.0468 21.6172 20.0262 18.6179 17.7408 16.9453 15.8201 14.4625 13.5108 11.7027 10.8068 10.8704 9.46855 7.87675 7.84249 7.75715 6.07061 2.52622 14.8145 23.0303 21.7009 32.5648 42.8144 49.9506 54.5073 57.3568 59.6225 60.9504 61.5399 62.0536 62.0282 61.7103 60.9709 60.5499 59.6392 58.4696 57.4954 56.781 55.5812 54.1196 53.0907 51.7724 50.5279 49.455 48.095 46.685 45.5133 44.7077 43.5275 41.9177 40.5466 39.3861 38.0284 36.9121 35.9879 34.9314 33.6006 31.9473 31.0054 29.863 28.4126 27.0783 26.2181 24.895 24.0101 23.232 21.5989 20.0829 18.702 18.1338 17.0345 15.2765 14.4921 13.8399 12.0935 11.2334 10.5888 9.08798 8.23986 8.28716 7.98027 6.59546 2.84866 16.8363 28.7152 30.0166 41.5843 50.8963 57.4521 60.9228 63.4004 64.9776 65.0703 65.4485 66.0125 65.962 65.1455 64.2072 63.2662 62.2114 60.9825 60.0895 59.4257 58.1988 56.9232 55.7895 53.9705 52.3044 51.1712 49.536 47.7555 46.3203 45.2128 43.8921 42.6037 41.3554 39.8239 38.7536 37.8086 36.4185 35.2609 33.4876 32.0339 31.2416 29.7498 28.541 27.5448 26.598 24.9434 24.1036 23.1151 21.2382 20.1558 19.0521 18.433 17.309 15.2274 13.9971 13.4925 12.6641 11.6392 10.4004 9.21014 8.52732 7.58061 7.43421 7.22625 3.20606 24.5481 47.6223 51.4718 61.2314 68.5225 73.6091 76.3922 77.8156 78.333 78.0459 77.5892 77.0587 76.3088 75.0322 73.5407 72.5676 71.3092 69.0468 66.8678 65.3997 63.9163 62.0286 60.6635 58.8768 57.0306 55.4044 53.376 51.4885 49.7062 47.7412 46.4452 44.8775 43.259 41.3264 39.5684 38.8107 37.2092 35.7902 34.36 33.1128 31.9243 30.0881 28.8863 28.314 26.7881 25.039 24.2046 22.3555 20.9429 20.5379 19.8008 18.7809 16.9029 15.0948 14.0126 13.1528 12.2802 11.3302 10.7628 10.0449 8.6234 7.24763 6.94881 6.95806 3.33443 34.3528 69.9277 75.966 85.1395 91.4795 95.2263 97.5703 97.5694 96.9187 96.9721 95.333 92.9392 91.3655 89.1497 86.965 86.0074 83.8554 80.6337 78.1019 75.6343 72.9683 69.9511 67.3716 65.5488 63.3111 61.1444 59.2461 57.137 54.9443 52.103 51.203 49.8579 47.592 45.1117 42.1847 40.7722 39.1 37.2894 35.5827 34.282 32.5174 30.5345 29.465 28.7227 27.0665 25.2319 23.7732 22.3661 21.3813 20.1371 19.0449 17.8245 15.9802 14.5578 14.3297 13.3114 12.1022 10.9476 9.82504 9.16113 7.94515 6.95102 6.5312 6.40742 3.17634 45.4266 93.4868 102.08 112.482 118.154 119.72 119.556 119.136 118.253 116.593 114.226 110.903 108.396 106.17 103.419 100.958 97.5522 93.9531 91.3568 88.2864 85.1328 82.1646 78.6263 75.5716 72.3854 69.3685 66.5906 63.2138 60.5791 57.7184 56.4567 55.1793 52.7537 49.9342 46.1514 44.0249 42.4129 39.5138 36.8922 35.5182 33.9837 31.8643 30.1557 29.0224 27.3813 25.7388 23.9161 22.8427 21.5509 19.4714 17.9646 16.7656 15.6435 14.1258 13.9095 13.3299 12.2347 11.0212 9.42284 8.85932 8.04477 6.55677 6.59292 6.40672 2.69871 57.3504 119.163 130.657 141.212 145.594 145.699 143.462 141.622 140.315 137.173 134.071 130.593 126.423 124.086 120.949 117.453 113.608 109.127 106.359 101.931 96.821 94.129 90.7902 86.1667 82.3408 78.7686 75.0815 71.8663 68.2815 64.3866 61.8582 59.5795 56.9937 54.1314 50.0104 47.8315 45.9356 42.0869 39.2337 37.3371 35.6357 33.6905 31.8523 30.0403 28.0368 26.1942 24.1027 22.7328 21.2996 19.4502 17.7504 16.77 15.8701 13.4958 12.8064 13.1663 11.7585 10.1789 9.11886 8.78975 7.48914 5.80564 5.90759 5.47509 2.36999 70.7234 149.495 164.756 174.352 176.851 175.782 173.353 169.62 165.425 161.265 157.203 152.792 147.629 143.313 138.925 134.47 130.241 125.623 121.315 116.123 110.874 107.436 103.357 97.4081 92.1674 88.1005 84.2852 81.0206 76.266 72.3469 69.0555 65.1671 61.8198 58.6062 55.0493 52.2275 49.5894 45.8048 42.9236 40.4984 37.8173 35.7463 33.4998 30.8943 28.9432 26.8356 24.3878 22.3895 21.0936 19.697 18.0865 16.477 15.173 13.1804 12.3897 11.9143 10.0187 8.98521 7.98028 7.48725 6.59956 5.67872 5.68692 5.10074 2.35378 88.8658 187.716 204.556 210.94 209.429 206.049 201.987 197.589 192.085 186.757 182.572 178.428 173.271 167.002 160.137 153.287 147.779 143.161 136.527 130.499 126.726 122.13 116.663 110.252 104.556 99.8374 95.5742 91.1089 85.3787 80.9262 76.9354 73.3509 68.3618 63.5809 60.5309 56.4395 53.8442 50.4379 46.1789 43.5733 40.7031 38.5333 35.5954 32.4521 30.1172 27.5845 24.7204 22.3491 21.1866 19.8662 17.8991 15.8545 14.9523 13.6146 12.2685 10.2649 8.8156 8.4169 7.06965 6.40095 6.09102 5.87614 5.63169 5.28857 2.55909 49.8009 104.599 112.792 114.515 112.337 110.229 107.364 105.002 102.588 99.7226 97.7508 96.2665 93.6569 90.0776 86.0238 81.8664 78.6254 76.1876 72.6842 69.0724 66.9732 64.3952 61.4251 58.3002 55.7172 53.3352 51.1985 48.7444 45.5694 42.5479 40.2973 39.2145 36.1882 33.0627 31.442 29.19 28.0509 26.3449 23.6603 22.2185 20.9113 20.0851 18.6382 16.9064 15.323 13.7773 12.2362 11.1762 10.6885 9.95825 8.75958 7.84621 7.87194 6.89637 5.70929 4.79592 4.34812 3.87524 3.19733 2.96568 2.81179 2.80688 2.48747 2.45992 1.31238 51.6938 106.171 112.187 116.567 117.688 116.248 113.086 109.571 107.101 104.452 100.677 96.4532 92.9103 90.3099 87.0988 83.4872 81.1178 79.0314 75.4518 72.4586 69.2516 65.4014 62.6878 59.7421 57.0333 54.3131 50.3172 47.7703 46.1787 44.0325 42.0518 39.4632 36.4237 33.8432 32.0334 30.2943 27.7135 25.6027 24.0567 22.335 20.4425 18.2578 16.8971 15.6024 14.0592 12.9528 12.2552 11.2041 9.94049 9.56915 8.88611 7.29154 6.22493 6.16452 5.80699 4.68485 3.55857 3.16898 3.03397 2.71861 2.1961 1.89668 2.29035 2.29241 1.00074 88.6339 188.135 206.131 216.503 219.197 216.301 210.827 205.823 201.266 195.78 189.225 181.402 174.756 169.658 163.163 157.506 153.105 146.992 140.68 135.453 129.72 122.889 117.385 112.831 107.641 102.102 96.0857 91.5995 87.453 82.4072 78.907 74.7085 69.268 65.0544 61.3 56.5806 52.0129 48.4716 45.1594 41.8366 38.5278 35.1753 32.7517 30.2607 27.3151 25.4513 23.7071 21.7734 20.0512 18.6068 16.6955 14.2865 12.6203 12.5046 11.5602 9.89492 8.37081 6.73192 6.34291 5.83824 5.16669 4.91829 5.04187 4.99989 2.40664 65.5748 145.671 169.045 181.51 185.824 184.646 180.776 178.483 174.903 169.327 164.566 158.765 153.07 147.834 141.553 137.1 133.174 126.846 121.553 117.826 113.04 107.41 102.785 99.7663 95.5824 89.7397 85.9651 81.9002 77.1595 73.3002 69.8969 66.5722 62.4399 58.7072 54.5378 50.0023 46.9787 43.929 40.2501 37.6537 35.3493 32.5914 30.4659 28.4984 26.5706 25.0333 22.4957 21.1404 20.1657 18.4237 16.5747 14.6132 13.0392 12.6543 12.2186 11.2174 9.32864 7.52765 7.43482 6.64471 6.11963 6.01128 5.35118 4.92659 2.48301 50.7413 113.237 134.148 147.298 153.778 155.341 152.838 150.186 147.528 143.712 140.136 137.281 133.111 127.349 122.153 118.106 114.613 110.483 105.655 102.337 98.1179 93.0782 89.9244 86.513 82.5294 78.574 75.68 71.708 67.7968 65.6863 61.6373 57.5156 54.5984 51.4279 47.9288 45.1276 43.082 40.3064 37.1723 34.8846 33.3495 30.8825 28.625 27.5322 26.4757 24.5731 22.2062 21.1969 20.4565 19.0005 17.1717 15.4317 13.6855 13.5617 13.4698 11.8207 10.0524 8.90532 8.42089 7.63718 6.76902 6.13501 5.59029 5.04975 2.4383 39.4228 87.0717 103.557 117.001 124.75 127.62 127.31 124.819 123.005 120.767 117.179 115.636 112.767 108.051 104.044 100.677 97.3969 94.074 90.5084 87.3491 84.1042 80.1128 77.0261 73.7783 70.2157 67.975 65.6441 62.9414 59.4065 56.9025 54.3263 50.2155 47.7206 45.5539 43.1532 41.1803 39.2776 36.9936 35.2057 33.6428 32.186 30.1288 27.9347 27.0727 25.9457 24.0493 22.1454 20.8722 20.3467 18.9988 16.981 16.1492 14.8966 14.0064 13.1748 11.5969 10.8381 10.035 9.2707 8.32734 7.51269 6.74979 5.73247 5.36407 2.72583 29.9538 65.5671 78.0907 89.4093 96.795 100.13 100.869 100.52 99.7254 97.7033 95.0879 93.8276 91.5041 89.0978 86.538 83.5022 80.5748 77.8488 75.8464 73.2858 70.9415 68.4109 66.1177 64.6178 62.2605 59.0688 56.7511 55.2545 52.2021 50.3901 48.9767 45.7277 43.8619 42.4553 40.6505 38.7711 36.9277 35.1922 33.5032 32.4093 31.2305 29.9956 28.4181 26.6291 25.3421 24.3087 22.4686 20.9982 20.5578 19.2538 17.6827 16.6992 15.1873 13.7262 12.8535 12.1352 11.2884 10.3312 9.74446 8.30636 7.57872 6.94245 5.81027 5.91652 3.09239 21.1436 46.4944 56.1836 65.4231 72.4391 76.7232 78.0683 78.6696 78.356 77.3061 76.5875 75.838 74.2297 73.0563 71.6155 69.6401 68.2144 66.4737 64.9414 63.0537 61.0234 59.2539 58.3022 57.3001 55.1259 52.4188 50.7137 49.5564 47.4571 45.9447 44.2514 42.2924 41.3353 40.3516 39.1491 37.2736 35.3549 33.993 32.3499 30.7186 29.6786 29.0975 27.6865 25.9767 24.6024 23.7308 22.5763 21.3703 20.959 19.8197 18.4119 16.9656 15.2181 14.6226 13.697 12.5873 12.0634 10.6445 9.56679 8.54017 7.26748 6.5673 6.494 6.30321 2.944 13.1764 29.2177 37.6294 47.9134 55.7557 60.9571 64.1708 65.3441 65.7754 65.5135 65.0166 64.6168 63.6128 62.7143 61.5849 60.7779 60.319 59.0813 57.4362 56.1927 54.9199 53.6544 52.7357 51.2122 49.1119 47.6099 46.7561 45.6742 44.1337 42.5968 41.5183 40.5333 39.3872 38.0786 37.0809 35.943 34.357 32.8163 31.8452 30.2301 29.0118 28.5286 26.9602 25.4064 23.8188 23.1018 22.8024 21.6745 20.5814 19.5254 18.6441 17.3234 15.7937 15.1242 14.0422 13.0684 11.9858 10.5062 10.0294 9.1022 7.59721 7.51762 7.24405 5.89947 2.62167 7.96715 19.2044 29.0755 41.1108 49.901 55.0535 58.5824 60.3699 61.2652 61.29 60.8161 60.7716 60.2233 59.3437 58.2501 57.7351 56.9834 55.6895 54.5028 53.6348 52.7022 51.6618 50.4426 48.8958 47.2591 45.9255 45.1387 44.0934 42.9103 41.8317 41.1062 40.0814 38.6289 37.2781 36.0861 34.9995 33.6828 32.5671 31.3698 29.9623 29.1872 28.9974 27.5966 25.5757 24.2251 23.4032 22.8373 21.7859 20.4392 19.2099 18.1619 17.2671 16.4502 15.2722 14.0272 13.1197 11.3747 10.1727 10.0656 9.07935 7.93687 7.83816 7.34104 6.11714 2.80186 10.1283 24.3389 35.4314 47.817 57.0003 62.1508 64.5811 66.0863 66.3031 65.6459 64.8803 64.4188 64.0204 62.9718 61.7326 60.6843 59.7187 58.5348 57.2136 56.394 55.1787 53.7311 52.8363 51.4562 49.4412 47.9775 46.7533 45.1591 43.9018 42.915 42.0458 40.9783 39.1861 37.5583 36.5937 35.2955 33.6899 32.7758 31.4791 30.1994 29.2744 28.4445 27.1341 26.1428 25.4387 23.9489 22.423 20.8242 19.7811 18.9167 17.801 17.2689 16.8652 15.5225 13.9901 12.9592 11.4893 10.5163 10.0645 9.01079 8.16871 7.267 6.98885 6.34186 2.71782 18.2462 41.139 52.8187 64.7923 73.0407 78.1846 80.41 80.8519 80.4076 79.5769 77.5171 75.5339 74.8335 73.3663 71.4136 70.3033 69.2653 66.9228 64.3923 62.9834 61.2491 59.3976 58.6533 56.8694 54.8382 53.0221 50.944 48.9399 47.017 45.5257 44.4908 43.1755 40.7636 38.7006 37.8774 36.8019 35.1176 33.8606 32.5763 31.1724 29.8323 28.3664 26.8979 26.5955 25.9627 24.2137 22.5299 20.6567 19.4177 18.8771 17.8819 17.2165 16.1685 14.8152 14.1202 13.2589 11.7912 10.6174 10.5745 9.70174 8.13318 6.964 6.30424 5.9535 2.87018 26.9057 60.725 75.4344 88.1832 95.7498 99.6877 101.501 101.009 99.4002 98.6547 96.0874 92.5073 90.5897 88.2914 85.4601 83.7062 81.6885 78.8038 76.0118 74.0212 71.5777 68.6874 66.1596 63.5182 61.6232 59.6082 57.1237 54.8309 52.7668 50.2457 48.779 47.3616 45.3584 43.1838 40.7007 38.9963 37.5297 36.1546 34.4171 32.7307 31.3942 29.4004 27.7202 27.1421 25.9635 24.1955 22.7185 21.3591 19.9966 19.3599 18.0722 16.5432 15.1795 13.7709 13.6257 12.6974 11.1272 10.3045 10.0771 8.88941 7.16833 6.32754 5.67478 5.80065 3.1161 36.5079 82.7668 100.835 114.16 121.186 124.187 125.057 123.798 121.144 117.988 115.239 111.519 108.11 105.598 102.799 99.8213 95.854 93.0301 90.0952 86.4934 83.4321 80.6635 76.767 72.7774 70.2684 67.9616 64.8001 61.6128 59.6937 56.6322 54.6147 52.9773 50.6622 48.2566 44.6845 42.6698 40.9811 38.2511 36.0074 34.2812 32.9112 31.2049 29.184 27.7723 26.4181 24.7307 23.1964 21.7929 20.1866 19.0844 17.7918 15.9322 14.541 13.4464 13.0781 12.6881 11.6591 10.5041 9.43818 8.05953 7.09258 6.18754 5.55197 6.17884 3.23873 47.9836 107.152 127.843 142.137 148.81 151.118 150.263 147.51 144.545 139.807 135.43 131.349 127.084 124.162 121.365 117.97 113.503 109.043 105.072 100.116 94.9224 92.4017 88.8779 84.1533 80.9253 77.3495 73.7855 70.9088 67.3122 63.1384 60.8792 58.8295 56.0051 52.8786 48.7876 46.8744 44.7324 40.8954 38.4909 36.2239 34.8093 33.2946 30.6562 28.5807 26.9407 25.287 23.5046 21.7051 20.0358 18.7672 17.1516 15.6871 14.9728 13.9511 12.526 11.9671 11.2768 9.79585 8.75316 8.01944 6.74008 5.54628 5.64836 5.74273 2.72908 61.3617 136.377 160.45 175.53 181.779 182.156 179.308 175.616 171.191 165.992 159.788 153.949 148.399 143.943 140.219 135.584 131.118 125.432 120.219 115.503 109.369 105.711 102.195 96.431 91.7709 87.7416 84.1247 80.7235 75.5015 71.6019 68.8587 64.8659 61.484 58.18 54.5474 51.584 49.0028 45.6669 42.6008 40.0559 37.322 34.695 32.0384 29.4661 27.394 25.6128 23.7952 21.8951 20.104 18.6287 17.1755 15.7147 14.5676 13.4379 11.8496 10.6013 9.70236 8.78481 7.91305 7.26174 5.94662 5.19363 5.72781 5.04774 2.16142 79.2492 173.997 199.157 211.469 213.76 212.166 208.802 204.224 198.279 192.183 185.743 179.421 173.915 167.846 161.405 154.53 148.244 142.401 136.177 130.62 125.26 120.276 115.71 109.792 104.6 99.9998 95.5902 90.6631 85.0356 80.685 76.7484 72.9646 68.349 63.6426 60.1067 56.3014 53.5869 50.3053 46.339 44.1396 41.0526 37.8638 34.0437 30.5644 28.5874 26.4713 24.3071 22.1949 20.8183 18.8874 16.6236 15.1547 14.2534 12.8022 11.3156 9.67814 8.36185 7.93713 7.48712 6.74503 5.8012 5.43556 4.95749 5.18201 2.87888 44.854 97.4746 109.713 114.634 114.237 113.034 111.253 108.524 105.448 102.301 99.2361 96.3574 94.0512 90.5885 86.4098 82.4357 78.6425 75.689 72.4284 69.1178 66.4669 63.5165 60.8868 58.5343 56.0387 53.1922 50.8779 48.2602 45.278 42.2932 39.8949 38.9758 36.556 33.4083 31.08 29.0839 27.8093 26.0536 23.9895 22.8324 21.7409 20.246 17.608 15.6986 14.7043 13.611 12.3061 11.0088 10.7191 9.70602 7.97759 7.24445 7.45165 6.54397 5.41054 4.46652 3.6367 3.57327 3.62197 3.21546 2.78482 2.68136 2.1629 2.74937 1.77511 49.6296 102.313 109.12 114.282 116.008 115.987 114.319 111.439 108.806 105.805 101.266 97.3287 94.1668 90.9496 87.2147 84.2762 82.3871 78.6868 75.2321 72.3374 68.7203 65.0472 62.1038 59.9185 57.5806 54.4355 50.867 47.826 46.0129 44.1459 42.0981 39.5514 36.3539 34.1057 31.8974 29.4533 27.1991 25.4359 23.7115 22.0595 20.1699 17.9267 16.6657 15.3798 13.6413 12.6866 12.0894 10.9085 9.61646 8.8893 8.13747 7.05393 6.33067 5.63925 5.04238 4.6808 3.93571 3.37435 3.09388 2.8456 2.38323 2.17525 2.43571 2.60728 1.316 84.188 180.044 200.129 212.495 217.313 217.2 214.254 209.844 204.493 198.957 191.968 184.249 177.229 171.085 164.426 158.538 153.93 146.866 140.994 135.337 128.39 122.483 117.232 112.509 107.385 102.245 96.821 91.2413 87.0877 82.8883 78.9251 74.6805 69.0443 64.9685 61.063 55.467 50.6404 47.7263 45.2311 41.9877 38.1825 34.5384 32.4782 30.2106 27.2158 25.2788 23.4314 21.5509 19.5756 17.4872 15.6291 14.1212 13.1686 12.0845 10.6093 9.5809 8.92083 7.74796 6.54801 5.66326 5.17225 5.25691 5.32412 5.2996 2.63143 60.3936 137.388 164.368 179.983 186.577 187.267 185.388 182.991 178.359 173.114 168.447 161.968 155.149 149.953 144.191 138.735 133.811 127.679 121.91 116.984 112.396 107.574 103.227 99.1012 94.2375 89.45 85.7209 81.0103 76.5618 73.1454 69.3419 65.5504 61.1969 57.7359 53.7962 49.0261 45.717 42.9037 40.4448 37.9841 34.8815 31.9015 30.2464 28.6231 26.1484 24.2691 22.3541 20.5516 18.9172 16.957 15.3972 14.9376 13.8361 12.4613 11.7174 10.0153 8.91468 8.43412 7.4455 6.63623 6.43175 6.18748 5.8101 5.6284 2.80854 44.9767 104.549 130.13 147.546 156.187 158.573 157.351 155.203 151.752 146.934 143.366 139.059 133.71 129.036 123.821 119.276 115.716 111.222 105.214 101.096 98.1422 93.3164 89.3729 86.603 83.0938 78.627 74.9595 70.5339 66.9532 64.3799 60.0456 56.0652 53.2907 50.3107 46.4869 44.2706 42.5422 39.4492 36.6987 34.4293 32.1676 29.9124 28.2222 26.9237 24.9971 23.1958 22.1743 20.5077 18.9467 18.0816 16.2448 15.284 13.8203 12.3412 12.3708 10.7894 9.53491 9.43191 8.59842 7.62209 6.84559 6.28063 5.78717 5.43654 2.76644 33.5928 79.0154 100.688 117.562 127.699 131.699 131.335 129.233 127.152 123.831 120.841 117.364 113.397 108.947 104.115 100.74 97.6824 93.7213 89.3809 86.3488 83.0757 78.8236 75.5065 73.5763 70.675 67.8067 65.3255 61.3559 57.8226 55.4753 52.3699 48.9965 47.0376 44.5911 42.0275 40.6613 39.0143 36.7014 34.3979 32.2531 30.4872 28.8808 27.2675 25.8721 24.4968 23.0966 21.7308 20.7049 20.1498 19.2115 17.0166 15.7196 14.1971 12.8798 12.4559 11.1346 10.542 10.1619 9.04447 7.52682 6.95645 6.62594 5.49655 5.02149 2.56174 24.5909 58.9235 77.1026 91.1167 100.151 104.497 104.785 103.532 102.312 100.346 97.891 94.8774 92.3897 89.7316 85.8107 83.0918 80.577 77.34 74.6614 72.1886 69.6668 66.8836 64.2978 62.7701 60.6109 57.9773 56.0086 53.4507 50.4699 48.9953 47.04 44.1265 42.6964 41.3627 39.6447 37.8951 36.2511 34.5837 32.2481 31.1942 30.0042 28.2844 27.1936 25.3147 23.833 23.4339 21.5183 20.6113 20.4818 19.0797 17.7154 16.5619 14.9298 13.391 12.7506 12.0058 10.765 9.62015 8.99492 7.84872 7.4711 6.80747 6.37643 6.20938 2.81259 17.0287 41.907 57.0946 69.2065 76.8716 80.7409 81.7653 81.5721 80.2638 78.7651 77.7826 76.0126 73.9004 72.1841 70.0302 67.9319 66.8403 65.3859 63.7055 61.7641 59.7789 57.9157 56.0287 54.4749 52.9123 50.7048 48.7872 47.7854 45.9723 44.1584 42.3409 40.4492 39.5614 38.8323 37.3616 35.722 34.0531 32.7985 31.3863 30.1691 29.1455 27.9138 26.8687 25.1885 23.4536 23.1246 22.0793 20.8799 20.1206 19.1786 18.0201 16.4092 14.9858 14.0822 13.3153 12.2203 11.4571 9.92215 8.78832 8.246 7.18161 6.42846 7.13616 6.67788 2.73436 10.3598 27.9204 42.2655 54.2678 61.4837 65.473 68.0464 68.5897 67.7691 66.5697 65.6245 64.6128 63.0147 61.1587 59.5797 58.6585 57.8389 56.6109 55.3236 54.1405 52.862 51.3251 49.7608 48.4894 47.0089 45.6485 44.5495 43.7424 42.4138 40.5766 39.3633 38.3988 37.2445 36.2986 35.3554 34.0728 32.6419 31.5948 30.7698 29.1846 27.7813 27.4181 26.4818 24.8327 23.055 22.3171 22.2204 20.9776 19.5961 18.5963 17.7062 16.3414 14.9734 14.6963 13.4786 12.1291 11.6994 10.2773 9.34842 8.63414 7.3869 7.15204 6.67497 5.43512 2.46233 5.94063 20.2472 36.0262 48.3347 55.839 59.868 62.7428 63.3399 62.7385 62.0969 60.9952 60.1597 59.3816 58.0902 56.2859 55.4339 54.5875 53.4265 52.7076 51.5536 50.2533 49.5007 47.8939 46.3656 45.28 44.1139 43.1844 42.1727 41.2883 39.8079 38.6044 37.7384 36.5148 35.6543 34.7646 33.3401 31.7337 30.8716 30.1509 28.7101 27.3214 27.3533 26.5976 24.6771 23.5814 22.7777 21.8388 20.8576 19.7061 18.258 17.5203 16.3863 15.6914 15.2812 13.4922 12.7082 11.462 10.3027 10.2241 8.93647 7.68984 7.23718 6.07848 5.23486 2.72013 7.92056 24.8356 41.0775 53.779 62.1888 66.227 68.7126 69.0192 67.713 66.7389 65.3422 63.8187 62.7307 61.5972 60.0029 58.7365 57.7042 56.4758 55.6456 54.3964 52.4963 51.5926 50.2384 48.6356 47.2214 45.9758 45.0242 43.4867 42.1925 40.8235 39.8211 38.9233 37.2358 36.1089 35.0985 33.5436 31.9918 30.9045 30.3569 29.1488 27.817 27.164 25.8048 25.0944 24.4555 23.2756 21.8166 20.3803 19.4367 18.1902 17.2683 16.1059 15.529 14.9961 13.735 12.8901 11.3975 10.5865 10.2627 8.86524 7.70982 6.84828 5.76542 5.30245 2.75336 14.8941 38.667 55.1315 68.4565 77.4085 82.062 83.8494 83.4712 82.6608 81.3301 78.1424 75.3105 73.4588 71.9703 70.7007 69.007 67.0554 64.6046 62.4557 61.0655 59.0773 57.6051 56.6385 54.3676 52.3726 50.9828 49.6368 47.9925 45.9708 44.0619 42.6084 41.4274 39.4778 37.6307 36.5321 35.1775 33.5978 32.0902 31.0657 30.0639 28.5363 26.8934 25.5652 25.5626 24.7356 23.0876 21.6104 20.2507 19.5486 18.4277 16.8517 16.0473 15.0396 13.8232 13.349 12.9097 11.7566 10.4627 9.9094 8.87286 7.56004 6.594 5.38294 5.16178 2.85743 22.5822 55.7126 74.7539 89.8013 98.9068 102.83 103.555 102.508 101.198 99.348 96.6802 93.4731 90.0733 87.4384 85.6516 83.0154 79.6571 76.6465 73.8172 72.0713 70.5034 67.7855 65.4412 62.2698 59.7709 58.0806 55.5663 53.9243 52.1467 49.7162 47.2396 45.343 44.1933 42.2242 39.6638 37.7134 36.1234 34.5114 33.065 31.4954 30.127 28.1321 26.3879 25.7769 24.7765 23.471 21.9893 20.5243 19.9039 19.3674 17.3417 15.6581 14.5635 13.1852 12.4434 12.0594 11.0226 10.0821 9.7889 8.42162 6.93946 5.81285 4.76382 5.20029 2.96292 31.1254 75.7402 98.7885 114.761 123.709 127.22 127.788 126.251 122.437 118.327 116.489 113.35 108.857 105.009 103.127 100.405 94.9887 91.8155 88.6204 84.9964 83.3082 80.4328 76.4818 72.3045 68.8807 66.6727 63.563 61.0922 59.3306 56.8077 53.5585 50.6344 48.7969 46.8401 43.7961 41.7458 39.7589 37.0377 35.2832 33.1204 31.5635 30.2573 27.8159 25.8843 25.1505 24.144 23.1526 21.6385 20.02 19.0481 17.4963 15.2578 13.7845 12.8465 12.0248 11.8427 10.6371 9.46433 9.48475 8.0332 6.57909 5.79796 4.52669 4.94587 2.80043 42.2803 99.4771 125.699 142.331 150.851 154.581 154.545 151.927 147.039 141.734 137.681 133.055 128.703 124.287 121.557 118.684 112.994 108.502 104.68 100.01 95.9522 92.6077 88.4358 83.9322 79.8914 76.7509 73.7397 70.6291 66.8199 63.0547 59.7624 56.6448 54.1534 51.7285 48.2163 45.7297 43.5229 40.355 38.0392 35.6371 34.0696 32.4645 29.1745 26.9293 25.9674 24.6287 23.4002 21.6706 19.515 18.004 17.0089 15.5856 14.1938 13.2576 12.1193 10.7667 9.42404 8.51694 8.26955 7.42632 6.21837 5.37161 5.24551 5.18798 2.29745 56.4064 128.864 157.176 174.521 182.097 184.36 182.022 178.403 174.742 169.84 162.403 155.071 150.127 145.25 139.944 135.422 130.885 124.892 119.921 115.209 109.9 105.48 101.361 97.178 92.8859 88.3917 84.3971 80.603 74.9979 70.7129 67.3475 63.6405 60.6043 57.401 54.025 50.0097 47.9229 45.4564 41.9279 39.3948 36.9503 33.9903 30.6893 28.3554 26.3663 24.8015 23.2686 21.325 19.7948 18.7065 17.6262 16.0676 14.0392 13.1 11.9014 9.92559 8.90177 8.61643 8.39495 7.21272 5.87792 4.9709 5.35145 5.40352 2.31972 75.2112 166.146 192.204 207.251 213.212 214.168 211.114 206.887 202.716 196.686 188.431 180.421 174.62 168.476 161.339 154.775 149.033 142.023 135.97 131.13 124.915 119.378 115.406 111.161 106.484 100.991 95.2669 90.27 85.0509 80.6456 76.395 72.129 67.4374 63.29 59.5861 55.7095 54.0324 50.9346 46.5154 43.2375 40.1206 36.9964 33.4659 30.5008 28.0766 25.6565 23.5674 22.0163 21.369 19.6583 17.5244 15.75 13.8665 12.5352 10.9269 9.85556 8.85151 8.22026 8.48159 7.04313 5.36626 4.77006 4.51234 5.25977 2.90101 43.0983 93.4661 104.969 111.481 114.083 114.346 113.153 110.809 107.835 104.206 100.617 97.001 94.032 90.4563 86.581 82.8242 79.2133 75.4745 72.3726 70.112 66.4179 62.9925 60.9445 59.0826 56.6422 53.7384 50.4539 47.4406 45.1777 42.7648 40.3227 38.3229 35.7521 33.501 30.9144 29.266 28.7495 26.7641 24.5559 22.5597 21.2142 19.7933 17.4925 16.04 14.8031 13.2696 11.9939 11.122 10.9514 9.78799 8.37275 7.52868 7.14039 6.37352 5.13565 4.63978 4.0088 3.74439 3.90714 3.21464 2.44981 2.28269 2.2317 2.65006 1.4692 48.9443 101.157 107.391 111.816 114.297 115.295 114.173 112.106 109.404 105.845 102.119 99.1633 96.2456 92.4224 88.62 85.8629 82.7993 78.5663 75.2406 72.3278 68.7951 64.548 61.0181 58.9576 56.6496 53.5887 51.0534 48.6487 45.7541 43.7244 41.7038 38.8397 35.601 33.3452 31.568 29.4352 27.4223 25.4772 23.5843 21.4007 19.3032 17.6351 16.4575 15.1142 13.5552 12.7619 12.0147 10.8283 9.64068 8.54994 8.14817 7.30933 6.03271 5.13133 4.763 4.59628 4.03059 3.36706 3.08496 3.22183 2.65229 2.47933 3.09952 3.25004 1.60614 82.5802 177.345 197.77 209.35 215.057 217.136 215.145 211.056 205.297 199.653 193.907 187.083 180.267 173.27 166.5 160.577 154.823 147.795 141.449 134.885 127.639 121.718 115.88 110.991 106.502 101.474 96.7778 91.5189 86.473 82.056 77.5846 73.0666 67.7266 63.7549 60.0912 55.3715 51.1436 47.8251 44.6245 40.5679 37.209 34.966 32.4415 29.4633 26.8493 25.0839 23.2393 21.2672 19.1671 16.6191 15.3175 13.8913 12.3732 10.9882 10.0851 9.58357 8.48069 7.55109 6.8385 6.26647 5.17785 5.10665 5.48242 5.39093 2.77293 57.8518 134.036 162.888 178.694 186.302 188.809 188.068 185.378 180.226 175.456 170.889 163.745 156.689 151.531 146.157 140.101 134.441 128.722 122.347 116.01 111.132 107.614 103.254 98.341 94.0053 89.4102 85.2387 80.2572 76.149 72.4218 67.9539 64.4914 60.5976 56.9436 52.8129 48.675 45.3962 42.6968 40.1263 36.9742 34.039 32.3118 30.2124 28.0601 26.0363 23.7123 22.2597 19.9125 18.162 16.5475 14.6912 14.1487 13.5966 12.4276 11.362 10.0327 9.02629 8.62948 7.79229 6.74668 5.902 5.68425 5.26268 5.42817 3.08442 41.6708 100.992 129.673 147.503 156.994 159.834 159.73 158.542 154.456 149.24 144.874 139.601 134.1 130.032 125.46 120.31 115.355 110.501 104.944 100.067 97.4617 93.5998 88.6433 85.2229 82.5822 77.9849 73.7036 70.154 66.5137 63.3656 59.2339 55.6542 53.0894 49.9026 45.8459 43.8728 41.7371 38.3619 36.3774 34.2533 31.458 29.6707 28.0886 26.3969 24.5764 22.5366 21.657 19.2827 17.3631 16.673 15.1423 15.09 14.3706 12.6512 11.5716 10.3172 9.64699 9.26511 8.29627 7.31578 6.29962 5.89792 5.59097 5.67694 3.26261 30.0518 75.5568 101.505 119.374 129.755 132.983 133.039 131.546 128.846 125.809 122.121 117.14 113.226 109.439 104.74 100.605 96.6321 92.8576 89.3745 86.0628 82.8372 78.8837 74.1296 71.8117 70.6023 67.406 63.9072 60.9565 57.4862 54.5346 51.4545 48.2075 46.1706 44.1499 41.6983 40.4391 38.55 35.6422 33.6318 31.7254 30.1133 28.7144 27.2995 25.574 24.0729 22.6361 20.8963 19.4907 18.7453 17.4042 15.627 15.6735 14.7304 12.78 11.9745 10.9353 10.006 9.52198 8.4245 7.43048 6.52804 6.10698 5.67268 4.80286 2.35079 21.5671 55.9999 77.8664 93.5869 102.959 106.7 107.37 105.83 103.92 102.528 99.7665 95.7437 93.2937 90.0803 85.7029 82.0476 79.3844 77.2211 74.9934 72.5446 69.5036 66.3373 63.1943 61.5939 59.7167 57.3848 55.072 52.2106 49.8491 47.9219 45.8978 43.3905 41.4091 40.1289 38.8202 37.2713 35.3622 33.5606 31.6148 30.1922 29.002 27.0148 25.906 24.7473 23.4931 22.5326 20.6795 20.0527 19.9351 18.4361 16.6204 16.1442 15.0163 13.0022 12.5796 11.7429 10.1755 9.68257 9.19473 8.1382 7.21589 6.36368 6.62101 5.69907 2.12831 14.7057 40.089 58.8923 72.6799 80.4345 83.8097 85.077 84.7942 82.8207 80.7154 78.8217 76.8942 74.7987 72.0432 69.4631 66.7595 65.5374 64.7319 63.2396 61.4109 58.979 56.7092 54.7914 53.2642 51.3099 49.675 47.6977 45.5222 44.5483 43.1103 41.6106 40.045 38.4985 37.5745 36.0166 34.7193 32.8992 31.4255 30.6007 29.3041 27.9763 26.4303 25.4478 23.8818 22.6972 22.2205 21.3594 21.1491 19.5655 17.9442 16.9038 15.74 14.736 13.2759 12.4408 11.5971 10.3487 9.50679 9.21511 8.36405 7.10689 6.21824 7.21107 6.7012 2.55522 8.61808 27.7304 46.1457 59.0383 66.1323 69.4662 71.1352 71.6064 70.3043 67.9998 66.1866 64.5566 62.6349 60.6734 58.852 57.4498 56.2223 54.7809 53.7816 52.7462 51.4109 49.8897 48.2755 46.9676 45.9265 45.0121 43.1997 41.6105 40.9434 39.4893 38.1892 37.2901 36.1264 35.1277 33.6115 32.6877 31.4816 30.2117 29.5984 28.1688 26.8737 26.3906 25.6233 23.8228 22.6686 21.829 21.3723 20.964 19.1662 17.6115 16.4975 15.5479 14.6586 13.7722 12.7062 11.5584 10.7906 9.71579 9.2979 8.56315 7.11933 6.49652 6.45751 5.51188 2.27907 5.59239 21.884 40.9731 53.7377 60.6425 64.2556 65.7575 65.7303 64.6627 63.1315 61.5069 59.9036 58.6959 57.2452 55.09 53.9369 52.874 51.5162 50.7802 49.4973 48.3447 47.5951 46.0233 44.6645 43.9522 43.0293 41.7487 40.66 39.9401 38.1206 36.505 36.2169 35.3517 34.098 32.8444 31.9558 30.7218 29.4962 29.3472 28.0622 26.1936 25.5511 24.823 23.7766 23.0877 21.9755 20.8092 19.9702 18.8099 17.6877 16.7691 15.6156 14.6847 13.8616 12.811 12.0977 11.057 10.0085 9.73601 8.83057 7.66169 6.78237 5.89641 5.11777 2.31839 7.44965 26.1099 45.2687 58.829 66.3533 69.5741 71.4987 70.967 69.4017 67.7829 65.5977 63.7774 62.4113 60.6109 58.7992 57.4913 56.324 55.3023 54.2653 52.6647 50.6316 49.6998 48.6451 47.2422 45.6809 44.3238 43.3849 41.9718 40.8478 39.357 37.8995 37.173 35.9715 35.0694 33.9847 32.5943 31.297 29.9984 29.7366 28.4839 27.0158 25.9775 24.3158 23.6046 23.3372 22.0558 20.5971 20.052 19.0409 17.8787 17.1408 15.6643 14.2933 13.7093 13.0309 12.388 11.2252 10.0574 9.07762 8.6174 8.38331 7.18232 5.84939 5.63696 3.09058 12.8848 37.8418 58.0745 72.5238 81.0567 84.4318 86.1767 85.8491 83.9231 81.5684 78.8616 76.4904 73.8752 71.6425 70.2442 67.999 65.4894 63.4401 61.4116 59.3735 57.4826 56.0606 54.9092 53.1143 50.78 49.5045 48.1137 46.2149 44.6806 43.3077 41.4747 39.6545 38.1783 36.8711 35.7355 34.0633 32.7667 31.2251 29.7936 29.2308 28.5293 27.1321 25.5852 24.6067 23.4152 21.8852 20.7203 20.2719 19.504 17.8414 16.3369 15.408 14.0654 12.9137 12.6833 12.2493 11.63 10.7026 8.91524 8.25582 7.81372 6.62086 5.56511 5.21562 2.83383 20.1423 53.6191 76.1234 92.1098 101.395 105.014 105.683 104.464 102.652 100.083 97.7581 95.0891 91.1072 87.927 86.0999 82.8492 78.5552 75.6686 72.8009 70.1033 69.0352 66.4949 63.7075 61.2337 58.6143 56.7638 54.2569 52.5774 50.773 48.8172 46.1564 43.6488 42.3049 40.8038 38.775 36.652 35.1718 33.2198 31.7571 30.7849 29.2459 27.9126 26.8051 25.7933 24.2299 22.6973 21.3423 20.225 19.4315 17.6287 16.0436 14.9726 14.324 13.0558 11.6577 11.4123 10.9505 10.204 9.18275 8.25188 7.24062 6.14837 5.70154 5.21301 2.41385 28.3835 72.0044 97.9618 115.267 124.929 128.919 129.166 127.386 124.302 120.501 117.812 114.196 110.12 106.734 103.684 99.7501 94.2285 90.665 87.7477 84.0828 82.6067 80.1125 75.9847 72.325 68.748 65.2406 62.1304 60.623 58.4862 55.7682 52.3451 49.1743 47.4694 45.6036 42.7046 40.8337 38.6255 35.533 34.44 32.6079 30.0905 28.8188 27.1371 25.7179 24.6591 23.406 22.2028 20.8534 19.2776 17.5402 16.4219 14.8109 14.0253 13.071 11.2175 11.1903 10.4055 9.23445 9.14072 8.05517 7.09249 6.41069 5.62011 5.20916 2.4806 39.0427 94.7475 124.181 142.214 151.393 156.129 156.114 153.266 148.553 144.178 140.06 134.159 129.464 125.958 121.727 117.49 111.61 106.892 104.313 99.8728 96.1769 93.2151 88.4528 83.3237 79.2255 75.8157 72.5265 69.6445 66.1219 62.3923 58.8691 55.8121 53.7482 51.3029 47.9975 45.288 42.3254 39.5069 37.7905 35.5926 33.1906 31.1833 28.894 26.9795 25.6546 24.6563 22.9915 20.7026 18.5054 16.9368 16.3864 15.6028 13.9107 11.9542 10.9631 10.2068 8.89372 8.28012 8.2456 7.34301 6.54315 5.72828 5.59346 5.33905 2.24755 53.3434 124.486 156.045 173.905 181.447 185.235 183.498 179.418 175.245 170.707 164.667 157.108 151.049 145.678 140.145 135.273 129.18 123.804 119.604 114.834 110.607 106.129 101.067 96.2223 91.8648 87.2972 83.2303 79.0022 74.1429 70.1528 65.9158 62.5538 59.6709 56.963 54.3189 50.1078 46.8997 44.5934 41.9758 39.4459 36.5126 33.6208 30.9732 28.6999 26.9636 25.4957 22.5375 20.1891 18.8589 17.846 17.3872 15.963 13.643 11.9685 11.1197 9.34082 7.81577 7.68498 8.09491 7.36101 6.51564 5.65093 5.59987 5.68504 2.48251 73.1557 162.754 190.01 204.821 211.668 213.857 211.347 207.471 202.813 196.713 189.85 182.672 176.112 169.284 162.171 155.189 148.706 142.499 135.77 130.096 125.321 120.561 115.283 110.35 106.369 100.509 94.4241 89.6161 85.0723 81.0464 75.968 71.0447 66.0755 63.0295 60.4318 55.8515 52.7858 49.9447 46.946 43.5046 39.7436 36.1631 32.9673 30.4606 27.9206 26.0906 23.1711 21.3167 20.8587 19.3037 17.73 15.5485 13.3052 12.1956 10.7393 9.33996 8.58748 8.05489 8.19701 6.84989 5.75464 5.39477 5.1366 5.39996 2.54274 42.4688 92.2431 103.307 109.454 113.088 113.972 113.066 110.993 107.966 104.445 101.202 98.041 94.6911 91.1014 87.168 83.1173 79.7983 76.3562 72.5717 69.381 66.3968 63.8626 60.9048 58.2242 56.7045 54.1167 50.2254 47.419 45.4068 43.3053 40.835 37.8969 34.9138 33.5707 31.8587 29.36 28.0231 26.5397 24.9454 22.7968 20.9809 19.0642 17.1059 15.837 14.2425 13.3886 12.2503 11.1975 10.9042 9.72633 8.59333 7.79254 6.73778 5.89901 4.9616 4.50964 4.43071 4.15514 3.92665 3.08017 2.46166 2.36485 2.50545 2.45793 1.02575 49.3862 101.353 106.576 111.686 114.501 114.562 113.641 112.152 109.66 105.878 102.969 100.334 96.7583 93.2787 89.182 85.5773 81.7437 78.0529 75.4312 72.85 69.0304 64.4087 61.0768 58.5258 56.576 53.7975 50.7903 48.5329 46.131 44.2092 41.8598 38.6083 35.6857 33.5935 31.5199 29.2258 27.0929 25.1004 22.8622 21.1778 19.6481 17.6508 16.5316 15.2761 13.7639 12.9051 11.8772 10.4695 9.54608 8.70887 8.08361 7.03151 5.69389 5.0421 4.5972 3.90565 3.42356 3.11274 3.07025 3.53514 2.92886 2.60097 3.08296 3.05525 1.47701 82.6475 176.738 196.599 209.145 214.074 214.84 213.962 210.652 205.714 200.187 194.572 188.703 181.756 173.919 166.825 161.017 153.777 147.516 141.825 135.641 128.706 121.292 115.544 110.739 107.099 102.201 96.7645 91.6689 86.9312 82.7571 78.3772 73.691 68.0635 63.7407 59.4374 54.5015 51.1701 47.6685 43.202 39.9968 37.7241 34.8556 31.698 29.0521 26.844 25.2727 23.4256 20.6749 19.0062 17.1999 15.5545 13.7365 11.5666 10.5903 9.99705 8.62033 7.30633 6.58097 6.64807 7.10765 5.62756 4.77017 5.08858 5.06271 2.60823 56.6278 131.619 161.457 178.304 185.424 188.05 187.986 185.02 180.711 176.871 171.424 165.222 158.637 151.607 146.253 140.614 134.441 129.59 123.173 116.37 111.668 107.498 103.098 98.4839 94.0544 89.4461 85.5644 80.3736 76.5168 72.949 68.4051 65.0538 60.822 56.7998 52.2989 47.7055 45.0885 42.4346 39.1459 36.1254 34.0341 32.6801 29.881 27.7071 25.8014 23.6505 22.763 20.3131 18.503 17.1911 15.2673 13.7568 12.5028 12.0708 11.0374 9.82441 8.65634 7.89654 7.88154 7.09988 5.52507 4.76974 4.49884 4.97558 2.92923 40.2383 98.5345 128.448 147.991 157.86 161.272 161.335 159.297 155.611 151.413 146.497 141.147 135.627 130.532 125.95 120.202 114.952 110.815 106.244 100.605 96.6789 93.3798 88.6118 84.589 81.4086 77.1918 73.3293 69.5882 66.436 63.6413 59.4135 55.2313 52.2831 49.2442 45.646 43.4378 40.5857 37.0418 35.3134 33.4795 31.7789 30.5557 28.2103 26.1533 24.4834 22.2266 21.0089 19.2943 17.6094 16.3341 14.8834 14.0901 13.1444 12.6561 11.3374 9.94859 9.08228 8.77603 8.7312 7.48227 6.19106 5.42258 4.88155 5.35161 3.11323 28.6265 73.5831 101.155 120.334 131.003 134.667 135.071 133.162 129.948 126.868 122.736 117.85 114.181 110.553 105.765 100.768 96.1431 92.4428 89.4975 85.5584 82.1715 78.4076 73.5326 71.05 69.9765 66.6044 62.2256 59.558 56.7268 53.7276 50.7141 47.3113 44.7571 42.9735 41.0037 39.7457 37.5225 34.2893 32.3791 31.2159 30.4313 29.0297 26.6722 24.6407 23.5142 22.0353 20.2025 18.9555 18.2516 16.0525 14.3022 14.674 13.9758 12.599 11.898 10.5799 9.38261 9.1067 8.52131 8.14427 7.34926 5.92764 5.32764 5.05881 2.51007 19.9004 54.3864 78.4851 94.8573 104.808 108.742 109.21 108.029 105.507 103.29 100.063 96.1092 93.4962 90.44 86.3916 82.0065 78.6781 76.8415 74.2942 71.3076 68.6437 65.1897 62.3336 60.9891 58.9412 56.1418 53.1307 50.5092 48.9921 46.7733 44.4009 42.2582 39.9542 38.9472 37.9224 36.1554 34.5524 32.869 31.0715 29.6536 28.6168 27.1163 25.5372 24.2259 23.0304 21.7454 20.4851 19.7362 18.9918 17.246 15.7297 15.2598 14.2763 12.4988 12.3197 11.5667 9.86668 9.57908 8.95514 8.43985 7.36721 5.83695 5.85887 5.24998 2.18642 13.2222 39.2298 60.8161 75.1878 83.006 86.4139 87.3607 87.2554 85.488 82.8985 80.0787 77.3572 74.875 72.2879 69.8426 66.6324 64.7793 64.2566 62.2828 59.8349 57.6116 55.1642 53.8398 52.5646 50.2545 48.7258 46.6417 44.1724 43.3937 42.1745 40.8652 39.1881 37.1217 36.296 35.2101 33.6454 32.0475 30.8803 29.9928 28.4124 27.144 25.8868 24.5454 23.2946 22.7677 21.4645 19.8955 20.1259 18.8565 17.5335 16.7347 15.156 13.8418 12.5384 12.609 11.8949 9.7829 9.38293 9.1885 8.12535 6.8563 5.75303 6.21754 6.00505 2.56894 8.11452 28.4063 49.1287 62.4858 69.539 72.6677 73.5399 73.5721 72.3662 69.6255 67.014 64.8523 62.7433 61.2039 58.9932 56.6838 55.6236 54.3517 52.6799 51.0427 50.1212 48.8105 47.4014 46.2604 44.9438 43.921 42.1161 40.4748 39.4793 38.3443 37.4143 36.4679 35.3343 34.2554 32.9056 31.6345 30.339 29.4362 28.8606 27.2827 26.0296 25.3765 24.217 22.7786 22.4304 21.2693 19.6147 19.7452 18.7749 17.4191 16.3515 15.2689 14.2605 12.8146 12.5123 11.8033 10.2574 9.71919 9.12683 8.07736 7.33161 6.53893 6.06638 5.64056 2.60019 6.14758 24.2936 44.7299 57.7112 64.8356 67.8934 68.0147 67.6542 66.2781 63.8527 61.6824 59.6217 58.0534 56.5216 54.4858 53.1821 52.0478 50.4501 49.2441 47.8603 47.244 46.3964 44.8816 43.7241 42.7768 41.6157 40.202 39.2273 38.3637 37.0241 35.555 35.1392 34.5796 32.9269 31.5281 30.7881 30.001 29.0716 28.5426 27.1623 25.4702 24.7066 24.1079 22.9702 22.1752 21.2928 19.8428 19.1652 18.2658 17.4201 16.6628 15.8229 14.7504 12.9314 11.865 11.0184 10.2048 10.1043 9.32858 8.30524 7.93584 7.2746 6.19058 5.18242 2.31746 7.89767 28.2408 48.6473 62.138 69.9494 72.9022 73.2887 73.0037 71.3854 68.9372 66.1439 63.2677 61.608 60.0131 58.3276 56.8635 55.5511 54.1079 52.6605 51.1073 49.6412 48.2202 47.273 46.2078 44.4017 42.988 41.5744 40.2345 39.5071 38.3575 36.8296 35.938 35.0563 33.5801 32.2818 31.3372 30.6386 30.0026 28.9465 27.5045 26.1297 25.0052 24.0226 22.9337 22.3813 21.3272 20.0308 19.6549 18.3886 17.3923 17.1265 16.3708 14.9868 13.4244 12.1092 11.4475 10.658 10.1594 9.22544 8.36164 8.20853 7.47075 6.1413 5.46554 2.94661 12.4091 38.838 61.001 75.0957 83.6359 87.1273 87.9448 87.3924 85.4305 82.5627 79.3387 76.911 74.5321 71.671 69.5031 67.035 64.9447 63.0498 60.8809 58.6202 56.9879 55.0488 53.1866 51.8937 49.6009 48.2747 46.7719 44.66 43.3816 42.366 40.6084 38.7106 37.0586 35.4155 34.4788 33.009 31.9322 31.1064 29.6217 28.3825 27.5165 26.5311 24.856 23.3383 22.4765 21.1981 20.1066 19.4972 18.2666 16.8728 16.1579 15.4544 14.4404 13.1652 12.0923 11.7921 11.0549 10.3961 8.97394 8.1532 7.47704 6.36654 5.47943 5.38883 3.17689 18.7548 52.6197 77.5339 93.5476 103.372 107.41 107.233 105.931 104.299 101.178 97.8595 95.4206 92.3189 88.6041 85.5354 82.3989 78.8038 75.6405 72.338 69.2354 68.0923 65.7312 62.0695 59.694 57.5798 55.7408 53.4305 51.5177 49.7125 47.6321 45.458 43.3115 41.3894 39.5913 37.8693 35.8611 34.5883 33.11 31.5312 30.1116 28.2451 27.519 26.3099 24.6055 23.3587 21.5969 20.2137 19.4602 18.0319 16.4081 15.5177 14.2805 13.8597 12.8208 11.6075 11.2784 10.0345 9.34185 8.73123 7.97781 7.08746 6.04938 5.65879 5.39622 2.59704 26.9434 70.2289 97.7139 115.377 125.811 129.814 129.404 128.583 125.999 121.727 117.872 113.781 110.741 107.585 103.32 99.1802 95.1936 91.3286 87.2739 83.6005 80.7752 78.0752 74.2749 70.5014 67.9236 64.484 61.003 59.1663 57.1366 54.3239 51.6078 49.1833 46.8513 44.9402 42.5431 39.9902 38.0012 35.4813 33.5926 31.8023 29.3225 28.0463 26.6334 25.291 24.2133 22.2665 20.8511 20.2028 18.2526 16.5533 15.5326 14.0627 13.8258 13.0758 11.4749 10.9666 10.1868 9.20487 8.85769 7.69951 6.79531 6.16461 5.34059 4.8953 2.31292 37.8083 93.0357 123.068 142.054 151.777 156.11 156.138 154.026 149.897 145.313 140.26 134.257 130.308 127.019 121.657 116.17 111.771 107.593 103.483 99.0279 94.7828 91.2686 86.9744 82.0394 78.649 75.0725 71.1817 68.1112 64.5452 61.2586 58.4651 55.5294 52.7411 50.4906 47.8988 44.7425 42.0339 39.2592 36.9663 34.4186 32.0153 30.5054 28.3943 26.2656 25.213 23.9358 22.002 20.3742 18.4283 16.7161 15.3735 14.3065 13.3574 12.5001 11.4302 10.2378 9.39345 8.57522 8.22906 7.38392 6.18563 5.38981 5.00707 4.7815 2.33554 52.2064 122.494 154.135 173.156 181.099 184.795 184.378 180.198 175.97 171.359 165.311 158.642 152.452 147.189 141.104 134.933 129.309 124.283 119.334 114.449 109.912 105.114 100.068 95.0671 90.2523 85.6282 82.0182 77.9329 73.7593 70.0936 66.0096 62.015 58.9303 56.628 53.8685 50.3411 46.9639 44.1369 41.5279 38.7347 35.6066 33.1023 30.4292 28.1048 26.5754 24.6764 22.1725 20.3097 18.8812 17.301 15.9113 14.2416 12.7091 11.7851 11.2265 9.49904 7.77844 7.06075 6.97005 6.77448 6.29684 5.49607 5.15081 5.29944 2.5205 72.5926 161.714 188.645 203.707 210.322 212.055 210.734 207.483 202.566 196.357 190.428 184.455 177.958 171.116 163.522 155.853 148.939 142.87 136.46 130.551 125.585 120.333 114.239 109.172 104.59 99.0553 94.5017 89.5448 84.9565 81.0543 76.2638 70.8455 66.3671 63.4188 60.0583 55.942 51.7004 48.5081 46.445 43.5912 39.6384 35.6333 32.0879 30.1891 27.714 25.684 23.3874 21.2338 19.7623 18.1888 16.8993 14.5101 12.8448 11.5341 10.2509 9.16174 7.96191 7.31353 6.95368 5.91988 5.92503 5.51584 4.86282 5.14263 2.49031 42.3848 92.0361 102.971 109.074 112.386 112.678 111.641 110.579 107.862 104.284 101.427 98.4936 95.586 92.1531 87.7462 83.2733 79.4932 76.2826 72.8673 69.3756 66.8501 64.1128 60.4896 57.8804 56.198 53.7361 50.8117 48.0257 45.1505 42.9505 40.9974 38.0633 35.3828 33.695 31.5685 29.1613 26.9588 25.3945 24.6717 23.0252 21.0047 18.9333 16.8206 15.5811 14.1677 13.5687 12.457 11.1349 10.17 9.27108 8.78378 7.62325 6.55653 5.63137 4.76372 4.5834 4.0904 3.7803 3.80879 2.91332 2.75956 2.64121 2.27697 2.23008 1.06455 49.5641 101.475 106.669 111.446 113.419 113.472 113.706 113.034 109.84 106.38 103.543 100.473 97.3187 93.5346 89.1546 85.4305 81.8246 78.1665 75.5938 72.7425 68.6615 64.6553 61.5123 58.5632 56.5446 54.0524 50.7838 48.4919 46.1294 43.3825 40.6833 38.3574 36.3778 33.6308 31.4913 29.3426 26.5034 24.7955 22.9072 21.3501 20.1734 18.1387 16.4965 15.3241 13.7464 12.6265 11.877 10.7928 10.1095 8.9216 7.67646 6.57463 5.72529 5.52078 5.13375 4.17878 3.60052 3.4562 2.90239 2.7858 2.43084 2.10195 2.23102 2.53021 1.39625 82.873 176.605 195.313 207.783 212.303 212.867 213.395 211.548 207.04 201.665 195.345 188.984 182.528 174.407 167.169 160.748 153.289 146.949 141.732 135.83 128.943 122.17 116.277 110.484 106.365 102.057 96.6434 92.3875 87.6827 82.1495 76.7806 72.3635 68.5322 63.4082 59.1525 55.2543 50.7216 47.1744 43.5585 40.7324 38.3714 34.5481 31.2283 29.1408 26.4514 24.9237 23.4215 20.8136 19.3391 18.0274 15.9895 13.8614 11.9135 10.9431 10.4131 8.61588 7.44157 6.99993 6.31511 6.22282 5.50466 4.59058 4.31111 4.56334 2.47431 56.4072 130.333 159.322 177.415 184.954 186.924 187.227 185.153 181.658 177.568 171.299 165.403 159.535 152.137 146.465 140.712 134.277 128.828 123.309 117.427 112.37 107.989 103.091 97.9176 92.9267 89.1328 85.7838 81.2041 77.432 73.1346 67.5005 63.2065 60.6355 56.7413 52.2311 48.5459 44.9625 42.0966 39.4146 36.2047 34.0446 32.0593 29.548 27.5811 25.26 23.6675 22.6984 20.5869 18.705 17.7197 16.0599 14.2594 12.561 11.6945 10.6668 9.1719 8.19854 7.26463 6.92964 6.63446 6.23005 5.17377 4.40108 5.08365 2.86561 39.4545 96.8313 127.197 147.926 158.224 161.211 161.735 160.424 156.625 151.878 146.73 142.023 137.069 131.259 125.716 120.483 115.825 111.355 106.933 101.723 96.9055 93.0138 88.4194 85.0082 81.5745 77.2673 73.7963 69.2511 66.0881 63.3023 58.332 53.9051 51.7911 49.1568 45.6803 43.1396 40.0591 37.4075 35.4938 32.7615 31.3695 30.5467 28.177 25.9353 24.0697 22.1057 21.1423 20.2216 18.479 16.4406 14.8243 13.934 12.785 12.2718 11.0389 9.66984 8.68817 7.64881 7.8392 7.30551 6.60197 5.74777 5.11487 5.73918 3.11458 27.7297 72.0135 100.314 120.34 131.93 136.163 136.563 135.208 131.631 127.157 123.805 120.337 116.067 110.916 105.418 100.326 96.1259 92.3993 88.6472 84.9706 81.8419 77.9092 73.2606 71.1494 69.3627 65.9642 62.391 58.864 56.0314 53.2488 49.9432 46.8784 44.2519 42.0167 40.3113 39.0638 36.718 34.0843 32.3278 31.0613 30.2446 28.7941 26.2207 24.2674 23.0272 21.5493 20.2695 19.5621 18.6786 16.2502 14.365 14.3821 13.2783 11.785 11.1739 10.246 9.34659 8.40633 7.94086 7.69604 7.11615 6.00283 5.37469 5.46079 2.76391 19.2074 53.2585 78.557 96.2347 106.874 110.821 110.728 109.592 106.667 103.253 100.737 98.0775 94.4459 89.8584 85.9972 81.9771 78.3427 75.6811 72.5699 69.7393 67.6194 64.4019 61.7171 60.3323 57.6539 55.124 52.7782 50.1328 48.6881 46.1364 43.4255 41.7945 39.6001 38.1851 37.0954 35.5184 33.7973 32.0906 30.6705 29.5418 28.7323 27.1663 25.0738 23.8653 22.8551 21.4576 20.4445 20.0666 18.7305 16.9977 15.9056 14.8949 13.5442 11.9145 11.5066 10.9674 9.86001 8.92136 7.92305 7.84204 7.38005 5.94428 5.22229 5.15295 2.592 13.2497 39.6312 62.2721 77.3703 85.3043 88.3715 88.9346 88.2571 86.2713 83.6771 80.8716 78.1474 75.0083 71.8464 69.408 66.8188 64.4139 63.3438 61.1578 58.2538 56.3006 54.0157 52.9517 51.8946 49.6884 47.7544 45.8377 44.136 43.0197 40.8786 38.9887 37.8212 36.0991 35.0108 34.2175 32.8636 31.7288 30.9952 30.0185 28.3825 27.0974 25.5391 23.8599 23.0653 22.4469 21.0233 19.8686 19.6106 18.2068 17.5801 16.9691 15.0617 13.4199 12.2789 12.3838 11.5692 9.78398 9.07259 8.62383 7.89485 7.34612 6.51453 5.58463 5.18565 2.53256 8.9257 30.1265 51.4199 64.9756 71.7627 74.9527 75.6774 74.6528 72.7364 70.5478 67.8237 65.2487 63.2466 61.1271 58.4338 56.1161 54.6634 53.6779 51.706 49.6724 48.941 47.6464 46.3715 45.3265 43.7987 42.3842 41.1735 40.099 39.0016 37.3873 36.0588 35.4664 34.2206 32.72 32.0366 31.0657 29.9487 29.5881 28.9307 27.2912 25.789 24.3955 23.3875 22.647 22.0786 20.7997 19.5268 18.8611 18.2519 17.704 16.469 15.051 13.5414 12.3114 12.1074 11.5471 9.98443 9.34892 8.70457 7.57695 7.55276 7.49958 6.23597 5.66837 2.97614 6.78154 26.2618 47.2791 60.3925 67.5031 70.2973 70.2264 69.0923 67.0954 64.7758 62.1363 59.5023 57.8779 56.1318 54.0888 52.737 51.3289 49.7173 48.5122 47.1371 46.345 45.6891 44.3213 43.2003 41.9811 40.2345 38.9067 37.9877 37.5505 36.6381 34.91 34.1976 33.7526 32.2076 31.0362 30.2577 29.5034 29.0901 28.1003 26.3698 25.089 24.0505 23.5153 22.5684 21.7281 21.0618 19.7568 18.8955 18.3081 17.578 16.5367 15.3843 14.0957 12.7547 11.6983 11.0017 10.3571 10.2622 9.14045 7.95372 7.77149 7.37122 6.30591 5.80908 3.0692 8.41608 29.8059 51.2453 64.9349 72.4319 75.2565 75.2738 74.5255 72.6455 69.8334 66.5877 63.438 61.5226 59.9688 58.0815 56.2809 54.6293 52.8922 51.7808 50.2544 48.7022 47.6248 46.5745 45.2811 43.7186 42.0938 40.3606 38.9639 38.4581 37.6417 36.237 35.2534 34.614 32.7348 31.1243 30.6663 30.0157 29.8049 28.5714 26.6712 25.5916 24.3239 23.5047 22.7791 21.8118 21.0321 20.3373 19.5557 18.4352 17.6057 16.8117 16.305 15.1389 13.3622 12.1117 11.1197 10.4528 10.6052 9.80694 8.11063 7.3578 6.65832 5.76803 5.41942 2.68377 12.429 39.4018 62.7099 77.3596 85.7354 89.0921 89.3017 88.1697 86.2856 83.0992 79.4936 77.1761 74.9745 71.7672 69.2675 66.5369 63.8222 61.7555 59.9625 58.2129 56.5299 54.2299 52.2472 50.7977 48.6507 47.3354 45.8481 43.958 42.6799 41.2829 39.7497 38.2435 36.6716 34.7335 33.4703 32.9212 31.5816 30.8943 29.7712 27.849 26.828 25.3676 23.7599 23.069 22.1977 20.764 20.0013 19.3002 18.2448 16.9002 16.3251 15.825 14.5317 12.9559 12.1793 11.9555 10.3335 9.44219 9.29175 8.2895 7.09175 6.60972 5.74238 5.14399 2.72998 17.7332 51.7379 78.0608 94.6413 104.821 108.585 108.698 107.719 105.071 101.616 98.1246 95.5489 92.9354 88.8356 85.291 81.9424 78.11 74.6663 71.8073 69.3812 67.7593 65.2916 61.8347 59.0165 56.305 54.8952 52.9796 51.2154 49.524 46.9841 45.0289 43.0563 41.1132 39.3354 37.8434 36.2298 34.503 33.1045 31.6213 29.5198 27.6848 26.4531 24.6412 23.3709 22.8835 21.2206 19.7443 19.1151 17.747 16.7968 16.1216 14.6368 13.4189 12.4101 12.0495 11.6089 10.2026 8.8033 8.2361 7.63157 7.01363 6.71546 5.94336 5.3982 2.63131 25.8525 69.0468 97.9623 116.433 126.724 130.177 130.379 130.38 127.141 122.636 118.657 114.662 111.752 107.743 103.341 99.3371 95.3298 91.0208 86.7953 83.3053 80.1729 77.3121 73.7993 69.7071 66.9072 64.2979 60.7019 58.1171 56.257 53.7233 51.0392 48.6996 46.3275 44.9287 43.2291 39.9194 38.0202 36.0034 33.6173 31.5348 29.168 27.8048 26.1297 24.9637 24.1552 21.8958 20.3825 19.8626 18.1191 17.1739 16.1803 14.5785 13.5111 12.7152 11.8801 10.4037 10.1529 9.52557 8.194 7.16428 6.78655 6.19331 5.49305 4.97253 2.07972 37.3992 92.3605 122.454 142.404 152.847 156.554 156.051 154.634 150.733 145.942 141.34 135.693 131.4 126.676 121.596 116.994 112.77 108.073 102.716 98.6714 94.4999 90.308 86.3316 81.9464 78.91 75.3324 70.9582 67.268 63.8892 60.952 57.8076 54.5704 51.8775 50.183 48.1436 44.7038 42.445 40.077 37.2423 34.1263 31.478 30.3508 28.7479 26.6992 25.0165 22.9139 21.2258 20.4781 18.892 17.1642 15.7826 14.5101 13.421 12.6679 11.3842 9.85287 9.16432 8.61771 8.17222 7.28737 6.24904 5.48777 4.87041 4.45047 2.13571 52.0602 121.828 152.338 171.979 181.151 184.421 184.155 180.856 176.867 172.122 165.642 158.665 152.283 146.875 140.726 134.942 130.665 125.518 119.622 114.743 109.565 104.471 99.8306 95.5666 91.1767 85.8538 81.7717 78.2565 74.4168 70.6877 66.4466 61.891 58.5842 55.5949 52.4626 49.848 47.4392 44.8221 41.5883 38.0051 34.9503 33.0593 30.8591 27.9251 25.6844 23.8965 22.3842 20.9278 19.1792 17.4203 15.8268 14.1327 12.5628 11.7638 11.0737 9.59523 7.918 7.07956 7.05819 6.47667 5.78376 5.11812 4.91413 4.86216 2.21873 72.5898 160.58 186.712 202.813 209.611 210.863 209.958 207.231 202.711 196.956 190.338 183.517 177.373 171.221 163.481 155.848 149.196 143.006 137.293 131.416 125.671 120.173 115.26 110.668 105.194 99.0776 93.9151 89.5584 85.5962 81.6518 76.4827 71.2473 66.8331 62.6715 58.8028 55.4344 52.1955 48.9708 45.7016 42.7795 39.435 36.217 32.9652 30.3045 27.7559 25.0359 23.3304 21.5667 19.7095 18.3544 16.764 14.3111 12.4311 10.7508 9.79909 9.3851 8.14574 7.06047 6.52963 5.80211 5.37433 4.97191 5.05786 5.23527 2.46319 42.5251 91.3157 102.092 108.977 112.153 112.193 111.022 110.178 107.441 104.276 101.577 98.1625 95.7044 92.4017 87.8966 83.5488 79.0383 75.5503 72.9382 69.8953 67.2549 64.3578 61.7719 59.2666 56.2815 53.606 50.58 47.8608 45.4116 43.2287 40.8918 38.3618 35.8817 33.5306 31.4296 29.2501 27.2287 25.4362 24.0448 22.6664 20.8563 19.188 17.3364 15.978 14.6766 13.0046 11.9346 11.1399 10.0331 9.54691 8.72876 7.30585 6.50821 5.16307 4.22083 4.64475 4.24857 3.49637 3.44572 2.88368 2.47753 2.53021 2.47703 2.57914 1.41505 49.5147 101.409 106.436 110.38 112.421 113.338 113.767 113.062 110.032 106.565 103.485 100.095 97.2993 93.9392 89.6874 85.9086 82.9389 79.3571 75.6571 72.8819 69.1689 65.0285 62.1146 59.2907 55.9342 53.5496 51.1163 48.6285 45.9713 42.9501 40.4893 38.9148 36.741 33.3872 31.3614 29.8753 27.4218 25.3073 23.7292 21.5496 19.8163 18.5229 16.6208 15.0938 13.5007 12.7432 12.1122 10.8267 10.1906 8.91298 7.76818 6.81432 5.95675 5.58519 5.0166 4.43267 3.86817 3.14245 2.58904 2.27709 2.24457 2.22211 2.2219 2.56145 1.35993 82.8419 176.577 195.304 206.941 211.741 213.379 213.814 211.836 206.979 201.655 195.629 188.466 182.476 175.712 168.176 160.931 154.917 148.673 142.422 136.304 129.083 122.844 117.459 111.22 105.117 101.169 96.6315 92.2832 87.3607 81.6763 76.2465 72.2944 68.9697 63.3361 59.6997 56.8461 51.9118 47.9137 44.9997 41.3245 38.0372 34.9909 31.4784 28.6579 25.8397 24.3605 23.1344 21.056 19.2942 17.7946 15.9153 13.8599 12.3992 11.2209 10.298 9.03623 8.04065 7.14761 5.87337 4.89801 4.87424 4.87661 4.62169 4.53568 2.22787 56.2951 130.39 159.859 177.118 184.971 187.717 187.665 185.288 180.824 176.544 171.584 165.117 159.233 152.83 146.799 141.234 134.996 128.959 123.72 118.226 113.061 108.861 103.775 98.5603 93.519 89.562 85.4986 81.7603 77.5239 72.8497 67.4776 62.7006 60.5401 56.4335 52.6903 49.7493 45.6738 43.0971 40.678 37.1423 34.3092 31.6303 29.2873 27.1411 24.9538 23.2051 22.0111 20.4181 18.0626 17.1748 15.516 13.7635 12.8192 11.5007 10.6231 9.54519 8.35268 7.52268 6.61601 5.55667 5.73733 5.64693 5.20357 4.97792 2.34651 38.8012 96.3179 127.894 147.259 157.803 162.011 162.458 161.02 156.149 150.632 146.115 141.724 137.141 131.749 126.432 122.281 117.034 111.668 106.576 102.15 98.6841 94.2446 89.7674 86.5521 83.0548 78.3823 73.8957 70.3719 66.7422 62.9188 58.0743 53.8729 52.1739 49.6745 45.9936 43.1823 40.9015 38.9068 36.6294 33.2876 30.8617 29.2739 27.6098 25.5741 23.8043 22.2029 21.0784 19.8102 17.6928 16.2837 15.172 14.034 12.8486 11.865 10.9163 10.042 8.76726 7.20788 6.88806 6.48218 6.06316 6.0603 5.98116 5.93242 2.96945 26.9869 71.3623 100.911 120.331 132.105 137.099 137.148 135.96 132.167 126.788 123.049 120.381 116.361 110.953 106.529 102.086 97.759 93.6723 88.8289 85.1068 82.4754 78.5915 74.7025 71.9286 69.4579 66.2517 63.0911 60.0137 56.5196 53.4311 49.7505 46.9328 45.2142 43.4073 41.1303 39.1691 37.546 35.0584 32.8207 31.4191 29.4414 27.5789 25.5714 23.908 22.6177 20.9918 20.0831 19.4384 18.1587 16.4937 15.4563 14.544 13.1037 11.7435 11.0676 10.6088 9.3616 7.62109 6.93606 6.69781 6.4108 6.27545 5.72576 5.6657 3.02322 18.8969 52.934 78.9398 96.7379 107.406 111.697 111.233 110.074 107.349 103.148 100.833 98.416 94.3865 89.5418 86.0531 82.6385 79.1501 75.8432 72.1637 69.6861 67.7106 64.612 61.7211 59.8691 57.5802 55.0478 53.3641 51.2242 48.6494 46.2506 43.7759 42.2182 40.2897 38.5794 37.3787 35.4627 34.0034 32.4663 30.6813 30.2372 28.6621 26.4018 24.7253 23.4823 22.5183 21.3657 20.6109 19.6433 17.8202 16.5846 15.876 14.5694 13.2312 12.0577 11.4401 10.6703 9.63586 8.558 7.32946 6.64452 7.11662 6.60028 5.49344 5.34096 2.57792 13.4793 40.3937 63.4348 78.4953 86.4833 89.7218 89.93 88.9151 86.5443 83.3522 80.9982 78.2408 75.1079 71.9111 68.7768 66.6876 64.4825 62.748 60.4235 58.0649 56.075 53.8197 52.4605 51.2624 49.7944 47.6347 45.8528 44.2321 42.9613 40.9498 38.8639 37.5923 35.6914 34.7564 33.8653 32.2104 31.1915 30.5123 29.6007 28.7181 27.0911 24.9687 23.8507 22.7467 21.949 21.3625 20.3289 18.8543 17.2593 16.6296 15.9011 14.9006 13.403 12.3462 11.8006 10.5341 9.694 9.22527 8.34527 7.46929 7.65741 6.88852 6.04579 5.27916 2.08017 9.53962 31.8019 53.202 66.4702 73.31 76.4164 76.8205 75.5851 73.1127 70.4579 67.7599 65.2095 63.1058 60.6235 58.2397 56.1733 54.3951 53.2737 51.3567 49.5552 48.1931 46.9543 45.87 44.5661 43.522 42.08 40.7277 39.3431 38.8422 37.4364 35.6436 34.6544 32.9141 31.9095 31.3663 30.6506 29.5456 28.8432 28.133 26.9492 25.637 23.7985 22.819 22.2731 21.724 20.4949 19.367 18.0702 17.4264 16.9806 15.4431 14.9384 13.6176 12.1635 11.8115 10.8104 9.478 8.91179 8.61527 7.99499 7.89963 7.35224 6.43456 5.5303 2.39964 7.28356 27.4581 48.8499 62.1881 68.8578 71.46 71.6584 70.0128 67.5504 65.3 62.5449 59.6622 57.4515 55.4195 53.7956 52.0881 50.5903 49.3029 47.8664 46.5536 45.2445 44.6366 43.5352 42.4653 41.4289 39.3808 38.3774 37.6908 37.1841 36.0666 34.2391 33.5453 33.0198 31.8043 31.1097 30.4594 28.9962 28.2274 27.264 25.8399 24.9847 23.6175 22.4425 21.8458 21.5164 20.7017 19.5528 18.1219 17.1789 16.5903 15.2855 14.5601 13.7293 12.5441 11.7535 10.8707 10.047 9.4344 8.65249 7.85738 7.46279 7.1452 6.19492 5.47589 2.67822 8.65545 30.3644 52.3862 66.9623 73.9141 76.2661 76.6348 74.7876 72.9928 70.5473 66.8507 64.0211 61.7429 59.4293 57.4271 55.7292 54.3271 52.7509 51.1854 49.2684 47.3279 46.7501 45.9547 45.1746 43.6027 41.2706 40.5146 39.5631 38.37 37.3898 35.9718 34.5544 34.0119 33.0151 31.8695 30.9544 29.6364 28.977 27.8429 26.2743 25.5699 24.1658 23.0408 22.5895 21.6498 20.9479 20.0575 18.8064 18.0957 17.1401 15.4763 14.8355 14.0745 13.0305 12.1952 10.8995 10.3213 9.96671 9.19106 8.08179 7.19857 6.47903 5.64219 5.29775 2.5586 12.5717 39.331 62.9792 78.7871 86.6133 89.2863 89.9333 88.6371 86.7534 83.8585 79.9731 77.5085 75.2563 71.6852 68.9176 66.1747 63.4859 60.9111 58.9505 57.3278 55.3533 53.6487 52.0359 50.6241 48.7559 46.9486 45.6656 44.3404 42.7051 41.0825 39.638 37.8059 36.0672 34.8816 33.8515 32.885 31.4408 30.6041 29.1805 27.3757 26.7209 25.2106 24.2145 23.7745 22.1405 20.5678 19.5342 18.5533 18.3099 17.165 15.9337 15.1099 13.6175 12.8289 12.6796 11.5423 10.043 9.39792 9.02211 8.27432 7.30489 6.94816 6.16433 5.23268 2.49612 17.7775 51.7722 78.3962 95.2552 104.178 108.083 109.759 108.685 105.207 102.174 98.7355 95.5843 92.7027 88.51 84.763 80.7095 77.182 74.1529 71.5885 69.1515 66.8615 64.4949 61.7019 59.0673 56.4646 54.5658 52.6589 51.2056 49.2834 46.4201 44.6086 43.0601 41.0246 39.1481 37.6816 36.0785 34.0592 32.8642 31.336 29.3012 28.1138 26.8375 24.8806 23.8082 23.1735 21.2646 19.328 18.5631 17.8011 16.6982 16.0843 14.835 13.1456 12.3456 11.9013 11.1034 10.5514 9.49764 8.49633 7.89134 6.75777 6.70221 6.6719 5.48464 2.43951 25.5782 68.8946 98.0558 116.074 125.772 130.384 131.75 130.524 126.784 123.106 119.261 115.069 111.868 107.701 102.943 98.9034 95.0616 91.1853 87.3838 82.9453 79.6153 77.1719 74.4652 71.0711 67.5549 64.7148 61.4046 58.3496 56.084 53.3805 50.662 48.8778 46.9699 44.5425 42.4893 40.0081 37.8849 36.124 34.2912 31.8543 29.5398 28.2388 26.3147 25.115 24.5846 22.4235 20.1545 19.4657 17.9805 16.8174 16.1462 14.7424 13.2443 12.2319 11.3815 10.2581 9.99878 9.08271 8.28055 7.31463 6.3763 6.12669 6.2212 5.6549 2.24973 36.9273 91.5129 121.324 141.679 153.003 157.125 156.686 153.803 150.171 146.827 142.325 136.266 131.664 126.584 121.511 117.575 112.591 107.583 103.043 98.7297 94.2519 90.6809 86.8425 82.6894 79.2951 75.6959 71.8784 68.0927 64.5063 61.0267 58.0789 55.5178 53.1461 50.5465 47.9681 44.9723 42.4383 40.1902 37.8748 34.5582 31.7651 30.4024 28.9465 27.1688 25.2583 23.3116 21.2758 20.0333 18.2239 16.5896 16.0114 14.526 12.9613 12.0418 10.7847 9.8166 8.55689 7.77267 8.04904 6.9916 6.04891 5.94608 5.62381 5.0813 2.30759 51.7455 121.048 151.289 171.196 181.532 185.254 184.194 180.384 176.563 172.505 166.745 159.582 152.423 146.686 141.64 135.932 129.984 124.827 119.706 115.015 109.574 104.632 100.08 95.8566 91.9716 85.9962 81.6568 78.8894 74.9443 70.8463 66.9905 62.865 59.3467 56.1088 52.6109 49.8791 47.7673 44.9757 41.7102 38.3283 35.7873 33.65 31.1354 28.2432 25.97 24.5516 22.3261 20.4431 19.1847 17.3559 16.0303 14.3146 12.6888 12.0267 10.3911 8.99068 7.71086 7.10772 7.2935 6.69516 5.81029 5.53277 5.50888 4.97268 2.37974 72.7533 160.439 185.816 201.332 208.704 211.026 209.84 206.701 202.409 197.047 191.032 184.273 177.517 171.333 164.623 156.878 148.989 142.946 137.165 131.17 125.852 120.41 115.485 110.881 106.243 99.3052 92.9299 89.0028 85.4636 81.411 75.6597 71.0238 66.5542 62.1857 59.1653 55.6479 52.6762 49.5057 45.6571 42.6617 39.6595 36.5744 33.6922 30.4367 27.6585 25.4214 23.5696 21.6563 19.5687 18.239 16.4031 14.0247 12.5222 10.8871 9.47877 8.9643 8.01374 6.9719 6.52051 5.95815 5.45912 5.43346 5.56972 5.33561 2.43326 42.7382 91.431 101.448 108.069 111.302 111.742 111.198 109.708 107.153 104.469 101.639 98.3037 95.7365 92.3597 88.1364 83.9003 79.287 75.9269 72.9641 69.8937 67.3967 64.6001 61.6331 58.961 56.4627 53.4779 49.9374 47.1819 45.3242 42.9732 39.9483 37.9615 35.4939 33.0732 32.0139 29.5591 27.2502 25.7608 23.8796 22.3666 20.6156 19.0275 17.7552 16.1225 14.394 12.8224 12.3187 11.5174 9.59775 9.17077 8.34432 6.87359 6.23768 4.80486 4.11216 4.56019 4.28907 3.49995 3.22807 2.80024 2.41366 2.6644 2.75211 2.71826 1.30021 49.5163 101.323 106.093 109.896 112.885 114.405 113.722 112.43 110.095 106.234 103.094 100.125 96.9485 93.7301 89.6703 86.009 82.8769 79.418 75.8699 73.168 69.7172 65.712 62.6792 59.7142 56.1399 53.8281 51.4553 48.3608 45.7421 43.6685 41.6748 39.0485 36.0884 33.0799 30.7195 29.4125 27.8547 25.2969 23.4857 21.5111 19.7807 18.6178 16.8684 15.3729 13.9498 12.8571 11.9962 10.8108 9.71755 8.51656 7.66104 7.09886 6.36192 5.4826 4.49678 3.98797 3.31714 2.79335 2.6688 2.3133 2.50833 2.68544 2.38727 2.45415 1.3185 82.73 176.389 195.309 207.057 213.143 215.475 214.354 211.578 206.73 200.514 195.196 188.731 181.755 175.581 169.041 161.829 155.146 149.019 143.185 137.094 129.82 123.153 118.144 112.427 106.152 101.771 96.5084 91.2914 86.8301 82.9904 78.8777 74.0068 68.9535 62.7498 58.2888 56.2363 52.6618 47.9165 44.7076 41.3686 37.8001 35.1512 31.7779 28.8375 26.8069 25.0289 23.4157 21.2128 18.7504 16.7437 15.0311 13.3693 12.5518 11.6464 10.2667 8.75754 7.21701 6.31352 5.82205 5.08811 5.06865 5.31016 4.82389 4.58014 2.35387 56.0735 130.128 160.432 177.596 185.592 189.358 188.419 184.64 180.326 176.009 171.006 165.229 158.734 152.712 148.063 142.132 135.096 129.344 124.144 118.416 113.273 107.934 103.758 99.7134 94.4209 89.9461 85.3833 81.6929 77.3648 73.4289 69.0726 64.4502 60.5147 55.3084 51.6228 49.5576 46.3322 43.0954 40.5026 37.8525 34.4353 31.2274 28.9709 26.818 24.8942 23.0585 22.054 20.4152 17.543 16.1458 14.5987 13.0218 12.5793 11.7505 11.3605 9.81319 8.24365 7.50474 6.71571 5.80524 5.18061 5.26673 5.13724 4.88394 2.40843 38.5823 96.0683 128.211 147.255 157.819 163.362 162.545 159.34 155.594 150.845 145.686 141.208 136.328 131.202 126.946 122.243 116.788 111.772 106.265 101.818 98.9605 94.484 90.6957 86.8505 82.489 78.2132 73.6348 70.6808 66.9951 62.9512 58.2984 54.6702 52.0059 49.0936 46.2577 43.4071 41.3314 38.9916 36.4995 34.0854 31.3743 28.7333 27.2143 25.597 23.4776 21.32 20.3927 19.2637 17.1322 16.0361 15.0543 13.8426 12.6321 11.6243 11.5046 10.3423 8.73321 7.7527 7.12899 6.45488 5.66438 5.74432 5.46445 4.97101 2.51822 26.8081 71.4329 101.461 120.38 131.773 137.409 137.095 135.497 132.074 126.832 123.163 119.83 115.249 110.521 107.242 102.946 98.2355 94.0023 89.3283 85.5342 82.4991 79.1581 75.7918 71.7845 69.5466 66.5784 62.1072 59.2937 56.7089 53.8203 50.0404 47.5341 45.72 43.6394 41.1479 39.1625 37.8094 35.7249 33.0384 31.039 29.1262 27.0293 25.2076 23.8334 22.2052 20.3199 19.4374 18.6683 17.6165 16.3329 15.3251 14.0692 12.9489 12.2768 11.8133 10.6144 8.75654 7.89501 7.71694 7.19923 6.67662 6.42324 5.69281 5.3305 2.75018 18.6421 52.8784 79.676 96.5935 106.107 111.093 111.659 110.652 107.717 103.402 100.998 98.2228 94.0772 89.8524 86.7797 83.5169 79.5527 75.8758 72.5408 69.9204 67.5755 64.6133 61.4613 59.0334 58.0278 55.7703 52.6143 50.4015 48.5049 46.7849 44.3261 42.4881 40.4451 38.2568 36.5559 35.1118 33.9593 32.598 30.5247 29.6668 27.9797 25.6352 24.3421 23.0471 21.4712 20.0868 19.3621 18.6857 17.6608 16.2199 15.1939 14.4542 13.4199 12.5975 11.8498 10.3282 9.35544 8.75585 7.95153 7.04989 7.24661 6.91489 6.62073 6.04849 2.35635 12.8379 39.9725 64.0151 78.7652 86.3544 89.7929 90.1914 89.2535 86.7335 83.7142 81.2614 78.188 75.4124 72.7176 69.3822 66.5957 64.3368 62.2267 60.2852 58.2591 56.1961 53.9528 51.8796 50.5107 49.7993 47.9385 45.2912 43.2477 42.104 40.984 39.5902 38.0196 35.812 34.6407 33.4939 31.9463 30.9702 29.6865 28.1921 27.7239 26.5574 24.8019 24.0573 22.7995 21.6183 20.2582 18.725 18.4153 17.9195 16.2678 14.9122 14.5449 13.4645 12.7076 11.9992 10.535 9.85884 9.28065 7.94515 6.95859 7.04895 6.75778 7.08015 5.79941 1.93761 8.93138 31.4176 53.6928 67.2989 74.4134 77.1421 76.9892 75.6609 73.4595 70.9281 67.9594 65.0891 63.0054 60.8792 58.5484 56.0969 54.2932 52.8725 51.3401 49.5157 47.6812 46.4056 45.1579 44.3094 43.6965 42.4031 40.5844 38.6089 37.7463 36.9076 36.0026 34.6654 32.8538 31.9375 30.9439 30.2189 29.3679 28.1063 26.6187 26.0784 25.471 23.9809 23.0755 21.8973 21.092 19.892 18.3334 17.821 17.4568 16.3725 15.0223 14.521 13.6397 12.6368 12.1419 10.9146 9.52169 8.754 8.00563 7.61144 7.59 6.4394 5.70953 5.5981 2.63575 7.23412 27.4278 49.3087 63.0344 69.7169 72.0575 72.041 70.3219 68.0026 65.5078 62.6799 59.8225 57.3748 55.3095 53.4227 51.5964 50.1436 48.9642 47.3162 45.6257 44.5422 43.7084 42.4788 41.7586 40.9467 39.6197 38.7555 37.6765 36.4562 35.1316 33.7356 33.2111 32.4279 31.1416 30.9387 30.2873 28.6081 27.441 26.5464 26.1261 25.1211 23.5919 22.3801 21.1389 20.72 20.2131 18.9209 17.7019 16.8034 16.3636 15.4014 14.5785 13.9284 12.6468 11.8483 11.0874 10.0514 8.86937 8.38822 7.76109 7.48294 6.79337 5.50977 5.55699 2.83977 8.57508 30.394 52.5008 67.2413 74.7969 76.9047 76.7618 75.2577 73.254 70.5275 67.3445 64.4614 61.7929 59.3419 57.1189 55.3465 54.3175 52.9338 50.9177 48.7838 47.137 46.1803 45.3109 44.8091 43.2733 41.5721 40.9736 39.6386 37.7029 36.5155 35.2129 34.3575 33.5949 32.5327 32.2871 30.9321 29.2124 28.1158 27.3481 26.4427 25.1839 23.8267 23.0447 22.2997 21.5429 21.0639 19.7999 18.6689 17.8374 16.9418 15.4049 14.045 13.7049 13.099 12.2946 11.4176 10.3171 9.67042 9.55089 8.32155 7.09406 6.53013 5.96276 5.68203 2.68444 12.3719 39.254 62.7331 78.41 87.3974 90.3094 90.0081 88.3946 86.7773 84.1914 80.7116 77.4546 73.9827 70.8718 68.5288 65.8399 63.9848 61.537 58.9615 57.052 54.8071 53.2363 51.8845 50.5649 48.9353 47.0731 45.5818 44.1735 42.2732 40.8978 39.6418 38.0775 36.1784 34.8089 33.8961 32.1003 30.965 30.2319 28.9497 27.5579 26.0416 24.9568 24.6182 23.4507 22.0073 21.0249 19.5671 18.1763 17.7525 17.1443 15.8055 14.112 12.958 12.7045 12.4668 11.4328 9.75937 9.30145 9.28863 8.14549 6.98751 6.27065 5.87762 5.59194 2.64833 17.7381 52.1997 78.4418 94.9214 104.58 108.496 109.094 107.169 104.706 102.447 99.0497 95.4622 91.2735 87.3256 84.251 80.5755 77.485 74.5901 71.7104 68.4223 65.8616 64.1574 61.9707 59.3728 56.7834 54.3474 52.3957 51.0891 49.126 46.659 44.8254 43.3721 41.3317 38.8263 37.129 35.3759 33.8698 33.0301 31.4725 29.6305 27.9382 27.0567 25.6625 24.0211 23.1431 21.3247 19.0127 17.8596 17.476 16.7355 15.9321 14.554 13.097 12.4618 11.7694 11.0324 10.0223 9.21409 8.70664 7.32377 5.81708 5.65468 5.90777 5.52452 2.65285 25.3708 69.0917 97.8042 115.762 126.535 130.637 131.101 129.4 126.287 123.275 119.375 115.406 111.592 106.736 102.164 98.4809 94.7077 91.4165 87.9305 82.4448 78.868 76.6694 74.2504 71.4859 67.586 64.2042 61.3655 58.6676 56.0395 53.1363 50.648 49.4005 47.5406 43.8383 41.6931 40.2114 38.1648 36.2461 34.5156 32.0211 29.7035 28.3659 26.416 24.8264 24.1926 22.4805 20.068 18.9608 17.6737 16.4161 15.4452 14.3079 13.4085 12.8261 11.6846 10.9657 10.3893 9.07739 8.5902 7.18134 5.47673 5.41286 5.71412 5.4829 2.53256 36.1908 90.7848 120.917 141.176 152.69 157.064 157.074 153.623 150.008 146.924 142.437 136.796 132.269 126.916 121.654 117.401 111.568 106.875 103.813 98.6655 93.6717 90.4819 86.3452 82.4623 78.7389 75.176 71.5827 67.8239 64.1424 60.4682 58.0493 55.897 53.293 50.3413 47.5876 44.9763 42.6648 39.8676 37.1872 34.2292 31.6279 30.0107 28.2276 26.0289 24.8581 23.6515 21.4329 19.5838 17.6691 16.3428 15.2174 13.3745 12.3652 12.3395 11.382 10.4157 9.00496 7.77665 7.824 6.86793 5.43251 5.64145 5.86746 5.30838 2.49858 51.5072 120.622 151.146 171.056 180.906 185.126 184.205 180.015 176.322 172.242 167.08 160.469 154.056 148.2 143.195 137.277 129.296 123.251 119.2 114.761 109.499 105.112 100.713 95.9196 91.384 86.0671 81.4627 78.25 74.3225 70.2031 67.1416 63.2298 59.3822 56.7631 53.2201 50.0438 47.8014 44.3746 40.8297 37.9762 35.3488 32.8667 30.6525 28.0343 26.5594 25.1026 22.5172 20.5297 19.3549 17.6864 15.7257 13.4852 12.0125 11.9009 10.655 8.8546 7.62804 7.23282 6.44272 6.07904 5.5186 5.29151 5.25027 4.89106 2.57776 73.1452 161.135 186.42 201.419 208.123 210.723 209.734 207.036 202.825 197.126 191.802 185.546 178.68 171.743 165.09 157.594 149.405 142.381 136.613 131.492 125.599 120.307 115.329 110.08 104.829 98.5536 93.2597 88.9479 84.9864 80.6533 76.0258 72.0687 66.6863 62.096 59.1234 56.3573 53.2039 49.0515 45.3455 42.3651 39.597 36.364 33.4625 30.8596 28.2541 25.9919 23.9446 21.9478 19.9931 18.2943 16.2803 14.1628 12.3604 11.0084 9.67672 8.69766 8.00273 7.04668 5.79226 5.19179 5.05713 5.02732 4.98645 4.77294 2.40841 42.8151 92.0152 102.175 108.062 110.512 111.167 111.43 110.365 107.676 104.709 102.103 98.9935 95.8307 92.0433 87.7617 83.7267 79.8783 76.1606 73.3488 70.4506 66.9044 64.3001 60.9788 57.8932 55.2314 52.5519 50.1511 47.1194 45.0228 42.6597 40.0733 38.5547 35.5 32.6139 31.4413 29.8941 27.7654 25.5802 23.6437 22.0588 20.8575 19.3008 17.636 16.3143 14.499 13.0448 12.4082 11.3651 9.59456 8.81309 8.26152 7.10487 6.10888 5.11794 4.5612 4.61496 4.17019 3.32913 3.02561 2.46604 2.09012 2.36079 2.6938 2.49471 1.09532 49.5496 101.483 106.084 109.937 112.924 114.448 113.754 112.393 109.927 106.408 103.465 99.7093 96.2579 93.4212 89.3962 85.9291 82.1709 78.4513 75.6609 72.42 69.0839 65.6804 62.317 58.9254 56.4482 54.1555 51.0333 48.5858 46.3003 43.9797 41.2046 38.0197 35.698 33.0138 30.7691 29.307 27.2557 25.3323 23.727 21.5858 19.7785 18.4464 16.9946 16.3974 14.7489 12.4641 11.689 10.9457 9.88246 8.44523 7.57097 7.068 5.91364 4.97032 4.26505 4.18358 3.83568 3.14771 2.85025 2.51298 2.62054 2.73519 2.19227 2.03823 1.16985 82.6809 176.25 194.321 206.2 213.243 216.115 214.851 212.402 207.852 201.627 196.192 189.104 181.748 175.772 169.355 162.295 153.955 147.06 142.887 136.293 129.358 122.84 117.031 111.395 106.134 101.631 95.9855 91.2541 86.9168 83.216 78.531 72.7349 68.4153 62.6428 57.8595 56.0556 52.0813 47.4734 44.9058 41.6926 37.7871 35.1604 32.6183 30.6894 28.2588 25.0811 23.2248 21.2916 18.8392 16.5857 14.8621 13.7198 12.4108 11.0789 10.0997 8.86636 7.19943 5.94203 5.86469 5.68525 5.36547 5.1131 4.05277 4.14205 2.52246 55.8332 129.308 159.2 176.992 185.597 189.568 188.975 186.115 182.239 177.47 171.73 166.223 159.809 153.12 148.099 142.199 134.668 128.939 125.028 118.352 112.483 107.034 102.688 99.2193 93.6663 88.9269 85.007 80.7972 76.0988 73.2338 69.3627 64.5913 60.6728 55.1939 51.0017 49.2631 45.9779 41.7055 39.8242 37.9392 34.0553 31.4936 29.9298 27.3902 25.5576 23.8677 22.1677 20.2252 17.5935 15.9834 14.6405 13.7293 13.2468 12.3487 11.4178 9.01423 7.463 6.68328 6.31249 6.23074 5.20537 4.69048 4.20356 4.69137 2.78416 38.4698 95.2409 127.067 147.182 157.366 162.09 162.091 159.789 156.055 151.265 146.236 141.461 136.401 131.346 126.074 120.764 115.871 111.424 106.904 101.686 97.5825 93.432 89.4693 85.9996 81.8201 77.0528 73.3372 70.2424 66.2435 62.7799 58.8297 55.6195 52.057 48.0977 45.3901 42.8026 40.3292 37.4464 35.8137 34.1269 31.2442 29.3256 27.9399 25.9126 24.1908 22.1752 20.6245 19.269 17.5406 15.891 14.8313 14.3026 13.057 12.0639 11.2284 9.50365 8.32533 7.77848 7.27031 6.51749 5.50224 5.29464 5.23528 5.27264 2.76068 27.0131 71.1035 100.189 119.758 131.052 136.399 136.43 134.733 132.034 127.16 123.349 119.733 114.476 109.986 106.097 101.429 97.0872 92.9176 88.9898 85.1723 81.9479 78.612 74.5001 70.6675 68.6362 65.7485 61.6501 59.1099 56.7125 53.4759 50.3668 48.1311 45.6229 42.7382 40.0207 38.1482 36.6114 34.7244 33.0715 31.0392 29.1221 27.712 26.0126 24.6387 22.9256 20.7526 19.4318 18.541 17.7677 16.7071 15.5724 14.4071 13.1575 12.1703 11.2779 10.2734 8.76801 7.96643 8.05571 7.52979 6.71737 6.26141 6.10318 5.99928 2.97373 18.8078 52.5966 78.8943 96.0262 105.501 110.836 111.825 110.008 107.606 104.009 100.358 97.9606 93.6716 88.7234 86.0892 83.5293 79.6362 75.8082 72.9836 69.727 67.0266 64.3945 61.3778 58.9766 57.2362 55.4159 51.9166 49.4669 48.4156 46.2332 43.8856 42.279 40.6622 38.2746 35.8739 34.6088 33.2603 32.2589 31.0452 29.0757 27.2553 25.5951 24.6945 23.8618 21.6118 19.6567 18.8294 18.4361 17.9203 17.0041 15.9392 14.6921 13.4605 12.4258 11.4172 10.1725 9.21702 8.07063 7.90249 7.97121 7.38616 6.5815 6.50101 5.99574 2.46383 12.4895 39.0021 63.1533 78.1645 85.78 89.4387 90.4948 89.1907 86.2596 83.8131 81.1579 78.4167 75.2944 71.8365 69.167 66.9619 64.3658 61.9765 60.4339 58.2491 55.9178 53.7359 51.9303 50.926 49.6398 47.5972 45.0345 43.2007 42.539 40.7744 39.0853 38.0546 36.4192 34.9731 33.491 32.1225 31.1033 30.2178 28.8225 27.297 26.0738 25.0126 24.3102 23.1994 21.4768 20.0683 19.0104 18.7547 18.2236 16.6802 15.4946 14.6434 13.2403 12.2945 11.8864 10.8066 9.8713 8.77654 8.39625 7.9266 6.864 6.65366 6.79349 5.60553 2.15072 8.36257 30.3947 53.1966 67.0952 74.1632 76.9543 76.934 75.3053 72.9363 70.8073 68.4829 65.5916 62.6762 60.3147 58.1652 56.0014 53.9929 52.2375 50.9013 49.2697 47.6693 46.1003 45.0244 44.6067 43.7148 42.3093 40.9666 39.5001 38.1824 37.1347 36.401 35.143 33.7199 32.6649 31.1617 29.9623 29.4436 28.4688 26.9944 26.3697 25.5294 24.7201 24.0445 22.1275 20.8534 20.1027 19.0194 18.3337 17.9447 17.0283 15.4658 14.3115 13.6823 13.0472 12.3769 11.475 10.4614 9.11287 8.2374 7.95206 6.72742 6.0666 6.02468 6.24311 3.29552 7.05471 27.4206 49.3151 62.6908 69.4433 72.0443 71.9997 69.9591 67.6116 65.1167 62.6787 60.1388 57.4221 55.3979 53.4315 51.5266 49.8622 48.4238 47.1913 45.6466 44.6434 43.6008 42.6047 41.8027 40.646 40.0193 39.1257 37.4685 36.1522 35.4885 34.8585 33.7799 32.817 31.4708 30.4455 29.7313 28.1606 27.1225 26.8894 26.5975 25.5824 24.4496 23.1918 21.331 20.5712 20.1967 18.9208 17.9989 17.4584 16.9548 15.5759 14.3379 14.1854 13.2348 12.2166 11.5605 10.6187 9.12768 7.91606 7.74279 7.0919 6.01548 5.63425 6.44168 3.52253 8.86885 30.9275 52.5933 66.8194 74.5338 77.0463 77.1931 75.8473 73.2526 70.0666 67.0566 64.3552 61.6517 59.2891 56.9662 54.7801 53.444 52.191 50.5706 48.8363 47.6482 46.4754 45.5808 44.2814 42.7872 42.223 41.0196 38.958 37.4179 36.8161 36.1096 35.056 34.0697 32.4365 31.3971 30.7997 29.0095 27.6278 27.4666 26.6098 25.4225 24.046 22.5535 21.5514 21.4816 21.0809 19.4432 18.793 17.869 16.9615 15.8484 14.2704 13.5711 12.6393 12.2637 11.5619 10.0352 9.49923 9.12664 7.85527 6.75396 6.20201 6.1493 5.8694 2.61782 12.3744 39.2872 62.9852 78.5156 87.7284 90.8603 90.3059 89.2032 87.5336 84.1328 80.4393 76.9158 73.3781 70.6599 68.4198 65.7709 63.8478 62.0748 59.5619 57.4226 55.1607 53.1808 52.3209 50.7476 48.7349 47.0569 45.2927 44.0183 42.5243 41.2761 40.0091 38.154 36.4574 35.113 33.7018 32.3969 31.2672 29.6214 28.4719 27.5768 26.086 24.7079 23.9328 22.9862 22.3695 21.2845 19.8772 18.8189 17.5993 17.0144 16.3886 14.8278 13.0001 12.1025 12.1124 11.3624 9.38623 8.98424 9.23558 7.86791 6.37654 5.83639 5.75655 5.24674 2.38874 17.3322 51.6599 78.5538 95.5559 105.576 109.089 108.983 107.384 105.737 102.842 99.0288 95.4907 91.4593 87.6113 84.51 81.4604 78.4769 75.6609 72.6475 69.2427 65.7801 63.545 61.9447 59.5263 56.5264 54.0117 52.2928 50.9691 49.2016 47.2719 44.7468 42.4926 40.9048 39.0136 37.2758 35.2993 33.6757 32.329 30.995 29.5177 27.8639 26.6117 25.5833 24.6441 23.263 21.1704 19.5962 18.2445 17.1638 16.4387 16.1922 15.4165 13.4608 12.3828 11.9443 10.9693 9.66011 9.23269 8.58773 7.25521 6.17227 5.80086 5.65212 5.17448 2.52661 25.2155 68.7334 98.4329 117.158 127.205 130.731 131.556 129.802 127.162 124.209 119.509 115.255 111.282 106.756 103.023 98.8761 94.6313 91.224 87.5796 82.872 78.5742 75.9016 74.0048 70.8442 66.8325 63.571 60.7444 58.4873 56.1399 53.4855 50.438 48.7388 46.8938 43.5191 41.5579 39.7974 37.8568 35.7338 33.7929 31.6915 29.3666 28.0964 26.4696 24.8788 23.6356 21.9943 20.3466 18.884 18.0536 16.6984 15.3736 14.8659 13.7209 13.0866 11.9582 10.5381 10.3459 9.75221 8.05773 6.98068 6.55986 6.31395 5.84785 5.24093 2.55008 35.9952 90.5583 122.146 141.958 151.746 156.357 157.196 154.395 150.769 147.421 142.616 136.954 132.195 126.853 122.703 117.738 111.029 106.897 103.77 98.3003 93.315 89.7478 86.0722 82.2221 78.2916 74.8035 70.8402 67.2529 63.9337 60.3823 57.5547 55.4543 52.8759 49.7119 47.0618 44.5959 42.6579 39.6105 36.3541 34.0501 31.5526 30.1892 28.2583 25.5476 24.0913 23.3433 21.7403 19.5353 18.1789 16.812 14.8963 13.7498 13.1274 12.7214 11.5425 10.0317 9.38593 8.34694 6.84366 6.34893 6.20162 6.34197 5.6647 4.83577 2.46259 51.6394 120.877 152.315 171.814 180.529 184.2 183.174 180.516 177.226 172.858 167.388 160.253 153.981 147.921 142.636 137.219 129.762 124.193 120.027 114.084 108.949 104.606 100.185 95.7427 90.9197 86.1156 81.0622 77.3956 73.4939 69.5437 66.7139 62.9542 59.2585 56.2682 52.7881 49.6853 47.2982 44.3145 40.8373 37.8725 35.2792 32.7741 30.5707 27.8438 25.95 24.8609 23.0818 20.8816 18.7005 16.997 15.3982 13.6646 12.439 11.7024 10.9383 9.1813 7.53455 7.26913 6.30797 5.94953 5.70092 5.42099 4.94653 4.2613 2.20807 73.2433 161.253 187.329 203.172 209.77 211.333 209.582 207.687 203.659 198.077 192.356 184.514 177.336 170.816 163.959 157.183 149.912 143.425 137.973 131.748 125.152 119.353 114.953 109.989 103.808 97.2669 91.9855 88.8277 84.6758 79.7243 76.1306 72.2985 66.4396 62.4419 59.0377 55.8535 53.146 49.2969 45.7605 42.2442 39.5991 36.6479 33.2409 29.9896 27.6462 26.2118 24.1159 21.8373 19.902 17.7466 15.9369 14.5435 12.69 11.0389 9.83555 8.85921 7.56307 7.17756 6.78571 5.87882 4.86081 4.6137 4.74828 4.54007 2.45708 42.5912 91.6665 102.426 108.98 111.64 112.132 111.965 110.905 107.873 104.949 102.609 98.7854 95.2367 91.6283 87.5517 83.8396 79.9213 76.5044 74.1653 70.8848 66.7707 63.5369 60.9021 58.1207 54.7952 51.5229 49.3941 47.4079 45.0263 42.3007 40.1503 38.6543 35.305 32.9938 31.2819 29.5261 28.0723 25.7395 23.8986 22.0872 20.9101 19.6035 17.5212 15.6587 14.1616 13.333 12.0684 10.6903 10.0796 8.98752 7.95751 7.46224 6.55642 5.48809 4.63567 4.51951 4.02406 3.45321 3.48659 2.72322 1.83345 2.08683 2.55044 2.5482 1.35871 49.7948 101.63 106.162 110.895 113.618 114.212 114.163 112.574 109.34 106.468 104.145 100.297 96.3692 93.3143 89.3854 85.8675 82.4633 78.7982 75.2389 71.9541 68.3545 64.9055 61.921 58.5888 56.4501 54.0025 50.9492 48.8526 46.5935 43.6975 40.778 38.4761 36.2411 33.1904 31.0395 29.7025 27.362 25.012 23.5287 22.0085 19.8625 17.9315 16.6973 16.3165 14.6576 12.4984 11.7802 10.7364 9.70366 8.35754 7.81477 7.30737 5.97245 5.00799 4.3036 4.56865 4.24159 3.38189 3.12247 2.832 2.98234 2.87873 2.16248 2.03594 1.1004 82.8362 176.171 194.278 206.711 213.293 215.381 215.17 213.007 207.377 201.392 196.581 189.839 182.57 175.635 167.944 161.224 154.172 147.13 141.628 135.179 127.975 121.718 116.805 110.798 105.339 101.053 96.5436 91.8584 86.6276 82.2827 78.2819 73.4317 68.5709 63.1075 58.7358 56.1051 51.8922 47.1231 43.9976 41.0218 37.2507 34.7476 32.9948 31.0502 27.6735 24.1891 22.7017 21.0097 19.1195 16.8006 15.5029 14.7289 12.5865 10.7267 9.42817 8.83156 7.65824 6.22031 5.97132 5.86814 5.7732 4.93504 3.82485 4.2223 2.39707 56.1464 129.414 159.126 176.647 184.85 188.594 188.486 187.185 182.557 176.754 171.842 166.227 160.008 152.454 145.651 140.394 134.298 128.326 124.221 118.298 111.973 106.481 102.532 99.0698 93.1225 88.5528 85.2308 80.8217 75.8824 73.0612 69.8671 64.7424 60.8192 56.123 51.469 49.1152 46.3575 42.3148 39.2437 36.3195 33.1839 31.9547 30.6916 27.7724 25.5929 23.5442 21.6892 20.0387 18.0809 16.3209 15.0933 14.3021 13.0226 12.008 10.5434 8.53728 7.04892 6.527 6.60031 6.12698 5.4142 4.73862 4.03041 4.71738 2.80634 39.161 95.5608 126.809 147.242 156.694 160.827 161.704 160.29 156.174 151.154 146.823 141.465 136.364 131.041 124.971 120.062 115.263 110.612 106.972 102.654 97.5613 92.4682 87.986 86.017 82.8154 77.8214 73.5733 70.3844 67.1015 63.5035 59.3258 55.3546 52.516 48.7551 44.9765 42.3433 40.2683 37.5954 35.6192 33.5671 31.2936 29.7686 28.1904 26.2667 24.8486 22.9406 20.9705 18.9843 17.5963 16.5697 15.0266 13.5475 12.6066 12.3292 10.9114 9.38244 8.05973 7.72586 7.58151 6.42403 5.62164 5.66422 5.50637 5.49647 2.92472 27.2994 70.6566 99.0204 119.082 130.226 135.357 135.976 134.647 132.627 127.88 123.013 119.022 114.638 110.344 105.67 101.181 96.71 92.4965 88.9063 84.9883 81.6038 77.6799 73.312 70.9004 68.6503 65.7355 62.806 60.0936 57.3839 53.6937 50.2461 47.9338 45.7788 43.3028 40.3906 37.3296 35.8252 34.2459 32.96 31.6562 29.6868 28.0363 26.1771 24.9807 23.5406 21.5968 20.1568 18.5522 17.8027 17.2283 15.5408 13.513 12.9785 12.5103 10.963 10.3186 9.24882 8.01405 7.36521 7.10175 6.80425 6.42145 6.30861 5.9544 2.8356 18.8012 52.2354 77.6976 94.84 105.1 110.607 110.918 109.445 107.927 104.34 99.7337 96.9249 93.5896 88.7997 85.209 82.4857 79.5093 76.1706 72.9597 69.6151 67.1259 64.2387 61.362 59.2878 56.5996 54.9734 53.0566 50.4535 48.5884 46.0454 43.4762 41.95 40.7534 38.9958 37.0928 34.9756 33.4535 32.3712 31.1679 29.8286 27.9331 26.1764 24.8988 24.2107 22.596 20.9693 19.8732 18.6604 17.8459 16.8887 15.655 14.0775 13.4924 12.6169 11.7079 10.7473 9.12675 7.7507 7.4731 7.89295 7.5665 6.70235 6.18471 5.52505 2.32653 12.837 39.1873 62.5693 77.1601 84.7816 89.1172 90.2092 88.5612 86.0311 83.7058 80.7015 77.7874 75.5563 71.9801 68.3476 66.4441 64.6529 62.5343 60.5836 58.7652 56.4632 53.9863 51.9986 50.9281 49.715 47.7364 45.9652 44.3029 43.1545 41.2534 38.9552 37.9182 36.8292 35.3809 34.3929 33.0248 31.5643 30.335 28.9767 28.27 27.1536 25.3277 24.4403 23.6425 22.2783 21.5689 20.0342 18.3244 17.6656 16.6509 15.4249 14.5004 13.7875 12.5484 12.3543 11.4921 9.48797 8.42367 8.5956 8.66547 7.524 6.77298 6.26214 4.937 1.93956 8.4779 30.0564 52.3869 65.8718 72.5796 75.937 76.5622 75.2155 72.8999 70.2334 67.8314 65.1804 62.7129 60.8217 58.6358 56.7837 54.8783 52.8063 51.2527 49.9051 48.3837 46.7784 45.6561 45.0189 43.7979 42.1989 41.5798 40.2853 38.7686 37.8633 36.5225 35.6336 34.4908 33.2599 31.8953 30.4891 29.8417 28.8677 27.8701 27.3091 26.148 24.6488 23.7457 22.7041 21.8346 21.2149 19.582 18.0824 17.981 17.1358 15.4182 14.5794 14.1919 13.092 12.3418 11.7169 10.6124 9.39632 8.68921 8.67177 7.14607 6.3686 5.86881 5.37449 2.91756 6.73364 26.6538 48.1977 61.601 68.4608 70.8998 71.1091 69.4438 67.1365 64.9044 62.4357 59.9051 57.4142 55.9412 54.7377 52.8951 50.8994 48.9318 47.867 46.727 45.4869 44.3245 43.6476 42.691 41.0978 40.3094 39.3663 37.4689 36.2588 35.8825 35.3709 34.3319 33.3844 32.3036 30.8525 29.8007 28.5822 27.9038 27.6123 26.7105 25.5793 24.4399 23.3765 22.3214 21.4193 20.4022 19.2385 18.4259 17.7144 16.809 15.3957 14.7706 14.4675 13.24 12.629 11.6184 10.7749 9.76671 8.32823 8.07802 6.88223 5.74826 5.48173 5.99684 3.30819 8.6137 30.067 51.2738 65.5686 73.3196 76.1645 76.8296 75.063 72.5261 70.3972 67.1487 63.7713 61.3705 59.3842 57.4145 55.4084 53.4305 51.9999 51.2338 49.5597 48.2802 47.2848 45.9986 44.5346 43.3665 42.6903 41.1856 39.1588 37.8868 37.3185 36.7253 35.0831 34.1369 32.9448 31.3426 30.7959 29.3494 28.074 27.3326 26.651 25.587 23.9915 22.916 22.1059 21.3661 20.5208 19.4283 18.7179 17.5925 16.5076 15.6934 14.988 14.0642 13.3438 13.0446 11.5923 10.5568 9.95412 8.83268 7.79946 6.78214 5.93735 5.92561 5.65949 2.48331 12.3034 38.6343 62.0755 77.5824 86.1894 89.8775 90.3155 88.8038 86.6428 83.8867 80.0869 76.2137 73.6033 71.1058 68.5723 66.0585 63.604 61.8003 60.2017 58.1116 55.9431 54.1154 52.6575 50.7797 48.8397 47.3496 45.7515 44.3194 43.0129 41.7526 40.0407 37.8329 36.2366 35.2736 33.6155 32.4264 31.3751 29.5297 28.6512 27.6827 26.0914 24.769 23.9397 23.2362 22.1513 20.6865 19.8128 18.9416 17.8191 16.6855 15.89 15.079 13.5086 13.1082 12.8604 11.7317 10.2711 9.40465 8.72159 7.662 6.51012 5.96275 6.05456 5.11458 2.16932 17.6307 50.9684 77.7825 95.9314 105.423 108.849 109.342 107.766 105.608 102.516 98.7717 94.9992 91.3737 88.0543 85.2049 81.8682 78.71 76.2106 73.1979 70.343 66.7729 63.5209 61.5173 59.1866 56.4359 54.1192 52.3031 51.1293 49.7429 47.4142 44.5336 42.4086 40.6071 39.2793 37.3717 35.0979 33.7408 32.2438 31.251 29.7357 27.83 26.6721 25.4506 24.2966 22.6117 20.7977 20.2476 18.9335 17.3392 16.1662 15.6777 15.3097 13.5257 12.419 12.1514 11.0375 9.90022 9.69942 8.81334 8.00508 6.87398 5.99649 5.8779 4.74331 2.09786 25.8836 68.7572 98.2802 117.053 126.871 131.335 132.615 130.664 127.884 124.365 119.257 114.439 110.003 106.609 103.459 99.2895 95.1634 91.0609 86.7194 83.0011 78.4185 75.5604 73.5415 69.613 66.784 63.7514 60.2295 58.1783 56.0634 53.6395 50.9411 48.7643 46.3501 43.9035 41.6987 38.9944 37.3747 35.7483 33.4479 31.8393 29.9054 28.0639 26.3044 24.8225 23.3507 21.7533 20.5829 18.9033 17.6865 16.0672 15.345 15.2018 13.6668 12.7704 11.7153 9.88402 9.50113 9.92714 8.55315 7.46178 7.06924 6.59398 5.68388 4.60553 2.27267 36.6413 91.7635 123.011 142.354 152.885 157.309 157.77 154.954 151.387 147.724 142.05 135.801 130.666 126.454 121.881 117.359 112.488 106.833 101.559 96.8351 92.3562 89.4524 86.1612 81.7361 78.9208 75.4989 71.2759 67.9097 64.4326 60.801 57.7307 55.3669 52.3315 49.19 46.3337 43.9212 42.063 39.4793 37.0123 34.8703 32.4672 30.9363 28.9177 26.1584 24.025 23.005 21.6367 19.7525 17.9796 16.5802 15.6578 14.7401 13.9071 12.8621 11.3648 9.53955 8.80806 8.29493 6.73205 6.1732 6.52205 6.53499 5.38113 4.46809 2.30183 51.4587 121.267 153.355 173.188 182.556 185.178 183.87 181.142 177.165 173.095 167.568 159.974 153.061 147.57 141.869 136.241 130.338 124.955 119.294 112.802 108.042 104.277 99.9268 95.3369 91.3712 87.3343 83.3084 79.2567 75.0705 70.3531 66.1743 62.8435 58.9104 55.3229 52.036 49.7061 47.4545 44.5505 42.1933 39.2169 36.5226 33.8137 31.1274 28.3055 25.4381 24.6159 23.2476 20.9736 18.3964 16.8385 16.1843 14.7203 13.2608 11.7442 10.7083 9.25814 7.55648 7.10054 6.84784 6.95797 6.72838 6.12139 5.60222 5.00604 2.42287 72.6168 160.496 187.069 203.524 210.88 212.407 210.074 207.256 203.283 198.399 192.341 184.482 177.453 170.948 163.912 156.293 148.933 143.77 137.881 131.48 125.966 119.888 114.773 109.645 104.564 98.3784 92.8547 89.2295 85.1025 80.3453 75.4624 71.7698 66.8681 62.3225 58.4655 54.9498 53.3051 50.5204 47.0637 43.6465 40.2806 36.4573 32.7452 29.5445 27.3512 26.2327 24.0217 21.4891 19.5719 17.4889 16.3698 14.7668 12.8625 11.1275 9.74545 9.27092 7.41783 6.89035 7.42501 6.91986 5.84683 5.31698 5.31952 5.20939 2.64052 42.3217 91.1192 101.522 108.834 112.622 112.912 111.625 109.975 107.799 105.097 102.23 98.5992 95.4474 91.8189 87.4801 83.1129 79.2553 76.6304 73.6522 70.9245 68.1362 64.0203 60.7225 58.3163 55.8081 51.962 48.7658 47.1147 44.8311 42.2404 39.6851 38.1552 35.725 33.0544 30.7193 28.5781 28.0183 26.635 24.7008 22.9268 20.8047 19.062 17.1049 14.9393 13.878 13.2041 11.9195 10.7338 10.1566 9.17988 8.31266 7.34332 6.57217 5.57962 4.61819 4.70957 4.00914 3.38638 3.38384 2.86851 2.21765 2.21786 2.30286 2.3309 1.23443 49.7874 100.967 105.711 111.648 114.794 115.156 114.568 112.419 109.104 105.844 103.43 100.887 96.9782 92.7408 89.074 85.9967 83.1837 79.4705 74.5434 71.5889 67.8839 64.0413 62.369 59.3509 56.5477 53.9628 51.5057 48.9722 45.6466 43.6146 41.4996 39.0502 36.6338 33.5386 31.3462 30.0897 27.8189 24.9413 23.314 22.0533 19.9198 17.8925 16.6381 15.2707 13.6876 12.054 11.309 10.9836 9.71234 8.41874 8.01981 7.04771 6.12959 5.30754 4.75188 4.85219 3.83392 3.21229 2.92377 2.18925 2.337 2.85287 2.50986 2.31039 1.21224 83.0196 175.536 193.873 208.51 215.133 216.071 215.331 212.412 206.934 200.082 194.678 189.694 182.586 174.334 166.244 159.8 154.921 148.33 140.297 134.563 127.5 120.369 116.944 111.803 106.12 101.251 97.1403 92.3345 85.9156 81.5826 78.1228 73.7679 69.0659 64.1914 59.3319 55.8447 52.1026 47.3929 43.6938 40.8719 37.3582 34.4593 32.766 29.7716 26.244 23.7738 22.4808 21.3675 19.2305 17.0836 15.8668 14.15 12.3626 10.8425 9.68933 9.00998 7.58731 6.6264 6.02226 4.83792 4.77281 5.46099 4.71498 4.34075 2.41729 56.7078 129.921 159.279 178.158 185.917 188.244 188.095 186.758 182.324 175.758 170.658 165.42 159.358 151.857 144.236 138.235 133.256 127.548 122.397 118.038 112.12 105.988 102.288 98.4404 92.9155 88.5154 85.0357 81.0674 76.5934 72.5434 68.3756 63.6218 60.651 57.3453 51.6895 48.3668 46.5432 43.1147 39.0817 35.983 33.4725 31.7945 30.3932 27.8799 25.3114 23.6625 22.6359 21.0395 18.9302 16.924 15.1291 13.676 12.4169 11.5425 10.6191 9.18194 8.00883 7.60628 7.01025 5.7065 5.42072 5.50684 4.50196 4.48476 2.55683 40.0628 97.2237 127.982 148.083 156.957 160.522 161.219 159.251 155.814 150.851 146.045 141.3 135.949 130.132 124.663 120.134 114.764 109.061 105.258 102.178 97.4151 92.5267 88.7766 85.3808 81.207 77.4244 73.7081 70.0372 67.0462 63.5411 58.0879 53.8363 52.4113 49.6137 45.4672 42.8844 41.6251 38.5065 35.2902 33.3063 31.6625 30.0121 27.9116 26.1887 24.551 22.7767 21.7113 20.0961 18.5133 17.1932 14.8807 13.2618 12.6814 12.0161 11.0612 10.1732 9.15827 8.35116 7.81881 6.90698 6.22664 5.98847 5.24014 4.81944 2.41221 28.0794 72.1451 100.386 120.376 130.284 134.077 135.478 133.898 131.571 126.937 121.846 118.403 114.155 110.046 106.151 101.467 96.148 91.8415 88.5896 84.9262 81.3447 77.8099 74.1668 71.3733 68.6154 65.7739 62.9988 59.7475 56.9988 54.2159 50.1517 47.4464 45.6507 43.5769 41.3276 38.5122 36.579 34.4823 32.7028 31.5783 30.1493 27.9312 25.8971 24.6679 23.1174 21.5511 20.5013 19.1948 18.2842 17.3096 15.1118 13.9719 14.0121 12.8248 11.2083 10.5915 9.76021 8.12408 7.59858 7.89989 7.28478 6.58789 5.87119 5.15096 2.41666 19.2431 52.6866 77.5576 95.1964 105.136 109.459 109.938 108.626 106.53 103.022 99.2815 96.1074 93.0084 89.875 86.7715 82.0261 78.2221 75.9045 72.9643 69.7002 67.3686 64.816 61.6251 59.7565 57.4789 55.2464 53.4559 50.9073 48.9035 47.2049 45.1144 42.8827 40.8797 39.2009 37.7654 35.8403 33.6434 32.1673 31.0191 30.0824 28.5681 26.2904 24.5833 23.6738 22.5396 21.1967 20.0792 19.2523 18.4084 17.2535 15.4338 14.656 14.7941 13.3887 12.186 11.1363 9.52528 8.12978 7.83041 8.12725 7.95327 6.9974 6.31267 5.7716 2.46179 13.3279 39.4842 61.6105 75.8751 83.7663 88.0851 88.5035 86.4944 84.8983 83.1835 80.2275 76.8899 74.7852 72.7114 69.7377 66.6936 64.6833 63.1449 61.1091 58.9505 56.798 55.2978 53.419 51.5713 49.983 48.1262 46.5609 44.6477 42.9513 41.6219 40.2395 38.9292 37.3172 35.762 34.9786 33.8298 32.1127 30.3752 29.0104 28.8982 27.7808 25.4414 24.4903 23.7011 22.4837 21.5118 19.9329 18.9402 18.1866 17.1663 15.9476 15.1224 14.7197 13.447 12.5736 11.4486 9.87238 9.14788 8.54468 7.80295 7.53047 6.75336 6.12198 5.47466 2.32487 8.82251 29.657 50.5329 63.62 70.3495 74.0529 74.9247 73.6451 72.0714 69.768 67.1969 64.534 62.6054 61.5029 59.4095 57.4076 55.5855 53.8045 52.2772 50.7987 48.9529 48.1102 47.2571 45.6974 44.2121 42.6109 41.8695 40.5186 39.0074 37.9139 36.4302 35.7436 34.8212 33.6511 32.6983 31.288 30.2487 29.3972 28.1856 27.6444 26.9139 25.0439 24.0211 23.3401 22.5218 21.4279 19.5692 18.9319 18.0957 16.5508 15.7489 15.4567 14.6354 13.2285 12.5875 11.4917 10.3468 9.84739 8.92807 7.81626 6.97436 6.57012 5.88371 5.41762 2.80401 6.3729 24.9467 45.7727 59.0574 66.0787 68.9101 69.3253 68.2761 66.4041 64.4342 62.1119 59.6243 57.608 56.4894 55.1904 53.6422 52.0606 50.0039 48.5042 47.4849 46.3892 45.3363 44.514 43.5213 41.8874 40.7419 39.8584 38.3906 37.274 36.3031 35.1025 34.3867 33.5946 32.6119 31.5824 30.2828 29.6062 29.254 28.0487 26.9331 26.1007 25.029 23.7078 22.6645 21.8677 20.4997 19.4129 19.0748 17.9177 16.8398 15.7867 15.0792 14.4335 13.1437 13.0869 12.0335 10.9458 10.153 9.1204 8.49958 7.11491 6.41047 6.33994 6.21856 3.1555 8.01136 28.3863 49.4804 63.7196 71.2873 73.9859 74.4921 72.9305 70.9372 69.7598 66.9218 63.33 61.3214 59.8614 58.0096 56.3692 54.4561 52.9515 51.928 50.1674 49.0789 48.0368 46.6393 45.4108 44.2196 43.0366 41.2352 39.5108 38.3803 37.4923 36.7902 35.644 34.5544 33.5832 32.0472 30.7147 30.0604 29.337 27.9552 27.153 26.1613 24.528 23.6124 22.9242 21.4478 20.4498 20.0995 19.1565 18.1186 17.2479 16.0111 15.0381 14.5437 13.7822 13.121 12.2988 11.4562 10.5287 9.59226 8.82415 7.56847 6.56513 6.35113 5.82164 2.65659 12.6321 38.3815 60.9624 76.5805 84.9287 87.8484 88.072 86.3607 84.9991 83.2152 79.4978 75.6885 73.0216 71.5624 69.4361 66.7726 63.7922 61.504 60.0071 57.8637 56.0195 54.6436 53.0599 51.3016 49.5858 47.8918 45.9129 43.9543 42.7952 41.8172 40.3057 38.5345 36.9376 35.8938 34.6273 32.7201 31.3339 30.1895 29.2541 28.1257 26.9049 25.8081 24.745 23.6523 22.023 20.9054 20.2703 19.1899 18.2925 17.0539 16.0513 15.3004 14.3201 13.8734 12.9043 12.1422 11.459 10.2357 9.07077 8.1117 7.29343 6.91152 6.57892 5.19149 2.13134 18.6875 52.1631 77.7072 95.3688 104.623 107.117 107.42 106.414 104.576 101.491 97.8948 94.1652 89.96 87.4745 85.2137 81.9752 78.5794 75.8643 72.5296 69.5423 66.951 64.1397 61.9866 59.2425 56.7867 55.01 52.5101 50.5675 49.6476 47.5395 44.8225 42.7887 40.5629 39.3353 38.1927 36.1382 34.384 32.624 31.5243 30.2278 28.5426 27.4481 26.0357 24.0778 22.5648 21.5335 20.5096 19.3782 18.0755 16.8608 16.1676 15.1766 13.7632 13.0819 12.5754 11.6789 10.9458 9.97235 8.68256 7.89575 7.02513 6.35531 6.25201 5.24625 2.19467 26.7959 69.9006 97.9226 116.721 127.247 130.694 131.016 129.744 126.854 122.583 118.149 114.032 109.543 105.813 102.39 98.8255 95.172 91.6033 87.3599 83.1261 79.1444 76.1492 73.2145 69.5003 67.2057 64.3196 60.3217 57.6127 55.9464 53.8587 51.1135 48.8993 46.7089 44.59 41.991 39.5718 38.0339 35.933 33.8346 32.7592 30.8897 28.5669 26.8944 25.5511 24.1136 22.6057 21.4239 19.7149 18.1079 16.4996 15.6807 15.0211 13.8855 12.9303 11.9131 10.9117 9.80581 9.4887 8.80172 7.65014 6.90468 6.11951 5.6671 5.64811 2.89261 37.9582 93.2693 122.177 141.869 153.857 157.904 157.543 154.617 150.414 145.481 140.299 135.108 130.052 125.819 120.847 116.399 112.72 107.096 102.048 97.4963 92.6031 89.7398 85.855 81.7074 79.8311 75.9544 70.9983 67.6586 64.412 61.2729 57.8438 55.15 52.8561 49.6386 46.3592 44.019 41.9074 39.6972 37.7898 35.7974 33.0303 30.9062 29.1549 27.2133 25.0707 23.1833 22.0474 20.5136 18.6527 17.0785 15.7669 14.8496 14.0866 12.7076 11.7494 10.4884 9.12676 8.62421 7.69633 6.70793 6.2812 5.62587 5.52581 5.96294 2.99475 52.3482 122.422 153.576 173.577 182.995 185.889 184.741 181.213 176.312 171.161 166.068 159.171 152.145 146.715 141.168 135.59 129.762 123.998 118.644 113.195 108.033 104.244 100.202 96.0518 92.6541 88.4674 84.079 80.2635 76.4106 71.3079 65.998 62.0868 58.7743 55.2912 52.2457 49.6182 46.6181 44.1794 42.8522 40.2125 36.6567 33.6475 31.0777 28.4595 26.0195 24.6958 22.6878 20.8088 19.4151 17.8885 16.4113 14.9137 13.2396 11.8275 11.2344 9.52362 8.06065 7.96472 7.2761 6.6639 6.48142 5.26838 5.37061 5.90082 2.65737 72.4591 160.282 188.075 205.418 212.258 213.779 211.82 207.841 202.401 197.013 190.866 183.867 177.525 171.117 164.274 155.904 148.263 143.037 137.269 131.454 125.894 120.111 115.018 110.258 105.038 99.7054 94.7476 90.5437 86.4564 81.53 75.7209 71.2703 66.9594 62.0653 58.2794 54.693 52.1532 49.3553 46.9403 44.6975 40.7412 36.2068 32.656 29.6775 27.6634 26.1733 23.6796 21.4964 20.3338 18.241 16.5198 14.4012 12.4839 11.8347 10.6567 9.12345 7.59201 7.73607 7.28582 6.13153 5.84988 5.15716 5.25691 5.30227 2.28845 42.2126 91.0352 102.164 109.792 113.59 113.988 112.889 110.574 107.211 104.351 101.195 97.9891 95.4117 92.1824 88.0491 82.7934 79.453 76.9344 73.416 70.7267 68.0313 64.34 60.8685 58.1457 55.4987 52.4398 49.3918 47.4224 45.1525 42.7945 40.1465 38.1284 35.8427 32.6696 30.3529 28.4309 27.479 26.0082 24.2996 23.2374 21.1036 18.7837 16.8973 15.0201 13.9791 13.029 12.0025 11.2461 10.582 9.40883 8.25718 6.85787 6.19384 5.98528 5.33472 4.71556 3.99178 3.88354 3.51027 2.72386 2.28436 2.30963 2.57581 2.30275 0.882343 49.3751 100.6 106.455 112.381 115.031 115.891 114.743 111.799 109.081 105.823 102.143 99.1939 96.4447 93.1548 88.7956 85.6326 82.7766 79.0938 74.9166 71.0516 67.9348 64.3965 62.3244 59.4988 56.2744 53.6969 51.1921 48.4532 45.2338 44.087 42.3241 38.6149 35.9249 33.6235 31.2799 29.9678 27.6731 25.212 23.7009 21.7572 19.6726 18.0997 16.7766 15.3502 13.5595 12.05 11.2567 10.8992 10.1027 8.87471 8.1986 6.98249 5.81614 5.23754 4.99937 4.6647 3.43358 2.57802 2.39262 1.97069 1.88255 2.38691 2.40518 2.20178 1.10555 82.9406 175.676 195.504 210.105 215.487 217.151 215.286 210.024 205.789 199.708 192.35 186.72 180.906 174.137 166.081 159.713 154.754 148.649 141.195 134.398 128.364 120.744 116.034 111.839 106.912 101.823 96.8517 91.669 85.1503 81.2594 77.8825 72.6494 68.0795 64.5517 59.3501 55.3267 52.2829 47.9083 43.9921 41.0993 37.6288 34.7897 32.2904 29.233 26.3982 24.173 22.786 21.4104 19.274 17.3936 16.0031 14.024 12.2513 10.6433 9.72454 8.72723 7.35187 6.56686 6.01695 5.02296 4.48601 5.08335 4.41263 3.68727 2.09276 57.5997 131.666 160.777 179.604 186.617 188.671 188.021 184.403 180.883 175.741 169.214 163.081 157.576 151.574 144.811 138.975 133.502 128.192 122.906 117.967 112.814 106.692 102.039 98.1871 94.0757 89.4877 85.2203 81.2396 76.2688 71.1789 67.4061 63.7855 60.4047 57.7792 52.246 47.8902 46.7452 43.1007 38.7579 37.0377 34.8247 32.6306 30.2964 27.6002 25.7688 24.2397 23.0818 21.1784 19.0952 17.1208 15.0579 13.9618 13.0571 11.3971 10.4327 9.36268 8.56569 8.69274 7.41394 5.81938 5.58732 5.47297 4.53349 4.0746 2.20436 41.07 98.9953 128.615 148.357 157.484 160.43 160.462 158.263 154.892 150.384 144.843 139.791 135.081 129.861 124.951 120.607 115.02 109.381 105.383 101.639 97.1754 92.9877 89.9734 85.2938 80.4874 76.809 73.4629 70.3667 67.0447 63.2716 58.3834 54.7093 52.4444 49.8459 46.0314 43.0211 42.287 39.3768 35.7529 33.9129 32.1415 30.6046 28.1445 25.8488 24.979 23.5698 22.0901 20.7016 19.2058 17.0917 14.874 13.918 13.5344 12.3116 11.4569 10.6447 9.72516 9.3897 7.99035 6.83592 6.26924 5.66414 5.39537 4.70806 1.94423 29.3636 74.0173 100.743 119.618 129.591 133.441 134.516 132.662 129.392 125.166 120.838 117.588 113.501 109.373 105.831 101.452 96.2097 91.7188 88.9931 85.7339 81.8893 78.1341 75.5279 71.8591 68.157 65.8662 62.6081 59.4382 56.9655 54.9511 50.9188 47.6499 45.5514 43.4906 41.7391 39.3639 37.8859 35.6972 33.2762 31.6661 29.9356 27.9727 26.304 24.9729 23.8968 22.4083 21.1172 20.1718 18.6256 17.2051 15.9963 15.2328 15.0957 13.5157 11.8587 11.2389 10.0665 8.66513 8.19827 8.12919 7.08513 6.22817 5.80001 5.10627 2.25688 20.824 54.4825 77.2467 93.8863 103.667 108.337 109.379 107.164 104.159 101.073 98.5977 95.698 92.059 89.4932 86.8598 82.7007 78.3598 75.407 73.3184 70.5187 68.2409 65.8326 62.8318 60.7484 58.318 56.1122 53.6416 51.1356 49.5773 48.1702 45.9421 43.5105 41.4469 39.9099 38.8124 36.8726 34.562 32.9261 31.3917 30.0874 28.6962 26.6769 25.7202 24.7976 23.1654 22.1325 21.2477 20.057 18.6279 17.4013 16.218 15.8438 15.565 13.8028 12.2213 11.3816 9.78807 8.50905 8.48249 8.00415 7.39693 6.92727 6.40658 5.75681 2.58501 14.2564 39.8758 59.843 73.7515 82.0022 86.0409 86.3587 84.5237 83.0237 81.232 79.2993 76.7634 73.7528 71.9674 70.0904 67.7126 65.3648 63.2625 61.3986 59.4011 57.7144 56.4627 54.6652 52.8222 50.8726 48.779 47.0766 45.4205 44.0701 42.4868 41.1556 39.8038 38.3144 37.0602 36.3301 34.848 32.6479 31.3589 29.9389 28.728 27.5262 26.1716 25.3568 24.2097 22.639 21.7102 20.8733 19.956 18.5009 17.2853 16.6535 16.0674 14.9254 13.6707 12.5561 11.0462 10.094 9.65053 9.08857 7.80397 7.09738 6.7161 6.24858 5.76543 2.61867 8.95693 28.8492 47.6884 60.5078 67.7084 70.9529 71.7419 70.8408 69.9992 68.6237 66.8312 64.5563 62.2788 61.1309 59.6089 57.812 56.1455 54.5217 53.0856 52.1019 50.3395 49.1097 48.319 46.796 45.3338 43.7565 42.6407 41.4386 40.2226 39.0018 37.8119 36.5225 35.3561 34.4904 33.8438 32.5413 30.8293 29.7637 28.5661 27.7698 26.9254 25.8951 24.8497 23.8205 22.7712 21.1166 19.9632 19.6267 18.3561 17.2052 16.5891 16.2524 15.1963 13.8673 13.3236 12.1568 10.916 10.1502 9.2452 7.89814 7.10985 6.70563 6.41547 5.96778 2.78098 5.50261 22.4461 42.4254 55.4392 62.4527 65.5493 66.3301 65.9158 64.8674 63.3065 61.4764 59.68 58.0112 56.906 55.3532 53.6796 52.6315 51.1799 49.5876 48.795 47.5153 46.0244 45.2783 44.5251 43.0616 41.7251 41.1832 39.9665 38.6379 37.8513 36.7066 35.2744 33.9138 33.4233 32.7407 31.2103 30.3513 29.5274 28.2286 27.5962 26.8429 25.7499 24.4647 23.3765 22.6318 21.235 20.1565 19.2818 18.0687 17.1086 15.6984 15.2743 14.6457 13.4067 13.3985 12.8821 11.4263 10.2209 9.27446 8.3599 7.60842 7.40665 7.26586 6.31321 2.89976 7.12785 26.05 46.5788 60.5584 67.9992 70.9613 72.1187 71.4917 70.2484 68.6586 65.5968 63.1455 61.7882 60.2741 58.2352 56.4852 55.1829 54.0454 52.5311 50.8507 49.7164 48.6438 47.8397 46.7573 45.0873 43.8435 42.4626 40.6986 39.7725 39.2043 38.1362 36.9034 35.3737 34.6211 33.3164 31.4732 31.0183 30.0158 28.6673 27.8281 26.9075 25.4406 24.1232 23.5619 22.4453 21.375 20.5264 19.3584 18.427 17.5008 16.1557 15.2572 14.5289 13.1243 12.5492 12.2547 10.9325 9.918 9.28305 8.64977 8.18006 7.71723 6.84661 6.01526 2.98041 13.3954 38.6147 58.8273 73.4361 82.1177 85.2487 86.1112 85.7039 84.7629 82.2447 78.3406 75.8202 74.2315 72.2855 69.9703 67.5566 64.4091 62.0854 60.4373 58.2132 56.2866 55.4078 54.4087 52.5044 50.634 48.778 46.5797 44.6395 44.1055 43.0672 41.3518 39.9109 38.1141 36.9101 35.6014 33.7349 32.634 31.069 29.4724 28.4769 27.5314 26.2303 24.774 23.9047 23.0532 22.125 20.7788 19.5261 18.5245 17.6469 16.6676 15.835 15.0596 13.5823 12.5957 12.0505 10.8179 10.0163 9.29584 8.41039 8.00905 7.64192 6.57713 5.25908 2.45946 20.4618 54.3356 77.2123 93.3626 102.137 104.796 105.439 105.251 103.946 100.573 97.2941 94.5472 91.1758 88.0709 85.4822 82.3982 78.3439 75.4089 72.9799 70.6391 68.066 65.6451 63.5235 60.5483 58.4401 56.5111 53.8227 51.7412 50.6923 48.59 45.9635 44.1439 42.0854 40.4435 39.1715 37.4649 35.72 33.805 31.8833 30.5182 29.3001 27.6596 25.9468 24.6029 23.8351 22.83 21.0448 19.6517 18.3848 17.4235 16.7613 15.6659 14.4942 13.6384 12.8477 12.0608 10.9068 9.68885 8.89352 7.90942 7.09124 6.6479 5.97836 5.41251 2.65925 28.1523 71.826 98.3605 116.814 126.28 128.927 129 128.184 126.05 121.947 118.017 114.127 109.353 105.074 102.27 98.6008 94.4886 91.7954 88.6578 84.8943 81.0548 77.2867 74.3762 71.2801 68.2426 65.4172 62.2536 59.2346 57.6493 55.528 51.9463 49.7787 48.215 45.6837 42.9829 41.3115 39.4179 36.9382 34.5571 32.8845 31.6409 29.7684 27.4613 25.8904 24.624 23.0901 21.7607 20.2236 19.0975 17.6616 16.0208 14.8098 14.0152 13.1651 11.8426 11.3615 10.1208 8.64368 8.60401 7.99617 6.98433 6.21602 5.50493 6.01268 3.36999 39.4125 95.1336 123.234 142.189 152.619 156.703 155.773 153.181 149.774 144.241 139.073 134.929 129.647 124.665 120.956 116.083 111.578 107.818 104.235 99.7827 94.4392 89.931 86.4171 82.8137 79.5004 75.9631 71.7231 68.2481 65.57 62.3293 58.4668 55.5379 53.7806 50.6591 47.2521 45.4524 42.9985 40.2922 37.509 35.4171 33.8051 31.9306 29.3865 27.4502 25.532 23.3672 22.7348 21.3355 19.9683 17.995 15.5327 14.4728 13.5533 12.6213 11.9638 10.9593 9.51246 8.46371 8.1295 7.52195 6.24768 5.58542 5.5591 6.12522 3.31342 53.9156 124.782 155.108 174.378 181.883 184.63 184.056 180.643 175.635 169.528 164.096 158.231 151.021 144.846 140.278 134.996 129.314 124.372 119.766 114.981 109.309 104.097 100.116 96.0891 92.1866 87.7455 82.8433 79.854 76.1798 70.9457 66.5407 62.2246 59.4468 56.2522 52.5158 49.7621 46.6407 44.2305 42.0522 39.3015 36.7107 34.5112 31.4651 28.3073 25.9787 24.1248 22.944 21.3698 20.0462 18.0168 15.9264 14.6941 13.0864 12.0035 11.8537 10.2327 8.33968 8.06277 7.02205 6.16808 5.67876 4.89302 5.26324 5.84502 2.89876 72.8909 161.745 189.583 206.649 212.709 213.105 212.003 209.079 202.048 195.522 189.978 182.835 175.727 169.145 162.75 155.838 149.376 143.554 137.293 130.865 124.792 118.982 114.698 110.842 105.017 99.0425 94.363 90.7862 85.9236 80.509 76.0416 70.8058 66.5698 62.6209 58.6481 55.3749 51.9674 48.5368 45.8202 43.549 40.7244 37.3602 33.5353 30.0302 27.6031 25.915 23.8829 21.6413 20.4871 18.2628 16.2241 14.4958 13.0497 12.1977 11.1753 9.61546 7.82218 7.7975 6.70322 5.48624 5.43024 5.00776 5.18849 5.28118 2.45403 42.1239 91.4386 103.122 110.193 113.836 114.037 113.067 111.46 107.161 103.795 101.139 97.7378 94.7705 91.597 87.5238 83.0329 80.0628 77.085 73.358 69.7578 66.6149 63.3761 60.9018 58.8722 55.5918 52.3652 50.0112 47.8378 44.8426 42.2394 40.2781 37.7401 35.2513 32.9199 30.99 29.4382 27.6694 25.4905 23.5983 22.7337 21.4439 19.2232 17.0977 15.7333 14.5774 13.4959 12.3071 11.1758 10.6697 9.35428 8.13844 7.07213 6.47189 6.228 5.72492 4.96155 4.09046 3.9537 3.45453 2.67078 2.27829 2.37694 2.60418 2.37605 0.99666 49.4112 101.864 108.253 113.617 116.08 115.776 114.487 111.868 108.991 106.191 102.256 98.2053 95.6173 93.3566 88.9784 85.0153 81.3957 77.8409 74.9454 71.2715 67.9471 64.8389 61.9956 59.2919 56.027 53.0187 50.6218 48.2358 45.8903 44.4249 42.2655 38.626 35.7596 33.9819 31.5776 29.9 27.9801 25.3607 23.5044 21.486 19.802 18.5414 16.8047 15.4923 13.8313 12.2884 12.0896 11.2505 10.115 9.15466 8.24412 7.44088 6.28598 5.48366 5.14267 4.24809 3.04383 2.48742 2.69383 2.72071 2.25256 2.58377 2.70103 2.09724 0.96797 83.4742 178.255 198.817 211.725 216.802 217.128 214.58 209.198 204.051 199.109 192.124 185.077 179.23 174.036 166.612 159.785 153.506 147.218 140.978 134.042 128.252 121.944 116.106 111.079 106.088 100.762 95.8731 91.6509 86.3178 81.8848 78.2819 73.1871 67.513 63.8779 59.7624 55.7268 52.5902 47.9826 43.907 40.7959 37.8672 35.6549 32.2082 29.4179 27.2849 24.7457 23.5984 21.5178 19.1596 17.2775 15.6203 14.4496 12.9842 11.1956 9.69014 8.68328 7.42486 6.13392 5.82409 5.79814 5.195 5.00172 4.96381 4.29395 1.94555 59.4099 134.938 162.973 180.175 186.731 188.639 186.814 181.643 177.684 173.428 167.639 161.272 155.478 150.621 144.895 139.626 134.035 128.121 122.527 117.63 113.123 107.854 102.945 97.8904 93.8537 89.9709 85.3383 81.4478 76.8023 71.8895 68.6439 64.8397 59.9292 56.9355 53.4769 49.2156 46.894 43.4408 39.2151 37.286 35.3643 33.2629 30.437 27.6793 26.1871 24.4356 22.7152 20.4518 18.6497 16.6068 14.7512 14.3565 13.5072 11.5839 9.93207 9.4366 9.27457 8.6194 6.97404 5.83312 5.61429 4.90071 4.88548 5.14345 2.47568 43.7364 102.745 129.663 148.317 156.792 159.699 158.668 154.842 151.51 147.109 142.598 137.926 132.963 128.47 124.233 119.712 115.071 110.726 105.752 102.188 98.3763 93.5641 90.0531 85.6755 81.7016 77.8661 73.746 70.5032 67.0967 63.5181 59.872 55.9338 52.8527 50.5492 47.2163 43.919 42.4328 40.243 36.5462 34.3107 32.7751 31.0176 28.7385 26.4363 25.2754 23.8264 22.0231 20.2608 18.8707 16.7498 14.9516 14.1176 13.2345 12.2343 11.8056 11.1499 10.6736 10.2118 7.95468 6.58074 5.91633 5.26933 5.5534 5.67961 2.69953 31.8817 77.6717 101.871 118.322 127.711 132.032 132.532 130.043 126.541 123.358 119.818 116.092 111.78 107.948 104.668 100.679 96.7593 93.6741 90.1075 86.834 83.9212 79.1417 75.6955 72.7956 69.39 66.3869 62.9603 60.0854 57.276 54.5252 51.7221 49.1752 46.8752 44.4857 42.0652 39.9192 38.5587 36.6805 34.0817 31.8811 30.3233 28.9098 27.0274 25.5438 24.8559 23.4282 21.5947 20.1702 18.8182 17.1248 15.9261 14.6753 14.1078 13.4368 12.5726 12.1811 11.5296 9.8508 8.03996 7.75222 6.9708 5.96179 5.63907 5.45312 2.59664 23.414 57.8155 77.5746 91.6242 100.634 105.569 106.921 105.394 102.718 100.909 98.5382 94.793 91.3114 89.0772 86.1785 83.0525 79.6083 76.4558 74.3146 72.0982 70.2527 66.987 64.1889 62.1598 59.6314 57.4659 54.6421 52.5396 50.6504 48.2584 46.3639 44.6798 42.5941 40.8556 39.552 37.63 35.4516 33.5926 32.0199 30.6714 29.3723 27.834 26.5972 25.5154 24.2601 23.0909 21.8415 20.3166 19.071 17.41 16.3148 15.685 14.8008 13.7637 12.3799 11.6811 10.674 9.01681 8.25038 8.0745 7.60184 6.91217 5.98632 5.52597 2.74366 16.448 41.5045 57.612 70.7885 78.938 82.4713 83.3572 82.6338 81.3396 80.058 78.8678 76.5949 74.2215 72.592 70.289 68.1355 66.3978 64.3153 62.6007 61.2505 59.5498 57.2713 55.3922 53.9121 52.3816 50.3046 48.0705 46.8924 45.4639 43.7672 42.4513 40.7405 39.1669 37.9953 37.141 35.6432 33.6431 31.9232 30.5079 29.8011 28.5526 27.2011 26.5795 25.57 23.8727 22.4523 21.3866 19.8665 18.7495 17.8334 17.13 16.3478 15.1471 14.1179 12.7589 11.5162 10.3818 9.16768 8.59514 8.40919 8.20063 7.49516 6.12815 5.3475 2.59748 9.73536 28.0392 43.7788 56.3287 63.8894 67.1011 68.4911 68.1989 67.5643 67.1997 66.0592 64.2901 62.825 61.9121 60.2176 58.3136 57.3716 56.0562 54.7391 53.8376 52.3055 50.5311 48.9587 47.8747 46.7081 45.327 43.9489 42.4376 41.4547 40.7843 39.7845 38.2669 37.0235 35.8233 34.628 33.6571 32.2143 30.5907 29.5001 28.8497 27.5843 26.7899 26.2679 25.1534 23.8782 22.493 21.231 19.7255 18.5858 18.3216 17.6078 16.4368 15.3688 14.3482 13.4004 12.5764 11.21 9.62428 8.80464 8.57959 8.15948 6.85883 5.94537 5.21851 2.3041 4.81516 19.6923 37.6831 50.2022 57.4179 61.1837 62.9458 63.1501 62.7815 62.044 60.849 59.7634 58.5662 57.9383 56.4762 54.6145 53.8156 52.731 51.2475 50.2622 49.1449 47.679 46.6075 45.9818 44.8506 43.4632 42.7422 41.4071 40.3255 39.5225 38.2075 37.0624 36.1758 35.3667 33.9487 32.3247 31.2747 30.3586 29.5503 28.6322 27.2988 26.5484 25.5928 24.417 23.6901 22.6649 21.7225 20.0812 18.497 17.6918 16.554 15.9898 14.8804 13.8998 13.5248 12.8674 11.4037 10.0718 9.63219 8.73724 7.89841 7.17221 6.4435 5.44869 2.40664 6.4869 23.4196 41.8264 55.684 63.9006 67.4307 69.4312 69.6381 68.8395 67.3528 65.2209 63.7794 62.315 60.9393 59.2931 57.4833 56.3909 55.4904 54.2907 52.8955 51.5334 50.147 49.1688 48.2432 46.6837 45.2041 44.0849 42.6792 41.9517 41.0466 39.0487 38.0959 37.1945 35.9474 34.817 33.0557 31.8377 30.5414 29.5645 28.8876 27.4227 26.2976 25.1388 24.2204 23.4332 22.2153 21.0966 19.8494 18.7006 17.5591 16.5737 16.2627 15.1712 13.8959 13.2131 12.2118 10.6947 9.74417 9.68138 9.20517 8.65069 7.74603 6.41078 5.62697 2.72846 13.8362 37.9721 56.0124 70.3934 79.4046 82.9557 84.5407 84.5693 82.8708 80.3714 77.9661 76.3961 75.0485 72.8775 70.8222 68.5534 65.6891 63.4368 62.299 60.2047 58.2869 57.2321 55.4563 53.4343 51.4645 49.9525 48.3495 46.5677 45.8357 44.2688 41.9667 41.0253 39.4206 37.6102 36.2772 34.735 33.6165 31.7389 30.0348 29.4635 28.0714 26.4135 25.2749 24.3675 23.8339 23.0817 21.3974 19.9644 18.5857 17.5765 16.915 16.1085 15.2588 13.8538 13.0388 12.1533 10.3958 9.39204 9.37193 9.2105 8.20694 7.1317 6.40746 5.67596 2.73151 21.9655 55.3817 76.2436 92.1607 100.362 103.457 104.517 104.191 102.021 98.7931 97.1364 94.9192 91.5566 88.5118 86.2521 83.1718 78.9548 75.8395 74.2802 72.1758 69.8396 67.5027 64.3247 61.3303 59.4245 57.6353 55.8254 54.0261 51.9537 49.2986 46.9573 45.4152 43.5477 41.458 39.6111 37.9168 36.5117 34.992 32.9462 31.453 29.6319 27.79 26.1499 24.8253 24.1111 23.3055 21.5602 19.8892 18.3197 17.4576 16.9396 15.7129 14.9838 13.8068 12.7701 12.2228 10.5876 9.23497 9.14279 8.40058 7.17489 6.95537 6.27141 5.18932 2.54664 30.4441 74.4703 98.758 115.906 124.324 127.398 127.714 126.901 124.694 121.073 118.364 114.326 108.926 104.525 101.607 98.1171 94.5871 92.2757 89.0077 86.0169 82.7042 78.5802 75.4049 72.486 69.7107 66.3324 63.6244 61.2973 59.0885 56.4002 53.1357 50.9844 49.2988 46.7099 43.8783 42.0048 39.7459 37.6072 35.7167 33.8812 32.2094 30.4814 28.1209 25.9202 24.5311 23.2636 21.5206 20.5178 19.9754 18.0949 16.2665 15.1763 14.6033 13.2691 11.6565 11.5026 10.6227 9.25016 9.23977 8.35609 7.18523 6.76039 5.73104 5.11857 2.60811 41.1786 97.8914 124.826 141.932 151.211 154.96 153.628 151.323 148.206 143.473 138.758 134.671 129.384 123.794 119.795 115.736 111.97 108.234 104.21 100.838 96.1067 90.4986 87.1761 83.7142 79.4889 76.148 72.6747 69.2372 66.4247 62.9723 59.921 56.835 54.0986 51.6502 48.0586 45.8706 43.8935 41.1531 38.1129 35.8391 34.8855 32.9404 30.0258 27.8248 26.1623 24.2293 22.8018 21.8636 20.6006 18.3532 16.2978 15.0812 13.6268 12.3391 11.3348 10.4846 9.79208 8.94354 8.73382 8.15304 6.83738 6.21218 5.71781 5.6217 2.88021 55.2252 127.641 156.929 174.581 181.149 183.346 183.05 179.335 174.16 168.463 162.613 157.115 150.736 144.811 140.221 135.032 129.547 123.755 119.319 115.624 110.401 104.743 100.591 96.0887 91.397 87.4358 82.8567 79.8101 75.6378 71.005 67.7471 63.0339 59.8399 56.7868 52.8591 50.6229 48.5119 45.7598 42.2497 39.0605 37.0283 34.8541 31.9085 29.2122 27.0929 24.842 23.6151 22.2365 20.0388 18.0756 16.7299 15.2024 13.0239 11.4233 11.1561 10.2305 8.76543 8.09618 7.15784 6.35113 5.90456 5.55964 5.55618 5.79577 2.90967 74.0787 164.756 191.343 207.023 212.369 212.473 211.855 207.659 201.388 195.641 189.198 181.88 175.016 168.332 161.296 154.674 148.851 142.285 135.979 130.254 124.177 119.229 114.987 110.53 105.546 99.0168 93.5107 90.3656 85.622 80.5441 75.9391 70.736 67.2266 63.4614 59.2785 56.5258 53.2653 50.0163 46.9367 43.4591 40.2665 37.812 34.4287 31.1144 28.6335 25.9233 24.0499 22.3277 20.6499 18.6829 16.7234 14.5019 13.2281 11.5053 10.1236 9.73072 8.34358 7.68481 6.82486 5.32656 5.03581 5.07478 4.97669 5.11786 2.51616 42.5983 92.5495 103.98 110.809 114.205 114.017 112.649 110.301 107.236 104.6 101.259 97.5701 94.2267 90.4037 85.9204 82.1561 79.4973 76.1554 72.4907 69.2346 65.7645 63.0626 60.8757 58.7255 56.197 52.5602 49.7421 47.6956 45.1518 42.5037 40.0289 37.6622 35.5849 33.7509 31.7001 29.9364 27.9721 26.2421 24.6729 22.775 21.1555 19.9238 17.8092 16.3055 15.1436 13.3725 12.1609 11.2116 10.5286 9.65341 8.51222 6.95 6.58354 6.02067 4.93519 4.60472 3.98284 3.65881 3.51192 2.74809 2.33802 2.46504 2.33367 2.1936 1.07062 50.5737 104.654 110.34 114.78 117.078 115.832 113.824 111.341 108.061 105.103 101.065 97.1051 94.7023 91.358 88.0423 84.967 81.2961 77.8316 74.7162 72.0736 68.4174 65.1645 61.9051 59.164 57.0665 53.5986 50.8512 48.6002 46.0726 44.1561 42.0925 39.1265 36.3192 34.1459 31.8722 30.2725 28.5429 25.9295 23.8701 21.9707 20.0753 18.5967 17.3006 15.7676 14.0899 12.6952 12.0094 11.2261 10.0507 8.99512 7.94315 7.44377 6.49419 5.44054 5.1836 4.41363 3.40005 2.95371 3.20917 3.00858 2.42657 2.90104 3.08118 2.28488 0.928394 86.3704 184.157 203.031 214.555 218.526 216.559 213.422 208.244 201.481 196.657 190.419 183.281 177.607 171.281 165.274 159.377 152.742 146.786 141.19 134.816 127.933 122.138 116.542 111.543 107.008 101.465 96.7004 92.5423 87.3144 81.8964 78.1516 74.0815 68.5826 64.1754 60.5581 56.6609 52.4873 48.3387 44.9549 41.4557 38.1298 35.9091 33.4215 30.3938 28.0711 25.9465 23.6388 21.3042 19.405 17.4982 15.5285 14.7717 13.3197 11.2226 10.2668 9.47416 8.1056 6.57273 6.31252 6.35292 5.74184 5.8523 5.8867 4.85288 2.03994 63.578 141.875 166.96 181.986 186.493 185.998 184.156 179.817 174.225 169.667 165.581 160.169 154.075 148.665 144.019 139.14 133.207 127.796 123.033 117.899 112.481 107.44 103.623 98.5994 93.7907 90.9426 86.4637 81.3687 77.0923 72.8867 69.4492 65.1572 60.3153 57.1892 54.7983 50.4424 46.1806 43.7993 40.6429 37.579 35.4589 33.6439 31.3448 28.4584 26.7729 25.4572 22.6667 20.5307 19.28 17.0848 15.6058 15.1273 13.711 11.7423 10.4346 10.0929 9.85871 8.26923 6.87926 6.2988 5.98369 5.58304 5.34798 5.12907 2.32585 48.8478 110.855 133.048 148.044 154.819 156.208 154.721 151.342 147.865 143.152 140.115 136.984 131.839 126.746 122.862 119.225 114.986 111.364 106.237 102.77 99.305 94.3784 90.5828 85.9983 82.5353 79.8575 75.0193 70.7393 67.4832 64.255 61.5366 56.9493 53.2494 51.1979 48.5377 45.4889 42.6932 40.6582 37.6674 34.7438 32.9892 31.3308 29.7038 27.4305 25.6068 24.3442 22.4188 21.0547 19.7406 17.3363 16.0453 15.2878 13.276 11.9022 11.5424 11.2535 10.8459 9.49149 8.31504 7.03463 6.01063 5.45178 4.95785 5.38491 2.85628 37.0293 84.7457 103.744 117.63 126.07 129.02 128.306 126.397 123.668 120.984 118.637 115.209 111.278 107.735 103.931 100.037 97.3355 95.3069 91.2669 88.0494 85.7399 81.2772 76.6657 73.3914 70.9533 67.9697 64.3502 61.7264 58.5974 54.9027 53.0651 50.6054 47.7555 45.4638 42.8349 41.2078 39.1585 36.9702 34.8487 32.5235 30.9673 29.4705 28.2207 26.5428 25.3213 24.0643 22.0067 20.3947 19.3939 17.9809 16.4722 15.2784 13.7707 12.9869 12.3182 12.0647 11.6741 9.66441 8.53292 8.21643 7.30739 5.93059 5.1897 5.5958 2.93204 27.7401 62.5976 77.8113 90.4306 98.4661 102.14 102.339 101.843 100.245 99.168 97.6034 93.9679 91.037 89.6453 86.8353 83.1998 80.8507 78.5128 76.0482 73.8852 72.1555 68.9501 65.8132 63.681 61.2843 58.7857 55.8803 53.6639 51.3728 49.5107 48.4908 46.1772 43.4013 41.4294 39.902 38.4688 36.3159 34.5852 33.2088 31.7458 30.5144 28.8252 27.09 25.6265 24.9568 24.0744 22.0546 20.3107 19.5191 18.6028 17.3009 15.9785 14.7495 14.1507 12.8902 11.9979 11.6874 9.84549 8.50871 8.46463 7.6669 6.23873 5.44257 5.69068 3.01212 19.6752 43.9886 55.3907 67.2313 74.594 78.3237 79.5267 79.1364 78.5795 78.4908 77.9639 75.8739 74.2722 73.1951 71.0462 68.8739 67.8092 66.5747 65.0168 63.2714 61.3465 59.1541 57.4985 55.9254 54.1335 52.1678 49.7037 48.2357 46.8416 45.5769 44.7335 42.4809 40.3486 39.0074 37.6523 36.8258 35.0482 32.9435 31.9401 31.2269 29.9602 28.2644 27.2446 26.2272 24.9033 23.9219 22.7071 20.5659 19.2486 18.8388 18.1232 16.8971 15.4327 14.5806 13.3953 12.2649 11.5193 10.3043 9.25997 8.75126 8.24035 6.85871 5.75179 6.05705 3.12915 11.8991 27.8543 38.5196 50.3954 58.1625 62.5157 64.9811 65.4259 65.1025 65.483 65.4374 64.3228 63.7333 62.9588 61.1995 59.7728 59.1712 58.2857 57.2239 55.8464 54.3077 53.2125 51.6037 50.015 49.1136 47.9396 45.9876 44.2787 43.5211 42.6457 41.2632 39.7079 38.7406 37.7115 35.921 35.1565 34.0708 32.1879 31.056 30.3619 29.2403 27.7973 27.4989 26.7516 25.006 24.0657 22.8593 20.7912 19.1669 18.6962 18.487 17.0867 15.3555 14.2046 12.7633 12.0844 11.3171 10.085 9.70546 9.09586 8.34223 6.91 6.32672 6.28215 2.84469 6.36895 18.2193 30.8824 43.0193 51.21 56.3934 59.373 60.6483 60.9881 60.7018 60.5538 60.3412 59.5894 59.1881 58.0384 56.6538 55.7382 54.7139 53.6017 52.2455 51.2116 50.6203 49.2676 48.0629 47.2671 45.8965 44.4695 43.2486 42.4203 41.3315 39.9808 38.9751 38.2669 37.1288 35.5527 34.3209 33.2908 32.1095 31.0882 30.0751 28.9546 28.0476 26.9032 25.955 24.7742 23.57 22.691 21.2936 19.6618 18.7009 18.2833 17.1353 15.5491 14.5039 13.2953 12.3565 11.0997 10.0357 9.93395 9.06337 7.90033 6.88683 6.13761 5.53477 2.63364 8.57578 23.1708 36.3402 49.5327 58.3186 62.9813 65.606 66.7129 66.841 65.7227 64.8768 64.4005 63.6185 62.5277 60.8663 59.4281 58.3103 57.4093 56.5149 55.1339 53.6636 52.234 51.0186 49.9902 48.5471 47.0683 45.7562 44.5125 43.6183 42.4214 40.6611 39.7411 39.1937 37.4392 36.0552 35.0513 33.5622 32.1686 31.0592 30.2167 29.1222 28.0496 26.5171 25.1922 24.249 22.9855 22.3548 21.19 19.8045 18.7118 17.8718 17.3506 15.945 14.9414 14.3225 12.9285 11.0891 10.4758 10.277 9.33305 8.3063 7.3208 5.8484 4.80548 2.43679 16.149 38.9434 53.3845 67.6234 76.3633 79.558 80.9522 81.1743 80.0645 78.6731 77.3936 76.4125 75.6654 74.1062 71.7827 69.4283 67.3581 65.2486 63.5779 61.8069 60.2502 58.5413 56.5546 55.128 53.0971 51.3805 49.8522 48.0503 46.7573 45.2482 43.534 42.4631 41.0604 39.0796 37.6021 36.1076 34.4752 33.0601 31.6839 30.6571 29.6748 27.9103 26.576 25.5783 24.3343 23.721 22.8816 21.0206 19.4312 18.3414 17.5682 16.6636 15.3474 14.3979 13.8035 12.6096 10.8598 10.5303 10.7619 9.49481 7.52674 6.993 6.39924 5.32039 2.54874 24.5955 58.0164 76.3473 91.5563 99.3802 101.734 101.455 100.774 99.4338 97.235 95.828 93.9789 91.2381 88.826 86.5149 83.6592 80.3781 77.5707 75.2932 72.4851 70.4874 68.0777 64.5884 62.3755 60.3044 58.1847 56.4294 54.8253 52.7001 50.2397 48.3228 46.4948 44.4296 42.2708 40.5517 38.783 36.7159 35.3515 34.1639 32.6745 31.0435 29.1029 27.4009 26.2877 25.0977 24.128 22.4577 20.6745 19.336 18.234 17.6194 16.302 15.2659 14.0149 12.8817 12.3073 11.165 10.7294 10.5505 8.70743 6.95869 7.30983 6.81286 5.20236 2.36577 34.2854 79.525 100.62 116.005 123.616 126.1 125.061 123.792 121.851 118.586 116.373 113.207 109.297 105.193 101.821 98.7987 95.3719 93.5039 90.2851 86.5293 83.416 79.6951 76.2401 73.2266 70.406 66.9573 63.7391 61.7641 59.4158 56.3374 53.633 51.7301 49.9015 47.3859 44.7284 43.0087 40.6282 38.0297 36.724 35.1142 32.6715 30.5602 28.7696 26.9711 25.8942 24.5931 22.7469 22.087 20.9436 18.8695 17.4801 16.1968 15.1258 13.3675 12.0259 12.0498 11.3126 10.7873 10.3482 8.38987 7.15585 6.95765 6.14472 5.11792 2.40446 45.0567 103.241 126.78 142.548 150.652 152.144 150.581 149.081 145.307 141.363 137.746 133.722 129.234 124.057 119.513 115.388 112.214 108.842 104.52 100.912 96.6074 91.9692 88.5923 85.0076 80.4691 76.2457 72.8323 69.838 66.2073 62.7969 60.4761 57.7757 55.0745 52.6709 49.1368 46.5127 44.6663 41.4164 38.5478 36.8439 35.0296 32.0145 29.8456 28.3966 27.2464 25.5755 23.798 22.8572 20.768 19.23 17.7035 15.7843 14.2864 12.655 11.3832 10.6131 10.0128 9.88264 9.49451 8.14507 6.97862 6.14057 6.20744 5.93673 2.63679 58.7285 132.798 159.249 175.978 182.262 181.68 179.614 176.468 171.831 167.146 161.212 155.488 150.19 145.399 140.543 134.854 129.599 123.69 119.404 115.093 110.038 105.614 101.005 97.1456 92.8768 88.0878 83.4004 79.4581 74.8886 71.4188 68.4374 63.8085 60.5667 57.1827 53.3573 50.7652 48.705 46.0854 42.4657 40.1482 37.9443 33.9839 31.4196 29.8334 28.5051 26.245 23.7636 22.3446 20.0325 18.7902 17.7287 15.59 13.6017 12.0632 11.0353 9.8759 9.11501 8.5148 7.64924 6.80384 6.15433 5.92078 6.11349 5.57184 2.4083 77.3492 170.198 195.809 210.448 214.094 212.54 210.268 204.437 198.824 194.095 186.864 180.27 174.872 168.907 162.336 155.04 148.442 141.844 135.966 130.32 124.359 120.075 115.105 110.299 106.128 100.003 93.9603 89.777 85.5612 81.5697 76.2184 71.1279 67.551 63.4461 59.6268 56.3491 52.8055 50.7353 48.1339 44.0574 40.5439 37.5022 34.4304 31.8402 29.6985 26.4036 24.0607 22.7478 20.8212 18.6759 16.7367 14.6708 13.386 11.738 10.1511 9.51425 8.51833 7.90179 7.2642 5.81996 5.3848 5.26817 4.69241 4.56958 2.2289 44.0466 95.3406 107.115 113.257 114.732 113.916 112.56 109.086 105.832 103.524 100.109 97.1212 94.1102 90.1107 86.178 82.3365 79.3786 75.9482 72.092 69.1996 65.9174 63.5283 61.0859 58.2662 55.7984 52.5489 49.7357 47.7249 45.6926 43.4774 40.1951 37.7086 35.6888 33.758 31.891 29.5203 27.2876 26.5145 25.5283 22.8049 20.9059 20.054 18.1291 16.5855 15.3371 13.2557 12.1696 11.4671 10.5191 9.38369 8.0884 6.89994 6.55145 5.74656 4.70956 4.44517 3.90203 3.92453 3.85344 2.92659 2.69478 2.46053 2.00924 2.11305 1.11069 54.2515 110.052 113.047 115.221 115.559 113.882 111.564 108.748 106.042 103.056 98.6839 95.5425 93.2549 90.1877 87.7341 84.9281 81.1874 77.8647 75.2664 72.8527 68.5832 64.7642 61.9189 59.4156 57.3627 53.9753 51.4416 48.9669 45.9441 43.9452 41.9876 39.6811 36.5613 33.2123 31.0202 30.16 28.5931 25.8587 24.222 22.8679 20.1564 17.9997 17.4032 16.4288 14.5869 12.8583 11.5615 10.8194 9.72608 8.3806 7.80438 7.39936 6.83925 5.89973 4.7968 4.35876 4.04089 3.38929 2.95857 2.74716 2.64819 2.77639 2.72486 2.15405 0.921548 93.6656 194.831 207.808 215.085 215.32 211.849 207.94 202.474 197.413 192.763 185.691 179.76 175.486 169.447 163.919 158.623 151.591 145.845 141.683 135.832 128.08 121.512 116.491 112.345 107.655 102.552 98.1621 92.8789 87.4052 82.4376 78.4646 75.2732 69.7894 63.5613 59.9255 57.1576 52.9955 48.8501 46.0007 42.573 38.0821 35.4807 33.952 31.3736 28.4209 25.7972 23.006 21.0176 19.2135 17.1147 16.0194 15.1023 13.5018 11.3379 10.1422 9.70002 8.59613 7.2276 6.53968 6.53114 6.42547 5.95522 5.29224 4.51917 2.13348 70.9001 152.757 171.277 181.526 182.819 179.732 177.057 174.151 170.411 166.019 161.055 156.843 152.938 147.762 143.153 138.482 131.855 127.532 123.647 117.545 111.805 106.828 103.194 99.4922 95.0448 91.5269 87.4319 82.161 77.4576 73.2583 70.1883 66.6736 61.9729 57.7858 54.9992 51.0587 46.7801 44.7182 41.9551 38.1113 35.4778 34.4219 32.3998 29.6455 27.5087 25.4944 22.6122 21.2243 20.0771 17.9577 16.8568 15.8224 13.522 11.5646 11.4085 11.2244 10.0511 8.2364 7.23778 6.89685 6.5772 5.95745 5.17431 4.756 2.32059 56.5074 122.028 136.993 146.446 150.476 149.855 148.274 146.823 144.207 140.543 136.702 134.263 130.956 126.083 122.714 119.462 114.886 111.43 107.533 103.299 99.0135 94.7938 91.572 87.1188 83.5567 80.6312 76.0591 71.5522 68.1801 65.1777 62.8098 58.4037 54.0948 51.8869 49.0385 46.0491 43.3085 41.5541 39.3064 35.8701 33.7535 32.2559 30.6971 28.9759 27.1612 25.2948 23.0702 22.0988 20.9677 18.6874 17.101 16.2094 13.7967 12.3812 12.1605 11.3939 10.2364 8.78407 8.33463 7.16311 6.29479 5.88073 4.88891 4.9722 2.71679 44.7437 95.0351 105.946 115.806 122.518 124.261 123.478 122.148 120.05 118.405 115.882 113.669 111.186 107.446 104.146 100.9 97.8925 94.5905 91.7657 89.1864 86.1493 82.7385 78.7689 74.6268 71.7375 69.9332 66.359 62.406 60.1415 57.4098 54.8333 51.9672 48.484 46.2995 44.4082 42.727 40.2896 37.9936 36.4858 34.3664 32.4193 30.5885 29.4602 28.0769 26.7975 25.2402 23.0361 21.2897 19.8855 18.7594 17.2547 16.2567 14.8282 13.8407 12.5768 11.1444 10.1986 9.55352 9.43162 8.37106 7.38281 6.22609 5.42344 5.28579 2.58816 34.53 70.8178 78.3285 88.0554 95.2429 98.1841 97.8144 97.6986 97.3258 96.3755 94.9818 93.1699 91.1124 89.6527 87.6416 84.3639 81.7425 79.5183 77.5719 75.2318 73.2123 70.7981 67.3293 64.5853 62.0979 60.1959 58.3018 55.3894 53.028 51.4535 49.9172 47.9254 44.7706 42.4704 41.7181 40.2679 37.9634 36.2828 34.7251 33.3485 32.1569 30.3149 28.6678 27.2796 26.4557 25.3054 23.0982 21.3703 19.7924 19.1358 18.0916 16.7642 15.8302 14.905 13.6792 12.2578 11.5386 10.6427 9.73757 8.93259 7.72466 6.16841 5.64909 5.25852 2.34279 25.1022 49.6427 54.104 62.6789 69.2287 73.6299 75.3559 75.9211 76.4305 76.7964 76.6507 75.4606 74.35 73.5969 72.0364 70.3292 69.6079 68.9766 67.6268 65.4795 63.5823 61.6734 59.6803 57.8477 55.541 53.7209 52.2901 50.5285 49.209 47.7985 46.1863 44.4134 42.237 40.5951 39.2889 38.2139 36.6661 35.0975 33.7983 32.5504 31.5379 29.7826 28.2352 27.0219 25.7137 25.0211 23.9412 21.9721 20.1044 19.4248 19.0007 17.9044 16.0673 14.8394 14.2339 13.0911 11.9765 11.003 10.0424 9.1607 8.21356 6.5603 5.79026 5.98916 2.89286 16.4544 30.9007 33.8849 43.8326 51.8705 57.3973 61.0691 62.857 63.6899 64.5262 65.0279 64.8863 64.788 64.2282 63.0969 62.3257 61.7956 60.9919 59.7561 58.2403 57.0171 55.8215 54.2473 52.7912 51.6176 50.4914 48.723 46.8744 46.3028 44.917 43.1545 41.7658 40.4726 39.4469 37.7564 36.9069 35.7842 34.0294 32.7622 31.7889 30.9869 29.2475 28.0187 27.1457 25.6538 24.6872 23.3174 21.8561 20.549 19.2193 19.1501 18.1642 16.0633 14.6241 13.3184 12.8495 11.9724 11.0169 10.4257 9.35375 8.64642 7.58709 6.88998 6.46227 2.97045 11.3542 20.0786 23.6097 35.4617 44.9555 51.3547 55.31 57.8642 59.8655 60.5278 60.6102 61.0128 60.8987 60.5381 60.2644 59.7176 58.4616 57.4994 56.5659 54.9925 53.8763 53.241 52.1714 50.935 49.9166 48.9968 47.4006 45.646 44.6481 43.3009 42.5431 41.3936 39.6547 38.7514 37.6816 36.8188 35.7752 34.1055 32.7433 31.7039 30.7162 29.2991 27.9692 27.2322 25.8442 24.2379 22.8364 21.9476 21.1133 19.7588 19.2335 17.836 16.1854 15.1398 13.5233 12.9348 12.1105 10.9599 10.2543 9.2624 8.32303 7.62104 6.67033 5.51575 2.59913 13.8216 26.4715 31.2725 43.1403 52.3868 57.9711 61.1504 63.7508 65.6512 65.3802 64.8269 64.8834 65.1472 64.4296 62.9252 61.9414 60.8716 59.925 58.9221 57.2198 55.7368 54.6922 53.9235 52.7896 51.1411 49.8962 48.3143 46.7311 45.7389 44.6381 43.4152 42.0675 40.789 39.1345 37.9436 37.3026 36.0046 34.5567 33.2428 31.7791 30.4032 29.1871 27.7356 26.5856 25.4703 24.0316 23.2081 22.1534 21.0566 20.1782 19.2013 17.8573 16.4365 15.7165 14.71 13.2886 11.8704 11.296 10.7129 9.45087 8.32397 7.60632 6.51061 5.63312 2.82051 21.234 44.4459 52.3008 63.3626 71.6713 75.2518 76.7646 78.1714 78.1681 77.2778 76.3795 76.5465 76.6888 74.8848 72.7907 70.9523 69.296 67.5063 65.3766 63.6722 62.0465 60.3055 59.021 57.7083 55.5533 53.6173 52.1824 50.5997 48.9134 47.4192 45.9052 44.2102 42.6602 40.902 39.2699 37.9795 36.6472 35.5715 33.8932 31.8789 30.7385 29.1075 27.6515 26.8292 25.6719 24.5136 23.4273 21.999 20.9647 19.6729 18.2496 17.5147 16.3045 15.3995 14.4519 12.9412 11.4591 11.4894 11.6857 9.92947 8.26198 7.54499 6.75779 6.4067 3.22478 30.3537 65.0029 76.7332 88.6125 96.1337 97.9456 96.9305 96.8526 96.4987 95.9635 94.6224 93.0418 91.3264 88.9838 86.9879 84.4366 81.4161 78.9416 76.5639 74.1557 72.1271 69.531 66.783 64.9859 62.4466 59.9435 58.2961 56.9482 54.7138 52.1408 50.2029 47.9745 45.9196 44.1222 42.1781 40.3036 38.5494 37.3314 35.4898 33.685 32.878 30.6431 28.5989 27.9581 26.5941 25.0794 23.4701 21.7308 20.6861 19.3025 18.0712 17.4391 16.046 14.5585 13.3612 12.5855 11.5822 11.0768 10.699 8.94351 7.72922 7.48721 6.50737 5.76916 2.98023 40.9087 87.8648 102.212 114.928 121.1 121.751 119.804 119.142 118.431 116.616 114.407 111.332 109.006 106.773 103.538 99.8068 95.8029 93.1947 90.9508 87.5377 84.3568 81.0263 77.8056 75.1366 71.849 68.7222 65.6556 63.2394 60.7966 57.7782 55.1116 53.0156 51.0439 48.6933 46.139 44.2006 42.2036 39.8962 37.6232 35.7788 34.0876 31.7941 29.6651 28.3671 27.2094 25.5078 23.6876 22.616 21.2956 19.7315 18.4148 16.7866 15.4302 14.2627 12.9838 11.8804 10.7779 10.303 10.1233 8.17949 6.97402 7.10427 6.08772 5.30507 2.78894 52.3647 112.81 129.766 142.444 147.386 147.123 145.343 144.243 141.526 138.29 135.169 131.471 128.285 125.322 120.765 115.807 112.299 108.961 105.556 101.305 96.4638 92.9039 89.8158 85.9082 81.4277 77.6625 74.661 71.401 67.522 63.963 61.0901 58.6765 56.1601 53.4556 50.6134 48.1991 45.9331 42.6513 39.479 37.6402 35.3281 32.3874 30.6988 28.9961 27.6236 26.2126 24.2612 22.672 20.9639 20.0523 18.1693 16.1094 15.0555 13.883 12.75 10.7237 9.44375 9.48596 9.35099 8.02649 6.63866 6.09931 5.8914 5.60646 2.689 66.0466 142.785 163.196 176.28 179.994 177.933 174.475 171.512 167.587 163.561 157.95 152.719 148.733 145.168 140.08 134.265 129.438 124.674 120.906 116.136 110.957 106.653 101.841 97.9264 93.7728 88.5971 84.4864 80.2254 75.6414 72.3764 68.8476 64.5806 61.9534 58.4435 54.4869 51.8782 49.5325 46.478 42.6594 40.586 38.5272 34.5996 32.2941 30.0766 28.2796 26.8591 24.3902 22.1591 20.1308 19.7668 17.9138 15.5552 14.3436 12.53 11.4817 10.4865 9.46495 8.54194 7.79255 7.57508 6.58442 5.87534 5.61701 5.45692 2.8562 84.0914 180.442 200.989 211.442 212.861 209.352 204.302 199.177 194.49 189.753 182.949 177.409 172.837 167.388 161.236 154.619 148.94 142.819 136.666 131.828 127.294 121.28 114.651 111.059 106.913 100.364 94.5665 89.5398 85.0228 81.7481 77.3252 71.8994 68.2311 64.1266 59.8881 56.4343 53.653 50.97 47.3512 44.1745 41.5892 38.1505 34.6095 31.8881 29.4622 26.5236 24.3213 22.6414 20.5772 18.9035 17.099 15.0249 13.211 11.4914 10.4465 10.0746 9.26301 8.00915 7.09459 6.675 5.94481 5.06936 4.88281 5.56198 3.07909 47.2478 100.644 110.082 113.794 113.832 111.884 109.015 106.218 103.817 101.334 98.3515 95.7593 92.8823 89.178 85.5429 82.1974 80.0003 76.5932 72.1469 69.7106 67.5882 64.1015 60.4124 58.4942 56.0778 52.6472 49.8364 47.5422 45.1618 43.1892 40.7764 38.0506 35.6599 33.5215 31.7679 29.5843 27.7042 26.5065 24.9766 23.0157 21.5171 20.0741 17.9001 16.5246 15.2299 13.1993 12.2598 11.5132 10.5091 9.1411 8.17464 7.59512 6.42062 5.4211 5.11139 4.81208 4.42345 4.06263 3.36886 2.95425 2.76278 2.18778 2.26667 2.91344 1.54013 28.5623 56.8956 57.143 57.4253 56.9464 55.7763 54.6751 53.4697 52.4768 50.9694 48.8159 47.5146 46.0583 44.9781 44.0589 42.2857 40.1102 38.5027 37.6252 36.5656 34.164 32.1051 31.1259 29.8462 28.4086 26.7288 25.8152 24.7113 23.1325 21.9725 20.6011 19.7318 18.2906 16.5 15.4971 15.1483 14.2986 12.745 12.0937 11.6773 10.1581 8.84547 8.48582 8.19387 7.32501 6.26 5.89027 5.51546 4.69938 4.05205 3.94612 3.63257 3.63598 3.2524 2.21461 2.05318 2.13068 1.89472 1.34061 1.24177 1.41454 1.38534 1.26494 1.00746 0.478109 49.3689 100.835 104.738 106.737 106.118 103.725 101.46 99.0131 97.4939 95.3291 91.6244 89.2219 87.1523 84.5895 81.8036 78.9523 75.1561 72.2 70.5218 67.9012 64.0737 60.4594 58.1296 56.0595 53.3262 50.9213 49.0436 46.5401 44.0538 41.7206 39.1175 37.825 35.2762 31.5515 29.898 28.952 26.7784 24.4483 23.3116 21.6602 19.1079 17.688 16.7978 15.8057 14.2735 12.5125 11.626 10.8132 9.35175 8.25811 8.11354 7.32944 6.68198 5.81089 4.84927 4.96376 4.52345 3.76569 3.08524 2.96464 3.25874 2.90794 2.48924 2.35551 1.21353 37.5888 79.2896 86.2096 89.79 89.9162 87.9691 86.0222 84.6337 83.9232 82.0485 79.1469 77.5326 76.3803 73.9649 71.2074 68.9315 65.677 63.6344 61.5468 58.2806 55.7929 53.3201 51.0884 49.4396 47.5395 45.3332 43.5295 41.4677 39.0561 36.9031 35.3419 33.8404 31.5957 28.9408 27.3634 25.7483 23.6752 22.5382 21.373 19.2314 17.7204 17.4266 16.4843 15.4503 14.04 12.5835 11.5507 10.9588 9.94046 8.92128 8.55491 7.71958 6.44959 5.68912 5.90275 6.14216 5.35132 4.16459 3.59249 3.44699 3.34827 2.76334 2.49191 2.66778 1.37058 30.5517 64.0961 69.463 72.7159 73.6776 73.2835 72.4606 71.5333 70.7202 69.3592 67.1221 66.1165 64.9179 62.8674 61.3798 59.5545 57.1808 55.4758 53.8655 51.6019 49.3586 47.585 46.002 43.761 41.9851 40.0164 38.1061 35.9488 33.9809 32.6978 31.4216 29.3794 27.3656 26.2844 24.5429 23.0069 21.8835 21.0676 19.9974 18.1984 17.2627 16.5566 15.6069 15.1271 14.1168 12.8551 11.7583 11.1231 10.5034 9.52251 8.56612 8.0101 6.8936 6.40399 6.46997 5.80271 5.20194 4.53021 4.13694 3.74089 3.36533 2.97842 2.5238 2.68528 1.49718 24.6768 50.7981 54.1073 57.7788 60.0927 60.7341 60.7713 59.5736 58.6445 58.4173 56.7246 56.0337 54.9688 53.2007 52.3314 50.8242 48.8901 46.7904 45.8173 44.6033 43.0174 41.7135 39.8906 37.6997 36.0336 35.3549 33.6494 30.9934 30.0361 29.2072 27.7561 26.5212 24.7242 23.4721 22.6816 21.8391 20.5867 19.3954 18.752 17.7273 16.8186 16.0021 14.9808 14.3282 13.8966 12.9354 11.7699 10.9322 10.1096 9.37135 8.56176 8.19256 7.65024 7.1571 6.53852 5.35505 4.86736 5.05505 4.98312 4.28494 3.83102 3.46057 2.88572 2.51839 1.2251 19.3689 38.2252 39.6408 43.3924 46.4782 47.7452 47.8824 47.8834 48.0597 47.7765 46.5839 46.0501 45.3381 44.6225 44.1864 42.7049 41.0106 39.9087 39.0678 37.7147 36.6923 35.6819 33.9493 32.5496 31.2374 30.4837 29.9283 28.3823 27.0616 25.9613 25.2018 24.7748 23.1033 21.5778 21.2728 20.6337 19.4303 18.4685 17.8563 17.2588 16.5283 15.6558 14.8405 14.1746 13.6131 12.62 11.6198 11.1614 10.1501 9.60499 9.10046 8.54816 8.21345 7.50858 6.91686 6.18969 5.56182 5.36141 5.24544 4.77198 4.29415 3.57379 2.97588 2.33334 0.889361 14.3624 26.9269 26.8405 29.9327 33.0605 35.3732 36.569 37.5117 38.0873 38.1924 38.0778 37.7107 37.237 37.0938 36.5518 35.5459 35.1692 35.0251 34.3315 33.2904 32.4348 31.3955 30.3107 29.3897 28.0493 27.1695 26.8642 26.0416 25.3099 24.4447 23.3421 22.6759 21.6399 20.6863 19.8615 19.095 18.6991 18.179 17.437 16.9063 16.3059 15.1917 14.509 13.9564 13.0611 12.3809 11.7508 11.1706 10.4198 10.0191 9.76145 9.18643 8.22189 7.40112 7.15405 6.80667 5.97049 5.1936 4.95055 4.79324 4.64399 3.73939 3.00583 2.74026 1.17528 9.78879 16.937 16.1434 20.3099 24.3437 27.4041 29.6189 30.8759 31.7558 32.2775 32.4385 32.6831 32.6513 32.5628 32.2636 31.7857 31.5608 31.2143 30.4465 29.6713 29.2223 28.4252 27.5431 27.019 26.2659 25.7208 25.0686 24.0188 23.7512 23.1257 22.1934 21.4986 20.7587 20.2038 19.2503 18.6103 18.1735 17.5429 16.9216 16.3859 15.9768 15.1479 14.2546 13.4861 12.9248 12.5188 11.6215 11.1963 10.7691 9.86328 9.7695 9.36319 8.3491 7.54647 7.02876 6.86825 6.3071 5.65061 5.10782 4.75049 4.63648 4.05934 3.45519 2.86355 1.22603 7.44487 11.2316 10.2595 15.8834 20.8729 24.5281 26.747 28.1206 29.624 30.3451 30.2972 30.5892 30.7188 30.642 30.7632 30.6708 30.0251 29.545 29.0225 28.2062 27.6593 27.153 26.7361 26.2495 25.5369 25.2594 24.562 23.4587 22.9708 22.1685 21.9287 21.4222 20.444 20.0653 19.3561 18.8899 18.4324 17.6525 17.0187 16.3235 15.7491 15.0601 14.2043 13.5353 13.0056 12.3663 11.5033 11.2707 10.9758 10.0946 9.78804 8.99906 8.22822 7.78885 6.92612 6.75852 6.5994 5.99324 5.33432 4.89152 4.44985 3.9865 3.42225 2.57131 1.1141 8.56829 14.5909 14.5991 20.114 24.9113 27.7517 29.3993 31.1219 32.4198 32.6687 32.6171 32.6234 32.7359 32.5854 32.0993 31.7079 31.197 30.6147 30.0574 29.2492 28.5928 28.1603 27.8074 27.2222 26.3604 25.6812 24.8291 24.1178 23.7389 23.0767 22.4439 21.7146 20.9574 20.1415 19.5338 19.1889 18.5913 17.9449 17.3377 16.4335 15.4116 14.7753 14.1843 13.5606 12.9898 12.3363 11.6519 11.2012 10.8941 10.3939 9.94669 9.05683 8.34862 7.96406 7.16525 6.67224 6.36976 5.90646 5.67902 5.29813 4.50563 3.88744 3.55141 3.30919 1.57569 12.1958 24.2784 26.4381 30.9076 34.7839 36.5095 37.3343 38.5473 38.7339 38.3053 38.1821 38.5543 38.2795 37.3392 36.8252 36.1322 35.2263 34.2904 33.4323 32.4781 31.6223 30.862 30.2176 29.5563 28.4335 27.3663 26.9711 26.4322 25.361 24.4379 23.4846 22.502 21.79 20.9147 20.049 19.4765 18.9659 18.4555 17.4373 16.3824 15.5644 14.7948 14.2066 13.6511 13.2004 12.4966 11.5139 11.0815 10.807 9.96548 9.34878 9.1283 8.5488 8.02995 7.23258 6.40066 5.9677 5.75507 5.8458 5.48321 4.69205 3.74372 3.51208 3.97205 2.02664 17.0316 34.8267 38.5841 43.316 46.8219 47.7214 47.4122 47.8111 47.5519 47.6494 47.264 46.321 45.2922 44.2172 43.5819 42.5229 41.1053 39.7714 38.7207 37.7095 36.7688 35.4704 34.1729 33.1545 31.7235 30.6767 30.24 29.4051 27.9453 26.567 25.4524 24.1433 23.2738 22.639 21.4939 20.4433 19.8555 19.3399 17.912 17.0726 16.9145 15.7066 14.5885 14.1876 13.3902 12.61 11.8891 11.0691 10.5604 9.85863 9.17538 8.95562 8.3213 7.61025 6.86795 6.41421 5.91876 5.19142 4.791 4.61077 4.47296 3.85935 3.25948 3.32332 1.82186 22.5194 46.4027 51.136 56.4932 59.1115 59.0419 58.2079 58.2411 58.0314 57.663 56.9467 55.2058 54.1195 53.6369 51.8373 49.7702 48.1022 46.4431 45.424 44.0755 42.6057 40.9889 39.3571 38.2139 36.6359 35.1294 33.7034 32.2376 30.9281 29.5205 28.1811 26.8201 25.7777 24.8148 23.395 22.0252 21.1307 20.3711 18.9917 18.1522 17.5993 16.4329 15.3065 14.5432 13.5812 12.8118 11.9197 11.2508 10.886 10.1271 9.19614 8.3616 7.93769 7.48616 6.7401 5.8992 5.1924 4.67892 4.70866 4.12182 3.69306 3.84672 3.1317 2.78065 1.55326 28.4632 59.3283 65.4902 70.6519 72.0892 71.9911 71.0688 70.1986 69.3543 67.9244 66.6802 65.1072 63.8991 63.0218 60.635 58.0259 56.2336 54.4709 53.1845 51.0559 48.3438 46.4943 44.8595 42.8558 40.9254 39.4715 37.9003 36.0825 34.3778 32.676 31.0773 29.7622 28.3052 26.9093 25.6662 24.3442 23.1225 21.8091 20.263 19.0938 17.804 16.6463 15.9485 14.8012 13.7231 13.191 11.9857 11.0251 10.7469 10.109 8.92983 8.29656 7.8594 7.17286 6.77104 5.35566 4.67888 4.59173 4.57665 4.13976 3.42735 3.28351 2.65109 2.59222 1.43785 35.3027 74.6702 82.7814 87.4691 88.286 87.8766 86.0929 84.2179 82.5385 80.4803 77.8789 75.5164 73.9737 72.4161 69.691 66.9366 64.5277 62.2714 60.7238 58.7495 56.212 53.6329 51.1969 48.9212 46.6239 44.271 42.2675 40.2754 38.1121 36.5296 34.563 32.268 31.3076 29.6882 27.7598 26.5285 25.3258 23.6003 21.5307 20.2932 19.1637 17.5631 16.4542 15.1279 13.9245 13.5349 12.4071 10.905 10.1884 10.2907 8.97595 7.86192 7.27224 5.9377 5.88568 5.6862 5.05387 4.40561 3.92472 3.94551 3.55366 2.91861 2.22069 2.64172 1.71078 44.2352 93.5964 101.59 104.902 105.182 103.59 100.449 97.9365 96.2107 93.9106 90.5748 87.755 85.4175 82.7426 79.6364 76.7045 74.3115 71.2686 68.3094 66.5607 64.7209 60.9553 57.1557 55.8573 53.5975 49.8868 46.9682 44.8104 42.418 40.6527 38.8309 35.9523 34.4959 32.6303 30.1718 28.4492 27.4861 25.5104 23.1971 22.1476 20.9099 19.1947 17.4076 15.8311 14.4417 13.1876 12.2759 11.37 10.4119 9.88389 8.77572 7.45964 6.5049 5.52247 5.11652 5.12397 4.90594 4.22886 3.64264 3.43175 2.93382 2.24093 2.30165 3.19114 1.89882 24.7235 51.9428 55.3339 56.4597 56.5515 55.4032 53.3314 52.0584 51.5067 50.4741 48.835 47.2207 45.6683 43.9376 42.3198 40.8615 40.0279 38.4219 36.2501 35.215 34.2648 32.0608 29.6962 29.163 28.1602 26.2457 24.7218 23.688 22.421 21.2937 20.5402 19.2685 17.9666 16.8551 15.8666 14.8777 14.2067 13.1946 12.1627 11.5571 10.836 10.0545 8.99713 8.1878 7.43865 6.46161 6.12245 5.87439 5.36112 4.6526 4.24407 3.93752 3.22771 2.79715 2.59121 2.28884 2.33442 2.0856 1.58447 1.49941 1.26801 0.946546 1.27262 1.75395 0.906467 
CELL_DATA 16384
SCALARS stress float 1
LOOKUP_TABLE default
31.3332 29.5885 28.6123 27.7022 27.7425 27.2677 26.1602 25.6355 25.1645 24.3474 24.677 23.7813 22.6154 22.4526 21.2602 20.8542 19.9505 19.2223 18.5604 17.7358 16.5515 15.7477 15.2433 14.4299 14.2099 13.0887 12.6899 11.7977 11.0547 10.6385 10.3771 9.00556 9.04529 8.73749 7.5315 7.84372 6.42431 6.11813 6.1847 5.41088 4.70726 4.58444 4.11299 3.7612 3.78685 3.36096 3.00319 2.58985 2.48019 2.32347 1.91418 2.08554 1.3926 1.17926 1.20516 0.997925 0.945401 0.764307 0.74908 0.647719 0.403522 0.567749 0.47448 0.825872 22.7591 24.0425 24.2076 24.1061 23.4772 22.8833 22.491 21.9408 22.1796 21.2555 21.1463 20.5439 19.9866 19.4922 19.0141 18.1938 17.7426 16.7727 15.933 15.354 14.754 14.0183 13.3817 12.956 12.1666 11.8216 11.3855 10.4627 9.85146 9.71076 8.80812 9.1317 7.61595 7.69048 6.80463 6.29943 6.21777 5.97589 5.03073 4.76589 4.56952 4.20064 4.03025 3.5405 3.50009 2.98477 2.86229 2.65284 2.51242 2.00818 1.78489 1.56917 1.48321 1.85254 1.5334 1.20781 1.14735 1.13774 0.600742 0.755389 1.02701 0.877443 0.636853 0.404768 18.7374 18.6027 19.8451 19.8662 19.9995 19.6853 19.1086 19.0084 18.5219 18.4092 18.1295 18.1358 17.2557 16.9106 16.3737 15.6615 14.8982 14.6108 14.4844 13.5269 13.444 12.8438 12.1001 11.6994 11.1616 10.4306 10.2984 9.75281 8.71495 9.03305 7.9978 7.22466 6.92663 6.52438 6.26527 6.06927 5.55835 5.05053 5.00881 4.48096 4.17787 3.96363 4.16165 3.67648 3.15578 3.37043 2.6138 2.52729 2.59447 1.87643 2.25665 1.89991 2.09682 2.02834 1.47962 1.21424 0.866843 1.25798 0.823448 0.799877 0.906009 0.451803 0.910179 0.513308 15.3389 15.1446 16.0746 15.7816 16.6899 15.835 16.0208 15.9505 15.0899 15.3753 15.4148 15.3161 14.5112 14.153 14.1856 13.5689 13.1824 12.3411 12.0364 12.2 11.4351 11.0908 10.8926 10.2877 10.0024 9.02848 8.71522 8.1254 8.13511 7.32301 6.93362 6.89802 6.51085 6.07913 6.10247 5.44826 5.66274 5.18291 4.51284 4.37524 4.2807 4.14643 4.0368 3.7521 2.97585 3.20663 2.71433 2.5212 2.32715 2.53195 1.99528 1.93021 1.70344 1.78771 1.68676 1.38415 1.52899 1.22758 0.758523 0.885409 0.838833 0.575864 0.731023 0.811756 12.4732 11.1334 11.8768 12.5929 12.9375 13.2746 13.5704 13.3193 13.1209 13.104 12.5273 13.0663 12.7023 12.1711 11.7535 11.2451 11.1406 10.6962 10.789 10.0153 9.4936 9.3615 8.82687 8.61378 8.25362 8.19481 7.93715 7.27537 6.90135 6.85588 6.55173 6.15419 5.85002 5.44364 5.26905 5.39386 4.82437 4.86586 4.64658 3.99212 3.93124 4.00856 3.39504 3.38979 3.15632 3.57533 3.14178 2.76908 2.98621 2.3497 2.57926 2.11763 2.28871 1.91409 1.91912 1.29414 1.23204 1.31393 1.08543 0.980134 0.828503 0.859333 0.844915 0.80241 9.81136 7.86109 8.21287 9.15563 9.61725 9.68557 10.1996 10.3733 10.5459 10.3828 10.1009 10.251 10.3804 9.94685 9.79227 9.59402 9.70802 9.21503 9.05963 8.71364 8.39985 8.20256 8.28715 7.543 7.56324 7.02333 6.95715 7.05093 6.42052 6.3086 6.01466 5.87423 5.43826 5.41568 5.03459 4.71603 4.55668 4.4994 4.40683 3.95676 3.97266 3.77043 3.58472 3.60655 3.24063 3.06665 3.13343 2.68481 2.63095 2.5947 2.2897 2.01834 2.24462 2.07744 1.65568 1.35623 1.50392 1.57252 1.34924 1.00061 1.0025 0.81341 0.877329 0.757358 7.34867 5.02154 5.25483 6.1275 6.93722 7.55239 7.78694 8.13103 8.62222 8.62366 8.63996 8.89899 8.63593 8.91343 8.65359 8.41124 8.2778 8.20037 7.95908 7.9074 7.87413 7.4429 7.17522 6.9445 6.8853 6.50714 6.38592 6.11829 6.01618 6.04088 5.61011 5.50137 5.31199 5.09473 5.01095 4.72596 4.66289 4.46307 4.12876 4.02769 3.87912 3.75146 3.79592 3.54394 3.34862 3.06348 3.1205 2.87417 2.58725 2.35801 2.13857 2.19925 2.1552 1.96413 1.87739 1.56243 1.39186 1.54347 1.20339 0.987511 0.761375 0.9039 0.752454 0.575946 5.27312 2.13923 2.96136 4.17891 5.63087 6.17124 6.92556 7.08308 7.54504 7.69152 7.94436 7.8433 7.99678 7.85716 7.81809 7.69533 7.54199 7.55316 7.21786 7.3411 7.00045 6.82739 6.62445 6.65534 6.5043 6.39512 6.02783 5.9973 5.83793 5.87007 5.38031 5.27983 5.14582 5.01996 4.71248 4.61742 4.44139 4.58303 4.25314 3.93998 3.94095 3.8605 3.4562 3.52476 3.3298 3.00899 2.98454 2.69062 2.70849 2.37479 2.32309 2.2727 2.19326 1.87479 1.77665 1.51477 1.22394 1.55018 1.27448 1.14132 1.01843 1.28795 1.01925 0.504632 4.8849 1.54134 2.6441 4.208 5.46438 6.36378 6.87701 7.0847 7.49729 7.62598 7.84812 7.88525 7.77878 7.76522 7.71607 7.62086 7.58267 7.37159 7.48938 7.21772 7.01034 6.89546 6.75621 6.48464 6.56755 6.32024 6.1117 5.99098 5.77826 5.77937 5.36383 5.22875 5.0783 5.08216 4.86708 4.73824 4.56555 4.56491 4.07727 4.03037 3.85164 3.72489 3.71696 3.27036 3.74744 2.95295 3.27709 2.90138 2.65422 2.30663 2.28184 2.2437 2.13102 1.77778 1.89155 1.72854 1.67822 1.6056 1.08545 0.910286 0.992728 1.05087 0.8136 0.758718 6.15904 4.24829 5.62828 6.75042 7.50308 8.20535 8.3106 8.87943 8.64818 8.84475 8.84312 8.85532 8.69908 8.79657 8.53364 8.46618 8.17653 8.01183 7.90504 7.81437 7.71671 7.6563 7.22884 6.9509 6.88339 6.74398 6.42148 6.17357 6.00866 5.76031 5.613 5.4727 5.45896 4.9683 5.05305 4.86067 4.69693 4.48211 4.20662 4.15037 4.0416 3.69574 3.57207 3.6378 3.08104 3.17192 3.33502 2.82723 2.70847 2.69857 2.4446 2.26756 2.09048 1.64651 1.51953 1.61892 1.63924 1.39328 1.53666 1.18108 1.07922 0.874741 0.924651 0.876454 8.36516 7.66506 8.24115 9.16773 9.80746 10.2735 10.4035 10.5328 11.0914 10.6645 10.3868 10.5948 10.0981 10.2648 9.93106 10.0477 9.57071 9.295 8.81041 8.81499 8.33153 8.13773 7.82692 7.63265 7.42298 7.26915 7.11102 7.18794 6.57476 6.16919 6.17612 5.62358 5.79012 5.26369 5.17463 4.99313 4.61295 4.59405 4.26361 4.35014 3.86321 3.6326 3.86821 3.65441 3.34353 3.16422 2.95126 2.54063 2.93298 2.57864 2.80278 2.3616 1.9763 1.92039 1.61263 1.55578 1.59052 1.29529 1.11181 1.19229 0.88754 0.932797 0.711702 1.1783 11.2024 10.5786 11.4163 12.5945 12.7542 13.4403 13.2256 13.4097 13.0532 13.1795 12.8822 12.7166 12.3676 12.0051 11.7918 11.8829 11.0483 10.7758 10.4637 10.0153 9.6325 9.23412 8.94965 8.84961 8.17563 8.15798 7.73696 7.44604 7.12434 6.73706 7.09444 6.71982 6.49644 5.67237 5.50954 5.36266 4.91645 4.67863 4.45569 4.33753 4.01772 4.03838 3.65619 3.53764 3.21781 3.12377 2.74383 3.03317 2.5851 2.37034 2.20432 2.03489 1.80351 1.65818 1.89057 1.57922 1.56751 1.09774 1.19777 1.11575 0.999241 0.634996 0.873063 0.48684 14.28 13.838 15.169 16.2382 16.4838 15.7098 15.6266 15.976 15.4831 15.5571 14.9834 14.7041 14.4857 14.1502 14.0431 13.5056 13.3064 12.5139 12.1244 11.9515 11.4371 10.9094 10.8684 10.119 9.62033 9.27156 8.81721 8.02336 7.97502 7.63116 7.27262 7.08125 6.77571 6.40988 5.83822 5.65898 5.61675 4.99441 4.597 4.58037 4.33689 3.93264 3.73368 3.59483 3.59388 3.24745 3.07804 3.09312 2.65457 2.36466 2.05474 2.18468 1.88354 1.63574 1.93362 1.38422 1.34507 1.17832 1.21735 1.11223 0.841198 0.649938 1.01265 0.482696 17.393 17.6962 19.0492 19.3485 19.3695 19.2835 19.225 18.6828 18.5341 18.0342 17.7901 17.3419 16.8175 16.4026 15.8593 15.4429 14.7615 14.5641 14.5367 13.1151 12.7752 12.2008 11.9459 11.1472 10.7136 10.3981 9.98404 9.70102 8.69248 8.46419 7.85013 7.6317 7.1207 6.91191 6.1215 6.2689 5.7602 5.28813 4.92711 4.77621 4.37695 4.47261 3.74242 3.82026 3.41803 3.13218 2.86377 2.92043 2.62977 2.28181 2.21133 2.05912 1.87578 1.32729 1.88237 1.60541 1.1947 1.02294 0.945018 1.05566 0.751323 0.601754 0.540909 0.5536 21.2701 22.4376 23.7173 23.8782 23.3794 23.2231 22.857 22.0394 21.9349 21.1962 20.729 20.0833 19.9509 18.9539 17.8384 17.6189 17.0658 16.5595 15.6782 15.0374 15.0307 13.8567 13.6298 12.9642 11.9408 11.2817 10.769 10.6101 9.51303 9.6705 8.64666 8.52947 7.89256 7.66178 7.02044 6.50545 6.40059 5.73268 5.50386 5.03755 4.98729 4.41363 3.98657 3.94123 3.5698 3.37471 2.96271 2.67161 2.85704 2.50192 2.18185 1.82246 1.89187 1.66075 1.66789 1.15103 1.15501 1.40355 0.849012 0.805724 0.763462 0.578289 0.775729 0.77032 26.7934 27.7443 28.7077 27.936 27.7048 26.6776 25.8418 25.6136 25.1329 24.1608 24.2545 23.6811 22.814 22.026 20.7877 19.8907 19.518 18.6995 17.7683 17.3005 16.5357 15.5835 15.0191 14.1554 13.8189 13.0501 12.6469 11.7889 11.0186 10.2684 10.006 9.39015 8.33628 8.22058 7.54442 7.10746 7.12092 6.19528 5.80629 5.1021 4.9038 5.12769 4.69138 4.19385 3.65449 3.25092 2.82874 2.8208 2.32858 2.68759 2.12963 1.90671 2.0245 1.52146 1.41828 1.17185 1.16445 0.889489 0.833241 0.59941 0.781164 0.724208 0.722557 0.438661 26.4942 27.9699 29.2436 29.193 29.4804 28.5021 27.4908 26.7544 26.0826 25.4431 24.6035 23.619 23.0459 21.8823 21.6768 20.2342 20.0232 19.6611 18.2554 17.884 16.9945 16.0846 15.1934 14.1628 13.9279 12.9862 12.0551 12.0859 10.8542 10.5971 9.90775 9.2989 8.5343 7.99157 8.01754 7.54712 6.46174 6.27241 5.88447 5.34634 4.83086 4.31154 4.00961 3.69337 3.48866 3.21337 3.13839 2.67083 2.5048 2.42149 2.22441 1.56043 1.55339 1.75653 1.53261 0.953685 0.777294 0.950365 0.625023 0.63964 0.438961 0.329925 0.723431 0.509545 19.3214 23.2966 24.7146 25.5485 25.2762 24.7543 23.5781 23.6521 22.5481 22.2437 21.5023 20.4856 19.8786 19.4464 18.413 18.6128 17.7192 16.6088 15.9691 15.4342 14.7869 13.8414 13.2698 13.2576 12.2976 11.6444 11.0906 10.8636 9.84629 9.02186 9.10776 8.1896 8.10544 7.40319 6.88281 6.4405 6.03937 5.42486 4.78445 4.48485 4.32497 4.36758 3.81619 3.49258 3.05631 3.24074 2.64217 2.67658 2.28699 2.19113 1.87703 1.46136 1.32945 1.49576 1.28314 1.58211 0.7606 0.827288 0.981757 0.856512 0.80972 0.690996 0.470175 0.755187 15.3312 18.1418 20.1927 20.5305 21.1569 20.5664 20.2959 20.1992 19.7506 18.8235 18.437 17.6603 17.4376 16.3572 16.0858 15.2488 15.0297 13.961 14.1176 13.4581 12.5404 12.0739 11.771 11.5481 11.0693 10.1355 10.3479 9.03222 9.10819 8.46983 8.09356 7.82362 7.419 6.57535 6.26729 6.00124 5.47257 5.21963 4.5375 4.47459 4.17702 3.79128 3.46497 3.39883 3.5194 2.8949 2.45932 2.75986 2.51566 2.49584 2.11438 1.6592 1.71555 1.75005 1.63706 1.62592 0.931945 1.06152 1.01027 0.714701 0.873129 0.660513 0.456468 0.571871 11.9557 14.5677 16.0842 16.7068 17.6542 17.0982 16.8391 16.3629 16.4443 15.9609 15.5498 15.9433 15.0207 14.1933 13.9161 13.5085 12.9516 12.6559 12.0392 11.7939 11.1608 10.5624 10.1966 9.23009 9.30832 8.85508 8.60286 8.42107 7.74465 7.75376 6.71908 6.53865 6.11527 6.17772 5.54235 5.05062 5.09218 4.83307 4.39166 4.19274 4.15044 3.62198 3.5429 3.56311 3.20608 2.92629 2.66444 2.60808 2.45211 1.98604 2.04359 1.94513 1.88118 2.15139 1.54694 1.42299 1.19464 0.979715 1.06159 1.20743 0.766774 0.786488 0.672887 0.545908 9.50185 10.3511 12.3024 13.6209 13.8345 13.9066 14.2607 13.7108 13.9077 13.3528 13.0972 12.7155 12.4802 12.0058 11.6213 10.9326 10.6715 10.5067 10.4804 9.8452 9.64722 9.37335 8.59893 8.33076 8.164 8.01707 7.37777 7.62917 6.62317 6.87862 6.49082 5.83664 5.54063 5.18331 5.07021 5.04022 4.50684 4.39179 4.48439 4.21979 4.14162 3.60336 3.66847 3.4495 3.36263 2.96864 2.65948 2.4178 2.52497 2.14995 2.04936 2.20416 1.93661 1.55407 1.50544 1.38088 1.26287 1.43518 1.32832 0.86621 0.948611 0.955546 0.654923 0.624223 7.21975 8.01136 9.03913 9.79704 10.3165 10.5312 10.7199 10.8764 10.5765 10.3058 10.406 10.8603 9.91238 10.0094 9.53539 9.33675 9.02979 8.70632 8.69766 8.26107 8.21978 7.54556 8.05529 7.75317 7.27355 6.75731 6.75046 6.39007 6.0929 6.15714 5.71247 5.4037 5.39329 5.13092 4.96235 4.69045 4.445 4.22816 4.02338 3.74031 3.87902 3.68536 3.33343 3.29327 3.13828 2.91772 2.74152 2.80782 2.79054 2.22622 2.15075 2.04769 1.67661 1.72136 1.57201 1.54137 1.43587 1.40657 1.35307 0.883952 1.02613 0.77297 0.722777 0.768837 4.75024 5.02029 6.11086 6.9706 7.81253 8.39079 8.52568 8.60275 8.62339 8.66127 8.44814 8.51567 8.44475 8.41326 8.06699 8.07948 7.89578 7.73725 7.63109 7.52225 7.14136 7.1456 6.90062 6.76699 6.39363 6.40072 6.00381 5.85963 5.67232 5.51244 5.21297 5.36047 5.20472 4.77318 4.9111 4.64531 4.31469 4.12402 3.95946 3.69063 3.61968 3.43332 3.27018 3.13992 2.95752 2.79614 2.86433 2.75501 2.63182 2.31102 2.24329 2.03812 2.03862 1.98375 1.52577 1.74753 1.36603 1.24275 1.34266 1.05186 0.809247 1.00422 0.904852 0.713794 2.63531 2.66314 3.84222 5.28697 6.18278 6.87896 7.25558 7.48488 7.81201 7.55589 7.69419 7.61912 7.53817 7.52806 7.41659 7.46803 7.20703 7.0742 6.7962 6.8175 6.60408 6.57792 6.51852 6.19271 5.96423 5.87832 5.80611 5.45342 5.42071 5.30484 5.33836 4.96554 4.87337 4.62851 4.39893 4.58471 4.30851 3.97712 4.14052 3.7352 3.92808 3.40906 3.41295 3.06166 2.91898 3.07392 2.98748 2.77011 2.59975 2.45503 2.4141 2.11166 1.93654 1.67381 1.78625 1.72007 1.17606 1.31247 1.40101 1.06633 1.04068 1.01668 0.86783 0.731848 2.02119 1.87208 4.03746 5.40575 6.45671 6.80192 7.23328 7.41273 7.70274 7.51993 7.65993 7.55935 7.80743 7.43868 7.43106 7.38393 7.13934 6.99958 6.99341 6.90787 6.68212 6.52185 6.36894 6.1716 5.98756 5.83767 5.71805 5.57964 5.4551 5.26143 5.22927 5.13179 4.84321 4.71474 4.60453 4.38876 4.3433 4.14758 3.857 3.91386 3.66532 3.48255 3.34948 3.28589 3.07918 2.78371 2.94141 2.67933 2.59499 2.38898 2.15758 2.32915 1.81644 1.87287 1.83845 1.58368 1.46822 1.21874 1.14088 1.06824 1.00185 0.877964 1.04612 0.853462 3.77114 4.21725 5.82781 7.08244 8.0255 8.6314 8.49946 9.1032 8.64931 8.58215 8.5245 8.83695 8.53986 8.31991 8.20608 7.90834 7.93359 7.76732 7.55133 7.54654 7.30317 7.13731 7.22458 6.78484 6.47393 6.35689 6.02603 5.73409 5.59998 5.56972 5.31516 5.24924 4.89241 4.78578 4.67796 4.61832 4.20669 4.25383 3.89828 3.90019 3.68827 3.59981 3.3995 3.31272 3.18359 2.9436 2.69792 2.45574 2.4169 2.38703 2.38688 2.32164 2.10901 1.78329 1.66712 1.64475 1.30251 1.33338 1.08641 1.20112 1.09279 0.610444 1.23582 0.717424 6.25279 6.94356 8.70039 9.83319 10.3527 10.8101 11.2583 10.8284 10.6005 10.9652 10.7782 10.2391 10.4456 9.86822 9.62035 9.85423 9.35196 8.93981 8.58707 8.36991 8.01906 7.72675 7.72502 7.50304 7.37892 6.87514 6.57232 6.26208 6.16515 5.89344 5.94829 5.47942 5.29262 4.87451 4.77044 4.66252 4.55798 4.38567 4.27581 4.06781 3.86274 3.70409 3.41425 3.45508 3.11996 3.03117 2.90952 2.63814 2.42286 2.39247 2.10986 2.08597 1.69032 1.87853 1.98461 1.54946 1.37902 1.39696 1.60904 1.12646 0.8629 0.907196 0.751462 0.56225 8.53246 10.3877 12.0332 13.153 13.8168 13.9713 14.1877 13.7235 13.6794 13.7385 12.7381 12.6035 12.3002 11.8 11.6836 11.1958 10.9039 10.7483 10.4819 10.091 9.69393 9.17544 8.59594 8.46601 7.88231 7.98225 7.54133 7.2793 6.90465 6.53442 6.64998 6.16623 6.02376 5.69818 5.22134 5.07792 4.91634 4.62733 4.30191 4.22951 3.78876 3.62695 3.5243 3.61264 3.12538 3.10606 2.74337 2.80617 2.42229 2.43245 2.15409 2.07104 1.95655 1.67399 1.71082 1.42829 1.45242 1.16815 0.948281 0.859744 0.901226 0.825127 0.894855 0.948954 11.4118 13.2559 15.4008 16.4769 16.6371 16.9069 16.4882 16.4983 16.4295 15.4724 15.6751 14.5996 14.6186 14.443 13.5018 13.3532 12.3562 12.3004 11.9484 11.2102 11.1012 10.9808 9.91249 9.81051 9.46205 8.81642 8.26685 8.1028 7.72355 7.08818 7.44881 6.74619 6.74435 6.11348 5.68843 5.6678 5.19603 4.56785 4.66938 4.34682 4.34612 3.77685 3.86664 3.4965 3.2026 3.12185 2.75176 2.59325 2.3632 2.27879 2.10523 1.9566 1.7527 1.76164 1.64493 1.75826 1.71971 1.49223 1.123 1.2852 0.930184 0.774857 0.927441 0.780218 14.2656 17.0226 19.2249 20.3049 20.7354 20.5735 19.649 19.4764 19.2346 18.4282 18.1302 17.3682 16.4878 16.6806 15.8686 15.8788 15.0037 14.3208 14.0505 12.9946 12.236 12.4884 11.4841 10.8791 10.5889 9.89758 9.62972 9.34134 8.72189 8.09009 8.01304 7.5358 7.35796 6.69742 6.22955 6.35815 5.40878 5.25472 4.93508 4.50518 4.36716 4.08129 4.24619 3.53982 3.37085 3.10735 2.80036 2.63207 2.41316 2.46428 1.98958 2.20869 1.94904 1.31008 1.31069 1.64681 1.10432 1.1216 1.01841 1.03289 0.480456 0.775933 0.624109 0.553472 17.7948 21.6148 23.9935 24.8361 24.9988 24.2189 24.3233 23.3672 22.1552 21.748 21.1474 20.202 19.3776 18.6419 18.6791 17.2839 17.1852 16.1629 15.4423 15.2684 14.4165 14.4313 13.3205 12.0373 11.8962 11.3836 10.9415 10.044 9.64217 9.55258 8.7683 8.19195 7.55967 7.4042 7.00249 6.72106 6.16625 5.7934 5.48859 5.32483 4.44218 4.60518 3.95187 3.66595 3.61726 3.24543 2.90132 2.63726 2.33223 2.21678 2.23898 1.76502 1.60101 1.56462 1.66599 0.984092 1.17734 0.805757 0.814004 0.966535 0.743511 0.983998 0.806205 0.476392 23.0076 27.0539 29.2865 28.5847 28.1112 27.7355 27.1096 26.4366 25.4052 25.0238 24.3118 24.0192 23.1427 22.0949 21.1152 20.0728 19.1439 18.8262 17.3902 16.6134 16.5236 15.7525 15.0701 14.0557 13.6872 12.779 12.7225 11.5861 11.1758 10.0852 9.93779 9.88057 8.58118 7.92469 7.75229 6.78588 7.03661 5.99212 5.66666 5.64347 5.26193 4.79163 4.02745 3.99377 3.48087 3.39103 2.76551 2.76111 2.77799 2.1641 1.77828 2.03159 1.90913 1.44128 1.32827 0.877511 1.13431 0.686996 0.7876 0.745429 0.685789 0.615719 0.424986 0.87372 25.1997 26.5078 28.4661 29.6643 29.3502 28.9154 28.1779 27.1483 27.1155 25.8109 24.8199 23.4108 22.8345 22.5472 20.9925 20.5837 20.2766 19.0704 18.4649 17.8543 16.5187 15.8035 15.6063 14.7796 14.163 13.2359 12.0399 11.5894 11.6492 10.932 10.6151 9.6415 8.94897 8.36833 7.656 7.07368 6.63094 6.23764 5.66215 5.44208 4.82323 4.29219 4.28379 3.61565 3.26152 2.98921 2.91425 2.48068 2.28418 2.35869 1.88151 1.62517 1.48593 1.36867 1.14919 1.04937 0.77822 0.663097 0.795486 0.658465 0.459033 0.668762 0.568231 0.4912 17.6187 21.7273 24.2051 25.4674 25.2167 24.8058 24.6022 24.4192 23.5458 22.9901 21.8119 21.1491 20.3328 19.6904 18.5148 18.4779 17.1774 16.455 16.1952 15.3957 14.852 14.0074 13.5788 12.983 12.0697 11.7771 11.2563 10.6186 9.94579 9.56079 9.16477 8.78316 7.76617 7.93641 7.04414 5.91879 5.90074 5.50396 5.38945 4.8428 4.43268 3.79223 3.87857 3.47094 3.23606 2.9654 2.60359 2.64692 2.50019 2.05936 1.68185 1.97468 1.6299 1.88493 1.08939 1.25542 1.21411 0.760946 0.738945 0.542411 0.761952 0.758939 0.831413 0.650705 13.3035 16.9303 19.8364 21.0153 21.6126 21.2574 20.9157 20.821 19.9674 19.4575 19.2997 18.4194 17.7067 16.9838 16.0618 15.6849 15.2239 14.6708 13.575 13.6809 12.8914 12.4169 11.826 11.532 10.8251 9.92093 9.79226 8.8986 8.84615 8.5013 7.97706 7.43265 6.9203 6.58134 5.84725 5.60027 5.60522 4.76269 4.62756 4.51249 4.09994 3.60565 3.74943 3.22693 3.16953 2.95101 2.73863 2.61332 2.16618 2.20833 1.94677 1.89796 1.37113 1.47754 1.60075 1.14361 0.814929 1.15631 0.897783 0.90233 0.65888 0.797152 0.685525 0.505248 10.1508 12.8558 15.5393 17.3924 17.7089 18.2863 17.5792 17.1735 16.8087 16.4994 16.1078 15.8633 15.0601 14.5899 13.9646 13.6358 13.3302 12.66 11.9756 11.6971 10.8953 10.5371 10.5404 9.86878 9.14771 9.31206 8.7134 7.89969 7.84626 7.4162 6.70654 6.22441 6.12453 5.51442 5.42308 5.39547 4.86438 4.45663 4.34359 3.80444 3.9378 3.4984 3.35036 3.23568 3.15619 2.74967 2.82191 2.53131 2.80994 2.36637 2.0104 1.81425 1.40112 1.8137 1.49233 1.35114 1.56725 1.19901 1.0547 0.788392 0.857391 0.734688 0.796567 0.815276 7.81446 9.87428 11.9821 13.3731 14.4597 14.6714 14.6686 14.2237 14.3738 13.4194 13.1918 13.1674 12.5169 12.1843 11.5682 11.5294 10.8372 10.4608 9.72976 9.78783 9.27682 8.65986 8.55742 8.45525 7.71076 7.46004 7.30579 6.99163 6.25084 6.38898 5.97232 5.727 5.61346 5.28454 4.95757 4.70083 4.62706 4.22161 4.08293 4.12328 3.61589 3.55931 3.08992 3.17273 2.7998 2.88002 2.47498 2.6942 2.30825 2.40115 1.97414 2.10823 1.60594 1.66237 1.44859 1.44861 1.20972 1.18658 1.0256 0.995102 1.08278 0.61751 0.513857 0.740428 5.41772 7.37653 9.15375 10.1409 11.2524 11.1576 10.9527 11.1075 10.949 10.8183 10.4966 9.89287 9.95855 10.0302 9.58331 9.39514 8.84234 8.79405 8.47065 8.01325 7.89034 7.79794 7.52938 7.33762 7.23539 6.45073 6.63188 6.17773 6.04655 5.95189 5.42451 5.16024 5.18697 5.12213 4.9395 4.40998 4.50732 4.26445 3.80646 3.9288 3.58174 3.92927 3.54903 3.07275 3.05309 3.18857 2.63772 2.56471 2.44947 2.40321 2.32789 1.83701 1.77108 1.79818 1.59145 1.64689 1.36222 1.03217 0.976955 0.877141 0.898792 0.640109 0.932574 0.958898 3.7559 4.94264 6.52906 7.68175 8.46736 8.79486 8.99554 8.8891 8.73129 8.64054 8.81081 8.40762 8.23763 8.05007 7.92688 7.71616 7.91896 7.54922 7.35515 7.10257 6.87275 6.64061 6.68718 6.26987 6.09563 5.81187 5.90688 5.83595 5.3819 5.12959 5.15037 4.86765 4.75828 4.78211 4.52785 4.18705 4.15511 3.95429 3.98967 3.57987 3.65851 3.31058 3.17532 3.14285 2.80471 2.87482 2.55548 2.44371 2.51595 2.4915 2.25804 2.06285 1.74615 1.8869 1.61761 1.34471 1.61879 1.18011 1.03252 1.02202 0.698346 0.71749 0.799009 0.502467 2.03493 3.41519 5.10597 6.38597 6.96776 7.46207 7.86733 7.72327 7.9087 7.58042 7.62532 7.49592 7.35398 7.14838 7.03466 7.06916 6.96444 6.73444 6.55868 6.40922 6.45015 6.22198 6.04325 5.8331 5.59576 5.46978 5.47859 5.32979 5.18001 4.99504 4.87466 4.76323 4.59396 4.4645 4.59477 4.09325 4.06835 3.9142 3.78593 3.34879 3.45103 3.71833 3.23048 2.97307 2.82013 2.85561 2.79459 2.50379 2.36129 2.15903 2.31207 1.88329 1.97645 1.88202 1.68612 1.64038 1.37229 1.23775 1.28017 0.905635 1.0031 1.22785 0.706112 0.673563 1.27571 3.28685 4.85254 6.19391 7.02111 7.28217 7.80106 7.59179 7.62911 7.58124 7.59919 7.51857 7.33076 7.19823 7.05446 6.87724 6.87417 6.69629 6.64998 6.50198 6.32923 6.27448 5.91565 5.85202 5.66214 5.53005 5.42016 5.30764 5.18398 5.03059 5.07205 4.70652 4.7513 4.40854 4.27159 4.06299 3.83297 3.97509 3.5724 3.60856 3.53635 3.80671 3.18708 3.07506 3.01114 2.86048 2.54007 2.5691 2.3609 2.28992 1.98515 2.07414 2.32254 1.79148 1.4962 1.36857 1.04541 1.34179 1.13281 1.08427 0.76677 0.903265 0.695218 0.542988 3.06028 4.83444 6.50298 7.91407 8.90084 9.03117 9.30066 9.14418 9.07 8.91144 8.50191 8.21837 8.20914 8.1278 7.95639 7.86681 7.73525 7.38924 7.16644 7.07647 6.83131 6.65162 6.74184 6.39673 6.11243 6.01678 5.84769 5.52584 5.51557 5.29863 5.26899 5.00532 4.60626 4.55606 4.57453 4.0968 4.14004 3.87631 3.89863 3.5505 3.41133 3.25416 3.05479 3.47829 3.01284 3.07433 2.58148 2.35917 2.34496 2.13301 2.07248 1.94192 1.95038 1.87649 1.66417 1.69627 1.37989 1.42634 1.38417 0.912888 1.04079 0.973138 0.646883 0.603944 5.162 6.89758 8.89468 10.0367 10.8952 11.5377 11.3413 11.3764 11.6356 11.1627 10.091 10.3439 10.0006 9.85519 9.45964 9.4315 9.18363 8.62198 8.36912 8.31649 7.78614 7.94224 7.50398 6.98937 7.19899 6.60903 6.64017 6.33168 5.88258 5.6006 5.59594 5.31314 4.92514 4.76787 4.87025 4.5311 4.30418 4.1359 3.85189 3.72926 3.62222 3.22373 3.24757 3.2333 3.16691 2.68132 2.61052 2.40417 2.37574 2.40416 1.99596 2.30182 1.76746 1.75969 1.50634 1.54616 1.29312 1.10619 1.23203 1.14963 0.746607 0.730138 0.449158 0.986561 6.95844 9.59045 11.9869 13.5451 14.117 14.1869 14.2073 14.0864 13.4699 13.4029 13.2108 12.5027 12.1541 11.8675 11.3056 11.1555 10.6119 10.4423 9.82127 9.98442 9.31678 9.02704 8.46321 8.27163 7.93289 7.74869 7.15476 7.04931 6.89203 6.37283 6.18348 6.02513 6.13301 5.46872 5.02937 4.83336 4.64629 4.58095 4.25761 4.01688 4.077 3.49487 3.4844 3.17053 3.07973 2.88498 2.75155 2.49564 2.43155 2.47835 2.10483 1.71958 1.58675 1.4576 1.65408 1.31761 1.16116 1.34745 1.26905 0.695184 0.826583 0.527764 0.589075 0.618333 9.6052 13.0249 15.1557 16.4087 17.0316 17.5192 17.5899 17.017 16.2401 15.555 15.4457 14.7434 14.5882 13.8263 14.3709 13.2549 13.0226 12.6444 11.7082 11.248 10.7866 10.5816 10.0305 9.22711 9.21588 8.92111 8.36868 7.84976 7.8923 7.22423 7.11273 6.64473 6.17879 5.89633 5.56865 5.58295 5.0604 4.65589 4.34645 4.11264 3.99349 4.10087 3.30914 3.30815 3.42261 2.78745 3.04936 2.60176 2.47278 2.20502 2.03305 1.78782 1.70993 1.54722 1.62777 1.54638 1.27525 0.887704 1.20232 0.676761 0.917699 0.484105 0.528744 0.891222 12.701 15.865 18.8932 20.272 20.9436 20.771 20.7656 20.0253 19.6241 18.8229 17.9 17.4872 17.1914 16.3259 16.3481 15.3941 15.2395 14.1557 13.9434 13.0127 12.333 11.894 11.5061 11.3035 10.4382 10.0094 9.87575 9.47386 8.20673 8.19143 7.71068 7.61751 7.17976 6.71047 5.8833 5.89552 5.56274 5.18896 4.87259 4.43579 4.70213 3.92672 3.34854 3.46573 3.13448 3.13984 2.74661 2.52996 2.42964 2.14031 1.93533 1.67083 1.93723 1.98326 1.34046 1.09174 1.13433 1.0607 0.847201 0.833673 0.583222 0.599823 0.933352 0.504172 16.6004 20.5128 23.3227 24.6831 25.005 24.9093 24.0973 23.9121 23.3959 22.5827 21.029 20.6855 19.599 19.6392 18.035 18.0965 17.0361 16.328 15.8151 14.9763 14.1318 13.7798 13.2913 12.6091 12.0186 11.5092 10.878 10.5394 9.53207 9.66493 8.86769 8.16094 7.88046 7.39003 7.22996 6.264 6.62632 5.66572 5.40173 5.09209 4.45263 4.11776 3.76089 3.48708 3.1128 2.88476 2.96955 2.67801 2.45167 2.18066 2.00955 1.8967 1.53903 1.55363 1.12086 1.44068 1.12304 1.25773 0.987656 0.761373 0.544963 0.481728 0.522658 0.627384 21.8465 25.5666 27.8061 28.9566 28.5847 28.6028 27.8053 27.173 26.4333 25.4384 24.4622 23.5642 23.3251 22.0258 21.1739 20.0738 19.352 18.367 17.8451 17.2691 16.0608 15.1796 14.8846 14.5239 13.7719 12.9541 12.4223 11.5293 10.9869 10.0454 9.82656 9.33083 8.76336 8.13903 7.264 7.28169 6.70511 6.3198 6.01095 5.51129 5.32418 4.86827 3.92066 3.75676 3.47288 3.26622 2.88329 2.59885 2.58114 2.18279 1.85243 1.58214 1.92878 1.26478 1.37621 0.884529 0.740354 1.01162 1.13576 0.546671 0.806932 0.572916 0.549281 0.901386 24.4299 26.1761 27.9701 28.1813 28.812 28.9098 28.3158 27.7965 26.7453 26.1336 24.5018 24.5962 23.3253 22.2426 21.4324 21.2676 20.2592 19.0806 18.6163 17.402 16.9452 15.7798 14.9142 14.6184 14.0197 13.017 12.5742 11.6225 11.1518 10.4129 10.1381 9.15671 8.60676 8.18159 7.69148 7.03214 6.46232 6.10501 5.70671 5.24852 4.65611 4.15512 3.93465 3.54567 3.21849 3.21739 2.96854 2.54506 2.30654 1.9399 1.95737 1.58987 1.62969 1.15496 1.36956 1.11268 0.995436 0.937596 0.697704 0.693944 0.571787 0.475665 0.723052 0.824796 16.9397 21.4447 23.6319 24.9085 25.7123 25.4775 25.0494 24.3346 23.3883 23.228 22.6716 21.2873 20.2934 19.819 19.1875 18.0818 17.8062 16.7404 16.3711 15.038 14.384 14.1924 13.3497 12.6787 12.073 11.8897 11.0309 10.5096 10.0008 9.23496 8.86653 8.31468 7.82637 7.33392 6.85118 6.19962 5.42218 5.46352 5.16262 4.53339 4.20365 4.18321 3.95841 3.52292 3.34455 3.04615 2.72686 2.66502 2.14704 1.89135 1.85904 1.55166 1.68166 1.24877 1.34384 1.21145 1.30415 1.09441 0.859829 0.676477 0.808187 0.752588 0.545472 0.664734 12.5317 16.8921 19.7006 21.2175 21.4271 21.757 21.5233 21.3254 20.5576 19.9797 19.0083 18.3206 17.64 17.4868 16.4468 16.2793 15.0801 14.525 13.3781 13.3497 12.8039 12.026 11.8296 11.3235 10.7524 10.1421 9.9116 8.9924 8.74987 8.30572 7.73076 7.28075 6.87285 6.49849 5.70348 5.8614 5.20874 5.0366 4.49837 4.41741 3.83915 3.74503 3.33382 3.48209 2.69539 2.86106 2.46138 2.0959 2.0826 1.90191 1.84864 2.17697 1.55214 1.61528 1.45694 0.91387 1.05715 1.03212 0.905157 1.1133 0.968221 0.681558 0.757453 0.987849 8.99057 12.8945 15.4813 17.3634 18.4497 18.0736 17.9584 17.9069 17.192 16.4719 16.5414 15.4982 15.2021 14.3665 13.9206 13.2826 13.1994 12.5328 11.8971 11.5425 11.2814 10.4645 9.73245 9.95022 9.69407 8.83267 8.33455 7.99136 7.72889 6.98552 6.4225 6.2905 6.14475 5.654 5.2649 5.17475 4.83201 4.68288 4.29038 3.93502 3.62133 3.56504 3.37443 3.17095 2.86035 2.75263 2.83801 2.40725 2.24021 2.30603 1.65631 1.93266 1.67402 1.43625 1.47802 1.35272 1.33423 1.2709 1.08243 0.878005 0.679073 0.903671 0.430554 0.458068 6.63689 9.79809 12.2624 14.1681 14.7835 15.2656 14.8319 14.8909 14.5828 14.483 14.1261 12.8679 13.2212 11.8059 11.715 11.1237 10.7441 9.95683 10.168 9.55086 9.04389 8.6647 8.35 8.12172 7.72646 7.92289 7.44415 6.67532 6.4386 6.41995 6.05785 5.59539 5.31751 4.9379 4.99112 4.75355 4.66628 4.35055 3.96936 3.70406 3.7454 3.33759 3.49242 2.98564 3.11541 2.78249 2.43111 2.50617 2.65249 2.12708 2.1751 2.04852 1.6124 1.67398 1.45063 1.11259 1.16573 1.22848 0.996765 0.705817 0.969892 0.780929 0.718773 0.547966 4.72186 7.28363 9.37186 10.6646 11.3083 11.5987 11.6382 11.218 10.9666 10.7534 10.6024 10.5323 10.2325 9.78209 9.14167 9.03531 9.06986 8.63478 8.44653 8.02175 8.08209 7.46791 7.27058 7.14809 6.8756 6.59542 6.19772 6.02644 5.86284 5.63563 5.18886 5.00031 5.09546 4.8047 4.60728 4.53526 4.0508 3.89565 3.65708 3.92221 3.38281 3.13236 3.10375 2.84848 2.78511 2.8294 2.29404 3.00833 2.29818 2.43987 1.867 2.22404 1.72254 1.54453 1.58086 1.72623 1.09302 1.34223 1.20613 1.06521 0.876364 0.941093 1.23158 0.565298 3.1332 5.27556 7.16157 8.50297 8.85332 9.30824 9.31942 9.45165 8.95067 8.95521 8.70528 8.56473 8.07416 7.81893 7.69703 7.43642 7.42613 7.15054 7.30455 7.04965 6.74656 6.41749 6.21765 6.01455 5.93553 5.70458 5.48811 5.52063 5.12023 5.02977 4.8303 4.82696 4.66549 4.41717 4.16085 4.3542 3.85335 4.11749 3.70117 3.58382 3.50773 3.41074 3.25762 3.03876 2.70786 2.88105 2.81824 2.55772 2.28255 2.29786 1.93472 1.89766 1.72444 1.88838 1.40735 1.30522 1.36001 0.933596 1.08461 0.98142 0.762323 0.893945 0.980352 0.707693 1.43573 3.92724 5.9083 6.99224 7.63236 7.98702 8.31192 8.0315 8.08295 7.71998 7.58696 7.41619 7.46452 7.01105 6.89274 6.8854 6.42223 6.44496 6.226 6.13464 6.09649 5.87911 5.65356 5.7702 5.49424 5.54112 5.14859 5.03386 5.01148 4.7286 4.625 4.46057 4.3083 4.3088 4.09935 4.05551 3.87503 3.65692 3.65016 3.5452 3.10639 3.25479 3.12391 2.8907 2.67692 2.69594 2.74466 2.5594 2.3717 2.11647 2.13649 1.85633 1.82619 1.76573 1.34452 1.78318 1.27487 1.29988 1.2998 1.02797 0.986093 0.862894 0.487316 0.578605 1.19426 3.6773 5.85275 7.04302 7.60265 7.91287 8.11837 7.89469 7.87643 7.71809 7.58405 7.33348 7.46815 7.11511 6.83123 6.78898 6.70585 6.58416 6.81303 6.26003 6.07158 6.17765 5.72823 5.56962 5.5029 5.31789 5.27818 5.17589 5.06563 4.61259 4.66582 4.57057 4.3604 4.4585 4.15851 4.00412 3.74144 3.80754 3.78861 3.41047 3.31464 3.16503 3.11131 3.08547 3.04891 2.80859 2.53884 2.60714 2.37274 2.22595 2.29528 1.8436 1.90883 1.808 1.71809 1.67119 1.30613 1.42461 1.20729 0.99852 0.917482 0.569731 0.62609 0.924972 2.39031 5.11648 6.95418 8.46549 9.04772 9.4285 9.83782 9.33067 9.17613 8.77641 8.6699 8.39328 8.25894 7.88906 7.83065 7.53078 7.32507 7.16576 7.18068 6.74783 6.67787 6.57885 6.1701 6.26139 5.86421 5.96942 5.64402 5.28734 5.13061 4.98591 4.88656 4.74748 4.48795 4.47992 4.19088 4.18421 3.92926 3.60181 3.83648 3.48312 3.502 3.17374 3.05197 3.05042 2.6934 2.76591 2.64688 2.5376 2.28509 2.1776 2.08888 1.80441 1.68319 1.65523 1.7253 1.55031 1.37976 1.2826 1.0631 1.08219 0.906906 0.770196 0.580899 0.681455 4.28151 6.92437 9.0068 10.6816 11.4669 11.754 11.6182 11.5218 11.406 11.1919 10.8372 10.255 9.77958 9.84994 9.73199 9.19919 8.78322 8.40048 8.16197 8.04655 7.59464 7.54243 7.50744 6.79674 6.75278 6.45919 6.45047 6.26533 6.03185 5.61615 5.35565 5.25434 5.13816 4.66935 4.42328 4.30646 4.10574 3.99696 3.86775 3.84626 3.39158 3.31468 3.24456 3.20174 2.8987 2.79415 2.45576 2.65511 2.58674 2.12043 1.85915 1.98268 1.60773 1.52301 1.63876 1.58237 1.32878 1.26605 1.14892 0.899932 0.821102 0.605121 0.627408 0.585467 6.18027 9.718 11.7351 13.9144 14.2498 14.6228 14.2868 14.0696 13.6325 13.4465 13.3372 12.8954 12.1421 11.7895 11.7923 10.9397 10.3525 10.2506 9.74949 9.62201 9.83636 8.73985 8.71496 8.02249 7.80604 7.57295 6.93108 7.10155 6.59239 6.72781 5.7872 5.8281 5.57631 5.54564 4.8893 4.83023 4.5661 4.17531 4.19866 3.72713 3.7167 3.29134 3.08674 3.1081 2.91747 3.04773 2.76326 2.38833 2.56667 2.40374 1.97511 1.71897 1.8785 1.60446 1.29945 1.51466 1.27869 1.30064 1.11856 0.908318 0.892109 0.663421 0.571731 0.772556 8.38149 12.2815 15.296 16.7194 17.7233 17.7695 17.6059 17.3886 16.5328 16.0472 16.0437 15.1709 14.6607 13.9807 14.1938 13.3924 12.2593 12.232 11.7721 11.0909 11.4232 10.7213 10.2033 9.37135 9.03331 8.44184 8.42394 8.21311 7.7401 7.36602 6.78423 6.26877 6.14206 5.8993 5.49876 5.51313 4.72644 4.62635 4.44204 4.01898 3.90066 3.68238 3.36619 3.05106 3.09288 2.91117 2.95713 2.6315 2.43182 2.05822 2.23798 1.68047 1.70252 1.35954 1.47467 1.40806 1.13529 1.07813 1.28089 0.882117 0.780316 0.705965 0.455883 0.518321 11.5926 16.0254 19.1571 20.4288 21.3239 21.4994 21.0246 20.5098 19.701 19.2112 18.6555 17.6083 17.2526 16.4609 16.0503 15.679 14.7525 14.1958 14.0287 13.206 12.8518 12.0161 11.483 10.8074 10.4946 10.1966 9.50247 8.92154 8.52255 7.91136 7.46176 7.0444 7.07741 6.64435 6.11518 5.67223 5.5095 5.02475 4.88216 4.52643 4.37952 3.77875 3.66188 3.41858 3.07397 3.06636 2.74228 2.41198 2.0056 2.26063 2.13832 2.10181 1.60323 1.41463 1.37173 0.905873 0.927103 1.01842 0.894177 0.809182 0.735396 0.565086 0.972552 0.383735 15.5124 20.0547 23.3449 24.419 25.0218 24.8856 24.0693 23.9989 23.5744 22.9276 21.2743 20.4312 19.8722 18.9089 18.1753 17.6436 17.0434 16.1412 15.3133 14.9131 14.4756 13.9979 13.3926 12.785 12.4295 11.2957 11.1301 10.282 9.51982 9.16397 8.37562 8.40187 7.24199 7.27649 6.77525 6.17421 6.21838 5.66002 5.23198 4.95204 4.40968 4.22308 3.87169 3.34106 3.33256 3.05672 2.66246 2.5842 2.70374 2.5342 2.4272 1.88788 1.40247 1.66651 1.45031 1.20394 1.07506 1.02004 1.30902 0.77044 0.839674 0.621008 0.655244 0.804426 21.2518 24.8012 26.7954 27.9232 28.6182 28.5403 28.2042 27.6265 26.6022 25.7317 24.9849 23.9897 23.153 21.9524 21.4289 20.1476 19.6399 18.1156 18.0449 16.9529 16.1351 15.6171 15.2632 14.4109 13.9355 13.0768 12.0007 11.4883 11.1732 10.5594 9.89142 9.27407 8.38385 8.21478 7.29654 7.42381 7.33884 6.40038 5.82482 5.2126 5.16613 4.43469 4.26888 4.09375 3.47973 3.05076 2.79367 2.84623 2.92517 2.09889 2.23864 1.85546 1.774 1.40597 1.08869 1.29035 1.09356 0.898859 0.860905 0.671297 0.424909 0.477931 0.631574 0.567814 24.5144 26.037 27.2081 28.4567 28.8466 28.7267 28.2211 27.7729 27.0895 25.8763 25.607 24.4583 23.8658 22.9887 21.9563 21.2066 20.066 19.1606 18.3832 17.9264 16.5215 15.3015 15.0227 14.4022 13.6093 12.9428 12.5195 11.9325 11.0472 11.1124 10.0403 9.5046 8.33298 8.2239 7.47098 7.24061 6.68728 6.22258 5.55004 4.89545 4.5031 4.32078 4.04698 3.58689 3.20413 3.12194 2.70686 2.60787 2.18121 2.12229 2.12861 1.63348 1.17967 1.167 1.07148 1.04256 0.87991 0.554115 0.895547 0.934637 0.451919 0.979957 0.920848 0.781345 16.6962 21.1072 24.195 24.7985 25.3412 25.3096 25.1347 24.4307 23.739 23.453 22.4359 21.5254 20.9157 19.8192 19.0538 18.3915 17.7439 16.9382 16.1589 14.9895 14.4328 14.1609 13.1593 12.8454 12.2549 11.6675 11.1363 10.1934 10.015 9.08078 8.69852 8.34715 7.63731 7.61204 6.72612 6.15942 5.94003 5.52223 4.89176 4.57945 4.58933 4.35471 3.48763 3.38017 3.04653 2.88474 2.56686 2.48009 2.2343 1.79651 1.62246 1.54877 1.55844 1.36803 1.36143 1.07056 0.863932 0.921544 0.877759 0.630574 0.410327 0.656217 0.428624 0.502056 11.6842 16.7399 19.1767 21.0657 21.8308 21.9531 21.8631 21.7172 20.7331 20.3778 19.735 18.7609 17.9453 17.6112 16.7324 15.9282 15.1296 14.7586 13.4771 13.2481 12.8859 12.7284 11.8076 11.3472 10.7302 9.90039 9.56016 8.92278 8.76511 8.26947 7.76712 7.48585 6.83266 6.32991 5.75776 5.41605 5.18873 4.91482 4.63641 4.25482 3.62181 3.77486 3.37473 3.52032 3.0443 2.78958 2.92305 1.99335 2.46366 2.03012 1.74117 1.80001 1.72696 1.67632 1.29137 1.38322 1.22197 1.13421 0.967264 0.716327 0.578589 0.828566 0.612203 0.929779 8.46432 12.7948 15.9927 17.5048 18.1348 18.2083 18.3928 17.855 17.1686 16.7594 16.0009 15.7354 14.9971 14.7834 14.1122 13.6077 12.8484 12.4272 11.9485 11.2261 11.1241 10.2857 9.76914 9.46322 9.32146 8.61167 8.41047 8.03064 7.33264 7.22834 6.52443 6.15225 6.02981 5.5401 5.0973 5.5972 4.45819 4.03996 4.27795 3.94295 3.82555 3.67793 3.24274 2.89778 2.90521 2.62805 2.40318 2.16055 1.91963 1.72882 1.9293 2.00493 1.50296 1.46724 1.15019 1.29091 1.09293 1.1216 0.782584 0.870712 0.495397 0.762847 0.614116 0.886918 5.95998 10.0176 12.2634 14.3374 15.0131 15.0544 15.2545 14.456 14.7939 14.3576 13.3804 12.9897 12.7147 12.3481 11.6886 11.1541 10.6722 10.4768 9.96734 9.76234 9.30602 8.71341 8.14969 8.27529 8.04988 7.24688 7.10396 6.96604 6.32276 6.07795 5.73794 5.42663 5.21372 5.31213 4.90089 4.65938 4.40864 4.20371 3.81705 3.78867 3.55035 3.39116 3.21818 3.19184 2.94575 2.64625 2.41453 2.32991 2.52907 1.90087 1.80345 2.1232 1.83174 1.5814 1.73681 1.36346 1.2934 1.01471 0.927028 1.18713 0.742008 0.773165 0.688625 0.45784 4.24836 7.33354 9.53597 10.9833 11.701 11.9755 11.7516 11.7888 11.2225 11.3684 10.6953 10.5496 10.1857 9.79019 9.43138 8.75778 8.82739 8.8391 8.50405 8.12376 7.61289 7.44643 7.13156 7.14702 6.37261 6.59508 5.96595 5.83107 5.72598 5.43823 5.34134 5.04215 4.71797 4.72954 4.53667 4.28713 4.0012 3.98376 3.7376 3.59618 3.31235 3.16278 3.06781 2.83914 2.78171 2.64648 2.63519 2.4334 2.17755 2.311 1.99602 1.90693 1.5469 1.48869 1.52267 1.24963 1.17143 1.37357 1.10581 0.944303 0.725164 0.555061 0.931777 0.557204 2.60234 5.49051 7.43971 9.01996 9.40109 9.66357 9.82181 9.80475 9.41774 9.08085 8.66077 8.58373 8.07598 8.08377 7.71802 7.5419 7.44265 7.34149 7.01857 6.94204 6.40023 6.53565 6.30414 6.03056 5.78589 5.81029 5.34058 5.15169 5.30941 4.98823 5.15827 4.65677 4.49337 4.65084 4.1096 4.12828 3.68896 3.83427 3.67368 3.43231 3.23889 3.28265 3.03008 2.69615 3 2.58892 2.66606 2.73612 2.07167 2.06555 1.99177 1.92184 1.79166 1.5688 1.43947 1.36564 1.07753 1.1554 1.01376 0.962806 0.789304 0.674987 1.00227 0.725022 1.44682 4.41898 6.52382 7.48973 8.24066 8.37996 8.34322 8.52214 8.04287 7.7495 7.72808 7.31085 7.14477 7.00027 6.63016 6.64816 6.41939 6.13354 6.16195 5.90877 6.13252 5.68166 5.58625 5.39072 5.50476 5.2357 4.93076 4.99624 4.79981 4.50178 4.32727 4.40495 4.31001 3.9737 3.89119 3.88873 3.63756 3.54809 3.41659 3.16587 3.29344 3.29593 2.96761 2.81796 2.84029 2.43797 2.53946 2.34229 2.24471 2.16098 1.79367 2.01543 1.62508 1.58192 1.71003 1.203 1.42112 1.19338 1.31748 0.875307 0.734108 0.792866 0.762874 0.267746 1.51558 4.26807 6.39665 7.53121 8.11066 8.38941 8.31473 8.19371 8.01838 7.92331 7.49695 7.44704 7.11092 6.93039 6.67905 6.5812 6.42276 6.38327 6.03331 5.95952 5.78112 5.77498 5.54188 5.42406 5.2957 5.13697 5.15952 4.937 4.92015 4.48054 4.56337 4.59933 4.33753 4.04074 3.9136 3.9448 3.57464 3.65497 3.82432 3.26101 3.09655 3.02429 2.88019 2.89951 2.82798 2.63894 2.40476 2.23364 2.07826 2.11689 1.92334 1.75148 1.8578 1.48803 1.39471 1.273 1.12454 0.96392 1.02966 1.07455 1.04766 0.871531 0.923108 0.547063 2.34949 5.59836 7.40495 9.18073 9.37179 9.71049 9.78651 9.4905 9.42116 8.87297 8.556 8.29673 8.1028 7.73551 7.78819 7.46117 7.5082 7.20721 6.89783 6.77245 6.36115 6.27662 6.39683 6.15012 5.61289 5.62385 5.25508 5.23479 5.0964 5.06518 4.63947 4.5004 4.3679 4.53647 4.20613 3.99205 3.92648 3.76228 3.46056 3.41929 3.5287 3.17252 2.7368 2.78897 2.94259 2.32947 2.46373 2.61937 2.30706 2.3151 1.99778 1.95955 1.48448 1.82372 1.41783 1.63754 1.28273 1.2931 0.813347 1.34874 1.00726 1.09156 0.416283 0.937089 3.86353 7.31774 9.75157 11.0785 11.764 11.8884 12.1527 12.1108 11.4661 11.2578 10.6995 10.7828 10.006 10.0206 9.39827 9.05871 8.62312 8.42706 7.97056 7.59566 7.68644 7.34258 7.09433 6.73734 6.60456 6.61757 6.09414 5.9837 5.65057 5.73102 5.19471 5.07588 4.60623 4.58514 4.64434 4.11596 4.2066 3.69599 3.57172 3.74565 3.61274 3.43611 3.45481 3.07747 2.76193 2.69907 2.56531 2.32808 2.1849 1.86448 1.91349 1.80208 1.74125 1.3951 1.50439 1.1928 1.67576 1.19385 0.854266 1.04532 0.702274 0.716448 0.757194 0.629823 5.81695 9.51672 12.1531 13.7887 14.4513 14.8169 14.5433 14.1606 14.2845 13.3979 13.59 12.692 12.5543 11.785 11.7324 10.9967 10.6021 10.2296 9.61115 9.34595 9.30754 8.44505 8.3209 8.03955 7.85483 7.09585 7.03562 6.71547 6.43213 6.0353 5.70856 5.44439 5.38149 5.30149 4.71643 4.72602 4.31475 4.15834 4.09237 3.73532 3.47057 3.67893 3.29793 3.32196 2.94251 2.63571 2.38132 2.68779 2.03384 1.8679 2.03926 1.68187 1.91092 1.39478 1.29774 1.38217 0.995263 1.16496 1.13549 1.14107 0.830496 0.917397 0.842821 0.426005 8.00476 12.1047 15.1567 16.5042 17.5781 17.7078 17.8127 17.5187 16.7146 16.4448 15.5045 14.9622 15.042 14.7795 13.631 13.0718 12.6141 12.1249 11.7779 11.1133 10.8676 10.7716 10.0677 9.58474 9.03566 8.40008 8.22906 7.97315 7.71826 7.1562 6.77975 6.57327 6.255 5.50234 5.35131 5.3085 4.64035 4.32536 4.42157 3.97186 3.54927 3.52899 3.20465 3.28131 2.94386 2.91465 2.59185 2.45225 2.08539 2.09265 1.74703 1.73022 1.72189 1.49836 1.28852 1.52507 1.16629 1.11516 0.946869 0.641847 1.01621 0.604772 0.858124 0.763717 11.0639 15.2931 18.8664 20.0857 21.0293 21.4973 21.1966 20.209 19.9781 19.5481 18.6045 17.609 17.1587 16.6228 16.0078 15.464 14.3773 14.3357 13.8461 13.0378 12.5865 11.977 11.2128 10.5934 10.305 9.90858 9.42393 8.95725 8.07597 7.90182 7.50794 7.39195 6.9954 6.78703 6.1992 5.62969 5.32555 5.32857 4.73972 4.58982 4.2541 4.1096 3.56155 3.4343 3.35865 3.29475 2.51332 2.40228 2.08457 1.91788 1.93369 2.03324 1.33733 1.31675 1.23886 0.994035 0.831989 1.00772 0.90423 0.983695 0.694387 0.626146 0.804934 0.581779 15.1745 19.7695 23.5343 24.0688 25.0695 24.9081 24.4176 23.9923 23.2817 22.4851 21.9601 20.9653 20.152 19.2497 18.6692 17.5835 16.637 16.3216 15.4221 15.0666 14.4693 13.7553 13.2325 12.7157 11.7342 10.933 10.84 9.94504 9.91872 9.13853 8.45482 7.91539 7.60246 7.33784 7.18351 6.35857 6.01158 5.51505 5.5936 4.93019 4.47083 3.99522 3.7714 3.63948 3.36501 2.94769 2.25393 2.61866 2.04788 2.29151 1.88372 1.55718 1.7199 1.50772 1.15318 1.0229 0.854874 0.949774 0.991524 0.698737 0.984132 0.585104 0.769799 0.712567 21.2169 24.9732 26.7368 27.9986 28.5483 28.2653 28.0565 27.1057 26.6316 25.4791 25.0068 24.0596 23.4889 22.5072 21.2795 20.2613 19.7495 18.8512 17.56 16.8232 16.4857 15.6248 14.3998 14.1503 14.2078 12.8966 12.2513 11.6788 11.0665 10.5063 9.87798 8.85348 8.40239 8.56971 7.7777 6.86193 6.39847 6.40204 6.31817 5.44119 5.16097 4.30246 4.09985 3.37452 3.29452 3.56358 2.84226 2.7153 2.41749 2.28477 1.97103 1.7274 1.38091 1.33812 1.12882 1.00178 1.04501 1.1177 1.04918 0.498783 0.866671 0.595337 0.800604 0.457935 24.8719 25.9296 27.4014 28.6196 28.5778 28.4111 28.2819 27.8759 26.922 25.9906 25.4955 24.7736 23.6606 22.7636 21.4734 20.9411 19.53 19.2963 18.5911 17.9493 16.6332 15.9525 14.8001 14.3007 14.2638 12.9817 12.3464 11.7345 11.4168 10.6328 10.0742 8.98917 8.85894 8.17764 7.64736 6.86685 6.29815 5.8924 5.19721 5.53511 4.71445 4.1125 4.05134 3.59084 3.38202 3.19703 2.85142 2.30333 2.45366 1.9517 1.881 1.38842 1.49232 1.2031 1.15562 0.635986 0.865096 0.813621 0.806971 0.897981 0.644325 0.524765 0.65739 0.695668 16.5651 21.0168 23.7037 24.7621 24.6712 24.9564 24.9206 24.0147 23.8697 23.2472 22.4666 21.9411 20.6159 19.2898 19.4798 18.5144 17.384 17.3971 15.9 15.7431 14.5098 13.7799 13.3672 12.8417 12.5811 11.9002 11.2701 10.5362 10.0555 9.39662 9.34147 8.69556 7.69781 7.20012 6.37925 6.01087 5.96694 5.13894 4.78684 4.56098 4.34619 3.91452 3.40956 3.49873 3.15472 3.28163 2.81517 2.34332 2.40239 2.05781 1.99415 1.53959 1.22589 1.39587 1.27452 1.00816 0.940123 0.742625 1.03589 1.02829 0.629502 0.47316 0.447616 0.629162 11.6823 16.1277 19.3899 21.2126 21.7417 22.2462 21.6021 21.337 20.8691 20.5826 19.1255 19.232 17.7006 17.7094 16.5571 15.957 15.3928 14.8458 13.697 13.1563 12.7022 12.2979 11.7965 11.319 10.1348 10.2769 9.85272 8.90196 9.12678 8.23967 7.61144 7.10667 7.019 6.47094 5.82273 5.43329 4.97317 4.78976 4.46508 3.95004 4.13152 3.9472 3.61776 3.41819 2.73845 2.71056 2.79141 2.39986 2.18597 2.02037 2.00472 1.5059 1.59729 1.52206 1.1478 1.28735 0.881032 1.19111 1.01114 0.832633 0.698822 0.494557 0.5579 0.868237 8.40744 12.6337 15.5925 18.0563 18.3132 18.8441 18.2256 18.3039 17.6266 17.2958 16.6205 15.9364 15.3194 14.4659 13.9787 13.329 12.7592 12.6535 12.4364 11.4153 10.921 10.4347 9.49196 9.59444 9.49822 8.71806 7.99893 7.91048 7.44565 7.23363 6.5394 6.04416 5.61275 5.40901 5.21822 5.09528 4.42378 4.25344 3.93601 4.01623 4.03601 3.54084 3.0342 3.04757 2.91156 2.49887 2.26421 2.35865 2.12767 1.85781 1.57104 1.53305 1.47331 1.68996 1.3924 1.00535 0.919534 1.21365 1.30964 0.991966 1.00661 0.557192 0.454168 0.428295 5.79473 9.51044 12.3498 14.2372 15.4063 15.6925 15.3986 15.2756 14.468 14.3979 13.9232 13.263 13.2248 12.7 11.6881 11.2097 10.5628 10.0427 9.545 9.25737 9.15937 8.46332 8.22468 8.08158 7.69239 7.46586 6.66981 6.46766 6.25097 5.83565 5.53676 5.3497 4.92805 4.92791 4.59815 4.57931 4.30073 4.20089 3.65008 3.78693 3.48457 3.52333 3.04382 2.96452 2.65002 2.84958 2.49783 2.52661 2.29955 1.68912 1.82179 1.88724 1.61939 1.43304 1.44698 1.19377 1.22327 1.2276 0.924492 1.15071 0.904723 0.685699 0.791831 0.737014 3.8973 7.62443 9.84999 11.3004 11.8293 12.0703 12.0128 12.0913 11.4113 11.2709 10.6692 10.6389 9.92977 9.5469 9.19835 8.87842 8.61565 8.80482 8.11446 8.03328 7.38869 7.09955 7.105 6.87425 6.4482 6.27094 5.81219 5.69256 5.73507 5.38665 5.04643 4.77723 4.49875 4.61917 4.29795 4.29588 4.02016 3.7499 3.7285 3.54859 3.5492 3.14254 2.98754 2.9131 2.74433 2.48126 2.31396 2.58482 2.11092 2.2279 1.97956 1.74162 1.61932 1.37833 1.73178 1.32159 1.05013 1.22497 1.15696 1.04342 0.669745 0.781388 0.651319 0.434364 2.47426 5.55907 7.98286 9.0756 9.69543 10.0778 9.98742 9.99695 9.75475 9.37208 8.96114 8.59861 8.31277 8.36286 7.71118 7.39536 7.32015 7.06534 6.59494 6.50377 6.60699 6.07374 6.14369 5.82835 5.76756 5.6752 5.17148 5.20693 4.74094 4.84997 4.65605 4.50985 4.42566 4.16068 4.10567 3.88421 3.74168 3.86036 3.42475 3.27078 3.19574 3.00263 2.86936 2.89146 2.90178 2.32004 2.24359 2.51273 2.22929 2.33967 1.82324 1.79504 1.51851 1.62616 1.85315 1.41096 1.13599 1.19392 0.964116 0.934178 0.787381 0.770001 0.850733 0.852353 1.59111 4.82324 6.89052 8.06363 8.55292 8.65624 8.60993 8.48592 8.34105 7.86664 7.59495 7.41414 7.30245 6.92102 6.56592 6.47313 6.3829 6.24628 6.11775 5.79489 5.832 5.54775 5.52851 5.44816 5.1878 4.95382 4.99832 4.67878 4.59549 4.55866 4.37403 4.38075 4.15298 4.08819 3.92571 3.70115 3.6684 3.4569 3.64598 3.25275 3.17978 2.88739 2.88134 2.62463 2.65813 2.5222 2.29642 2.40856 2.2295 2.07774 2.09883 1.82906 1.76392 1.33852 1.39424 1.42682 1.21638 1.32547 0.963298 1.04641 1.20212 0.788166 0.424483 0.755071 1.59407 4.63572 6.77295 8.0427 8.80412 8.75943 8.56178 8.62277 8.05122 7.85977 7.46316 7.16649 7.15678 6.95505 6.80397 6.80054 6.31975 6.14218 6.02583 5.85829 5.97686 5.66949 5.55111 5.25342 5.2722 5.0288 4.75814 4.7685 4.6677 4.50002 4.24931 4.24023 4.15383 3.86996 3.82497 3.69792 3.8878 3.64329 3.35246 3.2433 2.97749 2.95177 3.21936 2.67965 2.82703 2.54022 2.46279 2.47724 2.2516 2.26044 2.23089 2.1802 1.7274 1.54877 1.40878 1.20782 1.33208 1.52743 1.00794 0.9906 0.965088 0.873058 0.754494 0.747577 2.43852 5.84101 7.72961 9.07917 9.82898 9.92736 9.83901 10.1947 9.39291 9.39749 8.57429 8.26699 8.06022 7.96138 7.47399 7.27534 7.18215 6.9424 7.0285 6.5316 6.40019 5.97974 6.08237 5.80801 5.58529 5.43228 5.1798 4.94162 4.94092 4.68659 4.64506 4.5008 4.35625 3.91739 3.97256 3.78516 3.82976 3.72338 3.52522 3.41836 3.18504 3.06889 2.96883 2.76041 2.65515 2.56583 2.62503 2.36835 2.05304 2.00996 2.27214 2.05544 1.97047 1.52375 1.5036 1.60424 1.1961 1.4395 1.15054 0.946263 0.828369 0.786223 0.425047 0.714877 3.75752 7.6718 9.68598 11.1852 12.1476 12.4887 12.1516 11.6666 11.6877 11.0666 10.9142 10.8205 10.1959 9.58851 9.53664 9.04266 8.79337 8.36628 8.04106 7.78259 7.85778 7.14428 6.86983 6.7549 6.34775 6.45053 6.11867 5.85218 5.68139 5.51394 5.13237 5.02186 4.62925 4.41685 4.1999 4.09291 3.98328 3.97867 3.90392 3.3378 3.2689 3.25817 2.75983 2.79118 2.69879 2.54525 2.31295 2.21441 2.19135 1.94687 1.83811 1.61586 1.81127 1.41514 1.50875 1.42293 1.0428 1.27227 0.957053 1.03767 0.561153 0.673257 0.613418 0.895103 5.31679 9.35871 12.0783 13.8263 15.1307 14.7227 14.4685 14.6774 14.2457 13.772 13.1615 12.7601 12.5072 11.9465 11.5275 11.106 10.5811 10.0179 9.67445 9.21399 9.30239 8.64511 8.20746 7.66968 7.5712 7.19854 6.81955 6.89835 6.49868 6.08908 6.05297 5.68078 5.54952 5.12134 4.88378 4.4818 4.66704 4.10531 4.02482 3.69996 3.3742 3.41937 3.00474 2.8976 2.86724 2.44636 2.6277 2.34263 2.04893 2.26982 1.77782 1.61198 1.68445 1.46789 1.62368 1.34591 0.976915 1.02003 1.1333 0.673638 1.09584 0.552511 0.585748 0.646114 7.80491 12.3053 15.0403 16.8296 17.7026 17.7036 17.629 17.7726 16.6252 16.2427 15.7589 15.3517 14.8717 14.099 13.8193 13.2954 12.9264 12.2324 11.6056 11.2582 10.3663 10.3696 9.44744 9.16391 9.00405 8.32376 7.9005 7.5946 7.306 7.08821 6.69769 6.24586 5.72098 6.10804 5.5584 4.96395 4.8988 4.37138 4.09341 3.76297 3.75838 3.26661 3.23222 3.05062 2.9082 2.60799 2.64551 2.47375 2.12803 2.02678 1.71131 1.76325 1.72124 1.67631 1.22765 1.27584 1.51931 1.24693 1.09493 0.932356 0.463846 0.683529 0.295686 0.47708 10.9348 15.5242 18.7774 20.7939 21.2539 21.6379 20.9528 20.9346 20.1438 19.6159 18.5408 17.9256 17.3871 17.0581 15.6395 15.2417 14.7801 14.2023 13.3576 13.0315 12.5217 11.8082 11.32 10.6494 10.3129 9.78258 9.21319 8.81951 8.1005 7.91162 7.42184 6.91109 6.64762 6.47417 5.91827 5.81322 5.45382 4.91532 4.77098 4.06825 4.06068 3.97783 3.51288 2.98806 3.24806 2.65966 2.77432 2.52094 2.28109 2.09971 1.84445 1.54336 1.50693 1.72132 1.46245 1.22535 0.85556 0.83225 1.08097 0.799032 0.654249 0.646663 0.487218 0.51296 15.0333 19.7006 22.6696 24.3595 24.4383 24.9608 24.8066 23.6883 23.7426 22.5634 21.9928 21.0435 20.2111 19.35 18.5073 17.8197 17.4059 16.2228 15.6263 15.0608 14.1381 13.8574 12.9044 12.439 11.5028 11.1492 10.7678 9.96625 9.97603 9.07045 8.60258 7.80934 7.65707 7.12643 6.84204 6.39657 5.97488 5.61209 5.05258 4.98956 4.24314 3.99088 3.50985 3.68724 2.85463 2.94794 2.78087 2.4454 2.48037 2.09798 1.84233 1.60363 1.40754 1.26761 1.55865 0.843614 1.15013 0.57846 0.625125 0.691172 0.791432 0.513956 0.716986 0.713195 21.1679 24.6781 26.5828 27.7561 28.0827 27.782 27.5368 27.8796 26.2446 25.9285 25.0124 24.4148 23.6227 22.5343 21.4251 20.3074 19.175 18.5069 17.9492 17.0433 16.498 15.5043 14.9608 14.3696 13.4704 13.1614 12.5024 11.5933 10.8119 10.5659 10.0473 9.28455 8.84237 7.88053 7.34056 7.18108 6.51731 6.07668 5.87484 5.39103 5.01148 4.45837 3.95992 4.14683 3.35178 3.35885 2.69232 2.88501 2.15222 2.4166 2.11139 1.81343 1.63478 1.27755 1.01923 1.43357 0.610031 1.00755 0.634359 0.731 0.663102 0.516104 0.364928 0.606618 24.6922 25.9809 27.3571 28.0679 28.1534 28.3294 28.6833 28.1929 26.8494 26.6179 25.4394 24.7645 24.12 22.9903 21.9273 21.0887 20.2647 19.0754 18.631 17.5711 16.5079 15.5616 15.198 14.2644 13.7158 13.0912 12.3645 12.0465 10.9316 10.4014 9.57492 9.71912 8.81054 7.7837 7.88263 6.94571 6.39271 6.2122 5.60539 5.01235 4.91151 4.40025 3.93245 3.74948 3.02411 3.02332 2.80526 2.83277 2.51976 1.99647 1.84729 1.45792 1.38663 1.43874 1.33629 1.05088 1.04857 0.728916 0.552884 0.527961 0.360574 0.57229 0.476572 0.700584 16.7439 20.8046 23.119 24.7526 24.6983 25.0697 24.7423 24.8367 24.4787 23.6896 22.3978 21.7055 20.9469 20.0202 19.2247 18.0983 17.4679 16.5333 16.3079 15.1367 14.8923 14.3327 13.2847 12.4272 11.9707 11.5525 11.1367 10.9526 10.0091 9.30572 8.05342 7.91568 7.84541 7.03403 7.04777 6.47385 5.76648 5.50662 5.21894 4.81558 4.47527 3.67342 3.73427 3.1741 2.87739 2.98349 2.46421 2.39808 2.08574 2.5599 1.70115 2.05185 1.37093 1.4296 1.17935 0.97508 0.917691 0.943288 0.690919 0.681923 0.734097 0.651868 0.507448 0.448899 11.4159 15.9764 19.1841 21.2907 21.825 21.7159 21.9739 21.7255 20.5261 20.3053 19.4839 19.0505 18.3421 17.5117 16.6726 16.2079 15.2549 14.5524 14.0757 13.4103 12.8196 12.6549 11.5773 11.3041 10.348 10.3685 9.42617 9.12766 8.72228 8.27888 7.27326 7.209 7.14634 6.32768 5.94855 5.42955 4.9083 5.04641 4.462 3.94521 3.8198 3.75139 3.49991 3.22857 3.16983 2.75141 2.90053 2.47432 2.4153 1.99223 1.72964 1.73246 1.53711 1.61581 1.10183 1.19782 0.991286 0.657481 0.657184 0.696477 0.928306 0.563458 0.705073 0.919314 7.94887 12.6389 15.6543 17.5453 18.2394 18.2858 18.841 18.4155 17.8215 16.8515 16.4652 16.1087 15.3793 14.831 13.9897 13.7911 13.1337 12.7624 11.9093 11.6227 10.8581 10.3253 9.84085 10.0841 9.29174 8.63101 8.52403 7.50917 7.34413 6.91122 6.24453 5.87662 5.77653 5.39459 5.0886 5.10339 4.69232 4.32031 4.2208 3.76613 3.70459 3.61537 3.17033 2.91875 2.63681 2.68826 2.53702 2.49564 2.02161 1.81968 1.82882 2.02834 1.37755 1.45871 1.11029 1.427 0.978798 0.815916 0.983076 0.823395 0.623759 0.875069 0.907451 0.898738 5.57866 9.50076 12.434 14.4705 15.6624 15.719 15.5567 15.1907 14.5287 14.1669 14.0845 13.9359 12.8999 12.0962 11.6688 10.6709 10.6695 9.81545 9.48249 9.30204 9.30602 8.44131 8.03844 7.79332 7.3269 7.34 7.04328 6.74067 6.36263 5.86491 5.77714 5.51006 5.15398 4.81386 4.86093 4.51995 4.00322 3.88962 3.85661 3.82846 3.62168 3.26776 3.02504 3.06315 2.83483 2.47934 2.4544 2.42772 2.42109 2.01367 1.76309 1.94869 1.41069 1.32237 1.32011 1.35008 1.24879 0.778771 0.687702 0.825058 0.789929 0.559847 0.54343 0.699864 3.93675 7.41542 9.87217 11.7207 12.2475 12.1939 12.0842 11.9823 11.7189 11.2902 10.9339 10.629 9.92471 9.53623 9.56265 9.10008 8.63564 8.53452 8.23055 7.77409 7.39858 7.14507 7.19976 7.01526 6.422 6.15773 6.01838 5.68821 5.75037 4.95018 5.02782 4.76934 4.61301 4.63038 4.34705 4.01915 4.05889 3.86719 3.72771 3.41487 3.49802 3.07922 3.00451 2.86366 2.82146 2.59683 2.77126 2.48994 1.86982 2.36563 2.04481 1.70811 1.60911 1.52225 1.35172 1.25133 1.22105 0.946781 0.975781 1.07792 0.918546 0.634399 0.574375 0.720754 2.94136 5.78258 8.18563 9.38303 10.0524 10.2049 10.3033 9.79889 9.51707 9.34194 9.03224 8.68454 8.29008 7.94307 7.5468 7.42597 7.0426 7.3251 6.48809 6.51464 6.08055 6.22252 5.9624 5.76592 5.5669 5.44585 5.28594 5.26032 4.94528 4.5201 4.5515 4.48295 4.02227 4.04087 4.01572 3.898 3.81078 3.88625 3.77384 3.4934 3.1268 2.94491 2.8292 2.70648 2.60458 2.55306 2.58859 2.10574 2.30352 2.1334 2.05493 1.91442 1.51381 1.49143 1.42902 1.21962 1.17331 1.12645 1.03486 0.707615 1.20731 0.745756 0.576656 0.525091 1.91898 5.03593 7.16002 8.23434 8.70533 9.00766 8.83016 8.64019 8.20154 8.15272 7.50197 7.46111 7.18295 6.81189 6.5711 6.42669 6.19663 6.09887 5.76967 5.88866 5.71954 5.56325 5.32963 5.31981 4.91417 4.87289 4.77001 4.7272 4.84671 4.33016 4.21834 4.29298 3.95315 3.87624 3.82346 3.7118 3.53268 3.63099 3.25167 3.17802 3.09177 2.96646 3.00622 2.83834 2.85317 2.38678 2.6161 2.08936 2.37324 2.0176 1.9236 1.61185 1.59481 1.46426 1.5106 1.30266 1.09869 1.07871 1.01774 0.908724 0.759025 1.23982 0.840354 0.843627 1.67737 4.9854 6.97537 8.25297 8.84709 8.96455 8.8367 8.50489 8.24784 8.05506 7.64199 7.25849 6.93545 6.86616 6.59371 6.50192 6.22737 6.1033 6.00827 5.67372 5.60104 5.77918 5.35241 5.41724 5.16828 4.83649 4.68827 4.59849 4.6676 4.47178 4.20775 4.23426 4.34446 3.76881 3.85886 3.71388 3.58977 3.68029 3.43872 3.0069 3.15897 2.83692 2.76588 2.55298 2.69415 2.58012 2.35216 2.19289 2.28575 2.08215 1.84549 1.66439 1.72405 1.59296 1.44012 1.31066 1.46203 1.22141 0.998446 1.02057 0.878963 0.664985 0.720547 0.722923 2.70611 5.92772 8.37757 9.70459 9.87227 10.2527 10.1322 9.83339 9.79775 9.03141 8.56457 8.50202 8.17616 7.85755 7.56968 7.26175 7.06044 6.91457 6.61579 6.51238 6.14817 6.07017 6.09008 5.72649 5.48765 5.28278 5.154 4.87512 4.99817 4.70892 4.76763 4.40836 4.37586 3.9483 3.96346 3.84948 3.6619 3.7887 3.41929 3.26689 3.33463 2.81018 2.88286 2.94908 2.69335 2.47623 2.73494 2.34226 2.46409 2.19871 1.91193 2.14452 1.67239 1.60244 1.49128 1.15315 1.18676 1.23984 1.22183 0.774437 0.953514 0.708119 0.835559 0.498395 3.52681 7.53231 9.94391 11.6536 12.264 12.3105 12.1997 12.1525 11.56 11.1655 10.7797 10.7539 10.1988 9.72865 9.55109 8.8258 8.38067 8.11563 7.93827 7.76276 7.53444 7.09509 6.91568 6.55034 6.39028 6.35888 5.87113 5.96545 5.42501 5.32795 4.96725 4.80014 4.57913 4.51051 4.54135 4.51643 3.86266 4.06597 3.36607 3.61149 3.40489 3.03684 2.97431 2.98245 2.66734 2.46208 2.27904 2.4232 2.18808 1.84808 2.2993 1.68767 1.5741 1.38633 1.74797 1.52359 1.20388 0.861045 1.14967 1.05203 0.938315 1.16077 0.539983 0.621604 5.13206 9.44189 12.3479 13.9202 14.6931 14.8275 15.5288 14.8736 14.2074 13.9107 13.3545 13.0045 12.6946 11.9754 11.4366 10.916 10.4644 9.94692 9.70686 9.26129 9.0441 8.66839 8.28887 7.7598 7.26111 7.3169 6.84535 6.8447 6.35827 6.08977 5.85557 5.5454 5.30711 5.22174 4.94796 4.56562 4.33321 4.10834 4.06815 3.50757 3.47993 3.21081 2.97709 2.98371 2.99523 2.53835 2.5326 2.38259 1.95577 2.34789 1.79369 2.01232 1.42128 1.64968 1.25009 1.18601 1.50054 0.925824 0.916901 0.711302 0.943679 0.789924 1.02774 0.468487 7.59869 12.0884 15.3014 17.0894 17.532 17.8645 17.6347 17.7949 16.9446 16.6881 15.7685 15.5027 15.0595 14.5888 13.948 13.2883 12.7522 12.0994 11.5117 11.0732 10.6534 10.2628 9.90957 9.26033 9.21713 8.40526 7.89203 7.32203 7.43437 6.85888 6.30705 6.31431 5.96359 5.93634 5.45149 5.06638 5.04345 4.47583 4.37011 4.00783 3.5772 3.7183 3.30056 3.51718 2.93543 2.59698 2.387 2.47085 2.31651 2.08015 2.17286 1.7353 1.56128 1.53307 1.45178 1.04273 1.30561 1.0304 0.825679 0.876175 1.08971 0.574273 0.983633 0.488037 11.0608 15.0433 18.3734 20.1983 21.4475 21.4125 21.2159 20.6997 19.8179 19.8641 18.8608 17.9839 17.3175 16.2938 16.1494 15.6122 14.8735 14.2067 13.4999 13.3337 12.262 12.0639 11.15 11.0458 10.2565 10.0303 9.41055 9.11559 8.19655 8.05586 7.46641 7.2062 6.86784 6.46445 6.23247 5.69967 5.50568 5.41275 4.83249 4.22022 4.02243 3.96936 3.77012 3.32752 3.04144 2.91612 2.63827 2.56749 2.1333 2.09867 1.74868 1.99092 1.59877 1.34902 0.962607 1.20446 0.735456 1.09219 0.96887 0.709361 0.724314 0.651187 0.548225 0.657631 15.0313 19.4995 22.75 24.0568 24.6033 24.6672 24.5015 24.0563 23.7833 22.5913 21.6133 20.7047 19.7095 19.5485 18.179 17.7933 17.1384 16.6884 15.8177 15.016 14.2016 13.6177 13.109 12.949 12.0214 10.7982 10.6199 10.3437 9.89866 9.47798 8.43983 8.0337 7.45135 6.90596 6.49882 6.44693 6.1484 5.79915 5.19297 4.878 4.46797 4.32701 3.80113 3.32826 3.20917 3.01952 2.64746 2.55301 2.19761 2.03156 2.0634 1.49588 1.4158 1.49678 1.25522 1.08288 0.820554 1.01496 0.865369 0.73677 0.677429 0.458886 0.89101 0.334941 21.3572 24.1124 26.7192 27.919 28.3957 27.9328 27.7706 26.9913 26.3253 25.7773 24.8591 23.8762 23.7907 22.4539 21.4832 20.3331 19.2228 18.6455 17.8365 17.0664 16.6473 15.7082 15.5985 14.3377 14.1039 12.8704 12.0458 11.7192 11.2872 10.5637 9.71492 9.31501 8.43972 8.36802 7.84046 6.88797 6.64238 6.19987 5.8934 5.50713 4.94669 4.77148 4.1466 3.72469 3.45329 2.84071 3.04271 2.51987 2.47604 2.50205 1.69873 1.68231 1.3777 0.873037 1.05102 1.14093 1.06404 0.814756 0.989056 0.529261 0.554166 0.796833 0.799161 0.808435 24.8225 25.9138 27.1846 27.7702 28.4298 28.4251 28.3291 27.857 27.1323 25.9653 25.4622 24.4288 23.986 22.8429 21.9269 20.9657 20.6197 19.3973 18.5534 18.1265 16.9634 15.9955 15.3595 14.4688 13.4853 13.2574 12.4032 11.8143 11.1789 10.4382 10.0749 9.54591 8.66547 8.12751 7.56754 7.4794 6.60402 6.09835 5.81326 5.11855 4.77384 4.43728 3.85078 3.56105 3.16606 3.52974 2.75392 2.43473 2.40336 1.99339 1.93103 1.57808 1.53413 1.2257 1.01588 1.02963 0.739096 0.625869 0.681372 0.514874 0.84116 0.448083 0.724953 0.659344 16.5833 21.0354 23.9082 24.7813 25.0872 25.1855 25.0493 24.145 23.4869 23.4347 22.6222 21.6451 20.8797 19.9261 19.3181 18.3816 18.0304 17.2838 16.6401 15.3375 14.5479 14.0421 13.6846 12.5329 12.2522 11.8438 10.9822 10.5832 9.84453 9.56693 8.83109 8.57938 7.88822 7.18118 7.0753 6.37387 5.87575 5.45757 5.08741 4.65298 4.27716 4.04218 3.40773 3.24805 3.03951 2.71691 2.85759 2.50947 2.11032 2.12571 1.76037 1.53218 1.48752 1.34767 1.32481 1.12432 1.15539 0.988792 0.661326 0.586749 0.626903 0.64163 0.598842 0.41904 11.5521 16.2784 19.5525 20.5298 22.0063 22.1292 21.7994 21.0154 20.6093 20.0137 19.6367 18.575 18.0886 17.1143 17.0112 16.3199 15.2353 14.6015 13.7258 13.5923 13.3249 12.2467 11.9517 11.7978 10.8862 10.3402 9.84855 9.70323 8.58137 8.54093 7.62741 7.21131 6.74473 6.26593 5.80989 5.5905 5.25547 5.28046 4.61861 4.34161 3.98157 3.60952 3.56886 3.27961 2.93676 2.72977 2.60723 2.20667 1.86269 2.02289 1.62412 1.63175 1.47539 1.23671 1.38731 1.25468 0.736406 1.13234 0.884677 0.697414 0.785457 0.71521 0.820044 0.559256 7.88444 12.6229 15.987 17.5158 18.851 18.958 18.7551 18.4944 17.5409 16.9633 16.3954 16.0084 15.5886 14.8936 14.4076 13.8806 13.2108 12.917 12.0318 11.7824 11.2738 10.7413 10.4293 9.56699 9.77594 8.74068 8.01656 8.21658 7.53784 7.00217 6.19591 6.23485 5.97456 6.04417 5.11416 5.09765 4.82427 4.57924 4.10159 3.83161 3.47116 3.32046 3.074 2.83412 2.7999 2.49015 2.37406 2.21477 2.00177 2.14752 2.00716 1.45167 1.61434 1.54936 1.45627 1.10681 1.07445 0.821195 0.936186 0.803766 0.704584 0.864458 0.530398 0.592145 5.57494 9.6128 12.4602 14.2639 15.557 15.8267 15.2062 15.5005 14.6743 14.2407 13.8819 13.5009 12.9389 12.3257 12.3161 11.3614 11.0409 10.1225 9.78799 9.18809 9.14213 8.50349 8.38247 7.79307 7.82587 7.31957 7.476 6.48736 6.32126 6.08694 5.66769 5.42596 5.26166 4.98794 4.82608 4.55829 4.74686 4.00254 3.85003 3.96389 3.25388 3.32401 2.77441 3.04822 2.48189 2.58065 2.47923 2.45557 2.1205 1.94784 1.92851 1.58769 1.68475 1.32572 1.5248 1.31349 0.86218 1.04099 0.872217 0.766407 1.0739 0.783901 0.661202 0.832475 3.80654 7.50812 10.1364 11.3802 12.1042 12.3862 12.2597 12.2932 11.4606 11.0678 11.1666 10.2833 10.2738 9.54634 9.00111 8.9575 8.71421 8.31047 7.87974 8.04116 7.55849 7.11694 6.8936 6.75316 6.65063 6.00506 6.00405 5.76627 5.53264 5.38165 5.01952 5.02067 4.53501 4.58358 4.3289 4.00231 4.09476 3.80324 3.68432 3.9113 3.16998 3.18731 3.06302 2.64024 2.76489 2.80585 2.44336 2.12182 1.91376 1.93226 1.88015 1.70838 1.57378 1.60903 1.4641 1.09465 1.2943 1.16515 0.862071 0.577359 1.0875 0.752254 0.984032 0.324823 2.79462 6.20832 8.32617 9.49109 10.1042 10.4284 10.0692 10.1243 9.64917 9.30648 8.85904 8.65216 8.37026 8.02661 7.61403 7.47949 7.12695 7.05853 6.59647 6.54018 6.16731 6.13023 5.79002 5.88224 5.73827 5.64821 5.28754 4.92137 5.09682 4.77273 4.64042 4.0801 4.16802 4.16322 3.7556 3.84366 3.46391 3.52731 3.33081 3.38188 3.09489 2.86754 2.87497 2.76465 2.78307 2.43276 2.13717 2.1964 2.25831 1.85293 1.63697 1.95284 1.42253 1.60422 1.32885 1.39481 1.04494 1.2533 0.980879 1.2528 0.828357 0.714392 1.06393 0.5095 1.88466 5.23546 7.26793 8.42203 8.91754 8.99593 8.98092 8.8381 8.34344 7.94549 7.62005 7.39838 7.06632 6.93232 6.79392 6.3153 6.38149 6.04351 5.97646 5.781 5.50119 5.56969 5.30225 5.21385 5.12083 4.77287 4.64438 4.44636 4.59815 4.32641 4.28391 4.10416 3.81052 3.87517 3.81601 3.78638 3.49837 3.49288 3.23926 3.30033 2.96992 2.73619 2.59347 2.65979 2.5139 2.36758 2.28495 2.05189 2.04796 1.99368 1.82994 2.01385 1.59349 1.47894 1.50414 1.12069 1.12328 1.01311 1.11021 0.982149 1.25365 0.603937 0.649717 0.521426 1.80254 4.91778 7.27199 8.60346 8.875 9.14687 8.89559 8.48622 8.28821 8.06571 7.56189 7.21833 6.93048 6.69395 6.53251 6.35298 6.18795 6.06375 5.80253 5.65326 5.4261 5.47657 5.16223 5.36792 4.9068 4.78848 5.00407 4.81205 4.48754 4.33824 4.06252 4.14137 4.13893 4.03706 4.05413 3.69492 3.46841 3.33397 3.19621 3.22875 3.05 2.80728 2.73012 2.69902 2.70506 2.60095 2.36413 2.17043 1.96737 1.8225 1.77049 1.90048 1.62641 1.46918 1.29328 1.38852 1.24044 1.19672 1.01613 0.8034 0.856318 0.888504 0.587056 0.590244 2.46942 5.87801 8.05237 9.72403 10.0347 10.2728 10.1333 9.96529 9.86921 9.19216 8.73796 8.5359 8.18606 7.78351 7.53007 7.38655 7.34809 6.84546 6.83172 6.17077 6.14248 6.1064 5.91767 6.14053 5.38776 5.41237 5.34816 5.08292 4.84809 4.86944 4.54554 4.18696 4.1817 4.22 4.01893 3.80076 3.8573 3.59662 3.38908 3.32843 3.19537 2.97242 3.23509 2.77447 2.58175 2.61632 2.33268 2.31687 2.35602 1.96348 1.88156 1.71661 1.62559 1.71747 1.58842 1.23411 1.34563 1.07387 1.2228 1.02417 0.8872 0.641432 0.595989 0.747037 3.8694 7.42125 9.84608 11.4849 11.8751 12.4042 12.2279 11.9929 11.5825 11.66 10.8419 10.7927 10.1108 9.64366 9.25336 8.79638 8.42616 7.82008 7.86899 7.62713 7.45516 7.09679 6.74407 6.5393 6.53359 6.09528 6.14302 5.90063 5.60972 5.29519 5.15603 4.97395 4.56115 4.50495 4.14396 4.05061 3.84162 3.92933 3.62548 3.36896 3.21022 3.24609 3.05669 2.91957 2.57247 2.49824 2.13471 1.9896 2.22981 1.91672 1.91389 1.55438 1.64227 1.60834 1.53731 1.26648 1.12937 1.35753 0.895513 0.933851 0.741359 0.917442 0.765035 0.629082 5.24924 9.59923 12.2637 13.795 14.4917 15.2166 15.0437 14.6657 14.1727 13.9153 13.1079 12.9492 12.1983 11.9598 11.2144 10.7159 10.6567 10.3423 9.84947 9.13671 9.03992 8.56106 8.33196 7.9373 7.49293 7.11682 6.91148 6.72384 6.45576 5.85846 6.05839 5.70341 5.55426 4.90927 4.90184 4.41075 4.47827 4.24474 3.9279 3.8256 3.70511 3.54361 2.83521 3.07921 2.97353 2.55736 2.32559 2.49582 2.13622 2.07559 1.88916 1.68464 1.56898 1.49459 1.22695 1.365 1.37653 1.14292 1.24692 0.985144 0.452082 0.758633 0.71236 0.720341 7.5982 12.1868 14.8265 16.5296 17.7212 18.037 17.5977 17.3848 16.7402 16.5271 15.9892 15.3926 15.0661 14.1583 13.6619 13.7223 12.5458 12.3775 11.5495 10.8565 10.5502 10.392 10.0504 9.53276 9.09357 8.81104 8.10568 7.70448 7.24054 7.08445 6.54946 6.54426 6.03756 5.61268 5.50802 5.15609 4.83112 4.60904 4.48713 3.65998 3.77663 3.22722 3.50195 2.92005 3.18022 2.64641 2.57021 2.30108 1.92164 1.98367 1.80318 1.65122 1.60925 1.39373 1.38162 1.35388 0.868473 0.932408 1.25949 0.493013 0.825192 0.693202 0.681431 0.572867 10.6696 15.267 18.237 21.1231 21.3615 21.7486 21.1748 20.3008 20.4885 19.7567 18.8707 17.8977 17.4438 16.6567 16.0537 15.1396 14.6568 14.071 13.7274 13.1778 12.3452 12.1513 10.8624 10.8782 10.0109 9.87125 9.35228 9.19005 8.30272 7.85329 7.90355 7.22654 6.98576 6.67833 6.08431 5.77382 5.36212 4.95023 4.73722 4.24326 4.25754 3.85377 3.6052 3.22622 3.11026 2.88479 2.63602 2.46243 2.05057 2.00511 2.11906 1.30477 1.50982 1.48684 1.22599 1.19352 0.852753 0.955376 0.984621 0.874392 0.456759 0.931445 0.560417 0.589059 14.9838 19.493 22.626 23.831 24.9109 25.1028 24.3705 24.0648 23.3521 22.8511 22.3372 21.3136 20.0526 19.6632 19.0961 17.909 16.8612 16.3308 15.3635 15.0794 14.158 13.8325 13.2928 12.5695 12.2403 10.7674 10.807 10.0503 9.84676 9.21445 8.57917 8.00963 7.56562 7.18953 6.55706 6.58596 6.24469 5.55269 5.23273 4.99141 4.70644 4.0455 3.76336 3.42141 3.30575 3.06458 2.51933 2.41904 2.80127 2.03776 1.92604 1.66582 1.707 1.46268 1.15194 0.914081 0.907156 0.729278 0.682831 0.872943 0.758323 0.874427 0.593288 0.79811 21.3809 24.5804 26.0359 27.3945 27.5926 27.8208 27.6739 27.2722 26.5639 25.8024 25.2001 24.3683 23.7012 22.4139 21.7854 20.2986 19.4325 18.626 17.856 17.1348 16.5483 15.6964 14.63 14.3948 13.6264 12.8773 12.1439 11.2729 11.0449 10.0774 9.59232 9.33924 8.39988 7.86561 7.93978 6.89092 6.82894 6.08959 5.69674 5.26934 4.89249 4.41684 4.42024 3.83099 3.38499 3.14336 3.29192 2.66291 1.93893 2.25375 1.88979 1.60276 1.57491 0.979219 1.20889 1.15935 0.924752 0.696408 0.727847 0.554072 0.776161 0.537237 0.618883 0.491778 24.6937 25.8925 27.1024 27.8389 28.8465 28.7032 28.2643 27.9793 27.1261 26.0099 25.6563 24.5777 23.956 22.9452 21.9553 21.1611 20.1304 19.2707 18.6486 17.8395 16.7878 15.9653 15.359 14.527 13.6589 13.4266 12.3682 11.7752 10.9737 11.0777 10.084 9.34367 8.53339 7.75348 7.27093 7.09463 6.6767 5.9178 5.65627 4.92305 4.96529 4.44143 4.13887 3.82217 3.40051 2.76078 2.95174 2.67037 2.20909 1.91072 1.8259 1.76385 1.48586 1.23691 1.0183 0.924165 0.62425 0.804131 0.557423 0.559632 0.592667 0.803532 0.410701 0.659155 16.6305 20.8169 23.4554 25.0156 25.3735 25.4239 24.9733 24.9803 24.0228 23.3363 22.7089 21.6302 20.6514 20.3938 19.7331 18.3876 17.4697 16.8171 16.5736 15.3744 14.8427 14.0086 13.729 12.7666 12.4603 11.387 10.8401 10.5251 10.1352 9.77529 9.02963 8.51822 7.87921 6.72129 6.59161 6.783 5.77445 5.51187 5.16508 4.95203 4.13718 4.07684 3.38275 3.42613 3.14341 3.27195 2.57302 2.462 1.95103 2.04011 1.44386 1.53398 1.63622 1.69239 1.40501 0.915433 0.704732 0.671256 0.831879 0.694855 0.651805 0.704383 0.491767 0.616333 11.3077 15.9241 19.4611 20.8922 21.9061 22.2462 21.6123 21.0647 21.0011 20.1042 19.1497 19.2611 18.0028 17.6549 16.9116 16.0683 15.2032 14.7029 13.7993 13.3725 12.8811 12.0395 12.0557 11.1951 10.5299 10.2466 9.89494 9.31554 8.67666 8.30805 7.39324 7.25991 6.4337 6.1941 5.78347 5.55001 5.12919 4.81062 4.57095 4.46383 3.62895 3.47403 3.40897 3.09587 2.72481 2.49537 2.80219 2.39707 2.0438 1.9893 1.59232 1.90319 1.3791 1.49549 1.47105 0.930574 1.42212 0.693701 0.851734 0.596602 0.540829 0.60051 0.564855 0.8138 7.83806 12.6606 15.7247 17.5916 18.5262 18.7394 18.3057 18.2931 17.5753 17.0371 16.3859 15.7959 15.0073 14.8517 14.1008 13.5429 13.3273 12.5746 11.9119 11.602 11.1314 10.8453 10.3862 9.46774 9.26943 8.42428 8.12296 7.56242 7.40147 6.90273 6.32794 6.41964 5.72717 5.70927 5.33668 5.12475 4.75954 4.3528 4.18522 3.97195 3.68357 3.56408 3.19437 3.14122 2.66536 2.47784 2.41609 2.24563 2.15976 1.80837 1.86258 1.76983 1.4068 1.46712 1.44131 1.29428 0.913893 0.95859 0.85056 0.833942 0.701786 0.831486 0.537491 0.553019 5.51061 9.72858 12.6641 14.1728 15.2952 15.6557 15.648 15.294 14.7019 14.098 14.1605 13.7015 12.7074 12.2076 12.1386 11.1984 10.6732 10.1361 9.84654 9.38357 8.99574 8.52488 7.97877 7.77997 8.06763 7.15495 6.85215 6.55969 6.62232 5.94561 5.91145 5.35065 5.32552 4.60908 4.52057 4.58428 4.1138 4.3458 3.62116 3.51357 3.43652 2.97564 2.98061 2.78646 2.44807 2.37607 2.24336 2.23964 2.17891 1.96824 1.65484 1.80693 1.62685 1.60182 1.44688 1.03054 1.1609 1.06281 1.17439 0.961758 0.830471 0.632648 0.851228 0.772541 3.75 7.38678 10.1791 11.337 11.9971 12.2709 12.4058 12.0443 11.7483 11.4101 10.9728 10.5553 10.1161 9.7366 9.50764 9.03606 8.57101 8.30747 8.15007 7.64325 7.62312 7.14853 6.91256 6.53983 6.61762 6.12892 5.67359 5.5824 5.63294 5.26155 5.05173 5.04046 4.48517 4.46882 4.23091 4.0605 3.79851 3.69249 3.52511 3.59746 3.13314 3.15477 2.88231 2.87187 2.42953 2.19982 2.23381 2.46897 2.16161 1.99682 1.88522 2.00247 1.42904 1.74652 1.13088 1.32287 1.27652 0.893 0.880898 0.954794 0.994422 0.759791 1.19568 0.426507 2.48671 6.03141 8.23884 9.67649 10.2642 10.2377 10.1334 9.92363 9.49002 9.58166 8.89682 8.80196 8.35955 8.28833 7.66151 7.33837 7.11324 7.02482 6.95766 6.45058 6.17198 6.03618 5.85154 5.88771 5.7298 5.41995 5.12384 4.88868 4.68291 4.62279 4.83982 4.32688 4.15572 4.08112 3.88176 3.84262 3.86395 3.44231 3.18651 3.10657 3.16219 3.03212 2.99527 2.70719 2.65681 2.18544 2.28676 2.52707 2.27153 1.88059 1.84725 1.63166 1.74375 1.57872 1.53685 1.26194 1.16881 1.18463 0.725227 0.724563 0.629155 0.991912 0.618159 0.676779 1.76539 5.01104 7.3736 8.50277 9.03513 9.15892 8.98465 8.6067 8.48421 8.12766 7.6222 7.23845 7.11834 6.71745 6.51423 6.38002 6.15833 5.96561 5.71702 5.49639 5.57259 5.25645 5.2215 5.16026 4.96352 5.00966 4.67793 4.61883 4.49319 4.31465 4.20191 4.18816 4.02025 3.66347 3.70754 3.58529 3.48368 3.3339 3.06575 3.46726 2.98793 3.13013 2.84583 2.45612 2.55048 2.402 2.2367 2.10008 2.00353 2.06394 1.91699 1.69152 1.59011 1.62502 1.48511 1.28224 1.12498 0.840938 0.89733 0.938278 0.981056 0.436946 0.63054 0.928049 1.78153 5.02943 7.20151 8.39117 8.96985 8.9583 8.91983 8.60993 8.34578 7.90731 7.82962 7.33354 7.0709 6.77971 6.45862 6.24878 6.1187 6.04483 5.70256 5.49646 5.61525 5.29058 5.19956 5.131 5.08253 4.975 4.88312 4.58976 4.41031 4.16307 4.04487 4.18415 3.84039 3.75577 4.02952 3.6135 3.47752 3.35222 3.53216 3.09634 3.02058 2.8899 2.64723 2.50732 2.6283 2.44487 2.21969 2.27399 2.18811 2.27647 1.72735 1.72791 1.78466 1.47898 1.51365 1.49982 1.27142 1.05847 1.25529 0.758297 0.909792 0.863166 0.849906 0.800057 2.52158 5.99372 8.15599 9.84079 10.3579 10.2892 10.1459 10.1016 9.58779 9.27132 8.77855 8.46566 8.05202 7.84528 7.49522 7.34176 7.33265 6.99241 6.63447 6.49199 6.14064 5.98225 6.17566 5.71454 5.54226 5.47689 5.08547 4.8331 4.63912 4.75973 4.42945 4.76267 4.15873 4.20012 3.97162 3.74869 3.55133 3.47839 3.46947 3.20222 3.06223 2.82888 2.93376 2.77267 2.87429 2.61239 2.60892 2.38221 2.18242 2.18545 1.77763 1.54295 1.78025 1.61641 1.61718 1.28264 1.05449 1.42937 1.29822 0.943224 0.911653 0.572067 0.96464 0.547105 3.51152 7.58911 9.79653 11.5093 12.5706 12.5049 12.0299 11.7978 11.8802 11.1482 11.0815 10.2204 9.61912 9.6313 9.34644 8.69006 8.66318 8.10901 7.8594 7.56754 7.21137 7.10125 6.76043 6.57268 6.5047 6.12028 5.90033 5.87986 5.47979 5.39672 5.18965 4.83327 4.51996 4.46227 4.37428 3.99145 4.12321 3.85406 3.60725 3.56698 3.10722 3.33439 3.0109 2.7475 2.7646 2.50489 2.25897 2.15231 2.14326 2.16718 1.99955 1.72542 1.37051 1.34364 1.438 1.46872 0.97794 0.933244 1.07807 0.749639 0.796413 0.803082 0.617938 0.725111 5.10789 9.85205 12.0739 14.152 14.7009 14.7322 14.935 14.476 14.1381 13.9505 13.3444 13.1241 12.2588 11.9038 11.2983 11.2607 10.276 10.2966 9.56454 8.9485 8.87532 8.81651 8.55868 7.92837 7.27451 7.20928 6.89922 6.73072 6.34572 6.21762 5.65333 5.80412 5.3816 4.93287 4.89953 4.60352 4.37035 4.18855 4.09519 3.61317 3.54097 3.36909 3.26655 3.10548 2.98069 2.47297 2.25995 2.24265 2.08638 1.98038 1.98969 1.79731 1.75347 1.67995 1.44057 1.2894 1.14889 1.14766 0.904774 0.529866 0.628722 0.556948 0.776336 0.578318 7.41552 12.0827 14.9193 17.2018 17.9426 17.7942 17.7448 17.5519 17.1573 16.6743 15.8659 15.6324 14.9709 14.2202 13.7479 12.8595 12.6709 12.2507 11.6999 10.8397 10.6211 9.81322 9.72646 9.41993 8.90662 8.29947 8.01246 7.57971 7.25873 6.67506 6.55128 6.53625 5.9791 5.43102 5.49783 5.23382 5.0809 4.44313 4.5199 3.89222 3.68984 3.51349 3.15889 2.95904 2.9944 2.67493 2.5606 2.20489 2.28501 1.94725 1.77627 1.71647 1.6272 1.69895 1.36818 1.54013 1.44698 1.01352 0.9425 0.819628 0.743085 0.754997 0.78021 0.661038 10.5075 15.0573 18.3402 19.9985 20.8118 21.6476 21.3296 20.5384 19.8459 19.7342 19.0189 18.1287 17.7372 16.6629 16.4928 15.7237 14.2495 14.0528 14.0839 12.7308 12.5504 12.0584 11.2909 10.7013 10.1957 9.98749 9.14304 8.7362 8.12997 7.92343 7.50881 7.07684 6.90672 6.71015 6.06525 5.65718 5.5697 5.02136 4.4192 4.27031 3.83814 3.85406 3.51299 3.14456 3.32332 2.83721 2.62277 2.22582 2.21762 1.9319 1.65095 1.35257 1.59387 1.41985 1.40683 0.945564 0.803661 0.903474 0.8326 0.661677 0.558761 0.678012 0.787744 0.675616 15.3463 19.2969 22.8289 24.0716 24.7973 24.7454 24.0854 24.1505 23.5815 22.6321 21.8787 21.023 20.4599 19.5242 19.0451 17.817 16.9393 16.0892 15.4808 15.1171 14.3402 13.6764 13.5484 12.7762 12.012 10.9821 10.5522 10.419 9.64748 9.28499 8.87395 8.05134 7.55972 7.16725 6.76826 6.55192 6.05598 5.61788 5.29843 4.78367 4.25798 4.05327 3.96436 3.39618 3.63169 2.94499 3.00751 2.6368 2.54139 2.10082 1.95411 1.51192 1.36678 1.35402 1.14688 0.8698 1.1415 0.939618 0.414926 0.755049 0.580699 0.453081 0.371856 0.514973 21.4342 24.6197 26.9393 27.6919 27.8331 27.9205 28.0145 27.4046 26.4354 25.9077 25.1929 24.2321 23.529 22.3992 21.1632 20.4794 19.6678 18.4342 18.4326 17.0272 16.1942 15.8613 14.7911 14.0773 13.133 12.9152 12.2147 11.4879 11.2171 10.3202 10.0834 9.53973 8.22117 8.1272 7.50875 7.55465 6.49089 6.17083 5.68657 5.40615 5.28953 4.70198 4.09699 3.96604 3.31702 3.19947 2.77346 2.63679 2.35594 2.26447 1.85351 1.75881 1.1724 1.3914 0.981691 1.26502 0.821061 0.886909 0.714449 0.46967 0.290216 0.757173 0.780506 0.603546 24.8559 26.0404 27.0487 27.9469 28.2921 28.6067 28.1799 27.9694 26.8524 26.4193 25.3798 24.0955 23.6287 22.8913 21.6044 21.2083 19.6711 19.3791 18.3626 17.5692 16.8873 16.04 14.9528 14.0866 14.1757 12.8943 12.3443 12.0981 11.4533 10.475 9.56785 9.02412 8.79685 7.93011 7.81455 7.12687 6.35754 6.38024 5.77273 5.23375 4.65642 4.38328 4.03102 4.40532 3.1209 3.1819 2.79453 2.5291 2.4739 1.85152 1.98283 1.49542 1.16851 1.07904 0.930804 1.31032 0.976945 0.74238 0.746317 0.649606 0.818638 0.520356 0.457686 0.51069 16.5008 20.8194 23.1455 24.6462 25.2834 25.5855 25.1144 24.9414 23.9804 23.88 22.8013 22.2546 20.954 20.3521 19.4798 18.7655 17.1611 17.1609 16.6745 15.2502 14.8065 13.5021 13.4744 12.4994 11.96 11.6679 11.0572 10.2459 9.71029 9.61558 8.90583 8.26156 8.05826 6.9702 6.80738 6.56666 5.70142 5.15343 5.34842 4.64128 4.27812 4.2218 3.94228 3.54087 3.39944 2.80221 2.88866 2.42222 2.12153 2.02776 1.77945 1.89447 1.43252 1.34741 1.38987 0.972468 0.771118 0.647219 0.864084 0.781456 0.616814 0.404907 0.259437 0.73628 11.3942 15.9143 19.6636 20.7127 21.7677 21.9817 22.0376 21.3913 20.8568 20.2879 19.4618 18.9559 18.0991 17.0121 16.5618 16.2912 15.3214 15.1031 14.1967 13.1109 12.8449 12.1088 11.7703 11.7289 10.5261 10.1491 9.76421 9.15418 8.33598 8.67681 7.65825 7.56467 6.69727 6.23983 5.69381 5.48714 4.98602 4.63851 4.62532 4.17224 3.7817 3.89492 3.52817 3.06512 3.16197 2.86851 2.46582 2.21427 1.98156 1.82835 1.93938 1.64265 1.82464 1.54093 1.07559 0.854237 0.892324 0.880811 0.871804 0.738327 0.584685 0.586552 0.591151 0.617747 7.92976 12.2721 15.4466 17.6898 18.28 18.6427 18.5252 18.5587 17.3136 17.0892 16.7199 15.7309 15.5477 15.1707 13.8099 13.4777 12.6386 12.5531 12.0624 11.6306 11.009 10.572 9.69161 9.70408 9.39883 8.50859 8.22652 8.20164 7.59558 6.88263 6.68005 6.31584 5.63884 5.45754 4.97537 4.85135 4.44121 4.32846 4.30183 3.83561 3.70632 3.59207 3.28331 3.1956 3.14086 2.64045 2.45823 2.26975 2.22878 1.85112 1.95984 1.63281 1.49796 1.45186 1.28509 1.15151 0.866396 1.15065 1.01247 0.762055 0.744015 0.704779 0.818457 0.776117 5.73466 9.42914 12.2636 14.2045 15.2922 15.9675 14.9463 15.1622 15.1349 14.2097 13.6489 13.5895 12.3963 12.097 11.7212 11.4398 10.7894 10.2254 9.67977 9.05557 9.14009 8.3936 8.1077 7.55137 7.39715 7.52763 6.83299 6.7515 6.01786 6.10777 5.6086 5.51696 5.32827 4.9425 4.46966 4.28559 4.45088 3.93186 4.00439 3.60547 3.36913 3.38463 3.03787 3.01923 2.52879 2.47517 2.3446 2.3237 2.12156 2.39033 2.07705 1.64321 1.77307 1.3448 1.23901 1.38476 0.965731 0.88746 0.958781 0.97584 0.907502 0.908721 0.81837 0.872052 3.81254 7.24426 9.99883 11.2063 11.9955 12.3622 12.5689 11.9388 11.5815 11.1242 10.7343 10.5978 10.0078 9.45464 9.22596 9.26171 8.66671 8.439 8.19923 7.769 7.41626 7.15224 7.15946 6.94688 6.33573 6.18626 5.56012 5.65441 5.59447 5.0507 4.9482 4.85095 4.76423 4.35106 4.2813 4.17598 3.7908 4.13471 3.7897 3.4189 3.18117 2.96013 3.31856 2.96489 2.56292 2.63631 2.32031 2.2617 2.16421 2.02246 1.94427 1.67816 1.50077 1.40295 1.5043 1.11325 0.962445 0.861762 1.18338 0.881364 0.880005 0.667935 0.666637 0.392727 2.44022 5.85013 8.22393 9.30407 9.99949 10.3117 10.2042 9.97158 9.56143 9.31587 9.12218 8.73555 8.12034 7.75319 7.53908 7.3915 6.98717 6.86706 6.48863 6.5907 6.25286 5.93474 5.73507 5.89295 5.68927 5.48967 5.4522 5.26545 5.2377 4.69133 4.61918 4.37735 4.41842 4.24855 3.94743 3.702 3.86899 3.62602 3.42562 3.24714 3.22728 3.16177 2.80525 2.65404 2.62959 2.76785 2.38013 2.27596 2.0925 2.09043 1.82755 1.82679 1.42767 1.46508 1.52111 1.41537 1.35009 1.07928 1.58806 0.988303 0.811393 0.919043 0.974338 0.654706 1.67025 5.13956 7.3281 8.44737 8.93372 9.0135 8.88984 8.59133 8.30742 7.93899 7.87752 7.29685 7.00513 6.95239 6.73905 6.43764 6.18667 5.9346 5.94596 5.62281 5.51138 5.36412 5.62478 5.23287 5.15837 4.84908 4.94431 4.52885 4.46679 4.62531 4.48604 4.10368 4.12943 3.94791 3.68386 3.61183 3.48528 3.36469 3.54958 3.32132 3.00967 3.00902 3.06509 2.59873 2.60047 2.31005 2.45043 2.07654 2.59749 2.02826 1.81076 1.75893 2.01192 1.60488 1.56011 1.41222 1.44573 0.918402 1.00353 1.08677 0.567901 0.72919 0.724555 1.03598 1.83754 5.18589 7.04595 8.40032 8.76295 9.21195 8.8627 8.49414 8.17208 7.83324 7.54214 7.39851 6.96039 6.79356 6.4765 6.2718 6.06025 5.95482 5.92589 5.73955 5.58901 5.40143 5.24633 4.9864 4.931 5.05014 4.73644 4.48932 4.5552 4.46001 4.56261 4.00852 4.34237 3.77125 3.88619 3.61358 3.28993 3.33525 3.35582 3.20926 3.47007 2.93226 2.67237 2.53826 2.6915 2.56901 2.28802 2.35342 1.86528 1.93173 1.82035 1.88408 1.73626 1.40301 1.54581 1.26158 1.32076 1.14697 0.795127 1.00817 0.841628 0.685796 0.71415 0.758437 2.72821 5.84961 8.13115 9.65249 10.1583 10.3379 10.4673 10.2459 9.69541 9.25363 8.64074 8.36647 8.0042 7.78301 7.33426 7.15318 6.91687 6.77043 6.5452 6.30016 6.27516 6.18109 6.10388 5.72408 5.67544 5.48972 5.32285 5.01796 4.88318 4.94545 4.74443 4.3193 4.45357 3.91433 3.86832 4.06823 3.64669 3.49649 3.44683 3.29768 3.06413 2.77797 2.87113 2.60866 2.86054 2.39995 2.30039 2.36637 2.25724 2.07481 2.05457 1.73557 1.37937 1.46037 1.62831 1.21296 1.13153 1.08622 1.05696 0.739975 0.641222 0.776682 0.722889 0.512217 3.61315 7.48032 9.9888 11.4405 12.1984 12.4431 12.0877 12.327 11.8978 11.3985 10.8669 10.4955 10.1547 9.57028 9.41402 8.99597 8.75409 8.53613 8.11483 7.90902 7.26484 7.02424 6.99212 6.70419 6.29704 5.95061 5.94654 6.03219 5.75912 5.41297 5.13069 4.74453 4.66534 4.73873 4.17218 4.20209 3.93554 3.53571 3.58374 3.40268 3.38282 3.1503 3.02547 3.0161 2.72512 2.54276 2.64896 2.10082 2.01466 1.98934 2.14006 1.85205 1.61397 1.53795 1.47055 1.24405 1.01392 1.35753 0.995967 1.00586 0.588559 0.746718 0.552532 0.604306 5.09961 9.40623 12.3669 14.228 14.7766 15.1626 15.0871 14.6432 14.5768 13.8522 13.3866 12.9711 12.6155 11.8579 11.4881 10.9669 10.8701 10.1558 10.0111 9.26775 8.73576 8.51577 8.17574 7.83411 7.41078 7.24446 7.02209 6.55816 6.41606 6.24391 5.50193 5.63511 5.32091 4.99195 4.70403 4.35221 4.09737 4.22416 3.90637 3.7423 3.50773 3.21916 3.20743 3.26466 2.65886 2.52053 2.38712 2.19368 2.23008 1.82744 2.09862 1.81378 1.53432 1.54904 1.48457 1.13345 1.38375 1.26975 0.900735 1.0903 0.782909 0.897505 0.70106 0.618877 7.59246 12.1769 15.5549 16.6615 17.5412 18.0808 18.0192 17.3445 17.2746 16.5852 15.8496 15.0811 14.6286 14.3007 14.2062 13.0487 12.6786 12.0253 11.5756 10.9649 10.3211 10.2028 10.1957 9.00517 9.05296 8.17291 7.88455 7.80035 7.45047 6.87792 6.71693 6.33985 5.89684 5.5848 5.51588 4.99056 5.1281 4.20125 4.21437 3.70802 3.67233 3.58379 3.15117 2.7656 2.90683 2.78506 2.68546 2.34965 2.46127 1.88059 1.87337 1.80035 1.67794 1.56574 1.17117 1.11067 1.29263 1.04903 0.829755 0.963119 1.00222 0.947554 0.433245 0.691847 10.4797 15.2461 18.7681 20.514 21.0748 21.4644 21.1151 20.7517 20.305 19.8446 19.0434 18.3338 17.6822 16.6507 16.4214 15.2383 14.5597 14.4095 13.6728 12.7328 12.5543 11.6265 11.1583 10.7244 10.2855 9.90285 9.4374 8.65917 8.31908 7.74759 7.55368 7.17064 6.96971 6.23353 6.02336 5.61203 5.38559 4.78043 4.75443 4.27161 4.21012 3.82743 3.65652 3.19884 2.79868 3.02284 2.55145 2.33463 2.10002 1.98835 1.84759 1.73224 1.62674 1.51108 1.40068 1.08852 1.15778 0.679866 0.592912 0.706738 0.746382 0.910955 0.371983 0.434085 15.3058 19.6377 23.1399 24.1525 25.1082 24.5502 24.2357 24.3095 23.7439 23.1704 22.0659 20.7606 19.8558 19.3482 18.4904 17.9905 17.2438 16.6487 15.5889 14.6768 14.2469 13.5525 13.2739 12.2694 11.9553 10.7946 10.2625 10.1861 9.39685 9.09435 8.72705 7.9919 7.53157 7.18956 6.63074 6.37656 6.08929 5.79427 5.15133 4.92356 4.72378 4.00931 3.69273 3.27763 3.17914 3.12304 2.972 2.53064 2.11358 2.0033 1.92119 1.69401 1.56088 1.26916 1.42982 0.8932 0.634513 1.00871 0.935863 1.04977 0.641839 0.851257 0.521646 0.583394 21.157 24.4557 26.4108 27.9374 28.1778 28.2006 27.8296 27.6567 26.3765 26.2294 25.2786 24.0818 23.3937 22.3064 21.6829 20.5141 19.26 19.1424 18.1561 17.2689 16.2804 15.2011 15.0487 14.2036 13.3813 12.0934 12.1708 11.5344 10.7868 9.97648 9.77017 9.26102 8.28313 8.36228 7.28364 7.17903 6.84773 6.23001 5.81115 5.1833 5.03114 4.58088 4.14134 3.45432 3.42423 3.39223 2.70321 2.57685 2.51002 1.85709 1.98244 1.86748 1.75773 1.16655 1.09603 1.17676 0.761211 0.984034 0.901195 0.637902 0.435666 0.60377 0.408988 0.755164 24.939 25.7945 27.2781 28.621 28.7576 28.5556 28.8211 27.6035 26.9145 26.2814 26.0646 24.757 23.888 22.9063 21.9834 21.0714 20.5124 19.2356 18.2617 17.7606 16.1374 15.8408 15.0874 14.462 13.7258 13.2068 12.5038 11.9064 11.1358 10.6334 10.1017 9.78241 8.63775 7.82567 7.46915 7.29192 6.58572 5.68848 5.68726 5.31475 4.65755 4.2342 4.04877 3.83139 3.29997 2.89561 2.90817 2.50456 2.1961 1.83602 2.1444 1.68472 1.62381 1.13664 1.15713 1.1704 0.78392 0.878643 0.755132 0.680942 0.83315 0.706585 0.477857 0.589711 16.5406 20.6807 23.4705 24.554 25.1916 25.1083 25.198 25.1791 23.9358 23.1283 22.626 21.8606 21.1316 19.8832 18.8438 18.2671 17.5149 16.4951 16.0589 15.2411 14.3228 14.1814 13.7265 12.509 11.92 11.5029 11.3664 10.3362 9.74168 9.51769 9.46489 8.32336 7.68664 7.20204 6.71666 6.3119 5.95016 5.30607 4.66099 4.36262 4.10619 4.21004 3.92343 3.32706 2.74853 2.74055 2.4901 2.47237 2.39975 1.89402 1.98692 1.7607 1.52634 1.41241 0.974883 0.925697 0.747371 0.672712 0.664836 0.725769 0.666826 0.367769 0.630251 0.560393 11.7108 15.8533 19.579 20.8757 21.819 21.8564 21.6038 21.719 20.553 20.1315 19.5251 18.7414 18.0106 17.0116 16.5064 15.678 15.2993 14.2701 14.262 13.5036 12.8929 11.8213 11.9475 11.4138 10.5653 10.2615 9.46153 9.43602 8.92216 8.54106 7.48697 7.07692 7.15051 6.11825 5.72088 5.81078 5.54338 5.03581 4.47513 4.03344 3.80826 3.65368 3.31728 3.12823 3.22167 2.60132 2.83205 2.25321 2.21597 1.85191 1.78553 1.51303 1.42823 1.49555 1.30675 1.0378 0.847908 1.06753 0.931309 0.549398 0.750921 0.760147 0.430199 0.89192 8.12615 12.3601 15.7199 17.5542 17.9951 18.4842 18.5728 17.8813 17.9004 17.0217 16.5859 15.7442 15.5341 14.6549 14.2438 13.4928 13.0637 12.363 12.1618 11.7262 10.8431 10.3761 9.69841 10.0624 9.41592 8.99611 8.20579 7.93447 7.52154 7.02779 6.37221 6.1997 5.87225 5.58063 5.19019 4.61374 4.53468 4.0873 4.12684 3.99671 3.9593 3.37237 3.54855 3.2005 2.73467 2.57117 2.53295 1.95803 2.4747 2.13732 1.67311 1.40118 1.6661 1.42396 1.33163 1.33984 1.06972 0.950517 0.716421 0.842249 0.649988 0.883129 0.731953 0.63893 5.50885 9.29578 12.2331 13.9701 15.2399 15.455 15.3824 15.6185 15.0575 14.1525 13.5855 13.4169 12.6786 12.2647 11.7082 11.2875 10.5205 10.3428 9.518 9.15395 9.04521 8.30079 8.17176 7.91303 7.20756 7.28369 7.22473 6.71592 6.64539 5.89517 5.67186 5.56858 5.3383 5.14441 4.63026 4.31343 4.33434 4.13714 4.04214 3.74318 3.47111 3.18141 2.77691 2.91872 2.80225 2.70342 2.43084 2.23416 2.19202 1.83247 1.61957 1.50624 1.85795 1.49462 1.39205 1.19473 1.27614 0.847438 0.84148 0.992462 0.930138 0.693184 0.750015 0.548504 3.74516 7.46499 9.76792 11.1956 11.9965 12.2984 11.9371 11.8908 11.5427 11.5365 10.7421 10.6098 10.2928 9.60783 9.12947 8.71196 8.83177 8.35504 8.20041 8.03916 7.50669 7.28378 6.7927 6.64493 6.60291 6.43243 6.00872 5.70511 5.50374 5.23026 4.96358 4.82127 4.5648 4.56226 4.71134 4.10808 3.99442 3.59709 3.53087 3.69401 3.45017 3.17861 3.06061 3.11394 2.68526 2.57523 2.38733 2.35779 2.19078 1.97491 1.79399 1.815 1.71796 1.52472 1.8054 1.11381 1.11589 0.833839 1.05896 1.00068 0.998514 0.716346 0.963497 0.513243 2.83908 5.79089 8.22836 9.23519 9.84906 10.3045 10.2222 9.82754 9.71671 9.32691 8.79949 8.44609 8.74604 7.99743 7.63998 7.54439 7.25771 7.12984 6.90436 6.5737 6.31487 6.12486 5.81576 5.94037 5.66193 5.33816 5.4977 5.15921 5.0344 4.91079 4.54118 4.79648 4.23572 4.23582 4.05509 4.04358 3.8805 3.44249 3.43022 3.7335 3.20145 2.96714 2.98827 2.73698 2.9307 2.78102 2.18604 2.15515 2.16751 1.94813 1.82311 1.79154 2.02961 1.47964 1.6511 1.36772 1.04939 1.17097 0.819343 1.14538 0.818367 0.961381 0.392962 0.378885 1.52834 4.79797 7.02794 8.07686 8.73382 8.79121 8.82501 8.6838 8.24011 7.82594 7.62451 7.27819 7.0847 7.16251 6.85212 6.63997 6.43324 6.01004 5.97218 5.80678 5.71057 5.56502 5.49176 5.28534 4.93679 5.07561 4.93305 4.50459 4.57166 4.32529 4.32342 4.38627 4.04343 4.00064 3.77597 3.66933 3.58018 3.61959 3.4119 3.18984 3.21783 2.85468 2.89449 2.96125 2.7229 2.4723 2.23422 2.32398 2.29183 1.91963 1.97027 1.77045 1.57499 1.4982 1.56169 1.22754 1.34432 1.03814 1.07149 0.968893 0.759066 0.802263 0.365079 0.847983 1.6975 4.79677 6.87551 8.39894 8.70685 8.74581 8.76905 8.32791 8.31975 8.26687 7.52648 7.36094 7.0295 6.95306 6.8085 6.66952 6.20033 6.15186 5.97164 5.74221 5.76459 5.4184 5.53576 5.28775 5.27925 5.02915 4.74851 4.58383 4.55857 4.31963 4.2686 4.19278 4.17796 3.89056 3.8961 3.66385 3.66822 3.56062 3.41481 3.25795 2.90338 3.04297 2.90558 2.68558 2.62066 2.41526 2.49918 2.20015 2.00575 2.16903 1.74562 2.01011 1.72079 1.68993 1.76535 1.28408 1.47865 1.07374 1.28083 0.863208 0.786589 0.575827 0.884872 0.665782 2.35045 5.62106 7.76789 9.29634 9.94342 10.2974 10.1376 9.75839 9.51254 9.3437 8.74188 8.19415 8.05637 7.80415 7.46144 7.23324 6.9253 7.02003 6.89394 6.44114 6.42839 6.22669 5.88503 5.76535 5.71725 5.51838 5.29038 4.96951 4.82922 4.7672 4.6574 4.32947 4.31299 4.08178 4.03404 3.76562 3.63324 3.44358 3.27924 3.38944 2.99509 2.80567 2.90807 2.91623 2.44468 2.51922 2.4373 2.2731 2.27116 1.93263 1.96467 1.77304 1.825 2.12907 1.42278 1.47146 1.39575 1.3205 1.07232 0.982864 0.918481 0.711121 0.854267 0.546877 3.61156 7.37993 9.85675 11.4485 12.0514 12.4476 12.097 11.683 11.5227 11.2624 10.5791 10.3289 10.0031 9.73009 9.47506 8.99131 8.634 8.24341 8.07777 7.82956 7.49481 7.22021 7.02427 6.58075 6.37558 6.32561 5.90739 5.83258 5.68918 5.46631 4.91621 4.99091 4.42052 4.6863 4.11982 4.19614 3.92753 3.91095 3.95468 3.32841 3.23118 3.36183 3.03923 2.85132 2.72866 2.46559 2.49866 2.31598 2.21981 1.92589 1.80805 1.75102 1.57853 1.58392 1.62742 1.6542 1.14719 0.952004 0.880073 0.927984 0.70518 0.874783 0.815567 0.505921 5.30634 9.07123 12.2324 14.3695 14.9098 14.8596 15.1568 14.6844 14.2734 13.7318 13.6942 12.6769 12.1282 11.9946 11.6749 10.862 10.6356 10.3814 9.67736 9.45556 8.81561 8.44963 8.11535 7.76008 7.47338 7.04172 6.86473 6.96568 6.48997 5.93666 5.92493 5.56427 5.26555 5.18996 4.76873 4.58269 4.44723 4.16527 3.97012 3.84738 3.3875 3.43155 3.01558 2.87681 2.4902 2.66599 2.51802 2.27025 1.99398 1.96502 1.92332 1.92281 1.45925 1.56199 1.33595 1.08728 1.23638 1.3389 1.11838 1.08578 0.687406 0.713434 0.576298 0.368751 7.88523 12.2192 15.2525 16.3877 17.9964 18.0083 18.24 17.4891 17.5983 16.4729 15.685 15.0948 14.8068 14.2768 13.6602 13.3826 12.7189 11.5952 11.2976 10.7512 10.1066 10.4131 9.47351 9.05333 9.19419 8.16097 7.83804 7.24472 7.13802 7.08649 6.65235 6.42888 5.89868 5.75477 5.18855 4.8918 4.88473 4.60016 4.16618 4.28453 3.75562 3.5062 3.18953 3.35173 3.03597 2.68988 2.33085 2.16823 2.01933 1.68948 2.08715 1.68243 1.7759 1.6462 1.40068 1.16024 1.09673 1.25997 0.786627 0.68708 0.770418 0.792525 0.622254 0.593197 10.6839 15.48 18.3131 20.9024 21.807 21.336 21.5065 20.4875 20.1365 19.5071 19.0619 17.6518 17.387 16.7207 15.644 15.7574 15.1042 13.7417 13.2412 12.5991 12.3262 11.9018 11.1895 10.9362 10.6691 10.0605 9.81872 9.22672 8.59407 7.58738 7.50833 6.99621 6.63067 6.22096 5.81184 5.8872 5.28298 5.2161 5.07942 4.39173 4.17328 4.20753 3.79559 3.04939 2.91798 2.84772 2.72341 2.60881 1.93767 2.50348 1.7878 1.92921 1.68231 1.37614 1.2931 0.914482 0.987009 0.771919 0.76197 0.845002 0.801089 0.563839 0.738778 0.5827 14.9893 19.4443 23.3254 24.0724 24.9245 24.9128 24.7494 23.9864 23.4443 22.9437 21.9309 21.1253 20.2644 19.661 18.9328 17.7663 16.6776 16.5696 15.4214 14.8686 14.0377 14.0309 13.1933 12.5919 11.9394 11.7271 11.3047 10.3613 10.3271 9.28663 8.66927 8.22639 7.39326 7.15365 6.77234 6.592 6.2289 5.77294 5.64436 5.00047 4.82801 3.83419 4.10411 3.53071 3.48569 3.24079 2.76639 2.48633 2.28472 1.90743 2.22518 1.58312 1.45228 1.2656 1.16268 1.07566 0.80532 1.05542 1.04118 1.02454 0.913029 0.693 0.950761 0.822694 21.1647 24.3419 26.3135 28.1725 28.3347 28.1987 27.3965 27.0923 26.6734 25.8178 24.9041 24.3347 23.6372 22.4816 21.0092 19.9067 19.5744 18.6535 17.7 17.7995 16.7874 15.7514 14.7214 14.3426 13.8805 12.6068 11.8948 11.5147 10.9951 10.482 9.45642 9.6676 8.51324 7.8958 7.17754 6.93792 7.05367 6.50359 6.1561 5.7762 4.81409 4.63588 3.7468 3.59683 3.40262 2.98498 2.83903 2.61467 2.45508 2.35768 2.11545 1.37796 1.569 1.08634 1.26927 1.16751 0.903663 0.737477 0.761129 0.568283 0.575802 0.602619 0.687483 0.479265 24.8485 25.3855 27.2526 28.4959 28.9199 28.9225 28.2691 27.7249 26.8608 25.7876 25.2967 24.7691 23.5641 22.3825 21.8019 21.14 20.4598 19.2627 17.7835 17.7832 16.2028 15.8603 15.5805 14.221 14.1389 12.8914 12.9037 11.6583 10.9462 10.8992 9.86525 9.30083 8.91281 8.16239 7.889 7.43963 6.50167 6.16544 5.77281 5.27846 4.66909 4.33168 4.02344 3.36714 3.18908 2.6693 2.83596 2.73486 2.27682 2.1098 1.92958 1.28901 1.53206 1.01503 1.44308 1.08158 0.798018 0.75171 0.538281 0.214897 0.608012 0.705124 0.620294 0.622533 16.6916 20.6557 23.3551 25.483 25.1097 25.5059 24.9505 24.6656 24.0492 23.1243 22.369 21.9505 20.6653 19.9134 18.5295 18.163 17.7924 17.0576 16.1419 15.5326 14.5197 13.3039 13.3637 12.8528 12.2906 11.5743 11.191 10.4687 9.72232 8.98629 8.65431 8.27514 8.14697 7.61716 6.44979 6.27666 5.7449 5.45046 4.96228 4.83271 4.13687 4.11362 3.88078 3.36959 3.11122 3.11958 2.82155 2.59992 2.04607 2.32497 1.64106 1.71364 1.23231 1.36387 1.18629 1.07092 1.00941 0.984621 0.776328 0.481733 0.561479 1.01205 0.195054 0.644657 11.7648 16.0239 19.6611 21.1798 21.7043 21.9485 21.9238 21.5183 20.7036 20.1323 19.6217 18.7259 18.2725 16.969 16.5788 15.668 14.8729 14.2462 13.8655 13.4319 12.6751 12.2708 11.6733 10.9538 10.4103 9.9906 9.68744 9.12006 8.84628 8.26593 7.45848 6.88176 7.1097 6.31409 5.55065 5.52946 5.37591 4.70797 4.48302 4.17282 4.01953 3.74628 3.54803 3.38554 3.01956 3.10009 2.93067 2.63961 2.30329 1.88801 1.7567 1.51842 1.72425 1.35957 1.51982 1.15979 1.20994 1.06678 0.846131 0.731001 0.953589 0.434066 0.672426 0.459864 8.461 12.9237 15.8614 17.6517 18.177 18.5375 18.2921 17.7394 17.7989 16.6094 16.4169 15.9386 14.9815 14.6981 14.0004 13.966 12.7229 12.2229 11.8663 11.3604 10.9818 10.6655 10.3236 9.30806 9.07747 8.7072 8.39793 7.79395 7.4717 6.94468 5.99075 6.36944 5.751 5.71727 5.27525 5.19341 5.02377 4.19771 4.1764 3.84195 3.83049 3.62221 3.1032 2.95741 2.90339 2.62478 2.51826 2.43134 2.23714 2.08482 1.70325 1.91056 1.51961 1.39887 1.22502 1.2526 1.24068 0.898082 1.34203 0.948439 0.801056 0.755574 0.572646 0.421501 5.98338 9.4862 12.5061 14.8795 14.8168 15.3713 15.3824 15.0285 14.5462 13.8499 13.6243 13.0906 12.7709 12.463 12.1176 10.6509 10.4436 10.162 9.95284 9.1867 9.04725 8.5501 8.08049 7.81549 7.81547 7.27051 6.91281 6.56189 6.35392 6.35572 5.89353 5.38035 5.17111 5.0019 4.78771 4.5082 4.05739 4.10993 3.82535 3.82575 3.4808 3.01346 3.27901 2.88357 2.71694 2.49444 2.62546 2.46378 2.29305 2.05803 2.00327 2.15474 1.99572 1.468 1.47419 1.38142 1.00509 0.83642 1.16619 1.05063 1.06982 0.805001 0.67969 0.80772 4.00572 7.19657 9.60682 11.0372 12.0007 12.2807 11.8308 11.5559 11.2896 11.0472 10.7435 10.2947 9.85404 9.94314 9.53763 8.8829 8.8929 8.35587 8.07734 7.57178 7.81786 7.26432 7.18116 7.15689 6.32259 6.31119 6.01181 5.76632 5.6512 5.56955 5.53476 5.04873 4.98657 4.43152 4.496 4.28526 4.04229 3.89474 3.88181 3.5393 3.36379 3.15108 2.94217 2.69889 2.72008 2.4991 2.36339 2.38955 2.28728 2.42492 1.7267 2.03654 1.70991 1.61976 1.40726 1.36743 1.07077 1.1442 1.10189 0.914967 0.996065 0.788334 0.916603 0.592326 2.73794 5.70383 7.85115 8.95287 9.49928 9.85601 9.77382 9.45628 9.61867 9.10521 8.92665 8.32753 8.21414 8.05594 7.82623 7.421 7.14071 7.18101 6.90523 6.67852 6.29542 6.69 6.26641 5.77312 5.88022 5.5768 5.38408 5.11473 5.01657 4.7054 4.78402 4.43915 4.42445 4.3209 4.16567 3.9648 3.79376 3.72995 3.50328 3.58524 3.21338 2.91581 3.28665 2.87363 2.72427 2.59617 2.54468 2.55624 2.08226 2.0905 2.1653 1.97019 1.64899 1.7164 1.36928 1.36655 1.42081 1.34202 1.07347 0.688266 0.968231 0.506121 0.876732 0.840414 1.71715 4.54179 6.59099 7.65665 8.34578 8.67324 8.47876 8.37774 8.15055 7.78386 7.80431 7.32725 7.18148 7.06064 6.81463 6.66929 6.47923 6.17271 6.0018 5.95614 5.61693 5.79249 5.51083 5.61381 5.12047 5.02097 5.04309 4.88213 4.72407 4.62575 4.21435 4.25872 4.237 4.15315 3.99107 3.62248 3.69408 3.6567 3.39144 3.39901 3.37363 3.30002 2.81404 2.7848 2.78729 2.41327 2.34148 2.59012 1.92862 2.12235 1.70958 2.25622 1.59345 1.68721 1.62401 1.32376 1.24672 1.23503 1.17762 0.87181 0.754351 1.00034 0.978836 0.736728 1.42991 4.43722 6.70447 7.72605 8.43372 8.47972 8.56252 8.25129 8.05293 7.79423 7.48573 7.21691 7.12898 6.88854 6.65042 6.53772 6.43135 6.12511 6.09882 5.93536 5.85658 5.61171 5.58806 5.20801 5.156 5.12362 4.88437 4.81106 4.63812 4.54002 4.48542 4.25716 4.04131 4.06785 3.80707 3.85694 3.85107 3.6235 3.37019 3.49793 3.26117 3.07531 2.82073 2.79806 2.50717 2.56082 2.47639 2.40932 2.16791 2.23463 1.91558 1.70135 1.80612 1.57305 1.6875 1.55961 1.48115 1.25522 0.988329 1.2774 0.833589 0.898444 0.834275 0.905003 2.5335 5.5199 7.7576 9.19276 9.5892 9.78984 9.71025 9.41355 9.30084 9.16896 8.59395 8.20998 8.1246 7.87623 7.56726 7.44108 7.0176 7.07988 6.58674 6.49754 6.41308 6.3174 6.05625 6.08453 5.72144 5.49151 5.14926 5.07392 4.91606 4.92348 4.82842 4.62471 4.618 4.39271 3.87706 3.81405 3.80742 3.74932 3.51398 3.42946 3.42687 3.01751 3.03654 2.85343 2.62196 2.75998 2.43131 2.42973 2.36144 2.10531 1.94364 1.98411 1.72322 1.31504 1.53825 1.56978 1.21569 1.30805 1.29326 1.06593 0.840406 1.00068 0.591645 0.538923 4.13657 7.22856 9.83068 11.43 11.9771 11.7525 11.8399 11.7211 12.0869 11.0171 10.7907 10.2498 9.85468 10.1132 9.40867 9.19451 8.35515 8.2286 7.8767 7.66028 7.2547 7.28827 7.04178 6.86363 6.47722 6.2648 5.96556 5.76573 5.71899 5.5068 5.23988 4.9475 4.69351 4.68796 4.74764 4.16572 4.0242 3.69322 3.70909 3.52142 3.58303 3.38697 3.18918 2.85828 2.74842 2.61694 2.5413 2.26247 2.15876 2.07892 2.29214 1.78371 1.90146 1.81721 1.47058 1.38767 1.61727 1.27921 0.965344 0.92391 0.928673 0.932197 0.798668 0.539622 5.63308 9.79587 12.3118 13.8891 14.5474 14.5715 14.6952 14.5367 14.0676 13.5287 13.2908 12.5548 12.1637 11.4869 11.3303 11.0385 10.8683 10.5178 9.52654 9.43852 9.00192 8.6146 8.23251 7.62414 7.63195 7.41978 6.7205 6.54537 6.64007 6.09147 5.74024 5.46474 5.21586 5.17566 4.81659 4.74083 4.29964 4.15597 3.965 3.93172 3.71197 3.35404 3.25726 2.99013 3.02096 2.79674 2.40637 2.56516 2.2891 2.22935 1.94486 1.75072 1.61572 1.56384 1.61444 1.50136 1.31445 1.08696 1.06169 0.932584 0.833615 0.68002 0.861043 0.780379 7.97125 12.0184 15.0213 17.2564 17.8903 17.9111 17.5734 17.3682 16.836 16.0749 15.6704 15.3653 14.7528 14.2027 13.7638 13.1134 12.5526 12.3334 12.0307 10.9487 10.6264 10.1214 9.79445 9.44693 9.0217 8.37588 7.90004 7.5336 7.38894 7.08705 6.59435 6.5295 6.34138 5.74818 5.34854 5.23405 4.9529 4.42708 4.3848 4.20944 3.76156 3.65848 3.48175 3.38825 2.95957 2.9464 3.06963 2.38636 2.41545 1.89792 1.94363 1.76614 1.91255 1.39485 1.39516 1.41658 0.992793 1.16253 0.986657 0.991331 0.916467 0.725625 0.695899 1.15029 11.4178 15.5936 18.2786 20.4567 21.1605 21.794 21.174 20.778 19.7206 19.1348 18.692 17.8873 17.1058 16.5668 16.0118 15.0655 15.0255 14.0241 13.7844 12.8435 12.4015 11.8428 11.1184 10.695 10.8147 9.65747 9.18666 8.91011 8.37577 8.01516 7.31266 7.1277 6.90303 6.14094 6.14544 5.51162 5.2621 5.07111 4.84492 4.4364 4.01769 3.82586 3.48992 3.46716 2.9007 2.88512 2.55442 2.67187 2.44497 2.17024 1.68717 1.96612 1.37194 1.5477 1.69554 1.2126 1.34632 1.00693 0.959724 0.689535 0.580277 0.475637 0.911259 0.668564 15.2572 19.5555 23.5858 24.6427 25.0286 24.9251 24.3434 24.1874 23.5718 22.7026 22.0944 20.7274 19.9959 19.0135 18.6179 17.7938 16.5718 16.2837 15.5779 14.8589 14.0976 13.6052 13.3197 13.0077 12.0001 11.5991 10.7249 10.7304 9.88507 9.23668 8.38185 7.86439 7.63271 7.21604 6.78445 6.11329 5.74003 5.60521 5.61819 5.19704 4.61205 4.14886 3.6716 3.35099 3.31686 3.10091 2.569 2.42854 2.55222 2.0878 2.04224 1.69283 1.56184 1.5697 1.32397 0.845584 0.873671 1.11813 0.56083 0.781121 0.846827 0.394682 0.642651 0.583409 21.0479 24.4807 27.0278 28.2782 28.8047 28.6503 28.6436 27.442 26.0038 25.8558 24.617 24.1333 23.3066 22.757 21.8013 20.0761 19.8957 18.8107 18.2517 16.9754 16.469 15.3322 15.0635 14.0182 13.2574 12.6951 12.1952 11.8177 10.8249 10.4925 9.71561 9.28881 8.37301 7.8876 7.39196 6.9235 6.56388 5.88707 5.7528 5.55229 4.96103 4.3727 4.14188 3.53463 3.44507 3.19638 2.98207 2.81037 2.70192 1.89415 1.88991 1.47456 1.77233 1.55762 1.42149 0.857284 1.06333 1.17907 0.832593 0.561855 0.578425 0.55278 0.732928 0.403078 24.5267 25.8396 27.9768 28.6558 28.9593 29.0898 28.4618 27.3429 27.1522 26.0223 25.036 24.0921 24.0194 23.1888 21.4225 21.2683 19.9085 19.4628 18.4077 17.0772 16.8717 15.4618 15.4218 14.2756 13.639 13.0276 12.3694 11.5218 11.1075 11.1341 10.4255 9.02328 8.68795 7.86031 7.36819 7.27101 6.46075 6.08417 5.67852 5.02739 4.69763 4.40128 4.02024 3.93937 3.06395 3.12767 2.62374 2.70461 2.38643 2.10166 2.05756 1.70634 1.28873 1.40172 1.13953 1.00051 0.553477 0.474812 0.627815 0.589697 0.469946 0.603831 0.475934 0.483015 16.8738 20.8542 24.1844 24.7016 25.1616 25.4822 24.6041 24.0054 23.9883 22.7237 21.9901 21.2165 20.6285 19.7753 19.0672 18.3209 17.7008 17.0047 16.0739 15.5982 14.7786 13.7457 13.2967 12.827 12.6674 11.5939 11.3004 10.2557 9.46978 8.99398 8.92377 8.18126 7.55123 7.61285 6.39041 6.24198 6.34627 5.1546 4.72384 4.82332 4.1633 4.27625 3.24315 3.38926 2.96858 2.92365 2.66453 2.42519 2.10013 2.04772 1.79073 1.89607 1.59312 1.21647 0.958541 0.846781 0.991183 1.00363 0.859759 0.934445 0.625801 0.49711 0.303235 0.342552 12.2695 16.5328 19.5098 21.5292 21.748 22.0111 21.5945 21.1404 20.8126 20.2074 19.0459 18.1617 17.9547 17.3951 16.5831 16.0645 14.9196 14.5981 13.9178 13.4052 12.8728 12.5253 11.8594 11.3604 10.7134 10.2472 9.63551 9.58082 8.80518 8.08915 8.03415 7.37663 6.88204 6.54514 5.76595 5.68529 5.54469 4.77591 4.49987 4.53985 4.1363 4.03844 3.44989 3.33392 3.19116 2.80585 2.71589 2.38105 2.59994 1.81063 1.79812 1.84708 1.53225 1.37526 1.45292 1.16762 1.11004 1.31714 0.559551 0.630431 0.668845 0.720031 0.699527 0.757288 8.57476 12.4449 15.6569 17.3075 18.1863 18.1175 18.0372 18.0175 17.1613 16.9591 15.8504 16.0303 15.0156 14.5748 14.1517 13.5948 13.2113 12.5872 12.0793 11.7126 10.7356 10.2608 10.3946 9.42057 9.24333 8.41939 8.37759 7.77339 7.65335 7.19533 6.40493 6.19312 5.88072 5.64598 5.21708 4.80403 5.13046 4.62034 4.29166 3.90729 3.69323 3.51814 3.11832 2.95244 3.23554 2.68939 2.70515 2.37962 2.2338 1.93408 1.89835 1.48549 1.99674 1.40504 1.72045 1.14651 1.43799 1.10906 0.85158 0.926762 0.609118 0.721866 0.819235 0.305575 6.34448 9.7989 12.0648 13.69 14.8819 15.3531 15.425 14.7403 14.3597 13.8819 13.6464 12.9909 12.6829 12.1858 11.6402 11.3305 10.2897 10.0791 10.0434 9.53241 9.33259 8.56046 8.69217 7.82401 7.65261 7.68019 6.84245 6.77821 6.57905 6.3974 5.73647 5.68134 5.12429 5.19831 4.89556 4.68268 4.48593 4.07167 3.98312 3.8146 3.54147 3.27288 3.37675 3.30224 2.94523 2.79856 2.66112 2.3871 2.19977 2.1644 2.15005 1.92711 2.10568 1.626 1.54114 1.49753 1.10473 1.03309 0.961816 0.881752 0.797559 0.668178 0.777822 0.722085 4.49044 7.17676 9.41049 10.6913 11.6694 11.9632 11.7727 11.4281 11.2108 10.8873 10.9172 10.3905 9.98446 9.60894 9.36357 9.17753 8.6918 8.49204 8.15586 7.99833 7.75397 7.50601 6.99711 7.00109 6.7298 6.32985 6.28282 5.97932 5.90743 5.35597 5.09869 5.13665 4.91783 5.07836 4.92306 4.29416 4.20613 4.05802 3.56707 3.65043 3.4801 3.37336 3.31153 3.0034 2.89502 3.06314 2.74248 2.42408 2.18331 1.79051 1.90009 1.94529 1.69002 1.5877 1.49721 1.21541 1.14568 1.16907 1.06981 0.857094 0.829042 0.973273 0.797682 0.462883 3.02226 5.54231 7.35511 8.84658 9.30487 9.4667 9.41472 9.29138 9.17291 8.90019 8.77205 8.39129 8.2961 8.01066 7.74429 7.75944 7.39851 7.10969 7.12158 6.89245 6.7061 6.42905 6.33115 6.11529 5.89359 5.73495 5.44515 5.43627 5.1983 5.0824 5.02483 4.73695 4.62404 4.2765 4.63811 4.08096 3.98059 3.65345 3.65059 3.35029 3.34365 3.33042 3.04576 3.04765 2.67602 2.53643 2.52788 2.40772 2.17047 2.25602 2.29946 2.02383 1.90066 1.79727 1.56123 1.26181 1.24557 1.11241 1.0757 1.02277 0.820949 0.834089 0.555745 0.723042 1.47958 4.10433 5.99889 7.25554 7.84682 7.96024 8.11844 7.92962 8.00205 7.89029 7.64862 7.35859 7.18246 7.1295 6.96703 6.6101 6.66721 6.37263 6.22099 6.32515 5.86883 5.71092 5.58811 5.59729 5.34001 5.18946 5.24616 4.88697 4.96356 4.68569 4.68949 4.37502 4.26079 4.19361 4.1048 3.97341 3.71921 3.53595 3.44473 3.44524 3.21492 3.20323 2.95374 3.01425 2.86325 2.51995 2.48339 2.17517 2.4455 2.10948 1.83646 1.99137 1.8116 1.7117 1.85648 1.7937 1.25712 1.29048 0.938465 1.05005 0.933432 0.888113 0.775491 0.480797 0.875981 3.86019 6.18749 7.31917 7.86893 7.94088 8.11623 8.08124 8.02195 7.61066 7.45874 7.37987 7.23569 7.09871 6.74377 6.68666 6.54992 6.38173 6.21385 6.0429 5.9134 5.6535 5.82268 5.5963 5.42968 5.34486 5.33069 4.882 4.85001 4.82412 4.64174 4.35249 4.1313 4.33832 4.08479 3.76977 3.86431 3.58259 3.62346 3.42417 3.22684 3.09476 3.20282 2.98803 2.88899 2.69431 2.66691 2.13906 2.21299 1.8871 1.88317 1.98053 1.50503 1.71853 1.54 1.49707 1.26721 1.18801 1.2013 0.854932 1.03286 1.06552 0.824849 0.777233 2.28846 5.10482 7.00713 8.66378 9.2056 9.65335 9.86592 9.49073 9.63589 9.07311 8.41142 8.38891 8.10321 7.81817 7.59207 7.26624 7.25235 7.20748 6.83752 6.63801 6.41952 6.45856 6.33157 6.06989 5.82142 5.75494 5.38338 5.18391 5.4174 5.09508 4.79797 4.91552 4.43319 4.59838 4.15019 4.11332 3.94138 3.59619 3.60807 3.36086 3.28017 3.05801 2.81751 3.04483 2.7428 2.59894 2.33778 2.46789 2.23869 2.29278 1.8935 1.95532 1.87319 1.61015 1.56665 1.29589 1.04608 1.15659 0.892286 1.07633 1.19861 0.847126 0.784084 0.759253 4.43687 7.366 9.01263 10.5415 11.5177 11.7633 11.7361 11.9263 11.1875 10.7743 10.5111 10.6643 10.636 9.75945 9.83531 9.25151 8.63069 8.3136 8.30678 7.80966 7.59378 7.66244 7.25245 6.8043 6.79161 6.45505 6.11523 6.00247 6.02704 5.46238 5.49782 5.05908 4.82258 4.66373 4.48371 4.38327 4.38468 3.87258 3.72997 3.60404 3.32555 3.15216 3.1161 2.9888 3.19472 2.84122 2.6513 2.40427 2.20124 2.20978 1.85155 2.13098 1.70761 1.63447 1.64335 1.57833 1.1072 1.28623 1.11487 1.07846 0.896726 0.997505 0.625225 0.621658 6.25532 9.48331 12.1835 14.1634 14.071 14.5952 14.4853 14.3108 14.109 13.8014 13.58 12.9057 12.1468 11.9102 11.6382 10.7012 10.3041 10.1906 10.0193 10.0013 9.30583 8.9236 8.50789 8.22158 8.02573 7.44493 7.43682 7.18948 6.80313 6.34007 6.08481 6.10983 5.77232 5.41185 5.18431 4.94285 4.77886 4.59587 4.1616 3.89536 3.72699 3.41887 3.07219 3.13096 2.90282 2.7082 2.48278 2.338 2.16585 2.09055 2.06415 1.84775 1.75623 1.64184 1.46198 1.40312 0.997396 1.00014 1.09908 0.73348 0.763787 0.615374 0.468332 0.717587 8.29264 12.3761 15.1703 16.8187 17.644 17.6966 17.4721 17.7423 17.0794 16.45 15.6203 15.1392 14.3247 14.0866 13.8513 13.1642 12.7464 12.2822 11.7573 11.172 10.5602 10.1328 10.0489 9.4037 8.86683 8.63042 8.32524 7.58351 7.96515 7.21214 6.79613 6.45907 6.32231 5.69609 5.60171 5.44265 5.02614 4.70179 4.16501 4.1716 4.23224 3.90426 3.3145 3.25533 2.97595 2.77949 2.57113 2.40414 2.53348 2.0399 1.8105 1.6821 1.68398 1.59611 1.17436 1.39448 1.10065 0.988764 1.21818 0.973161 0.839905 0.841227 0.617415 0.721741 11.7308 15.733 19.0426 20.1442 21.2479 21.3591 20.793 20.2797 19.9702 18.9755 18.4548 18.0992 16.973 16.6529 15.8205 15.2928 14.6177 14.2357 13.7869 13.4593 12.4278 11.8182 11.54 10.7663 10.4853 10.1108 9.5366 9.27229 8.54065 7.74448 7.70487 7.01361 7.08396 6.42322 6.14802 6.02033 5.54867 5.30239 4.61191 4.59301 4.38314 4.14739 3.56433 3.48895 3.0961 2.82385 3.10481 2.57314 2.53886 1.9542 2.02914 1.58797 1.58249 1.53166 1.62842 1.0422 1.00684 0.858877 0.94783 0.755527 0.501474 0.704812 0.587225 0.77283 15.5098 19.9844 23.3346 24.8929 24.3093 24.8057 24.8616 24.2263 22.9013 22.5513 21.4906 20.7851 19.4477 19.0905 18.5039 17.8894 17.058 16.5555 15.5182 15.1524 14.0685 13.8349 13.0366 12.6055 11.812 11.266 10.7619 10.7313 9.73424 9.41368 8.73132 8.08818 7.73323 7.11907 6.53859 6.50039 5.94427 5.75674 5.24172 4.75836 4.71305 4.66313 3.95398 3.3203 3.03759 2.96366 2.94224 2.52574 2.31087 1.95761 1.99801 1.69062 1.63257 1.20559 1.35112 1.13323 0.879237 0.972763 0.596971 0.876538 0.647458 0.741852 0.805118 0.873958 21.076 24.8339 26.7799 28.1067 28.646 27.9356 27.8378 27.5371 26.1778 25.7575 24.9085 24.0789 23.2517 22.2818 20.6838 20.4717 19.6193 18.7593 17.5362 16.9944 16.176 15.3989 15.1071 14.6833 13.6329 12.7799 12.341 11.4839 10.7161 10.2058 9.86417 8.87153 8.71796 7.94132 7.76908 7.35362 6.82838 6.21117 5.74725 5.68132 5.24925 4.64018 3.94294 4.11383 3.48386 3.37064 2.75802 2.62529 2.53213 2.22609 2.12831 1.57936 1.64565 1.25241 1.4934 1.18937 0.980473 0.730831 0.71204 0.564295 0.573719 0.672016 0.646459 0.593582 24.8845 26.6133 27.8232 29.161 29.3038 28.4226 28.5127 27.5507 26.9455 26.0705 25.1269 23.9503 23.5555 22.5929 21.7743 20.5503 19.6686 18.8011 18.2739 17.5127 16.4855 16.0199 15.0921 14.5024 13.61 12.7421 12.4828 11.8618 11.3992 10.7842 9.9217 9.25547 8.79293 8.64067 7.7084 7.5524 6.69597 6.1198 5.62192 5.15812 4.91888 4.52359 3.8596 3.67314 3.15484 2.94197 3.39622 2.52595 2.49801 2.16855 1.91634 1.76063 1.53028 1.26293 1.33849 0.76956 0.720282 0.738853 0.852352 0.650847 0.542068 0.967925 0.653336 0.484955 17.1892 21.4737 24.0518 25.1706 25.6881 25.0205 24.9861 23.7338 23.332 22.8748 22.2796 21.3854 20.3822 19.8933 18.898 18.4834 17.6054 17.0659 15.8883 15.21 14.7185 13.8618 13.206 12.4571 12.1098 11.3721 10.9849 10.8741 9.82792 9.1682 8.93047 8.52559 7.49529 7.23667 6.94493 6.24949 5.7723 5.34876 5.17538 4.58742 4.49116 4.18279 3.70132 3.59183 3.50389 3.06113 2.85945 2.31811 2.20114 1.77384 1.7639 1.55799 1.65101 1.25133 1.12113 1.50873 1.03433 0.617359 0.649513 0.633708 0.748492 0.546548 0.91589 0.635032 13.0774 16.6674 19.6994 21.3281 21.4033 22.1236 20.9914 20.5875 20.0835 19.4058 19.1122 18.081 17.6683 16.9241 16.3587 15.8499 15.0905 14.1365 13.8415 13.6953 12.8446 12.5069 11.9431 10.9405 10.778 10.489 9.71524 9.10116 8.88761 8.64769 7.85643 7.01142 6.90574 6.70649 6.27444 5.6631 5.3909 5.10737 4.42936 4.50697 4.11593 3.85874 3.68642 3.28351 2.92496 3.05642 2.62826 2.45932 2.16482 1.90858 1.85764 1.84495 1.58468 1.3798 1.17661 1.20425 1.41163 1.13409 0.833003 0.732714 0.639855 0.454028 0.749114 0.740806 9.81478 13.3634 15.788 17.498 17.7914 18.3181 17.4743 16.9993 16.7082 15.7709 16.246 15.3984 14.6531 14.2846 13.9609 13.1488 13.1919 12.9907 11.6007 11.9356 11.1747 10.6434 9.91944 9.83742 9.40789 8.56775 8.2942 8.02527 7.26998 6.96978 6.67454 6.3826 6.22049 5.76261 5.29861 5.21048 5.0038 4.66958 4.15212 3.98361 3.8919 3.76492 3.30362 3.30816 3.0457 2.87738 2.54479 2.44668 2.20547 1.89252 1.85167 1.53431 1.40895 1.55159 1.74388 1.53764 1.65793 1.03397 1.11629 0.930406 0.778196 0.677392 0.712206 0.895863 7.14764 10.1828 12.5713 13.7457 14.6101 14.774 15.0331 14.316 14.2389 14.2782 13.1852 12.7447 12.2645 12.2866 11.5837 11.268 10.7243 10.5999 10.1272 9.80289 9.69486 8.73923 8.48532 8.22205 7.78213 7.63361 7.14509 6.8492 6.34757 6.11276 6.23085 5.8714 5.52126 5.13209 4.915 4.89574 4.34552 4.35315 3.94003 3.80869 3.68251 3.54472 3.12809 3.05419 3.01238 2.82405 2.49431 2.55147 2.41428 2.08049 1.95452 1.87381 1.7757 1.56706 1.41742 1.57648 1.57081 0.903225 1.03093 1.05268 0.994319 0.715164 0.547212 0.673117 5.43143 7.24306 9.12644 10.3241 11.0214 11.2957 11.3039 11.3745 11.05 11.0019 10.7402 10.178 10.0756 9.98855 9.52122 9.16781 8.95874 8.62032 8.19679 8.24129 7.89636 7.50351 7.70509 7.23292 7.18673 6.47101 6.25709 6.4054 5.80423 5.75396 5.67785 5.2465 5.09486 4.78858 4.62107 4.40279 4.1387 3.93351 4.11337 3.79407 3.60044 3.33852 3.25138 3.08785 2.95983 2.5927 2.66518 2.39086 2.52018 2.05708 2.21771 1.71642 1.76682 1.64475 1.4986 1.43735 1.12602 0.964178 1.11825 1.10215 1.08724 0.84739 0.659595 0.885575 3.50391 5.09432 6.66346 8.37097 8.70928 9.04064 9.09953 8.94894 8.86298 8.97188 8.67702 8.52873 8.37693 8.25084 7.80093 7.60068 7.64327 7.40098 7.50343 7.14074 6.92056 6.55575 6.36457 6.1649 6.0573 5.90134 5.64828 5.43805 5.29486 5.37001 5.08755 4.73151 4.67857 4.53657 4.27874 4.40436 4.13541 3.81737 3.71456 3.96074 3.37289 3.36167 3.56686 3.25554 2.94738 2.7818 2.477 2.23126 2.42166 2.43417 2.17496 2.07002 2.03409 1.69661 1.47552 1.56908 1.38085 1.0239 1.06182 1.10159 1.3798 0.723375 0.736995 0.525983 1.72961 3.56284 5.45758 6.38061 7.17476 7.59779 7.79298 7.60333 7.75314 7.64628 7.55289 7.36088 7.33001 7.33561 6.97875 6.8524 6.84001 6.62391 6.38591 6.2473 6.20431 6.13558 5.84355 5.86985 5.66985 5.54047 5.24307 5.09365 5.14302 5.04647 4.79808 4.82346 4.79322 4.46005 4.13964 4.03713 3.88323 3.8655 3.818 3.4655 3.4311 3.53201 3.27424 2.99537 3.07871 3.08941 2.81518 2.60789 2.12614 2.3582 2.13904 1.90163 1.6356 1.76072 1.54084 1.51775 1.18408 1.12986 1.172 1.1572 0.693699 0.585381 0.846179 0.574281 0.729986 3.34983 5.16191 6.44097 7.13105 7.66317 7.75601 7.75227 7.63793 7.48172 7.5598 7.444 7.27469 7.35167 6.87112 6.90468 6.70465 6.59095 6.45749 6.36857 6.17448 6.01793 5.83523 5.82882 5.51877 5.43007 5.41738 5.30719 5.19907 4.81059 4.71129 4.67084 4.76868 4.42077 4.20676 4.00843 4.01926 3.88855 3.7915 3.61962 3.47138 3.37418 2.95787 3.03064 2.8309 2.69939 2.75391 2.43973 2.35052 2.20187 2.1387 2.11891 1.93573 1.82094 1.57564 1.54597 1.34082 1.41426 1.29782 1.06547 1.11076 0.862441 0.595534 0.574327 2.59247 4.61789 6.53712 8.36637 8.90469 9.06306 9.37258 9.2031 9.01634 8.87522 8.75018 8.3865 8.1021 7.95506 7.86251 7.5563 7.47008 7.33327 7.26842 7.0687 6.90784 6.60181 6.44752 6.31119 6.10762 5.79678 5.62677 5.54786 5.56429 5.28607 4.88183 5.12423 4.7983 4.45848 4.55933 4.16311 3.95813 3.69095 3.7832 3.67672 3.36293 3.4293 3.20435 2.97433 2.93268 2.82729 2.51806 2.52611 2.3256 2.04958 2.22704 2.06549 1.73699 1.69535 1.68584 1.50469 1.19693 1.13427 1.39684 1.42019 0.891537 0.73718 0.694046 0.617645 4.51842 7.04713 9.31965 10.9452 11.2597 11.5883 11.4981 11.4764 10.9344 10.8746 10.6962 10.5874 10.18 10.3235 9.67611 9.51331 8.74868 8.48063 8.55132 7.72434 8.12506 7.46305 7.23888 6.97846 6.58004 6.64508 6.57231 6.13581 5.95696 5.45962 5.48591 5.26288 5.00479 4.83077 4.53257 4.3495 4.32314 3.97188 3.782 3.91861 3.54254 3.2628 3.23468 2.98688 2.96885 2.9752 2.64765 2.4113 2.01056 2.24828 2.14251 1.84216 1.94707 1.64898 1.55401 1.32458 1.34215 1.12258 1.26826 0.963273 0.681816 0.881201 0.841096 0.732957 6.7549 9.51977 12.3117 13.6832 14.1803 14.4813 14.3691 14.3893 13.6868 13.425 13.4738 12.5007 11.9358 11.6201 11.4892 11.0669 10.7384 10.4328 9.98518 9.77796 9.50169 8.92723 8.34912 7.97766 8.04511 7.64774 7.50823 7.06576 6.77308 6.4763 6.15041 5.76441 5.75178 5.20017 5.30402 4.73661 4.6128 4.45221 4.3801 3.98136 3.6374 3.72368 3.16939 3.12626 2.81184 2.90264 2.35122 2.60266 2.18583 2.34548 1.98733 1.84648 1.90549 1.56512 1.62037 1.63708 1.19776 1.1815 1.07012 1.07304 0.984305 1.13465 0.708025 0.474442 9.14129 12.6469 15.0664 16.5094 17.2543 17.4752 17.139 16.9936 16.3825 16.139 15.8746 15.2317 14.7419 13.7587 13.2522 12.9538 12.9121 12.669 11.6713 11.6326 10.7526 10.4762 10.039 9.93812 9.23202 8.43964 8.19136 7.99695 7.71148 7.11888 6.95694 6.66279 6.45625 6.09915 5.38103 5.41163 4.79432 4.64526 4.6149 4.51127 4.05318 3.78479 3.73319 3.1184 3.20959 2.97304 2.75208 3.01583 2.72965 2.00413 1.92451 2.01352 1.86779 1.25254 1.34419 1.46699 1.42526 1.35868 1.32329 0.865738 0.951812 0.629331 0.71669 0.694342 12.0139 15.9567 18.8337 20.3469 21.2453 21.0374 20.6555 20.2482 19.5106 18.9656 18.2781 17.9732 16.9009 16.3554 16.0169 15.3842 14.8984 13.8726 13.9355 13.4235 12.6787 11.652 11.4688 10.5093 10.2874 10.0957 9.34495 8.98628 8.36839 8.3111 8.07644 7.16518 6.93542 6.63378 6.07557 5.78962 5.86009 5.27446 4.79716 4.37425 4.56684 3.86856 3.7088 3.64134 3.37666 2.99468 2.80275 2.6397 2.16581 2.38716 2.14824 1.88524 1.32371 1.50082 1.30675 1.12718 1.22848 0.975984 1.06221 1.0071 0.942668 0.80095 0.820162 0.691293 15.9707 20.7421 23.3015 24.6845 24.2778 25.0633 24.475 23.7956 23.2283 22.3601 21.5372 20.4967 20.0601 19.3304 18.4508 17.6739 16.7327 15.7839 15.6305 14.7178 14.4734 13.7892 13.4511 12.7112 12.2201 11.1585 10.5823 10.5945 9.41012 9.48236 8.28288 7.9714 7.84888 7.00928 6.91155 6.63882 6.20973 5.86345 5.40189 5.28218 4.35749 4.15455 3.84777 3.68676 3.44525 3.10428 2.87882 2.76925 2.51541 2.24564 2.00991 1.85332 1.46801 1.17841 1.4533 1.18835 1.15992 1.01408 0.729125 0.375832 0.797968 0.42246 0.673595 0.571585 21.5223 25.1173 27.2492 28.6735 28.7786 28.6569 28.219 26.7068 26.8144 25.85 24.7427 23.8399 23.0562 21.8141 21.1408 19.8598 19.5464 18.2304 17.9648 16.7392 15.8549 15.6328 14.7369 14.1982 13.6826 12.4648 12.1564 11.7144 11.2374 10.3444 9.61452 9.31197 8.68347 8.40815 7.5815 7.23221 6.55786 6.64471 6.06972 5.27667 4.94821 5.08613 4.13999 4.10879 3.43712 3.0809 2.95134 2.87698 2.49419 2.401 1.75683 1.48551 1.87303 1.24959 0.939789 0.982152 0.830845 1.11666 0.952389 0.519366 0.680637 0.538666 0.476526 0.477034 25.6892 27.4671 28.4366 29.3591 29.254 28.8515 28.0371 27.2407 26.3241 25.7629 24.1051 23.9229 23.2737 21.9359 21.7393 20.9031 20.1741 19.1879 18.4533 17.8337 16.5855 16.0736 14.7195 14.8499 14.1041 13.1424 12.4839 11.7717 11.0399 10.9328 10.4538 9.49551 8.77525 7.93699 7.58614 7.42553 6.86902 6.24472 5.88362 5.30704 4.69123 4.46305 4.45434 3.78056 3.48132 3.11702 2.55423 2.74972 2.27698 2.05158 1.80667 1.96012 1.24315 1.40418 1.17801 1.12758 0.782629 0.711946 0.906014 0.599371 0.634283 0.756767 0.703153 0.44344 18.6075 22.2322 24.9331 25.6193 24.9697 25.0489 24.5421 23.641 22.7135 22.6335 21.5652 20.9455 20.1916 19.4563 18.9837 18.0445 17.3127 16.9701 16.5496 15.0945 14.4926 13.9008 13.6678 13.0481 12.3261 12.0585 11.4337 10.6494 9.89036 8.85391 9.10656 8.39237 7.85015 7.44746 7.05686 6.13708 5.78547 5.50269 5.05806 4.6641 4.31182 4.32657 3.91026 3.42272 3.46277 3.22358 2.48517 2.41535 2.41973 2.10835 1.93921 2.06683 1.54972 1.32998 1.38077 1.0499 1.11258 0.854749 0.981737 1.07938 0.853696 0.802525 0.540559 0.476514 14.7039 17.924 19.9784 21.2051 21.1085 20.6354 20.8079 20.5268 19.6068 19.0172 18.6924 18.1075 17.3133 16.8355 16.6697 15.8522 14.9688 14.6457 13.9351 13.6851 12.7403 12.3746 12.1622 11.1745 10.9565 10.8525 9.55766 9.05254 8.80913 8.80185 8.08405 7.25025 6.88444 6.66296 6.4685 5.64799 5.53428 5.35758 4.66369 4.49401 4.28743 4.06944 3.60926 3.25304 3.3302 2.8943 2.45843 2.90662 2.39493 2.11344 2.14085 1.95598 1.49984 1.49592 1.29905 1.35248 1.18481 0.919678 0.889123 0.499624 0.796223 0.74167 0.597649 0.473501 11.2518 14.0522 15.5749 16.9721 17.5124 17.315 17.0548 16.8998 16.4534 16.1064 15.7641 15.5822 15.0356 14.0314 13.7973 13.588 13.2961 13.0434 12.0436 12.0335 11.1961 10.8979 10.1353 9.88583 9.5547 9.25107 8.29174 8.70148 7.63606 7.23284 7.26939 6.42061 6.17383 5.8813 5.48278 5.44296 4.79971 4.79497 4.49273 4.02126 3.68805 3.65435 3.7571 3.22939 3.2318 2.98344 2.97578 2.63481 2.52795 2.12854 2.15203 1.95038 1.49694 1.48451 1.41105 1.52857 0.968627 1.18075 1.20813 0.825336 0.808277 0.556136 0.469659 0.74611 8.81511 10.1179 12.0939 13.3865 14.5539 14.1452 14.1917 14.4279 13.6242 13.8033 13.483 12.8055 12.7943 12.3845 11.6015 11.0892 11.0292 10.4314 10.4299 10.076 9.82632 9.10468 8.74041 8.16562 8.0977 7.67487 7.49187 6.92754 6.84033 6.49333 6.08159 5.67441 5.49088 5.28138 5.08116 4.88103 4.57921 4.42428 4.02182 4.10324 3.78806 3.45602 3.61193 3.1503 3.28941 2.80011 2.50686 2.24003 2.37317 2.35842 2.05397 1.90774 1.82289 1.87926 1.26344 1.58625 1.24782 1.10128 0.958338 1.09431 0.823863 0.577242 0.934687 0.61695 6.34594 7.3137 9.16217 10.0205 10.8038 10.936 10.6591 10.5365 10.6774 10.494 10.6176 10.2138 9.96087 9.89056 9.57867 9.38964 9.22384 8.92517 8.71752 8.29361 8.32414 7.86106 7.67389 7.45573 7.14142 6.79821 6.40855 6.17916 6.01934 6.1392 6.00122 5.39334 5.10869 5.01167 5.07106 4.60094 4.47192 4.33891 4.08373 3.88088 3.85647 3.5585 3.20086 3.14195 3.26087 3.33507 2.83634 2.62567 2.40345 2.39575 2.183 2.07131 1.81477 1.87945 1.74022 1.47816 1.66456 1.2676 1.16491 0.943049 0.569288 0.624219 0.537064 0.83648 4.39389 4.6623 6.12528 7.43838 7.90555 8.61139 8.58039 8.63345 8.49572 8.9369 8.52447 8.39413 8.54422 8.10755 7.9079 7.90708 7.91811 7.88432 7.76828 7.40974 7.12004 6.97271 6.86193 6.46637 6.42817 6.18366 6.03552 5.86369 5.83685 5.35844 5.34526 4.99766 5.09744 4.69102 4.65363 4.7932 4.1009 4.00681 3.93189 3.74768 3.74701 3.42892 3.53788 3.18484 3.06502 2.97926 3.03973 2.29982 2.35568 2.25079 2.40969 2.05398 1.90532 1.83877 1.6214 1.44461 1.41868 1.45856 1.20075 1.05874 0.998487 0.62891 0.994246 0.881109 2.27171 2.63574 4.31813 5.64099 6.54193 6.93434 7.32408 7.44321 7.36169 7.45443 7.67358 7.61105 7.58735 7.42627 7.39163 7.33339 7.0762 6.89894 6.75808 6.63294 6.63203 6.6715 6.19807 6.24578 6.21142 5.94742 5.48782 5.46862 5.38241 5.21364 5.04371 4.88062 4.73812 4.71654 4.44483 4.40494 4.31162 4.06709 3.83479 3.88871 3.62667 3.29702 3.50028 3.43664 3.04254 3.08155 2.59533 2.72496 2.3995 2.35005 2.37006 1.96729 1.78757 1.54593 1.28352 1.63172 1.17029 1.31876 1.33981 1.00395 0.948759 0.951591 0.860044 0.863314 1.63764 2.3019 4.09443 5.52473 6.37501 6.9753 7.32933 7.64705 7.7895 7.57711 7.60794 7.53105 7.4504 7.4321 7.2512 7.07061 6.95628 7.02293 6.86352 6.53171 6.42028 6.36419 6.20157 6.04004 5.88252 5.69602 5.70728 5.52362 5.3027 5.23364 5.12335 4.92376 4.66823 4.56314 4.60099 4.47813 4.14805 3.92618 3.89659 3.76037 3.69129 3.62397 3.34364 3.41633 2.94306 2.80445 2.85176 2.50481 2.5082 2.40643 2.31892 2.18071 2.02165 1.99578 1.77193 1.48912 1.21992 1.25768 1.00376 1.02335 0.897125 0.837069 0.599374 0.621717 3.61569 4.32541 5.95169 7.45551 8.12026 8.7488 8.69774 8.9548 8.84002 8.5049 8.51991 8.60114 8.82864 8.13302 8.00957 7.9021 7.74556 7.58556 7.39271 7.18272 7.00927 6.73815 6.81224 6.51354 6.34455 6.29193 5.78993 5.5925 5.5811 5.444 5.17036 5.13545 5.10422 4.65741 4.5883 4.44622 4.3409 4.19662 3.88566 3.80302 3.73691 3.35966 3.2241 3.04098 3.0801 2.86766 3.03232 2.56331 2.58624 2.28339 2.24582 2.05497 1.83052 1.90446 1.87257 1.48271 1.30891 1.60299 1.16942 0.956201 0.941663 1.04302 0.479738 0.623102 5.42247 6.80397 8.78168 10.2662 11.0454 10.8279 11.1558 10.8157 10.8236 10.804 10.3686 10.5025 10.4771 10.1069 9.71607 9.1923 9.22973 8.65506 8.31098 8.30771 7.92456 7.77155 7.48138 7.34478 6.91691 6.69759 6.43183 6.35323 6.02558 5.93059 5.87564 5.52677 5.10377 5.1219 4.85331 4.61521 4.279 4.29949 4.07412 3.73373 3.90037 3.31575 3.5454 3.36762 2.98284 3.08635 2.9271 2.39476 2.61332 2.22448 2.14709 1.93854 1.93163 1.7029 1.73936 1.44587 1.25393 1.56855 1.49896 0.821671 0.850396 0.966191 0.756765 0.575041 7.89972 10.0501 12.5134 13.7353 14.2649 14.086 13.4486 13.6213 13.6862 13.0003 13.1854 12.6643 12.3904 11.7923 11.7908 11.2145 10.6743 10.6111 10.2661 9.56149 9.5646 8.79992 8.55731 8.44792 8.01354 7.6387 7.28795 7.47014 6.91954 6.69807 6.24626 6.18255 5.83266 5.42492 5.28403 5.10771 4.69193 4.72103 4.48309 4.32149 4.00796 3.71242 3.43676 3.42076 3.43269 2.9676 2.59992 2.73993 2.37766 2.22843 2.29577 2.10209 1.75245 1.56126 1.48971 1.49635 1.46733 1.59558 1.24495 0.767156 0.817038 0.994232 0.530701 0.58333 10.4895 13.0228 15.4895 16.6962 17.2922 17.0658 16.996 16.835 16.2568 16.0098 15.2649 15.0114 14.8205 14.1332 13.9841 13.0472 12.7647 12.7014 11.9481 11.6866 10.9385 10.7344 10.3569 9.56052 9.19111 8.74947 8.27604 7.96769 7.51115 7.12891 6.85725 6.90947 6.34156 6.27936 5.75568 6.02801 5.24522 4.86693 4.56049 4.26149 3.89734 3.74349 3.46591 3.50046 3.27421 3.02151 3.17889 2.84646 2.44557 2.55271 2.14172 1.88541 1.75254 1.71032 1.48243 1.5127 1.10912 1.45203 1.12203 0.923535 0.77323 0.67305 0.758041 0.652348 13.412 16.558 19.206 20.3999 20.9082 19.8654 20.3469 19.8666 19.2135 18.8852 18.329 17.7587 16.7957 16.551 15.4619 15.2878 14.9659 14.0576 13.6647 12.9496 12.5453 12.1914 11.6736 11.4614 10.2893 9.96118 9.77401 9.30074 8.36461 8.28236 7.74423 7.40338 7.20047 6.7249 6.18732 5.88387 5.6535 5.07661 4.71196 5.01239 4.35281 3.74748 3.79343 3.43511 3.69065 3.03521 3.03983 2.5817 2.34324 2.60178 1.94327 1.84242 1.71574 1.53155 1.25464 1.11826 1.02479 1.30829 0.891985 0.94918 0.56536 0.804166 1.00505 0.598805 17.3319 20.8126 23.838 25.3673 25.0322 24.2502 23.9199 23.1605 22.8079 22.1744 20.6828 20.4325 19.7726 19.6328 18.7436 17.8352 16.8211 16.5577 15.9017 14.87 14.3799 13.9038 12.8753 12.995 12.4033 11.6724 10.8113 10.064 9.8 9.39984 8.85819 8.30684 7.73509 7.09486 6.72006 6.55843 6.11093 6.03662 5.30359 5.26481 4.73354 4.20263 4.09636 3.6238 3.60552 2.99278 2.91524 2.71734 2.30007 2.23105 2.16169 1.74593 1.7673 1.57771 1.2321 1.19532 1.07271 0.730544 0.937016 0.851393 0.664829 0.922378 0.664735 0.546615 22.5243 26.1767 28.5715 28.7625 28.5176 27.963 27.7207 26.4394 25.8713 24.9886 24.528 24.0106 23.2034 22.037 21.1862 20.1497 19.8226 18.3488 17.548 16.9476 16.3757 15.6649 15.0513 14.2798 13.6377 12.7638 12.3508 11.5033 11.2375 10.6581 9.57813 9.20395 8.48939 8.17696 7.72439 6.98219 6.51537 6.7966 6.0173 5.44126 5.23976 4.77989 4.12307 4.2137 3.57752 3.1602 2.97719 2.66163 2.4863 2.0022 1.92837 1.72923 1.46368 1.16027 1.35992 1.16332 0.925713 1.05132 0.733071 0.721768 0.773007 0.468223 0.525827 0.633661 28.5623 28.3333 28.8097 28.6156 28.3308 27.4455 27.2297 26.24 26.2368 24.7326 24.0833 23.4313 22.627 22.3511 21.7078 20.5779 19.5324 18.9703 18.6549 17.9108 16.2533 15.8519 15.274 14.5722 13.8364 12.8924 12.9228 11.7885 11.344 10.6285 9.97256 9.75926 8.53132 7.96872 7.52836 7.61997 6.67861 6.06635 6.02734 5.64992 4.50822 4.33725 4.14857 4.0453 3.27971 2.98029 2.90998 2.60549 2.0939 1.95815 1.98797 1.6446 1.99137 1.26103 0.953585 1.09959 1.03109 0.863627 0.476984 0.76479 0.64975 0.735586 0.529352 0.478109 20.8065 23.1331 24.4624 24.8497 24.3219 23.6272 23.1581 22.3853 22.6318 21.7279 21.0806 20.6267 20.4672 19.1442 18.6005 18.0662 16.9798 16.7176 16.1791 15.1565 14.7532 13.6011 13.4027 12.8106 12.107 12.0855 11.1429 10.6859 10.2354 9.51276 9.0037 9.08947 7.89611 7.15533 7.24562 6.55807 5.9217 5.78158 5.43632 4.5466 4.40315 4.43942 3.87254 3.73932 3.20918 3.04329 2.69244 2.60526 2.04711 2.15895 2.00847 1.68839 1.35761 1.20087 1.43378 1.47681 0.915958 0.955017 0.789609 0.933257 0.91094 0.611668 0.612629 0.735417 16.7822 18.5677 20.0464 20.4315 20.3131 19.7069 19.53 19.5602 19.3458 18.3429 17.9955 17.8299 17.4565 16.897 16.5658 15.6991 14.932 15.005 13.6451 13.2999 12.5833 12.3825 11.7021 11.5242 11.0976 10.0431 10.258 9.38078 8.75403 8.40094 8.42449 7.32273 7.28734 6.60204 6.36036 5.5842 5.61127 5.22367 4.93147 4.31702 4.45365 4.13038 4.04192 3.79649 3.29499 3.03608 2.77888 2.88219 2.4059 2.30933 2.07816 1.94455 1.45903 1.6716 1.59649 1.63508 1.32347 0.970135 0.877732 0.846392 0.657686 0.583042 0.68457 0.635162 13.7695 14.9767 15.8721 16.3659 16.5671 16.6964 16.5273 15.9158 15.8983 15.7721 15.0116 15.2795 14.352 14.1619 13.7551 13.5346 13.0151 12.5237 12.6917 11.9651 11.5102 11.1089 10.8085 9.72631 9.63703 9.23859 8.5664 7.74364 8.10242 7.44038 7.15583 6.47636 6.27922 6.1158 5.46472 5.59762 5.09045 5.14222 4.70007 4.24982 4.24223 3.73036 3.70425 3.58447 3.44081 3.0832 2.86012 2.60193 2.61336 2.19393 1.9847 2.00269 1.48732 1.78603 1.41584 1.15529 1.08809 1.14851 1.14056 0.876203 0.985046 0.752649 0.503534 0.862017 10.9073 11.1446 12.1139 13.4269 13.7328 13.7378 13.8097 13.3207 13.5097 13.2372 12.7037 13.0388 12.2985 12.3883 12.0261 11.5085 10.8319 10.4197 10.1822 9.76419 9.77779 9.31654 8.65665 8.50828 8.16199 8.31725 7.52721 7.15614 7.03394 6.63051 6.52938 6.35967 5.60897 5.46815 5.63295 5.14382 4.75484 4.40791 4.50184 4.2756 4.05098 3.97848 3.56769 3.47176 3.39957 3.01185 2.81471 2.65546 2.2388 2.32526 2.05787 2.14729 2.01294 1.87081 1.46583 1.31807 1.3059 1.51254 1.1815 1.08667 0.883099 0.839781 0.789756 0.363081 8.46163 7.71161 8.67075 9.18085 10.1377 10.137 10.1978 10.5551 10.6743 10.3553 10.2877 10.0199 9.98088 9.95487 9.81704 9.35324 9.31695 9.34015 9.1258 8.64244 8.50783 8.07976 7.89631 7.48841 7.07876 6.92568 7.15817 6.54078 6.33078 5.96606 6.07589 5.80989 5.32479 5.17586 4.99586 4.86104 4.67063 4.63508 4.31149 4.16987 4.03184 3.59455 3.69976 3.4354 3.30639 2.90214 2.89111 2.80011 2.45573 2.58521 2.13212 2.21088 1.84235 1.78248 1.79773 1.60806 1.32979 1.21317 1.33822 1.16558 1.1588 0.692118 0.654227 0.52628 5.90073 4.85293 5.60523 6.47584 7.26614 7.83247 8.40172 8.35703 8.50097 8.66182 8.77295 8.63014 8.60609 8.55191 8.22793 8.14767 8.35133 8.01671 7.84883 7.67329 7.61126 7.19662 7.13802 6.867 6.61516 6.54988 6.23044 6.11223 6.32613 5.82173 5.47845 5.31171 5.19353 4.99216 4.6976 4.54053 4.6269 4.24635 4.24406 4.18083 3.92333 3.64201 3.57273 3.24847 3.07079 3.10157 2.85603 2.62331 2.5406 2.43758 2.60654 2.2369 1.93177 1.84452 1.72931 1.67158 1.36107 1.28957 1.10958 1.17986 1.13976 0.748723 0.910758 0.648995 3.88805 2.29532 3.38995 4.83884 5.76284 6.54263 6.84204 7.27508 7.62275 7.49192 7.51178 7.76819 7.64684 7.75799 7.72576 7.6843 7.37748 7.46883 7.11209 7.03707 6.9007 6.71661 6.49182 6.52217 6.26153 6.29419 5.99407 5.68206 5.63082 5.347 5.54626 5.16216 5.09132 4.92677 4.63381 4.73832 4.26777 4.4019 4.02931 3.93166 3.941 3.64154 3.39835 3.26653 3.339 3.00748 2.6564 3.06054 2.54461 2.34048 2.38489 2.13486 2.04558 1.7246 1.73033 1.73704 1.53741 1.46255 1.24611 1.21494 1.10192 1.06894 0.726769 0.577032 3.55682 1.49139 3.08285 4.57176 5.69943 6.5232 6.83908 7.16438 7.56183 7.66858 7.62488 7.68435 7.61943 7.6177 7.66179 7.59892 7.36445 7.33426 7.1073 6.94979 6.77173 6.76398 6.76365 6.47187 6.28132 6.42239 5.8514 5.93118 5.72672 5.46397 5.57151 5.14223 5.04825 4.99898 4.79652 4.72123 4.70513 4.27773 4.30974 4.05276 3.82372 3.65387 3.51055 3.35989 3.04016 2.97967 2.85979 2.69398 2.6767 2.53281 2.52986 1.94945 2.09833 1.92035 1.55085 1.74031 1.58463 1.40864 1.21702 1.21345 0.919533 0.896105 0.730439 0.537065 5.01147 4.5312 5.49362 6.96577 7.67432 7.85476 8.18221 8.93624 8.75741 8.68084 8.64277 8.6714 8.76076 8.58751 8.23235 8.21488 8.01881 7.89718 7.71861 7.47346 7.39787 7.22676 7.05296 6.93376 6.67347 6.30399 6.25132 6.08389 5.99715 5.88883 5.51956 5.48127 5.28563 4.80863 4.92968 4.74152 4.42344 4.53862 4.21166 3.85931 3.67581 3.62186 3.39798 3.29216 3.29759 3.01888 2.79355 2.85392 2.66947 2.51491 2.36911 2.20841 2.09243 1.85296 1.8411 1.53998 1.50484 1.40835 1.64502 1.22265 1.15 0.921802 1.00306 1.03863 7.18435 7.55135 8.8619 9.58628 10.5576 10.4228 10.8746 10.5543 10.486 10.3811 10.4775 10.7627 10.0846 9.90629 10.099 9.58598 9.40665 8.96779 8.84874 8.43727 8.31367 7.92371 8.01421 7.55538 7.2709 7.11795 7.29783 6.79917 6.4808 6.07111 6.00514 5.49603 5.52704 5.29344 5.01722 4.78805 5.01289 4.48051 4.2065 4.10494 3.92438 3.57272 3.61399 3.34699 3.26363 2.91652 2.78493 2.64911 2.63454 2.14656 2.3182 2.23259 2.01538 2.06919 1.46934 1.55024 1.37264 1.46924 1.32319 1.29236 1.02705 0.644867 0.942351 0.988012 9.84721 10.2438 11.927 12.9408 13.7373 13.0038 13.1111 13.2712 13.2404 13.5419 12.8636 12.2172 12.2276 11.9986 11.578 11.26 10.8527 10.5442 10.3599 10.0635 9.95429 9.27873 8.95622 8.62874 8.26844 8.01943 7.8048 7.50329 7.16201 6.85308 6.52303 6.1191 6.13166 5.68687 5.49642 5.14162 4.91298 4.93354 4.29147 4.46968 4.41546 3.79404 3.60776 3.61881 3.16076 3.26904 2.9186 2.71643 2.56035 2.51718 2.19344 2.2114 1.86194 1.66374 1.66568 1.72895 1.26693 1.08261 0.915955 1.07927 1.07429 1.11315 0.559116 0.833844 12.6722 13.6395 15.3257 16.2997 16.1338 16.1671 15.926 15.9328 15.5869 15.2936 15.2475 14.8775 14.7971 14.6136 13.6471 13.2852 12.7043 12.3419 12.178 11.474 11.1139 10.642 10.4801 10.1489 9.58986 9.25168 8.62752 8.30195 7.9608 7.54463 7.26039 6.91758 6.60938 6.38692 5.8248 5.56236 5.51375 5.01084 4.75581 4.63523 4.07898 4.14444 3.76028 3.55635 3.24533 3.13668 2.59534 3.02043 2.58882 2.46076 2.02476 1.932 1.93234 2.02814 1.38254 1.12203 1.07449 1.25489 1.45521 0.67138 0.86812 0.791162 0.668273 0.71942 15.791 17.2255 19.2995 19.727 19.9287 19.7616 19.2141 19.1257 18.7088 18.335 17.8041 17.1781 17.0463 16.5647 15.8096 15.284 14.9602 14.4645 14.2001 13.2038 12.5521 12.1862 11.5511 10.6758 10.5109 10.119 9.9021 9.25095 8.86408 8.30647 7.96583 7.61837 7.15989 6.75311 6.70136 6.25568 5.79069 5.49381 5.0025 4.7003 4.38954 4.03338 4.0104 3.47413 3.44732 3.36165 2.89206 2.5173 2.62036 2.43905 2.00526 2.33454 1.66051 1.55187 1.8085 1.04258 1.43977 0.822578 1.04397 0.969191 0.918663 0.705561 0.486097 0.718431 19.5117 22.1419 24.1145 24.3281 24.3022 23.8842 23.233 22.6451 22.0589 21.3776 20.3622 20.1721 19.5772 19.2278 18.0889 17.7541 16.5295 16.3172 15.7421 15.6036 14.8524 14.0421 13.4175 13.2768 12.1604 11.4806 10.7657 10.3566 9.64043 9.71862 8.57207 8.11171 8.41759 7.3576 6.94768 6.62379 6.65562 5.66024 5.37411 5.21632 4.85751 4.28271 4.1277 3.51562 3.48744 3.23851 2.91489 2.58076 2.47 2.76129 1.77036 1.75176 1.52543 1.19989 1.32543 1.5097 1.06183 1.08144 0.976728 0.955613 0.710195 0.584185 0.444843 0.992349 24.7235 27.2194 28.1145 28.3452 28.2063 27.1969 26.1346 25.9238 25.5829 24.8911 23.9438 23.2769 22.3914 21.5462 20.7735 20.088 19.94 18.482 17.7682 17.4468 16.818 15.2428 14.4533 14.7097 13.4505 12.7952 11.9266 11.7614 10.6596 10.6341 9.90612 9.3624 8.60417 8.25094 7.61561 7.26213 6.94453 6.25005 5.91266 5.64448 5.19156 4.86291 4.13422 4.05359 3.38507 3.07654 3.04591 2.82848 2.53264 2.11996 2.12411 1.81341 1.4143 1.38285 1.20836 1.08049 1.25394 0.831662 0.752812 0.746597 0.521411 0.425135 0.847482 0.906467 
SCALARS volume float 1
LOOKUP_TABLE default
0.0394063 0.0394952 0.0395159 0.0395218 0.0395236 0.0395241 0.0395243 0.0395247 0.0395253 0.0395258 0.0395264 0.0395271 0.0395279 0.0395287 0.0395295 0.0395303 0.0395311 0.0395318 0.0395327 0.0395335 0.0395344 0.0395351 0.0395357 0.0395364 0.0395372 0.0395379 0.0395384 0.0395392 0.0395398 0.0395405 0.039541 0.0395418 0.0395423 0.0395427 0.0395433 0.0395438 0.0395444 0.0395448 0.0395452 0.0395457 0.0395462 0.0395466 0.0395469 0.0395474 0.0395476 0.039548 0.0395482 0.0395487 0.039549 0.0395492 0.0395493 0.0395497 0.0395498 0.03955 0.0395503 0.0395504 0.0395504 0.0395505 0.0395508 0.0395508 0.0395509 0.0395508 0.0395509 0.0395509 0.039447 0.0394866 0.0395093 0.0395188 0.0395224 0.0395236 0.0395241 0.0395245 0.0395248 0.0395254 0.0395259 0.0395265 0.0395273 0.039528 0.0395286 0.0395296 0.0395305 0.0395312 0.0395321 0.039533 0.0395338 0.0395345 0.0395353 0.0395361 0.0395368 0.0395375 0.0395381 0.039539 0.0395395 0.0395403 0.0395409 0.0395416 0.0395421 0.0395425 0.0395432 0.0395437 0.0395443 0.0395446 0.0395451 0.0395455 0.0395461 0.0395465 0.0395468 0.0395474 0.0395476 0.039548 0.0395482 0.0395487 0.039549 0.0395491 0.0395494 0.0395498 0.0395498 0.0395499 0.0395504 0.0395504 0.0395504 0.0395505 0.0395508 0.0395508 0.039551 0.0395509 0.039551 0.0395511 0.0394638 0.0395003 0.039513 0.0395209 0.0395245 0.0395262 0.039527 0.0395273 0.0395276 0.0395279 0.0395284 0.0395289 0.0395296 0.0395302 0.0395307 0.0395315 0.0395323 0.039533 0.0395337 0.0395345 0.0395353 0.039536 0.0395367 0.0395373 0.039538 0.0395387 0.0395393 0.03954 0.0395405 0.0395411 0.0395417 0.0395423 0.0395429 0.0395432 0.0395438 0.0395442 0.0395448 0.0395452 0.0395457 0.039546 0.0395465 0.0395468 0.0395471 0.0395475 0.0395477 0.0395482 0.0395483 0.0395488 0.0395491 0.0395492 0.0395496 0.0395496 0.0395499 0.0395501 0.0395502 0.0395504 0.0395504 0.0395505 0.0395507 0.0395507 0.0395508 0.0395507 0.039551 0.0395512 0.0394829 0.039511 0.0395198 0.0395252 0.039528 0.0395295 0.0395303 0.0395307 0.039531 0.0395312 0.0395316 0.039532 0.0395325 0.039533 0.0395335 0.0395339 0.0395347 0.0395353 0.0395359 0.0395365 0.0395371 0.0395379 0.0395385 0.0395392 0.0395398 0.0395403 0.0395408 0.0395413 0.0395418 0.0395424 0.0395428 0.0395432 0.0395439 0.0395443 0.0395446 0.0395449 0.0395455 0.0395459 0.0395463 0.0395467 0.0395469 0.0395473 0.0395476 0.0395479 0.039548 0.0395486 0.0395486 0.0395489 0.0395494 0.0395495 0.0395495 0.0395498 0.0395499 0.03955 0.0395503 0.0395503 0.0395504 0.0395505 0.0395507 0.0395507 0.039551 0.0395509 0.039551 0.0395512 0.039499 0.0395209 0.0395267 0.03953 0.039532 0.0395331 0.0395337 0.0395341 0.0395344 0.0395346 0.0395349 0.0395352 0.0395356 0.039536 0.0395363 0.0395368 0.0395373 0.0395377 0.0395383 0.039539 0.0395394 0.0395399 0.0395406 0.039541 0.0395415 0.039542 0.0395424 0.0395428 0.0395432 0.0395437 0.039544 0.0395444 0.0395448 0.0395453 0.0395457 0.0395459 0.0395463 0.0395466 0.039547 0.0395473 0.0395475 0.0395478 0.0395481 0.0395485 0.0395485 0.039549 0.039549 0.0395492 0.0395495 0.0395497 0.0395497 0.03955 0.03955 0.03955 0.0395502 0.0395506 0.0395504 0.0395504 0.0395507 0.0395506 0.0395511 0.0395509 0.0395508 0.039551 0.0395144 0.0395297 0.0395332 0.0395349 0.039536 0.0395367 0.0395372 0.0395375 0.0395377 0.039538 0.0395382 0.0395384 0.0395388 0.039539 0.0395392 0.0395397 0.0395401 0.0395404 0.0395408 0.0395413 0.0395417 0.039542 0.0395424 0.0395429 0.0395434 0.0395436 0.0395439 0.0395444 0.0395446 0.039545 0.0395453 0.0395457 0.0395461 0.0395463 0.0395467 0.039547 0.0395473 0.0395475 0.0395477 0.0395478 0.0395481 0.0395483 0.0395486 0.0395488 0.039549 0.0395492 0.0395493 0.0395497 0.0395498 0.0395498 0.0395499 0.0395501 0.0395501 0.0395501 0.0395503 0.0395505 0.0395506 0.0395505 0.0395507 0.0395507 0.0395508 0.0395507 0.0395508 0.039551 0.039529 0.0395377 0.0395391 0.0395398 0.0395402 0.0395403 0.0395406 0.0395408 0.039541 0.0395412 0.0395413 0.0395414 0.0395418 0.039542 0.0395421 0.0395425 0.0395428 0.0395431 0.0395434 0.0395437 0.039544 0.0395443 0.0395446 0.0395449 0.0395452 0.0395454 0.0395457 0.0395461 0.0395462 0.0395465 0.0395467 0.0395469 0.0395473 0.0395474 0.0395478 0.0395479 0.0395483 0.0395483 0.0395485 0.0395487 0.0395488 0.039549 0.0395492 0.0395495 0.0395494 0.0395496 0.0395497 0.0395499 0.0395499 0.03955 0.0395501 0.0395502 0.0395503 0.0395504 0.0395505 0.0395505 0.0395506 0.0395506 0.0395508 0.0395507 0.0395506 0.0395508 0.0395508 0.0395509 0.0395431 0.039545 0.0395446 0.0395442 0.039544 0.0395439 0.0395439 0.039544 0.0395442 0.0395443 0.0395444 0.0395444 0.0395447 0.0395449 0.0395452 0.0395453 0.0395456 0.0395457 0.0395458 0.0395461 0.0395463 0.0395465 0.0395467 0.039547 0.039547 0.0395474 0.0395474 0.0395477 0.0395478 0.039548 0.0395482 0.0395484 0.0395484 0.0395485 0.0395488 0.0395488 0.0395491 0.0395491 0.0395493 0.0395495 0.0395496 0.0395496 0.0395497 0.0395498 0.0395499 0.0395501 0.03955 0.0395502 0.0395503 0.0395502 0.0395503 0.0395505 0.0395504 0.0395504 0.0395505 0.0395507 0.0395506 0.0395506 0.0395509 0.0395506 0.0395508 0.0395506 0.0395506 0.0395508 0.0395569 0.039552 0.0395497 0.0395482 0.0395476 0.0395474 0.0395472 0.0395473 0.0395472 0.0395474 0.0395475 0.0395476 0.0395478 0.0395478 0.039548 0.0395481 0.0395482 0.0395483 0.0395484 0.0395486 0.0395486 0.0395487 0.0395489 0.0395489 0.039549 0.0395491 0.0395491 0.0395494 0.0395494 0.0395496 0.0395496 0.0395496 0.0395497 0.0395497 0.0395499 0.0395498 0.0395499 0.0395501 0.03955 0.0395501 0.0395503 0.0395504 0.0395503 0.0395503 0.0395503 0.0395505 0.0395503 0.0395505 0.0395506 0.0395504 0.0395506 0.0395508 0.0395506 0.0395505 0.0395508 0.0395508 0.0395507 0.0395507 0.0395508 0.0395506 0.0395507 0.0395507 0.0395506 0.0395508 0.0395704 0.0395588 0.0395546 0.0395524 0.0395513 0.0395508 0.0395506 0.0395504 0.0395505 0.0395506 0.0395508 0.0395509 0.0395509 0.0395509 0.0395508 0.039551 0.039551 0.0395508 0.0395509 0.039551 0.0395509 0.039551 0.039551 0.0395508 0.0395509 0.0395508 0.0395508 0.039551 0.0395508 0.0395508 0.0395509 0.039551 0.0395509 0.0395507 0.0395508 0.0395509 0.039551 0.0395508 0.0395508 0.0395508 0.0395509 0.039551 0.0395508 0.0395509 0.0395507 0.0395508 0.0395509 0.0395507 0.0395507 0.0395507 0.0395509 0.0395509 0.0395507 0.0395508 0.0395509 0.0395508 0.0395508 0.0395509 0.0395509 0.0395508 0.0395509 0.0395508 0.0395508 0.0395506 0.039584 0.0395654 0.0395592 0.0395562 0.0395548 0.0395541 0.0395539 0.0395539 0.0395538 0.0395539 0.039554 0.0395539 0.0395541 0.039554 0.0395538 0.0395537 0.0395536 0.0395536 0.0395536 0.0395534 0.0395532 0.0395531 0.0395532 0.0395529 0.0395528 0.0395528 0.0395525 0.0395525 0.0395525 0.0395525 0.0395523 0.0395524 0.0395523 0.0395521 0.0395519 0.0395519 0.0395519 0.0395518 0.0395517 0.0395516 0.0395515 0.0395515 0.0395514 0.0395514 0.0395513 0.0395513 0.0395511 0.0395512 0.0395511 0.039551 0.0395511 0.0395511 0.0395508 0.0395509 0.0395509 0.0395509 0.0395508 0.0395507 0.039551 0.0395508 0.0395509 0.0395509 0.0395508 0.0395506 0.0395976 0.0395721 0.039564 0.0395599 0.0395583 0.0395575 0.0395572 0.0395572 0.0395572 0.0395573 0.0395572 0.0395571 0.039557 0.039557 0.0395568 0.0395565 0.0395565 0.0395562 0.039556 0.0395558 0.0395556 0.0395554 0.0395552 0.0395549 0.0395548 0.0395546 0.0395543 0.0395541 0.039554 0.039554 0.0395538 0.0395535 0.0395534 0.0395532 0.039553 0.0395529 0.0395529 0.0395527 0.0395527 0.0395524 0.0395523 0.0395521 0.039552 0.0395519 0.0395518 0.0395518 0.0395516 0.0395516 0.0395514 0.0395513 0.0395513 0.0395514 0.0395511 0.039551 0.0395511 0.039551 0.0395509 0.0395509 0.0395511 0.0395508 0.0395509 0.0395508 0.0395507 0.0395507 0.0396111 0.0395789 0.0395684 0.0395635 0.0395616 0.0395608 0.0395607 0.0395606 0.0395607 0.0395608 0.0395607 0.0395604 0.0395602 0.0395601 0.0395597 0.0395594 0.0395592 0.0395588 0.0395586 0.0395582 0.0395579 0.0395576 0.0395572 0.039557 0.0395568 0.0395564 0.039556 0.0395559 0.0395555 0.0395553 0.0395552 0.0395549 0.0395547 0.0395544 0.0395542 0.039554 0.0395538 0.0395536 0.0395534 0.0395532 0.039553 0.0395529 0.0395526 0.0395525 0.0395523 0.0395522 0.039552 0.039552 0.039552 0.0395517 0.0395517 0.0395516 0.0395513 0.0395514 0.0395514 0.0395512 0.0395512 0.039551 0.0395511 0.0395509 0.039551 0.0395507 0.0395507 0.0395508 0.0396256 0.0395853 0.0395724 0.0395668 0.0395649 0.0395643 0.0395643 0.0395644 0.0395643 0.0395641 0.039564 0.0395636 0.0395633 0.0395629 0.0395627 0.0395623 0.0395617 0.0395614 0.0395611 0.0395606 0.03956 0.0395596 0.0395594 0.039559 0.0395588 0.0395583 0.0395576 0.0395574 0.039557 0.0395567 0.0395563 0.0395562 0.0395559 0.0395554 0.0395552 0.0395549 0.0395547 0.0395543 0.0395542 0.0395538 0.0395536 0.0395535 0.0395533 0.0395531 0.0395527 0.0395527 0.0395525 0.0395524 0.0395523 0.0395519 0.0395518 0.0395517 0.0395516 0.0395513 0.0395515 0.0395513 0.0395513 0.0395509 0.0395511 0.0395511 0.039551 0.0395508 0.0395505 0.0395506 0.0396375 0.0395929 0.0395752 0.0395697 0.0395683 0.0395681 0.0395681 0.0395682 0.0395679 0.0395676 0.0395673 0.0395668 0.0395665 0.0395659 0.0395654 0.0395649 0.0395645 0.0395638 0.0395635 0.039563 0.0395624 0.0395618 0.0395614 0.0395609 0.0395604 0.03956 0.0395595 0.039559 0.0395585 0.0395583 0.0395579 0.0395574 0.0395571 0.0395566 0.0395561 0.0395559 0.0395556 0.0395552 0.039555 0.0395548 0.0395543 0.039554 0.0395539 0.0395536 0.0395532 0.0395532 0.0395528 0.0395528 0.0395525 0.0395523 0.039552 0.0395519 0.0395517 0.0395515 0.0395517 0.0395516 0.0395512 0.039551 0.0395512 0.0395509 0.0395509 0.0395507 0.0395507 0.0395507 0.0396667 0.0395914 0.0395765 0.0395732 0.0395726 0.0395724 0.039572 0.0395718 0.0395713 0.0395708 0.0395703 0.0395698 0.0395692 0.0395686 0.039568 0.0395674 0.0395667 0.0395661 0.0395654 0.0395648 0.0395643 0.0395637 0.0395631 0.0395625 0.0395621 0.0395616 0.0395609 0.0395605 0.0395598 0.0395595 0.0395591 0.0395586 0.0395581 0.0395576 0.0395573 0.0395568 0.0395564 0.039556 0.0395558 0.0395555 0.039555 0.0395546 0.0395543 0.0395541 0.0395538 0.0395536 0.0395531 0.039553 0.0395529 0.0395526 0.0395523 0.0395523 0.0395519 0.0395519 0.0395519 0.0395516 0.0395513 0.0395512 0.0395513 0.039551 0.0395511 0.0395508 0.0395509 0.0395511 0.0394453 0.0394797 0.0395025 0.0395138 0.0395189 0.0395214 0.0395227 0.0395235 0.0395242 0.0395248 0.0395255 0.0395262 0.039527 0.0395278 0.0395286 0.0395294 0.0395302 0.0395311 0.0395321 0.0395328 0.0395335 0.0395344 0.0395351 0.0395358 0.0395367 0.0395373 0.0395381 0.0395389 0.0395393 0.03954 0.0395407 0.0395414 0.0395421 0.0395424 0.039543 0.0395435 0.0395442 0.0395447 0.0395451 0.0395454 0.039546 0.0395464 0.0395467 0.0395471 0.0395476 0.0395481 0.0395481 0.0395486 0.0395488 0.0395492 0.0395493 0.0395497 0.0395497 0.03955 0.0395504 0.0395504 0.0395504 0.0395506 0.0395509 0.0395508 0.0395509 0.0395509 0.0395509 0.0395509 0.0394935 0.039483 0.039501 0.0395114 0.0395175 0.0395209 0.0395229 0.0395242 0.0395251 0.0395259 0.0395267 0.0395274 0.0395283 0.0395288 0.0395297 0.0395306 0.0395315 0.0395323 0.039533 0.0395337 0.0395343 0.0395351 0.039536 0.0395367 0.0395374 0.0395382 0.0395388 0.0395394 0.03954 0.0395409 0.0395413 0.0395419 0.0395424 0.0395428 0.0395434 0.0395437 0.0395446 0.0395449 0.0395454 0.0395457 0.0395463 0.0395466 0.0395468 0.0395472 0.0395478 0.0395483 0.0395483 0.0395486 0.0395489 0.0395493 0.0395495 0.0395497 0.0395496 0.0395499 0.0395504 0.0395504 0.0395506 0.0395507 0.0395509 0.0395508 0.0395508 0.0395508 0.039551 0.039551 0.0394999 0.0394963 0.0395066 0.0395141 0.0395194 0.0395227 0.0395247 0.0395261 0.0395272 0.039528 0.0395286 0.0395293 0.0395302 0.0395306 0.0395314 0.0395322 0.0395329 0.0395336 0.0395343 0.039535 0.0395358 0.0395364 0.0395371 0.0395378 0.0395385 0.0395391 0.0395396 0.0395402 0.0395407 0.0395415 0.0395421 0.0395426 0.039543 0.0395436 0.0395441 0.0395443 0.0395449 0.0395452 0.0395458 0.0395462 0.0395468 0.039547 0.0395471 0.0395478 0.0395481 0.0395484 0.0395485 0.0395487 0.0395492 0.0395495 0.0395496 0.0395497 0.0395499 0.03955 0.0395503 0.0395505 0.0395505 0.0395505 0.0395507 0.0395508 0.0395508 0.0395508 0.0395508 0.0395511 0.0395111 0.039506 0.0395145 0.0395196 0.0395237 0.0395263 0.039528 0.0395292 0.0395302 0.0395308 0.0395315 0.039532 0.0395327 0.0395332 0.0395339 0.0395346 0.0395351 0.0395357 0.0395364 0.0395371 0.0395376 0.0395382 0.0395387 0.0395392 0.03954 0.0395404 0.0395408 0.0395417 0.0395419 0.0395425 0.039543 0.0395434 0.039544 0.0395444 0.0395448 0.0395452 0.0395457 0.0395459 0.0395465 0.0395467 0.039547 0.0395475 0.0395476 0.039548 0.0395482 0.0395485 0.0395485 0.039549 0.0395492 0.0395496 0.0395497 0.0395498 0.0395499 0.0395501 0.0395502 0.0395504 0.0395504 0.0395505 0.0395507 0.0395507 0.0395507 0.0395507 0.0395509 0.0395511 0.0395204 0.0395164 0.0395222 0.0395257 0.0395283 0.0395303 0.0395317 0.0395325 0.0395334 0.039534 0.0395345 0.0395349 0.0395356 0.039536 0.0395365 0.039537 0.0395374 0.0395378 0.0395386 0.0395391 0.0395396 0.0395401 0.0395406 0.039541 0.0395415 0.0395421 0.0395424 0.0395431 0.0395434 0.0395438 0.0395441 0.0395447 0.039545 0.0395454 0.0395456 0.039546 0.0395465 0.0395466 0.039547 0.0395473 0.0395475 0.0395479 0.039548 0.0395483 0.0395486 0.0395488 0.0395487 0.0395493 0.0395494 0.0395496 0.0395497 0.03955 0.0395499 0.0395501 0.0395503 0.0395504 0.0395504 0.0395504 0.0395508 0.0395507 0.0395509 0.0395507 0.0395508 0.0395512 0.0395295 0.0395262 0.0395299 0.0395318 0.0395333 0.0395345 0.0395355 0.0395361 0.0395367 0.0395373 0.0395376 0.039538 0.0395385 0.0395388 0.0395393 0.0395396 0.03954 0.0395404 0.0395409 0.0395412 0.0395416 0.0395422 0.0395426 0.039543 0.0395433 0.0395438 0.0395442 0.0395446 0.0395447 0.0395451 0.0395452 0.0395457 0.0395462 0.0395464 0.0395466 0.0395469 0.0395473 0.0395473 0.0395476 0.0395479 0.0395482 0.0395483 0.0395485 0.0395488 0.0395489 0.0395491 0.0395493 0.0395496 0.0395497 0.0395499 0.0395498 0.0395501 0.03955 0.03955 0.0395503 0.0395504 0.0395505 0.0395504 0.0395507 0.0395507 0.0395507 0.0395505 0.0395509 0.0395509 0.0395379 0.0395354 0.039537 0.0395376 0.0395382 0.0395389 0.0395394 0.0395399 0.0395403 0.0395406 0.039541 0.0395411 0.0395415 0.0395417 0.039542 0.0395424 0.0395428 0.039543 0.0395432 0.0395436 0.0395439 0.0395443 0.0395446 0.0395448 0.0395453 0.0395453 0.0395457 0.0395461 0.0395462 0.0395466 0.0395466 0.039547 0.0395473 0.0395476 0.0395478 0.0395478 0.0395482 0.0395481 0.0395484 0.0395488 0.0395488 0.039549 0.039549 0.0395491 0.0395492 0.0395495 0.0395496 0.0395499 0.0395498 0.0395501 0.0395501 0.0395503 0.0395503 0.0395502 0.0395505 0.0395506 0.0395505 0.0395505 0.0395507 0.0395507 0.0395505 0.0395506 0.0395508 0.039551 0.0395461 0.0395439 0.0395436 0.0395432 0.0395431 0.039543 0.0395432 0.0395435 0.0395438 0.0395439 0.0395441 0.0395442 0.0395446 0.0395447 0.0395449 0.0395451 0.0395455 0.0395456 0.0395458 0.0395459 0.0395463 0.0395464 0.0395467 0.0395468 0.039547 0.0395471 0.0395473 0.0395475 0.0395476 0.0395479 0.0395479 0.0395482 0.0395484 0.0395486 0.0395488 0.0395489 0.0395491 0.039549 0.0395491 0.0395494 0.0395495 0.0395495 0.0395495 0.0395496 0.0395497 0.03955 0.03955 0.0395502 0.0395502 0.0395501 0.0395502 0.0395504 0.0395503 0.0395504 0.0395507 0.0395508 0.0395505 0.0395506 0.0395507 0.0395506 0.0395507 0.0395506 0.0395505 0.0395508 0.039554 0.0395524 0.03955 0.0395487 0.0395477 0.0395472 0.039547 0.0395469 0.039547 0.0395472 0.0395471 0.0395473 0.0395475 0.0395476 0.0395478 0.0395478 0.0395479 0.0395481 0.0395482 0.0395482 0.0395484 0.0395485 0.0395486 0.0395487 0.0395489 0.039549 0.0395489 0.0395492 0.0395492 0.0395494 0.0395493 0.0395493 0.0395496 0.0395497 0.0395496 0.0395497 0.0395498 0.0395498 0.03955 0.0395499 0.0395503 0.0395503 0.0395503 0.0395502 0.0395501 0.0395504 0.0395504 0.0395506 0.0395506 0.0395504 0.0395506 0.0395507 0.0395506 0.0395507 0.0395508 0.0395508 0.0395507 0.0395506 0.0395508 0.0395508 0.0395508 0.0395506 0.0395504 0.0395505 0.0395617 0.0395605 0.0395561 0.0395536 0.039552 0.0395511 0.0395507 0.0395506 0.0395504 0.0395503 0.0395504 0.0395505 0.0395505 0.0395506 0.0395506 0.0395506 0.0395505 0.0395505 0.0395506 0.0395507 0.0395507 0.0395509 0.0395507 0.0395508 0.0395509 0.0395507 0.0395506 0.0395509 0.0395508 0.0395508 0.0395509 0.0395508 0.0395508 0.0395507 0.0395508 0.0395506 0.0395508 0.0395506 0.0395508 0.0395507 0.0395508 0.0395509 0.0395507 0.0395507 0.0395509 0.0395509 0.0395509 0.0395509 0.0395509 0.0395508 0.0395509 0.0395509 0.0395508 0.0395508 0.039551 0.0395509 0.0395508 0.0395506 0.0395509 0.0395508 0.039551 0.0395506 0.0395505 0.0395505 0.0395695 0.0395685 0.0395619 0.0395585 0.0395564 0.0395552 0.0395544 0.0395541 0.0395538 0.0395537 0.0395537 0.0395537 0.0395537 0.0395535 0.0395534 0.0395534 0.0395533 0.0395532 0.0395531 0.039553 0.039553 0.039553 0.0395527 0.0395527 0.0395525 0.0395526 0.0395525 0.0395526 0.0395524 0.0395524 0.0395521 0.0395521 0.039552 0.0395519 0.0395519 0.0395517 0.0395517 0.0395515 0.0395516 0.0395516 0.0395516 0.0395514 0.0395514 0.0395513 0.0395513 0.0395514 0.0395512 0.0395513 0.0395511 0.0395511 0.0395511 0.039551 0.0395509 0.039551 0.0395509 0.0395509 0.0395507 0.0395507 0.0395509 0.0395505 0.0395508 0.0395507 0.0395508 0.0395507 0.039577 0.0395762 0.0395677 0.0395632 0.0395605 0.039559 0.0395581 0.0395575 0.0395572 0.0395571 0.0395569 0.0395568 0.0395567 0.0395564 0.0395562 0.0395561 0.039556 0.0395558 0.0395553 0.0395552 0.0395552 0.039555 0.0395547 0.0395545 0.0395544 0.0395544 0.039554 0.039554 0.0395538 0.0395536 0.0395535 0.0395535 0.0395534 0.0395531 0.0395529 0.0395528 0.0395526 0.0395524 0.0395525 0.0395522 0.0395523 0.0395521 0.0395521 0.0395519 0.0395517 0.0395517 0.0395515 0.0395514 0.0395514 0.0395513 0.0395512 0.0395513 0.0395512 0.0395511 0.0395511 0.0395511 0.0395509 0.0395507 0.039551 0.0395506 0.0395508 0.0395507 0.0395507 0.0395506 0.0395841 0.0395837 0.0395729 0.0395675 0.0395643 0.0395625 0.0395616 0.039561 0.0395606 0.0395604 0.0395602 0.0395598 0.0395597 0.0395594 0.0395591 0.0395589 0.0395586 0.0395584 0.0395581 0.0395576 0.0395575 0.0395573 0.0395568 0.0395564 0.0395564 0.0395562 0.0395556 0.0395556 0.0395552 0.0395551 0.039555 0.0395546 0.0395543 0.0395541 0.0395539 0.0395537 0.0395537 0.0395532 0.039553 0.0395531 0.0395529 0.0395528 0.0395526 0.0395524 0.0395521 0.0395522 0.0395519 0.0395519 0.0395518 0.0395518 0.0395516 0.0395516 0.0395511 0.0395512 0.0395513 0.0395513 0.039551 0.0395509 0.0395509 0.0395508 0.039551 0.0395508 0.0395506 0.0395507 0.0395921 0.0395899 0.0395782 0.0395717 0.0395681 0.0395662 0.039565 0.0395643 0.0395637 0.0395635 0.0395632 0.0395629 0.0395626 0.0395622 0.039562 0.0395616 0.0395611 0.0395608 0.0395603 0.0395599 0.0395596 0.0395593 0.0395589 0.0395585 0.0395582 0.0395578 0.0395572 0.0395572 0.0395567 0.0395564 0.0395561 0.0395558 0.0395554 0.0395552 0.0395549 0.0395545 0.0395544 0.0395539 0.0395539 0.0395537 0.0395534 0.0395533 0.039553 0.039553 0.0395526 0.0395526 0.0395522 0.0395523 0.0395521 0.0395519 0.0395519 0.0395516 0.0395514 0.0395514 0.0395514 0.0395515 0.0395511 0.039551 0.0395509 0.0395509 0.039551 0.0395507 0.0395507 0.0395508 0.0395957 0.0395975 0.0395824 0.0395754 0.0395716 0.0395697 0.0395684 0.0395678 0.0395673 0.0395669 0.0395664 0.0395659 0.0395655 0.0395651 0.0395647 0.0395641 0.0395636 0.0395631 0.0395626 0.0395622 0.0395618 0.0395613 0.0395608 0.0395605 0.0395599 0.0395595 0.039559 0.0395587 0.0395581 0.0395577 0.0395574 0.0395569 0.0395567 0.0395563 0.0395559 0.0395556 0.0395554 0.0395547 0.0395547 0.0395543 0.039554 0.039554 0.0395537 0.0395534 0.0395532 0.0395531 0.0395527 0.0395525 0.0395524 0.0395522 0.039552 0.0395521 0.0395519 0.0395516 0.0395516 0.0395515 0.039551 0.0395509 0.039551 0.0395509 0.0395511 0.0395509 0.0395508 0.0395509 0.0396259 0.0396014 0.0395867 0.0395792 0.0395756 0.0395737 0.0395726 0.039572 0.0395714 0.0395708 0.0395702 0.0395696 0.0395692 0.0395685 0.0395678 0.0395672 0.0395666 0.039566 0.0395654 0.0395648 0.0395643 0.0395637 0.0395631 0.0395626 0.039562 0.0395614 0.0395609 0.0395605 0.0395596 0.0395595 0.039559 0.0395584 0.0395579 0.0395574 0.0395572 0.0395566 0.0395564 0.0395558 0.0395556 0.0395552 0.0395549 0.0395547 0.0395543 0.039554 0.0395537 0.0395535 0.0395532 0.039553 0.0395529 0.0395526 0.0395523 0.0395523 0.0395521 0.0395517 0.0395515 0.0395513 0.0395512 0.0395512 0.0395511 0.0395509 0.0395509 0.0395509 0.0395508 0.0395509 0.0394349 0.0394834 0.039499 0.0395084 0.039514 0.0395175 0.0395197 0.0395212 0.0395225 0.0395235 0.0395245 0.0395251 0.0395261 0.0395272 0.0395279 0.0395288 0.0395298 0.0395307 0.0395316 0.0395325 0.0395333 0.039534 0.0395348 0.0395356 0.0395363 0.039537 0.0395377 0.0395386 0.0395391 0.03954 0.0395406 0.0395412 0.0395417 0.0395422 0.0395428 0.0395433 0.0395441 0.0395446 0.0395451 0.0395455 0.039546 0.0395464 0.0395468 0.0395472 0.0395475 0.0395481 0.0395482 0.0395486 0.039549 0.0395491 0.0395493 0.0395498 0.0395498 0.0395501 0.0395504 0.0395505 0.0395507 0.0395506 0.0395508 0.0395508 0.0395509 0.0395508 0.0395509 0.0395509 0.0394892 0.0394842 0.0394987 0.0395081 0.0395145 0.0395185 0.0395209 0.0395228 0.0395241 0.0395252 0.0395263 0.0395272 0.039528 0.039529 0.0395297 0.0395306 0.0395315 0.0395322 0.039533 0.0395338 0.0395346 0.0395354 0.039536 0.0395369 0.0395374 0.039538 0.0395387 0.0395396 0.0395399 0.0395406 0.0395414 0.0395419 0.0395423 0.0395429 0.0395434 0.039544 0.0395447 0.0395451 0.0395456 0.0395459 0.0395462 0.0395468 0.0395471 0.0395474 0.0395477 0.0395483 0.0395484 0.0395489 0.039549 0.0395491 0.0395494 0.0395496 0.0395498 0.03955 0.0395503 0.0395503 0.0395504 0.0395506 0.0395509 0.039551 0.0395511 0.0395508 0.0395508 0.0395511 0.0394973 0.0395004 0.0395044 0.0395118 0.039517 0.0395207 0.0395232 0.039525 0.0395264 0.0395275 0.0395286 0.0395294 0.0395303 0.039531 0.0395317 0.0395325 0.0395335 0.0395341 0.0395347 0.0395354 0.0395361 0.0395368 0.0395374 0.0395382 0.0395389 0.0395393 0.0395399 0.0395406 0.039541 0.0395415 0.039542 0.0395427 0.0395433 0.0395436 0.039544 0.0395446 0.0395452 0.0395454 0.0395459 0.0395463 0.0395467 0.0395471 0.0395474 0.0395476 0.0395478 0.0395482 0.0395485 0.0395489 0.0395492 0.0395491 0.0395495 0.0395496 0.0395498 0.0395502 0.0395501 0.0395503 0.0395504 0.0395505 0.0395507 0.0395509 0.0395508 0.0395507 0.0395509 0.0395509 0.0395091 0.0395096 0.0395127 0.0395173 0.0395213 0.0395241 0.0395264 0.039528 0.0395293 0.0395304 0.0395312 0.0395318 0.0395326 0.0395334 0.0395341 0.0395347 0.0395355 0.0395361 0.0395366 0.0395372 0.0395377 0.0395384 0.0395391 0.0395397 0.0395403 0.0395407 0.0395412 0.0395417 0.0395421 0.0395426 0.0395431 0.0395436 0.0395441 0.0395443 0.039545 0.0395452 0.0395457 0.0395461 0.0395464 0.0395467 0.0395472 0.0395474 0.0395476 0.0395479 0.0395482 0.0395488 0.0395488 0.039549 0.0395494 0.0395495 0.0395495 0.0395496 0.0395497 0.0395501 0.0395504 0.0395504 0.0395504 0.0395504 0.0395507 0.0395507 0.0395508 0.0395508 0.0395507 0.039551 0.0395187 0.0395189 0.0395204 0.0395236 0.0395262 0.0395285 0.0395303 0.0395316 0.0395325 0.0395334 0.0395342 0.0395349 0.0395355 0.039536 0.0395367 0.0395372 0.0395379 0.0395382 0.0395387 0.0395393 0.0395398 0.0395402 0.0395408 0.0395414 0.0395419 0.0395422 0.0395426 0.039543 0.0395433 0.0395438 0.0395443 0.0395446 0.0395449 0.0395455 0.0395459 0.0395462 0.0395463 0.0395467 0.0395472 0.0395473 0.0395476 0.0395481 0.039548 0.0395485 0.0395486 0.0395489 0.039549 0.0395492 0.0395494 0.0395496 0.0395497 0.0395497 0.0395498 0.03955 0.0395504 0.0395505 0.0395503 0.0395505 0.0395506 0.0395506 0.0395507 0.0395507 0.0395508 0.039551 0.0395279 0.0395276 0.0395281 0.03953 0.0395316 0.0395331 0.0395344 0.0395353 0.039536 0.0395366 0.0395374 0.0395379 0.0395384 0.0395389 0.0395392 0.0395396 0.0395401 0.0395405 0.039541 0.0395414 0.0395419 0.0395422 0.0395425 0.0395431 0.0395438 0.0395439 0.0395441 0.0395446 0.0395446 0.0395451 0.0395455 0.0395456 0.0395459 0.0395464 0.0395468 0.0395469 0.0395472 0.0395475 0.0395479 0.0395478 0.0395481 0.0395483 0.0395486 0.0395488 0.0395489 0.0395492 0.0395491 0.0395496 0.0395498 0.0395498 0.0395498 0.0395501 0.03955 0.0395502 0.0395504 0.0395504 0.0395504 0.0395505 0.0395507 0.0395507 0.0395509 0.0395508 0.0395509 0.039551 0.039537 0.0395361 0.0395358 0.0395365 0.0395371 0.0395378 0.0395384 0.039539 0.0395395 0.0395399 0.0395404 0.0395408 0.0395413 0.0395417 0.0395419 0.0395424 0.0395426 0.0395429 0.0395434 0.0395435 0.0395439 0.0395442 0.0395446 0.0395449 0.0395454 0.0395457 0.0395457 0.0395461 0.0395461 0.0395464 0.0395467 0.0395468 0.039547 0.0395474 0.0395477 0.0395478 0.0395482 0.0395484 0.0395485 0.0395486 0.0395486 0.0395487 0.039549 0.0395493 0.0395492 0.0395496 0.0395495 0.0395498 0.0395499 0.0395498 0.0395501 0.0395501 0.0395501 0.0395505 0.0395504 0.0395505 0.0395506 0.0395505 0.0395508 0.0395507 0.0395507 0.0395508 0.0395509 0.0395507 0.0395457 0.0395442 0.0395431 0.0395425 0.0395423 0.0395423 0.0395426 0.0395429 0.0395431 0.0395434 0.0395436 0.0395439 0.0395443 0.0395446 0.0395448 0.0395449 0.0395451 0.0395453 0.0395456 0.0395459 0.0395461 0.0395464 0.0395466 0.0395468 0.039547 0.0395473 0.0395473 0.0395476 0.0395476 0.0395478 0.039548 0.0395482 0.0395484 0.0395484 0.0395488 0.0395488 0.0395492 0.0395491 0.0395491 0.0395493 0.0395492 0.0395493 0.0395497 0.0395499 0.0395496 0.0395499 0.03955 0.0395501 0.0395502 0.0395502 0.0395503 0.0395503 0.0395503 0.0395502 0.0395504 0.0395506 0.0395505 0.0395505 0.0395507 0.0395507 0.0395507 0.0395504 0.0395507 0.0395507 0.0395541 0.0395518 0.03955 0.0395483 0.0395474 0.039547 0.0395469 0.0395468 0.0395467 0.0395468 0.0395469 0.039547 0.0395472 0.0395475 0.0395476 0.0395476 0.0395478 0.0395479 0.0395481 0.0395481 0.0395484 0.0395485 0.0395486 0.0395486 0.0395486 0.0395489 0.039549 0.0395491 0.039549 0.0395493 0.0395492 0.0395494 0.0395494 0.0395495 0.0395498 0.0395498 0.03955 0.0395498 0.0395499 0.03955 0.0395501 0.0395499 0.03955 0.0395502 0.0395502 0.0395503 0.0395503 0.0395504 0.0395506 0.0395506 0.0395504 0.0395506 0.0395505 0.0395503 0.0395507 0.0395507 0.0395505 0.0395504 0.0395505 0.0395507 0.0395506 0.0395506 0.0395505 0.0395505 0.0395625 0.0395593 0.0395565 0.039554 0.0395524 0.0395514 0.0395509 0.0395505 0.0395503 0.0395503 0.0395502 0.0395502 0.0395503 0.0395504 0.0395504 0.0395506 0.0395506 0.0395505 0.0395506 0.0395506 0.0395506 0.0395505 0.0395506 0.0395505 0.0395504 0.0395507 0.0395507 0.0395507 0.0395506 0.0395507 0.0395506 0.0395507 0.0395507 0.0395507 0.0395505 0.0395507 0.0395509 0.0395506 0.0395506 0.0395506 0.0395508 0.0395507 0.0395508 0.0395508 0.0395507 0.0395509 0.0395507 0.0395509 0.039551 0.0395508 0.0395507 0.0395508 0.0395507 0.0395505 0.0395508 0.0395507 0.0395506 0.0395506 0.0395507 0.0395508 0.0395506 0.0395504 0.0395506 0.0395505 0.0395707 0.0395664 0.0395629 0.0395594 0.0395572 0.0395557 0.0395547 0.0395542 0.0395537 0.0395536 0.0395537 0.0395535 0.0395534 0.0395532 0.0395532 0.0395531 0.039553 0.0395528 0.0395528 0.0395528 0.0395526 0.0395526 0.0395526 0.0395525 0.0395524 0.0395524 0.0395522 0.0395522 0.039552 0.0395521 0.0395519 0.0395519 0.039552 0.0395517 0.0395517 0.0395516 0.0395518 0.0395515 0.0395515 0.0395514 0.0395513 0.0395513 0.0395512 0.0395513 0.0395512 0.0395512 0.0395511 0.039551 0.0395511 0.039551 0.0395511 0.0395511 0.0395508 0.0395508 0.0395508 0.0395509 0.0395509 0.0395507 0.0395509 0.0395509 0.0395508 0.0395505 0.0395507 0.0395505 0.0395786 0.039573 0.0395688 0.0395644 0.0395615 0.0395598 0.0395586 0.0395579 0.0395573 0.039557 0.0395568 0.0395566 0.0395564 0.0395562 0.039556 0.0395558 0.0395556 0.0395555 0.0395554 0.0395552 0.0395549 0.0395547 0.0395546 0.0395544 0.0395542 0.0395541 0.0395539 0.0395538 0.0395535 0.0395535 0.0395532 0.0395531 0.0395531 0.0395529 0.039553 0.0395527 0.0395526 0.0395523 0.0395523 0.0395521 0.0395518 0.0395518 0.0395518 0.0395517 0.0395517 0.0395517 0.0395515 0.0395513 0.0395513 0.0395513 0.0395512 0.0395512 0.039551 0.0395512 0.039551 0.0395509 0.0395508 0.0395507 0.0395509 0.0395507 0.0395508 0.0395507 0.0395507 0.0395507 0.0395864 0.0395797 0.0395742 0.0395692 0.0395659 0.0395637 0.0395623 0.0395614 0.0395608 0.0395604 0.0395599 0.0395597 0.0395594 0.039559 0.0395589 0.0395585 0.0395582 0.039558 0.0395578 0.0395575 0.039557 0.0395568 0.0395566 0.0395564 0.0395561 0.0395558 0.0395557 0.0395555 0.0395551 0.0395548 0.0395548 0.0395545 0.0395543 0.039554 0.0395539 0.0395536 0.0395535 0.0395532 0.0395531 0.0395527 0.0395528 0.0395525 0.0395525 0.0395523 0.0395521 0.0395521 0.0395519 0.039552 0.0395517 0.0395517 0.0395514 0.0395515 0.0395513 0.0395512 0.0395512 0.0395509 0.0395508 0.0395509 0.039551 0.0395509 0.0395508 0.0395507 0.0395506 0.0395507 0.0395951 0.0395852 0.0395795 0.0395735 0.0395699 0.0395676 0.0395662 0.039565 0.0395644 0.0395637 0.0395632 0.0395627 0.0395624 0.039562 0.0395615 0.0395611 0.0395607 0.0395603 0.03956 0.0395597 0.0395592 0.0395589 0.0395585 0.0395582 0.039558 0.0395575 0.0395573 0.039557 0.0395564 0.0395562 0.0395559 0.0395557 0.0395554 0.0395549 0.0395548 0.0395545 0.0395545 0.0395541 0.0395537 0.0395535 0.0395535 0.0395532 0.039553 0.0395528 0.0395525 0.0395525 0.0395522 0.0395524 0.039552 0.039552 0.0395518 0.0395517 0.0395515 0.0395514 0.0395513 0.0395511 0.039551 0.0395509 0.0395511 0.0395508 0.0395509 0.0395508 0.0395507 0.0395507 0.0395995 0.0395937 0.0395834 0.0395777 0.0395738 0.0395715 0.0395698 0.0395687 0.0395678 0.0395671 0.0395666 0.0395659 0.0395654 0.039565 0.0395643 0.0395637 0.0395634 0.0395628 0.0395625 0.0395621 0.0395614 0.0395608 0.0395606 0.0395602 0.0395597 0.0395594 0.0395588 0.0395584 0.0395579 0.0395576 0.0395571 0.0395568 0.0395565 0.039556 0.0395559 0.0395556 0.0395553 0.039555 0.0395546 0.0395542 0.0395541 0.0395539 0.0395535 0.0395533 0.0395529 0.0395528 0.0395525 0.0395526 0.0395523 0.0395522 0.0395521 0.0395518 0.0395515 0.0395514 0.0395515 0.0395512 0.0395511 0.039551 0.0395509 0.0395508 0.0395509 0.0395507 0.0395507 0.0395508 0.0396318 0.0395939 0.0395878 0.0395824 0.0395788 0.039576 0.0395743 0.0395727 0.0395718 0.0395708 0.0395701 0.0395693 0.0395686 0.0395682 0.0395675 0.0395668 0.0395662 0.0395657 0.0395651 0.0395645 0.039564 0.0395633 0.0395628 0.039562 0.0395616 0.039561 0.0395604 0.0395599 0.0395596 0.0395591 0.0395585 0.0395581 0.0395578 0.0395574 0.039557 0.0395565 0.0395564 0.0395559 0.0395555 0.039555 0.0395547 0.0395546 0.039554 0.0395538 0.0395534 0.0395532 0.039553 0.0395528 0.0395526 0.0395524 0.0395523 0.0395522 0.0395518 0.0395516 0.0395514 0.0395513 0.0395511 0.0395512 0.0395511 0.039551 0.0395509 0.0395507 0.0395509 0.0395509 0.0394307 0.0394815 0.0394978 0.0395063 0.0395114 0.0395149 0.0395174 0.0395192 0.0395208 0.0395221 0.0395233 0.0395245 0.0395256 0.0395264 0.0395275 0.0395286 0.0395294 0.0395302 0.0395311 0.039532 0.0395329 0.0395338 0.0395346 0.0395354 0.0395362 0.0395371 0.0395377 0.0395384 0.0395389 0.0395398 0.0395404 0.0395411 0.0395418 0.0395422 0.0395428 0.0395434 0.0395441 0.0395443 0.0395449 0.0395455 0.0395459 0.0395464 0.0395469 0.0395474 0.0395477 0.039548 0.0395482 0.0395486 0.039549 0.0395492 0.0395494 0.0395499 0.03955 0.0395503 0.0395504 0.0395505 0.0395507 0.0395506 0.039551 0.039551 0.0395511 0.0395508 0.0395507 0.0395508 0.0394902 0.039482 0.0394973 0.039506 0.0395123 0.0395164 0.0395194 0.0395215 0.0395232 0.0395247 0.0395258 0.0395268 0.0395279 0.0395288 0.0395296 0.0395304 0.0395312 0.039532 0.0395329 0.0395338 0.0395347 0.0395354 0.0395362 0.0395368 0.0395375 0.0395382 0.0395389 0.0395395 0.0395401 0.0395409 0.0395414 0.0395419 0.0395426 0.0395429 0.0395436 0.0395441 0.0395446 0.0395448 0.0395454 0.039546 0.0395463 0.0395468 0.0395471 0.0395476 0.0395479 0.0395482 0.0395484 0.0395488 0.0395491 0.0395492 0.0395495 0.0395498 0.0395499 0.0395501 0.0395506 0.0395505 0.0395505 0.0395506 0.0395508 0.0395506 0.0395509 0.039551 0.0395507 0.0395509 0.0394977 0.0394992 0.0395033 0.03951 0.0395152 0.0395192 0.039522 0.0395241 0.0395257 0.039527 0.0395281 0.0395292 0.0395302 0.039531 0.0395317 0.0395324 0.0395332 0.0395339 0.0395346 0.0395355 0.0395363 0.039537 0.0395376 0.0395382 0.0395388 0.0395395 0.03954 0.0395406 0.0395411 0.0395417 0.0395422 0.0395428 0.0395433 0.0395437 0.0395442 0.0395447 0.0395453 0.0395454 0.0395458 0.0395462 0.0395467 0.0395471 0.0395474 0.0395478 0.0395479 0.0395483 0.0395486 0.0395488 0.0395492 0.0395493 0.0395495 0.0395499 0.0395498 0.0395498 0.0395504 0.0395505 0.0395503 0.0395505 0.0395507 0.0395507 0.0395509 0.0395508 0.0395508 0.0395511 0.0395096 0.0395087 0.0395121 0.0395158 0.0395197 0.0395229 0.0395253 0.0395272 0.0395286 0.0395299 0.039531 0.0395319 0.0395328 0.0395334 0.0395341 0.0395349 0.0395353 0.0395362 0.0395369 0.0395374 0.0395381 0.0395387 0.0395393 0.0395397 0.0395404 0.039541 0.0395413 0.039542 0.0395422 0.0395427 0.0395432 0.0395438 0.0395442 0.0395445 0.039545 0.0395453 0.0395458 0.0395462 0.0395465 0.0395468 0.0395471 0.0395475 0.0395479 0.039548 0.0395482 0.0395486 0.0395488 0.0395491 0.0395493 0.0395495 0.0395498 0.0395496 0.0395498 0.03955 0.0395503 0.0395503 0.0395503 0.0395504 0.0395507 0.0395507 0.0395508 0.0395507 0.0395508 0.039551 0.039519 0.0395185 0.03952 0.0395224 0.039525 0.0395273 0.0395292 0.0395307 0.0395319 0.0395332 0.0395341 0.0395346 0.0395354 0.0395361 0.0395366 0.0395372 0.0395378 0.0395382 0.0395389 0.0395394 0.0395399 0.0395405 0.039541 0.0395414 0.0395419 0.0395423 0.0395427 0.0395432 0.0395436 0.0395441 0.0395443 0.0395448 0.0395451 0.0395456 0.0395459 0.0395461 0.0395469 0.0395468 0.0395471 0.0395475 0.0395477 0.0395479 0.0395481 0.0395484 0.0395486 0.039549 0.039549 0.0395492 0.0395496 0.0395497 0.0395498 0.0395499 0.03955 0.0395503 0.0395503 0.0395504 0.0395503 0.0395504 0.0395506 0.0395505 0.0395507 0.0395508 0.0395509 0.039551 0.0395283 0.0395274 0.039528 0.0395292 0.0395307 0.0395321 0.0395334 0.0395345 0.0395355 0.0395364 0.039537 0.0395376 0.0395381 0.0395385 0.0395392 0.0395396 0.0395402 0.0395405 0.039541 0.0395416 0.0395418 0.0395423 0.0395427 0.0395432 0.0395435 0.0395439 0.0395442 0.0395446 0.0395448 0.0395454 0.0395454 0.0395458 0.0395462 0.0395465 0.0395467 0.0395471 0.0395475 0.0395475 0.0395478 0.0395481 0.0395483 0.0395484 0.0395486 0.039549 0.039549 0.0395493 0.0395493 0.0395494 0.0395496 0.03955 0.0395499 0.0395501 0.0395502 0.0395503 0.0395504 0.0395504 0.0395504 0.0395504 0.0395508 0.0395507 0.0395508 0.0395506 0.0395507 0.039551 0.039537 0.0395358 0.0395356 0.0395357 0.0395363 0.0395372 0.0395378 0.0395386 0.0395393 0.0395398 0.0395405 0.0395408 0.0395411 0.0395415 0.039542 0.0395422 0.0395426 0.039543 0.0395432 0.0395437 0.0395441 0.0395442 0.0395446 0.0395451 0.0395453 0.0395455 0.0395457 0.0395461 0.0395462 0.0395466 0.0395468 0.0395471 0.0395471 0.0395474 0.0395478 0.0395481 0.0395482 0.0395484 0.0395485 0.0395486 0.0395489 0.0395489 0.0395491 0.0395493 0.0395493 0.0395496 0.0395497 0.0395499 0.0395498 0.0395498 0.0395502 0.0395504 0.0395501 0.0395503 0.0395506 0.0395505 0.0395504 0.0395506 0.0395508 0.0395507 0.0395508 0.0395506 0.0395507 0.0395509 0.0395457 0.0395439 0.0395428 0.0395422 0.0395419 0.0395421 0.0395422 0.0395425 0.0395429 0.0395433 0.0395437 0.0395439 0.0395441 0.0395444 0.0395447 0.039545 0.0395452 0.0395453 0.0395457 0.0395459 0.0395461 0.0395463 0.0395466 0.0395469 0.0395471 0.0395471 0.0395473 0.0395475 0.0395477 0.0395479 0.0395481 0.039548 0.0395482 0.0395485 0.0395486 0.0395486 0.039549 0.039549 0.0395494 0.0395494 0.0395495 0.0395496 0.0395497 0.0395499 0.0395498 0.0395499 0.03955 0.0395501 0.0395502 0.03955 0.0395503 0.0395504 0.0395503 0.0395505 0.0395506 0.0395505 0.0395505 0.0395506 0.0395508 0.0395507 0.0395507 0.0395506 0.0395507 0.0395507 0.0395538 0.0395517 0.0395498 0.0395485 0.0395476 0.0395469 0.0395466 0.0395465 0.0395467 0.0395467 0.0395469 0.039547 0.0395472 0.0395472 0.0395474 0.0395476 0.0395477 0.0395478 0.0395478 0.0395481 0.0395483 0.0395484 0.0395486 0.0395487 0.0395489 0.0395488 0.0395487 0.0395489 0.0395489 0.0395492 0.0395493 0.0395494 0.0395493 0.0395495 0.0395497 0.0395497 0.03955 0.0395498 0.0395501 0.0395501 0.0395499 0.0395501 0.0395502 0.0395504 0.0395503 0.0395506 0.0395503 0.0395505 0.0395503 0.0395503 0.0395505 0.0395505 0.0395504 0.0395505 0.0395506 0.0395507 0.0395505 0.0395507 0.0395507 0.0395507 0.0395506 0.0395504 0.0395505 0.0395506 0.0395621 0.0395592 0.0395565 0.0395544 0.0395528 0.0395516 0.039551 0.0395505 0.0395503 0.0395502 0.0395503 0.0395502 0.0395502 0.0395501 0.0395502 0.0395502 0.0395504 0.0395504 0.0395504 0.0395504 0.0395503 0.0395504 0.0395504 0.0395504 0.0395507 0.0395506 0.0395503 0.0395507 0.0395506 0.0395506 0.0395506 0.0395505 0.0395505 0.0395506 0.0395506 0.0395507 0.0395509 0.0395507 0.0395507 0.0395508 0.0395507 0.0395508 0.0395506 0.0395507 0.0395508 0.0395509 0.0395507 0.0395506 0.0395507 0.0395506 0.0395506 0.0395508 0.0395506 0.0395505 0.0395507 0.0395508 0.0395506 0.0395508 0.0395509 0.039551 0.0395508 0.0395506 0.0395505 0.0395505 0.0395703 0.0395665 0.0395628 0.0395599 0.0395576 0.039556 0.0395552 0.0395543 0.0395539 0.0395537 0.0395535 0.0395533 0.0395532 0.0395531 0.039553 0.0395532 0.0395531 0.0395529 0.0395529 0.0395528 0.0395527 0.0395524 0.0395524 0.0395524 0.0395524 0.0395522 0.0395522 0.0395524 0.0395521 0.0395521 0.0395519 0.0395519 0.039552 0.0395518 0.0395516 0.0395516 0.0395517 0.0395515 0.0395515 0.0395514 0.0395514 0.0395515 0.0395513 0.0395512 0.039551 0.0395511 0.0395512 0.0395512 0.039551 0.0395509 0.0395511 0.039551 0.0395507 0.0395508 0.0395508 0.039551 0.0395508 0.0395508 0.039551 0.0395506 0.0395508 0.0395507 0.0395505 0.0395503 0.0395783 0.0395735 0.0395688 0.0395652 0.0395624 0.0395604 0.0395591 0.0395581 0.0395576 0.0395571 0.0395569 0.0395565 0.0395564 0.0395563 0.0395558 0.0395558 0.0395556 0.0395555 0.0395551 0.0395549 0.0395549 0.0395546 0.0395543 0.0395543 0.0395543 0.039554 0.0395537 0.0395538 0.0395534 0.0395535 0.0395534 0.0395531 0.039553 0.0395529 0.0395527 0.0395526 0.0395527 0.0395523 0.0395522 0.0395522 0.0395521 0.039552 0.0395517 0.0395517 0.0395515 0.0395515 0.0395514 0.0395515 0.0395514 0.0395512 0.0395512 0.0395511 0.0395508 0.039551 0.0395508 0.039551 0.0395507 0.0395509 0.0395511 0.0395508 0.0395508 0.0395506 0.0395505 0.0395504 0.0395859 0.0395801 0.0395742 0.0395701 0.0395669 0.0395646 0.039563 0.039562 0.0395611 0.0395606 0.0395601 0.0395597 0.0395594 0.039559 0.0395586 0.0395584 0.0395582 0.0395578 0.0395576 0.0395571 0.0395568 0.0395567 0.0395564 0.0395562 0.039556 0.0395559 0.0395556 0.0395553 0.039555 0.0395549 0.0395545 0.0395543 0.0395541 0.0395539 0.0395539 0.0395536 0.0395536 0.0395533 0.0395531 0.0395528 0.0395525 0.0395526 0.0395525 0.0395521 0.039552 0.039552 0.0395517 0.0395517 0.0395518 0.0395516 0.0395516 0.0395516 0.0395514 0.0395512 0.0395511 0.039551 0.0395508 0.0395509 0.039551 0.0395508 0.0395509 0.0395506 0.0395508 0.0395506 0.0395941 0.0395854 0.0395796 0.0395744 0.0395711 0.0395687 0.0395669 0.0395656 0.0395646 0.0395639 0.0395633 0.0395628 0.0395625 0.0395618 0.0395613 0.0395611 0.0395608 0.0395602 0.0395599 0.0395594 0.039559 0.0395587 0.0395584 0.039558 0.0395578 0.0395574 0.0395571 0.0395569 0.0395564 0.0395562 0.0395558 0.0395555 0.0395552 0.0395549 0.0395549 0.0395543 0.0395544 0.039554 0.0395537 0.0395535 0.0395532 0.0395531 0.0395532 0.0395529 0.0395525 0.0395525 0.0395522 0.0395521 0.039552 0.0395517 0.0395517 0.0395516 0.0395514 0.0395514 0.0395513 0.0395512 0.039551 0.0395509 0.039551 0.0395509 0.0395508 0.0395506 0.0395507 0.0395507 0.0395979 0.0395939 0.0395829 0.0395786 0.0395752 0.0395727 0.0395708 0.0395695 0.0395685 0.0395675 0.0395667 0.039566 0.0395657 0.0395648 0.0395641 0.0395638 0.0395632 0.0395627 0.0395622 0.0395617 0.0395613 0.039561 0.0395604 0.0395599 0.0395597 0.0395592 0.0395586 0.0395586 0.0395579 0.0395576 0.0395572 0.0395567 0.0395564 0.039556 0.0395557 0.0395553 0.0395553 0.0395547 0.0395548 0.0395544 0.0395539 0.0395538 0.0395536 0.0395534 0.039553 0.0395528 0.0395527 0.0395526 0.0395523 0.039552 0.0395519 0.0395519 0.0395516 0.0395516 0.0395514 0.0395514 0.0395512 0.039551 0.039551 0.0395509 0.0395509 0.0395507 0.0395507 0.0395507 0.0396326 0.0395926 0.039587 0.0395831 0.0395801 0.0395774 0.0395754 0.0395736 0.0395722 0.0395712 0.0395701 0.0395694 0.0395687 0.0395679 0.0395673 0.0395666 0.039566 0.0395655 0.0395648 0.0395642 0.0395637 0.0395631 0.0395625 0.039562 0.0395615 0.0395609 0.0395604 0.03956 0.0395593 0.0395589 0.0395585 0.0395579 0.0395576 0.0395572 0.0395568 0.0395564 0.0395561 0.0395556 0.0395554 0.0395551 0.0395547 0.0395544 0.039554 0.0395537 0.0395532 0.0395533 0.0395529 0.0395529 0.0395526 0.0395523 0.0395522 0.0395519 0.0395517 0.0395516 0.0395516 0.0395514 0.0395513 0.039551 0.039551 0.0395509 0.0395509 0.0395508 0.0395509 0.0395508 0.0394255 0.0394801 0.0394964 0.0395049 0.0395098 0.0395132 0.0395158 0.0395178 0.0395197 0.0395212 0.0395227 0.0395237 0.039525 0.0395263 0.0395273 0.0395283 0.0395291 0.0395301 0.0395311 0.039532 0.039533 0.0395337 0.0395345 0.0395354 0.0395362 0.0395369 0.0395375 0.0395385 0.0395391 0.0395397 0.0395404 0.0395411 0.0395417 0.0395422 0.0395428 0.0395434 0.039544 0.0395444 0.0395449 0.0395454 0.039546 0.0395465 0.0395469 0.0395474 0.0395476 0.0395481 0.0395482 0.0395488 0.039549 0.0395493 0.0395497 0.0395499 0.0395499 0.0395502 0.0395506 0.0395506 0.0395506 0.0395509 0.0395511 0.0395509 0.0395511 0.039551 0.0395509 0.039551 0.0394895 0.0394807 0.039496 0.0395048 0.0395109 0.0395151 0.0395183 0.0395206 0.0395224 0.0395239 0.0395252 0.0395264 0.0395274 0.0395286 0.0395295 0.0395306 0.0395313 0.0395321 0.0395331 0.0395338 0.0395346 0.0395353 0.0395362 0.039537 0.0395377 0.0395382 0.0395388 0.0395396 0.0395401 0.0395409 0.0395415 0.039542 0.0395426 0.0395432 0.0395438 0.0395439 0.0395445 0.0395451 0.0395456 0.0395459 0.0395462 0.0395467 0.0395472 0.0395476 0.0395479 0.0395482 0.0395485 0.0395489 0.0395491 0.0395493 0.0395496 0.0395499 0.0395502 0.0395502 0.0395503 0.0395504 0.0395507 0.0395508 0.0395509 0.039551 0.039551 0.0395507 0.0395507 0.0395511 0.0394974 0.0394992 0.0395023 0.0395092 0.0395143 0.039518 0.039521 0.0395234 0.0395253 0.0395269 0.039528 0.039529 0.03953 0.039531 0.0395316 0.0395326 0.0395333 0.039534 0.039535 0.0395356 0.0395362 0.0395371 0.0395377 0.0395384 0.0395391 0.0395395 0.03954 0.0395408 0.0395413 0.039542 0.0395426 0.039543 0.0395435 0.0395439 0.0395444 0.0395447 0.0395454 0.0395455 0.0395461 0.0395465 0.0395468 0.039547 0.0395473 0.0395479 0.039548 0.0395484 0.0395487 0.0395491 0.0395492 0.0395494 0.0395496 0.03955 0.0395501 0.0395503 0.0395503 0.0395504 0.0395504 0.0395507 0.0395509 0.0395506 0.0395508 0.0395508 0.0395509 0.0395512 0.0395093 0.0395087 0.0395116 0.0395151 0.0395189 0.0395221 0.0395247 0.0395266 0.0395283 0.0395299 0.0395306 0.0395316 0.0395328 0.0395334 0.0395342 0.0395348 0.0395355 0.0395363 0.0395368 0.0395375 0.0395381 0.0395387 0.0395392 0.0395399 0.0395405 0.0395411 0.0395416 0.0395422 0.0395424 0.0395432 0.0395436 0.039544 0.0395444 0.0395447 0.0395451 0.0395456 0.0395461 0.0395463 0.0395467 0.0395468 0.0395473 0.0395475 0.0395478 0.0395482 0.0395484 0.0395489 0.0395488 0.0395492 0.0395495 0.0395495 0.0395498 0.03955 0.03955 0.0395502 0.0395504 0.0395507 0.0395505 0.0395505 0.0395508 0.0395507 0.0395508 0.039551 0.0395509 0.0395512 0.0395187 0.0395183 0.0395197 0.0395219 0.0395244 0.0395268 0.0395287 0.0395303 0.0395316 0.0395327 0.0395338 0.0395348 0.0395353 0.039536 0.0395367 0.0395372 0.039538 0.0395384 0.0395389 0.0395395 0.0395401 0.0395406 0.0395411 0.0395417 0.0395421 0.0395424 0.0395431 0.0395435 0.0395435 0.0395443 0.0395447 0.039545 0.0395453 0.0395454 0.0395459 0.0395462 0.0395468 0.0395469 0.0395473 0.0395475 0.0395477 0.0395481 0.0395484 0.0395486 0.0395487 0.0395489 0.0395492 0.0395495 0.0395496 0.0395496 0.0395497 0.03955 0.03955 0.03955 0.0395504 0.0395507 0.0395506 0.0395505 0.0395507 0.0395509 0.0395509 0.0395505 0.0395508 0.039551 0.0395279 0.0395271 0.0395276 0.0395287 0.0395302 0.0395318 0.039533 0.0395342 0.0395352 0.039536 0.0395369 0.0395375 0.0395381 0.0395388 0.0395393 0.0395398 0.0395402 0.0395406 0.0395412 0.0395416 0.0395421 0.0395425 0.0395429 0.0395433 0.0395438 0.039544 0.0395443 0.0395449 0.039545 0.0395453 0.0395457 0.039546 0.0395463 0.0395464 0.0395469 0.039547 0.0395474 0.0395475 0.0395479 0.0395482 0.0395481 0.0395483 0.0395487 0.0395489 0.039549 0.0395494 0.0395495 0.0395498 0.0395498 0.0395498 0.0395498 0.0395501 0.0395501 0.03955 0.0395504 0.0395505 0.0395503 0.0395507 0.0395507 0.0395508 0.039551 0.0395507 0.0395509 0.039551 0.0395368 0.0395356 0.0395354 0.0395354 0.039536 0.0395367 0.0395376 0.0395384 0.039539 0.0395396 0.0395401 0.0395406 0.0395412 0.0395416 0.0395419 0.0395425 0.0395427 0.0395432 0.0395437 0.0395438 0.039544 0.0395445 0.0395448 0.039545 0.0395455 0.0395458 0.0395459 0.0395463 0.0395464 0.0395466 0.0395466 0.039547 0.0395473 0.0395474 0.0395477 0.0395478 0.0395482 0.0395484 0.0395488 0.0395487 0.0395488 0.039549 0.0395491 0.0395494 0.0395495 0.0395498 0.0395497 0.0395498 0.03955 0.03955 0.0395501 0.0395503 0.0395504 0.0395504 0.0395505 0.0395505 0.0395505 0.0395505 0.0395508 0.0395508 0.039551 0.0395508 0.0395509 0.039551 0.0395456 0.0395439 0.0395428 0.0395421 0.0395417 0.0395417 0.0395419 0.0395423 0.0395426 0.0395429 0.0395434 0.0395437 0.0395442 0.0395444 0.0395447 0.0395449 0.0395455 0.0395457 0.0395458 0.0395458 0.0395461 0.0395464 0.0395465 0.0395469 0.0395472 0.0395472 0.0395474 0.0395478 0.0395478 0.0395479 0.0395481 0.0395482 0.0395484 0.0395484 0.0395487 0.0395487 0.0395491 0.0395491 0.0395492 0.0395493 0.0395494 0.0395497 0.0395497 0.0395499 0.0395499 0.0395502 0.03955 0.03955 0.03955 0.0395502 0.0395503 0.0395503 0.0395505 0.0395504 0.0395505 0.0395508 0.0395507 0.0395504 0.039551 0.0395508 0.0395508 0.0395506 0.0395508 0.0395508 0.0395541 0.0395517 0.0395498 0.0395484 0.0395473 0.0395468 0.0395465 0.0395464 0.0395465 0.0395466 0.0395468 0.0395469 0.0395471 0.0395473 0.0395476 0.0395478 0.0395479 0.0395479 0.0395481 0.0395482 0.0395483 0.0395483 0.0395485 0.0395488 0.0395488 0.0395488 0.0395489 0.0395492 0.0395492 0.0395493 0.0395494 0.0395495 0.0395497 0.0395497 0.0395497 0.0395496 0.03955 0.03955 0.0395499 0.0395499 0.0395501 0.0395502 0.0395502 0.0395502 0.0395503 0.0395505 0.0395502 0.0395504 0.0395504 0.0395506 0.0395504 0.0395505 0.0395506 0.0395506 0.0395507 0.0395507 0.0395507 0.0395508 0.039551 0.0395507 0.0395508 0.0395507 0.0395506 0.0395507 0.0395625 0.0395592 0.0395565 0.0395543 0.0395527 0.0395517 0.039551 0.0395506 0.0395504 0.0395503 0.0395502 0.0395501 0.0395501 0.0395502 0.0395503 0.0395504 0.0395504 0.0395502 0.0395503 0.0395503 0.0395504 0.0395504 0.0395507 0.0395506 0.0395506 0.0395506 0.0395505 0.0395506 0.0395505 0.0395507 0.0395506 0.0395508 0.0395506 0.0395508 0.0395508 0.0395506 0.0395508 0.0395507 0.0395508 0.0395507 0.0395506 0.0395507 0.0395508 0.0395507 0.0395506 0.0395509 0.0395507 0.0395509 0.0395508 0.0395509 0.0395505 0.0395508 0.0395506 0.0395506 0.0395509 0.0395508 0.0395507 0.0395508 0.0395509 0.0395507 0.0395509 0.0395507 0.0395506 0.0395505 0.0395707 0.0395665 0.0395628 0.03956 0.039558 0.0395564 0.0395552 0.0395545 0.0395541 0.0395538 0.0395535 0.0395534 0.0395532 0.0395531 0.0395531 0.039553 0.0395529 0.0395527 0.0395526 0.0395525 0.0395526 0.0395526 0.0395525 0.0395524 0.0395525 0.0395524 0.0395522 0.0395523 0.0395519 0.039552 0.0395519 0.0395519 0.0395516 0.0395516 0.0395518 0.0395516 0.0395517 0.0395515 0.0395515 0.0395514 0.0395514 0.0395513 0.0395513 0.0395513 0.0395511 0.0395514 0.0395511 0.0395512 0.0395512 0.0395511 0.039551 0.0395511 0.0395508 0.0395508 0.039551 0.0395511 0.0395508 0.0395507 0.0395508 0.0395508 0.0395509 0.0395508 0.0395505 0.0395505 0.0395786 0.0395733 0.039569 0.0395654 0.0395628 0.039561 0.0395595 0.0395584 0.0395577 0.0395571 0.0395568 0.0395565 0.0395563 0.039556 0.0395559 0.0395556 0.0395554 0.0395552 0.039555 0.0395549 0.0395548 0.0395545 0.0395544 0.0395543 0.0395542 0.039554 0.0395536 0.0395538 0.0395535 0.0395534 0.0395532 0.0395531 0.039553 0.0395528 0.0395527 0.0395526 0.0395525 0.0395523 0.0395523 0.039552 0.0395522 0.0395521 0.0395519 0.0395518 0.0395517 0.0395516 0.0395515 0.0395514 0.0395514 0.0395512 0.0395514 0.0395512 0.0395509 0.0395511 0.0395512 0.039551 0.0395509 0.0395508 0.0395509 0.0395509 0.039551 0.0395507 0.0395505 0.0395505 0.0395863 0.0395799 0.0395745 0.0395705 0.0395673 0.0395653 0.0395637 0.0395625 0.0395616 0.0395608 0.0395603 0.0395598 0.0395594 0.039559 0.0395586 0.0395582 0.0395582 0.0395577 0.0395574 0.0395573 0.0395571 0.0395568 0.0395565 0.0395563 0.0395559 0.0395557 0.0395554 0.0395553 0.0395551 0.0395549 0.0395544 0.0395543 0.0395543 0.0395539 0.0395536 0.0395535 0.0395535 0.0395531 0.0395533 0.0395529 0.039553 0.0395527 0.0395523 0.0395524 0.0395522 0.0395521 0.0395518 0.0395518 0.0395518 0.0395515 0.0395515 0.0395515 0.0395512 0.0395512 0.0395512 0.0395511 0.0395511 0.039551 0.0395511 0.039551 0.0395508 0.0395506 0.0395507 0.0395508 0.0395947 0.0395853 0.0395798 0.0395748 0.0395716 0.0395692 0.0395675 0.0395663 0.0395652 0.0395644 0.0395635 0.0395629 0.0395622 0.0395618 0.0395614 0.0395609 0.0395606 0.0395601 0.0395598 0.0395593 0.0395591 0.0395588 0.0395583 0.0395581 0.0395577 0.0395574 0.039557 0.0395568 0.0395563 0.0395562 0.0395558 0.0395555 0.0395553 0.039555 0.0395548 0.0395545 0.0395544 0.039554 0.0395537 0.0395536 0.0395536 0.0395532 0.0395528 0.0395529 0.0395526 0.0395524 0.0395523 0.0395521 0.0395519 0.0395521 0.0395517 0.0395516 0.0395513 0.0395512 0.0395514 0.0395514 0.0395511 0.0395511 0.039551 0.0395509 0.0395508 0.0395507 0.0395506 0.0395507 0.0395983 0.0395938 0.0395829 0.0395786 0.0395756 0.0395736 0.0395718 0.0395702 0.0395689 0.0395678 0.039567 0.0395662 0.0395655 0.0395648 0.0395644 0.0395638 0.0395633 0.0395628 0.0395623 0.0395618 0.0395613 0.0395609 0.0395603 0.0395599 0.0395596 0.0395591 0.0395586 0.0395583 0.0395578 0.0395576 0.0395571 0.0395568 0.0395564 0.039556 0.0395557 0.0395554 0.0395553 0.039555 0.0395546 0.0395543 0.0395542 0.0395538 0.0395534 0.0395533 0.039553 0.0395529 0.0395527 0.0395525 0.0395524 0.0395523 0.0395518 0.0395518 0.0395515 0.0395515 0.0395515 0.0395514 0.0395511 0.039551 0.039551 0.039551 0.0395511 0.0395509 0.0395508 0.0395508 0.039635 0.0395915 0.0395866 0.0395832 0.0395806 0.0395782 0.0395761 0.0395743 0.0395729 0.0395714 0.0395703 0.0395694 0.0395687 0.0395679 0.0395671 0.0395664 0.0395659 0.0395652 0.0395646 0.0395642 0.0395635 0.039563 0.0395624 0.0395619 0.0395615 0.0395609 0.0395604 0.0395599 0.0395594 0.0395589 0.0395584 0.0395581 0.0395578 0.0395571 0.0395568 0.0395563 0.0395561 0.0395557 0.0395554 0.0395552 0.0395548 0.0395544 0.039554 0.0395538 0.0395536 0.0395534 0.039553 0.0395529 0.0395528 0.0395525 0.039552 0.0395518 0.0395518 0.0395516 0.0395515 0.0395515 0.0395511 0.039551 0.0395511 0.039551 0.0395511 0.0395507 0.0395507 0.039551 0.0394219 0.0394791 0.039496 0.0395043 0.0395089 0.0395122 0.0395149 0.039517 0.0395188 0.0395204 0.039522 0.0395235 0.0395247 0.0395257 0.0395269 0.039528 0.039529 0.03953 0.0395311 0.0395319 0.0395327 0.0395336 0.0395344 0.0395353 0.0395362 0.0395368 0.0395377 0.0395385 0.039539 0.0395397 0.0395404 0.0395411 0.0395418 0.0395423 0.039543 0.0395434 0.039544 0.0395444 0.0395452 0.0395456 0.0395461 0.0395466 0.0395469 0.0395474 0.0395477 0.0395482 0.0395484 0.0395487 0.0395492 0.0395494 0.0395497 0.0395501 0.0395501 0.0395504 0.0395506 0.039551 0.0395509 0.0395507 0.0395512 0.0395511 0.0395512 0.0395512 0.0395511 0.039551 0.0394891 0.0394795 0.0394954 0.0395041 0.0395101 0.0395144 0.0395174 0.0395198 0.0395218 0.0395233 0.0395248 0.0395261 0.0395272 0.0395281 0.0395293 0.0395301 0.0395312 0.0395321 0.039533 0.039534 0.0395347 0.0395354 0.0395361 0.0395368 0.0395376 0.0395382 0.0395389 0.0395398 0.0395403 0.0395407 0.0395414 0.0395421 0.0395427 0.0395432 0.0395437 0.0395441 0.0395447 0.0395449 0.0395457 0.0395462 0.0395466 0.0395469 0.0395472 0.0395476 0.0395478 0.0395483 0.0395485 0.0395488 0.0395492 0.0395494 0.0395496 0.03955 0.03955 0.0395503 0.0395505 0.0395506 0.0395507 0.0395507 0.0395509 0.0395508 0.0395511 0.0395511 0.0395512 0.0395513 0.0394968 0.0394984 0.0395015 0.0395084 0.0395136 0.0395178 0.0395206 0.0395228 0.0395248 0.0395262 0.0395276 0.0395289 0.0395299 0.0395308 0.0395317 0.0395325 0.0395334 0.0395341 0.039535 0.0395357 0.0395364 0.0395372 0.0395377 0.0395384 0.0395391 0.0395396 0.0395401 0.039541 0.0395415 0.039542 0.0395425 0.0395431 0.0395435 0.039544 0.0395444 0.0395449 0.0395454 0.0395456 0.0395462 0.0395466 0.039547 0.0395474 0.0395476 0.039548 0.0395481 0.0395484 0.0395486 0.039549 0.0395493 0.0395495 0.0395497 0.0395502 0.0395501 0.0395502 0.0395504 0.0395506 0.0395506 0.0395506 0.0395508 0.0395508 0.039551 0.0395509 0.0395511 0.0395512 0.0395089 0.0395082 0.0395112 0.0395145 0.0395185 0.0395218 0.0395242 0.0395263 0.039528 0.0395294 0.0395306 0.0395316 0.0395327 0.0395335 0.0395341 0.039535 0.0395357 0.0395362 0.0395369 0.0395376 0.0395382 0.0395388 0.0395395 0.03954 0.0395406 0.039541 0.0395415 0.0395422 0.0395426 0.0395431 0.0395436 0.0395441 0.0395444 0.0395448 0.0395453 0.0395456 0.0395461 0.0395462 0.0395466 0.0395469 0.0395473 0.0395476 0.0395478 0.0395481 0.0395482 0.0395488 0.0395489 0.0395491 0.0395493 0.0395496 0.0395498 0.0395501 0.0395501 0.0395503 0.0395503 0.0395505 0.0395505 0.0395507 0.0395508 0.0395509 0.0395509 0.0395508 0.0395509 0.0395511 0.0395184 0.0395182 0.0395194 0.0395216 0.039524 0.0395262 0.0395283 0.0395301 0.0395314 0.0395326 0.0395335 0.0395344 0.0395352 0.039536 0.0395366 0.0395372 0.0395379 0.0395386 0.0395391 0.0395396 0.0395402 0.0395408 0.0395413 0.0395416 0.0395421 0.0395426 0.0395429 0.0395434 0.0395437 0.0395443 0.0395447 0.039545 0.0395454 0.0395457 0.039546 0.0395462 0.0395469 0.039547 0.0395473 0.0395475 0.0395477 0.039548 0.0395483 0.0395484 0.0395487 0.0395491 0.0395493 0.0395495 0.0395496 0.0395497 0.03955 0.03955 0.03955 0.0395502 0.0395504 0.0395505 0.0395505 0.0395506 0.0395508 0.0395506 0.0395508 0.0395509 0.039551 0.0395511 0.0395279 0.0395271 0.0395273 0.0395285 0.0395298 0.039531 0.0395327 0.039534 0.039535 0.039536 0.0395367 0.0395374 0.0395383 0.0395387 0.0395393 0.0395397 0.0395403 0.0395409 0.0395413 0.0395417 0.0395422 0.0395427 0.0395431 0.0395435 0.0395438 0.0395442 0.0395443 0.0395448 0.0395451 0.0395455 0.0395457 0.0395461 0.0395466 0.0395465 0.0395469 0.0395471 0.0395477 0.0395477 0.0395481 0.0395481 0.0395483 0.0395486 0.0395488 0.039549 0.0395491 0.0395494 0.0395494 0.0395494 0.0395495 0.0395499 0.03955 0.0395503 0.0395502 0.0395502 0.0395505 0.0395506 0.0395506 0.0395505 0.0395507 0.0395507 0.0395509 0.0395508 0.0395506 0.0395509 0.039537 0.0395357 0.0395351 0.0395353 0.0395357 0.0395364 0.0395373 0.039538 0.0395388 0.0395396 0.03954 0.0395406 0.0395412 0.0395416 0.0395421 0.0395425 0.0395429 0.0395431 0.0395434 0.0395439 0.0395443 0.0395445 0.0395448 0.0395452 0.0395454 0.0395456 0.0395458 0.0395463 0.0395465 0.0395467 0.0395471 0.0395474 0.0395475 0.0395477 0.0395478 0.0395479 0.0395483 0.0395483 0.0395485 0.0395488 0.0395488 0.0395491 0.0395493 0.0395495 0.0395495 0.0395497 0.0395498 0.0395498 0.03955 0.0395501 0.0395503 0.0395505 0.0395502 0.0395503 0.0395505 0.0395506 0.0395506 0.0395507 0.0395507 0.0395508 0.0395508 0.0395508 0.0395506 0.0395509 0.0395456 0.0395437 0.0395426 0.039542 0.0395417 0.0395417 0.039542 0.0395421 0.0395426 0.0395431 0.0395433 0.0395437 0.0395441 0.0395444 0.0395448 0.0395451 0.0395453 0.0395454 0.0395457 0.0395461 0.0395463 0.0395465 0.0395467 0.0395468 0.0395472 0.0395473 0.0395473 0.0395477 0.0395478 0.0395481 0.0395483 0.0395484 0.0395485 0.0395486 0.039549 0.039549 0.039549 0.0395491 0.0395494 0.0395494 0.0395495 0.0395497 0.0395499 0.0395499 0.03955 0.0395501 0.03955 0.0395503 0.0395504 0.0395502 0.0395505 0.0395506 0.0395505 0.0395506 0.0395507 0.0395507 0.0395505 0.0395507 0.0395509 0.0395508 0.0395509 0.0395506 0.0395506 0.0395508 0.0395541 0.0395515 0.0395497 0.0395482 0.0395472 0.0395466 0.0395464 0.0395465 0.0395466 0.0395466 0.0395467 0.039547 0.0395473 0.0395474 0.0395474 0.0395477 0.0395479 0.039548 0.039548 0.0395483 0.0395484 0.0395484 0.0395485 0.0395485 0.039549 0.0395492 0.039549 0.0395492 0.0395492 0.0395495 0.0395495 0.0395494 0.0395496 0.0395496 0.0395498 0.0395498 0.0395498 0.0395499 0.0395501 0.0395501 0.0395503 0.0395502 0.0395503 0.0395504 0.0395504 0.0395504 0.0395504 0.0395508 0.0395506 0.0395504 0.0395506 0.0395507 0.0395506 0.0395507 0.0395508 0.0395508 0.0395508 0.0395506 0.0395509 0.0395507 0.0395508 0.0395506 0.0395506 0.0395505 0.0395627 0.0395594 0.0395565 0.0395543 0.0395528 0.0395517 0.039551 0.0395506 0.0395503 0.0395501 0.0395501 0.0395502 0.0395504 0.0395504 0.0395504 0.0395502 0.0395504 0.0395504 0.0395505 0.0395505 0.0395505 0.0395507 0.0395505 0.0395505 0.0395508 0.0395507 0.0395505 0.0395507 0.0395506 0.0395507 0.0395506 0.0395506 0.0395507 0.0395508 0.0395506 0.0395507 0.0395507 0.0395506 0.0395508 0.0395509 0.039551 0.0395509 0.0395508 0.039551 0.0395509 0.0395509 0.0395508 0.0395511 0.0395508 0.0395507 0.0395508 0.0395508 0.0395508 0.0395508 0.0395509 0.0395507 0.0395508 0.0395507 0.0395509 0.0395507 0.0395508 0.0395506 0.0395506 0.0395506 0.0395707 0.0395665 0.039563 0.0395603 0.0395581 0.0395566 0.0395556 0.0395547 0.0395542 0.0395538 0.0395535 0.0395535 0.0395535 0.0395532 0.0395531 0.039553 0.0395528 0.0395527 0.0395529 0.0395528 0.0395527 0.0395526 0.0395525 0.0395523 0.0395524 0.0395524 0.0395522 0.0395522 0.0395519 0.0395519 0.039552 0.0395521 0.0395519 0.0395519 0.0395517 0.0395515 0.0395516 0.0395516 0.0395515 0.0395515 0.0395516 0.0395516 0.0395513 0.0395513 0.0395513 0.0395512 0.0395512 0.0395512 0.039551 0.0395508 0.039551 0.039551 0.0395509 0.039551 0.0395508 0.0395509 0.0395509 0.039551 0.039551 0.0395508 0.0395508 0.0395505 0.0395506 0.0395505 0.039579 0.0395734 0.0395689 0.0395657 0.0395631 0.0395611 0.0395599 0.039559 0.0395581 0.0395575 0.0395572 0.0395567 0.0395563 0.0395561 0.0395559 0.0395558 0.0395554 0.0395551 0.0395552 0.039555 0.0395547 0.0395546 0.0395546 0.0395544 0.0395542 0.0395541 0.0395539 0.0395538 0.0395534 0.0395533 0.0395533 0.0395532 0.0395532 0.0395529 0.0395528 0.0395526 0.0395526 0.0395524 0.0395523 0.0395523 0.0395522 0.039552 0.0395517 0.0395518 0.0395517 0.0395515 0.0395515 0.0395516 0.0395514 0.0395512 0.0395514 0.0395512 0.039551 0.039551 0.039551 0.0395512 0.0395511 0.0395509 0.039551 0.0395508 0.0395508 0.0395507 0.0395508 0.0395506 0.0395866 0.03958 0.0395745 0.0395707 0.0395676 0.0395655 0.039564 0.0395628 0.0395618 0.0395612 0.0395605 0.0395598 0.0395594 0.0395589 0.0395586 0.0395585 0.0395581 0.0395578 0.0395576 0.0395573 0.039557 0.0395566 0.0395566 0.0395563 0.0395559 0.0395556 0.0395554 0.039555 0.0395549 0.0395549 0.0395545 0.0395544 0.0395541 0.0395539 0.0395538 0.0395536 0.0395536 0.0395532 0.0395532 0.0395531 0.0395529 0.0395526 0.0395524 0.0395526 0.0395523 0.0395522 0.0395521 0.0395519 0.0395519 0.0395516 0.0395515 0.0395515 0.0395514 0.0395512 0.0395512 0.0395513 0.039551 0.039551 0.039551 0.0395509 0.039551 0.0395509 0.0395506 0.0395505 0.0395948 0.0395852 0.0395799 0.039575 0.0395719 0.0395698 0.0395681 0.0395666 0.0395655 0.0395647 0.039564 0.0395631 0.0395625 0.039562 0.0395614 0.0395611 0.0395607 0.0395602 0.0395599 0.0395596 0.0395592 0.0395587 0.0395585 0.039558 0.0395576 0.0395573 0.039557 0.0395566 0.0395562 0.0395563 0.039556 0.0395557 0.0395553 0.039555 0.0395548 0.0395544 0.0395543 0.0395539 0.039554 0.0395537 0.0395534 0.0395532 0.039553 0.039553 0.0395528 0.0395527 0.0395522 0.0395522 0.0395521 0.0395517 0.0395517 0.0395519 0.0395515 0.0395515 0.0395513 0.0395513 0.0395511 0.039551 0.0395511 0.0395509 0.0395509 0.0395507 0.0395508 0.0395507 0.0395987 0.0395942 0.0395829 0.0395791 0.0395761 0.0395739 0.0395721 0.0395706 0.0395693 0.0395682 0.0395673 0.0395663 0.0395654 0.039565 0.0395644 0.0395637 0.0395632 0.0395626 0.0395623 0.0395619 0.0395612 0.0395608 0.0395605 0.0395599 0.0395595 0.0395591 0.0395585 0.0395582 0.0395577 0.0395574 0.0395572 0.0395567 0.0395564 0.039556 0.0395558 0.0395556 0.0395553 0.0395549 0.0395546 0.0395544 0.039554 0.0395538 0.0395537 0.0395533 0.039553 0.0395529 0.0395526 0.0395527 0.0395523 0.0395522 0.0395521 0.039552 0.0395517 0.0395515 0.0395514 0.0395512 0.0395512 0.039551 0.0395512 0.0395511 0.039551 0.0395508 0.0395509 0.0395508 0.0396369 0.0395915 0.0395864 0.0395833 0.0395809 0.0395785 0.0395766 0.0395747 0.0395731 0.0395718 0.0395708 0.0395696 0.0395687 0.0395679 0.0395671 0.0395664 0.0395656 0.039565 0.0395647 0.0395642 0.0395635 0.0395627 0.0395623 0.0395619 0.0395615 0.0395609 0.0395601 0.03956 0.0395594 0.0395589 0.0395584 0.0395579 0.0395576 0.0395572 0.0395568 0.0395565 0.0395561 0.0395558 0.0395554 0.0395551 0.0395547 0.0395544 0.0395542 0.039554 0.0395535 0.0395532 0.0395531 0.039553 0.0395525 0.0395524 0.0395522 0.0395519 0.0395517 0.0395515 0.0395514 0.0395513 0.0395513 0.0395511 0.0395513 0.039551 0.039551 0.039551 0.0395509 0.0395511 0.0394193 0.0394782 0.0394956 0.0395041 0.0395088 0.039512 0.0395143 0.0395164 0.0395183 0.03952 0.0395217 0.0395229 0.0395244 0.0395256 0.0395267 0.0395277 0.0395288 0.0395299 0.0395307 0.0395317 0.0395326 0.0395336 0.0395344 0.0395351 0.0395361 0.0395367 0.0395374 0.0395383 0.039539 0.0395398 0.0395405 0.0395411 0.0395418 0.0395426 0.0395431 0.0395434 0.0395443 0.0395445 0.0395449 0.0395455 0.0395459 0.0395464 0.0395469 0.0395473 0.0395475 0.0395482 0.0395484 0.0395487 0.0395491 0.0395495 0.0395497 0.0395499 0.0395502 0.0395505 0.0395507 0.0395508 0.0395507 0.039551 0.0395511 0.0395511 0.0395512 0.0395511 0.039551 0.0395511 0.0394886 0.0394787 0.0394948 0.0395038 0.0395098 0.0395137 0.039517 0.0395194 0.0395213 0.039523 0.0395247 0.039526 0.0395272 0.0395283 0.0395293 0.0395302 0.0395313 0.039532 0.0395329 0.0395338 0.0395346 0.0395353 0.039536 0.0395368 0.0395376 0.0395382 0.0395389 0.0395396 0.0395401 0.0395409 0.0395415 0.0395421 0.0395426 0.0395432 0.0395438 0.0395443 0.0395448 0.039545 0.0395454 0.0395458 0.0395463 0.0395469 0.0395471 0.0395476 0.0395478 0.0395484 0.0395487 0.0395489 0.0395492 0.0395494 0.0395496 0.0395498 0.0395503 0.0395506 0.0395507 0.0395507 0.0395508 0.0395508 0.0395509 0.039551 0.039551 0.0395509 0.039551 0.0395513 0.0394966 0.0394985 0.0395013 0.0395081 0.039513 0.0395169 0.0395202 0.0395226 0.0395245 0.0395261 0.0395275 0.0395286 0.0395298 0.0395308 0.0395317 0.0395325 0.0395335 0.0395342 0.0395351 0.0395358 0.0395365 0.0395371 0.0395377 0.0395385 0.0395391 0.0395397 0.0395402 0.0395409 0.0395413 0.039542 0.0395425 0.039543 0.0395437 0.0395441 0.0395446 0.0395449 0.0395453 0.0395456 0.0395462 0.0395466 0.0395469 0.0395473 0.0395476 0.0395478 0.039548 0.0395486 0.0395487 0.0395491 0.0395493 0.0395494 0.0395497 0.0395498 0.03955 0.0395503 0.0395506 0.0395506 0.0395506 0.0395506 0.039551 0.0395508 0.039551 0.0395509 0.039551 0.0395511 0.0395089 0.0395082 0.0395109 0.0395142 0.039518 0.0395212 0.0395239 0.039526 0.0395277 0.0395293 0.0395305 0.0395316 0.0395326 0.0395334 0.0395343 0.039535 0.0395356 0.0395363 0.0395372 0.0395376 0.0395384 0.0395391 0.0395394 0.0395401 0.0395405 0.0395411 0.0395416 0.0395422 0.0395426 0.0395432 0.0395437 0.039544 0.0395445 0.0395448 0.0395454 0.0395456 0.0395459 0.0395463 0.0395469 0.0395471 0.0395474 0.0395478 0.039548 0.0395483 0.0395484 0.0395489 0.0395489 0.0395493 0.0395497 0.0395497 0.0395499 0.0395502 0.0395501 0.0395503 0.0395505 0.0395504 0.0395504 0.0395506 0.039551 0.0395507 0.0395509 0.0395509 0.0395509 0.039551 0.0395184 0.039518 0.0395193 0.0395214 0.0395238 0.039526 0.039528 0.0395297 0.0395312 0.0395324 0.0395336 0.0395345 0.0395354 0.0395361 0.0395366 0.0395374 0.039538 0.0395385 0.0395391 0.0395397 0.0395402 0.0395407 0.0395412 0.0395417 0.0395423 0.0395427 0.0395431 0.0395436 0.0395438 0.0395443 0.0395447 0.0395449 0.0395453 0.0395457 0.0395463 0.0395465 0.0395468 0.039547 0.0395473 0.0395476 0.0395481 0.0395482 0.0395485 0.0395488 0.039549 0.0395493 0.0395493 0.0395495 0.0395497 0.0395497 0.0395499 0.0395501 0.03955 0.0395502 0.0395506 0.0395505 0.0395505 0.0395507 0.0395508 0.0395509 0.0395508 0.0395508 0.0395508 0.0395511 0.0395277 0.0395269 0.0395273 0.0395282 0.0395298 0.0395313 0.0395324 0.0395336 0.0395347 0.0395357 0.0395368 0.0395375 0.0395382 0.0395388 0.0395393 0.0395398 0.0395404 0.0395409 0.0395414 0.0395418 0.0395422 0.0395426 0.039543 0.0395434 0.0395437 0.0395443 0.0395445 0.0395448 0.039545 0.0395454 0.0395459 0.0395462 0.0395464 0.0395467 0.0395471 0.0395472 0.0395476 0.0395478 0.0395479 0.0395484 0.0395486 0.0395486 0.0395488 0.0395493 0.0395493 0.0395495 0.0395495 0.0395498 0.0395498 0.03955 0.0395502 0.0395503 0.0395501 0.0395502 0.0395506 0.0395506 0.0395503 0.0395506 0.0395509 0.0395508 0.0395508 0.0395507 0.0395509 0.0395511 0.0395367 0.0395354 0.039535 0.0395351 0.0395357 0.0395363 0.0395371 0.0395378 0.0395387 0.0395394 0.0395401 0.0395407 0.0395411 0.0395414 0.0395419 0.0395423 0.0395427 0.0395432 0.0395436 0.0395439 0.0395442 0.0395445 0.0395448 0.0395451 0.0395455 0.0395458 0.039546 0.0395464 0.0395465 0.0395467 0.039547 0.0395473 0.0395475 0.0395478 0.0395481 0.039548 0.039548 0.0395484 0.0395487 0.039549 0.039549 0.0395491 0.0395494 0.0395497 0.0395496 0.0395499 0.0395498 0.03955 0.0395501 0.0395503 0.0395503 0.0395503 0.0395503 0.0395505 0.0395506 0.0395506 0.0395504 0.0395506 0.0395507 0.0395508 0.0395509 0.0395506 0.0395509 0.0395509 0.0395455 0.0395438 0.0395426 0.0395417 0.0395414 0.0395415 0.0395419 0.0395422 0.0395426 0.0395431 0.0395435 0.0395437 0.0395439 0.0395444 0.0395446 0.0395449 0.0395452 0.0395455 0.0395459 0.0395459 0.0395462 0.0395465 0.0395467 0.039547 0.0395472 0.0395474 0.0395476 0.0395478 0.0395477 0.039548 0.0395482 0.0395484 0.0395486 0.0395487 0.0395489 0.0395488 0.0395491 0.0395493 0.0395496 0.0395495 0.0395496 0.0395497 0.0395498 0.0395499 0.0395498 0.0395501 0.0395502 0.0395501 0.0395503 0.0395504 0.0395506 0.0395504 0.0395504 0.0395506 0.0395506 0.0395507 0.0395508 0.0395505 0.0395507 0.0395508 0.0395509 0.0395507 0.0395507 0.0395508 0.0395542 0.0395516 0.0395497 0.0395483 0.0395472 0.0395467 0.0395466 0.0395465 0.0395466 0.0395468 0.0395469 0.0395469 0.0395471 0.0395474 0.0395475 0.0395477 0.0395478 0.039548 0.0395484 0.0395484 0.0395483 0.0395484 0.0395485 0.0395488 0.0395489 0.039549 0.0395491 0.0395493 0.0395492 0.0395494 0.0395494 0.0395496 0.0395497 0.0395499 0.0395499 0.0395498 0.0395501 0.0395498 0.0395502 0.0395502 0.03955 0.0395504 0.0395504 0.0395505 0.0395505 0.0395504 0.0395505 0.0395505 0.0395505 0.0395506 0.0395507 0.0395508 0.0395506 0.0395505 0.0395507 0.0395508 0.0395508 0.0395506 0.0395507 0.0395508 0.0395508 0.0395505 0.0395506 0.0395508 0.0395626 0.0395591 0.0395564 0.0395545 0.0395528 0.0395518 0.0395511 0.0395506 0.0395504 0.0395505 0.0395504 0.0395503 0.0395504 0.0395505 0.0395505 0.0395504 0.0395505 0.0395503 0.0395504 0.0395506 0.0395506 0.0395505 0.0395506 0.0395506 0.0395506 0.0395507 0.0395506 0.0395508 0.0395507 0.0395506 0.0395506 0.0395508 0.0395507 0.0395509 0.0395508 0.0395508 0.0395509 0.0395507 0.0395509 0.0395509 0.0395507 0.0395508 0.0395509 0.0395508 0.0395509 0.039551 0.0395507 0.0395508 0.0395509 0.0395509 0.0395508 0.039551 0.0395509 0.0395505 0.0395511 0.039551 0.0395508 0.0395508 0.0395507 0.0395506 0.0395507 0.0395504 0.0395506 0.0395506 0.0395707 0.0395665 0.039563 0.0395601 0.0395581 0.0395567 0.0395556 0.0395548 0.0395543 0.039554 0.0395537 0.0395535 0.0395532 0.0395533 0.0395532 0.039553 0.039553 0.0395527 0.0395526 0.0395527 0.0395528 0.0395527 0.0395526 0.0395525 0.0395526 0.0395522 0.0395521 0.0395523 0.0395521 0.039552 0.0395518 0.0395517 0.0395518 0.0395518 0.0395517 0.0395518 0.0395518 0.0395515 0.0395515 0.0395516 0.0395515 0.0395514 0.0395514 0.0395513 0.0395511 0.0395513 0.0395511 0.0395512 0.0395512 0.0395513 0.0395509 0.039551 0.039551 0.0395507 0.0395511 0.0395509 0.0395508 0.0395508 0.0395508 0.0395507 0.0395508 0.0395507 0.0395505 0.0395506 0.039579 0.0395734 0.0395691 0.0395656 0.0395632 0.0395613 0.0395601 0.0395589 0.0395582 0.0395576 0.0395572 0.0395571 0.0395565 0.0395562 0.039556 0.0395557 0.0395556 0.0395553 0.0395551 0.0395551 0.0395551 0.0395546 0.0395544 0.0395542 0.0395541 0.039554 0.0395537 0.0395537 0.0395536 0.0395535 0.0395532 0.0395531 0.0395529 0.0395529 0.039553 0.0395527 0.0395526 0.0395522 0.0395523 0.0395522 0.0395521 0.0395522 0.039552 0.0395518 0.0395518 0.0395517 0.0395514 0.0395516 0.0395515 0.0395514 0.0395513 0.0395512 0.0395512 0.0395512 0.0395512 0.0395511 0.039551 0.039551 0.0395509 0.0395508 0.0395509 0.0395508 0.0395507 0.0395508 0.0395868 0.0395801 0.0395745 0.0395708 0.0395678 0.0395657 0.0395642 0.0395629 0.0395621 0.0395613 0.0395607 0.03956 0.0395596 0.0395593 0.0395588 0.0395583 0.0395581 0.0395578 0.0395576 0.0395573 0.039557 0.0395567 0.0395566 0.0395563 0.039556 0.0395558 0.0395555 0.0395554 0.0395551 0.0395547 0.0395546 0.0395544 0.0395543 0.0395541 0.0395539 0.0395537 0.0395535 0.0395531 0.0395532 0.0395529 0.0395527 0.0395528 0.0395526 0.0395524 0.0395521 0.0395521 0.0395519 0.0395519 0.0395516 0.0395515 0.0395516 0.0395514 0.0395512 0.0395513 0.0395513 0.0395513 0.0395512 0.0395511 0.0395509 0.0395509 0.039551 0.0395507 0.0395506 0.0395506 0.0395952 0.0395854 0.0395801 0.039575 0.039572 0.03957 0.0395682 0.0395669 0.0395658 0.0395647 0.0395639 0.0395632 0.0395627 0.0395621 0.0395616 0.039561 0.0395605 0.0395601 0.0395598 0.0395593 0.039559 0.0395588 0.0395586 0.0395581 0.0395579 0.0395574 0.0395569 0.039557 0.0395564 0.0395562 0.039556 0.0395555 0.0395553 0.0395552 0.0395548 0.0395547 0.0395545 0.0395541 0.039554 0.0395537 0.0395536 0.0395534 0.039553 0.0395527 0.0395526 0.0395524 0.0395523 0.0395523 0.0395521 0.0395518 0.0395517 0.0395516 0.0395514 0.0395514 0.0395515 0.0395514 0.0395512 0.0395511 0.0395511 0.039551 0.039551 0.0395507 0.0395506 0.0395506 0.0395988 0.0395942 0.0395826 0.0395788 0.0395763 0.0395743 0.0395724 0.0395709 0.0395696 0.0395685 0.0395673 0.0395665 0.0395659 0.0395651 0.0395644 0.0395638 0.0395632 0.0395627 0.0395621 0.0395616 0.0395615 0.0395609 0.0395604 0.03956 0.0395596 0.0395591 0.0395586 0.0395585 0.0395579 0.0395575 0.0395571 0.0395569 0.0395566 0.0395562 0.0395558 0.0395554 0.0395552 0.0395548 0.0395545 0.0395545 0.0395542 0.0395541 0.0395535 0.0395532 0.0395531 0.039553 0.0395525 0.0395525 0.0395524 0.0395521 0.039552 0.0395518 0.0395517 0.0395515 0.0395516 0.0395514 0.0395513 0.0395512 0.0395512 0.0395509 0.0395507 0.0395508 0.0395508 0.0395508 0.0396379 0.0395911 0.039586 0.0395831 0.0395808 0.0395787 0.0395766 0.0395749 0.0395734 0.039572 0.0395709 0.0395698 0.0395689 0.039568 0.0395672 0.0395665 0.0395658 0.0395652 0.0395645 0.039564 0.0395636 0.0395629 0.0395624 0.0395617 0.0395614 0.0395608 0.0395603 0.03956 0.0395594 0.0395589 0.0395585 0.0395581 0.0395576 0.0395572 0.0395567 0.0395563 0.039556 0.0395557 0.0395555 0.0395552 0.0395547 0.0395544 0.0395542 0.0395539 0.0395535 0.0395535 0.0395531 0.0395529 0.0395525 0.0395525 0.0395523 0.0395521 0.0395519 0.0395517 0.0395517 0.0395516 0.0395513 0.0395511 0.0395514 0.039551 0.0395508 0.0395508 0.0395509 0.0395511 0.0394178 0.0394776 0.0394954 0.0395038 0.0395084 0.0395116 0.039514 0.0395161 0.039518 0.0395197 0.0395212 0.0395227 0.039524 0.0395252 0.0395265 0.0395276 0.0395286 0.0395296 0.0395306 0.0395316 0.0395326 0.0395333 0.0395341 0.039535 0.0395357 0.0395366 0.0395374 0.0395381 0.0395386 0.0395395 0.0395402 0.0395408 0.0395416 0.039542 0.0395427 0.0395432 0.0395438 0.0395443 0.0395451 0.0395454 0.0395458 0.0395465 0.0395468 0.039547 0.0395475 0.0395481 0.0395483 0.0395489 0.039549 0.0395492 0.0395495 0.0395497 0.0395498 0.0395501 0.0395505 0.0395506 0.0395506 0.0395507 0.039551 0.039551 0.0395511 0.0395508 0.0395509 0.0395508 0.0394882 0.0394782 0.0394946 0.0395034 0.0395094 0.0395136 0.0395165 0.039519 0.039521 0.0395227 0.0395241 0.0395254 0.0395267 0.0395279 0.039529 0.0395299 0.0395307 0.0395317 0.0395327 0.0395335 0.0395343 0.0395352 0.0395359 0.0395365 0.0395374 0.0395381 0.0395384 0.0395394 0.0395399 0.0395405 0.0395412 0.0395417 0.0395424 0.039543 0.0395434 0.0395439 0.0395445 0.0395449 0.0395455 0.0395458 0.0395464 0.0395468 0.0395471 0.0395474 0.0395477 0.039548 0.0395484 0.0395488 0.039549 0.0395491 0.0395496 0.0395499 0.0395498 0.03955 0.0395503 0.0395504 0.0395504 0.0395507 0.0395509 0.0395507 0.0395509 0.0395508 0.0395509 0.0395509 0.0394962 0.039498 0.039501 0.0395077 0.0395128 0.0395168 0.0395198 0.039522 0.0395241 0.0395257 0.039527 0.0395284 0.0395294 0.0395304 0.0395313 0.0395322 0.0395331 0.039534 0.0395348 0.0395354 0.0395362 0.0395368 0.0395376 0.0395381 0.0395387 0.0395394 0.0395398 0.0395407 0.0395411 0.0395417 0.0395421 0.0395426 0.0395432 0.0395438 0.0395442 0.0395446 0.0395453 0.0395455 0.0395459 0.0395463 0.0395468 0.039547 0.0395475 0.0395478 0.039548 0.0395485 0.0395485 0.0395488 0.039549 0.0395491 0.0395495 0.0395497 0.0395498 0.0395501 0.0395502 0.0395503 0.0395504 0.0395505 0.0395506 0.0395507 0.0395509 0.0395507 0.0395509 0.0395511 0.0395084 0.0395077 0.0395106 0.0395139 0.0395175 0.0395209 0.0395235 0.0395255 0.0395273 0.0395288 0.0395301 0.0395311 0.039532 0.039533 0.0395339 0.0395346 0.0395355 0.0395362 0.0395368 0.0395375 0.0395381 0.0395387 0.0395392 0.0395397 0.0395404 0.0395408 0.0395412 0.0395419 0.0395422 0.0395428 0.0395433 0.0395438 0.0395442 0.0395445 0.0395451 0.0395454 0.039546 0.0395458 0.0395464 0.0395468 0.0395472 0.0395473 0.0395477 0.0395481 0.0395482 0.0395488 0.0395488 0.039549 0.0395491 0.0395492 0.0395495 0.0395497 0.0395498 0.03955 0.0395502 0.0395504 0.0395504 0.0395504 0.0395506 0.0395507 0.0395509 0.0395507 0.0395508 0.0395511 0.0395182 0.0395178 0.0395188 0.0395208 0.039523 0.0395256 0.0395277 0.0395293 0.0395308 0.0395322 0.0395333 0.0395341 0.039535 0.0395357 0.0395365 0.0395371 0.0395377 0.0395383 0.0395388 0.0395395 0.0395401 0.0395405 0.0395409 0.0395413 0.039542 0.0395424 0.0395426 0.0395435 0.0395435 0.0395439 0.0395443 0.0395448 0.0395453 0.0395454 0.0395458 0.0395464 0.0395466 0.0395467 0.0395471 0.0395474 0.0395477 0.0395478 0.0395481 0.0395484 0.0395485 0.039549 0.039549 0.0395492 0.0395494 0.0395496 0.0395496 0.0395499 0.0395499 0.03955 0.0395502 0.0395504 0.0395506 0.0395506 0.0395508 0.0395505 0.0395508 0.0395506 0.0395507 0.039551 0.0395276 0.0395267 0.039527 0.0395279 0.0395291 0.0395306 0.039532 0.0395334 0.0395345 0.0395355 0.0395364 0.0395371 0.0395379 0.0395385 0.0395392 0.0395398 0.0395402 0.0395406 0.039541 0.0395415 0.0395419 0.0395424 0.0395427 0.0395431 0.0395434 0.0395439 0.0395442 0.0395447 0.0395448 0.0395454 0.0395454 0.0395458 0.0395461 0.0395464 0.0395465 0.0395469 0.0395473 0.0395474 0.0395477 0.039548 0.0395483 0.0395485 0.0395485 0.0395487 0.0395489 0.0395491 0.0395492 0.0395494 0.0395495 0.0395496 0.0395498 0.03955 0.03955 0.03955 0.0395502 0.0395503 0.0395505 0.0395506 0.0395506 0.0395505 0.0395507 0.0395506 0.0395507 0.0395508 0.0395365 0.0395352 0.0395347 0.0395349 0.0395352 0.039536 0.0395368 0.0395375 0.0395383 0.0395391 0.0395399 0.0395402 0.0395408 0.0395413 0.0395417 0.0395423 0.0395427 0.039543 0.0395433 0.0395436 0.0395439 0.0395443 0.0395446 0.0395449 0.0395453 0.0395453 0.0395456 0.0395462 0.0395461 0.0395465 0.0395467 0.039547 0.0395472 0.0395475 0.0395476 0.0395478 0.0395482 0.0395481 0.0395484 0.0395485 0.0395489 0.0395491 0.0395491 0.0395492 0.0395493 0.0395495 0.0395495 0.0395497 0.0395498 0.03955 0.0395501 0.0395502 0.03955 0.03955 0.0395501 0.0395503 0.0395504 0.0395505 0.0395507 0.0395507 0.0395507 0.0395504 0.0395505 0.0395508 0.0395454 0.0395435 0.0395422 0.0395416 0.0395413 0.0395414 0.0395416 0.0395416 0.0395422 0.0395427 0.039543 0.0395435 0.0395439 0.0395441 0.0395445 0.0395448 0.039545 0.0395453 0.0395456 0.0395459 0.039546 0.0395462 0.0395464 0.0395465 0.0395469 0.0395469 0.0395471 0.0395476 0.0395476 0.0395478 0.0395478 0.0395482 0.0395483 0.0395485 0.0395487 0.0395487 0.039549 0.0395491 0.039549 0.0395491 0.0395495 0.0395494 0.0395495 0.0395497 0.0395498 0.0395498 0.0395499 0.0395501 0.0395501 0.0395502 0.0395501 0.0395504 0.0395502 0.0395502 0.0395506 0.0395504 0.0395502 0.0395503 0.0395507 0.0395507 0.0395505 0.0395504 0.0395503 0.0395507 0.0395539 0.0395513 0.0395494 0.0395479 0.0395472 0.0395466 0.0395463 0.0395462 0.0395461 0.0395462 0.0395465 0.0395467 0.039547 0.0395471 0.0395473 0.0395475 0.0395476 0.0395478 0.0395479 0.0395482 0.0395482 0.0395482 0.0395484 0.0395486 0.0395486 0.0395488 0.0395488 0.0395489 0.039549 0.0395491 0.0395491 0.0395492 0.0395495 0.0395494 0.0395495 0.0395496 0.03955 0.0395498 0.0395498 0.0395498 0.03955 0.03955 0.0395499 0.0395501 0.0395501 0.0395504 0.0395502 0.0395502 0.0395504 0.0395503 0.0395505 0.0395504 0.0395504 0.0395505 0.0395506 0.0395505 0.0395504 0.0395505 0.0395507 0.0395507 0.0395506 0.0395505 0.0395504 0.0395504 0.0395624 0.0395589 0.0395562 0.0395542 0.0395527 0.0395516 0.0395508 0.0395505 0.0395501 0.0395499 0.03955 0.0395499 0.03955 0.03955 0.0395501 0.0395501 0.0395501 0.0395502 0.0395504 0.0395503 0.0395503 0.0395504 0.0395504 0.0395503 0.0395505 0.0395505 0.0395504 0.0395505 0.0395502 0.0395504 0.0395505 0.0395505 0.0395506 0.0395506 0.0395505 0.0395504 0.0395506 0.0395505 0.0395505 0.0395506 0.0395507 0.0395506 0.0395506 0.0395508 0.0395506 0.0395506 0.0395504 0.0395506 0.0395506 0.0395507 0.0395508 0.0395506 0.0395504 0.0395507 0.0395505 0.0395507 0.0395506 0.0395504 0.0395506 0.0395506 0.0395506 0.0395503 0.0395503 0.0395505 0.0395708 0.0395661 0.0395626 0.03956 0.0395578 0.0395565 0.0395553 0.0395546 0.0395542 0.0395536 0.0395534 0.0395533 0.0395532 0.0395529 0.0395527 0.0395527 0.0395525 0.0395525 0.0395527 0.0395526 0.0395525 0.0395524 0.0395523 0.0395522 0.0395521 0.0395521 0.0395519 0.039552 0.0395518 0.0395517 0.0395518 0.0395516 0.0395516 0.0395517 0.0395516 0.0395515 0.0395513 0.0395512 0.0395512 0.0395511 0.0395513 0.0395512 0.0395511 0.0395511 0.0395511 0.039551 0.0395509 0.039551 0.0395509 0.0395508 0.0395509 0.0395509 0.0395505 0.0395507 0.0395509 0.0395509 0.0395506 0.0395504 0.0395507 0.0395505 0.0395507 0.0395503 0.0395504 0.0395505 0.0395788 0.039573 0.0395687 0.0395654 0.0395628 0.039561 0.0395598 0.0395589 0.039558 0.0395574 0.0395569 0.0395565 0.0395563 0.0395559 0.0395556 0.0395556 0.0395554 0.039555 0.039555 0.0395548 0.0395546 0.0395545 0.0395543 0.039554 0.0395539 0.0395538 0.0395537 0.0395535 0.0395532 0.0395531 0.039553 0.0395529 0.0395528 0.0395527 0.0395525 0.0395524 0.0395523 0.0395522 0.0395521 0.0395517 0.0395518 0.0395517 0.0395517 0.0395515 0.0395514 0.0395514 0.0395513 0.0395512 0.0395511 0.039551 0.0395511 0.0395511 0.0395507 0.0395508 0.0395509 0.0395508 0.0395505 0.0395505 0.0395508 0.0395507 0.0395505 0.0395505 0.0395505 0.0395505 0.0395866 0.0395797 0.0395743 0.0395705 0.0395676 0.0395655 0.0395641 0.039563 0.0395618 0.039561 0.0395604 0.0395598 0.0395594 0.0395591 0.0395586 0.0395584 0.0395582 0.0395576 0.0395573 0.0395572 0.039557 0.0395565 0.0395562 0.039556 0.0395556 0.0395554 0.0395552 0.0395549 0.0395546 0.0395546 0.0395543 0.0395541 0.039554 0.0395538 0.0395537 0.0395533 0.0395532 0.0395529 0.0395529 0.0395528 0.0395526 0.0395523 0.0395522 0.0395521 0.0395518 0.0395519 0.0395517 0.0395516 0.0395515 0.0395516 0.0395513 0.0395513 0.039551 0.0395509 0.0395509 0.039551 0.0395506 0.0395507 0.039551 0.0395507 0.0395508 0.0395505 0.0395505 0.0395505 0.0395952 0.039585 0.0395796 0.0395748 0.0395719 0.0395698 0.039568 0.0395666 0.0395656 0.0395647 0.0395638 0.039563 0.0395624 0.039562 0.0395615 0.039561 0.0395605 0.0395601 0.0395597 0.0395593 0.0395589 0.0395585 0.0395582 0.0395579 0.0395574 0.0395572 0.0395568 0.0395565 0.0395561 0.0395559 0.0395556 0.039555 0.0395549 0.0395547 0.0395545 0.0395542 0.039554 0.0395537 0.0395537 0.0395535 0.0395531 0.0395529 0.0395527 0.0395526 0.0395524 0.0395523 0.0395521 0.0395521 0.0395517 0.0395516 0.0395515 0.0395516 0.0395512 0.039551 0.0395509 0.0395512 0.0395509 0.0395508 0.0395508 0.0395507 0.0395508 0.0395504 0.0395505 0.0395506 0.0395986 0.0395939 0.0395821 0.0395785 0.0395758 0.0395737 0.0395721 0.0395707 0.0395694 0.0395682 0.0395672 0.0395662 0.0395653 0.0395647 0.0395643 0.0395637 0.0395631 0.0395626 0.0395621 0.0395614 0.0395608 0.0395604 0.0395602 0.0395597 0.0395592 0.0395588 0.0395584 0.0395581 0.0395577 0.0395574 0.0395568 0.0395564 0.0395562 0.0395558 0.0395554 0.0395551 0.0395549 0.0395547 0.0395545 0.039554 0.0395538 0.0395534 0.0395532 0.039553 0.0395527 0.0395528 0.0395524 0.0395524 0.0395521 0.0395518 0.0395518 0.0395517 0.0395514 0.0395512 0.0395511 0.0395511 0.039551 0.0395507 0.0395508 0.0395507 0.0395508 0.0395507 0.0395506 0.0395506 0.0396383 0.0395906 0.0395855 0.0395825 0.0395804 0.0395783 0.0395764 0.0395746 0.0395731 0.0395718 0.0395705 0.0395694 0.0395685 0.0395678 0.039567 0.0395664 0.0395657 0.0395649 0.0395644 0.0395637 0.039563 0.0395625 0.0395619 0.0395616 0.039561 0.0395604 0.0395599 0.0395596 0.0395591 0.0395586 0.0395582 0.0395577 0.0395573 0.0395568 0.0395565 0.0395561 0.0395559 0.0395553 0.0395552 0.0395548 0.0395544 0.0395541 0.0395538 0.0395538 0.0395531 0.0395531 0.0395528 0.0395525 0.0395524 0.0395521 0.0395519 0.0395518 0.0395516 0.0395514 0.0395515 0.0395512 0.039551 0.0395509 0.039551 0.0395508 0.0395509 0.0395506 0.0395505 0.0395507 0.0394179 0.0394779 0.0394956 0.039504 0.0395088 0.0395119 0.0395143 0.0395163 0.039518 0.0395197 0.0395212 0.0395226 0.0395241 0.0395253 0.0395264 0.0395276 0.0395288 0.0395297 0.0395308 0.0395316 0.0395324 0.0395333 0.0395343 0.0395351 0.039536 0.0395367 0.0395373 0.0395383 0.0395389 0.0395396 0.0395402 0.0395409 0.0395416 0.0395421 0.0395427 0.0395435 0.039544 0.0395445 0.0395449 0.0395454 0.0395462 0.0395465 0.0395468 0.0395474 0.0395476 0.039548 0.039548 0.0395486 0.0395491 0.0395494 0.0395496 0.03955 0.0395499 0.0395504 0.0395507 0.0395507 0.0395507 0.0395507 0.039551 0.0395509 0.0395511 0.0395509 0.0395509 0.0395508 0.0394884 0.0394784 0.0394948 0.0395036 0.0395096 0.0395136 0.0395167 0.039519 0.039521 0.0395228 0.0395242 0.0395256 0.0395268 0.0395279 0.039529 0.0395299 0.0395309 0.0395317 0.0395327 0.0395335 0.0395343 0.0395351 0.0395359 0.0395366 0.0395374 0.0395381 0.0395387 0.0395394 0.0395399 0.0395406 0.0395412 0.039542 0.0395425 0.039543 0.0395435 0.0395441 0.0395448 0.0395449 0.0395453 0.0395459 0.0395465 0.0395468 0.0395471 0.0395477 0.0395479 0.0395483 0.0395484 0.0395488 0.039549 0.0395494 0.0395497 0.0395498 0.0395499 0.0395503 0.0395506 0.0395507 0.0395506 0.0395505 0.0395509 0.0395507 0.0395508 0.0395509 0.0395509 0.0395511 0.0394963 0.0394982 0.0395011 0.0395079 0.039513 0.0395169 0.0395198 0.0395223 0.0395241 0.0395257 0.0395272 0.0395284 0.0395294 0.0395305 0.0395314 0.0395323 0.0395331 0.0395339 0.0395348 0.0395356 0.0395362 0.0395368 0.0395375 0.0395383 0.039539 0.0395396 0.0395401 0.0395409 0.0395412 0.0395417 0.0395423 0.0395429 0.0395434 0.0395438 0.0395444 0.0395448 0.0395454 0.0395455 0.039546 0.0395465 0.0395469 0.039547 0.0395473 0.0395478 0.039548 0.0395485 0.0395486 0.039549 0.0395491 0.0395495 0.0395498 0.0395499 0.03955 0.03955 0.0395504 0.0395506 0.0395504 0.0395506 0.0395509 0.0395508 0.0395507 0.0395509 0.0395509 0.0395509 0.0395087 0.0395082 0.0395108 0.039514 0.0395179 0.039521 0.0395236 0.0395258 0.0395273 0.0395287 0.0395302 0.0395312 0.0395322 0.0395331 0.0395339 0.0395347 0.0395354 0.0395361 0.0395369 0.0395375 0.039538 0.0395386 0.039539 0.0395399 0.0395404 0.0395409 0.0395414 0.0395421 0.0395424 0.0395429 0.0395436 0.0395438 0.0395443 0.0395449 0.0395451 0.0395455 0.0395459 0.0395462 0.0395465 0.0395468 0.0395473 0.0395477 0.0395479 0.0395482 0.0395483 0.0395486 0.0395486 0.0395491 0.0395492 0.0395495 0.0395495 0.0395498 0.03955 0.0395501 0.0395503 0.0395504 0.0395503 0.0395505 0.0395508 0.0395507 0.0395508 0.0395509 0.0395509 0.0395509 0.0395183 0.039518 0.039519 0.0395212 0.0395235 0.0395257 0.0395278 0.0395295 0.0395309 0.0395322 0.0395331 0.039534 0.0395351 0.0395357 0.0395364 0.0395372 0.0395378 0.0395382 0.039539 0.0395395 0.03954 0.0395405 0.0395409 0.0395413 0.0395419 0.0395424 0.0395428 0.0395434 0.0395437 0.0395441 0.0395444 0.0395449 0.0395452 0.0395457 0.039546 0.039546 0.0395466 0.039547 0.0395471 0.0395473 0.0395478 0.0395482 0.0395482 0.0395485 0.0395485 0.0395489 0.0395491 0.0395494 0.0395494 0.0395497 0.0395497 0.0395499 0.0395501 0.0395502 0.0395504 0.0395503 0.0395502 0.0395504 0.0395507 0.0395506 0.0395509 0.0395508 0.0395508 0.0395509 0.0395276 0.0395268 0.0395272 0.039528 0.0395294 0.0395308 0.0395322 0.0395334 0.0395346 0.0395356 0.0395363 0.0395372 0.0395379 0.0395386 0.0395392 0.0395396 0.0395401 0.0395406 0.0395411 0.0395417 0.039542 0.0395424 0.0395428 0.0395431 0.0395435 0.039544 0.0395442 0.0395448 0.0395449 0.0395454 0.0395456 0.0395461 0.0395463 0.0395465 0.039547 0.039547 0.0395474 0.0395475 0.0395477 0.0395479 0.0395482 0.0395485 0.0395488 0.039549 0.0395489 0.0395492 0.0395495 0.0395496 0.0395498 0.0395498 0.0395499 0.0395502 0.03955 0.03955 0.0395504 0.0395503 0.0395504 0.0395505 0.0395507 0.0395508 0.0395507 0.0395507 0.0395508 0.039551 0.0395367 0.0395354 0.0395348 0.0395351 0.0395356 0.0395361 0.0395369 0.0395377 0.0395384 0.0395391 0.0395398 0.0395404 0.0395409 0.0395415 0.039542 0.0395423 0.0395427 0.039543 0.0395435 0.0395437 0.0395441 0.0395444 0.0395448 0.039545 0.0395451 0.0395456 0.0395459 0.0395461 0.0395463 0.0395466 0.0395469 0.0395471 0.0395473 0.0395475 0.0395477 0.0395478 0.0395482 0.0395483 0.0395485 0.0395486 0.0395489 0.039549 0.0395492 0.0395492 0.0395495 0.0395498 0.0395496 0.0395498 0.0395499 0.0395498 0.0395501 0.0395501 0.03955 0.03955 0.0395503 0.0395505 0.0395505 0.0395506 0.0395506 0.0395507 0.0395509 0.0395505 0.0395507 0.0395509 0.0395454 0.0395436 0.0395423 0.0395417 0.0395413 0.0395413 0.0395417 0.039542 0.0395423 0.0395427 0.0395432 0.0395435 0.0395439 0.0395443 0.0395445 0.0395447 0.0395451 0.0395455 0.0395457 0.0395459 0.0395462 0.0395464 0.0395465 0.0395468 0.0395469 0.0395472 0.0395473 0.0395476 0.0395477 0.0395478 0.039548 0.0395482 0.0395485 0.0395485 0.0395485 0.0395488 0.039549 0.0395491 0.0395493 0.0395492 0.0395493 0.0395497 0.0395496 0.0395496 0.0395497 0.03955 0.0395501 0.0395499 0.0395501 0.0395501 0.0395502 0.0395503 0.0395502 0.0395502 0.0395503 0.0395504 0.0395505 0.0395505 0.0395506 0.0395508 0.0395506 0.0395505 0.0395506 0.0395508 0.039554 0.0395515 0.0395495 0.0395481 0.0395471 0.0395465 0.0395463 0.0395462 0.0395463 0.0395465 0.0395467 0.0395469 0.039547 0.0395472 0.0395473 0.0395474 0.0395477 0.0395479 0.039548 0.0395481 0.0395482 0.0395484 0.0395485 0.0395486 0.0395488 0.0395487 0.0395488 0.0395493 0.0395491 0.0395491 0.0395492 0.0395495 0.0395496 0.0395495 0.0395496 0.0395497 0.0395499 0.0395497 0.03955 0.03955 0.03955 0.03955 0.03955 0.0395501 0.0395502 0.0395503 0.0395502 0.0395504 0.0395505 0.0395505 0.0395506 0.0395506 0.0395503 0.0395503 0.0395506 0.0395505 0.0395507 0.0395507 0.0395508 0.0395507 0.0395507 0.0395504 0.0395505 0.0395508 0.0395624 0.039559 0.0395562 0.039554 0.0395525 0.0395517 0.039551 0.0395506 0.0395503 0.03955 0.03955 0.0395501 0.0395502 0.0395502 0.03955 0.0395501 0.0395503 0.0395503 0.0395503 0.0395503 0.0395503 0.0395504 0.0395504 0.0395506 0.0395505 0.0395504 0.0395505 0.0395507 0.0395506 0.0395505 0.0395505 0.0395505 0.0395506 0.0395506 0.0395507 0.0395506 0.0395507 0.0395505 0.0395506 0.0395508 0.0395509 0.0395507 0.0395507 0.0395506 0.0395506 0.0395507 0.0395505 0.039551 0.0395508 0.0395507 0.0395507 0.0395508 0.0395506 0.0395507 0.0395507 0.0395506 0.0395506 0.0395509 0.0395509 0.0395507 0.0395508 0.0395506 0.0395506 0.0395506 0.0395707 0.0395662 0.0395628 0.0395599 0.0395578 0.0395564 0.0395553 0.0395546 0.0395542 0.0395538 0.0395535 0.0395533 0.0395532 0.0395532 0.039553 0.0395528 0.0395528 0.0395527 0.0395526 0.0395524 0.0395525 0.0395524 0.0395524 0.0395524 0.0395523 0.0395523 0.039552 0.039552 0.0395519 0.039552 0.0395519 0.0395521 0.0395519 0.0395517 0.0395517 0.0395514 0.0395516 0.0395513 0.0395514 0.0395514 0.0395513 0.0395514 0.0395512 0.0395512 0.0395511 0.0395511 0.0395511 0.039551 0.0395511 0.0395511 0.0395509 0.0395509 0.0395509 0.0395509 0.0395508 0.0395508 0.0395508 0.0395507 0.0395507 0.0395507 0.0395507 0.0395505 0.0395506 0.0395506 0.039579 0.0395731 0.0395686 0.0395652 0.039563 0.0395611 0.0395597 0.0395588 0.039558 0.0395575 0.039557 0.0395565 0.0395561 0.039556 0.0395558 0.0395555 0.0395553 0.0395553 0.0395551 0.0395547 0.0395545 0.0395544 0.0395543 0.0395541 0.039554 0.0395539 0.0395537 0.0395536 0.0395533 0.0395533 0.0395532 0.0395531 0.0395529 0.0395529 0.0395525 0.0395522 0.0395523 0.0395521 0.0395522 0.0395521 0.0395519 0.0395519 0.0395517 0.0395517 0.0395516 0.0395515 0.0395514 0.0395512 0.0395514 0.0395512 0.039551 0.0395511 0.0395509 0.0395509 0.0395511 0.039551 0.0395508 0.0395508 0.0395509 0.0395506 0.0395507 0.0395505 0.0395505 0.0395505 0.0395867 0.0395797 0.039574 0.0395703 0.0395675 0.0395656 0.039564 0.0395629 0.039562 0.0395611 0.0395605 0.0395598 0.0395594 0.039559 0.0395586 0.0395583 0.039558 0.0395578 0.0395575 0.0395571 0.0395567 0.0395567 0.0395564 0.039556 0.0395559 0.0395556 0.0395554 0.0395553 0.0395549 0.0395545 0.0395545 0.0395543 0.0395541 0.0395538 0.0395537 0.0395533 0.0395532 0.039553 0.0395529 0.0395528 0.0395525 0.0395526 0.0395523 0.039552 0.0395519 0.039552 0.0395517 0.0395517 0.0395516 0.0395513 0.0395514 0.0395514 0.0395512 0.0395512 0.0395511 0.0395511 0.0395508 0.0395507 0.039551 0.0395507 0.0395507 0.0395507 0.0395505 0.0395505 0.039595 0.0395848 0.0395796 0.0395746 0.0395716 0.0395698 0.0395682 0.0395667 0.0395655 0.0395645 0.0395638 0.0395631 0.0395627 0.039562 0.0395615 0.039561 0.0395605 0.0395602 0.0395598 0.0395594 0.0395592 0.0395587 0.0395582 0.0395579 0.0395578 0.0395572 0.0395568 0.0395568 0.0395563 0.0395559 0.0395557 0.0395556 0.0395552 0.0395549 0.0395547 0.0395542 0.0395542 0.0395537 0.0395537 0.0395535 0.0395532 0.039553 0.0395527 0.0395527 0.0395525 0.0395523 0.0395521 0.039552 0.0395519 0.0395517 0.0395516 0.0395516 0.0395513 0.0395514 0.0395514 0.0395513 0.0395508 0.0395508 0.039551 0.0395509 0.0395508 0.0395505 0.0395506 0.0395508 0.0395987 0.0395938 0.0395821 0.0395784 0.0395758 0.0395738 0.039572 0.0395705 0.0395693 0.0395681 0.0395672 0.0395664 0.0395657 0.039565 0.0395643 0.0395637 0.0395631 0.0395626 0.0395621 0.0395615 0.0395612 0.0395608 0.0395602 0.0395597 0.0395594 0.0395589 0.0395584 0.0395581 0.0395576 0.0395574 0.0395571 0.0395567 0.0395562 0.0395559 0.0395556 0.0395553 0.039555 0.0395546 0.0395545 0.0395542 0.0395539 0.0395538 0.0395534 0.0395535 0.0395531 0.0395526 0.0395523 0.0395524 0.0395522 0.039552 0.0395517 0.0395517 0.0395515 0.0395513 0.0395513 0.0395514 0.0395511 0.039551 0.039551 0.039551 0.039551 0.0395508 0.0395507 0.0395508 0.0396384 0.0395907 0.0395853 0.0395822 0.0395801 0.0395781 0.0395761 0.0395744 0.039573 0.0395716 0.0395705 0.0395695 0.0395687 0.0395678 0.039567 0.0395662 0.0395656 0.039565 0.0395643 0.0395638 0.0395633 0.0395627 0.0395622 0.0395616 0.039561 0.0395607 0.03956 0.0395596 0.0395591 0.0395587 0.0395583 0.0395579 0.0395574 0.039557 0.0395566 0.0395562 0.039556 0.0395556 0.0395553 0.0395549 0.0395544 0.0395543 0.039554 0.0395538 0.0395534 0.0395532 0.0395528 0.0395527 0.0395525 0.0395523 0.039552 0.0395519 0.0395516 0.0395514 0.0395516 0.0395515 0.0395513 0.039551 0.0395509 0.039551 0.0395509 0.0395509 0.0395509 0.0395508 0.0394194 0.0394789 0.0394965 0.039505 0.0395097 0.0395128 0.0395152 0.0395169 0.0395187 0.0395202 0.0395217 0.039523 0.0395242 0.0395255 0.0395267 0.0395279 0.0395289 0.0395299 0.0395309 0.0395317 0.0395327 0.0395335 0.0395345 0.0395354 0.0395361 0.0395369 0.0395375 0.0395384 0.039539 0.0395399 0.0395405 0.0395412 0.0395417 0.0395422 0.039543 0.0395437 0.0395442 0.0395446 0.0395453 0.0395457 0.0395462 0.0395465 0.039547 0.0395474 0.0395476 0.0395481 0.0395484 0.0395488 0.0395491 0.0395494 0.0395496 0.03955 0.0395502 0.0395505 0.0395507 0.0395509 0.0395508 0.0395509 0.0395513 0.0395513 0.0395512 0.0395508 0.0395509 0.0395509 0.0394888 0.0394793 0.0394957 0.0395045 0.0395105 0.0395145 0.0395174 0.0395197 0.0395215 0.0395231 0.0395246 0.0395258 0.039527 0.0395281 0.039529 0.0395301 0.0395312 0.0395321 0.0395329 0.0395337 0.0395346 0.0395353 0.0395361 0.0395369 0.0395374 0.0395381 0.0395387 0.0395397 0.0395402 0.0395409 0.0395415 0.039542 0.0395426 0.0395431 0.0395437 0.0395443 0.0395449 0.0395452 0.0395458 0.0395461 0.0395465 0.0395468 0.0395473 0.0395477 0.0395478 0.0395483 0.0395484 0.0395489 0.0395494 0.0395498 0.0395496 0.03955 0.0395501 0.0395504 0.0395506 0.0395507 0.0395508 0.0395509 0.0395512 0.0395512 0.0395511 0.0395508 0.0395509 0.0395512 0.0394966 0.0394987 0.0395019 0.0395088 0.0395137 0.0395174 0.0395204 0.0395227 0.0395246 0.0395261 0.0395274 0.0395287 0.0395298 0.0395307 0.0395317 0.0395326 0.0395334 0.039534 0.0395349 0.0395356 0.0395364 0.0395371 0.0395378 0.0395384 0.039539 0.0395396 0.03954 0.0395409 0.0395413 0.0395419 0.0395425 0.039543 0.0395435 0.039544 0.0395445 0.0395449 0.0395455 0.0395459 0.0395462 0.0395466 0.0395469 0.0395474 0.0395476 0.0395479 0.0395481 0.0395485 0.0395487 0.0395491 0.0395495 0.0395497 0.0395497 0.0395499 0.03955 0.0395503 0.0395506 0.0395505 0.0395506 0.0395508 0.0395509 0.0395509 0.039551 0.0395509 0.0395509 0.0395512 0.0395088 0.0395085 0.0395113 0.0395148 0.0395184 0.0395215 0.039524 0.039526 0.0395278 0.0395291 0.0395303 0.0395314 0.0395325 0.0395333 0.0395342 0.0395348 0.0395355 0.0395363 0.0395368 0.0395376 0.0395383 0.0395388 0.0395395 0.0395401 0.0395405 0.039541 0.0395415 0.039542 0.0395425 0.0395432 0.0395435 0.0395441 0.0395444 0.0395447 0.0395453 0.0395456 0.0395463 0.0395465 0.0395468 0.0395473 0.0395474 0.0395477 0.0395482 0.0395483 0.0395485 0.0395488 0.039549 0.0395495 0.0395496 0.0395496 0.0395498 0.0395501 0.03955 0.0395502 0.0395504 0.0395507 0.0395507 0.0395506 0.0395508 0.0395508 0.0395509 0.0395509 0.0395509 0.0395511 0.0395184 0.0395184 0.0395195 0.0395216 0.039524 0.0395262 0.0395282 0.0395298 0.0395312 0.0395324 0.0395335 0.0395344 0.0395353 0.0395359 0.0395367 0.0395374 0.0395379 0.0395387 0.0395392 0.0395396 0.0395401 0.0395406 0.0395412 0.0395417 0.0395421 0.0395427 0.0395429 0.0395434 0.0395438 0.0395443 0.0395448 0.0395451 0.0395455 0.0395457 0.0395461 0.0395464 0.0395468 0.0395471 0.0395475 0.0395477 0.039548 0.0395482 0.0395484 0.0395488 0.0395488 0.0395491 0.0395491 0.0395496 0.0395497 0.0395498 0.03955 0.03955 0.0395501 0.0395502 0.0395504 0.0395508 0.0395506 0.0395507 0.0395508 0.0395508 0.0395508 0.0395509 0.039551 0.039551 0.039528 0.0395274 0.0395276 0.0395285 0.0395299 0.0395313 0.0395326 0.0395338 0.0395349 0.0395357 0.0395367 0.0395374 0.0395382 0.0395386 0.0395392 0.03954 0.0395404 0.0395409 0.0395413 0.0395417 0.0395422 0.0395426 0.0395429 0.0395433 0.0395438 0.0395442 0.0395444 0.0395449 0.0395449 0.0395453 0.0395457 0.039546 0.0395464 0.0395466 0.0395469 0.039547 0.0395473 0.0395476 0.0395481 0.0395482 0.0395484 0.0395487 0.0395486 0.0395489 0.0395492 0.0395493 0.0395495 0.0395497 0.0395499 0.03955 0.0395501 0.0395502 0.0395501 0.0395504 0.0395505 0.0395506 0.0395505 0.0395506 0.0395509 0.0395507 0.039551 0.0395508 0.0395508 0.0395509 0.0395368 0.0395357 0.0395354 0.0395353 0.0395357 0.0395367 0.0395372 0.0395378 0.0395387 0.0395393 0.0395399 0.0395404 0.039541 0.0395415 0.0395419 0.0395424 0.0395428 0.0395431 0.0395435 0.0395439 0.0395443 0.0395444 0.0395446 0.0395451 0.0395455 0.0395456 0.0395458 0.0395463 0.0395464 0.0395468 0.0395469 0.0395472 0.0395476 0.0395477 0.0395479 0.0395481 0.0395483 0.0395485 0.0395487 0.0395487 0.0395489 0.0395492 0.0395492 0.0395493 0.0395495 0.0395497 0.0395499 0.0395499 0.0395501 0.0395503 0.0395502 0.0395505 0.0395502 0.0395504 0.0395506 0.0395506 0.0395506 0.0395506 0.0395511 0.0395507 0.0395509 0.0395506 0.0395508 0.039551 0.0395455 0.0395435 0.0395424 0.0395417 0.0395415 0.0395417 0.0395419 0.039542 0.0395425 0.0395431 0.0395434 0.0395437 0.039544 0.0395444 0.0395447 0.0395451 0.0395452 0.0395456 0.0395458 0.0395459 0.0395462 0.0395464 0.0395467 0.0395469 0.0395471 0.0395473 0.0395474 0.0395476 0.0395478 0.0395481 0.0395482 0.0395485 0.0395485 0.0395488 0.0395489 0.0395488 0.0395491 0.039549 0.0395491 0.0395493 0.0395497 0.0395497 0.0395497 0.03955 0.0395498 0.0395501 0.03955 0.0395502 0.0395503 0.0395502 0.0395503 0.0395505 0.0395504 0.0395504 0.0395507 0.0395507 0.0395506 0.0395508 0.0395509 0.0395507 0.0395509 0.0395508 0.0395507 0.0395509 0.0395542 0.0395515 0.0395494 0.0395481 0.0395473 0.0395467 0.0395465 0.0395464 0.0395464 0.0395466 0.0395469 0.039547 0.0395471 0.0395472 0.0395475 0.0395477 0.0395478 0.0395479 0.039548 0.0395483 0.0395483 0.0395483 0.0395484 0.0395486 0.0395487 0.039549 0.039549 0.0395492 0.0395494 0.0395494 0.0395494 0.0395496 0.0395495 0.0395496 0.0395496 0.0395497 0.0395499 0.0395498 0.0395501 0.03955 0.0395502 0.0395503 0.0395503 0.0395504 0.0395502 0.0395505 0.0395503 0.0395504 0.0395506 0.0395506 0.0395505 0.0395506 0.0395507 0.0395506 0.0395507 0.0395508 0.0395507 0.0395507 0.0395508 0.0395507 0.0395509 0.0395508 0.0395506 0.0395507 0.0395627 0.0395591 0.0395563 0.0395543 0.0395528 0.0395517 0.0395509 0.0395506 0.0395504 0.0395504 0.0395504 0.0395502 0.0395502 0.0395502 0.0395503 0.0395503 0.0395504 0.0395504 0.0395504 0.0395506 0.0395505 0.0395504 0.0395505 0.0395505 0.0395507 0.0395506 0.0395506 0.0395508 0.0395508 0.0395508 0.0395508 0.0395508 0.0395508 0.0395506 0.0395507 0.0395507 0.0395509 0.0395508 0.0395509 0.0395509 0.0395508 0.0395509 0.0395508 0.0395506 0.0395508 0.0395509 0.0395507 0.0395509 0.0395508 0.0395508 0.0395506 0.0395508 0.0395509 0.0395509 0.0395508 0.0395508 0.0395508 0.0395507 0.0395509 0.0395507 0.0395509 0.0395508 0.0395505 0.0395506 0.0395709 0.0395663 0.0395626 0.0395599 0.039558 0.0395565 0.0395554 0.0395548 0.0395543 0.039554 0.0395537 0.0395534 0.0395533 0.0395532 0.0395533 0.0395532 0.0395531 0.0395529 0.0395528 0.0395528 0.0395527 0.0395526 0.0395527 0.0395525 0.0395524 0.0395523 0.0395522 0.0395523 0.0395521 0.0395523 0.0395522 0.039552 0.0395519 0.0395517 0.0395517 0.0395517 0.0395518 0.0395517 0.0395516 0.0395515 0.0395515 0.0395513 0.0395512 0.0395512 0.039551 0.0395511 0.0395512 0.0395513 0.0395512 0.039551 0.0395509 0.039551 0.0395511 0.039551 0.039551 0.0395512 0.0395511 0.039551 0.039551 0.039551 0.039551 0.0395507 0.0395508 0.0395506 0.0395788 0.039573 0.0395688 0.0395653 0.0395629 0.0395611 0.0395598 0.0395588 0.0395581 0.0395575 0.0395571 0.0395567 0.0395566 0.0395562 0.0395561 0.039556 0.0395555 0.0395552 0.0395551 0.039555 0.0395551 0.0395546 0.0395546 0.0395544 0.0395543 0.039554 0.0395538 0.0395536 0.0395535 0.0395536 0.0395534 0.039553 0.039553 0.0395528 0.0395528 0.0395526 0.0395526 0.0395525 0.0395523 0.0395522 0.0395522 0.039552 0.0395519 0.0395519 0.0395515 0.0395517 0.0395515 0.0395515 0.0395516 0.0395512 0.0395512 0.0395513 0.0395513 0.0395512 0.0395512 0.0395511 0.0395511 0.039551 0.0395509 0.0395509 0.0395509 0.0395506 0.0395508 0.0395507 0.0395865 0.0395797 0.0395741 0.0395702 0.0395675 0.0395655 0.0395639 0.0395627 0.0395619 0.0395611 0.0395604 0.03956 0.0395596 0.0395591 0.0395588 0.0395585 0.0395582 0.0395578 0.0395575 0.0395574 0.0395571 0.0395567 0.0395566 0.0395562 0.039556 0.0395559 0.0395555 0.0395552 0.0395549 0.0395548 0.0395547 0.0395544 0.0395543 0.039554 0.0395538 0.0395536 0.0395536 0.0395533 0.0395531 0.039553 0.0395528 0.0395525 0.0395525 0.0395524 0.0395522 0.0395525 0.0395521 0.0395519 0.0395519 0.0395517 0.0395517 0.0395515 0.0395514 0.0395514 0.0395513 0.0395512 0.0395512 0.039551 0.039551 0.0395509 0.0395511 0.0395508 0.0395507 0.0395507 0.0395952 0.039585 0.0395795 0.0395744 0.0395715 0.0395694 0.0395679 0.0395668 0.0395657 0.0395649 0.0395642 0.0395634 0.0395627 0.0395621 0.0395616 0.0395611 0.0395607 0.0395604 0.0395599 0.0395596 0.0395592 0.0395588 0.0395585 0.039558 0.0395577 0.0395574 0.0395569 0.0395567 0.0395564 0.0395561 0.0395559 0.0395557 0.0395554 0.0395552 0.0395548 0.0395544 0.0395544 0.039554 0.039554 0.0395537 0.0395532 0.0395532 0.0395531 0.0395528 0.0395526 0.0395527 0.0395524 0.0395522 0.0395521 0.0395519 0.0395517 0.0395517 0.0395515 0.0395514 0.0395514 0.0395515 0.0395513 0.039551 0.0395511 0.0395511 0.039551 0.0395509 0.0395508 0.0395507 0.0395987 0.0395938 0.039582 0.039578 0.0395753 0.0395734 0.039572 0.0395706 0.0395694 0.0395684 0.0395673 0.0395664 0.0395658 0.0395653 0.0395646 0.0395639 0.0395631 0.0395629 0.0395623 0.0395618 0.0395613 0.0395609 0.0395604 0.0395598 0.0395596 0.0395591 0.0395584 0.0395583 0.0395579 0.0395577 0.0395572 0.0395568 0.0395566 0.0395562 0.0395557 0.0395552 0.0395552 0.0395549 0.0395546 0.0395542 0.0395539 0.0395539 0.0395535 0.0395533 0.0395532 0.039553 0.0395528 0.0395527 0.0395523 0.0395522 0.0395521 0.039552 0.0395517 0.0395516 0.0395516 0.0395515 0.0395513 0.0395512 0.0395513 0.039551 0.0395509 0.0395508 0.0395509 0.0395508 0.0396377 0.0395903 0.0395851 0.039582 0.0395798 0.0395777 0.0395761 0.0395744 0.0395729 0.0395717 0.0395706 0.0395697 0.0395688 0.0395681 0.0395673 0.0395666 0.039566 0.0395652 0.0395647 0.039564 0.0395635 0.039563 0.0395624 0.0395618 0.0395614 0.0395608 0.0395603 0.03956 0.0395592 0.0395589 0.0395585 0.039558 0.0395577 0.0395573 0.0395569 0.0395562 0.0395561 0.0395557 0.0395553 0.0395549 0.0395547 0.0395545 0.0395542 0.0395537 0.0395535 0.0395536 0.039553 0.0395528 0.0395527 0.0395524 0.0395522 0.0395523 0.0395519 0.0395516 0.0395517 0.0395516 0.0395512 0.0395511 0.0395513 0.0395511 0.0395511 0.0395509 0.039551 0.039551 0.0394221 0.0394804 0.0394978 0.0395061 0.0395105 0.0395135 0.0395157 0.0395175 0.0395193 0.0395207 0.0395221 0.0395233 0.0395245 0.0395257 0.0395268 0.0395278 0.0395289 0.0395299 0.0395308 0.0395317 0.0395326 0.0395336 0.0395345 0.0395352 0.0395361 0.0395368 0.0395375 0.0395384 0.0395391 0.0395397 0.0395405 0.0395412 0.0395417 0.0395425 0.0395429 0.0395433 0.0395442 0.0395446 0.0395452 0.0395456 0.0395462 0.0395466 0.039547 0.0395473 0.0395476 0.0395481 0.0395483 0.0395489 0.039549 0.0395493 0.0395496 0.0395499 0.0395501 0.0395503 0.0395506 0.0395506 0.0395508 0.039551 0.0395512 0.039551 0.0395511 0.039551 0.0395511 0.0395509 0.0394895 0.0394807 0.0394968 0.0395055 0.0395113 0.0395152 0.039518 0.0395201 0.0395218 0.0395234 0.0395247 0.0395259 0.0395271 0.0395281 0.0395291 0.03953 0.0395309 0.0395319 0.0395328 0.0395335 0.0395343 0.0395353 0.039536 0.0395366 0.0395375 0.0395381 0.0395388 0.0395395 0.0395401 0.0395408 0.0395414 0.0395421 0.0395426 0.039543 0.0395437 0.039544 0.0395447 0.039545 0.0395455 0.0395459 0.0395465 0.039547 0.0395471 0.0395475 0.0395479 0.0395482 0.0395485 0.0395488 0.039549 0.0395493 0.0395496 0.0395499 0.0395501 0.0395502 0.0395505 0.0395506 0.0395506 0.0395509 0.039551 0.0395507 0.0395508 0.0395507 0.0395508 0.039551 0.0394971 0.0394993 0.0395028 0.0395095 0.0395142 0.0395181 0.0395209 0.039523 0.0395247 0.0395263 0.0395275 0.0395286 0.0395297 0.0395308 0.0395316 0.0395324 0.0395332 0.0395341 0.0395347 0.0395354 0.0395362 0.0395369 0.0395376 0.0395382 0.0395389 0.0395394 0.03954 0.0395408 0.0395411 0.0395419 0.0395423 0.0395429 0.0395435 0.0395439 0.0395445 0.0395448 0.0395451 0.0395456 0.039546 0.0395462 0.0395468 0.0395474 0.0395474 0.0395479 0.0395481 0.0395484 0.0395487 0.0395489 0.0395493 0.0395495 0.0395497 0.03955 0.0395499 0.0395501 0.0395504 0.0395506 0.0395507 0.0395506 0.0395508 0.0395508 0.0395509 0.0395507 0.0395507 0.0395509 0.0395091 0.0395089 0.039512 0.0395153 0.0395188 0.0395218 0.0395244 0.0395262 0.0395277 0.0395292 0.0395305 0.0395315 0.0395324 0.0395332 0.039534 0.0395346 0.0395356 0.0395361 0.0395367 0.0395374 0.039538 0.0395387 0.0395394 0.0395399 0.0395405 0.039541 0.0395414 0.0395419 0.0395423 0.0395429 0.0395434 0.0395438 0.0395442 0.0395447 0.039545 0.0395455 0.039546 0.0395462 0.0395465 0.0395469 0.0395473 0.0395476 0.0395479 0.0395483 0.0395483 0.0395488 0.0395489 0.0395492 0.0395494 0.0395496 0.0395497 0.0395501 0.0395499 0.0395502 0.0395504 0.0395505 0.0395505 0.0395506 0.0395509 0.0395508 0.0395509 0.0395506 0.0395506 0.039551 0.0395187 0.0395186 0.0395199 0.0395221 0.0395244 0.0395264 0.0395282 0.0395299 0.0395311 0.0395323 0.0395334 0.0395344 0.0395352 0.0395359 0.0395366 0.0395372 0.0395379 0.0395383 0.0395388 0.0395394 0.03954 0.0395405 0.039541 0.0395415 0.0395421 0.0395425 0.0395428 0.0395433 0.0395435 0.0395441 0.0395445 0.0395448 0.0395453 0.0395455 0.039546 0.0395463 0.0395469 0.0395469 0.0395471 0.0395475 0.0395478 0.0395481 0.0395484 0.0395486 0.0395486 0.0395491 0.0395492 0.0395495 0.0395496 0.0395497 0.0395499 0.03955 0.03955 0.0395503 0.0395505 0.0395505 0.0395504 0.0395507 0.0395507 0.0395507 0.0395507 0.0395506 0.0395507 0.0395511 0.0395281 0.0395273 0.0395278 0.0395288 0.03953 0.0395313 0.0395326 0.0395337 0.0395348 0.0395357 0.0395366 0.0395373 0.039538 0.0395387 0.0395392 0.0395397 0.0395401 0.0395406 0.0395411 0.0395417 0.039542 0.0395424 0.0395428 0.0395433 0.0395438 0.0395439 0.0395441 0.0395447 0.0395449 0.0395453 0.0395456 0.039546 0.0395463 0.0395464 0.0395469 0.0395471 0.0395475 0.0395474 0.0395477 0.039548 0.0395483 0.0395487 0.0395489 0.039549 0.0395491 0.0395494 0.0395494 0.0395497 0.0395496 0.0395498 0.03955 0.0395502 0.0395502 0.0395505 0.0395505 0.0395506 0.0395505 0.0395505 0.0395507 0.0395506 0.0395507 0.0395506 0.0395506 0.039551 0.0395371 0.0395358 0.0395353 0.0395353 0.0395358 0.0395364 0.0395373 0.039538 0.0395388 0.0395393 0.0395399 0.0395404 0.0395411 0.0395416 0.039542 0.0395424 0.0395427 0.039543 0.0395432 0.0395438 0.039544 0.0395444 0.0395447 0.0395449 0.0395453 0.0395457 0.0395459 0.0395463 0.0395464 0.0395466 0.0395468 0.0395471 0.0395472 0.0395474 0.0395478 0.0395478 0.0395482 0.0395483 0.0395484 0.0395487 0.039549 0.0395491 0.0395491 0.0395495 0.0395494 0.0395496 0.0395497 0.0395499 0.03955 0.0395501 0.03955 0.0395503 0.0395503 0.0395504 0.0395505 0.0395507 0.0395505 0.0395505 0.0395508 0.0395509 0.0395509 0.0395507 0.0395507 0.0395508 0.0395456 0.0395438 0.0395426 0.039542 0.0395416 0.0395415 0.039542 0.0395424 0.0395426 0.0395428 0.0395433 0.0395437 0.0395441 0.0395444 0.0395447 0.039545 0.0395453 0.0395454 0.0395456 0.0395458 0.0395459 0.0395464 0.0395467 0.0395468 0.0395471 0.0395473 0.0395473 0.0395476 0.0395476 0.0395479 0.039548 0.0395481 0.0395482 0.0395483 0.0395487 0.0395489 0.039549 0.0395489 0.0395492 0.0395492 0.0395494 0.0395496 0.0395497 0.03955 0.0395498 0.0395501 0.0395501 0.03955 0.0395502 0.0395503 0.0395504 0.0395504 0.0395503 0.0395504 0.0395505 0.0395506 0.0395505 0.0395506 0.0395508 0.0395509 0.0395508 0.0395506 0.0395507 0.0395507 0.039554 0.0395514 0.0395495 0.0395481 0.0395472 0.0395467 0.0395465 0.0395464 0.0395464 0.0395466 0.0395467 0.0395468 0.0395472 0.0395473 0.0395473 0.0395475 0.0395477 0.0395477 0.039548 0.039548 0.0395481 0.0395484 0.0395486 0.0395487 0.0395488 0.0395489 0.0395488 0.0395491 0.0395491 0.0395493 0.0395494 0.0395493 0.0395494 0.0395495 0.0395496 0.0395496 0.0395499 0.0395497 0.0395498 0.0395498 0.0395499 0.0395499 0.0395501 0.0395504 0.0395503 0.0395505 0.0395503 0.0395504 0.0395504 0.0395505 0.0395504 0.0395506 0.0395503 0.0395505 0.0395507 0.0395506 0.0395507 0.0395507 0.0395508 0.0395508 0.0395508 0.0395504 0.0395505 0.0395506 0.0395625 0.039559 0.039556 0.0395539 0.0395526 0.0395516 0.039551 0.0395505 0.0395503 0.0395501 0.03955 0.0395501 0.0395503 0.0395502 0.0395502 0.0395503 0.0395504 0.0395504 0.0395503 0.0395504 0.0395504 0.0395504 0.0395504 0.0395505 0.0395506 0.0395504 0.0395505 0.0395507 0.0395506 0.0395507 0.0395508 0.0395506 0.0395505 0.0395506 0.0395507 0.0395505 0.0395507 0.0395507 0.0395506 0.0395506 0.0395506 0.0395507 0.0395507 0.0395508 0.0395506 0.0395507 0.0395507 0.0395507 0.0395508 0.0395506 0.0395507 0.0395508 0.0395506 0.0395508 0.0395508 0.0395507 0.0395507 0.0395507 0.039551 0.0395509 0.0395509 0.0395506 0.0395505 0.0395505 0.0395706 0.039566 0.0395622 0.0395595 0.0395575 0.0395562 0.0395554 0.0395545 0.0395541 0.0395539 0.0395537 0.0395535 0.0395533 0.0395532 0.0395531 0.039553 0.0395529 0.0395528 0.0395529 0.0395528 0.0395526 0.0395525 0.0395523 0.0395524 0.0395524 0.0395522 0.039552 0.0395522 0.039552 0.0395519 0.0395518 0.0395519 0.0395518 0.0395517 0.0395518 0.0395518 0.0395517 0.0395513 0.0395514 0.0395516 0.0395514 0.0395513 0.0395512 0.0395513 0.039551 0.0395512 0.0395511 0.0395511 0.0395511 0.039551 0.039551 0.039551 0.0395508 0.0395507 0.0395509 0.0395509 0.0395507 0.0395508 0.0395509 0.0395508 0.0395509 0.0395506 0.0395506 0.0395507 0.0395787 0.0395725 0.0395682 0.0395649 0.0395624 0.0395606 0.0395594 0.0395586 0.0395578 0.0395574 0.0395572 0.0395568 0.0395565 0.0395563 0.039556 0.0395558 0.0395556 0.0395553 0.0395552 0.039555 0.0395547 0.0395547 0.0395544 0.0395543 0.0395542 0.039554 0.0395537 0.0395537 0.0395534 0.0395533 0.0395531 0.0395531 0.039553 0.0395527 0.0395526 0.0395525 0.0395526 0.0395522 0.0395523 0.0395522 0.039552 0.0395518 0.0395518 0.0395517 0.0395517 0.0395517 0.0395515 0.0395514 0.0395513 0.0395513 0.0395513 0.0395512 0.0395509 0.0395509 0.0395511 0.0395511 0.0395508 0.0395509 0.0395509 0.0395507 0.0395508 0.0395506 0.0395506 0.0395507 0.0395862 0.039579 0.0395734 0.0395698 0.0395669 0.0395649 0.0395635 0.0395626 0.0395617 0.0395611 0.0395605 0.0395601 0.0395597 0.0395593 0.039559 0.0395585 0.0395581 0.0395578 0.0395575 0.0395572 0.039557 0.0395567 0.0395565 0.0395562 0.0395561 0.0395557 0.0395554 0.0395553 0.0395549 0.0395548 0.0395544 0.0395543 0.0395543 0.0395538 0.0395536 0.0395534 0.0395533 0.0395531 0.0395532 0.0395528 0.0395528 0.0395525 0.0395525 0.0395521 0.0395521 0.0395521 0.0395518 0.0395518 0.0395516 0.0395515 0.0395515 0.0395513 0.0395512 0.0395512 0.0395513 0.0395512 0.0395511 0.039551 0.039551 0.0395508 0.0395508 0.0395507 0.0395506 0.0395508 0.0395946 0.0395842 0.0395788 0.0395738 0.0395709 0.0395691 0.0395675 0.0395663 0.0395655 0.0395646 0.0395638 0.0395632 0.0395627 0.0395622 0.0395616 0.0395612 0.0395608 0.0395603 0.0395599 0.0395594 0.0395592 0.0395587 0.0395583 0.0395582 0.0395577 0.0395574 0.0395571 0.0395568 0.0395564 0.0395561 0.0395558 0.0395555 0.0395553 0.0395549 0.0395548 0.0395543 0.0395544 0.0395539 0.0395538 0.0395534 0.0395533 0.0395531 0.0395529 0.0395526 0.0395525 0.0395523 0.0395521 0.0395521 0.0395518 0.0395517 0.0395518 0.0395515 0.0395513 0.0395514 0.0395513 0.0395511 0.039551 0.039551 0.0395508 0.0395506 0.0395508 0.0395507 0.0395504 0.0395506 0.0395983 0.039593 0.0395813 0.0395774 0.0395747 0.039573 0.0395715 0.03957 0.0395691 0.039568 0.0395672 0.0395665 0.0395658 0.039565 0.0395644 0.0395638 0.0395633 0.0395628 0.0395623 0.0395617 0.0395611 0.0395608 0.0395605 0.0395599 0.0395595 0.039559 0.0395587 0.0395583 0.0395578 0.0395573 0.0395571 0.0395566 0.0395563 0.0395561 0.0395558 0.0395555 0.0395553 0.0395549 0.0395546 0.0395543 0.039554 0.0395537 0.0395535 0.0395532 0.039553 0.0395528 0.0395526 0.0395525 0.0395522 0.0395519 0.0395519 0.0395517 0.0395514 0.0395515 0.0395515 0.0395514 0.0395512 0.0395511 0.0395511 0.0395509 0.039551 0.0395507 0.0395507 0.0395507 0.0396366 0.03959 0.0395844 0.0395811 0.039579 0.0395771 0.0395754 0.039574 0.0395726 0.0395715 0.0395704 0.0395695 0.0395686 0.0395679 0.0395673 0.0395664 0.0395657 0.0395652 0.0395646 0.0395639 0.0395632 0.0395627 0.0395622 0.0395617 0.0395612 0.0395607 0.0395601 0.0395598 0.0395593 0.0395588 0.0395584 0.0395582 0.0395575 0.039557 0.0395568 0.0395565 0.0395562 0.0395557 0.0395553 0.0395547 0.0395547 0.0395543 0.0395541 0.0395537 0.0395534 0.0395531 0.0395529 0.0395528 0.0395528 0.0395526 0.0395522 0.0395521 0.0395518 0.0395516 0.0395515 0.0395515 0.0395513 0.0395512 0.0395513 0.0395509 0.0395511 0.0395509 0.0395509 0.039551 0.0394261 0.0394825 0.0394996 0.0395077 0.0395121 0.0395149 0.0395169 0.0395186 0.0395201 0.0395212 0.0395226 0.0395237 0.0395248 0.039526 0.039527 0.0395281 0.0395291 0.0395299 0.0395309 0.0395318 0.0395328 0.0395336 0.0395344 0.0395353 0.0395362 0.0395369 0.0395376 0.0395383 0.0395388 0.0395398 0.0395404 0.039541 0.0395417 0.0395423 0.0395429 0.0395435 0.039544 0.0395445 0.039545 0.0395455 0.039546 0.0395465 0.0395468 0.0395472 0.0395476 0.039548 0.0395484 0.0395487 0.039549 0.0395492 0.0395495 0.0395498 0.03955 0.0395501 0.0395504 0.0395507 0.0395507 0.0395509 0.0395512 0.039551 0.0395509 0.0395507 0.0395508 0.0395509 0.0394903 0.0394826 0.0394985 0.039507 0.0395125 0.0395163 0.039519 0.0395209 0.0395224 0.0395238 0.039525 0.039526 0.0395272 0.0395282 0.0395293 0.0395304 0.0395312 0.039532 0.0395329 0.0395336 0.0395345 0.0395353 0.0395359 0.0395368 0.0395375 0.0395383 0.0395389 0.0395396 0.03954 0.0395408 0.0395414 0.0395418 0.0395426 0.0395431 0.0395437 0.0395441 0.0395447 0.039545 0.0395454 0.0395459 0.0395463 0.0395467 0.0395473 0.0395475 0.0395477 0.0395482 0.0395484 0.0395489 0.0395492 0.0395493 0.0395495 0.0395499 0.0395499 0.0395501 0.0395504 0.0395506 0.0395508 0.0395508 0.0395511 0.0395508 0.039551 0.0395509 0.0395509 0.039551 0.0394979 0.0395006 0.0395041 0.0395107 0.0395154 0.0395191 0.0395216 0.0395235 0.0395252 0.0395263 0.0395277 0.0395288 0.0395297 0.0395306 0.0395316 0.0395325 0.0395333 0.039534 0.0395347 0.0395356 0.0395362 0.0395368 0.0395375 0.0395382 0.0395388 0.0395394 0.0395399 0.0395407 0.0395412 0.0395417 0.0395423 0.0395428 0.0395432 0.0395438 0.0395443 0.0395446 0.0395454 0.0395455 0.039546 0.0395464 0.0395467 0.0395472 0.0395474 0.0395479 0.0395479 0.0395484 0.0395486 0.039549 0.0395492 0.0395494 0.0395496 0.0395499 0.03955 0.0395502 0.0395504 0.0395507 0.0395508 0.0395507 0.0395509 0.0395508 0.0395508 0.0395507 0.0395509 0.039551 0.0395097 0.0395098 0.0395127 0.0395161 0.0395198 0.0395227 0.0395248 0.0395267 0.0395283 0.0395293 0.0395306 0.0395316 0.0395326 0.0395332 0.0395341 0.0395348 0.0395354 0.039536 0.0395368 0.0395376 0.039538 0.0395386 0.0395392 0.0395398 0.0395404 0.0395408 0.0395414 0.039542 0.0395424 0.0395428 0.0395433 0.0395438 0.0395442 0.0395448 0.0395453 0.0395455 0.039546 0.0395462 0.0395467 0.039547 0.0395472 0.0395474 0.0395478 0.0395482 0.0395482 0.0395486 0.0395487 0.039549 0.0395492 0.0395495 0.0395497 0.03955 0.03955 0.0395502 0.0395503 0.0395506 0.0395505 0.0395506 0.0395507 0.0395506 0.0395508 0.0395506 0.0395509 0.0395511 0.0395191 0.0395192 0.0395205 0.0395228 0.0395249 0.039527 0.0395288 0.0395302 0.0395316 0.0395325 0.0395334 0.0395344 0.0395351 0.0395358 0.0395365 0.0395371 0.0395376 0.0395383 0.039539 0.0395394 0.0395399 0.0395405 0.0395409 0.0395414 0.0395418 0.0395424 0.0395427 0.0395432 0.0395435 0.039544 0.0395443 0.0395448 0.0395451 0.0395456 0.0395459 0.0395462 0.0395466 0.0395469 0.0395472 0.0395472 0.0395476 0.0395478 0.0395483 0.0395485 0.0395487 0.0395488 0.039549 0.0395492 0.0395493 0.0395495 0.0395499 0.0395501 0.0395499 0.0395502 0.0395502 0.0395504 0.0395505 0.0395504 0.0395507 0.0395507 0.0395509 0.0395508 0.0395507 0.0395509 0.0395281 0.0395278 0.0395283 0.0395294 0.0395307 0.0395319 0.0395331 0.0395341 0.039535 0.0395359 0.0395367 0.0395372 0.0395379 0.0395386 0.039539 0.0395395 0.0395402 0.0395406 0.039541 0.0395414 0.039542 0.0395424 0.0395428 0.0395431 0.0395435 0.0395439 0.0395441 0.0395445 0.0395449 0.0395453 0.0395456 0.0395458 0.0395462 0.0395465 0.0395467 0.0395472 0.0395475 0.0395475 0.0395478 0.0395478 0.0395481 0.0395483 0.0395486 0.0395489 0.039549 0.0395493 0.0395494 0.0395493 0.0395496 0.0395497 0.0395499 0.0395502 0.0395501 0.0395503 0.0395503 0.0395504 0.0395504 0.0395505 0.0395507 0.0395507 0.0395509 0.0395508 0.0395509 0.0395509 0.0395369 0.039536 0.0395356 0.0395357 0.0395362 0.0395369 0.0395375 0.0395381 0.0395389 0.0395394 0.0395399 0.0395405 0.0395409 0.0395414 0.0395419 0.0395422 0.0395426 0.0395429 0.0395434 0.0395437 0.039544 0.0395442 0.0395447 0.039545 0.0395452 0.0395454 0.0395456 0.0395461 0.0395463 0.0395466 0.0395469 0.0395471 0.0395471 0.0395474 0.0395477 0.0395481 0.0395484 0.0395483 0.0395486 0.0395487 0.039549 0.0395489 0.039549 0.0395493 0.0395493 0.0395497 0.0395497 0.0395499 0.0395499 0.03955 0.0395502 0.0395503 0.0395501 0.0395505 0.0395506 0.0395506 0.0395504 0.0395505 0.0395507 0.0395506 0.0395506 0.0395507 0.0395508 0.0395507 0.0395455 0.0395439 0.0395427 0.0395419 0.0395418 0.0395418 0.039542 0.0395423 0.0395426 0.0395429 0.0395433 0.0395437 0.039544 0.0395443 0.0395447 0.039545 0.0395451 0.0395452 0.0395455 0.039546 0.0395462 0.0395463 0.0395465 0.0395466 0.039547 0.0395472 0.0395472 0.0395476 0.0395476 0.0395479 0.0395481 0.0395482 0.0395482 0.0395484 0.0395485 0.0395487 0.039549 0.0395491 0.0395492 0.0395493 0.0395496 0.0395495 0.0395495 0.0395496 0.0395498 0.0395499 0.0395499 0.0395501 0.0395502 0.0395502 0.0395503 0.0395502 0.0395504 0.0395506 0.0395505 0.0395507 0.0395507 0.0395506 0.0395509 0.0395507 0.0395507 0.0395507 0.0395508 0.0395507 0.039554 0.0395514 0.0395494 0.039548 0.0395472 0.0395466 0.0395465 0.0395465 0.0395466 0.0395465 0.0395468 0.0395469 0.039547 0.0395474 0.0395474 0.0395476 0.0395479 0.0395478 0.0395479 0.0395481 0.0395482 0.0395483 0.0395483 0.0395485 0.0395487 0.0395489 0.039549 0.0395491 0.039549 0.0395492 0.0395491 0.0395493 0.0395493 0.0395496 0.0395498 0.0395495 0.0395498 0.0395496 0.0395497 0.0395499 0.0395502 0.03955 0.0395501 0.0395501 0.03955 0.0395503 0.0395501 0.0395503 0.0395505 0.0395503 0.0395503 0.0395505 0.0395505 0.0395504 0.0395505 0.0395506 0.0395505 0.0395505 0.0395509 0.0395508 0.0395507 0.0395505 0.0395507 0.0395507 0.0395624 0.0395587 0.039556 0.0395539 0.0395523 0.0395515 0.0395509 0.0395504 0.0395503 0.0395503 0.0395502 0.0395502 0.0395502 0.0395504 0.0395504 0.0395502 0.0395502 0.0395502 0.0395503 0.0395503 0.0395503 0.0395503 0.0395503 0.0395503 0.0395505 0.0395506 0.0395507 0.0395506 0.0395505 0.0395506 0.0395504 0.0395504 0.0395504 0.0395505 0.0395507 0.0395505 0.0395508 0.0395505 0.0395506 0.0395506 0.0395507 0.0395506 0.0395507 0.0395508 0.0395506 0.0395508 0.0395507 0.0395506 0.0395507 0.0395507 0.0395506 0.0395506 0.0395505 0.0395506 0.0395506 0.0395508 0.0395506 0.0395506 0.0395509 0.0395508 0.0395507 0.0395505 0.0395506 0.0395508 0.0395703 0.0395656 0.039562 0.0395593 0.0395574 0.0395559 0.039555 0.0395545 0.0395541 0.0395539 0.0395537 0.0395535 0.0395535 0.0395534 0.039553 0.0395529 0.039553 0.0395529 0.0395527 0.0395525 0.0395525 0.0395524 0.0395524 0.0395524 0.0395523 0.0395523 0.0395523 0.0395521 0.039552 0.0395521 0.0395517 0.0395517 0.0395516 0.0395517 0.0395516 0.0395517 0.0395516 0.0395513 0.0395515 0.0395512 0.0395511 0.0395513 0.0395512 0.039551 0.0395509 0.0395512 0.039551 0.0395511 0.0395509 0.0395508 0.0395509 0.0395509 0.0395507 0.0395508 0.0395509 0.0395509 0.0395508 0.0395508 0.039551 0.0395507 0.0395507 0.0395505 0.0395506 0.0395506 0.0395784 0.0395723 0.0395677 0.0395643 0.0395619 0.0395603 0.0395592 0.0395583 0.0395577 0.0395573 0.039557 0.0395566 0.0395564 0.0395563 0.039556 0.0395556 0.0395555 0.0395554 0.0395551 0.0395548 0.0395545 0.0395545 0.0395544 0.0395543 0.0395541 0.0395539 0.0395537 0.0395538 0.0395535 0.0395533 0.0395532 0.0395529 0.0395528 0.0395527 0.0395527 0.0395525 0.0395525 0.0395522 0.0395521 0.0395519 0.0395519 0.0395519 0.0395517 0.0395515 0.0395515 0.0395516 0.0395513 0.0395515 0.0395514 0.0395512 0.0395512 0.0395512 0.0395511 0.039551 0.0395509 0.0395509 0.0395508 0.0395509 0.0395509 0.0395507 0.0395507 0.0395506 0.0395504 0.0395503 0.0395858 0.0395786 0.0395729 0.039569 0.0395663 0.0395646 0.0395632 0.0395621 0.0395615 0.0395608 0.0395603 0.0395599 0.0395596 0.0395592 0.0395589 0.0395584 0.0395581 0.0395579 0.0395575 0.0395571 0.039557 0.0395566 0.0395563 0.0395561 0.039556 0.0395557 0.0395554 0.0395555 0.039555 0.0395547 0.0395546 0.0395543 0.0395539 0.0395539 0.0395538 0.0395534 0.0395535 0.0395531 0.039553 0.0395528 0.0395527 0.0395526 0.0395524 0.0395522 0.0395521 0.039552 0.0395518 0.0395518 0.0395517 0.0395517 0.0395515 0.0395515 0.0395512 0.0395512 0.0395513 0.0395512 0.0395509 0.0395509 0.039551 0.0395508 0.039551 0.0395508 0.0395506 0.0395506 0.0395941 0.0395837 0.039578 0.039573 0.0395704 0.0395684 0.0395672 0.0395661 0.039565 0.0395642 0.0395637 0.0395631 0.0395626 0.0395621 0.0395615 0.039561 0.0395608 0.0395603 0.0395599 0.0395594 0.0395591 0.0395587 0.0395583 0.0395579 0.0395577 0.0395573 0.039557 0.0395569 0.0395564 0.0395561 0.0395558 0.0395557 0.0395551 0.0395549 0.0395547 0.0395544 0.0395543 0.0395537 0.0395538 0.0395537 0.0395532 0.0395531 0.0395529 0.0395529 0.0395525 0.0395524 0.039552 0.0395519 0.039552 0.0395518 0.0395517 0.0395515 0.0395513 0.0395513 0.0395513 0.0395511 0.039551 0.0395508 0.039551 0.0395508 0.0395509 0.0395508 0.0395508 0.0395508 0.0395978 0.0395923 0.0395808 0.0395767 0.0395741 0.0395723 0.0395708 0.0395696 0.0395686 0.0395677 0.039567 0.0395663 0.0395656 0.039565 0.0395644 0.0395638 0.0395634 0.0395626 0.0395622 0.0395618 0.0395613 0.0395608 0.0395603 0.0395599 0.0395596 0.039559 0.0395586 0.0395584 0.0395576 0.0395575 0.0395571 0.0395567 0.0395564 0.0395559 0.0395558 0.0395555 0.0395552 0.0395548 0.0395544 0.0395543 0.039554 0.0395538 0.0395535 0.0395535 0.0395529 0.0395528 0.0395525 0.0395523 0.0395522 0.039552 0.0395519 0.0395516 0.0395515 0.0395514 0.0395514 0.0395512 0.0395511 0.0395513 0.039551 0.0395509 0.0395508 0.0395507 0.0395508 0.0395507 0.0396347 0.0395895 0.0395838 0.0395804 0.0395783 0.0395764 0.0395747 0.0395733 0.0395721 0.0395712 0.0395702 0.0395693 0.0395686 0.0395678 0.0395671 0.0395664 0.0395658 0.039565 0.0395645 0.0395641 0.0395634 0.0395629 0.0395624 0.0395617 0.0395613 0.0395606 0.0395602 0.0395599 0.0395591 0.0395587 0.0395583 0.0395578 0.0395576 0.039557 0.0395568 0.0395565 0.0395561 0.0395557 0.0395551 0.0395549 0.0395548 0.0395543 0.039554 0.0395539 0.0395533 0.0395533 0.039553 0.0395528 0.0395526 0.0395523 0.0395521 0.0395519 0.0395517 0.0395517 0.0395515 0.0395516 0.0395514 0.0395512 0.0395512 0.0395509 0.0395509 0.0395509 0.0395508 0.0395509 0.0394317 0.039485 0.0395016 0.0395097 0.039514 0.0395166 0.0395185 0.0395197 0.0395212 0.0395224 0.0395233 0.0395244 0.0395256 0.0395265 0.0395274 0.0395284 0.0395295 0.0395302 0.0395312 0.0395322 0.039533 0.0395339 0.0395345 0.0395354 0.0395362 0.0395371 0.0395377 0.0395385 0.0395392 0.0395399 0.0395404 0.0395412 0.0395418 0.0395424 0.0395428 0.0395434 0.039544 0.0395444 0.0395449 0.0395453 0.0395458 0.0395463 0.0395468 0.0395471 0.0395476 0.0395481 0.0395482 0.0395486 0.0395489 0.0395492 0.0395494 0.0395497 0.0395498 0.0395501 0.0395503 0.0395504 0.0395506 0.0395506 0.0395509 0.039551 0.0395509 0.0395509 0.0395508 0.0395508 0.0394912 0.0394847 0.0395003 0.0395086 0.0395141 0.0395175 0.0395198 0.0395216 0.0395231 0.0395244 0.0395254 0.0395263 0.0395275 0.0395283 0.0395291 0.0395301 0.0395311 0.0395318 0.0395328 0.0395337 0.0395344 0.0395351 0.039536 0.0395368 0.0395374 0.0395382 0.0395386 0.0395395 0.0395399 0.0395406 0.0395413 0.0395418 0.0395425 0.0395428 0.0395434 0.0395439 0.0395444 0.0395448 0.0395453 0.0395457 0.0395463 0.0395466 0.0395469 0.0395473 0.0395479 0.0395483 0.0395483 0.0395487 0.0395489 0.0395491 0.0395495 0.0395497 0.0395498 0.0395502 0.0395503 0.0395504 0.0395504 0.0395506 0.0395507 0.0395507 0.0395508 0.0395506 0.0395508 0.039551 0.0394988 0.0395015 0.0395055 0.0395121 0.0395168 0.03952 0.0395223 0.039524 0.0395256 0.0395268 0.039528 0.0395287 0.0395298 0.0395307 0.0395315 0.0395323 0.0395331 0.0395339 0.0395347 0.0395353 0.0395359 0.0395366 0.0395373 0.0395381 0.0395388 0.0395394 0.0395401 0.0395406 0.039541 0.0395417 0.0395422 0.0395426 0.0395433 0.0395436 0.0395441 0.0395445 0.039545 0.0395453 0.039546 0.0395462 0.0395466 0.0395469 0.0395472 0.0395477 0.039548 0.0395483 0.0395485 0.0395489 0.039549 0.0395492 0.0395494 0.0395497 0.0395499 0.0395501 0.0395504 0.0395504 0.0395504 0.0395506 0.0395507 0.0395506 0.039551 0.0395506 0.0395508 0.0395508 0.0395102 0.0395106 0.0395141 0.0395175 0.039521 0.0395234 0.0395255 0.0395271 0.0395284 0.0395297 0.0395307 0.0395315 0.0395324 0.0395333 0.0395339 0.0395346 0.0395354 0.0395361 0.0395366 0.0395372 0.039538 0.0395385 0.0395389 0.0395396 0.0395402 0.0395409 0.0395413 0.0395418 0.0395423 0.0395428 0.0395432 0.0395437 0.0395441 0.0395445 0.0395451 0.0395451 0.0395457 0.0395461 0.0395464 0.0395466 0.039547 0.0395474 0.0395475 0.0395478 0.0395482 0.0395485 0.0395486 0.0395491 0.0395491 0.0395494 0.0395496 0.0395499 0.0395499 0.0395501 0.0395505 0.0395503 0.0395504 0.0395504 0.0395507 0.0395506 0.0395508 0.0395506 0.0395507 0.0395508 0.0395195 0.0395199 0.0395216 0.0395237 0.039526 0.0395276 0.0395292 0.0395308 0.0395318 0.0395328 0.0395336 0.0395344 0.039535 0.0395357 0.0395364 0.039537 0.0395377 0.0395382 0.0395387 0.0395393 0.0395399 0.0395403 0.0395408 0.0395414 0.0395417 0.039542 0.0395426 0.0395432 0.0395436 0.039544 0.0395442 0.0395447 0.0395451 0.0395454 0.0395461 0.039546 0.0395464 0.0395469 0.039547 0.0395473 0.0395478 0.0395479 0.039548 0.0395482 0.0395485 0.0395489 0.039549 0.0395493 0.0395494 0.0395497 0.0395499 0.0395498 0.0395499 0.0395502 0.0395504 0.0395504 0.0395504 0.0395504 0.0395508 0.0395507 0.0395507 0.0395506 0.0395506 0.0395508 0.0395288 0.0395285 0.0395291 0.0395299 0.0395311 0.0395324 0.0395334 0.0395345 0.0395353 0.039536 0.0395369 0.0395374 0.0395379 0.0395385 0.039539 0.0395396 0.03954 0.0395404 0.0395411 0.0395413 0.0395417 0.0395421 0.0395426 0.039543 0.0395435 0.0395439 0.0395442 0.0395447 0.0395449 0.0395452 0.0395453 0.0395457 0.039546 0.0395463 0.0395468 0.0395467 0.0395473 0.0395473 0.0395478 0.0395481 0.0395482 0.0395485 0.0395486 0.0395487 0.0395488 0.0395491 0.0395491 0.0395495 0.0395497 0.0395497 0.0395499 0.0395501 0.0395499 0.03955 0.0395504 0.0395504 0.0395502 0.0395505 0.0395507 0.0395506 0.0395506 0.0395505 0.0395506 0.0395506 0.0395374 0.0395364 0.0395363 0.0395363 0.0395365 0.0395371 0.0395379 0.0395384 0.0395389 0.0395396 0.03954 0.0395405 0.0395409 0.0395413 0.0395416 0.0395421 0.0395426 0.0395429 0.0395432 0.0395435 0.0395439 0.0395442 0.0395444 0.0395446 0.0395452 0.0395455 0.0395457 0.0395459 0.039546 0.0395465 0.0395467 0.039547 0.0395473 0.0395474 0.0395478 0.0395478 0.0395481 0.0395482 0.0395486 0.0395486 0.0395488 0.0395492 0.0395492 0.0395491 0.0395492 0.0395493 0.0395493 0.0395497 0.0395499 0.0395498 0.0395502 0.0395504 0.0395503 0.0395502 0.0395506 0.0395506 0.0395504 0.0395506 0.0395506 0.0395506 0.0395509 0.0395506 0.0395505 0.0395507 0.0395458 0.0395441 0.039543 0.0395423 0.039542 0.0395421 0.0395423 0.0395426 0.0395428 0.039543 0.0395434 0.0395438 0.0395441 0.0395442 0.0395445 0.039545 0.039545 0.0395453 0.0395456 0.0395458 0.0395459 0.0395463 0.0395464 0.0395467 0.0395469 0.039547 0.0395472 0.0395474 0.0395475 0.0395479 0.039548 0.0395481 0.0395484 0.0395484 0.0395486 0.0395488 0.0395488 0.0395491 0.0395493 0.0395492 0.0395494 0.0395495 0.0395496 0.0395495 0.0395495 0.0395498 0.0395498 0.03955 0.0395501 0.0395503 0.0395503 0.0395504 0.0395502 0.0395503 0.0395504 0.0395506 0.0395504 0.0395505 0.0395506 0.0395506 0.0395508 0.0395505 0.0395506 0.0395506 0.0395538 0.0395514 0.0395495 0.0395481 0.0395472 0.0395468 0.0395465 0.0395464 0.0395465 0.0395467 0.0395468 0.0395469 0.0395471 0.0395473 0.0395474 0.0395476 0.0395478 0.0395478 0.0395479 0.0395479 0.0395481 0.0395483 0.0395485 0.0395486 0.0395487 0.0395489 0.0395488 0.0395489 0.0395491 0.0395492 0.0395491 0.0395493 0.0395494 0.0395495 0.0395495 0.0395495 0.0395498 0.0395498 0.0395498 0.0395499 0.03955 0.0395498 0.0395498 0.03955 0.03955 0.0395501 0.0395503 0.0395502 0.0395504 0.0395502 0.0395502 0.0395504 0.0395503 0.0395505 0.0395506 0.0395504 0.0395506 0.0395506 0.0395506 0.0395506 0.0395508 0.0395506 0.0395506 0.0395505 0.0395618 0.0395583 0.0395557 0.0395539 0.0395524 0.0395512 0.0395507 0.0395503 0.0395502 0.0395502 0.03955 0.0395501 0.0395503 0.0395503 0.0395502 0.0395503 0.0395504 0.0395504 0.0395503 0.0395503 0.0395504 0.0395503 0.0395504 0.0395505 0.0395505 0.0395506 0.0395504 0.0395506 0.0395505 0.0395506 0.0395505 0.0395506 0.0395507 0.0395506 0.0395505 0.0395503 0.0395505 0.0395506 0.0395506 0.0395505 0.0395505 0.0395506 0.0395504 0.0395506 0.0395506 0.0395505 0.0395505 0.0395505 0.0395505 0.0395505 0.0395504 0.0395506 0.0395504 0.0395507 0.0395508 0.0395505 0.0395506 0.0395507 0.0395508 0.0395506 0.0395506 0.0395503 0.0395503 0.0395505 0.0395698 0.0395651 0.0395617 0.039559 0.039557 0.0395557 0.0395547 0.0395543 0.0395539 0.0395538 0.0395535 0.0395533 0.0395534 0.0395532 0.0395531 0.0395531 0.0395529 0.0395528 0.0395527 0.0395528 0.0395525 0.0395523 0.0395523 0.0395522 0.0395522 0.0395522 0.0395521 0.0395522 0.0395517 0.0395518 0.0395519 0.0395517 0.0395519 0.0395517 0.0395516 0.0395514 0.0395517 0.0395515 0.0395514 0.0395512 0.0395511 0.0395514 0.0395512 0.039551 0.0395507 0.0395511 0.0395508 0.0395509 0.0395508 0.0395508 0.0395507 0.0395507 0.0395504 0.0395506 0.0395507 0.0395508 0.0395506 0.0395508 0.0395511 0.0395507 0.0395507 0.0395504 0.0395505 0.0395505 0.0395779 0.0395717 0.0395671 0.0395637 0.0395613 0.0395599 0.0395589 0.0395582 0.0395575 0.0395572 0.039557 0.0395566 0.0395565 0.039556 0.0395559 0.0395558 0.0395556 0.0395552 0.0395552 0.0395551 0.0395547 0.0395544 0.0395542 0.0395541 0.0395541 0.0395539 0.0395537 0.0395537 0.0395533 0.0395531 0.0395531 0.0395532 0.0395528 0.0395527 0.0395527 0.0395523 0.0395526 0.0395522 0.0395521 0.0395519 0.0395518 0.0395518 0.0395519 0.0395516 0.0395514 0.0395514 0.039551 0.0395511 0.0395513 0.0395512 0.0395512 0.039551 0.0395508 0.039551 0.039551 0.0395508 0.0395506 0.0395508 0.0395508 0.0395507 0.0395508 0.0395506 0.0395507 0.0395506 0.0395852 0.0395781 0.0395722 0.0395683 0.0395655 0.0395638 0.0395627 0.0395617 0.0395611 0.0395607 0.0395603 0.0395598 0.0395595 0.0395591 0.0395587 0.0395584 0.0395582 0.0395579 0.0395575 0.0395573 0.039557 0.0395566 0.0395563 0.0395563 0.039556 0.0395556 0.0395552 0.0395551 0.0395549 0.0395549 0.0395544 0.0395543 0.039554 0.0395538 0.0395537 0.0395534 0.0395532 0.0395531 0.039553 0.0395527 0.0395528 0.0395525 0.0395522 0.0395522 0.0395521 0.0395518 0.0395516 0.0395516 0.0395515 0.0395514 0.0395514 0.0395515 0.0395512 0.0395512 0.0395511 0.0395511 0.0395509 0.0395509 0.0395511 0.0395508 0.0395508 0.0395505 0.0395505 0.0395506 0.0395933 0.0395831 0.0395772 0.0395722 0.0395696 0.0395679 0.0395663 0.0395654 0.0395647 0.0395641 0.0395634 0.0395627 0.0395624 0.0395619 0.0395616 0.0395611 0.0395606 0.0395601 0.0395599 0.0395595 0.0395591 0.0395587 0.0395584 0.039558 0.0395577 0.0395573 0.0395569 0.0395565 0.0395563 0.0395561 0.0395558 0.0395555 0.0395552 0.0395548 0.0395546 0.0395545 0.0395543 0.0395538 0.0395538 0.0395536 0.0395534 0.039553 0.0395527 0.0395527 0.0395524 0.0395524 0.0395519 0.039552 0.0395518 0.0395516 0.0395515 0.0395515 0.0395512 0.0395511 0.0395511 0.039551 0.039551 0.039551 0.0395511 0.0395507 0.0395508 0.0395506 0.0395506 0.0395506 0.039597 0.0395911 0.0395798 0.0395759 0.0395731 0.0395715 0.0395701 0.039569 0.0395681 0.0395673 0.0395668 0.0395661 0.0395655 0.0395648 0.0395644 0.0395639 0.0395632 0.0395627 0.0395623 0.0395618 0.0395614 0.0395608 0.0395604 0.0395599 0.0395594 0.0395591 0.0395586 0.0395583 0.039558 0.0395575 0.039557 0.0395568 0.0395563 0.0395561 0.0395559 0.0395554 0.0395552 0.0395546 0.0395545 0.0395543 0.0395541 0.0395536 0.0395533 0.0395532 0.0395529 0.039553 0.0395525 0.0395523 0.0395521 0.039552 0.0395518 0.0395517 0.0395514 0.0395513 0.0395513 0.0395512 0.0395511 0.0395508 0.0395509 0.0395508 0.0395508 0.0395507 0.0395507 0.0395506 0.0396321 0.0395891 0.0395828 0.0395795 0.0395772 0.0395755 0.039574 0.0395728 0.0395717 0.0395706 0.03957 0.0395693 0.0395685 0.0395678 0.0395671 0.0395665 0.0395658 0.0395653 0.0395646 0.039564 0.0395636 0.0395629 0.0395623 0.0395616 0.0395611 0.0395606 0.0395601 0.0395599 0.0395593 0.0395588 0.0395585 0.039558 0.0395575 0.0395571 0.0395567 0.0395564 0.0395562 0.0395556 0.0395553 0.039555 0.0395546 0.0395544 0.0395539 0.0395537 0.0395533 0.0395532 0.0395528 0.0395527 0.0395524 0.0395521 0.0395519 0.039552 0.0395516 0.0395515 0.0395515 0.0395512 0.0395511 0.0395512 0.0395512 0.0395509 0.0395509 0.0395506 0.0395505 0.0395508 0.0394371 0.0394887 0.0395046 0.0395124 0.0395165 0.039519 0.0395204 0.0395217 0.0395226 0.0395235 0.0395246 0.0395253 0.0395263 0.0395272 0.0395281 0.039529 0.0395299 0.0395308 0.0395315 0.0395324 0.0395333 0.0395342 0.039535 0.0395357 0.0395365 0.0395373 0.039538 0.039539 0.0395394 0.0395401 0.0395408 0.0395414 0.0395418 0.0395425 0.0395431 0.0395436 0.0395443 0.0395445 0.039545 0.0395456 0.039546 0.0395465 0.0395467 0.0395474 0.0395476 0.039548 0.0395482 0.0395485 0.0395489 0.0395494 0.0395495 0.0395498 0.0395499 0.0395501 0.0395504 0.0395507 0.0395506 0.0395507 0.039551 0.039551 0.039551 0.0395508 0.0395509 0.0395508 0.039491 0.0394885 0.039503 0.0395111 0.0395162 0.0395193 0.0395213 0.0395227 0.0395238 0.039525 0.039526 0.0395268 0.0395279 0.0395287 0.0395298 0.0395306 0.0395313 0.0395321 0.039533 0.0395338 0.0395346 0.0395353 0.039536 0.0395367 0.0395377 0.0395382 0.0395388 0.0395397 0.0395401 0.0395408 0.0395414 0.039542 0.0395423 0.039543 0.0395436 0.039544 0.0395448 0.0395451 0.0395456 0.0395458 0.0395464 0.0395468 0.0395471 0.0395475 0.0395478 0.0395483 0.0395483 0.0395487 0.0395491 0.0395491 0.0395495 0.0395495 0.0395498 0.0395501 0.0395503 0.0395506 0.0395506 0.0395505 0.039551 0.0395511 0.039551 0.0395509 0.039551 0.039551 0.0394988 0.0395038 0.0395077 0.0395141 0.0395183 0.0395212 0.0395235 0.039525 0.0395263 0.0395273 0.0395283 0.039529 0.0395299 0.0395308 0.0395316 0.0395323 0.039533 0.0395337 0.0395345 0.0395354 0.0395362 0.0395368 0.0395375 0.0395381 0.0395387 0.0395393 0.0395398 0.0395405 0.039541 0.0395416 0.0395423 0.0395428 0.0395432 0.0395437 0.0395443 0.0395445 0.0395452 0.0395456 0.039546 0.0395464 0.0395467 0.0395472 0.0395473 0.0395476 0.0395482 0.0395485 0.0395486 0.039549 0.0395492 0.0395492 0.0395497 0.0395498 0.0395501 0.0395501 0.0395504 0.0395505 0.0395506 0.0395505 0.039551 0.0395508 0.0395509 0.0395509 0.0395509 0.0395512 0.0395104 0.0395122 0.0395154 0.0395191 0.0395222 0.0395247 0.0395265 0.0395279 0.0395292 0.03953 0.039531 0.0395317 0.0395324 0.0395332 0.039534 0.0395346 0.0395353 0.0395359 0.0395366 0.0395372 0.0395377 0.0395385 0.0395391 0.0395397 0.0395402 0.0395408 0.0395413 0.0395419 0.0395423 0.0395429 0.0395433 0.0395438 0.039544 0.0395446 0.0395449 0.0395453 0.0395459 0.039546 0.0395465 0.0395467 0.039547 0.0395475 0.0395478 0.0395481 0.0395482 0.0395485 0.039549 0.0395492 0.0395493 0.0395494 0.0395497 0.0395499 0.03955 0.0395502 0.0395503 0.0395504 0.0395506 0.0395506 0.039551 0.0395507 0.0395508 0.0395507 0.0395509 0.0395512 0.0395199 0.0395212 0.0395226 0.0395252 0.039527 0.0395288 0.0395303 0.0395314 0.0395325 0.0395333 0.039534 0.0395347 0.0395353 0.0395359 0.0395365 0.0395371 0.0395377 0.0395381 0.0395386 0.0395393 0.0395398 0.0395403 0.0395409 0.0395413 0.0395419 0.0395423 0.0395426 0.0395433 0.0395434 0.0395439 0.0395443 0.0395446 0.039545 0.0395456 0.0395459 0.0395459 0.0395466 0.0395469 0.0395472 0.0395475 0.0395477 0.039548 0.0395483 0.0395484 0.0395486 0.0395488 0.0395491 0.0395494 0.0395495 0.0395496 0.0395499 0.0395501 0.0395501 0.0395502 0.0395505 0.0395506 0.0395506 0.0395507 0.0395509 0.0395508 0.0395509 0.0395507 0.0395508 0.039551 0.039529 0.0395294 0.0395298 0.0395312 0.0395322 0.0395334 0.0395344 0.0395352 0.039536 0.0395366 0.0395371 0.0395376 0.0395381 0.0395388 0.0395394 0.0395397 0.0395402 0.0395406 0.0395409 0.0395414 0.0395418 0.0395421 0.0395426 0.0395431 0.0395434 0.0395437 0.0395442 0.0395446 0.0395447 0.0395451 0.0395455 0.0395458 0.0395463 0.0395465 0.0395467 0.0395471 0.0395475 0.0395476 0.0395477 0.0395482 0.0395482 0.0395486 0.0395487 0.0395488 0.039549 0.0395494 0.0395493 0.0395495 0.0395497 0.03955 0.0395501 0.0395502 0.0395503 0.0395505 0.0395505 0.0395507 0.0395505 0.0395506 0.0395508 0.0395506 0.0395508 0.0395507 0.0395507 0.0395509 0.0395376 0.0395371 0.0395367 0.0395371 0.0395376 0.0395381 0.0395385 0.0395389 0.0395395 0.03954 0.0395403 0.0395407 0.0395411 0.0395417 0.039542 0.0395423 0.0395426 0.0395431 0.0395433 0.0395436 0.0395439 0.0395442 0.0395445 0.0395449 0.0395453 0.0395455 0.0395457 0.0395462 0.0395462 0.0395464 0.0395467 0.039547 0.0395473 0.0395474 0.0395476 0.039548 0.0395483 0.0395482 0.0395485 0.0395488 0.039549 0.039549 0.0395491 0.0395494 0.0395493 0.0395497 0.0395497 0.0395499 0.0395501 0.03955 0.0395502 0.0395502 0.0395502 0.0395505 0.0395505 0.0395507 0.0395505 0.0395506 0.0395508 0.0395508 0.039551 0.0395509 0.0395507 0.0395507 0.0395458 0.0395444 0.0395435 0.0395429 0.0395426 0.0395426 0.0395426 0.0395428 0.0395432 0.0395434 0.0395438 0.0395441 0.0395443 0.0395445 0.0395447 0.039545 0.0395454 0.0395456 0.0395456 0.039546 0.0395463 0.0395464 0.0395467 0.0395467 0.039547 0.0395474 0.0395473 0.0395477 0.0395476 0.0395479 0.0395482 0.0395482 0.0395485 0.0395484 0.0395486 0.0395489 0.0395491 0.0395491 0.0395491 0.0395495 0.0395498 0.0395496 0.0395495 0.0395498 0.0395498 0.03955 0.0395499 0.0395502 0.0395504 0.0395503 0.0395503 0.0395504 0.0395505 0.0395506 0.0395507 0.0395508 0.0395507 0.0395506 0.0395508 0.0395508 0.0395508 0.0395509 0.0395505 0.0395508 0.0395539 0.0395514 0.0395497 0.0395484 0.0395475 0.0395469 0.0395468 0.0395467 0.0395467 0.0395467 0.039547 0.0395472 0.0395473 0.0395473 0.0395476 0.0395478 0.0395479 0.039548 0.0395481 0.0395484 0.0395484 0.0395485 0.0395486 0.0395486 0.0395487 0.0395489 0.039549 0.0395493 0.0395491 0.0395493 0.0395494 0.0395496 0.0395496 0.0395498 0.0395497 0.0395497 0.0395498 0.0395499 0.03955 0.0395499 0.0395501 0.0395501 0.0395502 0.0395503 0.0395502 0.0395503 0.0395502 0.0395504 0.0395505 0.0395505 0.0395504 0.0395503 0.0395505 0.0395506 0.0395507 0.0395509 0.0395508 0.0395507 0.0395508 0.0395507 0.0395508 0.0395506 0.0395505 0.0395506 0.0395621 0.0395584 0.0395556 0.0395535 0.0395522 0.0395514 0.039551 0.0395506 0.0395504 0.0395504 0.0395503 0.0395503 0.0395504 0.0395504 0.0395504 0.0395504 0.0395503 0.0395504 0.0395506 0.0395506 0.0395505 0.0395505 0.0395505 0.0395505 0.0395505 0.0395506 0.0395505 0.0395508 0.0395507 0.0395507 0.0395506 0.0395507 0.0395507 0.0395508 0.0395507 0.0395506 0.0395508 0.0395507 0.0395508 0.0395508 0.0395508 0.0395508 0.0395506 0.0395507 0.0395505 0.0395508 0.0395508 0.0395508 0.0395507 0.0395507 0.0395508 0.0395507 0.0395505 0.0395507 0.0395509 0.0395508 0.0395507 0.0395508 0.0395507 0.0395507 0.0395508 0.0395506 0.0395505 0.0395506 0.0395699 0.0395648 0.0395613 0.0395585 0.0395568 0.0395557 0.039555 0.0395544 0.0395542 0.0395538 0.0395537 0.0395536 0.0395535 0.0395534 0.0395532 0.039553 0.0395531 0.0395528 0.0395527 0.0395528 0.0395526 0.0395525 0.0395527 0.0395524 0.0395524 0.0395523 0.0395521 0.0395521 0.0395522 0.0395521 0.0395518 0.039552 0.0395518 0.0395516 0.0395518 0.0395516 0.0395517 0.0395515 0.0395515 0.0395515 0.0395515 0.0395514 0.0395512 0.0395513 0.0395511 0.0395512 0.039551 0.0395511 0.039551 0.0395509 0.039551 0.039551 0.0395509 0.0395509 0.039551 0.0395508 0.0395508 0.0395508 0.0395508 0.0395508 0.0395506 0.0395505 0.0395505 0.0395506 0.0395776 0.0395709 0.0395666 0.039563 0.039561 0.0395596 0.0395588 0.0395582 0.0395579 0.0395573 0.039557 0.0395567 0.0395566 0.0395562 0.0395561 0.0395559 0.0395556 0.0395554 0.0395552 0.039555 0.0395549 0.0395548 0.0395547 0.0395545 0.0395542 0.0395541 0.0395539 0.0395539 0.0395537 0.0395535 0.0395533 0.0395532 0.0395531 0.0395525 0.0395527 0.0395527 0.0395526 0.0395522 0.0395522 0.0395521 0.0395523 0.0395519 0.0395518 0.0395518 0.0395516 0.0395517 0.0395515 0.0395515 0.0395513 0.0395512 0.0395511 0.0395513 0.0395512 0.039551 0.0395509 0.039551 0.0395509 0.0395508 0.0395511 0.0395508 0.0395506 0.0395507 0.0395506 0.0395506 0.0395851 0.039577 0.0395715 0.0395675 0.0395649 0.0395634 0.0395625 0.0395617 0.0395615 0.0395609 0.0395603 0.0395598 0.0395595 0.0395591 0.0395589 0.0395587 0.0395583 0.039558 0.0395575 0.0395572 0.0395571 0.0395569 0.0395565 0.0395564 0.0395561 0.0395559 0.0395554 0.0395554 0.0395551 0.0395548 0.0395546 0.0395545 0.0395544 0.0395541 0.0395538 0.0395536 0.0395537 0.0395532 0.039553 0.0395531 0.0395528 0.0395527 0.0395523 0.0395524 0.0395521 0.039552 0.0395518 0.0395519 0.0395518 0.0395516 0.0395514 0.0395515 0.0395513 0.0395513 0.0395512 0.0395514 0.039551 0.0395509 0.0395511 0.0395509 0.0395509 0.0395507 0.0395505 0.0395506 0.0395935 0.039582 0.0395763 0.0395713 0.0395685 0.0395669 0.0395661 0.0395651 0.0395646 0.0395641 0.0395635 0.0395632 0.0395625 0.039562 0.0395617 0.0395612 0.039561 0.0395604 0.0395598 0.0395595 0.0395592 0.0395587 0.0395584 0.0395581 0.0395581 0.0395574 0.039557 0.0395569 0.0395564 0.0395562 0.0395558 0.0395555 0.0395555 0.0395551 0.0395549 0.0395545 0.0395544 0.039554 0.0395539 0.0395533 0.0395534 0.0395532 0.0395529 0.0395528 0.0395526 0.0395524 0.0395521 0.0395522 0.0395522 0.0395519 0.0395516 0.0395516 0.0395514 0.0395514 0.0395513 0.0395512 0.0395511 0.0395511 0.0395509 0.0395508 0.0395509 0.0395507 0.0395507 0.0395505 0.0395977 0.03959 0.0395793 0.0395745 0.0395721 0.0395705 0.0395695 0.0395687 0.039568 0.0395674 0.0395666 0.0395661 0.0395656 0.0395652 0.0395645 0.0395639 0.0395635 0.0395629 0.0395624 0.039562 0.0395614 0.0395609 0.0395605 0.0395601 0.0395598 0.0395593 0.0395588 0.0395585 0.0395578 0.0395577 0.0395573 0.0395569 0.0395566 0.0395562 0.0395558 0.0395555 0.0395552 0.0395548 0.0395547 0.0395544 0.0395541 0.0395538 0.0395536 0.0395535 0.039553 0.0395528 0.0395525 0.0395524 0.0395524 0.0395521 0.0395521 0.039552 0.0395516 0.0395515 0.0395515 0.0395515 0.0395514 0.0395511 0.0395512 0.0395509 0.0395509 0.0395507 0.0395509 0.0395507 0.0396304 0.0395889 0.0395826 0.0395786 0.0395762 0.0395746 0.0395734 0.0395723 0.0395716 0.0395709 0.0395701 0.0395692 0.0395689 0.0395682 0.0395674 0.0395667 0.039566 0.0395655 0.0395649 0.0395643 0.0395638 0.0395631 0.0395627 0.0395623 0.0395617 0.0395612 0.0395605 0.0395601 0.0395595 0.0395591 0.0395586 0.0395582 0.0395578 0.0395573 0.0395568 0.0395565 0.0395562 0.0395556 0.0395556 0.0395552 0.0395548 0.0395544 0.0395539 0.0395539 0.0395535 0.0395535 0.039553 0.0395529 0.0395528 0.0395525 0.0395524 0.0395521 0.0395518 0.0395517 0.0395516 0.0395516 0.0395513 0.0395512 0.0395512 0.0395511 0.039551 0.0395507 0.0395508 0.0395511 0.0394483 0.0394897 0.0395087 0.0395166 0.0395201 0.0395218 0.0395228 0.0395233 0.0395241 0.0395248 0.0395255 0.0395264 0.0395272 0.039528 0.0395289 0.0395298 0.0395305 0.0395312 0.0395322 0.039533 0.0395337 0.0395346 0.0395354 0.0395361 0.0395369 0.0395377 0.0395384 0.0395391 0.0395398 0.0395403 0.0395408 0.0395416 0.0395423 0.0395429 0.0395434 0.0395438 0.0395442 0.0395446 0.0395452 0.0395458 0.0395462 0.0395464 0.0395468 0.0395473 0.0395474 0.0395482 0.0395483 0.0395487 0.039549 0.0395492 0.0395495 0.0395498 0.0395498 0.0395499 0.0395505 0.0395505 0.0395504 0.0395507 0.0395508 0.0395508 0.0395509 0.0395507 0.0395509 0.039551 0.0394959 0.0394903 0.0395056 0.0395134 0.0395181 0.0395208 0.0395224 0.0395236 0.0395245 0.0395255 0.0395263 0.0395271 0.0395281 0.0395289 0.0395297 0.0395304 0.0395312 0.0395321 0.0395329 0.0395339 0.0395347 0.0395353 0.0395362 0.039537 0.0395376 0.0395382 0.0395388 0.0395396 0.0395402 0.0395409 0.0395414 0.0395418 0.0395425 0.039543 0.0395436 0.0395442 0.0395445 0.0395448 0.0395454 0.039546 0.0395464 0.0395466 0.039547 0.0395475 0.0395478 0.0395483 0.0395483 0.0395488 0.0395491 0.0395493 0.0395495 0.0395497 0.0395497 0.03955 0.0395502 0.0395504 0.0395505 0.0395507 0.0395508 0.0395509 0.0395509 0.0395508 0.039551 0.0395509 0.039502 0.0395026 0.0395103 0.0395159 0.0395202 0.0395228 0.0395245 0.0395256 0.0395264 0.0395274 0.0395284 0.039529 0.0395299 0.0395307 0.0395315 0.0395322 0.039533 0.0395337 0.0395345 0.0395352 0.039536 0.0395367 0.0395372 0.0395379 0.0395386 0.0395392 0.0395398 0.0395404 0.0395409 0.0395416 0.0395423 0.0395426 0.039543 0.0395437 0.039544 0.0395445 0.0395451 0.0395454 0.0395458 0.0395464 0.0395467 0.0395469 0.0395475 0.0395479 0.039548 0.0395483 0.0395485 0.0395488 0.0395491 0.0395494 0.0395496 0.0395497 0.0395497 0.03955 0.0395503 0.0395505 0.0395505 0.0395506 0.0395508 0.0395507 0.0395509 0.0395508 0.039551 0.039551 0.0395129 0.0395111 0.0395176 0.039521 0.0395239 0.0395261 0.0395276 0.0395289 0.0395296 0.0395304 0.0395312 0.0395318 0.0395326 0.0395333 0.0395338 0.0395345 0.0395351 0.0395358 0.0395364 0.0395369 0.0395376 0.0395383 0.0395389 0.0395395 0.0395401 0.0395408 0.0395411 0.0395417 0.0395421 0.0395427 0.0395432 0.0395437 0.0395441 0.0395444 0.0395449 0.0395453 0.0395459 0.0395462 0.0395464 0.0395467 0.0395473 0.0395475 0.0395476 0.0395482 0.0395483 0.0395487 0.0395488 0.039549 0.0395494 0.0395496 0.0395497 0.0395496 0.0395498 0.0395501 0.0395502 0.0395505 0.0395505 0.0395506 0.0395508 0.0395508 0.0395508 0.0395509 0.039551 0.0395511 0.0395217 0.0395203 0.0395246 0.0395268 0.0395288 0.03953 0.0395313 0.0395324 0.039533 0.0395336 0.0395342 0.0395348 0.0395356 0.0395361 0.0395365 0.039537 0.0395378 0.0395381 0.0395386 0.0395393 0.0395398 0.0395403 0.0395408 0.0395412 0.0395418 0.0395423 0.0395425 0.0395432 0.0395435 0.0395438 0.0395443 0.0395447 0.0395451 0.0395454 0.0395459 0.0395462 0.0395466 0.0395467 0.0395472 0.0395473 0.0395476 0.039548 0.0395482 0.0395484 0.0395485 0.0395489 0.0395492 0.0395492 0.0395496 0.0395498 0.0395499 0.0395501 0.0395499 0.0395501 0.0395504 0.0395505 0.0395506 0.0395505 0.0395508 0.0395507 0.0395508 0.039551 0.0395512 0.039551 0.0395301 0.0395286 0.0395314 0.0395326 0.0395336 0.0395343 0.0395351 0.0395359 0.0395364 0.039537 0.0395376 0.0395379 0.0395385 0.0395388 0.0395393 0.0395398 0.0395401 0.0395406 0.0395411 0.0395415 0.0395419 0.0395422 0.0395426 0.039543 0.0395434 0.0395437 0.039544 0.0395445 0.0395448 0.0395452 0.0395455 0.0395458 0.0395461 0.0395465 0.0395468 0.039547 0.0395474 0.0395475 0.0395478 0.0395481 0.0395481 0.0395485 0.0395487 0.0395488 0.0395489 0.0395493 0.0395494 0.0395496 0.0395498 0.0395498 0.0395501 0.0395503 0.0395499 0.0395501 0.0395505 0.0395505 0.0395507 0.0395507 0.0395508 0.0395508 0.0395507 0.0395508 0.0395508 0.0395509 0.0395383 0.0395367 0.0395379 0.039538 0.0395385 0.0395387 0.0395392 0.0395395 0.0395399 0.0395403 0.0395408 0.039541 0.0395413 0.0395417 0.0395421 0.0395426 0.0395428 0.0395429 0.0395433 0.0395435 0.039544 0.0395443 0.0395446 0.0395449 0.0395452 0.0395456 0.0395458 0.0395462 0.0395462 0.0395465 0.0395467 0.039547 0.0395473 0.0395474 0.0395477 0.0395478 0.0395481 0.0395482 0.0395486 0.0395486 0.0395487 0.039549 0.0395493 0.0395494 0.0395495 0.0395496 0.0395496 0.0395496 0.0395501 0.03955 0.03955 0.0395504 0.0395502 0.0395502 0.0395505 0.0395505 0.0395507 0.0395508 0.0395507 0.0395507 0.0395507 0.0395507 0.0395506 0.0395508 0.0395462 0.0395443 0.0395439 0.0395433 0.0395432 0.0395433 0.0395434 0.0395435 0.0395436 0.0395437 0.0395442 0.0395442 0.0395444 0.0395447 0.0395448 0.0395451 0.0395454 0.0395453 0.0395456 0.0395459 0.0395461 0.0395464 0.0395465 0.0395467 0.039547 0.0395473 0.0395473 0.0395476 0.0395476 0.0395479 0.0395481 0.0395483 0.0395485 0.0395486 0.0395488 0.0395487 0.0395488 0.039549 0.0395493 0.0395494 0.0395493 0.0395495 0.0395497 0.0395497 0.0395499 0.0395501 0.0395501 0.03955 0.0395503 0.0395502 0.0395503 0.0395506 0.0395505 0.0395505 0.0395505 0.0395505 0.0395507 0.0395507 0.0395508 0.0395504 0.0395507 0.0395506 0.0395505 0.0395508 0.0395537 0.0395516 0.0395496 0.0395483 0.0395477 0.0395472 0.039547 0.0395471 0.0395471 0.0395473 0.0395473 0.0395475 0.0395475 0.0395476 0.0395478 0.0395478 0.0395479 0.039548 0.0395482 0.0395481 0.0395485 0.0395486 0.0395486 0.0395486 0.0395489 0.0395489 0.0395489 0.0395491 0.0395491 0.0395492 0.0395495 0.0395497 0.0395497 0.0395495 0.0395497 0.0395497 0.0395499 0.0395498 0.0395499 0.03955 0.03955 0.0395501 0.03955 0.0395503 0.0395505 0.0395505 0.0395503 0.0395506 0.0395504 0.0395506 0.0395506 0.0395506 0.0395506 0.0395505 0.0395507 0.0395509 0.0395506 0.0395507 0.0395508 0.0395509 0.0395508 0.0395507 0.0395506 0.0395506 0.0395611 0.0395586 0.039555 0.0395532 0.039552 0.0395513 0.0395509 0.0395507 0.0395505 0.0395506 0.0395507 0.0395504 0.0395505 0.0395503 0.0395505 0.0395506 0.0395506 0.0395506 0.0395506 0.0395504 0.0395507 0.0395508 0.0395507 0.0395507 0.0395506 0.0395508 0.0395507 0.0395507 0.0395506 0.0395507 0.0395508 0.0395507 0.0395508 0.0395506 0.0395508 0.0395507 0.0395509 0.0395508 0.0395509 0.0395508 0.0395508 0.0395506 0.0395505 0.0395509 0.0395508 0.0395508 0.0395508 0.0395507 0.0395507 0.0395509 0.0395508 0.0395508 0.0395508 0.0395507 0.0395509 0.0395512 0.0395507 0.0395509 0.0395508 0.0395509 0.0395509 0.0395507 0.0395507 0.0395507 0.0395685 0.0395656 0.0395602 0.0395579 0.0395564 0.0395552 0.0395546 0.0395544 0.0395541 0.0395538 0.0395538 0.0395537 0.0395536 0.0395534 0.0395533 0.0395535 0.0395533 0.039553 0.039553 0.0395529 0.0395528 0.0395528 0.0395528 0.0395527 0.0395523 0.0395525 0.0395524 0.0395522 0.039552 0.0395521 0.0395521 0.0395519 0.039552 0.0395518 0.0395519 0.0395518 0.0395517 0.0395515 0.0395516 0.0395516 0.0395514 0.0395513 0.0395514 0.0395514 0.0395512 0.0395514 0.0395513 0.0395511 0.0395512 0.039551 0.039551 0.0395509 0.0395509 0.0395511 0.0395511 0.039551 0.0395508 0.0395509 0.0395508 0.0395509 0.0395511 0.0395507 0.0395504 0.0395505 0.0395754 0.0395719 0.0395651 0.0395621 0.0395602 0.039559 0.0395583 0.0395578 0.0395575 0.0395573 0.0395571 0.0395568 0.0395567 0.0395563 0.0395562 0.0395561 0.0395558 0.0395555 0.0395555 0.0395553 0.039555 0.0395548 0.0395547 0.0395546 0.0395543 0.0395541 0.0395538 0.039554 0.0395537 0.0395535 0.0395534 0.0395533 0.0395532 0.0395531 0.039553 0.0395525 0.0395525 0.0395524 0.0395523 0.0395522 0.0395521 0.039552 0.0395518 0.0395516 0.0395518 0.0395518 0.0395516 0.0395516 0.0395515 0.0395512 0.0395512 0.0395512 0.039551 0.039551 0.0395512 0.0395511 0.0395508 0.0395509 0.0395512 0.0395508 0.0395509 0.0395505 0.0395506 0.0395506 0.0395827 0.0395784 0.0395698 0.0395661 0.039564 0.0395628 0.0395619 0.0395615 0.0395609 0.0395606 0.0395604 0.0395601 0.0395599 0.0395594 0.0395589 0.0395586 0.0395584 0.0395581 0.0395579 0.0395577 0.0395573 0.039557 0.0395568 0.0395564 0.0395561 0.0395559 0.0395556 0.0395554 0.0395551 0.0395549 0.0395547 0.0395545 0.0395543 0.0395541 0.0395538 0.0395537 0.0395537 0.0395532 0.0395532 0.0395529 0.0395526 0.0395525 0.0395524 0.0395523 0.0395523 0.0395523 0.0395521 0.039552 0.0395517 0.0395517 0.0395517 0.0395516 0.0395514 0.0395513 0.0395512 0.0395513 0.0395509 0.0395509 0.0395513 0.039551 0.0395509 0.0395507 0.0395507 0.0395506 0.0395903 0.0395838 0.0395742 0.0395698 0.0395674 0.0395662 0.0395654 0.0395647 0.0395643 0.0395641 0.0395636 0.039563 0.0395627 0.0395623 0.0395619 0.0395615 0.0395609 0.0395606 0.0395602 0.0395598 0.0395593 0.039559 0.0395588 0.0395582 0.039558 0.0395576 0.0395572 0.039557 0.0395565 0.0395562 0.0395559 0.0395557 0.0395554 0.039555 0.0395548 0.0395547 0.0395545 0.0395541 0.039554 0.0395537 0.0395534 0.0395533 0.0395531 0.039553 0.0395527 0.0395525 0.0395523 0.0395521 0.0395521 0.0395519 0.0395518 0.0395518 0.0395516 0.0395514 0.0395514 0.0395513 0.039551 0.0395511 0.0395511 0.0395509 0.039551 0.0395507 0.0395507 0.0395508 0.0395938 0.0395909 0.0395777 0.039573 0.0395705 0.0395693 0.0395688 0.0395683 0.0395678 0.0395673 0.0395669 0.0395663 0.0395657 0.039565 0.0395646 0.0395643 0.0395635 0.0395631 0.0395626 0.039562 0.0395617 0.0395611 0.0395606 0.0395602 0.0395598 0.0395594 0.0395589 0.0395585 0.0395579 0.0395576 0.0395574 0.0395571 0.0395566 0.039556 0.0395559 0.0395554 0.0395553 0.0395551 0.0395546 0.0395543 0.039554 0.039554 0.0395537 0.0395533 0.0395531 0.0395532 0.0395527 0.0395526 0.0395525 0.0395523 0.0395521 0.039552 0.0395516 0.0395515 0.0395517 0.0395515 0.0395511 0.0395512 0.0395513 0.0395509 0.0395512 0.039551 0.0395508 0.0395508 0.0396244 0.0395925 0.0395811 0.0395761 0.039574 0.039573 0.0395722 0.0395717 0.0395712 0.0395707 0.0395701 0.0395694 0.0395688 0.039568 0.0395676 0.0395671 0.0395664 0.0395656 0.0395651 0.0395644 0.0395639 0.0395634 0.0395627 0.0395622 0.0395618 0.0395612 0.0395606 0.0395602 0.0395598 0.0395592 0.0395588 0.0395584 0.0395578 0.0395575 0.0395571 0.0395565 0.0395563 0.0395559 0.0395556 0.0395552 0.0395548 0.0395546 0.0395542 0.039554 0.0395536 0.0395534 0.0395529 0.039553 0.0395527 0.0395525 0.0395522 0.039552 0.0395518 0.0395519 0.0395519 0.0395516 0.0395513 0.0395513 0.0395513 0.0395511 0.0395513 0.0395512 0.0395509 0.0395509 0.0394211 0.0394998 0.0395169 0.0395217 0.039523 0.0395234 0.0395239 0.0395244 0.039525 0.0395256 0.0395265 0.0395272 0.0395281 0.0395288 0.0395296 0.0395306 0.0395314 0.039532 0.0395329 0.0395337 0.0395345 0.0395354 0.039536 0.0395367 0.0395374 0.0395381 0.0395388 0.0395394 0.0395398 0.0395406 0.0395413 0.0395419 0.0395424 0.0395429 0.0395434 0.0395438 0.0395444 0.0395448 0.0395454 0.0395458 0.0395461 0.0395467 0.039547 0.0395472 0.0395476 0.0395481 0.0395483 0.0395486 0.0395486 0.0395492 0.0395492 0.0395496 0.0395497 0.0395499 0.03955 0.0395503 0.0395504 0.0395505 0.0395508 0.0395505 0.0395508 0.0395508 0.0395508 0.0395508 0.03946 0.039492 0.0395106 0.0395185 0.0395216 0.0395228 0.0395236 0.0395241 0.0395246 0.0395252 0.039526 0.0395267 0.0395275 0.0395282 0.039529 0.03953 0.0395309 0.0395316 0.0395325 0.0395332 0.039534 0.0395348 0.0395357 0.0395363 0.0395371 0.0395378 0.0395385 0.0395394 0.0395396 0.0395404 0.0395411 0.0395417 0.0395424 0.0395428 0.0395432 0.0395438 0.0395444 0.0395448 0.0395454 0.0395456 0.0395461 0.0395466 0.0395469 0.0395472 0.0395476 0.0395481 0.0395482 0.0395488 0.039549 0.0395492 0.0395495 0.0395498 0.0395498 0.03955 0.0395503 0.0395504 0.0395506 0.0395506 0.0395508 0.0395508 0.0395508 0.0395508 0.0395509 0.039551 0.039475 0.039506 0.0395142 0.0395202 0.0395236 0.0395252 0.0395262 0.0395267 0.0395273 0.0395278 0.0395284 0.0395293 0.0395298 0.0395305 0.0395311 0.0395318 0.0395326 0.0395335 0.0395341 0.0395349 0.0395355 0.0395362 0.039537 0.0395377 0.0395384 0.039539 0.0395397 0.0395404 0.0395407 0.0395413 0.0395419 0.0395425 0.039543 0.0395434 0.0395439 0.0395444 0.039545 0.0395453 0.0395457 0.0395462 0.0395465 0.0395469 0.0395472 0.0395475 0.0395479 0.0395483 0.0395484 0.039549 0.0395492 0.0395492 0.0395495 0.0395499 0.0395498 0.0395498 0.0395502 0.0395504 0.0395504 0.0395506 0.0395508 0.0395507 0.0395509 0.039551 0.0395509 0.039551 0.039492 0.0395158 0.0395208 0.0395245 0.0395268 0.0395284 0.0395293 0.0395298 0.0395303 0.039531 0.0395315 0.039532 0.0395326 0.0395331 0.0395337 0.0395344 0.039535 0.0395357 0.0395363 0.039537 0.0395376 0.0395382 0.0395387 0.0395393 0.0395399 0.0395405 0.039541 0.0395416 0.039542 0.0395426 0.0395431 0.0395435 0.0395441 0.0395444 0.0395449 0.0395452 0.0395456 0.0395459 0.0395464 0.0395467 0.0395471 0.0395474 0.0395476 0.039548 0.0395481 0.0395486 0.0395486 0.039549 0.0395494 0.0395494 0.0395497 0.03955 0.0395499 0.0395499 0.0395502 0.0395504 0.0395504 0.0395505 0.0395507 0.0395507 0.0395508 0.0395507 0.0395508 0.039551 0.0395061 0.0395249 0.0395274 0.0395294 0.0395308 0.0395319 0.0395326 0.0395332 0.0395337 0.0395342 0.0395346 0.039535 0.0395356 0.0395359 0.0395365 0.0395371 0.0395375 0.039538 0.0395386 0.0395392 0.0395397 0.0395402 0.0395406 0.0395411 0.0395416 0.039542 0.0395425 0.0395431 0.0395433 0.0395439 0.0395442 0.0395446 0.0395451 0.0395454 0.0395458 0.0395459 0.0395464 0.0395467 0.0395471 0.0395474 0.0395475 0.0395479 0.0395481 0.0395484 0.0395485 0.0395489 0.039549 0.0395491 0.0395495 0.0395495 0.0395497 0.0395501 0.0395499 0.0395501 0.0395503 0.0395505 0.0395503 0.0395505 0.0395508 0.0395507 0.0395507 0.0395507 0.0395508 0.0395511 0.0395192 0.0395323 0.0395335 0.0395344 0.039535 0.0395356 0.0395363 0.0395369 0.0395371 0.0395375 0.0395378 0.0395382 0.0395385 0.0395389 0.0395394 0.0395397 0.0395402 0.0395406 0.0395409 0.0395415 0.0395419 0.0395423 0.0395425 0.0395431 0.0395433 0.0395436 0.039544 0.0395445 0.0395447 0.0395451 0.0395456 0.0395459 0.0395462 0.0395465 0.0395467 0.0395468 0.0395474 0.0395474 0.0395476 0.0395479 0.0395481 0.0395484 0.0395485 0.0395486 0.039549 0.0395492 0.0395493 0.0395495 0.0395496 0.0395497 0.0395501 0.0395501 0.03955 0.0395504 0.0395503 0.0395504 0.0395504 0.0395504 0.0395507 0.0395506 0.0395507 0.0395506 0.0395508 0.039551 0.0395318 0.0395391 0.0395393 0.0395394 0.0395394 0.0395395 0.03954 0.0395402 0.0395406 0.0395409 0.0395409 0.0395413 0.0395417 0.0395419 0.0395421 0.0395424 0.0395428 0.0395431 0.0395434 0.0395438 0.0395441 0.0395444 0.0395447 0.0395448 0.0395452 0.0395455 0.0395456 0.0395461 0.0395462 0.0395466 0.0395468 0.0395471 0.0395472 0.0395474 0.0395478 0.0395478 0.0395483 0.0395482 0.0395484 0.0395486 0.0395489 0.039549 0.0395491 0.0395493 0.0395494 0.0395497 0.0395496 0.03955 0.03955 0.03955 0.0395502 0.0395502 0.0395502 0.0395503 0.0395502 0.0395503 0.0395504 0.0395505 0.0395508 0.0395507 0.0395508 0.0395507 0.0395509 0.0395509 0.0395437 0.0395452 0.0395445 0.039544 0.0395437 0.0395437 0.0395436 0.0395436 0.039544 0.0395441 0.0395443 0.0395445 0.0395447 0.0395448 0.0395449 0.0395451 0.0395455 0.0395456 0.039546 0.0395461 0.0395462 0.0395465 0.0395467 0.0395468 0.0395471 0.0395474 0.0395473 0.0395476 0.0395476 0.0395479 0.039548 0.0395482 0.0395484 0.0395486 0.0395486 0.0395488 0.0395491 0.039549 0.0395489 0.0395492 0.0395496 0.0395495 0.0395495 0.0395498 0.0395497 0.03955 0.0395499 0.0395502 0.0395503 0.0395504 0.0395501 0.0395504 0.0395503 0.0395504 0.0395505 0.0395504 0.0395504 0.0395506 0.0395508 0.0395507 0.0395507 0.0395507 0.0395508 0.0395508 0.0395553 0.0395511 0.0395494 0.0395485 0.0395479 0.0395474 0.0395475 0.0395474 0.0395474 0.0395474 0.0395475 0.0395477 0.0395478 0.0395477 0.0395478 0.0395479 0.039548 0.0395481 0.0395483 0.0395484 0.0395487 0.0395486 0.0395486 0.0395489 0.039549 0.0395488 0.039549 0.0395492 0.0395492 0.0395493 0.0395493 0.0395495 0.0395495 0.0395496 0.0395496 0.0395496 0.0395498 0.0395499 0.0395499 0.03955 0.0395501 0.0395501 0.0395501 0.0395503 0.0395501 0.0395504 0.0395503 0.0395504 0.0395504 0.0395504 0.0395504 0.0395506 0.0395505 0.0395506 0.0395507 0.0395507 0.0395506 0.0395506 0.0395508 0.0395507 0.0395508 0.0395506 0.0395506 0.0395507 0.0395668 0.0395566 0.0395543 0.0395527 0.0395518 0.0395512 0.0395512 0.0395509 0.0395508 0.0395509 0.0395507 0.0395507 0.0395507 0.0395507 0.0395508 0.0395507 0.0395507 0.0395507 0.0395506 0.0395507 0.0395508 0.0395507 0.0395508 0.0395507 0.0395507 0.0395507 0.0395506 0.0395507 0.0395506 0.0395508 0.0395508 0.0395509 0.0395509 0.0395507 0.0395506 0.0395506 0.0395509 0.0395507 0.0395506 0.0395508 0.0395506 0.0395507 0.0395506 0.0395507 0.0395506 0.0395507 0.0395507 0.0395508 0.0395508 0.0395507 0.0395508 0.0395509 0.0395506 0.0395507 0.0395509 0.0395508 0.0395508 0.0395507 0.0395509 0.0395508 0.0395506 0.0395506 0.0395505 0.0395505 0.0395784 0.0395623 0.0395588 0.0395568 0.0395556 0.039555 0.0395547 0.0395543 0.0395541 0.0395542 0.039554 0.0395539 0.0395538 0.0395537 0.0395536 0.0395534 0.0395534 0.0395533 0.0395531 0.039553 0.0395529 0.0395529 0.0395528 0.0395526 0.0395526 0.0395525 0.0395521 0.0395523 0.0395521 0.039552 0.039552 0.039552 0.039552 0.0395518 0.0395517 0.0395515 0.0395516 0.0395516 0.0395514 0.0395514 0.0395514 0.0395513 0.0395512 0.0395514 0.0395513 0.0395512 0.0395512 0.0395512 0.0395511 0.0395512 0.0395511 0.0395511 0.0395509 0.0395509 0.039551 0.039551 0.0395509 0.0395509 0.0395508 0.0395507 0.0395508 0.0395506 0.0395505 0.0395506 0.0395899 0.039568 0.0395631 0.0395606 0.0395593 0.0395586 0.0395582 0.0395579 0.0395577 0.0395574 0.0395571 0.039557 0.0395569 0.0395566 0.0395565 0.0395562 0.0395559 0.0395558 0.0395556 0.0395554 0.0395552 0.0395551 0.0395548 0.0395547 0.0395545 0.0395541 0.0395539 0.0395539 0.0395537 0.0395535 0.0395533 0.0395533 0.0395532 0.0395529 0.0395529 0.0395526 0.0395526 0.0395524 0.0395523 0.0395522 0.0395522 0.0395521 0.0395519 0.039552 0.0395517 0.0395517 0.0395516 0.0395514 0.0395514 0.0395514 0.0395513 0.0395513 0.0395511 0.039551 0.0395512 0.0395511 0.0395509 0.0395509 0.039551 0.0395507 0.0395508 0.0395506 0.0395505 0.0395504 0.0396013 0.0395734 0.0395674 0.0395644 0.039563 0.0395621 0.0395617 0.0395614 0.0395611 0.0395608 0.0395605 0.0395603 0.03956 0.0395595 0.0395592 0.0395589 0.0395587 0.0395584 0.0395581 0.0395577 0.0395575 0.0395571 0.0395569 0.0395565 0.0395563 0.039556 0.0395556 0.0395556 0.0395552 0.0395552 0.0395549 0.0395547 0.0395544 0.0395542 0.039554 0.0395536 0.0395537 0.0395532 0.0395531 0.0395531 0.0395528 0.0395529 0.0395527 0.0395524 0.0395523 0.0395522 0.0395519 0.0395519 0.0395517 0.0395517 0.0395515 0.0395515 0.0395513 0.0395512 0.0395514 0.0395512 0.039551 0.0395508 0.0395511 0.0395509 0.0395509 0.0395506 0.0395506 0.0395507 0.0396136 0.0395788 0.0395714 0.0395678 0.0395663 0.0395656 0.0395653 0.0395649 0.0395645 0.0395641 0.0395639 0.0395634 0.039563 0.0395625 0.0395621 0.0395617 0.0395613 0.0395607 0.0395604 0.03956 0.0395595 0.0395591 0.039559 0.0395584 0.0395581 0.0395577 0.0395573 0.0395572 0.0395567 0.0395566 0.0395563 0.0395557 0.0395555 0.0395551 0.0395549 0.0395546 0.0395545 0.0395542 0.0395538 0.0395536 0.0395535 0.0395535 0.039553 0.0395528 0.0395527 0.0395527 0.0395524 0.0395522 0.0395521 0.0395519 0.0395518 0.0395517 0.0395514 0.0395514 0.0395513 0.0395513 0.0395511 0.039551 0.0395511 0.0395509 0.0395509 0.0395506 0.0395506 0.0395506 0.0396236 0.0395866 0.0395745 0.0395706 0.0395694 0.0395692 0.0395688 0.0395684 0.039568 0.0395675 0.0395671 0.0395665 0.0395659 0.0395655 0.0395649 0.0395645 0.0395639 0.0395633 0.0395629 0.0395624 0.0395618 0.0395613 0.0395609 0.0395604 0.03956 0.0395595 0.0395589 0.0395587 0.0395582 0.0395579 0.0395575 0.0395571 0.0395565 0.0395564 0.0395558 0.0395555 0.0395555 0.039555 0.0395545 0.0395545 0.0395544 0.039554 0.0395537 0.0395534 0.0395531 0.039553 0.0395526 0.0395526 0.0395525 0.0395522 0.0395521 0.0395519 0.0395516 0.0395515 0.0395514 0.0395514 0.0395512 0.0395511 0.0395511 0.039551 0.0395509 0.0395506 0.0395507 0.0395508 0.039653 0.0395868 0.0395756 0.0395733 0.0395729 0.0395726 0.0395723 0.0395717 0.0395713 0.0395706 0.03957 0.0395693 0.0395688 0.0395683 0.0395675 0.0395669 0.0395662 0.0395656 0.039565 0.0395644 0.039564 0.0395634 0.0395628 0.0395622 0.0395616 0.0395612 0.0395606 0.0395603 0.0395597 0.0395592 0.0395588 0.0395583 0.0395578 0.0395573 0.0395571 0.0395566 0.0395563 0.0395557 0.0395556 0.0395553 0.0395549 0.0395545 0.0395542 0.0395541 0.0395537 0.0395534 0.039553 0.0395529 0.0395528 0.0395525 0.0395523 0.0395522 0.0395519 0.0395517 0.0395517 0.0395515 0.0395512 0.0395513 0.0395513 0.0395511 0.039551 0.0395508 0.0395508 0.039551 
SCALARS volume_diff float 1
LOOKUP_TABLE default
0.0391621 0.039251 0.0392717 0.0392777 0.0392794 0.03928 0.0392802 0.0392805 0.0392811 0.0392817 0.0392823 0.039283 0.0392838 0.0392845 0.0392854 0.0392862 0.039287 0.0392877 0.0392885 0.0392893 0.0392902 0.0392909 0.0392916 0.0392922 0.0392931 0.0392938 0.0392943 0.0392951 0.0392957 0.0392964 0.0392969 0.0392976 0.0392982 0.0392986 0.0392992 0.0392997 0.0393002 0.0393006 0.0393011 0.0393015 0.039302 0.0393025 0.0393028 0.0393033 0.0393035 0.0393039 0.039304 0.0393045 0.0393048 0.039305 0.0393052 0.0393056 0.0393056 0.0393058 0.0393061 0.0393062 0.0393062 0.0393063 0.0393067 0.0393066 0.0393068 0.0393067 0.0393067 0.0393068 0.0392029 0.0392425 0.0392651 0.0392746 0.0392782 0.0392795 0.03928 0.0392803 0.0392806 0.0392812 0.0392818 0.0392823 0.0392832 0.0392838 0.0392845 0.0392854 0.0392864 0.0392871 0.0392879 0.0392889 0.0392897 0.0392904 0.0392911 0.0392919 0.0392926 0.0392934 0.0392939 0.0392948 0.0392953 0.0392961 0.0392967 0.0392975 0.039298 0.0392984 0.039299 0.0392995 0.0393002 0.0393004 0.039301 0.0393014 0.0393019 0.0393024 0.0393026 0.0393033 0.0393034 0.0393039 0.039304 0.0393045 0.0393048 0.039305 0.0393053 0.0393056 0.0393057 0.0393058 0.0393063 0.0393063 0.0393062 0.0393064 0.0393067 0.0393067 0.0393069 0.0393067 0.0393068 0.039307 0.0392197 0.0392562 0.0392689 0.0392767 0.0392804 0.0392821 0.0392829 0.0392832 0.0392835 0.0392837 0.0392843 0.0392848 0.0392854 0.039286 0.0392866 0.0392873 0.0392882 0.0392889 0.0392896 0.0392904 0.0392912 0.0392919 0.0392925 0.0392932 0.0392939 0.0392946 0.0392951 0.0392959 0.0392964 0.039297 0.0392975 0.0392981 0.0392987 0.0392991 0.0392997 0.0393001 0.0393006 0.0393011 0.0393015 0.0393019 0.0393023 0.0393026 0.0393029 0.0393034 0.0393036 0.0393041 0.0393041 0.0393046 0.039305 0.039305 0.0393054 0.0393055 0.0393058 0.0393059 0.0393061 0.0393063 0.0393062 0.0393063 0.0393066 0.0393065 0.0393067 0.0393066 0.0393068 0.0393071 0.0392387 0.0392668 0.0392757 0.039281 0.0392839 0.0392853 0.0392861 0.0392865 0.0392868 0.039287 0.0392874 0.0392878 0.0392883 0.0392888 0.0392894 0.0392898 0.0392905 0.0392911 0.0392918 0.0392924 0.039293 0.0392937 0.0392944 0.0392951 0.0392956 0.0392962 0.0392967 0.0392972 0.0392976 0.0392983 0.0392986 0.0392991 0.0392997 0.0393002 0.0393005 0.0393008 0.0393013 0.0393018 0.0393022 0.0393026 0.0393028 0.0393031 0.0393034 0.0393038 0.0393039 0.0393044 0.0393045 0.0393048 0.0393052 0.0393054 0.0393054 0.0393056 0.0393058 0.0393059 0.0393061 0.0393062 0.0393062 0.0393063 0.0393066 0.0393066 0.0393068 0.0393068 0.0393068 0.0393071 0.0392549 0.0392768 0.0392825 0.0392859 0.0392878 0.0392889 0.0392896 0.0392899 0.0392903 0.0392904 0.0392908 0.0392911 0.0392914 0.0392918 0.0392922 0.0392926 0.0392931 0.0392936 0.0392942 0.0392948 0.0392952 0.0392958 0.0392964 0.0392969 0.0392973 0.0392979 0.0392983 0.0392987 0.0392991 0.0392995 0.0392999 0.0393003 0.0393007 0.0393011 0.0393016 0.0393018 0.0393021 0.0393024 0.0393029 0.0393032 0.0393034 0.0393037 0.0393039 0.0393043 0.0393044 0.0393049 0.0393049 0.039305 0.0393054 0.0393055 0.0393056 0.0393058 0.0393058 0.0393058 0.0393061 0.0393064 0.0393063 0.0393063 0.0393065 0.0393065 0.039307 0.0393067 0.0393067 0.0393068 0.0392703 0.0392856 0.039289 0.0392908 0.0392919 0.0392926 0.039293 0.0392934 0.0392936 0.0392939 0.0392941 0.0392942 0.0392946 0.0392949 0.0392951 0.0392956 0.0392959 0.0392963 0.0392967 0.0392972 0.0392976 0.0392979 0.0392983 0.0392988 0.0392993 0.0392995 0.0392998 0.0393003 0.0393005 0.0393009 0.0393012 0.0393016 0.0393019 0.0393022 0.0393026 0.0393028 0.0393032 0.0393033 0.0393036 0.0393037 0.039304 0.0393042 0.0393044 0.0393047 0.0393049 0.0393051 0.0393052 0.0393055 0.0393056 0.0393056 0.0393058 0.0393059 0.039306 0.039306 0.0393062 0.0393063 0.0393064 0.0393063 0.0393066 0.0393065 0.0393067 0.0393065 0.0393066 0.0393069 0.0392848 0.0392935 0.039295 0.0392957 0.039296 0.0392962 0.0392964 0.0392966 0.0392969 0.039297 0.0392972 0.0392973 0.0392977 0.0392978 0.039298 0.0392983 0.0392987 0.0392989 0.0392993 0.0392996 0.0392999 0.0393002 0.0393005 0.0393008 0.0393011 0.0393013 0.0393015 0.0393019 0.039302 0.0393024 0.0393026 0.0393028 0.0393032 0.0393033 0.0393036 0.0393037 0.0393041 0.0393042 0.0393044 0.0393045 0.0393046 0.0393048 0.0393051 0.0393053 0.0393053 0.0393054 0.0393056 0.0393058 0.0393058 0.0393058 0.0393059 0.039306 0.0393061 0.0393062 0.0393063 0.0393064 0.0393065 0.0393065 0.0393067 0.0393066 0.0393065 0.0393066 0.0393067 0.0393068 0.039299 0.0393009 0.0393005 0.0393001 0.0392998 0.0392998 0.0392997 0.0392999 0.0393 0.0393001 0.0393002 0.0393003 0.0393005 0.0393008 0.039301 0.0393012 0.0393014 0.0393016 0.0393017 0.039302 0.0393022 0.0393024 0.0393026 0.0393028 0.0393029 0.0393032 0.0393032 0.0393035 0.0393037 0.0393038 0.039304 0.0393042 0.0393042 0.0393043 0.0393046 0.0393047 0.039305 0.039305 0.0393051 0.0393053 0.0393054 0.0393055 0.0393055 0.0393056 0.0393058 0.0393059 0.0393058 0.0393061 0.0393061 0.0393061 0.0393062 0.0393064 0.0393063 0.0393063 0.0393064 0.0393066 0.0393065 0.0393065 0.0393068 0.0393065 0.0393066 0.0393065 0.0393065 0.0393067 0.0393128 0.0393078 0.0393056 0.0393041 0.0393034 0.0393032 0.0393031 0.0393031 0.0393031 0.0393033 0.0393033 0.0393035 0.0393037 0.0393036 0.0393039 0.039304 0.0393041 0.0393042 0.0393043 0.0393044 0.0393045 0.0393046 0.0393047 0.0393048 0.0393049 0.039305 0.039305 0.0393052 0.0393052 0.0393054 0.0393055 0.0393055 0.0393055 0.0393055 0.0393057 0.0393057 0.0393058 0.039306 0.0393059 0.0393059 0.0393061 0.0393062 0.0393061 0.0393061 0.0393062 0.0393064 0.0393062 0.0393063 0.0393064 0.0393063 0.0393065 0.0393067 0.0393064 0.0393064 0.0393067 0.0393066 0.0393066 0.0393066 0.0393067 0.0393065 0.0393066 0.0393065 0.0393065 0.0393066 0.0393263 0.0393147 0.0393104 0.0393082 0.0393071 0.0393067 0.0393064 0.0393062 0.0393064 0.0393065 0.0393066 0.0393068 0.0393068 0.0393067 0.0393067 0.0393069 0.0393069 0.0393067 0.0393067 0.0393068 0.0393068 0.0393068 0.0393068 0.0393067 0.0393068 0.0393067 0.0393067 0.0393068 0.0393067 0.0393067 0.0393068 0.0393068 0.0393068 0.0393066 0.0393067 0.0393068 0.0393069 0.0393067 0.0393067 0.0393067 0.0393067 0.0393068 0.0393066 0.0393067 0.0393066 0.0393067 0.0393067 0.0393066 0.0393066 0.0393065 0.0393067 0.0393068 0.0393065 0.0393066 0.0393067 0.0393066 0.0393066 0.0393067 0.0393068 0.0393066 0.0393067 0.0393066 0.0393067 0.0393065 0.0393398 0.0393212 0.0393151 0.0393121 0.0393107 0.03931 0.0393098 0.0393098 0.0393097 0.0393098 0.0393099 0.0393098 0.0393099 0.0393098 0.0393097 0.0393095 0.0393095 0.0393095 0.0393094 0.0393092 0.0393091 0.039309 0.039309 0.0393087 0.0393086 0.0393087 0.0393084 0.0393084 0.0393083 0.0393083 0.0393082 0.0393083 0.0393081 0.0393079 0.0393078 0.0393077 0.0393078 0.0393076 0.0393076 0.0393075 0.0393074 0.0393074 0.0393073 0.0393073 0.0393072 0.0393072 0.0393069 0.0393071 0.039307 0.0393068 0.039307 0.039307 0.0393067 0.0393068 0.0393068 0.0393068 0.0393066 0.0393066 0.0393068 0.0393066 0.0393068 0.0393067 0.0393067 0.0393065 0.0393535 0.039328 0.0393198 0.0393158 0.0393141 0.0393134 0.0393131 0.039313 0.0393131 0.0393132 0.0393131 0.039313 0.0393129 0.0393129 0.0393126 0.0393124 0.0393123 0.0393121 0.0393119 0.0393116 0.0393115 0.0393113 0.039311 0.0393107 0.0393107 0.0393105 0.0393101 0.03931 0.0393098 0.0393098 0.0393096 0.0393094 0.0393093 0.0393091 0.0393089 0.0393088 0.0393088 0.0393085 0.0393085 0.0393082 0.0393082 0.039308 0.0393079 0.0393078 0.0393077 0.0393077 0.0393075 0.0393074 0.0393073 0.0393071 0.0393072 0.0393072 0.0393069 0.0393069 0.039307 0.0393069 0.0393068 0.0393067 0.0393069 0.0393067 0.0393068 0.0393066 0.0393065 0.0393066 0.039367 0.0393348 0.0393242 0.0393193 0.0393174 0.0393167 0.0393165 0.0393164 0.0393166 0.0393166 0.0393165 0.0393163 0.0393161 0.0393159 0.0393156 0.0393153 0.039315 0.0393146 0.0393144 0.0393141 0.0393138 0.0393135 0.0393131 0.0393128 0.0393127 0.0393122 0.0393119 0.0393117 0.0393114 0.0393112 0.039311 0.0393108 0.0393106 0.0393103 0.0393101 0.0393098 0.0393097 0.0393094 0.0393093 0.039309 0.0393089 0.0393087 0.0393084 0.0393084 0.0393081 0.039308 0.0393079 0.0393079 0.0393078 0.0393076 0.0393076 0.0393074 0.0393072 0.0393072 0.0393073 0.0393071 0.039307 0.0393069 0.0393069 0.0393068 0.0393069 0.0393066 0.0393066 0.0393066 0.0393814 0.0393411 0.0393283 0.0393227 0.0393207 0.0393202 0.0393202 0.0393202 0.0393201 0.03932 0.0393199 0.0393194 0.0393192 0.0393187 0.0393186 0.0393181 0.0393176 0.0393172 0.0393169 0.0393164 0.0393159 0.0393154 0.0393152 0.0393149 0.0393146 0.0393142 0.0393135 0.0393133 0.0393129 0.0393126 0.0393122 0.039312 0.0393118 0.0393112 0.0393111 0.0393108 0.0393105 0.0393101 0.0393101 0.0393097 0.0393095 0.0393093 0.0393091 0.0393089 0.0393086 0.0393086 0.0393084 0.0393083 0.0393082 0.0393078 0.0393076 0.0393075 0.0393074 0.0393072 0.0393074 0.0393072 0.0393071 0.0393068 0.0393069 0.039307 0.0393069 0.0393067 0.0393064 0.0393065 0.0393934 0.0393487 0.039331 0.0393255 0.0393242 0.039324 0.039324 0.039324 0.0393238 0.0393235 0.0393232 0.0393227 0.0393224 0.0393218 0.0393213 0.0393208 0.0393204 0.0393197 0.0393193 0.0393188 0.0393182 0.0393177 0.0393173 0.0393168 0.0393163 0.0393159 0.0393154 0.0393149 0.0393144 0.0393141 0.0393137 0.0393132 0.039313 0.0393124 0.039312 0.0393118 0.0393114 0.0393111 0.0393108 0.0393107 0.0393101 0.0393099 0.0393098 0.0393094 0.0393091 0.0393091 0.0393087 0.0393086 0.0393083 0.0393081 0.0393078 0.0393078 0.0393075 0.0393073 0.0393076 0.0393075 0.039307 0.0393068 0.039307 0.0393068 0.0393068 0.0393065 0.0393066 0.0393066 0.0394226 0.0393473 0.0393324 0.039329 0.0393285 0.0393283 0.0393279 0.0393276 0.0393272 0.0393266 0.0393262 0.0393256 0.039325 0.0393245 0.0393238 0.0393232 0.0393226 0.0393219 0.0393213 0.0393207 0.0393202 0.0393196 0.039319 0.0393183 0.0393179 0.0393175 0.0393167 0.0393164 0.0393157 0.0393154 0.0393149 0.0393144 0.0393139 0.0393134 0.0393132 0.0393127 0.0393123 0.0393119 0.0393116 0.0393114 0.0393109 0.0393105 0.0393102 0.0393099 0.0393096 0.0393095 0.039309 0.0393089 0.0393087 0.0393085 0.0393082 0.0393081 0.0393078 0.0393077 0.0393077 0.0393075 0.0393072 0.0393071 0.0393071 0.0393069 0.0393069 0.0393067 0.0393068 0.039307 0.0392012 0.0392356 0.0392584 0.0392696 0.0392748 0.0392772 0.0392786 0.0392794 0.03928 0.0392806 0.0392814 0.0392821 0.0392829 0.0392837 0.0392845 0.0392852 0.0392861 0.039287 0.0392879 0.0392886 0.0392894 0.0392903 0.039291 0.0392917 0.0392925 0.0392932 0.0392939 0.0392948 0.0392951 0.0392959 0.0392965 0.0392973 0.0392979 0.0392983 0.0392989 0.0392994 0.0393001 0.0393005 0.0393009 0.0393013 0.0393019 0.0393023 0.0393025 0.039303 0.0393034 0.0393039 0.039304 0.0393044 0.0393047 0.0393051 0.0393052 0.0393055 0.0393055 0.0393059 0.0393062 0.0393063 0.0393062 0.0393064 0.0393067 0.0393067 0.0393068 0.0393067 0.0393067 0.0393067 0.0392494 0.0392388 0.0392568 0.0392673 0.0392734 0.0392767 0.0392788 0.0392801 0.039281 0.0392817 0.0392825 0.0392833 0.0392841 0.0392847 0.0392856 0.0392865 0.0392874 0.0392881 0.0392889 0.0392895 0.0392902 0.039291 0.0392919 0.0392926 0.0392933 0.0392941 0.0392946 0.0392952 0.0392959 0.0392968 0.0392972 0.0392977 0.0392983 0.0392987 0.0392993 0.0392995 0.0393005 0.0393007 0.0393013 0.0393015 0.0393022 0.0393025 0.0393026 0.0393031 0.0393036 0.0393042 0.0393042 0.0393045 0.0393047 0.0393052 0.0393053 0.0393055 0.0393055 0.0393058 0.0393062 0.0393063 0.0393065 0.0393066 0.0393068 0.0393067 0.0393067 0.0393066 0.0393068 0.0393069 0.0392557 0.0392522 0.0392625 0.03927 0.0392753 0.0392786 0.0392805 0.039282 0.0392831 0.0392839 0.0392845 0.0392852 0.039286 0.0392865 0.0392872 0.039288 0.0392887 0.0392895 0.0392902 0.0392909 0.0392916 0.0392923 0.0392929 0.0392937 0.0392943 0.039295 0.0392954 0.0392961 0.0392966 0.0392974 0.0392979 0.0392984 0.0392988 0.0392994 0.0393 0.0393002 0.0393008 0.0393011 0.0393017 0.039302 0.0393026 0.0393028 0.039303 0.0393036 0.039304 0.0393043 0.0393044 0.0393046 0.0393051 0.0393054 0.0393055 0.0393055 0.0393057 0.0393058 0.0393062 0.0393063 0.0393064 0.0393064 0.0393066 0.0393066 0.0393067 0.0393066 0.0393066 0.0393069 0.039267 0.0392619 0.0392704 0.0392755 0.0392795 0.0392821 0.0392838 0.0392851 0.039286 0.0392867 0.0392873 0.0392879 0.0392886 0.0392891 0.0392897 0.0392905 0.0392909 0.0392916 0.0392923 0.0392929 0.0392934 0.0392941 0.0392946 0.039295 0.0392958 0.0392963 0.0392967 0.0392976 0.0392978 0.0392984 0.0392989 0.0392992 0.0392998 0.0393002 0.0393007 0.0393011 0.0393016 0.0393018 0.0393024 0.0393026 0.0393029 0.0393033 0.0393035 0.0393038 0.0393041 0.0393044 0.0393043 0.0393049 0.0393051 0.0393055 0.0393055 0.0393057 0.0393058 0.039306 0.0393061 0.0393063 0.0393062 0.0393064 0.0393066 0.0393065 0.0393065 0.0393066 0.0393067 0.039307 0.0392763 0.0392722 0.039278 0.0392815 0.0392841 0.0392861 0.0392875 0.0392884 0.0392893 0.0392899 0.0392903 0.0392907 0.0392914 0.0392919 0.0392924 0.0392929 0.0392933 0.0392937 0.0392945 0.039295 0.0392954 0.039296 0.0392964 0.0392969 0.0392974 0.039298 0.0392983 0.039299 0.0392993 0.0392997 0.0393 0.0393005 0.0393009 0.0393013 0.0393015 0.0393019 0.0393024 0.0393024 0.0393029 0.0393032 0.0393034 0.0393037 0.0393039 0.0393042 0.0393044 0.0393046 0.0393046 0.0393052 0.0393052 0.0393054 0.0393055 0.0393059 0.0393058 0.0393059 0.0393062 0.0393063 0.0393063 0.0393063 0.0393066 0.0393066 0.0393068 0.0393065 0.0393066 0.0393071 0.0392854 0.0392821 0.0392858 0.0392876 0.0392891 0.0392903 0.0392914 0.039292 0.0392926 0.0392931 0.0392935 0.0392938 0.0392943 0.0392946 0.0392951 0.0392955 0.0392958 0.0392962 0.0392967 0.0392971 0.0392974 0.039298 0.0392985 0.0392989 0.0392992 0.0392996 0.0393 0.0393004 0.0393005 0.039301 0.0393011 0.0393016 0.0393021 0.0393022 0.0393025 0.0393028 0.0393032 0.0393031 0.0393035 0.0393037 0.0393041 0.0393042 0.0393043 0.0393046 0.0393047 0.039305 0.0393052 0.0393055 0.0393055 0.0393057 0.0393057 0.0393059 0.0393059 0.0393059 0.0393062 0.0393063 0.0393064 0.0393063 0.0393065 0.0393065 0.0393066 0.0393063 0.0393067 0.0393068 0.0392938 0.0392912 0.0392929 0.0392934 0.0392941 0.0392947 0.0392953 0.0392958 0.0392962 0.0392965 0.0392968 0.039297 0.0392973 0.0392976 0.0392979 0.0392983 0.0392987 0.0392989 0.0392991 0.0392995 0.0392997 0.0393001 0.0393005 0.0393007 0.0393011 0.0393012 0.0393015 0.039302 0.0393021 0.0393024 0.0393025 0.0393029 0.0393032 0.0393034 0.0393036 0.0393037 0.0393041 0.0393039 0.0393043 0.0393046 0.0393047 0.0393049 0.0393049 0.039305 0.0393051 0.0393054 0.0393055 0.0393057 0.0393057 0.039306 0.0393059 0.0393061 0.0393062 0.0393061 0.0393064 0.0393065 0.0393063 0.0393064 0.0393066 0.0393066 0.0393064 0.0393064 0.0393067 0.0393068 0.0393019 0.0392998 0.0392994 0.039299 0.0392989 0.0392989 0.0392991 0.0392994 0.0392996 0.0392998 0.0392999 0.0393001 0.0393004 0.0393005 0.0393007 0.039301 0.0393013 0.0393015 0.0393016 0.0393018 0.0393021 0.0393023 0.0393025 0.0393026 0.0393028 0.0393029 0.0393031 0.0393034 0.0393035 0.0393037 0.0393038 0.039304 0.0393042 0.0393044 0.0393047 0.0393047 0.039305 0.0393048 0.039305 0.0393053 0.0393054 0.0393053 0.0393054 0.0393055 0.0393056 0.0393059 0.0393059 0.0393061 0.0393061 0.039306 0.0393061 0.0393062 0.0393062 0.0393063 0.0393065 0.0393067 0.0393064 0.0393064 0.0393066 0.0393065 0.0393065 0.0393065 0.0393064 0.0393067 0.0393099 0.0393082 0.0393058 0.0393046 0.0393036 0.0393031 0.0393028 0.0393027 0.0393028 0.039303 0.039303 0.0393032 0.0393033 0.0393034 0.0393037 0.0393036 0.0393037 0.0393039 0.039304 0.0393041 0.0393043 0.0393044 0.0393045 0.0393046 0.0393048 0.0393048 0.0393047 0.0393051 0.0393051 0.0393052 0.0393052 0.0393051 0.0393055 0.0393056 0.0393055 0.0393056 0.0393056 0.0393056 0.0393059 0.0393058 0.0393061 0.0393062 0.0393061 0.0393061 0.039306 0.0393063 0.0393063 0.0393064 0.0393064 0.0393062 0.0393065 0.0393066 0.0393065 0.0393066 0.0393067 0.0393066 0.0393066 0.0393065 0.0393066 0.0393066 0.0393066 0.0393065 0.0393063 0.0393063 0.0393175 0.0393164 0.0393119 0.0393095 0.0393079 0.039307 0.0393066 0.0393064 0.0393063 0.0393061 0.0393063 0.0393064 0.0393064 0.0393064 0.0393065 0.0393064 0.0393063 0.0393064 0.0393065 0.0393065 0.0393066 0.0393068 0.0393066 0.0393066 0.0393067 0.0393065 0.0393064 0.0393067 0.0393066 0.0393067 0.0393067 0.0393066 0.0393067 0.0393066 0.0393066 0.0393064 0.0393066 0.0393065 0.0393066 0.0393066 0.0393067 0.0393068 0.0393065 0.0393065 0.0393067 0.0393067 0.0393067 0.0393067 0.0393067 0.0393066 0.0393067 0.0393068 0.0393066 0.0393066 0.0393069 0.0393067 0.0393067 0.0393065 0.0393068 0.0393067 0.0393068 0.0393065 0.0393064 0.0393063 0.0393253 0.0393243 0.0393177 0.0393143 0.0393122 0.039311 0.0393103 0.0393099 0.0393097 0.0393096 0.0393096 0.0393095 0.0393095 0.0393094 0.0393093 0.0393092 0.0393091 0.039309 0.039309 0.0393089 0.0393089 0.0393088 0.0393086 0.0393085 0.0393083 0.0393085 0.0393083 0.0393085 0.0393082 0.0393082 0.0393079 0.0393079 0.0393079 0.0393077 0.0393078 0.0393076 0.0393076 0.0393074 0.0393074 0.0393075 0.0393075 0.0393073 0.0393073 0.0393071 0.0393072 0.0393073 0.0393071 0.0393071 0.039307 0.0393069 0.0393069 0.0393069 0.0393067 0.0393069 0.0393068 0.0393068 0.0393066 0.0393065 0.0393067 0.0393064 0.0393067 0.0393066 0.0393066 0.0393065 0.0393329 0.039332 0.0393235 0.0393191 0.0393163 0.0393148 0.0393139 0.0393133 0.0393131 0.039313 0.0393128 0.0393126 0.0393125 0.0393123 0.0393121 0.039312 0.0393119 0.0393116 0.0393112 0.039311 0.039311 0.0393109 0.0393106 0.0393104 0.0393102 0.0393102 0.0393099 0.0393099 0.0393096 0.0393095 0.0393094 0.0393093 0.0393092 0.0393089 0.0393088 0.0393087 0.0393084 0.0393082 0.0393083 0.0393081 0.0393081 0.039308 0.0393079 0.0393078 0.0393076 0.0393076 0.0393073 0.0393073 0.0393073 0.0393072 0.039307 0.0393072 0.0393071 0.0393069 0.0393069 0.039307 0.0393067 0.0393066 0.0393068 0.0393065 0.0393067 0.0393066 0.0393065 0.0393065 0.03934 0.0393395 0.0393288 0.0393234 0.0393202 0.0393184 0.0393175 0.0393169 0.0393165 0.0393162 0.0393161 0.0393157 0.0393155 0.0393153 0.0393149 0.0393148 0.0393145 0.0393142 0.0393139 0.0393135 0.0393134 0.0393131 0.0393127 0.0393123 0.0393122 0.039312 0.0393114 0.0393115 0.0393111 0.039311 0.0393108 0.0393105 0.0393101 0.03931 0.0393097 0.0393096 0.0393095 0.039309 0.0393089 0.039309 0.0393088 0.0393087 0.0393084 0.0393083 0.039308 0.039308 0.0393078 0.0393078 0.0393077 0.0393076 0.0393074 0.0393075 0.039307 0.039307 0.0393072 0.0393072 0.0393069 0.0393068 0.0393068 0.0393067 0.0393069 0.0393067 0.0393065 0.0393065 0.0393479 0.0393458 0.039334 0.0393275 0.039324 0.039322 0.0393209 0.0393202 0.0393196 0.0393194 0.0393191 0.0393188 0.0393185 0.039318 0.0393179 0.0393175 0.0393169 0.0393167 0.0393161 0.0393158 0.0393155 0.0393151 0.0393148 0.0393144 0.0393141 0.0393136 0.039313 0.039313 0.0393126 0.0393122 0.0393119 0.0393116 0.0393112 0.039311 0.0393108 0.0393103 0.0393103 0.0393098 0.0393097 0.0393095 0.0393093 0.0393091 0.0393089 0.0393089 0.0393085 0.0393085 0.0393081 0.0393081 0.0393079 0.0393078 0.0393077 0.0393075 0.0393072 0.0393072 0.0393073 0.0393073 0.0393069 0.0393069 0.0393068 0.0393068 0.0393069 0.0393066 0.0393065 0.0393067 0.0393516 0.0393534 0.0393383 0.0393313 0.0393274 0.0393255 0.0393243 0.0393237 0.0393232 0.0393227 0.0393223 0.0393218 0.0393214 0.0393209 0.0393205 0.03932 0.0393195 0.039319 0.0393184 0.0393181 0.0393176 0.0393172 0.0393167 0.0393164 0.0393158 0.0393153 0.0393149 0.0393146 0.039314 0.0393136 0.0393133 0.0393128 0.0393126 0.0393122 0.0393118 0.0393114 0.0393112 0.0393106 0.0393106 0.0393102 0.0393099 0.0393098 0.0393096 0.0393092 0.039309 0.039309 0.0393085 0.0393084 0.0393083 0.0393081 0.0393079 0.0393079 0.0393078 0.0393074 0.0393075 0.0393074 0.0393069 0.0393068 0.0393069 0.0393067 0.0393069 0.0393067 0.0393067 0.0393068 0.0393817 0.0393573 0.0393425 0.0393351 0.0393315 0.0393296 0.0393285 0.0393278 0.0393273 0.0393266 0.039326 0.0393255 0.039325 0.0393243 0.0393237 0.039323 0.0393225 0.0393219 0.0393213 0.0393207 0.0393202 0.0393196 0.0393189 0.0393184 0.0393179 0.0393173 0.0393167 0.0393163 0.0393155 0.0393153 0.0393148 0.0393143 0.0393137 0.0393133 0.0393131 0.0393125 0.0393122 0.0393117 0.0393114 0.039311 0.0393108 0.0393106 0.0393101 0.0393099 0.0393096 0.0393094 0.039309 0.0393088 0.0393088 0.0393085 0.0393081 0.0393082 0.039308 0.0393076 0.0393074 0.0393072 0.039307 0.0393071 0.039307 0.0393068 0.0393068 0.0393068 0.0393067 0.0393068 0.0391907 0.0392393 0.0392549 0.0392642 0.0392699 0.0392733 0.0392755 0.0392771 0.0392783 0.0392794 0.0392803 0.0392809 0.0392819 0.039283 0.0392838 0.0392847 0.0392857 0.0392866 0.0392874 0.0392883 0.0392892 0.0392899 0.0392907 0.0392914 0.0392922 0.0392929 0.0392936 0.0392945 0.039295 0.0392959 0.0392965 0.0392971 0.0392976 0.039298 0.0392987 0.0392992 0.0392999 0.0393004 0.0393009 0.0393014 0.0393018 0.0393023 0.0393026 0.0393031 0.0393033 0.039304 0.0393041 0.0393044 0.0393048 0.039305 0.0393051 0.0393056 0.0393056 0.0393059 0.0393062 0.0393064 0.0393065 0.0393065 0.0393066 0.0393067 0.0393068 0.0393067 0.0393068 0.0393067 0.039245 0.0392401 0.0392546 0.0392639 0.0392704 0.0392743 0.0392768 0.0392787 0.03928 0.039281 0.0392822 0.039283 0.0392839 0.0392849 0.0392856 0.0392865 0.0392874 0.0392881 0.0392889 0.0392897 0.0392904 0.0392912 0.0392919 0.0392928 0.0392933 0.0392938 0.0392945 0.0392954 0.0392958 0.0392964 0.0392972 0.0392977 0.0392982 0.0392988 0.0392993 0.0392999 0.0393005 0.0393009 0.0393014 0.0393017 0.039302 0.0393027 0.039303 0.0393032 0.0393035 0.0393041 0.0393043 0.0393047 0.0393049 0.0393049 0.0393053 0.0393055 0.0393056 0.0393059 0.0393061 0.0393062 0.0393063 0.0393065 0.0393067 0.0393069 0.039307 0.0393067 0.0393067 0.039307 0.0392532 0.0392563 0.0392602 0.0392677 0.0392729 0.0392765 0.039279 0.0392809 0.0392822 0.0392834 0.0392844 0.0392853 0.0392862 0.0392868 0.0392876 0.0392884 0.0392893 0.0392899 0.0392905 0.0392912 0.039292 0.0392926 0.0392933 0.039294 0.0392947 0.0392952 0.0392957 0.0392965 0.0392968 0.0392973 0.0392979 0.0392986 0.0392991 0.0392995 0.0392998 0.0393004 0.0393011 0.0393013 0.0393018 0.0393021 0.0393026 0.039303 0.0393033 0.0393035 0.0393036 0.0393041 0.0393043 0.0393048 0.0393051 0.039305 0.0393053 0.0393055 0.0393056 0.0393061 0.039306 0.0393062 0.0393062 0.0393064 0.0393065 0.0393067 0.0393067 0.0393066 0.0393067 0.0393068 0.0392649 0.0392654 0.0392685 0.0392731 0.0392771 0.03928 0.0392822 0.0392839 0.0392851 0.0392863 0.039287 0.0392876 0.0392884 0.0392892 0.0392899 0.0392905 0.0392914 0.0392919 0.0392924 0.039293 0.0392936 0.0392942 0.0392949 0.0392955 0.0392961 0.0392966 0.0392971 0.0392976 0.0392979 0.0392985 0.039299 0.0392995 0.0392999 0.0393002 0.0393008 0.0393011 0.0393016 0.0393019 0.0393022 0.0393026 0.0393031 0.0393033 0.0393035 0.0393037 0.039304 0.0393047 0.0393047 0.0393049 0.0393052 0.0393054 0.0393054 0.0393055 0.0393056 0.039306 0.0393062 0.0393063 0.0393062 0.0393063 0.0393066 0.0393066 0.0393067 0.0393067 0.0393066 0.0393068 0.0392745 0.0392748 0.0392762 0.0392795 0.0392821 0.0392843 0.0392862 0.0392875 0.0392884 0.0392892 0.03929 0.0392907 0.0392913 0.0392918 0.0392925 0.0392931 0.0392937 0.0392941 0.0392946 0.0392951 0.0392957 0.0392961 0.0392966 0.0392972 0.0392977 0.0392981 0.0392985 0.0392989 0.0392992 0.0392997 0.0393002 0.0393005 0.0393008 0.0393013 0.0393017 0.039302 0.0393021 0.0393025 0.0393031 0.0393032 0.0393035 0.039304 0.0393038 0.0393043 0.0393045 0.0393047 0.0393049 0.039305 0.0393052 0.0393055 0.0393055 0.0393056 0.0393057 0.0393058 0.0393062 0.0393064 0.0393062 0.0393063 0.0393065 0.0393065 0.0393066 0.0393065 0.0393066 0.0393069 0.0392838 0.0392835 0.039284 0.0392859 0.0392875 0.0392889 0.0392903 0.0392912 0.0392918 0.0392925 0.0392932 0.0392937 0.0392942 0.0392948 0.0392951 0.0392955 0.039296 0.0392963 0.0392969 0.0392972 0.0392977 0.039298 0.0392983 0.0392989 0.0392996 0.0392998 0.0393 0.0393005 0.0393005 0.0393009 0.0393013 0.0393015 0.0393018 0.0393022 0.0393026 0.0393027 0.0393031 0.0393034 0.0393037 0.0393037 0.039304 0.0393042 0.0393044 0.0393047 0.0393048 0.039305 0.0393049 0.0393054 0.0393056 0.0393056 0.0393057 0.0393059 0.0393059 0.0393061 0.0393063 0.0393063 0.0393063 0.0393063 0.0393066 0.0393066 0.0393067 0.0393067 0.0393067 0.0393069 0.0392929 0.039292 0.0392916 0.0392924 0.039293 0.0392936 0.0392943 0.0392948 0.0392954 0.0392957 0.0392962 0.0392967 0.0392972 0.0392975 0.0392978 0.0392983 0.0392984 0.0392987 0.0392992 0.0392994 0.0392997 0.0393001 0.0393004 0.0393008 0.0393013 0.0393015 0.0393016 0.039302 0.039302 0.0393023 0.0393026 0.0393027 0.0393029 0.0393033 0.0393035 0.0393036 0.039304 0.0393043 0.0393043 0.0393045 0.0393044 0.0393046 0.0393049 0.0393052 0.0393051 0.0393055 0.0393054 0.0393056 0.0393057 0.0393057 0.0393059 0.0393059 0.039306 0.0393063 0.0393063 0.0393064 0.0393064 0.0393064 0.0393067 0.0393066 0.0393066 0.0393066 0.0393067 0.0393066 0.0393015 0.0393001 0.0392989 0.0392984 0.0392982 0.0392982 0.0392984 0.0392987 0.0392989 0.0392992 0.0392995 0.0392997 0.0393002 0.0393005 0.0393006 0.0393008 0.039301 0.0393012 0.0393014 0.0393018 0.039302 0.0393023 0.0393025 0.0393026 0.0393028 0.0393031 0.0393032 0.0393035 0.0393035 0.0393037 0.0393038 0.039304 0.0393042 0.0393043 0.0393046 0.0393047 0.039305 0.039305 0.0393049 0.0393052 0.0393051 0.0393052 0.0393055 0.0393058 0.0393054 0.0393057 0.0393059 0.0393059 0.0393061 0.039306 0.0393062 0.0393062 0.0393062 0.0393061 0.0393063 0.0393065 0.0393063 0.0393063 0.0393065 0.0393066 0.0393066 0.0393063 0.0393066 0.0393065 0.03931 0.0393077 0.0393059 0.0393042 0.0393033 0.0393029 0.0393028 0.0393026 0.0393025 0.0393026 0.0393028 0.0393029 0.0393031 0.0393034 0.0393034 0.0393035 0.0393036 0.0393038 0.039304 0.039304 0.0393043 0.0393044 0.0393045 0.0393044 0.0393045 0.0393047 0.0393048 0.0393049 0.0393049 0.0393052 0.0393051 0.0393053 0.0393052 0.0393053 0.0393057 0.0393057 0.0393058 0.0393057 0.0393058 0.0393058 0.039306 0.0393057 0.0393058 0.0393061 0.039306 0.0393061 0.0393061 0.0393063 0.0393065 0.0393065 0.0393063 0.0393065 0.0393064 0.0393062 0.0393066 0.0393065 0.0393064 0.0393063 0.0393063 0.0393065 0.0393065 0.0393064 0.0393063 0.0393064 0.0393183 0.0393151 0.0393124 0.0393098 0.0393082 0.0393073 0.0393067 0.0393063 0.0393061 0.0393061 0.0393061 0.0393061 0.0393062 0.0393063 0.0393063 0.0393064 0.0393064 0.0393064 0.0393064 0.0393065 0.0393065 0.0393064 0.0393065 0.0393064 0.0393062 0.0393065 0.0393065 0.0393066 0.0393064 0.0393065 0.0393065 0.0393066 0.0393066 0.0393065 0.0393064 0.0393065 0.0393067 0.0393064 0.0393065 0.0393064 0.0393067 0.0393066 0.0393066 0.0393067 0.0393065 0.0393067 0.0393065 0.0393067 0.0393068 0.0393066 0.0393066 0.0393067 0.0393066 0.0393064 0.0393066 0.0393066 0.0393065 0.0393065 0.0393066 0.0393066 0.0393064 0.0393063 0.0393065 0.0393063 0.0393266 0.0393223 0.0393188 0.0393153 0.039313 0.0393115 0.0393105 0.0393101 0.0393096 0.0393095 0.0393096 0.0393094 0.0393092 0.0393091 0.039309 0.039309 0.0393089 0.0393087 0.0393087 0.0393087 0.0393085 0.0393085 0.0393084 0.0393083 0.0393083 0.0393083 0.039308 0.039308 0.0393079 0.0393079 0.0393078 0.0393078 0.0393078 0.0393076 0.0393076 0.0393075 0.0393077 0.0393074 0.0393073 0.0393072 0.0393071 0.0393072 0.0393071 0.0393072 0.0393071 0.0393071 0.039307 0.0393068 0.039307 0.0393069 0.039307 0.0393069 0.0393067 0.0393067 0.0393067 0.0393067 0.0393067 0.0393065 0.0393067 0.0393067 0.0393067 0.0393064 0.0393065 0.0393063 0.0393345 0.0393289 0.0393246 0.0393202 0.0393174 0.0393157 0.0393145 0.0393137 0.0393131 0.0393129 0.0393127 0.0393125 0.0393123 0.0393121 0.0393118 0.0393117 0.0393115 0.0393113 0.0393113 0.0393111 0.0393108 0.0393105 0.0393105 0.0393103 0.03931 0.03931 0.0393098 0.0393097 0.0393094 0.0393094 0.039309 0.0393089 0.039309 0.0393087 0.0393088 0.0393086 0.0393085 0.0393081 0.0393081 0.039308 0.0393076 0.0393077 0.0393077 0.0393076 0.0393076 0.0393076 0.0393073 0.0393072 0.0393072 0.0393072 0.0393071 0.039307 0.0393068 0.039307 0.0393068 0.0393068 0.0393067 0.0393066 0.0393067 0.0393066 0.0393067 0.0393065 0.0393065 0.0393066 0.0393422 0.0393355 0.0393301 0.0393251 0.0393218 0.0393196 0.0393182 0.0393172 0.0393167 0.0393163 0.0393158 0.0393156 0.0393153 0.0393149 0.0393147 0.0393144 0.039314 0.0393138 0.0393136 0.0393134 0.0393129 0.0393126 0.0393125 0.0393122 0.0393119 0.0393116 0.0393116 0.0393114 0.0393109 0.0393107 0.0393106 0.0393103 0.0393101 0.0393098 0.0393097 0.0393094 0.0393093 0.0393091 0.0393089 0.0393086 0.0393086 0.0393084 0.0393083 0.0393082 0.0393079 0.039308 0.0393078 0.0393078 0.0393076 0.0393075 0.0393073 0.0393073 0.0393072 0.0393071 0.0393071 0.0393068 0.0393067 0.0393067 0.0393068 0.0393067 0.0393067 0.0393065 0.0393064 0.0393066 0.0393509 0.039341 0.0393353 0.0393294 0.0393258 0.0393234 0.039322 0.0393209 0.0393203 0.0393196 0.039319 0.0393186 0.0393182 0.0393179 0.0393174 0.0393169 0.0393165 0.0393162 0.0393159 0.0393155 0.0393151 0.0393147 0.0393144 0.0393141 0.0393138 0.0393134 0.0393131 0.0393128 0.0393123 0.0393121 0.0393118 0.0393116 0.0393113 0.0393108 0.0393107 0.0393104 0.0393103 0.0393099 0.0393096 0.0393093 0.0393094 0.039309 0.0393089 0.0393087 0.0393084 0.0393084 0.0393081 0.0393082 0.0393079 0.0393079 0.0393076 0.0393076 0.0393074 0.0393072 0.0393072 0.039307 0.0393068 0.0393068 0.039307 0.0393066 0.0393068 0.0393067 0.0393065 0.0393065 0.0393554 0.0393496 0.0393393 0.0393336 0.0393297 0.0393273 0.0393256 0.0393245 0.0393237 0.0393229 0.0393225 0.0393217 0.0393213 0.0393209 0.0393202 0.0393196 0.0393192 0.0393187 0.0393183 0.0393179 0.0393173 0.0393167 0.0393165 0.039316 0.0393156 0.0393152 0.0393147 0.0393142 0.0393138 0.0393134 0.0393129 0.0393127 0.0393123 0.0393119 0.0393118 0.0393114 0.0393112 0.0393109 0.0393105 0.0393101 0.03931 0.0393097 0.0393093 0.0393092 0.0393088 0.0393087 0.0393084 0.0393085 0.0393082 0.0393081 0.039308 0.0393076 0.0393073 0.0393073 0.0393074 0.0393071 0.039307 0.0393069 0.0393068 0.0393067 0.0393068 0.0393066 0.0393065 0.0393067 0.0393877 0.0393497 0.0393437 0.0393383 0.0393346 0.0393318 0.0393301 0.0393286 0.0393276 0.0393266 0.039326 0.0393252 0.0393245 0.039324 0.0393234 0.0393226 0.0393221 0.0393216 0.0393209 0.0393204 0.0393198 0.0393192 0.0393187 0.0393179 0.0393174 0.0393168 0.0393162 0.0393158 0.0393154 0.039315 0.0393143 0.039314 0.0393137 0.0393133 0.0393129 0.0393123 0.0393122 0.0393117 0.0393114 0.0393108 0.0393106 0.0393104 0.0393099 0.0393097 0.0393093 0.039309 0.0393088 0.0393087 0.0393084 0.0393083 0.0393081 0.039308 0.0393076 0.0393075 0.0393073 0.0393072 0.0393069 0.0393071 0.039307 0.0393068 0.0393068 0.0393066 0.0393067 0.0393067 0.0391866 0.0392374 0.0392536 0.0392621 0.0392673 0.0392707 0.0392733 0.0392751 0.0392766 0.039278 0.0392791 0.0392804 0.0392814 0.0392823 0.0392834 0.0392844 0.0392852 0.0392861 0.039287 0.0392879 0.0392887 0.0392897 0.0392905 0.0392912 0.0392921 0.0392929 0.0392935 0.0392942 0.0392947 0.0392957 0.0392963 0.039297 0.0392977 0.0392981 0.0392986 0.0392992 0.0393 0.0393002 0.0393008 0.0393013 0.0393017 0.0393023 0.0393027 0.0393032 0.0393036 0.0393039 0.0393041 0.0393045 0.0393049 0.0393051 0.0393053 0.0393057 0.0393058 0.0393062 0.0393063 0.0393064 0.0393065 0.0393065 0.0393069 0.0393068 0.039307 0.0393067 0.0393065 0.0393066 0.039246 0.0392378 0.0392531 0.0392619 0.0392681 0.0392723 0.0392752 0.0392774 0.0392791 0.0392805 0.0392816 0.0392827 0.0392838 0.0392846 0.0392854 0.0392862 0.0392871 0.0392879 0.0392887 0.0392897 0.0392905 0.0392912 0.039292 0.0392927 0.0392933 0.0392941 0.0392948 0.0392954 0.039296 0.0392968 0.0392972 0.0392978 0.0392984 0.0392988 0.0392995 0.0393 0.0393005 0.0393007 0.0393013 0.0393018 0.0393021 0.0393027 0.039303 0.0393034 0.0393037 0.039304 0.0393042 0.0393047 0.0393049 0.0393051 0.0393054 0.0393057 0.0393058 0.039306 0.0393065 0.0393064 0.0393064 0.0393064 0.0393066 0.0393065 0.0393067 0.0393069 0.0393066 0.0393068 0.0392536 0.0392551 0.0392592 0.0392659 0.039271 0.0392751 0.0392779 0.03928 0.0392815 0.0392828 0.039284 0.0392851 0.039286 0.0392869 0.0392876 0.0392883 0.039289 0.0392898 0.0392905 0.0392914 0.0392921 0.0392928 0.0392934 0.039294 0.0392947 0.0392954 0.0392959 0.0392965 0.039297 0.0392976 0.0392981 0.0392987 0.0392992 0.0392996 0.0393 0.0393006 0.0393012 0.0393012 0.0393017 0.0393021 0.0393026 0.0393029 0.0393032 0.0393036 0.0393038 0.0393042 0.0393045 0.0393047 0.0393051 0.0393052 0.0393053 0.0393057 0.0393056 0.0393056 0.0393062 0.0393064 0.0393061 0.0393064 0.0393065 0.0393066 0.0393067 0.0393066 0.0393067 0.039307 0.0392654 0.0392646 0.039268 0.0392717 0.0392756 0.0392787 0.0392812 0.0392831 0.0392845 0.0392857 0.0392869 0.0392878 0.0392886 0.0392892 0.03929 0.0392908 0.0392912 0.039292 0.0392927 0.0392933 0.039294 0.0392946 0.0392951 0.0392956 0.0392962 0.0392969 0.0392972 0.0392978 0.0392981 0.0392985 0.0392991 0.0392997 0.0393001 0.0393004 0.0393008 0.0393012 0.0393017 0.039302 0.0393023 0.0393026 0.0393029 0.0393034 0.0393037 0.0393039 0.039304 0.0393044 0.0393046 0.039305 0.0393052 0.0393054 0.0393056 0.0393055 0.0393057 0.0393059 0.0393061 0.0393062 0.0393061 0.0393063 0.0393066 0.0393066 0.0393067 0.0393065 0.0393066 0.0393069 0.0392749 0.0392744 0.0392759 0.0392783 0.0392809 0.0392831 0.0392851 0.0392866 0.0392878 0.039289 0.0392899 0.0392905 0.0392912 0.039292 0.0392925 0.0392931 0.0392936 0.0392941 0.0392948 0.0392952 0.0392957 0.0392964 0.0392968 0.0392973 0.0392978 0.0392982 0.0392985 0.0392991 0.0392995 0.0392999 0.0393002 0.0393007 0.0393009 0.0393014 0.0393017 0.0393019 0.0393027 0.0393026 0.0393029 0.0393034 0.0393036 0.0393038 0.039304 0.0393043 0.0393045 0.0393048 0.0393049 0.0393051 0.0393054 0.0393056 0.0393057 0.0393057 0.0393059 0.0393061 0.0393062 0.0393062 0.0393062 0.0393062 0.0393065 0.0393063 0.0393066 0.0393066 0.0393067 0.0393068 0.0392842 0.0392833 0.0392839 0.0392851 0.0392865 0.0392879 0.0392893 0.0392903 0.0392913 0.0392923 0.0392929 0.0392935 0.039294 0.0392944 0.039295 0.0392955 0.0392961 0.0392964 0.0392969 0.0392974 0.0392977 0.0392981 0.0392986 0.039299 0.0392993 0.0392998 0.0393 0.0393004 0.0393007 0.0393013 0.0393013 0.0393017 0.0393021 0.0393024 0.0393026 0.039303 0.0393034 0.0393033 0.0393037 0.039304 0.0393041 0.0393042 0.0393044 0.0393049 0.0393049 0.0393052 0.0393052 0.0393053 0.0393055 0.0393058 0.0393057 0.039306 0.039306 0.0393062 0.0393063 0.0393063 0.0393062 0.0393063 0.0393066 0.0393065 0.0393067 0.0393065 0.0393066 0.0393069 0.0392928 0.0392917 0.0392914 0.0392916 0.0392922 0.0392931 0.0392937 0.0392944 0.0392951 0.0392957 0.0392964 0.0392967 0.039297 0.0392974 0.0392978 0.0392981 0.0392985 0.0392989 0.0392991 0.0392996 0.0392999 0.0393001 0.0393005 0.0393009 0.0393012 0.0393014 0.0393015 0.0393019 0.0393021 0.0393024 0.0393027 0.039303 0.039303 0.0393033 0.0393036 0.0393039 0.039304 0.0393042 0.0393043 0.0393045 0.0393047 0.0393048 0.039305 0.0393052 0.0393052 0.0393055 0.0393056 0.0393058 0.0393057 0.0393057 0.0393061 0.0393063 0.039306 0.0393062 0.0393064 0.0393063 0.0393063 0.0393065 0.0393067 0.0393066 0.0393067 0.0393064 0.0393066 0.0393067 0.0393016 0.0392998 0.0392986 0.039298 0.0392978 0.039298 0.0392981 0.0392984 0.0392988 0.0392991 0.0392995 0.0392998 0.0392999 0.0393003 0.0393006 0.0393009 0.0393011 0.0393012 0.0393015 0.0393017 0.039302 0.0393022 0.0393025 0.0393028 0.039303 0.039303 0.0393031 0.0393034 0.0393035 0.0393037 0.039304 0.0393038 0.0393041 0.0393044 0.0393045 0.0393045 0.0393048 0.0393049 0.0393052 0.0393053 0.0393053 0.0393055 0.0393055 0.0393058 0.0393057 0.0393057 0.0393059 0.039306 0.039306 0.0393059 0.0393062 0.0393062 0.0393062 0.0393064 0.0393065 0.0393064 0.0393063 0.0393065 0.0393066 0.0393065 0.0393065 0.0393064 0.0393066 0.0393066 0.0393097 0.0393076 0.0393057 0.0393043 0.0393035 0.0393028 0.0393025 0.0393024 0.0393025 0.0393026 0.0393028 0.0393029 0.0393031 0.0393031 0.0393033 0.0393035 0.0393036 0.0393036 0.0393037 0.039304 0.0393042 0.0393042 0.0393044 0.0393046 0.0393047 0.0393046 0.0393046 0.0393048 0.0393048 0.0393051 0.0393052 0.0393052 0.0393052 0.0393054 0.0393056 0.0393056 0.0393059 0.0393056 0.039306 0.039306 0.0393058 0.039306 0.039306 0.0393063 0.0393062 0.0393065 0.0393062 0.0393064 0.0393062 0.0393061 0.0393063 0.0393064 0.0393063 0.0393063 0.0393065 0.0393066 0.0393064 0.0393066 0.0393066 0.0393066 0.0393065 0.0393063 0.0393064 0.0393065 0.039318 0.0393151 0.0393123 0.0393103 0.0393086 0.0393075 0.0393069 0.0393064 0.0393062 0.0393061 0.0393061 0.0393061 0.0393061 0.039306 0.0393061 0.0393061 0.0393063 0.0393062 0.0393062 0.0393063 0.0393062 0.0393063 0.0393062 0.0393063 0.0393065 0.0393064 0.0393062 0.0393066 0.0393065 0.0393064 0.0393064 0.0393064 0.0393064 0.0393065 0.0393065 0.0393066 0.0393067 0.0393066 0.0393065 0.0393067 0.0393066 0.0393067 0.0393065 0.0393065 0.0393066 0.0393068 0.0393065 0.0393065 0.0393065 0.0393065 0.0393065 0.0393067 0.0393064 0.0393064 0.0393066 0.0393067 0.0393065 0.0393066 0.0393068 0.0393068 0.0393067 0.0393064 0.0393064 0.0393064 0.0393262 0.0393224 0.0393186 0.0393158 0.0393135 0.0393119 0.039311 0.0393102 0.0393098 0.0393095 0.0393094 0.0393092 0.039309 0.039309 0.0393089 0.039309 0.0393089 0.0393087 0.0393087 0.0393087 0.0393086 0.0393083 0.0393082 0.0393083 0.0393082 0.039308 0.0393081 0.0393083 0.039308 0.039308 0.0393078 0.0393078 0.0393078 0.0393077 0.0393075 0.0393074 0.0393075 0.0393073 0.0393073 0.0393073 0.0393072 0.0393073 0.0393072 0.039307 0.0393068 0.0393069 0.039307 0.039307 0.0393069 0.0393068 0.0393069 0.0393068 0.0393066 0.0393066 0.0393067 0.0393068 0.0393067 0.0393067 0.0393069 0.0393065 0.0393067 0.0393065 0.0393063 0.0393062 0.0393342 0.0393293 0.0393247 0.0393211 0.0393182 0.0393162 0.039315 0.039314 0.0393134 0.039313 0.0393128 0.0393124 0.0393123 0.0393121 0.0393117 0.0393116 0.0393115 0.0393113 0.039311 0.0393107 0.0393108 0.0393105 0.0393102 0.0393101 0.0393102 0.0393099 0.0393096 0.0393097 0.0393093 0.0393094 0.0393092 0.039309 0.0393089 0.0393088 0.0393086 0.0393084 0.0393086 0.0393081 0.0393081 0.039308 0.0393079 0.0393078 0.0393075 0.0393076 0.0393073 0.0393074 0.0393072 0.0393074 0.0393073 0.0393071 0.0393071 0.039307 0.0393067 0.0393068 0.0393067 0.0393068 0.0393066 0.0393068 0.0393069 0.0393067 0.0393067 0.0393064 0.0393063 0.0393063 0.0393418 0.0393359 0.0393301 0.039326 0.0393227 0.0393204 0.0393189 0.0393178 0.039317 0.0393165 0.039316 0.0393156 0.0393153 0.0393149 0.0393145 0.0393143 0.0393141 0.0393137 0.0393134 0.039313 0.0393127 0.0393125 0.0393123 0.039312 0.0393119 0.0393118 0.0393114 0.0393112 0.0393109 0.0393108 0.0393104 0.0393102 0.0393099 0.0393098 0.0393097 0.0393094 0.0393094 0.0393092 0.039309 0.0393087 0.0393084 0.0393085 0.0393084 0.039308 0.0393079 0.0393079 0.0393076 0.0393076 0.0393076 0.0393075 0.0393074 0.0393074 0.0393072 0.0393071 0.039307 0.0393068 0.0393066 0.0393068 0.0393068 0.0393067 0.0393067 0.0393064 0.0393067 0.0393065 0.03935 0.0393413 0.0393355 0.0393303 0.0393269 0.0393245 0.0393228 0.0393215 0.0393205 0.0393198 0.0393191 0.0393187 0.0393183 0.0393176 0.0393171 0.0393169 0.0393166 0.0393161 0.0393157 0.0393152 0.0393148 0.0393145 0.0393143 0.0393139 0.0393136 0.0393133 0.039313 0.0393127 0.0393123 0.039312 0.0393116 0.0393114 0.039311 0.0393107 0.0393107 0.0393102 0.0393103 0.0393098 0.0393096 0.0393093 0.039309 0.039309 0.039309 0.0393087 0.0393084 0.0393084 0.0393081 0.039308 0.0393079 0.0393076 0.0393076 0.0393074 0.0393072 0.0393072 0.0393071 0.0393071 0.0393068 0.0393068 0.0393068 0.0393068 0.0393067 0.0393065 0.0393065 0.0393066 0.0393537 0.0393498 0.0393388 0.0393345 0.039331 0.0393285 0.0393267 0.0393254 0.0393243 0.0393234 0.0393225 0.0393219 0.0393215 0.0393207 0.03932 0.0393196 0.039319 0.0393186 0.0393181 0.0393176 0.0393172 0.0393169 0.0393163 0.0393158 0.0393156 0.0393151 0.0393145 0.0393144 0.0393138 0.0393134 0.0393131 0.0393126 0.0393122 0.0393119 0.0393116 0.0393111 0.0393111 0.0393106 0.0393106 0.0393102 0.0393098 0.0393096 0.0393094 0.0393092 0.0393088 0.0393087 0.0393085 0.0393085 0.0393082 0.0393078 0.0393077 0.0393078 0.0393075 0.0393075 0.0393072 0.0393072 0.039307 0.0393069 0.0393068 0.0393068 0.0393068 0.0393065 0.0393065 0.0393066 0.0393885 0.0393485 0.0393429 0.0393389 0.0393359 0.0393333 0.0393312 0.0393295 0.0393281 0.0393271 0.039326 0.0393253 0.0393246 0.0393237 0.0393231 0.0393225 0.0393219 0.0393213 0.0393207 0.03932 0.0393195 0.039319 0.0393183 0.0393178 0.0393174 0.0393168 0.0393162 0.0393159 0.0393152 0.0393148 0.0393144 0.0393138 0.0393135 0.0393131 0.0393127 0.0393123 0.0393119 0.0393114 0.0393113 0.0393109 0.0393106 0.0393103 0.0393099 0.0393095 0.0393091 0.0393092 0.0393088 0.0393088 0.0393085 0.0393082 0.039308 0.0393077 0.0393076 0.0393075 0.0393074 0.0393072 0.0393071 0.0393069 0.0393069 0.0393067 0.0393067 0.0393067 0.0393068 0.0393067 0.0391813 0.039236 0.0392523 0.0392608 0.0392656 0.0392691 0.0392717 0.0392737 0.0392756 0.0392771 0.0392785 0.0392795 0.0392809 0.0392822 0.0392832 0.0392842 0.039285 0.039286 0.039287 0.0392879 0.0392888 0.0392896 0.0392904 0.0392913 0.0392921 0.0392928 0.0392933 0.0392944 0.039295 0.0392955 0.0392962 0.039297 0.0392976 0.0392981 0.0392987 0.0392993 0.0392999 0.0393003 0.0393008 0.0393013 0.0393018 0.0393024 0.0393028 0.0393032 0.0393034 0.0393039 0.039304 0.0393047 0.0393049 0.0393052 0.0393055 0.0393057 0.0393058 0.0393061 0.0393064 0.0393065 0.0393064 0.0393068 0.0393069 0.0393068 0.0393069 0.0393068 0.0393067 0.0393069 0.0392454 0.0392366 0.0392518 0.0392606 0.0392667 0.039271 0.0392741 0.0392764 0.0392783 0.0392798 0.0392811 0.0392823 0.0392832 0.0392844 0.0392854 0.0392864 0.0392871 0.0392879 0.039289 0.0392896 0.0392904 0.0392912 0.0392921 0.0392928 0.0392936 0.0392941 0.0392947 0.0392955 0.0392959 0.0392967 0.0392973 0.0392978 0.0392984 0.0392991 0.0392997 0.0392998 0.0393004 0.0393009 0.0393015 0.0393017 0.039302 0.0393026 0.039303 0.0393035 0.0393038 0.039304 0.0393043 0.0393048 0.0393049 0.0393052 0.0393055 0.0393058 0.039306 0.0393061 0.0393062 0.0393063 0.0393065 0.0393067 0.0393068 0.0393068 0.0393069 0.0393066 0.0393066 0.039307 0.0392533 0.0392551 0.0392582 0.039265 0.0392702 0.0392739 0.0392769 0.0392793 0.0392812 0.0392828 0.0392839 0.0392848 0.0392858 0.0392868 0.0392875 0.0392885 0.0392892 0.0392899 0.0392909 0.0392915 0.0392921 0.039293 0.0392936 0.0392943 0.0392949 0.0392954 0.0392959 0.0392967 0.0392971 0.0392979 0.0392984 0.0392988 0.0392993 0.0392998 0.0393002 0.0393006 0.0393012 0.0393014 0.039302 0.0393023 0.0393026 0.0393029 0.0393032 0.0393038 0.0393039 0.0393043 0.0393045 0.039305 0.039305 0.0393052 0.0393055 0.0393058 0.0393059 0.0393062 0.0393061 0.0393062 0.0393063 0.0393065 0.0393067 0.0393065 0.0393067 0.0393067 0.0393068 0.0393071 0.0392652 0.0392646 0.0392675 0.0392709 0.0392748 0.0392779 0.0392806 0.0392824 0.0392842 0.0392857 0.0392865 0.0392875 0.0392887 0.0392893 0.03929 0.0392907 0.0392914 0.0392921 0.0392927 0.0392934 0.039294 0.0392946 0.0392951 0.0392958 0.0392964 0.0392969 0.0392975 0.039298 0.0392983 0.0392991 0.0392995 0.0392998 0.0393002 0.0393005 0.039301 0.0393014 0.039302 0.0393022 0.0393026 0.0393027 0.0393032 0.0393034 0.0393036 0.0393041 0.0393043 0.0393048 0.0393046 0.0393051 0.0393053 0.0393054 0.0393056 0.0393059 0.0393058 0.0393061 0.0393063 0.0393066 0.0393063 0.0393064 0.0393066 0.0393065 0.0393066 0.0393068 0.0393068 0.039307 0.0392746 0.0392742 0.0392756 0.0392778 0.0392802 0.0392826 0.0392845 0.0392862 0.0392875 0.0392885 0.0392896 0.0392906 0.0392912 0.0392919 0.0392926 0.0392931 0.0392938 0.0392942 0.0392947 0.0392954 0.0392959 0.0392964 0.0392969 0.0392976 0.039298 0.0392983 0.0392989 0.0392994 0.0392994 0.0393001 0.0393005 0.0393008 0.0393012 0.0393013 0.0393018 0.0393021 0.0393026 0.0393027 0.0393032 0.0393034 0.0393036 0.039304 0.0393042 0.0393044 0.0393046 0.0393048 0.039305 0.0393053 0.0393054 0.0393055 0.0393056 0.0393058 0.0393059 0.0393059 0.0393063 0.0393066 0.0393064 0.0393063 0.0393066 0.0393068 0.0393067 0.0393064 0.0393066 0.0393068 0.0392838 0.039283 0.0392834 0.0392846 0.039286 0.0392876 0.0392889 0.0392901 0.0392911 0.0392919 0.0392928 0.0392934 0.039294 0.0392946 0.0392951 0.0392957 0.0392961 0.0392965 0.0392971 0.0392975 0.0392979 0.0392984 0.0392988 0.0392992 0.0392997 0.0392999 0.0393002 0.0393008 0.0393009 0.0393012 0.0393016 0.0393019 0.0393022 0.0393023 0.0393027 0.0393029 0.0393033 0.0393034 0.0393037 0.0393041 0.039304 0.0393042 0.0393046 0.0393047 0.0393048 0.0393052 0.0393054 0.0393057 0.0393057 0.0393056 0.0393057 0.039306 0.039306 0.0393059 0.0393062 0.0393063 0.0393062 0.0393066 0.0393065 0.0393066 0.0393068 0.0393065 0.0393068 0.0393069 0.0392927 0.0392914 0.0392912 0.0392913 0.0392919 0.0392926 0.0392935 0.0392943 0.0392949 0.0392955 0.0392959 0.0392965 0.039297 0.0392975 0.0392978 0.0392984 0.0392986 0.039299 0.0392995 0.0392997 0.0392999 0.0393004 0.0393007 0.0393008 0.0393014 0.0393016 0.0393018 0.0393021 0.0393023 0.0393025 0.0393025 0.0393029 0.0393032 0.0393033 0.0393035 0.0393037 0.039304 0.0393042 0.0393047 0.0393046 0.0393046 0.0393048 0.039305 0.0393052 0.0393054 0.0393056 0.0393056 0.0393057 0.0393059 0.0393058 0.039306 0.0393062 0.0393062 0.0393062 0.0393064 0.0393064 0.0393064 0.0393064 0.0393067 0.0393067 0.0393069 0.0393067 0.0393068 0.0393069 0.0393014 0.0392998 0.0392987 0.0392979 0.0392976 0.0392976 0.0392978 0.0392982 0.0392985 0.0392988 0.0392992 0.0392996 0.0393001 0.0393002 0.0393006 0.0393008 0.0393013 0.0393016 0.0393016 0.0393017 0.039302 0.0393022 0.0393024 0.0393028 0.039303 0.0393031 0.0393033 0.0393036 0.0393037 0.0393037 0.039304 0.0393041 0.0393043 0.0393042 0.0393045 0.0393045 0.039305 0.0393049 0.039305 0.0393051 0.0393052 0.0393055 0.0393056 0.0393058 0.0393058 0.039306 0.0393059 0.0393058 0.0393059 0.0393061 0.0393061 0.0393061 0.0393064 0.0393063 0.0393063 0.0393067 0.0393065 0.0393063 0.0393068 0.0393067 0.0393066 0.0393065 0.0393066 0.0393067 0.03931 0.0393075 0.0393057 0.0393043 0.0393032 0.0393027 0.0393023 0.0393022 0.0393023 0.0393025 0.0393027 0.0393027 0.039303 0.0393032 0.0393035 0.0393036 0.0393038 0.0393038 0.0393039 0.0393041 0.0393042 0.0393042 0.0393043 0.0393047 0.0393047 0.0393046 0.0393048 0.039305 0.0393051 0.0393052 0.0393052 0.0393054 0.0393055 0.0393056 0.0393056 0.0393054 0.0393059 0.0393058 0.0393057 0.0393058 0.0393059 0.0393061 0.039306 0.0393061 0.0393061 0.0393063 0.0393061 0.0393063 0.0393062 0.0393064 0.0393063 0.0393063 0.0393065 0.0393065 0.0393066 0.0393066 0.0393065 0.0393066 0.0393069 0.0393066 0.0393067 0.0393066 0.0393065 0.0393066 0.0393183 0.0393151 0.0393124 0.0393102 0.0393086 0.0393076 0.0393068 0.0393064 0.0393063 0.0393061 0.039306 0.039306 0.039306 0.039306 0.0393061 0.0393062 0.0393062 0.0393061 0.0393062 0.0393062 0.0393062 0.0393063 0.0393066 0.0393065 0.0393064 0.0393065 0.0393064 0.0393064 0.0393064 0.0393066 0.0393065 0.0393066 0.0393064 0.0393067 0.0393067 0.0393065 0.0393066 0.0393065 0.0393066 0.0393065 0.0393065 0.0393065 0.0393067 0.0393066 0.0393064 0.0393068 0.0393066 0.0393068 0.0393067 0.0393067 0.0393064 0.0393066 0.0393065 0.0393065 0.0393067 0.0393067 0.0393066 0.0393067 0.0393068 0.0393066 0.0393067 0.0393065 0.0393064 0.0393064 0.0393265 0.0393223 0.0393187 0.0393159 0.0393139 0.0393123 0.039311 0.0393104 0.03931 0.0393097 0.0393094 0.0393093 0.0393091 0.039309 0.039309 0.0393089 0.0393088 0.0393086 0.0393085 0.0393084 0.0393085 0.0393084 0.0393084 0.0393082 0.0393084 0.0393082 0.039308 0.0393081 0.0393078 0.0393078 0.0393078 0.0393078 0.0393075 0.0393075 0.0393077 0.0393075 0.0393075 0.0393074 0.0393074 0.0393073 0.0393073 0.0393071 0.0393071 0.0393071 0.039307 0.0393072 0.0393069 0.039307 0.0393071 0.0393069 0.0393069 0.0393069 0.0393066 0.0393066 0.0393069 0.0393069 0.0393066 0.0393066 0.0393067 0.0393067 0.0393068 0.0393066 0.0393064 0.0393064 0.0393345 0.0393292 0.0393249 0.0393212 0.0393187 0.0393168 0.0393153 0.0393143 0.0393136 0.039313 0.0393127 0.0393124 0.0393121 0.0393119 0.0393117 0.0393115 0.0393113 0.0393111 0.0393109 0.0393108 0.0393107 0.0393104 0.0393103 0.0393101 0.03931 0.0393098 0.0393095 0.0393096 0.0393094 0.0393092 0.039309 0.039309 0.0393089 0.0393087 0.0393086 0.0393085 0.0393084 0.0393081 0.0393081 0.0393079 0.039308 0.0393079 0.0393078 0.0393077 0.0393076 0.0393075 0.0393073 0.0393073 0.0393073 0.039307 0.0393073 0.0393071 0.0393067 0.039307 0.039307 0.0393068 0.0393067 0.0393067 0.0393068 0.0393067 0.0393069 0.0393065 0.0393064 0.0393064 0.0393422 0.0393357 0.0393304 0.0393263 0.0393232 0.0393212 0.0393195 0.0393183 0.0393174 0.0393166 0.0393161 0.0393156 0.0393152 0.0393148 0.0393144 0.0393141 0.0393141 0.0393136 0.0393132 0.0393132 0.039313 0.0393127 0.0393124 0.0393122 0.0393118 0.0393115 0.0393112 0.0393111 0.0393109 0.0393107 0.0393103 0.0393102 0.0393102 0.0393097 0.0393095 0.0393093 0.0393094 0.039309 0.0393091 0.0393088 0.0393088 0.0393086 0.0393082 0.0393083 0.0393081 0.039308 0.0393077 0.0393076 0.0393076 0.0393073 0.0393074 0.0393073 0.039307 0.039307 0.0393071 0.039307 0.0393069 0.0393068 0.039307 0.0393069 0.0393067 0.0393065 0.0393065 0.0393066 0.0393506 0.0393412 0.0393356 0.0393306 0.0393275 0.0393251 0.0393234 0.0393221 0.0393211 0.0393202 0.0393194 0.0393187 0.0393181 0.0393177 0.0393173 0.0393168 0.0393165 0.039316 0.0393157 0.0393152 0.0393149 0.0393146 0.0393141 0.0393139 0.0393136 0.0393132 0.0393128 0.0393126 0.0393121 0.0393121 0.0393117 0.0393114 0.0393112 0.0393109 0.0393106 0.0393103 0.0393102 0.0393099 0.0393095 0.0393095 0.0393094 0.0393091 0.0393087 0.0393087 0.0393085 0.0393083 0.0393081 0.039308 0.0393077 0.039308 0.0393075 0.0393075 0.0393072 0.039307 0.0393073 0.0393073 0.0393069 0.039307 0.0393068 0.0393067 0.0393067 0.0393066 0.0393064 0.0393066 0.0393541 0.0393497 0.0393388 0.0393345 0.0393315 0.0393295 0.0393277 0.039326 0.0393248 0.0393237 0.0393228 0.039322 0.0393213 0.0393206 0.0393202 0.0393196 0.0393192 0.0393186 0.0393182 0.0393177 0.0393172 0.0393168 0.0393162 0.0393157 0.0393154 0.039315 0.0393145 0.0393142 0.0393137 0.0393135 0.0393129 0.0393127 0.0393123 0.0393118 0.0393116 0.0393112 0.0393111 0.0393108 0.0393105 0.0393102 0.03931 0.0393096 0.0393093 0.0393092 0.0393089 0.0393088 0.0393085 0.0393083 0.0393083 0.0393081 0.0393077 0.0393077 0.0393073 0.0393074 0.0393073 0.0393072 0.0393069 0.0393068 0.0393068 0.0393068 0.0393069 0.0393067 0.0393067 0.0393067 0.0393909 0.0393474 0.0393424 0.0393391 0.0393364 0.0393341 0.039332 0.0393301 0.0393287 0.0393273 0.0393262 0.0393253 0.0393245 0.0393238 0.039323 0.0393223 0.0393217 0.0393211 0.0393205 0.03932 0.0393194 0.0393189 0.0393182 0.0393177 0.0393173 0.0393168 0.0393162 0.0393157 0.0393153 0.0393148 0.0393143 0.039314 0.0393136 0.039313 0.0393127 0.0393122 0.039312 0.0393115 0.0393112 0.0393111 0.0393106 0.0393102 0.0393098 0.0393097 0.0393094 0.0393093 0.0393088 0.0393088 0.0393087 0.0393084 0.0393079 0.0393077 0.0393076 0.0393075 0.0393074 0.0393073 0.0393069 0.0393068 0.039307 0.0393069 0.0393069 0.0393066 0.0393065 0.0393068 0.0391777 0.0392349 0.0392518 0.0392602 0.0392648 0.0392681 0.0392707 0.0392728 0.0392746 0.0392763 0.0392779 0.0392794 0.0392806 0.0392816 0.0392828 0.0392839 0.0392849 0.0392858 0.039287 0.0392877 0.0392886 0.0392895 0.0392903 0.0392912 0.0392921 0.0392927 0.0392935 0.0392943 0.0392948 0.0392956 0.0392962 0.039297 0.0392977 0.0392981 0.0392988 0.0392992 0.0392999 0.0393003 0.0393011 0.0393015 0.039302 0.0393025 0.0393028 0.0393032 0.0393035 0.039304 0.0393043 0.0393046 0.0393051 0.0393053 0.0393055 0.039306 0.039306 0.0393063 0.0393065 0.0393068 0.0393068 0.0393066 0.039307 0.039307 0.0393071 0.039307 0.0393069 0.0393069 0.039245 0.0392354 0.0392513 0.03926 0.039266 0.0392703 0.0392732 0.0392756 0.0392776 0.0392792 0.0392806 0.039282 0.0392831 0.039284 0.0392851 0.039286 0.039287 0.039288 0.0392888 0.0392898 0.0392906 0.0392912 0.039292 0.0392926 0.0392935 0.0392941 0.0392947 0.0392956 0.0392962 0.0392966 0.0392973 0.039298 0.0392986 0.0392991 0.0392995 0.0393 0.0393006 0.0393007 0.0393016 0.039302 0.0393024 0.0393028 0.0393031 0.0393034 0.0393037 0.0393042 0.0393044 0.0393046 0.0393051 0.0393053 0.0393055 0.0393059 0.0393058 0.0393061 0.0393063 0.0393065 0.0393065 0.0393065 0.0393067 0.0393066 0.039307 0.039307 0.039307 0.0393071 0.0392527 0.0392543 0.0392574 0.0392643 0.0392695 0.0392736 0.0392765 0.0392787 0.0392807 0.0392821 0.0392834 0.0392848 0.0392858 0.0392866 0.0392876 0.0392884 0.0392892 0.03929 0.0392908 0.0392916 0.0392923 0.0392931 0.0392936 0.0392942 0.0392949 0.0392955 0.039296 0.0392969 0.0392973 0.0392979 0.0392983 0.0392989 0.0392993 0.0392999 0.0393003 0.0393007 0.0393012 0.0393015 0.0393021 0.0393024 0.0393028 0.0393033 0.0393035 0.0393038 0.0393039 0.0393043 0.0393044 0.0393049 0.0393051 0.0393054 0.0393056 0.039306 0.0393059 0.0393061 0.0393063 0.0393064 0.0393065 0.0393064 0.0393067 0.0393066 0.0393068 0.0393068 0.0393069 0.0393071 0.0392647 0.0392641 0.039267 0.0392704 0.0392744 0.0392776 0.0392801 0.0392822 0.0392839 0.0392852 0.0392864 0.0392875 0.0392886 0.0392893 0.0392899 0.0392909 0.0392916 0.0392921 0.0392928 0.0392935 0.0392941 0.0392947 0.0392953 0.0392958 0.0392964 0.0392969 0.0392974 0.0392981 0.0392985 0.0392989 0.0392995 0.0393 0.0393003 0.0393007 0.0393011 0.0393014 0.0393019 0.0393021 0.0393025 0.0393028 0.0393032 0.0393035 0.0393037 0.0393039 0.0393041 0.0393046 0.0393048 0.039305 0.0393052 0.0393054 0.0393056 0.0393059 0.039306 0.0393061 0.0393062 0.0393064 0.0393063 0.0393065 0.0393067 0.0393067 0.0393068 0.0393067 0.0393068 0.039307 0.0392743 0.039274 0.0392753 0.0392774 0.0392799 0.0392821 0.0392842 0.0392859 0.0392873 0.0392885 0.0392894 0.0392902 0.0392911 0.0392918 0.0392925 0.0392931 0.0392937 0.0392944 0.039295 0.0392955 0.0392961 0.0392967 0.0392971 0.0392975 0.039298 0.0392984 0.0392987 0.0392992 0.0392996 0.0393002 0.0393006 0.0393009 0.0393013 0.0393015 0.0393018 0.0393021 0.0393028 0.0393029 0.0393031 0.0393034 0.0393036 0.0393038 0.0393041 0.0393042 0.0393045 0.0393049 0.0393051 0.0393053 0.0393055 0.0393055 0.0393058 0.0393058 0.0393058 0.0393061 0.0393063 0.0393064 0.0393063 0.0393065 0.0393066 0.0393064 0.0393067 0.0393067 0.0393068 0.039307 0.0392837 0.0392829 0.0392832 0.0392844 0.0392857 0.0392869 0.0392886 0.0392898 0.0392909 0.0392918 0.0392926 0.0392933 0.0392942 0.0392946 0.0392951 0.0392956 0.0392961 0.0392968 0.0392971 0.0392976 0.0392981 0.0392985 0.039299 0.0392993 0.0392997 0.0393001 0.0393002 0.0393007 0.039301 0.0393013 0.0393016 0.039302 0.0393024 0.0393024 0.0393028 0.0393029 0.0393035 0.0393035 0.0393039 0.039304 0.0393042 0.0393044 0.0393046 0.0393048 0.0393049 0.0393052 0.0393053 0.0393053 0.0393054 0.0393058 0.0393059 0.0393061 0.0393061 0.0393061 0.0393064 0.0393065 0.0393064 0.0393064 0.0393065 0.0393065 0.0393068 0.0393067 0.0393065 0.0393067 0.0392929 0.0392915 0.039291 0.0392912 0.0392915 0.0392922 0.0392931 0.0392938 0.0392946 0.0392954 0.0392959 0.0392965 0.039297 0.0392974 0.0392979 0.0392983 0.0392988 0.0392989 0.0392992 0.0392998 0.0393001 0.0393003 0.0393006 0.0393011 0.0393013 0.0393015 0.0393016 0.0393022 0.0393024 0.0393025 0.0393029 0.0393032 0.0393034 0.0393036 0.0393037 0.0393038 0.0393042 0.0393042 0.0393044 0.0393046 0.0393047 0.0393049 0.0393051 0.0393054 0.0393053 0.0393055 0.0393056 0.0393057 0.0393059 0.039306 0.0393061 0.0393063 0.039306 0.0393062 0.0393064 0.0393064 0.0393065 0.0393066 0.0393066 0.0393067 0.0393067 0.0393066 0.0393065 0.0393068 0.0393014 0.0392996 0.0392985 0.0392979 0.0392975 0.0392975 0.0392978 0.039298 0.0392985 0.0392989 0.0392991 0.0392996 0.0393 0.0393002 0.0393006 0.039301 0.0393012 0.0393012 0.0393015 0.039302 0.0393022 0.0393024 0.0393025 0.0393026 0.039303 0.0393031 0.0393032 0.0393036 0.0393036 0.039304 0.0393041 0.0393042 0.0393044 0.0393045 0.0393048 0.0393048 0.0393048 0.039305 0.0393053 0.0393053 0.0393053 0.0393055 0.0393057 0.0393058 0.0393058 0.039306 0.0393059 0.0393061 0.0393063 0.0393061 0.0393063 0.0393064 0.0393064 0.0393065 0.0393066 0.0393065 0.0393064 0.0393065 0.0393068 0.0393066 0.0393067 0.0393064 0.0393065 0.0393067 0.03931 0.0393074 0.0393055 0.0393041 0.0393031 0.0393024 0.0393023 0.0393024 0.0393024 0.0393025 0.0393026 0.0393028 0.0393032 0.0393032 0.0393032 0.0393036 0.0393038 0.0393038 0.0393039 0.0393041 0.0393042 0.0393043 0.0393043 0.0393044 0.0393048 0.0393051 0.0393049 0.039305 0.0393051 0.0393053 0.0393054 0.0393052 0.0393054 0.0393054 0.0393057 0.0393057 0.0393056 0.0393057 0.0393059 0.0393059 0.0393061 0.039306 0.0393061 0.0393062 0.0393062 0.0393063 0.0393063 0.0393067 0.0393065 0.0393063 0.0393065 0.0393065 0.0393065 0.0393066 0.0393067 0.0393067 0.0393066 0.0393065 0.0393067 0.0393066 0.0393066 0.0393065 0.0393065 0.0393064 0.0393186 0.0393153 0.0393124 0.0393102 0.0393087 0.0393076 0.0393069 0.0393064 0.0393062 0.039306 0.039306 0.0393061 0.0393063 0.0393062 0.0393062 0.0393061 0.0393063 0.0393063 0.0393063 0.0393064 0.0393064 0.0393065 0.0393064 0.0393064 0.0393067 0.0393066 0.0393064 0.0393065 0.0393065 0.0393066 0.0393065 0.0393065 0.0393065 0.0393066 0.0393065 0.0393065 0.0393066 0.0393065 0.0393067 0.0393068 0.0393068 0.0393067 0.0393067 0.0393068 0.0393068 0.0393067 0.0393067 0.0393069 0.0393067 0.0393065 0.0393067 0.0393067 0.0393067 0.0393067 0.0393068 0.0393066 0.0393067 0.0393066 0.0393067 0.0393066 0.0393066 0.0393065 0.0393064 0.0393064 0.0393266 0.0393224 0.0393188 0.0393161 0.0393139 0.0393124 0.0393115 0.0393106 0.0393101 0.0393096 0.0393093 0.0393093 0.0393093 0.039309 0.039309 0.0393088 0.0393086 0.0393086 0.0393088 0.0393087 0.0393085 0.0393085 0.0393083 0.0393081 0.0393083 0.0393082 0.0393081 0.0393081 0.0393078 0.0393078 0.0393078 0.0393079 0.0393078 0.0393077 0.0393076 0.0393073 0.0393075 0.0393075 0.0393073 0.0393074 0.0393074 0.0393074 0.0393072 0.0393072 0.0393072 0.0393071 0.039307 0.0393071 0.0393069 0.0393067 0.0393068 0.0393069 0.0393067 0.0393069 0.0393067 0.0393068 0.0393067 0.0393069 0.0393069 0.0393067 0.0393067 0.0393064 0.0393064 0.0393064 0.0393349 0.0393292 0.0393248 0.0393215 0.0393189 0.039317 0.0393157 0.0393148 0.039314 0.0393134 0.039313 0.0393126 0.0393122 0.0393119 0.0393118 0.0393117 0.0393112 0.039311 0.0393111 0.0393109 0.0393105 0.0393104 0.0393105 0.0393103 0.0393101 0.03931 0.0393098 0.0393096 0.0393093 0.0393092 0.0393092 0.0393091 0.039309 0.0393087 0.0393087 0.0393085 0.0393085 0.0393082 0.0393082 0.0393081 0.039308 0.0393079 0.0393075 0.0393077 0.0393076 0.0393074 0.0393074 0.0393074 0.0393073 0.0393071 0.0393073 0.0393071 0.0393068 0.0393068 0.0393068 0.039307 0.039307 0.0393068 0.0393068 0.0393066 0.0393067 0.0393065 0.0393066 0.0393064 0.0393424 0.0393359 0.0393304 0.0393265 0.0393235 0.0393214 0.0393199 0.0393186 0.0393177 0.039317 0.0393164 0.0393157 0.0393153 0.0393148 0.0393145 0.0393144 0.0393139 0.0393137 0.0393134 0.0393132 0.0393129 0.0393125 0.0393124 0.0393122 0.0393118 0.0393115 0.0393112 0.0393109 0.0393108 0.0393108 0.0393104 0.0393102 0.0393099 0.0393097 0.0393097 0.0393094 0.0393094 0.0393091 0.039309 0.0393089 0.0393088 0.0393085 0.0393083 0.0393084 0.0393081 0.0393081 0.039308 0.0393078 0.0393078 0.0393074 0.0393074 0.0393074 0.0393072 0.039307 0.0393071 0.0393071 0.0393068 0.0393068 0.0393069 0.0393068 0.0393069 0.0393067 0.0393064 0.0393064 0.0393507 0.039341 0.0393358 0.0393309 0.0393278 0.0393256 0.0393239 0.0393224 0.0393214 0.0393205 0.0393199 0.039319 0.0393183 0.0393178 0.0393173 0.0393169 0.0393166 0.039316 0.0393157 0.0393155 0.0393151 0.0393146 0.0393143 0.0393139 0.0393134 0.0393131 0.0393129 0.0393125 0.0393121 0.0393121 0.0393119 0.0393116 0.0393111 0.0393109 0.0393107 0.0393103 0.0393102 0.0393098 0.0393098 0.0393096 0.0393093 0.0393091 0.0393089 0.0393088 0.0393086 0.0393086 0.0393081 0.039308 0.039308 0.0393076 0.0393076 0.0393077 0.0393074 0.0393073 0.0393072 0.0393071 0.039307 0.0393069 0.039307 0.0393068 0.0393068 0.0393066 0.0393066 0.0393065 0.0393546 0.0393501 0.0393387 0.0393349 0.039332 0.0393297 0.0393279 0.0393265 0.0393251 0.039324 0.0393232 0.0393221 0.0393212 0.0393208 0.0393202 0.0393196 0.0393191 0.0393184 0.0393182 0.0393177 0.0393171 0.0393167 0.0393164 0.0393158 0.0393154 0.039315 0.0393144 0.039314 0.0393135 0.0393133 0.0393131 0.0393126 0.0393123 0.0393119 0.0393116 0.0393114 0.0393111 0.0393107 0.0393105 0.0393103 0.0393099 0.0393097 0.0393095 0.0393092 0.0393089 0.0393088 0.0393085 0.0393086 0.0393081 0.039308 0.039308 0.0393079 0.0393075 0.0393074 0.0393072 0.0393071 0.0393071 0.0393069 0.0393071 0.0393069 0.0393068 0.0393066 0.0393067 0.0393067 0.0393927 0.0393474 0.0393423 0.0393392 0.0393367 0.0393344 0.0393325 0.0393306 0.039329 0.0393276 0.0393266 0.0393255 0.0393246 0.0393238 0.039323 0.0393223 0.0393215 0.0393209 0.0393206 0.03932 0.0393194 0.0393186 0.0393182 0.0393178 0.0393173 0.0393167 0.0393159 0.0393158 0.0393152 0.0393148 0.0393142 0.0393138 0.0393134 0.0393131 0.0393127 0.0393123 0.039312 0.0393116 0.0393113 0.039311 0.0393106 0.0393103 0.03931 0.0393098 0.0393093 0.0393091 0.039309 0.0393088 0.0393084 0.0393083 0.0393081 0.0393078 0.0393076 0.0393073 0.0393072 0.0393072 0.0393071 0.039307 0.0393071 0.0393068 0.0393069 0.0393069 0.0393068 0.0393069 0.0391751 0.0392341 0.0392515 0.0392599 0.0392647 0.0392678 0.0392701 0.0392723 0.0392742 0.0392759 0.0392776 0.0392788 0.0392803 0.0392815 0.0392825 0.0392835 0.0392847 0.0392857 0.0392865 0.0392876 0.0392885 0.0392895 0.0392903 0.039291 0.0392919 0.0392925 0.0392933 0.0392942 0.0392949 0.0392957 0.0392963 0.039297 0.0392977 0.0392984 0.0392989 0.0392993 0.0393002 0.0393003 0.0393008 0.0393013 0.0393018 0.0393022 0.0393028 0.0393032 0.0393034 0.0393041 0.0393043 0.0393045 0.039305 0.0393053 0.0393055 0.0393058 0.039306 0.0393064 0.0393066 0.0393067 0.0393066 0.0393068 0.039307 0.039307 0.0393071 0.0393069 0.0393069 0.039307 0.0392445 0.0392346 0.0392507 0.0392597 0.0392656 0.0392696 0.0392729 0.0392753 0.0392772 0.0392788 0.0392805 0.0392818 0.0392831 0.0392841 0.0392852 0.0392861 0.0392871 0.0392878 0.0392887 0.0392897 0.0392905 0.0392911 0.0392919 0.0392927 0.0392934 0.0392941 0.0392948 0.0392954 0.0392959 0.0392968 0.0392974 0.039298 0.0392985 0.039299 0.0392996 0.0393001 0.0393006 0.0393009 0.0393013 0.0393017 0.0393022 0.0393028 0.039303 0.0393035 0.0393036 0.0393043 0.0393045 0.0393048 0.0393051 0.0393052 0.0393054 0.0393057 0.0393061 0.0393064 0.0393065 0.0393066 0.0393066 0.0393066 0.0393068 0.0393069 0.0393068 0.0393068 0.0393069 0.0393072 0.0392524 0.0392543 0.0392572 0.0392639 0.0392689 0.0392728 0.0392761 0.0392784 0.0392804 0.039282 0.0392833 0.0392845 0.0392856 0.0392866 0.0392876 0.0392884 0.0392894 0.0392901 0.0392909 0.0392916 0.0392924 0.039293 0.0392935 0.0392944 0.039295 0.0392956 0.0392961 0.0392967 0.0392971 0.0392978 0.0392983 0.0392989 0.0392996 0.0392999 0.0393005 0.0393007 0.0393012 0.0393014 0.0393021 0.0393025 0.0393028 0.0393032 0.0393035 0.0393037 0.0393039 0.0393044 0.0393046 0.0393049 0.0393052 0.0393053 0.0393055 0.0393057 0.0393059 0.0393061 0.0393064 0.0393065 0.0393064 0.0393065 0.0393068 0.0393066 0.0393069 0.0393068 0.0393069 0.039307 0.0392648 0.039264 0.0392667 0.0392701 0.0392739 0.0392771 0.0392798 0.0392819 0.0392835 0.0392852 0.0392863 0.0392874 0.0392884 0.0392892 0.0392901 0.0392909 0.0392915 0.0392922 0.039293 0.0392935 0.0392942 0.0392949 0.0392953 0.039296 0.0392964 0.039297 0.0392975 0.0392981 0.0392985 0.0392991 0.0392996 0.0392998 0.0393004 0.0393007 0.0393012 0.0393015 0.0393018 0.0393022 0.0393028 0.039303 0.0393033 0.0393037 0.0393039 0.0393042 0.0393043 0.0393047 0.0393048 0.0393052 0.0393056 0.0393055 0.0393057 0.0393061 0.0393059 0.0393061 0.0393064 0.0393062 0.0393063 0.0393065 0.0393068 0.0393066 0.0393068 0.0393068 0.0393067 0.0393069 0.0392742 0.0392739 0.0392752 0.0392772 0.0392796 0.0392819 0.0392838 0.0392855 0.039287 0.0392883 0.0392895 0.0392904 0.0392912 0.039292 0.0392925 0.0392932 0.0392939 0.0392943 0.0392949 0.0392955 0.0392961 0.0392966 0.039297 0.0392976 0.0392981 0.0392986 0.039299 0.0392994 0.0392996 0.0393002 0.0393006 0.0393007 0.0393011 0.0393015 0.0393021 0.0393023 0.0393027 0.0393029 0.0393031 0.0393034 0.039304 0.039304 0.0393044 0.0393047 0.0393048 0.0393052 0.0393051 0.0393054 0.0393056 0.0393056 0.0393057 0.039306 0.0393059 0.039306 0.0393065 0.0393064 0.0393064 0.0393065 0.0393067 0.0393067 0.0393067 0.0393066 0.0393067 0.0393069 0.0392836 0.0392828 0.0392832 0.0392841 0.0392856 0.0392871 0.0392883 0.0392895 0.0392906 0.0392916 0.0392926 0.0392934 0.039294 0.0392947 0.0392952 0.0392957 0.0392963 0.0392968 0.0392973 0.0392976 0.039298 0.0392985 0.0392988 0.0392992 0.0392996 0.0393002 0.0393004 0.0393007 0.0393009 0.0393013 0.0393018 0.0393021 0.0393023 0.0393026 0.039303 0.0393031 0.0393035 0.0393036 0.0393038 0.0393042 0.0393044 0.0393045 0.0393047 0.0393051 0.0393052 0.0393054 0.0393054 0.0393056 0.0393057 0.0393058 0.039306 0.0393062 0.039306 0.0393061 0.0393065 0.0393065 0.0393062 0.0393065 0.0393068 0.0393067 0.0393066 0.0393065 0.0393068 0.039307 0.0392926 0.0392913 0.0392909 0.039291 0.0392916 0.0392921 0.0392929 0.0392937 0.0392945 0.0392953 0.039296 0.0392965 0.0392969 0.0392973 0.0392978 0.0392981 0.0392985 0.0392991 0.0392995 0.0392997 0.0393 0.0393004 0.0393007 0.039301 0.0393013 0.0393016 0.0393018 0.0393022 0.0393023 0.0393025 0.0393029 0.0393031 0.0393033 0.0393037 0.039304 0.0393039 0.0393039 0.0393043 0.0393046 0.0393049 0.0393048 0.039305 0.0393052 0.0393055 0.0393055 0.0393057 0.0393057 0.0393058 0.039306 0.0393062 0.0393062 0.0393062 0.0393062 0.0393063 0.0393064 0.0393064 0.0393063 0.0393065 0.0393066 0.0393067 0.0393068 0.0393065 0.0393068 0.0393067 0.0393013 0.0392997 0.0392985 0.0392976 0.0392973 0.0392974 0.0392978 0.0392981 0.0392985 0.0392989 0.0392993 0.0392995 0.0392998 0.0393002 0.0393005 0.0393007 0.039301 0.0393014 0.0393017 0.0393018 0.039302 0.0393023 0.0393025 0.0393029 0.0393031 0.0393032 0.0393035 0.0393036 0.0393036 0.0393039 0.0393041 0.0393042 0.0393044 0.0393046 0.0393048 0.0393047 0.0393049 0.0393051 0.0393054 0.0393053 0.0393055 0.0393055 0.0393056 0.0393058 0.0393056 0.039306 0.039306 0.0393059 0.0393061 0.0393063 0.0393064 0.0393063 0.0393062 0.0393064 0.0393064 0.0393065 0.0393067 0.0393064 0.0393066 0.0393067 0.0393067 0.0393066 0.0393065 0.0393067 0.0393101 0.0393075 0.0393055 0.0393041 0.039303 0.0393026 0.0393024 0.0393023 0.0393024 0.0393027 0.0393028 0.0393028 0.039303 0.0393033 0.0393034 0.0393035 0.0393036 0.0393039 0.0393042 0.0393042 0.0393042 0.0393042 0.0393044 0.0393046 0.0393047 0.0393049 0.039305 0.0393052 0.039305 0.0393053 0.0393053 0.0393054 0.0393055 0.0393058 0.0393057 0.0393056 0.039306 0.0393057 0.039306 0.0393061 0.0393059 0.0393062 0.0393062 0.0393064 0.0393064 0.0393063 0.0393064 0.0393064 0.0393064 0.0393064 0.0393065 0.0393066 0.0393064 0.0393064 0.0393066 0.0393067 0.0393067 0.0393065 0.0393066 0.0393066 0.0393066 0.0393064 0.0393065 0.0393067 0.0393184 0.0393149 0.0393123 0.0393103 0.0393087 0.0393076 0.039307 0.0393065 0.0393062 0.0393064 0.0393063 0.0393061 0.0393062 0.0393063 0.0393063 0.0393063 0.0393063 0.0393061 0.0393063 0.0393065 0.0393064 0.0393064 0.0393065 0.0393065 0.0393065 0.0393066 0.0393065 0.0393067 0.0393065 0.0393065 0.0393065 0.0393067 0.0393066 0.0393067 0.0393067 0.0393067 0.0393068 0.0393066 0.0393068 0.0393068 0.0393066 0.0393067 0.0393068 0.0393066 0.0393067 0.0393069 0.0393066 0.0393067 0.0393067 0.0393067 0.0393066 0.0393069 0.0393067 0.0393064 0.0393069 0.0393069 0.0393067 0.0393066 0.0393066 0.0393065 0.0393065 0.0393063 0.0393064 0.0393065 0.0393266 0.0393223 0.0393189 0.0393159 0.0393139 0.0393126 0.0393115 0.0393107 0.0393101 0.0393099 0.0393095 0.0393093 0.0393091 0.0393091 0.039309 0.0393089 0.0393089 0.0393086 0.0393085 0.0393086 0.0393086 0.0393086 0.0393084 0.0393083 0.0393084 0.039308 0.039308 0.0393081 0.039308 0.0393079 0.0393077 0.0393076 0.0393077 0.0393077 0.0393076 0.0393076 0.0393076 0.0393074 0.0393073 0.0393074 0.0393074 0.0393072 0.0393072 0.0393072 0.039307 0.0393072 0.0393069 0.0393071 0.0393071 0.0393072 0.0393067 0.0393069 0.0393069 0.0393066 0.0393069 0.0393068 0.0393067 0.0393067 0.0393067 0.0393066 0.0393066 0.0393065 0.0393064 0.0393065 0.0393348 0.0393292 0.0393249 0.0393214 0.0393191 0.0393172 0.0393159 0.0393148 0.0393141 0.0393135 0.0393131 0.0393129 0.0393124 0.0393121 0.0393119 0.0393115 0.0393114 0.0393112 0.039311 0.039311 0.0393109 0.0393105 0.0393103 0.0393101 0.03931 0.0393098 0.0393096 0.0393096 0.0393094 0.0393094 0.0393091 0.039309 0.0393088 0.0393087 0.0393088 0.0393086 0.0393085 0.0393081 0.0393082 0.0393081 0.0393079 0.039308 0.0393079 0.0393077 0.0393076 0.0393076 0.0393072 0.0393075 0.0393074 0.0393073 0.0393072 0.0393071 0.039307 0.039307 0.0393071 0.0393069 0.0393068 0.0393069 0.0393068 0.0393066 0.0393068 0.0393067 0.0393066 0.0393066 0.0393427 0.0393359 0.0393304 0.0393266 0.0393236 0.0393216 0.0393201 0.0393187 0.0393179 0.0393171 0.0393166 0.0393159 0.0393155 0.0393152 0.0393147 0.0393141 0.0393139 0.0393137 0.0393135 0.0393132 0.0393128 0.0393126 0.0393124 0.0393121 0.0393118 0.0393116 0.0393113 0.0393112 0.0393109 0.0393106 0.0393104 0.0393103 0.0393101 0.03931 0.0393098 0.0393095 0.0393094 0.039309 0.039309 0.0393087 0.0393086 0.0393086 0.0393084 0.0393083 0.039308 0.039308 0.0393078 0.0393078 0.0393074 0.0393074 0.0393075 0.0393073 0.039307 0.0393071 0.0393072 0.0393071 0.039307 0.0393069 0.0393068 0.0393068 0.0393069 0.0393066 0.0393065 0.0393064 0.0393511 0.0393412 0.039336 0.0393308 0.0393279 0.0393258 0.039324 0.0393227 0.0393216 0.0393206 0.0393198 0.0393191 0.0393186 0.039318 0.0393175 0.0393169 0.0393164 0.039316 0.0393157 0.0393151 0.0393148 0.0393146 0.0393145 0.0393139 0.0393138 0.0393132 0.0393127 0.0393128 0.0393123 0.039312 0.0393118 0.0393114 0.0393112 0.0393111 0.0393107 0.0393105 0.0393103 0.03931 0.0393098 0.0393096 0.0393095 0.0393092 0.0393088 0.0393086 0.0393085 0.0393083 0.0393081 0.0393081 0.0393079 0.0393077 0.0393076 0.0393075 0.0393073 0.0393073 0.0393073 0.0393073 0.0393071 0.039307 0.039307 0.0393068 0.0393068 0.0393065 0.0393065 0.0393065 0.0393546 0.03935 0.0393384 0.0393346 0.0393321 0.0393301 0.0393283 0.0393267 0.0393255 0.0393243 0.0393232 0.0393224 0.0393218 0.0393209 0.0393203 0.0393196 0.039319 0.0393186 0.039318 0.0393174 0.0393173 0.0393167 0.0393163 0.0393159 0.0393155 0.0393149 0.0393145 0.0393143 0.0393138 0.0393134 0.039313 0.0393127 0.0393124 0.0393121 0.0393117 0.0393113 0.0393111 0.0393107 0.0393103 0.0393103 0.0393101 0.0393099 0.0393093 0.0393091 0.0393089 0.0393088 0.0393084 0.0393083 0.0393083 0.039308 0.0393078 0.0393077 0.0393076 0.0393074 0.0393075 0.0393072 0.0393072 0.039307 0.0393071 0.0393068 0.0393065 0.0393066 0.0393067 0.0393067 0.0393938 0.039347 0.0393419 0.039339 0.0393367 0.0393346 0.0393325 0.0393308 0.0393292 0.0393279 0.0393267 0.0393256 0.0393248 0.0393239 0.039323 0.0393224 0.0393217 0.0393211 0.0393203 0.0393198 0.0393194 0.0393188 0.0393182 0.0393176 0.0393172 0.0393167 0.0393161 0.0393158 0.0393152 0.0393148 0.0393144 0.039314 0.0393134 0.039313 0.0393126 0.0393122 0.0393119 0.0393115 0.0393113 0.039311 0.0393106 0.0393102 0.03931 0.0393097 0.0393094 0.0393094 0.039309 0.0393088 0.0393084 0.0393084 0.0393082 0.039308 0.0393077 0.0393076 0.0393075 0.0393075 0.0393072 0.0393069 0.0393072 0.0393068 0.0393067 0.0393066 0.0393068 0.039307 0.0391736 0.0392335 0.0392512 0.0392597 0.0392642 0.0392674 0.0392699 0.0392719 0.0392738 0.0392755 0.039277 0.0392785 0.0392799 0.0392811 0.0392823 0.0392835 0.0392845 0.0392855 0.0392865 0.0392874 0.0392884 0.0392892 0.03929 0.0392909 0.0392916 0.0392925 0.0392933 0.039294 0.0392945 0.0392954 0.039296 0.0392966 0.0392974 0.0392979 0.0392985 0.039299 0.0392997 0.0393002 0.0393009 0.0393012 0.0393016 0.0393024 0.0393027 0.0393029 0.0393033 0.0393039 0.0393042 0.0393047 0.0393048 0.0393051 0.0393054 0.0393056 0.0393057 0.039306 0.0393063 0.0393064 0.0393064 0.0393066 0.0393069 0.0393068 0.039307 0.0393067 0.0393067 0.0393066 0.039244 0.0392341 0.0392504 0.0392593 0.0392653 0.0392695 0.0392724 0.0392748 0.0392768 0.0392785 0.03928 0.0392813 0.0392826 0.0392837 0.0392849 0.0392857 0.0392866 0.0392876 0.0392886 0.0392893 0.0392902 0.039291 0.0392917 0.0392923 0.0392932 0.039294 0.0392943 0.0392952 0.0392958 0.0392964 0.039297 0.0392975 0.0392983 0.0392988 0.0392993 0.0392997 0.0393004 0.0393008 0.0393013 0.0393016 0.0393022 0.0393027 0.039303 0.0393033 0.0393035 0.0393039 0.0393043 0.0393046 0.0393049 0.039305 0.0393055 0.0393058 0.0393057 0.0393059 0.0393061 0.0393063 0.0393063 0.0393065 0.0393068 0.0393066 0.0393067 0.0393066 0.0393067 0.0393067 0.039252 0.0392538 0.0392568 0.0392636 0.0392687 0.0392727 0.0392756 0.0392778 0.03928 0.0392816 0.0392829 0.0392842 0.0392853 0.0392862 0.0392872 0.0392881 0.0392889 0.0392899 0.0392906 0.0392913 0.0392921 0.0392927 0.0392934 0.039294 0.0392946 0.0392953 0.0392957 0.0392965 0.039297 0.0392975 0.039298 0.0392984 0.039299 0.0392997 0.0393 0.0393005 0.0393012 0.0393014 0.0393017 0.0393021 0.0393026 0.0393029 0.0393034 0.0393037 0.0393039 0.0393043 0.0393044 0.0393046 0.0393049 0.0393049 0.0393054 0.0393055 0.0393056 0.0393059 0.039306 0.0393061 0.0393063 0.0393063 0.0393064 0.0393066 0.0393067 0.0393066 0.0393068 0.0393069 0.0392643 0.0392635 0.0392664 0.0392697 0.0392734 0.0392768 0.0392793 0.0392813 0.0392831 0.0392846 0.039286 0.039287 0.0392879 0.0392889 0.0392897 0.0392905 0.0392914 0.039292 0.0392927 0.0392933 0.039294 0.0392945 0.039295 0.0392955 0.0392963 0.0392967 0.039297 0.0392978 0.0392981 0.0392987 0.0392991 0.0392996 0.0393 0.0393004 0.039301 0.0393013 0.0393018 0.0393017 0.0393023 0.0393027 0.0393031 0.0393032 0.0393036 0.0393039 0.039304 0.0393047 0.0393047 0.0393049 0.0393049 0.0393051 0.0393053 0.0393055 0.0393056 0.0393059 0.0393061 0.0393062 0.0393062 0.0393062 0.0393065 0.0393066 0.0393067 0.0393066 0.0393067 0.0393069 0.0392741 0.0392736 0.0392746 0.0392767 0.0392789 0.0392814 0.0392836 0.0392852 0.0392866 0.039288 0.0392891 0.03929 0.0392909 0.0392916 0.0392924 0.039293 0.0392936 0.0392942 0.0392946 0.0392954 0.039296 0.0392963 0.0392968 0.0392972 0.0392978 0.0392983 0.0392984 0.0392993 0.0392994 0.0392998 0.0393002 0.0393007 0.0393011 0.0393013 0.0393016 0.0393022 0.0393024 0.0393026 0.039303 0.0393032 0.0393036 0.0393036 0.0393039 0.0393043 0.0393044 0.0393048 0.0393049 0.039305 0.0393053 0.0393054 0.0393054 0.0393058 0.0393057 0.0393058 0.0393061 0.0393062 0.0393064 0.0393065 0.0393066 0.0393063 0.0393066 0.0393065 0.0393065 0.0393069 0.0392834 0.0392826 0.0392829 0.0392838 0.039285 0.0392865 0.0392878 0.0392893 0.0392903 0.0392913 0.0392923 0.039293 0.0392937 0.0392943 0.039295 0.0392957 0.0392961 0.0392964 0.0392969 0.0392973 0.0392978 0.0392983 0.0392986 0.039299 0.0392993 0.0392998 0.0393001 0.0393005 0.0393006 0.0393012 0.0393013 0.0393017 0.039302 0.0393023 0.0393024 0.0393028 0.0393032 0.0393033 0.0393036 0.0393039 0.0393041 0.0393043 0.0393043 0.0393046 0.0393047 0.039305 0.0393051 0.0393052 0.0393054 0.0393055 0.0393056 0.0393058 0.0393058 0.0393058 0.039306 0.0393062 0.0393064 0.0393064 0.0393064 0.0393064 0.0393066 0.0393065 0.0393066 0.0393067 0.0392924 0.0392911 0.0392906 0.0392907 0.0392911 0.0392919 0.0392926 0.0392934 0.0392942 0.039295 0.0392957 0.0392961 0.0392967 0.0392972 0.0392976 0.0392982 0.0392986 0.0392988 0.0392992 0.0392995 0.0392998 0.0393002 0.0393004 0.0393008 0.0393012 0.0393012 0.0393015 0.039302 0.039302 0.0393024 0.0393025 0.0393029 0.039303 0.0393034 0.0393034 0.0393036 0.0393041 0.039304 0.0393043 0.0393043 0.0393048 0.039305 0.039305 0.0393051 0.0393051 0.0393054 0.0393053 0.0393056 0.0393056 0.0393058 0.039306 0.0393061 0.0393059 0.0393059 0.039306 0.0393061 0.0393062 0.0393064 0.0393066 0.0393065 0.0393065 0.0393063 0.0393064 0.0393066 0.0393012 0.0392993 0.039298 0.0392974 0.0392972 0.0392973 0.0392975 0.0392975 0.0392981 0.0392985 0.0392988 0.0392994 0.0392997 0.0392999 0.0393004 0.0393007 0.0393009 0.0393011 0.0393015 0.0393018 0.0393018 0.039302 0.0393023 0.0393024 0.0393027 0.0393028 0.039303 0.0393035 0.0393035 0.0393036 0.0393037 0.039304 0.0393042 0.0393043 0.0393046 0.0393046 0.0393049 0.0393049 0.0393048 0.039305 0.0393053 0.0393052 0.0393053 0.0393056 0.0393056 0.0393057 0.0393057 0.0393059 0.039306 0.039306 0.039306 0.0393063 0.039306 0.0393061 0.0393065 0.0393063 0.0393061 0.0393062 0.0393066 0.0393065 0.0393064 0.0393063 0.0393061 0.0393065 0.0393097 0.0393072 0.0393052 0.0393038 0.039303 0.0393025 0.0393022 0.0393021 0.039302 0.0393021 0.0393024 0.0393026 0.0393029 0.0393029 0.0393031 0.0393034 0.0393035 0.0393036 0.0393038 0.039304 0.0393041 0.0393041 0.0393043 0.0393045 0.0393045 0.0393047 0.0393046 0.0393048 0.0393048 0.0393049 0.039305 0.039305 0.0393053 0.0393053 0.0393053 0.0393055 0.0393058 0.0393057 0.0393057 0.0393057 0.0393058 0.0393058 0.0393058 0.039306 0.039306 0.0393062 0.0393061 0.039306 0.0393062 0.0393061 0.0393063 0.0393063 0.0393062 0.0393063 0.0393064 0.0393064 0.0393062 0.0393064 0.0393066 0.0393065 0.0393064 0.0393064 0.0393062 0.0393063 0.0393182 0.0393148 0.0393121 0.0393101 0.0393085 0.0393075 0.0393067 0.0393063 0.039306 0.0393058 0.0393059 0.0393058 0.0393059 0.0393059 0.0393059 0.0393059 0.0393059 0.0393061 0.0393062 0.0393062 0.0393061 0.0393063 0.0393062 0.0393062 0.0393064 0.0393064 0.0393062 0.0393064 0.0393061 0.0393063 0.0393064 0.0393063 0.0393065 0.0393064 0.0393064 0.0393063 0.0393065 0.0393063 0.0393064 0.0393064 0.0393065 0.0393064 0.0393064 0.0393066 0.0393065 0.0393064 0.0393062 0.0393064 0.0393065 0.0393066 0.0393067 0.0393064 0.0393062 0.0393066 0.0393064 0.0393066 0.0393065 0.0393063 0.0393065 0.0393065 0.0393064 0.0393062 0.0393062 0.0393064 0.0393266 0.039322 0.0393185 0.0393158 0.0393137 0.0393124 0.0393112 0.0393104 0.03931 0.0393095 0.0393093 0.0393091 0.0393091 0.0393088 0.0393086 0.0393086 0.0393084 0.0393084 0.0393085 0.0393085 0.0393083 0.0393083 0.0393081 0.039308 0.039308 0.039308 0.0393078 0.0393079 0.0393077 0.0393076 0.0393076 0.0393075 0.0393074 0.0393075 0.0393074 0.0393074 0.0393072 0.0393071 0.0393071 0.039307 0.0393071 0.0393071 0.0393069 0.039307 0.0393069 0.0393069 0.0393068 0.0393068 0.0393067 0.0393067 0.0393067 0.0393067 0.0393063 0.0393066 0.0393067 0.0393068 0.0393065 0.0393062 0.0393066 0.0393064 0.0393065 0.0393062 0.0393062 0.0393064 0.0393347 0.0393289 0.0393246 0.0393212 0.0393187 0.0393168 0.0393157 0.0393147 0.0393138 0.0393133 0.0393128 0.0393124 0.0393122 0.0393118 0.0393115 0.0393115 0.0393112 0.0393109 0.0393108 0.0393106 0.0393104 0.0393103 0.0393101 0.0393099 0.0393097 0.0393096 0.0393095 0.0393094 0.0393091 0.039309 0.0393088 0.0393087 0.0393086 0.0393086 0.0393083 0.0393082 0.0393082 0.039308 0.039308 0.0393076 0.0393077 0.0393076 0.0393075 0.0393074 0.0393072 0.0393072 0.0393072 0.0393071 0.039307 0.0393068 0.039307 0.0393069 0.0393066 0.0393066 0.0393068 0.0393067 0.0393064 0.0393064 0.0393067 0.0393066 0.0393064 0.0393064 0.0393063 0.0393063 0.0393424 0.0393356 0.0393302 0.0393264 0.0393235 0.0393214 0.03932 0.0393189 0.0393177 0.0393169 0.0393163 0.0393157 0.0393153 0.0393149 0.0393145 0.0393142 0.039314 0.0393135 0.0393132 0.039313 0.0393128 0.0393124 0.039312 0.0393119 0.0393115 0.0393113 0.039311 0.0393108 0.0393105 0.0393104 0.0393101 0.03931 0.0393099 0.0393097 0.0393096 0.0393092 0.0393091 0.0393088 0.0393088 0.0393087 0.0393085 0.0393082 0.0393081 0.039308 0.0393077 0.0393078 0.0393076 0.0393075 0.0393073 0.0393075 0.0393071 0.0393072 0.0393069 0.0393067 0.0393068 0.0393069 0.0393065 0.0393066 0.0393068 0.0393065 0.0393067 0.0393064 0.0393063 0.0393063 0.039351 0.0393408 0.0393354 0.0393306 0.0393278 0.0393256 0.0393239 0.0393225 0.0393214 0.0393206 0.0393197 0.0393189 0.0393183 0.0393178 0.0393174 0.0393168 0.0393164 0.0393159 0.0393156 0.0393152 0.0393147 0.0393144 0.039314 0.0393138 0.0393133 0.039313 0.0393127 0.0393124 0.039312 0.0393118 0.0393115 0.0393109 0.0393107 0.0393105 0.0393104 0.0393101 0.0393098 0.0393096 0.0393096 0.0393094 0.039309 0.0393088 0.0393086 0.0393085 0.0393083 0.0393081 0.039308 0.039308 0.0393076 0.0393074 0.0393074 0.0393074 0.039307 0.0393069 0.0393068 0.0393071 0.0393068 0.0393066 0.0393067 0.0393066 0.0393067 0.0393063 0.0393063 0.0393065 0.0393545 0.0393497 0.0393379 0.0393344 0.0393317 0.0393296 0.0393279 0.0393266 0.0393253 0.0393241 0.039323 0.0393221 0.0393212 0.0393206 0.0393202 0.0393196 0.039319 0.0393184 0.0393179 0.0393173 0.0393167 0.0393163 0.039316 0.0393156 0.039315 0.0393147 0.0393142 0.0393139 0.0393136 0.0393133 0.0393127 0.0393122 0.039312 0.0393117 0.0393112 0.039311 0.0393108 0.0393105 0.0393104 0.0393099 0.0393097 0.0393092 0.0393091 0.0393089 0.0393086 0.0393086 0.0393083 0.0393083 0.039308 0.0393077 0.0393077 0.0393076 0.0393073 0.0393071 0.039307 0.039307 0.0393068 0.0393066 0.0393067 0.0393066 0.0393067 0.0393066 0.0393064 0.0393065 0.0393942 0.0393465 0.0393413 0.0393384 0.0393363 0.0393342 0.0393323 0.0393305 0.0393289 0.0393276 0.0393264 0.0393253 0.0393244 0.0393237 0.0393228 0.0393223 0.0393215 0.0393207 0.0393203 0.0393195 0.0393189 0.0393183 0.0393178 0.0393175 0.0393168 0.0393163 0.0393158 0.0393155 0.039315 0.0393145 0.039314 0.0393136 0.0393131 0.0393127 0.0393123 0.0393119 0.0393118 0.0393111 0.0393111 0.0393107 0.0393102 0.0393099 0.0393097 0.0393097 0.039309 0.039309 0.0393087 0.0393084 0.0393082 0.039308 0.0393078 0.0393077 0.0393074 0.0393073 0.0393073 0.0393071 0.0393068 0.0393068 0.0393068 0.0393067 0.0393067 0.0393065 0.0393064 0.0393065 0.0391737 0.0392337 0.0392515 0.0392599 0.0392646 0.0392678 0.0392702 0.0392721 0.0392739 0.0392755 0.0392771 0.0392785 0.03928 0.0392812 0.0392823 0.0392834 0.0392847 0.0392855 0.0392866 0.0392875 0.0392882 0.0392892 0.0392901 0.039291 0.0392919 0.0392925 0.0392932 0.0392942 0.0392948 0.0392954 0.039296 0.0392967 0.0392974 0.039298 0.0392986 0.0392993 0.0392999 0.0393004 0.0393008 0.0393012 0.039302 0.0393023 0.0393027 0.0393033 0.0393035 0.0393039 0.0393039 0.0393045 0.039305 0.0393053 0.0393055 0.0393058 0.0393058 0.0393062 0.0393065 0.0393066 0.0393066 0.0393065 0.0393068 0.0393068 0.0393069 0.0393067 0.0393067 0.0393067 0.0392442 0.0392342 0.0392506 0.0392595 0.0392654 0.0392694 0.0392726 0.0392749 0.0392769 0.0392787 0.03928 0.0392815 0.0392826 0.0392838 0.0392849 0.0392858 0.0392867 0.0392876 0.0392885 0.0392894 0.0392901 0.039291 0.0392918 0.0392925 0.0392933 0.0392939 0.0392945 0.0392953 0.0392958 0.0392965 0.039297 0.0392978 0.0392983 0.0392988 0.0392994 0.0393 0.0393006 0.0393008 0.0393012 0.0393017 0.0393024 0.0393026 0.0393029 0.0393036 0.0393038 0.0393041 0.0393043 0.0393047 0.0393049 0.0393052 0.0393055 0.0393057 0.0393058 0.0393061 0.0393064 0.0393066 0.0393065 0.0393063 0.0393067 0.0393066 0.0393067 0.0393068 0.0393068 0.039307 0.0392522 0.0392541 0.039257 0.0392638 0.0392689 0.0392727 0.0392757 0.0392782 0.03928 0.0392816 0.0392831 0.0392843 0.0392853 0.0392863 0.0392873 0.0392882 0.0392889 0.0392898 0.0392906 0.0392915 0.0392921 0.0392927 0.0392934 0.0392941 0.0392948 0.0392954 0.039296 0.0392967 0.0392971 0.0392976 0.0392981 0.0392988 0.0392993 0.0392996 0.0393002 0.0393007 0.0393012 0.0393014 0.0393019 0.0393024 0.0393027 0.0393029 0.0393032 0.0393037 0.0393038 0.0393043 0.0393045 0.0393049 0.0393049 0.0393053 0.0393057 0.0393058 0.0393058 0.0393059 0.0393062 0.0393065 0.0393063 0.0393065 0.0393068 0.0393067 0.0393065 0.0393068 0.0393067 0.0393068 0.0392645 0.039264 0.0392667 0.0392698 0.0392738 0.0392769 0.0392795 0.0392816 0.0392832 0.0392846 0.0392861 0.0392871 0.039288 0.0392889 0.0392897 0.0392906 0.0392913 0.0392919 0.0392928 0.0392933 0.0392939 0.0392945 0.0392949 0.0392957 0.0392963 0.0392968 0.0392972 0.0392979 0.0392983 0.0392988 0.0392994 0.0392997 0.0393002 0.0393008 0.0393009 0.0393013 0.0393018 0.039302 0.0393023 0.0393026 0.0393032 0.0393035 0.0393037 0.0393041 0.0393042 0.0393045 0.0393045 0.0393049 0.039305 0.0393053 0.0393054 0.0393056 0.0393059 0.039306 0.0393062 0.0393063 0.0393062 0.0393063 0.0393066 0.0393065 0.0393067 0.0393067 0.0393068 0.0393068 0.0392741 0.0392739 0.0392749 0.039277 0.0392794 0.0392816 0.0392836 0.0392854 0.0392868 0.0392881 0.0392889 0.0392899 0.039291 0.0392916 0.0392922 0.039293 0.0392936 0.0392941 0.0392948 0.0392954 0.0392958 0.0392964 0.0392967 0.0392971 0.0392978 0.0392983 0.0392986 0.0392992 0.0392995 0.0392999 0.0393003 0.0393008 0.0393011 0.0393016 0.0393018 0.0393019 0.0393025 0.0393029 0.0393029 0.0393032 0.0393037 0.039304 0.039304 0.0393043 0.0393044 0.0393047 0.039305 0.0393052 0.0393053 0.0393055 0.0393056 0.0393058 0.039306 0.039306 0.0393062 0.0393062 0.0393061 0.0393062 0.0393066 0.0393065 0.0393067 0.0393067 0.0393066 0.0393068 0.0392835 0.0392827 0.039283 0.0392839 0.0392853 0.0392866 0.0392881 0.0392893 0.0392905 0.0392915 0.0392922 0.0392931 0.0392938 0.0392944 0.0392951 0.0392955 0.039296 0.0392965 0.039297 0.0392975 0.0392979 0.0392983 0.0392987 0.039299 0.0392993 0.0392999 0.0393001 0.0393006 0.0393008 0.0393012 0.0393014 0.0393019 0.0393021 0.0393024 0.0393029 0.0393029 0.0393033 0.0393034 0.0393036 0.0393038 0.0393041 0.0393044 0.0393046 0.0393049 0.0393048 0.039305 0.0393053 0.0393054 0.0393056 0.0393057 0.0393058 0.0393061 0.0393058 0.0393059 0.0393063 0.0393062 0.0393063 0.0393064 0.0393066 0.0393067 0.0393066 0.0393065 0.0393067 0.0393069 0.0392925 0.0392913 0.0392906 0.0392909 0.0392915 0.0392919 0.0392928 0.0392936 0.0392942 0.039295 0.0392957 0.0392962 0.0392968 0.0392973 0.0392978 0.0392981 0.0392986 0.0392989 0.0392994 0.0392996 0.0392999 0.0393002 0.0393006 0.0393009 0.039301 0.0393015 0.0393017 0.0393019 0.0393021 0.0393025 0.0393027 0.039303 0.0393032 0.0393034 0.0393036 0.0393037 0.0393041 0.0393041 0.0393043 0.0393044 0.0393047 0.0393048 0.039305 0.0393051 0.0393054 0.0393056 0.0393055 0.0393056 0.0393058 0.0393057 0.0393059 0.039306 0.0393058 0.0393059 0.0393062 0.0393064 0.0393064 0.0393064 0.0393065 0.0393066 0.0393067 0.0393064 0.0393066 0.0393068 0.0393013 0.0392994 0.0392982 0.0392976 0.0392972 0.0392972 0.0392975 0.0392979 0.0392981 0.0392986 0.0392991 0.0392993 0.0392997 0.0393001 0.0393004 0.0393006 0.039301 0.0393013 0.0393016 0.0393018 0.0393021 0.0393023 0.0393024 0.0393026 0.0393028 0.039303 0.0393032 0.0393034 0.0393036 0.0393036 0.0393039 0.0393041 0.0393044 0.0393043 0.0393043 0.0393046 0.0393049 0.0393049 0.0393051 0.0393051 0.0393052 0.0393055 0.0393055 0.0393054 0.0393055 0.0393058 0.0393059 0.0393058 0.0393059 0.039306 0.0393061 0.0393061 0.0393061 0.039306 0.0393062 0.0393062 0.0393064 0.0393063 0.0393065 0.0393066 0.0393065 0.0393063 0.0393065 0.0393067 0.0393098 0.0393073 0.0393054 0.0393039 0.0393029 0.0393024 0.0393021 0.0393021 0.0393021 0.0393024 0.0393025 0.0393028 0.0393029 0.0393031 0.0393032 0.0393033 0.0393036 0.0393038 0.0393038 0.0393039 0.039304 0.0393043 0.0393044 0.0393045 0.0393046 0.0393045 0.0393047 0.0393051 0.0393049 0.039305 0.0393051 0.0393053 0.0393054 0.0393054 0.0393055 0.0393055 0.0393058 0.0393056 0.0393058 0.0393058 0.0393059 0.0393059 0.0393059 0.0393059 0.0393061 0.0393061 0.0393061 0.0393063 0.0393064 0.0393063 0.0393064 0.0393065 0.0393062 0.0393062 0.0393065 0.0393064 0.0393065 0.0393066 0.0393066 0.0393065 0.0393065 0.0393062 0.0393064 0.0393066 0.0393182 0.0393148 0.0393121 0.0393098 0.0393084 0.0393075 0.0393068 0.0393065 0.0393062 0.0393059 0.0393059 0.0393059 0.0393061 0.039306 0.0393058 0.0393059 0.0393062 0.0393062 0.0393061 0.0393062 0.0393062 0.0393063 0.0393063 0.0393065 0.0393064 0.0393063 0.0393063 0.0393066 0.0393065 0.0393064 0.0393063 0.0393064 0.0393065 0.0393065 0.0393066 0.0393064 0.0393066 0.0393064 0.0393065 0.0393066 0.0393068 0.0393065 0.0393066 0.0393064 0.0393064 0.0393066 0.0393064 0.0393068 0.0393066 0.0393065 0.0393066 0.0393066 0.0393065 0.0393066 0.0393066 0.0393065 0.0393065 0.0393068 0.0393067 0.0393066 0.0393067 0.0393064 0.0393065 0.0393064 0.0393266 0.0393221 0.0393187 0.0393158 0.0393136 0.0393123 0.0393112 0.0393105 0.03931 0.0393097 0.0393094 0.0393092 0.039309 0.0393091 0.0393088 0.0393087 0.0393086 0.0393086 0.0393085 0.0393082 0.0393083 0.0393083 0.0393083 0.0393083 0.0393082 0.0393081 0.0393079 0.0393079 0.0393078 0.0393078 0.0393078 0.039308 0.0393077 0.0393075 0.0393075 0.0393072 0.0393074 0.0393071 0.0393073 0.0393073 0.0393072 0.0393072 0.0393071 0.039307 0.0393069 0.039307 0.039307 0.0393068 0.039307 0.0393069 0.0393068 0.0393067 0.0393068 0.0393068 0.0393067 0.0393067 0.0393066 0.0393066 0.0393066 0.0393065 0.0393066 0.0393064 0.0393065 0.0393064 0.0393349 0.039329 0.0393245 0.0393211 0.0393189 0.0393169 0.0393156 0.0393146 0.0393139 0.0393134 0.0393129 0.0393124 0.039312 0.0393118 0.0393116 0.0393113 0.0393112 0.0393111 0.039311 0.0393106 0.0393104 0.0393103 0.0393101 0.03931 0.0393098 0.0393098 0.0393095 0.0393095 0.0393091 0.0393092 0.039309 0.039309 0.0393088 0.0393088 0.0393084 0.0393081 0.0393082 0.039308 0.039308 0.039308 0.0393078 0.0393078 0.0393076 0.0393075 0.0393074 0.0393074 0.0393072 0.0393071 0.0393073 0.0393071 0.0393069 0.039307 0.0393068 0.0393068 0.039307 0.0393068 0.0393066 0.0393067 0.0393067 0.0393064 0.0393066 0.0393064 0.0393063 0.0393063 0.0393426 0.0393356 0.0393299 0.0393262 0.0393233 0.0393214 0.0393199 0.0393187 0.0393178 0.0393169 0.0393164 0.0393157 0.0393153 0.0393149 0.0393145 0.0393142 0.0393139 0.0393136 0.0393133 0.039313 0.0393126 0.0393125 0.0393122 0.0393119 0.0393117 0.0393114 0.0393112 0.0393111 0.0393107 0.0393104 0.0393103 0.0393102 0.0393099 0.0393097 0.0393095 0.0393091 0.0393091 0.0393088 0.0393088 0.0393087 0.0393084 0.0393084 0.0393082 0.0393079 0.0393078 0.0393078 0.0393076 0.0393076 0.0393075 0.0393072 0.0393072 0.0393073 0.039307 0.0393071 0.039307 0.0393069 0.0393067 0.0393066 0.0393068 0.0393065 0.0393066 0.0393065 0.0393064 0.0393064 0.0393509 0.0393407 0.0393355 0.0393304 0.0393274 0.0393257 0.0393241 0.0393225 0.0393214 0.0393204 0.0393196 0.039319 0.0393185 0.0393179 0.0393173 0.0393169 0.0393164 0.0393161 0.0393157 0.0393152 0.039315 0.0393146 0.0393141 0.0393137 0.0393137 0.0393131 0.0393127 0.0393126 0.0393122 0.0393118 0.0393116 0.0393114 0.0393111 0.0393108 0.0393106 0.0393101 0.0393101 0.0393096 0.0393096 0.0393094 0.0393091 0.0393089 0.0393086 0.0393086 0.0393084 0.0393081 0.039308 0.0393079 0.0393078 0.0393075 0.0393074 0.0393074 0.0393072 0.0393072 0.0393072 0.0393071 0.0393066 0.0393066 0.0393069 0.0393068 0.0393067 0.0393064 0.0393065 0.0393066 0.0393546 0.0393497 0.0393379 0.0393342 0.0393317 0.0393297 0.0393279 0.0393263 0.0393251 0.039324 0.039323 0.0393223 0.0393216 0.0393208 0.0393201 0.0393195 0.039319 0.0393185 0.0393179 0.0393174 0.0393171 0.0393166 0.039316 0.0393156 0.0393152 0.0393148 0.0393143 0.039314 0.0393135 0.0393132 0.0393129 0.0393126 0.0393121 0.0393118 0.0393114 0.0393111 0.0393108 0.0393104 0.0393103 0.0393101 0.0393098 0.0393096 0.0393093 0.0393093 0.039309 0.0393085 0.0393081 0.0393082 0.0393081 0.0393079 0.0393076 0.0393076 0.0393074 0.0393072 0.0393072 0.0393072 0.0393069 0.0393068 0.0393069 0.0393068 0.0393068 0.0393066 0.0393065 0.0393067 0.0393943 0.0393465 0.0393411 0.0393381 0.039336 0.0393339 0.039332 0.0393303 0.0393289 0.0393275 0.0393264 0.0393254 0.0393245 0.0393236 0.0393228 0.0393221 0.0393214 0.0393208 0.0393202 0.0393197 0.0393192 0.0393185 0.0393181 0.0393175 0.0393168 0.0393165 0.0393159 0.0393155 0.0393149 0.0393146 0.0393142 0.0393137 0.0393133 0.0393128 0.0393124 0.039312 0.0393119 0.0393114 0.0393111 0.0393107 0.0393103 0.0393102 0.0393098 0.0393096 0.0393093 0.0393091 0.0393086 0.0393086 0.0393084 0.0393082 0.0393079 0.0393077 0.0393074 0.0393072 0.0393074 0.0393073 0.0393071 0.0393069 0.0393068 0.0393069 0.0393068 0.0393067 0.0393067 0.0393067 0.0391753 0.0392348 0.0392523 0.0392609 0.0392655 0.0392686 0.039271 0.0392728 0.0392745 0.0392761 0.0392775 0.0392789 0.0392801 0.0392814 0.0392826 0.0392838 0.0392847 0.0392857 0.0392868 0.0392876 0.0392886 0.0392894 0.0392904 0.0392912 0.0392919 0.0392927 0.0392934 0.0392943 0.0392949 0.0392958 0.0392964 0.0392971 0.0392976 0.0392981 0.0392988 0.0392995 0.0393 0.0393004 0.0393012 0.0393016 0.039302 0.0393024 0.0393029 0.0393033 0.0393035 0.039304 0.0393042 0.0393047 0.0393049 0.0393053 0.0393055 0.0393058 0.039306 0.0393063 0.0393065 0.0393068 0.0393067 0.0393068 0.0393071 0.0393071 0.0393071 0.0393067 0.0393067 0.0393068 0.0392447 0.0392352 0.0392515 0.0392604 0.0392663 0.0392704 0.0392732 0.0392755 0.0392773 0.039279 0.0392804 0.0392817 0.0392829 0.0392839 0.0392849 0.039286 0.039287 0.0392879 0.0392888 0.0392895 0.0392904 0.0392912 0.0392919 0.0392927 0.0392933 0.039294 0.0392946 0.0392956 0.039296 0.0392967 0.0392973 0.0392979 0.0392985 0.0392989 0.0392996 0.0393001 0.0393008 0.0393011 0.0393017 0.039302 0.0393023 0.0393027 0.0393031 0.0393035 0.0393036 0.0393041 0.0393043 0.0393047 0.0393052 0.0393056 0.0393055 0.0393058 0.039306 0.0393062 0.0393065 0.0393066 0.0393066 0.0393068 0.0393071 0.0393071 0.039307 0.0393067 0.0393068 0.039307 0.0392525 0.0392546 0.0392577 0.0392646 0.0392696 0.0392733 0.0392762 0.0392785 0.0392804 0.039282 0.0392832 0.0392846 0.0392856 0.0392866 0.0392875 0.0392885 0.0392893 0.0392899 0.0392907 0.0392915 0.0392923 0.039293 0.0392937 0.0392943 0.0392949 0.0392954 0.0392959 0.0392967 0.0392971 0.0392978 0.0392984 0.0392988 0.0392994 0.0392998 0.0393004 0.0393008 0.0393014 0.0393018 0.0393021 0.0393024 0.0393028 0.0393032 0.0393035 0.0393038 0.039304 0.0393043 0.0393045 0.039305 0.0393054 0.0393056 0.0393055 0.0393058 0.0393058 0.0393061 0.0393065 0.0393064 0.0393065 0.0393067 0.0393067 0.0393068 0.0393069 0.0393068 0.0393067 0.039307 0.0392647 0.0392643 0.0392672 0.0392706 0.0392743 0.0392773 0.0392798 0.0392819 0.0392836 0.039285 0.0392861 0.0392872 0.0392883 0.0392892 0.0392901 0.0392907 0.0392914 0.0392921 0.0392927 0.0392935 0.0392942 0.0392947 0.0392954 0.0392959 0.0392963 0.0392969 0.0392974 0.0392979 0.0392984 0.0392991 0.0392994 0.0392999 0.0393003 0.0393006 0.0393011 0.0393014 0.0393021 0.0393023 0.0393026 0.0393031 0.0393033 0.0393036 0.0393041 0.0393042 0.0393043 0.0393047 0.0393049 0.0393054 0.0393055 0.0393055 0.0393057 0.0393059 0.0393059 0.0393061 0.0393063 0.0393066 0.0393065 0.0393065 0.0393067 0.0393067 0.0393068 0.0393067 0.0393067 0.039307 0.0392743 0.0392743 0.0392754 0.0392775 0.0392798 0.039282 0.039284 0.0392857 0.039287 0.0392882 0.0392894 0.0392903 0.0392911 0.0392918 0.0392926 0.0392932 0.0392938 0.0392946 0.039295 0.0392955 0.039296 0.0392965 0.0392971 0.0392976 0.039298 0.0392985 0.0392988 0.0392993 0.0392996 0.0393002 0.0393006 0.039301 0.0393013 0.0393016 0.039302 0.0393022 0.0393027 0.0393029 0.0393034 0.0393036 0.0393038 0.0393041 0.0393042 0.0393047 0.0393047 0.0393049 0.039305 0.0393054 0.0393055 0.0393056 0.0393058 0.0393058 0.039306 0.039306 0.0393062 0.0393066 0.0393064 0.0393065 0.0393067 0.0393067 0.0393067 0.0393068 0.0393069 0.0393068 0.0392838 0.0392833 0.0392835 0.0392844 0.0392857 0.0392871 0.0392885 0.0392897 0.0392908 0.0392916 0.0392925 0.0392933 0.0392941 0.0392945 0.039295 0.0392958 0.0392962 0.0392967 0.0392972 0.0392975 0.039298 0.0392984 0.0392988 0.0392991 0.0392997 0.0393 0.0393003 0.0393008 0.0393007 0.0393012 0.0393016 0.0393018 0.0393022 0.0393025 0.0393027 0.0393029 0.0393032 0.0393035 0.0393039 0.0393041 0.0393043 0.0393046 0.0393045 0.0393048 0.0393051 0.0393051 0.0393054 0.0393056 0.0393057 0.0393059 0.039306 0.0393061 0.0393059 0.0393062 0.0393064 0.0393064 0.0393064 0.0393064 0.0393067 0.0393065 0.0393068 0.0393066 0.0393067 0.0393068 0.0392927 0.0392916 0.0392912 0.0392911 0.0392915 0.0392925 0.039293 0.0392937 0.0392945 0.0392952 0.0392958 0.0392963 0.0392969 0.0392973 0.0392978 0.0392983 0.0392987 0.039299 0.0392993 0.0392997 0.0393001 0.0393003 0.0393004 0.039301 0.0393014 0.0393014 0.0393017 0.0393021 0.0393023 0.0393026 0.0393028 0.039303 0.0393034 0.0393035 0.0393037 0.039304 0.0393041 0.0393044 0.0393045 0.0393046 0.0393048 0.0393051 0.039305 0.0393052 0.0393054 0.0393055 0.0393057 0.0393057 0.0393059 0.0393061 0.0393061 0.0393063 0.0393061 0.0393062 0.0393065 0.0393065 0.0393064 0.0393065 0.0393069 0.0393066 0.0393067 0.0393064 0.0393067 0.0393068 0.0393014 0.0392994 0.0392983 0.0392975 0.0392974 0.0392975 0.0392977 0.0392979 0.0392983 0.0392989 0.0392992 0.0392995 0.0392999 0.0393003 0.0393006 0.039301 0.0393011 0.0393015 0.0393017 0.0393018 0.0393021 0.0393022 0.0393025 0.0393028 0.039303 0.0393031 0.0393032 0.0393035 0.0393037 0.0393039 0.0393041 0.0393043 0.0393043 0.0393047 0.0393047 0.0393047 0.0393049 0.0393049 0.039305 0.0393052 0.0393055 0.0393055 0.0393055 0.0393058 0.0393057 0.0393059 0.0393059 0.039306 0.0393062 0.0393061 0.0393062 0.0393063 0.0393063 0.0393063 0.0393066 0.0393065 0.0393064 0.0393066 0.0393067 0.0393066 0.0393067 0.0393066 0.0393065 0.0393068 0.03931 0.0393074 0.0393053 0.0393039 0.0393032 0.0393025 0.0393023 0.0393022 0.0393022 0.0393025 0.0393027 0.0393028 0.039303 0.0393031 0.0393033 0.0393035 0.0393037 0.0393038 0.0393038 0.0393041 0.0393042 0.0393041 0.0393043 0.0393045 0.0393046 0.0393048 0.0393049 0.0393051 0.0393052 0.0393053 0.0393053 0.0393055 0.0393054 0.0393054 0.0393055 0.0393055 0.0393058 0.0393057 0.0393059 0.0393059 0.0393061 0.0393062 0.0393062 0.0393062 0.0393061 0.0393063 0.0393062 0.0393063 0.0393064 0.0393064 0.0393063 0.0393065 0.0393065 0.0393065 0.0393066 0.0393067 0.0393066 0.0393066 0.0393066 0.0393066 0.0393067 0.0393066 0.0393065 0.0393066 0.0393185 0.039315 0.0393122 0.0393101 0.0393086 0.0393075 0.0393068 0.0393065 0.0393063 0.0393062 0.0393063 0.0393061 0.0393061 0.0393061 0.0393062 0.0393061 0.0393063 0.0393063 0.0393063 0.0393064 0.0393063 0.0393063 0.0393064 0.0393063 0.0393065 0.0393065 0.0393064 0.0393066 0.0393067 0.0393067 0.0393066 0.0393067 0.0393066 0.0393065 0.0393066 0.0393066 0.0393068 0.0393067 0.0393068 0.0393068 0.0393067 0.0393068 0.0393066 0.0393065 0.0393066 0.0393067 0.0393066 0.0393067 0.0393066 0.0393067 0.0393065 0.0393066 0.0393068 0.0393067 0.0393066 0.0393067 0.0393066 0.0393065 0.0393068 0.0393065 0.0393067 0.0393067 0.0393064 0.0393065 0.0393268 0.0393222 0.0393184 0.0393158 0.0393138 0.0393124 0.0393113 0.0393107 0.0393102 0.0393099 0.0393096 0.0393093 0.0393091 0.0393091 0.0393091 0.0393091 0.0393089 0.0393087 0.0393086 0.0393087 0.0393086 0.0393084 0.0393086 0.0393083 0.0393083 0.0393081 0.0393081 0.0393081 0.0393079 0.0393081 0.0393081 0.0393078 0.0393077 0.0393076 0.0393076 0.0393075 0.0393076 0.0393076 0.0393075 0.0393074 0.0393074 0.0393072 0.039307 0.039307 0.0393069 0.0393069 0.0393071 0.0393071 0.0393071 0.0393069 0.0393068 0.0393069 0.039307 0.0393068 0.0393069 0.0393071 0.0393069 0.0393069 0.0393069 0.0393068 0.0393069 0.0393066 0.0393066 0.0393065 0.0393347 0.0393289 0.0393246 0.0393211 0.0393187 0.039317 0.0393156 0.0393146 0.0393139 0.0393134 0.0393129 0.0393125 0.0393125 0.0393121 0.0393119 0.0393118 0.0393114 0.0393111 0.039311 0.0393109 0.0393109 0.0393105 0.0393105 0.0393102 0.0393101 0.0393099 0.0393097 0.0393095 0.0393094 0.0393094 0.0393092 0.0393089 0.0393088 0.0393087 0.0393086 0.0393084 0.0393085 0.0393084 0.0393082 0.039308 0.039308 0.0393078 0.0393078 0.0393077 0.0393074 0.0393076 0.0393074 0.0393074 0.0393074 0.0393071 0.0393071 0.0393071 0.0393072 0.0393071 0.039307 0.039307 0.0393069 0.0393069 0.0393068 0.0393068 0.0393068 0.0393065 0.0393066 0.0393066 0.0393424 0.0393355 0.03933 0.0393261 0.0393234 0.0393214 0.0393198 0.0393186 0.0393178 0.039317 0.0393163 0.0393159 0.0393154 0.0393149 0.0393147 0.0393144 0.039314 0.0393137 0.0393134 0.0393132 0.039313 0.0393126 0.0393124 0.039312 0.0393119 0.0393118 0.0393114 0.0393111 0.0393108 0.0393107 0.0393105 0.0393102 0.0393101 0.0393099 0.0393096 0.0393095 0.0393094 0.0393092 0.039309 0.0393088 0.0393087 0.0393084 0.0393084 0.0393083 0.0393081 0.0393083 0.039308 0.0393078 0.0393077 0.0393075 0.0393075 0.0393074 0.0393072 0.0393072 0.0393072 0.0393071 0.0393071 0.0393068 0.0393069 0.0393068 0.039307 0.0393067 0.0393065 0.0393065 0.039351 0.0393408 0.0393354 0.0393303 0.0393274 0.0393253 0.0393238 0.0393226 0.0393215 0.0393207 0.03932 0.0393193 0.0393185 0.039318 0.0393175 0.039317 0.0393166 0.0393162 0.0393158 0.0393155 0.0393151 0.0393147 0.0393144 0.0393138 0.0393135 0.0393133 0.0393128 0.0393126 0.0393122 0.039312 0.0393118 0.0393115 0.0393113 0.039311 0.0393107 0.0393103 0.0393103 0.0393099 0.0393099 0.0393096 0.0393091 0.0393091 0.039309 0.0393086 0.0393085 0.0393086 0.0393082 0.0393081 0.0393079 0.0393077 0.0393076 0.0393076 0.0393074 0.0393072 0.0393073 0.0393073 0.0393072 0.0393069 0.039307 0.039307 0.0393068 0.0393067 0.0393066 0.0393066 0.0393546 0.0393497 0.0393378 0.0393339 0.0393312 0.0393293 0.0393278 0.0393264 0.0393252 0.0393242 0.0393232 0.0393223 0.0393217 0.0393211 0.0393205 0.0393198 0.039319 0.0393187 0.0393182 0.0393176 0.0393172 0.0393168 0.0393163 0.0393157 0.0393154 0.039315 0.0393143 0.0393142 0.0393137 0.0393135 0.039313 0.0393127 0.0393124 0.0393121 0.0393116 0.0393111 0.039311 0.0393107 0.0393105 0.0393101 0.0393098 0.0393097 0.0393094 0.0393092 0.039309 0.0393089 0.0393086 0.0393085 0.0393082 0.039308 0.039308 0.0393079 0.0393075 0.0393074 0.0393075 0.0393074 0.0393072 0.0393071 0.0393071 0.0393069 0.0393068 0.0393067 0.0393068 0.0393067 0.0393936 0.0393461 0.0393409 0.0393379 0.0393356 0.0393335 0.0393319 0.0393303 0.0393288 0.0393276 0.0393265 0.0393256 0.0393247 0.0393239 0.0393232 0.0393224 0.0393218 0.0393211 0.0393205 0.0393199 0.0393193 0.0393188 0.0393183 0.0393177 0.0393173 0.0393167 0.0393161 0.0393158 0.0393151 0.0393148 0.0393143 0.0393139 0.0393136 0.0393132 0.0393127 0.039312 0.0393119 0.0393115 0.0393111 0.0393107 0.0393106 0.0393103 0.0393101 0.0393096 0.0393094 0.0393095 0.0393089 0.0393087 0.0393086 0.0393083 0.0393081 0.0393081 0.0393077 0.0393075 0.0393076 0.0393074 0.039307 0.0393069 0.0393072 0.0393069 0.039307 0.0393068 0.0393068 0.0393068 0.039178 0.0392363 0.0392536 0.039262 0.0392664 0.0392694 0.0392715 0.0392733 0.0392751 0.0392765 0.039278 0.0392792 0.0392804 0.0392815 0.0392826 0.0392837 0.0392848 0.0392858 0.0392867 0.0392876 0.0392885 0.0392895 0.0392903 0.0392911 0.039292 0.0392926 0.0392933 0.0392943 0.0392949 0.0392955 0.0392964 0.0392971 0.0392976 0.0392984 0.0392988 0.0392992 0.0393 0.0393004 0.039301 0.0393015 0.0393021 0.0393025 0.0393028 0.0393032 0.0393034 0.039304 0.0393042 0.0393047 0.0393048 0.0393051 0.0393055 0.0393058 0.0393059 0.0393061 0.0393064 0.0393065 0.0393066 0.0393069 0.0393071 0.0393069 0.0393069 0.0393069 0.0393069 0.0393068 0.0392453 0.0392365 0.0392527 0.0392614 0.0392671 0.039271 0.0392738 0.039276 0.0392777 0.0392793 0.0392805 0.0392817 0.039283 0.0392839 0.039285 0.0392859 0.0392868 0.0392878 0.0392886 0.0392894 0.0392902 0.0392911 0.0392919 0.0392924 0.0392933 0.039294 0.0392946 0.0392954 0.0392959 0.0392966 0.0392972 0.0392979 0.0392985 0.0392989 0.0392995 0.0392998 0.0393006 0.0393009 0.0393014 0.0393018 0.0393024 0.0393028 0.0393029 0.0393033 0.0393037 0.0393041 0.0393043 0.0393046 0.0393049 0.0393051 0.0393054 0.0393057 0.0393059 0.0393061 0.0393063 0.0393064 0.0393065 0.0393068 0.0393069 0.0393066 0.0393067 0.0393066 0.0393066 0.0393069 0.0392529 0.0392552 0.0392586 0.0392653 0.0392701 0.039274 0.0392768 0.0392788 0.0392806 0.0392821 0.0392834 0.0392844 0.0392856 0.0392867 0.0392875 0.0392883 0.039289 0.03929 0.0392906 0.0392913 0.0392921 0.0392928 0.0392934 0.0392941 0.0392947 0.0392952 0.0392959 0.0392966 0.039297 0.0392978 0.0392982 0.0392988 0.0392993 0.0392998 0.0393003 0.0393006 0.039301 0.0393014 0.0393018 0.039302 0.0393027 0.0393032 0.0393033 0.0393038 0.039304 0.0393043 0.0393045 0.0393048 0.0393052 0.0393054 0.0393056 0.0393058 0.0393058 0.039306 0.0393063 0.0393065 0.0393065 0.0393065 0.0393066 0.0393066 0.0393068 0.0393065 0.0393066 0.0393068 0.039265 0.0392647 0.0392678 0.0392712 0.0392747 0.0392777 0.0392802 0.0392821 0.0392836 0.039285 0.0392864 0.0392873 0.0392882 0.0392891 0.0392898 0.0392905 0.0392914 0.039292 0.0392926 0.0392932 0.0392939 0.0392946 0.0392953 0.0392957 0.0392963 0.0392969 0.0392972 0.0392978 0.0392982 0.0392987 0.0392992 0.0392996 0.0393001 0.0393006 0.0393009 0.0393014 0.0393018 0.0393021 0.0393024 0.0393028 0.0393032 0.0393035 0.0393037 0.0393041 0.0393042 0.0393046 0.0393048 0.0393051 0.0393053 0.0393054 0.0393056 0.0393059 0.0393057 0.0393061 0.0393063 0.0393064 0.0393063 0.0393065 0.0393067 0.0393066 0.0393067 0.0393065 0.0393065 0.0393068 0.0392746 0.0392745 0.0392758 0.039278 0.0392802 0.0392822 0.0392841 0.0392857 0.0392869 0.0392881 0.0392892 0.0392902 0.0392911 0.0392917 0.0392924 0.039293 0.0392937 0.0392942 0.0392947 0.0392953 0.0392959 0.0392964 0.0392968 0.0392974 0.039298 0.0392983 0.0392987 0.0392992 0.0392994 0.0393 0.0393004 0.0393006 0.0393012 0.0393013 0.0393019 0.0393022 0.0393027 0.0393027 0.039303 0.0393034 0.0393036 0.039304 0.0393043 0.0393044 0.0393044 0.0393049 0.0393051 0.0393054 0.0393055 0.0393056 0.0393058 0.0393059 0.0393059 0.0393061 0.0393064 0.0393064 0.0393063 0.0393065 0.0393066 0.0393065 0.0393066 0.0393064 0.0393066 0.0393069 0.0392839 0.0392832 0.0392836 0.0392846 0.0392858 0.0392872 0.0392885 0.0392896 0.0392907 0.0392916 0.0392925 0.0392932 0.0392938 0.0392946 0.0392951 0.0392955 0.0392959 0.0392964 0.0392969 0.0392975 0.0392979 0.0392982 0.0392986 0.0392991 0.0392996 0.0392997 0.0393 0.0393006 0.0393007 0.0393012 0.0393015 0.0393018 0.0393021 0.0393022 0.0393028 0.039303 0.0393033 0.0393032 0.0393035 0.0393039 0.0393042 0.0393046 0.0393048 0.0393049 0.039305 0.0393052 0.0393052 0.0393055 0.0393055 0.0393056 0.0393058 0.0393061 0.0393061 0.0393063 0.0393064 0.0393064 0.0393064 0.0393064 0.0393065 0.0393065 0.0393065 0.0393065 0.0393065 0.0393068 0.0392929 0.0392917 0.0392911 0.0392912 0.0392917 0.0392923 0.0392931 0.0392939 0.0392946 0.0392952 0.0392958 0.0392963 0.039297 0.0392974 0.0392979 0.0392983 0.0392985 0.0392988 0.0392991 0.0392997 0.0392998 0.0393002 0.0393006 0.0393008 0.0393012 0.0393015 0.0393017 0.0393021 0.0393023 0.0393025 0.0393027 0.0393029 0.039303 0.0393033 0.0393037 0.0393036 0.0393041 0.0393041 0.0393042 0.0393045 0.0393048 0.039305 0.039305 0.0393053 0.0393052 0.0393055 0.0393055 0.0393057 0.0393058 0.039306 0.0393059 0.0393061 0.0393061 0.0393062 0.0393064 0.0393066 0.0393064 0.0393064 0.0393067 0.0393067 0.0393068 0.0393066 0.0393066 0.0393066 0.0393015 0.0392996 0.0392985 0.0392979 0.0392975 0.0392974 0.0392978 0.0392982 0.0392984 0.0392987 0.0392991 0.0392996 0.0393 0.0393003 0.0393006 0.0393008 0.0393011 0.0393013 0.0393015 0.0393016 0.0393018 0.0393023 0.0393026 0.0393026 0.039303 0.0393031 0.0393031 0.0393034 0.0393035 0.0393038 0.0393039 0.0393039 0.0393041 0.0393042 0.0393045 0.0393047 0.0393048 0.0393048 0.039305 0.039305 0.0393053 0.0393055 0.0393055 0.0393058 0.0393056 0.039306 0.0393059 0.0393059 0.039306 0.0393061 0.0393063 0.0393063 0.0393062 0.0393062 0.0393064 0.0393065 0.0393064 0.0393065 0.0393066 0.0393067 0.0393067 0.0393064 0.0393066 0.0393065 0.0393099 0.0393073 0.0393053 0.039304 0.039303 0.0393026 0.0393023 0.0393022 0.0393023 0.0393024 0.0393026 0.0393027 0.039303 0.0393031 0.0393032 0.0393034 0.0393035 0.0393036 0.0393039 0.0393038 0.039304 0.0393043 0.0393044 0.0393045 0.0393047 0.0393047 0.0393047 0.039305 0.039305 0.0393052 0.0393053 0.0393051 0.0393053 0.0393053 0.0393055 0.0393055 0.0393057 0.0393055 0.0393057 0.0393057 0.0393058 0.0393058 0.039306 0.0393062 0.0393061 0.0393063 0.0393061 0.0393062 0.0393063 0.0393063 0.0393063 0.0393065 0.0393062 0.0393064 0.0393065 0.0393065 0.0393065 0.0393065 0.0393067 0.0393067 0.0393067 0.0393063 0.0393064 0.0393065 0.0393183 0.0393148 0.0393119 0.0393098 0.0393084 0.0393075 0.0393068 0.0393063 0.0393062 0.039306 0.0393059 0.039306 0.0393061 0.0393061 0.0393061 0.0393062 0.0393062 0.0393062 0.0393062 0.0393063 0.0393062 0.0393063 0.0393063 0.0393064 0.0393065 0.0393063 0.0393064 0.0393066 0.0393065 0.0393065 0.0393066 0.0393065 0.0393063 0.0393065 0.0393066 0.0393064 0.0393065 0.0393065 0.0393065 0.0393065 0.0393065 0.0393065 0.0393065 0.0393067 0.0393065 0.0393065 0.0393065 0.0393066 0.0393066 0.0393065 0.0393066 0.0393067 0.0393064 0.0393066 0.0393067 0.0393066 0.0393066 0.0393066 0.0393068 0.0393067 0.0393067 0.0393065 0.0393063 0.0393064 0.0393265 0.0393218 0.0393181 0.0393154 0.0393134 0.0393121 0.0393113 0.0393103 0.03931 0.0393097 0.0393095 0.0393093 0.0393092 0.039309 0.039309 0.0393089 0.0393088 0.0393087 0.0393087 0.0393086 0.0393085 0.0393084 0.0393082 0.0393082 0.0393082 0.0393081 0.0393079 0.0393081 0.0393078 0.0393077 0.0393077 0.0393078 0.0393076 0.0393075 0.0393076 0.0393076 0.0393075 0.0393071 0.0393073 0.0393075 0.0393072 0.0393071 0.0393071 0.0393072 0.0393069 0.039307 0.0393069 0.0393069 0.039307 0.0393068 0.0393069 0.0393069 0.0393066 0.0393066 0.0393068 0.0393068 0.0393065 0.0393066 0.0393067 0.0393067 0.0393068 0.0393064 0.0393065 0.0393065 0.0393346 0.0393284 0.039324 0.0393207 0.0393182 0.0393165 0.0393153 0.0393144 0.0393137 0.0393132 0.0393131 0.0393127 0.0393124 0.0393122 0.0393119 0.0393117 0.0393115 0.0393112 0.0393111 0.0393109 0.0393106 0.0393106 0.0393103 0.0393101 0.0393101 0.0393099 0.0393096 0.0393096 0.0393093 0.0393091 0.0393089 0.0393089 0.0393089 0.0393085 0.0393085 0.0393084 0.0393085 0.039308 0.0393082 0.0393081 0.0393079 0.0393077 0.0393077 0.0393076 0.0393075 0.0393076 0.0393073 0.0393073 0.0393071 0.0393071 0.0393071 0.0393071 0.0393068 0.0393067 0.039307 0.039307 0.0393066 0.0393068 0.0393067 0.0393066 0.0393067 0.0393065 0.0393065 0.0393065 0.0393421 0.0393348 0.0393293 0.0393257 0.0393228 0.0393207 0.0393193 0.0393184 0.0393176 0.0393169 0.0393164 0.0393159 0.0393156 0.0393152 0.0393148 0.0393144 0.039314 0.0393137 0.0393133 0.0393131 0.0393129 0.0393125 0.0393123 0.0393121 0.039312 0.0393116 0.0393113 0.0393111 0.0393107 0.0393106 0.0393102 0.0393101 0.0393102 0.0393096 0.0393095 0.0393092 0.0393092 0.039309 0.0393091 0.0393086 0.0393086 0.0393084 0.0393083 0.039308 0.039308 0.039308 0.0393076 0.0393077 0.0393074 0.0393073 0.0393073 0.0393072 0.0393071 0.0393071 0.0393072 0.039307 0.0393069 0.0393069 0.0393069 0.0393067 0.0393067 0.0393066 0.0393065 0.0393066 0.0393504 0.0393401 0.0393346 0.0393296 0.0393268 0.0393249 0.0393233 0.0393222 0.0393213 0.0393205 0.0393197 0.039319 0.0393186 0.0393181 0.0393175 0.0393171 0.0393166 0.0393161 0.0393157 0.0393152 0.0393151 0.0393146 0.0393142 0.0393141 0.0393136 0.0393133 0.039313 0.0393127 0.0393122 0.0393119 0.0393116 0.0393113 0.0393112 0.0393108 0.0393106 0.0393102 0.0393102 0.0393098 0.0393097 0.0393093 0.0393092 0.0393089 0.0393088 0.0393085 0.0393083 0.0393082 0.0393079 0.0393079 0.0393077 0.0393076 0.0393076 0.0393074 0.0393072 0.0393073 0.0393072 0.0393069 0.0393069 0.0393068 0.0393067 0.0393064 0.0393067 0.0393066 0.0393063 0.0393065 0.0393542 0.0393488 0.0393371 0.0393333 0.0393305 0.0393288 0.0393273 0.0393259 0.0393249 0.0393239 0.039323 0.0393224 0.0393216 0.0393209 0.0393202 0.0393196 0.0393192 0.0393187 0.0393182 0.0393176 0.039317 0.0393167 0.0393163 0.0393158 0.0393153 0.0393148 0.0393145 0.0393142 0.0393137 0.0393132 0.0393129 0.0393125 0.0393122 0.0393119 0.0393116 0.0393114 0.0393112 0.0393108 0.0393105 0.0393102 0.0393099 0.0393096 0.0393094 0.0393091 0.0393088 0.0393087 0.0393084 0.0393083 0.039308 0.0393078 0.0393077 0.0393076 0.0393073 0.0393074 0.0393073 0.0393073 0.0393071 0.039307 0.0393069 0.0393068 0.0393068 0.0393065 0.0393065 0.0393065 0.0393925 0.0393458 0.0393402 0.0393369 0.0393348 0.039333 0.0393312 0.0393299 0.0393285 0.0393274 0.0393263 0.0393253 0.0393244 0.0393238 0.0393232 0.0393223 0.0393216 0.0393211 0.0393204 0.0393198 0.0393191 0.0393185 0.0393181 0.0393176 0.0393171 0.0393165 0.039316 0.0393156 0.0393152 0.0393147 0.0393143 0.039314 0.0393133 0.0393129 0.0393127 0.0393124 0.0393121 0.0393115 0.0393112 0.0393106 0.0393105 0.0393102 0.03931 0.0393095 0.0393093 0.039309 0.0393087 0.0393087 0.0393086 0.0393085 0.0393081 0.039308 0.0393077 0.0393075 0.0393074 0.0393074 0.0393072 0.0393071 0.0393071 0.0393068 0.0393069 0.0393067 0.0393068 0.0393069 0.0391819 0.0392383 0.0392554 0.0392636 0.039268 0.0392707 0.0392728 0.0392745 0.0392759 0.0392771 0.0392784 0.0392796 0.0392807 0.0392819 0.0392829 0.0392839 0.039285 0.0392858 0.0392868 0.0392877 0.0392887 0.0392894 0.0392903 0.0392911 0.039292 0.0392927 0.0392934 0.0392942 0.0392947 0.0392956 0.0392963 0.0392969 0.0392976 0.0392982 0.0392987 0.0392993 0.0392998 0.0393003 0.0393008 0.0393013 0.0393019 0.0393024 0.0393027 0.039303 0.0393034 0.0393039 0.0393042 0.0393046 0.0393049 0.0393051 0.0393053 0.0393057 0.0393058 0.0393059 0.0393063 0.0393065 0.0393065 0.0393067 0.039307 0.0393068 0.0393067 0.0393066 0.0393067 0.0393067 0.0392461 0.0392385 0.0392543 0.0392629 0.0392684 0.0392721 0.0392748 0.0392768 0.0392783 0.0392797 0.0392809 0.0392819 0.039283 0.0392841 0.0392852 0.0392862 0.0392871 0.0392878 0.0392887 0.0392894 0.0392904 0.0392911 0.0392917 0.0392927 0.0392934 0.0392941 0.0392948 0.0392954 0.0392959 0.0392966 0.0392972 0.0392977 0.0392984 0.0392989 0.0392995 0.0392999 0.0393005 0.0393008 0.0393013 0.0393017 0.0393022 0.0393026 0.0393032 0.0393033 0.0393035 0.039304 0.0393043 0.0393048 0.0393051 0.0393051 0.0393054 0.0393057 0.0393057 0.039306 0.0393063 0.0393065 0.0393067 0.0393067 0.0393069 0.0393066 0.0393068 0.0393067 0.0393068 0.0393068 0.0392537 0.0392565 0.03926 0.0392666 0.0392713 0.0392749 0.0392775 0.0392794 0.039281 0.0392822 0.0392836 0.0392847 0.0392856 0.0392865 0.0392874 0.0392883 0.0392891 0.0392898 0.0392906 0.0392914 0.0392921 0.0392927 0.0392934 0.0392941 0.0392947 0.0392953 0.0392958 0.0392966 0.0392971 0.0392976 0.0392982 0.0392986 0.0392991 0.0392997 0.0393001 0.0393004 0.0393012 0.0393014 0.0393019 0.0393023 0.0393026 0.039303 0.0393033 0.0393037 0.0393037 0.0393042 0.0393045 0.0393048 0.0393051 0.0393053 0.0393055 0.0393057 0.0393059 0.0393061 0.0393062 0.0393066 0.0393066 0.0393066 0.0393068 0.0393067 0.0393067 0.0393066 0.0393068 0.0393069 0.0392656 0.0392657 0.0392686 0.0392719 0.0392756 0.0392786 0.0392807 0.0392825 0.0392841 0.0392851 0.0392864 0.0392874 0.0392884 0.0392891 0.0392899 0.0392906 0.0392913 0.0392919 0.0392927 0.0392934 0.0392938 0.0392944 0.0392951 0.0392957 0.0392962 0.0392967 0.0392972 0.0392978 0.0392982 0.0392987 0.0392991 0.0392997 0.0393001 0.0393007 0.0393011 0.0393014 0.0393018 0.039302 0.0393025 0.0393029 0.0393031 0.0393033 0.0393037 0.0393041 0.0393041 0.0393044 0.0393046 0.0393049 0.039305 0.0393054 0.0393056 0.0393058 0.0393058 0.039306 0.0393062 0.0393065 0.0393064 0.0393064 0.0393066 0.0393064 0.0393067 0.0393065 0.0393068 0.039307 0.0392749 0.039275 0.0392764 0.0392786 0.0392808 0.0392829 0.0392847 0.0392861 0.0392874 0.0392883 0.0392893 0.0392903 0.0392909 0.0392916 0.0392924 0.039293 0.0392935 0.0392942 0.0392949 0.0392952 0.0392957 0.0392963 0.0392968 0.0392972 0.0392977 0.0392982 0.0392985 0.039299 0.0392994 0.0392998 0.0393002 0.0393006 0.039301 0.0393015 0.0393018 0.0393021 0.0393025 0.0393027 0.039303 0.0393031 0.0393035 0.0393037 0.0393041 0.0393044 0.0393045 0.0393047 0.0393049 0.039305 0.0393051 0.0393054 0.0393057 0.0393059 0.0393058 0.039306 0.0393061 0.0393062 0.0393064 0.0393063 0.0393066 0.0393066 0.0393068 0.0393067 0.0393065 0.0393068 0.0392839 0.0392837 0.0392842 0.0392853 0.0392865 0.0392878 0.039289 0.0392899 0.0392908 0.0392917 0.0392926 0.0392931 0.0392938 0.0392944 0.0392948 0.0392954 0.0392961 0.0392965 0.0392969 0.0392973 0.0392978 0.0392982 0.0392986 0.039299 0.0392994 0.0392998 0.0393 0.0393004 0.0393007 0.0393012 0.0393015 0.0393017 0.039302 0.0393024 0.0393026 0.039303 0.0393034 0.0393034 0.0393037 0.0393037 0.039304 0.0393041 0.0393045 0.0393048 0.0393048 0.0393052 0.0393053 0.0393051 0.0393054 0.0393056 0.0393058 0.039306 0.0393059 0.0393061 0.0393062 0.0393063 0.0393063 0.0393064 0.0393066 0.0393066 0.0393068 0.0393067 0.0393067 0.0393067 0.0392927 0.0392918 0.0392915 0.0392915 0.039292 0.0392927 0.0392934 0.039294 0.0392947 0.0392953 0.0392957 0.0392964 0.0392968 0.0392973 0.0392978 0.0392981 0.0392984 0.0392987 0.0392993 0.0392996 0.0392999 0.0393001 0.0393005 0.0393008 0.039301 0.0393013 0.0393015 0.039302 0.0393022 0.0393025 0.0393028 0.0393029 0.039303 0.0393033 0.0393036 0.0393039 0.0393043 0.0393042 0.0393044 0.0393046 0.0393049 0.0393048 0.0393049 0.0393051 0.0393051 0.0393056 0.0393055 0.0393057 0.0393057 0.0393059 0.039306 0.0393062 0.039306 0.0393064 0.0393065 0.0393064 0.0393063 0.0393063 0.0393065 0.0393064 0.0393065 0.0393065 0.0393066 0.0393066 0.0393014 0.0392998 0.0392986 0.0392977 0.0392976 0.0392976 0.0392979 0.0392982 0.0392985 0.0392988 0.0392991 0.0392995 0.0392998 0.0393001 0.0393005 0.0393008 0.0393009 0.0393011 0.0393014 0.0393018 0.0393021 0.0393022 0.0393024 0.0393025 0.0393029 0.039303 0.0393031 0.0393035 0.0393035 0.0393038 0.039304 0.039304 0.039304 0.0393043 0.0393043 0.0393045 0.0393049 0.0393049 0.0393051 0.0393052 0.0393054 0.0393053 0.0393054 0.0393054 0.0393057 0.0393058 0.0393058 0.0393059 0.039306 0.039306 0.0393061 0.0393061 0.0393063 0.0393064 0.0393064 0.0393065 0.0393065 0.0393065 0.0393067 0.0393066 0.0393066 0.0393065 0.0393067 0.0393066 0.0393099 0.0393072 0.0393053 0.0393039 0.039303 0.0393025 0.0393023 0.0393024 0.0393024 0.0393024 0.0393027 0.0393028 0.0393028 0.0393032 0.0393033 0.0393034 0.0393037 0.0393037 0.0393037 0.0393039 0.0393041 0.0393042 0.0393042 0.0393043 0.0393046 0.0393047 0.0393049 0.039305 0.0393049 0.0393051 0.039305 0.0393051 0.0393052 0.0393054 0.0393056 0.0393053 0.0393056 0.0393055 0.0393055 0.0393058 0.039306 0.0393059 0.0393059 0.039306 0.0393059 0.0393062 0.039306 0.0393062 0.0393063 0.0393061 0.0393062 0.0393063 0.0393063 0.0393063 0.0393063 0.0393065 0.0393064 0.0393064 0.0393067 0.0393067 0.0393066 0.0393064 0.0393065 0.0393065 0.0393182 0.0393146 0.0393119 0.0393097 0.0393082 0.0393073 0.0393068 0.0393063 0.0393062 0.0393061 0.039306 0.039306 0.039306 0.0393063 0.0393062 0.039306 0.0393061 0.0393061 0.0393062 0.0393062 0.0393062 0.0393062 0.0393062 0.0393062 0.0393064 0.0393065 0.0393065 0.0393065 0.0393063 0.0393065 0.0393062 0.0393063 0.0393063 0.0393064 0.0393066 0.0393064 0.0393067 0.0393064 0.0393065 0.0393064 0.0393065 0.0393065 0.0393065 0.0393067 0.0393064 0.0393067 0.0393066 0.0393065 0.0393065 0.0393065 0.0393065 0.0393065 0.0393063 0.0393065 0.0393065 0.0393066 0.0393065 0.0393065 0.0393067 0.0393067 0.0393065 0.0393064 0.0393064 0.0393066 0.0393261 0.0393215 0.0393178 0.0393151 0.0393133 0.0393118 0.0393109 0.0393104 0.03931 0.0393098 0.0393096 0.0393094 0.0393094 0.0393092 0.0393089 0.0393087 0.0393088 0.0393088 0.0393085 0.0393084 0.0393083 0.0393083 0.0393083 0.0393082 0.0393082 0.0393081 0.0393082 0.039308 0.0393078 0.0393079 0.0393075 0.0393075 0.0393075 0.0393076 0.0393075 0.0393076 0.0393075 0.0393071 0.0393074 0.039307 0.039307 0.0393071 0.039307 0.0393069 0.0393068 0.039307 0.0393068 0.039307 0.0393067 0.0393067 0.0393068 0.0393068 0.0393066 0.0393066 0.0393068 0.0393068 0.0393066 0.0393067 0.0393069 0.0393066 0.0393066 0.0393064 0.0393065 0.0393065 0.0393342 0.0393281 0.0393236 0.0393202 0.0393178 0.0393161 0.039315 0.0393141 0.0393136 0.0393132 0.0393128 0.0393125 0.0393123 0.0393122 0.0393118 0.0393114 0.0393114 0.0393112 0.039311 0.0393106 0.0393104 0.0393104 0.0393103 0.0393102 0.03931 0.0393098 0.0393095 0.0393096 0.0393094 0.0393092 0.0393091 0.0393088 0.0393087 0.0393086 0.0393085 0.0393083 0.0393083 0.0393081 0.0393079 0.0393077 0.0393078 0.0393078 0.0393075 0.0393074 0.0393073 0.0393074 0.0393071 0.0393074 0.0393072 0.0393071 0.0393071 0.0393071 0.039307 0.0393068 0.0393068 0.0393068 0.0393067 0.0393068 0.0393068 0.0393066 0.0393066 0.0393065 0.0393063 0.0393062 0.0393416 0.0393345 0.0393287 0.0393249 0.0393222 0.0393204 0.039319 0.039318 0.0393173 0.0393167 0.0393162 0.0393158 0.0393154 0.039315 0.0393147 0.0393143 0.0393139 0.0393138 0.0393134 0.039313 0.0393128 0.0393125 0.0393121 0.039312 0.0393118 0.0393116 0.0393113 0.0393114 0.0393109 0.0393105 0.0393105 0.0393102 0.0393098 0.0393097 0.0393097 0.0393092 0.0393093 0.0393089 0.0393089 0.0393086 0.0393086 0.0393084 0.0393082 0.039308 0.0393079 0.0393078 0.0393077 0.0393076 0.0393076 0.0393075 0.0393074 0.0393073 0.0393071 0.0393071 0.0393071 0.0393071 0.0393068 0.0393068 0.0393069 0.0393067 0.0393069 0.0393066 0.0393065 0.0393065 0.03935 0.0393395 0.0393339 0.0393289 0.0393262 0.0393243 0.0393231 0.039322 0.0393209 0.0393201 0.0393195 0.0393189 0.0393184 0.039318 0.0393174 0.0393169 0.0393166 0.0393161 0.0393157 0.0393153 0.0393149 0.0393146 0.0393141 0.0393138 0.0393135 0.0393132 0.0393128 0.0393128 0.0393123 0.039312 0.0393117 0.0393115 0.039311 0.0393107 0.0393106 0.0393102 0.0393101 0.0393096 0.0393097 0.0393095 0.0393091 0.0393089 0.0393087 0.0393088 0.0393083 0.0393083 0.0393079 0.0393078 0.0393078 0.0393077 0.0393075 0.0393074 0.0393071 0.0393072 0.0393072 0.039307 0.0393068 0.0393067 0.0393068 0.0393067 0.0393067 0.0393066 0.0393066 0.0393066 0.0393537 0.0393482 0.0393366 0.0393325 0.0393299 0.0393282 0.0393266 0.0393254 0.0393244 0.0393236 0.0393229 0.0393221 0.0393215 0.0393209 0.0393202 0.0393197 0.0393192 0.0393185 0.0393181 0.0393176 0.0393172 0.0393167 0.0393161 0.0393158 0.0393154 0.0393149 0.0393145 0.0393142 0.0393135 0.0393133 0.039313 0.0393126 0.0393123 0.0393118 0.0393117 0.0393113 0.039311 0.0393106 0.0393103 0.0393101 0.0393099 0.0393097 0.0393094 0.0393093 0.0393087 0.0393086 0.0393084 0.0393081 0.039308 0.0393078 0.0393077 0.0393075 0.0393074 0.0393072 0.0393072 0.0393071 0.0393069 0.0393072 0.0393069 0.0393068 0.0393067 0.0393066 0.0393066 0.0393066 0.0393906 0.0393454 0.0393397 0.0393363 0.0393341 0.0393323 0.0393306 0.0393292 0.0393279 0.0393271 0.0393261 0.0393251 0.0393245 0.0393237 0.039323 0.0393223 0.0393217 0.0393209 0.0393204 0.0393199 0.0393192 0.0393187 0.0393182 0.0393175 0.0393171 0.0393165 0.039316 0.0393157 0.039315 0.0393146 0.0393142 0.0393137 0.0393134 0.0393129 0.0393126 0.0393123 0.039312 0.0393115 0.039311 0.0393108 0.0393107 0.0393102 0.0393099 0.0393098 0.0393092 0.0393092 0.0393089 0.0393087 0.0393084 0.0393081 0.0393079 0.0393077 0.0393076 0.0393075 0.0393073 0.0393074 0.0393072 0.0393071 0.039307 0.0393068 0.0393068 0.0393068 0.0393067 0.0393068 0.0391876 0.0392409 0.0392574 0.0392655 0.0392698 0.0392725 0.0392744 0.0392756 0.039277 0.0392782 0.0392792 0.0392802 0.0392814 0.0392823 0.0392832 0.0392843 0.0392853 0.0392861 0.039287 0.0392881 0.0392889 0.0392897 0.0392904 0.0392912 0.0392921 0.039293 0.0392936 0.0392944 0.039295 0.0392957 0.0392963 0.039297 0.0392976 0.0392982 0.0392987 0.0392993 0.0392998 0.0393003 0.0393008 0.0393012 0.0393016 0.0393022 0.0393027 0.0393029 0.0393034 0.0393039 0.039304 0.0393045 0.0393047 0.039305 0.0393053 0.0393056 0.0393056 0.039306 0.0393062 0.0393063 0.0393064 0.0393065 0.0393068 0.0393069 0.0393068 0.0393067 0.0393067 0.0393067 0.039247 0.0392405 0.0392561 0.0392645 0.03927 0.0392734 0.0392756 0.0392774 0.0392789 0.0392803 0.0392812 0.0392822 0.0392833 0.0392842 0.039285 0.0392859 0.039287 0.0392876 0.0392886 0.0392895 0.0392903 0.039291 0.0392919 0.0392926 0.0392933 0.039294 0.0392945 0.0392953 0.0392957 0.0392965 0.0392972 0.0392977 0.0392983 0.0392987 0.0392993 0.0392998 0.0393003 0.0393006 0.0393011 0.0393016 0.0393022 0.0393025 0.0393027 0.0393031 0.0393037 0.0393041 0.0393042 0.0393046 0.0393048 0.039305 0.0393053 0.0393056 0.0393056 0.039306 0.0393062 0.0393063 0.0393063 0.0393064 0.0393066 0.0393065 0.0393067 0.0393065 0.0393067 0.0393069 0.0392547 0.0392573 0.0392614 0.039268 0.0392726 0.0392759 0.0392782 0.0392798 0.0392815 0.0392827 0.0392838 0.0392846 0.0392857 0.0392866 0.0392873 0.0392882 0.039289 0.0392898 0.0392905 0.0392912 0.0392918 0.0392924 0.0392932 0.0392939 0.0392947 0.0392952 0.039296 0.0392965 0.0392968 0.0392976 0.0392981 0.0392985 0.0392991 0.0392995 0.0392999 0.0393003 0.0393008 0.0393012 0.0393019 0.039302 0.0393024 0.0393028 0.0393031 0.0393035 0.0393038 0.0393042 0.0393044 0.0393048 0.0393049 0.0393051 0.0393052 0.0393056 0.0393058 0.039306 0.0393063 0.0393063 0.0393062 0.0393065 0.0393066 0.0393065 0.0393069 0.0393065 0.0393067 0.0393067 0.039266 0.0392665 0.03927 0.0392733 0.0392768 0.0392793 0.0392814 0.039283 0.0392843 0.0392856 0.0392866 0.0392873 0.0392883 0.0392891 0.0392898 0.0392904 0.0392913 0.0392919 0.0392925 0.0392931 0.0392938 0.0392944 0.0392948 0.0392954 0.039296 0.0392967 0.0392971 0.0392976 0.0392981 0.0392987 0.0392991 0.0392996 0.0392999 0.0393004 0.0393009 0.039301 0.0393015 0.0393019 0.0393023 0.0393025 0.0393029 0.0393033 0.0393033 0.0393037 0.0393041 0.0393044 0.0393045 0.039305 0.0393049 0.0393053 0.0393055 0.0393057 0.0393057 0.039306 0.0393063 0.0393062 0.0393063 0.0393063 0.0393066 0.0393065 0.0393066 0.0393065 0.0393066 0.0393067 0.0392754 0.0392758 0.0392775 0.0392796 0.0392818 0.0392835 0.0392851 0.0392866 0.0392877 0.0392886 0.0392894 0.0392902 0.0392909 0.0392915 0.0392923 0.0392928 0.0392935 0.0392941 0.0392945 0.0392952 0.0392957 0.0392962 0.0392967 0.0392972 0.0392976 0.0392979 0.0392984 0.0392991 0.0392994 0.0392999 0.0393 0.0393006 0.039301 0.0393013 0.0393019 0.0393018 0.0393023 0.0393027 0.0393029 0.0393032 0.0393037 0.0393037 0.0393039 0.039304 0.0393044 0.0393048 0.0393048 0.0393051 0.0393052 0.0393055 0.0393057 0.0393056 0.0393057 0.0393061 0.0393063 0.0393062 0.0393063 0.0393063 0.0393067 0.0393065 0.0393066 0.0393065 0.0393064 0.0393066 0.0392847 0.0392844 0.039285 0.0392858 0.039287 0.0392882 0.0392893 0.0392904 0.0392912 0.0392919 0.0392927 0.0392933 0.0392938 0.0392944 0.0392949 0.0392954 0.0392959 0.0392962 0.039297 0.0392972 0.0392975 0.039298 0.0392984 0.0392989 0.0392994 0.0392998 0.0393 0.0393006 0.0393007 0.039301 0.0393012 0.0393016 0.0393019 0.0393022 0.0393026 0.0393025 0.0393031 0.0393032 0.0393036 0.039304 0.0393041 0.0393043 0.0393045 0.0393046 0.0393047 0.0393049 0.039305 0.0393054 0.0393056 0.0393056 0.0393057 0.039306 0.0393058 0.0393059 0.0393063 0.0393063 0.0393061 0.0393063 0.0393065 0.0393065 0.0393064 0.0393063 0.0393064 0.0393065 0.0392932 0.0392922 0.0392921 0.0392921 0.0392924 0.039293 0.0392937 0.0392943 0.0392948 0.0392954 0.0392959 0.0392963 0.0392968 0.0392971 0.0392975 0.039298 0.0392985 0.0392988 0.039299 0.0392994 0.0392998 0.0393001 0.0393003 0.0393005 0.039301 0.0393014 0.0393016 0.0393017 0.0393019 0.0393023 0.0393026 0.0393029 0.0393031 0.0393033 0.0393036 0.0393037 0.039304 0.0393041 0.0393044 0.0393045 0.0393046 0.039305 0.0393051 0.039305 0.0393051 0.0393052 0.0393052 0.0393055 0.0393057 0.0393057 0.039306 0.0393062 0.0393061 0.039306 0.0393064 0.0393064 0.0393062 0.0393065 0.0393065 0.0393064 0.0393067 0.0393064 0.0393063 0.0393066 0.0393017 0.0392999 0.0392988 0.0392981 0.0392979 0.0392979 0.0392981 0.0392985 0.0392987 0.0392989 0.0392993 0.0392996 0.0393 0.0393001 0.0393004 0.0393008 0.0393009 0.0393011 0.0393015 0.0393017 0.0393018 0.0393021 0.0393023 0.0393025 0.0393028 0.0393028 0.0393031 0.0393033 0.0393034 0.0393038 0.0393039 0.039304 0.0393043 0.0393043 0.0393045 0.0393047 0.0393047 0.0393049 0.0393051 0.0393051 0.0393052 0.0393053 0.0393055 0.0393054 0.0393054 0.0393056 0.0393057 0.0393058 0.0393059 0.0393062 0.0393062 0.0393063 0.0393061 0.0393062 0.0393063 0.0393065 0.0393063 0.0393064 0.0393064 0.0393064 0.0393067 0.0393064 0.0393065 0.0393065 0.0393097 0.0393073 0.0393053 0.0393039 0.0393031 0.0393026 0.0393024 0.0393023 0.0393024 0.0393025 0.0393027 0.0393028 0.039303 0.0393031 0.0393032 0.0393034 0.0393036 0.0393037 0.0393038 0.0393038 0.039304 0.0393042 0.0393044 0.0393045 0.0393046 0.0393047 0.0393047 0.0393047 0.0393049 0.039305 0.039305 0.0393052 0.0393053 0.0393054 0.0393054 0.0393054 0.0393057 0.0393056 0.0393056 0.0393058 0.0393058 0.0393057 0.0393057 0.0393059 0.0393059 0.039306 0.0393061 0.0393061 0.0393062 0.0393061 0.0393061 0.0393062 0.0393061 0.0393064 0.0393064 0.0393062 0.0393064 0.0393064 0.0393065 0.0393065 0.0393066 0.0393064 0.0393065 0.0393063 0.0393177 0.0393142 0.0393115 0.0393097 0.0393082 0.0393071 0.0393066 0.0393062 0.0393061 0.039306 0.0393059 0.0393059 0.0393062 0.0393061 0.0393061 0.0393062 0.0393062 0.0393062 0.0393061 0.0393062 0.0393062 0.0393062 0.0393063 0.0393063 0.0393063 0.0393064 0.0393063 0.0393064 0.0393063 0.0393064 0.0393064 0.0393064 0.0393065 0.0393064 0.0393063 0.0393062 0.0393063 0.0393065 0.0393065 0.0393064 0.0393064 0.0393065 0.0393063 0.0393064 0.0393064 0.0393064 0.0393063 0.0393064 0.0393064 0.0393064 0.0393063 0.0393065 0.0393063 0.0393065 0.0393066 0.0393064 0.0393065 0.0393066 0.0393067 0.0393065 0.0393065 0.0393062 0.0393061 0.0393063 0.0393256 0.039321 0.0393175 0.0393148 0.0393129 0.0393116 0.0393106 0.0393102 0.0393098 0.0393096 0.0393094 0.0393091 0.0393093 0.039309 0.039309 0.039309 0.0393088 0.0393086 0.0393086 0.0393086 0.0393084 0.0393081 0.0393081 0.0393081 0.039308 0.039308 0.039308 0.0393081 0.0393076 0.0393077 0.0393077 0.0393076 0.0393078 0.0393076 0.0393074 0.0393073 0.0393075 0.0393074 0.0393073 0.0393071 0.039307 0.0393073 0.0393071 0.0393069 0.0393066 0.039307 0.0393067 0.0393067 0.0393066 0.0393067 0.0393066 0.0393066 0.0393063 0.0393065 0.0393066 0.0393066 0.0393065 0.0393066 0.0393069 0.0393065 0.0393066 0.0393063 0.0393064 0.0393064 0.0393337 0.0393276 0.0393229 0.0393196 0.0393172 0.0393158 0.0393148 0.039314 0.0393134 0.039313 0.0393129 0.0393125 0.0393123 0.0393119 0.0393117 0.0393116 0.0393114 0.039311 0.0393111 0.0393109 0.0393105 0.0393103 0.03931 0.03931 0.03931 0.0393098 0.0393096 0.0393096 0.0393091 0.039309 0.039309 0.039309 0.0393087 0.0393086 0.0393085 0.0393082 0.0393084 0.039308 0.0393079 0.0393078 0.0393077 0.0393076 0.0393077 0.0393075 0.0393073 0.0393072 0.0393069 0.039307 0.0393071 0.039307 0.039307 0.0393069 0.0393067 0.0393068 0.0393069 0.0393067 0.0393064 0.0393067 0.0393067 0.0393066 0.0393066 0.0393064 0.0393065 0.0393064 0.0393411 0.039334 0.039328 0.0393241 0.0393214 0.0393197 0.0393185 0.0393176 0.039317 0.0393165 0.0393161 0.0393157 0.0393153 0.0393149 0.0393146 0.0393142 0.0393141 0.0393137 0.0393134 0.0393132 0.0393128 0.0393124 0.0393121 0.0393122 0.0393118 0.0393114 0.0393111 0.039311 0.0393107 0.0393107 0.0393103 0.0393101 0.0393099 0.0393096 0.0393096 0.0393093 0.039309 0.039309 0.0393089 0.0393085 0.0393086 0.0393084 0.0393081 0.0393081 0.0393079 0.0393077 0.0393075 0.0393075 0.0393074 0.0393072 0.0393073 0.0393073 0.0393071 0.039307 0.039307 0.039307 0.0393068 0.0393068 0.0393069 0.0393067 0.0393067 0.0393064 0.0393064 0.0393064 0.0393492 0.0393389 0.039333 0.0393281 0.0393254 0.0393237 0.0393221 0.0393213 0.0393205 0.03932 0.0393193 0.0393186 0.0393182 0.0393178 0.0393175 0.039317 0.0393165 0.039316 0.0393158 0.0393154 0.039315 0.0393145 0.0393142 0.0393139 0.0393135 0.0393132 0.0393127 0.0393124 0.0393122 0.039312 0.0393116 0.0393113 0.0393111 0.0393107 0.0393105 0.0393104 0.0393101 0.0393097 0.0393096 0.0393095 0.0393093 0.0393089 0.0393086 0.0393086 0.0393083 0.0393082 0.0393078 0.0393078 0.0393076 0.0393075 0.0393073 0.0393074 0.0393071 0.039307 0.0393069 0.0393068 0.0393069 0.0393069 0.0393069 0.0393066 0.0393066 0.0393064 0.0393065 0.0393065 0.0393529 0.039347 0.0393356 0.0393318 0.039329 0.0393274 0.039326 0.0393248 0.039324 0.0393231 0.0393226 0.0393219 0.0393213 0.0393207 0.0393202 0.0393197 0.0393191 0.0393185 0.0393182 0.0393176 0.0393173 0.0393167 0.0393162 0.0393158 0.0393153 0.039315 0.0393145 0.0393142 0.0393139 0.0393134 0.0393129 0.0393126 0.0393122 0.0393119 0.0393117 0.0393113 0.0393111 0.0393105 0.0393103 0.0393101 0.0393099 0.0393095 0.0393091 0.039309 0.0393088 0.0393089 0.0393083 0.0393082 0.039308 0.0393079 0.0393076 0.0393076 0.0393072 0.0393072 0.0393071 0.0393071 0.0393069 0.0393067 0.0393068 0.0393067 0.0393067 0.0393065 0.0393065 0.0393065 0.0393879 0.039345 0.0393387 0.0393353 0.0393331 0.0393313 0.0393298 0.0393286 0.0393276 0.0393265 0.0393259 0.0393252 0.0393244 0.0393237 0.039323 0.0393224 0.0393216 0.0393212 0.0393205 0.0393199 0.0393195 0.0393188 0.0393182 0.0393175 0.0393169 0.0393165 0.039316 0.0393157 0.0393152 0.0393147 0.0393144 0.0393139 0.0393133 0.0393129 0.0393126 0.0393122 0.0393121 0.0393115 0.0393112 0.0393108 0.0393104 0.0393103 0.0393097 0.0393096 0.0393091 0.0393091 0.0393087 0.0393085 0.0393082 0.039308 0.0393078 0.0393078 0.0393075 0.0393074 0.0393074 0.0393071 0.0393069 0.039307 0.039307 0.0393067 0.0393068 0.0393064 0.0393064 0.0393067 0.039193 0.0392445 0.0392604 0.0392683 0.0392724 0.0392749 0.0392762 0.0392775 0.0392784 0.0392793 0.0392805 0.0392812 0.0392821 0.0392831 0.039284 0.0392849 0.0392858 0.0392866 0.0392874 0.0392883 0.0392891 0.0392901 0.0392908 0.0392916 0.0392924 0.0392932 0.0392938 0.0392948 0.0392952 0.039296 0.0392966 0.0392973 0.0392977 0.0392984 0.0392989 0.0392994 0.0393002 0.0393003 0.0393009 0.0393015 0.0393019 0.0393023 0.0393026 0.0393033 0.0393035 0.0393039 0.039304 0.0393043 0.0393048 0.0393052 0.0393053 0.0393057 0.0393057 0.0393059 0.0393063 0.0393066 0.0393065 0.0393065 0.0393069 0.0393069 0.0393068 0.0393067 0.0393068 0.0393066 0.0392469 0.0392443 0.0392589 0.039267 0.039272 0.0392751 0.0392771 0.0392785 0.0392797 0.0392809 0.0392819 0.0392827 0.0392838 0.0392846 0.0392856 0.0392865 0.0392872 0.039288 0.0392889 0.0392897 0.0392904 0.0392912 0.0392918 0.0392926 0.0392936 0.0392941 0.0392946 0.0392955 0.039296 0.0392967 0.0392972 0.0392979 0.0392982 0.0392989 0.0392995 0.0392998 0.0393006 0.039301 0.0393014 0.0393017 0.0393023 0.0393027 0.039303 0.0393033 0.0393037 0.0393042 0.0393042 0.0393046 0.0393049 0.039305 0.0393053 0.0393054 0.0393057 0.039306 0.0393061 0.0393064 0.0393064 0.0393063 0.0393068 0.0393069 0.0393069 0.0393067 0.0393069 0.0393068 0.0392547 0.0392597 0.0392635 0.03927 0.0392741 0.0392771 0.0392794 0.0392808 0.0392821 0.0392831 0.0392841 0.0392849 0.0392857 0.0392866 0.0392875 0.0392881 0.0392889 0.0392896 0.0392903 0.0392912 0.039292 0.0392926 0.0392934 0.0392939 0.0392946 0.0392951 0.0392957 0.0392963 0.0392968 0.0392975 0.0392982 0.0392987 0.039299 0.0392995 0.0393001 0.0393003 0.0393011 0.0393014 0.0393019 0.0393022 0.0393026 0.0393031 0.0393031 0.0393035 0.039304 0.0393044 0.0393044 0.0393049 0.039305 0.0393051 0.0393056 0.0393057 0.0393059 0.039306 0.0393062 0.0393064 0.0393064 0.0393064 0.0393069 0.0393067 0.0393068 0.0393067 0.0393068 0.0393071 0.0392663 0.039268 0.0392713 0.039275 0.0392781 0.0392806 0.0392824 0.0392838 0.0392851 0.0392859 0.0392869 0.0392876 0.0392882 0.0392891 0.0392899 0.0392904 0.0392911 0.0392918 0.0392924 0.039293 0.0392935 0.0392944 0.039295 0.0392955 0.0392961 0.0392966 0.0392972 0.0392978 0.0392982 0.0392987 0.0392992 0.0392996 0.0392998 0.0393005 0.0393007 0.0393011 0.0393018 0.0393018 0.0393024 0.0393026 0.0393028 0.0393034 0.0393037 0.039304 0.0393041 0.0393044 0.0393048 0.0393051 0.0393052 0.0393052 0.0393056 0.0393058 0.0393059 0.0393061 0.0393062 0.0393063 0.0393064 0.0393065 0.0393069 0.0393066 0.0393067 0.0393066 0.0393067 0.039307 0.0392758 0.0392771 0.0392785 0.039281 0.0392829 0.0392846 0.0392862 0.0392872 0.0392884 0.0392892 0.0392898 0.0392906 0.0392912 0.0392918 0.0392924 0.039293 0.0392936 0.0392939 0.0392945 0.0392952 0.0392957 0.0392962 0.0392967 0.0392971 0.0392978 0.0392982 0.0392985 0.0392992 0.0392992 0.0392998 0.0393002 0.0393005 0.0393009 0.0393014 0.0393017 0.0393018 0.0393025 0.0393028 0.039303 0.0393033 0.0393036 0.0393038 0.0393041 0.0393043 0.0393044 0.0393047 0.0393049 0.0393053 0.0393053 0.0393054 0.0393057 0.039306 0.0393059 0.0393061 0.0393063 0.0393065 0.0393065 0.0393065 0.0393068 0.0393067 0.0393068 0.0393065 0.0393066 0.0393069 0.0392848 0.0392852 0.0392857 0.039287 0.0392881 0.0392892 0.0392902 0.039291 0.0392919 0.0392924 0.0392929 0.0392935 0.039294 0.0392946 0.0392952 0.0392956 0.039296 0.0392964 0.0392967 0.0392973 0.0392977 0.039298 0.0392985 0.039299 0.0392993 0.0392996 0.0393 0.0393004 0.0393006 0.039301 0.0393013 0.0393017 0.0393021 0.0393024 0.0393026 0.039303 0.0393034 0.0393034 0.0393035 0.0393041 0.0393041 0.0393044 0.0393046 0.0393046 0.0393049 0.0393052 0.0393051 0.0393053 0.0393056 0.0393058 0.0393059 0.039306 0.0393062 0.0393064 0.0393064 0.0393065 0.0393064 0.0393065 0.0393067 0.0393064 0.0393067 0.0393066 0.0393066 0.0393067 0.0392934 0.0392929 0.0392926 0.0392929 0.0392935 0.039294 0.0392944 0.0392948 0.0392954 0.0392958 0.0392961 0.0392966 0.039297 0.0392975 0.0392979 0.0392981 0.0392985 0.0392989 0.0392992 0.0392995 0.0392997 0.0393 0.0393004 0.0393007 0.0393011 0.0393014 0.0393015 0.039302 0.0393021 0.0393023 0.0393025 0.0393028 0.0393031 0.0393033 0.0393035 0.0393039 0.0393041 0.0393041 0.0393044 0.0393047 0.0393049 0.0393048 0.0393049 0.0393052 0.0393052 0.0393056 0.0393056 0.0393057 0.039306 0.0393059 0.039306 0.0393061 0.039306 0.0393064 0.0393064 0.0393065 0.0393064 0.0393065 0.0393067 0.0393066 0.0393068 0.0393068 0.0393066 0.0393065 0.0393016 0.0393002 0.0392994 0.0392988 0.0392985 0.0392985 0.0392985 0.0392986 0.0392991 0.0392993 0.0392996 0.0393 0.0393002 0.0393004 0.0393006 0.0393008 0.0393013 0.0393015 0.0393015 0.0393019 0.0393021 0.0393022 0.0393025 0.0393026 0.0393029 0.0393032 0.0393031 0.0393035 0.0393035 0.0393038 0.039304 0.039304 0.0393044 0.0393043 0.0393045 0.0393047 0.039305 0.0393049 0.039305 0.0393054 0.0393056 0.0393054 0.0393054 0.0393056 0.0393056 0.0393059 0.0393057 0.039306 0.0393063 0.0393061 0.0393061 0.0393062 0.0393064 0.0393065 0.0393065 0.0393067 0.0393066 0.0393065 0.0393066 0.0393066 0.0393066 0.0393068 0.0393064 0.0393066 0.0393098 0.0393073 0.0393056 0.0393042 0.0393034 0.0393028 0.0393027 0.0393026 0.0393026 0.0393026 0.0393029 0.0393031 0.0393032 0.0393032 0.0393035 0.0393036 0.0393037 0.0393039 0.0393039 0.0393042 0.0393042 0.0393043 0.0393044 0.0393045 0.0393046 0.0393047 0.0393048 0.0393051 0.039305 0.0393051 0.0393053 0.0393054 0.0393055 0.0393056 0.0393056 0.0393056 0.0393057 0.0393057 0.0393058 0.0393058 0.039306 0.039306 0.039306 0.0393061 0.039306 0.0393061 0.039306 0.0393063 0.0393064 0.0393063 0.0393063 0.0393062 0.0393064 0.0393064 0.0393065 0.0393067 0.0393066 0.0393066 0.0393066 0.0393065 0.0393066 0.0393065 0.0393064 0.0393065 0.0393179 0.0393143 0.0393115 0.0393093 0.0393081 0.0393072 0.0393068 0.0393065 0.0393063 0.0393062 0.0393062 0.0393062 0.0393063 0.0393062 0.0393062 0.0393062 0.0393062 0.0393062 0.0393064 0.0393064 0.0393064 0.0393064 0.0393064 0.0393063 0.0393064 0.0393065 0.0393064 0.0393066 0.0393066 0.0393066 0.0393064 0.0393066 0.0393065 0.0393066 0.0393066 0.0393064 0.0393067 0.0393065 0.0393067 0.0393066 0.0393067 0.0393066 0.0393064 0.0393066 0.0393064 0.0393067 0.0393066 0.0393067 0.0393065 0.0393066 0.0393067 0.0393066 0.0393064 0.0393065 0.0393067 0.0393067 0.0393066 0.0393067 0.0393066 0.0393065 0.0393066 0.0393064 0.0393064 0.0393064 0.0393257 0.0393206 0.0393171 0.0393144 0.0393127 0.0393116 0.0393108 0.0393102 0.03931 0.0393097 0.0393096 0.0393095 0.0393094 0.0393092 0.0393091 0.0393089 0.0393089 0.0393087 0.0393086 0.0393087 0.0393085 0.0393084 0.0393085 0.0393083 0.0393082 0.0393082 0.039308 0.039308 0.0393081 0.0393079 0.0393077 0.0393078 0.0393076 0.0393075 0.0393076 0.0393074 0.0393075 0.0393073 0.0393073 0.0393074 0.0393073 0.0393073 0.039307 0.0393071 0.039307 0.0393071 0.0393068 0.0393069 0.0393069 0.0393068 0.0393069 0.0393069 0.0393067 0.0393067 0.0393069 0.0393067 0.0393067 0.0393067 0.0393067 0.0393066 0.0393065 0.0393064 0.0393064 0.0393065 0.0393335 0.0393267 0.0393225 0.0393188 0.0393169 0.0393155 0.0393146 0.039314 0.0393138 0.0393132 0.0393128 0.0393126 0.0393124 0.039312 0.039312 0.0393117 0.0393114 0.0393112 0.0393111 0.0393109 0.0393108 0.0393106 0.0393105 0.0393103 0.0393101 0.03931 0.0393097 0.0393098 0.0393096 0.0393093 0.0393091 0.0393091 0.039309 0.0393084 0.0393086 0.0393086 0.0393085 0.0393081 0.0393081 0.039308 0.0393081 0.0393078 0.0393077 0.0393076 0.0393074 0.0393076 0.0393073 0.0393073 0.0393071 0.039307 0.0393069 0.0393072 0.0393071 0.0393068 0.0393067 0.0393068 0.0393068 0.0393067 0.0393069 0.0393066 0.0393065 0.0393065 0.0393065 0.0393064 0.039341 0.0393328 0.0393274 0.0393234 0.0393207 0.0393192 0.0393183 0.0393176 0.0393174 0.0393167 0.0393162 0.0393157 0.0393154 0.039315 0.0393147 0.0393146 0.0393141 0.0393138 0.0393134 0.039313 0.039313 0.0393127 0.0393124 0.0393122 0.0393119 0.0393117 0.0393113 0.0393112 0.039311 0.0393106 0.0393105 0.0393103 0.0393103 0.0393099 0.0393097 0.0393095 0.0393095 0.0393091 0.0393089 0.0393089 0.0393087 0.0393085 0.0393081 0.0393082 0.039308 0.0393079 0.0393077 0.0393077 0.0393077 0.0393075 0.0393073 0.0393074 0.0393071 0.0393072 0.039307 0.0393072 0.0393069 0.0393068 0.039307 0.0393067 0.0393067 0.0393066 0.0393063 0.0393065 0.0393494 0.0393379 0.0393322 0.0393272 0.0393243 0.0393228 0.0393219 0.039321 0.0393205 0.0393199 0.0393194 0.039319 0.0393184 0.0393179 0.0393175 0.039317 0.0393168 0.0393162 0.0393156 0.0393154 0.039315 0.0393146 0.0393142 0.0393139 0.0393139 0.0393133 0.0393129 0.0393127 0.0393122 0.039312 0.0393117 0.0393114 0.0393114 0.039311 0.0393107 0.0393104 0.0393103 0.0393099 0.0393097 0.0393092 0.0393092 0.0393091 0.0393087 0.0393087 0.0393085 0.0393083 0.039308 0.039308 0.039308 0.0393077 0.0393074 0.0393075 0.0393072 0.0393073 0.0393072 0.0393071 0.039307 0.0393069 0.0393068 0.0393067 0.0393067 0.0393066 0.0393065 0.0393064 0.0393535 0.0393459 0.0393352 0.0393304 0.0393279 0.0393264 0.0393253 0.0393246 0.0393239 0.0393232 0.0393225 0.039322 0.0393215 0.039321 0.0393203 0.0393197 0.0393194 0.0393187 0.0393183 0.0393179 0.0393173 0.0393168 0.0393163 0.039316 0.0393157 0.0393152 0.0393146 0.0393144 0.0393136 0.0393135 0.0393131 0.0393128 0.0393125 0.0393121 0.0393116 0.0393113 0.039311 0.0393106 0.0393105 0.0393103 0.0393099 0.0393097 0.0393095 0.0393093 0.0393089 0.0393087 0.0393083 0.0393083 0.0393083 0.039308 0.0393079 0.0393078 0.0393075 0.0393074 0.0393073 0.0393074 0.0393072 0.0393069 0.039307 0.0393067 0.0393067 0.0393066 0.0393067 0.0393066 0.0393862 0.0393447 0.0393384 0.0393344 0.039332 0.0393304 0.0393292 0.0393282 0.0393275 0.0393267 0.039326 0.039325 0.0393247 0.039324 0.0393233 0.0393225 0.0393219 0.0393213 0.0393208 0.0393201 0.0393197 0.039319 0.0393185 0.0393181 0.0393175 0.0393171 0.0393163 0.0393159 0.0393153 0.0393149 0.0393145 0.039314 0.0393137 0.0393131 0.0393127 0.0393124 0.0393121 0.0393114 0.0393115 0.0393111 0.0393107 0.0393102 0.0393098 0.0393098 0.0393094 0.0393094 0.0393088 0.0393087 0.0393087 0.0393084 0.0393083 0.0393079 0.0393077 0.0393076 0.0393074 0.0393074 0.0393072 0.039307 0.0393071 0.0393069 0.0393069 0.0393066 0.0393067 0.039307 0.0392041 0.0392456 0.0392645 0.0392725 0.039276 0.0392776 0.0392786 0.0392792 0.03928 0.0392806 0.0392813 0.0392822 0.039283 0.0392839 0.0392847 0.0392856 0.0392864 0.0392871 0.0392881 0.0392889 0.0392896 0.0392904 0.0392912 0.039292 0.0392927 0.0392936 0.0392942 0.0392949 0.0392956 0.0392962 0.0392967 0.0392974 0.0392982 0.0392987 0.0392993 0.0392996 0.0393001 0.0393005 0.039301 0.0393016 0.039302 0.0393023 0.0393027 0.0393032 0.0393033 0.039304 0.0393042 0.0393045 0.0393049 0.0393051 0.0393054 0.0393057 0.0393057 0.0393058 0.0393063 0.0393064 0.0393063 0.0393065 0.0393067 0.0393067 0.0393068 0.0393066 0.0393068 0.0393068 0.0392518 0.0392461 0.0392615 0.0392693 0.039274 0.0392766 0.0392782 0.0392794 0.0392804 0.0392813 0.0392822 0.039283 0.0392839 0.0392847 0.0392856 0.0392862 0.0392871 0.0392879 0.0392888 0.0392897 0.0392905 0.0392911 0.039292 0.0392929 0.0392935 0.0392941 0.0392947 0.0392955 0.039296 0.0392968 0.0392972 0.0392977 0.0392984 0.0392989 0.0392995 0.0393 0.0393003 0.0393007 0.0393013 0.0393019 0.0393022 0.0393025 0.0393028 0.0393033 0.0393037 0.0393041 0.0393041 0.0393047 0.039305 0.0393052 0.0393054 0.0393056 0.0393056 0.0393059 0.0393061 0.0393063 0.0393064 0.0393065 0.0393066 0.0393067 0.0393068 0.0393067 0.0393069 0.0393068 0.0392579 0.0392584 0.0392662 0.0392718 0.039276 0.0392787 0.0392803 0.0392815 0.0392823 0.0392833 0.0392842 0.0392849 0.0392857 0.0392866 0.0392873 0.0392881 0.0392888 0.0392895 0.0392903 0.0392911 0.0392918 0.0392926 0.0392931 0.0392937 0.0392945 0.0392951 0.0392957 0.0392962 0.0392967 0.0392975 0.0392981 0.0392984 0.0392989 0.0392995 0.0392999 0.0393003 0.039301 0.0393013 0.0393017 0.0393023 0.0393026 0.0393028 0.0393034 0.0393037 0.0393039 0.0393042 0.0393043 0.0393047 0.0393049 0.0393052 0.0393054 0.0393056 0.0393056 0.0393058 0.0393061 0.0393063 0.0393064 0.0393065 0.0393066 0.0393066 0.0393068 0.0393067 0.0393069 0.0393069 0.0392688 0.0392669 0.0392735 0.0392768 0.0392798 0.0392819 0.0392835 0.0392847 0.0392855 0.0392862 0.039287 0.0392877 0.0392884 0.0392891 0.0392897 0.0392903 0.039291 0.0392917 0.0392923 0.0392928 0.0392935 0.0392942 0.0392947 0.0392953 0.0392959 0.0392966 0.039297 0.0392975 0.039298 0.0392986 0.039299 0.0392995 0.0393 0.0393003 0.0393008 0.0393011 0.0393017 0.0393021 0.0393023 0.0393026 0.0393031 0.0393033 0.0393035 0.0393041 0.0393042 0.0393045 0.0393047 0.0393049 0.0393052 0.0393054 0.0393055 0.0393054 0.0393057 0.039306 0.0393061 0.0393064 0.0393063 0.0393064 0.0393067 0.0393067 0.0393067 0.0393067 0.0393069 0.039307 0.0392776 0.0392762 0.0392804 0.0392827 0.0392847 0.0392859 0.0392872 0.0392883 0.0392889 0.0392895 0.0392901 0.0392906 0.0392915 0.039292 0.0392924 0.0392929 0.0392936 0.039294 0.0392945 0.0392951 0.0392956 0.0392962 0.0392967 0.039297 0.0392976 0.0392981 0.0392983 0.039299 0.0392994 0.0392997 0.0393001 0.0393006 0.039301 0.0393012 0.0393018 0.039302 0.0393024 0.0393026 0.0393031 0.0393032 0.0393034 0.0393038 0.0393041 0.0393042 0.0393044 0.0393048 0.039305 0.0393051 0.0393054 0.0393057 0.0393058 0.0393059 0.0393058 0.0393059 0.0393062 0.0393064 0.0393065 0.0393064 0.0393067 0.0393066 0.0393067 0.0393068 0.039307 0.0393068 0.039286 0.0392844 0.0392873 0.0392885 0.0392895 0.0392901 0.039291 0.0392918 0.0392923 0.0392929 0.0392934 0.0392938 0.0392944 0.0392946 0.0392951 0.0392957 0.039296 0.0392964 0.039297 0.0392974 0.0392977 0.039298 0.0392985 0.0392988 0.0392993 0.0392996 0.0392999 0.0393004 0.0393006 0.039301 0.0393013 0.0393017 0.0393019 0.0393024 0.0393026 0.0393029 0.0393033 0.0393033 0.0393037 0.039304 0.0393039 0.0393044 0.0393046 0.0393047 0.0393048 0.0393052 0.0393052 0.0393055 0.0393056 0.0393057 0.0393059 0.0393061 0.0393058 0.039306 0.0393064 0.0393063 0.0393065 0.0393065 0.0393067 0.0393066 0.0393066 0.0393067 0.0393066 0.0393068 0.0392942 0.0392926 0.0392938 0.0392939 0.0392943 0.0392946 0.0392951 0.0392954 0.0392957 0.0392962 0.0392966 0.0392969 0.0392972 0.0392975 0.0392979 0.0392984 0.0392986 0.0392988 0.0392992 0.0392994 0.0392999 0.0393002 0.0393004 0.0393008 0.0393011 0.0393014 0.0393017 0.0393021 0.0393021 0.0393023 0.0393026 0.0393029 0.0393032 0.0393032 0.0393035 0.0393037 0.039304 0.0393041 0.0393045 0.0393045 0.0393046 0.0393049 0.0393052 0.0393053 0.0393054 0.0393055 0.0393055 0.0393055 0.039306 0.0393058 0.0393059 0.0393062 0.0393061 0.0393061 0.0393063 0.0393064 0.0393065 0.0393067 0.0393066 0.0393066 0.0393066 0.0393066 0.0393065 0.0393066 0.039302 0.0393002 0.0392998 0.0392992 0.0392991 0.0392991 0.0392993 0.0392993 0.0392994 0.0392996 0.0393 0.0393001 0.0393002 0.0393006 0.0393006 0.039301 0.0393012 0.0393012 0.0393015 0.0393017 0.039302 0.0393022 0.0393024 0.0393026 0.0393029 0.0393032 0.0393031 0.0393034 0.0393035 0.0393037 0.039304 0.0393042 0.0393044 0.0393044 0.0393046 0.0393046 0.0393047 0.0393049 0.0393052 0.0393052 0.0393052 0.0393053 0.0393056 0.0393056 0.0393057 0.0393059 0.039306 0.0393059 0.0393061 0.039306 0.0393062 0.0393065 0.0393064 0.0393063 0.0393063 0.0393064 0.0393065 0.0393066 0.0393066 0.0393063 0.0393065 0.0393064 0.0393063 0.0393067 0.0393095 0.0393075 0.0393055 0.0393042 0.0393035 0.0393031 0.0393029 0.0393029 0.039303 0.0393031 0.0393032 0.0393033 0.0393034 0.0393035 0.0393036 0.0393037 0.0393037 0.0393039 0.039304 0.039304 0.0393043 0.0393045 0.0393045 0.0393045 0.0393048 0.0393048 0.0393047 0.039305 0.0393049 0.0393051 0.0393053 0.0393055 0.0393056 0.0393053 0.0393056 0.0393055 0.0393058 0.0393057 0.0393058 0.0393058 0.0393059 0.0393059 0.0393059 0.0393061 0.0393064 0.0393063 0.0393062 0.0393064 0.0393063 0.0393065 0.0393064 0.0393065 0.0393065 0.0393063 0.0393066 0.0393067 0.0393065 0.0393066 0.0393067 0.0393067 0.0393067 0.0393065 0.0393065 0.0393065 0.0393169 0.0393145 0.0393109 0.039309 0.0393078 0.0393072 0.0393067 0.0393066 0.0393063 0.0393065 0.0393065 0.0393062 0.0393064 0.0393062 0.0393063 0.0393065 0.0393065 0.0393065 0.0393065 0.0393063 0.0393065 0.0393066 0.0393066 0.0393066 0.0393065 0.0393066 0.0393065 0.0393066 0.0393064 0.0393066 0.0393066 0.0393065 0.0393066 0.0393065 0.0393066 0.0393066 0.0393068 0.0393066 0.0393067 0.0393067 0.0393066 0.0393064 0.0393064 0.0393068 0.0393066 0.0393067 0.0393066 0.0393066 0.0393066 0.0393068 0.0393066 0.0393067 0.0393067 0.0393066 0.0393068 0.0393071 0.0393065 0.0393067 0.0393067 0.0393068 0.0393067 0.0393065 0.0393065 0.0393065 0.0393244 0.0393215 0.039316 0.0393137 0.0393122 0.0393111 0.0393105 0.0393103 0.03931 0.0393097 0.0393097 0.0393095 0.0393095 0.0393093 0.0393092 0.0393094 0.0393092 0.0393088 0.0393089 0.0393088 0.0393087 0.0393086 0.0393087 0.0393085 0.0393082 0.0393083 0.0393082 0.0393081 0.0393079 0.039308 0.0393079 0.0393077 0.0393079 0.0393077 0.0393077 0.0393076 0.0393076 0.0393073 0.0393075 0.0393075 0.0393073 0.0393071 0.0393073 0.0393072 0.0393071 0.0393073 0.0393072 0.0393069 0.039307 0.0393068 0.0393069 0.0393068 0.0393067 0.0393069 0.039307 0.0393068 0.0393067 0.0393067 0.0393067 0.0393068 0.0393069 0.0393066 0.0393062 0.0393064 0.0393313 0.0393277 0.039321 0.039318 0.0393161 0.0393148 0.0393142 0.0393137 0.0393134 0.0393132 0.0393129 0.0393126 0.0393126 0.0393122 0.039312 0.0393119 0.0393117 0.0393113 0.0393114 0.0393112 0.0393108 0.0393107 0.0393105 0.0393105 0.0393102 0.0393099 0.0393097 0.0393098 0.0393096 0.0393094 0.0393093 0.0393091 0.0393091 0.0393089 0.0393088 0.0393084 0.0393084 0.0393082 0.0393081 0.0393081 0.039308 0.0393079 0.0393077 0.0393075 0.0393077 0.0393077 0.0393075 0.0393075 0.0393073 0.0393071 0.039307 0.0393071 0.0393069 0.0393069 0.0393071 0.0393069 0.0393067 0.0393067 0.0393071 0.0393067 0.0393068 0.0393064 0.0393064 0.0393065 0.0393385 0.0393342 0.0393257 0.039322 0.0393198 0.0393187 0.0393178 0.0393173 0.0393168 0.0393165 0.0393162 0.0393159 0.0393157 0.0393153 0.0393148 0.0393145 0.0393143 0.039314 0.0393137 0.0393136 0.0393131 0.0393129 0.0393126 0.0393122 0.039312 0.0393118 0.0393115 0.0393113 0.039311 0.0393108 0.0393106 0.0393104 0.0393102 0.03931 0.0393097 0.0393095 0.0393096 0.0393091 0.039309 0.0393088 0.0393084 0.0393084 0.0393083 0.0393082 0.0393081 0.0393082 0.0393079 0.0393079 0.0393075 0.0393075 0.0393075 0.0393075 0.0393073 0.0393071 0.0393071 0.0393071 0.0393068 0.0393067 0.0393071 0.0393069 0.0393067 0.0393066 0.0393065 0.0393065 0.0393461 0.0393397 0.0393301 0.0393256 0.0393232 0.0393221 0.0393212 0.0393206 0.0393201 0.03932 0.0393194 0.0393189 0.0393186 0.0393181 0.0393178 0.0393173 0.0393168 0.0393165 0.0393161 0.0393157 0.0393152 0.0393149 0.0393146 0.039314 0.0393139 0.0393135 0.0393131 0.0393128 0.0393124 0.0393121 0.0393117 0.0393116 0.0393113 0.0393109 0.0393107 0.0393106 0.0393103 0.03931 0.0393099 0.0393096 0.0393093 0.0393091 0.0393089 0.0393089 0.0393085 0.0393083 0.0393081 0.039308 0.039308 0.0393078 0.0393077 0.0393077 0.0393075 0.0393073 0.0393073 0.0393071 0.0393068 0.0393069 0.039307 0.0393068 0.0393068 0.0393066 0.0393065 0.0393067 0.0393497 0.0393467 0.0393336 0.0393288 0.0393263 0.0393252 0.0393247 0.0393242 0.0393236 0.0393232 0.0393228 0.0393221 0.0393216 0.0393209 0.0393205 0.0393201 0.0393194 0.039319 0.0393185 0.0393179 0.0393175 0.039317 0.0393164 0.0393161 0.0393156 0.0393153 0.0393147 0.0393144 0.0393138 0.0393135 0.0393132 0.0393129 0.0393124 0.0393119 0.0393118 0.0393113 0.0393112 0.0393109 0.0393105 0.0393101 0.0393098 0.0393099 0.0393096 0.0393092 0.039309 0.0393091 0.0393085 0.0393085 0.0393083 0.0393081 0.039308 0.0393078 0.0393074 0.0393074 0.0393076 0.0393073 0.0393069 0.039307 0.0393071 0.0393068 0.039307 0.0393068 0.0393066 0.0393067 0.0393802 0.0393483 0.0393369 0.039332 0.0393298 0.0393289 0.0393281 0.0393275 0.0393271 0.0393265 0.0393259 0.0393253 0.0393247 0.0393239 0.0393234 0.0393229 0.0393223 0.0393215 0.0393209 0.0393203 0.0393197 0.0393192 0.0393186 0.0393181 0.0393176 0.0393171 0.0393164 0.0393161 0.0393156 0.0393151 0.0393146 0.0393143 0.0393137 0.0393133 0.0393129 0.0393124 0.0393121 0.0393118 0.0393115 0.0393111 0.0393106 0.0393105 0.0393101 0.0393098 0.0393094 0.0393093 0.0393088 0.0393089 0.0393086 0.0393084 0.0393081 0.0393079 0.0393077 0.0393078 0.0393077 0.0393075 0.0393072 0.0393071 0.0393072 0.0393069 0.0393072 0.039307 0.0393068 0.0393067 0.039177 0.0392557 0.0392727 0.0392776 0.0392788 0.0392793 0.0392798 0.0392803 0.0392809 0.0392815 0.0392823 0.0392831 0.0392839 0.0392846 0.0392855 0.0392864 0.0392872 0.0392879 0.0392888 0.0392895 0.0392904 0.0392912 0.0392919 0.0392925 0.0392933 0.0392939 0.0392946 0.0392953 0.0392957 0.0392964 0.0392971 0.0392977 0.0392983 0.0392987 0.0392993 0.0392997 0.0393003 0.0393006 0.0393012 0.0393016 0.039302 0.0393026 0.0393028 0.0393031 0.0393034 0.0393039 0.0393041 0.0393045 0.0393045 0.0393051 0.0393051 0.0393055 0.0393056 0.0393057 0.0393059 0.0393062 0.0393062 0.0393064 0.0393066 0.0393064 0.0393066 0.0393066 0.0393066 0.0393066 0.0392158 0.0392479 0.0392664 0.0392743 0.0392774 0.0392786 0.0392794 0.0392799 0.0392805 0.0392811 0.0392818 0.0392825 0.0392834 0.0392841 0.0392848 0.0392858 0.0392868 0.0392874 0.0392883 0.039289 0.0392898 0.0392906 0.0392915 0.0392921 0.039293 0.0392937 0.0392944 0.0392952 0.0392955 0.0392963 0.039297 0.0392976 0.0392983 0.0392987 0.0392991 0.0392996 0.0393002 0.0393007 0.0393012 0.0393015 0.039302 0.0393025 0.0393027 0.0393031 0.0393035 0.039304 0.0393041 0.0393046 0.0393048 0.039305 0.0393053 0.0393057 0.0393057 0.0393059 0.0393061 0.0393063 0.0393065 0.0393065 0.0393067 0.0393067 0.0393067 0.0393066 0.0393068 0.0393069 0.0392308 0.0392619 0.0392701 0.0392761 0.0392794 0.0392811 0.039282 0.0392826 0.0392832 0.0392837 0.0392843 0.0392851 0.0392857 0.0392863 0.039287 0.0392876 0.0392885 0.0392894 0.03929 0.0392907 0.0392914 0.039292 0.0392928 0.0392935 0.0392943 0.0392948 0.0392955 0.0392963 0.0392966 0.0392972 0.0392978 0.0392983 0.0392989 0.0392993 0.0392997 0.0393002 0.0393009 0.0393011 0.0393016 0.039302 0.0393024 0.0393027 0.039303 0.0393034 0.0393037 0.0393042 0.0393043 0.0393048 0.039305 0.039305 0.0393053 0.0393058 0.0393057 0.0393057 0.039306 0.0393062 0.0393063 0.0393064 0.0393067 0.0393065 0.0393067 0.0393068 0.0393068 0.0393068 0.0392479 0.0392716 0.0392767 0.0392803 0.0392827 0.0392843 0.0392851 0.0392856 0.0392862 0.0392868 0.0392874 0.0392879 0.0392885 0.0392889 0.0392895 0.0392902 0.0392909 0.0392915 0.0392921 0.0392929 0.0392935 0.039294 0.0392946 0.0392952 0.0392958 0.0392963 0.0392969 0.0392975 0.0392979 0.0392985 0.0392989 0.0392993 0.0392999 0.0393003 0.0393007 0.0393011 0.0393014 0.0393018 0.0393023 0.0393026 0.0393029 0.0393033 0.0393035 0.0393039 0.039304 0.0393045 0.0393045 0.0393049 0.0393052 0.0393052 0.0393055 0.0393058 0.0393058 0.0393057 0.039306 0.0393063 0.0393063 0.0393064 0.0393066 0.0393066 0.0393067 0.0393066 0.0393066 0.0393068 0.039262 0.0392808 0.0392833 0.0392853 0.0392867 0.0392878 0.0392885 0.0392891 0.0392895 0.0392901 0.0392905 0.0392909 0.0392914 0.0392918 0.0392924 0.039293 0.0392934 0.0392939 0.0392945 0.0392951 0.0392955 0.039296 0.0392965 0.0392969 0.0392975 0.0392979 0.0392984 0.0392989 0.0392992 0.0392997 0.0393 0.0393005 0.0393009 0.0393012 0.0393016 0.0393017 0.0393023 0.0393025 0.039303 0.0393033 0.0393033 0.0393038 0.0393039 0.0393043 0.0393044 0.0393048 0.0393049 0.039305 0.0393054 0.0393054 0.0393056 0.0393059 0.0393058 0.039306 0.0393062 0.0393063 0.0393062 0.0393063 0.0393066 0.0393065 0.0393066 0.0393066 0.0393066 0.0393069 0.0392751 0.0392882 0.0392894 0.0392902 0.0392909 0.0392915 0.0392922 0.0392927 0.039293 0.0392934 0.0392937 0.0392941 0.0392944 0.0392948 0.0392953 0.0392956 0.039296 0.0392965 0.0392968 0.0392973 0.0392978 0.0392982 0.0392984 0.0392989 0.0392992 0.0392995 0.0392999 0.0393004 0.0393006 0.039301 0.0393014 0.0393018 0.039302 0.0393024 0.0393026 0.0393027 0.0393032 0.0393033 0.0393035 0.0393037 0.039304 0.0393042 0.0393044 0.0393045 0.0393049 0.039305 0.0393052 0.0393054 0.0393055 0.0393056 0.039306 0.039306 0.0393059 0.0393062 0.0393062 0.0393062 0.0393062 0.0393063 0.0393066 0.0393065 0.0393065 0.0393065 0.0393066 0.0393068 0.0392876 0.039295 0.0392952 0.0392953 0.0392952 0.0392953 0.0392958 0.0392961 0.0392964 0.0392967 0.0392968 0.0392972 0.0392975 0.0392978 0.0392979 0.0392983 0.0392987 0.039299 0.0392993 0.0392997 0.0393 0.0393003 0.0393005 0.0393007 0.039301 0.0393013 0.0393015 0.039302 0.0393021 0.0393025 0.0393027 0.0393029 0.0393031 0.0393033 0.0393037 0.0393037 0.0393041 0.039304 0.0393042 0.0393044 0.0393048 0.0393048 0.0393049 0.0393051 0.0393053 0.0393055 0.0393055 0.0393058 0.0393058 0.0393059 0.0393061 0.0393061 0.039306 0.0393061 0.0393061 0.0393062 0.0393063 0.0393064 0.0393066 0.0393066 0.0393066 0.0393065 0.0393068 0.0393068 0.0392996 0.0393011 0.0393004 0.0392999 0.0392995 0.0392996 0.0392995 0.0392994 0.0392999 0.0393 0.0393002 0.0393003 0.0393005 0.0393007 0.0393007 0.0393009 0.0393013 0.0393014 0.0393018 0.0393019 0.0393021 0.0393023 0.0393026 0.0393027 0.039303 0.0393032 0.0393032 0.0393035 0.0393035 0.0393037 0.0393039 0.0393041 0.0393043 0.0393045 0.0393045 0.0393046 0.0393049 0.0393048 0.0393048 0.0393051 0.0393055 0.0393054 0.0393053 0.0393057 0.0393056 0.0393059 0.0393058 0.0393061 0.0393062 0.0393063 0.039306 0.0393063 0.0393061 0.0393062 0.0393064 0.0393063 0.0393063 0.0393064 0.0393067 0.0393066 0.0393066 0.0393066 0.0393066 0.0393067 0.0393112 0.039307 0.0393053 0.0393044 0.0393037 0.0393033 0.0393033 0.0393033 0.0393032 0.0393032 0.0393034 0.0393036 0.0393037 0.0393036 0.0393037 0.0393037 0.0393038 0.039304 0.0393042 0.0393043 0.0393045 0.0393045 0.0393045 0.0393048 0.0393049 0.0393046 0.0393049 0.039305 0.039305 0.0393052 0.0393052 0.0393053 0.0393054 0.0393054 0.0393054 0.0393055 0.0393057 0.0393058 0.0393058 0.0393058 0.039306 0.039306 0.0393059 0.0393061 0.039306 0.0393063 0.0393062 0.0393062 0.0393063 0.0393062 0.0393062 0.0393065 0.0393063 0.0393065 0.0393066 0.0393065 0.0393064 0.0393064 0.0393066 0.0393066 0.0393066 0.0393064 0.0393065 0.0393065 0.0393227 0.0393125 0.0393101 0.0393085 0.0393076 0.0393071 0.039307 0.0393067 0.0393066 0.0393068 0.0393066 0.0393065 0.0393066 0.0393066 0.0393066 0.0393066 0.0393066 0.0393065 0.0393065 0.0393065 0.0393066 0.0393065 0.0393066 0.0393066 0.0393066 0.0393065 0.0393064 0.0393065 0.0393065 0.0393067 0.0393066 0.0393067 0.0393067 0.0393065 0.0393065 0.0393064 0.0393068 0.0393066 0.0393065 0.0393066 0.0393065 0.0393066 0.0393064 0.0393066 0.0393065 0.0393065 0.0393066 0.0393066 0.0393067 0.0393066 0.0393066 0.0393068 0.0393065 0.0393066 0.0393067 0.0393067 0.0393067 0.0393066 0.0393068 0.0393066 0.0393065 0.0393064 0.0393063 0.0393063 0.0393342 0.0393181 0.0393146 0.0393126 0.0393115 0.0393109 0.0393106 0.0393101 0.03931 0.03931 0.0393099 0.0393097 0.0393097 0.0393096 0.0393094 0.0393093 0.0393092 0.0393091 0.0393089 0.0393089 0.0393088 0.0393088 0.0393086 0.0393085 0.0393084 0.0393084 0.0393079 0.0393081 0.0393079 0.0393078 0.0393079 0.0393079 0.0393078 0.0393076 0.0393076 0.0393073 0.0393075 0.0393074 0.0393073 0.0393073 0.0393072 0.0393072 0.0393071 0.0393073 0.0393071 0.039307 0.0393071 0.039307 0.039307 0.039307 0.039307 0.0393069 0.0393068 0.0393067 0.0393068 0.0393069 0.0393067 0.0393068 0.0393067 0.0393065 0.0393066 0.0393065 0.0393064 0.0393064 0.0393458 0.0393238 0.039319 0.0393165 0.0393152 0.0393145 0.039314 0.0393138 0.0393135 0.0393133 0.039313 0.0393129 0.0393128 0.0393125 0.0393124 0.039312 0.0393118 0.0393116 0.0393115 0.0393112 0.0393111 0.0393109 0.0393107 0.0393105 0.0393103 0.03931 0.0393098 0.0393098 0.0393096 0.0393094 0.0393092 0.0393092 0.039309 0.0393087 0.0393087 0.0393084 0.0393084 0.0393083 0.0393082 0.0393081 0.0393081 0.0393079 0.0393078 0.0393078 0.0393076 0.0393076 0.0393075 0.0393072 0.0393073 0.0393073 0.0393071 0.0393072 0.039307 0.0393069 0.039307 0.0393069 0.0393068 0.0393068 0.0393068 0.0393066 0.0393067 0.0393065 0.0393063 0.0393063 0.0393572 0.0393292 0.0393233 0.0393202 0.0393188 0.039318 0.0393175 0.0393173 0.0393169 0.0393167 0.0393164 0.0393161 0.0393158 0.0393154 0.0393151 0.0393148 0.0393146 0.0393142 0.0393139 0.0393135 0.0393133 0.039313 0.0393128 0.0393124 0.0393122 0.0393119 0.0393115 0.0393115 0.0393111 0.039311 0.0393108 0.0393105 0.0393102 0.03931 0.0393098 0.0393094 0.0393096 0.0393091 0.039309 0.0393089 0.0393087 0.0393087 0.0393085 0.0393083 0.0393081 0.0393081 0.0393078 0.0393078 0.0393076 0.0393076 0.0393073 0.0393074 0.0393071 0.0393071 0.0393072 0.039307 0.0393068 0.0393067 0.0393069 0.0393067 0.0393068 0.0393065 0.0393065 0.0393066 0.0393694 0.0393347 0.0393273 0.0393237 0.0393222 0.0393214 0.0393211 0.0393207 0.0393204 0.0393199 0.0393197 0.0393193 0.0393189 0.0393184 0.0393179 0.0393175 0.0393171 0.0393166 0.0393162 0.0393159 0.0393154 0.039315 0.0393148 0.0393143 0.0393139 0.0393136 0.0393131 0.0393131 0.0393126 0.0393124 0.0393121 0.0393116 0.0393114 0.039311 0.0393108 0.0393104 0.0393103 0.03931 0.0393097 0.0393094 0.0393094 0.0393093 0.0393089 0.0393087 0.0393086 0.0393085 0.0393082 0.039308 0.039308 0.0393077 0.0393077 0.0393076 0.0393073 0.0393073 0.0393071 0.0393071 0.039307 0.0393068 0.0393069 0.0393067 0.0393067 0.0393064 0.0393064 0.0393065 0.0393795 0.0393424 0.0393303 0.0393265 0.0393253 0.039325 0.0393247 0.0393243 0.0393238 0.0393233 0.0393229 0.0393223 0.0393218 0.0393214 0.0393207 0.0393203 0.0393198 0.0393191 0.0393187 0.0393182 0.0393177 0.0393172 0.0393167 0.0393163 0.0393159 0.0393153 0.0393148 0.0393146 0.039314 0.0393137 0.0393133 0.0393129 0.0393124 0.0393122 0.0393117 0.0393114 0.0393114 0.0393108 0.0393104 0.0393104 0.0393102 0.0393099 0.0393096 0.0393093 0.039309 0.0393088 0.0393085 0.0393085 0.0393084 0.0393081 0.0393079 0.0393077 0.0393074 0.0393074 0.0393072 0.0393073 0.039307 0.0393069 0.0393069 0.0393068 0.0393067 0.0393065 0.0393065 0.0393066 0.0394089 0.0393426 0.0393315 0.0393291 0.0393287 0.0393285 0.0393281 0.0393276 0.0393272 0.0393265 0.0393259 0.0393251 0.0393247 0.0393241 0.0393234 0.0393228 0.0393221 0.0393214 0.0393209 0.0393203 0.0393199 0.0393193 0.0393186 0.039318 0.0393175 0.039317 0.0393165 0.0393161 0.0393155 0.0393151 0.0393147 0.0393142 0.0393136 0.0393132 0.039313 0.0393125 0.0393122 0.0393116 0.0393114 0.0393112 0.0393108 0.0393104 0.03931 0.0393099 0.0393096 0.0393093 0.0393089 0.0393088 0.0393086 0.0393084 0.0393082 0.0393081 0.0393077 0.0393076 0.0393075 0.0393074 0.039307 0.0393072 0.0393071 0.039307 0.0393069 0.0393066 0.0393066 0.0393068 
