# vtk DataFile Version 5.1
vtk output
ASCII

DATASET UNSTRUCTURED_GRID
POINTS 18785 float
0 0 3.3
0.125 0 3.3
0.25 0 3.3
0.375 0 3.3
0.5 0 3.3
0.625 0 3.3
0.75 0 3.3
0.875 0 3.3
1 0 3.3
1.125 0 3.3
1.25 0 3.3
1.375 0 3.3
1.5 0 3.3
1.625 0 3.3
1.75 0 3.3
1.875 0 3.3
2 0 3.3
2.125 0 3.3
2.25 0 3.3
2.375 0 3.3
2.5 0 3.3
2.625 0 3.3
2.75 0 3.3
2.875 0 3.3
3 0 3.3
3.125 0 3.3
3.25 0 3.3
3.375 0 3.3
3.5 0 3.3
3.625 0 3.3
3.75 0 3.3
3.875 0 3.3
4 0 3.3
0 0.125 3.3
0.125 0.125 3.3
0.25 0.125 3.3
0.375 0.125 3.3
0.5 0.125 3.3
0.625 0.125 3.3
0.75 0.125 3.3
0.875 0.125 3.3
1 0.125 3.3
1.125 0.125 3.3
1.25 0.125 3.3
1.375 0.125 3.3
1.5 0.125 3.3
1.625 0.125 3.3
1.75 0.125 3.3
1.875 0.125 3.3
2 0.125 3.3
2.125 0.125 3.3
2.25 0.125 3.3
2.375 0.125 3.3
2.5 0.125 3.3
2.625 0.125 3.3
2.75 0.125 3.3
2.875 0.125 3.3
3 0.125 3.3
3.125 0.125 3.3
3.25 0.125 3.3
3.375 0.125 3.3
3.5 0.125 3.3
3.625 0.125 3.3
3.75 0.125 3.3
3.875 0.125 3.3
4 0.125 3.3
0 0.25 3.3
0.125 0.25 3.3
0.25 0.25 3.3
0.375 0.25 3.3
0.5 0.25 3.3
0.625 0.25 3.3
0.75 0.25 3.3
0.875 0.25 3.3
1 0.25 3.3
1.125 0.25 3.3
1.25 0.25 3.3
1.375 0.25 3.3
1.5 0.25 3.3
1.625 0.25 3.3
1.75 0.25 3.3
1.875 0.25 3.3
2 0.25 3.3
2.125 0.25 3.3
2.25 0.25 3.3
2.375 0.25 3.3
2.5 0.25 3.3
2.625 0.25 3.3
2.75 0.25 3.3
2.875 0.25 3.3
3 0.25 3.3
3.125 0.25 3.3
3.25 0.25 3.3
3.375 0.25 3.3
3.5 0.25 3.3
3.625 0.25 3.3
3.75 0.25 3.3
3.875 0.25 3.3
4 0.25 3.3
0 0.375 3.3
0.125 0.375 3.3
0.25 0.375 3.3
0.375 0.375 3.3
0.5 0.375 3.3
0.625 0.375 3.3
0.75 0.375 3.3
0.875 0.375 3.3
1 0.375 3.3
1.125 0.375 3.3
1.25 0.375 3.3
1.375 0.375 3.3
1.5 0.375 3.3
1.625 0.375 3.3
1.75 0.375 3.3
1.875 0.375 3.3
2 0.375 3.3
2.125 0.375 3.3
2.25 0.375 3.3
2.375 0.375 3.3
2.5 0.375 3.3
2.625 0.375 3.3
2.75 0.375 3.3
2.875 0.375 3.3
3 0.375 3.3
3.125 0.375 3.3
3.25 0.375 3.3
3.375 0.375 3.3
3.5 0.375 3.3
3.625 0.375 3.3
3.75 0.375 3.3
3.875 0.375 3.3
4 0.375 3.3
0 0.5 3.3
0.125 0.5 3.3
0.25 0.5 3.3
0.375 0.5 3.3
0.5 0.5 3.3
0.625 0.5 3.3
0.75 0.5 3.3
0.875 0.5 3.3
1 0.5 3.3
1.125 0.5 3.3
1.25 0.5 3.3
1.375 0.5 3.3
1.5 0.5 3.3
1.625 0.5 3.3
1.75 0.5 3.3
1.875 0.5 3.3
2 0.5 3.3
2.125 0.5 3.3
2.25 0.5 3.3
2.375 0.5 3.3
2.5 0.5 3.3
2.625 0.5 3.3
2.75 0.5 3.3
2.875 0.5 3.3
3 0.5 3.3
3.125 0.5 3.3
3.25 0.5 3.3
3.375 0.5 3.3
3.5 0.5 3.3
3.625 0.5 3.3
3.75 0.5 3.3
3.875 0.5 3.3
4 0.5 3.3
0 0.625 3.3
0.125 0.625 3.3
0.25 0.625 3.3
0.375 0.625 3.3
0.5 0.625 3.3
0.625 0.625 3.3
0.75 0.625 3.3
0.875 0.625 3.3
1 0.625 3.3
1.125 0.625 3.3
1.25 0.625 3.3
1.375 0.625 3.3
1.5 0.625 3.3
1.625 0.625 3.3
1.75 0.625 3.3
1.875 0.625 3.3
2 0.625 3.3
2.125 0.625 3.3
2.25 0.625 3.3
2.375 0.625 3.3
2.5 0.625 3.3
2.625 0.625 3.3
2.75 0.625 3.3
2.875 0.625 3.3
3 0.625 3.3
3.125 0.625 3.3
3.25 0.625 3.3
3.375 0.625 3.3
3.5 0.625 3.3
3.625 0.625 3.3
3.75 0.625 3.3
3.875 0.625 3.3
4 0.625 3.3
0 0.75 3.3
0.125 0.75 3.3
0.25 0.75 3.3
0.375 0.75 3.3
0.5 0.75 3.3
0.625 0.75 3.3
0.75 0.75 3.3
0.875 0.75 3.3
1 0.75 3.3
1.125 0.75 3.3
1.25 0.75 3.3
1.375 0.75 3.3
1.5 0.75 3.3
1.625 0.75 3.3
1.75 0.75 3.3
1.875 0.75 3.3
2 0.75 3.3
2.125 0.75 3.3
2.25 0.75 3.3
2.375 0.75 3.3
2.5 0.75 3.3
2.625 0.75 3.3
2.75 0.75 3.3
2.875 0.75 3.3
3 0.75 3.3
3.125 0.75 3.3
3.25 0.75 3.3
3.375 0.75 3.3
3.5 0.75 3.3
3.625 0.75 3.3
3.75 0.75 3.3
3.875 0.75 3.3
4 0.75 3.3
0 0.875 3.3
0.125 0.875 3.3
0.25 0.875 3.3
0.375 0.875 3.3
0.5 0.875 3.3
0.625 0.875 3.3
0.75 0.875 3.3
0.875 0.875 3.3
1 0.875 3.3
1.125 0.875 3.3
1.25 0.875 3.3
1.375 0.875 3.3
1.5 0.875 3.3
1.625 0.875 3.3
1.75 0.875 3.3
1.875 0.875 3.3
2 0.875 3.3
2.125 0.875 3.3
2.25 0.875 3.3
2.375 0.875 3.3
2.5 0.875 3.3
2.625 0.875 3.3
2.75 0.875 3.3
2.875 0.875 3.3
3 0.875 3.3
3.125 0.875 3.3
3.25 0.875 3.3
3.375 0.875 3.3
3.5 0.875 3.3
3.625 0.875 3.3
3.75 0.875 3.3
3.875 0.875 3.3
4 0.875 3.3
0 1 3.3
0.125 1 3.3
0.25 1 3.3
0.375 1 3.3
0.5 1 3.3
0.625 1 3.3
0.75 1 3.3
0.875 1 3.3
1 1 3.3
1.125 1 3.3
1.25 1 3.3
1.375 1 3.3
1.5 1 3.3
1.625 1 3.3
1.75 1 3.3
1.875 1 3.3
2 1 3.3
2.125 1 3.3
2.25 1 3.3
2.375 1 3.3
2.5 1 3.3
2.625 1 3.3
2.75 1 3.3
2.875 1 3.3
3 1 3.3
3.125 1 3.3
3.25 1 3.3
3.375 1 3.3
3.5 1 3.3
3.625 1 3.3
3.75 1 3.3
3.875 1 3.3
4 1 3.3
0 0 3.425
0.125 0 3.425
0.25 0 3.425
0.375 0 3.425
0.5 0 3.425
0.625 0 3.425
0.75 0 3.425
0.875 0 3.425
1 0 3.425
1.125 0 3.425
1.25 0 3.425
1.375 0 3.425
1.5 0 3.425
1.625 0 3.425
1.75 0 3.425
1.875 0 3.425
2 0 3.425
2.125 0 3.425
2.25 0 3.425
2.375 0 3.425
2.5 0 3.425
2.625 0 3.425
2.75 0 3.425
2.875 0 3.425
3 0 3.425
3.125 0 3.425
3.25 0 3.425
3.375 0 3.425
3.5 0 3.425
3.625 0 3.425
3.75 0 3.425
3.875 0 3.425
4 0 3.425
0 0.125 3.425
0.125 0.125 3.425
0.25 0.125 3.425
0.375 0.125 3.425
0.5 0.125 3.425
0.625 0.125 3.425
0.75 0.125 3.425
0.875 0.125 3.425
1 0.125 3.425
1.125 0.125 3.425
1.25 0.125 3.425
1.375 0.125 3.425
1.5 0.125 3.425
1.625 0.125 3.425
1.75 0.125 3.425
1.875 0.125 3.425
2 0.125 3.425
2.125 0.125 3.425
2.25 0.125 3.425
2.375 0.125 3.425
2.5 0.125 3.425
2.625 0.125 3.425
2.75 0.125 3.425
2.875 0.125 3.425
3 0.125 3.425
3.125 0.125 3.425
3.25 0.125 3.425
3.375 0.125 3.425
3.5 0.125 3.425
3.625 0.125 3.425
3.75 0.125 3.425
3.875 0.125 3.425
4 0.125 3.425
0 0.25 3.425
0.125 0.25 3.425
0.25 0.25 3.425
0.375 0.25 3.425
0.5 0.25 3.425
0.625 0.25 3.425
0.75 0.25 3.425
0.875 0.25 3.425
1 0.25 3.425
1.125 0.25 3.425
1.25 0.25 3.425
1.375 0.25 3.425
1.5 0.25 3.425
1.625 0.25 3.425
1.75 0.25 3.425
1.875 0.25 3.425
2 0.25 3.425
2.125 0.25 3.425
2.25 0.25 3.425
2.375 0.25 3.425
2.5 0.25 3.425
2.625 0.25 3.425
2.75 0.25 3.425
2.875 0.25 3.425
3 0.25 3.425
3.125 0.25 3.425
3.25 0.25 3.425
3.375 0.25 3.425
3.5 0.25 3.425
3.625 0.25 3.425
3.75 0.25 3.425
3.875 0.25 3.425
4 0.25 3.425
0 0.375 3.425
0.125 0.375 3.425
0.25 0.375 3.425
0.375 0.375 3.425
0.5 0.375 3.425
0.625 0.375 3.425
0.75 0.375 3.425
0.875 0.375 3.425
1 0.375 3.425
1.125 0.375 3.425
1.25 0.375 3.425
1.375 0.375 3.425
1.5 0.375 3.425
1.625 0.375 3.425
1.75 0.375 3.425
1.875 0.375 3.425
2 0.375 3.425
2.125 0.375 3.425
2.25 0.375 3.425
2.375 0.375 3.425
2.5 0.375 3.425
2.625 0.375 3.425
2.75 0.375 3.425
2.875 0.375 3.425
3 0.375 3.425
3.125 0.375 3.425
3.25 0.375 3.425
3.375 0.375 3.425
3.5 0.375 3.425
3.625 0.375 3.425
3.75 0.375 3.425
3.875 0.375 3.425
4 0.375 3.425
0 0.5 3.425
0.125 0.5 3.425
0.25 0.5 3.425
0.375 0.5 3.425
0.5 0.5 3.425
0.625 0.5 3.425
0.75 0.5 3.425
0.875 0.5 3.425
1 0.5 3.425
1.125 0.5 3.425
1.25 0.5 3.425
1.375 0.5 3.425
1.5 0.5 3.425
1.625 0.5 3.425
1.75 0.5 3.425
1.875 0.5 3.425
2 0.5 3.425
2.125 0.5 3.425
2.25 0.5 3.425
2.375 0.5 3.425
2.5 0.5 3.425
2.625 0.5 3.425
2.75 0.5 3.425
2.875 0.5 3.425
3 0.5 3.425
3.125 0.5 3.425
3.25 0.5 3.425
3.375 0.5 3.425
3.5 0.5 3.425
3.625 0.5 3.425
3.75 0.5 3.425
3.875 0.5 3.425
4 0.5 3.425
0 0.625 3.425
0.125 0.625 3.425
0.25 0.625 3.425
0.375 0.625 3.425
0.5 0.625 3.425
0.625 0.625 3.425
0.75 0.625 3.425
0.875 0.625 3.425
1 0.625 3.425
1.125 0.625 3.425
1.25 0.625 3.425
1.375 0.625 3.425
1.5 0.625 3.425
1.625 0.625 3.425
1.75 0.625 3.425
1.875 0.625 3.425
2 0.625 3.425
2.125 0.625 3.425
2.25 0.625 3.425
2.375 0.625 3.425
2.5 0.625 3.425
2.625 0.625 3.425
2.75 0.625 3.425
2.875 0.625 3.425
3 0.625 3.425
3.125 0.625 3.425
3.25 0.625 3.425
3.375 0.625 3.425
3.5 0.625 3.425
3.625 0.625 3.425
3.75 0.625 3.425
3.875 0.625 3.425
4 0.625 3.425
0 0.75 3.425
0.125 0.75 3.425
0.25 0.75 3.425
0.375 0.75 3.425
0.5 0.75 3.425
0.625 0.75 3.425
0.75 0.75 3.425
0.875 0.75 3.425
1 0.75 3.425
1.125 0.75 3.425
1.25 0.75 3.425
1.375 0.75 3.425
1.5 0.75 3.425
1.625 0.75 3.425
1.75 0.75 3.425
1.875 0.75 3.425
2 0.75 3.425
2.125 0.75 3.425
2.25 0.75 3.425
2.375 0.75 3.425
2.5 0.75 3.425
2.625 0.75 3.425
2.75 0.75 3.425
2.875 0.75 3.425
3 0.75 3.425
3.125 0.75 3.425
3.25 0.75 3.425
3.375 0.75 3.425
3.5 0.75 3.425
3.625 0.75 3.425
3.75 0.75 3.425
3.875 0.75 3.425
4 0.75 3.425
0 0.875 3.425
0.125 0.875 3.425
0.25 0.875 3.425
0.375 0.875 3.425
0.5 0.875 3.425
0.625 0.875 3.425
0.75 0.875 3.425
0.875 0.875 3.425
1 0.875 3.425
1.125 0.875 3.425
1.25 0.875 3.425
1.375 0.875 3.425
1.5 0.875 3.425
1.625 0.875 3.425
1.75 0.875 3.425
1.875 0.875 3.425
2 0.875 3.425
2.125 0.875 3.425
2.25 0.875 3.425
2.375 0.875 3.425
2.5 0.875 3.425
2.625 0.875 3.425
2.75 0.875 3.425
2.875 0.875 3.425
3 0.875 3.425
3.125 0.875 3.425
3.25 0.875 3.425
3.375 0.875 3.425
3.5 0.875 3.425
3.625 0.875 3.425
3.75 0.875 3.425
3.875 0.875 3.425
4 0.875 3.425
0 1 3.425
0.125 1 3.425
0.25 1 3.425
0.375 1 3.425
0.5 1 3.425
0.625 1 3.425
0.75 1 3.425
0.875 1 3.425
1 1 3.425
1.125 1 3.425
1.25 1 3.425
1.375 1 3.425
1.5 1 3.425
1.625 1 3.425
1.75 1 3.425
1.875 1 3.425
2 1 3.425
2.125 1 3.425
2.25 1 3.425
2.375 1 3.425
2.5 1 3.425
2.625 1 3.425
2.75 1 3.425
2.875 1 3.425
3 1 3.425
3.125 1 3.425
3.25 1 3.425
3.375 1 3.425
3.5 1 3.425
3.625 1 3.425
3.75 1 3.425
3.875 1 3.425
4 1 3.425
0 0 3.55
0.125 0 3.55
0.25 0 3.55
0.375 0 3.55
0.5 0 3.55
0.625 0 3.55
0.75 0 3.55
0.875 0 3.55
1 0 3.55
1.125 0 3.55
1.25 0 3.55
1.375 0 3.55
1.5 0 3.55
1.625 0 3.55
1.75 0 3.55
1.875 0 3.55
2 0 3.55
2.125 0 3.55
2.25 0 3.55
2.375 0 3.55
2.5 0 3.55
2.625 0 3.55
2.75 0 3.55
2.875 0 3.55
3 0 3.55
3.125 0 3.55
3.25 0 3.55
3.375 0 3.55
3.5 0 3.55
3.625 0 3.55
3.75 0 3.55
3.875 0 3.55
4 0 3.55
0 0.125 3.55
0.125 0.125 3.55
0.25 0.125 3.55
0.375 0.125 3.55
0.5 0.125 3.55
0.625 0.125 3.55
0.75 0.125 3.55
0.875 0.125 3.55
1 0.125 3.55
1.125 0.125 3.55
1.25 0.125 3.55
1.375 0.125 3.55
1.5 0.125 3.55
1.625 0.125 3.55
1.75 0.125 3.55
1.875 0.125 3.55
2 0.125 3.55
2.125 0.125 3.55
2.25 0.125 3.55
2.375 0.125 3.55
2.5 0.125 3.55
2.625 0.125 3.55
2.75 0.125 3.55
2.875 0.125 3.55
3 0.125 3.55
3.125 0.125 3.55
3.25 0.125 3.55
3.375 0.125 3.55
3.5 0.125 3.55
3.625 0.125 3.55
3.75 0.125 3.55
3.875 0.125 3.55
4 0.125 3.55
0 0.25 3.55
0.125 0.25 3.55
0.25 0.25 3.55
0.375 0.25 3.55
0.5 0.25 3.55
0.625 0.25 3.55
0.75 0.25 3.55
0.875 0.25 3.55
1 0.25 3.55
1.125 0.25 3.55
1.25 0.25 3.55
1.375 0.25 3.55
1.5 0.25 3.55
1.625 0.25 3.55
1.75 0.25 3.55
1.875 0.25 3.55
2 0.25 3.55
2.125 0.25 3.55
2.25 0.25 3.55
2.375 0.25 3.55
2.5 0.25 3.55
2.625 0.25 3.55
2.75 0.25 3.55
2.875 0.25 3.55
3 0.25 3.55
3.125 0.25 3.55
3.25 0.25 3.55
3.375 0.25 3.55
3.5 0.25 3.55
3.625 0.25 3.55
3.75 0.25 3.55
3.875 0.25 3.55
4 0.25 3.55
0 0.375 3.55
0.125 0.375 3.55
0.25 0.375 3.55
0.375 0.375 3.55
0.5 0.375 3.55
0.625 0.375 3.55
0.75 0.375 3.55
0.875 0.375 3.55
1 0.375 3.55
1.125 0.375 3.55
1.25 0.375 3.55
1.375 0.375 3.55
1.5 0.375 3.55
1.625 0.375 3.55
1.75 0.375 3.55
1.875 0.375 3.55
2 0.375 3.55
2.125 0.375 3.55
2.25 0.375 3.55
2.375 0.375 3.55
2.5 0.375 3.55
2.625 0.375 3.55
2.75 0.375 3.55
2.875 0.375 3.55
3 0.375 3.55
3.125 0.375 3.55
3.25 0.375 3.55
3.375 0.375 3.55
3.5 0.375 3.55
3.625 0.375 3.55
3.75 0.375 3.55
3.875 0.375 3.55
4 0.375 3.55
0 0.5 3.55
0.125 0.5 3.55
0.25 0.5 3.55
0.375 0.5 3.55
0.5 0.5 3.55
0.625 0.5 3.55
0.75 0.5 3.55
0.875 0.5 3.55
1 0.5 3.55
1.125 0.5 3.55
1.25 0.5 3.55
1.375 0.5 3.55
1.5 0.5 3.55
1.625 0.5 3.55
1.75 0.5 3.55
1.875 0.5 3.55
2 0.5 3.55
2.125 0.5 3.55
2.25 0.5 3.55
2.375 0.5 3.55
2.5 0.5 3.55
2.625 0.5 3.55
2.75 0.5 3.55
2.875 0.5 3.55
3 0.5 3.55
3.125 0.5 3.55
3.25 0.5 3.55
3.375 0.5 3.55
3.5 0.5 3.55
3.625 0.5 3.55
3.75 0.5 3.55
3.875 0.5 3.55
4 0.5 3.55
0 0.625 3.55
0.125 0.625 3.55
0.25 0.625 3.55
0.375 0.625 3.55
0.5 0.625 3.55
0.625 0.625 3.55
0.75 0.625 3.55
0.875 0.625 3.55
1 0.625 3.55
1.125 0.625 3.55
1.25 0.625 3.55
1.375 0.625 3.55
1.5 0.625 3.55
1.625 0.625 3.55
1.75 0.625 3.55
1.875 0.625 3.55
2 0.625 3.55
2.125 0.625 3.55
2.25 0.625 3.55
2.375 0.625 3.55
2.5 0.625 3.55
2.625 0.625 3.55
2.75 0.625 3.55
2.875 0.625 3.55
3 0.625 3.55
3.125 0.625 3.55
3.25 0.625 3.55
3.375 0.625 3.55
3.5 0.625 3.55
3.625 0.625 3.55
3.75 0.625 3.55
3.875 0.625 3.55
4 0.625 3.55
0 0.75 3.55
0.125 0.75 3.55
0.25 0.75 3.55
0.375 0.75 3.55
0.5 0.75 3.55
0.625 0.75 3.55
0.75 0.75 3.55
0.875 0.75 3.55
1 0.75 3.55
1.125 0.75 3.55
1.25 0.75 3.55
1.375 0.75 3.55
1.5 0.75 3.55
1.625 0.75 3.55
1.75 0.75 3.55
1.875 0.75 3.55
2 0.75 3.55
2.125 0.75 3.55
2.25 0.75 3.55
2.375 0.75 3.55
2.5 0.75 3.55
2.625 0.75 3.55
2.75 0.75 3.55
2.875 0.75 3.55
3 0.75 3.55
3.125 0.75 3.55
3.25 0.75 3.55
3.375 0.75 3.55
3.5 0.75 3.55
3.625 0.75 3.55
3.75 0.75 3.55
3.875 0.75 3.55
4 0.75 3.55
0 0.875 3.55
0.125 0.875 3.55
0.25 0.875 3.55
0.375 0.875 3.55
0.5 0.875 3.55
0.625 0.875 3.55
0.75 0.875 3.55
0.875 0.875 3.55
1 0.875 3.55
1.125 0.875 3.55
1.25 0.875 3.55
1.375 0.875 3.55
1.5 0.875 3.55
1.625 0.875 3.55
1.75 0.875 3.55
1.875 0.875 3.55
2 0.875 3.55
2.125 0.875 3.55
2.25 0.875 3.55
2.375 0.875 3.55
2.5 0.875 3.55
2.625 0.875 3.55
2.75 0.875 3.55
2.875 0.875 3.55
3 0.875 3.55
3.125 0.875 3.55
3.25 0.875 3.55
3.375 0.875 3.55
3.5 0.875 3.55
3.625 0.875 3.55
3.75 0.875 3.55
3.875 0.875 3.55
4 0.875 3.55
0 1 3.55
0.125 1 3.55
0.25 1 3.55
0.375 1 3.55
0.5 1 3.55
0.625 1 3.55
0.75 1 3.55
0.875 1 3.55
1 1 3.55
1.125 1 3.55
1.25 1 3.55
1.375 1 3.55
1.5 1 3.55
1.625 1 3.55
1.75 1 3.55
1.875 1 3.55
2 1 3.55
2.125 1 3.55
2.25 1 3.55
2.375 1 3.55
2.5 1 3.55
2.625 1 3.55
2.75 1 3.55
2.875 1 3.55
3 1 3.55
3.125 1 3.55
3.25 1 3.55
3.375 1 3.55
3.5 1 3.55
3.625 1 3.55
3.75 1 3.55
3.875 1 3.55
4 1 3.55
0 0 3.675
0.125 0 3.675
0.25 0 3.675
0.375 0 3.675
0.5 0 3.675
0.625 0 3.675
0.75 0 3.675
0.875 0 3.675
1 0 3.675
1.125 0 3.675
1.25 0 3.675
1.375 0 3.675
1.5 0 3.675
1.625 0 3.675
1.75 0 3.675
1.875 0 3.675
2 0 3.675
2.125 0 3.675
2.25 0 3.675
2.375 0 3.675
2.5 0 3.675
2.625 0 3.675
2.75 0 3.675
2.875 0 3.675
3 0 3.675
3.125 0 3.675
3.25 0 3.675
3.375 0 3.675
3.5 0 3.675
3.625 0 3.675
3.75 0 3.675
3.875 0 3.675
4 0 3.675
0 0.125 3.675
0.125 0.125 3.675
0.25 0.125 3.675
0.375 0.125 3.675
0.5 0.125 3.675
0.625 0.125 3.675
0.75 0.125 3.675
0.875 0.125 3.675
1 0.125 3.675
1.125 0.125 3.675
1.25 0.125 3.675
1.375 0.125 3.675
1.5 0.125 3.675
1.625 0.125 3.675
1.75 0.125 3.675
1.875 0.125 3.675
2 0.125 3.675
2.125 0.125 3.675
2.25 0.125 3.675
2.375 0.125 3.675
2.5 0.125 3.675
2.625 0.125 3.675
2.75 0.125 3.675
2.875 0.125 3.675
3 0.125 3.675
3.125 0.125 3.675
3.25 0.125 3.675
3.375 0.125 3.675
3.5 0.125 3.675
3.625 0.125 3.675
3.75 0.125 3.675
3.875 0.125 3.675
4 0.125 3.675
0 0.25 3.675
0.125 0.25 3.675
0.25 0.25 3.675
0.375 0.25 3.675
0.5 0.25 3.675
0.625 0.25 3.675
0.75 0.25 3.675
0.875 0.25 3.675
1 0.25 3.675
1.125 0.25 3.675
1.25 0.25 3.675
1.375 0.25 3.675
1.5 0.25 3.675
1.625 0.25 3.675
1.75 0.25 3.675
1.875 0.25 3.675
2 0.25 3.675
2.125 0.25 3.675
2.25 0.25 3.675
2.375 0.25 3.675
2.5 0.25 3.675
2.625 0.25 3.675
2.75 0.25 3.675
2.875 0.25 3.675
3 0.25 3.675
3.125 0.25 3.675
3.25 0.25 3.675
3.375 0.25 3.675
3.5 0.25 3.675
3.625 0.25 3.675
3.75 0.25 3.675
3.875 0.25 3.675
4 0.25 3.675
0 0.375 3.675
0.125 0.375 3.675
0.25 0.375 3.675
0.375 0.375 3.675
0.5 0.375 3.675
0.625 0.375 3.675
0.75 0.375 3.675
0.875 0.375 3.675
1 0.375 3.675
1.125 0.375 3.675
1.25 0.375 3.675
1.375 0.375 3.675
1.5 0.375 3.675
1.625 0.375 3.675
1.75 0.375 3.675
1.875 0.375 3.675
2 0.375 3.675
2.125 0.375 3.675
2.25 0.375 3.675
2.375 0.375 3.675
2.5 0.375 3.675
2.625 0.375 3.675
2.75 0.375 3.675
2.875 0.375 3.675
3 0.375 3.675
3.125 0.375 3.675
3.25 0.375 3.675
3.375 0.375 3.675
3.5 0.375 3.675
3.625 0.375 3.675
3.75 0.375 3.675
3.875 0.375 3.675
4 0.375 3.675
0 0.5 3.675
0.125 0.5 3.675
0.25 0.5 3.675
0.375 0.5 3.675
0.5 0.5 3.675
0.625 0.5 3.675
0.75 0.5 3.675
0.875 0.5 3.675
1 0.5 3.675
1.125 0.5 3.675
1.25 0.5 3.675
1.375 0.5 3.675
1.5 0.5 3.675
1.625 0.5 3.675
1.75 0.5 3.675
1.875 0.5 3.675
2 0.5 3.675
2.125 0.5 3.675
2.25 0.5 3.675
2.375 0.5 3.675
2.5 0.5 3.675
2.625 0.5 3.675
2.75 0.5 3.675
2.875 0.5 3.675
3 0.5 3.675
3.125 0.5 3.675
3.25 0.5 3.675
3.375 0.5 3.675
3.5 0.5 3.675
3.625 0.5 3.675
3.75 0.5 3.675
3.875 0.5 3.675
4 0.5 3.675
0 0.625 3.675
0.125 0.625 3.675
0.25 0.625 3.675
0.375 0.625 3.675
0.5 0.625 3.675
0.625 0.625 3.675
0.75 0.625 3.675
0.875 0.625 3.675
1 0.625 3.675
1.125 0.625 3.675
1.25 0.625 3.675
1.375 0.625 3.675
1.5 0.625 3.675
1.625 0.625 3.675
1.75 0.625 3.675
1.875 0.625 3.675
2 0.625 3.675
2.125 0.625 3.675
2.25 0.625 3.675
2.375 0.625 3.675
2.5 0.625 3.675
2.625 0.625 3.675
2.75 0.625 3.675
2.875 0.625 3.675
3 0.625 3.675
3.125 0.625 3.675
3.25 0.625 3.675
3.375 0.625 3.675
3.5 0.625 3.675
3.625 0.625 3.675
3.75 0.625 3.675
3.875 0.625 3.675
4 0.625 3.675
0 0.75 3.675
0.125 0.75 3.675
0.25 0.75 3.675
0.375 0.75 3.675
0.5 0.75 3.675
0.625 0.75 3.675
0.75 0.75 3.675
0.875 0.75 3.675
1 0.75 3.675
1.125 0.75 3.675
1.25 0.75 3.675
1.375 0.75 3.675
1.5 0.75 3.675
1.625 0.75 3.675
1.75 0.75 3.675
1.875 0.75 3.675
2 0.75 3.675
2.125 0.75 3.675
2.25 0.75 3.675
2.375 0.75 3.675
2.5 0.75 3.675
2.625 0.75 3.675
2.75 0.75 3.675
2.875 0.75 3.675
3 0.75 3.675
3.125 0.75 3.675
3.25 0.75 3.675
3.375 0.75 3.675
3.5 0.75 3.675
3.625 0.75 3.675
3.75 0.75 3.675
3.875 0.75 3.675
4 0.75 3.675
0 0.875 3.675
0.125 0.875 3.675
0.25 0.875 3.675
0.375 0.875 3.675
0.5 0.875 3.675
0.625 0.875 3.675
0.75 0.875 3.675
0.875 0.875 3.675
1 0.875 3.675
1.125 0.875 3.675
1.25 0.875 3.675
1.375 0.875 3.675
1.5 0.875 3.675
1.625 0.875 3.675
1.75 0.875 3.675
1.875 0.875 3.675
2 0.875 3.675
2.125 0.875 3.675
2.25 0.875 3.675
2.375 0.875 3.675
2.5 0.875 3.675
2.625 0.875 3.675
2.75 0.875 3.675
2.875 0.875 3.675
3 0.875 3.675
3.125 0.875 3.675
3.25 0.875 3.675
3.375 0.875 3.675
3.5 0.875 3.675
3.625 0.875 3.675
3.75 0.875 3.675
3.875 0.875 3.675
4 0.875 3.675
0 1 3.675
0.125 1 3.675
0.25 1 3.675
0.375 1 3.675
0.5 1 3.675
0.625 1 3.675
0.75 1 3.675
0.875 1 3.675
1 1 3.675
1.125 1 3.675
1.25 1 3.675
1.375 1 3.675
1.5 1 3.675
1.625 1 3.675
1.75 1 3.675
1.875 1 3.675
2 1 3.675
2.125 1 3.675
2.25 1 3.675
2.375 1 3.675
2.5 1 3.675
2.625 1 3.675
2.75 1 3.675
2.875 1 3.675
3 1 3.675
3.125 1 3.675
3.25 1 3.675
3.375 1 3.675
3.5 1 3.675
3.625 1 3.675
3.75 1 3.675
3.875 1 3.675
4 1 3.675
0 0 3.8
0.125 0 3.8
0.25 0 3.8
0.375 0 3.8
0.5 0 3.8
0.625 0 3.8
0.75 0 3.8
0.875 0 3.8
1 0 3.8
1.125 0 3.8
1.25 0 3.8
1.375 0 3.8
1.5 0 3.8
1.625 0 3.8
1.75 0 3.8
1.875 0 3.8
2 0 3.8
2.125 0 3.8
2.25 0 3.8
2.375 0 3.8
2.5 0 3.8
2.625 0 3.8
2.75 0 3.8
2.875 0 3.8
3 0 3.8
3.125 0 3.8
3.25 0 3.8
3.375 0 3.8
3.5 0 3.8
3.625 0 3.8
3.75 0 3.8
3.875 0 3.8
4 0 3.8
0 0.125 3.8
0.125 0.125 3.8
0.25 0.125 3.8
0.375 0.125 3.8
0.5 0.125 3.8
0.625 0.125 3.8
0.75 0.125 3.8
0.875 0.125 3.8
1 0.125 3.8
1.125 0.125 3.8
1.25 0.125 3.8
1.375 0.125 3.8
1.5 0.125 3.8
1.625 0.125 3.8
1.75 0.125 3.8
1.875 0.125 3.8
2 0.125 3.8
2.125 0.125 3.8
2.25 0.125 3.8
2.375 0.125 3.8
2.5 0.125 3.8
2.625 0.125 3.8
2.75 0.125 3.8
2.875 0.125 3.8
3 0.125 3.8
3.125 0.125 3.8
3.25 0.125 3.8
3.375 0.125 3.8
3.5 0.125 3.8
3.625 0.125 3.8
3.75 0.125 3.8
3.875 0.125 3.8
4 0.125 3.8
0 0.25 3.8
0.125 0.25 3.8
0.25 0.25 3.8
0.375 0.25 3.8
0.5 0.25 3.8
0.625 0.25 3.8
0.75 0.25 3.8
0.875 0.25 3.8
1 0.25 3.8
1.125 0.25 3.8
1.25 0.25 3.8
1.375 0.25 3.8
1.5 0.25 3.8
1.625 0.25 3.8
1.75 0.25 3.8
1.875 0.25 3.8
2 0.25 3.8
2.125 0.25 3.8
2.25 0.25 3.8
2.375 0.25 3.8
2.5 0.25 3.8
2.625 0.25 3.8
2.75 0.25 3.8
2.875 0.25 3.8
3 0.25 3.8
3.125 0.25 3.8
3.25 0.25 3.8
3.375 0.25 3.8
3.5 0.25 3.8
3.625 0.25 3.8
3.75 0.25 3.8
3.875 0.25 3.8
4 0.25 3.8
0 0.375 3.8
0.125 0.375 3.8
0.25 0.375 3.8
0.375 0.375 3.8
0.5 0.375 3.8
0.625 0.375 3.8
0.75 0.375 3.8
0.875 0.375 3.8
1 0.375 3.8
1.125 0.375 3.8
1.25 0.375 3.8
1.375 0.375 3.8
1.5 0.375 3.8
1.625 0.375 3.8
1.75 0.375 3.8
1.875 0.375 3.8
2 0.375 3.8
2.125 0.375 3.8
2.25 0.375 3.8
2.375 0.375 3.8
2.5 0.375 3.8
2.625 0.375 3.8
2.75 0.375 3.8
2.875 0.375 3.8
3 0.375 3.8
3.125 0.375 3.8
3.25 0.375 3.8
3.375 0.375 3.8
3.5 0.375 3.8
3.625 0.375 3.8
3.75 0.375 3.8
3.875 0.375 3.8
4 0.375 3.8
0 0.5 3.8
0.125 0.5 3.8
0.25 0.5 3.8
0.375 0.5 3.8
0.5 0.5 3.8
0.625 0.5 3.8
0.75 0.5 3.8
0.875 0.5 3.8
1 0.5 3.8
1.125 0.5 3.8
1.25 0.5 3.8
1.375 0.5 3.8
1.5 0.5 3.8
1.625 0.5 3.8
1.75 0.5 3.8
1.875 0.5 3.8
2 0.5 3.8
2.125 0.5 3.8
2.25 0.5 3.8
2.375 0.5 3.8
2.5 0.5 3.8
2.625 0.5 3.8
2.75 0.5 3.8
2.875 0.5 3.8
3 0.5 3.8
3.125 0.5 3.8
3.25 0.5 3.8
3.375 0.5 3.8
3.5 0.5 3.8
3.625 0.5 3.8
3.75 0.5 3.8
3.875 0.5 3.8
4 0.5 3.8
0 0.625 3.8
0.125 0.625 3.8
0.25 0.625 3.8
0.375 0.625 3.8
0.5 0.625 3.8
0.625 0.625 3.8
0.75 0.625 3.8
0.875 0.625 3.8
1 0.625 3.8
1.125 0.625 3.8
1.25 0.625 3.8
1.375 0.625 3.8
1.5 0.625 3.8
1.625 0.625 3.8
1.75 0.625 3.8
1.875 0.625 3.8
2 0.625 3.8
2.125 0.625 3.8
2.25 0.625 3.8
2.375 0.625 3.8
2.5 0.625 3.8
2.625 0.625 3.8
2.75 0.625 3.8
2.875 0.625 3.8
3 0.625 3.8
3.125 0.625 3.8
3.25 0.625 3.8
3.375 0.625 3.8
3.5 0.625 3.8
3.625 0.625 3.8
3.75 0.625 3.8
3.875 0.625 3.8
4 0.625 3.8
0 0.75 3.8
0.125 0.75 3.8
0.25 0.75 3.8
0.375 0.75 3.8
0.5 0.75 3.8
0.625 0.75 3.8
0.75 0.75 3.8
0.875 0.75 3.8
1 0.75 3.8
1.125 0.75 3.8
1.25 0.75 3.8
1.375 0.75 3.8
1.5 0.75 3.8
1.625 0.75 3.8
1.75 0.75 3.8
1.875 0.75 3.8
2 0.75 3.8
2.125 0.75 3.8
2.25 0.75 3.8
2.375 0.75 3.8
2.5 0.75 3.8
2.625 0.75 3.8
2.75 0.75 3.8
2.875 0.75 3.8
3 0.75 3.8
3.125 0.75 3.8
3.25 0.75 3.8
3.375 0.75 3.8
3.5 0.75 3.8
3.625 0.75 3.8
3.75 0.75 3.8
3.875 0.75 3.8
4 0.75 3.8
0 0.875 3.8
0.125 0.875 3.8
0.25 0.875 3.8
0.375 0.875 3.8
0.5 0.875 3.8
0.625 0.875 3.8
0.75 0.875 3.8
0.875 0.875 3.8
1 0.875 3.8
1.125 0.875 3.8
1.25 0.875 3.8
1.375 0.875 3.8
1.5 0.875 3.8
1.625 0.875 3.8
1.75 0.875 3.8
1.875 0.875 3.8
2 0.875 3.8
2.125 0.875 3.8
2.25 0.875 3.8
2.375 0.875 3.8
2.5 0.875 3.8
2.625 0.875 3.8
2.75 0.875 3.8
2.875 0.875 3.8
3 0.875 3.8
3.125 0.875 3.8
3.25 0.875 3.8
3.375 0.875 3.8
3.5 0.875 3.8
3.625 0.875 3.8
3.75 0.875 3.8
3.875 0.875 3.8
4 0.875 3.8
0 1 3.8
0.125 1 3.8
0.25 1 3.8
0.375 1 3.8
0.5 1 3.8
0.625 1 3.8
0.75 1 3.8
0.875 1 3.8
1 1 3.8
1.125 1 3.8
1.25 1 3.8
1.375 1 3.8
1.5 1 3.8
1.625 1 3.8
1.75 1 3.8
1.875 1 3.8
2 1 3.8
2.125 1 3.8
2.25 1 3.8
2.375 1 3.8
2.5 1 3.8
2.625 1 3.8
2.75 1 3.8
2.875 1 3.8
3 1 3.8
3.125 1 3.8
3.25 1 3.8
3.375 1 3.8
3.5 1 3.8
3.625 1 3.8
3.75 1 3.8
3.875 1 3.8
4 1 3.8
0 0 3.925
0.125 0 3.925
0.25 0 3.925
0.375 0 3.925
0.5 0 3.925
0.625 0 3.925
0.75 0 3.925
0.875 0 3.925
1 0 3.925
1.125 0 3.925
1.25 0 3.925
1.375 0 3.925
1.5 0 3.925
1.625 0 3.925
1.75 0 3.925
1.875 0 3.925
2 0 3.925
2.125 0 3.925
2.25 0 3.925
2.375 0 3.925
2.5 0 3.925
2.625 0 3.925
2.75 0 3.925
2.875 0 3.925
3 0 3.925
3.125 0 3.925
3.25 0 3.925
3.375 0 3.925
3.5 0 3.925
3.625 0 3.925
3.75 0 3.925
3.875 0 3.925
4 0 3.925
0 0.125 3.925
0.125 0.125 3.925
0.25 0.125 3.925
0.375 0.125 3.925
0.5 0.125 3.925
0.625 0.125 3.925
0.75 0.125 3.925
0.875 0.125 3.925
1 0.125 3.925
1.125 0.125 3.925
1.25 0.125 3.925
1.375 0.125 3.925
1.5 0.125 3.925
1.625 0.125 3.925
1.75 0.125 3.925
1.875 0.125 3.925
2 0.125 3.925
2.125 0.125 3.925
2.25 0.125 3.925
2.375 0.125 3.925
2.5 0.125 3.925
2.625 0.125 3.925
2.75 0.125 3.925
2.875 0.125 3.925
3 0.125 3.925
3.125 0.125 3.925
3.25 0.125 3.925
3.375 0.125 3.925
3.5 0.125 3.925
3.625 0.125 3.925
3.75 0.125 3.925
3.875 0.125 3.925
4 0.125 3.925
0 0.25 3.925
0.125 0.25 3.925
0.25 0.25 3.925
0.375 0.25 3.925
0.5 0.25 3.925
0.625 0.25 3.925
0.75 0.25 3.925
0.875 0.25 3.925
1 0.25 3.925
1.125 0.25 3.925
1.25 0.25 3.925
1.375 0.25 3.925
1.5 0.25 3.925
1.625 0.25 3.925
1.75 0.25 3.925
1.875 0.25 3.925
2 0.25 3.925
2.125 0.25 3.925
2.25 0.25 3.925
2.375 0.25 3.925
2.5 0.25 3.925
2.625 0.25 3.925
2.75 0.25 3.925
2.875 0.25 3.925
3 0.25 3.925
3.125 0.25 3.925
3.25 0.25 3.925
3.375 0.25 3.925
3.5 0.25 3.925
3.625 0.25 3.925
3.75 0.25 3.925
3.875 0.25 3.925
4 0.25 3.925
0 0.375 3.925
0.125 0.375 3.925
0.25 0.375 3.925
0.375 0.375 3.925
0.5 0.375 3.925
0.625 0.375 3.925
0.75 0.375 3.925
0.875 0.375 3.925
1 0.375 3.925
1.125 0.375 3.925
1.25 0.375 3.925
1.375 0.375 3.925
1.5 0.375 3.925
1.625 0.375 3.925
1.75 0.375 3.925
1.875 0.375 3.925
2 0.375 3.925
2.125 0.375 3.925
2.25 0.375 3.925
2.375 0.375 3.925
2.5 0.375 3.925
2.625 0.375 3.925
2.75 0.375 3.925
2.875 0.375 3.925
3 0.375 3.925
3.125 0.375 3.925
3.25 0.375 3.925
3.375 0.375 3.925
3.5 0.375 3.925
3.625 0.375 3.925
3.75 0.375 3.925
3.875 0.375 3.925
4 0.375 3.925
0 0.5 3.925
0.125 0.5 3.925
0.25 0.5 3.925
0.375 0.5 3.925
0.5 0.5 3.925
0.625 0.5 3.925
0.75 0.5 3.925
0.875 0.5 3.925
1 0.5 3.925
1.125 0.5 3.925
1.25 0.5 3.925
1.375 0.5 3.925
1.5 0.5 3.925
1.625 0.5 3.925
1.75 0.5 3.925
1.875 0.5 3.925
2 0.5 3.925
2.125 0.5 3.925
2.25 0.5 3.925
2.375 0.5 3.925
2.5 0.5 3.925
2.625 0.5 3.925
2.75 0.5 3.925
2.875 0.5 3.925
3 0.5 3.925
3.125 0.5 3.925
3.25 0.5 3.925
3.375 0.5 3.925
3.5 0.5 3.925
3.625 0.5 3.925
3.75 0.5 3.925
3.875 0.5 3.925
4 0.5 3.925
0 0.625 3.925
0.125 0.625 3.925
0.25 0.625 3.925
0.375 0.625 3.925
0.5 0.625 3.925
0.625 0.625 3.925
0.75 0.625 3.925
0.875 0.625 3.925
1 0.625 3.925
1.125 0.625 3.925
1.25 0.625 3.925
1.375 0.625 3.925
1.5 0.625 3.925
1.625 0.625 3.925
1.75 0.625 3.925
1.875 0.625 3.925
2 0.625 3.925
2.125 0.625 3.925
2.25 0.625 3.925
2.375 0.625 3.925
2.5 0.625 3.925
2.625 0.625 3.925
2.75 0.625 3.925
2.875 0.625 3.925
3 0.625 3.925
3.125 0.625 3.925
3.25 0.625 3.925
3.375 0.625 3.925
3.5 0.625 3.925
3.625 0.625 3.925
3.75 0.625 3.925
3.875 0.625 3.925
4 0.625 3.925
0 0.75 3.925
0.125 0.75 3.925
0.25 0.75 3.925
0.375 0.75 3.925
0.5 0.75 3.925
0.625 0.75 3.925
0.75 0.75 3.925
0.875 0.75 3.925
1 0.75 3.925
1.125 0.75 3.925
1.25 0.75 3.925
1.375 0.75 3.925
1.5 0.75 3.925
1.625 0.75 3.925
1.75 0.75 3.925
1.875 0.75 3.925
2 0.75 3.925
2.125 0.75 3.925
2.25 0.75 3.925
2.375 0.75 3.925
2.5 0.75 3.925
2.625 0.75 3.925
2.75 0.75 3.925
2.875 0.75 3.925
3 0.75 3.925
3.125 0.75 3.925
3.25 0.75 3.925
3.375 0.75 3.925
3.5 0.75 3.925
3.625 0.75 3.925
3.75 0.75 3.925
3.875 0.75 3.925
4 0.75 3.925
0 0.875 3.925
0.125 0.875 3.925
0.25 0.875 3.925
0.375 0.875 3.925
0.5 0.875 3.925
0.625 0.875 3.925
0.75 0.875 3.925
0.875 0.875 3.925
1 0.875 3.925
1.125 0.875 3.925
1.25 0.875 3.925
1.375 0.875 3.925
1.5 0.875 3.925
1.625 0.875 3.925
1.75 0.875 3.925
1.875 0.875 3.925
2 0.875 3.925
2.125 0.875 3.925
2.25 0.875 3.925
2.375 0.875 3.925
2.5 0.875 3.925
2.625 0.875 3.925
2.75 0.875 3.925
2.875 0.875 3.925
3 0.875 3.925
3.125 0.875 3.925
3.25 0.875 3.925
3.375 0.875 3.925
3.5 0.875 3.925
3.625 0.875 3.925
3.75 0.875 3.925
3.875 0.875 3.925
4 0.875 3.925
0 1 3.925
0.125 1 3.925
0.25 1 3.925
0.375 1 3.925
0.5 1 3.925
0.625 1 3.925
0.75 1 3.925
0.875 1 3.925
1 1 3.925
1.125 1 3.925
1.25 1 3.925
1.375 1 3.925
1.5 1 3.925
1.625 1 3.925
1.75 1 3.925
1.875 1 3.925
2 1 3.925
2.125 1 3.925
2.25 1 3.925
2.375 1 3.925
2.5 1 3.925
2.625 1 3.925
2.75 1 3.925
2.875 1 3.925
3 1 3.925
3.125 1 3.925
3.25 1 3.925
3.375 1 3.925
3.5 1 3.925
3.625 1 3.925
3.75 1 3.925
3.875 1 3.925
4 1 3.925
0 0 4.05
0.125 0 4.05
0.25 0 4.05
0.375 0 4.05
0.5 0 4.05
0.625 0 4.05
0.75 0 4.05
0.875 0 4.05
1 0 4.05
1.125 0 4.05
1.25 0 4.05
1.375 0 4.05
1.5 0 4.05
1.625 0 4.05
1.75 0 4.05
1.875 0 4.05
2 0 4.05
2.125 0 4.05
2.25 0 4.05
2.375 0 4.05
2.5 0 4.05
2.625 0 4.05
2.75 0 4.05
2.875 0 4.05
3 0 4.05
3.125 0 4.05
3.25 0 4.05
3.375 0 4.05
3.5 0 4.05
3.625 0 4.05
3.75 0 4.05
3.875 0 4.05
4 0 4.05
0 0.125 4.05
0.125 0.125 4.05
0.25 0.125 4.05
0.375 0.125 4.05
0.5 0.125 4.05
0.625 0.125 4.05
0.75 0.125 4.05
0.875 0.125 4.05
1 0.125 4.05
1.125 0.125 4.05
1.25 0.125 4.05
1.375 0.125 4.05
1.5 0.125 4.05
1.625 0.125 4.05
1.75 0.125 4.05
1.875 0.125 4.05
2 0.125 4.05
2.125 0.125 4.05
2.25 0.125 4.05
2.375 0.125 4.05
2.5 0.125 4.05
2.625 0.125 4.05
2.75 0.125 4.05
2.875 0.125 4.05
3 0.125 4.05
3.125 0.125 4.05
3.25 0.125 4.05
3.375 0.125 4.05
3.5 0.125 4.05
3.625 0.125 4.05
3.75 0.125 4.05
3.875 0.125 4.05
4 0.125 4.05
0 0.25 4.05
0.125 0.25 4.05
0.25 0.25 4.05
0.375 0.25 4.05
0.5 0.25 4.05
0.625 0.25 4.05
0.75 0.25 4.05
0.875 0.25 4.05
1 0.25 4.05
1.125 0.25 4.05
1.25 0.25 4.05
1.375 0.25 4.05
1.5 0.25 4.05
1.625 0.25 4.05
1.75 0.25 4.05
1.875 0.25 4.05
2 0.25 4.05
2.125 0.25 4.05
2.25 0.25 4.05
2.375 0.25 4.05
2.5 0.25 4.05
2.625 0.25 4.05
2.75 0.25 4.05
2.875 0.25 4.05
3 0.25 4.05
3.125 0.25 4.05
3.25 0.25 4.05
3.375 0.25 4.05
3.5 0.25 4.05
3.625 0.25 4.05
3.75 0.25 4.05
3.875 0.25 4.05
4 0.25 4.05
0 0.375 4.05
0.125 0.375 4.05
0.25 0.375 4.05
0.375 0.375 4.05
0.5 0.375 4.05
0.625 0.375 4.05
0.75 0.375 4.05
0.875 0.375 4.05
1 0.375 4.05
1.125 0.375 4.05
1.25 0.375 4.05
1.375 0.375 4.05
1.5 0.375 4.05
1.625 0.375 4.05
1.75 0.375 4.05
1.875 0.375 4.05
2 0.375 4.05
2.125 0.375 4.05
2.25 0.375 4.05
2.375 0.375 4.05
2.5 0.375 4.05
2.625 0.375 4.05
2.75 0.375 4.05
2.875 0.375 4.05
3 0.375 4.05
3.125 0.375 4.05
3.25 0.375 4.05
3.375 0.375 4.05
3.5 0.375 4.05
3.625 0.375 4.05
3.75 0.375 4.05
3.875 0.375 4.05
4 0.375 4.05
0 0.5 4.05
0.125 0.5 4.05
0.25 0.5 4.05
0.375 0.5 4.05
0.5 0.5 4.05
0.625 0.5 4.05
0.75 0.5 4.05
0.875 0.5 4.05
1 0.5 4.05
1.125 0.5 4.05
1.25 0.5 4.05
1.375 0.5 4.05
1.5 0.5 4.05
1.625 0.5 4.05
1.75 0.5 4.05
1.875 0.5 4.05
2 0.5 4.05
2.125 0.5 4.05
2.25 0.5 4.05
2.375 0.5 4.05
2.5 0.5 4.05
2.625 0.5 4.05
2.75 0.5 4.05
2.875 0.5 4.05
3 0.5 4.05
3.125 0.5 4.05
3.25 0.5 4.05
3.375 0.5 4.05
3.5 0.5 4.05
3.625 0.5 4.05
3.75 0.5 4.05
3.875 0.5 4.05
4 0.5 4.05
0 0.625 4.05
0.125 0.625 4.05
0.25 0.625 4.05
0.375 0.625 4.05
0.5 0.625 4.05
0.625 0.625 4.05
0.75 0.625 4.05
0.875 0.625 4.05
1 0.625 4.05
1.125 0.625 4.05
1.25 0.625 4.05
1.375 0.625 4.05
1.5 0.625 4.05
1.625 0.625 4.05
1.75 0.625 4.05
1.875 0.625 4.05
2 0.625 4.05
2.125 0.625 4.05
2.25 0.625 4.05
2.375 0.625 4.05
2.5 0.625 4.05
2.625 0.625 4.05
2.75 0.625 4.05
2.875 0.625 4.05
3 0.625 4.05
3.125 0.625 4.05
3.25 0.625 4.05
3.375 0.625 4.05
3.5 0.625 4.05
3.625 0.625 4.05
3.75 0.625 4.05
3.875 0.625 4.05
4 0.625 4.05
0 0.75 4.05
0.125 0.75 4.05
0.25 0.75 4.05
0.375 0.75 4.05
0.5 0.75 4.05
0.625 0.75 4.05
0.75 0.75 4.05
0.875 0.75 4.05
1 0.75 4.05
1.125 0.75 4.05
1.25 0.75 4.05
1.375 0.75 4.05
1.5 0.75 4.05
1.625 0.75 4.05
1.75 0.75 4.05
1.875 0.75 4.05
2 0.75 4.05
2.125 0.75 4.05
2.25 0.75 4.05
2.375 0.75 4.05
2.5 0.75 4.05
2.625 0.75 4.05
2.75 0.75 4.05
2.875 0.75 4.05
3 0.75 4.05
3.125 0.75 4.05
3.25 0.75 4.05
3.375 0.75 4.05
3.5 0.75 4.05
3.625 0.75 4.05
3.75 0.75 4.05
3.875 0.75 4.05
4 0.75 4.05
0 0.875 4.05
0.125 0.875 4.05
0.25 0.875 4.05
0.375 0.875 4.05
0.5 0.875 4.05
0.625 0.875 4.05
0.75 0.875 4.05
0.875 0.875 4.05
1 0.875 4.05
1.125 0.875 4.05
1.25 0.875 4.05
1.375 0.875 4.05
1.5 0.875 4.05
1.625 0.875 4.05
1.75 0.875 4.05
1.875 0.875 4.05
2 0.875 4.05
2.125 0.875 4.05
2.25 0.875 4.05
2.375 0.875 4.05
2.5 0.875 4.05
2.625 0.875 4.05
2.75 0.875 4.05
2.875 0.875 4.05
3 0.875 4.05
3.125 0.875 4.05
3.25 0.875 4.05
3.375 0.875 4.05
3.5 0.875 4.05
3.625 0.875 4.05
3.75 0.875 4.05
3.875 0.875 4.05
4 0.875 4.05
0 1 4.05
0.125 1 4.05
0.25 1 4.05
0.375 1 4.05
0.5 1 4.05
0.625 1 4.05
0.75 1 4.05
0.875 1 4.05
1 1 4.05
1.125 1 4.05
1.25 1 4.05
1.375 1 4.05
1.5 1 4.05
1.625 1 4.05
1.75 1 4.05
1.875 1 4.05
2 1 4.05
2.125 1 4.05
2.25 1 4.05
2.375 1 4.05
2.5 1 4.05
2.625 1 4.05
2.75 1 4.05
2.875 1 4.05
3 1 4.05
3.125 1 4.05
3.25 1 4.05
3.375 1 4.05
3.5 1 4.05
3.625 1 4.05
3.75 1 4.05
3.875 1 4.05
4 1 4.05
0 0 4.175
0.125 0 4.175
0.25 0 4.175
0.375 0 4.175
0.5 0 4.175
0.625 0 4.175
0.75 0 4.175
0.875 0 4.175
1 0 4.175
1.125 0 4.175
1.25 0 4.175
1.375 0 4.175
1.5 0 4.175
1.625 0 4.175
1.75 0 4.175
1.875 0 4.175
2 0 4.175
2.125 0 4.175
2.25 0 4.175
2.375 0 4.175
2.5 0 4.175
2.625 0 4.175
2.75 0 4.175
2.875 0 4.175
3 0 4.175
3.125 0 4.175
3.25 0 4.175
3.375 0 4.175
3.5 0 4.175
3.625 0 4.175
3.75 0 4.175
3.875 0 4.175
4 0 4.175
0 0.125 4.175
0.125 0.125 4.175
0.25 0.125 4.175
0.375 0.125 4.175
0.5 0.125 4.175
0.625 0.125 4.175
0.75 0.125 4.175
0.875 0.125 4.175
1 0.125 4.175
1.125 0.125 4.175
1.25 0.125 4.175
1.375 0.125 4.175
1.5 0.125 4.175
1.625 0.125 4.175
1.75 0.125 4.175
1.875 0.125 4.175
2 0.125 4.175
2.125 0.125 4.175
2.25 0.125 4.175
2.375 0.125 4.175
2.5 0.125 4.175
2.625 0.125 4.175
2.75 0.125 4.175
2.875 0.125 4.175
3 0.125 4.175
3.125 0.125 4.175
3.25 0.125 4.175
3.375 0.125 4.175
3.5 0.125 4.175
3.625 0.125 4.175
3.75 0.125 4.175
3.875 0.125 4.175
4 0.125 4.175
0 0.25 4.175
0.125 0.25 4.175
0.25 0.25 4.175
0.375 0.25 4.175
0.5 0.25 4.175
0.625 0.25 4.175
0.75 0.25 4.175
0.875 0.25 4.175
1 0.25 4.175
1.125 0.25 4.175
1.25 0.25 4.175
1.375 0.25 4.175
1.5 0.25 4.175
1.625 0.25 4.175
1.75 0.25 4.175
1.875 0.25 4.175
2 0.25 4.175
2.125 0.25 4.175
2.25 0.25 4.175
2.375 0.25 4.175
2.5 0.25 4.175
2.625 0.25 4.175
2.75 0.25 4.175
2.875 0.25 4.175
3 0.25 4.175
3.125 0.25 4.175
3.25 0.25 4.175
3.375 0.25 4.175
3.5 0.25 4.175
3.625 0.25 4.175
3.75 0.25 4.175
3.875 0.25 4.175
4 0.25 4.175
0 0.375 4.175
0.125 0.375 4.175
0.25 0.375 4.175
0.375 0.375 4.175
0.5 0.375 4.175
0.625 0.375 4.175
0.75 0.375 4.175
0.875 0.375 4.175
1 0.375 4.175
1.125 0.375 4.175
1.25 0.375 4.175
1.375 0.375 4.175
1.5 0.375 4.175
1.625 0.375 4.175
1.75 0.375 4.175
1.875 0.375 4.175
2 0.375 4.175
2.125 0.375 4.175
2.25 0.375 4.175
2.375 0.375 4.175
2.5 0.375 4.175
2.625 0.375 4.175
2.75 0.375 4.175
2.875 0.375 4.175
3 0.375 4.175
3.125 0.375 4.175
3.25 0.375 4.175
3.375 0.375 4.175
3.5 0.375 4.175
3.625 0.375 4.175
3.75 0.375 4.175
3.875 0.375 4.175
4 0.375 4.175
0 0.5 4.175
0.125 0.5 4.175
0.25 0.5 4.175
0.375 0.5 4.175
0.5 0.5 4.175
0.625 0.5 4.175
0.75 0.5 4.175
0.875 0.5 4.175
1 0.5 4.175
1.125 0.5 4.175
1.25 0.5 4.175
1.375 0.5 4.175
1.5 0.5 4.175
1.625 0.5 4.175
1.75 0.5 4.175
1.875 0.5 4.175
2 0.5 4.175
2.125 0.5 4.175
2.25 0.5 4.175
2.375 0.5 4.175
2.5 0.5 4.175
2.625 0.5 4.175
2.75 0.5 4.175
2.875 0.5 4.175
3 0.5 4.175
3.125 0.5 4.175
3.25 0.5 4.175
3.375 0.5 4.175
3.5 0.5 4.175
3.625 0.5 4.175
3.75 0.5 4.175
3.875 0.5 4.175
4 0.5 4.175
0 0.625 4.175
0.125 0.625 4.175
0.25 0.625 4.175
0.375 0.625 4.175
0.5 0.625 4.175
0.625 0.625 4.175
0.75 0.625 4.175
0.875 0.625 4.175
1 0.625 4.175
1.125 0.625 4.175
1.25 0.625 4.175
1.375 0.625 4.175
1.5 0.625 4.175
1.625 0.625 4.175
1.75 0.625 4.175
1.875 0.625 4.175
2 0.625 4.175
2.125 0.625 4.175
2.25 0.625 4.175
2.375 0.625 4.175
2.5 0.625 4.175
2.625 0.625 4.175
2.75 0.625 4.175
2.875 0.625 4.175
3 0.625 4.175
3.125 0.625 4.175
3.25 0.625 4.175
3.375 0.625 4.175
3.5 0.625 4.175
3.625 0.625 4.175
3.75 0.625 4.175
3.875 0.625 4.175
4 0.625 4.175
0 0.75 4.175
0.125 0.75 4.175
0.25 0.75 4.175
0.375 0.75 4.175
0.5 0.75 4.175
0.625 0.75 4.175
0.75 0.75 4.175
0.875 0.75 4.175
1 0.75 4.175
1.125 0.75 4.175
1.25 0.75 4.175
1.375 0.75 4.175
1.5 0.75 4.175
1.625 0.75 4.175
1.75 0.75 4.175
1.875 0.75 4.175
2 0.75 4.175
2.125 0.75 4.175
2.25 0.75 4.175
2.375 0.75 4.175
2.5 0.75 4.175
2.625 0.75 4.175
2.75 0.75 4.175
2.875 0.75 4.175
3 0.75 4.175
3.125 0.75 4.175
3.25 0.75 4.175
3.375 0.75 4.175
3.5 0.75 4.175
3.625 0.75 4.175
3.75 0.75 4.175
3.875 0.75 4.175
4 0.75 4.175
0 0.875 4.175
0.125 0.875 4.175
0.25 0.875 4.175
0.375 0.875 4.175
0.5 0.875 4.175
0.625 0.875 4.175
0.75 0.875 4.175
0.875 0.875 4.175
1 0.875 4.175
1.125 0.875 4.175
1.25 0.875 4.175
1.375 0.875 4.175
1.5 0.875 4.175
1.625 0.875 4.175
1.75 0.875 4.175
1.875 0.875 4.175
2 0.875 4.175
2.125 0.875 4.175
2.25 0.875 4.175
2.375 0.875 4.175
2.5 0.875 4.175
2.625 0.875 4.175
2.75 0.875 4.175
2.875 0.875 4.175
3 0.875 4.175
3.125 0.875 4.175
3.25 0.875 4.175
3.375 0.875 4.175
3.5 0.875 4.175
3.625 0.875 4.175
3.75 0.875 4.175
3.875 0.875 4.175
4 0.875 4.175
0 1 4.175
0.125 1 4.175
0.25 1 4.175
0.375 1 4.175
0.5 1 4.175
0.625 1 4.175
0.75 1 4.175
0.875 1 4.175
1 1 4.175
1.125 1 4.175
1.25 1 4.175
1.375 1 4.175
1.5 1 4.175
1.625 1 4.175
1.75 1 4.175
1.875 1 4.175
2 1 4.175
2.125 1 4.175
2.25 1 4.175
2.375 1 4.175
2.5 1 4.175
2.625 1 4.175
2.75 1 4.175
2.875 1 4.175
3 1 4.175
3.125 1 4.175
3.25 1 4.175
3.375 1 4.175
3.5 1 4.175
3.625 1 4.175
3.75 1 4.175
3.875 1 4.175
4 1 4.175
0 0 4.3
0.125 0 4.3
0.25 0 4.3
0.375 0 4.3
0.5 0 4.3
0.625 0 4.3
0.75 0 4.3
0.875 0 4.3
1 0 4.3
1.125 0 4.3
1.25 0 4.3
1.375 0 4.3
1.5 0 4.3
1.625 0 4.3
1.75 0 4.3
1.875 0 4.3
2 0 4.3
2.125 0 4.3
2.25 0 4.3
2.375 0 4.3
2.5 0 4.3
2.625 0 4.3
2.75 0 4.3
2.875 0 4.3
3 0 4.3
3.125 0 4.3
3.25 0 4.3
3.375 0 4.3
3.5 0 4.3
3.625 0 4.3
3.75 0 4.3
3.875 0 4.3
4 0 4.3
0 0.125 4.3
0.125 0.125 4.3
0.25 0.125 4.3
0.375 0.125 4.3
0.5 0.125 4.3
0.625 0.125 4.3
0.75 0.125 4.3
0.875 0.125 4.3
1 0.125 4.3
1.125 0.125 4.3
1.25 0.125 4.3
1.375 0.125 4.3
1.5 0.125 4.3
1.625 0.125 4.3
1.75 0.125 4.3
1.875 0.125 4.3
2 0.125 4.3
2.125 0.125 4.3
2.25 0.125 4.3
2.375 0.125 4.3
2.5 0.125 4.3
2.625 0.125 4.3
2.75 0.125 4.3
2.875 0.125 4.3
3 0.125 4.3
3.125 0.125 4.3
3.25 0.125 4.3
3.375 0.125 4.3
3.5 0.125 4.3
3.625 0.125 4.3
3.75 0.125 4.3
3.875 0.125 4.3
4 0.125 4.3
0 0.25 4.3
0.125 0.25 4.3
0.25 0.25 4.3
0.375 0.25 4.3
0.5 0.25 4.3
0.625 0.25 4.3
0.75 0.25 4.3
0.875 0.25 4.3
1 0.25 4.3
1.125 0.25 4.3
1.25 0.25 4.3
1.375 0.25 4.3
1.5 0.25 4.3
1.625 0.25 4.3
1.75 0.25 4.3
1.875 0.25 4.3
2 0.25 4.3
2.125 0.25 4.3
2.25 0.25 4.3
2.375 0.25 4.3
2.5 0.25 4.3
2.625 0.25 4.3
2.75 0.25 4.3
2.875 0.25 4.3
3 0.25 4.3
3.125 0.25 4.3
3.25 0.25 4.3
3.375 0.25 4.3
3.5 0.25 4.3
3.625 0.25 4.3
3.75 0.25 4.3
3.875 0.25 4.3
4 0.25 4.3
0 0.375 4.3
0.125 0.375 4.3
0.25 0.375 4.3
0.375 0.375 4.3
0.5 0.375 4.3
0.625 0.375 4.3
0.75 0.375 4.3
0.875 0.375 4.3
1 0.375 4.3
1.125 0.375 4.3
1.25 0.375 4.3
1.375 0.375 4.3
1.5 0.375 4.3
1.625 0.375 4.3
1.75 0.375 4.3
1.875 0.375 4.3
2 0.375 4.3
2.125 0.375 4.3
2.25 0.375 4.3
2.375 0.375 4.3
2.5 0.375 4.3
2.625 0.375 4.3
2.75 0.375 4.3
2.875 0.375 4.3
3 0.375 4.3
3.125 0.375 4.3
3.25 0.375 4.3
3.375 0.375 4.3
3.5 0.375 4.3
3.625 0.375 4.3
3.75 0.375 4.3
3.875 0.375 4.3
4 0.375 4.3
0 0.5 4.3
0.125 0.5 4.3
0.25 0.5 4.3
0.375 0.5 4.3
0.5 0.5 4.3
0.625 0.5 4.3
0.75 0.5 4.3
0.875 0.5 4.3
1 0.5 4.3
1.125 0.5 4.3
1.25 0.5 4.3
1.375 0.5 4.3
1.5 0.5 4.3
1.625 0.5 4.3
1.75 0.5 4.3
1.875 0.5 4.3
2 0.5 4.3
2.125 0.5 4.3
2.25 0.5 4.3
2.375 0.5 4.3
2.5 0.5 4.3
2.625 0.5 4.3
2.75 0.5 4.3
2.875 0.5 4.3
3 0.5 4.3
3.125 0.5 4.3
3.25 0.5 4.3
3.375 0.5 4.3
3.5 0.5 4.3
3.625 0.5 4.3
3.75 0.5 4.3
3.875 0.5 4.3
4 0.5 4.3
0 0.625 4.3
0.125 0.625 4.3
0.25 0.625 4.3
0.375 0.625 4.3
0.5 0.625 4.3
0.625 0.625 4.3
0.75 0.625 4.3
0.875 0.625 4.3
1 0.625 4.3
1.125 0.625 4.3
1.25 0.625 4.3
1.375 0.625 4.3
1.5 0.625 4.3
1.625 0.625 4.3
1.75 0.625 4.3
1.875 0.625 4.3
2 0.625 4.3
2.125 0.625 4.3
2.25 0.625 4.3
2.375 0.625 4.3
2.5 0.625 4.3
2.625 0.625 4.3
2.75 0.625 4.3
2.875 0.625 4.3
3 0.625 4.3
3.125 0.625 4.3
3.25 0.625 4.3
3.375 0.625 4.3
3.5 0.625 4.3
3.625 0.625 4.3
3.75 0.625 4.3
3.875 0.625 4.3
4 0.625 4.3
0 0.75 4.3
0.125 0.75 4.3
0.25 0.75 4.3
0.375 0.75 4.3
0.5 0.75 4.3
0.625 0.75 4.3
0.75 0.75 4.3
0.875 0.75 4.3
1 0.75 4.3
1.125 0.75 4.3
1.25 0.75 4.3
1.375 0.75 4.3
1.5 0.75 4.3
1.625 0.75 4.3
1.75 0.75 4.3
1.875 0.75 4.3
2 0.75 4.3
2.125 0.75 4.3
2.25 0.75 4.3
2.375 0.75 4.3
2.5 0.75 4.3
2.625 0.75 4.3
2.75 0.75 4.3
2.875 0.75 4.3
3 0.75 4.3
3.125 0.75 4.3
3.25 0.75 4.3
3.375 0.75 4.3
3.5 0.75 4.3
3.625 0.75 4.3
3.75 0.75 4.3
3.875 0.75 4.3
4 0.75 4.3
0 0.875 4.3
0.125 0.875 4.3
0.25 0.875 4.3
0.375 0.875 4.3
0.5 0.875 4.3
0.625 0.875 4.3
0.75 0.875 4.3
0.875 0.875 4.3
1 0.875 4.3
1.125 0.875 4.3
1.25 0.875 4.3
1.375 0.875 4.3
1.5 0.875 4.3
1.625 0.875 4.3
1.75 0.875 4.3
1.875 0.875 4.3
2 0.875 4.3
2.125 0.875 4.3
2.25 0.875 4.3
2.375 0.875 4.3
2.5 0.875 4.3
2.625 0.875 4.3
2.75 0.875 4.3
2.875 0.875 4.3
3 0.875 4.3
3.125 0.875 4.3
3.25 0.875 4.3
3.375 0.875 4.3
3.5 0.875 4.3
3.625 0.875 4.3
3.75 0.875 4.3
3.875 0.875 4.3
4 0.875 4.3
0 1 4.3
0.125 1 4.3
0.25 1 4.3
0.375 1 4.3
0.5 1 4.3
0.625 1 4.3
0.75 1 4.3
0.875 1 4.3
1 1 4.3
1.125 1 4.3
1.25 1 4.3
1.375 1 4.3
1.5 1 4.3
1.625 1 4.3
1.75 1 4.3
1.875 1 4.3
2 1 4.3
2.125 1 4.3
2.25 1 4.3
2.375 1 4.3
2.5 1 4.3
2.625 1 4.3
2.75 1 4.3
2.875 1 4.3
3 1 4.3
3.125 1 4.3
3.25 1 4.3
3.375 1 4.3
3.5 1 4.3
3.625 1 4.3
3.75 1 4.3
3.875 1 4.3
4 1 4.3
0 0.0625 3.3
0.0625 0.125 3.3625
0.0625 0.0625 3.3625
0.0625 0.0625 3.3
0.0625 0.125 3.3
0.125 0.125 3.3625
0.0625 0.0625 3.425
0.125 0.0625 3.425
0.0625 0 3.425
0 0 3.3625
0.0625 0 3.3625
0 0.125 3.3625
0 0.0625 3.3625
0.0625 0.125 3.425
0 0.0625 3.425
0.125 0 3.3625
0.0625 0 3.3
0.125 0.0625 3.3625
0.125 0.0625 3.3
0.1875 0.125 3.3625
0.1875 0.0625 3.3625
0.1875 0.0625 3.3
0.1875 0.125 3.3
0.25 0.125 3.3625
0.1875 0.0625 3.425
0.25 0.0625 3.425
0.1875 0 3.425
0.1875 0 3.3625
0.1875 0.125 3.425
0.25 0 3.3625
0.1875 0 3.3
0.25 0.0625 3.3625
0.25 0.0625 3.3
0.3125 0.125 3.3625
0.3125 0.0625 3.3625
0.3125 0.0625 3.3
0.3125 0.125 3.3
0.375 0.125 3.3625
0.3125 0.0625 3.425
0.375 0.0625 3.425
0.3125 0 3.425
0.3125 0 3.3625
0.3125 0.125 3.425
0.375 0 3.3625
0.3125 0 3.3
0.375 0.0625 3.3625
0.375 0.0625 3.3
0.4375 0.125 3.3625
0.4375 0.0625 3.3625
0.4375 0.0625 3.3
0.4375 0.125 3.3
0.5 0.125 3.3625
0.4375 0.0625 3.425
0.5 0.0625 3.425
0.4375 0 3.425
0.4375 0 3.3625
0.4375 0.125 3.425
0.5 0 3.3625
0.4375 0 3.3
0.5 0.0625 3.3625
0.5 0.0625 3.3
0.5625 0.125 3.3625
0.5625 0.0625 3.3625
0.5625 0.0625 3.3
0.5625 0.125 3.3
0.625 0.125 3.3625
0.5625 0.0625 3.425
0.625 0.0625 3.425
0.5625 0 3.425
0.5625 0 3.3625
0.5625 0.125 3.425
0.625 0 3.3625
0.5625 0 3.3
0.625 0.0625 3.3625
0.625 0.0625 3.3
0.6875 0.125 3.3625
0.6875 0.0625 3.3625
0.6875 0.0625 3.3
0.6875 0.125 3.3
0.75 0.125 3.3625
0.6875 0.0625 3.425
0.75 0.0625 3.425
0.6875 0 3.425
0.6875 0 3.3625
0.6875 0.125 3.425
0.75 0 3.3625
0.6875 0 3.3
0.75 0.0625 3.3625
0.75 0.0625 3.3
0.8125 0.125 3.3625
0.8125 0.0625 3.3625
0.8125 0.0625 3.3
0.8125 0.125 3.3
0.875 0.125 3.3625
0.8125 0.0625 3.425
0.875 0.0625 3.425
0.8125 0 3.425
0.8125 0 3.3625
0.8125 0.125 3.425
0.875 0 3.3625
0.8125 0 3.3
0.875 0.0625 3.3625
0.875 0.0625 3.3
0.9375 0.125 3.3625
0.9375 0.0625 3.3625
0.9375 0.0625 3.3
0.9375 0.125 3.3
1 0.125 3.3625
0.9375 0.0625 3.425
1 0.0625 3.425
0.9375 0 3.425
0.9375 0 3.3625
0.9375 0.125 3.425
1 0 3.3625
0.9375 0 3.3
1 0.0625 3.3625
1 0.0625 3.3
1.0625 0.125 3.3625
1.0625 0.0625 3.3625
1.0625 0.0625 3.3
1.0625 0.125 3.3
1.125 0.125 3.3625
1.0625 0.0625 3.425
1.125 0.0625 3.425
1.0625 0 3.425
1.0625 0 3.3625
1.0625 0.125 3.425
1.125 0 3.3625
1.0625 0 3.3
1.125 0.0625 3.3625
1.125 0.0625 3.3
1.1875 0.125 3.3625
1.1875 0.0625 3.3625
1.1875 0.0625 3.3
1.1875 0.125 3.3
1.25 0.125 3.3625
1.1875 0.0625 3.425
1.25 0.0625 3.425
1.1875 0 3.425
1.1875 0 3.3625
1.1875 0.125 3.425
1.25 0 3.3625
1.1875 0 3.3
1.25 0.0625 3.3625
1.25 0.0625 3.3
1.3125 0.125 3.3625
1.3125 0.0625 3.3625
1.3125 0.0625 3.3
1.3125 0.125 3.3
1.375 0.125 3.3625
1.3125 0.0625 3.425
1.375 0.0625 3.425
1.3125 0 3.425
1.3125 0 3.3625
1.3125 0.125 3.425
1.375 0 3.3625
1.3125 0 3.3
1.375 0.0625 3.3625
1.375 0.0625 3.3
1.4375 0.125 3.3625
1.4375 0.0625 3.3625
1.4375 0.0625 3.3
1.4375 0.125 3.3
1.5 0.125 3.3625
1.4375 0.0625 3.425
1.5 0.0625 3.425
1.4375 0 3.425
1.4375 0 3.3625
1.4375 0.125 3.425
1.5 0 3.3625
1.4375 0 3.3
1.5 0.0625 3.3625
1.5 0.0625 3.3
1.5625 0.125 3.3625
1.5625 0.0625 3.3625
1.5625 0.0625 3.3
1.5625 0.125 3.3
1.625 0.125 3.3625
1.5625 0.0625 3.425
1.625 0.0625 3.425
1.5625 0 3.425
1.5625 0 3.3625
1.5625 0.125 3.425
1.625 0 3.3625
1.5625 0 3.3
1.625 0.0625 3.3625
1.625 0.0625 3.3
1.6875 0.125 3.3625
1.6875 0.0625 3.3625
1.6875 0.0625 3.3
1.6875 0.125 3.3
1.75 0.125 3.3625
1.6875 0.0625 3.425
1.75 0.0625 3.425
1.6875 0 3.425
1.6875 0 3.3625
1.6875 0.125 3.425
1.75 0 3.3625
1.6875 0 3.3
1.75 0.0625 3.3625
1.75 0.0625 3.3
1.8125 0.125 3.3625
1.8125 0.0625 3.3625
1.8125 0.0625 3.3
1.8125 0.125 3.3
1.875 0.125 3.3625
1.8125 0.0625 3.425
1.875 0.0625 3.425
1.8125 0 3.425
1.8125 0 3.3625
1.8125 0.125 3.425
1.875 0 3.3625
1.8125 0 3.3
1.875 0.0625 3.3625
1.875 0.0625 3.3
1.9375 0.125 3.3625
1.9375 0.0625 3.3625
1.9375 0.0625 3.3
1.9375 0.125 3.3
2 0.125 3.3625
1.9375 0.0625 3.425
2 0.0625 3.425
1.9375 0 3.425
1.9375 0 3.3625
1.9375 0.125 3.425
2 0 3.3625
1.9375 0 3.3
2 0.0625 3.3625
2 0.0625 3.3
2.0625 0.125 3.3625
2.0625 0.0625 3.3625
2.0625 0.0625 3.3
2.0625 0.125 3.3
2.125 0.125 3.3625
2.0625 0.0625 3.425
2.125 0.0625 3.425
2.0625 0 3.425
2.0625 0 3.3625
2.0625 0.125 3.425
2.125 0 3.3625
2.0625 0 3.3
2.125 0.0625 3.3625
2.125 0.0625 3.3
2.1875 0.125 3.3625
2.1875 0.0625 3.3625
2.1875 0.0625 3.3
2.1875 0.125 3.3
2.25 0.125 3.3625
2.1875 0.0625 3.425
2.25 0.0625 3.425
2.1875 0 3.425
2.1875 0 3.3625
2.1875 0.125 3.425
2.25 0 3.3625
2.1875 0 3.3
2.25 0.0625 3.3625
2.25 0.0625 3.3
2.3125 0.125 3.3625
2.3125 0.0625 3.3625
2.3125 0.0625 3.3
2.3125 0.125 3.3
2.375 0.125 3.3625
2.3125 0.0625 3.425
2.375 0.0625 3.425
2.3125 0 3.425
2.3125 0 3.3625
2.3125 0.125 3.425
2.375 0 3.3625
2.3125 0 3.3
2.375 0.0625 3.3625
2.375 0.0625 3.3
2.4375 0.125 3.3625
2.4375 0.0625 3.3625
2.4375 0.0625 3.3
2.4375 0.125 3.3
2.5 0.125 3.3625
2.4375 0.0625 3.425
2.5 0.0625 3.425
2.4375 0 3.425
2.4375 0 3.3625
2.4375 0.125 3.425
2.5 0 3.3625
2.4375 0 3.3
2.5 0.0625 3.3625
2.5 0.0625 3.3
2.5625 0.125 3.3625
2.5625 0.0625 3.3625
2.5625 0.0625 3.3
2.5625 0.125 3.3
2.625 0.125 3.3625
2.5625 0.0625 3.425
2.625 0.0625 3.425
2.5625 0 3.425
2.5625 0 3.3625
2.5625 0.125 3.425
2.625 0 3.3625
2.5625 0 3.3
2.625 0.0625 3.3625
2.625 0.0625 3.3
2.6875 0.125 3.3625
2.6875 0.0625 3.3625
2.6875 0.0625 3.3
2.6875 0.125 3.3
2.75 0.125 3.3625
2.6875 0.0625 3.425
2.75 0.0625 3.425
2.6875 0 3.425
2.6875 0 3.3625
2.6875 0.125 3.425
2.75 0 3.3625
2.6875 0 3.3
2.75 0.0625 3.3625
2.75 0.0625 3.3
2.8125 0.125 3.3625
2.8125 0.0625 3.3625
2.8125 0.0625 3.3
2.8125 0.125 3.3
2.875 0.125 3.3625
2.8125 0.0625 3.425
2.875 0.0625 3.425
2.8125 0 3.425
2.8125 0 3.3625
2.8125 0.125 3.425
2.875 0 3.3625
2.8125 0 3.3
2.875 0.0625 3.3625
2.875 0.0625 3.3
2.9375 0.125 3.3625
2.9375 0.0625 3.3625
2.9375 0.0625 3.3
2.9375 0.125 3.3
3 0.125 3.3625
2.9375 0.0625 3.425
3 0.0625 3.425
2.9375 0 3.425
2.9375 0 3.3625
2.9375 0.125 3.425
3 0 3.3625
2.9375 0 3.3
3 0.0625 3.3625
3 0.0625 3.3
3.0625 0.125 3.3625
3.0625 0.0625 3.3625
3.0625 0.0625 3.3
3.0625 0.125 3.3
3.125 0.125 3.3625
3.0625 0.0625 3.425
3.125 0.0625 3.425
3.0625 0 3.425
3.0625 0 3.3625
3.0625 0.125 3.425
3.125 0 3.3625
3.0625 0 3.3
3.125 0.0625 3.3625
3.125 0.0625 3.3
3.1875 0.125 3.3625
3.1875 0.0625 3.3625
3.1875 0.0625 3.3
3.1875 0.125 3.3
3.25 0.125 3.3625
3.1875 0.0625 3.425
3.25 0.0625 3.425
3.1875 0 3.425
3.1875 0 3.3625
3.1875 0.125 3.425
3.25 0 3.3625
3.1875 0 3.3
3.25 0.0625 3.3625
3.25 0.0625 3.3
3.3125 0.125 3.3625
3.3125 0.0625 3.3625
3.3125 0.0625 3.3
3.3125 0.125 3.3
3.375 0.125 3.3625
3.3125 0.0625 3.425
3.375 0.0625 3.425
3.3125 0 3.425
3.3125 0 3.3625
3.3125 0.125 3.425
3.375 0 3.3625
3.3125 0 3.3
3.375 0.0625 3.3625
3.375 0.0625 3.3
3.4375 0.125 3.3625
3.4375 0.0625 3.3625
3.4375 0.0625 3.3
3.4375 0.125 3.3
3.5 0.125 3.3625
3.4375 0.0625 3.425
3.5 0.0625 3.425
3.4375 0 3.425
3.4375 0 3.3625
3.4375 0.125 3.425
3.5 0 3.3625
3.4375 0 3.3
3.5 0.0625 3.3625
3.5 0.0625 3.3
3.5625 0.125 3.3625
3.5625 0.0625 3.3625
3.5625 0.0625 3.3
3.5625 0.125 3.3
3.625 0.125 3.3625
3.5625 0.0625 3.425
3.625 0.0625 3.425
3.5625 0 3.425
3.5625 0 3.3625
3.5625 0.125 3.425
3.625 0 3.3625
3.5625 0 3.3
3.625 0.0625 3.3625
3.625 0.0625 3.3
3.6875 0.125 3.3625
3.6875 0.0625 3.3625
3.6875 0.0625 3.3
3.6875 0.125 3.3
3.75 0.125 3.3625
3.6875 0.0625 3.425
3.75 0.0625 3.425
3.6875 0 3.425
3.6875 0 3.3625
3.6875 0.125 3.425
3.75 0 3.3625
3.6875 0 3.3
3.75 0.0625 3.3625
3.75 0.0625 3.3
3.8125 0.125 3.3625
3.8125 0.0625 3.3625
3.8125 0.0625 3.3
3.8125 0.125 3.3
3.875 0.125 3.3625
3.8125 0.0625 3.425
3.875 0.0625 3.425
3.8125 0 3.425
3.8125 0 3.3625
3.8125 0.125 3.425
3.875 0 3.3625
3.8125 0 3.3
3.875 0.0625 3.3625
3.875 0.0625 3.3
3.9375 0.125 3.3625
3.9375 0.0625 3.3625
3.9375 0.0625 3.3
3.9375 0.125 3.3
4 0.125 3.3625
3.9375 0.0625 3.425
4 0.0625 3.425
3.9375 0 3.425
3.9375 0 3.3625
3.9375 0.125 3.425
4 0 3.3625
3.9375 0 3.3
4 0.0625 3.3625
4 0.0625 3.3
0 0.1875 3.3
0.0625 0.25 3.3625
0.0625 0.1875 3.3625
0.0625 0.1875 3.3
0.0625 0.25 3.3
0.125 0.25 3.3625
0.0625 0.1875 3.425
0.125 0.1875 3.425
0 0.25 3.3625
0 0.1875 3.3625
0.0625 0.25 3.425
0 0.1875 3.425
0.125 0.1875 3.3625
0.125 0.1875 3.3
0.1875 0.25 3.3625
0.1875 0.1875 3.3625
0.1875 0.1875 3.3
0.1875 0.25 3.3
0.25 0.25 3.3625
0.1875 0.1875 3.425
0.25 0.1875 3.425
0.1875 0.25 3.425
0.25 0.1875 3.3625
0.25 0.1875 3.3
0.3125 0.25 3.3625
0.3125 0.1875 3.3625
0.3125 0.1875 3.3
0.3125 0.25 3.3
0.375 0.25 3.3625
0.3125 0.1875 3.425
0.375 0.1875 3.425
0.3125 0.25 3.425
0.375 0.1875 3.3625
0.375 0.1875 3.3
0.4375 0.25 3.3625
0.4375 0.1875 3.3625
0.4375 0.1875 3.3
0.4375 0.25 3.3
0.5 0.25 3.3625
0.4375 0.1875 3.425
0.5 0.1875 3.425
0.4375 0.25 3.425
0.5 0.1875 3.3625
0.5 0.1875 3.3
0.5625 0.25 3.3625
0.5625 0.1875 3.3625
0.5625 0.1875 3.3
0.5625 0.25 3.3
0.625 0.25 3.3625
0.5625 0.1875 3.425
0.625 0.1875 3.425
0.5625 0.25 3.425
0.625 0.1875 3.3625
0.625 0.1875 3.3
0.6875 0.25 3.3625
0.6875 0.1875 3.3625
0.6875 0.1875 3.3
0.6875 0.25 3.3
0.75 0.25 3.3625
0.6875 0.1875 3.425
0.75 0.1875 3.425
0.6875 0.25 3.425
0.75 0.1875 3.3625
0.75 0.1875 3.3
0.8125 0.25 3.3625
0.8125 0.1875 3.3625
0.8125 0.1875 3.3
0.8125 0.25 3.3
0.875 0.25 3.3625
0.8125 0.1875 3.425
0.875 0.1875 3.425
0.8125 0.25 3.425
0.875 0.1875 3.3625
0.875 0.1875 3.3
0.9375 0.25 3.3625
0.9375 0.1875 3.3625
0.9375 0.1875 3.3
0.9375 0.25 3.3
1 0.25 3.3625
0.9375 0.1875 3.425
1 0.1875 3.425
0.9375 0.25 3.425
1 0.1875 3.3625
1 0.1875 3.3
1.0625 0.25 3.3625
1.0625 0.1875 3.3625
1.0625 0.1875 3.3
1.0625 0.25 3.3
1.125 0.25 3.3625
1.0625 0.1875 3.425
1.125 0.1875 3.425
1.0625 0.25 3.425
1.125 0.1875 3.3625
1.125 0.1875 3.3
1.1875 0.25 3.3625
1.1875 0.1875 3.3625
1.1875 0.1875 3.3
1.1875 0.25 3.3
1.25 0.25 3.3625
1.1875 0.1875 3.425
1.25 0.1875 3.425
1.1875 0.25 3.425
1.25 0.1875 3.3625
1.25 0.1875 3.3
1.3125 0.25 3.3625
1.3125 0.1875 3.3625
1.3125 0.1875 3.3
1.3125 0.25 3.3
1.375 0.25 3.3625
1.3125 0.1875 3.425
1.375 0.1875 3.425
1.3125 0.25 3.425
1.375 0.1875 3.3625
1.375 0.1875 3.3
1.4375 0.25 3.3625
1.4375 0.1875 3.3625
1.4375 0.1875 3.3
1.4375 0.25 3.3
1.5 0.25 3.3625
1.4375 0.1875 3.425
1.5 0.1875 3.425
1.4375 0.25 3.425
1.5 0.1875 3.3625
1.5 0.1875 3.3
1.5625 0.25 3.3625
1.5625 0.1875 3.3625
1.5625 0.1875 3.3
1.5625 0.25 3.3
1.625 0.25 3.3625
1.5625 0.1875 3.425
1.625 0.1875 3.425
1.5625 0.25 3.425
1.625 0.1875 3.3625
1.625 0.1875 3.3
1.6875 0.25 3.3625
1.6875 0.1875 3.3625
1.6875 0.1875 3.3
1.6875 0.25 3.3
1.75 0.25 3.3625
1.6875 0.1875 3.425
1.75 0.1875 3.425
1.6875 0.25 3.425
1.75 0.1875 3.3625
1.75 0.1875 3.3
1.8125 0.25 3.3625
1.8125 0.1875 3.3625
1.8125 0.1875 3.3
1.8125 0.25 3.3
1.875 0.25 3.3625
1.8125 0.1875 3.425
1.875 0.1875 3.425
1.8125 0.25 3.425
1.875 0.1875 3.3625
1.875 0.1875 3.3
1.9375 0.25 3.3625
1.9375 0.1875 3.3625
1.9375 0.1875 3.3
1.9375 0.25 3.3
2 0.25 3.3625
1.9375 0.1875 3.425
2 0.1875 3.425
1.9375 0.25 3.425
2 0.1875 3.3625
2 0.1875 3.3
2.0625 0.25 3.3625
2.0625 0.1875 3.3625
2.0625 0.1875 3.3
2.0625 0.25 3.3
2.125 0.25 3.3625
2.0625 0.1875 3.425
2.125 0.1875 3.425
2.0625 0.25 3.425
2.125 0.1875 3.3625
2.125 0.1875 3.3
2.1875 0.25 3.3625
2.1875 0.1875 3.3625
2.1875 0.1875 3.3
2.1875 0.25 3.3
2.25 0.25 3.3625
2.1875 0.1875 3.425
2.25 0.1875 3.425
2.1875 0.25 3.425
2.25 0.1875 3.3625
2.25 0.1875 3.3
2.3125 0.25 3.3625
2.3125 0.1875 3.3625
2.3125 0.1875 3.3
2.3125 0.25 3.3
2.375 0.25 3.3625
2.3125 0.1875 3.425
2.375 0.1875 3.425
2.3125 0.25 3.425
2.375 0.1875 3.3625
2.375 0.1875 3.3
2.4375 0.25 3.3625
2.4375 0.1875 3.3625
2.4375 0.1875 3.3
2.4375 0.25 3.3
2.5 0.25 3.3625
2.4375 0.1875 3.425
2.5 0.1875 3.425
2.4375 0.25 3.425
2.5 0.1875 3.3625
2.5 0.1875 3.3
2.5625 0.25 3.3625
2.5625 0.1875 3.3625
2.5625 0.1875 3.3
2.5625 0.25 3.3
2.625 0.25 3.3625
2.5625 0.1875 3.425
2.625 0.1875 3.425
2.5625 0.25 3.425
2.625 0.1875 3.3625
2.625 0.1875 3.3
2.6875 0.25 3.3625
2.6875 0.1875 3.3625
2.6875 0.1875 3.3
2.6875 0.25 3.3
2.75 0.25 3.3625
2.6875 0.1875 3.425
2.75 0.1875 3.425
2.6875 0.25 3.425
2.75 0.1875 3.3625
2.75 0.1875 3.3
2.8125 0.25 3.3625
2.8125 0.1875 3.3625
2.8125 0.1875 3.3
2.8125 0.25 3.3
2.875 0.25 3.3625
2.8125 0.1875 3.425
2.875 0.1875 3.425
2.8125 0.25 3.425
2.875 0.1875 3.3625
2.875 0.1875 3.3
2.9375 0.25 3.3625
2.9375 0.1875 3.3625
2.9375 0.1875 3.3
2.9375 0.25 3.3
3 0.25 3.3625
2.9375 0.1875 3.425
3 0.1875 3.425
2.9375 0.25 3.425
3 0.1875 3.3625
3 0.1875 3.3
3.0625 0.25 3.3625
3.0625 0.1875 3.3625
3.0625 0.1875 3.3
3.0625 0.25 3.3
3.125 0.25 3.3625
3.0625 0.1875 3.425
3.125 0.1875 3.425
3.0625 0.25 3.425
3.125 0.1875 3.3625
3.125 0.1875 3.3
3.1875 0.25 3.3625
3.1875 0.1875 3.3625
3.1875 0.1875 3.3
3.1875 0.25 3.3
3.25 0.25 3.3625
3.1875 0.1875 3.425
3.25 0.1875 3.425
3.1875 0.25 3.425
3.25 0.1875 3.3625
3.25 0.1875 3.3
3.3125 0.25 3.3625
3.3125 0.1875 3.3625
3.3125 0.1875 3.3
3.3125 0.25 3.3
3.375 0.25 3.3625
3.3125 0.1875 3.425
3.375 0.1875 3.425
3.3125 0.25 3.425
3.375 0.1875 3.3625
3.375 0.1875 3.3
3.4375 0.25 3.3625
3.4375 0.1875 3.3625
3.4375 0.1875 3.3
3.4375 0.25 3.3
3.5 0.25 3.3625
3.4375 0.1875 3.425
3.5 0.1875 3.425
3.4375 0.25 3.425
3.5 0.1875 3.3625
3.5 0.1875 3.3
3.5625 0.25 3.3625
3.5625 0.1875 3.3625
3.5625 0.1875 3.3
3.5625 0.25 3.3
3.625 0.25 3.3625
3.5625 0.1875 3.425
3.625 0.1875 3.425
3.5625 0.25 3.425
3.625 0.1875 3.3625
3.625 0.1875 3.3
3.6875 0.25 3.3625
3.6875 0.1875 3.3625
3.6875 0.1875 3.3
3.6875 0.25 3.3
3.75 0.25 3.3625
3.6875 0.1875 3.425
3.75 0.1875 3.425
3.6875 0.25 3.425
3.75 0.1875 3.3625
3.75 0.1875 3.3
3.8125 0.25 3.3625
3.8125 0.1875 3.3625
3.8125 0.1875 3.3
3.8125 0.25 3.3
3.875 0.25 3.3625
3.8125 0.1875 3.425
3.875 0.1875 3.425
3.8125 0.25 3.425
3.875 0.1875 3.3625
3.875 0.1875 3.3
3.9375 0.25 3.3625
3.9375 0.1875 3.3625
3.9375 0.1875 3.3
3.9375 0.25 3.3
4 0.25 3.3625
3.9375 0.1875 3.425
4 0.1875 3.425
3.9375 0.25 3.425
4 0.1875 3.3625
4 0.1875 3.3
0 0.3125 3.3
0.0625 0.375 3.3625
0.0625 0.3125 3.3625
0.0625 0.3125 3.3
0.0625 0.375 3.3
0.125 0.375 3.3625
0.0625 0.3125 3.425
0.125 0.3125 3.425
0 0.375 3.3625
0 0.3125 3.3625
0.0625 0.375 3.425
0 0.3125 3.425
0.125 0.3125 3.3625
0.125 0.3125 3.3
0.1875 0.375 3.3625
0.1875 0.3125 3.3625
0.1875 0.3125 3.3
0.1875 0.375 3.3
0.25 0.375 3.3625
0.1875 0.3125 3.425
0.25 0.3125 3.425
0.1875 0.375 3.425
0.25 0.3125 3.3625
0.25 0.3125 3.3
0.3125 0.375 3.3625
0.3125 0.3125 3.3625
0.3125 0.3125 3.3
0.3125 0.375 3.3
0.375 0.375 3.3625
0.3125 0.3125 3.425
0.375 0.3125 3.425
0.3125 0.375 3.425
0.375 0.3125 3.3625
0.375 0.3125 3.3
0.4375 0.375 3.3625
0.4375 0.3125 3.3625
0.4375 0.3125 3.3
0.4375 0.375 3.3
0.5 0.375 3.3625
0.4375 0.3125 3.425
0.5 0.3125 3.425
0.4375 0.375 3.425
0.5 0.3125 3.3625
0.5 0.3125 3.3
0.5625 0.375 3.3625
0.5625 0.3125 3.3625
0.5625 0.3125 3.3
0.5625 0.375 3.3
0.625 0.375 3.3625
0.5625 0.3125 3.425
0.625 0.3125 3.425
0.5625 0.375 3.425
0.625 0.3125 3.3625
0.625 0.3125 3.3
0.6875 0.375 3.3625
0.6875 0.3125 3.3625
0.6875 0.3125 3.3
0.6875 0.375 3.3
0.75 0.375 3.3625
0.6875 0.3125 3.425
0.75 0.3125 3.425
0.6875 0.375 3.425
0.75 0.3125 3.3625
0.75 0.3125 3.3
0.8125 0.375 3.3625
0.8125 0.3125 3.3625
0.8125 0.3125 3.3
0.8125 0.375 3.3
0.875 0.375 3.3625
0.8125 0.3125 3.425
0.875 0.3125 3.425
0.8125 0.375 3.425
0.875 0.3125 3.3625
0.875 0.3125 3.3
0.9375 0.375 3.3625
0.9375 0.3125 3.3625
0.9375 0.3125 3.3
0.9375 0.375 3.3
1 0.375 3.3625
0.9375 0.3125 3.425
1 0.3125 3.425
0.9375 0.375 3.425
1 0.3125 3.3625
1 0.3125 3.3
1.0625 0.375 3.3625
1.0625 0.3125 3.3625
1.0625 0.3125 3.3
1.0625 0.375 3.3
1.125 0.375 3.3625
1.0625 0.3125 3.425
1.125 0.3125 3.425
1.0625 0.375 3.425
1.125 0.3125 3.3625
1.125 0.3125 3.3
1.1875 0.375 3.3625
1.1875 0.3125 3.3625
1.1875 0.3125 3.3
1.1875 0.375 3.3
1.25 0.375 3.3625
1.1875 0.3125 3.425
1.25 0.3125 3.425
1.1875 0.375 3.425
1.25 0.3125 3.3625
1.25 0.3125 3.3
1.3125 0.375 3.3625
1.3125 0.3125 3.3625
1.3125 0.3125 3.3
1.3125 0.375 3.3
1.375 0.375 3.3625
1.3125 0.3125 3.425
1.375 0.3125 3.425
1.3125 0.375 3.425
1.375 0.3125 3.3625
1.375 0.3125 3.3
1.4375 0.375 3.3625
1.4375 0.3125 3.3625
1.4375 0.3125 3.3
1.4375 0.375 3.3
1.5 0.375 3.3625
1.4375 0.3125 3.425
1.5 0.3125 3.425
1.4375 0.375 3.425
1.5 0.3125 3.3625
1.5 0.3125 3.3
1.5625 0.375 3.3625
1.5625 0.3125 3.3625
1.5625 0.3125 3.3
1.5625 0.375 3.3
1.625 0.375 3.3625
1.5625 0.3125 3.425
1.625 0.3125 3.425
1.5625 0.375 3.425
1.625 0.3125 3.3625
1.625 0.3125 3.3
1.6875 0.375 3.3625
1.6875 0.3125 3.3625
1.6875 0.3125 3.3
1.6875 0.375 3.3
1.75 0.375 3.3625
1.6875 0.3125 3.425
1.75 0.3125 3.425
1.6875 0.375 3.425
1.75 0.3125 3.3625
1.75 0.3125 3.3
1.8125 0.375 3.3625
1.8125 0.3125 3.3625
1.8125 0.3125 3.3
1.8125 0.375 3.3
1.875 0.375 3.3625
1.8125 0.3125 3.425
1.875 0.3125 3.425
1.8125 0.375 3.425
1.875 0.3125 3.3625
1.875 0.3125 3.3
1.9375 0.375 3.3625
1.9375 0.3125 3.3625
1.9375 0.3125 3.3
1.9375 0.375 3.3
2 0.375 3.3625
1.9375 0.3125 3.425
2 0.3125 3.425
1.9375 0.375 3.425
2 0.3125 3.3625
2 0.3125 3.3
2.0625 0.375 3.3625
2.0625 0.3125 3.3625
2.0625 0.3125 3.3
2.0625 0.375 3.3
2.125 0.375 3.3625
2.0625 0.3125 3.425
2.125 0.3125 3.425
2.0625 0.375 3.425
2.125 0.3125 3.3625
2.125 0.3125 3.3
2.1875 0.375 3.3625
2.1875 0.3125 3.3625
2.1875 0.3125 3.3
2.1875 0.375 3.3
2.25 0.375 3.3625
2.1875 0.3125 3.425
2.25 0.3125 3.425
2.1875 0.375 3.425
2.25 0.3125 3.3625
2.25 0.3125 3.3
2.3125 0.375 3.3625
2.3125 0.3125 3.3625
2.3125 0.3125 3.3
2.3125 0.375 3.3
2.375 0.375 3.3625
2.3125 0.3125 3.425
2.375 0.3125 3.425
2.3125 0.375 3.425
2.375 0.3125 3.3625
2.375 0.3125 3.3
2.4375 0.375 3.3625
2.4375 0.3125 3.3625
2.4375 0.3125 3.3
2.4375 0.375 3.3
2.5 0.375 3.3625
2.4375 0.3125 3.425
2.5 0.3125 3.425
2.4375 0.375 3.425
2.5 0.3125 3.3625
2.5 0.3125 3.3
2.5625 0.375 3.3625
2.5625 0.3125 3.3625
2.5625 0.3125 3.3
2.5625 0.375 3.3
2.625 0.375 3.3625
2.5625 0.3125 3.425
2.625 0.3125 3.425
2.5625 0.375 3.425
2.625 0.3125 3.3625
2.625 0.3125 3.3
2.6875 0.375 3.3625
2.6875 0.3125 3.3625
2.6875 0.3125 3.3
2.6875 0.375 3.3
2.75 0.375 3.3625
2.6875 0.3125 3.425
2.75 0.3125 3.425
2.6875 0.375 3.425
2.75 0.3125 3.3625
2.75 0.3125 3.3
2.8125 0.375 3.3625
2.8125 0.3125 3.3625
2.8125 0.3125 3.3
2.8125 0.375 3.3
2.875 0.375 3.3625
2.8125 0.3125 3.425
2.875 0.3125 3.425
2.8125 0.375 3.425
2.875 0.3125 3.3625
2.875 0.3125 3.3
2.9375 0.375 3.3625
2.9375 0.3125 3.3625
2.9375 0.3125 3.3
2.9375 0.375 3.3
3 0.375 3.3625
2.9375 0.3125 3.425
3 0.3125 3.425
2.9375 0.375 3.425
3 0.3125 3.3625
3 0.3125 3.3
3.0625 0.375 3.3625
3.0625 0.3125 3.3625
3.0625 0.3125 3.3
3.0625 0.375 3.3
3.125 0.375 3.3625
3.0625 0.3125 3.425
3.125 0.3125 3.425
3.0625 0.375 3.425
3.125 0.3125 3.3625
3.125 0.3125 3.3
3.1875 0.375 3.3625
3.1875 0.3125 3.3625
3.1875 0.3125 3.3
3.1875 0.375 3.3
3.25 0.375 3.3625
3.1875 0.3125 3.425
3.25 0.3125 3.425
3.1875 0.375 3.425
3.25 0.3125 3.3625
3.25 0.3125 3.3
3.3125 0.375 3.3625
3.3125 0.3125 3.3625
3.3125 0.3125 3.3
3.3125 0.375 3.3
3.375 0.375 3.3625
3.3125 0.3125 3.425
3.375 0.3125 3.425
3.3125 0.375 3.425
3.375 0.3125 3.3625
3.375 0.3125 3.3
3.4375 0.375 3.3625
3.4375 0.3125 3.3625
3.4375 0.3125 3.3
3.4375 0.375 3.3
3.5 0.375 3.3625
3.4375 0.3125 3.425
3.5 0.3125 3.425
3.4375 0.375 3.425
3.5 0.3125 3.3625
3.5 0.3125 3.3
3.5625 0.375 3.3625
3.5625 0.3125 3.3625
3.5625 0.3125 3.3
3.5625 0.375 3.3
3.625 0.375 3.3625
3.5625 0.3125 3.425
3.625 0.3125 3.425
3.5625 0.375 3.425
3.625 0.3125 3.3625
3.625 0.3125 3.3
3.6875 0.375 3.3625
3.6875 0.3125 3.3625
3.6875 0.3125 3.3
3.6875 0.375 3.3
3.75 0.375 3.3625
3.6875 0.3125 3.425
3.75 0.3125 3.425
3.6875 0.375 3.425
3.75 0.3125 3.3625
3.75 0.3125 3.3
3.8125 0.375 3.3625
3.8125 0.3125 3.3625
3.8125 0.3125 3.3
3.8125 0.375 3.3
3.875 0.375 3.3625
3.8125 0.3125 3.425
3.875 0.3125 3.425
3.8125 0.375 3.425
3.875 0.3125 3.3625
3.875 0.3125 3.3
3.9375 0.375 3.3625
3.9375 0.3125 3.3625
3.9375 0.3125 3.3
3.9375 0.375 3.3
4 0.375 3.3625
3.9375 0.3125 3.425
4 0.3125 3.425
3.9375 0.375 3.425
4 0.3125 3.3625
4 0.3125 3.3
0 0.4375 3.3
0.0625 0.5 3.3625
0.0625 0.4375 3.3625
0.0625 0.4375 3.3
0.0625 0.5 3.3
0.125 0.5 3.3625
0.0625 0.4375 3.425
0.125 0.4375 3.425
0 0.5 3.3625
0 0.4375 3.3625
0.0625 0.5 3.425
0 0.4375 3.425
0.125 0.4375 3.3625
0.125 0.4375 3.3
0.1875 0.5 3.3625
0.1875 0.4375 3.3625
0.1875 0.4375 3.3
0.1875 0.5 3.3
0.25 0.5 3.3625
0.1875 0.4375 3.425
0.25 0.4375 3.425
0.1875 0.5 3.425
0.25 0.4375 3.3625
0.25 0.4375 3.3
0.3125 0.5 3.3625
0.3125 0.4375 3.3625
0.3125 0.4375 3.3
0.3125 0.5 3.3
0.375 0.5 3.3625
0.3125 0.4375 3.425
0.375 0.4375 3.425
0.3125 0.5 3.425
0.375 0.4375 3.3625
0.375 0.4375 3.3
0.4375 0.5 3.3625
0.4375 0.4375 3.3625
0.4375 0.4375 3.3
0.4375 0.5 3.3
0.5 0.5 3.3625
0.4375 0.4375 3.425
0.5 0.4375 3.425
0.4375 0.5 3.425
0.5 0.4375 3.3625
0.5 0.4375 3.3
0.5625 0.5 3.3625
0.5625 0.4375 3.3625
0.5625 0.4375 3.3
0.5625 0.5 3.3
0.625 0.5 3.3625
0.5625 0.4375 3.425
0.625 0.4375 3.425
0.5625 0.5 3.425
0.625 0.4375 3.3625
0.625 0.4375 3.3
0.6875 0.5 3.3625
0.6875 0.4375 3.3625
0.6875 0.4375 3.3
0.6875 0.5 3.3
0.75 0.5 3.3625
0.6875 0.4375 3.425
0.75 0.4375 3.425
0.6875 0.5 3.425
0.75 0.4375 3.3625
0.75 0.4375 3.3
0.8125 0.5 3.3625
0.8125 0.4375 3.3625
0.8125 0.4375 3.3
0.8125 0.5 3.3
0.875 0.5 3.3625
0.8125 0.4375 3.425
0.875 0.4375 3.425
0.8125 0.5 3.425
0.875 0.4375 3.3625
0.875 0.4375 3.3
0.9375 0.5 3.3625
0.9375 0.4375 3.3625
0.9375 0.4375 3.3
0.9375 0.5 3.3
1 0.5 3.3625
0.9375 0.4375 3.425
1 0.4375 3.425
0.9375 0.5 3.425
1 0.4375 3.3625
1 0.4375 3.3
1.0625 0.5 3.3625
1.0625 0.4375 3.3625
1.0625 0.4375 3.3
1.0625 0.5 3.3
1.125 0.5 3.3625
1.0625 0.4375 3.425
1.125 0.4375 3.425
1.0625 0.5 3.425
1.125 0.4375 3.3625
1.125 0.4375 3.3
1.1875 0.5 3.3625
1.1875 0.4375 3.3625
1.1875 0.4375 3.3
1.1875 0.5 3.3
1.25 0.5 3.3625
1.1875 0.4375 3.425
1.25 0.4375 3.425
1.1875 0.5 3.425
1.25 0.4375 3.3625
1.25 0.4375 3.3
1.3125 0.5 3.3625
1.3125 0.4375 3.3625
1.3125 0.4375 3.3
1.3125 0.5 3.3
1.375 0.5 3.3625
1.3125 0.4375 3.425
1.375 0.4375 3.425
1.3125 0.5 3.425
1.375 0.4375 3.3625
1.375 0.4375 3.3
1.4375 0.5 3.3625
1.4375 0.4375 3.3625
1.4375 0.4375 3.3
1.4375 0.5 3.3
1.5 0.5 3.3625
1.4375 0.4375 3.425
1.5 0.4375 3.425
1.4375 0.5 3.425
1.5 0.4375 3.3625
1.5 0.4375 3.3
1.5625 0.5 3.3625
1.5625 0.4375 3.3625
1.5625 0.4375 3.3
1.5625 0.5 3.3
1.625 0.5 3.3625
1.5625 0.4375 3.425
1.625 0.4375 3.425
1.5625 0.5 3.425
1.625 0.4375 3.3625
1.625 0.4375 3.3
1.6875 0.5 3.3625
1.6875 0.4375 3.3625
1.6875 0.4375 3.3
1.6875 0.5 3.3
1.75 0.5 3.3625
1.6875 0.4375 3.425
1.75 0.4375 3.425
1.6875 0.5 3.425
1.75 0.4375 3.3625
1.75 0.4375 3.3
1.8125 0.5 3.3625
1.8125 0.4375 3.3625
1.8125 0.4375 3.3
1.8125 0.5 3.3
1.875 0.5 3.3625
1.8125 0.4375 3.425
1.875 0.4375 3.425
1.8125 0.5 3.425
1.875 0.4375 3.3625
1.875 0.4375 3.3
1.9375 0.5 3.3625
1.9375 0.4375 3.3625
1.9375 0.4375 3.3
1.9375 0.5 3.3
2 0.5 3.3625
1.9375 0.4375 3.425
2 0.4375 3.425
1.9375 0.5 3.425
2 0.4375 3.3625
2 0.4375 3.3
2.0625 0.5 3.3625
2.0625 0.4375 3.3625
2.0625 0.4375 3.3
2.0625 0.5 3.3
2.125 0.5 3.3625
2.0625 0.4375 3.425
2.125 0.4375 3.425
2.0625 0.5 3.425
2.125 0.4375 3.3625
2.125 0.4375 3.3
2.1875 0.5 3.3625
2.1875 0.4375 3.3625
2.1875 0.4375 3.3
2.1875 0.5 3.3
2.25 0.5 3.3625
2.1875 0.4375 3.425
2.25 0.4375 3.425
2.1875 0.5 3.425
2.25 0.4375 3.3625
2.25 0.4375 3.3
2.3125 0.5 3.3625
2.3125 0.4375 3.3625
2.3125 0.4375 3.3
2.3125 0.5 3.3
2.375 0.5 3.3625
2.3125 0.4375 3.425
2.375 0.4375 3.425
2.3125 0.5 3.425
2.375 0.4375 3.3625
2.375 0.4375 3.3
2.4375 0.5 3.3625
2.4375 0.4375 3.3625
2.4375 0.4375 3.3
2.4375 0.5 3.3
2.5 0.5 3.3625
2.4375 0.4375 3.425
2.5 0.4375 3.425
2.4375 0.5 3.425
2.5 0.4375 3.3625
2.5 0.4375 3.3
2.5625 0.5 3.3625
2.5625 0.4375 3.3625
2.5625 0.4375 3.3
2.5625 0.5 3.3
2.625 0.5 3.3625
2.5625 0.4375 3.425
2.625 0.4375 3.425
2.5625 0.5 3.425
2.625 0.4375 3.3625
2.625 0.4375 3.3
2.6875 0.5 3.3625
2.6875 0.4375 3.3625
2.6875 0.4375 3.3
2.6875 0.5 3.3
2.75 0.5 3.3625
2.6875 0.4375 3.425
2.75 0.4375 3.425
2.6875 0.5 3.425
2.75 0.4375 3.3625
2.75 0.4375 3.3
2.8125 0.5 3.3625
2.8125 0.4375 3.3625
2.8125 0.4375 3.3
2.8125 0.5 3.3
2.875 0.5 3.3625
2.8125 0.4375 3.425
2.875 0.4375 3.425
2.8125 0.5 3.425
2.875 0.4375 3.3625
2.875 0.4375 3.3
2.9375 0.5 3.3625
2.9375 0.4375 3.3625
2.9375 0.4375 3.3
2.9375 0.5 3.3
3 0.5 3.3625
2.9375 0.4375 3.425
3 0.4375 3.425
2.9375 0.5 3.425
3 0.4375 3.3625
3 0.4375 3.3
3.0625 0.5 3.3625
3.0625 0.4375 3.3625
3.0625 0.4375 3.3
3.0625 0.5 3.3
3.125 0.5 3.3625
3.0625 0.4375 3.425
3.125 0.4375 3.425
3.0625 0.5 3.425
3.125 0.4375 3.3625
3.125 0.4375 3.3
3.1875 0.5 3.3625
3.1875 0.4375 3.3625
3.1875 0.4375 3.3
3.1875 0.5 3.3
3.25 0.5 3.3625
3.1875 0.4375 3.425
3.25 0.4375 3.425
3.1875 0.5 3.425
3.25 0.4375 3.3625
3.25 0.4375 3.3
3.3125 0.5 3.3625
3.3125 0.4375 3.3625
3.3125 0.4375 3.3
3.3125 0.5 3.3
3.375 0.5 3.3625
3.3125 0.4375 3.425
3.375 0.4375 3.425
3.3125 0.5 3.425
3.375 0.4375 3.3625
3.375 0.4375 3.3
3.4375 0.5 3.3625
3.4375 0.4375 3.3625
3.4375 0.4375 3.3
3.4375 0.5 3.3
3.5 0.5 3.3625
3.4375 0.4375 3.425
3.5 0.4375 3.425
3.4375 0.5 3.425
3.5 0.4375 3.3625
3.5 0.4375 3.3
3.5625 0.5 3.3625
3.5625 0.4375 3.3625
3.5625 0.4375 3.3
3.5625 0.5 3.3
3.625 0.5 3.3625
3.5625 0.4375 3.425
3.625 0.4375 3.425
3.5625 0.5 3.425
3.625 0.4375 3.3625
3.625 0.4375 3.3
3.6875 0.5 3.3625
3.6875 0.4375 3.3625
3.6875 0.4375 3.3
3.6875 0.5 3.3
3.75 0.5 3.3625
3.6875 0.4375 3.425
3.75 0.4375 3.425
3.6875 0.5 3.425
3.75 0.4375 3.3625
3.75 0.4375 3.3
3.8125 0.5 3.3625
3.8125 0.4375 3.3625
3.8125 0.4375 3.3
3.8125 0.5 3.3
3.875 0.5 3.3625
3.8125 0.4375 3.425
3.875 0.4375 3.425
3.8125 0.5 3.425
3.875 0.4375 3.3625
3.875 0.4375 3.3
3.9375 0.5 3.3625
3.9375 0.4375 3.3625
3.9375 0.4375 3.3
3.9375 0.5 3.3
4 0.5 3.3625
3.9375 0.4375 3.425
4 0.4375 3.425
3.9375 0.5 3.425
4 0.4375 3.3625
4 0.4375 3.3
0 0.5625 3.3
0.0625 0.625 3.3625
0.0625 0.5625 3.3625
0.0625 0.5625 3.3
0.0625 0.625 3.3
0.125 0.625 3.3625
0.0625 0.5625 3.425
0.125 0.5625 3.425
0 0.625 3.3625
0 0.5625 3.3625
0.0625 0.625 3.425
0 0.5625 3.425
0.125 0.5625 3.3625
0.125 0.5625 3.3
0.1875 0.625 3.3625
0.1875 0.5625 3.3625
0.1875 0.5625 3.3
0.1875 0.625 3.3
0.25 0.625 3.3625
0.1875 0.5625 3.425
0.25 0.5625 3.425
0.1875 0.625 3.425
0.25 0.5625 3.3625
0.25 0.5625 3.3
0.3125 0.625 3.3625
0.3125 0.5625 3.3625
0.3125 0.5625 3.3
0.3125 0.625 3.3
0.375 0.625 3.3625
0.3125 0.5625 3.425
0.375 0.5625 3.425
0.3125 0.625 3.425
0.375 0.5625 3.3625
0.375 0.5625 3.3
0.4375 0.625 3.3625
0.4375 0.5625 3.3625
0.4375 0.5625 3.3
0.4375 0.625 3.3
0.5 0.625 3.3625
0.4375 0.5625 3.425
0.5 0.5625 3.425
0.4375 0.625 3.425
0.5 0.5625 3.3625
0.5 0.5625 3.3
0.5625 0.625 3.3625
0.5625 0.5625 3.3625
0.5625 0.5625 3.3
0.5625 0.625 3.3
0.625 0.625 3.3625
0.5625 0.5625 3.425
0.625 0.5625 3.425
0.5625 0.625 3.425
0.625 0.5625 3.3625
0.625 0.5625 3.3
0.6875 0.625 3.3625
0.6875 0.5625 3.3625
0.6875 0.5625 3.3
0.6875 0.625 3.3
0.75 0.625 3.3625
0.6875 0.5625 3.425
0.75 0.5625 3.425
0.6875 0.625 3.425
0.75 0.5625 3.3625
0.75 0.5625 3.3
0.8125 0.625 3.3625
0.8125 0.5625 3.3625
0.8125 0.5625 3.3
0.8125 0.625 3.3
0.875 0.625 3.3625
0.8125 0.5625 3.425
0.875 0.5625 3.425
0.8125 0.625 3.425
0.875 0.5625 3.3625
0.875 0.5625 3.3
0.9375 0.625 3.3625
0.9375 0.5625 3.3625
0.9375 0.5625 3.3
0.9375 0.625 3.3
1 0.625 3.3625
0.9375 0.5625 3.425
1 0.5625 3.425
0.9375 0.625 3.425
1 0.5625 3.3625
1 0.5625 3.3
1.0625 0.625 3.3625
1.0625 0.5625 3.3625
1.0625 0.5625 3.3
1.0625 0.625 3.3
1.125 0.625 3.3625
1.0625 0.5625 3.425
1.125 0.5625 3.425
1.0625 0.625 3.425
1.125 0.5625 3.3625
1.125 0.5625 3.3
1.1875 0.625 3.3625
1.1875 0.5625 3.3625
1.1875 0.5625 3.3
1.1875 0.625 3.3
1.25 0.625 3.3625
1.1875 0.5625 3.425
1.25 0.5625 3.425
1.1875 0.625 3.425
1.25 0.5625 3.3625
1.25 0.5625 3.3
1.3125 0.625 3.3625
1.3125 0.5625 3.3625
1.3125 0.5625 3.3
1.3125 0.625 3.3
1.375 0.625 3.3625
1.3125 0.5625 3.425
1.375 0.5625 3.425
1.3125 0.625 3.425
1.375 0.5625 3.3625
1.375 0.5625 3.3
1.4375 0.625 3.3625
1.4375 0.5625 3.3625
1.4375 0.5625 3.3
1.4375 0.625 3.3
1.5 0.625 3.3625
1.4375 0.5625 3.425
1.5 0.5625 3.425
1.4375 0.625 3.425
1.5 0.5625 3.3625
1.5 0.5625 3.3
1.5625 0.625 3.3625
1.5625 0.5625 3.3625
1.5625 0.5625 3.3
1.5625 0.625 3.3
1.625 0.625 3.3625
1.5625 0.5625 3.425
1.625 0.5625 3.425
1.5625 0.625 3.425
1.625 0.5625 3.3625
1.625 0.5625 3.3
1.6875 0.625 3.3625
1.6875 0.5625 3.3625
1.6875 0.5625 3.3
1.6875 0.625 3.3
1.75 0.625 3.3625
1.6875 0.5625 3.425
1.75 0.5625 3.425
1.6875 0.625 3.425
1.75 0.5625 3.3625
1.75 0.5625 3.3
1.8125 0.625 3.3625
1.8125 0.5625 3.3625
1.8125 0.5625 3.3
1.8125 0.625 3.3
1.875 0.625 3.3625
1.8125 0.5625 3.425
1.875 0.5625 3.425
1.8125 0.625 3.425
1.875 0.5625 3.3625
1.875 0.5625 3.3
1.9375 0.625 3.3625
1.9375 0.5625 3.3625
1.9375 0.5625 3.3
1.9375 0.625 3.3
2 0.625 3.3625
1.9375 0.5625 3.425
2 0.5625 3.425
1.9375 0.625 3.425
2 0.5625 3.3625
2 0.5625 3.3
2.0625 0.625 3.3625
2.0625 0.5625 3.3625
2.0625 0.5625 3.3
2.0625 0.625 3.3
2.125 0.625 3.3625
2.0625 0.5625 3.425
2.125 0.5625 3.425
2.0625 0.625 3.425
2.125 0.5625 3.3625
2.125 0.5625 3.3
2.1875 0.625 3.3625
2.1875 0.5625 3.3625
2.1875 0.5625 3.3
2.1875 0.625 3.3
2.25 0.625 3.3625
2.1875 0.5625 3.425
2.25 0.5625 3.425
2.1875 0.625 3.425
2.25 0.5625 3.3625
2.25 0.5625 3.3
2.3125 0.625 3.3625
2.3125 0.5625 3.3625
2.3125 0.5625 3.3
2.3125 0.625 3.3
2.375 0.625 3.3625
2.3125 0.5625 3.425
2.375 0.5625 3.425
2.3125 0.625 3.425
2.375 0.5625 3.3625
2.375 0.5625 3.3
2.4375 0.625 3.3625
2.4375 0.5625 3.3625
2.4375 0.5625 3.3
2.4375 0.625 3.3
2.5 0.625 3.3625
2.4375 0.5625 3.425
2.5 0.5625 3.425
2.4375 0.625 3.425
2.5 0.5625 3.3625
2.5 0.5625 3.3
2.5625 0.625 3.3625
2.5625 0.5625 3.3625
2.5625 0.5625 3.3
2.5625 0.625 3.3
2.625 0.625 3.3625
2.5625 0.5625 3.425
2.625 0.5625 3.425
2.5625 0.625 3.425
2.625 0.5625 3.3625
2.625 0.5625 3.3
2.6875 0.625 3.3625
2.6875 0.5625 3.3625
2.6875 0.5625 3.3
2.6875 0.625 3.3
2.75 0.625 3.3625
2.6875 0.5625 3.425
2.75 0.5625 3.425
2.6875 0.625 3.425
2.75 0.5625 3.3625
2.75 0.5625 3.3
2.8125 0.625 3.3625
2.8125 0.5625 3.3625
2.8125 0.5625 3.3
2.8125 0.625 3.3
2.875 0.625 3.3625
2.8125 0.5625 3.425
2.875 0.5625 3.425
2.8125 0.625 3.425
2.875 0.5625 3.3625
2.875 0.5625 3.3
2.9375 0.625 3.3625
2.9375 0.5625 3.3625
2.9375 0.5625 3.3
2.9375 0.625 3.3
3 0.625 3.3625
2.9375 0.5625 3.425
3 0.5625 3.425
2.9375 0.625 3.425
3 0.5625 3.3625
3 0.5625 3.3
3.0625 0.625 3.3625
3.0625 0.5625 3.3625
3.0625 0.5625 3.3
3.0625 0.625 3.3
3.125 0.625 3.3625
3.0625 0.5625 3.425
3.125 0.5625 3.425
3.0625 0.625 3.425
3.125 0.5625 3.3625
3.125 0.5625 3.3
3.1875 0.625 3.3625
3.1875 0.5625 3.3625
3.1875 0.5625 3.3
3.1875 0.625 3.3
3.25 0.625 3.3625
3.1875 0.5625 3.425
3.25 0.5625 3.425
3.1875 0.625 3.425
3.25 0.5625 3.3625
3.25 0.5625 3.3
3.3125 0.625 3.3625
3.3125 0.5625 3.3625
3.3125 0.5625 3.3
3.3125 0.625 3.3
3.375 0.625 3.3625
3.3125 0.5625 3.425
3.375 0.5625 3.425
3.3125 0.625 3.425
3.375 0.5625 3.3625
3.375 0.5625 3.3
3.4375 0.625 3.3625
3.4375 0.5625 3.3625
3.4375 0.5625 3.3
3.4375 0.625 3.3
3.5 0.625 3.3625
3.4375 0.5625 3.425
3.5 0.5625 3.425
3.4375 0.625 3.425
3.5 0.5625 3.3625
3.5 0.5625 3.3
3.5625 0.625 3.3625
3.5625 0.5625 3.3625
3.5625 0.5625 3.3
3.5625 0.625 3.3
3.625 0.625 3.3625
3.5625 0.5625 3.425
3.625 0.5625 3.425
3.5625 0.625 3.425
3.625 0.5625 3.3625
3.625 0.5625 3.3
3.6875 0.625 3.3625
3.6875 0.5625 3.3625
3.6875 0.5625 3.3
3.6875 0.625 3.3
3.75 0.625 3.3625
3.6875 0.5625 3.425
3.75 0.5625 3.425
3.6875 0.625 3.425
3.75 0.5625 3.3625
3.75 0.5625 3.3
3.8125 0.625 3.3625
3.8125 0.5625 3.3625
3.8125 0.5625 3.3
3.8125 0.625 3.3
3.875 0.625 3.3625
3.8125 0.5625 3.425
3.875 0.5625 3.425
3.8125 0.625 3.425
3.875 0.5625 3.3625
3.875 0.5625 3.3
3.9375 0.625 3.3625
3.9375 0.5625 3.3625
3.9375 0.5625 3.3
3.9375 0.625 3.3
4 0.625 3.3625
3.9375 0.5625 3.425
4 0.5625 3.425
3.9375 0.625 3.425
4 0.5625 3.3625
4 0.5625 3.3
0 0.6875 3.3
0.0625 0.75 3.3625
0.0625 0.6875 3.3625
0.0625 0.6875 3.3
0.0625 0.75 3.3
0.125 0.75 3.3625
0.0625 0.6875 3.425
0.125 0.6875 3.425
0 0.75 3.3625
0 0.6875 3.3625
0.0625 0.75 3.425
0 0.6875 3.425
0.125 0.6875 3.3625
0.125 0.6875 3.3
0.1875 0.75 3.3625
0.1875 0.6875 3.3625
0.1875 0.6875 3.3
0.1875 0.75 3.3
0.25 0.75 3.3625
0.1875 0.6875 3.425
0.25 0.6875 3.425
0.1875 0.75 3.425
0.25 0.6875 3.3625
0.25 0.6875 3.3
0.3125 0.75 3.3625
0.3125 0.6875 3.3625
0.3125 0.6875 3.3
0.3125 0.75 3.3
0.375 0.75 3.3625
0.3125 0.6875 3.425
0.375 0.6875 3.425
0.3125 0.75 3.425
0.375 0.6875 3.3625
0.375 0.6875 3.3
0.4375 0.75 3.3625
0.4375 0.6875 3.3625
0.4375 0.6875 3.3
0.4375 0.75 3.3
0.5 0.75 3.3625
0.4375 0.6875 3.425
0.5 0.6875 3.425
0.4375 0.75 3.425
0.5 0.6875 3.3625
0.5 0.6875 3.3
0.5625 0.75 3.3625
0.5625 0.6875 3.3625
0.5625 0.6875 3.3
0.5625 0.75 3.3
0.625 0.75 3.3625
0.5625 0.6875 3.425
0.625 0.6875 3.425
0.5625 0.75 3.425
0.625 0.6875 3.3625
0.625 0.6875 3.3
0.6875 0.75 3.3625
0.6875 0.6875 3.3625
0.6875 0.6875 3.3
0.6875 0.75 3.3
0.75 0.75 3.3625
0.6875 0.6875 3.425
0.75 0.6875 3.425
0.6875 0.75 3.425
0.75 0.6875 3.3625
0.75 0.6875 3.3
0.8125 0.75 3.3625
0.8125 0.6875 3.3625
0.8125 0.6875 3.3
0.8125 0.75 3.3
0.875 0.75 3.3625
0.8125 0.6875 3.425
0.875 0.6875 3.425
0.8125 0.75 3.425
0.875 0.6875 3.3625
0.875 0.6875 3.3
0.9375 0.75 3.3625
0.9375 0.6875 3.3625
0.9375 0.6875 3.3
0.9375 0.75 3.3
1 0.75 3.3625
0.9375 0.6875 3.425
1 0.6875 3.425
0.9375 0.75 3.425
1 0.6875 3.3625
1 0.6875 3.3
1.0625 0.75 3.3625
1.0625 0.6875 3.3625
1.0625 0.6875 3.3
1.0625 0.75 3.3
1.125 0.75 3.3625
1.0625 0.6875 3.425
1.125 0.6875 3.425
1.0625 0.75 3.425
1.125 0.6875 3.3625
1.125 0.6875 3.3
1.1875 0.75 3.3625
1.1875 0.6875 3.3625
1.1875 0.6875 3.3
1.1875 0.75 3.3
1.25 0.75 3.3625
1.1875 0.6875 3.425
1.25 0.6875 3.425
1.1875 0.75 3.425
1.25 0.6875 3.3625
1.25 0.6875 3.3
1.3125 0.75 3.3625
1.3125 0.6875 3.3625
1.3125 0.6875 3.3
1.3125 0.75 3.3
1.375 0.75 3.3625
1.3125 0.6875 3.425
1.375 0.6875 3.425
1.3125 0.75 3.425
1.375 0.6875 3.3625
1.375 0.6875 3.3
1.4375 0.75 3.3625
1.4375 0.6875 3.3625
1.4375 0.6875 3.3
1.4375 0.75 3.3
1.5 0.75 3.3625
1.4375 0.6875 3.425
1.5 0.6875 3.425
1.4375 0.75 3.425
1.5 0.6875 3.3625
1.5 0.6875 3.3
1.5625 0.75 3.3625
1.5625 0.6875 3.3625
1.5625 0.6875 3.3
1.5625 0.75 3.3
1.625 0.75 3.3625
1.5625 0.6875 3.425
1.625 0.6875 3.425
1.5625 0.75 3.425
1.625 0.6875 3.3625
1.625 0.6875 3.3
1.6875 0.75 3.3625
1.6875 0.6875 3.3625
1.6875 0.6875 3.3
1.6875 0.75 3.3
1.75 0.75 3.3625
1.6875 0.6875 3.425
1.75 0.6875 3.425
1.6875 0.75 3.425
1.75 0.6875 3.3625
1.75 0.6875 3.3
1.8125 0.75 3.3625
1.8125 0.6875 3.3625
1.8125 0.6875 3.3
1.8125 0.75 3.3
1.875 0.75 3.3625
1.8125 0.6875 3.425
1.875 0.6875 3.425
1.8125 0.75 3.425
1.875 0.6875 3.3625
1.875 0.6875 3.3
1.9375 0.75 3.3625
1.9375 0.6875 3.3625
1.9375 0.6875 3.3
1.9375 0.75 3.3
2 0.75 3.3625
1.9375 0.6875 3.425
2 0.6875 3.425
1.9375 0.75 3.425
2 0.6875 3.3625
2 0.6875 3.3
2.0625 0.75 3.3625
2.0625 0.6875 3.3625
2.0625 0.6875 3.3
2.0625 0.75 3.3
2.125 0.75 3.3625
2.0625 0.6875 3.425
2.125 0.6875 3.425
2.0625 0.75 3.425
2.125 0.6875 3.3625
2.125 0.6875 3.3
2.1875 0.75 3.3625
2.1875 0.6875 3.3625
2.1875 0.6875 3.3
2.1875 0.75 3.3
2.25 0.75 3.3625
2.1875 0.6875 3.425
2.25 0.6875 3.425
2.1875 0.75 3.425
2.25 0.6875 3.3625
2.25 0.6875 3.3
2.3125 0.75 3.3625
2.3125 0.6875 3.3625
2.3125 0.6875 3.3
2.3125 0.75 3.3
2.375 0.75 3.3625
2.3125 0.6875 3.425
2.375 0.6875 3.425
2.3125 0.75 3.425
2.375 0.6875 3.3625
2.375 0.6875 3.3
2.4375 0.75 3.3625
2.4375 0.6875 3.3625
2.4375 0.6875 3.3
2.4375 0.75 3.3
2.5 0.75 3.3625
2.4375 0.6875 3.425
2.5 0.6875 3.425
2.4375 0.75 3.425
2.5 0.6875 3.3625
2.5 0.6875 3.3
2.5625 0.75 3.3625
2.5625 0.6875 3.3625
2.5625 0.6875 3.3
2.5625 0.75 3.3
2.625 0.75 3.3625
2.5625 0.6875 3.425
2.625 0.6875 3.425
2.5625 0.75 3.425
2.625 0.6875 3.3625
2.625 0.6875 3.3
2.6875 0.75 3.3625
2.6875 0.6875 3.3625
2.6875 0.6875 3.3
2.6875 0.75 3.3
2.75 0.75 3.3625
2.6875 0.6875 3.425
2.75 0.6875 3.425
2.6875 0.75 3.425
2.75 0.6875 3.3625
2.75 0.6875 3.3
2.8125 0.75 3.3625
2.8125 0.6875 3.3625
2.8125 0.6875 3.3
2.8125 0.75 3.3
2.875 0.75 3.3625
2.8125 0.6875 3.425
2.875 0.6875 3.425
2.8125 0.75 3.425
2.875 0.6875 3.3625
2.875 0.6875 3.3
2.9375 0.75 3.3625
2.9375 0.6875 3.3625
2.9375 0.6875 3.3
2.9375 0.75 3.3
3 0.75 3.3625
2.9375 0.6875 3.425
3 0.6875 3.425
2.9375 0.75 3.425
3 0.6875 3.3625
3 0.6875 3.3
3.0625 0.75 3.3625
3.0625 0.6875 3.3625
3.0625 0.6875 3.3
3.0625 0.75 3.3
3.125 0.75 3.3625
3.0625 0.6875 3.425
3.125 0.6875 3.425
3.0625 0.75 3.425
3.125 0.6875 3.3625
3.125 0.6875 3.3
3.1875 0.75 3.3625
3.1875 0.6875 3.3625
3.1875 0.6875 3.3
3.1875 0.75 3.3
3.25 0.75 3.3625
3.1875 0.6875 3.425
3.25 0.6875 3.425
3.1875 0.75 3.425
3.25 0.6875 3.3625
3.25 0.6875 3.3
3.3125 0.75 3.3625
3.3125 0.6875 3.3625
3.3125 0.6875 3.3
3.3125 0.75 3.3
3.375 0.75 3.3625
3.3125 0.6875 3.425
3.375 0.6875 3.425
3.3125 0.75 3.425
3.375 0.6875 3.3625
3.375 0.6875 3.3
3.4375 0.75 3.3625
3.4375 0.6875 3.3625
3.4375 0.6875 3.3
3.4375 0.75 3.3
3.5 0.75 3.3625
3.4375 0.6875 3.425
3.5 0.6875 3.425
3.4375 0.75 3.425
3.5 0.6875 3.3625
3.5 0.6875 3.3
3.5625 0.75 3.3625
3.5625 0.6875 3.3625
3.5625 0.6875 3.3
3.5625 0.75 3.3
3.625 0.75 3.3625
3.5625 0.6875 3.425
3.625 0.6875 3.425
3.5625 0.75 3.425
3.625 0.6875 3.3625
3.625 0.6875 3.3
3.6875 0.75 3.3625
3.6875 0.6875 3.3625
3.6875 0.6875 3.3
3.6875 0.75 3.3
3.75 0.75 3.3625
3.6875 0.6875 3.425
3.75 0.6875 3.425
3.6875 0.75 3.425
3.75 0.6875 3.3625
3.75 0.6875 3.3
3.8125 0.75 3.3625
3.8125 0.6875 3.3625
3.8125 0.6875 3.3
3.8125 0.75 3.3
3.875 0.75 3.3625
3.8125 0.6875 3.425
3.875 0.6875 3.425
3.8125 0.75 3.425
3.875 0.6875 3.3625
3.875 0.6875 3.3
3.9375 0.75 3.3625
3.9375 0.6875 3.3625
3.9375 0.6875 3.3
3.9375 0.75 3.3
4 0.75 3.3625
3.9375 0.6875 3.425
4 0.6875 3.425
3.9375 0.75 3.425
4 0.6875 3.3625
4 0.6875 3.3
0 0.8125 3.3
0.0625 0.875 3.3625
0.0625 0.8125 3.3625
0.0625 0.8125 3.3
0.0625 0.875 3.3
0.125 0.875 3.3625
0.0625 0.8125 3.425
0.125 0.8125 3.425
0 0.875 3.3625
0 0.8125 3.3625
0.0625 0.875 3.425
0 0.8125 3.425
0.125 0.8125 3.3625
0.125 0.8125 3.3
0.1875 0.875 3.3625
0.1875 0.8125 3.3625
0.1875 0.8125 3.3
0.1875 0.875 3.3
0.25 0.875 3.3625
0.1875 0.8125 3.425
0.25 0.8125 3.425
0.1875 0.875 3.425
0.25 0.8125 3.3625
0.25 0.8125 3.3
0.3125 0.875 3.3625
0.3125 0.8125 3.3625
0.3125 0.8125 3.3
0.3125 0.875 3.3
0.375 0.875 3.3625
0.3125 0.8125 3.425
0.375 0.8125 3.425
0.3125 0.875 3.425
0.375 0.8125 3.3625
0.375 0.8125 3.3
0.4375 0.875 3.3625
0.4375 0.8125 3.3625
0.4375 0.8125 3.3
0.4375 0.875 3.3
0.5 0.875 3.3625
0.4375 0.8125 3.425
0.5 0.8125 3.425
0.4375 0.875 3.425
0.5 0.8125 3.3625
0.5 0.8125 3.3
0.5625 0.875 3.3625
0.5625 0.8125 3.3625
0.5625 0.8125 3.3
0.5625 0.875 3.3
0.625 0.875 3.3625
0.5625 0.8125 3.425
0.625 0.8125 3.425
0.5625 0.875 3.425
0.625 0.8125 3.3625
0.625 0.8125 3.3
0.6875 0.875 3.3625
0.6875 0.8125 3.3625
0.6875 0.8125 3.3
0.6875 0.875 3.3
0.75 0.875 3.3625
0.6875 0.8125 3.425
0.75 0.8125 3.425
0.6875 0.875 3.425
0.75 0.8125 3.3625
0.75 0.8125 3.3
0.8125 0.875 3.3625
0.8125 0.8125 3.3625
0.8125 0.8125 3.3
0.8125 0.875 3.3
0.875 0.875 3.3625
0.8125 0.8125 3.425
0.875 0.8125 3.425
0.8125 0.875 3.425
0.875 0.8125 3.3625
0.875 0.8125 3.3
0.9375 0.875 3.3625
0.9375 0.8125 3.3625
0.9375 0.8125 3.3
0.9375 0.875 3.3
1 0.875 3.3625
0.9375 0.8125 3.425
1 0.8125 3.425
0.9375 0.875 3.425
1 0.8125 3.3625
1 0.8125 3.3
1.0625 0.875 3.3625
1.0625 0.8125 3.3625
1.0625 0.8125 3.3
1.0625 0.875 3.3
1.125 0.875 3.3625
1.0625 0.8125 3.425
1.125 0.8125 3.425
1.0625 0.875 3.425
1.125 0.8125 3.3625
1.125 0.8125 3.3
1.1875 0.875 3.3625
1.1875 0.8125 3.3625
1.1875 0.8125 3.3
1.1875 0.875 3.3
1.25 0.875 3.3625
1.1875 0.8125 3.425
1.25 0.8125 3.425
1.1875 0.875 3.425
1.25 0.8125 3.3625
1.25 0.8125 3.3
1.3125 0.875 3.3625
1.3125 0.8125 3.3625
1.3125 0.8125 3.3
1.3125 0.875 3.3
1.375 0.875 3.3625
1.3125 0.8125 3.425
1.375 0.8125 3.425
1.3125 0.875 3.425
1.375 0.8125 3.3625
1.375 0.8125 3.3
1.4375 0.875 3.3625
1.4375 0.8125 3.3625
1.4375 0.8125 3.3
1.4375 0.875 3.3
1.5 0.875 3.3625
1.4375 0.8125 3.425
1.5 0.8125 3.425
1.4375 0.875 3.425
1.5 0.8125 3.3625
1.5 0.8125 3.3
1.5625 0.875 3.3625
1.5625 0.8125 3.3625
1.5625 0.8125 3.3
1.5625 0.875 3.3
1.625 0.875 3.3625
1.5625 0.8125 3.425
1.625 0.8125 3.425
1.5625 0.875 3.425
1.625 0.8125 3.3625
1.625 0.8125 3.3
1.6875 0.875 3.3625
1.6875 0.8125 3.3625
1.6875 0.8125 3.3
1.6875 0.875 3.3
1.75 0.875 3.3625
1.6875 0.8125 3.425
1.75 0.8125 3.425
1.6875 0.875 3.425
1.75 0.8125 3.3625
1.75 0.8125 3.3
1.8125 0.875 3.3625
1.8125 0.8125 3.3625
1.8125 0.8125 3.3
1.8125 0.875 3.3
1.875 0.875 3.3625
1.8125 0.8125 3.425
1.875 0.8125 3.425
1.8125 0.875 3.425
1.875 0.8125 3.3625
1.875 0.8125 3.3
1.9375 0.875 3.3625
1.9375 0.8125 3.3625
1.9375 0.8125 3.3
1.9375 0.875 3.3
2 0.875 3.3625
1.9375 0.8125 3.425
2 0.8125 3.425
1.9375 0.875 3.425
2 0.8125 3.3625
2 0.8125 3.3
2.0625 0.875 3.3625
2.0625 0.8125 3.3625
2.0625 0.8125 3.3
2.0625 0.875 3.3
2.125 0.875 3.3625
2.0625 0.8125 3.425
2.125 0.8125 3.425
2.0625 0.875 3.425
2.125 0.8125 3.3625
2.125 0.8125 3.3
2.1875 0.875 3.3625
2.1875 0.8125 3.3625
2.1875 0.8125 3.3
2.1875 0.875 3.3
2.25 0.875 3.3625
2.1875 0.8125 3.425
2.25 0.8125 3.425
2.1875 0.875 3.425
2.25 0.8125 3.3625
2.25 0.8125 3.3
2.3125 0.875 3.3625
2.3125 0.8125 3.3625
2.3125 0.8125 3.3
2.3125 0.875 3.3
2.375 0.875 3.3625
2.3125 0.8125 3.425
2.375 0.8125 3.425
2.3125 0.875 3.425
2.375 0.8125 3.3625
2.375 0.8125 3.3
2.4375 0.875 3.3625
2.4375 0.8125 3.3625
2.4375 0.8125 3.3
2.4375 0.875 3.3
2.5 0.875 3.3625
2.4375 0.8125 3.425
2.5 0.8125 3.425
2.4375 0.875 3.425
2.5 0.8125 3.3625
2.5 0.8125 3.3
2.5625 0.875 3.3625
2.5625 0.8125 3.3625
2.5625 0.8125 3.3
2.5625 0.875 3.3
2.625 0.875 3.3625
2.5625 0.8125 3.425
2.625 0.8125 3.425
2.5625 0.875 3.425
2.625 0.8125 3.3625
2.625 0.8125 3.3
2.6875 0.875 3.3625
2.6875 0.8125 3.3625
2.6875 0.8125 3.3
2.6875 0.875 3.3
2.75 0.875 3.3625
2.6875 0.8125 3.425
2.75 0.8125 3.425
2.6875 0.875 3.425
2.75 0.8125 3.3625
2.75 0.8125 3.3
2.8125 0.875 3.3625
2.8125 0.8125 3.3625
2.8125 0.8125 3.3
2.8125 0.875 3.3
2.875 0.875 3.3625
2.8125 0.8125 3.425
2.875 0.8125 3.425
2.8125 0.875 3.425
2.875 0.8125 3.3625
2.875 0.8125 3.3
2.9375 0.875 3.3625
2.9375 0.8125 3.3625
2.9375 0.8125 3.3
2.9375 0.875 3.3
3 0.875 3.3625
2.9375 0.8125 3.425
3 0.8125 3.425
2.9375 0.875 3.425
3 0.8125 3.3625
3 0.8125 3.3
3.0625 0.875 3.3625
3.0625 0.8125 3.3625
3.0625 0.8125 3.3
3.0625 0.875 3.3
3.125 0.875 3.3625
3.0625 0.8125 3.425
3.125 0.8125 3.425
3.0625 0.875 3.425
3.125 0.8125 3.3625
3.125 0.8125 3.3
3.1875 0.875 3.3625
3.1875 0.8125 3.3625
3.1875 0.8125 3.3
3.1875 0.875 3.3
3.25 0.875 3.3625
3.1875 0.8125 3.425
3.25 0.8125 3.425
3.1875 0.875 3.425
3.25 0.8125 3.3625
3.25 0.8125 3.3
3.3125 0.875 3.3625
3.3125 0.8125 3.3625
3.3125 0.8125 3.3
3.3125 0.875 3.3
3.375 0.875 3.3625
3.3125 0.8125 3.425
3.375 0.8125 3.425
3.3125 0.875 3.425
3.375 0.8125 3.3625
3.375 0.8125 3.3
3.4375 0.875 3.3625
3.4375 0.8125 3.3625
3.4375 0.8125 3.3
3.4375 0.875 3.3
3.5 0.875 3.3625
3.4375 0.8125 3.425
3.5 0.8125 3.425
3.4375 0.875 3.425
3.5 0.8125 3.3625
3.5 0.8125 3.3
3.5625 0.875 3.3625
3.5625 0.8125 3.3625
3.5625 0.8125 3.3
3.5625 0.875 3.3
3.625 0.875 3.3625
3.5625 0.8125 3.425
3.625 0.8125 3.425
3.5625 0.875 3.425
3.625 0.8125 3.3625
3.625 0.8125 3.3
3.6875 0.875 3.3625
3.6875 0.8125 3.3625
3.6875 0.8125 3.3
3.6875 0.875 3.3
3.75 0.875 3.3625
3.6875 0.8125 3.425
3.75 0.8125 3.425
3.6875 0.875 3.425
3.75 0.8125 3.3625
3.75 0.8125 3.3
3.8125 0.875 3.3625
3.8125 0.8125 3.3625
3.8125 0.8125 3.3
3.8125 0.875 3.3
3.875 0.875 3.3625
3.8125 0.8125 3.425
3.875 0.8125 3.425
3.8125 0.875 3.425
3.875 0.8125 3.3625
3.875 0.8125 3.3
3.9375 0.875 3.3625
3.9375 0.8125 3.3625
3.9375 0.8125 3.3
3.9375 0.875 3.3
4 0.875 3.3625
3.9375 0.8125 3.425
4 0.8125 3.425
3.9375 0.875 3.425
4 0.8125 3.3625
4 0.8125 3.3
0 0.9375 3.3
0.0625 1 3.3625
0.0625 0.9375 3.3625
0.0625 0.9375 3.3
0.0625 1 3.3
0.125 1 3.3625
0.0625 0.9375 3.425
0.125 0.9375 3.425
0 1 3.3625
0 0.9375 3.3625
0.0625 1 3.425
0 0.9375 3.425
0.125 0.9375 3.3625
0.125 0.9375 3.3
0.1875 1 3.3625
0.1875 0.9375 3.3625
0.1875 0.9375 3.3
0.1875 1 3.3
0.25 1 3.3625
0.1875 0.9375 3.425
0.25 0.9375 3.425
0.1875 1 3.425
0.25 0.9375 3.3625
0.25 0.9375 3.3
0.3125 1 3.3625
0.3125 0.9375 3.3625
0.3125 0.9375 3.3
0.3125 1 3.3
0.375 1 3.3625
0.3125 0.9375 3.425
0.375 0.9375 3.425
0.3125 1 3.425
0.375 0.9375 3.3625
0.375 0.9375 3.3
0.4375 1 3.3625
0.4375 0.9375 3.3625
0.4375 0.9375 3.3
0.4375 1 3.3
0.5 1 3.3625
0.4375 0.9375 3.425
0.5 0.9375 3.425
0.4375 1 3.425
0.5 0.9375 3.3625
0.5 0.9375 3.3
0.5625 1 3.3625
0.5625 0.9375 3.3625
0.5625 0.9375 3.3
0.5625 1 3.3
0.625 1 3.3625
0.5625 0.9375 3.425
0.625 0.9375 3.425
0.5625 1 3.425
0.625 0.9375 3.3625
0.625 0.9375 3.3
0.6875 1 3.3625
0.6875 0.9375 3.3625
0.6875 0.9375 3.3
0.6875 1 3.3
0.75 1 3.3625
0.6875 0.9375 3.425
0.75 0.9375 3.425
0.6875 1 3.425
0.75 0.9375 3.3625
0.75 0.9375 3.3
0.8125 1 3.3625
0.8125 0.9375 3.3625
0.8125 0.9375 3.3
0.8125 1 3.3
0.875 1 3.3625
0.8125 0.9375 3.425
0.875 0.9375 3.425
0.8125 1 3.425
0.875 0.9375 3.3625
0.875 0.9375 3.3
0.9375 1 3.3625
0.9375 0.9375 3.3625
0.9375 0.9375 3.3
0.9375 1 3.3
1 1 3.3625
0.9375 0.9375 3.425
1 0.9375 3.425
0.9375 1 3.425
1 0.9375 3.3625
1 0.9375 3.3
1.0625 1 3.3625
1.0625 0.9375 3.3625
1.0625 0.9375 3.3
1.0625 1 3.3
1.125 1 3.3625
1.0625 0.9375 3.425
1.125 0.9375 3.425
1.0625 1 3.425
1.125 0.9375 3.3625
1.125 0.9375 3.3
1.1875 1 3.3625
1.1875 0.9375 3.3625
1.1875 0.9375 3.3
1.1875 1 3.3
1.25 1 3.3625
1.1875 0.9375 3.425
1.25 0.9375 3.425
1.1875 1 3.425
1.25 0.9375 3.3625
1.25 0.9375 3.3
1.3125 1 3.3625
1.3125 0.9375 3.3625
1.3125 0.9375 3.3
1.3125 1 3.3
1.375 1 3.3625
1.3125 0.9375 3.425
1.375 0.9375 3.425
1.3125 1 3.425
1.375 0.9375 3.3625
1.375 0.9375 3.3
1.4375 1 3.3625
1.4375 0.9375 3.3625
1.4375 0.9375 3.3
1.4375 1 3.3
1.5 1 3.3625
1.4375 0.9375 3.425
1.5 0.9375 3.425
1.4375 1 3.425
1.5 0.9375 3.3625
1.5 0.9375 3.3
1.5625 1 3.3625
1.5625 0.9375 3.3625
1.5625 0.9375 3.3
1.5625 1 3.3
1.625 1 3.3625
1.5625 0.9375 3.425
1.625 0.9375 3.425
1.5625 1 3.425
1.625 0.9375 3.3625
1.625 0.9375 3.3
1.6875 1 3.3625
1.6875 0.9375 3.3625
1.6875 0.9375 3.3
1.6875 1 3.3
1.75 1 3.3625
1.6875 0.9375 3.425
1.75 0.9375 3.425
1.6875 1 3.425
1.75 0.9375 3.3625
1.75 0.9375 3.3
1.8125 1 3.3625
1.8125 0.9375 3.3625
1.8125 0.9375 3.3
1.8125 1 3.3
1.875 1 3.3625
1.8125 0.9375 3.425
1.875 0.9375 3.425
1.8125 1 3.425
1.875 0.9375 3.3625
1.875 0.9375 3.3
1.9375 1 3.3625
1.9375 0.9375 3.3625
1.9375 0.9375 3.3
1.9375 1 3.3
2 1 3.3625
1.9375 0.9375 3.425
2 0.9375 3.425
1.9375 1 3.425
2 0.9375 3.3625
2 0.9375 3.3
2.0625 1 3.3625
2.0625 0.9375 3.3625
2.0625 0.9375 3.3
2.0625 1 3.3
2.125 1 3.3625
2.0625 0.9375 3.425
2.125 0.9375 3.425
2.0625 1 3.425
2.125 0.9375 3.3625
2.125 0.9375 3.3
2.1875 1 3.3625
2.1875 0.9375 3.3625
2.1875 0.9375 3.3
2.1875 1 3.3
2.25 1 3.3625
2.1875 0.9375 3.425
2.25 0.9375 3.425
2.1875 1 3.425
2.25 0.9375 3.3625
2.25 0.9375 3.3
2.3125 1 3.3625
2.3125 0.9375 3.3625
2.3125 0.9375 3.3
2.3125 1 3.3
2.375 1 3.3625
2.3125 0.9375 3.425
2.375 0.9375 3.425
2.3125 1 3.425
2.375 0.9375 3.3625
2.375 0.9375 3.3
2.4375 1 3.3625
2.4375 0.9375 3.3625
2.4375 0.9375 3.3
2.4375 1 3.3
2.5 1 3.3625
2.4375 0.9375 3.425
2.5 0.9375 3.425
2.4375 1 3.425
2.5 0.9375 3.3625
2.5 0.9375 3.3
2.5625 1 3.3625
2.5625 0.9375 3.3625
2.5625 0.9375 3.3
2.5625 1 3.3
2.625 1 3.3625
2.5625 0.9375 3.425
2.625 0.9375 3.425
2.5625 1 3.425
2.625 0.9375 3.3625
2.625 0.9375 3.3
2.6875 1 3.3625
2.6875 0.9375 3.3625
2.6875 0.9375 3.3
2.6875 1 3.3
2.75 1 3.3625
2.6875 0.9375 3.425
2.75 0.9375 3.425
2.6875 1 3.425
2.75 0.9375 3.3625
2.75 0.9375 3.3
2.8125 1 3.3625
2.8125 0.9375 3.3625
2.8125 0.9375 3.3
2.8125 1 3.3
2.875 1 3.3625
2.8125 0.9375 3.425
2.875 0.9375 3.425
2.8125 1 3.425
2.875 0.9375 3.3625
2.875 0.9375 3.3
2.9375 1 3.3625
2.9375 0.9375 3.3625
2.9375 0.9375 3.3
2.9375 1 3.3
3 1 3.3625
2.9375 0.9375 3.425
3 0.9375 3.425
2.9375 1 3.425
3 0.9375 3.3625
3 0.9375 3.3
3.0625 1 3.3625
3.0625 0.9375 3.3625
3.0625 0.9375 3.3
3.0625 1 3.3
3.125 1 3.3625
3.0625 0.9375 3.425
3.125 0.9375 3.425
3.0625 1 3.425
3.125 0.9375 3.3625
3.125 0.9375 3.3
3.1875 1 3.3625
3.1875 0.9375 3.3625
3.1875 0.9375 3.3
3.1875 1 3.3
3.25 1 3.3625
3.1875 0.9375 3.425
3.25 0.9375 3.425
3.1875 1 3.425
3.25 0.9375 3.3625
3.25 0.9375 3.3
3.3125 1 3.3625
3.3125 0.9375 3.3625
3.3125 0.9375 3.3
3.3125 1 3.3
3.375 1 3.3625
3.3125 0.9375 3.425
3.375 0.9375 3.425
3.3125 1 3.425
3.375 0.9375 3.3625
3.375 0.9375 3.3
3.4375 1 3.3625
3.4375 0.9375 3.3625
3.4375 0.9375 3.3
3.4375 1 3.3
3.5 1 3.3625
3.4375 0.9375 3.425
3.5 0.9375 3.425
3.4375 1 3.425
3.5 0.9375 3.3625
3.5 0.9375 3.3
3.5625 1 3.3625
3.5625 0.9375 3.3625
3.5625 0.9375 3.3
3.5625 1 3.3
3.625 1 3.3625
3.5625 0.9375 3.425
3.625 0.9375 3.425
3.5625 1 3.425
3.625 0.9375 3.3625
3.625 0.9375 3.3
3.6875 1 3.3625
3.6875 0.9375 3.3625
3.6875 0.9375 3.3
3.6875 1 3.3
3.75 1 3.3625
3.6875 0.9375 3.425
3.75 0.9375 3.425
3.6875 1 3.425
3.75 0.9375 3.3625
3.75 0.9375 3.3
3.8125 1 3.3625
3.8125 0.9375 3.3625
3.8125 0.9375 3.3
3.8125 1 3.3
3.875 1 3.3625
3.8125 0.9375 3.425
3.875 0.9375 3.425
3.8125 1 3.425
3.875 0.9375 3.3625
3.875 0.9375 3.3
3.9375 1 3.3625
3.9375 0.9375 3.3625
3.9375 0.9375 3.3
3.9375 1 3.3
4 1 3.3625
3.9375 0.9375 3.425
4 0.9375 3.425
3.9375 1 3.425
4 0.9375 3.3625
4 0.9375 3.3
0.0625 0.125 3.4875
0.0625 0.0625 3.4875
0.125 0.125 3.4875
0.0625 0.0625 3.55
0.125 0.0625 3.55
0.0625 0 3.55
0 0 3.4875
0.0625 0 3.4875
0 0.125 3.4875
0 0.0625 3.4875
0.0625 0.125 3.55
0 0.0625 3.55
0.125 0 3.4875
0.125 0.0625 3.4875
0.1875 0.125 3.4875
0.1875 0.0625 3.4875
0.25 0.125 3.4875
0.1875 0.0625 3.55
0.25 0.0625 3.55
0.1875 0 3.55
0.1875 0 3.4875
0.1875 0.125 3.55
0.25 0 3.4875
0.25 0.0625 3.4875
0.3125 0.125 3.4875
0.3125 0.0625 3.4875
0.375 0.125 3.4875
0.3125 0.0625 3.55
0.375 0.0625 3.55
0.3125 0 3.55
0.3125 0 3.4875
0.3125 0.125 3.55
0.375 0 3.4875
0.375 0.0625 3.4875
0.4375 0.125 3.4875
0.4375 0.0625 3.4875
0.5 0.125 3.4875
0.4375 0.0625 3.55
0.5 0.0625 3.55
0.4375 0 3.55
0.4375 0 3.4875
0.4375 0.125 3.55
0.5 0 3.4875
0.5 0.0625 3.4875
0.5625 0.125 3.4875
0.5625 0.0625 3.4875
0.625 0.125 3.4875
0.5625 0.0625 3.55
0.625 0.0625 3.55
0.5625 0 3.55
0.5625 0 3.4875
0.5625 0.125 3.55
0.625 0 3.4875
0.625 0.0625 3.4875
0.6875 0.125 3.4875
0.6875 0.0625 3.4875
0.75 0.125 3.4875
0.6875 0.0625 3.55
0.75 0.0625 3.55
0.6875 0 3.55
0.6875 0 3.4875
0.6875 0.125 3.55
0.75 0 3.4875
0.75 0.0625 3.4875
0.8125 0.125 3.4875
0.8125 0.0625 3.4875
0.875 0.125 3.4875
0.8125 0.0625 3.55
0.875 0.0625 3.55
0.8125 0 3.55
0.8125 0 3.4875
0.8125 0.125 3.55
0.875 0 3.4875
0.875 0.0625 3.4875
0.9375 0.125 3.4875
0.9375 0.0625 3.4875
1 0.125 3.4875
0.9375 0.0625 3.55
1 0.0625 3.55
0.9375 0 3.55
0.9375 0 3.4875
0.9375 0.125 3.55
1 0 3.4875
1 0.0625 3.4875
1.0625 0.125 3.4875
1.0625 0.0625 3.4875
1.125 0.125 3.4875
1.0625 0.0625 3.55
1.125 0.0625 3.55
1.0625 0 3.55
1.0625 0 3.4875
1.0625 0.125 3.55
1.125 0 3.4875
1.125 0.0625 3.4875
1.1875 0.125 3.4875
1.1875 0.0625 3.4875
1.25 0.125 3.4875
1.1875 0.0625 3.55
1.25 0.0625 3.55
1.1875 0 3.55
1.1875 0 3.4875
1.1875 0.125 3.55
1.25 0 3.4875
1.25 0.0625 3.4875
1.3125 0.125 3.4875
1.3125 0.0625 3.4875
1.375 0.125 3.4875
1.3125 0.0625 3.55
1.375 0.0625 3.55
1.3125 0 3.55
1.3125 0 3.4875
1.3125 0.125 3.55
1.375 0 3.4875
1.375 0.0625 3.4875
1.4375 0.125 3.4875
1.4375 0.0625 3.4875
1.5 0.125 3.4875
1.4375 0.0625 3.55
1.5 0.0625 3.55
1.4375 0 3.55
1.4375 0 3.4875
1.4375 0.125 3.55
1.5 0 3.4875
1.5 0.0625 3.4875
1.5625 0.125 3.4875
1.5625 0.0625 3.4875
1.625 0.125 3.4875
1.5625 0.0625 3.55
1.625 0.0625 3.55
1.5625 0 3.55
1.5625 0 3.4875
1.5625 0.125 3.55
1.625 0 3.4875
1.625 0.0625 3.4875
1.6875 0.125 3.4875
1.6875 0.0625 3.4875
1.75 0.125 3.4875
1.6875 0.0625 3.55
1.75 0.0625 3.55
1.6875 0 3.55
1.6875 0 3.4875
1.6875 0.125 3.55
1.75 0 3.4875
1.75 0.0625 3.4875
1.8125 0.125 3.4875
1.8125 0.0625 3.4875
1.875 0.125 3.4875
1.8125 0.0625 3.55
1.875 0.0625 3.55
1.8125 0 3.55
1.8125 0 3.4875
1.8125 0.125 3.55
1.875 0 3.4875
1.875 0.0625 3.4875
1.9375 0.125 3.4875
1.9375 0.0625 3.4875
2 0.125 3.4875
1.9375 0.0625 3.55
2 0.0625 3.55
1.9375 0 3.55
1.9375 0 3.4875
1.9375 0.125 3.55
2 0 3.4875
2 0.0625 3.4875
2.0625 0.125 3.4875
2.0625 0.0625 3.4875
2.125 0.125 3.4875
2.0625 0.0625 3.55
2.125 0.0625 3.55
2.0625 0 3.55
2.0625 0 3.4875
2.0625 0.125 3.55
2.125 0 3.4875
2.125 0.0625 3.4875
2.1875 0.125 3.4875
2.1875 0.0625 3.4875
2.25 0.125 3.4875
2.1875 0.0625 3.55
2.25 0.0625 3.55
2.1875 0 3.55
2.1875 0 3.4875
2.1875 0.125 3.55
2.25 0 3.4875
2.25 0.0625 3.4875
2.3125 0.125 3.4875
2.3125 0.0625 3.4875
2.375 0.125 3.4875
2.3125 0.0625 3.55
2.375 0.0625 3.55
2.3125 0 3.55
2.3125 0 3.4875
2.3125 0.125 3.55
2.375 0 3.4875
2.375 0.0625 3.4875
2.4375 0.125 3.4875
2.4375 0.0625 3.4875
2.5 0.125 3.4875
2.4375 0.0625 3.55
2.5 0.0625 3.55
2.4375 0 3.55
2.4375 0 3.4875
2.4375 0.125 3.55
2.5 0 3.4875
2.5 0.0625 3.4875
2.5625 0.125 3.4875
2.5625 0.0625 3.4875
2.625 0.125 3.4875
2.5625 0.0625 3.55
2.625 0.0625 3.55
2.5625 0 3.55
2.5625 0 3.4875
2.5625 0.125 3.55
2.625 0 3.4875
2.625 0.0625 3.4875
2.6875 0.125 3.4875
2.6875 0.0625 3.4875
2.75 0.125 3.4875
2.6875 0.0625 3.55
2.75 0.0625 3.55
2.6875 0 3.55
2.6875 0 3.4875
2.6875 0.125 3.55
2.75 0 3.4875
2.75 0.0625 3.4875
2.8125 0.125 3.4875
2.8125 0.0625 3.4875
2.875 0.125 3.4875
2.8125 0.0625 3.55
2.875 0.0625 3.55
2.8125 0 3.55
2.8125 0 3.4875
2.8125 0.125 3.55
2.875 0 3.4875
2.875 0.0625 3.4875
2.9375 0.125 3.4875
2.9375 0.0625 3.4875
3 0.125 3.4875
2.9375 0.0625 3.55
3 0.0625 3.55
2.9375 0 3.55
2.9375 0 3.4875
2.9375 0.125 3.55
3 0 3.4875
3 0.0625 3.4875
3.0625 0.125 3.4875
3.0625 0.0625 3.4875
3.125 0.125 3.4875
3.0625 0.0625 3.55
3.125 0.0625 3.55
3.0625 0 3.55
3.0625 0 3.4875
3.0625 0.125 3.55
3.125 0 3.4875
3.125 0.0625 3.4875
3.1875 0.125 3.4875
3.1875 0.0625 3.4875
3.25 0.125 3.4875
3.1875 0.0625 3.55
3.25 0.0625 3.55
3.1875 0 3.55
3.1875 0 3.4875
3.1875 0.125 3.55
3.25 0 3.4875
3.25 0.0625 3.4875
3.3125 0.125 3.4875
3.3125 0.0625 3.4875
3.375 0.125 3.4875
3.3125 0.0625 3.55
3.375 0.0625 3.55
3.3125 0 3.55
3.3125 0 3.4875
3.3125 0.125 3.55
3.375 0 3.4875
3.375 0.0625 3.4875
3.4375 0.125 3.4875
3.4375 0.0625 3.4875
3.5 0.125 3.4875
3.4375 0.0625 3.55
3.5 0.0625 3.55
3.4375 0 3.55
3.4375 0 3.4875
3.4375 0.125 3.55
3.5 0 3.4875
3.5 0.0625 3.4875
3.5625 0.125 3.4875
3.5625 0.0625 3.4875
3.625 0.125 3.4875
3.5625 0.0625 3.55
3.625 0.0625 3.55
3.5625 0 3.55
3.5625 0 3.4875
3.5625 0.125 3.55
3.625 0 3.4875
3.625 0.0625 3.4875
3.6875 0.125 3.4875
3.6875 0.0625 3.4875
3.75 0.125 3.4875
3.6875 0.0625 3.55
3.75 0.0625 3.55
3.6875 0 3.55
3.6875 0 3.4875
3.6875 0.125 3.55
3.75 0 3.4875
3.75 0.0625 3.4875
3.8125 0.125 3.4875
3.8125 0.0625 3.4875
3.875 0.125 3.4875
3.8125 0.0625 3.55
3.875 0.0625 3.55
3.8125 0 3.55
3.8125 0 3.4875
3.8125 0.125 3.55
3.875 0 3.4875
3.875 0.0625 3.4875
3.9375 0.125 3.4875
3.9375 0.0625 3.4875
4 0.125 3.4875
3.9375 0.0625 3.55
4 0.0625 3.55
3.9375 0 3.55
3.9375 0 3.4875
3.9375 0.125 3.55
4 0 3.4875
4 0.0625 3.4875
0.0625 0.25 3.4875
0.0625 0.1875 3.4875
0.125 0.25 3.4875
0.0625 0.1875 3.55
0.125 0.1875 3.55
0 0.25 3.4875
0 0.1875 3.4875
0.0625 0.25 3.55
0 0.1875 3.55
0.125 0.1875 3.4875
0.1875 0.25 3.4875
0.1875 0.1875 3.4875
0.25 0.25 3.4875
0.1875 0.1875 3.55
0.25 0.1875 3.55
0.1875 0.25 3.55
0.25 0.1875 3.4875
0.3125 0.25 3.4875
0.3125 0.1875 3.4875
0.375 0.25 3.4875
0.3125 0.1875 3.55
0.375 0.1875 3.55
0.3125 0.25 3.55
0.375 0.1875 3.4875
0.4375 0.25 3.4875
0.4375 0.1875 3.4875
0.5 0.25 3.4875
0.4375 0.1875 3.55
0.5 0.1875 3.55
0.4375 0.25 3.55
0.5 0.1875 3.4875
0.5625 0.25 3.4875
0.5625 0.1875 3.4875
0.625 0.25 3.4875
0.5625 0.1875 3.55
0.625 0.1875 3.55
0.5625 0.25 3.55
0.625 0.1875 3.4875
0.6875 0.25 3.4875
0.6875 0.1875 3.4875
0.75 0.25 3.4875
0.6875 0.1875 3.55
0.75 0.1875 3.55
0.6875 0.25 3.55
0.75 0.1875 3.4875
0.8125 0.25 3.4875
0.8125 0.1875 3.4875
0.875 0.25 3.4875
0.8125 0.1875 3.55
0.875 0.1875 3.55
0.8125 0.25 3.55
0.875 0.1875 3.4875
0.9375 0.25 3.4875
0.9375 0.1875 3.4875
1 0.25 3.4875
0.9375 0.1875 3.55
1 0.1875 3.55
0.9375 0.25 3.55
1 0.1875 3.4875
1.0625 0.25 3.4875
1.0625 0.1875 3.4875
1.125 0.25 3.4875
1.0625 0.1875 3.55
1.125 0.1875 3.55
1.0625 0.25 3.55
1.125 0.1875 3.4875
1.1875 0.25 3.4875
1.1875 0.1875 3.4875
1.25 0.25 3.4875
1.1875 0.1875 3.55
1.25 0.1875 3.55
1.1875 0.25 3.55
1.25 0.1875 3.4875
1.3125 0.25 3.4875
1.3125 0.1875 3.4875
1.375 0.25 3.4875
1.3125 0.1875 3.55
1.375 0.1875 3.55
1.3125 0.25 3.55
1.375 0.1875 3.4875
1.4375 0.25 3.4875
1.4375 0.1875 3.4875
1.5 0.25 3.4875
1.4375 0.1875 3.55
1.5 0.1875 3.55
1.4375 0.25 3.55
1.5 0.1875 3.4875
1.5625 0.25 3.4875
1.5625 0.1875 3.4875
1.625 0.25 3.4875
1.5625 0.1875 3.55
1.625 0.1875 3.55
1.5625 0.25 3.55
1.625 0.1875 3.4875
1.6875 0.25 3.4875
1.6875 0.1875 3.4875
1.75 0.25 3.4875
1.6875 0.1875 3.55
1.75 0.1875 3.55
1.6875 0.25 3.55
1.75 0.1875 3.4875
1.8125 0.25 3.4875
1.8125 0.1875 3.4875
1.875 0.25 3.4875
1.8125 0.1875 3.55
1.875 0.1875 3.55
1.8125 0.25 3.55
1.875 0.1875 3.4875
1.9375 0.25 3.4875
1.9375 0.1875 3.4875
2 0.25 3.4875
1.9375 0.1875 3.55
2 0.1875 3.55
1.9375 0.25 3.55
2 0.1875 3.4875
2.0625 0.25 3.4875
2.0625 0.1875 3.4875
2.125 0.25 3.4875
2.0625 0.1875 3.55
2.125 0.1875 3.55
2.0625 0.25 3.55
2.125 0.1875 3.4875
2.1875 0.25 3.4875
2.1875 0.1875 3.4875
2.25 0.25 3.4875
2.1875 0.1875 3.55
2.25 0.1875 3.55
2.1875 0.25 3.55
2.25 0.1875 3.4875
2.3125 0.25 3.4875
2.3125 0.1875 3.4875
2.375 0.25 3.4875
2.3125 0.1875 3.55
2.375 0.1875 3.55
2.3125 0.25 3.55
2.375 0.1875 3.4875
2.4375 0.25 3.4875
2.4375 0.1875 3.4875
2.5 0.25 3.4875
2.4375 0.1875 3.55
2.5 0.1875 3.55
2.4375 0.25 3.55
2.5 0.1875 3.4875
2.5625 0.25 3.4875
2.5625 0.1875 3.4875
2.625 0.25 3.4875
2.5625 0.1875 3.55
2.625 0.1875 3.55
2.5625 0.25 3.55
2.625 0.1875 3.4875
2.6875 0.25 3.4875
2.6875 0.1875 3.4875
2.75 0.25 3.4875
2.6875 0.1875 3.55
2.75 0.1875 3.55
2.6875 0.25 3.55
2.75 0.1875 3.4875
2.8125 0.25 3.4875
2.8125 0.1875 3.4875
2.875 0.25 3.4875
2.8125 0.1875 3.55
2.875 0.1875 3.55
2.8125 0.25 3.55
2.875 0.1875 3.4875
2.9375 0.25 3.4875
2.9375 0.1875 3.4875
3 0.25 3.4875
2.9375 0.1875 3.55
3 0.1875 3.55
2.9375 0.25 3.55
3 0.1875 3.4875
3.0625 0.25 3.4875
3.0625 0.1875 3.4875
3.125 0.25 3.4875
3.0625 0.1875 3.55
3.125 0.1875 3.55
3.0625 0.25 3.55
3.125 0.1875 3.4875
3.1875 0.25 3.4875
3.1875 0.1875 3.4875
3.25 0.25 3.4875
3.1875 0.1875 3.55
3.25 0.1875 3.55
3.1875 0.25 3.55
3.25 0.1875 3.4875
3.3125 0.25 3.4875
3.3125 0.1875 3.4875
3.375 0.25 3.4875
3.3125 0.1875 3.55
3.375 0.1875 3.55
3.3125 0.25 3.55
3.375 0.1875 3.4875
3.4375 0.25 3.4875
3.4375 0.1875 3.4875
3.5 0.25 3.4875
3.4375 0.1875 3.55
3.5 0.1875 3.55
3.4375 0.25 3.55
3.5 0.1875 3.4875
3.5625 0.25 3.4875
3.5625 0.1875 3.4875
3.625 0.25 3.4875
3.5625 0.1875 3.55
3.625 0.1875 3.55
3.5625 0.25 3.55
3.625 0.1875 3.4875
3.6875 0.25 3.4875
3.6875 0.1875 3.4875
3.75 0.25 3.4875
3.6875 0.1875 3.55
3.75 0.1875 3.55
3.6875 0.25 3.55
3.75 0.1875 3.4875
3.8125 0.25 3.4875
3.8125 0.1875 3.4875
3.875 0.25 3.4875
3.8125 0.1875 3.55
3.875 0.1875 3.55
3.8125 0.25 3.55
3.875 0.1875 3.4875
3.9375 0.25 3.4875
3.9375 0.1875 3.4875
4 0.25 3.4875
3.9375 0.1875 3.55
4 0.1875 3.55
3.9375 0.25 3.55
4 0.1875 3.4875
0.0625 0.375 3.4875
0.0625 0.3125 3.4875
0.125 0.375 3.4875
0.0625 0.3125 3.55
0.125 0.3125 3.55
0 0.375 3.4875
0 0.3125 3.4875
0.0625 0.375 3.55
0 0.3125 3.55
0.125 0.3125 3.4875
0.1875 0.375 3.4875
0.1875 0.3125 3.4875
0.25 0.375 3.4875
0.1875 0.3125 3.55
0.25 0.3125 3.55
0.1875 0.375 3.55
0.25 0.3125 3.4875
0.3125 0.375 3.4875
0.3125 0.3125 3.4875
0.375 0.375 3.4875
0.3125 0.3125 3.55
0.375 0.3125 3.55
0.3125 0.375 3.55
0.375 0.3125 3.4875
0.4375 0.375 3.4875
0.4375 0.3125 3.4875
0.5 0.375 3.4875
0.4375 0.3125 3.55
0.5 0.3125 3.55
0.4375 0.375 3.55
0.5 0.3125 3.4875
0.5625 0.375 3.4875
0.5625 0.3125 3.4875
0.625 0.375 3.4875
0.5625 0.3125 3.55
0.625 0.3125 3.55
0.5625 0.375 3.55
0.625 0.3125 3.4875
0.6875 0.375 3.4875
0.6875 0.3125 3.4875
0.75 0.375 3.4875
0.6875 0.3125 3.55
0.75 0.3125 3.55
0.6875 0.375 3.55
0.75 0.3125 3.4875
0.8125 0.375 3.4875
0.8125 0.3125 3.4875
0.875 0.375 3.4875
0.8125 0.3125 3.55
0.875 0.3125 3.55
0.8125 0.375 3.55
0.875 0.3125 3.4875
0.9375 0.375 3.4875
0.9375 0.3125 3.4875
1 0.375 3.4875
0.9375 0.3125 3.55
1 0.3125 3.55
0.9375 0.375 3.55
1 0.3125 3.4875
1.0625 0.375 3.4875
1.0625 0.3125 3.4875
1.125 0.375 3.4875
1.0625 0.3125 3.55
1.125 0.3125 3.55
1.0625 0.375 3.55
1.125 0.3125 3.4875
1.1875 0.375 3.4875
1.1875 0.3125 3.4875
1.25 0.375 3.4875
1.1875 0.3125 3.55
1.25 0.3125 3.55
1.1875 0.375 3.55
1.25 0.3125 3.4875
1.3125 0.375 3.4875
1.3125 0.3125 3.4875
1.375 0.375 3.4875
1.3125 0.3125 3.55
1.375 0.3125 3.55
1.3125 0.375 3.55
1.375 0.3125 3.4875
1.4375 0.375 3.4875
1.4375 0.3125 3.4875
1.5 0.375 3.4875
1.4375 0.3125 3.55
1.5 0.3125 3.55
1.4375 0.375 3.55
1.5 0.3125 3.4875
1.5625 0.375 3.4875
1.5625 0.3125 3.4875
1.625 0.375 3.4875
1.5625 0.3125 3.55
1.625 0.3125 3.55
1.5625 0.375 3.55
1.625 0.3125 3.4875
1.6875 0.375 3.4875
1.6875 0.3125 3.4875
1.75 0.375 3.4875
1.6875 0.3125 3.55
1.75 0.3125 3.55
1.6875 0.375 3.55
1.75 0.3125 3.4875
1.8125 0.375 3.4875
1.8125 0.3125 3.4875
1.875 0.375 3.4875
1.8125 0.3125 3.55
1.875 0.3125 3.55
1.8125 0.375 3.55
1.875 0.3125 3.4875
1.9375 0.375 3.4875
1.9375 0.3125 3.4875
2 0.375 3.4875
1.9375 0.3125 3.55
2 0.3125 3.55
1.9375 0.375 3.55
2 0.3125 3.4875
2.0625 0.375 3.4875
2.0625 0.3125 3.4875
2.125 0.375 3.4875
2.0625 0.3125 3.55
2.125 0.3125 3.55
2.0625 0.375 3.55
2.125 0.3125 3.4875
2.1875 0.375 3.4875
2.1875 0.3125 3.4875
2.25 0.375 3.4875
2.1875 0.3125 3.55
2.25 0.3125 3.55
2.1875 0.375 3.55
2.25 0.3125 3.4875
2.3125 0.375 3.4875
2.3125 0.3125 3.4875
2.375 0.375 3.4875
2.3125 0.3125 3.55
2.375 0.3125 3.55
2.3125 0.375 3.55
2.375 0.3125 3.4875
2.4375 0.375 3.4875
2.4375 0.3125 3.4875
2.5 0.375 3.4875
2.4375 0.3125 3.55
2.5 0.3125 3.55
2.4375 0.375 3.55
2.5 0.3125 3.4875
2.5625 0.375 3.4875
2.5625 0.3125 3.4875
2.625 0.375 3.4875
2.5625 0.3125 3.55
2.625 0.3125 3.55
2.5625 0.375 3.55
2.625 0.3125 3.4875
2.6875 0.375 3.4875
2.6875 0.3125 3.4875
2.75 0.375 3.4875
2.6875 0.3125 3.55
2.75 0.3125 3.55
2.6875 0.375 3.55
2.75 0.3125 3.4875
2.8125 0.375 3.4875
2.8125 0.3125 3.4875
2.875 0.375 3.4875
2.8125 0.3125 3.55
2.875 0.3125 3.55
2.8125 0.375 3.55
2.875 0.3125 3.4875
2.9375 0.375 3.4875
2.9375 0.3125 3.4875
3 0.375 3.4875
2.9375 0.3125 3.55
3 0.3125 3.55
2.9375 0.375 3.55
3 0.3125 3.4875
3.0625 0.375 3.4875
3.0625 0.3125 3.4875
3.125 0.375 3.4875
3.0625 0.3125 3.55
3.125 0.3125 3.55
3.0625 0.375 3.55
3.125 0.3125 3.4875
3.1875 0.375 3.4875
3.1875 0.3125 3.4875
3.25 0.375 3.4875
3.1875 0.3125 3.55
3.25 0.3125 3.55
3.1875 0.375 3.55
3.25 0.3125 3.4875
3.3125 0.375 3.4875
3.3125 0.3125 3.4875
3.375 0.375 3.4875
3.3125 0.3125 3.55
3.375 0.3125 3.55
3.3125 0.375 3.55
3.375 0.3125 3.4875
3.4375 0.375 3.4875
3.4375 0.3125 3.4875
3.5 0.375 3.4875
3.4375 0.3125 3.55
3.5 0.3125 3.55
3.4375 0.375 3.55
3.5 0.3125 3.4875
3.5625 0.375 3.4875
3.5625 0.3125 3.4875
3.625 0.375 3.4875
3.5625 0.3125 3.55
3.625 0.3125 3.55
3.5625 0.375 3.55
3.625 0.3125 3.4875
3.6875 0.375 3.4875
3.6875 0.3125 3.4875
3.75 0.375 3.4875
3.6875 0.3125 3.55
3.75 0.3125 3.55
3.6875 0.375 3.55
3.75 0.3125 3.4875
3.8125 0.375 3.4875
3.8125 0.3125 3.4875
3.875 0.375 3.4875
3.8125 0.3125 3.55
3.875 0.3125 3.55
3.8125 0.375 3.55
3.875 0.3125 3.4875
3.9375 0.375 3.4875
3.9375 0.3125 3.4875
4 0.375 3.4875
3.9375 0.3125 3.55
4 0.3125 3.55
3.9375 0.375 3.55
4 0.3125 3.4875
0.0625 0.5 3.4875
0.0625 0.4375 3.4875
0.125 0.5 3.4875
0.0625 0.4375 3.55
0.125 0.4375 3.55
0 0.5 3.4875
0 0.4375 3.4875
0.0625 0.5 3.55
0 0.4375 3.55
0.125 0.4375 3.4875
0.1875 0.5 3.4875
0.1875 0.4375 3.4875
0.25 0.5 3.4875
0.1875 0.4375 3.55
0.25 0.4375 3.55
0.1875 0.5 3.55
0.25 0.4375 3.4875
0.3125 0.5 3.4875
0.3125 0.4375 3.4875
0.375 0.5 3.4875
0.3125 0.4375 3.55
0.375 0.4375 3.55
0.3125 0.5 3.55
0.375 0.4375 3.4875
0.4375 0.5 3.4875
0.4375 0.4375 3.4875
0.5 0.5 3.4875
0.4375 0.4375 3.55
0.5 0.4375 3.55
0.4375 0.5 3.55
0.5 0.4375 3.4875
0.5625 0.5 3.4875
0.5625 0.4375 3.4875
0.625 0.5 3.4875
0.5625 0.4375 3.55
0.625 0.4375 3.55
0.5625 0.5 3.55
0.625 0.4375 3.4875
0.6875 0.5 3.4875
0.6875 0.4375 3.4875
0.75 0.5 3.4875
0.6875 0.4375 3.55
0.75 0.4375 3.55
0.6875 0.5 3.55
0.75 0.4375 3.4875
0.8125 0.5 3.4875
0.8125 0.4375 3.4875
0.875 0.5 3.4875
0.8125 0.4375 3.55
0.875 0.4375 3.55
0.8125 0.5 3.55
0.875 0.4375 3.4875
0.9375 0.5 3.4875
0.9375 0.4375 3.4875
1 0.5 3.4875
0.9375 0.4375 3.55
1 0.4375 3.55
0.9375 0.5 3.55
1 0.4375 3.4875
1.0625 0.5 3.4875
1.0625 0.4375 3.4875
1.125 0.5 3.4875
1.0625 0.4375 3.55
1.125 0.4375 3.55
1.0625 0.5 3.55
1.125 0.4375 3.4875
1.1875 0.5 3.4875
1.1875 0.4375 3.4875
1.25 0.5 3.4875
1.1875 0.4375 3.55
1.25 0.4375 3.55
1.1875 0.5 3.55
1.25 0.4375 3.4875
1.3125 0.5 3.4875
1.3125 0.4375 3.4875
1.375 0.5 3.4875
1.3125 0.4375 3.55
1.375 0.4375 3.55
1.3125 0.5 3.55
1.375 0.4375 3.4875
1.4375 0.5 3.4875
1.4375 0.4375 3.4875
1.5 0.5 3.4875
1.4375 0.4375 3.55
1.5 0.4375 3.55
1.4375 0.5 3.55
1.5 0.4375 3.4875
1.5625 0.5 3.4875
1.5625 0.4375 3.4875
1.625 0.5 3.4875
1.5625 0.4375 3.55
1.625 0.4375 3.55
1.5625 0.5 3.55
1.625 0.4375 3.4875
1.6875 0.5 3.4875
1.6875 0.4375 3.4875
1.75 0.5 3.4875
1.6875 0.4375 3.55
1.75 0.4375 3.55
1.6875 0.5 3.55
1.75 0.4375 3.4875
1.8125 0.5 3.4875
1.8125 0.4375 3.4875
1.875 0.5 3.4875
1.8125 0.4375 3.55
1.875 0.4375 3.55
1.8125 0.5 3.55
1.875 0.4375 3.4875
1.9375 0.5 3.4875
1.9375 0.4375 3.4875
2 0.5 3.4875
1.9375 0.4375 3.55
2 0.4375 3.55
1.9375 0.5 3.55
2 0.4375 3.4875
2.0625 0.5 3.4875
2.0625 0.4375 3.4875
2.125 0.5 3.4875
2.0625 0.4375 3.55
2.125 0.4375 3.55
2.0625 0.5 3.55
2.125 0.4375 3.4875
2.1875 0.5 3.4875
2.1875 0.4375 3.4875
2.25 0.5 3.4875
2.1875 0.4375 3.55
2.25 0.4375 3.55
2.1875 0.5 3.55
2.25 0.4375 3.4875
2.3125 0.5 3.4875
2.3125 0.4375 3.4875
2.375 0.5 3.4875
2.3125 0.4375 3.55
2.375 0.4375 3.55
2.3125 0.5 3.55
2.375 0.4375 3.4875
2.4375 0.5 3.4875
2.4375 0.4375 3.4875
2.5 0.5 3.4875
2.4375 0.4375 3.55
2.5 0.4375 3.55
2.4375 0.5 3.55
2.5 0.4375 3.4875
2.5625 0.5 3.4875
2.5625 0.4375 3.4875
2.625 0.5 3.4875
2.5625 0.4375 3.55
2.625 0.4375 3.55
2.5625 0.5 3.55
2.625 0.4375 3.4875
2.6875 0.5 3.4875
2.6875 0.4375 3.4875
2.75 0.5 3.4875
2.6875 0.4375 3.55
2.75 0.4375 3.55
2.6875 0.5 3.55
2.75 0.4375 3.4875
2.8125 0.5 3.4875
2.8125 0.4375 3.4875
2.875 0.5 3.4875
2.8125 0.4375 3.55
2.875 0.4375 3.55
2.8125 0.5 3.55
2.875 0.4375 3.4875
2.9375 0.5 3.4875
2.9375 0.4375 3.4875
3 0.5 3.4875
2.9375 0.4375 3.55
3 0.4375 3.55
2.9375 0.5 3.55
3 0.4375 3.4875
3.0625 0.5 3.4875
3.0625 0.4375 3.4875
3.125 0.5 3.4875
3.0625 0.4375 3.55
3.125 0.4375 3.55
3.0625 0.5 3.55
3.125 0.4375 3.4875
3.1875 0.5 3.4875
3.1875 0.4375 3.4875
3.25 0.5 3.4875
3.1875 0.4375 3.55
3.25 0.4375 3.55
3.1875 0.5 3.55
3.25 0.4375 3.4875
3.3125 0.5 3.4875
3.3125 0.4375 3.4875
3.375 0.5 3.4875
3.3125 0.4375 3.55
3.375 0.4375 3.55
3.3125 0.5 3.55
3.375 0.4375 3.4875
3.4375 0.5 3.4875
3.4375 0.4375 3.4875
3.5 0.5 3.4875
3.4375 0.4375 3.55
3.5 0.4375 3.55
3.4375 0.5 3.55
3.5 0.4375 3.4875
3.5625 0.5 3.4875
3.5625 0.4375 3.4875
3.625 0.5 3.4875
3.5625 0.4375 3.55
3.625 0.4375 3.55
3.5625 0.5 3.55
3.625 0.4375 3.4875
3.6875 0.5 3.4875
3.6875 0.4375 3.4875
3.75 0.5 3.4875
3.6875 0.4375 3.55
3.75 0.4375 3.55
3.6875 0.5 3.55
3.75 0.4375 3.4875
3.8125 0.5 3.4875
3.8125 0.4375 3.4875
3.875 0.5 3.4875
3.8125 0.4375 3.55
3.875 0.4375 3.55
3.8125 0.5 3.55
3.875 0.4375 3.4875
3.9375 0.5 3.4875
3.9375 0.4375 3.4875
4 0.5 3.4875
3.9375 0.4375 3.55
4 0.4375 3.55
3.9375 0.5 3.55
4 0.4375 3.4875
0.0625 0.625 3.4875
0.0625 0.5625 3.4875
0.125 0.625 3.4875
0.0625 0.5625 3.55
0.125 0.5625 3.55
0 0.625 3.4875
0 0.5625 3.4875
0.0625 0.625 3.55
0 0.5625 3.55
0.125 0.5625 3.4875
0.1875 0.625 3.4875
0.1875 0.5625 3.4875
0.25 0.625 3.4875
0.1875 0.5625 3.55
0.25 0.5625 3.55
0.1875 0.625 3.55
0.25 0.5625 3.4875
0.3125 0.625 3.4875
0.3125 0.5625 3.4875
0.375 0.625 3.4875
0.3125 0.5625 3.55
0.375 0.5625 3.55
0.3125 0.625 3.55
0.375 0.5625 3.4875
0.4375 0.625 3.4875
0.4375 0.5625 3.4875
0.5 0.625 3.4875
0.4375 0.5625 3.55
0.5 0.5625 3.55
0.4375 0.625 3.55
0.5 0.5625 3.4875
0.5625 0.625 3.4875
0.5625 0.5625 3.4875
0.625 0.625 3.4875
0.5625 0.5625 3.55
0.625 0.5625 3.55
0.5625 0.625 3.55
0.625 0.5625 3.4875
0.6875 0.625 3.4875
0.6875 0.5625 3.4875
0.75 0.625 3.4875
0.6875 0.5625 3.55
0.75 0.5625 3.55
0.6875 0.625 3.55
0.75 0.5625 3.4875
0.8125 0.625 3.4875
0.8125 0.5625 3.4875
0.875 0.625 3.4875
0.8125 0.5625 3.55
0.875 0.5625 3.55
0.8125 0.625 3.55
0.875 0.5625 3.4875
0.9375 0.625 3.4875
0.9375 0.5625 3.4875
1 0.625 3.4875
0.9375 0.5625 3.55
1 0.5625 3.55
0.9375 0.625 3.55
1 0.5625 3.4875
1.0625 0.625 3.4875
1.0625 0.5625 3.4875
1.125 0.625 3.4875
1.0625 0.5625 3.55
1.125 0.5625 3.55
1.0625 0.625 3.55
1.125 0.5625 3.4875
1.1875 0.625 3.4875
1.1875 0.5625 3.4875
1.25 0.625 3.4875
1.1875 0.5625 3.55
1.25 0.5625 3.55
1.1875 0.625 3.55
1.25 0.5625 3.4875
1.3125 0.625 3.4875
1.3125 0.5625 3.4875
1.375 0.625 3.4875
1.3125 0.5625 3.55
1.375 0.5625 3.55
1.3125 0.625 3.55
1.375 0.5625 3.4875
1.4375 0.625 3.4875
1.4375 0.5625 3.4875
1.5 0.625 3.4875
1.4375 0.5625 3.55
1.5 0.5625 3.55
1.4375 0.625 3.55
1.5 0.5625 3.4875
1.5625 0.625 3.4875
1.5625 0.5625 3.4875
1.625 0.625 3.4875
1.5625 0.5625 3.55
1.625 0.5625 3.55
1.5625 0.625 3.55
1.625 0.5625 3.4875
1.6875 0.625 3.4875
1.6875 0.5625 3.4875
1.75 0.625 3.4875
1.6875 0.5625 3.55
1.75 0.5625 3.55
1.6875 0.625 3.55
1.75 0.5625 3.4875
1.8125 0.625 3.4875
1.8125 0.5625 3.4875
1.875 0.625 3.4875
1.8125 0.5625 3.55
1.875 0.5625 3.55
1.8125 0.625 3.55
1.875 0.5625 3.4875
1.9375 0.625 3.4875
1.9375 0.5625 3.4875
2 0.625 3.4875
1.9375 0.5625 3.55
2 0.5625 3.55
1.9375 0.625 3.55
2 0.5625 3.4875
2.0625 0.625 3.4875
2.0625 0.5625 3.4875
2.125 0.625 3.4875
2.0625 0.5625 3.55
2.125 0.5625 3.55
2.0625 0.625 3.55
2.125 0.5625 3.4875
2.1875 0.625 3.4875
2.1875 0.5625 3.4875
2.25 0.625 3.4875
2.1875 0.5625 3.55
2.25 0.5625 3.55
2.1875 0.625 3.55
2.25 0.5625 3.4875
2.3125 0.625 3.4875
2.3125 0.5625 3.4875
2.375 0.625 3.4875
2.3125 0.5625 3.55
2.375 0.5625 3.55
2.3125 0.625 3.55
2.375 0.5625 3.4875
2.4375 0.625 3.4875
2.4375 0.5625 3.4875
2.5 0.625 3.4875
2.4375 0.5625 3.55
2.5 0.5625 3.55
2.4375 0.625 3.55
2.5 0.5625 3.4875
2.5625 0.625 3.4875
2.5625 0.5625 3.4875
2.625 0.625 3.4875
2.5625 0.5625 3.55
2.625 0.5625 3.55
2.5625 0.625 3.55
2.625 0.5625 3.4875
2.6875 0.625 3.4875
2.6875 0.5625 3.4875
2.75 0.625 3.4875
2.6875 0.5625 3.55
2.75 0.5625 3.55
2.6875 0.625 3.55
2.75 0.5625 3.4875
2.8125 0.625 3.4875
2.8125 0.5625 3.4875
2.875 0.625 3.4875
2.8125 0.5625 3.55
2.875 0.5625 3.55
2.8125 0.625 3.55
2.875 0.5625 3.4875
2.9375 0.625 3.4875
2.9375 0.5625 3.4875
3 0.625 3.4875
2.9375 0.5625 3.55
3 0.5625 3.55
2.9375 0.625 3.55
3 0.5625 3.4875
3.0625 0.625 3.4875
3.0625 0.5625 3.4875
3.125 0.625 3.4875
3.0625 0.5625 3.55
3.125 0.5625 3.55
3.0625 0.625 3.55
3.125 0.5625 3.4875
3.1875 0.625 3.4875
3.1875 0.5625 3.4875
3.25 0.625 3.4875
3.1875 0.5625 3.55
3.25 0.5625 3.55
3.1875 0.625 3.55
3.25 0.5625 3.4875
3.3125 0.625 3.4875
3.3125 0.5625 3.4875
3.375 0.625 3.4875
3.3125 0.5625 3.55
3.375 0.5625 3.55
3.3125 0.625 3.55
3.375 0.5625 3.4875
3.4375 0.625 3.4875
3.4375 0.5625 3.4875
3.5 0.625 3.4875
3.4375 0.5625 3.55
3.5 0.5625 3.55
3.4375 0.625 3.55
3.5 0.5625 3.4875
3.5625 0.625 3.4875
3.5625 0.5625 3.4875
3.625 0.625 3.4875
3.5625 0.5625 3.55
3.625 0.5625 3.55
3.5625 0.625 3.55
3.625 0.5625 3.4875
3.6875 0.625 3.4875
3.6875 0.5625 3.4875
3.75 0.625 3.4875
3.6875 0.5625 3.55
3.75 0.5625 3.55
3.6875 0.625 3.55
3.75 0.5625 3.4875
3.8125 0.625 3.4875
3.8125 0.5625 3.4875
3.875 0.625 3.4875
3.8125 0.5625 3.55
3.875 0.5625 3.55
3.8125 0.625 3.55
3.875 0.5625 3.4875
3.9375 0.625 3.4875
3.9375 0.5625 3.4875
4 0.625 3.4875
3.9375 0.5625 3.55
4 0.5625 3.55
3.9375 0.625 3.55
4 0.5625 3.4875
0.0625 0.75 3.4875
0.0625 0.6875 3.4875
0.125 0.75 3.4875
0.0625 0.6875 3.55
0.125 0.6875 3.55
0 0.75 3.4875
0 0.6875 3.4875
0.0625 0.75 3.55
0 0.6875 3.55
0.125 0.6875 3.4875
0.1875 0.75 3.4875
0.1875 0.6875 3.4875
0.25 0.75 3.4875
0.1875 0.6875 3.55
0.25 0.6875 3.55
0.1875 0.75 3.55
0.25 0.6875 3.4875
0.3125 0.75 3.4875
0.3125 0.6875 3.4875
0.375 0.75 3.4875
0.3125 0.6875 3.55
0.375 0.6875 3.55
0.3125 0.75 3.55
0.375 0.6875 3.4875
0.4375 0.75 3.4875
0.4375 0.6875 3.4875
0.5 0.75 3.4875
0.4375 0.6875 3.55
0.5 0.6875 3.55
0.4375 0.75 3.55
0.5 0.6875 3.4875
0.5625 0.75 3.4875
0.5625 0.6875 3.4875
0.625 0.75 3.4875
0.5625 0.6875 3.55
0.625 0.6875 3.55
0.5625 0.75 3.55
0.625 0.6875 3.4875
0.6875 0.75 3.4875
0.6875 0.6875 3.4875
0.75 0.75 3.4875
0.6875 0.6875 3.55
0.75 0.6875 3.55
0.6875 0.75 3.55
0.75 0.6875 3.4875
0.8125 0.75 3.4875
0.8125 0.6875 3.4875
0.875 0.75 3.4875
0.8125 0.6875 3.55
0.875 0.6875 3.55
0.8125 0.75 3.55
0.875 0.6875 3.4875
0.9375 0.75 3.4875
0.9375 0.6875 3.4875
1 0.75 3.4875
0.9375 0.6875 3.55
1 0.6875 3.55
0.9375 0.75 3.55
1 0.6875 3.4875
1.0625 0.75 3.4875
1.0625 0.6875 3.4875
1.125 0.75 3.4875
1.0625 0.6875 3.55
1.125 0.6875 3.55
1.0625 0.75 3.55
1.125 0.6875 3.4875
1.1875 0.75 3.4875
1.1875 0.6875 3.4875
1.25 0.75 3.4875
1.1875 0.6875 3.55
1.25 0.6875 3.55
1.1875 0.75 3.55
1.25 0.6875 3.4875
1.3125 0.75 3.4875
1.3125 0.6875 3.4875
1.375 0.75 3.4875
1.3125 0.6875 3.55
1.375 0.6875 3.55
1.3125 0.75 3.55
1.375 0.6875 3.4875
1.4375 0.75 3.4875
1.4375 0.6875 3.4875
1.5 0.75 3.4875
1.4375 0.6875 3.55
1.5 0.6875 3.55
1.4375 0.75 3.55
1.5 0.6875 3.4875
1.5625 0.75 3.4875
1.5625 0.6875 3.4875
1.625 0.75 3.4875
1.5625 0.6875 3.55
1.625 0.6875 3.55
1.5625 0.75 3.55
1.625 0.6875 3.4875
1.6875 0.75 3.4875
1.6875 0.6875 3.4875
1.75 0.75 3.4875
1.6875 0.6875 3.55
1.75 0.6875 3.55
1.6875 0.75 3.55
1.75 0.6875 3.4875
1.8125 0.75 3.4875
1.8125 0.6875 3.4875
1.875 0.75 3.4875
1.8125 0.6875 3.55
1.875 0.6875 3.55
1.8125 0.75 3.55
1.875 0.6875 3.4875
1.9375 0.75 3.4875
1.9375 0.6875 3.4875
2 0.75 3.4875
1.9375 0.6875 3.55
2 0.6875 3.55
1.9375 0.75 3.55
2 0.6875 3.4875
2.0625 0.75 3.4875
2.0625 0.6875 3.4875
2.125 0.75 3.4875
2.0625 0.6875 3.55
2.125 0.6875 3.55
2.0625 0.75 3.55
2.125 0.6875 3.4875
2.1875 0.75 3.4875
2.1875 0.6875 3.4875
2.25 0.75 3.4875
2.1875 0.6875 3.55
2.25 0.6875 3.55
2.1875 0.75 3.55
2.25 0.6875 3.4875
2.3125 0.75 3.4875
2.3125 0.6875 3.4875
2.375 0.75 3.4875
2.3125 0.6875 3.55
2.375 0.6875 3.55
2.3125 0.75 3.55
2.375 0.6875 3.4875
2.4375 0.75 3.4875
2.4375 0.6875 3.4875
2.5 0.75 3.4875
2.4375 0.6875 3.55
2.5 0.6875 3.55
2.4375 0.75 3.55
2.5 0.6875 3.4875
2.5625 0.75 3.4875
2.5625 0.6875 3.4875
2.625 0.75 3.4875
2.5625 0.6875 3.55
2.625 0.6875 3.55
2.5625 0.75 3.55
2.625 0.6875 3.4875
2.6875 0.75 3.4875
2.6875 0.6875 3.4875
2.75 0.75 3.4875
2.6875 0.6875 3.55
2.75 0.6875 3.55
2.6875 0.75 3.55
2.75 0.6875 3.4875
2.8125 0.75 3.4875
2.8125 0.6875 3.4875
2.875 0.75 3.4875
2.8125 0.6875 3.55
2.875 0.6875 3.55
2.8125 0.75 3.55
2.875 0.6875 3.4875
2.9375 0.75 3.4875
2.9375 0.6875 3.4875
3 0.75 3.4875
2.9375 0.6875 3.55
3 0.6875 3.55
2.9375 0.75 3.55
3 0.6875 3.4875
3.0625 0.75 3.4875
3.0625 0.6875 3.4875
3.125 0.75 3.4875
3.0625 0.6875 3.55
3.125 0.6875 3.55
3.0625 0.75 3.55
3.125 0.6875 3.4875
3.1875 0.75 3.4875
3.1875 0.6875 3.4875
3.25 0.75 3.4875
3.1875 0.6875 3.55
3.25 0.6875 3.55
3.1875 0.75 3.55
3.25 0.6875 3.4875
3.3125 0.75 3.4875
3.3125 0.6875 3.4875
3.375 0.75 3.4875
3.3125 0.6875 3.55
3.375 0.6875 3.55
3.3125 0.75 3.55
3.375 0.6875 3.4875
3.4375 0.75 3.4875
3.4375 0.6875 3.4875
3.5 0.75 3.4875
3.4375 0.6875 3.55
3.5 0.6875 3.55
3.4375 0.75 3.55
3.5 0.6875 3.4875
3.5625 0.75 3.4875
3.5625 0.6875 3.4875
3.625 0.75 3.4875
3.5625 0.6875 3.55
3.625 0.6875 3.55
3.5625 0.75 3.55
3.625 0.6875 3.4875
3.6875 0.75 3.4875
3.6875 0.6875 3.4875
3.75 0.75 3.4875
3.6875 0.6875 3.55
3.75 0.6875 3.55
3.6875 0.75 3.55
3.75 0.6875 3.4875
3.8125 0.75 3.4875
3.8125 0.6875 3.4875
3.875 0.75 3.4875
3.8125 0.6875 3.55
3.875 0.6875 3.55
3.8125 0.75 3.55
3.875 0.6875 3.4875
3.9375 0.75 3.4875
3.9375 0.6875 3.4875
4 0.75 3.4875
3.9375 0.6875 3.55
4 0.6875 3.55
3.9375 0.75 3.55
4 0.6875 3.4875
0.0625 0.875 3.4875
0.0625 0.8125 3.4875
0.125 0.875 3.4875
0.0625 0.8125 3.55
0.125 0.8125 3.55
0 0.875 3.4875
0 0.8125 3.4875
0.0625 0.875 3.55
0 0.8125 3.55
0.125 0.8125 3.4875
0.1875 0.875 3.4875
0.1875 0.8125 3.4875
0.25 0.875 3.4875
0.1875 0.8125 3.55
0.25 0.8125 3.55
0.1875 0.875 3.55
0.25 0.8125 3.4875
0.3125 0.875 3.4875
0.3125 0.8125 3.4875
0.375 0.875 3.4875
0.3125 0.8125 3.55
0.375 0.8125 3.55
0.3125 0.875 3.55
0.375 0.8125 3.4875
0.4375 0.875 3.4875
0.4375 0.8125 3.4875
0.5 0.875 3.4875
0.4375 0.8125 3.55
0.5 0.8125 3.55
0.4375 0.875 3.55
0.5 0.8125 3.4875
0.5625 0.875 3.4875
0.5625 0.8125 3.4875
0.625 0.875 3.4875
0.5625 0.8125 3.55
0.625 0.8125 3.55
0.5625 0.875 3.55
0.625 0.8125 3.4875
0.6875 0.875 3.4875
0.6875 0.8125 3.4875
0.75 0.875 3.4875
0.6875 0.8125 3.55
0.75 0.8125 3.55
0.6875 0.875 3.55
0.75 0.8125 3.4875
0.8125 0.875 3.4875
0.8125 0.8125 3.4875
0.875 0.875 3.4875
0.8125 0.8125 3.55
0.875 0.8125 3.55
0.8125 0.875 3.55
0.875 0.8125 3.4875
0.9375 0.875 3.4875
0.9375 0.8125 3.4875
1 0.875 3.4875
0.9375 0.8125 3.55
1 0.8125 3.55
0.9375 0.875 3.55
1 0.8125 3.4875
1.0625 0.875 3.4875
1.0625 0.8125 3.4875
1.125 0.875 3.4875
1.0625 0.8125 3.55
1.125 0.8125 3.55
1.0625 0.875 3.55
1.125 0.8125 3.4875
1.1875 0.875 3.4875
1.1875 0.8125 3.4875
1.25 0.875 3.4875
1.1875 0.8125 3.55
1.25 0.8125 3.55
1.1875 0.875 3.55
1.25 0.8125 3.4875
1.3125 0.875 3.4875
1.3125 0.8125 3.4875
1.375 0.875 3.4875
1.3125 0.8125 3.55
1.375 0.8125 3.55
1.3125 0.875 3.55
1.375 0.8125 3.4875
1.4375 0.875 3.4875
1.4375 0.8125 3.4875
1.5 0.875 3.4875
1.4375 0.8125 3.55
1.5 0.8125 3.55
1.4375 0.875 3.55
1.5 0.8125 3.4875
1.5625 0.875 3.4875
1.5625 0.8125 3.4875
1.625 0.875 3.4875
1.5625 0.8125 3.55
1.625 0.8125 3.55
1.5625 0.875 3.55
1.625 0.8125 3.4875
1.6875 0.875 3.4875
1.6875 0.8125 3.4875
1.75 0.875 3.4875
1.6875 0.8125 3.55
1.75 0.8125 3.55
1.6875 0.875 3.55
1.75 0.8125 3.4875
1.8125 0.875 3.4875
1.8125 0.8125 3.4875
1.875 0.875 3.4875
1.8125 0.8125 3.55
1.875 0.8125 3.55
1.8125 0.875 3.55
1.875 0.8125 3.4875
1.9375 0.875 3.4875
1.9375 0.8125 3.4875
2 0.875 3.4875
1.9375 0.8125 3.55
2 0.8125 3.55
1.9375 0.875 3.55
2 0.8125 3.4875
2.0625 0.875 3.4875
2.0625 0.8125 3.4875
2.125 0.875 3.4875
2.0625 0.8125 3.55
2.125 0.8125 3.55
2.0625 0.875 3.55
2.125 0.8125 3.4875
2.1875 0.875 3.4875
2.1875 0.8125 3.4875
2.25 0.875 3.4875
2.1875 0.8125 3.55
2.25 0.8125 3.55
2.1875 0.875 3.55
2.25 0.8125 3.4875
2.3125 0.875 3.4875
2.3125 0.8125 3.4875
2.375 0.875 3.4875
2.3125 0.8125 3.55
2.375 0.8125 3.55
2.3125 0.875 3.55
2.375 0.8125 3.4875
2.4375 0.875 3.4875
2.4375 0.8125 3.4875
2.5 0.875 3.4875
2.4375 0.8125 3.55
2.5 0.8125 3.55
2.4375 0.875 3.55
2.5 0.8125 3.4875
2.5625 0.875 3.4875
2.5625 0.8125 3.4875
2.625 0.875 3.4875
2.5625 0.8125 3.55
2.625 0.8125 3.55
2.5625 0.875 3.55
2.625 0.8125 3.4875
2.6875 0.875 3.4875
2.6875 0.8125 3.4875
2.75 0.875 3.4875
2.6875 0.8125 3.55
2.75 0.8125 3.55
2.6875 0.875 3.55
2.75 0.8125 3.4875
2.8125 0.875 3.4875
2.8125 0.8125 3.4875
2.875 0.875 3.4875
2.8125 0.8125 3.55
2.875 0.8125 3.55
2.8125 0.875 3.55
2.875 0.8125 3.4875
2.9375 0.875 3.4875
2.9375 0.8125 3.4875
3 0.875 3.4875
2.9375 0.8125 3.55
3 0.8125 3.55
2.9375 0.875 3.55
3 0.8125 3.4875
3.0625 0.875 3.4875
3.0625 0.8125 3.4875
3.125 0.875 3.4875
3.0625 0.8125 3.55
3.125 0.8125 3.55
3.0625 0.875 3.55
3.125 0.8125 3.4875
3.1875 0.875 3.4875
3.1875 0.8125 3.4875
3.25 0.875 3.4875
3.1875 0.8125 3.55
3.25 0.8125 3.55
3.1875 0.875 3.55
3.25 0.8125 3.4875
3.3125 0.875 3.4875
3.3125 0.8125 3.4875
3.375 0.875 3.4875
3.3125 0.8125 3.55
3.375 0.8125 3.55
3.3125 0.875 3.55
3.375 0.8125 3.4875
3.4375 0.875 3.4875
3.4375 0.8125 3.4875
3.5 0.875 3.4875
3.4375 0.8125 3.55
3.5 0.8125 3.55
3.4375 0.875 3.55
3.5 0.8125 3.4875
3.5625 0.875 3.4875
3.5625 0.8125 3.4875
3.625 0.875 3.4875
3.5625 0.8125 3.55
3.625 0.8125 3.55
3.5625 0.875 3.55
3.625 0.8125 3.4875
3.6875 0.875 3.4875
3.6875 0.8125 3.4875
3.75 0.875 3.4875
3.6875 0.8125 3.55
3.75 0.8125 3.55
3.6875 0.875 3.55
3.75 0.8125 3.4875
3.8125 0.875 3.4875
3.8125 0.8125 3.4875
3.875 0.875 3.4875
3.8125 0.8125 3.55
3.875 0.8125 3.55
3.8125 0.875 3.55
3.875 0.8125 3.4875
3.9375 0.875 3.4875
3.9375 0.8125 3.4875
4 0.875 3.4875
3.9375 0.8125 3.55
4 0.8125 3.55
3.9375 0.875 3.55
4 0.8125 3.4875
0.0625 1 3.4875
0.0625 0.9375 3.4875
0.125 1 3.4875
0.0625 0.9375 3.55
0.125 0.9375 3.55
0 1 3.4875
0 0.9375 3.4875
0.0625 1 3.55
0 0.9375 3.55
0.125 0.9375 3.4875
0.1875 1 3.4875
0.1875 0.9375 3.4875
0.25 1 3.4875
0.1875 0.9375 3.55
0.25 0.9375 3.55
0.1875 1 3.55
0.25 0.9375 3.4875
0.3125 1 3.4875
0.3125 0.9375 3.4875
0.375 1 3.4875
0.3125 0.9375 3.55
0.375 0.9375 3.55
0.3125 1 3.55
0.375 0.9375 3.4875
0.4375 1 3.4875
0.4375 0.9375 3.4875
0.5 1 3.4875
0.4375 0.9375 3.55
0.5 0.9375 3.55
0.4375 1 3.55
0.5 0.9375 3.4875
0.5625 1 3.4875
0.5625 0.9375 3.4875
0.625 1 3.4875
0.5625 0.9375 3.55
0.625 0.9375 3.55
0.5625 1 3.55
0.625 0.9375 3.4875
0.6875 1 3.4875
0.6875 0.9375 3.4875
0.75 1 3.4875
0.6875 0.9375 3.55
0.75 0.9375 3.55
0.6875 1 3.55
0.75 0.9375 3.4875
0.8125 1 3.4875
0.8125 0.9375 3.4875
0.875 1 3.4875
0.8125 0.9375 3.55
0.875 0.9375 3.55
0.8125 1 3.55
0.875 0.9375 3.4875
0.9375 1 3.4875
0.9375 0.9375 3.4875
1 1 3.4875
0.9375 0.9375 3.55
1 0.9375 3.55
0.9375 1 3.55
1 0.9375 3.4875
1.0625 1 3.4875
1.0625 0.9375 3.4875
1.125 1 3.4875
1.0625 0.9375 3.55
1.125 0.9375 3.55
1.0625 1 3.55
1.125 0.9375 3.4875
1.1875 1 3.4875
1.1875 0.9375 3.4875
1.25 1 3.4875
1.1875 0.9375 3.55
1.25 0.9375 3.55
1.1875 1 3.55
1.25 0.9375 3.4875
1.3125 1 3.4875
1.3125 0.9375 3.4875
1.375 1 3.4875
1.3125 0.9375 3.55
1.375 0.9375 3.55
1.3125 1 3.55
1.375 0.9375 3.4875
1.4375 1 3.4875
1.4375 0.9375 3.4875
1.5 1 3.4875
1.4375 0.9375 3.55
1.5 0.9375 3.55
1.4375 1 3.55
1.5 0.9375 3.4875
1.5625 1 3.4875
1.5625 0.9375 3.4875
1.625 1 3.4875
1.5625 0.9375 3.55
1.625 0.9375 3.55
1.5625 1 3.55
1.625 0.9375 3.4875
1.6875 1 3.4875
1.6875 0.9375 3.4875
1.75 1 3.4875
1.6875 0.9375 3.55
1.75 0.9375 3.55
1.6875 1 3.55
1.75 0.9375 3.4875
1.8125 1 3.4875
1.8125 0.9375 3.4875
1.875 1 3.4875
1.8125 0.9375 3.55
1.875 0.9375 3.55
1.8125 1 3.55
1.875 0.9375 3.4875
1.9375 1 3.4875
1.9375 0.9375 3.4875
2 1 3.4875
1.9375 0.9375 3.55
2 0.9375 3.55
1.9375 1 3.55
2 0.9375 3.4875
2.0625 1 3.4875
2.0625 0.9375 3.4875
2.125 1 3.4875
2.0625 0.9375 3.55
2.125 0.9375 3.55
2.0625 1 3.55
2.125 0.9375 3.4875
2.1875 1 3.4875
2.1875 0.9375 3.4875
2.25 1 3.4875
2.1875 0.9375 3.55
2.25 0.9375 3.55
2.1875 1 3.55
2.25 0.9375 3.4875
2.3125 1 3.4875
2.3125 0.9375 3.4875
2.375 1 3.4875
2.3125 0.9375 3.55
2.375 0.9375 3.55
2.3125 1 3.55
2.375 0.9375 3.4875
2.4375 1 3.4875
2.4375 0.9375 3.4875
2.5 1 3.4875
2.4375 0.9375 3.55
2.5 0.9375 3.55
2.4375 1 3.55
2.5 0.9375 3.4875
2.5625 1 3.4875
2.5625 0.9375 3.4875
2.625 1 3.4875
2.5625 0.9375 3.55
2.625 0.9375 3.55
2.5625 1 3.55
2.625 0.9375 3.4875
2.6875 1 3.4875
2.6875 0.9375 3.4875
2.75 1 3.4875
2.6875 0.9375 3.55
2.75 0.9375 3.55
2.6875 1 3.55
2.75 0.9375 3.4875
2.8125 1 3.4875
2.8125 0.9375 3.4875
2.875 1 3.4875
2.8125 0.9375 3.55
2.875 0.9375 3.55
2.8125 1 3.55
2.875 0.9375 3.4875
2.9375 1 3.4875
2.9375 0.9375 3.4875
3 1 3.4875
2.9375 0.9375 3.55
3 0.9375 3.55
2.9375 1 3.55
3 0.9375 3.4875
3.0625 1 3.4875
3.0625 0.9375 3.4875
3.125 1 3.4875
3.0625 0.9375 3.55
3.125 0.9375 3.55
3.0625 1 3.55
3.125 0.9375 3.4875
3.1875 1 3.4875
3.1875 0.9375 3.4875
3.25 1 3.4875
3.1875 0.9375 3.55
3.25 0.9375 3.55
3.1875 1 3.55
3.25 0.9375 3.4875
3.3125 1 3.4875
3.3125 0.9375 3.4875
3.375 1 3.4875
3.3125 0.9375 3.55
3.375 0.9375 3.55
3.3125 1 3.55
3.375 0.9375 3.4875
3.4375 1 3.4875
3.4375 0.9375 3.4875
3.5 1 3.4875
3.4375 0.9375 3.55
3.5 0.9375 3.55
3.4375 1 3.55
3.5 0.9375 3.4875
3.5625 1 3.4875
3.5625 0.9375 3.4875
3.625 1 3.4875
3.5625 0.9375 3.55
3.625 0.9375 3.55
3.5625 1 3.55
3.625 0.9375 3.4875
3.6875 1 3.4875
3.6875 0.9375 3.4875
3.75 1 3.4875
3.6875 0.9375 3.55
3.75 0.9375 3.55
3.6875 1 3.55
3.75 0.9375 3.4875
3.8125 1 3.4875
3.8125 0.9375 3.4875
3.875 1 3.4875
3.8125 0.9375 3.55
3.875 0.9375 3.55
3.8125 1 3.55
3.875 0.9375 3.4875
3.9375 1 3.4875
3.9375 0.9375 3.4875
4 1 3.4875
3.9375 0.9375 3.55
4 0.9375 3.55
3.9375 1 3.55
4 0.9375 3.4875
0.0625 0.125 3.6125
0.0625 0.0625 3.6125
0.125 0.125 3.6125
0.0625 0.0625 3.675
0.125 0.0625 3.675
0.0625 0 3.675
0 0 3.6125
0.0625 0 3.6125
0 0.125 3.6125
0 0.0625 3.6125
0.0625 0.125 3.675
0 0.0625 3.675
0.125 0 3.6125
0.125 0.0625 3.6125
0.1875 0.125 3.6125
0.1875 0.0625 3.6125
0.25 0.125 3.6125
0.1875 0.0625 3.675
0.25 0.0625 3.675
0.1875 0 3.675
0.1875 0 3.6125
0.1875 0.125 3.675
0.25 0 3.6125
0.25 0.0625 3.6125
0.3125 0.125 3.6125
0.3125 0.0625 3.6125
0.375 0.125 3.6125
0.3125 0.0625 3.675
0.375 0.0625 3.675
0.3125 0 3.675
0.3125 0 3.6125
0.3125 0.125 3.675
0.375 0 3.6125
0.375 0.0625 3.6125
0.4375 0.125 3.6125
0.4375 0.0625 3.6125
0.5 0.125 3.6125
0.4375 0.0625 3.675
0.5 0.0625 3.675
0.4375 0 3.675
0.4375 0 3.6125
0.4375 0.125 3.675
0.5 0 3.6125
0.5 0.0625 3.6125
0.5625 0.125 3.6125
0.5625 0.0625 3.6125
0.625 0.125 3.6125
0.5625 0.0625 3.675
0.625 0.0625 3.675
0.5625 0 3.675
0.5625 0 3.6125
0.5625 0.125 3.675
0.625 0 3.6125
0.625 0.0625 3.6125
0.6875 0.125 3.6125
0.6875 0.0625 3.6125
0.75 0.125 3.6125
0.6875 0.0625 3.675
0.75 0.0625 3.675
0.6875 0 3.675
0.6875 0 3.6125
0.6875 0.125 3.675
0.75 0 3.6125
0.75 0.0625 3.6125
0.8125 0.125 3.6125
0.8125 0.0625 3.6125
0.875 0.125 3.6125
0.8125 0.0625 3.675
0.875 0.0625 3.675
0.8125 0 3.675
0.8125 0 3.6125
0.8125 0.125 3.675
0.875 0 3.6125
0.875 0.0625 3.6125
0.9375 0.125 3.6125
0.9375 0.0625 3.6125
1 0.125 3.6125
0.9375 0.0625 3.675
1 0.0625 3.675
0.9375 0 3.675
0.9375 0 3.6125
0.9375 0.125 3.675
1 0 3.6125
1 0.0625 3.6125
1.0625 0.125 3.6125
1.0625 0.0625 3.6125
1.125 0.125 3.6125
1.0625 0.0625 3.675
1.125 0.0625 3.675
1.0625 0 3.675
1.0625 0 3.6125
1.0625 0.125 3.675
1.125 0 3.6125
1.125 0.0625 3.6125
1.1875 0.125 3.6125
1.1875 0.0625 3.6125
1.25 0.125 3.6125
1.1875 0.0625 3.675
1.25 0.0625 3.675
1.1875 0 3.675
1.1875 0 3.6125
1.1875 0.125 3.675
1.25 0 3.6125
1.25 0.0625 3.6125
1.3125 0.125 3.6125
1.3125 0.0625 3.6125
1.375 0.125 3.6125
1.3125 0.0625 3.675
1.375 0.0625 3.675
1.3125 0 3.675
1.3125 0 3.6125
1.3125 0.125 3.675
1.375 0 3.6125
1.375 0.0625 3.6125
1.4375 0.125 3.6125
1.4375 0.0625 3.6125
1.5 0.125 3.6125
1.4375 0.0625 3.675
1.5 0.0625 3.675
1.4375 0 3.675
1.4375 0 3.6125
1.4375 0.125 3.675
1.5 0 3.6125
1.5 0.0625 3.6125
1.5625 0.125 3.6125
1.5625 0.0625 3.6125
1.625 0.125 3.6125
1.5625 0.0625 3.675
1.625 0.0625 3.675
1.5625 0 3.675
1.5625 0 3.6125
1.5625 0.125 3.675
1.625 0 3.6125
1.625 0.0625 3.6125
1.6875 0.125 3.6125
1.6875 0.0625 3.6125
1.75 0.125 3.6125
1.6875 0.0625 3.675
1.75 0.0625 3.675
1.6875 0 3.675
1.6875 0 3.6125
1.6875 0.125 3.675
1.75 0 3.6125
1.75 0.0625 3.6125
1.8125 0.125 3.6125
1.8125 0.0625 3.6125
1.875 0.125 3.6125
1.8125 0.0625 3.675
1.875 0.0625 3.675
1.8125 0 3.675
1.8125 0 3.6125
1.8125 0.125 3.675
1.875 0 3.6125
1.875 0.0625 3.6125
1.9375 0.125 3.6125
1.9375 0.0625 3.6125
2 0.125 3.6125
1.9375 0.0625 3.675
2 0.0625 3.675
1.9375 0 3.675
1.9375 0 3.6125
1.9375 0.125 3.675
2 0 3.6125
2 0.0625 3.6125
2.0625 0.125 3.6125
2.0625 0.0625 3.6125
2.125 0.125 3.6125
2.0625 0.0625 3.675
2.125 0.0625 3.675
2.0625 0 3.675
2.0625 0 3.6125
2.0625 0.125 3.675
2.125 0 3.6125
2.125 0.0625 3.6125
2.1875 0.125 3.6125
2.1875 0.0625 3.6125
2.25 0.125 3.6125
2.1875 0.0625 3.675
2.25 0.0625 3.675
2.1875 0 3.675
2.1875 0 3.6125
2.1875 0.125 3.675
2.25 0 3.6125
2.25 0.0625 3.6125
2.3125 0.125 3.6125
2.3125 0.0625 3.6125
2.375 0.125 3.6125
2.3125 0.0625 3.675
2.375 0.0625 3.675
2.3125 0 3.675
2.3125 0 3.6125
2.3125 0.125 3.675
2.375 0 3.6125
2.375 0.0625 3.6125
2.4375 0.125 3.6125
2.4375 0.0625 3.6125
2.5 0.125 3.6125
2.4375 0.0625 3.675
2.5 0.0625 3.675
2.4375 0 3.675
2.4375 0 3.6125
2.4375 0.125 3.675
2.5 0 3.6125
2.5 0.0625 3.6125
2.5625 0.125 3.6125
2.5625 0.0625 3.6125
2.625 0.125 3.6125
2.5625 0.0625 3.675
2.625 0.0625 3.675
2.5625 0 3.675
2.5625 0 3.6125
2.5625 0.125 3.675
2.625 0 3.6125
2.625 0.0625 3.6125
2.6875 0.125 3.6125
2.6875 0.0625 3.6125
2.75 0.125 3.6125
2.6875 0.0625 3.675
2.75 0.0625 3.675
2.6875 0 3.675
2.6875 0 3.6125
2.6875 0.125 3.675
2.75 0 3.6125
2.75 0.0625 3.6125
2.8125 0.125 3.6125
2.8125 0.0625 3.6125
2.875 0.125 3.6125
2.8125 0.0625 3.675
2.875 0.0625 3.675
2.8125 0 3.675
2.8125 0 3.6125
2.8125 0.125 3.675
2.875 0 3.6125
2.875 0.0625 3.6125
2.9375 0.125 3.6125
2.9375 0.0625 3.6125
3 0.125 3.6125
2.9375 0.0625 3.675
3 0.0625 3.675
2.9375 0 3.675
2.9375 0 3.6125
2.9375 0.125 3.675
3 0 3.6125
3 0.0625 3.6125
3.0625 0.125 3.6125
3.0625 0.0625 3.6125
3.125 0.125 3.6125
3.0625 0.0625 3.675
3.125 0.0625 3.675
3.0625 0 3.675
3.0625 0 3.6125
3.0625 0.125 3.675
3.125 0 3.6125
3.125 0.0625 3.6125
3.1875 0.125 3.6125
3.1875 0.0625 3.6125
3.25 0.125 3.6125
3.1875 0.0625 3.675
3.25 0.0625 3.675
3.1875 0 3.675
3.1875 0 3.6125
3.1875 0.125 3.675
3.25 0 3.6125
3.25 0.0625 3.6125
3.3125 0.125 3.6125
3.3125 0.0625 3.6125
3.375 0.125 3.6125
3.3125 0.0625 3.675
3.375 0.0625 3.675
3.3125 0 3.675
3.3125 0 3.6125
3.3125 0.125 3.675
3.375 0 3.6125
3.375 0.0625 3.6125
3.4375 0.125 3.6125
3.4375 0.0625 3.6125
3.5 0.125 3.6125
3.4375 0.0625 3.675
3.5 0.0625 3.675
3.4375 0 3.675
3.4375 0 3.6125
3.4375 0.125 3.675
3.5 0 3.6125
3.5 0.0625 3.6125
3.5625 0.125 3.6125
3.5625 0.0625 3.6125
3.625 0.125 3.6125
3.5625 0.0625 3.675
3.625 0.0625 3.675
3.5625 0 3.675
3.5625 0 3.6125
3.5625 0.125 3.675
3.625 0 3.6125
3.625 0.0625 3.6125
3.6875 0.125 3.6125
3.6875 0.0625 3.6125
3.75 0.125 3.6125
3.6875 0.0625 3.675
3.75 0.0625 3.675
3.6875 0 3.675
3.6875 0 3.6125
3.6875 0.125 3.675
3.75 0 3.6125
3.75 0.0625 3.6125
3.8125 0.125 3.6125
3.8125 0.0625 3.6125
3.875 0.125 3.6125
3.8125 0.0625 3.675
3.875 0.0625 3.675
3.8125 0 3.675
3.8125 0 3.6125
3.8125 0.125 3.675
3.875 0 3.6125
3.875 0.0625 3.6125
3.9375 0.125 3.6125
3.9375 0.0625 3.6125
4 0.125 3.6125
3.9375 0.0625 3.675
4 0.0625 3.675
3.9375 0 3.675
3.9375 0 3.6125
3.9375 0.125 3.675
4 0 3.6125
4 0.0625 3.6125
0.0625 0.25 3.6125
0.0625 0.1875 3.6125
0.125 0.25 3.6125
0.0625 0.1875 3.675
0.125 0.1875 3.675
0 0.25 3.6125
0 0.1875 3.6125
0.0625 0.25 3.675
0 0.1875 3.675
0.125 0.1875 3.6125
0.1875 0.25 3.6125
0.1875 0.1875 3.6125
0.25 0.25 3.6125
0.1875 0.1875 3.675
0.25 0.1875 3.675
0.1875 0.25 3.675
0.25 0.1875 3.6125
0.3125 0.25 3.6125
0.3125 0.1875 3.6125
0.375 0.25 3.6125
0.3125 0.1875 3.675
0.375 0.1875 3.675
0.3125 0.25 3.675
0.375 0.1875 3.6125
0.4375 0.25 3.6125
0.4375 0.1875 3.6125
0.5 0.25 3.6125
0.4375 0.1875 3.675
0.5 0.1875 3.675
0.4375 0.25 3.675
0.5 0.1875 3.6125
0.5625 0.25 3.6125
0.5625 0.1875 3.6125
0.625 0.25 3.6125
0.5625 0.1875 3.675
0.625 0.1875 3.675
0.5625 0.25 3.675
0.625 0.1875 3.6125
0.6875 0.25 3.6125
0.6875 0.1875 3.6125
0.75 0.25 3.6125
0.6875 0.1875 3.675
0.75 0.1875 3.675
0.6875 0.25 3.675
0.75 0.1875 3.6125
0.8125 0.25 3.6125
0.8125 0.1875 3.6125
0.875 0.25 3.6125
0.8125 0.1875 3.675
0.875 0.1875 3.675
0.8125 0.25 3.675
0.875 0.1875 3.6125
0.9375 0.25 3.6125
0.9375 0.1875 3.6125
1 0.25 3.6125
0.9375 0.1875 3.675
1 0.1875 3.675
0.9375 0.25 3.675
1 0.1875 3.6125
1.0625 0.25 3.6125
1.0625 0.1875 3.6125
1.125 0.25 3.6125
1.0625 0.1875 3.675
1.125 0.1875 3.675
1.0625 0.25 3.675
1.125 0.1875 3.6125
1.1875 0.25 3.6125
1.1875 0.1875 3.6125
1.25 0.25 3.6125
1.1875 0.1875 3.675
1.25 0.1875 3.675
1.1875 0.25 3.675
1.25 0.1875 3.6125
1.3125 0.25 3.6125
1.3125 0.1875 3.6125
1.375 0.25 3.6125
1.3125 0.1875 3.675
1.375 0.1875 3.675
1.3125 0.25 3.675
1.375 0.1875 3.6125
1.4375 0.25 3.6125
1.4375 0.1875 3.6125
1.5 0.25 3.6125
1.4375 0.1875 3.675
1.5 0.1875 3.675
1.4375 0.25 3.675
1.5 0.1875 3.6125
1.5625 0.25 3.6125
1.5625 0.1875 3.6125
1.625 0.25 3.6125
1.5625 0.1875 3.675
1.625 0.1875 3.675
1.5625 0.25 3.675
1.625 0.1875 3.6125
1.6875 0.25 3.6125
1.6875 0.1875 3.6125
1.75 0.25 3.6125
1.6875 0.1875 3.675
1.75 0.1875 3.675
1.6875 0.25 3.675
1.75 0.1875 3.6125
1.8125 0.25 3.6125
1.8125 0.1875 3.6125
1.875 0.25 3.6125
1.8125 0.1875 3.675
1.875 0.1875 3.675
1.8125 0.25 3.675
1.875 0.1875 3.6125
1.9375 0.25 3.6125
1.9375 0.1875 3.6125
2 0.25 3.6125
1.9375 0.1875 3.675
2 0.1875 3.675
1.9375 0.25 3.675
2 0.1875 3.6125
2.0625 0.25 3.6125
2.0625 0.1875 3.6125
2.125 0.25 3.6125
2.0625 0.1875 3.675
2.125 0.1875 3.675
2.0625 0.25 3.675
2.125 0.1875 3.6125
2.1875 0.25 3.6125
2.1875 0.1875 3.6125
2.25 0.25 3.6125
2.1875 0.1875 3.675
2.25 0.1875 3.675
2.1875 0.25 3.675
2.25 0.1875 3.6125
2.3125 0.25 3.6125
2.3125 0.1875 3.6125
2.375 0.25 3.6125
2.3125 0.1875 3.675
2.375 0.1875 3.675
2.3125 0.25 3.675
2.375 0.1875 3.6125
2.4375 0.25 3.6125
2.4375 0.1875 3.6125
2.5 0.25 3.6125
2.4375 0.1875 3.675
2.5 0.1875 3.675
2.4375 0.25 3.675
2.5 0.1875 3.6125
2.5625 0.25 3.6125
2.5625 0.1875 3.6125
2.625 0.25 3.6125
2.5625 0.1875 3.675
2.625 0.1875 3.675
2.5625 0.25 3.675
2.625 0.1875 3.6125
2.6875 0.25 3.6125
2.6875 0.1875 3.6125
2.75 0.25 3.6125
2.6875 0.1875 3.675
2.75 0.1875 3.675
2.6875 0.25 3.675
2.75 0.1875 3.6125
2.8125 0.25 3.6125
2.8125 0.1875 3.6125
2.875 0.25 3.6125
2.8125 0.1875 3.675
2.875 0.1875 3.675
2.8125 0.25 3.675
2.875 0.1875 3.6125
2.9375 0.25 3.6125
2.9375 0.1875 3.6125
3 0.25 3.6125
2.9375 0.1875 3.675
3 0.1875 3.675
2.9375 0.25 3.675
3 0.1875 3.6125
3.0625 0.25 3.6125
3.0625 0.1875 3.6125
3.125 0.25 3.6125
3.0625 0.1875 3.675
3.125 0.1875 3.675
3.0625 0.25 3.675
3.125 0.1875 3.6125
3.1875 0.25 3.6125
3.1875 0.1875 3.6125
3.25 0.25 3.6125
3.1875 0.1875 3.675
3.25 0.1875 3.675
3.1875 0.25 3.675
3.25 0.1875 3.6125
3.3125 0.25 3.6125
3.3125 0.1875 3.6125
3.375 0.25 3.6125
3.3125 0.1875 3.675
3.375 0.1875 3.675
3.3125 0.25 3.675
3.375 0.1875 3.6125
3.4375 0.25 3.6125
3.4375 0.1875 3.6125
3.5 0.25 3.6125
3.4375 0.1875 3.675
3.5 0.1875 3.675
3.4375 0.25 3.675
3.5 0.1875 3.6125
3.5625 0.25 3.6125
3.5625 0.1875 3.6125
3.625 0.25 3.6125
3.5625 0.1875 3.675
3.625 0.1875 3.675
3.5625 0.25 3.675
3.625 0.1875 3.6125
3.6875 0.25 3.6125
3.6875 0.1875 3.6125
3.75 0.25 3.6125
3.6875 0.1875 3.675
3.75 0.1875 3.675
3.6875 0.25 3.675
3.75 0.1875 3.6125
3.8125 0.25 3.6125
3.8125 0.1875 3.6125
3.875 0.25 3.6125
3.8125 0.1875 3.675
3.875 0.1875 3.675
3.8125 0.25 3.675
3.875 0.1875 3.6125
3.9375 0.25 3.6125
3.9375 0.1875 3.6125
4 0.25 3.6125
3.9375 0.1875 3.675
4 0.1875 3.675
3.9375 0.25 3.675
4 0.1875 3.6125
0.0625 0.375 3.6125
0.0625 0.3125 3.6125
0.125 0.375 3.6125
0.0625 0.3125 3.675
0.125 0.3125 3.675
0 0.375 3.6125
0 0.3125 3.6125
0.0625 0.375 3.675
0 0.3125 3.675
0.125 0.3125 3.6125
0.1875 0.375 3.6125
0.1875 0.3125 3.6125
0.25 0.375 3.6125
0.1875 0.3125 3.675
0.25 0.3125 3.675
0.1875 0.375 3.675
0.25 0.3125 3.6125
0.3125 0.375 3.6125
0.3125 0.3125 3.6125
0.375 0.375 3.6125
0.3125 0.3125 3.675
0.375 0.3125 3.675
0.3125 0.375 3.675
0.375 0.3125 3.6125
0.4375 0.375 3.6125
0.4375 0.3125 3.6125
0.5 0.375 3.6125
0.4375 0.3125 3.675
0.5 0.3125 3.675
0.4375 0.375 3.675
0.5 0.3125 3.6125
0.5625 0.375 3.6125
0.5625 0.3125 3.6125
0.625 0.375 3.6125
0.5625 0.3125 3.675
0.625 0.3125 3.675
0.5625 0.375 3.675
0.625 0.3125 3.6125
0.6875 0.375 3.6125
0.6875 0.3125 3.6125
0.75 0.375 3.6125
0.6875 0.3125 3.675
0.75 0.3125 3.675
0.6875 0.375 3.675
0.75 0.3125 3.6125
0.8125 0.375 3.6125
0.8125 0.3125 3.6125
0.875 0.375 3.6125
0.8125 0.3125 3.675
0.875 0.3125 3.675
0.8125 0.375 3.675
0.875 0.3125 3.6125
0.9375 0.375 3.6125
0.9375 0.3125 3.6125
1 0.375 3.6125
0.9375 0.3125 3.675
1 0.3125 3.675
0.9375 0.375 3.675
1 0.3125 3.6125
1.0625 0.375 3.6125
1.0625 0.3125 3.6125
1.125 0.375 3.6125
1.0625 0.3125 3.675
1.125 0.3125 3.675
1.0625 0.375 3.675
1.125 0.3125 3.6125
1.1875 0.375 3.6125
1.1875 0.3125 3.6125
1.25 0.375 3.6125
1.1875 0.3125 3.675
1.25 0.3125 3.675
1.1875 0.375 3.675
1.25 0.3125 3.6125
1.3125 0.375 3.6125
1.3125 0.3125 3.6125
1.375 0.375 3.6125
1.3125 0.3125 3.675
1.375 0.3125 3.675
1.3125 0.375 3.675
1.375 0.3125 3.6125
1.4375 0.375 3.6125
1.4375 0.3125 3.6125
1.5 0.375 3.6125
1.4375 0.3125 3.675
1.5 0.3125 3.675
1.4375 0.375 3.675
1.5 0.3125 3.6125
1.5625 0.375 3.6125
1.5625 0.3125 3.6125
1.625 0.375 3.6125
1.5625 0.3125 3.675
1.625 0.3125 3.675
1.5625 0.375 3.675
1.625 0.3125 3.6125
1.6875 0.375 3.6125
1.6875 0.3125 3.6125
1.75 0.375 3.6125
1.6875 0.3125 3.675
1.75 0.3125 3.675
1.6875 0.375 3.675
1.75 0.3125 3.6125
1.8125 0.375 3.6125
1.8125 0.3125 3.6125
1.875 0.375 3.6125
1.8125 0.3125 3.675
1.875 0.3125 3.675
1.8125 0.375 3.675
1.875 0.3125 3.6125
1.9375 0.375 3.6125
1.9375 0.3125 3.6125
2 0.375 3.6125
1.9375 0.3125 3.675
2 0.3125 3.675
1.9375 0.375 3.675
2 0.3125 3.6125
2.0625 0.375 3.6125
2.0625 0.3125 3.6125
2.125 0.375 3.6125
2.0625 0.3125 3.675
2.125 0.3125 3.675
2.0625 0.375 3.675
2.125 0.3125 3.6125
2.1875 0.375 3.6125
2.1875 0.3125 3.6125
2.25 0.375 3.6125
2.1875 0.3125 3.675
2.25 0.3125 3.675
2.1875 0.375 3.675
2.25 0.3125 3.6125
2.3125 0.375 3.6125
2.3125 0.3125 3.6125
2.375 0.375 3.6125
2.3125 0.3125 3.675
2.375 0.3125 3.675
2.3125 0.375 3.675
2.375 0.3125 3.6125
2.4375 0.375 3.6125
2.4375 0.3125 3.6125
2.5 0.375 3.6125
2.4375 0.3125 3.675
2.5 0.3125 3.675
2.4375 0.375 3.675
2.5 0.3125 3.6125
2.5625 0.375 3.6125
2.5625 0.3125 3.6125
2.625 0.375 3.6125
2.5625 0.3125 3.675
2.625 0.3125 3.675
2.5625 0.375 3.675
2.625 0.3125 3.6125
2.6875 0.375 3.6125
2.6875 0.3125 3.6125
2.75 0.375 3.6125
2.6875 0.3125 3.675
2.75 0.3125 3.675
2.6875 0.375 3.675
2.75 0.3125 3.6125
2.8125 0.375 3.6125
2.8125 0.3125 3.6125
2.875 0.375 3.6125
2.8125 0.3125 3.675
2.875 0.3125 3.675
2.8125 0.375 3.675
2.875 0.3125 3.6125
2.9375 0.375 3.6125
2.9375 0.3125 3.6125
3 0.375 3.6125
2.9375 0.3125 3.675
3 0.3125 3.675
2.9375 0.375 3.675
3 0.3125 3.6125
3.0625 0.375 3.6125
3.0625 0.3125 3.6125
3.125 0.375 3.6125
3.0625 0.3125 3.675
3.125 0.3125 3.675
3.0625 0.375 3.675
3.125 0.3125 3.6125
3.1875 0.375 3.6125
3.1875 0.3125 3.6125
3.25 0.375 3.6125
3.1875 0.3125 3.675
3.25 0.3125 3.675
3.1875 0.375 3.675
3.25 0.3125 3.6125
3.3125 0.375 3.6125
3.3125 0.3125 3.6125
3.375 0.375 3.6125
3.3125 0.3125 3.675
3.375 0.3125 3.675
3.3125 0.375 3.675
3.375 0.3125 3.6125
3.4375 0.375 3.6125
3.4375 0.3125 3.6125
3.5 0.375 3.6125
3.4375 0.3125 3.675
3.5 0.3125 3.675
3.4375 0.375 3.675
3.5 0.3125 3.6125
3.5625 0.375 3.6125
3.5625 0.3125 3.6125
3.625 0.375 3.6125
3.5625 0.3125 3.675
3.625 0.3125 3.675
3.5625 0.375 3.675
3.625 0.3125 3.6125
3.6875 0.375 3.6125
3.6875 0.3125 3.6125
3.75 0.375 3.6125
3.6875 0.3125 3.675
3.75 0.3125 3.675
3.6875 0.375 3.675
3.75 0.3125 3.6125
3.8125 0.375 3.6125
3.8125 0.3125 3.6125
3.875 0.375 3.6125
3.8125 0.3125 3.675
3.875 0.3125 3.675
3.8125 0.375 3.675
3.875 0.3125 3.6125
3.9375 0.375 3.6125
3.9375 0.3125 3.6125
4 0.375 3.6125
3.9375 0.3125 3.675
4 0.3125 3.675
3.9375 0.375 3.675
4 0.3125 3.6125
0.0625 0.5 3.6125
0.0625 0.4375 3.6125
0.125 0.5 3.6125
0.0625 0.4375 3.675
0.125 0.4375 3.675
0 0.5 3.6125
0 0.4375 3.6125
0.0625 0.5 3.675
0 0.4375 3.675
0.125 0.4375 3.6125
0.1875 0.5 3.6125
0.1875 0.4375 3.6125
0.25 0.5 3.6125
0.1875 0.4375 3.675
0.25 0.4375 3.675
0.1875 0.5 3.675
0.25 0.4375 3.6125
0.3125 0.5 3.6125
0.3125 0.4375 3.6125
0.375 0.5 3.6125
0.3125 0.4375 3.675
0.375 0.4375 3.675
0.3125 0.5 3.675
0.375 0.4375 3.6125
0.4375 0.5 3.6125
0.4375 0.4375 3.6125
0.5 0.5 3.6125
0.4375 0.4375 3.675
0.5 0.4375 3.675
0.4375 0.5 3.675
0.5 0.4375 3.6125
0.5625 0.5 3.6125
0.5625 0.4375 3.6125
0.625 0.5 3.6125
0.5625 0.4375 3.675
0.625 0.4375 3.675
0.5625 0.5 3.675
0.625 0.4375 3.6125
0.6875 0.5 3.6125
0.6875 0.4375 3.6125
0.75 0.5 3.6125
0.6875 0.4375 3.675
0.75 0.4375 3.675
0.6875 0.5 3.675
0.75 0.4375 3.6125
0.8125 0.5 3.6125
0.8125 0.4375 3.6125
0.875 0.5 3.6125
0.8125 0.4375 3.675
0.875 0.4375 3.675
0.8125 0.5 3.675
0.875 0.4375 3.6125
0.9375 0.5 3.6125
0.9375 0.4375 3.6125
1 0.5 3.6125
0.9375 0.4375 3.675
1 0.4375 3.675
0.9375 0.5 3.675
1 0.4375 3.6125
1.0625 0.5 3.6125
1.0625 0.4375 3.6125
1.125 0.5 3.6125
1.0625 0.4375 3.675
1.125 0.4375 3.675
1.0625 0.5 3.675
1.125 0.4375 3.6125
1.1875 0.5 3.6125
1.1875 0.4375 3.6125
1.25 0.5 3.6125
1.1875 0.4375 3.675
1.25 0.4375 3.675
1.1875 0.5 3.675
1.25 0.4375 3.6125
1.3125 0.5 3.6125
1.3125 0.4375 3.6125
1.375 0.5 3.6125
1.3125 0.4375 3.675
1.375 0.4375 3.675
1.3125 0.5 3.675
1.375 0.4375 3.6125
1.4375 0.5 3.6125
1.4375 0.4375 3.6125
1.5 0.5 3.6125
1.4375 0.4375 3.675
1.5 0.4375 3.675
1.4375 0.5 3.675
1.5 0.4375 3.6125
1.5625 0.5 3.6125
1.5625 0.4375 3.6125
1.625 0.5 3.6125
1.5625 0.4375 3.675
1.625 0.4375 3.675
1.5625 0.5 3.675
1.625 0.4375 3.6125
1.6875 0.5 3.6125
1.6875 0.4375 3.6125
1.75 0.5 3.6125
1.6875 0.4375 3.675
1.75 0.4375 3.675
1.6875 0.5 3.675
1.75 0.4375 3.6125
1.8125 0.5 3.6125
1.8125 0.4375 3.6125
1.875 0.5 3.6125
1.8125 0.4375 3.675
1.875 0.4375 3.675
1.8125 0.5 3.675
1.875 0.4375 3.6125
1.9375 0.5 3.6125
1.9375 0.4375 3.6125
2 0.5 3.6125
1.9375 0.4375 3.675
2 0.4375 3.675
1.9375 0.5 3.675
2 0.4375 3.6125
2.0625 0.5 3.6125
2.0625 0.4375 3.6125
2.125 0.5 3.6125
2.0625 0.4375 3.675
2.125 0.4375 3.675
2.0625 0.5 3.675
2.125 0.4375 3.6125
2.1875 0.5 3.6125
2.1875 0.4375 3.6125
2.25 0.5 3.6125
2.1875 0.4375 3.675
2.25 0.4375 3.675
2.1875 0.5 3.675
2.25 0.4375 3.6125
2.3125 0.5 3.6125
2.3125 0.4375 3.6125
2.375 0.5 3.6125
2.3125 0.4375 3.675
2.375 0.4375 3.675
2.3125 0.5 3.675
2.375 0.4375 3.6125
2.4375 0.5 3.6125
2.4375 0.4375 3.6125
2.5 0.5 3.6125
2.4375 0.4375 3.675
2.5 0.4375 3.675
2.4375 0.5 3.675
2.5 0.4375 3.6125
2.5625 0.5 3.6125
2.5625 0.4375 3.6125
2.625 0.5 3.6125
2.5625 0.4375 3.675
2.625 0.4375 3.675
2.5625 0.5 3.675
2.625 0.4375 3.6125
2.6875 0.5 3.6125
2.6875 0.4375 3.6125
2.75 0.5 3.6125
2.6875 0.4375 3.675
2.75 0.4375 3.675
2.6875 0.5 3.675
2.75 0.4375 3.6125
2.8125 0.5 3.6125
2.8125 0.4375 3.6125
2.875 0.5 3.6125
2.8125 0.4375 3.675
2.875 0.4375 3.675
2.8125 0.5 3.675
2.875 0.4375 3.6125
2.9375 0.5 3.6125
2.9375 0.4375 3.6125
3 0.5 3.6125
2.9375 0.4375 3.675
3 0.4375 3.675
2.9375 0.5 3.675
3 0.4375 3.6125
3.0625 0.5 3.6125
3.0625 0.4375 3.6125
3.125 0.5 3.6125
3.0625 0.4375 3.675
3.125 0.4375 3.675
3.0625 0.5 3.675
3.125 0.4375 3.6125
3.1875 0.5 3.6125
3.1875 0.4375 3.6125
3.25 0.5 3.6125
3.1875 0.4375 3.675
3.25 0.4375 3.675
3.1875 0.5 3.675
3.25 0.4375 3.6125
3.3125 0.5 3.6125
3.3125 0.4375 3.6125
3.375 0.5 3.6125
3.3125 0.4375 3.675
3.375 0.4375 3.675
3.3125 0.5 3.675
3.375 0.4375 3.6125
3.4375 0.5 3.6125
3.4375 0.4375 3.6125
3.5 0.5 3.6125
3.4375 0.4375 3.675
3.5 0.4375 3.675
3.4375 0.5 3.675
3.5 0.4375 3.6125
3.5625 0.5 3.6125
3.5625 0.4375 3.6125
3.625 0.5 3.6125
3.5625 0.4375 3.675
3.625 0.4375 3.675
3.5625 0.5 3.675
3.625 0.4375 3.6125
3.6875 0.5 3.6125
3.6875 0.4375 3.6125
3.75 0.5 3.6125
3.6875 0.4375 3.675
3.75 0.4375 3.675
3.6875 0.5 3.675
3.75 0.4375 3.6125
3.8125 0.5 3.6125
3.8125 0.4375 3.6125
3.875 0.5 3.6125
3.8125 0.4375 3.675
3.875 0.4375 3.675
3.8125 0.5 3.675
3.875 0.4375 3.6125
3.9375 0.5 3.6125
3.9375 0.4375 3.6125
4 0.5 3.6125
3.9375 0.4375 3.675
4 0.4375 3.675
3.9375 0.5 3.675
4 0.4375 3.6125
0.0625 0.625 3.6125
0.0625 0.5625 3.6125
0.125 0.625 3.6125
0.0625 0.5625 3.675
0.125 0.5625 3.675
0 0.625 3.6125
0 0.5625 3.6125
0.0625 0.625 3.675
0 0.5625 3.675
0.125 0.5625 3.6125
0.1875 0.625 3.6125
0.1875 0.5625 3.6125
0.25 0.625 3.6125
0.1875 0.5625 3.675
0.25 0.5625 3.675
0.1875 0.625 3.675
0.25 0.5625 3.6125
0.3125 0.625 3.6125
0.3125 0.5625 3.6125
0.375 0.625 3.6125
0.3125 0.5625 3.675
0.375 0.5625 3.675
0.3125 0.625 3.675
0.375 0.5625 3.6125
0.4375 0.625 3.6125
0.4375 0.5625 3.6125
0.5 0.625 3.6125
0.4375 0.5625 3.675
0.5 0.5625 3.675
0.4375 0.625 3.675
0.5 0.5625 3.6125
0.5625 0.625 3.6125
0.5625 0.5625 3.6125
0.625 0.625 3.6125
0.5625 0.5625 3.675
0.625 0.5625 3.675
0.5625 0.625 3.675
0.625 0.5625 3.6125
0.6875 0.625 3.6125
0.6875 0.5625 3.6125
0.75 0.625 3.6125
0.6875 0.5625 3.675
0.75 0.5625 3.675
0.6875 0.625 3.675
0.75 0.5625 3.6125
0.8125 0.625 3.6125
0.8125 0.5625 3.6125
0.875 0.625 3.6125
0.8125 0.5625 3.675
0.875 0.5625 3.675
0.8125 0.625 3.675
0.875 0.5625 3.6125
0.9375 0.625 3.6125
0.9375 0.5625 3.6125
1 0.625 3.6125
0.9375 0.5625 3.675
1 0.5625 3.675
0.9375 0.625 3.675
1 0.5625 3.6125
1.0625 0.625 3.6125
1.0625 0.5625 3.6125
1.125 0.625 3.6125
1.0625 0.5625 3.675
1.125 0.5625 3.675
1.0625 0.625 3.675
1.125 0.5625 3.6125
1.1875 0.625 3.6125
1.1875 0.5625 3.6125
1.25 0.625 3.6125
1.1875 0.5625 3.675
1.25 0.5625 3.675
1.1875 0.625 3.675
1.25 0.5625 3.6125
1.3125 0.625 3.6125
1.3125 0.5625 3.6125
1.375 0.625 3.6125
1.3125 0.5625 3.675
1.375 0.5625 3.675
1.3125 0.625 3.675
1.375 0.5625 3.6125
1.4375 0.625 3.6125
1.4375 0.5625 3.6125
1.5 0.625 3.6125
1.4375 0.5625 3.675
1.5 0.5625 3.675
1.4375 0.625 3.675
1.5 0.5625 3.6125
1.5625 0.625 3.6125
1.5625 0.5625 3.6125
1.625 0.625 3.6125
1.5625 0.5625 3.675
1.625 0.5625 3.675
1.5625 0.625 3.675
1.625 0.5625 3.6125
1.6875 0.625 3.6125
1.6875 0.5625 3.6125
1.75 0.625 3.6125
1.6875 0.5625 3.675
1.75 0.5625 3.675
1.6875 0.625 3.675
1.75 0.5625 3.6125
1.8125 0.625 3.6125
1.8125 0.5625 3.6125
1.875 0.625 3.6125
1.8125 0.5625 3.675
1.875 0.5625 3.675
1.8125 0.625 3.675
1.875 0.5625 3.6125
1.9375 0.625 3.6125
1.9375 0.5625 3.6125
2 0.625 3.6125
1.9375 0.5625 3.675
2 0.5625 3.675
1.9375 0.625 3.675
2 0.5625 3.6125
2.0625 0.625 3.6125
2.0625 0.5625 3.6125
2.125 0.625 3.6125
2.0625 0.5625 3.675
2.125 0.5625 3.675
2.0625 0.625 3.675
2.125 0.5625 3.6125
2.1875 0.625 3.6125
2.1875 0.5625 3.6125
2.25 0.625 3.6125
2.1875 0.5625 3.675
2.25 0.5625 3.675
2.1875 0.625 3.675
2.25 0.5625 3.6125
2.3125 0.625 3.6125
2.3125 0.5625 3.6125
2.375 0.625 3.6125
2.3125 0.5625 3.675
2.375 0.5625 3.675
2.3125 0.625 3.675
2.375 0.5625 3.6125
2.4375 0.625 3.6125
2.4375 0.5625 3.6125
2.5 0.625 3.6125
2.4375 0.5625 3.675
2.5 0.5625 3.675
2.4375 0.625 3.675
2.5 0.5625 3.6125
2.5625 0.625 3.6125
2.5625 0.5625 3.6125
2.625 0.625 3.6125
2.5625 0.5625 3.675
2.625 0.5625 3.675
2.5625 0.625 3.675
2.625 0.5625 3.6125
2.6875 0.625 3.6125
2.6875 0.5625 3.6125
2.75 0.625 3.6125
2.6875 0.5625 3.675
2.75 0.5625 3.675
2.6875 0.625 3.675
2.75 0.5625 3.6125
2.8125 0.625 3.6125
2.8125 0.5625 3.6125
2.875 0.625 3.6125
2.8125 0.5625 3.675
2.875 0.5625 3.675
2.8125 0.625 3.675
2.875 0.5625 3.6125
2.9375 0.625 3.6125
2.9375 0.5625 3.6125
3 0.625 3.6125
2.9375 0.5625 3.675
3 0.5625 3.675
2.9375 0.625 3.675
3 0.5625 3.6125
3.0625 0.625 3.6125
3.0625 0.5625 3.6125
3.125 0.625 3.6125
3.0625 0.5625 3.675
3.125 0.5625 3.675
3.0625 0.625 3.675
3.125 0.5625 3.6125
3.1875 0.625 3.6125
3.1875 0.5625 3.6125
3.25 0.625 3.6125
3.1875 0.5625 3.675
3.25 0.5625 3.675
3.1875 0.625 3.675
3.25 0.5625 3.6125
3.3125 0.625 3.6125
3.3125 0.5625 3.6125
3.375 0.625 3.6125
3.3125 0.5625 3.675
3.375 0.5625 3.675
3.3125 0.625 3.675
3.375 0.5625 3.6125
3.4375 0.625 3.6125
3.4375 0.5625 3.6125
3.5 0.625 3.6125
3.4375 0.5625 3.675
3.5 0.5625 3.675
3.4375 0.625 3.675
3.5 0.5625 3.6125
3.5625 0.625 3.6125
3.5625 0.5625 3.6125
3.625 0.625 3.6125
3.5625 0.5625 3.675
3.625 0.5625 3.675
3.5625 0.625 3.675
3.625 0.5625 3.6125
3.6875 0.625 3.6125
3.6875 0.5625 3.6125
3.75 0.625 3.6125
3.6875 0.5625 3.675
3.75 0.5625 3.675
3.6875 0.625 3.675
3.75 0.5625 3.6125
3.8125 0.625 3.6125
3.8125 0.5625 3.6125
3.875 0.625 3.6125
3.8125 0.5625 3.675
3.875 0.5625 3.675
3.8125 0.625 3.675
3.875 0.5625 3.6125
3.9375 0.625 3.6125
3.9375 0.5625 3.6125
4 0.625 3.6125
3.9375 0.5625 3.675
4 0.5625 3.675
3.9375 0.625 3.675
4 0.5625 3.6125
0.0625 0.75 3.6125
0.0625 0.6875 3.6125
0.125 0.75 3.6125
0.0625 0.6875 3.675
0.125 0.6875 3.675
0 0.75 3.6125
0 0.6875 3.6125
0.0625 0.75 3.675
0 0.6875 3.675
0.125 0.6875 3.6125
0.1875 0.75 3.6125
0.1875 0.6875 3.6125
0.25 0.75 3.6125
0.1875 0.6875 3.675
0.25 0.6875 3.675
0.1875 0.75 3.675
0.25 0.6875 3.6125
0.3125 0.75 3.6125
0.3125 0.6875 3.6125
0.375 0.75 3.6125
0.3125 0.6875 3.675
0.375 0.6875 3.675
0.3125 0.75 3.675
0.375 0.6875 3.6125
0.4375 0.75 3.6125
0.4375 0.6875 3.6125
0.5 0.75 3.6125
0.4375 0.6875 3.675
0.5 0.6875 3.675
0.4375 0.75 3.675
0.5 0.6875 3.6125
0.5625 0.75 3.6125
0.5625 0.6875 3.6125
0.625 0.75 3.6125
0.5625 0.6875 3.675
0.625 0.6875 3.675
0.5625 0.75 3.675
0.625 0.6875 3.6125
0.6875 0.75 3.6125
0.6875 0.6875 3.6125
0.75 0.75 3.6125
0.6875 0.6875 3.675
0.75 0.6875 3.675
0.6875 0.75 3.675
0.75 0.6875 3.6125
0.8125 0.75 3.6125
0.8125 0.6875 3.6125
0.875 0.75 3.6125
0.8125 0.6875 3.675
0.875 0.6875 3.675
0.8125 0.75 3.675
0.875 0.6875 3.6125
0.9375 0.75 3.6125
0.9375 0.6875 3.6125
1 0.75 3.6125
0.9375 0.6875 3.675
1 0.6875 3.675
0.9375 0.75 3.675
1 0.6875 3.6125
1.0625 0.75 3.6125
1.0625 0.6875 3.6125
1.125 0.75 3.6125
1.0625 0.6875 3.675
1.125 0.6875 3.675
1.0625 0.75 3.675
1.125 0.6875 3.6125
1.1875 0.75 3.6125
1.1875 0.6875 3.6125
1.25 0.75 3.6125
1.1875 0.6875 3.675
1.25 0.6875 3.675
1.1875 0.75 3.675
1.25 0.6875 3.6125
1.3125 0.75 3.6125
1.3125 0.6875 3.6125
1.375 0.75 3.6125
1.3125 0.6875 3.675
1.375 0.6875 3.675
1.3125 0.75 3.675
1.375 0.6875 3.6125
1.4375 0.75 3.6125
1.4375 0.6875 3.6125
1.5 0.75 3.6125
1.4375 0.6875 3.675
1.5 0.6875 3.675
1.4375 0.75 3.675
1.5 0.6875 3.6125
1.5625 0.75 3.6125
1.5625 0.6875 3.6125
1.625 0.75 3.6125
1.5625 0.6875 3.675
1.625 0.6875 3.675
1.5625 0.75 3.675
1.625 0.6875 3.6125
1.6875 0.75 3.6125
1.6875 0.6875 3.6125
1.75 0.75 3.6125
1.6875 0.6875 3.675
1.75 0.6875 3.675
1.6875 0.75 3.675
1.75 0.6875 3.6125
1.8125 0.75 3.6125
1.8125 0.6875 3.6125
1.875 0.75 3.6125
1.8125 0.6875 3.675
1.875 0.6875 3.675
1.8125 0.75 3.675
1.875 0.6875 3.6125
1.9375 0.75 3.6125
1.9375 0.6875 3.6125
2 0.75 3.6125
1.9375 0.6875 3.675
2 0.6875 3.675
1.9375 0.75 3.675
2 0.6875 3.6125
2.0625 0.75 3.6125
2.0625 0.6875 3.6125
2.125 0.75 3.6125
2.0625 0.6875 3.675
2.125 0.6875 3.675
2.0625 0.75 3.675
2.125 0.6875 3.6125
2.1875 0.75 3.6125
2.1875 0.6875 3.6125
2.25 0.75 3.6125
2.1875 0.6875 3.675
2.25 0.6875 3.675
2.1875 0.75 3.675
2.25 0.6875 3.6125
2.3125 0.75 3.6125
2.3125 0.6875 3.6125
2.375 0.75 3.6125
2.3125 0.6875 3.675
2.375 0.6875 3.675
2.3125 0.75 3.675
2.375 0.6875 3.6125
2.4375 0.75 3.6125
2.4375 0.6875 3.6125
2.5 0.75 3.6125
2.4375 0.6875 3.675
2.5 0.6875 3.675
2.4375 0.75 3.675
2.5 0.6875 3.6125
2.5625 0.75 3.6125
2.5625 0.6875 3.6125
2.625 0.75 3.6125
2.5625 0.6875 3.675
2.625 0.6875 3.675
2.5625 0.75 3.675
2.625 0.6875 3.6125
2.6875 0.75 3.6125
2.6875 0.6875 3.6125
2.75 0.75 3.6125
2.6875 0.6875 3.675
2.75 0.6875 3.675
2.6875 0.75 3.675
2.75 0.6875 3.6125
2.8125 0.75 3.6125
2.8125 0.6875 3.6125
2.875 0.75 3.6125
2.8125 0.6875 3.675
2.875 0.6875 3.675
2.8125 0.75 3.675
2.875 0.6875 3.6125
2.9375 0.75 3.6125
2.9375 0.6875 3.6125
3 0.75 3.6125
2.9375 0.6875 3.675
3 0.6875 3.675
2.9375 0.75 3.675
3 0.6875 3.6125
3.0625 0.75 3.6125
3.0625 0.6875 3.6125
3.125 0.75 3.6125
3.0625 0.6875 3.675
3.125 0.6875 3.675
3.0625 0.75 3.675
3.125 0.6875 3.6125
3.1875 0.75 3.6125
3.1875 0.6875 3.6125
3.25 0.75 3.6125
3.1875 0.6875 3.675
3.25 0.6875 3.675
3.1875 0.75 3.675
3.25 0.6875 3.6125
3.3125 0.75 3.6125
3.3125 0.6875 3.6125
3.375 0.75 3.6125
3.3125 0.6875 3.675
3.375 0.6875 3.675
3.3125 0.75 3.675
3.375 0.6875 3.6125
3.4375 0.75 3.6125
3.4375 0.6875 3.6125
3.5 0.75 3.6125
3.4375 0.6875 3.675
3.5 0.6875 3.675
3.4375 0.75 3.675
3.5 0.6875 3.6125
3.5625 0.75 3.6125
3.5625 0.6875 3.6125
3.625 0.75 3.6125
3.5625 0.6875 3.675
3.625 0.6875 3.675
3.5625 0.75 3.675
3.625 0.6875 3.6125
3.6875 0.75 3.6125
3.6875 0.6875 3.6125
3.75 0.75 3.6125
3.6875 0.6875 3.675
3.75 0.6875 3.675
3.6875 0.75 3.675
3.75 0.6875 3.6125
3.8125 0.75 3.6125
3.8125 0.6875 3.6125
3.875 0.75 3.6125
3.8125 0.6875 3.675
3.875 0.6875 3.675
3.8125 0.75 3.675
3.875 0.6875 3.6125
3.9375 0.75 3.6125
3.9375 0.6875 3.6125
4 0.75 3.6125
3.9375 0.6875 3.675
4 0.6875 3.675
3.9375 0.75 3.675
4 0.6875 3.6125
0.0625 0.875 3.6125
0.0625 0.8125 3.6125
0.125 0.875 3.6125
0.0625 0.8125 3.675
0.125 0.8125 3.675
0 0.875 3.6125
0 0.8125 3.6125
0.0625 0.875 3.675
0 0.8125 3.675
0.125 0.8125 3.6125
0.1875 0.875 3.6125
0.1875 0.8125 3.6125
0.25 0.875 3.6125
0.1875 0.8125 3.675
0.25 0.8125 3.675
0.1875 0.875 3.675
0.25 0.8125 3.6125
0.3125 0.875 3.6125
0.3125 0.8125 3.6125
0.375 0.875 3.6125
0.3125 0.8125 3.675
0.375 0.8125 3.675
0.3125 0.875 3.675
0.375 0.8125 3.6125
0.4375 0.875 3.6125
0.4375 0.8125 3.6125
0.5 0.875 3.6125
0.4375 0.8125 3.675
0.5 0.8125 3.675
0.4375 0.875 3.675
0.5 0.8125 3.6125
0.5625 0.875 3.6125
0.5625 0.8125 3.6125
0.625 0.875 3.6125
0.5625 0.8125 3.675
0.625 0.8125 3.675
0.5625 0.875 3.675
0.625 0.8125 3.6125
0.6875 0.875 3.6125
0.6875 0.8125 3.6125
0.75 0.875 3.6125
0.6875 0.8125 3.675
0.75 0.8125 3.675
0.6875 0.875 3.675
0.75 0.8125 3.6125
0.8125 0.875 3.6125
0.8125 0.8125 3.6125
0.875 0.875 3.6125
0.8125 0.8125 3.675
0.875 0.8125 3.675
0.8125 0.875 3.675
0.875 0.8125 3.6125
0.9375 0.875 3.6125
0.9375 0.8125 3.6125
1 0.875 3.6125
0.9375 0.8125 3.675
1 0.8125 3.675
0.9375 0.875 3.675
1 0.8125 3.6125
1.0625 0.875 3.6125
1.0625 0.8125 3.6125
1.125 0.875 3.6125
1.0625 0.8125 3.675
1.125 0.8125 3.675
1.0625 0.875 3.675
1.125 0.8125 3.6125
1.1875 0.875 3.6125
1.1875 0.8125 3.6125
1.25 0.875 3.6125
1.1875 0.8125 3.675
1.25 0.8125 3.675
1.1875 0.875 3.675
1.25 0.8125 3.6125
1.3125 0.875 3.6125
1.3125 0.8125 3.6125
1.375 0.875 3.6125
1.3125 0.8125 3.675
1.375 0.8125 3.675
1.3125 0.875 3.675
1.375 0.8125 3.6125
1.4375 0.875 3.6125
1.4375 0.8125 3.6125
1.5 0.875 3.6125
1.4375 0.8125 3.675
1.5 0.8125 3.675
1.4375 0.875 3.675
1.5 0.8125 3.6125
1.5625 0.875 3.6125
1.5625 0.8125 3.6125
1.625 0.875 3.6125
1.5625 0.8125 3.675
1.625 0.8125 3.675
1.5625 0.875 3.675
1.625 0.8125 3.6125
1.6875 0.875 3.6125
1.6875 0.8125 3.6125
1.75 0.875 3.6125
1.6875 0.8125 3.675
1.75 0.8125 3.675
1.6875 0.875 3.675
1.75 0.8125 3.6125
1.8125 0.875 3.6125
1.8125 0.8125 3.6125
1.875 0.875 3.6125
1.8125 0.8125 3.675
1.875 0.8125 3.675
1.8125 0.875 3.675
1.875 0.8125 3.6125
1.9375 0.875 3.6125
1.9375 0.8125 3.6125
2 0.875 3.6125
1.9375 0.8125 3.675
2 0.8125 3.675
1.9375 0.875 3.675
2 0.8125 3.6125
2.0625 0.875 3.6125
2.0625 0.8125 3.6125
2.125 0.875 3.6125
2.0625 0.8125 3.675
2.125 0.8125 3.675
2.0625 0.875 3.675
2.125 0.8125 3.6125
2.1875 0.875 3.6125
2.1875 0.8125 3.6125
2.25 0.875 3.6125
2.1875 0.8125 3.675
2.25 0.8125 3.675
2.1875 0.875 3.675
2.25 0.8125 3.6125
2.3125 0.875 3.6125
2.3125 0.8125 3.6125
2.375 0.875 3.6125
2.3125 0.8125 3.675
2.375 0.8125 3.675
2.3125 0.875 3.675
2.375 0.8125 3.6125
2.4375 0.875 3.6125
2.4375 0.8125 3.6125
2.5 0.875 3.6125
2.4375 0.8125 3.675
2.5 0.8125 3.675
2.4375 0.875 3.675
2.5 0.8125 3.6125
2.5625 0.875 3.6125
2.5625 0.8125 3.6125
2.625 0.875 3.6125
2.5625 0.8125 3.675
2.625 0.8125 3.675
2.5625 0.875 3.675
2.625 0.8125 3.6125
2.6875 0.875 3.6125
2.6875 0.8125 3.6125
2.75 0.875 3.6125
2.6875 0.8125 3.675
2.75 0.8125 3.675
2.6875 0.875 3.675
2.75 0.8125 3.6125
2.8125 0.875 3.6125
2.8125 0.8125 3.6125
2.875 0.875 3.6125
2.8125 0.8125 3.675
2.875 0.8125 3.675
2.8125 0.875 3.675
2.875 0.8125 3.6125
2.9375 0.875 3.6125
2.9375 0.8125 3.6125
3 0.875 3.6125
2.9375 0.8125 3.675
3 0.8125 3.675
2.9375 0.875 3.675
3 0.8125 3.6125
3.0625 0.875 3.6125
3.0625 0.8125 3.6125
3.125 0.875 3.6125
3.0625 0.8125 3.675
3.125 0.8125 3.675
3.0625 0.875 3.675
3.125 0.8125 3.6125
3.1875 0.875 3.6125
3.1875 0.8125 3.6125
3.25 0.875 3.6125
3.1875 0.8125 3.675
3.25 0.8125 3.675
3.1875 0.875 3.675
3.25 0.8125 3.6125
3.3125 0.875 3.6125
3.3125 0.8125 3.6125
3.375 0.875 3.6125
3.3125 0.8125 3.675
3.375 0.8125 3.675
3.3125 0.875 3.675
3.375 0.8125 3.6125
3.4375 0.875 3.6125
3.4375 0.8125 3.6125
3.5 0.875 3.6125
3.4375 0.8125 3.675
3.5 0.8125 3.675
3.4375 0.875 3.675
3.5 0.8125 3.6125
3.5625 0.875 3.6125
3.5625 0.8125 3.6125
3.625 0.875 3.6125
3.5625 0.8125 3.675
3.625 0.8125 3.675
3.5625 0.875 3.675
3.625 0.8125 3.6125
3.6875 0.875 3.6125
3.6875 0.8125 3.6125
3.75 0.875 3.6125
3.6875 0.8125 3.675
3.75 0.8125 3.675
3.6875 0.875 3.675
3.75 0.8125 3.6125
3.8125 0.875 3.6125
3.8125 0.8125 3.6125
3.875 0.875 3.6125
3.8125 0.8125 3.675
3.875 0.8125 3.675
3.8125 0.875 3.675
3.875 0.8125 3.6125
3.9375 0.875 3.6125
3.9375 0.8125 3.6125
4 0.875 3.6125
3.9375 0.8125 3.675
4 0.8125 3.675
3.9375 0.875 3.675
4 0.8125 3.6125
0.0625 1 3.6125
0.0625 0.9375 3.6125
0.125 1 3.6125
0.0625 0.9375 3.675
0.125 0.9375 3.675
0 1 3.6125
0 0.9375 3.6125
0.0625 1 3.675
0 0.9375 3.675
0.125 0.9375 3.6125
0.1875 1 3.6125
0.1875 0.9375 3.6125
0.25 1 3.6125
0.1875 0.9375 3.675
0.25 0.9375 3.675
0.1875 1 3.675
0.25 0.9375 3.6125
0.3125 1 3.6125
0.3125 0.9375 3.6125
0.375 1 3.6125
0.3125 0.9375 3.675
0.375 0.9375 3.675
0.3125 1 3.675
0.375 0.9375 3.6125
0.4375 1 3.6125
0.4375 0.9375 3.6125
0.5 1 3.6125
0.4375 0.9375 3.675
0.5 0.9375 3.675
0.4375 1 3.675
0.5 0.9375 3.6125
0.5625 1 3.6125
0.5625 0.9375 3.6125
0.625 1 3.6125
0.5625 0.9375 3.675
0.625 0.9375 3.675
0.5625 1 3.675
0.625 0.9375 3.6125
0.6875 1 3.6125
0.6875 0.9375 3.6125
0.75 1 3.6125
0.6875 0.9375 3.675
0.75 0.9375 3.675
0.6875 1 3.675
0.75 0.9375 3.6125
0.8125 1 3.6125
0.8125 0.9375 3.6125
0.875 1 3.6125
0.8125 0.9375 3.675
0.875 0.9375 3.675
0.8125 1 3.675
0.875 0.9375 3.6125
0.9375 1 3.6125
0.9375 0.9375 3.6125
1 1 3.6125
0.9375 0.9375 3.675
1 0.9375 3.675
0.9375 1 3.675
1 0.9375 3.6125
1.0625 1 3.6125
1.0625 0.9375 3.6125
1.125 1 3.6125
1.0625 0.9375 3.675
1.125 0.9375 3.675
1.0625 1 3.675
1.125 0.9375 3.6125
1.1875 1 3.6125
1.1875 0.9375 3.6125
1.25 1 3.6125
1.1875 0.9375 3.675
1.25 0.9375 3.675
1.1875 1 3.675
1.25 0.9375 3.6125
1.3125 1 3.6125
1.3125 0.9375 3.6125
1.375 1 3.6125
1.3125 0.9375 3.675
1.375 0.9375 3.675
1.3125 1 3.675
1.375 0.9375 3.6125
1.4375 1 3.6125
1.4375 0.9375 3.6125
1.5 1 3.6125
1.4375 0.9375 3.675
1.5 0.9375 3.675
1.4375 1 3.675
1.5 0.9375 3.6125
1.5625 1 3.6125
1.5625 0.9375 3.6125
1.625 1 3.6125
1.5625 0.9375 3.675
1.625 0.9375 3.675
1.5625 1 3.675
1.625 0.9375 3.6125
1.6875 1 3.6125
1.6875 0.9375 3.6125
1.75 1 3.6125
1.6875 0.9375 3.675
1.75 0.9375 3.675
1.6875 1 3.675
1.75 0.9375 3.6125
1.8125 1 3.6125
1.8125 0.9375 3.6125
1.875 1 3.6125
1.8125 0.9375 3.675
1.875 0.9375 3.675
1.8125 1 3.675
1.875 0.9375 3.6125
1.9375 1 3.6125
1.9375 0.9375 3.6125
2 1 3.6125
1.9375 0.9375 3.675
2 0.9375 3.675
1.9375 1 3.675
2 0.9375 3.6125
2.0625 1 3.6125
2.0625 0.9375 3.6125
2.125 1 3.6125
2.0625 0.9375 3.675
2.125 0.9375 3.675
2.0625 1 3.675
2.125 0.9375 3.6125
2.1875 1 3.6125
2.1875 0.9375 3.6125
2.25 1 3.6125
2.1875 0.9375 3.675
2.25 0.9375 3.675
2.1875 1 3.675
2.25 0.9375 3.6125
2.3125 1 3.6125
2.3125 0.9375 3.6125
2.375 1 3.6125
2.3125 0.9375 3.675
2.375 0.9375 3.675
2.3125 1 3.675
2.375 0.9375 3.6125
2.4375 1 3.6125
2.4375 0.9375 3.6125
2.5 1 3.6125
2.4375 0.9375 3.675
2.5 0.9375 3.675
2.4375 1 3.675
2.5 0.9375 3.6125
2.5625 1 3.6125
2.5625 0.9375 3.6125
2.625 1 3.6125
2.5625 0.9375 3.675
2.625 0.9375 3.675
2.5625 1 3.675
2.625 0.9375 3.6125
2.6875 1 3.6125
2.6875 0.9375 3.6125
2.75 1 3.6125
2.6875 0.9375 3.675
2.75 0.9375 3.675
2.6875 1 3.675
2.75 0.9375 3.6125
2.8125 1 3.6125
2.8125 0.9375 3.6125
2.875 1 3.6125
2.8125 0.9375 3.675
2.875 0.9375 3.675
2.8125 1 3.675
2.875 0.9375 3.6125
2.9375 1 3.6125
2.9375 0.9375 3.6125
3 1 3.6125
2.9375 0.9375 3.675
3 0.9375 3.675
2.9375 1 3.675
3 0.9375 3.6125
3.0625 1 3.6125
3.0625 0.9375 3.6125
3.125 1 3.6125
3.0625 0.9375 3.675
3.125 0.9375 3.675
3.0625 1 3.675
3.125 0.9375 3.6125
3.1875 1 3.6125
3.1875 0.9375 3.6125
3.25 1 3.6125
3.1875 0.9375 3.675
3.25 0.9375 3.675
3.1875 1 3.675
3.25 0.9375 3.6125
3.3125 1 3.6125
3.3125 0.9375 3.6125
3.375 1 3.6125
3.3125 0.9375 3.675
3.375 0.9375 3.675
3.3125 1 3.675
3.375 0.9375 3.6125
3.4375 1 3.6125
3.4375 0.9375 3.6125
3.5 1 3.6125
3.4375 0.9375 3.675
3.5 0.9375 3.675
3.4375 1 3.675
3.5 0.9375 3.6125
3.5625 1 3.6125
3.5625 0.9375 3.6125
3.625 1 3.6125
3.5625 0.9375 3.675
3.625 0.9375 3.675
3.5625 1 3.675
3.625 0.9375 3.6125
3.6875 1 3.6125
3.6875 0.9375 3.6125
3.75 1 3.6125
3.6875 0.9375 3.675
3.75 0.9375 3.675
3.6875 1 3.675
3.75 0.9375 3.6125
3.8125 1 3.6125
3.8125 0.9375 3.6125
3.875 1 3.6125
3.8125 0.9375 3.675
3.875 0.9375 3.675
3.8125 1 3.675
3.875 0.9375 3.6125
3.9375 1 3.6125
3.9375 0.9375 3.6125
4 1 3.6125
3.9375 0.9375 3.675
4 0.9375 3.675
3.9375 1 3.675
4 0.9375 3.6125
0.0625 0.125 3.7375
0.0625 0.0625 3.7375
0.125 0.125 3.7375
0.0625 0.0625 3.8
0.125 0.0625 3.8
0.0625 0 3.8
0 0 3.7375
0.0625 0 3.7375
0 0.125 3.7375
0 0.0625 3.7375
0.0625 0.125 3.8
0 0.0625 3.8
0.125 0 3.7375
0.125 0.0625 3.7375
0.1875 0.125 3.7375
0.1875 0.0625 3.7375
0.25 0.125 3.7375
0.1875 0.0625 3.8
0.25 0.0625 3.8
0.1875 0 3.8
0.1875 0 3.7375
0.1875 0.125 3.8
0.25 0 3.7375
0.25 0.0625 3.7375
0.3125 0.125 3.7375
0.3125 0.0625 3.7375
0.375 0.125 3.7375
0.3125 0.0625 3.8
0.375 0.0625 3.8
0.3125 0 3.8
0.3125 0 3.7375
0.3125 0.125 3.8
0.375 0 3.7375
0.375 0.0625 3.7375
0.4375 0.125 3.7375
0.4375 0.0625 3.7375
0.5 0.125 3.7375
0.4375 0.0625 3.8
0.5 0.0625 3.8
0.4375 0 3.8
0.4375 0 3.7375
0.4375 0.125 3.8
0.5 0 3.7375
0.5 0.0625 3.7375
0.5625 0.125 3.7375
0.5625 0.0625 3.7375
0.625 0.125 3.7375
0.5625 0.0625 3.8
0.625 0.0625 3.8
0.5625 0 3.8
0.5625 0 3.7375
0.5625 0.125 3.8
0.625 0 3.7375
0.625 0.0625 3.7375
0.6875 0.125 3.7375
0.6875 0.0625 3.7375
0.75 0.125 3.7375
0.6875 0.0625 3.8
0.75 0.0625 3.8
0.6875 0 3.8
0.6875 0 3.7375
0.6875 0.125 3.8
0.75 0 3.7375
0.75 0.0625 3.7375
0.8125 0.125 3.7375
0.8125 0.0625 3.7375
0.875 0.125 3.7375
0.8125 0.0625 3.8
0.875 0.0625 3.8
0.8125 0 3.8
0.8125 0 3.7375
0.8125 0.125 3.8
0.875 0 3.7375
0.875 0.0625 3.7375
0.9375 0.125 3.7375
0.9375 0.0625 3.7375
1 0.125 3.7375
0.9375 0.0625 3.8
1 0.0625 3.8
0.9375 0 3.8
0.9375 0 3.7375
0.9375 0.125 3.8
1 0 3.7375
1 0.0625 3.7375
1.0625 0.125 3.7375
1.0625 0.0625 3.7375
1.125 0.125 3.7375
1.0625 0.0625 3.8
1.125 0.0625 3.8
1.0625 0 3.8
1.0625 0 3.7375
1.0625 0.125 3.8
1.125 0 3.7375
1.125 0.0625 3.7375
1.1875 0.125 3.7375
1.1875 0.0625 3.7375
1.25 0.125 3.7375
1.1875 0.0625 3.8
1.25 0.0625 3.8
1.1875 0 3.8
1.1875 0 3.7375
1.1875 0.125 3.8
1.25 0 3.7375
1.25 0.0625 3.7375
1.3125 0.125 3.7375
1.3125 0.0625 3.7375
1.375 0.125 3.7375
1.3125 0.0625 3.8
1.375 0.0625 3.8
1.3125 0 3.8
1.3125 0 3.7375
1.3125 0.125 3.8
1.375 0 3.7375
1.375 0.0625 3.7375
1.4375 0.125 3.7375
1.4375 0.0625 3.7375
1.5 0.125 3.7375
1.4375 0.0625 3.8
1.5 0.0625 3.8
1.4375 0 3.8
1.4375 0 3.7375
1.4375 0.125 3.8
1.5 0 3.7375
1.5 0.0625 3.7375
1.5625 0.125 3.7375
1.5625 0.0625 3.7375
1.625 0.125 3.7375
1.5625 0.0625 3.8
1.625 0.0625 3.8
1.5625 0 3.8
1.5625 0 3.7375
1.5625 0.125 3.8
1.625 0 3.7375
1.625 0.0625 3.7375
1.6875 0.125 3.7375
1.6875 0.0625 3.7375
1.75 0.125 3.7375
1.6875 0.0625 3.8
1.75 0.0625 3.8
1.6875 0 3.8
1.6875 0 3.7375
1.6875 0.125 3.8
1.75 0 3.7375
1.75 0.0625 3.7375
1.8125 0.125 3.7375
1.8125 0.0625 3.7375
1.875 0.125 3.7375
1.8125 0.0625 3.8
1.875 0.0625 3.8
1.8125 0 3.8
1.8125 0 3.7375
1.8125 0.125 3.8
1.875 0 3.7375
1.875 0.0625 3.7375
1.9375 0.125 3.7375
1.9375 0.0625 3.7375
2 0.125 3.7375
1.9375 0.0625 3.8
2 0.0625 3.8
1.9375 0 3.8
1.9375 0 3.7375
1.9375 0.125 3.8
2 0 3.7375
2 0.0625 3.7375
2.0625 0.125 3.7375
2.0625 0.0625 3.7375
2.125 0.125 3.7375
2.0625 0.0625 3.8
2.125 0.0625 3.8
2.0625 0 3.8
2.0625 0 3.7375
2.0625 0.125 3.8
2.125 0 3.7375
2.125 0.0625 3.7375
2.1875 0.125 3.7375
2.1875 0.0625 3.7375
2.25 0.125 3.7375
2.1875 0.0625 3.8
2.25 0.0625 3.8
2.1875 0 3.8
2.1875 0 3.7375
2.1875 0.125 3.8
2.25 0 3.7375
2.25 0.0625 3.7375
2.3125 0.125 3.7375
2.3125 0.0625 3.7375
2.375 0.125 3.7375
2.3125 0.0625 3.8
2.375 0.0625 3.8
2.3125 0 3.8
2.3125 0 3.7375
2.3125 0.125 3.8
2.375 0 3.7375
2.375 0.0625 3.7375
2.4375 0.125 3.7375
2.4375 0.0625 3.7375
2.5 0.125 3.7375
2.4375 0.0625 3.8
2.5 0.0625 3.8
2.4375 0 3.8
2.4375 0 3.7375
2.4375 0.125 3.8
2.5 0 3.7375
2.5 0.0625 3.7375
2.5625 0.125 3.7375
2.5625 0.0625 3.7375
2.625 0.125 3.7375
2.5625 0.0625 3.8
2.625 0.0625 3.8
2.5625 0 3.8
2.5625 0 3.7375
2.5625 0.125 3.8
2.625 0 3.7375
2.625 0.0625 3.7375
2.6875 0.125 3.7375
2.6875 0.0625 3.7375
2.75 0.125 3.7375
2.6875 0.0625 3.8
2.75 0.0625 3.8
2.6875 0 3.8
2.6875 0 3.7375
2.6875 0.125 3.8
2.75 0 3.7375
2.75 0.0625 3.7375
2.8125 0.125 3.7375
2.8125 0.0625 3.7375
2.875 0.125 3.7375
2.8125 0.0625 3.8
2.875 0.0625 3.8
2.8125 0 3.8
2.8125 0 3.7375
2.8125 0.125 3.8
2.875 0 3.7375
2.875 0.0625 3.7375
2.9375 0.125 3.7375
2.9375 0.0625 3.7375
3 0.125 3.7375
2.9375 0.0625 3.8
3 0.0625 3.8
2.9375 0 3.8
2.9375 0 3.7375
2.9375 0.125 3.8
3 0 3.7375
3 0.0625 3.7375
3.0625 0.125 3.7375
3.0625 0.0625 3.7375
3.125 0.125 3.7375
3.0625 0.0625 3.8
3.125 0.0625 3.8
3.0625 0 3.8
3.0625 0 3.7375
3.0625 0.125 3.8
3.125 0 3.7375
3.125 0.0625 3.7375
3.1875 0.125 3.7375
3.1875 0.0625 3.7375
3.25 0.125 3.7375
3.1875 0.0625 3.8
3.25 0.0625 3.8
3.1875 0 3.8
3.1875 0 3.7375
3.1875 0.125 3.8
3.25 0 3.7375
3.25 0.0625 3.7375
3.3125 0.125 3.7375
3.3125 0.0625 3.7375
3.375 0.125 3.7375
3.3125 0.0625 3.8
3.375 0.0625 3.8
3.3125 0 3.8
3.3125 0 3.7375
3.3125 0.125 3.8
3.375 0 3.7375
3.375 0.0625 3.7375
3.4375 0.125 3.7375
3.4375 0.0625 3.7375
3.5 0.125 3.7375
3.4375 0.0625 3.8
3.5 0.0625 3.8
3.4375 0 3.8
3.4375 0 3.7375
3.4375 0.125 3.8
3.5 0 3.7375
3.5 0.0625 3.7375
3.5625 0.125 3.7375
3.5625 0.0625 3.7375
3.625 0.125 3.7375
3.5625 0.0625 3.8
3.625 0.0625 3.8
3.5625 0 3.8
3.5625 0 3.7375
3.5625 0.125 3.8
3.625 0 3.7375
3.625 0.0625 3.7375
3.6875 0.125 3.7375
3.6875 0.0625 3.7375
3.75 0.125 3.7375
3.6875 0.0625 3.8
3.75 0.0625 3.8
3.6875 0 3.8
3.6875 0 3.7375
3.6875 0.125 3.8
3.75 0 3.7375
3.75 0.0625 3.7375
3.8125 0.125 3.7375
3.8125 0.0625 3.7375
3.875 0.125 3.7375
3.8125 0.0625 3.8
3.875 0.0625 3.8
3.8125 0 3.8
3.8125 0 3.7375
3.8125 0.125 3.8
3.875 0 3.7375
3.875 0.0625 3.7375
3.9375 0.125 3.7375
3.9375 0.0625 3.7375
4 0.125 3.7375
3.9375 0.0625 3.8
4 0.0625 3.8
3.9375 0 3.8
3.9375 0 3.7375
3.9375 0.125 3.8
4 0 3.7375
4 0.0625 3.7375
0.0625 0.25 3.7375
0.0625 0.1875 3.7375
0.125 0.25 3.7375
0.0625 0.1875 3.8
0.125 0.1875 3.8
0 0.25 3.7375
0 0.1875 3.7375
0.0625 0.25 3.8
0 0.1875 3.8
0.125 0.1875 3.7375
0.1875 0.25 3.7375
0.1875 0.1875 3.7375
0.25 0.25 3.7375
0.1875 0.1875 3.8
0.25 0.1875 3.8
0.1875 0.25 3.8
0.25 0.1875 3.7375
0.3125 0.25 3.7375
0.3125 0.1875 3.7375
0.375 0.25 3.7375
0.3125 0.1875 3.8
0.375 0.1875 3.8
0.3125 0.25 3.8
0.375 0.1875 3.7375
0.4375 0.25 3.7375
0.4375 0.1875 3.7375
0.5 0.25 3.7375
0.4375 0.1875 3.8
0.5 0.1875 3.8
0.4375 0.25 3.8
0.5 0.1875 3.7375
0.5625 0.25 3.7375
0.5625 0.1875 3.7375
0.625 0.25 3.7375
0.5625 0.1875 3.8
0.625 0.1875 3.8
0.5625 0.25 3.8
0.625 0.1875 3.7375
0.6875 0.25 3.7375
0.6875 0.1875 3.7375
0.75 0.25 3.7375
0.6875 0.1875 3.8
0.75 0.1875 3.8
0.6875 0.25 3.8
0.75 0.1875 3.7375
0.8125 0.25 3.7375
0.8125 0.1875 3.7375
0.875 0.25 3.7375
0.8125 0.1875 3.8
0.875 0.1875 3.8
0.8125 0.25 3.8
0.875 0.1875 3.7375
0.9375 0.25 3.7375
0.9375 0.1875 3.7375
1 0.25 3.7375
0.9375 0.1875 3.8
1 0.1875 3.8
0.9375 0.25 3.8
1 0.1875 3.7375
1.0625 0.25 3.7375
1.0625 0.1875 3.7375
1.125 0.25 3.7375
1.0625 0.1875 3.8
1.125 0.1875 3.8
1.0625 0.25 3.8
1.125 0.1875 3.7375
1.1875 0.25 3.7375
1.1875 0.1875 3.7375
1.25 0.25 3.7375
1.1875 0.1875 3.8
1.25 0.1875 3.8
1.1875 0.25 3.8
1.25 0.1875 3.7375
1.3125 0.25 3.7375
1.3125 0.1875 3.7375
1.375 0.25 3.7375
1.3125 0.1875 3.8
1.375 0.1875 3.8
1.3125 0.25 3.8
1.375 0.1875 3.7375
1.4375 0.25 3.7375
1.4375 0.1875 3.7375
1.5 0.25 3.7375
1.4375 0.1875 3.8
1.5 0.1875 3.8
1.4375 0.25 3.8
1.5 0.1875 3.7375
1.5625 0.25 3.7375
1.5625 0.1875 3.7375
1.625 0.25 3.7375
1.5625 0.1875 3.8
1.625 0.1875 3.8
1.5625 0.25 3.8
1.625 0.1875 3.7375
1.6875 0.25 3.7375
1.6875 0.1875 3.7375
1.75 0.25 3.7375
1.6875 0.1875 3.8
1.75 0.1875 3.8
1.6875 0.25 3.8
1.75 0.1875 3.7375
1.8125 0.25 3.7375
1.8125 0.1875 3.7375
1.875 0.25 3.7375
1.8125 0.1875 3.8
1.875 0.1875 3.8
1.8125 0.25 3.8
1.875 0.1875 3.7375
1.9375 0.25 3.7375
1.9375 0.1875 3.7375
2 0.25 3.7375
1.9375 0.1875 3.8
2 0.1875 3.8
1.9375 0.25 3.8
2 0.1875 3.7375
2.0625 0.25 3.7375
2.0625 0.1875 3.7375
2.125 0.25 3.7375
2.0625 0.1875 3.8
2.125 0.1875 3.8
2.0625 0.25 3.8
2.125 0.1875 3.7375
2.1875 0.25 3.7375
2.1875 0.1875 3.7375
2.25 0.25 3.7375
2.1875 0.1875 3.8
2.25 0.1875 3.8
2.1875 0.25 3.8
2.25 0.1875 3.7375
2.3125 0.25 3.7375
2.3125 0.1875 3.7375
2.375 0.25 3.7375
2.3125 0.1875 3.8
2.375 0.1875 3.8
2.3125 0.25 3.8
2.375 0.1875 3.7375
2.4375 0.25 3.7375
2.4375 0.1875 3.7375
2.5 0.25 3.7375
2.4375 0.1875 3.8
2.5 0.1875 3.8
2.4375 0.25 3.8
2.5 0.1875 3.7375
2.5625 0.25 3.7375
2.5625 0.1875 3.7375
2.625 0.25 3.7375
2.5625 0.1875 3.8
2.625 0.1875 3.8
2.5625 0.25 3.8
2.625 0.1875 3.7375
2.6875 0.25 3.7375
2.6875 0.1875 3.7375
2.75 0.25 3.7375
2.6875 0.1875 3.8
2.75 0.1875 3.8
2.6875 0.25 3.8
2.75 0.1875 3.7375
2.8125 0.25 3.7375
2.8125 0.1875 3.7375
2.875 0.25 3.7375
2.8125 0.1875 3.8
2.875 0.1875 3.8
2.8125 0.25 3.8
2.875 0.1875 3.7375
2.9375 0.25 3.7375
2.9375 0.1875 3.7375
3 0.25 3.7375
2.9375 0.1875 3.8
3 0.1875 3.8
2.9375 0.25 3.8
3 0.1875 3.7375
3.0625 0.25 3.7375
3.0625 0.1875 3.7375
3.125 0.25 3.7375
3.0625 0.1875 3.8
3.125 0.1875 3.8
3.0625 0.25 3.8
3.125 0.1875 3.7375
3.1875 0.25 3.7375
3.1875 0.1875 3.7375
3.25 0.25 3.7375
3.1875 0.1875 3.8
3.25 0.1875 3.8
3.1875 0.25 3.8
3.25 0.1875 3.7375
3.3125 0.25 3.7375
3.3125 0.1875 3.7375
3.375 0.25 3.7375
3.3125 0.1875 3.8
3.375 0.1875 3.8
3.3125 0.25 3.8
3.375 0.1875 3.7375
3.4375 0.25 3.7375
3.4375 0.1875 3.7375
3.5 0.25 3.7375
3.4375 0.1875 3.8
3.5 0.1875 3.8
3.4375 0.25 3.8
3.5 0.1875 3.7375
3.5625 0.25 3.7375
3.5625 0.1875 3.7375
3.625 0.25 3.7375
3.5625 0.1875 3.8
3.625 0.1875 3.8
3.5625 0.25 3.8
3.625 0.1875 3.7375
3.6875 0.25 3.7375
3.6875 0.1875 3.7375
3.75 0.25 3.7375
3.6875 0.1875 3.8
3.75 0.1875 3.8
3.6875 0.25 3.8
3.75 0.1875 3.7375
3.8125 0.25 3.7375
3.8125 0.1875 3.7375
3.875 0.25 3.7375
3.8125 0.1875 3.8
3.875 0.1875 3.8
3.8125 0.25 3.8
3.875 0.1875 3.7375
3.9375 0.25 3.7375
3.9375 0.1875 3.7375
4 0.25 3.7375
3.9375 0.1875 3.8
4 0.1875 3.8
3.9375 0.25 3.8
4 0.1875 3.7375
0.0625 0.375 3.7375
0.0625 0.3125 3.7375
0.125 0.375 3.7375
0.0625 0.3125 3.8
0.125 0.3125 3.8
0 0.375 3.7375
0 0.3125 3.7375
0.0625 0.375 3.8
0 0.3125 3.8
0.125 0.3125 3.7375
0.1875 0.375 3.7375
0.1875 0.3125 3.7375
0.25 0.375 3.7375
0.1875 0.3125 3.8
0.25 0.3125 3.8
0.1875 0.375 3.8
0.25 0.3125 3.7375
0.3125 0.375 3.7375
0.3125 0.3125 3.7375
0.375 0.375 3.7375
0.3125 0.3125 3.8
0.375 0.3125 3.8
0.3125 0.375 3.8
0.375 0.3125 3.7375
0.4375 0.375 3.7375
0.4375 0.3125 3.7375
0.5 0.375 3.7375
0.4375 0.3125 3.8
0.5 0.3125 3.8
0.4375 0.375 3.8
0.5 0.3125 3.7375
0.5625 0.375 3.7375
0.5625 0.3125 3.7375
0.625 0.375 3.7375
0.5625 0.3125 3.8
0.625 0.3125 3.8
0.5625 0.375 3.8
0.625 0.3125 3.7375
0.6875 0.375 3.7375
0.6875 0.3125 3.7375
0.75 0.375 3.7375
0.6875 0.3125 3.8
0.75 0.3125 3.8
0.6875 0.375 3.8
0.75 0.3125 3.7375
0.8125 0.375 3.7375
0.8125 0.3125 3.7375
0.875 0.375 3.7375
0.8125 0.3125 3.8
0.875 0.3125 3.8
0.8125 0.375 3.8
0.875 0.3125 3.7375
0.9375 0.375 3.7375
0.9375 0.3125 3.7375
1 0.375 3.7375
0.9375 0.3125 3.8
1 0.3125 3.8
0.9375 0.375 3.8
1 0.3125 3.7375
1.0625 0.375 3.7375
1.0625 0.3125 3.7375
1.125 0.375 3.7375
1.0625 0.3125 3.8
1.125 0.3125 3.8
1.0625 0.375 3.8
1.125 0.3125 3.7375
1.1875 0.375 3.7375
1.1875 0.3125 3.7375
1.25 0.375 3.7375
1.1875 0.3125 3.8
1.25 0.3125 3.8
1.1875 0.375 3.8
1.25 0.3125 3.7375
1.3125 0.375 3.7375
1.3125 0.3125 3.7375
1.375 0.375 3.7375
1.3125 0.3125 3.8
1.375 0.3125 3.8
1.3125 0.375 3.8
1.375 0.3125 3.7375
1.4375 0.375 3.7375
1.4375 0.3125 3.7375
1.5 0.375 3.7375
1.4375 0.3125 3.8
1.5 0.3125 3.8
1.4375 0.375 3.8
1.5 0.3125 3.7375
1.5625 0.375 3.7375
1.5625 0.3125 3.7375
1.625 0.375 3.7375
1.5625 0.3125 3.8
1.625 0.3125 3.8
1.5625 0.375 3.8
1.625 0.3125 3.7375
1.6875 0.375 3.7375
1.6875 0.3125 3.7375
1.75 0.375 3.7375
1.6875 0.3125 3.8
1.75 0.3125 3.8
1.6875 0.375 3.8
1.75 0.3125 3.7375
1.8125 0.375 3.7375
1.8125 0.3125 3.7375
1.875 0.375 3.7375
1.8125 0.3125 3.8
1.875 0.3125 3.8
1.8125 0.375 3.8
1.875 0.3125 3.7375
1.9375 0.375 3.7375
1.9375 0.3125 3.7375
2 0.375 3.7375
1.9375 0.3125 3.8
2 0.3125 3.8
1.9375 0.375 3.8
2 0.3125 3.7375
2.0625 0.375 3.7375
2.0625 0.3125 3.7375
2.125 0.375 3.7375
2.0625 0.3125 3.8
2.125 0.3125 3.8
2.0625 0.375 3.8
2.125 0.3125 3.7375
2.1875 0.375 3.7375
2.1875 0.3125 3.7375
2.25 0.375 3.7375
2.1875 0.3125 3.8
2.25 0.3125 3.8
2.1875 0.375 3.8
2.25 0.3125 3.7375
2.3125 0.375 3.7375
2.3125 0.3125 3.7375
2.375 0.375 3.7375
2.3125 0.3125 3.8
2.375 0.3125 3.8
2.3125 0.375 3.8
2.375 0.3125 3.7375
2.4375 0.375 3.7375
2.4375 0.3125 3.7375
2.5 0.375 3.7375
2.4375 0.3125 3.8
2.5 0.3125 3.8
2.4375 0.375 3.8
2.5 0.3125 3.7375
2.5625 0.375 3.7375
2.5625 0.3125 3.7375
2.625 0.375 3.7375
2.5625 0.3125 3.8
2.625 0.3125 3.8
2.5625 0.375 3.8
2.625 0.3125 3.7375
2.6875 0.375 3.7375
2.6875 0.3125 3.7375
2.75 0.375 3.7375
2.6875 0.3125 3.8
2.75 0.3125 3.8
2.6875 0.375 3.8
2.75 0.3125 3.7375
2.8125 0.375 3.7375
2.8125 0.3125 3.7375
2.875 0.375 3.7375
2.8125 0.3125 3.8
2.875 0.3125 3.8
2.8125 0.375 3.8
2.875 0.3125 3.7375
2.9375 0.375 3.7375
2.9375 0.3125 3.7375
3 0.375 3.7375
2.9375 0.3125 3.8
3 0.3125 3.8
2.9375 0.375 3.8
3 0.3125 3.7375
3.0625 0.375 3.7375
3.0625 0.3125 3.7375
3.125 0.375 3.7375
3.0625 0.3125 3.8
3.125 0.3125 3.8
3.0625 0.375 3.8
3.125 0.3125 3.7375
3.1875 0.375 3.7375
3.1875 0.3125 3.7375
3.25 0.375 3.7375
3.1875 0.3125 3.8
3.25 0.3125 3.8
3.1875 0.375 3.8
3.25 0.3125 3.7375
3.3125 0.375 3.7375
3.3125 0.3125 3.7375
3.375 0.375 3.7375
3.3125 0.3125 3.8
3.375 0.3125 3.8
3.3125 0.375 3.8
3.375 0.3125 3.7375
3.4375 0.375 3.7375
3.4375 0.3125 3.7375
3.5 0.375 3.7375
3.4375 0.3125 3.8
3.5 0.3125 3.8
3.4375 0.375 3.8
3.5 0.3125 3.7375
3.5625 0.375 3.7375
3.5625 0.3125 3.7375
3.625 0.375 3.7375
3.5625 0.3125 3.8
3.625 0.3125 3.8
3.5625 0.375 3.8
3.625 0.3125 3.7375
3.6875 0.375 3.7375
3.6875 0.3125 3.7375
3.75 0.375 3.7375
3.6875 0.3125 3.8
3.75 0.3125 3.8
3.6875 0.375 3.8
3.75 0.3125 3.7375
3.8125 0.375 3.7375
3.8125 0.3125 3.7375
3.875 0.375 3.7375
3.8125 0.3125 3.8
3.875 0.3125 3.8
3.8125 0.375 3.8
3.875 0.3125 3.7375
3.9375 0.375 3.7375
3.9375 0.3125 3.7375
4 0.375 3.7375
3.9375 0.3125 3.8
4 0.3125 3.8
3.9375 0.375 3.8
4 0.3125 3.7375
0.0625 0.5 3.7375
0.0625 0.4375 3.7375
0.125 0.5 3.7375
0.0625 0.4375 3.8
0.125 0.4375 3.8
0 0.5 3.7375
0 0.4375 3.7375
0.0625 0.5 3.8
0 0.4375 3.8
0.125 0.4375 3.7375
0.1875 0.5 3.7375
0.1875 0.4375 3.7375
0.25 0.5 3.7375
0.1875 0.4375 3.8
0.25 0.4375 3.8
0.1875 0.5 3.8
0.25 0.4375 3.7375
0.3125 0.5 3.7375
0.3125 0.4375 3.7375
0.375 0.5 3.7375
0.3125 0.4375 3.8
0.375 0.4375 3.8
0.3125 0.5 3.8
0.375 0.4375 3.7375
0.4375 0.5 3.7375
0.4375 0.4375 3.7375
0.5 0.5 3.7375
0.4375 0.4375 3.8
0.5 0.4375 3.8
0.4375 0.5 3.8
0.5 0.4375 3.7375
0.5625 0.5 3.7375
0.5625 0.4375 3.7375
0.625 0.5 3.7375
0.5625 0.4375 3.8
0.625 0.4375 3.8
0.5625 0.5 3.8
0.625 0.4375 3.7375
0.6875 0.5 3.7375
0.6875 0.4375 3.7375
0.75 0.5 3.7375
0.6875 0.4375 3.8
0.75 0.4375 3.8
0.6875 0.5 3.8
0.75 0.4375 3.7375
0.8125 0.5 3.7375
0.8125 0.4375 3.7375
0.875 0.5 3.7375
0.8125 0.4375 3.8
0.875 0.4375 3.8
0.8125 0.5 3.8
0.875 0.4375 3.7375
0.9375 0.5 3.7375
0.9375 0.4375 3.7375
1 0.5 3.7375
0.9375 0.4375 3.8
1 0.4375 3.8
0.9375 0.5 3.8
1 0.4375 3.7375
1.0625 0.5 3.7375
1.0625 0.4375 3.7375
1.125 0.5 3.7375
1.0625 0.4375 3.8
1.125 0.4375 3.8
1.0625 0.5 3.8
1.125 0.4375 3.7375
1.1875 0.5 3.7375
1.1875 0.4375 3.7375
1.25 0.5 3.7375
1.1875 0.4375 3.8
1.25 0.4375 3.8
1.1875 0.5 3.8
1.25 0.4375 3.7375
1.3125 0.5 3.7375
1.3125 0.4375 3.7375
1.375 0.5 3.7375
1.3125 0.4375 3.8
1.375 0.4375 3.8
1.3125 0.5 3.8
1.375 0.4375 3.7375
1.4375 0.5 3.7375
1.4375 0.4375 3.7375
1.5 0.5 3.7375
1.4375 0.4375 3.8
1.5 0.4375 3.8
1.4375 0.5 3.8
1.5 0.4375 3.7375
1.5625 0.5 3.7375
1.5625 0.4375 3.7375
1.625 0.5 3.7375
1.5625 0.4375 3.8
1.625 0.4375 3.8
1.5625 0.5 3.8
1.625 0.4375 3.7375
1.6875 0.5 3.7375
1.6875 0.4375 3.7375
1.75 0.5 3.7375
1.6875 0.4375 3.8
1.75 0.4375 3.8
1.6875 0.5 3.8
1.75 0.4375 3.7375
1.8125 0.5 3.7375
1.8125 0.4375 3.7375
1.875 0.5 3.7375
1.8125 0.4375 3.8
1.875 0.4375 3.8
1.8125 0.5 3.8
1.875 0.4375 3.7375
1.9375 0.5 3.7375
1.9375 0.4375 3.7375
2 0.5 3.7375
1.9375 0.4375 3.8
2 0.4375 3.8
1.9375 0.5 3.8
2 0.4375 3.7375
2.0625 0.5 3.7375
2.0625 0.4375 3.7375
2.125 0.5 3.7375
2.0625 0.4375 3.8
2.125 0.4375 3.8
2.0625 0.5 3.8
2.125 0.4375 3.7375
2.1875 0.5 3.7375
2.1875 0.4375 3.7375
2.25 0.5 3.7375
2.1875 0.4375 3.8
2.25 0.4375 3.8
2.1875 0.5 3.8
2.25 0.4375 3.7375
2.3125 0.5 3.7375
2.3125 0.4375 3.7375
2.375 0.5 3.7375
2.3125 0.4375 3.8
2.375 0.4375 3.8
2.3125 0.5 3.8
2.375 0.4375 3.7375
2.4375 0.5 3.7375
2.4375 0.4375 3.7375
2.5 0.5 3.7375
2.4375 0.4375 3.8
2.5 0.4375 3.8
2.4375 0.5 3.8
2.5 0.4375 3.7375
2.5625 0.5 3.7375
2.5625 0.4375 3.7375
2.625 0.5 3.7375
2.5625 0.4375 3.8
2.625 0.4375 3.8
2.5625 0.5 3.8
2.625 0.4375 3.7375
2.6875 0.5 3.7375
2.6875 0.4375 3.7375
2.75 0.5 3.7375
2.6875 0.4375 3.8
2.75 0.4375 3.8
2.6875 0.5 3.8
2.75 0.4375 3.7375
2.8125 0.5 3.7375
2.8125 0.4375 3.7375
2.875 0.5 3.7375
2.8125 0.4375 3.8
2.875 0.4375 3.8
2.8125 0.5 3.8
2.875 0.4375 3.7375
2.9375 0.5 3.7375
2.9375 0.4375 3.7375
3 0.5 3.7375
2.9375 0.4375 3.8
3 0.4375 3.8
2.9375 0.5 3.8
3 0.4375 3.7375
3.0625 0.5 3.7375
3.0625 0.4375 3.7375
3.125 0.5 3.7375
3.0625 0.4375 3.8
3.125 0.4375 3.8
3.0625 0.5 3.8
3.125 0.4375 3.7375
3.1875 0.5 3.7375
3.1875 0.4375 3.7375
3.25 0.5 3.7375
3.1875 0.4375 3.8
3.25 0.4375 3.8
3.1875 0.5 3.8
3.25 0.4375 3.7375
3.3125 0.5 3.7375
3.3125 0.4375 3.7375
3.375 0.5 3.7375
3.3125 0.4375 3.8
3.375 0.4375 3.8
3.3125 0.5 3.8
3.375 0.4375 3.7375
3.4375 0.5 3.7375
3.4375 0.4375 3.7375
3.5 0.5 3.7375
3.4375 0.4375 3.8
3.5 0.4375 3.8
3.4375 0.5 3.8
3.5 0.4375 3.7375
3.5625 0.5 3.7375
3.5625 0.4375 3.7375
3.625 0.5 3.7375
3.5625 0.4375 3.8
3.625 0.4375 3.8
3.5625 0.5 3.8
3.625 0.4375 3.7375
3.6875 0.5 3.7375
3.6875 0.4375 3.7375
3.75 0.5 3.7375
3.6875 0.4375 3.8
3.75 0.4375 3.8
3.6875 0.5 3.8
3.75 0.4375 3.7375
3.8125 0.5 3.7375
3.8125 0.4375 3.7375
3.875 0.5 3.7375
3.8125 0.4375 3.8
3.875 0.4375 3.8
3.8125 0.5 3.8
3.875 0.4375 3.7375
3.9375 0.5 3.7375
3.9375 0.4375 3.7375
4 0.5 3.7375
3.9375 0.4375 3.8
4 0.4375 3.8
3.9375 0.5 3.8
4 0.4375 3.7375
0.0625 0.625 3.7375
0.0625 0.5625 3.7375
0.125 0.625 3.7375
0.0625 0.5625 3.8
0.125 0.5625 3.8
0 0.625 3.7375
0 0.5625 3.7375
0.0625 0.625 3.8
0 0.5625 3.8
0.125 0.5625 3.7375
0.1875 0.625 3.7375
0.1875 0.5625 3.7375
0.25 0.625 3.7375
0.1875 0.5625 3.8
0.25 0.5625 3.8
0.1875 0.625 3.8
0.25 0.5625 3.7375
0.3125 0.625 3.7375
0.3125 0.5625 3.7375
0.375 0.625 3.7375
0.3125 0.5625 3.8
0.375 0.5625 3.8
0.3125 0.625 3.8
0.375 0.5625 3.7375
0.4375 0.625 3.7375
0.4375 0.5625 3.7375
0.5 0.625 3.7375
0.4375 0.5625 3.8
0.5 0.5625 3.8
0.4375 0.625 3.8
0.5 0.5625 3.7375
0.5625 0.625 3.7375
0.5625 0.5625 3.7375
0.625 0.625 3.7375
0.5625 0.5625 3.8
0.625 0.5625 3.8
0.5625 0.625 3.8
0.625 0.5625 3.7375
0.6875 0.625 3.7375
0.6875 0.5625 3.7375
0.75 0.625 3.7375
0.6875 0.5625 3.8
0.75 0.5625 3.8
0.6875 0.625 3.8
0.75 0.5625 3.7375
0.8125 0.625 3.7375
0.8125 0.5625 3.7375
0.875 0.625 3.7375
0.8125 0.5625 3.8
0.875 0.5625 3.8
0.8125 0.625 3.8
0.875 0.5625 3.7375
0.9375 0.625 3.7375
0.9375 0.5625 3.7375
1 0.625 3.7375
0.9375 0.5625 3.8
1 0.5625 3.8
0.9375 0.625 3.8
1 0.5625 3.7375
1.0625 0.625 3.7375
1.0625 0.5625 3.7375
1.125 0.625 3.7375
1.0625 0.5625 3.8
1.125 0.5625 3.8
1.0625 0.625 3.8
1.125 0.5625 3.7375
1.1875 0.625 3.7375
1.1875 0.5625 3.7375
1.25 0.625 3.7375
1.1875 0.5625 3.8
1.25 0.5625 3.8
1.1875 0.625 3.8
1.25 0.5625 3.7375
1.3125 0.625 3.7375
1.3125 0.5625 3.7375
1.375 0.625 3.7375
1.3125 0.5625 3.8
1.375 0.5625 3.8
1.3125 0.625 3.8
1.375 0.5625 3.7375
1.4375 0.625 3.7375
1.4375 0.5625 3.7375
1.5 0.625 3.7375
1.4375 0.5625 3.8
1.5 0.5625 3.8
1.4375 0.625 3.8
1.5 0.5625 3.7375
1.5625 0.625 3.7375
1.5625 0.5625 3.7375
1.625 0.625 3.7375
1.5625 0.5625 3.8
1.625 0.5625 3.8
1.5625 0.625 3.8
1.625 0.5625 3.7375
1.6875 0.625 3.7375
1.6875 0.5625 3.7375
1.75 0.625 3.7375
1.6875 0.5625 3.8
1.75 0.5625 3.8
1.6875 0.625 3.8
1.75 0.5625 3.7375
1.8125 0.625 3.7375
1.8125 0.5625 3.7375
1.875 0.625 3.7375
1.8125 0.5625 3.8
1.875 0.5625 3.8
1.8125 0.625 3.8
1.875 0.5625 3.7375
1.9375 0.625 3.7375
1.9375 0.5625 3.7375
2 0.625 3.7375
1.9375 0.5625 3.8
2 0.5625 3.8
1.9375 0.625 3.8
2 0.5625 3.7375
2.0625 0.625 3.7375
2.0625 0.5625 3.7375
2.125 0.625 3.7375
2.0625 0.5625 3.8
2.125 0.5625 3.8
2.0625 0.625 3.8
2.125 0.5625 3.7375
2.1875 0.625 3.7375
2.1875 0.5625 3.7375
2.25 0.625 3.7375
2.1875 0.5625 3.8
2.25 0.5625 3.8
2.1875 0.625 3.8
2.25 0.5625 3.7375
2.3125 0.625 3.7375
2.3125 0.5625 3.7375
2.375 0.625 3.7375
2.3125 0.5625 3.8
2.375 0.5625 3.8
2.3125 0.625 3.8
2.375 0.5625 3.7375
2.4375 0.625 3.7375
2.4375 0.5625 3.7375
2.5 0.625 3.7375
2.4375 0.5625 3.8
2.5 0.5625 3.8
2.4375 0.625 3.8
2.5 0.5625 3.7375
2.5625 0.625 3.7375
2.5625 0.5625 3.7375
2.625 0.625 3.7375
2.5625 0.5625 3.8
2.625 0.5625 3.8
2.5625 0.625 3.8
2.625 0.5625 3.7375
2.6875 0.625 3.7375
2.6875 0.5625 3.7375
2.75 0.625 3.7375
2.6875 0.5625 3.8
2.75 0.5625 3.8
2.6875 0.625 3.8
2.75 0.5625 3.7375
2.8125 0.625 3.7375
2.8125 0.5625 3.7375
2.875 0.625 3.7375
2.8125 0.5625 3.8
2.875 0.5625 3.8
2.8125 0.625 3.8
2.875 0.5625 3.7375
2.9375 0.625 3.7375
2.9375 0.5625 3.7375
3 0.625 3.7375
2.9375 0.5625 3.8
3 0.5625 3.8
2.9375 0.625 3.8
3 0.5625 3.7375
3.0625 0.625 3.7375
3.0625 0.5625 3.7375
3.125 0.625 3.7375
3.0625 0.5625 3.8
3.125 0.5625 3.8
3.0625 0.625 3.8
3.125 0.5625 3.7375
3.1875 0.625 3.7375
3.1875 0.5625 3.7375
3.25 0.625 3.7375
3.1875 0.5625 3.8
3.25 0.5625 3.8
3.1875 0.625 3.8
3.25 0.5625 3.7375
3.3125 0.625 3.7375
3.3125 0.5625 3.7375
3.375 0.625 3.7375
3.3125 0.5625 3.8
3.375 0.5625 3.8
3.3125 0.625 3.8
3.375 0.5625 3.7375
3.4375 0.625 3.7375
3.4375 0.5625 3.7375
3.5 0.625 3.7375
3.4375 0.5625 3.8
3.5 0.5625 3.8
3.4375 0.625 3.8
3.5 0.5625 3.7375
3.5625 0.625 3.7375
3.5625 0.5625 3.7375
3.625 0.625 3.7375
3.5625 0.5625 3.8
3.625 0.5625 3.8
3.5625 0.625 3.8
3.625 0.5625 3.7375
3.6875 0.625 3.7375
3.6875 0.5625 3.7375
3.75 0.625 3.7375
3.6875 0.5625 3.8
3.75 0.5625 3.8
3.6875 0.625 3.8
3.75 0.5625 3.7375
3.8125 0.625 3.7375
3.8125 0.5625 3.7375
3.875 0.625 3.7375
3.8125 0.5625 3.8
3.875 0.5625 3.8
3.8125 0.625 3.8
3.875 0.5625 3.7375
3.9375 0.625 3.7375
3.9375 0.5625 3.7375
4 0.625 3.7375
3.9375 0.5625 3.8
4 0.5625 3.8
3.9375 0.625 3.8
4 0.5625 3.7375
0.0625 0.75 3.7375
0.0625 0.6875 3.7375
0.125 0.75 3.7375
0.0625 0.6875 3.8
0.125 0.6875 3.8
0 0.75 3.7375
0 0.6875 3.7375
0.0625 0.75 3.8
0 0.6875 3.8
0.125 0.6875 3.7375
0.1875 0.75 3.7375
0.1875 0.6875 3.7375
0.25 0.75 3.7375
0.1875 0.6875 3.8
0.25 0.6875 3.8
0.1875 0.75 3.8
0.25 0.6875 3.7375
0.3125 0.75 3.7375
0.3125 0.6875 3.7375
0.375 0.75 3.7375
0.3125 0.6875 3.8
0.375 0.6875 3.8
0.3125 0.75 3.8
0.375 0.6875 3.7375
0.4375 0.75 3.7375
0.4375 0.6875 3.7375
0.5 0.75 3.7375
0.4375 0.6875 3.8
0.5 0.6875 3.8
0.4375 0.75 3.8
0.5 0.6875 3.7375
0.5625 0.75 3.7375
0.5625 0.6875 3.7375
0.625 0.75 3.7375
0.5625 0.6875 3.8
0.625 0.6875 3.8
0.5625 0.75 3.8
0.625 0.6875 3.7375
0.6875 0.75 3.7375
0.6875 0.6875 3.7375
0.75 0.75 3.7375
0.6875 0.6875 3.8
0.75 0.6875 3.8
0.6875 0.75 3.8
0.75 0.6875 3.7375
0.8125 0.75 3.7375
0.8125 0.6875 3.7375
0.875 0.75 3.7375
0.8125 0.6875 3.8
0.875 0.6875 3.8
0.8125 0.75 3.8
0.875 0.6875 3.7375
0.9375 0.75 3.7375
0.9375 0.6875 3.7375
1 0.75 3.7375
0.9375 0.6875 3.8
1 0.6875 3.8
0.9375 0.75 3.8
1 0.6875 3.7375
1.0625 0.75 3.7375
1.0625 0.6875 3.7375
1.125 0.75 3.7375
1.0625 0.6875 3.8
1.125 0.6875 3.8
1.0625 0.75 3.8
1.125 0.6875 3.7375
1.1875 0.75 3.7375
1.1875 0.6875 3.7375
1.25 0.75 3.7375
1.1875 0.6875 3.8
1.25 0.6875 3.8
1.1875 0.75 3.8
1.25 0.6875 3.7375
1.3125 0.75 3.7375
1.3125 0.6875 3.7375
1.375 0.75 3.7375
1.3125 0.6875 3.8
1.375 0.6875 3.8
1.3125 0.75 3.8
1.375 0.6875 3.7375
1.4375 0.75 3.7375
1.4375 0.6875 3.7375
1.5 0.75 3.7375
1.4375 0.6875 3.8
1.5 0.6875 3.8
1.4375 0.75 3.8
1.5 0.6875 3.7375
1.5625 0.75 3.7375
1.5625 0.6875 3.7375
1.625 0.75 3.7375
1.5625 0.6875 3.8
1.625 0.6875 3.8
1.5625 0.75 3.8
1.625 0.6875 3.7375
1.6875 0.75 3.7375
1.6875 0.6875 3.7375
1.75 0.75 3.7375
1.6875 0.6875 3.8
1.75 0.6875 3.8
1.6875 0.75 3.8
1.75 0.6875 3.7375
1.8125 0.75 3.7375
1.8125 0.6875 3.7375
1.875 0.75 3.7375
1.8125 0.6875 3.8
1.875 0.6875 3.8
1.8125 0.75 3.8
1.875 0.6875 3.7375
1.9375 0.75 3.7375
1.9375 0.6875 3.7375
2 0.75 3.7375
1.9375 0.6875 3.8
2 0.6875 3.8
1.9375 0.75 3.8
2 0.6875 3.7375
2.0625 0.75 3.7375
2.0625 0.6875 3.7375
2.125 0.75 3.7375
2.0625 0.6875 3.8
2.125 0.6875 3.8
2.0625 0.75 3.8
2.125 0.6875 3.7375
2.1875 0.75 3.7375
2.1875 0.6875 3.7375
2.25 0.75 3.7375
2.1875 0.6875 3.8
2.25 0.6875 3.8
2.1875 0.75 3.8
2.25 0.6875 3.7375
2.3125 0.75 3.7375
2.3125 0.6875 3.7375
2.375 0.75 3.7375
2.3125 0.6875 3.8
2.375 0.6875 3.8
2.3125 0.75 3.8
2.375 0.6875 3.7375
2.4375 0.75 3.7375
2.4375 0.6875 3.7375
2.5 0.75 3.7375
2.4375 0.6875 3.8
2.5 0.6875 3.8
2.4375 0.75 3.8
2.5 0.6875 3.7375
2.5625 0.75 3.7375
2.5625 0.6875 3.7375
2.625 0.75 3.7375
2.5625 0.6875 3.8
2.625 0.6875 3.8
2.5625 0.75 3.8
2.625 0.6875 3.7375
2.6875 0.75 3.7375
2.6875 0.6875 3.7375
2.75 0.75 3.7375
2.6875 0.6875 3.8
2.75 0.6875 3.8
2.6875 0.75 3.8
2.75 0.6875 3.7375
2.8125 0.75 3.7375
2.8125 0.6875 3.7375
2.875 0.75 3.7375
2.8125 0.6875 3.8
2.875 0.6875 3.8
2.8125 0.75 3.8
2.875 0.6875 3.7375
2.9375 0.75 3.7375
2.9375 0.6875 3.7375
3 0.75 3.7375
2.9375 0.6875 3.8
3 0.6875 3.8
2.9375 0.75 3.8
3 0.6875 3.7375
3.0625 0.75 3.7375
3.0625 0.6875 3.7375
3.125 0.75 3.7375
3.0625 0.6875 3.8
3.125 0.6875 3.8
3.0625 0.75 3.8
3.125 0.6875 3.7375
3.1875 0.75 3.7375
3.1875 0.6875 3.7375
3.25 0.75 3.7375
3.1875 0.6875 3.8
3.25 0.6875 3.8
3.1875 0.75 3.8
3.25 0.6875 3.7375
3.3125 0.75 3.7375
3.3125 0.6875 3.7375
3.375 0.75 3.7375
3.3125 0.6875 3.8
3.375 0.6875 3.8
3.3125 0.75 3.8
3.375 0.6875 3.7375
3.4375 0.75 3.7375
3.4375 0.6875 3.7375
3.5 0.75 3.7375
3.4375 0.6875 3.8
3.5 0.6875 3.8
3.4375 0.75 3.8
3.5 0.6875 3.7375
3.5625 0.75 3.7375
3.5625 0.6875 3.7375
3.625 0.75 3.7375
3.5625 0.6875 3.8
3.625 0.6875 3.8
3.5625 0.75 3.8
3.625 0.6875 3.7375
3.6875 0.75 3.7375
3.6875 0.6875 3.7375
3.75 0.75 3.7375
3.6875 0.6875 3.8
3.75 0.6875 3.8
3.6875 0.75 3.8
3.75 0.6875 3.7375
3.8125 0.75 3.7375
3.8125 0.6875 3.7375
3.875 0.75 3.7375
3.8125 0.6875 3.8
3.875 0.6875 3.8
3.8125 0.75 3.8
3.875 0.6875 3.7375
3.9375 0.75 3.7375
3.9375 0.6875 3.7375
4 0.75 3.7375
3.9375 0.6875 3.8
4 0.6875 3.8
3.9375 0.75 3.8
4 0.6875 3.7375
0.0625 0.875 3.7375
0.0625 0.8125 3.7375
0.125 0.875 3.7375
0.0625 0.8125 3.8
0.125 0.8125 3.8
0 0.875 3.7375
0 0.8125 3.7375
0.0625 0.875 3.8
0 0.8125 3.8
0.125 0.8125 3.7375
0.1875 0.875 3.7375
0.1875 0.8125 3.7375
0.25 0.875 3.7375
0.1875 0.8125 3.8
0.25 0.8125 3.8
0.1875 0.875 3.8
0.25 0.8125 3.7375
0.3125 0.875 3.7375
0.3125 0.8125 3.7375
0.375 0.875 3.7375
0.3125 0.8125 3.8
0.375 0.8125 3.8
0.3125 0.875 3.8
0.375 0.8125 3.7375
0.4375 0.875 3.7375
0.4375 0.8125 3.7375
0.5 0.875 3.7375
0.4375 0.8125 3.8
0.5 0.8125 3.8
0.4375 0.875 3.8
0.5 0.8125 3.7375
0.5625 0.875 3.7375
0.5625 0.8125 3.7375
0.625 0.875 3.7375
0.5625 0.8125 3.8
0.625 0.8125 3.8
0.5625 0.875 3.8
0.625 0.8125 3.7375
0.6875 0.875 3.7375
0.6875 0.8125 3.7375
0.75 0.875 3.7375
0.6875 0.8125 3.8
0.75 0.8125 3.8
0.6875 0.875 3.8
0.75 0.8125 3.7375
0.8125 0.875 3.7375
0.8125 0.8125 3.7375
0.875 0.875 3.7375
0.8125 0.8125 3.8
0.875 0.8125 3.8
0.8125 0.875 3.8
0.875 0.8125 3.7375
0.9375 0.875 3.7375
0.9375 0.8125 3.7375
1 0.875 3.7375
0.9375 0.8125 3.8
1 0.8125 3.8
0.9375 0.875 3.8
1 0.8125 3.7375
1.0625 0.875 3.7375
1.0625 0.8125 3.7375
1.125 0.875 3.7375
1.0625 0.8125 3.8
1.125 0.8125 3.8
1.0625 0.875 3.8
1.125 0.8125 3.7375
1.1875 0.875 3.7375
1.1875 0.8125 3.7375
1.25 0.875 3.7375
1.1875 0.8125 3.8
1.25 0.8125 3.8
1.1875 0.875 3.8
1.25 0.8125 3.7375
1.3125 0.875 3.7375
1.3125 0.8125 3.7375
1.375 0.875 3.7375
1.3125 0.8125 3.8
1.375 0.8125 3.8
1.3125 0.875 3.8
1.375 0.8125 3.7375
1.4375 0.875 3.7375
1.4375 0.8125 3.7375
1.5 0.875 3.7375
1.4375 0.8125 3.8
1.5 0.8125 3.8
1.4375 0.875 3.8
1.5 0.8125 3.7375
1.5625 0.875 3.7375
1.5625 0.8125 3.7375
1.625 0.875 3.7375
1.5625 0.8125 3.8
1.625 0.8125 3.8
1.5625 0.875 3.8
1.625 0.8125 3.7375
1.6875 0.875 3.7375
1.6875 0.8125 3.7375
1.75 0.875 3.7375
1.6875 0.8125 3.8
1.75 0.8125 3.8
1.6875 0.875 3.8
1.75 0.8125 3.7375
1.8125 0.875 3.7375
1.8125 0.8125 3.7375
1.875 0.875 3.7375
1.8125 0.8125 3.8
1.875 0.8125 3.8
1.8125 0.875 3.8
1.875 0.8125 3.7375
1.9375 0.875 3.7375
1.9375 0.8125 3.7375
2 0.875 3.7375
1.9375 0.8125 3.8
2 0.8125 3.8
1.9375 0.875 3.8
2 0.8125 3.7375
2.0625 0.875 3.7375
2.0625 0.8125 3.7375
2.125 0.875 3.7375
2.0625 0.8125 3.8
2.125 0.8125 3.8
2.0625 0.875 3.8
2.125 0.8125 3.7375
2.1875 0.875 3.7375
2.1875 0.8125 3.7375
2.25 0.875 3.7375
2.1875 0.8125 3.8
2.25 0.8125 3.8
2.1875 0.875 3.8
2.25 0.8125 3.7375
2.3125 0.875 3.7375
2.3125 0.8125 3.7375
2.375 0.875 3.7375
2.3125 0.8125 3.8
2.375 0.8125 3.8
2.3125 0.875 3.8
2.375 0.8125 3.7375
2.4375 0.875 3.7375
2.4375 0.8125 3.7375
2.5 0.875 3.7375
2.4375 0.8125 3.8
2.5 0.8125 3.8
2.4375 0.875 3.8
2.5 0.8125 3.7375
2.5625 0.875 3.7375
2.5625 0.8125 3.7375
2.625 0.875 3.7375
2.5625 0.8125 3.8
2.625 0.8125 3.8
2.5625 0.875 3.8
2.625 0.8125 3.7375
2.6875 0.875 3.7375
2.6875 0.8125 3.7375
2.75 0.875 3.7375
2.6875 0.8125 3.8
2.75 0.8125 3.8
2.6875 0.875 3.8
2.75 0.8125 3.7375
2.8125 0.875 3.7375
2.8125 0.8125 3.7375
2.875 0.875 3.7375
2.8125 0.8125 3.8
2.875 0.8125 3.8
2.8125 0.875 3.8
2.875 0.8125 3.7375
2.9375 0.875 3.7375
2.9375 0.8125 3.7375
3 0.875 3.7375
2.9375 0.8125 3.8
3 0.8125 3.8
2.9375 0.875 3.8
3 0.8125 3.7375
3.0625 0.875 3.7375
3.0625 0.8125 3.7375
3.125 0.875 3.7375
3.0625 0.8125 3.8
3.125 0.8125 3.8
3.0625 0.875 3.8
3.125 0.8125 3.7375
3.1875 0.875 3.7375
3.1875 0.8125 3.7375
3.25 0.875 3.7375
3.1875 0.8125 3.8
3.25 0.8125 3.8
3.1875 0.875 3.8
3.25 0.8125 3.7375
3.3125 0.875 3.7375
3.3125 0.8125 3.7375
3.375 0.875 3.7375
3.3125 0.8125 3.8
3.375 0.8125 3.8
3.3125 0.875 3.8
3.375 0.8125 3.7375
3.4375 0.875 3.7375
3.4375 0.8125 3.7375
3.5 0.875 3.7375
3.4375 0.8125 3.8
3.5 0.8125 3.8
3.4375 0.875 3.8
3.5 0.8125 3.7375
3.5625 0.875 3.7375
3.5625 0.8125 3.7375
3.625 0.875 3.7375
3.5625 0.8125 3.8
3.625 0.8125 3.8
3.5625 0.875 3.8
3.625 0.8125 3.7375
3.6875 0.875 3.7375
3.6875 0.8125 3.7375
3.75 0.875 3.7375
3.6875 0.8125 3.8
3.75 0.8125 3.8
3.6875 0.875 3.8
3.75 0.8125 3.7375
3.8125 0.875 3.7375
3.8125 0.8125 3.7375
3.875 0.875 3.7375
3.8125 0.8125 3.8
3.875 0.8125 3.8
3.8125 0.875 3.8
3.875 0.8125 3.7375
3.9375 0.875 3.7375
3.9375 0.8125 3.7375
4 0.875 3.7375
3.9375 0.8125 3.8
4 0.8125 3.8
3.9375 0.875 3.8
4 0.8125 3.7375
0.0625 1 3.7375
0.0625 0.9375 3.7375
0.125 1 3.7375
0.0625 0.9375 3.8
0.125 0.9375 3.8
0 1 3.7375
0 0.9375 3.7375
0.0625 1 3.8
0 0.9375 3.8
0.125 0.9375 3.7375
0.1875 1 3.7375
0.1875 0.9375 3.7375
0.25 1 3.7375
0.1875 0.9375 3.8
0.25 0.9375 3.8
0.1875 1 3.8
0.25 0.9375 3.7375
0.3125 1 3.7375
0.3125 0.9375 3.7375
0.375 1 3.7375
0.3125 0.9375 3.8
0.375 0.9375 3.8
0.3125 1 3.8
0.375 0.9375 3.7375
0.4375 1 3.7375
0.4375 0.9375 3.7375
0.5 1 3.7375
0.4375 0.9375 3.8
0.5 0.9375 3.8
0.4375 1 3.8
0.5 0.9375 3.7375
0.5625 1 3.7375
0.5625 0.9375 3.7375
0.625 1 3.7375
0.5625 0.9375 3.8
0.625 0.9375 3.8
0.5625 1 3.8
0.625 0.9375 3.7375
0.6875 1 3.7375
0.6875 0.9375 3.7375
0.75 1 3.7375
0.6875 0.9375 3.8
0.75 0.9375 3.8
0.6875 1 3.8
0.75 0.9375 3.7375
0.8125 1 3.7375
0.8125 0.9375 3.7375
0.875 1 3.7375
0.8125 0.9375 3.8
0.875 0.9375 3.8
0.8125 1 3.8
0.875 0.9375 3.7375
0.9375 1 3.7375
0.9375 0.9375 3.7375
1 1 3.7375
0.9375 0.9375 3.8
1 0.9375 3.8
0.9375 1 3.8
1 0.9375 3.7375
1.0625 1 3.7375
1.0625 0.9375 3.7375
1.125 1 3.7375
1.0625 0.9375 3.8
1.125 0.9375 3.8
1.0625 1 3.8
1.125 0.9375 3.7375
1.1875 1 3.7375
1.1875 0.9375 3.7375
1.25 1 3.7375
1.1875 0.9375 3.8
1.25 0.9375 3.8
1.1875 1 3.8
1.25 0.9375 3.7375
1.3125 1 3.7375
1.3125 0.9375 3.7375
1.375 1 3.7375
1.3125 0.9375 3.8
1.375 0.9375 3.8
1.3125 1 3.8
1.375 0.9375 3.7375
1.4375 1 3.7375
1.4375 0.9375 3.7375
1.5 1 3.7375
1.4375 0.9375 3.8
1.5 0.9375 3.8
1.4375 1 3.8
1.5 0.9375 3.7375
1.5625 1 3.7375
1.5625 0.9375 3.7375
1.625 1 3.7375
1.5625 0.9375 3.8
1.625 0.9375 3.8
1.5625 1 3.8
1.625 0.9375 3.7375
1.6875 1 3.7375
1.6875 0.9375 3.7375
1.75 1 3.7375
1.6875 0.9375 3.8
1.75 0.9375 3.8
1.6875 1 3.8
1.75 0.9375 3.7375
1.8125 1 3.7375
1.8125 0.9375 3.7375
1.875 1 3.7375
1.8125 0.9375 3.8
1.875 0.9375 3.8
1.8125 1 3.8
1.875 0.9375 3.7375
1.9375 1 3.7375
1.9375 0.9375 3.7375
2 1 3.7375
1.9375 0.9375 3.8
2 0.9375 3.8
1.9375 1 3.8
2 0.9375 3.7375
2.0625 1 3.7375
2.0625 0.9375 3.7375
2.125 1 3.7375
2.0625 0.9375 3.8
2.125 0.9375 3.8
2.0625 1 3.8
2.125 0.9375 3.7375
2.1875 1 3.7375
2.1875 0.9375 3.7375
2.25 1 3.7375
2.1875 0.9375 3.8
2.25 0.9375 3.8
2.1875 1 3.8
2.25 0.9375 3.7375
2.3125 1 3.7375
2.3125 0.9375 3.7375
2.375 1 3.7375
2.3125 0.9375 3.8
2.375 0.9375 3.8
2.3125 1 3.8
2.375 0.9375 3.7375
2.4375 1 3.7375
2.4375 0.9375 3.7375
2.5 1 3.7375
2.4375 0.9375 3.8
2.5 0.9375 3.8
2.4375 1 3.8
2.5 0.9375 3.7375
2.5625 1 3.7375
2.5625 0.9375 3.7375
2.625 1 3.7375
2.5625 0.9375 3.8
2.625 0.9375 3.8
2.5625 1 3.8
2.625 0.9375 3.7375
2.6875 1 3.7375
2.6875 0.9375 3.7375
2.75 1 3.7375
2.6875 0.9375 3.8
2.75 0.9375 3.8
2.6875 1 3.8
2.75 0.9375 3.7375
2.8125 1 3.7375
2.8125 0.9375 3.7375
2.875 1 3.7375
2.8125 0.9375 3.8
2.875 0.9375 3.8
2.8125 1 3.8
2.875 0.9375 3.7375
2.9375 1 3.7375
2.9375 0.9375 3.7375
3 1 3.7375
2.9375 0.9375 3.8
3 0.9375 3.8
2.9375 1 3.8
3 0.9375 3.7375
3.0625 1 3.7375
3.0625 0.9375 3.7375
3.125 1 3.7375
3.0625 0.9375 3.8
3.125 0.9375 3.8
3.0625 1 3.8
3.125 0.9375 3.7375
3.1875 1 3.7375
3.1875 0.9375 3.7375
3.25 1 3.7375
3.1875 0.9375 3.8
3.25 0.9375 3.8
3.1875 1 3.8
3.25 0.9375 3.7375
3.3125 1 3.7375
3.3125 0.9375 3.7375
3.375 1 3.7375
3.3125 0.9375 3.8
3.375 0.9375 3.8
3.3125 1 3.8
3.375 0.9375 3.7375
3.4375 1 3.7375
3.4375 0.9375 3.7375
3.5 1 3.7375
3.4375 0.9375 3.8
3.5 0.9375 3.8
3.4375 1 3.8
3.5 0.9375 3.7375
3.5625 1 3.7375
3.5625 0.9375 3.7375
3.625 1 3.7375
3.5625 0.9375 3.8
3.625 0.9375 3.8
3.5625 1 3.8
3.625 0.9375 3.7375
3.6875 1 3.7375
3.6875 0.9375 3.7375
3.75 1 3.7375
3.6875 0.9375 3.8
3.75 0.9375 3.8
3.6875 1 3.8
3.75 0.9375 3.7375
3.8125 1 3.7375
3.8125 0.9375 3.7375
3.875 1 3.7375
3.8125 0.9375 3.8
3.875 0.9375 3.8
3.8125 1 3.8
3.875 0.9375 3.7375
3.9375 1 3.7375
3.9375 0.9375 3.7375
4 1 3.7375
3.9375 0.9375 3.8
4 0.9375 3.8
3.9375 1 3.8
4 0.9375 3.7375
0.0625 0.125 3.8625
0.0625 0.0625 3.8625
0.125 0.125 3.8625
0.0625 0.0625 3.925
0.125 0.0625 3.925
0.0625 0 3.925
0 0 3.8625
0.0625 0 3.8625
0 0.125 3.8625
0 0.0625 3.8625
0.0625 0.125 3.925
0 0.0625 3.925
0.125 0 3.8625
0.125 0.0625 3.8625
0.1875 0.125 3.8625
0.1875 0.0625 3.8625
0.25 0.125 3.8625
0.1875 0.0625 3.925
0.25 0.0625 3.925
0.1875 0 3.925
0.1875 0 3.8625
0.1875 0.125 3.925
0.25 0 3.8625
0.25 0.0625 3.8625
0.3125 0.125 3.8625
0.3125 0.0625 3.8625
0.375 0.125 3.8625
0.3125 0.0625 3.925
0.375 0.0625 3.925
0.3125 0 3.925
0.3125 0 3.8625
0.3125 0.125 3.925
0.375 0 3.8625
0.375 0.0625 3.8625
0.4375 0.125 3.8625
0.4375 0.0625 3.8625
0.5 0.125 3.8625
0.4375 0.0625 3.925
0.5 0.0625 3.925
0.4375 0 3.925
0.4375 0 3.8625
0.4375 0.125 3.925
0.5 0 3.8625
0.5 0.0625 3.8625
0.5625 0.125 3.8625
0.5625 0.0625 3.8625
0.625 0.125 3.8625
0.5625 0.0625 3.925
0.625 0.0625 3.925
0.5625 0 3.925
0.5625 0 3.8625
0.5625 0.125 3.925
0.625 0 3.8625
0.625 0.0625 3.8625
0.6875 0.125 3.8625
0.6875 0.0625 3.8625
0.75 0.125 3.8625
0.6875 0.0625 3.925
0.75 0.0625 3.925
0.6875 0 3.925
0.6875 0 3.8625
0.6875 0.125 3.925
0.75 0 3.8625
0.75 0.0625 3.8625
0.8125 0.125 3.8625
0.8125 0.0625 3.8625
0.875 0.125 3.8625
0.8125 0.0625 3.925
0.875 0.0625 3.925
0.8125 0 3.925
0.8125 0 3.8625
0.8125 0.125 3.925
0.875 0 3.8625
0.875 0.0625 3.8625
0.9375 0.125 3.8625
0.9375 0.0625 3.8625
1 0.125 3.8625
0.9375 0.0625 3.925
1 0.0625 3.925
0.9375 0 3.925
0.9375 0 3.8625
0.9375 0.125 3.925
1 0 3.8625
1 0.0625 3.8625
1.0625 0.125 3.8625
1.0625 0.0625 3.8625
1.125 0.125 3.8625
1.0625 0.0625 3.925
1.125 0.0625 3.925
1.0625 0 3.925
1.0625 0 3.8625
1.0625 0.125 3.925
1.125 0 3.8625
1.125 0.0625 3.8625
1.1875 0.125 3.8625
1.1875 0.0625 3.8625
1.25 0.125 3.8625
1.1875 0.0625 3.925
1.25 0.0625 3.925
1.1875 0 3.925
1.1875 0 3.8625
1.1875 0.125 3.925
1.25 0 3.8625
1.25 0.0625 3.8625
1.3125 0.125 3.8625
1.3125 0.0625 3.8625
1.375 0.125 3.8625
1.3125 0.0625 3.925
1.375 0.0625 3.925
1.3125 0 3.925
1.3125 0 3.8625
1.3125 0.125 3.925
1.375 0 3.8625
1.375 0.0625 3.8625
1.4375 0.125 3.8625
1.4375 0.0625 3.8625
1.5 0.125 3.8625
1.4375 0.0625 3.925
1.5 0.0625 3.925
1.4375 0 3.925
1.4375 0 3.8625
1.4375 0.125 3.925
1.5 0 3.8625
1.5 0.0625 3.8625
1.5625 0.125 3.8625
1.5625 0.0625 3.8625
1.625 0.125 3.8625
1.5625 0.0625 3.925
1.625 0.0625 3.925
1.5625 0 3.925
1.5625 0 3.8625
1.5625 0.125 3.925
1.625 0 3.8625
1.625 0.0625 3.8625
1.6875 0.125 3.8625
1.6875 0.0625 3.8625
1.75 0.125 3.8625
1.6875 0.0625 3.925
1.75 0.0625 3.925
1.6875 0 3.925
1.6875 0 3.8625
1.6875 0.125 3.925
1.75 0 3.8625
1.75 0.0625 3.8625
1.8125 0.125 3.8625
1.8125 0.0625 3.8625
1.875 0.125 3.8625
1.8125 0.0625 3.925
1.875 0.0625 3.925
1.8125 0 3.925
1.8125 0 3.8625
1.8125 0.125 3.925
1.875 0 3.8625
1.875 0.0625 3.8625
1.9375 0.125 3.8625
1.9375 0.0625 3.8625
2 0.125 3.8625
1.9375 0.0625 3.925
2 0.0625 3.925
1.9375 0 3.925
1.9375 0 3.8625
1.9375 0.125 3.925
2 0 3.8625
2 0.0625 3.8625
2.0625 0.125 3.8625
2.0625 0.0625 3.8625
2.125 0.125 3.8625
2.0625 0.0625 3.925
2.125 0.0625 3.925
2.0625 0 3.925
2.0625 0 3.8625
2.0625 0.125 3.925
2.125 0 3.8625
2.125 0.0625 3.8625
2.1875 0.125 3.8625
2.1875 0.0625 3.8625
2.25 0.125 3.8625
2.1875 0.0625 3.925
2.25 0.0625 3.925
2.1875 0 3.925
2.1875 0 3.8625
2.1875 0.125 3.925
2.25 0 3.8625
2.25 0.0625 3.8625
2.3125 0.125 3.8625
2.3125 0.0625 3.8625
2.375 0.125 3.8625
2.3125 0.0625 3.925
2.375 0.0625 3.925
2.3125 0 3.925
2.3125 0 3.8625
2.3125 0.125 3.925
2.375 0 3.8625
2.375 0.0625 3.8625
2.4375 0.125 3.8625
2.4375 0.0625 3.8625
2.5 0.125 3.8625
2.4375 0.0625 3.925
2.5 0.0625 3.925
2.4375 0 3.925
2.4375 0 3.8625
2.4375 0.125 3.925
2.5 0 3.8625
2.5 0.0625 3.8625
2.5625 0.125 3.8625
2.5625 0.0625 3.8625
2.625 0.125 3.8625
2.5625 0.0625 3.925
2.625 0.0625 3.925
2.5625 0 3.925
2.5625 0 3.8625
2.5625 0.125 3.925
2.625 0 3.8625
2.625 0.0625 3.8625
2.6875 0.125 3.8625
2.6875 0.0625 3.8625
2.75 0.125 3.8625
2.6875 0.0625 3.925
2.75 0.0625 3.925
2.6875 0 3.925
2.6875 0 3.8625
2.6875 0.125 3.925
2.75 0 3.8625
2.75 0.0625 3.8625
2.8125 0.125 3.8625
2.8125 0.0625 3.8625
2.875 0.125 3.8625
2.8125 0.0625 3.925
2.875 0.0625 3.925
2.8125 0 3.925
2.8125 0 3.8625
2.8125 0.125 3.925
2.875 0 3.8625
2.875 0.0625 3.8625
2.9375 0.125 3.8625
2.9375 0.0625 3.8625
3 0.125 3.8625
2.9375 0.0625 3.925
3 0.0625 3.925
2.9375 0 3.925
2.9375 0 3.8625
2.9375 0.125 3.925
3 0 3.8625
3 0.0625 3.8625
3.0625 0.125 3.8625
3.0625 0.0625 3.8625
3.125 0.125 3.8625
3.0625 0.0625 3.925
3.125 0.0625 3.925
3.0625 0 3.925
3.0625 0 3.8625
3.0625 0.125 3.925
3.125 0 3.8625
3.125 0.0625 3.8625
3.1875 0.125 3.8625
3.1875 0.0625 3.8625
3.25 0.125 3.8625
3.1875 0.0625 3.925
3.25 0.0625 3.925
3.1875 0 3.925
3.1875 0 3.8625
3.1875 0.125 3.925
3.25 0 3.8625
3.25 0.0625 3.8625
3.3125 0.125 3.8625
3.3125 0.0625 3.8625
3.375 0.125 3.8625
3.3125 0.0625 3.925
3.375 0.0625 3.925
3.3125 0 3.925
3.3125 0 3.8625
3.3125 0.125 3.925
3.375 0 3.8625
3.375 0.0625 3.8625
3.4375 0.125 3.8625
3.4375 0.0625 3.8625
3.5 0.125 3.8625
3.4375 0.0625 3.925
3.5 0.0625 3.925
3.4375 0 3.925
3.4375 0 3.8625
3.4375 0.125 3.925
3.5 0 3.8625
3.5 0.0625 3.8625
3.5625 0.125 3.8625
3.5625 0.0625 3.8625
3.625 0.125 3.8625
3.5625 0.0625 3.925
3.625 0.0625 3.925
3.5625 0 3.925
3.5625 0 3.8625
3.5625 0.125 3.925
3.625 0 3.8625
3.625 0.0625 3.8625
3.6875 0.125 3.8625
3.6875 0.0625 3.8625
3.75 0.125 3.8625
3.6875 0.0625 3.925
3.75 0.0625 3.925
3.6875 0 3.925
3.6875 0 3.8625
3.6875 0.125 3.925
3.75 0 3.8625
3.75 0.0625 3.8625
3.8125 0.125 3.8625
3.8125 0.0625 3.8625
3.875 0.125 3.8625
3.8125 0.0625 3.925
3.875 0.0625 3.925
3.8125 0 3.925
3.8125 0 3.8625
3.8125 0.125 3.925
3.875 0 3.8625
3.875 0.0625 3.8625
3.9375 0.125 3.8625
3.9375 0.0625 3.8625
4 0.125 3.8625
3.9375 0.0625 3.925
4 0.0625 3.925
3.9375 0 3.925
3.9375 0 3.8625
3.9375 0.125 3.925
4 0 3.8625
4 0.0625 3.8625
0.0625 0.25 3.8625
0.0625 0.1875 3.8625
0.125 0.25 3.8625
0.0625 0.1875 3.925
0.125 0.1875 3.925
0 0.25 3.8625
0 0.1875 3.8625
0.0625 0.25 3.925
0 0.1875 3.925
0.125 0.1875 3.8625
0.1875 0.25 3.8625
0.1875 0.1875 3.8625
0.25 0.25 3.8625
0.1875 0.1875 3.925
0.25 0.1875 3.925
0.1875 0.25 3.925
0.25 0.1875 3.8625
0.3125 0.25 3.8625
0.3125 0.1875 3.8625
0.375 0.25 3.8625
0.3125 0.1875 3.925
0.375 0.1875 3.925
0.3125 0.25 3.925
0.375 0.1875 3.8625
0.4375 0.25 3.8625
0.4375 0.1875 3.8625
0.5 0.25 3.8625
0.4375 0.1875 3.925
0.5 0.1875 3.925
0.4375 0.25 3.925
0.5 0.1875 3.8625
0.5625 0.25 3.8625
0.5625 0.1875 3.8625
0.625 0.25 3.8625
0.5625 0.1875 3.925
0.625 0.1875 3.925
0.5625 0.25 3.925
0.625 0.1875 3.8625
0.6875 0.25 3.8625
0.6875 0.1875 3.8625
0.75 0.25 3.8625
0.6875 0.1875 3.925
0.75 0.1875 3.925
0.6875 0.25 3.925
0.75 0.1875 3.8625
0.8125 0.25 3.8625
0.8125 0.1875 3.8625
0.875 0.25 3.8625
0.8125 0.1875 3.925
0.875 0.1875 3.925
0.8125 0.25 3.925
0.875 0.1875 3.8625
0.9375 0.25 3.8625
0.9375 0.1875 3.8625
1 0.25 3.8625
0.9375 0.1875 3.925
1 0.1875 3.925
0.9375 0.25 3.925
1 0.1875 3.8625
1.0625 0.25 3.8625
1.0625 0.1875 3.8625
1.125 0.25 3.8625
1.0625 0.1875 3.925
1.125 0.1875 3.925
1.0625 0.25 3.925
1.125 0.1875 3.8625
1.1875 0.25 3.8625
1.1875 0.1875 3.8625
1.25 0.25 3.8625
1.1875 0.1875 3.925
1.25 0.1875 3.925
1.1875 0.25 3.925
1.25 0.1875 3.8625
1.3125 0.25 3.8625
1.3125 0.1875 3.8625
1.375 0.25 3.8625
1.3125 0.1875 3.925
1.375 0.1875 3.925
1.3125 0.25 3.925
1.375 0.1875 3.8625
1.4375 0.25 3.8625
1.4375 0.1875 3.8625
1.5 0.25 3.8625
1.4375 0.1875 3.925
1.5 0.1875 3.925
1.4375 0.25 3.925
1.5 0.1875 3.8625
1.5625 0.25 3.8625
1.5625 0.1875 3.8625
1.625 0.25 3.8625
1.5625 0.1875 3.925
1.625 0.1875 3.925
1.5625 0.25 3.925
1.625 0.1875 3.8625
1.6875 0.25 3.8625
1.6875 0.1875 3.8625
1.75 0.25 3.8625
1.6875 0.1875 3.925
1.75 0.1875 3.925
1.6875 0.25 3.925
1.75 0.1875 3.8625
1.8125 0.25 3.8625
1.8125 0.1875 3.8625
1.875 0.25 3.8625
1.8125 0.1875 3.925
1.875 0.1875 3.925
1.8125 0.25 3.925
1.875 0.1875 3.8625
1.9375 0.25 3.8625
1.9375 0.1875 3.8625
2 0.25 3.8625
1.9375 0.1875 3.925
2 0.1875 3.925
1.9375 0.25 3.925
2 0.1875 3.8625
2.0625 0.25 3.8625
2.0625 0.1875 3.8625
2.125 0.25 3.8625
2.0625 0.1875 3.925
2.125 0.1875 3.925
2.0625 0.25 3.925
2.125 0.1875 3.8625
2.1875 0.25 3.8625
2.1875 0.1875 3.8625
2.25 0.25 3.8625
2.1875 0.1875 3.925
2.25 0.1875 3.925
2.1875 0.25 3.925
2.25 0.1875 3.8625
2.3125 0.25 3.8625
2.3125 0.1875 3.8625
2.375 0.25 3.8625
2.3125 0.1875 3.925
2.375 0.1875 3.925
2.3125 0.25 3.925
2.375 0.1875 3.8625
2.4375 0.25 3.8625
2.4375 0.1875 3.8625
2.5 0.25 3.8625
2.4375 0.1875 3.925
2.5 0.1875 3.925
2.4375 0.25 3.925
2.5 0.1875 3.8625
2.5625 0.25 3.8625
2.5625 0.1875 3.8625
2.625 0.25 3.8625
2.5625 0.1875 3.925
2.625 0.1875 3.925
2.5625 0.25 3.925
2.625 0.1875 3.8625
2.6875 0.25 3.8625
2.6875 0.1875 3.8625
2.75 0.25 3.8625
2.6875 0.1875 3.925
2.75 0.1875 3.925
2.6875 0.25 3.925
2.75 0.1875 3.8625
2.8125 0.25 3.8625
2.8125 0.1875 3.8625
2.875 0.25 3.8625
2.8125 0.1875 3.925
2.875 0.1875 3.925
2.8125 0.25 3.925
2.875 0.1875 3.8625
2.9375 0.25 3.8625
2.9375 0.1875 3.8625
3 0.25 3.8625
2.9375 0.1875 3.925
3 0.1875 3.925
2.9375 0.25 3.925
3 0.1875 3.8625
3.0625 0.25 3.8625
3.0625 0.1875 3.8625
3.125 0.25 3.8625
3.0625 0.1875 3.925
3.125 0.1875 3.925
3.0625 0.25 3.925
3.125 0.1875 3.8625
3.1875 0.25 3.8625
3.1875 0.1875 3.8625
3.25 0.25 3.8625
3.1875 0.1875 3.925
3.25 0.1875 3.925
3.1875 0.25 3.925
3.25 0.1875 3.8625
3.3125 0.25 3.8625
3.3125 0.1875 3.8625
3.375 0.25 3.8625
3.3125 0.1875 3.925
3.375 0.1875 3.925
3.3125 0.25 3.925
3.375 0.1875 3.8625
3.4375 0.25 3.8625
3.4375 0.1875 3.8625
3.5 0.25 3.8625
3.4375 0.1875 3.925
3.5 0.1875 3.925
3.4375 0.25 3.925
3.5 0.1875 3.8625
3.5625 0.25 3.8625
3.5625 0.1875 3.8625
3.625 0.25 3.8625
3.5625 0.1875 3.925
3.625 0.1875 3.925
3.5625 0.25 3.925
3.625 0.1875 3.8625
3.6875 0.25 3.8625
3.6875 0.1875 3.8625
3.75 0.25 3.8625
3.6875 0.1875 3.925
3.75 0.1875 3.925
3.6875 0.25 3.925
3.75 0.1875 3.8625
3.8125 0.25 3.8625
3.8125 0.1875 3.8625
3.875 0.25 3.8625
3.8125 0.1875 3.925
3.875 0.1875 3.925
3.8125 0.25 3.925
3.875 0.1875 3.8625
3.9375 0.25 3.8625
3.9375 0.1875 3.8625
4 0.25 3.8625
3.9375 0.1875 3.925
4 0.1875 3.925
3.9375 0.25 3.925
4 0.1875 3.8625
0.0625 0.375 3.8625
0.0625 0.3125 3.8625
0.125 0.375 3.8625
0.0625 0.3125 3.925
0.125 0.3125 3.925
0 0.375 3.8625
0 0.3125 3.8625
0.0625 0.375 3.925
0 0.3125 3.925
0.125 0.3125 3.8625
0.1875 0.375 3.8625
0.1875 0.3125 3.8625
0.25 0.375 3.8625
0.1875 0.3125 3.925
0.25 0.3125 3.925
0.1875 0.375 3.925
0.25 0.3125 3.8625
0.3125 0.375 3.8625
0.3125 0.3125 3.8625
0.375 0.375 3.8625
0.3125 0.3125 3.925
0.375 0.3125 3.925
0.3125 0.375 3.925
0.375 0.3125 3.8625
0.4375 0.375 3.8625
0.4375 0.3125 3.8625
0.5 0.375 3.8625
0.4375 0.3125 3.925
0.5 0.3125 3.925
0.4375 0.375 3.925
0.5 0.3125 3.8625
0.5625 0.375 3.8625
0.5625 0.3125 3.8625
0.625 0.375 3.8625
0.5625 0.3125 3.925
0.625 0.3125 3.925
0.5625 0.375 3.925
0.625 0.3125 3.8625
0.6875 0.375 3.8625
0.6875 0.3125 3.8625
0.75 0.375 3.8625
0.6875 0.3125 3.925
0.75 0.3125 3.925
0.6875 0.375 3.925
0.75 0.3125 3.8625
0.8125 0.375 3.8625
0.8125 0.3125 3.8625
0.875 0.375 3.8625
0.8125 0.3125 3.925
0.875 0.3125 3.925
0.8125 0.375 3.925
0.875 0.3125 3.8625
0.9375 0.375 3.8625
0.9375 0.3125 3.8625
1 0.375 3.8625
0.9375 0.3125 3.925
1 0.3125 3.925
0.9375 0.375 3.925
1 0.3125 3.8625
1.0625 0.375 3.8625
1.0625 0.3125 3.8625
1.125 0.375 3.8625
1.0625 0.3125 3.925
1.125 0.3125 3.925
1.0625 0.375 3.925
1.125 0.3125 3.8625
1.1875 0.375 3.8625
1.1875 0.3125 3.8625
1.25 0.375 3.8625
1.1875 0.3125 3.925
1.25 0.3125 3.925
1.1875 0.375 3.925
1.25 0.3125 3.8625
1.3125 0.375 3.8625
1.3125 0.3125 3.8625
1.375 0.375 3.8625
1.3125 0.3125 3.925
1.375 0.3125 3.925
1.3125 0.375 3.925
1.375 0.3125 3.8625
1.4375 0.375 3.8625
1.4375 0.3125 3.8625
1.5 0.375 3.8625
1.4375 0.3125 3.925
1.5 0.3125 3.925
1.4375 0.375 3.925
1.5 0.3125 3.8625
1.5625 0.375 3.8625
1.5625 0.3125 3.8625
1.625 0.375 3.8625
1.5625 0.3125 3.925
1.625 0.3125 3.925
1.5625 0.375 3.925
1.625 0.3125 3.8625
1.6875 0.375 3.8625
1.6875 0.3125 3.8625
1.75 0.375 3.8625
1.6875 0.3125 3.925
1.75 0.3125 3.925
1.6875 0.375 3.925
1.75 0.3125 3.8625
1.8125 0.375 3.8625
1.8125 0.3125 3.8625
1.875 0.375 3.8625
1.8125 0.3125 3.925
1.875 0.3125 3.925
1.8125 0.375 3.925
1.875 0.3125 3.8625
1.9375 0.375 3.8625
1.9375 0.3125 3.8625
2 0.375 3.8625
1.9375 0.3125 3.925
2 0.3125 3.925
1.9375 0.375 3.925
2 0.3125 3.8625
2.0625 0.375 3.8625
2.0625 0.3125 3.8625
2.125 0.375 3.8625
2.0625 0.3125 3.925
2.125 0.3125 3.925
2.0625 0.375 3.925
2.125 0.3125 3.8625
2.1875 0.375 3.8625
2.1875 0.3125 3.8625
2.25 0.375 3.8625
2.1875 0.3125 3.925
2.25 0.3125 3.925
2.1875 0.375 3.925
2.25 0.3125 3.8625
2.3125 0.375 3.8625
2.3125 0.3125 3.8625
2.375 0.375 3.8625
2.3125 0.3125 3.925
2.375 0.3125 3.925
2.3125 0.375 3.925
2.375 0.3125 3.8625
2.4375 0.375 3.8625
2.4375 0.3125 3.8625
2.5 0.375 3.8625
2.4375 0.3125 3.925
2.5 0.3125 3.925
2.4375 0.375 3.925
2.5 0.3125 3.8625
2.5625 0.375 3.8625
2.5625 0.3125 3.8625
2.625 0.375 3.8625
2.5625 0.3125 3.925
2.625 0.3125 3.925
2.5625 0.375 3.925
2.625 0.3125 3.8625
2.6875 0.375 3.8625
2.6875 0.3125 3.8625
2.75 0.375 3.8625
2.6875 0.3125 3.925
2.75 0.3125 3.925
2.6875 0.375 3.925
2.75 0.3125 3.8625
2.8125 0.375 3.8625
2.8125 0.3125 3.8625
2.875 0.375 3.8625
2.8125 0.3125 3.925
2.875 0.3125 3.925
2.8125 0.375 3.925
2.875 0.3125 3.8625
2.9375 0.375 3.8625
2.9375 0.3125 3.8625
3 0.375 3.8625
2.9375 0.3125 3.925
3 0.3125 3.925
2.9375 0.375 3.925
3 0.3125 3.8625
3.0625 0.375 3.8625
3.0625 0.3125 3.8625
3.125 0.375 3.8625
3.0625 0.3125 3.925
3.125 0.3125 3.925
3.0625 0.375 3.925
3.125 0.3125 3.8625
3.1875 0.375 3.8625
3.1875 0.3125 3.8625
3.25 0.375 3.8625
3.1875 0.3125 3.925
3.25 0.3125 3.925
3.1875 0.375 3.925
3.25 0.3125 3.8625
3.3125 0.375 3.8625
3.3125 0.3125 3.8625
3.375 0.375 3.8625
3.3125 0.3125 3.925
3.375 0.3125 3.925
3.3125 0.375 3.925
3.375 0.3125 3.8625
3.4375 0.375 3.8625
3.4375 0.3125 3.8625
3.5 0.375 3.8625
3.4375 0.3125 3.925
3.5 0.3125 3.925
3.4375 0.375 3.925
3.5 0.3125 3.8625
3.5625 0.375 3.8625
3.5625 0.3125 3.8625
3.625 0.375 3.8625
3.5625 0.3125 3.925
3.625 0.3125 3.925
3.5625 0.375 3.925
3.625 0.3125 3.8625
3.6875 0.375 3.8625
3.6875 0.3125 3.8625
3.75 0.375 3.8625
3.6875 0.3125 3.925
3.75 0.3125 3.925
3.6875 0.375 3.925
3.75 0.3125 3.8625
3.8125 0.375 3.8625
3.8125 0.3125 3.8625
3.875 0.375 3.8625
3.8125 0.3125 3.925
3.875 0.3125 3.925
3.8125 0.375 3.925
3.875 0.3125 3.8625
3.9375 0.375 3.8625
3.9375 0.3125 3.8625
4 0.375 3.8625
3.9375 0.3125 3.925
4 0.3125 3.925
3.9375 0.375 3.925
4 0.3125 3.8625
0.0625 0.5 3.8625
0.0625 0.4375 3.8625
0.125 0.5 3.8625
0.0625 0.4375 3.925
0.125 0.4375 3.925
0 0.5 3.8625
0 0.4375 3.8625
0.0625 0.5 3.925
0 0.4375 3.925
0.125 0.4375 3.8625
0.1875 0.5 3.8625
0.1875 0.4375 3.8625
0.25 0.5 3.8625
0.1875 0.4375 3.925
0.25 0.4375 3.925
0.1875 0.5 3.925
0.25 0.4375 3.8625
0.3125 0.5 3.8625
0.3125 0.4375 3.8625
0.375 0.5 3.8625
0.3125 0.4375 3.925
0.375 0.4375 3.925
0.3125 0.5 3.925
0.375 0.4375 3.8625
0.4375 0.5 3.8625
0.4375 0.4375 3.8625
0.5 0.5 3.8625
0.4375 0.4375 3.925
0.5 0.4375 3.925
0.4375 0.5 3.925
0.5 0.4375 3.8625
0.5625 0.5 3.8625
0.5625 0.4375 3.8625
0.625 0.5 3.8625
0.5625 0.4375 3.925
0.625 0.4375 3.925
0.5625 0.5 3.925
0.625 0.4375 3.8625
0.6875 0.5 3.8625
0.6875 0.4375 3.8625
0.75 0.5 3.8625
0.6875 0.4375 3.925
0.75 0.4375 3.925
0.6875 0.5 3.925
0.75 0.4375 3.8625
0.8125 0.5 3.8625
0.8125 0.4375 3.8625
0.875 0.5 3.8625
0.8125 0.4375 3.925
0.875 0.4375 3.925
0.8125 0.5 3.925
0.875 0.4375 3.8625
0.9375 0.5 3.8625
0.9375 0.4375 3.8625
1 0.5 3.8625
0.9375 0.4375 3.925
1 0.4375 3.925
0.9375 0.5 3.925
1 0.4375 3.8625
1.0625 0.5 3.8625
1.0625 0.4375 3.8625
1.125 0.5 3.8625
1.0625 0.4375 3.925
1.125 0.4375 3.925
1.0625 0.5 3.925
1.125 0.4375 3.8625
1.1875 0.5 3.8625
1.1875 0.4375 3.8625
1.25 0.5 3.8625
1.1875 0.4375 3.925
1.25 0.4375 3.925
1.1875 0.5 3.925
1.25 0.4375 3.8625
1.3125 0.5 3.8625
1.3125 0.4375 3.8625
1.375 0.5 3.8625
1.3125 0.4375 3.925
1.375 0.4375 3.925
1.3125 0.5 3.925
1.375 0.4375 3.8625
1.4375 0.5 3.8625
1.4375 0.4375 3.8625
1.5 0.5 3.8625
1.4375 0.4375 3.925
1.5 0.4375 3.925
1.4375 0.5 3.925
1.5 0.4375 3.8625
1.5625 0.5 3.8625
1.5625 0.4375 3.8625
1.625 0.5 3.8625
1.5625 0.4375 3.925
1.625 0.4375 3.925
1.5625 0.5 3.925
1.625 0.4375 3.8625
1.6875 0.5 3.8625
1.6875 0.4375 3.8625
1.75 0.5 3.8625
1.6875 0.4375 3.925
1.75 0.4375 3.925
1.6875 0.5 3.925
1.75 0.4375 3.8625
1.8125 0.5 3.8625
1.8125 0.4375 3.8625
1.875 0.5 3.8625
1.8125 0.4375 3.925
1.875 0.4375 3.925
1.8125 0.5 3.925
1.875 0.4375 3.8625
1.9375 0.5 3.8625
1.9375 0.4375 3.8625
2 0.5 3.8625
1.9375 0.4375 3.925
2 0.4375 3.925
1.9375 0.5 3.925
2 0.4375 3.8625
2.0625 0.5 3.8625
2.0625 0.4375 3.8625
2.125 0.5 3.8625
2.0625 0.4375 3.925
2.125 0.4375 3.925
2.0625 0.5 3.925
2.125 0.4375 3.8625
2.1875 0.5 3.8625
2.1875 0.4375 3.8625
2.25 0.5 3.8625
2.1875 0.4375 3.925
2.25 0.4375 3.925
2.1875 0.5 3.925
2.25 0.4375 3.8625
2.3125 0.5 3.8625
2.3125 0.4375 3.8625
2.375 0.5 3.8625
2.3125 0.4375 3.925
2.375 0.4375 3.925
2.3125 0.5 3.925
2.375 0.4375 3.8625
2.4375 0.5 3.8625
2.4375 0.4375 3.8625
2.5 0.5 3.8625
2.4375 0.4375 3.925
2.5 0.4375 3.925
2.4375 0.5 3.925
2.5 0.4375 3.8625
2.5625 0.5 3.8625
2.5625 0.4375 3.8625
2.625 0.5 3.8625
2.5625 0.4375 3.925
2.625 0.4375 3.925
2.5625 0.5 3.925
2.625 0.4375 3.8625
2.6875 0.5 3.8625
2.6875 0.4375 3.8625
2.75 0.5 3.8625
2.6875 0.4375 3.925
2.75 0.4375 3.925
2.6875 0.5 3.925
2.75 0.4375 3.8625
2.8125 0.5 3.8625
2.8125 0.4375 3.8625
2.875 0.5 3.8625
2.8125 0.4375 3.925
2.875 0.4375 3.925
2.8125 0.5 3.925
2.875 0.4375 3.8625
2.9375 0.5 3.8625
2.9375 0.4375 3.8625
3 0.5 3.8625
2.9375 0.4375 3.925
3 0.4375 3.925
2.9375 0.5 3.925
3 0.4375 3.8625
3.0625 0.5 3.8625
3.0625 0.4375 3.8625
3.125 0.5 3.8625
3.0625 0.4375 3.925
3.125 0.4375 3.925
3.0625 0.5 3.925
3.125 0.4375 3.8625
3.1875 0.5 3.8625
3.1875 0.4375 3.8625
3.25 0.5 3.8625
3.1875 0.4375 3.925
3.25 0.4375 3.925
3.1875 0.5 3.925
3.25 0.4375 3.8625
3.3125 0.5 3.8625
3.3125 0.4375 3.8625
3.375 0.5 3.8625
3.3125 0.4375 3.925
3.375 0.4375 3.925
3.3125 0.5 3.925
3.375 0.4375 3.8625
3.4375 0.5 3.8625
3.4375 0.4375 3.8625
3.5 0.5 3.8625
3.4375 0.4375 3.925
3.5 0.4375 3.925
3.4375 0.5 3.925
3.5 0.4375 3.8625
3.5625 0.5 3.8625
3.5625 0.4375 3.8625
3.625 0.5 3.8625
3.5625 0.4375 3.925
3.625 0.4375 3.925
3.5625 0.5 3.925
3.625 0.4375 3.8625
3.6875 0.5 3.8625
3.6875 0.4375 3.8625
3.75 0.5 3.8625
3.6875 0.4375 3.925
3.75 0.4375 3.925
3.6875 0.5 3.925
3.75 0.4375 3.8625
3.8125 0.5 3.8625
3.8125 0.4375 3.8625
3.875 0.5 3.8625
3.8125 0.4375 3.925
3.875 0.4375 3.925
3.8125 0.5 3.925
3.875 0.4375 3.8625
3.9375 0.5 3.8625
3.9375 0.4375 3.8625
4 0.5 3.8625
3.9375 0.4375 3.925
4 0.4375 3.925
3.9375 0.5 3.925
4 0.4375 3.8625
0.0625 0.625 3.8625
0.0625 0.5625 3.8625
0.125 0.625 3.8625
0.0625 0.5625 3.925
0.125 0.5625 3.925
0 0.625 3.8625
0 0.5625 3.8625
0.0625 0.625 3.925
0 0.5625 3.925
0.125 0.5625 3.8625
0.1875 0.625 3.8625
0.1875 0.5625 3.8625
0.25 0.625 3.8625
0.1875 0.5625 3.925
0.25 0.5625 3.925
0.1875 0.625 3.925
0.25 0.5625 3.8625
0.3125 0.625 3.8625
0.3125 0.5625 3.8625
0.375 0.625 3.8625
0.3125 0.5625 3.925
0.375 0.5625 3.925
0.3125 0.625 3.925
0.375 0.5625 3.8625
0.4375 0.625 3.8625
0.4375 0.5625 3.8625
0.5 0.625 3.8625
0.4375 0.5625 3.925
0.5 0.5625 3.925
0.4375 0.625 3.925
0.5 0.5625 3.8625
0.5625 0.625 3.8625
0.5625 0.5625 3.8625
0.625 0.625 3.8625
0.5625 0.5625 3.925
0.625 0.5625 3.925
0.5625 0.625 3.925
0.625 0.5625 3.8625
0.6875 0.625 3.8625
0.6875 0.5625 3.8625
0.75 0.625 3.8625
0.6875 0.5625 3.925
0.75 0.5625 3.925
0.6875 0.625 3.925
0.75 0.5625 3.8625
0.8125 0.625 3.8625
0.8125 0.5625 3.8625
0.875 0.625 3.8625
0.8125 0.5625 3.925
0.875 0.5625 3.925
0.8125 0.625 3.925
0.875 0.5625 3.8625
0.9375 0.625 3.8625
0.9375 0.5625 3.8625
1 0.625 3.8625
0.9375 0.5625 3.925
1 0.5625 3.925
0.9375 0.625 3.925
1 0.5625 3.8625
1.0625 0.625 3.8625
1.0625 0.5625 3.8625
1.125 0.625 3.8625
1.0625 0.5625 3.925
1.125 0.5625 3.925
1.0625 0.625 3.925
1.125 0.5625 3.8625
1.1875 0.625 3.8625
1.1875 0.5625 3.8625
1.25 0.625 3.8625
1.1875 0.5625 3.925
1.25 0.5625 3.925
1.1875 0.625 3.925
1.25 0.5625 3.8625
1.3125 0.625 3.8625
1.3125 0.5625 3.8625
1.375 0.625 3.8625
1.3125 0.5625 3.925
1.375 0.5625 3.925
1.3125 0.625 3.925
1.375 0.5625 3.8625
1.4375 0.625 3.8625
1.4375 0.5625 3.8625
1.5 0.625 3.8625
1.4375 0.5625 3.925
1.5 0.5625 3.925
1.4375 0.625 3.925
1.5 0.5625 3.8625
1.5625 0.625 3.8625
1.5625 0.5625 3.8625
1.625 0.625 3.8625
1.5625 0.5625 3.925
1.625 0.5625 3.925
1.5625 0.625 3.925
1.625 0.5625 3.8625
1.6875 0.625 3.8625
1.6875 0.5625 3.8625
1.75 0.625 3.8625
1.6875 0.5625 3.925
1.75 0.5625 3.925
1.6875 0.625 3.925
1.75 0.5625 3.8625
1.8125 0.625 3.8625
1.8125 0.5625 3.8625
1.875 0.625 3.8625
1.8125 0.5625 3.925
1.875 0.5625 3.925
1.8125 0.625 3.925
1.875 0.5625 3.8625
1.9375 0.625 3.8625
1.9375 0.5625 3.8625
2 0.625 3.8625
1.9375 0.5625 3.925
2 0.5625 3.925
1.9375 0.625 3.925
2 0.5625 3.8625
2.0625 0.625 3.8625
2.0625 0.5625 3.8625
2.125 0.625 3.8625
2.0625 0.5625 3.925
2.125 0.5625 3.925
2.0625 0.625 3.925
2.125 0.5625 3.8625
2.1875 0.625 3.8625
2.1875 0.5625 3.8625
2.25 0.625 3.8625
2.1875 0.5625 3.925
2.25 0.5625 3.925
2.1875 0.625 3.925
2.25 0.5625 3.8625
2.3125 0.625 3.8625
2.3125 0.5625 3.8625
2.375 0.625 3.8625
2.3125 0.5625 3.925
2.375 0.5625 3.925
2.3125 0.625 3.925
2.375 0.5625 3.8625
2.4375 0.625 3.8625
2.4375 0.5625 3.8625
2.5 0.625 3.8625
2.4375 0.5625 3.925
2.5 0.5625 3.925
2.4375 0.625 3.925
2.5 0.5625 3.8625
2.5625 0.625 3.8625
2.5625 0.5625 3.8625
2.625 0.625 3.8625
2.5625 0.5625 3.925
2.625 0.5625 3.925
2.5625 0.625 3.925
2.625 0.5625 3.8625
2.6875 0.625 3.8625
2.6875 0.5625 3.8625
2.75 0.625 3.8625
2.6875 0.5625 3.925
2.75 0.5625 3.925
2.6875 0.625 3.925
2.75 0.5625 3.8625
2.8125 0.625 3.8625
2.8125 0.5625 3.8625
2.875 0.625 3.8625
2.8125 0.5625 3.925
2.875 0.5625 3.925
2.8125 0.625 3.925
2.875 0.5625 3.8625
2.9375 0.625 3.8625
2.9375 0.5625 3.8625
3 0.625 3.8625
2.9375 0.5625 3.925
3 0.5625 3.925
2.9375 0.625 3.925
3 0.5625 3.8625
3.0625 0.625 3.8625
3.0625 0.5625 3.8625
3.125 0.625 3.8625
3.0625 0.5625 3.925
3.125 0.5625 3.925
3.0625 0.625 3.925
3.125 0.5625 3.8625
3.1875 0.625 3.8625
3.1875 0.5625 3.8625
3.25 0.625 3.8625
3.1875 0.5625 3.925
3.25 0.5625 3.925
3.1875 0.625 3.925
3.25 0.5625 3.8625
3.3125 0.625 3.8625
3.3125 0.5625 3.8625
3.375 0.625 3.8625
3.3125 0.5625 3.925
3.375 0.5625 3.925
3.3125 0.625 3.925
3.375 0.5625 3.8625
3.4375 0.625 3.8625
3.4375 0.5625 3.8625
3.5 0.625 3.8625
3.4375 0.5625 3.925
3.5 0.5625 3.925
3.4375 0.625 3.925
3.5 0.5625 3.8625
3.5625 0.625 3.8625
3.5625 0.5625 3.8625
3.625 0.625 3.8625
3.5625 0.5625 3.925
3.625 0.5625 3.925
3.5625 0.625 3.925
3.625 0.5625 3.8625
3.6875 0.625 3.8625
3.6875 0.5625 3.8625
3.75 0.625 3.8625
3.6875 0.5625 3.925
3.75 0.5625 3.925
3.6875 0.625 3.925
3.75 0.5625 3.8625
3.8125 0.625 3.8625
3.8125 0.5625 3.8625
3.875 0.625 3.8625
3.8125 0.5625 3.925
3.875 0.5625 3.925
3.8125 0.625 3.925
3.875 0.5625 3.8625
3.9375 0.625 3.8625
3.9375 0.5625 3.8625
4 0.625 3.8625
3.9375 0.5625 3.925
4 0.5625 3.925
3.9375 0.625 3.925
4 0.5625 3.8625
0.0625 0.75 3.8625
0.0625 0.6875 3.8625
0.125 0.75 3.8625
0.0625 0.6875 3.925
0.125 0.6875 3.925
0 0.75 3.8625
0 0.6875 3.8625
0.0625 0.75 3.925
0 0.6875 3.925
0.125 0.6875 3.8625
0.1875 0.75 3.8625
0.1875 0.6875 3.8625
0.25 0.75 3.8625
0.1875 0.6875 3.925
0.25 0.6875 3.925
0.1875 0.75 3.925
0.25 0.6875 3.8625
0.3125 0.75 3.8625
0.3125 0.6875 3.8625
0.375 0.75 3.8625
0.3125 0.6875 3.925
0.375 0.6875 3.925
0.3125 0.75 3.925
0.375 0.6875 3.8625
0.4375 0.75 3.8625
0.4375 0.6875 3.8625
0.5 0.75 3.8625
0.4375 0.6875 3.925
0.5 0.6875 3.925
0.4375 0.75 3.925
0.5 0.6875 3.8625
0.5625 0.75 3.8625
0.5625 0.6875 3.8625
0.625 0.75 3.8625
0.5625 0.6875 3.925
0.625 0.6875 3.925
0.5625 0.75 3.925
0.625 0.6875 3.8625
0.6875 0.75 3.8625
0.6875 0.6875 3.8625
0.75 0.75 3.8625
0.6875 0.6875 3.925
0.75 0.6875 3.925
0.6875 0.75 3.925
0.75 0.6875 3.8625
0.8125 0.75 3.8625
0.8125 0.6875 3.8625
0.875 0.75 3.8625
0.8125 0.6875 3.925
0.875 0.6875 3.925
0.8125 0.75 3.925
0.875 0.6875 3.8625
0.9375 0.75 3.8625
0.9375 0.6875 3.8625
1 0.75 3.8625
0.9375 0.6875 3.925
1 0.6875 3.925
0.9375 0.75 3.925
1 0.6875 3.8625
1.0625 0.75 3.8625
1.0625 0.6875 3.8625
1.125 0.75 3.8625
1.0625 0.6875 3.925
1.125 0.6875 3.925
1.0625 0.75 3.925
1.125 0.6875 3.8625
1.1875 0.75 3.8625
1.1875 0.6875 3.8625
1.25 0.75 3.8625
1.1875 0.6875 3.925
1.25 0.6875 3.925
1.1875 0.75 3.925
1.25 0.6875 3.8625
1.3125 0.75 3.8625
1.3125 0.6875 3.8625
1.375 0.75 3.8625
1.3125 0.6875 3.925
1.375 0.6875 3.925
1.3125 0.75 3.925
1.375 0.6875 3.8625
1.4375 0.75 3.8625
1.4375 0.6875 3.8625
1.5 0.75 3.8625
1.4375 0.6875 3.925
1.5 0.6875 3.925
1.4375 0.75 3.925
1.5 0.6875 3.8625
1.5625 0.75 3.8625
1.5625 0.6875 3.8625
1.625 0.75 3.8625
1.5625 0.6875 3.925
1.625 0.6875 3.925
1.5625 0.75 3.925
1.625 0.6875 3.8625
1.6875 0.75 3.8625
1.6875 0.6875 3.8625
1.75 0.75 3.8625
1.6875 0.6875 3.925
1.75 0.6875 3.925
1.6875 0.75 3.925
1.75 0.6875 3.8625
1.8125 0.75 3.8625
1.8125 0.6875 3.8625
1.875 0.75 3.8625
1.8125 0.6875 3.925
1.875 0.6875 3.925
1.8125 0.75 3.925
1.875 0.6875 3.8625
1.9375 0.75 3.8625
1.9375 0.6875 3.8625
2 0.75 3.8625
1.9375 0.6875 3.925
2 0.6875 3.925
1.9375 0.75 3.925
2 0.6875 3.8625
2.0625 0.75 3.8625
2.0625 0.6875 3.8625
2.125 0.75 3.8625
2.0625 0.6875 3.925
2.125 0.6875 3.925
2.0625 0.75 3.925
2.125 0.6875 3.8625
2.1875 0.75 3.8625
2.1875 0.6875 3.8625
2.25 0.75 3.8625
2.1875 0.6875 3.925
2.25 0.6875 3.925
2.1875 0.75 3.925
2.25 0.6875 3.8625
2.3125 0.75 3.8625
2.3125 0.6875 3.8625
2.375 0.75 3.8625
2.3125 0.6875 3.925
2.375 0.6875 3.925
2.3125 0.75 3.925
2.375 0.6875 3.8625
2.4375 0.75 3.8625
2.4375 0.6875 3.8625
2.5 0.75 3.8625
2.4375 0.6875 3.925
2.5 0.6875 3.925
2.4375 0.75 3.925
2.5 0.6875 3.8625
2.5625 0.75 3.8625
2.5625 0.6875 3.8625
2.625 0.75 3.8625
2.5625 0.6875 3.925
2.625 0.6875 3.925
2.5625 0.75 3.925
2.625 0.6875 3.8625
2.6875 0.75 3.8625
2.6875 0.6875 3.8625
2.75 0.75 3.8625
2.6875 0.6875 3.925
2.75 0.6875 3.925
2.6875 0.75 3.925
2.75 0.6875 3.8625
2.8125 0.75 3.8625
2.8125 0.6875 3.8625
2.875 0.75 3.8625
2.8125 0.6875 3.925
2.875 0.6875 3.925
2.8125 0.75 3.925
2.875 0.6875 3.8625
2.9375 0.75 3.8625
2.9375 0.6875 3.8625
3 0.75 3.8625
2.9375 0.6875 3.925
3 0.6875 3.925
2.9375 0.75 3.925
3 0.6875 3.8625
3.0625 0.75 3.8625
3.0625 0.6875 3.8625
3.125 0.75 3.8625
3.0625 0.6875 3.925
3.125 0.6875 3.925
3.0625 0.75 3.925
3.125 0.6875 3.8625
3.1875 0.75 3.8625
3.1875 0.6875 3.8625
3.25 0.75 3.8625
3.1875 0.6875 3.925
3.25 0.6875 3.925
3.1875 0.75 3.925
3.25 0.6875 3.8625
3.3125 0.75 3.8625
3.3125 0.6875 3.8625
3.375 0.75 3.8625
3.3125 0.6875 3.925
3.375 0.6875 3.925
3.3125 0.75 3.925
3.375 0.6875 3.8625
3.4375 0.75 3.8625
3.4375 0.6875 3.8625
3.5 0.75 3.8625
3.4375 0.6875 3.925
3.5 0.6875 3.925
3.4375 0.75 3.925
3.5 0.6875 3.8625
3.5625 0.75 3.8625
3.5625 0.6875 3.8625
3.625 0.75 3.8625
3.5625 0.6875 3.925
3.625 0.6875 3.925
3.5625 0.75 3.925
3.625 0.6875 3.8625
3.6875 0.75 3.8625
3.6875 0.6875 3.8625
3.75 0.75 3.8625
3.6875 0.6875 3.925
3.75 0.6875 3.925
3.6875 0.75 3.925
3.75 0.6875 3.8625
3.8125 0.75 3.8625
3.8125 0.6875 3.8625
3.875 0.75 3.8625
3.8125 0.6875 3.925
3.875 0.6875 3.925
3.8125 0.75 3.925
3.875 0.6875 3.8625
3.9375 0.75 3.8625
3.9375 0.6875 3.8625
4 0.75 3.8625
3.9375 0.6875 3.925
4 0.6875 3.925
3.9375 0.75 3.925
4 0.6875 3.8625
0.0625 0.875 3.8625
0.0625 0.8125 3.8625
0.125 0.875 3.8625
0.0625 0.8125 3.925
0.125 0.8125 3.925
0 0.875 3.8625
0 0.8125 3.8625
0.0625 0.875 3.925
0 0.8125 3.925
0.125 0.8125 3.8625
0.1875 0.875 3.8625
0.1875 0.8125 3.8625
0.25 0.875 3.8625
0.1875 0.8125 3.925
0.25 0.8125 3.925
0.1875 0.875 3.925
0.25 0.8125 3.8625
0.3125 0.875 3.8625
0.3125 0.8125 3.8625
0.375 0.875 3.8625
0.3125 0.8125 3.925
0.375 0.8125 3.925
0.3125 0.875 3.925
0.375 0.8125 3.8625
0.4375 0.875 3.8625
0.4375 0.8125 3.8625
0.5 0.875 3.8625
0.4375 0.8125 3.925
0.5 0.8125 3.925
0.4375 0.875 3.925
0.5 0.8125 3.8625
0.5625 0.875 3.8625
0.5625 0.8125 3.8625
0.625 0.875 3.8625
0.5625 0.8125 3.925
0.625 0.8125 3.925
0.5625 0.875 3.925
0.625 0.8125 3.8625
0.6875 0.875 3.8625
0.6875 0.8125 3.8625
0.75 0.875 3.8625
0.6875 0.8125 3.925
0.75 0.8125 3.925
0.6875 0.875 3.925
0.75 0.8125 3.8625
0.8125 0.875 3.8625
0.8125 0.8125 3.8625
0.875 0.875 3.8625
0.8125 0.8125 3.925
0.875 0.8125 3.925
0.8125 0.875 3.925
0.875 0.8125 3.8625
0.9375 0.875 3.8625
0.9375 0.8125 3.8625
1 0.875 3.8625
0.9375 0.8125 3.925
1 0.8125 3.925
0.9375 0.875 3.925
1 0.8125 3.8625
1.0625 0.875 3.8625
1.0625 0.8125 3.8625
1.125 0.875 3.8625
1.0625 0.8125 3.925
1.125 0.8125 3.925
1.0625 0.875 3.925
1.125 0.8125 3.8625
1.1875 0.875 3.8625
1.1875 0.8125 3.8625
1.25 0.875 3.8625
1.1875 0.8125 3.925
1.25 0.8125 3.925
1.1875 0.875 3.925
1.25 0.8125 3.8625
1.3125 0.875 3.8625
1.3125 0.8125 3.8625
1.375 0.875 3.8625
1.3125 0.8125 3.925
1.375 0.8125 3.925
1.3125 0.875 3.925
1.375 0.8125 3.8625
1.4375 0.875 3.8625
1.4375 0.8125 3.8625
1.5 0.875 3.8625
1.4375 0.8125 3.925
1.5 0.8125 3.925
1.4375 0.875 3.925
1.5 0.8125 3.8625
1.5625 0.875 3.8625
1.5625 0.8125 3.8625
1.625 0.875 3.8625
1.5625 0.8125 3.925
1.625 0.8125 3.925
1.5625 0.875 3.925
1.625 0.8125 3.8625
1.6875 0.875 3.8625
1.6875 0.8125 3.8625
1.75 0.875 3.8625
1.6875 0.8125 3.925
1.75 0.8125 3.925
1.6875 0.875 3.925
1.75 0.8125 3.8625
1.8125 0.875 3.8625
1.8125 0.8125 3.8625
1.875 0.875 3.8625
1.8125 0.8125 3.925
1.875 0.8125 3.925
1.8125 0.875 3.925
1.875 0.8125 3.8625
1.9375 0.875 3.8625
1.9375 0.8125 3.8625
2 0.875 3.8625
1.9375 0.8125 3.925
2 0.8125 3.925
1.9375 0.875 3.925
2 0.8125 3.8625
2.0625 0.875 3.8625
2.0625 0.8125 3.8625
2.125 0.875 3.8625
2.0625 0.8125 3.925
2.125 0.8125 3.925
2.0625 0.875 3.925
2.125 0.8125 3.8625
2.1875 0.875 3.8625
2.1875 0.8125 3.8625
2.25 0.875 3.8625
2.1875 0.8125 3.925
2.25 0.8125 3.925
2.1875 0.875 3.925
2.25 0.8125 3.8625
2.3125 0.875 3.8625
2.3125 0.8125 3.8625
2.375 0.875 3.8625
2.3125 0.8125 3.925
2.375 0.8125 3.925
2.3125 0.875 3.925
2.375 0.8125 3.8625
2.4375 0.875 3.8625
2.4375 0.8125 3.8625
2.5 0.875 3.8625
2.4375 0.8125 3.925
2.5 0.8125 3.925
2.4375 0.875 3.925
2.5 0.8125 3.8625
2.5625 0.875 3.8625
2.5625 0.8125 3.8625
2.625 0.875 3.8625
2.5625 0.8125 3.925
2.625 0.8125 3.925
2.5625 0.875 3.925
2.625 0.8125 3.8625
2.6875 0.875 3.8625
2.6875 0.8125 3.8625
2.75 0.875 3.8625
2.6875 0.8125 3.925
2.75 0.8125 3.925
2.6875 0.875 3.925
2.75 0.8125 3.8625
2.8125 0.875 3.8625
2.8125 0.8125 3.8625
2.875 0.875 3.8625
2.8125 0.8125 3.925
2.875 0.8125 3.925
2.8125 0.875 3.925
2.875 0.8125 3.8625
2.9375 0.875 3.8625
2.9375 0.8125 3.8625
3 0.875 3.8625
2.9375 0.8125 3.925
3 0.8125 3.925
2.9375 0.875 3.925
3 0.8125 3.8625
3.0625 0.875 3.8625
3.0625 0.8125 3.8625
3.125 0.875 3.8625
3.0625 0.8125 3.925
3.125 0.8125 3.925
3.0625 0.875 3.925
3.125 0.8125 3.8625
3.1875 0.875 3.8625
3.1875 0.8125 3.8625
3.25 0.875 3.8625
3.1875 0.8125 3.925
3.25 0.8125 3.925
3.1875 0.875 3.925
3.25 0.8125 3.8625
3.3125 0.875 3.8625
3.3125 0.8125 3.8625
3.375 0.875 3.8625
3.3125 0.8125 3.925
3.375 0.8125 3.925
3.3125 0.875 3.925
3.375 0.8125 3.8625
3.4375 0.875 3.8625
3.4375 0.8125 3.8625
3.5 0.875 3.8625
3.4375 0.8125 3.925
3.5 0.8125 3.925
3.4375 0.875 3.925
3.5 0.8125 3.8625
3.5625 0.875 3.8625
3.5625 0.8125 3.8625
3.625 0.875 3.8625
3.5625 0.8125 3.925
3.625 0.8125 3.925
3.5625 0.875 3.925
3.625 0.8125 3.8625
3.6875 0.875 3.8625
3.6875 0.8125 3.8625
3.75 0.875 3.8625
3.6875 0.8125 3.925
3.75 0.8125 3.925
3.6875 0.875 3.925
3.75 0.8125 3.8625
3.8125 0.875 3.8625
3.8125 0.8125 3.8625
3.875 0.875 3.8625
3.8125 0.8125 3.925
3.875 0.8125 3.925
3.8125 0.875 3.925
3.875 0.8125 3.8625
3.9375 0.875 3.8625
3.9375 0.8125 3.8625
4 0.875 3.8625
3.9375 0.8125 3.925
4 0.8125 3.925
3.9375 0.875 3.925
4 0.8125 3.8625
0.0625 1 3.8625
0.0625 0.9375 3.8625
0.125 1 3.8625
0.0625 0.9375 3.925
0.125 0.9375 3.925
0 1 3.8625
0 0.9375 3.8625
0.0625 1 3.925
0 0.9375 3.925
0.125 0.9375 3.8625
0.1875 1 3.8625
0.1875 0.9375 3.8625
0.25 1 3.8625
0.1875 0.9375 3.925
0.25 0.9375 3.925
0.1875 1 3.925
0.25 0.9375 3.8625
0.3125 1 3.8625
0.3125 0.9375 3.8625
0.375 1 3.8625
0.3125 0.9375 3.925
0.375 0.9375 3.925
0.3125 1 3.925
0.375 0.9375 3.8625
0.4375 1 3.8625
0.4375 0.9375 3.8625
0.5 1 3.8625
0.4375 0.9375 3.925
0.5 0.9375 3.925
0.4375 1 3.925
0.5 0.9375 3.8625
0.5625 1 3.8625
0.5625 0.9375 3.8625
0.625 1 3.8625
0.5625 0.9375 3.925
0.625 0.9375 3.925
0.5625 1 3.925
0.625 0.9375 3.8625
0.6875 1 3.8625
0.6875 0.9375 3.8625
0.75 1 3.8625
0.6875 0.9375 3.925
0.75 0.9375 3.925
0.6875 1 3.925
0.75 0.9375 3.8625
0.8125 1 3.8625
0.8125 0.9375 3.8625
0.875 1 3.8625
0.8125 0.9375 3.925
0.875 0.9375 3.925
0.8125 1 3.925
0.875 0.9375 3.8625
0.9375 1 3.8625
0.9375 0.9375 3.8625
1 1 3.8625
0.9375 0.9375 3.925
1 0.9375 3.925
0.9375 1 3.925
1 0.9375 3.8625
1.0625 1 3.8625
1.0625 0.9375 3.8625
1.125 1 3.8625
1.0625 0.9375 3.925
1.125 0.9375 3.925
1.0625 1 3.925
1.125 0.9375 3.8625
1.1875 1 3.8625
1.1875 0.9375 3.8625
1.25 1 3.8625
1.1875 0.9375 3.925
1.25 0.9375 3.925
1.1875 1 3.925
1.25 0.9375 3.8625
1.3125 1 3.8625
1.3125 0.9375 3.8625
1.375 1 3.8625
1.3125 0.9375 3.925
1.375 0.9375 3.925
1.3125 1 3.925
1.375 0.9375 3.8625
1.4375 1 3.8625
1.4375 0.9375 3.8625
1.5 1 3.8625
1.4375 0.9375 3.925
1.5 0.9375 3.925
1.4375 1 3.925
1.5 0.9375 3.8625
1.5625 1 3.8625
1.5625 0.9375 3.8625
1.625 1 3.8625
1.5625 0.9375 3.925
1.625 0.9375 3.925
1.5625 1 3.925
1.625 0.9375 3.8625
1.6875 1 3.8625
1.6875 0.9375 3.8625
1.75 1 3.8625
1.6875 0.9375 3.925
1.75 0.9375 3.925
1.6875 1 3.925
1.75 0.9375 3.8625
1.8125 1 3.8625
1.8125 0.9375 3.8625
1.875 1 3.8625
1.8125 0.9375 3.925
1.875 0.9375 3.925
1.8125 1 3.925
1.875 0.9375 3.8625
1.9375 1 3.8625
1.9375 0.9375 3.8625
2 1 3.8625
1.9375 0.9375 3.925
2 0.9375 3.925
1.9375 1 3.925
2 0.9375 3.8625
2.0625 1 3.8625
2.0625 0.9375 3.8625
2.125 1 3.8625
2.0625 0.9375 3.925
2.125 0.9375 3.925
2.0625 1 3.925
2.125 0.9375 3.8625
2.1875 1 3.8625
2.1875 0.9375 3.8625
2.25 1 3.8625
2.1875 0.9375 3.925
2.25 0.9375 3.925
2.1875 1 3.925
2.25 0.9375 3.8625
2.3125 1 3.8625
2.3125 0.9375 3.8625
2.375 1 3.8625
2.3125 0.9375 3.925
2.375 0.9375 3.925
2.3125 1 3.925
2.375 0.9375 3.8625
2.4375 1 3.8625
2.4375 0.9375 3.8625
2.5 1 3.8625
2.4375 0.9375 3.925
2.5 0.9375 3.925
2.4375 1 3.925
2.5 0.9375 3.8625
2.5625 1 3.8625
2.5625 0.9375 3.8625
2.625 1 3.8625
2.5625 0.9375 3.925
2.625 0.9375 3.925
2.5625 1 3.925
2.625 0.9375 3.8625
2.6875 1 3.8625
2.6875 0.9375 3.8625
2.75 1 3.8625
2.6875 0.9375 3.925
2.75 0.9375 3.925
2.6875 1 3.925
2.75 0.9375 3.8625
2.8125 1 3.8625
2.8125 0.9375 3.8625
2.875 1 3.8625
2.8125 0.9375 3.925
2.875 0.9375 3.925
2.8125 1 3.925
2.875 0.9375 3.8625
2.9375 1 3.8625
2.9375 0.9375 3.8625
3 1 3.8625
2.9375 0.9375 3.925
3 0.9375 3.925
2.9375 1 3.925
3 0.9375 3.8625
3.0625 1 3.8625
3.0625 0.9375 3.8625
3.125 1 3.8625
3.0625 0.9375 3.925
3.125 0.9375 3.925
3.0625 1 3.925
3.125 0.9375 3.8625
3.1875 1 3.8625
3.1875 0.9375 3.8625
3.25 1 3.8625
3.1875 0.9375 3.925
3.25 0.9375 3.925
3.1875 1 3.925
3.25 0.9375 3.8625
3.3125 1 3.8625
3.3125 0.9375 3.8625
3.375 1 3.8625
3.3125 0.9375 3.925
3.375 0.9375 3.925
3.3125 1 3.925
3.375 0.9375 3.8625
3.4375 1 3.8625
3.4375 0.9375 3.8625
3.5 1 3.8625
3.4375 0.9375 3.925
3.5 0.9375 3.925
3.4375 1 3.925
3.5 0.9375 3.8625
3.5625 1 3.8625
3.5625 0.9375 3.8625
3.625 1 3.8625
3.5625 0.9375 3.925
3.625 0.9375 3.925
3.5625 1 3.925
3.625 0.9375 3.8625
3.6875 1 3.8625
3.6875 0.9375 3.8625
3.75 1 3.8625
3.6875 0.9375 3.925
3.75 0.9375 3.925
3.6875 1 3.925
3.75 0.9375 3.8625
3.8125 1 3.8625
3.8125 0.9375 3.8625
3.875 1 3.8625
3.8125 0.9375 3.925
3.875 0.9375 3.925
3.8125 1 3.925
3.875 0.9375 3.8625
3.9375 1 3.8625
3.9375 0.9375 3.8625
4 1 3.8625
3.9375 0.9375 3.925
4 0.9375 3.925
3.9375 1 3.925
4 0.9375 3.8625
0.0625 0.125 3.9875
0.0625 0.0625 3.9875
0.125 0.125 3.9875
0.0625 0.0625 4.05
0.125 0.0625 4.05
0.0625 0 4.05
0 0 3.9875
0.0625 0 3.9875
0 0.125 3.9875
0 0.0625 3.9875
0.0625 0.125 4.05
0 0.0625 4.05
0.125 0 3.9875
0.125 0.0625 3.9875
0.1875 0.125 3.9875
0.1875 0.0625 3.9875
0.25 0.125 3.9875
0.1875 0.0625 4.05
0.25 0.0625 4.05
0.1875 0 4.05
0.1875 0 3.9875
0.1875 0.125 4.05
0.25 0 3.9875
0.25 0.0625 3.9875
0.3125 0.125 3.9875
0.3125 0.0625 3.9875
0.375 0.125 3.9875
0.3125 0.0625 4.05
0.375 0.0625 4.05
0.3125 0 4.05
0.3125 0 3.9875
0.3125 0.125 4.05
0.375 0 3.9875
0.375 0.0625 3.9875
0.4375 0.125 3.9875
0.4375 0.0625 3.9875
0.5 0.125 3.9875
0.4375 0.0625 4.05
0.5 0.0625 4.05
0.4375 0 4.05
0.4375 0 3.9875
0.4375 0.125 4.05
0.5 0 3.9875
0.5 0.0625 3.9875
0.5625 0.125 3.9875
0.5625 0.0625 3.9875
0.625 0.125 3.9875
0.5625 0.0625 4.05
0.625 0.0625 4.05
0.5625 0 4.05
0.5625 0 3.9875
0.5625 0.125 4.05
0.625 0 3.9875
0.625 0.0625 3.9875
0.6875 0.125 3.9875
0.6875 0.0625 3.9875
0.75 0.125 3.9875
0.6875 0.0625 4.05
0.75 0.0625 4.05
0.6875 0 4.05
0.6875 0 3.9875
0.6875 0.125 4.05
0.75 0 3.9875
0.75 0.0625 3.9875
0.8125 0.125 3.9875
0.8125 0.0625 3.9875
0.875 0.125 3.9875
0.8125 0.0625 4.05
0.875 0.0625 4.05
0.8125 0 4.05
0.8125 0 3.9875
0.8125 0.125 4.05
0.875 0 3.9875
0.875 0.0625 3.9875
0.9375 0.125 3.9875
0.9375 0.0625 3.9875
1 0.125 3.9875
0.9375 0.0625 4.05
1 0.0625 4.05
0.9375 0 4.05
0.9375 0 3.9875
0.9375 0.125 4.05
1 0 3.9875
1 0.0625 3.9875
1.0625 0.125 3.9875
1.0625 0.0625 3.9875
1.125 0.125 3.9875
1.0625 0.0625 4.05
1.125 0.0625 4.05
1.0625 0 4.05
1.0625 0 3.9875
1.0625 0.125 4.05
1.125 0 3.9875
1.125 0.0625 3.9875
1.1875 0.125 3.9875
1.1875 0.0625 3.9875
1.25 0.125 3.9875
1.1875 0.0625 4.05
1.25 0.0625 4.05
1.1875 0 4.05
1.1875 0 3.9875
1.1875 0.125 4.05
1.25 0 3.9875
1.25 0.0625 3.9875
1.3125 0.125 3.9875
1.3125 0.0625 3.9875
1.375 0.125 3.9875
1.3125 0.0625 4.05
1.375 0.0625 4.05
1.3125 0 4.05
1.3125 0 3.9875
1.3125 0.125 4.05
1.375 0 3.9875
1.375 0.0625 3.9875
1.4375 0.125 3.9875
1.4375 0.0625 3.9875
1.5 0.125 3.9875
1.4375 0.0625 4.05
1.5 0.0625 4.05
1.4375 0 4.05
1.4375 0 3.9875
1.4375 0.125 4.05
1.5 0 3.9875
1.5 0.0625 3.9875
1.5625 0.125 3.9875
1.5625 0.0625 3.9875
1.625 0.125 3.9875
1.5625 0.0625 4.05
1.625 0.0625 4.05
1.5625 0 4.05
1.5625 0 3.9875
1.5625 0.125 4.05
1.625 0 3.9875
1.625 0.0625 3.9875
1.6875 0.125 3.9875
1.6875 0.0625 3.9875
1.75 0.125 3.9875
1.6875 0.0625 4.05
1.75 0.0625 4.05
1.6875 0 4.05
1.6875 0 3.9875
1.6875 0.125 4.05
1.75 0 3.9875
1.75 0.0625 3.9875
1.8125 0.125 3.9875
1.8125 0.0625 3.9875
1.875 0.125 3.9875
1.8125 0.0625 4.05
1.875 0.0625 4.05
1.8125 0 4.05
1.8125 0 3.9875
1.8125 0.125 4.05
1.875 0 3.9875
1.875 0.0625 3.9875
1.9375 0.125 3.9875
1.9375 0.0625 3.9875
2 0.125 3.9875
1.9375 0.0625 4.05
2 0.0625 4.05
1.9375 0 4.05
1.9375 0 3.9875
1.9375 0.125 4.05
2 0 3.9875
2 0.0625 3.9875
2.0625 0.125 3.9875
2.0625 0.0625 3.9875
2.125 0.125 3.9875
2.0625 0.0625 4.05
2.125 0.0625 4.05
2.0625 0 4.05
2.0625 0 3.9875
2.0625 0.125 4.05
2.125 0 3.9875
2.125 0.0625 3.9875
2.1875 0.125 3.9875
2.1875 0.0625 3.9875
2.25 0.125 3.9875
2.1875 0.0625 4.05
2.25 0.0625 4.05
2.1875 0 4.05
2.1875 0 3.9875
2.1875 0.125 4.05
2.25 0 3.9875
2.25 0.0625 3.9875
2.3125 0.125 3.9875
2.3125 0.0625 3.9875
2.375 0.125 3.9875
2.3125 0.0625 4.05
2.375 0.0625 4.05
2.3125 0 4.05
2.3125 0 3.9875
2.3125 0.125 4.05
2.375 0 3.9875
2.375 0.0625 3.9875
2.4375 0.125 3.9875
2.4375 0.0625 3.9875
2.5 0.125 3.9875
2.4375 0.0625 4.05
2.5 0.0625 4.05
2.4375 0 4.05
2.4375 0 3.9875
2.4375 0.125 4.05
2.5 0 3.9875
2.5 0.0625 3.9875
2.5625 0.125 3.9875
2.5625 0.0625 3.9875
2.625 0.125 3.9875
2.5625 0.0625 4.05
2.625 0.0625 4.05
2.5625 0 4.05
2.5625 0 3.9875
2.5625 0.125 4.05
2.625 0 3.9875
2.625 0.0625 3.9875
2.6875 0.125 3.9875
2.6875 0.0625 3.9875
2.75 0.125 3.9875
2.6875 0.0625 4.05
2.75 0.0625 4.05
2.6875 0 4.05
2.6875 0 3.9875
2.6875 0.125 4.05
2.75 0 3.9875
2.75 0.0625 3.9875
2.8125 0.125 3.9875
2.8125 0.0625 3.9875
2.875 0.125 3.9875
2.8125 0.0625 4.05
2.875 0.0625 4.05
2.8125 0 4.05
2.8125 0 3.9875
2.8125 0.125 4.05
2.875 0 3.9875
2.875 0.0625 3.9875
2.9375 0.125 3.9875
2.9375 0.0625 3.9875
3 0.125 3.9875
2.9375 0.0625 4.05
3 0.0625 4.05
2.9375 0 4.05
2.9375 0 3.9875
2.9375 0.125 4.05
3 0 3.9875
3 0.0625 3.9875
3.0625 0.125 3.9875
3.0625 0.0625 3.9875
3.125 0.125 3.9875
3.0625 0.0625 4.05
3.125 0.0625 4.05
3.0625 0 4.05
3.0625 0 3.9875
3.0625 0.125 4.05
3.125 0 3.9875
3.125 0.0625 3.9875
3.1875 0.125 3.9875
3.1875 0.0625 3.9875
3.25 0.125 3.9875
3.1875 0.0625 4.05
3.25 0.0625 4.05
3.1875 0 4.05
3.1875 0 3.9875
3.1875 0.125 4.05
3.25 0 3.9875
3.25 0.0625 3.9875
3.3125 0.125 3.9875
3.3125 0.0625 3.9875
3.375 0.125 3.9875
3.3125 0.0625 4.05
3.375 0.0625 4.05
3.3125 0 4.05
3.3125 0 3.9875
3.3125 0.125 4.05
3.375 0 3.9875
3.375 0.0625 3.9875
3.4375 0.125 3.9875
3.4375 0.0625 3.9875
3.5 0.125 3.9875
3.4375 0.0625 4.05
3.5 0.0625 4.05
3.4375 0 4.05
3.4375 0 3.9875
3.4375 0.125 4.05
3.5 0 3.9875
3.5 0.0625 3.9875
3.5625 0.125 3.9875
3.5625 0.0625 3.9875
3.625 0.125 3.9875
3.5625 0.0625 4.05
3.625 0.0625 4.05
3.5625 0 4.05
3.5625 0 3.9875
3.5625 0.125 4.05
3.625 0 3.9875
3.625 0.0625 3.9875
3.6875 0.125 3.9875
3.6875 0.0625 3.9875
3.75 0.125 3.9875
3.6875 0.0625 4.05
3.75 0.0625 4.05
3.6875 0 4.05
3.6875 0 3.9875
3.6875 0.125 4.05
3.75 0 3.9875
3.75 0.0625 3.9875
3.8125 0.125 3.9875
3.8125 0.0625 3.9875
3.875 0.125 3.9875
3.8125 0.0625 4.05
3.875 0.0625 4.05
3.8125 0 4.05
3.8125 0 3.9875
3.8125 0.125 4.05
3.875 0 3.9875
3.875 0.0625 3.9875
3.9375 0.125 3.9875
3.9375 0.0625 3.9875
4 0.125 3.9875
3.9375 0.0625 4.05
4 0.0625 4.05
3.9375 0 4.05
3.9375 0 3.9875
3.9375 0.125 4.05
4 0 3.9875
4 0.0625 3.9875
0.0625 0.25 3.9875
0.0625 0.1875 3.9875
0.125 0.25 3.9875
0.0625 0.1875 4.05
0.125 0.1875 4.05
0 0.25 3.9875
0 0.1875 3.9875
0.0625 0.25 4.05
0 0.1875 4.05
0.125 0.1875 3.9875
0.1875 0.25 3.9875
0.1875 0.1875 3.9875
0.25 0.25 3.9875
0.1875 0.1875 4.05
0.25 0.1875 4.05
0.1875 0.25 4.05
0.25 0.1875 3.9875
0.3125 0.25 3.9875
0.3125 0.1875 3.9875
0.375 0.25 3.9875
0.3125 0.1875 4.05
0.375 0.1875 4.05
0.3125 0.25 4.05
0.375 0.1875 3.9875
0.4375 0.25 3.9875
0.4375 0.1875 3.9875
0.5 0.25 3.9875
0.4375 0.1875 4.05
0.5 0.1875 4.05
0.4375 0.25 4.05
0.5 0.1875 3.9875
0.5625 0.25 3.9875
0.5625 0.1875 3.9875
0.625 0.25 3.9875
0.5625 0.1875 4.05
0.625 0.1875 4.05
0.5625 0.25 4.05
0.625 0.1875 3.9875
0.6875 0.25 3.9875
0.6875 0.1875 3.9875
0.75 0.25 3.9875
0.6875 0.1875 4.05
0.75 0.1875 4.05
0.6875 0.25 4.05
0.75 0.1875 3.9875
0.8125 0.25 3.9875
0.8125 0.1875 3.9875
0.875 0.25 3.9875
0.8125 0.1875 4.05
0.875 0.1875 4.05
0.8125 0.25 4.05
0.875 0.1875 3.9875
0.9375 0.25 3.9875
0.9375 0.1875 3.9875
1 0.25 3.9875
0.9375 0.1875 4.05
1 0.1875 4.05
0.9375 0.25 4.05
1 0.1875 3.9875
1.0625 0.25 3.9875
1.0625 0.1875 3.9875
1.125 0.25 3.9875
1.0625 0.1875 4.05
1.125 0.1875 4.05
1.0625 0.25 4.05
1.125 0.1875 3.9875
1.1875 0.25 3.9875
1.1875 0.1875 3.9875
1.25 0.25 3.9875
1.1875 0.1875 4.05
1.25 0.1875 4.05
1.1875 0.25 4.05
1.25 0.1875 3.9875
1.3125 0.25 3.9875
1.3125 0.1875 3.9875
1.375 0.25 3.9875
1.3125 0.1875 4.05
1.375 0.1875 4.05
1.3125 0.25 4.05
1.375 0.1875 3.9875
1.4375 0.25 3.9875
1.4375 0.1875 3.9875
1.5 0.25 3.9875
1.4375 0.1875 4.05
1.5 0.1875 4.05
1.4375 0.25 4.05
1.5 0.1875 3.9875
1.5625 0.25 3.9875
1.5625 0.1875 3.9875
1.625 0.25 3.9875
1.5625 0.1875 4.05
1.625 0.1875 4.05
1.5625 0.25 4.05
1.625 0.1875 3.9875
1.6875 0.25 3.9875
1.6875 0.1875 3.9875
1.75 0.25 3.9875
1.6875 0.1875 4.05
1.75 0.1875 4.05
1.6875 0.25 4.05
1.75 0.1875 3.9875
1.8125 0.25 3.9875
1.8125 0.1875 3.9875
1.875 0.25 3.9875
1.8125 0.1875 4.05
1.875 0.1875 4.05
1.8125 0.25 4.05
1.875 0.1875 3.9875
1.9375 0.25 3.9875
1.9375 0.1875 3.9875
2 0.25 3.9875
1.9375 0.1875 4.05
2 0.1875 4.05
1.9375 0.25 4.05
2 0.1875 3.9875
2.0625 0.25 3.9875
2.0625 0.1875 3.9875
2.125 0.25 3.9875
2.0625 0.1875 4.05
2.125 0.1875 4.05
2.0625 0.25 4.05
2.125 0.1875 3.9875
2.1875 0.25 3.9875
2.1875 0.1875 3.9875
2.25 0.25 3.9875
2.1875 0.1875 4.05
2.25 0.1875 4.05
2.1875 0.25 4.05
2.25 0.1875 3.9875
2.3125 0.25 3.9875
2.3125 0.1875 3.9875
2.375 0.25 3.9875
2.3125 0.1875 4.05
2.375 0.1875 4.05
2.3125 0.25 4.05
2.375 0.1875 3.9875
2.4375 0.25 3.9875
2.4375 0.1875 3.9875
2.5 0.25 3.9875
2.4375 0.1875 4.05
2.5 0.1875 4.05
2.4375 0.25 4.05
2.5 0.1875 3.9875
2.5625 0.25 3.9875
2.5625 0.1875 3.9875
2.625 0.25 3.9875
2.5625 0.1875 4.05
2.625 0.1875 4.05
2.5625 0.25 4.05
2.625 0.1875 3.9875
2.6875 0.25 3.9875
2.6875 0.1875 3.9875
2.75 0.25 3.9875
2.6875 0.1875 4.05
2.75 0.1875 4.05
2.6875 0.25 4.05
2.75 0.1875 3.9875
2.8125 0.25 3.9875
2.8125 0.1875 3.9875
2.875 0.25 3.9875
2.8125 0.1875 4.05
2.875 0.1875 4.05
2.8125 0.25 4.05
2.875 0.1875 3.9875
2.9375 0.25 3.9875
2.9375 0.1875 3.9875
3 0.25 3.9875
2.9375 0.1875 4.05
3 0.1875 4.05
2.9375 0.25 4.05
3 0.1875 3.9875
3.0625 0.25 3.9875
3.0625 0.1875 3.9875
3.125 0.25 3.9875
3.0625 0.1875 4.05
3.125 0.1875 4.05
3.0625 0.25 4.05
3.125 0.1875 3.9875
3.1875 0.25 3.9875
3.1875 0.1875 3.9875
3.25 0.25 3.9875
3.1875 0.1875 4.05
3.25 0.1875 4.05
3.1875 0.25 4.05
3.25 0.1875 3.9875
3.3125 0.25 3.9875
3.3125 0.1875 3.9875
3.375 0.25 3.9875
3.3125 0.1875 4.05
3.375 0.1875 4.05
3.3125 0.25 4.05
3.375 0.1875 3.9875
3.4375 0.25 3.9875
3.4375 0.1875 3.9875
3.5 0.25 3.9875
3.4375 0.1875 4.05
3.5 0.1875 4.05
3.4375 0.25 4.05
3.5 0.1875 3.9875
3.5625 0.25 3.9875
3.5625 0.1875 3.9875
3.625 0.25 3.9875
3.5625 0.1875 4.05
3.625 0.1875 4.05
3.5625 0.25 4.05
3.625 0.1875 3.9875
3.6875 0.25 3.9875
3.6875 0.1875 3.9875
3.75 0.25 3.9875
3.6875 0.1875 4.05
3.75 0.1875 4.05
3.6875 0.25 4.05
3.75 0.1875 3.9875
3.8125 0.25 3.9875
3.8125 0.1875 3.9875
3.875 0.25 3.9875
3.8125 0.1875 4.05
3.875 0.1875 4.05
3.8125 0.25 4.05
3.875 0.1875 3.9875
3.9375 0.25 3.9875
3.9375 0.1875 3.9875
4 0.25 3.9875
3.9375 0.1875 4.05
4 0.1875 4.05
3.9375 0.25 4.05
4 0.1875 3.9875
0.0625 0.375 3.9875
0.0625 0.3125 3.9875
0.125 0.375 3.9875
0.0625 0.3125 4.05
0.125 0.3125 4.05
0 0.375 3.9875
0 0.3125 3.9875
0.0625 0.375 4.05
0 0.3125 4.05
0.125 0.3125 3.9875
0.1875 0.375 3.9875
0.1875 0.3125 3.9875
0.25 0.375 3.9875
0.1875 0.3125 4.05
0.25 0.3125 4.05
0.1875 0.375 4.05
0.25 0.3125 3.9875
0.3125 0.375 3.9875
0.3125 0.3125 3.9875
0.375 0.375 3.9875
0.3125 0.3125 4.05
0.375 0.3125 4.05
0.3125 0.375 4.05
0.375 0.3125 3.9875
0.4375 0.375 3.9875
0.4375 0.3125 3.9875
0.5 0.375 3.9875
0.4375 0.3125 4.05
0.5 0.3125 4.05
0.4375 0.375 4.05
0.5 0.3125 3.9875
0.5625 0.375 3.9875
0.5625 0.3125 3.9875
0.625 0.375 3.9875
0.5625 0.3125 4.05
0.625 0.3125 4.05
0.5625 0.375 4.05
0.625 0.3125 3.9875
0.6875 0.375 3.9875
0.6875 0.3125 3.9875
0.75 0.375 3.9875
0.6875 0.3125 4.05
0.75 0.3125 4.05
0.6875 0.375 4.05
0.75 0.3125 3.9875
0.8125 0.375 3.9875
0.8125 0.3125 3.9875
0.875 0.375 3.9875
0.8125 0.3125 4.05
0.875 0.3125 4.05
0.8125 0.375 4.05
0.875 0.3125 3.9875
0.9375 0.375 3.9875
0.9375 0.3125 3.9875
1 0.375 3.9875
0.9375 0.3125 4.05
1 0.3125 4.05
0.9375 0.375 4.05
1 0.3125 3.9875
1.0625 0.375 3.9875
1.0625 0.3125 3.9875
1.125 0.375 3.9875
1.0625 0.3125 4.05
1.125 0.3125 4.05
1.0625 0.375 4.05
1.125 0.3125 3.9875
1.1875 0.375 3.9875
1.1875 0.3125 3.9875
1.25 0.375 3.9875
1.1875 0.3125 4.05
1.25 0.3125 4.05
1.1875 0.375 4.05
1.25 0.3125 3.9875
1.3125 0.375 3.9875
1.3125 0.3125 3.9875
1.375 0.375 3.9875
1.3125 0.3125 4.05
1.375 0.3125 4.05
1.3125 0.375 4.05
1.375 0.3125 3.9875
1.4375 0.375 3.9875
1.4375 0.3125 3.9875
1.5 0.375 3.9875
1.4375 0.3125 4.05
1.5 0.3125 4.05
1.4375 0.375 4.05
1.5 0.3125 3.9875
1.5625 0.375 3.9875
1.5625 0.3125 3.9875
1.625 0.375 3.9875
1.5625 0.3125 4.05
1.625 0.3125 4.05
1.5625 0.375 4.05
1.625 0.3125 3.9875
1.6875 0.375 3.9875
1.6875 0.3125 3.9875
1.75 0.375 3.9875
1.6875 0.3125 4.05
1.75 0.3125 4.05
1.6875 0.375 4.05
1.75 0.3125 3.9875
1.8125 0.375 3.9875
1.8125 0.3125 3.9875
1.875 0.375 3.9875
1.8125 0.3125 4.05
1.875 0.3125 4.05
1.8125 0.375 4.05
1.875 0.3125 3.9875
1.9375 0.375 3.9875
1.9375 0.3125 3.9875
2 0.375 3.9875
1.9375 0.3125 4.05
2 0.3125 4.05
1.9375 0.375 4.05
2 0.3125 3.9875
2.0625 0.375 3.9875
2.0625 0.3125 3.9875
2.125 0.375 3.9875
2.0625 0.3125 4.05
2.125 0.3125 4.05
2.0625 0.375 4.05
2.125 0.3125 3.9875
2.1875 0.375 3.9875
2.1875 0.3125 3.9875
2.25 0.375 3.9875
2.1875 0.3125 4.05
2.25 0.3125 4.05
2.1875 0.375 4.05
2.25 0.3125 3.9875
2.3125 0.375 3.9875
2.3125 0.3125 3.9875
2.375 0.375 3.9875
2.3125 0.3125 4.05
2.375 0.3125 4.05
2.3125 0.375 4.05
2.375 0.3125 3.9875
2.4375 0.375 3.9875
2.4375 0.3125 3.9875
2.5 0.375 3.9875
2.4375 0.3125 4.05
2.5 0.3125 4.05
2.4375 0.375 4.05
2.5 0.3125 3.9875
2.5625 0.375 3.9875
2.5625 0.3125 3.9875
2.625 0.375 3.9875
2.5625 0.3125 4.05
2.625 0.3125 4.05
2.5625 0.375 4.05
2.625 0.3125 3.9875
2.6875 0.375 3.9875
2.6875 0.3125 3.9875
2.75 0.375 3.9875
2.6875 0.3125 4.05
2.75 0.3125 4.05
2.6875 0.375 4.05
2.75 0.3125 3.9875
2.8125 0.375 3.9875
2.8125 0.3125 3.9875
2.875 0.375 3.9875
2.8125 0.3125 4.05
2.875 0.3125 4.05
2.8125 0.375 4.05
2.875 0.3125 3.9875
2.9375 0.375 3.9875
2.9375 0.3125 3.9875
3 0.375 3.9875
2.9375 0.3125 4.05
3 0.3125 4.05
2.9375 0.375 4.05
3 0.3125 3.9875
3.0625 0.375 3.9875
3.0625 0.3125 3.9875
3.125 0.375 3.9875
3.0625 0.3125 4.05
3.125 0.3125 4.05
3.0625 0.375 4.05
3.125 0.3125 3.9875
3.1875 0.375 3.9875
3.1875 0.3125 3.9875
3.25 0.375 3.9875
3.1875 0.3125 4.05
3.25 0.3125 4.05
3.1875 0.375 4.05
3.25 0.3125 3.9875
3.3125 0.375 3.9875
3.3125 0.3125 3.9875
3.375 0.375 3.9875
3.3125 0.3125 4.05
3.375 0.3125 4.05
3.3125 0.375 4.05
3.375 0.3125 3.9875
3.4375 0.375 3.9875
3.4375 0.3125 3.9875
3.5 0.375 3.9875
3.4375 0.3125 4.05
3.5 0.3125 4.05
3.4375 0.375 4.05
3.5 0.3125 3.9875
3.5625 0.375 3.9875
3.5625 0.3125 3.9875
3.625 0.375 3.9875
3.5625 0.3125 4.05
3.625 0.3125 4.05
3.5625 0.375 4.05
3.625 0.3125 3.9875
3.6875 0.375 3.9875
3.6875 0.3125 3.9875
3.75 0.375 3.9875
3.6875 0.3125 4.05
3.75 0.3125 4.05
3.6875 0.375 4.05
3.75 0.3125 3.9875
3.8125 0.375 3.9875
3.8125 0.3125 3.9875
3.875 0.375 3.9875
3.8125 0.3125 4.05
3.875 0.3125 4.05
3.8125 0.375 4.05
3.875 0.3125 3.9875
3.9375 0.375 3.9875
3.9375 0.3125 3.9875
4 0.375 3.9875
3.9375 0.3125 4.05
4 0.3125 4.05
3.9375 0.375 4.05
4 0.3125 3.9875
0.0625 0.5 3.9875
0.0625 0.4375 3.9875
0.125 0.5 3.9875
0.0625 0.4375 4.05
0.125 0.4375 4.05
0 0.5 3.9875
0 0.4375 3.9875
0.0625 0.5 4.05
0 0.4375 4.05
0.125 0.4375 3.9875
0.1875 0.5 3.9875
0.1875 0.4375 3.9875
0.25 0.5 3.9875
0.1875 0.4375 4.05
0.25 0.4375 4.05
0.1875 0.5 4.05
0.25 0.4375 3.9875
0.3125 0.5 3.9875
0.3125 0.4375 3.9875
0.375 0.5 3.9875
0.3125 0.4375 4.05
0.375 0.4375 4.05
0.3125 0.5 4.05
0.375 0.4375 3.9875
0.4375 0.5 3.9875
0.4375 0.4375 3.9875
0.5 0.5 3.9875
0.4375 0.4375 4.05
0.5 0.4375 4.05
0.4375 0.5 4.05
0.5 0.4375 3.9875
0.5625 0.5 3.9875
0.5625 0.4375 3.9875
0.625 0.5 3.9875
0.5625 0.4375 4.05
0.625 0.4375 4.05
0.5625 0.5 4.05
0.625 0.4375 3.9875
0.6875 0.5 3.9875
0.6875 0.4375 3.9875
0.75 0.5 3.9875
0.6875 0.4375 4.05
0.75 0.4375 4.05
0.6875 0.5 4.05
0.75 0.4375 3.9875
0.8125 0.5 3.9875
0.8125 0.4375 3.9875
0.875 0.5 3.9875
0.8125 0.4375 4.05
0.875 0.4375 4.05
0.8125 0.5 4.05
0.875 0.4375 3.9875
0.9375 0.5 3.9875
0.9375 0.4375 3.9875
1 0.5 3.9875
0.9375 0.4375 4.05
1 0.4375 4.05
0.9375 0.5 4.05
1 0.4375 3.9875
1.0625 0.5 3.9875
1.0625 0.4375 3.9875
1.125 0.5 3.9875
1.0625 0.4375 4.05
1.125 0.4375 4.05
1.0625 0.5 4.05
1.125 0.4375 3.9875
1.1875 0.5 3.9875
1.1875 0.4375 3.9875
1.25 0.5 3.9875
1.1875 0.4375 4.05
1.25 0.4375 4.05
1.1875 0.5 4.05
1.25 0.4375 3.9875
1.3125 0.5 3.9875
1.3125 0.4375 3.9875
1.375 0.5 3.9875
1.3125 0.4375 4.05
1.375 0.4375 4.05
1.3125 0.5 4.05
1.375 0.4375 3.9875
1.4375 0.5 3.9875
1.4375 0.4375 3.9875
1.5 0.5 3.9875
1.4375 0.4375 4.05
1.5 0.4375 4.05
1.4375 0.5 4.05
1.5 0.4375 3.9875
1.5625 0.5 3.9875
1.5625 0.4375 3.9875
1.625 0.5 3.9875
1.5625 0.4375 4.05
1.625 0.4375 4.05
1.5625 0.5 4.05
1.625 0.4375 3.9875
1.6875 0.5 3.9875
1.6875 0.4375 3.9875
1.75 0.5 3.9875
1.6875 0.4375 4.05
1.75 0.4375 4.05
1.6875 0.5 4.05
1.75 0.4375 3.9875
1.8125 0.5 3.9875
1.8125 0.4375 3.9875
1.875 0.5 3.9875
1.8125 0.4375 4.05
1.875 0.4375 4.05
1.8125 0.5 4.05
1.875 0.4375 3.9875
1.9375 0.5 3.9875
1.9375 0.4375 3.9875
2 0.5 3.9875
1.9375 0.4375 4.05
2 0.4375 4.05
1.9375 0.5 4.05
2 0.4375 3.9875
2.0625 0.5 3.9875
2.0625 0.4375 3.9875
2.125 0.5 3.9875
2.0625 0.4375 4.05
2.125 0.4375 4.05
2.0625 0.5 4.05
2.125 0.4375 3.9875
2.1875 0.5 3.9875
2.1875 0.4375 3.9875
2.25 0.5 3.9875
2.1875 0.4375 4.05
2.25 0.4375 4.05
2.1875 0.5 4.05
2.25 0.4375 3.9875
2.3125 0.5 3.9875
2.3125 0.4375 3.9875
2.375 0.5 3.9875
2.3125 0.4375 4.05
2.375 0.4375 4.05
2.3125 0.5 4.05
2.375 0.4375 3.9875
2.4375 0.5 3.9875
2.4375 0.4375 3.9875
2.5 0.5 3.9875
2.4375 0.4375 4.05
2.5 0.4375 4.05
2.4375 0.5 4.05
2.5 0.4375 3.9875
2.5625 0.5 3.9875
2.5625 0.4375 3.9875
2.625 0.5 3.9875
2.5625 0.4375 4.05
2.625 0.4375 4.05
2.5625 0.5 4.05
2.625 0.4375 3.9875
2.6875 0.5 3.9875
2.6875 0.4375 3.9875
2.75 0.5 3.9875
2.6875 0.4375 4.05
2.75 0.4375 4.05
2.6875 0.5 4.05
2.75 0.4375 3.9875
2.8125 0.5 3.9875
2.8125 0.4375 3.9875
2.875 0.5 3.9875
2.8125 0.4375 4.05
2.875 0.4375 4.05
2.8125 0.5 4.05
2.875 0.4375 3.9875
2.9375 0.5 3.9875
2.9375 0.4375 3.9875
3 0.5 3.9875
2.9375 0.4375 4.05
3 0.4375 4.05
2.9375 0.5 4.05
3 0.4375 3.9875
3.0625 0.5 3.9875
3.0625 0.4375 3.9875
3.125 0.5 3.9875
3.0625 0.4375 4.05
3.125 0.4375 4.05
3.0625 0.5 4.05
3.125 0.4375 3.9875
3.1875 0.5 3.9875
3.1875 0.4375 3.9875
3.25 0.5 3.9875
3.1875 0.4375 4.05
3.25 0.4375 4.05
3.1875 0.5 4.05
3.25 0.4375 3.9875
3.3125 0.5 3.9875
3.3125 0.4375 3.9875
3.375 0.5 3.9875
3.3125 0.4375 4.05
3.375 0.4375 4.05
3.3125 0.5 4.05
3.375 0.4375 3.9875
3.4375 0.5 3.9875
3.4375 0.4375 3.9875
3.5 0.5 3.9875
3.4375 0.4375 4.05
3.5 0.4375 4.05
3.4375 0.5 4.05
3.5 0.4375 3.9875
3.5625 0.5 3.9875
3.5625 0.4375 3.9875
3.625 0.5 3.9875
3.5625 0.4375 4.05
3.625 0.4375 4.05
3.5625 0.5 4.05
3.625 0.4375 3.9875
3.6875 0.5 3.9875
3.6875 0.4375 3.9875
3.75 0.5 3.9875
3.6875 0.4375 4.05
3.75 0.4375 4.05
3.6875 0.5 4.05
3.75 0.4375 3.9875
3.8125 0.5 3.9875
3.8125 0.4375 3.9875
3.875 0.5 3.9875
3.8125 0.4375 4.05
3.875 0.4375 4.05
3.8125 0.5 4.05
3.875 0.4375 3.9875
3.9375 0.5 3.9875
3.9375 0.4375 3.9875
4 0.5 3.9875
3.9375 0.4375 4.05
4 0.4375 4.05
3.9375 0.5 4.05
4 0.4375 3.9875
0.0625 0.625 3.9875
0.0625 0.5625 3.9875
0.125 0.625 3.9875
0.0625 0.5625 4.05
0.125 0.5625 4.05
0 0.625 3.9875
0 0.5625 3.9875
0.0625 0.625 4.05
0 0.5625 4.05
0.125 0.5625 3.9875
0.1875 0.625 3.9875
0.1875 0.5625 3.9875
0.25 0.625 3.9875
0.1875 0.5625 4.05
0.25 0.5625 4.05
0.1875 0.625 4.05
0.25 0.5625 3.9875
0.3125 0.625 3.9875
0.3125 0.5625 3.9875
0.375 0.625 3.9875
0.3125 0.5625 4.05
0.375 0.5625 4.05
0.3125 0.625 4.05
0.375 0.5625 3.9875
0.4375 0.625 3.9875
0.4375 0.5625 3.9875
0.5 0.625 3.9875
0.4375 0.5625 4.05
0.5 0.5625 4.05
0.4375 0.625 4.05
0.5 0.5625 3.9875
0.5625 0.625 3.9875
0.5625 0.5625 3.9875
0.625 0.625 3.9875
0.5625 0.5625 4.05
0.625 0.5625 4.05
0.5625 0.625 4.05
0.625 0.5625 3.9875
0.6875 0.625 3.9875
0.6875 0.5625 3.9875
0.75 0.625 3.9875
0.6875 0.5625 4.05
0.75 0.5625 4.05
0.6875 0.625 4.05
0.75 0.5625 3.9875
0.8125 0.625 3.9875
0.8125 0.5625 3.9875
0.875 0.625 3.9875
0.8125 0.5625 4.05
0.875 0.5625 4.05
0.8125 0.625 4.05
0.875 0.5625 3.9875
0.9375 0.625 3.9875
0.9375 0.5625 3.9875
1 0.625 3.9875
0.9375 0.5625 4.05
1 0.5625 4.05
0.9375 0.625 4.05
1 0.5625 3.9875
1.0625 0.625 3.9875
1.0625 0.5625 3.9875
1.125 0.625 3.9875
1.0625 0.5625 4.05
1.125 0.5625 4.05
1.0625 0.625 4.05
1.125 0.5625 3.9875
1.1875 0.625 3.9875
1.1875 0.5625 3.9875
1.25 0.625 3.9875
1.1875 0.5625 4.05
1.25 0.5625 4.05
1.1875 0.625 4.05
1.25 0.5625 3.9875
1.3125 0.625 3.9875
1.3125 0.5625 3.9875
1.375 0.625 3.9875
1.3125 0.5625 4.05
1.375 0.5625 4.05
1.3125 0.625 4.05
1.375 0.5625 3.9875
1.4375 0.625 3.9875
1.4375 0.5625 3.9875
1.5 0.625 3.9875
1.4375 0.5625 4.05
1.5 0.5625 4.05
1.4375 0.625 4.05
1.5 0.5625 3.9875
1.5625 0.625 3.9875
1.5625 0.5625 3.9875
1.625 0.625 3.9875
1.5625 0.5625 4.05
1.625 0.5625 4.05
1.5625 0.625 4.05
1.625 0.5625 3.9875
1.6875 0.625 3.9875
1.6875 0.5625 3.9875
1.75 0.625 3.9875
1.6875 0.5625 4.05
1.75 0.5625 4.05
1.6875 0.625 4.05
1.75 0.5625 3.9875
1.8125 0.625 3.9875
1.8125 0.5625 3.9875
1.875 0.625 3.9875
1.8125 0.5625 4.05
1.875 0.5625 4.05
1.8125 0.625 4.05
1.875 0.5625 3.9875
1.9375 0.625 3.9875
1.9375 0.5625 3.9875
2 0.625 3.9875
1.9375 0.5625 4.05
2 0.5625 4.05
1.9375 0.625 4.05
2 0.5625 3.9875
2.0625 0.625 3.9875
2.0625 0.5625 3.9875
2.125 0.625 3.9875
2.0625 0.5625 4.05
2.125 0.5625 4.05
2.0625 0.625 4.05
2.125 0.5625 3.9875
2.1875 0.625 3.9875
2.1875 0.5625 3.9875
2.25 0.625 3.9875
2.1875 0.5625 4.05
2.25 0.5625 4.05
2.1875 0.625 4.05
2.25 0.5625 3.9875
2.3125 0.625 3.9875
2.3125 0.5625 3.9875
2.375 0.625 3.9875
2.3125 0.5625 4.05
2.375 0.5625 4.05
2.3125 0.625 4.05
2.375 0.5625 3.9875
2.4375 0.625 3.9875
2.4375 0.5625 3.9875
2.5 0.625 3.9875
2.4375 0.5625 4.05
2.5 0.5625 4.05
2.4375 0.625 4.05
2.5 0.5625 3.9875
2.5625 0.625 3.9875
2.5625 0.5625 3.9875
2.625 0.625 3.9875
2.5625 0.5625 4.05
2.625 0.5625 4.05
2.5625 0.625 4.05
2.625 0.5625 3.9875
2.6875 0.625 3.9875
2.6875 0.5625 3.9875
2.75 0.625 3.9875
2.6875 0.5625 4.05
2.75 0.5625 4.05
2.6875 0.625 4.05
2.75 0.5625 3.9875
2.8125 0.625 3.9875
2.8125 0.5625 3.9875
2.875 0.625 3.9875
2.8125 0.5625 4.05
2.875 0.5625 4.05
2.8125 0.625 4.05
2.875 0.5625 3.9875
2.9375 0.625 3.9875
2.9375 0.5625 3.9875
3 0.625 3.9875
2.9375 0.5625 4.05
3 0.5625 4.05
2.9375 0.625 4.05
3 0.5625 3.9875
3.0625 0.625 3.9875
3.0625 0.5625 3.9875
3.125 0.625 3.9875
3.0625 0.5625 4.05
3.125 0.5625 4.05
3.0625 0.625 4.05
3.125 0.5625 3.9875
3.1875 0.625 3.9875
3.1875 0.5625 3.9875
3.25 0.625 3.9875
3.1875 0.5625 4.05
3.25 0.5625 4.05
3.1875 0.625 4.05
3.25 0.5625 3.9875
3.3125 0.625 3.9875
3.3125 0.5625 3.9875
3.375 0.625 3.9875
3.3125 0.5625 4.05
3.375 0.5625 4.05
3.3125 0.625 4.05
3.375 0.5625 3.9875
3.4375 0.625 3.9875
3.4375 0.5625 3.9875
3.5 0.625 3.9875
3.4375 0.5625 4.05
3.5 0.5625 4.05
3.4375 0.625 4.05
3.5 0.5625 3.9875
3.5625 0.625 3.9875
3.5625 0.5625 3.9875
3.625 0.625 3.9875
3.5625 0.5625 4.05
3.625 0.5625 4.05
3.5625 0.625 4.05
3.625 0.5625 3.9875
3.6875 0.625 3.9875
3.6875 0.5625 3.9875
3.75 0.625 3.9875
3.6875 0.5625 4.05
3.75 0.5625 4.05
3.6875 0.625 4.05
3.75 0.5625 3.9875
3.8125 0.625 3.9875
3.8125 0.5625 3.9875
3.875 0.625 3.9875
3.8125 0.5625 4.05
3.875 0.5625 4.05
3.8125 0.625 4.05
3.875 0.5625 3.9875
3.9375 0.625 3.9875
3.9375 0.5625 3.9875
4 0.625 3.9875
3.9375 0.5625 4.05
4 0.5625 4.05
3.9375 0.625 4.05
4 0.5625 3.9875
0.0625 0.75 3.9875
0.0625 0.6875 3.9875
0.125 0.75 3.9875
0.0625 0.6875 4.05
0.125 0.6875 4.05
0 0.75 3.9875
0 0.6875 3.9875
0.0625 0.75 4.05
0 0.6875 4.05
0.125 0.6875 3.9875
0.1875 0.75 3.9875
0.1875 0.6875 3.9875
0.25 0.75 3.9875
0.1875 0.6875 4.05
0.25 0.6875 4.05
0.1875 0.75 4.05
0.25 0.6875 3.9875
0.3125 0.75 3.9875
0.3125 0.6875 3.9875
0.375 0.75 3.9875
0.3125 0.6875 4.05
0.375 0.6875 4.05
0.3125 0.75 4.05
0.375 0.6875 3.9875
0.4375 0.75 3.9875
0.4375 0.6875 3.9875
0.5 0.75 3.9875
0.4375 0.6875 4.05
0.5 0.6875 4.05
0.4375 0.75 4.05
0.5 0.6875 3.9875
0.5625 0.75 3.9875
0.5625 0.6875 3.9875
0.625 0.75 3.9875
0.5625 0.6875 4.05
0.625 0.6875 4.05
0.5625 0.75 4.05
0.625 0.6875 3.9875
0.6875 0.75 3.9875
0.6875 0.6875 3.9875
0.75 0.75 3.9875
0.6875 0.6875 4.05
0.75 0.6875 4.05
0.6875 0.75 4.05
0.75 0.6875 3.9875
0.8125 0.75 3.9875
0.8125 0.6875 3.9875
0.875 0.75 3.9875
0.8125 0.6875 4.05
0.875 0.6875 4.05
0.8125 0.75 4.05
0.875 0.6875 3.9875
0.9375 0.75 3.9875
0.9375 0.6875 3.9875
1 0.75 3.9875
0.9375 0.6875 4.05
1 0.6875 4.05
0.9375 0.75 4.05
1 0.6875 3.9875
1.0625 0.75 3.9875
1.0625 0.6875 3.9875
1.125 0.75 3.9875
1.0625 0.6875 4.05
1.125 0.6875 4.05
1.0625 0.75 4.05
1.125 0.6875 3.9875
1.1875 0.75 3.9875
1.1875 0.6875 3.9875
1.25 0.75 3.9875
1.1875 0.6875 4.05
1.25 0.6875 4.05
1.1875 0.75 4.05
1.25 0.6875 3.9875
1.3125 0.75 3.9875
1.3125 0.6875 3.9875
1.375 0.75 3.9875
1.3125 0.6875 4.05
1.375 0.6875 4.05
1.3125 0.75 4.05
1.375 0.6875 3.9875
1.4375 0.75 3.9875
1.4375 0.6875 3.9875
1.5 0.75 3.9875
1.4375 0.6875 4.05
1.5 0.6875 4.05
1.4375 0.75 4.05
1.5 0.6875 3.9875
1.5625 0.75 3.9875
1.5625 0.6875 3.9875
1.625 0.75 3.9875
1.5625 0.6875 4.05
1.625 0.6875 4.05
1.5625 0.75 4.05
1.625 0.6875 3.9875
1.6875 0.75 3.9875
1.6875 0.6875 3.9875
1.75 0.75 3.9875
1.6875 0.6875 4.05
1.75 0.6875 4.05
1.6875 0.75 4.05
1.75 0.6875 3.9875
1.8125 0.75 3.9875
1.8125 0.6875 3.9875
1.875 0.75 3.9875
1.8125 0.6875 4.05
1.875 0.6875 4.05
1.8125 0.75 4.05
1.875 0.6875 3.9875
1.9375 0.75 3.9875
1.9375 0.6875 3.9875
2 0.75 3.9875
1.9375 0.6875 4.05
2 0.6875 4.05
1.9375 0.75 4.05
2 0.6875 3.9875
2.0625 0.75 3.9875
2.0625 0.6875 3.9875
2.125 0.75 3.9875
2.0625 0.6875 4.05
2.125 0.6875 4.05
2.0625 0.75 4.05
2.125 0.6875 3.9875
2.1875 0.75 3.9875
2.1875 0.6875 3.9875
2.25 0.75 3.9875
2.1875 0.6875 4.05
2.25 0.6875 4.05
2.1875 0.75 4.05
2.25 0.6875 3.9875
2.3125 0.75 3.9875
2.3125 0.6875 3.9875
2.375 0.75 3.9875
2.3125 0.6875 4.05
2.375 0.6875 4.05
2.3125 0.75 4.05
2.375 0.6875 3.9875
2.4375 0.75 3.9875
2.4375 0.6875 3.9875
2.5 0.75 3.9875
2.4375 0.6875 4.05
2.5 0.6875 4.05
2.4375 0.75 4.05
2.5 0.6875 3.9875
2.5625 0.75 3.9875
2.5625 0.6875 3.9875
2.625 0.75 3.9875
2.5625 0.6875 4.05
2.625 0.6875 4.05
2.5625 0.75 4.05
2.625 0.6875 3.9875
2.6875 0.75 3.9875
2.6875 0.6875 3.9875
2.75 0.75 3.9875
2.6875 0.6875 4.05
2.75 0.6875 4.05
2.6875 0.75 4.05
2.75 0.6875 3.9875
2.8125 0.75 3.9875
2.8125 0.6875 3.9875
2.875 0.75 3.9875
2.8125 0.6875 4.05
2.875 0.6875 4.05
2.8125 0.75 4.05
2.875 0.6875 3.9875
2.9375 0.75 3.9875
2.9375 0.6875 3.9875
3 0.75 3.9875
2.9375 0.6875 4.05
3 0.6875 4.05
2.9375 0.75 4.05
3 0.6875 3.9875
3.0625 0.75 3.9875
3.0625 0.6875 3.9875
3.125 0.75 3.9875
3.0625 0.6875 4.05
3.125 0.6875 4.05
3.0625 0.75 4.05
3.125 0.6875 3.9875
3.1875 0.75 3.9875
3.1875 0.6875 3.9875
3.25 0.75 3.9875
3.1875 0.6875 4.05
3.25 0.6875 4.05
3.1875 0.75 4.05
3.25 0.6875 3.9875
3.3125 0.75 3.9875
3.3125 0.6875 3.9875
3.375 0.75 3.9875
3.3125 0.6875 4.05
3.375 0.6875 4.05
3.3125 0.75 4.05
3.375 0.6875 3.9875
3.4375 0.75 3.9875
3.4375 0.6875 3.9875
3.5 0.75 3.9875
3.4375 0.6875 4.05
3.5 0.6875 4.05
3.4375 0.75 4.05
3.5 0.6875 3.9875
3.5625 0.75 3.9875
3.5625 0.6875 3.9875
3.625 0.75 3.9875
3.5625 0.6875 4.05
3.625 0.6875 4.05
3.5625 0.75 4.05
3.625 0.6875 3.9875
3.6875 0.75 3.9875
3.6875 0.6875 3.9875
3.75 0.75 3.9875
3.6875 0.6875 4.05
3.75 0.6875 4.05
3.6875 0.75 4.05
3.75 0.6875 3.9875
3.8125 0.75 3.9875
3.8125 0.6875 3.9875
3.875 0.75 3.9875
3.8125 0.6875 4.05
3.875 0.6875 4.05
3.8125 0.75 4.05
3.875 0.6875 3.9875
3.9375 0.75 3.9875
3.9375 0.6875 3.9875
4 0.75 3.9875
3.9375 0.6875 4.05
4 0.6875 4.05
3.9375 0.75 4.05
4 0.6875 3.9875
0.0625 0.875 3.9875
0.0625 0.8125 3.9875
0.125 0.875 3.9875
0.0625 0.8125 4.05
0.125 0.8125 4.05
0 0.875 3.9875
0 0.8125 3.9875
0.0625 0.875 4.05
0 0.8125 4.05
0.125 0.8125 3.9875
0.1875 0.875 3.9875
0.1875 0.8125 3.9875
0.25 0.875 3.9875
0.1875 0.8125 4.05
0.25 0.8125 4.05
0.1875 0.875 4.05
0.25 0.8125 3.9875
0.3125 0.875 3.9875
0.3125 0.8125 3.9875
0.375 0.875 3.9875
0.3125 0.8125 4.05
0.375 0.8125 4.05
0.3125 0.875 4.05
0.375 0.8125 3.9875
0.4375 0.875 3.9875
0.4375 0.8125 3.9875
0.5 0.875 3.9875
0.4375 0.8125 4.05
0.5 0.8125 4.05
0.4375 0.875 4.05
0.5 0.8125 3.9875
0.5625 0.875 3.9875
0.5625 0.8125 3.9875
0.625 0.875 3.9875
0.5625 0.8125 4.05
0.625 0.8125 4.05
0.5625 0.875 4.05
0.625 0.8125 3.9875
0.6875 0.875 3.9875
0.6875 0.8125 3.9875
0.75 0.875 3.9875
0.6875 0.8125 4.05
0.75 0.8125 4.05
0.6875 0.875 4.05
0.75 0.8125 3.9875
0.8125 0.875 3.9875
0.8125 0.8125 3.9875
0.875 0.875 3.9875
0.8125 0.8125 4.05
0.875 0.8125 4.05
0.8125 0.875 4.05
0.875 0.8125 3.9875
0.9375 0.875 3.9875
0.9375 0.8125 3.9875
1 0.875 3.9875
0.9375 0.8125 4.05
1 0.8125 4.05
0.9375 0.875 4.05
1 0.8125 3.9875
1.0625 0.875 3.9875
1.0625 0.8125 3.9875
1.125 0.875 3.9875
1.0625 0.8125 4.05
1.125 0.8125 4.05
1.0625 0.875 4.05
1.125 0.8125 3.9875
1.1875 0.875 3.9875
1.1875 0.8125 3.9875
1.25 0.875 3.9875
1.1875 0.8125 4.05
1.25 0.8125 4.05
1.1875 0.875 4.05
1.25 0.8125 3.9875
1.3125 0.875 3.9875
1.3125 0.8125 3.9875
1.375 0.875 3.9875
1.3125 0.8125 4.05
1.375 0.8125 4.05
1.3125 0.875 4.05
1.375 0.8125 3.9875
1.4375 0.875 3.9875
1.4375 0.8125 3.9875
1.5 0.875 3.9875
1.4375 0.8125 4.05
1.5 0.8125 4.05
1.4375 0.875 4.05
1.5 0.8125 3.9875
1.5625 0.875 3.9875
1.5625 0.8125 3.9875
1.625 0.875 3.9875
1.5625 0.8125 4.05
1.625 0.8125 4.05
1.5625 0.875 4.05
1.625 0.8125 3.9875
1.6875 0.875 3.9875
1.6875 0.8125 3.9875
1.75 0.875 3.9875
1.6875 0.8125 4.05
1.75 0.8125 4.05
1.6875 0.875 4.05
1.75 0.8125 3.9875
1.8125 0.875 3.9875
1.8125 0.8125 3.9875
1.875 0.875 3.9875
1.8125 0.8125 4.05
1.875 0.8125 4.05
1.8125 0.875 4.05
1.875 0.8125 3.9875
1.9375 0.875 3.9875
1.9375 0.8125 3.9875
2 0.875 3.9875
1.9375 0.8125 4.05
2 0.8125 4.05
1.9375 0.875 4.05
2 0.8125 3.9875
2.0625 0.875 3.9875
2.0625 0.8125 3.9875
2.125 0.875 3.9875
2.0625 0.8125 4.05
2.125 0.8125 4.05
2.0625 0.875 4.05
2.125 0.8125 3.9875
2.1875 0.875 3.9875
2.1875 0.8125 3.9875
2.25 0.875 3.9875
2.1875 0.8125 4.05
2.25 0.8125 4.05
2.1875 0.875 4.05
2.25 0.8125 3.9875
2.3125 0.875 3.9875
2.3125 0.8125 3.9875
2.375 0.875 3.9875
2.3125 0.8125 4.05
2.375 0.8125 4.05
2.3125 0.875 4.05
2.375 0.8125 3.9875
2.4375 0.875 3.9875
2.4375 0.8125 3.9875
2.5 0.875 3.9875
2.4375 0.8125 4.05
2.5 0.8125 4.05
2.4375 0.875 4.05
2.5 0.8125 3.9875
2.5625 0.875 3.9875
2.5625 0.8125 3.9875
2.625 0.875 3.9875
2.5625 0.8125 4.05
2.625 0.8125 4.05
2.5625 0.875 4.05
2.625 0.8125 3.9875
2.6875 0.875 3.9875
2.6875 0.8125 3.9875
2.75 0.875 3.9875
2.6875 0.8125 4.05
2.75 0.8125 4.05
2.6875 0.875 4.05
2.75 0.8125 3.9875
2.8125 0.875 3.9875
2.8125 0.8125 3.9875
2.875 0.875 3.9875
2.8125 0.8125 4.05
2.875 0.8125 4.05
2.8125 0.875 4.05
2.875 0.8125 3.9875
2.9375 0.875 3.9875
2.9375 0.8125 3.9875
3 0.875 3.9875
2.9375 0.8125 4.05
3 0.8125 4.05
2.9375 0.875 4.05
3 0.8125 3.9875
3.0625 0.875 3.9875
3.0625 0.8125 3.9875
3.125 0.875 3.9875
3.0625 0.8125 4.05
3.125 0.8125 4.05
3.0625 0.875 4.05
3.125 0.8125 3.9875
3.1875 0.875 3.9875
3.1875 0.8125 3.9875
3.25 0.875 3.9875
3.1875 0.8125 4.05
3.25 0.8125 4.05
3.1875 0.875 4.05
3.25 0.8125 3.9875
3.3125 0.875 3.9875
3.3125 0.8125 3.9875
3.375 0.875 3.9875
3.3125 0.8125 4.05
3.375 0.8125 4.05
3.3125 0.875 4.05
3.375 0.8125 3.9875
3.4375 0.875 3.9875
3.4375 0.8125 3.9875
3.5 0.875 3.9875
3.4375 0.8125 4.05
3.5 0.8125 4.05
3.4375 0.875 4.05
3.5 0.8125 3.9875
3.5625 0.875 3.9875
3.5625 0.8125 3.9875
3.625 0.875 3.9875
3.5625 0.8125 4.05
3.625 0.8125 4.05
3.5625 0.875 4.05
3.625 0.8125 3.9875
3.6875 0.875 3.9875
3.6875 0.8125 3.9875
3.75 0.875 3.9875
3.6875 0.8125 4.05
3.75 0.8125 4.05
3.6875 0.875 4.05
3.75 0.8125 3.9875
3.8125 0.875 3.9875
3.8125 0.8125 3.9875
3.875 0.875 3.9875
3.8125 0.8125 4.05
3.875 0.8125 4.05
3.8125 0.875 4.05
3.875 0.8125 3.9875
3.9375 0.875 3.9875
3.9375 0.8125 3.9875
4 0.875 3.9875
3.9375 0.8125 4.05
4 0.8125 4.05
3.9375 0.875 4.05
4 0.8125 3.9875
0.0625 1 3.9875
0.0625 0.9375 3.9875
0.125 1 3.9875
0.0625 0.9375 4.05
0.125 0.9375 4.05
0 1 3.9875
0 0.9375 3.9875
0.0625 1 4.05
0 0.9375 4.05
0.125 0.9375 3.9875
0.1875 1 3.9875
0.1875 0.9375 3.9875
0.25 1 3.9875
0.1875 0.9375 4.05
0.25 0.9375 4.05
0.1875 1 4.05
0.25 0.9375 3.9875
0.3125 1 3.9875
0.3125 0.9375 3.9875
0.375 1 3.9875
0.3125 0.9375 4.05
0.375 0.9375 4.05
0.3125 1 4.05
0.375 0.9375 3.9875
0.4375 1 3.9875
0.4375 0.9375 3.9875
0.5 1 3.9875
0.4375 0.9375 4.05
0.5 0.9375 4.05
0.4375 1 4.05
0.5 0.9375 3.9875
0.5625 1 3.9875
0.5625 0.9375 3.9875
0.625 1 3.9875
0.5625 0.9375 4.05
0.625 0.9375 4.05
0.5625 1 4.05
0.625 0.9375 3.9875
0.6875 1 3.9875
0.6875 0.9375 3.9875
0.75 1 3.9875
0.6875 0.9375 4.05
0.75 0.9375 4.05
0.6875 1 4.05
0.75 0.9375 3.9875
0.8125 1 3.9875
0.8125 0.9375 3.9875
0.875 1 3.9875
0.8125 0.9375 4.05
0.875 0.9375 4.05
0.8125 1 4.05
0.875 0.9375 3.9875
0.9375 1 3.9875
0.9375 0.9375 3.9875
1 1 3.9875
0.9375 0.9375 4.05
1 0.9375 4.05
0.9375 1 4.05
1 0.9375 3.9875
1.0625 1 3.9875
1.0625 0.9375 3.9875
1.125 1 3.9875
1.0625 0.9375 4.05
1.125 0.9375 4.05
1.0625 1 4.05
1.125 0.9375 3.9875
1.1875 1 3.9875
1.1875 0.9375 3.9875
1.25 1 3.9875
1.1875 0.9375 4.05
1.25 0.9375 4.05
1.1875 1 4.05
1.25 0.9375 3.9875
1.3125 1 3.9875
1.3125 0.9375 3.9875
1.375 1 3.9875
1.3125 0.9375 4.05
1.375 0.9375 4.05
1.3125 1 4.05
1.375 0.9375 3.9875
1.4375 1 3.9875
1.4375 0.9375 3.9875
1.5 1 3.9875
1.4375 0.9375 4.05
1.5 0.9375 4.05
1.4375 1 4.05
1.5 0.9375 3.9875
1.5625 1 3.9875
1.5625 0.9375 3.9875
1.625 1 3.9875
1.5625 0.9375 4.05
1.625 0.9375 4.05
1.5625 1 4.05
1.625 0.9375 3.9875
1.6875 1 3.9875
1.6875 0.9375 3.9875
1.75 1 3.9875
1.6875 0.9375 4.05
1.75 0.9375 4.05
1.6875 1 4.05
1.75 0.9375 3.9875
1.8125 1 3.9875
1.8125 0.9375 3.9875
1.875 1 3.9875
1.8125 0.9375 4.05
1.875 0.9375 4.05
1.8125 1 4.05
1.875 0.9375 3.9875
1.9375 1 3.9875
1.9375 0.9375 3.9875
2 1 3.9875
1.9375 0.9375 4.05
2 0.9375 4.05
1.9375 1 4.05
2 0.9375 3.9875
2.0625 1 3.9875
2.0625 0.9375 3.9875
2.125 1 3.9875
2.0625 0.9375 4.05
2.125 0.9375 4.05
2.0625 1 4.05
2.125 0.9375 3.9875
2.1875 1 3.9875
2.1875 0.9375 3.9875
2.25 1 3.9875
2.1875 0.9375 4.05
2.25 0.9375 4.05
2.1875 1 4.05
2.25 0.9375 3.9875
2.3125 1 3.9875
2.3125 0.9375 3.9875
2.375 1 3.9875
2.3125 0.9375 4.05
2.375 0.9375 4.05
2.3125 1 4.05
2.375 0.9375 3.9875
2.4375 1 3.9875
2.4375 0.9375 3.9875
2.5 1 3.9875
2.4375 0.9375 4.05
2.5 0.9375 4.05
2.4375 1 4.05
2.5 0.9375 3.9875
2.5625 1 3.9875
2.5625 0.9375 3.9875
2.625 1 3.9875
2.5625 0.9375 4.05
2.625 0.9375 4.05
2.5625 1 4.05
2.625 0.9375 3.9875
2.6875 1 3.9875
2.6875 0.9375 3.9875
2.75 1 3.9875
2.6875 0.9375 4.05
2.75 0.9375 4.05
2.6875 1 4.05
2.75 0.9375 3.9875
2.8125 1 3.9875
2.8125 0.9375 3.9875
2.875 1 3.9875
2.8125 0.9375 4.05
2.875 0.9375 4.05
2.8125 1 4.05
2.875 0.9375 3.9875
2.9375 1 3.9875
2.9375 0.9375 3.9875
3 1 3.9875
2.9375 0.9375 4.05
3 0.9375 4.05
2.9375 1 4.05
3 0.9375 3.9875
3.0625 1 3.9875
3.0625 0.9375 3.9875
3.125 1 3.9875
3.0625 0.9375 4.05
3.125 0.9375 4.05
3.0625 1 4.05
3.125 0.9375 3.9875
3.1875 1 3.9875
3.1875 0.9375 3.9875
3.25 1 3.9875
3.1875 0.9375 4.05
3.25 0.9375 4.05
3.1875 1 4.05
3.25 0.9375 3.9875
3.3125 1 3.9875
3.3125 0.9375 3.9875
3.375 1 3.9875
3.3125 0.9375 4.05
3.375 0.9375 4.05
3.3125 1 4.05
3.375 0.9375 3.9875
3.4375 1 3.9875
3.4375 0.9375 3.9875
3.5 1 3.9875
3.4375 0.9375 4.05
3.5 0.9375 4.05
3.4375 1 4.05
3.5 0.9375 3.9875
3.5625 1 3.9875
3.5625 0.9375 3.9875
3.625 1 3.9875
3.5625 0.9375 4.05
3.625 0.9375 4.05
3.5625 1 4.05
3.625 0.9375 3.9875
3.6875 1 3.9875
3.6875 0.9375 3.9875
3.75 1 3.9875
3.6875 0.9375 4.05
3.75 0.9375 4.05
3.6875 1 4.05
3.75 0.9375 3.9875
3.8125 1 3.9875
3.8125 0.9375 3.9875
3.875 1 3.9875
3.8125 0.9375 4.05
3.875 0.9375 4.05
3.8125 1 4.05
3.875 0.9375 3.9875
3.9375 1 3.9875
3.9375 0.9375 3.9875
4 1 3.9875
3.9375 0.9375 4.05
4 0.9375 4.05
3.9375 1 4.05
4 0.9375 3.9875
0.0625 0.125 4.1125
0.0625 0.0625 4.1125
0.125 0.125 4.1125
0.0625 0.0625 4.175
0.125 0.0625 4.175
0.0625 0 4.175
0 0 4.1125
0.0625 0 4.1125
0 0.125 4.1125
0 0.0625 4.1125
0.0625 0.125 4.175
0 0.0625 4.175
0.125 0 4.1125
0.125 0.0625 4.1125
0.1875 0.125 4.1125
0.1875 0.0625 4.1125
0.25 0.125 4.1125
0.1875 0.0625 4.175
0.25 0.0625 4.175
0.1875 0 4.175
0.1875 0 4.1125
0.1875 0.125 4.175
0.25 0 4.1125
0.25 0.0625 4.1125
0.3125 0.125 4.1125
0.3125 0.0625 4.1125
0.375 0.125 4.1125
0.3125 0.0625 4.175
0.375 0.0625 4.175
0.3125 0 4.175
0.3125 0 4.1125
0.3125 0.125 4.175
0.375 0 4.1125
0.375 0.0625 4.1125
0.4375 0.125 4.1125
0.4375 0.0625 4.1125
0.5 0.125 4.1125
0.4375 0.0625 4.175
0.5 0.0625 4.175
0.4375 0 4.175
0.4375 0 4.1125
0.4375 0.125 4.175
0.5 0 4.1125
0.5 0.0625 4.1125
0.5625 0.125 4.1125
0.5625 0.0625 4.1125
0.625 0.125 4.1125
0.5625 0.0625 4.175
0.625 0.0625 4.175
0.5625 0 4.175
0.5625 0 4.1125
0.5625 0.125 4.175
0.625 0 4.1125
0.625 0.0625 4.1125
0.6875 0.125 4.1125
0.6875 0.0625 4.1125
0.75 0.125 4.1125
0.6875 0.0625 4.175
0.75 0.0625 4.175
0.6875 0 4.175
0.6875 0 4.1125
0.6875 0.125 4.175
0.75 0 4.1125
0.75 0.0625 4.1125
0.8125 0.125 4.1125
0.8125 0.0625 4.1125
0.875 0.125 4.1125
0.8125 0.0625 4.175
0.875 0.0625 4.175
0.8125 0 4.175
0.8125 0 4.1125
0.8125 0.125 4.175
0.875 0 4.1125
0.875 0.0625 4.1125
0.9375 0.125 4.1125
0.9375 0.0625 4.1125
1 0.125 4.1125
0.9375 0.0625 4.175
1 0.0625 4.175
0.9375 0 4.175
0.9375 0 4.1125
0.9375 0.125 4.175
1 0 4.1125
1 0.0625 4.1125
1.0625 0.125 4.1125
1.0625 0.0625 4.1125
1.125 0.125 4.1125
1.0625 0.0625 4.175
1.125 0.0625 4.175
1.0625 0 4.175
1.0625 0 4.1125
1.0625 0.125 4.175
1.125 0 4.1125
1.125 0.0625 4.1125
1.1875 0.125 4.1125
1.1875 0.0625 4.1125
1.25 0.125 4.1125
1.1875 0.0625 4.175
1.25 0.0625 4.175
1.1875 0 4.175
1.1875 0 4.1125
1.1875 0.125 4.175
1.25 0 4.1125
1.25 0.0625 4.1125
1.3125 0.125 4.1125
1.3125 0.0625 4.1125
1.375 0.125 4.1125
1.3125 0.0625 4.175
1.375 0.0625 4.175
1.3125 0 4.175
1.3125 0 4.1125
1.3125 0.125 4.175
1.375 0 4.1125
1.375 0.0625 4.1125
1.4375 0.125 4.1125
1.4375 0.0625 4.1125
1.5 0.125 4.1125
1.4375 0.0625 4.175
1.5 0.0625 4.175
1.4375 0 4.175
1.4375 0 4.1125
1.4375 0.125 4.175
1.5 0 4.1125
1.5 0.0625 4.1125
1.5625 0.125 4.1125
1.5625 0.0625 4.1125
1.625 0.125 4.1125
1.5625 0.0625 4.175
1.625 0.0625 4.175
1.5625 0 4.175
1.5625 0 4.1125
1.5625 0.125 4.175
1.625 0 4.1125
1.625 0.0625 4.1125
1.6875 0.125 4.1125
1.6875 0.0625 4.1125
1.75 0.125 4.1125
1.6875 0.0625 4.175
1.75 0.0625 4.175
1.6875 0 4.175
1.6875 0 4.1125
1.6875 0.125 4.175
1.75 0 4.1125
1.75 0.0625 4.1125
1.8125 0.125 4.1125
1.8125 0.0625 4.1125
1.875 0.125 4.1125
1.8125 0.0625 4.175
1.875 0.0625 4.175
1.8125 0 4.175
1.8125 0 4.1125
1.8125 0.125 4.175
1.875 0 4.1125
1.875 0.0625 4.1125
1.9375 0.125 4.1125
1.9375 0.0625 4.1125
2 0.125 4.1125
1.9375 0.0625 4.175
2 0.0625 4.175
1.9375 0 4.175
1.9375 0 4.1125
1.9375 0.125 4.175
2 0 4.1125
2 0.0625 4.1125
2.0625 0.125 4.1125
2.0625 0.0625 4.1125
2.125 0.125 4.1125
2.0625 0.0625 4.175
2.125 0.0625 4.175
2.0625 0 4.175
2.0625 0 4.1125
2.0625 0.125 4.175
2.125 0 4.1125
2.125 0.0625 4.1125
2.1875 0.125 4.1125
2.1875 0.0625 4.1125
2.25 0.125 4.1125
2.1875 0.0625 4.175
2.25 0.0625 4.175
2.1875 0 4.175
2.1875 0 4.1125
2.1875 0.125 4.175
2.25 0 4.1125
2.25 0.0625 4.1125
2.3125 0.125 4.1125
2.3125 0.0625 4.1125
2.375 0.125 4.1125
2.3125 0.0625 4.175
2.375 0.0625 4.175
2.3125 0 4.175
2.3125 0 4.1125
2.3125 0.125 4.175
2.375 0 4.1125
2.375 0.0625 4.1125
2.4375 0.125 4.1125
2.4375 0.0625 4.1125
2.5 0.125 4.1125
2.4375 0.0625 4.175
2.5 0.0625 4.175
2.4375 0 4.175
2.4375 0 4.1125
2.4375 0.125 4.175
2.5 0 4.1125
2.5 0.0625 4.1125
2.5625 0.125 4.1125
2.5625 0.0625 4.1125
2.625 0.125 4.1125
2.5625 0.0625 4.175
2.625 0.0625 4.175
2.5625 0 4.175
2.5625 0 4.1125
2.5625 0.125 4.175
2.625 0 4.1125
2.625 0.0625 4.1125
2.6875 0.125 4.1125
2.6875 0.0625 4.1125
2.75 0.125 4.1125
2.6875 0.0625 4.175
2.75 0.0625 4.175
2.6875 0 4.175
2.6875 0 4.1125
2.6875 0.125 4.175
2.75 0 4.1125
2.75 0.0625 4.1125
2.8125 0.125 4.1125
2.8125 0.0625 4.1125
2.875 0.125 4.1125
2.8125 0.0625 4.175
2.875 0.0625 4.175
2.8125 0 4.175
2.8125 0 4.1125
2.8125 0.125 4.175
2.875 0 4.1125
2.875 0.0625 4.1125
2.9375 0.125 4.1125
2.9375 0.0625 4.1125
3 0.125 4.1125
2.9375 0.0625 4.175
3 0.0625 4.175
2.9375 0 4.175
2.9375 0 4.1125
2.9375 0.125 4.175
3 0 4.1125
3 0.0625 4.1125
3.0625 0.125 4.1125
3.0625 0.0625 4.1125
3.125 0.125 4.1125
3.0625 0.0625 4.175
3.125 0.0625 4.175
3.0625 0 4.175
3.0625 0 4.1125
3.0625 0.125 4.175
3.125 0 4.1125
3.125 0.0625 4.1125
3.1875 0.125 4.1125
3.1875 0.0625 4.1125
3.25 0.125 4.1125
3.1875 0.0625 4.175
3.25 0.0625 4.175
3.1875 0 4.175
3.1875 0 4.1125
3.1875 0.125 4.175
3.25 0 4.1125
3.25 0.0625 4.1125
3.3125 0.125 4.1125
3.3125 0.0625 4.1125
3.375 0.125 4.1125
3.3125 0.0625 4.175
3.375 0.0625 4.175
3.3125 0 4.175
3.3125 0 4.1125
3.3125 0.125 4.175
3.375 0 4.1125
3.375 0.0625 4.1125
3.4375 0.125 4.1125
3.4375 0.0625 4.1125
3.5 0.125 4.1125
3.4375 0.0625 4.175
3.5 0.0625 4.175
3.4375 0 4.175
3.4375 0 4.1125
3.4375 0.125 4.175
3.5 0 4.1125
3.5 0.0625 4.1125
3.5625 0.125 4.1125
3.5625 0.0625 4.1125
3.625 0.125 4.1125
3.5625 0.0625 4.175
3.625 0.0625 4.175
3.5625 0 4.175
3.5625 0 4.1125
3.5625 0.125 4.175
3.625 0 4.1125
3.625 0.0625 4.1125
3.6875 0.125 4.1125
3.6875 0.0625 4.1125
3.75 0.125 4.1125
3.6875 0.0625 4.175
3.75 0.0625 4.175
3.6875 0 4.175
3.6875 0 4.1125
3.6875 0.125 4.175
3.75 0 4.1125
3.75 0.0625 4.1125
3.8125 0.125 4.1125
3.8125 0.0625 4.1125
3.875 0.125 4.1125
3.8125 0.0625 4.175
3.875 0.0625 4.175
3.8125 0 4.175
3.8125 0 4.1125
3.8125 0.125 4.175
3.875 0 4.1125
3.875 0.0625 4.1125
3.9375 0.125 4.1125
3.9375 0.0625 4.1125
4 0.125 4.1125
3.9375 0.0625 4.175
4 0.0625 4.175
3.9375 0 4.175
3.9375 0 4.1125
3.9375 0.125 4.175
4 0 4.1125
4 0.0625 4.1125
0.0625 0.25 4.1125
0.0625 0.1875 4.1125
0.125 0.25 4.1125
0.0625 0.1875 4.175
0.125 0.1875 4.175
0 0.25 4.1125
0 0.1875 4.1125
0.0625 0.25 4.175
0 0.1875 4.175
0.125 0.1875 4.1125
0.1875 0.25 4.1125
0.1875 0.1875 4.1125
0.25 0.25 4.1125
0.1875 0.1875 4.175
0.25 0.1875 4.175
0.1875 0.25 4.175
0.25 0.1875 4.1125
0.3125 0.25 4.1125
0.3125 0.1875 4.1125
0.375 0.25 4.1125
0.3125 0.1875 4.175
0.375 0.1875 4.175
0.3125 0.25 4.175
0.375 0.1875 4.1125
0.4375 0.25 4.1125
0.4375 0.1875 4.1125
0.5 0.25 4.1125
0.4375 0.1875 4.175
0.5 0.1875 4.175
0.4375 0.25 4.175
0.5 0.1875 4.1125
0.5625 0.25 4.1125
0.5625 0.1875 4.1125
0.625 0.25 4.1125
0.5625 0.1875 4.175
0.625 0.1875 4.175
0.5625 0.25 4.175
0.625 0.1875 4.1125
0.6875 0.25 4.1125
0.6875 0.1875 4.1125
0.75 0.25 4.1125
0.6875 0.1875 4.175
0.75 0.1875 4.175
0.6875 0.25 4.175
0.75 0.1875 4.1125
0.8125 0.25 4.1125
0.8125 0.1875 4.1125
0.875 0.25 4.1125
0.8125 0.1875 4.175
0.875 0.1875 4.175
0.8125 0.25 4.175
0.875 0.1875 4.1125
0.9375 0.25 4.1125
0.9375 0.1875 4.1125
1 0.25 4.1125
0.9375 0.1875 4.175
1 0.1875 4.175
0.9375 0.25 4.175
1 0.1875 4.1125
1.0625 0.25 4.1125
1.0625 0.1875 4.1125
1.125 0.25 4.1125
1.0625 0.1875 4.175
1.125 0.1875 4.175
1.0625 0.25 4.175
1.125 0.1875 4.1125
1.1875 0.25 4.1125
1.1875 0.1875 4.1125
1.25 0.25 4.1125
1.1875 0.1875 4.175
1.25 0.1875 4.175
1.1875 0.25 4.175
1.25 0.1875 4.1125
1.3125 0.25 4.1125
1.3125 0.1875 4.1125
1.375 0.25 4.1125
1.3125 0.1875 4.175
1.375 0.1875 4.175
1.3125 0.25 4.175
1.375 0.1875 4.1125
1.4375 0.25 4.1125
1.4375 0.1875 4.1125
1.5 0.25 4.1125
1.4375 0.1875 4.175
1.5 0.1875 4.175
1.4375 0.25 4.175
1.5 0.1875 4.1125
1.5625 0.25 4.1125
1.5625 0.1875 4.1125
1.625 0.25 4.1125
1.5625 0.1875 4.175
1.625 0.1875 4.175
1.5625 0.25 4.175
1.625 0.1875 4.1125
1.6875 0.25 4.1125
1.6875 0.1875 4.1125
1.75 0.25 4.1125
1.6875 0.1875 4.175
1.75 0.1875 4.175
1.6875 0.25 4.175
1.75 0.1875 4.1125
1.8125 0.25 4.1125
1.8125 0.1875 4.1125
1.875 0.25 4.1125
1.8125 0.1875 4.175
1.875 0.1875 4.175
1.8125 0.25 4.175
1.875 0.1875 4.1125
1.9375 0.25 4.1125
1.9375 0.1875 4.1125
2 0.25 4.1125
1.9375 0.1875 4.175
2 0.1875 4.175
1.9375 0.25 4.175
2 0.1875 4.1125
2.0625 0.25 4.1125
2.0625 0.1875 4.1125
2.125 0.25 4.1125
2.0625 0.1875 4.175
2.125 0.1875 4.175
2.0625 0.25 4.175
2.125 0.1875 4.1125
2.1875 0.25 4.1125
2.1875 0.1875 4.1125
2.25 0.25 4.1125
2.1875 0.1875 4.175
2.25 0.1875 4.175
2.1875 0.25 4.175
2.25 0.1875 4.1125
2.3125 0.25 4.1125
2.3125 0.1875 4.1125
2.375 0.25 4.1125
2.3125 0.1875 4.175
2.375 0.1875 4.175
2.3125 0.25 4.175
2.375 0.1875 4.1125
2.4375 0.25 4.1125
2.4375 0.1875 4.1125
2.5 0.25 4.1125
2.4375 0.1875 4.175
2.5 0.1875 4.175
2.4375 0.25 4.175
2.5 0.1875 4.1125
2.5625 0.25 4.1125
2.5625 0.1875 4.1125
2.625 0.25 4.1125
2.5625 0.1875 4.175
2.625 0.1875 4.175
2.5625 0.25 4.175
2.625 0.1875 4.1125
2.6875 0.25 4.1125
2.6875 0.1875 4.1125
2.75 0.25 4.1125
2.6875 0.1875 4.175
2.75 0.1875 4.175
2.6875 0.25 4.175
2.75 0.1875 4.1125
2.8125 0.25 4.1125
2.8125 0.1875 4.1125
2.875 0.25 4.1125
2.8125 0.1875 4.175
2.875 0.1875 4.175
2.8125 0.25 4.175
2.875 0.1875 4.1125
2.9375 0.25 4.1125
2.9375 0.1875 4.1125
3 0.25 4.1125
2.9375 0.1875 4.175
3 0.1875 4.175
2.9375 0.25 4.175
3 0.1875 4.1125
3.0625 0.25 4.1125
3.0625 0.1875 4.1125
3.125 0.25 4.1125
3.0625 0.1875 4.175
3.125 0.1875 4.175
3.0625 0.25 4.175
3.125 0.1875 4.1125
3.1875 0.25 4.1125
3.1875 0.1875 4.1125
3.25 0.25 4.1125
3.1875 0.1875 4.175
3.25 0.1875 4.175
3.1875 0.25 4.175
3.25 0.1875 4.1125
3.3125 0.25 4.1125
3.3125 0.1875 4.1125
3.375 0.25 4.1125
3.3125 0.1875 4.175
3.375 0.1875 4.175
3.3125 0.25 4.175
3.375 0.1875 4.1125
3.4375 0.25 4.1125
3.4375 0.1875 4.1125
3.5 0.25 4.1125
3.4375 0.1875 4.175
3.5 0.1875 4.175
3.4375 0.25 4.175
3.5 0.1875 4.1125
3.5625 0.25 4.1125
3.5625 0.1875 4.1125
3.625 0.25 4.1125
3.5625 0.1875 4.175
3.625 0.1875 4.175
3.5625 0.25 4.175
3.625 0.1875 4.1125
3.6875 0.25 4.1125
3.6875 0.1875 4.1125
3.75 0.25 4.1125
3.6875 0.1875 4.175
3.75 0.1875 4.175
3.6875 0.25 4.175
3.75 0.1875 4.1125
3.8125 0.25 4.1125
3.8125 0.1875 4.1125
3.875 0.25 4.1125
3.8125 0.1875 4.175
3.875 0.1875 4.175
3.8125 0.25 4.175
3.875 0.1875 4.1125
3.9375 0.25 4.1125
3.9375 0.1875 4.1125
4 0.25 4.1125
3.9375 0.1875 4.175
4 0.1875 4.175
3.9375 0.25 4.175
4 0.1875 4.1125
0.0625 0.375 4.1125
0.0625 0.3125 4.1125
0.125 0.375 4.1125
0.0625 0.3125 4.175
0.125 0.3125 4.175
0 0.375 4.1125
0 0.3125 4.1125
0.0625 0.375 4.175
0 0.3125 4.175
0.125 0.3125 4.1125
0.1875 0.375 4.1125
0.1875 0.3125 4.1125
0.25 0.375 4.1125
0.1875 0.3125 4.175
0.25 0.3125 4.175
0.1875 0.375 4.175
0.25 0.3125 4.1125
0.3125 0.375 4.1125
0.3125 0.3125 4.1125
0.375 0.375 4.1125
0.3125 0.3125 4.175
0.375 0.3125 4.175
0.3125 0.375 4.175
0.375 0.3125 4.1125
0.4375 0.375 4.1125
0.4375 0.3125 4.1125
0.5 0.375 4.1125
0.4375 0.3125 4.175
0.5 0.3125 4.175
0.4375 0.375 4.175
0.5 0.3125 4.1125
0.5625 0.375 4.1125
0.5625 0.3125 4.1125
0.625 0.375 4.1125
0.5625 0.3125 4.175
0.625 0.3125 4.175
0.5625 0.375 4.175
0.625 0.3125 4.1125
0.6875 0.375 4.1125
0.6875 0.3125 4.1125
0.75 0.375 4.1125
0.6875 0.3125 4.175
0.75 0.3125 4.175
0.6875 0.375 4.175
0.75 0.3125 4.1125
0.8125 0.375 4.1125
0.8125 0.3125 4.1125
0.875 0.375 4.1125
0.8125 0.3125 4.175
0.875 0.3125 4.175
0.8125 0.375 4.175
0.875 0.3125 4.1125
0.9375 0.375 4.1125
0.9375 0.3125 4.1125
1 0.375 4.1125
0.9375 0.3125 4.175
1 0.3125 4.175
0.9375 0.375 4.175
1 0.3125 4.1125
1.0625 0.375 4.1125
1.0625 0.3125 4.1125
1.125 0.375 4.1125
1.0625 0.3125 4.175
1.125 0.3125 4.175
1.0625 0.375 4.175
1.125 0.3125 4.1125
1.1875 0.375 4.1125
1.1875 0.3125 4.1125
1.25 0.375 4.1125
1.1875 0.3125 4.175
1.25 0.3125 4.175
1.1875 0.375 4.175
1.25 0.3125 4.1125
1.3125 0.375 4.1125
1.3125 0.3125 4.1125
1.375 0.375 4.1125
1.3125 0.3125 4.175
1.375 0.3125 4.175
1.3125 0.375 4.175
1.375 0.3125 4.1125
1.4375 0.375 4.1125
1.4375 0.3125 4.1125
1.5 0.375 4.1125
1.4375 0.3125 4.175
1.5 0.3125 4.175
1.4375 0.375 4.175
1.5 0.3125 4.1125
1.5625 0.375 4.1125
1.5625 0.3125 4.1125
1.625 0.375 4.1125
1.5625 0.3125 4.175
1.625 0.3125 4.175
1.5625 0.375 4.175
1.625 0.3125 4.1125
1.6875 0.375 4.1125
1.6875 0.3125 4.1125
1.75 0.375 4.1125
1.6875 0.3125 4.175
1.75 0.3125 4.175
1.6875 0.375 4.175
1.75 0.3125 4.1125
1.8125 0.375 4.1125
1.8125 0.3125 4.1125
1.875 0.375 4.1125
1.8125 0.3125 4.175
1.875 0.3125 4.175
1.8125 0.375 4.175
1.875 0.3125 4.1125
1.9375 0.375 4.1125
1.9375 0.3125 4.1125
2 0.375 4.1125
1.9375 0.3125 4.175
2 0.3125 4.175
1.9375 0.375 4.175
2 0.3125 4.1125
2.0625 0.375 4.1125
2.0625 0.3125 4.1125
2.125 0.375 4.1125
2.0625 0.3125 4.175
2.125 0.3125 4.175
2.0625 0.375 4.175
2.125 0.3125 4.1125
2.1875 0.375 4.1125
2.1875 0.3125 4.1125
2.25 0.375 4.1125
2.1875 0.3125 4.175
2.25 0.3125 4.175
2.1875 0.375 4.175
2.25 0.3125 4.1125
2.3125 0.375 4.1125
2.3125 0.3125 4.1125
2.375 0.375 4.1125
2.3125 0.3125 4.175
2.375 0.3125 4.175
2.3125 0.375 4.175
2.375 0.3125 4.1125
2.4375 0.375 4.1125
2.4375 0.3125 4.1125
2.5 0.375 4.1125
2.4375 0.3125 4.175
2.5 0.3125 4.175
2.4375 0.375 4.175
2.5 0.3125 4.1125
2.5625 0.375 4.1125
2.5625 0.3125 4.1125
2.625 0.375 4.1125
2.5625 0.3125 4.175
2.625 0.3125 4.175
2.5625 0.375 4.175
2.625 0.3125 4.1125
2.6875 0.375 4.1125
2.6875 0.3125 4.1125
2.75 0.375 4.1125
2.6875 0.3125 4.175
2.75 0.3125 4.175
2.6875 0.375 4.175
2.75 0.3125 4.1125
2.8125 0.375 4.1125
2.8125 0.3125 4.1125
2.875 0.375 4.1125
2.8125 0.3125 4.175
2.875 0.3125 4.175
2.8125 0.375 4.175
2.875 0.3125 4.1125
2.9375 0.375 4.1125
2.9375 0.3125 4.1125
3 0.375 4.1125
2.9375 0.3125 4.175
3 0.3125 4.175
2.9375 0.375 4.175
3 0.3125 4.1125
3.0625 0.375 4.1125
3.0625 0.3125 4.1125
3.125 0.375 4.1125
3.0625 0.3125 4.175
3.125 0.3125 4.175
3.0625 0.375 4.175
3.125 0.3125 4.1125
3.1875 0.375 4.1125
3.1875 0.3125 4.1125
3.25 0.375 4.1125
3.1875 0.3125 4.175
3.25 0.3125 4.175
3.1875 0.375 4.175
3.25 0.3125 4.1125
3.3125 0.375 4.1125
3.3125 0.3125 4.1125
3.375 0.375 4.1125
3.3125 0.3125 4.175
3.375 0.3125 4.175
3.3125 0.375 4.175
3.375 0.3125 4.1125
3.4375 0.375 4.1125
3.4375 0.3125 4.1125
3.5 0.375 4.1125
3.4375 0.3125 4.175
3.5 0.3125 4.175
3.4375 0.375 4.175
3.5 0.3125 4.1125
3.5625 0.375 4.1125
3.5625 0.3125 4.1125
3.625 0.375 4.1125
3.5625 0.3125 4.175
3.625 0.3125 4.175
3.5625 0.375 4.175
3.625 0.3125 4.1125
3.6875 0.375 4.1125
3.6875 0.3125 4.1125
3.75 0.375 4.1125
3.6875 0.3125 4.175
3.75 0.3125 4.175
3.6875 0.375 4.175
3.75 0.3125 4.1125
3.8125 0.375 4.1125
3.8125 0.3125 4.1125
3.875 0.375 4.1125
3.8125 0.3125 4.175
3.875 0.3125 4.175
3.8125 0.375 4.175
3.875 0.3125 4.1125
3.9375 0.375 4.1125
3.9375 0.3125 4.1125
4 0.375 4.1125
3.9375 0.3125 4.175
4 0.3125 4.175
3.9375 0.375 4.175
4 0.3125 4.1125
0.0625 0.5 4.1125
0.0625 0.4375 4.1125
0.125 0.5 4.1125
0.0625 0.4375 4.175
0.125 0.4375 4.175
0 0.5 4.1125
0 0.4375 4.1125
0.0625 0.5 4.175
0 0.4375 4.175
0.125 0.4375 4.1125
0.1875 0.5 4.1125
0.1875 0.4375 4.1125
0.25 0.5 4.1125
0.1875 0.4375 4.175
0.25 0.4375 4.175
0.1875 0.5 4.175
0.25 0.4375 4.1125
0.3125 0.5 4.1125
0.3125 0.4375 4.1125
0.375 0.5 4.1125
0.3125 0.4375 4.175
0.375 0.4375 4.175
0.3125 0.5 4.175
0.375 0.4375 4.1125
0.4375 0.5 4.1125
0.4375 0.4375 4.1125
0.5 0.5 4.1125
0.4375 0.4375 4.175
0.5 0.4375 4.175
0.4375 0.5 4.175
0.5 0.4375 4.1125
0.5625 0.5 4.1125
0.5625 0.4375 4.1125
0.625 0.5 4.1125
0.5625 0.4375 4.175
0.625 0.4375 4.175
0.5625 0.5 4.175
0.625 0.4375 4.1125
0.6875 0.5 4.1125
0.6875 0.4375 4.1125
0.75 0.5 4.1125
0.6875 0.4375 4.175
0.75 0.4375 4.175
0.6875 0.5 4.175
0.75 0.4375 4.1125
0.8125 0.5 4.1125
0.8125 0.4375 4.1125
0.875 0.5 4.1125
0.8125 0.4375 4.175
0.875 0.4375 4.175
0.8125 0.5 4.175
0.875 0.4375 4.1125
0.9375 0.5 4.1125
0.9375 0.4375 4.1125
1 0.5 4.1125
0.9375 0.4375 4.175
1 0.4375 4.175
0.9375 0.5 4.175
1 0.4375 4.1125
1.0625 0.5 4.1125
1.0625 0.4375 4.1125
1.125 0.5 4.1125
1.0625 0.4375 4.175
1.125 0.4375 4.175
1.0625 0.5 4.175
1.125 0.4375 4.1125
1.1875 0.5 4.1125
1.1875 0.4375 4.1125
1.25 0.5 4.1125
1.1875 0.4375 4.175
1.25 0.4375 4.175
1.1875 0.5 4.175
1.25 0.4375 4.1125
1.3125 0.5 4.1125
1.3125 0.4375 4.1125
1.375 0.5 4.1125
1.3125 0.4375 4.175
1.375 0.4375 4.175
1.3125 0.5 4.175
1.375 0.4375 4.1125
1.4375 0.5 4.1125
1.4375 0.4375 4.1125
1.5 0.5 4.1125
1.4375 0.4375 4.175
1.5 0.4375 4.175
1.4375 0.5 4.175
1.5 0.4375 4.1125
1.5625 0.5 4.1125
1.5625 0.4375 4.1125
1.625 0.5 4.1125
1.5625 0.4375 4.175
1.625 0.4375 4.175
1.5625 0.5 4.175
1.625 0.4375 4.1125
1.6875 0.5 4.1125
1.6875 0.4375 4.1125
1.75 0.5 4.1125
1.6875 0.4375 4.175
1.75 0.4375 4.175
1.6875 0.5 4.175
1.75 0.4375 4.1125
1.8125 0.5 4.1125
1.8125 0.4375 4.1125
1.875 0.5 4.1125
1.8125 0.4375 4.175
1.875 0.4375 4.175
1.8125 0.5 4.175
1.875 0.4375 4.1125
1.9375 0.5 4.1125
1.9375 0.4375 4.1125
2 0.5 4.1125
1.9375 0.4375 4.175
2 0.4375 4.175
1.9375 0.5 4.175
2 0.4375 4.1125
2.0625 0.5 4.1125
2.0625 0.4375 4.1125
2.125 0.5 4.1125
2.0625 0.4375 4.175
2.125 0.4375 4.175
2.0625 0.5 4.175
2.125 0.4375 4.1125
2.1875 0.5 4.1125
2.1875 0.4375 4.1125
2.25 0.5 4.1125
2.1875 0.4375 4.175
2.25 0.4375 4.175
2.1875 0.5 4.175
2.25 0.4375 4.1125
2.3125 0.5 4.1125
2.3125 0.4375 4.1125
2.375 0.5 4.1125
2.3125 0.4375 4.175
2.375 0.4375 4.175
2.3125 0.5 4.175
2.375 0.4375 4.1125
2.4375 0.5 4.1125
2.4375 0.4375 4.1125
2.5 0.5 4.1125
2.4375 0.4375 4.175
2.5 0.4375 4.175
2.4375 0.5 4.175
2.5 0.4375 4.1125
2.5625 0.5 4.1125
2.5625 0.4375 4.1125
2.625 0.5 4.1125
2.5625 0.4375 4.175
2.625 0.4375 4.175
2.5625 0.5 4.175
2.625 0.4375 4.1125
2.6875 0.5 4.1125
2.6875 0.4375 4.1125
2.75 0.5 4.1125
2.6875 0.4375 4.175
2.75 0.4375 4.175
2.6875 0.5 4.175
2.75 0.4375 4.1125
2.8125 0.5 4.1125
2.8125 0.4375 4.1125
2.875 0.5 4.1125
2.8125 0.4375 4.175
2.875 0.4375 4.175
2.8125 0.5 4.175
2.875 0.4375 4.1125
2.9375 0.5 4.1125
2.9375 0.4375 4.1125
3 0.5 4.1125
2.9375 0.4375 4.175
3 0.4375 4.175
2.9375 0.5 4.175
3 0.4375 4.1125
3.0625 0.5 4.1125
3.0625 0.4375 4.1125
3.125 0.5 4.1125
3.0625 0.4375 4.175
3.125 0.4375 4.175
3.0625 0.5 4.175
3.125 0.4375 4.1125
3.1875 0.5 4.1125
3.1875 0.4375 4.1125
3.25 0.5 4.1125
3.1875 0.4375 4.175
3.25 0.4375 4.175
3.1875 0.5 4.175
3.25 0.4375 4.1125
3.3125 0.5 4.1125
3.3125 0.4375 4.1125
3.375 0.5 4.1125
3.3125 0.4375 4.175
3.375 0.4375 4.175
3.3125 0.5 4.175
3.375 0.4375 4.1125
3.4375 0.5 4.1125
3.4375 0.4375 4.1125
3.5 0.5 4.1125
3.4375 0.4375 4.175
3.5 0.4375 4.175
3.4375 0.5 4.175
3.5 0.4375 4.1125
3.5625 0.5 4.1125
3.5625 0.4375 4.1125
3.625 0.5 4.1125
3.5625 0.4375 4.175
3.625 0.4375 4.175
3.5625 0.5 4.175
3.625 0.4375 4.1125
3.6875 0.5 4.1125
3.6875 0.4375 4.1125
3.75 0.5 4.1125
3.6875 0.4375 4.175
3.75 0.4375 4.175
3.6875 0.5 4.175
3.75 0.4375 4.1125
3.8125 0.5 4.1125
3.8125 0.4375 4.1125
3.875 0.5 4.1125
3.8125 0.4375 4.175
3.875 0.4375 4.175
3.8125 0.5 4.175
3.875 0.4375 4.1125
3.9375 0.5 4.1125
3.9375 0.4375 4.1125
4 0.5 4.1125
3.9375 0.4375 4.175
4 0.4375 4.175
3.9375 0.5 4.175
4 0.4375 4.1125
0.0625 0.625 4.1125
0.0625 0.5625 4.1125
0.125 0.625 4.1125
0.0625 0.5625 4.175
0.125 0.5625 4.175
0 0.625 4.1125
0 0.5625 4.1125
0.0625 0.625 4.175
0 0.5625 4.175
0.125 0.5625 4.1125
0.1875 0.625 4.1125
0.1875 0.5625 4.1125
0.25 0.625 4.1125
0.1875 0.5625 4.175
0.25 0.5625 4.175
0.1875 0.625 4.175
0.25 0.5625 4.1125
0.3125 0.625 4.1125
0.3125 0.5625 4.1125
0.375 0.625 4.1125
0.3125 0.5625 4.175
0.375 0.5625 4.175
0.3125 0.625 4.175
0.375 0.5625 4.1125
0.4375 0.625 4.1125
0.4375 0.5625 4.1125
0.5 0.625 4.1125
0.4375 0.5625 4.175
0.5 0.5625 4.175
0.4375 0.625 4.175
0.5 0.5625 4.1125
0.5625 0.625 4.1125
0.5625 0.5625 4.1125
0.625 0.625 4.1125
0.5625 0.5625 4.175
0.625 0.5625 4.175
0.5625 0.625 4.175
0.625 0.5625 4.1125
0.6875 0.625 4.1125
0.6875 0.5625 4.1125
0.75 0.625 4.1125
0.6875 0.5625 4.175
0.75 0.5625 4.175
0.6875 0.625 4.175
0.75 0.5625 4.1125
0.8125 0.625 4.1125
0.8125 0.5625 4.1125
0.875 0.625 4.1125
0.8125 0.5625 4.175
0.875 0.5625 4.175
0.8125 0.625 4.175
0.875 0.5625 4.1125
0.9375 0.625 4.1125
0.9375 0.5625 4.1125
1 0.625 4.1125
0.9375 0.5625 4.175
1 0.5625 4.175
0.9375 0.625 4.175
1 0.5625 4.1125
1.0625 0.625 4.1125
1.0625 0.5625 4.1125
1.125 0.625 4.1125
1.0625 0.5625 4.175
1.125 0.5625 4.175
1.0625 0.625 4.175
1.125 0.5625 4.1125
1.1875 0.625 4.1125
1.1875 0.5625 4.1125
1.25 0.625 4.1125
1.1875 0.5625 4.175
1.25 0.5625 4.175
1.1875 0.625 4.175
1.25 0.5625 4.1125
1.3125 0.625 4.1125
1.3125 0.5625 4.1125
1.375 0.625 4.1125
1.3125 0.5625 4.175
1.375 0.5625 4.175
1.3125 0.625 4.175
1.375 0.5625 4.1125
1.4375 0.625 4.1125
1.4375 0.5625 4.1125
1.5 0.625 4.1125
1.4375 0.5625 4.175
1.5 0.5625 4.175
1.4375 0.625 4.175
1.5 0.5625 4.1125
1.5625 0.625 4.1125
1.5625 0.5625 4.1125
1.625 0.625 4.1125
1.5625 0.5625 4.175
1.625 0.5625 4.175
1.5625 0.625 4.175
1.625 0.5625 4.1125
1.6875 0.625 4.1125
1.6875 0.5625 4.1125
1.75 0.625 4.1125
1.6875 0.5625 4.175
1.75 0.5625 4.175
1.6875 0.625 4.175
1.75 0.5625 4.1125
1.8125 0.625 4.1125
1.8125 0.5625 4.1125
1.875 0.625 4.1125
1.8125 0.5625 4.175
1.875 0.5625 4.175
1.8125 0.625 4.175
1.875 0.5625 4.1125
1.9375 0.625 4.1125
1.9375 0.5625 4.1125
2 0.625 4.1125
1.9375 0.5625 4.175
2 0.5625 4.175
1.9375 0.625 4.175
2 0.5625 4.1125
2.0625 0.625 4.1125
2.0625 0.5625 4.1125
2.125 0.625 4.1125
2.0625 0.5625 4.175
2.125 0.5625 4.175
2.0625 0.625 4.175
2.125 0.5625 4.1125
2.1875 0.625 4.1125
2.1875 0.5625 4.1125
2.25 0.625 4.1125
2.1875 0.5625 4.175
2.25 0.5625 4.175
2.1875 0.625 4.175
2.25 0.5625 4.1125
2.3125 0.625 4.1125
2.3125 0.5625 4.1125
2.375 0.625 4.1125
2.3125 0.5625 4.175
2.375 0.5625 4.175
2.3125 0.625 4.175
2.375 0.5625 4.1125
2.4375 0.625 4.1125
2.4375 0.5625 4.1125
2.5 0.625 4.1125
2.4375 0.5625 4.175
2.5 0.5625 4.175
2.4375 0.625 4.175
2.5 0.5625 4.1125
2.5625 0.625 4.1125
2.5625 0.5625 4.1125
2.625 0.625 4.1125
2.5625 0.5625 4.175
2.625 0.5625 4.175
2.5625 0.625 4.175
2.625 0.5625 4.1125
2.6875 0.625 4.1125
2.6875 0.5625 4.1125
2.75 0.625 4.1125
2.6875 0.5625 4.175
2.75 0.5625 4.175
2.6875 0.625 4.175
2.75 0.5625 4.1125
2.8125 0.625 4.1125
2.8125 0.5625 4.1125
2.875 0.625 4.1125
2.8125 0.5625 4.175
2.875 0.5625 4.175
2.8125 0.625 4.175
2.875 0.5625 4.1125
2.9375 0.625 4.1125
2.9375 0.5625 4.1125
3 0.625 4.1125
2.9375 0.5625 4.175
3 0.5625 4.175
2.9375 0.625 4.175
3 0.5625 4.1125
3.0625 0.625 4.1125
3.0625 0.5625 4.1125
3.125 0.625 4.1125
3.0625 0.5625 4.175
3.125 0.5625 4.175
3.0625 0.625 4.175
3.125 0.5625 4.1125
3.1875 0.625 4.1125
3.1875 0.5625 4.1125
3.25 0.625 4.1125
3.1875 0.5625 4.175
3.25 0.5625 4.175
3.1875 0.625 4.175
3.25 0.5625 4.1125
3.3125 0.625 4.1125
3.3125 0.5625 4.1125
3.375 0.625 4.1125
3.3125 0.5625 4.175
3.375 0.5625 4.175
3.3125 0.625 4.175
3.375 0.5625 4.1125
3.4375 0.625 4.1125
3.4375 0.5625 4.1125
3.5 0.625 4.1125
3.4375 0.5625 4.175
3.5 0.5625 4.175
3.4375 0.625 4.175
3.5 0.5625 4.1125
3.5625 0.625 4.1125
3.5625 0.5625 4.1125
3.625 0.625 4.1125
3.5625 0.5625 4.175
3.625 0.5625 4.175
3.5625 0.625 4.175
3.625 0.5625 4.1125
3.6875 0.625 4.1125
3.6875 0.5625 4.1125
3.75 0.625 4.1125
3.6875 0.5625 4.175
3.75 0.5625 4.175
3.6875 0.625 4.175
3.75 0.5625 4.1125
3.8125 0.625 4.1125
3.8125 0.5625 4.1125
3.875 0.625 4.1125
3.8125 0.5625 4.175
3.875 0.5625 4.175
3.8125 0.625 4.175
3.875 0.5625 4.1125
3.9375 0.625 4.1125
3.9375 0.5625 4.1125
4 0.625 4.1125
3.9375 0.5625 4.175
4 0.5625 4.175
3.9375 0.625 4.175
4 0.5625 4.1125
0.0625 0.75 4.1125
0.0625 0.6875 4.1125
0.125 0.75 4.1125
0.0625 0.6875 4.175
0.125 0.6875 4.175
0 0.75 4.1125
0 0.6875 4.1125
0.0625 0.75 4.175
0 0.6875 4.175
0.125 0.6875 4.1125
0.1875 0.75 4.1125
0.1875 0.6875 4.1125
0.25 0.75 4.1125
0.1875 0.6875 4.175
0.25 0.6875 4.175
0.1875 0.75 4.175
0.25 0.6875 4.1125
0.3125 0.75 4.1125
0.3125 0.6875 4.1125
0.375 0.75 4.1125
0.3125 0.6875 4.175
0.375 0.6875 4.175
0.3125 0.75 4.175
0.375 0.6875 4.1125
0.4375 0.75 4.1125
0.4375 0.6875 4.1125
0.5 0.75 4.1125
0.4375 0.6875 4.175
0.5 0.6875 4.175
0.4375 0.75 4.175
0.5 0.6875 4.1125
0.5625 0.75 4.1125
0.5625 0.6875 4.1125
0.625 0.75 4.1125
0.5625 0.6875 4.175
0.625 0.6875 4.175
0.5625 0.75 4.175
0.625 0.6875 4.1125
0.6875 0.75 4.1125
0.6875 0.6875 4.1125
0.75 0.75 4.1125
0.6875 0.6875 4.175
0.75 0.6875 4.175
0.6875 0.75 4.175
0.75 0.6875 4.1125
0.8125 0.75 4.1125
0.8125 0.6875 4.1125
0.875 0.75 4.1125
0.8125 0.6875 4.175
0.875 0.6875 4.175
0.8125 0.75 4.175
0.875 0.6875 4.1125
0.9375 0.75 4.1125
0.9375 0.6875 4.1125
1 0.75 4.1125
0.9375 0.6875 4.175
1 0.6875 4.175
0.9375 0.75 4.175
1 0.6875 4.1125
1.0625 0.75 4.1125
1.0625 0.6875 4.1125
1.125 0.75 4.1125
1.0625 0.6875 4.175
1.125 0.6875 4.175
1.0625 0.75 4.175
1.125 0.6875 4.1125
1.1875 0.75 4.1125
1.1875 0.6875 4.1125
1.25 0.75 4.1125
1.1875 0.6875 4.175
1.25 0.6875 4.175
1.1875 0.75 4.175
1.25 0.6875 4.1125
1.3125 0.75 4.1125
1.3125 0.6875 4.1125
1.375 0.75 4.1125
1.3125 0.6875 4.175
1.375 0.6875 4.175
1.3125 0.75 4.175
1.375 0.6875 4.1125
1.4375 0.75 4.1125
1.4375 0.6875 4.1125
1.5 0.75 4.1125
1.4375 0.6875 4.175
1.5 0.6875 4.175
1.4375 0.75 4.175
1.5 0.6875 4.1125
1.5625 0.75 4.1125
1.5625 0.6875 4.1125
1.625 0.75 4.1125
1.5625 0.6875 4.175
1.625 0.6875 4.175
1.5625 0.75 4.175
1.625 0.6875 4.1125
1.6875 0.75 4.1125
1.6875 0.6875 4.1125
1.75 0.75 4.1125
1.6875 0.6875 4.175
1.75 0.6875 4.175
1.6875 0.75 4.175
1.75 0.6875 4.1125
1.8125 0.75 4.1125
1.8125 0.6875 4.1125
1.875 0.75 4.1125
1.8125 0.6875 4.175
1.875 0.6875 4.175
1.8125 0.75 4.175
1.875 0.6875 4.1125
1.9375 0.75 4.1125
1.9375 0.6875 4.1125
2 0.75 4.1125
1.9375 0.6875 4.175
2 0.6875 4.175
1.9375 0.75 4.175
2 0.6875 4.1125
2.0625 0.75 4.1125
2.0625 0.6875 4.1125
2.125 0.75 4.1125
2.0625 0.6875 4.175
2.125 0.6875 4.175
2.0625 0.75 4.175
2.125 0.6875 4.1125
2.1875 0.75 4.1125
2.1875 0.6875 4.1125
2.25 0.75 4.1125
2.1875 0.6875 4.175
2.25 0.6875 4.175
2.1875 0.75 4.175
2.25 0.6875 4.1125
2.3125 0.75 4.1125
2.3125 0.6875 4.1125
2.375 0.75 4.1125
2.3125 0.6875 4.175
2.375 0.6875 4.175
2.3125 0.75 4.175
2.375 0.6875 4.1125
2.4375 0.75 4.1125
2.4375 0.6875 4.1125
2.5 0.75 4.1125
2.4375 0.6875 4.175
2.5 0.6875 4.175
2.4375 0.75 4.175
2.5 0.6875 4.1125
2.5625 0.75 4.1125
2.5625 0.6875 4.1125
2.625 0.75 4.1125
2.5625 0.6875 4.175
2.625 0.6875 4.175
2.5625 0.75 4.175
2.625 0.6875 4.1125
2.6875 0.75 4.1125
2.6875 0.6875 4.1125
2.75 0.75 4.1125
2.6875 0.6875 4.175
2.75 0.6875 4.175
2.6875 0.75 4.175
2.75 0.6875 4.1125
2.8125 0.75 4.1125
2.8125 0.6875 4.1125
2.875 0.75 4.1125
2.8125 0.6875 4.175
2.875 0.6875 4.175
2.8125 0.75 4.175
2.875 0.6875 4.1125
2.9375 0.75 4.1125
2.9375 0.6875 4.1125
3 0.75 4.1125
2.9375 0.6875 4.175
3 0.6875 4.175
2.9375 0.75 4.175
3 0.6875 4.1125
3.0625 0.75 4.1125
3.0625 0.6875 4.1125
3.125 0.75 4.1125
3.0625 0.6875 4.175
3.125 0.6875 4.175
3.0625 0.75 4.175
3.125 0.6875 4.1125
3.1875 0.75 4.1125
3.1875 0.6875 4.1125
3.25 0.75 4.1125
3.1875 0.6875 4.175
3.25 0.6875 4.175
3.1875 0.75 4.175
3.25 0.6875 4.1125
3.3125 0.75 4.1125
3.3125 0.6875 4.1125
3.375 0.75 4.1125
3.3125 0.6875 4.175
3.375 0.6875 4.175
3.3125 0.75 4.175
3.375 0.6875 4.1125
3.4375 0.75 4.1125
3.4375 0.6875 4.1125
3.5 0.75 4.1125
3.4375 0.6875 4.175
3.5 0.6875 4.175
3.4375 0.75 4.175
3.5 0.6875 4.1125
3.5625 0.75 4.1125
3.5625 0.6875 4.1125
3.625 0.75 4.1125
3.5625 0.6875 4.175
3.625 0.6875 4.175
3.5625 0.75 4.175
3.625 0.6875 4.1125
3.6875 0.75 4.1125
3.6875 0.6875 4.1125
3.75 0.75 4.1125
3.6875 0.6875 4.175
3.75 0.6875 4.175
3.6875 0.75 4.175
3.75 0.6875 4.1125
3.8125 0.75 4.1125
3.8125 0.6875 4.1125
3.875 0.75 4.1125
3.8125 0.6875 4.175
3.875 0.6875 4.175
3.8125 0.75 4.175
3.875 0.6875 4.1125
3.9375 0.75 4.1125
3.9375 0.6875 4.1125
4 0.75 4.1125
3.9375 0.6875 4.175
4 0.6875 4.175
3.9375 0.75 4.175
4 0.6875 4.1125
0.0625 0.875 4.1125
0.0625 0.8125 4.1125
0.125 0.875 4.1125
0.0625 0.8125 4.175
0.125 0.8125 4.175
0 0.875 4.1125
0 0.8125 4.1125
0.0625 0.875 4.175
0 0.8125 4.175
0.125 0.8125 4.1125
0.1875 0.875 4.1125
0.1875 0.8125 4.1125
0.25 0.875 4.1125
0.1875 0.8125 4.175
0.25 0.8125 4.175
0.1875 0.875 4.175
0.25 0.8125 4.1125
0.3125 0.875 4.1125
0.3125 0.8125 4.1125
0.375 0.875 4.1125
0.3125 0.8125 4.175
0.375 0.8125 4.175
0.3125 0.875 4.175
0.375 0.8125 4.1125
0.4375 0.875 4.1125
0.4375 0.8125 4.1125
0.5 0.875 4.1125
0.4375 0.8125 4.175
0.5 0.8125 4.175
0.4375 0.875 4.175
0.5 0.8125 4.1125
0.5625 0.875 4.1125
0.5625 0.8125 4.1125
0.625 0.875 4.1125
0.5625 0.8125 4.175
0.625 0.8125 4.175
0.5625 0.875 4.175
0.625 0.8125 4.1125
0.6875 0.875 4.1125
0.6875 0.8125 4.1125
0.75 0.875 4.1125
0.6875 0.8125 4.175
0.75 0.8125 4.175
0.6875 0.875 4.175
0.75 0.8125 4.1125
0.8125 0.875 4.1125
0.8125 0.8125 4.1125
0.875 0.875 4.1125
0.8125 0.8125 4.175
0.875 0.8125 4.175
0.8125 0.875 4.175
0.875 0.8125 4.1125
0.9375 0.875 4.1125
0.9375 0.8125 4.1125
1 0.875 4.1125
0.9375 0.8125 4.175
1 0.8125 4.175
0.9375 0.875 4.175
1 0.8125 4.1125
1.0625 0.875 4.1125
1.0625 0.8125 4.1125
1.125 0.875 4.1125
1.0625 0.8125 4.175
1.125 0.8125 4.175
1.0625 0.875 4.175
1.125 0.8125 4.1125
1.1875 0.875 4.1125
1.1875 0.8125 4.1125
1.25 0.875 4.1125
1.1875 0.8125 4.175
1.25 0.8125 4.175
1.1875 0.875 4.175
1.25 0.8125 4.1125
1.3125 0.875 4.1125
1.3125 0.8125 4.1125
1.375 0.875 4.1125
1.3125 0.8125 4.175
1.375 0.8125 4.175
1.3125 0.875 4.175
1.375 0.8125 4.1125
1.4375 0.875 4.1125
1.4375 0.8125 4.1125
1.5 0.875 4.1125
1.4375 0.8125 4.175
1.5 0.8125 4.175
1.4375 0.875 4.175
1.5 0.8125 4.1125
1.5625 0.875 4.1125
1.5625 0.8125 4.1125
1.625 0.875 4.1125
1.5625 0.8125 4.175
1.625 0.8125 4.175
1.5625 0.875 4.175
1.625 0.8125 4.1125
1.6875 0.875 4.1125
1.6875 0.8125 4.1125
1.75 0.875 4.1125
1.6875 0.8125 4.175
1.75 0.8125 4.175
1.6875 0.875 4.175
1.75 0.8125 4.1125
1.8125 0.875 4.1125
1.8125 0.8125 4.1125
1.875 0.875 4.1125
1.8125 0.8125 4.175
1.875 0.8125 4.175
1.8125 0.875 4.175
1.875 0.8125 4.1125
1.9375 0.875 4.1125
1.9375 0.8125 4.1125
2 0.875 4.1125
1.9375 0.8125 4.175
2 0.8125 4.175
1.9375 0.875 4.175
2 0.8125 4.1125
2.0625 0.875 4.1125
2.0625 0.8125 4.1125
2.125 0.875 4.1125
2.0625 0.8125 4.175
2.125 0.8125 4.175
2.0625 0.875 4.175
2.125 0.8125 4.1125
2.1875 0.875 4.1125
2.1875 0.8125 4.1125
2.25 0.875 4.1125
2.1875 0.8125 4.175
2.25 0.8125 4.175
2.1875 0.875 4.175
2.25 0.8125 4.1125
2.3125 0.875 4.1125
2.3125 0.8125 4.1125
2.375 0.875 4.1125
2.3125 0.8125 4.175
2.375 0.8125 4.175
2.3125 0.875 4.175
2.375 0.8125 4.1125
2.4375 0.875 4.1125
2.4375 0.8125 4.1125
2.5 0.875 4.1125
2.4375 0.8125 4.175
2.5 0.8125 4.175
2.4375 0.875 4.175
2.5 0.8125 4.1125
2.5625 0.875 4.1125
2.5625 0.8125 4.1125
2.625 0.875 4.1125
2.5625 0.8125 4.175
2.625 0.8125 4.175
2.5625 0.875 4.175
2.625 0.8125 4.1125
2.6875 0.875 4.1125
2.6875 0.8125 4.1125
2.75 0.875 4.1125
2.6875 0.8125 4.175
2.75 0.8125 4.175
2.6875 0.875 4.175
2.75 0.8125 4.1125
2.8125 0.875 4.1125
2.8125 0.8125 4.1125
2.875 0.875 4.1125
2.8125 0.8125 4.175
2.875 0.8125 4.175
2.8125 0.875 4.175
2.875 0.8125 4.1125
2.9375 0.875 4.1125
2.9375 0.8125 4.1125
3 0.875 4.1125
2.9375 0.8125 4.175
3 0.8125 4.175
2.9375 0.875 4.175
3 0.8125 4.1125
3.0625 0.875 4.1125
3.0625 0.8125 4.1125
3.125 0.875 4.1125
3.0625 0.8125 4.175
3.125 0.8125 4.175
3.0625 0.875 4.175
3.125 0.8125 4.1125
3.1875 0.875 4.1125
3.1875 0.8125 4.1125
3.25 0.875 4.1125
3.1875 0.8125 4.175
3.25 0.8125 4.175
3.1875 0.875 4.175
3.25 0.8125 4.1125
3.3125 0.875 4.1125
3.3125 0.8125 4.1125
3.375 0.875 4.1125
3.3125 0.8125 4.175
3.375 0.8125 4.175
3.3125 0.875 4.175
3.375 0.8125 4.1125
3.4375 0.875 4.1125
3.4375 0.8125 4.1125
3.5 0.875 4.1125
3.4375 0.8125 4.175
3.5 0.8125 4.175
3.4375 0.875 4.175
3.5 0.8125 4.1125
3.5625 0.875 4.1125
3.5625 0.8125 4.1125
3.625 0.875 4.1125
3.5625 0.8125 4.175
3.625 0.8125 4.175
3.5625 0.875 4.175
3.625 0.8125 4.1125
3.6875 0.875 4.1125
3.6875 0.8125 4.1125
3.75 0.875 4.1125
3.6875 0.8125 4.175
3.75 0.8125 4.175
3.6875 0.875 4.175
3.75 0.8125 4.1125
3.8125 0.875 4.1125
3.8125 0.8125 4.1125
3.875 0.875 4.1125
3.8125 0.8125 4.175
3.875 0.8125 4.175
3.8125 0.875 4.175
3.875 0.8125 4.1125
3.9375 0.875 4.1125
3.9375 0.8125 4.1125
4 0.875 4.1125
3.9375 0.8125 4.175
4 0.8125 4.175
3.9375 0.875 4.175
4 0.8125 4.1125
0.0625 1 4.1125
0.0625 0.9375 4.1125
0.125 1 4.1125
0.0625 0.9375 4.175
0.125 0.9375 4.175
0 1 4.1125
0 0.9375 4.1125
0.0625 1 4.175
0 0.9375 4.175
0.125 0.9375 4.1125
0.1875 1 4.1125
0.1875 0.9375 4.1125
0.25 1 4.1125
0.1875 0.9375 4.175
0.25 0.9375 4.175
0.1875 1 4.175
0.25 0.9375 4.1125
0.3125 1 4.1125
0.3125 0.9375 4.1125
0.375 1 4.1125
0.3125 0.9375 4.175
0.375 0.9375 4.175
0.3125 1 4.175
0.375 0.9375 4.1125
0.4375 1 4.1125
0.4375 0.9375 4.1125
0.5 1 4.1125
0.4375 0.9375 4.175
0.5 0.9375 4.175
0.4375 1 4.175
0.5 0.9375 4.1125
0.5625 1 4.1125
0.5625 0.9375 4.1125
0.625 1 4.1125
0.5625 0.9375 4.175
0.625 0.9375 4.175
0.5625 1 4.175
0.625 0.9375 4.1125
0.6875 1 4.1125
0.6875 0.9375 4.1125
0.75 1 4.1125
0.6875 0.9375 4.175
0.75 0.9375 4.175
0.6875 1 4.175
0.75 0.9375 4.1125
0.8125 1 4.1125
0.8125 0.9375 4.1125
0.875 1 4.1125
0.8125 0.9375 4.175
0.875 0.9375 4.175
0.8125 1 4.175
0.875 0.9375 4.1125
0.9375 1 4.1125
0.9375 0.9375 4.1125
1 1 4.1125
0.9375 0.9375 4.175
1 0.9375 4.175
0.9375 1 4.175
1 0.9375 4.1125
1.0625 1 4.1125
1.0625 0.9375 4.1125
1.125 1 4.1125
1.0625 0.9375 4.175
1.125 0.9375 4.175
1.0625 1 4.175
1.125 0.9375 4.1125
1.1875 1 4.1125
1.1875 0.9375 4.1125
1.25 1 4.1125
1.1875 0.9375 4.175
1.25 0.9375 4.175
1.1875 1 4.175
1.25 0.9375 4.1125
1.3125 1 4.1125
1.3125 0.9375 4.1125
1.375 1 4.1125
1.3125 0.9375 4.175
1.375 0.9375 4.175
1.3125 1 4.175
1.375 0.9375 4.1125
1.4375 1 4.1125
1.4375 0.9375 4.1125
1.5 1 4.1125
1.4375 0.9375 4.175
1.5 0.9375 4.175
1.4375 1 4.175
1.5 0.9375 4.1125
1.5625 1 4.1125
1.5625 0.9375 4.1125
1.625 1 4.1125
1.5625 0.9375 4.175
1.625 0.9375 4.175
1.5625 1 4.175
1.625 0.9375 4.1125
1.6875 1 4.1125
1.6875 0.9375 4.1125
1.75 1 4.1125
1.6875 0.9375 4.175
1.75 0.9375 4.175
1.6875 1 4.175
1.75 0.9375 4.1125
1.8125 1 4.1125
1.8125 0.9375 4.1125
1.875 1 4.1125
1.8125 0.9375 4.175
1.875 0.9375 4.175
1.8125 1 4.175
1.875 0.9375 4.1125
1.9375 1 4.1125
1.9375 0.9375 4.1125
2 1 4.1125
1.9375 0.9375 4.175
2 0.9375 4.175
1.9375 1 4.175
2 0.9375 4.1125
2.0625 1 4.1125
2.0625 0.9375 4.1125
2.125 1 4.1125
2.0625 0.9375 4.175
2.125 0.9375 4.175
2.0625 1 4.175
2.125 0.9375 4.1125
2.1875 1 4.1125
2.1875 0.9375 4.1125
2.25 1 4.1125
2.1875 0.9375 4.175
2.25 0.9375 4.175
2.1875 1 4.175
2.25 0.9375 4.1125
2.3125 1 4.1125
2.3125 0.9375 4.1125
2.375 1 4.1125
2.3125 0.9375 4.175
2.375 0.9375 4.175
2.3125 1 4.175
2.375 0.9375 4.1125
2.4375 1 4.1125
2.4375 0.9375 4.1125
2.5 1 4.1125
2.4375 0.9375 4.175
2.5 0.9375 4.175
2.4375 1 4.175
2.5 0.9375 4.1125
2.5625 1 4.1125
2.5625 0.9375 4.1125
2.625 1 4.1125
2.5625 0.9375 4.175
2.625 0.9375 4.175
2.5625 1 4.175
2.625 0.9375 4.1125
2.6875 1 4.1125
2.6875 0.9375 4.1125
2.75 1 4.1125
2.6875 0.9375 4.175
2.75 0.9375 4.175
2.6875 1 4.175
2.75 0.9375 4.1125
2.8125 1 4.1125
2.8125 0.9375 4.1125
2.875 1 4.1125
2.8125 0.9375 4.175
2.875 0.9375 4.175
2.8125 1 4.175
2.875 0.9375 4.1125
2.9375 1 4.1125
2.9375 0.9375 4.1125
3 1 4.1125
2.9375 0.9375 4.175
3 0.9375 4.175
2.9375 1 4.175
3 0.9375 4.1125
3.0625 1 4.1125
3.0625 0.9375 4.1125
3.125 1 4.1125
3.0625 0.9375 4.175
3.125 0.9375 4.175
3.0625 1 4.175
3.125 0.9375 4.1125
3.1875 1 4.1125
3.1875 0.9375 4.1125
3.25 1 4.1125
3.1875 0.9375 4.175
3.25 0.9375 4.175
3.1875 1 4.175
3.25 0.9375 4.1125
3.3125 1 4.1125
3.3125 0.9375 4.1125
3.375 1 4.1125
3.3125 0.9375 4.175
3.375 0.9375 4.175
3.3125 1 4.175
3.375 0.9375 4.1125
3.4375 1 4.1125
3.4375 0.9375 4.1125
3.5 1 4.1125
3.4375 0.9375 4.175
3.5 0.9375 4.175
3.4375 1 4.175
3.5 0.9375 4.1125
3.5625 1 4.1125
3.5625 0.9375 4.1125
3.625 1 4.1125
3.5625 0.9375 4.175
3.625 0.9375 4.175
3.5625 1 4.175
3.625 0.9375 4.1125
3.6875 1 4.1125
3.6875 0.9375 4.1125
3.75 1 4.1125
3.6875 0.9375 4.175
3.75 0.9375 4.175
3.6875 1 4.175
3.75 0.9375 4.1125
3.8125 1 4.1125
3.8125 0.9375 4.1125
3.875 1 4.1125
3.8125 0.9375 4.175
3.875 0.9375 4.175
3.8125 1 4.175
3.875 0.9375 4.1125
3.9375 1 4.1125
3.9375 0.9375 4.1125
4 1 4.1125
3.9375 0.9375 4.175
4 0.9375 4.175
3.9375 1 4.175
4 0.9375 4.1125
0.0625 0.125 4.2375
0.0625 0.0625 4.2375
0.125 0.125 4.2375
0.0625 0.0625 4.3
0.125 0.0625 4.3
0.0625 0 4.3
0 0 4.2375
0.0625 0 4.2375
0 0.125 4.2375
0 0.0625 4.2375
0.0625 0.125 4.3
0 0.0625 4.3
0.125 0 4.2375
0.125 0.0625 4.2375
0.1875 0.125 4.2375
0.1875 0.0625 4.2375
0.25 0.125 4.2375
0.1875 0.0625 4.3
0.25 0.0625 4.3
0.1875 0 4.3
0.1875 0 4.2375
0.1875 0.125 4.3
0.25 0 4.2375
0.25 0.0625 4.2375
0.3125 0.125 4.2375
0.3125 0.0625 4.2375
0.375 0.125 4.2375
0.3125 0.0625 4.3
0.375 0.0625 4.3
0.3125 0 4.3
0.3125 0 4.2375
0.3125 0.125 4.3
0.375 0 4.2375
0.375 0.0625 4.2375
0.4375 0.125 4.2375
0.4375 0.0625 4.2375
0.5 0.125 4.2375
0.4375 0.0625 4.3
0.5 0.0625 4.3
0.4375 0 4.3
0.4375 0 4.2375
0.4375 0.125 4.3
0.5 0 4.2375
0.5 0.0625 4.2375
0.5625 0.125 4.2375
0.5625 0.0625 4.2375
0.625 0.125 4.2375
0.5625 0.0625 4.3
0.625 0.0625 4.3
0.5625 0 4.3
0.5625 0 4.2375
0.5625 0.125 4.3
0.625 0 4.2375
0.625 0.0625 4.2375
0.6875 0.125 4.2375
0.6875 0.0625 4.2375
0.75 0.125 4.2375
0.6875 0.0625 4.3
0.75 0.0625 4.3
0.6875 0 4.3
0.6875 0 4.2375
0.6875 0.125 4.3
0.75 0 4.2375
0.75 0.0625 4.2375
0.8125 0.125 4.2375
0.8125 0.0625 4.2375
0.875 0.125 4.2375
0.8125 0.0625 4.3
0.875 0.0625 4.3
0.8125 0 4.3
0.8125 0 4.2375
0.8125 0.125 4.3
0.875 0 4.2375
0.875 0.0625 4.2375
0.9375 0.125 4.2375
0.9375 0.0625 4.2375
1 0.125 4.2375
0.9375 0.0625 4.3
1 0.0625 4.3
0.9375 0 4.3
0.9375 0 4.2375
0.9375 0.125 4.3
1 0 4.2375
1 0.0625 4.2375
1.0625 0.125 4.2375
1.0625 0.0625 4.2375
1.125 0.125 4.2375
1.0625 0.0625 4.3
1.125 0.0625 4.3
1.0625 0 4.3
1.0625 0 4.2375
1.0625 0.125 4.3
1.125 0 4.2375
1.125 0.0625 4.2375
1.1875 0.125 4.2375
1.1875 0.0625 4.2375
1.25 0.125 4.2375
1.1875 0.0625 4.3
1.25 0.0625 4.3
1.1875 0 4.3
1.1875 0 4.2375
1.1875 0.125 4.3
1.25 0 4.2375
1.25 0.0625 4.2375
1.3125 0.125 4.2375
1.3125 0.0625 4.2375
1.375 0.125 4.2375
1.3125 0.0625 4.3
1.375 0.0625 4.3
1.3125 0 4.3
1.3125 0 4.2375
1.3125 0.125 4.3
1.375 0 4.2375
1.375 0.0625 4.2375
1.4375 0.125 4.2375
1.4375 0.0625 4.2375
1.5 0.125 4.2375
1.4375 0.0625 4.3
1.5 0.0625 4.3
1.4375 0 4.3
1.4375 0 4.2375
1.4375 0.125 4.3
1.5 0 4.2375
1.5 0.0625 4.2375
1.5625 0.125 4.2375
1.5625 0.0625 4.2375
1.625 0.125 4.2375
1.5625 0.0625 4.3
1.625 0.0625 4.3
1.5625 0 4.3
1.5625 0 4.2375
1.5625 0.125 4.3
1.625 0 4.2375
1.625 0.0625 4.2375
1.6875 0.125 4.2375
1.6875 0.0625 4.2375
1.75 0.125 4.2375
1.6875 0.0625 4.3
1.75 0.0625 4.3
1.6875 0 4.3
1.6875 0 4.2375
1.6875 0.125 4.3
1.75 0 4.2375
1.75 0.0625 4.2375
1.8125 0.125 4.2375
1.8125 0.0625 4.2375
1.875 0.125 4.2375
1.8125 0.0625 4.3
1.875 0.0625 4.3
1.8125 0 4.3
1.8125 0 4.2375
1.8125 0.125 4.3
1.875 0 4.2375
1.875 0.0625 4.2375
1.9375 0.125 4.2375
1.9375 0.0625 4.2375
2 0.125 4.2375
1.9375 0.0625 4.3
2 0.0625 4.3
1.9375 0 4.3
1.9375 0 4.2375
1.9375 0.125 4.3
2 0 4.2375
2 0.0625 4.2375
2.0625 0.125 4.2375
2.0625 0.0625 4.2375
2.125 0.125 4.2375
2.0625 0.0625 4.3
2.125 0.0625 4.3
2.0625 0 4.3
2.0625 0 4.2375
2.0625 0.125 4.3
2.125 0 4.2375
2.125 0.0625 4.2375
2.1875 0.125 4.2375
2.1875 0.0625 4.2375
2.25 0.125 4.2375
2.1875 0.0625 4.3
2.25 0.0625 4.3
2.1875 0 4.3
2.1875 0 4.2375
2.1875 0.125 4.3
2.25 0 4.2375
2.25 0.0625 4.2375
2.3125 0.125 4.2375
2.3125 0.0625 4.2375
2.375 0.125 4.2375
2.3125 0.0625 4.3
2.375 0.0625 4.3
2.3125 0 4.3
2.3125 0 4.2375
2.3125 0.125 4.3
2.375 0 4.2375
2.375 0.0625 4.2375
2.4375 0.125 4.2375
2.4375 0.0625 4.2375
2.5 0.125 4.2375
2.4375 0.0625 4.3
2.5 0.0625 4.3
2.4375 0 4.3
2.4375 0 4.2375
2.4375 0.125 4.3
2.5 0 4.2375
2.5 0.0625 4.2375
2.5625 0.125 4.2375
2.5625 0.0625 4.2375
2.625 0.125 4.2375
2.5625 0.0625 4.3
2.625 0.0625 4.3
2.5625 0 4.3
2.5625 0 4.2375
2.5625 0.125 4.3
2.625 0 4.2375
2.625 0.0625 4.2375
2.6875 0.125 4.2375
2.6875 0.0625 4.2375
2.75 0.125 4.2375
2.6875 0.0625 4.3
2.75 0.0625 4.3
2.6875 0 4.3
2.6875 0 4.2375
2.6875 0.125 4.3
2.75 0 4.2375
2.75 0.0625 4.2375
2.8125 0.125 4.2375
2.8125 0.0625 4.2375
2.875 0.125 4.2375
2.8125 0.0625 4.3
2.875 0.0625 4.3
2.8125 0 4.3
2.8125 0 4.2375
2.8125 0.125 4.3
2.875 0 4.2375
2.875 0.0625 4.2375
2.9375 0.125 4.2375
2.9375 0.0625 4.2375
3 0.125 4.2375
2.9375 0.0625 4.3
3 0.0625 4.3
2.9375 0 4.3
2.9375 0 4.2375
2.9375 0.125 4.3
3 0 4.2375
3 0.0625 4.2375
3.0625 0.125 4.2375
3.0625 0.0625 4.2375
3.125 0.125 4.2375
3.0625 0.0625 4.3
3.125 0.0625 4.3
3.0625 0 4.3
3.0625 0 4.2375
3.0625 0.125 4.3
3.125 0 4.2375
3.125 0.0625 4.2375
3.1875 0.125 4.2375
3.1875 0.0625 4.2375
3.25 0.125 4.2375
3.1875 0.0625 4.3
3.25 0.0625 4.3
3.1875 0 4.3
3.1875 0 4.2375
3.1875 0.125 4.3
3.25 0 4.2375
3.25 0.0625 4.2375
3.3125 0.125 4.2375
3.3125 0.0625 4.2375
3.375 0.125 4.2375
3.3125 0.0625 4.3
3.375 0.0625 4.3
3.3125 0 4.3
3.3125 0 4.2375
3.3125 0.125 4.3
3.375 0 4.2375
3.375 0.0625 4.2375
3.4375 0.125 4.2375
3.4375 0.0625 4.2375
3.5 0.125 4.2375
3.4375 0.0625 4.3
3.5 0.0625 4.3
3.4375 0 4.3
3.4375 0 4.2375
3.4375 0.125 4.3
3.5 0 4.2375
3.5 0.0625 4.2375
3.5625 0.125 4.2375
3.5625 0.0625 4.2375
3.625 0.125 4.2375
3.5625 0.0625 4.3
3.625 0.0625 4.3
3.5625 0 4.3
3.5625 0 4.2375
3.5625 0.125 4.3
3.625 0 4.2375
3.625 0.0625 4.2375
3.6875 0.125 4.2375
3.6875 0.0625 4.2375
3.75 0.125 4.2375
3.6875 0.0625 4.3
3.75 0.0625 4.3
3.6875 0 4.3
3.6875 0 4.2375
3.6875 0.125 4.3
3.75 0 4.2375
3.75 0.0625 4.2375
3.8125 0.125 4.2375
3.8125 0.0625 4.2375
3.875 0.125 4.2375
3.8125 0.0625 4.3
3.875 0.0625 4.3
3.8125 0 4.3
3.8125 0 4.2375
3.8125 0.125 4.3
3.875 0 4.2375
3.875 0.0625 4.2375
3.9375 0.125 4.2375
3.9375 0.0625 4.2375
4 0.125 4.2375
3.9375 0.0625 4.3
4 0.0625 4.3
3.9375 0 4.3
3.9375 0 4.2375
3.9375 0.125 4.3
4 0 4.2375
4 0.0625 4.2375
0.0625 0.25 4.2375
0.0625 0.1875 4.2375
0.125 0.25 4.2375
0.0625 0.1875 4.3
0.125 0.1875 4.3
0 0.25 4.2375
0 0.1875 4.2375
0.0625 0.25 4.3
0 0.1875 4.3
0.125 0.1875 4.2375
0.1875 0.25 4.2375
0.1875 0.1875 4.2375
0.25 0.25 4.2375
0.1875 0.1875 4.3
0.25 0.1875 4.3
0.1875 0.25 4.3
0.25 0.1875 4.2375
0.3125 0.25 4.2375
0.3125 0.1875 4.2375
0.375 0.25 4.2375
0.3125 0.1875 4.3
0.375 0.1875 4.3
0.3125 0.25 4.3
0.375 0.1875 4.2375
0.4375 0.25 4.2375
0.4375 0.1875 4.2375
0.5 0.25 4.2375
0.4375 0.1875 4.3
0.5 0.1875 4.3
0.4375 0.25 4.3
0.5 0.1875 4.2375
0.5625 0.25 4.2375
0.5625 0.1875 4.2375
0.625 0.25 4.2375
0.5625 0.1875 4.3
0.625 0.1875 4.3
0.5625 0.25 4.3
0.625 0.1875 4.2375
0.6875 0.25 4.2375
0.6875 0.1875 4.2375
0.75 0.25 4.2375
0.6875 0.1875 4.3
0.75 0.1875 4.3
0.6875 0.25 4.3
0.75 0.1875 4.2375
0.8125 0.25 4.2375
0.8125 0.1875 4.2375
0.875 0.25 4.2375
0.8125 0.1875 4.3
0.875 0.1875 4.3
0.8125 0.25 4.3
0.875 0.1875 4.2375
0.9375 0.25 4.2375
0.9375 0.1875 4.2375
1 0.25 4.2375
0.9375 0.1875 4.3
1 0.1875 4.3
0.9375 0.25 4.3
1 0.1875 4.2375
1.0625 0.25 4.2375
1.0625 0.1875 4.2375
1.125 0.25 4.2375
1.0625 0.1875 4.3
1.125 0.1875 4.3
1.0625 0.25 4.3
1.125 0.1875 4.2375
1.1875 0.25 4.2375
1.1875 0.1875 4.2375
1.25 0.25 4.2375
1.1875 0.1875 4.3
1.25 0.1875 4.3
1.1875 0.25 4.3
1.25 0.1875 4.2375
1.3125 0.25 4.2375
1.3125 0.1875 4.2375
1.375 0.25 4.2375
1.3125 0.1875 4.3
1.375 0.1875 4.3
1.3125 0.25 4.3
1.375 0.1875 4.2375
1.4375 0.25 4.2375
1.4375 0.1875 4.2375
1.5 0.25 4.2375
1.4375 0.1875 4.3
1.5 0.1875 4.3
1.4375 0.25 4.3
1.5 0.1875 4.2375
1.5625 0.25 4.2375
1.5625 0.1875 4.2375
1.625 0.25 4.2375
1.5625 0.1875 4.3
1.625 0.1875 4.3
1.5625 0.25 4.3
1.625 0.1875 4.2375
1.6875 0.25 4.2375
1.6875 0.1875 4.2375
1.75 0.25 4.2375
1.6875 0.1875 4.3
1.75 0.1875 4.3
1.6875 0.25 4.3
1.75 0.1875 4.2375
1.8125 0.25 4.2375
1.8125 0.1875 4.2375
1.875 0.25 4.2375
1.8125 0.1875 4.3
1.875 0.1875 4.3
1.8125 0.25 4.3
1.875 0.1875 4.2375
1.9375 0.25 4.2375
1.9375 0.1875 4.2375
2 0.25 4.2375
1.9375 0.1875 4.3
2 0.1875 4.3
1.9375 0.25 4.3
2 0.1875 4.2375
2.0625 0.25 4.2375
2.0625 0.1875 4.2375
2.125 0.25 4.2375
2.0625 0.1875 4.3
2.125 0.1875 4.3
2.0625 0.25 4.3
2.125 0.1875 4.2375
2.1875 0.25 4.2375
2.1875 0.1875 4.2375
2.25 0.25 4.2375
2.1875 0.1875 4.3
2.25 0.1875 4.3
2.1875 0.25 4.3
2.25 0.1875 4.2375
2.3125 0.25 4.2375
2.3125 0.1875 4.2375
2.375 0.25 4.2375
2.3125 0.1875 4.3
2.375 0.1875 4.3
2.3125 0.25 4.3
2.375 0.1875 4.2375
2.4375 0.25 4.2375
2.4375 0.1875 4.2375
2.5 0.25 4.2375
2.4375 0.1875 4.3
2.5 0.1875 4.3
2.4375 0.25 4.3
2.5 0.1875 4.2375
2.5625 0.25 4.2375
2.5625 0.1875 4.2375
2.625 0.25 4.2375
2.5625 0.1875 4.3
2.625 0.1875 4.3
2.5625 0.25 4.3
2.625 0.1875 4.2375
2.6875 0.25 4.2375
2.6875 0.1875 4.2375
2.75 0.25 4.2375
2.6875 0.1875 4.3
2.75 0.1875 4.3
2.6875 0.25 4.3
2.75 0.1875 4.2375
2.8125 0.25 4.2375
2.8125 0.1875 4.2375
2.875 0.25 4.2375
2.8125 0.1875 4.3
2.875 0.1875 4.3
2.8125 0.25 4.3
2.875 0.1875 4.2375
2.9375 0.25 4.2375
2.9375 0.1875 4.2375
3 0.25 4.2375
2.9375 0.1875 4.3
3 0.1875 4.3
2.9375 0.25 4.3
3 0.1875 4.2375
3.0625 0.25 4.2375
3.0625 0.1875 4.2375
3.125 0.25 4.2375
3.0625 0.1875 4.3
3.125 0.1875 4.3
3.0625 0.25 4.3
3.125 0.1875 4.2375
3.1875 0.25 4.2375
3.1875 0.1875 4.2375
3.25 0.25 4.2375
3.1875 0.1875 4.3
3.25 0.1875 4.3
3.1875 0.25 4.3
3.25 0.1875 4.2375
3.3125 0.25 4.2375
3.3125 0.1875 4.2375
3.375 0.25 4.2375
3.3125 0.1875 4.3
3.375 0.1875 4.3
3.3125 0.25 4.3
3.375 0.1875 4.2375
3.4375 0.25 4.2375
3.4375 0.1875 4.2375
3.5 0.25 4.2375
3.4375 0.1875 4.3
3.5 0.1875 4.3
3.4375 0.25 4.3
3.5 0.1875 4.2375
3.5625 0.25 4.2375
3.5625 0.1875 4.2375
3.625 0.25 4.2375
3.5625 0.1875 4.3
3.625 0.1875 4.3
3.5625 0.25 4.3
3.625 0.1875 4.2375
3.6875 0.25 4.2375
3.6875 0.1875 4.2375
3.75 0.25 4.2375
3.6875 0.1875 4.3
3.75 0.1875 4.3
3.6875 0.25 4.3
3.75 0.1875 4.2375
3.8125 0.25 4.2375
3.8125 0.1875 4.2375
3.875 0.25 4.2375
3.8125 0.1875 4.3
3.875 0.1875 4.3
3.8125 0.25 4.3
3.875 0.1875 4.2375
3.9375 0.25 4.2375
3.9375 0.1875 4.2375
4 0.25 4.2375
3.9375 0.1875 4.3
4 0.1875 4.3
3.9375 0.25 4.3
4 0.1875 4.2375
0.0625 0.375 4.2375
0.0625 0.3125 4.2375
0.125 0.375 4.2375
0.0625 0.3125 4.3
0.125 0.3125 4.3
0 0.375 4.2375
0 0.3125 4.2375
0.0625 0.375 4.3
0 0.3125 4.3
0.125 0.3125 4.2375
0.1875 0.375 4.2375
0.1875 0.3125 4.2375
0.25 0.375 4.2375
0.1875 0.3125 4.3
0.25 0.3125 4.3
0.1875 0.375 4.3
0.25 0.3125 4.2375
0.3125 0.375 4.2375
0.3125 0.3125 4.2375
0.375 0.375 4.2375
0.3125 0.3125 4.3
0.375 0.3125 4.3
0.3125 0.375 4.3
0.375 0.3125 4.2375
0.4375 0.375 4.2375
0.4375 0.3125 4.2375
0.5 0.375 4.2375
0.4375 0.3125 4.3
0.5 0.3125 4.3
0.4375 0.375 4.3
0.5 0.3125 4.2375
0.5625 0.375 4.2375
0.5625 0.3125 4.2375
0.625 0.375 4.2375
0.5625 0.3125 4.3
0.625 0.3125 4.3
0.5625 0.375 4.3
0.625 0.3125 4.2375
0.6875 0.375 4.2375
0.6875 0.3125 4.2375
0.75 0.375 4.2375
0.6875 0.3125 4.3
0.75 0.3125 4.3
0.6875 0.375 4.3
0.75 0.3125 4.2375
0.8125 0.375 4.2375
0.8125 0.3125 4.2375
0.875 0.375 4.2375
0.8125 0.3125 4.3
0.875 0.3125 4.3
0.8125 0.375 4.3
0.875 0.3125 4.2375
0.9375 0.375 4.2375
0.9375 0.3125 4.2375
1 0.375 4.2375
0.9375 0.3125 4.3
1 0.3125 4.3
0.9375 0.375 4.3
1 0.3125 4.2375
1.0625 0.375 4.2375
1.0625 0.3125 4.2375
1.125 0.375 4.2375
1.0625 0.3125 4.3
1.125 0.3125 4.3
1.0625 0.375 4.3
1.125 0.3125 4.2375
1.1875 0.375 4.2375
1.1875 0.3125 4.2375
1.25 0.375 4.2375
1.1875 0.3125 4.3
1.25 0.3125 4.3
1.1875 0.375 4.3
1.25 0.3125 4.2375
1.3125 0.375 4.2375
1.3125 0.3125 4.2375
1.375 0.375 4.2375
1.3125 0.3125 4.3
1.375 0.3125 4.3
1.3125 0.375 4.3
1.375 0.3125 4.2375
1.4375 0.375 4.2375
1.4375 0.3125 4.2375
1.5 0.375 4.2375
1.4375 0.3125 4.3
1.5 0.3125 4.3
1.4375 0.375 4.3
1.5 0.3125 4.2375
1.5625 0.375 4.2375
1.5625 0.3125 4.2375
1.625 0.375 4.2375
1.5625 0.3125 4.3
1.625 0.3125 4.3
1.5625 0.375 4.3
1.625 0.3125 4.2375
1.6875 0.375 4.2375
1.6875 0.3125 4.2375
1.75 0.375 4.2375
1.6875 0.3125 4.3
1.75 0.3125 4.3
1.6875 0.375 4.3
1.75 0.3125 4.2375
1.8125 0.375 4.2375
1.8125 0.3125 4.2375
1.875 0.375 4.2375
1.8125 0.3125 4.3
1.875 0.3125 4.3
1.8125 0.375 4.3
1.875 0.3125 4.2375
1.9375 0.375 4.2375
1.9375 0.3125 4.2375
2 0.375 4.2375
1.9375 0.3125 4.3
2 0.3125 4.3
1.9375 0.375 4.3
2 0.3125 4.2375
2.0625 0.375 4.2375
2.0625 0.3125 4.2375
2.125 0.375 4.2375
2.0625 0.3125 4.3
2.125 0.3125 4.3
2.0625 0.375 4.3
2.125 0.3125 4.2375
2.1875 0.375 4.2375
2.1875 0.3125 4.2375
2.25 0.375 4.2375
2.1875 0.3125 4.3
2.25 0.3125 4.3
2.1875 0.375 4.3
2.25 0.3125 4.2375
2.3125 0.375 4.2375
2.3125 0.3125 4.2375
2.375 0.375 4.2375
2.3125 0.3125 4.3
2.375 0.3125 4.3
2.3125 0.375 4.3
2.375 0.3125 4.2375
2.4375 0.375 4.2375
2.4375 0.3125 4.2375
2.5 0.375 4.2375
2.4375 0.3125 4.3
2.5 0.3125 4.3
2.4375 0.375 4.3
2.5 0.3125 4.2375
2.5625 0.375 4.2375
2.5625 0.3125 4.2375
2.625 0.375 4.2375
2.5625 0.3125 4.3
2.625 0.3125 4.3
2.5625 0.375 4.3
2.625 0.3125 4.2375
2.6875 0.375 4.2375
2.6875 0.3125 4.2375
2.75 0.375 4.2375
2.6875 0.3125 4.3
2.75 0.3125 4.3
2.6875 0.375 4.3
2.75 0.3125 4.2375
2.8125 0.375 4.2375
2.8125 0.3125 4.2375
2.875 0.375 4.2375
2.8125 0.3125 4.3
2.875 0.3125 4.3
2.8125 0.375 4.3
2.875 0.3125 4.2375
2.9375 0.375 4.2375
2.9375 0.3125 4.2375
3 0.375 4.2375
2.9375 0.3125 4.3
3 0.3125 4.3
2.9375 0.375 4.3
3 0.3125 4.2375
3.0625 0.375 4.2375
3.0625 0.3125 4.2375
3.125 0.375 4.2375
3.0625 0.3125 4.3
3.125 0.3125 4.3
3.0625 0.375 4.3
3.125 0.3125 4.2375
3.1875 0.375 4.2375
3.1875 0.3125 4.2375
3.25 0.375 4.2375
3.1875 0.3125 4.3
3.25 0.3125 4.3
3.1875 0.375 4.3
3.25 0.3125 4.2375
3.3125 0.375 4.2375
3.3125 0.3125 4.2375
3.375 0.375 4.2375
3.3125 0.3125 4.3
3.375 0.3125 4.3
3.3125 0.375 4.3
3.375 0.3125 4.2375
3.4375 0.375 4.2375
3.4375 0.3125 4.2375
3.5 0.375 4.2375
3.4375 0.3125 4.3
3.5 0.3125 4.3
3.4375 0.375 4.3
3.5 0.3125 4.2375
3.5625 0.375 4.2375
3.5625 0.3125 4.2375
3.625 0.375 4.2375
3.5625 0.3125 4.3
3.625 0.3125 4.3
3.5625 0.375 4.3
3.625 0.3125 4.2375
3.6875 0.375 4.2375
3.6875 0.3125 4.2375
3.75 0.375 4.2375
3.6875 0.3125 4.3
3.75 0.3125 4.3
3.6875 0.375 4.3
3.75 0.3125 4.2375
3.8125 0.375 4.2375
3.8125 0.3125 4.2375
3.875 0.375 4.2375
3.8125 0.3125 4.3
3.875 0.3125 4.3
3.8125 0.375 4.3
3.875 0.3125 4.2375
3.9375 0.375 4.2375
3.9375 0.3125 4.2375
4 0.375 4.2375
3.9375 0.3125 4.3
4 0.3125 4.3
3.9375 0.375 4.3
4 0.3125 4.2375
0.0625 0.5 4.2375
0.0625 0.4375 4.2375
0.125 0.5 4.2375
0.0625 0.4375 4.3
0.125 0.4375 4.3
0 0.5 4.2375
0 0.4375 4.2375
0.0625 0.5 4.3
0 0.4375 4.3
0.125 0.4375 4.2375
0.1875 0.5 4.2375
0.1875 0.4375 4.2375
0.25 0.5 4.2375
0.1875 0.4375 4.3
0.25 0.4375 4.3
0.1875 0.5 4.3
0.25 0.4375 4.2375
0.3125 0.5 4.2375
0.3125 0.4375 4.2375
0.375 0.5 4.2375
0.3125 0.4375 4.3
0.375 0.4375 4.3
0.3125 0.5 4.3
0.375 0.4375 4.2375
0.4375 0.5 4.2375
0.4375 0.4375 4.2375
0.5 0.5 4.2375
0.4375 0.4375 4.3
0.5 0.4375 4.3
0.4375 0.5 4.3
0.5 0.4375 4.2375
0.5625 0.5 4.2375
0.5625 0.4375 4.2375
0.625 0.5 4.2375
0.5625 0.4375 4.3
0.625 0.4375 4.3
0.5625 0.5 4.3
0.625 0.4375 4.2375
0.6875 0.5 4.2375
0.6875 0.4375 4.2375
0.75 0.5 4.2375
0.6875 0.4375 4.3
0.75 0.4375 4.3
0.6875 0.5 4.3
0.75 0.4375 4.2375
0.8125 0.5 4.2375
0.8125 0.4375 4.2375
0.875 0.5 4.2375
0.8125 0.4375 4.3
0.875 0.4375 4.3
0.8125 0.5 4.3
0.875 0.4375 4.2375
0.9375 0.5 4.2375
0.9375 0.4375 4.2375
1 0.5 4.2375
0.9375 0.4375 4.3
1 0.4375 4.3
0.9375 0.5 4.3
1 0.4375 4.2375
1.0625 0.5 4.2375
1.0625 0.4375 4.2375
1.125 0.5 4.2375
1.0625 0.4375 4.3
1.125 0.4375 4.3
1.0625 0.5 4.3
1.125 0.4375 4.2375
1.1875 0.5 4.2375
1.1875 0.4375 4.2375
1.25 0.5 4.2375
1.1875 0.4375 4.3
1.25 0.4375 4.3
1.1875 0.5 4.3
1.25 0.4375 4.2375
1.3125 0.5 4.2375
1.3125 0.4375 4.2375
1.375 0.5 4.2375
1.3125 0.4375 4.3
1.375 0.4375 4.3
1.3125 0.5 4.3
1.375 0.4375 4.2375
1.4375 0.5 4.2375
1.4375 0.4375 4.2375
1.5 0.5 4.2375
1.4375 0.4375 4.3
1.5 0.4375 4.3
1.4375 0.5 4.3
1.5 0.4375 4.2375
1.5625 0.5 4.2375
1.5625 0.4375 4.2375
1.625 0.5 4.2375
1.5625 0.4375 4.3
1.625 0.4375 4.3
1.5625 0.5 4.3
1.625 0.4375 4.2375
1.6875 0.5 4.2375
1.6875 0.4375 4.2375
1.75 0.5 4.2375
1.6875 0.4375 4.3
1.75 0.4375 4.3
1.6875 0.5 4.3
1.75 0.4375 4.2375
1.8125 0.5 4.2375
1.8125 0.4375 4.2375
1.875 0.5 4.2375
1.8125 0.4375 4.3
1.875 0.4375 4.3
1.8125 0.5 4.3
1.875 0.4375 4.2375
1.9375 0.5 4.2375
1.9375 0.4375 4.2375
2 0.5 4.2375
1.9375 0.4375 4.3
2 0.4375 4.3
1.9375 0.5 4.3
2 0.4375 4.2375
2.0625 0.5 4.2375
2.0625 0.4375 4.2375
2.125 0.5 4.2375
2.0625 0.4375 4.3
2.125 0.4375 4.3
2.0625 0.5 4.3
2.125 0.4375 4.2375
2.1875 0.5 4.2375
2.1875 0.4375 4.2375
2.25 0.5 4.2375
2.1875 0.4375 4.3
2.25 0.4375 4.3
2.1875 0.5 4.3
2.25 0.4375 4.2375
2.3125 0.5 4.2375
2.3125 0.4375 4.2375
2.375 0.5 4.2375
2.3125 0.4375 4.3
2.375 0.4375 4.3
2.3125 0.5 4.3
2.375 0.4375 4.2375
2.4375 0.5 4.2375
2.4375 0.4375 4.2375
2.5 0.5 4.2375
2.4375 0.4375 4.3
2.5 0.4375 4.3
2.4375 0.5 4.3
2.5 0.4375 4.2375
2.5625 0.5 4.2375
2.5625 0.4375 4.2375
2.625 0.5 4.2375
2.5625 0.4375 4.3
2.625 0.4375 4.3
2.5625 0.5 4.3
2.625 0.4375 4.2375
2.6875 0.5 4.2375
2.6875 0.4375 4.2375
2.75 0.5 4.2375
2.6875 0.4375 4.3
2.75 0.4375 4.3
2.6875 0.5 4.3
2.75 0.4375 4.2375
2.8125 0.5 4.2375
2.8125 0.4375 4.2375
2.875 0.5 4.2375
2.8125 0.4375 4.3
2.875 0.4375 4.3
2.8125 0.5 4.3
2.875 0.4375 4.2375
2.9375 0.5 4.2375
2.9375 0.4375 4.2375
3 0.5 4.2375
2.9375 0.4375 4.3
3 0.4375 4.3
2.9375 0.5 4.3
3 0.4375 4.2375
3.0625 0.5 4.2375
3.0625 0.4375 4.2375
3.125 0.5 4.2375
3.0625 0.4375 4.3
3.125 0.4375 4.3
3.0625 0.5 4.3
3.125 0.4375 4.2375
3.1875 0.5 4.2375
3.1875 0.4375 4.2375
3.25 0.5 4.2375
3.1875 0.4375 4.3
3.25 0.4375 4.3
3.1875 0.5 4.3
3.25 0.4375 4.2375
3.3125 0.5 4.2375
3.3125 0.4375 4.2375
3.375 0.5 4.2375
3.3125 0.4375 4.3
3.375 0.4375 4.3
3.3125 0.5 4.3
3.375 0.4375 4.2375
3.4375 0.5 4.2375
3.4375 0.4375 4.2375
3.5 0.5 4.2375
3.4375 0.4375 4.3
3.5 0.4375 4.3
3.4375 0.5 4.3
3.5 0.4375 4.2375
3.5625 0.5 4.2375
3.5625 0.4375 4.2375
3.625 0.5 4.2375
3.5625 0.4375 4.3
3.625 0.4375 4.3
3.5625 0.5 4.3
3.625 0.4375 4.2375
3.6875 0.5 4.2375
3.6875 0.4375 4.2375
3.75 0.5 4.2375
3.6875 0.4375 4.3
3.75 0.4375 4.3
3.6875 0.5 4.3
3.75 0.4375 4.2375
3.8125 0.5 4.2375
3.8125 0.4375 4.2375
3.875 0.5 4.2375
3.8125 0.4375 4.3
3.875 0.4375 4.3
3.8125 0.5 4.3
3.875 0.4375 4.2375
3.9375 0.5 4.2375
3.9375 0.4375 4.2375
4 0.5 4.2375
3.9375 0.4375 4.3
4 0.4375 4.3
3.9375 0.5 4.3
4 0.4375 4.2375
0.0625 0.625 4.2375
0.0625 0.5625 4.2375
0.125 0.625 4.2375
0.0625 0.5625 4.3
0.125 0.5625 4.3
0 0.625 4.2375
0 0.5625 4.2375
0.0625 0.625 4.3
0 0.5625 4.3
0.125 0.5625 4.2375
0.1875 0.625 4.2375
0.1875 0.5625 4.2375
0.25 0.625 4.2375
0.1875 0.5625 4.3
0.25 0.5625 4.3
0.1875 0.625 4.3
0.25 0.5625 4.2375
0.3125 0.625 4.2375
0.3125 0.5625 4.2375
0.375 0.625 4.2375
0.3125 0.5625 4.3
0.375 0.5625 4.3
0.3125 0.625 4.3
0.375 0.5625 4.2375
0.4375 0.625 4.2375
0.4375 0.5625 4.2375
0.5 0.625 4.2375
0.4375 0.5625 4.3
0.5 0.5625 4.3
0.4375 0.625 4.3
0.5 0.5625 4.2375
0.5625 0.625 4.2375
0.5625 0.5625 4.2375
0.625 0.625 4.2375
0.5625 0.5625 4.3
0.625 0.5625 4.3
0.5625 0.625 4.3
0.625 0.5625 4.2375
0.6875 0.625 4.2375
0.6875 0.5625 4.2375
0.75 0.625 4.2375
0.6875 0.5625 4.3
0.75 0.5625 4.3
0.6875 0.625 4.3
0.75 0.5625 4.2375
0.8125 0.625 4.2375
0.8125 0.5625 4.2375
0.875 0.625 4.2375
0.8125 0.5625 4.3
0.875 0.5625 4.3
0.8125 0.625 4.3
0.875 0.5625 4.2375
0.9375 0.625 4.2375
0.9375 0.5625 4.2375
1 0.625 4.2375
0.9375 0.5625 4.3
1 0.5625 4.3
0.9375 0.625 4.3
1 0.5625 4.2375
1.0625 0.625 4.2375
1.0625 0.5625 4.2375
1.125 0.625 4.2375
1.0625 0.5625 4.3
1.125 0.5625 4.3
1.0625 0.625 4.3
1.125 0.5625 4.2375
1.1875 0.625 4.2375
1.1875 0.5625 4.2375
1.25 0.625 4.2375
1.1875 0.5625 4.3
1.25 0.5625 4.3
1.1875 0.625 4.3
1.25 0.5625 4.2375
1.3125 0.625 4.2375
1.3125 0.5625 4.2375
1.375 0.625 4.2375
1.3125 0.5625 4.3
1.375 0.5625 4.3
1.3125 0.625 4.3
1.375 0.5625 4.2375
1.4375 0.625 4.2375
1.4375 0.5625 4.2375
1.5 0.625 4.2375
1.4375 0.5625 4.3
1.5 0.5625 4.3
1.4375 0.625 4.3
1.5 0.5625 4.2375
1.5625 0.625 4.2375
1.5625 0.5625 4.2375
1.625 0.625 4.2375
1.5625 0.5625 4.3
1.625 0.5625 4.3
1.5625 0.625 4.3
1.625 0.5625 4.2375
1.6875 0.625 4.2375
1.6875 0.5625 4.2375
1.75 0.625 4.2375
1.6875 0.5625 4.3
1.75 0.5625 4.3
1.6875 0.625 4.3
1.75 0.5625 4.2375
1.8125 0.625 4.2375
1.8125 0.5625 4.2375
1.875 0.625 4.2375
1.8125 0.5625 4.3
1.875 0.5625 4.3
1.8125 0.625 4.3
1.875 0.5625 4.2375
1.9375 0.625 4.2375
1.9375 0.5625 4.2375
2 0.625 4.2375
1.9375 0.5625 4.3
2 0.5625 4.3
1.9375 0.625 4.3
2 0.5625 4.2375
2.0625 0.625 4.2375
2.0625 0.5625 4.2375
2.125 0.625 4.2375
2.0625 0.5625 4.3
2.125 0.5625 4.3
2.0625 0.625 4.3
2.125 0.5625 4.2375
2.1875 0.625 4.2375
2.1875 0.5625 4.2375
2.25 0.625 4.2375
2.1875 0.5625 4.3
2.25 0.5625 4.3
2.1875 0.625 4.3
2.25 0.5625 4.2375
2.3125 0.625 4.2375
2.3125 0.5625 4.2375
2.375 0.625 4.2375
2.3125 0.5625 4.3
2.375 0.5625 4.3
2.3125 0.625 4.3
2.375 0.5625 4.2375
2.4375 0.625 4.2375
2.4375 0.5625 4.2375
2.5 0.625 4.2375
2.4375 0.5625 4.3
2.5 0.5625 4.3
2.4375 0.625 4.3
2.5 0.5625 4.2375
2.5625 0.625 4.2375
2.5625 0.5625 4.2375
2.625 0.625 4.2375
2.5625 0.5625 4.3
2.625 0.5625 4.3
2.5625 0.625 4.3
2.625 0.5625 4.2375
2.6875 0.625 4.2375
2.6875 0.5625 4.2375
2.75 0.625 4.2375
2.6875 0.5625 4.3
2.75 0.5625 4.3
2.6875 0.625 4.3
2.75 0.5625 4.2375
2.8125 0.625 4.2375
2.8125 0.5625 4.2375
2.875 0.625 4.2375
2.8125 0.5625 4.3
2.875 0.5625 4.3
2.8125 0.625 4.3
2.875 0.5625 4.2375
2.9375 0.625 4.2375
2.9375 0.5625 4.2375
3 0.625 4.2375
2.9375 0.5625 4.3
3 0.5625 4.3
2.9375 0.625 4.3
3 0.5625 4.2375
3.0625 0.625 4.2375
3.0625 0.5625 4.2375
3.125 0.625 4.2375
3.0625 0.5625 4.3
3.125 0.5625 4.3
3.0625 0.625 4.3
3.125 0.5625 4.2375
3.1875 0.625 4.2375
3.1875 0.5625 4.2375
3.25 0.625 4.2375
3.1875 0.5625 4.3
3.25 0.5625 4.3
3.1875 0.625 4.3
3.25 0.5625 4.2375
3.3125 0.625 4.2375
3.3125 0.5625 4.2375
3.375 0.625 4.2375
3.3125 0.5625 4.3
3.375 0.5625 4.3
3.3125 0.625 4.3
3.375 0.5625 4.2375
3.4375 0.625 4.2375
3.4375 0.5625 4.2375
3.5 0.625 4.2375
3.4375 0.5625 4.3
3.5 0.5625 4.3
3.4375 0.625 4.3
3.5 0.5625 4.2375
3.5625 0.625 4.2375
3.5625 0.5625 4.2375
3.625 0.625 4.2375
3.5625 0.5625 4.3
3.625 0.5625 4.3
3.5625 0.625 4.3
3.625 0.5625 4.2375
3.6875 0.625 4.2375
3.6875 0.5625 4.2375
3.75 0.625 4.2375
3.6875 0.5625 4.3
3.75 0.5625 4.3
3.6875 0.625 4.3
3.75 0.5625 4.2375
3.8125 0.625 4.2375
3.8125 0.5625 4.2375
3.875 0.625 4.2375
3.8125 0.5625 4.3
3.875 0.5625 4.3
3.8125 0.625 4.3
3.875 0.5625 4.2375
3.9375 0.625 4.2375
3.9375 0.5625 4.2375
4 0.625 4.2375
3.9375 0.5625 4.3
4 0.5625 4.3
3.9375 0.625 4.3
4 0.5625 4.2375
0.0625 0.75 4.2375
0.0625 0.6875 4.2375
0.125 0.75 4.2375
0.0625 0.6875 4.3
0.125 0.6875 4.3
0 0.75 4.2375
0 0.6875 4.2375
0.0625 0.75 4.3
0 0.6875 4.3
0.125 0.6875 4.2375
0.1875 0.75 4.2375
0.1875 0.6875 4.2375
0.25 0.75 4.2375
0.1875 0.6875 4.3
0.25 0.6875 4.3
0.1875 0.75 4.3
0.25 0.6875 4.2375
0.3125 0.75 4.2375
0.3125 0.6875 4.2375
0.375 0.75 4.2375
0.3125 0.6875 4.3
0.375 0.6875 4.3
0.3125 0.75 4.3
0.375 0.6875 4.2375
0.4375 0.75 4.2375
0.4375 0.6875 4.2375
0.5 0.75 4.2375
0.4375 0.6875 4.3
0.5 0.6875 4.3
0.4375 0.75 4.3
0.5 0.6875 4.2375
0.5625 0.75 4.2375
0.5625 0.6875 4.2375
0.625 0.75 4.2375
0.5625 0.6875 4.3
0.625 0.6875 4.3
0.5625 0.75 4.3
0.625 0.6875 4.2375
0.6875 0.75 4.2375
0.6875 0.6875 4.2375
0.75 0.75 4.2375
0.6875 0.6875 4.3
0.75 0.6875 4.3
0.6875 0.75 4.3
0.75 0.6875 4.2375
0.8125 0.75 4.2375
0.8125 0.6875 4.2375
0.875 0.75 4.2375
0.8125 0.6875 4.3
0.875 0.6875 4.3
0.8125 0.75 4.3
0.875 0.6875 4.2375
0.9375 0.75 4.2375
0.9375 0.6875 4.2375
1 0.75 4.2375
0.9375 0.6875 4.3
1 0.6875 4.3
0.9375 0.75 4.3
1 0.6875 4.2375
1.0625 0.75 4.2375
1.0625 0.6875 4.2375
1.125 0.75 4.2375
1.0625 0.6875 4.3
1.125 0.6875 4.3
1.0625 0.75 4.3
1.125 0.6875 4.2375
1.1875 0.75 4.2375
1.1875 0.6875 4.2375
1.25 0.75 4.2375
1.1875 0.6875 4.3
1.25 0.6875 4.3
1.1875 0.75 4.3
1.25 0.6875 4.2375
1.3125 0.75 4.2375
1.3125 0.6875 4.2375
1.375 0.75 4.2375
1.3125 0.6875 4.3
1.375 0.6875 4.3
1.3125 0.75 4.3
1.375 0.6875 4.2375
1.4375 0.75 4.2375
1.4375 0.6875 4.2375
1.5 0.75 4.2375
1.4375 0.6875 4.3
1.5 0.6875 4.3
1.4375 0.75 4.3
1.5 0.6875 4.2375
1.5625 0.75 4.2375
1.5625 0.6875 4.2375
1.625 0.75 4.2375
1.5625 0.6875 4.3
1.625 0.6875 4.3
1.5625 0.75 4.3
1.625 0.6875 4.2375
1.6875 0.75 4.2375
1.6875 0.6875 4.2375
1.75 0.75 4.2375
1.6875 0.6875 4.3
1.75 0.6875 4.3
1.6875 0.75 4.3
1.75 0.6875 4.2375
1.8125 0.75 4.2375
1.8125 0.6875 4.2375
1.875 0.75 4.2375
1.8125 0.6875 4.3
1.875 0.6875 4.3
1.8125 0.75 4.3
1.875 0.6875 4.2375
1.9375 0.75 4.2375
1.9375 0.6875 4.2375
2 0.75 4.2375
1.9375 0.6875 4.3
2 0.6875 4.3
1.9375 0.75 4.3
2 0.6875 4.2375
2.0625 0.75 4.2375
2.0625 0.6875 4.2375
2.125 0.75 4.2375
2.0625 0.6875 4.3
2.125 0.6875 4.3
2.0625 0.75 4.3
2.125 0.6875 4.2375
2.1875 0.75 4.2375
2.1875 0.6875 4.2375
2.25 0.75 4.2375
2.1875 0.6875 4.3
2.25 0.6875 4.3
2.1875 0.75 4.3
2.25 0.6875 4.2375
2.3125 0.75 4.2375
2.3125 0.6875 4.2375
2.375 0.75 4.2375
2.3125 0.6875 4.3
2.375 0.6875 4.3
2.3125 0.75 4.3
2.375 0.6875 4.2375
2.4375 0.75 4.2375
2.4375 0.6875 4.2375
2.5 0.75 4.2375
2.4375 0.6875 4.3
2.5 0.6875 4.3
2.4375 0.75 4.3
2.5 0.6875 4.2375
2.5625 0.75 4.2375
2.5625 0.6875 4.2375
2.625 0.75 4.2375
2.5625 0.6875 4.3
2.625 0.6875 4.3
2.5625 0.75 4.3
2.625 0.6875 4.2375
2.6875 0.75 4.2375
2.6875 0.6875 4.2375
2.75 0.75 4.2375
2.6875 0.6875 4.3
2.75 0.6875 4.3
2.6875 0.75 4.3
2.75 0.6875 4.2375
2.8125 0.75 4.2375
2.8125 0.6875 4.2375
2.875 0.75 4.2375
2.8125 0.6875 4.3
2.875 0.6875 4.3
2.8125 0.75 4.3
2.875 0.6875 4.2375
2.9375 0.75 4.2375
2.9375 0.6875 4.2375
3 0.75 4.2375
2.9375 0.6875 4.3
3 0.6875 4.3
2.9375 0.75 4.3
3 0.6875 4.2375
3.0625 0.75 4.2375
3.0625 0.6875 4.2375
3.125 0.75 4.2375
3.0625 0.6875 4.3
3.125 0.6875 4.3
3.0625 0.75 4.3
3.125 0.6875 4.2375
3.1875 0.75 4.2375
3.1875 0.6875 4.2375
3.25 0.75 4.2375
3.1875 0.6875 4.3
3.25 0.6875 4.3
3.1875 0.75 4.3
3.25 0.6875 4.2375
3.3125 0.75 4.2375
3.3125 0.6875 4.2375
3.375 0.75 4.2375
3.3125 0.6875 4.3
3.375 0.6875 4.3
3.3125 0.75 4.3
3.375 0.6875 4.2375
3.4375 0.75 4.2375
3.4375 0.6875 4.2375
3.5 0.75 4.2375
3.4375 0.6875 4.3
3.5 0.6875 4.3
3.4375 0.75 4.3
3.5 0.6875 4.2375
3.5625 0.75 4.2375
3.5625 0.6875 4.2375
3.625 0.75 4.2375
3.5625 0.6875 4.3
3.625 0.6875 4.3
3.5625 0.75 4.3
3.625 0.6875 4.2375
3.6875 0.75 4.2375
3.6875 0.6875 4.2375
3.75 0.75 4.2375
3.6875 0.6875 4.3
3.75 0.6875 4.3
3.6875 0.75 4.3
3.75 0.6875 4.2375
3.8125 0.75 4.2375
3.8125 0.6875 4.2375
3.875 0.75 4.2375
3.8125 0.6875 4.3
3.875 0.6875 4.3
3.8125 0.75 4.3
3.875 0.6875 4.2375
3.9375 0.75 4.2375
3.9375 0.6875 4.2375
4 0.75 4.2375
3.9375 0.6875 4.3
4 0.6875 4.3
3.9375 0.75 4.3
4 0.6875 4.2375
0.0625 0.875 4.2375
0.0625 0.8125 4.2375
0.125 0.875 4.2375
0.0625 0.8125 4.3
0.125 0.8125 4.3
0 0.875 4.2375
0 0.8125 4.2375
0.0625 0.875 4.3
0 0.8125 4.3
0.125 0.8125 4.2375
0.1875 0.875 4.2375
0.1875 0.8125 4.2375
0.25 0.875 4.2375
0.1875 0.8125 4.3
0.25 0.8125 4.3
0.1875 0.875 4.3
0.25 0.8125 4.2375
0.3125 0.875 4.2375
0.3125 0.8125 4.2375
0.375 0.875 4.2375
0.3125 0.8125 4.3
0.375 0.8125 4.3
0.3125 0.875 4.3
0.375 0.8125 4.2375
0.4375 0.875 4.2375
0.4375 0.8125 4.2375
0.5 0.875 4.2375
0.4375 0.8125 4.3
0.5 0.8125 4.3
0.4375 0.875 4.3
0.5 0.8125 4.2375
0.5625 0.875 4.2375
0.5625 0.8125 4.2375
0.625 0.875 4.2375
0.5625 0.8125 4.3
0.625 0.8125 4.3
0.5625 0.875 4.3
0.625 0.8125 4.2375
0.6875 0.875 4.2375
0.6875 0.8125 4.2375
0.75 0.875 4.2375
0.6875 0.8125 4.3
0.75 0.8125 4.3
0.6875 0.875 4.3
0.75 0.8125 4.2375
0.8125 0.875 4.2375
0.8125 0.8125 4.2375
0.875 0.875 4.2375
0.8125 0.8125 4.3
0.875 0.8125 4.3
0.8125 0.875 4.3
0.875 0.8125 4.2375
0.9375 0.875 4.2375
0.9375 0.8125 4.2375
1 0.875 4.2375
0.9375 0.8125 4.3
1 0.8125 4.3
0.9375 0.875 4.3
1 0.8125 4.2375
1.0625 0.875 4.2375
1.0625 0.8125 4.2375
1.125 0.875 4.2375
1.0625 0.8125 4.3
1.125 0.8125 4.3
1.0625 0.875 4.3
1.125 0.8125 4.2375
1.1875 0.875 4.2375
1.1875 0.8125 4.2375
1.25 0.875 4.2375
1.1875 0.8125 4.3
1.25 0.8125 4.3
1.1875 0.875 4.3
1.25 0.8125 4.2375
1.3125 0.875 4.2375
1.3125 0.8125 4.2375
1.375 0.875 4.2375
1.3125 0.8125 4.3
1.375 0.8125 4.3
1.3125 0.875 4.3
1.375 0.8125 4.2375
1.4375 0.875 4.2375
1.4375 0.8125 4.2375
1.5 0.875 4.2375
1.4375 0.8125 4.3
1.5 0.8125 4.3
1.4375 0.875 4.3
1.5 0.8125 4.2375
1.5625 0.875 4.2375
1.5625 0.8125 4.2375
1.625 0.875 4.2375
1.5625 0.8125 4.3
1.625 0.8125 4.3
1.5625 0.875 4.3
1.625 0.8125 4.2375
1.6875 0.875 4.2375
1.6875 0.8125 4.2375
1.75 0.875 4.2375
1.6875 0.8125 4.3
1.75 0.8125 4.3
1.6875 0.875 4.3
1.75 0.8125 4.2375
1.8125 0.875 4.2375
1.8125 0.8125 4.2375
1.875 0.875 4.2375
1.8125 0.8125 4.3
1.875 0.8125 4.3
1.8125 0.875 4.3
1.875 0.8125 4.2375
1.9375 0.875 4.2375
1.9375 0.8125 4.2375
2 0.875 4.2375
1.9375 0.8125 4.3
2 0.8125 4.3
1.9375 0.875 4.3
2 0.8125 4.2375
2.0625 0.875 4.2375
2.0625 0.8125 4.2375
2.125 0.875 4.2375
2.0625 0.8125 4.3
2.125 0.8125 4.3
2.0625 0.875 4.3
2.125 0.8125 4.2375
2.1875 0.875 4.2375
2.1875 0.8125 4.2375
2.25 0.875 4.2375
2.1875 0.8125 4.3
2.25 0.8125 4.3
2.1875 0.875 4.3
2.25 0.8125 4.2375
2.3125 0.875 4.2375
2.3125 0.8125 4.2375
2.375 0.875 4.2375
2.3125 0.8125 4.3
2.375 0.8125 4.3
2.3125 0.875 4.3
2.375 0.8125 4.2375
2.4375 0.875 4.2375
2.4375 0.8125 4.2375
2.5 0.875 4.2375
2.4375 0.8125 4.3
2.5 0.8125 4.3
2.4375 0.875 4.3
2.5 0.8125 4.2375
2.5625 0.875 4.2375
2.5625 0.8125 4.2375
2.625 0.875 4.2375
2.5625 0.8125 4.3
2.625 0.8125 4.3
2.5625 0.875 4.3
2.625 0.8125 4.2375
2.6875 0.875 4.2375
2.6875 0.8125 4.2375
2.75 0.875 4.2375
2.6875 0.8125 4.3
2.75 0.8125 4.3
2.6875 0.875 4.3
2.75 0.8125 4.2375
2.8125 0.875 4.2375
2.8125 0.8125 4.2375
2.875 0.875 4.2375
2.8125 0.8125 4.3
2.875 0.8125 4.3
2.8125 0.875 4.3
2.875 0.8125 4.2375
2.9375 0.875 4.2375
2.9375 0.8125 4.2375
3 0.875 4.2375
2.9375 0.8125 4.3
3 0.8125 4.3
2.9375 0.875 4.3
3 0.8125 4.2375
3.0625 0.875 4.2375
3.0625 0.8125 4.2375
3.125 0.875 4.2375
3.0625 0.8125 4.3
3.125 0.8125 4.3
3.0625 0.875 4.3
3.125 0.8125 4.2375
3.1875 0.875 4.2375
3.1875 0.8125 4.2375
3.25 0.875 4.2375
3.1875 0.8125 4.3
3.25 0.8125 4.3
3.1875 0.875 4.3
3.25 0.8125 4.2375
3.3125 0.875 4.2375
3.3125 0.8125 4.2375
3.375 0.875 4.2375
3.3125 0.8125 4.3
3.375 0.8125 4.3
3.3125 0.875 4.3
3.375 0.8125 4.2375
3.4375 0.875 4.2375
3.4375 0.8125 4.2375
3.5 0.875 4.2375
3.4375 0.8125 4.3
3.5 0.8125 4.3
3.4375 0.875 4.3
3.5 0.8125 4.2375
3.5625 0.875 4.2375
3.5625 0.8125 4.2375
3.625 0.875 4.2375
3.5625 0.8125 4.3
3.625 0.8125 4.3
3.5625 0.875 4.3
3.625 0.8125 4.2375
3.6875 0.875 4.2375
3.6875 0.8125 4.2375
3.75 0.875 4.2375
3.6875 0.8125 4.3
3.75 0.8125 4.3
3.6875 0.875 4.3
3.75 0.8125 4.2375
3.8125 0.875 4.2375
3.8125 0.8125 4.2375
3.875 0.875 4.2375
3.8125 0.8125 4.3
3.875 0.8125 4.3
3.8125 0.875 4.3
3.875 0.8125 4.2375
3.9375 0.875 4.2375
3.9375 0.8125 4.2375
4 0.875 4.2375
3.9375 0.8125 4.3
4 0.8125 4.3
3.9375 0.875 4.3
4 0.8125 4.2375
0.0625 1 4.2375
0.0625 0.9375 4.2375
0.125 1 4.2375
0.0625 0.9375 4.3
0.125 0.9375 4.3
0 1 4.2375
0 0.9375 4.2375
0.0625 1 4.3
0 0.9375 4.3
0.125 0.9375 4.2375
0.1875 1 4.2375
0.1875 0.9375 4.2375
0.25 1 4.2375
0.1875 0.9375 4.3
0.25 0.9375 4.3
0.1875 1 4.3
0.25 0.9375 4.2375
0.3125 1 4.2375
0.3125 0.9375 4.2375
0.375 1 4.2375
0.3125 0.9375 4.3
0.375 0.9375 4.3
0.3125 1 4.3
0.375 0.9375 4.2375
0.4375 1 4.2375
0.4375 0.9375 4.2375
0.5 1 4.2375
0.4375 0.9375 4.3
0.5 0.9375 4.3
0.4375 1 4.3
0.5 0.9375 4.2375
0.5625 1 4.2375
0.5625 0.9375 4.2375
0.625 1 4.2375
0.5625 0.9375 4.3
0.625 0.9375 4.3
0.5625 1 4.3
0.625 0.9375 4.2375
0.6875 1 4.2375
0.6875 0.9375 4.2375
0.75 1 4.2375
0.6875 0.9375 4.3
0.75 0.9375 4.3
0.6875 1 4.3
0.75 0.9375 4.2375
0.8125 1 4.2375
0.8125 0.9375 4.2375
0.875 1 4.2375
0.8125 0.9375 4.3
0.875 0.9375 4.3
0.8125 1 4.3
0.875 0.9375 4.2375
0.9375 1 4.2375
0.9375 0.9375 4.2375
1 1 4.2375
0.9375 0.9375 4.3
1 0.9375 4.3
0.9375 1 4.3
1 0.9375 4.2375
1.0625 1 4.2375
1.0625 0.9375 4.2375
1.125 1 4.2375
1.0625 0.9375 4.3
1.125 0.9375 4.3
1.0625 1 4.3
1.125 0.9375 4.2375
1.1875 1 4.2375
1.1875 0.9375 4.2375
1.25 1 4.2375
1.1875 0.9375 4.3
1.25 0.9375 4.3
1.1875 1 4.3
1.25 0.9375 4.2375
1.3125 1 4.2375
1.3125 0.9375 4.2375
1.375 1 4.2375
1.3125 0.9375 4.3
1.375 0.9375 4.3
1.3125 1 4.3
1.375 0.9375 4.2375
1.4375 1 4.2375
1.4375 0.9375 4.2375
1.5 1 4.2375
1.4375 0.9375 4.3
1.5 0.9375 4.3
1.4375 1 4.3
1.5 0.9375 4.2375
1.5625 1 4.2375
1.5625 0.9375 4.2375
1.625 1 4.2375
1.5625 0.9375 4.3
1.625 0.9375 4.3
1.5625 1 4.3
1.625 0.9375 4.2375
1.6875 1 4.2375
1.6875 0.9375 4.2375
1.75 1 4.2375
1.6875 0.9375 4.3
1.75 0.9375 4.3
1.6875 1 4.3
1.75 0.9375 4.2375
1.8125 1 4.2375
1.8125 0.9375 4.2375
1.875 1 4.2375
1.8125 0.9375 4.3
1.875 0.9375 4.3
1.8125 1 4.3
1.875 0.9375 4.2375
1.9375 1 4.2375
1.9375 0.9375 4.2375
2 1 4.2375
1.9375 0.9375 4.3
2 0.9375 4.3
1.9375 1 4.3
2 0.9375 4.2375
2.0625 1 4.2375
2.0625 0.9375 4.2375
2.125 1 4.2375
2.0625 0.9375 4.3
2.125 0.9375 4.3
2.0625 1 4.3
2.125 0.9375 4.2375
2.1875 1 4.2375
2.1875 0.9375 4.2375
2.25 1 4.2375
2.1875 0.9375 4.3
2.25 0.9375 4.3
2.1875 1 4.3
2.25 0.9375 4.2375
2.3125 1 4.2375
2.3125 0.9375 4.2375
2.375 1 4.2375
2.3125 0.9375 4.3
2.375 0.9375 4.3
2.3125 1 4.3
2.375 0.9375 4.2375
2.4375 1 4.2375
2.4375 0.9375 4.2375
2.5 1 4.2375
2.4375 0.9375 4.3
2.5 0.9375 4.3
2.4375 1 4.3
2.5 0.9375 4.2375
2.5625 1 4.2375
2.5625 0.9375 4.2375
2.625 1 4.2375
2.5625 0.9375 4.3
2.625 0.9375 4.3
2.5625 1 4.3
2.625 0.9375 4.2375
2.6875 1 4.2375
2.6875 0.9375 4.2375
2.75 1 4.2375
2.6875 0.9375 4.3
2.75 0.9375 4.3
2.6875 1 4.3
2.75 0.9375 4.2375
2.8125 1 4.2375
2.8125 0.9375 4.2375
2.875 1 4.2375
2.8125 0.9375 4.3
2.875 0.9375 4.3
2.8125 1 4.3
2.875 0.9375 4.2375
2.9375 1 4.2375
2.9375 0.9375 4.2375
3 1 4.2375
2.9375 0.9375 4.3
3 0.9375 4.3
2.9375 1 4.3
3 0.9375 4.2375
3.0625 1 4.2375
3.0625 0.9375 4.2375
3.125 1 4.2375
3.0625 0.9375 4.3
3.125 0.9375 4.3
3.0625 1 4.3
3.125 0.9375 4.2375
3.1875 1 4.2375
3.1875 0.9375 4.2375
3.25 1 4.2375
3.1875 0.9375 4.3
3.25 0.9375 4.3
3.1875 1 4.3
3.25 0.9375 4.2375
3.3125 1 4.2375
3.3125 0.9375 4.2375
3.375 1 4.2375
3.3125 0.9375 4.3
3.375 0.9375 4.3
3.3125 1 4.3
3.375 0.9375 4.2375
3.4375 1 4.2375
3.4375 0.9375 4.2375
3.5 1 4.2375
3.4375 0.9375 4.3
3.5 0.9375 4.3
3.4375 1 4.3
3.5 0.9375 4.2375
3.5625 1 4.2375
3.5625 0.9375 4.2375
3.625 1 4.2375
3.5625 0.9375 4.3
3.625 0.9375 4.3
3.5625 1 4.3
3.625 0.9375 4.2375
3.6875 1 4.2375
3.6875 0.9375 4.2375
3.75 1 4.2375
3.6875 0.9375 4.3
3.75 0.9375 4.3
3.6875 1 4.3
3.75 0.9375 4.2375
3.8125 1 4.2375
3.8125 0.9375 4.2375
3.875 1 4.2375
3.8125 0.9375 4.3
3.875 0.9375 4.3
3.8125 1 4.3
3.875 0.9375 4.2375
3.9375 1 4.2375
3.9375 0.9375 4.2375
4 1 4.2375
3.9375 0.9375 4.3
4 0.9375 4.3
3.9375 1 4.3
4 0.9375 4.2375

CELLS 12289 122880
OFFSETS vtktypeint64
0 10 20 30 40 50 60 70 80 90 100 110 120 130 140 150 160 170 180 190 200 210 220 230 240 250 260 270 280 290 300 310 320 330 340 350 360 370 380 390 400 410 420 430 440 450 460 470 480 490 500 510 520 530 540 550 560 570 580 590 600 610 620 630 640 650 660 670 680 690 700 710 720 730 740 750 760 770 780 790 800 810 820 830 840 850 860 870 880 890 900 910 920 930 940 950 960 970 980 990 1000 1010 1020 1030 1040 1050 1060 1070 1080 1090 1100 1110 1120 1130 1140 1150 1160 1170 1180 1190 1200 1210 1220 1230 1240 1250 1260 1270 1280 1290 1300 1310 1320 1330 1340 1350 1360 1370 1380 1390 1400 1410 1420 1430 1440 1450 1460 1470 1480 1490 1500 1510 1520 1530 1540 1550 1560 1570 1580 1590 1600 1610 1620 1630 1640 1650 1660 1670 1680 1690 1700 1710 1720 1730 1740 1750 1760 1770 1780 1790 1800 1810 1820 1830 1840 1850 1860 1870 1880 1890 1900 1910 1920 1930 1940 1950 1960 1970 1980 1990 2000 2010 2020 2030 2040 2050 2060 2070 2080 2090 2100 2110 2120 2130 2140 2150 2160 2170 2180 2190 2200 2210 2220 2230 2240 2250 2260 2270 2280 2290 2300 2310 2320 2330 2340 2350 2360 2370 2380 2390 2400 2410 2420 2430 2440 2450 2460 2470 2480 2490 2500 2510 2520 2530 2540 2550 2560 2570 2580 2590 2600 2610 2620 2630 2640 2650 2660 2670 2680 2690 2700 2710 2720 2730 2740 2750 2760 2770 2780 2790 2800 2810 2820 2830 2840 2850 2860 2870 2880 2890 2900 2910 2920 2930 2940 2950 2960 2970 2980 2990 3000 3010 3020 3030 3040 3050 3060 3070 3080 3090 3100 3110 3120 3130 3140 3150 3160 3170 3180 3190 3200 3210 3220 3230 3240 3250 3260 3270 3280 3290 3300 3310 3320 3330 3340 3350 3360 3370 3380 3390 3400 3410 3420 3430 3440 3450 3460 3470 3480 3490 3500 3510 3520 3530 3540 3550 3560 3570 3580 3590 3600 3610 3620 3630 3640 3650 3660 3670 3680 3690 3700 3710 3720 3730 3740 3750 3760 3770 3780 3790 3800 3810 3820 3830 3840 3850 3860 3870 3880 3890 3900 3910 3920 3930 3940 3950 3960 3970 3980 3990 4000 4010 4020 4030 4040 4050 4060 4070 4080 4090 4100 4110 4120 4130 4140 4150 4160 4170 4180 4190 4200 4210 4220 4230 4240 4250 4260 4270 4280 4290 4300 4310 4320 4330 4340 4350 4360 4370 4380 4390 4400 4410 4420 4430 4440 4450 4460 4470 4480 4490 4500 4510 4520 4530 4540 4550 4560 4570 4580 4590 4600 4610 4620 4630 4640 4650 4660 4670 4680 4690 4700 4710 4720 4730 4740 4750 4760 4770 4780 4790 4800 4810 4820 4830 4840 4850 4860 4870 4880 4890 4900 4910 4920 4930 4940 4950 4960 4970 4980 4990 5000 5010 5020 5030 5040 5050 5060 5070 5080 5090 5100 5110 5120 5130 5140 5150 5160 5170 5180 5190 5200 5210 5220 5230 5240 5250 5260 5270 5280 5290 5300 5310 5320 5330 5340 5350 5360 5370 5380 5390 5400 5410 5420 5430 5440 5450 5460 5470 5480 5490 5500 5510 5520 5530 5540 5550 5560 5570 5580 5590 5600 5610 5620 5630 5640 5650 5660 5670 5680 5690 5700 5710 5720 5730 5740 5750 5760 5770 5780 5790 5800 5810 5820 5830 5840 5850 5860 5870 5880 5890 5900 5910 5920 5930 5940 5950 5960 5970 5980 5990 6000 6010 6020 6030 6040 6050 6060 6070 6080 6090 6100 6110 6120 6130 6140 6150 6160 6170 6180 6190 6200 6210 6220 6230 6240 6250 6260 6270 6280 6290 6300 6310 6320 6330 6340 6350 6360 6370 6380 6390 6400 6410 6420 6430 6440 6450 6460 6470 6480 6490 6500 6510 6520 6530 6540 6550 6560 6570 6580 6590 6600 6610 6620 6630 6640 6650 6660 6670 6680 6690 6700 6710 6720 6730 6740 6750 6760 6770 6780 6790 6800 6810 6820 6830 6840 6850 6860 6870 6880 6890 6900 6910 6920 6930 6940 6950 6960 6970 6980 6990 7000 7010 7020 7030 7040 7050 7060 7070 7080 7090 7100 7110 7120 7130 7140 7150 7160 7170 7180 7190 7200 7210 7220 7230 7240 7250 7260 7270 7280 7290 7300 7310 7320 7330 7340 7350 7360 7370 7380 7390 7400 7410 7420 7430 7440 7450 7460 7470 7480 7490 7500 7510 7520 7530 7540 7550 7560 7570 7580 7590 7600 7610 7620 7630 7640 7650 7660 7670 7680 7690 7700 7710 7720 7730 7740 7750 7760 7770 7780 7790 7800 7810 7820 7830 7840 7850 7860 7870 7880 7890 7900 7910 7920 7930 7940 7950 7960 7970 7980 7990 8000 8010 8020 8030 8040 8050 8060 8070 8080 8090 8100 8110 8120 8130 8140 8150 8160 8170 8180 8190 8200 8210 8220 8230 8240 8250 8260 8270 8280 8290 8300 8310 8320 8330 8340 8350 8360 8370 8380 8390 8400 8410 8420 8430 8440 8450 8460 8470 8480 8490 8500 8510 8520 8530 8540 8550 8560 8570 8580 8590 8600 8610 8620 8630 8640 8650 8660 8670 8680 8690 8700 8710 8720 8730 8740 8750 8760 8770 8780 8790 8800 8810 8820 8830 8840 8850 8860 8870 8880 8890 8900 8910 8920 8930 8940 8950 8960 8970 8980 8990 9000 9010 9020 9030 9040 9050 9060 9070 9080 9090 9100 9110 9120 9130 9140 9150 9160 9170 9180 9190 9200 9210 9220 9230 9240 9250 9260 9270 9280 9290 9300 9310 9320 9330 9340 9350 9360 9370 9380 9390 9400 9410 9420 9430 9440 9450 9460 9470 9480 9490 9500 9510 9520 9530 9540 9550 9560 9570 9580 9590 9600 9610 9620 9630 9640 9650 9660 9670 9680 9690 9700 9710 9720 9730 9740 9750 9760 9770 9780 9790 9800 9810 9820 9830 9840 9850 9860 9870 9880 9890 9900 9910 9920 9930 9940 9950 9960 9970 9980 9990 10000 10010 10020 10030 10040 10050 10060 10070 10080 10090 10100 10110 10120 10130 10140 10150 10160 10170 10180 10190 10200 10210 10220 10230 10240 10250 10260 10270 10280 10290 10300 10310 10320 10330 10340 10350 10360 10370 10380 10390 10400 10410 10420 10430 10440 10450 10460 10470 10480 10490 10500 10510 10520 10530 10540 10550 10560 10570 10580 10590 10600 10610 10620 10630 10640 10650 10660 10670 10680 10690 10700 10710 10720 10730 10740 10750 10760 10770 10780 10790 10800 10810 10820 10830 10840 10850 10860 10870 10880 10890 10900 10910 10920 10930 10940 10950 10960 10970 10980 10990 11000 11010 11020 11030 11040 11050 11060 11070 11080 11090 11100 11110 11120 11130 11140 11150 11160 11170 11180 11190 11200 11210 11220 11230 11240 11250 11260 11270 11280 11290 11300 11310 11320 11330 11340 11350 11360 11370 11380 11390 11400 11410 11420 11430 11440 11450 11460 11470 11480 11490 11500 11510 11520 11530 11540 11550 11560 11570 11580 11590 11600 11610 11620 11630 11640 11650 11660 11670 11680 11690 11700 11710 11720 11730 11740 11750 11760 11770 11780 11790 11800 11810 11820 11830 11840 11850 11860 11870 11880 11890 11900 11910 11920 11930 11940 11950 11960 11970 11980 11990 12000 12010 12020 12030 12040 12050 12060 12070 12080 12090 12100 12110 12120 12130 12140 12150 12160 12170 12180 12190 12200 12210 12220 12230 12240 12250 12260 12270 12280 12290 12300 12310 12320 12330 12340 12350 12360 12370 12380 12390 12400 12410 12420 12430 12440 12450 12460 12470 12480 12490 12500 12510 12520 12530 12540 12550 12560 12570 12580 12590 12600 12610 12620 12630 12640 12650 12660 12670 12680 12690 12700 12710 12720 12730 12740 12750 12760 12770 12780 12790 12800 12810 12820 12830 12840 12850 12860 12870 12880 12890 12900 12910 12920 12930 12940 12950 12960 12970 12980 12990 13000 13010 13020 13030 13040 13050 13060 13070 13080 13090 13100 13110 13120 13130 13140 13150 13160 13170 13180 13190 13200 13210 13220 13230 13240 13250 13260 13270 13280 13290 13300 13310 13320 13330 13340 13350 13360 13370 13380 13390 13400 13410 13420 13430 13440 13450 13460 13470 13480 13490 13500 13510 13520 13530 13540 13550 13560 13570 13580 13590 13600 13610 13620 13630 13640 13650 13660 13670 13680 13690 13700 13710 13720 13730 13740 13750 13760 13770 13780 13790 13800 13810 13820 13830 13840 13850 13860 13870 13880 13890 13900 13910 13920 13930 13940 13950 13960 13970 13980 13990 14000 14010 14020 14030 14040 14050 14060 14070 14080 14090 14100 14110 14120 14130 14140 14150 14160 14170 14180 14190 14200 14210 14220 14230 14240 14250 14260 14270 14280 14290 14300 14310 14320 14330 14340 14350 14360 14370 14380 14390 14400 14410 14420 14430 14440 14450 14460 14470 14480 14490 14500 14510 14520 14530 14540 14550 14560 14570 14580 14590 14600 14610 14620 14630 14640 14650 14660 14670 14680 14690 14700 14710 14720 14730 14740 14750 14760 14770 14780 14790 14800 14810 14820 14830 14840 14850 14860 14870 14880 14890 14900 14910 14920 14930 14940 14950 14960 14970 14980 14990 15000 15010 15020 15030 15040 15050 15060 15070 15080 15090 15100 15110 15120 15130 15140 15150 15160 15170 15180 15190 15200 15210 15220 15230 15240 15250 15260 15270 15280 15290 15300 15310 15320 15330 15340 15350 15360 15370 15380 15390 15400 15410 15420 15430 15440 15450 15460 15470 15480 15490 15500 15510 15520 15530 15540 15550 15560 15570 15580 15590 15600 15610 15620 15630 15640 15650 15660 15670 15680 15690 15700 15710 15720 15730 15740 15750 15760 15770 15780 15790 15800 15810 15820 15830 15840 15850 15860 15870 15880 15890 15900 15910 15920 15930 15940 15950 15960 15970 15980 15990 16000 16010 16020 16030 16040 16050 16060 16070 16080 16090 16100 16110 16120 16130 16140 16150 16160 16170 16180 16190 16200 16210 16220 16230 16240 16250 16260 16270 16280 16290 16300 16310 16320 16330 16340 16350 16360 16370 16380 16390 16400 16410 16420 16430 16440 16450 16460 16470 16480 16490 16500 16510 16520 16530 16540 16550 16560 16570 16580 16590 16600 16610 16620 16630 16640 16650 16660 16670 16680 16690 16700 16710 16720 16730 16740 16750 16760 16770 16780 16790 16800 16810 16820 16830 16840 16850 16860 16870 16880 16890 16900 16910 16920 16930 16940 16950 16960 16970 16980 16990 17000 17010 17020 17030 17040 17050 17060 17070 17080 17090 17100 17110 17120 17130 17140 17150 17160 17170 17180 17190 17200 17210 17220 17230 17240 17250 17260 17270 17280 17290 17300 17310 17320 17330 17340 17350 17360 17370 17380 17390 17400 17410 17420 17430 17440 17450 17460 17470 17480 17490 17500 17510 17520 17530 17540 17550 17560 17570 17580 17590 17600 17610 17620 17630 17640 17650 17660 17670 17680 17690 17700 17710 17720 17730 17740 17750 17760 17770 17780 17790 17800 17810 17820 17830 17840 17850 17860 17870 17880 17890 17900 17910 17920 17930 17940 17950 17960 17970 17980 17990 18000 18010 18020 18030 18040 18050 18060 18070 18080 18090 18100 18110 18120 18130 18140 18150 18160 18170 18180 18190 18200 18210 18220 18230 18240 18250 18260 18270 18280 18290 18300 18310 18320 18330 18340 18350 18360 18370 18380 18390 18400 18410 18420 18430 18440 18450 18460 18470 18480 18490 18500 18510 18520 18530 18540 18550 18560 18570 18580 18590 18600 18610 18620 18630 18640 18650 18660 18670 18680 18690 18700 18710 18720 18730 18740 18750 18760 18770 18780 18790 18800 18810 18820 18830 18840 18850 18860 18870 18880 18890 18900 18910 18920 18930 18940 18950 18960 18970 18980 18990 19000 19010 19020 19030 19040 19050 19060 19070 19080 19090 19100 19110 19120 19130 19140 19150 19160 19170 19180 19190 19200 19210 19220 19230 19240 19250 19260 19270 19280 19290 19300 19310 19320 19330 19340 19350 19360 19370 19380 19390 19400 19410 19420 19430 19440 19450 19460 19470 19480 19490 19500 19510 19520 19530 19540 19550 19560 19570 19580 19590 19600 19610 19620 19630 19640 19650 19660 19670 19680 19690 19700 19710 19720 19730 19740 19750 19760 19770 19780 19790 19800 19810 19820 19830 19840 19850 19860 19870 19880 19890 19900 19910 19920 19930 19940 19950 19960 19970 19980 19990 20000 20010 20020 20030 20040 20050 20060 20070 20080 20090 20100 20110 20120 20130 20140 20150 20160 20170 20180 20190 20200 20210 20220 20230 20240 20250 20260 20270 20280 20290 20300 20310 20320 20330 20340 20350 20360 20370 20380 20390 20400 20410 20420 20430 20440 20450 20460 20470 20480 20490 20500 20510 20520 20530 20540 20550 20560 20570 20580 20590 20600 20610 20620 20630 20640 20650 20660 20670 20680 20690 20700 20710 20720 20730 20740 20750 20760 20770 20780 20790 20800 20810 20820 20830 20840 20850 20860 20870 20880 20890 20900 20910 20920 20930 20940 20950 20960 20970 20980 20990 21000 21010 21020 21030 21040 21050 21060 21070 21080 21090 21100 21110 21120 21130 21140 21150 21160 21170 21180 21190 21200 21210 21220 21230 21240 21250 21260 21270 21280 21290 21300 21310 21320 21330 21340 21350 21360 21370 21380 21390 21400 21410 21420 21430 21440 21450 21460 21470 21480 21490 21500 21510 21520 21530 21540 21550 21560 21570 21580 21590 21600 21610 21620 21630 21640 21650 21660 21670 21680 21690 21700 21710 21720 21730 21740 21750 21760 21770 21780 21790 21800 21810 21820 21830 21840 21850 21860 21870 21880 21890 21900 21910 21920 21930 21940 21950 21960 21970 21980 21990 22000 22010 22020 22030 22040 22050 22060 22070 22080 22090 22100 22110 22120 22130 22140 22150 22160 22170 22180 22190 22200 22210 22220 22230 22240 22250 22260 22270 22280 22290 22300 22310 22320 22330 22340 22350 22360 22370 22380 22390 22400 22410 22420 22430 22440 22450 22460 22470 22480 22490 22500 22510 22520 22530 22540 22550 22560 22570 22580 22590 22600 22610 22620 22630 22640 22650 22660 22670 22680 22690 22700 22710 22720 22730 22740 22750 22760 22770 22780 22790 22800 22810 22820 22830 22840 22850 22860 22870 22880 22890 22900 22910 22920 22930 22940 22950 22960 22970 22980 22990 23000 23010 23020 23030 23040 23050 23060 23070 23080 23090 23100 23110 23120 23130 23140 23150 23160 23170 23180 23190 23200 23210 23220 23230 23240 23250 23260 23270 23280 23290 23300 23310 23320 23330 23340 23350 23360 23370 23380 23390 23400 23410 23420 23430 23440 23450 23460 23470 23480 23490 23500 23510 23520 23530 23540 23550 23560 23570 23580 23590 23600 23610 23620 23630 23640 23650 23660 23670 23680 23690 23700 23710 23720 23730 23740 23750 23760 23770 23780 23790 23800 23810 23820 23830 23840 23850 23860 23870 23880 23890 23900 23910 23920 23930 23940 23950 23960 23970 23980 23990 24000 24010 24020 24030 24040 24050 24060 24070 24080 24090 24100 24110 24120 24130 24140 24150 24160 24170 24180 24190 24200 24210 24220 24230 24240 24250 24260 24270 24280 24290 24300 24310 24320 24330 24340 24350 24360 24370 24380 24390 24400 24410 24420 24430 24440 24450 24460 24470 24480 24490 24500 24510 24520 24530 24540 24550 24560 24570 24580 24590 24600 24610 24620 24630 24640 24650 24660 24670 24680 24690 24700 24710 24720 24730 24740 24750 24760 24770 24780 24790 24800 24810 24820 24830 24840 24850 24860 24870 24880 24890 24900 24910 24920 24930 24940 24950 24960 24970 24980 24990 25000 25010 25020 25030 25040 25050 25060 25070 25080 25090 25100 25110 25120 25130 25140 25150 25160 25170 25180 25190 25200 25210 25220 25230 25240 25250 25260 25270 25280 25290 25300 25310 25320 25330 25340 25350 25360 25370 25380 25390 25400 25410 25420 25430 25440 25450 25460 25470 25480 25490 25500 25510 25520 25530 25540 25550 25560 25570 25580 25590 25600 25610 25620 25630 25640 25650 25660 25670 25680 25690 25700 25710 25720 25730 25740 25750 25760 25770 25780 25790 25800 25810 25820 25830 25840 25850 25860 25870 25880 25890 25900 25910 25920 25930 25940 25950 25960 25970 25980 25990 26000 26010 26020 26030 26040 26050 26060 26070 26080 26090 26100 26110 26120 26130 26140 26150 26160 26170 26180 26190 26200 26210 26220 26230 26240 26250 26260 26270 26280 26290 26300 26310 26320 26330 26340 26350 26360 26370 26380 26390 26400 26410 26420 26430 26440 26450 26460 26470 26480 26490 26500 26510 26520 26530 26540 26550 26560 26570 26580 26590 26600 26610 26620 26630 26640 26650 26660 26670 26680 26690 26700 26710 26720 26730 26740 26750 26760 26770 26780 26790 26800 26810 26820 26830 26840 26850 26860 26870 26880 26890 26900 26910 26920 26930 26940 26950 26960 26970 26980 26990 27000 27010 27020 27030 27040 27050 27060 27070 27080 27090 27100 27110 27120 27130 27140 27150 27160 27170 27180 27190 27200 27210 27220 27230 27240 27250 27260 27270 27280 27290 27300 27310 27320 27330 27340 27350 27360 27370 27380 27390 27400 27410 27420 27430 27440 27450 27460 27470 27480 27490 27500 27510 27520 27530 27540 27550 27560 27570 27580 27590 27600 27610 27620 27630 27640 27650 27660 27670 27680 27690 27700 27710 27720 27730 27740 27750 27760 27770 27780 27790 27800 27810 27820 27830 27840 27850 27860 27870 27880 27890 27900 27910 27920 27930 27940 27950 27960 27970 27980 27990 28000 28010 28020 28030 28040 28050 28060 28070 28080 28090 28100 28110 28120 28130 28140 28150 28160 28170 28180 28190 28200 28210 28220 28230 28240 28250 28260 28270 28280 28290 28300 28310 28320 28330 28340 28350 28360 28370 28380 28390 28400 28410 28420 28430 28440 28450 28460 28470 28480 28490 28500 28510 28520 28530 28540 28550 28560 28570 28580 28590 28600 28610 28620 28630 28640 28650 28660 28670 28680 28690 28700 28710 28720 28730 28740 28750 28760 28770 28780 28790 28800 28810 28820 28830 28840 28850 28860 28870 28880 28890 28900 28910 28920 28930 28940 28950 28960 28970 28980 28990 29000 29010 29020 29030 29040 29050 29060 29070 29080 29090 29100 29110 29120 29130 29140 29150 29160 29170 29180 29190 29200 29210 29220 29230 29240 29250 29260 29270 29280 29290 29300 29310 29320 29330 29340 29350 29360 29370 29380 29390 29400 29410 29420 29430 29440 29450 29460 29470 29480 29490 29500 29510 29520 29530 29540 29550 29560 29570 29580 29590 29600 29610 29620 29630 29640 29650 29660 29670 29680 29690 29700 29710 29720 29730 29740 29750 29760 29770 29780 29790 29800 29810 29820 29830 29840 29850 29860 29870 29880 29890 29900 29910 29920 29930 29940 29950 29960 29970 29980 29990 30000 30010 30020 30030 30040 30050 30060 30070 30080 30090 30100 30110 30120 30130 30140 30150 30160 30170 30180 30190 30200 30210 30220 30230 30240 30250 30260 30270 30280 30290 30300 30310 30320 30330 30340 30350 30360 30370 30380 30390 30400 30410 30420 30430 30440 30450 30460 30470 30480 30490 30500 30510 30520 30530 30540 30550 30560 30570 30580 30590 30600 30610 30620 30630 30640 30650 30660 30670 30680 30690 30700 30710 30720 30730 30740 30750 30760 30770 30780 30790 30800 30810 30820 30830 30840 30850 30860 30870 30880 30890 30900 30910 30920 30930 30940 30950 30960 30970 30980 30990 31000 31010 31020 31030 31040 31050 31060 31070 31080 31090 31100 31110 31120 31130 31140 31150 31160 31170 31180 31190 31200 31210 31220 31230 31240 31250 31260 31270 31280 31290 31300 31310 31320 31330 31340 31350 31360 31370 31380 31390 31400 31410 31420 31430 31440 31450 31460 31470 31480 31490 31500 31510 31520 31530 31540 31550 31560 31570 31580 31590 31600 31610 31620 31630 31640 31650 31660 31670 31680 31690 31700 31710 31720 31730 31740 31750 31760 31770 31780 31790 31800 31810 31820 31830 31840 31850 31860 31870 31880 31890 31900 31910 31920 31930 31940 31950 31960 31970 31980 31990 32000 32010 32020 32030 32040 32050 32060 32070 32080 32090 32100 32110 32120 32130 32140 32150 32160 32170 32180 32190 32200 32210 32220 32230 32240 32250 32260 32270 32280 32290 32300 32310 32320 32330 32340 32350 32360 32370 32380 32390 32400 32410 32420 32430 32440 32450 32460 32470 32480 32490 32500 32510 32520 32530 32540 32550 32560 32570 32580 32590 32600 32610 32620 32630 32640 32650 32660 32670 32680 32690 32700 32710 32720 32730 32740 32750 32760 32770 32780 32790 32800 32810 32820 32830 32840 32850 32860 32870 32880 32890 32900 32910 32920 32930 32940 32950 32960 32970 32980 32990 33000 33010 33020 33030 33040 33050 33060 33070 33080 33090 33100 33110 33120 33130 33140 33150 33160 33170 33180 33190 33200 33210 33220 33230 33240 33250 33260 33270 33280 33290 33300 33310 33320 33330 33340 33350 33360 33370 33380 33390 33400 33410 33420 33430 33440 33450 33460 33470 33480 33490 33500 33510 33520 33530 33540 33550 33560 33570 33580 33590 33600 33610 33620 33630 33640 33650 33660 33670 33680 33690 33700 33710 33720 33730 33740 33750 33760 33770 33780 33790 33800 33810 33820 33830 33840 33850 33860 33870 33880 33890 33900 33910 33920 33930 33940 33950 33960 33970 33980 33990 34000 34010 34020 34030 34040 34050 34060 34070 34080 34090 34100 34110 34120 34130 34140 34150 34160 34170 34180 34190 34200 34210 34220 34230 34240 34250 34260 34270 34280 34290 34300 34310 34320 34330 34340 34350 34360 34370 34380 34390 34400 34410 34420 34430 34440 34450 34460 34470 34480 34490 34500 34510 34520 34530 34540 34550 34560 34570 34580 34590 34600 34610 34620 34630 34640 34650 34660 34670 34680 34690 34700 34710 34720 34730 34740 34750 34760 34770 34780 34790 34800 34810 34820 34830 34840 34850 34860 34870 34880 34890 34900 34910 34920 34930 34940 34950 34960 34970 34980 34990 35000 35010 35020 35030 35040 35050 35060 35070 35080 35090 35100 35110 35120 35130 35140 35150 35160 35170 35180 35190 35200 35210 35220 35230 35240 35250 35260 35270 35280 35290 35300 35310 35320 35330 35340 35350 35360 35370 35380 35390 35400 35410 35420 35430 35440 35450 35460 35470 35480 35490 35500 35510 35520 35530 35540 35550 35560 35570 35580 35590 35600 35610 35620 35630 35640 35650 35660 35670 35680 35690 35700 35710 35720 35730 35740 35750 35760 35770 35780 35790 35800 35810 35820 35830 35840 35850 35860 35870 35880 35890 35900 35910 35920 35930 35940 35950 35960 35970 35980 35990 36000 36010 36020 36030 36040 36050 36060 36070 36080 36090 36100 36110 36120 36130 36140 36150 36160 36170 36180 36190 36200 36210 36220 36230 36240 36250 36260 36270 36280 36290 36300 36310 36320 36330 36340 36350 36360 36370 36380 36390 36400 36410 36420 36430 36440 36450 36460 36470 36480 36490 36500 36510 36520 36530 36540 36550 36560 36570 36580 36590 36600 36610 36620 36630 36640 36650 36660 36670 36680 36690 36700 36710 36720 36730 36740 36750 36760 36770 36780 36790 36800 36810 36820 36830 36840 36850 36860 36870 36880 36890 36900 36910 36920 36930 36940 36950 36960 36970 36980 36990 37000 37010 37020 37030 37040 37050 37060 37070 37080 37090 37100 37110 37120 37130 37140 37150 37160 37170 37180 37190 37200 37210 37220 37230 37240 37250 37260 37270 37280 37290 37300 37310 37320 37330 37340 37350 37360 37370 37380 37390 37400 37410 37420 37430 37440 37450 37460 37470 37480 37490 37500 37510 37520 37530 37540 37550 37560 37570 37580 37590 37600 37610 37620 37630 37640 37650 37660 37670 37680 37690 37700 37710 37720 37730 37740 37750 37760 37770 37780 37790 37800 37810 37820 37830 37840 37850 37860 37870 37880 37890 37900 37910 37920 37930 37940 37950 37960 37970 37980 37990 38000 38010 38020 38030 38040 38050 38060 38070 38080 38090 38100 38110 38120 38130 38140 38150 38160 38170 38180 38190 38200 38210 38220 38230 38240 38250 38260 38270 38280 38290 38300 38310 38320 38330 38340 38350 38360 38370 38380 38390 38400 38410 38420 38430 38440 38450 38460 38470 38480 38490 38500 38510 38520 38530 38540 38550 38560 38570 38580 38590 38600 38610 38620 38630 38640 38650 38660 38670 38680 38690 38700 38710 38720 38730 38740 38750 38760 38770 38780 38790 38800 38810 38820 38830 38840 38850 38860 38870 38880 38890 38900 38910 38920 38930 38940 38950 38960 38970 38980 38990 39000 39010 39020 39030 39040 39050 39060 39070 39080 39090 39100 39110 39120 39130 39140 39150 39160 39170 39180 39190 39200 39210 39220 39230 39240 39250 39260 39270 39280 39290 39300 39310 39320 39330 39340 39350 39360 39370 39380 39390 39400 39410 39420 39430 39440 39450 39460 39470 39480 39490 39500 39510 39520 39530 39540 39550 39560 39570 39580 39590 39600 39610 39620 39630 39640 39650 39660 39670 39680 39690 39700 39710 39720 39730 39740 39750 39760 39770 39780 39790 39800 39810 39820 39830 39840 39850 39860 39870 39880 39890 39900 39910 39920 39930 39940 39950 39960 39970 39980 39990 40000 40010 40020 40030 40040 40050 40060 40070 40080 40090 40100 40110 40120 40130 40140 40150 40160 40170 40180 40190 40200 40210 40220 40230 40240 40250 40260 40270 40280 40290 40300 40310 40320 40330 40340 40350 40360 40370 40380 40390 40400 40410 40420 40430 40440 40450 40460 40470 40480 40490 40500 40510 40520 40530 40540 40550 40560 40570 40580 40590 40600 40610 40620 40630 40640 40650 40660 40670 40680 40690 40700 40710 40720 40730 40740 40750 40760 40770 40780 40790 40800 40810 40820 40830 40840 40850 40860 40870 40880 40890 40900 40910 40920 40930 40940 40950 40960 40970 40980 40990 41000 41010 41020 41030 41040 41050 41060 41070 41080 41090 41100 41110 41120 41130 41140 41150 41160 41170 41180 41190 41200 41210 41220 41230 41240 41250 41260 41270 41280 41290 41300 41310 41320 41330 41340 41350 41360 41370 41380 41390 41400 41410 41420 41430 41440 41450 41460 41470 41480 41490 41500 41510 41520 41530 41540 41550 41560 41570 41580 41590 41600 41610 41620 41630 41640 41650 41660 41670 41680 41690 41700 41710 41720 41730 41740 41750 41760 41770 41780 41790 41800 41810 41820 41830 41840 41850 41860 41870 41880 41890 41900 41910 41920 41930 41940 41950 41960 41970 41980 41990 42000 42010 42020 42030 42040 42050 42060 42070 42080 42090 42100 42110 42120 42130 42140 42150 42160 42170 42180 42190 42200 42210 42220 42230 42240 42250 42260 42270 42280 42290 42300 42310 42320 42330 42340 42350 42360 42370 42380 42390 42400 42410 42420 42430 42440 42450 42460 42470 42480 42490 42500 42510 42520 42530 42540 42550 42560 42570 42580 42590 42600 42610 42620 42630 42640 42650 42660 42670 42680 42690 42700 42710 42720 42730 42740 42750 42760 42770 42780 42790 42800 42810 42820 42830 42840 42850 42860 42870 42880 42890 42900 42910 42920 42930 42940 42950 42960 42970 42980 42990 43000 43010 43020 43030 43040 43050 43060 43070 43080 43090 43100 43110 43120 43130 43140 43150 43160 43170 43180 43190 43200 43210 43220 43230 43240 43250 43260 43270 43280 43290 43300 43310 43320 43330 43340 43350 43360 43370 43380 43390 43400 43410 43420 43430 43440 43450 43460 43470 43480 43490 43500 43510 43520 43530 43540 43550 43560 43570 43580 43590 43600 43610 43620 43630 43640 43650 43660 43670 43680 43690 43700 43710 43720 43730 43740 43750 43760 43770 43780 43790 43800 43810 43820 43830 43840 43850 43860 43870 43880 43890 43900 43910 43920 43930 43940 43950 43960 43970 43980 43990 44000 44010 44020 44030 44040 44050 44060 44070 44080 44090 44100 44110 44120 44130 44140 44150 44160 44170 44180 44190 44200 44210 44220 44230 44240 44250 44260 44270 44280 44290 44300 44310 44320 44330 44340 44350 44360 44370 44380 44390 44400 44410 44420 44430 44440 44450 44460 44470 44480 44490 44500 44510 44520 44530 44540 44550 44560 44570 44580 44590 44600 44610 44620 44630 44640 44650 44660 44670 44680 44690 44700 44710 44720 44730 44740 44750 44760 44770 44780 44790 44800 44810 44820 44830 44840 44850 44860 44870 44880 44890 44900 44910 44920 44930 44940 44950 44960 44970 44980 44990 45000 45010 45020 45030 45040 45050 45060 45070 45080 45090 45100 45110 45120 45130 45140 45150 45160 45170 45180 45190 45200 45210 45220 45230 45240 45250 45260 45270 45280 45290 45300 45310 45320 45330 45340 45350 45360 45370 45380 45390 45400 45410 45420 45430 45440 45450 45460 45470 45480 45490 45500 45510 45520 45530 45540 45550 45560 45570 45580 45590 45600 45610 45620 45630 45640 45650 45660 45670 45680 45690 45700 45710 45720 45730 45740 45750 45760 45770 45780 45790 45800 45810 45820 45830 45840 45850 45860 45870 45880 45890 45900 45910 45920 45930 45940 45950 45960 45970 45980 45990 46000 46010 46020 46030 46040 46050 46060 46070 46080 46090 46100 46110 46120 46130 46140 46150 46160 46170 46180 46190 46200 46210 46220 46230 46240 46250 46260 46270 46280 46290 46300 46310 46320 46330 46340 46350 46360 46370 46380 46390 46400 46410 46420 46430 46440 46450 46460 46470 46480 46490 46500 46510 46520 46530 46540 46550 46560 46570 46580 46590 46600 46610 46620 46630 46640 46650 46660 46670 46680 46690 46700 46710 46720 46730 46740 46750 46760 46770 46780 46790 46800 46810 46820 46830 46840 46850 46860 46870 46880 46890 46900 46910 46920 46930 46940 46950 46960 46970 46980 46990 47000 47010 47020 47030 47040 47050 47060 47070 47080 47090 47100 47110 47120 47130 47140 47150 47160 47170 47180 47190 47200 47210 47220 47230 47240 47250 47260 47270 47280 47290 47300 47310 47320 47330 47340 47350 47360 47370 47380 47390 47400 47410 47420 47430 47440 47450 47460 47470 47480 47490 47500 47510 47520 47530 47540 47550 47560 47570 47580 47590 47600 47610 47620 47630 47640 47650 47660 47670 47680 47690 47700 47710 47720 47730 47740 47750 47760 47770 47780 47790 47800 47810 47820 47830 47840 47850 47860 47870 47880 47890 47900 47910 47920 47930 47940 47950 47960 47970 47980 47990 48000 48010 48020 48030 48040 48050 48060 48070 48080 48090 48100 48110 48120 48130 48140 48150 48160 48170 48180 48190 48200 48210 48220 48230 48240 48250 48260 48270 48280 48290 48300 48310 48320 48330 48340 48350 48360 48370 48380 48390 48400 48410 48420 48430 48440 48450 48460 48470 48480 48490 48500 48510 48520 48530 48540 48550 48560 48570 48580 48590 48600 48610 48620 48630 48640 48650 48660 48670 48680 48690 48700 48710 48720 48730 48740 48750 48760 48770 48780 48790 48800 48810 48820 48830 48840 48850 48860 48870 48880 48890 48900 48910 48920 48930 48940 48950 48960 48970 48980 48990 49000 49010 49020 49030 49040 49050 49060 49070 49080 49090 49100 49110 49120 49130 49140 49150 49160 49170 49180 49190 49200 49210 49220 49230 49240 49250 49260 49270 49280 49290 49300 49310 49320 49330 49340 49350 49360 49370 49380 49390 49400 49410 49420 49430 49440 49450 49460 49470 49480 49490 49500 49510 49520 49530 49540 49550 49560 49570 49580 49590 49600 49610 49620 49630 49640 49650 49660 49670 49680 49690 49700 49710 49720 49730 49740 49750 49760 49770 49780 49790 49800 49810 49820 49830 49840 49850 49860 49870 49880 49890 49900 49910 49920 49930 49940 49950 49960 49970 49980 49990 50000 50010 50020 50030 50040 50050 50060 50070 50080 50090 50100 50110 50120 50130 50140 50150 50160 50170 50180 50190 50200 50210 50220 50230 50240 50250 50260 50270 50280 50290 50300 50310 50320 50330 50340 50350 50360 50370 50380 50390 50400 50410 50420 50430 50440 50450 50460 50470 50480 50490 50500 50510 50520 50530 50540 50550 50560 50570 50580 50590 50600 50610 50620 50630 50640 50650 50660 50670 50680 50690 50700 50710 50720 50730 50740 50750 50760 50770 50780 50790 50800 50810 50820 50830 50840 50850 50860 50870 50880 50890 50900 50910 50920 50930 50940 50950 50960 50970 50980 50990 51000 51010 51020 51030 51040 51050 51060 51070 51080 51090 51100 51110 51120 51130 51140 51150 51160 51170 51180 51190 51200 51210 51220 51230 51240 51250 51260 51270 51280 51290 51300 51310 51320 51330 51340 51350 51360 51370 51380 51390 51400 51410 51420 51430 51440 51450 51460 51470 51480 51490 51500 51510 51520 51530 51540 51550 51560 51570 51580 51590 51600 51610 51620 51630 51640 51650 51660 51670 51680 51690 51700 51710 51720 51730 51740 51750 51760 51770 51780 51790 51800 51810 51820 51830 51840 51850 51860 51870 51880 51890 51900 51910 51920 51930 51940 51950 51960 51970 51980 51990 52000 52010 52020 52030 52040 52050 52060 52070 52080 52090 52100 52110 52120 52130 52140 52150 52160 52170 52180 52190 52200 52210 52220 52230 52240 52250 52260 52270 52280 52290 52300 52310 52320 52330 52340 52350 52360 52370 52380 52390 52400 52410 52420 52430 52440 52450 52460 52470 52480 52490 52500 52510 52520 52530 52540 52550 52560 52570 52580 52590 52600 52610 52620 52630 52640 52650 52660 52670 52680 52690 52700 52710 52720 52730 52740 52750 52760 52770 52780 52790 52800 52810 52820 52830 52840 52850 52860 52870 52880 52890 52900 52910 52920 52930 52940 52950 52960 52970 52980 52990 53000 53010 53020 53030 53040 53050 53060 53070 53080 53090 53100 53110 53120 53130 53140 53150 53160 53170 53180 53190 53200 53210 53220 53230 53240 53250 53260 53270 53280 53290 53300 53310 53320 53330 53340 53350 53360 53370 53380 53390 53400 53410 53420 53430 53440 53450 53460 53470 53480 53490 53500 53510 53520 53530 53540 53550 53560 53570 53580 53590 53600 53610 53620 53630 53640 53650 53660 53670 53680 53690 53700 53710 53720 53730 53740 53750 53760 53770 53780 53790 53800 53810 53820 53830 53840 53850 53860 53870 53880 53890 53900 53910 53920 53930 53940 53950 53960 53970 53980 53990 54000 54010 54020 54030 54040 54050 54060 54070 54080 54090 54100 54110 54120 54130 54140 54150 54160 54170 54180 54190 54200 54210 54220 54230 54240 54250 54260 54270 54280 54290 54300 54310 54320 54330 54340 54350 54360 54370 54380 54390 54400 54410 54420 54430 54440 54450 54460 54470 54480 54490 54500 54510 54520 54530 54540 54550 54560 54570 54580 54590 54600 54610 54620 54630 54640 54650 54660 54670 54680 54690 54700 54710 54720 54730 54740 54750 54760 54770 54780 54790 54800 54810 54820 54830 54840 54850 54860 54870 54880 54890 54900 54910 54920 54930 54940 54950 54960 54970 54980 54990 55000 55010 55020 55030 55040 55050 55060 55070 55080 55090 55100 55110 55120 55130 55140 55150 55160 55170 55180 55190 55200 55210 55220 55230 55240 55250 55260 55270 55280 55290 55300 55310 55320 55330 55340 55350 55360 55370 55380 55390 55400 55410 55420 55430 55440 55450 55460 55470 55480 55490 55500 55510 55520 55530 55540 55550 55560 55570 55580 55590 55600 55610 55620 55630 55640 55650 55660 55670 55680 55690 55700 55710 55720 55730 55740 55750 55760 55770 55780 55790 55800 55810 55820 55830 55840 55850 55860 55870 55880 55890 55900 55910 55920 55930 55940 55950 55960 55970 55980 55990 56000 56010 56020 56030 56040 56050 56060 56070 56080 56090 56100 56110 56120 56130 56140 56150 56160 56170 56180 56190 56200 56210 56220 56230 56240 56250 56260 56270 56280 56290 56300 56310 56320 56330 56340 56350 56360 56370 56380 56390 56400 56410 56420 56430 56440 56450 56460 56470 56480 56490 56500 56510 56520 56530 56540 56550 56560 56570 56580 56590 56600 56610 56620 56630 56640 56650 56660 56670 56680 56690 56700 56710 56720 56730 56740 56750 56760 56770 56780 56790 56800 56810 56820 56830 56840 56850 56860 56870 56880 56890 56900 56910 56920 56930 56940 56950 56960 56970 56980 56990 57000 57010 57020 57030 57040 57050 57060 57070 57080 57090 57100 57110 57120 57130 57140 57150 57160 57170 57180 57190 57200 57210 57220 57230 57240 57250 57260 57270 57280 57290 57300 57310 57320 57330 57340 57350 57360 57370 57380 57390 57400 57410 57420 57430 57440 57450 57460 57470 57480 57490 57500 57510 57520 57530 57540 57550 57560 57570 57580 57590 57600 57610 57620 57630 57640 57650 57660 57670 57680 57690 57700 57710 57720 57730 57740 57750 57760 57770 57780 57790 57800 57810 57820 57830 57840 57850 57860 57870 57880 57890 57900 57910 57920 57930 57940 57950 57960 57970 57980 57990 58000 58010 58020 58030 58040 58050 58060 58070 58080 58090 58100 58110 58120 58130 58140 58150 58160 58170 58180 58190 58200 58210 58220 58230 58240 58250 58260 58270 58280 58290 58300 58310 58320 58330 58340 58350 58360 58370 58380 58390 58400 58410 58420 58430 58440 58450 58460 58470 58480 58490 58500 58510 58520 58530 58540 58550 58560 58570 58580 58590 58600 58610 58620 58630 58640 58650 58660 58670 58680 58690 58700 58710 58720 58730 58740 58750 58760 58770 58780 58790 58800 58810 58820 58830 58840 58850 58860 58870 58880 58890 58900 58910 58920 58930 58940 58950 58960 58970 58980 58990 59000 59010 59020 59030 59040 59050 59060 59070 59080 59090 59100 59110 59120 59130 59140 59150 59160 59170 59180 59190 59200 59210 59220 59230 59240 59250 59260 59270 59280 59290 59300 59310 59320 59330 59340 59350 59360 59370 59380 59390 59400 59410 59420 59430 59440 59450 59460 59470 59480 59490 59500 59510 59520 59530 59540 59550 59560 59570 59580 59590 59600 59610 59620 59630 59640 59650 59660 59670 59680 59690 59700 59710 59720 59730 59740 59750 59760 59770 59780 59790 59800 59810 59820 59830 59840 59850 59860 59870 59880 59890 59900 59910 59920 59930 59940 59950 59960 59970 59980 59990 60000 60010 60020 60030 60040 60050 60060 60070 60080 60090 60100 60110 60120 60130 60140 60150 60160 60170 60180 60190 60200 60210 60220 60230 60240 60250 60260 60270 60280 60290 60300 60310 60320 60330 60340 60350 60360 60370 60380 60390 60400 60410 60420 60430 60440 60450 60460 60470 60480 60490 60500 60510 60520 60530 60540 60550 60560 60570 60580 60590 60600 60610 60620 60630 60640 60650 60660 60670 60680 60690 60700 60710 60720 60730 60740 60750 60760 60770 60780 60790 60800 60810 60820 60830 60840 60850 60860 60870 60880 60890 60900 60910 60920 60930 60940 60950 60960 60970 60980 60990 61000 61010 61020 61030 61040 61050 61060 61070 61080 61090 61100 61110 61120 61130 61140 61150 61160 61170 61180 61190 61200 61210 61220 61230 61240 61250 61260 61270 61280 61290 61300 61310 61320 61330 61340 61350 61360 61370 61380 61390 61400 61410 61420 61430 61440 61450 61460 61470 61480 61490 61500 61510 61520 61530 61540 61550 61560 61570 61580 61590 61600 61610 61620 61630 61640 61650 61660 61670 61680 61690 61700 61710 61720 61730 61740 61750 61760 61770 61780 61790 61800 61810 61820 61830 61840 61850 61860 61870 61880 61890 61900 61910 61920 61930 61940 61950 61960 61970 61980 61990 62000 62010 62020 62030 62040 62050 62060 62070 62080 62090 62100 62110 62120 62130 62140 62150 62160 62170 62180 62190 62200 62210 62220 62230 62240 62250 62260 62270 62280 62290 62300 62310 62320 62330 62340 62350 62360 62370 62380 62390 62400 62410 62420 62430 62440 62450 62460 62470 62480 62490 62500 62510 62520 62530 62540 62550 62560 62570 62580 62590 62600 62610 62620 62630 62640 62650 62660 62670 62680 62690 62700 62710 62720 62730 62740 62750 62760 62770 62780 62790 62800 62810 62820 62830 62840 62850 62860 62870 62880 62890 62900 62910 62920 62930 62940 62950 62960 62970 62980 62990 63000 63010 63020 63030 63040 63050 63060 63070 63080 63090 63100 63110 63120 63130 63140 63150 63160 63170 63180 63190 63200 63210 63220 63230 63240 63250 63260 63270 63280 63290 63300 63310 63320 63330 63340 63350 63360 63370 63380 63390 63400 63410 63420 63430 63440 63450 63460 63470 63480 63490 63500 63510 63520 63530 63540 63550 63560 63570 63580 63590 63600 63610 63620 63630 63640 63650 63660 63670 63680 63690 63700 63710 63720 63730 63740 63750 63760 63770 63780 63790 63800 63810 63820 63830 63840 63850 63860 63870 63880 63890 63900 63910 63920 63930 63940 63950 63960 63970 63980 63990 64000 64010 64020 64030 64040 64050 64060 64070 64080 64090 64100 64110 64120 64130 64140 64150 64160 64170 64180 64190 64200 64210 64220 64230 64240 64250 64260 64270 64280 64290 64300 64310 64320 64330 64340 64350 64360 64370 64380 64390 64400 64410 64420 64430 64440 64450 64460 64470 64480 64490 64500 64510 64520 64530 64540 64550 64560 64570 64580 64590 64600 64610 64620 64630 64640 64650 64660 64670 64680 64690 64700 64710 64720 64730 64740 64750 64760 64770 64780 64790 64800 64810 64820 64830 64840 64850 64860 64870 64880 64890 64900 64910 64920 64930 64940 64950 64960 64970 64980 64990 65000 65010 65020 65030 65040 65050 65060 65070 65080 65090 65100 65110 65120 65130 65140 65150 65160 65170 65180 65190 65200 65210 65220 65230 65240 65250 65260 65270 65280 65290 65300 65310 65320 65330 65340 65350 65360 65370 65380 65390 65400 65410 65420 65430 65440 65450 65460 65470 65480 65490 65500 65510 65520 65530 65540 65550 65560 65570 65580 65590 65600 65610 65620 65630 65640 65650 65660 65670 65680 65690 65700 65710 65720 65730 65740 65750 65760 65770 65780 65790 65800 65810 65820 65830 65840 65850 65860 65870 65880 65890 65900 65910 65920 65930 65940 65950 65960 65970 65980 65990 66000 66010 66020 66030 66040 66050 66060 66070 66080 66090 66100 66110 66120 66130 66140 66150 66160 66170 66180 66190 66200 66210 66220 66230 66240 66250 66260 66270 66280 66290 66300 66310 66320 66330 66340 66350 66360 66370 66380 66390 66400 66410 66420 66430 66440 66450 66460 66470 66480 66490 66500 66510 66520 66530 66540 66550 66560 66570 66580 66590 66600 66610 66620 66630 66640 66650 66660 66670 66680 66690 66700 66710 66720 66730 66740 66750 66760 66770 66780 66790 66800 66810 66820 66830 66840 66850 66860 66870 66880 66890 66900 66910 66920 66930 66940 66950 66960 66970 66980 66990 67000 67010 67020 67030 67040 67050 67060 67070 67080 67090 67100 67110 67120 67130 67140 67150 67160 67170 67180 67190 67200 67210 67220 67230 67240 67250 67260 67270 67280 67290 67300 67310 67320 67330 67340 67350 67360 67370 67380 67390 67400 67410 67420 67430 67440 67450 67460 67470 67480 67490 67500 67510 67520 67530 67540 67550 67560 67570 67580 67590 67600 67610 67620 67630 67640 67650 67660 67670 67680 67690 67700 67710 67720 67730 67740 67750 67760 67770 67780 67790 67800 67810 67820 67830 67840 67850 67860 67870 67880 67890 67900 67910 67920 67930 67940 67950 67960 67970 67980 67990 68000 68010 68020 68030 68040 68050 68060 68070 68080 68090 68100 68110 68120 68130 68140 68150 68160 68170 68180 68190 68200 68210 68220 68230 68240 68250 68260 68270 68280 68290 68300 68310 68320 68330 68340 68350 68360 68370 68380 68390 68400 68410 68420 68430 68440 68450 68460 68470 68480 68490 68500 68510 68520 68530 68540 68550 68560 68570 68580 68590 68600 68610 68620 68630 68640 68650 68660 68670 68680 68690 68700 68710 68720 68730 68740 68750 68760 68770 68780 68790 68800 68810 68820 68830 68840 68850 68860 68870 68880 68890 68900 68910 68920 68930 68940 68950 68960 68970 68980 68990 69000 69010 69020 69030 69040 69050 69060 69070 69080 69090 69100 69110 69120 69130 69140 69150 69160 69170 69180 69190 69200 69210 69220 69230 69240 69250 69260 69270 69280 69290 69300 69310 69320 69330 69340 69350 69360 69370 69380 69390 69400 69410 69420 69430 69440 69450 69460 69470 69480 69490 69500 69510 69520 69530 69540 69550 69560 69570 69580 69590 69600 69610 69620 69630 69640 69650 69660 69670 69680 69690 69700 69710 69720 69730 69740 69750 69760 69770 69780 69790 69800 69810 69820 69830 69840 69850 69860 69870 69880 69890 69900 69910 69920 69930 69940 69950 69960 69970 69980 69990 70000 70010 70020 70030 70040 70050 70060 70070 70080 70090 70100 70110 70120 70130 70140 70150 70160 70170 70180 70190 70200 70210 70220 70230 70240 70250 70260 70270 70280 70290 70300 70310 70320 70330 70340 70350 70360 70370 70380 70390 70400 70410 70420 70430 70440 70450 70460 70470 70480 70490 70500 70510 70520 70530 70540 70550 70560 70570 70580 70590 70600 70610 70620 70630 70640 70650 70660 70670 70680 70690 70700 70710 70720 70730 70740 70750 70760 70770 70780 70790 70800 70810 70820 70830 70840 70850 70860 70870 70880 70890 70900 70910 70920 70930 70940 70950 70960 70970 70980 70990 71000 71010 71020 71030 71040 71050 71060 71070 71080 71090 71100 71110 71120 71130 71140 71150 71160 71170 71180 71190 71200 71210 71220 71230 71240 71250 71260 71270 71280 71290 71300 71310 71320 71330 71340 71350 71360 71370 71380 71390 71400 71410 71420 71430 71440 71450 71460 71470 71480 71490 71500 71510 71520 71530 71540 71550 71560 71570 71580 71590 71600 71610 71620 71630 71640 71650 71660 71670 71680 71690 71700 71710 71720 71730 71740 71750 71760 71770 71780 71790 71800 71810 71820 71830 71840 71850 71860 71870 71880 71890 71900 71910 71920 71930 71940 71950 71960 71970 71980 71990 72000 72010 72020 72030 72040 72050 72060 72070 72080 72090 72100 72110 72120 72130 72140 72150 72160 72170 72180 72190 72200 72210 72220 72230 72240 72250 72260 72270 72280 72290 72300 72310 72320 72330 72340 72350 72360 72370 72380 72390 72400 72410 72420 72430 72440 72450 72460 72470 72480 72490 72500 72510 72520 72530 72540 72550 72560 72570 72580 72590 72600 72610 72620 72630 72640 72650 72660 72670 72680 72690 72700 72710 72720 72730 72740 72750 72760 72770 72780 72790 72800 72810 72820 72830 72840 72850 72860 72870 72880 72890 72900 72910 72920 72930 72940 72950 72960 72970 72980 72990 73000 73010 73020 73030 73040 73050 73060 73070 73080 73090 73100 73110 73120 73130 73140 73150 73160 73170 73180 73190 73200 73210 73220 73230 73240 73250 73260 73270 73280 73290 73300 73310 73320 73330 73340 73350 73360 73370 73380 73390 73400 73410 73420 73430 73440 73450 73460 73470 73480 73490 73500 73510 73520 73530 73540 73550 73560 73570 73580 73590 73600 73610 73620 73630 73640 73650 73660 73670 73680 73690 73700 73710 73720 73730 73740 73750 73760 73770 73780 73790 73800 73810 73820 73830 73840 73850 73860 73870 73880 73890 73900 73910 73920 73930 73940 73950 73960 73970 73980 73990 74000 74010 74020 74030 74040 74050 74060 74070 74080 74090 74100 74110 74120 74130 74140 74150 74160 74170 74180 74190 74200 74210 74220 74230 74240 74250 74260 74270 74280 74290 74300 74310 74320 74330 74340 74350 74360 74370 74380 74390 74400 74410 74420 74430 74440 74450 74460 74470 74480 74490 74500 74510 74520 74530 74540 74550 74560 74570 74580 74590 74600 74610 74620 74630 74640 74650 74660 74670 74680 74690 74700 74710 74720 74730 74740 74750 74760 74770 74780 74790 74800 74810 74820 74830 74840 74850 74860 74870 74880 74890 74900 74910 74920 74930 74940 74950 74960 74970 74980 74990 75000 75010 75020 75030 75040 75050 75060 75070 75080 75090 75100 75110 75120 75130 75140 75150 75160 75170 75180 75190 75200 75210 75220 75230 75240 75250 75260 75270 75280 75290 75300 75310 75320 75330 75340 75350 75360 75370 75380 75390 75400 75410 75420 75430 75440 75450 75460 75470 75480 75490 75500 75510 75520 75530 75540 75550 75560 75570 75580 75590 75600 75610 75620 75630 75640 75650 75660 75670 75680 75690 75700 75710 75720 75730 75740 75750 75760 75770 75780 75790 75800 75810 75820 75830 75840 75850 75860 75870 75880 75890 75900 75910 75920 75930 75940 75950 75960 75970 75980 75990 76000 76010 76020 76030 76040 76050 76060 76070 76080 76090 76100 76110 76120 76130 76140 76150 76160 76170 76180 76190 76200 76210 76220 76230 76240 76250 76260 76270 76280 76290 76300 76310 76320 76330 76340 76350 76360 76370 76380 76390 76400 76410 76420 76430 76440 76450 76460 76470 76480 76490 76500 76510 76520 76530 76540 76550 76560 76570 76580 76590 76600 76610 76620 76630 76640 76650 76660 76670 76680 76690 76700 76710 76720 76730 76740 76750 76760 76770 76780 76790 76800 76810 76820 76830 76840 76850 76860 76870 76880 76890 76900 76910 76920 76930 76940 76950 76960 76970 76980 76990 77000 77010 77020 77030 77040 77050 77060 77070 77080 77090 77100 77110 77120 77130 77140 77150 77160 77170 77180 77190 77200 77210 77220 77230 77240 77250 77260 77270 77280 77290 77300 77310 77320 77330 77340 77350 77360 77370 77380 77390 77400 77410 77420 77430 77440 77450 77460 77470 77480 77490 77500 77510 77520 77530 77540 77550 77560 77570 77580 77590 77600 77610 77620 77630 77640 77650 77660 77670 77680 77690 77700 77710 77720 77730 77740 77750 77760 77770 77780 77790 77800 77810 77820 77830 77840 77850 77860 77870 77880 77890 77900 77910 77920 77930 77940 77950 77960 77970 77980 77990 78000 78010 78020 78030 78040 78050 78060 78070 78080 78090 78100 78110 78120 78130 78140 78150 78160 78170 78180 78190 78200 78210 78220 78230 78240 78250 78260 78270 78280 78290 78300 78310 78320 78330 78340 78350 78360 78370 78380 78390 78400 78410 78420 78430 78440 78450 78460 78470 78480 78490 78500 78510 78520 78530 78540 78550 78560 78570 78580 78590 78600 78610 78620 78630 78640 78650 78660 78670 78680 78690 78700 78710 78720 78730 78740 78750 78760 78770 78780 78790 78800 78810 78820 78830 78840 78850 78860 78870 78880 78890 78900 78910 78920 78930 78940 78950 78960 78970 78980 78990 79000 79010 79020 79030 79040 79050 79060 79070 79080 79090 79100 79110 79120 79130 79140 79150 79160 79170 79180 79190 79200 79210 79220 79230 79240 79250 79260 79270 79280 79290 79300 79310 79320 79330 79340 79350 79360 79370 79380 79390 79400 79410 79420 79430 79440 79450 79460 79470 79480 79490 79500 79510 79520 79530 79540 79550 79560 79570 79580 79590 79600 79610 79620 79630 79640 79650 79660 79670 79680 79690 79700 79710 79720 79730 79740 79750 79760 79770 79780 79790 79800 79810 79820 79830 79840 79850 79860 79870 79880 79890 79900 79910 79920 79930 79940 79950 79960 79970 79980 79990 80000 80010 80020 80030 80040 80050 80060 80070 80080 80090 80100 80110 80120 80130 80140 80150 80160 80170 80180 80190 80200 80210 80220 80230 80240 80250 80260 80270 80280 80290 80300 80310 80320 80330 80340 80350 80360 80370 80380 80390 80400 80410 80420 80430 80440 80450 80460 80470 80480 80490 80500 80510 80520 80530 80540 80550 80560 80570 80580 80590 80600 80610 80620 80630 80640 80650 80660 80670 80680 80690 80700 80710 80720 80730 80740 80750 80760 80770 80780 80790 80800 80810 80820 80830 80840 80850 80860 80870 80880 80890 80900 80910 80920 80930 80940 80950 80960 80970 80980 80990 81000 81010 81020 81030 81040 81050 81060 81070 81080 81090 81100 81110 81120 81130 81140 81150 81160 81170 81180 81190 81200 81210 81220 81230 81240 81250 81260 81270 81280 81290 81300 81310 81320 81330 81340 81350 81360 81370 81380 81390 81400 81410 81420 81430 81440 81450 81460 81470 81480 81490 81500 81510 81520 81530 81540 81550 81560 81570 81580 81590 81600 81610 81620 81630 81640 81650 81660 81670 81680 81690 81700 81710 81720 81730 81740 81750 81760 81770 81780 81790 81800 81810 81820 81830 81840 81850 81860 81870 81880 81890 81900 81910 81920 81930 81940 81950 81960 81970 81980 81990 82000 82010 82020 82030 82040 82050 82060 82070 82080 82090 82100 82110 82120 82130 82140 82150 82160 82170 82180 82190 82200 82210 82220 82230 82240 82250 82260 82270 82280 82290 82300 82310 82320 82330 82340 82350 82360 82370 82380 82390 82400 82410 82420 82430 82440 82450 82460 82470 82480 82490 82500 82510 82520 82530 82540 82550 82560 82570 82580 82590 82600 82610 82620 82630 82640 82650 82660 82670 82680 82690 82700 82710 82720 82730 82740 82750 82760 82770 82780 82790 82800 82810 82820 82830 82840 82850 82860 82870 82880 82890 82900 82910 82920 82930 82940 82950 82960 82970 82980 82990 83000 83010 83020 83030 83040 83050 83060 83070 83080 83090 83100 83110 83120 83130 83140 83150 83160 83170 83180 83190 83200 83210 83220 83230 83240 83250 83260 83270 83280 83290 83300 83310 83320 83330 83340 83350 83360 83370 83380 83390 83400 83410 83420 83430 83440 83450 83460 83470 83480 83490 83500 83510 83520 83530 83540 83550 83560 83570 83580 83590 83600 83610 83620 83630 83640 83650 83660 83670 83680 83690 83700 83710 83720 83730 83740 83750 83760 83770 83780 83790 83800 83810 83820 83830 83840 83850 83860 83870 83880 83890 83900 83910 83920 83930 83940 83950 83960 83970 83980 83990 84000 84010 84020 84030 84040 84050 84060 84070 84080 84090 84100 84110 84120 84130 84140 84150 84160 84170 84180 84190 84200 84210 84220 84230 84240 84250 84260 84270 84280 84290 84300 84310 84320 84330 84340 84350 84360 84370 84380 84390 84400 84410 84420 84430 84440 84450 84460 84470 84480 84490 84500 84510 84520 84530 84540 84550 84560 84570 84580 84590 84600 84610 84620 84630 84640 84650 84660 84670 84680 84690 84700 84710 84720 84730 84740 84750 84760 84770 84780 84790 84800 84810 84820 84830 84840 84850 84860 84870 84880 84890 84900 84910 84920 84930 84940 84950 84960 84970 84980 84990 85000 85010 85020 85030 85040 85050 85060 85070 85080 85090 85100 85110 85120 85130 85140 85150 85160 85170 85180 85190 85200 85210 85220 85230 85240 85250 85260 85270 85280 85290 85300 85310 85320 85330 85340 85350 85360 85370 85380 85390 85400 85410 85420 85430 85440 85450 85460 85470 85480 85490 85500 85510 85520 85530 85540 85550 85560 85570 85580 85590 85600 85610 85620 85630 85640 85650 85660 85670 85680 85690 85700 85710 85720 85730 85740 85750 85760 85770 85780 85790 85800 85810 85820 85830 85840 85850 85860 85870 85880 85890 85900 85910 85920 85930 85940 85950 85960 85970 85980 85990 86000 86010 86020 86030 86040 86050 86060 86070 86080 86090 86100 86110 86120 86130 86140 86150 86160 86170 86180 86190 86200 86210 86220 86230 86240 86250 86260 86270 86280 86290 86300 86310 86320 86330 86340 86350 86360 86370 86380 86390 86400 86410 86420 86430 86440 86450 86460 86470 86480 86490 86500 86510 86520 86530 86540 86550 86560 86570 86580 86590 86600 86610 86620 86630 86640 86650 86660 86670 86680 86690 86700 86710 86720 86730 86740 86750 86760 86770 86780 86790 86800 86810 86820 86830 86840 86850 86860 86870 86880 86890 86900 86910 86920 86930 86940 86950 86960 86970 86980 86990 87000 87010 87020 87030 87040 87050 87060 87070 87080 87090 87100 87110 87120 87130 87140 87150 87160 87170 87180 87190 87200 87210 87220 87230 87240 87250 87260 87270 87280 87290 87300 87310 87320 87330 87340 87350 87360 87370 87380 87390 87400 87410 87420 87430 87440 87450 87460 87470 87480 87490 87500 87510 87520 87530 87540 87550 87560 87570 87580 87590 87600 87610 87620 87630 87640 87650 87660 87670 87680 87690 87700 87710 87720 87730 87740 87750 87760 87770 87780 87790 87800 87810 87820 87830 87840 87850 87860 87870 87880 87890 87900 87910 87920 87930 87940 87950 87960 87970 87980 87990 88000 88010 88020 88030 88040 88050 88060 88070 88080 88090 88100 88110 88120 88130 88140 88150 88160 88170 88180 88190 88200 88210 88220 88230 88240 88250 88260 88270 88280 88290 88300 88310 88320 88330 88340 88350 88360 88370 88380 88390 88400 88410 88420 88430 88440 88450 88460 88470 88480 88490 88500 88510 88520 88530 88540 88550 88560 88570 88580 88590 88600 88610 88620 88630 88640 88650 88660 88670 88680 88690 88700 88710 88720 88730 88740 88750 88760 88770 88780 88790 88800 88810 88820 88830 88840 88850 88860 88870 88880 88890 88900 88910 88920 88930 88940 88950 88960 88970 88980 88990 89000 89010 89020 89030 89040 89050 89060 89070 89080 89090 89100 89110 89120 89130 89140 89150 89160 89170 89180 89190 89200 89210 89220 89230 89240 89250 89260 89270 89280 89290 89300 89310 89320 89330 89340 89350 89360 89370 89380 89390 89400 89410 89420 89430 89440 89450 89460 89470 89480 89490 89500 89510 89520 89530 89540 89550 89560 89570 89580 89590 89600 89610 89620 89630 89640 89650 89660 89670 89680 89690 89700 89710 89720 89730 89740 89750 89760 89770 89780 89790 89800 89810 89820 89830 89840 89850 89860 89870 89880 89890 89900 89910 89920 89930 89940 89950 89960 89970 89980 89990 90000 90010 90020 90030 90040 90050 90060 90070 90080 90090 90100 90110 90120 90130 90140 90150 90160 90170 90180 90190 90200 90210 90220 90230 90240 90250 90260 90270 90280 90290 90300 90310 90320 90330 90340 90350 90360 90370 90380 90390 90400 90410 90420 90430 90440 90450 90460 90470 90480 90490 90500 90510 90520 90530 90540 90550 90560 90570 90580 90590 90600 90610 90620 90630 90640 90650 90660 90670 90680 90690 90700 90710 90720 90730 90740 90750 90760 90770 90780 90790 90800 90810 90820 90830 90840 90850 90860 90870 90880 90890 90900 90910 90920 90930 90940 90950 90960 90970 90980 90990 91000 91010 91020 91030 91040 91050 91060 91070 91080 91090 91100 91110 91120 91130 91140 91150 91160 91170 91180 91190 91200 91210 91220 91230 91240 91250 91260 91270 91280 91290 91300 91310 91320 91330 91340 91350 91360 91370 91380 91390 91400 91410 91420 91430 91440 91450 91460 91470 91480 91490 91500 91510 91520 91530 91540 91550 91560 91570 91580 91590 91600 91610 91620 91630 91640 91650 91660 91670 91680 91690 91700 91710 91720 91730 91740 91750 91760 91770 91780 91790 91800 91810 91820 91830 91840 91850 91860 91870 91880 91890 91900 91910 91920 91930 91940 91950 91960 91970 91980 91990 92000 92010 92020 92030 92040 92050 92060 92070 92080 92090 92100 92110 92120 92130 92140 92150 92160 92170 92180 92190 92200 92210 92220 92230 92240 92250 92260 92270 92280 92290 92300 92310 92320 92330 92340 92350 92360 92370 92380 92390 92400 92410 92420 92430 92440 92450 92460 92470 92480 92490 92500 92510 92520 92530 92540 92550 92560 92570 92580 92590 92600 92610 92620 92630 92640 92650 92660 92670 92680 92690 92700 92710 92720 92730 92740 92750 92760 92770 92780 92790 92800 92810 92820 92830 92840 92850 92860 92870 92880 92890 92900 92910 92920 92930 92940 92950 92960 92970 92980 92990 93000 93010 93020 93030 93040 93050 93060 93070 93080 93090 93100 93110 93120 93130 93140 93150 93160 93170 93180 93190 93200 93210 93220 93230 93240 93250 93260 93270 93280 93290 93300 93310 93320 93330 93340 93350 93360 93370 93380 93390 93400 93410 93420 93430 93440 93450 93460 93470 93480 93490 93500 93510 93520 93530 93540 93550 93560 93570 93580 93590 93600 93610 93620 93630 93640 93650 93660 93670 93680 93690 93700 93710 93720 93730 93740 93750 93760 93770 93780 93790 93800 93810 93820 93830 93840 93850 93860 93870 93880 93890 93900 93910 93920 93930 93940 93950 93960 93970 93980 93990 94000 94010 94020 94030 94040 94050 94060 94070 94080 94090 94100 94110 94120 94130 94140 94150 94160 94170 94180 94190 94200 94210 94220 94230 94240 94250 94260 94270 94280 94290 94300 94310 94320 94330 94340 94350 94360 94370 94380 94390 94400 94410 94420 94430 94440 94450 94460 94470 94480 94490 94500 94510 94520 94530 94540 94550 94560 94570 94580 94590 94600 94610 94620 94630 94640 94650 94660 94670 94680 94690 94700 94710 94720 94730 94740 94750 94760 94770 94780 94790 94800 94810 94820 94830 94840 94850 94860 94870 94880 94890 94900 94910 94920 94930 94940 94950 94960 94970 94980 94990 95000 95010 95020 95030 95040 95050 95060 95070 95080 95090 95100 95110 95120 95130 95140 95150 95160 95170 95180 95190 95200 95210 95220 95230 95240 95250 95260 95270 95280 95290 95300 95310 95320 95330 95340 95350 95360 95370 95380 95390 95400 95410 95420 95430 95440 95450 95460 95470 95480 95490 95500 95510 95520 95530 95540 95550 95560 95570 95580 95590 95600 95610 95620 95630 95640 95650 95660 95670 95680 95690 95700 95710 95720 95730 95740 95750 95760 95770 95780 95790 95800 95810 95820 95830 95840 95850 95860 95870 95880 95890 95900 95910 95920 95930 95940 95950 95960 95970 95980 95990 96000 96010 96020 96030 96040 96050 96060 96070 96080 96090 96100 96110 96120 96130 96140 96150 96160 96170 96180 96190 96200 96210 96220 96230 96240 96250 96260 96270 96280 96290 96300 96310 96320 96330 96340 96350 96360 96370 96380 96390 96400 96410 96420 96430 96440 96450 96460 96470 96480 96490 96500 96510 96520 96530 96540 96550 96560 96570 96580 96590 96600 96610 96620 96630 96640 96650 96660 96670 96680 96690 96700 96710 96720 96730 96740 96750 96760 96770 96780 96790 96800 96810 96820 96830 96840 96850 96860 96870 96880 96890 96900 96910 96920 96930 96940 96950 96960 96970 96980 96990 97000 97010 97020 97030 97040 97050 97060 97070 97080 97090 97100 97110 97120 97130 97140 97150 97160 97170 97180 97190 97200 97210 97220 97230 97240 97250 97260 97270 97280 97290 97300 97310 97320 97330 97340 97350 97360 97370 97380 97390 97400 97410 97420 97430 97440 97450 97460 97470 97480 97490 97500 97510 97520 97530 97540 97550 97560 97570 97580 97590 97600 97610 97620 97630 97640 97650 97660 97670 97680 97690 97700 97710 97720 97730 97740 97750 97760 97770 97780 97790 97800 97810 97820 97830 97840 97850 97860 97870 97880 97890 97900 97910 97920 97930 97940 97950 97960 97970 97980 97990 98000 98010 98020 98030 98040 98050 98060 98070 98080 98090 98100 98110 98120 98130 98140 98150 98160 98170 98180 98190 98200 98210 98220 98230 98240 98250 98260 98270 98280 98290 98300 98310 98320 98330 98340 98350 98360 98370 98380 98390 98400 98410 98420 98430 98440 98450 98460 98470 98480 98490 98500 98510 98520 98530 98540 98550 98560 98570 98580 98590 98600 98610 98620 98630 98640 98650 98660 98670 98680 98690 98700 98710 98720 98730 98740 98750 98760 98770 98780 98790 98800 98810 98820 98830 98840 98850 98860 98870 98880 98890 98900 98910 98920 98930 98940 98950 98960 98970 98980 98990 99000 99010 99020 99030 99040 99050 99060 99070 99080 99090 99100 99110 99120 99130 99140 99150 99160 99170 99180 99190 99200 99210 99220 99230 99240 99250 99260 99270 99280 99290 99300 99310 99320 99330 99340 99350 99360 99370 99380 99390 99400 99410 99420 99430 99440 99450 99460 99470 99480 99490 99500 99510 99520 99530 99540 99550 99560 99570 99580 99590 99600 99610 99620 99630 99640 99650 99660 99670 99680 99690 99700 99710 99720 99730 99740 99750 99760 99770 99780 99790 99800 99810 99820 99830 99840 99850 99860 99870 99880 99890 99900 99910 99920 99930 99940 99950 99960 99970 99980 99990 100000 100010 100020 100030 100040 100050 100060 100070 100080 100090 100100 100110 100120 100130 100140 100150 100160 100170 100180 100190 100200 100210 100220 100230 100240 100250 100260 100270 100280 100290 100300 100310 100320 100330 100340 100350 100360 100370 100380 100390 100400 100410 100420 100430 100440 100450 100460 100470 100480 100490 100500 100510 100520 100530 100540 100550 100560 100570 100580 100590 100600 100610 100620 100630 100640 100650 100660 100670 100680 100690 100700 100710 100720 100730 100740 100750 100760 100770 100780 100790 100800 100810 100820 100830 100840 100850 100860 100870 100880 100890 100900 100910 100920 100930 100940 100950 100960 100970 100980 100990 101000 101010 101020 101030 101040 101050 101060 101070 101080 101090 101100 101110 101120 101130 101140 101150 101160 101170 101180 101190 101200 101210 101220 101230 101240 101250 101260 101270 101280 101290 101300 101310 101320 101330 101340 101350 101360 101370 101380 101390 101400 101410 101420 101430 101440 101450 101460 101470 101480 101490 101500 101510 101520 101530 101540 101550 101560 101570 101580 101590 101600 101610 101620 101630 101640 101650 101660 101670 101680 101690 101700 101710 101720 101730 101740 101750 101760 101770 101780 101790 101800 101810 101820 101830 101840 101850 101860 101870 101880 101890 101900 101910 101920 101930 101940 101950 101960 101970 101980 101990 102000 102010 102020 102030 102040 102050 102060 102070 102080 102090 102100 102110 102120 102130 102140 102150 102160 102170 102180 102190 102200 102210 102220 102230 102240 102250 102260 102270 102280 102290 102300 102310 102320 102330 102340 102350 102360 102370 102380 102390 102400 102410 102420 102430 102440 102450 102460 102470 102480 102490 102500 102510 102520 102530 102540 102550 102560 102570 102580 102590 102600 102610 102620 102630 102640 102650 102660 102670 102680 102690 102700 102710 102720 102730 102740 102750 102760 102770 102780 102790 102800 102810 102820 102830 102840 102850 102860 102870 102880 102890 102900 102910 102920 102930 102940 102950 102960 102970 102980 102990 103000 103010 103020 103030 103040 103050 103060 103070 103080 103090 103100 103110 103120 103130 103140 103150 103160 103170 103180 103190 103200 103210 103220 103230 103240 103250 103260 103270 103280 103290 103300 103310 103320 103330 103340 103350 103360 103370 103380 103390 103400 103410 103420 103430 103440 103450 103460 103470 103480 103490 103500 103510 103520 103530 103540 103550 103560 103570 103580 103590 103600 103610 103620 103630 103640 103650 103660 103670 103680 103690 103700 103710 103720 103730 103740 103750 103760 103770 103780 103790 103800 103810 103820 103830 103840 103850 103860 103870 103880 103890 103900 103910 103920 103930 103940 103950 103960 103970 103980 103990 104000 104010 104020 104030 104040 104050 104060 104070 104080 104090 104100 104110 104120 104130 104140 104150 104160 104170 104180 104190 104200 104210 104220 104230 104240 104250 104260 104270 104280 104290 104300 104310 104320 104330 104340 104350 104360 104370 104380 104390 104400 104410 104420 104430 104440 104450 104460 104470 104480 104490 104500 104510 104520 104530 104540 104550 104560 104570 104580 104590 104600 104610 104620 104630 104640 104650 104660 104670 104680 104690 104700 104710 104720 104730 104740 104750 104760 104770 104780 104790 104800 104810 104820 104830 104840 104850 104860 104870 104880 104890 104900 104910 104920 104930 104940 104950 104960 104970 104980 104990 105000 105010 105020 105030 105040 105050 105060 105070 105080 105090 105100 105110 105120 105130 105140 105150 105160 105170 105180 105190 105200 105210 105220 105230 105240 105250 105260 105270 105280 105290 105300 105310 105320 105330 105340 105350 105360 105370 105380 105390 105400 105410 105420 105430 105440 105450 105460 105470 105480 105490 105500 105510 105520 105530 105540 105550 105560 105570 105580 105590 105600 105610 105620 105630 105640 105650 105660 105670 105680 105690 105700 105710 105720 105730 105740 105750 105760 105770 105780 105790 105800 105810 105820 105830 105840 105850 105860 105870 105880 105890 105900 105910 105920 105930 105940 105950 105960 105970 105980 105990 106000 106010 106020 106030 106040 106050 106060 106070 106080 106090 106100 106110 106120 106130 106140 106150 106160 106170 106180 106190 106200 106210 106220 106230 106240 106250 106260 106270 106280 106290 106300 106310 106320 106330 106340 106350 106360 106370 106380 106390 106400 106410 106420 106430 106440 106450 106460 106470 106480 106490 106500 106510 106520 106530 106540 106550 106560 106570 106580 106590 106600 106610 106620 106630 106640 106650 106660 106670 106680 106690 106700 106710 106720 106730 106740 106750 106760 106770 106780 106790 106800 106810 106820 106830 106840 106850 106860 106870 106880 106890 106900 106910 106920 106930 106940 106950 106960 106970 106980 106990 107000 107010 107020 107030 107040 107050 107060 107070 107080 107090 107100 107110 107120 107130 107140 107150 107160 107170 107180 107190 107200 107210 107220 107230 107240 107250 107260 107270 107280 107290 107300 107310 107320 107330 107340 107350 107360 107370 107380 107390 107400 107410 107420 107430 107440 107450 107460 107470 107480 107490 107500 107510 107520 107530 107540 107550 107560 107570 107580 107590 107600 107610 107620 107630 107640 107650 107660 107670 107680 107690 107700 107710 107720 107730 107740 107750 107760 107770 107780 107790 107800 107810 107820 107830 107840 107850 107860 107870 107880 107890 107900 107910 107920 107930 107940 107950 107960 107970 107980 107990 108000 108010 108020 108030 108040 108050 108060 108070 108080 108090 108100 108110 108120 108130 108140 108150 108160 108170 108180 108190 108200 108210 108220 108230 108240 108250 108260 108270 108280 108290 108300 108310 108320 108330 108340 108350 108360 108370 108380 108390 108400 108410 108420 108430 108440 108450 108460 108470 108480 108490 108500 108510 108520 108530 108540 108550 108560 108570 108580 108590 108600 108610 108620 108630 108640 108650 108660 108670 108680 108690 108700 108710 108720 108730 108740 108750 108760 108770 108780 108790 108800 108810 108820 108830 108840 108850 108860 108870 108880 108890 108900 108910 108920 108930 108940 108950 108960 108970 108980 108990 109000 109010 109020 109030 109040 109050 109060 109070 109080 109090 109100 109110 109120 109130 109140 109150 109160 109170 109180 109190 109200 109210 109220 109230 109240 109250 109260 109270 109280 109290 109300 109310 109320 109330 109340 109350 109360 109370 109380 109390 109400 109410 109420 109430 109440 109450 109460 109470 109480 109490 109500 109510 109520 109530 109540 109550 109560 109570 109580 109590 109600 109610 109620 109630 109640 109650 109660 109670 109680 109690 109700 109710 109720 109730 109740 109750 109760 109770 109780 109790 109800 109810 109820 109830 109840 109850 109860 109870 109880 109890 109900 109910 109920 109930 109940 109950 109960 109970 109980 109990 110000 110010 110020 110030 110040 110050 110060 110070 110080 110090 110100 110110 110120 110130 110140 110150 110160 110170 110180 110190 110200 110210 110220 110230 110240 110250 110260 110270 110280 110290 110300 110310 110320 110330 110340 110350 110360 110370 110380 110390 110400 110410 110420 110430 110440 110450 110460 110470 110480 110490 110500 110510 110520 110530 110540 110550 110560 110570 110580 110590 110600 110610 110620 110630 110640 110650 110660 110670 110680 110690 110700 110710 110720 110730 110740 110750 110760 110770 110780 110790 110800 110810 110820 110830 110840 110850 110860 110870 110880 110890 110900 110910 110920 110930 110940 110950 110960 110970 110980 110990 111000 111010 111020 111030 111040 111050 111060 111070 111080 111090 111100 111110 111120 111130 111140 111150 111160 111170 111180 111190 111200 111210 111220 111230 111240 111250 111260 111270 111280 111290 111300 111310 111320 111330 111340 111350 111360 111370 111380 111390 111400 111410 111420 111430 111440 111450 111460 111470 111480 111490 111500 111510 111520 111530 111540 111550 111560 111570 111580 111590 111600 111610 111620 111630 111640 111650 111660 111670 111680 111690 111700 111710 111720 111730 111740 111750 111760 111770 111780 111790 111800 111810 111820 111830 111840 111850 111860 111870 111880 111890 111900 111910 111920 111930 111940 111950 111960 111970 111980 111990 112000 112010 112020 112030 112040 112050 112060 112070 112080 112090 112100 112110 112120 112130 112140 112150 112160 112170 112180 112190 112200 112210 112220 112230 112240 112250 112260 112270 112280 112290 112300 112310 112320 112330 112340 112350 112360 112370 112380 112390 112400 112410 112420 112430 112440 112450 112460 112470 112480 112490 112500 112510 112520 112530 112540 112550 112560 112570 112580 112590 112600 112610 112620 112630 112640 112650 112660 112670 112680 112690 112700 112710 112720 112730 112740 112750 112760 112770 112780 112790 112800 112810 112820 112830 112840 112850 112860 112870 112880 112890 112900 112910 112920 112930 112940 112950 112960 112970 112980 112990 113000 113010 113020 113030 113040 113050 113060 113070 113080 113090 113100 113110 113120 113130 113140 113150 113160 113170 113180 113190 113200 113210 113220 113230 113240 113250 113260 113270 113280 113290 113300 113310 113320 113330 113340 113350 113360 113370 113380 113390 113400 113410 113420 113430 113440 113450 113460 113470 113480 113490 113500 113510 113520 113530 113540 113550 113560 113570 113580 113590 113600 113610 113620 113630 113640 113650 113660 113670 113680 113690 113700 113710 113720 113730 113740 113750 113760 113770 113780 113790 113800 113810 113820 113830 113840 113850 113860 113870 113880 113890 113900 113910 113920 113930 113940 113950 113960 113970 113980 113990 114000 114010 114020 114030 114040 114050 114060 114070 114080 114090 114100 114110 114120 114130 114140 114150 114160 114170 114180 114190 114200 114210 114220 114230 114240 114250 114260 114270 114280 114290 114300 114310 114320 114330 114340 114350 114360 114370 114380 114390 114400 114410 114420 114430 114440 114450 114460 114470 114480 114490 114500 114510 114520 114530 114540 114550 114560 114570 114580 114590 114600 114610 114620 114630 114640 114650 114660 114670 114680 114690 114700 114710 114720 114730 114740 114750 114760 114770 114780 114790 114800 114810 114820 114830 114840 114850 114860 114870 114880 114890 114900 114910 114920 114930 114940 114950 114960 114970 114980 114990 115000 115010 115020 115030 115040 115050 115060 115070 115080 115090 115100 115110 115120 115130 115140 115150 115160 115170 115180 115190 115200 115210 115220 115230 115240 115250 115260 115270 115280 115290 115300 115310 115320 115330 115340 115350 115360 115370 115380 115390 115400 115410 115420 115430 115440 115450 115460 115470 115480 115490 115500 115510 115520 115530 115540 115550 115560 115570 115580 115590 115600 115610 115620 115630 115640 115650 115660 115670 115680 115690 115700 115710 115720 115730 115740 115750 115760 115770 115780 115790 115800 115810 115820 115830 115840 115850 115860 115870 115880 115890 115900 115910 115920 115930 115940 115950 115960 115970 115980 115990 116000 116010 116020 116030 116040 116050 116060 116070 116080 116090 116100 116110 116120 116130 116140 116150 116160 116170 116180 116190 116200 116210 116220 116230 116240 116250 116260 116270 116280 116290 116300 116310 116320 116330 116340 116350 116360 116370 116380 116390 116400 116410 116420 116430 116440 116450 116460 116470 116480 116490 116500 116510 116520 116530 116540 116550 116560 116570 116580 116590 116600 116610 116620 116630 116640 116650 116660 116670 116680 116690 116700 116710 116720 116730 116740 116750 116760 116770 116780 116790 116800 116810 116820 116830 116840 116850 116860 116870 116880 116890 116900 116910 116920 116930 116940 116950 116960 116970 116980 116990 117000 117010 117020 117030 117040 117050 117060 117070 117080 117090 117100 117110 117120 117130 117140 117150 117160 117170 117180 117190 117200 117210 117220 117230 117240 117250 117260 117270 117280 117290 117300 117310 117320 117330 117340 117350 117360 117370 117380 117390 117400 117410 117420 117430 117440 117450 117460 117470 117480 117490 117500 117510 117520 117530 117540 117550 117560 117570 117580 117590 117600 117610 117620 117630 117640 117650 117660 117670 117680 117690 117700 117710 117720 117730 117740 117750 117760 117770 117780 117790 117800 117810 117820 117830 117840 117850 117860 117870 117880 117890 117900 117910 117920 117930 117940 117950 117960 117970 117980 117990 118000 118010 118020 118030 118040 118050 118060 118070 118080 118090 118100 118110 118120 118130 118140 118150 118160 118170 118180 118190 118200 118210 118220 118230 118240 118250 118260 118270 118280 118290 118300 118310 118320 118330 118340 118350 118360 118370 118380 118390 118400 118410 118420 118430 118440 118450 118460 118470 118480 118490 118500 118510 118520 118530 118540 118550 118560 118570 118580 118590 118600 118610 118620 118630 118640 118650 118660 118670 118680 118690 118700 118710 118720 118730 118740 118750 118760 118770 118780 118790 118800 118810 118820 118830 118840 118850 118860 118870 118880 118890 118900 118910 118920 118930 118940 118950 118960 118970 118980 118990 119000 119010 119020 119030 119040 119050 119060 119070 119080 119090 119100 119110 119120 119130 119140 119150 119160 119170 119180 119190 119200 119210 119220 119230 119240 119250 119260 119270 119280 119290 119300 119310 119320 119330 119340 119350 119360 119370 119380 119390 119400 119410 119420 119430 119440 119450 119460 119470 119480 119490 119500 119510 119520 119530 119540 119550 119560 119570 119580 119590 119600 119610 119620 119630 119640 119650 119660 119670 119680 119690 119700 119710 119720 119730 119740 119750 119760 119770 119780 119790 119800 119810 119820 119830 119840 119850 119860 119870 119880 119890 119900 119910 119920 119930 119940 119950 119960 119970 119980 119990 120000 120010 120020 120030 120040 120050 120060 120070 120080 120090 120100 120110 120120 120130 120140 120150 120160 120170 120180 120190 120200 120210 120220 120230 120240 120250 120260 120270 120280 120290 120300 120310 120320 120330 120340 120350 120360 120370 120380 120390 120400 120410 120420 120430 120440 120450 120460 120470 120480 120490 120500 120510 120520 120530 120540 120550 120560 120570 120580 120590 120600 120610 120620 120630 120640 120650 120660 120670 120680 120690 120700 120710 120720 120730 120740 120750 120760 120770 120780 120790 120800 120810 120820 120830 120840 120850 120860 120870 120880 120890 120900 120910 120920 120930 120940 120950 120960 120970 120980 120990 121000 121010 121020 121030 121040 121050 121060 121070 121080 121090 121100 121110 121120 121130 121140 121150 121160 121170 121180 121190 121200 121210 121220 121230 121240 121250 121260 121270 121280 121290 121300 121310 121320 121330 121340 121350 121360 121370 121380 121390 121400 121410 121420 121430 121440 121450 121460 121470 121480 121490 121500 121510 121520 121530 121540 121550 121560 121570 121580 121590 121600 121610 121620 121630 121640 121650 121660 121670 121680 121690 121700 121710 121720 121730 121740 121750 121760 121770 121780 121790 121800 121810 121820 121830 121840 121850 121860 121870 121880 121890 121900 121910 121920 121930 121940 121950 121960 121970 121980 121990 122000 122010 122020 122030 122040 122050 122060 122070 122080 122090 122100 122110 122120 122130 122140 122150 122160 122170 122180 122190 122200 122210 122220 122230 122240 122250 122260 122270 122280 122290 122300 122310 122320 122330 122340 122350 122360 122370 122380 122390 122400 122410 122420 122430 122440 122450 122460 122470 122480 122490 122500 122510 122520 122530 122540 122550 122560 122570 122580 122590 122600 122610 122620 122630 122640 122650 122660 122670 122680 122690 122700 122710 122720 122730 122740 122750 122760 122770 122780 122790 122800 122810 122820 122830 122840 122850 122860 122870 122880 
CONNECTIVITY vtktypeint64
0 33 331 34 2673 2674 2675 2676 2677 2678 
297 331 298 0 2679 2680 2681 2682 2675 2683 
0 33 330 331 2673 2684 2685 2675 2674 2686 
297 331 0 330 2679 2675 2682 2687 2686 2685 
298 0 331 1 2683 2675 2680 2688 2689 2690 
331 0 34 1 2675 2676 2678 2690 2689 2691 
1 34 332 35 2691 2692 2693 2694 2695 2696 
298 332 299 1 2697 2698 2699 2688 2693 2700 
1 34 331 332 2691 2678 2690 2693 2692 2701 
298 332 1 331 2697 2693 2688 2680 2701 2690 
299 1 332 2 2700 2693 2698 2702 2703 2704 
332 1 35 2 2693 2694 2696 2704 2703 2705 
2 35 333 36 2705 2706 2707 2708 2709 2710 
299 333 300 2 2711 2712 2713 2702 2707 2714 
2 35 332 333 2705 2696 2704 2707 2706 2715 
299 333 2 332 2711 2707 2702 2698 2715 2704 
300 2 333 3 2714 2707 2712 2716 2717 2718 
333 2 36 3 2707 2708 2710 2718 2717 2719 
3 36 334 37 2719 2720 2721 2722 2723 2724 
300 334 301 3 2725 2726 2727 2716 2721 2728 
3 36 333 334 2719 2710 2718 2721 2720 2729 
300 334 3 333 2725 2721 2716 2712 2729 2718 
301 3 334 4 2728 2721 2726 2730 2731 2732 
334 3 37 4 2721 2722 2724 2732 2731 2733 
4 37 335 38 2733 2734 2735 2736 2737 2738 
301 335 302 4 2739 2740 2741 2730 2735 2742 
4 37 334 335 2733 2724 2732 2735 2734 2743 
301 335 4 334 2739 2735 2730 2726 2743 2732 
302 4 335 5 2742 2735 2740 2744 2745 2746 
335 4 38 5 2735 2736 2738 2746 2745 2747 
5 38 336 39 2747 2748 2749 2750 2751 2752 
302 336 303 5 2753 2754 2755 2744 2749 2756 
5 38 335 336 2747 2738 2746 2749 2748 2757 
302 336 5 335 2753 2749 2744 2740 2757 2746 
303 5 336 6 2756 2749 2754 2758 2759 2760 
336 5 39 6 2749 2750 2752 2760 2759 2761 
6 39 337 40 2761 2762 2763 2764 2765 2766 
303 337 304 6 2767 2768 2769 2758 2763 2770 
6 39 336 337 2761 2752 2760 2763 2762 2771 
303 337 6 336 2767 2763 2758 2754 2771 2760 
304 6 337 7 2770 2763 2768 2772 2773 2774 
337 6 40 7 2763 2764 2766 2774 2773 2775 
7 40 338 41 2775 2776 2777 2778 2779 2780 
304 338 305 7 2781 2782 2783 2772 2777 2784 
7 40 337 338 2775 2766 2774 2777 2776 2785 
304 338 7 337 2781 2777 2772 2768 2785 2774 
305 7 338 8 2784 2777 2782 2786 2787 2788 
338 7 41 8 2777 2778 2780 2788 2787 2789 
8 41 339 42 2789 2790 2791 2792 2793 2794 
305 339 306 8 2795 2796 2797 2786 2791 2798 
8 41 338 339 2789 2780 2788 2791 2790 2799 
305 339 8 338 2795 2791 2786 2782 2799 2788 
306 8 339 9 2798 2791 2796 2800 2801 2802 
339 8 42 9 2791 2792 2794 2802 2801 2803 
9 42 340 43 2803 2804 2805 2806 2807 2808 
306 340 307 9 2809 2810 2811 2800 2805 2812 
9 42 339 340 2803 2794 2802 2805 2804 2813 
306 340 9 339 2809 2805 2800 2796 2813 2802 
307 9 340 10 2812 2805 2810 2814 2815 2816 
340 9 43 10 2805 2806 2808 2816 2815 2817 
10 43 341 44 2817 2818 2819 2820 2821 2822 
307 341 308 10 2823 2824 2825 2814 2819 2826 
10 43 340 341 2817 2808 2816 2819 2818 2827 
307 341 10 340 2823 2819 2814 2810 2827 2816 
308 10 341 11 2826 2819 2824 2828 2829 2830 
341 10 44 11 2819 2820 2822 2830 2829 2831 
11 44 342 45 2831 2832 2833 2834 2835 2836 
308 342 309 11 2837 2838 2839 2828 2833 2840 
11 44 341 342 2831 2822 2830 2833 2832 2841 
308 342 11 341 2837 2833 2828 2824 2841 2830 
309 11 342 12 2840 2833 2838 2842 2843 2844 
342 11 45 12 2833 2834 2836 2844 2843 2845 
12 45 343 46 2845 2846 2847 2848 2849 2850 
309 343 310 12 2851 2852 2853 2842 2847 2854 
12 45 342 343 2845 2836 2844 2847 2846 2855 
309 343 12 342 2851 2847 2842 2838 2855 2844 
310 12 343 13 2854 2847 2852 2856 2857 2858 
343 12 46 13 2847 2848 2850 2858 2857 2859 
13 46 344 47 2859 2860 2861 2862 2863 2864 
310 344 311 13 2865 2866 2867 2856 2861 2868 
13 46 343 344 2859 2850 2858 2861 2860 2869 
310 344 13 343 2865 2861 2856 2852 2869 2858 
311 13 344 14 2868 2861 2866 2870 2871 2872 
344 13 47 14 2861 2862 2864 2872 2871 2873 
14 47 345 48 2873 2874 2875 2876 2877 2878 
311 345 312 14 2879 2880 2881 2870 2875 2882 
14 47 344 345 2873 2864 2872 2875 2874 2883 
311 345 14 344 2879 2875 2870 2866 2883 2872 
312 14 345 15 2882 2875 2880 2884 2885 2886 
345 14 48 15 2875 2876 2878 2886 2885 2887 
15 48 346 49 2887 2888 2889 2890 2891 2892 
312 346 313 15 2893 2894 2895 2884 2889 2896 
15 48 345 346 2887 2878 2886 2889 2888 2897 
312 346 15 345 2893 2889 2884 2880 2897 2886 
313 15 346 16 2896 2889 2894 2898 2899 2900 
346 15 49 16 2889 2890 2892 2900 2899 2901 
16 49 347 50 2901 2902 2903 2904 2905 2906 
313 347 314 16 2907 2908 2909 2898 2903 2910 
16 49 346 347 2901 2892 2900 2903 2902 2911 
313 347 16 346 2907 2903 2898 2894 2911 2900 
314 16 347 17 2910 2903 2908 2912 2913 2914 
347 16 50 17 2903 2904 2906 2914 2913 2915 
17 50 348 51 2915 2916 2917 2918 2919 2920 
314 348 315 17 2921 2922 2923 2912 2917 2924 
17 50 347 348 2915 2906 2914 2917 2916 2925 
314 348 17 347 2921 2917 2912 2908 2925 2914 
315 17 348 18 2924 2917 2922 2926 2927 2928 
348 17 51 18 2917 2918 2920 2928 2927 2929 
18 51 349 52 2929 2930 2931 2932 2933 2934 
315 349 316 18 2935 2936 2937 2926 2931 2938 
18 51 348 349 2929 2920 2928 2931 2930 2939 
315 349 18 348 2935 2931 2926 2922 2939 2928 
316 18 349 19 2938 2931 2936 2940 2941 2942 
349 18 52 19 2931 2932 2934 2942 2941 2943 
19 52 350 53 2943 2944 2945 2946 2947 2948 
316 350 317 19 2949 2950 2951 2940 2945 2952 
19 52 349 350 2943 2934 2942 2945 2944 2953 
316 350 19 349 2949 2945 2940 2936 2953 2942 
317 19 350 20 2952 2945 2950 2954 2955 2956 
350 19 53 20 2945 2946 2948 2956 2955 2957 
20 53 351 54 2957 2958 2959 2960 2961 2962 
317 351 318 20 2963 2964 2965 2954 2959 2966 
20 53 350 351 2957 2948 2956 2959 2958 2967 
317 351 20 350 2963 2959 2954 2950 2967 2956 
318 20 351 21 2966 2959 2964 2968 2969 2970 
351 20 54 21 2959 2960 2962 2970 2969 2971 
21 54 352 55 2971 2972 2973 2974 2975 2976 
318 352 319 21 2977 2978 2979 2968 2973 2980 
21 54 351 352 2971 2962 2970 2973 2972 2981 
318 352 21 351 2977 2973 2968 2964 2981 2970 
319 21 352 22 2980 2973 2978 2982 2983 2984 
352 21 55 22 2973 2974 2976 2984 2983 2985 
22 55 353 56 2985 2986 2987 2988 2989 2990 
319 353 320 22 2991 2992 2993 2982 2987 2994 
22 55 352 353 2985 2976 2984 2987 2986 2995 
319 353 22 352 2991 2987 2982 2978 2995 2984 
320 22 353 23 2994 2987 2992 2996 2997 2998 
353 22 56 23 2987 2988 2990 2998 2997 2999 
23 56 354 57 2999 3000 3001 3002 3003 3004 
320 354 321 23 3005 3006 3007 2996 3001 3008 
23 56 353 354 2999 2990 2998 3001 3000 3009 
320 354 23 353 3005 3001 2996 2992 3009 2998 
321 23 354 24 3008 3001 3006 3010 3011 3012 
354 23 57 24 3001 3002 3004 3012 3011 3013 
24 57 355 58 3013 3014 3015 3016 3017 3018 
321 355 322 24 3019 3020 3021 3010 3015 3022 
24 57 354 355 3013 3004 3012 3015 3014 3023 
321 355 24 354 3019 3015 3010 3006 3023 3012 
322 24 355 25 3022 3015 3020 3024 3025 3026 
355 24 58 25 3015 3016 3018 3026 3025 3027 
25 58 356 59 3027 3028 3029 3030 3031 3032 
322 356 323 25 3033 3034 3035 3024 3029 3036 
25 58 355 356 3027 3018 3026 3029 3028 3037 
322 356 25 355 3033 3029 3024 3020 3037 3026 
323 25 356 26 3036 3029 3034 3038 3039 3040 
356 25 59 26 3029 3030 3032 3040 3039 3041 
26 59 357 60 3041 3042 3043 3044 3045 3046 
323 357 324 26 3047 3048 3049 3038 3043 3050 
26 59 356 357 3041 3032 3040 3043 3042 3051 
323 357 26 356 3047 3043 3038 3034 3051 3040 
324 26 357 27 3050 3043 3048 3052 3053 3054 
357 26 60 27 3043 3044 3046 3054 3053 3055 
27 60 358 61 3055 3056 3057 3058 3059 3060 
324 358 325 27 3061 3062 3063 3052 3057 3064 
27 60 357 358 3055 3046 3054 3057 3056 3065 
324 358 27 357 3061 3057 3052 3048 3065 3054 
325 27 358 28 3064 3057 3062 3066 3067 3068 
358 27 61 28 3057 3058 3060 3068 3067 3069 
28 61 359 62 3069 3070 3071 3072 3073 3074 
325 359 326 28 3075 3076 3077 3066 3071 3078 
28 61 358 359 3069 3060 3068 3071 3070 3079 
325 359 28 358 3075 3071 3066 3062 3079 3068 
326 28 359 29 3078 3071 3076 3080 3081 3082 
359 28 62 29 3071 3072 3074 3082 3081 3083 
29 62 360 63 3083 3084 3085 3086 3087 3088 
326 360 327 29 3089 3090 3091 3080 3085 3092 
29 62 359 360 3083 3074 3082 3085 3084 3093 
326 360 29 359 3089 3085 3080 3076 3093 3082 
327 29 360 30 3092 3085 3090 3094 3095 3096 
360 29 63 30 3085 3086 3088 3096 3095 3097 
30 63 361 64 3097 3098 3099 3100 3101 3102 
327 361 328 30 3103 3104 3105 3094 3099 3106 
30 63 360 361 3097 3088 3096 3099 3098 3107 
327 361 30 360 3103 3099 3094 3090 3107 3096 
328 30 361 31 3106 3099 3104 3108 3109 3110 
361 30 64 31 3099 3100 3102 3110 3109 3111 
31 64 362 65 3111 3112 3113 3114 3115 3116 
328 362 329 31 3117 3118 3119 3108 3113 3120 
31 64 361 362 3111 3102 3110 3113 3112 3121 
328 362 31 361 3117 3113 3108 3104 3121 3110 
329 31 362 32 3120 3113 3118 3122 3123 3124 
362 31 65 32 3113 3114 3116 3124 3123 3125 
33 66 364 67 3126 3127 3128 3129 3130 3131 
330 364 331 33 3132 3133 2686 2684 3128 2674 
33 66 363 364 3126 3134 3135 3128 3127 3136 
330 364 33 363 3132 3128 2684 3137 3136 3135 
331 33 364 34 2674 3128 3133 2678 2677 3138 
364 33 67 34 3128 3129 3131 3138 2677 3139 
34 67 365 68 3139 3140 3141 3142 3143 3144 
331 365 332 34 3145 3146 2701 2678 3141 2692 
34 67 364 365 3139 3131 3138 3141 3140 3147 
331 365 34 364 3145 3141 2678 3133 3147 3138 
332 34 365 35 2692 3141 3146 2696 2695 3148 
365 34 68 35 3141 3142 3144 3148 2695 3149 
35 68 366 69 3149 3150 3151 3152 3153 3154 
332 366 333 35 3155 3156 2715 2696 3151 2706 
35 68 365 366 3149 3144 3148 3151 3150 3157 
332 366 35 365 3155 3151 2696 3146 3157 3148 
333 35 366 36 2706 3151 3156 2710 2709 3158 
366 35 69 36 3151 3152 3154 3158 2709 3159 
36 69 367 70 3159 3160 3161 3162 3163 3164 
333 367 334 36 3165 3166 2729 2710 3161 2720 
36 69 366 367 3159 3154 3158 3161 3160 3167 
333 367 36 366 3165 3161 2710 3156 3167 3158 
334 36 367 37 2720 3161 3166 2724 2723 3168 
367 36 70 37 3161 3162 3164 3168 2723 3169 
37 70 368 71 3169 3170 3171 3172 3173 3174 
334 368 335 37 3175 3176 2743 2724 3171 2734 
37 70 367 368 3169 3164 3168 3171 3170 3177 
334 368 37 367 3175 3171 2724 3166 3177 3168 
335 37 368 38 2734 3171 3176 2738 2737 3178 
368 37 71 38 3171 3172 3174 3178 2737 3179 
38 71 369 72 3179 3180 3181 3182 3183 3184 
335 369 336 38 3185 3186 2757 2738 3181 2748 
38 71 368 369 3179 3174 3178 3181 3180 3187 
335 369 38 368 3185 3181 2738 3176 3187 3178 
336 38 369 39 2748 3181 3186 2752 2751 3188 
369 38 72 39 3181 3182 3184 3188 2751 3189 
39 72 370 73 3189 3190 3191 3192 3193 3194 
336 370 337 39 3195 3196 2771 2752 3191 2762 
39 72 369 370 3189 3184 3188 3191 3190 3197 
336 370 39 369 3195 3191 2752 3186 3197 3188 
337 39 370 40 2762 3191 3196 2766 2765 3198 
370 39 73 40 3191 3192 3194 3198 2765 3199 
40 73 371 74 3199 3200 3201 3202 3203 3204 
337 371 338 40 3205 3206 2785 2766 3201 2776 
40 73 370 371 3199 3194 3198 3201 3200 3207 
337 371 40 370 3205 3201 2766 3196 3207 3198 
338 40 371 41 2776 3201 3206 2780 2779 3208 
371 40 74 41 3201 3202 3204 3208 2779 3209 
41 74 372 75 3209 3210 3211 3212 3213 3214 
338 372 339 41 3215 3216 2799 2780 3211 2790 
41 74 371 372 3209 3204 3208 3211 3210 3217 
338 372 41 371 3215 3211 2780 3206 3217 3208 
339 41 372 42 2790 3211 3216 2794 2793 3218 
372 41 75 42 3211 3212 3214 3218 2793 3219 
42 75 373 76 3219 3220 3221 3222 3223 3224 
339 373 340 42 3225 3226 2813 2794 3221 2804 
42 75 372 373 3219 3214 3218 3221 3220 3227 
339 373 42 372 3225 3221 2794 3216 3227 3218 
340 42 373 43 2804 3221 3226 2808 2807 3228 
373 42 76 43 3221 3222 3224 3228 2807 3229 
43 76 374 77 3229 3230 3231 3232 3233 3234 
340 374 341 43 3235 3236 2827 2808 3231 2818 
43 76 373 374 3229 3224 3228 3231 3230 3237 
340 374 43 373 3235 3231 2808 3226 3237 3228 
341 43 374 44 2818 3231 3236 2822 2821 3238 
374 43 77 44 3231 3232 3234 3238 2821 3239 
44 77 375 78 3239 3240 3241 3242 3243 3244 
341 375 342 44 3245 3246 2841 2822 3241 2832 
44 77 374 375 3239 3234 3238 3241 3240 3247 
341 375 44 374 3245 3241 2822 3236 3247 3238 
342 44 375 45 2832 3241 3246 2836 2835 3248 
375 44 78 45 3241 3242 3244 3248 2835 3249 
45 78 376 79 3249 3250 3251 3252 3253 3254 
342 376 343 45 3255 3256 2855 2836 3251 2846 
45 78 375 376 3249 3244 3248 3251 3250 3257 
342 376 45 375 3255 3251 2836 3246 3257 3248 
343 45 376 46 2846 3251 3256 2850 2849 3258 
376 45 79 46 3251 3252 3254 3258 2849 3259 
46 79 377 80 3259 3260 3261 3262 3263 3264 
343 377 344 46 3265 3266 2869 2850 3261 2860 
46 79 376 377 3259 3254 3258 3261 3260 3267 
343 377 46 376 3265 3261 2850 3256 3267 3258 
344 46 377 47 2860 3261 3266 2864 2863 3268 
377 46 80 47 3261 3262 3264 3268 2863 3269 
47 80 378 81 3269 3270 3271 3272 3273 3274 
344 378 345 47 3275 3276 2883 2864 3271 2874 
47 80 377 378 3269 3264 3268 3271 3270 3277 
344 378 47 377 3275 3271 2864 3266 3277 3268 
345 47 378 48 2874 3271 3276 2878 2877 3278 
378 47 81 48 3271 3272 3274 3278 2877 3279 
48 81 379 82 3279 3280 3281 3282 3283 3284 
345 379 346 48 3285 3286 2897 2878 3281 2888 
48 81 378 379 3279 3274 3278 3281 3280 3287 
345 379 48 378 3285 3281 2878 3276 3287 3278 
346 48 379 49 2888 3281 3286 2892 2891 3288 
379 48 82 49 3281 3282 3284 3288 2891 3289 
49 82 380 83 3289 3290 3291 3292 3293 3294 
346 380 347 49 3295 3296 2911 2892 3291 2902 
49 82 379 380 3289 3284 3288 3291 3290 3297 
346 380 49 379 3295 3291 2892 3286 3297 3288 
347 49 380 50 2902 3291 3296 2906 2905 3298 
380 49 83 50 3291 3292 3294 3298 2905 3299 
50 83 381 84 3299 3300 3301 3302 3303 3304 
347 381 348 50 3305 3306 2925 2906 3301 2916 
50 83 380 381 3299 3294 3298 3301 3300 3307 
347 381 50 380 3305 3301 2906 3296 3307 3298 
348 50 381 51 2916 3301 3306 2920 2919 3308 
381 50 84 51 3301 3302 3304 3308 2919 3309 
51 84 382 85 3309 3310 3311 3312 3313 3314 
348 382 349 51 3315 3316 2939 2920 3311 2930 
51 84 381 382 3309 3304 3308 3311 3310 3317 
348 382 51 381 3315 3311 2920 3306 3317 3308 
349 51 382 52 2930 3311 3316 2934 2933 3318 
382 51 85 52 3311 3312 3314 3318 2933 3319 
52 85 383 86 3319 3320 3321 3322 3323 3324 
349 383 350 52 3325 3326 2953 2934 3321 2944 
52 85 382 383 3319 3314 3318 3321 3320 3327 
349 383 52 382 3325 3321 2934 3316 3327 3318 
350 52 383 53 2944 3321 3326 2948 2947 3328 
383 52 86 53 3321 3322 3324 3328 2947 3329 
53 86 384 87 3329 3330 3331 3332 3333 3334 
350 384 351 53 3335 3336 2967 2948 3331 2958 
53 86 383 384 3329 3324 3328 3331 3330 3337 
350 384 53 383 3335 3331 2948 3326 3337 3328 
351 53 384 54 2958 3331 3336 2962 2961 3338 
384 53 87 54 3331 3332 3334 3338 2961 3339 
54 87 385 88 3339 3340 3341 3342 3343 3344 
351 385 352 54 3345 3346 2981 2962 3341 2972 
54 87 384 385 3339 3334 3338 3341 3340 3347 
351 385 54 384 3345 3341 2962 3336 3347 3338 
352 54 385 55 2972 3341 3346 2976 2975 3348 
385 54 88 55 3341 3342 3344 3348 2975 3349 
55 88 386 89 3349 3350 3351 3352 3353 3354 
352 386 353 55 3355 3356 2995 2976 3351 2986 
55 88 385 386 3349 3344 3348 3351 3350 3357 
352 386 55 385 3355 3351 2976 3346 3357 3348 
353 55 386 56 2986 3351 3356 2990 2989 3358 
386 55 89 56 3351 3352 3354 3358 2989 3359 
56 89 387 90 3359 3360 3361 3362 3363 3364 
353 387 354 56 3365 3366 3009 2990 3361 3000 
56 89 386 387 3359 3354 3358 3361 3360 3367 
353 387 56 386 3365 3361 2990 3356 3367 3358 
354 56 387 57 3000 3361 3366 3004 3003 3368 
387 56 90 57 3361 3362 3364 3368 3003 3369 
57 90 388 91 3369 3370 3371 3372 3373 3374 
354 388 355 57 3375 3376 3023 3004 3371 3014 
57 90 387 388 3369 3364 3368 3371 3370 3377 
354 388 57 387 3375 3371 3004 3366 3377 3368 
355 57 388 58 3014 3371 3376 3018 3017 3378 
388 57 91 58 3371 3372 3374 3378 3017 3379 
58 91 389 92 3379 3380 3381 3382 3383 3384 
355 389 356 58 3385 3386 3037 3018 3381 3028 
58 91 388 389 3379 3374 3378 3381 3380 3387 
355 389 58 388 3385 3381 3018 3376 3387 3378 
356 58 389 59 3028 3381 3386 3032 3031 3388 
389 58 92 59 3381 3382 3384 3388 3031 3389 
59 92 390 93 3389 3390 3391 3392 3393 3394 
356 390 357 59 3395 3396 3051 3032 3391 3042 
59 92 389 390 3389 3384 3388 3391 3390 3397 
356 390 59 389 3395 3391 3032 3386 3397 3388 
357 59 390 60 3042 3391 3396 3046 3045 3398 
390 59 93 60 3391 3392 3394 3398 3045 3399 
60 93 391 94 3399 3400 3401 3402 3403 3404 
357 391 358 60 3405 3406 3065 3046 3401 3056 
60 93 390 391 3399 3394 3398 3401 3400 3407 
357 391 60 390 3405 3401 3046 3396 3407 3398 
358 60 391 61 3056 3401 3406 3060 3059 3408 
391 60 94 61 3401 3402 3404 3408 3059 3409 
61 94 392 95 3409 3410 3411 3412 3413 3414 
358 392 359 61 3415 3416 3079 3060 3411 3070 
61 94 391 392 3409 3404 3408 3411 3410 3417 
358 392 61 391 3415 3411 3060 3406 3417 3408 
359 61 392 62 3070 3411 3416 3074 3073 3418 
392 61 95 62 3411 3412 3414 3418 3073 3419 
62 95 393 96 3419 3420 3421 3422 3423 3424 
359 393 360 62 3425 3426 3093 3074 3421 3084 
62 95 392 393 3419 3414 3418 3421 3420 3427 
359 393 62 392 3425 3421 3074 3416 3427 3418 
360 62 393 63 3084 3421 3426 3088 3087 3428 
393 62 96 63 3421 3422 3424 3428 3087 3429 
63 96 394 97 3429 3430 3431 3432 3433 3434 
360 394 361 63 3435 3436 3107 3088 3431 3098 
63 96 393 394 3429 3424 3428 3431 3430 3437 
360 394 63 393 3435 3431 3088 3426 3437 3428 
361 63 394 64 3098 3431 3436 3102 3101 3438 
394 63 97 64 3431 3432 3434 3438 3101 3439 
64 97 395 98 3439 3440 3441 3442 3443 3444 
361 395 362 64 3445 3446 3121 3102 3441 3112 
64 97 394 395 3439 3434 3438 3441 3440 3447 
361 395 64 394 3445 3441 3102 3436 3447 3438 
362 64 395 65 3112 3441 3446 3116 3115 3448 
395 64 98 65 3441 3442 3444 3448 3115 3449 
66 99 397 100 3450 3451 3452 3453 3454 3455 
363 397 364 66 3456 3457 3136 3134 3452 3127 
66 99 396 397 3450 3458 3459 3452 3451 3460 
363 397 66 396 3456 3452 3134 3461 3460 3459 
364 66 397 67 3127 3452 3457 3131 3130 3462 
397 66 100 67 3452 3453 3455 3462 3130 3463 
67 100 398 101 3463 3464 3465 3466 3467 3468 
364 398 365 67 3469 3470 3147 3131 3465 3140 
67 100 397 398 3463 3455 3462 3465 3464 3471 
364 398 67 397 3469 3465 3131 3457 3471 3462 
365 67 398 68 3140 3465 3470 3144 3143 3472 
398 67 101 68 3465 3466 3468 3472 3143 3473 
68 101 399 102 3473 3474 3475 3476 3477 3478 
365 399 366 68 3479 3480 3157 3144 3475 3150 
68 101 398 399 3473 3468 3472 3475 3474 3481 
365 399 68 398 3479 3475 3144 3470 3481 3472 
366 68 399 69 3150 3475 3480 3154 3153 3482 
399 68 102 69 3475 3476 3478 3482 3153 3483 
69 102 400 103 3483 3484 3485 3486 3487 3488 
366 400 367 69 3489 3490 3167 3154 3485 3160 
69 102 399 400 3483 3478 3482 3485 3484 3491 
366 400 69 399 3489 3485 3154 3480 3491 3482 
367 69 400 70 3160 3485 3490 3164 3163 3492 
400 69 103 70 3485 3486 3488 3492 3163 3493 
70 103 401 104 3493 3494 3495 3496 3497 3498 
367 401 368 70 3499 3500 3177 3164 3495 3170 
70 103 400 401 3493 3488 3492 3495 3494 3501 
367 401 70 400 3499 3495 3164 3490 3501 3492 
368 70 401 71 3170 3495 3500 3174 3173 3502 
401 70 104 71 3495 3496 3498 3502 3173 3503 
71 104 402 105 3503 3504 3505 3506 3507 3508 
368 402 369 71 3509 3510 3187 3174 3505 3180 
71 104 401 402 3503 3498 3502 3505 3504 3511 
368 402 71 401 3509 3505 3174 3500 3511 3502 
369 71 402 72 3180 3505 3510 3184 3183 3512 
402 71 105 72 3505 3506 3508 3512 3183 3513 
72 105 403 106 3513 3514 3515 3516 3517 3518 
369 403 370 72 3519 3520 3197 3184 3515 3190 
72 105 402 403 3513 3508 3512 3515 3514 3521 
369 403 72 402 3519 3515 3184 3510 3521 3512 
370 72 403 73 3190 3515 3520 3194 3193 3522 
403 72 106 73 3515 3516 3518 3522 3193 3523 
73 106 404 107 3523 3524 3525 3526 3527 3528 
370 404 371 73 3529 3530 3207 3194 3525 3200 
73 106 403 404 3523 3518 3522 3525 3524 3531 
370 404 73 403 3529 3525 3194 3520 3531 3522 
371 73 404 74 3200 3525 3530 3204 3203 3532 
404 73 107 74 3525 3526 3528 3532 3203 3533 
74 107 405 108 3533 3534 3535 3536 3537 3538 
371 405 372 74 3539 3540 3217 3204 3535 3210 
74 107 404 405 3533 3528 3532 3535 3534 3541 
371 405 74 404 3539 3535 3204 3530 3541 3532 
372 74 405 75 3210 3535 3540 3214 3213 3542 
405 74 108 75 3535 3536 3538 3542 3213 3543 
75 108 406 109 3543 3544 3545 3546 3547 3548 
372 406 373 75 3549 3550 3227 3214 3545 3220 
75 108 405 406 3543 3538 3542 3545 3544 3551 
372 406 75 405 3549 3545 3214 3540 3551 3542 
373 75 406 76 3220 3545 3550 3224 3223 3552 
406 75 109 76 3545 3546 3548 3552 3223 3553 
76 109 407 110 3553 3554 3555 3556 3557 3558 
373 407 374 76 3559 3560 3237 3224 3555 3230 
76 109 406 407 3553 3548 3552 3555 3554 3561 
373 407 76 406 3559 3555 3224 3550 3561 3552 
374 76 407 77 3230 3555 3560 3234 3233 3562 
407 76 110 77 3555 3556 3558 3562 3233 3563 
77 110 408 111 3563 3564 3565 3566 3567 3568 
374 408 375 77 3569 3570 3247 3234 3565 3240 
77 110 407 408 3563 3558 3562 3565 3564 3571 
374 408 77 407 3569 3565 3234 3560 3571 3562 
375 77 408 78 3240 3565 3570 3244 3243 3572 
408 77 111 78 3565 3566 3568 3572 3243 3573 
78 111 409 112 3573 3574 3575 3576 3577 3578 
375 409 376 78 3579 3580 3257 3244 3575 3250 
78 111 408 409 3573 3568 3572 3575 3574 3581 
375 409 78 408 3579 3575 3244 3570 3581 3572 
376 78 409 79 3250 3575 3580 3254 3253 3582 
409 78 112 79 3575 3576 3578 3582 3253 3583 
79 112 410 113 3583 3584 3585 3586 3587 3588 
376 410 377 79 3589 3590 3267 3254 3585 3260 
79 112 409 410 3583 3578 3582 3585 3584 3591 
376 410 79 409 3589 3585 3254 3580 3591 3582 
377 79 410 80 3260 3585 3590 3264 3263 3592 
410 79 113 80 3585 3586 3588 3592 3263 3593 
80 113 411 114 3593 3594 3595 3596 3597 3598 
377 411 378 80 3599 3600 3277 3264 3595 3270 
80 113 410 411 3593 3588 3592 3595 3594 3601 
377 411 80 410 3599 3595 3264 3590 3601 3592 
378 80 411 81 3270 3595 3600 3274 3273 3602 
411 80 114 81 3595 3596 3598 3602 3273 3603 
81 114 412 115 3603 3604 3605 3606 3607 3608 
378 412 379 81 3609 3610 3287 3274 3605 3280 
81 114 411 412 3603 3598 3602 3605 3604 3611 
378 412 81 411 3609 3605 3274 3600 3611 3602 
379 81 412 82 3280 3605 3610 3284 3283 3612 
412 81 115 82 3605 3606 3608 3612 3283 3613 
82 115 413 116 3613 3614 3615 3616 3617 3618 
379 413 380 82 3619 3620 3297 3284 3615 3290 
82 115 412 413 3613 3608 3612 3615 3614 3621 
379 413 82 412 3619 3615 3284 3610 3621 3612 
380 82 413 83 3290 3615 3620 3294 3293 3622 
413 82 116 83 3615 3616 3618 3622 3293 3623 
83 116 414 117 3623 3624 3625 3626 3627 3628 
380 414 381 83 3629 3630 3307 3294 3625 3300 
83 116 413 414 3623 3618 3622 3625 3624 3631 
380 414 83 413 3629 3625 3294 3620 3631 3622 
381 83 414 84 3300 3625 3630 3304 3303 3632 
414 83 117 84 3625 3626 3628 3632 3303 3633 
84 117 415 118 3633 3634 3635 3636 3637 3638 
381 415 382 84 3639 3640 3317 3304 3635 3310 
84 117 414 415 3633 3628 3632 3635 3634 3641 
381 415 84 414 3639 3635 3304 3630 3641 3632 
382 84 415 85 3310 3635 3640 3314 3313 3642 
415 84 118 85 3635 3636 3638 3642 3313 3643 
85 118 416 119 3643 3644 3645 3646 3647 3648 
382 416 383 85 3649 3650 3327 3314 3645 3320 
85 118 415 416 3643 3638 3642 3645 3644 3651 
382 416 85 415 3649 3645 3314 3640 3651 3642 
383 85 416 86 3320 3645 3650 3324 3323 3652 
416 85 119 86 3645 3646 3648 3652 3323 3653 
86 119 417 120 3653 3654 3655 3656 3657 3658 
383 417 384 86 3659 3660 3337 3324 3655 3330 
86 119 416 417 3653 3648 3652 3655 3654 3661 
383 417 86 416 3659 3655 3324 3650 3661 3652 
384 86 417 87 3330 3655 3660 3334 3333 3662 
417 86 120 87 3655 3656 3658 3662 3333 3663 
87 120 418 121 3663 3664 3665 3666 3667 3668 
384 418 385 87 3669 3670 3347 3334 3665 3340 
87 120 417 418 3663 3658 3662 3665 3664 3671 
384 418 87 417 3669 3665 3334 3660 3671 3662 
385 87 418 88 3340 3665 3670 3344 3343 3672 
418 87 121 88 3665 3666 3668 3672 3343 3673 
88 121 419 122 3673 3674 3675 3676 3677 3678 
385 419 386 88 3679 3680 3357 3344 3675 3350 
88 121 418 419 3673 3668 3672 3675 3674 3681 
385 419 88 418 3679 3675 3344 3670 3681 3672 
386 88 419 89 3350 3675 3680 3354 3353 3682 
419 88 122 89 3675 3676 3678 3682 3353 3683 
89 122 420 123 3683 3684 3685 3686 3687 3688 
386 420 387 89 3689 3690 3367 3354 3685 3360 
89 122 419 420 3683 3678 3682 3685 3684 3691 
386 420 89 419 3689 3685 3354 3680 3691 3682 
387 89 420 90 3360 3685 3690 3364 3363 3692 
420 89 123 90 3685 3686 3688 3692 3363 3693 
90 123 421 124 3693 3694 3695 3696 3697 3698 
387 421 388 90 3699 3700 3377 3364 3695 3370 
90 123 420 421 3693 3688 3692 3695 3694 3701 
387 421 90 420 3699 3695 3364 3690 3701 3692 
388 90 421 91 3370 3695 3700 3374 3373 3702 
421 90 124 91 3695 3696 3698 3702 3373 3703 
91 124 422 125 3703 3704 3705 3706 3707 3708 
388 422 389 91 3709 3710 3387 3374 3705 3380 
91 124 421 422 3703 3698 3702 3705 3704 3711 
388 422 91 421 3709 3705 3374 3700 3711 3702 
389 91 422 92 3380 3705 3710 3384 3383 3712 
422 91 125 92 3705 3706 3708 3712 3383 3713 
92 125 423 126 3713 3714 3715 3716 3717 3718 
389 423 390 92 3719 3720 3397 3384 3715 3390 
92 125 422 423 3713 3708 3712 3715 3714 3721 
389 423 92 422 3719 3715 3384 3710 3721 3712 
390 92 423 93 3390 3715 3720 3394 3393 3722 
423 92 126 93 3715 3716 3718 3722 3393 3723 
93 126 424 127 3723 3724 3725 3726 3727 3728 
390 424 391 93 3729 3730 3407 3394 3725 3400 
93 126 423 424 3723 3718 3722 3725 3724 3731 
390 424 93 423 3729 3725 3394 3720 3731 3722 
391 93 424 94 3400 3725 3730 3404 3403 3732 
424 93 127 94 3725 3726 3728 3732 3403 3733 
94 127 425 128 3733 3734 3735 3736 3737 3738 
391 425 392 94 3739 3740 3417 3404 3735 3410 
94 127 424 425 3733 3728 3732 3735 3734 3741 
391 425 94 424 3739 3735 3404 3730 3741 3732 
392 94 425 95 3410 3735 3740 3414 3413 3742 
425 94 128 95 3735 3736 3738 3742 3413 3743 
95 128 426 129 3743 3744 3745 3746 3747 3748 
392 426 393 95 3749 3750 3427 3414 3745 3420 
95 128 425 426 3743 3738 3742 3745 3744 3751 
392 426 95 425 3749 3745 3414 3740 3751 3742 
393 95 426 96 3420 3745 3750 3424 3423 3752 
426 95 129 96 3745 3746 3748 3752 3423 3753 
96 129 427 130 3753 3754 3755 3756 3757 3758 
393 427 394 96 3759 3760 3437 3424 3755 3430 
96 129 426 427 3753 3748 3752 3755 3754 3761 
393 427 96 426 3759 3755 3424 3750 3761 3752 
394 96 427 97 3430 3755 3760 3434 3433 3762 
427 96 130 97 3755 3756 3758 3762 3433 3763 
97 130 428 131 3763 3764 3765 3766 3767 3768 
394 428 395 97 3769 3770 3447 3434 3765 3440 
97 130 427 428 3763 3758 3762 3765 3764 3771 
394 428 97 427 3769 3765 3434 3760 3771 3762 
395 97 428 98 3440 3765 3770 3444 3443 3772 
428 97 131 98 3765 3766 3768 3772 3443 3773 
99 132 430 133 3774 3775 3776 3777 3778 3779 
396 430 397 99 3780 3781 3460 3458 3776 3451 
99 132 429 430 3774 3782 3783 3776 3775 3784 
396 430 99 429 3780 3776 3458 3785 3784 3783 
397 99 430 100 3451 3776 3781 3455 3454 3786 
430 99 133 100 3776 3777 3779 3786 3454 3787 
100 133 431 134 3787 3788 3789 3790 3791 3792 
397 431 398 100 3793 3794 3471 3455 3789 3464 
100 133 430 431 3787 3779 3786 3789 3788 3795 
397 431 100 430 3793 3789 3455 3781 3795 3786 
398 100 431 101 3464 3789 3794 3468 3467 3796 
431 100 134 101 3789 3790 3792 3796 3467 3797 
101 134 432 135 3797 3798 3799 3800 3801 3802 
398 432 399 101 3803 3804 3481 3468 3799 3474 
101 134 431 432 3797 3792 3796 3799 3798 3805 
398 432 101 431 3803 3799 3468 3794 3805 3796 
399 101 432 102 3474 3799 3804 3478 3477 3806 
432 101 135 102 3799 3800 3802 3806 3477 3807 
102 135 433 136 3807 3808 3809 3810 3811 3812 
399 433 400 102 3813 3814 3491 3478 3809 3484 
102 135 432 433 3807 3802 3806 3809 3808 3815 
399 433 102 432 3813 3809 3478 3804 3815 3806 
400 102 433 103 3484 3809 3814 3488 3487 3816 
433 102 136 103 3809 3810 3812 3816 3487 3817 
103 136 434 137 3817 3818 3819 3820 3821 3822 
400 434 401 103 3823 3824 3501 3488 3819 3494 
103 136 433 434 3817 3812 3816 3819 3818 3825 
400 434 103 433 3823 3819 3488 3814 3825 3816 
401 103 434 104 3494 3819 3824 3498 3497 3826 
434 103 137 104 3819 3820 3822 3826 3497 3827 
104 137 435 138 3827 3828 3829 3830 3831 3832 
401 435 402 104 3833 3834 3511 3498 3829 3504 
104 137 434 435 3827 3822 3826 3829 3828 3835 
401 435 104 434 3833 3829 3498 3824 3835 3826 
402 104 435 105 3504 3829 3834 3508 3507 3836 
435 104 138 105 3829 3830 3832 3836 3507 3837 
105 138 436 139 3837 3838 3839 3840 3841 3842 
402 436 403 105 3843 3844 3521 3508 3839 3514 
105 138 435 436 3837 3832 3836 3839 3838 3845 
402 436 105 435 3843 3839 3508 3834 3845 3836 
403 105 436 106 3514 3839 3844 3518 3517 3846 
436 105 139 106 3839 3840 3842 3846 3517 3847 
106 139 437 140 3847 3848 3849 3850 3851 3852 
403 437 404 106 3853 3854 3531 3518 3849 3524 
106 139 436 437 3847 3842 3846 3849 3848 3855 
403 437 106 436 3853 3849 3518 3844 3855 3846 
404 106 437 107 3524 3849 3854 3528 3527 3856 
437 106 140 107 3849 3850 3852 3856 3527 3857 
107 140 438 141 3857 3858 3859 3860 3861 3862 
404 438 405 107 3863 3864 3541 3528 3859 3534 
107 140 437 438 3857 3852 3856 3859 3858 3865 
404 438 107 437 3863 3859 3528 3854 3865 3856 
405 107 438 108 3534 3859 3864 3538 3537 3866 
438 107 141 108 3859 3860 3862 3866 3537 3867 
108 141 439 142 3867 3868 3869 3870 3871 3872 
405 439 406 108 3873 3874 3551 3538 3869 3544 
108 141 438 439 3867 3862 3866 3869 3868 3875 
405 439 108 438 3873 3869 3538 3864 3875 3866 
406 108 439 109 3544 3869 3874 3548 3547 3876 
439 108 142 109 3869 3870 3872 3876 3547 3877 
109 142 440 143 3877 3878 3879 3880 3881 3882 
406 440 407 109 3883 3884 3561 3548 3879 3554 
109 142 439 440 3877 3872 3876 3879 3878 3885 
406 440 109 439 3883 3879 3548 3874 3885 3876 
407 109 440 110 3554 3879 3884 3558 3557 3886 
440 109 143 110 3879 3880 3882 3886 3557 3887 
110 143 441 144 3887 3888 3889 3890 3891 3892 
407 441 408 110 3893 3894 3571 3558 3889 3564 
110 143 440 441 3887 3882 3886 3889 3888 3895 
407 441 110 440 3893 3889 3558 3884 3895 3886 
408 110 441 111 3564 3889 3894 3568 3567 3896 
441 110 144 111 3889 3890 3892 3896 3567 3897 
111 144 442 145 3897 3898 3899 3900 3901 3902 
408 442 409 111 3903 3904 3581 3568 3899 3574 
111 144 441 442 3897 3892 3896 3899 3898 3905 
408 442 111 441 3903 3899 3568 3894 3905 3896 
409 111 442 112 3574 3899 3904 3578 3577 3906 
442 111 145 112 3899 3900 3902 3906 3577 3907 
112 145 443 146 3907 3908 3909 3910 3911 3912 
409 443 410 112 3913 3914 3591 3578 3909 3584 
112 145 442 443 3907 3902 3906 3909 3908 3915 
409 443 112 442 3913 3909 3578 3904 3915 3906 
410 112 443 113 3584 3909 3914 3588 3587 3916 
443 112 146 113 3909 3910 3912 3916 3587 3917 
113 146 444 147 3917 3918 3919 3920 3921 3922 
410 444 411 113 3923 3924 3601 3588 3919 3594 
113 146 443 444 3917 3912 3916 3919 3918 3925 
410 444 113 443 3923 3919 3588 3914 3925 3916 
411 113 444 114 3594 3919 3924 3598 3597 3926 
444 113 147 114 3919 3920 3922 3926 3597 3927 
114 147 445 148 3927 3928 3929 3930 3931 3932 
411 445 412 114 3933 3934 3611 3598 3929 3604 
114 147 444 445 3927 3922 3926 3929 3928 3935 
411 445 114 444 3933 3929 3598 3924 3935 3926 
412 114 445 115 3604 3929 3934 3608 3607 3936 
445 114 148 115 3929 3930 3932 3936 3607 3937 
115 148 446 149 3937 3938 3939 3940 3941 3942 
412 446 413 115 3943 3944 3621 3608 3939 3614 
115 148 445 446 3937 3932 3936 3939 3938 3945 
412 446 115 445 3943 3939 3608 3934 3945 3936 
413 115 446 116 3614 3939 3944 3618 3617 3946 
446 115 149 116 3939 3940 3942 3946 3617 3947 
116 149 447 150 3947 3948 3949 3950 3951 3952 
413 447 414 116 3953 3954 3631 3618 3949 3624 
116 149 446 447 3947 3942 3946 3949 3948 3955 
413 447 116 446 3953 3949 3618 3944 3955 3946 
414 116 447 117 3624 3949 3954 3628 3627 3956 
447 116 150 117 3949 3950 3952 3956 3627 3957 
117 150 448 151 3957 3958 3959 3960 3961 3962 
414 448 415 117 3963 3964 3641 3628 3959 3634 
117 150 447 448 3957 3952 3956 3959 3958 3965 
414 448 117 447 3963 3959 3628 3954 3965 3956 
415 117 448 118 3634 3959 3964 3638 3637 3966 
448 117 151 118 3959 3960 3962 3966 3637 3967 
118 151 449 152 3967 3968 3969 3970 3971 3972 
415 449 416 118 3973 3974 3651 3638 3969 3644 
118 151 448 449 3967 3962 3966 3969 3968 3975 
415 449 118 448 3973 3969 3638 3964 3975 3966 
416 118 449 119 3644 3969 3974 3648 3647 3976 
449 118 152 119 3969 3970 3972 3976 3647 3977 
119 152 450 153 3977 3978 3979 3980 3981 3982 
416 450 417 119 3983 3984 3661 3648 3979 3654 
119 152 449 450 3977 3972 3976 3979 3978 3985 
416 450 119 449 3983 3979 3648 3974 3985 3976 
417 119 450 120 3654 3979 3984 3658 3657 3986 
450 119 153 120 3979 3980 3982 3986 3657 3987 
120 153 451 154 3987 3988 3989 3990 3991 3992 
417 451 418 120 3993 3994 3671 3658 3989 3664 
120 153 450 451 3987 3982 3986 3989 3988 3995 
417 451 120 450 3993 3989 3658 3984 3995 3986 
418 120 451 121 3664 3989 3994 3668 3667 3996 
451 120 154 121 3989 3990 3992 3996 3667 3997 
121 154 452 155 3997 3998 3999 4000 4001 4002 
418 452 419 121 4003 4004 3681 3668 3999 3674 
121 154 451 452 3997 3992 3996 3999 3998 4005 
418 452 121 451 4003 3999 3668 3994 4005 3996 
419 121 452 122 3674 3999 4004 3678 3677 4006 
452 121 155 122 3999 4000 4002 4006 3677 4007 
122 155 453 156 4007 4008 4009 4010 4011 4012 
419 453 420 122 4013 4014 3691 3678 4009 3684 
122 155 452 453 4007 4002 4006 4009 4008 4015 
419 453 122 452 4013 4009 3678 4004 4015 4006 
420 122 453 123 3684 4009 4014 3688 3687 4016 
453 122 156 123 4009 4010 4012 4016 3687 4017 
123 156 454 157 4017 4018 4019 4020 4021 4022 
420 454 421 123 4023 4024 3701 3688 4019 3694 
123 156 453 454 4017 4012 4016 4019 4018 4025 
420 454 123 453 4023 4019 3688 4014 4025 4016 
421 123 454 124 3694 4019 4024 3698 3697 4026 
454 123 157 124 4019 4020 4022 4026 3697 4027 
124 157 455 158 4027 4028 4029 4030 4031 4032 
421 455 422 124 4033 4034 3711 3698 4029 3704 
124 157 454 455 4027 4022 4026 4029 4028 4035 
421 455 124 454 4033 4029 3698 4024 4035 4026 
422 124 455 125 3704 4029 4034 3708 3707 4036 
455 124 158 125 4029 4030 4032 4036 3707 4037 
125 158 456 159 4037 4038 4039 4040 4041 4042 
422 456 423 125 4043 4044 3721 3708 4039 3714 
125 158 455 456 4037 4032 4036 4039 4038 4045 
422 456 125 455 4043 4039 3708 4034 4045 4036 
423 125 456 126 3714 4039 4044 3718 3717 4046 
456 125 159 126 4039 4040 4042 4046 3717 4047 
126 159 457 160 4047 4048 4049 4050 4051 4052 
423 457 424 126 4053 4054 3731 3718 4049 3724 
126 159 456 457 4047 4042 4046 4049 4048 4055 
423 457 126 456 4053 4049 3718 4044 4055 4046 
424 126 457 127 3724 4049 4054 3728 3727 4056 
457 126 160 127 4049 4050 4052 4056 3727 4057 
127 160 458 161 4057 4058 4059 4060 4061 4062 
424 458 425 127 4063 4064 3741 3728 4059 3734 
127 160 457 458 4057 4052 4056 4059 4058 4065 
424 458 127 457 4063 4059 3728 4054 4065 4056 
425 127 458 128 3734 4059 4064 3738 3737 4066 
458 127 161 128 4059 4060 4062 4066 3737 4067 
128 161 459 162 4067 4068 4069 4070 4071 4072 
425 459 426 128 4073 4074 3751 3738 4069 3744 
128 161 458 459 4067 4062 4066 4069 4068 4075 
425 459 128 458 4073 4069 3738 4064 4075 4066 
426 128 459 129 3744 4069 4074 3748 3747 4076 
459 128 162 129 4069 4070 4072 4076 3747 4077 
129 162 460 163 4077 4078 4079 4080 4081 4082 
426 460 427 129 4083 4084 3761 3748 4079 3754 
129 162 459 460 4077 4072 4076 4079 4078 4085 
426 460 129 459 4083 4079 3748 4074 4085 4076 
427 129 460 130 3754 4079 4084 3758 3757 4086 
460 129 163 130 4079 4080 4082 4086 3757 4087 
130 163 461 164 4087 4088 4089 4090 4091 4092 
427 461 428 130 4093 4094 3771 3758 4089 3764 
130 163 460 461 4087 4082 4086 4089 4088 4095 
427 461 130 460 4093 4089 3758 4084 4095 4086 
428 130 461 131 3764 4089 4094 3768 3767 4096 
461 130 164 131 4089 4090 4092 4096 3767 4097 
132 165 463 166 4098 4099 4100 4101 4102 4103 
429 463 430 132 4104 4105 3784 3782 4100 3775 
132 165 462 463 4098 4106 4107 4100 4099 4108 
429 463 132 462 4104 4100 3782 4109 4108 4107 
430 132 463 133 3775 4100 4105 3779 3778 4110 
463 132 166 133 4100 4101 4103 4110 3778 4111 
133 166 464 167 4111 4112 4113 4114 4115 4116 
430 464 431 133 4117 4118 3795 3779 4113 3788 
133 166 463 464 4111 4103 4110 4113 4112 4119 
430 464 133 463 4117 4113 3779 4105 4119 4110 
431 133 464 134 3788 4113 4118 3792 3791 4120 
464 133 167 134 4113 4114 4116 4120 3791 4121 
134 167 465 168 4121 4122 4123 4124 4125 4126 
431 465 432 134 4127 4128 3805 3792 4123 3798 
134 167 464 465 4121 4116 4120 4123 4122 4129 
431 465 134 464 4127 4123 3792 4118 4129 4120 
432 134 465 135 3798 4123 4128 3802 3801 4130 
465 134 168 135 4123 4124 4126 4130 3801 4131 
135 168 466 169 4131 4132 4133 4134 4135 4136 
432 466 433 135 4137 4138 3815 3802 4133 3808 
135 168 465 466 4131 4126 4130 4133 4132 4139 
432 466 135 465 4137 4133 3802 4128 4139 4130 
433 135 466 136 3808 4133 4138 3812 3811 4140 
466 135 169 136 4133 4134 4136 4140 3811 4141 
136 169 467 170 4141 4142 4143 4144 4145 4146 
433 467 434 136 4147 4148 3825 3812 4143 3818 
136 169 466 467 4141 4136 4140 4143 4142 4149 
433 467 136 466 4147 4143 3812 4138 4149 4140 
434 136 467 137 3818 4143 4148 3822 3821 4150 
467 136 170 137 4143 4144 4146 4150 3821 4151 
137 170 468 171 4151 4152 4153 4154 4155 4156 
434 468 435 137 4157 4158 3835 3822 4153 3828 
137 170 467 468 4151 4146 4150 4153 4152 4159 
434 468 137 467 4157 4153 3822 4148 4159 4150 
435 137 468 138 3828 4153 4158 3832 3831 4160 
468 137 171 138 4153 4154 4156 4160 3831 4161 
138 171 469 172 4161 4162 4163 4164 4165 4166 
435 469 436 138 4167 4168 3845 3832 4163 3838 
138 171 468 469 4161 4156 4160 4163 4162 4169 
435 469 138 468 4167 4163 3832 4158 4169 4160 
436 138 469 139 3838 4163 4168 3842 3841 4170 
469 138 172 139 4163 4164 4166 4170 3841 4171 
139 172 470 173 4171 4172 4173 4174 4175 4176 
436 470 437 139 4177 4178 3855 3842 4173 3848 
139 172 469 470 4171 4166 4170 4173 4172 4179 
436 470 139 469 4177 4173 3842 4168 4179 4170 
437 139 470 140 3848 4173 4178 3852 3851 4180 
470 139 173 140 4173 4174 4176 4180 3851 4181 
140 173 471 174 4181 4182 4183 4184 4185 4186 
437 471 438 140 4187 4188 3865 3852 4183 3858 
140 173 470 471 4181 4176 4180 4183 4182 4189 
437 471 140 470 4187 4183 3852 4178 4189 4180 
438 140 471 141 3858 4183 4188 3862 3861 4190 
471 140 174 141 4183 4184 4186 4190 3861 4191 
141 174 472 175 4191 4192 4193 4194 4195 4196 
438 472 439 141 4197 4198 3875 3862 4193 3868 
141 174 471 472 4191 4186 4190 4193 4192 4199 
438 472 141 471 4197 4193 3862 4188 4199 4190 
439 141 472 142 3868 4193 4198 3872 3871 4200 
472 141 175 142 4193 4194 4196 4200 3871 4201 
142 175 473 176 4201 4202 4203 4204 4205 4206 
439 473 440 142 4207 4208 3885 3872 4203 3878 
142 175 472 473 4201 4196 4200 4203 4202 4209 
439 473 142 472 4207 4203 3872 4198 4209 4200 
440 142 473 143 3878 4203 4208 3882 3881 4210 
473 142 176 143 4203 4204 4206 4210 3881 4211 
143 176 474 177 4211 4212 4213 4214 4215 4216 
440 474 441 143 4217 4218 3895 3882 4213 3888 
143 176 473 474 4211 4206 4210 4213 4212 4219 
440 474 143 473 4217 4213 3882 4208 4219 4210 
441 143 474 144 3888 4213 4218 3892 3891 4220 
474 143 177 144 4213 4214 4216 4220 3891 4221 
144 177 475 178 4221 4222 4223 4224 4225 4226 
441 475 442 144 4227 4228 3905 3892 4223 3898 
144 177 474 475 4221 4216 4220 4223 4222 4229 
441 475 144 474 4227 4223 3892 4218 4229 4220 
442 144 475 145 3898 4223 4228 3902 3901 4230 
475 144 178 145 4223 4224 4226 4230 3901 4231 
145 178 476 179 4231 4232 4233 4234 4235 4236 
442 476 443 145 4237 4238 3915 3902 4233 3908 
145 178 475 476 4231 4226 4230 4233 4232 4239 
442 476 145 475 4237 4233 3902 4228 4239 4230 
443 145 476 146 3908 4233 4238 3912 3911 4240 
476 145 179 146 4233 4234 4236 4240 3911 4241 
146 179 477 180 4241 4242 4243 4244 4245 4246 
443 477 444 146 4247 4248 3925 3912 4243 3918 
146 179 476 477 4241 4236 4240 4243 4242 4249 
443 477 146 476 4247 4243 3912 4238 4249 4240 
444 146 477 147 3918 4243 4248 3922 3921 4250 
477 146 180 147 4243 4244 4246 4250 3921 4251 
147 180 478 181 4251 4252 4253 4254 4255 4256 
444 478 445 147 4257 4258 3935 3922 4253 3928 
147 180 477 478 4251 4246 4250 4253 4252 4259 
444 478 147 477 4257 4253 3922 4248 4259 4250 
445 147 478 148 3928 4253 4258 3932 3931 4260 
478 147 181 148 4253 4254 4256 4260 3931 4261 
148 181 479 182 4261 4262 4263 4264 4265 4266 
445 479 446 148 4267 4268 3945 3932 4263 3938 
148 181 478 479 4261 4256 4260 4263 4262 4269 
445 479 148 478 4267 4263 3932 4258 4269 4260 
446 148 479 149 3938 4263 4268 3942 3941 4270 
479 148 182 149 4263 4264 4266 4270 3941 4271 
149 182 480 183 4271 4272 4273 4274 4275 4276 
446 480 447 149 4277 4278 3955 3942 4273 3948 
149 182 479 480 4271 4266 4270 4273 4272 4279 
446 480 149 479 4277 4273 3942 4268 4279 4270 
447 149 480 150 3948 4273 4278 3952 3951 4280 
480 149 183 150 4273 4274 4276 4280 3951 4281 
150 183 481 184 4281 4282 4283 4284 4285 4286 
447 481 448 150 4287 4288 3965 3952 4283 3958 
150 183 480 481 4281 4276 4280 4283 4282 4289 
447 481 150 480 4287 4283 3952 4278 4289 4280 
448 150 481 151 3958 4283 4288 3962 3961 4290 
481 150 184 151 4283 4284 4286 4290 3961 4291 
151 184 482 185 4291 4292 4293 4294 4295 4296 
448 482 449 151 4297 4298 3975 3962 4293 3968 
151 184 481 482 4291 4286 4290 4293 4292 4299 
448 482 151 481 4297 4293 3962 4288 4299 4290 
449 151 482 152 3968 4293 4298 3972 3971 4300 
482 151 185 152 4293 4294 4296 4300 3971 4301 
152 185 483 186 4301 4302 4303 4304 4305 4306 
449 483 450 152 4307 4308 3985 3972 4303 3978 
152 185 482 483 4301 4296 4300 4303 4302 4309 
449 483 152 482 4307 4303 3972 4298 4309 4300 
450 152 483 153 3978 4303 4308 3982 3981 4310 
483 152 186 153 4303 4304 4306 4310 3981 4311 
153 186 484 187 4311 4312 4313 4314 4315 4316 
450 484 451 153 4317 4318 3995 3982 4313 3988 
153 186 483 484 4311 4306 4310 4313 4312 4319 
450 484 153 483 4317 4313 3982 4308 4319 4310 
451 153 484 154 3988 4313 4318 3992 3991 4320 
484 153 187 154 4313 4314 4316 4320 3991 4321 
154 187 485 188 4321 4322 4323 4324 4325 4326 
451 485 452 154 4327 4328 4005 3992 4323 3998 
154 187 484 485 4321 4316 4320 4323 4322 4329 
451 485 154 484 4327 4323 3992 4318 4329 4320 
452 154 485 155 3998 4323 4328 4002 4001 4330 
485 154 188 155 4323 4324 4326 4330 4001 4331 
155 188 486 189 4331 4332 4333 4334 4335 4336 
452 486 453 155 4337 4338 4015 4002 4333 4008 
155 188 485 486 4331 4326 4330 4333 4332 4339 
452 486 155 485 4337 4333 4002 4328 4339 4330 
453 155 486 156 4008 4333 4338 4012 4011 4340 
486 155 189 156 4333 4334 4336 4340 4011 4341 
156 189 487 190 4341 4342 4343 4344 4345 4346 
453 487 454 156 4347 4348 4025 4012 4343 4018 
156 189 486 487 4341 4336 4340 4343 4342 4349 
453 487 156 486 4347 4343 4012 4338 4349 4340 
454 156 487 157 4018 4343 4348 4022 4021 4350 
487 156 190 157 4343 4344 4346 4350 4021 4351 
157 190 488 191 4351 4352 4353 4354 4355 4356 
454 488 455 157 4357 4358 4035 4022 4353 4028 
157 190 487 488 4351 4346 4350 4353 4352 4359 
454 488 157 487 4357 4353 4022 4348 4359 4350 
455 157 488 158 4028 4353 4358 4032 4031 4360 
488 157 191 158 4353 4354 4356 4360 4031 4361 
158 191 489 192 4361 4362 4363 4364 4365 4366 
455 489 456 158 4367 4368 4045 4032 4363 4038 
158 191 488 489 4361 4356 4360 4363 4362 4369 
455 489 158 488 4367 4363 4032 4358 4369 4360 
456 158 489 159 4038 4363 4368 4042 4041 4370 
489 158 192 159 4363 4364 4366 4370 4041 4371 
159 192 490 193 4371 4372 4373 4374 4375 4376 
456 490 457 159 4377 4378 4055 4042 4373 4048 
159 192 489 490 4371 4366 4370 4373 4372 4379 
456 490 159 489 4377 4373 4042 4368 4379 4370 
457 159 490 160 4048 4373 4378 4052 4051 4380 
490 159 193 160 4373 4374 4376 4380 4051 4381 
160 193 491 194 4381 4382 4383 4384 4385 4386 
457 491 458 160 4387 4388 4065 4052 4383 4058 
160 193 490 491 4381 4376 4380 4383 4382 4389 
457 491 160 490 4387 4383 4052 4378 4389 4380 
458 160 491 161 4058 4383 4388 4062 4061 4390 
491 160 194 161 4383 4384 4386 4390 4061 4391 
161 194 492 195 4391 4392 4393 4394 4395 4396 
458 492 459 161 4397 4398 4075 4062 4393 4068 
161 194 491 492 4391 4386 4390 4393 4392 4399 
458 492 161 491 4397 4393 4062 4388 4399 4390 
459 161 492 162 4068 4393 4398 4072 4071 4400 
492 161 195 162 4393 4394 4396 4400 4071 4401 
162 195 493 196 4401 4402 4403 4404 4405 4406 
459 493 460 162 4407 4408 4085 4072 4403 4078 
162 195 492 493 4401 4396 4400 4403 4402 4409 
459 493 162 492 4407 4403 4072 4398 4409 4400 
460 162 493 163 4078 4403 4408 4082 4081 4410 
493 162 196 163 4403 4404 4406 4410 4081 4411 
163 196 494 197 4411 4412 4413 4414 4415 4416 
460 494 461 163 4417 4418 4095 4082 4413 4088 
163 196 493 494 4411 4406 4410 4413 4412 4419 
460 494 163 493 4417 4413 4082 4408 4419 4410 
461 163 494 164 4088 4413 4418 4092 4091 4420 
494 163 197 164 4413 4414 4416 4420 4091 4421 
165 198 496 199 4422 4423 4424 4425 4426 4427 
462 496 463 165 4428 4429 4108 4106 4424 4099 
165 198 495 496 4422 4430 4431 4424 4423 4432 
462 496 165 495 4428 4424 4106 4433 4432 4431 
463 165 496 166 4099 4424 4429 4103 4102 4434 
496 165 199 166 4424 4425 4427 4434 4102 4435 
166 199 497 200 4435 4436 4437 4438 4439 4440 
463 497 464 166 4441 4442 4119 4103 4437 4112 
166 199 496 497 4435 4427 4434 4437 4436 4443 
463 497 166 496 4441 4437 4103 4429 4443 4434 
464 166 497 167 4112 4437 4442 4116 4115 4444 
497 166 200 167 4437 4438 4440 4444 4115 4445 
167 200 498 201 4445 4446 4447 4448 4449 4450 
464 498 465 167 4451 4452 4129 4116 4447 4122 
167 200 497 498 4445 4440 4444 4447 4446 4453 
464 498 167 497 4451 4447 4116 4442 4453 4444 
465 167 498 168 4122 4447 4452 4126 4125 4454 
498 167 201 168 4447 4448 4450 4454 4125 4455 
168 201 499 202 4455 4456 4457 4458 4459 4460 
465 499 466 168 4461 4462 4139 4126 4457 4132 
168 201 498 499 4455 4450 4454 4457 4456 4463 
465 499 168 498 4461 4457 4126 4452 4463 4454 
466 168 499 169 4132 4457 4462 4136 4135 4464 
499 168 202 169 4457 4458 4460 4464 4135 4465 
169 202 500 203 4465 4466 4467 4468 4469 4470 
466 500 467 169 4471 4472 4149 4136 4467 4142 
169 202 499 500 4465 4460 4464 4467 4466 4473 
466 500 169 499 4471 4467 4136 4462 4473 4464 
467 169 500 170 4142 4467 4472 4146 4145 4474 
500 169 203 170 4467 4468 4470 4474 4145 4475 
170 203 501 204 4475 4476 4477 4478 4479 4480 
467 501 468 170 4481 4482 4159 4146 4477 4152 
170 203 500 501 4475 4470 4474 4477 4476 4483 
467 501 170 500 4481 4477 4146 4472 4483 4474 
468 170 501 171 4152 4477 4482 4156 4155 4484 
501 170 204 171 4477 4478 4480 4484 4155 4485 
171 204 502 205 4485 4486 4487 4488 4489 4490 
468 502 469 171 4491 4492 4169 4156 4487 4162 
171 204 501 502 4485 4480 4484 4487 4486 4493 
468 502 171 501 4491 4487 4156 4482 4493 4484 
469 171 502 172 4162 4487 4492 4166 4165 4494 
502 171 205 172 4487 4488 4490 4494 4165 4495 
172 205 503 206 4495 4496 4497 4498 4499 4500 
469 503 470 172 4501 4502 4179 4166 4497 4172 
172 205 502 503 4495 4490 4494 4497 4496 4503 
469 503 172 502 4501 4497 4166 4492 4503 4494 
470 172 503 173 4172 4497 4502 4176 4175 4504 
503 172 206 173 4497 4498 4500 4504 4175 4505 
173 206 504 207 4505 4506 4507 4508 4509 4510 
470 504 471 173 4511 4512 4189 4176 4507 4182 
173 206 503 504 4505 4500 4504 4507 4506 4513 
470 504 173 503 4511 4507 4176 4502 4513 4504 
471 173 504 174 4182 4507 4512 4186 4185 4514 
504 173 207 174 4507 4508 4510 4514 4185 4515 
174 207 505 208 4515 4516 4517 4518 4519 4520 
471 505 472 174 4521 4522 4199 4186 4517 4192 
174 207 504 505 4515 4510 4514 4517 4516 4523 
471 505 174 504 4521 4517 4186 4512 4523 4514 
472 174 505 175 4192 4517 4522 4196 4195 4524 
505 174 208 175 4517 4518 4520 4524 4195 4525 
175 208 506 209 4525 4526 4527 4528 4529 4530 
472 506 473 175 4531 4532 4209 4196 4527 4202 
175 208 505 506 4525 4520 4524 4527 4526 4533 
472 506 175 505 4531 4527 4196 4522 4533 4524 
473 175 506 176 4202 4527 4532 4206 4205 4534 
506 175 209 176 4527 4528 4530 4534 4205 4535 
176 209 507 210 4535 4536 4537 4538 4539 4540 
473 507 474 176 4541 4542 4219 4206 4537 4212 
176 209 506 507 4535 4530 4534 4537 4536 4543 
473 507 176 506 4541 4537 4206 4532 4543 4534 
474 176 507 177 4212 4537 4542 4216 4215 4544 
507 176 210 177 4537 4538 4540 4544 4215 4545 
177 210 508 211 4545 4546 4547 4548 4549 4550 
474 508 475 177 4551 4552 4229 4216 4547 4222 
177 210 507 508 4545 4540 4544 4547 4546 4553 
474 508 177 507 4551 4547 4216 4542 4553 4544 
475 177 508 178 4222 4547 4552 4226 4225 4554 
508 177 211 178 4547 4548 4550 4554 4225 4555 
178 211 509 212 4555 4556 4557 4558 4559 4560 
475 509 476 178 4561 4562 4239 4226 4557 4232 
178 211 508 509 4555 4550 4554 4557 4556 4563 
475 509 178 508 4561 4557 4226 4552 4563 4554 
476 178 509 179 4232 4557 4562 4236 4235 4564 
509 178 212 179 4557 4558 4560 4564 4235 4565 
179 212 510 213 4565 4566 4567 4568 4569 4570 
476 510 477 179 4571 4572 4249 4236 4567 4242 
179 212 509 510 4565 4560 4564 4567 4566 4573 
476 510 179 509 4571 4567 4236 4562 4573 4564 
477 179 510 180 4242 4567 4572 4246 4245 4574 
510 179 213 180 4567 4568 4570 4574 4245 4575 
180 213 511 214 4575 4576 4577 4578 4579 4580 
477 511 478 180 4581 4582 4259 4246 4577 4252 
180 213 510 511 4575 4570 4574 4577 4576 4583 
477 511 180 510 4581 4577 4246 4572 4583 4574 
478 180 511 181 4252 4577 4582 4256 4255 4584 
511 180 214 181 4577 4578 4580 4584 4255 4585 
181 214 512 215 4585 4586 4587 4588 4589 4590 
478 512 479 181 4591 4592 4269 4256 4587 4262 
181 214 511 512 4585 4580 4584 4587 4586 4593 
478 512 181 511 4591 4587 4256 4582 4593 4584 
479 181 512 182 4262 4587 4592 4266 4265 4594 
512 181 215 182 4587 4588 4590 4594 4265 4595 
182 215 513 216 4595 4596 4597 4598 4599 4600 
479 513 480 182 4601 4602 4279 4266 4597 4272 
182 215 512 513 4595 4590 4594 4597 4596 4603 
479 513 182 512 4601 4597 4266 4592 4603 4594 
480 182 513 183 4272 4597 4602 4276 4275 4604 
513 182 216 183 4597 4598 4600 4604 4275 4605 
183 216 514 217 4605 4606 4607 4608 4609 4610 
480 514 481 183 4611 4612 4289 4276 4607 4282 
183 216 513 514 4605 4600 4604 4607 4606 4613 
480 514 183 513 4611 4607 4276 4602 4613 4604 
481 183 514 184 4282 4607 4612 4286 4285 4614 
514 183 217 184 4607 4608 4610 4614 4285 4615 
184 217 515 218 4615 4616 4617 4618 4619 4620 
481 515 482 184 4621 4622 4299 4286 4617 4292 
184 217 514 515 4615 4610 4614 4617 4616 4623 
481 515 184 514 4621 4617 4286 4612 4623 4614 
482 184 515 185 4292 4617 4622 4296 4295 4624 
515 184 218 185 4617 4618 4620 4624 4295 4625 
185 218 516 219 4625 4626 4627 4628 4629 4630 
482 516 483 185 4631 4632 4309 4296 4627 4302 
185 218 515 516 4625 4620 4624 4627 4626 4633 
482 516 185 515 4631 4627 4296 4622 4633 4624 
483 185 516 186 4302 4627 4632 4306 4305 4634 
516 185 219 186 4627 4628 4630 4634 4305 4635 
186 219 517 220 4635 4636 4637 4638 4639 4640 
483 517 484 186 4641 4642 4319 4306 4637 4312 
186 219 516 517 4635 4630 4634 4637 4636 4643 
483 517 186 516 4641 4637 4306 4632 4643 4634 
484 186 517 187 4312 4637 4642 4316 4315 4644 
517 186 220 187 4637 4638 4640 4644 4315 4645 
187 220 518 221 4645 4646 4647 4648 4649 4650 
484 518 485 187 4651 4652 4329 4316 4647 4322 
187 220 517 518 4645 4640 4644 4647 4646 4653 
484 518 187 517 4651 4647 4316 4642 4653 4644 
485 187 518 188 4322 4647 4652 4326 4325 4654 
518 187 221 188 4647 4648 4650 4654 4325 4655 
188 221 519 222 4655 4656 4657 4658 4659 4660 
485 519 486 188 4661 4662 4339 4326 4657 4332 
188 221 518 519 4655 4650 4654 4657 4656 4663 
485 519 188 518 4661 4657 4326 4652 4663 4654 
486 188 519 189 4332 4657 4662 4336 4335 4664 
519 188 222 189 4657 4658 4660 4664 4335 4665 
189 222 520 223 4665 4666 4667 4668 4669 4670 
486 520 487 189 4671 4672 4349 4336 4667 4342 
189 222 519 520 4665 4660 4664 4667 4666 4673 
486 520 189 519 4671 4667 4336 4662 4673 4664 
487 189 520 190 4342 4667 4672 4346 4345 4674 
520 189 223 190 4667 4668 4670 4674 4345 4675 
190 223 521 224 4675 4676 4677 4678 4679 4680 
487 521 488 190 4681 4682 4359 4346 4677 4352 
190 223 520 521 4675 4670 4674 4677 4676 4683 
487 521 190 520 4681 4677 4346 4672 4683 4674 
488 190 521 191 4352 4677 4682 4356 4355 4684 
521 190 224 191 4677 4678 4680 4684 4355 4685 
191 224 522 225 4685 4686 4687 4688 4689 4690 
488 522 489 191 4691 4692 4369 4356 4687 4362 
191 224 521 522 4685 4680 4684 4687 4686 4693 
488 522 191 521 4691 4687 4356 4682 4693 4684 
489 191 522 192 4362 4687 4692 4366 4365 4694 
522 191 225 192 4687 4688 4690 4694 4365 4695 
192 225 523 226 4695 4696 4697 4698 4699 4700 
489 523 490 192 4701 4702 4379 4366 4697 4372 
192 225 522 523 4695 4690 4694 4697 4696 4703 
489 523 192 522 4701 4697 4366 4692 4703 4694 
490 192 523 193 4372 4697 4702 4376 4375 4704 
523 192 226 193 4697 4698 4700 4704 4375 4705 
193 226 524 227 4705 4706 4707 4708 4709 4710 
490 524 491 193 4711 4712 4389 4376 4707 4382 
193 226 523 524 4705 4700 4704 4707 4706 4713 
490 524 193 523 4711 4707 4376 4702 4713 4704 
491 193 524 194 4382 4707 4712 4386 4385 4714 
524 193 227 194 4707 4708 4710 4714 4385 4715 
194 227 525 228 4715 4716 4717 4718 4719 4720 
491 525 492 194 4721 4722 4399 4386 4717 4392 
194 227 524 525 4715 4710 4714 4717 4716 4723 
491 525 194 524 4721 4717 4386 4712 4723 4714 
492 194 525 195 4392 4717 4722 4396 4395 4724 
525 194 228 195 4717 4718 4720 4724 4395 4725 
195 228 526 229 4725 4726 4727 4728 4729 4730 
492 526 493 195 4731 4732 4409 4396 4727 4402 
195 228 525 526 4725 4720 4724 4727 4726 4733 
492 526 195 525 4731 4727 4396 4722 4733 4724 
493 195 526 196 4402 4727 4732 4406 4405 4734 
526 195 229 196 4727 4728 4730 4734 4405 4735 
196 229 527 230 4735 4736 4737 4738 4739 4740 
493 527 494 196 4741 4742 4419 4406 4737 4412 
196 229 526 527 4735 4730 4734 4737 4736 4743 
493 527 196 526 4741 4737 4406 4732 4743 4734 
494 196 527 197 4412 4737 4742 4416 4415 4744 
527 196 230 197 4737 4738 4740 4744 4415 4745 
198 231 529 232 4746 4747 4748 4749 4750 4751 
495 529 496 198 4752 4753 4432 4430 4748 4423 
198 231 528 529 4746 4754 4755 4748 4747 4756 
495 529 198 528 4752 4748 4430 4757 4756 4755 
496 198 529 199 4423 4748 4753 4427 4426 4758 
529 198 232 199 4748 4749 4751 4758 4426 4759 
199 232 530 233 4759 4760 4761 4762 4763 4764 
496 530 497 199 4765 4766 4443 4427 4761 4436 
199 232 529 530 4759 4751 4758 4761 4760 4767 
496 530 199 529 4765 4761 4427 4753 4767 4758 
497 199 530 200 4436 4761 4766 4440 4439 4768 
530 199 233 200 4761 4762 4764 4768 4439 4769 
200 233 531 234 4769 4770 4771 4772 4773 4774 
497 531 498 200 4775 4776 4453 4440 4771 4446 
200 233 530 531 4769 4764 4768 4771 4770 4777 
497 531 200 530 4775 4771 4440 4766 4777 4768 
498 200 531 201 4446 4771 4776 4450 4449 4778 
531 200 234 201 4771 4772 4774 4778 4449 4779 
201 234 532 235 4779 4780 4781 4782 4783 4784 
498 532 499 201 4785 4786 4463 4450 4781 4456 
201 234 531 532 4779 4774 4778 4781 4780 4787 
498 532 201 531 4785 4781 4450 4776 4787 4778 
499 201 532 202 4456 4781 4786 4460 4459 4788 
532 201 235 202 4781 4782 4784 4788 4459 4789 
202 235 533 236 4789 4790 4791 4792 4793 4794 
499 533 500 202 4795 4796 4473 4460 4791 4466 
202 235 532 533 4789 4784 4788 4791 4790 4797 
499 533 202 532 4795 4791 4460 4786 4797 4788 
500 202 533 203 4466 4791 4796 4470 4469 4798 
533 202 236 203 4791 4792 4794 4798 4469 4799 
203 236 534 237 4799 4800 4801 4802 4803 4804 
500 534 501 203 4805 4806 4483 4470 4801 4476 
203 236 533 534 4799 4794 4798 4801 4800 4807 
500 534 203 533 4805 4801 4470 4796 4807 4798 
501 203 534 204 4476 4801 4806 4480 4479 4808 
534 203 237 204 4801 4802 4804 4808 4479 4809 
204 237 535 238 4809 4810 4811 4812 4813 4814 
501 535 502 204 4815 4816 4493 4480 4811 4486 
204 237 534 535 4809 4804 4808 4811 4810 4817 
501 535 204 534 4815 4811 4480 4806 4817 4808 
502 204 535 205 4486 4811 4816 4490 4489 4818 
535 204 238 205 4811 4812 4814 4818 4489 4819 
205 238 536 239 4819 4820 4821 4822 4823 4824 
502 536 503 205 4825 4826 4503 4490 4821 4496 
205 238 535 536 4819 4814 4818 4821 4820 4827 
502 536 205 535 4825 4821 4490 4816 4827 4818 
503 205 536 206 4496 4821 4826 4500 4499 4828 
536 205 239 206 4821 4822 4824 4828 4499 4829 
206 239 537 240 4829 4830 4831 4832 4833 4834 
503 537 504 206 4835 4836 4513 4500 4831 4506 
206 239 536 537 4829 4824 4828 4831 4830 4837 
503 537 206 536 4835 4831 4500 4826 4837 4828 
504 206 537 207 4506 4831 4836 4510 4509 4838 
537 206 240 207 4831 4832 4834 4838 4509 4839 
207 240 538 241 4839 4840 4841 4842 4843 4844 
504 538 505 207 4845 4846 4523 4510 4841 4516 
207 240 537 538 4839 4834 4838 4841 4840 4847 
504 538 207 537 4845 4841 4510 4836 4847 4838 
505 207 538 208 4516 4841 4846 4520 4519 4848 
538 207 241 208 4841 4842 4844 4848 4519 4849 
208 241 539 242 4849 4850 4851 4852 4853 4854 
505 539 506 208 4855 4856 4533 4520 4851 4526 
208 241 538 539 4849 4844 4848 4851 4850 4857 
505 539 208 538 4855 4851 4520 4846 4857 4848 
506 208 539 209 4526 4851 4856 4530 4529 4858 
539 208 242 209 4851 4852 4854 4858 4529 4859 
209 242 540 243 4859 4860 4861 4862 4863 4864 
506 540 507 209 4865 4866 4543 4530 4861 4536 
209 242 539 540 4859 4854 4858 4861 4860 4867 
506 540 209 539 4865 4861 4530 4856 4867 4858 
507 209 540 210 4536 4861 4866 4540 4539 4868 
540 209 243 210 4861 4862 4864 4868 4539 4869 
210 243 541 244 4869 4870 4871 4872 4873 4874 
507 541 508 210 4875 4876 4553 4540 4871 4546 
210 243 540 541 4869 4864 4868 4871 4870 4877 
507 541 210 540 4875 4871 4540 4866 4877 4868 
508 210 541 211 4546 4871 4876 4550 4549 4878 
541 210 244 211 4871 4872 4874 4878 4549 4879 
211 244 542 245 4879 4880 4881 4882 4883 4884 
508 542 509 211 4885 4886 4563 4550 4881 4556 
211 244 541 542 4879 4874 4878 4881 4880 4887 
508 542 211 541 4885 4881 4550 4876 4887 4878 
509 211 542 212 4556 4881 4886 4560 4559 4888 
542 211 245 212 4881 4882 4884 4888 4559 4889 
212 245 543 246 4889 4890 4891 4892 4893 4894 
509 543 510 212 4895 4896 4573 4560 4891 4566 
212 245 542 543 4889 4884 4888 4891 4890 4897 
509 543 212 542 4895 4891 4560 4886 4897 4888 
510 212 543 213 4566 4891 4896 4570 4569 4898 
543 212 246 213 4891 4892 4894 4898 4569 4899 
213 246 544 247 4899 4900 4901 4902 4903 4904 
510 544 511 213 4905 4906 4583 4570 4901 4576 
213 246 543 544 4899 4894 4898 4901 4900 4907 
510 544 213 543 4905 4901 4570 4896 4907 4898 
511 213 544 214 4576 4901 4906 4580 4579 4908 
544 213 247 214 4901 4902 4904 4908 4579 4909 
214 247 545 248 4909 4910 4911 4912 4913 4914 
511 545 512 214 4915 4916 4593 4580 4911 4586 
214 247 544 545 4909 4904 4908 4911 4910 4917 
511 545 214 544 4915 4911 4580 4906 4917 4908 
512 214 545 215 4586 4911 4916 4590 4589 4918 
545 214 248 215 4911 4912 4914 4918 4589 4919 
215 248 546 249 4919 4920 4921 4922 4923 4924 
512 546 513 215 4925 4926 4603 4590 4921 4596 
215 248 545 546 4919 4914 4918 4921 4920 4927 
512 546 215 545 4925 4921 4590 4916 4927 4918 
513 215 546 216 4596 4921 4926 4600 4599 4928 
546 215 249 216 4921 4922 4924 4928 4599 4929 
216 249 547 250 4929 4930 4931 4932 4933 4934 
513 547 514 216 4935 4936 4613 4600 4931 4606 
216 249 546 547 4929 4924 4928 4931 4930 4937 
513 547 216 546 4935 4931 4600 4926 4937 4928 
514 216 547 217 4606 4931 4936 4610 4609 4938 
547 216 250 217 4931 4932 4934 4938 4609 4939 
217 250 548 251 4939 4940 4941 4942 4943 4944 
514 548 515 217 4945 4946 4623 4610 4941 4616 
217 250 547 548 4939 4934 4938 4941 4940 4947 
514 548 217 547 4945 4941 4610 4936 4947 4938 
515 217 548 218 4616 4941 4946 4620 4619 4948 
548 217 251 218 4941 4942 4944 4948 4619 4949 
218 251 549 252 4949 4950 4951 4952 4953 4954 
515 549 516 218 4955 4956 4633 4620 4951 4626 
218 251 548 549 4949 4944 4948 4951 4950 4957 
515 549 218 548 4955 4951 4620 4946 4957 4948 
516 218 549 219 4626 4951 4956 4630 4629 4958 
549 218 252 219 4951 4952 4954 4958 4629 4959 
219 252 550 253 4959 4960 4961 4962 4963 4964 
516 550 517 219 4965 4966 4643 4630 4961 4636 
219 252 549 550 4959 4954 4958 4961 4960 4967 
516 550 219 549 4965 4961 4630 4956 4967 4958 
517 219 550 220 4636 4961 4966 4640 4639 4968 
550 219 253 220 4961 4962 4964 4968 4639 4969 
220 253 551 254 4969 4970 4971 4972 4973 4974 
517 551 518 220 4975 4976 4653 4640 4971 4646 
220 253 550 551 4969 4964 4968 4971 4970 4977 
517 551 220 550 4975 4971 4640 4966 4977 4968 
518 220 551 221 4646 4971 4976 4650 4649 4978 
551 220 254 221 4971 4972 4974 4978 4649 4979 
221 254 552 255 4979 4980 4981 4982 4983 4984 
518 552 519 221 4985 4986 4663 4650 4981 4656 
221 254 551 552 4979 4974 4978 4981 4980 4987 
518 552 221 551 4985 4981 4650 4976 4987 4978 
519 221 552 222 4656 4981 4986 4660 4659 4988 
552 221 255 222 4981 4982 4984 4988 4659 4989 
222 255 553 256 4989 4990 4991 4992 4993 4994 
519 553 520 222 4995 4996 4673 4660 4991 4666 
222 255 552 553 4989 4984 4988 4991 4990 4997 
519 553 222 552 4995 4991 4660 4986 4997 4988 
520 222 553 223 4666 4991 4996 4670 4669 4998 
553 222 256 223 4991 4992 4994 4998 4669 4999 
223 256 554 257 4999 5000 5001 5002 5003 5004 
520 554 521 223 5005 5006 4683 4670 5001 4676 
223 256 553 554 4999 4994 4998 5001 5000 5007 
520 554 223 553 5005 5001 4670 4996 5007 4998 
521 223 554 224 4676 5001 5006 4680 4679 5008 
554 223 257 224 5001 5002 5004 5008 4679 5009 
224 257 555 258 5009 5010 5011 5012 5013 5014 
521 555 522 224 5015 5016 4693 4680 5011 4686 
224 257 554 555 5009 5004 5008 5011 5010 5017 
521 555 224 554 5015 5011 4680 5006 5017 5008 
522 224 555 225 4686 5011 5016 4690 4689 5018 
555 224 258 225 5011 5012 5014 5018 4689 5019 
225 258 556 259 5019 5020 5021 5022 5023 5024 
522 556 523 225 5025 5026 4703 4690 5021 4696 
225 258 555 556 5019 5014 5018 5021 5020 5027 
522 556 225 555 5025 5021 4690 5016 5027 5018 
523 225 556 226 4696 5021 5026 4700 4699 5028 
556 225 259 226 5021 5022 5024 5028 4699 5029 
226 259 557 260 5029 5030 5031 5032 5033 5034 
523 557 524 226 5035 5036 4713 4700 5031 4706 
226 259 556 557 5029 5024 5028 5031 5030 5037 
523 557 226 556 5035 5031 4700 5026 5037 5028 
524 226 557 227 4706 5031 5036 4710 4709 5038 
557 226 260 227 5031 5032 5034 5038 4709 5039 
227 260 558 261 5039 5040 5041 5042 5043 5044 
524 558 525 227 5045 5046 4723 4710 5041 4716 
227 260 557 558 5039 5034 5038 5041 5040 5047 
524 558 227 557 5045 5041 4710 5036 5047 5038 
525 227 558 228 4716 5041 5046 4720 4719 5048 
558 227 261 228 5041 5042 5044 5048 4719 5049 
228 261 559 262 5049 5050 5051 5052 5053 5054 
525 559 526 228 5055 5056 4733 4720 5051 4726 
228 261 558 559 5049 5044 5048 5051 5050 5057 
525 559 228 558 5055 5051 4720 5046 5057 5048 
526 228 559 229 4726 5051 5056 4730 4729 5058 
559 228 262 229 5051 5052 5054 5058 4729 5059 
229 262 560 263 5059 5060 5061 5062 5063 5064 
526 560 527 229 5065 5066 4743 4730 5061 4736 
229 262 559 560 5059 5054 5058 5061 5060 5067 
526 560 229 559 5065 5061 4730 5056 5067 5058 
527 229 560 230 4736 5061 5066 4740 4739 5068 
560 229 263 230 5061 5062 5064 5068 4739 5069 
231 264 562 265 5070 5071 5072 5073 5074 5075 
528 562 529 231 5076 5077 4756 4754 5072 4747 
231 264 561 562 5070 5078 5079 5072 5071 5080 
528 562 231 561 5076 5072 4754 5081 5080 5079 
529 231 562 232 4747 5072 5077 4751 4750 5082 
562 231 265 232 5072 5073 5075 5082 4750 5083 
232 265 563 266 5083 5084 5085 5086 5087 5088 
529 563 530 232 5089 5090 4767 4751 5085 4760 
232 265 562 563 5083 5075 5082 5085 5084 5091 
529 563 232 562 5089 5085 4751 5077 5091 5082 
530 232 563 233 4760 5085 5090 4764 4763 5092 
563 232 266 233 5085 5086 5088 5092 4763 5093 
233 266 564 267 5093 5094 5095 5096 5097 5098 
530 564 531 233 5099 5100 4777 4764 5095 4770 
233 266 563 564 5093 5088 5092 5095 5094 5101 
530 564 233 563 5099 5095 4764 5090 5101 5092 
531 233 564 234 4770 5095 5100 4774 4773 5102 
564 233 267 234 5095 5096 5098 5102 4773 5103 
234 267 565 268 5103 5104 5105 5106 5107 5108 
531 565 532 234 5109 5110 4787 4774 5105 4780 
234 267 564 565 5103 5098 5102 5105 5104 5111 
531 565 234 564 5109 5105 4774 5100 5111 5102 
532 234 565 235 4780 5105 5110 4784 4783 5112 
565 234 268 235 5105 5106 5108 5112 4783 5113 
235 268 566 269 5113 5114 5115 5116 5117 5118 
532 566 533 235 5119 5120 4797 4784 5115 4790 
235 268 565 566 5113 5108 5112 5115 5114 5121 
532 566 235 565 5119 5115 4784 5110 5121 5112 
533 235 566 236 4790 5115 5120 4794 4793 5122 
566 235 269 236 5115 5116 5118 5122 4793 5123 
236 269 567 270 5123 5124 5125 5126 5127 5128 
533 567 534 236 5129 5130 4807 4794 5125 4800 
236 269 566 567 5123 5118 5122 5125 5124 5131 
533 567 236 566 5129 5125 4794 5120 5131 5122 
534 236 567 237 4800 5125 5130 4804 4803 5132 
567 236 270 237 5125 5126 5128 5132 4803 5133 
237 270 568 271 5133 5134 5135 5136 5137 5138 
534 568 535 237 5139 5140 4817 4804 5135 4810 
237 270 567 568 5133 5128 5132 5135 5134 5141 
534 568 237 567 5139 5135 4804 5130 5141 5132 
535 237 568 238 4810 5135 5140 4814 4813 5142 
568 237 271 238 5135 5136 5138 5142 4813 5143 
238 271 569 272 5143 5144 5145 5146 5147 5148 
535 569 536 238 5149 5150 4827 4814 5145 4820 
238 271 568 569 5143 5138 5142 5145 5144 5151 
535 569 238 568 5149 5145 4814 5140 5151 5142 
536 238 569 239 4820 5145 5150 4824 4823 5152 
569 238 272 239 5145 5146 5148 5152 4823 5153 
239 272 570 273 5153 5154 5155 5156 5157 5158 
536 570 537 239 5159 5160 4837 4824 5155 4830 
239 272 569 570 5153 5148 5152 5155 5154 5161 
536 570 239 569 5159 5155 4824 5150 5161 5152 
537 239 570 240 4830 5155 5160 4834 4833 5162 
570 239 273 240 5155 5156 5158 5162 4833 5163 
240 273 571 274 5163 5164 5165 5166 5167 5168 
537 571 538 240 5169 5170 4847 4834 5165 4840 
240 273 570 571 5163 5158 5162 5165 5164 5171 
537 571 240 570 5169 5165 4834 5160 5171 5162 
538 240 571 241 4840 5165 5170 4844 4843 5172 
571 240 274 241 5165 5166 5168 5172 4843 5173 
241 274 572 275 5173 5174 5175 5176 5177 5178 
538 572 539 241 5179 5180 4857 4844 5175 4850 
241 274 571 572 5173 5168 5172 5175 5174 5181 
538 572 241 571 5179 5175 4844 5170 5181 5172 
539 241 572 242 4850 5175 5180 4854 4853 5182 
572 241 275 242 5175 5176 5178 5182 4853 5183 
242 275 573 276 5183 5184 5185 5186 5187 5188 
539 573 540 242 5189 5190 4867 4854 5185 4860 
242 275 572 573 5183 5178 5182 5185 5184 5191 
539 573 242 572 5189 5185 4854 5180 5191 5182 
540 242 573 243 4860 5185 5190 4864 4863 5192 
573 242 276 243 5185 5186 5188 5192 4863 5193 
243 276 574 277 5193 5194 5195 5196 5197 5198 
540 574 541 243 5199 5200 4877 4864 5195 4870 
243 276 573 574 5193 5188 5192 5195 5194 5201 
540 574 243 573 5199 5195 4864 5190 5201 5192 
541 243 574 244 4870 5195 5200 4874 4873 5202 
574 243 277 244 5195 5196 5198 5202 4873 5203 
244 277 575 278 5203 5204 5205 5206 5207 5208 
541 575 542 244 5209 5210 4887 4874 5205 4880 
244 277 574 575 5203 5198 5202 5205 5204 5211 
541 575 244 574 5209 5205 4874 5200 5211 5202 
542 244 575 245 4880 5205 5210 4884 4883 5212 
575 244 278 245 5205 5206 5208 5212 4883 5213 
245 278 576 279 5213 5214 5215 5216 5217 5218 
542 576 543 245 5219 5220 4897 4884 5215 4890 
245 278 575 576 5213 5208 5212 5215 5214 5221 
542 576 245 575 5219 5215 4884 5210 5221 5212 
543 245 576 246 4890 5215 5220 4894 4893 5222 
576 245 279 246 5215 5216 5218 5222 4893 5223 
246 279 577 280 5223 5224 5225 5226 5227 5228 
543 577 544 246 5229 5230 4907 4894 5225 4900 
246 279 576 577 5223 5218 5222 5225 5224 5231 
543 577 246 576 5229 5225 4894 5220 5231 5222 
544 246 577 247 4900 5225 5230 4904 4903 5232 
577 246 280 247 5225 5226 5228 5232 4903 5233 
247 280 578 281 5233 5234 5235 5236 5237 5238 
544 578 545 247 5239 5240 4917 4904 5235 4910 
247 280 577 578 5233 5228 5232 5235 5234 5241 
544 578 247 577 5239 5235 4904 5230 5241 5232 
545 247 578 248 4910 5235 5240 4914 4913 5242 
578 247 281 248 5235 5236 5238 5242 4913 5243 
248 281 579 282 5243 5244 5245 5246 5247 5248 
545 579 546 248 5249 5250 4927 4914 5245 4920 
248 281 578 579 5243 5238 5242 5245 5244 5251 
545 579 248 578 5249 5245 4914 5240 5251 5242 
546 248 579 249 4920 5245 5250 4924 4923 5252 
579 248 282 249 5245 5246 5248 5252 4923 5253 
249 282 580 283 5253 5254 5255 5256 5257 5258 
546 580 547 249 5259 5260 4937 4924 5255 4930 
249 282 579 580 5253 5248 5252 5255 5254 5261 
546 580 249 579 5259 5255 4924 5250 5261 5252 
547 249 580 250 4930 5255 5260 4934 4933 5262 
580 249 283 250 5255 5256 5258 5262 4933 5263 
250 283 581 284 5263 5264 5265 5266 5267 5268 
547 581 548 250 5269 5270 4947 4934 5265 4940 
250 283 580 581 5263 5258 5262 5265 5264 5271 
547 581 250 580 5269 5265 4934 5260 5271 5262 
548 250 581 251 4940 5265 5270 4944 4943 5272 
581 250 284 251 5265 5266 5268 5272 4943 5273 
251 284 582 285 5273 5274 5275 5276 5277 5278 
548 582 549 251 5279 5280 4957 4944 5275 4950 
251 284 581 582 5273 5268 5272 5275 5274 5281 
548 582 251 581 5279 5275 4944 5270 5281 5272 
549 251 582 252 4950 5275 5280 4954 4953 5282 
582 251 285 252 5275 5276 5278 5282 4953 5283 
252 285 583 286 5283 5284 5285 5286 5287 5288 
549 583 550 252 5289 5290 4967 4954 5285 4960 
252 285 582 583 5283 5278 5282 5285 5284 5291 
549 583 252 582 5289 5285 4954 5280 5291 5282 
550 252 583 253 4960 5285 5290 4964 4963 5292 
583 252 286 253 5285 5286 5288 5292 4963 5293 
253 286 584 287 5293 5294 5295 5296 5297 5298 
550 584 551 253 5299 5300 4977 4964 5295 4970 
253 286 583 584 5293 5288 5292 5295 5294 5301 
550 584 253 583 5299 5295 4964 5290 5301 5292 
551 253 584 254 4970 5295 5300 4974 4973 5302 
584 253 287 254 5295 5296 5298 5302 4973 5303 
254 287 585 288 5303 5304 5305 5306 5307 5308 
551 585 552 254 5309 5310 4987 4974 5305 4980 
254 287 584 585 5303 5298 5302 5305 5304 5311 
551 585 254 584 5309 5305 4974 5300 5311 5302 
552 254 585 255 4980 5305 5310 4984 4983 5312 
585 254 288 255 5305 5306 5308 5312 4983 5313 
255 288 586 289 5313 5314 5315 5316 5317 5318 
552 586 553 255 5319 5320 4997 4984 5315 4990 
255 288 585 586 5313 5308 5312 5315 5314 5321 
552 586 255 585 5319 5315 4984 5310 5321 5312 
553 255 586 256 4990 5315 5320 4994 4993 5322 
586 255 289 256 5315 5316 5318 5322 4993 5323 
256 289 587 290 5323 5324 5325 5326 5327 5328 
553 587 554 256 5329 5330 5007 4994 5325 5000 
256 289 586 587 5323 5318 5322 5325 5324 5331 
553 587 256 586 5329 5325 4994 5320 5331 5322 
554 256 587 257 5000 5325 5330 5004 5003 5332 
587 256 290 257 5325 5326 5328 5332 5003 5333 
257 290 588 291 5333 5334 5335 5336 5337 5338 
554 588 555 257 5339 5340 5017 5004 5335 5010 
257 290 587 588 5333 5328 5332 5335 5334 5341 
554 588 257 587 5339 5335 5004 5330 5341 5332 
555 257 588 258 5010 5335 5340 5014 5013 5342 
588 257 291 258 5335 5336 5338 5342 5013 5343 
258 291 589 292 5343 5344 5345 5346 5347 5348 
555 589 556 258 5349 5350 5027 5014 5345 5020 
258 291 588 589 5343 5338 5342 5345 5344 5351 
555 589 258 588 5349 5345 5014 5340 5351 5342 
556 258 589 259 5020 5345 5350 5024 5023 5352 
589 258 292 259 5345 5346 5348 5352 5023 5353 
259 292 590 293 5353 5354 5355 5356 5357 5358 
556 590 557 259 5359 5360 5037 5024 5355 5030 
259 292 589 590 5353 5348 5352 5355 5354 5361 
556 590 259 589 5359 5355 5024 5350 5361 5352 
557 259 590 260 5030 5355 5360 5034 5033 5362 
590 259 293 260 5355 5356 5358 5362 5033 5363 
260 293 591 294 5363 5364 5365 5366 5367 5368 
557 591 558 260 5369 5370 5047 5034 5365 5040 
260 293 590 591 5363 5358 5362 5365 5364 5371 
557 591 260 590 5369 5365 5034 5360 5371 5362 
558 260 591 261 5040 5365 5370 5044 5043 5372 
591 260 294 261 5365 5366 5368 5372 5043 5373 
261 294 592 295 5373 5374 5375 5376 5377 5378 
558 592 559 261 5379 5380 5057 5044 5375 5050 
261 294 591 592 5373 5368 5372 5375 5374 5381 
558 592 261 591 5379 5375 5044 5370 5381 5372 
559 261 592 262 5050 5375 5380 5054 5053 5382 
592 261 295 262 5375 5376 5378 5382 5053 5383 
262 295 593 296 5383 5384 5385 5386 5387 5388 
559 593 560 262 5389 5390 5067 5054 5385 5060 
262 295 592 593 5383 5378 5382 5385 5384 5391 
559 593 262 592 5389 5385 5054 5380 5391 5382 
560 262 593 263 5060 5385 5390 5064 5063 5392 
593 262 296 263 5385 5386 5388 5392 5063 5393 
297 330 628 331 2687 5394 5395 2679 2686 5396 
594 628 595 297 5397 5398 5399 5400 5395 5401 
297 330 627 628 2687 5402 5403 5395 5394 5404 
594 628 297 627 5397 5395 5400 5405 5404 5403 
595 297 628 298 5401 5395 5398 5406 2681 5407 
628 297 331 298 5395 2679 5396 5407 2681 2680 
298 331 629 332 2680 5408 5409 2697 2701 5410 
595 629 596 298 5411 5412 5413 5406 5409 5414 
298 331 628 629 2680 5396 5407 5409 5408 5415 
595 629 298 628 5411 5409 5406 5398 5415 5407 
596 298 629 299 5414 5409 5412 5416 2699 5417 
629 298 332 299 5409 2697 5410 5417 2699 2698 
299 332 630 333 2698 5418 5419 2711 2715 5420 
596 630 597 299 5421 5422 5423 5416 5419 5424 
299 332 629 630 2698 5410 5417 5419 5418 5425 
596 630 299 629 5421 5419 5416 5412 5425 5417 
597 299 630 300 5424 5419 5422 5426 2713 5427 
630 299 333 300 5419 2711 5420 5427 2713 2712 
300 333 631 334 2712 5428 5429 2725 2729 5430 
597 631 598 300 5431 5432 5433 5426 5429 5434 
300 333 630 631 2712 5420 5427 5429 5428 5435 
597 631 300 630 5431 5429 5426 5422 5435 5427 
598 300 631 301 5434 5429 5432 5436 2727 5437 
631 300 334 301 5429 2725 5430 5437 2727 2726 
301 334 632 335 2726 5438 5439 2739 2743 5440 
598 632 599 301 5441 5442 5443 5436 5439 5444 
301 334 631 632 2726 5430 5437 5439 5438 5445 
598 632 301 631 5441 5439 5436 5432 5445 5437 
599 301 632 302 5444 5439 5442 5446 2741 5447 
632 301 335 302 5439 2739 5440 5447 2741 2740 
302 335 633 336 2740 5448 5449 2753 2757 5450 
599 633 600 302 5451 5452 5453 5446 5449 5454 
302 335 632 633 2740 5440 5447 5449 5448 5455 
599 633 302 632 5451 5449 5446 5442 5455 5447 
600 302 633 303 5454 5449 5452 5456 2755 5457 
633 302 336 303 5449 2753 5450 5457 2755 2754 
303 336 634 337 2754 5458 5459 2767 2771 5460 
600 634 601 303 5461 5462 5463 5456 5459 5464 
303 336 633 634 2754 5450 5457 5459 5458 5465 
600 634 303 633 5461 5459 5456 5452 5465 5457 
601 303 634 304 5464 5459 5462 5466 2769 5467 
634 303 337 304 5459 2767 5460 5467 2769 2768 
304 337 635 338 2768 5468 5469 2781 2785 5470 
601 635 602 304 5471 5472 5473 5466 5469 5474 
304 337 634 635 2768 5460 5467 5469 5468 5475 
601 635 304 634 5471 5469 5466 5462 5475 5467 
602 304 635 305 5474 5469 5472 5476 2783 5477 
635 304 338 305 5469 2781 5470 5477 2783 2782 
305 338 636 339 2782 5478 5479 2795 2799 5480 
602 636 603 305 5481 5482 5483 5476 5479 5484 
305 338 635 636 2782 5470 5477 5479 5478 5485 
602 636 305 635 5481 5479 5476 5472 5485 5477 
603 305 636 306 5484 5479 5482 5486 2797 5487 
636 305 339 306 5479 2795 5480 5487 2797 2796 
306 339 637 340 2796 5488 5489 2809 2813 5490 
603 637 604 306 5491 5492 5493 5486 5489 5494 
306 339 636 637 2796 5480 5487 5489 5488 5495 
603 637 306 636 5491 5489 5486 5482 5495 5487 
604 306 637 307 5494 5489 5492 5496 2811 5497 
637 306 340 307 5489 2809 5490 5497 2811 2810 
307 340 638 341 2810 5498 5499 2823 2827 5500 
604 638 605 307 5501 5502 5503 5496 5499 5504 
307 340 637 638 2810 5490 5497 5499 5498 5505 
604 638 307 637 5501 5499 5496 5492 5505 5497 
605 307 638 308 5504 5499 5502 5506 2825 5507 
638 307 341 308 5499 2823 5500 5507 2825 2824 
308 341 639 342 2824 5508 5509 2837 2841 5510 
605 639 606 308 5511 5512 5513 5506 5509 5514 
308 341 638 639 2824 5500 5507 5509 5508 5515 
605 639 308 638 5511 5509 5506 5502 5515 5507 
606 308 639 309 5514 5509 5512 5516 2839 5517 
639 308 342 309 5509 2837 5510 5517 2839 2838 
309 342 640 343 2838 5518 5519 2851 2855 5520 
606 640 607 309 5521 5522 5523 5516 5519 5524 
309 342 639 640 2838 5510 5517 5519 5518 5525 
606 640 309 639 5521 5519 5516 5512 5525 5517 
607 309 640 310 5524 5519 5522 5526 2853 5527 
640 309 343 310 5519 2851 5520 5527 2853 2852 
310 343 641 344 2852 5528 5529 2865 2869 5530 
607 641 608 310 5531 5532 5533 5526 5529 5534 
310 343 640 641 2852 5520 5527 5529 5528 5535 
607 641 310 640 5531 5529 5526 5522 5535 5527 
608 310 641 311 5534 5529 5532 5536 2867 5537 
641 310 344 311 5529 2865 5530 5537 2867 2866 
311 344 642 345 2866 5538 5539 2879 2883 5540 
608 642 609 311 5541 5542 5543 5536 5539 5544 
311 344 641 642 2866 5530 5537 5539 5538 5545 
608 642 311 641 5541 5539 5536 5532 5545 5537 
609 311 642 312 5544 5539 5542 5546 2881 5547 
642 311 345 312 5539 2879 5540 5547 2881 2880 
312 345 643 346 2880 5548 5549 2893 2897 5550 
609 643 610 312 5551 5552 5553 5546 5549 5554 
312 345 642 643 2880 5540 5547 5549 5548 5555 
609 643 312 642 5551 5549 5546 5542 5555 5547 
610 312 643 313 5554 5549 5552 5556 2895 5557 
643 312 346 313 5549 2893 5550 5557 2895 2894 
313 346 644 347 2894 5558 5559 2907 2911 5560 
610 644 611 313 5561 5562 5563 5556 5559 5564 
313 346 643 644 2894 5550 5557 5559 5558 5565 
610 644 313 643 5561 5559 5556 5552 5565 5557 
611 313 644 314 5564 5559 5562 5566 2909 5567 
644 313 347 314 5559 2907 5560 5567 2909 2908 
314 347 645 348 2908 5568 5569 2921 2925 5570 
611 645 612 314 5571 5572 5573 5566 5569 5574 
314 347 644 645 2908 5560 5567 5569 5568 5575 
611 645 314 644 5571 5569 5566 5562 5575 5567 
612 314 645 315 5574 5569 5572 5576 2923 5577 
645 314 348 315 5569 2921 5570 5577 2923 2922 
315 348 646 349 2922 5578 5579 2935 2939 5580 
612 646 613 315 5581 5582 5583 5576 5579 5584 
315 348 645 646 2922 5570 5577 5579 5578 5585 
612 646 315 645 5581 5579 5576 5572 5585 5577 
613 315 646 316 5584 5579 5582 5586 2937 5587 
646 315 349 316 5579 2935 5580 5587 2937 2936 
316 349 647 350 2936 5588 5589 2949 2953 5590 
613 647 614 316 5591 5592 5593 5586 5589 5594 
316 349 646 647 2936 5580 5587 5589 5588 5595 
613 647 316 646 5591 5589 5586 5582 5595 5587 
614 316 647 317 5594 5589 5592 5596 2951 5597 
647 316 350 317 5589 2949 5590 5597 2951 2950 
317 350 648 351 2950 5598 5599 2963 2967 5600 
614 648 615 317 5601 5602 5603 5596 5599 5604 
317 350 647 648 2950 5590 5597 5599 5598 5605 
614 648 317 647 5601 5599 5596 5592 5605 5597 
615 317 648 318 5604 5599 5602 5606 2965 5607 
648 317 351 318 5599 2963 5600 5607 2965 2964 
318 351 649 352 2964 5608 5609 2977 2981 5610 
615 649 616 318 5611 5612 5613 5606 5609 5614 
318 351 648 649 2964 5600 5607 5609 5608 5615 
615 649 318 648 5611 5609 5606 5602 5615 5607 
616 318 649 319 5614 5609 5612 5616 2979 5617 
649 318 352 319 5609 2977 5610 5617 2979 2978 
319 352 650 353 2978 5618 5619 2991 2995 5620 
616 650 617 319 5621 5622 5623 5616 5619 5624 
319 352 649 650 2978 5610 5617 5619 5618 5625 
616 650 319 649 5621 5619 5616 5612 5625 5617 
617 319 650 320 5624 5619 5622 5626 2993 5627 
650 319 353 320 5619 2991 5620 5627 2993 2992 
320 353 651 354 2992 5628 5629 3005 3009 5630 
617 651 618 320 5631 5632 5633 5626 5629 5634 
320 353 650 651 2992 5620 5627 5629 5628 5635 
617 651 320 650 5631 5629 5626 5622 5635 5627 
618 320 651 321 5634 5629 5632 5636 3007 5637 
651 320 354 321 5629 3005 5630 5637 3007 3006 
321 354 652 355 3006 5638 5639 3019 3023 5640 
618 652 619 321 5641 5642 5643 5636 5639 5644 
321 354 651 652 3006 5630 5637 5639 5638 5645 
618 652 321 651 5641 5639 5636 5632 5645 5637 
619 321 652 322 5644 5639 5642 5646 3021 5647 
652 321 355 322 5639 3019 5640 5647 3021 3020 
322 355 653 356 3020 5648 5649 3033 3037 5650 
619 653 620 322 5651 5652 5653 5646 5649 5654 
322 355 652 653 3020 5640 5647 5649 5648 5655 
619 653 322 652 5651 5649 5646 5642 5655 5647 
620 322 653 323 5654 5649 5652 5656 3035 5657 
653 322 356 323 5649 3033 5650 5657 3035 3034 
323 356 654 357 3034 5658 5659 3047 3051 5660 
620 654 621 323 5661 5662 5663 5656 5659 5664 
323 356 653 654 3034 5650 5657 5659 5658 5665 
620 654 323 653 5661 5659 5656 5652 5665 5657 
621 323 654 324 5664 5659 5662 5666 3049 5667 
654 323 357 324 5659 3047 5660 5667 3049 3048 
324 357 655 358 3048 5668 5669 3061 3065 5670 
621 655 622 324 5671 5672 5673 5666 5669 5674 
324 357 654 655 3048 5660 5667 5669 5668 5675 
621 655 324 654 5671 5669 5666 5662 5675 5667 
622 324 655 325 5674 5669 5672 5676 3063 5677 
655 324 358 325 5669 3061 5670 5677 3063 3062 
325 358 656 359 3062 5678 5679 3075 3079 5680 
622 656 623 325 5681 5682 5683 5676 5679 5684 
325 358 655 656 3062 5670 5677 5679 5678 5685 
622 656 325 655 5681 5679 5676 5672 5685 5677 
623 325 656 326 5684 5679 5682 5686 3077 5687 
656 325 359 326 5679 3075 5680 5687 3077 3076 
326 359 657 360 3076 5688 5689 3089 3093 5690 
623 657 624 326 5691 5692 5693 5686 5689 5694 
326 359 656 657 3076 5680 5687 5689 5688 5695 
623 657 326 656 5691 5689 5686 5682 5695 5687 
624 326 657 327 5694 5689 5692 5696 3091 5697 
657 326 360 327 5689 3089 5690 5697 3091 3090 
327 360 658 361 3090 5698 5699 3103 3107 5700 
624 658 625 327 5701 5702 5703 5696 5699 5704 
327 360 657 658 3090 5690 5697 5699 5698 5705 
624 658 327 657 5701 5699 5696 5692 5705 5697 
625 327 658 328 5704 5699 5702 5706 3105 5707 
658 327 361 328 5699 3103 5700 5707 3105 3104 
328 361 659 362 3104 5708 5709 3117 3121 5710 
625 659 626 328 5711 5712 5713 5706 5709 5714 
328 361 658 659 3104 5700 5707 5709 5708 5715 
625 659 328 658 5711 5709 5706 5702 5715 5707 
626 328 659 329 5714 5709 5712 5716 3119 5717 
659 328 362 329 5709 3117 5710 5717 3119 3118 
330 363 661 364 3137 5718 5719 3132 3136 5720 
627 661 628 330 5721 5722 5404 5402 5719 5394 
330 363 660 661 3137 5723 5724 5719 5718 5725 
627 661 330 660 5721 5719 5402 5726 5725 5724 
628 330 661 331 5394 5719 5722 5396 2686 5727 
661 330 364 331 5719 3132 5720 5727 2686 3133 
331 364 662 365 3133 5728 5729 3145 3147 5730 
628 662 629 331 5731 5732 5415 5396 5729 5408 
331 364 661 662 3133 5720 5727 5729 5728 5733 
628 662 331 661 5731 5729 5396 5722 5733 5727 
629 331 662 332 5408 5729 5732 5410 2701 5734 
662 331 365 332 5729 3145 5730 5734 2701 3146 
332 365 663 366 3146 5735 5736 3155 3157 5737 
629 663 630 332 5738 5739 5425 5410 5736 5418 
332 365 662 663 3146 5730 5734 5736 5735 5740 
629 663 332 662 5738 5736 5410 5732 5740 5734 
630 332 663 333 5418 5736 5739 5420 2715 5741 
663 332 366 333 5736 3155 5737 5741 2715 3156 
333 366 664 367 3156 5742 5743 3165 3167 5744 
630 664 631 333 5745 5746 5435 5420 5743 5428 
333 366 663 664 3156 5737 5741 5743 5742 5747 
630 664 333 663 5745 5743 5420 5739 5747 5741 
631 333 664 334 5428 5743 5746 5430 2729 5748 
664 333 367 334 5743 3165 5744 5748 2729 3166 
334 367 665 368 3166 5749 5750 3175 3177 5751 
631 665 632 334 5752 5753 5445 5430 5750 5438 
334 367 664 665 3166 5744 5748 5750 5749 5754 
631 665 334 664 5752 5750 5430 5746 5754 5748 
632 334 665 335 5438 5750 5753 5440 2743 5755 
665 334 368 335 5750 3175 5751 5755 2743 3176 
335 368 666 369 3176 5756 5757 3185 3187 5758 
632 666 633 335 5759 5760 5455 5440 5757 5448 
335 368 665 666 3176 5751 5755 5757 5756 5761 
632 666 335 665 5759 5757 5440 5753 5761 5755 
633 335 666 336 5448 5757 5760 5450 2757 5762 
666 335 369 336 5757 3185 5758 5762 2757 3186 
336 369 667 370 3186 5763 5764 3195 3197 5765 
633 667 634 336 5766 5767 5465 5450 5764 5458 
336 369 666 667 3186 5758 5762 5764 5763 5768 
633 667 336 666 5766 5764 5450 5760 5768 5762 
634 336 667 337 5458 5764 5767 5460 2771 5769 
667 336 370 337 5764 3195 5765 5769 2771 3196 
337 370 668 371 3196 5770 5771 3205 3207 5772 
634 668 635 337 5773 5774 5475 5460 5771 5468 
337 370 667 668 3196 5765 5769 5771 5770 5775 
634 668 337 667 5773 5771 5460 5767 5775 5769 
635 337 668 338 5468 5771 5774 5470 2785 5776 
668 337 371 338 5771 3205 5772 5776 2785 3206 
338 371 669 372 3206 5777 5778 3215 3217 5779 
635 669 636 338 5780 5781 5485 5470 5778 5478 
338 371 668 669 3206 5772 5776 5778 5777 5782 
635 669 338 668 5780 5778 5470 5774 5782 5776 
636 338 669 339 5478 5778 5781 5480 2799 5783 
669 338 372 339 5778 3215 5779 5783 2799 3216 
339 372 670 373 3216 5784 5785 3225 3227 5786 
636 670 637 339 5787 5788 5495 5480 5785 5488 
339 372 669 670 3216 5779 5783 5785 5784 5789 
636 670 339 669 5787 5785 5480 5781 5789 5783 
637 339 670 340 5488 5785 5788 5490 2813 5790 
670 339 373 340 5785 3225 5786 5790 2813 3226 
340 373 671 374 3226 5791 5792 3235 3237 5793 
637 671 638 340 5794 5795 5505 5490 5792 5498 
340 373 670 671 3226 5786 5790 5792 5791 5796 
637 671 340 670 5794 5792 5490 5788 5796 5790 
638 340 671 341 5498 5792 5795 5500 2827 5797 
671 340 374 341 5792 3235 5793 5797 2827 3236 
341 374 672 375 3236 5798 5799 3245 3247 5800 
638 672 639 341 5801 5802 5515 5500 5799 5508 
341 374 671 672 3236 5793 5797 5799 5798 5803 
638 672 341 671 5801 5799 5500 5795 5803 5797 
639 341 672 342 5508 5799 5802 5510 2841 5804 
672 341 375 342 5799 3245 5800 5804 2841 3246 
342 375 673 376 3246 5805 5806 3255 3257 5807 
639 673 640 342 5808 5809 5525 5510 5806 5518 
342 375 672 673 3246 5800 5804 5806 5805 5810 
639 673 342 672 5808 5806 5510 5802 5810 5804 
640 342 673 343 5518 5806 5809 5520 2855 5811 
673 342 376 343 5806 3255 5807 5811 2855 3256 
343 376 674 377 3256 5812 5813 3265 3267 5814 
640 674 641 343 5815 5816 5535 5520 5813 5528 
343 376 673 674 3256 5807 5811 5813 5812 5817 
640 674 343 673 5815 5813 5520 5809 5817 5811 
641 343 674 344 5528 5813 5816 5530 2869 5818 
674 343 377 344 5813 3265 5814 5818 2869 3266 
344 377 675 378 3266 5819 5820 3275 3277 5821 
641 675 642 344 5822 5823 5545 5530 5820 5538 
344 377 674 675 3266 5814 5818 5820 5819 5824 
641 675 344 674 5822 5820 5530 5816 5824 5818 
642 344 675 345 5538 5820 5823 5540 2883 5825 
675 344 378 345 5820 3275 5821 5825 2883 3276 
345 378 676 379 3276 5826 5827 3285 3287 5828 
642 676 643 345 5829 5830 5555 5540 5827 5548 
345 378 675 676 3276 5821 5825 5827 5826 5831 
642 676 345 675 5829 5827 5540 5823 5831 5825 
643 345 676 346 5548 5827 5830 5550 2897 5832 
676 345 379 346 5827 3285 5828 5832 2897 3286 
346 379 677 380 3286 5833 5834 3295 3297 5835 
643 677 644 346 5836 5837 5565 5550 5834 5558 
346 379 676 677 3286 5828 5832 5834 5833 5838 
643 677 346 676 5836 5834 5550 5830 5838 5832 
644 346 677 347 5558 5834 5837 5560 2911 5839 
677 346 380 347 5834 3295 5835 5839 2911 3296 
347 380 678 381 3296 5840 5841 3305 3307 5842 
644 678 645 347 5843 5844 5575 5560 5841 5568 
347 380 677 678 3296 5835 5839 5841 5840 5845 
644 678 347 677 5843 5841 5560 5837 5845 5839 
645 347 678 348 5568 5841 5844 5570 2925 5846 
678 347 381 348 5841 3305 5842 5846 2925 3306 
348 381 679 382 3306 5847 5848 3315 3317 5849 
645 679 646 348 5850 5851 5585 5570 5848 5578 
348 381 678 679 3306 5842 5846 5848 5847 5852 
645 679 348 678 5850 5848 5570 5844 5852 5846 
646 348 679 349 5578 5848 5851 5580 2939 5853 
679 348 382 349 5848 3315 5849 5853 2939 3316 
349 382 680 383 3316 5854 5855 3325 3327 5856 
646 680 647 349 5857 5858 5595 5580 5855 5588 
349 382 679 680 3316 5849 5853 5855 5854 5859 
646 680 349 679 5857 5855 5580 5851 5859 5853 
647 349 680 350 5588 5855 5858 5590 2953 5860 
680 349 383 350 5855 3325 5856 5860 2953 3326 
350 383 681 384 3326 5861 5862 3335 3337 5863 
647 681 648 350 5864 5865 5605 5590 5862 5598 
350 383 680 681 3326 5856 5860 5862 5861 5866 
647 681 350 680 5864 5862 5590 5858 5866 5860 
648 350 681 351 5598 5862 5865 5600 2967 5867 
681 350 384 351 5862 3335 5863 5867 2967 3336 
351 384 682 385 3336 5868 5869 3345 3347 5870 
648 682 649 351 5871 5872 5615 5600 5869 5608 
351 384 681 682 3336 5863 5867 5869 5868 5873 
648 682 351 681 5871 5869 5600 5865 5873 5867 
649 351 682 352 5608 5869 5872 5610 2981 5874 
682 351 385 352 5869 3345 5870 5874 2981 3346 
352 385 683 386 3346 5875 5876 3355 3357 5877 
649 683 650 352 5878 5879 5625 5610 5876 5618 
352 385 682 683 3346 5870 5874 5876 5875 5880 
649 683 352 682 5878 5876 5610 5872 5880 5874 
650 352 683 353 5618 5876 5879 5620 2995 5881 
683 352 386 353 5876 3355 5877 5881 2995 3356 
353 386 684 387 3356 5882 5883 3365 3367 5884 
650 684 651 353 5885 5886 5635 5620 5883 5628 
353 386 683 684 3356 5877 5881 5883 5882 5887 
650 684 353 683 5885 5883 5620 5879 5887 5881 
651 353 684 354 5628 5883 5886 5630 3009 5888 
684 353 387 354 5883 3365 5884 5888 3009 3366 
354 387 685 388 3366 5889 5890 3375 3377 5891 
651 685 652 354 5892 5893 5645 5630 5890 5638 
354 387 684 685 3366 5884 5888 5890 5889 5894 
651 685 354 684 5892 5890 5630 5886 5894 5888 
652 354 685 355 5638 5890 5893 5640 3023 5895 
685 354 388 355 5890 3375 5891 5895 3023 3376 
355 388 686 389 3376 5896 5897 3385 3387 5898 
652 686 653 355 5899 5900 5655 5640 5897 5648 
355 388 685 686 3376 5891 5895 5897 5896 5901 
652 686 355 685 5899 5897 5640 5893 5901 5895 
653 355 686 356 5648 5897 5900 5650 3037 5902 
686 355 389 356 5897 3385 5898 5902 3037 3386 
356 389 687 390 3386 5903 5904 3395 3397 5905 
653 687 654 356 5906 5907 5665 5650 5904 5658 
356 389 686 687 3386 5898 5902 5904 5903 5908 
653 687 356 686 5906 5904 5650 5900 5908 5902 
654 356 687 357 5658 5904 5907 5660 3051 5909 
687 356 390 357 5904 3395 5905 5909 3051 3396 
357 390 688 391 3396 5910 5911 3405 3407 5912 
654 688 655 357 5913 5914 5675 5660 5911 5668 
357 390 687 688 3396 5905 5909 5911 5910 5915 
654 688 357 687 5913 5911 5660 5907 5915 5909 
655 357 688 358 5668 5911 5914 5670 3065 5916 
688 357 391 358 5911 3405 5912 5916 3065 3406 
358 391 689 392 3406 5917 5918 3415 3417 5919 
655 689 656 358 5920 5921 5685 5670 5918 5678 
358 391 688 689 3406 5912 5916 5918 5917 5922 
655 689 358 688 5920 5918 5670 5914 5922 5916 
656 358 689 359 5678 5918 5921 5680 3079 5923 
689 358 392 359 5918 3415 5919 5923 3079 3416 
359 392 690 393 3416 5924 5925 3425 3427 5926 
656 690 657 359 5927 5928 5695 5680 5925 5688 
359 392 689 690 3416 5919 5923 5925 5924 5929 
656 690 359 689 5927 5925 5680 5921 5929 5923 
657 359 690 360 5688 5925 5928 5690 3093 5930 
690 359 393 360 5925 3425 5926 5930 3093 3426 
360 393 691 394 3426 5931 5932 3435 3437 5933 
657 691 658 360 5934 5935 5705 5690 5932 5698 
360 393 690 691 3426 5926 5930 5932 5931 5936 
657 691 360 690 5934 5932 5690 5928 5936 5930 
658 360 691 361 5698 5932 5935 5700 3107 5937 
691 360 394 361 5932 3435 5933 5937 3107 3436 
361 394 692 395 3436 5938 5939 3445 3447 5940 
658 692 659 361 5941 5942 5715 5700 5939 5708 
361 394 691 692 3436 5933 5937 5939 5938 5943 
658 692 361 691 5941 5939 5700 5935 5943 5937 
659 361 692 362 5708 5939 5942 5710 3121 5944 
692 361 395 362 5939 3445 5940 5944 3121 3446 
363 396 694 397 3461 5945 5946 3456 3460 5947 
660 694 661 363 5948 5949 5725 5723 5946 5718 
363 396 693 694 3461 5950 5951 5946 5945 5952 
660 694 363 693 5948 5946 5723 5953 5952 5951 
661 363 694 364 5718 5946 5949 5720 3136 5954 
694 363 397 364 5946 3456 5947 5954 3136 3457 
364 397 695 398 3457 5955 5956 3469 3471 5957 
661 695 662 364 5958 5959 5733 5720 5956 5728 
364 397 694 695 3457 5947 5954 5956 5955 5960 
661 695 364 694 5958 5956 5720 5949 5960 5954 
662 364 695 365 5728 5956 5959 5730 3147 5961 
695 364 398 365 5956 3469 5957 5961 3147 3470 
365 398 696 399 3470 5962 5963 3479 3481 5964 
662 696 663 365 5965 5966 5740 5730 5963 5735 
365 398 695 696 3470 5957 5961 5963 5962 5967 
662 696 365 695 5965 5963 5730 5959 5967 5961 
663 365 696 366 5735 5963 5966 5737 3157 5968 
696 365 399 366 5963 3479 5964 5968 3157 3480 
366 399 697 400 3480 5969 5970 3489 3491 5971 
663 697 664 366 5972 5973 5747 5737 5970 5742 
366 399 696 697 3480 5964 5968 5970 5969 5974 
663 697 366 696 5972 5970 5737 5966 5974 5968 
664 366 697 367 5742 5970 5973 5744 3167 5975 
697 366 400 367 5970 3489 5971 5975 3167 3490 
367 400 698 401 3490 5976 5977 3499 3501 5978 
664 698 665 367 5979 5980 5754 5744 5977 5749 
367 400 697 698 3490 5971 5975 5977 5976 5981 
664 698 367 697 5979 5977 5744 5973 5981 5975 
665 367 698 368 5749 5977 5980 5751 3177 5982 
698 367 401 368 5977 3499 5978 5982 3177 3500 
368 401 699 402 3500 5983 5984 3509 3511 5985 
665 699 666 368 5986 5987 5761 5751 5984 5756 
368 401 698 699 3500 5978 5982 5984 5983 5988 
665 699 368 698 5986 5984 5751 5980 5988 5982 
666 368 699 369 5756 5984 5987 5758 3187 5989 
699 368 402 369 5984 3509 5985 5989 3187 3510 
369 402 700 403 3510 5990 5991 3519 3521 5992 
666 700 667 369 5993 5994 5768 5758 5991 5763 
369 402 699 700 3510 5985 5989 5991 5990 5995 
666 700 369 699 5993 5991 5758 5987 5995 5989 
667 369 700 370 5763 5991 5994 5765 3197 5996 
700 369 403 370 5991 3519 5992 5996 3197 3520 
370 403 701 404 3520 5997 5998 3529 3531 5999 
667 701 668 370 6000 6001 5775 5765 5998 5770 
370 403 700 701 3520 5992 5996 5998 5997 6002 
667 701 370 700 6000 5998 5765 5994 6002 5996 
668 370 701 371 5770 5998 6001 5772 3207 6003 
701 370 404 371 5998 3529 5999 6003 3207 3530 
371 404 702 405 3530 6004 6005 3539 3541 6006 
668 702 669 371 6007 6008 5782 5772 6005 5777 
371 404 701 702 3530 5999 6003 6005 6004 6009 
668 702 371 701 6007 6005 5772 6001 6009 6003 
669 371 702 372 5777 6005 6008 5779 3217 6010 
702 371 405 372 6005 3539 6006 6010 3217 3540 
372 405 703 406 3540 6011 6012 3549 3551 6013 
669 703 670 372 6014 6015 5789 5779 6012 5784 
372 405 702 703 3540 6006 6010 6012 6011 6016 
669 703 372 702 6014 6012 5779 6008 6016 6010 
670 372 703 373 5784 6012 6015 5786 3227 6017 
703 372 406 373 6012 3549 6013 6017 3227 3550 
373 406 704 407 3550 6018 6019 3559 3561 6020 
670 704 671 373 6021 6022 5796 5786 6019 5791 
373 406 703 704 3550 6013 6017 6019 6018 6023 
670 704 373 703 6021 6019 5786 6015 6023 6017 
671 373 704 374 5791 6019 6022 5793 3237 6024 
704 373 407 374 6019 3559 6020 6024 3237 3560 
374 407 705 408 3560 6025 6026 3569 3571 6027 
671 705 672 374 6028 6029 5803 5793 6026 5798 
374 407 704 705 3560 6020 6024 6026 6025 6030 
671 705 374 704 6028 6026 5793 6022 6030 6024 
672 374 705 375 5798 6026 6029 5800 3247 6031 
705 374 408 375 6026 3569 6027 6031 3247 3570 
375 408 706 409 3570 6032 6033 3579 3581 6034 
672 706 673 375 6035 6036 5810 5800 6033 5805 
375 408 705 706 3570 6027 6031 6033 6032 6037 
672 706 375 705 6035 6033 5800 6029 6037 6031 
673 375 706 376 5805 6033 6036 5807 3257 6038 
706 375 409 376 6033 3579 6034 6038 3257 3580 
376 409 707 410 3580 6039 6040 3589 3591 6041 
673 707 674 376 6042 6043 5817 5807 6040 5812 
376 409 706 707 3580 6034 6038 6040 6039 6044 
673 707 376 706 6042 6040 5807 6036 6044 6038 
674 376 707 377 5812 6040 6043 5814 3267 6045 
707 376 410 377 6040 3589 6041 6045 3267 3590 
377 410 708 411 3590 6046 6047 3599 3601 6048 
674 708 675 377 6049 6050 5824 5814 6047 5819 
377 410 707 708 3590 6041 6045 6047 6046 6051 
674 708 377 707 6049 6047 5814 6043 6051 6045 
675 377 708 378 5819 6047 6050 5821 3277 6052 
708 377 411 378 6047 3599 6048 6052 3277 3600 
378 411 709 412 3600 6053 6054 3609 3611 6055 
675 709 676 378 6056 6057 5831 5821 6054 5826 
378 411 708 709 3600 6048 6052 6054 6053 6058 
675 709 378 708 6056 6054 5821 6050 6058 6052 
676 378 709 379 5826 6054 6057 5828 3287 6059 
709 378 412 379 6054 3609 6055 6059 3287 3610 
379 412 710 413 3610 6060 6061 3619 3621 6062 
676 710 677 379 6063 6064 5838 5828 6061 5833 
379 412 709 710 3610 6055 6059 6061 6060 6065 
676 710 379 709 6063 6061 5828 6057 6065 6059 
677 379 710 380 5833 6061 6064 5835 3297 6066 
710 379 413 380 6061 3619 6062 6066 3297 3620 
380 413 711 414 3620 6067 6068 3629 3631 6069 
677 711 678 380 6070 6071 5845 5835 6068 5840 
380 413 710 711 3620 6062 6066 6068 6067 6072 
677 711 380 710 6070 6068 5835 6064 6072 6066 
678 380 711 381 5840 6068 6071 5842 3307 6073 
711 380 414 381 6068 3629 6069 6073 3307 3630 
381 414 712 415 3630 6074 6075 3639 3641 6076 
678 712 679 381 6077 6078 5852 5842 6075 5847 
381 414 711 712 3630 6069 6073 6075 6074 6079 
678 712 381 711 6077 6075 5842 6071 6079 6073 
679 381 712 382 5847 6075 6078 5849 3317 6080 
712 381 415 382 6075 3639 6076 6080 3317 3640 
382 415 713 416 3640 6081 6082 3649 3651 6083 
679 713 680 382 6084 6085 5859 5849 6082 5854 
382 415 712 713 3640 6076 6080 6082 6081 6086 
679 713 382 712 6084 6082 5849 6078 6086 6080 
680 382 713 383 5854 6082 6085 5856 3327 6087 
713 382 416 383 6082 3649 6083 6087 3327 3650 
383 416 714 417 3650 6088 6089 3659 3661 6090 
680 714 681 383 6091 6092 5866 5856 6089 5861 
383 416 713 714 3650 6083 6087 6089 6088 6093 
680 714 383 713 6091 6089 5856 6085 6093 6087 
681 383 714 384 5861 6089 6092 5863 3337 6094 
714 383 417 384 6089 3659 6090 6094 3337 3660 
384 417 715 418 3660 6095 6096 3669 3671 6097 
681 715 682 384 6098 6099 5873 5863 6096 5868 
384 417 714 715 3660 6090 6094 6096 6095 6100 
681 715 384 714 6098 6096 5863 6092 6100 6094 
682 384 715 385 5868 6096 6099 5870 3347 6101 
715 384 418 385 6096 3669 6097 6101 3347 3670 
385 418 716 419 3670 6102 6103 3679 3681 6104 
682 716 683 385 6105 6106 5880 5870 6103 5875 
385 418 715 716 3670 6097 6101 6103 6102 6107 
682 716 385 715 6105 6103 5870 6099 6107 6101 
683 385 716 386 5875 6103 6106 5877 3357 6108 
716 385 419 386 6103 3679 6104 6108 3357 3680 
386 419 717 420 3680 6109 6110 3689 3691 6111 
683 717 684 386 6112 6113 5887 5877 6110 5882 
386 419 716 717 3680 6104 6108 6110 6109 6114 
683 717 386 716 6112 6110 5877 6106 6114 6108 
684 386 717 387 5882 6110 6113 5884 3367 6115 
717 386 420 387 6110 3689 6111 6115 3367 3690 
387 420 718 421 3690 6116 6117 3699 3701 6118 
684 718 685 387 6119 6120 5894 5884 6117 5889 
387 420 717 718 3690 6111 6115 6117 6116 6121 
684 718 387 717 6119 6117 5884 6113 6121 6115 
685 387 718 388 5889 6117 6120 5891 3377 6122 
718 387 421 388 6117 3699 6118 6122 3377 3700 
388 421 719 422 3700 6123 6124 3709 3711 6125 
685 719 686 388 6126 6127 5901 5891 6124 5896 
388 421 718 719 3700 6118 6122 6124 6123 6128 
685 719 388 718 6126 6124 5891 6120 6128 6122 
686 388 719 389 5896 6124 6127 5898 3387 6129 
719 388 422 389 6124 3709 6125 6129 3387 3710 
389 422 720 423 3710 6130 6131 3719 3721 6132 
686 720 687 389 6133 6134 5908 5898 6131 5903 
389 422 719 720 3710 6125 6129 6131 6130 6135 
686 720 389 719 6133 6131 5898 6127 6135 6129 
687 389 720 390 5903 6131 6134 5905 3397 6136 
720 389 423 390 6131 3719 6132 6136 3397 3720 
390 423 721 424 3720 6137 6138 3729 3731 6139 
687 721 688 390 6140 6141 5915 5905 6138 5910 
390 423 720 721 3720 6132 6136 6138 6137 6142 
687 721 390 720 6140 6138 5905 6134 6142 6136 
688 390 721 391 5910 6138 6141 5912 3407 6143 
721 390 424 391 6138 3729 6139 6143 3407 3730 
391 424 722 425 3730 6144 6145 3739 3741 6146 
688 722 689 391 6147 6148 5922 5912 6145 5917 
391 424 721 722 3730 6139 6143 6145 6144 6149 
688 722 391 721 6147 6145 5912 6141 6149 6143 
689 391 722 392 5917 6145 6148 5919 3417 6150 
722 391 425 392 6145 3739 6146 6150 3417 3740 
392 425 723 426 3740 6151 6152 3749 3751 6153 
689 723 690 392 6154 6155 5929 5919 6152 5924 
392 425 722 723 3740 6146 6150 6152 6151 6156 
689 723 392 722 6154 6152 5919 6148 6156 6150 
690 392 723 393 5924 6152 6155 5926 3427 6157 
723 392 426 393 6152 3749 6153 6157 3427 3750 
393 426 724 427 3750 6158 6159 3759 3761 6160 
690 724 691 393 6161 6162 5936 5926 6159 5931 
393 426 723 724 3750 6153 6157 6159 6158 6163 
690 724 393 723 6161 6159 5926 6155 6163 6157 
691 393 724 394 5931 6159 6162 5933 3437 6164 
724 393 427 394 6159 3759 6160 6164 3437 3760 
394 427 725 428 3760 6165 6166 3769 3771 6167 
691 725 692 394 6168 6169 5943 5933 6166 5938 
394 427 724 725 3760 6160 6164 6166 6165 6170 
691 725 394 724 6168 6166 5933 6162 6170 6164 
692 394 725 395 5938 6166 6169 5940 3447 6171 
725 394 428 395 6166 3769 6167 6171 3447 3770 
396 429 727 430 3785 6172 6173 3780 3784 6174 
693 727 694 396 6175 6176 5952 5950 6173 5945 
396 429 726 727 3785 6177 6178 6173 6172 6179 
693 727 396 726 6175 6173 5950 6180 6179 6178 
694 396 727 397 5945 6173 6176 5947 3460 6181 
727 396 430 397 6173 3780 6174 6181 3460 3781 
397 430 728 431 3781 6182 6183 3793 3795 6184 
694 728 695 397 6185 6186 5960 5947 6183 5955 
397 430 727 728 3781 6174 6181 6183 6182 6187 
694 728 397 727 6185 6183 5947 6176 6187 6181 
695 397 728 398 5955 6183 6186 5957 3471 6188 
728 397 431 398 6183 3793 6184 6188 3471 3794 
398 431 729 432 3794 6189 6190 3803 3805 6191 
695 729 696 398 6192 6193 5967 5957 6190 5962 
398 431 728 729 3794 6184 6188 6190 6189 6194 
695 729 398 728 6192 6190 5957 6186 6194 6188 
696 398 729 399 5962 6190 6193 5964 3481 6195 
729 398 432 399 6190 3803 6191 6195 3481 3804 
399 432 730 433 3804 6196 6197 3813 3815 6198 
696 730 697 399 6199 6200 5974 5964 6197 5969 
399 432 729 730 3804 6191 6195 6197 6196 6201 
696 730 399 729 6199 6197 5964 6193 6201 6195 
697 399 730 400 5969 6197 6200 5971 3491 6202 
730 399 433 400 6197 3813 6198 6202 3491 3814 
400 433 731 434 3814 6203 6204 3823 3825 6205 
697 731 698 400 6206 6207 5981 5971 6204 5976 
400 433 730 731 3814 6198 6202 6204 6203 6208 
697 731 400 730 6206 6204 5971 6200 6208 6202 
698 400 731 401 5976 6204 6207 5978 3501 6209 
731 400 434 401 6204 3823 6205 6209 3501 3824 
401 434 732 435 3824 6210 6211 3833 3835 6212 
698 732 699 401 6213 6214 5988 5978 6211 5983 
401 434 731 732 3824 6205 6209 6211 6210 6215 
698 732 401 731 6213 6211 5978 6207 6215 6209 
699 401 732 402 5983 6211 6214 5985 3511 6216 
732 401 435 402 6211 3833 6212 6216 3511 3834 
402 435 733 436 3834 6217 6218 3843 3845 6219 
699 733 700 402 6220 6221 5995 5985 6218 5990 
402 435 732 733 3834 6212 6216 6218 6217 6222 
699 733 402 732 6220 6218 5985 6214 6222 6216 
700 402 733 403 5990 6218 6221 5992 3521 6223 
733 402 436 403 6218 3843 6219 6223 3521 3844 
403 436 734 437 3844 6224 6225 3853 3855 6226 
700 734 701 403 6227 6228 6002 5992 6225 5997 
403 436 733 734 3844 6219 6223 6225 6224 6229 
700 734 403 733 6227 6225 5992 6221 6229 6223 
701 403 734 404 5997 6225 6228 5999 3531 6230 
734 403 437 404 6225 3853 6226 6230 3531 3854 
404 437 735 438 3854 6231 6232 3863 3865 6233 
701 735 702 404 6234 6235 6009 5999 6232 6004 
404 437 734 735 3854 6226 6230 6232 6231 6236 
701 735 404 734 6234 6232 5999 6228 6236 6230 
702 404 735 405 6004 6232 6235 6006 3541 6237 
735 404 438 405 6232 3863 6233 6237 3541 3864 
405 438 736 439 3864 6238 6239 3873 3875 6240 
702 736 703 405 6241 6242 6016 6006 6239 6011 
405 438 735 736 3864 6233 6237 6239 6238 6243 
702 736 405 735 6241 6239 6006 6235 6243 6237 
703 405 736 406 6011 6239 6242 6013 3551 6244 
736 405 439 406 6239 3873 6240 6244 3551 3874 
406 439 737 440 3874 6245 6246 3883 3885 6247 
703 737 704 406 6248 6249 6023 6013 6246 6018 
406 439 736 737 3874 6240 6244 6246 6245 6250 
703 737 406 736 6248 6246 6013 6242 6250 6244 
704 406 737 407 6018 6246 6249 6020 3561 6251 
737 406 440 407 6246 3883 6247 6251 3561 3884 
407 440 738 441 3884 6252 6253 3893 3895 6254 
704 738 705 407 6255 6256 6030 6020 6253 6025 
407 440 737 738 3884 6247 6251 6253 6252 6257 
704 738 407 737 6255 6253 6020 6249 6257 6251 
705 407 738 408 6025 6253 6256 6027 3571 6258 
738 407 441 408 6253 3893 6254 6258 3571 3894 
408 441 739 442 3894 6259 6260 3903 3905 6261 
705 739 706 408 6262 6263 6037 6027 6260 6032 
408 441 738 739 3894 6254 6258 6260 6259 6264 
705 739 408 738 6262 6260 6027 6256 6264 6258 
706 408 739 409 6032 6260 6263 6034 3581 6265 
739 408 442 409 6260 3903 6261 6265 3581 3904 
409 442 740 443 3904 6266 6267 3913 3915 6268 
706 740 707 409 6269 6270 6044 6034 6267 6039 
409 442 739 740 3904 6261 6265 6267 6266 6271 
706 740 409 739 6269 6267 6034 6263 6271 6265 
707 409 740 410 6039 6267 6270 6041 3591 6272 
740 409 443 410 6267 3913 6268 6272 3591 3914 
410 443 741 444 3914 6273 6274 3923 3925 6275 
707 741 708 410 6276 6277 6051 6041 6274 6046 
410 443 740 741 3914 6268 6272 6274 6273 6278 
707 741 410 740 6276 6274 6041 6270 6278 6272 
708 410 741 411 6046 6274 6277 6048 3601 6279 
741 410 444 411 6274 3923 6275 6279 3601 3924 
411 444 742 445 3924 6280 6281 3933 3935 6282 
708 742 709 411 6283 6284 6058 6048 6281 6053 
411 444 741 742 3924 6275 6279 6281 6280 6285 
708 742 411 741 6283 6281 6048 6277 6285 6279 
709 411 742 412 6053 6281 6284 6055 3611 6286 
742 411 445 412 6281 3933 6282 6286 3611 3934 
412 445 743 446 3934 6287 6288 3943 3945 6289 
709 743 710 412 6290 6291 6065 6055 6288 6060 
412 445 742 743 3934 6282 6286 6288 6287 6292 
709 743 412 742 6290 6288 6055 6284 6292 6286 
710 412 743 413 6060 6288 6291 6062 3621 6293 
743 412 446 413 6288 3943 6289 6293 3621 3944 
413 446 744 447 3944 6294 6295 3953 3955 6296 
710 744 711 413 6297 6298 6072 6062 6295 6067 
413 446 743 744 3944 6289 6293 6295 6294 6299 
710 744 413 743 6297 6295 6062 6291 6299 6293 
711 413 744 414 6067 6295 6298 6069 3631 6300 
744 413 447 414 6295 3953 6296 6300 3631 3954 
414 447 745 448 3954 6301 6302 3963 3965 6303 
711 745 712 414 6304 6305 6079 6069 6302 6074 
414 447 744 745 3954 6296 6300 6302 6301 6306 
711 745 414 744 6304 6302 6069 6298 6306 6300 
712 414 745 415 6074 6302 6305 6076 3641 6307 
745 414 448 415 6302 3963 6303 6307 3641 3964 
415 448 746 449 3964 6308 6309 3973 3975 6310 
712 746 713 415 6311 6312 6086 6076 6309 6081 
415 448 745 746 3964 6303 6307 6309 6308 6313 
712 746 415 745 6311 6309 6076 6305 6313 6307 
713 415 746 416 6081 6309 6312 6083 3651 6314 
746 415 449 416 6309 3973 6310 6314 3651 3974 
416 449 747 450 3974 6315 6316 3983 3985 6317 
713 747 714 416 6318 6319 6093 6083 6316 6088 
416 449 746 747 3974 6310 6314 6316 6315 6320 
713 747 416 746 6318 6316 6083 6312 6320 6314 
714 416 747 417 6088 6316 6319 6090 3661 6321 
747 416 450 417 6316 3983 6317 6321 3661 3984 
417 450 748 451 3984 6322 6323 3993 3995 6324 
714 748 715 417 6325 6326 6100 6090 6323 6095 
417 450 747 748 3984 6317 6321 6323 6322 6327 
714 748 417 747 6325 6323 6090 6319 6327 6321 
715 417 748 418 6095 6323 6326 6097 3671 6328 
748 417 451 418 6323 3993 6324 6328 3671 3994 
418 451 749 452 3994 6329 6330 4003 4005 6331 
715 749 716 418 6332 6333 6107 6097 6330 6102 
418 451 748 749 3994 6324 6328 6330 6329 6334 
715 749 418 748 6332 6330 6097 6326 6334 6328 
716 418 749 419 6102 6330 6333 6104 3681 6335 
749 418 452 419 6330 4003 6331 6335 3681 4004 
419 452 750 453 4004 6336 6337 4013 4015 6338 
716 750 717 419 6339 6340 6114 6104 6337 6109 
419 452 749 750 4004 6331 6335 6337 6336 6341 
716 750 419 749 6339 6337 6104 6333 6341 6335 
717 419 750 420 6109 6337 6340 6111 3691 6342 
750 419 453 420 6337 4013 6338 6342 3691 4014 
420 453 751 454 4014 6343 6344 4023 4025 6345 
717 751 718 420 6346 6347 6121 6111 6344 6116 
420 453 750 751 4014 6338 6342 6344 6343 6348 
717 751 420 750 6346 6344 6111 6340 6348 6342 
718 420 751 421 6116 6344 6347 6118 3701 6349 
751 420 454 421 6344 4023 6345 6349 3701 4024 
421 454 752 455 4024 6350 6351 4033 4035 6352 
718 752 719 421 6353 6354 6128 6118 6351 6123 
421 454 751 752 4024 6345 6349 6351 6350 6355 
718 752 421 751 6353 6351 6118 6347 6355 6349 
719 421 752 422 6123 6351 6354 6125 3711 6356 
752 421 455 422 6351 4033 6352 6356 3711 4034 
422 455 753 456 4034 6357 6358 4043 4045 6359 
719 753 720 422 6360 6361 6135 6125 6358 6130 
422 455 752 753 4034 6352 6356 6358 6357 6362 
719 753 422 752 6360 6358 6125 6354 6362 6356 
720 422 753 423 6130 6358 6361 6132 3721 6363 
753 422 456 423 6358 4043 6359 6363 3721 4044 
423 456 754 457 4044 6364 6365 4053 4055 6366 
720 754 721 423 6367 6368 6142 6132 6365 6137 
423 456 753 754 4044 6359 6363 6365 6364 6369 
720 754 423 753 6367 6365 6132 6361 6369 6363 
721 423 754 424 6137 6365 6368 6139 3731 6370 
754 423 457 424 6365 4053 6366 6370 3731 4054 
424 457 755 458 4054 6371 6372 4063 4065 6373 
721 755 722 424 6374 6375 6149 6139 6372 6144 
424 457 754 755 4054 6366 6370 6372 6371 6376 
721 755 424 754 6374 6372 6139 6368 6376 6370 
722 424 755 425 6144 6372 6375 6146 3741 6377 
755 424 458 425 6372 4063 6373 6377 3741 4064 
425 458 756 459 4064 6378 6379 4073 4075 6380 
722 756 723 425 6381 6382 6156 6146 6379 6151 
425 458 755 756 4064 6373 6377 6379 6378 6383 
722 756 425 755 6381 6379 6146 6375 6383 6377 
723 425 756 426 6151 6379 6382 6153 3751 6384 
756 425 459 426 6379 4073 6380 6384 3751 4074 
426 459 757 460 4074 6385 6386 4083 4085 6387 
723 757 724 426 6388 6389 6163 6153 6386 6158 
426 459 756 757 4074 6380 6384 6386 6385 6390 
723 757 426 756 6388 6386 6153 6382 6390 6384 
724 426 757 427 6158 6386 6389 6160 3761 6391 
757 426 460 427 6386 4083 6387 6391 3761 4084 
427 460 758 461 4084 6392 6393 4093 4095 6394 
724 758 725 427 6395 6396 6170 6160 6393 6165 
427 460 757 758 4084 6387 6391 6393 6392 6397 
724 758 427 757 6395 6393 6160 6389 6397 6391 
725 427 758 428 6165 6393 6396 6167 3771 6398 
758 427 461 428 6393 4093 6394 6398 3771 4094 
429 462 760 463 4109 6399 6400 4104 4108 6401 
726 760 727 429 6402 6403 6179 6177 6400 6172 
429 462 759 760 4109 6404 6405 6400 6399 6406 
726 760 429 759 6402 6400 6177 6407 6406 6405 
727 429 760 430 6172 6400 6403 6174 3784 6408 
760 429 463 430 6400 4104 6401 6408 3784 4105 
430 463 761 464 4105 6409 6410 4117 4119 6411 
727 761 728 430 6412 6413 6187 6174 6410 6182 
430 463 760 761 4105 6401 6408 6410 6409 6414 
727 761 430 760 6412 6410 6174 6403 6414 6408 
728 430 761 431 6182 6410 6413 6184 3795 6415 
761 430 464 431 6410 4117 6411 6415 3795 4118 
431 464 762 465 4118 6416 6417 4127 4129 6418 
728 762 729 431 6419 6420 6194 6184 6417 6189 
431 464 761 762 4118 6411 6415 6417 6416 6421 
728 762 431 761 6419 6417 6184 6413 6421 6415 
729 431 762 432 6189 6417 6420 6191 3805 6422 
762 431 465 432 6417 4127 6418 6422 3805 4128 
432 465 763 466 4128 6423 6424 4137 4139 6425 
729 763 730 432 6426 6427 6201 6191 6424 6196 
432 465 762 763 4128 6418 6422 6424 6423 6428 
729 763 432 762 6426 6424 6191 6420 6428 6422 
730 432 763 433 6196 6424 6427 6198 3815 6429 
763 432 466 433 6424 4137 6425 6429 3815 4138 
433 466 764 467 4138 6430 6431 4147 4149 6432 
730 764 731 433 6433 6434 6208 6198 6431 6203 
433 466 763 764 4138 6425 6429 6431 6430 6435 
730 764 433 763 6433 6431 6198 6427 6435 6429 
731 433 764 434 6203 6431 6434 6205 3825 6436 
764 433 467 434 6431 4147 6432 6436 3825 4148 
434 467 765 468 4148 6437 6438 4157 4159 6439 
731 765 732 434 6440 6441 6215 6205 6438 6210 
434 467 764 765 4148 6432 6436 6438 6437 6442 
731 765 434 764 6440 6438 6205 6434 6442 6436 
732 434 765 435 6210 6438 6441 6212 3835 6443 
765 434 468 435 6438 4157 6439 6443 3835 4158 
435 468 766 469 4158 6444 6445 4167 4169 6446 
732 766 733 435 6447 6448 6222 6212 6445 6217 
435 468 765 766 4158 6439 6443 6445 6444 6449 
732 766 435 765 6447 6445 6212 6441 6449 6443 
733 435 766 436 6217 6445 6448 6219 3845 6450 
766 435 469 436 6445 4167 6446 6450 3845 4168 
436 469 767 470 4168 6451 6452 4177 4179 6453 
733 767 734 436 6454 6455 6229 6219 6452 6224 
436 469 766 767 4168 6446 6450 6452 6451 6456 
733 767 436 766 6454 6452 6219 6448 6456 6450 
734 436 767 437 6224 6452 6455 6226 3855 6457 
767 436 470 437 6452 4177 6453 6457 3855 4178 
437 470 768 471 4178 6458 6459 4187 4189 6460 
734 768 735 437 6461 6462 6236 6226 6459 6231 
437 470 767 768 4178 6453 6457 6459 6458 6463 
734 768 437 767 6461 6459 6226 6455 6463 6457 
735 437 768 438 6231 6459 6462 6233 3865 6464 
768 437 471 438 6459 4187 6460 6464 3865 4188 
438 471 769 472 4188 6465 6466 4197 4199 6467 
735 769 736 438 6468 6469 6243 6233 6466 6238 
438 471 768 769 4188 6460 6464 6466 6465 6470 
735 769 438 768 6468 6466 6233 6462 6470 6464 
736 438 769 439 6238 6466 6469 6240 3875 6471 
769 438 472 439 6466 4197 6467 6471 3875 4198 
439 472 770 473 4198 6472 6473 4207 4209 6474 
736 770 737 439 6475 6476 6250 6240 6473 6245 
439 472 769 770 4198 6467 6471 6473 6472 6477 
736 770 439 769 6475 6473 6240 6469 6477 6471 
737 439 770 440 6245 6473 6476 6247 3885 6478 
770 439 473 440 6473 4207 6474 6478 3885 4208 
440 473 771 474 4208 6479 6480 4217 4219 6481 
737 771 738 440 6482 6483 6257 6247 6480 6252 
440 473 770 771 4208 6474 6478 6480 6479 6484 
737 771 440 770 6482 6480 6247 6476 6484 6478 
738 440 771 441 6252 6480 6483 6254 3895 6485 
771 440 474 441 6480 4217 6481 6485 3895 4218 
441 474 772 475 4218 6486 6487 4227 4229 6488 
738 772 739 441 6489 6490 6264 6254 6487 6259 
441 474 771 772 4218 6481 6485 6487 6486 6491 
738 772 441 771 6489 6487 6254 6483 6491 6485 
739 441 772 442 6259 6487 6490 6261 3905 6492 
772 441 475 442 6487 4227 6488 6492 3905 4228 
442 475 773 476 4228 6493 6494 4237 4239 6495 
739 773 740 442 6496 6497 6271 6261 6494 6266 
442 475 772 773 4228 6488 6492 6494 6493 6498 
739 773 442 772 6496 6494 6261 6490 6498 6492 
740 442 773 443 6266 6494 6497 6268 3915 6499 
773 442 476 443 6494 4237 6495 6499 3915 4238 
443 476 774 477 4238 6500 6501 4247 4249 6502 
740 774 741 443 6503 6504 6278 6268 6501 6273 
443 476 773 774 4238 6495 6499 6501 6500 6505 
740 774 443 773 6503 6501 6268 6497 6505 6499 
741 443 774 444 6273 6501 6504 6275 3925 6506 
774 443 477 444 6501 4247 6502 6506 3925 4248 
444 477 775 478 4248 6507 6508 4257 4259 6509 
741 775 742 444 6510 6511 6285 6275 6508 6280 
444 477 774 775 4248 6502 6506 6508 6507 6512 
741 775 444 774 6510 6508 6275 6504 6512 6506 
742 444 775 445 6280 6508 6511 6282 3935 6513 
775 444 478 445 6508 4257 6509 6513 3935 4258 
445 478 776 479 4258 6514 6515 4267 4269 6516 
742 776 743 445 6517 6518 6292 6282 6515 6287 
445 478 775 776 4258 6509 6513 6515 6514 6519 
742 776 445 775 6517 6515 6282 6511 6519 6513 
743 445 776 446 6287 6515 6518 6289 3945 6520 
776 445 479 446 6515 4267 6516 6520 3945 4268 
446 479 777 480 4268 6521 6522 4277 4279 6523 
743 777 744 446 6524 6525 6299 6289 6522 6294 
446 479 776 777 4268 6516 6520 6522 6521 6526 
743 777 446 776 6524 6522 6289 6518 6526 6520 
744 446 777 447 6294 6522 6525 6296 3955 6527 
777 446 480 447 6522 4277 6523 6527 3955 4278 
447 480 778 481 4278 6528 6529 4287 4289 6530 
744 778 745 447 6531 6532 6306 6296 6529 6301 
447 480 777 778 4278 6523 6527 6529 6528 6533 
744 778 447 777 6531 6529 6296 6525 6533 6527 
745 447 778 448 6301 6529 6532 6303 3965 6534 
778 447 481 448 6529 4287 6530 6534 3965 4288 
448 481 779 482 4288 6535 6536 4297 4299 6537 
745 779 746 448 6538 6539 6313 6303 6536 6308 
448 481 778 779 4288 6530 6534 6536 6535 6540 
745 779 448 778 6538 6536 6303 6532 6540 6534 
746 448 779 449 6308 6536 6539 6310 3975 6541 
779 448 482 449 6536 4297 6537 6541 3975 4298 
449 482 780 483 4298 6542 6543 4307 4309 6544 
746 780 747 449 6545 6546 6320 6310 6543 6315 
449 482 779 780 4298 6537 6541 6543 6542 6547 
746 780 449 779 6545 6543 6310 6539 6547 6541 
747 449 780 450 6315 6543 6546 6317 3985 6548 
780 449 483 450 6543 4307 6544 6548 3985 4308 
450 483 781 484 4308 6549 6550 4317 4319 6551 
747 781 748 450 6552 6553 6327 6317 6550 6322 
450 483 780 781 4308 6544 6548 6550 6549 6554 
747 781 450 780 6552 6550 6317 6546 6554 6548 
748 450 781 451 6322 6550 6553 6324 3995 6555 
781 450 484 451 6550 4317 6551 6555 3995 4318 
451 484 782 485 4318 6556 6557 4327 4329 6558 
748 782 749 451 6559 6560 6334 6324 6557 6329 
451 484 781 782 4318 6551 6555 6557 6556 6561 
748 782 451 781 6559 6557 6324 6553 6561 6555 
749 451 782 452 6329 6557 6560 6331 4005 6562 
782 451 485 452 6557 4327 6558 6562 4005 4328 
452 485 783 486 4328 6563 6564 4337 4339 6565 
749 783 750 452 6566 6567 6341 6331 6564 6336 
452 485 782 783 4328 6558 6562 6564 6563 6568 
749 783 452 782 6566 6564 6331 6560 6568 6562 
750 452 783 453 6336 6564 6567 6338 4015 6569 
783 452 486 453 6564 4337 6565 6569 4015 4338 
453 486 784 487 4338 6570 6571 4347 4349 6572 
750 784 751 453 6573 6574 6348 6338 6571 6343 
453 486 783 784 4338 6565 6569 6571 6570 6575 
750 784 453 783 6573 6571 6338 6567 6575 6569 
751 453 784 454 6343 6571 6574 6345 4025 6576 
784 453 487 454 6571 4347 6572 6576 4025 4348 
454 487 785 488 4348 6577 6578 4357 4359 6579 
751 785 752 454 6580 6581 6355 6345 6578 6350 
454 487 784 785 4348 6572 6576 6578 6577 6582 
751 785 454 784 6580 6578 6345 6574 6582 6576 
752 454 785 455 6350 6578 6581 6352 4035 6583 
785 454 488 455 6578 4357 6579 6583 4035 4358 
455 488 786 489 4358 6584 6585 4367 4369 6586 
752 786 753 455 6587 6588 6362 6352 6585 6357 
455 488 785 786 4358 6579 6583 6585 6584 6589 
752 786 455 785 6587 6585 6352 6581 6589 6583 
753 455 786 456 6357 6585 6588 6359 4045 6590 
786 455 489 456 6585 4367 6586 6590 4045 4368 
456 489 787 490 4368 6591 6592 4377 4379 6593 
753 787 754 456 6594 6595 6369 6359 6592 6364 
456 489 786 787 4368 6586 6590 6592 6591 6596 
753 787 456 786 6594 6592 6359 6588 6596 6590 
754 456 787 457 6364 6592 6595 6366 4055 6597 
787 456 490 457 6592 4377 6593 6597 4055 4378 
457 490 788 491 4378 6598 6599 4387 4389 6600 
754 788 755 457 6601 6602 6376 6366 6599 6371 
457 490 787 788 4378 6593 6597 6599 6598 6603 
754 788 457 787 6601 6599 6366 6595 6603 6597 
755 457 788 458 6371 6599 6602 6373 4065 6604 
788 457 491 458 6599 4387 6600 6604 4065 4388 
458 491 789 492 4388 6605 6606 4397 4399 6607 
755 789 756 458 6608 6609 6383 6373 6606 6378 
458 491 788 789 4388 6600 6604 6606 6605 6610 
755 789 458 788 6608 6606 6373 6602 6610 6604 
756 458 789 459 6378 6606 6609 6380 4075 6611 
789 458 492 459 6606 4397 6607 6611 4075 4398 
459 492 790 493 4398 6612 6613 4407 4409 6614 
756 790 757 459 6615 6616 6390 6380 6613 6385 
459 492 789 790 4398 6607 6611 6613 6612 6617 
756 790 459 789 6615 6613 6380 6609 6617 6611 
757 459 790 460 6385 6613 6616 6387 4085 6618 
790 459 493 460 6613 4407 6614 6618 4085 4408 
460 493 791 494 4408 6619 6620 4417 4419 6621 
757 791 758 460 6622 6623 6397 6387 6620 6392 
460 493 790 791 4408 6614 6618 6620 6619 6624 
757 791 460 790 6622 6620 6387 6616 6624 6618 
758 460 791 461 6392 6620 6623 6394 4095 6625 
791 460 494 461 6620 4417 6621 6625 4095 4418 
462 495 793 496 4433 6626 6627 4428 4432 6628 
759 793 760 462 6629 6630 6406 6404 6627 6399 
462 495 792 793 4433 6631 6632 6627 6626 6633 
759 793 462 792 6629 6627 6404 6634 6633 6632 
760 462 793 463 6399 6627 6630 6401 4108 6635 
793 462 496 463 6627 4428 6628 6635 4108 4429 
463 496 794 497 4429 6636 6637 4441 4443 6638 
760 794 761 463 6639 6640 6414 6401 6637 6409 
463 496 793 794 4429 6628 6635 6637 6636 6641 
760 794 463 793 6639 6637 6401 6630 6641 6635 
761 463 794 464 6409 6637 6640 6411 4119 6642 
794 463 497 464 6637 4441 6638 6642 4119 4442 
464 497 795 498 4442 6643 6644 4451 4453 6645 
761 795 762 464 6646 6647 6421 6411 6644 6416 
464 497 794 795 4442 6638 6642 6644 6643 6648 
761 795 464 794 6646 6644 6411 6640 6648 6642 
762 464 795 465 6416 6644 6647 6418 4129 6649 
795 464 498 465 6644 4451 6645 6649 4129 4452 
465 498 796 499 4452 6650 6651 4461 4463 6652 
762 796 763 465 6653 6654 6428 6418 6651 6423 
465 498 795 796 4452 6645 6649 6651 6650 6655 
762 796 465 795 6653 6651 6418 6647 6655 6649 
763 465 796 466 6423 6651 6654 6425 4139 6656 
796 465 499 466 6651 4461 6652 6656 4139 4462 
466 499 797 500 4462 6657 6658 4471 4473 6659 
763 797 764 466 6660 6661 6435 6425 6658 6430 
466 499 796 797 4462 6652 6656 6658 6657 6662 
763 797 466 796 6660 6658 6425 6654 6662 6656 
764 466 797 467 6430 6658 6661 6432 4149 6663 
797 466 500 467 6658 4471 6659 6663 4149 4472 
467 500 798 501 4472 6664 6665 4481 4483 6666 
764 798 765 467 6667 6668 6442 6432 6665 6437 
467 500 797 798 4472 6659 6663 6665 6664 6669 
764 798 467 797 6667 6665 6432 6661 6669 6663 
765 467 798 468 6437 6665 6668 6439 4159 6670 
798 467 501 468 6665 4481 6666 6670 4159 4482 
468 501 799 502 4482 6671 6672 4491 4493 6673 
765 799 766 468 6674 6675 6449 6439 6672 6444 
468 501 798 799 4482 6666 6670 6672 6671 6676 
765 799 468 798 6674 6672 6439 6668 6676 6670 
766 468 799 469 6444 6672 6675 6446 4169 6677 
799 468 502 469 6672 4491 6673 6677 4169 4492 
469 502 800 503 4492 6678 6679 4501 4503 6680 
766 800 767 469 6681 6682 6456 6446 6679 6451 
469 502 799 800 4492 6673 6677 6679 6678 6683 
766 800 469 799 6681 6679 6446 6675 6683 6677 
767 469 800 470 6451 6679 6682 6453 4179 6684 
800 469 503 470 6679 4501 6680 6684 4179 4502 
470 503 801 504 4502 6685 6686 4511 4513 6687 
767 801 768 470 6688 6689 6463 6453 6686 6458 
470 503 800 801 4502 6680 6684 6686 6685 6690 
767 801 470 800 6688 6686 6453 6682 6690 6684 
768 470 801 471 6458 6686 6689 6460 4189 6691 
801 470 504 471 6686 4511 6687 6691 4189 4512 
471 504 802 505 4512 6692 6693 4521 4523 6694 
768 802 769 471 6695 6696 6470 6460 6693 6465 
471 504 801 802 4512 6687 6691 6693 6692 6697 
768 802 471 801 6695 6693 6460 6689 6697 6691 
769 471 802 472 6465 6693 6696 6467 4199 6698 
802 471 505 472 6693 4521 6694 6698 4199 4522 
472 505 803 506 4522 6699 6700 4531 4533 6701 
769 803 770 472 6702 6703 6477 6467 6700 6472 
472 505 802 803 4522 6694 6698 6700 6699 6704 
769 803 472 802 6702 6700 6467 6696 6704 6698 
770 472 803 473 6472 6700 6703 6474 4209 6705 
803 472 506 473 6700 4531 6701 6705 4209 4532 
473 506 804 507 4532 6706 6707 4541 4543 6708 
770 804 771 473 6709 6710 6484 6474 6707 6479 
473 506 803 804 4532 6701 6705 6707 6706 6711 
770 804 473 803 6709 6707 6474 6703 6711 6705 
771 473 804 474 6479 6707 6710 6481 4219 6712 
804 473 507 474 6707 4541 6708 6712 4219 4542 
474 507 805 508 4542 6713 6714 4551 4553 6715 
771 805 772 474 6716 6717 6491 6481 6714 6486 
474 507 804 805 4542 6708 6712 6714 6713 6718 
771 805 474 804 6716 6714 6481 6710 6718 6712 
772 474 805 475 6486 6714 6717 6488 4229 6719 
805 474 508 475 6714 4551 6715 6719 4229 4552 
475 508 806 509 4552 6720 6721 4561 4563 6722 
772 806 773 475 6723 6724 6498 6488 6721 6493 
475 508 805 806 4552 6715 6719 6721 6720 6725 
772 806 475 805 6723 6721 6488 6717 6725 6719 
773 475 806 476 6493 6721 6724 6495 4239 6726 
806 475 509 476 6721 4561 6722 6726 4239 4562 
476 509 807 510 4562 6727 6728 4571 4573 6729 
773 807 774 476 6730 6731 6505 6495 6728 6500 
476 509 806 807 4562 6722 6726 6728 6727 6732 
773 807 476 806 6730 6728 6495 6724 6732 6726 
774 476 807 477 6500 6728 6731 6502 4249 6733 
807 476 510 477 6728 4571 6729 6733 4249 4572 
477 510 808 511 4572 6734 6735 4581 4583 6736 
774 808 775 477 6737 6738 6512 6502 6735 6507 
477 510 807 808 4572 6729 6733 6735 6734 6739 
774 808 477 807 6737 6735 6502 6731 6739 6733 
775 477 808 478 6507 6735 6738 6509 4259 6740 
808 477 511 478 6735 4581 6736 6740 4259 4582 
478 511 809 512 4582 6741 6742 4591 4593 6743 
775 809 776 478 6744 6745 6519 6509 6742 6514 
478 511 808 809 4582 6736 6740 6742 6741 6746 
775 809 478 808 6744 6742 6509 6738 6746 6740 
776 478 809 479 6514 6742 6745 6516 4269 6747 
809 478 512 479 6742 4591 6743 6747 4269 4592 
479 512 810 513 4592 6748 6749 4601 4603 6750 
776 810 777 479 6751 6752 6526 6516 6749 6521 
479 512 809 810 4592 6743 6747 6749 6748 6753 
776 810 479 809 6751 6749 6516 6745 6753 6747 
777 479 810 480 6521 6749 6752 6523 4279 6754 
810 479 513 480 6749 4601 6750 6754 4279 4602 
480 513 811 514 4602 6755 6756 4611 4613 6757 
777 811 778 480 6758 6759 6533 6523 6756 6528 
480 513 810 811 4602 6750 6754 6756 6755 6760 
777 811 480 810 6758 6756 6523 6752 6760 6754 
778 480 811 481 6528 6756 6759 6530 4289 6761 
811 480 514 481 6756 4611 6757 6761 4289 4612 
481 514 812 515 4612 6762 6763 4621 4623 6764 
778 812 779 481 6765 6766 6540 6530 6763 6535 
481 514 811 812 4612 6757 6761 6763 6762 6767 
778 812 481 811 6765 6763 6530 6759 6767 6761 
779 481 812 482 6535 6763 6766 6537 4299 6768 
812 481 515 482 6763 4621 6764 6768 4299 4622 
482 515 813 516 4622 6769 6770 4631 4633 6771 
779 813 780 482 6772 6773 6547 6537 6770 6542 
482 515 812 813 4622 6764 6768 6770 6769 6774 
779 813 482 812 6772 6770 6537 6766 6774 6768 
780 482 813 483 6542 6770 6773 6544 4309 6775 
813 482 516 483 6770 4631 6771 6775 4309 4632 
483 516 814 517 4632 6776 6777 4641 4643 6778 
780 814 781 483 6779 6780 6554 6544 6777 6549 
483 516 813 814 4632 6771 6775 6777 6776 6781 
780 814 483 813 6779 6777 6544 6773 6781 6775 
781 483 814 484 6549 6777 6780 6551 4319 6782 
814 483 517 484 6777 4641 6778 6782 4319 4642 
484 517 815 518 4642 6783 6784 4651 4653 6785 
781 815 782 484 6786 6787 6561 6551 6784 6556 
484 517 814 815 4642 6778 6782 6784 6783 6788 
781 815 484 814 6786 6784 6551 6780 6788 6782 
782 484 815 485 6556 6784 6787 6558 4329 6789 
815 484 518 485 6784 4651 6785 6789 4329 4652 
485 518 816 519 4652 6790 6791 4661 4663 6792 
782 816 783 485 6793 6794 6568 6558 6791 6563 
485 518 815 816 4652 6785 6789 6791 6790 6795 
782 816 485 815 6793 6791 6558 6787 6795 6789 
783 485 816 486 6563 6791 6794 6565 4339 6796 
816 485 519 486 6791 4661 6792 6796 4339 4662 
486 519 817 520 4662 6797 6798 4671 4673 6799 
783 817 784 486 6800 6801 6575 6565 6798 6570 
486 519 816 817 4662 6792 6796 6798 6797 6802 
783 817 486 816 6800 6798 6565 6794 6802 6796 
784 486 817 487 6570 6798 6801 6572 4349 6803 
817 486 520 487 6798 4671 6799 6803 4349 4672 
487 520 818 521 4672 6804 6805 4681 4683 6806 
784 818 785 487 6807 6808 6582 6572 6805 6577 
487 520 817 818 4672 6799 6803 6805 6804 6809 
784 818 487 817 6807 6805 6572 6801 6809 6803 
785 487 818 488 6577 6805 6808 6579 4359 6810 
818 487 521 488 6805 4681 6806 6810 4359 4682 
488 521 819 522 4682 6811 6812 4691 4693 6813 
785 819 786 488 6814 6815 6589 6579 6812 6584 
488 521 818 819 4682 6806 6810 6812 6811 6816 
785 819 488 818 6814 6812 6579 6808 6816 6810 
786 488 819 489 6584 6812 6815 6586 4369 6817 
819 488 522 489 6812 4691 6813 6817 4369 4692 
489 522 820 523 4692 6818 6819 4701 4703 6820 
786 820 787 489 6821 6822 6596 6586 6819 6591 
489 522 819 820 4692 6813 6817 6819 6818 6823 
786 820 489 819 6821 6819 6586 6815 6823 6817 
787 489 820 490 6591 6819 6822 6593 4379 6824 
820 489 523 490 6819 4701 6820 6824 4379 4702 
490 523 821 524 4702 6825 6826 4711 4713 6827 
787 821 788 490 6828 6829 6603 6593 6826 6598 
490 523 820 821 4702 6820 6824 6826 6825 6830 
787 821 490 820 6828 6826 6593 6822 6830 6824 
788 490 821 491 6598 6826 6829 6600 4389 6831 
821 490 524 491 6826 4711 6827 6831 4389 4712 
491 524 822 525 4712 6832 6833 4721 4723 6834 
788 822 789 491 6835 6836 6610 6600 6833 6605 
491 524 821 822 4712 6827 6831 6833 6832 6837 
788 822 491 821 6835 6833 6600 6829 6837 6831 
789 491 822 492 6605 6833 6836 6607 4399 6838 
822 491 525 492 6833 4721 6834 6838 4399 4722 
492 525 823 526 4722 6839 6840 4731 4733 6841 
789 823 790 492 6842 6843 6617 6607 6840 6612 
492 525 822 823 4722 6834 6838 6840 6839 6844 
789 823 492 822 6842 6840 6607 6836 6844 6838 
790 492 823 493 6612 6840 6843 6614 4409 6845 
823 492 526 493 6840 4731 6841 6845 4409 4732 
493 526 824 527 4732 6846 6847 4741 4743 6848 
790 824 791 493 6849 6850 6624 6614 6847 6619 
493 526 823 824 4732 6841 6845 6847 6846 6851 
790 824 493 823 6849 6847 6614 6843 6851 6845 
791 493 824 494 6619 6847 6850 6621 4419 6852 
824 493 527 494 6847 4741 6848 6852 4419 4742 
495 528 826 529 4757 6853 6854 4752 4756 6855 
792 826 793 495 6856 6857 6633 6631 6854 6626 
495 528 825 826 4757 6858 6859 6854 6853 6860 
792 826 495 825 6856 6854 6631 6861 6860 6859 
793 495 826 496 6626 6854 6857 6628 4432 6862 
826 495 529 496 6854 4752 6855 6862 4432 4753 
496 529 827 530 4753 6863 6864 4765 4767 6865 
793 827 794 496 6866 6867 6641 6628 6864 6636 
496 529 826 827 4753 6855 6862 6864 6863 6868 
793 827 496 826 6866 6864 6628 6857 6868 6862 
794 496 827 497 6636 6864 6867 6638 4443 6869 
827 496 530 497 6864 4765 6865 6869 4443 4766 
497 530 828 531 4766 6870 6871 4775 4777 6872 
794 828 795 497 6873 6874 6648 6638 6871 6643 
497 530 827 828 4766 6865 6869 6871 6870 6875 
794 828 497 827 6873 6871 6638 6867 6875 6869 
795 497 828 498 6643 6871 6874 6645 4453 6876 
828 497 531 498 6871 4775 6872 6876 4453 4776 
498 531 829 532 4776 6877 6878 4785 4787 6879 
795 829 796 498 6880 6881 6655 6645 6878 6650 
498 531 828 829 4776 6872 6876 6878 6877 6882 
795 829 498 828 6880 6878 6645 6874 6882 6876 
796 498 829 499 6650 6878 6881 6652 4463 6883 
829 498 532 499 6878 4785 6879 6883 4463 4786 
499 532 830 533 4786 6884 6885 4795 4797 6886 
796 830 797 499 6887 6888 6662 6652 6885 6657 
499 532 829 830 4786 6879 6883 6885 6884 6889 
796 830 499 829 6887 6885 6652 6881 6889 6883 
797 499 830 500 6657 6885 6888 6659 4473 6890 
830 499 533 500 6885 4795 6886 6890 4473 4796 
500 533 831 534 4796 6891 6892 4805 4807 6893 
797 831 798 500 6894 6895 6669 6659 6892 6664 
500 533 830 831 4796 6886 6890 6892 6891 6896 
797 831 500 830 6894 6892 6659 6888 6896 6890 
798 500 831 501 6664 6892 6895 6666 4483 6897 
831 500 534 501 6892 4805 6893 6897 4483 4806 
501 534 832 535 4806 6898 6899 4815 4817 6900 
798 832 799 501 6901 6902 6676 6666 6899 6671 
501 534 831 832 4806 6893 6897 6899 6898 6903 
798 832 501 831 6901 6899 6666 6895 6903 6897 
799 501 832 502 6671 6899 6902 6673 4493 6904 
832 501 535 502 6899 4815 6900 6904 4493 4816 
502 535 833 536 4816 6905 6906 4825 4827 6907 
799 833 800 502 6908 6909 6683 6673 6906 6678 
502 535 832 833 4816 6900 6904 6906 6905 6910 
799 833 502 832 6908 6906 6673 6902 6910 6904 
800 502 833 503 6678 6906 6909 6680 4503 6911 
833 502 536 503 6906 4825 6907 6911 4503 4826 
503 536 834 537 4826 6912 6913 4835 4837 6914 
800 834 801 503 6915 6916 6690 6680 6913 6685 
503 536 833 834 4826 6907 6911 6913 6912 6917 
800 834 503 833 6915 6913 6680 6909 6917 6911 
801 503 834 504 6685 6913 6916 6687 4513 6918 
834 503 537 504 6913 4835 6914 6918 4513 4836 
504 537 835 538 4836 6919 6920 4845 4847 6921 
801 835 802 504 6922 6923 6697 6687 6920 6692 
504 537 834 835 4836 6914 6918 6920 6919 6924 
801 835 504 834 6922 6920 6687 6916 6924 6918 
802 504 835 505 6692 6920 6923 6694 4523 6925 
835 504 538 505 6920 4845 6921 6925 4523 4846 
505 538 836 539 4846 6926 6927 4855 4857 6928 
802 836 803 505 6929 6930 6704 6694 6927 6699 
505 538 835 836 4846 6921 6925 6927 6926 6931 
802 836 505 835 6929 6927 6694 6923 6931 6925 
803 505 836 506 6699 6927 6930 6701 4533 6932 
836 505 539 506 6927 4855 6928 6932 4533 4856 
506 539 837 540 4856 6933 6934 4865 4867 6935 
803 837 804 506 6936 6937 6711 6701 6934 6706 
506 539 836 837 4856 6928 6932 6934 6933 6938 
803 837 506 836 6936 6934 6701 6930 6938 6932 
804 506 837 507 6706 6934 6937 6708 4543 6939 
837 506 540 507 6934 4865 6935 6939 4543 4866 
507 540 838 541 4866 6940 6941 4875 4877 6942 
804 838 805 507 6943 6944 6718 6708 6941 6713 
507 540 837 838 4866 6935 6939 6941 6940 6945 
804 838 507 837 6943 6941 6708 6937 6945 6939 
805 507 838 508 6713 6941 6944 6715 4553 6946 
838 507 541 508 6941 4875 6942 6946 4553 4876 
508 541 839 542 4876 6947 6948 4885 4887 6949 
805 839 806 508 6950 6951 6725 6715 6948 6720 
508 541 838 839 4876 6942 6946 6948 6947 6952 
805 839 508 838 6950 6948 6715 6944 6952 6946 
806 508 839 509 6720 6948 6951 6722 4563 6953 
839 508 542 509 6948 4885 6949 6953 4563 4886 
509 542 840 543 4886 6954 6955 4895 4897 6956 
806 840 807 509 6957 6958 6732 6722 6955 6727 
509 542 839 840 4886 6949 6953 6955 6954 6959 
806 840 509 839 6957 6955 6722 6951 6959 6953 
807 509 840 510 6727 6955 6958 6729 4573 6960 
840 509 543 510 6955 4895 6956 6960 4573 4896 
510 543 841 544 4896 6961 6962 4905 4907 6963 
807 841 808 510 6964 6965 6739 6729 6962 6734 
510 543 840 841 4896 6956 6960 6962 6961 6966 
807 841 510 840 6964 6962 6729 6958 6966 6960 
808 510 841 511 6734 6962 6965 6736 4583 6967 
841 510 544 511 6962 4905 6963 6967 4583 4906 
511 544 842 545 4906 6968 6969 4915 4917 6970 
808 842 809 511 6971 6972 6746 6736 6969 6741 
511 544 841 842 4906 6963 6967 6969 6968 6973 
808 842 511 841 6971 6969 6736 6965 6973 6967 
809 511 842 512 6741 6969 6972 6743 4593 6974 
842 511 545 512 6969 4915 6970 6974 4593 4916 
512 545 843 546 4916 6975 6976 4925 4927 6977 
809 843 810 512 6978 6979 6753 6743 6976 6748 
512 545 842 843 4916 6970 6974 6976 6975 6980 
809 843 512 842 6978 6976 6743 6972 6980 6974 
810 512 843 513 6748 6976 6979 6750 4603 6981 
843 512 546 513 6976 4925 6977 6981 4603 4926 
513 546 844 547 4926 6982 6983 4935 4937 6984 
810 844 811 513 6985 6986 6760 6750 6983 6755 
513 546 843 844 4926 6977 6981 6983 6982 6987 
810 844 513 843 6985 6983 6750 6979 6987 6981 
811 513 844 514 6755 6983 6986 6757 4613 6988 
844 513 547 514 6983 4935 6984 6988 4613 4936 
514 547 845 548 4936 6989 6990 4945 4947 6991 
811 845 812 514 6992 6993 6767 6757 6990 6762 
514 547 844 845 4936 6984 6988 6990 6989 6994 
811 845 514 844 6992 6990 6757 6986 6994 6988 
812 514 845 515 6762 6990 6993 6764 4623 6995 
845 514 548 515 6990 4945 6991 6995 4623 4946 
515 548 846 549 4946 6996 6997 4955 4957 6998 
812 846 813 515 6999 7000 6774 6764 6997 6769 
515 548 845 846 4946 6991 6995 6997 6996 7001 
812 846 515 845 6999 6997 6764 6993 7001 6995 
813 515 846 516 6769 6997 7000 6771 4633 7002 
846 515 549 516 6997 4955 6998 7002 4633 4956 
516 549 847 550 4956 7003 7004 4965 4967 7005 
813 847 814 516 7006 7007 6781 6771 7004 6776 
516 549 846 847 4956 6998 7002 7004 7003 7008 
813 847 516 846 7006 7004 6771 7000 7008 7002 
814 516 847 517 6776 7004 7007 6778 4643 7009 
847 516 550 517 7004 4965 7005 7009 4643 4966 
517 550 848 551 4966 7010 7011 4975 4977 7012 
814 848 815 517 7013 7014 6788 6778 7011 6783 
517 550 847 848 4966 7005 7009 7011 7010 7015 
814 848 517 847 7013 7011 6778 7007 7015 7009 
815 517 848 518 6783 7011 7014 6785 4653 7016 
848 517 551 518 7011 4975 7012 7016 4653 4976 
518 551 849 552 4976 7017 7018 4985 4987 7019 
815 849 816 518 7020 7021 6795 6785 7018 6790 
518 551 848 849 4976 7012 7016 7018 7017 7022 
815 849 518 848 7020 7018 6785 7014 7022 7016 
816 518 849 519 6790 7018 7021 6792 4663 7023 
849 518 552 519 7018 4985 7019 7023 4663 4986 
519 552 850 553 4986 7024 7025 4995 4997 7026 
816 850 817 519 7027 7028 6802 6792 7025 6797 
519 552 849 850 4986 7019 7023 7025 7024 7029 
816 850 519 849 7027 7025 6792 7021 7029 7023 
817 519 850 520 6797 7025 7028 6799 4673 7030 
850 519 553 520 7025 4995 7026 7030 4673 4996 
520 553 851 554 4996 7031 7032 5005 5007 7033 
817 851 818 520 7034 7035 6809 6799 7032 6804 
520 553 850 851 4996 7026 7030 7032 7031 7036 
817 851 520 850 7034 7032 6799 7028 7036 7030 
818 520 851 521 6804 7032 7035 6806 4683 7037 
851 520 554 521 7032 5005 7033 7037 4683 5006 
521 554 852 555 5006 7038 7039 5015 5017 7040 
818 852 819 521 7041 7042 6816 6806 7039 6811 
521 554 851 852 5006 7033 7037 7039 7038 7043 
818 852 521 851 7041 7039 6806 7035 7043 7037 
819 521 852 522 6811 7039 7042 6813 4693 7044 
852 521 555 522 7039 5015 7040 7044 4693 5016 
522 555 853 556 5016 7045 7046 5025 5027 7047 
819 853 820 522 7048 7049 6823 6813 7046 6818 
522 555 852 853 5016 7040 7044 7046 7045 7050 
819 853 522 852 7048 7046 6813 7042 7050 7044 
820 522 853 523 6818 7046 7049 6820 4703 7051 
853 522 556 523 7046 5025 7047 7051 4703 5026 
523 556 854 557 5026 7052 7053 5035 5037 7054 
820 854 821 523 7055 7056 6830 6820 7053 6825 
523 556 853 854 5026 7047 7051 7053 7052 7057 
820 854 523 853 7055 7053 6820 7049 7057 7051 
821 523 854 524 6825 7053 7056 6827 4713 7058 
854 523 557 524 7053 5035 7054 7058 4713 5036 
524 557 855 558 5036 7059 7060 5045 5047 7061 
821 855 822 524 7062 7063 6837 6827 7060 6832 
524 557 854 855 5036 7054 7058 7060 7059 7064 
821 855 524 854 7062 7060 6827 7056 7064 7058 
822 524 855 525 6832 7060 7063 6834 4723 7065 
855 524 558 525 7060 5045 7061 7065 4723 5046 
525 558 856 559 5046 7066 7067 5055 5057 7068 
822 856 823 525 7069 7070 6844 6834 7067 6839 
525 558 855 856 5046 7061 7065 7067 7066 7071 
822 856 525 855 7069 7067 6834 7063 7071 7065 
823 525 856 526 6839 7067 7070 6841 4733 7072 
856 525 559 526 7067 5055 7068 7072 4733 5056 
526 559 857 560 5056 7073 7074 5065 5067 7075 
823 857 824 526 7076 7077 6851 6841 7074 6846 
526 559 856 857 5056 7068 7072 7074 7073 7078 
823 857 526 856 7076 7074 6841 7070 7078 7072 
824 526 857 527 6846 7074 7077 6848 4743 7079 
857 526 560 527 7074 5065 7075 7079 4743 5066 
528 561 859 562 5081 7080 7081 5076 5080 7082 
825 859 826 528 7083 7084 6860 6858 7081 6853 
528 561 858 859 5081 7085 7086 7081 7080 7087 
825 859 528 858 7083 7081 6858 7088 7087 7086 
826 528 859 529 6853 7081 7084 6855 4756 7089 
859 528 562 529 7081 5076 7082 7089 4756 5077 
529 562 860 563 5077 7090 7091 5089 5091 7092 
826 860 827 529 7093 7094 6868 6855 7091 6863 
529 562 859 860 5077 7082 7089 7091 7090 7095 
826 860 529 859 7093 7091 6855 7084 7095 7089 
827 529 860 530 6863 7091 7094 6865 4767 7096 
860 529 563 530 7091 5089 7092 7096 4767 5090 
530 563 861 564 5090 7097 7098 5099 5101 7099 
827 861 828 530 7100 7101 6875 6865 7098 6870 
530 563 860 861 5090 7092 7096 7098 7097 7102 
827 861 530 860 7100 7098 6865 7094 7102 7096 
828 530 861 531 6870 7098 7101 6872 4777 7103 
861 530 564 531 7098 5099 7099 7103 4777 5100 
531 564 862 565 5100 7104 7105 5109 5111 7106 
828 862 829 531 7107 7108 6882 6872 7105 6877 
531 564 861 862 5100 7099 7103 7105 7104 7109 
828 862 531 861 7107 7105 6872 7101 7109 7103 
829 531 862 532 6877 7105 7108 6879 4787 7110 
862 531 565 532 7105 5109 7106 7110 4787 5110 
532 565 863 566 5110 7111 7112 5119 5121 7113 
829 863 830 532 7114 7115 6889 6879 7112 6884 
532 565 862 863 5110 7106 7110 7112 7111 7116 
829 863 532 862 7114 7112 6879 7108 7116 7110 
830 532 863 533 6884 7112 7115 6886 4797 7117 
863 532 566 533 7112 5119 7113 7117 4797 5120 
533 566 864 567 5120 7118 7119 5129 5131 7120 
830 864 831 533 7121 7122 6896 6886 7119 6891 
533 566 863 864 5120 7113 7117 7119 7118 7123 
830 864 533 863 7121 7119 6886 7115 7123 7117 
831 533 864 534 6891 7119 7122 6893 4807 7124 
864 533 567 534 7119 5129 7120 7124 4807 5130 
534 567 865 568 5130 7125 7126 5139 5141 7127 
831 865 832 534 7128 7129 6903 6893 7126 6898 
534 567 864 865 5130 7120 7124 7126 7125 7130 
831 865 534 864 7128 7126 6893 7122 7130 7124 
832 534 865 535 6898 7126 7129 6900 4817 7131 
865 534 568 535 7126 5139 7127 7131 4817 5140 
535 568 866 569 5140 7132 7133 5149 5151 7134 
832 866 833 535 7135 7136 6910 6900 7133 6905 
535 568 865 866 5140 7127 7131 7133 7132 7137 
832 866 535 865 7135 7133 6900 7129 7137 7131 
833 535 866 536 6905 7133 7136 6907 4827 7138 
866 535 569 536 7133 5149 7134 7138 4827 5150 
536 569 867 570 5150 7139 7140 5159 5161 7141 
833 867 834 536 7142 7143 6917 6907 7140 6912 
536 569 866 867 5150 7134 7138 7140 7139 7144 
833 867 536 866 7142 7140 6907 7136 7144 7138 
834 536 867 537 6912 7140 7143 6914 4837 7145 
867 536 570 537 7140 5159 7141 7145 4837 5160 
537 570 868 571 5160 7146 7147 5169 5171 7148 
834 868 835 537 7149 7150 6924 6914 7147 6919 
537 570 867 868 5160 7141 7145 7147 7146 7151 
834 868 537 867 7149 7147 6914 7143 7151 7145 
835 537 868 538 6919 7147 7150 6921 4847 7152 
868 537 571 538 7147 5169 7148 7152 4847 5170 
538 571 869 572 5170 7153 7154 5179 5181 7155 
835 869 836 538 7156 7157 6931 6921 7154 6926 
538 571 868 869 5170 7148 7152 7154 7153 7158 
835 869 538 868 7156 7154 6921 7150 7158 7152 
836 538 869 539 6926 7154 7157 6928 4857 7159 
869 538 572 539 7154 5179 7155 7159 4857 5180 
539 572 870 573 5180 7160 7161 5189 5191 7162 
836 870 837 539 7163 7164 6938 6928 7161 6933 
539 572 869 870 5180 7155 7159 7161 7160 7165 
836 870 539 869 7163 7161 6928 7157 7165 7159 
837 539 870 540 6933 7161 7164 6935 4867 7166 
870 539 573 540 7161 5189 7162 7166 4867 5190 
540 573 871 574 5190 7167 7168 5199 5201 7169 
837 871 838 540 7170 7171 6945 6935 7168 6940 
540 573 870 871 5190 7162 7166 7168 7167 7172 
837 871 540 870 7170 7168 6935 7164 7172 7166 
838 540 871 541 6940 7168 7171 6942 4877 7173 
871 540 574 541 7168 5199 7169 7173 4877 5200 
541 574 872 575 5200 7174 7175 5209 5211 7176 
838 872 839 541 7177 7178 6952 6942 7175 6947 
541 574 871 872 5200 7169 7173 7175 7174 7179 
838 872 541 871 7177 7175 6942 7171 7179 7173 
839 541 872 542 6947 7175 7178 6949 4887 7180 
872 541 575 542 7175 5209 7176 7180 4887 5210 
542 575 873 576 5210 7181 7182 5219 5221 7183 
839 873 840 542 7184 7185 6959 6949 7182 6954 
542 575 872 873 5210 7176 7180 7182 7181 7186 
839 873 542 872 7184 7182 6949 7178 7186 7180 
840 542 873 543 6954 7182 7185 6956 4897 7187 
873 542 576 543 7182 5219 7183 7187 4897 5220 
543 576 874 577 5220 7188 7189 5229 5231 7190 
840 874 841 543 7191 7192 6966 6956 7189 6961 
543 576 873 874 5220 7183 7187 7189 7188 7193 
840 874 543 873 7191 7189 6956 7185 7193 7187 
841 543 874 544 6961 7189 7192 6963 4907 7194 
874 543 577 544 7189 5229 7190 7194 4907 5230 
544 577 875 578 5230 7195 7196 5239 5241 7197 
841 875 842 544 7198 7199 6973 6963 7196 6968 
544 577 874 875 5230 7190 7194 7196 7195 7200 
841 875 544 874 7198 7196 6963 7192 7200 7194 
842 544 875 545 6968 7196 7199 6970 4917 7201 
875 544 578 545 7196 5239 7197 7201 4917 5240 
545 578 876 579 5240 7202 7203 5249 5251 7204 
842 876 843 545 7205 7206 6980 6970 7203 6975 
545 578 875 876 5240 7197 7201 7203 7202 7207 
842 876 545 875 7205 7203 6970 7199 7207 7201 
843 545 876 546 6975 7203 7206 6977 4927 7208 
876 545 579 546 7203 5249 7204 7208 4927 5250 
546 579 877 580 5250 7209 7210 5259 5261 7211 
843 877 844 546 7212 7213 6987 6977 7210 6982 
546 579 876 877 5250 7204 7208 7210 7209 7214 
843 877 546 876 7212 7210 6977 7206 7214 7208 
844 546 877 547 6982 7210 7213 6984 4937 7215 
877 546 580 547 7210 5259 7211 7215 4937 5260 
547 580 878 581 5260 7216 7217 5269 5271 7218 
844 878 845 547 7219 7220 6994 6984 7217 6989 
547 580 877 878 5260 7211 7215 7217 7216 7221 
844 878 547 877 7219 7217 6984 7213 7221 7215 
845 547 878 548 6989 7217 7220 6991 4947 7222 
878 547 581 548 7217 5269 7218 7222 4947 5270 
548 581 879 582 5270 7223 7224 5279 5281 7225 
845 879 846 548 7226 7227 7001 6991 7224 6996 
548 581 878 879 5270 7218 7222 7224 7223 7228 
845 879 548 878 7226 7224 6991 7220 7228 7222 
846 548 879 549 6996 7224 7227 6998 4957 7229 
879 548 582 549 7224 5279 7225 7229 4957 5280 
549 582 880 583 5280 7230 7231 5289 5291 7232 
846 880 847 549 7233 7234 7008 6998 7231 7003 
549 582 879 880 5280 7225 7229 7231 7230 7235 
846 880 549 879 7233 7231 6998 7227 7235 7229 
847 549 880 550 7003 7231 7234 7005 4967 7236 
880 549 583 550 7231 5289 7232 7236 4967 5290 
550 583 881 584 5290 7237 7238 5299 5301 7239 
847 881 848 550 7240 7241 7015 7005 7238 7010 
550 583 880 881 5290 7232 7236 7238 7237 7242 
847 881 550 880 7240 7238 7005 7234 7242 7236 
848 550 881 551 7010 7238 7241 7012 4977 7243 
881 550 584 551 7238 5299 7239 7243 4977 5300 
551 584 882 585 5300 7244 7245 5309 5311 7246 
848 882 849 551 7247 7248 7022 7012 7245 7017 
551 584 881 882 5300 7239 7243 7245 7244 7249 
848 882 551 881 7247 7245 7012 7241 7249 7243 
849 551 882 552 7017 7245 7248 7019 4987 7250 
882 551 585 552 7245 5309 7246 7250 4987 5310 
552 585 883 586 5310 7251 7252 5319 5321 7253 
849 883 850 552 7254 7255 7029 7019 7252 7024 
552 585 882 883 5310 7246 7250 7252 7251 7256 
849 883 552 882 7254 7252 7019 7248 7256 7250 
850 552 883 553 7024 7252 7255 7026 4997 7257 
883 552 586 553 7252 5319 7253 7257 4997 5320 
553 586 884 587 5320 7258 7259 5329 5331 7260 
850 884 851 553 7261 7262 7036 7026 7259 7031 
553 586 883 884 5320 7253 7257 7259 7258 7263 
850 884 553 883 7261 7259 7026 7255 7263 7257 
851 553 884 554 7031 7259 7262 7033 5007 7264 
884 553 587 554 7259 5329 7260 7264 5007 5330 
554 587 885 588 5330 7265 7266 5339 5341 7267 
851 885 852 554 7268 7269 7043 7033 7266 7038 
554 587 884 885 5330 7260 7264 7266 7265 7270 
851 885 554 884 7268 7266 7033 7262 7270 7264 
852 554 885 555 7038 7266 7269 7040 5017 7271 
885 554 588 555 7266 5339 7267 7271 5017 5340 
555 588 886 589 5340 7272 7273 5349 5351 7274 
852 886 853 555 7275 7276 7050 7040 7273 7045 
555 588 885 886 5340 7267 7271 7273 7272 7277 
852 886 555 885 7275 7273 7040 7269 7277 7271 
853 555 886 556 7045 7273 7276 7047 5027 7278 
886 555 589 556 7273 5349 7274 7278 5027 5350 
556 589 887 590 5350 7279 7280 5359 5361 7281 
853 887 854 556 7282 7283 7057 7047 7280 7052 
556 589 886 887 5350 7274 7278 7280 7279 7284 
853 887 556 886 7282 7280 7047 7276 7284 7278 
854 556 887 557 7052 7280 7283 7054 5037 7285 
887 556 590 557 7280 5359 7281 7285 5037 5360 
557 590 888 591 5360 7286 7287 5369 5371 7288 
854 888 855 557 7289 7290 7064 7054 7287 7059 
557 590 887 888 5360 7281 7285 7287 7286 7291 
854 888 557 887 7289 7287 7054 7283 7291 7285 
855 557 888 558 7059 7287 7290 7061 5047 7292 
888 557 591 558 7287 5369 7288 7292 5047 5370 
558 591 889 592 5370 7293 7294 5379 5381 7295 
855 889 856 558 7296 7297 7071 7061 7294 7066 
558 591 888 889 5370 7288 7292 7294 7293 7298 
855 889 558 888 7296 7294 7061 7290 7298 7292 
856 558 889 559 7066 7294 7297 7068 5057 7299 
889 558 592 559 7294 5379 7295 7299 5057 5380 
559 592 890 593 5380 7300 7301 5389 5391 7302 
856 890 857 559 7303 7304 7078 7068 7301 7073 
559 592 889 890 5380 7295 7299 7301 7300 7305 
856 890 559 889 7303 7301 7068 7297 7305 7299 
857 559 890 560 7073 7301 7304 7075 5067 7306 
890 559 593 560 7301 5389 7302 7306 5067 5390 
594 627 925 628 5405 7307 7308 5397 5404 7309 
891 925 892 594 7310 7311 7312 7313 7308 7314 
594 627 924 925 5405 7315 7316 7308 7307 7317 
891 925 594 924 7310 7308 7313 7318 7317 7316 
892 594 925 595 7314 7308 7311 7319 5399 7320 
925 594 628 595 7308 5397 7309 7320 5399 5398 
595 628 926 629 5398 7321 7322 5411 5415 7323 
892 926 893 595 7324 7325 7326 7319 7322 7327 
595 628 925 926 5398 7309 7320 7322 7321 7328 
892 926 595 925 7324 7322 7319 7311 7328 7320 
893 595 926 596 7327 7322 7325 7329 5413 7330 
926 595 629 596 7322 5411 7323 7330 5413 5412 
596 629 927 630 5412 7331 7332 5421 5425 7333 
893 927 894 596 7334 7335 7336 7329 7332 7337 
596 629 926 927 5412 7323 7330 7332 7331 7338 
893 927 596 926 7334 7332 7329 7325 7338 7330 
894 596 927 597 7337 7332 7335 7339 5423 7340 
927 596 630 597 7332 5421 7333 7340 5423 5422 
597 630 928 631 5422 7341 7342 5431 5435 7343 
894 928 895 597 7344 7345 7346 7339 7342 7347 
597 630 927 928 5422 7333 7340 7342 7341 7348 
894 928 597 927 7344 7342 7339 7335 7348 7340 
895 597 928 598 7347 7342 7345 7349 5433 7350 
928 597 631 598 7342 5431 7343 7350 5433 5432 
598 631 929 632 5432 7351 7352 5441 5445 7353 
895 929 896 598 7354 7355 7356 7349 7352 7357 
598 631 928 929 5432 7343 7350 7352 7351 7358 
895 929 598 928 7354 7352 7349 7345 7358 7350 
896 598 929 599 7357 7352 7355 7359 5443 7360 
929 598 632 599 7352 5441 7353 7360 5443 5442 
599 632 930 633 5442 7361 7362 5451 5455 7363 
896 930 897 599 7364 7365 7366 7359 7362 7367 
599 632 929 930 5442 7353 7360 7362 7361 7368 
896 930 599 929 7364 7362 7359 7355 7368 7360 
897 599 930 600 7367 7362 7365 7369 5453 7370 
930 599 633 600 7362 5451 7363 7370 5453 5452 
600 633 931 634 5452 7371 7372 5461 5465 7373 
897 931 898 600 7374 7375 7376 7369 7372 7377 
600 633 930 931 5452 7363 7370 7372 7371 7378 
897 931 600 930 7374 7372 7369 7365 7378 7370 
898 600 931 601 7377 7372 7375 7379 5463 7380 
931 600 634 601 7372 5461 7373 7380 5463 5462 
601 634 932 635 5462 7381 7382 5471 5475 7383 
898 932 899 601 7384 7385 7386 7379 7382 7387 
601 634 931 932 5462 7373 7380 7382 7381 7388 
898 932 601 931 7384 7382 7379 7375 7388 7380 
899 601 932 602 7387 7382 7385 7389 5473 7390 
932 601 635 602 7382 5471 7383 7390 5473 5472 
602 635 933 636 5472 7391 7392 5481 5485 7393 
899 933 900 602 7394 7395 7396 7389 7392 7397 
602 635 932 933 5472 7383 7390 7392 7391 7398 
899 933 602 932 7394 7392 7389 7385 7398 7390 
900 602 933 603 7397 7392 7395 7399 5483 7400 
933 602 636 603 7392 5481 7393 7400 5483 5482 
603 636 934 637 5482 7401 7402 5491 5495 7403 
900 934 901 603 7404 7405 7406 7399 7402 7407 
603 636 933 934 5482 7393 7400 7402 7401 7408 
900 934 603 933 7404 7402 7399 7395 7408 7400 
901 603 934 604 7407 7402 7405 7409 5493 7410 
934 603 637 604 7402 5491 7403 7410 5493 5492 
604 637 935 638 5492 7411 7412 5501 5505 7413 
901 935 902 604 7414 7415 7416 7409 7412 7417 
604 637 934 935 5492 7403 7410 7412 7411 7418 
901 935 604 934 7414 7412 7409 7405 7418 7410 
902 604 935 605 7417 7412 7415 7419 5503 7420 
935 604 638 605 7412 5501 7413 7420 5503 5502 
605 638 936 639 5502 7421 7422 5511 5515 7423 
902 936 903 605 7424 7425 7426 7419 7422 7427 
605 638 935 936 5502 7413 7420 7422 7421 7428 
902 936 605 935 7424 7422 7419 7415 7428 7420 
903 605 936 606 7427 7422 7425 7429 5513 7430 
936 605 639 606 7422 5511 7423 7430 5513 5512 
606 639 937 640 5512 7431 7432 5521 5525 7433 
903 937 904 606 7434 7435 7436 7429 7432 7437 
606 639 936 937 5512 7423 7430 7432 7431 7438 
903 937 606 936 7434 7432 7429 7425 7438 7430 
904 606 937 607 7437 7432 7435 7439 5523 7440 
937 606 640 607 7432 5521 7433 7440 5523 5522 
607 640 938 641 5522 7441 7442 5531 5535 7443 
904 938 905 607 7444 7445 7446 7439 7442 7447 
607 640 937 938 5522 7433 7440 7442 7441 7448 
904 938 607 937 7444 7442 7439 7435 7448 7440 
905 607 938 608 7447 7442 7445 7449 5533 7450 
938 607 641 608 7442 5531 7443 7450 5533 5532 
608 641 939 642 5532 7451 7452 5541 5545 7453 
905 939 906 608 7454 7455 7456 7449 7452 7457 
608 641 938 939 5532 7443 7450 7452 7451 7458 
905 939 608 938 7454 7452 7449 7445 7458 7450 
906 608 939 609 7457 7452 7455 7459 5543 7460 
939 608 642 609 7452 5541 7453 7460 5543 5542 
609 642 940 643 5542 7461 7462 5551 5555 7463 
906 940 907 609 7464 7465 7466 7459 7462 7467 
609 642 939 940 5542 7453 7460 7462 7461 7468 
906 940 609 939 7464 7462 7459 7455 7468 7460 
907 609 940 610 7467 7462 7465 7469 5553 7470 
940 609 643 610 7462 5551 7463 7470 5553 5552 
610 643 941 644 5552 7471 7472 5561 5565 7473 
907 941 908 610 7474 7475 7476 7469 7472 7477 
610 643 940 941 5552 7463 7470 7472 7471 7478 
907 941 610 940 7474 7472 7469 7465 7478 7470 
908 610 941 611 7477 7472 7475 7479 5563 7480 
941 610 644 611 7472 5561 7473 7480 5563 5562 
611 644 942 645 5562 7481 7482 5571 5575 7483 
908 942 909 611 7484 7485 7486 7479 7482 7487 
611 644 941 942 5562 7473 7480 7482 7481 7488 
908 942 611 941 7484 7482 7479 7475 7488 7480 
909 611 942 612 7487 7482 7485 7489 5573 7490 
942 611 645 612 7482 5571 7483 7490 5573 5572 
612 645 943 646 5572 7491 7492 5581 5585 7493 
909 943 910 612 7494 7495 7496 7489 7492 7497 
612 645 942 943 5572 7483 7490 7492 7491 7498 
909 943 612 942 7494 7492 7489 7485 7498 7490 
910 612 943 613 7497 7492 7495 7499 5583 7500 
943 612 646 613 7492 5581 7493 7500 5583 5582 
613 646 944 647 5582 7501 7502 5591 5595 7503 
910 944 911 613 7504 7505 7506 7499 7502 7507 
613 646 943 944 5582 7493 7500 7502 7501 7508 
910 944 613 943 7504 7502 7499 7495 7508 7500 
911 613 944 614 7507 7502 7505 7509 5593 7510 
944 613 647 614 7502 5591 7503 7510 5593 5592 
614 647 945 648 5592 7511 7512 5601 5605 7513 
911 945 912 614 7514 7515 7516 7509 7512 7517 
614 647 944 945 5592 7503 7510 7512 7511 7518 
911 945 614 944 7514 7512 7509 7505 7518 7510 
912 614 945 615 7517 7512 7515 7519 5603 7520 
945 614 648 615 7512 5601 7513 7520 5603 5602 
615 648 946 649 5602 7521 7522 5611 5615 7523 
912 946 913 615 7524 7525 7526 7519 7522 7527 
615 648 945 946 5602 7513 7520 7522 7521 7528 
912 946 615 945 7524 7522 7519 7515 7528 7520 
913 615 946 616 7527 7522 7525 7529 5613 7530 
946 615 649 616 7522 5611 7523 7530 5613 5612 
616 649 947 650 5612 7531 7532 5621 5625 7533 
913 947 914 616 7534 7535 7536 7529 7532 7537 
616 649 946 947 5612 7523 7530 7532 7531 7538 
913 947 616 946 7534 7532 7529 7525 7538 7530 
914 616 947 617 7537 7532 7535 7539 5623 7540 
947 616 650 617 7532 5621 7533 7540 5623 5622 
617 650 948 651 5622 7541 7542 5631 5635 7543 
914 948 915 617 7544 7545 7546 7539 7542 7547 
617 650 947 948 5622 7533 7540 7542 7541 7548 
914 948 617 947 7544 7542 7539 7535 7548 7540 
915 617 948 618 7547 7542 7545 7549 5633 7550 
948 617 651 618 7542 5631 7543 7550 5633 5632 
618 651 949 652 5632 7551 7552 5641 5645 7553 
915 949 916 618 7554 7555 7556 7549 7552 7557 
618 651 948 949 5632 7543 7550 7552 7551 7558 
915 949 618 948 7554 7552 7549 7545 7558 7550 
916 618 949 619 7557 7552 7555 7559 5643 7560 
949 618 652 619 7552 5641 7553 7560 5643 5642 
619 652 950 653 5642 7561 7562 5651 5655 7563 
916 950 917 619 7564 7565 7566 7559 7562 7567 
619 652 949 950 5642 7553 7560 7562 7561 7568 
916 950 619 949 7564 7562 7559 7555 7568 7560 
917 619 950 620 7567 7562 7565 7569 5653 7570 
950 619 653 620 7562 5651 7563 7570 5653 5652 
620 653 951 654 5652 7571 7572 5661 5665 7573 
917 951 918 620 7574 7575 7576 7569 7572 7577 
620 653 950 951 5652 7563 7570 7572 7571 7578 
917 951 620 950 7574 7572 7569 7565 7578 7570 
918 620 951 621 7577 7572 7575 7579 5663 7580 
951 620 654 621 7572 5661 7573 7580 5663 5662 
621 654 952 655 5662 7581 7582 5671 5675 7583 
918 952 919 621 7584 7585 7586 7579 7582 7587 
621 654 951 952 5662 7573 7580 7582 7581 7588 
918 952 621 951 7584 7582 7579 7575 7588 7580 
919 621 952 622 7587 7582 7585 7589 5673 7590 
952 621 655 622 7582 5671 7583 7590 5673 5672 
622 655 953 656 5672 7591 7592 5681 5685 7593 
919 953 920 622 7594 7595 7596 7589 7592 7597 
622 655 952 953 5672 7583 7590 7592 7591 7598 
919 953 622 952 7594 7592 7589 7585 7598 7590 
920 622 953 623 7597 7592 7595 7599 5683 7600 
953 622 656 623 7592 5681 7593 7600 5683 5682 
623 656 954 657 5682 7601 7602 5691 5695 7603 
920 954 921 623 7604 7605 7606 7599 7602 7607 
623 656 953 954 5682 7593 7600 7602 7601 7608 
920 954 623 953 7604 7602 7599 7595 7608 7600 
921 623 954 624 7607 7602 7605 7609 5693 7610 
954 623 657 624 7602 5691 7603 7610 5693 5692 
624 657 955 658 5692 7611 7612 5701 5705 7613 
921 955 922 624 7614 7615 7616 7609 7612 7617 
624 657 954 955 5692 7603 7610 7612 7611 7618 
921 955 624 954 7614 7612 7609 7605 7618 7610 
922 624 955 625 7617 7612 7615 7619 5703 7620 
955 624 658 625 7612 5701 7613 7620 5703 5702 
625 658 956 659 5702 7621 7622 5711 5715 7623 
922 956 923 625 7624 7625 7626 7619 7622 7627 
625 658 955 956 5702 7613 7620 7622 7621 7628 
922 956 625 955 7624 7622 7619 7615 7628 7620 
923 625 956 626 7627 7622 7625 7629 5713 7630 
956 625 659 626 7622 5711 7623 7630 5713 5712 
627 660 958 661 5726 7631 7632 5721 5725 7633 
924 958 925 627 7634 7635 7317 7315 7632 7307 
627 660 957 958 5726 7636 7637 7632 7631 7638 
924 958 627 957 7634 7632 7315 7639 7638 7637 
925 627 958 628 7307 7632 7635 7309 5404 7640 
958 627 661 628 7632 5721 7633 7640 5404 5722 
628 661 959 662 5722 7641 7642 5731 5733 7643 
925 959 926 628 7644 7645 7328 7309 7642 7321 
628 661 958 959 5722 7633 7640 7642 7641 7646 
925 959 628 958 7644 7642 7309 7635 7646 7640 
926 628 959 629 7321 7642 7645 7323 5415 7647 
959 628 662 629 7642 5731 7643 7647 5415 5732 
629 662 960 663 5732 7648 7649 5738 5740 7650 
926 960 927 629 7651 7652 7338 7323 7649 7331 
629 662 959 960 5732 7643 7647 7649 7648 7653 
926 960 629 959 7651 7649 7323 7645 7653 7647 
927 629 960 630 7331 7649 7652 7333 5425 7654 
960 629 663 630 7649 5738 7650 7654 5425 5739 
630 663 961 664 5739 7655 7656 5745 5747 7657 
927 961 928 630 7658 7659 7348 7333 7656 7341 
630 663 960 961 5739 7650 7654 7656 7655 7660 
927 961 630 960 7658 7656 7333 7652 7660 7654 
928 630 961 631 7341 7656 7659 7343 5435 7661 
961 630 664 631 7656 5745 7657 7661 5435 5746 
631 664 962 665 5746 7662 7663 5752 5754 7664 
928 962 929 631 7665 7666 7358 7343 7663 7351 
631 664 961 962 5746 7657 7661 7663 7662 7667 
928 962 631 961 7665 7663 7343 7659 7667 7661 
929 631 962 632 7351 7663 7666 7353 5445 7668 
962 631 665 632 7663 5752 7664 7668 5445 5753 
632 665 963 666 5753 7669 7670 5759 5761 7671 
929 963 930 632 7672 7673 7368 7353 7670 7361 
632 665 962 963 5753 7664 7668 7670 7669 7674 
929 963 632 962 7672 7670 7353 7666 7674 7668 
930 632 963 633 7361 7670 7673 7363 5455 7675 
963 632 666 633 7670 5759 7671 7675 5455 5760 
633 666 964 667 5760 7676 7677 5766 5768 7678 
930 964 931 633 7679 7680 7378 7363 7677 7371 
633 666 963 964 5760 7671 7675 7677 7676 7681 
930 964 633 963 7679 7677 7363 7673 7681 7675 
931 633 964 634 7371 7677 7680 7373 5465 7682 
964 633 667 634 7677 5766 7678 7682 5465 5767 
634 667 965 668 5767 7683 7684 5773 5775 7685 
931 965 932 634 7686 7687 7388 7373 7684 7381 
634 667 964 965 5767 7678 7682 7684 7683 7688 
931 965 634 964 7686 7684 7373 7680 7688 7682 
932 634 965 635 7381 7684 7687 7383 5475 7689 
965 634 668 635 7684 5773 7685 7689 5475 5774 
635 668 966 669 5774 7690 7691 5780 5782 7692 
932 966 933 635 7693 7694 7398 7383 7691 7391 
635 668 965 966 5774 7685 7689 7691 7690 7695 
932 966 635 965 7693 7691 7383 7687 7695 7689 
933 635 966 636 7391 7691 7694 7393 5485 7696 
966 635 669 636 7691 5780 7692 7696 5485 5781 
636 669 967 670 5781 7697 7698 5787 5789 7699 
933 967 934 636 7700 7701 7408 7393 7698 7401 
636 669 966 967 5781 7692 7696 7698 7697 7702 
933 967 636 966 7700 7698 7393 7694 7702 7696 
934 636 967 637 7401 7698 7701 7403 5495 7703 
967 636 670 637 7698 5787 7699 7703 5495 5788 
637 670 968 671 5788 7704 7705 5794 5796 7706 
934 968 935 637 7707 7708 7418 7403 7705 7411 
637 670 967 968 5788 7699 7703 7705 7704 7709 
934 968 637 967 7707 7705 7403 7701 7709 7703 
935 637 968 638 7411 7705 7708 7413 5505 7710 
968 637 671 638 7705 5794 7706 7710 5505 5795 
638 671 969 672 5795 7711 7712 5801 5803 7713 
935 969 936 638 7714 7715 7428 7413 7712 7421 
638 671 968 969 5795 7706 7710 7712 7711 7716 
935 969 638 968 7714 7712 7413 7708 7716 7710 
936 638 969 639 7421 7712 7715 7423 5515 7717 
969 638 672 639 7712 5801 7713 7717 5515 5802 
639 672 970 673 5802 7718 7719 5808 5810 7720 
936 970 937 639 7721 7722 7438 7423 7719 7431 
639 672 969 970 5802 7713 7717 7719 7718 7723 
936 970 639 969 7721 7719 7423 7715 7723 7717 
937 639 970 640 7431 7719 7722 7433 5525 7724 
970 639 673 640 7719 5808 7720 7724 5525 5809 
640 673 971 674 5809 7725 7726 5815 5817 7727 
937 971 938 640 7728 7729 7448 7433 7726 7441 
640 673 970 971 5809 7720 7724 7726 7725 7730 
937 971 640 970 7728 7726 7433 7722 7730 7724 
938 640 971 641 7441 7726 7729 7443 5535 7731 
971 640 674 641 7726 5815 7727 7731 5535 5816 
641 674 972 675 5816 7732 7733 5822 5824 7734 
938 972 939 641 7735 7736 7458 7443 7733 7451 
641 674 971 972 5816 7727 7731 7733 7732 7737 
938 972 641 971 7735 7733 7443 7729 7737 7731 
939 641 972 642 7451 7733 7736 7453 5545 7738 
972 641 675 642 7733 5822 7734 7738 5545 5823 
642 675 973 676 5823 7739 7740 5829 5831 7741 
939 973 940 642 7742 7743 7468 7453 7740 7461 
642 675 972 973 5823 7734 7738 7740 7739 7744 
939 973 642 972 7742 7740 7453 7736 7744 7738 
940 642 973 643 7461 7740 7743 7463 5555 7745 
973 642 676 643 7740 5829 7741 7745 5555 5830 
643 676 974 677 5830 7746 7747 5836 5838 7748 
940 974 941 643 7749 7750 7478 7463 7747 7471 
643 676 973 974 5830 7741 7745 7747 7746 7751 
940 974 643 973 7749 7747 7463 7743 7751 7745 
941 643 974 644 7471 7747 7750 7473 5565 7752 
974 643 677 644 7747 5836 7748 7752 5565 5837 
644 677 975 678 5837 7753 7754 5843 5845 7755 
941 975 942 644 7756 7757 7488 7473 7754 7481 
644 677 974 975 5837 7748 7752 7754 7753 7758 
941 975 644 974 7756 7754 7473 7750 7758 7752 
942 644 975 645 7481 7754 7757 7483 5575 7759 
975 644 678 645 7754 5843 7755 7759 5575 5844 
645 678 976 679 5844 7760 7761 5850 5852 7762 
942 976 943 645 7763 7764 7498 7483 7761 7491 
645 678 975 976 5844 7755 7759 7761 7760 7765 
942 976 645 975 7763 7761 7483 7757 7765 7759 
943 645 976 646 7491 7761 7764 7493 5585 7766 
976 645 679 646 7761 5850 7762 7766 5585 5851 
646 679 977 680 5851 7767 7768 5857 5859 7769 
943 977 944 646 7770 7771 7508 7493 7768 7501 
646 679 976 977 5851 7762 7766 7768 7767 7772 
943 977 646 976 7770 7768 7493 7764 7772 7766 
944 646 977 647 7501 7768 7771 7503 5595 7773 
977 646 680 647 7768 5857 7769 7773 5595 5858 
647 680 978 681 5858 7774 7775 5864 5866 7776 
944 978 945 647 7777 7778 7518 7503 7775 7511 
647 680 977 978 5858 7769 7773 7775 7774 7779 
944 978 647 977 7777 7775 7503 7771 7779 7773 
945 647 978 648 7511 7775 7778 7513 5605 7780 
978 647 681 648 7775 5864 7776 7780 5605 5865 
648 681 979 682 5865 7781 7782 5871 5873 7783 
945 979 946 648 7784 7785 7528 7513 7782 7521 
648 681 978 979 5865 7776 7780 7782 7781 7786 
945 979 648 978 7784 7782 7513 7778 7786 7780 
946 648 979 649 7521 7782 7785 7523 5615 7787 
979 648 682 649 7782 5871 7783 7787 5615 5872 
649 682 980 683 5872 7788 7789 5878 5880 7790 
946 980 947 649 7791 7792 7538 7523 7789 7531 
649 682 979 980 5872 7783 7787 7789 7788 7793 
946 980 649 979 7791 7789 7523 7785 7793 7787 
947 649 980 650 7531 7789 7792 7533 5625 7794 
980 649 683 650 7789 5878 7790 7794 5625 5879 
650 683 981 684 5879 7795 7796 5885 5887 7797 
947 981 948 650 7798 7799 7548 7533 7796 7541 
650 683 980 981 5879 7790 7794 7796 7795 7800 
947 981 650 980 7798 7796 7533 7792 7800 7794 
948 650 981 651 7541 7796 7799 7543 5635 7801 
981 650 684 651 7796 5885 7797 7801 5635 5886 
651 684 982 685 5886 7802 7803 5892 5894 7804 
948 982 949 651 7805 7806 7558 7543 7803 7551 
651 684 981 982 5886 7797 7801 7803 7802 7807 
948 982 651 981 7805 7803 7543 7799 7807 7801 
949 651 982 652 7551 7803 7806 7553 5645 7808 
982 651 685 652 7803 5892 7804 7808 5645 5893 
652 685 983 686 5893 7809 7810 5899 5901 7811 
949 983 950 652 7812 7813 7568 7553 7810 7561 
652 685 982 983 5893 7804 7808 7810 7809 7814 
949 983 652 982 7812 7810 7553 7806 7814 7808 
950 652 983 653 7561 7810 7813 7563 5655 7815 
983 652 686 653 7810 5899 7811 7815 5655 5900 
653 686 984 687 5900 7816 7817 5906 5908 7818 
950 984 951 653 7819 7820 7578 7563 7817 7571 
653 686 983 984 5900 7811 7815 7817 7816 7821 
950 984 653 983 7819 7817 7563 7813 7821 7815 
951 653 984 654 7571 7817 7820 7573 5665 7822 
984 653 687 654 7817 5906 7818 7822 5665 5907 
654 687 985 688 5907 7823 7824 5913 5915 7825 
951 985 952 654 7826 7827 7588 7573 7824 7581 
654 687 984 985 5907 7818 7822 7824 7823 7828 
951 985 654 984 7826 7824 7573 7820 7828 7822 
952 654 985 655 7581 7824 7827 7583 5675 7829 
985 654 688 655 7824 5913 7825 7829 5675 5914 
655 688 986 689 5914 7830 7831 5920 5922 7832 
952 986 953 655 7833 7834 7598 7583 7831 7591 
655 688 985 986 5914 7825 7829 7831 7830 7835 
952 986 655 985 7833 7831 7583 7827 7835 7829 
953 655 986 656 7591 7831 7834 7593 5685 7836 
986 655 689 656 7831 5920 7832 7836 5685 5921 
656 689 987 690 5921 7837 7838 5927 5929 7839 
953 987 954 656 7840 7841 7608 7593 7838 7601 
656 689 986 987 5921 7832 7836 7838 7837 7842 
953 987 656 986 7840 7838 7593 7834 7842 7836 
954 656 987 657 7601 7838 7841 7603 5695 7843 
987 656 690 657 7838 5927 7839 7843 5695 5928 
657 690 988 691 5928 7844 7845 5934 5936 7846 
954 988 955 657 7847 7848 7618 7603 7845 7611 
657 690 987 988 5928 7839 7843 7845 7844 7849 
954 988 657 987 7847 7845 7603 7841 7849 7843 
955 657 988 658 7611 7845 7848 7613 5705 7850 
988 657 691 658 7845 5934 7846 7850 5705 5935 
658 691 989 692 5935 7851 7852 5941 5943 7853 
955 989 956 658 7854 7855 7628 7613 7852 7621 
658 691 988 989 5935 7846 7850 7852 7851 7856 
955 989 658 988 7854 7852 7613 7848 7856 7850 
956 658 989 659 7621 7852 7855 7623 5715 7857 
989 658 692 659 7852 5941 7853 7857 5715 5942 
660 693 991 694 5953 7858 7859 5948 5952 7860 
957 991 958 660 7861 7862 7638 7636 7859 7631 
660 693 990 991 5953 7863 7864 7859 7858 7865 
957 991 660 990 7861 7859 7636 7866 7865 7864 
958 660 991 661 7631 7859 7862 7633 5725 7867 
991 660 694 661 7859 5948 7860 7867 5725 5949 
661 694 992 695 5949 7868 7869 5958 5960 7870 
958 992 959 661 7871 7872 7646 7633 7869 7641 
661 694 991 992 5949 7860 7867 7869 7868 7873 
958 992 661 991 7871 7869 7633 7862 7873 7867 
959 661 992 662 7641 7869 7872 7643 5733 7874 
992 661 695 662 7869 5958 7870 7874 5733 5959 
662 695 993 696 5959 7875 7876 5965 5967 7877 
959 993 960 662 7878 7879 7653 7643 7876 7648 
662 695 992 993 5959 7870 7874 7876 7875 7880 
959 993 662 992 7878 7876 7643 7872 7880 7874 
960 662 993 663 7648 7876 7879 7650 5740 7881 
993 662 696 663 7876 5965 7877 7881 5740 5966 
663 696 994 697 5966 7882 7883 5972 5974 7884 
960 994 961 663 7885 7886 7660 7650 7883 7655 
663 696 993 994 5966 7877 7881 7883 7882 7887 
960 994 663 993 7885 7883 7650 7879 7887 7881 
961 663 994 664 7655 7883 7886 7657 5747 7888 
994 663 697 664 7883 5972 7884 7888 5747 5973 
664 697 995 698 5973 7889 7890 5979 5981 7891 
961 995 962 664 7892 7893 7667 7657 7890 7662 
664 697 994 995 5973 7884 7888 7890 7889 7894 
961 995 664 994 7892 7890 7657 7886 7894 7888 
962 664 995 665 7662 7890 7893 7664 5754 7895 
995 664 698 665 7890 5979 7891 7895 5754 5980 
665 698 996 699 5980 7896 7897 5986 5988 7898 
962 996 963 665 7899 7900 7674 7664 7897 7669 
665 698 995 996 5980 7891 7895 7897 7896 7901 
962 996 665 995 7899 7897 7664 7893 7901 7895 
963 665 996 666 7669 7897 7900 7671 5761 7902 
996 665 699 666 7897 5986 7898 7902 5761 5987 
666 699 997 700 5987 7903 7904 5993 5995 7905 
963 997 964 666 7906 7907 7681 7671 7904 7676 
666 699 996 997 5987 7898 7902 7904 7903 7908 
963 997 666 996 7906 7904 7671 7900 7908 7902 
964 666 997 667 7676 7904 7907 7678 5768 7909 
997 666 700 667 7904 5993 7905 7909 5768 5994 
667 700 998 701 5994 7910 7911 6000 6002 7912 
964 998 965 667 7913 7914 7688 7678 7911 7683 
667 700 997 998 5994 7905 7909 7911 7910 7915 
964 998 667 997 7913 7911 7678 7907 7915 7909 
965 667 998 668 7683 7911 7914 7685 5775 7916 
998 667 701 668 7911 6000 7912 7916 5775 6001 
668 701 999 702 6001 7917 7918 6007 6009 7919 
965 999 966 668 7920 7921 7695 7685 7918 7690 
668 701 998 999 6001 7912 7916 7918 7917 7922 
965 999 668 998 7920 7918 7685 7914 7922 7916 
966 668 999 669 7690 7918 7921 7692 5782 7923 
999 668 702 669 7918 6007 7919 7923 5782 6008 
669 702 1000 703 6008 7924 7925 6014 6016 7926 
966 1000 967 669 7927 7928 7702 7692 7925 7697 
669 702 999 1000 6008 7919 7923 7925 7924 7929 
966 1000 669 999 7927 7925 7692 7921 7929 7923 
967 669 1000 670 7697 7925 7928 7699 5789 7930 
1000 669 703 670 7925 6014 7926 7930 5789 6015 
670 703 1001 704 6015 7931 7932 6021 6023 7933 
967 1001 968 670 7934 7935 7709 7699 7932 7704 
670 703 1000 1001 6015 7926 7930 7932 7931 7936 
967 1001 670 1000 7934 7932 7699 7928 7936 7930 
968 670 1001 671 7704 7932 7935 7706 5796 7937 
1001 670 704 671 7932 6021 7933 7937 5796 6022 
671 704 1002 705 6022 7938 7939 6028 6030 7940 
968 1002 969 671 7941 7942 7716 7706 7939 7711 
671 704 1001 1002 6022 7933 7937 7939 7938 7943 
968 1002 671 1001 7941 7939 7706 7935 7943 7937 
969 671 1002 672 7711 7939 7942 7713 5803 7944 
1002 671 705 672 7939 6028 7940 7944 5803 6029 
672 705 1003 706 6029 7945 7946 6035 6037 7947 
969 1003 970 672 7948 7949 7723 7713 7946 7718 
672 705 1002 1003 6029 7940 7944 7946 7945 7950 
969 1003 672 1002 7948 7946 7713 7942 7950 7944 
970 672 1003 673 7718 7946 7949 7720 5810 7951 
1003 672 706 673 7946 6035 7947 7951 5810 6036 
673 706 1004 707 6036 7952 7953 6042 6044 7954 
970 1004 971 673 7955 7956 7730 7720 7953 7725 
673 706 1003 1004 6036 7947 7951 7953 7952 7957 
970 1004 673 1003 7955 7953 7720 7949 7957 7951 
971 673 1004 674 7725 7953 7956 7727 5817 7958 
1004 673 707 674 7953 6042 7954 7958 5817 6043 
674 707 1005 708 6043 7959 7960 6049 6051 7961 
971 1005 972 674 7962 7963 7737 7727 7960 7732 
674 707 1004 1005 6043 7954 7958 7960 7959 7964 
971 1005 674 1004 7962 7960 7727 7956 7964 7958 
972 674 1005 675 7732 7960 7963 7734 5824 7965 
1005 674 708 675 7960 6049 7961 7965 5824 6050 
675 708 1006 709 6050 7966 7967 6056 6058 7968 
972 1006 973 675 7969 7970 7744 7734 7967 7739 
675 708 1005 1006 6050 7961 7965 7967 7966 7971 
972 1006 675 1005 7969 7967 7734 7963 7971 7965 
973 675 1006 676 7739 7967 7970 7741 5831 7972 
1006 675 709 676 7967 6056 7968 7972 5831 6057 
676 709 1007 710 6057 7973 7974 6063 6065 7975 
973 1007 974 676 7976 7977 7751 7741 7974 7746 
676 709 1006 1007 6057 7968 7972 7974 7973 7978 
973 1007 676 1006 7976 7974 7741 7970 7978 7972 
974 676 1007 677 7746 7974 7977 7748 5838 7979 
1007 676 710 677 7974 6063 7975 7979 5838 6064 
677 710 1008 711 6064 7980 7981 6070 6072 7982 
974 1008 975 677 7983 7984 7758 7748 7981 7753 
677 710 1007 1008 6064 7975 7979 7981 7980 7985 
974 1008 677 1007 7983 7981 7748 7977 7985 7979 
975 677 1008 678 7753 7981 7984 7755 5845 7986 
1008 677 711 678 7981 6070 7982 7986 5845 6071 
678 711 1009 712 6071 7987 7988 6077 6079 7989 
975 1009 976 678 7990 7991 7765 7755 7988 7760 
678 711 1008 1009 6071 7982 7986 7988 7987 7992 
975 1009 678 1008 7990 7988 7755 7984 7992 7986 
976 678 1009 679 7760 7988 7991 7762 5852 7993 
1009 678 712 679 7988 6077 7989 7993 5852 6078 
679 712 1010 713 6078 7994 7995 6084 6086 7996 
976 1010 977 679 7997 7998 7772 7762 7995 7767 
679 712 1009 1010 6078 7989 7993 7995 7994 7999 
976 1010 679 1009 7997 7995 7762 7991 7999 7993 
977 679 1010 680 7767 7995 7998 7769 5859 8000 
1010 679 713 680 7995 6084 7996 8000 5859 6085 
680 713 1011 714 6085 8001 8002 6091 6093 8003 
977 1011 978 680 8004 8005 7779 7769 8002 7774 
680 713 1010 1011 6085 7996 8000 8002 8001 8006 
977 1011 680 1010 8004 8002 7769 7998 8006 8000 
978 680 1011 681 7774 8002 8005 7776 5866 8007 
1011 680 714 681 8002 6091 8003 8007 5866 6092 
681 714 1012 715 6092 8008 8009 6098 6100 8010 
978 1012 979 681 8011 8012 7786 7776 8009 7781 
681 714 1011 1012 6092 8003 8007 8009 8008 8013 
978 1012 681 1011 8011 8009 7776 8005 8013 8007 
979 681 1012 682 7781 8009 8012 7783 5873 8014 
1012 681 715 682 8009 6098 8010 8014 5873 6099 
682 715 1013 716 6099 8015 8016 6105 6107 8017 
979 1013 980 682 8018 8019 7793 7783 8016 7788 
682 715 1012 1013 6099 8010 8014 8016 8015 8020 
979 1013 682 1012 8018 8016 7783 8012 8020 8014 
980 682 1013 683 7788 8016 8019 7790 5880 8021 
1013 682 716 683 8016 6105 8017 8021 5880 6106 
683 716 1014 717 6106 8022 8023 6112 6114 8024 
980 1014 981 683 8025 8026 7800 7790 8023 7795 
683 716 1013 1014 6106 8017 8021 8023 8022 8027 
980 1014 683 1013 8025 8023 7790 8019 8027 8021 
981 683 1014 684 7795 8023 8026 7797 5887 8028 
1014 683 717 684 8023 6112 8024 8028 5887 6113 
684 717 1015 718 6113 8029 8030 6119 6121 8031 
981 1015 982 684 8032 8033 7807 7797 8030 7802 
684 717 1014 1015 6113 8024 8028 8030 8029 8034 
981 1015 684 1014 8032 8030 7797 8026 8034 8028 
982 684 1015 685 7802 8030 8033 7804 5894 8035 
1015 684 718 685 8030 6119 8031 8035 5894 6120 
685 718 1016 719 6120 8036 8037 6126 6128 8038 
982 1016 983 685 8039 8040 7814 7804 8037 7809 
685 718 1015 1016 6120 8031 8035 8037 8036 8041 
982 1016 685 1015 8039 8037 7804 8033 8041 8035 
983 685 1016 686 7809 8037 8040 7811 5901 8042 
1016 685 719 686 8037 6126 8038 8042 5901 6127 
686 719 1017 720 6127 8043 8044 6133 6135 8045 
983 1017 984 686 8046 8047 7821 7811 8044 7816 
686 719 1016 1017 6127 8038 8042 8044 8043 8048 
983 1017 686 1016 8046 8044 7811 8040 8048 8042 
984 686 1017 687 7816 8044 8047 7818 5908 8049 
1017 686 720 687 8044 6133 8045 8049 5908 6134 
687 720 1018 721 6134 8050 8051 6140 6142 8052 
984 1018 985 687 8053 8054 7828 7818 8051 7823 
687 720 1017 1018 6134 8045 8049 8051 8050 8055 
984 1018 687 1017 8053 8051 7818 8047 8055 8049 
985 687 1018 688 7823 8051 8054 7825 5915 8056 
1018 687 721 688 8051 6140 8052 8056 5915 6141 
688 721 1019 722 6141 8057 8058 6147 6149 8059 
985 1019 986 688 8060 8061 7835 7825 8058 7830 
688 721 1018 1019 6141 8052 8056 8058 8057 8062 
985 1019 688 1018 8060 8058 7825 8054 8062 8056 
986 688 1019 689 7830 8058 8061 7832 5922 8063 
1019 688 722 689 8058 6147 8059 8063 5922 6148 
689 722 1020 723 6148 8064 8065 6154 6156 8066 
986 1020 987 689 8067 8068 7842 7832 8065 7837 
689 722 1019 1020 6148 8059 8063 8065 8064 8069 
986 1020 689 1019 8067 8065 7832 8061 8069 8063 
987 689 1020 690 7837 8065 8068 7839 5929 8070 
1020 689 723 690 8065 6154 8066 8070 5929 6155 
690 723 1021 724 6155 8071 8072 6161 6163 8073 
987 1021 988 690 8074 8075 7849 7839 8072 7844 
690 723 1020 1021 6155 8066 8070 8072 8071 8076 
987 1021 690 1020 8074 8072 7839 8068 8076 8070 
988 690 1021 691 7844 8072 8075 7846 5936 8077 
1021 690 724 691 8072 6161 8073 8077 5936 6162 
691 724 1022 725 6162 8078 8079 6168 6170 8080 
988 1022 989 691 8081 8082 7856 7846 8079 7851 
691 724 1021 1022 6162 8073 8077 8079 8078 8083 
988 1022 691 1021 8081 8079 7846 8075 8083 8077 
989 691 1022 692 7851 8079 8082 7853 5943 8084 
1022 691 725 692 8079 6168 8080 8084 5943 6169 
693 726 1024 727 6180 8085 8086 6175 6179 8087 
990 1024 991 693 8088 8089 7865 7863 8086 7858 
693 726 1023 1024 6180 8090 8091 8086 8085 8092 
990 1024 693 1023 8088 8086 7863 8093 8092 8091 
991 693 1024 694 7858 8086 8089 7860 5952 8094 
1024 693 727 694 8086 6175 8087 8094 5952 6176 
694 727 1025 728 6176 8095 8096 6185 6187 8097 
991 1025 992 694 8098 8099 7873 7860 8096 7868 
694 727 1024 1025 6176 8087 8094 8096 8095 8100 
991 1025 694 1024 8098 8096 7860 8089 8100 8094 
992 694 1025 695 7868 8096 8099 7870 5960 8101 
1025 694 728 695 8096 6185 8097 8101 5960 6186 
695 728 1026 729 6186 8102 8103 6192 6194 8104 
992 1026 993 695 8105 8106 7880 7870 8103 7875 
695 728 1025 1026 6186 8097 8101 8103 8102 8107 
992 1026 695 1025 8105 8103 7870 8099 8107 8101 
993 695 1026 696 7875 8103 8106 7877 5967 8108 
1026 695 729 696 8103 6192 8104 8108 5967 6193 
696 729 1027 730 6193 8109 8110 6199 6201 8111 
993 1027 994 696 8112 8113 7887 7877 8110 7882 
696 729 1026 1027 6193 8104 8108 8110 8109 8114 
993 1027 696 1026 8112 8110 7877 8106 8114 8108 
994 696 1027 697 7882 8110 8113 7884 5974 8115 
1027 696 730 697 8110 6199 8111 8115 5974 6200 
697 730 1028 731 6200 8116 8117 6206 6208 8118 
994 1028 995 697 8119 8120 7894 7884 8117 7889 
697 730 1027 1028 6200 8111 8115 8117 8116 8121 
994 1028 697 1027 8119 8117 7884 8113 8121 8115 
995 697 1028 698 7889 8117 8120 7891 5981 8122 
1028 697 731 698 8117 6206 8118 8122 5981 6207 
698 731 1029 732 6207 8123 8124 6213 6215 8125 
995 1029 996 698 8126 8127 7901 7891 8124 7896 
698 731 1028 1029 6207 8118 8122 8124 8123 8128 
995 1029 698 1028 8126 8124 7891 8120 8128 8122 
996 698 1029 699 7896 8124 8127 7898 5988 8129 
1029 698 732 699 8124 6213 8125 8129 5988 6214 
699 732 1030 733 6214 8130 8131 6220 6222 8132 
996 1030 997 699 8133 8134 7908 7898 8131 7903 
699 732 1029 1030 6214 8125 8129 8131 8130 8135 
996 1030 699 1029 8133 8131 7898 8127 8135 8129 
997 699 1030 700 7903 8131 8134 7905 5995 8136 
1030 699 733 700 8131 6220 8132 8136 5995 6221 
700 733 1031 734 6221 8137 8138 6227 6229 8139 
997 1031 998 700 8140 8141 7915 7905 8138 7910 
700 733 1030 1031 6221 8132 8136 8138 8137 8142 
997 1031 700 1030 8140 8138 7905 8134 8142 8136 
998 700 1031 701 7910 8138 8141 7912 6002 8143 
1031 700 734 701 8138 6227 8139 8143 6002 6228 
701 734 1032 735 6228 8144 8145 6234 6236 8146 
998 1032 999 701 8147 8148 7922 7912 8145 7917 
701 734 1031 1032 6228 8139 8143 8145 8144 8149 
998 1032 701 1031 8147 8145 7912 8141 8149 8143 
999 701 1032 702 7917 8145 8148 7919 6009 8150 
1032 701 735 702 8145 6234 8146 8150 6009 6235 
702 735 1033 736 6235 8151 8152 6241 6243 8153 
999 1033 1000 702 8154 8155 7929 7919 8152 7924 
702 735 1032 1033 6235 8146 8150 8152 8151 8156 
999 1033 702 1032 8154 8152 7919 8148 8156 8150 
1000 702 1033 703 7924 8152 8155 7926 6016 8157 
1033 702 736 703 8152 6241 8153 8157 6016 6242 
703 736 1034 737 6242 8158 8159 6248 6250 8160 
1000 1034 1001 703 8161 8162 7936 7926 8159 7931 
703 736 1033 1034 6242 8153 8157 8159 8158 8163 
1000 1034 703 1033 8161 8159 7926 8155 8163 8157 
1001 703 1034 704 7931 8159 8162 7933 6023 8164 
1034 703 737 704 8159 6248 8160 8164 6023 6249 
704 737 1035 738 6249 8165 8166 6255 6257 8167 
1001 1035 1002 704 8168 8169 7943 7933 8166 7938 
704 737 1034 1035 6249 8160 8164 8166 8165 8170 
1001 1035 704 1034 8168 8166 7933 8162 8170 8164 
1002 704 1035 705 7938 8166 8169 7940 6030 8171 
1035 704 738 705 8166 6255 8167 8171 6030 6256 
705 738 1036 739 6256 8172 8173 6262 6264 8174 
1002 1036 1003 705 8175 8176 7950 7940 8173 7945 
705 738 1035 1036 6256 8167 8171 8173 8172 8177 
1002 1036 705 1035 8175 8173 7940 8169 8177 8171 
1003 705 1036 706 7945 8173 8176 7947 6037 8178 
1036 705 739 706 8173 6262 8174 8178 6037 6263 
706 739 1037 740 6263 8179 8180 6269 6271 8181 
1003 1037 1004 706 8182 8183 7957 7947 8180 7952 
706 739 1036 1037 6263 8174 8178 8180 8179 8184 
1003 1037 706 1036 8182 8180 7947 8176 8184 8178 
1004 706 1037 707 7952 8180 8183 7954 6044 8185 
1037 706 740 707 8180 6269 8181 8185 6044 6270 
707 740 1038 741 6270 8186 8187 6276 6278 8188 
1004 1038 1005 707 8189 8190 7964 7954 8187 7959 
707 740 1037 1038 6270 8181 8185 8187 8186 8191 
1004 1038 707 1037 8189 8187 7954 8183 8191 8185 
1005 707 1038 708 7959 8187 8190 7961 6051 8192 
1038 707 741 708 8187 6276 8188 8192 6051 6277 
708 741 1039 742 6277 8193 8194 6283 6285 8195 
1005 1039 1006 708 8196 8197 7971 7961 8194 7966 
708 741 1038 1039 6277 8188 8192 8194 8193 8198 
1005 1039 708 1038 8196 8194 7961 8190 8198 8192 
1006 708 1039 709 7966 8194 8197 7968 6058 8199 
1039 708 742 709 8194 6283 8195 8199 6058 6284 
709 742 1040 743 6284 8200 8201 6290 6292 8202 
1006 1040 1007 709 8203 8204 7978 7968 8201 7973 
709 742 1039 1040 6284 8195 8199 8201 8200 8205 
1006 1040 709 1039 8203 8201 7968 8197 8205 8199 
1007 709 1040 710 7973 8201 8204 7975 6065 8206 
1040 709 743 710 8201 6290 8202 8206 6065 6291 
710 743 1041 744 6291 8207 8208 6297 6299 8209 
1007 1041 1008 710 8210 8211 7985 7975 8208 7980 
710 743 1040 1041 6291 8202 8206 8208 8207 8212 
1007 1041 710 1040 8210 8208 7975 8204 8212 8206 
1008 710 1041 711 7980 8208 8211 7982 6072 8213 
1041 710 744 711 8208 6297 8209 8213 6072 6298 
711 744 1042 745 6298 8214 8215 6304 6306 8216 
1008 1042 1009 711 8217 8218 7992 7982 8215 7987 
711 744 1041 1042 6298 8209 8213 8215 8214 8219 
1008 1042 711 1041 8217 8215 7982 8211 8219 8213 
1009 711 1042 712 7987 8215 8218 7989 6079 8220 
1042 711 745 712 8215 6304 8216 8220 6079 6305 
712 745 1043 746 6305 8221 8222 6311 6313 8223 
1009 1043 1010 712 8224 8225 7999 7989 8222 7994 
712 745 1042 1043 6305 8216 8220 8222 8221 8226 
1009 1043 712 1042 8224 8222 7989 8218 8226 8220 
1010 712 1043 713 7994 8222 8225 7996 6086 8227 
1043 712 746 713 8222 6311 8223 8227 6086 6312 
713 746 1044 747 6312 8228 8229 6318 6320 8230 
1010 1044 1011 713 8231 8232 8006 7996 8229 8001 
713 746 1043 1044 6312 8223 8227 8229 8228 8233 
1010 1044 713 1043 8231 8229 7996 8225 8233 8227 
1011 713 1044 714 8001 8229 8232 8003 6093 8234 
1044 713 747 714 8229 6318 8230 8234 6093 6319 
714 747 1045 748 6319 8235 8236 6325 6327 8237 
1011 1045 1012 714 8238 8239 8013 8003 8236 8008 
714 747 1044 1045 6319 8230 8234 8236 8235 8240 
1011 1045 714 1044 8238 8236 8003 8232 8240 8234 
1012 714 1045 715 8008 8236 8239 8010 6100 8241 
1045 714 748 715 8236 6325 8237 8241 6100 6326 
715 748 1046 749 6326 8242 8243 6332 6334 8244 
1012 1046 1013 715 8245 8246 8020 8010 8243 8015 
715 748 1045 1046 6326 8237 8241 8243 8242 8247 
1012 1046 715 1045 8245 8243 8010 8239 8247 8241 
1013 715 1046 716 8015 8243 8246 8017 6107 8248 
1046 715 749 716 8243 6332 8244 8248 6107 6333 
716 749 1047 750 6333 8249 8250 6339 6341 8251 
1013 1047 1014 716 8252 8253 8027 8017 8250 8022 
716 749 1046 1047 6333 8244 8248 8250 8249 8254 
1013 1047 716 1046 8252 8250 8017 8246 8254 8248 
1014 716 1047 717 8022 8250 8253 8024 6114 8255 
1047 716 750 717 8250 6339 8251 8255 6114 6340 
717 750 1048 751 6340 8256 8257 6346 6348 8258 
1014 1048 1015 717 8259 8260 8034 8024 8257 8029 
717 750 1047 1048 6340 8251 8255 8257 8256 8261 
1014 1048 717 1047 8259 8257 8024 8253 8261 8255 
1015 717 1048 718 8029 8257 8260 8031 6121 8262 
1048 717 751 718 8257 6346 8258 8262 6121 6347 
718 751 1049 752 6347 8263 8264 6353 6355 8265 
1015 1049 1016 718 8266 8267 8041 8031 8264 8036 
718 751 1048 1049 6347 8258 8262 8264 8263 8268 
1015 1049 718 1048 8266 8264 8031 8260 8268 8262 
1016 718 1049 719 8036 8264 8267 8038 6128 8269 
1049 718 752 719 8264 6353 8265 8269 6128 6354 
719 752 1050 753 6354 8270 8271 6360 6362 8272 
1016 1050 1017 719 8273 8274 8048 8038 8271 8043 
719 752 1049 1050 6354 8265 8269 8271 8270 8275 
1016 1050 719 1049 8273 8271 8038 8267 8275 8269 
1017 719 1050 720 8043 8271 8274 8045 6135 8276 
1050 719 753 720 8271 6360 8272 8276 6135 6361 
720 753 1051 754 6361 8277 8278 6367 6369 8279 
1017 1051 1018 720 8280 8281 8055 8045 8278 8050 
720 753 1050 1051 6361 8272 8276 8278 8277 8282 
1017 1051 720 1050 8280 8278 8045 8274 8282 8276 
1018 720 1051 721 8050 8278 8281 8052 6142 8283 
1051 720 754 721 8278 6367 8279 8283 6142 6368 
721 754 1052 755 6368 8284 8285 6374 6376 8286 
1018 1052 1019 721 8287 8288 8062 8052 8285 8057 
721 754 1051 1052 6368 8279 8283 8285 8284 8289 
1018 1052 721 1051 8287 8285 8052 8281 8289 8283 
1019 721 1052 722 8057 8285 8288 8059 6149 8290 
1052 721 755 722 8285 6374 8286 8290 6149 6375 
722 755 1053 756 6375 8291 8292 6381 6383 8293 
1019 1053 1020 722 8294 8295 8069 8059 8292 8064 
722 755 1052 1053 6375 8286 8290 8292 8291 8296 
1019 1053 722 1052 8294 8292 8059 8288 8296 8290 
1020 722 1053 723 8064 8292 8295 8066 6156 8297 
1053 722 756 723 8292 6381 8293 8297 6156 6382 
723 756 1054 757 6382 8298 8299 6388 6390 8300 
1020 1054 1021 723 8301 8302 8076 8066 8299 8071 
723 756 1053 1054 6382 8293 8297 8299 8298 8303 
1020 1054 723 1053 8301 8299 8066 8295 8303 8297 
1021 723 1054 724 8071 8299 8302 8073 6163 8304 
1054 723 757 724 8299 6388 8300 8304 6163 6389 
724 757 1055 758 6389 8305 8306 6395 6397 8307 
1021 1055 1022 724 8308 8309 8083 8073 8306 8078 
724 757 1054 1055 6389 8300 8304 8306 8305 8310 
1021 1055 724 1054 8308 8306 8073 8302 8310 8304 
1022 724 1055 725 8078 8306 8309 8080 6170 8311 
1055 724 758 725 8306 6395 8307 8311 6170 6396 
726 759 1057 760 6407 8312 8313 6402 6406 8314 
1023 1057 1024 726 8315 8316 8092 8090 8313 8085 
726 759 1056 1057 6407 8317 8318 8313 8312 8319 
1023 1057 726 1056 8315 8313 8090 8320 8319 8318 
1024 726 1057 727 8085 8313 8316 8087 6179 8321 
1057 726 760 727 8313 6402 8314 8321 6179 6403 
727 760 1058 761 6403 8322 8323 6412 6414 8324 
1024 1058 1025 727 8325 8326 8100 8087 8323 8095 
727 760 1057 1058 6403 8314 8321 8323 8322 8327 
1024 1058 727 1057 8325 8323 8087 8316 8327 8321 
1025 727 1058 728 8095 8323 8326 8097 6187 8328 
1058 727 761 728 8323 6412 8324 8328 6187 6413 
728 761 1059 762 6413 8329 8330 6419 6421 8331 
1025 1059 1026 728 8332 8333 8107 8097 8330 8102 
728 761 1058 1059 6413 8324 8328 8330 8329 8334 
1025 1059 728 1058 8332 8330 8097 8326 8334 8328 
1026 728 1059 729 8102 8330 8333 8104 6194 8335 
1059 728 762 729 8330 6419 8331 8335 6194 6420 
729 762 1060 763 6420 8336 8337 6426 6428 8338 
1026 1060 1027 729 8339 8340 8114 8104 8337 8109 
729 762 1059 1060 6420 8331 8335 8337 8336 8341 
1026 1060 729 1059 8339 8337 8104 8333 8341 8335 
1027 729 1060 730 8109 8337 8340 8111 6201 8342 
1060 729 763 730 8337 6426 8338 8342 6201 6427 
730 763 1061 764 6427 8343 8344 6433 6435 8345 
1027 1061 1028 730 8346 8347 8121 8111 8344 8116 
730 763 1060 1061 6427 8338 8342 8344 8343 8348 
1027 1061 730 1060 8346 8344 8111 8340 8348 8342 
1028 730 1061 731 8116 8344 8347 8118 6208 8349 
1061 730 764 731 8344 6433 8345 8349 6208 6434 
731 764 1062 765 6434 8350 8351 6440 6442 8352 
1028 1062 1029 731 8353 8354 8128 8118 8351 8123 
731 764 1061 1062 6434 8345 8349 8351 8350 8355 
1028 1062 731 1061 8353 8351 8118 8347 8355 8349 
1029 731 1062 732 8123 8351 8354 8125 6215 8356 
1062 731 765 732 8351 6440 8352 8356 6215 6441 
732 765 1063 766 6441 8357 8358 6447 6449 8359 
1029 1063 1030 732 8360 8361 8135 8125 8358 8130 
732 765 1062 1063 6441 8352 8356 8358 8357 8362 
1029 1063 732 1062 8360 8358 8125 8354 8362 8356 
1030 732 1063 733 8130 8358 8361 8132 6222 8363 
1063 732 766 733 8358 6447 8359 8363 6222 6448 
733 766 1064 767 6448 8364 8365 6454 6456 8366 
1030 1064 1031 733 8367 8368 8142 8132 8365 8137 
733 766 1063 1064 6448 8359 8363 8365 8364 8369 
1030 1064 733 1063 8367 8365 8132 8361 8369 8363 
1031 733 1064 734 8137 8365 8368 8139 6229 8370 
1064 733 767 734 8365 6454 8366 8370 6229 6455 
734 767 1065 768 6455 8371 8372 6461 6463 8373 
1031 1065 1032 734 8374 8375 8149 8139 8372 8144 
734 767 1064 1065 6455 8366 8370 8372 8371 8376 
1031 1065 734 1064 8374 8372 8139 8368 8376 8370 
1032 734 1065 735 8144 8372 8375 8146 6236 8377 
1065 734 768 735 8372 6461 8373 8377 6236 6462 
735 768 1066 769 6462 8378 8379 6468 6470 8380 
1032 1066 1033 735 8381 8382 8156 8146 8379 8151 
735 768 1065 1066 6462 8373 8377 8379 8378 8383 
1032 1066 735 1065 8381 8379 8146 8375 8383 8377 
1033 735 1066 736 8151 8379 8382 8153 6243 8384 
1066 735 769 736 8379 6468 8380 8384 6243 6469 
736 769 1067 770 6469 8385 8386 6475 6477 8387 
1033 1067 1034 736 8388 8389 8163 8153 8386 8158 
736 769 1066 1067 6469 8380 8384 8386 8385 8390 
1033 1067 736 1066 8388 8386 8153 8382 8390 8384 
1034 736 1067 737 8158 8386 8389 8160 6250 8391 
1067 736 770 737 8386 6475 8387 8391 6250 6476 
737 770 1068 771 6476 8392 8393 6482 6484 8394 
1034 1068 1035 737 8395 8396 8170 8160 8393 8165 
737 770 1067 1068 6476 8387 8391 8393 8392 8397 
1034 1068 737 1067 8395 8393 8160 8389 8397 8391 
1035 737 1068 738 8165 8393 8396 8167 6257 8398 
1068 737 771 738 8393 6482 8394 8398 6257 6483 
738 771 1069 772 6483 8399 8400 6489 6491 8401 
1035 1069 1036 738 8402 8403 8177 8167 8400 8172 
738 771 1068 1069 6483 8394 8398 8400 8399 8404 
1035 1069 738 1068 8402 8400 8167 8396 8404 8398 
1036 738 1069 739 8172 8400 8403 8174 6264 8405 
1069 738 772 739 8400 6489 8401 8405 6264 6490 
739 772 1070 773 6490 8406 8407 6496 6498 8408 
1036 1070 1037 739 8409 8410 8184 8174 8407 8179 
739 772 1069 1070 6490 8401 8405 8407 8406 8411 
1036 1070 739 1069 8409 8407 8174 8403 8411 8405 
1037 739 1070 740 8179 8407 8410 8181 6271 8412 
1070 739 773 740 8407 6496 8408 8412 6271 6497 
740 773 1071 774 6497 8413 8414 6503 6505 8415 
1037 1071 1038 740 8416 8417 8191 8181 8414 8186 
740 773 1070 1071 6497 8408 8412 8414 8413 8418 
1037 1071 740 1070 8416 8414 8181 8410 8418 8412 
1038 740 1071 741 8186 8414 8417 8188 6278 8419 
1071 740 774 741 8414 6503 8415 8419 6278 6504 
741 774 1072 775 6504 8420 8421 6510 6512 8422 
1038 1072 1039 741 8423 8424 8198 8188 8421 8193 
741 774 1071 1072 6504 8415 8419 8421 8420 8425 
1038 1072 741 1071 8423 8421 8188 8417 8425 8419 
1039 741 1072 742 8193 8421 8424 8195 6285 8426 
1072 741 775 742 8421 6510 8422 8426 6285 6511 
742 775 1073 776 6511 8427 8428 6517 6519 8429 
1039 1073 1040 742 8430 8431 8205 8195 8428 8200 
742 775 1072 1073 6511 8422 8426 8428 8427 8432 
1039 1073 742 1072 8430 8428 8195 8424 8432 8426 
1040 742 1073 743 8200 8428 8431 8202 6292 8433 
1073 742 776 743 8428 6517 8429 8433 6292 6518 
743 776 1074 777 6518 8434 8435 6524 6526 8436 
1040 1074 1041 743 8437 8438 8212 8202 8435 8207 
743 776 1073 1074 6518 8429 8433 8435 8434 8439 
1040 1074 743 1073 8437 8435 8202 8431 8439 8433 
1041 743 1074 744 8207 8435 8438 8209 6299 8440 
1074 743 777 744 8435 6524 8436 8440 6299 6525 
744 777 1075 778 6525 8441 8442 6531 6533 8443 
1041 1075 1042 744 8444 8445 8219 8209 8442 8214 
744 777 1074 1075 6525 8436 8440 8442 8441 8446 
1041 1075 744 1074 8444 8442 8209 8438 8446 8440 
1042 744 1075 745 8214 8442 8445 8216 6306 8447 
1075 744 778 745 8442 6531 8443 8447 6306 6532 
745 778 1076 779 6532 8448 8449 6538 6540 8450 
1042 1076 1043 745 8451 8452 8226 8216 8449 8221 
745 778 1075 1076 6532 8443 8447 8449 8448 8453 
1042 1076 745 1075 8451 8449 8216 8445 8453 8447 
1043 745 1076 746 8221 8449 8452 8223 6313 8454 
1076 745 779 746 8449 6538 8450 8454 6313 6539 
746 779 1077 780 6539 8455 8456 6545 6547 8457 
1043 1077 1044 746 8458 8459 8233 8223 8456 8228 
746 779 1076 1077 6539 8450 8454 8456 8455 8460 
1043 1077 746 1076 8458 8456 8223 8452 8460 8454 
1044 746 1077 747 8228 8456 8459 8230 6320 8461 
1077 746 780 747 8456 6545 8457 8461 6320 6546 
747 780 1078 781 6546 8462 8463 6552 6554 8464 
1044 1078 1045 747 8465 8466 8240 8230 8463 8235 
747 780 1077 1078 6546 8457 8461 8463 8462 8467 
1044 1078 747 1077 8465 8463 8230 8459 8467 8461 
1045 747 1078 748 8235 8463 8466 8237 6327 8468 
1078 747 781 748 8463 6552 8464 8468 6327 6553 
748 781 1079 782 6553 8469 8470 6559 6561 8471 
1045 1079 1046 748 8472 8473 8247 8237 8470 8242 
748 781 1078 1079 6553 8464 8468 8470 8469 8474 
1045 1079 748 1078 8472 8470 8237 8466 8474 8468 
1046 748 1079 749 8242 8470 8473 8244 6334 8475 
1079 748 782 749 8470 6559 8471 8475 6334 6560 
749 782 1080 783 6560 8476 8477 6566 6568 8478 
1046 1080 1047 749 8479 8480 8254 8244 8477 8249 
749 782 1079 1080 6560 8471 8475 8477 8476 8481 
1046 1080 749 1079 8479 8477 8244 8473 8481 8475 
1047 749 1080 750 8249 8477 8480 8251 6341 8482 
1080 749 783 750 8477 6566 8478 8482 6341 6567 
750 783 1081 784 6567 8483 8484 6573 6575 8485 
1047 1081 1048 750 8486 8487 8261 8251 8484 8256 
750 783 1080 1081 6567 8478 8482 8484 8483 8488 
1047 1081 750 1080 8486 8484 8251 8480 8488 8482 
1048 750 1081 751 8256 8484 8487 8258 6348 8489 
1081 750 784 751 8484 6573 8485 8489 6348 6574 
751 784 1082 785 6574 8490 8491 6580 6582 8492 
1048 1082 1049 751 8493 8494 8268 8258 8491 8263 
751 784 1081 1082 6574 8485 8489 8491 8490 8495 
1048 1082 751 1081 8493 8491 8258 8487 8495 8489 
1049 751 1082 752 8263 8491 8494 8265 6355 8496 
1082 751 785 752 8491 6580 8492 8496 6355 6581 
752 785 1083 786 6581 8497 8498 6587 6589 8499 
1049 1083 1050 752 8500 8501 8275 8265 8498 8270 
752 785 1082 1083 6581 8492 8496 8498 8497 8502 
1049 1083 752 1082 8500 8498 8265 8494 8502 8496 
1050 752 1083 753 8270 8498 8501 8272 6362 8503 
1083 752 786 753 8498 6587 8499 8503 6362 6588 
753 786 1084 787 6588 8504 8505 6594 6596 8506 
1050 1084 1051 753 8507 8508 8282 8272 8505 8277 
753 786 1083 1084 6588 8499 8503 8505 8504 8509 
1050 1084 753 1083 8507 8505 8272 8501 8509 8503 
1051 753 1084 754 8277 8505 8508 8279 6369 8510 
1084 753 787 754 8505 6594 8506 8510 6369 6595 
754 787 1085 788 6595 8511 8512 6601 6603 8513 
1051 1085 1052 754 8514 8515 8289 8279 8512 8284 
754 787 1084 1085 6595 8506 8510 8512 8511 8516 
1051 1085 754 1084 8514 8512 8279 8508 8516 8510 
1052 754 1085 755 8284 8512 8515 8286 6376 8517 
1085 754 788 755 8512 6601 8513 8517 6376 6602 
755 788 1086 789 6602 8518 8519 6608 6610 8520 
1052 1086 1053 755 8521 8522 8296 8286 8519 8291 
755 788 1085 1086 6602 8513 8517 8519 8518 8523 
1052 1086 755 1085 8521 8519 8286 8515 8523 8517 
1053 755 1086 756 8291 8519 8522 8293 6383 8524 
1086 755 789 756 8519 6608 8520 8524 6383 6609 
756 789 1087 790 6609 8525 8526 6615 6617 8527 
1053 1087 1054 756 8528 8529 8303 8293 8526 8298 
756 789 1086 1087 6609 8520 8524 8526 8525 8530 
1053 1087 756 1086 8528 8526 8293 8522 8530 8524 
1054 756 1087 757 8298 8526 8529 8300 6390 8531 
1087 756 790 757 8526 6615 8527 8531 6390 6616 
757 790 1088 791 6616 8532 8533 6622 6624 8534 
1054 1088 1055 757 8535 8536 8310 8300 8533 8305 
757 790 1087 1088 6616 8527 8531 8533 8532 8537 
1054 1088 757 1087 8535 8533 8300 8529 8537 8531 
1055 757 1088 758 8305 8533 8536 8307 6397 8538 
1088 757 791 758 8533 6622 8534 8538 6397 6623 
759 792 1090 793 6634 8539 8540 6629 6633 8541 
1056 1090 1057 759 8542 8543 8319 8317 8540 8312 
759 792 1089 1090 6634 8544 8545 8540 8539 8546 
1056 1090 759 1089 8542 8540 8317 8547 8546 8545 
1057 759 1090 760 8312 8540 8543 8314 6406 8548 
1090 759 793 760 8540 6629 8541 8548 6406 6630 
760 793 1091 794 6630 8549 8550 6639 6641 8551 
1057 1091 1058 760 8552 8553 8327 8314 8550 8322 
760 793 1090 1091 6630 8541 8548 8550 8549 8554 
1057 1091 760 1090 8552 8550 8314 8543 8554 8548 
1058 760 1091 761 8322 8550 8553 8324 6414 8555 
1091 760 794 761 8550 6639 8551 8555 6414 6640 
761 794 1092 795 6640 8556 8557 6646 6648 8558 
1058 1092 1059 761 8559 8560 8334 8324 8557 8329 
761 794 1091 1092 6640 8551 8555 8557 8556 8561 
1058 1092 761 1091 8559 8557 8324 8553 8561 8555 
1059 761 1092 762 8329 8557 8560 8331 6421 8562 
1092 761 795 762 8557 6646 8558 8562 6421 6647 
762 795 1093 796 6647 8563 8564 6653 6655 8565 
1059 1093 1060 762 8566 8567 8341 8331 8564 8336 
762 795 1092 1093 6647 8558 8562 8564 8563 8568 
1059 1093 762 1092 8566 8564 8331 8560 8568 8562 
1060 762 1093 763 8336 8564 8567 8338 6428 8569 
1093 762 796 763 8564 6653 8565 8569 6428 6654 
763 796 1094 797 6654 8570 8571 6660 6662 8572 
1060 1094 1061 763 8573 8574 8348 8338 8571 8343 
763 796 1093 1094 6654 8565 8569 8571 8570 8575 
1060 1094 763 1093 8573 8571 8338 8567 8575 8569 
1061 763 1094 764 8343 8571 8574 8345 6435 8576 
1094 763 797 764 8571 6660 8572 8576 6435 6661 
764 797 1095 798 6661 8577 8578 6667 6669 8579 
1061 1095 1062 764 8580 8581 8355 8345 8578 8350 
764 797 1094 1095 6661 8572 8576 8578 8577 8582 
1061 1095 764 1094 8580 8578 8345 8574 8582 8576 
1062 764 1095 765 8350 8578 8581 8352 6442 8583 
1095 764 798 765 8578 6667 8579 8583 6442 6668 
765 798 1096 799 6668 8584 8585 6674 6676 8586 
1062 1096 1063 765 8587 8588 8362 8352 8585 8357 
765 798 1095 1096 6668 8579 8583 8585 8584 8589 
1062 1096 765 1095 8587 8585 8352 8581 8589 8583 
1063 765 1096 766 8357 8585 8588 8359 6449 8590 
1096 765 799 766 8585 6674 8586 8590 6449 6675 
766 799 1097 800 6675 8591 8592 6681 6683 8593 
1063 1097 1064 766 8594 8595 8369 8359 8592 8364 
766 799 1096 1097 6675 8586 8590 8592 8591 8596 
1063 1097 766 1096 8594 8592 8359 8588 8596 8590 
1064 766 1097 767 8364 8592 8595 8366 6456 8597 
1097 766 800 767 8592 6681 8593 8597 6456 6682 
767 800 1098 801 6682 8598 8599 6688 6690 8600 
1064 1098 1065 767 8601 8602 8376 8366 8599 8371 
767 800 1097 1098 6682 8593 8597 8599 8598 8603 
1064 1098 767 1097 8601 8599 8366 8595 8603 8597 
1065 767 1098 768 8371 8599 8602 8373 6463 8604 
1098 767 801 768 8599 6688 8600 8604 6463 6689 
768 801 1099 802 6689 8605 8606 6695 6697 8607 
1065 1099 1066 768 8608 8609 8383 8373 8606 8378 
768 801 1098 1099 6689 8600 8604 8606 8605 8610 
1065 1099 768 1098 8608 8606 8373 8602 8610 8604 
1066 768 1099 769 8378 8606 8609 8380 6470 8611 
1099 768 802 769 8606 6695 8607 8611 6470 6696 
769 802 1100 803 6696 8612 8613 6702 6704 8614 
1066 1100 1067 769 8615 8616 8390 8380 8613 8385 
769 802 1099 1100 6696 8607 8611 8613 8612 8617 
1066 1100 769 1099 8615 8613 8380 8609 8617 8611 
1067 769 1100 770 8385 8613 8616 8387 6477 8618 
1100 769 803 770 8613 6702 8614 8618 6477 6703 
770 803 1101 804 6703 8619 8620 6709 6711 8621 
1067 1101 1068 770 8622 8623 8397 8387 8620 8392 
770 803 1100 1101 6703 8614 8618 8620 8619 8624 
1067 1101 770 1100 8622 8620 8387 8616 8624 8618 
1068 770 1101 771 8392 8620 8623 8394 6484 8625 
1101 770 804 771 8620 6709 8621 8625 6484 6710 
771 804 1102 805 6710 8626 8627 6716 6718 8628 
1068 1102 1069 771 8629 8630 8404 8394 8627 8399 
771 804 1101 1102 6710 8621 8625 8627 8626 8631 
1068 1102 771 1101 8629 8627 8394 8623 8631 8625 
1069 771 1102 772 8399 8627 8630 8401 6491 8632 
1102 771 805 772 8627 6716 8628 8632 6491 6717 
772 805 1103 806 6717 8633 8634 6723 6725 8635 
1069 1103 1070 772 8636 8637 8411 8401 8634 8406 
772 805 1102 1103 6717 8628 8632 8634 8633 8638 
1069 1103 772 1102 8636 8634 8401 8630 8638 8632 
1070 772 1103 773 8406 8634 8637 8408 6498 8639 
1103 772 806 773 8634 6723 8635 8639 6498 6724 
773 806 1104 807 6724 8640 8641 6730 6732 8642 
1070 1104 1071 773 8643 8644 8418 8408 8641 8413 
773 806 1103 1104 6724 8635 8639 8641 8640 8645 
1070 1104 773 1103 8643 8641 8408 8637 8645 8639 
1071 773 1104 774 8413 8641 8644 8415 6505 8646 
1104 773 807 774 8641 6730 8642 8646 6505 6731 
774 807 1105 808 6731 8647 8648 6737 6739 8649 
1071 1105 1072 774 8650 8651 8425 8415 8648 8420 
774 807 1104 1105 6731 8642 8646 8648 8647 8652 
1071 1105 774 1104 8650 8648 8415 8644 8652 8646 
1072 774 1105 775 8420 8648 8651 8422 6512 8653 
1105 774 808 775 8648 6737 8649 8653 6512 6738 
775 808 1106 809 6738 8654 8655 6744 6746 8656 
1072 1106 1073 775 8657 8658 8432 8422 8655 8427 
775 808 1105 1106 6738 8649 8653 8655 8654 8659 
1072 1106 775 1105 8657 8655 8422 8651 8659 8653 
1073 775 1106 776 8427 8655 8658 8429 6519 8660 
1106 775 809 776 8655 6744 8656 8660 6519 6745 
776 809 1107 810 6745 8661 8662 6751 6753 8663 
1073 1107 1074 776 8664 8665 8439 8429 8662 8434 
776 809 1106 1107 6745 8656 8660 8662 8661 8666 
1073 1107 776 1106 8664 8662 8429 8658 8666 8660 
1074 776 1107 777 8434 8662 8665 8436 6526 8667 
1107 776 810 777 8662 6751 8663 8667 6526 6752 
777 810 1108 811 6752 8668 8669 6758 6760 8670 
1074 1108 1075 777 8671 8672 8446 8436 8669 8441 
777 810 1107 1108 6752 8663 8667 8669 8668 8673 
1074 1108 777 1107 8671 8669 8436 8665 8673 8667 
1075 777 1108 778 8441 8669 8672 8443 6533 8674 
1108 777 811 778 8669 6758 8670 8674 6533 6759 
778 811 1109 812 6759 8675 8676 6765 6767 8677 
1075 1109 1076 778 8678 8679 8453 8443 8676 8448 
778 811 1108 1109 6759 8670 8674 8676 8675 8680 
1075 1109 778 1108 8678 8676 8443 8672 8680 8674 
1076 778 1109 779 8448 8676 8679 8450 6540 8681 
1109 778 812 779 8676 6765 8677 8681 6540 6766 
779 812 1110 813 6766 8682 8683 6772 6774 8684 
1076 1110 1077 779 8685 8686 8460 8450 8683 8455 
779 812 1109 1110 6766 8677 8681 8683 8682 8687 
1076 1110 779 1109 8685 8683 8450 8679 8687 8681 
1077 779 1110 780 8455 8683 8686 8457 6547 8688 
1110 779 813 780 8683 6772 8684 8688 6547 6773 
780 813 1111 814 6773 8689 8690 6779 6781 8691 
1077 1111 1078 780 8692 8693 8467 8457 8690 8462 
780 813 1110 1111 6773 8684 8688 8690 8689 8694 
1077 1111 780 1110 8692 8690 8457 8686 8694 8688 
1078 780 1111 781 8462 8690 8693 8464 6554 8695 
1111 780 814 781 8690 6779 8691 8695 6554 6780 
781 814 1112 815 6780 8696 8697 6786 6788 8698 
1078 1112 1079 781 8699 8700 8474 8464 8697 8469 
781 814 1111 1112 6780 8691 8695 8697 8696 8701 
1078 1112 781 1111 8699 8697 8464 8693 8701 8695 
1079 781 1112 782 8469 8697 8700 8471 6561 8702 
1112 781 815 782 8697 6786 8698 8702 6561 6787 
782 815 1113 816 6787 8703 8704 6793 6795 8705 
1079 1113 1080 782 8706 8707 8481 8471 8704 8476 
782 815 1112 1113 6787 8698 8702 8704 8703 8708 
1079 1113 782 1112 8706 8704 8471 8700 8708 8702 
1080 782 1113 783 8476 8704 8707 8478 6568 8709 
1113 782 816 783 8704 6793 8705 8709 6568 6794 
783 816 1114 817 6794 8710 8711 6800 6802 8712 
1080 1114 1081 783 8713 8714 8488 8478 8711 8483 
783 816 1113 1114 6794 8705 8709 8711 8710 8715 
1080 1114 783 1113 8713 8711 8478 8707 8715 8709 
1081 783 1114 784 8483 8711 8714 8485 6575 8716 
1114 783 817 784 8711 6800 8712 8716 6575 6801 
784 817 1115 818 6801 8717 8718 6807 6809 8719 
1081 1115 1082 784 8720 8721 8495 8485 8718 8490 
784 817 1114 1115 6801 8712 8716 8718 8717 8722 
1081 1115 784 1114 8720 8718 8485 8714 8722 8716 
1082 784 1115 785 8490 8718 8721 8492 6582 8723 
1115 784 818 785 8718 6807 8719 8723 6582 6808 
785 818 1116 819 6808 8724 8725 6814 6816 8726 
1082 1116 1083 785 8727 8728 8502 8492 8725 8497 
785 818 1115 1116 6808 8719 8723 8725 8724 8729 
1082 1116 785 1115 8727 8725 8492 8721 8729 8723 
1083 785 1116 786 8497 8725 8728 8499 6589 8730 
1116 785 819 786 8725 6814 8726 8730 6589 6815 
786 819 1117 820 6815 8731 8732 6821 6823 8733 
1083 1117 1084 786 8734 8735 8509 8499 8732 8504 
786 819 1116 1117 6815 8726 8730 8732 8731 8736 
1083 1117 786 1116 8734 8732 8499 8728 8736 8730 
1084 786 1117 787 8504 8732 8735 8506 6596 8737 
1117 786 820 787 8732 6821 8733 8737 6596 6822 
787 820 1118 821 6822 8738 8739 6828 6830 8740 
1084 1118 1085 787 8741 8742 8516 8506 8739 8511 
787 820 1117 1118 6822 8733 8737 8739 8738 8743 
1084 1118 787 1117 8741 8739 8506 8735 8743 8737 
1085 787 1118 788 8511 8739 8742 8513 6603 8744 
1118 787 821 788 8739 6828 8740 8744 6603 6829 
788 821 1119 822 6829 8745 8746 6835 6837 8747 
1085 1119 1086 788 8748 8749 8523 8513 8746 8518 
788 821 1118 1119 6829 8740 8744 8746 8745 8750 
1085 1119 788 1118 8748 8746 8513 8742 8750 8744 
1086 788 1119 789 8518 8746 8749 8520 6610 8751 
1119 788 822 789 8746 6835 8747 8751 6610 6836 
789 822 1120 823 6836 8752 8753 6842 6844 8754 
1086 1120 1087 789 8755 8756 8530 8520 8753 8525 
789 822 1119 1120 6836 8747 8751 8753 8752 8757 
1086 1120 789 1119 8755 8753 8520 8749 8757 8751 
1087 789 1120 790 8525 8753 8756 8527 6617 8758 
1120 789 823 790 8753 6842 8754 8758 6617 6843 
790 823 1121 824 6843 8759 8760 6849 6851 8761 
1087 1121 1088 790 8762 8763 8537 8527 8760 8532 
790 823 1120 1121 6843 8754 8758 8760 8759 8764 
1087 1121 790 1120 8762 8760 8527 8756 8764 8758 
1088 790 1121 791 8532 8760 8763 8534 6624 8765 
1121 790 824 791 8760 6849 8761 8765 6624 6850 
792 825 1123 826 6861 8766 8767 6856 6860 8768 
1089 1123 1090 792 8769 8770 8546 8544 8767 8539 
792 825 1122 1123 6861 8771 8772 8767 8766 8773 
1089 1123 792 1122 8769 8767 8544 8774 8773 8772 
1090 792 1123 793 8539 8767 8770 8541 6633 8775 
1123 792 826 793 8767 6856 8768 8775 6633 6857 
793 826 1124 827 6857 8776 8777 6866 6868 8778 
1090 1124 1091 793 8779 8780 8554 8541 8777 8549 
793 826 1123 1124 6857 8768 8775 8777 8776 8781 
1090 1124 793 1123 8779 8777 8541 8770 8781 8775 
1091 793 1124 794 8549 8777 8780 8551 6641 8782 
1124 793 827 794 8777 6866 8778 8782 6641 6867 
794 827 1125 828 6867 8783 8784 6873 6875 8785 
1091 1125 1092 794 8786 8787 8561 8551 8784 8556 
794 827 1124 1125 6867 8778 8782 8784 8783 8788 
1091 1125 794 1124 8786 8784 8551 8780 8788 8782 
1092 794 1125 795 8556 8784 8787 8558 6648 8789 
1125 794 828 795 8784 6873 8785 8789 6648 6874 
795 828 1126 829 6874 8790 8791 6880 6882 8792 
1092 1126 1093 795 8793 8794 8568 8558 8791 8563 
795 828 1125 1126 6874 8785 8789 8791 8790 8795 
1092 1126 795 1125 8793 8791 8558 8787 8795 8789 
1093 795 1126 796 8563 8791 8794 8565 6655 8796 
1126 795 829 796 8791 6880 8792 8796 6655 6881 
796 829 1127 830 6881 8797 8798 6887 6889 8799 
1093 1127 1094 796 8800 8801 8575 8565 8798 8570 
796 829 1126 1127 6881 8792 8796 8798 8797 8802 
1093 1127 796 1126 8800 8798 8565 8794 8802 8796 
1094 796 1127 797 8570 8798 8801 8572 6662 8803 
1127 796 830 797 8798 6887 8799 8803 6662 6888 
797 830 1128 831 6888 8804 8805 6894 6896 8806 
1094 1128 1095 797 8807 8808 8582 8572 8805 8577 
797 830 1127 1128 6888 8799 8803 8805 8804 8809 
1094 1128 797 1127 8807 8805 8572 8801 8809 8803 
1095 797 1128 798 8577 8805 8808 8579 6669 8810 
1128 797 831 798 8805 6894 8806 8810 6669 6895 
798 831 1129 832 6895 8811 8812 6901 6903 8813 
1095 1129 1096 798 8814 8815 8589 8579 8812 8584 
798 831 1128 1129 6895 8806 8810 8812 8811 8816 
1095 1129 798 1128 8814 8812 8579 8808 8816 8810 
1096 798 1129 799 8584 8812 8815 8586 6676 8817 
1129 798 832 799 8812 6901 8813 8817 6676 6902 
799 832 1130 833 6902 8818 8819 6908 6910 8820 
1096 1130 1097 799 8821 8822 8596 8586 8819 8591 
799 832 1129 1130 6902 8813 8817 8819 8818 8823 
1096 1130 799 1129 8821 8819 8586 8815 8823 8817 
1097 799 1130 800 8591 8819 8822 8593 6683 8824 
1130 799 833 800 8819 6908 8820 8824 6683 6909 
800 833 1131 834 6909 8825 8826 6915 6917 8827 
1097 1131 1098 800 8828 8829 8603 8593 8826 8598 
800 833 1130 1131 6909 8820 8824 8826 8825 8830 
1097 1131 800 1130 8828 8826 8593 8822 8830 8824 
1098 800 1131 801 8598 8826 8829 8600 6690 8831 
1131 800 834 801 8826 6915 8827 8831 6690 6916 
801 834 1132 835 6916 8832 8833 6922 6924 8834 
1098 1132 1099 801 8835 8836 8610 8600 8833 8605 
801 834 1131 1132 6916 8827 8831 8833 8832 8837 
1098 1132 801 1131 8835 8833 8600 8829 8837 8831 
1099 801 1132 802 8605 8833 8836 8607 6697 8838 
1132 801 835 802 8833 6922 8834 8838 6697 6923 
802 835 1133 836 6923 8839 8840 6929 6931 8841 
1099 1133 1100 802 8842 8843 8617 8607 8840 8612 
802 835 1132 1133 6923 8834 8838 8840 8839 8844 
1099 1133 802 1132 8842 8840 8607 8836 8844 8838 
1100 802 1133 803 8612 8840 8843 8614 6704 8845 
1133 802 836 803 8840 6929 8841 8845 6704 6930 
803 836 1134 837 6930 8846 8847 6936 6938 8848 
1100 1134 1101 803 8849 8850 8624 8614 8847 8619 
803 836 1133 1134 6930 8841 8845 8847 8846 8851 
1100 1134 803 1133 8849 8847 8614 8843 8851 8845 
1101 803 1134 804 8619 8847 8850 8621 6711 8852 
1134 803 837 804 8847 6936 8848 8852 6711 6937 
804 837 1135 838 6937 8853 8854 6943 6945 8855 
1101 1135 1102 804 8856 8857 8631 8621 8854 8626 
804 837 1134 1135 6937 8848 8852 8854 8853 8858 
1101 1135 804 1134 8856 8854 8621 8850 8858 8852 
1102 804 1135 805 8626 8854 8857 8628 6718 8859 
1135 804 838 805 8854 6943 8855 8859 6718 6944 
805 838 1136 839 6944 8860 8861 6950 6952 8862 
1102 1136 1103 805 8863 8864 8638 8628 8861 8633 
805 838 1135 1136 6944 8855 8859 8861 8860 8865 
1102 1136 805 1135 8863 8861 8628 8857 8865 8859 
1103 805 1136 806 8633 8861 8864 8635 6725 8866 
1136 805 839 806 8861 6950 8862 8866 6725 6951 
806 839 1137 840 6951 8867 8868 6957 6959 8869 
1103 1137 1104 806 8870 8871 8645 8635 8868 8640 
806 839 1136 1137 6951 8862 8866 8868 8867 8872 
1103 1137 806 1136 8870 8868 8635 8864 8872 8866 
1104 806 1137 807 8640 8868 8871 8642 6732 8873 
1137 806 840 807 8868 6957 8869 8873 6732 6958 
807 840 1138 841 6958 8874 8875 6964 6966 8876 
1104 1138 1105 807 8877 8878 8652 8642 8875 8647 
807 840 1137 1138 6958 8869 8873 8875 8874 8879 
1104 1138 807 1137 8877 8875 8642 8871 8879 8873 
1105 807 1138 808 8647 8875 8878 8649 6739 8880 
1138 807 841 808 8875 6964 8876 8880 6739 6965 
808 841 1139 842 6965 8881 8882 6971 6973 8883 
1105 1139 1106 808 8884 8885 8659 8649 8882 8654 
808 841 1138 1139 6965 8876 8880 8882 8881 8886 
1105 1139 808 1138 8884 8882 8649 8878 8886 8880 
1106 808 1139 809 8654 8882 8885 8656 6746 8887 
1139 808 842 809 8882 6971 8883 8887 6746 6972 
809 842 1140 843 6972 8888 8889 6978 6980 8890 
1106 1140 1107 809 8891 8892 8666 8656 8889 8661 
809 842 1139 1140 6972 8883 8887 8889 8888 8893 
1106 1140 809 1139 8891 8889 8656 8885 8893 8887 
1107 809 1140 810 8661 8889 8892 8663 6753 8894 
1140 809 843 810 8889 6978 8890 8894 6753 6979 
810 843 1141 844 6979 8895 8896 6985 6987 8897 
1107 1141 1108 810 8898 8899 8673 8663 8896 8668 
810 843 1140 1141 6979 8890 8894 8896 8895 8900 
1107 1141 810 1140 8898 8896 8663 8892 8900 8894 
1108 810 1141 811 8668 8896 8899 8670 6760 8901 
1141 810 844 811 8896 6985 8897 8901 6760 6986 
811 844 1142 845 6986 8902 8903 6992 6994 8904 
1108 1142 1109 811 8905 8906 8680 8670 8903 8675 
811 844 1141 1142 6986 8897 8901 8903 8902 8907 
1108 1142 811 1141 8905 8903 8670 8899 8907 8901 
1109 811 1142 812 8675 8903 8906 8677 6767 8908 
1142 811 845 812 8903 6992 8904 8908 6767 6993 
812 845 1143 846 6993 8909 8910 6999 7001 8911 
1109 1143 1110 812 8912 8913 8687 8677 8910 8682 
812 845 1142 1143 6993 8904 8908 8910 8909 8914 
1109 1143 812 1142 8912 8910 8677 8906 8914 8908 
1110 812 1143 813 8682 8910 8913 8684 6774 8915 
1143 812 846 813 8910 6999 8911 8915 6774 7000 
813 846 1144 847 7000 8916 8917 7006 7008 8918 
1110 1144 1111 813 8919 8920 8694 8684 8917 8689 
813 846 1143 1144 7000 8911 8915 8917 8916 8921 
1110 1144 813 1143 8919 8917 8684 8913 8921 8915 
1111 813 1144 814 8689 8917 8920 8691 6781 8922 
1144 813 847 814 8917 7006 8918 8922 6781 7007 
814 847 1145 848 7007 8923 8924 7013 7015 8925 
1111 1145 1112 814 8926 8927 8701 8691 8924 8696 
814 847 1144 1145 7007 8918 8922 8924 8923 8928 
1111 1145 814 1144 8926 8924 8691 8920 8928 8922 
1112 814 1145 815 8696 8924 8927 8698 6788 8929 
1145 814 848 815 8924 7013 8925 8929 6788 7014 
815 848 1146 849 7014 8930 8931 7020 7022 8932 
1112 1146 1113 815 8933 8934 8708 8698 8931 8703 
815 848 1145 1146 7014 8925 8929 8931 8930 8935 
1112 1146 815 1145 8933 8931 8698 8927 8935 8929 
1113 815 1146 816 8703 8931 8934 8705 6795 8936 
1146 815 849 816 8931 7020 8932 8936 6795 7021 
816 849 1147 850 7021 8937 8938 7027 7029 8939 
1113 1147 1114 816 8940 8941 8715 8705 8938 8710 
816 849 1146 1147 7021 8932 8936 8938 8937 8942 
1113 1147 816 1146 8940 8938 8705 8934 8942 8936 
1114 816 1147 817 8710 8938 8941 8712 6802 8943 
1147 816 850 817 8938 7027 8939 8943 6802 7028 
817 850 1148 851 7028 8944 8945 7034 7036 8946 
1114 1148 1115 817 8947 8948 8722 8712 8945 8717 
817 850 1147 1148 7028 8939 8943 8945 8944 8949 
1114 1148 817 1147 8947 8945 8712 8941 8949 8943 
1115 817 1148 818 8717 8945 8948 8719 6809 8950 
1148 817 851 818 8945 7034 8946 8950 6809 7035 
818 851 1149 852 7035 8951 8952 7041 7043 8953 
1115 1149 1116 818 8954 8955 8729 8719 8952 8724 
818 851 1148 1149 7035 8946 8950 8952 8951 8956 
1115 1149 818 1148 8954 8952 8719 8948 8956 8950 
1116 818 1149 819 8724 8952 8955 8726 6816 8957 
1149 818 852 819 8952 7041 8953 8957 6816 7042 
819 852 1150 853 7042 8958 8959 7048 7050 8960 
1116 1150 1117 819 8961 8962 8736 8726 8959 8731 
819 852 1149 1150 7042 8953 8957 8959 8958 8963 
1116 1150 819 1149 8961 8959 8726 8955 8963 8957 
1117 819 1150 820 8731 8959 8962 8733 6823 8964 
1150 819 853 820 8959 7048 8960 8964 6823 7049 
820 853 1151 854 7049 8965 8966 7055 7057 8967 
1117 1151 1118 820 8968 8969 8743 8733 8966 8738 
820 853 1150 1151 7049 8960 8964 8966 8965 8970 
1117 1151 820 1150 8968 8966 8733 8962 8970 8964 
1118 820 1151 821 8738 8966 8969 8740 6830 8971 
1151 820 854 821 8966 7055 8967 8971 6830 7056 
821 854 1152 855 7056 8972 8973 7062 7064 8974 
1118 1152 1119 821 8975 8976 8750 8740 8973 8745 
821 854 1151 1152 7056 8967 8971 8973 8972 8977 
1118 1152 821 1151 8975 8973 8740 8969 8977 8971 
1119 821 1152 822 8745 8973 8976 8747 6837 8978 
1152 821 855 822 8973 7062 8974 8978 6837 7063 
822 855 1153 856 7063 8979 8980 7069 7071 8981 
1119 1153 1120 822 8982 8983 8757 8747 8980 8752 
822 855 1152 1153 7063 8974 8978 8980 8979 8984 
1119 1153 822 1152 8982 8980 8747 8976 8984 8978 
1120 822 1153 823 8752 8980 8983 8754 6844 8985 
1153 822 856 823 8980 7069 8981 8985 6844 7070 
823 856 1154 857 7070 8986 8987 7076 7078 8988 
1120 1154 1121 823 8989 8990 8764 8754 8987 8759 
823 856 1153 1154 7070 8981 8985 8987 8986 8991 
1120 1154 823 1153 8989 8987 8754 8983 8991 8985 
1121 823 1154 824 8759 8987 8990 8761 6851 8992 
1154 823 857 824 8987 7076 8988 8992 6851 7077 
825 858 1156 859 7088 8993 8994 7083 7087 8995 
1122 1156 1123 825 8996 8997 8773 8771 8994 8766 
825 858 1155 1156 7088 8998 8999 8994 8993 9000 
1122 1156 825 1155 8996 8994 8771 9001 9000 8999 
1123 825 1156 826 8766 8994 8997 8768 6860 9002 
1156 825 859 826 8994 7083 8995 9002 6860 7084 
826 859 1157 860 7084 9003 9004 7093 7095 9005 
1123 1157 1124 826 9006 9007 8781 8768 9004 8776 
826 859 1156 1157 7084 8995 9002 9004 9003 9008 
1123 1157 826 1156 9006 9004 8768 8997 9008 9002 
1124 826 1157 827 8776 9004 9007 8778 6868 9009 
1157 826 860 827 9004 7093 9005 9009 6868 7094 
827 860 1158 861 7094 9010 9011 7100 7102 9012 
1124 1158 1125 827 9013 9014 8788 8778 9011 8783 
827 860 1157 1158 7094 9005 9009 9011 9010 9015 
1124 1158 827 1157 9013 9011 8778 9007 9015 9009 
1125 827 1158 828 8783 9011 9014 8785 6875 9016 
1158 827 861 828 9011 7100 9012 9016 6875 7101 
828 861 1159 862 7101 9017 9018 7107 7109 9019 
1125 1159 1126 828 9020 9021 8795 8785 9018 8790 
828 861 1158 1159 7101 9012 9016 9018 9017 9022 
1125 1159 828 1158 9020 9018 8785 9014 9022 9016 
1126 828 1159 829 8790 9018 9021 8792 6882 9023 
1159 828 862 829 9018 7107 9019 9023 6882 7108 
829 862 1160 863 7108 9024 9025 7114 7116 9026 
1126 1160 1127 829 9027 9028 8802 8792 9025 8797 
829 862 1159 1160 7108 9019 9023 9025 9024 9029 
1126 1160 829 1159 9027 9025 8792 9021 9029 9023 
1127 829 1160 830 8797 9025 9028 8799 6889 9030 
1160 829 863 830 9025 7114 9026 9030 6889 7115 
830 863 1161 864 7115 9031 9032 7121 7123 9033 
1127 1161 1128 830 9034 9035 8809 8799 9032 8804 
830 863 1160 1161 7115 9026 9030 9032 9031 9036 
1127 1161 830 1160 9034 9032 8799 9028 9036 9030 
1128 830 1161 831 8804 9032 9035 8806 6896 9037 
1161 830 864 831 9032 7121 9033 9037 6896 7122 
831 864 1162 865 7122 9038 9039 7128 7130 9040 
1128 1162 1129 831 9041 9042 8816 8806 9039 8811 
831 864 1161 1162 7122 9033 9037 9039 9038 9043 
1128 1162 831 1161 9041 9039 8806 9035 9043 9037 
1129 831 1162 832 8811 9039 9042 8813 6903 9044 
1162 831 865 832 9039 7128 9040 9044 6903 7129 
832 865 1163 866 7129 9045 9046 7135 7137 9047 
1129 1163 1130 832 9048 9049 8823 8813 9046 8818 
832 865 1162 1163 7129 9040 9044 9046 9045 9050 
1129 1163 832 1162 9048 9046 8813 9042 9050 9044 
1130 832 1163 833 8818 9046 9049 8820 6910 9051 
1163 832 866 833 9046 7135 9047 9051 6910 7136 
833 866 1164 867 7136 9052 9053 7142 7144 9054 
1130 1164 1131 833 9055 9056 8830 8820 9053 8825 
833 866 1163 1164 7136 9047 9051 9053 9052 9057 
1130 1164 833 1163 9055 9053 8820 9049 9057 9051 
1131 833 1164 834 8825 9053 9056 8827 6917 9058 
1164 833 867 834 9053 7142 9054 9058 6917 7143 
834 867 1165 868 7143 9059 9060 7149 7151 9061 
1131 1165 1132 834 9062 9063 8837 8827 9060 8832 
834 867 1164 1165 7143 9054 9058 9060 9059 9064 
1131 1165 834 1164 9062 9060 8827 9056 9064 9058 
1132 834 1165 835 8832 9060 9063 8834 6924 9065 
1165 834 868 835 9060 7149 9061 9065 6924 7150 
835 868 1166 869 7150 9066 9067 7156 7158 9068 
1132 1166 1133 835 9069 9070 8844 8834 9067 8839 
835 868 1165 1166 7150 9061 9065 9067 9066 9071 
1132 1166 835 1165 9069 9067 8834 9063 9071 9065 
1133 835 1166 836 8839 9067 9070 8841 6931 9072 
1166 835 869 836 9067 7156 9068 9072 6931 7157 
836 869 1167 870 7157 9073 9074 7163 7165 9075 
1133 1167 1134 836 9076 9077 8851 8841 9074 8846 
836 869 1166 1167 7157 9068 9072 9074 9073 9078 
1133 1167 836 1166 9076 9074 8841 9070 9078 9072 
1134 836 1167 837 8846 9074 9077 8848 6938 9079 
1167 836 870 837 9074 7163 9075 9079 6938 7164 
837 870 1168 871 7164 9080 9081 7170 7172 9082 
1134 1168 1135 837 9083 9084 8858 8848 9081 8853 
837 870 1167 1168 7164 9075 9079 9081 9080 9085 
1134 1168 837 1167 9083 9081 8848 9077 9085 9079 
1135 837 1168 838 8853 9081 9084 8855 6945 9086 
1168 837 871 838 9081 7170 9082 9086 6945 7171 
838 871 1169 872 7171 9087 9088 7177 7179 9089 
1135 1169 1136 838 9090 9091 8865 8855 9088 8860 
838 871 1168 1169 7171 9082 9086 9088 9087 9092 
1135 1169 838 1168 9090 9088 8855 9084 9092 9086 
1136 838 1169 839 8860 9088 9091 8862 6952 9093 
1169 838 872 839 9088 7177 9089 9093 6952 7178 
839 872 1170 873 7178 9094 9095 7184 7186 9096 
1136 1170 1137 839 9097 9098 8872 8862 9095 8867 
839 872 1169 1170 7178 9089 9093 9095 9094 9099 
1136 1170 839 1169 9097 9095 8862 9091 9099 9093 
1137 839 1170 840 8867 9095 9098 8869 6959 9100 
1170 839 873 840 9095 7184 9096 9100 6959 7185 
840 873 1171 874 7185 9101 9102 7191 7193 9103 
1137 1171 1138 840 9104 9105 8879 8869 9102 8874 
840 873 1170 1171 7185 9096 9100 9102 9101 9106 
1137 1171 840 1170 9104 9102 8869 9098 9106 9100 
1138 840 1171 841 8874 9102 9105 8876 6966 9107 
1171 840 874 841 9102 7191 9103 9107 6966 7192 
841 874 1172 875 7192 9108 9109 7198 7200 9110 
1138 1172 1139 841 9111 9112 8886 8876 9109 8881 
841 874 1171 1172 7192 9103 9107 9109 9108 9113 
1138 1172 841 1171 9111 9109 8876 9105 9113 9107 
1139 841 1172 842 8881 9109 9112 8883 6973 9114 
1172 841 875 842 9109 7198 9110 9114 6973 7199 
842 875 1173 876 7199 9115 9116 7205 7207 9117 
1139 1173 1140 842 9118 9119 8893 8883 9116 8888 
842 875 1172 1173 7199 9110 9114 9116 9115 9120 
1139 1173 842 1172 9118 9116 8883 9112 9120 9114 
1140 842 1173 843 8888 9116 9119 8890 6980 9121 
1173 842 876 843 9116 7205 9117 9121 6980 7206 
843 876 1174 877 7206 9122 9123 7212 7214 9124 
1140 1174 1141 843 9125 9126 8900 8890 9123 8895 
843 876 1173 1174 7206 9117 9121 9123 9122 9127 
1140 1174 843 1173 9125 9123 8890 9119 9127 9121 
1141 843 1174 844 8895 9123 9126 8897 6987 9128 
1174 843 877 844 9123 7212 9124 9128 6987 7213 
844 877 1175 878 7213 9129 9130 7219 7221 9131 
1141 1175 1142 844 9132 9133 8907 8897 9130 8902 
844 877 1174 1175 7213 9124 9128 9130 9129 9134 
1141 1175 844 1174 9132 9130 8897 9126 9134 9128 
1142 844 1175 845 8902 9130 9133 8904 6994 9135 
1175 844 878 845 9130 7219 9131 9135 6994 7220 
845 878 1176 879 7220 9136 9137 7226 7228 9138 
1142 1176 1143 845 9139 9140 8914 8904 9137 8909 
845 878 1175 1176 7220 9131 9135 9137 9136 9141 
1142 1176 845 1175 9139 9137 8904 9133 9141 9135 
1143 845 1176 846 8909 9137 9140 8911 7001 9142 
1176 845 879 846 9137 7226 9138 9142 7001 7227 
846 879 1177 880 7227 9143 9144 7233 7235 9145 
1143 1177 1144 846 9146 9147 8921 8911 9144 8916 
846 879 1176 1177 7227 9138 9142 9144 9143 9148 
1143 1177 846 1176 9146 9144 8911 9140 9148 9142 
1144 846 1177 847 8916 9144 9147 8918 7008 9149 
1177 846 880 847 9144 7233 9145 9149 7008 7234 
847 880 1178 881 7234 9150 9151 7240 7242 9152 
1144 1178 1145 847 9153 9154 8928 8918 9151 8923 
847 880 1177 1178 7234 9145 9149 9151 9150 9155 
1144 1178 847 1177 9153 9151 8918 9147 9155 9149 
1145 847 1178 848 8923 9151 9154 8925 7015 9156 
1178 847 881 848 9151 7240 9152 9156 7015 7241 
848 881 1179 882 7241 9157 9158 7247 7249 9159 
1145 1179 1146 848 9160 9161 8935 8925 9158 8930 
848 881 1178 1179 7241 9152 9156 9158 9157 9162 
1145 1179 848 1178 9160 9158 8925 9154 9162 9156 
1146 848 1179 849 8930 9158 9161 8932 7022 9163 
1179 848 882 849 9158 7247 9159 9163 7022 7248 
849 882 1180 883 7248 9164 9165 7254 7256 9166 
1146 1180 1147 849 9167 9168 8942 8932 9165 8937 
849 882 1179 1180 7248 9159 9163 9165 9164 9169 
1146 1180 849 1179 9167 9165 8932 9161 9169 9163 
1147 849 1180 850 8937 9165 9168 8939 7029 9170 
1180 849 883 850 9165 7254 9166 9170 7029 7255 
850 883 1181 884 7255 9171 9172 7261 7263 9173 
1147 1181 1148 850 9174 9175 8949 8939 9172 8944 
850 883 1180 1181 7255 9166 9170 9172 9171 9176 
1147 1181 850 1180 9174 9172 8939 9168 9176 9170 
1148 850 1181 851 8944 9172 9175 8946 7036 9177 
1181 850 884 851 9172 7261 9173 9177 7036 7262 
851 884 1182 885 7262 9178 9179 7268 7270 9180 
1148 1182 1149 851 9181 9182 8956 8946 9179 8951 
851 884 1181 1182 7262 9173 9177 9179 9178 9183 
1148 1182 851 1181 9181 9179 8946 9175 9183 9177 
1149 851 1182 852 8951 9179 9182 8953 7043 9184 
1182 851 885 852 9179 7268 9180 9184 7043 7269 
852 885 1183 886 7269 9185 9186 7275 7277 9187 
1149 1183 1150 852 9188 9189 8963 8953 9186 8958 
852 885 1182 1183 7269 9180 9184 9186 9185 9190 
1149 1183 852 1182 9188 9186 8953 9182 9190 9184 
1150 852 1183 853 8958 9186 9189 8960 7050 9191 
1183 852 886 853 9186 7275 9187 9191 7050 7276 
853 886 1184 887 7276 9192 9193 7282 7284 9194 
1150 1184 1151 853 9195 9196 8970 8960 9193 8965 
853 886 1183 1184 7276 9187 9191 9193 9192 9197 
1150 1184 853 1183 9195 9193 8960 9189 9197 9191 
1151 853 1184 854 8965 9193 9196 8967 7057 9198 
1184 853 887 854 9193 7282 9194 9198 7057 7283 
854 887 1185 888 7283 9199 9200 7289 7291 9201 
1151 1185 1152 854 9202 9203 8977 8967 9200 8972 
854 887 1184 1185 7283 9194 9198 9200 9199 9204 
1151 1185 854 1184 9202 9200 8967 9196 9204 9198 
1152 854 1185 855 8972 9200 9203 8974 7064 9205 
1185 854 888 855 9200 7289 9201 9205 7064 7290 
855 888 1186 889 7290 9206 9207 7296 7298 9208 
1152 1186 1153 855 9209 9210 8984 8974 9207 8979 
855 888 1185 1186 7290 9201 9205 9207 9206 9211 
1152 1186 855 1185 9209 9207 8974 9203 9211 9205 
1153 855 1186 856 8979 9207 9210 8981 7071 9212 
1186 855 889 856 9207 7296 9208 9212 7071 7297 
856 889 1187 890 7297 9213 9214 7303 7305 9215 
1153 1187 1154 856 9216 9217 8991 8981 9214 8986 
856 889 1186 1187 7297 9208 9212 9214 9213 9218 
1153 1187 856 1186 9216 9214 8981 9210 9218 9212 
1154 856 1187 857 8986 9214 9217 8988 7078 9219 
1187 856 890 857 9214 7303 9215 9219 7078 7304 
891 924 1222 925 7318 9220 9221 7310 7317 9222 
1188 1222 1189 891 9223 9224 9225 9226 9221 9227 
891 924 1221 1222 7318 9228 9229 9221 9220 9230 
1188 1222 891 1221 9223 9221 9226 9231 9230 9229 
1189 891 1222 892 9227 9221 9224 9232 7312 9233 
1222 891 925 892 9221 7310 9222 9233 7312 7311 
892 925 1223 926 7311 9234 9235 7324 7328 9236 
1189 1223 1190 892 9237 9238 9239 9232 9235 9240 
892 925 1222 1223 7311 9222 9233 9235 9234 9241 
1189 1223 892 1222 9237 9235 9232 9224 9241 9233 
1190 892 1223 893 9240 9235 9238 9242 7326 9243 
1223 892 926 893 9235 7324 9236 9243 7326 7325 
893 926 1224 927 7325 9244 9245 7334 7338 9246 
1190 1224 1191 893 9247 9248 9249 9242 9245 9250 
893 926 1223 1224 7325 9236 9243 9245 9244 9251 
1190 1224 893 1223 9247 9245 9242 9238 9251 9243 
1191 893 1224 894 9250 9245 9248 9252 7336 9253 
1224 893 927 894 9245 7334 9246 9253 7336 7335 
894 927 1225 928 7335 9254 9255 7344 7348 9256 
1191 1225 1192 894 9257 9258 9259 9252 9255 9260 
894 927 1224 1225 7335 9246 9253 9255 9254 9261 
1191 1225 894 1224 9257 9255 9252 9248 9261 9253 
1192 894 1225 895 9260 9255 9258 9262 7346 9263 
1225 894 928 895 9255 7344 9256 9263 7346 7345 
895 928 1226 929 7345 9264 9265 7354 7358 9266 
1192 1226 1193 895 9267 9268 9269 9262 9265 9270 
895 928 1225 1226 7345 9256 9263 9265 9264 9271 
1192 1226 895 1225 9267 9265 9262 9258 9271 9263 
1193 895 1226 896 9270 9265 9268 9272 7356 9273 
1226 895 929 896 9265 7354 9266 9273 7356 7355 
896 929 1227 930 7355 9274 9275 7364 7368 9276 
1193 1227 1194 896 9277 9278 9279 9272 9275 9280 
896 929 1226 1227 7355 9266 9273 9275 9274 9281 
1193 1227 896 1226 9277 9275 9272 9268 9281 9273 
1194 896 1227 897 9280 9275 9278 9282 7366 9283 
1227 896 930 897 9275 7364 9276 9283 7366 7365 
897 930 1228 931 7365 9284 9285 7374 7378 9286 
1194 1228 1195 897 9287 9288 9289 9282 9285 9290 
897 930 1227 1228 7365 9276 9283 9285 9284 9291 
1194 1228 897 1227 9287 9285 9282 9278 9291 9283 
1195 897 1228 898 9290 9285 9288 9292 7376 9293 
1228 897 931 898 9285 7374 9286 9293 7376 7375 
898 931 1229 932 7375 9294 9295 7384 7388 9296 
1195 1229 1196 898 9297 9298 9299 9292 9295 9300 
898 931 1228 1229 7375 9286 9293 9295 9294 9301 
1195 1229 898 1228 9297 9295 9292 9288 9301 9293 
1196 898 1229 899 9300 9295 9298 9302 7386 9303 
1229 898 932 899 9295 7384 9296 9303 7386 7385 
899 932 1230 933 7385 9304 9305 7394 7398 9306 
1196 1230 1197 899 9307 9308 9309 9302 9305 9310 
899 932 1229 1230 7385 9296 9303 9305 9304 9311 
1196 1230 899 1229 9307 9305 9302 9298 9311 9303 
1197 899 1230 900 9310 9305 9308 9312 7396 9313 
1230 899 933 900 9305 7394 9306 9313 7396 7395 
900 933 1231 934 7395 9314 9315 7404 7408 9316 
1197 1231 1198 900 9317 9318 9319 9312 9315 9320 
900 933 1230 1231 7395 9306 9313 9315 9314 9321 
1197 1231 900 1230 9317 9315 9312 9308 9321 9313 
1198 900 1231 901 9320 9315 9318 9322 7406 9323 
1231 900 934 901 9315 7404 9316 9323 7406 7405 
901 934 1232 935 7405 9324 9325 7414 7418 9326 
1198 1232 1199 901 9327 9328 9329 9322 9325 9330 
901 934 1231 1232 7405 9316 9323 9325 9324 9331 
1198 1232 901 1231 9327 9325 9322 9318 9331 9323 
1199 901 1232 902 9330 9325 9328 9332 7416 9333 
1232 901 935 902 9325 7414 9326 9333 7416 7415 
902 935 1233 936 7415 9334 9335 7424 7428 9336 
1199 1233 1200 902 9337 9338 9339 9332 9335 9340 
902 935 1232 1233 7415 9326 9333 9335 9334 9341 
1199 1233 902 1232 9337 9335 9332 9328 9341 9333 
1200 902 1233 903 9340 9335 9338 9342 7426 9343 
1233 902 936 903 9335 7424 9336 9343 7426 7425 
903 936 1234 937 7425 9344 9345 7434 7438 9346 
1200 1234 1201 903 9347 9348 9349 9342 9345 9350 
903 936 1233 1234 7425 9336 9343 9345 9344 9351 
1200 1234 903 1233 9347 9345 9342 9338 9351 9343 
1201 903 1234 904 9350 9345 9348 9352 7436 9353 
1234 903 937 904 9345 7434 9346 9353 7436 7435 
904 937 1235 938 7435 9354 9355 7444 7448 9356 
1201 1235 1202 904 9357 9358 9359 9352 9355 9360 
904 937 1234 1235 7435 9346 9353 9355 9354 9361 
1201 1235 904 1234 9357 9355 9352 9348 9361 9353 
1202 904 1235 905 9360 9355 9358 9362 7446 9363 
1235 904 938 905 9355 7444 9356 9363 7446 7445 
905 938 1236 939 7445 9364 9365 7454 7458 9366 
1202 1236 1203 905 9367 9368 9369 9362 9365 9370 
905 938 1235 1236 7445 9356 9363 9365 9364 9371 
1202 1236 905 1235 9367 9365 9362 9358 9371 9363 
1203 905 1236 906 9370 9365 9368 9372 7456 9373 
1236 905 939 906 9365 7454 9366 9373 7456 7455 
906 939 1237 940 7455 9374 9375 7464 7468 9376 
1203 1237 1204 906 9377 9378 9379 9372 9375 9380 
906 939 1236 1237 7455 9366 9373 9375 9374 9381 
1203 1237 906 1236 9377 9375 9372 9368 9381 9373 
1204 906 1237 907 9380 9375 9378 9382 7466 9383 
1237 906 940 907 9375 7464 9376 9383 7466 7465 
907 940 1238 941 7465 9384 9385 7474 7478 9386 
1204 1238 1205 907 9387 9388 9389 9382 9385 9390 
907 940 1237 1238 7465 9376 9383 9385 9384 9391 
1204 1238 907 1237 9387 9385 9382 9378 9391 9383 
1205 907 1238 908 9390 9385 9388 9392 7476 9393 
1238 907 941 908 9385 7474 9386 9393 7476 7475 
908 941 1239 942 7475 9394 9395 7484 7488 9396 
1205 1239 1206 908 9397 9398 9399 9392 9395 9400 
908 941 1238 1239 7475 9386 9393 9395 9394 9401 
1205 1239 908 1238 9397 9395 9392 9388 9401 9393 
1206 908 1239 909 9400 9395 9398 9402 7486 9403 
1239 908 942 909 9395 7484 9396 9403 7486 7485 
909 942 1240 943 7485 9404 9405 7494 7498 9406 
1206 1240 1207 909 9407 9408 9409 9402 9405 9410 
909 942 1239 1240 7485 9396 9403 9405 9404 9411 
1206 1240 909 1239 9407 9405 9402 9398 9411 9403 
1207 909 1240 910 9410 9405 9408 9412 7496 9413 
1240 909 943 910 9405 7494 9406 9413 7496 7495 
910 943 1241 944 7495 9414 9415 7504 7508 9416 
1207 1241 1208 910 9417 9418 9419 9412 9415 9420 
910 943 1240 1241 7495 9406 9413 9415 9414 9421 
1207 1241 910 1240 9417 9415 9412 9408 9421 9413 
1208 910 1241 911 9420 9415 9418 9422 7506 9423 
1241 910 944 911 9415 7504 9416 9423 7506 7505 
911 944 1242 945 7505 9424 9425 7514 7518 9426 
1208 1242 1209 911 9427 9428 9429 9422 9425 9430 
911 944 1241 1242 7505 9416 9423 9425 9424 9431 
1208 1242 911 1241 9427 9425 9422 9418 9431 9423 
1209 911 1242 912 9430 9425 9428 9432 7516 9433 
1242 911 945 912 9425 7514 9426 9433 7516 7515 
912 945 1243 946 7515 9434 9435 7524 7528 9436 
1209 1243 1210 912 9437 9438 9439 9432 9435 9440 
912 945 1242 1243 7515 9426 9433 9435 9434 9441 
1209 1243 912 1242 9437 9435 9432 9428 9441 9433 
1210 912 1243 913 9440 9435 9438 9442 7526 9443 
1243 912 946 913 9435 7524 9436 9443 7526 7525 
913 946 1244 947 7525 9444 9445 7534 7538 9446 
1210 1244 1211 913 9447 9448 9449 9442 9445 9450 
913 946 1243 1244 7525 9436 9443 9445 9444 9451 
1210 1244 913 1243 9447 9445 9442 9438 9451 9443 
1211 913 1244 914 9450 9445 9448 9452 7536 9453 
1244 913 947 914 9445 7534 9446 9453 7536 7535 
914 947 1245 948 7535 9454 9455 7544 7548 9456 
1211 1245 1212 914 9457 9458 9459 9452 9455 9460 
914 947 1244 1245 7535 9446 9453 9455 9454 9461 
1211 1245 914 1244 9457 9455 9452 9448 9461 9453 
1212 914 1245 915 9460 9455 9458 9462 7546 9463 
1245 914 948 915 9455 7544 9456 9463 7546 7545 
915 948 1246 949 7545 9464 9465 7554 7558 9466 
1212 1246 1213 915 9467 9468 9469 9462 9465 9470 
915 948 1245 1246 7545 9456 9463 9465 9464 9471 
1212 1246 915 1245 9467 9465 9462 9458 9471 9463 
1213 915 1246 916 9470 9465 9468 9472 7556 9473 
1246 915 949 916 9465 7554 9466 9473 7556 7555 
916 949 1247 950 7555 9474 9475 7564 7568 9476 
1213 1247 1214 916 9477 9478 9479 9472 9475 9480 
916 949 1246 1247 7555 9466 9473 9475 9474 9481 
1213 1247 916 1246 9477 9475 9472 9468 9481 9473 
1214 916 1247 917 9480 9475 9478 9482 7566 9483 
1247 916 950 917 9475 7564 9476 9483 7566 7565 
917 950 1248 951 7565 9484 9485 7574 7578 9486 
1214 1248 1215 917 9487 9488 9489 9482 9485 9490 
917 950 1247 1248 7565 9476 9483 9485 9484 9491 
1214 1248 917 1247 9487 9485 9482 9478 9491 9483 
1215 917 1248 918 9490 9485 9488 9492 7576 9493 
1248 917 951 918 9485 7574 9486 9493 7576 7575 
918 951 1249 952 7575 9494 9495 7584 7588 9496 
1215 1249 1216 918 9497 9498 9499 9492 9495 9500 
918 951 1248 1249 7575 9486 9493 9495 9494 9501 
1215 1249 918 1248 9497 9495 9492 9488 9501 9493 
1216 918 1249 919 9500 9495 9498 9502 7586 9503 
1249 918 952 919 9495 7584 9496 9503 7586 7585 
919 952 1250 953 7585 9504 9505 7594 7598 9506 
1216 1250 1217 919 9507 9508 9509 9502 9505 9510 
919 952 1249 1250 7585 9496 9503 9505 9504 9511 
1216 1250 919 1249 9507 9505 9502 9498 9511 9503 
1217 919 1250 920 9510 9505 9508 9512 7596 9513 
1250 919 953 920 9505 7594 9506 9513 7596 7595 
920 953 1251 954 7595 9514 9515 7604 7608 9516 
1217 1251 1218 920 9517 9518 9519 9512 9515 9520 
920 953 1250 1251 7595 9506 9513 9515 9514 9521 
1217 1251 920 1250 9517 9515 9512 9508 9521 9513 
1218 920 1251 921 9520 9515 9518 9522 7606 9523 
1251 920 954 921 9515 7604 9516 9523 7606 7605 
921 954 1252 955 7605 9524 9525 7614 7618 9526 
1218 1252 1219 921 9527 9528 9529 9522 9525 9530 
921 954 1251 1252 7605 9516 9523 9525 9524 9531 
1218 1252 921 1251 9527 9525 9522 9518 9531 9523 
1219 921 1252 922 9530 9525 9528 9532 7616 9533 
1252 921 955 922 9525 7614 9526 9533 7616 7615 
922 955 1253 956 7615 9534 9535 7624 7628 9536 
1219 1253 1220 922 9537 9538 9539 9532 9535 9540 
922 955 1252 1253 7615 9526 9533 9535 9534 9541 
1219 1253 922 1252 9537 9535 9532 9528 9541 9533 
1220 922 1253 923 9540 9535 9538 9542 7626 9543 
1253 922 956 923 9535 7624 9536 9543 7626 7625 
924 957 1255 958 7639 9544 9545 7634 7638 9546 
1221 1255 1222 924 9547 9548 9230 9228 9545 9220 
924 957 1254 1255 7639 9549 9550 9545 9544 9551 
1221 1255 924 1254 9547 9545 9228 9552 9551 9550 
1222 924 1255 925 9220 9545 9548 9222 7317 9553 
1255 924 958 925 9545 7634 9546 9553 7317 7635 
925 958 1256 959 7635 9554 9555 7644 7646 9556 
1222 1256 1223 925 9557 9558 9241 9222 9555 9234 
925 958 1255 1256 7635 9546 9553 9555 9554 9559 
1222 1256 925 1255 9557 9555 9222 9548 9559 9553 
1223 925 1256 926 9234 9555 9558 9236 7328 9560 
1256 925 959 926 9555 7644 9556 9560 7328 7645 
926 959 1257 960 7645 9561 9562 7651 7653 9563 
1223 1257 1224 926 9564 9565 9251 9236 9562 9244 
926 959 1256 1257 7645 9556 9560 9562 9561 9566 
1223 1257 926 1256 9564 9562 9236 9558 9566 9560 
1224 926 1257 927 9244 9562 9565 9246 7338 9567 
1257 926 960 927 9562 7651 9563 9567 7338 7652 
927 960 1258 961 7652 9568 9569 7658 7660 9570 
1224 1258 1225 927 9571 9572 9261 9246 9569 9254 
927 960 1257 1258 7652 9563 9567 9569 9568 9573 
1224 1258 927 1257 9571 9569 9246 9565 9573 9567 
1225 927 1258 928 9254 9569 9572 9256 7348 9574 
1258 927 961 928 9569 7658 9570 9574 7348 7659 
928 961 1259 962 7659 9575 9576 7665 7667 9577 
1225 1259 1226 928 9578 9579 9271 9256 9576 9264 
928 961 1258 1259 7659 9570 9574 9576 9575 9580 
1225 1259 928 1258 9578 9576 9256 9572 9580 9574 
1226 928 1259 929 9264 9576 9579 9266 7358 9581 
1259 928 962 929 9576 7665 9577 9581 7358 7666 
929 962 1260 963 7666 9582 9583 7672 7674 9584 
1226 1260 1227 929 9585 9586 9281 9266 9583 9274 
929 962 1259 1260 7666 9577 9581 9583 9582 9587 
1226 1260 929 1259 9585 9583 9266 9579 9587 9581 
1227 929 1260 930 9274 9583 9586 9276 7368 9588 
1260 929 963 930 9583 7672 9584 9588 7368 7673 
930 963 1261 964 7673 9589 9590 7679 7681 9591 
1227 1261 1228 930 9592 9593 9291 9276 9590 9284 
930 963 1260 1261 7673 9584 9588 9590 9589 9594 
1227 1261 930 1260 9592 9590 9276 9586 9594 9588 
1228 930 1261 931 9284 9590 9593 9286 7378 9595 
1261 930 964 931 9590 7679 9591 9595 7378 7680 
931 964 1262 965 7680 9596 9597 7686 7688 9598 
1228 1262 1229 931 9599 9600 9301 9286 9597 9294 
931 964 1261 1262 7680 9591 9595 9597 9596 9601 
1228 1262 931 1261 9599 9597 9286 9593 9601 9595 
1229 931 1262 932 9294 9597 9600 9296 7388 9602 
1262 931 965 932 9597 7686 9598 9602 7388 7687 
932 965 1263 966 7687 9603 9604 7693 7695 9605 
1229 1263 1230 932 9606 9607 9311 9296 9604 9304 
932 965 1262 1263 7687 9598 9602 9604 9603 9608 
1229 1263 932 1262 9606 9604 9296 9600 9608 9602 
1230 932 1263 933 9304 9604 9607 9306 7398 9609 
1263 932 966 933 9604 7693 9605 9609 7398 7694 
933 966 1264 967 7694 9610 9611 7700 7702 9612 
1230 1264 1231 933 9613 9614 9321 9306 9611 9314 
933 966 1263 1264 7694 9605 9609 9611 9610 9615 
1230 1264 933 1263 9613 9611 9306 9607 9615 9609 
1231 933 1264 934 9314 9611 9614 9316 7408 9616 
1264 933 967 934 9611 7700 9612 9616 7408 7701 
934 967 1265 968 7701 9617 9618 7707 7709 9619 
1231 1265 1232 934 9620 9621 9331 9316 9618 9324 
934 967 1264 1265 7701 9612 9616 9618 9617 9622 
1231 1265 934 1264 9620 9618 9316 9614 9622 9616 
1232 934 1265 935 9324 9618 9621 9326 7418 9623 
1265 934 968 935 9618 7707 9619 9623 7418 7708 
935 968 1266 969 7708 9624 9625 7714 7716 9626 
1232 1266 1233 935 9627 9628 9341 9326 9625 9334 
935 968 1265 1266 7708 9619 9623 9625 9624 9629 
1232 1266 935 1265 9627 9625 9326 9621 9629 9623 
1233 935 1266 936 9334 9625 9628 9336 7428 9630 
1266 935 969 936 9625 7714 9626 9630 7428 7715 
936 969 1267 970 7715 9631 9632 7721 7723 9633 
1233 1267 1234 936 9634 9635 9351 9336 9632 9344 
936 969 1266 1267 7715 9626 9630 9632 9631 9636 
1233 1267 936 1266 9634 9632 9336 9628 9636 9630 
1234 936 1267 937 9344 9632 9635 9346 7438 9637 
1267 936 970 937 9632 7721 9633 9637 7438 7722 
937 970 1268 971 7722 9638 9639 7728 7730 9640 
1234 1268 1235 937 9641 9642 9361 9346 9639 9354 
937 970 1267 1268 7722 9633 9637 9639 9638 9643 
1234 1268 937 1267 9641 9639 9346 9635 9643 9637 
1235 937 1268 938 9354 9639 9642 9356 7448 9644 
1268 937 971 938 9639 7728 9640 9644 7448 7729 
938 971 1269 972 7729 9645 9646 7735 7737 9647 
1235 1269 1236 938 9648 9649 9371 9356 9646 9364 
938 971 1268 1269 7729 9640 9644 9646 9645 9650 
1235 1269 938 1268 9648 9646 9356 9642 9650 9644 
1236 938 1269 939 9364 9646 9649 9366 7458 9651 
1269 938 972 939 9646 7735 9647 9651 7458 7736 
939 972 1270 973 7736 9652 9653 7742 7744 9654 
1236 1270 1237 939 9655 9656 9381 9366 9653 9374 
939 972 1269 1270 7736 9647 9651 9653 9652 9657 
1236 1270 939 1269 9655 9653 9366 9649 9657 9651 
1237 939 1270 940 9374 9653 9656 9376 7468 9658 
1270 939 973 940 9653 7742 9654 9658 7468 7743 
940 973 1271 974 7743 9659 9660 7749 7751 9661 
1237 1271 1238 940 9662 9663 9391 9376 9660 9384 
940 973 1270 1271 7743 9654 9658 9660 9659 9664 
1237 1271 940 1270 9662 9660 9376 9656 9664 9658 
1238 940 1271 941 9384 9660 9663 9386 7478 9665 
1271 940 974 941 9660 7749 9661 9665 7478 7750 
941 974 1272 975 7750 9666 9667 7756 7758 9668 
1238 1272 1239 941 9669 9670 9401 9386 9667 9394 
941 974 1271 1272 7750 9661 9665 9667 9666 9671 
1238 1272 941 1271 9669 9667 9386 9663 9671 9665 
1239 941 1272 942 9394 9667 9670 9396 7488 9672 
1272 941 975 942 9667 7756 9668 9672 7488 7757 
942 975 1273 976 7757 9673 9674 7763 7765 9675 
1239 1273 1240 942 9676 9677 9411 9396 9674 9404 
942 975 1272 1273 7757 9668 9672 9674 9673 9678 
1239 1273 942 1272 9676 9674 9396 9670 9678 9672 
1240 942 1273 943 9404 9674 9677 9406 7498 9679 
1273 942 976 943 9674 7763 9675 9679 7498 7764 
943 976 1274 977 7764 9680 9681 7770 7772 9682 
1240 1274 1241 943 9683 9684 9421 9406 9681 9414 
943 976 1273 1274 7764 9675 9679 9681 9680 9685 
1240 1274 943 1273 9683 9681 9406 9677 9685 9679 
1241 943 1274 944 9414 9681 9684 9416 7508 9686 
1274 943 977 944 9681 7770 9682 9686 7508 7771 
944 977 1275 978 7771 9687 9688 7777 7779 9689 
1241 1275 1242 944 9690 9691 9431 9416 9688 9424 
944 977 1274 1275 7771 9682 9686 9688 9687 9692 
1241 1275 944 1274 9690 9688 9416 9684 9692 9686 
1242 944 1275 945 9424 9688 9691 9426 7518 9693 
1275 944 978 945 9688 7777 9689 9693 7518 7778 
945 978 1276 979 7778 9694 9695 7784 7786 9696 
1242 1276 1243 945 9697 9698 9441 9426 9695 9434 
945 978 1275 1276 7778 9689 9693 9695 9694 9699 
1242 1276 945 1275 9697 9695 9426 9691 9699 9693 
1243 945 1276 946 9434 9695 9698 9436 7528 9700 
1276 945 979 946 9695 7784 9696 9700 7528 7785 
946 979 1277 980 7785 9701 9702 7791 7793 9703 
1243 1277 1244 946 9704 9705 9451 9436 9702 9444 
946 979 1276 1277 7785 9696 9700 9702 9701 9706 
1243 1277 946 1276 9704 9702 9436 9698 9706 9700 
1244 946 1277 947 9444 9702 9705 9446 7538 9707 
1277 946 980 947 9702 7791 9703 9707 7538 7792 
947 980 1278 981 7792 9708 9709 7798 7800 9710 
1244 1278 1245 947 9711 9712 9461 9446 9709 9454 
947 980 1277 1278 7792 9703 9707 9709 9708 9713 
1244 1278 947 1277 9711 9709 9446 9705 9713 9707 
1245 947 1278 948 9454 9709 9712 9456 7548 9714 
1278 947 981 948 9709 7798 9710 9714 7548 7799 
948 981 1279 982 7799 9715 9716 7805 7807 9717 
1245 1279 1246 948 9718 9719 9471 9456 9716 9464 
948 981 1278 1279 7799 9710 9714 9716 9715 9720 
1245 1279 948 1278 9718 9716 9456 9712 9720 9714 
1246 948 1279 949 9464 9716 9719 9466 7558 9721 
1279 948 982 949 9716 7805 9717 9721 7558 7806 
949 982 1280 983 7806 9722 9723 7812 7814 9724 
1246 1280 1247 949 9725 9726 9481 9466 9723 9474 
949 982 1279 1280 7806 9717 9721 9723 9722 9727 
1246 1280 949 1279 9725 9723 9466 9719 9727 9721 
1247 949 1280 950 9474 9723 9726 9476 7568 9728 
1280 949 983 950 9723 7812 9724 9728 7568 7813 
950 983 1281 984 7813 9729 9730 7819 7821 9731 
1247 1281 1248 950 9732 9733 9491 9476 9730 9484 
950 983 1280 1281 7813 9724 9728 9730 9729 9734 
1247 1281 950 1280 9732 9730 9476 9726 9734 9728 
1248 950 1281 951 9484 9730 9733 9486 7578 9735 
1281 950 984 951 9730 7819 9731 9735 7578 7820 
951 984 1282 985 7820 9736 9737 7826 7828 9738 
1248 1282 1249 951 9739 9740 9501 9486 9737 9494 
951 984 1281 1282 7820 9731 9735 9737 9736 9741 
1248 1282 951 1281 9739 9737 9486 9733 9741 9735 
1249 951 1282 952 9494 9737 9740 9496 7588 9742 
1282 951 985 952 9737 7826 9738 9742 7588 7827 
952 985 1283 986 7827 9743 9744 7833 7835 9745 
1249 1283 1250 952 9746 9747 9511 9496 9744 9504 
952 985 1282 1283 7827 9738 9742 9744 9743 9748 
1249 1283 952 1282 9746 9744 9496 9740 9748 9742 
1250 952 1283 953 9504 9744 9747 9506 7598 9749 
1283 952 986 953 9744 7833 9745 9749 7598 7834 
953 986 1284 987 7834 9750 9751 7840 7842 9752 
1250 1284 1251 953 9753 9754 9521 9506 9751 9514 
953 986 1283 1284 7834 9745 9749 9751 9750 9755 
1250 1284 953 1283 9753 9751 9506 9747 9755 9749 
1251 953 1284 954 9514 9751 9754 9516 7608 9756 
1284 953 987 954 9751 7840 9752 9756 7608 7841 
954 987 1285 988 7841 9757 9758 7847 7849 9759 
1251 1285 1252 954 9760 9761 9531 9516 9758 9524 
954 987 1284 1285 7841 9752 9756 9758 9757 9762 
1251 1285 954 1284 9760 9758 9516 9754 9762 9756 
1252 954 1285 955 9524 9758 9761 9526 7618 9763 
1285 954 988 955 9758 7847 9759 9763 7618 7848 
955 988 1286 989 7848 9764 9765 7854 7856 9766 
1252 1286 1253 955 9767 9768 9541 9526 9765 9534 
955 988 1285 1286 7848 9759 9763 9765 9764 9769 
1252 1286 955 1285 9767 9765 9526 9761 9769 9763 
1253 955 1286 956 9534 9765 9768 9536 7628 9770 
1286 955 989 956 9765 7854 9766 9770 7628 7855 
957 990 1288 991 7866 9771 9772 7861 7865 9773 
1254 1288 1255 957 9774 9775 9551 9549 9772 9544 
957 990 1287 1288 7866 9776 9777 9772 9771 9778 
1254 1288 957 1287 9774 9772 9549 9779 9778 9777 
1255 957 1288 958 9544 9772 9775 9546 7638 9780 
1288 957 991 958 9772 7861 9773 9780 7638 7862 
958 991 1289 992 7862 9781 9782 7871 7873 9783 
1255 1289 1256 958 9784 9785 9559 9546 9782 9554 
958 991 1288 1289 7862 9773 9780 9782 9781 9786 
1255 1289 958 1288 9784 9782 9546 9775 9786 9780 
1256 958 1289 959 9554 9782 9785 9556 7646 9787 
1289 958 992 959 9782 7871 9783 9787 7646 7872 
959 992 1290 993 7872 9788 9789 7878 7880 9790 
1256 1290 1257 959 9791 9792 9566 9556 9789 9561 
959 992 1289 1290 7872 9783 9787 9789 9788 9793 
1256 1290 959 1289 9791 9789 9556 9785 9793 9787 
1257 959 1290 960 9561 9789 9792 9563 7653 9794 
1290 959 993 960 9789 7878 9790 9794 7653 7879 
960 993 1291 994 7879 9795 9796 7885 7887 9797 
1257 1291 1258 960 9798 9799 9573 9563 9796 9568 
960 993 1290 1291 7879 9790 9794 9796 9795 9800 
1257 1291 960 1290 9798 9796 9563 9792 9800 9794 
1258 960 1291 961 9568 9796 9799 9570 7660 9801 
1291 960 994 961 9796 7885 9797 9801 7660 7886 
961 994 1292 995 7886 9802 9803 7892 7894 9804 
1258 1292 1259 961 9805 9806 9580 9570 9803 9575 
961 994 1291 1292 7886 9797 9801 9803 9802 9807 
1258 1292 961 1291 9805 9803 9570 9799 9807 9801 
1259 961 1292 962 9575 9803 9806 9577 7667 9808 
1292 961 995 962 9803 7892 9804 9808 7667 7893 
962 995 1293 996 7893 9809 9810 7899 7901 9811 
1259 1293 1260 962 9812 9813 9587 9577 9810 9582 
962 995 1292 1293 7893 9804 9808 9810 9809 9814 
1259 1293 962 1292 9812 9810 9577 9806 9814 9808 
1260 962 1293 963 9582 9810 9813 9584 7674 9815 
1293 962 996 963 9810 7899 9811 9815 7674 7900 
963 996 1294 997 7900 9816 9817 7906 7908 9818 
1260 1294 1261 963 9819 9820 9594 9584 9817 9589 
963 996 1293 1294 7900 9811 9815 9817 9816 9821 
1260 1294 963 1293 9819 9817 9584 9813 9821 9815 
1261 963 1294 964 9589 9817 9820 9591 7681 9822 
1294 963 997 964 9817 7906 9818 9822 7681 7907 
964 997 1295 998 7907 9823 9824 7913 7915 9825 
1261 1295 1262 964 9826 9827 9601 9591 9824 9596 
964 997 1294 1295 7907 9818 9822 9824 9823 9828 
1261 1295 964 1294 9826 9824 9591 9820 9828 9822 
1262 964 1295 965 9596 9824 9827 9598 7688 9829 
1295 964 998 965 9824 7913 9825 9829 7688 7914 
965 998 1296 999 7914 9830 9831 7920 7922 9832 
1262 1296 1263 965 9833 9834 9608 9598 9831 9603 
965 998 1295 1296 7914 9825 9829 9831 9830 9835 
1262 1296 965 1295 9833 9831 9598 9827 9835 9829 
1263 965 1296 966 9603 9831 9834 9605 7695 9836 
1296 965 999 966 9831 7920 9832 9836 7695 7921 
966 999 1297 1000 7921 9837 9838 7927 7929 9839 
1263 1297 1264 966 9840 9841 9615 9605 9838 9610 
966 999 1296 1297 7921 9832 9836 9838 9837 9842 
1263 1297 966 1296 9840 9838 9605 9834 9842 9836 
1264 966 1297 967 9610 9838 9841 9612 7702 9843 
1297 966 1000 967 9838 7927 9839 9843 7702 7928 
967 1000 1298 1001 7928 9844 9845 7934 7936 9846 
1264 1298 1265 967 9847 9848 9622 9612 9845 9617 
967 1000 1297 1298 7928 9839 9843 9845 9844 9849 
1264 1298 967 1297 9847 9845 9612 9841 9849 9843 
1265 967 1298 968 9617 9845 9848 9619 7709 9850 
1298 967 1001 968 9845 7934 9846 9850 7709 7935 
968 1001 1299 1002 7935 9851 9852 7941 7943 9853 
1265 1299 1266 968 9854 9855 9629 9619 9852 9624 
968 1001 1298 1299 7935 9846 9850 9852 9851 9856 
1265 1299 968 1298 9854 9852 9619 9848 9856 9850 
1266 968 1299 969 9624 9852 9855 9626 7716 9857 
1299 968 1002 969 9852 7941 9853 9857 7716 7942 
969 1002 1300 1003 7942 9858 9859 7948 7950 9860 
1266 1300 1267 969 9861 9862 9636 9626 9859 9631 
969 1002 1299 1300 7942 9853 9857 9859 9858 9863 
1266 1300 969 1299 9861 9859 9626 9855 9863 9857 
1267 969 1300 970 9631 9859 9862 9633 7723 9864 
1300 969 1003 970 9859 7948 9860 9864 7723 7949 
970 1003 1301 1004 7949 9865 9866 7955 7957 9867 
1267 1301 1268 970 9868 9869 9643 9633 9866 9638 
970 1003 1300 1301 7949 9860 9864 9866 9865 9870 
1267 1301 970 1300 9868 9866 9633 9862 9870 9864 
1268 970 1301 971 9638 9866 9869 9640 7730 9871 
1301 970 1004 971 9866 7955 9867 9871 7730 7956 
971 1004 1302 1005 7956 9872 9873 7962 7964 9874 
1268 1302 1269 971 9875 9876 9650 9640 9873 9645 
971 1004 1301 1302 7956 9867 9871 9873 9872 9877 
1268 1302 971 1301 9875 9873 9640 9869 9877 9871 
1269 971 1302 972 9645 9873 9876 9647 7737 9878 
1302 971 1005 972 9873 7962 9874 9878 7737 7963 
972 1005 1303 1006 7963 9879 9880 7969 7971 9881 
1269 1303 1270 972 9882 9883 9657 9647 9880 9652 
972 1005 1302 1303 7963 9874 9878 9880 9879 9884 
1269 1303 972 1302 9882 9880 9647 9876 9884 9878 
1270 972 1303 973 9652 9880 9883 9654 7744 9885 
1303 972 1006 973 9880 7969 9881 9885 7744 7970 
973 1006 1304 1007 7970 9886 9887 7976 7978 9888 
1270 1304 1271 973 9889 9890 9664 9654 9887 9659 
973 1006 1303 1304 7970 9881 9885 9887 9886 9891 
1270 1304 973 1303 9889 9887 9654 9883 9891 9885 
1271 973 1304 974 9659 9887 9890 9661 7751 9892 
1304 973 1007 974 9887 7976 9888 9892 7751 7977 
974 1007 1305 1008 7977 9893 9894 7983 7985 9895 
1271 1305 1272 974 9896 9897 9671 9661 9894 9666 
974 1007 1304 1305 7977 9888 9892 9894 9893 9898 
1271 1305 974 1304 9896 9894 9661 9890 9898 9892 
1272 974 1305 975 9666 9894 9897 9668 7758 9899 
1305 974 1008 975 9894 7983 9895 9899 7758 7984 
975 1008 1306 1009 7984 9900 9901 7990 7992 9902 
1272 1306 1273 975 9903 9904 9678 9668 9901 9673 
975 1008 1305 1306 7984 9895 9899 9901 9900 9905 
1272 1306 975 1305 9903 9901 9668 9897 9905 9899 
1273 975 1306 976 9673 9901 9904 9675 7765 9906 
1306 975 1009 976 9901 7990 9902 9906 7765 7991 
976 1009 1307 1010 7991 9907 9908 7997 7999 9909 
1273 1307 1274 976 9910 9911 9685 9675 9908 9680 
976 1009 1306 1307 7991 9902 9906 9908 9907 9912 
1273 1307 976 1306 9910 9908 9675 9904 9912 9906 
1274 976 1307 977 9680 9908 9911 9682 7772 9913 
1307 976 1010 977 9908 7997 9909 9913 7772 7998 
977 1010 1308 1011 7998 9914 9915 8004 8006 9916 
1274 1308 1275 977 9917 9918 9692 9682 9915 9687 
977 1010 1307 1308 7998 9909 9913 9915 9914 9919 
1274 1308 977 1307 9917 9915 9682 9911 9919 9913 
1275 977 1308 978 9687 9915 9918 9689 7779 9920 
1308 977 1011 978 9915 8004 9916 9920 7779 8005 
978 1011 1309 1012 8005 9921 9922 8011 8013 9923 
1275 1309 1276 978 9924 9925 9699 9689 9922 9694 
978 1011 1308 1309 8005 9916 9920 9922 9921 9926 
1275 1309 978 1308 9924 9922 9689 9918 9926 9920 
1276 978 1309 979 9694 9922 9925 9696 7786 9927 
1309 978 1012 979 9922 8011 9923 9927 7786 8012 
979 1012 1310 1013 8012 9928 9929 8018 8020 9930 
1276 1310 1277 979 9931 9932 9706 9696 9929 9701 
979 1012 1309 1310 8012 9923 9927 9929 9928 9933 
1276 1310 979 1309 9931 9929 9696 9925 9933 9927 
1277 979 1310 980 9701 9929 9932 9703 7793 9934 
1310 979 1013 980 9929 8018 9930 9934 7793 8019 
980 1013 1311 1014 8019 9935 9936 8025 8027 9937 
1277 1311 1278 980 9938 9939 9713 9703 9936 9708 
980 1013 1310 1311 8019 9930 9934 9936 9935 9940 
1277 1311 980 1310 9938 9936 9703 9932 9940 9934 
1278 980 1311 981 9708 9936 9939 9710 7800 9941 
1311 980 1014 981 9936 8025 9937 9941 7800 8026 
981 1014 1312 1015 8026 9942 9943 8032 8034 9944 
1278 1312 1279 981 9945 9946 9720 9710 9943 9715 
981 1014 1311 1312 8026 9937 9941 9943 9942 9947 
1278 1312 981 1311 9945 9943 9710 9939 9947 9941 
1279 981 1312 982 9715 9943 9946 9717 7807 9948 
1312 981 1015 982 9943 8032 9944 9948 7807 8033 
982 1015 1313 1016 8033 9949 9950 8039 8041 9951 
1279 1313 1280 982 9952 9953 9727 9717 9950 9722 
982 1015 1312 1313 8033 9944 9948 9950 9949 9954 
1279 1313 982 1312 9952 9950 9717 9946 9954 9948 
1280 982 1313 983 9722 9950 9953 9724 7814 9955 
1313 982 1016 983 9950 8039 9951 9955 7814 8040 
983 1016 1314 1017 8040 9956 9957 8046 8048 9958 
1280 1314 1281 983 9959 9960 9734 9724 9957 9729 
983 1016 1313 1314 8040 9951 9955 9957 9956 9961 
1280 1314 983 1313 9959 9957 9724 9953 9961 9955 
1281 983 1314 984 9729 9957 9960 9731 7821 9962 
1314 983 1017 984 9957 8046 9958 9962 7821 8047 
984 1017 1315 1018 8047 9963 9964 8053 8055 9965 
1281 1315 1282 984 9966 9967 9741 9731 9964 9736 
984 1017 1314 1315 8047 9958 9962 9964 9963 9968 
1281 1315 984 1314 9966 9964 9731 9960 9968 9962 
1282 984 1315 985 9736 9964 9967 9738 7828 9969 
1315 984 1018 985 9964 8053 9965 9969 7828 8054 
985 1018 1316 1019 8054 9970 9971 8060 8062 9972 
1282 1316 1283 985 9973 9974 9748 9738 9971 9743 
985 1018 1315 1316 8054 9965 9969 9971 9970 9975 
1282 1316 985 1315 9973 9971 9738 9967 9975 9969 
1283 985 1316 986 9743 9971 9974 9745 7835 9976 
1316 985 1019 986 9971 8060 9972 9976 7835 8061 
986 1019 1317 1020 8061 9977 9978 8067 8069 9979 
1283 1317 1284 986 9980 9981 9755 9745 9978 9750 
986 1019 1316 1317 8061 9972 9976 9978 9977 9982 
1283 1317 986 1316 9980 9978 9745 9974 9982 9976 
1284 986 1317 987 9750 9978 9981 9752 7842 9983 
1317 986 1020 987 9978 8067 9979 9983 7842 8068 
987 1020 1318 1021 8068 9984 9985 8074 8076 9986 
1284 1318 1285 987 9987 9988 9762 9752 9985 9757 
987 1020 1317 1318 8068 9979 9983 9985 9984 9989 
1284 1318 987 1317 9987 9985 9752 9981 9989 9983 
1285 987 1318 988 9757 9985 9988 9759 7849 9990 
1318 987 1021 988 9985 8074 9986 9990 7849 8075 
988 1021 1319 1022 8075 9991 9992 8081 8083 9993 
1285 1319 1286 988 9994 9995 9769 9759 9992 9764 
988 1021 1318 1319 8075 9986 9990 9992 9991 9996 
1285 1319 988 1318 9994 9992 9759 9988 9996 9990 
1286 988 1319 989 9764 9992 9995 9766 7856 9997 
1319 988 1022 989 9992 8081 9993 9997 7856 8082 
990 1023 1321 1024 8093 9998 9999 8088 8092 10000 
1287 1321 1288 990 10001 10002 9778 9776 9999 9771 
990 1023 1320 1321 8093 10003 10004 9999 9998 10005 
1287 1321 990 1320 10001 9999 9776 10006 10005 10004 
1288 990 1321 991 9771 9999 10002 9773 7865 10007 
1321 990 1024 991 9999 8088 10000 10007 7865 8089 
991 1024 1322 1025 8089 10008 10009 8098 8100 10010 
1288 1322 1289 991 10011 10012 9786 9773 10009 9781 
991 1024 1321 1322 8089 10000 10007 10009 10008 10013 
1288 1322 991 1321 10011 10009 9773 10002 10013 10007 
1289 991 1322 992 9781 10009 10012 9783 7873 10014 
1322 991 1025 992 10009 8098 10010 10014 7873 8099 
992 1025 1323 1026 8099 10015 10016 8105 8107 10017 
1289 1323 1290 992 10018 10019 9793 9783 10016 9788 
992 1025 1322 1323 8099 10010 10014 10016 10015 10020 
1289 1323 992 1322 10018 10016 9783 10012 10020 10014 
1290 992 1323 993 9788 10016 10019 9790 7880 10021 
1323 992 1026 993 10016 8105 10017 10021 7880 8106 
993 1026 1324 1027 8106 10022 10023 8112 8114 10024 
1290 1324 1291 993 10025 10026 9800 9790 10023 9795 
993 1026 1323 1324 8106 10017 10021 10023 10022 10027 
1290 1324 993 1323 10025 10023 9790 10019 10027 10021 
1291 993 1324 994 9795 10023 10026 9797 7887 10028 
1324 993 1027 994 10023 8112 10024 10028 7887 8113 
994 1027 1325 1028 8113 10029 10030 8119 8121 10031 
1291 1325 1292 994 10032 10033 9807 9797 10030 9802 
994 1027 1324 1325 8113 10024 10028 10030 10029 10034 
1291 1325 994 1324 10032 10030 9797 10026 10034 10028 
1292 994 1325 995 9802 10030 10033 9804 7894 10035 
1325 994 1028 995 10030 8119 10031 10035 7894 8120 
995 1028 1326 1029 8120 10036 10037 8126 8128 10038 
1292 1326 1293 995 10039 10040 9814 9804 10037 9809 
995 1028 1325 1326 8120 10031 10035 10037 10036 10041 
1292 1326 995 1325 10039 10037 9804 10033 10041 10035 
1293 995 1326 996 9809 10037 10040 9811 7901 10042 
1326 995 1029 996 10037 8126 10038 10042 7901 8127 
996 1029 1327 1030 8127 10043 10044 8133 8135 10045 
1293 1327 1294 996 10046 10047 9821 9811 10044 9816 
996 1029 1326 1327 8127 10038 10042 10044 10043 10048 
1293 1327 996 1326 10046 10044 9811 10040 10048 10042 
1294 996 1327 997 9816 10044 10047 9818 7908 10049 
1327 996 1030 997 10044 8133 10045 10049 7908 8134 
997 1030 1328 1031 8134 10050 10051 8140 8142 10052 
1294 1328 1295 997 10053 10054 9828 9818 10051 9823 
997 1030 1327 1328 8134 10045 10049 10051 10050 10055 
1294 1328 997 1327 10053 10051 9818 10047 10055 10049 
1295 997 1328 998 9823 10051 10054 9825 7915 10056 
1328 997 1031 998 10051 8140 10052 10056 7915 8141 
998 1031 1329 1032 8141 10057 10058 8147 8149 10059 
1295 1329 1296 998 10060 10061 9835 9825 10058 9830 
998 1031 1328 1329 8141 10052 10056 10058 10057 10062 
1295 1329 998 1328 10060 10058 9825 10054 10062 10056 
1296 998 1329 999 9830 10058 10061 9832 7922 10063 
1329 998 1032 999 10058 8147 10059 10063 7922 8148 
999 1032 1330 1033 8148 10064 10065 8154 8156 10066 
1296 1330 1297 999 10067 10068 9842 9832 10065 9837 
999 1032 1329 1330 8148 10059 10063 10065 10064 10069 
1296 1330 999 1329 10067 10065 9832 10061 10069 10063 
1297 999 1330 1000 9837 10065 10068 9839 7929 10070 
1330 999 1033 1000 10065 8154 10066 10070 7929 8155 
1000 1033 1331 1034 8155 10071 10072 8161 8163 10073 
1297 1331 1298 1000 10074 10075 9849 9839 10072 9844 
1000 1033 1330 1331 8155 10066 10070 10072 10071 10076 
1297 1331 1000 1330 10074 10072 9839 10068 10076 10070 
1298 1000 1331 1001 9844 10072 10075 9846 7936 10077 
1331 1000 1034 1001 10072 8161 10073 10077 7936 8162 
1001 1034 1332 1035 8162 10078 10079 8168 8170 10080 
1298 1332 1299 1001 10081 10082 9856 9846 10079 9851 
1001 1034 1331 1332 8162 10073 10077 10079 10078 10083 
1298 1332 1001 1331 10081 10079 9846 10075 10083 10077 
1299 1001 1332 1002 9851 10079 10082 9853 7943 10084 
1332 1001 1035 1002 10079 8168 10080 10084 7943 8169 
1002 1035 1333 1036 8169 10085 10086 8175 8177 10087 
1299 1333 1300 1002 10088 10089 9863 9853 10086 9858 
1002 1035 1332 1333 8169 10080 10084 10086 10085 10090 
1299 1333 1002 1332 10088 10086 9853 10082 10090 10084 
1300 1002 1333 1003 9858 10086 10089 9860 7950 10091 
1333 1002 1036 1003 10086 8175 10087 10091 7950 8176 
1003 1036 1334 1037 8176 10092 10093 8182 8184 10094 
1300 1334 1301 1003 10095 10096 9870 9860 10093 9865 
1003 1036 1333 1334 8176 10087 10091 10093 10092 10097 
1300 1334 1003 1333 10095 10093 9860 10089 10097 10091 
1301 1003 1334 1004 9865 10093 10096 9867 7957 10098 
1334 1003 1037 1004 10093 8182 10094 10098 7957 8183 
1004 1037 1335 1038 8183 10099 10100 8189 8191 10101 
1301 1335 1302 1004 10102 10103 9877 9867 10100 9872 
1004 1037 1334 1335 8183 10094 10098 10100 10099 10104 
1301 1335 1004 1334 10102 10100 9867 10096 10104 10098 
1302 1004 1335 1005 9872 10100 10103 9874 7964 10105 
1335 1004 1038 1005 10100 8189 10101 10105 7964 8190 
1005 1038 1336 1039 8190 10106 10107 8196 8198 10108 
1302 1336 1303 1005 10109 10110 9884 9874 10107 9879 
1005 1038 1335 1336 8190 10101 10105 10107 10106 10111 
1302 1336 1005 1335 10109 10107 9874 10103 10111 10105 
1303 1005 1336 1006 9879 10107 10110 9881 7971 10112 
1336 1005 1039 1006 10107 8196 10108 10112 7971 8197 
1006 1039 1337 1040 8197 10113 10114 8203 8205 10115 
1303 1337 1304 1006 10116 10117 9891 9881 10114 9886 
1006 1039 1336 1337 8197 10108 10112 10114 10113 10118 
1303 1337 1006 1336 10116 10114 9881 10110 10118 10112 
1304 1006 1337 1007 9886 10114 10117 9888 7978 10119 
1337 1006 1040 1007 10114 8203 10115 10119 7978 8204 
1007 1040 1338 1041 8204 10120 10121 8210 8212 10122 
1304 1338 1305 1007 10123 10124 9898 9888 10121 9893 
1007 1040 1337 1338 8204 10115 10119 10121 10120 10125 
1304 1338 1007 1337 10123 10121 9888 10117 10125 10119 
1305 1007 1338 1008 9893 10121 10124 9895 7985 10126 
1338 1007 1041 1008 10121 8210 10122 10126 7985 8211 
1008 1041 1339 1042 8211 10127 10128 8217 8219 10129 
1305 1339 1306 1008 10130 10131 9905 9895 10128 9900 
1008 1041 1338 1339 8211 10122 10126 10128 10127 10132 
1305 1339 1008 1338 10130 10128 9895 10124 10132 10126 
1306 1008 1339 1009 9900 10128 10131 9902 7992 10133 
1339 1008 1042 1009 10128 8217 10129 10133 7992 8218 
1009 1042 1340 1043 8218 10134 10135 8224 8226 10136 
1306 1340 1307 1009 10137 10138 9912 9902 10135 9907 
1009 1042 1339 1340 8218 10129 10133 10135 10134 10139 
1306 1340 1009 1339 10137 10135 9902 10131 10139 10133 
1307 1009 1340 1010 9907 10135 10138 9909 7999 10140 
1340 1009 1043 1010 10135 8224 10136 10140 7999 8225 
1010 1043 1341 1044 8225 10141 10142 8231 8233 10143 
1307 1341 1308 1010 10144 10145 9919 9909 10142 9914 
1010 1043 1340 1341 8225 10136 10140 10142 10141 10146 
1307 1341 1010 1340 10144 10142 9909 10138 10146 10140 
1308 1010 1341 1011 9914 10142 10145 9916 8006 10147 
1341 1010 1044 1011 10142 8231 10143 10147 8006 8232 
1011 1044 1342 1045 8232 10148 10149 8238 8240 10150 
1308 1342 1309 1011 10151 10152 9926 9916 10149 9921 
1011 1044 1341 1342 8232 10143 10147 10149 10148 10153 
1308 1342 1011 1341 10151 10149 9916 10145 10153 10147 
1309 1011 1342 1012 9921 10149 10152 9923 8013 10154 
1342 1011 1045 1012 10149 8238 10150 10154 8013 8239 
1012 1045 1343 1046 8239 10155 10156 8245 8247 10157 
1309 1343 1310 1012 10158 10159 9933 9923 10156 9928 
1012 1045 1342 1343 8239 10150 10154 10156 10155 10160 
1309 1343 1012 1342 10158 10156 9923 10152 10160 10154 
1310 1012 1343 1013 9928 10156 10159 9930 8020 10161 
1343 1012 1046 1013 10156 8245 10157 10161 8020 8246 
1013 1046 1344 1047 8246 10162 10163 8252 8254 10164 
1310 1344 1311 1013 10165 10166 9940 9930 10163 9935 
1013 1046 1343 1344 8246 10157 10161 10163 10162 10167 
1310 1344 1013 1343 10165 10163 9930 10159 10167 10161 
1311 1013 1344 1014 9935 10163 10166 9937 8027 10168 
1344 1013 1047 1014 10163 8252 10164 10168 8027 8253 
1014 1047 1345 1048 8253 10169 10170 8259 8261 10171 
1311 1345 1312 1014 10172 10173 9947 9937 10170 9942 
1014 1047 1344 1345 8253 10164 10168 10170 10169 10174 
1311 1345 1014 1344 10172 10170 9937 10166 10174 10168 
1312 1014 1345 1015 9942 10170 10173 9944 8034 10175 
1345 1014 1048 1015 10170 8259 10171 10175 8034 8260 
1015 1048 1346 1049 8260 10176 10177 8266 8268 10178 
1312 1346 1313 1015 10179 10180 9954 9944 10177 9949 
1015 1048 1345 1346 8260 10171 10175 10177 10176 10181 
1312 1346 1015 1345 10179 10177 9944 10173 10181 10175 
1313 1015 1346 1016 9949 10177 10180 9951 8041 10182 
1346 1015 1049 1016 10177 8266 10178 10182 8041 8267 
1016 1049 1347 1050 8267 10183 10184 8273 8275 10185 
1313 1347 1314 1016 10186 10187 9961 9951 10184 9956 
1016 1049 1346 1347 8267 10178 10182 10184 10183 10188 
1313 1347 1016 1346 10186 10184 9951 10180 10188 10182 
1314 1016 1347 1017 9956 10184 10187 9958 8048 10189 
1347 1016 1050 1017 10184 8273 10185 10189 8048 8274 
1017 1050 1348 1051 8274 10190 10191 8280 8282 10192 
1314 1348 1315 1017 10193 10194 9968 9958 10191 9963 
1017 1050 1347 1348 8274 10185 10189 10191 10190 10195 
1314 1348 1017 1347 10193 10191 9958 10187 10195 10189 
1315 1017 1348 1018 9963 10191 10194 9965 8055 10196 
1348 1017 1051 1018 10191 8280 10192 10196 8055 8281 
1018 1051 1349 1052 8281 10197 10198 8287 8289 10199 
1315 1349 1316 1018 10200 10201 9975 9965 10198 9970 
1018 1051 1348 1349 8281 10192 10196 10198 10197 10202 
1315 1349 1018 1348 10200 10198 9965 10194 10202 10196 
1316 1018 1349 1019 9970 10198 10201 9972 8062 10203 
1349 1018 1052 1019 10198 8287 10199 10203 8062 8288 
1019 1052 1350 1053 8288 10204 10205 8294 8296 10206 
1316 1350 1317 1019 10207 10208 9982 9972 10205 9977 
1019 1052 1349 1350 8288 10199 10203 10205 10204 10209 
1316 1350 1019 1349 10207 10205 9972 10201 10209 10203 
1317 1019 1350 1020 9977 10205 10208 9979 8069 10210 
1350 1019 1053 1020 10205 8294 10206 10210 8069 8295 
1020 1053 1351 1054 8295 10211 10212 8301 8303 10213 
1317 1351 1318 1020 10214 10215 9989 9979 10212 9984 
1020 1053 1350 1351 8295 10206 10210 10212 10211 10216 
1317 1351 1020 1350 10214 10212 9979 10208 10216 10210 
1318 1020 1351 1021 9984 10212 10215 9986 8076 10217 
1351 1020 1054 1021 10212 8301 10213 10217 8076 8302 
1021 1054 1352 1055 8302 10218 10219 8308 8310 10220 
1318 1352 1319 1021 10221 10222 9996 9986 10219 9991 
1021 1054 1351 1352 8302 10213 10217 10219 10218 10223 
1318 1352 1021 1351 10221 10219 9986 10215 10223 10217 
1319 1021 1352 1022 9991 10219 10222 9993 8083 10224 
1352 1021 1055 1022 10219 8308 10220 10224 8083 8309 
1023 1056 1354 1057 8320 10225 10226 8315 8319 10227 
1320 1354 1321 1023 10228 10229 10005 10003 10226 9998 
1023 1056 1353 1354 8320 10230 10231 10226 10225 10232 
1320 1354 1023 1353 10228 10226 10003 10233 10232 10231 
1321 1023 1354 1024 9998 10226 10229 10000 8092 10234 
1354 1023 1057 1024 10226 8315 10227 10234 8092 8316 
1024 1057 1355 1058 8316 10235 10236 8325 8327 10237 
1321 1355 1322 1024 10238 10239 10013 10000 10236 10008 
1024 1057 1354 1355 8316 10227 10234 10236 10235 10240 
1321 1355 1024 1354 10238 10236 10000 10229 10240 10234 
1322 1024 1355 1025 10008 10236 10239 10010 8100 10241 
1355 1024 1058 1025 10236 8325 10237 10241 8100 8326 
1025 1058 1356 1059 8326 10242 10243 8332 8334 10244 
1322 1356 1323 1025 10245 10246 10020 10010 10243 10015 
1025 1058 1355 1356 8326 10237 10241 10243 10242 10247 
1322 1356 1025 1355 10245 10243 10010 10239 10247 10241 
1323 1025 1356 1026 10015 10243 10246 10017 8107 10248 
1356 1025 1059 1026 10243 8332 10244 10248 8107 8333 
1026 1059 1357 1060 8333 10249 10250 8339 8341 10251 
1323 1357 1324 1026 10252 10253 10027 10017 10250 10022 
1026 1059 1356 1357 8333 10244 10248 10250 10249 10254 
1323 1357 1026 1356 10252 10250 10017 10246 10254 10248 
1324 1026 1357 1027 10022 10250 10253 10024 8114 10255 
1357 1026 1060 1027 10250 8339 10251 10255 8114 8340 
1027 1060 1358 1061 8340 10256 10257 8346 8348 10258 
1324 1358 1325 1027 10259 10260 10034 10024 10257 10029 
1027 1060 1357 1358 8340 10251 10255 10257 10256 10261 
1324 1358 1027 1357 10259 10257 10024 10253 10261 10255 
1325 1027 1358 1028 10029 10257 10260 10031 8121 10262 
1358 1027 1061 1028 10257 8346 10258 10262 8121 8347 
1028 1061 1359 1062 8347 10263 10264 8353 8355 10265 
1325 1359 1326 1028 10266 10267 10041 10031 10264 10036 
1028 1061 1358 1359 8347 10258 10262 10264 10263 10268 
1325 1359 1028 1358 10266 10264 10031 10260 10268 10262 
1326 1028 1359 1029 10036 10264 10267 10038 8128 10269 
1359 1028 1062 1029 10264 8353 10265 10269 8128 8354 
1029 1062 1360 1063 8354 10270 10271 8360 8362 10272 
1326 1360 1327 1029 10273 10274 10048 10038 10271 10043 
1029 1062 1359 1360 8354 10265 10269 10271 10270 10275 
1326 1360 1029 1359 10273 10271 10038 10267 10275 10269 
1327 1029 1360 1030 10043 10271 10274 10045 8135 10276 
1360 1029 1063 1030 10271 8360 10272 10276 8135 8361 
1030 1063 1361 1064 8361 10277 10278 8367 8369 10279 
1327 1361 1328 1030 10280 10281 10055 10045 10278 10050 
1030 1063 1360 1361 8361 10272 10276 10278 10277 10282 
1327 1361 1030 1360 10280 10278 10045 10274 10282 10276 
1328 1030 1361 1031 10050 10278 10281 10052 8142 10283 
1361 1030 1064 1031 10278 8367 10279 10283 8142 8368 
1031 1064 1362 1065 8368 10284 10285 8374 8376 10286 
1328 1362 1329 1031 10287 10288 10062 10052 10285 10057 
1031 1064 1361 1362 8368 10279 10283 10285 10284 10289 
1328 1362 1031 1361 10287 10285 10052 10281 10289 10283 
1329 1031 1362 1032 10057 10285 10288 10059 8149 10290 
1362 1031 1065 1032 10285 8374 10286 10290 8149 8375 
1032 1065 1363 1066 8375 10291 10292 8381 8383 10293 
1329 1363 1330 1032 10294 10295 10069 10059 10292 10064 
1032 1065 1362 1363 8375 10286 10290 10292 10291 10296 
1329 1363 1032 1362 10294 10292 10059 10288 10296 10290 
1330 1032 1363 1033 10064 10292 10295 10066 8156 10297 
1363 1032 1066 1033 10292 8381 10293 10297 8156 8382 
1033 1066 1364 1067 8382 10298 10299 8388 8390 10300 
1330 1364 1331 1033 10301 10302 10076 10066 10299 10071 
1033 1066 1363 1364 8382 10293 10297 10299 10298 10303 
1330 1364 1033 1363 10301 10299 10066 10295 10303 10297 
1331 1033 1364 1034 10071 10299 10302 10073 8163 10304 
1364 1033 1067 1034 10299 8388 10300 10304 8163 8389 
1034 1067 1365 1068 8389 10305 10306 8395 8397 10307 
1331 1365 1332 1034 10308 10309 10083 10073 10306 10078 
1034 1067 1364 1365 8389 10300 10304 10306 10305 10310 
1331 1365 1034 1364 10308 10306 10073 10302 10310 10304 
1332 1034 1365 1035 10078 10306 10309 10080 8170 10311 
1365 1034 1068 1035 10306 8395 10307 10311 8170 8396 
1035 1068 1366 1069 8396 10312 10313 8402 8404 10314 
1332 1366 1333 1035 10315 10316 10090 10080 10313 10085 
1035 1068 1365 1366 8396 10307 10311 10313 10312 10317 
1332 1366 1035 1365 10315 10313 10080 10309 10317 10311 
1333 1035 1366 1036 10085 10313 10316 10087 8177 10318 
1366 1035 1069 1036 10313 8402 10314 10318 8177 8403 
1036 1069 1367 1070 8403 10319 10320 8409 8411 10321 
1333 1367 1334 1036 10322 10323 10097 10087 10320 10092 
1036 1069 1366 1367 8403 10314 10318 10320 10319 10324 
1333 1367 1036 1366 10322 10320 10087 10316 10324 10318 
1334 1036 1367 1037 10092 10320 10323 10094 8184 10325 
1367 1036 1070 1037 10320 8409 10321 10325 8184 8410 
1037 1070 1368 1071 8410 10326 10327 8416 8418 10328 
1334 1368 1335 1037 10329 10330 10104 10094 10327 10099 
1037 1070 1367 1368 8410 10321 10325 10327 10326 10331 
1334 1368 1037 1367 10329 10327 10094 10323 10331 10325 
1335 1037 1368 1038 10099 10327 10330 10101 8191 10332 
1368 1037 1071 1038 10327 8416 10328 10332 8191 8417 
1038 1071 1369 1072 8417 10333 10334 8423 8425 10335 
1335 1369 1336 1038 10336 10337 10111 10101 10334 10106 
1038 1071 1368 1369 8417 10328 10332 10334 10333 10338 
1335 1369 1038 1368 10336 10334 10101 10330 10338 10332 
1336 1038 1369 1039 10106 10334 10337 10108 8198 10339 
1369 1038 1072 1039 10334 8423 10335 10339 8198 8424 
1039 1072 1370 1073 8424 10340 10341 8430 8432 10342 
1336 1370 1337 1039 10343 10344 10118 10108 10341 10113 
1039 1072 1369 1370 8424 10335 10339 10341 10340 10345 
1336 1370 1039 1369 10343 10341 10108 10337 10345 10339 
1337 1039 1370 1040 10113 10341 10344 10115 8205 10346 
1370 1039 1073 1040 10341 8430 10342 10346 8205 8431 
1040 1073 1371 1074 8431 10347 10348 8437 8439 10349 
1337 1371 1338 1040 10350 10351 10125 10115 10348 10120 
1040 1073 1370 1371 8431 10342 10346 10348 10347 10352 
1337 1371 1040 1370 10350 10348 10115 10344 10352 10346 
1338 1040 1371 1041 10120 10348 10351 10122 8212 10353 
1371 1040 1074 1041 10348 8437 10349 10353 8212 8438 
1041 1074 1372 1075 8438 10354 10355 8444 8446 10356 
1338 1372 1339 1041 10357 10358 10132 10122 10355 10127 
1041 1074 1371 1372 8438 10349 10353 10355 10354 10359 
1338 1372 1041 1371 10357 10355 10122 10351 10359 10353 
1339 1041 1372 1042 10127 10355 10358 10129 8219 10360 
1372 1041 1075 1042 10355 8444 10356 10360 8219 8445 
1042 1075 1373 1076 8445 10361 10362 8451 8453 10363 
1339 1373 1340 1042 10364 10365 10139 10129 10362 10134 
1042 1075 1372 1373 8445 10356 10360 10362 10361 10366 
1339 1373 1042 1372 10364 10362 10129 10358 10366 10360 
1340 1042 1373 1043 10134 10362 10365 10136 8226 10367 
1373 1042 1076 1043 10362 8451 10363 10367 8226 8452 
1043 1076 1374 1077 8452 10368 10369 8458 8460 10370 
1340 1374 1341 1043 10371 10372 10146 10136 10369 10141 
1043 1076 1373 1374 8452 10363 10367 10369 10368 10373 
1340 1374 1043 1373 10371 10369 10136 10365 10373 10367 
1341 1043 1374 1044 10141 10369 10372 10143 8233 10374 
1374 1043 1077 1044 10369 8458 10370 10374 8233 8459 
1044 1077 1375 1078 8459 10375 10376 8465 8467 10377 
1341 1375 1342 1044 10378 10379 10153 10143 10376 10148 
1044 1077 1374 1375 8459 10370 10374 10376 10375 10380 
1341 1375 1044 1374 10378 10376 10143 10372 10380 10374 
1342 1044 1375 1045 10148 10376 10379 10150 8240 10381 
1375 1044 1078 1045 10376 8465 10377 10381 8240 8466 
1045 1078 1376 1079 8466 10382 10383 8472 8474 10384 
1342 1376 1343 1045 10385 10386 10160 10150 10383 10155 
1045 1078 1375 1376 8466 10377 10381 10383 10382 10387 
1342 1376 1045 1375 10385 10383 10150 10379 10387 10381 
1343 1045 1376 1046 10155 10383 10386 10157 8247 10388 
1376 1045 1079 1046 10383 8472 10384 10388 8247 8473 
1046 1079 1377 1080 8473 10389 10390 8479 8481 10391 
1343 1377 1344 1046 10392 10393 10167 10157 10390 10162 
1046 1079 1376 1377 8473 10384 10388 10390 10389 10394 
1343 1377 1046 1376 10392 10390 10157 10386 10394 10388 
1344 1046 1377 1047 10162 10390 10393 10164 8254 10395 
1377 1046 1080 1047 10390 8479 10391 10395 8254 8480 
1047 1080 1378 1081 8480 10396 10397 8486 8488 10398 
1344 1378 1345 1047 10399 10400 10174 10164 10397 10169 
1047 1080 1377 1378 8480 10391 10395 10397 10396 10401 
1344 1378 1047 1377 10399 10397 10164 10393 10401 10395 
1345 1047 1378 1048 10169 10397 10400 10171 8261 10402 
1378 1047 1081 1048 10397 8486 10398 10402 8261 8487 
1048 1081 1379 1082 8487 10403 10404 8493 8495 10405 
1345 1379 1346 1048 10406 10407 10181 10171 10404 10176 
1048 1081 1378 1379 8487 10398 10402 10404 10403 10408 
1345 1379 1048 1378 10406 10404 10171 10400 10408 10402 
1346 1048 1379 1049 10176 10404 10407 10178 8268 10409 
1379 1048 1082 1049 10404 8493 10405 10409 8268 8494 
1049 1082 1380 1083 8494 10410 10411 8500 8502 10412 
1346 1380 1347 1049 10413 10414 10188 10178 10411 10183 
1049 1082 1379 1380 8494 10405 10409 10411 10410 10415 
1346 1380 1049 1379 10413 10411 10178 10407 10415 10409 
1347 1049 1380 1050 10183 10411 10414 10185 8275 10416 
1380 1049 1083 1050 10411 8500 10412 10416 8275 8501 
1050 1083 1381 1084 8501 10417 10418 8507 8509 10419 
1347 1381 1348 1050 10420 10421 10195 10185 10418 10190 
1050 1083 1380 1381 8501 10412 10416 10418 10417 10422 
1347 1381 1050 1380 10420 10418 10185 10414 10422 10416 
1348 1050 1381 1051 10190 10418 10421 10192 8282 10423 
1381 1050 1084 1051 10418 8507 10419 10423 8282 8508 
1051 1084 1382 1085 8508 10424 10425 8514 8516 10426 
1348 1382 1349 1051 10427 10428 10202 10192 10425 10197 
1051 1084 1381 1382 8508 10419 10423 10425 10424 10429 
1348 1382 1051 1381 10427 10425 10192 10421 10429 10423 
1349 1051 1382 1052 10197 10425 10428 10199 8289 10430 
1382 1051 1085 1052 10425 8514 10426 10430 8289 8515 
1052 1085 1383 1086 8515 10431 10432 8521 8523 10433 
1349 1383 1350 1052 10434 10435 10209 10199 10432 10204 
1052 1085 1382 1383 8515 10426 10430 10432 10431 10436 
1349 1383 1052 1382 10434 10432 10199 10428 10436 10430 
1350 1052 1383 1053 10204 10432 10435 10206 8296 10437 
1383 1052 1086 1053 10432 8521 10433 10437 8296 8522 
1053 1086 1384 1087 8522 10438 10439 8528 8530 10440 
1350 1384 1351 1053 10441 10442 10216 10206 10439 10211 
1053 1086 1383 1384 8522 10433 10437 10439 10438 10443 
1350 1384 1053 1383 10441 10439 10206 10435 10443 10437 
1351 1053 1384 1054 10211 10439 10442 10213 8303 10444 
1384 1053 1087 1054 10439 8528 10440 10444 8303 8529 
1054 1087 1385 1088 8529 10445 10446 8535 8537 10447 
1351 1385 1352 1054 10448 10449 10223 10213 10446 10218 
1054 1087 1384 1385 8529 10440 10444 10446 10445 10450 
1351 1385 1054 1384 10448 10446 10213 10442 10450 10444 
1352 1054 1385 1055 10218 10446 10449 10220 8310 10451 
1385 1054 1088 1055 10446 8535 10447 10451 8310 8536 
1056 1089 1387 1090 8547 10452 10453 8542 8546 10454 
1353 1387 1354 1056 10455 10456 10232 10230 10453 10225 
1056 1089 1386 1387 8547 10457 10458 10453 10452 10459 
1353 1387 1056 1386 10455 10453 10230 10460 10459 10458 
1354 1056 1387 1057 10225 10453 10456 10227 8319 10461 
1387 1056 1090 1057 10453 8542 10454 10461 8319 8543 
1057 1090 1388 1091 8543 10462 10463 8552 8554 10464 
1354 1388 1355 1057 10465 10466 10240 10227 10463 10235 
1057 1090 1387 1388 8543 10454 10461 10463 10462 10467 
1354 1388 1057 1387 10465 10463 10227 10456 10467 10461 
1355 1057 1388 1058 10235 10463 10466 10237 8327 10468 
1388 1057 1091 1058 10463 8552 10464 10468 8327 8553 
1058 1091 1389 1092 8553 10469 10470 8559 8561 10471 
1355 1389 1356 1058 10472 10473 10247 10237 10470 10242 
1058 1091 1388 1389 8553 10464 10468 10470 10469 10474 
1355 1389 1058 1388 10472 10470 10237 10466 10474 10468 
1356 1058 1389 1059 10242 10470 10473 10244 8334 10475 
1389 1058 1092 1059 10470 8559 10471 10475 8334 8560 
1059 1092 1390 1093 8560 10476 10477 8566 8568 10478 
1356 1390 1357 1059 10479 10480 10254 10244 10477 10249 
1059 1092 1389 1390 8560 10471 10475 10477 10476 10481 
1356 1390 1059 1389 10479 10477 10244 10473 10481 10475 
1357 1059 1390 1060 10249 10477 10480 10251 8341 10482 
1390 1059 1093 1060 10477 8566 10478 10482 8341 8567 
1060 1093 1391 1094 8567 10483 10484 8573 8575 10485 
1357 1391 1358 1060 10486 10487 10261 10251 10484 10256 
1060 1093 1390 1391 8567 10478 10482 10484 10483 10488 
1357 1391 1060 1390 10486 10484 10251 10480 10488 10482 
1358 1060 1391 1061 10256 10484 10487 10258 8348 10489 
1391 1060 1094 1061 10484 8573 10485 10489 8348 8574 
1061 1094 1392 1095 8574 10490 10491 8580 8582 10492 
1358 1392 1359 1061 10493 10494 10268 10258 10491 10263 
1061 1094 1391 1392 8574 10485 10489 10491 10490 10495 
1358 1392 1061 1391 10493 10491 10258 10487 10495 10489 
1359 1061 1392 1062 10263 10491 10494 10265 8355 10496 
1392 1061 1095 1062 10491 8580 10492 10496 8355 8581 
1062 1095 1393 1096 8581 10497 10498 8587 8589 10499 
1359 1393 1360 1062 10500 10501 10275 10265 10498 10270 
1062 1095 1392 1393 8581 10492 10496 10498 10497 10502 
1359 1393 1062 1392 10500 10498 10265 10494 10502 10496 
1360 1062 1393 1063 10270 10498 10501 10272 8362 10503 
1393 1062 1096 1063 10498 8587 10499 10503 8362 8588 
1063 1096 1394 1097 8588 10504 10505 8594 8596 10506 
1360 1394 1361 1063 10507 10508 10282 10272 10505 10277 
1063 1096 1393 1394 8588 10499 10503 10505 10504 10509 
1360 1394 1063 1393 10507 10505 10272 10501 10509 10503 
1361 1063 1394 1064 10277 10505 10508 10279 8369 10510 
1394 1063 1097 1064 10505 8594 10506 10510 8369 8595 
1064 1097 1395 1098 8595 10511 10512 8601 8603 10513 
1361 1395 1362 1064 10514 10515 10289 10279 10512 10284 
1064 1097 1394 1395 8595 10506 10510 10512 10511 10516 
1361 1395 1064 1394 10514 10512 10279 10508 10516 10510 
1362 1064 1395 1065 10284 10512 10515 10286 8376 10517 
1395 1064 1098 1065 10512 8601 10513 10517 8376 8602 
1065 1098 1396 1099 8602 10518 10519 8608 8610 10520 
1362 1396 1363 1065 10521 10522 10296 10286 10519 10291 
1065 1098 1395 1396 8602 10513 10517 10519 10518 10523 
1362 1396 1065 1395 10521 10519 10286 10515 10523 10517 
1363 1065 1396 1066 10291 10519 10522 10293 8383 10524 
1396 1065 1099 1066 10519 8608 10520 10524 8383 8609 
1066 1099 1397 1100 8609 10525 10526 8615 8617 10527 
1363 1397 1364 1066 10528 10529 10303 10293 10526 10298 
1066 1099 1396 1397 8609 10520 10524 10526 10525 10530 
1363 1397 1066 1396 10528 10526 10293 10522 10530 10524 
1364 1066 1397 1067 10298 10526 10529 10300 8390 10531 
1397 1066 1100 1067 10526 8615 10527 10531 8390 8616 
1067 1100 1398 1101 8616 10532 10533 8622 8624 10534 
1364 1398 1365 1067 10535 10536 10310 10300 10533 10305 
1067 1100 1397 1398 8616 10527 10531 10533 10532 10537 
1364 1398 1067 1397 10535 10533 10300 10529 10537 10531 
1365 1067 1398 1068 10305 10533 10536 10307 8397 10538 
1398 1067 1101 1068 10533 8622 10534 10538 8397 8623 
1068 1101 1399 1102 8623 10539 10540 8629 8631 10541 
1365 1399 1366 1068 10542 10543 10317 10307 10540 10312 
1068 1101 1398 1399 8623 10534 10538 10540 10539 10544 
1365 1399 1068 1398 10542 10540 10307 10536 10544 10538 
1366 1068 1399 1069 10312 10540 10543 10314 8404 10545 
1399 1068 1102 1069 10540 8629 10541 10545 8404 8630 
1069 1102 1400 1103 8630 10546 10547 8636 8638 10548 
1366 1400 1367 1069 10549 10550 10324 10314 10547 10319 
1069 1102 1399 1400 8630 10541 10545 10547 10546 10551 
1366 1400 1069 1399 10549 10547 10314 10543 10551 10545 
1367 1069 1400 1070 10319 10547 10550 10321 8411 10552 
1400 1069 1103 1070 10547 8636 10548 10552 8411 8637 
1070 1103 1401 1104 8637 10553 10554 8643 8645 10555 
1367 1401 1368 1070 10556 10557 10331 10321 10554 10326 
1070 1103 1400 1401 8637 10548 10552 10554 10553 10558 
1367 1401 1070 1400 10556 10554 10321 10550 10558 10552 
1368 1070 1401 1071 10326 10554 10557 10328 8418 10559 
1401 1070 1104 1071 10554 8643 10555 10559 8418 8644 
1071 1104 1402 1105 8644 10560 10561 8650 8652 10562 
1368 1402 1369 1071 10563 10564 10338 10328 10561 10333 
1071 1104 1401 1402 8644 10555 10559 10561 10560 10565 
1368 1402 1071 1401 10563 10561 10328 10557 10565 10559 
1369 1071 1402 1072 10333 10561 10564 10335 8425 10566 
1402 1071 1105 1072 10561 8650 10562 10566 8425 8651 
1072 1105 1403 1106 8651 10567 10568 8657 8659 10569 
1369 1403 1370 1072 10570 10571 10345 10335 10568 10340 
1072 1105 1402 1403 8651 10562 10566 10568 10567 10572 
1369 1403 1072 1402 10570 10568 10335 10564 10572 10566 
1370 1072 1403 1073 10340 10568 10571 10342 8432 10573 
1403 1072 1106 1073 10568 8657 10569 10573 8432 8658 
1073 1106 1404 1107 8658 10574 10575 8664 8666 10576 
1370 1404 1371 1073 10577 10578 10352 10342 10575 10347 
1073 1106 1403 1404 8658 10569 10573 10575 10574 10579 
1370 1404 1073 1403 10577 10575 10342 10571 10579 10573 
1371 1073 1404 1074 10347 10575 10578 10349 8439 10580 
1404 1073 1107 1074 10575 8664 10576 10580 8439 8665 
1074 1107 1405 1108 8665 10581 10582 8671 8673 10583 
1371 1405 1372 1074 10584 10585 10359 10349 10582 10354 
1074 1107 1404 1405 8665 10576 10580 10582 10581 10586 
1371 1405 1074 1404 10584 10582 10349 10578 10586 10580 
1372 1074 1405 1075 10354 10582 10585 10356 8446 10587 
1405 1074 1108 1075 10582 8671 10583 10587 8446 8672 
1075 1108 1406 1109 8672 10588 10589 8678 8680 10590 
1372 1406 1373 1075 10591 10592 10366 10356 10589 10361 
1075 1108 1405 1406 8672 10583 10587 10589 10588 10593 
1372 1406 1075 1405 10591 10589 10356 10585 10593 10587 
1373 1075 1406 1076 10361 10589 10592 10363 8453 10594 
1406 1075 1109 1076 10589 8678 10590 10594 8453 8679 
1076 1109 1407 1110 8679 10595 10596 8685 8687 10597 
1373 1407 1374 1076 10598 10599 10373 10363 10596 10368 
1076 1109 1406 1407 8679 10590 10594 10596 10595 10600 
1373 1407 1076 1406 10598 10596 10363 10592 10600 10594 
1374 1076 1407 1077 10368 10596 10599 10370 8460 10601 
1407 1076 1110 1077 10596 8685 10597 10601 8460 8686 
1077 1110 1408 1111 8686 10602 10603 8692 8694 10604 
1374 1408 1375 1077 10605 10606 10380 10370 10603 10375 
1077 1110 1407 1408 8686 10597 10601 10603 10602 10607 
1374 1408 1077 1407 10605 10603 10370 10599 10607 10601 
1375 1077 1408 1078 10375 10603 10606 10377 8467 10608 
1408 1077 1111 1078 10603 8692 10604 10608 8467 8693 
1078 1111 1409 1112 8693 10609 10610 8699 8701 10611 
1375 1409 1376 1078 10612 10613 10387 10377 10610 10382 
1078 1111 1408 1409 8693 10604 10608 10610 10609 10614 
1375 1409 1078 1408 10612 10610 10377 10606 10614 10608 
1376 1078 1409 1079 10382 10610 10613 10384 8474 10615 
1409 1078 1112 1079 10610 8699 10611 10615 8474 8700 
1079 1112 1410 1113 8700 10616 10617 8706 8708 10618 
1376 1410 1377 1079 10619 10620 10394 10384 10617 10389 
1079 1112 1409 1410 8700 10611 10615 10617 10616 10621 
1376 1410 1079 1409 10619 10617 10384 10613 10621 10615 
1377 1079 1410 1080 10389 10617 10620 10391 8481 10622 
1410 1079 1113 1080 10617 8706 10618 10622 8481 8707 
1080 1113 1411 1114 8707 10623 10624 8713 8715 10625 
1377 1411 1378 1080 10626 10627 10401 10391 10624 10396 
1080 1113 1410 1411 8707 10618 10622 10624 10623 10628 
1377 1411 1080 1410 10626 10624 10391 10620 10628 10622 
1378 1080 1411 1081 10396 10624 10627 10398 8488 10629 
1411 1080 1114 1081 10624 8713 10625 10629 8488 8714 
1081 1114 1412 1115 8714 10630 10631 8720 8722 10632 
1378 1412 1379 1081 10633 10634 10408 10398 10631 10403 
1081 1114 1411 1412 8714 10625 10629 10631 10630 10635 
1378 1412 1081 1411 10633 10631 10398 10627 10635 10629 
1379 1081 1412 1082 10403 10631 10634 10405 8495 10636 
1412 1081 1115 1082 10631 8720 10632 10636 8495 8721 
1082 1115 1413 1116 8721 10637 10638 8727 8729 10639 
1379 1413 1380 1082 10640 10641 10415 10405 10638 10410 
1082 1115 1412 1413 8721 10632 10636 10638 10637 10642 
1379 1413 1082 1412 10640 10638 10405 10634 10642 10636 
1380 1082 1413 1083 10410 10638 10641 10412 8502 10643 
1413 1082 1116 1083 10638 8727 10639 10643 8502 8728 
1083 1116 1414 1117 8728 10644 10645 8734 8736 10646 
1380 1414 1381 1083 10647 10648 10422 10412 10645 10417 
1083 1116 1413 1414 8728 10639 10643 10645 10644 10649 
1380 1414 1083 1413 10647 10645 10412 10641 10649 10643 
1381 1083 1414 1084 10417 10645 10648 10419 8509 10650 
1414 1083 1117 1084 10645 8734 10646 10650 8509 8735 
1084 1117 1415 1118 8735 10651 10652 8741 8743 10653 
1381 1415 1382 1084 10654 10655 10429 10419 10652 10424 
1084 1117 1414 1415 8735 10646 10650 10652 10651 10656 
1381 1415 1084 1414 10654 10652 10419 10648 10656 10650 
1382 1084 1415 1085 10424 10652 10655 10426 8516 10657 
1415 1084 1118 1085 10652 8741 10653 10657 8516 8742 
1085 1118 1416 1119 8742 10658 10659 8748 8750 10660 
1382 1416 1383 1085 10661 10662 10436 10426 10659 10431 
1085 1118 1415 1416 8742 10653 10657 10659 10658 10663 
1382 1416 1085 1415 10661 10659 10426 10655 10663 10657 
1383 1085 1416 1086 10431 10659 10662 10433 8523 10664 
1416 1085 1119 1086 10659 8748 10660 10664 8523 8749 
1086 1119 1417 1120 8749 10665 10666 8755 8757 10667 
1383 1417 1384 1086 10668 10669 10443 10433 10666 10438 
1086 1119 1416 1417 8749 10660 10664 10666 10665 10670 
1383 1417 1086 1416 10668 10666 10433 10662 10670 10664 
1384 1086 1417 1087 10438 10666 10669 10440 8530 10671 
1417 1086 1120 1087 10666 8755 10667 10671 8530 8756 
1087 1120 1418 1121 8756 10672 10673 8762 8764 10674 
1384 1418 1385 1087 10675 10676 10450 10440 10673 10445 
1087 1120 1417 1418 8756 10667 10671 10673 10672 10677 
1384 1418 1087 1417 10675 10673 10440 10669 10677 10671 
1385 1087 1418 1088 10445 10673 10676 10447 8537 10678 
1418 1087 1121 1088 10673 8762 10674 10678 8537 8763 
1089 1122 1420 1123 8774 10679 10680 8769 8773 10681 
1386 1420 1387 1089 10682 10683 10459 10457 10680 10452 
1089 1122 1419 1420 8774 10684 10685 10680 10679 10686 
1386 1420 1089 1419 10682 10680 10457 10687 10686 10685 
1387 1089 1420 1090 10452 10680 10683 10454 8546 10688 
1420 1089 1123 1090 10680 8769 10681 10688 8546 8770 
1090 1123 1421 1124 8770 10689 10690 8779 8781 10691 
1387 1421 1388 1090 10692 10693 10467 10454 10690 10462 
1090 1123 1420 1421 8770 10681 10688 10690 10689 10694 
1387 1421 1090 1420 10692 10690 10454 10683 10694 10688 
1388 1090 1421 1091 10462 10690 10693 10464 8554 10695 
1421 1090 1124 1091 10690 8779 10691 10695 8554 8780 
1091 1124 1422 1125 8780 10696 10697 8786 8788 10698 
1388 1422 1389 1091 10699 10700 10474 10464 10697 10469 
1091 1124 1421 1422 8780 10691 10695 10697 10696 10701 
1388 1422 1091 1421 10699 10697 10464 10693 10701 10695 
1389 1091 1422 1092 10469 10697 10700 10471 8561 10702 
1422 1091 1125 1092 10697 8786 10698 10702 8561 8787 
1092 1125 1423 1126 8787 10703 10704 8793 8795 10705 
1389 1423 1390 1092 10706 10707 10481 10471 10704 10476 
1092 1125 1422 1423 8787 10698 10702 10704 10703 10708 
1389 1423 1092 1422 10706 10704 10471 10700 10708 10702 
1390 1092 1423 1093 10476 10704 10707 10478 8568 10709 
1423 1092 1126 1093 10704 8793 10705 10709 8568 8794 
1093 1126 1424 1127 8794 10710 10711 8800 8802 10712 
1390 1424 1391 1093 10713 10714 10488 10478 10711 10483 
1093 1126 1423 1424 8794 10705 10709 10711 10710 10715 
1390 1424 1093 1423 10713 10711 10478 10707 10715 10709 
1391 1093 1424 1094 10483 10711 10714 10485 8575 10716 
1424 1093 1127 1094 10711 8800 10712 10716 8575 8801 
1094 1127 1425 1128 8801 10717 10718 8807 8809 10719 
1391 1425 1392 1094 10720 10721 10495 10485 10718 10490 
1094 1127 1424 1425 8801 10712 10716 10718 10717 10722 
1391 1425 1094 1424 10720 10718 10485 10714 10722 10716 
1392 1094 1425 1095 10490 10718 10721 10492 8582 10723 
1425 1094 1128 1095 10718 8807 10719 10723 8582 8808 
1095 1128 1426 1129 8808 10724 10725 8814 8816 10726 
1392 1426 1393 1095 10727 10728 10502 10492 10725 10497 
1095 1128 1425 1426 8808 10719 10723 10725 10724 10729 
1392 1426 1095 1425 10727 10725 10492 10721 10729 10723 
1393 1095 1426 1096 10497 10725 10728 10499 8589 10730 
1426 1095 1129 1096 10725 8814 10726 10730 8589 8815 
1096 1129 1427 1130 8815 10731 10732 8821 8823 10733 
1393 1427 1394 1096 10734 10735 10509 10499 10732 10504 
1096 1129 1426 1427 8815 10726 10730 10732 10731 10736 
1393 1427 1096 1426 10734 10732 10499 10728 10736 10730 
1394 1096 1427 1097 10504 10732 10735 10506 8596 10737 
1427 1096 1130 1097 10732 8821 10733 10737 8596 8822 
1097 1130 1428 1131 8822 10738 10739 8828 8830 10740 
1394 1428 1395 1097 10741 10742 10516 10506 10739 10511 
1097 1130 1427 1428 8822 10733 10737 10739 10738 10743 
1394 1428 1097 1427 10741 10739 10506 10735 10743 10737 
1395 1097 1428 1098 10511 10739 10742 10513 8603 10744 
1428 1097 1131 1098 10739 8828 10740 10744 8603 8829 
1098 1131 1429 1132 8829 10745 10746 8835 8837 10747 
1395 1429 1396 1098 10748 10749 10523 10513 10746 10518 
1098 1131 1428 1429 8829 10740 10744 10746 10745 10750 
1395 1429 1098 1428 10748 10746 10513 10742 10750 10744 
1396 1098 1429 1099 10518 10746 10749 10520 8610 10751 
1429 1098 1132 1099 10746 8835 10747 10751 8610 8836 
1099 1132 1430 1133 8836 10752 10753 8842 8844 10754 
1396 1430 1397 1099 10755 10756 10530 10520 10753 10525 
1099 1132 1429 1430 8836 10747 10751 10753 10752 10757 
1396 1430 1099 1429 10755 10753 10520 10749 10757 10751 
1397 1099 1430 1100 10525 10753 10756 10527 8617 10758 
1430 1099 1133 1100 10753 8842 10754 10758 8617 8843 
1100 1133 1431 1134 8843 10759 10760 8849 8851 10761 
1397 1431 1398 1100 10762 10763 10537 10527 10760 10532 
1100 1133 1430 1431 8843 10754 10758 10760 10759 10764 
1397 1431 1100 1430 10762 10760 10527 10756 10764 10758 
1398 1100 1431 1101 10532 10760 10763 10534 8624 10765 
1431 1100 1134 1101 10760 8849 10761 10765 8624 8850 
1101 1134 1432 1135 8850 10766 10767 8856 8858 10768 
1398 1432 1399 1101 10769 10770 10544 10534 10767 10539 
1101 1134 1431 1432 8850 10761 10765 10767 10766 10771 
1398 1432 1101 1431 10769 10767 10534 10763 10771 10765 
1399 1101 1432 1102 10539 10767 10770 10541 8631 10772 
1432 1101 1135 1102 10767 8856 10768 10772 8631 8857 
1102 1135 1433 1136 8857 10773 10774 8863 8865 10775 
1399 1433 1400 1102 10776 10777 10551 10541 10774 10546 
1102 1135 1432 1433 8857 10768 10772 10774 10773 10778 
1399 1433 1102 1432 10776 10774 10541 10770 10778 10772 
1400 1102 1433 1103 10546 10774 10777 10548 8638 10779 
1433 1102 1136 1103 10774 8863 10775 10779 8638 8864 
1103 1136 1434 1137 8864 10780 10781 8870 8872 10782 
1400 1434 1401 1103 10783 10784 10558 10548 10781 10553 
1103 1136 1433 1434 8864 10775 10779 10781 10780 10785 
1400 1434 1103 1433 10783 10781 10548 10777 10785 10779 
1401 1103 1434 1104 10553 10781 10784 10555 8645 10786 
1434 1103 1137 1104 10781 8870 10782 10786 8645 8871 
1104 1137 1435 1138 8871 10787 10788 8877 8879 10789 
1401 1435 1402 1104 10790 10791 10565 10555 10788 10560 
1104 1137 1434 1435 8871 10782 10786 10788 10787 10792 
1401 1435 1104 1434 10790 10788 10555 10784 10792 10786 
1402 1104 1435 1105 10560 10788 10791 10562 8652 10793 
1435 1104 1138 1105 10788 8877 10789 10793 8652 8878 
1105 1138 1436 1139 8878 10794 10795 8884 8886 10796 
1402 1436 1403 1105 10797 10798 10572 10562 10795 10567 
1105 1138 1435 1436 8878 10789 10793 10795 10794 10799 
1402 1436 1105 1435 10797 10795 10562 10791 10799 10793 
1403 1105 1436 1106 10567 10795 10798 10569 8659 10800 
1436 1105 1139 1106 10795 8884 10796 10800 8659 8885 
1106 1139 1437 1140 8885 10801 10802 8891 8893 10803 
1403 1437 1404 1106 10804 10805 10579 10569 10802 10574 
1106 1139 1436 1437 8885 10796 10800 10802 10801 10806 
1403 1437 1106 1436 10804 10802 10569 10798 10806 10800 
1404 1106 1437 1107 10574 10802 10805 10576 8666 10807 
1437 1106 1140 1107 10802 8891 10803 10807 8666 8892 
1107 1140 1438 1141 8892 10808 10809 8898 8900 10810 
1404 1438 1405 1107 10811 10812 10586 10576 10809 10581 
1107 1140 1437 1438 8892 10803 10807 10809 10808 10813 
1404 1438 1107 1437 10811 10809 10576 10805 10813 10807 
1405 1107 1438 1108 10581 10809 10812 10583 8673 10814 
1438 1107 1141 1108 10809 8898 10810 10814 8673 8899 
1108 1141 1439 1142 8899 10815 10816 8905 8907 10817 
1405 1439 1406 1108 10818 10819 10593 10583 10816 10588 
1108 1141 1438 1439 8899 10810 10814 10816 10815 10820 
1405 1439 1108 1438 10818 10816 10583 10812 10820 10814 
1406 1108 1439 1109 10588 10816 10819 10590 8680 10821 
1439 1108 1142 1109 10816 8905 10817 10821 8680 8906 
1109 1142 1440 1143 8906 10822 10823 8912 8914 10824 
1406 1440 1407 1109 10825 10826 10600 10590 10823 10595 
1109 1142 1439 1440 8906 10817 10821 10823 10822 10827 
1406 1440 1109 1439 10825 10823 10590 10819 10827 10821 
1407 1109 1440 1110 10595 10823 10826 10597 8687 10828 
1440 1109 1143 1110 10823 8912 10824 10828 8687 8913 
1110 1143 1441 1144 8913 10829 10830 8919 8921 10831 
1407 1441 1408 1110 10832 10833 10607 10597 10830 10602 
1110 1143 1440 1441 8913 10824 10828 10830 10829 10834 
1407 1441 1110 1440 10832 10830 10597 10826 10834 10828 
1408 1110 1441 1111 10602 10830 10833 10604 8694 10835 
1441 1110 1144 1111 10830 8919 10831 10835 8694 8920 
1111 1144 1442 1145 8920 10836 10837 8926 8928 10838 
1408 1442 1409 1111 10839 10840 10614 10604 10837 10609 
1111 1144 1441 1442 8920 10831 10835 10837 10836 10841 
1408 1442 1111 1441 10839 10837 10604 10833 10841 10835 
1409 1111 1442 1112 10609 10837 10840 10611 8701 10842 
1442 1111 1145 1112 10837 8926 10838 10842 8701 8927 
1112 1145 1443 1146 8927 10843 10844 8933 8935 10845 
1409 1443 1410 1112 10846 10847 10621 10611 10844 10616 
1112 1145 1442 1443 8927 10838 10842 10844 10843 10848 
1409 1443 1112 1442 10846 10844 10611 10840 10848 10842 
1410 1112 1443 1113 10616 10844 10847 10618 8708 10849 
1443 1112 1146 1113 10844 8933 10845 10849 8708 8934 
1113 1146 1444 1147 8934 10850 10851 8940 8942 10852 
1410 1444 1411 1113 10853 10854 10628 10618 10851 10623 
1113 1146 1443 1444 8934 10845 10849 10851 10850 10855 
1410 1444 1113 1443 10853 10851 10618 10847 10855 10849 
1411 1113 1444 1114 10623 10851 10854 10625 8715 10856 
1444 1113 1147 1114 10851 8940 10852 10856 8715 8941 
1114 1147 1445 1148 8941 10857 10858 8947 8949 10859 
1411 1445 1412 1114 10860 10861 10635 10625 10858 10630 
1114 1147 1444 1445 8941 10852 10856 10858 10857 10862 
1411 1445 1114 1444 10860 10858 10625 10854 10862 10856 
1412 1114 1445 1115 10630 10858 10861 10632 8722 10863 
1445 1114 1148 1115 10858 8947 10859 10863 8722 8948 
1115 1148 1446 1149 8948 10864 10865 8954 8956 10866 
1412 1446 1413 1115 10867 10868 10642 10632 10865 10637 
1115 1148 1445 1446 8948 10859 10863 10865 10864 10869 
1412 1446 1115 1445 10867 10865 10632 10861 10869 10863 
1413 1115 1446 1116 10637 10865 10868 10639 8729 10870 
1446 1115 1149 1116 10865 8954 10866 10870 8729 8955 
1116 1149 1447 1150 8955 10871 10872 8961 8963 10873 
1413 1447 1414 1116 10874 10875 10649 10639 10872 10644 
1116 1149 1446 1447 8955 10866 10870 10872 10871 10876 
1413 1447 1116 1446 10874 10872 10639 10868 10876 10870 
1414 1116 1447 1117 10644 10872 10875 10646 8736 10877 
1447 1116 1150 1117 10872 8961 10873 10877 8736 8962 
1117 1150 1448 1151 8962 10878 10879 8968 8970 10880 
1414 1448 1415 1117 10881 10882 10656 10646 10879 10651 
1117 1150 1447 1448 8962 10873 10877 10879 10878 10883 
1414 1448 1117 1447 10881 10879 10646 10875 10883 10877 
1415 1117 1448 1118 10651 10879 10882 10653 8743 10884 
1448 1117 1151 1118 10879 8968 10880 10884 8743 8969 
1118 1151 1449 1152 8969 10885 10886 8975 8977 10887 
1415 1449 1416 1118 10888 10889 10663 10653 10886 10658 
1118 1151 1448 1449 8969 10880 10884 10886 10885 10890 
1415 1449 1118 1448 10888 10886 10653 10882 10890 10884 
1416 1118 1449 1119 10658 10886 10889 10660 8750 10891 
1449 1118 1152 1119 10886 8975 10887 10891 8750 8976 
1119 1152 1450 1153 8976 10892 10893 8982 8984 10894 
1416 1450 1417 1119 10895 10896 10670 10660 10893 10665 
1119 1152 1449 1450 8976 10887 10891 10893 10892 10897 
1416 1450 1119 1449 10895 10893 10660 10889 10897 10891 
1417 1119 1450 1120 10665 10893 10896 10667 8757 10898 
1450 1119 1153 1120 10893 8982 10894 10898 8757 8983 
1120 1153 1451 1154 8983 10899 10900 8989 8991 10901 
1417 1451 1418 1120 10902 10903 10677 10667 10900 10672 
1120 1153 1450 1451 8983 10894 10898 10900 10899 10904 
1417 1451 1120 1450 10902 10900 10667 10896 10904 10898 
1418 1120 1451 1121 10672 10900 10903 10674 8764 10905 
1451 1120 1154 1121 10900 8989 10901 10905 8764 8990 
1122 1155 1453 1156 9001 10906 10907 8996 9000 10908 
1419 1453 1420 1122 10909 10910 10686 10684 10907 10679 
1122 1155 1452 1453 9001 10911 10912 10907 10906 10913 
1419 1453 1122 1452 10909 10907 10684 10914 10913 10912 
1420 1122 1453 1123 10679 10907 10910 10681 8773 10915 
1453 1122 1156 1123 10907 8996 10908 10915 8773 8997 
1123 1156 1454 1157 8997 10916 10917 9006 9008 10918 
1420 1454 1421 1123 10919 10920 10694 10681 10917 10689 
1123 1156 1453 1454 8997 10908 10915 10917 10916 10921 
1420 1454 1123 1453 10919 10917 10681 10910 10921 10915 
1421 1123 1454 1124 10689 10917 10920 10691 8781 10922 
1454 1123 1157 1124 10917 9006 10918 10922 8781 9007 
1124 1157 1455 1158 9007 10923 10924 9013 9015 10925 
1421 1455 1422 1124 10926 10927 10701 10691 10924 10696 
1124 1157 1454 1455 9007 10918 10922 10924 10923 10928 
1421 1455 1124 1454 10926 10924 10691 10920 10928 10922 
1422 1124 1455 1125 10696 10924 10927 10698 8788 10929 
1455 1124 1158 1125 10924 9013 10925 10929 8788 9014 
1125 1158 1456 1159 9014 10930 10931 9020 9022 10932 
1422 1456 1423 1125 10933 10934 10708 10698 10931 10703 
1125 1158 1455 1456 9014 10925 10929 10931 10930 10935 
1422 1456 1125 1455 10933 10931 10698 10927 10935 10929 
1423 1125 1456 1126 10703 10931 10934 10705 8795 10936 
1456 1125 1159 1126 10931 9020 10932 10936 8795 9021 
1126 1159 1457 1160 9021 10937 10938 9027 9029 10939 
1423 1457 1424 1126 10940 10941 10715 10705 10938 10710 
1126 1159 1456 1457 9021 10932 10936 10938 10937 10942 
1423 1457 1126 1456 10940 10938 10705 10934 10942 10936 
1424 1126 1457 1127 10710 10938 10941 10712 8802 10943 
1457 1126 1160 1127 10938 9027 10939 10943 8802 9028 
1127 1160 1458 1161 9028 10944 10945 9034 9036 10946 
1424 1458 1425 1127 10947 10948 10722 10712 10945 10717 
1127 1160 1457 1458 9028 10939 10943 10945 10944 10949 
1424 1458 1127 1457 10947 10945 10712 10941 10949 10943 
1425 1127 1458 1128 10717 10945 10948 10719 8809 10950 
1458 1127 1161 1128 10945 9034 10946 10950 8809 9035 
1128 1161 1459 1162 9035 10951 10952 9041 9043 10953 
1425 1459 1426 1128 10954 10955 10729 10719 10952 10724 
1128 1161 1458 1459 9035 10946 10950 10952 10951 10956 
1425 1459 1128 1458 10954 10952 10719 10948 10956 10950 
1426 1128 1459 1129 10724 10952 10955 10726 8816 10957 
1459 1128 1162 1129 10952 9041 10953 10957 8816 9042 
1129 1162 1460 1163 9042 10958 10959 9048 9050 10960 
1426 1460 1427 1129 10961 10962 10736 10726 10959 10731 
1129 1162 1459 1460 9042 10953 10957 10959 10958 10963 
1426 1460 1129 1459 10961 10959 10726 10955 10963 10957 
1427 1129 1460 1130 10731 10959 10962 10733 8823 10964 
1460 1129 1163 1130 10959 9048 10960 10964 8823 9049 
1130 1163 1461 1164 9049 10965 10966 9055 9057 10967 
1427 1461 1428 1130 10968 10969 10743 10733 10966 10738 
1130 1163 1460 1461 9049 10960 10964 10966 10965 10970 
1427 1461 1130 1460 10968 10966 10733 10962 10970 10964 
1428 1130 1461 1131 10738 10966 10969 10740 8830 10971 
1461 1130 1164 1131 10966 9055 10967 10971 8830 9056 
1131 1164 1462 1165 9056 10972 10973 9062 9064 10974 
1428 1462 1429 1131 10975 10976 10750 10740 10973 10745 
1131 1164 1461 1462 9056 10967 10971 10973 10972 10977 
1428 1462 1131 1461 10975 10973 10740 10969 10977 10971 
1429 1131 1462 1132 10745 10973 10976 10747 8837 10978 
1462 1131 1165 1132 10973 9062 10974 10978 8837 9063 
1132 1165 1463 1166 9063 10979 10980 9069 9071 10981 
1429 1463 1430 1132 10982 10983 10757 10747 10980 10752 
1132 1165 1462 1463 9063 10974 10978 10980 10979 10984 
1429 1463 1132 1462 10982 10980 10747 10976 10984 10978 
1430 1132 1463 1133 10752 10980 10983 10754 8844 10985 
1463 1132 1166 1133 10980 9069 10981 10985 8844 9070 
1133 1166 1464 1167 9070 10986 10987 9076 9078 10988 
1430 1464 1431 1133 10989 10990 10764 10754 10987 10759 
1133 1166 1463 1464 9070 10981 10985 10987 10986 10991 
1430 1464 1133 1463 10989 10987 10754 10983 10991 10985 
1431 1133 1464 1134 10759 10987 10990 10761 8851 10992 
1464 1133 1167 1134 10987 9076 10988 10992 8851 9077 
1134 1167 1465 1168 9077 10993 10994 9083 9085 10995 
1431 1465 1432 1134 10996 10997 10771 10761 10994 10766 
1134 1167 1464 1465 9077 10988 10992 10994 10993 10998 
1431 1465 1134 1464 10996 10994 10761 10990 10998 10992 
1432 1134 1465 1135 10766 10994 10997 10768 8858 10999 
1465 1134 1168 1135 10994 9083 10995 10999 8858 9084 
1135 1168 1466 1169 9084 11000 11001 9090 9092 11002 
1432 1466 1433 1135 11003 11004 10778 10768 11001 10773 
1135 1168 1465 1466 9084 10995 10999 11001 11000 11005 
1432 1466 1135 1465 11003 11001 10768 10997 11005 10999 
1433 1135 1466 1136 10773 11001 11004 10775 8865 11006 
1466 1135 1169 1136 11001 9090 11002 11006 8865 9091 
1136 1169 1467 1170 9091 11007 11008 9097 9099 11009 
1433 1467 1434 1136 11010 11011 10785 10775 11008 10780 
1136 1169 1466 1467 9091 11002 11006 11008 11007 11012 
1433 1467 1136 1466 11010 11008 10775 11004 11012 11006 
1434 1136 1467 1137 10780 11008 11011 10782 8872 11013 
1467 1136 1170 1137 11008 9097 11009 11013 8872 9098 
1137 1170 1468 1171 9098 11014 11015 9104 9106 11016 
1434 1468 1435 1137 11017 11018 10792 10782 11015 10787 
1137 1170 1467 1468 9098 11009 11013 11015 11014 11019 
1434 1468 1137 1467 11017 11015 10782 11011 11019 11013 
1435 1137 1468 1138 10787 11015 11018 10789 8879 11020 
1468 1137 1171 1138 11015 9104 11016 11020 8879 9105 
1138 1171 1469 1172 9105 11021 11022 9111 9113 11023 
1435 1469 1436 1138 11024 11025 10799 10789 11022 10794 
1138 1171 1468 1469 9105 11016 11020 11022 11021 11026 
1435 1469 1138 1468 11024 11022 10789 11018 11026 11020 
1436 1138 1469 1139 10794 11022 11025 10796 8886 11027 
1469 1138 1172 1139 11022 9111 11023 11027 8886 9112 
1139 1172 1470 1173 9112 11028 11029 9118 9120 11030 
1436 1470 1437 1139 11031 11032 10806 10796 11029 10801 
1139 1172 1469 1470 9112 11023 11027 11029 11028 11033 
1436 1470 1139 1469 11031 11029 10796 11025 11033 11027 
1437 1139 1470 1140 10801 11029 11032 10803 8893 11034 
1470 1139 1173 1140 11029 9118 11030 11034 8893 9119 
1140 1173 1471 1174 9119 11035 11036 9125 9127 11037 
1437 1471 1438 1140 11038 11039 10813 10803 11036 10808 
1140 1173 1470 1471 9119 11030 11034 11036 11035 11040 
1437 1471 1140 1470 11038 11036 10803 11032 11040 11034 
1438 1140 1471 1141 10808 11036 11039 10810 8900 11041 
1471 1140 1174 1141 11036 9125 11037 11041 8900 9126 
1141 1174 1472 1175 9126 11042 11043 9132 9134 11044 
1438 1472 1439 1141 11045 11046 10820 10810 11043 10815 
1141 1174 1471 1472 9126 11037 11041 11043 11042 11047 
1438 1472 1141 1471 11045 11043 10810 11039 11047 11041 
1439 1141 1472 1142 10815 11043 11046 10817 8907 11048 
1472 1141 1175 1142 11043 9132 11044 11048 8907 9133 
1142 1175 1473 1176 9133 11049 11050 9139 9141 11051 
1439 1473 1440 1142 11052 11053 10827 10817 11050 10822 
1142 1175 1472 1473 9133 11044 11048 11050 11049 11054 
1439 1473 1142 1472 11052 11050 10817 11046 11054 11048 
1440 1142 1473 1143 10822 11050 11053 10824 8914 11055 
1473 1142 1176 1143 11050 9139 11051 11055 8914 9140 
1143 1176 1474 1177 9140 11056 11057 9146 9148 11058 
1440 1474 1441 1143 11059 11060 10834 10824 11057 10829 
1143 1176 1473 1474 9140 11051 11055 11057 11056 11061 
1440 1474 1143 1473 11059 11057 10824 11053 11061 11055 
1441 1143 1474 1144 10829 11057 11060 10831 8921 11062 
1474 1143 1177 1144 11057 9146 11058 11062 8921 9147 
1144 1177 1475 1178 9147 11063 11064 9153 9155 11065 
1441 1475 1442 1144 11066 11067 10841 10831 11064 10836 
1144 1177 1474 1475 9147 11058 11062 11064 11063 11068 
1441 1475 1144 1474 11066 11064 10831 11060 11068 11062 
1442 1144 1475 1145 10836 11064 11067 10838 8928 11069 
1475 1144 1178 1145 11064 9153 11065 11069 8928 9154 
1145 1178 1476 1179 9154 11070 11071 9160 9162 11072 
1442 1476 1443 1145 11073 11074 10848 10838 11071 10843 
1145 1178 1475 1476 9154 11065 11069 11071 11070 11075 
1442 1476 1145 1475 11073 11071 10838 11067 11075 11069 
1443 1145 1476 1146 10843 11071 11074 10845 8935 11076 
1476 1145 1179 1146 11071 9160 11072 11076 8935 9161 
1146 1179 1477 1180 9161 11077 11078 9167 9169 11079 
1443 1477 1444 1146 11080 11081 10855 10845 11078 10850 
1146 1179 1476 1477 9161 11072 11076 11078 11077 11082 
1443 1477 1146 1476 11080 11078 10845 11074 11082 11076 
1444 1146 1477 1147 10850 11078 11081 10852 8942 11083 
1477 1146 1180 1147 11078 9167 11079 11083 8942 9168 
1147 1180 1478 1181 9168 11084 11085 9174 9176 11086 
1444 1478 1445 1147 11087 11088 10862 10852 11085 10857 
1147 1180 1477 1478 9168 11079 11083 11085 11084 11089 
1444 1478 1147 1477 11087 11085 10852 11081 11089 11083 
1445 1147 1478 1148 10857 11085 11088 10859 8949 11090 
1478 1147 1181 1148 11085 9174 11086 11090 8949 9175 
1148 1181 1479 1182 9175 11091 11092 9181 9183 11093 
1445 1479 1446 1148 11094 11095 10869 10859 11092 10864 
1148 1181 1478 1479 9175 11086 11090 11092 11091 11096 
1445 1479 1148 1478 11094 11092 10859 11088 11096 11090 
1446 1148 1479 1149 10864 11092 11095 10866 8956 11097 
1479 1148 1182 1149 11092 9181 11093 11097 8956 9182 
1149 1182 1480 1183 9182 11098 11099 9188 9190 11100 
1446 1480 1447 1149 11101 11102 10876 10866 11099 10871 
1149 1182 1479 1480 9182 11093 11097 11099 11098 11103 
1446 1480 1149 1479 11101 11099 10866 11095 11103 11097 
1447 1149 1480 1150 10871 11099 11102 10873 8963 11104 
1480 1149 1183 1150 11099 9188 11100 11104 8963 9189 
1150 1183 1481 1184 9189 11105 11106 9195 9197 11107 
1447 1481 1448 1150 11108 11109 10883 10873 11106 10878 
1150 1183 1480 1481 9189 11100 11104 11106 11105 11110 
1447 1481 1150 1480 11108 11106 10873 11102 11110 11104 
1448 1150 1481 1151 10878 11106 11109 10880 8970 11111 
1481 1150 1184 1151 11106 9195 11107 11111 8970 9196 
1151 1184 1482 1185 9196 11112 11113 9202 9204 11114 
1448 1482 1449 1151 11115 11116 10890 10880 11113 10885 
1151 1184 1481 1482 9196 11107 11111 11113 11112 11117 
1448 1482 1151 1481 11115 11113 10880 11109 11117 11111 
1449 1151 1482 1152 10885 11113 11116 10887 8977 11118 
1482 1151 1185 1152 11113 9202 11114 11118 8977 9203 
1152 1185 1483 1186 9203 11119 11120 9209 9211 11121 
1449 1483 1450 1152 11122 11123 10897 10887 11120 10892 
1152 1185 1482 1483 9203 11114 11118 11120 11119 11124 
1449 1483 1152 1482 11122 11120 10887 11116 11124 11118 
1450 1152 1483 1153 10892 11120 11123 10894 8984 11125 
1483 1152 1186 1153 11120 9209 11121 11125 8984 9210 
1153 1186 1484 1187 9210 11126 11127 9216 9218 11128 
1450 1484 1451 1153 11129 11130 10904 10894 11127 10899 
1153 1186 1483 1484 9210 11121 11125 11127 11126 11131 
1450 1484 1153 1483 11129 11127 10894 11123 11131 11125 
1451 1153 1484 1154 10899 11127 11130 10901 8991 11132 
1484 1153 1187 1154 11127 9216 11128 11132 8991 9217 
1188 1221 1519 1222 9231 11133 11134 9223 9230 11135 
1485 1519 1486 1188 11136 11137 11138 11139 11134 11140 
1188 1221 1518 1519 9231 11141 11142 11134 11133 11143 
1485 1519 1188 1518 11136 11134 11139 11144 11143 11142 
1486 1188 1519 1189 11140 11134 11137 11145 9225 11146 
1519 1188 1222 1189 11134 9223 11135 11146 9225 9224 
1189 1222 1520 1223 9224 11147 11148 9237 9241 11149 
1486 1520 1487 1189 11150 11151 11152 11145 11148 11153 
1189 1222 1519 1520 9224 11135 11146 11148 11147 11154 
1486 1520 1189 1519 11150 11148 11145 11137 11154 11146 
1487 1189 1520 1190 11153 11148 11151 11155 9239 11156 
1520 1189 1223 1190 11148 9237 11149 11156 9239 9238 
1190 1223 1521 1224 9238 11157 11158 9247 9251 11159 
1487 1521 1488 1190 11160 11161 11162 11155 11158 11163 
1190 1223 1520 1521 9238 11149 11156 11158 11157 11164 
1487 1521 1190 1520 11160 11158 11155 11151 11164 11156 
1488 1190 1521 1191 11163 11158 11161 11165 9249 11166 
1521 1190 1224 1191 11158 9247 11159 11166 9249 9248 
1191 1224 1522 1225 9248 11167 11168 9257 9261 11169 
1488 1522 1489 1191 11170 11171 11172 11165 11168 11173 
1191 1224 1521 1522 9248 11159 11166 11168 11167 11174 
1488 1522 1191 1521 11170 11168 11165 11161 11174 11166 
1489 1191 1522 1192 11173 11168 11171 11175 9259 11176 
1522 1191 1225 1192 11168 9257 11169 11176 9259 9258 
1192 1225 1523 1226 9258 11177 11178 9267 9271 11179 
1489 1523 1490 1192 11180 11181 11182 11175 11178 11183 
1192 1225 1522 1523 9258 11169 11176 11178 11177 11184 
1489 1523 1192 1522 11180 11178 11175 11171 11184 11176 
1490 1192 1523 1193 11183 11178 11181 11185 9269 11186 
1523 1192 1226 1193 11178 9267 11179 11186 9269 9268 
1193 1226 1524 1227 9268 11187 11188 9277 9281 11189 
1490 1524 1491 1193 11190 11191 11192 11185 11188 11193 
1193 1226 1523 1524 9268 11179 11186 11188 11187 11194 
1490 1524 1193 1523 11190 11188 11185 11181 11194 11186 
1491 1193 1524 1194 11193 11188 11191 11195 9279 11196 
1524 1193 1227 1194 11188 9277 11189 11196 9279 9278 
1194 1227 1525 1228 9278 11197 11198 9287 9291 11199 
1491 1525 1492 1194 11200 11201 11202 11195 11198 11203 
1194 1227 1524 1525 9278 11189 11196 11198 11197 11204 
1491 1525 1194 1524 11200 11198 11195 11191 11204 11196 
1492 1194 1525 1195 11203 11198 11201 11205 9289 11206 
1525 1194 1228 1195 11198 9287 11199 11206 9289 9288 
1195 1228 1526 1229 9288 11207 11208 9297 9301 11209 
1492 1526 1493 1195 11210 11211 11212 11205 11208 11213 
1195 1228 1525 1526 9288 11199 11206 11208 11207 11214 
1492 1526 1195 1525 11210 11208 11205 11201 11214 11206 
1493 1195 1526 1196 11213 11208 11211 11215 9299 11216 
1526 1195 1229 1196 11208 9297 11209 11216 9299 9298 
1196 1229 1527 1230 9298 11217 11218 9307 9311 11219 
1493 1527 1494 1196 11220 11221 11222 11215 11218 11223 
1196 1229 1526 1527 9298 11209 11216 11218 11217 11224 
1493 1527 1196 1526 11220 11218 11215 11211 11224 11216 
1494 1196 1527 1197 11223 11218 11221 11225 9309 11226 
1527 1196 1230 1197 11218 9307 11219 11226 9309 9308 
1197 1230 1528 1231 9308 11227 11228 9317 9321 11229 
1494 1528 1495 1197 11230 11231 11232 11225 11228 11233 
1197 1230 1527 1528 9308 11219 11226 11228 11227 11234 
1494 1528 1197 1527 11230 11228 11225 11221 11234 11226 
1495 1197 1528 1198 11233 11228 11231 11235 9319 11236 
1528 1197 1231 1198 11228 9317 11229 11236 9319 9318 
1198 1231 1529 1232 9318 11237 11238 9327 9331 11239 
1495 1529 1496 1198 11240 11241 11242 11235 11238 11243 
1198 1231 1528 1529 9318 11229 11236 11238 11237 11244 
1495 1529 1198 1528 11240 11238 11235 11231 11244 11236 
1496 1198 1529 1199 11243 11238 11241 11245 9329 11246 
1529 1198 1232 1199 11238 9327 11239 11246 9329 9328 
1199 1232 1530 1233 9328 11247 11248 9337 9341 11249 
1496 1530 1497 1199 11250 11251 11252 11245 11248 11253 
1199 1232 1529 1530 9328 11239 11246 11248 11247 11254 
1496 1530 1199 1529 11250 11248 11245 11241 11254 11246 
1497 1199 1530 1200 11253 11248 11251 11255 9339 11256 
1530 1199 1233 1200 11248 9337 11249 11256 9339 9338 
1200 1233 1531 1234 9338 11257 11258 9347 9351 11259 
1497 1531 1498 1200 11260 11261 11262 11255 11258 11263 
1200 1233 1530 1531 9338 11249 11256 11258 11257 11264 
1497 1531 1200 1530 11260 11258 11255 11251 11264 11256 
1498 1200 1531 1201 11263 11258 11261 11265 9349 11266 
1531 1200 1234 1201 11258 9347 11259 11266 9349 9348 
1201 1234 1532 1235 9348 11267 11268 9357 9361 11269 
1498 1532 1499 1201 11270 11271 11272 11265 11268 11273 
1201 1234 1531 1532 9348 11259 11266 11268 11267 11274 
1498 1532 1201 1531 11270 11268 11265 11261 11274 11266 
1499 1201 1532 1202 11273 11268 11271 11275 9359 11276 
1532 1201 1235 1202 11268 9357 11269 11276 9359 9358 
1202 1235 1533 1236 9358 11277 11278 9367 9371 11279 
1499 1533 1500 1202 11280 11281 11282 11275 11278 11283 
1202 1235 1532 1533 9358 11269 11276 11278 11277 11284 
1499 1533 1202 1532 11280 11278 11275 11271 11284 11276 
1500 1202 1533 1203 11283 11278 11281 11285 9369 11286 
1533 1202 1236 1203 11278 9367 11279 11286 9369 9368 
1203 1236 1534 1237 9368 11287 11288 9377 9381 11289 
1500 1534 1501 1203 11290 11291 11292 11285 11288 11293 
1203 1236 1533 1534 9368 11279 11286 11288 11287 11294 
1500 1534 1203 1533 11290 11288 11285 11281 11294 11286 
1501 1203 1534 1204 11293 11288 11291 11295 9379 11296 
1534 1203 1237 1204 11288 9377 11289 11296 9379 9378 
1204 1237 1535 1238 9378 11297 11298 9387 9391 11299 
1501 1535 1502 1204 11300 11301 11302 11295 11298 11303 
1204 1237 1534 1535 9378 11289 11296 11298 11297 11304 
1501 1535 1204 1534 11300 11298 11295 11291 11304 11296 
1502 1204 1535 1205 11303 11298 11301 11305 9389 11306 
1535 1204 1238 1205 11298 9387 11299 11306 9389 9388 
1205 1238 1536 1239 9388 11307 11308 9397 9401 11309 
1502 1536 1503 1205 11310 11311 11312 11305 11308 11313 
1205 1238 1535 1536 9388 11299 11306 11308 11307 11314 
1502 1536 1205 1535 11310 11308 11305 11301 11314 11306 
1503 1205 1536 1206 11313 11308 11311 11315 9399 11316 
1536 1205 1239 1206 11308 9397 11309 11316 9399 9398 
1206 1239 1537 1240 9398 11317 11318 9407 9411 11319 
1503 1537 1504 1206 11320 11321 11322 11315 11318 11323 
1206 1239 1536 1537 9398 11309 11316 11318 11317 11324 
1503 1537 1206 1536 11320 11318 11315 11311 11324 11316 
1504 1206 1537 1207 11323 11318 11321 11325 9409 11326 
1537 1206 1240 1207 11318 9407 11319 11326 9409 9408 
1207 1240 1538 1241 9408 11327 11328 9417 9421 11329 
1504 1538 1505 1207 11330 11331 11332 11325 11328 11333 
1207 1240 1537 1538 9408 11319 11326 11328 11327 11334 
1504 1538 1207 1537 11330 11328 11325 11321 11334 11326 
1505 1207 1538 1208 11333 11328 11331 11335 9419 11336 
1538 1207 1241 1208 11328 9417 11329 11336 9419 9418 
1208 1241 1539 1242 9418 11337 11338 9427 9431 11339 
1505 1539 1506 1208 11340 11341 11342 11335 11338 11343 
1208 1241 1538 1539 9418 11329 11336 11338 11337 11344 
1505 1539 1208 1538 11340 11338 11335 11331 11344 11336 
1506 1208 1539 1209 11343 11338 11341 11345 9429 11346 
1539 1208 1242 1209 11338 9427 11339 11346 9429 9428 
1209 1242 1540 1243 9428 11347 11348 9437 9441 11349 
1506 1540 1507 1209 11350 11351 11352 11345 11348 11353 
1209 1242 1539 1540 9428 11339 11346 11348 11347 11354 
1506 1540 1209 1539 11350 11348 11345 11341 11354 11346 
1507 1209 1540 1210 11353 11348 11351 11355 9439 11356 
1540 1209 1243 1210 11348 9437 11349 11356 9439 9438 
1210 1243 1541 1244 9438 11357 11358 9447 9451 11359 
1507 1541 1508 1210 11360 11361 11362 11355 11358 11363 
1210 1243 1540 1541 9438 11349 11356 11358 11357 11364 
1507 1541 1210 1540 11360 11358 11355 11351 11364 11356 
1508 1210 1541 1211 11363 11358 11361 11365 9449 11366 
1541 1210 1244 1211 11358 9447 11359 11366 9449 9448 
1211 1244 1542 1245 9448 11367 11368 9457 9461 11369 
1508 1542 1509 1211 11370 11371 11372 11365 11368 11373 
1211 1244 1541 1542 9448 11359 11366 11368 11367 11374 
1508 1542 1211 1541 11370 11368 11365 11361 11374 11366 
1509 1211 1542 1212 11373 11368 11371 11375 9459 11376 
1542 1211 1245 1212 11368 9457 11369 11376 9459 9458 
1212 1245 1543 1246 9458 11377 11378 9467 9471 11379 
1509 1543 1510 1212 11380 11381 11382 11375 11378 11383 
1212 1245 1542 1543 9458 11369 11376 11378 11377 11384 
1509 1543 1212 1542 11380 11378 11375 11371 11384 11376 
1510 1212 1543 1213 11383 11378 11381 11385 9469 11386 
1543 1212 1246 1213 11378 9467 11379 11386 9469 9468 
1213 1246 1544 1247 9468 11387 11388 9477 9481 11389 
1510 1544 1511 1213 11390 11391 11392 11385 11388 11393 
1213 1246 1543 1544 9468 11379 11386 11388 11387 11394 
1510 1544 1213 1543 11390 11388 11385 11381 11394 11386 
1511 1213 1544 1214 11393 11388 11391 11395 9479 11396 
1544 1213 1247 1214 11388 9477 11389 11396 9479 9478 
1214 1247 1545 1248 9478 11397 11398 9487 9491 11399 
1511 1545 1512 1214 11400 11401 11402 11395 11398 11403 
1214 1247 1544 1545 9478 11389 11396 11398 11397 11404 
1511 1545 1214 1544 11400 11398 11395 11391 11404 11396 
1512 1214 1545 1215 11403 11398 11401 11405 9489 11406 
1545 1214 1248 1215 11398 9487 11399 11406 9489 9488 
1215 1248 1546 1249 9488 11407 11408 9497 9501 11409 
1512 1546 1513 1215 11410 11411 11412 11405 11408 11413 
1215 1248 1545 1546 9488 11399 11406 11408 11407 11414 
1512 1546 1215 1545 11410 11408 11405 11401 11414 11406 
1513 1215 1546 1216 11413 11408 11411 11415 9499 11416 
1546 1215 1249 1216 11408 9497 11409 11416 9499 9498 
1216 1249 1547 1250 9498 11417 11418 9507 9511 11419 
1513 1547 1514 1216 11420 11421 11422 11415 11418 11423 
1216 1249 1546 1547 9498 11409 11416 11418 11417 11424 
1513 1547 1216 1546 11420 11418 11415 11411 11424 11416 
1514 1216 1547 1217 11423 11418 11421 11425 9509 11426 
1547 1216 1250 1217 11418 9507 11419 11426 9509 9508 
1217 1250 1548 1251 9508 11427 11428 9517 9521 11429 
1514 1548 1515 1217 11430 11431 11432 11425 11428 11433 
1217 1250 1547 1548 9508 11419 11426 11428 11427 11434 
1514 1548 1217 1547 11430 11428 11425 11421 11434 11426 
1515 1217 1548 1218 11433 11428 11431 11435 9519 11436 
1548 1217 1251 1218 11428 9517 11429 11436 9519 9518 
1218 1251 1549 1252 9518 11437 11438 9527 9531 11439 
1515 1549 1516 1218 11440 11441 11442 11435 11438 11443 
1218 1251 1548 1549 9518 11429 11436 11438 11437 11444 
1515 1549 1218 1548 11440 11438 11435 11431 11444 11436 
1516 1218 1549 1219 11443 11438 11441 11445 9529 11446 
1549 1218 1252 1219 11438 9527 11439 11446 9529 9528 
1219 1252 1550 1253 9528 11447 11448 9537 9541 11449 
1516 1550 1517 1219 11450 11451 11452 11445 11448 11453 
1219 1252 1549 1550 9528 11439 11446 11448 11447 11454 
1516 1550 1219 1549 11450 11448 11445 11441 11454 11446 
1517 1219 1550 1220 11453 11448 11451 11455 9539 11456 
1550 1219 1253 1220 11448 9537 11449 11456 9539 9538 
1221 1254 1552 1255 9552 11457 11458 9547 9551 11459 
1518 1552 1519 1221 11460 11461 11143 11141 11458 11133 
1221 1254 1551 1552 9552 11462 11463 11458 11457 11464 
1518 1552 1221 1551 11460 11458 11141 11465 11464 11463 
1519 1221 1552 1222 11133 11458 11461 11135 9230 11466 
1552 1221 1255 1222 11458 9547 11459 11466 9230 9548 
1222 1255 1553 1256 9548 11467 11468 9557 9559 11469 
1519 1553 1520 1222 11470 11471 11154 11135 11468 11147 
1222 1255 1552 1553 9548 11459 11466 11468 11467 11472 
1519 1553 1222 1552 11470 11468 11135 11461 11472 11466 
1520 1222 1553 1223 11147 11468 11471 11149 9241 11473 
1553 1222 1256 1223 11468 9557 11469 11473 9241 9558 
1223 1256 1554 1257 9558 11474 11475 9564 9566 11476 
1520 1554 1521 1223 11477 11478 11164 11149 11475 11157 
1223 1256 1553 1554 9558 11469 11473 11475 11474 11479 
1520 1554 1223 1553 11477 11475 11149 11471 11479 11473 
1521 1223 1554 1224 11157 11475 11478 11159 9251 11480 
1554 1223 1257 1224 11475 9564 11476 11480 9251 9565 
1224 1257 1555 1258 9565 11481 11482 9571 9573 11483 
1521 1555 1522 1224 11484 11485 11174 11159 11482 11167 
1224 1257 1554 1555 9565 11476 11480 11482 11481 11486 
1521 1555 1224 1554 11484 11482 11159 11478 11486 11480 
1522 1224 1555 1225 11167 11482 11485 11169 9261 11487 
1555 1224 1258 1225 11482 9571 11483 11487 9261 9572 
1225 1258 1556 1259 9572 11488 11489 9578 9580 11490 
1522 1556 1523 1225 11491 11492 11184 11169 11489 11177 
1225 1258 1555 1556 9572 11483 11487 11489 11488 11493 
1522 1556 1225 1555 11491 11489 11169 11485 11493 11487 
1523 1225 1556 1226 11177 11489 11492 11179 9271 11494 
1556 1225 1259 1226 11489 9578 11490 11494 9271 9579 
1226 1259 1557 1260 9579 11495 11496 9585 9587 11497 
1523 1557 1524 1226 11498 11499 11194 11179 11496 11187 
1226 1259 1556 1557 9579 11490 11494 11496 11495 11500 
1523 1557 1226 1556 11498 11496 11179 11492 11500 11494 
1524 1226 1557 1227 11187 11496 11499 11189 9281 11501 
1557 1226 1260 1227 11496 9585 11497 11501 9281 9586 
1227 1260 1558 1261 9586 11502 11503 9592 9594 11504 
1524 1558 1525 1227 11505 11506 11204 11189 11503 11197 
1227 1260 1557 1558 9586 11497 11501 11503 11502 11507 
1524 1558 1227 1557 11505 11503 11189 11499 11507 11501 
1525 1227 1558 1228 11197 11503 11506 11199 9291 11508 
1558 1227 1261 1228 11503 9592 11504 11508 9291 9593 
1228 1261 1559 1262 9593 11509 11510 9599 9601 11511 
1525 1559 1526 1228 11512 11513 11214 11199 11510 11207 
1228 1261 1558 1559 9593 11504 11508 11510 11509 11514 
1525 1559 1228 1558 11512 11510 11199 11506 11514 11508 
1526 1228 1559 1229 11207 11510 11513 11209 9301 11515 
1559 1228 1262 1229 11510 9599 11511 11515 9301 9600 
1229 1262 1560 1263 9600 11516 11517 9606 9608 11518 
1526 1560 1527 1229 11519 11520 11224 11209 11517 11217 
1229 1262 1559 1560 9600 11511 11515 11517 11516 11521 
1526 1560 1229 1559 11519 11517 11209 11513 11521 11515 
1527 1229 1560 1230 11217 11517 11520 11219 9311 11522 
1560 1229 1263 1230 11517 9606 11518 11522 9311 9607 
1230 1263 1561 1264 9607 11523 11524 9613 9615 11525 
1527 1561 1528 1230 11526 11527 11234 11219 11524 11227 
1230 1263 1560 1561 9607 11518 11522 11524 11523 11528 
1527 1561 1230 1560 11526 11524 11219 11520 11528 11522 
1528 1230 1561 1231 11227 11524 11527 11229 9321 11529 
1561 1230 1264 1231 11524 9613 11525 11529 9321 9614 
1231 1264 1562 1265 9614 11530 11531 9620 9622 11532 
1528 1562 1529 1231 11533 11534 11244 11229 11531 11237 
1231 1264 1561 1562 9614 11525 11529 11531 11530 11535 
1528 1562 1231 1561 11533 11531 11229 11527 11535 11529 
1529 1231 1562 1232 11237 11531 11534 11239 9331 11536 
1562 1231 1265 1232 11531 9620 11532 11536 9331 9621 
1232 1265 1563 1266 9621 11537 11538 9627 9629 11539 
1529 1563 1530 1232 11540 11541 11254 11239 11538 11247 
1232 1265 1562 1563 9621 11532 11536 11538 11537 11542 
1529 1563 1232 1562 11540 11538 11239 11534 11542 11536 
1530 1232 1563 1233 11247 11538 11541 11249 9341 11543 
1563 1232 1266 1233 11538 9627 11539 11543 9341 9628 
1233 1266 1564 1267 9628 11544 11545 9634 9636 11546 
1530 1564 1531 1233 11547 11548 11264 11249 11545 11257 
1233 1266 1563 1564 9628 11539 11543 11545 11544 11549 
1530 1564 1233 1563 11547 11545 11249 11541 11549 11543 
1531 1233 1564 1234 11257 11545 11548 11259 9351 11550 
1564 1233 1267 1234 11545 9634 11546 11550 9351 9635 
1234 1267 1565 1268 9635 11551 11552 9641 9643 11553 
1531 1565 1532 1234 11554 11555 11274 11259 11552 11267 
1234 1267 1564 1565 9635 11546 11550 11552 11551 11556 
1531 1565 1234 1564 11554 11552 11259 11548 11556 11550 
1532 1234 1565 1235 11267 11552 11555 11269 9361 11557 
1565 1234 1268 1235 11552 9641 11553 11557 9361 9642 
1235 1268 1566 1269 9642 11558 11559 9648 9650 11560 
1532 1566 1533 1235 11561 11562 11284 11269 11559 11277 
1235 1268 1565 1566 9642 11553 11557 11559 11558 11563 
1532 1566 1235 1565 11561 11559 11269 11555 11563 11557 
1533 1235 1566 1236 11277 11559 11562 11279 9371 11564 
1566 1235 1269 1236 11559 9648 11560 11564 9371 9649 
1236 1269 1567 1270 9649 11565 11566 9655 9657 11567 
1533 1567 1534 1236 11568 11569 11294 11279 11566 11287 
1236 1269 1566 1567 9649 11560 11564 11566 11565 11570 
1533 1567 1236 1566 11568 11566 11279 11562 11570 11564 
1534 1236 1567 1237 11287 11566 11569 11289 9381 11571 
1567 1236 1270 1237 11566 9655 11567 11571 9381 9656 
1237 1270 1568 1271 9656 11572 11573 9662 9664 11574 
1534 1568 1535 1237 11575 11576 11304 11289 11573 11297 
1237 1270 1567 1568 9656 11567 11571 11573 11572 11577 
1534 1568 1237 1567 11575 11573 11289 11569 11577 11571 
1535 1237 1568 1238 11297 11573 11576 11299 9391 11578 
1568 1237 1271 1238 11573 9662 11574 11578 9391 9663 
1238 1271 1569 1272 9663 11579 11580 9669 9671 11581 
1535 1569 1536 1238 11582 11583 11314 11299 11580 11307 
1238 1271 1568 1569 9663 11574 11578 11580 11579 11584 
1535 1569 1238 1568 11582 11580 11299 11576 11584 11578 
1536 1238 1569 1239 11307 11580 11583 11309 9401 11585 
1569 1238 1272 1239 11580 9669 11581 11585 9401 9670 
1239 1272 1570 1273 9670 11586 11587 9676 9678 11588 
1536 1570 1537 1239 11589 11590 11324 11309 11587 11317 
1239 1272 1569 1570 9670 11581 11585 11587 11586 11591 
1536 1570 1239 1569 11589 11587 11309 11583 11591 11585 
1537 1239 1570 1240 11317 11587 11590 11319 9411 11592 
1570 1239 1273 1240 11587 9676 11588 11592 9411 9677 
1240 1273 1571 1274 9677 11593 11594 9683 9685 11595 
1537 1571 1538 1240 11596 11597 11334 11319 11594 11327 
1240 1273 1570 1571 9677 11588 11592 11594 11593 11598 
1537 1571 1240 1570 11596 11594 11319 11590 11598 11592 
1538 1240 1571 1241 11327 11594 11597 11329 9421 11599 
1571 1240 1274 1241 11594 9683 11595 11599 9421 9684 
1241 1274 1572 1275 9684 11600 11601 9690 9692 11602 
1538 1572 1539 1241 11603 11604 11344 11329 11601 11337 
1241 1274 1571 1572 9684 11595 11599 11601 11600 11605 
1538 1572 1241 1571 11603 11601 11329 11597 11605 11599 
1539 1241 1572 1242 11337 11601 11604 11339 9431 11606 
1572 1241 1275 1242 11601 9690 11602 11606 9431 9691 
1242 1275 1573 1276 9691 11607 11608 9697 9699 11609 
1539 1573 1540 1242 11610 11611 11354 11339 11608 11347 
1242 1275 1572 1573 9691 11602 11606 11608 11607 11612 
1539 1573 1242 1572 11610 11608 11339 11604 11612 11606 
1540 1242 1573 1243 11347 11608 11611 11349 9441 11613 
1573 1242 1276 1243 11608 9697 11609 11613 9441 9698 
1243 1276 1574 1277 9698 11614 11615 9704 9706 11616 
1540 1574 1541 1243 11617 11618 11364 11349 11615 11357 
1243 1276 1573 1574 9698 11609 11613 11615 11614 11619 
1540 1574 1243 1573 11617 11615 11349 11611 11619 11613 
1541 1243 1574 1244 11357 11615 11618 11359 9451 11620 
1574 1243 1277 1244 11615 9704 11616 11620 9451 9705 
1244 1277 1575 1278 9705 11621 11622 9711 9713 11623 
1541 1575 1542 1244 11624 11625 11374 11359 11622 11367 
1244 1277 1574 1575 9705 11616 11620 11622 11621 11626 
1541 1575 1244 1574 11624 11622 11359 11618 11626 11620 
1542 1244 1575 1245 11367 11622 11625 11369 9461 11627 
1575 1244 1278 1245 11622 9711 11623 11627 9461 9712 
1245 1278 1576 1279 9712 11628 11629 9718 9720 11630 
1542 1576 1543 1245 11631 11632 11384 11369 11629 11377 
1245 1278 1575 1576 9712 11623 11627 11629 11628 11633 
1542 1576 1245 1575 11631 11629 11369 11625 11633 11627 
1543 1245 1576 1246 11377 11629 11632 11379 9471 11634 
1576 1245 1279 1246 11629 9718 11630 11634 9471 9719 
1246 1279 1577 1280 9719 11635 11636 9725 9727 11637 
1543 1577 1544 1246 11638 11639 11394 11379 11636 11387 
1246 1279 1576 1577 9719 11630 11634 11636 11635 11640 
1543 1577 1246 1576 11638 11636 11379 11632 11640 11634 
1544 1246 1577 1247 11387 11636 11639 11389 9481 11641 
1577 1246 1280 1247 11636 9725 11637 11641 9481 9726 
1247 1280 1578 1281 9726 11642 11643 9732 9734 11644 
1544 1578 1545 1247 11645 11646 11404 11389 11643 11397 
1247 1280 1577 1578 9726 11637 11641 11643 11642 11647 
1544 1578 1247 1577 11645 11643 11389 11639 11647 11641 
1545 1247 1578 1248 11397 11643 11646 11399 9491 11648 
1578 1247 1281 1248 11643 9732 11644 11648 9491 9733 
1248 1281 1579 1282 9733 11649 11650 9739 9741 11651 
1545 1579 1546 1248 11652 11653 11414 11399 11650 11407 
1248 1281 1578 1579 9733 11644 11648 11650 11649 11654 
1545 1579 1248 1578 11652 11650 11399 11646 11654 11648 
1546 1248 1579 1249 11407 11650 11653 11409 9501 11655 
1579 1248 1282 1249 11650 9739 11651 11655 9501 9740 
1249 1282 1580 1283 9740 11656 11657 9746 9748 11658 
1546 1580 1547 1249 11659 11660 11424 11409 11657 11417 
1249 1282 1579 1580 9740 11651 11655 11657 11656 11661 
1546 1580 1249 1579 11659 11657 11409 11653 11661 11655 
1547 1249 1580 1250 11417 11657 11660 11419 9511 11662 
1580 1249 1283 1250 11657 9746 11658 11662 9511 9747 
1250 1283 1581 1284 9747 11663 11664 9753 9755 11665 
1547 1581 1548 1250 11666 11667 11434 11419 11664 11427 
1250 1283 1580 1581 9747 11658 11662 11664 11663 11668 
1547 1581 1250 1580 11666 11664 11419 11660 11668 11662 
1548 1250 1581 1251 11427 11664 11667 11429 9521 11669 
1581 1250 1284 1251 11664 9753 11665 11669 9521 9754 
1251 1284 1582 1285 9754 11670 11671 9760 9762 11672 
1548 1582 1549 1251 11673 11674 11444 11429 11671 11437 
1251 1284 1581 1582 9754 11665 11669 11671 11670 11675 
1548 1582 1251 1581 11673 11671 11429 11667 11675 11669 
1549 1251 1582 1252 11437 11671 11674 11439 9531 11676 
1582 1251 1285 1252 11671 9760 11672 11676 9531 9761 
1252 1285 1583 1286 9761 11677 11678 9767 9769 11679 
1549 1583 1550 1252 11680 11681 11454 11439 11678 11447 
1252 1285 1582 1583 9761 11672 11676 11678 11677 11682 
1549 1583 1252 1582 11680 11678 11439 11674 11682 11676 
1550 1252 1583 1253 11447 11678 11681 11449 9541 11683 
1583 1252 1286 1253 11678 9767 11679 11683 9541 9768 
1254 1287 1585 1288 9779 11684 11685 9774 9778 11686 
1551 1585 1552 1254 11687 11688 11464 11462 11685 11457 
1254 1287 1584 1585 9779 11689 11690 11685 11684 11691 
1551 1585 1254 1584 11687 11685 11462 11692 11691 11690 
1552 1254 1585 1255 11457 11685 11688 11459 9551 11693 
1585 1254 1288 1255 11685 9774 11686 11693 9551 9775 
1255 1288 1586 1289 9775 11694 11695 9784 9786 11696 
1552 1586 1553 1255 11697 11698 11472 11459 11695 11467 
1255 1288 1585 1586 9775 11686 11693 11695 11694 11699 
1552 1586 1255 1585 11697 11695 11459 11688 11699 11693 
1553 1255 1586 1256 11467 11695 11698 11469 9559 11700 
1586 1255 1289 1256 11695 9784 11696 11700 9559 9785 
1256 1289 1587 1290 9785 11701 11702 9791 9793 11703 
1553 1587 1554 1256 11704 11705 11479 11469 11702 11474 
1256 1289 1586 1587 9785 11696 11700 11702 11701 11706 
1553 1587 1256 1586 11704 11702 11469 11698 11706 11700 
1554 1256 1587 1257 11474 11702 11705 11476 9566 11707 
1587 1256 1290 1257 11702 9791 11703 11707 9566 9792 
1257 1290 1588 1291 9792 11708 11709 9798 9800 11710 
1554 1588 1555 1257 11711 11712 11486 11476 11709 11481 
1257 1290 1587 1588 9792 11703 11707 11709 11708 11713 
1554 1588 1257 1587 11711 11709 11476 11705 11713 11707 
1555 1257 1588 1258 11481 11709 11712 11483 9573 11714 
1588 1257 1291 1258 11709 9798 11710 11714 9573 9799 
1258 1291 1589 1292 9799 11715 11716 9805 9807 11717 
1555 1589 1556 1258 11718 11719 11493 11483 11716 11488 
1258 1291 1588 1589 9799 11710 11714 11716 11715 11720 
1555 1589 1258 1588 11718 11716 11483 11712 11720 11714 
1556 1258 1589 1259 11488 11716 11719 11490 9580 11721 
1589 1258 1292 1259 11716 9805 11717 11721 9580 9806 
1259 1292 1590 1293 9806 11722 11723 9812 9814 11724 
1556 1590 1557 1259 11725 11726 11500 11490 11723 11495 
1259 1292 1589 1590 9806 11717 11721 11723 11722 11727 
1556 1590 1259 1589 11725 11723 11490 11719 11727 11721 
1557 1259 1590 1260 11495 11723 11726 11497 9587 11728 
1590 1259 1293 1260 11723 9812 11724 11728 9587 9813 
1260 1293 1591 1294 9813 11729 11730 9819 9821 11731 
1557 1591 1558 1260 11732 11733 11507 11497 11730 11502 
1260 1293 1590 1591 9813 11724 11728 11730 11729 11734 
1557 1591 1260 1590 11732 11730 11497 11726 11734 11728 
1558 1260 1591 1261 11502 11730 11733 11504 9594 11735 
1591 1260 1294 1261 11730 9819 11731 11735 9594 9820 
1261 1294 1592 1295 9820 11736 11737 9826 9828 11738 
1558 1592 1559 1261 11739 11740 11514 11504 11737 11509 
1261 1294 1591 1592 9820 11731 11735 11737 11736 11741 
1558 1592 1261 1591 11739 11737 11504 11733 11741 11735 
1559 1261 1592 1262 11509 11737 11740 11511 9601 11742 
1592 1261 1295 1262 11737 9826 11738 11742 9601 9827 
1262 1295 1593 1296 9827 11743 11744 9833 9835 11745 
1559 1593 1560 1262 11746 11747 11521 11511 11744 11516 
1262 1295 1592 1593 9827 11738 11742 11744 11743 11748 
1559 1593 1262 1592 11746 11744 11511 11740 11748 11742 
1560 1262 1593 1263 11516 11744 11747 11518 9608 11749 
1593 1262 1296 1263 11744 9833 11745 11749 9608 9834 
1263 1296 1594 1297 9834 11750 11751 9840 9842 11752 
1560 1594 1561 1263 11753 11754 11528 11518 11751 11523 
1263 1296 1593 1594 9834 11745 11749 11751 11750 11755 
1560 1594 1263 1593 11753 11751 11518 11747 11755 11749 
1561 1263 1594 1264 11523 11751 11754 11525 9615 11756 
1594 1263 1297 1264 11751 9840 11752 11756 9615 9841 
1264 1297 1595 1298 9841 11757 11758 9847 9849 11759 
1561 1595 1562 1264 11760 11761 11535 11525 11758 11530 
1264 1297 1594 1595 9841 11752 11756 11758 11757 11762 
1561 1595 1264 1594 11760 11758 11525 11754 11762 11756 
1562 1264 1595 1265 11530 11758 11761 11532 9622 11763 
1595 1264 1298 1265 11758 9847 11759 11763 9622 9848 
1265 1298 1596 1299 9848 11764 11765 9854 9856 11766 
1562 1596 1563 1265 11767 11768 11542 11532 11765 11537 
1265 1298 1595 1596 9848 11759 11763 11765 11764 11769 
1562 1596 1265 1595 11767 11765 11532 11761 11769 11763 
1563 1265 1596 1266 11537 11765 11768 11539 9629 11770 
1596 1265 1299 1266 11765 9854 11766 11770 9629 9855 
1266 1299 1597 1300 9855 11771 11772 9861 9863 11773 
1563 1597 1564 1266 11774 11775 11549 11539 11772 11544 
1266 1299 1596 1597 9855 11766 11770 11772 11771 11776 
1563 1597 1266 1596 11774 11772 11539 11768 11776 11770 
1564 1266 1597 1267 11544 11772 11775 11546 9636 11777 
1597 1266 1300 1267 11772 9861 11773 11777 9636 9862 
1267 1300 1598 1301 9862 11778 11779 9868 9870 11780 
1564 1598 1565 1267 11781 11782 11556 11546 11779 11551 
1267 1300 1597 1598 9862 11773 11777 11779 11778 11783 
1564 1598 1267 1597 11781 11779 11546 11775 11783 11777 
1565 1267 1598 1268 11551 11779 11782 11553 9643 11784 
1598 1267 1301 1268 11779 9868 11780 11784 9643 9869 
1268 1301 1599 1302 9869 11785 11786 9875 9877 11787 
1565 1599 1566 1268 11788 11789 11563 11553 11786 11558 
1268 1301 1598 1599 9869 11780 11784 11786 11785 11790 
1565 1599 1268 1598 11788 11786 11553 11782 11790 11784 
1566 1268 1599 1269 11558 11786 11789 11560 9650 11791 
1599 1268 1302 1269 11786 9875 11787 11791 9650 9876 
1269 1302 1600 1303 9876 11792 11793 9882 9884 11794 
1566 1600 1567 1269 11795 11796 11570 11560 11793 11565 
1269 1302 1599 1600 9876 11787 11791 11793 11792 11797 
1566 1600 1269 1599 11795 11793 11560 11789 11797 11791 
1567 1269 1600 1270 11565 11793 11796 11567 9657 11798 
1600 1269 1303 1270 11793 9882 11794 11798 9657 9883 
1270 1303 1601 1304 9883 11799 11800 9889 9891 11801 
1567 1601 1568 1270 11802 11803 11577 11567 11800 11572 
1270 1303 1600 1601 9883 11794 11798 11800 11799 11804 
1567 1601 1270 1600 11802 11800 11567 11796 11804 11798 
1568 1270 1601 1271 11572 11800 11803 11574 9664 11805 
1601 1270 1304 1271 11800 9889 11801 11805 9664 9890 
1271 1304 1602 1305 9890 11806 11807 9896 9898 11808 
1568 1602 1569 1271 11809 11810 11584 11574 11807 11579 
1271 1304 1601 1602 9890 11801 11805 11807 11806 11811 
1568 1602 1271 1601 11809 11807 11574 11803 11811 11805 
1569 1271 1602 1272 11579 11807 11810 11581 9671 11812 
1602 1271 1305 1272 11807 9896 11808 11812 9671 9897 
1272 1305 1603 1306 9897 11813 11814 9903 9905 11815 
1569 1603 1570 1272 11816 11817 11591 11581 11814 11586 
1272 1305 1602 1603 9897 11808 11812 11814 11813 11818 
1569 1603 1272 1602 11816 11814 11581 11810 11818 11812 
1570 1272 1603 1273 11586 11814 11817 11588 9678 11819 
1603 1272 1306 1273 11814 9903 11815 11819 9678 9904 
1273 1306 1604 1307 9904 11820 11821 9910 9912 11822 
1570 1604 1571 1273 11823 11824 11598 11588 11821 11593 
1273 1306 1603 1604 9904 11815 11819 11821 11820 11825 
1570 1604 1273 1603 11823 11821 11588 11817 11825 11819 
1571 1273 1604 1274 11593 11821 11824 11595 9685 11826 
1604 1273 1307 1274 11821 9910 11822 11826 9685 9911 
1274 1307 1605 1308 9911 11827 11828 9917 9919 11829 
1571 1605 1572 1274 11830 11831 11605 11595 11828 11600 
1274 1307 1604 1605 9911 11822 11826 11828 11827 11832 
1571 1605 1274 1604 11830 11828 11595 11824 11832 11826 
1572 1274 1605 1275 11600 11828 11831 11602 9692 11833 
1605 1274 1308 1275 11828 9917 11829 11833 9692 9918 
1275 1308 1606 1309 9918 11834 11835 9924 9926 11836 
1572 1606 1573 1275 11837 11838 11612 11602 11835 11607 
1275 1308 1605 1606 9918 11829 11833 11835 11834 11839 
1572 1606 1275 1605 11837 11835 11602 11831 11839 11833 
1573 1275 1606 1276 11607 11835 11838 11609 9699 11840 
1606 1275 1309 1276 11835 9924 11836 11840 9699 9925 
1276 1309 1607 1310 9925 11841 11842 9931 9933 11843 
1573 1607 1574 1276 11844 11845 11619 11609 11842 11614 
1276 1309 1606 1607 9925 11836 11840 11842 11841 11846 
1573 1607 1276 1606 11844 11842 11609 11838 11846 11840 
1574 1276 1607 1277 11614 11842 11845 11616 9706 11847 
1607 1276 1310 1277 11842 9931 11843 11847 9706 9932 
1277 1310 1608 1311 9932 11848 11849 9938 9940 11850 
1574 1608 1575 1277 11851 11852 11626 11616 11849 11621 
1277 1310 1607 1608 9932 11843 11847 11849 11848 11853 
1574 1608 1277 1607 11851 11849 11616 11845 11853 11847 
1575 1277 1608 1278 11621 11849 11852 11623 9713 11854 
1608 1277 1311 1278 11849 9938 11850 11854 9713 9939 
1278 1311 1609 1312 9939 11855 11856 9945 9947 11857 
1575 1609 1576 1278 11858 11859 11633 11623 11856 11628 
1278 1311 1608 1609 9939 11850 11854 11856 11855 11860 
1575 1609 1278 1608 11858 11856 11623 11852 11860 11854 
1576 1278 1609 1279 11628 11856 11859 11630 9720 11861 
1609 1278 1312 1279 11856 9945 11857 11861 9720 9946 
1279 1312 1610 1313 9946 11862 11863 9952 9954 11864 
1576 1610 1577 1279 11865 11866 11640 11630 11863 11635 
1279 1312 1609 1610 9946 11857 11861 11863 11862 11867 
1576 1610 1279 1609 11865 11863 11630 11859 11867 11861 
1577 1279 1610 1280 11635 11863 11866 11637 9727 11868 
1610 1279 1313 1280 11863 9952 11864 11868 9727 9953 
1280 1313 1611 1314 9953 11869 11870 9959 9961 11871 
1577 1611 1578 1280 11872 11873 11647 11637 11870 11642 
1280 1313 1610 1611 9953 11864 11868 11870 11869 11874 
1577 1611 1280 1610 11872 11870 11637 11866 11874 11868 
1578 1280 1611 1281 11642 11870 11873 11644 9734 11875 
1611 1280 1314 1281 11870 9959 11871 11875 9734 9960 
1281 1314 1612 1315 9960 11876 11877 9966 9968 11878 
1578 1612 1579 1281 11879 11880 11654 11644 11877 11649 
1281 1314 1611 1612 9960 11871 11875 11877 11876 11881 
1578 1612 1281 1611 11879 11877 11644 11873 11881 11875 
1579 1281 1612 1282 11649 11877 11880 11651 9741 11882 
1612 1281 1315 1282 11877 9966 11878 11882 9741 9967 
1282 1315 1613 1316 9967 11883 11884 9973 9975 11885 
1579 1613 1580 1282 11886 11887 11661 11651 11884 11656 
1282 1315 1612 1613 9967 11878 11882 11884 11883 11888 
1579 1613 1282 1612 11886 11884 11651 11880 11888 11882 
1580 1282 1613 1283 11656 11884 11887 11658 9748 11889 
1613 1282 1316 1283 11884 9973 11885 11889 9748 9974 
1283 1316 1614 1317 9974 11890 11891 9980 9982 11892 
1580 1614 1581 1283 11893 11894 11668 11658 11891 11663 
1283 1316 1613 1614 9974 11885 11889 11891 11890 11895 
1580 1614 1283 1613 11893 11891 11658 11887 11895 11889 
1581 1283 1614 1284 11663 11891 11894 11665 9755 11896 
1614 1283 1317 1284 11891 9980 11892 11896 9755 9981 
1284 1317 1615 1318 9981 11897 11898 9987 9989 11899 
1581 1615 1582 1284 11900 11901 11675 11665 11898 11670 
1284 1317 1614 1615 9981 11892 11896 11898 11897 11902 
1581 1615 1284 1614 11900 11898 11665 11894 11902 11896 
1582 1284 1615 1285 11670 11898 11901 11672 9762 11903 
1615 1284 1318 1285 11898 9987 11899 11903 9762 9988 
1285 1318 1616 1319 9988 11904 11905 9994 9996 11906 
1582 1616 1583 1285 11907 11908 11682 11672 11905 11677 
1285 1318 1615 1616 9988 11899 11903 11905 11904 11909 
1582 1616 1285 1615 11907 11905 11672 11901 11909 11903 
1583 1285 1616 1286 11677 11905 11908 11679 9769 11910 
1616 1285 1319 1286 11905 9994 11906 11910 9769 9995 
1287 1320 1618 1321 10006 11911 11912 10001 10005 11913 
1584 1618 1585 1287 11914 11915 11691 11689 11912 11684 
1287 1320 1617 1618 10006 11916 11917 11912 11911 11918 
1584 1618 1287 1617 11914 11912 11689 11919 11918 11917 
1585 1287 1618 1288 11684 11912 11915 11686 9778 11920 
1618 1287 1321 1288 11912 10001 11913 11920 9778 10002 
1288 1321 1619 1322 10002 11921 11922 10011 10013 11923 
1585 1619 1586 1288 11924 11925 11699 11686 11922 11694 
1288 1321 1618 1619 10002 11913 11920 11922 11921 11926 
1585 1619 1288 1618 11924 11922 11686 11915 11926 11920 
1586 1288 1619 1289 11694 11922 11925 11696 9786 11927 
1619 1288 1322 1289 11922 10011 11923 11927 9786 10012 
1289 1322 1620 1323 10012 11928 11929 10018 10020 11930 
1586 1620 1587 1289 11931 11932 11706 11696 11929 11701 
1289 1322 1619 1620 10012 11923 11927 11929 11928 11933 
1586 1620 1289 1619 11931 11929 11696 11925 11933 11927 
1587 1289 1620 1290 11701 11929 11932 11703 9793 11934 
1620 1289 1323 1290 11929 10018 11930 11934 9793 10019 
1290 1323 1621 1324 10019 11935 11936 10025 10027 11937 
1587 1621 1588 1290 11938 11939 11713 11703 11936 11708 
1290 1323 1620 1621 10019 11930 11934 11936 11935 11940 
1587 1621 1290 1620 11938 11936 11703 11932 11940 11934 
1588 1290 1621 1291 11708 11936 11939 11710 9800 11941 
1621 1290 1324 1291 11936 10025 11937 11941 9800 10026 
1291 1324 1622 1325 10026 11942 11943 10032 10034 11944 
1588 1622 1589 1291 11945 11946 11720 11710 11943 11715 
1291 1324 1621 1622 10026 11937 11941 11943 11942 11947 
1588 1622 1291 1621 11945 11943 11710 11939 11947 11941 
1589 1291 1622 1292 11715 11943 11946 11717 9807 11948 
1622 1291 1325 1292 11943 10032 11944 11948 9807 10033 
1292 1325 1623 1326 10033 11949 11950 10039 10041 11951 
1589 1623 1590 1292 11952 11953 11727 11717 11950 11722 
1292 1325 1622 1623 10033 11944 11948 11950 11949 11954 
1589 1623 1292 1622 11952 11950 11717 11946 11954 11948 
1590 1292 1623 1293 11722 11950 11953 11724 9814 11955 
1623 1292 1326 1293 11950 10039 11951 11955 9814 10040 
1293 1326 1624 1327 10040 11956 11957 10046 10048 11958 
1590 1624 1591 1293 11959 11960 11734 11724 11957 11729 
1293 1326 1623 1624 10040 11951 11955 11957 11956 11961 
1590 1624 1293 1623 11959 11957 11724 11953 11961 11955 
1591 1293 1624 1294 11729 11957 11960 11731 9821 11962 
1624 1293 1327 1294 11957 10046 11958 11962 9821 10047 
1294 1327 1625 1328 10047 11963 11964 10053 10055 11965 
1591 1625 1592 1294 11966 11967 11741 11731 11964 11736 
1294 1327 1624 1625 10047 11958 11962 11964 11963 11968 
1591 1625 1294 1624 11966 11964 11731 11960 11968 11962 
1592 1294 1625 1295 11736 11964 11967 11738 9828 11969 
1625 1294 1328 1295 11964 10053 11965 11969 9828 10054 
1295 1328 1626 1329 10054 11970 11971 10060 10062 11972 
1592 1626 1593 1295 11973 11974 11748 11738 11971 11743 
1295 1328 1625 1626 10054 11965 11969 11971 11970 11975 
1592 1626 1295 1625 11973 11971 11738 11967 11975 11969 
1593 1295 1626 1296 11743 11971 11974 11745 9835 11976 
1626 1295 1329 1296 11971 10060 11972 11976 9835 10061 
1296 1329 1627 1330 10061 11977 11978 10067 10069 11979 
1593 1627 1594 1296 11980 11981 11755 11745 11978 11750 
1296 1329 1626 1627 10061 11972 11976 11978 11977 11982 
1593 1627 1296 1626 11980 11978 11745 11974 11982 11976 
1594 1296 1627 1297 11750 11978 11981 11752 9842 11983 
1627 1296 1330 1297 11978 10067 11979 11983 9842 10068 
1297 1330 1628 1331 10068 11984 11985 10074 10076 11986 
1594 1628 1595 1297 11987 11988 11762 11752 11985 11757 
1297 1330 1627 1628 10068 11979 11983 11985 11984 11989 
1594 1628 1297 1627 11987 11985 11752 11981 11989 11983 
1595 1297 1628 1298 11757 11985 11988 11759 9849 11990 
1628 1297 1331 1298 11985 10074 11986 11990 9849 10075 
1298 1331 1629 1332 10075 11991 11992 10081 10083 11993 
1595 1629 1596 1298 11994 11995 11769 11759 11992 11764 
1298 1331 1628 1629 10075 11986 11990 11992 11991 11996 
1595 1629 1298 1628 11994 11992 11759 11988 11996 11990 
1596 1298 1629 1299 11764 11992 11995 11766 9856 11997 
1629 1298 1332 1299 11992 10081 11993 11997 9856 10082 
1299 1332 1630 1333 10082 11998 11999 10088 10090 12000 
1596 1630 1597 1299 12001 12002 11776 11766 11999 11771 
1299 1332 1629 1630 10082 11993 11997 11999 11998 12003 
1596 1630 1299 1629 12001 11999 11766 11995 12003 11997 
1597 1299 1630 1300 11771 11999 12002 11773 9863 12004 
1630 1299 1333 1300 11999 10088 12000 12004 9863 10089 
1300 1333 1631 1334 10089 12005 12006 10095 10097 12007 
1597 1631 1598 1300 12008 12009 11783 11773 12006 11778 
1300 1333 1630 1631 10089 12000 12004 12006 12005 12010 
1597 1631 1300 1630 12008 12006 11773 12002 12010 12004 
1598 1300 1631 1301 11778 12006 12009 11780 9870 12011 
1631 1300 1334 1301 12006 10095 12007 12011 9870 10096 
1301 1334 1632 1335 10096 12012 12013 10102 10104 12014 
1598 1632 1599 1301 12015 12016 11790 11780 12013 11785 
1301 1334 1631 1632 10096 12007 12011 12013 12012 12017 
1598 1632 1301 1631 12015 12013 11780 12009 12017 12011 
1599 1301 1632 1302 11785 12013 12016 11787 9877 12018 
1632 1301 1335 1302 12013 10102 12014 12018 9877 10103 
1302 1335 1633 1336 10103 12019 12020 10109 10111 12021 
1599 1633 1600 1302 12022 12023 11797 11787 12020 11792 
1302 1335 1632 1633 10103 12014 12018 12020 12019 12024 
1599 1633 1302 1632 12022 12020 11787 12016 12024 12018 
1600 1302 1633 1303 11792 12020 12023 11794 9884 12025 
1633 1302 1336 1303 12020 10109 12021 12025 9884 10110 
1303 1336 1634 1337 10110 12026 12027 10116 10118 12028 
1600 1634 1601 1303 12029 12030 11804 11794 12027 11799 
1303 1336 1633 1634 10110 12021 12025 12027 12026 12031 
1600 1634 1303 1633 12029 12027 11794 12023 12031 12025 
1601 1303 1634 1304 11799 12027 12030 11801 9891 12032 
1634 1303 1337 1304 12027 10116 12028 12032 9891 10117 
1304 1337 1635 1338 10117 12033 12034 10123 10125 12035 
1601 1635 1602 1304 12036 12037 11811 11801 12034 11806 
1304 1337 1634 1635 10117 12028 12032 12034 12033 12038 
1601 1635 1304 1634 12036 12034 11801 12030 12038 12032 
1602 1304 1635 1305 11806 12034 12037 11808 9898 12039 
1635 1304 1338 1305 12034 10123 12035 12039 9898 10124 
1305 1338 1636 1339 10124 12040 12041 10130 10132 12042 
1602 1636 1603 1305 12043 12044 11818 11808 12041 11813 
1305 1338 1635 1636 10124 12035 12039 12041 12040 12045 
1602 1636 1305 1635 12043 12041 11808 12037 12045 12039 
1603 1305 1636 1306 11813 12041 12044 11815 9905 12046 
1636 1305 1339 1306 12041 10130 12042 12046 9905 10131 
1306 1339 1637 1340 10131 12047 12048 10137 10139 12049 
1603 1637 1604 1306 12050 12051 11825 11815 12048 11820 
1306 1339 1636 1637 10131 12042 12046 12048 12047 12052 
1603 1637 1306 1636 12050 12048 11815 12044 12052 12046 
1604 1306 1637 1307 11820 12048 12051 11822 9912 12053 
1637 1306 1340 1307 12048 10137 12049 12053 9912 10138 
1307 1340 1638 1341 10138 12054 12055 10144 10146 12056 
1604 1638 1605 1307 12057 12058 11832 11822 12055 11827 
1307 1340 1637 1638 10138 12049 12053 12055 12054 12059 
1604 1638 1307 1637 12057 12055 11822 12051 12059 12053 
1605 1307 1638 1308 11827 12055 12058 11829 9919 12060 
1638 1307 1341 1308 12055 10144 12056 12060 9919 10145 
1308 1341 1639 1342 10145 12061 12062 10151 10153 12063 
1605 1639 1606 1308 12064 12065 11839 11829 12062 11834 
1308 1341 1638 1639 10145 12056 12060 12062 12061 12066 
1605 1639 1308 1638 12064 12062 11829 12058 12066 12060 
1606 1308 1639 1309 11834 12062 12065 11836 9926 12067 
1639 1308 1342 1309 12062 10151 12063 12067 9926 10152 
1309 1342 1640 1343 10152 12068 12069 10158 10160 12070 
1606 1640 1607 1309 12071 12072 11846 11836 12069 11841 
1309 1342 1639 1640 10152 12063 12067 12069 12068 12073 
1606 1640 1309 1639 12071 12069 11836 12065 12073 12067 
1607 1309 1640 1310 11841 12069 12072 11843 9933 12074 
1640 1309 1343 1310 12069 10158 12070 12074 9933 10159 
1310 1343 1641 1344 10159 12075 12076 10165 10167 12077 
1607 1641 1608 1310 12078 12079 11853 11843 12076 11848 
1310 1343 1640 1641 10159 12070 12074 12076 12075 12080 
1607 1641 1310 1640 12078 12076 11843 12072 12080 12074 
1608 1310 1641 1311 11848 12076 12079 11850 9940 12081 
1641 1310 1344 1311 12076 10165 12077 12081 9940 10166 
1311 1344 1642 1345 10166 12082 12083 10172 10174 12084 
1608 1642 1609 1311 12085 12086 11860 11850 12083 11855 
1311 1344 1641 1642 10166 12077 12081 12083 12082 12087 
1608 1642 1311 1641 12085 12083 11850 12079 12087 12081 
1609 1311 1642 1312 11855 12083 12086 11857 9947 12088 
1642 1311 1345 1312 12083 10172 12084 12088 9947 10173 
1312 1345 1643 1346 10173 12089 12090 10179 10181 12091 
1609 1643 1610 1312 12092 12093 11867 11857 12090 11862 
1312 1345 1642 1643 10173 12084 12088 12090 12089 12094 
1609 1643 1312 1642 12092 12090 11857 12086 12094 12088 
1610 1312 1643 1313 11862 12090 12093 11864 9954 12095 
1643 1312 1346 1313 12090 10179 12091 12095 9954 10180 
1313 1346 1644 1347 10180 12096 12097 10186 10188 12098 
1610 1644 1611 1313 12099 12100 11874 11864 12097 11869 
1313 1346 1643 1644 10180 12091 12095 12097 12096 12101 
1610 1644 1313 1643 12099 12097 11864 12093 12101 12095 
1611 1313 1644 1314 11869 12097 12100 11871 9961 12102 
1644 1313 1347 1314 12097 10186 12098 12102 9961 10187 
1314 1347 1645 1348 10187 12103 12104 10193 10195 12105 
1611 1645 1612 1314 12106 12107 11881 11871 12104 11876 
1314 1347 1644 1645 10187 12098 12102 12104 12103 12108 
1611 1645 1314 1644 12106 12104 11871 12100 12108 12102 
1612 1314 1645 1315 11876 12104 12107 11878 9968 12109 
1645 1314 1348 1315 12104 10193 12105 12109 9968 10194 
1315 1348 1646 1349 10194 12110 12111 10200 10202 12112 
1612 1646 1613 1315 12113 12114 11888 11878 12111 11883 
1315 1348 1645 1646 10194 12105 12109 12111 12110 12115 
1612 1646 1315 1645 12113 12111 11878 12107 12115 12109 
1613 1315 1646 1316 11883 12111 12114 11885 9975 12116 
1646 1315 1349 1316 12111 10200 12112 12116 9975 10201 
1316 1349 1647 1350 10201 12117 12118 10207 10209 12119 
1613 1647 1614 1316 12120 12121 11895 11885 12118 11890 
1316 1349 1646 1647 10201 12112 12116 12118 12117 12122 
1613 1647 1316 1646 12120 12118 11885 12114 12122 12116 
1614 1316 1647 1317 11890 12118 12121 11892 9982 12123 
1647 1316 1350 1317 12118 10207 12119 12123 9982 10208 
1317 1350 1648 1351 10208 12124 12125 10214 10216 12126 
1614 1648 1615 1317 12127 12128 11902 11892 12125 11897 
1317 1350 1647 1648 10208 12119 12123 12125 12124 12129 
1614 1648 1317 1647 12127 12125 11892 12121 12129 12123 
1615 1317 1648 1318 11897 12125 12128 11899 9989 12130 
1648 1317 1351 1318 12125 10214 12126 12130 9989 10215 
1318 1351 1649 1352 10215 12131 12132 10221 10223 12133 
1615 1649 1616 1318 12134 12135 11909 11899 12132 11904 
1318 1351 1648 1649 10215 12126 12130 12132 12131 12136 
1615 1649 1318 1648 12134 12132 11899 12128 12136 12130 
1616 1318 1649 1319 11904 12132 12135 11906 9996 12137 
1649 1318 1352 1319 12132 10221 12133 12137 9996 10222 
1320 1353 1651 1354 10233 12138 12139 10228 10232 12140 
1617 1651 1618 1320 12141 12142 11918 11916 12139 11911 
1320 1353 1650 1651 10233 12143 12144 12139 12138 12145 
1617 1651 1320 1650 12141 12139 11916 12146 12145 12144 
1618 1320 1651 1321 11911 12139 12142 11913 10005 12147 
1651 1320 1354 1321 12139 10228 12140 12147 10005 10229 
1321 1354 1652 1355 10229 12148 12149 10238 10240 12150 
1618 1652 1619 1321 12151 12152 11926 11913 12149 11921 
1321 1354 1651 1652 10229 12140 12147 12149 12148 12153 
1618 1652 1321 1651 12151 12149 11913 12142 12153 12147 
1619 1321 1652 1322 11921 12149 12152 11923 10013 12154 
1652 1321 1355 1322 12149 10238 12150 12154 10013 10239 
1322 1355 1653 1356 10239 12155 12156 10245 10247 12157 
1619 1653 1620 1322 12158 12159 11933 11923 12156 11928 
1322 1355 1652 1653 10239 12150 12154 12156 12155 12160 
1619 1653 1322 1652 12158 12156 11923 12152 12160 12154 
1620 1322 1653 1323 11928 12156 12159 11930 10020 12161 
1653 1322 1356 1323 12156 10245 12157 12161 10020 10246 
1323 1356 1654 1357 10246 12162 12163 10252 10254 12164 
1620 1654 1621 1323 12165 12166 11940 11930 12163 11935 
1323 1356 1653 1654 10246 12157 12161 12163 12162 12167 
1620 1654 1323 1653 12165 12163 11930 12159 12167 12161 
1621 1323 1654 1324 11935 12163 12166 11937 10027 12168 
1654 1323 1357 1324 12163 10252 12164 12168 10027 10253 
1324 1357 1655 1358 10253 12169 12170 10259 10261 12171 
1621 1655 1622 1324 12172 12173 11947 11937 12170 11942 
1324 1357 1654 1655 10253 12164 12168 12170 12169 12174 
1621 1655 1324 1654 12172 12170 11937 12166 12174 12168 
1622 1324 1655 1325 11942 12170 12173 11944 10034 12175 
1655 1324 1358 1325 12170 10259 12171 12175 10034 10260 
1325 1358 1656 1359 10260 12176 12177 10266 10268 12178 
1622 1656 1623 1325 12179 12180 11954 11944 12177 11949 
1325 1358 1655 1656 10260 12171 12175 12177 12176 12181 
1622 1656 1325 1655 12179 12177 11944 12173 12181 12175 
1623 1325 1656 1326 11949 12177 12180 11951 10041 12182 
1656 1325 1359 1326 12177 10266 12178 12182 10041 10267 
1326 1359 1657 1360 10267 12183 12184 10273 10275 12185 
1623 1657 1624 1326 12186 12187 11961 11951 12184 11956 
1326 1359 1656 1657 10267 12178 12182 12184 12183 12188 
1623 1657 1326 1656 12186 12184 11951 12180 12188 12182 
1624 1326 1657 1327 11956 12184 12187 11958 10048 12189 
1657 1326 1360 1327 12184 10273 12185 12189 10048 10274 
1327 1360 1658 1361 10274 12190 12191 10280 10282 12192 
1624 1658 1625 1327 12193 12194 11968 11958 12191 11963 
1327 1360 1657 1658 10274 12185 12189 12191 12190 12195 
1624 1658 1327 1657 12193 12191 11958 12187 12195 12189 
1625 1327 1658 1328 11963 12191 12194 11965 10055 12196 
1658 1327 1361 1328 12191 10280 12192 12196 10055 10281 
1328 1361 1659 1362 10281 12197 12198 10287 10289 12199 
1625 1659 1626 1328 12200 12201 11975 11965 12198 11970 
1328 1361 1658 1659 10281 12192 12196 12198 12197 12202 
1625 1659 1328 1658 12200 12198 11965 12194 12202 12196 
1626 1328 1659 1329 11970 12198 12201 11972 10062 12203 
1659 1328 1362 1329 12198 10287 12199 12203 10062 10288 
1329 1362 1660 1363 10288 12204 12205 10294 10296 12206 
1626 1660 1627 1329 12207 12208 11982 11972 12205 11977 
1329 1362 1659 1660 10288 12199 12203 12205 12204 12209 
1626 1660 1329 1659 12207 12205 11972 12201 12209 12203 
1627 1329 1660 1330 11977 12205 12208 11979 10069 12210 
1660 1329 1363 1330 12205 10294 12206 12210 10069 10295 
1330 1363 1661 1364 10295 12211 12212 10301 10303 12213 
1627 1661 1628 1330 12214 12215 11989 11979 12212 11984 
1330 1363 1660 1661 10295 12206 12210 12212 12211 12216 
1627 1661 1330 1660 12214 12212 11979 12208 12216 12210 
1628 1330 1661 1331 11984 12212 12215 11986 10076 12217 
1661 1330 1364 1331 12212 10301 12213 12217 10076 10302 
1331 1364 1662 1365 10302 12218 12219 10308 10310 12220 
1628 1662 1629 1331 12221 12222 11996 11986 12219 11991 
1331 1364 1661 1662 10302 12213 12217 12219 12218 12223 
1628 1662 1331 1661 12221 12219 11986 12215 12223 12217 
1629 1331 1662 1332 11991 12219 12222 11993 10083 12224 
1662 1331 1365 1332 12219 10308 12220 12224 10083 10309 
1332 1365 1663 1366 10309 12225 12226 10315 10317 12227 
1629 1663 1630 1332 12228 12229 12003 11993 12226 11998 
1332 1365 1662 1663 10309 12220 12224 12226 12225 12230 
1629 1663 1332 1662 12228 12226 11993 12222 12230 12224 
1630 1332 1663 1333 11998 12226 12229 12000 10090 12231 
1663 1332 1366 1333 12226 10315 12227 12231 10090 10316 
1333 1366 1664 1367 10316 12232 12233 10322 10324 12234 
1630 1664 1631 1333 12235 12236 12010 12000 12233 12005 
1333 1366 1663 1664 10316 12227 12231 12233 12232 12237 
1630 1664 1333 1663 12235 12233 12000 12229 12237 12231 
1631 1333 1664 1334 12005 12233 12236 12007 10097 12238 
1664 1333 1367 1334 12233 10322 12234 12238 10097 10323 
1334 1367 1665 1368 10323 12239 12240 10329 10331 12241 
1631 1665 1632 1334 12242 12243 12017 12007 12240 12012 
1334 1367 1664 1665 10323 12234 12238 12240 12239 12244 
1631 1665 1334 1664 12242 12240 12007 12236 12244 12238 
1632 1334 1665 1335 12012 12240 12243 12014 10104 12245 
1665 1334 1368 1335 12240 10329 12241 12245 10104 10330 
1335 1368 1666 1369 10330 12246 12247 10336 10338 12248 
1632 1666 1633 1335 12249 12250 12024 12014 12247 12019 
1335 1368 1665 1666 10330 12241 12245 12247 12246 12251 
1632 1666 1335 1665 12249 12247 12014 12243 12251 12245 
1633 1335 1666 1336 12019 12247 12250 12021 10111 12252 
1666 1335 1369 1336 12247 10336 12248 12252 10111 10337 
1336 1369 1667 1370 10337 12253 12254 10343 10345 12255 
1633 1667 1634 1336 12256 12257 12031 12021 12254 12026 
1336 1369 1666 1667 10337 12248 12252 12254 12253 12258 
1633 1667 1336 1666 12256 12254 12021 12250 12258 12252 
1634 1336 1667 1337 12026 12254 12257 12028 10118 12259 
1667 1336 1370 1337 12254 10343 12255 12259 10118 10344 
1337 1370 1668 1371 10344 12260 12261 10350 10352 12262 
1634 1668 1635 1337 12263 12264 12038 12028 12261 12033 
1337 1370 1667 1668 10344 12255 12259 12261 12260 12265 
1634 1668 1337 1667 12263 12261 12028 12257 12265 12259 
1635 1337 1668 1338 12033 12261 12264 12035 10125 12266 
1668 1337 1371 1338 12261 10350 12262 12266 10125 10351 
1338 1371 1669 1372 10351 12267 12268 10357 10359 12269 
1635 1669 1636 1338 12270 12271 12045 12035 12268 12040 
1338 1371 1668 1669 10351 12262 12266 12268 12267 12272 
1635 1669 1338 1668 12270 12268 12035 12264 12272 12266 
1636 1338 1669 1339 12040 12268 12271 12042 10132 12273 
1669 1338 1372 1339 12268 10357 12269 12273 10132 10358 
1339 1372 1670 1373 10358 12274 12275 10364 10366 12276 
1636 1670 1637 1339 12277 12278 12052 12042 12275 12047 
1339 1372 1669 1670 10358 12269 12273 12275 12274 12279 
1636 1670 1339 1669 12277 12275 12042 12271 12279 12273 
1637 1339 1670 1340 12047 12275 12278 12049 10139 12280 
1670 1339 1373 1340 12275 10364 12276 12280 10139 10365 
1340 1373 1671 1374 10365 12281 12282 10371 10373 12283 
1637 1671 1638 1340 12284 12285 12059 12049 12282 12054 
1340 1373 1670 1671 10365 12276 12280 12282 12281 12286 
1637 1671 1340 1670 12284 12282 12049 12278 12286 12280 
1638 1340 1671 1341 12054 12282 12285 12056 10146 12287 
1671 1340 1374 1341 12282 10371 12283 12287 10146 10372 
1341 1374 1672 1375 10372 12288 12289 10378 10380 12290 
1638 1672 1639 1341 12291 12292 12066 12056 12289 12061 
1341 1374 1671 1672 10372 12283 12287 12289 12288 12293 
1638 1672 1341 1671 12291 12289 12056 12285 12293 12287 
1639 1341 1672 1342 12061 12289 12292 12063 10153 12294 
1672 1341 1375 1342 12289 10378 12290 12294 10153 10379 
1342 1375 1673 1376 10379 12295 12296 10385 10387 12297 
1639 1673 1640 1342 12298 12299 12073 12063 12296 12068 
1342 1375 1672 1673 10379 12290 12294 12296 12295 12300 
1639 1673 1342 1672 12298 12296 12063 12292 12300 12294 
1640 1342 1673 1343 12068 12296 12299 12070 10160 12301 
1673 1342 1376 1343 12296 10385 12297 12301 10160 10386 
1343 1376 1674 1377 10386 12302 12303 10392 10394 12304 
1640 1674 1641 1343 12305 12306 12080 12070 12303 12075 
1343 1376 1673 1674 10386 12297 12301 12303 12302 12307 
1640 1674 1343 1673 12305 12303 12070 12299 12307 12301 
1641 1343 1674 1344 12075 12303 12306 12077 10167 12308 
1674 1343 1377 1344 12303 10392 12304 12308 10167 10393 
1344 1377 1675 1378 10393 12309 12310 10399 10401 12311 
1641 1675 1642 1344 12312 12313 12087 12077 12310 12082 
1344 1377 1674 1675 10393 12304 12308 12310 12309 12314 
1641 1675 1344 1674 12312 12310 12077 12306 12314 12308 
1642 1344 1675 1345 12082 12310 12313 12084 10174 12315 
1675 1344 1378 1345 12310 10399 12311 12315 10174 10400 
1345 1378 1676 1379 10400 12316 12317 10406 10408 12318 
1642 1676 1643 1345 12319 12320 12094 12084 12317 12089 
1345 1378 1675 1676 10400 12311 12315 12317 12316 12321 
1642 1676 1345 1675 12319 12317 12084 12313 12321 12315 
1643 1345 1676 1346 12089 12317 12320 12091 10181 12322 
1676 1345 1379 1346 12317 10406 12318 12322 10181 10407 
1346 1379 1677 1380 10407 12323 12324 10413 10415 12325 
1643 1677 1644 1346 12326 12327 12101 12091 12324 12096 
1346 1379 1676 1677 10407 12318 12322 12324 12323 12328 
1643 1677 1346 1676 12326 12324 12091 12320 12328 12322 
1644 1346 1677 1347 12096 12324 12327 12098 10188 12329 
1677 1346 1380 1347 12324 10413 12325 12329 10188 10414 
1347 1380 1678 1381 10414 12330 12331 10420 10422 12332 
1644 1678 1645 1347 12333 12334 12108 12098 12331 12103 
1347 1380 1677 1678 10414 12325 12329 12331 12330 12335 
1644 1678 1347 1677 12333 12331 12098 12327 12335 12329 
1645 1347 1678 1348 12103 12331 12334 12105 10195 12336 
1678 1347 1381 1348 12331 10420 12332 12336 10195 10421 
1348 1381 1679 1382 10421 12337 12338 10427 10429 12339 
1645 1679 1646 1348 12340 12341 12115 12105 12338 12110 
1348 1381 1678 1679 10421 12332 12336 12338 12337 12342 
1645 1679 1348 1678 12340 12338 12105 12334 12342 12336 
1646 1348 1679 1349 12110 12338 12341 12112 10202 12343 
1679 1348 1382 1349 12338 10427 12339 12343 10202 10428 
1349 1382 1680 1383 10428 12344 12345 10434 10436 12346 
1646 1680 1647 1349 12347 12348 12122 12112 12345 12117 
1349 1382 1679 1680 10428 12339 12343 12345 12344 12349 
1646 1680 1349 1679 12347 12345 12112 12341 12349 12343 
1647 1349 1680 1350 12117 12345 12348 12119 10209 12350 
1680 1349 1383 1350 12345 10434 12346 12350 10209 10435 
1350 1383 1681 1384 10435 12351 12352 10441 10443 12353 
1647 1681 1648 1350 12354 12355 12129 12119 12352 12124 
1350 1383 1680 1681 10435 12346 12350 12352 12351 12356 
1647 1681 1350 1680 12354 12352 12119 12348 12356 12350 
1648 1350 1681 1351 12124 12352 12355 12126 10216 12357 
1681 1350 1384 1351 12352 10441 12353 12357 10216 10442 
1351 1384 1682 1385 10442 12358 12359 10448 10450 12360 
1648 1682 1649 1351 12361 12362 12136 12126 12359 12131 
1351 1384 1681 1682 10442 12353 12357 12359 12358 12363 
1648 1682 1351 1681 12361 12359 12126 12355 12363 12357 
1649 1351 1682 1352 12131 12359 12362 12133 10223 12364 
1682 1351 1385 1352 12359 10448 12360 12364 10223 10449 
1353 1386 1684 1387 10460 12365 12366 10455 10459 12367 
1650 1684 1651 1353 12368 12369 12145 12143 12366 12138 
1353 1386 1683 1684 10460 12370 12371 12366 12365 12372 
1650 1684 1353 1683 12368 12366 12143 12373 12372 12371 
1651 1353 1684 1354 12138 12366 12369 12140 10232 12374 
1684 1353 1387 1354 12366 10455 12367 12374 10232 10456 
1354 1387 1685 1388 10456 12375 12376 10465 10467 12377 
1651 1685 1652 1354 12378 12379 12153 12140 12376 12148 
1354 1387 1684 1685 10456 12367 12374 12376 12375 12380 
1651 1685 1354 1684 12378 12376 12140 12369 12380 12374 
1652 1354 1685 1355 12148 12376 12379 12150 10240 12381 
1685 1354 1388 1355 12376 10465 12377 12381 10240 10466 
1355 1388 1686 1389 10466 12382 12383 10472 10474 12384 
1652 1686 1653 1355 12385 12386 12160 12150 12383 12155 
1355 1388 1685 1686 10466 12377 12381 12383 12382 12387 
1652 1686 1355 1685 12385 12383 12150 12379 12387 12381 
1653 1355 1686 1356 12155 12383 12386 12157 10247 12388 
1686 1355 1389 1356 12383 10472 12384 12388 10247 10473 
1356 1389 1687 1390 10473 12389 12390 10479 10481 12391 
1653 1687 1654 1356 12392 12393 12167 12157 12390 12162 
1356 1389 1686 1687 10473 12384 12388 12390 12389 12394 
1653 1687 1356 1686 12392 12390 12157 12386 12394 12388 
1654 1356 1687 1357 12162 12390 12393 12164 10254 12395 
1687 1356 1390 1357 12390 10479 12391 12395 10254 10480 
1357 1390 1688 1391 10480 12396 12397 10486 10488 12398 
1654 1688 1655 1357 12399 12400 12174 12164 12397 12169 
1357 1390 1687 1688 10480 12391 12395 12397 12396 12401 
1654 1688 1357 1687 12399 12397 12164 12393 12401 12395 
1655 1357 1688 1358 12169 12397 12400 12171 10261 12402 
1688 1357 1391 1358 12397 10486 12398 12402 10261 10487 
1358 1391 1689 1392 10487 12403 12404 10493 10495 12405 
1655 1689 1656 1358 12406 12407 12181 12171 12404 12176 
1358 1391 1688 1689 10487 12398 12402 12404 12403 12408 
1655 1689 1358 1688 12406 12404 12171 12400 12408 12402 
1656 1358 1689 1359 12176 12404 12407 12178 10268 12409 
1689 1358 1392 1359 12404 10493 12405 12409 10268 10494 
1359 1392 1690 1393 10494 12410 12411 10500 10502 12412 
1656 1690 1657 1359 12413 12414 12188 12178 12411 12183 
1359 1392 1689 1690 10494 12405 12409 12411 12410 12415 
1656 1690 1359 1689 12413 12411 12178 12407 12415 12409 
1657 1359 1690 1360 12183 12411 12414 12185 10275 12416 
1690 1359 1393 1360 12411 10500 12412 12416 10275 10501 
1360 1393 1691 1394 10501 12417 12418 10507 10509 12419 
1657 1691 1658 1360 12420 12421 12195 12185 12418 12190 
1360 1393 1690 1691 10501 12412 12416 12418 12417 12422 
1657 1691 1360 1690 12420 12418 12185 12414 12422 12416 
1658 1360 1691 1361 12190 12418 12421 12192 10282 12423 
1691 1360 1394 1361 12418 10507 12419 12423 10282 10508 
1361 1394 1692 1395 10508 12424 12425 10514 10516 12426 
1658 1692 1659 1361 12427 12428 12202 12192 12425 12197 
1361 1394 1691 1692 10508 12419 12423 12425 12424 12429 
1658 1692 1361 1691 12427 12425 12192 12421 12429 12423 
1659 1361 1692 1362 12197 12425 12428 12199 10289 12430 
1692 1361 1395 1362 12425 10514 12426 12430 10289 10515 
1362 1395 1693 1396 10515 12431 12432 10521 10523 12433 
1659 1693 1660 1362 12434 12435 12209 12199 12432 12204 
1362 1395 1692 1693 10515 12426 12430 12432 12431 12436 
1659 1693 1362 1692 12434 12432 12199 12428 12436 12430 
1660 1362 1693 1363 12204 12432 12435 12206 10296 12437 
1693 1362 1396 1363 12432 10521 12433 12437 10296 10522 
1363 1396 1694 1397 10522 12438 12439 10528 10530 12440 
1660 1694 1661 1363 12441 12442 12216 12206 12439 12211 
1363 1396 1693 1694 10522 12433 12437 12439 12438 12443 
1660 1694 1363 1693 12441 12439 12206 12435 12443 12437 
1661 1363 1694 1364 12211 12439 12442 12213 10303 12444 
1694 1363 1397 1364 12439 10528 12440 12444 10303 10529 
1364 1397 1695 1398 10529 12445 12446 10535 10537 12447 
1661 1695 1662 1364 12448 12449 12223 12213 12446 12218 
1364 1397 1694 1695 10529 12440 12444 12446 12445 12450 
1661 1695 1364 1694 12448 12446 12213 12442 12450 12444 
1662 1364 1695 1365 12218 12446 12449 12220 10310 12451 
1695 1364 1398 1365 12446 10535 12447 12451 10310 10536 
1365 1398 1696 1399 10536 12452 12453 10542 10544 12454 
1662 1696 1663 1365 12455 12456 12230 12220 12453 12225 
1365 1398 1695 1696 10536 12447 12451 12453 12452 12457 
1662 1696 1365 1695 12455 12453 12220 12449 12457 12451 
1663 1365 1696 1366 12225 12453 12456 12227 10317 12458 
1696 1365 1399 1366 12453 10542 12454 12458 10317 10543 
1366 1399 1697 1400 10543 12459 12460 10549 10551 12461 
1663 1697 1664 1366 12462 12463 12237 12227 12460 12232 
1366 1399 1696 1697 10543 12454 12458 12460 12459 12464 
1663 1697 1366 1696 12462 12460 12227 12456 12464 12458 
1664 1366 1697 1367 12232 12460 12463 12234 10324 12465 
1697 1366 1400 1367 12460 10549 12461 12465 10324 10550 
1367 1400 1698 1401 10550 12466 12467 10556 10558 12468 
1664 1698 1665 1367 12469 12470 12244 12234 12467 12239 
1367 1400 1697 1698 10550 12461 12465 12467 12466 12471 
1664 1698 1367 1697 12469 12467 12234 12463 12471 12465 
1665 1367 1698 1368 12239 12467 12470 12241 10331 12472 
1698 1367 1401 1368 12467 10556 12468 12472 10331 10557 
1368 1401 1699 1402 10557 12473 12474 10563 10565 12475 
1665 1699 1666 1368 12476 12477 12251 12241 12474 12246 
1368 1401 1698 1699 10557 12468 12472 12474 12473 12478 
1665 1699 1368 1698 12476 12474 12241 12470 12478 12472 
1666 1368 1699 1369 12246 12474 12477 12248 10338 12479 
1699 1368 1402 1369 12474 10563 12475 12479 10338 10564 
1369 1402 1700 1403 10564 12480 12481 10570 10572 12482 
1666 1700 1667 1369 12483 12484 12258 12248 12481 12253 
1369 1402 1699 1700 10564 12475 12479 12481 12480 12485 
1666 1700 1369 1699 12483 12481 12248 12477 12485 12479 
1667 1369 1700 1370 12253 12481 12484 12255 10345 12486 
1700 1369 1403 1370 12481 10570 12482 12486 10345 10571 
1370 1403 1701 1404 10571 12487 12488 10577 10579 12489 
1667 1701 1668 1370 12490 12491 12265 12255 12488 12260 
1370 1403 1700 1701 10571 12482 12486 12488 12487 12492 
1667 1701 1370 1700 12490 12488 12255 12484 12492 12486 
1668 1370 1701 1371 12260 12488 12491 12262 10352 12493 
1701 1370 1404 1371 12488 10577 12489 12493 10352 10578 
1371 1404 1702 1405 10578 12494 12495 10584 10586 12496 
1668 1702 1669 1371 12497 12498 12272 12262 12495 12267 
1371 1404 1701 1702 10578 12489 12493 12495 12494 12499 
1668 1702 1371 1701 12497 12495 12262 12491 12499 12493 
1669 1371 1702 1372 12267 12495 12498 12269 10359 12500 
1702 1371 1405 1372 12495 10584 12496 12500 10359 10585 
1372 1405 1703 1406 10585 12501 12502 10591 10593 12503 
1669 1703 1670 1372 12504 12505 12279 12269 12502 12274 
1372 1405 1702 1703 10585 12496 12500 12502 12501 12506 
1669 1703 1372 1702 12504 12502 12269 12498 12506 12500 
1670 1372 1703 1373 12274 12502 12505 12276 10366 12507 
1703 1372 1406 1373 12502 10591 12503 12507 10366 10592 
1373 1406 1704 1407 10592 12508 12509 10598 10600 12510 
1670 1704 1671 1373 12511 12512 12286 12276 12509 12281 
1373 1406 1703 1704 10592 12503 12507 12509 12508 12513 
1670 1704 1373 1703 12511 12509 12276 12505 12513 12507 
1671 1373 1704 1374 12281 12509 12512 12283 10373 12514 
1704 1373 1407 1374 12509 10598 12510 12514 10373 10599 
1374 1407 1705 1408 10599 12515 12516 10605 10607 12517 
1671 1705 1672 1374 12518 12519 12293 12283 12516 12288 
1374 1407 1704 1705 10599 12510 12514 12516 12515 12520 
1671 1705 1374 1704 12518 12516 12283 12512 12520 12514 
1672 1374 1705 1375 12288 12516 12519 12290 10380 12521 
1705 1374 1408 1375 12516 10605 12517 12521 10380 10606 
1375 1408 1706 1409 10606 12522 12523 10612 10614 12524 
1672 1706 1673 1375 12525 12526 12300 12290 12523 12295 
1375 1408 1705 1706 10606 12517 12521 12523 12522 12527 
1672 1706 1375 1705 12525 12523 12290 12519 12527 12521 
1673 1375 1706 1376 12295 12523 12526 12297 10387 12528 
1706 1375 1409 1376 12523 10612 12524 12528 10387 10613 
1376 1409 1707 1410 10613 12529 12530 10619 10621 12531 
1673 1707 1674 1376 12532 12533 12307 12297 12530 12302 
1376 1409 1706 1707 10613 12524 12528 12530 12529 12534 
1673 1707 1376 1706 12532 12530 12297 12526 12534 12528 
1674 1376 1707 1377 12302 12530 12533 12304 10394 12535 
1707 1376 1410 1377 12530 10619 12531 12535 10394 10620 
1377 1410 1708 1411 10620 12536 12537 10626 10628 12538 
1674 1708 1675 1377 12539 12540 12314 12304 12537 12309 
1377 1410 1707 1708 10620 12531 12535 12537 12536 12541 
1674 1708 1377 1707 12539 12537 12304 12533 12541 12535 
1675 1377 1708 1378 12309 12537 12540 12311 10401 12542 
1708 1377 1411 1378 12537 10626 12538 12542 10401 10627 
1378 1411 1709 1412 10627 12543 12544 10633 10635 12545 
1675 1709 1676 1378 12546 12547 12321 12311 12544 12316 
1378 1411 1708 1709 10627 12538 12542 12544 12543 12548 
1675 1709 1378 1708 12546 12544 12311 12540 12548 12542 
1676 1378 1709 1379 12316 12544 12547 12318 10408 12549 
1709 1378 1412 1379 12544 10633 12545 12549 10408 10634 
1379 1412 1710 1413 10634 12550 12551 10640 10642 12552 
1676 1710 1677 1379 12553 12554 12328 12318 12551 12323 
1379 1412 1709 1710 10634 12545 12549 12551 12550 12555 
1676 1710 1379 1709 12553 12551 12318 12547 12555 12549 
1677 1379 1710 1380 12323 12551 12554 12325 10415 12556 
1710 1379 1413 1380 12551 10640 12552 12556 10415 10641 
1380 1413 1711 1414 10641 12557 12558 10647 10649 12559 
1677 1711 1678 1380 12560 12561 12335 12325 12558 12330 
1380 1413 1710 1711 10641 12552 12556 12558 12557 12562 
1677 1711 1380 1710 12560 12558 12325 12554 12562 12556 
1678 1380 1711 1381 12330 12558 12561 12332 10422 12563 
1711 1380 1414 1381 12558 10647 12559 12563 10422 10648 
1381 1414 1712 1415 10648 12564 12565 10654 10656 12566 
1678 1712 1679 1381 12567 12568 12342 12332 12565 12337 
1381 1414 1711 1712 10648 12559 12563 12565 12564 12569 
1678 1712 1381 1711 12567 12565 12332 12561 12569 12563 
1679 1381 1712 1382 12337 12565 12568 12339 10429 12570 
1712 1381 1415 1382 12565 10654 12566 12570 10429 10655 
1382 1415 1713 1416 10655 12571 12572 10661 10663 12573 
1679 1713 1680 1382 12574 12575 12349 12339 12572 12344 
1382 1415 1712 1713 10655 12566 12570 12572 12571 12576 
1679 1713 1382 1712 12574 12572 12339 12568 12576 12570 
1680 1382 1713 1383 12344 12572 12575 12346 10436 12577 
1713 1382 1416 1383 12572 10661 12573 12577 10436 10662 
1383 1416 1714 1417 10662 12578 12579 10668 10670 12580 
1680 1714 1681 1383 12581 12582 12356 12346 12579 12351 
1383 1416 1713 1714 10662 12573 12577 12579 12578 12583 
1680 1714 1383 1713 12581 12579 12346 12575 12583 12577 
1681 1383 1714 1384 12351 12579 12582 12353 10443 12584 
1714 1383 1417 1384 12579 10668 12580 12584 10443 10669 
1384 1417 1715 1418 10669 12585 12586 10675 10677 12587 
1681 1715 1682 1384 12588 12589 12363 12353 12586 12358 
1384 1417 1714 1715 10669 12580 12584 12586 12585 12590 
1681 1715 1384 1714 12588 12586 12353 12582 12590 12584 
1682 1384 1715 1385 12358 12586 12589 12360 10450 12591 
1715 1384 1418 1385 12586 10675 12587 12591 10450 10676 
1386 1419 1717 1420 10687 12592 12593 10682 10686 12594 
1683 1717 1684 1386 12595 12596 12372 12370 12593 12365 
1386 1419 1716 1717 10687 12597 12598 12593 12592 12599 
1683 1717 1386 1716 12595 12593 12370 12600 12599 12598 
1684 1386 1717 1387 12365 12593 12596 12367 10459 12601 
1717 1386 1420 1387 12593 10682 12594 12601 10459 10683 
1387 1420 1718 1421 10683 12602 12603 10692 10694 12604 
1684 1718 1685 1387 12605 12606 12380 12367 12603 12375 
1387 1420 1717 1718 10683 12594 12601 12603 12602 12607 
1684 1718 1387 1717 12605 12603 12367 12596 12607 12601 
1685 1387 1718 1388 12375 12603 12606 12377 10467 12608 
1718 1387 1421 1388 12603 10692 12604 12608 10467 10693 
1388 1421 1719 1422 10693 12609 12610 10699 10701 12611 
1685 1719 1686 1388 12612 12613 12387 12377 12610 12382 
1388 1421 1718 1719 10693 12604 12608 12610 12609 12614 
1685 1719 1388 1718 12612 12610 12377 12606 12614 12608 
1686 1388 1719 1389 12382 12610 12613 12384 10474 12615 
1719 1388 1422 1389 12610 10699 12611 12615 10474 10700 
1389 1422 1720 1423 10700 12616 12617 10706 10708 12618 
1686 1720 1687 1389 12619 12620 12394 12384 12617 12389 
1389 1422 1719 1720 10700 12611 12615 12617 12616 12621 
1686 1720 1389 1719 12619 12617 12384 12613 12621 12615 
1687 1389 1720 1390 12389 12617 12620 12391 10481 12622 
1720 1389 1423 1390 12617 10706 12618 12622 10481 10707 
1390 1423 1721 1424 10707 12623 12624 10713 10715 12625 
1687 1721 1688 1390 12626 12627 12401 12391 12624 12396 
1390 1423 1720 1721 10707 12618 12622 12624 12623 12628 
1687 1721 1390 1720 12626 12624 12391 12620 12628 12622 
1688 1390 1721 1391 12396 12624 12627 12398 10488 12629 
1721 1390 1424 1391 12624 10713 12625 12629 10488 10714 
1391 1424 1722 1425 10714 12630 12631 10720 10722 12632 
1688 1722 1689 1391 12633 12634 12408 12398 12631 12403 
1391 1424 1721 1722 10714 12625 12629 12631 12630 12635 
1688 1722 1391 1721 12633 12631 12398 12627 12635 12629 
1689 1391 1722 1392 12403 12631 12634 12405 10495 12636 
1722 1391 1425 1392 12631 10720 12632 12636 10495 10721 
1392 1425 1723 1426 10721 12637 12638 10727 10729 12639 
1689 1723 1690 1392 12640 12641 12415 12405 12638 12410 
1392 1425 1722 1723 10721 12632 12636 12638 12637 12642 
1689 1723 1392 1722 12640 12638 12405 12634 12642 12636 
1690 1392 1723 1393 12410 12638 12641 12412 10502 12643 
1723 1392 1426 1393 12638 10727 12639 12643 10502 10728 
1393 1426 1724 1427 10728 12644 12645 10734 10736 12646 
1690 1724 1691 1393 12647 12648 12422 12412 12645 12417 
1393 1426 1723 1724 10728 12639 12643 12645 12644 12649 
1690 1724 1393 1723 12647 12645 12412 12641 12649 12643 
1691 1393 1724 1394 12417 12645 12648 12419 10509 12650 
1724 1393 1427 1394 12645 10734 12646 12650 10509 10735 
1394 1427 1725 1428 10735 12651 12652 10741 10743 12653 
1691 1725 1692 1394 12654 12655 12429 12419 12652 12424 
1394 1427 1724 1725 10735 12646 12650 12652 12651 12656 
1691 1725 1394 1724 12654 12652 12419 12648 12656 12650 
1692 1394 1725 1395 12424 12652 12655 12426 10516 12657 
1725 1394 1428 1395 12652 10741 12653 12657 10516 10742 
1395 1428 1726 1429 10742 12658 12659 10748 10750 12660 
1692 1726 1693 1395 12661 12662 12436 12426 12659 12431 
1395 1428 1725 1726 10742 12653 12657 12659 12658 12663 
1692 1726 1395 1725 12661 12659 12426 12655 12663 12657 
1693 1395 1726 1396 12431 12659 12662 12433 10523 12664 
1726 1395 1429 1396 12659 10748 12660 12664 10523 10749 
1396 1429 1727 1430 10749 12665 12666 10755 10757 12667 
1693 1727 1694 1396 12668 12669 12443 12433 12666 12438 
1396 1429 1726 1727 10749 12660 12664 12666 12665 12670 
1693 1727 1396 1726 12668 12666 12433 12662 12670 12664 
1694 1396 1727 1397 12438 12666 12669 12440 10530 12671 
1727 1396 1430 1397 12666 10755 12667 12671 10530 10756 
1397 1430 1728 1431 10756 12672 12673 10762 10764 12674 
1694 1728 1695 1397 12675 12676 12450 12440 12673 12445 
1397 1430 1727 1728 10756 12667 12671 12673 12672 12677 
1694 1728 1397 1727 12675 12673 12440 12669 12677 12671 
1695 1397 1728 1398 12445 12673 12676 12447 10537 12678 
1728 1397 1431 1398 12673 10762 12674 12678 10537 10763 
1398 1431 1729 1432 10763 12679 12680 10769 10771 12681 
1695 1729 1696 1398 12682 12683 12457 12447 12680 12452 
1398 1431 1728 1729 10763 12674 12678 12680 12679 12684 
1695 1729 1398 1728 12682 12680 12447 12676 12684 12678 
1696 1398 1729 1399 12452 12680 12683 12454 10544 12685 
1729 1398 1432 1399 12680 10769 12681 12685 10544 10770 
1399 1432 1730 1433 10770 12686 12687 10776 10778 12688 
1696 1730 1697 1399 12689 12690 12464 12454 12687 12459 
1399 1432 1729 1730 10770 12681 12685 12687 12686 12691 
1696 1730 1399 1729 12689 12687 12454 12683 12691 12685 
1697 1399 1730 1400 12459 12687 12690 12461 10551 12692 
1730 1399 1433 1400 12687 10776 12688 12692 10551 10777 
1400 1433 1731 1434 10777 12693 12694 10783 10785 12695 
1697 1731 1698 1400 12696 12697 12471 12461 12694 12466 
1400 1433 1730 1731 10777 12688 12692 12694 12693 12698 
1697 1731 1400 1730 12696 12694 12461 12690 12698 12692 
1698 1400 1731 1401 12466 12694 12697 12468 10558 12699 
1731 1400 1434 1401 12694 10783 12695 12699 10558 10784 
1401 1434 1732 1435 10784 12700 12701 10790 10792 12702 
1698 1732 1699 1401 12703 12704 12478 12468 12701 12473 
1401 1434 1731 1732 10784 12695 12699 12701 12700 12705 
1698 1732 1401 1731 12703 12701 12468 12697 12705 12699 
1699 1401 1732 1402 12473 12701 12704 12475 10565 12706 
1732 1401 1435 1402 12701 10790 12702 12706 10565 10791 
1402 1435 1733 1436 10791 12707 12708 10797 10799 12709 
1699 1733 1700 1402 12710 12711 12485 12475 12708 12480 
1402 1435 1732 1733 10791 12702 12706 12708 12707 12712 
1699 1733 1402 1732 12710 12708 12475 12704 12712 12706 
1700 1402 1733 1403 12480 12708 12711 12482 10572 12713 
1733 1402 1436 1403 12708 10797 12709 12713 10572 10798 
1403 1436 1734 1437 10798 12714 12715 10804 10806 12716 
1700 1734 1701 1403 12717 12718 12492 12482 12715 12487 
1403 1436 1733 1734 10798 12709 12713 12715 12714 12719 
1700 1734 1403 1733 12717 12715 12482 12711 12719 12713 
1701 1403 1734 1404 12487 12715 12718 12489 10579 12720 
1734 1403 1437 1404 12715 10804 12716 12720 10579 10805 
1404 1437 1735 1438 10805 12721 12722 10811 10813 12723 
1701 1735 1702 1404 12724 12725 12499 12489 12722 12494 
1404 1437 1734 1735 10805 12716 12720 12722 12721 12726 
1701 1735 1404 1734 12724 12722 12489 12718 12726 12720 
1702 1404 1735 1405 12494 12722 12725 12496 10586 12727 
1735 1404 1438 1405 12722 10811 12723 12727 10586 10812 
1405 1438 1736 1439 10812 12728 12729 10818 10820 12730 
1702 1736 1703 1405 12731 12732 12506 12496 12729 12501 
1405 1438 1735 1736 10812 12723 12727 12729 12728 12733 
1702 1736 1405 1735 12731 12729 12496 12725 12733 12727 
1703 1405 1736 1406 12501 12729 12732 12503 10593 12734 
1736 1405 1439 1406 12729 10818 12730 12734 10593 10819 
1406 1439 1737 1440 10819 12735 12736 10825 10827 12737 
1703 1737 1704 1406 12738 12739 12513 12503 12736 12508 
1406 1439 1736 1737 10819 12730 12734 12736 12735 12740 
1703 1737 1406 1736 12738 12736 12503 12732 12740 12734 
1704 1406 1737 1407 12508 12736 12739 12510 10600 12741 
1737 1406 1440 1407 12736 10825 12737 12741 10600 10826 
1407 1440 1738 1441 10826 12742 12743 10832 10834 12744 
1704 1738 1705 1407 12745 12746 12520 12510 12743 12515 
1407 1440 1737 1738 10826 12737 12741 12743 12742 12747 
1704 1738 1407 1737 12745 12743 12510 12739 12747 12741 
1705 1407 1738 1408 12515 12743 12746 12517 10607 12748 
1738 1407 1441 1408 12743 10832 12744 12748 10607 10833 
1408 1441 1739 1442 10833 12749 12750 10839 10841 12751 
1705 1739 1706 1408 12752 12753 12527 12517 12750 12522 
1408 1441 1738 1739 10833 12744 12748 12750 12749 12754 
1705 1739 1408 1738 12752 12750 12517 12746 12754 12748 
1706 1408 1739 1409 12522 12750 12753 12524 10614 12755 
1739 1408 1442 1409 12750 10839 12751 12755 10614 10840 
1409 1442 1740 1443 10840 12756 12757 10846 10848 12758 
1706 1740 1707 1409 12759 12760 12534 12524 12757 12529 
1409 1442 1739 1740 10840 12751 12755 12757 12756 12761 
1706 1740 1409 1739 12759 12757 12524 12753 12761 12755 
1707 1409 1740 1410 12529 12757 12760 12531 10621 12762 
1740 1409 1443 1410 12757 10846 12758 12762 10621 10847 
1410 1443 1741 1444 10847 12763 12764 10853 10855 12765 
1707 1741 1708 1410 12766 12767 12541 12531 12764 12536 
1410 1443 1740 1741 10847 12758 12762 12764 12763 12768 
1707 1741 1410 1740 12766 12764 12531 12760 12768 12762 
1708 1410 1741 1411 12536 12764 12767 12538 10628 12769 
1741 1410 1444 1411 12764 10853 12765 12769 10628 10854 
1411 1444 1742 1445 10854 12770 12771 10860 10862 12772 
1708 1742 1709 1411 12773 12774 12548 12538 12771 12543 
1411 1444 1741 1742 10854 12765 12769 12771 12770 12775 
1708 1742 1411 1741 12773 12771 12538 12767 12775 12769 
1709 1411 1742 1412 12543 12771 12774 12545 10635 12776 
1742 1411 1445 1412 12771 10860 12772 12776 10635 10861 
1412 1445 1743 1446 10861 12777 12778 10867 10869 12779 
1709 1743 1710 1412 12780 12781 12555 12545 12778 12550 
1412 1445 1742 1743 10861 12772 12776 12778 12777 12782 
1709 1743 1412 1742 12780 12778 12545 12774 12782 12776 
1710 1412 1743 1413 12550 12778 12781 12552 10642 12783 
1743 1412 1446 1413 12778 10867 12779 12783 10642 10868 
1413 1446 1744 1447 10868 12784 12785 10874 10876 12786 
1710 1744 1711 1413 12787 12788 12562 12552 12785 12557 
1413 1446 1743 1744 10868 12779 12783 12785 12784 12789 
1710 1744 1413 1743 12787 12785 12552 12781 12789 12783 
1711 1413 1744 1414 12557 12785 12788 12559 10649 12790 
1744 1413 1447 1414 12785 10874 12786 12790 10649 10875 
1414 1447 1745 1448 10875 12791 12792 10881 10883 12793 
1711 1745 1712 1414 12794 12795 12569 12559 12792 12564 
1414 1447 1744 1745 10875 12786 12790 12792 12791 12796 
1711 1745 1414 1744 12794 12792 12559 12788 12796 12790 
1712 1414 1745 1415 12564 12792 12795 12566 10656 12797 
1745 1414 1448 1415 12792 10881 12793 12797 10656 10882 
1415 1448 1746 1449 10882 12798 12799 10888 10890 12800 
1712 1746 1713 1415 12801 12802 12576 12566 12799 12571 
1415 1448 1745 1746 10882 12793 12797 12799 12798 12803 
1712 1746 1415 1745 12801 12799 12566 12795 12803 12797 
1713 1415 1746 1416 12571 12799 12802 12573 10663 12804 
1746 1415 1449 1416 12799 10888 12800 12804 10663 10889 
1416 1449 1747 1450 10889 12805 12806 10895 10897 12807 
1713 1747 1714 1416 12808 12809 12583 12573 12806 12578 
1416 1449 1746 1747 10889 12800 12804 12806 12805 12810 
1713 1747 1416 1746 12808 12806 12573 12802 12810 12804 
1714 1416 1747 1417 12578 12806 12809 12580 10670 12811 
1747 1416 1450 1417 12806 10895 12807 12811 10670 10896 
1417 1450 1748 1451 10896 12812 12813 10902 10904 12814 
1714 1748 1715 1417 12815 12816 12590 12580 12813 12585 
1417 1450 1747 1748 10896 12807 12811 12813 12812 12817 
1714 1748 1417 1747 12815 12813 12580 12809 12817 12811 
1715 1417 1748 1418 12585 12813 12816 12587 10677 12818 
1748 1417 1451 1418 12813 10902 12814 12818 10677 10903 
1419 1452 1750 1453 10914 12819 12820 10909 10913 12821 
1716 1750 1717 1419 12822 12823 12599 12597 12820 12592 
1419 1452 1749 1750 10914 12824 12825 12820 12819 12826 
1716 1750 1419 1749 12822 12820 12597 12827 12826 12825 
1717 1419 1750 1420 12592 12820 12823 12594 10686 12828 
1750 1419 1453 1420 12820 10909 12821 12828 10686 10910 
1420 1453 1751 1454 10910 12829 12830 10919 10921 12831 
1717 1751 1718 1420 12832 12833 12607 12594 12830 12602 
1420 1453 1750 1751 10910 12821 12828 12830 12829 12834 
1717 1751 1420 1750 12832 12830 12594 12823 12834 12828 
1718 1420 1751 1421 12602 12830 12833 12604 10694 12835 
1751 1420 1454 1421 12830 10919 12831 12835 10694 10920 
1421 1454 1752 1455 10920 12836 12837 10926 10928 12838 
1718 1752 1719 1421 12839 12840 12614 12604 12837 12609 
1421 1454 1751 1752 10920 12831 12835 12837 12836 12841 
1718 1752 1421 1751 12839 12837 12604 12833 12841 12835 
1719 1421 1752 1422 12609 12837 12840 12611 10701 12842 
1752 1421 1455 1422 12837 10926 12838 12842 10701 10927 
1422 1455 1753 1456 10927 12843 12844 10933 10935 12845 
1719 1753 1720 1422 12846 12847 12621 12611 12844 12616 
1422 1455 1752 1753 10927 12838 12842 12844 12843 12848 
1719 1753 1422 1752 12846 12844 12611 12840 12848 12842 
1720 1422 1753 1423 12616 12844 12847 12618 10708 12849 
1753 1422 1456 1423 12844 10933 12845 12849 10708 10934 
1423 1456 1754 1457 10934 12850 12851 10940 10942 12852 
1720 1754 1721 1423 12853 12854 12628 12618 12851 12623 
1423 1456 1753 1754 10934 12845 12849 12851 12850 12855 
1720 1754 1423 1753 12853 12851 12618 12847 12855 12849 
1721 1423 1754 1424 12623 12851 12854 12625 10715 12856 
1754 1423 1457 1424 12851 10940 12852 12856 10715 10941 
1424 1457 1755 1458 10941 12857 12858 10947 10949 12859 
1721 1755 1722 1424 12860 12861 12635 12625 12858 12630 
1424 1457 1754 1755 10941 12852 12856 12858 12857 12862 
1721 1755 1424 1754 12860 12858 12625 12854 12862 12856 
1722 1424 1755 1425 12630 12858 12861 12632 10722 12863 
1755 1424 1458 1425 12858 10947 12859 12863 10722 10948 
1425 1458 1756 1459 10948 12864 12865 10954 10956 12866 
1722 1756 1723 1425 12867 12868 12642 12632 12865 12637 
1425 1458 1755 1756 10948 12859 12863 12865 12864 12869 
1722 1756 1425 1755 12867 12865 12632 12861 12869 12863 
1723 1425 1756 1426 12637 12865 12868 12639 10729 12870 
1756 1425 1459 1426 12865 10954 12866 12870 10729 10955 
1426 1459 1757 1460 10955 12871 12872 10961 10963 12873 
1723 1757 1724 1426 12874 12875 12649 12639 12872 12644 
1426 1459 1756 1757 10955 12866 12870 12872 12871 12876 
1723 1757 1426 1756 12874 12872 12639 12868 12876 12870 
1724 1426 1757 1427 12644 12872 12875 12646 10736 12877 
1757 1426 1460 1427 12872 10961 12873 12877 10736 10962 
1427 1460 1758 1461 10962 12878 12879 10968 10970 12880 
1724 1758 1725 1427 12881 12882 12656 12646 12879 12651 
1427 1460 1757 1758 10962 12873 12877 12879 12878 12883 
1724 1758 1427 1757 12881 12879 12646 12875 12883 12877 
1725 1427 1758 1428 12651 12879 12882 12653 10743 12884 
1758 1427 1461 1428 12879 10968 12880 12884 10743 10969 
1428 1461 1759 1462 10969 12885 12886 10975 10977 12887 
1725 1759 1726 1428 12888 12889 12663 12653 12886 12658 
1428 1461 1758 1759 10969 12880 12884 12886 12885 12890 
1725 1759 1428 1758 12888 12886 12653 12882 12890 12884 
1726 1428 1759 1429 12658 12886 12889 12660 10750 12891 
1759 1428 1462 1429 12886 10975 12887 12891 10750 10976 
1429 1462 1760 1463 10976 12892 12893 10982 10984 12894 
1726 1760 1727 1429 12895 12896 12670 12660 12893 12665 
1429 1462 1759 1760 10976 12887 12891 12893 12892 12897 
1726 1760 1429 1759 12895 12893 12660 12889 12897 12891 
1727 1429 1760 1430 12665 12893 12896 12667 10757 12898 
1760 1429 1463 1430 12893 10982 12894 12898 10757 10983 
1430 1463 1761 1464 10983 12899 12900 10989 10991 12901 
1727 1761 1728 1430 12902 12903 12677 12667 12900 12672 
1430 1463 1760 1761 10983 12894 12898 12900 12899 12904 
1727 1761 1430 1760 12902 12900 12667 12896 12904 12898 
1728 1430 1761 1431 12672 12900 12903 12674 10764 12905 
1761 1430 1464 1431 12900 10989 12901 12905 10764 10990 
1431 1464 1762 1465 10990 12906 12907 10996 10998 12908 
1728 1762 1729 1431 12909 12910 12684 12674 12907 12679 
1431 1464 1761 1762 10990 12901 12905 12907 12906 12911 
1728 1762 1431 1761 12909 12907 12674 12903 12911 12905 
1729 1431 1762 1432 12679 12907 12910 12681 10771 12912 
1762 1431 1465 1432 12907 10996 12908 12912 10771 10997 
1432 1465 1763 1466 10997 12913 12914 11003 11005 12915 
1729 1763 1730 1432 12916 12917 12691 12681 12914 12686 
1432 1465 1762 1763 10997 12908 12912 12914 12913 12918 
1729 1763 1432 1762 12916 12914 12681 12910 12918 12912 
1730 1432 1763 1433 12686 12914 12917 12688 10778 12919 
1763 1432 1466 1433 12914 11003 12915 12919 10778 11004 
1433 1466 1764 1467 11004 12920 12921 11010 11012 12922 
1730 1764 1731 1433 12923 12924 12698 12688 12921 12693 
1433 1466 1763 1764 11004 12915 12919 12921 12920 12925 
1730 1764 1433 1763 12923 12921 12688 12917 12925 12919 
1731 1433 1764 1434 12693 12921 12924 12695 10785 12926 
1764 1433 1467 1434 12921 11010 12922 12926 10785 11011 
1434 1467 1765 1468 11011 12927 12928 11017 11019 12929 
1731 1765 1732 1434 12930 12931 12705 12695 12928 12700 
1434 1467 1764 1765 11011 12922 12926 12928 12927 12932 
1731 1765 1434 1764 12930 12928 12695 12924 12932 12926 
1732 1434 1765 1435 12700 12928 12931 12702 10792 12933 
1765 1434 1468 1435 12928 11017 12929 12933 10792 11018 
1435 1468 1766 1469 11018 12934 12935 11024 11026 12936 
1732 1766 1733 1435 12937 12938 12712 12702 12935 12707 
1435 1468 1765 1766 11018 12929 12933 12935 12934 12939 
1732 1766 1435 1765 12937 12935 12702 12931 12939 12933 
1733 1435 1766 1436 12707 12935 12938 12709 10799 12940 
1766 1435 1469 1436 12935 11024 12936 12940 10799 11025 
1436 1469 1767 1470 11025 12941 12942 11031 11033 12943 
1733 1767 1734 1436 12944 12945 12719 12709 12942 12714 
1436 1469 1766 1767 11025 12936 12940 12942 12941 12946 
1733 1767 1436 1766 12944 12942 12709 12938 12946 12940 
1734 1436 1767 1437 12714 12942 12945 12716 10806 12947 
1767 1436 1470 1437 12942 11031 12943 12947 10806 11032 
1437 1470 1768 1471 11032 12948 12949 11038 11040 12950 
1734 1768 1735 1437 12951 12952 12726 12716 12949 12721 
1437 1470 1767 1768 11032 12943 12947 12949 12948 12953 
1734 1768 1437 1767 12951 12949 12716 12945 12953 12947 
1735 1437 1768 1438 12721 12949 12952 12723 10813 12954 
1768 1437 1471 1438 12949 11038 12950 12954 10813 11039 
1438 1471 1769 1472 11039 12955 12956 11045 11047 12957 
1735 1769 1736 1438 12958 12959 12733 12723 12956 12728 
1438 1471 1768 1769 11039 12950 12954 12956 12955 12960 
1735 1769 1438 1768 12958 12956 12723 12952 12960 12954 
1736 1438 1769 1439 12728 12956 12959 12730 10820 12961 
1769 1438 1472 1439 12956 11045 12957 12961 10820 11046 
1439 1472 1770 1473 11046 12962 12963 11052 11054 12964 
1736 1770 1737 1439 12965 12966 12740 12730 12963 12735 
1439 1472 1769 1770 11046 12957 12961 12963 12962 12967 
1736 1770 1439 1769 12965 12963 12730 12959 12967 12961 
1737 1439 1770 1440 12735 12963 12966 12737 10827 12968 
1770 1439 1473 1440 12963 11052 12964 12968 10827 11053 
1440 1473 1771 1474 11053 12969 12970 11059 11061 12971 
1737 1771 1738 1440 12972 12973 12747 12737 12970 12742 
1440 1473 1770 1771 11053 12964 12968 12970 12969 12974 
1737 1771 1440 1770 12972 12970 12737 12966 12974 12968 
1738 1440 1771 1441 12742 12970 12973 12744 10834 12975 
1771 1440 1474 1441 12970 11059 12971 12975 10834 11060 
1441 1474 1772 1475 11060 12976 12977 11066 11068 12978 
1738 1772 1739 1441 12979 12980 12754 12744 12977 12749 
1441 1474 1771 1772 11060 12971 12975 12977 12976 12981 
1738 1772 1441 1771 12979 12977 12744 12973 12981 12975 
1739 1441 1772 1442 12749 12977 12980 12751 10841 12982 
1772 1441 1475 1442 12977 11066 12978 12982 10841 11067 
1442 1475 1773 1476 11067 12983 12984 11073 11075 12985 
1739 1773 1740 1442 12986 12987 12761 12751 12984 12756 
1442 1475 1772 1773 11067 12978 12982 12984 12983 12988 
1739 1773 1442 1772 12986 12984 12751 12980 12988 12982 
1740 1442 1773 1443 12756 12984 12987 12758 10848 12989 
1773 1442 1476 1443 12984 11073 12985 12989 10848 11074 
1443 1476 1774 1477 11074 12990 12991 11080 11082 12992 
1740 1774 1741 1443 12993 12994 12768 12758 12991 12763 
1443 1476 1773 1774 11074 12985 12989 12991 12990 12995 
1740 1774 1443 1773 12993 12991 12758 12987 12995 12989 
1741 1443 1774 1444 12763 12991 12994 12765 10855 12996 
1774 1443 1477 1444 12991 11080 12992 12996 10855 11081 
1444 1477 1775 1478 11081 12997 12998 11087 11089 12999 
1741 1775 1742 1444 13000 13001 12775 12765 12998 12770 
1444 1477 1774 1775 11081 12992 12996 12998 12997 13002 
1741 1775 1444 1774 13000 12998 12765 12994 13002 12996 
1742 1444 1775 1445 12770 12998 13001 12772 10862 13003 
1775 1444 1478 1445 12998 11087 12999 13003 10862 11088 
1445 1478 1776 1479 11088 13004 13005 11094 11096 13006 
1742 1776 1743 1445 13007 13008 12782 12772 13005 12777 
1445 1478 1775 1776 11088 12999 13003 13005 13004 13009 
1742 1776 1445 1775 13007 13005 12772 13001 13009 13003 
1743 1445 1776 1446 12777 13005 13008 12779 10869 13010 
1776 1445 1479 1446 13005 11094 13006 13010 10869 11095 
1446 1479 1777 1480 11095 13011 13012 11101 11103 13013 
1743 1777 1744 1446 13014 13015 12789 12779 13012 12784 
1446 1479 1776 1777 11095 13006 13010 13012 13011 13016 
1743 1777 1446 1776 13014 13012 12779 13008 13016 13010 
1744 1446 1777 1447 12784 13012 13015 12786 10876 13017 
1777 1446 1480 1447 13012 11101 13013 13017 10876 11102 
1447 1480 1778 1481 11102 13018 13019 11108 11110 13020 
1744 1778 1745 1447 13021 13022 12796 12786 13019 12791 
1447 1480 1777 1778 11102 13013 13017 13019 13018 13023 
1744 1778 1447 1777 13021 13019 12786 13015 13023 13017 
1745 1447 1778 1448 12791 13019 13022 12793 10883 13024 
1778 1447 1481 1448 13019 11108 13020 13024 10883 11109 
1448 1481 1779 1482 11109 13025 13026 11115 11117 13027 
1745 1779 1746 1448 13028 13029 12803 12793 13026 12798 
1448 1481 1778 1779 11109 13020 13024 13026 13025 13030 
1745 1779 1448 1778 13028 13026 12793 13022 13030 13024 
1746 1448 1779 1449 12798 13026 13029 12800 10890 13031 
1779 1448 1482 1449 13026 11115 13027 13031 10890 11116 
1449 1482 1780 1483 11116 13032 13033 11122 11124 13034 
1746 1780 1747 1449 13035 13036 12810 12800 13033 12805 
1449 1482 1779 1780 11116 13027 13031 13033 13032 13037 
1746 1780 1449 1779 13035 13033 12800 13029 13037 13031 
1747 1449 1780 1450 12805 13033 13036 12807 10897 13038 
1780 1449 1483 1450 13033 11122 13034 13038 10897 11123 
1450 1483 1781 1484 11123 13039 13040 11129 11131 13041 
1747 1781 1748 1450 13042 13043 12817 12807 13040 12812 
1450 1483 1780 1781 11123 13034 13038 13040 13039 13044 
1747 1781 1450 1780 13042 13040 12807 13036 13044 13038 
1748 1450 1781 1451 12812 13040 13043 12814 10904 13045 
1781 1450 1484 1451 13040 11129 13041 13045 10904 11130 
1485 1518 1816 1519 11144 13046 13047 11136 11143 13048 
1782 1816 1783 1485 13049 13050 13051 13052 13047 13053 
1485 1518 1815 1816 11144 13054 13055 13047 13046 13056 
1782 1816 1485 1815 13049 13047 13052 13057 13056 13055 
1783 1485 1816 1486 13053 13047 13050 13058 11138 13059 
1816 1485 1519 1486 13047 11136 13048 13059 11138 11137 
1486 1519 1817 1520 11137 13060 13061 11150 11154 13062 
1783 1817 1784 1486 13063 13064 13065 13058 13061 13066 
1486 1519 1816 1817 11137 13048 13059 13061 13060 13067 
1783 1817 1486 1816 13063 13061 13058 13050 13067 13059 
1784 1486 1817 1487 13066 13061 13064 13068 11152 13069 
1817 1486 1520 1487 13061 11150 13062 13069 11152 11151 
1487 1520 1818 1521 11151 13070 13071 11160 11164 13072 
1784 1818 1785 1487 13073 13074 13075 13068 13071 13076 
1487 1520 1817 1818 11151 13062 13069 13071 13070 13077 
1784 1818 1487 1817 13073 13071 13068 13064 13077 13069 
1785 1487 1818 1488 13076 13071 13074 13078 11162 13079 
1818 1487 1521 1488 13071 11160 13072 13079 11162 11161 
1488 1521 1819 1522 11161 13080 13081 11170 11174 13082 
1785 1819 1786 1488 13083 13084 13085 13078 13081 13086 
1488 1521 1818 1819 11161 13072 13079 13081 13080 13087 
1785 1819 1488 1818 13083 13081 13078 13074 13087 13079 
1786 1488 1819 1489 13086 13081 13084 13088 11172 13089 
1819 1488 1522 1489 13081 11170 13082 13089 11172 11171 
1489 1522 1820 1523 11171 13090 13091 11180 11184 13092 
1786 1820 1787 1489 13093 13094 13095 13088 13091 13096 
1489 1522 1819 1820 11171 13082 13089 13091 13090 13097 
1786 1820 1489 1819 13093 13091 13088 13084 13097 13089 
1787 1489 1820 1490 13096 13091 13094 13098 11182 13099 
1820 1489 1523 1490 13091 11180 13092 13099 11182 11181 
1490 1523 1821 1524 11181 13100 13101 11190 11194 13102 
1787 1821 1788 1490 13103 13104 13105 13098 13101 13106 
1490 1523 1820 1821 11181 13092 13099 13101 13100 13107 
1787 1821 1490 1820 13103 13101 13098 13094 13107 13099 
1788 1490 1821 1491 13106 13101 13104 13108 11192 13109 
1821 1490 1524 1491 13101 11190 13102 13109 11192 11191 
1491 1524 1822 1525 11191 13110 13111 11200 11204 13112 
1788 1822 1789 1491 13113 13114 13115 13108 13111 13116 
1491 1524 1821 1822 11191 13102 13109 13111 13110 13117 
1788 1822 1491 1821 13113 13111 13108 13104 13117 13109 
1789 1491 1822 1492 13116 13111 13114 13118 11202 13119 
1822 1491 1525 1492 13111 11200 13112 13119 11202 11201 
1492 1525 1823 1526 11201 13120 13121 11210 11214 13122 
1789 1823 1790 1492 13123 13124 13125 13118 13121 13126 
1492 1525 1822 1823 11201 13112 13119 13121 13120 13127 
1789 1823 1492 1822 13123 13121 13118 13114 13127 13119 
1790 1492 1823 1493 13126 13121 13124 13128 11212 13129 
1823 1492 1526 1493 13121 11210 13122 13129 11212 11211 
1493 1526 1824 1527 11211 13130 13131 11220 11224 13132 
1790 1824 1791 1493 13133 13134 13135 13128 13131 13136 
1493 1526 1823 1824 11211 13122 13129 13131 13130 13137 
1790 1824 1493 1823 13133 13131 13128 13124 13137 13129 
1791 1493 1824 1494 13136 13131 13134 13138 11222 13139 
1824 1493 1527 1494 13131 11220 13132 13139 11222 11221 
1494 1527 1825 1528 11221 13140 13141 11230 11234 13142 
1791 1825 1792 1494 13143 13144 13145 13138 13141 13146 
1494 1527 1824 1825 11221 13132 13139 13141 13140 13147 
1791 1825 1494 1824 13143 13141 13138 13134 13147 13139 
1792 1494 1825 1495 13146 13141 13144 13148 11232 13149 
1825 1494 1528 1495 13141 11230 13142 13149 11232 11231 
1495 1528 1826 1529 11231 13150 13151 11240 11244 13152 
1792 1826 1793 1495 13153 13154 13155 13148 13151 13156 
1495 1528 1825 1826 11231 13142 13149 13151 13150 13157 
1792 1826 1495 1825 13153 13151 13148 13144 13157 13149 
1793 1495 1826 1496 13156 13151 13154 13158 11242 13159 
1826 1495 1529 1496 13151 11240 13152 13159 11242 11241 
1496 1529 1827 1530 11241 13160 13161 11250 11254 13162 
1793 1827 1794 1496 13163 13164 13165 13158 13161 13166 
1496 1529 1826 1827 11241 13152 13159 13161 13160 13167 
1793 1827 1496 1826 13163 13161 13158 13154 13167 13159 
1794 1496 1827 1497 13166 13161 13164 13168 11252 13169 
1827 1496 1530 1497 13161 11250 13162 13169 11252 11251 
1497 1530 1828 1531 11251 13170 13171 11260 11264 13172 
1794 1828 1795 1497 13173 13174 13175 13168 13171 13176 
1497 1530 1827 1828 11251 13162 13169 13171 13170 13177 
1794 1828 1497 1827 13173 13171 13168 13164 13177 13169 
1795 1497 1828 1498 13176 13171 13174 13178 11262 13179 
1828 1497 1531 1498 13171 11260 13172 13179 11262 11261 
1498 1531 1829 1532 11261 13180 13181 11270 11274 13182 
1795 1829 1796 1498 13183 13184 13185 13178 13181 13186 
1498 1531 1828 1829 11261 13172 13179 13181 13180 13187 
1795 1829 1498 1828 13183 13181 13178 13174 13187 13179 
1796 1498 1829 1499 13186 13181 13184 13188 11272 13189 
1829 1498 1532 1499 13181 11270 13182 13189 11272 11271 
1499 1532 1830 1533 11271 13190 13191 11280 11284 13192 
1796 1830 1797 1499 13193 13194 13195 13188 13191 13196 
1499 1532 1829 1830 11271 13182 13189 13191 13190 13197 
1796 1830 1499 1829 13193 13191 13188 13184 13197 13189 
1797 1499 1830 1500 13196 13191 13194 13198 11282 13199 
1830 1499 1533 1500 13191 11280 13192 13199 11282 11281 
1500 1533 1831 1534 11281 13200 13201 11290 11294 13202 
1797 1831 1798 1500 13203 13204 13205 13198 13201 13206 
1500 1533 1830 1831 11281 13192 13199 13201 13200 13207 
1797 1831 1500 1830 13203 13201 13198 13194 13207 13199 
1798 1500 1831 1501 13206 13201 13204 13208 11292 13209 
1831 1500 1534 1501 13201 11290 13202 13209 11292 11291 
1501 1534 1832 1535 11291 13210 13211 11300 11304 13212 
1798 1832 1799 1501 13213 13214 13215 13208 13211 13216 
1501 1534 1831 1832 11291 13202 13209 13211 13210 13217 
1798 1832 1501 1831 13213 13211 13208 13204 13217 13209 
1799 1501 1832 1502 13216 13211 13214 13218 11302 13219 
1832 1501 1535 1502 13211 11300 13212 13219 11302 11301 
1502 1535 1833 1536 11301 13220 13221 11310 11314 13222 
1799 1833 1800 1502 13223 13224 13225 13218 13221 13226 
1502 1535 1832 1833 11301 13212 13219 13221 13220 13227 
1799 1833 1502 1832 13223 13221 13218 13214 13227 13219 
1800 1502 1833 1503 13226 13221 13224 13228 11312 13229 
1833 1502 1536 1503 13221 11310 13222 13229 11312 11311 
1503 1536 1834 1537 11311 13230 13231 11320 11324 13232 
1800 1834 1801 1503 13233 13234 13235 13228 13231 13236 
1503 1536 1833 1834 11311 13222 13229 13231 13230 13237 
1800 1834 1503 1833 13233 13231 13228 13224 13237 13229 
1801 1503 1834 1504 13236 13231 13234 13238 11322 13239 
1834 1503 1537 1504 13231 11320 13232 13239 11322 11321 
1504 1537 1835 1538 11321 13240 13241 11330 11334 13242 
1801 1835 1802 1504 13243 13244 13245 13238 13241 13246 
1504 1537 1834 1835 11321 13232 13239 13241 13240 13247 
1801 1835 1504 1834 13243 13241 13238 13234 13247 13239 
1802 1504 1835 1505 13246 13241 13244 13248 11332 13249 
1835 1504 1538 1505 13241 11330 13242 13249 11332 11331 
1505 1538 1836 1539 11331 13250 13251 11340 11344 13252 
1802 1836 1803 1505 13253 13254 13255 13248 13251 13256 
1505 1538 1835 1836 11331 13242 13249 13251 13250 13257 
1802 1836 1505 1835 13253 13251 13248 13244 13257 13249 
1803 1505 1836 1506 13256 13251 13254 13258 11342 13259 
1836 1505 1539 1506 13251 11340 13252 13259 11342 11341 
1506 1539 1837 1540 11341 13260 13261 11350 11354 13262 
1803 1837 1804 1506 13263 13264 13265 13258 13261 13266 
1506 1539 1836 1837 11341 13252 13259 13261 13260 13267 
1803 1837 1506 1836 13263 13261 13258 13254 13267 13259 
1804 1506 1837 1507 13266 13261 13264 13268 11352 13269 
1837 1506 1540 1507 13261 11350 13262 13269 11352 11351 
1507 1540 1838 1541 11351 13270 13271 11360 11364 13272 
1804 1838 1805 1507 13273 13274 13275 13268 13271 13276 
1507 1540 1837 1838 11351 13262 13269 13271 13270 13277 
1804 1838 1507 1837 13273 13271 13268 13264 13277 13269 
1805 1507 1838 1508 13276 13271 13274 13278 11362 13279 
1838 1507 1541 1508 13271 11360 13272 13279 11362 11361 
1508 1541 1839 1542 11361 13280 13281 11370 11374 13282 
1805 1839 1806 1508 13283 13284 13285 13278 13281 13286 
1508 1541 1838 1839 11361 13272 13279 13281 13280 13287 
1805 1839 1508 1838 13283 13281 13278 13274 13287 13279 
1806 1508 1839 1509 13286 13281 13284 13288 11372 13289 
1839 1508 1542 1509 13281 11370 13282 13289 11372 11371 
1509 1542 1840 1543 11371 13290 13291 11380 11384 13292 
1806 1840 1807 1509 13293 13294 13295 13288 13291 13296 
1509 1542 1839 1840 11371 13282 13289 13291 13290 13297 
1806 1840 1509 1839 13293 13291 13288 13284 13297 13289 
1807 1509 1840 1510 13296 13291 13294 13298 11382 13299 
1840 1509 1543 1510 13291 11380 13292 13299 11382 11381 
1510 1543 1841 1544 11381 13300 13301 11390 11394 13302 
1807 1841 1808 1510 13303 13304 13305 13298 13301 13306 
1510 1543 1840 1841 11381 13292 13299 13301 13300 13307 
1807 1841 1510 1840 13303 13301 13298 13294 13307 13299 
1808 1510 1841 1511 13306 13301 13304 13308 11392 13309 
1841 1510 1544 1511 13301 11390 13302 13309 11392 11391 
1511 1544 1842 1545 11391 13310 13311 11400 11404 13312 
1808 1842 1809 1511 13313 13314 13315 13308 13311 13316 
1511 1544 1841 1842 11391 13302 13309 13311 13310 13317 
1808 1842 1511 1841 13313 13311 13308 13304 13317 13309 
1809 1511 1842 1512 13316 13311 13314 13318 11402 13319 
1842 1511 1545 1512 13311 11400 13312 13319 11402 11401 
1512 1545 1843 1546 11401 13320 13321 11410 11414 13322 
1809 1843 1810 1512 13323 13324 13325 13318 13321 13326 
1512 1545 1842 1843 11401 13312 13319 13321 13320 13327 
1809 1843 1512 1842 13323 13321 13318 13314 13327 13319 
1810 1512 1843 1513 13326 13321 13324 13328 11412 13329 
1843 1512 1546 1513 13321 11410 13322 13329 11412 11411 
1513 1546 1844 1547 11411 13330 13331 11420 11424 13332 
1810 1844 1811 1513 13333 13334 13335 13328 13331 13336 
1513 1546 1843 1844 11411 13322 13329 13331 13330 13337 
1810 1844 1513 1843 13333 13331 13328 13324 13337 13329 
1811 1513 1844 1514 13336 13331 13334 13338 11422 13339 
1844 1513 1547 1514 13331 11420 13332 13339 11422 11421 
1514 1547 1845 1548 11421 13340 13341 11430 11434 13342 
1811 1845 1812 1514 13343 13344 13345 13338 13341 13346 
1514 1547 1844 1845 11421 13332 13339 13341 13340 13347 
1811 1845 1514 1844 13343 13341 13338 13334 13347 13339 
1812 1514 1845 1515 13346 13341 13344 13348 11432 13349 
1845 1514 1548 1515 13341 11430 13342 13349 11432 11431 
1515 1548 1846 1549 11431 13350 13351 11440 11444 13352 
1812 1846 1813 1515 13353 13354 13355 13348 13351 13356 
1515 1548 1845 1846 11431 13342 13349 13351 13350 13357 
1812 1846 1515 1845 13353 13351 13348 13344 13357 13349 
1813 1515 1846 1516 13356 13351 13354 13358 11442 13359 
1846 1515 1549 1516 13351 11440 13352 13359 11442 11441 
1516 1549 1847 1550 11441 13360 13361 11450 11454 13362 
1813 1847 1814 1516 13363 13364 13365 13358 13361 13366 
1516 1549 1846 1847 11441 13352 13359 13361 13360 13367 
1813 1847 1516 1846 13363 13361 13358 13354 13367 13359 
1814 1516 1847 1517 13366 13361 13364 13368 11452 13369 
1847 1516 1550 1517 13361 11450 13362 13369 11452 11451 
1518 1551 1849 1552 11465 13370 13371 11460 11464 13372 
1815 1849 1816 1518 13373 13374 13056 13054 13371 13046 
1518 1551 1848 1849 11465 13375 13376 13371 13370 13377 
1815 1849 1518 1848 13373 13371 13054 13378 13377 13376 
1816 1518 1849 1519 13046 13371 13374 13048 11143 13379 
1849 1518 1552 1519 13371 11460 13372 13379 11143 11461 
1519 1552 1850 1553 11461 13380 13381 11470 11472 13382 
1816 1850 1817 1519 13383 13384 13067 13048 13381 13060 
1519 1552 1849 1850 11461 13372 13379 13381 13380 13385 
1816 1850 1519 1849 13383 13381 13048 13374 13385 13379 
1817 1519 1850 1520 13060 13381 13384 13062 11154 13386 
1850 1519 1553 1520 13381 11470 13382 13386 11154 11471 
1520 1553 1851 1554 11471 13387 13388 11477 11479 13389 
1817 1851 1818 1520 13390 13391 13077 13062 13388 13070 
1520 1553 1850 1851 11471 13382 13386 13388 13387 13392 
1817 1851 1520 1850 13390 13388 13062 13384 13392 13386 
1818 1520 1851 1521 13070 13388 13391 13072 11164 13393 
1851 1520 1554 1521 13388 11477 13389 13393 11164 11478 
1521 1554 1852 1555 11478 13394 13395 11484 11486 13396 
1818 1852 1819 1521 13397 13398 13087 13072 13395 13080 
1521 1554 1851 1852 11478 13389 13393 13395 13394 13399 
1818 1852 1521 1851 13397 13395 13072 13391 13399 13393 
1819 1521 1852 1522 13080 13395 13398 13082 11174 13400 
1852 1521 1555 1522 13395 11484 13396 13400 11174 11485 
1522 1555 1853 1556 11485 13401 13402 11491 11493 13403 
1819 1853 1820 1522 13404 13405 13097 13082 13402 13090 
1522 1555 1852 1853 11485 13396 13400 13402 13401 13406 
1819 1853 1522 1852 13404 13402 13082 13398 13406 13400 
1820 1522 1853 1523 13090 13402 13405 13092 11184 13407 
1853 1522 1556 1523 13402 11491 13403 13407 11184 11492 
1523 1556 1854 1557 11492 13408 13409 11498 11500 13410 
1820 1854 1821 1523 13411 13412 13107 13092 13409 13100 
1523 1556 1853 1854 11492 13403 13407 13409 13408 13413 
1820 1854 1523 1853 13411 13409 13092 13405 13413 13407 
1821 1523 1854 1524 13100 13409 13412 13102 11194 13414 
1854 1523 1557 1524 13409 11498 13410 13414 11194 11499 
1524 1557 1855 1558 11499 13415 13416 11505 11507 13417 
1821 1855 1822 1524 13418 13419 13117 13102 13416 13110 
1524 1557 1854 1855 11499 13410 13414 13416 13415 13420 
1821 1855 1524 1854 13418 13416 13102 13412 13420 13414 
1822 1524 1855 1525 13110 13416 13419 13112 11204 13421 
1855 1524 1558 1525 13416 11505 13417 13421 11204 11506 
1525 1558 1856 1559 11506 13422 13423 11512 11514 13424 
1822 1856 1823 1525 13425 13426 13127 13112 13423 13120 
1525 1558 1855 1856 11506 13417 13421 13423 13422 13427 
1822 1856 1525 1855 13425 13423 13112 13419 13427 13421 
1823 1525 1856 1526 13120 13423 13426 13122 11214 13428 
1856 1525 1559 1526 13423 11512 13424 13428 11214 11513 
1526 1559 1857 1560 11513 13429 13430 11519 11521 13431 
1823 1857 1824 1526 13432 13433 13137 13122 13430 13130 
1526 1559 1856 1857 11513 13424 13428 13430 13429 13434 
1823 1857 1526 1856 13432 13430 13122 13426 13434 13428 
1824 1526 1857 1527 13130 13430 13433 13132 11224 13435 
1857 1526 1560 1527 13430 11519 13431 13435 11224 11520 
1527 1560 1858 1561 11520 13436 13437 11526 11528 13438 
1824 1858 1825 1527 13439 13440 13147 13132 13437 13140 
1527 1560 1857 1858 11520 13431 13435 13437 13436 13441 
1824 1858 1527 1857 13439 13437 13132 13433 13441 13435 
1825 1527 1858 1528 13140 13437 13440 13142 11234 13442 
1858 1527 1561 1528 13437 11526 13438 13442 11234 11527 
1528 1561 1859 1562 11527 13443 13444 11533 11535 13445 
1825 1859 1826 1528 13446 13447 13157 13142 13444 13150 
1528 1561 1858 1859 11527 13438 13442 13444 13443 13448 
1825 1859 1528 1858 13446 13444 13142 13440 13448 13442 
1826 1528 1859 1529 13150 13444 13447 13152 11244 13449 
1859 1528 1562 1529 13444 11533 13445 13449 11244 11534 
1529 1562 1860 1563 11534 13450 13451 11540 11542 13452 
1826 1860 1827 1529 13453 13454 13167 13152 13451 13160 
1529 1562 1859 1860 11534 13445 13449 13451 13450 13455 
1826 1860 1529 1859 13453 13451 13152 13447 13455 13449 
1827 1529 1860 1530 13160 13451 13454 13162 11254 13456 
1860 1529 1563 1530 13451 11540 13452 13456 11254 11541 
1530 1563 1861 1564 11541 13457 13458 11547 11549 13459 
1827 1861 1828 1530 13460 13461 13177 13162 13458 13170 
1530 1563 1860 1861 11541 13452 13456 13458 13457 13462 
1827 1861 1530 1860 13460 13458 13162 13454 13462 13456 
1828 1530 1861 1531 13170 13458 13461 13172 11264 13463 
1861 1530 1564 1531 13458 11547 13459 13463 11264 11548 
1531 1564 1862 1565 11548 13464 13465 11554 11556 13466 
1828 1862 1829 1531 13467 13468 13187 13172 13465 13180 
1531 1564 1861 1862 11548 13459 13463 13465 13464 13469 
1828 1862 1531 1861 13467 13465 13172 13461 13469 13463 
1829 1531 1862 1532 13180 13465 13468 13182 11274 13470 
1862 1531 1565 1532 13465 11554 13466 13470 11274 11555 
1532 1565 1863 1566 11555 13471 13472 11561 11563 13473 
1829 1863 1830 1532 13474 13475 13197 13182 13472 13190 
1532 1565 1862 1863 11555 13466 13470 13472 13471 13476 
1829 1863 1532 1862 13474 13472 13182 13468 13476 13470 
1830 1532 1863 1533 13190 13472 13475 13192 11284 13477 
1863 1532 1566 1533 13472 11561 13473 13477 11284 11562 
1533 1566 1864 1567 11562 13478 13479 11568 11570 13480 
1830 1864 1831 1533 13481 13482 13207 13192 13479 13200 
1533 1566 1863 1864 11562 13473 13477 13479 13478 13483 
1830 1864 1533 1863 13481 13479 13192 13475 13483 13477 
1831 1533 1864 1534 13200 13479 13482 13202 11294 13484 
1864 1533 1567 1534 13479 11568 13480 13484 11294 11569 
1534 1567 1865 1568 11569 13485 13486 11575 11577 13487 
1831 1865 1832 1534 13488 13489 13217 13202 13486 13210 
1534 1567 1864 1865 11569 13480 13484 13486 13485 13490 
1831 1865 1534 1864 13488 13486 13202 13482 13490 13484 
1832 1534 1865 1535 13210 13486 13489 13212 11304 13491 
1865 1534 1568 1535 13486 11575 13487 13491 11304 11576 
1535 1568 1866 1569 11576 13492 13493 11582 11584 13494 
1832 1866 1833 1535 13495 13496 13227 13212 13493 13220 
1535 1568 1865 1866 11576 13487 13491 13493 13492 13497 
1832 1866 1535 1865 13495 13493 13212 13489 13497 13491 
1833 1535 1866 1536 13220 13493 13496 13222 11314 13498 
1866 1535 1569 1536 13493 11582 13494 13498 11314 11583 
1536 1569 1867 1570 11583 13499 13500 11589 11591 13501 
1833 1867 1834 1536 13502 13503 13237 13222 13500 13230 
1536 1569 1866 1867 11583 13494 13498 13500 13499 13504 
1833 1867 1536 1866 13502 13500 13222 13496 13504 13498 
1834 1536 1867 1537 13230 13500 13503 13232 11324 13505 
1867 1536 1570 1537 13500 11589 13501 13505 11324 11590 
1537 1570 1868 1571 11590 13506 13507 11596 11598 13508 
1834 1868 1835 1537 13509 13510 13247 13232 13507 13240 
1537 1570 1867 1868 11590 13501 13505 13507 13506 13511 
1834 1868 1537 1867 13509 13507 13232 13503 13511 13505 
1835 1537 1868 1538 13240 13507 13510 13242 11334 13512 
1868 1537 1571 1538 13507 11596 13508 13512 11334 11597 
1538 1571 1869 1572 11597 13513 13514 11603 11605 13515 
1835 1869 1836 1538 13516 13517 13257 13242 13514 13250 
1538 1571 1868 1869 11597 13508 13512 13514 13513 13518 
1835 1869 1538 1868 13516 13514 13242 13510 13518 13512 
1836 1538 1869 1539 13250 13514 13517 13252 11344 13519 
1869 1538 1572 1539 13514 11603 13515 13519 11344 11604 
1539 1572 1870 1573 11604 13520 13521 11610 11612 13522 
1836 1870 1837 1539 13523 13524 13267 13252 13521 13260 
1539 1572 1869 1870 11604 13515 13519 13521 13520 13525 
1836 1870 1539 1869 13523 13521 13252 13517 13525 13519 
1837 1539 1870 1540 13260 13521 13524 13262 11354 13526 
1870 1539 1573 1540 13521 11610 13522 13526 11354 11611 
1540 1573 1871 1574 11611 13527 13528 11617 11619 13529 
1837 1871 1838 1540 13530 13531 13277 13262 13528 13270 
1540 1573 1870 1871 11611 13522 13526 13528 13527 13532 
1837 1871 1540 1870 13530 13528 13262 13524 13532 13526 
1838 1540 1871 1541 13270 13528 13531 13272 11364 13533 
1871 1540 1574 1541 13528 11617 13529 13533 11364 11618 
1541 1574 1872 1575 11618 13534 13535 11624 11626 13536 
1838 1872 1839 1541 13537 13538 13287 13272 13535 13280 
1541 1574 1871 1872 11618 13529 13533 13535 13534 13539 
1838 1872 1541 1871 13537 13535 13272 13531 13539 13533 
1839 1541 1872 1542 13280 13535 13538 13282 11374 13540 
1872 1541 1575 1542 13535 11624 13536 13540 11374 11625 
1542 1575 1873 1576 11625 13541 13542 11631 11633 13543 
1839 1873 1840 1542 13544 13545 13297 13282 13542 13290 
1542 1575 1872 1873 11625 13536 13540 13542 13541 13546 
1839 1873 1542 1872 13544 13542 13282 13538 13546 13540 
1840 1542 1873 1543 13290 13542 13545 13292 11384 13547 
1873 1542 1576 1543 13542 11631 13543 13547 11384 11632 
1543 1576 1874 1577 11632 13548 13549 11638 11640 13550 
1840 1874 1841 1543 13551 13552 13307 13292 13549 13300 
1543 1576 1873 1874 11632 13543 13547 13549 13548 13553 
1840 1874 1543 1873 13551 13549 13292 13545 13553 13547 
1841 1543 1874 1544 13300 13549 13552 13302 11394 13554 
1874 1543 1577 1544 13549 11638 13550 13554 11394 11639 
1544 1577 1875 1578 11639 13555 13556 11645 11647 13557 
1841 1875 1842 1544 13558 13559 13317 13302 13556 13310 
1544 1577 1874 1875 11639 13550 13554 13556 13555 13560 
1841 1875 1544 1874 13558 13556 13302 13552 13560 13554 
1842 1544 1875 1545 13310 13556 13559 13312 11404 13561 
1875 1544 1578 1545 13556 11645 13557 13561 11404 11646 
1545 1578 1876 1579 11646 13562 13563 11652 11654 13564 
1842 1876 1843 1545 13565 13566 13327 13312 13563 13320 
1545 1578 1875 1876 11646 13557 13561 13563 13562 13567 
1842 1876 1545 1875 13565 13563 13312 13559 13567 13561 
1843 1545 1876 1546 13320 13563 13566 13322 11414 13568 
1876 1545 1579 1546 13563 11652 13564 13568 11414 11653 
1546 1579 1877 1580 11653 13569 13570 11659 11661 13571 
1843 1877 1844 1546 13572 13573 13337 13322 13570 13330 
1546 1579 1876 1877 11653 13564 13568 13570 13569 13574 
1843 1877 1546 1876 13572 13570 13322 13566 13574 13568 
1844 1546 1877 1547 13330 13570 13573 13332 11424 13575 
1877 1546 1580 1547 13570 11659 13571 13575 11424 11660 
1547 1580 1878 1581 11660 13576 13577 11666 11668 13578 
1844 1878 1845 1547 13579 13580 13347 13332 13577 13340 
1547 1580 1877 1878 11660 13571 13575 13577 13576 13581 
1844 1878 1547 1877 13579 13577 13332 13573 13581 13575 
1845 1547 1878 1548 13340 13577 13580 13342 11434 13582 
1878 1547 1581 1548 13577 11666 13578 13582 11434 11667 
1548 1581 1879 1582 11667 13583 13584 11673 11675 13585 
1845 1879 1846 1548 13586 13587 13357 13342 13584 13350 
1548 1581 1878 1879 11667 13578 13582 13584 13583 13588 
1845 1879 1548 1878 13586 13584 13342 13580 13588 13582 
1846 1548 1879 1549 13350 13584 13587 13352 11444 13589 
1879 1548 1582 1549 13584 11673 13585 13589 11444 11674 
1549 1582 1880 1583 11674 13590 13591 11680 11682 13592 
1846 1880 1847 1549 13593 13594 13367 13352 13591 13360 
1549 1582 1879 1880 11674 13585 13589 13591 13590 13595 
1846 1880 1549 1879 13593 13591 13352 13587 13595 13589 
1847 1549 1880 1550 13360 13591 13594 13362 11454 13596 
1880 1549 1583 1550 13591 11680 13592 13596 11454 11681 
1551 1584 1882 1585 11692 13597 13598 11687 11691 13599 
1848 1882 1849 1551 13600 13601 13377 13375 13598 13370 
1551 1584 1881 1882 11692 13602 13603 13598 13597 13604 
1848 1882 1551 1881 13600 13598 13375 13605 13604 13603 
1849 1551 1882 1552 13370 13598 13601 13372 11464 13606 
1882 1551 1585 1552 13598 11687 13599 13606 11464 11688 
1552 1585 1883 1586 11688 13607 13608 11697 11699 13609 
1849 1883 1850 1552 13610 13611 13385 13372 13608 13380 
1552 1585 1882 1883 11688 13599 13606 13608 13607 13612 
1849 1883 1552 1882 13610 13608 13372 13601 13612 13606 
1850 1552 1883 1553 13380 13608 13611 13382 11472 13613 
1883 1552 1586 1553 13608 11697 13609 13613 11472 11698 
1553 1586 1884 1587 11698 13614 13615 11704 11706 13616 
1850 1884 1851 1553 13617 13618 13392 13382 13615 13387 
1553 1586 1883 1884 11698 13609 13613 13615 13614 13619 
1850 1884 1553 1883 13617 13615 13382 13611 13619 13613 
1851 1553 1884 1554 13387 13615 13618 13389 11479 13620 
1884 1553 1587 1554 13615 11704 13616 13620 11479 11705 
1554 1587 1885 1588 11705 13621 13622 11711 11713 13623 
1851 1885 1852 1554 13624 13625 13399 13389 13622 13394 
1554 1587 1884 1885 11705 13616 13620 13622 13621 13626 
1851 1885 1554 1884 13624 13622 13389 13618 13626 13620 
1852 1554 1885 1555 13394 13622 13625 13396 11486 13627 
1885 1554 1588 1555 13622 11711 13623 13627 11486 11712 
1555 1588 1886 1589 11712 13628 13629 11718 11720 13630 
1852 1886 1853 1555 13631 13632 13406 13396 13629 13401 
1555 1588 1885 1886 11712 13623 13627 13629 13628 13633 
1852 1886 1555 1885 13631 13629 13396 13625 13633 13627 
1853 1555 1886 1556 13401 13629 13632 13403 11493 13634 
1886 1555 1589 1556 13629 11718 13630 13634 11493 11719 
1556 1589 1887 1590 11719 13635 13636 11725 11727 13637 
1853 1887 1854 1556 13638 13639 13413 13403 13636 13408 
1556 1589 1886 1887 11719 13630 13634 13636 13635 13640 
1853 1887 1556 1886 13638 13636 13403 13632 13640 13634 
1854 1556 1887 1557 13408 13636 13639 13410 11500 13641 
1887 1556 1590 1557 13636 11725 13637 13641 11500 11726 
1557 1590 1888 1591 11726 13642 13643 11732 11734 13644 
1854 1888 1855 1557 13645 13646 13420 13410 13643 13415 
1557 1590 1887 1888 11726 13637 13641 13643 13642 13647 
1854 1888 1557 1887 13645 13643 13410 13639 13647 13641 
1855 1557 1888 1558 13415 13643 13646 13417 11507 13648 
1888 1557 1591 1558 13643 11732 13644 13648 11507 11733 
1558 1591 1889 1592 11733 13649 13650 11739 11741 13651 
1855 1889 1856 1558 13652 13653 13427 13417 13650 13422 
1558 1591 1888 1889 11733 13644 13648 13650 13649 13654 
1855 1889 1558 1888 13652 13650 13417 13646 13654 13648 
1856 1558 1889 1559 13422 13650 13653 13424 11514 13655 
1889 1558 1592 1559 13650 11739 13651 13655 11514 11740 
1559 1592 1890 1593 11740 13656 13657 11746 11748 13658 
1856 1890 1857 1559 13659 13660 13434 13424 13657 13429 
1559 1592 1889 1890 11740 13651 13655 13657 13656 13661 
1856 1890 1559 1889 13659 13657 13424 13653 13661 13655 
1857 1559 1890 1560 13429 13657 13660 13431 11521 13662 
1890 1559 1593 1560 13657 11746 13658 13662 11521 11747 
1560 1593 1891 1594 11747 13663 13664 11753 11755 13665 
1857 1891 1858 1560 13666 13667 13441 13431 13664 13436 
1560 1593 1890 1891 11747 13658 13662 13664 13663 13668 
1857 1891 1560 1890 13666 13664 13431 13660 13668 13662 
1858 1560 1891 1561 13436 13664 13667 13438 11528 13669 
1891 1560 1594 1561 13664 11753 13665 13669 11528 11754 
1561 1594 1892 1595 11754 13670 13671 11760 11762 13672 
1858 1892 1859 1561 13673 13674 13448 13438 13671 13443 
1561 1594 1891 1892 11754 13665 13669 13671 13670 13675 
1858 1892 1561 1891 13673 13671 13438 13667 13675 13669 
1859 1561 1892 1562 13443 13671 13674 13445 11535 13676 
1892 1561 1595 1562 13671 11760 13672 13676 11535 11761 
1562 1595 1893 1596 11761 13677 13678 11767 11769 13679 
1859 1893 1860 1562 13680 13681 13455 13445 13678 13450 
1562 1595 1892 1893 11761 13672 13676 13678 13677 13682 
1859 1893 1562 1892 13680 13678 13445 13674 13682 13676 
1860 1562 1893 1563 13450 13678 13681 13452 11542 13683 
1893 1562 1596 1563 13678 11767 13679 13683 11542 11768 
1563 1596 1894 1597 11768 13684 13685 11774 11776 13686 
1860 1894 1861 1563 13687 13688 13462 13452 13685 13457 
1563 1596 1893 1894 11768 13679 13683 13685 13684 13689 
1860 1894 1563 1893 13687 13685 13452 13681 13689 13683 
1861 1563 1894 1564 13457 13685 13688 13459 11549 13690 
1894 1563 1597 1564 13685 11774 13686 13690 11549 11775 
1564 1597 1895 1598 11775 13691 13692 11781 11783 13693 
1861 1895 1862 1564 13694 13695 13469 13459 13692 13464 
1564 1597 1894 1895 11775 13686 13690 13692 13691 13696 
1861 1895 1564 1894 13694 13692 13459 13688 13696 13690 
1862 1564 1895 1565 13464 13692 13695 13466 11556 13697 
1895 1564 1598 1565 13692 11781 13693 13697 11556 11782 
1565 1598 1896 1599 11782 13698 13699 11788 11790 13700 
1862 1896 1863 1565 13701 13702 13476 13466 13699 13471 
1565 1598 1895 1896 11782 13693 13697 13699 13698 13703 
1862 1896 1565 1895 13701 13699 13466 13695 13703 13697 
1863 1565 1896 1566 13471 13699 13702 13473 11563 13704 
1896 1565 1599 1566 13699 11788 13700 13704 11563 11789 
1566 1599 1897 1600 11789 13705 13706 11795 11797 13707 
1863 1897 1864 1566 13708 13709 13483 13473 13706 13478 
1566 1599 1896 1897 11789 13700 13704 13706 13705 13710 
1863 1897 1566 1896 13708 13706 13473 13702 13710 13704 
1864 1566 1897 1567 13478 13706 13709 13480 11570 13711 
1897 1566 1600 1567 13706 11795 13707 13711 11570 11796 
1567 1600 1898 1601 11796 13712 13713 11802 11804 13714 
1864 1898 1865 1567 13715 13716 13490 13480 13713 13485 
1567 1600 1897 1898 11796 13707 13711 13713 13712 13717 
1864 1898 1567 1897 13715 13713 13480 13709 13717 13711 
1865 1567 1898 1568 13485 13713 13716 13487 11577 13718 
1898 1567 1601 1568 13713 11802 13714 13718 11577 11803 
1568 1601 1899 1602 11803 13719 13720 11809 11811 13721 
1865 1899 1866 1568 13722 13723 13497 13487 13720 13492 
1568 1601 1898 1899 11803 13714 13718 13720 13719 13724 
1865 1899 1568 1898 13722 13720 13487 13716 13724 13718 
1866 1568 1899 1569 13492 13720 13723 13494 11584 13725 
1899 1568 1602 1569 13720 11809 13721 13725 11584 11810 
1569 1602 1900 1603 11810 13726 13727 11816 11818 13728 
1866 1900 1867 1569 13729 13730 13504 13494 13727 13499 
1569 1602 1899 1900 11810 13721 13725 13727 13726 13731 
1866 1900 1569 1899 13729 13727 13494 13723 13731 13725 
1867 1569 1900 1570 13499 13727 13730 13501 11591 13732 
1900 1569 1603 1570 13727 11816 13728 13732 11591 11817 
1570 1603 1901 1604 11817 13733 13734 11823 11825 13735 
1867 1901 1868 1570 13736 13737 13511 13501 13734 13506 
1570 1603 1900 1901 11817 13728 13732 13734 13733 13738 
1867 1901 1570 1900 13736 13734 13501 13730 13738 13732 
1868 1570 1901 1571 13506 13734 13737 13508 11598 13739 
1901 1570 1604 1571 13734 11823 13735 13739 11598 11824 
1571 1604 1902 1605 11824 13740 13741 11830 11832 13742 
1868 1902 1869 1571 13743 13744 13518 13508 13741 13513 
1571 1604 1901 1902 11824 13735 13739 13741 13740 13745 
1868 1902 1571 1901 13743 13741 13508 13737 13745 13739 
1869 1571 1902 1572 13513 13741 13744 13515 11605 13746 
1902 1571 1605 1572 13741 11830 13742 13746 11605 11831 
1572 1605 1903 1606 11831 13747 13748 11837 11839 13749 
1869 1903 1870 1572 13750 13751 13525 13515 13748 13520 
1572 1605 1902 1903 11831 13742 13746 13748 13747 13752 
1869 1903 1572 1902 13750 13748 13515 13744 13752 13746 
1870 1572 1903 1573 13520 13748 13751 13522 11612 13753 
1903 1572 1606 1573 13748 11837 13749 13753 11612 11838 
1573 1606 1904 1607 11838 13754 13755 11844 11846 13756 
1870 1904 1871 1573 13757 13758 13532 13522 13755 13527 
1573 1606 1903 1904 11838 13749 13753 13755 13754 13759 
1870 1904 1573 1903 13757 13755 13522 13751 13759 13753 
1871 1573 1904 1574 13527 13755 13758 13529 11619 13760 
1904 1573 1607 1574 13755 11844 13756 13760 11619 11845 
1574 1607 1905 1608 11845 13761 13762 11851 11853 13763 
1871 1905 1872 1574 13764 13765 13539 13529 13762 13534 
1574 1607 1904 1905 11845 13756 13760 13762 13761 13766 
1871 1905 1574 1904 13764 13762 13529 13758 13766 13760 
1872 1574 1905 1575 13534 13762 13765 13536 11626 13767 
1905 1574 1608 1575 13762 11851 13763 13767 11626 11852 
1575 1608 1906 1609 11852 13768 13769 11858 11860 13770 
1872 1906 1873 1575 13771 13772 13546 13536 13769 13541 
1575 1608 1905 1906 11852 13763 13767 13769 13768 13773 
1872 1906 1575 1905 13771 13769 13536 13765 13773 13767 
1873 1575 1906 1576 13541 13769 13772 13543 11633 13774 
1906 1575 1609 1576 13769 11858 13770 13774 11633 11859 
1576 1609 1907 1610 11859 13775 13776 11865 11867 13777 
1873 1907 1874 1576 13778 13779 13553 13543 13776 13548 
1576 1609 1906 1907 11859 13770 13774 13776 13775 13780 
1873 1907 1576 1906 13778 13776 13543 13772 13780 13774 
1874 1576 1907 1577 13548 13776 13779 13550 11640 13781 
1907 1576 1610 1577 13776 11865 13777 13781 11640 11866 
1577 1610 1908 1611 11866 13782 13783 11872 11874 13784 
1874 1908 1875 1577 13785 13786 13560 13550 13783 13555 
1577 1610 1907 1908 11866 13777 13781 13783 13782 13787 
1874 1908 1577 1907 13785 13783 13550 13779 13787 13781 
1875 1577 1908 1578 13555 13783 13786 13557 11647 13788 
1908 1577 1611 1578 13783 11872 13784 13788 11647 11873 
1578 1611 1909 1612 11873 13789 13790 11879 11881 13791 
1875 1909 1876 1578 13792 13793 13567 13557 13790 13562 
1578 1611 1908 1909 11873 13784 13788 13790 13789 13794 
1875 1909 1578 1908 13792 13790 13557 13786 13794 13788 
1876 1578 1909 1579 13562 13790 13793 13564 11654 13795 
1909 1578 1612 1579 13790 11879 13791 13795 11654 11880 
1579 1612 1910 1613 11880 13796 13797 11886 11888 13798 
1876 1910 1877 1579 13799 13800 13574 13564 13797 13569 
1579 1612 1909 1910 11880 13791 13795 13797 13796 13801 
1876 1910 1579 1909 13799 13797 13564 13793 13801 13795 
1877 1579 1910 1580 13569 13797 13800 13571 11661 13802 
1910 1579 1613 1580 13797 11886 13798 13802 11661 11887 
1580 1613 1911 1614 11887 13803 13804 11893 11895 13805 
1877 1911 1878 1580 13806 13807 13581 13571 13804 13576 
1580 1613 1910 1911 11887 13798 13802 13804 13803 13808 
1877 1911 1580 1910 13806 13804 13571 13800 13808 13802 
1878 1580 1911 1581 13576 13804 13807 13578 11668 13809 
1911 1580 1614 1581 13804 11893 13805 13809 11668 11894 
1581 1614 1912 1615 11894 13810 13811 11900 11902 13812 
1878 1912 1879 1581 13813 13814 13588 13578 13811 13583 
1581 1614 1911 1912 11894 13805 13809 13811 13810 13815 
1878 1912 1581 1911 13813 13811 13578 13807 13815 13809 
1879 1581 1912 1582 13583 13811 13814 13585 11675 13816 
1912 1581 1615 1582 13811 11900 13812 13816 11675 11901 
1582 1615 1913 1616 11901 13817 13818 11907 11909 13819 
1879 1913 1880 1582 13820 13821 13595 13585 13818 13590 
1582 1615 1912 1913 11901 13812 13816 13818 13817 13822 
1879 1913 1582 1912 13820 13818 13585 13814 13822 13816 
1880 1582 1913 1583 13590 13818 13821 13592 11682 13823 
1913 1582 1616 1583 13818 11907 13819 13823 11682 11908 
1584 1617 1915 1618 11919 13824 13825 11914 11918 13826 
1881 1915 1882 1584 13827 13828 13604 13602 13825 13597 
1584 1617 1914 1915 11919 13829 13830 13825 13824 13831 
1881 1915 1584 1914 13827 13825 13602 13832 13831 13830 
1882 1584 1915 1585 13597 13825 13828 13599 11691 13833 
1915 1584 1618 1585 13825 11914 13826 13833 11691 11915 
1585 1618 1916 1619 11915 13834 13835 11924 11926 13836 
1882 1916 1883 1585 13837 13838 13612 13599 13835 13607 
1585 1618 1915 1916 11915 13826 13833 13835 13834 13839 
1882 1916 1585 1915 13837 13835 13599 13828 13839 13833 
1883 1585 1916 1586 13607 13835 13838 13609 11699 13840 
1916 1585 1619 1586 13835 11924 13836 13840 11699 11925 
1586 1619 1917 1620 11925 13841 13842 11931 11933 13843 
1883 1917 1884 1586 13844 13845 13619 13609 13842 13614 
1586 1619 1916 1917 11925 13836 13840 13842 13841 13846 
1883 1917 1586 1916 13844 13842 13609 13838 13846 13840 
1884 1586 1917 1587 13614 13842 13845 13616 11706 13847 
1917 1586 1620 1587 13842 11931 13843 13847 11706 11932 
1587 1620 1918 1621 11932 13848 13849 11938 11940 13850 
1884 1918 1885 1587 13851 13852 13626 13616 13849 13621 
1587 1620 1917 1918 11932 13843 13847 13849 13848 13853 
1884 1918 1587 1917 13851 13849 13616 13845 13853 13847 
1885 1587 1918 1588 13621 13849 13852 13623 11713 13854 
1918 1587 1621 1588 13849 11938 13850 13854 11713 11939 
1588 1621 1919 1622 11939 13855 13856 11945 11947 13857 
1885 1919 1886 1588 13858 13859 13633 13623 13856 13628 
1588 1621 1918 1919 11939 13850 13854 13856 13855 13860 
1885 1919 1588 1918 13858 13856 13623 13852 13860 13854 
1886 1588 1919 1589 13628 13856 13859 13630 11720 13861 
1919 1588 1622 1589 13856 11945 13857 13861 11720 11946 
1589 1622 1920 1623 11946 13862 13863 11952 11954 13864 
1886 1920 1887 1589 13865 13866 13640 13630 13863 13635 
1589 1622 1919 1920 11946 13857 13861 13863 13862 13867 
1886 1920 1589 1919 13865 13863 13630 13859 13867 13861 
1887 1589 1920 1590 13635 13863 13866 13637 11727 13868 
1920 1589 1623 1590 13863 11952 13864 13868 11727 11953 
1590 1623 1921 1624 11953 13869 13870 11959 11961 13871 
1887 1921 1888 1590 13872 13873 13647 13637 13870 13642 
1590 1623 1920 1921 11953 13864 13868 13870 13869 13874 
1887 1921 1590 1920 13872 13870 13637 13866 13874 13868 
1888 1590 1921 1591 13642 13870 13873 13644 11734 13875 
1921 1590 1624 1591 13870 11959 13871 13875 11734 11960 
1591 1624 1922 1625 11960 13876 13877 11966 11968 13878 
1888 1922 1889 1591 13879 13880 13654 13644 13877 13649 
1591 1624 1921 1922 11960 13871 13875 13877 13876 13881 
1888 1922 1591 1921 13879 13877 13644 13873 13881 13875 
1889 1591 1922 1592 13649 13877 13880 13651 11741 13882 
1922 1591 1625 1592 13877 11966 13878 13882 11741 11967 
1592 1625 1923 1626 11967 13883 13884 11973 11975 13885 
1889 1923 1890 1592 13886 13887 13661 13651 13884 13656 
1592 1625 1922 1923 11967 13878 13882 13884 13883 13888 
1889 1923 1592 1922 13886 13884 13651 13880 13888 13882 
1890 1592 1923 1593 13656 13884 13887 13658 11748 13889 
1923 1592 1626 1593 13884 11973 13885 13889 11748 11974 
1593 1626 1924 1627 11974 13890 13891 11980 11982 13892 
1890 1924 1891 1593 13893 13894 13668 13658 13891 13663 
1593 1626 1923 1924 11974 13885 13889 13891 13890 13895 
1890 1924 1593 1923 13893 13891 13658 13887 13895 13889 
1891 1593 1924 1594 13663 13891 13894 13665 11755 13896 
1924 1593 1627 1594 13891 11980 13892 13896 11755 11981 
1594 1627 1925 1628 11981 13897 13898 11987 11989 13899 
1891 1925 1892 1594 13900 13901 13675 13665 13898 13670 
1594 1627 1924 1925 11981 13892 13896 13898 13897 13902 
1891 1925 1594 1924 13900 13898 13665 13894 13902 13896 
1892 1594 1925 1595 13670 13898 13901 13672 11762 13903 
1925 1594 1628 1595 13898 11987 13899 13903 11762 11988 
1595 1628 1926 1629 11988 13904 13905 11994 11996 13906 
1892 1926 1893 1595 13907 13908 13682 13672 13905 13677 
1595 1628 1925 1926 11988 13899 13903 13905 13904 13909 
1892 1926 1595 1925 13907 13905 13672 13901 13909 13903 
1893 1595 1926 1596 13677 13905 13908 13679 11769 13910 
1926 1595 1629 1596 13905 11994 13906 13910 11769 11995 
1596 1629 1927 1630 11995 13911 13912 12001 12003 13913 
1893 1927 1894 1596 13914 13915 13689 13679 13912 13684 
1596 1629 1926 1927 11995 13906 13910 13912 13911 13916 
1893 1927 1596 1926 13914 13912 13679 13908 13916 13910 
1894 1596 1927 1597 13684 13912 13915 13686 11776 13917 
1927 1596 1630 1597 13912 12001 13913 13917 11776 12002 
1597 1630 1928 1631 12002 13918 13919 12008 12010 13920 
1894 1928 1895 1597 13921 13922 13696 13686 13919 13691 
1597 1630 1927 1928 12002 13913 13917 13919 13918 13923 
1894 1928 1597 1927 13921 13919 13686 13915 13923 13917 
1895 1597 1928 1598 13691 13919 13922 13693 11783 13924 
1928 1597 1631 1598 13919 12008 13920 13924 11783 12009 
1598 1631 1929 1632 12009 13925 13926 12015 12017 13927 
1895 1929 1896 1598 13928 13929 13703 13693 13926 13698 
1598 1631 1928 1929 12009 13920 13924 13926 13925 13930 
1895 1929 1598 1928 13928 13926 13693 13922 13930 13924 
1896 1598 1929 1599 13698 13926 13929 13700 11790 13931 
1929 1598 1632 1599 13926 12015 13927 13931 11790 12016 
1599 1632 1930 1633 12016 13932 13933 12022 12024 13934 
1896 1930 1897 1599 13935 13936 13710 13700 13933 13705 
1599 1632 1929 1930 12016 13927 13931 13933 13932 13937 
1896 1930 1599 1929 13935 13933 13700 13929 13937 13931 
1897 1599 1930 1600 13705 13933 13936 13707 11797 13938 
1930 1599 1633 1600 13933 12022 13934 13938 11797 12023 
1600 1633 1931 1634 12023 13939 13940 12029 12031 13941 
1897 1931 1898 1600 13942 13943 13717 13707 13940 13712 
1600 1633 1930 1931 12023 13934 13938 13940 13939 13944 
1897 1931 1600 1930 13942 13940 13707 13936 13944 13938 
1898 1600 1931 1601 13712 13940 13943 13714 11804 13945 
1931 1600 1634 1601 13940 12029 13941 13945 11804 12030 
1601 1634 1932 1635 12030 13946 13947 12036 12038 13948 
1898 1932 1899 1601 13949 13950 13724 13714 13947 13719 
1601 1634 1931 1932 12030 13941 13945 13947 13946 13951 
1898 1932 1601 1931 13949 13947 13714 13943 13951 13945 
1899 1601 1932 1602 13719 13947 13950 13721 11811 13952 
1932 1601 1635 1602 13947 12036 13948 13952 11811 12037 
1602 1635 1933 1636 12037 13953 13954 12043 12045 13955 
1899 1933 1900 1602 13956 13957 13731 13721 13954 13726 
1602 1635 1932 1933 12037 13948 13952 13954 13953 13958 
1899 1933 1602 1932 13956 13954 13721 13950 13958 13952 
1900 1602 1933 1603 13726 13954 13957 13728 11818 13959 
1933 1602 1636 1603 13954 12043 13955 13959 11818 12044 
1603 1636 1934 1637 12044 13960 13961 12050 12052 13962 
1900 1934 1901 1603 13963 13964 13738 13728 13961 13733 
1603 1636 1933 1934 12044 13955 13959 13961 13960 13965 
1900 1934 1603 1933 13963 13961 13728 13957 13965 13959 
1901 1603 1934 1604 13733 13961 13964 13735 11825 13966 
1934 1603 1637 1604 13961 12050 13962 13966 11825 12051 
1604 1637 1935 1638 12051 13967 13968 12057 12059 13969 
1901 1935 1902 1604 13970 13971 13745 13735 13968 13740 
1604 1637 1934 1935 12051 13962 13966 13968 13967 13972 
1901 1935 1604 1934 13970 13968 13735 13964 13972 13966 
1902 1604 1935 1605 13740 13968 13971 13742 11832 13973 
1935 1604 1638 1605 13968 12057 13969 13973 11832 12058 
1605 1638 1936 1639 12058 13974 13975 12064 12066 13976 
1902 1936 1903 1605 13977 13978 13752 13742 13975 13747 
1605 1638 1935 1936 12058 13969 13973 13975 13974 13979 
1902 1936 1605 1935 13977 13975 13742 13971 13979 13973 
1903 1605 1936 1606 13747 13975 13978 13749 11839 13980 
1936 1605 1639 1606 13975 12064 13976 13980 11839 12065 
1606 1639 1937 1640 12065 13981 13982 12071 12073 13983 
1903 1937 1904 1606 13984 13985 13759 13749 13982 13754 
1606 1639 1936 1937 12065 13976 13980 13982 13981 13986 
1903 1937 1606 1936 13984 13982 13749 13978 13986 13980 
1904 1606 1937 1607 13754 13982 13985 13756 11846 13987 
1937 1606 1640 1607 13982 12071 13983 13987 11846 12072 
1607 1640 1938 1641 12072 13988 13989 12078 12080 13990 
1904 1938 1905 1607 13991 13992 13766 13756 13989 13761 
1607 1640 1937 1938 12072 13983 13987 13989 13988 13993 
1904 1938 1607 1937 13991 13989 13756 13985 13993 13987 
1905 1607 1938 1608 13761 13989 13992 13763 11853 13994 
1938 1607 1641 1608 13989 12078 13990 13994 11853 12079 
1608 1641 1939 1642 12079 13995 13996 12085 12087 13997 
1905 1939 1906 1608 13998 13999 13773 13763 13996 13768 
1608 1641 1938 1939 12079 13990 13994 13996 13995 14000 
1905 1939 1608 1938 13998 13996 13763 13992 14000 13994 
1906 1608 1939 1609 13768 13996 13999 13770 11860 14001 
1939 1608 1642 1609 13996 12085 13997 14001 11860 12086 
1609 1642 1940 1643 12086 14002 14003 12092 12094 14004 
1906 1940 1907 1609 14005 14006 13780 13770 14003 13775 
1609 1642 1939 1940 12086 13997 14001 14003 14002 14007 
1906 1940 1609 1939 14005 14003 13770 13999 14007 14001 
1907 1609 1940 1610 13775 14003 14006 13777 11867 14008 
1940 1609 1643 1610 14003 12092 14004 14008 11867 12093 
1610 1643 1941 1644 12093 14009 14010 12099 12101 14011 
1907 1941 1908 1610 14012 14013 13787 13777 14010 13782 
1610 1643 1940 1941 12093 14004 14008 14010 14009 14014 
1907 1941 1610 1940 14012 14010 13777 14006 14014 14008 
1908 1610 1941 1611 13782 14010 14013 13784 11874 14015 
1941 1610 1644 1611 14010 12099 14011 14015 11874 12100 
1611 1644 1942 1645 12100 14016 14017 12106 12108 14018 
1908 1942 1909 1611 14019 14020 13794 13784 14017 13789 
1611 1644 1941 1942 12100 14011 14015 14017 14016 14021 
1908 1942 1611 1941 14019 14017 13784 14013 14021 14015 
1909 1611 1942 1612 13789 14017 14020 13791 11881 14022 
1942 1611 1645 1612 14017 12106 14018 14022 11881 12107 
1612 1645 1943 1646 12107 14023 14024 12113 12115 14025 
1909 1943 1910 1612 14026 14027 13801 13791 14024 13796 
1612 1645 1942 1943 12107 14018 14022 14024 14023 14028 
1909 1943 1612 1942 14026 14024 13791 14020 14028 14022 
1910 1612 1943 1613 13796 14024 14027 13798 11888 14029 
1943 1612 1646 1613 14024 12113 14025 14029 11888 12114 
1613 1646 1944 1647 12114 14030 14031 12120 12122 14032 
1910 1944 1911 1613 14033 14034 13808 13798 14031 13803 
1613 1646 1943 1944 12114 14025 14029 14031 14030 14035 
1910 1944 1613 1943 14033 14031 13798 14027 14035 14029 
1911 1613 1944 1614 13803 14031 14034 13805 11895 14036 
1944 1613 1647 1614 14031 12120 14032 14036 11895 12121 
1614 1647 1945 1648 12121 14037 14038 12127 12129 14039 
1911 1945 1912 1614 14040 14041 13815 13805 14038 13810 
1614 1647 1944 1945 12121 14032 14036 14038 14037 14042 
1911 1945 1614 1944 14040 14038 13805 14034 14042 14036 
1912 1614 1945 1615 13810 14038 14041 13812 11902 14043 
1945 1614 1648 1615 14038 12127 14039 14043 11902 12128 
1615 1648 1946 1649 12128 14044 14045 12134 12136 14046 
1912 1946 1913 1615 14047 14048 13822 13812 14045 13817 
1615 1648 1945 1946 12128 14039 14043 14045 14044 14049 
1912 1946 1615 1945 14047 14045 13812 14041 14049 14043 
1913 1615 1946 1616 13817 14045 14048 13819 11909 14050 
1946 1615 1649 1616 14045 12134 14046 14050 11909 12135 
1617 1650 1948 1651 12146 14051 14052 12141 12145 14053 
1914 1948 1915 1617 14054 14055 13831 13829 14052 13824 
1617 1650 1947 1948 12146 14056 14057 14052 14051 14058 
1914 1948 1617 1947 14054 14052 13829 14059 14058 14057 
1915 1617 1948 1618 13824 14052 14055 13826 11918 14060 
1948 1617 1651 1618 14052 12141 14053 14060 11918 12142 
1618 1651 1949 1652 12142 14061 14062 12151 12153 14063 
1915 1949 1916 1618 14064 14065 13839 13826 14062 13834 
1618 1651 1948 1949 12142 14053 14060 14062 14061 14066 
1915 1949 1618 1948 14064 14062 13826 14055 14066 14060 
1916 1618 1949 1619 13834 14062 14065 13836 11926 14067 
1949 1618 1652 1619 14062 12151 14063 14067 11926 12152 
1619 1652 1950 1653 12152 14068 14069 12158 12160 14070 
1916 1950 1917 1619 14071 14072 13846 13836 14069 13841 
1619 1652 1949 1950 12152 14063 14067 14069 14068 14073 
1916 1950 1619 1949 14071 14069 13836 14065 14073 14067 
1917 1619 1950 1620 13841 14069 14072 13843 11933 14074 
1950 1619 1653 1620 14069 12158 14070 14074 11933 12159 
1620 1653 1951 1654 12159 14075 14076 12165 12167 14077 
1917 1951 1918 1620 14078 14079 13853 13843 14076 13848 
1620 1653 1950 1951 12159 14070 14074 14076 14075 14080 
1917 1951 1620 1950 14078 14076 13843 14072 14080 14074 
1918 1620 1951 1621 13848 14076 14079 13850 11940 14081 
1951 1620 1654 1621 14076 12165 14077 14081 11940 12166 
1621 1654 1952 1655 12166 14082 14083 12172 12174 14084 
1918 1952 1919 1621 14085 14086 13860 13850 14083 13855 
1621 1654 1951 1952 12166 14077 14081 14083 14082 14087 
1918 1952 1621 1951 14085 14083 13850 14079 14087 14081 
1919 1621 1952 1622 13855 14083 14086 13857 11947 14088 
1952 1621 1655 1622 14083 12172 14084 14088 11947 12173 
1622 1655 1953 1656 12173 14089 14090 12179 12181 14091 
1919 1953 1920 1622 14092 14093 13867 13857 14090 13862 
1622 1655 1952 1953 12173 14084 14088 14090 14089 14094 
1919 1953 1622 1952 14092 14090 13857 14086 14094 14088 
1920 1622 1953 1623 13862 14090 14093 13864 11954 14095 
1953 1622 1656 1623 14090 12179 14091 14095 11954 12180 
1623 1656 1954 1657 12180 14096 14097 12186 12188 14098 
1920 1954 1921 1623 14099 14100 13874 13864 14097 13869 
1623 1656 1953 1954 12180 14091 14095 14097 14096 14101 
1920 1954 1623 1953 14099 14097 13864 14093 14101 14095 
1921 1623 1954 1624 13869 14097 14100 13871 11961 14102 
1954 1623 1657 1624 14097 12186 14098 14102 11961 12187 
1624 1657 1955 1658 12187 14103 14104 12193 12195 14105 
1921 1955 1922 1624 14106 14107 13881 13871 14104 13876 
1624 1657 1954 1955 12187 14098 14102 14104 14103 14108 
1921 1955 1624 1954 14106 14104 13871 14100 14108 14102 
1922 1624 1955 1625 13876 14104 14107 13878 11968 14109 
1955 1624 1658 1625 14104 12193 14105 14109 11968 12194 
1625 1658 1956 1659 12194 14110 14111 12200 12202 14112 
1922 1956 1923 1625 14113 14114 13888 13878 14111 13883 
1625 1658 1955 1956 12194 14105 14109 14111 14110 14115 
1922 1956 1625 1955 14113 14111 13878 14107 14115 14109 
1923 1625 1956 1626 13883 14111 14114 13885 11975 14116 
1956 1625 1659 1626 14111 12200 14112 14116 11975 12201 
1626 1659 1957 1660 12201 14117 14118 12207 12209 14119 
1923 1957 1924 1626 14120 14121 13895 13885 14118 13890 
1626 1659 1956 1957 12201 14112 14116 14118 14117 14122 
1923 1957 1626 1956 14120 14118 13885 14114 14122 14116 
1924 1626 1957 1627 13890 14118 14121 13892 11982 14123 
1957 1626 1660 1627 14118 12207 14119 14123 11982 12208 
1627 1660 1958 1661 12208 14124 14125 12214 12216 14126 
1924 1958 1925 1627 14127 14128 13902 13892 14125 13897 
1627 1660 1957 1958 12208 14119 14123 14125 14124 14129 
1924 1958 1627 1957 14127 14125 13892 14121 14129 14123 
1925 1627 1958 1628 13897 14125 14128 13899 11989 14130 
1958 1627 1661 1628 14125 12214 14126 14130 11989 12215 
1628 1661 1959 1662 12215 14131 14132 12221 12223 14133 
1925 1959 1926 1628 14134 14135 13909 13899 14132 13904 
1628 1661 1958 1959 12215 14126 14130 14132 14131 14136 
1925 1959 1628 1958 14134 14132 13899 14128 14136 14130 
1926 1628 1959 1629 13904 14132 14135 13906 11996 14137 
1959 1628 1662 1629 14132 12221 14133 14137 11996 12222 
1629 1662 1960 1663 12222 14138 14139 12228 12230 14140 
1926 1960 1927 1629 14141 14142 13916 13906 14139 13911 
1629 1662 1959 1960 12222 14133 14137 14139 14138 14143 
1926 1960 1629 1959 14141 14139 13906 14135 14143 14137 
1927 1629 1960 1630 13911 14139 14142 13913 12003 14144 
1960 1629 1663 1630 14139 12228 14140 14144 12003 12229 
1630 1663 1961 1664 12229 14145 14146 12235 12237 14147 
1927 1961 1928 1630 14148 14149 13923 13913 14146 13918 
1630 1663 1960 1961 12229 14140 14144 14146 14145 14150 
1927 1961 1630 1960 14148 14146 13913 14142 14150 14144 
1928 1630 1961 1631 13918 14146 14149 13920 12010 14151 
1961 1630 1664 1631 14146 12235 14147 14151 12010 12236 
1631 1664 1962 1665 12236 14152 14153 12242 12244 14154 
1928 1962 1929 1631 14155 14156 13930 13920 14153 13925 
1631 1664 1961 1962 12236 14147 14151 14153 14152 14157 
1928 1962 1631 1961 14155 14153 13920 14149 14157 14151 
1929 1631 1962 1632 13925 14153 14156 13927 12017 14158 
1962 1631 1665 1632 14153 12242 14154 14158 12017 12243 
1632 1665 1963 1666 12243 14159 14160 12249 12251 14161 
1929 1963 1930 1632 14162 14163 13937 13927 14160 13932 
1632 1665 1962 1963 12243 14154 14158 14160 14159 14164 
1929 1963 1632 1962 14162 14160 13927 14156 14164 14158 
1930 1632 1963 1633 13932 14160 14163 13934 12024 14165 
1963 1632 1666 1633 14160 12249 14161 14165 12024 12250 
1633 1666 1964 1667 12250 14166 14167 12256 12258 14168 
1930 1964 1931 1633 14169 14170 13944 13934 14167 13939 
1633 1666 1963 1964 12250 14161 14165 14167 14166 14171 
1930 1964 1633 1963 14169 14167 13934 14163 14171 14165 
1931 1633 1964 1634 13939 14167 14170 13941 12031 14172 
1964 1633 1667 1634 14167 12256 14168 14172 12031 12257 
1634 1667 1965 1668 12257 14173 14174 12263 12265 14175 
1931 1965 1932 1634 14176 14177 13951 13941 14174 13946 
1634 1667 1964 1965 12257 14168 14172 14174 14173 14178 
1931 1965 1634 1964 14176 14174 13941 14170 14178 14172 
1932 1634 1965 1635 13946 14174 14177 13948 12038 14179 
1965 1634 1668 1635 14174 12263 14175 14179 12038 12264 
1635 1668 1966 1669 12264 14180 14181 12270 12272 14182 
1932 1966 1933 1635 14183 14184 13958 13948 14181 13953 
1635 1668 1965 1966 12264 14175 14179 14181 14180 14185 
1932 1966 1635 1965 14183 14181 13948 14177 14185 14179 
1933 1635 1966 1636 13953 14181 14184 13955 12045 14186 
1966 1635 1669 1636 14181 12270 14182 14186 12045 12271 
1636 1669 1967 1670 12271 14187 14188 12277 12279 14189 
1933 1967 1934 1636 14190 14191 13965 13955 14188 13960 
1636 1669 1966 1967 12271 14182 14186 14188 14187 14192 
1933 1967 1636 1966 14190 14188 13955 14184 14192 14186 
1934 1636 1967 1637 13960 14188 14191 13962 12052 14193 
1967 1636 1670 1637 14188 12277 14189 14193 12052 12278 
1637 1670 1968 1671 12278 14194 14195 12284 12286 14196 
1934 1968 1935 1637 14197 14198 13972 13962 14195 13967 
1637 1670 1967 1968 12278 14189 14193 14195 14194 14199 
1934 1968 1637 1967 14197 14195 13962 14191 14199 14193 
1935 1637 1968 1638 13967 14195 14198 13969 12059 14200 
1968 1637 1671 1638 14195 12284 14196 14200 12059 12285 
1638 1671 1969 1672 12285 14201 14202 12291 12293 14203 
1935 1969 1936 1638 14204 14205 13979 13969 14202 13974 
1638 1671 1968 1969 12285 14196 14200 14202 14201 14206 
1935 1969 1638 1968 14204 14202 13969 14198 14206 14200 
1936 1638 1969 1639 13974 14202 14205 13976 12066 14207 
1969 1638 1672 1639 14202 12291 14203 14207 12066 12292 
1639 1672 1970 1673 12292 14208 14209 12298 12300 14210 
1936 1970 1937 1639 14211 14212 13986 13976 14209 13981 
1639 1672 1969 1970 12292 14203 14207 14209 14208 14213 
1936 1970 1639 1969 14211 14209 13976 14205 14213 14207 
1937 1639 1970 1640 13981 14209 14212 13983 12073 14214 
1970 1639 1673 1640 14209 12298 14210 14214 12073 12299 
1640 1673 1971 1674 12299 14215 14216 12305 12307 14217 
1937 1971 1938 1640 14218 14219 13993 13983 14216 13988 
1640 1673 1970 1971 12299 14210 14214 14216 14215 14220 
1937 1971 1640 1970 14218 14216 13983 14212 14220 14214 
1938 1640 1971 1641 13988 14216 14219 13990 12080 14221 
1971 1640 1674 1641 14216 12305 14217 14221 12080 12306 
1641 1674 1972 1675 12306 14222 14223 12312 12314 14224 
1938 1972 1939 1641 14225 14226 14000 13990 14223 13995 
1641 1674 1971 1972 12306 14217 14221 14223 14222 14227 
1938 1972 1641 1971 14225 14223 13990 14219 14227 14221 
1939 1641 1972 1642 13995 14223 14226 13997 12087 14228 
1972 1641 1675 1642 14223 12312 14224 14228 12087 12313 
1642 1675 1973 1676 12313 14229 14230 12319 12321 14231 
1939 1973 1940 1642 14232 14233 14007 13997 14230 14002 
1642 1675 1972 1973 12313 14224 14228 14230 14229 14234 
1939 1973 1642 1972 14232 14230 13997 14226 14234 14228 
1940 1642 1973 1643 14002 14230 14233 14004 12094 14235 
1973 1642 1676 1643 14230 12319 14231 14235 12094 12320 
1643 1676 1974 1677 12320 14236 14237 12326 12328 14238 
1940 1974 1941 1643 14239 14240 14014 14004 14237 14009 
1643 1676 1973 1974 12320 14231 14235 14237 14236 14241 
1940 1974 1643 1973 14239 14237 14004 14233 14241 14235 
1941 1643 1974 1644 14009 14237 14240 14011 12101 14242 
1974 1643 1677 1644 14237 12326 14238 14242 12101 12327 
1644 1677 1975 1678 12327 14243 14244 12333 12335 14245 
1941 1975 1942 1644 14246 14247 14021 14011 14244 14016 
1644 1677 1974 1975 12327 14238 14242 14244 14243 14248 
1941 1975 1644 1974 14246 14244 14011 14240 14248 14242 
1942 1644 1975 1645 14016 14244 14247 14018 12108 14249 
1975 1644 1678 1645 14244 12333 14245 14249 12108 12334 
1645 1678 1976 1679 12334 14250 14251 12340 12342 14252 
1942 1976 1943 1645 14253 14254 14028 14018 14251 14023 
1645 1678 1975 1976 12334 14245 14249 14251 14250 14255 
1942 1976 1645 1975 14253 14251 14018 14247 14255 14249 
1943 1645 1976 1646 14023 14251 14254 14025 12115 14256 
1976 1645 1679 1646 14251 12340 14252 14256 12115 12341 
1646 1679 1977 1680 12341 14257 14258 12347 12349 14259 
1943 1977 1944 1646 14260 14261 14035 14025 14258 14030 
1646 1679 1976 1977 12341 14252 14256 14258 14257 14262 
1943 1977 1646 1976 14260 14258 14025 14254 14262 14256 
1944 1646 1977 1647 14030 14258 14261 14032 12122 14263 
1977 1646 1680 1647 14258 12347 14259 14263 12122 12348 
1647 1680 1978 1681 12348 14264 14265 12354 12356 14266 
1944 1978 1945 1647 14267 14268 14042 14032 14265 14037 
1647 1680 1977 1978 12348 14259 14263 14265 14264 14269 
1944 1978 1647 1977 14267 14265 14032 14261 14269 14263 
1945 1647 1978 1648 14037 14265 14268 14039 12129 14270 
1978 1647 1681 1648 14265 12354 14266 14270 12129 12355 
1648 1681 1979 1682 12355 14271 14272 12361 12363 14273 
1945 1979 1946 1648 14274 14275 14049 14039 14272 14044 
1648 1681 1978 1979 12355 14266 14270 14272 14271 14276 
1945 1979 1648 1978 14274 14272 14039 14268 14276 14270 
1946 1648 1979 1649 14044 14272 14275 14046 12136 14277 
1979 1648 1682 1649 14272 12361 14273 14277 12136 12362 
1650 1683 1981 1684 12373 14278 14279 12368 12372 14280 
1947 1981 1948 1650 14281 14282 14058 14056 14279 14051 
1650 1683 1980 1981 12373 14283 14284 14279 14278 14285 
1947 1981 1650 1980 14281 14279 14056 14286 14285 14284 
1948 1650 1981 1651 14051 14279 14282 14053 12145 14287 
1981 1650 1684 1651 14279 12368 14280 14287 12145 12369 
1651 1684 1982 1685 12369 14288 14289 12378 12380 14290 
1948 1982 1949 1651 14291 14292 14066 14053 14289 14061 
1651 1684 1981 1982 12369 14280 14287 14289 14288 14293 
1948 1982 1651 1981 14291 14289 14053 14282 14293 14287 
1949 1651 1982 1652 14061 14289 14292 14063 12153 14294 
1982 1651 1685 1652 14289 12378 14290 14294 12153 12379 
1652 1685 1983 1686 12379 14295 14296 12385 12387 14297 
1949 1983 1950 1652 14298 14299 14073 14063 14296 14068 
1652 1685 1982 1983 12379 14290 14294 14296 14295 14300 
1949 1983 1652 1982 14298 14296 14063 14292 14300 14294 
1950 1652 1983 1653 14068 14296 14299 14070 12160 14301 
1983 1652 1686 1653 14296 12385 14297 14301 12160 12386 
1653 1686 1984 1687 12386 14302 14303 12392 12394 14304 
1950 1984 1951 1653 14305 14306 14080 14070 14303 14075 
1653 1686 1983 1984 12386 14297 14301 14303 14302 14307 
1950 1984 1653 1983 14305 14303 14070 14299 14307 14301 
1951 1653 1984 1654 14075 14303 14306 14077 12167 14308 
1984 1653 1687 1654 14303 12392 14304 14308 12167 12393 
1654 1687 1985 1688 12393 14309 14310 12399 12401 14311 
1951 1985 1952 1654 14312 14313 14087 14077 14310 14082 
1654 1687 1984 1985 12393 14304 14308 14310 14309 14314 
1951 1985 1654 1984 14312 14310 14077 14306 14314 14308 
1952 1654 1985 1655 14082 14310 14313 14084 12174 14315 
1985 1654 1688 1655 14310 12399 14311 14315 12174 12400 
1655 1688 1986 1689 12400 14316 14317 12406 12408 14318 
1952 1986 1953 1655 14319 14320 14094 14084 14317 14089 
1655 1688 1985 1986 12400 14311 14315 14317 14316 14321 
1952 1986 1655 1985 14319 14317 14084 14313 14321 14315 
1953 1655 1986 1656 14089 14317 14320 14091 12181 14322 
1986 1655 1689 1656 14317 12406 14318 14322 12181 12407 
1656 1689 1987 1690 12407 14323 14324 12413 12415 14325 
1953 1987 1954 1656 14326 14327 14101 14091 14324 14096 
1656 1689 1986 1987 12407 14318 14322 14324 14323 14328 
1953 1987 1656 1986 14326 14324 14091 14320 14328 14322 
1954 1656 1987 1657 14096 14324 14327 14098 12188 14329 
1987 1656 1690 1657 14324 12413 14325 14329 12188 12414 
1657 1690 1988 1691 12414 14330 14331 12420 12422 14332 
1954 1988 1955 1657 14333 14334 14108 14098 14331 14103 
1657 1690 1987 1988 12414 14325 14329 14331 14330 14335 
1954 1988 1657 1987 14333 14331 14098 14327 14335 14329 
1955 1657 1988 1658 14103 14331 14334 14105 12195 14336 
1988 1657 1691 1658 14331 12420 14332 14336 12195 12421 
1658 1691 1989 1692 12421 14337 14338 12427 12429 14339 
1955 1989 1956 1658 14340 14341 14115 14105 14338 14110 
1658 1691 1988 1989 12421 14332 14336 14338 14337 14342 
1955 1989 1658 1988 14340 14338 14105 14334 14342 14336 
1956 1658 1989 1659 14110 14338 14341 14112 12202 14343 
1989 1658 1692 1659 14338 12427 14339 14343 12202 12428 
1659 1692 1990 1693 12428 14344 14345 12434 12436 14346 
1956 1990 1957 1659 14347 14348 14122 14112 14345 14117 
1659 1692 1989 1990 12428 14339 14343 14345 14344 14349 
1956 1990 1659 1989 14347 14345 14112 14341 14349 14343 
1957 1659 1990 1660 14117 14345 14348 14119 12209 14350 
1990 1659 1693 1660 14345 12434 14346 14350 12209 12435 
1660 1693 1991 1694 12435 14351 14352 12441 12443 14353 
1957 1991 1958 1660 14354 14355 14129 14119 14352 14124 
1660 1693 1990 1991 12435 14346 14350 14352 14351 14356 
1957 1991 1660 1990 14354 14352 14119 14348 14356 14350 
1958 1660 1991 1661 14124 14352 14355 14126 12216 14357 
1991 1660 1694 1661 14352 12441 14353 14357 12216 12442 
1661 1694 1992 1695 12442 14358 14359 12448 12450 14360 
1958 1992 1959 1661 14361 14362 14136 14126 14359 14131 
1661 1694 1991 1992 12442 14353 14357 14359 14358 14363 
1958 1992 1661 1991 14361 14359 14126 14355 14363 14357 
1959 1661 1992 1662 14131 14359 14362 14133 12223 14364 
1992 1661 1695 1662 14359 12448 14360 14364 12223 12449 
1662 1695 1993 1696 12449 14365 14366 12455 12457 14367 
1959 1993 1960 1662 14368 14369 14143 14133 14366 14138 
1662 1695 1992 1993 12449 14360 14364 14366 14365 14370 
1959 1993 1662 1992 14368 14366 14133 14362 14370 14364 
1960 1662 1993 1663 14138 14366 14369 14140 12230 14371 
1993 1662 1696 1663 14366 12455 14367 14371 12230 12456 
1663 1696 1994 1697 12456 14372 14373 12462 12464 14374 
1960 1994 1961 1663 14375 14376 14150 14140 14373 14145 
1663 1696 1993 1994 12456 14367 14371 14373 14372 14377 
1960 1994 1663 1993 14375 14373 14140 14369 14377 14371 
1961 1663 1994 1664 14145 14373 14376 14147 12237 14378 
1994 1663 1697 1664 14373 12462 14374 14378 12237 12463 
1664 1697 1995 1698 12463 14379 14380 12469 12471 14381 
1961 1995 1962 1664 14382 14383 14157 14147 14380 14152 
1664 1697 1994 1995 12463 14374 14378 14380 14379 14384 
1961 1995 1664 1994 14382 14380 14147 14376 14384 14378 
1962 1664 1995 1665 14152 14380 14383 14154 12244 14385 
1995 1664 1698 1665 14380 12469 14381 14385 12244 12470 
1665 1698 1996 1699 12470 14386 14387 12476 12478 14388 
1962 1996 1963 1665 14389 14390 14164 14154 14387 14159 
1665 1698 1995 1996 12470 14381 14385 14387 14386 14391 
1962 1996 1665 1995 14389 14387 14154 14383 14391 14385 
1963 1665 1996 1666 14159 14387 14390 14161 12251 14392 
1996 1665 1699 1666 14387 12476 14388 14392 12251 12477 
1666 1699 1997 1700 12477 14393 14394 12483 12485 14395 
1963 1997 1964 1666 14396 14397 14171 14161 14394 14166 
1666 1699 1996 1997 12477 14388 14392 14394 14393 14398 
1963 1997 1666 1996 14396 14394 14161 14390 14398 14392 
1964 1666 1997 1667 14166 14394 14397 14168 12258 14399 
1997 1666 1700 1667 14394 12483 14395 14399 12258 12484 
1667 1700 1998 1701 12484 14400 14401 12490 12492 14402 
1964 1998 1965 1667 14403 14404 14178 14168 14401 14173 
1667 1700 1997 1998 12484 14395 14399 14401 14400 14405 
1964 1998 1667 1997 14403 14401 14168 14397 14405 14399 
1965 1667 1998 1668 14173 14401 14404 14175 12265 14406 
1998 1667 1701 1668 14401 12490 14402 14406 12265 12491 
1668 1701 1999 1702 12491 14407 14408 12497 12499 14409 
1965 1999 1966 1668 14410 14411 14185 14175 14408 14180 
1668 1701 1998 1999 12491 14402 14406 14408 14407 14412 
1965 1999 1668 1998 14410 14408 14175 14404 14412 14406 
1966 1668 1999 1669 14180 14408 14411 14182 12272 14413 
1999 1668 1702 1669 14408 12497 14409 14413 12272 12498 
1669 1702 2000 1703 12498 14414 14415 12504 12506 14416 
1966 2000 1967 1669 14417 14418 14192 14182 14415 14187 
1669 1702 1999 2000 12498 14409 14413 14415 14414 14419 
1966 2000 1669 1999 14417 14415 14182 14411 14419 14413 
1967 1669 2000 1670 14187 14415 14418 14189 12279 14420 
2000 1669 1703 1670 14415 12504 14416 14420 12279 12505 
1670 1703 2001 1704 12505 14421 14422 12511 12513 14423 
1967 2001 1968 1670 14424 14425 14199 14189 14422 14194 
1670 1703 2000 2001 12505 14416 14420 14422 14421 14426 
1967 2001 1670 2000 14424 14422 14189 14418 14426 14420 
1968 1670 2001 1671 14194 14422 14425 14196 12286 14427 
2001 1670 1704 1671 14422 12511 14423 14427 12286 12512 
1671 1704 2002 1705 12512 14428 14429 12518 12520 14430 
1968 2002 1969 1671 14431 14432 14206 14196 14429 14201 
1671 1704 2001 2002 12512 14423 14427 14429 14428 14433 
1968 2002 1671 2001 14431 14429 14196 14425 14433 14427 
1969 1671 2002 1672 14201 14429 14432 14203 12293 14434 
2002 1671 1705 1672 14429 12518 14430 14434 12293 12519 
1672 1705 2003 1706 12519 14435 14436 12525 12527 14437 
1969 2003 1970 1672 14438 14439 14213 14203 14436 14208 
1672 1705 2002 2003 12519 14430 14434 14436 14435 14440 
1969 2003 1672 2002 14438 14436 14203 14432 14440 14434 
1970 1672 2003 1673 14208 14436 14439 14210 12300 14441 
2003 1672 1706 1673 14436 12525 14437 14441 12300 12526 
1673 1706 2004 1707 12526 14442 14443 12532 12534 14444 
1970 2004 1971 1673 14445 14446 14220 14210 14443 14215 
1673 1706 2003 2004 12526 14437 14441 14443 14442 14447 
1970 2004 1673 2003 14445 14443 14210 14439 14447 14441 
1971 1673 2004 1674 14215 14443 14446 14217 12307 14448 
2004 1673 1707 1674 14443 12532 14444 14448 12307 12533 
1674 1707 2005 1708 12533 14449 14450 12539 12541 14451 
1971 2005 1972 1674 14452 14453 14227 14217 14450 14222 
1674 1707 2004 2005 12533 14444 14448 14450 14449 14454 
1971 2005 1674 2004 14452 14450 14217 14446 14454 14448 
1972 1674 2005 1675 14222 14450 14453 14224 12314 14455 
2005 1674 1708 1675 14450 12539 14451 14455 12314 12540 
1675 1708 2006 1709 12540 14456 14457 12546 12548 14458 
1972 2006 1973 1675 14459 14460 14234 14224 14457 14229 
1675 1708 2005 2006 12540 14451 14455 14457 14456 14461 
1972 2006 1675 2005 14459 14457 14224 14453 14461 14455 
1973 1675 2006 1676 14229 14457 14460 14231 12321 14462 
2006 1675 1709 1676 14457 12546 14458 14462 12321 12547 
1676 1709 2007 1710 12547 14463 14464 12553 12555 14465 
1973 2007 1974 1676 14466 14467 14241 14231 14464 14236 
1676 1709 2006 2007 12547 14458 14462 14464 14463 14468 
1973 2007 1676 2006 14466 14464 14231 14460 14468 14462 
1974 1676 2007 1677 14236 14464 14467 14238 12328 14469 
2007 1676 1710 1677 14464 12553 14465 14469 12328 12554 
1677 1710 2008 1711 12554 14470 14471 12560 12562 14472 
1974 2008 1975 1677 14473 14474 14248 14238 14471 14243 
1677 1710 2007 2008 12554 14465 14469 14471 14470 14475 
1974 2008 1677 2007 14473 14471 14238 14467 14475 14469 
1975 1677 2008 1678 14243 14471 14474 14245 12335 14476 
2008 1677 1711 1678 14471 12560 14472 14476 12335 12561 
1678 1711 2009 1712 12561 14477 14478 12567 12569 14479 
1975 2009 1976 1678 14480 14481 14255 14245 14478 14250 
1678 1711 2008 2009 12561 14472 14476 14478 14477 14482 
1975 2009 1678 2008 14480 14478 14245 14474 14482 14476 
1976 1678 2009 1679 14250 14478 14481 14252 12342 14483 
2009 1678 1712 1679 14478 12567 14479 14483 12342 12568 
1679 1712 2010 1713 12568 14484 14485 12574 12576 14486 
1976 2010 1977 1679 14487 14488 14262 14252 14485 14257 
1679 1712 2009 2010 12568 14479 14483 14485 14484 14489 
1976 2010 1679 2009 14487 14485 14252 14481 14489 14483 
1977 1679 2010 1680 14257 14485 14488 14259 12349 14490 
2010 1679 1713 1680 14485 12574 14486 14490 12349 12575 
1680 1713 2011 1714 12575 14491 14492 12581 12583 14493 
1977 2011 1978 1680 14494 14495 14269 14259 14492 14264 
1680 1713 2010 2011 12575 14486 14490 14492 14491 14496 
1977 2011 1680 2010 14494 14492 14259 14488 14496 14490 
1978 1680 2011 1681 14264 14492 14495 14266 12356 14497 
2011 1680 1714 1681 14492 12581 14493 14497 12356 12582 
1681 1714 2012 1715 12582 14498 14499 12588 12590 14500 
1978 2012 1979 1681 14501 14502 14276 14266 14499 14271 
1681 1714 2011 2012 12582 14493 14497 14499 14498 14503 
1978 2012 1681 2011 14501 14499 14266 14495 14503 14497 
1979 1681 2012 1682 14271 14499 14502 14273 12363 14504 
2012 1681 1715 1682 14499 12588 14500 14504 12363 12589 
1683 1716 2014 1717 12600 14505 14506 12595 12599 14507 
1980 2014 1981 1683 14508 14509 14285 14283 14506 14278 
1683 1716 2013 2014 12600 14510 14511 14506 14505 14512 
1980 2014 1683 2013 14508 14506 14283 14513 14512 14511 
1981 1683 2014 1684 14278 14506 14509 14280 12372 14514 
2014 1683 1717 1684 14506 12595 14507 14514 12372 12596 
1684 1717 2015 1718 12596 14515 14516 12605 12607 14517 
1981 2015 1982 1684 14518 14519 14293 14280 14516 14288 
1684 1717 2014 2015 12596 14507 14514 14516 14515 14520 
1981 2015 1684 2014 14518 14516 14280 14509 14520 14514 
1982 1684 2015 1685 14288 14516 14519 14290 12380 14521 
2015 1684 1718 1685 14516 12605 14517 14521 12380 12606 
1685 1718 2016 1719 12606 14522 14523 12612 12614 14524 
1982 2016 1983 1685 14525 14526 14300 14290 14523 14295 
1685 1718 2015 2016 12606 14517 14521 14523 14522 14527 
1982 2016 1685 2015 14525 14523 14290 14519 14527 14521 
1983 1685 2016 1686 14295 14523 14526 14297 12387 14528 
2016 1685 1719 1686 14523 12612 14524 14528 12387 12613 
1686 1719 2017 1720 12613 14529 14530 12619 12621 14531 
1983 2017 1984 1686 14532 14533 14307 14297 14530 14302 
1686 1719 2016 2017 12613 14524 14528 14530 14529 14534 
1983 2017 1686 2016 14532 14530 14297 14526 14534 14528 
1984 1686 2017 1687 14302 14530 14533 14304 12394 14535 
2017 1686 1720 1687 14530 12619 14531 14535 12394 12620 
1687 1720 2018 1721 12620 14536 14537 12626 12628 14538 
1984 2018 1985 1687 14539 14540 14314 14304 14537 14309 
1687 1720 2017 2018 12620 14531 14535 14537 14536 14541 
1984 2018 1687 2017 14539 14537 14304 14533 14541 14535 
1985 1687 2018 1688 14309 14537 14540 14311 12401 14542 
2018 1687 1721 1688 14537 12626 14538 14542 12401 12627 
1688 1721 2019 1722 12627 14543 14544 12633 12635 14545 
1985 2019 1986 1688 14546 14547 14321 14311 14544 14316 
1688 1721 2018 2019 12627 14538 14542 14544 14543 14548 
1985 2019 1688 2018 14546 14544 14311 14540 14548 14542 
1986 1688 2019 1689 14316 14544 14547 14318 12408 14549 
2019 1688 1722 1689 14544 12633 14545 14549 12408 12634 
1689 1722 2020 1723 12634 14550 14551 12640 12642 14552 
1986 2020 1987 1689 14553 14554 14328 14318 14551 14323 
1689 1722 2019 2020 12634 14545 14549 14551 14550 14555 
1986 2020 1689 2019 14553 14551 14318 14547 14555 14549 
1987 1689 2020 1690 14323 14551 14554 14325 12415 14556 
2020 1689 1723 1690 14551 12640 14552 14556 12415 12641 
1690 1723 2021 1724 12641 14557 14558 12647 12649 14559 
1987 2021 1988 1690 14560 14561 14335 14325 14558 14330 
1690 1723 2020 2021 12641 14552 14556 14558 14557 14562 
1987 2021 1690 2020 14560 14558 14325 14554 14562 14556 
1988 1690 2021 1691 14330 14558 14561 14332 12422 14563 
2021 1690 1724 1691 14558 12647 14559 14563 12422 12648 
1691 1724 2022 1725 12648 14564 14565 12654 12656 14566 
1988 2022 1989 1691 14567 14568 14342 14332 14565 14337 
1691 1724 2021 2022 12648 14559 14563 14565 14564 14569 
1988 2022 1691 2021 14567 14565 14332 14561 14569 14563 
1989 1691 2022 1692 14337 14565 14568 14339 12429 14570 
2022 1691 1725 1692 14565 12654 14566 14570 12429 12655 
1692 1725 2023 1726 12655 14571 14572 12661 12663 14573 
1989 2023 1990 1692 14574 14575 14349 14339 14572 14344 
1692 1725 2022 2023 12655 14566 14570 14572 14571 14576 
1989 2023 1692 2022 14574 14572 14339 14568 14576 14570 
1990 1692 2023 1693 14344 14572 14575 14346 12436 14577 
2023 1692 1726 1693 14572 12661 14573 14577 12436 12662 
1693 1726 2024 1727 12662 14578 14579 12668 12670 14580 
1990 2024 1991 1693 14581 14582 14356 14346 14579 14351 
1693 1726 2023 2024 12662 14573 14577 14579 14578 14583 
1990 2024 1693 2023 14581 14579 14346 14575 14583 14577 
1991 1693 2024 1694 14351 14579 14582 14353 12443 14584 
2024 1693 1727 1694 14579 12668 14580 14584 12443 12669 
1694 1727 2025 1728 12669 14585 14586 12675 12677 14587 
1991 2025 1992 1694 14588 14589 14363 14353 14586 14358 
1694 1727 2024 2025 12669 14580 14584 14586 14585 14590 
1991 2025 1694 2024 14588 14586 14353 14582 14590 14584 
1992 1694 2025 1695 14358 14586 14589 14360 12450 14591 
2025 1694 1728 1695 14586 12675 14587 14591 12450 12676 
1695 1728 2026 1729 12676 14592 14593 12682 12684 14594 
1992 2026 1993 1695 14595 14596 14370 14360 14593 14365 
1695 1728 2025 2026 12676 14587 14591 14593 14592 14597 
1992 2026 1695 2025 14595 14593 14360 14589 14597 14591 
1993 1695 2026 1696 14365 14593 14596 14367 12457 14598 
2026 1695 1729 1696 14593 12682 14594 14598 12457 12683 
1696 1729 2027 1730 12683 14599 14600 12689 12691 14601 
1993 2027 1994 1696 14602 14603 14377 14367 14600 14372 
1696 1729 2026 2027 12683 14594 14598 14600 14599 14604 
1993 2027 1696 2026 14602 14600 14367 14596 14604 14598 
1994 1696 2027 1697 14372 14600 14603 14374 12464 14605 
2027 1696 1730 1697 14600 12689 14601 14605 12464 12690 
1697 1730 2028 1731 12690 14606 14607 12696 12698 14608 
1994 2028 1995 1697 14609 14610 14384 14374 14607 14379 
1697 1730 2027 2028 12690 14601 14605 14607 14606 14611 
1994 2028 1697 2027 14609 14607 14374 14603 14611 14605 
1995 1697 2028 1698 14379 14607 14610 14381 12471 14612 
2028 1697 1731 1698 14607 12696 14608 14612 12471 12697 
1698 1731 2029 1732 12697 14613 14614 12703 12705 14615 
1995 2029 1996 1698 14616 14617 14391 14381 14614 14386 
1698 1731 2028 2029 12697 14608 14612 14614 14613 14618 
1995 2029 1698 2028 14616 14614 14381 14610 14618 14612 
1996 1698 2029 1699 14386 14614 14617 14388 12478 14619 
2029 1698 1732 1699 14614 12703 14615 14619 12478 12704 
1699 1732 2030 1733 12704 14620 14621 12710 12712 14622 
1996 2030 1997 1699 14623 14624 14398 14388 14621 14393 
1699 1732 2029 2030 12704 14615 14619 14621 14620 14625 
1996 2030 1699 2029 14623 14621 14388 14617 14625 14619 
1997 1699 2030 1700 14393 14621 14624 14395 12485 14626 
2030 1699 1733 1700 14621 12710 14622 14626 12485 12711 
1700 1733 2031 1734 12711 14627 14628 12717 12719 14629 
1997 2031 1998 1700 14630 14631 14405 14395 14628 14400 
1700 1733 2030 2031 12711 14622 14626 14628 14627 14632 
1997 2031 1700 2030 14630 14628 14395 14624 14632 14626 
1998 1700 2031 1701 14400 14628 14631 14402 12492 14633 
2031 1700 1734 1701 14628 12717 14629 14633 12492 12718 
1701 1734 2032 1735 12718 14634 14635 12724 12726 14636 
1998 2032 1999 1701 14637 14638 14412 14402 14635 14407 
1701 1734 2031 2032 12718 14629 14633 14635 14634 14639 
1998 2032 1701 2031 14637 14635 14402 14631 14639 14633 
1999 1701 2032 1702 14407 14635 14638 14409 12499 14640 
2032 1701 1735 1702 14635 12724 14636 14640 12499 12725 
1702 1735 2033 1736 12725 14641 14642 12731 12733 14643 
1999 2033 2000 1702 14644 14645 14419 14409 14642 14414 
1702 1735 2032 2033 12725 14636 14640 14642 14641 14646 
1999 2033 1702 2032 14644 14642 14409 14638 14646 14640 
2000 1702 2033 1703 14414 14642 14645 14416 12506 14647 
2033 1702 1736 1703 14642 12731 14643 14647 12506 12732 
1703 1736 2034 1737 12732 14648 14649 12738 12740 14650 
2000 2034 2001 1703 14651 14652 14426 14416 14649 14421 
1703 1736 2033 2034 12732 14643 14647 14649 14648 14653 
2000 2034 1703 2033 14651 14649 14416 14645 14653 14647 
2001 1703 2034 1704 14421 14649 14652 14423 12513 14654 
2034 1703 1737 1704 14649 12738 14650 14654 12513 12739 
1704 1737 2035 1738 12739 14655 14656 12745 12747 14657 
2001 2035 2002 1704 14658 14659 14433 14423 14656 14428 
1704 1737 2034 2035 12739 14650 14654 14656 14655 14660 
2001 2035 1704 2034 14658 14656 14423 14652 14660 14654 
2002 1704 2035 1705 14428 14656 14659 14430 12520 14661 
2035 1704 1738 1705 14656 12745 14657 14661 12520 12746 
1705 1738 2036 1739 12746 14662 14663 12752 12754 14664 
2002 2036 2003 1705 14665 14666 14440 14430 14663 14435 
1705 1738 2035 2036 12746 14657 14661 14663 14662 14667 
2002 2036 1705 2035 14665 14663 14430 14659 14667 14661 
2003 1705 2036 1706 14435 14663 14666 14437 12527 14668 
2036 1705 1739 1706 14663 12752 14664 14668 12527 12753 
1706 1739 2037 1740 12753 14669 14670 12759 12761 14671 
2003 2037 2004 1706 14672 14673 14447 14437 14670 14442 
1706 1739 2036 2037 12753 14664 14668 14670 14669 14674 
2003 2037 1706 2036 14672 14670 14437 14666 14674 14668 
2004 1706 2037 1707 14442 14670 14673 14444 12534 14675 
2037 1706 1740 1707 14670 12759 14671 14675 12534 12760 
1707 1740 2038 1741 12760 14676 14677 12766 12768 14678 
2004 2038 2005 1707 14679 14680 14454 14444 14677 14449 
1707 1740 2037 2038 12760 14671 14675 14677 14676 14681 
2004 2038 1707 2037 14679 14677 14444 14673 14681 14675 
2005 1707 2038 1708 14449 14677 14680 14451 12541 14682 
2038 1707 1741 1708 14677 12766 14678 14682 12541 12767 
1708 1741 2039 1742 12767 14683 14684 12773 12775 14685 
2005 2039 2006 1708 14686 14687 14461 14451 14684 14456 
1708 1741 2038 2039 12767 14678 14682 14684 14683 14688 
2005 2039 1708 2038 14686 14684 14451 14680 14688 14682 
2006 1708 2039 1709 14456 14684 14687 14458 12548 14689 
2039 1708 1742 1709 14684 12773 14685 14689 12548 12774 
1709 1742 2040 1743 12774 14690 14691 12780 12782 14692 
2006 2040 2007 1709 14693 14694 14468 14458 14691 14463 
1709 1742 2039 2040 12774 14685 14689 14691 14690 14695 
2006 2040 1709 2039 14693 14691 14458 14687 14695 14689 
2007 1709 2040 1710 14463 14691 14694 14465 12555 14696 
2040 1709 1743 1710 14691 12780 14692 14696 12555 12781 
1710 1743 2041 1744 12781 14697 14698 12787 12789 14699 
2007 2041 2008 1710 14700 14701 14475 14465 14698 14470 
1710 1743 2040 2041 12781 14692 14696 14698 14697 14702 
2007 2041 1710 2040 14700 14698 14465 14694 14702 14696 
2008 1710 2041 1711 14470 14698 14701 14472 12562 14703 
2041 1710 1744 1711 14698 12787 14699 14703 12562 12788 
1711 1744 2042 1745 12788 14704 14705 12794 12796 14706 
2008 2042 2009 1711 14707 14708 14482 14472 14705 14477 
1711 1744 2041 2042 12788 14699 14703 14705 14704 14709 
2008 2042 1711 2041 14707 14705 14472 14701 14709 14703 
2009 1711 2042 1712 14477 14705 14708 14479 12569 14710 
2042 1711 1745 1712 14705 12794 14706 14710 12569 12795 
1712 1745 2043 1746 12795 14711 14712 12801 12803 14713 
2009 2043 2010 1712 14714 14715 14489 14479 14712 14484 
1712 1745 2042 2043 12795 14706 14710 14712 14711 14716 
2009 2043 1712 2042 14714 14712 14479 14708 14716 14710 
2010 1712 2043 1713 14484 14712 14715 14486 12576 14717 
2043 1712 1746 1713 14712 12801 14713 14717 12576 12802 
1713 1746 2044 1747 12802 14718 14719 12808 12810 14720 
2010 2044 2011 1713 14721 14722 14496 14486 14719 14491 
1713 1746 2043 2044 12802 14713 14717 14719 14718 14723 
2010 2044 1713 2043 14721 14719 14486 14715 14723 14717 
2011 1713 2044 1714 14491 14719 14722 14493 12583 14724 
2044 1713 1747 1714 14719 12808 14720 14724 12583 12809 
1714 1747 2045 1748 12809 14725 14726 12815 12817 14727 
2011 2045 2012 1714 14728 14729 14503 14493 14726 14498 
1714 1747 2044 2045 12809 14720 14724 14726 14725 14730 
2011 2045 1714 2044 14728 14726 14493 14722 14730 14724 
2012 1714 2045 1715 14498 14726 14729 14500 12590 14731 
2045 1714 1748 1715 14726 12815 14727 14731 12590 12816 
1716 1749 2047 1750 12827 14732 14733 12822 12826 14734 
2013 2047 2014 1716 14735 14736 14512 14510 14733 14505 
1716 1749 2046 2047 12827 14737 14738 14733 14732 14739 
2013 2047 1716 2046 14735 14733 14510 14740 14739 14738 
2014 1716 2047 1717 14505 14733 14736 14507 12599 14741 
2047 1716 1750 1717 14733 12822 14734 14741 12599 12823 
1717 1750 2048 1751 12823 14742 14743 12832 12834 14744 
2014 2048 2015 1717 14745 14746 14520 14507 14743 14515 
1717 1750 2047 2048 12823 14734 14741 14743 14742 14747 
2014 2048 1717 2047 14745 14743 14507 14736 14747 14741 
2015 1717 2048 1718 14515 14743 14746 14517 12607 14748 
2048 1717 1751 1718 14743 12832 14744 14748 12607 12833 
1718 1751 2049 1752 12833 14749 14750 12839 12841 14751 
2015 2049 2016 1718 14752 14753 14527 14517 14750 14522 
1718 1751 2048 2049 12833 14744 14748 14750 14749 14754 
2015 2049 1718 2048 14752 14750 14517 14746 14754 14748 
2016 1718 2049 1719 14522 14750 14753 14524 12614 14755 
2049 1718 1752 1719 14750 12839 14751 14755 12614 12840 
1719 1752 2050 1753 12840 14756 14757 12846 12848 14758 
2016 2050 2017 1719 14759 14760 14534 14524 14757 14529 
1719 1752 2049 2050 12840 14751 14755 14757 14756 14761 
2016 2050 1719 2049 14759 14757 14524 14753 14761 14755 
2017 1719 2050 1720 14529 14757 14760 14531 12621 14762 
2050 1719 1753 1720 14757 12846 14758 14762 12621 12847 
1720 1753 2051 1754 12847 14763 14764 12853 12855 14765 
2017 2051 2018 1720 14766 14767 14541 14531 14764 14536 
1720 1753 2050 2051 12847 14758 14762 14764 14763 14768 
2017 2051 1720 2050 14766 14764 14531 14760 14768 14762 
2018 1720 2051 1721 14536 14764 14767 14538 12628 14769 
2051 1720 1754 1721 14764 12853 14765 14769 12628 12854 
1721 1754 2052 1755 12854 14770 14771 12860 12862 14772 
2018 2052 2019 1721 14773 14774 14548 14538 14771 14543 
1721 1754 2051 2052 12854 14765 14769 14771 14770 14775 
2018 2052 1721 2051 14773 14771 14538 14767 14775 14769 
2019 1721 2052 1722 14543 14771 14774 14545 12635 14776 
2052 1721 1755 1722 14771 12860 14772 14776 12635 12861 
1722 1755 2053 1756 12861 14777 14778 12867 12869 14779 
2019 2053 2020 1722 14780 14781 14555 14545 14778 14550 
1722 1755 2052 2053 12861 14772 14776 14778 14777 14782 
2019 2053 1722 2052 14780 14778 14545 14774 14782 14776 
2020 1722 2053 1723 14550 14778 14781 14552 12642 14783 
2053 1722 1756 1723 14778 12867 14779 14783 12642 12868 
1723 1756 2054 1757 12868 14784 14785 12874 12876 14786 
2020 2054 2021 1723 14787 14788 14562 14552 14785 14557 
1723 1756 2053 2054 12868 14779 14783 14785 14784 14789 
2020 2054 1723 2053 14787 14785 14552 14781 14789 14783 
2021 1723 2054 1724 14557 14785 14788 14559 12649 14790 
2054 1723 1757 1724 14785 12874 14786 14790 12649 12875 
1724 1757 2055 1758 12875 14791 14792 12881 12883 14793 
2021 2055 2022 1724 14794 14795 14569 14559 14792 14564 
1724 1757 2054 2055 12875 14786 14790 14792 14791 14796 
2021 2055 1724 2054 14794 14792 14559 14788 14796 14790 
2022 1724 2055 1725 14564 14792 14795 14566 12656 14797 
2055 1724 1758 1725 14792 12881 14793 14797 12656 12882 
1725 1758 2056 1759 12882 14798 14799 12888 12890 14800 
2022 2056 2023 1725 14801 14802 14576 14566 14799 14571 
1725 1758 2055 2056 12882 14793 14797 14799 14798 14803 
2022 2056 1725 2055 14801 14799 14566 14795 14803 14797 
2023 1725 2056 1726 14571 14799 14802 14573 12663 14804 
2056 1725 1759 1726 14799 12888 14800 14804 12663 12889 
1726 1759 2057 1760 12889 14805 14806 12895 12897 14807 
2023 2057 2024 1726 14808 14809 14583 14573 14806 14578 
1726 1759 2056 2057 12889 14800 14804 14806 14805 14810 
2023 2057 1726 2056 14808 14806 14573 14802 14810 14804 
2024 1726 2057 1727 14578 14806 14809 14580 12670 14811 
2057 1726 1760 1727 14806 12895 14807 14811 12670 12896 
1727 1760 2058 1761 12896 14812 14813 12902 12904 14814 
2024 2058 2025 1727 14815 14816 14590 14580 14813 14585 
1727 1760 2057 2058 12896 14807 14811 14813 14812 14817 
2024 2058 1727 2057 14815 14813 14580 14809 14817 14811 
2025 1727 2058 1728 14585 14813 14816 14587 12677 14818 
2058 1727 1761 1728 14813 12902 14814 14818 12677 12903 
1728 1761 2059 1762 12903 14819 14820 12909 12911 14821 
2025 2059 2026 1728 14822 14823 14597 14587 14820 14592 
1728 1761 2058 2059 12903 14814 14818 14820 14819 14824 
2025 2059 1728 2058 14822 14820 14587 14816 14824 14818 
2026 1728 2059 1729 14592 14820 14823 14594 12684 14825 
2059 1728 1762 1729 14820 12909 14821 14825 12684 12910 
1729 1762 2060 1763 12910 14826 14827 12916 12918 14828 
2026 2060 2027 1729 14829 14830 14604 14594 14827 14599 
1729 1762 2059 2060 12910 14821 14825 14827 14826 14831 
2026 2060 1729 2059 14829 14827 14594 14823 14831 14825 
2027 1729 2060 1730 14599 14827 14830 14601 12691 14832 
2060 1729 1763 1730 14827 12916 14828 14832 12691 12917 
1730 1763 2061 1764 12917 14833 14834 12923 12925 14835 
2027 2061 2028 1730 14836 14837 14611 14601 14834 14606 
1730 1763 2060 2061 12917 14828 14832 14834 14833 14838 
2027 2061 1730 2060 14836 14834 14601 14830 14838 14832 
2028 1730 2061 1731 14606 14834 14837 14608 12698 14839 
2061 1730 1764 1731 14834 12923 14835 14839 12698 12924 
1731 1764 2062 1765 12924 14840 14841 12930 12932 14842 
2028 2062 2029 1731 14843 14844 14618 14608 14841 14613 
1731 1764 2061 2062 12924 14835 14839 14841 14840 14845 
2028 2062 1731 2061 14843 14841 14608 14837 14845 14839 
2029 1731 2062 1732 14613 14841 14844 14615 12705 14846 
2062 1731 1765 1732 14841 12930 14842 14846 12705 12931 
1732 1765 2063 1766 12931 14847 14848 12937 12939 14849 
2029 2063 2030 1732 14850 14851 14625 14615 14848 14620 
1732 1765 2062 2063 12931 14842 14846 14848 14847 14852 
2029 2063 1732 2062 14850 14848 14615 14844 14852 14846 
2030 1732 2063 1733 14620 14848 14851 14622 12712 14853 
2063 1732 1766 1733 14848 12937 14849 14853 12712 12938 
1733 1766 2064 1767 12938 14854 14855 12944 12946 14856 
2030 2064 2031 1733 14857 14858 14632 14622 14855 14627 
1733 1766 2063 2064 12938 14849 14853 14855 14854 14859 
2030 2064 1733 2063 14857 14855 14622 14851 14859 14853 
2031 1733 2064 1734 14627 14855 14858 14629 12719 14860 
2064 1733 1767 1734 14855 12944 14856 14860 12719 12945 
1734 1767 2065 1768 12945 14861 14862 12951 12953 14863 
2031 2065 2032 1734 14864 14865 14639 14629 14862 14634 
1734 1767 2064 2065 12945 14856 14860 14862 14861 14866 
2031 2065 1734 2064 14864 14862 14629 14858 14866 14860 
2032 1734 2065 1735 14634 14862 14865 14636 12726 14867 
2065 1734 1768 1735 14862 12951 14863 14867 12726 12952 
1735 1768 2066 1769 12952 14868 14869 12958 12960 14870 
2032 2066 2033 1735 14871 14872 14646 14636 14869 14641 
1735 1768 2065 2066 12952 14863 14867 14869 14868 14873 
2032 2066 1735 2065 14871 14869 14636 14865 14873 14867 
2033 1735 2066 1736 14641 14869 14872 14643 12733 14874 
2066 1735 1769 1736 14869 12958 14870 14874 12733 12959 
1736 1769 2067 1770 12959 14875 14876 12965 12967 14877 
2033 2067 2034 1736 14878 14879 14653 14643 14876 14648 
1736 1769 2066 2067 12959 14870 14874 14876 14875 14880 
2033 2067 1736 2066 14878 14876 14643 14872 14880 14874 
2034 1736 2067 1737 14648 14876 14879 14650 12740 14881 
2067 1736 1770 1737 14876 12965 14877 14881 12740 12966 
1737 1770 2068 1771 12966 14882 14883 12972 12974 14884 
2034 2068 2035 1737 14885 14886 14660 14650 14883 14655 
1737 1770 2067 2068 12966 14877 14881 14883 14882 14887 
2034 2068 1737 2067 14885 14883 14650 14879 14887 14881 
2035 1737 2068 1738 14655 14883 14886 14657 12747 14888 
2068 1737 1771 1738 14883 12972 14884 14888 12747 12973 
1738 1771 2069 1772 12973 14889 14890 12979 12981 14891 
2035 2069 2036 1738 14892 14893 14667 14657 14890 14662 
1738 1771 2068 2069 12973 14884 14888 14890 14889 14894 
2035 2069 1738 2068 14892 14890 14657 14886 14894 14888 
2036 1738 2069 1739 14662 14890 14893 14664 12754 14895 
2069 1738 1772 1739 14890 12979 14891 14895 12754 12980 
1739 1772 2070 1773 12980 14896 14897 12986 12988 14898 
2036 2070 2037 1739 14899 14900 14674 14664 14897 14669 
1739 1772 2069 2070 12980 14891 14895 14897 14896 14901 
2036 2070 1739 2069 14899 14897 14664 14893 14901 14895 
2037 1739 2070 1740 14669 14897 14900 14671 12761 14902 
2070 1739 1773 1740 14897 12986 14898 14902 12761 12987 
1740 1773 2071 1774 12987 14903 14904 12993 12995 14905 
2037 2071 2038 1740 14906 14907 14681 14671 14904 14676 
1740 1773 2070 2071 12987 14898 14902 14904 14903 14908 
2037 2071 1740 2070 14906 14904 14671 14900 14908 14902 
2038 1740 2071 1741 14676 14904 14907 14678 12768 14909 
2071 1740 1774 1741 14904 12993 14905 14909 12768 12994 
1741 1774 2072 1775 12994 14910 14911 13000 13002 14912 
2038 2072 2039 1741 14913 14914 14688 14678 14911 14683 
1741 1774 2071 2072 12994 14905 14909 14911 14910 14915 
2038 2072 1741 2071 14913 14911 14678 14907 14915 14909 
2039 1741 2072 1742 14683 14911 14914 14685 12775 14916 
2072 1741 1775 1742 14911 13000 14912 14916 12775 13001 
1742 1775 2073 1776 13001 14917 14918 13007 13009 14919 
2039 2073 2040 1742 14920 14921 14695 14685 14918 14690 
1742 1775 2072 2073 13001 14912 14916 14918 14917 14922 
2039 2073 1742 2072 14920 14918 14685 14914 14922 14916 
2040 1742 2073 1743 14690 14918 14921 14692 12782 14923 
2073 1742 1776 1743 14918 13007 14919 14923 12782 13008 
1743 1776 2074 1777 13008 14924 14925 13014 13016 14926 
2040 2074 2041 1743 14927 14928 14702 14692 14925 14697 
1743 1776 2073 2074 13008 14919 14923 14925 14924 14929 
2040 2074 1743 2073 14927 14925 14692 14921 14929 14923 
2041 1743 2074 1744 14697 14925 14928 14699 12789 14930 
2074 1743 1777 1744 14925 13014 14926 14930 12789 13015 
1744 1777 2075 1778 13015 14931 14932 13021 13023 14933 
2041 2075 2042 1744 14934 14935 14709 14699 14932 14704 
1744 1777 2074 2075 13015 14926 14930 14932 14931 14936 
2041 2075 1744 2074 14934 14932 14699 14928 14936 14930 
2042 1744 2075 1745 14704 14932 14935 14706 12796 14937 
2075 1744 1778 1745 14932 13021 14933 14937 12796 13022 
1745 1778 2076 1779 13022 14938 14939 13028 13030 14940 
2042 2076 2043 1745 14941 14942 14716 14706 14939 14711 
1745 1778 2075 2076 13022 14933 14937 14939 14938 14943 
2042 2076 1745 2075 14941 14939 14706 14935 14943 14937 
2043 1745 2076 1746 14711 14939 14942 14713 12803 14944 
2076 1745 1779 1746 14939 13028 14940 14944 12803 13029 
1746 1779 2077 1780 13029 14945 14946 13035 13037 14947 
2043 2077 2044 1746 14948 14949 14723 14713 14946 14718 
1746 1779 2076 2077 13029 14940 14944 14946 14945 14950 
2043 2077 1746 2076 14948 14946 14713 14942 14950 14944 
2044 1746 2077 1747 14718 14946 14949 14720 12810 14951 
2077 1746 1780 1747 14946 13035 14947 14951 12810 13036 
1747 1780 2078 1781 13036 14952 14953 13042 13044 14954 
2044 2078 2045 1747 14955 14956 14730 14720 14953 14725 
1747 1780 2077 2078 13036 14947 14951 14953 14952 14957 
2044 2078 1747 2077 14955 14953 14720 14949 14957 14951 
2045 1747 2078 1748 14725 14953 14956 14727 12817 14958 
2078 1747 1781 1748 14953 13042 14954 14958 12817 13043 
1782 1815 2113 1816 13057 14959 14960 13049 13056 14961 
2079 2113 2080 1782 14962 14963 14964 14965 14960 14966 
1782 1815 2112 2113 13057 14967 14968 14960 14959 14969 
2079 2113 1782 2112 14962 14960 14965 14970 14969 14968 
2080 1782 2113 1783 14966 14960 14963 14971 13051 14972 
2113 1782 1816 1783 14960 13049 14961 14972 13051 13050 
1783 1816 2114 1817 13050 14973 14974 13063 13067 14975 
2080 2114 2081 1783 14976 14977 14978 14971 14974 14979 
1783 1816 2113 2114 13050 14961 14972 14974 14973 14980 
2080 2114 1783 2113 14976 14974 14971 14963 14980 14972 
2081 1783 2114 1784 14979 14974 14977 14981 13065 14982 
2114 1783 1817 1784 14974 13063 14975 14982 13065 13064 
1784 1817 2115 1818 13064 14983 14984 13073 13077 14985 
2081 2115 2082 1784 14986 14987 14988 14981 14984 14989 
1784 1817 2114 2115 13064 14975 14982 14984 14983 14990 
2081 2115 1784 2114 14986 14984 14981 14977 14990 14982 
2082 1784 2115 1785 14989 14984 14987 14991 13075 14992 
2115 1784 1818 1785 14984 13073 14985 14992 13075 13074 
1785 1818 2116 1819 13074 14993 14994 13083 13087 14995 
2082 2116 2083 1785 14996 14997 14998 14991 14994 14999 
1785 1818 2115 2116 13074 14985 14992 14994 14993 15000 
2082 2116 1785 2115 14996 14994 14991 14987 15000 14992 
2083 1785 2116 1786 14999 14994 14997 15001 13085 15002 
2116 1785 1819 1786 14994 13083 14995 15002 13085 13084 
1786 1819 2117 1820 13084 15003 15004 13093 13097 15005 
2083 2117 2084 1786 15006 15007 15008 15001 15004 15009 
1786 1819 2116 2117 13084 14995 15002 15004 15003 15010 
2083 2117 1786 2116 15006 15004 15001 14997 15010 15002 
2084 1786 2117 1787 15009 15004 15007 15011 13095 15012 
2117 1786 1820 1787 15004 13093 15005 15012 13095 13094 
1787 1820 2118 1821 13094 15013 15014 13103 13107 15015 
2084 2118 2085 1787 15016 15017 15018 15011 15014 15019 
1787 1820 2117 2118 13094 15005 15012 15014 15013 15020 
2084 2118 1787 2117 15016 15014 15011 15007 15020 15012 
2085 1787 2118 1788 15019 15014 15017 15021 13105 15022 
2118 1787 1821 1788 15014 13103 15015 15022 13105 13104 
1788 1821 2119 1822 13104 15023 15024 13113 13117 15025 
2085 2119 2086 1788 15026 15027 15028 15021 15024 15029 
1788 1821 2118 2119 13104 15015 15022 15024 15023 15030 
2085 2119 1788 2118 15026 15024 15021 15017 15030 15022 
2086 1788 2119 1789 15029 15024 15027 15031 13115 15032 
2119 1788 1822 1789 15024 13113 15025 15032 13115 13114 
1789 1822 2120 1823 13114 15033 15034 13123 13127 15035 
2086 2120 2087 1789 15036 15037 15038 15031 15034 15039 
1789 1822 2119 2120 13114 15025 15032 15034 15033 15040 
2086 2120 1789 2119 15036 15034 15031 15027 15040 15032 
2087 1789 2120 1790 15039 15034 15037 15041 13125 15042 
2120 1789 1823 1790 15034 13123 15035 15042 13125 13124 
1790 1823 2121 1824 13124 15043 15044 13133 13137 15045 
2087 2121 2088 1790 15046 15047 15048 15041 15044 15049 
1790 1823 2120 2121 13124 15035 15042 15044 15043 15050 
2087 2121 1790 2120 15046 15044 15041 15037 15050 15042 
2088 1790 2121 1791 15049 15044 15047 15051 13135 15052 
2121 1790 1824 1791 15044 13133 15045 15052 13135 13134 
1791 1824 2122 1825 13134 15053 15054 13143 13147 15055 
2088 2122 2089 1791 15056 15057 15058 15051 15054 15059 
1791 1824 2121 2122 13134 15045 15052 15054 15053 15060 
2088 2122 1791 2121 15056 15054 15051 15047 15060 15052 
2089 1791 2122 1792 15059 15054 15057 15061 13145 15062 
2122 1791 1825 1792 15054 13143 15055 15062 13145 13144 
1792 1825 2123 1826 13144 15063 15064 13153 13157 15065 
2089 2123 2090 1792 15066 15067 15068 15061 15064 15069 
1792 1825 2122 2123 13144 15055 15062 15064 15063 15070 
2089 2123 1792 2122 15066 15064 15061 15057 15070 15062 
2090 1792 2123 1793 15069 15064 15067 15071 13155 15072 
2123 1792 1826 1793 15064 13153 15065 15072 13155 13154 
1793 1826 2124 1827 13154 15073 15074 13163 13167 15075 
2090 2124 2091 1793 15076 15077 15078 15071 15074 15079 
1793 1826 2123 2124 13154 15065 15072 15074 15073 15080 
2090 2124 1793 2123 15076 15074 15071 15067 15080 15072 
2091 1793 2124 1794 15079 15074 15077 15081 13165 15082 
2124 1793 1827 1794 15074 13163 15075 15082 13165 13164 
1794 1827 2125 1828 13164 15083 15084 13173 13177 15085 
2091 2125 2092 1794 15086 15087 15088 15081 15084 15089 
1794 1827 2124 2125 13164 15075 15082 15084 15083 15090 
2091 2125 1794 2124 15086 15084 15081 15077 15090 15082 
2092 1794 2125 1795 15089 15084 15087 15091 13175 15092 
2125 1794 1828 1795 15084 13173 15085 15092 13175 13174 
1795 1828 2126 1829 13174 15093 15094 13183 13187 15095 
2092 2126 2093 1795 15096 15097 15098 15091 15094 15099 
1795 1828 2125 2126 13174 15085 15092 15094 15093 15100 
2092 2126 1795 2125 15096 15094 15091 15087 15100 15092 
2093 1795 2126 1796 15099 15094 15097 15101 13185 15102 
2126 1795 1829 1796 15094 13183 15095 15102 13185 13184 
1796 1829 2127 1830 13184 15103 15104 13193 13197 15105 
2093 2127 2094 1796 15106 15107 15108 15101 15104 15109 
1796 1829 2126 2127 13184 15095 15102 15104 15103 15110 
2093 2127 1796 2126 15106 15104 15101 15097 15110 15102 
2094 1796 2127 1797 15109 15104 15107 15111 13195 15112 
2127 1796 1830 1797 15104 13193 15105 15112 13195 13194 
1797 1830 2128 1831 13194 15113 15114 13203 13207 15115 
2094 2128 2095 1797 15116 15117 15118 15111 15114 15119 
1797 1830 2127 2128 13194 15105 15112 15114 15113 15120 
2094 2128 1797 2127 15116 15114 15111 15107 15120 15112 
2095 1797 2128 1798 15119 15114 15117 15121 13205 15122 
2128 1797 1831 1798 15114 13203 15115 15122 13205 13204 
1798 1831 2129 1832 13204 15123 15124 13213 13217 15125 
2095 2129 2096 1798 15126 15127 15128 15121 15124 15129 
1798 1831 2128 2129 13204 15115 15122 15124 15123 15130 
2095 2129 1798 2128 15126 15124 15121 15117 15130 15122 
2096 1798 2129 1799 15129 15124 15127 15131 13215 15132 
2129 1798 1832 1799 15124 13213 15125 15132 13215 13214 
1799 1832 2130 1833 13214 15133 15134 13223 13227 15135 
2096 2130 2097 1799 15136 15137 15138 15131 15134 15139 
1799 1832 2129 2130 13214 15125 15132 15134 15133 15140 
2096 2130 1799 2129 15136 15134 15131 15127 15140 15132 
2097 1799 2130 1800 15139 15134 15137 15141 13225 15142 
2130 1799 1833 1800 15134 13223 15135 15142 13225 13224 
1800 1833 2131 1834 13224 15143 15144 13233 13237 15145 
2097 2131 2098 1800 15146 15147 15148 15141 15144 15149 
1800 1833 2130 2131 13224 15135 15142 15144 15143 15150 
2097 2131 1800 2130 15146 15144 15141 15137 15150 15142 
2098 1800 2131 1801 15149 15144 15147 15151 13235 15152 
2131 1800 1834 1801 15144 13233 15145 15152 13235 13234 
1801 1834 2132 1835 13234 15153 15154 13243 13247 15155 
2098 2132 2099 1801 15156 15157 15158 15151 15154 15159 
1801 1834 2131 2132 13234 15145 15152 15154 15153 15160 
2098 2132 1801 2131 15156 15154 15151 15147 15160 15152 
2099 1801 2132 1802 15159 15154 15157 15161 13245 15162 
2132 1801 1835 1802 15154 13243 15155 15162 13245 13244 
1802 1835 2133 1836 13244 15163 15164 13253 13257 15165 
2099 2133 2100 1802 15166 15167 15168 15161 15164 15169 
1802 1835 2132 2133 13244 15155 15162 15164 15163 15170 
2099 2133 1802 2132 15166 15164 15161 15157 15170 15162 
2100 1802 2133 1803 15169 15164 15167 15171 13255 15172 
2133 1802 1836 1803 15164 13253 15165 15172 13255 13254 
1803 1836 2134 1837 13254 15173 15174 13263 13267 15175 
2100 2134 2101 1803 15176 15177 15178 15171 15174 15179 
1803 1836 2133 2134 13254 15165 15172 15174 15173 15180 
2100 2134 1803 2133 15176 15174 15171 15167 15180 15172 
2101 1803 2134 1804 15179 15174 15177 15181 13265 15182 
2134 1803 1837 1804 15174 13263 15175 15182 13265 13264 
1804 1837 2135 1838 13264 15183 15184 13273 13277 15185 
2101 2135 2102 1804 15186 15187 15188 15181 15184 15189 
1804 1837 2134 2135 13264 15175 15182 15184 15183 15190 
2101 2135 1804 2134 15186 15184 15181 15177 15190 15182 
2102 1804 2135 1805 15189 15184 15187 15191 13275 15192 
2135 1804 1838 1805 15184 13273 15185 15192 13275 13274 
1805 1838 2136 1839 13274 15193 15194 13283 13287 15195 
2102 2136 2103 1805 15196 15197 15198 15191 15194 15199 
1805 1838 2135 2136 13274 15185 15192 15194 15193 15200 
2102 2136 1805 2135 15196 15194 15191 15187 15200 15192 
2103 1805 2136 1806 15199 15194 15197 15201 13285 15202 
2136 1805 1839 1806 15194 13283 15195 15202 13285 13284 
1806 1839 2137 1840 13284 15203 15204 13293 13297 15205 
2103 2137 2104 1806 15206 15207 15208 15201 15204 15209 
1806 1839 2136 2137 13284 15195 15202 15204 15203 15210 
2103 2137 1806 2136 15206 15204 15201 15197 15210 15202 
2104 1806 2137 1807 15209 15204 15207 15211 13295 15212 
2137 1806 1840 1807 15204 13293 15205 15212 13295 13294 
1807 1840 2138 1841 13294 15213 15214 13303 13307 15215 
2104 2138 2105 1807 15216 15217 15218 15211 15214 15219 
1807 1840 2137 2138 13294 15205 15212 15214 15213 15220 
2104 2138 1807 2137 15216 15214 15211 15207 15220 15212 
2105 1807 2138 1808 15219 15214 15217 15221 13305 15222 
2138 1807 1841 1808 15214 13303 15215 15222 13305 13304 
1808 1841 2139 1842 13304 15223 15224 13313 13317 15225 
2105 2139 2106 1808 15226 15227 15228 15221 15224 15229 
1808 1841 2138 2139 13304 15215 15222 15224 15223 15230 
2105 2139 1808 2138 15226 15224 15221 15217 15230 15222 
2106 1808 2139 1809 15229 15224 15227 15231 13315 15232 
2139 1808 1842 1809 15224 13313 15225 15232 13315 13314 
1809 1842 2140 1843 13314 15233 15234 13323 13327 15235 
2106 2140 2107 1809 15236 15237 15238 15231 15234 15239 
1809 1842 2139 2140 13314 15225 15232 15234 15233 15240 
2106 2140 1809 2139 15236 15234 15231 15227 15240 15232 
2107 1809 2140 1810 15239 15234 15237 15241 13325 15242 
2140 1809 1843 1810 15234 13323 15235 15242 13325 13324 
1810 1843 2141 1844 13324 15243 15244 13333 13337 15245 
2107 2141 2108 1810 15246 15247 15248 15241 15244 15249 
1810 1843 2140 2141 13324 15235 15242 15244 15243 15250 
2107 2141 1810 2140 15246 15244 15241 15237 15250 15242 
2108 1810 2141 1811 15249 15244 15247 15251 13335 15252 
2141 1810 1844 1811 15244 13333 15245 15252 13335 13334 
1811 1844 2142 1845 13334 15253 15254 13343 13347 15255 
2108 2142 2109 1811 15256 15257 15258 15251 15254 15259 
1811 1844 2141 2142 13334 15245 15252 15254 15253 15260 
2108 2142 1811 2141 15256 15254 15251 15247 15260 15252 
2109 1811 2142 1812 15259 15254 15257 15261 13345 15262 
2142 1811 1845 1812 15254 13343 15255 15262 13345 13344 
1812 1845 2143 1846 13344 15263 15264 13353 13357 15265 
2109 2143 2110 1812 15266 15267 15268 15261 15264 15269 
1812 1845 2142 2143 13344 15255 15262 15264 15263 15270 
2109 2143 1812 2142 15266 15264 15261 15257 15270 15262 
2110 1812 2143 1813 15269 15264 15267 15271 13355 15272 
2143 1812 1846 1813 15264 13353 15265 15272 13355 13354 
1813 1846 2144 1847 13354 15273 15274 13363 13367 15275 
2110 2144 2111 1813 15276 15277 15278 15271 15274 15279 
1813 1846 2143 2144 13354 15265 15272 15274 15273 15280 
2110 2144 1813 2143 15276 15274 15271 15267 15280 15272 
2111 1813 2144 1814 15279 15274 15277 15281 13365 15282 
2144 1813 1847 1814 15274 13363 15275 15282 13365 13364 
1815 1848 2146 1849 13378 15283 15284 13373 13377 15285 
2112 2146 2113 1815 15286 15287 14969 14967 15284 14959 
1815 1848 2145 2146 13378 15288 15289 15284 15283 15290 
2112 2146 1815 2145 15286 15284 14967 15291 15290 15289 
2113 1815 2146 1816 14959 15284 15287 14961 13056 15292 
2146 1815 1849 1816 15284 13373 15285 15292 13056 13374 
1816 1849 2147 1850 13374 15293 15294 13383 13385 15295 
2113 2147 2114 1816 15296 15297 14980 14961 15294 14973 
1816 1849 2146 2147 13374 15285 15292 15294 15293 15298 
2113 2147 1816 2146 15296 15294 14961 15287 15298 15292 
2114 1816 2147 1817 14973 15294 15297 14975 13067 15299 
2147 1816 1850 1817 15294 13383 15295 15299 13067 13384 
1817 1850 2148 1851 13384 15300 15301 13390 13392 15302 
2114 2148 2115 1817 15303 15304 14990 14975 15301 14983 
1817 1850 2147 2148 13384 15295 15299 15301 15300 15305 
2114 2148 1817 2147 15303 15301 14975 15297 15305 15299 
2115 1817 2148 1818 14983 15301 15304 14985 13077 15306 
2148 1817 1851 1818 15301 13390 15302 15306 13077 13391 
1818 1851 2149 1852 13391 15307 15308 13397 13399 15309 
2115 2149 2116 1818 15310 15311 15000 14985 15308 14993 
1818 1851 2148 2149 13391 15302 15306 15308 15307 15312 
2115 2149 1818 2148 15310 15308 14985 15304 15312 15306 
2116 1818 2149 1819 14993 15308 15311 14995 13087 15313 
2149 1818 1852 1819 15308 13397 15309 15313 13087 13398 
1819 1852 2150 1853 13398 15314 15315 13404 13406 15316 
2116 2150 2117 1819 15317 15318 15010 14995 15315 15003 
1819 1852 2149 2150 13398 15309 15313 15315 15314 15319 
2116 2150 1819 2149 15317 15315 14995 15311 15319 15313 
2117 1819 2150 1820 15003 15315 15318 15005 13097 15320 
2150 1819 1853 1820 15315 13404 15316 15320 13097 13405 
1820 1853 2151 1854 13405 15321 15322 13411 13413 15323 
2117 2151 2118 1820 15324 15325 15020 15005 15322 15013 
1820 1853 2150 2151 13405 15316 15320 15322 15321 15326 
2117 2151 1820 2150 15324 15322 15005 15318 15326 15320 
2118 1820 2151 1821 15013 15322 15325 15015 13107 15327 
2151 1820 1854 1821 15322 13411 15323 15327 13107 13412 
1821 1854 2152 1855 13412 15328 15329 13418 13420 15330 
2118 2152 2119 1821 15331 15332 15030 15015 15329 15023 
1821 1854 2151 2152 13412 15323 15327 15329 15328 15333 
2118 2152 1821 2151 15331 15329 15015 15325 15333 15327 
2119 1821 2152 1822 15023 15329 15332 15025 13117 15334 
2152 1821 1855 1822 15329 13418 15330 15334 13117 13419 
1822 1855 2153 1856 13419 15335 15336 13425 13427 15337 
2119 2153 2120 1822 15338 15339 15040 15025 15336 15033 
1822 1855 2152 2153 13419 15330 15334 15336 15335 15340 
2119 2153 1822 2152 15338 15336 15025 15332 15340 15334 
2120 1822 2153 1823 15033 15336 15339 15035 13127 15341 
2153 1822 1856 1823 15336 13425 15337 15341 13127 13426 
1823 1856 2154 1857 13426 15342 15343 13432 13434 15344 
2120 2154 2121 1823 15345 15346 15050 15035 15343 15043 
1823 1856 2153 2154 13426 15337 15341 15343 15342 15347 
2120 2154 1823 2153 15345 15343 15035 15339 15347 15341 
2121 1823 2154 1824 15043 15343 15346 15045 13137 15348 
2154 1823 1857 1824 15343 13432 15344 15348 13137 13433 
1824 1857 2155 1858 13433 15349 15350 13439 13441 15351 
2121 2155 2122 1824 15352 15353 15060 15045 15350 15053 
1824 1857 2154 2155 13433 15344 15348 15350 15349 15354 
2121 2155 1824 2154 15352 15350 15045 15346 15354 15348 
2122 1824 2155 1825 15053 15350 15353 15055 13147 15355 
2155 1824 1858 1825 15350 13439 15351 15355 13147 13440 
1825 1858 2156 1859 13440 15356 15357 13446 13448 15358 
2122 2156 2123 1825 15359 15360 15070 15055 15357 15063 
1825 1858 2155 2156 13440 15351 15355 15357 15356 15361 
2122 2156 1825 2155 15359 15357 15055 15353 15361 15355 
2123 1825 2156 1826 15063 15357 15360 15065 13157 15362 
2156 1825 1859 1826 15357 13446 15358 15362 13157 13447 
1826 1859 2157 1860 13447 15363 15364 13453 13455 15365 
2123 2157 2124 1826 15366 15367 15080 15065 15364 15073 
1826 1859 2156 2157 13447 15358 15362 15364 15363 15368 
2123 2157 1826 2156 15366 15364 15065 15360 15368 15362 
2124 1826 2157 1827 15073 15364 15367 15075 13167 15369 
2157 1826 1860 1827 15364 13453 15365 15369 13167 13454 
1827 1860 2158 1861 13454 15370 15371 13460 13462 15372 
2124 2158 2125 1827 15373 15374 15090 15075 15371 15083 
1827 1860 2157 2158 13454 15365 15369 15371 15370 15375 
2124 2158 1827 2157 15373 15371 15075 15367 15375 15369 
2125 1827 2158 1828 15083 15371 15374 15085 13177 15376 
2158 1827 1861 1828 15371 13460 15372 15376 13177 13461 
1828 1861 2159 1862 13461 15377 15378 13467 13469 15379 
2125 2159 2126 1828 15380 15381 15100 15085 15378 15093 
1828 1861 2158 2159 13461 15372 15376 15378 15377 15382 
2125 2159 1828 2158 15380 15378 15085 15374 15382 15376 
2126 1828 2159 1829 15093 15378 15381 15095 13187 15383 
2159 1828 1862 1829 15378 13467 15379 15383 13187 13468 
1829 1862 2160 1863 13468 15384 15385 13474 13476 15386 
2126 2160 2127 1829 15387 15388 15110 15095 15385 15103 
1829 1862 2159 2160 13468 15379 15383 15385 15384 15389 
2126 2160 1829 2159 15387 15385 15095 15381 15389 15383 
2127 1829 2160 1830 15103 15385 15388 15105 13197 15390 
2160 1829 1863 1830 15385 13474 15386 15390 13197 13475 
1830 1863 2161 1864 13475 15391 15392 13481 13483 15393 
2127 2161 2128 1830 15394 15395 15120 15105 15392 15113 
1830 1863 2160 2161 13475 15386 15390 15392 15391 15396 
2127 2161 1830 2160 15394 15392 15105 15388 15396 15390 
2128 1830 2161 1831 15113 15392 15395 15115 13207 15397 
2161 1830 1864 1831 15392 13481 15393 15397 13207 13482 
1831 1864 2162 1865 13482 15398 15399 13488 13490 15400 
2128 2162 2129 1831 15401 15402 15130 15115 15399 15123 
1831 1864 2161 2162 13482 15393 15397 15399 15398 15403 
2128 2162 1831 2161 15401 15399 15115 15395 15403 15397 
2129 1831 2162 1832 15123 15399 15402 15125 13217 15404 
2162 1831 1865 1832 15399 13488 15400 15404 13217 13489 
1832 1865 2163 1866 13489 15405 15406 13495 13497 15407 
2129 2163 2130 1832 15408 15409 15140 15125 15406 15133 
1832 1865 2162 2163 13489 15400 15404 15406 15405 15410 
2129 2163 1832 2162 15408 15406 15125 15402 15410 15404 
2130 1832 2163 1833 15133 15406 15409 15135 13227 15411 
2163 1832 1866 1833 15406 13495 15407 15411 13227 13496 
1833 1866 2164 1867 13496 15412 15413 13502 13504 15414 
2130 2164 2131 1833 15415 15416 15150 15135 15413 15143 
1833 1866 2163 2164 13496 15407 15411 15413 15412 15417 
2130 2164 1833 2163 15415 15413 15135 15409 15417 15411 
2131 1833 2164 1834 15143 15413 15416 15145 13237 15418 
2164 1833 1867 1834 15413 13502 15414 15418 13237 13503 
1834 1867 2165 1868 13503 15419 15420 13509 13511 15421 
2131 2165 2132 1834 15422 15423 15160 15145 15420 15153 
1834 1867 2164 2165 13503 15414 15418 15420 15419 15424 
2131 2165 1834 2164 15422 15420 15145 15416 15424 15418 
2132 1834 2165 1835 15153 15420 15423 15155 13247 15425 
2165 1834 1868 1835 15420 13509 15421 15425 13247 13510 
1835 1868 2166 1869 13510 15426 15427 13516 13518 15428 
2132 2166 2133 1835 15429 15430 15170 15155 15427 15163 
1835 1868 2165 2166 13510 15421 15425 15427 15426 15431 
2132 2166 1835 2165 15429 15427 15155 15423 15431 15425 
2133 1835 2166 1836 15163 15427 15430 15165 13257 15432 
2166 1835 1869 1836 15427 13516 15428 15432 13257 13517 
1836 1869 2167 1870 13517 15433 15434 13523 13525 15435 
2133 2167 2134 1836 15436 15437 15180 15165 15434 15173 
1836 1869 2166 2167 13517 15428 15432 15434 15433 15438 
2133 2167 1836 2166 15436 15434 15165 15430 15438 15432 
2134 1836 2167 1837 15173 15434 15437 15175 13267 15439 
2167 1836 1870 1837 15434 13523 15435 15439 13267 13524 
1837 1870 2168 1871 13524 15440 15441 13530 13532 15442 
2134 2168 2135 1837 15443 15444 15190 15175 15441 15183 
1837 1870 2167 2168 13524 15435 15439 15441 15440 15445 
2134 2168 1837 2167 15443 15441 15175 15437 15445 15439 
2135 1837 2168 1838 15183 15441 15444 15185 13277 15446 
2168 1837 1871 1838 15441 13530 15442 15446 13277 13531 
1838 1871 2169 1872 13531 15447 15448 13537 13539 15449 
2135 2169 2136 1838 15450 15451 15200 15185 15448 15193 
1838 1871 2168 2169 13531 15442 15446 15448 15447 15452 
2135 2169 1838 2168 15450 15448 15185 15444 15452 15446 
2136 1838 2169 1839 15193 15448 15451 15195 13287 15453 
2169 1838 1872 1839 15448 13537 15449 15453 13287 13538 
1839 1872 2170 1873 13538 15454 15455 13544 13546 15456 
2136 2170 2137 1839 15457 15458 15210 15195 15455 15203 
1839 1872 2169 2170 13538 15449 15453 15455 15454 15459 
2136 2170 1839 2169 15457 15455 15195 15451 15459 15453 
2137 1839 2170 1840 15203 15455 15458 15205 13297 15460 
2170 1839 1873 1840 15455 13544 15456 15460 13297 13545 
1840 1873 2171 1874 13545 15461 15462 13551 13553 15463 
2137 2171 2138 1840 15464 15465 15220 15205 15462 15213 
1840 1873 2170 2171 13545 15456 15460 15462 15461 15466 
2137 2171 1840 2170 15464 15462 15205 15458 15466 15460 
2138 1840 2171 1841 15213 15462 15465 15215 13307 15467 
2171 1840 1874 1841 15462 13551 15463 15467 13307 13552 
1841 1874 2172 1875 13552 15468 15469 13558 13560 15470 
2138 2172 2139 1841 15471 15472 15230 15215 15469 15223 
1841 1874 2171 2172 13552 15463 15467 15469 15468 15473 
2138 2172 1841 2171 15471 15469 15215 15465 15473 15467 
2139 1841 2172 1842 15223 15469 15472 15225 13317 15474 
2172 1841 1875 1842 15469 13558 15470 15474 13317 13559 
1842 1875 2173 1876 13559 15475 15476 13565 13567 15477 
2139 2173 2140 1842 15478 15479 15240 15225 15476 15233 
1842 1875 2172 2173 13559 15470 15474 15476 15475 15480 
2139 2173 1842 2172 15478 15476 15225 15472 15480 15474 
2140 1842 2173 1843 15233 15476 15479 15235 13327 15481 
2173 1842 1876 1843 15476 13565 15477 15481 13327 13566 
1843 1876 2174 1877 13566 15482 15483 13572 13574 15484 
2140 2174 2141 1843 15485 15486 15250 15235 15483 15243 
1843 1876 2173 2174 13566 15477 15481 15483 15482 15487 
2140 2174 1843 2173 15485 15483 15235 15479 15487 15481 
2141 1843 2174 1844 15243 15483 15486 15245 13337 15488 
2174 1843 1877 1844 15483 13572 15484 15488 13337 13573 
1844 1877 2175 1878 13573 15489 15490 13579 13581 15491 
2141 2175 2142 1844 15492 15493 15260 15245 15490 15253 
1844 1877 2174 2175 13573 15484 15488 15490 15489 15494 
2141 2175 1844 2174 15492 15490 15245 15486 15494 15488 
2142 1844 2175 1845 15253 15490 15493 15255 13347 15495 
2175 1844 1878 1845 15490 13579 15491 15495 13347 13580 
1845 1878 2176 1879 13580 15496 15497 13586 13588 15498 
2142 2176 2143 1845 15499 15500 15270 15255 15497 15263 
1845 1878 2175 2176 13580 15491 15495 15497 15496 15501 
2142 2176 1845 2175 15499 15497 15255 15493 15501 15495 
2143 1845 2176 1846 15263 15497 15500 15265 13357 15502 
2176 1845 1879 1846 15497 13586 15498 15502 13357 13587 
1846 1879 2177 1880 13587 15503 15504 13593 13595 15505 
2143 2177 2144 1846 15506 15507 15280 15265 15504 15273 
1846 1879 2176 2177 13587 15498 15502 15504 15503 15508 
2143 2177 1846 2176 15506 15504 15265 15500 15508 15502 
2144 1846 2177 1847 15273 15504 15507 15275 13367 15509 
2177 1846 1880 1847 15504 13593 15505 15509 13367 13594 
1848 1881 2179 1882 13605 15510 15511 13600 13604 15512 
2145 2179 2146 1848 15513 15514 15290 15288 15511 15283 
1848 1881 2178 2179 13605 15515 15516 15511 15510 15517 
2145 2179 1848 2178 15513 15511 15288 15518 15517 15516 
2146 1848 2179 1849 15283 15511 15514 15285 13377 15519 
2179 1848 1882 1849 15511 13600 15512 15519 13377 13601 
1849 1882 2180 1883 13601 15520 15521 13610 13612 15522 
2146 2180 2147 1849 15523 15524 15298 15285 15521 15293 
1849 1882 2179 2180 13601 15512 15519 15521 15520 15525 
2146 2180 1849 2179 15523 15521 15285 15514 15525 15519 
2147 1849 2180 1850 15293 15521 15524 15295 13385 15526 
2180 1849 1883 1850 15521 13610 15522 15526 13385 13611 
1850 1883 2181 1884 13611 15527 15528 13617 13619 15529 
2147 2181 2148 1850 15530 15531 15305 15295 15528 15300 
1850 1883 2180 2181 13611 15522 15526 15528 15527 15532 
2147 2181 1850 2180 15530 15528 15295 15524 15532 15526 
2148 1850 2181 1851 15300 15528 15531 15302 13392 15533 
2181 1850 1884 1851 15528 13617 15529 15533 13392 13618 
1851 1884 2182 1885 13618 15534 15535 13624 13626 15536 
2148 2182 2149 1851 15537 15538 15312 15302 15535 15307 
1851 1884 2181 2182 13618 15529 15533 15535 15534 15539 
2148 2182 1851 2181 15537 15535 15302 15531 15539 15533 
2149 1851 2182 1852 15307 15535 15538 15309 13399 15540 
2182 1851 1885 1852 15535 13624 15536 15540 13399 13625 
1852 1885 2183 1886 13625 15541 15542 13631 13633 15543 
2149 2183 2150 1852 15544 15545 15319 15309 15542 15314 
1852 1885 2182 2183 13625 15536 15540 15542 15541 15546 
2149 2183 1852 2182 15544 15542 15309 15538 15546 15540 
2150 1852 2183 1853 15314 15542 15545 15316 13406 15547 
2183 1852 1886 1853 15542 13631 15543 15547 13406 13632 
1853 1886 2184 1887 13632 15548 15549 13638 13640 15550 
2150 2184 2151 1853 15551 15552 15326 15316 15549 15321 
1853 1886 2183 2184 13632 15543 15547 15549 15548 15553 
2150 2184 1853 2183 15551 15549 15316 15545 15553 15547 
2151 1853 2184 1854 15321 15549 15552 15323 13413 15554 
2184 1853 1887 1854 15549 13638 15550 15554 13413 13639 
1854 1887 2185 1888 13639 15555 15556 13645 13647 15557 
2151 2185 2152 1854 15558 15559 15333 15323 15556 15328 
1854 1887 2184 2185 13639 15550 15554 15556 15555 15560 
2151 2185 1854 2184 15558 15556 15323 15552 15560 15554 
2152 1854 2185 1855 15328 15556 15559 15330 13420 15561 
2185 1854 1888 1855 15556 13645 15557 15561 13420 13646 
1855 1888 2186 1889 13646 15562 15563 13652 13654 15564 
2152 2186 2153 1855 15565 15566 15340 15330 15563 15335 
1855 1888 2185 2186 13646 15557 15561 15563 15562 15567 
2152 2186 1855 2185 15565 15563 15330 15559 15567 15561 
2153 1855 2186 1856 15335 15563 15566 15337 13427 15568 
2186 1855 1889 1856 15563 13652 15564 15568 13427 13653 
1856 1889 2187 1890 13653 15569 15570 13659 13661 15571 
2153 2187 2154 1856 15572 15573 15347 15337 15570 15342 
1856 1889 2186 2187 13653 15564 15568 15570 15569 15574 
2153 2187 1856 2186 15572 15570 15337 15566 15574 15568 
2154 1856 2187 1857 15342 15570 15573 15344 13434 15575 
2187 1856 1890 1857 15570 13659 15571 15575 13434 13660 
1857 1890 2188 1891 13660 15576 15577 13666 13668 15578 
2154 2188 2155 1857 15579 15580 15354 15344 15577 15349 
1857 1890 2187 2188 13660 15571 15575 15577 15576 15581 
2154 2188 1857 2187 15579 15577 15344 15573 15581 15575 
2155 1857 2188 1858 15349 15577 15580 15351 13441 15582 
2188 1857 1891 1858 15577 13666 15578 15582 13441 13667 
1858 1891 2189 1892 13667 15583 15584 13673 13675 15585 
2155 2189 2156 1858 15586 15587 15361 15351 15584 15356 
1858 1891 2188 2189 13667 15578 15582 15584 15583 15588 
2155 2189 1858 2188 15586 15584 15351 15580 15588 15582 
2156 1858 2189 1859 15356 15584 15587 15358 13448 15589 
2189 1858 1892 1859 15584 13673 15585 15589 13448 13674 
1859 1892 2190 1893 13674 15590 15591 13680 13682 15592 
2156 2190 2157 1859 15593 15594 15368 15358 15591 15363 
1859 1892 2189 2190 13674 15585 15589 15591 15590 15595 
2156 2190 1859 2189 15593 15591 15358 15587 15595 15589 
2157 1859 2190 1860 15363 15591 15594 15365 13455 15596 
2190 1859 1893 1860 15591 13680 15592 15596 13455 13681 
1860 1893 2191 1894 13681 15597 15598 13687 13689 15599 
2157 2191 2158 1860 15600 15601 15375 15365 15598 15370 
1860 1893 2190 2191 13681 15592 15596 15598 15597 15602 
2157 2191 1860 2190 15600 15598 15365 15594 15602 15596 
2158 1860 2191 1861 15370 15598 15601 15372 13462 15603 
2191 1860 1894 1861 15598 13687 15599 15603 13462 13688 
1861 1894 2192 1895 13688 15604 15605 13694 13696 15606 
2158 2192 2159 1861 15607 15608 15382 15372 15605 15377 
1861 1894 2191 2192 13688 15599 15603 15605 15604 15609 
2158 2192 1861 2191 15607 15605 15372 15601 15609 15603 
2159 1861 2192 1862 15377 15605 15608 15379 13469 15610 
2192 1861 1895 1862 15605 13694 15606 15610 13469 13695 
1862 1895 2193 1896 13695 15611 15612 13701 13703 15613 
2159 2193 2160 1862 15614 15615 15389 15379 15612 15384 
1862 1895 2192 2193 13695 15606 15610 15612 15611 15616 
2159 2193 1862 2192 15614 15612 15379 15608 15616 15610 
2160 1862 2193 1863 15384 15612 15615 15386 13476 15617 
2193 1862 1896 1863 15612 13701 15613 15617 13476 13702 
1863 1896 2194 1897 13702 15618 15619 13708 13710 15620 
2160 2194 2161 1863 15621 15622 15396 15386 15619 15391 
1863 1896 2193 2194 13702 15613 15617 15619 15618 15623 
2160 2194 1863 2193 15621 15619 15386 15615 15623 15617 
2161 1863 2194 1864 15391 15619 15622 15393 13483 15624 
2194 1863 1897 1864 15619 13708 15620 15624 13483 13709 
1864 1897 2195 1898 13709 15625 15626 13715 13717 15627 
2161 2195 2162 1864 15628 15629 15403 15393 15626 15398 
1864 1897 2194 2195 13709 15620 15624 15626 15625 15630 
2161 2195 1864 2194 15628 15626 15393 15622 15630 15624 
2162 1864 2195 1865 15398 15626 15629 15400 13490 15631 
2195 1864 1898 1865 15626 13715 15627 15631 13490 13716 
1865 1898 2196 1899 13716 15632 15633 13722 13724 15634 
2162 2196 2163 1865 15635 15636 15410 15400 15633 15405 
1865 1898 2195 2196 13716 15627 15631 15633 15632 15637 
2162 2196 1865 2195 15635 15633 15400 15629 15637 15631 
2163 1865 2196 1866 15405 15633 15636 15407 13497 15638 
2196 1865 1899 1866 15633 13722 15634 15638 13497 13723 
1866 1899 2197 1900 13723 15639 15640 13729 13731 15641 
2163 2197 2164 1866 15642 15643 15417 15407 15640 15412 
1866 1899 2196 2197 13723 15634 15638 15640 15639 15644 
2163 2197 1866 2196 15642 15640 15407 15636 15644 15638 
2164 1866 2197 1867 15412 15640 15643 15414 13504 15645 
2197 1866 1900 1867 15640 13729 15641 15645 13504 13730 
1867 1900 2198 1901 13730 15646 15647 13736 13738 15648 
2164 2198 2165 1867 15649 15650 15424 15414 15647 15419 
1867 1900 2197 2198 13730 15641 15645 15647 15646 15651 
2164 2198 1867 2197 15649 15647 15414 15643 15651 15645 
2165 1867 2198 1868 15419 15647 15650 15421 13511 15652 
2198 1867 1901 1868 15647 13736 15648 15652 13511 13737 
1868 1901 2199 1902 13737 15653 15654 13743 13745 15655 
2165 2199 2166 1868 15656 15657 15431 15421 15654 15426 
1868 1901 2198 2199 13737 15648 15652 15654 15653 15658 
2165 2199 1868 2198 15656 15654 15421 15650 15658 15652 
2166 1868 2199 1869 15426 15654 15657 15428 13518 15659 
2199 1868 1902 1869 15654 13743 15655 15659 13518 13744 
1869 1902 2200 1903 13744 15660 15661 13750 13752 15662 
2166 2200 2167 1869 15663 15664 15438 15428 15661 15433 
1869 1902 2199 2200 13744 15655 15659 15661 15660 15665 
2166 2200 1869 2199 15663 15661 15428 15657 15665 15659 
2167 1869 2200 1870 15433 15661 15664 15435 13525 15666 
2200 1869 1903 1870 15661 13750 15662 15666 13525 13751 
1870 1903 2201 1904 13751 15667 15668 13757 13759 15669 
2167 2201 2168 1870 15670 15671 15445 15435 15668 15440 
1870 1903 2200 2201 13751 15662 15666 15668 15667 15672 
2167 2201 1870 2200 15670 15668 15435 15664 15672 15666 
2168 1870 2201 1871 15440 15668 15671 15442 13532 15673 
2201 1870 1904 1871 15668 13757 15669 15673 13532 13758 
1871 1904 2202 1905 13758 15674 15675 13764 13766 15676 
2168 2202 2169 1871 15677 15678 15452 15442 15675 15447 
1871 1904 2201 2202 13758 15669 15673 15675 15674 15679 
2168 2202 1871 2201 15677 15675 15442 15671 15679 15673 
2169 1871 2202 1872 15447 15675 15678 15449 13539 15680 
2202 1871 1905 1872 15675 13764 15676 15680 13539 13765 
1872 1905 2203 1906 13765 15681 15682 13771 13773 15683 
2169 2203 2170 1872 15684 15685 15459 15449 15682 15454 
1872 1905 2202 2203 13765 15676 15680 15682 15681 15686 
2169 2203 1872 2202 15684 15682 15449 15678 15686 15680 
2170 1872 2203 1873 15454 15682 15685 15456 13546 15687 
2203 1872 1906 1873 15682 13771 15683 15687 13546 13772 
1873 1906 2204 1907 13772 15688 15689 13778 13780 15690 
2170 2204 2171 1873 15691 15692 15466 15456 15689 15461 
1873 1906 2203 2204 13772 15683 15687 15689 15688 15693 
2170 2204 1873 2203 15691 15689 15456 15685 15693 15687 
2171 1873 2204 1874 15461 15689 15692 15463 13553 15694 
2204 1873 1907 1874 15689 13778 15690 15694 13553 13779 
1874 1907 2205 1908 13779 15695 15696 13785 13787 15697 
2171 2205 2172 1874 15698 15699 15473 15463 15696 15468 
1874 1907 2204 2205 13779 15690 15694 15696 15695 15700 
2171 2205 1874 2204 15698 15696 15463 15692 15700 15694 
2172 1874 2205 1875 15468 15696 15699 15470 13560 15701 
2205 1874 1908 1875 15696 13785 15697 15701 13560 13786 
1875 1908 2206 1909 13786 15702 15703 13792 13794 15704 
2172 2206 2173 1875 15705 15706 15480 15470 15703 15475 
1875 1908 2205 2206 13786 15697 15701 15703 15702 15707 
2172 2206 1875 2205 15705 15703 15470 15699 15707 15701 
2173 1875 2206 1876 15475 15703 15706 15477 13567 15708 
2206 1875 1909 1876 15703 13792 15704 15708 13567 13793 
1876 1909 2207 1910 13793 15709 15710 13799 13801 15711 
2173 2207 2174 1876 15712 15713 15487 15477 15710 15482 
1876 1909 2206 2207 13793 15704 15708 15710 15709 15714 
2173 2207 1876 2206 15712 15710 15477 15706 15714 15708 
2174 1876 2207 1877 15482 15710 15713 15484 13574 15715 
2207 1876 1910 1877 15710 13799 15711 15715 13574 13800 
1877 1910 2208 1911 13800 15716 15717 13806 13808 15718 
2174 2208 2175 1877 15719 15720 15494 15484 15717 15489 
1877 1910 2207 2208 13800 15711 15715 15717 15716 15721 
2174 2208 1877 2207 15719 15717 15484 15713 15721 15715 
2175 1877 2208 1878 15489 15717 15720 15491 13581 15722 
2208 1877 1911 1878 15717 13806 15718 15722 13581 13807 
1878 1911 2209 1912 13807 15723 15724 13813 13815 15725 
2175 2209 2176 1878 15726 15727 15501 15491 15724 15496 
1878 1911 2208 2209 13807 15718 15722 15724 15723 15728 
2175 2209 1878 2208 15726 15724 15491 15720 15728 15722 
2176 1878 2209 1879 15496 15724 15727 15498 13588 15729 
2209 1878 1912 1879 15724 13813 15725 15729 13588 13814 
1879 1912 2210 1913 13814 15730 15731 13820 13822 15732 
2176 2210 2177 1879 15733 15734 15508 15498 15731 15503 
1879 1912 2209 2210 13814 15725 15729 15731 15730 15735 
2176 2210 1879 2209 15733 15731 15498 15727 15735 15729 
2177 1879 2210 1880 15503 15731 15734 15505 13595 15736 
2210 1879 1913 1880 15731 13820 15732 15736 13595 13821 
1881 1914 2212 1915 13832 15737 15738 13827 13831 15739 
2178 2212 2179 1881 15740 15741 15517 15515 15738 15510 
1881 1914 2211 2212 13832 15742 15743 15738 15737 15744 
2178 2212 1881 2211 15740 15738 15515 15745 15744 15743 
2179 1881 2212 1882 15510 15738 15741 15512 13604 15746 
2212 1881 1915 1882 15738 13827 15739 15746 13604 13828 
1882 1915 2213 1916 13828 15747 15748 13837 13839 15749 
2179 2213 2180 1882 15750 15751 15525 15512 15748 15520 
1882 1915 2212 2213 13828 15739 15746 15748 15747 15752 
2179 2213 1882 2212 15750 15748 15512 15741 15752 15746 
2180 1882 2213 1883 15520 15748 15751 15522 13612 15753 
2213 1882 1916 1883 15748 13837 15749 15753 13612 13838 
1883 1916 2214 1917 13838 15754 15755 13844 13846 15756 
2180 2214 2181 1883 15757 15758 15532 15522 15755 15527 
1883 1916 2213 2214 13838 15749 15753 15755 15754 15759 
2180 2214 1883 2213 15757 15755 15522 15751 15759 15753 
2181 1883 2214 1884 15527 15755 15758 15529 13619 15760 
2214 1883 1917 1884 15755 13844 15756 15760 13619 13845 
1884 1917 2215 1918 13845 15761 15762 13851 13853 15763 
2181 2215 2182 1884 15764 15765 15539 15529 15762 15534 
1884 1917 2214 2215 13845 15756 15760 15762 15761 15766 
2181 2215 1884 2214 15764 15762 15529 15758 15766 15760 
2182 1884 2215 1885 15534 15762 15765 15536 13626 15767 
2215 1884 1918 1885 15762 13851 15763 15767 13626 13852 
1885 1918 2216 1919 13852 15768 15769 13858 13860 15770 
2182 2216 2183 1885 15771 15772 15546 15536 15769 15541 
1885 1918 2215 2216 13852 15763 15767 15769 15768 15773 
2182 2216 1885 2215 15771 15769 15536 15765 15773 15767 
2183 1885 2216 1886 15541 15769 15772 15543 13633 15774 
2216 1885 1919 1886 15769 13858 15770 15774 13633 13859 
1886 1919 2217 1920 13859 15775 15776 13865 13867 15777 
2183 2217 2184 1886 15778 15779 15553 15543 15776 15548 
1886 1919 2216 2217 13859 15770 15774 15776 15775 15780 
2183 2217 1886 2216 15778 15776 15543 15772 15780 15774 
2184 1886 2217 1887 15548 15776 15779 15550 13640 15781 
2217 1886 1920 1887 15776 13865 15777 15781 13640 13866 
1887 1920 2218 1921 13866 15782 15783 13872 13874 15784 
2184 2218 2185 1887 15785 15786 15560 15550 15783 15555 
1887 1920 2217 2218 13866 15777 15781 15783 15782 15787 
2184 2218 1887 2217 15785 15783 15550 15779 15787 15781 
2185 1887 2218 1888 15555 15783 15786 15557 13647 15788 
2218 1887 1921 1888 15783 13872 15784 15788 13647 13873 
1888 1921 2219 1922 13873 15789 15790 13879 13881 15791 
2185 2219 2186 1888 15792 15793 15567 15557 15790 15562 
1888 1921 2218 2219 13873 15784 15788 15790 15789 15794 
2185 2219 1888 2218 15792 15790 15557 15786 15794 15788 
2186 1888 2219 1889 15562 15790 15793 15564 13654 15795 
2219 1888 1922 1889 15790 13879 15791 15795 13654 13880 
1889 1922 2220 1923 13880 15796 15797 13886 13888 15798 
2186 2220 2187 1889 15799 15800 15574 15564 15797 15569 
1889 1922 2219 2220 13880 15791 15795 15797 15796 15801 
2186 2220 1889 2219 15799 15797 15564 15793 15801 15795 
2187 1889 2220 1890 15569 15797 15800 15571 13661 15802 
2220 1889 1923 1890 15797 13886 15798 15802 13661 13887 
1890 1923 2221 1924 13887 15803 15804 13893 13895 15805 
2187 2221 2188 1890 15806 15807 15581 15571 15804 15576 
1890 1923 2220 2221 13887 15798 15802 15804 15803 15808 
2187 2221 1890 2220 15806 15804 15571 15800 15808 15802 
2188 1890 2221 1891 15576 15804 15807 15578 13668 15809 
2221 1890 1924 1891 15804 13893 15805 15809 13668 13894 
1891 1924 2222 1925 13894 15810 15811 13900 13902 15812 
2188 2222 2189 1891 15813 15814 15588 15578 15811 15583 
1891 1924 2221 2222 13894 15805 15809 15811 15810 15815 
2188 2222 1891 2221 15813 15811 15578 15807 15815 15809 
2189 1891 2222 1892 15583 15811 15814 15585 13675 15816 
2222 1891 1925 1892 15811 13900 15812 15816 13675 13901 
1892 1925 2223 1926 13901 15817 15818 13907 13909 15819 
2189 2223 2190 1892 15820 15821 15595 15585 15818 15590 
1892 1925 2222 2223 13901 15812 15816 15818 15817 15822 
2189 2223 1892 2222 15820 15818 15585 15814 15822 15816 
2190 1892 2223 1893 15590 15818 15821 15592 13682 15823 
2223 1892 1926 1893 15818 13907 15819 15823 13682 13908 
1893 1926 2224 1927 13908 15824 15825 13914 13916 15826 
2190 2224 2191 1893 15827 15828 15602 15592 15825 15597 
1893 1926 2223 2224 13908 15819 15823 15825 15824 15829 
2190 2224 1893 2223 15827 15825 15592 15821 15829 15823 
2191 1893 2224 1894 15597 15825 15828 15599 13689 15830 
2224 1893 1927 1894 15825 13914 15826 15830 13689 13915 
1894 1927 2225 1928 13915 15831 15832 13921 13923 15833 
2191 2225 2192 1894 15834 15835 15609 15599 15832 15604 
1894 1927 2224 2225 13915 15826 15830 15832 15831 15836 
2191 2225 1894 2224 15834 15832 15599 15828 15836 15830 
2192 1894 2225 1895 15604 15832 15835 15606 13696 15837 
2225 1894 1928 1895 15832 13921 15833 15837 13696 13922 
1895 1928 2226 1929 13922 15838 15839 13928 13930 15840 
2192 2226 2193 1895 15841 15842 15616 15606 15839 15611 
1895 1928 2225 2226 13922 15833 15837 15839 15838 15843 
2192 2226 1895 2225 15841 15839 15606 15835 15843 15837 
2193 1895 2226 1896 15611 15839 15842 15613 13703 15844 
2226 1895 1929 1896 15839 13928 15840 15844 13703 13929 
1896 1929 2227 1930 13929 15845 15846 13935 13937 15847 
2193 2227 2194 1896 15848 15849 15623 15613 15846 15618 
1896 1929 2226 2227 13929 15840 15844 15846 15845 15850 
2193 2227 1896 2226 15848 15846 15613 15842 15850 15844 
2194 1896 2227 1897 15618 15846 15849 15620 13710 15851 
2227 1896 1930 1897 15846 13935 15847 15851 13710 13936 
1897 1930 2228 1931 13936 15852 15853 13942 13944 15854 
2194 2228 2195 1897 15855 15856 15630 15620 15853 15625 
1897 1930 2227 2228 13936 15847 15851 15853 15852 15857 
2194 2228 1897 2227 15855 15853 15620 15849 15857 15851 
2195 1897 2228 1898 15625 15853 15856 15627 13717 15858 
2228 1897 1931 1898 15853 13942 15854 15858 13717 13943 
1898 1931 2229 1932 13943 15859 15860 13949 13951 15861 
2195 2229 2196 1898 15862 15863 15637 15627 15860 15632 
1898 1931 2228 2229 13943 15854 15858 15860 15859 15864 
2195 2229 1898 2228 15862 15860 15627 15856 15864 15858 
2196 1898 2229 1899 15632 15860 15863 15634 13724 15865 
2229 1898 1932 1899 15860 13949 15861 15865 13724 13950 
1899 1932 2230 1933 13950 15866 15867 13956 13958 15868 
2196 2230 2197 1899 15869 15870 15644 15634 15867 15639 
1899 1932 2229 2230 13950 15861 15865 15867 15866 15871 
2196 2230 1899 2229 15869 15867 15634 15863 15871 15865 
2197 1899 2230 1900 15639 15867 15870 15641 13731 15872 
2230 1899 1933 1900 15867 13956 15868 15872 13731 13957 
1900 1933 2231 1934 13957 15873 15874 13963 13965 15875 
2197 2231 2198 1900 15876 15877 15651 15641 15874 15646 
1900 1933 2230 2231 13957 15868 15872 15874 15873 15878 
2197 2231 1900 2230 15876 15874 15641 15870 15878 15872 
2198 1900 2231 1901 15646 15874 15877 15648 13738 15879 
2231 1900 1934 1901 15874 13963 15875 15879 13738 13964 
1901 1934 2232 1935 13964 15880 15881 13970 13972 15882 
2198 2232 2199 1901 15883 15884 15658 15648 15881 15653 
1901 1934 2231 2232 13964 15875 15879 15881 15880 15885 
2198 2232 1901 2231 15883 15881 15648 15877 15885 15879 
2199 1901 2232 1902 15653 15881 15884 15655 13745 15886 
2232 1901 1935 1902 15881 13970 15882 15886 13745 13971 
1902 1935 2233 1936 13971 15887 15888 13977 13979 15889 
2199 2233 2200 1902 15890 15891 15665 15655 15888 15660 
1902 1935 2232 2233 13971 15882 15886 15888 15887 15892 
2199 2233 1902 2232 15890 15888 15655 15884 15892 15886 
2200 1902 2233 1903 15660 15888 15891 15662 13752 15893 
2233 1902 1936 1903 15888 13977 15889 15893 13752 13978 
1903 1936 2234 1937 13978 15894 15895 13984 13986 15896 
2200 2234 2201 1903 15897 15898 15672 15662 15895 15667 
1903 1936 2233 2234 13978 15889 15893 15895 15894 15899 
2200 2234 1903 2233 15897 15895 15662 15891 15899 15893 
2201 1903 2234 1904 15667 15895 15898 15669 13759 15900 
2234 1903 1937 1904 15895 13984 15896 15900 13759 13985 
1904 1937 2235 1938 13985 15901 15902 13991 13993 15903 
2201 2235 2202 1904 15904 15905 15679 15669 15902 15674 
1904 1937 2234 2235 13985 15896 15900 15902 15901 15906 
2201 2235 1904 2234 15904 15902 15669 15898 15906 15900 
2202 1904 2235 1905 15674 15902 15905 15676 13766 15907 
2235 1904 1938 1905 15902 13991 15903 15907 13766 13992 
1905 1938 2236 1939 13992 15908 15909 13998 14000 15910 
2202 2236 2203 1905 15911 15912 15686 15676 15909 15681 
1905 1938 2235 2236 13992 15903 15907 15909 15908 15913 
2202 2236 1905 2235 15911 15909 15676 15905 15913 15907 
2203 1905 2236 1906 15681 15909 15912 15683 13773 15914 
2236 1905 1939 1906 15909 13998 15910 15914 13773 13999 
1906 1939 2237 1940 13999 15915 15916 14005 14007 15917 
2203 2237 2204 1906 15918 15919 15693 15683 15916 15688 
1906 1939 2236 2237 13999 15910 15914 15916 15915 15920 
2203 2237 1906 2236 15918 15916 15683 15912 15920 15914 
2204 1906 2237 1907 15688 15916 15919 15690 13780 15921 
2237 1906 1940 1907 15916 14005 15917 15921 13780 14006 
1907 1940 2238 1941 14006 15922 15923 14012 14014 15924 
2204 2238 2205 1907 15925 15926 15700 15690 15923 15695 
1907 1940 2237 2238 14006 15917 15921 15923 15922 15927 
2204 2238 1907 2237 15925 15923 15690 15919 15927 15921 
2205 1907 2238 1908 15695 15923 15926 15697 13787 15928 
2238 1907 1941 1908 15923 14012 15924 15928 13787 14013 
1908 1941 2239 1942 14013 15929 15930 14019 14021 15931 
2205 2239 2206 1908 15932 15933 15707 15697 15930 15702 
1908 1941 2238 2239 14013 15924 15928 15930 15929 15934 
2205 2239 1908 2238 15932 15930 15697 15926 15934 15928 
2206 1908 2239 1909 15702 15930 15933 15704 13794 15935 
2239 1908 1942 1909 15930 14019 15931 15935 13794 14020 
1909 1942 2240 1943 14020 15936 15937 14026 14028 15938 
2206 2240 2207 1909 15939 15940 15714 15704 15937 15709 
1909 1942 2239 2240 14020 15931 15935 15937 15936 15941 
2206 2240 1909 2239 15939 15937 15704 15933 15941 15935 
2207 1909 2240 1910 15709 15937 15940 15711 13801 15942 
2240 1909 1943 1910 15937 14026 15938 15942 13801 14027 
1910 1943 2241 1944 14027 15943 15944 14033 14035 15945 
2207 2241 2208 1910 15946 15947 15721 15711 15944 15716 
1910 1943 2240 2241 14027 15938 15942 15944 15943 15948 
2207 2241 1910 2240 15946 15944 15711 15940 15948 15942 
2208 1910 2241 1911 15716 15944 15947 15718 13808 15949 
2241 1910 1944 1911 15944 14033 15945 15949 13808 14034 
1911 1944 2242 1945 14034 15950 15951 14040 14042 15952 
2208 2242 2209 1911 15953 15954 15728 15718 15951 15723 
1911 1944 2241 2242 14034 15945 15949 15951 15950 15955 
2208 2242 1911 2241 15953 15951 15718 15947 15955 15949 
2209 1911 2242 1912 15723 15951 15954 15725 13815 15956 
2242 1911 1945 1912 15951 14040 15952 15956 13815 14041 
1912 1945 2243 1946 14041 15957 15958 14047 14049 15959 
2209 2243 2210 1912 15960 15961 15735 15725 15958 15730 
1912 1945 2242 2243 14041 15952 15956 15958 15957 15962 
2209 2243 1912 2242 15960 15958 15725 15954 15962 15956 
2210 1912 2243 1913 15730 15958 15961 15732 13822 15963 
2243 1912 1946 1913 15958 14047 15959 15963 13822 14048 
1914 1947 2245 1948 14059 15964 15965 14054 14058 15966 
2211 2245 2212 1914 15967 15968 15744 15742 15965 15737 
1914 1947 2244 2245 14059 15969 15970 15965 15964 15971 
2211 2245 1914 2244 15967 15965 15742 15972 15971 15970 
2212 1914 2245 1915 15737 15965 15968 15739 13831 15973 
2245 1914 1948 1915 15965 14054 15966 15973 13831 14055 
1915 1948 2246 1949 14055 15974 15975 14064 14066 15976 
2212 2246 2213 1915 15977 15978 15752 15739 15975 15747 
1915 1948 2245 2246 14055 15966 15973 15975 15974 15979 
2212 2246 1915 2245 15977 15975 15739 15968 15979 15973 
2213 1915 2246 1916 15747 15975 15978 15749 13839 15980 
2246 1915 1949 1916 15975 14064 15976 15980 13839 14065 
1916 1949 2247 1950 14065 15981 15982 14071 14073 15983 
2213 2247 2214 1916 15984 15985 15759 15749 15982 15754 
1916 1949 2246 2247 14065 15976 15980 15982 15981 15986 
2213 2247 1916 2246 15984 15982 15749 15978 15986 15980 
2214 1916 2247 1917 15754 15982 15985 15756 13846 15987 
2247 1916 1950 1917 15982 14071 15983 15987 13846 14072 
1917 1950 2248 1951 14072 15988 15989 14078 14080 15990 
2214 2248 2215 1917 15991 15992 15766 15756 15989 15761 
1917 1950 2247 2248 14072 15983 15987 15989 15988 15993 
2214 2248 1917 2247 15991 15989 15756 15985 15993 15987 
2215 1917 2248 1918 15761 15989 15992 15763 13853 15994 
2248 1917 1951 1918 15989 14078 15990 15994 13853 14079 
1918 1951 2249 1952 14079 15995 15996 14085 14087 15997 
2215 2249 2216 1918 15998 15999 15773 15763 15996 15768 
1918 1951 2248 2249 14079 15990 15994 15996 15995 16000 
2215 2249 1918 2248 15998 15996 15763 15992 16000 15994 
2216 1918 2249 1919 15768 15996 15999 15770 13860 16001 
2249 1918 1952 1919 15996 14085 15997 16001 13860 14086 
1919 1952 2250 1953 14086 16002 16003 14092 14094 16004 
2216 2250 2217 1919 16005 16006 15780 15770 16003 15775 
1919 1952 2249 2250 14086 15997 16001 16003 16002 16007 
2216 2250 1919 2249 16005 16003 15770 15999 16007 16001 
2217 1919 2250 1920 15775 16003 16006 15777 13867 16008 
2250 1919 1953 1920 16003 14092 16004 16008 13867 14093 
1920 1953 2251 1954 14093 16009 16010 14099 14101 16011 
2217 2251 2218 1920 16012 16013 15787 15777 16010 15782 
1920 1953 2250 2251 14093 16004 16008 16010 16009 16014 
2217 2251 1920 2250 16012 16010 15777 16006 16014 16008 
2218 1920 2251 1921 15782 16010 16013 15784 13874 16015 
2251 1920 1954 1921 16010 14099 16011 16015 13874 14100 
1921 1954 2252 1955 14100 16016 16017 14106 14108 16018 
2218 2252 2219 1921 16019 16020 15794 15784 16017 15789 
1921 1954 2251 2252 14100 16011 16015 16017 16016 16021 
2218 2252 1921 2251 16019 16017 15784 16013 16021 16015 
2219 1921 2252 1922 15789 16017 16020 15791 13881 16022 
2252 1921 1955 1922 16017 14106 16018 16022 13881 14107 
1922 1955 2253 1956 14107 16023 16024 14113 14115 16025 
2219 2253 2220 1922 16026 16027 15801 15791 16024 15796 
1922 1955 2252 2253 14107 16018 16022 16024 16023 16028 
2219 2253 1922 2252 16026 16024 15791 16020 16028 16022 
2220 1922 2253 1923 15796 16024 16027 15798 13888 16029 
2253 1922 1956 1923 16024 14113 16025 16029 13888 14114 
1923 1956 2254 1957 14114 16030 16031 14120 14122 16032 
2220 2254 2221 1923 16033 16034 15808 15798 16031 15803 
1923 1956 2253 2254 14114 16025 16029 16031 16030 16035 
2220 2254 1923 2253 16033 16031 15798 16027 16035 16029 
2221 1923 2254 1924 15803 16031 16034 15805 13895 16036 
2254 1923 1957 1924 16031 14120 16032 16036 13895 14121 
1924 1957 2255 1958 14121 16037 16038 14127 14129 16039 
2221 2255 2222 1924 16040 16041 15815 15805 16038 15810 
1924 1957 2254 2255 14121 16032 16036 16038 16037 16042 
2221 2255 1924 2254 16040 16038 15805 16034 16042 16036 
2222 1924 2255 1925 15810 16038 16041 15812 13902 16043 
2255 1924 1958 1925 16038 14127 16039 16043 13902 14128 
1925 1958 2256 1959 14128 16044 16045 14134 14136 16046 
2222 2256 2223 1925 16047 16048 15822 15812 16045 15817 
1925 1958 2255 2256 14128 16039 16043 16045 16044 16049 
2222 2256 1925 2255 16047 16045 15812 16041 16049 16043 
2223 1925 2256 1926 15817 16045 16048 15819 13909 16050 
2256 1925 1959 1926 16045 14134 16046 16050 13909 14135 
1926 1959 2257 1960 14135 16051 16052 14141 14143 16053 
2223 2257 2224 1926 16054 16055 15829 15819 16052 15824 
1926 1959 2256 2257 14135 16046 16050 16052 16051 16056 
2223 2257 1926 2256 16054 16052 15819 16048 16056 16050 
2224 1926 2257 1927 15824 16052 16055 15826 13916 16057 
2257 1926 1960 1927 16052 14141 16053 16057 13916 14142 
1927 1960 2258 1961 14142 16058 16059 14148 14150 16060 
2224 2258 2225 1927 16061 16062 15836 15826 16059 15831 
1927 1960 2257 2258 14142 16053 16057 16059 16058 16063 
2224 2258 1927 2257 16061 16059 15826 16055 16063 16057 
2225 1927 2258 1928 15831 16059 16062 15833 13923 16064 
2258 1927 1961 1928 16059 14148 16060 16064 13923 14149 
1928 1961 2259 1962 14149 16065 16066 14155 14157 16067 
2225 2259 2226 1928 16068 16069 15843 15833 16066 15838 
1928 1961 2258 2259 14149 16060 16064 16066 16065 16070 
2225 2259 1928 2258 16068 16066 15833 16062 16070 16064 
2226 1928 2259 1929 15838 16066 16069 15840 13930 16071 
2259 1928 1962 1929 16066 14155 16067 16071 13930 14156 
1929 1962 2260 1963 14156 16072 16073 14162 14164 16074 
2226 2260 2227 1929 16075 16076 15850 15840 16073 15845 
1929 1962 2259 2260 14156 16067 16071 16073 16072 16077 
2226 2260 1929 2259 16075 16073 15840 16069 16077 16071 
2227 1929 2260 1930 15845 16073 16076 15847 13937 16078 
2260 1929 1963 1930 16073 14162 16074 16078 13937 14163 
1930 1963 2261 1964 14163 16079 16080 14169 14171 16081 
2227 2261 2228 1930 16082 16083 15857 15847 16080 15852 
1930 1963 2260 2261 14163 16074 16078 16080 16079 16084 
2227 2261 1930 2260 16082 16080 15847 16076 16084 16078 
2228 1930 2261 1931 15852 16080 16083 15854 13944 16085 
2261 1930 1964 1931 16080 14169 16081 16085 13944 14170 
1931 1964 2262 1965 14170 16086 16087 14176 14178 16088 
2228 2262 2229 1931 16089 16090 15864 15854 16087 15859 
1931 1964 2261 2262 14170 16081 16085 16087 16086 16091 
2228 2262 1931 2261 16089 16087 15854 16083 16091 16085 
2229 1931 2262 1932 15859 16087 16090 15861 13951 16092 
2262 1931 1965 1932 16087 14176 16088 16092 13951 14177 
1932 1965 2263 1966 14177 16093 16094 14183 14185 16095 
2229 2263 2230 1932 16096 16097 15871 15861 16094 15866 
1932 1965 2262 2263 14177 16088 16092 16094 16093 16098 
2229 2263 1932 2262 16096 16094 15861 16090 16098 16092 
2230 1932 2263 1933 15866 16094 16097 15868 13958 16099 
2263 1932 1966 1933 16094 14183 16095 16099 13958 14184 
1933 1966 2264 1967 14184 16100 16101 14190 14192 16102 
2230 2264 2231 1933 16103 16104 15878 15868 16101 15873 
1933 1966 2263 2264 14184 16095 16099 16101 16100 16105 
2230 2264 1933 2263 16103 16101 15868 16097 16105 16099 
2231 1933 2264 1934 15873 16101 16104 15875 13965 16106 
2264 1933 1967 1934 16101 14190 16102 16106 13965 14191 
1934 1967 2265 1968 14191 16107 16108 14197 14199 16109 
2231 2265 2232 1934 16110 16111 15885 15875 16108 15880 
1934 1967 2264 2265 14191 16102 16106 16108 16107 16112 
2231 2265 1934 2264 16110 16108 15875 16104 16112 16106 
2232 1934 2265 1935 15880 16108 16111 15882 13972 16113 
2265 1934 1968 1935 16108 14197 16109 16113 13972 14198 
1935 1968 2266 1969 14198 16114 16115 14204 14206 16116 
2232 2266 2233 1935 16117 16118 15892 15882 16115 15887 
1935 1968 2265 2266 14198 16109 16113 16115 16114 16119 
2232 2266 1935 2265 16117 16115 15882 16111 16119 16113 
2233 1935 2266 1936 15887 16115 16118 15889 13979 16120 
2266 1935 1969 1936 16115 14204 16116 16120 13979 14205 
1936 1969 2267 1970 14205 16121 16122 14211 14213 16123 
2233 2267 2234 1936 16124 16125 15899 15889 16122 15894 
1936 1969 2266 2267 14205 16116 16120 16122 16121 16126 
2233 2267 1936 2266 16124 16122 15889 16118 16126 16120 
2234 1936 2267 1937 15894 16122 16125 15896 13986 16127 
2267 1936 1970 1937 16122 14211 16123 16127 13986 14212 
1937 1970 2268 1971 14212 16128 16129 14218 14220 16130 
2234 2268 2235 1937 16131 16132 15906 15896 16129 15901 
1937 1970 2267 2268 14212 16123 16127 16129 16128 16133 
2234 2268 1937 2267 16131 16129 15896 16125 16133 16127 
2235 1937 2268 1938 15901 16129 16132 15903 13993 16134 
2268 1937 1971 1938 16129 14218 16130 16134 13993 14219 
1938 1971 2269 1972 14219 16135 16136 14225 14227 16137 
2235 2269 2236 1938 16138 16139 15913 15903 16136 15908 
1938 1971 2268 2269 14219 16130 16134 16136 16135 16140 
2235 2269 1938 2268 16138 16136 15903 16132 16140 16134 
2236 1938 2269 1939 15908 16136 16139 15910 14000 16141 
2269 1938 1972 1939 16136 14225 16137 16141 14000 14226 
1939 1972 2270 1973 14226 16142 16143 14232 14234 16144 
2236 2270 2237 1939 16145 16146 15920 15910 16143 15915 
1939 1972 2269 2270 14226 16137 16141 16143 16142 16147 
2236 2270 1939 2269 16145 16143 15910 16139 16147 16141 
2237 1939 2270 1940 15915 16143 16146 15917 14007 16148 
2270 1939 1973 1940 16143 14232 16144 16148 14007 14233 
1940 1973 2271 1974 14233 16149 16150 14239 14241 16151 
2237 2271 2238 1940 16152 16153 15927 15917 16150 15922 
1940 1973 2270 2271 14233 16144 16148 16150 16149 16154 
2237 2271 1940 2270 16152 16150 15917 16146 16154 16148 
2238 1940 2271 1941 15922 16150 16153 15924 14014 16155 
2271 1940 1974 1941 16150 14239 16151 16155 14014 14240 
1941 1974 2272 1975 14240 16156 16157 14246 14248 16158 
2238 2272 2239 1941 16159 16160 15934 15924 16157 15929 
1941 1974 2271 2272 14240 16151 16155 16157 16156 16161 
2238 2272 1941 2271 16159 16157 15924 16153 16161 16155 
2239 1941 2272 1942 15929 16157 16160 15931 14021 16162 
2272 1941 1975 1942 16157 14246 16158 16162 14021 14247 
1942 1975 2273 1976 14247 16163 16164 14253 14255 16165 
2239 2273 2240 1942 16166 16167 15941 15931 16164 15936 
1942 1975 2272 2273 14247 16158 16162 16164 16163 16168 
2239 2273 1942 2272 16166 16164 15931 16160 16168 16162 
2240 1942 2273 1943 15936 16164 16167 15938 14028 16169 
2273 1942 1976 1943 16164 14253 16165 16169 14028 14254 
1943 1976 2274 1977 14254 16170 16171 14260 14262 16172 
2240 2274 2241 1943 16173 16174 15948 15938 16171 15943 
1943 1976 2273 2274 14254 16165 16169 16171 16170 16175 
2240 2274 1943 2273 16173 16171 15938 16167 16175 16169 
2241 1943 2274 1944 15943 16171 16174 15945 14035 16176 
2274 1943 1977 1944 16171 14260 16172 16176 14035 14261 
1944 1977 2275 1978 14261 16177 16178 14267 14269 16179 
2241 2275 2242 1944 16180 16181 15955 15945 16178 15950 
1944 1977 2274 2275 14261 16172 16176 16178 16177 16182 
2241 2275 1944 2274 16180 16178 15945 16174 16182 16176 
2242 1944 2275 1945 15950 16178 16181 15952 14042 16183 
2275 1944 1978 1945 16178 14267 16179 16183 14042 14268 
1945 1978 2276 1979 14268 16184 16185 14274 14276 16186 
2242 2276 2243 1945 16187 16188 15962 15952 16185 15957 
1945 1978 2275 2276 14268 16179 16183 16185 16184 16189 
2242 2276 1945 2275 16187 16185 15952 16181 16189 16183 
2243 1945 2276 1946 15957 16185 16188 15959 14049 16190 
2276 1945 1979 1946 16185 14274 16186 16190 14049 14275 
1947 1980 2278 1981 14286 16191 16192 14281 14285 16193 
2244 2278 2245 1947 16194 16195 15971 15969 16192 15964 
1947 1980 2277 2278 14286 16196 16197 16192 16191 16198 
2244 2278 1947 2277 16194 16192 15969 16199 16198 16197 
2245 1947 2278 1948 15964 16192 16195 15966 14058 16200 
2278 1947 1981 1948 16192 14281 16193 16200 14058 14282 
1948 1981 2279 1982 14282 16201 16202 14291 14293 16203 
2245 2279 2246 1948 16204 16205 15979 15966 16202 15974 
1948 1981 2278 2279 14282 16193 16200 16202 16201 16206 
2245 2279 1948 2278 16204 16202 15966 16195 16206 16200 
2246 1948 2279 1949 15974 16202 16205 15976 14066 16207 
2279 1948 1982 1949 16202 14291 16203 16207 14066 14292 
1949 1982 2280 1983 14292 16208 16209 14298 14300 16210 
2246 2280 2247 1949 16211 16212 15986 15976 16209 15981 
1949 1982 2279 2280 14292 16203 16207 16209 16208 16213 
2246 2280 1949 2279 16211 16209 15976 16205 16213 16207 
2247 1949 2280 1950 15981 16209 16212 15983 14073 16214 
2280 1949 1983 1950 16209 14298 16210 16214 14073 14299 
1950 1983 2281 1984 14299 16215 16216 14305 14307 16217 
2247 2281 2248 1950 16218 16219 15993 15983 16216 15988 
1950 1983 2280 2281 14299 16210 16214 16216 16215 16220 
2247 2281 1950 2280 16218 16216 15983 16212 16220 16214 
2248 1950 2281 1951 15988 16216 16219 15990 14080 16221 
2281 1950 1984 1951 16216 14305 16217 16221 14080 14306 
1951 1984 2282 1985 14306 16222 16223 14312 14314 16224 
2248 2282 2249 1951 16225 16226 16000 15990 16223 15995 
1951 1984 2281 2282 14306 16217 16221 16223 16222 16227 
2248 2282 1951 2281 16225 16223 15990 16219 16227 16221 
2249 1951 2282 1952 15995 16223 16226 15997 14087 16228 
2282 1951 1985 1952 16223 14312 16224 16228 14087 14313 
1952 1985 2283 1986 14313 16229 16230 14319 14321 16231 
2249 2283 2250 1952 16232 16233 16007 15997 16230 16002 
1952 1985 2282 2283 14313 16224 16228 16230 16229 16234 
2249 2283 1952 2282 16232 16230 15997 16226 16234 16228 
2250 1952 2283 1953 16002 16230 16233 16004 14094 16235 
2283 1952 1986 1953 16230 14319 16231 16235 14094 14320 
1953 1986 2284 1987 14320 16236 16237 14326 14328 16238 
2250 2284 2251 1953 16239 16240 16014 16004 16237 16009 
1953 1986 2283 2284 14320 16231 16235 16237 16236 16241 
2250 2284 1953 2283 16239 16237 16004 16233 16241 16235 
2251 1953 2284 1954 16009 16237 16240 16011 14101 16242 
2284 1953 1987 1954 16237 14326 16238 16242 14101 14327 
1954 1987 2285 1988 14327 16243 16244 14333 14335 16245 
2251 2285 2252 1954 16246 16247 16021 16011 16244 16016 
1954 1987 2284 2285 14327 16238 16242 16244 16243 16248 
2251 2285 1954 2284 16246 16244 16011 16240 16248 16242 
2252 1954 2285 1955 16016 16244 16247 16018 14108 16249 
2285 1954 1988 1955 16244 14333 16245 16249 14108 14334 
1955 1988 2286 1989 14334 16250 16251 14340 14342 16252 
2252 2286 2253 1955 16253 16254 16028 16018 16251 16023 
1955 1988 2285 2286 14334 16245 16249 16251 16250 16255 
2252 2286 1955 2285 16253 16251 16018 16247 16255 16249 
2253 1955 2286 1956 16023 16251 16254 16025 14115 16256 
2286 1955 1989 1956 16251 14340 16252 16256 14115 14341 
1956 1989 2287 1990 14341 16257 16258 14347 14349 16259 
2253 2287 2254 1956 16260 16261 16035 16025 16258 16030 
1956 1989 2286 2287 14341 16252 16256 16258 16257 16262 
2253 2287 1956 2286 16260 16258 16025 16254 16262 16256 
2254 1956 2287 1957 16030 16258 16261 16032 14122 16263 
2287 1956 1990 1957 16258 14347 16259 16263 14122 14348 
1957 1990 2288 1991 14348 16264 16265 14354 14356 16266 
2254 2288 2255 1957 16267 16268 16042 16032 16265 16037 
1957 1990 2287 2288 14348 16259 16263 16265 16264 16269 
2254 2288 1957 2287 16267 16265 16032 16261 16269 16263 
2255 1957 2288 1958 16037 16265 16268 16039 14129 16270 
2288 1957 1991 1958 16265 14354 16266 16270 14129 14355 
1958 1991 2289 1992 14355 16271 16272 14361 14363 16273 
2255 2289 2256 1958 16274 16275 16049 16039 16272 16044 
1958 1991 2288 2289 14355 16266 16270 16272 16271 16276 
2255 2289 1958 2288 16274 16272 16039 16268 16276 16270 
2256 1958 2289 1959 16044 16272 16275 16046 14136 16277 
2289 1958 1992 1959 16272 14361 16273 16277 14136 14362 
1959 1992 2290 1993 14362 16278 16279 14368 14370 16280 
2256 2290 2257 1959 16281 16282 16056 16046 16279 16051 
1959 1992 2289 2290 14362 16273 16277 16279 16278 16283 
2256 2290 1959 2289 16281 16279 16046 16275 16283 16277 
2257 1959 2290 1960 16051 16279 16282 16053 14143 16284 
2290 1959 1993 1960 16279 14368 16280 16284 14143 14369 
1960 1993 2291 1994 14369 16285 16286 14375 14377 16287 
2257 2291 2258 1960 16288 16289 16063 16053 16286 16058 
1960 1993 2290 2291 14369 16280 16284 16286 16285 16290 
2257 2291 1960 2290 16288 16286 16053 16282 16290 16284 
2258 1960 2291 1961 16058 16286 16289 16060 14150 16291 
2291 1960 1994 1961 16286 14375 16287 16291 14150 14376 
1961 1994 2292 1995 14376 16292 16293 14382 14384 16294 
2258 2292 2259 1961 16295 16296 16070 16060 16293 16065 
1961 1994 2291 2292 14376 16287 16291 16293 16292 16297 
2258 2292 1961 2291 16295 16293 16060 16289 16297 16291 
2259 1961 2292 1962 16065 16293 16296 16067 14157 16298 
2292 1961 1995 1962 16293 14382 16294 16298 14157 14383 
1962 1995 2293 1996 14383 16299 16300 14389 14391 16301 
2259 2293 2260 1962 16302 16303 16077 16067 16300 16072 
1962 1995 2292 2293 14383 16294 16298 16300 16299 16304 
2259 2293 1962 2292 16302 16300 16067 16296 16304 16298 
2260 1962 2293 1963 16072 16300 16303 16074 14164 16305 
2293 1962 1996 1963 16300 14389 16301 16305 14164 14390 
1963 1996 2294 1997 14390 16306 16307 14396 14398 16308 
2260 2294 2261 1963 16309 16310 16084 16074 16307 16079 
1963 1996 2293 2294 14390 16301 16305 16307 16306 16311 
2260 2294 1963 2293 16309 16307 16074 16303 16311 16305 
2261 1963 2294 1964 16079 16307 16310 16081 14171 16312 
2294 1963 1997 1964 16307 14396 16308 16312 14171 14397 
1964 1997 2295 1998 14397 16313 16314 14403 14405 16315 
2261 2295 2262 1964 16316 16317 16091 16081 16314 16086 
1964 1997 2294 2295 14397 16308 16312 16314 16313 16318 
2261 2295 1964 2294 16316 16314 16081 16310 16318 16312 
2262 1964 2295 1965 16086 16314 16317 16088 14178 16319 
2295 1964 1998 1965 16314 14403 16315 16319 14178 14404 
1965 1998 2296 1999 14404 16320 16321 14410 14412 16322 
2262 2296 2263 1965 16323 16324 16098 16088 16321 16093 
1965 1998 2295 2296 14404 16315 16319 16321 16320 16325 
2262 2296 1965 2295 16323 16321 16088 16317 16325 16319 
2263 1965 2296 1966 16093 16321 16324 16095 14185 16326 
2296 1965 1999 1966 16321 14410 16322 16326 14185 14411 
1966 1999 2297 2000 14411 16327 16328 14417 14419 16329 
2263 2297 2264 1966 16330 16331 16105 16095 16328 16100 
1966 1999 2296 2297 14411 16322 16326 16328 16327 16332 
2263 2297 1966 2296 16330 16328 16095 16324 16332 16326 
2264 1966 2297 1967 16100 16328 16331 16102 14192 16333 
2297 1966 2000 1967 16328 14417 16329 16333 14192 14418 
1967 2000 2298 2001 14418 16334 16335 14424 14426 16336 
2264 2298 2265 1967 16337 16338 16112 16102 16335 16107 
1967 2000 2297 2298 14418 16329 16333 16335 16334 16339 
2264 2298 1967 2297 16337 16335 16102 16331 16339 16333 
2265 1967 2298 1968 16107 16335 16338 16109 14199 16340 
2298 1967 2001 1968 16335 14424 16336 16340 14199 14425 
1968 2001 2299 2002 14425 16341 16342 14431 14433 16343 
2265 2299 2266 1968 16344 16345 16119 16109 16342 16114 
1968 2001 2298 2299 14425 16336 16340 16342 16341 16346 
2265 2299 1968 2298 16344 16342 16109 16338 16346 16340 
2266 1968 2299 1969 16114 16342 16345 16116 14206 16347 
2299 1968 2002 1969 16342 14431 16343 16347 14206 14432 
1969 2002 2300 2003 14432 16348 16349 14438 14440 16350 
2266 2300 2267 1969 16351 16352 16126 16116 16349 16121 
1969 2002 2299 2300 14432 16343 16347 16349 16348 16353 
2266 2300 1969 2299 16351 16349 16116 16345 16353 16347 
2267 1969 2300 1970 16121 16349 16352 16123 14213 16354 
2300 1969 2003 1970 16349 14438 16350 16354 14213 14439 
1970 2003 2301 2004 14439 16355 16356 14445 14447 16357 
2267 2301 2268 1970 16358 16359 16133 16123 16356 16128 
1970 2003 2300 2301 14439 16350 16354 16356 16355 16360 
2267 2301 1970 2300 16358 16356 16123 16352 16360 16354 
2268 1970 2301 1971 16128 16356 16359 16130 14220 16361 
2301 1970 2004 1971 16356 14445 16357 16361 14220 14446 
1971 2004 2302 2005 14446 16362 16363 14452 14454 16364 
2268 2302 2269 1971 16365 16366 16140 16130 16363 16135 
1971 2004 2301 2302 14446 16357 16361 16363 16362 16367 
2268 2302 1971 2301 16365 16363 16130 16359 16367 16361 
2269 1971 2302 1972 16135 16363 16366 16137 14227 16368 
2302 1971 2005 1972 16363 14452 16364 16368 14227 14453 
1972 2005 2303 2006 14453 16369 16370 14459 14461 16371 
2269 2303 2270 1972 16372 16373 16147 16137 16370 16142 
1972 2005 2302 2303 14453 16364 16368 16370 16369 16374 
2269 2303 1972 2302 16372 16370 16137 16366 16374 16368 
2270 1972 2303 1973 16142 16370 16373 16144 14234 16375 
2303 1972 2006 1973 16370 14459 16371 16375 14234 14460 
1973 2006 2304 2007 14460 16376 16377 14466 14468 16378 
2270 2304 2271 1973 16379 16380 16154 16144 16377 16149 
1973 2006 2303 2304 14460 16371 16375 16377 16376 16381 
2270 2304 1973 2303 16379 16377 16144 16373 16381 16375 
2271 1973 2304 1974 16149 16377 16380 16151 14241 16382 
2304 1973 2007 1974 16377 14466 16378 16382 14241 14467 
1974 2007 2305 2008 14467 16383 16384 14473 14475 16385 
2271 2305 2272 1974 16386 16387 16161 16151 16384 16156 
1974 2007 2304 2305 14467 16378 16382 16384 16383 16388 
2271 2305 1974 2304 16386 16384 16151 16380 16388 16382 
2272 1974 2305 1975 16156 16384 16387 16158 14248 16389 
2305 1974 2008 1975 16384 14473 16385 16389 14248 14474 
1975 2008 2306 2009 14474 16390 16391 14480 14482 16392 
2272 2306 2273 1975 16393 16394 16168 16158 16391 16163 
1975 2008 2305 2306 14474 16385 16389 16391 16390 16395 
2272 2306 1975 2305 16393 16391 16158 16387 16395 16389 
2273 1975 2306 1976 16163 16391 16394 16165 14255 16396 
2306 1975 2009 1976 16391 14480 16392 16396 14255 14481 
1976 2009 2307 2010 14481 16397 16398 14487 14489 16399 
2273 2307 2274 1976 16400 16401 16175 16165 16398 16170 
1976 2009 2306 2307 14481 16392 16396 16398 16397 16402 
2273 2307 1976 2306 16400 16398 16165 16394 16402 16396 
2274 1976 2307 1977 16170 16398 16401 16172 14262 16403 
2307 1976 2010 1977 16398 14487 16399 16403 14262 14488 
1977 2010 2308 2011 14488 16404 16405 14494 14496 16406 
2274 2308 2275 1977 16407 16408 16182 16172 16405 16177 
1977 2010 2307 2308 14488 16399 16403 16405 16404 16409 
2274 2308 1977 2307 16407 16405 16172 16401 16409 16403 
2275 1977 2308 1978 16177 16405 16408 16179 14269 16410 
2308 1977 2011 1978 16405 14494 16406 16410 14269 14495 
1978 2011 2309 2012 14495 16411 16412 14501 14503 16413 
2275 2309 2276 1978 16414 16415 16189 16179 16412 16184 
1978 2011 2308 2309 14495 16406 16410 16412 16411 16416 
2275 2309 1978 2308 16414 16412 16179 16408 16416 16410 
2276 1978 2309 1979 16184 16412 16415 16186 14276 16417 
2309 1978 2012 1979 16412 14501 16413 16417 14276 14502 
1980 2013 2311 2014 14513 16418 16419 14508 14512 16420 
2277 2311 2278 1980 16421 16422 16198 16196 16419 16191 
1980 2013 2310 2311 14513 16423 16424 16419 16418 16425 
2277 2311 1980 2310 16421 16419 16196 16426 16425 16424 
2278 1980 2311 1981 16191 16419 16422 16193 14285 16427 
2311 1980 2014 1981 16419 14508 16420 16427 14285 14509 
1981 2014 2312 2015 14509 16428 16429 14518 14520 16430 
2278 2312 2279 1981 16431 16432 16206 16193 16429 16201 
1981 2014 2311 2312 14509 16420 16427 16429 16428 16433 
2278 2312 1981 2311 16431 16429 16193 16422 16433 16427 
2279 1981 2312 1982 16201 16429 16432 16203 14293 16434 
2312 1981 2015 1982 16429 14518 16430 16434 14293 14519 
1982 2015 2313 2016 14519 16435 16436 14525 14527 16437 
2279 2313 2280 1982 16438 16439 16213 16203 16436 16208 
1982 2015 2312 2313 14519 16430 16434 16436 16435 16440 
2279 2313 1982 2312 16438 16436 16203 16432 16440 16434 
2280 1982 2313 1983 16208 16436 16439 16210 14300 16441 
2313 1982 2016 1983 16436 14525 16437 16441 14300 14526 
1983 2016 2314 2017 14526 16442 16443 14532 14534 16444 
2280 2314 2281 1983 16445 16446 16220 16210 16443 16215 
1983 2016 2313 2314 14526 16437 16441 16443 16442 16447 
2280 2314 1983 2313 16445 16443 16210 16439 16447 16441 
2281 1983 2314 1984 16215 16443 16446 16217 14307 16448 
2314 1983 2017 1984 16443 14532 16444 16448 14307 14533 
1984 2017 2315 2018 14533 16449 16450 14539 14541 16451 
2281 2315 2282 1984 16452 16453 16227 16217 16450 16222 
1984 2017 2314 2315 14533 16444 16448 16450 16449 16454 
2281 2315 1984 2314 16452 16450 16217 16446 16454 16448 
2282 1984 2315 1985 16222 16450 16453 16224 14314 16455 
2315 1984 2018 1985 16450 14539 16451 16455 14314 14540 
1985 2018 2316 2019 14540 16456 16457 14546 14548 16458 
2282 2316 2283 1985 16459 16460 16234 16224 16457 16229 
1985 2018 2315 2316 14540 16451 16455 16457 16456 16461 
2282 2316 1985 2315 16459 16457 16224 16453 16461 16455 
2283 1985 2316 1986 16229 16457 16460 16231 14321 16462 
2316 1985 2019 1986 16457 14546 16458 16462 14321 14547 
1986 2019 2317 2020 14547 16463 16464 14553 14555 16465 
2283 2317 2284 1986 16466 16467 16241 16231 16464 16236 
1986 2019 2316 2317 14547 16458 16462 16464 16463 16468 
2283 2317 1986 2316 16466 16464 16231 16460 16468 16462 
2284 1986 2317 1987 16236 16464 16467 16238 14328 16469 
2317 1986 2020 1987 16464 14553 16465 16469 14328 14554 
1987 2020 2318 2021 14554 16470 16471 14560 14562 16472 
2284 2318 2285 1987 16473 16474 16248 16238 16471 16243 
1987 2020 2317 2318 14554 16465 16469 16471 16470 16475 
2284 2318 1987 2317 16473 16471 16238 16467 16475 16469 
2285 1987 2318 1988 16243 16471 16474 16245 14335 16476 
2318 1987 2021 1988 16471 14560 16472 16476 14335 14561 
1988 2021 2319 2022 14561 16477 16478 14567 14569 16479 
2285 2319 2286 1988 16480 16481 16255 16245 16478 16250 
1988 2021 2318 2319 14561 16472 16476 16478 16477 16482 
2285 2319 1988 2318 16480 16478 16245 16474 16482 16476 
2286 1988 2319 1989 16250 16478 16481 16252 14342 16483 
2319 1988 2022 1989 16478 14567 16479 16483 14342 14568 
1989 2022 2320 2023 14568 16484 16485 14574 14576 16486 
2286 2320 2287 1989 16487 16488 16262 16252 16485 16257 
1989 2022 2319 2320 14568 16479 16483 16485 16484 16489 
2286 2320 1989 2319 16487 16485 16252 16481 16489 16483 
2287 1989 2320 1990 16257 16485 16488 16259 14349 16490 
2320 1989 2023 1990 16485 14574 16486 16490 14349 14575 
1990 2023 2321 2024 14575 16491 16492 14581 14583 16493 
2287 2321 2288 1990 16494 16495 16269 16259 16492 16264 
1990 2023 2320 2321 14575 16486 16490 16492 16491 16496 
2287 2321 1990 2320 16494 16492 16259 16488 16496 16490 
2288 1990 2321 1991 16264 16492 16495 16266 14356 16497 
2321 1990 2024 1991 16492 14581 16493 16497 14356 14582 
1991 2024 2322 2025 14582 16498 16499 14588 14590 16500 
2288 2322 2289 1991 16501 16502 16276 16266 16499 16271 
1991 2024 2321 2322 14582 16493 16497 16499 16498 16503 
2288 2322 1991 2321 16501 16499 16266 16495 16503 16497 
2289 1991 2322 1992 16271 16499 16502 16273 14363 16504 
2322 1991 2025 1992 16499 14588 16500 16504 14363 14589 
1992 2025 2323 2026 14589 16505 16506 14595 14597 16507 
2289 2323 2290 1992 16508 16509 16283 16273 16506 16278 
1992 2025 2322 2323 14589 16500 16504 16506 16505 16510 
2289 2323 1992 2322 16508 16506 16273 16502 16510 16504 
2290 1992 2323 1993 16278 16506 16509 16280 14370 16511 
2323 1992 2026 1993 16506 14595 16507 16511 14370 14596 
1993 2026 2324 2027 14596 16512 16513 14602 14604 16514 
2290 2324 2291 1993 16515 16516 16290 16280 16513 16285 
1993 2026 2323 2324 14596 16507 16511 16513 16512 16517 
2290 2324 1993 2323 16515 16513 16280 16509 16517 16511 
2291 1993 2324 1994 16285 16513 16516 16287 14377 16518 
2324 1993 2027 1994 16513 14602 16514 16518 14377 14603 
1994 2027 2325 2028 14603 16519 16520 14609 14611 16521 
2291 2325 2292 1994 16522 16523 16297 16287 16520 16292 
1994 2027 2324 2325 14603 16514 16518 16520 16519 16524 
2291 2325 1994 2324 16522 16520 16287 16516 16524 16518 
2292 1994 2325 1995 16292 16520 16523 16294 14384 16525 
2325 1994 2028 1995 16520 14609 16521 16525 14384 14610 
1995 2028 2326 2029 14610 16526 16527 14616 14618 16528 
2292 2326 2293 1995 16529 16530 16304 16294 16527 16299 
1995 2028 2325 2326 14610 16521 16525 16527 16526 16531 
2292 2326 1995 2325 16529 16527 16294 16523 16531 16525 
2293 1995 2326 1996 16299 16527 16530 16301 14391 16532 
2326 1995 2029 1996 16527 14616 16528 16532 14391 14617 
1996 2029 2327 2030 14617 16533 16534 14623 14625 16535 
2293 2327 2294 1996 16536 16537 16311 16301 16534 16306 
1996 2029 2326 2327 14617 16528 16532 16534 16533 16538 
2293 2327 1996 2326 16536 16534 16301 16530 16538 16532 
2294 1996 2327 1997 16306 16534 16537 16308 14398 16539 
2327 1996 2030 1997 16534 14623 16535 16539 14398 14624 
1997 2030 2328 2031 14624 16540 16541 14630 14632 16542 
2294 2328 2295 1997 16543 16544 16318 16308 16541 16313 
1997 2030 2327 2328 14624 16535 16539 16541 16540 16545 
2294 2328 1997 2327 16543 16541 16308 16537 16545 16539 
2295 1997 2328 1998 16313 16541 16544 16315 14405 16546 
2328 1997 2031 1998 16541 14630 16542 16546 14405 14631 
1998 2031 2329 2032 14631 16547 16548 14637 14639 16549 
2295 2329 2296 1998 16550 16551 16325 16315 16548 16320 
1998 2031 2328 2329 14631 16542 16546 16548 16547 16552 
2295 2329 1998 2328 16550 16548 16315 16544 16552 16546 
2296 1998 2329 1999 16320 16548 16551 16322 14412 16553 
2329 1998 2032 1999 16548 14637 16549 16553 14412 14638 
1999 2032 2330 2033 14638 16554 16555 14644 14646 16556 
2296 2330 2297 1999 16557 16558 16332 16322 16555 16327 
1999 2032 2329 2330 14638 16549 16553 16555 16554 16559 
2296 2330 1999 2329 16557 16555 16322 16551 16559 16553 
2297 1999 2330 2000 16327 16555 16558 16329 14419 16560 
2330 1999 2033 2000 16555 14644 16556 16560 14419 14645 
2000 2033 2331 2034 14645 16561 16562 14651 14653 16563 
2297 2331 2298 2000 16564 16565 16339 16329 16562 16334 
2000 2033 2330 2331 14645 16556 16560 16562 16561 16566 
2297 2331 2000 2330 16564 16562 16329 16558 16566 16560 
2298 2000 2331 2001 16334 16562 16565 16336 14426 16567 
2331 2000 2034 2001 16562 14651 16563 16567 14426 14652 
2001 2034 2332 2035 14652 16568 16569 14658 14660 16570 
2298 2332 2299 2001 16571 16572 16346 16336 16569 16341 
2001 2034 2331 2332 14652 16563 16567 16569 16568 16573 
2298 2332 2001 2331 16571 16569 16336 16565 16573 16567 
2299 2001 2332 2002 16341 16569 16572 16343 14433 16574 
2332 2001 2035 2002 16569 14658 16570 16574 14433 14659 
2002 2035 2333 2036 14659 16575 16576 14665 14667 16577 
2299 2333 2300 2002 16578 16579 16353 16343 16576 16348 
2002 2035 2332 2333 14659 16570 16574 16576 16575 16580 
2299 2333 2002 2332 16578 16576 16343 16572 16580 16574 
2300 2002 2333 2003 16348 16576 16579 16350 14440 16581 
2333 2002 2036 2003 16576 14665 16577 16581 14440 14666 
2003 2036 2334 2037 14666 16582 16583 14672 14674 16584 
2300 2334 2301 2003 16585 16586 16360 16350 16583 16355 
2003 2036 2333 2334 14666 16577 16581 16583 16582 16587 
2300 2334 2003 2333 16585 16583 16350 16579 16587 16581 
2301 2003 2334 2004 16355 16583 16586 16357 14447 16588 
2334 2003 2037 2004 16583 14672 16584 16588 14447 14673 
2004 2037 2335 2038 14673 16589 16590 14679 14681 16591 
2301 2335 2302 2004 16592 16593 16367 16357 16590 16362 
2004 2037 2334 2335 14673 16584 16588 16590 16589 16594 
2301 2335 2004 2334 16592 16590 16357 16586 16594 16588 
2302 2004 2335 2005 16362 16590 16593 16364 14454 16595 
2335 2004 2038 2005 16590 14679 16591 16595 14454 14680 
2005 2038 2336 2039 14680 16596 16597 14686 14688 16598 
2302 2336 2303 2005 16599 16600 16374 16364 16597 16369 
2005 2038 2335 2336 14680 16591 16595 16597 16596 16601 
2302 2336 2005 2335 16599 16597 16364 16593 16601 16595 
2303 2005 2336 2006 16369 16597 16600 16371 14461 16602 
2336 2005 2039 2006 16597 14686 16598 16602 14461 14687 
2006 2039 2337 2040 14687 16603 16604 14693 14695 16605 
2303 2337 2304 2006 16606 16607 16381 16371 16604 16376 
2006 2039 2336 2337 14687 16598 16602 16604 16603 16608 
2303 2337 2006 2336 16606 16604 16371 16600 16608 16602 
2304 2006 2337 2007 16376 16604 16607 16378 14468 16609 
2337 2006 2040 2007 16604 14693 16605 16609 14468 14694 
2007 2040 2338 2041 14694 16610 16611 14700 14702 16612 
2304 2338 2305 2007 16613 16614 16388 16378 16611 16383 
2007 2040 2337 2338 14694 16605 16609 16611 16610 16615 
2304 2338 2007 2337 16613 16611 16378 16607 16615 16609 
2305 2007 2338 2008 16383 16611 16614 16385 14475 16616 
2338 2007 2041 2008 16611 14700 16612 16616 14475 14701 
2008 2041 2339 2042 14701 16617 16618 14707 14709 16619 
2305 2339 2306 2008 16620 16621 16395 16385 16618 16390 
2008 2041 2338 2339 14701 16612 16616 16618 16617 16622 
2305 2339 2008 2338 16620 16618 16385 16614 16622 16616 
2306 2008 2339 2009 16390 16618 16621 16392 14482 16623 
2339 2008 2042 2009 16618 14707 16619 16623 14482 14708 
2009 2042 2340 2043 14708 16624 16625 14714 14716 16626 
2306 2340 2307 2009 16627 16628 16402 16392 16625 16397 
2009 2042 2339 2340 14708 16619 16623 16625 16624 16629 
2306 2340 2009 2339 16627 16625 16392 16621 16629 16623 
2307 2009 2340 2010 16397 16625 16628 16399 14489 16630 
2340 2009 2043 2010 16625 14714 16626 16630 14489 14715 
2010 2043 2341 2044 14715 16631 16632 14721 14723 16633 
2307 2341 2308 2010 16634 16635 16409 16399 16632 16404 
2010 2043 2340 2341 14715 16626 16630 16632 16631 16636 
2307 2341 2010 2340 16634 16632 16399 16628 16636 16630 
2308 2010 2341 2011 16404 16632 16635 16406 14496 16637 
2341 2010 2044 2011 16632 14721 16633 16637 14496 14722 
2011 2044 2342 2045 14722 16638 16639 14728 14730 16640 
2308 2342 2309 2011 16641 16642 16416 16406 16639 16411 
2011 2044 2341 2342 14722 16633 16637 16639 16638 16643 
2308 2342 2011 2341 16641 16639 16406 16635 16643 16637 
2309 2011 2342 2012 16411 16639 16642 16413 14503 16644 
2342 2011 2045 2012 16639 14728 16640 16644 14503 14729 
2013 2046 2344 2047 14740 16645 16646 14735 14739 16647 
2310 2344 2311 2013 16648 16649 16425 16423 16646 16418 
2013 2046 2343 2344 14740 16650 16651 16646 16645 16652 
2310 2344 2013 2343 16648 16646 16423 16653 16652 16651 
2311 2013 2344 2014 16418 16646 16649 16420 14512 16654 
2344 2013 2047 2014 16646 14735 16647 16654 14512 14736 
2014 2047 2345 2048 14736 16655 16656 14745 14747 16657 
2311 2345 2312 2014 16658 16659 16433 16420 16656 16428 
2014 2047 2344 2345 14736 16647 16654 16656 16655 16660 
2311 2345 2014 2344 16658 16656 16420 16649 16660 16654 
2312 2014 2345 2015 16428 16656 16659 16430 14520 16661 
2345 2014 2048 2015 16656 14745 16657 16661 14520 14746 
2015 2048 2346 2049 14746 16662 16663 14752 14754 16664 
2312 2346 2313 2015 16665 16666 16440 16430 16663 16435 
2015 2048 2345 2346 14746 16657 16661 16663 16662 16667 
2312 2346 2015 2345 16665 16663 16430 16659 16667 16661 
2313 2015 2346 2016 16435 16663 16666 16437 14527 16668 
2346 2015 2049 2016 16663 14752 16664 16668 14527 14753 
2016 2049 2347 2050 14753 16669 16670 14759 14761 16671 
2313 2347 2314 2016 16672 16673 16447 16437 16670 16442 
2016 2049 2346 2347 14753 16664 16668 16670 16669 16674 
2313 2347 2016 2346 16672 16670 16437 16666 16674 16668 
2314 2016 2347 2017 16442 16670 16673 16444 14534 16675 
2347 2016 2050 2017 16670 14759 16671 16675 14534 14760 
2017 2050 2348 2051 14760 16676 16677 14766 14768 16678 
2314 2348 2315 2017 16679 16680 16454 16444 16677 16449 
2017 2050 2347 2348 14760 16671 16675 16677 16676 16681 
2314 2348 2017 2347 16679 16677 16444 16673 16681 16675 
2315 2017 2348 2018 16449 16677 16680 16451 14541 16682 
2348 2017 2051 2018 16677 14766 16678 16682 14541 14767 
2018 2051 2349 2052 14767 16683 16684 14773 14775 16685 
2315 2349 2316 2018 16686 16687 16461 16451 16684 16456 
2018 2051 2348 2349 14767 16678 16682 16684 16683 16688 
2315 2349 2018 2348 16686 16684 16451 16680 16688 16682 
2316 2018 2349 2019 16456 16684 16687 16458 14548 16689 
2349 2018 2052 2019 16684 14773 16685 16689 14548 14774 
2019 2052 2350 2053 14774 16690 16691 14780 14782 16692 
2316 2350 2317 2019 16693 16694 16468 16458 16691 16463 
2019 2052 2349 2350 14774 16685 16689 16691 16690 16695 
2316 2350 2019 2349 16693 16691 16458 16687 16695 16689 
2317 2019 2350 2020 16463 16691 16694 16465 14555 16696 
2350 2019 2053 2020 16691 14780 16692 16696 14555 14781 
2020 2053 2351 2054 14781 16697 16698 14787 14789 16699 
2317 2351 2318 2020 16700 16701 16475 16465 16698 16470 
2020 2053 2350 2351 14781 16692 16696 16698 16697 16702 
2317 2351 2020 2350 16700 16698 16465 16694 16702 16696 
2318 2020 2351 2021 16470 16698 16701 16472 14562 16703 
2351 2020 2054 2021 16698 14787 16699 16703 14562 14788 
2021 2054 2352 2055 14788 16704 16705 14794 14796 16706 
2318 2352 2319 2021 16707 16708 16482 16472 16705 16477 
2021 2054 2351 2352 14788 16699 16703 16705 16704 16709 
2318 2352 2021 2351 16707 16705 16472 16701 16709 16703 
2319 2021 2352 2022 16477 16705 16708 16479 14569 16710 
2352 2021 2055 2022 16705 14794 16706 16710 14569 14795 
2022 2055 2353 2056 14795 16711 16712 14801 14803 16713 
2319 2353 2320 2022 16714 16715 16489 16479 16712 16484 
2022 2055 2352 2353 14795 16706 16710 16712 16711 16716 
2319 2353 2022 2352 16714 16712 16479 16708 16716 16710 
2320 2022 2353 2023 16484 16712 16715 16486 14576 16717 
2353 2022 2056 2023 16712 14801 16713 16717 14576 14802 
2023 2056 2354 2057 14802 16718 16719 14808 14810 16720 
2320 2354 2321 2023 16721 16722 16496 16486 16719 16491 
2023 2056 2353 2354 14802 16713 16717 16719 16718 16723 
2320 2354 2023 2353 16721 16719 16486 16715 16723 16717 
2321 2023 2354 2024 16491 16719 16722 16493 14583 16724 
2354 2023 2057 2024 16719 14808 16720 16724 14583 14809 
2024 2057 2355 2058 14809 16725 16726 14815 14817 16727 
2321 2355 2322 2024 16728 16729 16503 16493 16726 16498 
2024 2057 2354 2355 14809 16720 16724 16726 16725 16730 
2321 2355 2024 2354 16728 16726 16493 16722 16730 16724 
2322 2024 2355 2025 16498 16726 16729 16500 14590 16731 
2355 2024 2058 2025 16726 14815 16727 16731 14590 14816 
2025 2058 2356 2059 14816 16732 16733 14822 14824 16734 
2322 2356 2323 2025 16735 16736 16510 16500 16733 16505 
2025 2058 2355 2356 14816 16727 16731 16733 16732 16737 
2322 2356 2025 2355 16735 16733 16500 16729 16737 16731 
2323 2025 2356 2026 16505 16733 16736 16507 14597 16738 
2356 2025 2059 2026 16733 14822 16734 16738 14597 14823 
2026 2059 2357 2060 14823 16739 16740 14829 14831 16741 
2323 2357 2324 2026 16742 16743 16517 16507 16740 16512 
2026 2059 2356 2357 14823 16734 16738 16740 16739 16744 
2323 2357 2026 2356 16742 16740 16507 16736 16744 16738 
2324 2026 2357 2027 16512 16740 16743 16514 14604 16745 
2357 2026 2060 2027 16740 14829 16741 16745 14604 14830 
2027 2060 2358 2061 14830 16746 16747 14836 14838 16748 
2324 2358 2325 2027 16749 16750 16524 16514 16747 16519 
2027 2060 2357 2358 14830 16741 16745 16747 16746 16751 
2324 2358 2027 2357 16749 16747 16514 16743 16751 16745 
2325 2027 2358 2028 16519 16747 16750 16521 14611 16752 
2358 2027 2061 2028 16747 14836 16748 16752 14611 14837 
2028 2061 2359 2062 14837 16753 16754 14843 14845 16755 
2325 2359 2326 2028 16756 16757 16531 16521 16754 16526 
2028 2061 2358 2359 14837 16748 16752 16754 16753 16758 
2325 2359 2028 2358 16756 16754 16521 16750 16758 16752 
2326 2028 2359 2029 16526 16754 16757 16528 14618 16759 
2359 2028 2062 2029 16754 14843 16755 16759 14618 14844 
2029 2062 2360 2063 14844 16760 16761 14850 14852 16762 
2326 2360 2327 2029 16763 16764 16538 16528 16761 16533 
2029 2062 2359 2360 14844 16755 16759 16761 16760 16765 
2326 2360 2029 2359 16763 16761 16528 16757 16765 16759 
2327 2029 2360 2030 16533 16761 16764 16535 14625 16766 
2360 2029 2063 2030 16761 14850 16762 16766 14625 14851 
2030 2063 2361 2064 14851 16767 16768 14857 14859 16769 
2327 2361 2328 2030 16770 16771 16545 16535 16768 16540 
2030 2063 2360 2361 14851 16762 16766 16768 16767 16772 
2327 2361 2030 2360 16770 16768 16535 16764 16772 16766 
2328 2030 2361 2031 16540 16768 16771 16542 14632 16773 
2361 2030 2064 2031 16768 14857 16769 16773 14632 14858 
2031 2064 2362 2065 14858 16774 16775 14864 14866 16776 
2328 2362 2329 2031 16777 16778 16552 16542 16775 16547 
2031 2064 2361 2362 14858 16769 16773 16775 16774 16779 
2328 2362 2031 2361 16777 16775 16542 16771 16779 16773 
2329 2031 2362 2032 16547 16775 16778 16549 14639 16780 
2362 2031 2065 2032 16775 14864 16776 16780 14639 14865 
2032 2065 2363 2066 14865 16781 16782 14871 14873 16783 
2329 2363 2330 2032 16784 16785 16559 16549 16782 16554 
2032 2065 2362 2363 14865 16776 16780 16782 16781 16786 
2329 2363 2032 2362 16784 16782 16549 16778 16786 16780 
2330 2032 2363 2033 16554 16782 16785 16556 14646 16787 
2363 2032 2066 2033 16782 14871 16783 16787 14646 14872 
2033 2066 2364 2067 14872 16788 16789 14878 14880 16790 
2330 2364 2331 2033 16791 16792 16566 16556 16789 16561 
2033 2066 2363 2364 14872 16783 16787 16789 16788 16793 
2330 2364 2033 2363 16791 16789 16556 16785 16793 16787 
2331 2033 2364 2034 16561 16789 16792 16563 14653 16794 
2364 2033 2067 2034 16789 14878 16790 16794 14653 14879 
2034 2067 2365 2068 14879 16795 16796 14885 14887 16797 
2331 2365 2332 2034 16798 16799 16573 16563 16796 16568 
2034 2067 2364 2365 14879 16790 16794 16796 16795 16800 
2331 2365 2034 2364 16798 16796 16563 16792 16800 16794 
2332 2034 2365 2035 16568 16796 16799 16570 14660 16801 
2365 2034 2068 2035 16796 14885 16797 16801 14660 14886 
2035 2068 2366 2069 14886 16802 16803 14892 14894 16804 
2332 2366 2333 2035 16805 16806 16580 16570 16803 16575 
2035 2068 2365 2366 14886 16797 16801 16803 16802 16807 
2332 2366 2035 2365 16805 16803 16570 16799 16807 16801 
2333 2035 2366 2036 16575 16803 16806 16577 14667 16808 
2366 2035 2069 2036 16803 14892 16804 16808 14667 14893 
2036 2069 2367 2070 14893 16809 16810 14899 14901 16811 
2333 2367 2334 2036 16812 16813 16587 16577 16810 16582 
2036 2069 2366 2367 14893 16804 16808 16810 16809 16814 
2333 2367 2036 2366 16812 16810 16577 16806 16814 16808 
2334 2036 2367 2037 16582 16810 16813 16584 14674 16815 
2367 2036 2070 2037 16810 14899 16811 16815 14674 14900 
2037 2070 2368 2071 14900 16816 16817 14906 14908 16818 
2334 2368 2335 2037 16819 16820 16594 16584 16817 16589 
2037 2070 2367 2368 14900 16811 16815 16817 16816 16821 
2334 2368 2037 2367 16819 16817 16584 16813 16821 16815 
2335 2037 2368 2038 16589 16817 16820 16591 14681 16822 
2368 2037 2071 2038 16817 14906 16818 16822 14681 14907 
2038 2071 2369 2072 14907 16823 16824 14913 14915 16825 
2335 2369 2336 2038 16826 16827 16601 16591 16824 16596 
2038 2071 2368 2369 14907 16818 16822 16824 16823 16828 
2335 2369 2038 2368 16826 16824 16591 16820 16828 16822 
2336 2038 2369 2039 16596 16824 16827 16598 14688 16829 
2369 2038 2072 2039 16824 14913 16825 16829 14688 14914 
2039 2072 2370 2073 14914 16830 16831 14920 14922 16832 
2336 2370 2337 2039 16833 16834 16608 16598 16831 16603 
2039 2072 2369 2370 14914 16825 16829 16831 16830 16835 
2336 2370 2039 2369 16833 16831 16598 16827 16835 16829 
2337 2039 2370 2040 16603 16831 16834 16605 14695 16836 
2370 2039 2073 2040 16831 14920 16832 16836 14695 14921 
2040 2073 2371 2074 14921 16837 16838 14927 14929 16839 
2337 2371 2338 2040 16840 16841 16615 16605 16838 16610 
2040 2073 2370 2371 14921 16832 16836 16838 16837 16842 
2337 2371 2040 2370 16840 16838 16605 16834 16842 16836 
2338 2040 2371 2041 16610 16838 16841 16612 14702 16843 
2371 2040 2074 2041 16838 14927 16839 16843 14702 14928 
2041 2074 2372 2075 14928 16844 16845 14934 14936 16846 
2338 2372 2339 2041 16847 16848 16622 16612 16845 16617 
2041 2074 2371 2372 14928 16839 16843 16845 16844 16849 
2338 2372 2041 2371 16847 16845 16612 16841 16849 16843 
2339 2041 2372 2042 16617 16845 16848 16619 14709 16850 
2372 2041 2075 2042 16845 14934 16846 16850 14709 14935 
2042 2075 2373 2076 14935 16851 16852 14941 14943 16853 
2339 2373 2340 2042 16854 16855 16629 16619 16852 16624 
2042 2075 2372 2373 14935 16846 16850 16852 16851 16856 
2339 2373 2042 2372 16854 16852 16619 16848 16856 16850 
2340 2042 2373 2043 16624 16852 16855 16626 14716 16857 
2373 2042 2076 2043 16852 14941 16853 16857 14716 14942 
2043 2076 2374 2077 14942 16858 16859 14948 14950 16860 
2340 2374 2341 2043 16861 16862 16636 16626 16859 16631 
2043 2076 2373 2374 14942 16853 16857 16859 16858 16863 
2340 2374 2043 2373 16861 16859 16626 16855 16863 16857 
2341 2043 2374 2044 16631 16859 16862 16633 14723 16864 
2374 2043 2077 2044 16859 14948 16860 16864 14723 14949 
2044 2077 2375 2078 14949 16865 16866 14955 14957 16867 
2341 2375 2342 2044 16868 16869 16643 16633 16866 16638 
2044 2077 2374 2375 14949 16860 16864 16866 16865 16870 
2341 2375 2044 2374 16868 16866 16633 16862 16870 16864 
2342 2044 2375 2045 16638 16866 16869 16640 14730 16871 
2375 2044 2078 2045 16866 14955 16867 16871 14730 14956 
2079 2112 2410 2113 14970 16872 16873 14962 14969 16874 
2376 2410 2377 2079 16875 16876 16877 16878 16873 16879 
2079 2112 2409 2410 14970 16880 16881 16873 16872 16882 
2376 2410 2079 2409 16875 16873 16878 16883 16882 16881 
2377 2079 2410 2080 16879 16873 16876 16884 14964 16885 
2410 2079 2113 2080 16873 14962 16874 16885 14964 14963 
2080 2113 2411 2114 14963 16886 16887 14976 14980 16888 
2377 2411 2378 2080 16889 16890 16891 16884 16887 16892 
2080 2113 2410 2411 14963 16874 16885 16887 16886 16893 
2377 2411 2080 2410 16889 16887 16884 16876 16893 16885 
2378 2080 2411 2081 16892 16887 16890 16894 14978 16895 
2411 2080 2114 2081 16887 14976 16888 16895 14978 14977 
2081 2114 2412 2115 14977 16896 16897 14986 14990 16898 
2378 2412 2379 2081 16899 16900 16901 16894 16897 16902 
2081 2114 2411 2412 14977 16888 16895 16897 16896 16903 
2378 2412 2081 2411 16899 16897 16894 16890 16903 16895 
2379 2081 2412 2082 16902 16897 16900 16904 14988 16905 
2412 2081 2115 2082 16897 14986 16898 16905 14988 14987 
2082 2115 2413 2116 14987 16906 16907 14996 15000 16908 
2379 2413 2380 2082 16909 16910 16911 16904 16907 16912 
2082 2115 2412 2413 14987 16898 16905 16907 16906 16913 
2379 2413 2082 2412 16909 16907 16904 16900 16913 16905 
2380 2082 2413 2083 16912 16907 16910 16914 14998 16915 
2413 2082 2116 2083 16907 14996 16908 16915 14998 14997 
2083 2116 2414 2117 14997 16916 16917 15006 15010 16918 
2380 2414 2381 2083 16919 16920 16921 16914 16917 16922 
2083 2116 2413 2414 14997 16908 16915 16917 16916 16923 
2380 2414 2083 2413 16919 16917 16914 16910 16923 16915 
2381 2083 2414 2084 16922 16917 16920 16924 15008 16925 
2414 2083 2117 2084 16917 15006 16918 16925 15008 15007 
2084 2117 2415 2118 15007 16926 16927 15016 15020 16928 
2381 2415 2382 2084 16929 16930 16931 16924 16927 16932 
2084 2117 2414 2415 15007 16918 16925 16927 16926 16933 
2381 2415 2084 2414 16929 16927 16924 16920 16933 16925 
2382 2084 2415 2085 16932 16927 16930 16934 15018 16935 
2415 2084 2118 2085 16927 15016 16928 16935 15018 15017 
2085 2118 2416 2119 15017 16936 16937 15026 15030 16938 
2382 2416 2383 2085 16939 16940 16941 16934 16937 16942 
2085 2118 2415 2416 15017 16928 16935 16937 16936 16943 
2382 2416 2085 2415 16939 16937 16934 16930 16943 16935 
2383 2085 2416 2086 16942 16937 16940 16944 15028 16945 
2416 2085 2119 2086 16937 15026 16938 16945 15028 15027 
2086 2119 2417 2120 15027 16946 16947 15036 15040 16948 
2383 2417 2384 2086 16949 16950 16951 16944 16947 16952 
2086 2119 2416 2417 15027 16938 16945 16947 16946 16953 
2383 2417 2086 2416 16949 16947 16944 16940 16953 16945 
2384 2086 2417 2087 16952 16947 16950 16954 15038 16955 
2417 2086 2120 2087 16947 15036 16948 16955 15038 15037 
2087 2120 2418 2121 15037 16956 16957 15046 15050 16958 
2384 2418 2385 2087 16959 16960 16961 16954 16957 16962 
2087 2120 2417 2418 15037 16948 16955 16957 16956 16963 
2384 2418 2087 2417 16959 16957 16954 16950 16963 16955 
2385 2087 2418 2088 16962 16957 16960 16964 15048 16965 
2418 2087 2121 2088 16957 15046 16958 16965 15048 15047 
2088 2121 2419 2122 15047 16966 16967 15056 15060 16968 
2385 2419 2386 2088 16969 16970 16971 16964 16967 16972 
2088 2121 2418 2419 15047 16958 16965 16967 16966 16973 
2385 2419 2088 2418 16969 16967 16964 16960 16973 16965 
2386 2088 2419 2089 16972 16967 16970 16974 15058 16975 
2419 2088 2122 2089 16967 15056 16968 16975 15058 15057 
2089 2122 2420 2123 15057 16976 16977 15066 15070 16978 
2386 2420 2387 2089 16979 16980 16981 16974 16977 16982 
2089 2122 2419 2420 15057 16968 16975 16977 16976 16983 
2386 2420 2089 2419 16979 16977 16974 16970 16983 16975 
2387 2089 2420 2090 16982 16977 16980 16984 15068 16985 
2420 2089 2123 2090 16977 15066 16978 16985 15068 15067 
2090 2123 2421 2124 15067 16986 16987 15076 15080 16988 
2387 2421 2388 2090 16989 16990 16991 16984 16987 16992 
2090 2123 2420 2421 15067 16978 16985 16987 16986 16993 
2387 2421 2090 2420 16989 16987 16984 16980 16993 16985 
2388 2090 2421 2091 16992 16987 16990 16994 15078 16995 
2421 2090 2124 2091 16987 15076 16988 16995 15078 15077 
2091 2124 2422 2125 15077 16996 16997 15086 15090 16998 
2388 2422 2389 2091 16999 17000 17001 16994 16997 17002 
2091 2124 2421 2422 15077 16988 16995 16997 16996 17003 
2388 2422 2091 2421 16999 16997 16994 16990 17003 16995 
2389 2091 2422 2092 17002 16997 17000 17004 15088 17005 
2422 2091 2125 2092 16997 15086 16998 17005 15088 15087 
2092 2125 2423 2126 15087 17006 17007 15096 15100 17008 
2389 2423 2390 2092 17009 17010 17011 17004 17007 17012 
2092 2125 2422 2423 15087 16998 17005 17007 17006 17013 
2389 2423 2092 2422 17009 17007 17004 17000 17013 17005 
2390 2092 2423 2093 17012 17007 17010 17014 15098 17015 
2423 2092 2126 2093 17007 15096 17008 17015 15098 15097 
2093 2126 2424 2127 15097 17016 17017 15106 15110 17018 
2390 2424 2391 2093 17019 17020 17021 17014 17017 17022 
2093 2126 2423 2424 15097 17008 17015 17017 17016 17023 
2390 2424 2093 2423 17019 17017 17014 17010 17023 17015 
2391 2093 2424 2094 17022 17017 17020 17024 15108 17025 
2424 2093 2127 2094 17017 15106 17018 17025 15108 15107 
2094 2127 2425 2128 15107 17026 17027 15116 15120 17028 
2391 2425 2392 2094 17029 17030 17031 17024 17027 17032 
2094 2127 2424 2425 15107 17018 17025 17027 17026 17033 
2391 2425 2094 2424 17029 17027 17024 17020 17033 17025 
2392 2094 2425 2095 17032 17027 17030 17034 15118 17035 
2425 2094 2128 2095 17027 15116 17028 17035 15118 15117 
2095 2128 2426 2129 15117 17036 17037 15126 15130 17038 
2392 2426 2393 2095 17039 17040 17041 17034 17037 17042 
2095 2128 2425 2426 15117 17028 17035 17037 17036 17043 
2392 2426 2095 2425 17039 17037 17034 17030 17043 17035 
2393 2095 2426 2096 17042 17037 17040 17044 15128 17045 
2426 2095 2129 2096 17037 15126 17038 17045 15128 15127 
2096 2129 2427 2130 15127 17046 17047 15136 15140 17048 
2393 2427 2394 2096 17049 17050 17051 17044 17047 17052 
2096 2129 2426 2427 15127 17038 17045 17047 17046 17053 
2393 2427 2096 2426 17049 17047 17044 17040 17053 17045 
2394 2096 2427 2097 17052 17047 17050 17054 15138 17055 
2427 2096 2130 2097 17047 15136 17048 17055 15138 15137 
2097 2130 2428 2131 15137 17056 17057 15146 15150 17058 
2394 2428 2395 2097 17059 17060 17061 17054 17057 17062 
2097 2130 2427 2428 15137 17048 17055 17057 17056 17063 
2394 2428 2097 2427 17059 17057 17054 17050 17063 17055 
2395 2097 2428 2098 17062 17057 17060 17064 15148 17065 
2428 2097 2131 2098 17057 15146 17058 17065 15148 15147 
2098 2131 2429 2132 15147 17066 17067 15156 15160 17068 
2395 2429 2396 2098 17069 17070 17071 17064 17067 17072 
2098 2131 2428 2429 15147 17058 17065 17067 17066 17073 
2395 2429 2098 2428 17069 17067 17064 17060 17073 17065 
2396 2098 2429 2099 17072 17067 17070 17074 15158 17075 
2429 2098 2132 2099 17067 15156 17068 17075 15158 15157 
2099 2132 2430 2133 15157 17076 17077 15166 15170 17078 
2396 2430 2397 2099 17079 17080 17081 17074 17077 17082 
2099 2132 2429 2430 15157 17068 17075 17077 17076 17083 
2396 2430 2099 2429 17079 17077 17074 17070 17083 17075 
2397 2099 2430 2100 17082 17077 17080 17084 15168 17085 
2430 2099 2133 2100 17077 15166 17078 17085 15168 15167 
2100 2133 2431 2134 15167 17086 17087 15176 15180 17088 
2397 2431 2398 2100 17089 17090 17091 17084 17087 17092 
2100 2133 2430 2431 15167 17078 17085 17087 17086 17093 
2397 2431 2100 2430 17089 17087 17084 17080 17093 17085 
2398 2100 2431 2101 17092 17087 17090 17094 15178 17095 
2431 2100 2134 2101 17087 15176 17088 17095 15178 15177 
2101 2134 2432 2135 15177 17096 17097 15186 15190 17098 
2398 2432 2399 2101 17099 17100 17101 17094 17097 17102 
2101 2134 2431 2432 15177 17088 17095 17097 17096 17103 
2398 2432 2101 2431 17099 17097 17094 17090 17103 17095 
2399 2101 2432 2102 17102 17097 17100 17104 15188 17105 
2432 2101 2135 2102 17097 15186 17098 17105 15188 15187 
2102 2135 2433 2136 15187 17106 17107 15196 15200 17108 
2399 2433 2400 2102 17109 17110 17111 17104 17107 17112 
2102 2135 2432 2433 15187 17098 17105 17107 17106 17113 
2399 2433 2102 2432 17109 17107 17104 17100 17113 17105 
2400 2102 2433 2103 17112 17107 17110 17114 15198 17115 
2433 2102 2136 2103 17107 15196 17108 17115 15198 15197 
2103 2136 2434 2137 15197 17116 17117 15206 15210 17118 
2400 2434 2401 2103 17119 17120 17121 17114 17117 17122 
2103 2136 2433 2434 15197 17108 17115 17117 17116 17123 
2400 2434 2103 2433 17119 17117 17114 17110 17123 17115 
2401 2103 2434 2104 17122 17117 17120 17124 15208 17125 
2434 2103 2137 2104 17117 15206 17118 17125 15208 15207 
2104 2137 2435 2138 15207 17126 17127 15216 15220 17128 
2401 2435 2402 2104 17129 17130 17131 17124 17127 17132 
2104 2137 2434 2435 15207 17118 17125 17127 17126 17133 
2401 2435 2104 2434 17129 17127 17124 17120 17133 17125 
2402 2104 2435 2105 17132 17127 17130 17134 15218 17135 
2435 2104 2138 2105 17127 15216 17128 17135 15218 15217 
2105 2138 2436 2139 15217 17136 17137 15226 15230 17138 
2402 2436 2403 2105 17139 17140 17141 17134 17137 17142 
2105 2138 2435 2436 15217 17128 17135 17137 17136 17143 
2402 2436 2105 2435 17139 17137 17134 17130 17143 17135 
2403 2105 2436 2106 17142 17137 17140 17144 15228 17145 
2436 2105 2139 2106 17137 15226 17138 17145 15228 15227 
2106 2139 2437 2140 15227 17146 17147 15236 15240 17148 
2403 2437 2404 2106 17149 17150 17151 17144 17147 17152 
2106 2139 2436 2437 15227 17138 17145 17147 17146 17153 
2403 2437 2106 2436 17149 17147 17144 17140 17153 17145 
2404 2106 2437 2107 17152 17147 17150 17154 15238 17155 
2437 2106 2140 2107 17147 15236 17148 17155 15238 15237 
2107 2140 2438 2141 15237 17156 17157 15246 15250 17158 
2404 2438 2405 2107 17159 17160 17161 17154 17157 17162 
2107 2140 2437 2438 15237 17148 17155 17157 17156 17163 
2404 2438 2107 2437 17159 17157 17154 17150 17163 17155 
2405 2107 2438 2108 17162 17157 17160 17164 15248 17165 
2438 2107 2141 2108 17157 15246 17158 17165 15248 15247 
2108 2141 2439 2142 15247 17166 17167 15256 15260 17168 
2405 2439 2406 2108 17169 17170 17171 17164 17167 17172 
2108 2141 2438 2439 15247 17158 17165 17167 17166 17173 
2405 2439 2108 2438 17169 17167 17164 17160 17173 17165 
2406 2108 2439 2109 17172 17167 17170 17174 15258 17175 
2439 2108 2142 2109 17167 15256 17168 17175 15258 15257 
2109 2142 2440 2143 15257 17176 17177 15266 15270 17178 
2406 2440 2407 2109 17179 17180 17181 17174 17177 17182 
2109 2142 2439 2440 15257 17168 17175 17177 17176 17183 
2406 2440 2109 2439 17179 17177 17174 17170 17183 17175 
2407 2109 2440 2110 17182 17177 17180 17184 15268 17185 
2440 2109 2143 2110 17177 15266 17178 17185 15268 15267 
2110 2143 2441 2144 15267 17186 17187 15276 15280 17188 
2407 2441 2408 2110 17189 17190 17191 17184 17187 17192 
2110 2143 2440 2441 15267 17178 17185 17187 17186 17193 
2407 2441 2110 2440 17189 17187 17184 17180 17193 17185 
2408 2110 2441 2111 17192 17187 17190 17194 15278 17195 
2441 2110 2144 2111 17187 15276 17188 17195 15278 15277 
2112 2145 2443 2146 15291 17196 17197 15286 15290 17198 
2409 2443 2410 2112 17199 17200 16882 16880 17197 16872 
2112 2145 2442 2443 15291 17201 17202 17197 17196 17203 
2409 2443 2112 2442 17199 17197 16880 17204 17203 17202 
2410 2112 2443 2113 16872 17197 17200 16874 14969 17205 
2443 2112 2146 2113 17197 15286 17198 17205 14969 15287 
2113 2146 2444 2147 15287 17206 17207 15296 15298 17208 
2410 2444 2411 2113 17209 17210 16893 16874 17207 16886 
2113 2146 2443 2444 15287 17198 17205 17207 17206 17211 
2410 2444 2113 2443 17209 17207 16874 17200 17211 17205 
2411 2113 2444 2114 16886 17207 17210 16888 14980 17212 
2444 2113 2147 2114 17207 15296 17208 17212 14980 15297 
2114 2147 2445 2148 15297 17213 17214 15303 15305 17215 
2411 2445 2412 2114 17216 17217 16903 16888 17214 16896 
2114 2147 2444 2445 15297 17208 17212 17214 17213 17218 
2411 2445 2114 2444 17216 17214 16888 17210 17218 17212 
2412 2114 2445 2115 16896 17214 17217 16898 14990 17219 
2445 2114 2148 2115 17214 15303 17215 17219 14990 15304 
2115 2148 2446 2149 15304 17220 17221 15310 15312 17222 
2412 2446 2413 2115 17223 17224 16913 16898 17221 16906 
2115 2148 2445 2446 15304 17215 17219 17221 17220 17225 
2412 2446 2115 2445 17223 17221 16898 17217 17225 17219 
2413 2115 2446 2116 16906 17221 17224 16908 15000 17226 
2446 2115 2149 2116 17221 15310 17222 17226 15000 15311 
2116 2149 2447 2150 15311 17227 17228 15317 15319 17229 
2413 2447 2414 2116 17230 17231 16923 16908 17228 16916 
2116 2149 2446 2447 15311 17222 17226 17228 17227 17232 
2413 2447 2116 2446 17230 17228 16908 17224 17232 17226 
2414 2116 2447 2117 16916 17228 17231 16918 15010 17233 
2447 2116 2150 2117 17228 15317 17229 17233 15010 15318 
2117 2150 2448 2151 15318 17234 17235 15324 15326 17236 
2414 2448 2415 2117 17237 17238 16933 16918 17235 16926 
2117 2150 2447 2448 15318 17229 17233 17235 17234 17239 
2414 2448 2117 2447 17237 17235 16918 17231 17239 17233 
2415 2117 2448 2118 16926 17235 17238 16928 15020 17240 
2448 2117 2151 2118 17235 15324 17236 17240 15020 15325 
2118 2151 2449 2152 15325 17241 17242 15331 15333 17243 
2415 2449 2416 2118 17244 17245 16943 16928 17242 16936 
2118 2151 2448 2449 15325 17236 17240 17242 17241 17246 
2415 2449 2118 2448 17244 17242 16928 17238 17246 17240 
2416 2118 2449 2119 16936 17242 17245 16938 15030 17247 
2449 2118 2152 2119 17242 15331 17243 17247 15030 15332 
2119 2152 2450 2153 15332 17248 17249 15338 15340 17250 
2416 2450 2417 2119 17251 17252 16953 16938 17249 16946 
2119 2152 2449 2450 15332 17243 17247 17249 17248 17253 
2416 2450 2119 2449 17251 17249 16938 17245 17253 17247 
2417 2119 2450 2120 16946 17249 17252 16948 15040 17254 
2450 2119 2153 2120 17249 15338 17250 17254 15040 15339 
2120 2153 2451 2154 15339 17255 17256 15345 15347 17257 
2417 2451 2418 2120 17258 17259 16963 16948 17256 16956 
2120 2153 2450 2451 15339 17250 17254 17256 17255 17260 
2417 2451 2120 2450 17258 17256 16948 17252 17260 17254 
2418 2120 2451 2121 16956 17256 17259 16958 15050 17261 
2451 2120 2154 2121 17256 15345 17257 17261 15050 15346 
2121 2154 2452 2155 15346 17262 17263 15352 15354 17264 
2418 2452 2419 2121 17265 17266 16973 16958 17263 16966 
2121 2154 2451 2452 15346 17257 17261 17263 17262 17267 
2418 2452 2121 2451 17265 17263 16958 17259 17267 17261 
2419 2121 2452 2122 16966 17263 17266 16968 15060 17268 
2452 2121 2155 2122 17263 15352 17264 17268 15060 15353 
2122 2155 2453 2156 15353 17269 17270 15359 15361 17271 
2419 2453 2420 2122 17272 17273 16983 16968 17270 16976 
2122 2155 2452 2453 15353 17264 17268 17270 17269 17274 
2419 2453 2122 2452 17272 17270 16968 17266 17274 17268 
2420 2122 2453 2123 16976 17270 17273 16978 15070 17275 
2453 2122 2156 2123 17270 15359 17271 17275 15070 15360 
2123 2156 2454 2157 15360 17276 17277 15366 15368 17278 
2420 2454 2421 2123 17279 17280 16993 16978 17277 16986 
2123 2156 2453 2454 15360 17271 17275 17277 17276 17281 
2420 2454 2123 2453 17279 17277 16978 17273 17281 17275 
2421 2123 2454 2124 16986 17277 17280 16988 15080 17282 
2454 2123 2157 2124 17277 15366 17278 17282 15080 15367 
2124 2157 2455 2158 15367 17283 17284 15373 15375 17285 
2421 2455 2422 2124 17286 17287 17003 16988 17284 16996 
2124 2157 2454 2455 15367 17278 17282 17284 17283 17288 
2421 2455 2124 2454 17286 17284 16988 17280 17288 17282 
2422 2124 2455 2125 16996 17284 17287 16998 15090 17289 
2455 2124 2158 2125 17284 15373 17285 17289 15090 15374 
2125 2158 2456 2159 15374 17290 17291 15380 15382 17292 
2422 2456 2423 2125 17293 17294 17013 16998 17291 17006 
2125 2158 2455 2456 15374 17285 17289 17291 17290 17295 
2422 2456 2125 2455 17293 17291 16998 17287 17295 17289 
2423 2125 2456 2126 17006 17291 17294 17008 15100 17296 
2456 2125 2159 2126 17291 15380 17292 17296 15100 15381 
2126 2159 2457 2160 15381 17297 17298 15387 15389 17299 
2423 2457 2424 2126 17300 17301 17023 17008 17298 17016 
2126 2159 2456 2457 15381 17292 17296 17298 17297 17302 
2423 2457 2126 2456 17300 17298 17008 17294 17302 17296 
2424 2126 2457 2127 17016 17298 17301 17018 15110 17303 
2457 2126 2160 2127 17298 15387 17299 17303 15110 15388 
2127 2160 2458 2161 15388 17304 17305 15394 15396 17306 
2424 2458 2425 2127 17307 17308 17033 17018 17305 17026 
2127 2160 2457 2458 15388 17299 17303 17305 17304 17309 
2424 2458 2127 2457 17307 17305 17018 17301 17309 17303 
2425 2127 2458 2128 17026 17305 17308 17028 15120 17310 
2458 2127 2161 2128 17305 15394 17306 17310 15120 15395 
2128 2161 2459 2162 15395 17311 17312 15401 15403 17313 
2425 2459 2426 2128 17314 17315 17043 17028 17312 17036 
2128 2161 2458 2459 15395 17306 17310 17312 17311 17316 
2425 2459 2128 2458 17314 17312 17028 17308 17316 17310 
2426 2128 2459 2129 17036 17312 17315 17038 15130 17317 
2459 2128 2162 2129 17312 15401 17313 17317 15130 15402 
2129 2162 2460 2163 15402 17318 17319 15408 15410 17320 
2426 2460 2427 2129 17321 17322 17053 17038 17319 17046 
2129 2162 2459 2460 15402 17313 17317 17319 17318 17323 
2426 2460 2129 2459 17321 17319 17038 17315 17323 17317 
2427 2129 2460 2130 17046 17319 17322 17048 15140 17324 
2460 2129 2163 2130 17319 15408 17320 17324 15140 15409 
2130 2163 2461 2164 15409 17325 17326 15415 15417 17327 
2427 2461 2428 2130 17328 17329 17063 17048 17326 17056 
2130 2163 2460 2461 15409 17320 17324 17326 17325 17330 
2427 2461 2130 2460 17328 17326 17048 17322 17330 17324 
2428 2130 2461 2131 17056 17326 17329 17058 15150 17331 
2461 2130 2164 2131 17326 15415 17327 17331 15150 15416 
2131 2164 2462 2165 15416 17332 17333 15422 15424 17334 
2428 2462 2429 2131 17335 17336 17073 17058 17333 17066 
2131 2164 2461 2462 15416 17327 17331 17333 17332 17337 
2428 2462 2131 2461 17335 17333 17058 17329 17337 17331 
2429 2131 2462 2132 17066 17333 17336 17068 15160 17338 
2462 2131 2165 2132 17333 15422 17334 17338 15160 15423 
2132 2165 2463 2166 15423 17339 17340 15429 15431 17341 
2429 2463 2430 2132 17342 17343 17083 17068 17340 17076 
2132 2165 2462 2463 15423 17334 17338 17340 17339 17344 
2429 2463 2132 2462 17342 17340 17068 17336 17344 17338 
2430 2132 2463 2133 17076 17340 17343 17078 15170 17345 
2463 2132 2166 2133 17340 15429 17341 17345 15170 15430 
2133 2166 2464 2167 15430 17346 17347 15436 15438 17348 
2430 2464 2431 2133 17349 17350 17093 17078 17347 17086 
2133 2166 2463 2464 15430 17341 17345 17347 17346 17351 
2430 2464 2133 2463 17349 17347 17078 17343 17351 17345 
2431 2133 2464 2134 17086 17347 17350 17088 15180 17352 
2464 2133 2167 2134 17347 15436 17348 17352 15180 15437 
2134 2167 2465 2168 15437 17353 17354 15443 15445 17355 
2431 2465 2432 2134 17356 17357 17103 17088 17354 17096 
2134 2167 2464 2465 15437 17348 17352 17354 17353 17358 
2431 2465 2134 2464 17356 17354 17088 17350 17358 17352 
2432 2134 2465 2135 17096 17354 17357 17098 15190 17359 
2465 2134 2168 2135 17354 15443 17355 17359 15190 15444 
2135 2168 2466 2169 15444 17360 17361 15450 15452 17362 
2432 2466 2433 2135 17363 17364 17113 17098 17361 17106 
2135 2168 2465 2466 15444 17355 17359 17361 17360 17365 
2432 2466 2135 2465 17363 17361 17098 17357 17365 17359 
2433 2135 2466 2136 17106 17361 17364 17108 15200 17366 
2466 2135 2169 2136 17361 15450 17362 17366 15200 15451 
2136 2169 2467 2170 15451 17367 17368 15457 15459 17369 
2433 2467 2434 2136 17370 17371 17123 17108 17368 17116 
2136 2169 2466 2467 15451 17362 17366 17368 17367 17372 
2433 2467 2136 2466 17370 17368 17108 17364 17372 17366 
2434 2136 2467 2137 17116 17368 17371 17118 15210 17373 
2467 2136 2170 2137 17368 15457 17369 17373 15210 15458 
2137 2170 2468 2171 15458 17374 17375 15464 15466 17376 
2434 2468 2435 2137 17377 17378 17133 17118 17375 17126 
2137 2170 2467 2468 15458 17369 17373 17375 17374 17379 
2434 2468 2137 2467 17377 17375 17118 17371 17379 17373 
2435 2137 2468 2138 17126 17375 17378 17128 15220 17380 
2468 2137 2171 2138 17375 15464 17376 17380 15220 15465 
2138 2171 2469 2172 15465 17381 17382 15471 15473 17383 
2435 2469 2436 2138 17384 17385 17143 17128 17382 17136 
2138 2171 2468 2469 15465 17376 17380 17382 17381 17386 
2435 2469 2138 2468 17384 17382 17128 17378 17386 17380 
2436 2138 2469 2139 17136 17382 17385 17138 15230 17387 
2469 2138 2172 2139 17382 15471 17383 17387 15230 15472 
2139 2172 2470 2173 15472 17388 17389 15478 15480 17390 
2436 2470 2437 2139 17391 17392 17153 17138 17389 17146 
2139 2172 2469 2470 15472 17383 17387 17389 17388 17393 
2436 2470 2139 2469 17391 17389 17138 17385 17393 17387 
2437 2139 2470 2140 17146 17389 17392 17148 15240 17394 
2470 2139 2173 2140 17389 15478 17390 17394 15240 15479 
2140 2173 2471 2174 15479 17395 17396 15485 15487 17397 
2437 2471 2438 2140 17398 17399 17163 17148 17396 17156 
2140 2173 2470 2471 15479 17390 17394 17396 17395 17400 
2437 2471 2140 2470 17398 17396 17148 17392 17400 17394 
2438 2140 2471 2141 17156 17396 17399 17158 15250 17401 
2471 2140 2174 2141 17396 15485 17397 17401 15250 15486 
2141 2174 2472 2175 15486 17402 17403 15492 15494 17404 
2438 2472 2439 2141 17405 17406 17173 17158 17403 17166 
2141 2174 2471 2472 15486 17397 17401 17403 17402 17407 
2438 2472 2141 2471 17405 17403 17158 17399 17407 17401 
2439 2141 2472 2142 17166 17403 17406 17168 15260 17408 
2472 2141 2175 2142 17403 15492 17404 17408 15260 15493 
2142 2175 2473 2176 15493 17409 17410 15499 15501 17411 
2439 2473 2440 2142 17412 17413 17183 17168 17410 17176 
2142 2175 2472 2473 15493 17404 17408 17410 17409 17414 
2439 2473 2142 2472 17412 17410 17168 17406 17414 17408 
2440 2142 2473 2143 17176 17410 17413 17178 15270 17415 
2473 2142 2176 2143 17410 15499 17411 17415 15270 15500 
2143 2176 2474 2177 15500 17416 17417 15506 15508 17418 
2440 2474 2441 2143 17419 17420 17193 17178 17417 17186 
2143 2176 2473 2474 15500 17411 17415 17417 17416 17421 
2440 2474 2143 2473 17419 17417 17178 17413 17421 17415 
2441 2143 2474 2144 17186 17417 17420 17188 15280 17422 
2474 2143 2177 2144 17417 15506 17418 17422 15280 15507 
2145 2178 2476 2179 15518 17423 17424 15513 15517 17425 
2442 2476 2443 2145 17426 17427 17203 17201 17424 17196 
2145 2178 2475 2476 15518 17428 17429 17424 17423 17430 
2442 2476 2145 2475 17426 17424 17201 17431 17430 17429 
2443 2145 2476 2146 17196 17424 17427 17198 15290 17432 
2476 2145 2179 2146 17424 15513 17425 17432 15290 15514 
2146 2179 2477 2180 15514 17433 17434 15523 15525 17435 
2443 2477 2444 2146 17436 17437 17211 17198 17434 17206 
2146 2179 2476 2477 15514 17425 17432 17434 17433 17438 
2443 2477 2146 2476 17436 17434 17198 17427 17438 17432 
2444 2146 2477 2147 17206 17434 17437 17208 15298 17439 
2477 2146 2180 2147 17434 15523 17435 17439 15298 15524 
2147 2180 2478 2181 15524 17440 17441 15530 15532 17442 
2444 2478 2445 2147 17443 17444 17218 17208 17441 17213 
2147 2180 2477 2478 15524 17435 17439 17441 17440 17445 
2444 2478 2147 2477 17443 17441 17208 17437 17445 17439 
2445 2147 2478 2148 17213 17441 17444 17215 15305 17446 
2478 2147 2181 2148 17441 15530 17442 17446 15305 15531 
2148 2181 2479 2182 15531 17447 17448 15537 15539 17449 
2445 2479 2446 2148 17450 17451 17225 17215 17448 17220 
2148 2181 2478 2479 15531 17442 17446 17448 17447 17452 
2445 2479 2148 2478 17450 17448 17215 17444 17452 17446 
2446 2148 2479 2149 17220 17448 17451 17222 15312 17453 
2479 2148 2182 2149 17448 15537 17449 17453 15312 15538 
2149 2182 2480 2183 15538 17454 17455 15544 15546 17456 
2446 2480 2447 2149 17457 17458 17232 17222 17455 17227 
2149 2182 2479 2480 15538 17449 17453 17455 17454 17459 
2446 2480 2149 2479 17457 17455 17222 17451 17459 17453 
2447 2149 2480 2150 17227 17455 17458 17229 15319 17460 
2480 2149 2183 2150 17455 15544 17456 17460 15319 15545 
2150 2183 2481 2184 15545 17461 17462 15551 15553 17463 
2447 2481 2448 2150 17464 17465 17239 17229 17462 17234 
2150 2183 2480 2481 15545 17456 17460 17462 17461 17466 
2447 2481 2150 2480 17464 17462 17229 17458 17466 17460 
2448 2150 2481 2151 17234 17462 17465 17236 15326 17467 
2481 2150 2184 2151 17462 15551 17463 17467 15326 15552 
2151 2184 2482 2185 15552 17468 17469 15558 15560 17470 
2448 2482 2449 2151 17471 17472 17246 17236 17469 17241 
2151 2184 2481 2482 15552 17463 17467 17469 17468 17473 
2448 2482 2151 2481 17471 17469 17236 17465 17473 17467 
2449 2151 2482 2152 17241 17469 17472 17243 15333 17474 
2482 2151 2185 2152 17469 15558 17470 17474 15333 15559 
2152 2185 2483 2186 15559 17475 17476 15565 15567 17477 
2449 2483 2450 2152 17478 17479 17253 17243 17476 17248 
2152 2185 2482 2483 15559 17470 17474 17476 17475 17480 
2449 2483 2152 2482 17478 17476 17243 17472 17480 17474 
2450 2152 2483 2153 17248 17476 17479 17250 15340 17481 
2483 2152 2186 2153 17476 15565 17477 17481 15340 15566 
2153 2186 2484 2187 15566 17482 17483 15572 15574 17484 
2450 2484 2451 2153 17485 17486 17260 17250 17483 17255 
2153 2186 2483 2484 15566 17477 17481 17483 17482 17487 
2450 2484 2153 2483 17485 17483 17250 17479 17487 17481 
2451 2153 2484 2154 17255 17483 17486 17257 15347 17488 
2484 2153 2187 2154 17483 15572 17484 17488 15347 15573 
2154 2187 2485 2188 15573 17489 17490 15579 15581 17491 
2451 2485 2452 2154 17492 17493 17267 17257 17490 17262 
2154 2187 2484 2485 15573 17484 17488 17490 17489 17494 
2451 2485 2154 2484 17492 17490 17257 17486 17494 17488 
2452 2154 2485 2155 17262 17490 17493 17264 15354 17495 
2485 2154 2188 2155 17490 15579 17491 17495 15354 15580 
2155 2188 2486 2189 15580 17496 17497 15586 15588 17498 
2452 2486 2453 2155 17499 17500 17274 17264 17497 17269 
2155 2188 2485 2486 15580 17491 17495 17497 17496 17501 
2452 2486 2155 2485 17499 17497 17264 17493 17501 17495 
2453 2155 2486 2156 17269 17497 17500 17271 15361 17502 
2486 2155 2189 2156 17497 15586 17498 17502 15361 15587 
2156 2189 2487 2190 15587 17503 17504 15593 15595 17505 
2453 2487 2454 2156 17506 17507 17281 17271 17504 17276 
2156 2189 2486 2487 15587 17498 17502 17504 17503 17508 
2453 2487 2156 2486 17506 17504 17271 17500 17508 17502 
2454 2156 2487 2157 17276 17504 17507 17278 15368 17509 
2487 2156 2190 2157 17504 15593 17505 17509 15368 15594 
2157 2190 2488 2191 15594 17510 17511 15600 15602 17512 
2454 2488 2455 2157 17513 17514 17288 17278 17511 17283 
2157 2190 2487 2488 15594 17505 17509 17511 17510 17515 
2454 2488 2157 2487 17513 17511 17278 17507 17515 17509 
2455 2157 2488 2158 17283 17511 17514 17285 15375 17516 
2488 2157 2191 2158 17511 15600 17512 17516 15375 15601 
2158 2191 2489 2192 15601 17517 17518 15607 15609 17519 
2455 2489 2456 2158 17520 17521 17295 17285 17518 17290 
2158 2191 2488 2489 15601 17512 17516 17518 17517 17522 
2455 2489 2158 2488 17520 17518 17285 17514 17522 17516 
2456 2158 2489 2159 17290 17518 17521 17292 15382 17523 
2489 2158 2192 2159 17518 15607 17519 17523 15382 15608 
2159 2192 2490 2193 15608 17524 17525 15614 15616 17526 
2456 2490 2457 2159 17527 17528 17302 17292 17525 17297 
2159 2192 2489 2490 15608 17519 17523 17525 17524 17529 
2456 2490 2159 2489 17527 17525 17292 17521 17529 17523 
2457 2159 2490 2160 17297 17525 17528 17299 15389 17530 
2490 2159 2193 2160 17525 15614 17526 17530 15389 15615 
2160 2193 2491 2194 15615 17531 17532 15621 15623 17533 
2457 2491 2458 2160 17534 17535 17309 17299 17532 17304 
2160 2193 2490 2491 15615 17526 17530 17532 17531 17536 
2457 2491 2160 2490 17534 17532 17299 17528 17536 17530 
2458 2160 2491 2161 17304 17532 17535 17306 15396 17537 
2491 2160 2194 2161 17532 15621 17533 17537 15396 15622 
2161 2194 2492 2195 15622 17538 17539 15628 15630 17540 
2458 2492 2459 2161 17541 17542 17316 17306 17539 17311 
2161 2194 2491 2492 15622 17533 17537 17539 17538 17543 
2458 2492 2161 2491 17541 17539 17306 17535 17543 17537 
2459 2161 2492 2162 17311 17539 17542 17313 15403 17544 
2492 2161 2195 2162 17539 15628 17540 17544 15403 15629 
2162 2195 2493 2196 15629 17545 17546 15635 15637 17547 
2459 2493 2460 2162 17548 17549 17323 17313 17546 17318 
2162 2195 2492 2493 15629 17540 17544 17546 17545 17550 
2459 2493 2162 2492 17548 17546 17313 17542 17550 17544 
2460 2162 2493 2163 17318 17546 17549 17320 15410 17551 
2493 2162 2196 2163 17546 15635 17547 17551 15410 15636 
2163 2196 2494 2197 15636 17552 17553 15642 15644 17554 
2460 2494 2461 2163 17555 17556 17330 17320 17553 17325 
2163 2196 2493 2494 15636 17547 17551 17553 17552 17557 
2460 2494 2163 2493 17555 17553 17320 17549 17557 17551 
2461 2163 2494 2164 17325 17553 17556 17327 15417 17558 
2494 2163 2197 2164 17553 15642 17554 17558 15417 15643 
2164 2197 2495 2198 15643 17559 17560 15649 15651 17561 
2461 2495 2462 2164 17562 17563 17337 17327 17560 17332 
2164 2197 2494 2495 15643 17554 17558 17560 17559 17564 
2461 2495 2164 2494 17562 17560 17327 17556 17564 17558 
2462 2164 2495 2165 17332 17560 17563 17334 15424 17565 
2495 2164 2198 2165 17560 15649 17561 17565 15424 15650 
2165 2198 2496 2199 15650 17566 17567 15656 15658 17568 
2462 2496 2463 2165 17569 17570 17344 17334 17567 17339 
2165 2198 2495 2496 15650 17561 17565 17567 17566 17571 
2462 2496 2165 2495 17569 17567 17334 17563 17571 17565 
2463 2165 2496 2166 17339 17567 17570 17341 15431 17572 
2496 2165 2199 2166 17567 15656 17568 17572 15431 15657 
2166 2199 2497 2200 15657 17573 17574 15663 15665 17575 
2463 2497 2464 2166 17576 17577 17351 17341 17574 17346 
2166 2199 2496 2497 15657 17568 17572 17574 17573 17578 
2463 2497 2166 2496 17576 17574 17341 17570 17578 17572 
2464 2166 2497 2167 17346 17574 17577 17348 15438 17579 
2497 2166 2200 2167 17574 15663 17575 17579 15438 15664 
2167 2200 2498 2201 15664 17580 17581 15670 15672 17582 
2464 2498 2465 2167 17583 17584 17358 17348 17581 17353 
2167 2200 2497 2498 15664 17575 17579 17581 17580 17585 
2464 2498 2167 2497 17583 17581 17348 17577 17585 17579 
2465 2167 2498 2168 17353 17581 17584 17355 15445 17586 
2498 2167 2201 2168 17581 15670 17582 17586 15445 15671 
2168 2201 2499 2202 15671 17587 17588 15677 15679 17589 
2465 2499 2466 2168 17590 17591 17365 17355 17588 17360 
2168 2201 2498 2499 15671 17582 17586 17588 17587 17592 
2465 2499 2168 2498 17590 17588 17355 17584 17592 17586 
2466 2168 2499 2169 17360 17588 17591 17362 15452 17593 
2499 2168 2202 2169 17588 15677 17589 17593 15452 15678 
2169 2202 2500 2203 15678 17594 17595 15684 15686 17596 
2466 2500 2467 2169 17597 17598 17372 17362 17595 17367 
2169 2202 2499 2500 15678 17589 17593 17595 17594 17599 
2466 2500 2169 2499 17597 17595 17362 17591 17599 17593 
2467 2169 2500 2170 17367 17595 17598 17369 15459 17600 
2500 2169 2203 2170 17595 15684 17596 17600 15459 15685 
2170 2203 2501 2204 15685 17601 17602 15691 15693 17603 
2467 2501 2468 2170 17604 17605 17379 17369 17602 17374 
2170 2203 2500 2501 15685 17596 17600 17602 17601 17606 
2467 2501 2170 2500 17604 17602 17369 17598 17606 17600 
2468 2170 2501 2171 17374 17602 17605 17376 15466 17607 
2501 2170 2204 2171 17602 15691 17603 17607 15466 15692 
2171 2204 2502 2205 15692 17608 17609 15698 15700 17610 
2468 2502 2469 2171 17611 17612 17386 17376 17609 17381 
2171 2204 2501 2502 15692 17603 17607 17609 17608 17613 
2468 2502 2171 2501 17611 17609 17376 17605 17613 17607 
2469 2171 2502 2172 17381 17609 17612 17383 15473 17614 
2502 2171 2205 2172 17609 15698 17610 17614 15473 15699 
2172 2205 2503 2206 15699 17615 17616 15705 15707 17617 
2469 2503 2470 2172 17618 17619 17393 17383 17616 17388 
2172 2205 2502 2503 15699 17610 17614 17616 17615 17620 
2469 2503 2172 2502 17618 17616 17383 17612 17620 17614 
2470 2172 2503 2173 17388 17616 17619 17390 15480 17621 
2503 2172 2206 2173 17616 15705 17617 17621 15480 15706 
2173 2206 2504 2207 15706 17622 17623 15712 15714 17624 
2470 2504 2471 2173 17625 17626 17400 17390 17623 17395 
2173 2206 2503 2504 15706 17617 17621 17623 17622 17627 
2470 2504 2173 2503 17625 17623 17390 17619 17627 17621 
2471 2173 2504 2174 17395 17623 17626 17397 15487 17628 
2504 2173 2207 2174 17623 15712 17624 17628 15487 15713 
2174 2207 2505 2208 15713 17629 17630 15719 15721 17631 
2471 2505 2472 2174 17632 17633 17407 17397 17630 17402 
2174 2207 2504 2505 15713 17624 17628 17630 17629 17634 
2471 2505 2174 2504 17632 17630 17397 17626 17634 17628 
2472 2174 2505 2175 17402 17630 17633 17404 15494 17635 
2505 2174 2208 2175 17630 15719 17631 17635 15494 15720 
2175 2208 2506 2209 15720 17636 17637 15726 15728 17638 
2472 2506 2473 2175 17639 17640 17414 17404 17637 17409 
2175 2208 2505 2506 15720 17631 17635 17637 17636 17641 
2472 2506 2175 2505 17639 17637 17404 17633 17641 17635 
2473 2175 2506 2176 17409 17637 17640 17411 15501 17642 
2506 2175 2209 2176 17637 15726 17638 17642 15501 15727 
2176 2209 2507 2210 15727 17643 17644 15733 15735 17645 
2473 2507 2474 2176 17646 17647 17421 17411 17644 17416 
2176 2209 2506 2507 15727 17638 17642 17644 17643 17648 
2473 2507 2176 2506 17646 17644 17411 17640 17648 17642 
2474 2176 2507 2177 17416 17644 17647 17418 15508 17649 
2507 2176 2210 2177 17644 15733 17645 17649 15508 15734 
2178 2211 2509 2212 15745 17650 17651 15740 15744 17652 
2475 2509 2476 2178 17653 17654 17430 17428 17651 17423 
2178 2211 2508 2509 15745 17655 17656 17651 17650 17657 
2475 2509 2178 2508 17653 17651 17428 17658 17657 17656 
2476 2178 2509 2179 17423 17651 17654 17425 15517 17659 
2509 2178 2212 2179 17651 15740 17652 17659 15517 15741 
2179 2212 2510 2213 15741 17660 17661 15750 15752 17662 
2476 2510 2477 2179 17663 17664 17438 17425 17661 17433 
2179 2212 2509 2510 15741 17652 17659 17661 17660 17665 
2476 2510 2179 2509 17663 17661 17425 17654 17665 17659 
2477 2179 2510 2180 17433 17661 17664 17435 15525 17666 
2510 2179 2213 2180 17661 15750 17662 17666 15525 15751 
2180 2213 2511 2214 15751 17667 17668 15757 15759 17669 
2477 2511 2478 2180 17670 17671 17445 17435 17668 17440 
2180 2213 2510 2511 15751 17662 17666 17668 17667 17672 
2477 2511 2180 2510 17670 17668 17435 17664 17672 17666 
2478 2180 2511 2181 17440 17668 17671 17442 15532 17673 
2511 2180 2214 2181 17668 15757 17669 17673 15532 15758 
2181 2214 2512 2215 15758 17674 17675 15764 15766 17676 
2478 2512 2479 2181 17677 17678 17452 17442 17675 17447 
2181 2214 2511 2512 15758 17669 17673 17675 17674 17679 
2478 2512 2181 2511 17677 17675 17442 17671 17679 17673 
2479 2181 2512 2182 17447 17675 17678 17449 15539 17680 
2512 2181 2215 2182 17675 15764 17676 17680 15539 15765 
2182 2215 2513 2216 15765 17681 17682 15771 15773 17683 
2479 2513 2480 2182 17684 17685 17459 17449 17682 17454 
2182 2215 2512 2513 15765 17676 17680 17682 17681 17686 
2479 2513 2182 2512 17684 17682 17449 17678 17686 17680 
2480 2182 2513 2183 17454 17682 17685 17456 15546 17687 
2513 2182 2216 2183 17682 15771 17683 17687 15546 15772 
2183 2216 2514 2217 15772 17688 17689 15778 15780 17690 
2480 2514 2481 2183 17691 17692 17466 17456 17689 17461 
2183 2216 2513 2514 15772 17683 17687 17689 17688 17693 
2480 2514 2183 2513 17691 17689 17456 17685 17693 17687 
2481 2183 2514 2184 17461 17689 17692 17463 15553 17694 
2514 2183 2217 2184 17689 15778 17690 17694 15553 15779 
2184 2217 2515 2218 15779 17695 17696 15785 15787 17697 
2481 2515 2482 2184 17698 17699 17473 17463 17696 17468 
2184 2217 2514 2515 15779 17690 17694 17696 17695 17700 
2481 2515 2184 2514 17698 17696 17463 17692 17700 17694 
2482 2184 2515 2185 17468 17696 17699 17470 15560 17701 
2515 2184 2218 2185 17696 15785 17697 17701 15560 15786 
2185 2218 2516 2219 15786 17702 17703 15792 15794 17704 
2482 2516 2483 2185 17705 17706 17480 17470 17703 17475 
2185 2218 2515 2516 15786 17697 17701 17703 17702 17707 
2482 2516 2185 2515 17705 17703 17470 17699 17707 17701 
2483 2185 2516 2186 17475 17703 17706 17477 15567 17708 
2516 2185 2219 2186 17703 15792 17704 17708 15567 15793 
2186 2219 2517 2220 15793 17709 17710 15799 15801 17711 
2483 2517 2484 2186 17712 17713 17487 17477 17710 17482 
2186 2219 2516 2517 15793 17704 17708 17710 17709 17714 
2483 2517 2186 2516 17712 17710 17477 17706 17714 17708 
2484 2186 2517 2187 17482 17710 17713 17484 15574 17715 
2517 2186 2220 2187 17710 15799 17711 17715 15574 15800 
2187 2220 2518 2221 15800 17716 17717 15806 15808 17718 
2484 2518 2485 2187 17719 17720 17494 17484 17717 17489 
2187 2220 2517 2518 15800 17711 17715 17717 17716 17721 
2484 2518 2187 2517 17719 17717 17484 17713 17721 17715 
2485 2187 2518 2188 17489 17717 17720 17491 15581 17722 
2518 2187 2221 2188 17717 15806 17718 17722 15581 15807 
2188 2221 2519 2222 15807 17723 17724 15813 15815 17725 
2485 2519 2486 2188 17726 17727 17501 17491 17724 17496 
2188 2221 2518 2519 15807 17718 17722 17724 17723 17728 
2485 2519 2188 2518 17726 17724 17491 17720 17728 17722 
2486 2188 2519 2189 17496 17724 17727 17498 15588 17729 
2519 2188 2222 2189 17724 15813 17725 17729 15588 15814 
2189 2222 2520 2223 15814 17730 17731 15820 15822 17732 
2486 2520 2487 2189 17733 17734 17508 17498 17731 17503 
2189 2222 2519 2520 15814 17725 17729 17731 17730 17735 
2486 2520 2189 2519 17733 17731 17498 17727 17735 17729 
2487 2189 2520 2190 17503 17731 17734 17505 15595 17736 
2520 2189 2223 2190 17731 15820 17732 17736 15595 15821 
2190 2223 2521 2224 15821 17737 17738 15827 15829 17739 
2487 2521 2488 2190 17740 17741 17515 17505 17738 17510 
2190 2223 2520 2521 15821 17732 17736 17738 17737 17742 
2487 2521 2190 2520 17740 17738 17505 17734 17742 17736 
2488 2190 2521 2191 17510 17738 17741 17512 15602 17743 
2521 2190 2224 2191 17738 15827 17739 17743 15602 15828 
2191 2224 2522 2225 15828 17744 17745 15834 15836 17746 
2488 2522 2489 2191 17747 17748 17522 17512 17745 17517 
2191 2224 2521 2522 15828 17739 17743 17745 17744 17749 
2488 2522 2191 2521 17747 17745 17512 17741 17749 17743 
2489 2191 2522 2192 17517 17745 17748 17519 15609 17750 
2522 2191 2225 2192 17745 15834 17746 17750 15609 15835 
2192 2225 2523 2226 15835 17751 17752 15841 15843 17753 
2489 2523 2490 2192 17754 17755 17529 17519 17752 17524 
2192 2225 2522 2523 15835 17746 17750 17752 17751 17756 
2489 2523 2192 2522 17754 17752 17519 17748 17756 17750 
2490 2192 2523 2193 17524 17752 17755 17526 15616 17757 
2523 2192 2226 2193 17752 15841 17753 17757 15616 15842 
2193 2226 2524 2227 15842 17758 17759 15848 15850 17760 
2490 2524 2491 2193 17761 17762 17536 17526 17759 17531 
2193 2226 2523 2524 15842 17753 17757 17759 17758 17763 
2490 2524 2193 2523 17761 17759 17526 17755 17763 17757 
2491 2193 2524 2194 17531 17759 17762 17533 15623 17764 
2524 2193 2227 2194 17759 15848 17760 17764 15623 15849 
2194 2227 2525 2228 15849 17765 17766 15855 15857 17767 
2491 2525 2492 2194 17768 17769 17543 17533 17766 17538 
2194 2227 2524 2525 15849 17760 17764 17766 17765 17770 
2491 2525 2194 2524 17768 17766 17533 17762 17770 17764 
2492 2194 2525 2195 17538 17766 17769 17540 15630 17771 
2525 2194 2228 2195 17766 15855 17767 17771 15630 15856 
2195 2228 2526 2229 15856 17772 17773 15862 15864 17774 
2492 2526 2493 2195 17775 17776 17550 17540 17773 17545 
2195 2228 2525 2526 15856 17767 17771 17773 17772 17777 
2492 2526 2195 2525 17775 17773 17540 17769 17777 17771 
2493 2195 2526 2196 17545 17773 17776 17547 15637 17778 
2526 2195 2229 2196 17773 15862 17774 17778 15637 15863 
2196 2229 2527 2230 15863 17779 17780 15869 15871 17781 
2493 2527 2494 2196 17782 17783 17557 17547 17780 17552 
2196 2229 2526 2527 15863 17774 17778 17780 17779 17784 
2493 2527 2196 2526 17782 17780 17547 17776 17784 17778 
2494 2196 2527 2197 17552 17780 17783 17554 15644 17785 
2527 2196 2230 2197 17780 15869 17781 17785 15644 15870 
2197 2230 2528 2231 15870 17786 17787 15876 15878 17788 
2494 2528 2495 2197 17789 17790 17564 17554 17787 17559 
2197 2230 2527 2528 15870 17781 17785 17787 17786 17791 
2494 2528 2197 2527 17789 17787 17554 17783 17791 17785 
2495 2197 2528 2198 17559 17787 17790 17561 15651 17792 
2528 2197 2231 2198 17787 15876 17788 17792 15651 15877 
2198 2231 2529 2232 15877 17793 17794 15883 15885 17795 
2495 2529 2496 2198 17796 17797 17571 17561 17794 17566 
2198 2231 2528 2529 15877 17788 17792 17794 17793 17798 
2495 2529 2198 2528 17796 17794 17561 17790 17798 17792 
2496 2198 2529 2199 17566 17794 17797 17568 15658 17799 
2529 2198 2232 2199 17794 15883 17795 17799 15658 15884 
2199 2232 2530 2233 15884 17800 17801 15890 15892 17802 
2496 2530 2497 2199 17803 17804 17578 17568 17801 17573 
2199 2232 2529 2530 15884 17795 17799 17801 17800 17805 
2496 2530 2199 2529 17803 17801 17568 17797 17805 17799 
2497 2199 2530 2200 17573 17801 17804 17575 15665 17806 
2530 2199 2233 2200 17801 15890 17802 17806 15665 15891 
2200 2233 2531 2234 15891 17807 17808 15897 15899 17809 
2497 2531 2498 2200 17810 17811 17585 17575 17808 17580 
2200 2233 2530 2531 15891 17802 17806 17808 17807 17812 
2497 2531 2200 2530 17810 17808 17575 17804 17812 17806 
2498 2200 2531 2201 17580 17808 17811 17582 15672 17813 
2531 2200 2234 2201 17808 15897 17809 17813 15672 15898 
2201 2234 2532 2235 15898 17814 17815 15904 15906 17816 
2498 2532 2499 2201 17817 17818 17592 17582 17815 17587 
2201 2234 2531 2532 15898 17809 17813 17815 17814 17819 
2498 2532 2201 2531 17817 17815 17582 17811 17819 17813 
2499 2201 2532 2202 17587 17815 17818 17589 15679 17820 
2532 2201 2235 2202 17815 15904 17816 17820 15679 15905 
2202 2235 2533 2236 15905 17821 17822 15911 15913 17823 
2499 2533 2500 2202 17824 17825 17599 17589 17822 17594 
2202 2235 2532 2533 15905 17816 17820 17822 17821 17826 
2499 2533 2202 2532 17824 17822 17589 17818 17826 17820 
2500 2202 2533 2203 17594 17822 17825 17596 15686 17827 
2533 2202 2236 2203 17822 15911 17823 17827 15686 15912 
2203 2236 2534 2237 15912 17828 17829 15918 15920 17830 
2500 2534 2501 2203 17831 17832 17606 17596 17829 17601 
2203 2236 2533 2534 15912 17823 17827 17829 17828 17833 
2500 2534 2203 2533 17831 17829 17596 17825 17833 17827 
2501 2203 2534 2204 17601 17829 17832 17603 15693 17834 
2534 2203 2237 2204 17829 15918 17830 17834 15693 15919 
2204 2237 2535 2238 15919 17835 17836 15925 15927 17837 
2501 2535 2502 2204 17838 17839 17613 17603 17836 17608 
2204 2237 2534 2535 15919 17830 17834 17836 17835 17840 
2501 2535 2204 2534 17838 17836 17603 17832 17840 17834 
2502 2204 2535 2205 17608 17836 17839 17610 15700 17841 
2535 2204 2238 2205 17836 15925 17837 17841 15700 15926 
2205 2238 2536 2239 15926 17842 17843 15932 15934 17844 
2502 2536 2503 2205 17845 17846 17620 17610 17843 17615 
2205 2238 2535 2536 15926 17837 17841 17843 17842 17847 
2502 2536 2205 2535 17845 17843 17610 17839 17847 17841 
2503 2205 2536 2206 17615 17843 17846 17617 15707 17848 
2536 2205 2239 2206 17843 15932 17844 17848 15707 15933 
2206 2239 2537 2240 15933 17849 17850 15939 15941 17851 
2503 2537 2504 2206 17852 17853 17627 17617 17850 17622 
2206 2239 2536 2537 15933 17844 17848 17850 17849 17854 
2503 2537 2206 2536 17852 17850 17617 17846 17854 17848 
2504 2206 2537 2207 17622 17850 17853 17624 15714 17855 
2537 2206 2240 2207 17850 15939 17851 17855 15714 15940 
2207 2240 2538 2241 15940 17856 17857 15946 15948 17858 
2504 2538 2505 2207 17859 17860 17634 17624 17857 17629 
2207 2240 2537 2538 15940 17851 17855 17857 17856 17861 
2504 2538 2207 2537 17859 17857 17624 17853 17861 17855 
2505 2207 2538 2208 17629 17857 17860 17631 15721 17862 
2538 2207 2241 2208 17857 15946 17858 17862 15721 15947 
2208 2241 2539 2242 15947 17863 17864 15953 15955 17865 
2505 2539 2506 2208 17866 17867 17641 17631 17864 17636 
2208 2241 2538 2539 15947 17858 17862 17864 17863 17868 
2505 2539 2208 2538 17866 17864 17631 17860 17868 17862 
2506 2208 2539 2209 17636 17864 17867 17638 15728 17869 
2539 2208 2242 2209 17864 15953 17865 17869 15728 15954 
2209 2242 2540 2243 15954 17870 17871 15960 15962 17872 
2506 2540 2507 2209 17873 17874 17648 17638 17871 17643 
2209 2242 2539 2540 15954 17865 17869 17871 17870 17875 
2506 2540 2209 2539 17873 17871 17638 17867 17875 17869 
2507 2209 2540 2210 17643 17871 17874 17645 15735 17876 
2540 2209 2243 2210 17871 15960 17872 17876 15735 15961 
2211 2244 2542 2245 15972 17877 17878 15967 15971 17879 
2508 2542 2509 2211 17880 17881 17657 17655 17878 17650 
2211 2244 2541 2542 15972 17882 17883 17878 17877 17884 
2508 2542 2211 2541 17880 17878 17655 17885 17884 17883 
2509 2211 2542 2212 17650 17878 17881 17652 15744 17886 
2542 2211 2245 2212 17878 15967 17879 17886 15744 15968 
2212 2245 2543 2246 15968 17887 17888 15977 15979 17889 
2509 2543 2510 2212 17890 17891 17665 17652 17888 17660 
2212 2245 2542 2543 15968 17879 17886 17888 17887 17892 
2509 2543 2212 2542 17890 17888 17652 17881 17892 17886 
2510 2212 2543 2213 17660 17888 17891 17662 15752 17893 
2543 2212 2246 2213 17888 15977 17889 17893 15752 15978 
2213 2246 2544 2247 15978 17894 17895 15984 15986 17896 
2510 2544 2511 2213 17897 17898 17672 17662 17895 17667 
2213 2246 2543 2544 15978 17889 17893 17895 17894 17899 
2510 2544 2213 2543 17897 17895 17662 17891 17899 17893 
2511 2213 2544 2214 17667 17895 17898 17669 15759 17900 
2544 2213 2247 2214 17895 15984 17896 17900 15759 15985 
2214 2247 2545 2248 15985 17901 17902 15991 15993 17903 
2511 2545 2512 2214 17904 17905 17679 17669 17902 17674 
2214 2247 2544 2545 15985 17896 17900 17902 17901 17906 
2511 2545 2214 2544 17904 17902 17669 17898 17906 17900 
2512 2214 2545 2215 17674 17902 17905 17676 15766 17907 
2545 2214 2248 2215 17902 15991 17903 17907 15766 15992 
2215 2248 2546 2249 15992 17908 17909 15998 16000 17910 
2512 2546 2513 2215 17911 17912 17686 17676 17909 17681 
2215 2248 2545 2546 15992 17903 17907 17909 17908 17913 
2512 2546 2215 2545 17911 17909 17676 17905 17913 17907 
2513 2215 2546 2216 17681 17909 17912 17683 15773 17914 
2546 2215 2249 2216 17909 15998 17910 17914 15773 15999 
2216 2249 2547 2250 15999 17915 17916 16005 16007 17917 
2513 2547 2514 2216 17918 17919 17693 17683 17916 17688 
2216 2249 2546 2547 15999 17910 17914 17916 17915 17920 
2513 2547 2216 2546 17918 17916 17683 17912 17920 17914 
2514 2216 2547 2217 17688 17916 17919 17690 15780 17921 
2547 2216 2250 2217 17916 16005 17917 17921 15780 16006 
2217 2250 2548 2251 16006 17922 17923 16012 16014 17924 
2514 2548 2515 2217 17925 17926 17700 17690 17923 17695 
2217 2250 2547 2548 16006 17917 17921 17923 17922 17927 
2514 2548 2217 2547 17925 17923 17690 17919 17927 17921 
2515 2217 2548 2218 17695 17923 17926 17697 15787 17928 
2548 2217 2251 2218 17923 16012 17924 17928 15787 16013 
2218 2251 2549 2252 16013 17929 17930 16019 16021 17931 
2515 2549 2516 2218 17932 17933 17707 17697 17930 17702 
2218 2251 2548 2549 16013 17924 17928 17930 17929 17934 
2515 2549 2218 2548 17932 17930 17697 17926 17934 17928 
2516 2218 2549 2219 17702 17930 17933 17704 15794 17935 
2549 2218 2252 2219 17930 16019 17931 17935 15794 16020 
2219 2252 2550 2253 16020 17936 17937 16026 16028 17938 
2516 2550 2517 2219 17939 17940 17714 17704 17937 17709 
2219 2252 2549 2550 16020 17931 17935 17937 17936 17941 
2516 2550 2219 2549 17939 17937 17704 17933 17941 17935 
2517 2219 2550 2220 17709 17937 17940 17711 15801 17942 
2550 2219 2253 2220 17937 16026 17938 17942 15801 16027 
2220 2253 2551 2254 16027 17943 17944 16033 16035 17945 
2517 2551 2518 2220 17946 17947 17721 17711 17944 17716 
2220 2253 2550 2551 16027 17938 17942 17944 17943 17948 
2517 2551 2220 2550 17946 17944 17711 17940 17948 17942 
2518 2220 2551 2221 17716 17944 17947 17718 15808 17949 
2551 2220 2254 2221 17944 16033 17945 17949 15808 16034 
2221 2254 2552 2255 16034 17950 17951 16040 16042 17952 
2518 2552 2519 2221 17953 17954 17728 17718 17951 17723 
2221 2254 2551 2552 16034 17945 17949 17951 17950 17955 
2518 2552 2221 2551 17953 17951 17718 17947 17955 17949 
2519 2221 2552 2222 17723 17951 17954 17725 15815 17956 
2552 2221 2255 2222 17951 16040 17952 17956 15815 16041 
2222 2255 2553 2256 16041 17957 17958 16047 16049 17959 
2519 2553 2520 2222 17960 17961 17735 17725 17958 17730 
2222 2255 2552 2553 16041 17952 17956 17958 17957 17962 
2519 2553 2222 2552 17960 17958 17725 17954 17962 17956 
2520 2222 2553 2223 17730 17958 17961 17732 15822 17963 
2553 2222 2256 2223 17958 16047 17959 17963 15822 16048 
2223 2256 2554 2257 16048 17964 17965 16054 16056 17966 
2520 2554 2521 2223 17967 17968 17742 17732 17965 17737 
2223 2256 2553 2554 16048 17959 17963 17965 17964 17969 
2520 2554 2223 2553 17967 17965 17732 17961 17969 17963 
2521 2223 2554 2224 17737 17965 17968 17739 15829 17970 
2554 2223 2257 2224 17965 16054 17966 17970 15829 16055 
2224 2257 2555 2258 16055 17971 17972 16061 16063 17973 
2521 2555 2522 2224 17974 17975 17749 17739 17972 17744 
2224 2257 2554 2555 16055 17966 17970 17972 17971 17976 
2521 2555 2224 2554 17974 17972 17739 17968 17976 17970 
2522 2224 2555 2225 17744 17972 17975 17746 15836 17977 
2555 2224 2258 2225 17972 16061 17973 17977 15836 16062 
2225 2258 2556 2259 16062 17978 17979 16068 16070 17980 
2522 2556 2523 2225 17981 17982 17756 17746 17979 17751 
2225 2258 2555 2556 16062 17973 17977 17979 17978 17983 
2522 2556 2225 2555 17981 17979 17746 17975 17983 17977 
2523 2225 2556 2226 17751 17979 17982 17753 15843 17984 
2556 2225 2259 2226 17979 16068 17980 17984 15843 16069 
2226 2259 2557 2260 16069 17985 17986 16075 16077 17987 
2523 2557 2524 2226 17988 17989 17763 17753 17986 17758 
2226 2259 2556 2557 16069 17980 17984 17986 17985 17990 
2523 2557 2226 2556 17988 17986 17753 17982 17990 17984 
2524 2226 2557 2227 17758 17986 17989 17760 15850 17991 
2557 2226 2260 2227 17986 16075 17987 17991 15850 16076 
2227 2260 2558 2261 16076 17992 17993 16082 16084 17994 
2524 2558 2525 2227 17995 17996 17770 17760 17993 17765 
2227 2260 2557 2558 16076 17987 17991 17993 17992 17997 
2524 2558 2227 2557 17995 17993 17760 17989 17997 17991 
2525 2227 2558 2228 17765 17993 17996 17767 15857 17998 
2558 2227 2261 2228 17993 16082 17994 17998 15857 16083 
2228 2261 2559 2262 16083 17999 18000 16089 16091 18001 
2525 2559 2526 2228 18002 18003 17777 17767 18000 17772 
2228 2261 2558 2559 16083 17994 17998 18000 17999 18004 
2525 2559 2228 2558 18002 18000 17767 17996 18004 17998 
2526 2228 2559 2229 17772 18000 18003 17774 15864 18005 
2559 2228 2262 2229 18000 16089 18001 18005 15864 16090 
2229 2262 2560 2263 16090 18006 18007 16096 16098 18008 
2526 2560 2527 2229 18009 18010 17784 17774 18007 17779 
2229 2262 2559 2560 16090 18001 18005 18007 18006 18011 
2526 2560 2229 2559 18009 18007 17774 18003 18011 18005 
2527 2229 2560 2230 17779 18007 18010 17781 15871 18012 
2560 2229 2263 2230 18007 16096 18008 18012 15871 16097 
2230 2263 2561 2264 16097 18013 18014 16103 16105 18015 
2527 2561 2528 2230 18016 18017 17791 17781 18014 17786 
2230 2263 2560 2561 16097 18008 18012 18014 18013 18018 
2527 2561 2230 2560 18016 18014 17781 18010 18018 18012 
2528 2230 2561 2231 17786 18014 18017 17788 15878 18019 
2561 2230 2264 2231 18014 16103 18015 18019 15878 16104 
2231 2264 2562 2265 16104 18020 18021 16110 16112 18022 
2528 2562 2529 2231 18023 18024 17798 17788 18021 17793 
2231 2264 2561 2562 16104 18015 18019 18021 18020 18025 
2528 2562 2231 2561 18023 18021 17788 18017 18025 18019 
2529 2231 2562 2232 17793 18021 18024 17795 15885 18026 
2562 2231 2265 2232 18021 16110 18022 18026 15885 16111 
2232 2265 2563 2266 16111 18027 18028 16117 16119 18029 
2529 2563 2530 2232 18030 18031 17805 17795 18028 17800 
2232 2265 2562 2563 16111 18022 18026 18028 18027 18032 
2529 2563 2232 2562 18030 18028 17795 18024 18032 18026 
2530 2232 2563 2233 17800 18028 18031 17802 15892 18033 
2563 2232 2266 2233 18028 16117 18029 18033 15892 16118 
2233 2266 2564 2267 16118 18034 18035 16124 16126 18036 
2530 2564 2531 2233 18037 18038 17812 17802 18035 17807 
2233 2266 2563 2564 16118 18029 18033 18035 18034 18039 
2530 2564 2233 2563 18037 18035 17802 18031 18039 18033 
2531 2233 2564 2234 17807 18035 18038 17809 15899 18040 
2564 2233 2267 2234 18035 16124 18036 18040 15899 16125 
2234 2267 2565 2268 16125 18041 18042 16131 16133 18043 
2531 2565 2532 2234 18044 18045 17819 17809 18042 17814 
2234 2267 2564 2565 16125 18036 18040 18042 18041 18046 
2531 2565 2234 2564 18044 18042 17809 18038 18046 18040 
2532 2234 2565 2235 17814 18042 18045 17816 15906 18047 
2565 2234 2268 2235 18042 16131 18043 18047 15906 16132 
2235 2268 2566 2269 16132 18048 18049 16138 16140 18050 
2532 2566 2533 2235 18051 18052 17826 17816 18049 17821 
2235 2268 2565 2566 16132 18043 18047 18049 18048 18053 
2532 2566 2235 2565 18051 18049 17816 18045 18053 18047 
2533 2235 2566 2236 17821 18049 18052 17823 15913 18054 
2566 2235 2269 2236 18049 16138 18050 18054 15913 16139 
2236 2269 2567 2270 16139 18055 18056 16145 16147 18057 
2533 2567 2534 2236 18058 18059 17833 17823 18056 17828 
2236 2269 2566 2567 16139 18050 18054 18056 18055 18060 
2533 2567 2236 2566 18058 18056 17823 18052 18060 18054 
2534 2236 2567 2237 17828 18056 18059 17830 15920 18061 
2567 2236 2270 2237 18056 16145 18057 18061 15920 16146 
2237 2270 2568 2271 16146 18062 18063 16152 16154 18064 
2534 2568 2535 2237 18065 18066 17840 17830 18063 17835 
2237 2270 2567 2568 16146 18057 18061 18063 18062 18067 
2534 2568 2237 2567 18065 18063 17830 18059 18067 18061 
2535 2237 2568 2238 17835 18063 18066 17837 15927 18068 
2568 2237 2271 2238 18063 16152 18064 18068 15927 16153 
2238 2271 2569 2272 16153 18069 18070 16159 16161 18071 
2535 2569 2536 2238 18072 18073 17847 17837 18070 17842 
2238 2271 2568 2569 16153 18064 18068 18070 18069 18074 
2535 2569 2238 2568 18072 18070 17837 18066 18074 18068 
2536 2238 2569 2239 17842 18070 18073 17844 15934 18075 
2569 2238 2272 2239 18070 16159 18071 18075 15934 16160 
2239 2272 2570 2273 16160 18076 18077 16166 16168 18078 
2536 2570 2537 2239 18079 18080 17854 17844 18077 17849 
2239 2272 2569 2570 16160 18071 18075 18077 18076 18081 
2536 2570 2239 2569 18079 18077 17844 18073 18081 18075 
2537 2239 2570 2240 17849 18077 18080 17851 15941 18082 
2570 2239 2273 2240 18077 16166 18078 18082 15941 16167 
2240 2273 2571 2274 16167 18083 18084 16173 16175 18085 
2537 2571 2538 2240 18086 18087 17861 17851 18084 17856 
2240 2273 2570 2571 16167 18078 18082 18084 18083 18088 
2537 2571 2240 2570 18086 18084 17851 18080 18088 18082 
2538 2240 2571 2241 17856 18084 18087 17858 15948 18089 
2571 2240 2274 2241 18084 16173 18085 18089 15948 16174 
2241 2274 2572 2275 16174 18090 18091 16180 16182 18092 
2538 2572 2539 2241 18093 18094 17868 17858 18091 17863 
2241 2274 2571 2572 16174 18085 18089 18091 18090 18095 
2538 2572 2241 2571 18093 18091 17858 18087 18095 18089 
2539 2241 2572 2242 17863 18091 18094 17865 15955 18096 
2572 2241 2275 2242 18091 16180 18092 18096 15955 16181 
2242 2275 2573 2276 16181 18097 18098 16187 16189 18099 
2539 2573 2540 2242 18100 18101 17875 17865 18098 17870 
2242 2275 2572 2573 16181 18092 18096 18098 18097 18102 
2539 2573 2242 2572 18100 18098 17865 18094 18102 18096 
2540 2242 2573 2243 17870 18098 18101 17872 15962 18103 
2573 2242 2276 2243 18098 16187 18099 18103 15962 16188 
2244 2277 2575 2278 16199 18104 18105 16194 16198 18106 
2541 2575 2542 2244 18107 18108 17884 17882 18105 17877 
2244 2277 2574 2575 16199 18109 18110 18105 18104 18111 
2541 2575 2244 2574 18107 18105 17882 18112 18111 18110 
2542 2244 2575 2245 17877 18105 18108 17879 15971 18113 
2575 2244 2278 2245 18105 16194 18106 18113 15971 16195 
2245 2278 2576 2279 16195 18114 18115 16204 16206 18116 
2542 2576 2543 2245 18117 18118 17892 17879 18115 17887 
2245 2278 2575 2576 16195 18106 18113 18115 18114 18119 
2542 2576 2245 2575 18117 18115 17879 18108 18119 18113 
2543 2245 2576 2246 17887 18115 18118 17889 15979 18120 
2576 2245 2279 2246 18115 16204 18116 18120 15979 16205 
2246 2279 2577 2280 16205 18121 18122 16211 16213 18123 
2543 2577 2544 2246 18124 18125 17899 17889 18122 17894 
2246 2279 2576 2577 16205 18116 18120 18122 18121 18126 
2543 2577 2246 2576 18124 18122 17889 18118 18126 18120 
2544 2246 2577 2247 17894 18122 18125 17896 15986 18127 
2577 2246 2280 2247 18122 16211 18123 18127 15986 16212 
2247 2280 2578 2281 16212 18128 18129 16218 16220 18130 
2544 2578 2545 2247 18131 18132 17906 17896 18129 17901 
2247 2280 2577 2578 16212 18123 18127 18129 18128 18133 
2544 2578 2247 2577 18131 18129 17896 18125 18133 18127 
2545 2247 2578 2248 17901 18129 18132 17903 15993 18134 
2578 2247 2281 2248 18129 16218 18130 18134 15993 16219 
2248 2281 2579 2282 16219 18135 18136 16225 16227 18137 
2545 2579 2546 2248 18138 18139 17913 17903 18136 17908 
2248 2281 2578 2579 16219 18130 18134 18136 18135 18140 
2545 2579 2248 2578 18138 18136 17903 18132 18140 18134 
2546 2248 2579 2249 17908 18136 18139 17910 16000 18141 
2579 2248 2282 2249 18136 16225 18137 18141 16000 16226 
2249 2282 2580 2283 16226 18142 18143 16232 16234 18144 
2546 2580 2547 2249 18145 18146 17920 17910 18143 17915 
2249 2282 2579 2580 16226 18137 18141 18143 18142 18147 
2546 2580 2249 2579 18145 18143 17910 18139 18147 18141 
2547 2249 2580 2250 17915 18143 18146 17917 16007 18148 
2580 2249 2283 2250 18143 16232 18144 18148 16007 16233 
2250 2283 2581 2284 16233 18149 18150 16239 16241 18151 
2547 2581 2548 2250 18152 18153 17927 17917 18150 17922 
2250 2283 2580 2581 16233 18144 18148 18150 18149 18154 
2547 2581 2250 2580 18152 18150 17917 18146 18154 18148 
2548 2250 2581 2251 17922 18150 18153 17924 16014 18155 
2581 2250 2284 2251 18150 16239 18151 18155 16014 16240 
2251 2284 2582 2285 16240 18156 18157 16246 16248 18158 
2548 2582 2549 2251 18159 18160 17934 17924 18157 17929 
2251 2284 2581 2582 16240 18151 18155 18157 18156 18161 
2548 2582 2251 2581 18159 18157 17924 18153 18161 18155 
2549 2251 2582 2252 17929 18157 18160 17931 16021 18162 
2582 2251 2285 2252 18157 16246 18158 18162 16021 16247 
2252 2285 2583 2286 16247 18163 18164 16253 16255 18165 
2549 2583 2550 2252 18166 18167 17941 17931 18164 17936 
2252 2285 2582 2583 16247 18158 18162 18164 18163 18168 
2549 2583 2252 2582 18166 18164 17931 18160 18168 18162 
2550 2252 2583 2253 17936 18164 18167 17938 16028 18169 
2583 2252 2286 2253 18164 16253 18165 18169 16028 16254 
2253 2286 2584 2287 16254 18170 18171 16260 16262 18172 
2550 2584 2551 2253 18173 18174 17948 17938 18171 17943 
2253 2286 2583 2584 16254 18165 18169 18171 18170 18175 
2550 2584 2253 2583 18173 18171 17938 18167 18175 18169 
2551 2253 2584 2254 17943 18171 18174 17945 16035 18176 
2584 2253 2287 2254 18171 16260 18172 18176 16035 16261 
2254 2287 2585 2288 16261 18177 18178 16267 16269 18179 
2551 2585 2552 2254 18180 18181 17955 17945 18178 17950 
2254 2287 2584 2585 16261 18172 18176 18178 18177 18182 
2551 2585 2254 2584 18180 18178 17945 18174 18182 18176 
2552 2254 2585 2255 17950 18178 18181 17952 16042 18183 
2585 2254 2288 2255 18178 16267 18179 18183 16042 16268 
2255 2288 2586 2289 16268 18184 18185 16274 16276 18186 
2552 2586 2553 2255 18187 18188 17962 17952 18185 17957 
2255 2288 2585 2586 16268 18179 18183 18185 18184 18189 
2552 2586 2255 2585 18187 18185 17952 18181 18189 18183 
2553 2255 2586 2256 17957 18185 18188 17959 16049 18190 
2586 2255 2289 2256 18185 16274 18186 18190 16049 16275 
2256 2289 2587 2290 16275 18191 18192 16281 16283 18193 
2553 2587 2554 2256 18194 18195 17969 17959 18192 17964 
2256 2289 2586 2587 16275 18186 18190 18192 18191 18196 
2553 2587 2256 2586 18194 18192 17959 18188 18196 18190 
2554 2256 2587 2257 17964 18192 18195 17966 16056 18197 
2587 2256 2290 2257 18192 16281 18193 18197 16056 16282 
2257 2290 2588 2291 16282 18198 18199 16288 16290 18200 
2554 2588 2555 2257 18201 18202 17976 17966 18199 17971 
2257 2290 2587 2588 16282 18193 18197 18199 18198 18203 
2554 2588 2257 2587 18201 18199 17966 18195 18203 18197 
2555 2257 2588 2258 17971 18199 18202 17973 16063 18204 
2588 2257 2291 2258 18199 16288 18200 18204 16063 16289 
2258 2291 2589 2292 16289 18205 18206 16295 16297 18207 
2555 2589 2556 2258 18208 18209 17983 17973 18206 17978 
2258 2291 2588 2589 16289 18200 18204 18206 18205 18210 
2555 2589 2258 2588 18208 18206 17973 18202 18210 18204 
2556 2258 2589 2259 17978 18206 18209 17980 16070 18211 
2589 2258 2292 2259 18206 16295 18207 18211 16070 16296 
2259 2292 2590 2293 16296 18212 18213 16302 16304 18214 
2556 2590 2557 2259 18215 18216 17990 17980 18213 17985 
2259 2292 2589 2590 16296 18207 18211 18213 18212 18217 
2556 2590 2259 2589 18215 18213 17980 18209 18217 18211 
2557 2259 2590 2260 17985 18213 18216 17987 16077 18218 
2590 2259 2293 2260 18213 16302 18214 18218 16077 16303 
2260 2293 2591 2294 16303 18219 18220 16309 16311 18221 
2557 2591 2558 2260 18222 18223 17997 17987 18220 17992 
2260 2293 2590 2591 16303 18214 18218 18220 18219 18224 
2557 2591 2260 2590 18222 18220 17987 18216 18224 18218 
2558 2260 2591 2261 17992 18220 18223 17994 16084 18225 
2591 2260 2294 2261 18220 16309 18221 18225 16084 16310 
2261 2294 2592 2295 16310 18226 18227 16316 16318 18228 
2558 2592 2559 2261 18229 18230 18004 17994 18227 17999 
2261 2294 2591 2592 16310 18221 18225 18227 18226 18231 
2558 2592 2261 2591 18229 18227 17994 18223 18231 18225 
2559 2261 2592 2262 17999 18227 18230 18001 16091 18232 
2592 2261 2295 2262 18227 16316 18228 18232 16091 16317 
2262 2295 2593 2296 16317 18233 18234 16323 16325 18235 
2559 2593 2560 2262 18236 18237 18011 18001 18234 18006 
2262 2295 2592 2593 16317 18228 18232 18234 18233 18238 
2559 2593 2262 2592 18236 18234 18001 18230 18238 18232 
2560 2262 2593 2263 18006 18234 18237 18008 16098 18239 
2593 2262 2296 2263 18234 16323 18235 18239 16098 16324 
2263 2296 2594 2297 16324 18240 18241 16330 16332 18242 
2560 2594 2561 2263 18243 18244 18018 18008 18241 18013 
2263 2296 2593 2594 16324 18235 18239 18241 18240 18245 
2560 2594 2263 2593 18243 18241 18008 18237 18245 18239 
2561 2263 2594 2264 18013 18241 18244 18015 16105 18246 
2594 2263 2297 2264 18241 16330 18242 18246 16105 16331 
2264 2297 2595 2298 16331 18247 18248 16337 16339 18249 
2561 2595 2562 2264 18250 18251 18025 18015 18248 18020 
2264 2297 2594 2595 16331 18242 18246 18248 18247 18252 
2561 2595 2264 2594 18250 18248 18015 18244 18252 18246 
2562 2264 2595 2265 18020 18248 18251 18022 16112 18253 
2595 2264 2298 2265 18248 16337 18249 18253 16112 16338 
2265 2298 2596 2299 16338 18254 18255 16344 16346 18256 
2562 2596 2563 2265 18257 18258 18032 18022 18255 18027 
2265 2298 2595 2596 16338 18249 18253 18255 18254 18259 
2562 2596 2265 2595 18257 18255 18022 18251 18259 18253 
2563 2265 2596 2266 18027 18255 18258 18029 16119 18260 
2596 2265 2299 2266 18255 16344 18256 18260 16119 16345 
2266 2299 2597 2300 16345 18261 18262 16351 16353 18263 
2563 2597 2564 2266 18264 18265 18039 18029 18262 18034 
2266 2299 2596 2597 16345 18256 18260 18262 18261 18266 
2563 2597 2266 2596 18264 18262 18029 18258 18266 18260 
2564 2266 2597 2267 18034 18262 18265 18036 16126 18267 
2597 2266 2300 2267 18262 16351 18263 18267 16126 16352 
2267 2300 2598 2301 16352 18268 18269 16358 16360 18270 
2564 2598 2565 2267 18271 18272 18046 18036 18269 18041 
2267 2300 2597 2598 16352 18263 18267 18269 18268 18273 
2564 2598 2267 2597 18271 18269 18036 18265 18273 18267 
2565 2267 2598 2268 18041 18269 18272 18043 16133 18274 
2598 2267 2301 2268 18269 16358 18270 18274 16133 16359 
2268 2301 2599 2302 16359 18275 18276 16365 16367 18277 
2565 2599 2566 2268 18278 18279 18053 18043 18276 18048 
2268 2301 2598 2599 16359 18270 18274 18276 18275 18280 
2565 2599 2268 2598 18278 18276 18043 18272 18280 18274 
2566 2268 2599 2269 18048 18276 18279 18050 16140 18281 
2599 2268 2302 2269 18276 16365 18277 18281 16140 16366 
2269 2302 2600 2303 16366 18282 18283 16372 16374 18284 
2566 2600 2567 2269 18285 18286 18060 18050 18283 18055 
2269 2302 2599 2600 16366 18277 18281 18283 18282 18287 
2566 2600 2269 2599 18285 18283 18050 18279 18287 18281 
2567 2269 2600 2270 18055 18283 18286 18057 16147 18288 
2600 2269 2303 2270 18283 16372 18284 18288 16147 16373 
2270 2303 2601 2304 16373 18289 18290 16379 16381 18291 
2567 2601 2568 2270 18292 18293 18067 18057 18290 18062 
2270 2303 2600 2601 16373 18284 18288 18290 18289 18294 
2567 2601 2270 2600 18292 18290 18057 18286 18294 18288 
2568 2270 2601 2271 18062 18290 18293 18064 16154 18295 
2601 2270 2304 2271 18290 16379 18291 18295 16154 16380 
2271 2304 2602 2305 16380 18296 18297 16386 16388 18298 
2568 2602 2569 2271 18299 18300 18074 18064 18297 18069 
2271 2304 2601 2602 16380 18291 18295 18297 18296 18301 
2568 2602 2271 2601 18299 18297 18064 18293 18301 18295 
2569 2271 2602 2272 18069 18297 18300 18071 16161 18302 
2602 2271 2305 2272 18297 16386 18298 18302 16161 16387 
2272 2305 2603 2306 16387 18303 18304 16393 16395 18305 
2569 2603 2570 2272 18306 18307 18081 18071 18304 18076 
2272 2305 2602 2603 16387 18298 18302 18304 18303 18308 
2569 2603 2272 2602 18306 18304 18071 18300 18308 18302 
2570 2272 2603 2273 18076 18304 18307 18078 16168 18309 
2603 2272 2306 2273 18304 16393 18305 18309 16168 16394 
2273 2306 2604 2307 16394 18310 18311 16400 16402 18312 
2570 2604 2571 2273 18313 18314 18088 18078 18311 18083 
2273 2306 2603 2604 16394 18305 18309 18311 18310 18315 
2570 2604 2273 2603 18313 18311 18078 18307 18315 18309 
2571 2273 2604 2274 18083 18311 18314 18085 16175 18316 
2604 2273 2307 2274 18311 16400 18312 18316 16175 16401 
2274 2307 2605 2308 16401 18317 18318 16407 16409 18319 
2571 2605 2572 2274 18320 18321 18095 18085 18318 18090 
2274 2307 2604 2605 16401 18312 18316 18318 18317 18322 
2571 2605 2274 2604 18320 18318 18085 18314 18322 18316 
2572 2274 2605 2275 18090 18318 18321 18092 16182 18323 
2605 2274 2308 2275 18318 16407 18319 18323 16182 16408 
2275 2308 2606 2309 16408 18324 18325 16414 16416 18326 
2572 2606 2573 2275 18327 18328 18102 18092 18325 18097 
2275 2308 2605 2606 16408 18319 18323 18325 18324 18329 
2572 2606 2275 2605 18327 18325 18092 18321 18329 18323 
2573 2275 2606 2276 18097 18325 18328 18099 16189 18330 
2606 2275 2309 2276 18325 16414 18326 18330 16189 16415 
2277 2310 2608 2311 16426 18331 18332 16421 16425 18333 
2574 2608 2575 2277 18334 18335 18111 18109 18332 18104 
2277 2310 2607 2608 16426 18336 18337 18332 18331 18338 
2574 2608 2277 2607 18334 18332 18109 18339 18338 18337 
2575 2277 2608 2278 18104 18332 18335 18106 16198 18340 
2608 2277 2311 2278 18332 16421 18333 18340 16198 16422 
2278 2311 2609 2312 16422 18341 18342 16431 16433 18343 
2575 2609 2576 2278 18344 18345 18119 18106 18342 18114 
2278 2311 2608 2609 16422 18333 18340 18342 18341 18346 
2575 2609 2278 2608 18344 18342 18106 18335 18346 18340 
2576 2278 2609 2279 18114 18342 18345 18116 16206 18347 
2609 2278 2312 2279 18342 16431 18343 18347 16206 16432 
2279 2312 2610 2313 16432 18348 18349 16438 16440 18350 
2576 2610 2577 2279 18351 18352 18126 18116 18349 18121 
2279 2312 2609 2610 16432 18343 18347 18349 18348 18353 
2576 2610 2279 2609 18351 18349 18116 18345 18353 18347 
2577 2279 2610 2280 18121 18349 18352 18123 16213 18354 
2610 2279 2313 2280 18349 16438 18350 18354 16213 16439 
2280 2313 2611 2314 16439 18355 18356 16445 16447 18357 
2577 2611 2578 2280 18358 18359 18133 18123 18356 18128 
2280 2313 2610 2611 16439 18350 18354 18356 18355 18360 
2577 2611 2280 2610 18358 18356 18123 18352 18360 18354 
2578 2280 2611 2281 18128 18356 18359 18130 16220 18361 
2611 2280 2314 2281 18356 16445 18357 18361 16220 16446 
2281 2314 2612 2315 16446 18362 18363 16452 16454 18364 
2578 2612 2579 2281 18365 18366 18140 18130 18363 18135 
2281 2314 2611 2612 16446 18357 18361 18363 18362 18367 
2578 2612 2281 2611 18365 18363 18130 18359 18367 18361 
2579 2281 2612 2282 18135 18363 18366 18137 16227 18368 
2612 2281 2315 2282 18363 16452 18364 18368 16227 16453 
2282 2315 2613 2316 16453 18369 18370 16459 16461 18371 
2579 2613 2580 2282 18372 18373 18147 18137 18370 18142 
2282 2315 2612 2613 16453 18364 18368 18370 18369 18374 
2579 2613 2282 2612 18372 18370 18137 18366 18374 18368 
2580 2282 2613 2283 18142 18370 18373 18144 16234 18375 
2613 2282 2316 2283 18370 16459 18371 18375 16234 16460 
2283 2316 2614 2317 16460 18376 18377 16466 16468 18378 
2580 2614 2581 2283 18379 18380 18154 18144 18377 18149 
2283 2316 2613 2614 16460 18371 18375 18377 18376 18381 
2580 2614 2283 2613 18379 18377 18144 18373 18381 18375 
2581 2283 2614 2284 18149 18377 18380 18151 16241 18382 
2614 2283 2317 2284 18377 16466 18378 18382 16241 16467 
2284 2317 2615 2318 16467 18383 18384 16473 16475 18385 
2581 2615 2582 2284 18386 18387 18161 18151 18384 18156 
2284 2317 2614 2615 16467 18378 18382 18384 18383 18388 
2581 2615 2284 2614 18386 18384 18151 18380 18388 18382 
2582 2284 2615 2285 18156 18384 18387 18158 16248 18389 
2615 2284 2318 2285 18384 16473 18385 18389 16248 16474 
2285 2318 2616 2319 16474 18390 18391 16480 16482 18392 
2582 2616 2583 2285 18393 18394 18168 18158 18391 18163 
2285 2318 2615 2616 16474 18385 18389 18391 18390 18395 
2582 2616 2285 2615 18393 18391 18158 18387 18395 18389 
2583 2285 2616 2286 18163 18391 18394 18165 16255 18396 
2616 2285 2319 2286 18391 16480 18392 18396 16255 16481 
2286 2319 2617 2320 16481 18397 18398 16487 16489 18399 
2583 2617 2584 2286 18400 18401 18175 18165 18398 18170 
2286 2319 2616 2617 16481 18392 18396 18398 18397 18402 
2583 2617 2286 2616 18400 18398 18165 18394 18402 18396 
2584 2286 2617 2287 18170 18398 18401 18172 16262 18403 
2617 2286 2320 2287 18398 16487 18399 18403 16262 16488 
2287 2320 2618 2321 16488 18404 18405 16494 16496 18406 
2584 2618 2585 2287 18407 18408 18182 18172 18405 18177 
2287 2320 2617 2618 16488 18399 18403 18405 18404 18409 
2584 2618 2287 2617 18407 18405 18172 18401 18409 18403 
2585 2287 2618 2288 18177 18405 18408 18179 16269 18410 
2618 2287 2321 2288 18405 16494 18406 18410 16269 16495 
2288 2321 2619 2322 16495 18411 18412 16501 16503 18413 
2585 2619 2586 2288 18414 18415 18189 18179 18412 18184 
2288 2321 2618 2619 16495 18406 18410 18412 18411 18416 
2585 2619 2288 2618 18414 18412 18179 18408 18416 18410 
2586 2288 2619 2289 18184 18412 18415 18186 16276 18417 
2619 2288 2322 2289 18412 16501 18413 18417 16276 16502 
2289 2322 2620 2323 16502 18418 18419 16508 16510 18420 
2586 2620 2587 2289 18421 18422 18196 18186 18419 18191 
2289 2322 2619 2620 16502 18413 18417 18419 18418 18423 
2586 2620 2289 2619 18421 18419 18186 18415 18423 18417 
2587 2289 2620 2290 18191 18419 18422 18193 16283 18424 
2620 2289 2323 2290 18419 16508 18420 18424 16283 16509 
2290 2323 2621 2324 16509 18425 18426 16515 16517 18427 
2587 2621 2588 2290 18428 18429 18203 18193 18426 18198 
2290 2323 2620 2621 16509 18420 18424 18426 18425 18430 
2587 2621 2290 2620 18428 18426 18193 18422 18430 18424 
2588 2290 2621 2291 18198 18426 18429 18200 16290 18431 
2621 2290 2324 2291 18426 16515 18427 18431 16290 16516 
2291 2324 2622 2325 16516 18432 18433 16522 16524 18434 
2588 2622 2589 2291 18435 18436 18210 18200 18433 18205 
2291 2324 2621 2622 16516 18427 18431 18433 18432 18437 
2588 2622 2291 2621 18435 18433 18200 18429 18437 18431 
2589 2291 2622 2292 18205 18433 18436 18207 16297 18438 
2622 2291 2325 2292 18433 16522 18434 18438 16297 16523 
2292 2325 2623 2326 16523 18439 18440 16529 16531 18441 
2589 2623 2590 2292 18442 18443 18217 18207 18440 18212 
2292 2325 2622 2623 16523 18434 18438 18440 18439 18444 
2589 2623 2292 2622 18442 18440 18207 18436 18444 18438 
2590 2292 2623 2293 18212 18440 18443 18214 16304 18445 
2623 2292 2326 2293 18440 16529 18441 18445 16304 16530 
2293 2326 2624 2327 16530 18446 18447 16536 16538 18448 
2590 2624 2591 2293 18449 18450 18224 18214 18447 18219 
2293 2326 2623 2624 16530 18441 18445 18447 18446 18451 
2590 2624 2293 2623 18449 18447 18214 18443 18451 18445 
2591 2293 2624 2294 18219 18447 18450 18221 16311 18452 
2624 2293 2327 2294 18447 16536 18448 18452 16311 16537 
2294 2327 2625 2328 16537 18453 18454 16543 16545 18455 
2591 2625 2592 2294 18456 18457 18231 18221 18454 18226 
2294 2327 2624 2625 16537 18448 18452 18454 18453 18458 
2591 2625 2294 2624 18456 18454 18221 18450 18458 18452 
2592 2294 2625 2295 18226 18454 18457 18228 16318 18459 
2625 2294 2328 2295 18454 16543 18455 18459 16318 16544 
2295 2328 2626 2329 16544 18460 18461 16550 16552 18462 
2592 2626 2593 2295 18463 18464 18238 18228 18461 18233 
2295 2328 2625 2626 16544 18455 18459 18461 18460 18465 
2592 2626 2295 2625 18463 18461 18228 18457 18465 18459 
2593 2295 2626 2296 18233 18461 18464 18235 16325 18466 
2626 2295 2329 2296 18461 16550 18462 18466 16325 16551 
2296 2329 2627 2330 16551 18467 18468 16557 16559 18469 
2593 2627 2594 2296 18470 18471 18245 18235 18468 18240 
2296 2329 2626 2627 16551 18462 18466 18468 18467 18472 
2593 2627 2296 2626 18470 18468 18235 18464 18472 18466 
2594 2296 2627 2297 18240 18468 18471 18242 16332 18473 
2627 2296 2330 2297 18468 16557 18469 18473 16332 16558 
2297 2330 2628 2331 16558 18474 18475 16564 16566 18476 
2594 2628 2595 2297 18477 18478 18252 18242 18475 18247 
2297 2330 2627 2628 16558 18469 18473 18475 18474 18479 
2594 2628 2297 2627 18477 18475 18242 18471 18479 18473 
2595 2297 2628 2298 18247 18475 18478 18249 16339 18480 
2628 2297 2331 2298 18475 16564 18476 18480 16339 16565 
2298 2331 2629 2332 16565 18481 18482 16571 16573 18483 
2595 2629 2596 2298 18484 18485 18259 18249 18482 18254 
2298 2331 2628 2629 16565 18476 18480 18482 18481 18486 
2595 2629 2298 2628 18484 18482 18249 18478 18486 18480 
2596 2298 2629 2299 18254 18482 18485 18256 16346 18487 
2629 2298 2332 2299 18482 16571 18483 18487 16346 16572 
2299 2332 2630 2333 16572 18488 18489 16578 16580 18490 
2596 2630 2597 2299 18491 18492 18266 18256 18489 18261 
2299 2332 2629 2630 16572 18483 18487 18489 18488 18493 
2596 2630 2299 2629 18491 18489 18256 18485 18493 18487 
2597 2299 2630 2300 18261 18489 18492 18263 16353 18494 
2630 2299 2333 2300 18489 16578 18490 18494 16353 16579 
2300 2333 2631 2334 16579 18495 18496 16585 16587 18497 
2597 2631 2598 2300 18498 18499 18273 18263 18496 18268 
2300 2333 2630 2631 16579 18490 18494 18496 18495 18500 
2597 2631 2300 2630 18498 18496 18263 18492 18500 18494 
2598 2300 2631 2301 18268 18496 18499 18270 16360 18501 
2631 2300 2334 2301 18496 16585 18497 18501 16360 16586 
2301 2334 2632 2335 16586 18502 18503 16592 16594 18504 
2598 2632 2599 2301 18505 18506 18280 18270 18503 18275 
2301 2334 2631 2632 16586 18497 18501 18503 18502 18507 
2598 2632 2301 2631 18505 18503 18270 18499 18507 18501 
2599 2301 2632 2302 18275 18503 18506 18277 16367 18508 
2632 2301 2335 2302 18503 16592 18504 18508 16367 16593 
2302 2335 2633 2336 16593 18509 18510 16599 16601 18511 
2599 2633 2600 2302 18512 18513 18287 18277 18510 18282 
2302 2335 2632 2633 16593 18504 18508 18510 18509 18514 
2599 2633 2302 2632 18512 18510 18277 18506 18514 18508 
2600 2302 2633 2303 18282 18510 18513 18284 16374 18515 
2633 2302 2336 2303 18510 16599 18511 18515 16374 16600 
2303 2336 2634 2337 16600 18516 18517 16606 16608 18518 
2600 2634 2601 2303 18519 18520 18294 18284 18517 18289 
2303 2336 2633 2634 16600 18511 18515 18517 18516 18521 
2600 2634 2303 2633 18519 18517 18284 18513 18521 18515 
2601 2303 2634 2304 18289 18517 18520 18291 16381 18522 
2634 2303 2337 2304 18517 16606 18518 18522 16381 16607 
2304 2337 2635 2338 16607 18523 18524 16613 16615 18525 
2601 2635 2602 2304 18526 18527 18301 18291 18524 18296 
2304 2337 2634 2635 16607 18518 18522 18524 18523 18528 
2601 2635 2304 2634 18526 18524 18291 18520 18528 18522 
2602 2304 2635 2305 18296 18524 18527 18298 16388 18529 
2635 2304 2338 2305 18524 16613 18525 18529 16388 16614 
2305 2338 2636 2339 16614 18530 18531 16620 16622 18532 
2602 2636 2603 2305 18533 18534 18308 18298 18531 18303 
2305 2338 2635 2636 16614 18525 18529 18531 18530 18535 
2602 2636 2305 2635 18533 18531 18298 18527 18535 18529 
2603 2305 2636 2306 18303 18531 18534 18305 16395 18536 
2636 2305 2339 2306 18531 16620 18532 18536 16395 16621 
2306 2339 2637 2340 16621 18537 18538 16627 16629 18539 
2603 2637 2604 2306 18540 18541 18315 18305 18538 18310 
2306 2339 2636 2637 16621 18532 18536 18538 18537 18542 
2603 2637 2306 2636 18540 18538 18305 18534 18542 18536 
2604 2306 2637 2307 18310 18538 18541 18312 16402 18543 
2637 2306 2340 2307 18538 16627 18539 18543 16402 16628 
2307 2340 2638 2341 16628 18544 18545 16634 16636 18546 
2604 2638 2605 2307 18547 18548 18322 18312 18545 18317 
2307 2340 2637 2638 16628 18539 18543 18545 18544 18549 
2604 2638 2307 2637 18547 18545 18312 18541 18549 18543 
2605 2307 2638 2308 18317 18545 18548 18319 16409 18550 
2638 2307 2341 2308 18545 16634 18546 18550 16409 16635 
2308 2341 2639 2342 16635 18551 18552 16641 16643 18553 
2605 2639 2606 2308 18554 18555 18329 18319 18552 18324 
2308 2341 2638 2639 16635 18546 18550 18552 18551 18556 
2605 2639 2308 2638 18554 18552 18319 18548 18556 18550 
2606 2308 2639 2309 18324 18552 18555 18326 16416 18557 
2639 2308 2342 2309 18552 16641 18553 18557 16416 16642 
2310 2343 2641 2344 16653 18558 18559 16648 16652 18560 
2607 2641 2608 2310 18561 18562 18338 18336 18559 18331 
2310 2343 2640 2641 16653 18563 18564 18559 18558 18565 
2607 2641 2310 2640 18561 18559 18336 18566 18565 18564 
2608 2310 2641 2311 18331 18559 18562 18333 16425 18567 
2641 2310 2344 2311 18559 16648 18560 18567 16425 16649 
2311 2344 2642 2345 16649 18568 18569 16658 16660 18570 
2608 2642 2609 2311 18571 18572 18346 18333 18569 18341 
2311 2344 2641 2642 16649 18560 18567 18569 18568 18573 
2608 2642 2311 2641 18571 18569 18333 18562 18573 18567 
2609 2311 2642 2312 18341 18569 18572 18343 16433 18574 
2642 2311 2345 2312 18569 16658 18570 18574 16433 16659 
2312 2345 2643 2346 16659 18575 18576 16665 16667 18577 
2609 2643 2610 2312 18578 18579 18353 18343 18576 18348 
2312 2345 2642 2643 16659 18570 18574 18576 18575 18580 
2609 2643 2312 2642 18578 18576 18343 18572 18580 18574 
2610 2312 2643 2313 18348 18576 18579 18350 16440 18581 
2643 2312 2346 2313 18576 16665 18577 18581 16440 16666 
2313 2346 2644 2347 16666 18582 18583 16672 16674 18584 
2610 2644 2611 2313 18585 18586 18360 18350 18583 18355 
2313 2346 2643 2644 16666 18577 18581 18583 18582 18587 
2610 2644 2313 2643 18585 18583 18350 18579 18587 18581 
2611 2313 2644 2314 18355 18583 18586 18357 16447 18588 
2644 2313 2347 2314 18583 16672 18584 18588 16447 16673 
2314 2347 2645 2348 16673 18589 18590 16679 16681 18591 
2611 2645 2612 2314 18592 18593 18367 18357 18590 18362 
2314 2347 2644 2645 16673 18584 18588 18590 18589 18594 
2611 2645 2314 2644 18592 18590 18357 18586 18594 18588 
2612 2314 2645 2315 18362 18590 18593 18364 16454 18595 
2645 2314 2348 2315 18590 16679 18591 18595 16454 16680 
2315 2348 2646 2349 16680 18596 18597 16686 16688 18598 
2612 2646 2613 2315 18599 18600 18374 18364 18597 18369 
2315 2348 2645 2646 16680 18591 18595 18597 18596 18601 
2612 2646 2315 2645 18599 18597 18364 18593 18601 18595 
2613 2315 2646 2316 18369 18597 18600 18371 16461 18602 
2646 2315 2349 2316 18597 16686 18598 18602 16461 16687 
2316 2349 2647 2350 16687 18603 18604 16693 16695 18605 
2613 2647 2614 2316 18606 18607 18381 18371 18604 18376 
2316 2349 2646 2647 16687 18598 18602 18604 18603 18608 
2613 2647 2316 2646 18606 18604 18371 18600 18608 18602 
2614 2316 2647 2317 18376 18604 18607 18378 16468 18609 
2647 2316 2350 2317 18604 16693 18605 18609 16468 16694 
2317 2350 2648 2351 16694 18610 18611 16700 16702 18612 
2614 2648 2615 2317 18613 18614 18388 18378 18611 18383 
2317 2350 2647 2648 16694 18605 18609 18611 18610 18615 
2614 2648 2317 2647 18613 18611 18378 18607 18615 18609 
2615 2317 2648 2318 18383 18611 18614 18385 16475 18616 
2648 2317 2351 2318 18611 16700 18612 18616 16475 16701 
2318 2351 2649 2352 16701 18617 18618 16707 16709 18619 
2615 2649 2616 2318 18620 18621 18395 18385 18618 18390 
2318 2351 2648 2649 16701 18612 18616 18618 18617 18622 
2615 2649 2318 2648 18620 18618 18385 18614 18622 18616 
2616 2318 2649 2319 18390 18618 18621 18392 16482 18623 
2649 2318 2352 2319 18618 16707 18619 18623 16482 16708 
2319 2352 2650 2353 16708 18624 18625 16714 16716 18626 
2616 2650 2617 2319 18627 18628 18402 18392 18625 18397 
2319 2352 2649 2650 16708 18619 18623 18625 18624 18629 
2616 2650 2319 2649 18627 18625 18392 18621 18629 18623 
2617 2319 2650 2320 18397 18625 18628 18399 16489 18630 
2650 2319 2353 2320 18625 16714 18626 18630 16489 16715 
2320 2353 2651 2354 16715 18631 18632 16721 16723 18633 
2617 2651 2618 2320 18634 18635 18409 18399 18632 18404 
2320 2353 2650 2651 16715 18626 18630 18632 18631 18636 
2617 2651 2320 2650 18634 18632 18399 18628 18636 18630 
2618 2320 2651 2321 18404 18632 18635 18406 16496 18637 
2651 2320 2354 2321 18632 16721 18633 18637 16496 16722 
2321 2354 2652 2355 16722 18638 18639 16728 16730 18640 
2618 2652 2619 2321 18641 18642 18416 18406 18639 18411 
2321 2354 2651 2652 16722 18633 18637 18639 18638 18643 
2618 2652 2321 2651 18641 18639 18406 18635 18643 18637 
2619 2321 2652 2322 18411 18639 18642 18413 16503 18644 
2652 2321 2355 2322 18639 16728 18640 18644 16503 16729 
2322 2355 2653 2356 16729 18645 18646 16735 16737 18647 
2619 2653 2620 2322 18648 18649 18423 18413 18646 18418 
2322 2355 2652 2653 16729 18640 18644 18646 18645 18650 
2619 2653 2322 2652 18648 18646 18413 18642 18650 18644 
2620 2322 2653 2323 18418 18646 18649 18420 16510 18651 
2653 2322 2356 2323 18646 16735 18647 18651 16510 16736 
2323 2356 2654 2357 16736 18652 18653 16742 16744 18654 
2620 2654 2621 2323 18655 18656 18430 18420 18653 18425 
2323 2356 2653 2654 16736 18647 18651 18653 18652 18657 
2620 2654 2323 2653 18655 18653 18420 18649 18657 18651 
2621 2323 2654 2324 18425 18653 18656 18427 16517 18658 
2654 2323 2357 2324 18653 16742 18654 18658 16517 16743 
2324 2357 2655 2358 16743 18659 18660 16749 16751 18661 
2621 2655 2622 2324 18662 18663 18437 18427 18660 18432 
2324 2357 2654 2655 16743 18654 18658 18660 18659 18664 
2621 2655 2324 2654 18662 18660 18427 18656 18664 18658 
2622 2324 2655 2325 18432 18660 18663 18434 16524 18665 
2655 2324 2358 2325 18660 16749 18661 18665 16524 16750 
2325 2358 2656 2359 16750 18666 18667 16756 16758 18668 
2622 2656 2623 2325 18669 18670 18444 18434 18667 18439 
2325 2358 2655 2656 16750 18661 18665 18667 18666 18671 
2622 2656 2325 2655 18669 18667 18434 18663 18671 18665 
2623 2325 2656 2326 18439 18667 18670 18441 16531 18672 
2656 2325 2359 2326 18667 16756 18668 18672 16531 16757 
2326 2359 2657 2360 16757 18673 18674 16763 16765 18675 
2623 2657 2624 2326 18676 18677 18451 18441 18674 18446 
2326 2359 2656 2657 16757 18668 18672 18674 18673 18678 
2623 2657 2326 2656 18676 18674 18441 18670 18678 18672 
2624 2326 2657 2327 18446 18674 18677 18448 16538 18679 
2657 2326 2360 2327 18674 16763 18675 18679 16538 16764 
2327 2360 2658 2361 16764 18680 18681 16770 16772 18682 
2624 2658 2625 2327 18683 18684 18458 18448 18681 18453 
2327 2360 2657 2658 16764 18675 18679 18681 18680 18685 
2624 2658 2327 2657 18683 18681 18448 18677 18685 18679 
2625 2327 2658 2328 18453 18681 18684 18455 16545 18686 
2658 2327 2361 2328 18681 16770 18682 18686 16545 16771 
2328 2361 2659 2362 16771 18687 18688 16777 16779 18689 
2625 2659 2626 2328 18690 18691 18465 18455 18688 18460 
2328 2361 2658 2659 16771 18682 18686 18688 18687 18692 
2625 2659 2328 2658 18690 18688 18455 18684 18692 18686 
2626 2328 2659 2329 18460 18688 18691 18462 16552 18693 
2659 2328 2362 2329 18688 16777 18689 18693 16552 16778 
2329 2362 2660 2363 16778 18694 18695 16784 16786 18696 
2626 2660 2627 2329 18697 18698 18472 18462 18695 18467 
2329 2362 2659 2660 16778 18689 18693 18695 18694 18699 
2626 2660 2329 2659 18697 18695 18462 18691 18699 18693 
2627 2329 2660 2330 18467 18695 18698 18469 16559 18700 
2660 2329 2363 2330 18695 16784 18696 18700 16559 16785 
2330 2363 2661 2364 16785 18701 18702 16791 16793 18703 
2627 2661 2628 2330 18704 18705 18479 18469 18702 18474 
2330 2363 2660 2661 16785 18696 18700 18702 18701 18706 
2627 2661 2330 2660 18704 18702 18469 18698 18706 18700 
2628 2330 2661 2331 18474 18702 18705 18476 16566 18707 
2661 2330 2364 2331 18702 16791 18703 18707 16566 16792 
2331 2364 2662 2365 16792 18708 18709 16798 16800 18710 
2628 2662 2629 2331 18711 18712 18486 18476 18709 18481 
2331 2364 2661 2662 16792 18703 18707 18709 18708 18713 
2628 2662 2331 2661 18711 18709 18476 18705 18713 18707 
2629 2331 2662 2332 18481 18709 18712 18483 16573 18714 
2662 2331 2365 2332 18709 16798 18710 18714 16573 16799 
2332 2365 2663 2366 16799 18715 18716 16805 16807 18717 
2629 2663 2630 2332 18718 18719 18493 18483 18716 18488 
2332 2365 2662 2663 16799 18710 18714 18716 18715 18720 
2629 2663 2332 2662 18718 18716 18483 18712 18720 18714 
2630 2332 2663 2333 18488 18716 18719 18490 16580 18721 
2663 2332 2366 2333 18716 16805 18717 18721 16580 16806 
2333 2366 2664 2367 16806 18722 18723 16812 16814 18724 
2630 2664 2631 2333 18725 18726 18500 18490 18723 18495 
2333 2366 2663 2664 16806 18717 18721 18723 18722 18727 
2630 2664 2333 2663 18725 18723 18490 18719 18727 18721 
2631 2333 2664 2334 18495 18723 18726 18497 16587 18728 
2664 2333 2367 2334 18723 16812 18724 18728 16587 16813 
2334 2367 2665 2368 16813 18729 18730 16819 16821 18731 
2631 2665 2632 2334 18732 18733 18507 18497 18730 18502 
2334 2367 2664 2665 16813 18724 18728 18730 18729 18734 
2631 2665 2334 2664 18732 18730 18497 18726 18734 18728 
2632 2334 2665 2335 18502 18730 18733 18504 16594 18735 
2665 2334 2368 2335 18730 16819 18731 18735 16594 16820 
2335 2368 2666 2369 16820 18736 18737 16826 16828 18738 
2632 2666 2633 2335 18739 18740 18514 18504 18737 18509 
2335 2368 2665 2666 16820 18731 18735 18737 18736 18741 
2632 2666 2335 2665 18739 18737 18504 18733 18741 18735 
2633 2335 2666 2336 18509 18737 18740 18511 16601 18742 
2666 2335 2369 2336 18737 16826 18738 18742 16601 16827 
2336 2369 2667 2370 16827 18743 18744 16833 16835 18745 
2633 2667 2634 2336 18746 18747 18521 18511 18744 18516 
2336 2369 2666 2667 16827 18738 18742 18744 18743 18748 
2633 2667 2336 2666 18746 18744 18511 18740 18748 18742 
2634 2336 2667 2337 18516 18744 18747 18518 16608 18749 
2667 2336 2370 2337 18744 16833 18745 18749 16608 16834 
2337 2370 2668 2371 16834 18750 18751 16840 16842 18752 
2634 2668 2635 2337 18753 18754 18528 18518 18751 18523 
2337 2370 2667 2668 16834 18745 18749 18751 18750 18755 
2634 2668 2337 2667 18753 18751 18518 18747 18755 18749 
2635 2337 2668 2338 18523 18751 18754 18525 16615 18756 
2668 2337 2371 2338 18751 16840 18752 18756 16615 16841 
2338 2371 2669 2372 16841 18757 18758 16847 16849 18759 
2635 2669 2636 2338 18760 18761 18535 18525 18758 18530 
2338 2371 2668 2669 16841 18752 18756 18758 18757 18762 
2635 2669 2338 2668 18760 18758 18525 18754 18762 18756 
2636 2338 2669 2339 18530 18758 18761 18532 16622 18763 
2669 2338 2372 2339 18758 16847 18759 18763 16622 16848 
2339 2372 2670 2373 16848 18764 18765 16854 16856 18766 
2636 2670 2637 2339 18767 18768 18542 18532 18765 18537 
2339 2372 2669 2670 16848 18759 18763 18765 18764 18769 
2636 2670 2339 2669 18767 18765 18532 18761 18769 18763 
2637 2339 2670 2340 18537 18765 18768 18539 16629 18770 
2670 2339 2373 2340 18765 16854 18766 18770 16629 16855 
2340 2373 2671 2374 16855 18771 18772 16861 16863 18773 
2637 2671 2638 2340 18774 18775 18549 18539 18772 18544 
2340 2373 2670 2671 16855 18766 18770 18772 18771 18776 
2637 2671 2340 2670 18774 18772 18539 18768 18776 18770 
2638 2340 2671 2341 18544 18772 18775 18546 16636 18777 
2671 2340 2374 2341 18772 16861 18773 18777 16636 16862 
2341 2374 2672 2375 16862 18778 18779 16868 16870 18780 
2638 2672 2639 2341 18781 18782 18556 18546 18779 18551 
2341 2374 2671 2672 16862 18773 18777 18779 18778 18783 
2638 2672 2341 2671 18781 18779 18546 18775 18783 18777 
2639 2341 2672 2342 18551 18779 18782 18553 16643 18784 
2672 2341 2375 2342 18779 16868 18780 18784 16643 16869 
CELL_TYPES 12288
24 24 24 24 24 24 24 24 24 24 24 24 24 24 24 24 24 24 24 24 24 24 24 24 24 24 24 24 24 24 24 24 24 24 24 24 24 24 24 24 24 24 24 24 24 24 24 24 24 24 24 24 24 24 24 24 24 24 24 24 24 24 24 24 24 24 24 24 24 24 24 24 24 24 24 24 24 24 24 24 24 24 24 24 24 24 24 24 24 24 24 24 24 24 24 24 24 24 24 24 24 24 24 24 24 24 24 24 24 24 24 24 24 24 24 24 24 24 24 24 24 24 24 24 24 24 24 24 24 24 24 24 24 24 24 24 24 24 24 24 24 24 24 24 24 24 24 24 24 24 24 24 24 24 24 24 24 24 24 24 24 24 24 24 24 24 24 24 24 24 24 24 24 24 24 24 24 24 24 24 24 24 24 24 24 24 24 24 24 24 24 24 24 24 24 24 24 24 24 24 24 24 24 24 24 24 24 24 24 24 24 24 24 24 24 24 24 24 24 24 24 24 24 24 24 24 24 24 24 24 24 24 24 24 24 24 24 24 24 24 24 24 24 24 24 24 24 24 24 24 24 24 24 24 24 24 24 24 24 24 24 24 24 24 24 24 24 24 24 24 24 24 24 24 24 24 24 24 24 24 24 24 24 24 24 24 24 24 24 24 24 24 24 24 24 24 24 24 24 24 24 24 24 24 24 24 24 24 24 24 24 24 24 24 24 24 24 24 24 24 24 24 24 24 24 24 24 24 24 24 24 24 24 24 24 24 24 24 24 24 24 24 24 24 24 24 24 24 24 24 24 24 24 24 24 24 24 24 24 24 24 24 24 24 24 24 24 24 24 24 24 24 24 24 24 24 24 24 24 24 24 24 24 24 24 24 24 24 24 24 24 24 24 24 24 24 24 24 24 24 24 24 24 24 24 24 24 24 24 24 24 24 24 24 24 24 24 24 24 24 24 24 24 24 24 24 24 24 24 24 24 24 24 24 24 24 24 24 24 24 24 24 24 24 24 24 24 24 24 24 24 24 24 24 24 24 24 24 24 24 24 24 24 24 24 24 24 24 24 24 24 24 24 24 24 24 24 24 24 24 24 24 24 24 24 24 24 24 24 24 24 24 24 24 24 24 24 24 24 24 24 24 24 24 24 24 24 24 24 24 24 24 24 24 24 24 24 24 24 24 24 24 24 24 24 24 24 24 24 24 24 24 24 24 24 24 24 24 24 24 24 24 24 24 24 24 24 24 24 24 24 24 24 24 24 24 24 24 24 24 24 24 24 24 24 24 24 24 24 24 24 24 24 24 24 24 24 24 24 24 24 24 24 24 24 24 24 24 24 24 24 24 24 24 24 24 24 24 24 24 24 24 24 24 24 24 24 24 24 24 24 24 24 24 24 24 24 24 24 24 24 24 24 24 24 24 24 24 24 24 24 24 24 24 24 24 24 24 24 24 24 24 24 24 24 24 24 24 24 24 24 24 24 24 24 24 24 24 24 24 24 24 24 24 24 24 24 24 24 24 24 24 24 24 24 24 24 24 24 24 24 24 24 24 24 24 24 24 24 24 24 24 24 24 24 24 24 24 24 24 24 24 24 24 24 24 24 24 24 24 24 24 24 24 24 24 24 24 24 24 24 24 24 24 24 24 24 24 24 24 24 24 24 24 24 24 24 24 24 24 24 24 24 24 24 24 24 24 24 24 24 24 24 24 24 24 24 24 24 24 24 24 24 24 24 24 24 24 24 24 24 24 24 24 24 24 24 24 24 24 24 24 24 24 24 24 24 24 24 24 24 24 24 24 24 24 24 24 24 24 24 24 24 24 24 24 24 24 24 24 24 24 24 24 24 24 24 24 24 24 24 24 24 24 24 24 24 24 24 24 24 24 24 24 24 24 24 24 24 24 24 24 24 24 24 24 24 24 24 24 24 24 24 24 24 24 24 24 24 24 24 24 24 24 24 24 24 24 24 24 24 24 24 24 24 24 24 24 24 24 24 24 24 24 24 24 24 24 24 24 24 24 24 24 24 24 24 24 24 24 24 24 24 24 24 24 24 24 24 24 24 24 24 24 24 24 24 24 24 24 24 24 24 24 24 24 24 24 24 24 24 24 24 24 24 24 24 24 24 24 24 24 24 24 24 24 24 24 24 24 24 24 24 24 24 24 24 24 24 24 24 24 24 24 24 24 24 24 24 24 24 24 24 24 24 24 24 24 24 24 24 24 24 24 24 24 24 24 24 24 24 24 24 24 24 24 24 24 24 24 24 24 24 24 24 24 24 24 24 24 24 24 24 24 24 24 24 24 24 24 24 24 24 24 24 24 24 24 24 24 24 24 24 24 24 24 24 24 24 24 24 24 24 24 24 24 24 24 24 24 24 24 24 24 24 24 24 24 24 24 24 24 24 24 24 24 24 24 24 24 24 24 24 24 24 24 24 24 24 24 24 24 24 24 24 24 24 24 24 24 24 24 24 24 24 24 24 24 24 24 24 24 24 24 24 24 24 24 24 24 24 24 24 24 24 24 24 24 24 24 24 24 24 24 24 24 24 24 24 24 24 24 24 24 24 24 24 24 24 24 24 24 24 24 24 24 24 24 24 24 24 24 24 24 24 24 24 24 24 24 24 24 24 24 24 24 24 24 24 24 24 24 24 24 24 24 24 24 24 24 24 24 24 24 24 24 24 24 24 24 24 24 24 24 24 24 24 24 24 24 24 24 24 24 24 24 24 24 24 24 24 24 24 24 24 24 24 24 24 24 24 24 24 24 24 24 24 24 24 24 24 24 24 24 24 24 24 24 24 24 24 24 24 24 24 24 24 24 24 24 24 24 24 24 24 24 24 24 24 24 24 24 24 24 24 24 24 24 24 24 24 24 24 24 24 24 24 24 24 24 24 24 24 24 24 24 24 24 24 24 24 24 24 24 24 24 24 24 24 24 24 24 24 24 24 24 24 24 24 24 24 24 24 24 24 24 24 24 24 24 24 24 24 24 24 24 24 24 24 24 24 24 24 24 24 24 24 24 24 24 24 24 24 24 24 24 24 24 24 24 24 24 24 24 24 24 24 24 24 24 24 24 24 24 24 24 24 24 24 24 24 24 24 24 24 24 24 24 24 24 24 24 24 24 24 24 24 24 24 24 24 24 24 24 24 24 24 24 24 24 24 24 24 24 24 24 24 24 24 24 24 24 24 24 24 24 24 24 24 24 24 24 24 24 24 24 24 24 24 24 24 24 24 24 24 24 24 24 24 24 24 24 24 24 24 24 24 24 24 24 24 24 24 24 24 24 24 24 24 24 24 24 24 24 24 24 24 24 24 24 24 24 24 24 24 24 24 24 24 24 24 24 24 24 24 24 24 24 24 24 24 24 24 24 24 24 24 24 24 24 24 24 24 24 24 24 24 24 24 24 24 24 24 24 24 24 24 24 24 24 24 24 24 24 24 24 24 24 24 24 24 24 24 24 24 24 24 24 24 24 24 24 24 24 24 24 24 24 24 24 24 24 24 24 24 24 24 24 24 24 24 24 24 24 24 24 24 24 24 24 24 24 24 24 24 24 24 24 24 24 24 24 24 24 24 24 24 24 24 24 24 24 24 24 24 24 24 24 24 24 24 24 24 24 24 24 24 24 24 24 24 24 24 24 24 24 24 24 24 24 24 24 24 24 24 24 24 24 24 24 24 24 24 24 24 24 24 24 24 24 24 24 24 24 24 24 24 24 24 24 24 24 24 24 24 24 24 24 24 24 24 24 24 24 24 24 24 24 24 24 24 24 24 24 24 24 24 24 24 24 24 24 24 24 24 24 24 24 24 24 24 24 24 24 24 24 24 24 24 24 24 24 24 24 24 24 24 24 24 24 24 24 24 24 24 24 24 24 24 24 24 24 24 24 24 24 24 24 24 24 24 24 24 24 24 24 24 24 24 24 24 24 24 24 24 24 24 24 24 24 24 24 24 24 24 24 24 24 24 24 24 24 24 24 24 24 24 24 24 24 24 24 24 24 24 24 24 24 24 24 24 24 24 24 24 24 24 24 24 24 24 24 24 24 24 24 24 24 24 24 24 24 24 24 24 24 24 24 24 24 24 24 24 24 24 24 24 24 24 24 24 24 24 24 24 24 24 24 24 24 24 24 24 24 24 24 24 24 24 24 24 24 24 24 24 24 24 24 24 24 24 24 24 24 24 24 24 24 24 24 24 24 24 24 24 24 24 24 24 24 24 24 24 24 24 24 24 24 24 24 24 24 24 24 24 24 24 24 24 24 24 24 24 24 24 24 24 24 24 24 24 24 24 24 24 24 24 24 24 24 24 24 24 24 24 24 24 24 24 24 24 24 24 24 24 24 24 24 24 24 24 24 24 24 24 24 24 24 24 24 24 24 24 24 24 24 24 24 24 24 24 24 24 24 24 24 24 24 24 24 24 24 24 24 24 24 24 24 24 24 24 24 24 24 24 24 24 24 24 24 24 24 24 24 24 24 24 24 24 24 24 24 24 24 24 24 24 24 24 24 24 24 24 24 24 24 24 24 24 24 24 24 24 24 24 24 24 24 24 24 24 24 24 24 24 24 24 24 24 24 24 24 24 24 24 24 24 24 24 24 24 24 24 24 24 24 24 24 24 24 24 24 24 24 24 24 24 24 24 24 24 24 24 24 24 24 24 24 24 24 24 24 24 24 24 24 24 24 24 24 24 24 24 24 24 24 24 24 24 24 24 24 24 24 24 24 24 24 24 24 24 24 24 24 24 24 24 24 24 24 24 24 24 24 24 24 24 24 24 24 24 24 24 24 24 24 24 24 24 24 24 24 24 24 24 24 24 24 24 24 24 24 24 24 24 24 24 24 24 24 24 24 24 24 24 24 24 24 24 24 24 24 24 24 24 24 24 24 24 24 24 24 24 24 24 24 24 24 24 24 24 24 24 24 24 24 24 24 24 24 24 24 24 24 24 24 24 24 24 24 24 24 24 24 24 24 24 24 24 24 24 24 24 24 24 24 24 24 24 24 24 24 24 24 24 24 24 24 24 24 24 24 24 24 24 24 24 24 24 24 24 24 24 24 24 24 24 24 24 24 24 24 24 24 24 24 24 24 24 24 24 24 24 24 24 24 24 24 24 24 24 24 24 24 24 24 24 24 24 24 24 24 24 24 24 24 24 24 24 24 24 24 24 24 24 24 24 24 24 24 24 24 24 24 24 24 24 24 24 24 24 24 24 24 24 24 24 24 24 24 24 24 24 24 24 24 24 24 24 24 24 24 24 24 24 24 24 24 24 24 24 24 24 24 24 24 24 24 24 24 24 24 24 24 24 24 24 24 24 24 24 24 24 24 24 24 24 24 24 24 24 24 24 24 24 24 24 24 24 24 24 24 24 24 24 24 24 24 24 24 24 24 24 24 24 24 24 24 24 24 24 24 24 24 24 24 24 24 24 24 24 24 24 24 24 24 24 24 24 24 24 24 24 24 24 24 24 24 24 24 24 24 24 24 24 24 24 24 24 24 24 24 24 24 24 24 24 24 24 24 24 24 24 24 24 24 24 24 24 24 24 24 24 24 24 24 24 24 24 24 24 24 24 24 24 24 24 24 24 24 24 24 24 24 24 24 24 24 24 24 24 24 24 24 24 24 24 24 24 24 24 24 24 24 24 24 24 24 24 24 24 24 24 24 24 24 24 24 24 24 24 24 24 24 24 24 24 24 24 24 24 24 24 24 24 24 24 24 24 24 24 24 24 24 24 24 24 24 24 24 24 24 24 24 24 24 24 24 24 24 24 24 24 24 24 24 24 24 24 24 24 24 24 24 24 24 24 24 24 24 24 24 24 24 24 24 24 24 24 24 24 24 24 24 24 24 24 24 24 24 24 24 24 24 24 24 24 24 24 24 24 24 24 24 24 24 24 24 24 24 24 24 24 24 24 24 24 24 24 24 24 24 24 24 24 24 24 24 24 24 24 24 24 24 24 24 24 24 24 24 24 24 24 24 24 24 24 24 24 24 24 24 24 24 24 24 24 24 24 24 24 24 24 24 24 24 24 24 24 24 24 24 24 24 24 24 24 24 24 24 24 24 24 24 24 24 24 24 24 24 24 24 24 24 24 24 24 24 24 24 24 24 24 24 24 24 24 24 24 24 24 24 24 24 24 24 24 24 24 24 24 24 24 24 24 24 24 24 24 24 24 24 24 24 24 24 24 24 24 24 24 24 24 24 24 24 24 24 24 24 24 24 24 24 24 24 24 24 24 24 24 24 24 24 24 24 24 24 24 24 24 24 24 24 24 24 24 24 24 24 24 24 24 24 24 24 24 24 24 24 24 24 24 24 24 24 24 24 24 24 24 24 24 24 24 24 24 24 24 24 24 24 24 24 24 24 24 24 24 24 24 24 24 24 24 24 24 24 24 24 24 24 24 24 24 24 24 24 24 24 24 24 24 24 24 24 24 24 24 24 24 24 24 24 24 24 24 24 24 24 24 24 24 24 24 24 24 24 24 24 24 24 24 24 24 24 24 24 24 24 24 24 24 24 24 24 24 24 24 24 24 24 24 24 24 24 24 24 24 24 24 24 24 24 24 24 24 24 24 24 24 24 24 24 24 24 24 24 24 24 24 24 24 24 24 24 24 24 24 24 24 24 24 24 24 24 24 24 24 24 24 24 24 24 24 24 24 24 24 24 24 24 24 24 24 24 24 24 24 24 24 24 24 24 24 24 24 24 24 24 24 24 24 24 24 24 24 24 24 24 24 24 24 24 24 24 24 24 24 24 24 24 24 24 24 24 24 24 24 24 24 24 24 24 24 24 24 24 24 24 24 24 24 24 24 24 24 24 24 24 24 24 24 24 24 24 24 24 24 24 24 24 24 24 24 24 24 24 24 24 24 24 24 24 24 24 24 24 24 24 24 24 24 24 24 24 24 24 24 24 24 24 24 24 24 24 24 24 24 24 24 24 24 24 24 24 24 24 24 24 24 24 24 24 24 24 24 24 24 24 24 24 24 24 24 24 24 24 24 24 24 24 24 24 24 24 24 24 24 24 24 24 24 24 24 24 24 24 24 24 24 24 24 24 24 24 24 24 24 24 24 24 24 24 24 24 24 24 24 24 24 24 24 24 24 24 24 24 24 24 24 24 24 24 24 24 24 24 24 24 24 24 24 24 24 24 24 24 24 24 24 24 24 24 24 24 24 24 24 24 24 24 24 24 24 24 24 24 24 24 24 24 24 24 24 24 24 24 24 24 24 24 24 24 24 24 24 24 24 24 24 24 24 24 24 24 24 24 24 24 24 24 24 24 24 24 24 24 24 24 24 24 24 24 24 24 24 24 24 24 24 24 24 24 24 24 24 24 24 24 24 24 24 24 24 24 24 24 24 24 24 24 24 24 24 24 24 24 24 24 24 24 24 24 24 24 24 24 24 24 24 24 24 24 24 24 24 24 24 24 24 24 24 24 24 24 24 24 24 24 24 24 24 24 24 24 24 24 24 24 24 24 24 24 24 24 24 24 24 24 24 24 24 24 24 24 24 24 24 24 24 24 24 24 24 24 24 24 24 24 24 24 24 24 24 24 24 24 24 24 24 24 24 24 24 24 24 24 24 24 24 24 24 24 24 24 24 24 24 24 24 24 24 24 24 24 24 24 24 24 24 24 24 24 24 24 24 24 24 24 24 24 24 24 24 24 24 24 24 24 24 24 24 24 24 24 24 24 24 24 24 24 24 24 24 24 24 24 24 24 24 24 24 24 24 24 24 24 24 24 24 24 24 24 24 24 24 24 24 24 24 24 24 24 24 24 24 24 24 24 24 24 24 24 24 24 24 24 24 24 24 24 24 24 24 24 24 24 24 24 24 24 24 24 24 24 24 24 24 24 24 24 24 24 24 24 24 24 24 24 24 24 24 24 24 24 24 24 24 24 24 24 24 24 24 24 24 24 24 24 24 24 24 24 24 24 24 24 24 24 24 24 24 24 24 24 24 24 24 24 24 24 24 24 24 24 24 24 24 24 24 24 24 24 24 24 24 24 24 24 24 24 24 24 24 24 24 24 24 24 24 24 24 24 24 24 24 24 24 24 24 24 24 24 24 24 24 24 24 24 24 24 24 24 24 24 24 24 24 24 24 24 24 24 24 24 24 24 24 24 24 24 24 24 24 24 24 24 24 24 24 24 24 24 24 24 24 24 24 24 24 24 24 24 24 24 24 24 24 24 24 24 24 24 24 24 24 24 24 24 24 24 24 24 24 24 24 24 24 24 24 24 24 24 24 24 24 24 24 24 24 24 24 24 24 24 24 24 24 24 24 24 24 24 24 24 24 24 24 24 24 24 24 24 24 24 24 24 24 24 24 24 24 24 24 24 24 24 24 24 24 24 24 24 24 24 24 24 24 24 24 24 24 24 24 24 24 24 24 24 24 24 24 24 24 24 24 24 24 24 24 24 24 24 24 24 24 24 24 24 24 24 24 24 24 24 24 24 24 24 24 24 24 24 24 24 24 24 24 24 24 24 24 24 24 24 24 24 24 24 24 24 24 24 24 24 24 24 24 24 24 24 24 24 24 24 24 24 24 24 24 24 24 24 24 24 24 24 24 24 24 24 24 24 24 24 24 24 24 24 24 24 24 24 24 24 24 24 24 24 24 24 24 24 24 24 24 24 24 24 24 24 24 24 24 24 24 24 24 24 24 24 24 24 24 24 24 24 24 24 24 24 24 24 24 24 24 24 24 24 24 24 24 24 24 24 24 24 24 24 24 24 24 24 24 24 24 24 24 24 24 24 24 24 24 24 24 24 24 24 24 24 24 24 24 24 24 24 24 24 24 24 24 24 24 24 24 24 24 24 24 24 24 24 24 24 24 24 24 24 24 24 24 24 24 24 24 24 24 24 24 24 24 24 24 24 24 24 24 24 24 24 24 24 24 24 24 24 24 24 24 24 24 24 24 24 24 24 24 24 24 24 24 24 24 24 24 24 24 24 24 24 24 24 24 24 24 24 24 24 24 24 24 24 24 24 24 24 24 24 24 24 24 24 24 24 24 24 24 24 24 24 24 24 24 24 24 24 24 24 24 24 24 24 24 24 24 24 24 24 24 24 24 24 24 24 24 24 24 24 24 24 24 24 24 24 24 24 24 24 24 24 24 24 24 24 24 24 24 24 24 24 24 24 24 24 24 24 24 24 24 24 24 24 24 24 24 24 24 24 24 24 24 24 24 24 24 24 24 24 24 24 24 24 24 24 24 24 24 24 24 24 24 24 24 24 24 24 24 24 24 24 24 24 24 24 24 24 24 24 24 24 24 24 24 24 24 24 24 24 24 24 24 24 24 24 24 24 24 24 24 24 24 24 24 24 24 24 24 24 24 24 24 24 24 24 24 24 24 24 24 24 24 24 24 24 24 24 24 24 24 24 24 24 24 24 24 24 24 24 24 24 24 24 24 24 24 24 24 24 24 24 24 24 24 24 24 24 24 24 24 24 24 24 24 24 24 24 24 24 24 24 24 24 24 24 24 24 24 24 24 24 24 24 24 24 24 24 24 24 24 24 24 24 24 24 24 24 24 24 24 24 24 24 24 24 24 24 24 24 24 24 24 24 24 24 24 24 24 24 24 24 24 24 24 24 24 24 24 24 24 24 24 24 24 24 24 24 24 24 24 24 24 24 24 24 24 24 24 24 24 24 24 24 24 24 24 24 24 24 24 24 24 24 24 24 24 24 24 24 24 24 24 24 24 24 24 24 24 24 24 24 24 24 24 24 24 24 24 24 24 24 24 24 24 24 24 24 24 24 24 24 24 24 24 24 24 24 24 24 24 24 24 24 24 24 24 24 24 24 24 24 24 24 24 24 24 24 24 24 24 24 24 24 24 24 24 24 24 24 24 24 24 24 24 24 24 24 24 24 24 24 24 24 24 24 24 24 24 24 24 24 24 24 24 24 24 24 24 24 24 24 24 24 24 24 24 24 24 24 24 24 24 24 24 24 24 24 24 24 24 24 24 24 24 24 24 24 24 24 24 24 24 24 24 24 24 24 24 24 24 24 24 24 24 24 24 24 24 24 24 24 24 24 24 24 24 24 24 24 24 24 24 24 24 24 24 24 24 24 24 24 24 24 24 24 24 24 24 24 24 24 24 24 24 24 24 24 24 24 24 24 24 24 24 24 24 24 24 24 24 24 24 24 24 24 24 24 24 24 24 24 24 24 24 24 24 24 24 24 24 24 24 24 24 24 24 24 24 24 24 24 24 24 24 24 24 24 24 24 24 24 24 24 24 24 24 24 24 24 24 24 24 24 24 24 24 24 24 24 24 24 24 24 24 24 24 24 24 24 24 24 24 24 24 24 24 24 24 24 24 24 24 24 24 24 24 24 24 24 24 24 24 24 24 24 24 24 24 24 24 24 24 24 24 24 24 24 24 24 24 24 24 24 24 24 24 24 24 24 24 24 24 24 24 24 24 24 24 24 24 24 24 24 24 24 24 24 24 24 24 24 24 24 24 24 24 24 24 24 24 24 24 24 24 24 24 24 24 24 24 24 24 24 24 24 24 24 24 24 24 24 24 24 24 24 24 24 24 24 24 24 24 24 24 24 24 24 24 24 24 24 24 24 24 24 24 24 24 24 24 24 24 24 24 24 24 24 24 24 24 24 24 24 24 24 24 24 24 24 24 24 24 24 24 24 24 24 24 24 24 24 24 24 24 24 24 24 24 24 24 24 24 24 24 24 24 24 24 24 24 24 24 24 24 24 24 24 24 24 24 24 24 24 24 24 24 24 24 24 24 24 24 24 24 24 24 24 24 24 24 24 24 24 24 24 24 24 24 24 24 24 24 24 24 24 24 24 24 24 24 24 24 24 24 24 24 24 24 24 24 24 24 24 24 24 24 24 24 24 24 24 24 24 24 24 24 24 24 24 24 24 24 24 24 24 24 24 24 24 24 24 24 24 24 24 24 24 24 24 24 24 24 24 24 24 24 24 24 24 24 24 24 24 24 24 24 24 24 24 24 24 24 24 24 24 24 24 24 24 24 24 24 24 24 24 24 24 24 24 24 24 24 24 24 24 24 24 24 24 24 24 24 24 24 24 24 24 24 24 24 24 24 24 24 24 24 24 24 24 24 24 24 24 24 24 24 24 24 24 24 24 24 24 24 24 24 24 24 24 24 24 24 24 24 24 24 24 24 24 24 24 24 24 24 24 24 24 24 24 24 24 24 24 24 24 24 24 24 24 24 24 24 24 24 24 24 24 24 24 24 24 24 24 24 24 24 24 24 24 24 24 24 24 24 24 24 24 24 24 24 24 24 24 24 24 24 24 24 24 24 24 24 24 24 24 24 24 24 24 24 24 24 24 24 24 24 24 24 24 24 24 24 24 24 24 24 24 24 24 24 24 24 24 24 24 24 24 24 24 24 24 24 24 24 24 24 24 24 24 24 24 24 24 24 24 24 24 24 24 24 24 24 24 24 24 24 24 24 24 24 24 24 24 24 24 24 24 24 24 24 24 24 24 24 24 24 24 24 24 24 24 24 24 24 24 24 24 24 24 24 24 24 24 24 24 24 24 24 24 24 24 24 24 24 24 24 24 24 24 24 24 24 24 24 24 24 24 24 24 24 24 24 24 24 24 24 24 24 24 24 24 24 24 24 24 24 24 24 24 24 24 24 24 24 24 24 24 24 24 24 24 24 24 24 24 24 24 24 24 24 24 24 24 24 24 24 24 24 24 24 24 24 24 24 24 24 24 24 24 24 24 24 24 24 24 24 24 24 24 24 24 24 24 24 24 24 24 24 24 24 24 24 24 24 24 24 24 24 24 24 24 24 24 24 24 24 24 24 24 24 24 24 24 24 24 24 24 24 24 24 24 24 24 24 24 24 24 24 24 24 24 24 24 24 24 24 24 24 24 24 24 24 24 24 24 24 24 24 24 24 24 24 24 24 24 24 24 24 24 24 24 24 24 24 24 24 24 24 24 24 24 24 24 24 24 24 24 24 24 24 24 24 24 24 24 24 24 24 24 24 24 24 24 24 24 24 24 24 24 24 24 24 24 24 24 24 24 24 24 24 24 24 24 24 24 24 24 24 24 24 24 24 24 24 24 24 24 24 24 24 24 24 24 24 24 24 24 24 24 24 24 24 24 24 24 24 24 24 24 24 24 24 24 24 24 24 24 24 24 24 24 24 24 24 24 24 24 24 24 24 24 24 24 24 24 24 24 24 24 24 24 24 24 24 24 24 24 24 24 24 24 24 24 24 24 24 24 24 24 24 24 24 24 24 24 24 24 24 24 24 24 24 24 24 24 24 24 24 24 24 24 24 24 24 24 24 24 24 24 24 24 24 24 24 24 24 24 24 24 24 24 24 24 24 24 24 24 24 24 24 24 24 24 24 24 24 24 24 24 24 24 24 24 24 24 24 24 24 24 24 24 24 24 24 24 24 24 24 24 24 24 24 24 24 24 24 24 24 24 24 24 24 24 24 24 24 24 24 24 24 24 24 24 24 24 24 24 24 24 24 24 24 24 24 24 24 24 24 24 24 24 24 24 24 24 24 24 24 24 24 24 24 24 24 24 24 24 24 24 24 24 24 24 24 24 24 24 24 24 24 24 24 24 24 24 24 24 24 24 24 24 24 24 24 24 24 24 24 24 24 24 24 24 24 24 24 24 24 24 24 24 24 24 24 24 24 24 24 24 24 24 24 24 24 24 24 24 24 24 24 24 24 24 24 24 24 24 24 24 24 24 24 24 24 24 24 24 24 24 24 24 24 24 24 24 24 24 24 24 24 24 24 24 24 24 24 24 24 24 24 24 24 24 24 24 24 24 24 24 24 24 24 24 24 24 24 24 24 24 24 24 24 24 24 24 24 24 24 24 24 24 24 24 24 24 24 24 24 24 24 24 24 24 24 24 24 24 24 24 24 24 24 24 24 24 24 24 24 24 24 24 24 24 24 24 24 24 24 24 24 24 24 24 24 24 24 24 24 24 24 24 24 24 24 24 24 24 24 24 24 24 24 24 24 24 24 24 24 24 24 24 24 24 24 24 24 24 24 24 24 24 24 24 24 24 24 24 24 24 24 24 24 24 24 24 24 24 24 24 24 24 24 24 24 24 24 24 24 24 24 24 24 24 24 24 24 24 24 24 24 24 24 24 24 24 24 24 24 24 24 24 24 24 24 24 24 24 24 24 24 24 24 24 24 24 24 24 24 24 24 24 24 24 24 24 24 24 24 24 24 24 24 24 24 24 24 24 24 24 24 24 24 24 24 24 24 24 24 24 24 24 24 24 24 24 24 24 24 24 24 24 24 24 24 24 24 24 24 24 24 24 24 24 24 24 24 24 24 24 24 24 24 24 24 24 24 24 24 24 24 24 24 24 24 24 24 24 24 24 24 24 24 24 24 24 24 24 24 24 24 24 24 24 24 24 24 24 24 24 24 24 24 24 24 24 24 24 24 24 24 24 24 24 24 24 24 24 24 24 24 24 24 24 24 24 24 24 24 24 24 24 24 24 24 24 24 24 24 24 24 24 24 24 24 24 24 24 24 24 24 24 24 24 24 24 24 24 24 24 24 24 24 24 24 24 24 24 24 24 24 24 24 24 24 24 24 24 24 24 24 24 24 24 24 24 24 24 24 24 24 24 24 24 24 24 24 24 24 24 24 24 24 24 24 24 24 24 24 24 24 24 24 24 24 24 24 24 24 24 24 24 24 24 24 24 24 24 24 24 24 24 24 24 24 24 24 24 24 24 24 24 24 24 24 24 24 24 24 24 24 24 24 24 24 24 24 24 24 24 24 24 24 24 24 24 24 24 24 24 24 24 24 24 24 24 24 24 24 24 24 24 24 24 24 24 24 24 24 24 24 24 24 24 24 24 24 24 24 24 24 24 24 24 24 24 24 24 24 24 24 24 24 24 24 24 24 24 24 24 24 24 24 24 24 24 24 24 24 24 24 24 24 24 24 24 24 24 24 24 24 24 24 24 24 24 24 24 24 24 24 24 24 24 24 24 24 24 24 24 24 24 24 24 24 24 24 24 24 24 24 24 24 24 24 24 24 24 24 24 24 24 24 24 24 24 24 24 24 24 24 24 24 24 24 24 24 24 24 24 24 24 24 24 24 24 24 24 24 24 24 24 24 24 24 24 24 24 24 24 24 24 24 24 24 24 24 24 24 24 24 24 24 24 24 24 24 24 24 24 24 24 24 24 24 24 24 24 24 24 24 24 24 24 24 24 24 24 24 24 24 24 24 24 24 24 24 24 24 24 24 24 24 24 24 24 24 24 24 24 24 24 24 24 24 24 24 24 24 24 24 24 24 24 24 24 24 24 24 24 24 24 24 24 24 24 24 24 24 24 24 24 24 24 24 24 24 24 24 24 24 24 24 24 24 24 24 24 24 24 24 24 24 24 24 24 24 24 24 24 24 24 24 24 24 24 24 24 24 24 24 24 24 24 24 24 24 24 24 24 24 24 24 24 24 24 24 24 24 24 24 24 24 24 24 24 24 24 24 24 24 24 24 24 24 24 24 24 24 24 24 24 24 24 24 24 24 24 24 24 24 24 24 24 24 24 24 24 24 24 24 24 24 24 24 24 24 24 24 24 24 24 24 24 24 24 24 24 24 24 24 24 24 24 24 24 24 24 24 24 24 24 24 24 24 24 24 24 24 24 24 24 24 24 24 24 24 24 24 24 24 24 24 24 24 24 24 24 24 24 24 24 24 24 24 24 24 24 24 24 24 24 24 24 24 24 24 24 24 24 24 24 24 24 24 24 24 24 24 24 24 24 24 24 24 24 24 24 24 24 24 24 24 24 24 24 24 24 24 24 24 24 24 24 24 24 24 24 24 24 24 24 24 24 24 24 24 24 24 24 24 24 24 24 24 24 24 24 24 24 24 24 24 24 24 24 24 24 24 24 24 24 24 24 24 24 24 24 24 24 24 24 24 24 24 24 24 24 24 24 24 24 24 24 24 24 24 24 24 24 24 24 24 24 24 24 24 24 24 24 24 24 24 24 24 24 24 24 24 24 24 24 24 24 24 24 24 24 24 24 24 24 24 24 24 24 24 24 24 24 24 24 24 24 24 24 24 24 24 24 24 24 24 24 24 24 24 24 24 24 24 24 24 24 24 24 24 24 24 24 24 24 24 24 24 24 24 24 24 24 24 24 24 24 24 24 24 24 24 24 24 24 24 24 24 24 24 24 24 24 24 24 24 24 24 24 24 24 24 24 24 24 24 24 24 24 24 24 24 24 24 24 24 24 24 24 24 24 24 24 24 24 24 24 24 24 24 24 24 24 24 24 24 24 24 24 24 24 24 24 24 24 24 24 24 24 24 24 24 24 24 24 24 24 24 24 24 24 24 24 24 24 24 24 24 24 24 24 24 24 24 24 24 24 24 24 24 24 24 24 24 24 24 24 24 24 24 24 24 24 24 24 24 24 24 24 24 24 24 24 24 24 24 24 24 24 24 24 24 24 24 24 24 24 24 24 24 24 24 24 24 24 24 24 24 24 24 24 24 24 24 24 24 24 24 24 24 24 24 24 24 24 24 24 24 24 24 24 24 24 24 24 24 24 24 24 24 24 24 24 24 24 24 24 24 24 24 24 24 24 24 24 24 24 24 24 24 24 24 24 24 24 24 24 24 24 24 24 24 24 24 24 24 24 24 24 24 24 24 24 24 24 24 24 24 24 24 24 24 24 24 24 24 24 24 24 24 24 24 24 24 24 24 24 24 24 24 24 24 24 24 24 24 24 24 24 24 24 24 24 24 24 24 24 24 24 24 24 24 24 24 24 24 24 24 24 24 24 24 24 24 24 24 24 24 24 24 24 24 24 24 24 24 24 24 24 24 24 24 24 24 24 24 24 24 24 24 24 24 24 24 24 24 24 24 24 24 24 24 24 24 24 24 24 24 24 24 24 24 24 24 24 24 24 24 24 24 24 24 24 24 24 24 24 24 24 24 24 24 24 24 24 24 24 24 24 24 24 24 24 24 24 24 24 24 24 24 24 24 24 24 24 24 24 24 24 24 24 24 24 24 24 24 24 24 24 24 24 24 24 24 24 24 24 24 24 24 24 24 24 24 24 24 24 24 24 24 24 24 24 24 24 24 24 24 24 24 24 24 24 24 24 24 24 24 24 24 24 24 24 24 24 24 24 24 24 24 24 24 24 24 24 24 24 24 24 24 24 24 24 24 24 24 24 24 24 24 24 24 24 24 24 24 24 24 24 24 24 24 24 24 24 24 24 24 24 24 24 24 24 24 24 24 24 24 24 24 24 24 24 24 24 24 24 24 24 24 24 24 24 24 24 24 24 24 24 24 24 24 24 24 24 24 24 24 24 24 24 24 24 24 24 24 24 24 24 24 24 24 24 24 24 24 24 24 24 24 24 24 24 24 24 24 24 24 24 24 24 24 24 24 24 24 24 24 24 24 24 24 24 24 24 24 24 24 24 24 24 24 24 24 24 24 24 24 24 24 24 24 24 24 24 24 24 24 24 24 24 24 24 24 24 24 24 24 24 24 24 24 24 24 24 24 24 24 24 24 24 24 24 24 24 24 24 24 24 24 24 24 24 24 24 24 24 24 24 24 24 24 24 24 24 24 24 24 24 24 24 24 24 24 24 24 24 24 24 24 24 24 24 24 24 24 24 24 24 24 24 24 24 24 24 24 24 24 24 24 24 24 24 24 24 24 24 24 24 24 24 24 24 24 24 24 24 24 24 24 24 24 24 24 24 24 24 24 24 24 24 24 24 24 24 24 24 24 24 24 24 24 24 24 24 24 24 24 24 24 24 24 24 24 24 24 24 24 24 24 24 24 24 24 24 24 24 24 24 24 24 24 24 24 24 24 24 24 24 24 24 24 24 24 24 24 24 24 24 24 24 24 24 24 24 24 24 24 24 24 24 24 24 24 24 24 24 24 24 24 24 24 24 24 24 24 24 24 24 24 24 24 24 24 24 24 24 24 24 24 24 24 24 24 24 24 24 24 24 24 24 24 24 24 24 24 24 24 24 24 24 24 24 24 24 24 24 24 24 24 24 24 24 24 24 24 24 24 24 24 24 24 24 24 24 24 24 24 24 24 24 24 24 24 24 24 24 24 24 24 24 24 24 24 24 24 24 24 24 24 24 24 24 24 24 24 24 24 24 24 24 24 24 24 24 24 24 24 24 24 24 24 24 24 24 24 24 24 24 24 24 24 24 24 24 24 24 24 24 24 24 24 24 24 24 24 24 24 24 24 24 24 24 24 24 24 24 24 24 24 24 24 24 24 24 24 24 24 24 24 24 24 24 24 24 24 24 24 24 24 24 24 24 24 24 24 24 24 24 24 24 24 24 24 24 24 24 24 24 24 24 24 24 24 24 24 24 24 24 24 24 24 24 24 24 24 24 24 24 24 24 24 24 24 24 24 24 24 24 24 24 24 24 24 24 24 24 24 24 24 24 24 24 24 24 24 24 24 24 24 24 24 24 24 24 24 24 24 24 24 24 24 24 24 24 24 24 24 24 24 24 24 24 24 24 24 24 24 24 24 24 24 24 24 24 24 24 24 24 24 24 24 24 24 24 24 24 24 24 24 24 24 24 24 24 24 24 24 24 24 24 24 24 24 24 24 24 24 24 24 24 24 24 24 24 24 24 24 24 24 24 24 24 24 24 24 24 24 24 24 24 24 24 24 24 24 24 24 24 24 24 24 24 24 24 24 24 24 24 24 24 24 24 24 24 24 24 24 24 24 24 24 24 24 24 24 24 24 24 24 24 24 24 24 24 24 24 24 24 24 24 24 24 24 24 24 24 24 24 24 24 24 24 24 24 24 24 24 24 24 24 24 24 24 24 24 24 24 24 24 24 24 24 24 24 24 24 24 24 24 24 24 24 24 24 24 24 24 24 24 24 24 24 24 24 24 24 24 24 24 24 24 24 24 24 24 24 24 24 24 24 24 24 24 24 24 24 24 24 24 24 24 24 24 24 24 24 24 24 24 24 24 24 24 24 24 24 24 24 24 24 24 24 24 24 24 24 24 24 24 24 24 24 24 24 24 24 24 24 24 24 24 24 24 24 24 24 24 24 24 24 24 24 24 24 24 24 24 24 24 24 24 24 24 24 24 24 24 24 24 24 24 24 24 24 24 24 24 24 24 24 24 24 24 24 24 24 24 24 24 24 24 24 24 24 24 24 24 24 24 24 24 24 24 24 24 24 24 24 24 24 24 24 24 24 24 24 24 24 24 24 24 24 24 24 24 24 24 24 24 24 24 24 24 24 24 24 24 24 24 24 24 24 24 24 24 24 24 24 24 24 24 24 24 24 24 24 24 24 24 24 24 24 24 24 24 24 24 24 24 24 24 24 24 24 24 24 24 24 24 24 24 24 24 24 24 24 24 24 24 24 24 24 24 24 24 24 24 24 24 24 24 24 24 24 24 24 24 24 24 24 24 24 24 24 24 24 24 24 24 24 24 24 24 24 24 24 24 24 24 24 24 24 24 24 24 24 24 24 24 24 24 24 24 24 24 24 24 24 24 24 24 24 24 24 24 24 24 24 24 24 24 24 24 24 24 24 24 24 24 24 24 24 24 24 24 24 24 24 24 24 24 24 24 24 24 24 24 24 24 24 24 24 24 24 24 24 24 24 24 24 24 24 24 24 24 24 24 24 24 24 24 24 24 24 24 24 24 24 24 24 24 24 24 24 24 24 24 24 24 24 24 24 24 24 24 24 24 24 24 24 24 24 24 24 24 24 24 24 24 24 24 24 24 24 24 24 24 24 24 24 24 24 24 24 24 24 24 24 24 24 24 24 24 24 24 24 24 24 24 24 24 24 24 24 24 24 24 24 24 24 24 24 24 24 24 24 24 24 24 24 24 24 24 24 24 24 24 24 24 24 24 24 24 24 24 24 24 24 24 24 24 24 24 24 24 24 24 24 24 24 24 24 24 24 24 24 24 24 24 24 24 24 24 24 24 24 24 24 24 24 24 24 24 24 24 24 24 24 24 24 24 24 24 24 24 24 24 24 24 24 24 24 24 24 24 24 24 24 24 24 24 24 24 24 24 24 24 24 24 24 24 24 24 24 24 24 24 24 24 24 24 24 24 24 24 24 24 24 24 24 24 24 24 24 24 24 24 24 24 24 24 24 24 24 24 24 24 24 24 24 24 24 24 24 24 24 24 24 24 24 24 24 24 24 24 24 24 24 24 24 24 24 24 24 24 24 24 24 24 24 24 24 24 24 24 24 24 24 24 24 24 24 24 24 24 24 24 24 24 24 24 24 24 24 24 24 24 24 24 24 24 24 24 24 24 24 24 24 24 24 24 24 24 24 24 24 24 24 24 24 24 24 24 24 24 24 24 24 24 24 24 24 24 24 24 24 24 24 24 24 24 24 24 24 24 24 24 24 24 24 24 24 24 24 24 24 24 24 24 24 24 24 24 24 24 24 24 24 24 24 24 24 24 24 24 24 24 24 24 24 24 24 24 24 24 24 24 24 24 24 24 24 24 24 24 24 24 24 24 24 24 24 24 24 24 24 24 24 24 24 24 24 24 24 24 24 24 24 24 24 24 24 24 24 24 24 24 24 24 24 24 24 24 24 24 24 24 24 24 24 24 24 24 24 24 24 24 24 24 24 24 24 24 24 24 24 24 24 24 24 24 24 24 24 24 24 24 24 24 24 24 24 24 24 24 24 24 24 24 24 24 24 24 24 24 24 24 24 24 24 24 24 24 24 24 24 24 24 24 24 24 24 24 24 24 24 24 24 24 24 24 24 24 24 24 24 24 24 24 24 24 24 24 24 24 24 24 24 24 24 24 24 24 24 24 24 24 24 24 24 24 24 24 24 24 24 24 24 24 24 24 24 24 24 24 24 24 24 24 24 24 24 24 24 24 24 24 24 24 24 24 24 24 24 24 24 24 24 24 24 24 24 24 24 24 24 24 24 24 24 24 24 24 24 24 24 24 24 24 24 24 24 24 24 24 24 24 24 24 24 24 24 24 24 24 24 24 24 24 24 24 24 24 24 24 24 24 24 24 24 24 24 24 24 24 24 24 24 24 24 24 24 24 24 24 24 24 24 24 24 24 24 24 24 24 24 24 24 24 24 24 24 24 24 24 24 24 24 24 24 24 24 24 24 24 24 24 24 24 24 24 24 24 24 24 24 24 24 24 24 24 24 24 24 24 24 24 24 24 24 24 24 24 24 24 24 24 24 24 24 24 24 24 24 24 24 24 24 24 24 24 24 24 24 24 24 24 24 24 24 24 24 24 24 24 24 24 24 24 24 24 24 24 24 24 24 24 24 24 24 24 24 24 24 24 24 24 24 24 24 24 24 24 24 24 24 24 24 24 24 24 24 24 24 24 24 24 24 24 24 24 24 24 24 24 24 24 24 24 24 24 24 24 24 24 24 24 24 24 24 24 24 24 24 24 24 24 24 24 24 24 24 24 24 24 24 24 24 24 24 24 24 24 24 24 24 24 24 24 24 24 24 24 24 24 24 24 24 24 24 24 24 24 24 24 24 24 24 24 24 24 24 24 24 24 24 24 24 24 24 24 24 24 24 24 24 24 24 24 24 24 24 24 24 24 24 24 24 24 24 24 24 24 24 24 24 24 24 24 24 24 24 24 24 24 24 24 24 24 24 24 24 24 24 24 24 24 24 24 24 24 24 24 24 24 24 24 24 24 24 24 24 24 24 24 24 24 24 24 24 24 24 24 24 24 24 24 24 24 24 24 24 24 24 24 24 24 24 24 24 24 24 24 24 24 24 24 24 24 24 24 24 24 24 24 24 24 24 24 24 24 24 24 24 24 24 24 24 24 24 24 24 24 24 24 24 24 24 24 24 24 24 24 24 24 24 24 24 24 24 24 24 24 24 24 24 24 24 24 24 24 24 24 24 24 24 24 24 24 24 24 24 24 24 24 24 24 24 24 24 24 24 24 24 24 24 24 24 24 24 24 24 24 24 24 24 24 24 24 24 24 24 24 24 24 24 24 24 24 24 24 24 24 24 24 24 24 24 24 24 24 24 24 24 24 24 24 24 24 24 24 24 24 24 24 24 24 24 24 24 24 24 24 24 24 24 24 24 24 24 24 24 24 24 24 24 24 24 24 24 24 24 24 24 24 24 24 24 24 24 24 24 24 24 24 24 24 24 24 24 24 24 24 24 24 24 24 24 24 24 24 24 24 24 24 24 24 24 24 24 24 24 24 24 24 24 24 24 24 24 24 24 24 24 24 24 24 24 24 24 24 24 24 24 24 24 24 24 24 24 24 24 24 24 24 24 24 24 24 24 24 24 24 24 24 24 24 24 24 24 24 24 24 24 24 24 24 24 24 24 24 24 24 24 24 24 24 24 24 24 24 24 24 24 24 24 24 24 24 24 24 24 24 24 24 24 24 24 24 24 24 24 24 24 24 24 24 24 24 24 24 24 24 24 24 24 24 24 24 24 24 24 24 24 24 24 24 24 24 24 24 24 24 24 24 24 24 24 24 24 24 24 24 24 24 24 24 24 24 24 24 24 24 24 24 24 24 24 24 24 24 24 24 24 24 24 24 24 24 24 24 24 24 24 24 24 24 24 24 24 24 24 24 24 24 24 24 24 24 24 24 24 24 24 24 24 24 24 24 24 24 24 24 24 24 24 24 24 24 24 24 24 24 24 24 24 24 24 24 24 24 24 24 24 24 24 24 24 24 24 24 24 24 24 24 24 24 24 24 24 24 24 24 24 24 24 24 24 24 24 24 24 24 24 24 24 24 24 24 24 24 24 24 24 24 24 24 24 24 24 24 24 24 24 24 24 24 24 24 24 24 24 24 24 24 24 24 24 24 24 24 24 24 24 24 24 24 24 24 24 24 24 24 24 24 24 24 24 24 24 24 24 24 24 24 24 24 24 24 24 24 24 24 24 24 24 24 24 24 24 24 24 24 24 24 24 24 24 24 24 24 24 24 24 24 24 24 24 24 24 24 24 24 24 24 24 24 24 24 24 24 24 24 24 24 24 24 24 24 24 24 24 24 24 24 24 24 24 24 24 24 24 24 24 24 24 24 24 24 24 24 24 24 24 24 24 24 24 24 24 24 24 24 24 24 24 24 24 24 24 24 24 24 24 24 24 24 24 24 24 24 24 24 24 24 24 24 24 24 24 24 24 24 24 24 24 24 24 24 24 24 24 24 24 24 24 24 24 24 24 24 24 24 24 24 24 24 24 24 24 24 24 24 24 24 24 24 24 24 24 24 24 24 24 24 24 24 24 24 24 24 24 24 24 24 24 24 24 24 24 24 24 24 24 24 24 24 24 24 24 24 24 24 24 24 24 24 24 24 24 24 24 24 24 24 24 24 24 24 24 24 24 24 24 24 24 24 24 24 24 24 24 24 24 24 24 24 24 24 24 24 24 24 24 24 24 24 24 24 24 24 24 24 24 24 24 24 24 24 24 24 24 24 24 24 24 24 24 24 24 24 24 24 24 24 24 24 24 24 24 24 24 24 24 24 24 24 24 24 24 24 24 24 24 24 24 24 24 24 24 24 24 24 24 24 24 24 24 24 24 24 24 24 24 24 24 24 24 24 24 24 24 24 24 24 24 24 24 24 24 24 24 24 24 24 24 24 24 24 24 24 24 24 24 24 24 24 24 24 24 24 24 24 24 24 24 24 24 24 24 24 24 24 24 24 24 24 24 24 24 24 24 24 24 24 24 24 24 24 24 24 24 24 24 24 24 24 24 24 24 24 24 24 24 24 24 24 24 24 24 24 24 24 24 24 24 24 24 24 24 24 24 24 24 24 24 24 24 24 24 24 24 24 24 24 24 24 24 24 24 24 24 24 24 24 24 24 24 24 24 24 24 24 24 24 24 24 24 24 24 24 24 24 24 24 24 24 24 24 24 24 24 24 24 24 24 24 24 24 24 24 24 24 24 24 24 24 24 24 24 24 24 24 24 24 24 24 24 24 24 24 24 24 24 24 24 24 24 24 24 24 24 24 24 24 24 24 24 24 24 24 24 24 24 24 24 24 24 24 24 24 24 24 24 24 24 24 24 24 24 24 24 24 24 24 24 24 24 24 24 24 24 24 24 24 24 24 24 24 24 24 24 24 24 24 24 24 24 24 24 24 24 24 24 24 24 24 24 24 24 24 24 24 24 24 24 24 24 24 24 24 24 24 24 24 24 24 24 24 24 24 24 24 24 24 24 24 24 24 24 24 24 24 24 24 24 24 24 24 24 24 24 24 24 24 24 24 24 24 24 24 24 24 24 24 24 24 24 24 24 24 24 24 24 24 24 24 24 24 24 24 24 24 24 24 24 24 24 24 24 24 24 24 24 24 24 24 24 24 24 24 24 24 24 24 24 24 24 24 24 24 24 24 24 24 24 24 24 24 24 24 24 24 24 24 24 24 24 24 24 24 24 24 24 24 24 24 24 24 24 24 24 24 24 24 24 24 24 24 24 24 24 24 24 24 24 24 24 24 24 24 24 24 24 24 24 24 24 24 24 24 24 24 24 24 24 24 24 24 24 24 24 24 24 24 24 24 24 24 24 24 24 24 24 24 24 24 24 24 24 24 24 24 24 24 24 24 24 24 24 24 24 24 24 24 24 24 24 24 24 24 24 24 24 24 24 24 24 24 24 24 24 24 24 24 24 24 24 24 24 24 24 24 24 24 24 24 24 24 24 24 24 24 24 24 24 24 24 24 24 24 24 24 24 24 24 24 24 24 24 24 24 24 24 24 24 24 24 24 24 24 24 24 24 24 24 24 24 24 24 24 24 24 24 24 24 24 24 24 24 24 24 24 24 24 24 24 24 24 24 24 24 24 24 24 24 24 24 24 24 24 24 24 24 24 24 24 24 24 24 24 24 24 24 24 24 24 24 24 24 24 24 24 24 24 24 24 24 24 24 24 24 24 24 24 24 24 24 24 24 24 24 24 24 24 24 24 24 24 24 24 24 24 24 24 24 24 24 24 24 24 24 24 24 24 24 24 24 24 24 24 24 24 24 24 24 24 24 24 24 24 24 24 24 24 24 24 24 24 24 24 24 24 24 24 24 24 24 24 24 24 24 24 24 24 24 24 24 24 24 24 24 24 24 24 24 24 24 24 24 24 24 24 24 24 24 24 24 24 24 24 24 24 24 24 24 24 24 24 24 24 24 24 24 24 24 24 24 24 24 24 24 24 24 24 24 24 24 24 24 24 24 24 24 24 24 24 24 24 24 24 24 24 24 24 24 24 24 24 24 24 24 24 24 24 24 24 24 24 24 24 24 24 24 24 24 24 24 24 24 24 24 24 24 24 24 24 24 24 24 24 24 24 24 24 24 24 24 24 24 24 24 24 24 24 24 24 24 24 24 24 24 24 24 24 24 24 24 24 24 24 24 24 24 24 24 24 24 24 24 24 24 24 24 24 24 24 24 24 24 24 24 24 24 24 24 24 24 24 24 24 24 24 24 24 24 24 24 24 24 24 24 24 24 24 24 24 24 24 24 24 24 24 24 24 24 24 24 24 24 24 24 24 24 24 24 24 24 24 24 24 24 24 24 24 24 24 24 24 24 24 24 24 24 24 24 24 24 24 24 24 24 24 24 24 24 24 24 24 24 24 24 24 24 24 24 24 24 24 24 24 24 24 24 24 24 24 24 24 24 24 24 24 24 24 24 24 24 24 24 24 24 24 24 24 24 24 24 24 24 24 24 24 24 24 24 24 24 24 24 24 24 24 24 24 24 24 24 24 24 24 24 24 24 24 24 24 24 24 24 24 24 24 24 24 24 24 24 24 24 24 24 24 24 24 24 24 24 24 24 24 24 24 24 24 24 24 24 24 24 24 24 24 24 24 24 24 24 24 24 24 24 24 24 24 24 24 24 24 24 24 24 24 24 24 24 24 24 24 24 24 24 24 24 24 24 24 24 24 24 24 24 24 24 24 24 24 24 24 24 24 24 24 24 24 24 24 24 24 24 24 24 24 24 24 24 24 24 24 24 24 24 24 24 24 24 24 24 24 24 24 24 24 24 24 24 24 24 24 24 24 24 24 24 24 24 24 24 24 24 24 24 24 24 24 24 24 24 24 24 24 24 24 24 24 24 24 24 24 24 24 24 24 24 24 24 24 24 24 24 24 24 24 24 24 24 24 24 24 24 24 24 24 24 24 24 24 24 24 24 24 24 24 24 24 24 24 24 24 24 24 24 24 24 24 24 24 24 24 24 24 24 24 24 24 24 24 24 24 24 24 24 24 24 24 24 24 24 24 24 24 24 24 24 24 24 24 24 24 24 24 24 24 24 24 24 24 24 24 24 24 24 24 24 24 24 24 24 24 24 24 24 24 24 24 24 24 24 24 24 24 24 24 24 24 24 24 24 24 24 24 24 24 24 24 24 24 24 24 24 24 24 24 24 24 24 24 24 24 24 24 24 24 24 24 24 24 24 24 24 24 24 24 24 24 24 24 24 24 24 24 24 24 24 24 24 24 24 24 24 24 24 24 24 24 24 24 24 24 24 24 24 24 24 24 24 24 24 24 24 24 24 24 24 24 24 24 24 24 24 24 24 24 24 24 24 24 24 24 24 24 24 24 24 24 24 24 24 24 24 24 24 24 24 24 24 24 24 24 24 24 24 24 24 24 24 24 24 24 24 24 24 24 24 24 24 24 24 24 24 24 24 24 24 24 24 24 24 24 24 24 24 24 24 24 24 24 24 24 24 24 24 24 24 24 24 24 24 24 24 24 24 24 24 24 24 24 24 24 24 24 24 24 24 24 24 24 24 24 24 24 24 24 24 24 24 24 24 24 24 24 24 24 24 24 24 24 24 24 24 24 24 24 24 24 24 24 24 24 24 24 24 24 24 24 24 24 24 24 24 24 24 24 24 24 24 24 24 24 24 24 24 24 24 24 24 24 24 24 24 24 24 24 24 24 24 24 24 24 24 24 24 24 24 24 24 24 24 24 24 24 24 24 24 24 24 24 24 24 24 24 24 24 24 24 24 24 24 24 24 24 24 24 24 24 24 24 24 24 24 24 24 24 24 24 24 24 24 24 24 24 24 24 24 24 24 24 24 24 24 24 24 24 24 24 24 24 24 24 24 24 24 24 24 24 24 24 24 24 24 24 24 24 24 24 24 24 24 24 24 24 24 24 24 24 24 24 24 24 24 24 24 24 24 24 24 24 24 24 24 24 24 24 24 24 24 24 24 24 24 24 24 24 24 24 24 24 24 24 24 24 24 24 24 24 24 24 24 24 24 24 24 24 24 24 24 24 24 24 24 24 24 24 24 24 24 24 24 24 24 24 24 24 24 24 24 24 24 24 24 24 24 24 24 24 24 24 24 24 24 24 24 24 24 24 24 24 24 24 24 24 24 24 24 24 24 24 24 24 24 24 24 24 24 24 24 24 24 24 24 24 24 24 24 24 24 24 24 24 24 24 24 24 24 24 24 24 24 24 24 24 24 24 24 24 24 24 24 24 24 24 24 24 24 24 24 24 24 24 24 24 24 24 24 24 24 24 24 24 24 24 24 24 24 24 24 24 24 24 24 24 24 24 24 24 24 24 24 24 24 24 24 24 24 24 24 24 24 24 24 24 24 24 24 24 24 24 24 24 24 24 24 24 24 24 24 24 24 24 24 24 24 24 24 24 24 24 24 24 24 24 24 24 24 24 24 24 24 24 24 24 24 24 24 24 24 24 24 24 24 24 24 24 24 24 24 24 24 24 24 24 24 24 24 24 24 24 24 24 24 24 24 24 24 24 24 24 24 24 24 24 24 24 24 24 24 24 24 24 24 24 24 24 24 24 24 24 24 24 24 24 24 24 24 24 24 24 24 24 24 24 24 24 24 24 24 24 24 24 24 24 24 24 24 24 24 24 24 24 24 24 24 24 24 24 24 24 24 24 24 24 24 24 24 24 24 24 24 24 24 24 24 24 24 24 24 24 24 24 24 24 24 24 24 24 24 24 24 24 24 24 24 24 24 24 24 24 24 24 24 24 24 24 24 24 24 24 24 24 24 24 24 24 24 24 24 24 24 24 24 24 24 24 24 24 24 24 24 24 24 24 24 24 24 24 24 24 24 24 24 24 24 24 24 24 24 24 24 24 24 24 24 24 24 24 24 24 24 24 24 24 24 24 24 24 24 24 24 24 24 24 24 24 24 24 24 24 24 24 24 24 24 24 24 24 24 24 24 24 24 24 24 24 24 24 24 24 24 24 24 24 24 24 24 24 24 24 24 24 24 24 24 24 24 24 24 24 24 24 24 24 24 24 24 24 24 24 24 24 24 24 24 24 24 24 24 24 24 24 24 24 24 24 24 24 24 24 24 24 24 24 24 24 24 24 24 24 24 24 24 24 24 24 24 24 24 24 24 24 24 24 24 24 24 24 24 24 24 24 24 24 24 24 24 24 24 24 24 24 24 24 24 24 24 24 24 24 24 24 24 24 24 24 24 24 24 24 24 24 24 24 24 24 24 24 24 24 24 24 24 24 24 24 24 24 24 24 24 24 24 24 24 24 24 24 24 24 24 24 24 24 24 24 24 24 24 24 24 24 24 24 24 24 24 24 24 24 24 24 24 24 24 24 24 24 24 24 24 24 24 24 24 24 24 24 24 24 24 24 24 24 24 24 24 24 24 24 24 24 24 24 24 24 24 24 24 24 24 24 24 

POINT_DATA 18785
SCALARS weights float 1
LOOKUP_TABLE default
0.195312 0.260416 0.260416 0.260416 0.260416 0.260416 0.260416 0.260416 0.260416 0.260416 0.260416 0.260416 0.260416 0.260416 0.260416 0.260416 0.260416 0.260416 0.260416 0.260416 0.260416 0.260416 0.260416 0.260416 0.260416 0.260416 0.260416 0.260416 0.260416 0.260416 0.260416 0.260416 0.0651042 0.260416 0.390624 0.390624 0.390624 0.390624 0.390624 0.390624 0.390624 0.390624 0.390624 0.390624 0.390625 0.390624 0.390624 0.390624 0.390625 0.390625 0.390624 0.390624 0.390625 0.390624 0.390624 0.390624 0.390624 0.390624 0.390624 0.390624 0.390625 0.390624 0.390624 0.390624 0.390625 0.130208 0.260416 0.390624 0.390624 0.390624 0.390624 0.390624 0.390624 0.390624 0.390624 0.390624 0.390624 0.390625 0.390624 0.390624 0.390624 0.390624 0.390625 0.390624 0.390624 0.390625 0.390624 0.390625 0.390624 0.390624 0.390624 0.390625 0.390624 0.390625 0.390624 0.390624 0.390624 0.390625 0.130208 0.260416 0.390624 0.390624 0.390624 0.390624 0.390624 0.390624 0.390624 0.390624 0.390624 0.390624 0.390624 0.390624 0.390624 0.390624 0.390624 0.390625 0.390624 0.390624 0.390625 0.390624 0.390624 0.390624 0.390624 0.390624 0.390624 0.390624 0.390625 0.390624 0.390624 0.390624 0.390625 0.130208 0.260416 0.390624 0.390624 0.390624 0.390624 0.390624 0.390624 0.390624 0.390624 0.390624 0.390624 0.390625 0.390624 0.390624 0.390624 0.390624 0.390625 0.390624 0.390624 0.390625 0.390624 0.390624 0.390624 0.390624 0.390624 0.390624 0.390624 0.390625 0.390624 0.390624 0.390624 0.390625 0.130208 0.260416 0.390624 0.390624 0.390624 0.390624 0.390624 0.390624 0.390624 0.390624 0.390624 0.390624 0.390625 0.390624 0.390624 0.390624 0.390625 0.390625 0.390625 0.390624 0.390625 0.390624 0.390625 0.390624 0.390625 0.390624 0.390625 0.390624 0.390625 0.390624 0.390624 0.390624 0.390625 0.130208 0.260416 0.390624 0.390624 0.390624 0.390624 0.390624 0.390624 0.390624 0.390624 0.390624 0.390624 0.390625 0.390624 0.390624 0.390624 0.390625 0.390625 0.390625 0.390624 0.390625 0.390624 0.390625 0.390624 0.390625 0.390624 0.390625 0.390624 0.390625 0.390624 0.390624 0.390624 0.390625 0.130208 0.260416 0.390624 0.390624 0.390624 0.390624 0.390624 0.390624 0.390624 0.390624 0.390624 0.390624 0.390624 0.390624 0.390624 0.390624 0.390624 0.390625 0.390624 0.390624 0.390625 0.390624 0.390624 0.390624 0.390624 0.390624 0.390624 0.390624 0.390625 0.390624 0.390624 0.390624 0.390625 0.130208 0.0651041 0.130208 0.130208 0.130208 0.130208 0.130208 0.130208 0.130208 0.130208 0.130208 0.130208 0.130208 0.130208 0.130208 0.130208 0.130208 0.130208 0.130208 0.130208 0.130208 0.130208 0.130208 0.130208 0.130208 0.130208 0.130208 0.130208 0.130208 0.130208 0.130208 0.130208 0.130208 0.0651042 0.260417 0.390626 0.390626 0.390626 0.390626 0.390626 0.390626 0.390625 0.390625 0.390625 0.390626 0.390626 0.390625 0.390626 0.390625 0.390626 0.390626 0.390626 0.390626 0.390626 0.390626 0.390626 0.390626 0.390626 0.390625 0.390626 0.390625 0.390626 0.390626 0.390625 0.390626 0.390626 0.130209 0.390625 0.781251 0.781251 0.78125 0.78125 0.781251 0.781251 0.78125 0.78125 0.78125 0.781251 0.781251 0.781251 0.781251 0.78125 0.781251 0.781251 0.781251 0.781251 0.781252 0.781251 0.781251 0.78125 0.781251 0.78125 0.781251 0.78125 0.781251 0.781251 0.78125 0.781251 0.781251 0.390626 0.390626 0.781251 0.781251 0.781251 0.78125 0.781251 0.781251 0.78125 0.78125 0.78125 0.781251 0.781251 0.781251 0.781251 0.78125 0.781251 0.781251 0.781251 0.781251 0.781252 0.781251 0.781251 0.78125 0.781251 0.78125 0.781251 0.78125 0.781251 0.781251 0.78125 0.781251 0.781251 0.390626 0.390625 0.78125 0.781251 0.78125 0.78125 0.781251 0.781251 0.78125 0.78125 0.78125 0.781251 0.781251 0.781251 0.781251 0.78125 0.781251 0.781251 0.781251 0.781251 0.781251 0.781251 0.781251 0.78125 0.781251 0.78125 0.781251 0.78125 0.78125 0.781251 0.78125 0.781251 0.781251 0.390626 0.390625 0.78125 0.78125 0.78125 0.78125 0.78125 0.78125 0.78125 0.78125 0.78125 0.781251 0.781251 0.78125 0.78125 0.78125 0.781251 0.781251 0.781251 0.781251 0.781251 0.781251 0.781251 0.78125 0.781251 0.78125 0.781251 0.78125 0.78125 0.781251 0.78125 0.781251 0.781251 0.390626 0.390626 0.781251 0.781251 0.781251 0.781251 0.781251 0.781251 0.78125 0.78125 0.78125 0.781251 0.781251 0.781251 0.781251 0.78125 0.781251 0.781251 0.781251 0.781251 0.781252 0.781251 0.781251 0.78125 0.781251 0.78125 0.781251 0.78125 0.781251 0.781251 0.78125 0.781251 0.781251 0.390626 0.390626 0.781251 0.781251 0.781251 0.781251 0.781251 0.781251 0.78125 0.78125 0.78125 0.781251 0.781251 0.781251 0.781251 0.78125 0.781251 0.781251 0.781251 0.781251 0.781252 0.781251 0.781251 0.781251 0.781251 0.78125 0.781251 0.78125 0.781251 0.781251 0.78125 0.781251 0.781251 0.390626 0.390625 0.78125 0.78125 0.78125 0.78125 0.78125 0.78125 0.78125 0.78125 0.78125 0.78125 0.781251 0.78125 0.78125 0.78125 0.78125 0.781251 0.781251 0.78125 0.781251 0.781251 0.781251 0.78125 0.781251 0.78125 0.78125 0.78125 0.78125 0.781251 0.78125 0.781251 0.781251 0.390626 0.130208 0.390625 0.390625 0.390625 0.390625 0.390625 0.390625 0.390625 0.390625 0.390625 0.390625 0.390625 0.390625 0.390625 0.390625 0.390625 0.390625 0.390625 0.390625 0.390625 0.390625 0.390625 0.390625 0.390625 0.390625 0.390625 0.390625 0.390625 0.390626 0.390625 0.390625 0.390625 0.260417 0.260417 0.390625 0.390625 0.390625 0.390625 0.390625 0.390625 0.390625 0.390625 0.390625 0.390626 0.390626 0.390625 0.390626 0.390625 0.390626 0.390626 0.390626 0.390626 0.390626 0.390626 0.390626 0.390625 0.390626 0.390625 0.390626 0.390625 0.390626 0.390625 0.390625 0.390626 0.390626 0.130209 0.390626 0.781251 0.781251 0.781251 0.781251 0.781251 0.781251 0.781251 0.781251 0.781251 0.781251 0.781252 0.781251 0.781251 0.781251 0.781251 0.781252 0.781252 0.781251 0.781252 0.781252 0.781252 0.781251 0.781251 0.781251 0.781251 0.78125 0.781251 0.781252 0.78125 0.781252 0.781252 0.390626 0.390626 0.781251 0.781251 0.781251 0.781251 0.781251 0.781251 0.781251 0.781251 0.781251 0.781251 0.781252 0.781251 0.781251 0.781251 0.781251 0.781252 0.781252 0.781251 0.781252 0.781252 0.781252 0.781251 0.781251 0.781251 0.781251 0.78125 0.781251 0.781252 0.781251 0.781252 0.781252 0.390626 0.390626 0.781251 0.781251 0.781251 0.781251 0.781251 0.781251 0.781251 0.781251 0.781251 0.781251 0.781252 0.781251 0.781251 0.781251 0.781251 0.781252 0.781252 0.781251 0.781252 0.781252 0.781252 0.781251 0.781251 0.781251 0.781251 0.78125 0.781251 0.781252 0.78125 0.781252 0.781252 0.390626 0.390626 0.781251 0.781251 0.781251 0.781251 0.781251 0.781251 0.781251 0.781251 0.781251 0.781251 0.781252 0.781251 0.781251 0.781251 0.781251 0.781252 0.781252 0.781251 0.781252 0.781252 0.781252 0.781251 0.781251 0.781251 0.781251 0.78125 0.781251 0.781252 0.78125 0.781252 0.781252 0.390626 0.390626 0.781251 0.781251 0.781251 0.781251 0.781251 0.781251 0.781251 0.781251 0.781251 0.781251 0.781252 0.781251 0.781251 0.781251 0.781251 0.781252 0.781252 0.781251 0.781252 0.781252 0.781252 0.781251 0.781252 0.781251 0.781251 0.78125 0.781251 0.781252 0.781251 0.781252 0.781252 0.390626 0.390626 0.781251 0.781251 0.781251 0.781251 0.781251 0.781251 0.781251 0.781251 0.781251 0.781251 0.781252 0.781252 0.781252 0.781251 0.781251 0.781252 0.781252 0.781252 0.781252 0.781252 0.781252 0.781251 0.781252 0.781251 0.781251 0.781251 0.781251 0.781252 0.781251 0.781252 0.781252 0.390626 0.390626 0.781251 0.781251 0.781251 0.781251 0.781251 0.781251 0.781251 0.781251 0.781251 0.781251 0.781252 0.781251 0.781251 0.781251 0.781251 0.781252 0.781252 0.781251 0.781252 0.781252 0.781252 0.781251 0.781251 0.781251 0.781251 0.78125 0.781251 0.781252 0.78125 0.781252 0.781252 0.390626 0.130209 0.390626 0.390626 0.390626 0.390626 0.390626 0.390626 0.390626 0.390626 0.390625 0.390626 0.390626 0.390626 0.390626 0.390626 0.390626 0.390626 0.390626 0.390626 0.390626 0.390626 0.390626 0.390626 0.390626 0.390626 0.390626 0.390626 0.390625 0.390626 0.390625 0.390626 0.390626 0.260417 0.260416 0.390624 0.390624 0.390624 0.390624 0.390624 0.390624 0.390624 0.390624 0.390624 0.390624 0.390624 0.390624 0.390624 0.390624 0.390624 0.390624 0.390624 0.390624 0.390625 0.390624 0.390624 0.390624 0.390624 0.390624 0.390624 0.390623 0.390624 0.390624 0.390624 0.390624 0.390624 0.130208 0.390625 0.781249 0.781249 0.781249 0.781249 0.781249 0.781249 0.781249 0.781249 0.781249 0.781249 0.78125 0.781249 0.781249 0.781249 0.781249 0.78125 0.78125 0.781249 0.78125 0.78125 0.78125 0.781249 0.78125 0.781249 0.781249 0.781248 0.781249 0.78125 0.781248 0.78125 0.78125 0.390625 0.390625 0.781249 0.781249 0.781249 0.781249 0.781249 0.781249 0.781249 0.781249 0.781249 0.781249 0.78125 0.781249 0.781249 0.781249 0.781249 0.78125 0.78125 0.78125 0.78125 0.78125 0.78125 0.781249 0.78125 0.781249 0.781249 0.781248 0.781249 0.78125 0.781249 0.78125 0.78125 0.390625 0.390625 0.781249 0.781249 0.781249 0.781249 0.781249 0.781249 0.781249 0.781249 0.781249 0.781249 0.78125 0.781249 0.781249 0.781249 0.781249 0.78125 0.78125 0.781249 0.78125 0.78125 0.78125 0.781249 0.781249 0.781249 0.781249 0.781248 0.781249 0.78125 0.781248 0.78125 0.78125 0.390625 0.390625 0.781249 0.781249 0.781249 0.781249 0.781249 0.781249 0.781249 0.781249 0.781249 0.781249 0.78125 0.781249 0.781249 0.781249 0.781249 0.78125 0.78125 0.781249 0.78125 0.78125 0.78125 0.781249 0.781249 0.781249 0.781249 0.781248 0.781249 0.78125 0.781248 0.78125 0.78125 0.390625 0.390625 0.781249 0.781249 0.781249 0.781249 0.781249 0.781249 0.781249 0.781249 0.781249 0.781249 0.78125 0.781249 0.781249 0.781249 0.781249 0.78125 0.78125 0.78125 0.78125 0.78125 0.78125 0.781249 0.78125 0.781249 0.781249 0.781249 0.781249 0.78125 0.781249 0.78125 0.78125 0.390625 0.390625 0.781249 0.781249 0.781249 0.781249 0.781249 0.781249 0.781249 0.781249 0.781249 0.781249 0.78125 0.781249 0.781249 0.781249 0.78125 0.78125 0.78125 0.78125 0.78125 0.78125 0.78125 0.781249 0.78125 0.781249 0.781249 0.781249 0.781249 0.78125 0.781249 0.78125 0.78125 0.390626 0.390624 0.781249 0.781249 0.781249 0.781249 0.781249 0.781249 0.781249 0.781249 0.781249 0.781249 0.78125 0.781249 0.781249 0.781249 0.781249 0.78125 0.78125 0.781249 0.78125 0.78125 0.78125 0.781249 0.781249 0.781249 0.781249 0.781248 0.781249 0.78125 0.781248 0.78125 0.78125 0.390625 0.130208 0.390625 0.390625 0.390625 0.390625 0.390625 0.390625 0.390625 0.390625 0.390625 0.390625 0.390625 0.390625 0.390625 0.390625 0.390625 0.390625 0.390625 0.390625 0.390626 0.390625 0.390625 0.390625 0.390625 0.390625 0.390625 0.390625 0.390625 0.390626 0.390625 0.390625 0.390625 0.260417 0.260417 0.390625 0.390625 0.390625 0.390625 0.390625 0.390625 0.390624 0.390624 0.390624 0.390625 0.390625 0.390625 0.390625 0.390624 0.390625 0.390625 0.390625 0.390625 0.390625 0.390625 0.390625 0.390625 0.390625 0.390624 0.390625 0.390624 0.390625 0.390625 0.390624 0.390625 0.390625 0.130208 0.390625 0.781249 0.781249 0.781249 0.781249 0.781249 0.781249 0.781249 0.781249 0.781249 0.781249 0.78125 0.781249 0.781249 0.781249 0.781249 0.78125 0.78125 0.781249 0.78125 0.78125 0.78125 0.781249 0.78125 0.781249 0.781249 0.781248 0.781249 0.78125 0.781249 0.78125 0.78125 0.390625 0.390625 0.781249 0.781249 0.781249 0.781249 0.781249 0.781249 0.781249 0.781249 0.781249 0.781249 0.78125 0.781249 0.781249 0.781249 0.781249 0.78125 0.78125 0.781249 0.78125 0.78125 0.78125 0.781249 0.78125 0.781249 0.781249 0.781249 0.781249 0.78125 0.781249 0.78125 0.78125 0.390625 0.390625 0.781249 0.781249 0.781249 0.781249 0.781249 0.781249 0.781249 0.781249 0.781249 0.781249 0.78125 0.781249 0.781249 0.781249 0.781249 0.78125 0.78125 0.781249 0.78125 0.78125 0.78125 0.781249 0.78125 0.781249 0.781249 0.781248 0.781249 0.78125 0.781249 0.78125 0.78125 0.390625 0.390625 0.781249 0.781249 0.781249 0.781249 0.781249 0.781249 0.781249 0.781249 0.781249 0.781249 0.78125 0.781249 0.781249 0.781249 0.781249 0.78125 0.78125 0.781249 0.78125 0.78125 0.78125 0.781249 0.781249 0.781249 0.781249 0.781248 0.781249 0.78125 0.781248 0.78125 0.78125 0.390625 0.390625 0.781249 0.781249 0.781249 0.781249 0.781249 0.781249 0.781249 0.781249 0.781249 0.781249 0.78125 0.781249 0.781249 0.781249 0.781249 0.78125 0.78125 0.78125 0.78125 0.78125 0.78125 0.781249 0.78125 0.781249 0.781249 0.781249 0.781249 0.78125 0.781249 0.78125 0.78125 0.390625 0.390625 0.781249 0.781249 0.781249 0.781249 0.781249 0.781249 0.781249 0.781249 0.781249 0.781249 0.78125 0.781249 0.781249 0.781249 0.781249 0.78125 0.78125 0.78125 0.78125 0.78125 0.78125 0.781249 0.78125 0.781249 0.781249 0.781249 0.781249 0.78125 0.781249 0.78125 0.78125 0.390625 0.390625 0.781249 0.781249 0.781249 0.781249 0.781249 0.781249 0.781249 0.781249 0.781249 0.781249 0.78125 0.781249 0.781249 0.781249 0.781249 0.78125 0.78125 0.781249 0.78125 0.78125 0.78125 0.781249 0.781249 0.781249 0.781249 0.781248 0.781249 0.78125 0.781248 0.78125 0.78125 0.390625 0.130208 0.390624 0.390624 0.390624 0.390624 0.390624 0.390625 0.390624 0.390624 0.390624 0.390625 0.390625 0.390625 0.390624 0.390624 0.390624 0.390625 0.390625 0.390625 0.390625 0.390625 0.390625 0.390624 0.390624 0.390624 0.390624 0.390624 0.390624 0.390625 0.390624 0.390625 0.390625 0.260417 0.260417 0.390625 0.390625 0.390625 0.390625 0.390625 0.390625 0.390625 0.390625 0.390625 0.390625 0.390625 0.390625 0.390625 0.390625 0.390625 0.390625 0.390625 0.390625 0.390625 0.390625 0.390625 0.390625 0.390625 0.390625 0.390625 0.390624 0.390625 0.390625 0.390624 0.390625 0.390625 0.130209 0.390625 0.78125 0.781251 0.78125 0.78125 0.78125 0.78125 0.78125 0.78125 0.78125 0.781251 0.781251 0.781251 0.781251 0.78125 0.78125 0.781251 0.781251 0.781251 0.781251 0.781251 0.781251 0.78125 0.781251 0.78125 0.781251 0.78125 0.78125 0.781251 0.78125 0.781251 0.781251 0.390626 0.390625 0.781251 0.781251 0.78125 0.78125 0.781251 0.781251 0.78125 0.78125 0.78125 0.781251 0.781251 0.78125 0.781251 0.78125 0.78125 0.781251 0.781251 0.781251 0.781251 0.781251 0.781251 0.78125 0.781251 0.78125 0.781251 0.78125 0.78125 0.781251 0.78125 0.781251 0.781251 0.390626 0.390625 0.78125 0.78125 0.78125 0.78125 0.78125 0.78125 0.78125 0.78125 0.78125 0.781251 0.781251 0.78125 0.78125 0.78125 0.78125 0.781251 0.781251 0.781251 0.781251 0.781251 0.781251 0.78125 0.781251 0.78125 0.781251 0.78125 0.78125 0.781251 0.78125 0.781251 0.781251 0.390626 0.390625 0.78125 0.78125 0.78125 0.78125 0.78125 0.78125 0.78125 0.78125 0.78125 0.78125 0.781251 0.78125 0.78125 0.78125 0.78125 0.781251 0.781251 0.78125 0.781251 0.781251 0.781251 0.78125 0.781251 0.78125 0.781251 0.78125 0.78125 0.781251 0.78125 0.781251 0.781251 0.390626 0.390625 0.781251 0.781251 0.781251 0.781251 0.781251 0.781251 0.78125 0.78125 0.78125 0.781251 0.781251 0.781251 0.781251 0.78125 0.781251 0.781251 0.781251 0.781251 0.781251 0.781251 0.781251 0.78125 0.781251 0.78125 0.781251 0.78125 0.781251 0.781251 0.78125 0.781251 0.781251 0.390626 0.390625 0.781251 0.781251 0.781251 0.781251 0.781251 0.781251 0.78125 0.78125 0.78125 0.781251 0.781251 0.781251 0.781251 0.78125 0.781251 0.781251 0.781251 0.781251 0.781252 0.781251 0.781251 0.78125 0.781251 0.78125 0.781251 0.78125 0.781251 0.781251 0.78125 0.781251 0.781251 0.390626 0.390625 0.78125 0.78125 0.78125 0.78125 0.78125 0.78125 0.78125 0.78125 0.78125 0.78125 0.781251 0.78125 0.78125 0.78125 0.78125 0.781251 0.781251 0.78125 0.781251 0.781251 0.781251 0.78125 0.78125 0.78125 0.78125 0.781249 0.78125 0.781251 0.78125 0.781251 0.781251 0.390626 0.130209 0.390625 0.390625 0.390625 0.390625 0.390625 0.390625 0.390625 0.390625 0.390625 0.390625 0.390626 0.390625 0.390625 0.390625 0.390625 0.390626 0.390626 0.390625 0.390626 0.390626 0.390626 0.390625 0.390625 0.390625 0.390625 0.390625 0.390625 0.390626 0.390625 0.390626 0.390626 0.260417 0.260416 0.390625 0.390625 0.390625 0.390625 0.390625 0.390625 0.390625 0.390625 0.390624 0.390625 0.390625 0.390625 0.390625 0.390625 0.390625 0.390625 0.390625 0.390625 0.390625 0.390625 0.390625 0.390625 0.390625 0.390624 0.390625 0.390624 0.390625 0.390625 0.390624 0.390625 0.390625 0.130209 0.390625 0.78125 0.78125 0.78125 0.78125 0.78125 0.78125 0.78125 0.78125 0.78125 0.78125 0.781251 0.78125 0.78125 0.78125 0.78125 0.781251 0.781251 0.78125 0.781251 0.781251 0.781251 0.78125 0.781251 0.78125 0.78125 0.781249 0.78125 0.781251 0.78125 0.781251 0.781251 0.390626 0.390625 0.78125 0.78125 0.78125 0.78125 0.78125 0.78125 0.78125 0.78125 0.78125 0.78125 0.781251 0.78125 0.78125 0.78125 0.78125 0.781251 0.781251 0.78125 0.781251 0.781251 0.781251 0.78125 0.781251 0.78125 0.78125 0.781249 0.78125 0.781251 0.78125 0.781251 0.781251 0.390626 0.390625 0.78125 0.78125 0.78125 0.78125 0.78125 0.78125 0.78125 0.78125 0.78125 0.78125 0.781251 0.78125 0.78125 0.78125 0.78125 0.781251 0.781251 0.78125 0.781251 0.781251 0.781251 0.78125 0.781251 0.78125 0.78125 0.781249 0.78125 0.781251 0.78125 0.781251 0.781251 0.390626 0.390625 0.78125 0.78125 0.78125 0.78125 0.78125 0.78125 0.78125 0.78125 0.78125 0.78125 0.781251 0.78125 0.78125 0.78125 0.78125 0.781251 0.781251 0.78125 0.781251 0.781251 0.781251 0.78125 0.78125 0.78125 0.78125 0.781249 0.78125 0.781251 0.78125 0.781251 0.781251 0.390626 0.390625 0.78125 0.78125 0.78125 0.78125 0.781251 0.78125 0.78125 0.78125 0.78125 0.78125 0.781251 0.78125 0.78125 0.78125 0.78125 0.781251 0.781251 0.78125 0.781251 0.781251 0.781251 0.78125 0.781251 0.78125 0.78125 0.78125 0.78125 0.781251 0.78125 0.781251 0.781251 0.390626 0.390625 0.78125 0.78125 0.78125 0.78125 0.781251 0.78125 0.78125 0.78125 0.78125 0.78125 0.781251 0.78125 0.78125 0.78125 0.781251 0.781251 0.781251 0.781251 0.781251 0.781251 0.781251 0.78125 0.781251 0.78125 0.78125 0.78125 0.78125 0.781251 0.78125 0.781251 0.781251 0.390626 0.390625 0.78125 0.78125 0.78125 0.78125 0.78125 0.78125 0.78125 0.78125 0.78125 0.78125 0.781251 0.78125 0.78125 0.78125 0.78125 0.781251 0.781251 0.78125 0.781251 0.781251 0.781251 0.78125 0.78125 0.78125 0.78125 0.781249 0.78125 0.781251 0.781249 0.781251 0.781251 0.390626 0.130209 0.390626 0.390625 0.390625 0.390625 0.390625 0.390625 0.390625 0.390625 0.390625 0.390625 0.390626 0.390626 0.390625 0.390625 0.390625 0.390626 0.390626 0.390625 0.390626 0.390626 0.390626 0.390625 0.390626 0.390625 0.390625 0.390625 0.390625 0.390626 0.390625 0.390626 0.390626 0.260417 0.260417 0.390625 0.390625 0.390625 0.390625 0.390625 0.390625 0.390625 0.390625 0.390625 0.390625 0.390625 0.390625 0.390625 0.390625 0.390625 0.390625 0.390625 0.390625 0.390625 0.390625 0.390625 0.390625 0.390625 0.390625 0.390625 0.390624 0.390625 0.390625 0.390624 0.390625 0.390625 0.130209 0.390625 0.78125 0.78125 0.78125 0.78125 0.78125 0.78125 0.78125 0.78125 0.78125 0.78125 0.781251 0.78125 0.78125 0.78125 0.78125 0.781251 0.781251 0.78125 0.781251 0.781251 0.781251 0.78125 0.78125 0.78125 0.78125 0.781249 0.78125 0.781251 0.781249 0.781251 0.781251 0.390626 0.390625 0.78125 0.78125 0.78125 0.78125 0.78125 0.78125 0.78125 0.78125 0.78125 0.78125 0.781251 0.78125 0.78125 0.78125 0.78125 0.781251 0.781251 0.78125 0.781251 0.781251 0.781251 0.78125 0.78125 0.78125 0.78125 0.781249 0.78125 0.781251 0.781249 0.781251 0.781251 0.390626 0.390625 0.78125 0.78125 0.78125 0.78125 0.78125 0.78125 0.78125 0.78125 0.78125 0.78125 0.781251 0.78125 0.78125 0.78125 0.78125 0.781251 0.781251 0.78125 0.781251 0.78125 0.781251 0.78125 0.78125 0.78125 0.78125 0.781249 0.78125 0.781251 0.781249 0.781251 0.781251 0.390626 0.390625 0.78125 0.78125 0.78125 0.78125 0.78125 0.78125 0.78125 0.78125 0.78125 0.78125 0.78125 0.78125 0.78125 0.78125 0.78125 0.78125 0.781251 0.78125 0.781251 0.78125 0.781251 0.78125 0.78125 0.78125 0.78125 0.781249 0.78125 0.781251 0.781249 0.78125 0.781251 0.390626 0.390625 0.78125 0.78125 0.78125 0.78125 0.78125 0.78125 0.78125 0.78125 0.78125 0.78125 0.781251 0.78125 0.78125 0.78125 0.78125 0.781251 0.781251 0.78125 0.781251 0.781251 0.781251 0.78125 0.78125 0.78125 0.78125 0.781249 0.78125 0.781251 0.78125 0.781251 0.781251 0.390626 0.390625 0.78125 0.78125 0.78125 0.78125 0.78125 0.78125 0.78125 0.78125 0.78125 0.78125 0.781251 0.78125 0.78125 0.78125 0.78125 0.781251 0.781251 0.78125 0.781251 0.781251 0.781251 0.78125 0.78125 0.78125 0.78125 0.781249 0.78125 0.781251 0.78125 0.781251 0.781251 0.390626 0.390625 0.78125 0.78125 0.78125 0.78125 0.78125 0.78125 0.78125 0.78125 0.78125 0.78125 0.78125 0.78125 0.78125 0.78125 0.78125 0.78125 0.78125 0.78125 0.781251 0.78125 0.781251 0.78125 0.78125 0.78125 0.78125 0.781249 0.78125 0.78125 0.781249 0.78125 0.781251 0.390626 0.130208 0.390625 0.390625 0.390625 0.390625 0.390625 0.390625 0.390625 0.390625 0.390625 0.390625 0.390625 0.390625 0.390625 0.390625 0.390625 0.390625 0.390625 0.390625 0.390626 0.390625 0.390625 0.390625 0.390625 0.390625 0.390625 0.390625 0.390625 0.390626 0.390625 0.390625 0.390626 0.260417 0.0651043 0.130209 0.130209 0.130209 0.130209 0.130209 0.130209 0.130209 0.130209 0.130209 0.130209 0.130209 0.130209 0.130209 0.130209 0.130209 0.130209 0.130209 0.130209 0.130209 0.130209 0.130209 0.130209 0.130209 0.130209 0.130209 0.130208 0.130209 0.130209 0.130209 0.130209 0.130209 0.0651044 0.130209 0.390626 0.390626 0.390626 0.390626 0.390626 0.390626 0.390626 0.390626 0.390626 0.390626 0.390626 0.390626 0.390626 0.390626 0.390626 0.390626 0.390626 0.390626 0.390626 0.390626 0.390626 0.390626 0.390626 0.390626 0.390626 0.390626 0.390625 0.390627 0.390626 0.390626 0.390626 0.260418 0.130209 0.390626 0.390626 0.390626 0.390626 0.390626 0.390626 0.390626 0.390626 0.390626 0.390626 0.390626 0.390626 0.390626 0.390626 0.390626 0.390626 0.390626 0.390626 0.390626 0.390626 0.390626 0.390626 0.390626 0.390626 0.390626 0.390626 0.390626 0.390627 0.390626 0.390626 0.390626 0.260418 0.130209 0.390626 0.390626 0.390626 0.390626 0.390626 0.390626 0.390626 0.390626 0.390626 0.390626 0.390626 0.390626 0.390626 0.390626 0.390626 0.390626 0.390626 0.390626 0.390626 0.390626 0.390626 0.390626 0.390626 0.390626 0.390626 0.390626 0.390626 0.390627 0.390626 0.390626 0.390626 0.260418 0.130209 0.390626 0.390626 0.390626 0.390626 0.390626 0.390626 0.390626 0.390626 0.390626 0.390626 0.390626 0.390626 0.390626 0.390626 0.390626 0.390626 0.390626 0.390626 0.390626 0.390626 0.390626 0.390626 0.390626 0.390626 0.390626 0.390626 0.390625 0.390626 0.390626 0.390626 0.390626 0.260418 0.130209 0.390626 0.390626 0.390626 0.390626 0.390626 0.390626 0.390626 0.390626 0.390626 0.390626 0.390626 0.390626 0.390626 0.390626 0.390626 0.390626 0.390626 0.390626 0.390626 0.390626 0.390626 0.390626 0.390626 0.390626 0.390626 0.390626 0.390626 0.390627 0.390626 0.390626 0.390626 0.260418 0.130209 0.390626 0.390626 0.390626 0.390626 0.390626 0.390626 0.390626 0.390626 0.390626 0.390626 0.390626 0.390626 0.390626 0.390626 0.390626 0.390626 0.390626 0.390626 0.390626 0.390626 0.390626 0.390626 0.390626 0.390626 0.390626 0.390626 0.390626 0.390627 0.390626 0.390626 0.390626 0.260418 0.130209 0.390626 0.390626 0.390626 0.390626 0.390626 0.390626 0.390626 0.390626 0.390626 0.390626 0.390626 0.390626 0.390626 0.390626 0.390626 0.390626 0.390626 0.390626 0.390626 0.390626 0.390626 0.390626 0.390626 0.390626 0.390626 0.390626 0.390625 0.390626 0.390626 0.390626 0.390626 0.260418 0.0651043 0.260417 0.260417 0.260417 0.260417 0.260417 0.260417 0.260417 0.260417 0.260417 0.260417 0.260417 0.260417 0.260417 0.260417 0.260417 0.260417 0.260417 0.260417 0.260417 0.260417 0.260417 0.260417 0.260417 0.260417 0.260417 0.260417 0.260417 0.260418 0.260417 0.260417 0.260417 0.195313 0.065104 0.130208 0.195312 0.065104 0.097656 0.195312 0.130208 0.195313 0.0976565 0.0651041 0.0651041 0.0976561 0.065104 0.195313 0.0976564 0.0976561 0.065104 0.130208 0.097656 0.130208 0.195312 0.065104 0.0976561 0.195312 0.130208 0.195313 0.0976565 0.0651041 0.195313 0.0976561 0.065104 0.130208 0.097656 0.130208 0.195312 0.065104 0.0976561 0.195312 0.130208 0.195313 0.0976565 0.0651041 0.195313 0.0976561 0.065104 0.130208 0.097656 0.130208 0.195312 0.065104 0.097656 0.195312 0.130208 0.195313 0.0976565 0.0651041 0.195313 0.0976561 0.065104 0.130208 0.097656 0.130208 0.195312 0.065104 0.097656 0.195312 0.130208 0.195313 0.0976564 0.0651041 0.195313 0.0976562 0.065104 0.130208 0.097656 0.130208 0.195312 0.0651041 0.0976561 0.195312 0.130209 0.195313 0.0976565 0.0651041 0.195313 0.0976562 0.065104 0.130208 0.097656 0.130208 0.195312 0.065104 0.097656 0.195312 0.130208 0.195313 0.0976565 0.0651041 0.195313 0.0976561 0.065104 0.130208 0.097656 0.130208 0.195312 0.0651041 0.0976561 0.195312 0.130208 0.195313 0.0976564 0.0651041 0.195313 0.0976561 0.065104 0.130208 0.0976561 0.130208 0.195312 0.065104 0.097656 0.195312 0.130208 0.195313 0.0976564 0.0651041 0.195313 0.0976561 0.0651039 0.130208 0.097656 0.130208 0.195312 0.065104 0.097656 0.195312 0.130208 0.195313 0.0976564 0.0651041 0.195313 0.0976562 0.0651039 0.130208 0.0976561 0.130208 0.195312 0.0651041 0.0976561 0.195312 0.130209 0.195313 0.0976565 0.0651041 0.195313 0.0976562 0.065104 0.130208 0.0976561 0.130208 0.195312 0.0651041 0.0976561 0.195312 0.130209 0.195313 0.0976565 0.0651041 0.195313 0.0976561 0.065104 0.130208 0.097656 0.130208 0.195312 0.065104 0.0976561 0.195312 0.130208 0.195313 0.0976565 0.0651041 0.195313 0.0976562 0.065104 0.130208 0.097656 0.130208 0.195312 0.065104 0.097656 0.195312 0.130209 0.195313 0.0976565 0.0651042 0.195313 0.0976561 0.065104 0.130208 0.097656 0.130208 0.195312 0.065104 0.097656 0.195312 0.130208 0.195313 0.0976564 0.0651041 0.195313 0.0976562 0.065104 0.130208 0.0976562 0.130208 0.195312 0.0651041 0.0976561 0.195312 0.130209 0.195313 0.0976565 0.0651041 0.195313 0.0976562 0.065104 0.130208 0.0976561 0.130208 0.195312 0.0651041 0.0976561 0.195312 0.130209 0.195313 0.0976565 0.0651042 0.195313 0.0976563 0.065104 0.130208 0.0976561 0.130208 0.195312 0.065104 0.097656 0.195312 0.130209 0.195313 0.0976564 0.0651041 0.195313 0.0976562 0.0651039 0.130208 0.097656 0.130208 0.195312 0.0651041 0.0976561 0.195313 0.130209 0.195313 0.0976566 0.0651042 0.195313 0.0976563 0.0651041 0.130208 0.0976563 0.130208 0.195312 0.065104 0.0976559 0.195312 0.130209 0.195313 0.0976563 0.0651041 0.195313 0.0976562 0.0651038 0.130208 0.097656 0.130208 0.195312 0.0651041 0.0976562 0.195312 0.130209 0.195313 0.0976567 0.0651042 0.195313 0.0976562 0.0651041 0.130208 0.0976561 0.130208 0.195312 0.065104 0.097656 0.195312 0.130208 0.195313 0.0976565 0.0651042 0.195313 0.0976561 0.065104 0.130208 0.097656 0.130208 0.195312 0.0651041 0.0976561 0.195312 0.130209 0.195313 0.0976565 0.0651041 0.195313 0.0976562 0.065104 0.130208 0.0976561 0.130208 0.195312 0.0651041 0.0976561 0.195312 0.130209 0.195313 0.0976565 0.0651042 0.195313 0.0976561 0.065104 0.130208 0.0976559 0.130208 0.195312 0.0651039 0.0976559 0.195312 0.130208 0.195313 0.0976564 0.0651041 0.195312 0.0976562 0.0651039 0.130208 0.0976562 0.130208 0.195312 0.0651041 0.0976561 0.195312 0.130209 0.195312 0.0976564 0.0651041 0.195313 0.097656 0.0651039 0.130208 0.0976559 0.130208 0.195312 0.0651039 0.0976558 0.195312 0.130208 0.195313 0.0976563 0.065104 0.195312 0.0976562 0.0651038 0.130208 0.0976562 0.130209 0.195313 0.0651042 0.0976562 0.195312 0.130209 0.195313 0.0976566 0.0651042 0.195313 0.0976562 0.0651041 0.130208 0.0976562 0.130208 0.195312 0.0651038 0.0976556 0.195312 0.130208 0.195312 0.097656 0.0651039 0.195312 0.0976561 0.0651035 0.130208 0.0976559 0.130208 0.195312 0.0651039 0.0976558 0.195312 0.130209 0.195313 0.0976563 0.0651041 0.195313 0.0976562 0.0651037 0.130208 0.0976561 0.130208 0.195312 0.065104 0.097656 0.195312 0.130209 0.195313 0.0976564 0.0651041 0.195313 0.097656 0.0651039 0.130208 0.0976562 0.130208 0.195313 0.0651042 0.0976563 0.0976563 0.130209 0.0976565 0.0976567 0.0651042 0.195313 0.0325521 0.0651042 0.0651042 0.0325521 0.065104 0.130208 0.195312 0.065104 0.097656 0.195312 0.130208 0.195313 0.0976562 0.065104 0.195313 0.0976564 0.130208 0.097656 0.130208 0.195312 0.065104 0.097656 0.195312 0.130208 0.195313 0.195313 0.130208 0.0976561 0.130208 0.195312 0.0651041 0.0976561 0.195312 0.130208 0.195313 0.195313 0.130208 0.097656 0.130208 0.195312 0.065104 0.097656 0.195312 0.130208 0.195313 0.195313 0.130208 0.0976561 0.130208 0.195312 0.065104 0.097656 0.195312 0.130208 0.195313 0.195313 0.130208 0.0976561 0.130208 0.195312 0.0651041 0.0976561 0.195312 0.130209 0.195313 0.195313 0.130208 0.097656 0.130208 0.195312 0.065104 0.097656 0.195312 0.130208 0.195313 0.195313 0.130208 0.097656 0.130208 0.195312 0.0651041 0.097656 0.195312 0.130208 0.195313 0.195313 0.130208 0.0976561 0.130208 0.195312 0.065104 0.097656 0.195312 0.130208 0.195313 0.195313 0.130208 0.097656 0.130208 0.195312 0.065104 0.097656 0.195312 0.130208 0.195313 0.195313 0.130208 0.0976561 0.130208 0.195312 0.0651041 0.0976561 0.195312 0.130209 0.195313 0.195313 0.130208 0.0976562 0.130208 0.195312 0.0651041 0.0976561 0.195312 0.130209 0.195313 0.195313 0.130208 0.097656 0.130208 0.195312 0.0651041 0.0976561 0.195312 0.130208 0.195313 0.195313 0.130208 0.0976561 0.130208 0.195312 0.0651041 0.097656 0.195312 0.130209 0.195313 0.195313 0.130208 0.097656 0.130208 0.195312 0.065104 0.097656 0.195312 0.130208 0.195313 0.195313 0.130208 0.0976562 0.130208 0.195312 0.0651041 0.0976561 0.195312 0.130209 0.195313 0.195313 0.130208 0.0976562 0.130208 0.195312 0.0651041 0.0976561 0.195312 0.130209 0.195313 0.195313 0.130208 0.0976561 0.130208 0.195312 0.065104 0.097656 0.195312 0.130209 0.195313 0.195313 0.130208 0.097656 0.130208 0.195312 0.0651041 0.0976561 0.195313 0.130209 0.195313 0.195313 0.130208 0.0976563 0.130208 0.195312 0.065104 0.0976559 0.195312 0.130209 0.195313 0.195313 0.130208 0.097656 0.130208 0.195313 0.0651041 0.0976562 0.195312 0.130209 0.195313 0.195313 0.130208 0.0976561 0.130208 0.195312 0.065104 0.097656 0.195312 0.130208 0.195313 0.195313 0.130208 0.097656 0.130208 0.195312 0.0651041 0.0976561 0.195312 0.130209 0.195313 0.195313 0.130208 0.0976561 0.130208 0.195312 0.0651041 0.0976561 0.195312 0.130209 0.195313 0.195313 0.130208 0.0976559 0.130208 0.195312 0.0651039 0.0976559 0.195312 0.130208 0.195313 0.195312 0.130208 0.0976562 0.130208 0.195312 0.0651041 0.097656 0.195312 0.130209 0.195312 0.195313 0.130208 0.0976559 0.130208 0.195312 0.0651039 0.0976558 0.195312 0.130208 0.195313 0.195312 0.130208 0.0976562 0.130209 0.195313 0.0651042 0.0976562 0.195312 0.130209 0.195313 0.195313 0.130208 0.0976562 0.130208 0.195312 0.0651039 0.0976556 0.195312 0.130208 0.195312 0.195312 0.130208 0.0976559 0.130208 0.195312 0.065104 0.0976558 0.195312 0.130209 0.195313 0.195313 0.130208 0.0976561 0.130208 0.195312 0.0651041 0.097656 0.195312 0.130209 0.195313 0.195313 0.130208 0.0976562 0.130208 0.195313 0.0651042 0.0976563 0.0976563 0.130209 0.0976565 0.195313 0.0651042 0.0325521 0.0651041 0.130208 0.195312 0.0651041 0.097656 0.195312 0.130208 0.195313 0.0976562 0.0651041 0.195313 0.0976564 0.130208 0.0976561 0.130208 0.195312 0.0651041 0.097656 0.195312 0.130209 0.195313 0.195313 0.130208 0.0976561 0.130208 0.195312 0.0651041 0.0976561 0.195312 0.130208 0.195313 0.195313 0.130208 0.0976561 0.130208 0.195312 0.065104 0.097656 0.195312 0.130208 0.195313 0.195313 0.130208 0.0976561 0.130208 0.195312 0.0651041 0.097656 0.195312 0.130208 0.195313 0.195313 0.130208 0.0976561 0.130208 0.195312 0.0651041 0.0976561 0.195312 0.130209 0.195313 0.195313 0.130208 0.097656 0.130208 0.195312 0.065104 0.097656 0.195312 0.130208 0.195313 0.195313 0.130208 0.0976561 0.130208 0.195312 0.0651041 0.097656 0.195312 0.130208 0.195313 0.195313 0.130208 0.0976561 0.130208 0.195312 0.065104 0.097656 0.195312 0.130208 0.195313 0.195313 0.130208 0.097656 0.130208 0.195312 0.065104 0.097656 0.195312 0.130208 0.195313 0.195313 0.130208 0.0976561 0.130208 0.195312 0.0651041 0.0976561 0.195312 0.130209 0.195313 0.195313 0.130208 0.0976562 0.130208 0.195312 0.0651041 0.0976561 0.195312 0.130209 0.195313 0.195313 0.130208 0.097656 0.130208 0.195312 0.0651041 0.0976561 0.195312 0.130208 0.195313 0.195313 0.130208 0.0976561 0.130208 0.195312 0.0651041 0.097656 0.195312 0.130209 0.195313 0.195313 0.130208 0.097656 0.130208 0.195312 0.065104 0.097656 0.195312 0.130208 0.195313 0.195313 0.130208 0.0976562 0.130208 0.195312 0.0651041 0.0976561 0.195312 0.130209 0.195313 0.195313 0.130208 0.0976562 0.130208 0.195312 0.0651041 0.0976561 0.195312 0.130209 0.195313 0.195313 0.130208 0.0976561 0.130208 0.195312 0.065104 0.0976559 0.195312 0.130209 0.195313 0.195313 0.130208 0.097656 0.130208 0.195312 0.0651041 0.0976561 0.195313 0.130209 0.195313 0.195313 0.130208 0.0976563 0.130208 0.195312 0.065104 0.0976559 0.195312 0.130209 0.195313 0.195313 0.130208 0.097656 0.130208 0.195313 0.0651041 0.0976562 0.195312 0.130209 0.195313 0.195313 0.130208 0.0976561 0.130208 0.195312 0.065104 0.097656 0.195312 0.130208 0.195313 0.195313 0.130208 0.097656 0.130208 0.195312 0.0651041 0.0976561 0.195312 0.130209 0.195313 0.195313 0.130208 0.0976561 0.130208 0.195312 0.0651041 0.0976561 0.195312 0.130209 0.195313 0.195313 0.130208 0.0976559 0.130208 0.195312 0.0651039 0.0976558 0.195312 0.130208 0.195313 0.195312 0.130208 0.0976562 0.130208 0.195312 0.0651041 0.097656 0.195312 0.130209 0.195312 0.195313 0.130208 0.0976559 0.130208 0.195312 0.0651039 0.0976558 0.195312 0.130208 0.195313 0.195312 0.130208 0.0976562 0.130209 0.195313 0.0651042 0.0976562 0.195312 0.130209 0.195313 0.195313 0.130208 0.0976562 0.130208 0.195312 0.0651039 0.0976556 0.195312 0.130208 0.195312 0.195312 0.130208 0.0976559 0.130208 0.195312 0.065104 0.0976558 0.195312 0.130209 0.195313 0.195313 0.130208 0.0976561 0.130208 0.195313 0.0651041 0.097656 0.195312 0.130209 0.195313 0.195313 0.130208 0.0976562 0.130208 0.195313 0.0651042 0.0976563 0.0976563 0.130209 0.0976565 0.195313 0.0651042 0.0325521 0.065104 0.130208 0.195312 0.065104 0.097656 0.195312 0.130208 0.195313 0.0976561 0.065104 0.195313 0.0976564 0.130208 0.097656 0.130208 0.195312 0.065104 0.0976561 0.195312 0.130208 0.195313 0.195313 0.130208 0.097656 0.130208 0.195312 0.065104 0.0976561 0.195312 0.130208 0.195313 0.195313 0.130208 0.097656 0.130208 0.195312 0.065104 0.097656 0.195312 0.130208 0.195313 0.195313 0.130208 0.097656 0.130208 0.195312 0.065104 0.097656 0.195312 0.130208 0.195313 0.195313 0.130208 0.097656 0.130208 0.195312 0.065104 0.0976561 0.195312 0.130208 0.195313 0.195313 0.130208 0.097656 0.130208 0.195312 0.065104 0.097656 0.195312 0.130208 0.195313 0.195313 0.130208 0.097656 0.130208 0.195312 0.065104 0.097656 0.195312 0.130208 0.195313 0.195313 0.130208 0.097656 0.130208 0.195312 0.065104 0.097656 0.195312 0.130208 0.195313 0.195313 0.130208 0.097656 0.130208 0.195312 0.065104 0.097656 0.195312 0.130208 0.195313 0.195313 0.130208 0.097656 0.130208 0.195312 0.0651041 0.0976561 0.195312 0.130209 0.195313 0.195313 0.130208 0.0976561 0.130208 0.195312 0.0651041 0.0976561 0.195312 0.130209 0.195313 0.195313 0.130208 0.097656 0.130208 0.195312 0.065104 0.0976561 0.195312 0.130208 0.195313 0.195313 0.130208 0.097656 0.130208 0.195312 0.065104 0.097656 0.195312 0.130208 0.195313 0.195313 0.130208 0.097656 0.130208 0.195312 0.065104 0.097656 0.195312 0.130208 0.195313 0.195313 0.130208 0.0976561 0.130208 0.195312 0.0651041 0.0976561 0.195312 0.130209 0.195313 0.195313 0.130208 0.0976561 0.130208 0.195312 0.0651041 0.0976561 0.195312 0.130209 0.195313 0.195313 0.130208 0.0976561 0.130208 0.195312 0.065104 0.097656 0.195312 0.130208 0.195313 0.195313 0.130208 0.097656 0.130208 0.195312 0.0651041 0.0976561 0.195312 0.130209 0.195313 0.195313 0.130208 0.0976562 0.130208 0.195312 0.065104 0.0976559 0.195312 0.130209 0.195313 0.195313 0.130208 0.0976559 0.130208 0.195312 0.0651041 0.0976562 0.195312 0.130209 0.195313 0.195313 0.130208 0.0976561 0.130208 0.195312 0.065104 0.097656 0.195312 0.130208 0.195313 0.195313 0.130208 0.097656 0.130208 0.195312 0.0651041 0.0976561 0.195312 0.130209 0.195313 0.195313 0.130208 0.0976561 0.130208 0.195312 0.0651041 0.0976561 0.195312 0.130209 0.195313 0.195313 0.130208 0.0976559 0.130208 0.195312 0.0651039 0.0976559 0.195312 0.130208 0.195313 0.195312 0.130208 0.0976562 0.130208 0.195312 0.0651041 0.0976561 0.195312 0.130209 0.195312 0.195313 0.130208 0.0976558 0.130208 0.195312 0.0651039 0.0976558 0.195312 0.130208 0.195313 0.195312 0.130208 0.0976562 0.130208 0.195313 0.0651042 0.0976562 0.195312 0.130209 0.195313 0.195313 0.130208 0.0976561 0.130208 0.195312 0.0651038 0.0976556 0.195312 0.130208 0.195312 0.195312 0.130208 0.0976559 0.130208 0.195312 0.0651039 0.0976558 0.195312 0.130209 0.195313 0.195313 0.130208 0.0976561 0.130208 0.195312 0.065104 0.097656 0.195312 0.130209 0.195313 0.195313 0.130208 0.0976561 0.130208 0.195312 0.0651042 0.0976563 0.0976563 0.130209 0.0976565 0.195313 0.0651042 0.0325521 0.065104 0.130208 0.195312 0.065104 0.0976561 0.195312 0.130208 0.195313 0.0976562 0.065104 0.195313 0.0976564 0.130208 0.0976561 0.130208 0.195312 0.065104 0.0976561 0.195312 0.130208 0.195313 0.195313 0.130208 0.0976561 0.130208 0.195312 0.0651041 0.0976561 0.195312 0.130208 0.195313 0.195313 0.130208 0.097656 0.130208 0.195312 0.065104 0.097656 0.195312 0.130208 0.195313 0.195313 0.130208 0.097656 0.130208 0.195312 0.065104 0.0976561 0.195312 0.130208 0.195313 0.195313 0.130208 0.097656 0.130208 0.195312 0.0651041 0.0976561 0.195312 0.130209 0.195313 0.195313 0.130208 0.097656 0.130208 0.195312 0.065104 0.0976561 0.195312 0.130208 0.195313 0.195313 0.130208 0.097656 0.130208 0.195312 0.0651041 0.0976561 0.195312 0.130208 0.195313 0.195313 0.130208 0.0976561 0.130208 0.195312 0.065104 0.097656 0.195312 0.130208 0.195313 0.195313 0.130208 0.097656 0.130208 0.195312 0.065104 0.097656 0.195312 0.130208 0.195313 0.195313 0.130208 0.0976561 0.130208 0.195312 0.0651041 0.0976561 0.195312 0.130209 0.195313 0.195313 0.130208 0.0976561 0.130208 0.195312 0.0651041 0.0976561 0.195312 0.130209 0.195313 0.195313 0.130208 0.097656 0.130208 0.195312 0.065104 0.0976561 0.195312 0.130208 0.195313 0.195313 0.130208 0.097656 0.130208 0.195312 0.065104 0.0976561 0.195312 0.130209 0.195313 0.195313 0.130208 0.097656 0.130208 0.195312 0.065104 0.097656 0.195312 0.130208 0.195313 0.195313 0.130208 0.0976562 0.130208 0.195312 0.0651041 0.0976561 0.195312 0.130209 0.195313 0.195313 0.130208 0.0976561 0.130208 0.195312 0.0651041 0.0976561 0.195312 0.130209 0.195313 0.195313 0.130208 0.0976561 0.130208 0.195312 0.065104 0.097656 0.195312 0.130209 0.195313 0.195313 0.130208 0.097656 0.130208 0.195312 0.0651041 0.0976561 0.195313 0.130209 0.195313 0.195313 0.130208 0.0976563 0.130208 0.195312 0.065104 0.0976559 0.195312 0.130209 0.195313 0.195313 0.130208 0.097656 0.130208 0.195313 0.0651041 0.0976562 0.195312 0.130209 0.195313 0.195313 0.130208 0.0976561 0.130208 0.195312 0.065104 0.097656 0.195312 0.130208 0.195313 0.195313 0.130208 0.097656 0.130208 0.195312 0.0651041 0.0976561 0.195312 0.130209 0.195313 0.195313 0.130208 0.0976561 0.130208 0.195312 0.0651041 0.0976561 0.195312 0.130209 0.195313 0.195313 0.130208 0.0976559 0.130208 0.195312 0.0651039 0.0976559 0.195312 0.130208 0.195313 0.195312 0.130208 0.0976562 0.130208 0.195312 0.0651041 0.0976561 0.195312 0.130209 0.195312 0.195313 0.130208 0.0976559 0.130208 0.195312 0.0651039 0.0976558 0.195312 0.130208 0.195313 0.195312 0.130208 0.0976562 0.130209 0.195313 0.0651042 0.0976562 0.195313 0.130209 0.195313 0.195313 0.130208 0.0976562 0.130208 0.195312 0.0651038 0.0976556 0.195312 0.130208 0.195312 0.195312 0.130208 0.0976559 0.130208 0.195312 0.0651039 0.0976558 0.195312 0.130209 0.195313 0.195313 0.130208 0.0976561 0.130208 0.195312 0.065104 0.097656 0.195312 0.130209 0.195313 0.195313 0.130208 0.0976562 0.130208 0.195313 0.0651042 0.0976564 0.0976564 0.130209 0.0976565 0.195313 0.0651042 0.0325521 0.0651041 0.130208 0.195312 0.0651041 0.0976561 0.195312 0.130209 0.195313 0.0976562 0.0651041 0.195313 0.0976564 0.130208 0.0976561 0.130208 0.195312 0.0651041 0.0976561 0.195312 0.130209 0.195313 0.195313 0.130208 0.0976561 0.130208 0.195312 0.0651041 0.0976561 0.195312 0.130209 0.195313 0.195313 0.130208 0.0976561 0.130208 0.195312 0.0651041 0.0976561 0.195312 0.130209 0.195313 0.195313 0.130208 0.0976561 0.130208 0.195312 0.0651041 0.0976561 0.195312 0.130209 0.195313 0.195313 0.130208 0.0976561 0.130208 0.195312 0.0651041 0.0976561 0.195312 0.130209 0.195313 0.195313 0.130208 0.0976561 0.130208 0.195312 0.0651041 0.0976561 0.195312 0.130209 0.195313 0.195313 0.130208 0.0976561 0.130208 0.195312 0.0651041 0.0976561 0.195312 0.130208 0.195313 0.195313 0.130208 0.0976561 0.130208 0.195312 0.065104 0.097656 0.195312 0.130208 0.195313 0.195313 0.130208 0.0976561 0.130208 0.195312 0.0651041 0.097656 0.195312 0.130209 0.195313 0.195313 0.130208 0.0976561 0.130208 0.195312 0.0651041 0.0976561 0.195312 0.130209 0.195313 0.195313 0.130208 0.0976562 0.130208 0.195312 0.0651041 0.0976561 0.195312 0.130209 0.195313 0.195313 0.130208 0.097656 0.130208 0.195312 0.0651041 0.0976561 0.195312 0.130209 0.195313 0.195313 0.130208 0.0976561 0.130208 0.195312 0.0651041 0.0976561 0.195312 0.130209 0.195313 0.195313 0.130208 0.097656 0.130208 0.195312 0.065104 0.097656 0.195312 0.130208 0.195313 0.195313 0.130208 0.0976562 0.130208 0.195312 0.0651041 0.0976561 0.195312 0.130209 0.195313 0.195313 0.130208 0.0976562 0.130208 0.195312 0.0651041 0.0976561 0.195312 0.130209 0.195313 0.195313 0.130208 0.0976562 0.130208 0.195312 0.065104 0.097656 0.195312 0.130209 0.195313 0.195313 0.130208 0.097656 0.130208 0.195312 0.0651041 0.0976562 0.195313 0.130209 0.195313 0.195313 0.130208 0.0976563 0.130208 0.195312 0.065104 0.097656 0.195312 0.130209 0.195313 0.195313 0.130208 0.097656 0.130208 0.195313 0.0651041 0.0976562 0.195312 0.130209 0.195313 0.195313 0.130208 0.0976562 0.130208 0.195312 0.065104 0.097656 0.195312 0.130209 0.195313 0.195313 0.130208 0.097656 0.130208 0.195312 0.0651041 0.0976561 0.195312 0.130209 0.195313 0.195313 0.130208 0.0976561 0.130208 0.195312 0.0651041 0.0976561 0.195312 0.130209 0.195313 0.195313 0.130208 0.097656 0.130208 0.195312 0.0651039 0.0976559 0.195312 0.130208 0.195313 0.195312 0.130208 0.0976562 0.130208 0.195312 0.0651041 0.0976561 0.195312 0.130209 0.195312 0.195313 0.130208 0.0976559 0.130208 0.195312 0.0651039 0.0976559 0.195312 0.130208 0.195313 0.195312 0.130208 0.0976562 0.130209 0.195313 0.0651042 0.0976562 0.195312 0.130209 0.195313 0.195313 0.130208 0.0976562 0.130208 0.195312 0.0651039 0.0976556 0.195312 0.130208 0.195312 0.195312 0.130208 0.0976559 0.130208 0.195312 0.065104 0.0976558 0.195312 0.130209 0.195313 0.195313 0.130208 0.0976561 0.130208 0.195313 0.0651041 0.097656 0.195312 0.130209 0.195313 0.195313 0.130208 0.0976562 0.130208 0.195313 0.0651042 0.0976564 0.0976564 0.130209 0.0976565 0.195313 0.0651042 0.0325521 0.0651041 0.130208 0.195312 0.0651041 0.097656 0.195312 0.130208 0.195313 0.0976561 0.0651041 0.195313 0.0976564 0.130208 0.0976561 0.130208 0.195312 0.0651041 0.097656 0.195312 0.130208 0.195313 0.195313 0.130208 0.0976561 0.130208 0.195312 0.0651041 0.097656 0.195312 0.130208 0.195313 0.195313 0.130208 0.0976561 0.130208 0.195312 0.0651041 0.097656 0.195312 0.130208 0.195313 0.195313 0.130208 0.0976561 0.130208 0.195312 0.0651041 0.097656 0.195312 0.130208 0.195313 0.195313 0.130208 0.0976561 0.130208 0.195312 0.0651041 0.097656 0.195312 0.130209 0.195313 0.195313 0.130208 0.0976561 0.130208 0.195312 0.0651041 0.097656 0.195312 0.130208 0.195313 0.195313 0.130208 0.0976561 0.130208 0.195312 0.0651041 0.097656 0.195312 0.130208 0.195313 0.195313 0.130208 0.0976561 0.130208 0.195312 0.065104 0.0976559 0.195312 0.130208 0.195313 0.195313 0.130208 0.0976561 0.130208 0.195312 0.065104 0.097656 0.195312 0.130208 0.195313 0.195313 0.130208 0.0976561 0.130208 0.195312 0.0651041 0.0976561 0.195312 0.130209 0.195313 0.195313 0.130208 0.0976562 0.130208 0.195312 0.0651041 0.097656 0.195312 0.130209 0.195313 0.195313 0.130208 0.097656 0.130208 0.195312 0.0651041 0.097656 0.195312 0.130208 0.195313 0.195313 0.130208 0.0976561 0.130208 0.195312 0.0651041 0.097656 0.195312 0.130209 0.195313 0.195313 0.130208 0.097656 0.130208 0.195312 0.065104 0.097656 0.195312 0.130208 0.195313 0.195312 0.130208 0.0976562 0.130208 0.195312 0.0651041 0.0976561 0.195312 0.130209 0.195313 0.195313 0.130208 0.0976562 0.130208 0.195312 0.0651041 0.0976561 0.195312 0.130209 0.195313 0.195313 0.130208 0.0976562 0.130208 0.195312 0.065104 0.0976559 0.195312 0.130209 0.195313 0.195313 0.130208 0.097656 0.130208 0.195312 0.0651041 0.0976561 0.195312 0.130209 0.195313 0.195313 0.130208 0.0976563 0.130208 0.195312 0.065104 0.0976559 0.195312 0.130209 0.195313 0.195313 0.130208 0.097656 0.130208 0.195313 0.0651041 0.0976561 0.195312 0.130209 0.195313 0.195313 0.130208 0.0976562 0.130208 0.195312 0.065104 0.0976559 0.195312 0.130208 0.195313 0.195313 0.130208 0.097656 0.130208 0.195312 0.0651041 0.097656 0.195312 0.130209 0.195313 0.195313 0.130208 0.0976561 0.130208 0.195312 0.0651041 0.097656 0.195312 0.130209 0.195313 0.195313 0.130208 0.097656 0.130208 0.195312 0.0651039 0.0976558 0.195312 0.130208 0.195313 0.195312 0.130208 0.0976562 0.130208 0.195312 0.0651041 0.097656 0.195312 0.130209 0.195312 0.195313 0.130208 0.0976559 0.130208 0.195312 0.0651039 0.0976558 0.195312 0.130208 0.195313 0.195312 0.130208 0.0976562 0.130208 0.195313 0.0651042 0.0976562 0.195312 0.130209 0.195313 0.195313 0.130208 0.0976562 0.130208 0.195312 0.0651039 0.0976556 0.195312 0.130208 0.195312 0.195312 0.130208 0.0976559 0.130208 0.195312 0.065104 0.0976558 0.195312 0.130209 0.195313 0.195313 0.130208 0.0976561 0.130208 0.195313 0.0651041 0.0976559 0.195312 0.130209 0.195313 0.195313 0.130208 0.0976562 0.130208 0.195313 0.0651042 0.0976563 0.0976563 0.130209 0.0976565 0.195313 0.0651042 0.0325521 0.0651041 0.0651041 0.195312 0.065104 0.0325521 0.097656 0.130208 0.195313 0.032552 0.065104 0.0976562 0.0976564 0.130208 0.097656 0.0651041 0.195312 0.065104 0.0325521 0.097656 0.130208 0.195313 0.0976562 0.130208 0.097656 0.0651041 0.195312 0.065104 0.0325521 0.097656 0.130208 0.195313 0.0976562 0.130208 0.097656 0.0651041 0.195312 0.065104 0.032552 0.097656 0.130208 0.195313 0.0976562 0.130208 0.097656 0.0651041 0.195312 0.065104 0.0325521 0.097656 0.130208 0.195313 0.0976562 0.130208 0.097656 0.0651041 0.195312 0.065104 0.0325521 0.097656 0.130208 0.195313 0.0976562 0.130208 0.097656 0.065104 0.195312 0.065104 0.0325521 0.097656 0.130208 0.195313 0.0976562 0.130208 0.097656 0.0651041 0.195312 0.065104 0.0325521 0.0976561 0.130208 0.195313 0.0976561 0.130208 0.097656 0.0651041 0.195312 0.065104 0.0325521 0.097656 0.130208 0.195312 0.0976562 0.130208 0.097656 0.0651041 0.195312 0.065104 0.0325521 0.097656 0.130208 0.195313 0.0976562 0.130208 0.097656 0.0651041 0.195312 0.0651041 0.0325521 0.0976561 0.130208 0.195313 0.0976562 0.130208 0.0976561 0.0651041 0.195312 0.065104 0.0325521 0.097656 0.130208 0.195313 0.0976563 0.130208 0.097656 0.065104 0.195312 0.065104 0.032552 0.097656 0.130208 0.195313 0.0976562 0.130208 0.097656 0.0651041 0.195312 0.065104 0.0325521 0.097656 0.130208 0.195313 0.0976562 0.130208 0.097656 0.065104 0.195312 0.065104 0.032552 0.097656 0.130208 0.195313 0.0976561 0.130208 0.0976561 0.0651042 0.195312 0.0651041 0.0325521 0.0976562 0.130208 0.195313 0.0976563 0.130208 0.0976561 0.0651042 0.195312 0.0651041 0.0325521 0.0976561 0.130208 0.195313 0.0976563 0.130208 0.0976561 0.0651041 0.195312 0.065104 0.0325521 0.097656 0.130208 0.195313 0.0976563 0.130208 0.097656 0.0651041 0.195312 0.0651041 0.0325521 0.0976562 0.130209 0.195313 0.0976562 0.130208 0.0976563 0.0651043 0.195312 0.065104 0.0325521 0.097656 0.130208 0.195313 0.0976564 0.130208 0.097656 0.0651041 0.195312 0.0651041 0.0325521 0.0976561 0.130209 0.195313 0.0976563 0.130208 0.0976561 0.0651041 0.195312 0.065104 0.032552 0.0976559 0.130208 0.195313 0.0976562 0.130208 0.097656 0.065104 0.195312 0.065104 0.0325521 0.097656 0.130208 0.195313 0.0976561 0.130208 0.0976561 0.0651041 0.195312 0.0651041 0.0325521 0.097656 0.130209 0.195312 0.0976562 0.130208 0.0976559 0.065104 0.195312 0.0651039 0.032552 0.097656 0.130208 0.195313 0.0976561 0.130208 0.0976562 0.0651043 0.195312 0.0651041 0.0325521 0.097656 0.130209 0.195312 0.0976564 0.130208 0.0976558 0.0651039 0.195312 0.0651039 0.032552 0.097656 0.130208 0.195313 0.0976559 0.130208 0.0976562 0.0651043 0.195312 0.0651042 0.0325522 0.0976562 0.130209 0.195313 0.0976564 0.130208 0.0976561 0.0651041 0.195312 0.0651038 0.0325521 0.0976559 0.130208 0.195312 0.0976563 0.130208 0.0976559 0.0651041 0.195312 0.0651039 0.0325521 0.0976561 0.130209 0.195313 0.0976564 0.130208 0.0976561 0.0651042 0.195312 0.065104 0.0325521 0.0976561 0.130209 0.195313 0.0976565 0.130208 0.0976561 0.0651042 0.195312 0.0651042 0.0325521 0.0651042 0.130209 0.0976564 0.0976563 0.0651042 0.0325521 0.130209 0.195313 0.195313 0.130208 0.195313 0.0976562 0.0651042 0.0651043 0.0976564 0.0651043 0.195313 0.0976564 0.0976564 0.130209 0.130209 0.195313 0.195313 0.130208 0.195313 0.0976562 0.0651043 0.195313 0.0976564 0.130209 0.130209 0.195313 0.195313 0.130208 0.195313 0.0976562 0.0651043 0.195313 0.0976564 0.130209 0.130209 0.195313 0.195313 0.130208 0.195313 0.0976562 0.0651043 0.195313 0.0976564 0.130209 0.130209 0.195313 0.195313 0.130208 0.195313 0.0976562 0.0651043 0.195313 0.0976564 0.130209 0.130209 0.195313 0.195313 0.130208 0.195313 0.0976562 0.0651043 0.195313 0.0976564 0.130209 0.130209 0.195313 0.195313 0.130208 0.195313 0.0976562 0.0651043 0.195313 0.0976564 0.130209 0.130209 0.195313 0.195313 0.130208 0.195313 0.0976562 0.0651042 0.195313 0.0976564 0.130209 0.130209 0.195313 0.195313 0.130208 0.195313 0.0976561 0.0651042 0.195313 0.0976564 0.130209 0.130209 0.195313 0.195313 0.130208 0.195313 0.0976562 0.0651043 0.195313 0.0976564 0.130209 0.130209 0.195313 0.195313 0.130208 0.195313 0.0976563 0.0651043 0.195313 0.0976565 0.130209 0.130209 0.195313 0.195313 0.130208 0.195313 0.0976562 0.0651043 0.195313 0.0976564 0.130209 0.130209 0.195313 0.195313 0.130208 0.195313 0.0976563 0.0651043 0.195313 0.0976565 0.130209 0.130209 0.195313 0.195313 0.130208 0.195313 0.0976563 0.0651043 0.195313 0.0976564 0.130209 0.130209 0.195313 0.195313 0.130208 0.195313 0.0976562 0.0651042 0.195313 0.0976564 0.130209 0.130209 0.195313 0.195313 0.130208 0.195313 0.0976562 0.0651043 0.195313 0.0976564 0.130209 0.130209 0.195313 0.195313 0.130208 0.195313 0.0976563 0.0651043 0.195313 0.0976565 0.130209 0.130209 0.195313 0.195313 0.130208 0.195313 0.0976562 0.0651043 0.195313 0.0976565 0.130209 0.130209 0.195313 0.195313 0.130209 0.195313 0.0976563 0.0651044 0.195313 0.0976566 0.130209 0.130209 0.195313 0.195313 0.130208 0.195313 0.0976561 0.0651042 0.195313 0.0976565 0.130209 0.130209 0.195313 0.195313 0.130209 0.195313 0.0976564 0.0651044 0.195313 0.0976565 0.130209 0.130209 0.195313 0.195313 0.130208 0.195313 0.0976562 0.0651043 0.195313 0.0976564 0.130209 0.130209 0.195313 0.195313 0.130208 0.195313 0.0976563 0.0651043 0.195313 0.0976565 0.130209 0.130209 0.195313 0.195313 0.130209 0.195313 0.0976563 0.0651043 0.195313 0.0976564 0.130209 0.130208 0.195313 0.195313 0.130208 0.195313 0.0976561 0.0651042 0.195312 0.0976565 0.130209 0.130209 0.195313 0.195313 0.130209 0.195312 0.0976562 0.0651043 0.195313 0.0976562 0.130208 0.130208 0.195312 0.195313 0.130208 0.195313 0.097656 0.0651041 0.195312 0.0976565 0.130209 0.130209 0.195313 0.195313 0.130209 0.195313 0.0976564 0.0651044 0.195313 0.0976565 0.130209 0.130208 0.195313 0.195313 0.130208 0.195312 0.0976558 0.065104 0.195312 0.0976564 0.130208 0.130209 0.195313 0.195313 0.130209 0.195313 0.097656 0.0651042 0.195313 0.0976565 0.130209 0.130209 0.195313 0.195313 0.130209 0.195313 0.0976562 0.0651043 0.195313 0.0976563 0.130209 0.130209 0.195313 0.0976568 0.130208 0.0976565 0.0976564 0.0651044 0.195313 0.0325523 0.0651046 0.130209 0.195313 0.195313 0.130208 0.195313 0.0976564 0.0651043 0.195313 0.0976564 0.130209 0.130209 0.195313 0.195313 0.130208 0.195313 0.195313 0.130209 0.130209 0.195313 0.195313 0.130208 0.195313 0.195313 0.130209 0.130209 0.195313 0.195313 0.130208 0.195313 0.195313 0.130209 0.130209 0.195313 0.195313 0.130208 0.195313 0.195313 0.130209 0.130209 0.195313 0.195313 0.130208 0.195313 0.195313 0.130209 0.130209 0.195313 0.195313 0.130208 0.195313 0.195313 0.130209 0.130209 0.195313 0.195313 0.130208 0.195313 0.195313 0.130209 0.130209 0.195313 0.195313 0.130208 0.195313 0.195313 0.130209 0.130209 0.195313 0.195313 0.130208 0.195313 0.195313 0.130209 0.130209 0.195313 0.195313 0.130208 0.195313 0.195313 0.130209 0.130209 0.195313 0.195313 0.130208 0.195313 0.195313 0.130209 0.130209 0.195313 0.195313 0.130208 0.195313 0.195313 0.130209 0.130209 0.195313 0.195313 0.130208 0.195313 0.195313 0.130209 0.130209 0.195313 0.195313 0.130208 0.195313 0.195313 0.130209 0.130209 0.195313 0.195313 0.130208 0.195313 0.195313 0.130209 0.130209 0.195313 0.195313 0.130208 0.195313 0.195313 0.130209 0.130209 0.195313 0.195313 0.130208 0.195313 0.195313 0.130209 0.130209 0.195313 0.195313 0.130209 0.195313 0.195313 0.130209 0.130209 0.195313 0.195313 0.130209 0.195313 0.195313 0.130209 0.130209 0.195313 0.195313 0.130209 0.195313 0.195313 0.130209 0.130209 0.195313 0.195313 0.130208 0.195313 0.195313 0.130209 0.130209 0.195313 0.195313 0.130208 0.195313 0.195313 0.130209 0.130209 0.195313 0.195313 0.130209 0.195313 0.195313 0.130209 0.130208 0.195313 0.195313 0.130208 0.195313 0.195312 0.130209 0.130209 0.195313 0.195313 0.130209 0.195312 0.195313 0.130208 0.130208 0.195312 0.195313 0.130208 0.195313 0.195312 0.130209 0.130209 0.195313 0.195313 0.130209 0.195313 0.195313 0.130209 0.130208 0.195313 0.195313 0.130208 0.195313 0.195312 0.130208 0.130209 0.195313 0.195313 0.130209 0.195313 0.195313 0.130209 0.130209 0.195313 0.195313 0.130209 0.195313 0.195313 0.130209 0.130209 0.195313 0.0976568 0.130209 0.0976565 0.195313 0.0651046 0.130209 0.195313 0.195313 0.130208 0.195313 0.0976564 0.0651044 0.195313 0.0976565 0.130209 0.130209 0.195313 0.195313 0.130208 0.195313 0.195313 0.130209 0.130209 0.195313 0.195313 0.130208 0.195313 0.195313 0.130209 0.130209 0.195313 0.195313 0.130208 0.195313 0.195313 0.130209 0.130209 0.195313 0.195313 0.130208 0.195313 0.195313 0.130209 0.130209 0.195313 0.195313 0.130208 0.195313 0.195313 0.130209 0.130209 0.195313 0.195313 0.130208 0.195313 0.195313 0.130209 0.130209 0.195313 0.195313 0.130208 0.195313 0.195313 0.130209 0.130209 0.195313 0.195313 0.130208 0.195313 0.195313 0.130209 0.130209 0.195313 0.195313 0.130208 0.195313 0.195313 0.130209 0.130209 0.195313 0.195313 0.130208 0.195313 0.195313 0.130209 0.130209 0.195313 0.195313 0.130208 0.195313 0.195313 0.130209 0.130209 0.195313 0.195313 0.130208 0.195313 0.195313 0.130209 0.130209 0.195313 0.195313 0.130208 0.195313 0.195313 0.130209 0.130209 0.195313 0.195313 0.130208 0.195313 0.195313 0.130209 0.130209 0.195313 0.195313 0.130208 0.195313 0.195313 0.130209 0.130209 0.195313 0.195313 0.130208 0.195313 0.195313 0.130209 0.130209 0.195313 0.195313 0.130208 0.195313 0.195313 0.130209 0.130209 0.195313 0.195313 0.130209 0.195313 0.195313 0.130209 0.130209 0.195313 0.195313 0.130208 0.195313 0.195313 0.130209 0.130209 0.195313 0.195313 0.130209 0.195313 0.195313 0.130209 0.130209 0.195313 0.195313 0.130208 0.195313 0.195313 0.130209 0.130209 0.195313 0.195313 0.130208 0.195313 0.195313 0.130209 0.130209 0.195313 0.195313 0.130209 0.195313 0.195313 0.130209 0.130208 0.195313 0.195313 0.130208 0.195313 0.195312 0.130209 0.130209 0.195313 0.195313 0.130209 0.195312 0.195313 0.130208 0.130208 0.195312 0.195313 0.130208 0.195313 0.195312 0.130209 0.130209 0.195313 0.195313 0.130209 0.195313 0.195313 0.130209 0.130208 0.195313 0.195313 0.130208 0.195313 0.195312 0.130208 0.130209 0.195313 0.195313 0.130209 0.195313 0.195313 0.130209 0.130209 0.195313 0.195313 0.130209 0.195313 0.195313 0.130209 0.130209 0.195313 0.0976568 0.130209 0.0976565 0.195313 0.0651046 0.130209 0.195313 0.195313 0.130208 0.195313 0.0976564 0.0651043 0.195313 0.0976564 0.130209 0.130209 0.195313 0.195313 0.130208 0.195313 0.195313 0.130209 0.130209 0.195313 0.195313 0.130208 0.195313 0.195313 0.130209 0.130209 0.195313 0.195313 0.130208 0.195313 0.195313 0.130209 0.130209 0.195313 0.195313 0.130208 0.195313 0.195313 0.130209 0.130209 0.195313 0.195313 0.130208 0.195313 0.195313 0.130209 0.130209 0.195313 0.195313 0.130208 0.195313 0.195313 0.130209 0.130209 0.195313 0.195313 0.130208 0.195313 0.195313 0.130209 0.130209 0.195313 0.195313 0.130208 0.195313 0.195313 0.130209 0.130209 0.195313 0.195313 0.130208 0.195313 0.195313 0.130209 0.130209 0.195313 0.195313 0.130208 0.195313 0.195313 0.130209 0.130209 0.195313 0.195313 0.130208 0.195313 0.195313 0.130209 0.130209 0.195313 0.195313 0.130208 0.195313 0.195313 0.130209 0.130209 0.195313 0.195313 0.130208 0.195313 0.195313 0.130209 0.130209 0.195313 0.195313 0.130208 0.195313 0.195313 0.130209 0.130209 0.195313 0.195313 0.130208 0.195313 0.195313 0.130209 0.130209 0.195313 0.195313 0.130208 0.195313 0.195313 0.130209 0.130209 0.195313 0.195313 0.130208 0.195313 0.195313 0.130209 0.130209 0.195313 0.195313 0.130209 0.195313 0.195313 0.130209 0.130209 0.195313 0.195313 0.130208 0.195313 0.195313 0.130209 0.130209 0.195313 0.195313 0.130209 0.195313 0.195313 0.130209 0.130209 0.195313 0.195313 0.130208 0.195313 0.195313 0.130209 0.130209 0.195313 0.195313 0.130208 0.195313 0.195313 0.130209 0.130209 0.195313 0.195313 0.130208 0.195313 0.195313 0.130209 0.130208 0.195313 0.195313 0.130208 0.195313 0.195312 0.130209 0.130209 0.195313 0.195313 0.130209 0.195312 0.195313 0.130208 0.130208 0.195312 0.195313 0.130208 0.195313 0.195312 0.130209 0.130209 0.195313 0.195313 0.130209 0.195313 0.195313 0.130209 0.130208 0.195313 0.195313 0.130208 0.195312 0.195312 0.130208 0.130209 0.195313 0.195313 0.130208 0.195313 0.195313 0.130209 0.130209 0.195313 0.195313 0.130209 0.195313 0.195313 0.130209 0.130209 0.195313 0.0976568 0.130208 0.0976565 0.195313 0.0651046 0.130209 0.195313 0.195313 0.130208 0.195313 0.0976564 0.0651043 0.195313 0.0976564 0.130209 0.130209 0.195313 0.195313 0.130208 0.195313 0.195313 0.130209 0.130209 0.195313 0.195313 0.130208 0.195313 0.195313 0.130209 0.130209 0.195313 0.195313 0.130208 0.195313 0.195313 0.130209 0.130209 0.195313 0.195313 0.130208 0.195313 0.195313 0.130209 0.130209 0.195313 0.195313 0.130208 0.195313 0.195313 0.130209 0.130209 0.195313 0.195313 0.130208 0.195313 0.195313 0.130209 0.130209 0.195313 0.195313 0.130208 0.195313 0.195313 0.130209 0.130209 0.195313 0.195313 0.130208 0.195313 0.195313 0.130209 0.130209 0.195313 0.195313 0.130208 0.195313 0.195313 0.130209 0.130209 0.195313 0.195313 0.130208 0.195313 0.195313 0.130209 0.130209 0.195313 0.195313 0.130208 0.195313 0.195313 0.130209 0.130209 0.195313 0.195313 0.130208 0.195313 0.195313 0.130209 0.130209 0.195313 0.195313 0.130208 0.195313 0.195313 0.130209 0.130209 0.195313 0.195313 0.130208 0.195313 0.195313 0.130209 0.130209 0.195313 0.195313 0.130208 0.195313 0.195313 0.130209 0.130209 0.195313 0.195313 0.130208 0.195313 0.195313 0.130209 0.130209 0.195313 0.195313 0.130208 0.195313 0.195313 0.130209 0.130209 0.195313 0.195313 0.130209 0.195313 0.195313 0.130209 0.130209 0.195313 0.195313 0.130208 0.195313 0.195313 0.130209 0.130209 0.195313 0.195313 0.130209 0.195313 0.195313 0.130209 0.130209 0.195313 0.195313 0.130208 0.195313 0.195313 0.130209 0.130209 0.195313 0.195313 0.130208 0.195313 0.195313 0.130209 0.130209 0.195313 0.195313 0.130209 0.195313 0.195313 0.130209 0.130208 0.195313 0.195313 0.130208 0.195313 0.195312 0.130209 0.130209 0.195313 0.195313 0.130209 0.195312 0.195313 0.130208 0.130208 0.195312 0.195313 0.130208 0.195313 0.195312 0.130209 0.130209 0.195313 0.195313 0.130209 0.195313 0.195313 0.130209 0.130208 0.195313 0.195313 0.130208 0.195313 0.195312 0.130208 0.130209 0.195313 0.195313 0.130209 0.195313 0.195313 0.130209 0.130209 0.195313 0.195313 0.130209 0.195313 0.195313 0.130209 0.130209 0.195313 0.0976568 0.130208 0.0976565 0.195313 0.0651046 0.130209 0.195313 0.195313 0.130208 0.195313 0.0976564 0.0651044 0.195313 0.0976565 0.130209 0.130209 0.195313 0.195313 0.130208 0.195313 0.195313 0.130209 0.130209 0.195313 0.195313 0.130208 0.195313 0.195313 0.130209 0.130209 0.195313 0.195313 0.130208 0.195313 0.195313 0.130209 0.130209 0.195313 0.195313 0.130208 0.195313 0.195313 0.130209 0.130209 0.195313 0.195313 0.130208 0.195313 0.195313 0.130209 0.130209 0.195313 0.195313 0.130208 0.195313 0.195313 0.130209 0.130209 0.195313 0.195313 0.130208 0.195313 0.195313 0.130209 0.130209 0.195313 0.195313 0.130208 0.195313 0.195313 0.130209 0.130209 0.195313 0.195313 0.130208 0.195313 0.195313 0.130209 0.130209 0.195313 0.195313 0.130209 0.195313 0.195313 0.130209 0.130209 0.195313 0.195313 0.130208 0.195313 0.195313 0.130209 0.130209 0.195313 0.195313 0.130208 0.195313 0.195313 0.130209 0.130209 0.195313 0.195313 0.130208 0.195313 0.195313 0.130209 0.130209 0.195313 0.195313 0.130208 0.195313 0.195313 0.130209 0.130209 0.195313 0.195313 0.130209 0.195313 0.195313 0.130209 0.130209 0.195313 0.195313 0.130209 0.195313 0.195313 0.130209 0.130209 0.195313 0.195313 0.130208 0.195313 0.195313 0.130209 0.130209 0.195313 0.195313 0.130209 0.195313 0.195313 0.130209 0.130209 0.195313 0.195313 0.130209 0.195313 0.195313 0.130209 0.130209 0.195313 0.195313 0.130209 0.195313 0.195313 0.130209 0.130209 0.195313 0.195313 0.130208 0.195313 0.195313 0.130209 0.130209 0.195313 0.195313 0.130208 0.195313 0.195313 0.130209 0.130209 0.195313 0.195313 0.130209 0.195313 0.195313 0.130209 0.130208 0.195313 0.195313 0.130208 0.195313 0.195312 0.130209 0.130209 0.195313 0.195313 0.130209 0.195313 0.195313 0.130208 0.130208 0.195313 0.195313 0.130208 0.195313 0.195312 0.130209 0.130209 0.195313 0.195313 0.130209 0.195313 0.195313 0.130209 0.130208 0.195313 0.195313 0.130208 0.195313 0.195312 0.130208 0.130209 0.195313 0.195313 0.130209 0.195313 0.195313 0.130209 0.130209 0.195313 0.195313 0.130209 0.195313 0.195313 0.130209 0.130209 0.195313 0.0976568 0.130209 0.0976565 0.195313 0.0651046 0.130209 0.195313 0.195313 0.130208 0.195313 0.0976564 0.0651044 0.195313 0.0976565 0.130209 0.130209 0.195313 0.195313 0.130208 0.195313 0.195313 0.130209 0.130209 0.195313 0.195313 0.130208 0.195313 0.195313 0.130209 0.130209 0.195313 0.195313 0.130208 0.195313 0.195313 0.130209 0.130209 0.195313 0.195313 0.130208 0.195313 0.195313 0.130209 0.130209 0.195313 0.195313 0.130208 0.195313 0.195313 0.130209 0.130209 0.195313 0.195313 0.130208 0.195313 0.195313 0.130209 0.130209 0.195313 0.195313 0.130208 0.195313 0.195313 0.130209 0.130209 0.195313 0.195313 0.130208 0.195313 0.195313 0.130209 0.130209 0.195313 0.195313 0.130208 0.195313 0.195313 0.130209 0.130209 0.195313 0.195313 0.130208 0.195313 0.195313 0.130209 0.130209 0.195313 0.195313 0.130208 0.195313 0.195313 0.130209 0.130209 0.195313 0.195313 0.130208 0.195313 0.195313 0.130209 0.130209 0.195313 0.195313 0.130208 0.195313 0.195313 0.130209 0.130209 0.195313 0.195313 0.130208 0.195313 0.195312 0.130209 0.130209 0.195313 0.195313 0.130208 0.195313 0.195313 0.130209 0.130209 0.195313 0.195313 0.130208 0.195313 0.195313 0.130209 0.130209 0.195313 0.195313 0.130208 0.195313 0.195313 0.130209 0.130209 0.195313 0.195313 0.130209 0.195313 0.195313 0.130209 0.130209 0.195313 0.195313 0.130208 0.195313 0.195313 0.130209 0.130209 0.195313 0.195313 0.130209 0.195313 0.195313 0.130209 0.130209 0.195313 0.195313 0.130208 0.195313 0.195313 0.130209 0.130209 0.195313 0.195313 0.130208 0.195313 0.195313 0.130209 0.130209 0.195313 0.195313 0.130209 0.195313 0.195313 0.130209 0.130208 0.195313 0.195313 0.130208 0.195313 0.195312 0.130209 0.130209 0.195313 0.195313 0.130209 0.195312 0.195313 0.130208 0.130208 0.195312 0.195313 0.130208 0.195313 0.195312 0.130209 0.130209 0.195313 0.195313 0.130209 0.195313 0.195313 0.130209 0.130208 0.195313 0.195313 0.130208 0.195313 0.195312 0.130208 0.130209 0.195313 0.195313 0.130209 0.195313 0.195313 0.130209 0.130209 0.195313 0.195313 0.130209 0.195313 0.195313 0.130209 0.130209 0.195313 0.0976568 0.130209 0.0976565 0.195313 0.0651046 0.0651044 0.195313 0.0976565 0.130208 0.195313 0.0325522 0.0651043 0.0976564 0.0976564 0.130209 0.0651044 0.195313 0.0976565 0.130208 0.195313 0.0976565 0.130209 0.0651044 0.195313 0.0976565 0.130208 0.195313 0.0976564 0.130209 0.0651044 0.195313 0.0976565 0.130208 0.195313 0.0976564 0.130209 0.0651044 0.195313 0.0976565 0.130208 0.195313 0.0976565 0.130209 0.0651044 0.195313 0.0976565 0.130208 0.195313 0.0976565 0.130209 0.0651043 0.195313 0.0976565 0.130208 0.195313 0.0976564 0.130209 0.0651044 0.195313 0.0976565 0.130208 0.195313 0.0976564 0.130209 0.0651044 0.195313 0.0976565 0.130208 0.195313 0.0976565 0.130209 0.0651044 0.195313 0.0976565 0.130208 0.195313 0.0976565 0.130209 0.0651044 0.195313 0.0976566 0.130208 0.195313 0.0976565 0.130209 0.0651044 0.195313 0.0976565 0.130208 0.195313 0.0976565 0.130209 0.0651043 0.195313 0.0976565 0.130208 0.195313 0.0976564 0.130209 0.0651044 0.195313 0.0976565 0.130208 0.195313 0.0976564 0.130209 0.0651043 0.195313 0.0976565 0.130208 0.195313 0.0976564 0.130209 0.0651045 0.195313 0.0976566 0.130208 0.195313 0.0976566 0.130209 0.0651045 0.195313 0.0976566 0.130208 0.195313 0.0976566 0.130209 0.0651044 0.195313 0.0976564 0.130208 0.195313 0.0976565 0.130209 0.0651043 0.195313 0.0976567 0.130208 0.195313 0.0976565 0.130209 0.0651046 0.195313 0.0976565 0.130208 0.195313 0.0976567 0.130209 0.0651044 0.195313 0.0976566 0.130209 0.195313 0.0976566 0.130209 0.0651044 0.195313 0.0976564 0.130208 0.195313 0.0976564 0.130209 0.0651043 0.195313 0.0976565 0.130208 0.195313 0.0976564 0.130209 0.0651044 0.195313 0.0976565 0.130208 0.195313 0.0976565 0.130209 0.0651043 0.195313 0.0976565 0.130208 0.195313 0.0976563 0.130209 0.0651046 0.195313 0.0976565 0.130208 0.195312 0.0976567 0.130208 0.0651042 0.195312 0.0976565 0.130208 0.195313 0.0976562 0.130209 0.0651046 0.195313 0.0976567 0.130209 0.195313 0.0976567 0.130209 0.0651044 0.195313 0.0976563 0.130208 0.195312 0.0976566 0.130208 0.0651044 0.195313 0.0976565 0.130208 0.195313 0.0976567 0.130209 0.0651045 0.195313 0.0976566 0.130209 0.195313 0.0976568 0.130209 0.0651045 0.195313 0.0651045 0.130208 0.0976564 0.0976566 0.0651045 0.130209 0.195313 0.195313 0.130208 0.195312 0.0976559 0.0651044 0.0651043 0.0976566 0.0651044 0.195312 0.0976562 0.0976565 0.130209 0.130209 0.195313 0.195313 0.130208 0.195312 0.0976559 0.0651043 0.195312 0.0976565 0.130208 0.130209 0.195313 0.195313 0.130208 0.195312 0.0976559 0.0651043 0.195312 0.0976565 0.130209 0.130209 0.195313 0.195313 0.130208 0.195312 0.0976559 0.0651043 0.195312 0.0976565 0.130208 0.130209 0.195313 0.195313 0.130208 0.195312 0.0976559 0.0651043 0.195312 0.0976565 0.130208 0.130209 0.195313 0.195313 0.130208 0.195312 0.0976559 0.0651043 0.195312 0.0976565 0.130208 0.130209 0.195313 0.195313 0.130208 0.195312 0.0976559 0.0651043 0.195312 0.0976564 0.130208 0.130209 0.195313 0.195313 0.130208 0.195312 0.0976558 0.0651043 0.195312 0.0976564 0.130208 0.130209 0.195313 0.195313 0.130208 0.195312 0.0976558 0.0651042 0.195312 0.0976564 0.130208 0.130209 0.195313 0.195313 0.130208 0.195312 0.0976558 0.0651043 0.195312 0.0976565 0.130208 0.130209 0.195313 0.195313 0.130208 0.195312 0.0976559 0.0651043 0.195312 0.0976565 0.130209 0.130209 0.195313 0.195313 0.130208 0.195312 0.0976559 0.0651043 0.195312 0.0976565 0.130208 0.130209 0.195313 0.195313 0.130208 0.195312 0.0976559 0.0651043 0.195312 0.0976565 0.130208 0.130209 0.195313 0.195313 0.130208 0.195312 0.0976559 0.0651044 0.195312 0.0976564 0.130208 0.130208 0.195313 0.195313 0.130208 0.195312 0.0976558 0.0651043 0.195312 0.0976565 0.130209 0.130209 0.195313 0.195313 0.130208 0.195312 0.0976559 0.0651043 0.195312 0.0976565 0.130209 0.130209 0.195313 0.195313 0.130208 0.195312 0.0976559 0.0651043 0.195312 0.0976566 0.130209 0.130209 0.195313 0.195313 0.130208 0.195312 0.0976558 0.0651043 0.195312 0.0976565 0.130208 0.130209 0.195313 0.195313 0.130208 0.195313 0.097656 0.0651044 0.195312 0.0976567 0.130209 0.130209 0.195313 0.195313 0.130208 0.195312 0.0976558 0.0651043 0.195312 0.0976565 0.130208 0.130209 0.195313 0.195313 0.130208 0.195313 0.0976561 0.0651044 0.195313 0.0976566 0.130209 0.130209 0.195313 0.195313 0.130208 0.195312 0.0976559 0.0651044 0.195312 0.0976565 0.130208 0.130209 0.195313 0.195313 0.130208 0.195312 0.0976559 0.0651043 0.195312 0.0976566 0.130209 0.130209 0.195313 0.195313 0.130208 0.195312 0.0976559 0.0651044 0.195312 0.0976564 0.130208 0.130208 0.195313 0.195313 0.130208 0.195312 0.0976558 0.0651043 0.195312 0.0976565 0.130209 0.130209 0.195313 0.195313 0.130208 0.195312 0.0976558 0.0651043 0.195312 0.0976563 0.130208 0.130208 0.195312 0.195313 0.130208 0.195312 0.0976557 0.0651042 0.195312 0.0976565 0.130208 0.130209 0.195313 0.195313 0.130208 0.195313 0.0976561 0.0651044 0.195313 0.0976566 0.130209 0.130208 0.195312 0.195313 0.130208 0.195312 0.0976554 0.0651041 0.195312 0.0976565 0.130208 0.130209 0.195313 0.195313 0.130208 0.195312 0.0976557 0.0651043 0.195312 0.0976566 0.130208 0.130209 0.195313 0.195313 0.130208 0.195312 0.0976559 0.0651043 0.195313 0.0976564 0.130208 0.130209 0.195313 0.0976565 0.130208 0.0976563 0.0976561 0.0651044 0.195313 0.0325522 0.0651044 0.130209 0.195313 0.195313 0.130208 0.195312 0.0976566 0.0651044 0.195312 0.0976562 0.130209 0.130209 0.195313 0.195313 0.130208 0.195312 0.195312 0.130209 0.130209 0.195313 0.195313 0.130208 0.195312 0.195312 0.130209 0.130209 0.195313 0.195313 0.130208 0.195312 0.195312 0.130209 0.130209 0.195313 0.195313 0.130208 0.195312 0.195312 0.130209 0.130209 0.195313 0.195313 0.130208 0.195312 0.195312 0.130208 0.130209 0.195313 0.195313 0.130208 0.195312 0.195312 0.130208 0.130209 0.195313 0.195313 0.130208 0.195312 0.195312 0.130209 0.130209 0.195313 0.195313 0.130208 0.195312 0.195312 0.130208 0.130209 0.195313 0.195313 0.130208 0.195312 0.195312 0.130208 0.130209 0.195313 0.195313 0.130208 0.195312 0.195312 0.130209 0.130209 0.195313 0.195313 0.130208 0.195312 0.195312 0.130208 0.130209 0.195313 0.195313 0.130208 0.195312 0.195312 0.130209 0.130209 0.195313 0.195313 0.130208 0.195312 0.195312 0.130208 0.130208 0.195313 0.195313 0.130208 0.195312 0.195312 0.130209 0.130209 0.195313 0.195313 0.130208 0.195312 0.195312 0.130209 0.130209 0.195313 0.195313 0.130208 0.195312 0.195312 0.130209 0.130209 0.195313 0.195313 0.130208 0.195312 0.195312 0.130208 0.130209 0.195313 0.195313 0.130208 0.195313 0.195312 0.130209 0.130209 0.195313 0.195313 0.130208 0.195312 0.195312 0.130208 0.130209 0.195313 0.195313 0.130208 0.195313 0.195313 0.130209 0.130209 0.195313 0.195313 0.130208 0.195312 0.195312 0.130208 0.130209 0.195313 0.195313 0.130208 0.195312 0.195312 0.130209 0.130209 0.195313 0.195313 0.130208 0.195312 0.195312 0.130208 0.130208 0.195313 0.195313 0.130208 0.195313 0.195312 0.130209 0.130209 0.195313 0.195313 0.130208 0.195312 0.195312 0.130208 0.130208 0.195312 0.195313 0.130208 0.195312 0.195312 0.130208 0.130209 0.195313 0.195313 0.130208 0.195313 0.195313 0.130209 0.130208 0.195313 0.195313 0.130208 0.195312 0.195312 0.130208 0.130209 0.195313 0.195313 0.130208 0.195312 0.195312 0.130209 0.130209 0.195313 0.195313 0.130208 0.195312 0.195313 0.130208 0.130209 0.195313 0.0976565 0.130208 0.0976563 0.195313 0.0651044 0.130209 0.195313 0.195313 0.130208 0.195312 0.0976566 0.0651044 0.195312 0.0976562 0.130209 0.130209 0.195313 0.195313 0.130208 0.195312 0.195312 0.130209 0.130209 0.195313 0.195313 0.130208 0.195312 0.195312 0.130209 0.130209 0.195313 0.195313 0.130208 0.195312 0.195312 0.130209 0.130209 0.195313 0.195313 0.130208 0.195312 0.195312 0.130209 0.130209 0.195313 0.195313 0.130208 0.195312 0.195312 0.130208 0.130209 0.195313 0.195313 0.130208 0.195312 0.195312 0.130208 0.130209 0.195313 0.195313 0.130208 0.195312 0.195312 0.130209 0.130209 0.195313 0.195313 0.130208 0.195312 0.195312 0.130208 0.130209 0.195313 0.195313 0.130208 0.195312 0.195312 0.130209 0.130209 0.195313 0.195313 0.130208 0.195313 0.195312 0.130209 0.130209 0.195313 0.195313 0.130208 0.195312 0.195312 0.130208 0.130209 0.195313 0.195313 0.130208 0.195312 0.195312 0.130209 0.130209 0.195313 0.195313 0.130208 0.195312 0.195312 0.130208 0.130209 0.195313 0.195313 0.130208 0.195312 0.195312 0.130209 0.130209 0.195313 0.195313 0.130208 0.195312 0.195312 0.130209 0.130209 0.195313 0.195313 0.130208 0.195313 0.195312 0.130209 0.130209 0.195313 0.195313 0.130208 0.195312 0.195312 0.130208 0.130209 0.195313 0.195313 0.130208 0.195313 0.195312 0.130209 0.130209 0.195313 0.195313 0.130208 0.195312 0.195312 0.130208 0.130209 0.195313 0.195313 0.130208 0.195313 0.195313 0.130209 0.130209 0.195313 0.195313 0.130208 0.195312 0.195312 0.130208 0.130209 0.195313 0.195313 0.130208 0.195312 0.195312 0.130209 0.130209 0.195313 0.195313 0.130208 0.195312 0.195312 0.130208 0.130208 0.195313 0.195313 0.130208 0.195313 0.195312 0.130209 0.130209 0.195313 0.195313 0.130208 0.195312 0.195312 0.130208 0.130208 0.195312 0.195313 0.130208 0.195312 0.195312 0.130208 0.130209 0.195313 0.195313 0.130208 0.195313 0.195313 0.130209 0.130208 0.195313 0.195313 0.130208 0.195312 0.195312 0.130208 0.130209 0.195313 0.195313 0.130208 0.195313 0.195312 0.130209 0.130209 0.195313 0.195313 0.130208 0.195312 0.195313 0.130208 0.130209 0.195313 0.0976565 0.130208 0.0976563 0.195313 0.0651044 0.130209 0.195313 0.195313 0.130208 0.195312 0.0976565 0.0651044 0.195312 0.0976562 0.130208 0.130209 0.195313 0.195313 0.130208 0.195312 0.195312 0.130208 0.130209 0.195313 0.195313 0.130208 0.195312 0.195312 0.130208 0.130209 0.195313 0.195313 0.130208 0.195312 0.195312 0.130208 0.130209 0.195313 0.195313 0.130208 0.195312 0.195312 0.130208 0.130209 0.195313 0.195313 0.130208 0.195312 0.195312 0.130208 0.130209 0.195313 0.195313 0.130208 0.195312 0.195312 0.130208 0.130209 0.195313 0.195313 0.130208 0.195312 0.195312 0.130208 0.130209 0.195313 0.195313 0.130208 0.195312 0.195312 0.130208 0.130209 0.195313 0.195313 0.130208 0.195312 0.195312 0.130208 0.130209 0.195313 0.195313 0.130208 0.195312 0.195312 0.130209 0.130209 0.195313 0.195313 0.130208 0.195312 0.195312 0.130208 0.130209 0.195313 0.195313 0.130208 0.195312 0.195312 0.130208 0.130209 0.195313 0.195313 0.130208 0.195312 0.195312 0.130208 0.130208 0.195313 0.195313 0.130208 0.195312 0.195312 0.130208 0.130209 0.195313 0.195313 0.130208 0.195312 0.195312 0.130209 0.130209 0.195313 0.195313 0.130208 0.195312 0.195312 0.130209 0.130209 0.195313 0.195313 0.130208 0.195312 0.195312 0.130208 0.130209 0.195313 0.195313 0.130208 0.195313 0.195312 0.130209 0.130209 0.195313 0.195313 0.130208 0.195312 0.195312 0.130208 0.130209 0.195313 0.195313 0.130208 0.195313 0.195313 0.130209 0.130209 0.195313 0.195313 0.130208 0.195312 0.195312 0.130208 0.130209 0.195313 0.195313 0.130208 0.195312 0.195312 0.130208 0.130209 0.195313 0.195313 0.130208 0.195312 0.195312 0.130208 0.130208 0.195313 0.195313 0.130208 0.195312 0.195312 0.130209 0.130209 0.195313 0.195313 0.130208 0.195312 0.195312 0.130208 0.130208 0.195312 0.195313 0.130208 0.195312 0.195312 0.130208 0.130209 0.195313 0.195313 0.130208 0.195313 0.195313 0.130209 0.130208 0.195312 0.195313 0.130208 0.195312 0.195312 0.130208 0.130209 0.195313 0.195313 0.130208 0.195312 0.195312 0.130208 0.130209 0.195313 0.195313 0.130208 0.195312 0.195312 0.130208 0.130209 0.195313 0.0976565 0.130208 0.0976563 0.195313 0.0651043 0.130209 0.195313 0.195313 0.130208 0.195312 0.0976566 0.0651044 0.195312 0.0976562 0.130209 0.130209 0.195313 0.195313 0.130208 0.195312 0.195312 0.130208 0.130209 0.195313 0.195313 0.130208 0.195312 0.195312 0.130209 0.130209 0.195313 0.195313 0.130208 0.195312 0.195312 0.130208 0.130209 0.195313 0.195313 0.130208 0.195312 0.195312 0.130208 0.130209 0.195313 0.195313 0.130208 0.195312 0.195312 0.130208 0.130209 0.195313 0.195313 0.130208 0.195312 0.195312 0.130208 0.130209 0.195313 0.195313 0.130208 0.195312 0.195312 0.130208 0.130209 0.195313 0.195313 0.130208 0.195312 0.195312 0.130208 0.130209 0.195313 0.195313 0.130208 0.195312 0.195312 0.130208 0.130209 0.195313 0.195313 0.130208 0.195312 0.195312 0.130209 0.130209 0.195313 0.195313 0.130208 0.195312 0.195312 0.130208 0.130209 0.195313 0.195313 0.130208 0.195312 0.195312 0.130209 0.130209 0.195313 0.195313 0.130208 0.195312 0.195312 0.130208 0.130209 0.195313 0.195313 0.130208 0.195312 0.195312 0.130209 0.130209 0.195313 0.195313 0.130208 0.195312 0.195312 0.130209 0.130209 0.195313 0.195313 0.130208 0.195312 0.195312 0.130209 0.130209 0.195313 0.195313 0.130208 0.195312 0.195312 0.130208 0.130209 0.195313 0.195313 0.130208 0.195313 0.195312 0.130209 0.130209 0.195313 0.195313 0.130208 0.195312 0.195312 0.130208 0.130209 0.195313 0.195313 0.130208 0.195313 0.195313 0.130209 0.130209 0.195313 0.195313 0.130208 0.195312 0.195312 0.130208 0.130209 0.195313 0.195313 0.130208 0.195312 0.195312 0.130208 0.130209 0.195313 0.195313 0.130208 0.195312 0.195312 0.130208 0.130208 0.195313 0.195313 0.130208 0.195313 0.195312 0.130209 0.130209 0.195313 0.195313 0.130208 0.195312 0.195312 0.130208 0.130208 0.195312 0.195313 0.130208 0.195312 0.195312 0.130208 0.130209 0.195313 0.195313 0.130208 0.195313 0.195313 0.130209 0.130208 0.195312 0.195313 0.130208 0.195312 0.195312 0.130208 0.130209 0.195313 0.195313 0.130208 0.195312 0.195312 0.130208 0.130209 0.195313 0.195313 0.130208 0.195312 0.195313 0.130208 0.130209 0.195313 0.0976565 0.130208 0.0976563 0.195313 0.0651044 0.130209 0.195313 0.195313 0.130208 0.195312 0.0976566 0.0651044 0.195312 0.0976563 0.130209 0.130209 0.195313 0.195313 0.130208 0.195312 0.195312 0.130209 0.130209 0.195313 0.195313 0.130208 0.195312 0.195312 0.130209 0.130209 0.195313 0.195313 0.130208 0.195312 0.195312 0.130209 0.130209 0.195313 0.195313 0.130208 0.195312 0.195312 0.130209 0.130209 0.195313 0.195313 0.130208 0.195312 0.195312 0.130209 0.130209 0.195313 0.195313 0.130208 0.195312 0.195312 0.130208 0.130209 0.195313 0.195313 0.130208 0.195312 0.195312 0.130209 0.130209 0.195313 0.195313 0.130208 0.195312 0.195312 0.130208 0.130209 0.195313 0.195313 0.130208 0.195312 0.195312 0.130209 0.130209 0.195313 0.195313 0.130208 0.195313 0.195312 0.130209 0.130209 0.195313 0.195313 0.130208 0.195312 0.195312 0.130209 0.130209 0.195313 0.195313 0.130208 0.195312 0.195312 0.130209 0.130209 0.195313 0.195313 0.130208 0.195312 0.195312 0.130208 0.130209 0.195313 0.195313 0.130208 0.195312 0.195312 0.130209 0.130209 0.195313 0.195313 0.130208 0.195313 0.195312 0.130209 0.130209 0.195313 0.195313 0.130208 0.195313 0.195312 0.130209 0.130209 0.195313 0.195313 0.130208 0.195312 0.195312 0.130208 0.130209 0.195313 0.195313 0.130208 0.195313 0.195312 0.130209 0.130209 0.195313 0.195313 0.130208 0.195312 0.195312 0.130208 0.130209 0.195313 0.195313 0.130208 0.195313 0.195313 0.130209 0.130209 0.195313 0.195313 0.130208 0.195312 0.195312 0.130208 0.130209 0.195313 0.195313 0.130208 0.195312 0.195312 0.130209 0.130209 0.195313 0.195313 0.130208 0.195312 0.195312 0.130208 0.130208 0.195313 0.195313 0.130208 0.195313 0.195312 0.130209 0.130209 0.195313 0.195313 0.130208 0.195312 0.195312 0.130208 0.130208 0.195312 0.195313 0.130208 0.195312 0.195312 0.130209 0.130209 0.195313 0.195313 0.130209 0.195313 0.195313 0.130209 0.130208 0.195313 0.195313 0.130208 0.195312 0.195312 0.130208 0.130209 0.195313 0.195313 0.130208 0.195313 0.195312 0.130209 0.130209 0.195313 0.195313 0.130208 0.195313 0.195313 0.130208 0.130209 0.195313 0.0976566 0.130208 0.0976563 0.195313 0.0651044 0.130209 0.195313 0.195313 0.130208 0.195312 0.0976565 0.0651044 0.195312 0.0976562 0.130209 0.130209 0.195313 0.195313 0.130208 0.195312 0.195312 0.130209 0.130209 0.195313 0.195313 0.130208 0.195312 0.195312 0.130209 0.130209 0.195313 0.195313 0.130208 0.195312 0.195312 0.130209 0.130209 0.195313 0.195313 0.130208 0.195312 0.195312 0.130209 0.130209 0.195313 0.195313 0.130208 0.195312 0.195312 0.130209 0.130209 0.195313 0.195313 0.130208 0.195312 0.195312 0.130208 0.130209 0.195313 0.195313 0.130208 0.195312 0.195312 0.130209 0.130209 0.195313 0.195313 0.130208 0.195312 0.195312 0.130208 0.130209 0.195313 0.195313 0.130208 0.195312 0.195312 0.130209 0.130209 0.195313 0.195313 0.130208 0.195313 0.195312 0.130209 0.130209 0.195313 0.195313 0.130208 0.195312 0.195312 0.130208 0.130209 0.195313 0.195313 0.130208 0.195312 0.195312 0.130209 0.130209 0.195313 0.195313 0.130208 0.195312 0.195312 0.130208 0.130208 0.195313 0.195313 0.130208 0.195312 0.195312 0.130209 0.130209 0.195313 0.195313 0.130208 0.195312 0.195312 0.130209 0.130209 0.195313 0.195313 0.130208 0.195313 0.195312 0.130209 0.130209 0.195313 0.195313 0.130208 0.195312 0.195312 0.130208 0.130209 0.195313 0.195313 0.130208 0.195313 0.195312 0.130209 0.130209 0.195313 0.195313 0.130208 0.195312 0.195312 0.130208 0.130209 0.195313 0.195313 0.130208 0.195313 0.195312 0.130209 0.130209 0.195313 0.195313 0.130208 0.195312 0.195312 0.130208 0.130209 0.195313 0.195313 0.130208 0.195312 0.195312 0.130209 0.130209 0.195313 0.195313 0.130208 0.195312 0.195312 0.130208 0.130208 0.195313 0.195313 0.130208 0.195313 0.195312 0.130209 0.130209 0.195313 0.195313 0.130208 0.195312 0.195312 0.130208 0.130208 0.195312 0.195313 0.130208 0.195312 0.195312 0.130208 0.130209 0.195313 0.195313 0.130208 0.195313 0.195313 0.130209 0.130208 0.195313 0.195313 0.130208 0.195312 0.195312 0.130208 0.130209 0.195313 0.195313 0.130208 0.195313 0.195312 0.130209 0.130209 0.195313 0.195313 0.130208 0.195312 0.195312 0.130208 0.130209 0.195313 0.0976565 0.130208 0.0976563 0.195312 0.0651044 0.0651043 0.195313 0.0976563 0.130208 0.195312 0.0325522 0.0651044 0.0976563 0.0976562 0.130208 0.0651043 0.195313 0.0976563 0.130208 0.195312 0.0976563 0.130208 0.0651043 0.195313 0.0976563 0.130208 0.195312 0.0976563 0.130208 0.0651043 0.195313 0.0976563 0.130208 0.195312 0.0976563 0.130208 0.0651043 0.195313 0.0976563 0.130208 0.195312 0.0976563 0.130208 0.0651043 0.195313 0.0976563 0.130208 0.195312 0.0976564 0.130208 0.0651043 0.195313 0.0976563 0.130208 0.195312 0.0976563 0.130208 0.0651043 0.195313 0.0976563 0.130208 0.195312 0.0976563 0.130208 0.0651043 0.195313 0.0976563 0.130208 0.195312 0.0976564 0.130208 0.0651043 0.195313 0.0976563 0.130208 0.195312 0.0976563 0.130208 0.0651044 0.195313 0.0976564 0.130208 0.195312 0.0976564 0.130209 0.0651044 0.195313 0.0976563 0.130208 0.195312 0.0976564 0.130208 0.0651043 0.195313 0.0976563 0.130208 0.195312 0.0976563 0.130208 0.0651043 0.195313 0.0976563 0.130208 0.195312 0.0976563 0.130208 0.0651043 0.195313 0.0976563 0.130208 0.195312 0.0976563 0.130208 0.0651044 0.195313 0.0976565 0.130208 0.195312 0.0976565 0.130208 0.0651044 0.195313 0.0976564 0.130208 0.195312 0.0976565 0.130209 0.0651044 0.195313 0.0976562 0.130208 0.195312 0.0976564 0.130208 0.0651043 0.195313 0.0976565 0.130208 0.195313 0.0976564 0.130209 0.0651045 0.195313 0.0976563 0.130208 0.195312 0.0976566 0.130208 0.0651043 0.195313 0.0976564 0.130208 0.195312 0.0976565 0.130209 0.0651043 0.195313 0.0976562 0.130208 0.195312 0.0976563 0.130208 0.0651043 0.195313 0.0976563 0.130208 0.195312 0.0976563 0.130208 0.0651044 0.195313 0.0976563 0.130208 0.195312 0.0976564 0.130208 0.0651042 0.195312 0.0976563 0.130208 0.195312 0.0976562 0.130209 0.0651045 0.195313 0.0976563 0.130208 0.195312 0.0976566 0.130208 0.0651042 0.195312 0.0976563 0.130208 0.195312 0.0976561 0.130208 0.0651045 0.195313 0.0976565 0.130208 0.195313 0.0976566 0.130209 0.0651044 0.195312 0.0976561 0.130208 0.195312 0.0976565 0.130208 0.0651044 0.195313 0.0976563 0.130208 0.195312 0.0976565 0.130208 0.0651045 0.195313 0.0976564 0.130208 0.195312 0.0976567 0.130208 0.0651045 0.195313 0.0651043 0.130208 0.0976562 0.0976565 0.0651043 0.130208 0.195312 0.195312 0.130208 0.195312 0.0976562 0.0651041 0.0651039 0.0976561 0.0651041 0.195312 0.0976564 0.0976559 0.130208 0.130208 0.195312 0.195312 0.130208 0.195312 0.0976562 0.0651039 0.195313 0.0976559 0.130208 0.130208 0.195312 0.195312 0.130208 0.195312 0.0976562 0.0651039 0.195313 0.0976559 0.130208 0.130208 0.195312 0.195312 0.130208 0.195312 0.0976562 0.0651039 0.195312 0.0976559 0.130208 0.130208 0.195312 0.195312 0.130208 0.195312 0.0976561 0.0651039 0.195312 0.0976559 0.130208 0.130208 0.195312 0.195312 0.130208 0.195312 0.0976562 0.0651039 0.195313 0.0976559 0.130208 0.130208 0.195312 0.195312 0.130208 0.195312 0.0976562 0.0651039 0.195312 0.0976558 0.130208 0.130208 0.195312 0.195312 0.130208 0.195312 0.0976561 0.0651038 0.195312 0.0976559 0.130208 0.130208 0.195312 0.195312 0.130208 0.195312 0.0976561 0.0651038 0.195312 0.0976559 0.130208 0.130208 0.195312 0.195312 0.130208 0.195312 0.0976561 0.0651039 0.195312 0.0976559 0.130208 0.130208 0.195312 0.195312 0.130208 0.195313 0.0976562 0.0651039 0.195313 0.097656 0.130208 0.130208 0.195312 0.195312 0.130208 0.195312 0.0976562 0.0651039 0.195313 0.0976559 0.130208 0.130208 0.195312 0.195312 0.130208 0.195312 0.0976562 0.0651039 0.195312 0.097656 0.130208 0.130208 0.195312 0.195312 0.130208 0.195312 0.0976562 0.0651039 0.195313 0.0976559 0.130208 0.130208 0.195312 0.195312 0.130208 0.195312 0.0976561 0.0651038 0.195312 0.0976559 0.130208 0.130208 0.195312 0.195312 0.130208 0.195312 0.0976562 0.0651039 0.195313 0.0976559 0.130208 0.130208 0.195312 0.195312 0.130208 0.195313 0.0976562 0.0651039 0.195313 0.097656 0.130208 0.130208 0.195312 0.195312 0.130208 0.195312 0.0976561 0.0651039 0.195313 0.097656 0.130208 0.130208 0.195312 0.195312 0.130209 0.195313 0.0976563 0.0651039 0.195313 0.0976561 0.130208 0.130208 0.195312 0.195312 0.130208 0.195312 0.097656 0.0651038 0.195313 0.097656 0.130208 0.130208 0.195312 0.195312 0.130209 0.195313 0.0976564 0.065104 0.195313 0.097656 0.130208 0.130208 0.195312 0.195312 0.130208 0.195312 0.0976562 0.0651039 0.195312 0.0976559 0.130208 0.130208 0.195312 0.195312 0.130208 0.195312 0.0976562 0.0651039 0.195313 0.097656 0.130208 0.130208 0.195312 0.195312 0.130209 0.195312 0.0976562 0.0651039 0.195313 0.0976559 0.130208 0.130208 0.195312 0.195312 0.130208 0.195313 0.0976561 0.0651038 0.195312 0.097656 0.130208 0.130208 0.195312 0.195312 0.130209 0.195312 0.0976561 0.0651039 0.195313 0.0976557 0.130208 0.130208 0.195311 0.195312 0.130208 0.195312 0.097656 0.0651037 0.195312 0.097656 0.130208 0.130208 0.195312 0.195312 0.130209 0.195313 0.0976563 0.065104 0.195313 0.097656 0.130208 0.130208 0.195311 0.195312 0.130208 0.195312 0.0976557 0.0651037 0.195312 0.0976559 0.130208 0.130208 0.195312 0.195312 0.130209 0.195313 0.097656 0.0651038 0.195313 0.097656 0.130208 0.130208 0.195312 0.195312 0.130209 0.195312 0.0976561 0.0651039 0.195313 0.0976558 0.130208 0.130208 0.195312 0.097656 0.130208 0.0976562 0.0976564 0.065104 0.195313 0.032552 0.0651039 0.130208 0.195312 0.195312 0.130208 0.195312 0.0976561 0.0651041 0.195312 0.0976564 0.130208 0.130208 0.195312 0.195312 0.130208 0.195312 0.195312 0.130208 0.130208 0.195312 0.195312 0.130208 0.195312 0.195312 0.130208 0.130208 0.195312 0.195312 0.130208 0.195312 0.195312 0.130208 0.130208 0.195312 0.195312 0.130208 0.195312 0.195312 0.130208 0.130208 0.195312 0.195312 0.130208 0.195312 0.195313 0.130208 0.130208 0.195312 0.195312 0.130208 0.195312 0.195312 0.130208 0.130208 0.195312 0.195312 0.130208 0.195312 0.195312 0.130208 0.130208 0.195312 0.195312 0.130208 0.195312 0.195312 0.130208 0.130208 0.195312 0.195312 0.130208 0.195312 0.195312 0.130208 0.130208 0.195312 0.195312 0.130208 0.195313 0.195313 0.130208 0.130208 0.195312 0.195312 0.130208 0.195312 0.195313 0.130208 0.130208 0.195312 0.195312 0.130208 0.195312 0.195312 0.130208 0.130208 0.195312 0.195312 0.130208 0.195312 0.195313 0.130208 0.130208 0.195312 0.195312 0.130208 0.195312 0.195312 0.130208 0.130208 0.195312 0.195312 0.130208 0.195313 0.195313 0.130208 0.130208 0.195312 0.195312 0.130208 0.195313 0.195313 0.130208 0.130208 0.195312 0.195312 0.130208 0.195312 0.195313 0.130208 0.130208 0.195312 0.195312 0.130209 0.195313 0.195313 0.130208 0.130208 0.195312 0.195312 0.130208 0.195312 0.195313 0.130208 0.130208 0.195312 0.195312 0.130209 0.195313 0.195313 0.130208 0.130208 0.195312 0.195312 0.130208 0.195312 0.195312 0.130208 0.130208 0.195312 0.195312 0.130208 0.195312 0.195312 0.130208 0.130208 0.195312 0.195312 0.130209 0.195312 0.195313 0.130208 0.130208 0.195312 0.195312 0.130208 0.195313 0.195312 0.130208 0.130208 0.195312 0.195312 0.130209 0.195312 0.195313 0.130208 0.130208 0.195311 0.195312 0.130208 0.195312 0.195312 0.130208 0.130208 0.195312 0.195312 0.130209 0.195313 0.195313 0.130208 0.130208 0.195311 0.195312 0.130208 0.195312 0.195312 0.130208 0.130208 0.195312 0.195312 0.130209 0.195313 0.195313 0.130208 0.130208 0.195312 0.195312 0.130209 0.195312 0.195313 0.130208 0.130208 0.195312 0.097656 0.130209 0.0976562 0.195313 0.0651039 0.130208 0.195312 0.195312 0.130208 0.195312 0.0976561 0.0651041 0.195312 0.0976564 0.130208 0.130208 0.195312 0.195312 0.130208 0.195312 0.195313 0.130208 0.130208 0.195312 0.195312 0.130208 0.195312 0.195313 0.130208 0.130208 0.195312 0.195312 0.130208 0.195312 0.195312 0.130208 0.130208 0.195312 0.195312 0.130208 0.195312 0.195312 0.130208 0.130208 0.195312 0.195312 0.130208 0.195312 0.195313 0.130208 0.130208 0.195312 0.195312 0.130208 0.195312 0.195312 0.130208 0.130208 0.195312 0.195312 0.130208 0.195312 0.195312 0.130208 0.130208 0.195312 0.195312 0.130208 0.195312 0.195312 0.130208 0.130208 0.195312 0.195312 0.130208 0.195312 0.195312 0.130208 0.130208 0.195312 0.195312 0.130208 0.195313 0.195313 0.130208 0.130208 0.195312 0.195312 0.130208 0.195312 0.195313 0.130208 0.130208 0.195312 0.195312 0.130208 0.195312 0.195313 0.130208 0.130208 0.195312 0.195312 0.130208 0.195312 0.195313 0.130208 0.130208 0.195312 0.195312 0.130208 0.195312 0.195312 0.130208 0.130208 0.195312 0.195312 0.130208 0.195313 0.195313 0.130208 0.130208 0.195312 0.195312 0.130208 0.195313 0.195313 0.130208 0.130208 0.195312 0.195312 0.130208 0.195312 0.195313 0.130208 0.130208 0.195312 0.195312 0.130209 0.195313 0.195313 0.130208 0.130208 0.195312 0.195312 0.130208 0.195312 0.195313 0.130208 0.130208 0.195312 0.195312 0.130209 0.195313 0.195313 0.130208 0.130208 0.195312 0.195312 0.130208 0.195312 0.195313 0.130208 0.130208 0.195312 0.195312 0.130208 0.195312 0.195312 0.130208 0.130208 0.195312 0.195312 0.130209 0.195312 0.195313 0.130208 0.130208 0.195312 0.195312 0.130208 0.195313 0.195312 0.130208 0.130208 0.195312 0.195312 0.130209 0.195312 0.195313 0.130208 0.130208 0.195311 0.195312 0.130208 0.195312 0.195312 0.130208 0.130208 0.195312 0.195312 0.130209 0.195313 0.195313 0.130208 0.130208 0.195311 0.195312 0.130208 0.195312 0.195312 0.130208 0.130208 0.195312 0.195312 0.130209 0.195313 0.195313 0.130208 0.130208 0.195312 0.195312 0.130209 0.195313 0.195313 0.130208 0.130208 0.195312 0.097656 0.130209 0.0976562 0.195313 0.0651039 0.130208 0.195312 0.195312 0.130208 0.195312 0.0976561 0.0651041 0.195312 0.0976564 0.130208 0.130208 0.195312 0.195312 0.130208 0.195312 0.195312 0.130208 0.130208 0.195312 0.195312 0.130208 0.195312 0.195312 0.130208 0.130208 0.195312 0.195312 0.130208 0.195312 0.195312 0.130208 0.130208 0.195312 0.195312 0.130208 0.195312 0.195312 0.130208 0.130208 0.195312 0.195312 0.130208 0.195312 0.195313 0.130208 0.130208 0.195312 0.195312 0.130208 0.195312 0.195312 0.130208 0.130208 0.195312 0.195312 0.130208 0.195312 0.195312 0.130208 0.130208 0.195312 0.195312 0.130208 0.195312 0.195312 0.130208 0.130208 0.195312 0.195312 0.130208 0.195312 0.195312 0.130208 0.130208 0.195312 0.195312 0.130208 0.195312 0.195313 0.130208 0.130208 0.195312 0.195312 0.130208 0.195312 0.195313 0.130208 0.130208 0.195312 0.195312 0.130208 0.195312 0.195312 0.130208 0.130208 0.195312 0.195312 0.130208 0.195312 0.195313 0.130208 0.130208 0.195312 0.195312 0.130208 0.195312 0.195312 0.130208 0.130208 0.195312 0.195312 0.130208 0.195312 0.195313 0.130208 0.130208 0.195312 0.195312 0.130208 0.195313 0.195313 0.130208 0.130208 0.195312 0.195312 0.130208 0.195312 0.195313 0.130208 0.130208 0.195312 0.195312 0.130209 0.195313 0.195313 0.130208 0.130208 0.195312 0.195312 0.130208 0.195312 0.195313 0.130208 0.130208 0.195312 0.195312 0.130209 0.195313 0.195313 0.130208 0.130208 0.195312 0.195312 0.130208 0.195312 0.195312 0.130208 0.130208 0.195312 0.195312 0.130208 0.195312 0.195312 0.130208 0.130208 0.195312 0.195312 0.130208 0.195312 0.195313 0.130208 0.130208 0.195312 0.195312 0.130208 0.195312 0.195312 0.130208 0.130208 0.195312 0.195312 0.130209 0.195312 0.195313 0.130208 0.130208 0.195311 0.195312 0.130208 0.195312 0.195312 0.130208 0.130208 0.195312 0.195312 0.130209 0.195313 0.195313 0.130208 0.130208 0.195311 0.195312 0.130208 0.195312 0.195312 0.130208 0.130208 0.195312 0.195312 0.130208 0.195313 0.195313 0.130208 0.130208 0.195312 0.195312 0.130209 0.195312 0.195313 0.130208 0.130208 0.195312 0.097656 0.130208 0.0976562 0.195313 0.0651039 0.130208 0.195312 0.195312 0.130208 0.195312 0.0976561 0.0651041 0.195313 0.0976564 0.130208 0.130208 0.195312 0.195312 0.130208 0.195312 0.195313 0.130208 0.130208 0.195312 0.195312 0.130208 0.195312 0.195313 0.130208 0.130208 0.195312 0.195312 0.130208 0.195312 0.195313 0.130208 0.130208 0.195312 0.195312 0.130208 0.195312 0.195313 0.130208 0.130208 0.195312 0.195312 0.130208 0.195312 0.195313 0.130208 0.130208 0.195312 0.195312 0.130208 0.195312 0.195312 0.130208 0.130208 0.195312 0.195312 0.130208 0.195312 0.195312 0.130208 0.130208 0.195312 0.195312 0.130208 0.195312 0.195312 0.130208 0.130208 0.195312 0.195312 0.130208 0.195312 0.195312 0.130208 0.130208 0.195312 0.195312 0.130208 0.195313 0.195313 0.130208 0.130208 0.195312 0.195312 0.130208 0.195312 0.195313 0.130208 0.130208 0.195312 0.195312 0.130208 0.195312 0.195313 0.130208 0.130208 0.195312 0.195312 0.130208 0.195312 0.195313 0.130208 0.130208 0.195312 0.195312 0.130208 0.195312 0.195312 0.130208 0.130208 0.195312 0.195312 0.130208 0.195313 0.195313 0.130208 0.130208 0.195312 0.195312 0.130208 0.195313 0.195313 0.130208 0.130208 0.195312 0.195312 0.130208 0.195312 0.195313 0.130208 0.130208 0.195312 0.195312 0.130209 0.195313 0.195313 0.130208 0.130208 0.195312 0.195312 0.130208 0.195312 0.195313 0.130208 0.130208 0.195312 0.195312 0.130209 0.195313 0.195313 0.130208 0.130208 0.195312 0.195312 0.130208 0.195312 0.195313 0.130208 0.130208 0.195312 0.195312 0.130208 0.195312 0.195313 0.130208 0.130208 0.195312 0.195312 0.130208 0.195312 0.195313 0.130208 0.130208 0.195312 0.195312 0.130208 0.195313 0.195312 0.130208 0.130208 0.195312 0.195312 0.130209 0.195312 0.195313 0.130208 0.130208 0.195311 0.195312 0.130208 0.195312 0.195312 0.130208 0.130208 0.195312 0.195312 0.130209 0.195313 0.195313 0.130208 0.130208 0.195311 0.195312 0.130208 0.195312 0.195312 0.130208 0.130208 0.195312 0.195312 0.130209 0.195313 0.195313 0.130208 0.130208 0.195312 0.195312 0.130209 0.195312 0.195313 0.130208 0.130208 0.195312 0.097656 0.130208 0.0976562 0.195313 0.0651039 0.130208 0.195312 0.195312 0.130208 0.195312 0.0976561 0.0651041 0.195313 0.0976565 0.130208 0.130208 0.195312 0.195312 0.130208 0.195312 0.195313 0.130208 0.130208 0.195312 0.195312 0.130208 0.195312 0.195313 0.130208 0.130208 0.195312 0.195312 0.130208 0.195312 0.195313 0.130208 0.130208 0.195312 0.195312 0.130208 0.195312 0.195313 0.130208 0.130208 0.195312 0.195312 0.130208 0.195312 0.195313 0.130208 0.130208 0.195312 0.195312 0.130208 0.195312 0.195312 0.130208 0.130208 0.195312 0.195312 0.130208 0.195312 0.195312 0.130208 0.130208 0.195312 0.195312 0.130208 0.195312 0.195312 0.130208 0.130208 0.195312 0.195312 0.130208 0.195312 0.195312 0.130208 0.130208 0.195312 0.195312 0.130209 0.195313 0.195313 0.130208 0.130208 0.195312 0.195312 0.130208 0.195312 0.195313 0.130208 0.130208 0.195312 0.195312 0.130208 0.195312 0.195313 0.130208 0.130208 0.195312 0.195312 0.130208 0.195312 0.195313 0.130208 0.130208 0.195312 0.195312 0.130208 0.195313 0.195312 0.130208 0.130208 0.195312 0.195312 0.130209 0.195313 0.195313 0.130208 0.130208 0.195312 0.195312 0.130209 0.195313 0.195313 0.130208 0.130208 0.195312 0.195312 0.130208 0.195312 0.195313 0.130208 0.130208 0.195312 0.195312 0.130209 0.195313 0.195313 0.130208 0.130208 0.195312 0.195312 0.130209 0.195312 0.195313 0.130208 0.130208 0.195312 0.195312 0.130209 0.195313 0.195313 0.130208 0.130208 0.195312 0.195312 0.130208 0.195312 0.195313 0.130208 0.130208 0.195312 0.195312 0.130208 0.195313 0.195313 0.130208 0.130208 0.195312 0.195312 0.130209 0.195312 0.195313 0.130208 0.130208 0.195312 0.195312 0.130208 0.195313 0.195312 0.130208 0.130208 0.195312 0.195312 0.130209 0.195312 0.195313 0.130208 0.130208 0.195311 0.195312 0.130208 0.195312 0.195312 0.130208 0.130208 0.195312 0.195312 0.130209 0.195313 0.195313 0.130208 0.130208 0.195312 0.195312 0.130208 0.195312 0.195312 0.130208 0.130208 0.195312 0.195312 0.130209 0.195313 0.195313 0.130208 0.130208 0.195312 0.195312 0.130209 0.195313 0.195313 0.130208 0.130208 0.195312 0.097656 0.130209 0.0976562 0.195313 0.0651039 0.130208 0.195312 0.195312 0.130208 0.195312 0.0976561 0.0651041 0.195312 0.0976564 0.130208 0.130208 0.195312 0.195312 0.130208 0.195312 0.195312 0.130208 0.130208 0.195312 0.195312 0.130208 0.195312 0.195312 0.130208 0.130208 0.195312 0.195312 0.130208 0.195312 0.195312 0.130208 0.130208 0.195312 0.195312 0.130208 0.195312 0.195312 0.130208 0.130208 0.195312 0.195312 0.130208 0.195312 0.195312 0.130208 0.130208 0.195312 0.195312 0.130208 0.195312 0.195312 0.130208 0.130208 0.195312 0.195312 0.130208 0.195312 0.195312 0.130208 0.130208 0.195312 0.195312 0.130208 0.195312 0.195312 0.130208 0.130208 0.195312 0.195312 0.130208 0.195312 0.195312 0.130208 0.130208 0.195312 0.195312 0.130208 0.195313 0.195313 0.130208 0.130208 0.195312 0.195312 0.130208 0.195312 0.195313 0.130208 0.130208 0.195312 0.195312 0.130208 0.195312 0.195312 0.130208 0.130208 0.195312 0.195312 0.130208 0.195312 0.195312 0.130208 0.130208 0.195312 0.195312 0.130208 0.195312 0.195312 0.130208 0.130208 0.195312 0.195312 0.130208 0.195313 0.195313 0.130208 0.130208 0.195312 0.195312 0.130208 0.195313 0.195313 0.130208 0.130208 0.195312 0.195312 0.130208 0.195312 0.195312 0.130208 0.130208 0.195312 0.195312 0.130209 0.195313 0.195313 0.130208 0.130208 0.195312 0.195312 0.130208 0.195312 0.195313 0.130208 0.130208 0.195312 0.195312 0.130209 0.195313 0.195313 0.130208 0.130208 0.195312 0.195312 0.130208 0.195312 0.195312 0.130208 0.130208 0.195312 0.195312 0.130208 0.195312 0.195312 0.130208 0.130208 0.195312 0.195312 0.130209 0.195312 0.195313 0.130208 0.130208 0.195312 0.195312 0.130208 0.195313 0.195312 0.130208 0.130208 0.195312 0.195312 0.130209 0.195312 0.195313 0.130208 0.130208 0.195311 0.195312 0.130208 0.195312 0.195312 0.130208 0.130208 0.195312 0.195312 0.130209 0.195313 0.195313 0.130208 0.130208 0.195311 0.195312 0.130208 0.195312 0.195312 0.130208 0.130208 0.195312 0.195312 0.130209 0.195313 0.195312 0.130208 0.130208 0.195312 0.195312 0.130209 0.195313 0.195313 0.130208 0.130208 0.195312 0.097656 0.130209 0.0976562 0.195313 0.0651039 0.0651041 0.195312 0.0976558 0.130208 0.195312 0.0325521 0.0651041 0.0976563 0.0976564 0.130208 0.0651041 0.195312 0.0976558 0.130208 0.195312 0.0976563 0.130208 0.0651041 0.195312 0.0976558 0.130208 0.195312 0.0976563 0.130208 0.0651041 0.195312 0.0976558 0.130208 0.195312 0.0976563 0.130208 0.0651041 0.195312 0.0976558 0.130208 0.195312 0.0976563 0.130208 0.0651041 0.195312 0.0976558 0.130208 0.195312 0.0976563 0.130208 0.065104 0.195312 0.0976558 0.130208 0.195312 0.0976563 0.130208 0.065104 0.195312 0.0976559 0.130208 0.195312 0.0976563 0.130208 0.0651041 0.195312 0.0976558 0.130208 0.195312 0.0976563 0.130208 0.0651041 0.195312 0.0976558 0.130208 0.195312 0.0976563 0.130208 0.0651041 0.195312 0.0976559 0.130208 0.195312 0.0976564 0.130208 0.0651041 0.195312 0.0976559 0.130208 0.195312 0.0976564 0.130208 0.065104 0.195312 0.0976558 0.130208 0.195312 0.0976563 0.130208 0.065104 0.195312 0.0976558 0.130208 0.195312 0.0976563 0.130208 0.065104 0.195312 0.0976558 0.130208 0.195312 0.0976562 0.130208 0.0651042 0.195312 0.097656 0.130208 0.195312 0.0976565 0.130208 0.0651042 0.195312 0.097656 0.130208 0.195312 0.0976565 0.130208 0.0651041 0.195312 0.0976558 0.130208 0.195312 0.0976564 0.130208 0.065104 0.195312 0.097656 0.130208 0.195313 0.0976564 0.130208 0.0651042 0.195312 0.0976558 0.130208 0.195312 0.0976566 0.130208 0.0651041 0.195312 0.097656 0.130209 0.195312 0.0976564 0.130208 0.0651041 0.195312 0.0976557 0.130208 0.195312 0.0976563 0.130208 0.065104 0.195312 0.0976559 0.130208 0.195312 0.0976563 0.130208 0.0651041 0.195312 0.0976559 0.130208 0.195312 0.0976564 0.130208 0.0651039 0.195311 0.0976558 0.130208 0.195312 0.0976562 0.130208 0.0651042 0.195312 0.0976558 0.130208 0.195312 0.0976566 0.130207 0.0651039 0.195311 0.0976558 0.130208 0.195312 0.0976561 0.130208 0.0651043 0.195312 0.097656 0.130209 0.195313 0.0976566 0.130208 0.0651041 0.195311 0.0976557 0.130208 0.195312 0.0976565 0.130207 0.0651041 0.195312 0.0976559 0.130208 0.195312 0.0976565 0.130208 0.0651042 0.195312 0.0976559 0.130209 0.195312 0.0976567 0.130208 0.0651042 0.195312 0.065104 0.130208 0.0976561 0.0976565 0.0651039 0.130208 0.195313 0.195313 0.130208 0.195313 0.0976562 0.065104 0.0651041 0.0976561 0.0651041 0.195313 0.0976564 0.0976561 0.130208 0.130208 0.195313 0.195313 0.130208 0.195313 0.0976562 0.0651041 0.195313 0.0976561 0.130208 0.130208 0.195313 0.195313 0.130208 0.195313 0.0976562 0.0651041 0.195313 0.0976561 0.130208 0.130208 0.195312 0.195313 0.130208 0.195313 0.0976562 0.0651041 0.195313 0.097656 0.130208 0.130208 0.195313 0.195313 0.130208 0.195313 0.0976562 0.065104 0.195313 0.0976561 0.130208 0.130208 0.195313 0.195313 0.130208 0.195313 0.0976563 0.0651041 0.195313 0.0976561 0.130208 0.130208 0.195312 0.195312 0.130208 0.195313 0.0976562 0.0651041 0.195313 0.097656 0.130208 0.130208 0.195312 0.195313 0.130208 0.195313 0.0976562 0.065104 0.195313 0.097656 0.130208 0.130208 0.195312 0.195312 0.130208 0.195313 0.0976561 0.065104 0.195313 0.097656 0.130208 0.130208 0.195312 0.195313 0.130208 0.195313 0.0976562 0.065104 0.195313 0.0976561 0.130208 0.130208 0.195313 0.195313 0.130208 0.195313 0.0976563 0.0651041 0.195313 0.0976561 0.130208 0.130208 0.195313 0.195313 0.130208 0.195313 0.0976562 0.0651041 0.195313 0.097656 0.130208 0.130208 0.195313 0.195313 0.130208 0.195313 0.0976563 0.0651041 0.195313 0.0976561 0.130208 0.130208 0.195313 0.195312 0.130208 0.195313 0.0976563 0.0651041 0.195313 0.097656 0.130208 0.130208 0.195312 0.195313 0.130208 0.195313 0.0976562 0.065104 0.195313 0.0976561 0.130208 0.130209 0.195313 0.195313 0.130209 0.195313 0.0976562 0.0651041 0.195313 0.0976561 0.130208 0.130209 0.195313 0.195313 0.130209 0.195313 0.0976563 0.0651041 0.195313 0.0976562 0.130208 0.130208 0.195313 0.195313 0.130208 0.195313 0.0976562 0.065104 0.195313 0.0976561 0.130208 0.130208 0.195313 0.195313 0.130209 0.195313 0.0976564 0.0651041 0.195313 0.0976562 0.130209 0.130209 0.195313 0.195313 0.130209 0.195313 0.0976561 0.065104 0.195313 0.0976561 0.130208 0.130209 0.195313 0.195313 0.130209 0.195313 0.0976564 0.0651042 0.195313 0.0976562 0.130208 0.130208 0.195313 0.195312 0.130208 0.195313 0.0976563 0.0651041 0.195313 0.0976561 0.130208 0.130208 0.195313 0.195313 0.130208 0.195313 0.0976563 0.0651041 0.195313 0.0976561 0.130208 0.130209 0.195313 0.195313 0.130209 0.195313 0.0976563 0.0651041 0.195313 0.097656 0.130208 0.130208 0.195312 0.195313 0.130208 0.195313 0.0976561 0.065104 0.195312 0.0976561 0.130208 0.130209 0.195313 0.195312 0.130209 0.195312 0.0976562 0.0651041 0.195313 0.0976559 0.130208 0.130208 0.195312 0.195313 0.130208 0.195313 0.097656 0.0651039 0.195312 0.0976561 0.130208 0.130209 0.195313 0.195313 0.130209 0.195313 0.0976564 0.0651042 0.195313 0.0976561 0.130208 0.130208 0.195312 0.195312 0.130208 0.195312 0.0976558 0.0651038 0.195312 0.0976561 0.130208 0.130208 0.195313 0.195313 0.130209 0.195313 0.0976561 0.065104 0.195313 0.0976562 0.130208 0.130209 0.195313 0.195313 0.130209 0.195313 0.0976562 0.0651041 0.195313 0.0976559 0.130208 0.130209 0.195313 0.0976567 0.130209 0.0976564 0.0976564 0.0651041 0.195313 0.0325522 0.0651044 0.130208 0.195313 0.195313 0.130208 0.195313 0.0976561 0.0651041 0.195313 0.0976564 0.130208 0.130208 0.195313 0.195313 0.130208 0.195313 0.195313 0.130208 0.130208 0.195313 0.195313 0.130208 0.195313 0.195313 0.130208 0.130208 0.195313 0.195313 0.130208 0.195313 0.195313 0.130208 0.130208 0.195313 0.195313 0.130208 0.195313 0.195313 0.130208 0.130208 0.195313 0.195313 0.130208 0.195313 0.195313 0.130208 0.130208 0.195312 0.195312 0.130208 0.195313 0.195313 0.130208 0.130208 0.195312 0.195313 0.130208 0.195313 0.195313 0.130208 0.130208 0.195312 0.195312 0.130208 0.195313 0.195313 0.130208 0.130208 0.195312 0.195313 0.130208 0.195313 0.195313 0.130208 0.130208 0.195313 0.195313 0.130209 0.195313 0.195313 0.130208 0.130208 0.195313 0.195313 0.130209 0.195313 0.195313 0.130208 0.130208 0.195313 0.195313 0.130208 0.195313 0.195313 0.130208 0.130208 0.195313 0.195312 0.130208 0.195313 0.195313 0.130208 0.130208 0.195312 0.195313 0.130208 0.195313 0.195313 0.130208 0.130209 0.195313 0.195313 0.130209 0.195313 0.195313 0.130208 0.130209 0.195313 0.195313 0.130209 0.195313 0.195313 0.130208 0.130208 0.195313 0.195313 0.130208 0.195313 0.195313 0.130208 0.130208 0.195313 0.195313 0.130209 0.195313 0.195313 0.130209 0.130209 0.195313 0.195313 0.130209 0.195313 0.195313 0.130208 0.130209 0.195313 0.195313 0.130209 0.195313 0.195313 0.130208 0.130208 0.195313 0.195312 0.130208 0.195313 0.195313 0.130208 0.130208 0.195313 0.195313 0.130208 0.195313 0.195313 0.130208 0.130208 0.195313 0.195313 0.130209 0.195313 0.195313 0.130208 0.130208 0.195312 0.195313 0.130208 0.195313 0.195312 0.130208 0.130209 0.195313 0.195312 0.130209 0.195312 0.195313 0.130208 0.130208 0.195312 0.195313 0.130208 0.195313 0.195312 0.130208 0.130209 0.195313 0.195313 0.130209 0.195313 0.195313 0.130208 0.130208 0.195312 0.195312 0.130208 0.195312 0.195312 0.130208 0.130208 0.195313 0.195313 0.130209 0.195313 0.195313 0.130208 0.130209 0.195313 0.195313 0.130209 0.195313 0.195313 0.130208 0.130209 0.195313 0.0976567 0.130209 0.0976564 0.195313 0.0651044 0.130208 0.195313 0.195313 0.130208 0.195313 0.0976561 0.0651042 0.195313 0.0976564 0.130208 0.130208 0.195313 0.195313 0.130208 0.195313 0.195313 0.130208 0.130208 0.195313 0.195313 0.130208 0.195313 0.195313 0.130208 0.130208 0.195313 0.195313 0.130208 0.195313 0.195313 0.130208 0.130208 0.195313 0.195313 0.130208 0.195313 0.195313 0.130208 0.130208 0.195313 0.195313 0.130208 0.195313 0.195313 0.130208 0.130208 0.195313 0.195312 0.130208 0.195313 0.195313 0.130208 0.130208 0.195312 0.195313 0.130208 0.195313 0.195313 0.130208 0.130208 0.195312 0.195312 0.130208 0.195313 0.195313 0.130208 0.130208 0.195313 0.195313 0.130208 0.195313 0.195313 0.130208 0.130208 0.195313 0.195313 0.130209 0.195313 0.195313 0.130208 0.130209 0.195313 0.195313 0.130209 0.195313 0.195313 0.130208 0.130208 0.195313 0.195313 0.130208 0.195313 0.195313 0.130208 0.130208 0.195313 0.195312 0.130208 0.195313 0.195313 0.130208 0.130208 0.195312 0.195313 0.130208 0.195313 0.195313 0.130208 0.130209 0.195313 0.195313 0.130209 0.195313 0.195313 0.130208 0.130209 0.195313 0.195313 0.130209 0.195313 0.195313 0.130208 0.130208 0.195313 0.195313 0.130208 0.195313 0.195313 0.130208 0.130208 0.195313 0.195313 0.130209 0.195313 0.195313 0.130209 0.130209 0.195313 0.195313 0.130209 0.195313 0.195313 0.130208 0.130209 0.195313 0.195313 0.130209 0.195313 0.195313 0.130208 0.130208 0.195313 0.195312 0.130208 0.195313 0.195313 0.130208 0.130208 0.195313 0.195313 0.130209 0.195313 0.195313 0.130208 0.130209 0.195313 0.195313 0.130209 0.195313 0.195313 0.130208 0.130208 0.195312 0.195313 0.130208 0.195313 0.195312 0.130208 0.130209 0.195313 0.195312 0.130209 0.195312 0.195313 0.130208 0.130208 0.195312 0.195313 0.130208 0.195313 0.195312 0.130208 0.130209 0.195313 0.195313 0.130209 0.195313 0.195313 0.130208 0.130208 0.195312 0.195312 0.130208 0.195312 0.195312 0.130208 0.130208 0.195313 0.195313 0.130209 0.195313 0.195313 0.130208 0.130209 0.195313 0.195312 0.130209 0.195313 0.195313 0.130208 0.130209 0.195313 0.0976567 0.130209 0.0976564 0.195313 0.0651044 0.130208 0.195312 0.195312 0.130208 0.195313 0.0976561 0.0651041 0.195313 0.0976564 0.130208 0.130208 0.195312 0.195312 0.130208 0.195313 0.195313 0.130208 0.130208 0.195312 0.195312 0.130208 0.195313 0.195313 0.130208 0.130208 0.195312 0.195312 0.130208 0.195313 0.195313 0.130208 0.130208 0.195312 0.195313 0.130208 0.195313 0.195313 0.130208 0.130208 0.195313 0.195312 0.130208 0.195313 0.195313 0.130208 0.130208 0.195312 0.195312 0.130208 0.195313 0.195313 0.130208 0.130208 0.195312 0.195312 0.130208 0.195313 0.195313 0.130208 0.130208 0.195312 0.195312 0.130208 0.195313 0.195313 0.130208 0.130208 0.195312 0.195313 0.130208 0.195313 0.195313 0.130208 0.130208 0.195313 0.195313 0.130208 0.195313 0.195313 0.130208 0.130208 0.195313 0.195313 0.130208 0.195313 0.195313 0.130208 0.130208 0.195312 0.195313 0.130208 0.195313 0.195313 0.130208 0.130208 0.195313 0.195312 0.130208 0.195313 0.195313 0.130208 0.130208 0.195312 0.195313 0.130208 0.195313 0.195313 0.130208 0.130209 0.195313 0.195313 0.130208 0.195313 0.195313 0.130208 0.130209 0.195313 0.195313 0.130209 0.195313 0.195313 0.130208 0.130208 0.195313 0.195312 0.130208 0.195313 0.195313 0.130208 0.130208 0.195313 0.195313 0.130209 0.195313 0.195313 0.130209 0.130209 0.195313 0.195313 0.130209 0.195313 0.195313 0.130208 0.130209 0.195313 0.195313 0.130209 0.195313 0.195313 0.130208 0.130208 0.195313 0.195312 0.130208 0.195313 0.195313 0.130208 0.130208 0.195312 0.195313 0.130208 0.195313 0.195313 0.130208 0.130208 0.195313 0.195312 0.130209 0.195313 0.195313 0.130208 0.130208 0.195312 0.195313 0.130208 0.195313 0.195312 0.130208 0.130209 0.195313 0.195312 0.130209 0.195312 0.195313 0.130208 0.130208 0.195312 0.195312 0.130208 0.195313 0.195312 0.130208 0.130209 0.195313 0.195313 0.130209 0.195313 0.195313 0.130208 0.130208 0.195312 0.195312 0.130208 0.195312 0.195312 0.130208 0.130208 0.195313 0.195313 0.130209 0.195313 0.195313 0.130208 0.130209 0.195313 0.195312 0.130209 0.195313 0.195313 0.130208 0.130209 0.195313 0.0976567 0.130209 0.0976564 0.195313 0.0651044 0.130208 0.195313 0.195313 0.130208 0.195313 0.0976562 0.0651041 0.195313 0.0976564 0.130208 0.130208 0.195313 0.195313 0.130208 0.195313 0.195313 0.130208 0.130208 0.195313 0.195313 0.130208 0.195313 0.195313 0.130208 0.130208 0.195313 0.195313 0.130208 0.195313 0.195313 0.130208 0.130208 0.195313 0.195313 0.130208 0.195313 0.195313 0.130208 0.130208 0.195313 0.195313 0.130208 0.195313 0.195313 0.130208 0.130208 0.195313 0.195312 0.130208 0.195313 0.195313 0.130208 0.130208 0.195312 0.195313 0.130208 0.195313 0.195313 0.130208 0.130208 0.195312 0.195312 0.130208 0.195313 0.195313 0.130208 0.130208 0.195312 0.195313 0.130208 0.195313 0.195313 0.130208 0.130208 0.195313 0.195313 0.130209 0.195313 0.195313 0.130208 0.130209 0.195313 0.195313 0.130208 0.195313 0.195313 0.130208 0.130208 0.195313 0.195313 0.130208 0.195313 0.195313 0.130208 0.130208 0.195313 0.195312 0.130208 0.195313 0.195313 0.130208 0.130208 0.195312 0.195313 0.130208 0.195313 0.195313 0.130208 0.130209 0.195313 0.195313 0.130208 0.195313 0.195313 0.130208 0.130209 0.195313 0.195313 0.130209 0.195313 0.195313 0.130208 0.130208 0.195313 0.195313 0.130208 0.195313 0.195313 0.130208 0.130208 0.195313 0.195313 0.130209 0.195313 0.195313 0.130209 0.130209 0.195313 0.195313 0.130209 0.195313 0.195313 0.130208 0.130209 0.195313 0.195313 0.130209 0.195313 0.195313 0.130208 0.130208 0.195313 0.195312 0.130208 0.195313 0.195313 0.130208 0.130208 0.195313 0.195313 0.130208 0.195313 0.195313 0.130208 0.130209 0.195313 0.195313 0.130209 0.195313 0.195313 0.130208 0.130208 0.195312 0.195313 0.130208 0.195313 0.195312 0.130208 0.130209 0.195313 0.195312 0.130209 0.195312 0.195313 0.130208 0.130208 0.195312 0.195313 0.130208 0.195313 0.195312 0.130208 0.130209 0.195313 0.195313 0.130209 0.195313 0.195313 0.130208 0.130208 0.195312 0.195312 0.130208 0.195312 0.195312 0.130208 0.130208 0.195313 0.195313 0.130209 0.195313 0.195313 0.130208 0.130209 0.195313 0.195313 0.130209 0.195313 0.195313 0.130208 0.130209 0.195313 0.0976567 0.130209 0.0976564 0.195313 0.0651044 0.130208 0.195313 0.195313 0.130208 0.195313 0.0976561 0.0651042 0.195313 0.0976564 0.130208 0.130208 0.195313 0.195313 0.130208 0.195313 0.195313 0.130208 0.130208 0.195313 0.195313 0.130208 0.195313 0.195313 0.130208 0.130208 0.195313 0.195313 0.130208 0.195313 0.195313 0.130208 0.130208 0.195313 0.195313 0.130208 0.195313 0.195313 0.130208 0.130208 0.195313 0.195313 0.130209 0.195313 0.195313 0.130208 0.130208 0.195313 0.195312 0.130208 0.195313 0.195313 0.130208 0.130208 0.195313 0.195313 0.130208 0.195313 0.195313 0.130208 0.130208 0.195313 0.195312 0.130208 0.195313 0.195313 0.130208 0.130208 0.195313 0.195313 0.130208 0.195313 0.195313 0.130208 0.130209 0.195313 0.195313 0.130209 0.195313 0.195313 0.130208 0.130209 0.195313 0.195313 0.130209 0.195313 0.195313 0.130208 0.130208 0.195313 0.195313 0.130208 0.195313 0.195313 0.130208 0.130208 0.195313 0.195312 0.130209 0.195313 0.195313 0.130208 0.130208 0.195312 0.195313 0.130208 0.195313 0.195313 0.130208 0.130209 0.195313 0.195313 0.130209 0.195313 0.195313 0.130208 0.130209 0.195313 0.195313 0.130209 0.195313 0.195313 0.130208 0.130208 0.195313 0.195313 0.130209 0.195313 0.195313 0.130208 0.130208 0.195313 0.195313 0.130209 0.195313 0.195313 0.130209 0.130209 0.195313 0.195313 0.130209 0.195313 0.195313 0.130208 0.130209 0.195313 0.195313 0.130209 0.195313 0.195313 0.130209 0.130208 0.195313 0.195312 0.130208 0.195313 0.195313 0.130208 0.130208 0.195313 0.195313 0.130209 0.195313 0.195313 0.130208 0.130209 0.195313 0.195313 0.130209 0.195313 0.195313 0.130208 0.130208 0.195312 0.195313 0.130208 0.195313 0.195312 0.130208 0.130209 0.195313 0.195312 0.130209 0.195312 0.195313 0.130208 0.130208 0.195312 0.195313 0.130208 0.195313 0.195312 0.130208 0.130209 0.195313 0.195313 0.130209 0.195313 0.195313 0.130209 0.130208 0.195312 0.195312 0.130208 0.195312 0.195312 0.130208 0.130208 0.195313 0.195313 0.130209 0.195313 0.195313 0.130208 0.130209 0.195313 0.195313 0.130209 0.195313 0.195313 0.130208 0.130209 0.195313 0.0976567 0.130209 0.0976564 0.195313 0.0651044 0.130208 0.195313 0.195312 0.130208 0.195313 0.0976561 0.0651042 0.195313 0.0976564 0.130208 0.130208 0.195313 0.195312 0.130208 0.195313 0.195313 0.130208 0.130208 0.195313 0.195313 0.130208 0.195313 0.195313 0.130208 0.130208 0.195313 0.195312 0.130208 0.195313 0.195313 0.130208 0.130208 0.195313 0.195312 0.130208 0.195313 0.195313 0.130208 0.130208 0.195313 0.195312 0.130208 0.195313 0.195313 0.130208 0.130208 0.195312 0.195312 0.130208 0.195313 0.195313 0.130208 0.130208 0.195312 0.195312 0.130208 0.195313 0.195313 0.130208 0.130208 0.195312 0.195312 0.130208 0.195313 0.195313 0.130208 0.130208 0.195313 0.195312 0.130208 0.195313 0.195313 0.130208 0.130208 0.195313 0.195313 0.130209 0.195313 0.195313 0.130208 0.130208 0.195313 0.195312 0.130208 0.195313 0.195313 0.130208 0.130208 0.195313 0.195313 0.130208 0.195313 0.195313 0.130208 0.130208 0.195313 0.195312 0.130208 0.195313 0.195313 0.130208 0.130208 0.195312 0.195312 0.130208 0.195313 0.195312 0.130208 0.130209 0.195313 0.195313 0.130209 0.195313 0.195313 0.130208 0.130209 0.195313 0.195313 0.130209 0.195313 0.195313 0.130208 0.130208 0.195313 0.195312 0.130208 0.195313 0.195313 0.130208 0.130208 0.195313 0.195313 0.130209 0.195313 0.195313 0.130209 0.130209 0.195313 0.195313 0.130209 0.195313 0.195313 0.130208 0.130209 0.195313 0.195313 0.130209 0.195313 0.195313 0.130208 0.130208 0.195313 0.195312 0.130208 0.195313 0.195313 0.130208 0.130208 0.195313 0.195313 0.130208 0.195313 0.195313 0.130208 0.130208 0.195313 0.195312 0.130209 0.195313 0.195313 0.130208 0.130208 0.195312 0.195313 0.130208 0.195313 0.195312 0.130208 0.130209 0.195313 0.195312 0.130209 0.195312 0.195313 0.130208 0.130208 0.195312 0.195313 0.130208 0.195313 0.195312 0.130208 0.130209 0.195313 0.195313 0.130209 0.195313 0.195313 0.130209 0.130208 0.195312 0.195312 0.130208 0.195312 0.195312 0.130208 0.130208 0.195313 0.195313 0.130209 0.195313 0.195313 0.130208 0.130209 0.195313 0.195312 0.130209 0.195313 0.195313 0.130208 0.130209 0.195313 0.0976567 0.130209 0.0976564 0.195313 0.0651044 0.0651044 0.195312 0.0976565 0.130208 0.195313 0.0325521 0.0651041 0.0976564 0.0976564 0.130208 0.0651044 0.195312 0.0976565 0.130208 0.195313 0.0976564 0.130208 0.0651044 0.195312 0.0976564 0.130208 0.195313 0.0976564 0.130208 0.0651044 0.195312 0.0976564 0.130208 0.195313 0.0976564 0.130208 0.0651044 0.195312 0.0976564 0.130208 0.195313 0.0976564 0.130208 0.0651044 0.195312 0.0976564 0.130208 0.195313 0.0976564 0.130208 0.0651044 0.195312 0.0976564 0.130208 0.195312 0.0976564 0.130208 0.0651044 0.195312 0.0976565 0.130208 0.195313 0.0976564 0.130208 0.0651044 0.195312 0.0976564 0.130208 0.195312 0.0976564 0.130208 0.0651044 0.195312 0.0976565 0.130208 0.195313 0.0976564 0.130208 0.0651044 0.195313 0.0976565 0.130208 0.195313 0.0976565 0.130208 0.0651045 0.195313 0.0976565 0.130208 0.195312 0.0976565 0.130208 0.0651044 0.195312 0.0976564 0.130208 0.195313 0.0976564 0.130208 0.0651044 0.195312 0.0976564 0.130208 0.195313 0.0976564 0.130208 0.0651043 0.195312 0.0976565 0.130208 0.195313 0.0976563 0.130208 0.0651045 0.195313 0.0976566 0.130208 0.195313 0.0976565 0.130208 0.0651045 0.195313 0.0976566 0.130208 0.195313 0.0976565 0.130208 0.0651044 0.195312 0.0976564 0.130208 0.195313 0.0976565 0.130208 0.0651044 0.195313 0.0976566 0.130208 0.195313 0.0976564 0.130209 0.0651046 0.195313 0.0976564 0.130208 0.195313 0.0976567 0.130208 0.0651044 0.195313 0.0976565 0.130209 0.195313 0.0976565 0.130208 0.0651044 0.195312 0.0976563 0.130208 0.195313 0.0976564 0.130208 0.0651043 0.195312 0.0976565 0.130208 0.195313 0.0976564 0.130208 0.0651044 0.195313 0.0976565 0.130208 0.195312 0.0976565 0.130208 0.0651043 0.195312 0.0976564 0.130208 0.195313 0.0976563 0.130208 0.0651046 0.195313 0.0976564 0.130208 0.195312 0.0976567 0.130208 0.0651042 0.195312 0.0976564 0.130208 0.195313 0.0976561 0.130208 0.0651046 0.195313 0.0976567 0.130209 0.195313 0.0976566 0.130208 0.0651044 0.195312 0.0976563 0.130208 0.195312 0.0976565 0.130208 0.0651044 0.195312 0.0976565 0.130208 0.195313 0.0976566 0.130208 0.0651046 0.195313 0.0976566 0.130209 0.195313 0.0976567 0.130208 0.0651046 0.195313 0.0651045 0.130208 0.0976563 0.0976565 0.0651043 0.130208 0.195313 0.195313 0.130208 0.195313 0.0976562 0.0651039 0.065104 0.0976561 0.0651041 0.195313 0.0976564 0.097656 0.130208 0.130208 0.195313 0.195313 0.130208 0.195313 0.0976562 0.065104 0.195313 0.097656 0.130208 0.130208 0.195313 0.195313 0.130208 0.195313 0.0976562 0.065104 0.195313 0.097656 0.130208 0.130208 0.195313 0.195313 0.130208 0.195313 0.0976562 0.065104 0.195313 0.097656 0.130208 0.130208 0.195313 0.195313 0.130208 0.195313 0.0976562 0.065104 0.195313 0.0976561 0.130208 0.130208 0.195313 0.195313 0.130208 0.195313 0.0976562 0.065104 0.195313 0.097656 0.130208 0.130208 0.195313 0.195312 0.130208 0.195313 0.0976562 0.065104 0.195313 0.097656 0.130208 0.130208 0.195312 0.195313 0.130208 0.195313 0.0976562 0.065104 0.195313 0.097656 0.130208 0.130208 0.195313 0.195313 0.130208 0.195313 0.0976561 0.065104 0.195313 0.097656 0.130208 0.130208 0.195313 0.195313 0.130208 0.195313 0.0976562 0.065104 0.195313 0.097656 0.130208 0.130208 0.195313 0.195313 0.130208 0.195313 0.0976563 0.0651041 0.195313 0.0976561 0.130208 0.130209 0.195313 0.195313 0.130208 0.195313 0.0976562 0.065104 0.195313 0.097656 0.130208 0.130208 0.195313 0.195313 0.130208 0.195313 0.0976562 0.065104 0.195313 0.0976561 0.130208 0.130208 0.195313 0.195313 0.130208 0.195313 0.0976562 0.0651041 0.195313 0.097656 0.130208 0.130208 0.195312 0.195313 0.130208 0.195313 0.0976562 0.065104 0.195313 0.097656 0.130208 0.130209 0.195313 0.195313 0.130208 0.195313 0.0976562 0.065104 0.195313 0.097656 0.130208 0.130209 0.195313 0.195313 0.130208 0.195313 0.0976563 0.0651041 0.195313 0.0976561 0.130209 0.130208 0.195313 0.195313 0.130208 0.195313 0.0976562 0.065104 0.195313 0.0976561 0.130208 0.130208 0.195313 0.195313 0.130209 0.195313 0.0976563 0.0651041 0.195313 0.0976562 0.130209 0.130209 0.195313 0.195313 0.130208 0.195313 0.0976561 0.065104 0.195313 0.0976561 0.130208 0.130209 0.195313 0.195313 0.130209 0.195313 0.0976564 0.0651041 0.195313 0.0976561 0.130209 0.130208 0.195313 0.195312 0.130208 0.195313 0.0976562 0.0651041 0.195313 0.097656 0.130208 0.130208 0.195313 0.195313 0.130208 0.195313 0.0976562 0.0651041 0.195313 0.0976561 0.130208 0.130209 0.195313 0.195313 0.130208 0.195313 0.0976562 0.0651041 0.195313 0.097656 0.130208 0.130208 0.195312 0.195313 0.130208 0.195313 0.0976561 0.065104 0.195312 0.0976561 0.130208 0.130209 0.195313 0.195312 0.130209 0.195312 0.0976562 0.065104 0.195313 0.0976558 0.130208 0.130208 0.195312 0.195313 0.130208 0.195313 0.097656 0.0651039 0.195312 0.0976561 0.130208 0.130209 0.195313 0.195313 0.130209 0.195313 0.0976564 0.0651041 0.195313 0.0976561 0.130209 0.130208 0.195312 0.195312 0.130208 0.195312 0.0976558 0.0651038 0.195312 0.097656 0.130208 0.130208 0.195313 0.195313 0.130209 0.195313 0.097656 0.065104 0.195313 0.0976561 0.130208 0.130209 0.195313 0.195313 0.130209 0.195313 0.0976562 0.0651041 0.195313 0.0976559 0.130208 0.130209 0.195313 0.0976568 0.130208 0.0976564 0.0976564 0.0651041 0.195313 0.0325522 0.0651045 0.130208 0.195313 0.195313 0.130208 0.195313 0.0976561 0.0651041 0.195313 0.0976564 0.130208 0.130208 0.195313 0.195313 0.130208 0.195313 0.195313 0.130208 0.130208 0.195313 0.195313 0.130208 0.195313 0.195313 0.130208 0.130208 0.195313 0.195313 0.130208 0.195313 0.195313 0.130208 0.130208 0.195313 0.195313 0.130208 0.195313 0.195313 0.130208 0.130208 0.195313 0.195313 0.130208 0.195313 0.195313 0.130208 0.130208 0.195313 0.195312 0.130208 0.195313 0.195313 0.130208 0.130208 0.195313 0.195313 0.130208 0.195313 0.195313 0.130208 0.130208 0.195313 0.195313 0.130208 0.195313 0.195313 0.130208 0.130208 0.195313 0.195313 0.130208 0.195313 0.195313 0.130208 0.130208 0.195313 0.195313 0.130208 0.195313 0.195313 0.130208 0.130209 0.195313 0.195313 0.130208 0.195313 0.195313 0.130208 0.130208 0.195313 0.195313 0.130208 0.195313 0.195313 0.130208 0.130208 0.195313 0.195313 0.130208 0.195313 0.195313 0.130208 0.130208 0.195312 0.195313 0.130208 0.195313 0.195313 0.130208 0.130209 0.195313 0.195313 0.130208 0.195313 0.195313 0.130208 0.130209 0.195313 0.195313 0.130208 0.195313 0.195313 0.130209 0.130208 0.195313 0.195313 0.130208 0.195313 0.195313 0.130208 0.130208 0.195313 0.195313 0.130209 0.195313 0.195313 0.130209 0.130209 0.195313 0.195313 0.130208 0.195313 0.195313 0.130208 0.130209 0.195313 0.195313 0.130209 0.195313 0.195313 0.130209 0.130208 0.195313 0.195312 0.130208 0.195313 0.195313 0.130208 0.130208 0.195313 0.195313 0.130208 0.195313 0.195313 0.130208 0.130209 0.195313 0.195313 0.130209 0.195313 0.195313 0.130208 0.130208 0.195312 0.195313 0.130208 0.195313 0.195312 0.130208 0.130209 0.195313 0.195312 0.130209 0.195312 0.195313 0.130208 0.130208 0.195312 0.195313 0.130208 0.195313 0.195312 0.130208 0.130209 0.195313 0.195313 0.130209 0.195313 0.195313 0.130209 0.130208 0.195312 0.195312 0.130208 0.195312 0.195312 0.130208 0.130208 0.195313 0.195313 0.130209 0.195313 0.195313 0.130208 0.130209 0.195313 0.195313 0.130209 0.195313 0.195313 0.130208 0.130209 0.195313 0.0976568 0.130209 0.0976564 0.195313 0.0651045 0.130208 0.195313 0.195313 0.130208 0.195313 0.0976561 0.0651042 0.195313 0.0976564 0.130208 0.130208 0.195313 0.195313 0.130208 0.195313 0.195313 0.130208 0.130208 0.195313 0.195313 0.130208 0.195313 0.195313 0.130208 0.130208 0.195313 0.195313 0.130208 0.195313 0.195313 0.130208 0.130208 0.195313 0.195313 0.130208 0.195313 0.195313 0.130208 0.130208 0.195313 0.195313 0.130208 0.195313 0.195313 0.130208 0.130208 0.195313 0.195312 0.130208 0.195313 0.195313 0.130208 0.130208 0.195313 0.195313 0.130208 0.195313 0.195313 0.130208 0.130208 0.195313 0.195313 0.130208 0.195313 0.195313 0.130208 0.130208 0.195313 0.195313 0.130208 0.195313 0.195313 0.130208 0.130209 0.195313 0.195313 0.130208 0.195313 0.195313 0.130208 0.130209 0.195313 0.195313 0.130208 0.195313 0.195313 0.130208 0.130208 0.195313 0.195313 0.130208 0.195313 0.195313 0.130208 0.130208 0.195313 0.195313 0.130208 0.195313 0.195313 0.130208 0.130208 0.195312 0.195313 0.130208 0.195313 0.195312 0.130208 0.130209 0.195313 0.195313 0.130208 0.195313 0.195313 0.130208 0.130209 0.195313 0.195313 0.130208 0.195313 0.195313 0.130209 0.130209 0.195313 0.195313 0.130208 0.195313 0.195313 0.130208 0.130208 0.195313 0.195313 0.130209 0.195313 0.195313 0.130209 0.130209 0.195313 0.195313 0.130208 0.195313 0.195313 0.130208 0.130209 0.195313 0.195313 0.130209 0.195313 0.195313 0.130209 0.130208 0.195313 0.195312 0.130208 0.195313 0.195313 0.130208 0.130208 0.195313 0.195313 0.130208 0.195313 0.195313 0.130208 0.130209 0.195313 0.195313 0.130209 0.195313 0.195313 0.130208 0.130208 0.195312 0.195313 0.130208 0.195313 0.195312 0.130208 0.130209 0.195313 0.195312 0.130209 0.195312 0.195313 0.130208 0.130208 0.195312 0.195313 0.130208 0.195313 0.195312 0.130208 0.130209 0.195313 0.195313 0.130209 0.195313 0.195313 0.130209 0.130208 0.195312 0.195312 0.130208 0.195312 0.195312 0.130208 0.130208 0.195313 0.195313 0.130209 0.195313 0.195313 0.130208 0.130209 0.195313 0.195313 0.130209 0.195313 0.195313 0.130208 0.130209 0.195313 0.0976568 0.130209 0.0976564 0.195313 0.0651045 0.130208 0.195313 0.195313 0.130208 0.195313 0.0976561 0.0651041 0.195313 0.0976564 0.130208 0.130208 0.195313 0.195313 0.130208 0.195313 0.195313 0.130208 0.130208 0.195313 0.195313 0.130208 0.195313 0.195313 0.130208 0.130208 0.195313 0.195313 0.130208 0.195313 0.195313 0.130208 0.130208 0.195313 0.195313 0.130208 0.195313 0.195313 0.130208 0.130208 0.195313 0.195313 0.130208 0.195313 0.195313 0.130208 0.130208 0.195313 0.195312 0.130208 0.195313 0.195313 0.130208 0.130208 0.195312 0.195313 0.130208 0.195313 0.195313 0.130208 0.130208 0.195312 0.195312 0.130208 0.195312 0.195313 0.130208 0.130208 0.195313 0.195313 0.130208 0.195313 0.195313 0.130208 0.130208 0.195313 0.195313 0.130208 0.195313 0.195313 0.130208 0.130208 0.195313 0.195313 0.130208 0.195313 0.195313 0.130208 0.130208 0.195313 0.195313 0.130208 0.195313 0.195313 0.130208 0.130208 0.195313 0.195312 0.130208 0.195313 0.195313 0.130208 0.130208 0.195312 0.195313 0.130208 0.195313 0.195312 0.130208 0.130209 0.195313 0.195313 0.130208 0.195313 0.195313 0.130208 0.130209 0.195313 0.195313 0.130208 0.195313 0.195313 0.130208 0.130208 0.195313 0.195313 0.130208 0.195313 0.195313 0.130208 0.130208 0.195313 0.195313 0.130208 0.195313 0.195313 0.130209 0.130209 0.195313 0.195313 0.130208 0.195313 0.195313 0.130208 0.130209 0.195313 0.195313 0.130209 0.195313 0.195313 0.130209 0.130208 0.195313 0.195312 0.130208 0.195313 0.195313 0.130208 0.130208 0.195313 0.195313 0.130208 0.195313 0.195313 0.130208 0.130208 0.195313 0.195313 0.130208 0.195312 0.195313 0.130208 0.130208 0.195312 0.195313 0.130208 0.195313 0.195312 0.130208 0.130209 0.195313 0.195312 0.130208 0.195312 0.195313 0.130208 0.130208 0.195312 0.195313 0.130208 0.195313 0.195312 0.130208 0.130209 0.195313 0.195313 0.130209 0.195313 0.195313 0.130209 0.130208 0.195312 0.195312 0.130208 0.195312 0.195312 0.130208 0.130208 0.195313 0.195313 0.130208 0.195313 0.195313 0.130208 0.130209 0.195313 0.195313 0.130209 0.195313 0.195313 0.130208 0.130209 0.195313 0.0976568 0.130208 0.0976564 0.195313 0.0651045 0.130208 0.195313 0.195313 0.130208 0.195313 0.0976561 0.0651041 0.195313 0.0976564 0.130208 0.130208 0.195313 0.195313 0.130208 0.195313 0.195313 0.130208 0.130208 0.195313 0.195313 0.130208 0.195313 0.195313 0.130208 0.130208 0.195313 0.195313 0.130208 0.195313 0.195313 0.130208 0.130208 0.195313 0.195313 0.130208 0.195313 0.195313 0.130208 0.130208 0.195313 0.195313 0.130208 0.195313 0.195313 0.130208 0.130208 0.195313 0.195313 0.130208 0.195313 0.195313 0.130208 0.130208 0.195312 0.195313 0.130208 0.195313 0.195313 0.130208 0.130208 0.195313 0.195313 0.130208 0.195313 0.195313 0.130208 0.130208 0.195313 0.195313 0.130208 0.195313 0.195313 0.130208 0.130209 0.195313 0.195313 0.130208 0.195313 0.195313 0.130208 0.130209 0.195313 0.195313 0.130208 0.195313 0.195313 0.130208 0.130208 0.195313 0.195313 0.130208 0.195313 0.195313 0.130208 0.130208 0.195313 0.195313 0.130208 0.195313 0.195313 0.130208 0.130208 0.195312 0.195313 0.130208 0.195313 0.195313 0.130208 0.130209 0.195313 0.195313 0.130208 0.195313 0.195313 0.130208 0.130209 0.195313 0.195313 0.130208 0.195313 0.195313 0.130209 0.130208 0.195313 0.195313 0.130208 0.195313 0.195313 0.130208 0.130208 0.195313 0.195313 0.130209 0.195313 0.195313 0.130209 0.130209 0.195313 0.195313 0.130208 0.195313 0.195313 0.130208 0.130209 0.195313 0.195313 0.130209 0.195313 0.195313 0.130209 0.130209 0.195313 0.195313 0.130208 0.195313 0.195313 0.130208 0.130208 0.195313 0.195313 0.130208 0.195313 0.195313 0.130208 0.130209 0.195313 0.195313 0.130209 0.195313 0.195313 0.130208 0.130208 0.195312 0.195313 0.130208 0.195313 0.195312 0.130208 0.130209 0.195313 0.195312 0.130209 0.195312 0.195313 0.130208 0.130208 0.195312 0.195313 0.130208 0.195313 0.195312 0.130208 0.130209 0.195313 0.195313 0.130209 0.195313 0.195313 0.130209 0.130208 0.195312 0.195312 0.130208 0.195312 0.195312 0.130208 0.130208 0.195313 0.195313 0.130209 0.195313 0.195313 0.130208 0.130209 0.195313 0.195313 0.130209 0.195313 0.195313 0.130208 0.130209 0.195313 0.0976568 0.130208 0.0976564 0.195313 0.0651045 0.130208 0.195313 0.195313 0.130208 0.195313 0.0976561 0.0651042 0.195313 0.0976565 0.130208 0.130208 0.195313 0.195313 0.130208 0.195313 0.195313 0.130208 0.130208 0.195313 0.195313 0.130208 0.195313 0.195313 0.130208 0.130208 0.195313 0.195313 0.130208 0.195313 0.195313 0.130208 0.130208 0.195313 0.195313 0.130208 0.195313 0.195313 0.130208 0.130208 0.195313 0.195313 0.130208 0.195313 0.195313 0.130208 0.130208 0.195313 0.195313 0.130208 0.195313 0.195313 0.130208 0.130208 0.195313 0.195313 0.130208 0.195313 0.195313 0.130208 0.130208 0.195313 0.195313 0.130208 0.195313 0.195313 0.130208 0.130208 0.195313 0.195313 0.130208 0.195313 0.195313 0.130208 0.130209 0.195313 0.195313 0.130209 0.195313 0.195313 0.130209 0.130209 0.195313 0.195313 0.130208 0.195313 0.195313 0.130208 0.130208 0.195313 0.195313 0.130208 0.195313 0.195313 0.130208 0.130208 0.195313 0.195313 0.130208 0.195313 0.195313 0.130208 0.130208 0.195313 0.195313 0.130208 0.195313 0.195313 0.130208 0.130209 0.195313 0.195313 0.130209 0.195313 0.195313 0.130208 0.130209 0.195313 0.195313 0.130209 0.195313 0.195313 0.130209 0.130209 0.195313 0.195313 0.130208 0.195313 0.195313 0.130208 0.130208 0.195313 0.195313 0.130209 0.195313 0.195313 0.130209 0.130209 0.195313 0.195313 0.130209 0.195313 0.195313 0.130208 0.130209 0.195313 0.195313 0.130209 0.195313 0.195313 0.130209 0.130209 0.195313 0.195313 0.130208 0.195313 0.195313 0.130208 0.130208 0.195313 0.195313 0.130208 0.195313 0.195313 0.130208 0.130209 0.195313 0.195313 0.130209 0.195313 0.195313 0.130208 0.130208 0.195312 0.195313 0.130208 0.195313 0.195312 0.130209 0.130209 0.195313 0.195312 0.130209 0.195312 0.195313 0.130208 0.130208 0.195312 0.195313 0.130208 0.195313 0.195312 0.130208 0.130209 0.195313 0.195313 0.130209 0.195313 0.195313 0.130209 0.130208 0.195312 0.195312 0.130208 0.195312 0.195312 0.130208 0.130208 0.195313 0.195313 0.130209 0.195313 0.195313 0.130208 0.130209 0.195313 0.195313 0.130209 0.195313 0.195313 0.130208 0.130209 0.195313 0.0976568 0.130209 0.0976564 0.195313 0.0651045 0.130208 0.195313 0.195313 0.130208 0.195313 0.097656 0.0651042 0.195313 0.0976564 0.130208 0.130208 0.195313 0.195313 0.130208 0.195313 0.195313 0.130208 0.130208 0.195313 0.195313 0.130208 0.195313 0.195313 0.130208 0.130208 0.195313 0.195313 0.130208 0.195313 0.195313 0.130208 0.130208 0.195313 0.195313 0.130208 0.195313 0.195313 0.130208 0.130208 0.195313 0.195313 0.130208 0.195313 0.195313 0.130208 0.130208 0.195313 0.195312 0.130208 0.195313 0.195313 0.130208 0.130208 0.195313 0.195313 0.130208 0.195313 0.195312 0.130208 0.130208 0.195313 0.195312 0.130208 0.195313 0.195312 0.130208 0.130208 0.195313 0.195313 0.130208 0.195313 0.195313 0.130208 0.130208 0.195313 0.195313 0.130208 0.195313 0.195313 0.130209 0.130208 0.195313 0.195313 0.130208 0.195313 0.195313 0.130208 0.130208 0.195313 0.195313 0.130208 0.195313 0.195313 0.130208 0.130208 0.195313 0.195312 0.130208 0.195313 0.195313 0.130208 0.130208 0.195312 0.195313 0.130208 0.195313 0.195312 0.130208 0.130209 0.195313 0.195313 0.130208 0.195313 0.195313 0.130208 0.130209 0.195313 0.195313 0.130208 0.195313 0.195313 0.130209 0.130208 0.195313 0.195313 0.130208 0.195313 0.195313 0.130208 0.130208 0.195313 0.195313 0.130209 0.195313 0.195313 0.130209 0.130209 0.195313 0.195313 0.130208 0.195313 0.195313 0.130208 0.130209 0.195313 0.195313 0.130209 0.195313 0.195313 0.130209 0.130208 0.195313 0.195312 0.130208 0.195313 0.195313 0.130208 0.130208 0.195313 0.195313 0.130208 0.195313 0.195313 0.130208 0.130208 0.195313 0.195313 0.130209 0.195313 0.195313 0.130208 0.130208 0.195312 0.195313 0.130208 0.195313 0.195312 0.130208 0.130209 0.195313 0.195312 0.130209 0.195312 0.195313 0.130208 0.130208 0.195312 0.195313 0.130208 0.195313 0.195312 0.130208 0.130209 0.195313 0.195313 0.130209 0.195313 0.195313 0.130209 0.130208 0.195312 0.195312 0.130208 0.195312 0.195312 0.130208 0.130208 0.195313 0.195313 0.130209 0.195313 0.195313 0.130208 0.130209 0.195313 0.195313 0.130209 0.195313 0.195313 0.130208 0.130209 0.195313 0.0976568 0.130208 0.0976564 0.195313 0.0651045 0.0651044 0.195313 0.0976565 0.130208 0.195313 0.0325521 0.0651041 0.0976564 0.0976564 0.130208 0.0651044 0.195313 0.0976565 0.130208 0.195313 0.0976564 0.130208 0.0651044 0.195313 0.0976565 0.130208 0.195313 0.0976564 0.130208 0.0651044 0.195312 0.0976565 0.130208 0.195313 0.0976564 0.130208 0.0651044 0.195312 0.0976565 0.130208 0.195313 0.0976564 0.130208 0.0651044 0.195313 0.0976565 0.130208 0.195313 0.0976564 0.130208 0.0651044 0.195312 0.0976565 0.130208 0.195312 0.0976564 0.130208 0.0651044 0.195312 0.0976566 0.130208 0.195312 0.0976564 0.130208 0.0651044 0.195312 0.0976565 0.130208 0.195312 0.0976564 0.130208 0.0651044 0.195312 0.0976565 0.130208 0.195313 0.0976564 0.130208 0.0651045 0.195313 0.0976566 0.130208 0.195313 0.0976565 0.130208 0.0651045 0.195313 0.0976566 0.130208 0.195312 0.0976565 0.130208 0.0651044 0.195313 0.0976565 0.130208 0.195313 0.0976564 0.130208 0.0651044 0.195313 0.0976565 0.130208 0.195312 0.0976564 0.130208 0.0651044 0.195312 0.0976566 0.130208 0.195313 0.0976563 0.130208 0.0651045 0.195313 0.0976567 0.130208 0.195313 0.0976565 0.130208 0.0651045 0.195313 0.0976567 0.130208 0.195313 0.0976565 0.130208 0.0651045 0.195313 0.0976565 0.130208 0.195312 0.0976565 0.130208 0.0651044 0.195313 0.0976567 0.130208 0.195313 0.0976564 0.130209 0.0651046 0.195313 0.0976565 0.130208 0.195313 0.0976567 0.130208 0.0651044 0.195313 0.0976566 0.130209 0.195313 0.0976565 0.130208 0.0651044 0.195312 0.0976564 0.130208 0.195313 0.0976564 0.130208 0.0651044 0.195312 0.0976565 0.130208 0.195313 0.0976564 0.130208 0.0651045 0.195313 0.0976566 0.130208 0.195312 0.0976565 0.130208 0.0651043 0.195312 0.0976565 0.130208 0.195313 0.0976563 0.130208 0.0651046 0.195313 0.0976565 0.130208 0.195312 0.0976567 0.130208 0.0651043 0.195312 0.0976565 0.130208 0.195313 0.0976561 0.130208 0.0651046 0.195313 0.0976567 0.130209 0.195313 0.0976566 0.130209 0.0651045 0.195312 0.0976564 0.130208 0.195312 0.0976565 0.130208 0.0651045 0.195313 0.0976566 0.130208 0.195313 0.0976566 0.130208 0.0651046 0.195313 0.0976567 0.130209 0.195313 0.0976567 0.130208 0.0651046 0.195313 0.0651046 0.130208 0.0976563 0.0976565 0.0651044 0.130208 0.195312 0.195312 0.130208 0.195312 0.0976562 0.0651037 0.065104 0.0976559 0.065104 0.195312 0.0976562 0.0976558 0.130208 0.130208 0.195312 0.195312 0.130208 0.195312 0.0976562 0.065104 0.195312 0.0976558 0.130208 0.130208 0.195312 0.195312 0.130208 0.195312 0.0976562 0.065104 0.195312 0.0976558 0.130208 0.130208 0.195312 0.195312 0.130208 0.195312 0.0976561 0.065104 0.195312 0.0976558 0.130208 0.130208 0.195312 0.195312 0.130208 0.195312 0.0976561 0.0651039 0.195312 0.0976559 0.130208 0.130208 0.195312 0.195312 0.130208 0.195312 0.0976562 0.065104 0.195312 0.0976558 0.130208 0.130208 0.195312 0.195312 0.130208 0.195312 0.0976561 0.065104 0.195312 0.0976558 0.130208 0.130208 0.195312 0.195312 0.130208 0.195312 0.0976561 0.0651039 0.195312 0.0976558 0.130208 0.130208 0.195312 0.195312 0.130208 0.195312 0.0976561 0.0651039 0.195312 0.0976558 0.130208 0.130208 0.195312 0.195312 0.130208 0.195312 0.0976561 0.0651039 0.195312 0.0976559 0.130208 0.130208 0.195313 0.195313 0.130208 0.195312 0.0976562 0.065104 0.195312 0.0976559 0.130208 0.130208 0.195313 0.195312 0.130208 0.195312 0.0976561 0.065104 0.195312 0.0976558 0.130208 0.130208 0.195312 0.195312 0.130208 0.195312 0.0976562 0.065104 0.195312 0.0976559 0.130208 0.130208 0.195312 0.195312 0.130208 0.195312 0.0976562 0.065104 0.195312 0.0976558 0.130208 0.130208 0.195312 0.195312 0.130208 0.195312 0.0976561 0.0651039 0.195312 0.0976558 0.130208 0.130208 0.195313 0.195313 0.130208 0.195312 0.0976561 0.065104 0.195312 0.0976559 0.130208 0.130209 0.195313 0.195313 0.130208 0.195312 0.0976562 0.065104 0.195313 0.0976559 0.130208 0.130208 0.195312 0.195312 0.130208 0.195312 0.0976561 0.0651039 0.195312 0.0976559 0.130208 0.130208 0.195313 0.195313 0.130208 0.195313 0.0976563 0.065104 0.195312 0.097656 0.130209 0.130209 0.195313 0.195312 0.130208 0.195312 0.097656 0.0651039 0.195312 0.0976559 0.130208 0.130208 0.195313 0.195313 0.130208 0.195312 0.0976564 0.0651041 0.195313 0.097656 0.130208 0.130208 0.195312 0.195312 0.130208 0.195312 0.0976562 0.065104 0.195312 0.0976558 0.130208 0.130208 0.195312 0.195313 0.130208 0.195312 0.0976562 0.065104 0.195312 0.0976559 0.130208 0.130208 0.195312 0.195312 0.130208 0.195312 0.0976562 0.065104 0.195312 0.0976558 0.130208 0.130208 0.195312 0.195312 0.130208 0.195312 0.097656 0.0651039 0.195312 0.0976559 0.130208 0.130209 0.195313 0.195312 0.130208 0.195312 0.0976561 0.065104 0.195313 0.0976556 0.130208 0.130208 0.195312 0.195312 0.130208 0.195312 0.0976559 0.0651038 0.195312 0.0976559 0.130208 0.130209 0.195313 0.195313 0.130208 0.195313 0.0976563 0.0651041 0.195313 0.0976559 0.130208 0.130208 0.195312 0.195312 0.130208 0.195312 0.0976557 0.0651037 0.195312 0.0976558 0.130208 0.130208 0.195312 0.195313 0.130208 0.195312 0.097656 0.0651039 0.195312 0.097656 0.130208 0.130209 0.195313 0.195312 0.130208 0.195312 0.0976561 0.065104 0.195313 0.0976557 0.130208 0.130209 0.195313 0.0976568 0.130208 0.0976563 0.0976564 0.0651041 0.195313 0.0325522 0.0651045 0.130208 0.195312 0.195312 0.130208 0.195312 0.0976559 0.065104 0.195312 0.0976562 0.130208 0.130208 0.195312 0.195312 0.130208 0.195312 0.195312 0.130208 0.130208 0.195312 0.195312 0.130208 0.195312 0.195312 0.130208 0.130208 0.195312 0.195312 0.130208 0.195312 0.195312 0.130208 0.130208 0.195312 0.195312 0.130208 0.195312 0.195312 0.130208 0.130208 0.195312 0.195312 0.130208 0.195312 0.195312 0.130208 0.130208 0.195312 0.195312 0.130208 0.195312 0.195312 0.130208 0.130208 0.195312 0.195312 0.130208 0.195312 0.195312 0.130208 0.130208 0.195312 0.195312 0.130208 0.195312 0.195312 0.130208 0.130208 0.195312 0.195312 0.130208 0.195312 0.195312 0.130208 0.130208 0.195313 0.195313 0.130208 0.195312 0.195312 0.130208 0.130208 0.195313 0.195312 0.130208 0.195312 0.195312 0.130208 0.130208 0.195312 0.195312 0.130208 0.195312 0.195312 0.130208 0.130208 0.195312 0.195312 0.130208 0.195312 0.195312 0.130208 0.130208 0.195312 0.195312 0.130208 0.195312 0.195312 0.130208 0.130208 0.195313 0.195313 0.130208 0.195312 0.195312 0.130208 0.130209 0.195313 0.195313 0.130208 0.195312 0.195313 0.130208 0.130208 0.195312 0.195312 0.130208 0.195312 0.195312 0.130208 0.130208 0.195313 0.195313 0.130208 0.195313 0.195312 0.130209 0.130209 0.195313 0.195312 0.130208 0.195312 0.195312 0.130208 0.130208 0.195313 0.195313 0.130208 0.195313 0.195313 0.130208 0.130208 0.195312 0.195312 0.130208 0.195312 0.195312 0.130208 0.130208 0.195312 0.195313 0.130208 0.195312 0.195312 0.130208 0.130208 0.195313 0.195312 0.130208 0.195312 0.195312 0.130208 0.130208 0.195312 0.195312 0.130208 0.195312 0.195312 0.130208 0.130209 0.195313 0.195312 0.130208 0.195312 0.195313 0.130208 0.130208 0.195312 0.195312 0.130208 0.195312 0.195312 0.130208 0.130209 0.195313 0.195313 0.130208 0.195313 0.195313 0.130208 0.130208 0.195312 0.195312 0.130208 0.195312 0.195312 0.130208 0.130208 0.195312 0.195313 0.130208 0.195312 0.195312 0.130208 0.130209 0.195313 0.195312 0.130208 0.195312 0.195313 0.130208 0.130209 0.195313 0.0976568 0.130208 0.0976563 0.195313 0.0651045 0.130208 0.195312 0.195312 0.130208 0.195312 0.0976559 0.065104 0.195312 0.0976562 0.130208 0.130208 0.195312 0.195312 0.130208 0.195312 0.195312 0.130208 0.130208 0.195312 0.195312 0.130208 0.195312 0.195312 0.130208 0.130208 0.195312 0.195312 0.130208 0.195312 0.195312 0.130208 0.130208 0.195312 0.195312 0.130208 0.195312 0.195312 0.130208 0.130208 0.195312 0.195312 0.130208 0.195312 0.195312 0.130208 0.130208 0.195312 0.195312 0.130208 0.195312 0.195312 0.130208 0.130208 0.195312 0.195312 0.130208 0.195312 0.195312 0.130208 0.130208 0.195312 0.195312 0.130208 0.195312 0.195312 0.130208 0.130208 0.195312 0.195312 0.130208 0.195312 0.195312 0.130208 0.130208 0.195313 0.195313 0.130208 0.195313 0.195312 0.130208 0.130208 0.195313 0.195312 0.130208 0.195312 0.195312 0.130208 0.130208 0.195312 0.195312 0.130208 0.195312 0.195312 0.130208 0.130208 0.195312 0.195312 0.130208 0.195312 0.195312 0.130208 0.130208 0.195312 0.195312 0.130208 0.195312 0.195312 0.130208 0.130208 0.195313 0.195313 0.130208 0.195312 0.195312 0.130208 0.130209 0.195313 0.195313 0.130208 0.195312 0.195313 0.130208 0.130208 0.195312 0.195312 0.130208 0.195312 0.195312 0.130208 0.130208 0.195313 0.195313 0.130208 0.195313 0.195312 0.130209 0.130209 0.195313 0.195312 0.130208 0.195312 0.195312 0.130208 0.130209 0.195313 0.195313 0.130208 0.195313 0.195313 0.130208 0.130208 0.195312 0.195312 0.130208 0.195312 0.195312 0.130208 0.130208 0.195312 0.195313 0.130208 0.195312 0.195312 0.130208 0.130208 0.195313 0.195312 0.130208 0.195312 0.195312 0.130208 0.130208 0.195312 0.195312 0.130208 0.195312 0.195312 0.130208 0.130209 0.195313 0.195312 0.130208 0.195312 0.195313 0.130208 0.130208 0.195312 0.195312 0.130208 0.195312 0.195312 0.130208 0.130209 0.195313 0.195313 0.130208 0.195313 0.195313 0.130208 0.130208 0.195312 0.195312 0.130208 0.195312 0.195312 0.130208 0.130208 0.195312 0.195313 0.130208 0.195313 0.195312 0.130208 0.130209 0.195313 0.195312 0.130208 0.195312 0.195313 0.130208 0.130209 0.195313 0.0976568 0.130208 0.0976563 0.195313 0.0651045 0.130208 0.195312 0.195312 0.130208 0.195312 0.0976559 0.065104 0.195312 0.0976562 0.130208 0.130208 0.195312 0.195312 0.130208 0.195312 0.195312 0.130208 0.130208 0.195312 0.195312 0.130208 0.195312 0.195312 0.130208 0.130208 0.195312 0.195312 0.130208 0.195312 0.195312 0.130208 0.130208 0.195312 0.195312 0.130208 0.195312 0.195312 0.130208 0.130208 0.195312 0.195312 0.130208 0.195312 0.195312 0.130208 0.130208 0.195312 0.195312 0.130208 0.195312 0.195312 0.130208 0.130208 0.195312 0.195312 0.130208 0.195312 0.195312 0.130208 0.130208 0.195312 0.195312 0.130208 0.195312 0.195312 0.130208 0.130208 0.195312 0.195312 0.130208 0.195312 0.195312 0.130208 0.130208 0.195312 0.195313 0.130208 0.195312 0.195312 0.130208 0.130208 0.195312 0.195312 0.130208 0.195312 0.195312 0.130208 0.130208 0.195312 0.195312 0.130208 0.195312 0.195312 0.130208 0.130208 0.195312 0.195312 0.130208 0.195312 0.195312 0.130208 0.130208 0.195312 0.195312 0.130208 0.195312 0.195312 0.130208 0.130208 0.195312 0.195313 0.130208 0.195312 0.195312 0.130208 0.130209 0.195313 0.195313 0.130208 0.195312 0.195312 0.130208 0.130208 0.195312 0.195312 0.130208 0.195312 0.195312 0.130208 0.130208 0.195313 0.195313 0.130208 0.195313 0.195312 0.130209 0.130209 0.195313 0.195312 0.130208 0.195312 0.195312 0.130208 0.130209 0.195313 0.195313 0.130208 0.195312 0.195313 0.130208 0.130208 0.195312 0.195312 0.130208 0.195312 0.195312 0.130208 0.130208 0.195312 0.195312 0.130208 0.195312 0.195312 0.130208 0.130208 0.195312 0.195312 0.130208 0.195312 0.195312 0.130208 0.130208 0.195312 0.195312 0.130208 0.195312 0.195312 0.130208 0.130209 0.195313 0.195312 0.130208 0.195312 0.195313 0.130208 0.130208 0.195312 0.195312 0.130208 0.195312 0.195312 0.130208 0.130209 0.195313 0.195313 0.130208 0.195313 0.195313 0.130208 0.130208 0.195312 0.195312 0.130208 0.195312 0.195312 0.130208 0.130208 0.195312 0.195313 0.130208 0.195312 0.195312 0.130208 0.130209 0.195313 0.195312 0.130208 0.195312 0.195313 0.130208 0.130209 0.195313 0.0976568 0.130208 0.0976563 0.195313 0.0651045 0.130208 0.195312 0.195312 0.130208 0.195312 0.0976559 0.065104 0.195312 0.0976562 0.130208 0.130208 0.195312 0.195312 0.130208 0.195312 0.195312 0.130208 0.130208 0.195312 0.195312 0.130208 0.195312 0.195312 0.130208 0.130208 0.195312 0.195312 0.130208 0.195312 0.195312 0.130208 0.130208 0.195312 0.195312 0.130208 0.195312 0.195312 0.130208 0.130208 0.195312 0.195312 0.130208 0.195312 0.195312 0.130208 0.130208 0.195312 0.195312 0.130208 0.195312 0.195312 0.130208 0.130208 0.195312 0.195312 0.130208 0.195312 0.195312 0.130208 0.130208 0.195312 0.195312 0.130208 0.195312 0.195312 0.130208 0.130208 0.195312 0.195312 0.130208 0.195312 0.195312 0.130208 0.130208 0.195313 0.195313 0.130208 0.195312 0.195312 0.130208 0.130208 0.195313 0.195312 0.130208 0.195312 0.195312 0.130208 0.130208 0.195312 0.195313 0.130208 0.195312 0.195312 0.130208 0.130208 0.195312 0.195312 0.130208 0.195312 0.195312 0.130208 0.130208 0.195312 0.195312 0.130208 0.195312 0.195312 0.130208 0.130208 0.195313 0.195313 0.130208 0.195312 0.195312 0.130208 0.130209 0.195313 0.195313 0.130208 0.195312 0.195313 0.130208 0.130208 0.195312 0.195312 0.130208 0.195312 0.195312 0.130208 0.130208 0.195313 0.195313 0.130208 0.195313 0.195312 0.130209 0.130209 0.195313 0.195313 0.130208 0.195312 0.195312 0.130208 0.130209 0.195313 0.195313 0.130208 0.195313 0.195313 0.130208 0.130208 0.195312 0.195312 0.130208 0.195312 0.195312 0.130208 0.130208 0.195312 0.195313 0.130208 0.195312 0.195312 0.130208 0.130208 0.195313 0.195312 0.130208 0.195312 0.195312 0.130208 0.130208 0.195312 0.195312 0.130208 0.195312 0.195312 0.130208 0.130209 0.195313 0.195312 0.130208 0.195312 0.195313 0.130208 0.130208 0.195312 0.195312 0.130208 0.195312 0.195312 0.130208 0.130209 0.195313 0.195313 0.130208 0.195313 0.195313 0.130208 0.130208 0.195312 0.195312 0.130208 0.195312 0.195312 0.130208 0.130208 0.195312 0.195313 0.130208 0.195312 0.195312 0.130208 0.130209 0.195313 0.195312 0.130208 0.195312 0.195313 0.130208 0.130209 0.195313 0.0976568 0.130208 0.0976563 0.195313 0.0651045 0.130208 0.195312 0.195312 0.130208 0.195312 0.0976559 0.0651041 0.195312 0.0976563 0.130208 0.130208 0.195312 0.195312 0.130208 0.195312 0.195312 0.130208 0.130208 0.195312 0.195312 0.130208 0.195312 0.195312 0.130208 0.130208 0.195312 0.195312 0.130208 0.195312 0.195312 0.130208 0.130208 0.195312 0.195312 0.130208 0.195312 0.195312 0.130208 0.130208 0.195313 0.195312 0.130208 0.195312 0.195312 0.130208 0.130208 0.195312 0.195312 0.130208 0.195312 0.195312 0.130208 0.130208 0.195312 0.195312 0.130208 0.195312 0.195312 0.130208 0.130208 0.195312 0.195312 0.130208 0.195312 0.195312 0.130208 0.130208 0.195312 0.195312 0.130208 0.195312 0.195312 0.130208 0.130208 0.195313 0.195313 0.130208 0.195313 0.195312 0.130208 0.130208 0.195313 0.195312 0.130208 0.195312 0.195312 0.130208 0.130208 0.195312 0.195312 0.130208 0.195312 0.195312 0.130208 0.130208 0.195313 0.195312 0.130208 0.195312 0.195312 0.130208 0.130208 0.195312 0.195312 0.130208 0.195312 0.195312 0.130208 0.130209 0.195313 0.195313 0.130208 0.195313 0.195312 0.130208 0.130209 0.195313 0.195313 0.130208 0.195313 0.195313 0.130208 0.130208 0.195313 0.195312 0.130208 0.195312 0.195312 0.130208 0.130208 0.195313 0.195313 0.130208 0.195313 0.195313 0.130209 0.130209 0.195313 0.195312 0.130208 0.195312 0.195312 0.130208 0.130209 0.195313 0.195313 0.130208 0.195313 0.195313 0.130209 0.130208 0.195313 0.195312 0.130208 0.195312 0.195312 0.130208 0.130208 0.195312 0.195313 0.130208 0.195312 0.195312 0.130208 0.130208 0.195313 0.195312 0.130208 0.195312 0.195312 0.130208 0.130208 0.195312 0.195312 0.130208 0.195313 0.195312 0.130208 0.130209 0.195313 0.195312 0.130208 0.195312 0.195313 0.130208 0.130208 0.195312 0.195312 0.130208 0.195312 0.195312 0.130208 0.130209 0.195313 0.195313 0.130208 0.195313 0.195313 0.130209 0.130208 0.195312 0.195312 0.130208 0.195312 0.195312 0.130208 0.130208 0.195313 0.195313 0.130208 0.195313 0.195312 0.130208 0.130209 0.195313 0.195312 0.130208 0.195312 0.195313 0.130208 0.130209 0.195313 0.0976569 0.130208 0.0976563 0.195313 0.0651045 0.130208 0.195312 0.195312 0.130208 0.195312 0.0976558 0.065104 0.195312 0.0976562 0.130208 0.130208 0.195312 0.195312 0.130208 0.195312 0.195312 0.130208 0.130208 0.195312 0.195312 0.130208 0.195312 0.195312 0.130208 0.130208 0.195312 0.195312 0.130208 0.195312 0.195312 0.130208 0.130208 0.195312 0.195312 0.130208 0.195312 0.195312 0.130208 0.130208 0.195312 0.195312 0.130208 0.195312 0.195312 0.130208 0.130208 0.195312 0.195312 0.130208 0.195312 0.195312 0.130208 0.130208 0.195312 0.195312 0.130208 0.195312 0.195312 0.130208 0.130208 0.195312 0.195312 0.130208 0.195312 0.195312 0.130208 0.130208 0.195312 0.195312 0.130208 0.195312 0.195312 0.130208 0.130208 0.195313 0.195312 0.130208 0.195312 0.195312 0.130208 0.130208 0.195313 0.195312 0.130208 0.195312 0.195312 0.130208 0.130208 0.195312 0.195312 0.130208 0.195312 0.195312 0.130208 0.130208 0.195312 0.195312 0.130208 0.195312 0.195312 0.130208 0.130208 0.195312 0.195312 0.130208 0.195312 0.195312 0.130208 0.130208 0.195313 0.195313 0.130208 0.195312 0.195312 0.130208 0.130208 0.195313 0.195313 0.130208 0.195312 0.195312 0.130208 0.130208 0.195312 0.195312 0.130208 0.195312 0.195312 0.130208 0.130208 0.195313 0.195313 0.130208 0.195313 0.195312 0.130209 0.130209 0.195313 0.195312 0.130208 0.195312 0.195312 0.130208 0.130208 0.195313 0.195313 0.130208 0.195313 0.195313 0.130208 0.130208 0.195312 0.195312 0.130208 0.195312 0.195312 0.130208 0.130208 0.195312 0.195312 0.130208 0.195312 0.195312 0.130208 0.130208 0.195313 0.195312 0.130208 0.195312 0.195312 0.130208 0.130208 0.195312 0.195312 0.130208 0.195313 0.195312 0.130208 0.130209 0.195313 0.195312 0.130208 0.195312 0.195312 0.130208 0.130208 0.195312 0.195312 0.130208 0.195312 0.195312 0.130208 0.130209 0.195313 0.195313 0.130208 0.195313 0.195313 0.130208 0.130208 0.195312 0.195312 0.130208 0.195312 0.195312 0.130208 0.130208 0.195312 0.195313 0.130208 0.195312 0.195312 0.130208 0.130209 0.195313 0.195312 0.130208 0.195312 0.195313 0.130208 0.130209 0.195313 0.0976568 0.130208 0.0976563 0.195313 0.0651045 0.0651044 0.195312 0.0976566 0.130208 0.195312 0.0325521 0.065104 0.0976562 0.0976562 0.130208 0.0651044 0.195312 0.0976566 0.130208 0.195312 0.0976562 0.130208 0.0651044 0.195312 0.0976565 0.130208 0.195312 0.0976562 0.130208 0.0651044 0.195312 0.0976566 0.130208 0.195312 0.0976562 0.130208 0.0651044 0.195312 0.0976565 0.130208 0.195312 0.0976562 0.130208 0.0651044 0.195312 0.0976565 0.130208 0.195312 0.0976562 0.130208 0.0651044 0.195312 0.0976565 0.130208 0.195312 0.0976561 0.130208 0.0651044 0.195312 0.0976566 0.130208 0.195312 0.0976561 0.130208 0.0651044 0.195312 0.0976565 0.130208 0.195312 0.0976562 0.130208 0.0651044 0.195312 0.0976566 0.130208 0.195312 0.0976562 0.130208 0.0651045 0.195312 0.0976566 0.130208 0.195312 0.0976562 0.130208 0.0651045 0.195312 0.0976566 0.130208 0.195312 0.0976563 0.130208 0.0651044 0.195312 0.0976565 0.130208 0.195312 0.0976561 0.130208 0.0651044 0.195312 0.0976565 0.130208 0.195312 0.0976562 0.130208 0.0651044 0.195312 0.0976566 0.130208 0.195312 0.0976561 0.130208 0.0651045 0.195312 0.0976567 0.130208 0.195312 0.0976563 0.130208 0.0651045 0.195313 0.0976567 0.130208 0.195312 0.0976563 0.130208 0.0651045 0.195312 0.0976565 0.130208 0.195312 0.0976563 0.130208 0.0651044 0.195312 0.0976567 0.130208 0.195313 0.0976562 0.130208 0.0651046 0.195312 0.0976565 0.130208 0.195312 0.0976564 0.130208 0.0651044 0.195313 0.0976567 0.130208 0.195312 0.0976563 0.130208 0.0651044 0.195312 0.0976564 0.130208 0.195312 0.0976562 0.130208 0.0651044 0.195312 0.0976566 0.130208 0.195312 0.0976561 0.130208 0.0651045 0.195312 0.0976566 0.130208 0.195312 0.0976562 0.130208 0.0651043 0.195312 0.0976565 0.130208 0.195312 0.097656 0.130208 0.0651046 0.195313 0.0976565 0.130208 0.195312 0.0976564 0.130208 0.0651043 0.195312 0.0976565 0.130208 0.195312 0.0976559 0.130208 0.0651046 0.195313 0.0976568 0.130208 0.195313 0.0976564 0.130208 0.0651045 0.195312 0.0976564 0.130208 0.195312 0.0976563 0.130208 0.0651045 0.195312 0.0976566 0.130208 0.195312 0.0976564 0.130208 0.0651046 0.195313 0.0976567 0.130208 0.195312 0.0976565 0.130208 0.0651046 0.195313 0.0651046 0.130208 0.0976562 0.0976563 0.0651045 0.130209 0.195313 0.195313 0.0651043 0.0976565 0.0325522 0.0651043 0.0651043 0.0976565 0.0651043 0.0976565 0.0325521 0.0976565 0.130209 0.130209 0.195313 0.195313 0.0651043 0.0976564 0.0325522 0.0651043 0.0976565 0.0976565 0.130209 0.130209 0.195313 0.195313 0.0651043 0.0976565 0.0325522 0.0651043 0.0976565 0.0976565 0.130209 0.130209 0.195313 0.195313 0.0651043 0.0976564 0.0325522 0.0651043 0.0976565 0.0976564 0.130209 0.130209 0.195313 0.195313 0.0651043 0.0976565 0.0325522 0.0651043 0.0976565 0.0976565 0.130209 0.130209 0.195313 0.195313 0.0651043 0.0976565 0.0325522 0.0651044 0.0976565 0.0976565 0.130209 0.130209 0.195313 0.195313 0.0651043 0.0976564 0.0325522 0.0651043 0.0976565 0.0976564 0.130209 0.130209 0.195313 0.195313 0.0651042 0.0976564 0.0325522 0.0651043 0.0976564 0.0976564 0.130209 0.130209 0.195313 0.195313 0.0651043 0.0976564 0.0325522 0.0651043 0.0976565 0.0976564 0.130209 0.130209 0.195313 0.195313 0.0651043 0.0976565 0.0325522 0.0651043 0.0976565 0.0976565 0.130209 0.130209 0.195313 0.195313 0.0651043 0.0976565 0.0325522 0.0651044 0.0976565 0.0976565 0.130209 0.130209 0.195313 0.195313 0.0651043 0.0976564 0.0325522 0.0651043 0.0976566 0.0976564 0.130209 0.130209 0.195313 0.195313 0.0651043 0.0976565 0.0325522 0.0651044 0.0976565 0.0976565 0.130209 0.130209 0.195313 0.195313 0.0651043 0.0976565 0.0325522 0.0651044 0.0976565 0.0976564 0.130209 0.130209 0.195313 0.195313 0.0651043 0.0976564 0.0325522 0.0651043 0.0976564 0.0976565 0.130209 0.130209 0.195313 0.195313 0.0651043 0.0976565 0.0325522 0.0651043 0.0976565 0.0976565 0.130209 0.130209 0.195313 0.195313 0.0651043 0.0976565 0.0325522 0.0651044 0.0976566 0.0976565 0.130209 0.130209 0.195313 0.195313 0.0651044 0.0976565 0.0325522 0.0651043 0.0976566 0.0976565 0.130209 0.130209 0.195313 0.195313 0.0651044 0.0976566 0.0325522 0.0651044 0.0976566 0.0976566 0.130209 0.130209 0.195313 0.195313 0.0651044 0.0976565 0.0325522 0.0651043 0.0976567 0.0976565 0.130209 0.130209 0.195313 0.195313 0.0651045 0.0976566 0.0325522 0.0651045 0.0976567 0.0976566 0.130209 0.130209 0.195313 0.195313 0.0651043 0.0976565 0.0325522 0.0651044 0.0976566 0.0976565 0.130208 0.130209 0.195313 0.195313 0.0651043 0.0976565 0.0325522 0.0651044 0.0976564 0.0976565 0.130209 0.130209 0.195313 0.195313 0.0651044 0.0976565 0.0325522 0.0651044 0.0976565 0.0976564 0.130209 0.130209 0.195313 0.195313 0.0651043 0.0976565 0.0325522 0.0651043 0.0976564 0.0976565 0.130209 0.130209 0.195313 0.195313 0.0651044 0.0976563 0.0325522 0.0651043 0.0976567 0.0976562 0.130208 0.130208 0.195312 0.195313 0.0651041 0.0976563 0.0325521 0.0651042 0.0976562 0.0976565 0.130209 0.130209 0.195313 0.195313 0.0651044 0.0976566 0.0325523 0.0651045 0.0976567 0.0976565 0.130209 0.130209 0.195313 0.195313 0.0651044 0.0976564 0.0325522 0.0651041 0.0976566 0.0976565 0.130208 0.130209 0.195313 0.195313 0.0651045 0.0976565 0.0325523 0.0651043 0.0976567 0.0976565 0.130209 0.130209 0.195313 0.195313 0.0651045 0.0976564 0.0325523 0.0651044 0.0976568 0.0976563 0.130209 0.130209 0.195313 0.0976567 0.0651042 0.0651044 0.0325522 0.0651044 0.0976565 0.0325523 0.0651045 0.130209 0.195313 0.195313 0.0651043 0.0976565 0.0976565 0.0651043 0.0976565 0.0325521 0.130209 0.130209 0.195313 0.195313 0.0651043 0.0976565 0.0976565 0.130209 0.130209 0.195313 0.195313 0.0651043 0.0976565 0.0976565 0.130209 0.130209 0.195313 0.195313 0.0651043 0.0976565 0.0976565 0.130209 0.130209 0.195313 0.195313 0.0651043 0.0976565 0.0976565 0.130209 0.130209 0.195313 0.195313 0.0651043 0.0976565 0.0976565 0.130209 0.130209 0.195313 0.195313 0.0651043 0.0976564 0.0976565 0.130209 0.130209 0.195313 0.195313 0.0651042 0.0976564 0.0976564 0.130209 0.130209 0.195313 0.195313 0.0651043 0.0976564 0.0976565 0.130209 0.130209 0.195313 0.195313 0.0651043 0.0976565 0.0976565 0.130209 0.130209 0.195313 0.195313 0.0651044 0.0976565 0.0976565 0.130209 0.130209 0.195313 0.195313 0.0651043 0.0976565 0.0976566 0.130209 0.130209 0.195313 0.195313 0.0651043 0.0976565 0.0976565 0.130209 0.130209 0.195313 0.195313 0.0651044 0.0976565 0.0976565 0.130209 0.130209 0.195313 0.195313 0.0651043 0.0976564 0.0976564 0.130209 0.130209 0.195313 0.195313 0.0651043 0.0976565 0.0976565 0.130209 0.130209 0.195313 0.195313 0.0651043 0.0976565 0.0976566 0.130209 0.130209 0.195313 0.195313 0.0651044 0.0976565 0.0976566 0.130209 0.130209 0.195313 0.195313 0.0651044 0.0976566 0.0976566 0.130209 0.130209 0.195313 0.195313 0.0651044 0.0976565 0.0976567 0.130209 0.130209 0.195313 0.195313 0.0651045 0.0976566 0.0976567 0.130209 0.130209 0.195313 0.195313 0.0651044 0.0976565 0.0976566 0.130208 0.130209 0.195313 0.195313 0.0651043 0.0976565 0.0976565 0.130209 0.130209 0.195313 0.195313 0.0651044 0.0976565 0.0976565 0.130209 0.130209 0.195313 0.195313 0.0651043 0.0976565 0.0976564 0.130209 0.130209 0.195313 0.195313 0.0651044 0.0976563 0.0976567 0.130208 0.130208 0.195312 0.195313 0.0651041 0.0976564 0.0976562 0.130209 0.130209 0.195313 0.195313 0.0651044 0.0976567 0.0976567 0.130209 0.130209 0.195313 0.195313 0.0651044 0.0976564 0.0976566 0.130208 0.130209 0.195313 0.195313 0.0651045 0.0976566 0.0976567 0.130209 0.130209 0.195313 0.195313 0.0651045 0.0976564 0.0976568 0.130209 0.130209 0.195313 0.0976568 0.0651042 0.0651044 0.0976565 0.0651045 0.130209 0.195313 0.195313 0.0651043 0.0976565 0.0976565 0.0651043 0.0976565 0.0325521 0.130209 0.130209 0.195313 0.195313 0.0651043 0.0976565 0.0976565 0.130209 0.130209 0.195313 0.195313 0.0651043 0.0976565 0.0976565 0.130209 0.130209 0.195313 0.195313 0.0651043 0.0976565 0.0976565 0.130209 0.130209 0.195313 0.195313 0.0651043 0.0976565 0.0976565 0.130209 0.130209 0.195313 0.195313 0.0651043 0.0976565 0.0976565 0.130209 0.130209 0.195313 0.195313 0.0651043 0.0976564 0.0976565 0.130209 0.130209 0.195313 0.195313 0.0651042 0.0976564 0.0976564 0.130209 0.130209 0.195313 0.195313 0.0651043 0.0976564 0.0976565 0.130209 0.130209 0.195313 0.195313 0.0651043 0.0976565 0.0976565 0.130209 0.130209 0.195313 0.195313 0.0651044 0.0976565 0.0976566 0.130209 0.130209 0.195313 0.195313 0.0651043 0.0976565 0.0976566 0.130209 0.130209 0.195313 0.195313 0.0651043 0.0976565 0.0976565 0.130209 0.130209 0.195313 0.195313 0.0651044 0.0976565 0.0976565 0.130209 0.130209 0.195313 0.195313 0.0651043 0.0976564 0.0976564 0.130209 0.130209 0.195313 0.195313 0.0651043 0.0976565 0.0976565 0.130209 0.130209 0.195313 0.195313 0.0651043 0.0976565 0.0976566 0.130209 0.130209 0.195313 0.195313 0.0651044 0.0976565 0.0976566 0.130209 0.130209 0.195313 0.195313 0.0651044 0.0976566 0.0976566 0.130209 0.130209 0.195313 0.195313 0.0651044 0.0976565 0.0976567 0.130209 0.130209 0.195313 0.195313 0.0651045 0.0976566 0.0976567 0.130209 0.130209 0.195313 0.195313 0.0651044 0.0976565 0.0976566 0.130208 0.130209 0.195313 0.195313 0.0651043 0.0976565 0.0976565 0.130209 0.130209 0.195313 0.195313 0.0651044 0.0976565 0.0976566 0.130209 0.130209 0.195313 0.195313 0.0651043 0.0976565 0.0976565 0.130209 0.130209 0.195313 0.195313 0.0651044 0.0976564 0.0976567 0.130208 0.130208 0.195312 0.195313 0.0651041 0.0976564 0.0976562 0.130209 0.130209 0.195313 0.195313 0.0651044 0.0976567 0.0976567 0.130209 0.130209 0.195313 0.195313 0.0651044 0.0976564 0.0976566 0.130208 0.130209 0.195313 0.195313 0.0651045 0.0976566 0.0976568 0.130209 0.130209 0.195313 0.195313 0.0651046 0.0976564 0.0976569 0.130209 0.130209 0.195313 0.0976567 0.0651042 0.0651044 0.0976565 0.0651045 0.130209 0.195313 0.195313 0.0651043 0.0976565 0.0976565 0.0651043 0.0976565 0.0325521 0.130209 0.130209 0.195313 0.195313 0.0651043 0.0976564 0.0976565 0.130209 0.130209 0.195313 0.195313 0.0651043 0.0976565 0.0976565 0.130209 0.130209 0.195313 0.195313 0.0651043 0.0976564 0.0976565 0.130209 0.130209 0.195313 0.195313 0.0651043 0.0976564 0.0976565 0.130209 0.130209 0.195313 0.195313 0.0651043 0.0976565 0.0976565 0.130209 0.130209 0.195313 0.195313 0.0651043 0.0976564 0.0976565 0.130209 0.130209 0.195313 0.195313 0.0651042 0.0976564 0.0976564 0.130209 0.130209 0.195313 0.195313 0.0651043 0.0976564 0.0976565 0.130208 0.130209 0.195313 0.195313 0.0651043 0.0976565 0.0976565 0.130209 0.130209 0.195313 0.195313 0.0651043 0.0976565 0.0976565 0.130209 0.130209 0.195313 0.195313 0.0651043 0.0976564 0.0976565 0.130209 0.130209 0.195313 0.195313 0.0651043 0.0976565 0.0976565 0.130209 0.130209 0.195313 0.195313 0.0651043 0.0976565 0.0976565 0.130209 0.130209 0.195313 0.195313 0.0651043 0.0976564 0.0976564 0.130209 0.130209 0.195313 0.195313 0.0651043 0.0976565 0.0976565 0.130209 0.130209 0.195313 0.195313 0.0651043 0.0976565 0.0976566 0.130209 0.130209 0.195313 0.195313 0.0651044 0.0976565 0.0976566 0.130209 0.130209 0.195313 0.195313 0.0651044 0.0976566 0.0976565 0.130209 0.130209 0.195313 0.195313 0.0651044 0.0976565 0.0976567 0.130209 0.130209 0.195313 0.195313 0.0651045 0.0976566 0.0976567 0.130209 0.130209 0.195313 0.195313 0.0651043 0.0976565 0.0976565 0.130208 0.130209 0.195313 0.195313 0.0651043 0.0976565 0.0976564 0.130209 0.130209 0.195313 0.195313 0.0651044 0.0976565 0.0976565 0.130208 0.130208 0.195313 0.195313 0.0651043 0.0976565 0.0976564 0.130209 0.130209 0.195313 0.195313 0.0651044 0.0976563 0.0976567 0.130208 0.130208 0.195312 0.195313 0.0651041 0.0976563 0.0976562 0.130209 0.130209 0.195313 0.195313 0.0651044 0.0976566 0.0976567 0.130209 0.130209 0.195313 0.195313 0.0651044 0.0976564 0.0976566 0.130208 0.130209 0.195313 0.195313 0.0651045 0.0976565 0.0976567 0.130209 0.130209 0.195313 0.195313 0.0651045 0.0976564 0.0976568 0.130209 0.130209 0.195313 0.0976567 0.0651042 0.0651044 0.0976565 0.0651045 0.130209 0.195313 0.195313 0.0651043 0.0976565 0.0976565 0.0651043 0.0976565 0.0325521 0.130209 0.130209 0.195313 0.195313 0.0651043 0.0976564 0.0976565 0.130209 0.130209 0.195313 0.195313 0.0651043 0.0976565 0.0976565 0.130209 0.130209 0.195313 0.195313 0.0651043 0.0976564 0.0976565 0.130209 0.130209 0.195313 0.195313 0.0651043 0.0976565 0.0976565 0.130209 0.130209 0.195313 0.195313 0.0651043 0.0976565 0.0976565 0.130209 0.130209 0.195313 0.195313 0.0651043 0.0976564 0.0976565 0.130209 0.130209 0.195313 0.195313 0.0651042 0.0976564 0.0976564 0.130209 0.130209 0.195313 0.195313 0.0651043 0.0976564 0.0976565 0.130209 0.130209 0.195313 0.195313 0.0651043 0.0976565 0.0976565 0.130209 0.130209 0.195313 0.195313 0.0651043 0.0976565 0.0976565 0.130209 0.130209 0.195313 0.195313 0.0651043 0.0976564 0.0976566 0.130209 0.130209 0.195313 0.195313 0.0651043 0.0976565 0.0976565 0.130209 0.130209 0.195313 0.195313 0.0651043 0.0976565 0.0976565 0.130209 0.130209 0.195313 0.195313 0.0651043 0.0976564 0.0976564 0.130209 0.130209 0.195313 0.195313 0.0651043 0.0976565 0.0976565 0.130209 0.130209 0.195313 0.195313 0.0651043 0.0976565 0.0976566 0.130209 0.130209 0.195313 0.195313 0.0651044 0.0976565 0.0976566 0.130209 0.130209 0.195313 0.195313 0.0651044 0.0976566 0.0976566 0.130209 0.130209 0.195313 0.195313 0.0651044 0.0976565 0.0976567 0.130209 0.130209 0.195313 0.195313 0.0651045 0.0976566 0.0976567 0.130209 0.130209 0.195313 0.195313 0.0651043 0.0976565 0.0976566 0.130208 0.130209 0.195313 0.195313 0.0651043 0.0976565 0.0976565 0.130209 0.130209 0.195313 0.195313 0.0651044 0.0976565 0.0976565 0.130209 0.130209 0.195313 0.195313 0.0651043 0.0976565 0.0976564 0.130209 0.130209 0.195313 0.195313 0.0651044 0.0976563 0.0976567 0.130208 0.130208 0.195312 0.195313 0.0651041 0.0976563 0.0976562 0.130209 0.130209 0.195313 0.195313 0.0651044 0.0976566 0.0976567 0.130209 0.130209 0.195313 0.195313 0.0651044 0.0976564 0.0976566 0.130208 0.130209 0.195313 0.195313 0.0651045 0.0976566 0.0976567 0.130209 0.130209 0.195313 0.195313 0.0651045 0.0976564 0.0976569 0.130209 0.130209 0.195313 0.0976568 0.0651042 0.0651044 0.0976565 0.0651045 0.130209 0.195313 0.195313 0.0651043 0.0976565 0.0976565 0.0651043 0.0976565 0.0325521 0.130209 0.130209 0.195313 0.195313 0.0651043 0.0976565 0.0976565 0.130209 0.130209 0.195313 0.195313 0.0651043 0.0976565 0.0976565 0.130209 0.130209 0.195313 0.195313 0.0651043 0.0976565 0.0976565 0.130209 0.130209 0.195313 0.195313 0.0651043 0.0976565 0.0976565 0.130209 0.130209 0.195313 0.195313 0.0651044 0.0976565 0.0976565 0.130209 0.130209 0.195313 0.195313 0.0651043 0.0976564 0.0976565 0.130209 0.130209 0.195313 0.195313 0.0651043 0.0976564 0.0976564 0.130209 0.130209 0.195313 0.195313 0.0651043 0.0976564 0.0976565 0.130209 0.130209 0.195313 0.195313 0.0651043 0.0976565 0.0976565 0.130209 0.130209 0.195313 0.195313 0.0651044 0.0976565 0.0976566 0.130209 0.130209 0.195313 0.195313 0.0651044 0.0976565 0.0976566 0.130209 0.130209 0.195313 0.195313 0.0651043 0.0976565 0.0976565 0.130209 0.130209 0.195313 0.195313 0.0651044 0.0976565 0.0976565 0.130209 0.130209 0.195313 0.195313 0.0651043 0.0976565 0.0976564 0.130209 0.130209 0.195313 0.195313 0.0651043 0.0976565 0.0976566 0.130209 0.130209 0.195313 0.195313 0.0651044 0.0976566 0.0976566 0.130209 0.130209 0.195313 0.195313 0.0651044 0.0976565 0.0976566 0.130209 0.130209 0.195313 0.195313 0.0651044 0.0976566 0.0976566 0.130209 0.130209 0.195313 0.195313 0.0651045 0.0976565 0.0976568 0.130209 0.130209 0.195313 0.195313 0.0651045 0.0976566 0.0976567 0.130209 0.130209 0.195313 0.195313 0.0651044 0.0976565 0.0976566 0.130209 0.130209 0.195313 0.195313 0.0651044 0.0976565 0.0976565 0.130209 0.130209 0.195313 0.195313 0.0651044 0.0976565 0.0976566 0.130209 0.130209 0.195313 0.195313 0.0651043 0.0976565 0.0976565 0.130209 0.130209 0.195313 0.195313 0.0651044 0.0976564 0.0976567 0.130208 0.130208 0.195313 0.195313 0.0651042 0.0976564 0.0976562 0.130209 0.130209 0.195313 0.195313 0.0651045 0.0976567 0.0976567 0.130209 0.130209 0.195313 0.195313 0.0651044 0.0976564 0.0976566 0.130208 0.130209 0.195313 0.195313 0.0651046 0.0976566 0.0976568 0.130209 0.130209 0.195313 0.195313 0.0651046 0.0976565 0.0976569 0.130209 0.130209 0.195313 0.0976568 0.0651043 0.0651044 0.0976565 0.0651045 0.130209 0.195313 0.195313 0.0651043 0.0976564 0.0976564 0.0651043 0.0976565 0.0325521 0.130209 0.130209 0.195313 0.195313 0.0651043 0.0976564 0.0976565 0.130209 0.130209 0.195313 0.195313 0.0651043 0.0976565 0.0976565 0.130209 0.130209 0.195313 0.195313 0.0651043 0.0976564 0.0976565 0.130209 0.130209 0.195313 0.195313 0.0651043 0.0976564 0.0976565 0.130209 0.130209 0.195313 0.195313 0.0651043 0.0976565 0.0976565 0.130209 0.130209 0.195313 0.195313 0.0651043 0.0976564 0.0976564 0.130209 0.130209 0.195313 0.195313 0.0651042 0.0976564 0.0976564 0.130209 0.130209 0.195313 0.195313 0.0651043 0.0976564 0.0976565 0.130209 0.130209 0.195313 0.195313 0.0651043 0.0976565 0.0976565 0.130209 0.130209 0.195313 0.195313 0.0651043 0.0976565 0.0976565 0.130209 0.130209 0.195313 0.195313 0.0651043 0.0976564 0.0976565 0.130209 0.130209 0.195313 0.195313 0.0651043 0.0976565 0.0976564 0.130209 0.130209 0.195313 0.195313 0.0651043 0.0976565 0.0976565 0.130209 0.130209 0.195313 0.195313 0.0651043 0.0976564 0.0976564 0.130209 0.130209 0.195313 0.195313 0.0651043 0.0976564 0.0976565 0.130209 0.130209 0.195313 0.195313 0.0651043 0.0976565 0.0976566 0.130209 0.130209 0.195313 0.195313 0.0651044 0.0976565 0.0976566 0.130209 0.130209 0.195313 0.195313 0.0651044 0.0976566 0.0976565 0.130209 0.130209 0.195313 0.195313 0.0651044 0.0976565 0.0976567 0.130209 0.130209 0.195313 0.195313 0.0651044 0.0976565 0.0976567 0.130209 0.130209 0.195313 0.195313 0.0651043 0.0976565 0.0976565 0.130209 0.130209 0.195313 0.195313 0.0651043 0.0976565 0.0976564 0.130209 0.130209 0.195313 0.195313 0.0651044 0.0976565 0.0976565 0.130209 0.130208 0.195313 0.195313 0.0651043 0.0976565 0.0976564 0.130209 0.130209 0.195313 0.195313 0.0651044 0.0976563 0.0976567 0.130208 0.130208 0.195312 0.195313 0.0651041 0.0976563 0.0976562 0.130209 0.130209 0.195313 0.195313 0.0651044 0.0976566 0.0976567 0.130209 0.130209 0.195313 0.195313 0.0651044 0.0976564 0.0976566 0.130208 0.130209 0.195313 0.195313 0.0651045 0.0976565 0.0976567 0.130209 0.130209 0.195313 0.195313 0.0651045 0.0976564 0.0976568 0.130209 0.130209 0.195313 0.0976567 0.0651042 0.0651044 0.0976565 0.0651045 0.0651044 0.195313 0.0976565 0.0651042 0.0976564 0.0325522 0.0651043 0.0651043 0.0325521 0.130209 0.0651044 0.195313 0.0976565 0.0651042 0.0976564 0.0651043 0.130209 0.0651044 0.195313 0.0976565 0.0651042 0.0976564 0.0651043 0.130209 0.0651043 0.195313 0.0976565 0.0651043 0.0976564 0.0651043 0.130209 0.0651044 0.195313 0.0976565 0.0651042 0.0976564 0.0651043 0.130209 0.0651044 0.195313 0.0976564 0.0651043 0.0976564 0.0651043 0.130209 0.0651043 0.195313 0.0976564 0.0651042 0.0976564 0.0651043 0.130208 0.0651043 0.195313 0.0976565 0.0651042 0.0976563 0.0651042 0.130209 0.0651044 0.195313 0.0976564 0.0651042 0.0976563 0.0651043 0.130208 0.0651044 0.195313 0.0976565 0.0651042 0.0976564 0.0651043 0.130209 0.0651044 0.195313 0.0976565 0.0651043 0.0976564 0.0651043 0.130209 0.0651044 0.195313 0.0976565 0.0651043 0.0976564 0.0651043 0.130208 0.0651043 0.195313 0.0976565 0.0651042 0.0976564 0.0651043 0.130209 0.0651044 0.195313 0.0976564 0.0651043 0.0976564 0.0651043 0.130208 0.0651043 0.195313 0.0976565 0.0651042 0.0976563 0.0651042 0.130209 0.0651045 0.195313 0.0976566 0.0651043 0.0976564 0.0651043 0.130209 0.0651045 0.195313 0.0976566 0.0651043 0.0976565 0.0651044 0.130209 0.0651044 0.195313 0.0976564 0.0651043 0.0976565 0.0651044 0.130208 0.0651043 0.195313 0.0976566 0.0651044 0.0976565 0.0651043 0.130209 0.0651045 0.195313 0.0976565 0.0651044 0.0976565 0.0651045 0.130208 0.0651044 0.195313 0.0976566 0.0651044 0.0976565 0.0651044 0.130209 0.0651044 0.195313 0.0976564 0.0651043 0.0976564 0.0651043 0.130208 0.0651043 0.195313 0.0976565 0.0651043 0.0976564 0.0651042 0.130209 0.0651044 0.195313 0.0976565 0.0651043 0.0976564 0.0651043 0.130208 0.0651042 0.195313 0.0976564 0.0651042 0.0976564 0.0651042 0.130209 0.0651046 0.195313 0.0976564 0.0651044 0.0976563 0.0651045 0.130208 0.0651042 0.195312 0.0976564 0.0651041 0.0976563 0.0651041 0.130208 0.0651046 0.195313 0.0976567 0.0651044 0.0976566 0.0651044 0.130209 0.0651044 0.195313 0.0976563 0.0651043 0.0976563 0.0651044 0.130208 0.0651044 0.195313 0.0976565 0.0651045 0.0976565 0.0651045 0.130209 0.0651045 0.195313 0.0976566 0.0651045 0.0976564 0.0651046 0.130208 0.0651045 0.195313 0.0651045 0.0651042 0.0651044 0.0651043 0.0651045 
VECTORS u float
0 0 0  -0.0476359 -0.0105845 -0.0512218  -0.0731571 -0.0201771 -0.0683529  -0.100258 -0.0441778 -0.0719712  -0.131348 -0.0796647 -0.06901  -0.165635 -0.123562 -0.0633659  -0.202018 -0.173692 -0.0570586  -0.239789 -0.228898 -0.0510092  -0.278547 -0.288493 -0.0456185  -0.318163 -0.352122 -0.0409377  -0.358558 -0.419477 -0.0369682  -0.399741 -0.490335 -0.0335927  -0.441667 -0.564407 -0.0307734  -0.484339 -0.641464 -0.0284045  -0.527697 -0.72124 -0.0264549  -0.571704 -0.803491 -0.0248451  -0.616273 -0.88796 -0.0235744  -0.661347 -0.974433 -0.0225716  -0.706816 -1.06266 -0.0218573  -0.752611 -1.15245 -0.0213737  -0.798629 -1.24358 -0.021142  -0.844807 -1.33589 -0.0210938  -0.891043 -1.42917 -0.0212574  -0.937268 -1.52328 -0.0216041  -0.983419 -1.61804 -0.0221267  -1.02944 -1.71333 -0.0228021  -1.07527 -1.80898 -0.0236561  -1.1209 -1.9049 -0.0246291  -1.16626 -2.00095 -0.0257835  -1.21136 -2.09703 -0.0270627  -1.25619 -2.19304 -0.0284774  -1.3008 -2.28892 -0.0299885  -1.3453 -2.38463 -0.0315344  0 0 0  -0.0269863 0.0015514 -0.0360985  -0.0445068 -0.0130448 -0.0483329  -0.0629136 -0.0403691 -0.0507228  -0.0848833 -0.0789079 -0.0490179  -0.110821 -0.126048 -0.0454836  -0.140128 -0.179747 -0.0413311  -0.172039 -0.238568 -0.0372262  -0.205974 -0.301816 -0.0334804  -0.241541 -0.368924 -0.030226  -0.278537 -0.439647 -0.0274725  -0.316813 -0.513608 -0.0251915  -0.35629 -0.590616 -0.0233209  -0.396859 -0.670323 -0.0218318  -0.438455 -0.75256 -0.0206661  -0.480961 -0.836981 -0.0197918  -0.524297 -0.923438 -0.0191758  -0.568328 -1.01162 -0.0187969  -0.612975 -1.10139 -0.0186238  -0.658085 -1.19247 -0.0186613  -0.703591 -1.28474 -0.0188708  -0.749354 -1.37796 -0.0192535  -0.795312 -1.47204 -0.019784  -0.841338 -1.56673 -0.0204625  -0.887384 -1.662 -0.0212781  -0.933343 -1.75761 -0.0222194  -0.979198 -1.85352 -0.0232751  -1.02486 -1.94954 -0.0244534  -1.07032 -2.04566 -0.025728  -1.1155 -2.1417 -0.0271175  -1.16046 -2.23767 -0.0285778  -1.20513 -2.33345 -0.0301006  -1.24962 -2.42908 -0.0315993  0 0 0  -0.0134972 0.0060097 -0.0230768  -0.0222636 -0.0101074 -0.0305333  -0.0332016 -0.0399516 -0.0320449  -0.0475923 -0.0806344 -0.0310409  -0.0658337 -0.130047 -0.0289545  -0.0878112 -0.186347 -0.0264714  -0.113128 -0.248147 -0.0239687  -0.141308 -0.314531 -0.0216823  -0.171937 -0.384854 -0.0197167  -0.204708 -0.458688 -0.0181024  -0.23938 -0.535655 -0.0168412  -0.275771 -0.615464 -0.0158906  -0.313709 -0.697802 -0.0152397  -0.353055 -0.782426 -0.0148387  -0.393648 -0.869052 -0.0146756  -0.435358 -0.957464 -0.0147052  -0.478024 -1.04742 -0.0149271  -0.521516 -1.13874 -0.0153086  -0.565686 -1.23119 -0.0158436  -0.61041 -1.32464 -0.0165069  -0.655548 -1.41887 -0.0173092  -0.701 -1.51378 -0.0182123  -0.746636 -1.60919 -0.0192332  -0.792383 -1.705 -0.0203378  -0.838135 -1.80106 -0.0215433  -0.883838 -1.89728 -0.0228186  -0.929406 -1.99356 -0.0241814  -0.974812 -2.08982 -0.0256054  -1.01999 -2.18597 -0.0271053  -1.06493 -2.28198 -0.0286376  -1.10961 -2.37779 -0.0301917  -1.15402 -2.47333 -0.0317037  0 0 0  -0.00376988 0.00539842 -0.00979471  -0.0052381 -0.01143 -0.0135975  -0.00865045 -0.0429743 -0.0145667  -0.0154471 -0.0855361 -0.0142391  -0.0261539 -0.136842 -0.0133255  -0.0408867 -0.195258 -0.0122027  -0.0594991 -0.259443 -0.0110657  -0.0816456 -0.328469 -0.0100703  -0.106967 -0.401545 -0.00928426  -0.135108 -0.478182 -0.00875163  -0.165775 -0.55787 -0.00845885  -0.198706 -0.640309 -0.00841713  -0.233663 -0.725099 -0.00857687  -0.270443 -0.812026 -0.00894213  -0.308836 -0.90074 -0.00946307  -0.348654 -0.991077 -0.0101562  -0.389711 -1.08274 -0.0109603  -0.431835 -1.1756 -0.0119028  -0.474846 -1.26939 -0.0129299  -0.51861 -1.36402 -0.0140617  -0.562946 -1.45926 -0.0152645  -0.607741 -1.55504 -0.0165663  -0.652843 -1.65115 -0.0179102  -0.698165 -1.74756 -0.0193264  -0.743579 -1.84408 -0.0207841  -0.789024 -1.9407 -0.0222993  -0.834397 -2.03724 -0.0238414  -0.879658 -2.13371 -0.0254374  -0.924737 -2.22999 -0.0270443  -0.969623 -2.32611 -0.028682  -1.01424 -2.42193 -0.0303006  -1.05857 -2.51745 -0.0319035  0 0 0  0.00408062 0.00198829 0.00308824  0.00924033 -0.0167344 0.0025661  0.0131908 -0.0498554 0.00201845  0.0139719 -0.0939332 0.00174785  0.0106837 -0.146822 0.00165033  0.00302964 -0.206959 0.0016458  -0.00896829 -0.273145 0.00159311  -0.0250774 -0.344391 0.00143099  -0.0449816 -0.419868 0.00111485  -0.0683343 -0.498963 0.000628948  -0.0947911 -0.581122 -3.55244e-05  -0.124052 -0.665946 -0.000860929  -0.155816 -0.753029 -0.00184274  -0.189826 -0.842085 -0.00295496  -0.225817 -0.932785 -0.00418425  -0.26357 -1.02492 -0.00551486  -0.302844 -1.11823 -0.00693011  -0.34345 -1.21254 -0.00840592  -0.385161 -1.30762 -0.00994754  -0.427823 -1.40338 -0.0115411  -0.471233 -1.4996 -0.0131803  -0.51526 -1.5962 -0.0148447  -0.559724 -1.69303 -0.0165501  -0.604526 -1.79 -0.0182583  -0.649518 -1.88699 -0.0199938  -0.694627 -1.98396 -0.0217228  -0.73973 -2.0808 -0.0234797  -0.784789 -2.17748 -0.0252249  -0.829716 -2.27391 -0.0269721  -0.874497 -2.3701 -0.0286992  -0.919051 -2.46597 -0.0304341  -0.963308 -2.56143 -0.032131  0 0 0  0.0111244 -0.00367564 0.0153644  0.0231352 -0.0256291 0.0177083  0.0344298 -0.0605152 0.0176513  0.0426342 -0.105882 0.0170181  0.0465629 -0.160047 0.0161407  0.0457709 -0.221678 0.0151563  0.0402029 -0.289591 0.0140567  0.0300118 -0.362794 0.0128293  0.0154734 -0.440382 0.011482  -0.00307488 -0.521695 0.01001  -0.0252746 -0.606074 0.00842285  -0.050779 -0.693088 0.00672507  -0.0792531 -0.782257 0.00493979  -0.110389 -0.873291 0.00307083  -0.143876 -0.965815 0.00114417  -0.179456 -1.05964 -0.00083518  -0.216849 -1.15445 -0.0028429  -0.255833 -1.25012 -0.00488353  -0.296154 -1.3464 -0.00693631  -0.337632 -1.44321 -0.00899887  -0.380039 -1.54033 -0.011059  -0.423221 -1.6377 -0.0131171  -0.466982 -1.73515 -0.015161  -0.511204 -1.83267 -0.0171916  -0.555722 -1.93008 -0.0191853  -0.600448 -2.02738 -0.0211647  -0.645249 -2.12446 -0.0231032  -0.690068 -2.22133 -0.0250177  -0.734807 -2.31786 -0.0268905  -0.77945 -2.41412 -0.0287392  -0.823918 -2.50999 -0.0305617  -0.868133 -2.6055 -0.0323782  0 0 0  0.0184139 -0.0119019 0.0266519  0.0381048 -0.0380381 0.0315304  0.0568238 -0.0746919 0.0322542  0.0722035 -0.121155 0.0315566  0.0830467 -0.176453 0.0301633  0.0888461 -0.239445 0.0283687  0.0894569 -0.30897 0.0263166  0.084981 -0.383956 0.0241282  0.0756582 -0.463495 0.0217974  0.0618179 -0.54682 0.0193789  0.0438248 -0.633242 0.0168812  0.0220526 -0.722247 0.0143278  -0.00312817 -0.813338 0.0117378  -0.0313686 -0.906167 0.00912189  -0.0623237 -1.00037 0.00649166  -0.0956963 -1.09571 0.00387025  -0.13117 -1.1919 0.00125456  -0.168494 -1.28879 -0.00133586  -0.207387 -1.38616 -0.0039134  -0.24764 -1.48389 -0.00643897  -0.289005 -1.58181 -0.00893712  -0.331311 -1.67984 -0.011378  -0.374344 -1.77785 -0.0137773  -0.417961 -1.8758 -0.0161116  -0.461984 -1.97355 -0.0183942  -0.506314 -2.07111 -0.0206008  -0.550797 -2.16838 -0.0227487  -0.59537 -2.26535 -0.0248127  -0.639916 -2.36196 -0.0268216  -0.684409 -2.45823 -0.0287561  -0.728786 -2.5541 -0.0306599  -0.772996 -2.64961 -0.032552  0 0 0  0.0275078 -0.0239142 0.0363724  0.0556762 -0.0539144 0.0438783  0.0816644 -0.0918639 0.0459542  0.103909 -0.139322 0.0455399  0.121385 -0.195809 0.0437787  0.133527 -0.260238 0.0412865  0.14008 -0.331362 0.0383773  0.141099 -0.40815 0.0352428  0.136809 -0.489559 0.0319633  0.127512 -0.574807 0.0286136  0.113598 -0.66312 0.0252333  0.0954484 -0.753973 0.0218365  0.0734855 -0.846807 0.018455  0.0480747 -0.941281 0.0150955  0.0196077 -1.03698 0.0117812  -0.0115892 -1.13369 0.00850892  -0.0451639 -1.2311 0.00529981  -0.080842 -1.32906 0.00214577  -0.118319 -1.42735 -0.000924826  -0.157357 -1.52588 -0.00393653  -0.197689 -1.62444 -0.00685573  -0.239125 -1.72302 -0.0096941  -0.281435 -1.82145 -0.0124388  -0.32446 -1.91971 -0.0150974  -0.36801 -2.01769 -0.017642  -0.411963 -2.1154 -0.0200953  -0.456157 -2.21274 -0.0224361  -0.50051 -2.30974 -0.0246668  -0.544888 -2.40632 -0.0267854  -0.58926 -2.50254 -0.0288045  -0.63354 -2.59835 -0.0307417  -0.677747 -2.69388 -0.0326543  0 0 0  0.0401407 -0.0415014 0.0439296  0.0763093 -0.0724177 0.0560246  0.10945 -0.111146 0.0595028  0.138643 -0.15989 0.0592248  0.162742 -0.217961 0.057035  0.181114 -0.284073 0.0537994  0.19345 -0.357055 0.0500591  0.199776 -0.435712 0.0460196  0.200278 -0.519052 0.041815  0.195307 -0.606142 0.0375929  0.185249 -0.69629 0.033349  0.170544 -0.788835 0.0291486  0.151624 -0.883296 0.024987  0.128909 -0.979222 0.0209217  0.102804 -1.07628 0.0169213  0.0736821 -1.17415 0.0130343  0.0419087 -1.27262 0.00922513  0.00780702 -1.37145 0.00555015  -0.0283225 -1.47051 0.00195193  -0.066201 -1.56963 -0.00150371  -0.105561 -1.6687 -0.00486112  -0.146177 -1.76762 -0.00807357  -0.187825 -1.86632 -0.0111811  -0.230309 -1.96471 -0.0141339  -0.273449 -2.06277 -0.0169749  -0.317083 -2.16044 -0.0196486  -0.36107 -2.25772 -0.0222003  -0.405279 -2.35457 -0.0245705  -0.449591 -2.451 -0.0268142  -0.493915 -2.54703 -0.0288734  -0.538187 -2.64271 -0.0308249  -0.582403 -2.73814 -0.0326874  0 0 0  -0.0336969 -0.0280476 -0.0340691  -0.0679077 -0.0429347 -0.0507271  -0.103061 -0.0651226 -0.0552173  -0.1388 -0.0971185 -0.0536604  -0.1751 -0.137498 -0.0494785  -0.211945 -0.184761 -0.0445268  -0.249341 -0.237783 -0.0396872  -0.287383 -0.295797 -0.035392  -0.326135 -0.358249 -0.0317163  -0.365671 -0.424722 -0.0286839  -0.406014 -0.494874 -0.0261841  -0.447181 -0.568391 -0.0241842  -0.489134 -0.64498 -0.0225744  -0.531845 -0.724357 -0.0213315  -0.575244 -0.806266 -0.0203733  -0.619261 -0.890444 -0.0197051  -0.663815 -0.976659 -0.0192587  -0.708817 -1.06467 -0.0190506  -0.754174 -1.15427 -0.0190306  -0.799807 -1.24524 -0.0192077  -0.845616 -1.33741 -0.0195355  -0.89153 -1.43058 -0.0200348  -0.937463 -1.52459 -0.0206716  -0.983351 -1.61926 -0.0214536  -1.02914 -1.71448 -0.0223472  -1.07477 -1.81009 -0.0233769  -1.12021 -1.90598 -0.0245051  -1.16543 -2.00201 -0.0257645  -1.21042 -2.09808 -0.0271127  -1.25519 -2.19411 -0.0285661  -1.29978 -2.29001 -0.0300665  -1.3443 -2.38573 -0.0315871  0 0 0  -0.0142377 -0.0103939 -0.0245025  -0.0397141 -0.0290829 -0.0360856  -0.0655883 -0.0567108 -0.0393386  -0.0918809 -0.0936509 -0.0385029  -0.119803 -0.138642 -0.0357614  -0.149645 -0.190212 -0.0323761  -0.181298 -0.247299 -0.0290208  -0.214578 -0.309123 -0.0260124  -0.249359 -0.375176 -0.0234647  -0.285525 -0.44501 -0.0213931  -0.323013 -0.518308 -0.0197532  -0.361734 -0.594723 -0.0184956  -0.401621 -0.673986 -0.0175726  -0.442571 -0.755787 -0.0169308  -0.484495 -0.839891 -0.016542  -0.527273 -0.926019 -0.0163727  -0.570811 -1.01397 -0.0164032  -0.614976 -1.10348 -0.0166106  -0.659672 -1.1944 -0.0169826  -0.704776 -1.28648 -0.017499  -0.750195 -1.37958 -0.018152  -0.795816 -1.47351 -0.0189276  -0.841558 -1.56813 -0.0198178  -0.88733 -1.66327 -0.0208197  -0.933073 -1.75884 -0.0219097  -0.978708 -1.85467 -0.0230966  -1.0242 -1.95069 -0.0243704  -1.0695 -2.04676 -0.0257235  -1.11459 -2.14281 -0.0271542  -1.15945 -2.23876 -0.0286415  -1.20411 -2.33456 -0.0301638  -1.24861 -2.43017 -0.0316782  0 0 0  -0.00689642 -0.00325729 -0.0156837  -0.0201216 -0.0234756 -0.0231678  -0.0359472 -0.0542631 -0.0252531  -0.0534679 -0.0942716 -0.0247426  -0.0733151 -0.142241 -0.0230486  -0.0958588 -0.196963 -0.0209367  -0.121102 -0.257266 -0.0188451  -0.148844 -0.322387 -0.0169847  -0.178873 -0.391642 -0.0154629  -0.210974 -0.464621 -0.0142825  -0.244979 -0.540858 -0.0134408  -0.280716 -0.620077 -0.0128911  -0.318043 -0.7019 -0.0126138  -0.356808 -0.786099 -0.0125566  -0.396869 -0.872337 -0.0127077  -0.43807 -0.960433 -0.0130315  -0.480272 -1.05009 -0.0135174  -0.523326 -1.14117 -0.0141397  -0.567096 -1.23339 -0.0148916  -0.611449 -1.32666 -0.0157495  -0.656253 -1.42072 -0.016721  -0.701393 -1.51549 -0.0177743  -0.746757 -1.61077 -0.0189235  -0.792255 -1.70648 -0.0201392  -0.837792 -1.80243 -0.0214341  -0.883298 -1.8986 -0.0227802  -0.928705 -1.9948 -0.0241966  -0.97397 -2.09103 -0.0256534  -1.01904 -2.18714 -0.0271711  -1.06391 -2.28313 -0.0287058  -1.10855 -2.3789 -0.0302629  -1.15298 -2.47446 -0.0317962  0 0 0  -0.00183576 -0.00282899 -0.00703311  -0.00562114 -0.0234015 -0.0107269  -0.0117951 -0.0561831 -0.0119536  -0.0205768 -0.0984778 -0.011801  -0.0324194 -0.148809 -0.010998  -0.047631 -0.205971 -0.00997496  -0.0662591 -0.268912 -0.00898051  -0.0881228 -0.336771 -0.00815463  -0.113002 -0.408859 -0.00756359  -0.140613 -0.484624 -0.00722885  -0.170731 -0.5636 -0.00713968  -0.203099 -0.6454 -0.00728154  -0.237528 -0.729674 -0.00762224  -0.273785 -0.816121 -0.00814724  -0.311699 -0.904451 -0.00882077  -0.351052 -0.994417 -0.00963879  -0.391686 -1.08578 -0.0105708  -0.433402 -1.17835 -0.0116091  -0.476053 -1.27192 -0.0127366  -0.51946 -1.36632 -0.0139432  -0.563492 -1.46138 -0.0152221  -0.607988 -1.55697 -0.0165734  -0.652844 -1.65295 -0.0179677  -0.697924 -1.74922 -0.0194156  -0.743149 -1.84564 -0.0209  -0.788406 -1.94214 -0.0224242  -0.833638 -2.03861 -0.0239768  -0.878767 -2.13501 -0.025558  -0.923759 -2.23125 -0.0271611  -0.968558 -2.32731 -0.0287704  -1.01315 -2.4231 -0.0303755  -1.05748 -2.5186 -0.0319657  0 0 0  0.00236823 -0.00548521 0.00133681  0.00687742 -0.0277407 0.00115657  0.00964361 -0.0622649 0.000742674  0.0093416 -0.10638 0.000558376  0.00534868 -0.15857 0.000566721  -0.00264078 -0.217744 0.000651121  -0.014668 -0.282866 0.000678778  -0.0305873 -0.353078 0.000578642  -0.0501597 -0.427622 0.000298262  -0.0730957 -0.505884 -0.000162125  -0.0990999 -0.587326 -0.000809193  -0.127886 -0.671514 -0.00161815  -0.159187 -0.758054 -0.0025804  -0.192737 -0.84662 -0.00367093  -0.228298 -0.936905 -0.00487709  -0.265629 -1.02866 -0.00618052  -0.304516 -1.12163 -0.00756717  -0.344747 -1.21564 -0.00901556  -0.386122 -1.31047 -0.0105281  -0.428457 -1.40597 -0.0120859  -0.471584 -1.50199 -0.0136867  -0.515333 -1.59839 -0.015317  -0.559566 -1.69505 -0.0169797  -0.604146 -1.79186 -0.0186489  -0.648963 -1.88873 -0.0203416  -0.693901 -1.98557 -0.0220294  -0.738883 -2.08231 -0.0237384  -0.783825 -2.17889 -0.0254376  -0.828673 -2.27526 -0.0271344  -0.87338 -2.37139 -0.0288184  -0.917893 -2.46721 -0.0304956  -0.96215 -2.5627 -0.0321586  0 0 0  0.00657438 -0.010434 0.00927925  0.0192 -0.0357788 0.0122697  0.0305362 -0.0722362 0.0126705  0.0383624 -0.117871 0.0123081  0.0419405 -0.171601 0.0117078  0.0409524 -0.232442 0.011003  0.0353689 -0.299447 0.0101731  0.0253181 -0.371729 0.00922394  0.011034 -0.448458 0.00813103  -0.0071789 -0.52897 0.00690913  -0.0290017 -0.61265 0.0055511  -0.0541036 -0.699028 0.00408006  -0.0821711 -0.787652 0.0025034  -0.112898 -0.878184 0.000842094  -0.145999 -0.97028 -0.000893831  -0.181194 -1.0637 -0.0026865  -0.218233 -1.15817 -0.00452399  -0.25687 -1.25351 -0.00639439  -0.296881 -1.34951 -0.00829244  -0.338059 -1.44605 -0.0102048  -0.380199 -1.54294 -0.0121295  -0.423126 -1.64009 -0.0140502  -0.466674 -1.73736 -0.015974  -0.510692 -1.83469 -0.0178823  -0.555047 -1.93195 -0.0197737  -0.599622 -2.0291 -0.0216458  -0.644313 -2.12607 -0.0234942  -0.689032 -2.22282 -0.0253172  -0.733708 -2.31928 -0.0271099  -0.77829 -2.41546 -0.0288749  -0.822721 -2.51129 -0.0306208  -0.866932 -2.6068 -0.0323584  0 0 0  0.0116923 -0.0180854 0.0164669  0.0329355 -0.0475541 0.0222809  0.0526193 -0.0858632 0.0236616  0.0681862 -0.132747 0.0234041  0.078972 -0.187768 0.0224187  0.0847108 -0.250138 0.021075  0.0853518 -0.318862 0.0195053  0.0809997 -0.393051 0.0177844  0.0718895 -0.471796 0.015933  0.0583259 -0.554374 0.0139778  0.0406514 -0.640122 0.0119264  0.0192269 -0.728506 0.00980163  -0.00559974 -0.819052 0.00761533  -0.0334766 -0.911381 0.00538421  -0.0640837 -1.00514 0.00311661  -0.097105 -1.10007 0.000837803  -0.132254 -1.19591 -0.00145817  -0.169256 -1.29246 -0.00375175  -0.207864 -1.38953 -0.0060389  -0.247836 -1.48698 -0.00830579  -0.288958 -1.58465 -0.0105565  -0.331026 -1.68244 -0.0127745  -0.37386 -1.78024 -0.0149598  -0.41729 -1.87798 -0.0171025  -0.461168 -1.97557 -0.0192065  -0.505361 -2.07296 -0.0212536  -0.549753 -2.17009 -0.0232551  -0.594241 -2.26694 -0.0251937  -0.638739 -2.36345 -0.0270834  -0.683191 -2.45964 -0.0289149  -0.727542 -2.55547 -0.030719  -0.771745 -2.651 -0.0325098  0 0 0  0.0193865 -0.0302453 0.0225983  0.0497254 -0.0633812 0.031018  0.077285 -0.102805 0.0337665  0.100099 -0.150632 0.0338991  0.117735 -0.206881 0.0327094  0.129917 -0.270756 0.0308464  0.136545 -0.341214 0.0286164  0.13769 -0.417247 0.0261838  0.133573 -0.497929 0.0236065  0.124518 -0.582465 0.0209489  0.11087 -0.670151 0.0182221  0.0930349 -0.760396 0.0154583  0.0713797 -0.852709 0.0126712  0.0463028 -0.94668 0.00987792  0.0181488 -1.04195 0.00709176  -0.0127199 -1.13824 0.00432086  -0.0459986 -1.23529 0.00157261  -0.0813758 -1.3329 -0.0011394  -0.118586 -1.43089 -0.00381422  -0.157358 -1.52912 -0.00643802  -0.197465 -1.62744 -0.00901294  -0.238675 -1.72575 -0.0115259  -0.280804 -1.82396 -0.0139816  -0.323651 -1.922 -0.0163624  -0.36707 -2.0198 -0.0186706  -0.410898 -2.11731 -0.020896  -0.455014 -2.2145 -0.023047  -0.499296 -2.31135 -0.0251014  -0.543651 -2.40783 -0.0270789  -0.587996 -2.50396 -0.0289698  -0.63229 -2.59974 -0.0308084  -0.676505 -2.69527 -0.0326216  0 0 0  0.0333176 -0.0506735 0.0278594  0.0709184 -0.0830117 0.0393188  0.105241 -0.122277 0.0434487  0.13492 -0.171053 0.0439191  0.159232 -0.228723 0.0425346  0.177698 -0.294275 0.040185  0.190121 -0.366582 0.0373642  0.19656 -0.44457 0.0342703  0.197244 -0.527191 0.0310214  0.192482 -0.613657 0.0277131  0.182688 -0.703174 0.0243442  0.168261 -0.795179 0.0209854  0.149646 -0.88911 0.0176108  0.127233 -0.984584 0.0142891  0.101445 -1.08119 0.0109801  0.0726285 -1.17869 0.00774813  0.0411577 -1.27678 0.00454545  0.00733423 -1.3753 0.00143719  -0.0285203 -1.47404 -0.00163412  -0.0661478 -1.57288 -0.00459886  -0.105272 -1.67168 -0.00750375  -0.145678 -1.77036 -0.0102994  -0.187132 -1.86881 -0.0130293  -0.229451 -1.96701 -0.0156338  -0.272445 -2.06485 -0.0181615  -0.315972 -2.16236 -0.020556  -0.359864 -2.25946 -0.0228639  -0.404018 -2.35618 -0.0250235  -0.448291 -2.45249 -0.0270934  -0.492622 -2.54845 -0.029016  -0.536906 -2.64409 -0.0308781  -0.581167 -2.73957 -0.0326734  0 0 0  -0.0363256 -0.0361593 -0.0202379  -0.0693125 -0.0556436 -0.0318992  -0.104933 -0.0790932 -0.0362458  -0.141833 -0.110092 -0.036068  -0.179111 -0.14878 -0.0336466  -0.2165 -0.194257 -0.0304492  -0.254074 -0.245732 -0.0272167  -0.292007 -0.302444 -0.0243464  -0.330484 -0.363897 -0.0219293  -0.369642 -0.429558 -0.0200098  -0.40957 -0.4991 -0.0185127  -0.450295 -0.572099 -0.0174091  -0.49183 -0.648294 -0.0166163  -0.534127 -0.727321 -0.0161178  -0.577145 -0.808959 -0.015842  -0.620797 -0.892878 -0.0157943  -0.66502 -0.978895 -0.0159152  -0.709706 -1.0667 -0.0162237  -0.754785 -1.15616 -0.0166674  -0.800154 -1.24698 -0.0172665  -0.845734 -1.33904 -0.0179713  -0.891427 -1.43208 -0.0188069  -0.937173 -1.52602 -0.0197363  -0.982889 -1.62061 -0.0207725  -1.02853 -1.71577 -0.0218844  -1.07403 -1.81131 -0.0230889  -1.11937 -1.90716 -0.0243614  -1.16451 -2.00315 -0.0257239  -1.20944 -2.09921 -0.0271454  -1.25418 -2.1952 -0.0286267  -1.29878 -2.2911 -0.0301397  -1.3433 -2.38682 -0.0316508  0 0 0  -0.0131101 -0.0166152 -0.0141902  -0.0386555 -0.0393036 -0.022999  -0.0662755 -0.0679896 -0.0262094  -0.094561 -0.104518 -0.0261741  -0.123885 -0.148386 -0.0245161  -0.154477 -0.198676 -0.0222547  -0.186376 -0.254524 -0.0199816  -0.219565 -0.3153 -0.0179689  -0.254049 -0.380469 -0.0163252  -0.289816 -0.44961 -0.0150685  -0.326854 -0.52233 -0.0141656  -0.365115 -0.598292 -0.0135794  -0.404552 -0.67716 -0.0132618  -0.445075 -0.758652 -0.0131743  -0.486593 -0.842473 -0.0132899  -0.528997 -0.928382 -0.0135827  -0.57218 -1.01612 -0.0140293  -0.616021 -1.10547 -0.0146194  -0.660421 -1.19622 -0.0153289  -0.705254 -1.28819 -0.0161548  -0.750424 -1.38116 -0.0170815  -0.795822 -1.475 -0.0180995  -0.841362 -1.56953 -0.0192037  -0.886954 -1.66461 -0.0203841  -0.932539 -1.76011 -0.0216243  -0.978041 -1.8559 -0.0229354  -1.02342 -1.95187 -0.0243044  -1.06863 -2.04792 -0.0257261  -1.11364 -2.14394 -0.0271945  -1.15846 -2.23988 -0.0287051  -1.2031 -2.33567 -0.0302269  -1.24761 -2.43129 -0.0317478  0 0 0  -0.00633968 -0.00785844 -0.00912929  -0.0194243 -0.0311905 -0.0148821  -0.0366307 -0.0634914 -0.0170355  -0.0559176 -0.103647 -0.0169709  -0.077081 -0.151069 -0.0158861  -0.100361 -0.204891 -0.0144534  -0.125867 -0.264283 -0.0130279  -0.153553 -0.328502 -0.0118213  -0.183326 -0.397016 -0.0108843  -0.215063 -0.46932 -0.0102613  -0.248652 -0.545042 -0.00990701  -0.283957 -0.623782 -0.00981975  -0.320859 -0.705244 -0.00994062  -0.359216 -0.789093 -0.0102599  -0.39889 -0.87508 -0.0107362  -0.439724 -0.962914 -0.0113721  -0.481591 -1.05239 -0.0121198  -0.52433 -1.14326 -0.0129948  -0.567813 -1.23535 -0.0139589  -0.611895 -1.32845 -0.0150204  -0.656459 -1.42242 -0.0161519  -0.701375 -1.51706 -0.0173688  -0.746547 -1.61227 -0.0186343  -0.791864 -1.70787 -0.0199654  -0.837251 -1.80379 -0.0213363  -0.882618 -1.89987 -0.0227628  -0.927919 -1.99605 -0.0242188  -0.973085 -2.09222 -0.0257158  -1.01809 -2.18832 -0.0272343  -1.0629 -2.28428 -0.0287783  -1.10753 -2.38006 -0.0303214  -1.15197 -2.4756 -0.0318637  0 0 0  -0.00189403 -0.00628367 -0.00418234  -0.0060131 -0.0295311 -0.00702262  -0.0131175 -0.0639721 -0.00817275  -0.0230853 -0.106882 -0.00818324  -0.0358863 -0.157056 -0.00765586  -0.0516663 -0.213666 -0.00695729  -0.0705036 -0.275885 -0.00630474  -0.0923266 -0.343014 -0.00582314  -0.116988 -0.414418 -0.005548  -0.144291 -0.489578 -0.00551176  -0.174043 -0.568029 -0.00568366  -0.206035 -0.649381 -0.00606561  -0.240072 -0.733265 -0.00661206  -0.275961 -0.819379 -0.00732565  -0.313515 -0.90742 -0.00816011  -0.352538 -0.997136 -0.00912333  -0.392851 -1.08828 -0.0101812  -0.434277 -1.18065 -0.0113323  -0.47665 -1.27405 -0.0125554  -0.519809 -1.36829 -0.0138474  -0.563603 -1.46322 -0.0151916  -0.607896 -1.5587 -0.0166018  -0.65256 -1.65457 -0.0180392  -0.697479 -1.75075 -0.0195222  -0.742551 -1.84709 -0.0210254  -0.787687 -1.94352 -0.0225627  -0.832806 -2.03994 -0.0241129  -0.877852 -2.13628 -0.0256896  -0.922772 -2.23249 -0.0272691  -0.96753 -2.32851 -0.0288599  -1.0121 -2.4243 -0.030437  -1.05645 -2.51981 -0.032012  0 0 0  0.00171196 -0.00826401 0.000590563  0.00537339 -0.0330207 0.000575066  0.00754288 -0.0692607 0.000344753  0.00661457 -0.114152 0.000242472  0.00208247 -0.166457 0.000255108  -0.00624132 -0.225267 0.000298262  -0.0183963 -0.289846 0.000260592  -0.0342578 -0.359427 9.27448e-05  -0.0536507 -0.433364 -0.000241041  -0.0763208 -0.511059 -0.00075388  -0.102016 -0.592001 -0.00143456  -0.130471 -0.675743 -0.00226974  -0.161427 -0.761894 -0.00324559  -0.194645 -0.850118 -0.00433993  -0.229882 -0.940107 -0.0055387  -0.266907 -1.03159 -0.00682688  -0.305501 -1.12434 -0.00819659  -0.345459 -1.21813 -0.00962138  -0.386577 -1.31278 -0.011107  -0.42868 -1.40812 -0.0126345  -0.471585 -1.50399 -0.0141995  -0.515143 -1.60025 -0.015795  -0.559196 -1.69679 -0.0174162  -0.603625 -1.7935 -0.0190451  -0.6483 -1.89027 -0.0206904  -0.693127 -1.98703 -0.0223362  -0.738003 -2.0837 -0.0239952  -0.782871 -2.18022 -0.025645  -0.827654 -2.27655 -0.0272918  -0.872318 -2.37263 -0.0289266  -0.916807 -2.46845 -0.0305579  -0.961085 -2.56394 -0.0321772  0 0 0  0.0053792 -0.0128888 0.00509477  0.0167352 -0.0407281 0.00771117  0.0277382 -0.0788602 0.00835967  0.0354151 -0.125328 0.00823665  0.0388147 -0.17922 0.00785208  0.0377154 -0.239848 0.00734997  0.0321115 -0.306406 0.00670862  0.0221432 -0.378159 0.00594878  0.00802553 -0.454338 0.00504494  -0.00996137 -0.534335 0.00400543  -0.0315144 -0.617533 0.00283575  -0.0563316 -0.703485 0.00154996  -0.0840981 -0.791718 0.000158548  -0.114528 -0.881912 -0.00132442  -0.147334 -0.973701 -0.00288224  -0.182252 -1.06685 -0.00450635  -0.21902 -1.16107 -0.00617671  -0.257409 -1.2562 -0.00789118  -0.29718 -1.35201 -0.00963569  -0.338138 -1.44837 -0.0114074  -0.380072 -1.54509 -0.0131905  -0.422819 -1.6421 -0.0149806  -0.466198 -1.73923 -0.0167773  -0.510077 -1.83644 -0.0185704  -0.554301 -1.93359 -0.0203507  -0.598771 -2.03066 -0.0221195  -0.643368 -2.12753 -0.0238705  -0.688017 -2.22422 -0.0256062  -0.732638 -2.32062 -0.0273144  -0.777184 -2.41676 -0.0290041  -0.82159 -2.51257 -0.0306771  -0.865813 -2.60811 -0.0323448  0 0 0  0.0100384 -0.0207186 0.00915194  0.0297287 -0.0526517 0.014133  0.0493239 -0.0925021 0.0156991  0.0650848 -0.140083 0.0157485  0.075976 -0.195252 0.0151172  0.0817672 -0.257412 0.0141761  0.0824686 -0.325773 0.0130301  0.0782224 -0.399469 0.0117354  0.069263 -0.477733 0.0103106  0.0559024 -0.559819 0.00876927  0.0384586 -0.645121 0.00712824  0.0172895 -0.733087 0.00539541  -0.00726914 -0.823261 0.00358891  -0.0348803 -0.915249 0.00172162  -0.065219 -1.00871 -0.000196695  -0.0979849 -1.10337 -0.00215125  -0.132882 -1.19896 -0.00413418  -0.169651 -1.29528 -0.00613618  -0.208034 -1.39215 -0.00814414  -0.247801 -1.4894 -0.0101559  -0.288728 -1.58691 -0.0121598  -0.330625 -1.68454 -0.0141544  -0.3733 -1.78221 -0.016129  -0.416596 -1.87981 -0.0180802  -0.460353 -1.97728 -0.0200026  -0.504449 -2.07457 -0.0218904  -0.548755 -2.1716 -0.0237446  -0.593181 -2.26836 -0.0255568  -0.637633 -2.36482 -0.0273294  -0.682053 -2.46096 -0.029067  -0.726385 -2.55678 -0.0307736  -0.770597 -2.65232 -0.0324759  0 0 0  0.0174383 -0.03384 0.0126464  0.0461523 -0.0693583 0.0197577  0.0737489 -0.109819 0.0223999  0.0969319 -0.158014 0.022769  0.11482 -0.214257 0.0220411  0.127148 -0.277893 0.0207622  0.13388 -0.347973 0.0191753  0.135157 -0.423573 0.0174003  0.131193 -0.503794 0.0154872  0.122321 -0.587894 0.0134721  0.108885 -0.675142 0.0113735  0.0912794 -0.765007 0.00920725  0.0698711 -0.856948 0.00699639  0.0450419 -0.950604 0.00474405  0.0171385 -1.04557 0.00247526  -0.0134878 -1.1416 0.000184536  -0.0465291 -1.23839 -0.002105  -0.0816808 -1.33579 -0.00439334  -0.118675 -1.43357 -0.00666285  -0.157246 -1.53161 -0.00892091  -0.197165 -1.62974 -0.0111444  -0.238209 -1.72791 -0.0133402  -0.280183 -1.82596 -0.015496  -0.322901 -1.92388 -0.0176125  -0.366201 -2.02154 -0.0196722  -0.409934 -2.11896 -0.0216839  -0.45397 -2.21603 -0.0236356  -0.498193 -2.31281 -0.0255291  -0.542506 -2.40922 -0.0273581  -0.586821 -2.50532 -0.0291364  -0.6311 -2.60107 -0.0308664  -0.675327 -2.69661 -0.0325861  0 0 0  0.0310996 -0.0568322 0.0154746  0.0674034 -0.090353 0.0250492  0.101689 -0.129811 0.0287356  0.131677 -0.178493 0.0293677  0.156232 -0.235979 0.0285468  0.174848 -0.301195 0.0269988  0.187385 -0.373114 0.0250208  0.19396 -0.450621 0.0228345  0.194785 -0.532803 0.0204823  0.19021 -0.618825 0.0180306  0.180628 -0.707944 0.015516  0.166425 -0.799563 0.0129433  0.148058 -0.893159 0.0103464  0.125893 -0.988309 0.00772715  0.100356 -1.08465 0.00511193  0.0717821 -1.18188 0.00249934  0.0405574 -1.27974 -9.41753e-05  0.00695658 -1.37804 -0.00265813  -0.0286734 -1.47658 -0.00519538  -0.0661004 -1.57524 -0.00768733  -0.105028 -1.67388 -0.0101328  -0.145264 -1.7724 -0.0125268  -0.186551 -1.87072 -0.0148668  -0.22874 -1.96878 -0.0171351  -0.271603 -2.06652 -0.0193436  -0.315027 -2.16391 -0.021471  -0.358826 -2.26093 -0.0235264  -0.402915 -2.35758 -0.0254943  -0.447139 -2.45384 -0.0273833  -0.491434 -2.54977 -0.0291893  -0.535704 -2.64542 -0.0309365  -0.579974 -2.7409 -0.0326569  0 0 0  -0.0383775 -0.0399312 -0.00961065  -0.0710514 -0.0622115 -0.0152631  -0.106267 -0.0867733 -0.0176854  -0.14321 -0.117766 -0.0178792  -0.180763 -0.155791 -0.0168664  -0.21843 -0.200421 -0.0154037  -0.256164 -0.251004 -0.0139081  -0.294125 -0.306974 -0.0126407  -0.332514 -0.367773 -0.0116496  -0.371507 -0.432958 -0.0109825  -0.411216 -0.502079 -0.010587  -0.451709 -0.574785 -0.0104651  -0.492995 -0.650706 -0.0105355  -0.535055 -0.729548 -0.0108185  -0.577836 -0.810995 -0.0112488  -0.621277 -0.894796 -0.0118408  -0.665288 -0.980663 -0.0125401  -0.709796 -1.06839 -0.0133727  -0.754704 -1.15773 -0.0142872  -0.799919 -1.2485 -0.0153129  -0.845353 -1.34047 -0.0163944  -0.890924 -1.43347 -0.0175707  -0.936553 -1.52734 -0.0187898  -0.98217 -1.6219 -0.020087  -1.02772 -1.71701 -0.0214052  -1.07316 -1.81254 -0.0227909  -1.11843 -1.90833 -0.0242021  -1.16353 -2.00431 -0.0256662  -1.20844 -2.10033 -0.0271435  -1.25317 -2.19633 -0.0286629  -1.29776 -2.2922 -0.030174  -1.34232 -2.38793 -0.0316949  0 0 0  -0.0130166 -0.0195175 -0.00661731  -0.0386907 -0.044702 -0.0109429  -0.0668184 -0.0744336 -0.0127923  -0.0957173 -0.110991 -0.0129907  -0.125612 -0.154431 -0.0123029  -0.156615 -0.204087 -0.0112772  -0.188734 -0.259275 -0.0102565  -0.22196 -0.319433 -0.00941944  -0.25635 -0.384076 -0.00882697  -0.291932 -0.452783 -0.00850415  -0.328734 -0.52515 -0.00842214  -0.366737 -0.600827 -0.00856423  -0.405911 -0.679464 -0.00889158  -0.446172 -0.760764 -0.00938439  -0.487446 -0.844427 -0.0100203  -0.529618 -0.930201 -0.0107861  -0.572585 -1.01782 -0.0116556  -0.61623 -1.10708 -0.0126297  -0.660447 -1.19775 -0.0136838  -0.705115 -1.28964 -0.0148196  -0.750136 -1.38255 -0.0160167  -0.795394 -1.47634 -0.0172834  -0.840814 -1.57082 -0.0185957  -0.8863 -1.66586 -0.0199542  -0.93179 -1.76132 -0.0213449  -0.977214 -1.85709 -0.0227766  -1.02252 -1.95303 -0.0242341  -1.06768 -2.04906 -0.0257246  -1.11266 -2.14506 -0.02723  -1.15746 -2.24099 -0.0287552  -1.20209 -2.33677 -0.0302799  -1.24661 -2.43241 -0.0317962  0 0 0  -0.00613411 -0.00994992 -0.00420141  -0.0194561 -0.0352608 -0.00699782  -0.0370778 -0.0686819 -0.0082562  -0.0570004 -0.109198 -0.00836539  -0.0787683 -0.156451 -0.0079267  -0.102475 -0.209893 -0.00729632  -0.128191 -0.268779 -0.00670576  -0.155918 -0.332525 -0.00628591  -0.18559 -0.400575 -0.00606704  -0.217153 -0.47251 -0.00607634  -0.250503 -0.547893 -0.00628352  -0.285563 -0.62638 -0.00668883  -0.322201 -0.707603 -0.00724673  -0.360311 -0.791278 -0.00795364  -0.399735 -0.877092 -0.00877714  -0.440352 -0.964807 -0.00972128  -0.481995 -1.05415 -0.010745  -0.524545 -1.14494 -0.0118687  -0.567837 -1.23693 -0.013051  -0.611763 -1.32997 -0.0143096  -0.656169 -1.42386 -0.0156157  -0.700958 -1.51846 -0.0169783  -0.745999 -1.6136 -0.0183704  -0.791217 -1.70917 -0.0198073  -0.8365 -1.80504 -0.0212612  -0.881798 -1.90111 -0.0227532  -0.927018 -1.99725 -0.0242522  -0.972139 -2.09341 -0.0257807  -1.0171 -2.18948 -0.0273075  -1.06189 -2.28543 -0.0288515  -1.1065 -2.3812 -0.0303819  -1.15097 -2.47676 -0.0319128  0 0 0  -0.00192525 -0.00787291 -0.00184059  -0.00637123 -0.0326383 -0.00319767  -0.0138405 -0.0682046 -0.00382137  -0.024294 -0.11167 -0.0039022  -0.0375513 -0.161959 -0.00370121  -0.0536686 -0.218373 -0.00343847  -0.0726735 -0.280257 -0.00324845  -0.0945097 -0.34699 -0.00321507  -0.119082 -0.41802 -0.00334239  -0.146212 -0.49283 -0.0036695  -0.175756 -0.570985 -0.00414944  -0.207509 -0.652073 -0.00480413  -0.241313 -0.735743 -0.00558305  -0.276961 -0.821661 -0.00649834  -0.31429 -0.909543 -0.00750566  -0.353091 -0.999117 -0.00862193  -0.393204 -1.09014 -0.00980854  -0.434437 -1.18241 -0.0110776  -0.476639 -1.27571 -0.0123928  -0.519633 -1.36987 -0.0137744  -0.563289 -1.46474 -0.0151815  -0.607445 -1.56015 -0.0166492  -0.651994 -1.65597 -0.0181284  -0.696802 -1.75208 -0.019644  -0.74179 -1.84839 -0.021163  -0.786841 -1.94478 -0.0227144  -0.831902 -2.04116 -0.0242596  -0.876888 -2.13748 -0.0258267  -0.921774 -2.23367 -0.0273819  -0.9665 -2.32968 -0.0289519  -1.01106 -2.42546 -0.0305028  -1.05543 -2.52098 -0.0320561  0 0 0  0.00142293 -0.00950927 0.000390053  0.00458089 -0.0355904 0.000498295  0.00640449 -0.0729102 0.000459671  0.00517839 -0.118484 0.000415564  0.000380218 -0.171023 0.000379801  -0.00813323 -0.229793 0.000309229  -0.0203621 -0.294124 0.000133038  -0.0362149 -0.363411 -0.000169754  -0.0555016 -0.437018 -0.000627518  -0.0780214 -0.514407 -0.00123382  -0.103518 -0.595064 -0.00199366  -0.131767 -0.678561 -0.00287485  -0.162503 -0.764492 -0.00388718  -0.195509 -0.852529 -0.00499368  -0.230528 -0.94235 -0.00620365  -0.267357 -1.0337 -0.00747967  -0.305754 -1.12631 -0.00884032  -0.345541 -1.21999 -0.0102413  -0.386488 -1.31454 -0.0117056  -0.428443 -1.40979 -0.0131955  -0.471205 -1.50558 -0.0147324  -0.514641 -1.60178 -0.0162842  -0.558577 -1.69824 -0.0178676  -0.602909 -1.7949 -0.0194502  -0.647494 -1.89162 -0.0210545  -0.692252 -1.98834 -0.0226469  -0.737063 -2.08496 -0.0242598  -0.781881 -2.18145 -0.0258555  -0.826625 -2.27775 -0.0274556  -0.871269 -2.37382 -0.029037  -0.915741 -2.46962 -0.0306253  -0.960027 -2.56513 -0.0321934  0 0 0  0.0048503 -0.0140392 0.00247765  0.0155194 -0.0431293 0.00398755  0.0261984 -0.0822992 0.00450301  0.0337487 -0.129433 0.00451589  0.0370883 -0.183642 0.00430059  0.0359377 -0.244249 0.00395942  0.0303304 -0.310662 0.00346565  0.0204145 -0.382135 0.00284839  0.00639844 -0.458034 0.0020957  -0.0114418 -0.537742 0.00120592  -0.0328261 -0.620691 0.000195742  -0.0574477 -0.706391 -0.000928402  -0.0850244 -0.794426 -0.0021534  -0.11525 -0.884421 -0.0034678  -0.147869 -0.976053 -0.00485945  -0.182595 -1.06905 -0.00631762  -0.219191 -1.16315 -0.00783086  -0.257406 -1.25815 -0.00938869  -0.297027 -1.35386 -0.0109854  -0.337833 -1.45011 -0.0126114  -0.379643 -1.54676 -0.0142572  -0.422263 -1.64368 -0.0159178  -0.46554 -1.74075 -0.0175879  -0.509316 -1.83788 -0.0192602  -0.553466 -1.93498 -0.0209281  -0.597862 -2.03199 -0.022593  -0.642407 -2.12883 -0.0242469  -0.687002 -2.22546 -0.0258918  -0.731592 -2.32184 -0.027519  -0.776111 -2.41796 -0.0291326  -0.820513 -2.51378 -0.0307353  -0.864742 -2.60931 -0.0323329  0 0 0  0.00930189 -0.0220555 0.00435519  0.028173 -0.0552688 0.00712514  0.0474613 -0.0960324 0.00822496  0.0632414 -0.144181 0.00837374  0.0742088 -0.19957 0.00805759  0.0800645 -0.261739 0.00748968  0.0808347 -0.329935 0.00674319  0.0766718 -0.403425 0.00583673  0.0678287 -0.481412 0.00481129  0.0545967 -0.563269 0.00366378  0.0373176 -0.648309 0.00240541  0.0163164 -0.736062 0.0010488  -0.00806201 -0.826025 -0.00039649  -0.0354916 -0.917839 -0.00190997  -0.0656499 -1.01113 -0.00349426  -0.0982425 -1.10565 -0.00512409  -0.132973 -1.2011 -0.00680518  -0.169584 -1.29731 -0.0085144  -0.207816 -1.39406 -0.0102527  -0.247446 -1.49122 -0.0120025  -0.288244 -1.58862 -0.013768  -0.330027 -1.68618 -0.0155342  -0.372597 -1.78376 -0.0173008  -0.415802 -1.88131 -0.0190563  -0.459481 -1.9787 -0.0208018  -0.503507 -2.07594 -0.0225258  -0.54776 -2.17292 -0.0242372  -0.59214 -2.26965 -0.025918  -0.636559 -2.36606 -0.0275812  -0.680959 -2.46219 -0.0292189  -0.725282 -2.55799 -0.0308394  -0.769497 -2.65355 -0.0324559  0 0 0  0.0165714 -0.035743 0.00598264  0.0444233 -0.0725855 0.00990629  0.0717478 -0.113714 0.0116136  0.0949913 -0.162223 0.0119834  0.113029 -0.218551 0.0116143  0.125476 -0.282112 0.0108767  0.132316 -0.352053 0.00991583  0.133687 -0.427418 0.00878072  0.129841 -0.507432 0.00749373  0.121093 -0.591276 0.0061059  0.107811 -0.678298 0.00460958  0.0903625 -0.767944 0.00302768  0.0691237 -0.859702 0.00136852  0.0444669 -0.95317 -0.000352859  0.0167382 -1.04799 -0.0021193  -0.0137221 -1.14386 -0.00393224  -0.0466001 -1.24054 -0.00577283  -0.0816007 -1.33781 -0.00763822  -0.118444 -1.43548 -0.00951481  -0.156881 -1.53342 -0.011399  -0.196674 -1.63147 -0.0132782  -0.237605 -1.72954 -0.0151527  -0.279474 -1.82752 -0.0170145  -0.322099 -1.92536 -0.0188582  -0.365316 -2.02296 -0.0206788  -0.408981 -2.12031 -0.0224721  -0.452963 -2.21735 -0.024229  -0.497139 -2.31408 -0.0259576  -0.541417 -2.41047 -0.0276446  -0.585715 -2.50654 -0.0293081  -0.629983 -2.6023 -0.0309372  -0.67421 -2.69785 -0.0325608  0 0 0  0.0302394 -0.0599336 0.00724769  0.0658832 -0.0945246 0.0124307  0.0996769 -0.134194 0.0147948  0.129642 -0.182863 0.0153379  0.154323 -0.240246 0.0149648  0.173073 -0.305338 0.014107  0.185734 -0.377024 0.0129383  0.192407 -0.45432 0.0116041  0.193354 -0.536285 0.0101099  0.188917 -0.622075 0.00848031  0.179476 -0.710955 0.00677705  0.165443 -0.802384 0.00497746  0.147231 -0.89578 0.003124  0.125253 -0.990773 0.00119662  0.099879 -1.08695 -0.000751734  0.0714889 -1.18405 -0.00274277  0.040415 -1.28178 -0.00474191  0.00698757 -1.37998 -0.00676084  -0.0285048 -1.47841 -0.00877571  -0.0657749 -1.57699 -0.0107951  -0.104585 -1.67552 -0.0127876  -0.144687 -1.77398 -0.0147758  -0.185882 -1.87222 -0.0167272  -0.227957 -1.97022 -0.0186622  -0.270743 -2.06789 -0.0205553  -0.314081 -2.16524 -0.0224123  -0.357833 -2.26221 -0.0242214  -0.401859 -2.35883 -0.0259924  -0.446054 -2.45507 -0.0277104  -0.490313 -2.55101 -0.0293884  -0.534579 -2.64665 -0.031023  -0.578833 -2.74217 -0.0326641  0 0 0  -0.0389621 -0.041122 -0.000108242  -0.0715828 -0.0643039 -6.36578e-05  -0.10662 -0.0893352 6.58035e-05  -0.143467 -0.120375 0.000158787  -0.181013 -0.158264 0.000165701  -0.218702 -0.202633 5.62668e-05  -0.256462 -0.252987 -0.000183582  -0.294398 -0.308712 -0.000581741  -0.33274 -0.369352 -0.00109887  -0.371643 -0.434377 -0.00175714  -0.411263 -0.503417 -0.00252271  -0.45164 -0.576031 -0.00341487  -0.492828 -0.651922 -0.00439215  -0.534772 -0.730713 -0.00547433  -0.577463 -0.812153 -0.00662231  -0.620804 -0.895915 -0.00785875  -0.664744 -0.981792 -0.00914669  -0.709161 -1.06949 -0.0105054  -0.754009 -1.15885 -0.0118949  -0.799151 -1.24959 -0.0133457  -0.844543 -1.34158 -0.0148051  -0.890049 -1.43456 -0.0163221  -0.935648 -1.52844 -0.0178335  -0.981222 -1.62299 -0.0193789  -1.02675 -1.71811 -0.0209119  -1.07215 -1.81361 -0.0224724  -1.11742 -1.90943 -0.02402  -1.16249 -2.00538 -0.0255835  -1.2074 -2.10141 -0.0271235  -1.25212 -2.19738 -0.0286744  -1.29673 -2.29328 -0.0302019  -1.34127 -2.389 -0.0317335  0 0 0  -0.0129777 -0.0204298 0.000152111  -0.0386522 -0.0464535 0.000124216  -0.0668939 -0.076598 0.000208616  -0.0958964 -0.113254 0.000262499  -0.125893 -0.156606 0.000228882  -0.15698 -0.206098 9.20296e-05  -0.189134 -0.261103 -0.000182152  -0.222351 -0.32109 -0.000593901  -0.256688 -0.385587 -0.00113797  -0.292182 -0.454181 -0.0018115  -0.328881 -0.526461 -0.00260544  -0.366768 -0.602074 -0.00350761  -0.405827 -0.680667 -0.00450373  -0.445975 -0.761938 -0.00559139  -0.487143 -0.845579 -0.0067575  -0.529213 -0.931337 -0.00799799  -0.572093 -1.01895 -0.00929928  -0.615652 -1.1082 -0.0106561  -0.659797 -1.19887 -0.0120578  -0.704394 -1.29075 -0.0134981  -0.749359 -1.38367 -0.0149732  -0.794557 -1.47744 -0.0164788  -0.839936 -1.57193 -0.0179965  -0.885378 -1.66697 -0.0195329  -0.930836 -1.76243 -0.0210726  -0.976227 -1.85819 -0.0226185  -1.02152 -1.95413 -0.0241711  -1.06665 -2.05015 -0.0257227  -1.11163 -2.14616 -0.0272639  -1.15642 -2.24209 -0.0288053  -1.20105 -2.33787 -0.0303304  -1.24557 -2.4335 -0.0318539  0 0 0  -0.00605327 -0.010619 0.000143528  -0.0193951 -0.0365949 0.000268698  -0.0371203 -0.0704744 0.000357389  -0.0571794 -0.111135 0.000409126  -0.0790848 -0.158404 0.000363588  -0.102889 -0.211741 0.000196218  -0.12864 -0.270518 -0.000103712  -0.156352 -0.334117 -0.000549555  -0.185972 -0.402071 -0.00110841  -0.217442 -0.473894 -0.00181961  -0.250689 -0.549219 -0.00261331  -0.285629 -0.62763 -0.00354886  -0.322155 -0.708829 -0.00454855  -0.360146 -0.792457 -0.00566387  -0.399467 -0.878265 -0.00682878  -0.439976 -0.965947 -0.00809741  -0.481532 -1.0553 -0.00939035  -0.523989 -1.14606 -0.0107727  -0.567211 -1.23807 -0.0121634  -0.61106 -1.33108 -0.0136282  -0.655412 -1.42498 -0.0150912  -0.700135 -1.51956 -0.0166118  -0.745137 -1.61472 -0.0181143  -0.790304 -1.71027 -0.0196702  -0.835561 -1.80615 -0.0211921  -0.880819 -1.9022 -0.0227571  -0.926023 -1.99835 -0.0242865  -0.971117 -2.09449 -0.0258543  -1.01607 -2.19058 -0.0273781  -1.06085 -2.28651 -0.0289292  -1.10546 -2.3823 -0.0304377  -1.14992 -2.47785 -0.0319719  0 0 0  -0.00191519 -0.00836399 0.00025773  -0.00643073 -0.0336783 0.000413895  -0.0139864 -0.0696577 0.000541687  -0.0245489 -0.113356 0.000585318  -0.0379147 -0.16373 0.000532389  -0.054094 -0.220131 0.000340939  -0.0731161 -0.281945 9.29832e-06  -0.0949287 -0.348585 -0.000460386  -0.119436 -0.419529 -0.00104904  -0.146479 -0.494256 -0.00177097  -0.175916 -0.572347 -0.0025959  -0.207558 -0.653377 -0.00353646  -0.241249 -0.73701 -0.00456238  -0.276786 -0.822892 -0.00568223  -0.314009 -0.910755 -0.00687385  -0.352709 -1.0003 -0.00814295  -0.392733 -1.09133 -0.00946259  -0.433877 -1.18357 -0.0108416  -0.476004 -1.27687 -0.0122552  -0.518924 -1.37102 -0.013716  -0.562522 -1.46588 -0.0151954  -0.606619 -1.56128 -0.0167122  -0.651122 -1.6571 -0.0182319  -0.695887 -1.75321 -0.0197732  -0.740841 -1.84951 -0.0213144  -0.785859 -1.94588 -0.0228674  -0.830899 -2.04228 -0.0244131  -0.875862 -2.13858 -0.0259657  -0.920735 -2.23477 -0.0275016  -0.965449 -2.33077 -0.0290427  -1.01001 -2.42657 -0.0305676  -1.05438 -2.52209 -0.0320866  0 0 0  0.00134875 -0.00991097 0.000346661  0.00439712 -0.0364424 0.00058341  0.00612491 -0.0741647 0.000739098  0.00482857 -0.120016 0.000788927  -1.60336e-05 -0.172698 0.000712156  -0.00855929 -0.231483 0.000504255  -0.0207815 -0.295803 0.000151634  -0.0365914 -0.365022 -0.000331402  -0.0558199 -0.438566 -0.000945807  -0.0782419 -0.515872 -0.00167918  -0.103646 -0.596489 -0.0025301  -0.131781 -0.679915 -0.00348234  -0.162418 -0.765827 -0.00453019  -0.195311 -0.853812 -0.00566459  -0.230237 -0.943624 -0.00687957  -0.266959 -1.03493 -0.00815487  -0.305279 -1.12755 -0.00949407  -0.34497 -1.2212 -0.0108826  -0.385854 -1.31575 -0.0123129  -0.427726 -1.41097 -0.0137789  -0.470438 -1.50677 -0.0152757  -0.513809 -1.60294 -0.0167894  -0.557708 -1.69942 -0.0183272  -0.601987 -1.79604 -0.0198669  -0.646546 -1.89277 -0.0214207  -0.691262 -1.98946 -0.0229673  -0.736061 -2.0861 -0.0245225  -0.780848 -2.18257 -0.026072  -0.825587 -2.27887 -0.0276175  -0.870207 -2.37492 -0.0291517  -0.91469 -2.47075 -0.0306864  -0.958982 -2.56626 -0.0322056  0 0 0  0.00469187 -0.0144232 0.000416756  0.0152017 -0.0439166 0.000756502  0.0257663 -0.0834748 0.000936031  0.0332875 -0.13089 0.000986576  0.0366303 -0.185239 0.000899553  0.0355117 -0.24593 0.000687122  0.0299449 -0.312313 0.000321388  0.0200882 -0.383766 -0.000183821  0.00614595 -0.459618 -0.000807762  -0.0116062 -0.539269 -0.00156331  -0.0329001 -0.622154 -0.0024271  -0.0574237 -0.707817 -0.00340319  -0.0848967 -0.795804 -0.00446653  -0.115024 -0.885777 -0.0056231  -0.147546 -0.97737 -0.0068481  -0.182181 -1.07035 -0.00814605  -0.218691 -1.16442 -0.00949788  -0.256826 -1.25941 -0.0109036  -0.296372 -1.3551 -0.0123475  -0.337111 -1.45135 -0.0138309  -0.37886 -1.54798 -0.0153348  -0.421429 -1.64489 -0.0168643  -0.464657 -1.74194 -0.0184052  -0.508391 -1.83907 -0.0199592  -0.552503 -1.93615 -0.0215147  -0.596865 -2.03316 -0.0230742  -0.641387 -2.12998 -0.0246289  -0.685965 -2.22661 -0.0261822  -0.73054 -2.32298 -0.0277255  -0.775045 -2.4191 -0.0292692  -0.819445 -2.51492 -0.030797  -0.863681 -2.61046 -0.0323284  0 0 0  0.00905713 -0.0225092 0.000490665  0.0277415 -0.0561327 0.000888348  0.0469215 -0.0972584 0.00111723  0.0627101 -0.145646 0.00118566  0.0737342 -0.201182 0.00110054  0.0796488 -0.263392 0.000876665  0.0804743 -0.331602 0.000504971  0.0763819 -0.405034 -6.67572e-06  0.0676098 -0.483 -0.000645161  0.0544652 -0.564787 -0.00141215  0.0372745 -0.649795 -0.00229931  0.0163617 -0.737491 -0.0032897  -0.0079155 -0.827429 -0.00437808  -0.0352557 -0.919199 -0.00554562  -0.0653168 -1.01247 -0.00679708  -0.0978246 -1.10695 -0.00810766  -0.132466 -1.2024 -0.00948477  -0.169002 -1.29858 -0.0109055  -0.207157 -1.39532 -0.012373  -0.246724 -1.49246 -0.0138607  -0.287459 -1.58986 -0.0153854  -0.329193 -1.6874 -0.0169208  -0.371709 -1.78497 -0.0184784  -0.414875 -1.88249 -0.0200348  -0.458511 -1.97988 -0.0216064  -0.502513 -2.07709 -0.0231681  -0.546734 -2.17407 -0.0247347  -0.591101 -2.27078 -0.0262854  -0.635498 -2.3672 -0.0278401  -0.679892 -2.46332 -0.0293746  -0.724206 -2.55913 -0.030911  -0.768431 -2.65468 -0.0324357  0 0 0  0.0162913 -0.0363644 0.000520468  0.0439491 -0.0736817 0.00100827  0.0711643 -0.1151 0.00129795  0.09443 -0.163744 0.00138783  0.112528 -0.220152 0.00131035  0.12506 -0.283758 0.00108576  0.131964 -0.353666 0.000716448  0.133401 -0.429027 0.000204086  0.129631 -0.508971 -0.000447035  0.120968 -0.592794 -0.00122523  0.107771 -0.679772 -0.00213194  0.0904161 -0.769391 -0.00313973  0.0692691 -0.861105 -0.00425029  0.0447071 -0.954553 -0.00545192  0.0170662 -1.04933 -0.00671864  -0.0133047 -1.1452 -0.00806117  -0.0461006 -1.24184 -0.00945139  -0.0810206 -1.33911 -0.0108979  -0.117792 -1.43675 -0.0123777  -0.15616 -1.53468 -0.0138941  -0.195895 -1.6327 -0.0154233  -0.23677 -1.73077 -0.0169811  -0.278587 -1.82873 -0.0185435  -0.321168 -1.92656 -0.0201197  -0.364346 -2.02414 -0.0216944  -0.407974 -2.12149 -0.0232713  -0.451931 -2.21851 -0.024833  -0.496088 -2.31524 -0.0263987  -0.540349 -2.41161 -0.0279422  -0.584637 -2.50769 -0.0294914  -0.628897 -2.60344 -0.0310161  -0.673122 -2.699 -0.0325453  0 0 0  0.0299352 -0.0609739 0.000430584  0.0654829 -0.0959719 0.00107884  0.0991189 -0.135791 0.00151038  0.129063 -0.184491 0.00163722  0.153796 -0.24188 0.00156379  0.172611 -0.306959 0.0013628  0.185342 -0.378626 0.000979185  0.192086 -0.45588 0.000465631  0.193112 -0.537801 -0.000213623  0.188752 -0.623525 -0.00100923  0.179391 -0.712392 -0.00192547  0.165442 -0.803775 -0.00296617  0.14733 -0.897149 -0.00408888  0.125435 -0.9921 -0.00532556  0.100165 -1.08826 -0.00661707  0.0718508 -1.18533 -0.00798869  0.0408728 -1.28305 -0.00940061  0.00751567 -1.38122 -0.0108769  -0.0278871 -1.47965 -0.0123737  -0.0651004 -1.5782 -0.0139132  -0.103834 -1.67674 -0.0154598  -0.143892 -1.77516 -0.0170369  -0.185013 -1.8734 -0.0186124  -0.227054 -1.97138 -0.0202029  -0.269789 -2.06905 -0.0217838  -0.313101 -2.16638 -0.0233655  -0.356807 -2.26335 -0.0249355  -0.400823 -2.35996 -0.0265045  -0.444987 -2.4562 -0.0280514  -0.489249 -2.55213 -0.0295987  -0.53349 -2.6478 -0.0311236  -0.577749 -2.74329 -0.0326593  0 0 0  -0.0380469 -0.0400439 0.00928473  -0.0707358 -0.0625106 0.0149736  -0.105896 -0.0871362 0.0176787  -0.14268 -0.118137 0.0181208  -0.180062 -0.156176 0.017153  -0.217577 -0.200856 0.0154777  -0.255189 -0.25152 0.0135028  -0.293024 -0.307579 0.0114329  -0.33131 -0.368479 0.00940824  -0.370186 -0.433776 0.00741673  -0.409793 -0.503007 0.0054853  -0.45018 -0.575837 0.00357962  -0.491374 -0.651866 0.00170088  -0.533344 -0.730826 -0.000177383  -0.576058 -0.812379 -0.00204039  -0.619426 -0.896284 -0.00392127  -0.663388 -0.982239 -0.00578785  -0.707843 -1.07006 -0.00767088  -0.752713 -1.15948 -0.00953364  -0.797893 -1.25032 -0.0114036  -0.843305 -1.34235 -0.0132437  -0.888848 -1.43542 -0.0150921  -0.934467 -1.52931 -0.0168951  -0.980074 -1.62393 -0.018693  -1.02562 -1.71906 -0.0204427  -1.07105 -1.81463 -0.022167  -1.11633 -1.91044 -0.0238483  -1.16142 -2.00643 -0.0255108  -1.20633 -2.10246 -0.0271127  -1.25106 -2.19848 -0.0286956  -1.29565 -2.29436 -0.0302334  -1.34019 -2.3901 -0.0317681  0 0 0  -0.0128651 -0.0196784 0.0068469  -0.0383962 -0.0449755 0.0110533  -0.0664614 -0.074771 0.0130999  -0.0952312 -0.11137 0.0134506  -0.12497 -0.154872 0.0127404  -0.155843 -0.204581 0.0114472  -0.187834 -0.259855 0.009866  -0.22095 -0.320114 0.00819659  -0.255224 -0.384864 0.00651002  -0.290694 -0.453678 0.00483274  -0.327385 -0.526154 0.00316572  -0.365283 -0.601943 0.00150371  -0.404355 -0.68069 -0.000161409  -0.444526 -0.762098 -0.00183964  -0.485716 -0.845867 -0.00353336  -0.527816 -0.931735 -0.00524521  -0.570721 -1.01945 -0.00697041  -0.614313 -1.10879 -0.00871229  -0.658482 -1.19953 -0.0104542  -0.703112 -1.29149 -0.0122013  -0.748098 -1.38446 -0.0139477  -0.793334 -1.4783 -0.0156868  -0.838735 -1.57282 -0.0174131  -0.884206 -1.66791 -0.019125  -0.929685 -1.7634 -0.020808  -0.9751 -1.85919 -0.0224731  -1.02041 -1.95515 -0.0241098  -1.06556 -2.05119 -0.0257215  -1.11054 -2.14721 -0.0272996  -1.15534 -2.24315 -0.0288529  -1.19998 -2.33894 -0.0303853  -1.24449 -2.43458 -0.0319014  0 0 0  -0.00599223 -0.0101014 0.00441384  -0.0192387 -0.0355575 0.00742507  -0.036779 -0.0690638 0.00889206  -0.056575 -0.109619 0.00915623  -0.0782134 -0.156929 0.00863838  -0.101798 -0.210429 0.00767255  -0.127383 -0.269413 0.0064683  -0.154992 -0.333265 0.00516248  -0.184547 -0.401424 0.0037992  -0.21599 -0.47347 0.00240445  -0.249229 -0.548957 0.000999212  -0.284176 -0.627555 -0.000444174  -0.320714 -0.70888 -0.00190377  -0.358724 -0.792661 -0.00340557  -0.398063 -0.878571 -0.00493121  -0.438599 -0.966381 -0.00649714  -0.480177 -1.05581 -0.00807667  -0.522661 -1.14668 -0.00969362  -0.565905 -1.23874 -0.0113151  -0.609784 -1.33184 -0.012959  -0.654156 -1.42578 -0.0145986  -0.698912 -1.52043 -0.0162492  -0.743934 -1.61561 -0.0178888  -0.789128 -1.71123 -0.0195322  -0.834404 -1.80712 -0.0211446  -0.879686 -1.90321 -0.0227592  -0.924905 -1.99937 -0.024338  -0.970019 -2.09554 -0.0259178  -1.01498 -2.19162 -0.0274615  -1.05977 -2.28759 -0.0289998  -1.10438 -2.38335 -0.0305068  -1.14885 -2.47893 -0.0320182  0 0 0  -0.00183903 -0.00800431 0.00228739  -0.00621797 -0.032895 0.00393581  -0.0136028 -0.0685711 0.00486279  -0.0239395 -0.1121 0.00506806  -0.0370843 -0.162479 0.0047605  -0.0530745 -0.218968 0.00410724  -0.0719513 -0.280955 0.00324464  -0.0936738 -0.347791 0.00226927  -0.118116 -0.418922 0.00120902  -0.145131 -0.493844 8.17776e-05  -0.174552 -0.572099 -0.00108242  -0.206196 -0.653292 -0.00231194  -0.23989 -0.73706 -0.00358081  -0.275442 -0.82308 -0.00490904  -0.312675 -0.911052 -0.0062747  -0.351396 -1.00072 -0.00769734  -0.391433 -1.09183 -0.00914335  -0.432602 -1.18416 -0.0106344  -0.474744 -1.27753 -0.0121393  -0.517691 -1.37176 -0.01368  -0.561302 -1.46667 -0.0152221  -0.605428 -1.56212 -0.016789  -0.649951 -1.65798 -0.0183456  -0.69474 -1.75413 -0.0199187  -0.739703 -1.85046 -0.0214705  -0.784746 -1.94687 -0.0230315  -0.829795 -2.04328 -0.0245702  -0.874782 -2.13961 -0.0261092  -0.919656 -2.2358 -0.0276222  -0.964386 -2.33182 -0.0291393  -1.00895 -2.42761 -0.0306306  -1.05331 -2.52314 -0.0321209  0 0 0  0.0014451 -0.00961274 0.000241041  0.00471854 -0.0358287 0.000626326  0.00662085 -0.0732461 0.00100446  0.00547659 -0.118931 0.00115991  0.000789225 -0.171574 0.00104403  -0.00760436 -0.230443 0.000684023  -0.0197195 -0.294888 0.00014329  -0.0354407 -0.364271 -0.000527382  -0.0546067 -0.437982 -0.00129867  -0.076997 -0.515485 -0.00216293  -0.102378 -0.596233 -0.00310421  -0.130505 -0.679834 -0.0041275  -0.161143 -0.765859 -0.00520611  -0.194038 -0.853996 -0.00637102  -0.228971 -0.9439 -0.00758219  -0.265703 -1.03533 -0.0088613  -0.304034 -1.12802 -0.0101748  -0.343738 -1.22178 -0.0115485  -0.384634 -1.31639 -0.0129416  -0.426526 -1.4117 -0.0143821  -0.469251 -1.50753 -0.0158291  -0.512639 -1.60378 -0.0173097  -0.556556 -1.70028 -0.0187888  -0.600854 -1.79696 -0.0202961  -0.645425 -1.8937 -0.021791  -0.690158 -1.99045 -0.0232964  -0.734967 -2.08708 -0.0247898  -0.779768 -2.18359 -0.0262947  -0.824515 -2.27989 -0.0277781  -0.869144 -2.37598 -0.0292733  -0.913628 -2.47178 -0.0307467  -0.957918 -2.5673 -0.0322237  0 0 0  0.00482073 -0.0141432 -0.00167131  0.0156359 -0.0433218 -0.00248671  0.0263855 -0.0826258 -0.00262499  0.034006 -0.129898 -0.0025506  0.0374446 -0.184225 -0.00251579  0.0364108 -0.244964 -0.00260282  0.0309317 -0.311466 -0.00285029  0.021137 -0.38305 -0.00324631  0.00724602 -0.459064 -0.00374579  -0.0104736 -0.538869 -0.00437117  -0.0317318 -0.621908 -0.00508714  -0.0562475 -0.707703 -0.00590968  -0.0837048 -0.795841 -0.00681686  -0.113836 -0.885919 -0.00780511  -0.146351 -0.977641 -0.00886798  -0.180992 -1.07071 -0.0100005  -0.217502 -1.16489 -0.0111923  -0.255647 -1.25995 -0.0124402  -0.2952 -1.35573 -0.0137312  -0.335954 -1.45203 -0.0150654  -0.37771 -1.54874 -0.0164297  -0.420292 -1.64569 -0.0178208  -0.463531 -1.7428 -0.0192344  -0.507281 -1.83995 -0.0206642  -0.551401 -1.93708 -0.0221076  -0.595779 -2.0341 -0.0235584  -0.640306 -2.13096 -0.0250163  -0.684896 -2.2276 -0.0264766  -0.729476 -2.324 -0.0279403  -0.773988 -2.42012 -0.0294034  -0.818387 -2.51595 -0.0308647  -0.862624 -2.61148 -0.0323172  0 0 0  0.00920749 -0.0221553 -0.00337577  0.0282627 -0.0554703 -0.00530434  0.0476261 -0.0964047 -0.00597405  0.0634801 -0.144694 -0.00600743  0.0745399 -0.200218 -0.00586796  0.0805113 -0.262483 -0.00575447  0.0813985 -0.330785 -0.00574684  0.0773563 -0.404372 -0.00587416  0.0686289 -0.482471 -0.00613523  0.0555215 -0.564417 -0.00652122  0.0383565 -0.649563 -0.00703287  0.0174669 -0.737411 -0.00765419  -0.0067966 -0.827465 -0.00838852  -0.0341269 -0.919362 -0.00920439  -0.0641859 -1.01274 -0.0101278  -0.096684 -1.10733 -0.0111177  -0.131329 -1.20285 -0.0121899  -0.167865 -1.29913 -0.0133157  -0.206027 -1.39594 -0.0145094  -0.245596 -1.49315 -0.0157344  -0.286345 -1.5906 -0.0170155  -0.328078 -1.6882 -0.0183206  -0.37061 -1.78581 -0.0196688  -0.413778 -1.88338 -0.0210247  -0.457425 -1.9808 -0.0224187  -0.501431 -2.07805 -0.0238132  -0.545665 -2.17505 -0.0252359  -0.590034 -2.27179 -0.0266531  -0.634443 -2.36822 -0.0280998  -0.678833 -2.46435 -0.0295331  -0.723151 -2.56017 -0.0309863  -0.767362 -2.65572 -0.0324221  0 0 0  0.0164327 -0.0358832 -0.0048852  0.0444995 -0.072864 -0.00781226  0.07191 -0.114154 -0.00899816  0.095247 -0.162789 -0.00920868  0.113372 -0.219234 -0.00901508  0.125917 -0.282897 -0.00873113  0.132863 -0.352935 -0.00849485  0.134342 -0.428413 -0.00839472  0.130605 -0.508518 -0.00842214  0.121972 -0.592457 -0.00858164  0.108803 -0.679592 -0.00889516  0.0914599 -0.769325 -0.00933027  0.0703307 -0.861172 -0.00989103  0.0457816 -0.954717 -0.0105681  0.0181471 -1.04962 -0.0113401  -0.0122133 -1.14556 -0.0122035  -0.045011 -1.24231 -0.0131474  -0.0799251 -1.33964 -0.0141711  -0.116703 -1.43737 -0.0152555  -0.155071 -1.53535 -0.0163949  -0.194812 -1.63345 -0.01758  -0.235683 -1.73156 -0.018815  -0.277514 -1.82958 -0.0200825  -0.320095 -1.92743 -0.0213869  -0.363285 -2.02507 -0.0227153  -0.406918 -2.12243 -0.0240688  -0.450882 -2.21948 -0.0254378  -0.495039 -2.31622 -0.0268347  -0.539311 -2.41263 -0.0282395  -0.583594 -2.5087 -0.0296707  -0.627859 -2.60448 -0.0310979  -0.672073 -2.70002 -0.0325251  0 0 0  0.0299631 -0.0602546 -0.00634694  0.0659721 -0.094964 -0.0101573  0.099893 -0.134712 -0.0117636  0.129921 -0.183485 -0.0120947  0.154678 -0.240965 -0.0118351  0.173506 -0.306155 -0.0114021  0.186261 -0.377955 -0.010987  0.193039 -0.455359 -0.0106874  0.194095 -0.537401 -0.0105369  0.189761 -0.623289 -0.0105345  0.180419 -0.712279 -0.0106413  0.166494 -0.803795 -0.0109298  0.148388 -0.89727 -0.0113308  0.126513 -0.992341 -0.0118697  0.101235 -1.08859 -0.0125062  0.0729451 -1.18576 -0.0132527  0.0419555 -1.28356 -0.0140846  0.0086112 -1.38181 -0.0150065  -0.0268044 -1.4803 -0.0159891  -0.064008 -1.57893 -0.0170457  -0.102758 -1.67751 -0.0181468  -0.142798 -1.776 -0.0193119  -0.183942 -1.87427 -0.0205104  -0.225975 -1.9723 -0.0217488  -0.268728 -2.06999 -0.0230222  -0.312033 -2.16736 -0.0243251  -0.355761 -2.26434 -0.0256557  -0.399761 -2.36098 -0.027019  -0.443951 -2.45723 -0.0283954  -0.488195 -2.55317 -0.0298121  -0.532455 -2.64883 -0.0312254  -0.576697 -2.74434 -0.0326598  0 0 0  -0.0358481 -0.0364727 0.0195422  -0.0689048 -0.0563351 0.031004  -0.104223 -0.0798503 0.03581  -0.140718 -0.110877 0.0360761  -0.17765 -0.149588 0.0338249  -0.214772 -0.195141 0.0304461  -0.252103 -0.246748 0.0267177  -0.28981 -0.303642 0.0230241  -0.328059 -0.365295 0.0195556  -0.366995 -0.431194 0.0162983  -0.406696 -0.500957 0.0132651  -0.447222 -0.574203 0.0103855  -0.488557 -0.650624 0.00764799  -0.530684 -0.729887 0.00499344  -0.573546 -0.811738 0.00244141  -0.61707 -0.895871 -7.05719e-05  -0.661176 -0.982068 -0.00250149  -0.705772 -1.07006 -0.00490141  -0.750768 -1.15967 -0.00722599  -0.796079 -1.25063 -0.00951433  -0.841607 -1.34281 -0.0117173  -0.887266 -1.43597 -0.0138974  -0.932978 -1.52999 -0.0159874  -0.978681 -1.62467 -0.0180321  -1.0243 -1.71989 -0.0199876  -1.0698 -1.81549 -0.0218902  -1.11513 -1.91138 -0.0237017  -1.16028 -2.0074 -0.0254607  -1.20521 -2.10348 -0.0271225  -1.24996 -2.19949 -0.0287337  -1.29456 -2.2954 -0.0302796  -1.33908 -2.39114 -0.0318127  0 0 0  -0.0128592 -0.0170636 0.0141873  -0.0381874 -0.0400084 0.0226116  -0.0655996 -0.0687495 0.0262165  -0.0935667 -0.10527 0.0264926  -0.122602 -0.14922 0.0248818  -0.152944 -0.199638 0.0223651  -0.184608 -0.255673 0.0194964  -0.217564 -0.316641 0.0166178  -0.251817 -0.382034 0.013864  -0.28735 -0.451394 0.0112457  -0.324157 -0.524341 0.00874949  -0.3622 -0.600525 0.00636911  -0.401432 -0.67962 0.00406408  -0.441763 -0.761325 0.00181437  -0.483117 -0.845359 -0.00039053  -0.525375 -0.931459 -0.00255728  -0.568432 -1.01938 -0.00469971  -0.612164 -1.1089 -0.00681305  -0.656475 -1.1998 -0.00889397  -0.701228 -1.29189 -0.0109363  -0.746342 -1.38499 -0.0129519  -0.791688 -1.47893 -0.0149179  -0.837196 -1.57355 -0.0168495  -0.882763 -1.6687 -0.0187297  -0.928329 -1.76426 -0.0205588  -0.973813 -1.8601 -0.0223389  -1.01918 -1.95611 -0.0240636  -1.06439 -2.05218 -0.0257325  -1.10941 -2.14823 -0.0273504  -1.15423 -2.24418 -0.0289121  -1.19888 -2.33999 -0.0304461  -1.2434 -2.43561 -0.031961  0 0 0  -0.00604309 -0.00824523 0.00906229  -0.0191829 -0.031858 0.0149455  -0.0361393 -0.0642869 0.0175128  -0.0551118 -0.104487 0.0177221  -0.0759967 -0.152007 0.0165825  -0.0990174 -0.205979 0.0147786  -0.124273 -0.265567 0.0126996  -0.151717 -0.330006 0.0105696  -0.181237 -0.39873 0.0084753  -0.212736 -0.471245 0.00643444  -0.24609 -0.547192 0.00447416  -0.281171 -0.626141 0.0025363  -0.317867 -0.707823 0.000659466  -0.356025 -0.791871 -0.00123405  -0.395521 -0.878061 -0.00308895  -0.436206 -0.966076 -0.0049572  -0.477931 -1.05573 -0.0067935  -0.520548 -1.14675 -0.00866508  -0.563926 -1.239 -0.0104833  -0.607922 -1.33221 -0.0123243  -0.652421 -1.4263 -0.0141106  -0.697279 -1.52103 -0.0159154  -0.742407 -1.61632 -0.0176601  -0.787689 -1.71199 -0.0194159  -0.833047 -1.80797 -0.0210958  -0.878399 -1.90409 -0.0227818  -0.923686 -2.00031 -0.0243864  -0.968843 -2.0965 -0.0260034  -1.01385 -2.19263 -0.0275373  -1.05867 -2.28859 -0.0290837  -1.1033 -2.38439 -0.0305743  -1.14775 -2.47993 -0.0320845  0 0 0  -0.00170298 -0.0065836 0.00438833  -0.00579737 -0.0300822 0.00756025  -0.0127189 -0.0646826 0.00915003  -0.0224385 -0.10774 0.00936556  -0.0349737 -0.158087 0.00871181  -0.0504922 -0.214876 0.0075779  -0.0690745 -0.277295 0.00621367  -0.090643 -0.344638 0.00476503  -0.11505 -0.416246 0.00327682  -0.142099 -0.491612 0.00178814  -0.171615 -0.570283 0.000310898  -0.203371 -0.651837 -0.00117874  -0.237206 -0.735932 -0.00267982  -0.272887 -0.822237 -0.00419378  -0.310262 -0.910469 -0.00573444  -0.349109 -1.00036 -0.00729418  -0.389285 -1.09167 -0.00886583  -0.430573 -1.18419 -0.0104556  -0.472839 -1.27772 -0.0120535  -0.515895 -1.37209 -0.0136576  -0.55962 -1.46712 -0.0152669  -0.603838 -1.56269 -0.0168757  -0.648456 -1.65864 -0.018477  -0.693322 -1.75487 -0.0200677  -0.73837 -1.85127 -0.0216417  -0.783472 -1.94774 -0.0231972  -0.828587 -2.04419 -0.0247345  -0.873611 -2.14056 -0.0262542  -0.918537 -2.23678 -0.0277505  -0.963283 -2.33282 -0.029232  -1.00786 -2.42862 -0.0307016  -1.05222 -2.52414 -0.0321641  0 0 0  0.00179791 -0.00848469 -0.000105381  0.0056003 -0.0334627 0.000477314  0.00789526 -0.0699073 0.00111628  0.00714988 -0.115024 0.0013485  0.00285262 -0.167542 0.00115252  -0.00522542 -0.226575 0.000647068  -0.0171092 -0.291355 -7.10487e-05  -0.0327147 -0.361151 -0.000899315  -0.0518445 -0.435303 -0.00180101  -0.0742626 -0.513198 -0.0027709  -0.0997075 -0.594355 -0.00377893  -0.12793 -0.678284 -0.00485563  -0.158673 -0.764646 -0.00595093  -0.191684 -0.853046 -0.00713491  -0.226728 -0.943224 -0.00833368  -0.263583 -1.03487 -0.00960875  -0.30202 -1.12778 -0.01089  -0.341837 -1.22171 -0.0122495  -0.382836 -1.3165 -0.0135932  -0.424833 -1.41194 -0.0150061  -0.467651 -1.50792 -0.0163965  -0.511132 -1.60426 -0.0178456  -0.555125 -1.70088 -0.0192666  -0.599499 -1.79763 -0.0207343  -0.644135 -1.89446 -0.0221658  -0.688929 -1.99125 -0.023634  -0.733791 -2.08796 -0.0250592  -0.778636 -2.18449 -0.0265236  -0.823415 -2.28084 -0.0279403  -0.868072 -2.37694 -0.0293965  -0.912564 -2.47277 -0.0308027  -0.956843 -2.56827 -0.0322533  0 0 0  0.00537609 -0.0130562 -0.00433159  0.0169508 -0.0411043 -0.00618601  0.0280504 -0.0794955 -0.00645828  0.0358835 -0.126246 -0.00626755  0.0394989 -0.180415 -0.00608683  0.0386444 -0.241259 -0.00605679  0.0332878 -0.308019 -0.0061698  0.0235782 -0.379968 -0.00643158  0.00971615 -0.45636 -0.00680447  -0.0080198 -0.53655 -0.00726986  -0.0293337 -0.619969 -0.00782824  -0.0539087 -0.706097 -0.00848627  -0.081457 -0.794542 -0.00922632  -0.111672 -0.884901 -0.0100346  -0.144287 -0.976874 -0.0109301  -0.179021 -1.07017 -0.0118918  -0.215636 -1.16456 -0.0129189  -0.253869 -1.25981 -0.0140038  -0.293516 -1.35576 -0.0151377  -0.334352 -1.45221 -0.0163226  -0.376199 -1.54904 -0.0175395  -0.418854 -1.64612 -0.0187907  -0.46217 -1.74333 -0.0200725  -0.505982 -1.84058 -0.0213752  -0.550167 -1.93779 -0.0227051  -0.594591 -2.03488 -0.0240488  -0.639168 -2.1318 -0.0254045  -0.683791 -2.22849 -0.0267711  -0.728405 -2.32492 -0.028151  -0.772936 -2.42106 -0.0295353  -0.817349 -2.51691 -0.0309248  -0.861575 -2.61243 -0.0323076  0 0 0  0.00994951 -0.0208654 -0.00808525  0.0299203 -0.053051 -0.0121808  0.0496066 -0.093225 -0.0134277  0.0655145 -0.141109 -0.0134058  0.0766141 -0.196533 -0.0129862  0.0826341 -0.258911 -0.0125113  0.0835795 -0.327466 -0.0121188  0.0795736 -0.40138 -0.011847  0.070868 -0.479821 -0.0117197  0.0577409 -0.56211 -0.011714  0.0405416 -0.64762 -0.0118322  0.0196002 -0.735777 -0.012085  -0.00473785 -0.826151 -0.0124426  -0.0321304 -0.918295 -0.0129161  -0.0622724 -1.01194 -0.0134907  -0.0948483 -1.10673 -0.0141649  -0.129584 -1.20249 -0.0149169  -0.166195 -1.29893 -0.0157561  -0.204442 -1.39593 -0.0166602  -0.244084 -1.49328 -0.0176301  -0.28491 -1.59088 -0.0186548  -0.326709 -1.68858 -0.0197315  -0.369311 -1.78633 -0.0208597  -0.412533 -1.88397 -0.0220246  -0.456241 -1.9815 -0.0232267  -0.500284 -2.0788 -0.0244646  -0.544565 -2.17588 -0.0257306  -0.588959 -2.27265 -0.0270209  -0.633397 -2.36914 -0.0283513  -0.677802 -2.46527 -0.0296884  -0.722131 -2.56113 -0.031045  -0.766338 -2.65667 -0.0324011  0 0 0  0.0172256 -0.0340837 -0.0112619  0.0463096 -0.0699337 -0.0174665  0.0740634 -0.110707 -0.0197911  0.0974009 -0.159158 -0.0200677  0.115471 -0.215611 -0.0195041  0.128001 -0.279456 -0.0186663  0.134956 -0.349741 -0.0178185  0.136446 -0.425542 -0.0170889  0.132715 -0.505954 -0.01648  0.124067 -0.590252 -0.0160303  0.110865 -0.6777 -0.0157332  0.0934834 -0.767752 -0.0155931  0.072298 -0.859891 -0.0155921  0.0476834 -0.953709 -0.0157347  0.0199825 -1.04884 -0.0160007  -0.010456 -1.14501 -0.0163889  -0.0433235 -1.24195 -0.0168734  -0.0783172 -1.33948 -0.0174737  -0.115166 -1.43736 -0.0181541  -0.153608 -1.53551 -0.018919  -0.193413 -1.63373 -0.0197525  -0.234354 -1.73197 -0.0206628  -0.276243 -1.83008 -0.0216265  -0.318881 -1.92805 -0.0226617  -0.362118 -2.02575 -0.0237403  -0.405796 -2.1232 -0.0248709  -0.449793 -2.22031 -0.0260448  -0.493984 -2.31711 -0.027276  -0.538276 -2.41353 -0.0285354  -0.582578 -2.50965 -0.0298471  -0.626851 -2.60542 -0.0311704  -0.671075 -2.70098 -0.0324993  0 0 0  0.0305214 -0.0575513 -0.0142155  0.0676373 -0.0912467 -0.0225472  0.102098 -0.130843 -0.0257788  0.132222 -0.179714 -0.0262599  0.156919 -0.237385 -0.0255251  0.175711 -0.302828 -0.0243587  0.188437 -0.374948 -0.0231333  0.195205 -0.452655 -0.0219808  0.196245 -0.535035 -0.0209699  0.191885 -0.621253 -0.0201406  0.182516 -0.710559 -0.0194602  0.168541 -0.802354 -0.0189652  0.150379 -0.896134 -0.0186391  0.128426 -0.991452 -0.0184655  0.103089 -1.08794 -0.0184321  0.0747101 -1.1853 -0.0185466  0.0436571 -1.2833 -0.018786  0.0102222 -1.38172 -0.0191526  -0.025255 -1.48038 -0.0196166  -0.0625432 -1.57914 -0.0201845  -0.101346 -1.67786 -0.0208411  -0.141468 -1.77645 -0.0215859  -0.182659 -1.87484 -0.0223966  -0.224762 -1.97295 -0.023294  -0.267551 -2.07073 -0.0242538  -0.310919 -2.16816 -0.0252767  -0.354671 -2.26521 -0.0263634  -0.398719 -2.36187 -0.0275207  -0.442918 -2.45816 -0.0287299  -0.487198 -2.55411 -0.0300069  -0.531453 -2.64978 -0.0313106  -0.575715 -2.74526 -0.032639  0 0 0  -0.0342018 -0.0293052 0.0320129  -0.0674079 -0.0442466 0.048779  -0.101655 -0.0664354 0.054419  -0.136868 -0.0982735 0.0535841  -0.17282 -0.138623 0.0495887  -0.209368 -0.185989 0.0443969  -0.246453 -0.239238 0.0389719  -0.284138 -0.297547 0.0338178  -0.322526 -0.360332 0.0290589  -0.361698 -0.427168 0.0246911  -0.401687 -0.497683 0.0206594  -0.442527 -0.571568 0.0169039  -0.484176 -0.648516 0.0133543  -0.526623 -0.728248 0.00999069  -0.569788 -0.810487 0.00676727  -0.613609 -0.894982 0.00366306  -0.657986 -0.981481 0.000669479  -0.702853 -1.06976 -0.00221443  -0.748093 -1.15958 -0.00499535  -0.793645 -1.25077 -0.00767517  -0.83938 -1.34312 -0.010252  -0.885249 -1.43645 -0.0127363  -0.931136 -1.53059 -0.0151238  -0.977012 -1.62539 -0.0174003  -1.02278 -1.7207 -0.0195694  -1.06841 -1.81638 -0.0216346  -1.11384 -1.91232 -0.0235839  -1.15907 -2.00839 -0.0254245  -1.20407 -2.1045 -0.0271649  -1.24885 -2.20055 -0.0288  -1.29346 -2.29645 -0.0303493  -1.33801 -2.39221 -0.0318656  0 0 0  -0.0142739 -0.0117731 0.0233188  -0.0391942 -0.0304991 0.0352521  -0.0644617 -0.0578323 0.0393343  -0.0903409 -0.0947111 0.0388474  -0.117919 -0.139824 0.0360813  -0.147426 -0.191624 0.032321  -0.178717 -0.249007 0.0283084  -0.211636 -0.311139 0.0243921  -0.246031 -0.377515 0.0207162  -0.28182 -0.447704 0.0172806  -0.318941 -0.521344 0.0140591  -0.357319 -0.598114 0.0110254  -0.396885 -0.67771 0.00813293  -0.437549 -0.759851 0.00534534  -0.479218 -0.844263 0.00265884  -0.521783 -0.930694 5.24521e-05  -0.565126 -1.01891 -0.00248909  -0.609133 -1.10868 -0.00496054  -0.653696 -1.19981 -0.00736284  -0.698698 -1.2921 -0.00969839  -0.744027 -1.38537 -0.0119677  -0.789585 -1.47945 -0.014164  -0.835273 -1.57419 -0.016295  -0.881012 -1.66945 -0.0183406  -0.926728 -1.76509 -0.0203161  -0.972355 -1.861 -0.0222063  -1.01784 -1.95705 -0.0240169  -1.06314 -2.05317 -0.0257449  -1.10823 -2.14925 -0.0273986  -1.1531 -2.24522 -0.0289783  -1.19777 -2.34103 -0.0305066  -1.24229 -2.43667 -0.032032  0 0 0  -0.00689428 -0.004155 0.0147705  -0.0198283 -0.0245976 0.0230875  -0.0351987 -0.0554285 0.0259337  -0.0523379 -0.0954628 0.0255756  -0.0717995 -0.143594 0.0236683  -0.0939505 -0.198564 0.0210848  -0.118786 -0.259184 0.0182686  -0.14613 -0.324616 0.0154667  -0.17576 -0.394215 0.012754  -0.207475 -0.467521 0.0101767  -0.241103 -0.544104 0.00772238  -0.276493 -0.623654 0.00536633  -0.313494 -0.705803 0.00308514  -0.351965 -0.790313 0.000849724  -0.391753 -0.876856 -0.00132895  -0.432727 -0.965233 -0.00347233  -0.474718 -1.05516 -0.00557661  -0.517596 -1.14647 -0.00765991  -0.561215 -1.23891 -0.00968981  -0.605444 -1.33236 -0.0116944  -0.650148 -1.42659 -0.0136499  -0.695209 -1.5215 -0.0155787  -0.740507 -1.61689 -0.0174494  -0.785958 -1.71269 -0.0192909  -0.831457 -1.80873 -0.021059  -0.876945 -1.90496 -0.02279  -0.922336 -2.00121 -0.0244489  -0.967593 -2.09747 -0.0260739  -1.01267 -2.19361 -0.0276275  -1.05754 -2.28962 -0.0291619  -1.10219 -2.38541 -0.030652  -1.14663 -2.48096 -0.032156  0 0 0  -0.0017421 -0.00327924 0.00678825  -0.00539677 -0.0241753 0.0113206  -0.0112663 -0.0572226 0.0131097  -0.0197116 -0.0997474 0.0130262  -0.0311778 -0.150336 0.0119529  -0.0459788 -0.207777 0.0104046  -0.0641881 -0.27102 0.00865555  -0.0856418 -0.339189 0.00684929  -0.110102 -0.411601 0.00503731  -0.137322 -0.487694 0.00325871  -0.167058 -0.566994 0.00152445  -0.199075 -0.64912 -0.000187397  -0.233168 -0.733709 -0.00188255  -0.269125 -0.820456 -0.0035677  -0.306755 -0.909072 -0.00525761  -0.345864 -0.999309 -0.0069418  -0.386277 -1.09092 -0.00862646  -0.427805 -1.18372 -0.010314  -0.470287 -1.27749 -0.0119886  -0.513559 -1.37206 -0.0136609  -0.557472 -1.46728 -0.0153213  -0.601875 -1.56301 -0.0169792  -0.64665 -1.6591 -0.0186086  -0.691672 -1.75545 -0.0202231  -0.736847 -1.85195 -0.0218072  -0.782075 -1.9485 -0.0233703  -0.827286 -2.04502 -0.0248957  -0.872401 -2.14145 -0.0264025  -0.917387 -2.23771 -0.0278769  -0.962192 -2.33378 -0.0293322  -1.00679 -2.4296 -0.0307717  -1.05114 -2.5251 -0.0322165  0 0 0  0.00252996 -0.00571367 -0.000899792  0.00705752 -0.0283571 -3.33786e-05  0.0100115 -0.0632414 0.000805855  0.0100172 -0.107698 0.00101376  0.00639433 -0.160225 0.000716209  -0.00119555 -0.219698 0.000115871  -0.0128013 -0.285128 -0.000690937  -0.028302 -0.355652 -0.00159311  -0.0474672 -0.430509 -0.0025568  -0.0699968 -0.509103 -0.00356483  -0.0956171 -0.590858 -0.00461292  -0.124049 -0.675367 -0.00569248  -0.15501 -0.762199 -0.0068078  -0.18825 -0.851065 -0.0079689  -0.22352 -0.941615 -0.00916243  -0.260593 -1.03364 -0.0103955  -0.299247 -1.12684 -0.0116572  -0.339271 -1.22107 -0.0129681  -0.380468 -1.31609 -0.0142832  -0.42265 -1.41178 -0.015635  -0.465645 -1.50793 -0.0169973  -0.50929 -1.60447 -0.0183744  -0.553427 -1.70121 -0.0197635  -0.597941 -1.79813 -0.0211582  -0.642692 -1.89505 -0.0225558  -0.687593 -1.99195 -0.0239544  -0.732542 -2.08872 -0.0253429  -0.777465 -2.18535 -0.0267348  -0.822302 -2.28173 -0.0281191  -0.867005 -2.37788 -0.0295024  -0.911525 -2.47371 -0.0308752  -0.955784 -2.56922 -0.0322618  0 0 0  0.00680625 -0.0105714 -0.00820971  0.0193478 -0.0363582 -0.0107069  0.0308042 -0.073251 -0.0108099  0.0389349 -0.119283 -0.0104184  0.0428717 -0.173373 -0.0100617  0.0422859 -0.234548 -0.00986958  0.037096 -0.301873 -0.00979376  0.0274496 -0.374449 -0.0098834  0.013575 -0.451504 -0.010077  -0.00425255 -0.532319 -0.0103493  -0.0256971 -0.616322 -0.0107145  -0.0504411 -0.702989 -0.0111771  -0.0781659 -0.791906 -0.0117297  -0.108577 -0.882713 -0.0123506  -0.141384 -0.975083 -0.0130563  -0.176309 -1.06874 -0.0138412  -0.213108 -1.16345 -0.014689  -0.251526 -1.25899 -0.015605  -0.291348 -1.35519 -0.0165715  -0.332354 -1.45188 -0.0176001  -0.374351 -1.54892 -0.0186639  -0.417153 -1.64618 -0.0197763  -0.460598 -1.74356 -0.0209179  -0.50453 -1.84095 -0.0220985  -0.548819 -1.93829 -0.0233035  -0.593339 -2.03549 -0.0245423  -0.637992 -2.13249 -0.0257945  -0.682682 -2.22926 -0.0270681  -0.727345 -2.32576 -0.0283575  -0.771919 -2.42195 -0.0296664  -0.816351 -2.51781 -0.0309768  -0.860559 -2.61332 -0.0322948  0 0 0  0.0119467 -0.0181588 -0.0148125  0.0330597 -0.0481714 -0.0203619  0.052869 -0.0869887 -0.0215282  0.0687256 -0.134316 -0.0211811  0.0798641 -0.189678 -0.0203991  0.08596 -0.252356 -0.0195303  0.0869685 -0.321401 -0.0187268  0.0830004 -0.395878 -0.0180283  0.0742726 -0.474948 -0.0174809  0.0610925 -0.557822 -0.017067  0.0437835 -0.643883 -0.0167713  0.0227187 -0.732558 -0.0166235  -0.00176394 -0.823386 -0.0166044  -0.029319 -0.916 -0.0167089  -0.0596236 -1.01001 -0.0169296  -0.0923675 -1.10519 -0.0172706  -0.127264 -1.20124 -0.0177021  -0.164041 -1.298 -0.0182338  -0.20244 -1.39524 -0.0188484  -0.242237 -1.49284 -0.0195537  -0.283198 -1.59065 -0.0203204  -0.325129 -1.68856 -0.0211644  -0.367844 -1.78646 -0.0220704  -0.411174 -1.88428 -0.023035  -0.45497 -1.98192 -0.0240493  -0.499099 -2.07936 -0.0251222  -0.543444 -2.17652 -0.0262356  -0.587899 -2.2734 -0.0273986  -0.632376 -2.36993 -0.0286036  -0.676815 -2.46614 -0.0298471  -0.721164 -2.56199 -0.0311022  -0.765368 -2.65754 -0.0323682  0 0 0  0.0196061 -0.0304365 -0.020236  0.0499383 -0.0642594 -0.0288219  0.0776485 -0.104178 -0.0313869  0.100725 -0.152342 -0.0313387  0.118646 -0.208902 -0.0302715  0.13114 -0.273086 -0.0288405  0.138092 -0.34385 -0.0273681  0.139596 -0.420196 -0.02599  0.135836 -0.501187 -0.0247107  0.127138 -0.586029 -0.0236177  0.113853 -0.674004 -0.022707  0.0963631 -0.764544 -0.021976  0.0750482 -0.857133 -0.0213885  0.0502937 -0.951364 -0.0209846  0.0224609 -1.04689 -0.0207305  -0.00813627 -1.14341 -0.0206227  -0.0411453 -1.24067 -0.0206485  -0.0762942 -1.33848 -0.0208068  -0.113277 -1.43664 -0.0210834  -0.151862 -1.53501 -0.0214648  -0.191791 -1.63346 -0.0219464  -0.232858 -1.73188 -0.022522  -0.274846 -1.83019 -0.0231886  -0.31759 -1.9283 -0.0239401  -0.360905 -2.02616 -0.0247703  -0.404668 -2.12372 -0.0256734  -0.448719 -2.22095 -0.0266495  -0.492967 -2.31782 -0.0277047  -0.53729 -2.41433 -0.0288239  -0.581622 -2.51047 -0.030014  -0.625906 -2.60628 -0.0312324  -0.670132 -2.70183 -0.032465  0 0 0  0.032682 -0.0521103 -0.0246139  0.0712353 -0.0843388 -0.0371361  0.105829 -0.123773 -0.0409708  0.135716 -0.172802 -0.0410571  0.160239 -0.230828 -0.0396328  0.178935 -0.29671 -0.0376706  0.19164 -0.369339 -0.0355754  0.19839 -0.447621 -0.0335131  0.199384 -0.530548 -0.0316215  0.194973 -0.61729 -0.0299315  0.185514 -0.707098 -0.0284214  0.171443 -0.799376 -0.0271339  0.153155 -0.893583 -0.026032  0.13107 -0.989318 -0.0251379  0.105582 -1.08617 -0.0244265  0.0770564 -1.18388 -0.0238857  0.0458553 -1.28218 -0.0235219  0.0122736 -1.38089 -0.0233231  -0.023344 -1.47979 -0.0232577  -0.0607715 -1.57878 -0.023334  -0.0997047 -1.67771 -0.0235319  -0.139952 -1.77651 -0.0238514  -0.181255 -1.87504 -0.0242834  -0.223459 -1.97331 -0.0248241  -0.266334 -2.07121 -0.025465  -0.309777 -2.16877 -0.0262079  -0.353601 -2.26591 -0.0270491  -0.397704 -2.36266 -0.0279875  -0.441938 -2.45899 -0.0290294  -0.486249 -2.55499 -0.030169  -0.530521 -2.65065 -0.0313702  -0.574772 -2.74615 -0.032608  0 0 0  -0.0416598 -0.0151461 0.0484877  -0.0690149 -0.0242159 0.0669188  -0.0969192 -0.0465987 0.0712781  -0.128429 -0.0811879 0.0686178  -0.162739 -0.12484 0.0629911  -0.198863 -0.175093 0.0563874  -0.236188 -0.23068 0.0497456  -0.274426 -0.290722 0.0435138  -0.31346 -0.354858 0.0377831  -0.353303 -0.422708 0.0325093  -0.393954 -0.494108 0.0276418  -0.435405 -0.568676 0.023087  -0.477657 -0.646252 0.0188251  -0.520648 -0.726485 0.0147758  -0.564335 -0.809207 0.0109358  -0.608636 -0.894078 0.00726032  -0.653479 -0.980959 0.00374603  -0.698766 -1.06952 0.000390053  -0.744424 -1.15964 -0.00282574  -0.790322 -1.25102 -0.00589657  -0.836417 -1.34359 -0.00882196  -0.882584 -1.43706 -0.0116167  -0.92878 -1.53136 -0.0142756  -0.9749 -1.62624 -0.0167875  -1.02092 -1.72166 -0.019165  -1.06675 -1.81737 -0.0213966  -1.11237 -1.91338 -0.0234752  -1.15774 -2.00945 -0.0254211  -1.20287 -2.10559 -0.0272145  -1.24772 -2.20161 -0.0288901  -1.29235 -2.29753 -0.0304289  -1.3369 -2.39325 -0.0319233  0 0 0  -0.0244442 -0.00143143 0.0351667  -0.0441037 -0.014557 0.0473013  -0.0622455 -0.0414146 0.0502944  -0.083549 -0.0800174 0.0488067  -0.108841 -0.127471 0.0451994  -0.137517 -0.181519 0.0406704  -0.168833 -0.240788 0.0359516  -0.202169 -0.304462 0.0313473  -0.237155 -0.372055 0.0269885  -0.273582 -0.44323 0.0229049  -0.311334 -0.517702 0.019073  -0.350315 -0.595175 0.0154629  -0.390448 -0.675379 0.0120273  -0.431644 -0.758041 0.00874901  -0.473817 -0.842915 0.00560331  -0.516851 -0.929747 0.00258112  -0.560643 -1.01832 -0.000339508  -0.605064 -1.1084 -0.00315475  -0.650017 -1.19979 -0.00586748  -0.695377 -1.29231 -0.00848341  -0.741045 -1.38578 -0.0110054  -0.786907 -1.48002 -0.0134196  -0.832886 -1.5749 -0.0157447  -0.87888 -1.67026 -0.0179505  -0.924833 -1.766 -0.0200663  -0.970664 -1.86197 -0.0220666  -1.01633 -1.95808 -0.0239682  -1.06178 -2.05422 -0.0257549  -1.10699 -2.15031 -0.0274515  -1.15195 -2.24628 -0.0290413  -1.19666 -2.3421 -0.0305829  -1.24118 -2.43773 -0.0321221  0 0 0  -0.0125595 0.00509942 0.0225992  -0.0221669 -0.0115171 0.0304422  -0.032946 -0.0414491 0.0322127  -0.0467382 -0.0821666 0.0312285  -0.0642771 -0.131806 0.0289631  -0.0855637 -0.188436 0.0260825  -0.110221 -0.250671 0.0229173  -0.137786 -0.317481 0.0197115  -0.167819 -0.388266 0.0165892  -0.200023 -0.462555 0.0136013  -0.234165 -0.539995 0.0107489  -0.270062 -0.620255 0.00801468  -0.30756 -0.703059 0.00539351  -0.34649 -0.788098 0.00282669  -0.386731 -0.875145 0.000365257  -0.42812 -0.963928 -0.00204802  -0.470523 -1.05425 -0.00438356  -0.513776 -1.14587 -0.00668716  -0.557757 -1.23862 -0.00890303  -0.602317 -1.3323 -0.0110779  -0.647336 -1.42677 -0.0131783  -0.692674 -1.52184 -0.015244  -0.738244 -1.61741 -0.017221  -0.783921 -1.71333 -0.0191607  -0.829648 -1.8095 -0.0209951  -0.875318 -1.90578 -0.0227871  -0.920882 -2.00212 -0.0244827  -0.966273 -2.09841 -0.0261397  -1.01146 -2.1946 -0.0276947  -1.05641 -2.29061 -0.0292368  -1.10111 -2.38645 -0.0307159  -1.14555 -2.48201 -0.0322523  0 0 0  -0.00391856 0.00483209 0.0100093  -0.00545606 -0.0125131 0.0141768  -0.00847915 -0.0444517 0.0153151  -0.01473 -0.0872877 0.0149336  -0.0248095 -0.138881 0.0137906  -0.0388991 -0.197633 0.0121889  -0.0568662 -0.262219 0.0103421  -0.0783955 -0.331661 0.00838947  -0.103124 -0.405196 0.00640345  -0.130698 -0.482272 0.00443506  -0.160841 -0.562425 0.00251102  -0.193268 -0.645291 0.00063324  -0.227775 -0.730531 -0.00122595  -0.264132 -0.817852 -0.00304842  -0.30215 -0.906971 -0.00486517  -0.341641 -0.997662 -0.00665617  -0.382412 -1.08967 -0.00843525  -0.424279 -1.18282 -0.0102019  -0.467088 -1.2769 -0.0119491  -0.510662 -1.37176 -0.0136747  -0.554854 -1.46721 -0.015389  -0.599517 -1.56315 -0.0170774  -0.644534 -1.65942 -0.0187387  -0.689771 -1.75593 -0.0203686  -0.735142 -1.85255 -0.0219674  -0.780539 -1.94921 -0.0235252  -0.825894 -2.04581 -0.025053  -0.87114 -2.14232 -0.0265412  -0.916225 -2.23863 -0.0280013  -0.961101 -2.33474 -0.0294218  -1.00575 -2.4306 -0.0308485  -1.0501 -2.52612 -0.0322804  0 0 0  0.00322458 0.00143033 -0.00226641  0.0088912 -0.0176752 -0.00150776  0.0132937 -0.0512736 -0.000790596  0.0145887 -0.0957703 -0.000574112  0.011878 -0.149025 -0.000755787  0.00482786 -0.209554 -0.00122118  -0.00655186 -0.276149 -0.00192976  -0.0220662 -0.347796 -0.00276375  -0.0413914 -0.423722 -0.00368929  -0.064184 -0.503243 -0.00466299  -0.0901136 -0.585858 -0.00567627  -0.11887 -0.671099 -0.00672436  -0.15017 -0.758612 -0.00780058  -0.183757 -0.848045 -0.00892878  -0.219362 -0.939141 -0.0100713  -0.256767 -1.03161 -0.0112667  -0.295741 -1.12526 -0.0124712  -0.336069 -1.21984 -0.0137386  -0.377555 -1.31521 -0.0149927  -0.42001 -1.41117 -0.0162992  -0.463258 -1.50761 -0.0175972  -0.507133 -1.60435 -0.0189309  -0.55149 -1.70133 -0.0202494  -0.596196 -1.79839 -0.0215945  -0.641124 -1.89549 -0.0229311  -0.686174 -1.9925 -0.0242844  -0.731249 -2.0894 -0.0256104  -0.77628 -2.18609 -0.0269575  -0.821204 -2.28256 -0.0282798  -0.865976 -2.37875 -0.0296164  -0.91055 -2.47465 -0.0309277  -0.954824 -2.57015 -0.0322938  0 0 0  0.00980371 -0.00419784 -0.0141244  0.0227208 -0.0265081 -0.0162663  0.0345252 -0.0619445 -0.0160213  0.0432079 -0.107823 -0.0153785  0.0476578 -0.162413 -0.01477  0.0474316 -0.224453 -0.0142922  0.0424312 -0.292762 -0.013937  0.0328095 -0.366385 -0.013761  0.0188328 -0.444423 -0.0136847  0.000832319 -0.526145 -0.01372  -0.0208496 -0.610952 -0.0138316  -0.0458529 -0.698378 -0.0140729  -0.0738679 -0.787963 -0.0144  -0.10456 -0.879369 -0.0148015  -0.137658 -0.972274 -0.015296  -0.17287 -1.06642 -0.0158739  -0.209948 -1.16156 -0.0165319  -0.248635 -1.2575 -0.017261  -0.288718 -1.35404 -0.0180554  -0.329963 -1.45105 -0.018909  -0.372194 -1.54837 -0.0198245  -0.415201 -1.64589 -0.020781  -0.458839 -1.74348 -0.02179  -0.502944 -1.84108 -0.02283  -0.547386 -1.93858 -0.0239229  -0.592031 -2.03593 -0.0250435  -0.636802 -2.13307 -0.0261974  -0.681575 -2.22995 -0.0273695  -0.726312 -2.32652 -0.0285773  -0.770936 -2.42278 -0.0297976  -0.815424 -2.51869 -0.0310392  -0.859653 -2.61422 -0.0322747  0 0 0  0.0167383 -0.0122762 -0.0251565  0.037669 -0.0389248 -0.0297766  0.0569662 -0.0762787 -0.0302105  0.0728106 -0.123252 -0.0294619  0.0841122 -0.178997 -0.0283213  0.0903988 -0.24237 -0.027019  0.091539 -0.312292 -0.0257611  0.0875925 -0.387711 -0.024591  0.078812 -0.467677 -0.0235629  0.0655075 -0.551416 -0.0226836  0.0480267 -0.638267 -0.0219412  0.0267473 -0.727665 -0.0213614  0.00203133 -0.819174 -0.0209298  -0.0257622 -0.912364 -0.0206356  -0.0563136 -1.00694 -0.0204754  -0.0893121 -1.10259 -0.0204587  -0.124451 -1.1991 -0.0205479  -0.161465 -1.29624 -0.0207672  -0.200093 -1.39386 -0.02108  -0.240103 -1.49178 -0.021512  -0.281267 -1.5899 -0.022018  -0.323389 -1.68806 -0.0226192  -0.366271 -1.78622 -0.0232987  -0.409755 -1.88424 -0.0240622  -0.453685 -1.98209 -0.0248828  -0.497928 -2.07968 -0.0257902  -0.542362 -2.177 -0.0267472  -0.586886 -2.27399 -0.0277796  -0.631411 -2.37064 -0.028863  -0.67589 -2.4669 -0.0300031  -0.72027 -2.56281 -0.0311427  -0.7645 -2.65835 -0.0323167  0 0 0  0.02578 -0.0239487 -0.0346889  0.0556091 -0.0551488 -0.0418167  0.0821117 -0.0937439 -0.0435152  0.104651 -0.141603 -0.0430074  0.122469 -0.198457 -0.0414419  0.135004 -0.263279 -0.0394092  0.142022 -0.334832 -0.0372777  0.143559 -0.412039 -0.035212  0.139771 -0.493873 -0.0332355  0.130987 -0.579521 -0.0314732  0.117576 -0.668255 -0.0298982  0.0999218 -0.759488 -0.0285344  0.0784187 -0.85272 -0.0273423  0.0534534 -0.947561 -0.0263634  0.02539 -1.04363 -0.0255661  -0.00540996 -1.14063 -0.0249491  -0.0386512 -1.23835 -0.0244908  -0.0739915 -1.33655 -0.0241971  -0.111192 -1.43509 -0.0240593  -0.149958 -1.53379 -0.0240464  -0.19008 -1.63256 -0.0241718  -0.231301 -1.73126 -0.0244074  -0.27346 -1.82983 -0.0247645  -0.316319 -1.92816 -0.0252328  -0.359768 -2.02624 -0.025815  -0.40361 -2.12397 -0.0264826  -0.447754 -2.22137 -0.0272617  -0.492036 -2.31838 -0.0281386  -0.536402 -2.41501 -0.0291104  -0.580738 -2.51123 -0.0301695  -0.62504 -2.60708 -0.03128  -0.669266 -2.70262 -0.0324087  0 0 0  0.0415341 -0.0427955 -0.0410576  0.0778373 -0.0743355 -0.0539894  0.110541 -0.113127 -0.0569258  0.139632 -0.162184 -0.0563564  0.163913 -0.220678 -0.0542121  0.182595 -0.287241 -0.0514364  0.195321 -0.360645 -0.0484281  0.202085 -0.439739 -0.0454187  0.20307 -0.523456 -0.042593  0.198596 -0.610954 -0.0400171  0.189033 -0.701512 -0.0376282  0.174804 -0.794461 -0.0354972  0.15634 -0.8893 -0.0335941  0.13408 -0.985569 -0.031951  0.108389 -1.08296 -0.0305171  0.0796573 -1.18116 -0.0293117  0.0482438 -1.2799 -0.0283303  0.0144837 -1.37898 -0.0275531  -0.021347 -1.47828 -0.0269437  -0.0589418 -1.57759 -0.0265136  -0.0980651 -1.67684 -0.0262394  -0.13846 -1.77588 -0.0261369  -0.179927 -1.87471 -0.0261726  -0.22224 -1.97318 -0.0263538  -0.26525 -2.07132 -0.0266733  -0.308769 -2.16904 -0.0271339  -0.352674 -2.26636 -0.0277233  -0.396814 -2.36324 -0.0284476  -0.441083 -2.45971 -0.0293088  -0.485389 -2.55576 -0.0303035  -0.529661 -2.65147 -0.0314097  -0.5739 -2.74694 -0.0325713  0 0 0  -0.00474018 -0.000689097 -0.0163078  -0.00510697 -0.00495727 -0.0191441  -0.0197503 -6.539e-05 -0.0300879  -0.0151598 0.00295049 -0.0251873  -0.0178497 -0.00524271 -0.0309207  -0.00514918 -0.00715543 -0.0153203  -0.0202895 -0.0185539 -0.0290041  -0.0169732 -0.0188244 -0.0180764  0 0 0  -0.0166748 -0.0167698 -0.022217  0 0 0  0 0 0  -0.00386646 -0.00266486 -0.0125356  0 0 0  -0.0368224 -0.0209384 -0.042942  -0.0270078 -0.0074247 -0.0326905  -0.0242902 -0.0123422 -0.0370038  -0.0359066 -0.0033774 -0.0437212  -0.0298657 -0.0125535 -0.0383792  -0.0399598 -0.0182226 -0.0461533  -0.0468129 -0.00880371 -0.0507376  -0.0353578 -0.00453687 -0.0425906  -0.0413296 -0.0219743 -0.0431592  -0.0359295 -0.025827 -0.0379817  -0.0515526 -0.0355339 -0.0430949  -0.0502344 -0.0334889 -0.0444221  -0.0530777 -0.0244801 -0.0537596  -0.0271865 -0.01901 -0.0319192  -0.0689466 -0.0324392 -0.0602288  -0.0593818 -0.0134398 -0.0600662  -0.053663 -0.0265583 -0.0512433  -0.0578113 -0.0160114 -0.0579255  -0.0527986 -0.0343342 -0.0448625  -0.0676602 -0.0375282 -0.05393  -0.0682912 -0.0276984 -0.0587981  -0.0530861 -0.0254638 -0.0490248  -0.0642453 -0.0493249 -0.0456865  -0.0672283 -0.0465352 -0.0463312  -0.0825689 -0.0603567 -0.0470204  -0.0851742 -0.0521009 -0.0541778  -0.0853119 -0.0421654 -0.0634029  -0.0529966 -0.041845 -0.0387359  -0.101331 -0.0553253 -0.0640423  -0.085833 -0.030936 -0.0696204  -0.0813646 -0.0517509 -0.0545745  -0.0801872 -0.041796 -0.0610194  -0.0762518 -0.0668481 -0.0450733  -0.0958174 -0.0682603 -0.0540652  -0.0926452 -0.0593687 -0.0592339  -0.0732843 -0.0585254 -0.0494239  -0.0887708 -0.0868448 -0.0441778  -0.0981246 -0.076464 -0.0470924  -0.113804 -0.0949441 -0.0458863  -0.120796 -0.0798784 -0.0549886  -0.118583 -0.0709076 -0.0635121  -0.0787074 -0.0740635 -0.0394509  -0.135464 -0.0888376 -0.0616376  -0.1153 -0.0610944 -0.0698953  -0.110612 -0.0874811 -0.0527077  -0.106501 -0.0790366 -0.0587702  -0.102004 -0.108796 -0.0425527  -0.12608 -0.10852 -0.050813  -0.121014 -0.101085 -0.0560532  -0.0973628 -0.101605 -0.0469654  -0.115867 -0.132712 -0.0408788  -0.129788 -0.115456 -0.044446  -0.14607 -0.137814 -0.0424788  -0.156906 -0.116464 -0.0517683  -0.153416 -0.108936 -0.0594611  -0.105646 -0.115186 -0.0373645  -0.171081 -0.130759 -0.0566328  -0.148225 -0.100993 -0.0657477  -0.141995 -0.131602 -0.0486155  -0.136606 -0.124772 -0.05424  -0.130407 -0.158189 -0.0389302  -0.158435 -0.156163 -0.0462584  -0.152727 -0.150144 -0.0513866  -0.125121 -0.15221 -0.043237  -0.145477 -0.185197 -0.0370061  -0.16265 -0.161881 -0.0404706  -0.179554 -0.187394 -0.0383539  -0.193502 -0.160491 -0.0470078  -0.189496 -0.154342 -0.0539052  -0.134501 -0.163652 -0.0341358  -0.207779 -0.179309 -0.0509443  -0.183677 -0.148081 -0.0599482  -0.175257 -0.182273 -0.0438647  -0.169577 -0.176832 -0.0490589  -0.161137 -0.213521 -0.0350735  -0.192496 -0.209677 -0.0415258  -0.186835 -0.20483 -0.0464113  -0.155838 -0.208597 -0.039191  -0.177223 -0.243063 -0.0332091  -0.196739 -0.21438 -0.0362785  -0.214215 -0.242557 -0.0342813  -0.23061 -0.210728 -0.0420392  -0.226554 -0.205736 -0.0482094  -0.165265 -0.218123 -0.0306809  -0.245324 -0.233337 -0.0454478  -0.220806 -0.200799 -0.0538788  -0.210046 -0.238321 -0.0392482  -0.204583 -0.233927 -0.0440154  -0.193827 -0.273783 -0.0314708  -0.227956 -0.268132 -0.0371315  -0.222676 -0.264162 -0.0416923  -0.18882 -0.269697 -0.0353081  -0.210772 -0.305543 -0.0297933  -0.231975 -0.272041 -0.0323877  -0.250003 -0.302547 -0.0306499  -0.268315 -0.266309 -0.0374403  -0.26444 -0.262202 -0.0429771  -0.197755 -0.277675 -0.0274656  -0.283644 -0.292103 -0.0405743  -0.25909 -0.258217 -0.0482419  -0.246123 -0.298992 -0.0351176  -0.241104 -0.295386 -0.0394769  -0.228175 -0.338368 -0.0282984  -0.264622 -0.33094 -0.0333011  -0.25984 -0.327634 -0.0374951  -0.223609 -0.334927 -0.0318401  -0.245882 -0.372097 -0.0268686  -0.268323 -0.334237 -0.0290227  -0.286883 -0.366839 -0.0275478  -0.306697 -0.32658 -0.033468  -0.303127 -0.323152 -0.038429  -0.231801 -0.341678 -0.0246797  -0.322737 -0.355125 -0.0363677  -0.298288 -0.319867 -0.0432386  -0.283356 -0.363814 -0.0315719  -0.278844 -0.360772 -0.0355279  -0.264008 -0.406811 -0.0256383  -0.302408 -0.397691 -0.0300536  -0.298144 -0.394875 -0.0338647  -0.259903 -0.403873 -0.0288465  -0.282407 -0.442355 -0.0244446  -0.305743 -0.400515 -0.0262108  -0.324834 -0.435019 -0.0250089  -0.345836 -0.39108 -0.0301216  -0.342605 -0.388157 -0.0345726  -0.267286 -0.409668 -0.022378  -0.362623 -0.422036 -0.0328538  -0.338294 -0.385379 -0.0389454  -0.321676 -0.432409 -0.0286112  -0.317673 -0.429815 -0.0321848  -0.301191 -0.478794 -0.0234394  -0.341252 -0.468062 -0.027364  -0.33748 -0.465641 -0.0307939  -0.29755 -0.476252 -0.0263367  -0.320239 -0.515976 -0.0224745  -0.344229 -0.470509 -0.0239253  -0.363836 -0.506757 -0.0229454  -0.38577 -0.459421 -0.0273786  -0.382896 -0.4569 -0.0313494  -0.304122 -0.481274 -0.0205302  -0.403316 -0.492535 -0.0299027  -0.379086 -0.454523 -0.0352721  -0.361037 -0.504482 -0.0261655  -0.357507 -0.502226 -0.0293653  -0.339648 -0.553981 -0.0216839  -0.381121 -0.541756 -0.0251505  -0.377807 -0.539641 -0.0282156  -0.33643 -0.551764 -0.024262  -0.359299 -0.592676 -0.0209076  -0.383744 -0.543902 -0.0220912  -0.403857 -0.581735 -0.0213242  -0.426527 -0.53129 -0.0251348  -0.423986 -0.52908 -0.0286741  -0.342237 -0.556167 -0.0190918  -0.444807 -0.566331 -0.0274882  -0.420639 -0.52701 -0.0321906  -0.401396 -0.57973 -0.024178  -0.398305 -0.577763 -0.0270324  -0.379278 -0.63211 -0.0202928  -0.421957 -0.61849 -0.0233717  -0.419058 -0.616638 -0.026093  -0.376465 -0.630157 -0.0225868  -0.399491 -0.672156 -0.0196977  -0.424258 -0.620383 -0.0206618  -0.444844 -0.659662 -0.0200601  -0.468087 -0.606367 -0.0233474  -0.46587 -0.604421 -0.0264757  -0.381549 -0.634038 -0.0180085  -0.487071 -0.643152 -0.025491  -0.462945 -0.602614 -0.0295901  -0.442701 -0.657886 -0.0225856  -0.44 -0.656144 -0.0251074  -0.420008 -0.712877 -0.0192459  -0.463709 -0.697988 -0.0219502  -0.461187 -0.696349 -0.0243499  -0.41755 -0.711153 -0.0212564  -0.440735 -0.754163 -0.0187941  -0.465703 -0.699675 -0.0195656  -0.486735 -0.740256 -0.0191247  -0.510425 -0.684382 -0.0219219  -0.508501 -0.682645 -0.0246844  -0.421978 -0.7146 -0.0172336  -0.530065 -0.722726 -0.023895  -0.505958 -0.68105 -0.0274405  -0.484883 -0.738671 -0.0213366  -0.48255 -0.737143 -0.0235567  -0.461732 -0.796047 -0.01847  -0.506302 -0.779997 -0.0208564  -0.504129 -0.778554 -0.022958  -0.459618 -0.794518 -0.0202382  -0.482922 -0.838422 -0.0181596  -0.508016 -0.7815 -0.0187709  -0.529448 -0.82326 -0.0184522  -0.553485 -0.765049 -0.0208337  -0.551842 -0.763502 -0.0232441  -0.463428 -0.797583 -0.0167208  -0.573732 -0.804804 -0.0226054  -0.549651 -0.762103 -0.0256519  -0.527869 -0.821841 -0.0203831  -0.525862 -0.820475 -0.0223172  -0.504357 -0.881339 -0.0179641  -0.549656 -0.864254 -0.020036  -0.547799 -0.862965 -0.0218639  -0.502543 -0.879979 -0.0194881  -0.525956 -0.924705 -0.0177672  -0.551105 -0.865607 -0.0182276  -0.572896 -0.908413 -0.018039  -0.5972 -0.848121 -0.0200176  -0.595811 -0.846727 -0.0221171  -0.505792 -0.882726 -0.0164454  -0.617996 -0.889127 -0.0216372  -0.593941 -0.845479 -0.0242209  -0.571569 -0.907134 -0.019702  -0.569872 -0.905928 -0.0213788  -0.547766 -0.968544 -0.0176733  -0.593676 -0.950527 -0.0194788  -0.592111 -0.949385 -0.0210533  -0.546244 -0.967329 -0.0189919  -0.569719 -1.01277 -0.0175915  -0.594884 -0.951745 -0.0179224  -0.616981 -0.995486 -0.0178299  -0.641492 -0.933341 -0.0194719  -0.640345 -0.932087 -0.0212717  -0.548963 -0.969791 -0.016376  -0.662778 -0.975467 -0.0209074  -0.638772 -0.930984 -0.0230763  -0.615889 -0.994332 -0.0192561  -0.614468 -0.993247 -0.0206869  -0.591856 -1.05741 -0.0176032  -0.638268 -1.03858 -0.0191388  -0.636977 -1.03755 -0.0204823  -0.590589 -1.05633 -0.0187142  -0.614106 -1.1024 -0.0176094  -0.639249 -1.03969 -0.017818  -0.661605 -1.08425 -0.0178332  -0.686279 -1.02048 -0.0191381  -0.685347 -1.01934 -0.0206761  -0.592827 -1.05855 -0.0164993  -0.707991 -1.06359 -0.0204489  -0.684048 -1.01835 -0.0222268  -0.660728 -1.0832 -0.0190332  -0.659573 -1.08223 -0.0202477  -0.636501 -1.14776 -0.0177052  -0.683325 -1.12821 -0.0190229  -0.682281 -1.12729 -0.0201542  -0.635485 -1.14678 -0.0186484  -0.65899 -1.1934 -0.0178125  -0.684103 -1.12921 -0.0179107  -0.706665 -1.17449 -0.0180068  -0.731465 -1.1093 -0.0190327  -0.73074 -1.10827 -0.0203207  -0.63727 -1.14879 -0.0167878  -0.753543 -1.15328 -0.0201945  -0.729689 -1.10739 -0.0216181  -0.705984 -1.17354 -0.0190117  -0.70506 -1.17266 -0.0200217  -0.681602 -1.23936 -0.0179954  -0.728755 -1.2192 -0.0190902  -0.727938 -1.21836 -0.020031  -0.6808 -1.23847 -0.0187671  -0.704279 -1.28557 -0.0181777  -0.729342 -1.22012 -0.0181708  -0.752067 -1.26602 -0.018357  -0.776969 -1.19962 -0.0191066  -0.776424 -1.19867 -0.0201805  -0.682182 -1.24031 -0.0172331  -0.799349 -1.24434 -0.0201695  -0.775599 -1.19786 -0.0212684  -0.751565 -1.26514 -0.0191798  -0.75086 -1.26435 -0.0200152  -0.727042 -1.33205 -0.0184307  -0.774459 -1.31137 -0.0193443  -0.773847 -1.31061 -0.0201147  -0.726449 -1.33124 -0.0190666  -0.749854 -1.37873 -0.0186942  -0.774877 -1.31221 -0.0185945  -0.797708 -1.35864 -0.0188465  -0.822697 -1.2912 -0.019367  -0.822324 -1.29033 -0.0202374  -0.727455 -1.33292 -0.0178194  -0.845322 -1.33657 -0.0203073  -0.821709 -1.28961 -0.0211201  -0.797372 -1.35783 -0.0195112  -0.796861 -1.3571 -0.020179  -0.772732 -1.42564 -0.019021  -0.820345 -1.40453 -0.0197506  -0.819923 -1.40383 -0.0203648  -0.772316 -1.42491 -0.0195186  -0.79563 -1.47273 -0.0193493  -0.820602 -1.40531 -0.019156  -0.843504 -1.45218 -0.0194874  -0.868567 -1.38389 -0.0197747  -0.868344 -1.38308 -0.020473  -0.772987 -1.42645 -0.0185339  -0.891382 -1.4298 -0.0206425  -0.867918 -1.38242 -0.0211856  -0.843315 -1.45142 -0.0200033  -0.84299 -1.45076 -0.0205307  -0.818561 -1.51999 -0.0197332  -0.866322 -1.49852 -0.0203207  -0.866073 -1.49788 -0.0207984  -0.818322 -1.51931 -0.0201249  -0.841502 -1.56739 -0.0201328  -0.866439 -1.49925 -0.0198617  -0.889364 -1.54648 -0.020247  -0.914491 -1.47749 -0.0203528  -0.914413 -1.47675 -0.0208859  -0.818677 -1.52074 -0.019367  -0.937443 -1.52386 -0.0211301  -0.914158 -1.47614 -0.0214324  -0.889311 -1.54577 -0.0206428  -0.889138 -1.54515 -0.021039  -0.864457 -1.61493 -0.0205877  -0.912314 -1.59318 -0.0210264  -0.912216 -1.59258 -0.021385  -0.86436 -1.6143 -0.02087  -0.887398 -1.66259 -0.0210433  -0.912303 -1.59387 -0.0206854  -0.935219 -1.64138 -0.0211403  -0.960412 -1.57186 -0.0210555  -0.960451 -1.57115 -0.0214593  -0.864444 -1.61564 -0.020314  -0.983452 -1.61858 -0.0217874  -0.960348 -1.57058 -0.0218773  -0.935286 -1.64072 -0.0214214  -0.935266 -1.64015 -0.0217113  -0.91033 -1.71035 -0.0215421  -0.958252 -1.68838 -0.0218704  -0.958292 -1.68782 -0.0221267  -0.910375 -1.70976 -0.0217483  -0.93324 -1.75818 -0.0220575  -0.958129 -1.68902 -0.02163  -0.981002 -1.73676 -0.0221303  -1.00625 -1.66682 -0.0219002  -1.00641 -1.66616 -0.0221775  -0.910208 -1.71101 -0.0213587  -1.02934 -1.71384 -0.0225685  -1.00644 -1.66563 -0.022465  -0.981174 -1.73613 -0.0223236  -0.981276 -1.73558 -0.0225174  -0.956127 -1.80609 -0.0226173  -1.00408 -1.78397 -0.0228298  -1.00424 -1.78342 -0.023  -0.956282 -1.80553 -0.0227444  -0.978976 -1.85405 -0.0231812  -1.00385 -1.78458 -0.022676  -1.02666 -1.83247 -0.0232399  -1.05196 -1.76225 -0.022855  -1.05221 -1.76162 -0.0230396  -0.955903 -1.80672 -0.0224993  -1.07506 -1.80948 -0.0235138  -1.05237 -1.76111 -0.0232389  -1.02692 -1.83187 -0.0233531  -1.02715 -1.83135 -0.0234735  -1.00178 -1.90205 -0.0237839  -1.04974 -1.87983 -0.0239193  -1.05001 -1.87931 -0.0240209  -1.00205 -1.90152 -0.0238631  -1.02454 -1.95007 -0.0244067  -1.04943 -1.88041 -0.0238335  -1.07214 -1.9284 -0.0244381  -1.0975 -1.85801 -0.0239415  -1.09784 -1.85741 -0.0240374  -1.00147 -1.90266 -0.0237279  -1.12058 -1.90538 -0.0245638  -1.0981 -1.85691 -0.0241451  -1.07249 -1.92782 -0.024493  -1.07281 -1.92731 -0.024545  -1.04726 -1.99812 -0.0250611  -1.0952 -1.97584 -0.0251122  -1.09556 -1.97532 -0.0251582  -1.04761 -1.99759 -0.0250862  -1.06992 -2.04616 -0.0257227  -1.09481 -1.97641 -0.0250823  -1.11742 -2.02444 -0.025748  -1.14283 -1.95398 -0.0251267  -1.14323 -1.95339 -0.0251639  -1.04687 -1.99871 -0.0250423  -1.16587 -2.00143 -0.0257745  -1.14359 -1.9529 -0.0252149  -1.11783 -2.02387 -0.0257549  -1.11824 -2.02337 -0.025764  -1.09251 -2.09421 -0.026418  -1.14042 -2.0719 -0.0264292  -1.14085 -2.07139 -0.0264359  -1.09294 -2.09368 -0.026423  -1.11505 -2.14222 -0.0271323  -1.13998 -2.07246 -0.0264347  -1.16248 -2.12049 -0.0271323  -1.18793 -2.05004 -0.0264394  -1.18839 -2.04947 -0.0264261  -1.09207 -2.09478 -0.0264342  -1.2109 -2.09751 -0.0270844  -1.18882 -2.04898 -0.026423  -1.16294 -2.11992 -0.0271158  -1.16339 -2.11941 -0.0270905  -1.13753 -2.19021 -0.0278668  -1.1854 -2.16792 -0.0278301  -1.18589 -2.16739 -0.0278125  -1.138 -2.18969 -0.0278449  -1.15995 -2.23817 -0.0286083  -1.18492 -2.16848 -0.0278604  -1.20731 -2.21646 -0.0286043  -1.23281 -2.1461 -0.0278349  -1.2333 -2.14553 -0.0277996  -1.13705 -2.19079 -0.0278947  -1.2557 -2.19353 -0.0285244  -1.23377 -2.14503 -0.0277786  -1.2078 -2.21589 -0.0285678  -1.2083 -2.21538 -0.0285301  -1.18231 -2.2861 -0.0293615  -1.23015 -2.26383 -0.0293186  -1.23066 -2.26331 -0.0292912  -1.18281 -2.28558 -0.0293367  -1.20462 -2.33397 -0.030129  -1.22964 -2.26439 -0.0293555  -1.25194 -2.3123 -0.0301116  -1.27748 -2.24207 -0.0293236  -1.27799 -2.2415 -0.029274  -1.1818 -2.28667 -0.0294011  -1.30029 -2.28943 -0.0300279  -1.27849 -2.24099 -0.0292346  -1.25244 -2.31173 -0.0300813  -1.25296 -2.3112 -0.0300431  -1.22688 -2.3818 -0.0308893  -1.27471 -2.35958 -0.0308394  -1.27523 -2.35903 -0.0308127  -1.22738 -2.38129 -0.0308506  -1.24911 -2.42959 -0.0316362  -1.2742 -2.36014 -0.0308759  -1.29646 -2.40796 -0.0316305  -1.32203 -2.33788 -0.030839  -1.32253 -2.33731 -0.0308051  -1.22637 -2.38238 -0.0309253  -1.3448 -2.38515 -0.0315604  -1.32304 -2.33678 -0.0307841  -1.29696 -2.40739 -0.0316017  -1.29747 -2.40685 -0.031564  0 0 0  -0.00226388 0.00281584 -0.0104165  -0.00253656 0.00181559 -0.0125141  -0.0110088 0.0051804 -0.0199847  -0.00781067 0.00588703 -0.0158143  -0.0086228 0.000540912 -0.0197613  -0.00236964 -0.000660136 -0.0100341  -0.00906079 -0.00569046 -0.0203645  0 0 0  0 0 0  -0.00191464 0.000607312 -0.00789475  0 0 0  -0.0124029 -0.00115281 -0.0254695  -0.0195824 0.0047887 -0.0299335  -0.0144476 -0.00684792 -0.0244746  -0.0214426 -0.0088416 -0.0314641  -0.0256138 -0.00168875 -0.0343571  -0.0173543 -0.000292689 -0.0271876  -0.0209515 -0.0176844 -0.0275731  -0.0186817 -0.0143499 -0.0262163  -0.0287655 -0.0255601 -0.029639  -0.0130469 -0.0117427 -0.0203428  -0.0301864 -0.0191569 -0.0353148  -0.0324685 -0.0109089 -0.0392122  -0.0276045 -0.0313623 -0.0287426  -0.0393427 -0.0323142 -0.036804  -0.0393245 -0.0241064 -0.0396662  -0.0271325 -0.023658 -0.0311193  -0.034767 -0.047837 -0.0291507  -0.0393685 -0.0390356 -0.031985  -0.0498204 -0.0550095 -0.0322497  -0.0280026 -0.0375425 -0.0250115  -0.048536 -0.0481424 -0.0373089  -0.0471403 -0.0397005 -0.0411539  -0.0425216 -0.0667824 -0.0288267  -0.0584921 -0.0664164 -0.0368876  -0.0557186 -0.0584795 -0.0400755  -0.0398466 -0.0591734 -0.0313244  -0.0508999 -0.0880159 -0.0282073  -0.0606756 -0.0731572 -0.0324595  -0.0717565 -0.0935697 -0.0315292  -0.0445763 -0.0731529 -0.0254409  -0.0688692 -0.0870927 -0.0360672  -0.0653393 -0.0794093 -0.0398366  -0.0600906 -0.111346 -0.0272603  -0.0801152 -0.109741 -0.0348194  -0.0758737 -0.102684 -0.0381861  -0.0562123 -0.104426 -0.029851  -0.0700022 -0.136568 -0.0261974  -0.0834706 -0.1159 -0.0306838  -0.0956569 -0.140121 -0.0293074  -0.0631284 -0.117318 -0.0240972  -0.0919847 -0.134371 -0.0334175  -0.0874467 -0.127766 -0.0370781  -0.0807679 -0.163492 -0.0250235  -0.10465 -0.160584 -0.031889  -0.0998165 -0.154554 -0.0352836  -0.0763876 -0.157447 -0.0276296  -0.0922635 -0.191961 -0.0238252  -0.108508 -0.165959 -0.0280359  -0.121897 -0.193346 -0.0265753  -0.0842633 -0.168813 -0.0220654  -0.11797 -0.188388 -0.0303247  -0.11313 -0.182839 -0.0338011  -0.104553 -0.221802 -0.0226564  -0.131953 -0.217481 -0.0287941  -0.127073 -0.212411 -0.0320911  -0.100102 -0.216623 -0.0251875  -0.117512 -0.252937 -0.0214791  -0.135882 -0.222089 -0.0252299  -0.150408 -0.252119 -0.0238707  -0.108151 -0.226452 -0.0198958  -0.146537 -0.247873 -0.0272677  -0.141805 -0.243222 -0.0305278  -0.131174 -0.285235 -0.0204203  -0.161676 -0.279397 -0.0258925  -0.157035 -0.275119 -0.0290093  -0.12691 -0.2808 -0.0228167  -0.145433 -0.318628 -0.0193763  -0.165448 -0.283335 -0.0226328  -0.180992 -0.315655 -0.0214517  -0.134662 -0.289257 -0.0178921  -0.177353 -0.312019 -0.0245321  -0.172931 -0.308092 -0.0275307  -0.160313 -0.353025 -0.018496  -0.193502 -0.345639 -0.0233612  -0.189237 -0.342003 -0.0262446  -0.156356 -0.349219 -0.0207114  -0.175721 -0.388385 -0.0176139  -0.196992 -0.349025 -0.0204022  -0.213465 -0.383361 -0.019429  -0.163574 -0.35652 -0.0161915  -0.210126 -0.380215 -0.0221953  -0.206101 -0.376857 -0.0249352  -0.191684 -0.42465 -0.0169067  -0.227178 -0.415718 -0.0212474  -0.22333 -0.412585 -0.0238762  -0.18809 -0.421347 -0.018925  -0.208121 -0.461758 -0.016207  -0.230352 -0.41865 -0.0185864  -0.247668 -0.454805 -0.0178123  -0.194664 -0.427692 -0.0148427  -0.244661 -0.452071 -0.020298  -0.241049 -0.449166 -0.0227604  -0.225058 -0.499673 -0.0156834  -0.262531 -0.489252 -0.0195513  -0.2591 -0.486531 -0.0219166  -0.221832 -0.496791 -0.0174956  -0.242425 -0.538347 -0.0151474  -0.26537 -0.491816 -0.0171704  -0.283473 -0.529602 -0.0165782  -0.227741 -0.50235 -0.0138359  -0.28079 -0.527198 -0.0187843  -0.277584 -0.524659 -0.0209968  -0.26025 -0.577758 -0.0147719  -0.299417 -0.565914 -0.0182221  -0.296381 -0.563525 -0.0203335  -0.257386 -0.575217 -0.0163848  -0.278462 -0.617838 -0.0143943  -0.301936 -0.568171 -0.0161121  -0.320758 -0.607439 -0.0156806  -0.262634 -0.580119 -0.0131474  -0.318398 -0.605317 -0.0176382  -0.31557 -0.603083 -0.0195913  -0.29709 -0.658573 -0.0141706  -0.337712 -0.645402 -0.0172334  -0.335047 -0.643296 -0.0190997  -0.294566 -0.656327 -0.0155904  -0.316071 -0.699911 -0.0139265  -0.339919 -0.647406 -0.0153713  -0.359412 -0.687998 -0.0150833  -0.299186 -0.660679 -0.0127382  -0.357345 -0.686105 -0.0167964  -0.354873 -0.684124 -0.0185249  -0.335428 -0.741843 -0.0138159  -0.377294 -0.727437 -0.016536  -0.374971 -0.725564 -0.0181768  -0.333228 -0.73984 -0.0150602  -0.355103 -0.784302 -0.0136969  -0.379216 -0.729222 -0.0149066  -0.399317 -0.771009 -0.0147381  -0.33725 -0.743722 -0.0125759  -0.397533 -0.76932 -0.016242  -0.395387 -0.767561 -0.0177448  -0.375116 -0.827282 -0.0137024  -0.418049 -0.811748 -0.016098  -0.416042 -0.810085 -0.0175269  -0.373212 -0.825498 -0.0147796  -0.395411 -0.870731 -0.0136881  -0.4197 -0.81335 -0.014678  -0.440348 -0.856188 -0.0146217  -0.376684 -0.828976 -0.0126238  -0.438818 -0.854667 -0.0159161  -0.436976 -0.853095 -0.0172288  -0.416006 -0.914646 -0.0137818  -0.459845 -0.898085 -0.0158825  -0.458133 -0.896596 -0.0171196  -0.414383 -0.913045 -0.0147085  -0.436847 -0.958968 -0.0138648  -0.461246 -0.899524 -0.0146616  -0.482377 -0.943305 -0.0146995  -0.417332 -0.916169 -0.012866  -0.481096 -0.941937 -0.0158167  -0.479535 -0.940531 -0.0169346  -0.457951 -1.00369 -0.0140502  -0.502562 -0.986214 -0.0158765  -0.501122 -0.98488 -0.0169332  -0.456587 -1.00226 -0.0148365  -0.479265 -1.04878 -0.0142176  -0.503727 -0.987517 -0.0148318  -0.525278 -1.03211 -0.0149598  -0.459053 -1.00508 -0.0132694  -0.524216 -1.03087 -0.0159004  -0.522916 -1.02961 -0.0168581  -0.500805 -1.09422 -0.014473  -0.546064 -1.07591 -0.0160506  -0.544876 -1.07471 -0.0169463  -0.499683 -1.09292 -0.0151331  -0.522522 -1.13996 -0.0147207  -0.547015 -1.07709 -0.0151703  -0.568921 -1.12241 -0.0153747  -0.501698 -1.09547 -0.0138271  -0.568073 -1.12128 -0.0161691  -0.567015 -1.12015 -0.016963  -0.544428 -1.186 -0.0150492  -0.590234 -1.16697 -0.0163927  -0.58928 -1.16589 -0.0171385  -0.543528 -1.18483 -0.0155933  -0.566479 -1.2323 -0.0153623  -0.59098 -1.16805 -0.0156591  -0.61318 -1.21398 -0.0159378  -0.545129 -1.18714 -0.0145123  -0.612519 -1.21294 -0.0165849  -0.611684 -1.21191 -0.0172501  -0.588684 -1.27886 -0.015743  -0.634937 -1.25921 -0.0168836  -0.634196 -1.25822 -0.017499  -0.587993 -1.2778 -0.016186  -0.611002 -1.32564 -0.0161235  -0.635503 -1.26019 -0.0162849  -0.657936 -1.30665 -0.0166252  -0.589205 -1.27991 -0.0153184  -0.657455 -1.3057 -0.0171571  -0.656822 -1.30477 -0.0176864  -0.633439 -1.37262 -0.0165734  -0.680064 -1.35243 -0.0175195  -0.679519 -1.35153 -0.0180135  -0.632935 -1.37166 -0.0169237  -0.655961 -1.41979 -0.01701  -0.680459 -1.35334 -0.0170357  -0.703068 -1.40023 -0.0174387  -0.633798 -1.37359 -0.0162325  -0.702741 -1.39935 -0.0178525  -0.702295 -1.3985 -0.0182805  -0.678575 -1.46714 -0.0174978  -0.725496 -1.44648 -0.0182734  -0.725131 -1.44566 -0.0186651  -0.678246 -1.46625 -0.0177689  -0.701245 -1.51462 -0.0179899  -0.725742 -1.44731 -0.0178983  -0.748473 -1.49457 -0.018353  -0.678784 -1.46803 -0.0172455  -0.748296 -1.49376 -0.0186765  -0.74802 -1.49298 -0.018996  -0.723973 -1.56223 -0.018537  -0.771135 -1.5412 -0.019151  -0.77093 -1.54044 -0.0194461  -0.723798 -1.56142 -0.0187361  -0.746737 -1.60996 -0.0190744  -0.771239 -1.54198 -0.0188661  -0.794044 -1.58951 -0.0193734  -0.724049 -1.56307 -0.0183475  -0.793995 -1.58875 -0.0196037  -0.793872 -1.58803 -0.0198474  -0.769538 -1.6578 -0.0196533  -0.816884 -1.63645 -0.020133  -0.816823 -1.63574 -0.02035  -0.769504 -1.65705 -0.0197923  -0.792348 -1.70571 -0.0202358  -0.816864 -1.63717 -0.0199301  -0.839699 -1.68494 -0.0204787  -0.769491 -1.65857 -0.0195315  -0.839773 -1.68423 -0.0206447  -0.839787 -1.68356 -0.0208035  -0.815171 -1.75369 -0.0208635  -0.862657 -1.73209 -0.0212166  -0.862728 -1.73144 -0.0213609  -0.815261 -1.75299 -0.0209508  -0.837986 -1.80172 -0.0214851  -0.862525 -1.73278 -0.0210798  -0.885354 -1.78069 -0.021673  -0.815018 -1.75442 -0.0207844  -0.885524 -1.78002 -0.0217712  -0.88566 -1.77939 -0.0218797  -0.860796 -1.84981 -0.0221374  -0.908382 -1.82801 -0.0223899  -0.908567 -1.82739 -0.0224819  -0.860997 -1.84915 -0.0221853  -0.883582 -1.89791 -0.0227978  -0.908157 -1.82866 -0.0223091  -0.930942 -1.87668 -0.0229378  -0.860548 -1.85049 -0.0221055  -0.931209 -1.87604 -0.0229943  -0.931453 -1.87545 -0.0230446  -0.906342 -1.94603 -0.0234919  -0.954 -1.9241 -0.0236499  -0.954288 -1.92351 -0.0236964  -0.90664 -1.94541 -0.0235071  -0.929064 -1.99415 -0.0241868  -0.953686 -1.92472 -0.0236123  -0.976405 -1.97279 -0.0242834  -0.906012 -1.94669 -0.0234849  -0.976746 -1.97216 -0.0242953  -0.977082 -1.97159 -0.0243144  -0.951753 -2.04228 -0.0249012  -0.999456 -2.02025 -0.024991  -0.999828 -2.01968 -0.0250053  -0.952133 -2.04169 -0.0248959  -0.974392 -2.09039 -0.0256286  -0.999072 -2.02085 -0.0249872  -1.0217 -2.06892 -0.0256889  -0.951353 -2.04292 -0.0249231  -1.02211 -2.06832 -0.0256822  -1.02253 -2.06777 -0.0256641  -0.996981 -2.13847 -0.0263827  -1.04471 -2.11638 -0.0264108  -1.04515 -2.11582 -0.0263994  -0.997426 -2.1379 -0.0263619  -1.01951 -2.18652 -0.0271368  -1.04427 -2.11697 -0.0264258  -1.06679 -2.165 -0.0271597  -0.996527 -2.13909 -0.0264087  -1.06725 -2.1644 -0.0271311  -1.06772 -2.16386 -0.0271087  -1.04199 -2.23455 -0.0278969  -1.08973 -2.21241 -0.0278871  -1.09022 -2.21186 -0.0278656  -1.04249 -2.23399 -0.0278721  -1.06441 -2.28252 -0.028672  -1.08925 -2.21299 -0.0279157  -1.11167 -2.26096 -0.0286689  -1.0415 -2.23515 -0.0279367  -1.11216 -2.26038 -0.0286412  -1.11267 -2.25984 -0.0286012  -1.08677 -2.33044 -0.0294535  -1.13452 -2.3083 -0.0294108  -1.13504 -2.30776 -0.0293791  -1.08729 -2.32991 -0.0294237  -1.10907 -2.37831 -0.0302274  -1.13401 -2.30887 -0.0294406  -1.15632 -2.35674 -0.0302057  -1.08625 -2.33104 -0.0294843  -1.15682 -2.35616 -0.0301702  -1.15736 -2.35564 -0.0301425  -1.13131 -2.42612 -0.0309889  -1.17908 -2.40398 -0.0309358  -1.17961 -2.40345 -0.0309026  -1.13184 -2.42559 -0.0309527  -1.15349 -2.47386 -0.0317495  -1.17856 -2.40455 -0.0309739  -1.2008 -2.45232 -0.0317297  -1.13078 -2.4267 -0.0310342  -1.20131 -2.45174 -0.0316947  -1.20182 -2.45121 -0.0316432  0 0 0  -0.00054805 0.00289869 -0.00451922  -0.00090982 0.00315177 -0.00666094  -0.0051153 0.00608438 -0.0108604  -0.00245373 0.00568724 -0.00661397  -0.00220073 0.000450224 -0.00861549  -0.000871841 0.000917047 -0.00548649  -0.00357185 -0.0026024 -0.0115921  0 0 0  0 0 0  -0.000471096 0.000875145 -0.00342941  0 0 0  -0.00509802 0.00102848 -0.0142729  -0.00845623 0.00630054 -0.0164366  -0.00349028 -0.00711259 -0.0108702  -0.00873694 -0.00648865 -0.017638  -0.0104717 -0.000173628 -0.0189688  -0.00417186 -0.00109735 -0.0118666  -0.00540803 -0.0183266 -0.0125923  -0.00756878 -0.0112159 -0.0148435  -0.0120979 -0.0228758 -0.0170619  -0.00339027 -0.011479 -0.00919032  -0.0125282 -0.0173932 -0.0200329  -0.013164 -0.0101373 -0.0218496  -0.0075812 -0.0329194 -0.0132797  -0.0170969 -0.0316654 -0.0209839  -0.0163286 -0.0242308 -0.0221627  -0.00643343 -0.0257636 -0.0140009  -0.0104423 -0.0503281 -0.0135977  -0.0176202 -0.0375197 -0.0184612  -0.0232907 -0.0547341 -0.0186286  -0.0084964 -0.0384703 -0.0117481  -0.0219642 -0.0486123 -0.0213139  -0.0203366 -0.0409521 -0.023118  -0.0140041 -0.0703315 -0.0135365  -0.027726 -0.0681372 -0.0211284  -0.025191 -0.0607098 -0.0225575  -0.0115185 -0.0631027 -0.0143063  -0.0183246 -0.0926026 -0.0132473  -0.0296657 -0.0742234 -0.0187933  -0.0364972 -0.0959457 -0.0182281  -0.0159096 -0.0762186 -0.0121496  -0.034033 -0.0899168 -0.0206432  -0.0309984 -0.0826671 -0.0224977  -0.0235537 -0.116998 -0.0128391  -0.0412691 -0.113796 -0.0199776  -0.037726 -0.106939 -0.0216181  -0.0202805 -0.110243 -0.0137162  -0.029628 -0.143288 -0.0123134  -0.0440791 -0.119602 -0.0177708  -0.0523391 -0.14515 -0.0169642  -0.0261305 -0.122696 -0.011539  -0.0492562 -0.139588 -0.0191839  -0.0454981 -0.133082 -0.0210474  -0.0366717 -0.171331 -0.0117872  -0.0581588 -0.167075 -0.0183396  -0.0541554 -0.160993 -0.0200679  -0.03302 -0.165255 -0.0127318  -0.0445948 -0.200972 -0.0111892  -0.0613914 -0.172349 -0.0162508  -0.0712214 -0.201146 -0.0153973  -0.0396061 -0.176581 -0.0105493  -0.0678914 -0.196173 -0.0174415  -0.0638708 -0.190494 -0.0192678  -0.0534685 -0.23204 -0.0106635  -0.0784539 -0.226638 -0.0166047  -0.0743666 -0.221346 -0.0183353  -0.0497383 -0.226681 -0.0116327  -0.0631907 -0.26446 -0.0100899  -0.081812 -0.231311 -0.0146482  -0.0931653 -0.262824 -0.0138667  -0.0565215 -0.236753 -0.00949836  -0.0898274 -0.258456 -0.015739  -0.0858443 -0.253536 -0.0174756  -0.0737841 -0.298071 -0.00964117  -0.101943 -0.291419 -0.0149915  -0.0979957 -0.286839 -0.0166502  -0.0701607 -0.293382 -0.0105772  -0.0851696 -0.332842 -0.00915718  -0.105219 -0.295516 -0.0131943  -0.118 -0.329365 -0.0125356  -0.076784 -0.30225 -0.00856709  -0.114813 -0.325538 -0.0142286  -0.111033 -0.321291 -0.0158427  -0.0973461 -0.368617 -0.00882316  -0.128326 -0.360638 -0.013634  -0.124645 -0.356666 -0.0151842  -0.0939426 -0.364513 -0.00970244  -0.11024 -0.405388 -0.00845361  -0.131411 -0.364223 -0.012001  -0.145483 -0.400084 -0.0114911  -0.100188 -0.372304 -0.00785208  -0.142522 -0.396735 -0.0130107  -0.139034 -0.393033 -0.0144804  -0.12384 -0.443035 -0.00824881  -0.157298 -0.4337 -0.0125647  -0.153933 -0.430233 -0.013974  -0.12071 -0.439431 -0.00904202  -0.138091 -0.48155 -0.00801039  -0.160127 -0.436847 -0.0111041  -0.175383 -0.474493 -0.0107388  -0.126463 -0.446296 -0.00738764  -0.172692 -0.471536 -0.0120866  -0.169527 -0.468305 -0.0134077  -0.152984 -0.52083 -0.00793099  -0.188598 -0.510146 -0.0118005  -0.185571 -0.507101 -0.0130699  -0.150152 -0.517647 -0.00863934  -0.16846 -0.560863 -0.00781226  -0.191155 -0.512926 -0.0105045  -0.207475 -0.552134 -0.0102823  -0.155363 -0.523723 -0.00718021  -0.205059 -0.549522 -0.0114713  -0.202226 -0.546662 -0.012641  -0.18451 -0.601579 -0.00785303  -0.221995 -0.58959 -0.0113151  -0.219297 -0.586897 -0.0124342  -0.181977 -0.598755 -0.00846648  -0.201088 -0.642955 -0.00785851  -0.224271 -0.592057 -0.0101798  -0.24157 -0.632668 -0.0100794  -0.186634 -0.604159 -0.00720739  -0.239434 -0.630334 -0.0111146  -0.236922 -0.627811 -0.0121427  -0.218191 -0.68493 -0.00800252  -0.257294 -0.671698 -0.0110903  -0.254916 -0.669306 -0.0120752  -0.215952 -0.682412 -0.008533  -0.235762 -0.727477 -0.00810456  -0.259299 -0.6739 -0.0101013  -0.277476 -0.715739 -0.0101156  -0.220063 -0.687239 -0.00745392  -0.275603 -0.713656 -0.0110123  -0.273397 -0.711395 -0.0119028  -0.253801 -0.770557 -0.00834513  -0.294303 -0.756164 -0.0110879  -0.292225 -0.754028 -0.0119369  -0.251842 -0.768305 -0.00878763  -0.272263 -0.814141 -0.00854754  -0.296046 -0.75814 -0.0102384  -0.315025 -0.801076 -0.0103495  -0.255431 -0.772637 -0.0078876  -0.313407 -0.799196 -0.0111151  -0.311493 -0.797187 -0.0118814  -0.291146 -0.858182 -0.00886464  -0.332851 -0.842714 -0.0112932  -0.331062 -0.840801 -0.0120268  -0.289456 -0.85616 -0.00923586  -0.310399 -0.902656 -0.00914264  -0.33435 -0.844493 -0.010566  -0.354034 -0.888376 -0.0107665  -0.292544 -0.86006 -0.00848866  -0.352651 -0.886687 -0.0114179  -0.351008 -0.88487 -0.0120676  -0.33002 -0.947535 -0.00953794  -0.37276 -0.931084 -0.0116732  -0.371231 -0.929364 -0.0122905  -0.328581 -0.945713 -0.00983691  -0.349969 -0.992788 -0.00989747  -0.374028 -0.932692 -0.0110602  -0.394344 -0.977416 -0.0113351  -0.331199 -0.949238 -0.00923491  -0.393186 -0.975878 -0.011878  -0.3918 -0.974257 -0.0124259  -0.370246 -1.03839 -0.0103478  -0.413874 -1.02104 -0.0122118  -0.412599 -1.0195 -0.0127337  -0.369045 -1.03674 -0.0105879  -0.3908 -1.0843 -0.0107634  -0.414926 -1.0225 -0.0117016  -0.435782 -1.06794 -0.0120466  -0.371219 -1.03993 -0.0101113  -0.434831 -1.06655 -0.0124943  -0.433682 -1.06508 -0.0129421  -0.411634 -1.13052 -0.0112739  -0.456019 -1.11238 -0.012886  -0.454971 -1.11098 -0.0133107  -0.410652 -1.12903 -0.0114539  -0.432706 -1.177 -0.0117543  -0.456869 -1.1137 -0.0124705  -0.478195 -1.15977 -0.0128739  -0.412413 -1.13193 -0.0110955  -0.47744 -1.15849 -0.0132339  -0.476514 -1.15717 -0.0135987  -0.454019 -1.22372 -0.0123076  -0.499047 -1.20488 -0.0136917  -0.498215 -1.20361 -0.0140383  -0.453243 -1.22238 -0.0124421  -0.475526 -1.27067 -0.0128298  -0.49971 -1.20609 -0.0133572  -0.521422 -1.25267 -0.0138171  -0.45462 -1.22501 -0.0121801  -0.520845 -1.25151 -0.0141008  -0.520121 -1.2503 -0.0143843  -0.497231 -1.31783 -0.0134292  -0.542801 -1.29837 -0.0145998  -0.542167 -1.29721 -0.0148673  -0.496645 -1.31661 -0.0135169  -0.519098 -1.36517 -0.0140002  -0.543291 -1.29948 -0.0143425  -0.565327 -1.3465 -0.0148463  -0.497666 -1.31902 -0.0133464  -0.564916 -1.34543 -0.0150588  -0.564387 -1.34434 -0.0152776  -0.541125 -1.41268 -0.0146332  -0.587147 -1.39268 -0.0156155  -0.586699 -1.39162 -0.0158243  -0.540716 -1.41156 -0.0146868  -0.563272 -1.46032 -0.0152402  -0.587477 -1.3937 -0.0154212  -0.609755 -1.44107 -0.0159748  -0.541405 -1.41377 -0.01459  -0.609495 -1.44009 -0.0161307  -0.609137 -1.43908 -0.0162849  -0.585543 -1.50811 -0.0159152  -0.63194 -1.48765 -0.0167198  -0.631655 -1.48668 -0.0168648  -0.585295 -1.50709 -0.0159333  -0.607906 -1.556 -0.0165677  -0.632125 -1.48859 -0.0165839  -0.654597 -1.53625 -0.0171738  -0.585684 -1.50912 -0.0159032  -0.654475 -1.53533 -0.0172765  -0.654279 -1.53442 -0.0173826  -0.630363 -1.60399 -0.0172641  -0.677067 -1.58314 -0.0179121  -0.676936 -1.58225 -0.018014  -0.63026 -1.60305 -0.0172594  -0.652878 -1.65205 -0.017936  -0.677122 -1.58401 -0.017822  -0.699715 -1.63188 -0.0184488  -0.630378 -1.60492 -0.0172782  -0.699717 -1.63104 -0.0185101  -0.699659 -1.63019 -0.0185692  -0.675456 -1.70018 -0.0186617  -0.722409 -1.67902 -0.01917  -0.72241 -1.6782 -0.0192249  -0.675483 -1.69932 -0.0186334  -0.698071 -1.74837 -0.0193696  -0.722345 -1.67983 -0.0191221  -0.745024 -1.72786 -0.0197773  -0.675357 -1.70105 -0.0186975  -0.745138 -1.72707 -0.0198023  -0.74521 -1.72629 -0.0198269  -0.720723 -1.7966 -0.0201144  -0.767873 -1.77517 -0.0204995  -0.767998 -1.77441 -0.0205271  -0.720865 -1.7958 -0.0200746  -0.743383 -1.84484 -0.0208397  -0.767708 -1.77593 -0.0204828  -0.790411 -1.82405 -0.0211689  -0.720524 -1.79741 -0.0201652  -0.790621 -1.82331 -0.0211675  -0.790801 -1.82258 -0.0211613  -0.766058 -1.89311 -0.0216079  -0.813366 -1.87148 -0.0218832  -0.813593 -1.87077 -0.0218797  -0.7663 -1.89238 -0.0215533  -0.788727 -1.94139 -0.0223608  -0.813107 -1.8722 -0.0218933  -0.83581 -1.92038 -0.0226018  -0.765772 -1.89388 -0.0216677  -0.836107 -1.91967 -0.0225778  -0.836391 -1.919 -0.0225525  -0.811389 -1.98965 -0.0231419  -0.858816 -1.96787 -0.0233259  -0.859139 -1.9672 -0.0233078  -0.811721 -1.98896 -0.0230868  -0.834024 -2.0379 -0.0239074  -0.858479 -1.96855 -0.0233521  -0.881134 -2.01672 -0.0240879  -0.811028 -1.99038 -0.0232062  -0.881502 -2.01605 -0.0240517  -0.881867 -2.0154 -0.024009  -0.856637 -2.08613 -0.0247076  -0.904154 -2.06423 -0.0248137  -0.904549 -2.06359 -0.0247796  -0.85704 -2.08548 -0.0246491  -0.879215 -2.13433 -0.0254977  -0.90375 -2.06488 -0.0248528  -0.926345 -2.11303 -0.025604  -0.856212 -2.08682 -0.0247722  -0.926774 -2.11238 -0.0255606  -0.927212 -2.11177 -0.0255153  -0.901757 -2.18248 -0.0263062  -0.949338 -2.1605 -0.0263498  -0.949801 -2.15989 -0.026315  -0.90222 -2.18187 -0.0262547  -0.924248 -2.23059 -0.027102  -0.94888 -2.16113 -0.0263903  -0.97138 -2.2092 -0.0271645  -0.901281 -2.18315 -0.026365  -0.971855 -2.20858 -0.027122  -0.972343 -2.20798 -0.0270703  -0.946692 -2.27866 -0.0279174  -0.994318 -2.25662 -0.0279114  -0.994826 -2.25603 -0.0278721  -0.9472 -2.27807 -0.0278687  -0.969087 -2.32667 -0.0287275  -0.99382 -2.25723 -0.0279531  -1.01622 -2.30522 -0.0287333  -0.946177 -2.2793 -0.0279694  -1.01673 -2.30461 -0.0286953  -1.01727 -2.30405 -0.0286503  -0.99142 -2.37461 -0.0295393  -1.03908 -2.35254 -0.0294969  -1.03962 -2.35198 -0.029465  -0.991959 -2.37405 -0.0295036  -1.01369 -2.42248 -0.030339  -1.03855 -2.35314 -0.0295305  -1.06084 -2.40101 -0.0303144  -0.990879 -2.37523 -0.0295794  -1.06136 -2.40041 -0.030283  -1.06191 -2.39986 -0.0302413  -1.03589 -2.47028 -0.0311437  -1.08358 -2.44821 -0.0310657  -1.08413 -2.44766 -0.0310342  -1.03644 -2.46973 -0.0311091  -1.05802 -2.51798 -0.0319352  -1.08305 -2.4488 -0.0311012  -1.10523 -2.49653 -0.0318749  -1.03534 -2.47089 -0.0311773  -1.10575 -2.49592 -0.0318382  -1.10629 -2.49538 -0.0317969  0 0 0  0.000830442 0.00126547 0.00127006  0.000404358 0.00220737 -0.00095439  -0.000471946 0.00486034 -0.00195694  0.00176132 0.00378418 0.00228667  0.00302731 -0.0025762 0.00206661  0.000338815 0.00029394 -0.00101805  0.000768259 -0.00387377 -0.0029943  0 0 0  0 0 0  0.000730775 -0.00052914 0.000994921  0 0 0  0.000598609 -0.000697762 -0.00331211  0.00022231 0.00414953 -0.00328326  0.00568584 -0.0111554 0.00205255  0.00112896 -0.00878811 -0.00437355  0.00127713 -0.00293958 -0.00415349  0.00676431 -0.00551331 0.00287366  0.00791958 -0.0231359 0.00165892  0.00105046 -0.0130041 -0.00389457  0.00105941 -0.025145 -0.00484085  0.00477667 -0.0150953 0.00143456  0.00158465 -0.0202542 -0.00539565  0.00226486 -0.0135555 -0.00530314  0.00991094 -0.0386426 0.00140786  0.00136751 -0.0353496 -0.00589275  0.00272164 -0.0283769 -0.00555396  0.0116044 -0.0318759 0.00234008  0.0112185 -0.0568092 0.00118685  0.000322521 -0.0407238 -0.00545764  -0.000804543 -0.0587729 -0.00559425  0.00853607 -0.0437869 0.000866652  0.00070098 -0.0531155 -0.00611877  0.00252888 -0.0459239 -0.00610018  0.0117495 -0.0776663 0.00103617  -0.000879675 -0.0735669 -0.00618005  0.00148228 -0.0664669 -0.00599527  0.0140922 -0.070727 0.00191808  0.0114154 -0.100762 0.00100255  -0.00275543 -0.0792835 -0.00578094  -0.0053809 -0.101991 -0.00557518  0.00986689 -0.0832373 0.000522852  -0.00318098 -0.0962678 -0.0060513  -0.000520349 -0.089292 -0.00613403  0.0100765 -0.126004 0.000947237  -0.00647527 -0.12109 -0.00587797  -0.00346315 -0.11439 -0.00586081  0.0128841 -0.11939 0.00171852  0.00775892 -0.153182 0.000996351  -0.00889647 -0.126682 -0.0054791  -0.0132858 -0.153287 -0.00516105  0.00780511 -0.131514 0.00047493  -0.0106696 -0.147852 -0.00559497  -0.00752336 -0.141438 -0.00576878  0.00435996 -0.182134 0.000993729  -0.0158755 -0.176357 -0.00534058  -0.0125291 -0.170261 -0.00544667  0.00741047 -0.176053 0.00165033  -6.4075e-05 -0.212741 0.00106573  -0.0186051 -0.181567 -0.00494337  -0.0248712 -0.211492 -0.00461698  0.0018571 -0.187321 0.000558138  -0.022057 -0.206515 -0.00502157  -0.0187056 -0.200753 -0.00523758  -0.00556022 -0.244825 0.00103855  -0.0292155 -0.238095 -0.00477362  -0.0257849 -0.232658 -0.00495315  -0.00244129 -0.239343 0.00160766  -0.0120633 -0.278324 0.00107503  -0.0320531 -0.242827 -0.00439072  -0.040186 -0.275566 -0.00411749  -0.00814605 -0.249588 0.000640631  -0.0373476 -0.271086 -0.00447679  -0.0339963 -0.265978 -0.00470996  -0.0195841 -0.313057 0.000992775  -0.0463813 -0.305265 -0.00429869  -0.0430292 -0.30046 -0.00450444  -0.0165295 -0.308165 0.00149632  -0.0280609 -0.348996 0.000959873  -0.0491815 -0.309503 -0.00395179  -0.0590758 -0.34464 -0.0037663  -0.0221397 -0.317357 0.000616789  -0.0563376 -0.340649 -0.00407958  -0.0531229 -0.336148 -0.00430298  -0.0374789 -0.385965 0.000789881  -0.0671121 -0.37703 -0.00400376  -0.0639486 -0.372791 -0.00420952  -0.0345818 -0.381616 0.00124598  -0.0477809 -0.423964 0.000674248  -0.0697729 -0.380802 -0.00369978  -0.0813106 -0.417997 -0.00361967  -0.0399164 -0.389825 0.000430346  -0.078741 -0.414441 -0.00387597  -0.0757353 -0.410462 -0.0040729  -0.0589405 -0.462846 0.000419855  -0.0911055 -0.452713 -0.00390887  -0.0881822 -0.448967 -0.00409007  -0.0562514 -0.458974 0.000844955  -0.0709053 -0.502607 0.000209808  -0.0935718 -0.456073 -0.00365806  -0.106598 -0.495042 -0.00368953  -0.0612099 -0.466302 6.50883e-05  -0.104244 -0.491876 -0.00389361  -0.101496 -0.488357 -0.00405264  -0.083647 -0.543117 -0.00014019  -0.118045 -0.531779 -0.00403881  -0.115393 -0.528453 -0.00418925  -0.0811985 -0.539662 0.000262737  -0.097119 -0.584381 -0.000439405  -0.120287 -0.534775 -0.00383902  -0.134677 -0.575282 -0.00397015  -0.0857159 -0.546218 -0.000490904  -0.132551 -0.572448 -0.00411892  -0.130068 -0.569312 -0.00424051  -0.111295 -0.626299 -0.000867367  -0.147654 -0.613772 -0.00436592  -0.145278 -0.610808 -0.00447965  -0.109094 -0.623207 -0.00047946  -0.126125 -0.668861 -0.00125194  -0.149661 -0.616456 -0.00421858  -0.165275 -0.6583 -0.00444984  -0.11315 -0.629087 -0.0012176  -0.163389 -0.65576 -0.00455427  -0.161183 -0.652965 -0.0046339  -0.141589 -0.711982 -0.00176096  -0.179661 -0.698314 -0.00489092  -0.17756 -0.695661 -0.00496984  -0.139642 -0.709205 -0.00138831  -0.157642 -0.755655 -0.00221968  -0.181431 -0.700724 -0.00478983  -0.198158 -0.743732 -0.00510168  -0.143227 -0.714497 -0.00210738  -0.196501 -0.741439 -0.00515962  -0.194556 -0.738927 -0.00520587  -0.174263 -0.799815 -0.00279045  -0.213824 -0.785064 -0.00557852  -0.211987 -0.782684 -0.00562263  -0.172559 -0.797314 -0.00243068  -0.191406 -0.844445 -0.00331855  -0.215366 -0.787241 -0.00552034  -0.233082 -0.831255 -0.00591087  -0.175687 -0.802091 -0.00313282  -0.231655 -0.829186 -0.005934  -0.229972 -0.826934 -0.00594425  -0.209056 -0.889485 -0.00394964  -0.249911 -0.873732 -0.00641918  -0.248329 -0.871587 -0.00643325  -0.207592 -0.887227 -0.00360489  -0.227168 -0.934924 -0.00453329  -0.251231 -0.875701 -0.00639653  -0.269836 -0.920581 -0.00685072  -0.210272 -0.891553 -0.00428391  -0.268619 -0.918699 -0.00683761  -0.267175 -0.916661 -0.00682163  -0.24573 -0.980722 -0.00521016  -0.287707 -0.964041 -0.00738573  -0.286363 -0.962104 -0.0073719  -0.244491 -0.978676 -0.00487852  -0.264697 -1.02685 -0.00584936  -0.288816 -0.965832 -0.00739551  -0.308197 -1.01145 -0.00791192  -0.246749 -0.982604 -0.00553679  -0.307189 -1.00974 -0.0078752  -0.305982 -1.00791 -0.00783134  -0.284055 -1.07328 -0.00656986  -0.326998 -1.05576 -0.00847244  -0.325882 -1.05401 -0.00843525  -0.283034 -1.07143 -0.00625443  -0.303765 -1.11998 -0.0072484  -0.32791 -1.05739 -0.00850773  -0.347973 -1.10364 -0.00906968  -0.284885 -1.075 -0.00688362  -0.347152 -1.10208 -0.00900459  -0.346158 -1.10041 -0.00894117  -0.323817 -1.16694 -0.00799632  -0.367593 -1.14867 -0.00964665  -0.366689 -1.14708 -0.00958753  -0.322996 -1.16526 -0.00769424  -0.34417 -1.21413 -0.00870991  -0.368318 -1.15015 -0.00970697  -0.388963 -1.19693 -0.0103149  -0.32447 -1.16851 -0.00829983  -0.388326 -1.19551 -0.0102358  -0.38754 -1.194 -0.0101511  -0.36481 -1.26151 -0.00949216  -0.409295 -1.24257 -0.0109131  -0.408589 -1.24112 -0.0108373  -0.36418 -1.25998 -0.00920725  -0.385703 -1.30908 -0.010236  -0.409848 -1.24393 -0.0109897  -0.43099 -1.29114 -0.0116324  -0.365298 -1.26295 -0.0097816  -0.430513 -1.28983 -0.0115333  -0.42991 -1.28846 -0.011436  -0.406843 -1.35682 -0.0110378  -0.451933 -1.33728 -0.012244  -0.45141 -1.33597 -0.0121555  -0.406387 -1.35542 -0.0107675  -0.428189 -1.4047 -0.011812  -0.452326 -1.33853 -0.0123374  -0.473875 -1.3861 -0.0130153  -0.407176 -1.35814 -0.0113144  -0.473558 -1.3849 -0.0129082  -0.473138 -1.38365 -0.0127959  -0.449735 -1.4527 -0.0126388  -0.495339 -1.43265 -0.0136471  -0.494985 -1.43145 -0.0135477  -0.449445 -1.45142 -0.0123894  -0.471449 -1.50081 -0.0134308  -0.495584 -1.4338 -0.0137498  -0.517467 -1.48165 -0.0144536  -0.449926 -1.45392 -0.012897  -0.517286 -1.48054 -0.0143347  -0.51702 -1.47939 -0.0142183  -0.493325 -1.54902 -0.0142674  -0.539357 -1.52853 -0.0151002  -0.539159 -1.52744 -0.0149927  -0.493181 -1.54785 -0.0140331  -0.515328 -1.5973 -0.0150788  -0.539466 -1.5296 -0.0152128  -0.561601 -1.57765 -0.0159454  -0.493387 -1.55014 -0.0145097  -0.561555 -1.57663 -0.0158253  -0.561444 -1.57559 -0.0156999  -0.537451 -1.64565 -0.0159349  -0.583839 -1.62479 -0.0166082  -0.583783 -1.62379 -0.0164976  -0.537444 -1.64458 -0.0157211  -0.559669 -1.69404 -0.0167625  -0.583825 -1.62577 -0.0167227  -0.606155 -1.67398 -0.0174713  -0.537393 -1.64669 -0.0161581  -0.606219 -1.67302 -0.0173473  -0.606234 -1.67206 -0.0172255  -0.58198 -1.74247 -0.017616  -0.628662 -1.72131 -0.0181475  -0.628731 -1.72039 -0.0180361  -0.582091 -1.74149 -0.0174215  -0.604353 -1.79092 -0.0184519  -0.628538 -1.72222 -0.0182636  -0.650995 -1.77052 -0.0190315  -0.581818 -1.74344 -0.0178208  -0.65117 -1.76963 -0.0189118  -0.651308 -1.76875 -0.0187857  -0.626784 -1.83939 -0.0193214  -0.673705 -1.81798 -0.0197258  -0.673883 -1.81712 -0.0196154  -0.627003 -1.83848 -0.0191486  -0.649251 -1.88785 -0.0201659  -0.673485 -1.81883 -0.0198371  -0.696023 -1.86716 -0.020618  -0.626528 -1.84029 -0.0195041  -0.69628 -1.86633 -0.0205011  -0.696514 -1.86552 -0.0203848  -0.671753 -1.93631 -0.0210273  -0.718868 -1.9147 -0.0213239  -0.719142 -1.91391 -0.0212181  -0.672063 -1.93548 -0.0208731  -0.694268 -1.98475 -0.0218754  -0.718563 -1.9155 -0.0214322  -0.741129 -1.96384 -0.0222266  -0.671419 -1.93715 -0.0211916  -0.741472 -1.96306 -0.0221205  -0.741801 -1.96231 -0.0220053  -0.716792 -2.03316 -0.0227528  -0.764059 -2.0114 -0.0229528  -0.764416 -2.01066 -0.0228567  -0.71718 -2.03239 -0.0226212  -0.739308 -2.08153 -0.0236087  -0.763683 -2.01215 -0.0230503  -0.786242 -2.06045 -0.0238543  -0.716388 -2.03395 -0.022892  -0.786643 -2.05971 -0.0237558  -0.787042 -2.059 -0.0236545  -0.761817 -2.12987 -0.0244758  -0.809204 -2.108 -0.0245967  -0.80963 -2.1073 -0.024509  -0.762266 -2.12915 -0.0243645  -0.784304 -2.17816 -0.0253313  -0.808767 -2.10871 -0.0246844  -0.831283 -2.15694 -0.0254967  -0.761358 -2.13062 -0.0245934  -0.831744 -2.15624 -0.0254157  -0.832212 -2.15558 -0.0253253  -0.806762 -2.22639 -0.0261993  -0.85424 -2.20443 -0.0262589  -0.854722 -2.20378 -0.026186  -0.807266 -2.22571 -0.0261118  -0.829189 -2.27456 -0.0270529  -0.853756 -2.20511 -0.0263298  -0.876208 -2.25325 -0.0271435  -0.806259 -2.2271 -0.0262926  -0.876706 -2.25257 -0.0270755  -0.877217 -2.25194 -0.027004  -0.85158 -2.32267 -0.0279093  -0.899125 -2.30066 -0.0279183  -0.899651 -2.30004 -0.0278587  -0.852122 -2.32203 -0.027844  -0.87393 -2.37071 -0.0287595  -0.898602 -2.30131 -0.0279748  -0.920966 -2.34933 -0.0287931  -0.851042 -2.32335 -0.0279803  -0.921504 -2.34869 -0.028748  -0.922057 -2.34809 -0.0286882  -0.89622 -2.41867 -0.0296171  -0.943812 -2.39664 -0.0295827  -0.944369 -2.39605 -0.0295413  -0.896796 -2.41806 -0.0295777  -0.91846 -2.46655 -0.0304651  -0.943262 -2.39727 -0.0296202  -0.965521 -2.44515 -0.030431  -0.895656 -2.41933 -0.0296633  -0.966072 -2.44451 -0.0304012  -0.966648 -2.44394 -0.0303676  -0.940625 -2.51434 -0.0313027  -0.98825 -2.4923 -0.0312219  -0.988829 -2.49173 -0.0311971  -0.941224 -2.51374 -0.0312877  -0.962713 -2.56202 -0.032146  -0.987692 -2.49293 -0.03125  -1.00982 -2.54064 -0.0320604  -0.94005 -2.51499 -0.0313301  -1.01036 -2.54 -0.0320449  -1.01093 -2.53943 -0.0320132  0 0 0  0.00213126 -0.00168484 0.00683284  0.00164606 -0.000122249 0.0045917  0.00338335 0.00222677 0.00663662  0.00532442 0.000545323 0.0107958  0.00798781 -0.00782663 0.01215  0.00151934 -0.0017671 0.00334644  0.00487037 -0.00766629 0.0052712  0 0 0  0 0 0  0.00193758 -0.00330442 0.00527263  0 0 0  0.00571871 -0.00483584 0.00714922  0.0077022 -0.000415802 0.00931978  0.0145489 -0.0182877 0.0140958  0.0100544 -0.0143786 0.00813365  0.0116861 -0.00899112 0.00992894  0.0170419 -0.013045 0.0167699  0.0209016 -0.0315221 0.0149457  0.00899173 -0.0182012 0.00645089  0.013174 -0.03137 0.00674057  0.0128571 -0.0218791 0.0113482  0.0144702 -0.0268959 0.00840831  0.0161856 -0.0207134 0.0103109  0.0269492 -0.0481141 0.0151258  0.0183908 -0.0429462 0.0083456  0.0201962 -0.036397 0.010179  0.0290732 -0.0417357 0.0176988  0.0323105 -0.0670769 0.015075  0.0169143 -0.0479533 0.00681949  0.0200752 -0.0668211 0.00678015  0.0251876 -0.0529273 0.01263  0.0217648 -0.0615125 0.00824165  0.0237502 -0.0547344 0.00997329  0.0367939 -0.0886721 0.0148082  0.0242573 -0.0827349 0.00800872  0.0264909 -0.075942 0.00976372  0.039036 -0.0820259 0.0173299  0.0403211 -0.112465 0.0145721  0.0223939 -0.0881782 0.00658011  0.023827 -0.111694 0.00650549  0.0349089 -0.0939929 0.0124719  0.0258695 -0.106203 0.00786328  0.0282478 -0.0994794 0.00946951  0.042748 -0.138403 0.014168  0.0264307 -0.131793 0.00762582  0.0290332 -0.125237 0.00925088  0.04519 -0.13194 0.0165665  0.0440618 -0.166313 0.0138421  0.0242633 -0.137209 0.00628591  0.023658 -0.164675 0.00619555  0.040696 -0.143754 0.0119593  0.025937 -0.159361 0.00747037  0.0285995 -0.153033 0.00894976  0.044192 -0.19603 0.013381  0.0243298 -0.188694 0.00723314  0.0271501 -0.182611 0.0087173  0.0467799 -0.189979 0.0156307  0.0431674 -0.227471 0.0130122  0.0219866 -0.193841 0.00598693  0.0192092 -0.224708 0.0058682  0.0420279 -0.201155 0.0113118  0.0216072 -0.219741 0.00707054  0.0244115 -0.213943 0.00843  0.0409545 -0.260427 0.012496  0.0177861 -0.252264 0.00680041  0.0206631 -0.246739 0.0081408  0.0435838 -0.254894 0.0145853  0.0375924 -0.294866 0.0120592  0.0153694 -0.257026 0.0056293  0.0104325 -0.290803 0.00545216  0.0387424 -0.265199 0.010555  0.0128467 -0.286256 0.00658727  0.0156552 -0.281015 0.0078423  0.0330849 -0.330583 0.0114913  0.00686336 -0.321485 0.00625634  0.0096947 -0.316511 0.00748706  0.0356731 -0.325566 0.0134249  0.0274802 -0.36755 0.0109837  0.00447696 -0.325816 0.00516367  -0.00253516 -0.362076 0.00491452  0.0309032 -0.334953 0.00967908  -0.000192165 -0.357959 0.00598001  0.00252724 -0.353263 0.00713873  0.0207942 -0.40558 0.0103436  -0.00821602 -0.395462 0.0055747  -0.00552332 -0.391013 0.00669813  0.0232642 -0.40106 0.0121231  0.0130807 -0.444672 0.00977182  -0.0105017 -0.399379 0.00455284  -0.019455 -0.437741 0.00422478  0.0187021 -0.409557 0.00866032  -0.017244 -0.43403 0.00523067  -0.0146835 -0.42982 0.00630832  0.00436747 -0.484661 0.00907612  -0.0271561 -0.473472 0.00474763  -0.0246456 -0.469484 0.00578976  0.00667644 -0.480592 0.010721  -0.00528765 -0.525541 0.00843334  -0.0292857 -0.476995 0.00378633  -0.0400296 -0.517153 0.00337744  0.00241339 -0.488259 0.00750828  -0.03799 -0.513809 0.00432467  -0.035629 -0.510048 0.00532436  -0.0158565 -0.567167 0.0076685  -0.049623 -0.554882 0.00376272  -0.0473361 -0.551313 0.00471997  -0.0137441 -0.563507 0.00917864  -0.0272852 -0.609548 0.00696635  -0.0515707 -0.558061 0.00285959  -0.0639437 -0.59974 0.0023737  -0.0176464 -0.570426 0.00621653  -0.0620967 -0.596723 0.00326705  -0.0599568 -0.593339 0.00420022  -0.039542 -0.652564 0.00615191  -0.0752941 -0.639198 0.00263596  -0.0732323 -0.635986 0.00353003  -0.0376376 -0.64926 0.00754356  -0.0525742 -0.69621 0.00538754  -0.0770415 -0.642064 0.00178719  -0.0908953 -0.685044 0.00123143  -0.04115 -0.655514 0.00480461  -0.0892508 -0.682316 0.00206852  -0.0873427 -0.679281 0.00293493  -0.0663549 -0.740385 0.00451946  -0.103854 -0.72597 0.00137353  -0.102036 -0.723081 0.00219488  -0.0646696 -0.737402 0.00579262  -0.0808321 -0.785093 0.00371003  -0.105398 -0.728567 0.000579357  -0.120585 -0.772649 -3.74317e-05  -0.0677754 -0.743066 0.00327897  -0.119144 -0.770177 0.000747919  -0.117466 -0.767428 0.0015552  -0.0959809 -0.83025 0.00280523  -0.135013 -0.814842 -1.43051e-06  -0.133421 -0.812227 0.000765324  -0.0945107 -0.827546 0.0039742  -0.111749 -0.875849 0.00194883  -0.136353 -0.817195 -0.000743866  -0.152734 -0.862215 -0.00141478  -0.0972104 -0.832687 0.00166106  -0.151493 -0.859969 -0.000685215  -0.150045 -0.857492 6.12736e-05  -0.128115 -0.921814 0.0010047  -0.168485 -0.905477 -0.00147986  -0.167125 -0.903113 -0.000777721  -0.126859 -0.919362 0.00206685  -0.145031 -0.96815 0.000119925  -0.169629 -0.90762 -0.00216913  -0.187072 -0.953426 -0.00288391  -0.12916 -0.924039 -4.07696e-05  -0.186023 -0.951378 -0.00220442  -0.18479 -0.949122 -0.00151277  -0.162478 -1.0148 -0.00084424  -0.204014 -0.997607 -0.00303626  -0.202866 -0.995458 -0.00238371  -0.161425 -1.01257 0.000124693  -0.180406 -1.06175 -0.0017643  -0.204967 -0.999559 -0.00367641  -0.223346 -1.04603 -0.00443339  -0.163343 -1.01683 -0.00180197  -0.222484 -1.04416 -0.00380707  -0.221465 -1.04212 -0.0031724  -0.198798 -1.10894 -0.00275207  -0.241346 -1.09097 -0.00466752  -0.240409 -1.08902 -0.00407481  -0.197943 -1.10691 -0.00187755  -0.217612 -1.15638 -0.00368547  -0.242119 -1.09276 -0.00525737  -0.261316 -1.13976 -0.00604248  -0.199492 -1.1108 -0.00361943  -0.260629 -1.13806 -0.00546384  -0.259805 -1.13619 -0.00487804  -0.236831 -1.20403 -0.00468326  -0.280252 -1.18536 -0.00634694  -0.279506 -1.18359 -0.00579906  -0.23616 -1.20218 -0.00389218  -0.25641 -1.25187 -0.00564051  -0.280854 -1.18699 -0.00689006  -0.300759 -1.23445 -0.00770402  -0.237359 -1.20573 -0.00547004  -0.300238 -1.23288 -0.00717497  -0.299605 -1.2312 -0.00664186  -0.276335 -1.29986 -0.00665236  -0.32051 -1.28058 -0.00807738  -0.31995 -1.27896 -0.00758457  -0.27584 -1.29818 -0.00594568  -0.296567 -1.34801 -0.00761437  -0.320952 -1.28208 -0.00857282  -0.34146 -1.32988 -0.00940561  -0.276713 -1.30143 -0.0073576  -0.341091 -1.32844 -0.00892043  -0.34063 -1.3269 -0.00843382  -0.317098 -1.39628 -0.00862718  -0.361918 -1.37645 -0.00983667  -0.361524 -1.37497 -0.00938487  -0.316765 -1.39474 -0.00799394  -0.337884 -1.44466 -0.00960207  -0.362211 -1.37783 -0.0102899  -0.383225 -1.42591 -0.0111437  -0.317332 -1.39772 -0.00925994  -0.383001 -1.42459 -0.0107064  -0.382707 -1.42319 -0.0102668  -0.358912 -1.49312 -0.0106204  -0.404278 -1.47282 -0.0116341  -0.404046 -1.47148 -0.0112321  -0.358731 -1.49172 -0.0100625  -0.380151 -1.54166 -0.0115936  -0.404433 -1.47409 -0.0120411  -0.425864 -1.52238 -0.0129035  -0.359015 -1.49445 -0.0111809  -0.425771 -1.52116 -0.0125082  -0.425621 -1.51987 -0.0121107  -0.401592 -1.59026 -0.012604  -0.447419 -1.56957 -0.0134408  -0.447326 -1.56833 -0.0130754  -0.401547 -1.58898 -0.0121107  -0.423197 -1.63891 -0.0135839  -0.44745 -1.57073 -0.0138071  -0.46921 -1.61916 -0.0146818  -0.401572 -1.59148 -0.0130999  -0.469239 -1.61804 -0.0143311  -0.46923 -1.61687 -0.013978  -0.444958 -1.68758 -0.014595  -0.491173 -1.66655 -0.0152686  -0.491214 -1.66542 -0.0149496  -0.445039 -1.68641 -0.0141695  -0.466845 -1.73627 -0.0155671  -0.491087 -1.66763 -0.0155921  -0.513104 -1.71614 -0.0164702  -0.444829 -1.68871 -0.0150239  -0.51324 -1.7151 -0.0161598  -0.513348 -1.71402 -0.0158448  -0.488858 -1.78497 -0.0165656  -0.535393 -1.76367 -0.0170941  -0.535544 -1.76263 -0.0168097  -0.489048 -1.7839 -0.0161955  -0.510958 -1.83367 -0.0175371  -0.535206 -1.76466 -0.017379  -0.557411 -1.81321 -0.0182617  -0.488631 -1.78602 -0.0169384  -0.557643 -1.81225 -0.017993  -0.557865 -1.81127 -0.0177212  -0.533144 -1.88235 -0.018527  -0.579943 -1.86082 -0.0189252  -0.580203 -1.85987 -0.0186844  -0.533432 -1.88137 -0.0182171  -0.555391 -1.93101 -0.0194798  -0.579666 -1.86175 -0.019171  -0.601999 -1.91029 -0.020051  -0.532832 -1.88332 -0.018841  -0.602313 -1.90939 -0.0198183  -0.602623 -1.90848 -0.0195799  -0.577698 -1.97964 -0.0204539  -0.62471 -1.95794 -0.0207422  -0.625051 -1.95706 -0.0205317  -0.578067 -1.97874 -0.0201926  -0.600035 -2.02823 -0.0214059  -0.624357 -1.9588 -0.0209532  -0.646761 -2.00729 -0.0218332  -0.577311 -1.98054 -0.0207186  -0.647147 -2.00645 -0.0216389  -0.647542 -2.00562 -0.0214396  -0.622402 -2.07676 -0.022368  -0.669585 -2.05493 -0.0225592  -0.670007 -2.05412 -0.0223894  -0.622842 -2.07594 -0.0221586  -0.644779 -2.12525 -0.0232995  -0.669167 -2.05574 -0.0227334  -0.691599 -2.10415 -0.0236099  -0.621956 -2.0776 -0.0225811  -0.692041 -2.10336 -0.0234499  -0.692497 -2.10258 -0.0232828  -0.667166 -2.17368 -0.0242424  -0.714483 -2.15175 -0.024359  -0.714957 -2.15099 -0.0242152  -0.667658 -2.17291 -0.0240729  -0.689543 -2.22204 -0.0251682  -0.714013 -2.15251 -0.0245008  -0.736433 -2.20082 -0.025373  -0.66667 -2.17446 -0.0244141  -0.736924 -2.20008 -0.0252485  -0.737438 -2.19936 -0.0251174  -0.711907 -2.27033 -0.0260971  -0.75933 -2.24834 -0.0261481  -0.759858 -2.24763 -0.0260429  -0.712444 -2.26962 -0.025974  -0.734251 -2.31855 -0.0270009  -0.758817 -2.24906 -0.0262549  -0.781196 -2.29724 -0.0271156  -0.711374 -2.27107 -0.0262232  -0.781723 -2.29653 -0.0270238  -0.782273 -2.29585 -0.0269222  -0.756572 -2.36669 -0.0279088  -0.804075 -2.34466 -0.02791  -0.804634 -2.34399 -0.0278299  -0.757139 -2.36602 -0.0278215  -0.778861 -2.41475 -0.0288088  -0.80353 -2.34535 -0.0279863  -0.825845 -2.39339 -0.0288434  -0.756011 -2.3674 -0.0279984  -0.826402 -2.39271 -0.0287845  -0.82699 -2.39208 -0.0287175  -0.801107 -2.46272 -0.0297053  -0.848665 -2.44068 -0.0296617  -0.84926 -2.44005 -0.0296187  -0.801704 -2.46209 -0.0296614  -0.823308 -2.51061 -0.030592  -0.848096 -2.44134 -0.0297055  -0.870317 -2.48923 -0.0305543  -0.800524 -2.46341 -0.0297539  -0.870893 -2.48857 -0.0305293  -0.871504 -2.48795 -0.0304947  -0.845449 -2.55841 -0.0314772  -0.893037 -2.53636 -0.031395  -0.893646 -2.53574 -0.0313797  -0.846067 -2.55779 -0.0314724  -0.867512 -2.60611 -0.0323684  -0.892457 -2.53701 -0.0314105  -0.914537 -2.58473 -0.0322556  -0.844855 -2.55908 -0.0314918  -0.915104 -2.58405 -0.0322568  -0.915725 -2.58344 -0.0322571  0 0 0  0.00360261 -0.00635421 0.0119567  0.0030548 -0.00381267 0.00983095  0.00682458 -0.00181139 0.0147102  0.00865532 -0.00433666 0.0187116  0.0136401 -0.01564 0.0212944  0.0029117 -0.00531816 0.00746918  0.00941342 -0.0138661 0.0129669  0 0 0  0 0 0  0.00339699 -0.00792682 0.00921726  0 0 0  0.0110169 -0.0112872 0.0168788  0.0148561 -0.00732666 0.0211406  0.0244413 -0.0286658 0.0249119  0.0193218 -0.0230475 0.0196333  0.0221204 -0.0181398 0.0230517  0.0280471 -0.0237848 0.0294368  0.0351493 -0.0434679 0.0269418  0.0174791 -0.026578 0.0159357  0.0258533 -0.0412509 0.01741  0.0221354 -0.0320329 0.0201986  0.0277584 -0.0370607 0.0211005  0.0302771 -0.0314027 0.0247431  0.0452483 -0.0611187 0.0276651  0.0358075 -0.0541679 0.0215139  0.0379825 -0.0480317 0.0248828  0.0477181 -0.0551188 0.031909  0.0545574 -0.0808887 0.0279372  0.0339876 -0.0588747 0.0181348  0.0412815 -0.0786232 0.018295  0.0431904 -0.0657094 0.023314  0.0431349 -0.0735716 0.0216262  0.0452608 -0.0671863 0.0250535  0.0628735 -0.103091 0.0277326  0.0495771 -0.0954589 0.0213661  0.0517311 -0.0889595 0.0247157  0.065039 -0.0967207 0.0318918  0.0700656 -0.127501 0.0274262  0.0477054 -0.100676 0.018172  0.0530316 -0.124891 0.0179482  0.0609712 -0.108223 0.0236225  0.054962 -0.119587 0.0210736  0.0571325 -0.113119 0.0243425  0.0760939 -0.154024 0.0268242  0.0592285 -0.145817 0.0205643  0.0615157 -0.139432 0.0237901  0.0782569 -0.147739 0.0308542  0.0808746 -0.18259 0.0262344  0.0572603 -0.151084 0.017518  0.0602826 -0.179283 0.0171273  0.0742099 -0.159235 0.0229135  0.062302 -0.174074 0.0200851  0.0645941 -0.167858 0.0231972  0.0844016 -0.213005 0.0254273  0.0641639 -0.204138 0.0194445  0.0665613 -0.198102 0.0224993  0.0866119 -0.20703 0.0292542  0.0866359 -0.245206 0.0246694  0.0621164 -0.209213 0.0165689  0.0627116 -0.240903 0.0160723  0.0824929 -0.218053 0.0217254  0.06478 -0.235972 0.0188565  0.0671476 -0.230175 0.0217848  0.0875903 -0.278975 0.0237372  0.0641811 -0.269329 0.0181358  0.0666173 -0.263771 0.0209937  0.0898146 -0.273432 0.0273275  0.0872614 -0.314276 0.022866  0.0621139 -0.274086 0.0154371  0.0602803 -0.308785 0.0148635  0.0856808 -0.283725 0.0202658  0.0623385 -0.30421 0.0174789  0.0647085 -0.298908 0.0202017  0.0856708 -0.350903 0.0218644  0.0593178 -0.340382 0.0166876  0.0617177 -0.335311 0.0193369  0.0878465 -0.345811 0.0252011  0.0828481 -0.388813 0.0209184  0.0572839 -0.344765 0.0141664  0.0530987 -0.382033 0.0135179  0.0838017 -0.3553 0.0186222  0.0550982 -0.377836 0.0159557  0.0574009 -0.373012 0.0184891  0.0788226 -0.427827 0.019845  0.0497718 -0.416357 0.0150959  0.0520686 -0.411759 0.0175428  0.0809059 -0.423181 0.0229337  0.0736395 -0.467918 0.0188339  0.0478231 -0.420369 0.0127559  0.0414209 -0.459788 0.0120401  0.0770369 -0.431875 0.0168407  0.0433128 -0.455961 0.014308  0.0454953 -0.451591 0.0166488  0.0673314 -0.508927 0.0177169  0.0358282 -0.496461 0.0133939  0.0379789 -0.492304 0.0156474  0.069281 -0.504704 0.0205607  0.0599477 -0.550833 0.016654  0.0340046 -0.500111 0.0112238  0.0255442 -0.541349 0.0104485  0.0656585 -0.512623 0.0149391  0.0272924 -0.537869 0.0125449  0.0293107 -0.533924 0.014703  0.0515268 -0.593488 0.015487  0.0178268 -0.580014 0.0115731  0.0197957 -0.576255 0.0136404  0.0533137 -0.589652 0.0180933  0.042124 -0.636891 0.014384  0.0161548 -0.583332 0.00957251  0.00580466 -0.626083 0.00874233  0.0499947 -0.596863 0.0129349  0.00739408 -0.622919 0.0106785  0.00923026 -0.619345 0.0126591  0.0317779 -0.680915 0.0131898  -0.00388479 -0.666444 0.00966501  -0.00211 -0.663041 0.0115581  0.0333878 -0.677429 0.0155721  0.0205376 -0.725556 0.0120499  -0.00538719 -0.669459 0.00782323  -0.0174543 -0.71348 0.00694442  0.0304004 -0.683993 0.0108485  -0.0160409 -0.710601 0.00871992  -0.0144058 -0.70737 0.0105343  0.00844347 -0.7707 0.0108285  -0.028953 -0.755268 0.00766921  -0.027384 -0.752182 0.00939631  0.00986314 -0.767528 0.0129945  -0.00445509 -0.816354 0.00966501  -0.0302807 -0.758014 0.00598192  -0.0438981 -0.803086 0.00506306  0.00723064 -0.773512 0.00869298  -0.0426595 -0.80046 0.00669217  -0.0412233 -0.797523 0.00834584  -0.0181177 -0.862424 0.00843024  -0.0570453 -0.84608 0.00561118  -0.0556802 -0.843278 0.00718307  -0.016888 -0.859534 0.0103962  -0.0325024 -0.90891 0.00724483  -0.0581917 -0.848585 0.00406909  -0.0731993 -0.894534 0.00311637  -0.0191634 -0.864996 0.00648475  -0.0721431 -0.892137 0.00459814  -0.0709118 -0.889471 0.00610423  -0.0475687 -0.955724 0.00599241  -0.0878365 -0.938534 0.00349379  -0.0866748 -0.935984 0.00491858  -0.0465285 -0.953087 0.0077672  -0.0632743 -1.00288 0.0047977  -0.0888065 -0.940823 0.00209403  -0.105052 -0.987484 0.0011158  -0.0484459 -0.958082 0.00423431  -0.104166 -0.98529 0.0024631  -0.103126 -0.982857 0.00382423  -0.0795836 -1.0503 0.00354981  -0.121028 -1.03233 0.00134826  -0.120061 -1.03001 0.00263476  -0.0787276 -1.04789 0.00514746  -0.0964589 -1.09799 0.00234962  -0.121825 -1.03443 7.84397e-05  -0.139162 -1.08167 -0.000919104  -0.0802984 -1.05246 0.00196195  -0.13845 -1.07966 0.000296354  -0.137607 -1.07745 0.00152707  -0.113864 -1.14589 0.00109601  -0.156328 -1.12722 -0.000830889  -0.155551 -1.1251 0.000326157  -0.113189 -1.14369 0.00252438  -0.131761 -1.194 -0.000104427  -0.156961 -1.12914 -0.00197363  -0.175256 -1.17685 -0.00298524  -0.11442 -1.14787 -0.000325918  -0.1747 -1.175 -0.00188923  -0.174035 -1.17298 -0.000786781  -0.150123 -1.24227 -0.00134826  -0.193476 -1.22297 -0.00301838  -0.19288 -1.22103 -0.00198364  -0.149617 -1.24026 -7.34329e-05  -0.168913 -1.2907 -0.00254583  -0.19395 -1.22473 -0.00404572  -0.213079 -1.27281 -0.00506783  -0.150528 -1.24409 -0.00262022  -0.212681 -1.27111 -0.00409055  -0.212194 -1.26927 -0.00310159  -0.188102 -1.33924 -0.00378489  -0.23222 -1.31939 -0.00522017  -0.23179 -1.31762 -0.0042994  -0.187759 -1.3374 -0.00266099  -0.207657 -1.38791 -0.00497723  -0.232548 -1.32101 -0.00613308  -0.252389 -1.36936 -0.00715947  -0.188365 -1.34092 -0.00490975  -0.252129 -1.3678 -0.00628996  -0.251797 -1.36612 -0.00541711  -0.227554 -1.43665 -0.00619507  -0.27233 -1.41632 -0.00741363  -0.272058 -1.41471 -0.00659966  -0.227359 -1.43497 -0.00520515  -0.247759 -1.48548 -0.00737309  -0.272518 -1.41781 -0.0082233  -0.292967 -1.46637 -0.0092504  -0.227684 -1.4382 -0.00718641  -0.292843 -1.46493 -0.00848556  -0.292667 -1.4634 -0.00771117  -0.26825 -1.53435 -0.00858355  -0.313587 -1.5136 -0.00960231  -0.313461 -1.51213 -0.00888872  -0.268196 -1.53281 -0.00772333  -0.288998 -1.58327 -0.00974751  -0.313649 -1.51498 -0.0103121  -0.334599 -1.56366 -0.0113361  -0.268257 -1.53578 -0.00944686  -0.334594 -1.56234 -0.0106645  -0.334551 -1.56093 -0.00999045  -0.309983 -1.63221 -0.010931  -0.355797 -1.61112 -0.0117686  -0.355803 -1.60977 -0.0111463  -0.310054 -1.6308 -0.0101852  -0.331176 -1.68117 -0.0120769  -0.355739 -1.61238 -0.012388  -0.377101 -1.66115 -0.0134053  -0.309877 -1.63352 -0.0116796  -0.377213 -1.65993 -0.0128264  -0.377301 -1.65865 -0.0122375  -0.35256 -1.73012 -0.0132427  -0.398769 -1.70875 -0.0139172  -0.398897 -1.70751 -0.0133822  -0.352748 -1.72883 -0.012609  -0.374106 -1.77907 -0.014369  -0.398608 -1.70991 -0.0144494  -0.420291 -1.7587 -0.015461  -0.352351 -1.73133 -0.013881  -0.420498 -1.75757 -0.0149627  -0.420692 -1.7564 -0.0144615  -0.395802 -1.828 -0.0155053  -0.442343 -1.80639 -0.0160358  -0.442575 -1.80527 -0.0155785  -0.396088 -1.82682 -0.0149696  -0.417622 -1.8769 -0.016607  -0.442085 -1.80747 -0.016489  -0.464017 -1.85624 -0.0174854  -0.395504 -1.82912 -0.0160453  -0.464318 -1.8552 -0.0170684  -0.464617 -1.85413 -0.0166414  -0.439553 -1.92575 -0.0177226  -0.486361 -1.90397 -0.0181222  -0.486686 -1.90294 -0.0177407  -0.439929 -1.92468 -0.0172825  -0.461572 -1.97457 -0.0188015  -0.486022 -1.90497 -0.0184991  -0.508132 -1.95368 -0.0194817  -0.439175 -1.92679 -0.0181677  -0.508504 -1.95272 -0.0191338  -0.508883 -1.95173 -0.0187817  -0.48367 -2.02333 -0.0198772  -0.530697 -2.00142 -0.020164  -0.531102 -2.00047 -0.0198498  -0.484118 -2.02235 -0.0195191  -0.505826 -2.07203 -0.0209279  -0.530287 -2.00234 -0.0204747  -0.552517 -2.05096 -0.0214422  -0.483226 -2.02429 -0.0202413  -0.552958 -2.05007 -0.0211642  -0.553412 -2.04917 -0.0208726  -0.528031 -2.12066 -0.0219824  -0.575229 -2.09866 -0.0221727  -0.575697 -2.09779 -0.02192  -0.528541 -2.11976 -0.0217018  -0.550264 -2.16922 -0.0230031  -0.574764 -2.09951 -0.0224187  -0.597057 -2.14802 -0.0233669  -0.527532 -2.12155 -0.0222669  -0.597543 -2.14718 -0.0231447  -0.598049 -2.14636 -0.0229175  -0.572523 -2.21771 -0.0240149  -0.619859 -2.19565 -0.0241261  -0.620378 -2.19485 -0.0239277  -0.573076 -2.21689 -0.023798  -0.594792 -2.26613 -0.0250046  -0.619346 -2.19645 -0.0243187  -0.64166 -2.24482 -0.0252478  -0.571983 -2.21854 -0.024235  -0.642191 -2.24404 -0.0250823  -0.642747 -2.24329 -0.0249054  -0.617058 -2.31445 -0.0259924  -0.664495 -2.29235 -0.0260417  -0.665054 -2.29161 -0.0258968  -0.617645 -2.31369 -0.0258369  -0.639315 -2.36268 -0.0269542  -0.663949 -2.2931 -0.0261805  -0.686245 -2.34132 -0.0270903  -0.616485 -2.31522 -0.0261497  -0.686802 -2.34058 -0.0269737  -0.687383 -2.33987 -0.0268505  -0.66156 -2.41084 -0.0278993  -0.709082 -2.38873 -0.0279043  -0.709666 -2.38804 -0.0278056  -0.662167 -2.41013 -0.0277987  -0.683787 -2.4589 -0.0288367  -0.708509 -2.38945 -0.0279987  -0.730764 -2.43751 -0.0288906  -0.660969 -2.41157 -0.028007  -0.731349 -2.4368 -0.0288239  -0.731957 -2.43613 -0.0287426  -0.705985 -2.50687 -0.0297673  -0.753561 -2.48477 -0.0297368  -0.754169 -2.48411 -0.0296822  -0.70661 -2.50619 -0.0297179  -0.728151 -2.55475 -0.0306909  -0.752969 -2.48546 -0.0297852  -0.775152 -2.53335 -0.0306678  -0.705376 -2.50758 -0.0298223  -0.77575 -2.53266 -0.0306437  -0.776376 -2.53201 -0.0306113  -0.750273 -2.60255 -0.0316041  -0.797876 -2.58046 -0.031544  -0.798499 -2.57981 -0.0315335  -0.750915 -2.60188 -0.0316093  -0.772355 -2.65027 -0.0325332  -0.797275 -2.58114 -0.0315514  -0.81935 -2.62887 -0.0324318  -0.749658 -2.60326 -0.0316143  -0.81994 -2.62818 -0.0324512  -0.820577 -2.62753 -0.0324624  0 0 0  0.00564634 -0.0142873 0.0163014  0.00503762 -0.00966775 0.0145202  0.0103064 -0.00787818 0.0219097  0.0122558 -0.0119085 0.025599  0.0216226 -0.027601 0.0290213  0.00489206 -0.0112743 0.0111232  0.0153448 -0.0235893 0.0197368  0 0 0  0 0 0  0.00548276 -0.0159613 0.0125999  0 0 0  0.0174312 -0.0210086 0.0254319  0.0226288 -0.0173931 0.0316176  0.03715 -0.042848 0.0341933  0.0303107 -0.0351977 0.0297532  0.03402 -0.0305783 0.0348945  0.0414699 -0.0380347 0.0405302  0.0522496 -0.0591749 0.0374727  0.0279368 -0.0386259 0.0242095  0.0406684 -0.0550108 0.0268247  0.0344734 -0.0463032 0.0277519  0.0430008 -0.0508687 0.0323632  0.046115 -0.0455863 0.0377355  0.0663603 -0.0773679 0.0390353  0.0552276 -0.0688116 0.033463  0.0577401 -0.062973 0.0385098  0.0690185 -0.0715792 0.0450053  0.0792951 -0.0978543 0.039855  0.0531778 -0.0733797 0.0283163  0.0644337 -0.0939233 0.0288548  0.0641603 -0.0819855 0.032912  0.0663951 -0.0890027 0.0339766  0.0686655 -0.0829243 0.0391328  0.0912521 -0.120493 0.039907  0.0766179 -0.111424 0.0338941  0.0787372 -0.105167 0.038898  0.0933572 -0.114338 0.045784  0.101899 -0.145479 0.0396857  0.0747558 -0.116486 0.0289612  0.0837609 -0.141303 0.0287342  0.0893921 -0.125552 0.0340354  0.0856008 -0.136137 0.0335934  0.0876424 -0.12988 0.0385718  0.111373 -0.172584 0.0389776  0.0933861 -0.162943 0.0329471  0.0954462 -0.156729 0.0378129  0.113319 -0.166459 0.0446699  0.119473 -0.201816 0.0382009  0.0915692 -0.168084 0.0282187  0.0980493 -0.196942 0.0276232  0.10962 -0.177692 0.0333595  0.0998668 -0.191846 0.0322456  0.101881 -0.185765 0.0369968  0.126252 -0.232944 0.0371079  0.105039 -0.22261 0.0312948  0.107105 -0.216674 0.0359223  0.128168 -0.227087 0.0425363  0.131629 -0.265913 0.036025  0.103227 -0.227594 0.0268056  0.107049 -0.260062 0.0259993  0.124539 -0.237893 0.0317795  0.108862 -0.255195 0.0303609  0.110886 -0.249457 0.0348496  0.135625 -0.300514 0.0347259  0.111357 -0.289371 0.029243  0.113424 -0.283819 0.0335984  0.137512 -0.295007 0.0398178  0.138219 -0.336664 0.0334578  0.109559 -0.294073 0.025023  0.110719 -0.329652 0.0240884  0.133937 -0.30519 0.0297172  0.1125 -0.3251 0.0281708  0.114499 -0.319772 0.0323706  0.139438 -0.374194 0.0320382  0.112335 -0.362167 0.0269527  0.114361 -0.357045 0.0310118  0.141278 -0.369086 0.0367849  0.139305 -0.413032 0.0306792  0.110587 -0.366546 0.0230196  0.109141 -0.404763 0.0220056  0.137806 -0.378559 0.0273769  0.110858 -0.400545 0.0258074  0.112794 -0.395656 0.0297015  0.137852 -0.452996 0.0291889  0.108146 -0.440029 0.0245204  0.11008 -0.435339 0.0282636  0.139604 -0.448301 0.0335724  0.135106 -0.494047 0.0277553  0.106469 -0.444072 0.0208685  0.10255 -0.484486 0.0197856  0.136287 -0.457028 0.0248725  0.104177 -0.480608 0.0233037  0.106009 -0.476131 0.026897  0.13112 -0.536027 0.0262349  0.0990592 -0.5221 0.021975  0.100873 -0.517819 0.0254226  0.132769 -0.531726 0.0302696  0.125938 -0.578902 0.0247581  0.0974909 -0.525804 0.0186074  0.09126 -0.568049 0.0174758  0.129657 -0.539732 0.0222621  0.0927675 -0.564498 0.0207145  0.0944617 -0.560425 0.0240095  0.119607 -0.622521 0.0232069  0.0854194 -0.607637 0.019347  0.0870811 -0.603735 0.0224981  0.121112 -0.618584 0.0268919  0.112162 -0.666877 0.0217078  0.0839776 -0.611031 0.0162559  0.0756159 -0.65478 0.0150855  0.118261 -0.625924 0.0195656  0.0769858 -0.651529 0.0180528  0.0785269 -0.647805 0.0210695  0.103676 -0.711834 0.0201473  0.0675979 -0.696023 0.0166676  0.0690925 -0.692465 0.019547  0.105032 -0.708234 0.0235093  0.0941814 -0.757395 0.0186322  0.0663046 -0.699126 0.0138404  0.0560005 -0.744109 0.0126393  0.102471 -0.714956 0.016825  0.0572176 -0.741133 0.0153468  0.0585837 -0.737749 0.0180905  0.0837413 -0.803427 0.0170655  0.0459758 -0.786727 0.0139463  0.0472921 -0.783481 0.016556  0.0849276 -0.800131 0.0201113  0.0723785 -0.849952 0.0155501  0.0448362 -0.78957 0.0113733  0.0327716 -0.835556 0.0101547  0.0826797 -0.806292 0.0140455  0.0338326 -0.832829 0.0126166  0.0350249 -0.829729 0.0151093  0.060173 -0.89685 0.0139918  0.0209241 -0.87932 0.0112116  0.0220597 -0.876355 0.0135791  0.0611954 -0.893834 0.0167503  0.0471457 -0.944147 0.0124776  0.0199451 -0.881924 0.00887704  0.00630438 -0.928722 0.00764084  0.0592661 -0.899481 0.0112598  0.00720334 -0.926222 0.00986838  0.00821197 -0.923398 0.0121181  0.0333652 -0.991725 0.0109286  -0.00719702 -0.973426 0.00846004  -0.00624394 -0.970714 0.0105889  0.0342112 -0.988958 0.0134032  0.0188406 -1.03962 0.0094285  -0.00801766 -0.975818 0.00635409  -0.0230677 -1.02326 0.00511432  0.0326089 -0.994146 0.00846624  -0.0223253 -1.02096 0.00712037  -0.0214884 -1.01837 0.00914645  0.00365555 -1.08773 0.00789714  -0.0380502 -1.06874 0.00572371  -0.037273 -1.06626 0.00763774  0.00433826 -1.0852 0.0101185  -0.0121803 -1.1361 0.00640941  -0.0387114 -1.07093 0.00382972  -0.0550059 -1.11889 0.00258827  0.00305438 -1.08996 0.00569081  -0.0544204 -1.11678 0.00438643  -0.053764 -1.11442 0.0061965  -0.0286 -1.18461 0.00489664  -0.0713131 -1.16499 0.00299764  -0.070711 -1.16272 0.0047009  -0.0280864 -1.18228 0.00686884  -0.0456021 -1.23331 0.00343108  -0.071823 -1.16701 0.00130534  -0.0892141 -1.21535 6.86646e-05  -0.0290575 -1.18666 0.00292802  -0.0887768 -1.21341 0.00167203  -0.0882814 -1.21124 0.00328827  -0.0631094 -1.28213 0.00194597  -0.106691 -1.26196 0.000301123  -0.106251 -1.25988 0.00181746  -0.0627484 -1.28 0.00369835  -0.0811193 -1.33108 0.000499725  -0.107054 -1.26382 -0.00120401  -0.125399 -1.31245 -0.00243807  -0.063422 -1.28401 0.000201941  -0.125105 -1.31066 -0.00101686  -0.124776 -1.30868 0.000410795  -0.0995693 -1.3801 -0.000959635  -0.143907 -1.35945 -0.00237036  -0.143628 -1.35754 -0.00103688  -0.0993614 -1.37814 0.000576258  -0.11846 -1.42921 -0.0023737  -0.14413 -1.36116 -0.00369763  -0.163304 -1.41 -0.00491595  -0.0997496 -1.38184 -0.00249481  -0.163143 -1.40835 -0.00366879  -0.162956 -1.40653 -0.0024097  -0.137721 -1.47836 -0.00379968  -0.182704 -1.45731 -0.00499368  -0.182566 -1.45556 -0.00382257  -0.137648 -1.47657 -0.00245357  -0.157354 -1.52757 -0.00518918  -0.182801 -1.45888 -0.00615764  -0.202674 -1.50785 -0.00736308  -0.137773 -1.47996 -0.00514126  -0.202637 -1.50633 -0.00627375  -0.202596 -1.50468 -0.00518012  -0.177302 -1.57677 -0.00658298  -0.222841 -1.55538 -0.00758171  -0.222841 -1.55378 -0.00656962  -0.177362 -1.57513 -0.00542665  -0.197572 -1.62601 -0.00793624  -0.222817 -1.55683 -0.00859022  -0.243284 -1.60587 -0.00977468  -0.177241 -1.57825 -0.00774264  -0.243362 -1.60447 -0.00883484  -0.243441 -1.60294 -0.00788665  -0.218099 -1.67522 -0.00929165  -0.264101 -1.65355 -0.0101073  -0.264221 -1.65209 -0.00923276  -0.218273 -1.67372 -0.00829697  -0.238887 -1.72443 -0.010612  -0.263968 -1.65489 -0.0109758  -0.284921 -1.70394 -0.0121415  -0.217928 -1.67658 -0.0102832  -0.285104 -1.70265 -0.0113375  -0.285306 -1.70126 -0.0105293  -0.259886 -1.7736 -0.0119324  -0.306281 -1.75171 -0.0125842  -0.306516 -1.75038 -0.0118461  -0.260171 -1.77223 -0.0110974  -0.281105 -1.82275 -0.0132129  -0.306049 -1.75295 -0.01332  -0.327399 -1.80196 -0.0144606  -0.259622 -1.77485 -0.0127704  -0.327675 -1.80077 -0.0137839  -0.327975 -1.7995 -0.0130994  -0.302486 -1.87183 -0.0144882  -0.349199 -1.84979 -0.014992  -0.349527 -1.84857 -0.0143692  -0.302861 -1.87059 -0.0137875  -0.324035 -1.92088 -0.0157318  -0.348877 -1.85092 -0.0156093  -0.370535 -1.89987 -0.0167253  -0.302132 -1.87299 -0.0151858  -0.370894 -1.89877 -0.0161638  -0.371291 -1.89762 -0.0155988  -0.34571 -1.96985 -0.0169649  -0.392684 -1.94769 -0.0173392  -0.393099 -1.94658 -0.0168314  -0.346168 -1.96871 -0.0163987  -0.36752 -2.01876 -0.0181589  -0.392286 -1.94874 -0.0178435  -0.414179 -1.99758 -0.0189269  -0.345284 -1.97091 -0.0175335  -0.414608 -1.99657 -0.0184722  -0.415073 -1.99551 -0.0180082  -0.389418 -2.0676 -0.0193422  -0.436591 -2.04537 -0.0196037  -0.437072 -2.04436 -0.0191915  -0.389936 -2.06657 -0.0188854  -0.411405 -2.11636 -0.0204978  -0.43613 -2.04633 -0.0200107  -0.458186 -2.09505 -0.0210664  -0.388927 -2.06858 -0.0197954  -0.458672 -2.09411 -0.0207057  -0.459207 -2.09315 -0.0203407  -0.433452 -2.16503 -0.0216365  -0.480785 -2.14277 -0.0218036  -0.481325 -2.14184 -0.0214841  -0.434025 -2.16409 -0.0212884  -0.455564 -2.21362 -0.0227439  -0.480271 -2.14366 -0.0221195  -0.502434 -2.19222 -0.0231407  -0.432914 -2.16593 -0.0219872  -0.502965 -2.19135 -0.022866  -0.503541 -2.19047 -0.0225816  -0.477707 -2.26212 -0.0238271  -0.525151 -2.23986 -0.0239131  -0.525731 -2.23901 -0.0236685  -0.478311 -2.26127 -0.0235629  -0.49988 -2.31054 -0.0248864  -0.524601 -2.24068 -0.0241523  -0.546814 -2.28908 -0.025141  -0.47713 -2.26296 -0.0240862  -0.547379 -2.28828 -0.0249398  -0.547996 -2.28748 -0.0247345  -0.522057 -2.35884 -0.0259233  -0.569591 -2.33659 -0.0259516  -0.5702 -2.33582 -0.0257802  -0.522688 -2.35807 -0.0257454  -0.544253 -2.40706 -0.0269353  -0.569011 -2.33737 -0.0261192  -0.591234 -2.38559 -0.0270712  -0.521459 -2.35963 -0.0261042  -0.591822 -2.38483 -0.0269387  -0.59245 -2.38409 -0.0267937  -0.566436 -2.45519 -0.0279188  -0.614026 -2.43298 -0.0279031  -0.614649 -2.43225 -0.0277886  -0.56707 -2.45447 -0.027801  -0.58861 -2.50323 -0.0288889  -0.613428 -2.43371 -0.0280132  -0.635628 -2.48175 -0.0289373  -0.56582 -2.45593 -0.0280344  -0.636229 -2.48103 -0.0288599  -0.636876 -2.48034 -0.0287776  -0.61076 -2.55117 -0.0298355  -0.658398 -2.52899 -0.0298014  -0.659031 -2.52829 -0.0297451  -0.611401 -2.55048 -0.0297806  -0.632902 -2.59902 -0.0307758  -0.657789 -2.52969 -0.0298562  -0.679944 -2.57757 -0.0307612  -0.610142 -2.55188 -0.0298965  -0.680555 -2.57687 -0.030736  -0.6812 -2.57618 -0.0306988  -0.655017 -2.64681 -0.0317028  -0.702667 -2.62466 -0.0316579  -0.703303 -2.62397 -0.0316472  -0.655649 -2.64613 -0.0316932  -0.677114 -2.69455 -0.0326397  -0.702056 -2.62536 -0.0316668  -0.72414 -2.67311 -0.0325687  -0.654398 -2.64752 -0.0317144  -0.724742 -2.67239 -0.0325894  -0.725397 -2.67171 -0.0326078  0 0 0  0.00923597 -0.0282886 0.0215836  0.00851721 -0.019878 0.0190427  0.0146948 -0.0170807 0.0286913  0.0180956 -0.0229204 0.0353489  0.035018 -0.047047 0.0350616  0.00821999 -0.0218219 0.0144119  0.0244263 -0.0397068 0.0252874  0 0 0  0 0 0  0.00864021 -0.0304393 0.0160503  0 0 0  0.0265586 -0.036426 0.032449  0.0321256 -0.0323457 0.040097  0.0550617 -0.0605186 0.0426219  0.0448934 -0.0513324 0.0383861  0.0492911 -0.046317 0.0456724  0.0588269 -0.0555454 0.050916  0.0731581 -0.0779725 0.0478449  0.0425629 -0.0551831 0.0313361  0.0594099 -0.0727613 0.0351853  0.053487 -0.0652719 0.0349402  0.0618302 -0.0683035 0.0424349  0.0652004 -0.0628581 0.0497496  0.090788 -0.0960484 0.0499728  0.0779335 -0.0864428 0.0444627  0.0806719 -0.0806147 0.0514297  0.0934351 -0.0902719 0.0578802  0.107189 -0.117123 0.0515292  0.0759182 -0.0911988 0.0376184  0.0907854 -0.112184 0.0386765  0.08925 -0.101141 0.0421751  0.0927412 -0.10724 0.0455992  0.0950719 -0.101221 0.0526619  0.122587 -0.140285 0.0516653  0.106458 -0.130119 0.045805  0.108547 -0.123989 0.0526123  0.124671 -0.134236 0.0594311  0.136725 -0.165943 0.051549  0.104632 -0.135153 0.0391207  0.117101 -0.160498 0.0389764  0.120933 -0.145397 0.0440128  0.11888 -0.155423 0.0455959  0.120826 -0.149287 0.0523782  0.14954 -0.193796 0.0506928  0.130021 -0.182873 0.0448678  0.131899 -0.176797 0.0514357  0.151397 -0.187815 0.0581646  0.160953 -0.223819 0.0497341  0.128298 -0.187898 0.0384257  0.138088 -0.217445 0.0376811  0.147844 -0.198783 0.0433373  0.139787 -0.212477 0.0439897  0.1416 -0.206526 0.0504305  0.170915 -0.255794 0.048352  0.148158 -0.244004 0.0427675  0.149975 -0.238196 0.049001  0.172673 -0.250084 0.0554271  0.179369 -0.289622 0.0469377  0.146481 -0.248857 0.0366452  0.153423 -0.282136 0.0355723  0.16923 -0.26055 0.0413792  0.155077 -0.27739 0.041518  0.15685 -0.271751 0.0475891  0.186316 -0.325143 0.0453041  0.160559 -0.312431 0.04005  0.162342 -0.306956 0.0459044  0.188036 -0.319766 0.0519319  0.191746 -0.36223 0.0436618  0.158923 -0.317016 0.0342982  0.162965 -0.353497 0.0330415  0.184666 -0.329619 0.0387697  0.164578 -0.349037 0.0386043  0.166307 -0.343769 0.0442669  0.195698 -0.400719 0.0418749  0.167174 -0.387035 0.0369847  0.168915 -0.381939 0.0424306  0.19736 -0.39571 0.048022  0.19813 -0.440514 0.040103  0.165584 -0.39132 0.0316308  0.166786 -0.430493 0.0302687  0.194091 -0.40489 0.0357931  0.168333 -0.42635 0.0354204  0.170001 -0.421465 0.0406787  0.199158 -0.481443 0.0382257  0.168139 -0.466786 0.0337315  0.169797 -0.462086 0.0387671  0.200745 -0.476813 0.043889  0.198723 -0.523464 0.0363779  0.166624 -0.470753 0.0287857  0.165096 -0.512141 0.0273514  0.197628 -0.485308 0.0326226  0.166564 -0.508319 0.0321021  0.168136 -0.503835 0.0369256  0.196983 -0.566399 0.0344975  0.163715 -0.550775 0.0303857  0.165274 -0.546456 0.0350027  0.19847 -0.562132 0.0396869  0.193865 -0.610212 0.0326197  0.162288 -0.554422 0.0258353  0.158211 -0.597643 0.0243595  0.195547 -0.569947 0.02935  0.159576 -0.594126 0.0287118  0.161032 -0.590002 0.0331368  0.189546 -0.654744 0.03071  0.154266 -0.638201 0.0269709  0.155694 -0.634237 0.0311959  0.190906 -0.650823 0.0354474  0.183942 -0.700018 0.0288177  0.15296 -0.641561 0.0228083  0.146519 -0.686255 0.0213099  0.188227 -0.658021 0.0260127  0.147759 -0.683019 0.0252898  0.149078 -0.679242 0.0293181  0.177257 -0.745851 0.0269248  0.140183 -0.728419 0.0235488  0.141467 -0.724784 0.0273867  0.178476 -0.742245 0.0312243  0.169387 -0.792268 0.0250432  0.139005 -0.731501 0.0197558  0.130409 -0.77739 0.0182414  0.17607 -0.748852 0.0226488  0.131513 -0.774418 0.0218554  0.132678 -0.77095 0.0255184  0.160549 -0.839107 0.0231514  0.121886 -0.82086 0.0201163  0.123013 -0.817523 0.0236011  0.161613 -0.835795 0.0270417  0.15062 -0.88644 0.0212786  0.120853 -0.823696 0.0166767  0.110298 -0.870529 0.015162  0.159502 -0.841878 0.0192826  0.111257 -0.867796 0.0184362  0.112265 -0.864617 0.0217431  0.139838 -0.934088 0.0194278  0.0997695 -0.915079 0.0167189  0.100734 -0.912018 0.0198588  0.140748 -0.931045 0.0229294  0.128068 -0.982116 0.0175896  0.0988791 -0.917683 0.0136111  0.0865686 -0.965268 0.0120995  0.138938 -0.936631 0.0159349  0.0873808 -0.962754 0.0150456  0.0882246 -0.959833 0.018028  0.115545 -1.03036 0.0157521  0.0742368 -1.01068 0.0133464  0.0750345 -1.00786 0.016171  0.116291 -1.02757 0.0188925  0.102123 -1.07893 0.0139368  0.0735016 -1.01308 0.0105531  0.0596168 -1.06123 0.00905299  0.114794 -1.03271 0.0126197  0.0602776 -1.05892 0.0116997  0.0609605 -1.05623 0.0143683  0.0880454 -1.12765 0.0121515  0.0456491 -1.10734 0.0100291  0.0462841 -1.10476 0.0125508  0.0886321 -1.12507 0.01495  0.0731659 -1.17659 0.0103805  0.0450604 -1.10955 0.00752974  0.0297859 -1.15814 0.00604558  0.087446 -1.1298 0.00935054  0.0303006 -1.15601 0.00840163  0.0308182 -1.15355 0.0107861  0.0577185 -1.22563 0.0086143  0.0143719 -1.20479 0.00676012  0.0148463 -1.20242 0.00900555  0.0581455 -1.22326 0.0110979  0.0415444 -1.27485 0.00687551  0.0139301 -1.20683 0.00453758  -0.00257516 -1.25573 0.00307441  0.0572627 -1.22762 0.00613022  -0.00220251 -1.25377 0.00516868  -0.00183868 -1.25151 0.00727606  0.0248883 -1.32412 0.00517297  -0.0192842 -1.30282 0.00356388  -0.0189636 -1.30064 0.0055449  0.0251667 -1.32195 0.00736022  0.0075922 -1.37351 0.00348687  -0.0195885 -1.30469 0.00159669  -0.0371668 -1.35382 0.000156879  0.0245738 -1.32595 0.00297594  -0.0369287 -1.35201 0.00199795  -0.0367136 -1.34993 0.00386024  -0.0101175 -1.42291 0.00180507  -0.0550053 -1.40122 0.000425816  -0.0548291 -1.39922 0.00216818  -0.0099833 -1.42091 0.00371933  -0.0283999 -1.4724 0.000151873  -0.0551763 -1.40295 -0.0012989  -0.0736878 -1.45221 -0.00271153  -0.0103004 -1.4246 -0.000114679  -0.07358 -1.45053 -0.00109839  -0.0735042 -1.44863 0.000524282  -0.0470233 -1.52186 -0.00146079  -0.0925238 -1.49985 -0.00262713  -0.0924883 -1.49802 -0.00111413  -0.047025 -1.52003 0.000196457  -0.0661421 -1.57137 -0.00305533  -0.0925696 -1.50144 -0.00412941  -0.111881 -1.55076 -0.00551033  -0.0470779 -1.52342 -0.00313091  -0.111893 -1.54922 -0.0041194  -0.111951 -1.54748 -0.00270939  -0.0855439 -1.62081 -0.00463629  -0.131567 -1.59856 -0.00560617  -0.131655 -1.59687 -0.00429845  -0.0856707 -1.61913 -0.0032146  -0.105386 -1.67029 -0.00618744  -0.131497 -1.60002 -0.0068984  -0.151487 -1.64934 -0.00824666  -0.085484 -1.62225 -0.00606751  -0.15161 -1.64792 -0.00705099  -0.151785 -1.64632 -0.00584888  -0.125452 -1.71968 -0.00769782  -0.17191 -1.69724 -0.00849104  -0.172114 -1.6957 -0.00737953  -0.125692 -1.71814 -0.00649309  -0.145889 -1.76907 -0.00919008  -0.171733 -1.69859 -0.00959253  -0.192291 -1.74786 -0.0109046  -0.125281 -1.721 -0.00891614  -0.192515 -1.74655 -0.00989699  -0.192803 -1.74509 -0.00887394  -0.166503 -1.81836 -0.0106647  -0.213321 -1.79579 -0.0112958  -0.21363 -1.79438 -0.0103571  -0.166848 -1.81695 -0.00965834  -0.187443 -1.86763 -0.01211  -0.213048 -1.79704 -0.0122199  -0.234073 -1.84622 -0.0134933  -0.166237 -1.81958 -0.0116804  -0.234387 -1.84501 -0.0126505  -0.234771 -1.84368 -0.0118017  -0.208505 -1.91679 -0.0135059  -0.255612 -1.89415 -0.0139928  -0.256015 -1.89287 -0.0132174  -0.208942 -1.91552 -0.0126824  -0.229837 -1.96591 -0.0148869  -0.255255 -1.89529 -0.0147581  -0.276651 -1.94435 -0.01599  -0.20815 -1.91792 -0.0143459  -0.277045 -1.94324 -0.015306  -0.277514 -1.94203 -0.0146055  -0.251257 -2.0149 -0.0162449  -0.298591 -1.99223 -0.0166006  -0.29907 -1.99107 -0.015969  -0.251772 -2.01374 -0.0155842  -0.272909 -2.06386 -0.0175724  -0.29816 -1.99329 -0.0172181  -0.319847 -2.04219 -0.0184054  -0.250829 -2.01594 -0.0169146  -0.32031 -2.04118 -0.0178552  -0.320848 -2.04008 -0.0173004  -0.294605 -2.11268 -0.0188434  -0.34211 -2.09002 -0.019089  -0.342652 -2.08896 -0.0185921  -0.295184 -2.11163 -0.018333  -0.316484 -2.16143 -0.0201042  -0.341617 -2.09098 -0.0195768  -0.363519 -2.13972 -0.0207183  -0.294111 -2.11363 -0.0193722  -0.364035 -2.13879 -0.0202985  -0.36463 -2.13779 -0.0198629  -0.338382 -2.21005 -0.021332  -0.386007 -2.18744 -0.0214806  -0.386597 -2.18648 -0.0210962  -0.339011 -2.2091 -0.0209503  -0.360432 -2.25861 -0.0225358  -0.385464 -2.18833 -0.0218494  -0.40751 -2.23689 -0.022943  -0.337839 -2.21093 -0.0217252  -0.408072 -2.23603 -0.0226285  -0.408707 -2.23512 -0.02231  -0.382467 -2.30703 -0.0236721  -0.430165 -2.2845 -0.0237439  -0.430792 -2.28363 -0.0234654  -0.383129 -2.30617 -0.0234041  -0.404612 -2.35538 -0.0247984  -0.429585 -2.28532 -0.024014  -0.451723 -2.3337 -0.0250561  -0.381882 -2.30785 -0.0239584  -0.452314 -2.33289 -0.0248408  -0.452974 -2.33207 -0.0246093  -0.426723 -2.40359 -0.025888  -0.474457 -2.38116 -0.0259011  -0.475099 -2.38037 -0.0257039  -0.427402 -2.4028 -0.0257149  -0.448917 -2.45174 -0.0269578  -0.473852 -2.38193 -0.026083  -0.496022 -2.43011 -0.0270765  -0.426114 -2.40436 -0.0260735  -0.496632 -2.42935 -0.0269365  -0.497301 -2.42861 -0.0267925  -0.471058 -2.49977 -0.0279531  -0.518799 -2.47744 -0.0279307  -0.519445 -2.47671 -0.0278111  -0.471737 -2.49904 -0.0278592  -0.493247 -2.54772 -0.0289457  -0.518184 -2.47817 -0.0280435  -0.54035 -2.52617 -0.0289867  -0.470432 -2.5005 -0.0280685  -0.540967 -2.52545 -0.0289152  -0.541632 -2.52475 -0.0288298  -0.515379 -2.59558 -0.0299013  -0.563106 -2.57335 -0.0298657  -0.563746 -2.57265 -0.0297976  -0.516047 -2.59488 -0.0298615  -0.537536 -2.64337 -0.030853  -0.562486 -2.57406 -0.0299211  -0.584621 -2.62189 -0.0308347  -0.514753 -2.59629 -0.0299554  -0.585235 -2.62119 -0.0308073  -0.585887 -2.62051 -0.0307779  -0.559649 -2.69113 -0.0317559  -0.607354 -2.66896 -0.0317328  -0.607984 -2.66827 -0.0317161  -0.56029 -2.69043 -0.0317545  -0.581774 -2.73883 -0.0326805  -0.606743 -2.66966 -0.031743  -0.628857 -2.7174 -0.032649  -0.559028 -2.69184 -0.0317757  -0.629459 -2.71669 -0.0326703  -0.630093 -2.716 -0.0326712  -0.00373701 -0.0048504 -0.0100791  -0.0046478 -0.00927517 -0.0121357  -0.0131821 -0.0140545 -0.0188992  -0.00495132 -0.0104046 -0.00951529  -0.0202852 -0.0258639 -0.0171518  -0.0191113 -0.023365 -0.0112033  0 0 0  -0.017852 -0.0212478 -0.014256  0 0 0  0 0 0  -0.00367602 -0.00556052 -0.00760007  0 0 0  -0.0347244 -0.0330111 -0.0268259  -0.01972 -0.0229015 -0.0226879  -0.0258459 -0.0239771 -0.0251937  -0.0350581 -0.0318385 -0.0300572  -0.0388616 -0.0347339 -0.0293772  -0.0355271 -0.0359127 -0.0230334  -0.0513752 -0.0472178 -0.0272779  -0.0518857 -0.0443639 -0.0269806  -0.0501893 -0.0398115 -0.0348032  -0.02552 -0.0275929 -0.0192418  -0.0681026 -0.0500357 -0.0411174  -0.0509964 -0.042044 -0.0350413  -0.0525906 -0.0481783 -0.0318208  -0.0670343 -0.053609 -0.0379248  -0.0659232 -0.062971 -0.0329418  -0.0674544 -0.0592109 -0.0297413  -0.0836195 -0.0730658 -0.0310729  -0.0866016 -0.0658495 -0.0347083  -0.0854897 -0.0598835 -0.0442169  -0.0526086 -0.0531111 -0.0250053  -0.103817 -0.0727869 -0.0457616  -0.0830444 -0.0673191 -0.0391202  -0.0795792 -0.0803925 -0.0330703  -0.0991881 -0.0833273 -0.0393858  -0.093401 -0.0996445 -0.0325785  -0.100106 -0.0890372 -0.0314076  -0.116594 -0.106846 -0.0310078  -0.123215 -0.0934839 -0.036541  -0.122074 -0.087404 -0.0459321  -0.0804123 -0.0854369 -0.026463  -0.14042 -0.104169 -0.0449877  -0.115406 -0.101409 -0.0386071  -0.107556 -0.120937 -0.0315833  -0.131846 -0.121573 -0.0375173  -0.122132 -0.143978 -0.0303466  -0.133343 -0.126743 -0.0301938  -0.150167 -0.148259 -0.0290091  -0.160465 -0.128632 -0.0350342  -0.158998 -0.123099 -0.0436671  -0.109088 -0.125614 -0.0254891  -0.177372 -0.143594 -0.0417013  -0.148447 -0.143462 -0.0359066  -0.137046 -0.168649 -0.0289292  -0.165296 -0.167106 -0.0342846  -0.152399 -0.194809 -0.0274713  -0.167202 -0.171576 -0.0277171  -0.184356 -0.196282 -0.0263026  -0.19784 -0.170873 -0.032088  -0.196085 -0.166088 -0.0398095  -0.139013 -0.172784 -0.0234406  -0.214556 -0.189868 -0.0376019  -0.182325 -0.192183 -0.032464  -0.168108 -0.222371 -0.0260258  -0.19963 -0.218767 -0.0307598  -0.184188 -0.251197 -0.0246077  -0.20172 -0.222564 -0.0249259  -0.219245 -0.250051 -0.0235665  -0.235301 -0.219436 -0.0288076  -0.233386 -0.215381 -0.0356376  -0.170261 -0.225957 -0.0211215  -0.252065 -0.242037 -0.0335436  -0.217103 -0.246578 -0.0290248  -0.200638 -0.281269 -0.0232987  -0.234874 -0.275711 -0.0274689  -0.217411 -0.312431 -0.0220602  -0.236998 -0.278924 -0.0223067  -0.254929 -0.308868 -0.0211298  -0.273029 -0.27358 -0.0257237  -0.271085 -0.270167 -0.0317495  -0.202815 -0.284349 -0.0189512  -0.290036 -0.299339 -0.0299289  -0.252818 -0.305928 -0.0259609  -0.234573 -0.344728 -0.0209682  -0.271085 -0.337331 -0.0246315  -0.252021 -0.377995 -0.0199373  -0.273122 -0.340072 -0.0200682  -0.291511 -0.372229 -0.0191085  -0.311205 -0.332711 -0.023078  -0.309327 -0.329815 -0.0283933  -0.236658 -0.347389 -0.0171137  -0.328634 -0.361243 -0.0268686  -0.289522 -0.369707 -0.0233753  -0.269851 -0.412285 -0.019063  -0.30829 -0.403155 -0.022301  -0.287959 -0.447444 -0.0182559  -0.310184 -0.405512 -0.018266  -0.32906 -0.439663 -0.0175219  -0.350009 -0.396303 -0.0209119  -0.348264 -0.393824 -0.0256066  -0.271786 -0.414594 -0.0156603  -0.367947 -0.427276 -0.0243716  -0.327239 -0.437483 -0.0212967  -0.306447 -0.483541 -0.0175917  -0.346527 -0.472791 -0.0204451  -0.325196 -0.520426 -0.016973  -0.348235 -0.47485 -0.0168819  -0.367618 -0.510817 -0.01633  -0.38954 -0.463945 -0.0192163  -0.387959 -0.461788 -0.0233603  -0.308192 -0.485571 -0.0145857  -0.40806 -0.497091 -0.0223684  -0.36599 -0.508898 -0.0196571  -0.3443 -0.558155 -0.0164852  -0.385782 -0.545896 -0.0190101  -0.363659 -0.59659 -0.0160441  -0.387299 -0.547707 -0.0158701  -0.407178 -0.585312 -0.0154843  -0.429868 -0.535245 -0.0179214  -0.428469 -0.533349 -0.0215755  -0.345847 -0.559948 -0.0138443  -0.448973 -0.570328 -0.0208035  -0.405751 -0.583616 -0.0184171  -0.383361 -0.635795 -0.0157185  -0.426042 -0.622146 -0.0179403  -0.403298 -0.675638 -0.015419  -0.427355 -0.623764 -0.0151794  -0.447722 -0.662855 -0.0149364  -0.470996 -0.609879 -0.016984  -0.469783 -0.608188 -0.0201991  -0.384704 -0.637402 -0.0133984  -0.490697 -0.646698 -0.0196028  -0.446493 -0.661331 -0.0175064  -0.423543 -0.716168 -0.0152194  -0.467242 -0.701245 -0.017179  -0.44401 -0.757268 -0.0150518  -0.468366 -0.702696 -0.0147619  -0.489184 -0.74312 -0.0146413  -0.512917 -0.687514 -0.01634  -0.511887 -0.685997 -0.0191576  -0.424693 -0.717613 -0.0131974  -0.533172 -0.725888 -0.0187228  -0.488144 -0.741748 -0.0168872  -0.464763 -0.798988 -0.0149739  -0.509326 -0.782909 -0.0166855  -0.485711 -0.841218 -0.0149133  -0.510262 -0.784231 -0.0145826  -0.531498 -0.825855 -0.0145679  -0.555578 -0.767882 -0.0159616  -0.554721 -0.766502 -0.0184159  -0.465726 -0.800304 -0.0132158  -0.576364 -0.807643 -0.0181093  -0.530638 -0.8246 -0.0165124  -0.506908 -0.883997 -0.014931  -0.552198 -0.866879 -0.0164254  -0.528281 -0.927224 -0.0149739  -0.552965 -0.868078 -0.0146072  -0.574569 -0.910769 -0.0146868  -0.598921 -0.850681 -0.0157993  -0.598232 -0.849425 -0.0179255  -0.507698 -0.885195 -0.0134211  -0.620173 -0.891685 -0.0177438  -0.573875 -0.909627 -0.0163646  -0.549881 -0.970942 -0.0150857  -0.595777 -0.952898 -0.0163724  -0.571625 -1.01506 -0.0152118  -0.59638 -0.954005 -0.0148149  -0.618308 -0.997646 -0.0149779  -0.642863 -0.935682 -0.0158429  -0.642325 -0.934526 -0.0176685  -0.550506 -0.972048 -0.0137932  -0.664548 -0.977786 -0.0175865  -0.61777 -0.996588 -0.0164046  -0.593554 -1.0596 -0.0154006  -0.639953 -1.04074 -0.0165071  -0.61561 -1.10448 -0.0156107  -0.640411 -1.04175 -0.0151846  -0.662608 -1.08622 -0.0154221  -0.687328 -1.02261 -0.0160561  -0.686934 -1.02155 -0.0176094  -0.59403 -1.06061 -0.0143123  -0.70937 -1.06569 -0.0176303  -0.662213 -1.08525 -0.016629  -0.63783 -1.14975 -0.0158758  -0.684639 -1.13017 -0.0168068  -0.660143 -1.19531 -0.016151  -0.684957 -1.13112 -0.0156984  -0.707378 -1.17632 -0.0160038  -0.732216 -1.11127 -0.0164363  -0.731953 -1.11029 -0.0177407  -0.638165 -1.15069 -0.0149643  -0.754578 -1.15521 -0.017848  -0.707115 -1.17541 -0.0170059  -0.682582 -1.24119 -0.0164764  -0.729722 -1.221 -0.0172625  -0.705096 -1.28732 -0.0168221  -0.729917 -1.22188 -0.0163453  -0.752508 -1.26771 -0.0167115  -0.777452 -1.20142 -0.0169568  -0.777308 -1.20051 -0.0180402  -0.682793 -1.24207 -0.0157325  -0.800059 -1.2461 -0.0182304  -0.752364 -1.26687 -0.017535  -0.727715 -1.33373 -0.0172133  -0.775115 -1.31303 -0.017854  -0.750379 -1.38036 -0.0176122  -0.775193 -1.31385 -0.0171099  -0.797909 -1.36022 -0.0175321  -0.822931 -1.29289 -0.0176136  -0.822896 -1.29204 -0.0184941  -0.727808 -1.33456 -0.0166109  -0.845745 -1.3382 -0.0187516  -0.797874 -1.35942 -0.0181899  -0.773112 -1.42721 -0.0180507  -0.820711 -1.40607 -0.0185711  -0.795876 -1.47423 -0.0185091  -0.820688 -1.40684 -0.0179822  -0.843479 -1.45366 -0.0184562  -0.868577 -1.38546 -0.0183794  -0.868643 -1.38466 -0.0190828  -0.773101 -1.42799 -0.0175829  -0.891532 -1.43131 -0.0194154  -0.843543 -1.45291 -0.0189726  -0.818689 -1.52145 -0.0190043  -0.866433 -1.49996 -0.0194099  -0.841508 -1.56881 -0.0195067  -0.866313 -1.50069 -0.0189564  -0.889144 -1.54788 -0.0194757  -0.914298 -1.47897 -0.0192697  -0.914453 -1.47821 -0.0198143  -0.818582 -1.52219 -0.0186455  -0.937366 -1.52528 -0.0202038  -0.889298 -1.54717 -0.0198629  -0.864347 -1.61631 -0.0200419  -0.912191 -1.59454 -0.0203547  -0.887177 -1.66392 -0.0205979  -0.911988 -1.59523 -0.0200186  -0.934818 -1.64271 -0.0205781  -0.960037 -1.57324 -0.0202494  -0.960273 -1.57253 -0.0206563  -0.864155 -1.61701 -0.0197861  -0.983154 -1.61991 -0.0211082  -0.93505 -1.64203 -0.0208607  -0.910019 -1.71164 -0.0211763  -0.957927 -1.68966 -0.0213957  -0.932834 -1.75945 -0.0217633  -0.957651 -1.69032 -0.0211601  -0.980452 -1.73803 -0.0217595  -1.00572 -1.66814 -0.0213261  -1.00602 -1.66746 -0.0216153  -0.909753 -1.71232 -0.0209994  -1.02886 -1.7151 -0.0221171  -0.980751 -1.73738 -0.0219464  -0.95563 -1.80733 -0.0223796  -1.00357 -1.78519 -0.0225298  -0.978393 -1.85526 -0.0230129  -1.00323 -1.78582 -0.0223782  -1.02597 -1.83368 -0.0230122  -1.0513 -1.7635 -0.0224833  -1.05166 -1.76285 -0.0226729  -0.9553 -1.80797 -0.0222752  -1.07442 -1.81068 -0.0232291  -1.02633 -1.83306 -0.0231283  -1.00113 -1.90324 -0.02367  -1.04908 -1.881 -0.0237515  -1.02382 -1.95125 -0.0243354  -1.04868 -1.88161 -0.0236671  -1.07135 -1.92958 -0.0243375  -1.09671 -1.85922 -0.0237265  -1.09713 -1.85859 -0.0238352  -1.00075 -1.90387 -0.0236156  -1.11981 -1.90654 -0.0244355  -1.07175 -1.92897 -0.0243912  -1.04647 -1.99928 -0.0250189  -1.0944 -1.97698 -0.0250564  -1.06907 -2.0473 -0.0257227  -1.09396 -1.97757 -0.0250232  -1.11653 -2.02558 -0.0257246  -1.14195 -1.95514 -0.0250392  -1.14241 -1.95453 -0.0250864  -1.04604 -1.99988 -0.0250108  -1.16498 -2.00255 -0.0257428  -1.11698 -2.025 -0.0257404  -1.09162 -2.09533 -0.0264447  -1.13952 -2.07302 -0.0264397  -1.11412 -2.14334 -0.0271735  -1.13905 -2.0736 -0.0264416  -1.16152 -2.12161 -0.0271723  -1.18698 -2.05117 -0.0264349  -1.18747 -2.05058 -0.0264387  -1.09116 -2.09593 -0.0264583  -1.20994 -2.09861 -0.0271342  -1.162 -2.12103 -0.0271564  -1.13657 -2.19133 -0.0279152  -1.18443 -2.16903 -0.0278916  -1.15896 -2.23928 -0.0286736  -1.18393 -2.16959 -0.0279133  -1.20631 -2.21756 -0.0286639  -1.23181 -2.1472 -0.027884  -1.23232 -2.14663 -0.0278623  -1.13607 -2.19192 -0.0279462  -1.25468 -2.19462 -0.0285974  -1.20681 -2.217 -0.0286407  -1.18131 -2.28721 -0.029433  -1.22914 -2.26493 -0.0293899  -1.2036 -2.33508 -0.030194  -1.22864 -2.26549 -0.0294199  -1.25094 -2.3134 -0.0301838  -1.27648 -2.24316 -0.0293875  -1.27698 -2.24259 -0.0293555  -1.1808 -2.28779 -0.0294664  -1.29928 -2.29053 -0.0301073  -1.25143 -2.31283 -0.0301509  -1.22587 -2.38292 -0.0309527  -1.27369 -2.36069 -0.0309112  -1.2481 -2.4307 -0.0317121  -1.2732 -2.36124 -0.0309403  -1.29546 -2.40906 -0.0316875  -1.32103 -2.33897 -0.0309088  -1.32153 -2.33841 -0.0308709  -1.22536 -2.38349 -0.0309892  -1.34379 -2.38626 -0.0316174  -1.29595 -2.4085 -0.0316632  -0.0018139 -0.000888169 -0.00629783  -0.00219871 -0.00231726 -0.00807858  -0.00612494 -0.0058942 -0.0119946  -0.00227401 -0.0031949 -0.00620174  -0.00828221 -0.0109393 -0.0116618  0 0 0  0 0 0  -0.00188633 -0.00172107 -0.00474691  0 0 0  -0.00791939 -0.00849131 -0.0152919  -0.0122318 -0.0153269 -0.0161562  -0.0176383 -0.0186148 -0.0206137  -0.0197628 -0.027848 -0.019021  -0.0172881 -0.021629 -0.0156708  -0.0278611 -0.034364 -0.018903  -0.0118528 -0.0179905 -0.0122299  -0.0282028 -0.0305365 -0.024272  -0.0277747 -0.0424553 -0.0205569  -0.0389029 -0.0445252 -0.0260985  -0.0364868 -0.0594153 -0.0213885  -0.0388521 -0.0487769 -0.0205309  -0.0504611 -0.0651863 -0.0215738  -0.0277005 -0.0462115 -0.0162141  -0.0502692 -0.0607072 -0.0271668  -0.0454325 -0.0784634 -0.021419  -0.0614491 -0.0788742 -0.0271676  -0.0549525 -0.0994649 -0.021117  -0.0621801 -0.0834516 -0.0217979  -0.0743007 -0.103639 -0.0215073  -0.0461159 -0.0826202 -0.0172234  -0.0732684 -0.0991443 -0.0267832  -0.0648924 -0.122426 -0.020452  -0.0852763 -0.121261 -0.0259383  -0.075482 -0.1471 -0.0196698  -0.086761 -0.125645 -0.0209932  -0.0995901 -0.149358 -0.0201366  -0.0663032 -0.126511 -0.0165765  -0.0979142 -0.145201 -0.024936  -0.0866113 -0.173444 -0.0187747  -0.110949 -0.170733 -0.0237808  -0.0984079 -0.201294 -0.017838  -0.112897 -0.174681 -0.0193136  -0.126594 -0.201496 -0.0182996  -0.0884723 -0.177223 -0.01526  -0.124556 -0.197794 -0.0225856  -0.110772 -0.23054 -0.0169187  -0.138624 -0.226231 -0.0214159  -0.12378 -0.261077 -0.0160282  -0.140785 -0.229704 -0.017417  -0.155371 -0.259196 -0.0164661  -0.112845 -0.233923 -0.0137758  -0.153201 -0.255965 -0.0202715  -0.137342 -0.292809 -0.0152352  -0.168242 -0.286896 -0.0192258  -0.151486 -0.325685 -0.0144608  -0.170425 -0.289911 -0.0156701  -0.185884 -0.321764 -0.0148668  -0.139439 -0.295806 -0.0124385  -0.183738 -0.318951 -0.0182216  -0.166161 -0.359613 -0.0138104  -0.199687 -0.352086 -0.0173602  -0.181369 -0.394529 -0.0132065  -0.201785 -0.354713 -0.0142105  -0.21808 -0.388661 -0.0135877  -0.168181 -0.362246 -0.011343  -0.216055 -0.386211 -0.0165496  -0.19708 -0.430381 -0.0127401  -0.232856 -0.421299 -0.0158811  -0.21327 -0.467128 -0.0122914  -0.234792 -0.423592 -0.0130992  -0.251895 -0.459426 -0.0126519  -0.198949 -0.432709 -0.0105641  -0.25004 -0.457271 -0.0152531  -0.229934 -0.504718 -0.0119669  -0.267642 -0.494127 -0.0147684  -0.247043 -0.543084 -0.0116818  -0.269396 -0.496154 -0.0123181  -0.287262 -0.533679 -0.0120308  -0.231631 -0.506778 -0.0100651  -0.285604 -0.531774 -0.0143199  -0.264593 -0.582206 -0.0115168  -0.303957 -0.570208 -0.0139947  -0.282545 -0.622035 -0.0113604  -0.305506 -0.572004 -0.0118442  -0.324099 -0.611053 -0.0116947  -0.266092 -0.58405 -0.00985289  -0.322641 -0.60935 -0.0136929  -0.300906 -0.662544 -0.0113041  -0.341694 -0.649213 -0.0135098  -0.319638 -0.703663 -0.0112767  -0.343046 -0.650825 -0.0116303  -0.362312 -0.691236 -0.0116005  -0.302216 -0.664195 -0.00986433  -0.361055 -0.689708 -0.0133479  -0.338743 -0.745385 -0.0113416  -0.380752 -0.730839 -0.0132821  -0.35818 -0.787664 -0.0114076  -0.381907 -0.732288 -0.0116463  -0.401797 -0.773919 -0.0117164  -0.33986 -0.746884 -0.0100939  -0.400727 -0.772532 -0.0132263  -0.377955 -0.830481 -0.0115499  -0.421009 -0.814803 -0.0132666  -0.398027 -0.873769 -0.0117178  -0.421984 -0.816124 -0.0118537  -0.442428 -0.858833 -0.0120165  -0.378899 -0.831839 -0.0104854  -0.44154 -0.857572 -0.0133214  -0.418398 -0.917527 -0.0119607  -0.462342 -0.900841 -0.0134506  -0.439029 -0.961715 -0.0121996  -0.463139 -0.902044 -0.0122387  -0.484086 -0.945709 -0.0124772  -0.419167 -0.918777 -0.0110514  -0.483363 -0.94455 -0.0135853  -0.459925 -1.00632 -0.0124962  -0.504625 -0.988711 -0.013798  -0.481046 -1.05128 -0.012814  -0.505264 -0.98982 -0.0127685  -0.526639 -1.03432 -0.0130785  -0.46054 -1.00746 -0.0117357  -0.526076 -1.03326 -0.0140204  -0.502392 -1.0966 -0.0131919  -0.547729 -1.07818 -0.0143018  -0.523927 -1.14223 -0.0135643  -0.548214 -1.0792 -0.0134373  -0.569961 -1.12443 -0.0138083  -0.502855 -1.09766 -0.0125575  -0.569539 -1.12344 -0.0145881  -0.545655 -1.18819 -0.0139821  -0.591525 -1.16905 -0.0149381  -0.567541 -1.23439 -0.0144205  -0.591874 -1.17 -0.0142221  -0.613927 -1.21586 -0.0146487  -0.545987 -1.18917 -0.0134692  -0.613641 -1.21494 -0.0152948  -0.589582 -1.28086 -0.0149038  -0.635893 -1.26111 -0.0156984  -0.611745 -1.32756 -0.0153821  -0.636111 -1.26199 -0.0151155  -0.658411 -1.30839 -0.0155885  -0.589783 -1.28178 -0.0144899  -0.658244 -1.30753 -0.0161037  -0.634034 -1.37448 -0.0158973  -0.680707 -1.35419 -0.0165637  -0.656417 -1.42157 -0.0164318  -0.680814 -1.35502 -0.0161002  -0.703298 -1.40185 -0.0166214  -0.634126 -1.37534 -0.0155809  -0.703244 -1.40105 -0.0170307  -0.678893 -1.46884 -0.0170021  -0.72586 -1.44811 -0.0175347  -0.701435 -1.51627 -0.0175691  -0.725855 -1.44888 -0.0171764  -0.748478 -1.49609 -0.017736  -0.678876 -1.46966 -0.016762  -0.748523 -1.49533 -0.0180421  -0.724042 -1.56384 -0.0181625  -0.771241 -1.54272 -0.0185916  -0.746693 -1.61151 -0.0187752  -0.771147 -1.54346 -0.0183251  -0.79385 -1.59095 -0.0189238  -0.723935 -1.5646 -0.0179963  -0.793988 -1.59023 -0.0191507  -0.769383 -1.65929 -0.0194161  -0.81676 -1.63787 -0.0197358  -0.792092 -1.70716 -0.020051  -0.816577 -1.63857 -0.0195467  -0.839325 -1.6863 -0.0201743  -0.769188 -1.66002 -0.0193033  -0.839539 -1.68561 -0.0203247  -0.814818 -1.75511 -0.0207067  -0.862329 -1.73344 -0.0209498  -0.837546 -1.8031 -0.0213826  -0.862075 -1.73411 -0.0208263  -0.884824 -1.782 -0.0214839  -0.814554 -1.7558 -0.0206466  -0.885111 -1.78134 -0.0215816  -0.860269 -1.85114 -0.0220792  -0.907878 -1.8293 -0.0222359  -0.882975 -1.89921 -0.0227709  -0.907554 -1.82993 -0.0221663  -0.930276 -1.87793 -0.0228486  -0.859935 -1.85181 -0.0220537  -0.930621 -1.87729 -0.022893  -0.905664 -1.94731 -0.0234776  -0.95334 -1.92533 -0.0235801  -0.928323 -1.99541 -0.0242057  -0.952964 -1.92595 -0.0235522  -0.975626 -1.974 -0.0242634  -0.905279 -1.94795 -0.0234857  -0.976025 -1.97338 -0.0242779  -0.950949 -2.04351 -0.0249467  -0.998667 -2.02144 -0.0249877  -0.973534 -2.0916 -0.0256851  -0.99824 -2.02204 -0.024991  -1.02083 -2.0701 -0.0257206  -0.950515 -2.04413 -0.0249712  -1.02127 -2.06949 -0.0257053  -0.996074 -2.13968 -0.026432  -1.04382 -2.11754 -0.0264442  -1.01857 -2.18771 -0.0272014  -1.04335 -2.11813 -0.0264657  -1.06585 -2.16615 -0.0272148  -0.995608 -2.14028 -0.0264721  -1.06632 -2.16556 -0.0271928  -1.04101 -2.23571 -0.0279739  -1.08877 -2.21355 -0.027946  -1.06341 -2.28367 -0.0287435  -1.08828 -2.21413 -0.0279765  -1.11067 -2.26209 -0.0287378  -1.04052 -2.23631 -0.0280118  -1.11116 -2.26151 -0.0287054  -1.08575 -2.3316 -0.0295095  -1.13351 -2.30943 -0.0294719  -1.10804 -2.37946 -0.0302913  -1.133 -2.31 -0.0295045  -1.1553 -2.35787 -0.0302718  -1.08524 -2.33218 -0.0295489  -1.15581 -2.3573 -0.0302451  -1.13027 -2.42725 -0.0310698  -1.17806 -2.40511 -0.0310085  -1.15248 -2.47499 -0.0318348  -1.17755 -2.40568 -0.0310407  -1.1998 -2.45345 -0.0318003  -1.12976 -2.42785 -0.0311024  -1.20029 -2.45286 -0.0317693  -0.000482641 -0.000219107 -0.00278044  -0.000849158 -0.00029707 -0.00448775  -0.00159104 -0.00481868 -0.00541925  -0.000921004 -0.001084 -0.00343108  -0.00336456 -0.00644115 -0.0065732  0 0 0  0 0 0  -0.000559483 -0.000970989 -0.00206828  0 0 0  -0.00302131 -0.00469968 -0.00865912  -0.00333588 -0.0142972 -0.00745845  -0.00724241 -0.0143221 -0.0116839  -0.00586033 -0.0269628 -0.00893497  -0.00708166 -0.016719 -0.00882363  -0.0119026 -0.0296234 -0.0109408  -0.0033496 -0.0163963 -0.00563169  -0.0120225 -0.0267061 -0.0139904  -0.00885054 -0.0425479 -0.00977015  -0.0176624 -0.0419106 -0.0150821  -0.0126513 -0.060577 -0.010262  -0.0177733 -0.0452679 -0.0118835  -0.0242397 -0.0631223 -0.0125651  -0.00916135 -0.0455642 -0.00770259  -0.0239474 -0.0594185 -0.0157816  -0.0169617 -0.0808682 -0.010324  -0.0305698 -0.0791243 -0.0157859  -0.0220689 -0.103147 -0.0101898  -0.0313483 -0.0829659 -0.0127306  -0.038963 -0.104768 -0.0125296  -0.0177954 -0.0844312 -0.00832415  -0.0379495 -0.100847 -0.0155942  -0.027828 -0.127385 -0.00989103  -0.0457681 -0.124457 -0.0150986  -0.0344014 -0.153351 -0.00948048  -0.047176 -0.128337 -0.0122781  -0.0559613 -0.153647 -0.0117269  -0.0291674 -0.131093 -0.00803971  -0.0543859 -0.14984 -0.0145144  -0.0417259 -0.181 -0.00905561  -0.0636067 -0.176856 -0.0138543  -0.049902 -0.210176 -0.00857282  -0.0654145 -0.180519 -0.0112927  -0.0754979 -0.208933 -0.0106645  -0.0434144 -0.184577 -0.00739074  -0.0736087 -0.205418 -0.013155  -0.0588557 -0.240774 -0.00815701  -0.0842762 -0.235361 -0.0124948  -0.0686321 -0.272704 -0.00771284  -0.0862681 -0.238695 -0.0101998  -0.0976841 -0.2698 -0.00963569  -0.0607076 -0.244088 -0.00667715  -0.0956756 -0.26663 -0.0118301  -0.0791572 -0.305841 -0.00737572  -0.107743 -0.299089 -0.0112751  -0.0904681 -0.340148 -0.00703359  -0.10976 -0.302075 -0.00923967  -0.122464 -0.335531 -0.00879955  -0.0810384 -0.308844 -0.00608468  -0.120479 -0.332713 -0.0107217  -0.102488 -0.375493 -0.006809  -0.133851 -0.367371 -0.0102947  -0.115226 -0.411854 -0.00658298  -0.135791 -0.37002 -0.00850415  -0.149717 -0.405538 -0.00820351  -0.1043 -0.378192 -0.00569105  -0.147834 -0.403032 -0.00987768  -0.128615 -0.44912 -0.00648284  -0.162412 -0.43961 -0.00960159  -0.142668 -0.48728 -0.00638604  -0.164213 -0.441966 -0.00803804  -0.179273 -0.479311 -0.0078764  -0.130302 -0.451533 -0.00552869  -0.177549 -0.477086 -0.00932932  -0.15733 -0.526235 -0.00640416  -0.193233 -0.515373 -0.00918436  -0.172586 -0.565966 -0.00642014  -0.194866 -0.51747 -0.00782561  -0.21098 -0.556429 -0.00779176  -0.15886 -0.528403 -0.00559306  -0.20943 -0.554436 -0.00904536  -0.188394 -0.606399 -0.00654793  -0.226133 -0.594226 -0.00903296  -0.204749 -0.647515 -0.00667763  -0.227579 -0.596108 -0.00785899  -0.244663 -0.636503 -0.00793886  -0.189754 -0.608348 -0.00586939  -0.243303 -0.634714 -0.00901771  -0.221614 -0.68925 -0.00690079  -0.260932 -0.675845 -0.00910735  -0.238965 -0.731577 -0.00711823  -0.262196 -0.677538 -0.00810099  -0.280167 -0.719196 -0.0082767  -0.222799 -0.691017 -0.00633502  -0.278989 -0.717577 -0.009197  -0.256773 -0.774448 -0.00742984  -0.297463 -0.759881 -0.00938869  -0.275022 -0.817837 -0.00773621  -0.298542 -0.761418 -0.00853062  -0.31732 -0.804195 -0.0087924  -0.257784 -0.77605 -0.00696707  -0.316323 -0.802727 -0.00957417  -0.293689 -0.861701 -0.00811648  -0.335557 -0.846073 -0.00984192  -0.312739 -0.906008 -0.00848818  -0.336465 -0.84747 -0.00911713  -0.355964 -0.891222 -0.0094502  -0.294535 -0.863169 -0.00774193  -0.355132 -0.889876 -0.0101058  -0.332153 -0.950728 -0.00893712  -0.375039 -0.934119 -0.0104539  -0.351912 -0.995834 -0.00937819  -0.375781 -0.935403 -0.00984764  -0.395917 -0.980009 -0.0102484  -0.332843 -0.952073 -0.0086422  -0.395249 -0.978774 -0.010793  -0.371996 -1.04129 -0.00988102  -0.415748 -1.02381 -0.0111983  -0.392371 -1.08708 -0.0103726  -0.416338 -1.02499 -0.0106993  -0.437033 -1.07033 -0.0111525  -0.372538 -1.04254 -0.00965309  -0.436508 -1.06919 -0.0115964  -0.413023 -1.13317 -0.0109239  -0.45752 -1.11489 -0.0120628  -0.433928 -1.17954 -0.0114675  -0.457965 -1.11598 -0.0116591  -0.479136 -1.16196 -0.0121634  -0.413425 -1.13432 -0.0107584  -0.478754 -1.1609 -0.0125196  -0.455075 -1.22616 -0.0120595  -0.500198 -1.20719 -0.0130308  -0.476427 -1.27301 -0.0126417  -0.500513 -1.2082 -0.0127108  -0.522087 -1.2547 -0.0132589  -0.455351 -1.22723 -0.0119448  -0.521828 -1.25372 -0.0135348  -0.497976 -1.32007 -0.0132711  -0.543632 -1.30049 -0.0140934  -0.519699 -1.36732 -0.0138922  -0.543823 -1.30143 -0.0138495  -0.565725 -1.34838 -0.0144343  -0.498131 -1.32106 -0.0132043  -0.565589 -1.34747 -0.0146422  -0.541585 -1.41474 -0.0145538  -0.587681 -1.39464 -0.0152349  -0.563601 -1.46231 -0.0152035  -0.58776 -1.39552 -0.0150557  -0.609923 -1.44283 -0.0156736  -0.541631 -1.41568 -0.014523  -0.60989 -1.44197 -0.0158217  -0.585741 -1.51002 -0.0158973  -0.632206 -1.48946 -0.0164557  -0.607986 -1.55784 -0.0165849  -0.632181 -1.49028 -0.0163317  -0.654542 -1.53789 -0.0169837  -0.585687 -1.51089 -0.0159006  -0.654611 -1.53708 -0.0170803  -0.630328 -1.60576 -0.0172987  -0.67709 -1.58483 -0.0177386  -0.652738 -1.65376 -0.0180001  -0.676973 -1.58561 -0.0176632  -0.699475 -1.63343 -0.018338  -0.630184 -1.60659 -0.0173256  -0.699627 -1.63266 -0.0183914  -0.67521 -1.70184 -0.0187368  -0.722215 -1.68059 -0.0190804  -0.697729 -1.74997 -0.0194666  -0.722015 -1.68133 -0.0190439  -0.744606 -1.72932 -0.019743  -0.674985 -1.70262 -0.0187852  -0.744839 -1.72859 -0.0197632  -0.720291 -1.79815 -0.0202186  -0.767486 -1.77666 -0.0204706  -0.74287 -1.84635 -0.0209603  -0.767215 -1.77736 -0.0204644  -0.789849 -1.82545 -0.0211813  -0.719997 -1.7989 -0.0202777  -0.790146 -1.82475 -0.0211744  -0.765463 -1.89458 -0.0217295  -0.81281 -1.87288 -0.0219076  -0.78806 -1.94281 -0.0224919  -0.812475 -1.87356 -0.0219252  -0.835111 -1.92171 -0.0226595  -0.765107 -1.89529 -0.0217996  -0.83547 -1.92104 -0.0226345  -0.810657 -1.99104 -0.0232718  -0.858114 -1.9692 -0.0233808  -0.833232 -2.03925 -0.0240433  -0.857725 -1.96985 -0.0234149  -0.880331 -2.018 -0.0241654  -0.810248 -1.99173 -0.0233426  -0.880737 -2.01735 -0.0241265  -0.855786 -2.08745 -0.0248363  -0.903332 -2.0655 -0.0248935  -0.878314 -2.13562 -0.0256233  -0.902896 -2.06613 -0.0249367  -0.925446 -2.11426 -0.0256994  -0.855332 -2.08811 -0.0249076  -0.925896 -2.11363 -0.0256562  -0.900813 -2.18376 -0.0264223  -0.948416 -2.16173 -0.0264316  -0.923267 -2.23184 -0.0272143  -0.947945 -2.16234 -0.0264757  -0.970415 -2.21041 -0.0272481  -0.900326 -2.1844 -0.0264843  -0.970894 -2.20979 -0.0272079  -0.945677 -2.27989 -0.0280166  -0.993324 -2.25781 -0.0279953  -0.968043 -2.32788 -0.0288155  -0.992825 -2.25841 -0.0280364  -1.01521 -2.3064 -0.0288148  -0.945163 -2.28051 -0.0280693  -1.01571 -2.30579 -0.0287797  -0.990358 -2.37581 -0.0296147  -1.03803 -2.35372 -0.0295639  -1.01262 -2.42368 -0.0304055  -1.03752 -2.35431 -0.0295982  -1.0598 -2.40218 -0.0303743  -0.98983 -2.37643 -0.029655  -1.06032 -2.40158 -0.0303464  -1.03482 -2.47146 -0.0312028  -1.08253 -2.44937 -0.0311315  -1.05697 -2.51917 -0.0319927  -1.08202 -2.44996 -0.0311606  -1.10421 -2.4977 -0.031934  -1.03428 -2.47208 -0.0312321  -1.10472 -2.49709 -0.0319147  0.000593886 -0.00136235 0.000682116  0.000225857 -0.000663012 -0.000983715  0.00207563 -0.00706211 0.000951529  0.000160865 -0.00133339 -0.000767231  0.000358075 -0.0068661 -0.00172758  0 0 0  0 0 0  0.000533506 -0.00203818 0.000542164  0 0 0  0.000723824 -0.00554815 -0.00223732  0.00411615 -0.0175106 0.00093174  0.000649855 -0.0155313 -0.00311661  0.0060288 -0.0308367 0.000780344  0.00044854 -0.017493 -0.00231791  0.000139534 -0.0307457 -0.0031929  0.00369774 -0.0192831 0.000738144  0.000506759 -0.0283635 -0.00403571  0.00755766 -0.0474035 0.000581503  -0.000353098 -0.0444728 -0.00447559  0.00841731 -0.066233 0.000406981  -0.000876755 -0.0473277 -0.00352621  -0.002482 -0.0660975 -0.00388002  0.00679314 -0.0500447 0.000484228  -0.00182199 -0.062887 -0.00486183  0.00853199 -0.0874871 0.000294685  -0.00391558 -0.0836643 -0.00491858  0.00777745 -0.110712 0.000267744  -0.00487489 -0.0870774 -0.00399923  -0.00798965 -0.11004 -0.00393534  0.0074628 -0.0907248 0.000232935  -0.00688103 -0.106463 -0.00489664  0.00613421 -0.135933 0.000255346  -0.010556 -0.131205 -0.00474787  0.00350559 -0.162914 0.000307798  -0.0119222 -0.134793 -0.00390005  -0.0166568 -0.161332 -0.00366688  0.00478071 -0.139407 0.000173092  -0.0151758 -0.157727 -0.00453639  -6.68764e-05 -0.191597 0.00032568  -0.0206079 -0.185904 -0.00431633  -0.00465447 -0.221861 0.000399828  -0.022243 -0.189413 -0.00356007  -0.0286892 -0.219089 -0.00330234  -0.00161248 -0.195053 0.000217438  -0.0269905 -0.215661 -0.00405025  -0.0101964 -0.253569 0.000393867  -0.0342337 -0.246834 -0.00385165  -0.0167451 -0.28666 0.000419378  -0.036003 -0.250116 -0.00319982  -0.0441694 -0.282538 -0.00300121  -0.0118408 -0.256842 0.000240564  -0.0423908 -0.279374 -0.00362444  -0.024211 -0.320984 0.000349045  -0.0513932 -0.313121 -0.00349855  -0.0326331 -0.356515 0.000300646  -0.0531719 -0.316127 -0.00295162  -0.063009 -0.350936 -0.00285172  -0.0258589 -0.324013 0.000156164  -0.0612532 -0.348063 -0.00335217  -0.0419198 -0.393098 0.000146866  -0.0719191 -0.384043 -0.00332475  -0.0521048 -0.43072 5.96046e-06  -0.0736352 -0.386767 -0.00288248  -0.0850437 -0.423647 -0.00288653  -0.0435095 -0.39586 -8.51154e-05  -0.0833805 -0.421055 -0.00328159  -0.0630916 -0.469243 -0.000237465  -0.0955827 -0.458964 -0.00336027  -0.0748967 -0.508665 -0.000473022  -0.097178 -0.461414 -0.00301075  -0.110045 -0.500106 -0.00312877  -0.064573 -0.471746 -0.000500202  -0.108514 -0.497774 -0.00342727  -0.0874382 -0.548862 -0.000805855  -0.122128 -0.537361 -0.00360799  -0.100732 -0.58983 -0.00113058  -0.123581 -0.539574 -0.0033462  -0.137787 -0.579835 -0.00355721  -0.0887883 -0.551131 -0.00109649  -0.136411 -0.577728 -0.00377536  -0.114698 -0.631467 -0.00154305  -0.151311 -0.618774 -0.00405216  -0.129338 -0.673769 -0.00194883  -0.152599 -0.62077 -0.00386143  -0.16803 -0.662406 -0.00416732  -0.115898 -0.633525 -0.00185132  -0.166816 -0.660497 -0.00431538  -0.14459 -0.716647 -0.00243735  -0.182883 -0.702812 -0.00467539  -0.160453 -0.760094 -0.00291562  -0.18401 -0.704628 -0.00455165  -0.200548 -0.747448 -0.00493002  -0.145636 -0.718523 -0.00275898  -0.199502 -0.745712 -0.0050199  -0.176867 -0.804038 -0.00346494  -0.216622 -0.789127 -0.00545573  -0.193822 -0.848468 -0.00400567  -0.217581 -0.790777 -0.00538254  -0.235121 -0.834633 -0.00583434  -0.177756 -0.805749 -0.00379252  -0.234235 -0.833048 -0.00587511  -0.211271 -0.893323 -0.00461125  -0.252298 -0.877414 -0.0063715  -0.229205 -0.93859 -0.00520658  -0.253104 -0.878928 -0.00634646  -0.271535 -0.923667 -0.00685143  -0.212014 -0.894896 -0.00494123  -0.270804 -0.922212 -0.00685215  -0.247577 -0.984218 -0.0058589  -0.289704 -0.967391 -0.00740623  -0.26637 -1.03019 -0.00650144  -0.290354 -0.968778 -0.00741577  -0.309578 -1.01428 -0.00797677  -0.248174 -0.985664 -0.0061841  -0.308991 -1.01294 -0.00794387  -0.285549 -1.07647 -0.00719523  -0.328626 -1.05881 -0.00854492  -0.305098 -1.12304 -0.00787902  -0.329139 -1.0601 -0.00858903  -0.349048 -1.10624 -0.00919032  -0.286012 -1.07781 -0.00751519  -0.348603 -1.105 -0.00913072  -0.324981 -1.16986 -0.00860214  -0.368874 -1.15146 -0.00977182  -0.34518 -1.21693 -0.00931501  -0.369248 -1.15264 -0.0098381  -0.389756 -1.19933 -0.0104787  -0.325313 -1.1711 -0.00891137  -0.389437 -1.19818 -0.010396  -0.365663 -1.2642 -0.0100694  -0.410254 -1.24513 -0.0110703  -0.386416 -1.31166 -0.0108144  -0.410508 -1.24623 -0.0111604  -0.431516 -1.29336 -0.0118313  -0.365878 -1.26535 -0.0103683  -0.43132 -1.29229 -0.0117316  -0.40741 -1.35929 -0.0115895  -0.452595 -1.33964 -0.0124378  -0.428623 -1.40707 -0.0123565  -0.452727 -1.34067 -0.0125403  -0.47416 -1.38816 -0.0132406  -0.407508 -1.36036 -0.011874  -0.474073 -1.38716 -0.0131273  -0.450036 -1.45498 -0.0131533  -0.495723 -1.43483 -0.0138574  -0.471631 -1.503 -0.0139401  -0.495754 -1.43579 -0.0139735  -0.517523 -1.48357 -0.0146952  -0.450035 -1.45599 -0.0134218  -0.517542 -1.48263 -0.0145748  -0.493383 -1.55112 -0.0147505  -0.539489 -1.53054 -0.0153308  -0.515275 -1.59933 -0.0155528  -0.539418 -1.53144 -0.0154512  -0.561459 -1.57944 -0.0161972  -0.493286 -1.55207 -0.0150003  -0.561566 -1.57856 -0.0160713  -0.537287 -1.6476 -0.0163786  -0.583742 -1.62666 -0.0168419  -0.55941 -1.69592 -0.0171955  -0.58359 -1.62751 -0.0169687  -0.605829 -1.67566 -0.0177252  -0.537109 -1.64848 -0.0166106  -0.606021 -1.67482 -0.0175984  -0.581622 -1.74428 -0.0180221  -0.628364 -1.72305 -0.0183847  -0.603907 -1.79267 -0.0188446  -0.628127 -1.72385 -0.0185082  -0.650513 -1.7721 -0.0192821  -0.581366 -1.74512 -0.0182343  -0.650775 -1.77131 -0.0191579  -0.626252 -1.84108 -0.0196824  -0.673226 -1.8196 -0.0199521  -0.648647 -1.88949 -0.0205135  -0.672928 -1.82037 -0.0200748  -0.695393 -1.86866 -0.0208552  -0.625932 -1.84187 -0.0198724  -0.695723 -1.86791 -0.0207381  -0.671074 -1.93789 -0.0213499  -0.718234 -1.91623 -0.021544  -0.693524 -1.98628 -0.0221813  -0.717869 -1.91695 -0.0216563  -0.740383 -1.96526 -0.0224473  -0.670694 -1.93865 -0.0215173  -0.740764 -1.96454 -0.0223386  -0.715984 -2.03465 -0.023026  -0.763289 -2.01284 -0.02315  -0.738449 -2.08298 -0.0238655  -0.76288 -2.01354 -0.0232556  -0.785387 -2.0618 -0.0240507  -0.715557 -2.03537 -0.0231709  -0.785819 -2.06112 -0.0239546  -0.760906 -2.13128 -0.0247042  -0.808325 -2.10936 -0.0247741  -0.783349 -2.17953 -0.0255401  -0.807867 -2.11003 -0.0248625  -0.830348 -2.15824 -0.0256646  -0.760436 -2.13197 -0.0248241  -0.830815 -2.15757 -0.0255828  -0.805767 -2.22773 -0.0263786  -0.853271 -2.20574 -0.0264013  -0.828163 -2.27588 -0.0272121  -0.852785 -2.20639 -0.0264783  -0.875206 -2.25451 -0.0272772  -0.805269 -2.2284 -0.0264752  -0.875705 -2.25386 -0.0272143  -0.850522 -2.32396 -0.0280423  -0.898088 -2.30192 -0.0280328  -0.872845 -2.37198 -0.0288711  -0.897572 -2.30255 -0.0280883  -0.919921 -2.35056 -0.0288901  -0.849996 -2.32461 -0.0281134  -0.920437 -2.34993 -0.0288446  -0.895114 -2.41992 -0.0296993  -0.942726 -2.39786 -0.0296569  -0.917346 -2.4678 -0.0305252  -0.9422 -2.39849 -0.0296986  -0.96445 -2.44637 -0.0304933  -0.894579 -2.42056 -0.029748  -0.964981 -2.44574 -0.0304658  -0.939507 -2.51558 -0.0313435  -0.987155 -2.49352 -0.0312736  -0.961614 -2.56328 -0.0321703  -0.98662 -2.49414 -0.0312958  -1.00876 -2.54187 -0.0320907  -0.938964 -2.51622 -0.0313685  -1.00928 -2.54123 -0.0320804  0.00166065 -0.00399047 0.00399566  0.00127662 -0.00254172 0.002424  0.00576752 -0.0118023 0.00697303  0.00123118 -0.0031575 0.00181556  0.00387795 -0.0101922 0.00294113  0 0 0  0 0 0  0.00164302 -0.00465244 0.00304413  0 0 0  0.00426394 -0.00910139 0.00396729  0.011586 -0.0241591 0.00880027  0.00795649 -0.0204533 0.00505233  0.0178275 -0.0386788 0.00988102  0.00738572 -0.0221655 0.00389862  0.0112035 -0.036416 0.00421  0.0107966 -0.0257729 0.00671816  0.0120403 -0.0342947 0.00541687  0.023663 -0.0563486 0.0102656  0.0156442 -0.0513934 0.00558305  0.0289774 -0.0759925 0.0104322  0.0146959 -0.053986 0.00442266  0.0176365 -0.073597 0.00440288  0.0224892 -0.0588271 0.00814533  0.0186858 -0.0706377 0.00551915  0.0333179 -0.0980318 0.010323  0.0209481 -0.0922791 0.00542307  0.0367119 -0.122016 0.0101981  0.0197662 -0.0954552 0.00432992  0.0209888 -0.119295 0.00427938  0.0320307 -0.101119 0.0083003  0.0222324 -0.115924 0.00529933  0.0390129 -0.147991 0.00993824  0.0226049 -0.141524 0.00516224  0.0401945 -0.175798 0.00971746  0.021242 -0.144936 0.00413013  0.0204624 -0.17242 0.00408411  0.0376495 -0.151348 0.00801015  0.0218808 -0.168949 0.00505877  0.0402641 -0.205325 0.0094018  0.0201533 -0.198067 0.00490355  0.0391523 -0.236493 0.00912929  0.0186531 -0.20147 0.00391579  0.0157912 -0.232169 0.00384402  0.0388305 -0.208695 0.00756168  0.0173162 -0.228807 0.00478554  0.0369348 -0.269148 0.00874257  0.0134497 -0.260997 0.00458527  0.0335582 -0.303241 0.00840139  0.0118936 -0.264246 0.00363445  0.00694621 -0.297768 0.00350118  0.0354804 -0.272389 0.00699782  0.00850636 -0.294609 0.00442719  0.0291116 -0.338607 0.00796628  0.00255036 -0.329468 0.00416398  0.0235509 -0.375215 0.00755858  0.000997365 -0.332489 0.00324082  -0.00595266 -0.368464 0.00302982  0.0276769 -0.341644 0.00630689  -0.00442606 -0.365553 0.00393414  0.0169748 -0.412899 0.00705028  -0.0123614 -0.402697 0.00360036  0.009359 -0.451642 0.00656748  -0.0138499 -0.405472 0.00270462  -0.0226953 -0.443553 0.00240684  0.0156056 -0.415703 0.00548577  -0.0212489 -0.440895 0.00329089  0.000795722 -0.491298 0.00599647  -0.0310311 -0.479997 0.00287461  -0.00873256 -0.531859 0.0054431  -0.0324218 -0.482525 0.00200939  -0.0430263 -0.522424 0.00162864  -0.000481248 -0.49387 0.00451827  -0.0416936 -0.520003 0.00248289  -0.0191314 -0.573186 0.0048039  -0.0531683 -0.560773 0.00199294  -0.0304083 -0.615277 0.00418329  -0.0544326 -0.563078 0.00115848  -0.0666509 -0.604521 0.000700235  -0.0202928 -0.575539 0.00341678  -0.0654507 -0.602317 0.00152469  -0.0424821 -0.658021 0.00348854  -0.0784781 -0.644518 0.000963926  -0.0553558 -0.701411 0.00280833  -0.0796041 -0.646614 0.000166178  -0.0932965 -0.689389 -0.000360012  -0.0435153 -0.660173 0.00218987  -0.0922383 -0.687376 0.0004251  -0.0689493 -0.745345 0.00205946  -0.106664 -0.73079 -0.000196457  -0.0832593 -0.789824 0.00132704  -0.107645 -0.732708 -0.000956535  -0.122663 -0.776603 -0.00154424  -0.0698487 -0.747318 0.000852346  -0.121753 -0.774765 -0.000795841  -0.0982211 -0.834764 0.000533581  -0.137445 -0.819216 -0.00147414  -0.113826 -0.880161 -0.000243187  -0.138279 -0.820968 -0.00219297  -0.1545 -0.865829 -0.00283289  -0.0989819 -0.836574 -0.000586748  -0.153733 -0.864141 -0.00212932  -0.130011 -0.925936 -0.00107551  -0.170551 -0.909463 -0.00285101  -0.146766 -0.972092 -0.00188828  -0.171242 -0.911077 -0.00352716  -0.188527 -0.956738 -0.00421119  -0.130637 -0.927606 -0.00210714  -0.187901 -0.955184 -0.00354934  -0.164037 -1.01857 -0.0027504  -0.205726 -1.00124 -0.00431299  -0.181811 -1.06535 -0.00359583  -0.206278 -1.00273 -0.00494432  -0.224512 -1.04907 -0.00566721  -0.164531 -1.02011 -0.00369883  -0.22402 -1.04763 -0.00505424  -0.200038 -1.1124 -0.00448108  -0.242721 -1.0943 -0.00584507  -0.218702 -1.15969 -0.00534892  -0.243144 -1.09568 -0.00643253  -0.262199 -1.14257 -0.0071857  -0.200408 -1.11382 -0.00534487  -0.261835 -1.14124 -0.00661373  -0.237763 -1.2072 -0.00625253  -0.281309 -1.18841 -0.00743389  -0.257205 -1.25491 -0.00714135  -0.281606 -1.18969 -0.00797629  -0.301384 -1.23705 -0.00875592  -0.238013 -1.20852 -0.00703859  -0.301139 -1.23581 -0.00823283  -0.276984 -1.30278 -0.00805998  -0.321269 -1.28338 -0.0090704  -0.297087 -1.35081 -0.00896144  -0.321452 -1.28457 -0.00956988  -0.341835 -1.33229 -0.0103705  -0.277125 -1.30402 -0.00876832  -0.341704 -1.33113 -0.00988746  -0.31748 -1.39896 -0.00989079  -0.362398 -1.37903 -0.010746  -0.338145 -1.44724 -0.0108037  -0.36247 -1.38014 -0.0112007  -0.383375 -1.42814 -0.0120192  -0.317512 -1.40012 -0.0105267  -0.383348 -1.42707 -0.0115843  -0.359048 -1.4956 -0.011739  -0.404502 -1.47521 -0.0124505  -0.380173 -1.54404 -0.0126574  -0.404477 -1.47624 -0.0128629  -0.425801 -1.52445 -0.0136938  -0.358985 -1.49668 -0.0123036  -0.42587 -1.52345 -0.0132985  -0.401498 -1.59255 -0.0135927  -0.447408 -1.57177 -0.0141761  -0.423003 -1.64111 -0.0145137  -0.44729 -1.57273 -0.0145462  -0.468962 -1.6211 -0.0153861  -0.401346 -1.59356 -0.014092  -0.469116 -1.62015 -0.0150368  -0.444661 -1.68969 -0.0154502  -0.490949 -1.66858 -0.0159187  -0.46646 -1.73831 -0.0163732  -0.49075 -1.66949 -0.0162475  -0.512683 -1.71795 -0.0170944  -0.444432 -1.69064 -0.0158832  -0.512916 -1.71706 -0.0167823  -0.488378 -1.78693 -0.0173056  -0.534979 -1.76556 -0.0176671  -0.5104 -1.83556 -0.0182247  -0.534705 -1.76641 -0.0179553  -0.556843 -1.81491 -0.0188046  -0.488075 -1.78783 -0.0176802  -0.557143 -1.81407 -0.0185366  -0.532506 -1.88417 -0.0191503  -0.579364 -1.86258 -0.019419  -0.554684 -1.93277 -0.0200601  -0.579028 -1.86339 -0.0196681  -0.601295 -1.91188 -0.0205176  -0.532145 -1.88502 -0.0194659  -0.601656 -1.91109 -0.0202856  -0.576922 -1.98133 -0.0209763  -0.623987 -1.95958 -0.0211654  -0.599203 -2.02987 -0.0218821  -0.623594 -1.96034 -0.0213759  -0.64595 -2.0088 -0.0222239  -0.576504 -1.98213 -0.02124  -0.646361 -2.00804 -0.0220332  -0.621513 -2.07835 -0.022788  -0.668741 -2.05647 -0.0229082  -0.643843 -2.12679 -0.0236814  -0.668304 -2.0572 -0.0230832  -0.690688 -2.10558 -0.0239289  -0.621052 -2.07911 -0.0230002  -0.691143 -2.10486 -0.0237708  -0.666182 -2.17517 -0.0245767  -0.713541 -2.1532 -0.0246415  -0.688524 -2.22349 -0.0254617  -0.71306 -2.15389 -0.0247812  -0.735451 -2.20218 -0.0256217  -0.665682 -2.17589 -0.0247452  -0.73594 -2.20149 -0.0255017  -0.710853 -2.27174 -0.0263417  -0.75831 -2.24971 -0.0263615  -0.733171 -2.31992 -0.027211  -0.757804 -2.25039 -0.0264676  -0.780154 -2.29855 -0.0272992  -0.710327 -2.27244 -0.0264659  -0.780671 -2.29788 -0.0272098  -0.755464 -2.36804 -0.0280781  -0.802996 -2.34598 -0.0280621  -0.777734 -2.41608 -0.0289392  -0.802463 -2.34663 -0.0281351  -0.824764 -2.39466 -0.0289621  -0.754914 -2.36871 -0.0281649  -0.825299 -2.39401 -0.028908  -0.799961 -2.46403 -0.0297954  -0.847543 -2.44196 -0.0297496  -0.82215 -2.51191 -0.0306468  -0.846998 -2.4426 -0.0297928  -0.869211 -2.49048 -0.0306137  -0.799399 -2.46469 -0.0298436  -0.869756 -2.48984 -0.0305855  -0.844288 -2.5597 -0.0314975  -0.891899 -2.53763 -0.0314243  -0.866367 -2.60742 -0.0323527  -0.89135 -2.53826 -0.0314376  -0.913453 -2.58599 -0.0322571  -0.84372 -2.56037 -0.0315127  -0.913987 -2.58534 -0.0322621  0.0029665 -0.00865102 0.00701022  0.00253737 -0.00601697 0.00563097  0.0104004 -0.0195314 0.0123847  0.00252792 -0.00669855 0.0042305  0.00791793 -0.0163393 0.00726438  0 0 0  0 0 0  0.00301515 -0.00938755 0.00532341  0 0 0  0.00827035 -0.0152832 0.00972486  0.0203488 -0.0344785 0.0158191  0.0159269 -0.0288166 0.0125618  0.0311553 -0.0505198 0.0180576  0.0150413 -0.0304788 0.00960255  0.0230131 -0.0462255 0.0110414  0.0192611 -0.0361437 0.0120606  0.0242333 -0.044126 0.0141289  0.041269 -0.0691679 0.0190675  0.0322331 -0.0622553 0.0148597  0.0508343 -0.0896074 0.0196292  0.0309302 -0.0647744 0.0117664  0.0382194 -0.085235 0.0121093  0.0397779 -0.0716875 0.0151029  0.0395865 -0.0823519 0.0151477  0.0592061 -0.112194 0.0196548  0.0460245 -0.104663 0.0151079  0.0664846 -0.13682 0.0195382  0.0446626 -0.107741 0.0121293  0.0499932 -0.132281 0.0120378  0.0577603 -0.11527 0.0157928  0.0513524 -0.129002 0.0149338  0.072543 -0.163378 0.0191507  0.0555906 -0.155279 0.0146024  0.0773164 -0.191887 0.0187316  0.0542206 -0.158595 0.0117753  0.0572223 -0.186831 0.0115273  0.0711694 -0.166686 0.0154455  0.0585915 -0.183457 0.0142653  0.0808614 -0.222137 0.0181565  0.0604256 -0.21335 0.0138113  0.0830849 -0.254119 0.0175941  0.059042 -0.21668 0.0111339  0.0596279 -0.248242 0.0107846  0.0795277 -0.225454 0.0146387  0.0610126 -0.244935 0.0133784  0.0840768 -0.28763 0.0169075  0.0604091 -0.278027 0.0128369  0.0837564 -0.322629 0.0162401  0.0590269 -0.281234 0.0103116  0.0572191 -0.315722 0.00988817  0.0827671 -0.290827 0.0135868  0.0585897 -0.312582 0.012332  0.0822363 -0.358947 0.0154762  0.0556099 -0.348426 0.0117276  0.0794625 -0.396544 0.0147362  0.0542571 -0.351449 0.00935197  0.0501354 -0.388461 0.00885153  0.0809686 -0.361966 0.0123708  0.0514631 -0.385539 0.0111518  0.0755401 -0.435243 0.0139103  0.046216 -0.423741 0.0104795  0.0704352 -0.475013 0.0131052  0.0449229 -0.426531 0.00825429  0.0386194 -0.465702 0.00768781  0.0743338 -0.438042 0.0110095  0.0398728 -0.463006 0.00983715  0.0642544 -0.515711 0.0122223  0.0325025 -0.503188 0.00910592  0.0569782 -0.557315 0.011359  0.0312989 -0.505766 0.00702953  0.0229559 -0.54676 0.00639296  0.0631335 -0.518306 0.00953245  0.0241096 -0.544281 0.00839972  0.0487077 -0.59969 0.0104291  0.0147759 -0.58614 0.00761104  0.0394304 -0.642815 0.00951743  0.0136791 -0.588501 0.00568104  0.00346625 -0.63103 0.00498843  0.0476868 -0.602076 0.00793958  0.00450528 -0.628759 0.00684953  0.0292447 -0.686575 0.00854516  -0.00662315 -0.672017 0.00601196  0.0181425 -0.730966 0.00759101  -0.00759745 -0.674186 0.00422335  -0.0195249 -0.718007 0.0034759  0.0283384 -0.688772 0.00625587  -0.0186094 -0.715919 0.00519753  0.00621676 -0.775876 0.00658703  -0.0313668 -0.76035 0.00431752  -0.00653827 -0.821305 0.00559711  -0.0322155 -0.762339 0.0026691  -0.0456851 -0.807231 0.00187898  0.00542891 -0.777899 0.00448585  -0.0448998 -0.805314 0.0034616  -0.0200338 -0.867159 0.004565  -0.0591248 -0.850718 0.0025444  -0.0342718 -0.913443 0.0035491  -0.0598423 -0.852551 0.00103211  -0.0747066 -0.898338 0.000201702  -0.0206959 -0.869025 0.00265026  -0.0740504 -0.896569 0.00165081  -0.0491704 -0.960068 0.00249553  -0.0895876 -0.942779 0.000705481  -0.0647326 -1.00704 0.00145841  -0.0901766 -0.944466 -0.000675678  -0.106278 -0.990985 -0.00153518  -0.0497123 -0.961792 0.000754356  -0.10575 -0.989352 -0.000214815  -0.0808817 -1.05429 0.000391483  -0.122457 -1.03622 -0.00118327  -0.0976166 -1.10181 -0.000657797  -0.122919 -1.03778 -0.00243855  -0.140123 -1.0849 -0.00332499  -0.0813003 -1.05588 -0.00117993  -0.139718 -1.08339 -0.00212765  -0.114865 -1.14955 -0.0017345  -0.15745 -1.13079 -0.00311089  -0.13263 -1.19752 -0.00279617  -0.157792 -1.13223 -0.00424623  -0.175957 -1.17983 -0.00515008  -0.115169 -1.15104 -0.0031507  -0.17567 -1.17843 -0.00407147  -0.150843 -1.24564 -0.00387883  -0.194303 -1.22625 -0.00506878  -0.169505 -1.29394 -0.00494409  -0.194529 -1.22759 -0.00608873  -0.21354 -1.27557 -0.00700903  -0.151033 -1.24702 -0.00514197  -0.213363 -1.27426 -0.00604248  -0.188555 -1.34235 -0.00602436  -0.232773 -1.32241 -0.00704384  -0.207992 -1.39089 -0.00709033  -0.232892 -1.32366 -0.00795531  -0.252619 -1.37192 -0.008883  -0.188643 -1.34364 -0.0071485  -0.252549 -1.3707 -0.00802398  -0.227758 -1.43952 -0.00816822  -0.272624 -1.4191 -0.00903201  -0.247853 -1.48823 -0.0092299  -0.272639 -1.42027 -0.00984001  -0.292985 -1.46874 -0.0107763  -0.227744 -1.44072 -0.0091567  -0.293012 -1.4676 -0.0100172  -0.268224 -1.537 -0.0103016  -0.313644 -1.51617 -0.0110209  -0.28887 -1.58581 -0.0113571  -0.313565 -1.51726 -0.0117319  -0.334417 -1.56587 -0.0126686  -0.26812 -1.53812 -0.0111673  -0.334537 -1.56481 -0.0120053  -0.309744 -1.63465 -0.0124185  -0.355631 -1.61349 -0.0130074  -0.330845 -1.68352 -0.0134635  -0.355465 -1.61451 -0.0136263  -0.376743 -1.66321 -0.0145628  -0.309555 -1.6357 -0.0131648  -0.376942 -1.66221 -0.0139873  -0.352129 -1.73238 -0.0145104  -0.398407 -1.71094 -0.0149806  -0.373594 -1.78124 -0.0155435  -0.398165 -1.7119 -0.0155134  -0.41977 -1.76062 -0.0164468  -0.351865 -1.73336 -0.0151503  -0.420046 -1.75969 -0.0159569  -0.395202 -1.83008 -0.0165753  -0.441803 -1.80842 -0.016942  -0.416951 -1.87891 -0.0175908  -0.441491 -1.80932 -0.0173941  -0.463361 -1.85804 -0.0183196  -0.394869 -1.831 -0.0171127  -0.463697 -1.85716 -0.0179062  -0.438805 -1.92769 -0.0186031  -0.48567 -1.90586 -0.0188754  -0.460764 -1.97643 -0.019604  -0.4853 -1.9067 -0.0192535  -0.50735 -1.95536 -0.0201685  -0.438415 -1.92855 -0.0190501  -0.507745 -1.95453 -0.0198288  -0.482798 -2.02512 -0.0205934  -0.529874 -2.00316 -0.0207846  -0.504904 -2.07376 -0.0215714  -0.529451 -2.00396 -0.0210931  -0.551635 -2.05254 -0.0219989  -0.482356 -2.02594 -0.0209537  -0.552075 -2.05176 -0.0217247  -0.527053 -2.12233 -0.0225403  -0.574298 -2.10029 -0.0226629  -0.54925 -2.17083 -0.0234993  -0.573833 -2.10104 -0.0229087  -0.596085 -2.14951 -0.0238001  -0.526573 -2.1231 -0.0228264  -0.596567 -2.14876 -0.0235879  -0.571467 -2.21927 -0.0244431  -0.618839 -2.19717 -0.0245092  -0.593705 -2.26763 -0.0253751  -0.618338 -2.1979 -0.0246978  -0.640623 -2.24624 -0.0255759  -0.57095 -2.22001 -0.0246584  -0.641135 -2.24552 -0.0254173  -0.615939 -2.31591 -0.0262959  -0.66341 -2.29379 -0.0263178  -0.638179 -2.36411 -0.0272062  -0.662883 -2.29448 -0.0264556  -0.685157 -2.34268 -0.0273161  -0.615399 -2.31662 -0.0264528  -0.685694 -2.34199 -0.0272074  -0.660401 -2.41223 -0.0281014  -0.707948 -2.3901 -0.0280921  -0.682614 -2.46027 -0.0289903  -0.707398 -2.39078 -0.0281827  -0.729642 -2.43882 -0.029031  -0.65984 -2.41292 -0.0282052  -0.730194 -2.43815 -0.028966  -0.704794 -2.50822 -0.0298662  -0.752392 -2.4861 -0.0298321  -0.726954 -2.5561 -0.0307453  -0.751832 -2.48676 -0.0298815  -0.774009 -2.53464 -0.0307202  -0.704224 -2.50889 -0.0299258  -0.77457 -2.53398 -0.0306981  -0.749073 -2.60389 -0.0316129  -0.796695 -2.58178 -0.0315576  -0.771163 -2.65162 -0.0324934  -0.796129 -2.58244 -0.0315676  -0.818216 -2.63018 -0.032407  -0.748497 -2.60456 -0.0316255  -0.818769 -2.62951 -0.0324218  0.0048825 -0.0170983 0.00953865  0.00443311 -0.012093 0.00847387  0.0177327 -0.0322476 0.0169728  0.00443482 -0.01298 0.00635481  0.0134338 -0.0266286 0.011054  0 0 0  0 0 0  0.00502054 -0.0179762 0.0072906  0 0 0  0.0136837 -0.0253363 0.0147524  0.0324354 -0.0493312 0.0218627  0.0260081 -0.0412324 0.0191  0.0477704 -0.0668208 0.0251799  0.0248588 -0.0430951 0.0145726  0.0372147 -0.0604995 0.0170603  0.0311169 -0.0513853 0.0166819  0.0387079 -0.0581658 0.0217745  0.0620688 -0.0856789 0.0269563  0.0511061 -0.0769444 0.0231802  0.0753948 -0.106732 0.0280433  0.0495704 -0.0796088 0.0183499  0.0609847 -0.100739 0.0191224  0.0604098 -0.0885501 0.0213392  0.0625547 -0.0977598 0.0239284  0.0875434 -0.129553 0.0283227  0.0729231 -0.120492 0.0240717  0.0983695 -0.154711 0.0283151  0.0714617 -0.123607 0.0193396  0.0806156 -0.148656 0.0193059  0.0860347 -0.132779 0.0227225  0.0820394 -0.145397 0.0239682  0.10796 -0.181774 0.0278862  0.0899041 -0.172218 0.0235682  0.116131 -0.210937 0.0273535  0.0885411 -0.175505 0.0190108  0.0951016 -0.204373 0.0186198  0.106602 -0.185091 0.0224612  0.0964316 -0.201052 0.023073  0.122988 -0.241894 0.0265801  0.101643 -0.231659 0.0223989  0.128393 -0.274661 0.0257809  0.10034 -0.234933 0.0180693  0.104215 -0.267274 0.0175018  0.121713 -0.245161 0.0214164  0.105492 -0.264031 0.0217037  0.132447 -0.309014 0.0248256  0.108021 -0.297961 0.0208809  0.135077 -0.344904 0.0238721  0.106765 -0.301111 0.016808  0.107971 -0.336494 0.01613  0.131227 -0.312143 0.0199661  0.109207 -0.333402 0.0200703  0.136379 -0.382155 0.0228128  0.109098 -0.370187 0.0191543  0.136294 -0.420696 0.0217705  0.107887 -0.373161 0.0153439  0.106509 -0.411147 0.0145845  0.135206 -0.385103 0.0182736  0.10769 -0.408258 0.0182583  0.134934 -0.460368 0.0206392  0.105055 -0.447441 0.0172777  0.132262 -0.501121 0.0195267  0.103908 -0.450212 0.0137339  0.100073 -0.490398 0.0129139  0.133831 -0.463116 0.0164323  0.101187 -0.487708 0.016325  0.128393 -0.542817 0.0183549  0.0961659 -0.528908 0.0152895  0.123304 -0.585409 0.0171943  0.0950972 -0.531477 0.0120113  0.0889741 -0.573498 0.0111327  0.127366 -0.54537 0.0144677  0.0899973 -0.571013 0.0142803  0.117104 -0.628759 0.0159791  0.0827659 -0.613879 0.0132048  0.109773 -0.672853 0.0147853  0.0817958 -0.616252 0.0101855  0.0735524 -0.659789 0.00926185  0.116173 -0.631124 0.0124121  0.0744753 -0.657496 0.0121577  0.101432 -0.717565 0.0135486  0.0652161 -0.701739 0.011045  0.0920602 -0.762883 0.0123229  0.0643523 -0.703924 0.0082767  0.0541749 -0.748717 0.00731134  0.100602 -0.719748 0.010282  0.0549862 -0.746602 0.00995922  0.081771 -0.808688 0.0110643  0.043883 -0.791965 0.00882578  0.0705401 -0.854992 0.00982618  0.0431345 -0.793986 0.00629663  0.0312049 -0.839795 0.00530267  0.0810527 -0.810708 0.00809216  0.0318987 -0.837841 0.0077188  0.0584892 -0.901687 0.00855923  0.0191301 -0.884126 0.00656199  0.0455946 -0.948783 0.00730538  0.0185007 -0.885988 0.00426197  0.0049895 -0.932633 0.00323987  0.0578861 -0.903554 0.00586057  0.00556576 -0.930825 0.00542879  0.031967 -0.996172 0.00603223  -0.00869274 -0.97784 0.00426221  0.0175779 -1.04389 0.00477982  -0.00920415 -0.979568 0.00218225  -0.0241219 -1.02687 0.00114655  0.031479 -0.997907 0.00360036  -0.0236639 -1.02519 0.00312448  0.00254464 -1.09183 0.00350738  -0.0392506 -1.0728 0.00194693  -0.0131623 -1.14003 0.00224996  -0.0396441 -1.0744 7.4625e-05  -0.055815 -1.12223 -0.000976086  0.00216997 -1.09344 0.00131989  -0.0554721 -1.12067 0.000797987  -0.0294363 -1.18838 0.000980377  -0.0722288 -1.16873 -0.000377893  -0.0463119 -1.23694 -0.000268221  -0.0725099 -1.17022 -0.00205493  -0.0897787 -1.21844 -0.00311232  -0.0296993 -1.18988 -0.00096941  -0.0895464 -1.21699 -0.00152564  -0.0636785 -1.28561 -0.0015254  -0.107332 -1.2654 -0.00270295  -0.081568 -1.33443 -0.0027678  -0.107504 -1.26678 -0.00419569  -0.125737 -1.31532 -0.00525856  -0.0638347 -1.28701 -0.00325894  -0.125611 -1.31397 -0.00385571  -0.099885 -1.38331 -0.00401449  -0.144289 -1.36263 -0.00502014  -0.118661 -1.4323 -0.00523829  -0.144359 -1.36392 -0.00633931  -0.163421 -1.41266 -0.00739694  -0.0999396 -1.38461 -0.00553942  -0.163395 -1.4114 -0.00615883  -0.137799 -1.48133 -0.00646758  -0.182843 -1.46024 -0.00731707  -0.157327 -1.53042 -0.00768042  -0.182814 -1.46144 -0.00847316  -0.202591 -1.51032 -0.00953078  -0.137756 -1.48254 -0.00780201  -0.202659 -1.50915 -0.00845265  -0.177161 -1.57951 -0.00888991  -0.222756 -1.55808 -0.00959611  -0.197331 -1.62864 -0.0100782  -0.222638 -1.55921 -0.0106001  -0.24301 -1.60816 -0.0116453  -0.177028 -1.58065 -0.0100431  -0.243165 -1.60706 -0.0107119  -0.217755 -1.67775 -0.0112627  -0.263808 -1.65605 -0.0118408  -0.238455 -1.72686 -0.0124338  -0.263608 -1.6571 -0.0127034  -0.284481 -1.70608 -0.0137405  -0.217541 -1.67881 -0.0122516  -0.284714 -1.70505 -0.0129466  -0.259358 -1.77593 -0.0135965  -0.305803 -1.75402 -0.0140536  -0.280498 -1.82499 -0.0147383  -0.305527 -1.75501 -0.0147851  -0.326801 -1.80395 -0.0158062  -0.259071 -1.77693 -0.0144289  -0.327106 -1.80299 -0.0151358  -0.301796 -1.87399 -0.0158708  -0.348553 -1.85192 -0.0162237  -0.323278 -1.92295 -0.0169883  -0.34821 -1.85284 -0.0168343  -0.369808 -1.90173 -0.0178411  -0.301442 -1.87492 -0.0165646  -0.370174 -1.90082 -0.0172887  -0.34488 -1.97184 -0.0180917  -0.391896 -1.94966 -0.0183468  -0.366632 -2.02068 -0.0191705  -0.391496 -1.95053 -0.018847  -0.413332 -1.99931 -0.0198307  -0.344467 -1.97272 -0.0186541  -0.413751 -1.99846 -0.0193808  -0.388468 -2.06944 -0.0202367  -0.435681 -2.04719 -0.0204146  -0.41041 -2.11813 -0.0212905  -0.435231 -2.048 -0.0208156  -0.457245 -2.09667 -0.0217805  -0.388006 -2.07026 -0.0206878  -0.457709 -2.09587 -0.02143  -0.432406 -2.16673 -0.0223265  -0.479777 -2.14446 -0.022433  -0.454482 -2.21526 -0.0233412  -0.479287 -2.14523 -0.0227439  -0.501409 -2.19375 -0.0236835  -0.431903 -2.16752 -0.0226712  -0.50191 -2.19298 -0.0234139  -0.476586 -2.2637 -0.0243347  -0.524067 -2.24143 -0.0243881  -0.498735 -2.31207 -0.025316  -0.523543 -2.24216 -0.0246201  -0.545732 -2.29053 -0.0255358  -0.476051 -2.26445 -0.0245929  -0.546264 -2.2898 -0.0253448  -0.520888 -2.36033 -0.0262764  -0.568453 -2.33807 -0.0262852  -0.543067 -2.40851 -0.0272171  -0.567904 -2.33878 -0.0264487  -0.590107 -2.38697 -0.0273383  -0.520328 -2.36105 -0.0264547  -0.590659 -2.38627 -0.0272074  -0.565232 -2.4566 -0.0281394  -0.612847 -2.43438 -0.028121  -0.5874 -2.50461 -0.0290532  -0.612282 -2.43506 -0.0282257  -0.634472 -2.48309 -0.0290968  -0.564655 -2.4573 -0.0282557  -0.635039 -2.48241 -0.0290225  -0.609543 -2.55253 -0.0299487  -0.657197 -2.53035 -0.0299101  -0.631684 -2.60038 -0.0308359  -0.656622 -2.53102 -0.0299637  -0.678772 -2.57889 -0.0308182  -0.608954 -2.55322 -0.0300078  -0.679344 -2.57821 -0.0307918  -0.6538 -2.64817 -0.0317156  -0.701462 -2.62601 -0.0316725  -0.675908 -2.69591 -0.0326054  -0.700885 -2.62667 -0.0316768  -0.722981 -2.67443 -0.0325305  -0.653212 -2.64885 -0.0317287  -0.723545 -2.67375 -0.0325544  0.00843301 -0.0325909 0.0124073  0.00776412 -0.0232519 0.0110106  0.0313645 -0.0544063 0.0205812  0.00765542 -0.0244725 0.00814295  0.0222055 -0.0443791 0.0141296  0 0 0  0 0 0  0.00821002 -0.0337205 0.00918317  0 0 0  0.0222313 -0.0424051 0.0188043  0.0518112 -0.0686418 0.0277705  0.0405501 -0.058538 0.0247378  0.0689568 -0.0869597 0.0320845  0.0392837 -0.0609923 0.0189137  0.0557882 -0.0794449 0.0223944  0.050295 -0.0720699 0.021065  0.0573995 -0.0765517 0.0285263  0.086902 -0.1051 0.0345368  0.073781 -0.0951004 0.0307491  0.103286 -0.12641 0.0360918  0.0721552 -0.0982389 0.0243413  0.0872483 -0.119489 0.025578  0.0853422 -0.108678 0.0272727  0.088889 -0.116293 0.0320365  0.118861 -0.149502 0.0365202  0.102751 -0.139253 0.0324612  0.13313 -0.175161 0.0366223  0.10125 -0.142549 0.0260415  0.113928 -0.167919 0.0261154  0.117411 -0.152949 0.0292442  0.115376 -0.164632 0.0324926  0.146079 -0.202859 0.0361395  0.126619 -0.192006 0.0320578  0.15757 -0.232736 0.0354965  0.12525 -0.195291 0.0258183  0.135167 -0.224764 0.0253451  0.144712 -0.206161 0.0290513  0.136487 -0.221502 0.0314629  0.167619 -0.264496 0.0345492  0.144925 -0.252846 0.0306194  0.17611 -0.298109 0.0335324  0.143642 -0.256046 0.0246696  0.150658 -0.289172 0.0239217  0.166322 -0.267643 0.0278058  0.151904 -0.286019 0.0297034  0.183143 -0.33336 0.0323586  0.157437 -0.320819 0.028636  0.1886 -0.370186 0.0311384  0.156212 -0.323868 0.0230403  0.160321 -0.360159 0.0221438  0.181891 -0.336341 0.0260148  0.161509 -0.357168 0.0275457  0.192626 -0.408391 0.0298243  0.16417 -0.394887 0.0263619  0.195115 -0.447905 0.028502  0.163001 -0.397755 0.0211394  0.164273 -0.436707 0.0201509  0.191431 -0.411174 0.0239167  0.165404 -0.433905 0.025176  0.196251 -0.488544 0.0271163  0.165277 -0.474061 0.023911  0.195881 -0.530276 0.0257113  0.164176 -0.476735 0.0190744  0.162732 -0.517909 0.0180094  0.195106 -0.491125 0.0216434  0.1638 -0.515303 0.0226514  0.194258 -0.572925 0.0242844  0.16104 -0.55748 0.0213459  0.191221 -0.616482 0.0228376  0.160007 -0.559965 0.016886  0.156025 -0.602974 0.0157757  0.193189 -0.575328 0.0192454  0.157012 -0.600554 0.0200429  0.187042 -0.660769 0.0213854  0.151814 -0.644375 0.0186968  0.181542 -0.705782 0.0198996  0.150875 -0.646672 0.0146046  0.144544 -0.691168 0.0134602  0.186062 -0.662979 0.0167654  0.145435 -0.688936 0.0173647  0.175001 -0.751368 0.0184288  0.137977 -0.734093 0.0160022  0.167242 -0.797562 0.0169423  0.137136 -0.736218 0.0122666  0.128657 -0.781923 0.0110908  0.174125 -0.75342 0.0142198  0.129446 -0.779854 0.0146499  0.15856 -0.844197 0.0154624  0.119951 -0.826079 0.0132709  0.148759 -0.89131 0.0139587  0.119222 -0.828043 0.00987363  0.10879 -0.874708 0.0086813  0.157791 -0.846084 0.0116367  0.109467 -0.872799 0.0119081  0.138131 -0.938754 0.0124824  0.0981106 -0.919878 0.0105288  0.126485 -0.986596 0.0109947  0.0974917 -0.921695 0.0074544  0.085305 -0.969128 0.00624704  0.137479 -0.940509 0.00902748  0.0858704 -0.967355 0.00916243  0.11412 -1.03468 0.00952411  0.0728638 -1.0151 0.00778079  0.10083 -1.08306 0.00803351  0.0723615 -1.01678 0.00501037  0.0586014 -1.0648 0.0037992  0.113582 -1.03629 0.00641203  0.0590526 -1.06316 0.00641727  0.086906 -1.1316 0.00657845  0.0445561 -1.11142 0.0050447  0.07215 -1.1804 0.0051167  0.0441635 -1.11298 0.00256395  0.0290101 -1.16145 0.00135016  0.0864823 -1.13312 0.00379705  0.029351 -1.15992 0.00369  0.0568528 -1.22929 0.00367332  0.0135546 -1.20855 0.0023272  0.0408082 -1.27836 0.00221872  0.0132768 -1.21001 0.000115156  -0.00311208 -1.2588 -0.00109363  0.056541 -1.23069 0.001194  -0.002882 -1.25738 0.000983953  0.0242913 -1.32749 0.000802517  -0.0198402 -1.30629 -0.000360966  0.00711012 -1.37675 -0.00061512  -0.020016 -1.30764 -0.00231767  -0.0374823 -1.35667 -0.00351954  0.0240898 -1.3288 -0.00138426  -0.0373526 -1.35534 -0.00168729  -0.0104637 -1.42603 -0.00201368  -0.0553076 -1.40443 -0.00301576  -0.0286283 -1.47539 -0.00341964  -0.0553775 -1.40569 -0.00473619  -0.0737853 -1.45485 -0.00592542  -0.0105634 -1.42724 -0.00393534  -0.0737588 -1.45361 -0.00432348  -0.0471246 -1.52473 -0.00478196  -0.0925927 -1.50281 -0.00562596  -0.0661421 -1.57412 -0.00614452  -0.0925689 -1.50398 -0.00712371  -0.111781 -1.55322 -0.00829816  -0.0471256 -1.52587 -0.00645089  -0.111845 -1.55206 -0.00690866  -0.0854275 -1.62347 -0.00748086  -0.131413 -1.60129 -0.00818658  -0.105165 -1.67283 -0.00882077  -0.131296 -1.60239 -0.00947952  -0.151196 -1.65162 -0.0106354  -0.0853372 -1.62453 -0.00891876  -0.151349 -1.65055 -0.00944519  -0.125122 -1.72212 -0.010119  -0.171556 -1.69976 -0.0106919  -0.145476 -1.77142 -0.0114133  -0.171359 -1.70079 -0.0117927  -0.191834 -1.74998 -0.0129278  -0.124947 -1.72312 -0.0113399  -0.192062 -1.74897 -0.0119197  -0.16599 -1.82062 -0.0126805  -0.21278 -1.79812 -0.0131416  -0.186845 -1.8698 -0.0139492  -0.212505 -1.79908 -0.0140665  -0.233457 -1.84819 -0.0151765  -0.165737 -1.82155 -0.0137055  -0.233761 -1.84725 -0.014339  -0.207822 -1.91887 -0.0151691  -0.254913 -1.89629 -0.0155206  -0.22909 -1.96791 -0.0163844  -0.254575 -1.89719 -0.0162835  -0.275907 -1.94619 -0.0173678  -0.2075 -1.91975 -0.0160105  -0.276269 -1.9453 -0.0166829  -0.250433 -2.01683 -0.0175703  -0.297748 -1.99421 -0.0178328  -0.272018 -2.0657 -0.0187535  -0.297348 -1.99506 -0.0184512  -0.31898 -2.04391 -0.0195038  -0.25005 -2.01766 -0.0182498  -0.319401 -2.04308 -0.0189586  -0.293651 -2.11445 -0.019886  -0.34115 -2.09184 -0.0200632  -0.315486 -2.16314 -0.0210118  -0.340702 -2.09264 -0.0205512  -0.362555 -2.14134 -0.0215719  -0.293214 -2.11523 -0.0204184  -0.363019 -2.14054 -0.0211475  -0.33733 -2.2117 -0.0221035  -0.384945 -2.18913 -0.0222173  -0.359332 -2.26019 -0.023195  -0.384451 -2.18989 -0.022589  -0.406463 -2.2384 -0.0235765  -0.336847 -2.21244 -0.0225084  -0.406968 -2.23766 -0.0232632  -0.381327 -2.30856 -0.0242302  -0.42903 -2.28607 -0.0242834  -0.403449 -2.35686 -0.0252571  -0.428508 -2.28679 -0.024554  -0.450615 -2.33513 -0.0255053  -0.380809 -2.30928 -0.0245214  -0.451147 -2.33441 -0.0252836  -0.425531 -2.40505 -0.0262468  -0.473269 -2.38264 -0.026264  -0.447701 -2.45315 -0.0272372  -0.472715 -2.38333 -0.0264504  -0.49487 -2.43149 -0.0273664  -0.424984 -2.40573 -0.0264482  -0.495427 -2.4308 -0.0272248  -0.469829 -2.50116 -0.0281734  -0.517582 -2.47885 -0.028157  -0.49201 -2.54909 -0.0290987  -0.517015 -2.47953 -0.0282731  -0.539168 -2.52751 -0.0291572  -0.46926 -2.50183 -0.0282962  -0.539739 -2.52683 -0.0290742  -0.51414 -2.59695 -0.0299983  -0.561873 -2.57473 -0.0299761  -0.536292 -2.64474 -0.0309062  -0.561292 -2.57539 -0.0300369  -0.583427 -2.62322 -0.0308993  -0.513558 -2.59762 -0.0300663  -0.584005 -2.62256 -0.0308712  -0.558415 -2.6925 -0.0317807  -0.606132 -2.67033 -0.0317543  -0.580553 -2.74022 -0.0326638  -0.605554 -2.67099 -0.031764  -0.627673 -2.71874 -0.0326197  -0.55783 -2.69317 -0.0317962  -0.628243 -2.71806 -0.0326388  -0.00373321 -0.00676743 -0.00573039  -0.00467245 -0.011489 -0.00693822  -0.0129043 -0.018352 -0.0103338  -0.00501605 -0.0120105 -0.00470424  -0.0208291 -0.0292972 -0.00812697  -0.0205696 -0.0257162 -0.00549579  0 0 0  -0.0198262 -0.0244398 -0.00813508  0 0 0  0 0 0  -0.00364531 -0.00687648 -0.00358987  0 0 0  -0.037357 -0.0385736 -0.0148544  -0.0204052 -0.027955 -0.0125725  -0.0252493 -0.0302567 -0.0140166  -0.0356532 -0.0390396 -0.0167966  -0.0383502 -0.0424664 -0.0167234  -0.0362269 -0.0409181 -0.010951  -0.0520831 -0.0533494 -0.013046  -0.0537672 -0.0496684 -0.0128853  -0.0523238 -0.0474125 -0.0193567  -0.0254683 -0.031902 -0.00909185  -0.0699138 -0.0595385 -0.0234132  -0.0514165 -0.0508067 -0.019948  -0.052619 -0.0567265 -0.0184722  -0.0676155 -0.0631496 -0.0218725  -0.0664293 -0.0717877 -0.0194294  -0.0681737 -0.0659927 -0.0142932  -0.0844374 -0.0802146 -0.0151801  -0.0880201 -0.0730325 -0.0167208  -0.0869636 -0.0700233 -0.0254087  -0.052885 -0.0592066 -0.0120091  -0.105436 -0.0835834 -0.0268674  -0.0838999 -0.0772174 -0.0230079  -0.0808467 -0.089311 -0.019753  -0.100562 -0.0931828 -0.0233617  -0.0951792 -0.10831 -0.0196121  -0.101071 -0.0962561 -0.0153804  -0.117781 -0.113947 -0.015389  -0.124482 -0.101192 -0.0179112  -0.123766 -0.0979789 -0.0271642  -0.0812801 -0.0920392 -0.0129783  -0.142514 -0.114534 -0.0269594  -0.117231 -0.110938 -0.023175  -0.109938 -0.12932 -0.0191581  -0.134176 -0.130676 -0.0226562  -0.124898 -0.151903 -0.0184822  -0.134781 -0.133625 -0.0150185  -0.151822 -0.154779 -0.0145619  -0.161947 -0.135995 -0.0174236  -0.161325 -0.132889 -0.0263145  -0.11057 -0.131972 -0.0126915  -0.180049 -0.152808 -0.025291  -0.151143 -0.152004 -0.0218205  -0.140194 -0.176136 -0.01771  -0.168339 -0.175108 -0.0209165  -0.155763 -0.201795 -0.0168467  -0.169082 -0.177755 -0.0139458  -0.186401 -0.202045 -0.0133233  -0.199631 -0.177468 -0.0161285  -0.198963 -0.174665 -0.0242417  -0.140984 -0.178564 -0.011807  -0.217647 -0.197786 -0.0229747  -0.185586 -0.199583 -0.0198679  -0.171644 -0.228901 -0.016021  -0.20306 -0.225633 -0.0188982  -0.1878 -0.25725 -0.015187  -0.20391 -0.227949 -0.0126865  -0.221498 -0.255027 -0.0120749  -0.23733 -0.225154 -0.0146337  -0.236589 -0.222693 -0.0218601  -0.172547 -0.231058 -0.0107667  -0.25533 -0.248734 -0.0206032  -0.220603 -0.252899 -0.0178754  -0.204279 -0.286899 -0.0144584  -0.238409 -0.281565 -0.0169923  -0.221018 -0.317651 -0.0137472  -0.239303 -0.283563 -0.0115232  -0.25723 -0.313165 -0.0110219  -0.275152 -0.278478 -0.0132332  -0.274375 -0.27636 -0.0195954  -0.205216 -0.288795 -0.00982857  -0.29329 -0.305014 -0.0185258  -0.256319 -0.311314 -0.0161185  -0.238104 -0.349591 -0.0131609  -0.274521 -0.34233 -0.0154011  -0.255451 -0.382513 -0.0126131  -0.2754 -0.344065 -0.0106056  -0.293718 -0.375934 -0.0102358  -0.313298 -0.336905 -0.012115  -0.312528 -0.335069 -0.0176933  -0.239026 -0.351253 -0.00910997  -0.33172 -0.366082 -0.0168087  -0.292849 -0.374333 -0.0147045  -0.273152 -0.416505 -0.0121939  -0.311498 -0.407469 -0.0141568  -0.291112 -0.451387 -0.0118103  -0.312317 -0.408983 -0.00995946  -0.331096 -0.442915 -0.00973845  -0.351967 -0.399933 -0.0112786  -0.35125 -0.398339 -0.0161643  -0.274004 -0.417975 -0.00864935  -0.370789 -0.431465 -0.0155091  -0.330301 -0.441494 -0.0136499  -0.309434 -0.487245 -0.0115402  -0.349432 -0.476551 -0.0132754  -0.328016 -0.523901 -0.0113082  -0.350165 -0.4779 -0.00960135  -0.369417 -0.513683 -0.00950623  -0.391304 -0.467124 -0.0107644  -0.390662 -0.465707 -0.0150456  -0.310199 -0.488558 -0.00844812  -0.410591 -0.500754 -0.0145535  -0.368724 -0.512423 -0.0129318  -0.346947 -0.561431 -0.0111797  -0.38835 -0.549218 -0.0126984  -0.366131 -0.599684 -0.0110807  -0.388978 -0.550426 -0.00948429  -0.408732 -0.587893 -0.00951123  -0.431398 -0.538072 -0.0104973  -0.430854 -0.536805 -0.0142472  -0.3476 -0.562619 -0.00847793  -0.451187 -0.57358 -0.0139387  -0.408145 -0.586741 -0.0125041  -0.385652 -0.63873 -0.0110662  -0.428261 -0.625108 -0.0124047  -0.405417 -0.67842 -0.0110803  -0.428781 -0.626213 -0.00959635  -0.449011 -0.665185 -0.0097158  -0.472287 -0.612422 -0.0104864  -0.471838 -0.611263 -0.0137651  -0.386197 -0.639815 -0.00871539  -0.492578 -0.649609 -0.013572  -0.448538 -0.66414 -0.0123308  -0.425492 -0.718813 -0.0111697  -0.469121 -0.703919 -0.0123341  -0.445791 -0.759789 -0.0112808  -0.469531 -0.704931 -0.00988817  -0.490227 -0.745265 -0.0101006  -0.513963 -0.689832 -0.0106556  -0.513618 -0.688771 -0.0135169  -0.42592 -0.719817 -0.00912523  -0.534742 -0.728526 -0.0134647  -0.489859 -0.744288 -0.0123718  -0.466379 -0.801398 -0.011456  -0.510877 -0.785337 -0.0124793  -0.487169 -0.843519 -0.0116546  -0.511183 -0.786283 -0.0103571  -0.532291 -0.827825 -0.010639  -0.556386 -0.770008 -0.0110257  -0.556138 -0.769016 -0.0135114  -0.466703 -0.802332 -0.00969195  -0.577621 -0.810046 -0.0135381  -0.53203 -0.826922 -0.0126045  -0.508215 -0.8862 -0.0119112  -0.553442 -0.869103 -0.0127866  -0.529439 -0.92934 -0.0121832  -0.553647 -0.869986 -0.0109589  -0.575143 -0.912616 -0.0113125  -0.599503 -0.852657 -0.0115271  -0.599352 -0.851732 -0.0136731  -0.508434 -0.887079 -0.0103929  -0.621155 -0.893894 -0.0138121  -0.574975 -0.911755 -0.0129979  -0.550892 -0.972978 -0.012501  -0.596732 -0.954945 -0.0132616  -0.572499 -1.01701 -0.0128407  -0.596847 -0.955783 -0.011698  -0.618662 -0.999362 -0.0121036  -0.643237 -0.937521 -0.0121861  -0.643169 -0.936641 -0.0140264  -0.551021 -0.973806 -0.0112123  -0.665254 -0.979822 -0.0142195  -0.618588 -0.998558 -0.01354  -0.594299 -1.06148 -0.0132256  -0.640644 -1.04263 -0.0138624  -0.616227 -1.1063 -0.0136228  -0.64067 -1.04343 -0.012538  -0.662776 -1.08785 -0.0130007  -0.687504 -1.02434 -0.0129423  -0.687521 -1.02351 -0.0145044  -0.594335 -1.06227 -0.0121343  -0.70984 -1.06758 -0.0147934  -0.662781 -1.08708 -0.014209  -0.638322 -1.15151 -0.0140545  -0.685086 -1.13194 -0.0145969  -0.660522 -1.19701 -0.0145035  -0.685035 -1.1327 -0.0134881  -0.707362 -1.17786 -0.0139899  -0.73222 -1.1129 -0.0138292  -0.732307 -1.11211 -0.0151408  -0.638283 -1.15226 -0.0131509  -0.754816 -1.15697 -0.0154691  -0.707445 -1.17712 -0.0149965  -0.682852 -1.24283 -0.0149891  -0.729946 -1.22266 -0.01543  -0.705258 -1.28892 -0.0154848  -0.729822 -1.22338 -0.0145156  -0.752338 -1.26918 -0.0150652  -0.777289 -1.20297 -0.0147882  -0.777448 -1.20222 -0.0158744  -0.682734 -1.24356 -0.0142462  -0.8001 -1.24775 -0.0162849  -0.752486 -1.26846 -0.0158863  -0.727773 -1.33528 -0.0160086  -0.775134 -1.31458 -0.0163729  -0.750343 -1.38186 -0.0165467  -0.774947 -1.31528 -0.0156312  -0.797583 -1.36162 -0.0162108  -0.822621 -1.29436 -0.0158539  -0.822839 -1.29363 -0.0167391  -0.727595 -1.33598 -0.0154142  -0.845592 -1.33975 -0.0171764  -0.797797 -1.36093 -0.0168715  -0.772986 -1.42867 -0.0171144  -0.820544 -1.40754 -0.017396  -0.79566 -1.47566 -0.0176899  -0.820295 -1.40821 -0.0168097  -0.843025 -1.455 -0.0174267  -0.868131 -1.38687 -0.0169733  -0.868408 -1.38617 -0.0176773  -0.772741 -1.42935 -0.0166464  -0.891217 -1.43278 -0.0181844  -0.843293 -1.45434 -0.0179398  -0.818388 -1.52285 -0.0182869  -0.866099 -1.50135 -0.0185094  -0.841131 -1.57017 -0.0188975  -0.865798 -1.50201 -0.0180573  -0.888566 -1.54917 -0.0186956  -0.913736 -1.48032 -0.0181844  -0.914058 -1.47964 -0.0187297  -0.818094 -1.5235 -0.0179362  -0.936892 -1.52667 -0.0192559  -0.888887 -1.54853 -0.0190861  -0.863899 -1.61764 -0.0195277  -0.911709 -1.59587 -0.0196826  -0.88666 -1.66522 -0.0201681  -0.911361 -1.5965 -0.0193481  -0.934143 -1.64397 -0.0200179  -0.959363 -1.57455 -0.0194309  -0.959735 -1.57389 -0.019839  -0.863553 -1.61828 -0.0192709  -0.982556 -1.62125 -0.0204268  -0.934504 -1.64333 -0.0202971  -0.909436 -1.71292 -0.0208201  -0.957314 -1.69094 -0.0209293  -0.932192 -1.7607 -0.0214834  -0.956926 -1.69156 -0.0206947  -0.979676 -1.73924 -0.0213776  -1.00495 -1.66941 -0.02075  -1.00536 -1.66876 -0.0210395  -0.909051 -1.71355 -0.0206485  -1.02814 -1.71638 -0.0216393  -0.98008 -1.73863 -0.02157  -0.954935 -1.80856 -0.0221667  -1.00284 -1.78642 -0.0222247  -0.977646 -1.85647 -0.0228555  -1.00242 -1.78702 -0.0220714  -1.02513 -1.83488 -0.0227802  -1.05045 -1.76473 -0.0220926  -1.05089 -1.76411 -0.0222864  -0.954509 -1.80917 -0.022059  -1.07361 -1.81191 -0.0229397  -1.02556 -1.83427 -0.0228965  -1.00033 -1.90444 -0.0235565  -1.04825 -1.88219 -0.0235848  -1.02299 -1.95243 -0.0242693  -1.0478 -1.88278 -0.0234976  -1.07043 -1.93074 -0.02422  -1.0958 -1.86041 -0.0235031  -1.09627 -1.85979 -0.023618  -0.999885 -1.90504 -0.0235045  -1.11891 -1.90773 -0.0242791  -1.07089 -1.93015 -0.0242815  -1.0456 -2.00044 -0.0249953  -1.0935 -1.97814 -0.0249867  -1.06816 -2.04846 -0.0257261  -1.09302 -1.97872 -0.0249512  -1.11558 -2.02673 -0.0256925  -1.14099 -1.9563 -0.02493  -1.14148 -1.95571 -0.0249832  -1.04512 -2.00103 -0.0249794  -1.16402 -2.00371 -0.0256958  -1.11606 -2.02614 -0.0257101  -1.09068 -2.09648 -0.0264642  -1.13857 -2.07415 -0.0264432  -1.11316 -2.14448 -0.0272131  -1.13808 -2.07473 -0.026439  -1.16053 -2.12273 -0.0271881  -1.18599 -2.05232 -0.0264122  -1.18649 -2.05172 -0.0264251  -1.09019 -2.09706 -0.0264773  -1.20894 -2.09974 -0.0271428  -1.16103 -2.12216 -0.0271852  -1.13559 -2.19246 -0.0279689  -1.18344 -2.17015 -0.0279284  -1.15796 -2.24041 -0.0287311  -1.18294 -2.17071 -0.0279429  -1.20531 -2.21868 -0.0287049  -1.2308 -2.14833 -0.0279019  -1.23132 -2.14775 -0.0278895  -1.13508 -2.19303 -0.027993  -1.25368 -2.19574 -0.0286462  -1.20581 -2.2181 -0.0286865  -1.1803 -2.28832 -0.0294898  -1.22814 -2.26603 -0.0294471  -1.2026 -2.33619 -0.0302548  -1.22764 -2.2666 -0.0294685  -1.24993 -2.31449 -0.0302277  -1.27546 -2.24427 -0.0294297  -1.27597 -2.24369 -0.0294082  -1.1798 -2.2889 -0.0295198  -1.29827 -2.29162 -0.030158  -1.25043 -2.31393 -0.0302117  -1.22487 -2.38403 -0.0310173  -1.2727 -2.36178 -0.0309641  -1.24711 -2.43183 -0.0317714  -1.2722 -2.36234 -0.0309885  -1.29448 -2.41017 -0.0317423  -1.32003 -2.34007 -0.0309427  -1.32054 -2.3395 -0.0309236  -1.22436 -2.3846 -0.0310447  -1.34281 -2.38735 -0.0316737  -1.29496 -2.4096 -0.0317183  -0.00179185 -0.00241417 -0.00348592  -0.00218859 -0.0040168 -0.00454736  -0.0059116 -0.0090052 -0.00643992  -0.00220942 -0.00432871 -0.00295901  -0.0081166 -0.0134421 -0.00547194  0 0 0  0 0 0  -0.00182876 -0.0027045 -0.00218511  0 0 0  -0.00771771 -0.0122548 -0.00826454  -0.0117251 -0.0198644 -0.00897241  -0.0169372 -0.0239424 -0.0114164  -0.0192669 -0.0335684 -0.0107667  -0.0171377 -0.0253578 -0.00735378  -0.0277696 -0.0390521 -0.00892043  -0.0117405 -0.0211593 -0.00566435  -0.0274449 -0.037151 -0.0137248  -0.0277152 -0.0489789 -0.0118899  -0.038726 -0.0519967 -0.0151224  -0.0368712 -0.0665016 -0.0126109  -0.0389218 -0.0541183 -0.00978088  -0.0508771 -0.0709787 -0.010469  -0.0278282 -0.0509045 -0.0076766  -0.0505666 -0.0685971 -0.0159702  -0.0465312 -0.0858143 -0.0127816  -0.0625225 -0.0869631 -0.0162039  -0.0565932 -0.106862 -0.0127189  -0.0628855 -0.0894404 -0.0106225  -0.075399 -0.109645 -0.0106363  -0.046828 -0.088067 -0.00836301  -0.0749259 -0.10715 -0.0161171  -0.0671361 -0.129728 -0.0124168  -0.0875597 -0.129074 -0.0157363  -0.0781237 -0.154176 -0.0119872  -0.088139 -0.131558 -0.0104032  -0.101299 -0.155063 -0.0100794  -0.0676835 -0.132039 -0.00818729  -0.100622 -0.152667 -0.0151861  -0.0896226 -0.180259 -0.0114965  -0.114052 -0.177847 -0.0145688  -0.101649 -0.207764 -0.0109544  -0.114831 -0.180166 -0.00970411  -0.128736 -0.206685 -0.00926042  -0.0903897 -0.182457 -0.00764203  -0.127893 -0.204487 -0.0138633  -0.114189 -0.236671 -0.0104454  -0.142149 -0.232529 -0.0132053  -0.127276 -0.266852 -0.00993061  -0.143054 -0.234613 -0.00887704  -0.157735 -0.263802 -0.00846386  -0.115083 -0.238687 -0.00701785  -0.156801 -0.261838 -0.0125318  -0.14086 -0.298253 -0.00950933  -0.171877 -0.292394 -0.0119662  -0.154982 -0.330785 -0.00909948  -0.172835 -0.294249 -0.00816107  -0.18829 -0.325822 -0.00784349  -0.141804 -0.300072 -0.0065074  -0.187339 -0.324077 -0.0114086  -0.169591 -0.364399 -0.00879169  -0.203221 -0.356881 -0.0109639  -0.184701 -0.399024 -0.00850606  -0.204158 -0.35852 -0.00764155  -0.220387 -0.392228 -0.00744367  -0.170509 -0.366031 -0.00617743  -0.21948 -0.390683 -0.0105505  -0.200281 -0.434616 -0.00833607  -0.236153 -0.425494 -0.0102582  -0.216337 -0.471105 -0.00818729  -0.237028 -0.426954 -0.00736046  -0.254022 -0.462591 -0.00728941  -0.201139 -0.436081 -0.00607157  -0.253191 -0.461206 -0.00999522  -0.232848 -0.508464 -0.00813437  -0.270632 -0.497829 -0.00983357  -0.249793 -0.546624 -0.00810528  -0.271411 -0.499139 -0.00731325  -0.289149 -0.536501 -0.00735521  -0.233607 -0.50979 -0.00617361  -0.288423 -0.535254 -0.00970626  -0.267171 -0.585563 -0.00817251  -0.306603 -0.573498 -0.0096755  -0.284956 -0.625211 -0.00825906  -0.307274 -0.574688 -0.00748181  -0.325731 -0.613607 -0.00762892  -0.267827 -0.586771 -0.00648117  -0.325113 -0.612465 -0.00967193  -0.30315 -0.665554 -0.00841737  -0.343992 -0.652167 -0.0097425  -0.321712 -0.70653 -0.00859523  -0.344548 -0.653256 -0.00784063  -0.363678 -0.693557 -0.00807238  -0.30369 -0.666667 -0.00695896  -0.363177 -0.692509 -0.00984025  -0.340648 -0.748124 -0.00884342  -0.382705 -0.733506 -0.0100095  -0.359925 -0.790273 -0.00910592  -0.38315 -0.734516 -0.00836253  -0.402906 -0.776056 -0.00867271  -0.341082 -0.749154 -0.00759435  -0.402514 -0.77508 -0.0101981  -0.379544 -0.832969 -0.00942183  -0.422635 -0.817237 -0.0104437  -0.399459 -0.876154 -0.00975466  -0.422968 -0.818176 -0.00902867  -0.44329 -0.860808 -0.00940323  -0.379866 -0.833933 -0.00835681  -0.443004 -0.859895 -0.0107098  -0.419679 -0.919824 -0.0101442  -0.463657 -0.90307 -0.0110321  -0.440166 -0.963916 -0.0105441  -0.46389 -0.903955 -0.00982118  -0.48472 -0.947557 -0.0102565  -0.419905 -0.92073 -0.00924468  -0.484531 -0.946694 -0.0113688  -0.460925 -1.00843 -0.0109794  -0.50565 -0.990771 -0.0117459  -0.481907 -1.05331 -0.0114291  -0.505786 -0.991605 -0.0107234  -0.527052 -1.03605 -0.0112054  -0.461052 -1.00929 -0.0102255  -0.526959 -1.03523 -0.012141  -0.503123 -1.09856 -0.0119255  -0.548483 -1.08009 -0.0125804  -0.524535 -1.14413 -0.0124283  -0.548532 -1.08089 -0.0117218  -0.570181 -1.12607 -0.0122523  -0.503166 -1.09938 -0.0113046  -0.570168 -1.12529 -0.013032  -0.546145 -1.19001 -0.012959  -0.592031 -1.17083 -0.0135136  -0.567911 -1.23616 -0.0135014  -0.591998 -1.17159 -0.0128062  -0.613959 -1.21741 -0.0133717  -0.546105 -1.19079 -0.0124543  -0.614026 -1.21666 -0.0140085  -0.589841 -1.28258 -0.0140781  -0.63617 -1.26278 -0.0145402  -0.611902 -1.32922 -0.0146616  -0.636064 -1.26351 -0.0139649  -0.65828 -1.30987 -0.0145674  -0.589731 -1.28333 -0.0136788  -0.658417 -1.30915 -0.01508  -0.634093 -1.37609 -0.0152674  -0.680778 -1.35576 -0.0156448  -0.656378 -1.42314 -0.0158803  -0.680603 -1.35646 -0.0151896  -0.703014 -1.40327 -0.0158203  -0.633911 -1.37681 -0.0149589  -0.703216 -1.40258 -0.0162206  -0.678762 -1.47038 -0.0165224  -0.72574 -1.44959 -0.0168252  -0.701217 -1.51776 -0.0171709  -0.725507 -1.45027 -0.0164716  -0.74806 -1.49746 -0.0171318  -0.678523 -1.47108 -0.0162957  -0.748317 -1.49678 -0.0174365  -0.723746 -1.56528 -0.0178311  -0.770953 -1.54413 -0.018065  -0.746316 -1.61292 -0.0185001  -0.770661 -1.54479 -0.0178049  -0.793306 -1.59227 -0.0184853  -0.72345 -1.56596 -0.0176702  -0.793618 -1.59161 -0.0187044  -0.768932 -1.66068 -0.0191903  -0.81632 -1.63922 -0.0193639  -0.791573 -1.70851 -0.0198839  -0.815982 -1.63986 -0.0191801  -0.838677 -1.68757 -0.0198808  -0.768591 -1.66134 -0.0190902  -0.839032 -1.68693 -0.0200303  -0.814238 -1.75642 -0.0205872  -0.861756 -1.73473 -0.0207086  -0.836902 -1.8044 -0.0212965  -0.861374 -1.73536 -0.0205905  -0.884076 -1.78323 -0.0213041  -0.813851 -1.75707 -0.0205328  -0.884475 -1.78261 -0.0213952  -0.859571 -1.85242 -0.0220253  -0.907187 -1.83054 -0.0221009  -0.882226 -1.90047 -0.0227563  -0.90677 -1.83116 -0.0220332  -0.929454 -1.87914 -0.0227647  -0.859151 -1.85305 -0.0220084  -0.929882 -1.87852 -0.0228107  -0.90487 -1.94854 -0.0234914  -0.95255 -1.92654 -0.0235281  -0.927483 -1.99663 -0.0242345  -0.952101 -1.92714 -0.0235033  -0.97473 -1.97517 -0.0242434  -0.904416 -1.94917 -0.0235012  -0.97519 -1.97457 -0.0242555  -0.95007 -2.04471 -0.0249898  -0.997794 -2.02262 -0.0249956  -0.972621 -2.09279 -0.0257483  -0.997319 -2.02321 -0.0249968  -1.01988 -2.07126 -0.0257523  -0.949593 -2.04532 -0.0250189  -1.02036 -2.07066 -0.0257421  -0.995136 -2.14084 -0.0265069  -1.04288 -2.1187 -0.0264888  -1.0176 -2.18887 -0.027271  -1.04239 -2.11928 -0.0265098  -1.06486 -2.16729 -0.0272686  -0.994636 -2.14145 -0.0265434  -1.06536 -2.1667 -0.0272441  -1.04002 -2.23687 -0.0280428  -1.08778 -2.21469 -0.0280075  -1.0624 -2.28483 -0.028815  -1.08728 -2.21527 -0.0280344  -1.10967 -2.26323 -0.0287998  -1.03951 -2.23747 -0.0280824  -1.11017 -2.26264 -0.028774  -1.08473 -2.33274 -0.0295813  -1.1325 -2.31056 -0.0295362  -1.10702 -2.3806 -0.0303519  -1.13199 -2.31113 -0.0295649  -1.15429 -2.359 -0.030328  -1.08421 -2.33333 -0.0296171  -1.1548 -2.35842 -0.030303  -1.12926 -2.42841 -0.0311251  -1.17705 -2.40623 -0.03107  -1.15148 -2.47616 -0.0318909  -1.17654 -2.40681 -0.0310934  -1.19879 -2.45459 -0.0318496  -1.12874 -2.429 -0.0311539  -1.1993 -2.45401 -0.0318329  -0.000530593 -0.00140956 -0.00150466  -0.000885721 -0.00164309 -0.00250459  -0.00169935 -0.00716448 -0.00286937  -0.000918176 -0.00196069 -0.00157928  -0.00330812 -0.0082857 -0.00298071  0 0 0  0 0 0  -0.000569321 -0.00171551 -0.000888109  0 0 0  -0.00301876 -0.00747234 -0.00461769  -0.00341889 -0.0177619 -0.00410914  -0.00699773 -0.0183359 -0.00646424  -0.00607094 -0.031362 -0.00500441  -0.007037 -0.0194311 -0.004004  -0.0120002 -0.0331475 -0.00504398  -0.00352451 -0.0187759 -0.00248003  -0.0116948 -0.0316934 -0.00783658  -0.00939152 -0.0477676 -0.00559664  -0.0178389 -0.0477634 -0.00868034  -0.0135326 -0.066449 -0.00599718  -0.0180169 -0.0494394 -0.00548911  -0.0247503 -0.0677689 -0.00597024  -0.0096198 -0.0492924 -0.00348902  -0.0244772 -0.0658538 -0.00925851  -0.0183325 -0.0871305 -0.00611401  -0.0317681 -0.0858977 -0.00939035  -0.023842 -0.109666 -0.00609946  -0.0321216 -0.0879274 -0.00605774  -0.0400757 -0.10989 -0.00607705  -0.0187128 -0.0890043 -0.00389123  -0.0396311 -0.10776 -0.00935912  -0.0300152 -0.13396 -0.0059588  -0.0479773 -0.13136 -0.00914383  -0.0369164 -0.159883 -0.00575089  -0.0485631 -0.133507 -0.00597095  -0.0576386 -0.158755 -0.00577307  -0.0305884 -0.135988 -0.00383615  -0.0569793 -0.156613 -0.00883222  -0.044515 -0.18739 -0.00553179  -0.0665231 -0.183429 -0.0084784  -0.0528862 -0.216365 -0.00526309  -0.0672981 -0.185524 -0.00560164  -0.0775716 -0.213764 -0.0053401  -0.0452567 -0.189415 -0.00360918  -0.0767481 -0.211717 -0.00807691  -0.0619578 -0.246713 -0.00505114  -0.0875605 -0.241373 -0.00772262  -0.0718125 -0.278378 -0.00482512  -0.0884572 -0.243333 -0.00517821  -0.0999505 -0.274218 -0.00496197  -0.0628074 -0.248639 -0.00336957  -0.0990438 -0.272336 -0.00736094  -0.0823508 -0.311239 -0.00469065  -0.111124 -0.304493 -0.00708389  -0.0936438 -0.345267 -0.00455332  -0.112057 -0.306283 -0.00487089  -0.124761 -0.339518 -0.00474095  -0.0832352 -0.313025 -0.00324988  -0.123841 -0.337802 -0.00681329  -0.105592 -0.380345 -0.00450373  -0.137143 -0.372174 -0.00663829  -0.118251 -0.416448 -0.0044651  -0.138056 -0.373795 -0.00472784  -0.151912 -0.40911 -0.00470352  -0.106454 -0.381975 -0.00328684  -0.151037 -0.407565 -0.00648427  -0.131527 -0.45347 -0.00453019  -0.165489 -0.443891 -0.00643039  -0.14546 -0.491396 -0.00460315  -0.16633 -0.445356 -0.00479031  -0.181296 -0.482524 -0.00487018  -0.132324 -0.45496 -0.00350904  -0.180496 -0.481118 -0.00639129  -0.159975 -0.530138 -0.00475502  -0.196032 -0.519186 -0.00644302  -0.175093 -0.569671 -0.00492144  -0.196785 -0.520518 -0.00504017  -0.212776 -0.559327 -0.00521946  -0.160684 -0.531498 -0.00390863  -0.212077 -0.558051 -0.0065186  -0.190748 -0.60992 -0.00517416  -0.228614 -0.597656 -0.0066762  -0.206952 -0.650863 -0.00543594  -0.229257 -0.598874 -0.00548029  -0.246218 -0.639141 -0.0057478  -0.191357 -0.611171 -0.00447464  -0.245623 -0.637964 -0.00684834  -0.223655 -0.692439 -0.00575995  -0.263089 -0.678936 -0.00709105  -0.240856 -0.734619 -0.00609589  -0.263627 -0.680058 -0.00607467  -0.281469 -0.72161 -0.00641942  -0.224159 -0.693594 -0.00518918  -0.280985 -0.720526 -0.00735331  -0.25851 -0.777354 -0.00650024  -0.299296 -0.762697 -0.00767541  -0.276611 -0.820614 -0.00690985  -0.299721 -0.763738 -0.00681758  -0.318379 -0.806423 -0.00722766  -0.25891 -0.778429 -0.00603771  -0.317999 -0.805409 -0.00801039  -0.295123 -0.86436 -0.00736475  -0.33708 -0.848638 -0.0083971  -0.314034 -0.90856 -0.00782824  -0.337404 -0.849611 -0.00767827  -0.356781 -0.893286 -0.00814581  -0.295422 -0.865365 -0.00699782  -0.356508 -0.89234 -0.00880027  -0.333309 -0.953179 -0.00834703  -0.376267 -0.936487 -0.00924993  -0.352933 -0.998187 -0.00886822  -0.376488 -0.937403 -0.00865531  -0.396518 -0.981941 -0.00917315  -0.333512 -0.954126 -0.00806189  -0.396336 -0.981042 -0.00970912  -0.372879 -1.04356 -0.00942612  -0.416699 -1.02599 -0.0102069  -0.393131 -1.08926 -0.0099895  -0.416831 -1.02686 -0.0097208  -0.437417 -1.07214 -0.0102818  -0.372991 -1.04445 -0.00921297  -0.43733 -1.07129 -0.0107176  -0.413659 -1.13527 -0.0105948  -0.458211 -1.11692 -0.0112648  -0.434448 -1.18157 -0.0112002  -0.458251 -1.11775 -0.0108747  -0.479334 -1.16367 -0.0114734  -0.413686 -1.13613 -0.0104418  -0.479325 -1.16286 -0.0118163  -0.455475 -1.22812 -0.011831  -0.500651 -1.20908 -0.0123985  -0.476722 -1.27491 -0.0124686  -0.500617 -1.20986 -0.0120933  -0.522099 -1.25632 -0.0127263  -0.455424 -1.22893 -0.0117328  -0.522171 -1.25555 -0.0129938  -0.498166 -1.32191 -0.0131385  -0.543864 -1.30226 -0.0136142  -0.519787 -1.3691 -0.0138066  -0.543752 -1.30301 -0.0133829  -0.56558 -1.34993 -0.0140414  -0.498042 -1.32269 -0.0130832  -0.565717 -1.34918 -0.0142362  -0.541572 -1.41647 -0.0144928  -0.587711 -1.3963 -0.014883  -0.563502 -1.46399 -0.0151818  -0.587538 -1.39702 -0.0147173  -0.609626 -1.44431 -0.0154014  -0.541384 -1.41722 -0.014478  -0.60983 -1.44359 -0.0155389  -0.585555 -1.51165 -0.0159025  -0.632053 -1.49103 -0.0162163  -0.607717 -1.55942 -0.0166218  -0.631814 -1.49173 -0.0161064  -0.654116 -1.53931 -0.0168123  -0.585307 -1.51237 -0.0159168  -0.654373 -1.53861 -0.0168974  -0.629975 -1.6073 -0.0173514  -0.67677 -1.58631 -0.0175934  -0.652313 -1.65527 -0.0180795  -0.676482 -1.58699 -0.0175285  -0.698922 -1.63479 -0.0182512  -0.629674 -1.608 -0.0173903  -0.699235 -1.63412 -0.018297  -0.674716 -1.70331 -0.0188305  -0.721747 -1.68201 -0.0190139  -0.697171 -1.7514 -0.0195801  -0.721406 -1.68267 -0.0189874  -0.743951 -1.73064 -0.0197234  -0.674368 -1.70399 -0.0188875  -0.744305 -1.72998 -0.0197325  -0.719667 -1.79955 -0.0203345  -0.766889 -1.77801 -0.0204625  -0.742193 -1.84772 -0.0210903  -0.76651 -1.77865 -0.0204654  -0.789096 -1.82672 -0.0212123  -0.719278 -1.80021 -0.0204048  -0.789494 -1.82608 -0.0211997  -0.764734 -1.89592 -0.0218661  -0.8121 -1.87419 -0.0219474  -0.787281 -1.94413 -0.0226359  -0.811679 -1.87482 -0.0219734  -0.834285 -1.92295 -0.0227294  -0.764307 -1.89657 -0.0219417  -0.83471 -1.92232 -0.0226946  -0.809827 -1.99233 -0.0234084  -0.857306 -1.97046 -0.0234513  -0.832364 -2.04053 -0.0241835  -0.856861 -1.97107 -0.0234907  -0.879432 -2.01921 -0.0242562  -0.809373 -1.99297 -0.0234878  -0.879892 -2.0186 -0.0242147  -0.854882 -2.08871 -0.0249724  -0.902444 -2.06673 -0.0249827  -0.877378 -2.13686 -0.0257568  -0.901967 -2.06733 -0.0250301  -0.924497 -2.11545 -0.0257995  -0.854402 -2.08933 -0.0250478  -0.924974 -2.11484 -0.0257506  -0.899843 -2.18498 -0.0265398  -0.947464 -2.16292 -0.0265214  -0.922276 -2.23305 -0.0273228  -0.946972 -2.16352 -0.0265698  -0.969422 -2.21158 -0.0273438  -0.899343 -2.18558 -0.0266073  -0.969921 -2.21098 -0.0273008  -0.944666 -2.28108 -0.028115  -0.992325 -2.25899 -0.0280797  -0.967016 -2.32906 -0.0289044  -0.991816 -2.25958 -0.0281231  -1.01419 -2.30756 -0.028898  -0.944153 -2.28169 -0.0281696  -1.01469 -2.30696 -0.0288584  -0.989316 -2.37699 -0.0296884  -1.03701 -2.35487 -0.0296323  -1.01158 -2.42485 -0.0304677  -1.03649 -2.35546 -0.0296688  -1.05877 -2.40333 -0.0304403  -0.988795 -2.37759 -0.0297306  -1.05929 -2.40274 -0.030412  -1.03378 -2.47265 -0.0312543  -1.08151 -2.45054 -0.0311875  -1.05594 -2.52037 -0.0320358  -1.08099 -2.45112 -0.0312161  -1.1032 -2.49887 -0.0319834  -1.03326 -2.47324 -0.031285  -1.10371 -2.49827 -0.0319619  0.000484541 -0.00232491 0.000393629  0.000125907 -0.00170988 -0.000564337  0.00166284 -0.00895065 0.000540733  9.94802e-05 -0.00200191 -0.00028348  0.000184387 -0.00826338 -0.000670671  0 0 0  0 0 0  0.000454679 -0.00262544 0.000360489  0 0 0  0.000449613 -0.00766566 -0.00114036  0.0033773 -0.0203976 0.000560999  0.000264063 -0.0187214 -0.00167394  0.00499457 -0.0345526 0.000551701  0.000122935 -0.0195992 -0.000873804  -0.000390738 -0.0335277 -0.00128484  0.00315157 -0.0212141 0.000560522  -1.09076e-05 -0.0324004 -0.00217724  0.00624895 -0.0519444 0.000457525  -0.00125349 -0.0493567 -0.00248313  0.00688758 -0.0714153 0.000376463  -0.00155339 -0.0507365 -0.00138283  -0.00336093 -0.0699812 -0.00162125  0.00584495 -0.0532209 0.000533104  -0.0029617 -0.0683859 -0.00275707  0.00672597 -0.0931391 0.000308037  -0.00549161 -0.0896088 -0.00283957  0.00574189 -0.116679 0.000276089  -0.00595078 -0.091352 -0.00166202  -0.00928569 -0.114557 -0.00169492  0.00620037 -0.0947781 0.000437021  -0.0087702 -0.112679 -0.00286746  0.00385684 -0.142051 0.000246525  -0.012788 -0.137528 -0.00280952  0.00104511 -0.16909 0.000259876  -0.0134075 -0.139457 -0.00169277  -0.0183342 -0.166035 -0.00162649  0.00322038 -0.143906 0.000371695  -0.0176699 -0.164052 -0.00270796  -0.00267756 -0.197715 0.000245571  -0.0233153 -0.19214 -0.00261164  -0.00738686 -0.227856 0.0002563  -0.0240696 -0.194097 -0.00162339  -0.0306398 -0.223687 -0.00154209  -0.00341123 -0.199628 0.000313282  -0.0298595 -0.221737 -0.00248265  -0.0129971 -0.259387 0.000200033  -0.0371942 -0.252698 -0.00241065  -0.0195835 -0.292282 0.00015974  -0.038028 -0.254583 -0.00157714  -0.0462477 -0.286848 -0.00154376  -0.0137804 -0.26126 0.000200033  -0.0454099 -0.285006 -0.00231695  -0.0270376 -0.326384 4.79221e-05  -0.054415 -0.318511 -0.00231266  -0.0354372 -0.361681 -6.34193e-05  -0.055272 -0.320276 -0.0016346  -0.0650885 -0.354906 -0.00168347  -0.0278326 -0.328153 -3.31402e-05  -0.0642528 -0.353199 -0.00230336  -0.0446601 -0.398029 -0.000258207  -0.0748529 -0.388932 -0.00238228  -0.0547705 -0.435421 -0.000449419  -0.0756755 -0.390557 -0.00184917  -0.0870265 -0.427268 -0.00198197  -0.0454246 -0.399676 -0.000411987  -0.0862312 -0.4257 -0.00245571  -0.0656533 -0.473723 -0.000720978  -0.09833 -0.463379 -0.00262618  -0.0773556 -0.512929 -0.00100183  -0.0990928 -0.464875 -0.00221968  -0.111863 -0.503403 -0.00244999  -0.0663562 -0.475246 -0.000933647  -0.111145 -0.501963 -0.00280595  -0.0897739 -0.552927 -0.00135899  -0.124627 -0.541346 -0.00306511  -0.102941 -0.593705 -0.00171804  -0.125299 -0.542717 -0.00276875  -0.139401 -0.582842 -0.00307298  -0.0903964 -0.55433 -0.00161695  -0.138771 -0.581517 -0.00332236  -0.116769 -0.635165 -0.00213933  -0.153531 -0.622385 -0.00366139  -0.131278 -0.677297 -0.00257254  -0.154111 -0.623651 -0.00345254  -0.169421 -0.66516 -0.00383997  -0.117301 -0.636464 -0.00243163  -0.168891 -0.663935 -0.00401044  -0.14639 -0.72002 -0.00306726  -0.184811 -0.706094 -0.00442386  -0.162113 -0.76332 -0.00356579  -0.185285 -0.707265 -0.00429201  -0.20171 -0.749983 -0.00473785  -0.146825 -0.721225 -0.0033803  -0.20128 -0.748845 -0.00483441  -0.178386 -0.807127 -0.0041101  -0.218257 -0.792126 -0.00530982  -0.195209 -0.851426 -0.00466418  -0.218636 -0.793218 -0.0052371  -0.236057 -0.836979 -0.00574708  -0.178727 -0.808254 -0.00443673  -0.235726 -0.835916 -0.00579333  -0.212523 -0.896163 -0.00526476  -0.253648 -0.880164 -0.00632477  -0.230325 -0.941316 -0.0058682  -0.253924 -0.881185 -0.00630522  -0.27225 -0.925848 -0.0068574  -0.21277 -0.897218 -0.00559831  -0.272013 -0.92485 -0.00685287  -0.248566 -0.986841 -0.0065043  -0.290783 -0.969928 -0.00743032  -0.267238 -1.03272 -0.00714922  -0.290969 -0.970891 -0.00744939  -0.310082 -1.01632 -0.0080514  -0.248722 -0.987837 -0.00683856  -0.309938 -1.01538 -0.00801468  -0.286293 -1.0789 -0.00783181  -0.329445 -1.06116 -0.00863886  -0.305722 -1.12539 -0.00851512  -0.329538 -1.06207 -0.00869322  -0.349355 -1.10816 -0.0093255  -0.286363 -1.07985 -0.00816035  -0.349296 -1.10726 -0.00925565  -0.325488 -1.17213 -0.00921679  -0.369452 -1.15364 -0.00991082  -0.345579 -1.21911 -0.0099268  -0.369468 -1.15451 -0.00998831  -0.389879 -1.20114 -0.0106587  -0.32548 -1.17302 -0.00953698  -0.389901 -1.20029 -0.0105693  -0.365955 -1.26631 -0.0106654  -0.410605 -1.24717 -0.0112565  -0.386603 -1.3137 -0.0114031  -0.41054 -1.24799 -0.011359  -0.431469 -1.29507 -0.0120497  -0.365871 -1.26716 -0.0109749  -0.431563 -1.29426 -0.0119383  -0.407496 -1.36126 -0.0121541  -0.452737 -1.34154 -0.0126495  -0.428618 -1.40898 -0.0129108  -0.452607 -1.34234 -0.012764  -0.473957 -1.38979 -0.0134833  -0.407346 -1.36208 -0.0124488  -0.474118 -1.389 -0.0133624  -0.44994 -1.45683 -0.0136876  -0.495672 -1.43662 -0.0140965  -0.471445 -1.5048 -0.0144627  -0.495473 -1.43738 -0.0142267  -0.517179 -1.48512 -0.0149572  -0.449726 -1.45761 -0.0139663  -0.517399 -1.48437 -0.014823  -0.493114 -1.55287 -0.0152454  -0.539265 -1.53223 -0.0155771  -0.514931 -1.60102 -0.016036  -0.539013 -1.53297 -0.0157089  -0.560986 -1.58093 -0.0164635  -0.492844 -1.55363 -0.0155067  -0.561263 -1.5802 -0.0163319  -0.536871 -1.64924 -0.0168386  -0.583362 -1.62825 -0.0171003  -0.55892 -1.69752 -0.0176392  -0.583052 -1.62896 -0.0172381  -0.605239 -1.67708 -0.017997  -0.536547 -1.64997 -0.0170782  -0.605564 -1.67638 -0.017859  -0.581065 -1.74584 -0.01844  -0.627841 -1.72456 -0.0186369  -0.603291 -1.79419 -0.0192449  -0.627489 -1.72524 -0.0187695  -0.649819 -1.77347 -0.0195432  -0.580698 -1.74655 -0.0186584  -0.65019 -1.77279 -0.0194144  -0.625579 -1.84256 -0.0200582  -0.672581 -1.82104 -0.0202019  -0.647917 -1.89094 -0.0208704  -0.672183 -1.82171 -0.0203338  -0.694613 -1.86998 -0.021106  -0.62517 -1.84324 -0.0202556  -0.69502 -1.86932 -0.0209794  -0.670294 -1.93931 -0.0216773  -0.717482 -1.91761 -0.0217717  -0.6927 -1.98767 -0.0224893  -0.717055 -1.91825 -0.0218906  -0.739524 -1.96654 -0.0226762  -0.669853 -1.93997 -0.0218506  -0.739966 -1.96589 -0.0225646  -0.715119 -2.03601 -0.0233085  -0.762445 -2.01416 -0.0233634  -0.737543 -2.08431 -0.0241265  -0.761984 -2.01479 -0.0234752  -0.784468 -2.06305 -0.0242567  -0.714648 -2.03665 -0.0234571  -0.784933 -2.06242 -0.0241535  -0.759964 -2.13259 -0.0249352  -0.807404 -2.11064 -0.0249534  -0.782379 -2.18081 -0.0257485  -0.806922 -2.11126 -0.0250473  -0.829374 -2.15945 -0.025836  -0.75947 -2.13322 -0.0250587  -0.829865 -2.15883 -0.0257537  -0.804772 -2.229 -0.0265627  -0.852292 -2.20698 -0.0265558  -0.827142 -2.27712 -0.0273728  -0.851786 -2.20759 -0.0266364  -0.874195 -2.2557 -0.0274158  -0.804258 -2.22962 -0.0266614  -0.8747 -2.25509 -0.0273471  -0.84948 -2.32519 -0.0281742  -0.897065 -2.30313 -0.0281448  -0.871791 -2.3732 -0.0289805  -0.896551 -2.30374 -0.028203  -0.918883 -2.35174 -0.0289884  -0.848956 -2.32581 -0.0282476  -0.9194 -2.35113 -0.0289435  -0.894052 -2.42114 -0.0297873  -0.941676 -2.39906 -0.0297403  -0.916274 -2.46901 -0.030591  -0.941148 -2.39965 -0.0297832  -0.963401 -2.44753 -0.03056  -0.893518 -2.42174 -0.0298362  -0.963922 -2.44693 -0.0305276  -0.938437 -2.5168 -0.031383  -0.9861 -2.49472 -0.0313156  -0.960556 -2.56451 -0.0321863  -0.985576 -2.49532 -0.0313411  -1.00773 -2.54305 -0.0321181  -0.937902 -2.51741 -0.03141  -1.00825 -2.54243 -0.0321071  0.00150941 -0.00489211 0.00219154  0.00112144 -0.00343561 0.00131035  0.0050822 -0.0135308 0.00373411  0.00110801 -0.00373262 0.00095439  0.00346853 -0.011366 0.00151229  0 0 0  0 0 0  0.00150231 -0.0052076 0.00154138  0 0 0  0.00371732 -0.0108768 0.00218272  0.010216 -0.0268543 0.0049293  0.00693299 -0.0232366 0.00288272  0.0160316 -0.0421622 0.00578094  0.00668535 -0.0239915 0.00209737  0.0102078 -0.0388559 0.00231862  0.00988989 -0.0275863 0.00340891  0.0106742 -0.0378774 0.0032351  0.0216424 -0.0606508 0.00614429  0.0139908 -0.0557989 0.00341368  0.0268393 -0.0808943 0.0063777  0.0135185 -0.0570289 0.00251389  0.016311 -0.0770935 0.00253773  0.0210665 -0.0618311 0.00431371  0.0168693 -0.0756588 0.00344062  0.0310867 -0.103412 0.00636911  0.0189243 -0.097773 0.00341678  0.0344204 -0.127719 0.00632977  0.0183306 -0.0993618 0.00254107  0.0194476 -0.123478 0.00250888  0.0304233 -0.104953 0.00452399  0.0200694 -0.121729 0.00335503  0.0366575 -0.153876 0.00618696  0.0202895 -0.147505 0.00326324  0.0377763 -0.181759 0.00603724  0.01961 -0.149312 0.00241995  0.0187456 -0.176893 0.00236511  0.0359595 -0.155653 0.00440025  0.0194349 -0.175004 0.00317383  0.0377903 -0.211264 0.00581956  0.0176116 -0.204081 0.00305915  0.0366449 -0.242363 0.00562263  0.0168751 -0.205959 0.00223112  0.0139579 -0.236621 0.00214577  0.0370795 -0.213129 0.00411248  0.0146984 -0.234725 0.00295258  0.0344224 -0.274885 0.00533557  0.0107945 -0.266774 0.00277758  0.0310397 -0.308821 0.00506473  0.0100242 -0.268616 0.00195408  0.00507069 -0.302032 0.0018084  0.0337002 -0.276726 0.0036912  0.00582886 -0.300211 0.0026145  0.0266216 -0.343995 0.00471544  -0.000105858 -0.334862 0.00238276  0.0211006 -0.380408 0.00438142  -0.000865281 -0.336619 0.00155783  -0.00779104 -0.372447 0.0013423  0.0259163 -0.345763 0.00314474  -0.00704962 -0.370733 0.0021584  0.014594 -0.417884 0.00397158  -0.0149223 -0.40766 0.0018549  0.0070411 -0.456422 0.00355887  -0.0156484 -0.409301 0.00103021  -0.0244304 -0.447232 0.000734568  0.0139209 -0.419537 0.00246525  -0.0237364 -0.445639 0.00155139  -0.00143147 -0.495878 0.00307631  -0.0334244 -0.484532 0.00117397  -0.0108641 -0.536244 0.00259829  -0.034086 -0.486055 0.000356436  -0.0446086 -0.525807 -1.40667e-05  -0.00204337 -0.49742 0.00164604  -0.0439835 -0.524332 0.000792742  -0.0211507 -0.577386 0.00205898  -0.0553465 -0.564914 0.000343323  -0.0323226 -0.619293 0.00151181  -0.0559325 -0.566321 -0.000458002  -0.0680532 -0.607637 -0.0008986  -0.021692 -0.578816 0.00069952  -0.0675089 -0.606269 -0.000109434  -0.0442766 -0.661865 0.000910759  -0.0804098 -0.648295 -0.000620842  -0.0570318 -0.705094 0.000309229  -0.0809053 -0.649605 -0.00140071  -0.0944941 -0.692258 -0.0019033  -0.0447344 -0.663201 -0.000366688  -0.0940412 -0.690987 -0.00113893  -0.0704995 -0.748878 -0.000339508  -0.108339 -0.734251 -0.00171089  -0.0846909 -0.793208 -0.000996828  -0.108745 -0.735467 -0.00245929  -0.12366 -0.779263 -0.00301981  -0.0708711 -0.75012 -0.00153923  -0.123296 -0.778077 -0.00228715  -0.0995256 -0.838013 -0.00169659  -0.138855 -0.82239 -0.00290895  -0.115008 -0.883281 -0.00239563  -0.13917 -0.823532 -0.00362563  -0.155285 -0.868297 -0.00423336  -0.0998099 -0.83918 -0.00281072  -0.155013 -0.867185 -0.0035367  -0.131068 -0.928938 -0.00312948  -0.171706 -0.91239 -0.00420451  -0.147707 -0.974976 -0.00386882  -0.171931 -0.913458 -0.00488067  -0.189114 -0.959042 -0.00553107  -0.131266 -0.930032 -0.00416279  -0.188929 -0.957996 -0.00487351  -0.164858 -1.02134 -0.00464058  -0.206628 -1.00395 -0.00557804  -0.182518 -1.06803 -0.00541019  -0.206765 -1.00496 -0.00621486  -0.2249 -1.05123 -0.00690055  -0.164972 -1.02238 -0.00558949  -0.224802 -1.05024 -0.00628543  -0.200629 -1.11498 -0.0062027  -0.243389 -1.09681 -0.00702333  -0.219188 -1.16218 -0.00700164  -0.243444 -1.09777 -0.00761628  -0.262408 -1.1446 -0.00833416  -0.200665 -1.11596 -0.00707364  -0.262389 -1.14366 -0.00776243  -0.23814 -1.2096 -0.00782108  -0.281749 -1.19075 -0.00852275  -0.25748 -1.25723 -0.00863767  -0.281726 -1.19166 -0.00907421  -0.301417 -1.23895 -0.00981617  -0.2381 -1.21053 -0.0086112  -0.301473 -1.23806 -0.00928736  -0.277157 -1.30503 -0.00947165  -0.321501 -1.28556 -0.0100737  -0.297165 -1.35298 -0.0103085  -0.321406 -1.28643 -0.0105803  -0.341711 -1.3341 -0.011343  -0.277045 -1.30591 -0.0101879  -0.341836 -1.33324 -0.0108588  -0.317461 -1.40106 -0.0111599  -0.36243 -1.38107 -0.0116594  -0.338037 -1.44927 -0.0120077  -0.362268 -1.3819 -0.0121245  -0.383098 -1.42986 -0.0129044  -0.317286 -1.40191 -0.0118008  -0.383288 -1.42904 -0.012464  -0.358853 -1.49757 -0.0128632  -0.404357 -1.47712 -0.0132804  -0.3799 -1.54595 -0.0137215  -0.404134 -1.47791 -0.0137  -0.425393 -1.52609 -0.014493  -0.358616 -1.49838 -0.0134356  -0.425641 -1.5253 -0.0140953  -0.401145 -1.5944 -0.0145879  -0.447095 -1.57357 -0.0149198  -0.422576 -1.6429 -0.0154476  -0.446816 -1.57433 -0.0152988  -0.468427 -1.62265 -0.0161006  -0.400855 -1.59518 -0.0150905  -0.468729 -1.6219 -0.0157449  -0.444163 -1.69144 -0.0163121  -0.490491 -1.67028 -0.0165803  -0.465896 -1.74 -0.0171804  -0.490161 -1.67101 -0.0169146  -0.512042 -1.71943 -0.017724  -0.443823 -1.69219 -0.0167544  -0.512389 -1.71871 -0.0174117  -0.487751 -1.78858 -0.0180507  -0.534386 -1.76716 -0.0182459  -0.509718 -1.83716 -0.0189149  -0.534014 -1.76787 -0.0185418  -0.556101 -1.81633 -0.0193546  -0.487368 -1.7893 -0.0184283  -0.556492 -1.81563 -0.0190825  -0.531769 -1.88573 -0.0197759  -0.578658 -1.8641 -0.0199199  -0.553899 -1.93429 -0.020638  -0.578246 -1.86479 -0.020174  -0.600473 -1.91325 -0.0209875  -0.531346 -1.88643 -0.0200973  -0.600899 -1.91257 -0.0207551  -0.576088 -1.98281 -0.0214994  -0.623178 -1.96103 -0.0215878  -0.598328 -2.03131 -0.022356  -0.622733 -1.96169 -0.0218053  -0.645053 -2.01012 -0.0226188  -0.575634 -1.98349 -0.0217645  -0.64551 -2.00946 -0.0224242  -0.620597 -2.07977 -0.0232058  -0.667851 -2.05786 -0.0232594  -0.642894 -2.12817 -0.0240581  -0.667378 -2.0585 -0.0234377  -0.689736 -2.10686 -0.0242496  -0.620115 -2.08042 -0.023423  -0.690216 -2.10622 -0.0240924  -0.665199 -2.17652 -0.0249071  -0.712575 -2.15453 -0.0249207  -0.687514 -2.22482 -0.0257494  -0.712079 -2.15516 -0.0250645  -0.734443 -2.20343 -0.0258722  -0.664696 -2.17716 -0.0250747  -0.734947 -2.20279 -0.0257502  -0.709818 -2.27305 -0.0265825  -0.757295 -2.251 -0.0265744  -0.732117 -2.32121 -0.0274162  -0.756777 -2.25162 -0.0266824  -0.779114 -2.29977 -0.027483  -0.709295 -2.27367 -0.02671  -0.779634 -2.29915 -0.0273955  -0.75439 -2.3693 -0.0282445  -0.801935 -2.34723 -0.028209  -0.776646 -2.41733 -0.0290682  -0.801408 -2.34784 -0.0282869  -0.823696 -2.39587 -0.0290828  -0.753857 -2.36992 -0.028331  -0.824225 -2.39525 -0.029026  -0.798863 -2.46528 -0.0298843  -0.846462 -2.44319 -0.0298374  -0.821049 -2.51315 -0.030705  -0.845925 -2.4438 -0.0298827  -0.868137 -2.49168 -0.0306759  -0.798321 -2.46589 -0.029937  -0.868671 -2.49107 -0.0306494  -0.843186 -2.56095 -0.031522  -0.890813 -2.53886 -0.0314527  -0.865274 -2.60868 -0.0323377  -0.890276 -2.53947 -0.0314722  -0.912378 -2.5872 -0.0322607  -0.842645 -2.56156 -0.0315371  -0.91291 -2.58658 -0.0322633  0.00278676 -0.0097214 0.00380421  0.00234218 -0.00695151 0.00306416  0.00949951 -0.0214825 0.0065825  0.00234707 -0.00731647 0.00209832  0.00728074 -0.0175564 0.00351644  0 0 0  0 0 0  0.0028196 -0.0100715 0.00261402  0 0 0  0.00748239 -0.0170547 0.00524521  0.0184537 -0.0374265 0.00882053  0.0143258 -0.0315926 0.00705791  0.0287704 -0.0542244 0.0104802  0.013984 -0.0323656 0.00480223  0.021597 -0.0486902 0.00563955  0.018035 -0.0382007 0.00594878  0.0221333 -0.0476967 0.00823116  0.0387029 -0.0736166 0.0113144  0.0299429 -0.0665946 0.00887394  0.0482307 -0.0945804 0.0118842  0.029304 -0.0678108 0.00612593  0.0364974 -0.0886834 0.00642133  0.0379799 -0.0748495 0.00775242  0.0371985 -0.0872557 0.00921273  0.0566672 -0.117563 0.0120146  0.0436314 -0.110008 0.00927782  0.0640006 -0.142455 0.0120211  0.042908 -0.11156 0.00648022  0.0482358 -0.136361 0.00647831  0.0558862 -0.119133 0.00833297  0.0489525 -0.134649 0.00921559  0.0701151 -0.169155 0.0118175  0.0531946 -0.161089 0.00904465  0.0749301 -0.197726 0.0115647  0.0524668 -0.162853 0.00634003  0.0554725 -0.19119 0.00620556  0.0693657 -0.170926 0.00822592  0.0561845 -0.189337 0.00883365  0.0785115 -0.227959 0.0112016  0.0580168 -0.219224 0.00853467  0.0807508 -0.259879 0.0108163  0.0572965 -0.221058 0.00596237  0.057891 -0.252604 0.00573587  0.077798 -0.229792 0.0077734  0.0585952 -0.250748 0.0082252  0.0817743 -0.293269 0.0103414  0.0580117 -0.283711 0.00784755  0.0814885 -0.32814 0.00987244  0.0573068 -0.285529 0.00540876  0.0555167 -0.319932 0.00511122  0.0810969 -0.295081 0.00710893  0.0562053 -0.318124 0.00747681  0.0800177 -0.364289 0.0093267  0.0532618 -0.353801 0.00702405  0.0772905 -0.401703 0.00877714  0.0525838 -0.355542 0.00472116  0.0485071 -0.392433 0.00434852  0.079375 -0.366028 0.00628424  0.0491599 -0.390724 0.00657463  0.0734298 -0.440212 0.00816107  0.0439788 -0.428726 0.00606322  0.0683926 -0.479807 0.00755382  0.0433474 -0.430366 0.00389624  0.0371019 -0.469397 0.00346184  0.0728368 -0.441861 0.00531816  0.0377076 -0.467799 0.00555968  0.062299 -0.520328 0.00688767  0.030416 -0.507798 0.00497913  0.055105 -0.561747 0.00621128  0.0298382 -0.509331 0.00294876  0.0215718 -0.550198 0.00244021  0.0617607 -0.521871 0.00423765  0.0221175 -0.5487 0.00440073  0.0469322 -0.603942 0.0054872  0.012882 -0.590375 0.00376749  0.0377525 -0.646901 0.0047648  0.0123798 -0.591808 0.0018692  0.00225103 -0.634213 0.00130439  0.0464629 -0.605391 0.00303388  0.00272059 -0.632817 0.00313807  0.0276753 -0.690503 0.00399756  -0.00829995 -0.675915 0.00244784  0.0166767 -0.734734 0.0032196  -0.0087297 -0.67725 0.000684023  -0.0205605 -0.720956 6.53267e-05  0.0272787 -0.691854 0.00173044  -0.020171 -0.719655 0.00176096  0.00486314 -0.779497 0.00240993  -0.0328155 -0.763935 0.00102806  -0.00778115 -0.824787 0.00159621  -0.0331578 -0.765184 -0.000605583  -0.0465332 -0.809976 -0.00127077  0.00454569 -0.780765 0.000328064  -0.0462266 -0.808755 0.000299692  -0.0211614 -0.870511 0.000756264  -0.060338 -0.85403 -0.000475645  -0.0352904 -0.916664 -9.41753e-05  -0.0606005 -0.855201 -0.00197816  -0.0753658 -0.900897 -0.00268435  -0.0213984 -0.871702 -0.00115013  -0.0751432 -0.899749 -0.00124812  -0.0500755 -0.963167 -0.000968456  -0.0905668 -0.945836 -0.00205588  -0.065528 -1.01003 -0.00184369  -0.0907422 -0.946941 -0.00343275  -0.106751 -0.993378 -0.00417376  -0.0502323 -0.964293 -0.00270104  -0.10661 -0.992295 -0.00285649  -0.0815654 -1.05717 -0.00273633  -0.123207 -1.03906 -0.00369334  -0.0981961 -1.10459 -0.0036366  -0.123306 -1.0401 -0.00494576  -0.140417 -1.08715 -0.00571632  -0.081645 -1.05823 -0.00430727  -0.140355 -1.08612 -0.00452638  -0.115337 -1.15223 -0.00455308  -0.157981 -1.13342 -0.00538301  -0.133 -1.2001 -0.00546741  -0.158001 -1.13441 -0.00651836  -0.17608 -1.18194 -0.00731349  -0.115342 -1.15324 -0.00596499  -0.176091 -1.18097 -0.00623298  -0.151111 -1.24814 -0.00639319  -0.194623 -1.22871 -0.00711036  -0.16968 -1.29635 -0.00732398  -0.194574 -1.22964 -0.00813246  -0.2135 -1.27756 -0.00894594  -0.151045 -1.2491 -0.00765896  -0.213583 -1.27664 -0.00798225  -0.188633 -1.34469 -0.00826049  -0.232897 -1.32471 -0.00886965  -0.207979 -1.39315 -0.00919604  -0.232774 -1.3256 -0.00978541  -0.252427 -1.37381 -0.0106146  -0.188498 -1.3456 -0.00938487  -0.252575 -1.37293 -0.00974989  -0.227654 -1.44171 -0.0101333  -0.272562 -1.42125 -0.0106511  -0.247667 -1.49035 -0.0110779  -0.272379 -1.42211 -0.011462  -0.292652 -1.47053 -0.0123014  -0.227458 -1.44258 -0.0111256  -0.292862 -1.46969 -0.0115435  -0.267954 -1.53904 -0.012022  -0.313411 -1.51819 -0.0124464  -0.288524 -1.5878 -0.0129621  -0.313166 -1.519 -0.0131614  -0.333955 -1.56757 -0.0140083  -0.267699 -1.53988 -0.0128882  -0.334221 -1.56676 -0.013339  -0.309321 -1.63658 -0.0139005  -0.355242 -1.61538 -0.0142477  -0.330354 -1.68538 -0.0148432  -0.354947 -1.61617 -0.014868  -0.376163 -1.66482 -0.0157197  -0.309014 -1.63738 -0.0146515  -0.37648 -1.66405 -0.0151463  -0.351568 -1.73419 -0.0157802  -0.397877 -1.71272 -0.0160491  -0.372971 -1.783 -0.0167134  -0.397531 -1.71347 -0.0165856  -0.419085 -1.76216 -0.0174389  -0.351213 -1.73496 -0.0164196  -0.419447 -1.76141 -0.0169439  -0.394518 -1.83179 -0.0176394  -0.441147 -1.8101 -0.0178475  -0.416214 -1.88056 -0.018568  -0.44076 -1.81083 -0.0183005  -0.462581 -1.85951 -0.0191507  -0.39412 -1.83253 -0.0181799  -0.462985 -1.85879 -0.0187407  -0.438015 -1.92929 -0.0194864  -0.484907 -1.90744 -0.0196333  -0.459929 -1.978 -0.0204008  -0.484481 -1.90814 -0.0200129  -0.506494 -1.95677 -0.0208588  -0.43758 -1.93001 -0.0199323  -0.50693 -1.95608 -0.0205157  -0.481915 -2.02664 -0.0213025  -0.529016 -2.00467 -0.0214033  -0.503984 -2.07524 -0.0222077  -0.52856 -2.00534 -0.0217125  -0.550709 -2.0539 -0.022552  -0.481449 -2.02733 -0.0216658  -0.551176 -2.05323 -0.0222809  -0.526097 -2.12377 -0.0231016  -0.573363 -2.10172 -0.0231547  -0.548261 -2.17225 -0.0239899  -0.572879 -2.10238 -0.0234022  -0.595104 -2.15082 -0.0242364  -0.525603 -2.12445 -0.0233853  -0.595594 -2.15016 -0.02402  -0.570446 -2.22065 -0.0248616  -0.617838 -2.19855 -0.0248864  -0.592661 -2.26899 -0.0257373  -0.617333 -2.19918 -0.0250747  -0.639595 -2.2475 -0.0258989  -0.569931 -2.2213 -0.0250795  -0.640107 -2.24687 -0.0257435  -0.614873 -2.31724 -0.0265987  -0.662361 -2.29511 -0.0265934  -0.637095 -2.36542 -0.0274549  -0.661837 -2.29573 -0.026732  -0.684094 -2.34391 -0.0275455  -0.61434 -2.31788 -0.0267544  -0.684621 -2.34329 -0.0274334  -0.659297 -2.41353 -0.0282967  -0.706859 -2.39139 -0.0282743  -0.681501 -2.46155 -0.0291429  -0.706325 -2.392 -0.0283647  -0.728558 -2.44004 -0.0291693  -0.658755 -2.41415 -0.0284026  -0.729093 -2.43942 -0.0291061  -0.703673 -2.50949 -0.0299745  -0.751284 -2.48736 -0.0299323  -0.725828 -2.55737 -0.0308051  -0.750741 -2.48797 -0.0299828  -0.772914 -2.53586 -0.030782  -0.703123 -2.51012 -0.0300317  -0.773454 -2.53524 -0.0307531  -0.747943 -2.60517 -0.0316269  -0.795579 -2.58304 -0.031579  -0.770043 -2.65291 -0.0324667  -0.795037 -2.58365 -0.0315895  -0.817131 -2.6314 -0.0323894  -0.747393 -2.60579 -0.0316453  -0.817663 -2.63078 -0.0324018  0.00468232 -0.0185839 0.00516105  0.00422185 -0.0133309 0.0046196  0.0167229 -0.0349196 0.0090332  0.0042083 -0.0138317 0.003088  0.0126166 -0.0282212 0.00526452  0 0 0  0 0 0  0.00478095 -0.0189958 0.00353861  0 0 0  0.0127228 -0.0275515 0.00789881  0.0302041 -0.0530338 0.0122375  0.0239588 -0.0444867 0.0106957  0.045056 -0.0712563 0.0146365  0.0235379 -0.0454186 0.00715756  0.0355079 -0.0633824 0.00858569  0.0296945 -0.0540775 0.00816083  0.0360772 -0.0621966 0.0126426  0.0592567 -0.0906678 0.0159931  0.0484108 -0.0816053 0.0137644  0.072569 -0.112072 0.0169241  0.0476577 -0.0829672 0.00937343  0.0590098 -0.104425 0.00996351  0.0584492 -0.0921908 0.0108631  0.059801 -0.102888 0.0144532  0.0848709 -0.135126 0.0172422  0.0703087 -0.125933 0.0146937  0.0957947 -0.160424 0.0173481  0.0694897 -0.127563 0.0101378  0.0787145 -0.152799 0.0102057  0.084033 -0.136862 0.0118523  0.0795032 -0.151048 0.0147114  0.105507 -0.187535 0.0171266  0.0874687 -0.177975 0.0145104  0.113754 -0.216705 0.0168123  0.0867023 -0.17975 0.010057  0.0933244 -0.208676 0.00986195  0.104737 -0.18936 0.0118244  0.0940552 -0.206851 0.0142064  0.120685 -0.247611 0.0163317  0.0993253 -0.237426 0.0137875  0.126148 -0.280301 0.0158088  0.0986184 -0.239233 0.00954247  0.102539 -0.271549 0.00920415  0.119983 -0.249429 0.0112612  0.103222 -0.26973 0.0133278  0.130266 -0.314537 0.0151856  0.105796 -0.303549 0.0127761  0.13294 -0.350292 0.0145364  0.105129 -0.30532 0.00877523  0.106382 -0.340624 0.00834179  0.129613 -0.316301 0.0104029  0.107024 -0.338863 0.0122092  0.134294 -0.387375 0.0138073  0.106969 -0.375478 0.0115726  0.134267 -0.425752 0.0130799  0.106348 -0.377182 0.00782728  0.105018 -0.415056 0.00731564  0.133691 -0.389066 0.00934386  0.105618 -0.413373 0.0109324  0.132974 -0.465257 0.0122833  0.103045 -0.452389 0.0102222  0.130369 -0.505846 0.0114808  0.102471 -0.454 0.00673532  0.0986986 -0.494067 0.00616431  0.132416 -0.466857 0.00813174  0.0992426 -0.492488 0.00951672  0.126577 -0.547363 0.0106318  0.0943007 -0.533508 0.00875759  0.121567 -0.589789 0.00978065  0.0937868 -0.535028 0.00552511  0.0877277 -0.576928 0.00489211  0.126078 -0.548879 0.00679731  0.0882161 -0.575434 0.00799727  0.115462 -0.632975 0.00888681  0.0810761 -0.61813 0.0071857  0.108218 -0.676909 0.00798678  0.0806235 -0.619557 0.00420046  0.0724624 -0.662977 0.00351381  0.115018 -0.63439 0.00535369  0.0728786 -0.661586 0.00637484  0.0999748 -0.721464 0.00705242  0.0637195 -0.70567 0.00552201  0.0907011 -0.766637 0.00611424  0.063343 -0.707005 0.00277805  0.0532484 -0.75169 0.00204349  0.0996048 -0.722792 0.00381708  0.0535942 -0.750379 0.004668  0.0805184 -0.812302 0.00514984  0.0425968 -0.795601 0.0037775  0.0693879 -0.858472 0.00418115  0.0422916 -0.796857 0.00126672  0.0304503 -0.84257 0.000492573  0.0802164 -0.813552 0.00219488  0.0307175 -0.841342 0.0028882  0.0574453 -0.905035 0.00318789  0.0180594 -0.887492 0.0019691  0.0446551 -0.95201 0.0021944  0.0178337 -0.888673 -0.000319242  0.00441277 -0.935227 -0.00112748  0.0572228 -0.906214 0.000504971  0.0046041 -0.934064 0.00104976  0.0311377 -0.999284 0.00118828  -0.00954592 -0.980963 0.000105858  0.0168499 -1.04689 0.000179052  -0.00969458 -0.982078 -0.00196719  -0.0245242 -1.0293 -0.00280261  0.0309882 -1.0004 -0.00124025  -0.0244114 -1.02821 -0.000834465  0.00192153 -1.09472 -0.000848532  -0.0398903 -1.0757 -0.00179601  -0.0136837 -1.14282 -0.00187349  -0.0399624 -1.07676 -0.00366712  -0.0560478 -1.12451 -0.00452614  0.00185168 -1.09578 -0.00302911  -0.0560074 -1.12347 -0.0027554  -0.0298533 -1.19109 -0.00290418  -0.0726613 -1.17143 -0.00373173  -0.0466328 -1.23955 -0.00393701  -0.0726622 -1.17244 -0.00540781  -0.0898473 -1.2206 -0.00628448  -0.0298555 -1.19209 -0.00485635  -0.0898812 -1.21961 -0.004704  -0.0639021 -1.28813 -0.00497866  -0.107567 -1.26793 -0.00568819  -0.0817001 -1.33687 -0.00601482  -0.107496 -1.26888 -0.0071826  -0.125652 -1.31735 -0.00807309  -0.0638304 -1.28908 -0.00670958  -0.125751 -1.31641 -0.00666952  -0.0999196 -1.38567 -0.00705171  -0.144336 -1.36499 -0.00765944  -0.118609 -1.43458 -0.00808644  -0.144199 -1.3659 -0.00898051  -0.163187 -1.41458 -0.00987959  -0.0997858 -1.38658 -0.00858212  -0.163354 -1.41369 -0.00864315  -0.137659 -1.48353 -0.00912547  -0.182712 -1.46245 -0.0096302  -0.157105 -1.53256 -0.0101593  -0.182513 -1.46332 -0.0107918  -0.20222 -1.51215 -0.0116978  -0.137458 -1.4844 -0.0104616  -0.202444 -1.51129 -0.0106175  -0.176855 -1.58158 -0.0111854  -0.222461 -1.56016 -0.0116067  -0.196953 -1.63064 -0.0122087  -0.222204 -1.56099 -0.0126138  -0.242514 -1.60989 -0.0135183  -0.176602 -1.58241 -0.0123444  -0.242796 -1.60907 -0.0125861  -0.217301 -1.67969 -0.0132298  -0.263364 -1.65799 -0.0135667  -0.237933 -1.72874 -0.0142455  -0.263055 -1.65879 -0.0144346  -0.28387 -1.70772 -0.0153403  -0.216993 -1.68048 -0.0142202  -0.284199 -1.70693 -0.0145428  -0.258768 -1.77776 -0.0152512  -0.305221 -1.75585 -0.0155187  -0.279847 -1.82676 -0.0162532  -0.304865 -1.75661 -0.0162528  -0.326087 -1.80552 -0.017153  -0.258415 -1.77852 -0.0160902  -0.326463 -1.80476 -0.016484  -0.301086 -1.8757 -0.0172482  -0.34785 -1.85364 -0.0174456  -0.322513 -1.92462 -0.0182345  -0.347451 -1.85437 -0.0180604  -0.369002 -1.90322 -0.0189552  -0.300687 -1.87644 -0.0179427  -0.369415 -1.90249 -0.0184011  -0.344061 -1.97346 -0.019208  -0.391085 -1.95128 -0.0193493  -0.365768 -2.02225 -0.0201731  -0.39065 -1.95199 -0.0198524  -0.412446 -2.00074 -0.0207355  -0.343626 -1.97417 -0.0197759  -0.412898 -2.00004 -0.0202873  -0.387558 -2.07097 -0.0211301  -0.43478 -2.04873 -0.0212169  -0.409462 -2.11962 -0.0220773  -0.434313 -2.04941 -0.0216222  -0.456292 -2.09804 -0.0224957  -0.387087 -2.07165 -0.0215821  -0.456769 -2.09736 -0.0221412  -0.431419 -2.16819 -0.0230067  -0.4788 -2.14592 -0.0230567  -0.453467 -2.21668 -0.0239303  -0.478306 -2.14658 -0.0233703  -0.500402 -2.19507 -0.0242283  -0.430925 -2.16885 -0.0233581  -0.500906 -2.19441 -0.0239608  -0.475542 -2.26509 -0.0248425  -0.52303 -2.24282 -0.0248528  -0.497665 -2.31343 -0.0257423  -0.522514 -2.24346 -0.0250885  -0.544679 -2.29181 -0.0259337  -0.475021 -2.26574 -0.0251007  -0.545201 -2.29116 -0.0257375  -0.519794 -2.36167 -0.026624  -0.567368 -2.33941 -0.0266135  -0.541958 -2.40983 -0.0274987  -0.566835 -2.34004 -0.0267801  -0.589022 -2.38822 -0.0276096  -0.519259 -2.3623 -0.0268097  -0.58956 -2.38759 -0.0274782  -0.564108 -2.4579 -0.0283644  -0.61173 -2.43568 -0.0283313  -0.586263 -2.5059 -0.0292211  -0.611187 -2.4363 -0.02844  -0.633367 -2.48433 -0.0292602  -0.563558 -2.45853 -0.0284827  -0.63391 -2.4837 -0.0291824  -0.608397 -2.55382 -0.0300605  -0.656061 -2.53163 -0.030021  -0.630535 -2.60167 -0.0308986  -0.655511 -2.53225 -0.0300784  -0.677657 -2.58012 -0.0308862  -0.607844 -2.55445 -0.0301278  -0.678207 -2.5795 -0.0308566  -0.652652 -2.64946 -0.0317349  -0.700321 -2.62729 -0.0316854  -0.67476 -2.69721 -0.0325699  -0.699768 -2.62791 -0.0316987  -0.721863 -2.67568 -0.0325089  -0.652092 -2.65009 -0.0317504  -0.722409 -2.67504 -0.0325224  0.00821107 -0.0349414 0.00659585  0.00753912 -0.0250857 0.00595903  0.0306321 -0.0587762 0.010885  0.00740907 -0.0258187 0.00387692  0.021309 -0.046772 0.00670433  0 0 0  0 0 0  0.0080055 -0.0353999 0.00441241  0 0 0  0.021255 -0.0457203 0.0100551  0.049984 -0.0737686 0.015672  0.0383979 -0.0628385 0.0138485  0.0663444 -0.0925846 0.018604  0.0379219 -0.0641156 0.00924325  0.0540533 -0.0830944 0.0112174  0.049095 -0.0758038 0.0101879  0.05461 -0.0815623 0.0165288  0.0842088 -0.110897 0.020469  0.0709974 -0.100477 0.0182323  0.100391 -0.132263 0.0216787  0.0701864 -0.102178 0.0123775  0.0852134 -0.12361 0.0132227  0.0835044 -0.112984 0.0137794  0.0860275 -0.121877 0.0192716  0.116126 -0.15539 0.0221291  0.100058 -0.144967 0.0197251  0.130425 -0.181005 0.022295  0.0991995 -0.146776 0.0135381  0.11195 -0.172206 0.0136838  0.115323 -0.157345 0.0151403  0.112762 -0.170399 0.0198419  0.143494 -0.208656 0.022074  0.124124 -0.197772 0.0196474  0.155067 -0.238454 0.0217052  0.123328 -0.199596 0.0135443  0.133338 -0.229043 0.0133147  0.142705 -0.210502 0.0151923  0.134082 -0.22723 0.0192995  0.165206 -0.270107 0.021148  0.142597 -0.258511 0.0187857  0.173759 -0.303599 0.0205047  0.141871 -0.260287 0.0129421  0.14896 -0.293355 0.0125201  0.16447 -0.271859 0.0145521  0.149642 -0.291586 0.0181923  0.180859 -0.338699 0.0197482  0.155234 -0.326253 0.0175052  0.186364 -0.375378 0.0189373  0.154576 -0.327965 0.0119913  0.158733 -0.364161 0.0114496  0.180181 -0.340368 0.0135236  0.159363 -0.362457 0.0167758  0.190466 -0.413408 0.0180833  0.162076 -0.400015 0.015976  0.192994 -0.452756 0.0171773  0.161462 -0.401646 0.0108302  0.162784 -0.440487 0.0102048  0.189833 -0.414977 0.0122702  0.16337 -0.438875 0.0151546  0.194199 -0.493223 0.0162377  0.163313 -0.478865 0.0142884  0.193895 -0.534794 0.0152614  0.162741 -0.480409 0.0095098  0.161361 -0.521481 0.00881386  0.193614 -0.494712 0.0108469  0.161898 -0.51994 0.0133951  0.192358 -0.577275 0.0142632  0.159217 -0.561945 0.0124707  0.189402 -0.62067 0.0132248  0.158709 -0.563411 0.00806236  0.154792 -0.606306 0.00730419  0.191825 -0.578688 0.00928926  0.155267 -0.60486 0.0115218  0.185312 -0.66478 0.0121973  0.150159 -0.648515 0.0105481  0.179898 -0.709652 0.0111222  0.14971 -0.649886 0.00650072  0.143456 -0.694269 0.00570154  0.184844 -0.666105 0.00762939  0.143871 -0.692921 0.00956988  0.173461 -0.755094 0.0100513  0.136509 -0.737929 0.00855994  0.165797 -0.801144 0.00893998  0.136129 -0.739211 0.00485563  0.127729 -0.784818 0.00401115  0.173059 -0.756332 0.00587344  0.128073 -0.783548 0.00753665  0.157217 -0.847631 0.00784826  0.118677 -0.829631 0.00649905  0.147515 -0.894624 0.00671959  0.118369 -0.830842 0.0031271  0.108025 -0.877414 0.00224996  0.156888 -0.848803 0.00405025  0.108299 -0.876219 0.00545931  0.136999 -0.941949 0.00560141  0.0970486 -0.923174 0.00439668  0.125461 -0.989668 0.00444865  0.0968173 -0.924311 0.00133634  0.0847164 -0.97166 0.00042963  0.136746 -0.943048 0.00215793  0.0849125 -0.970531 0.00332832  0.113203 -1.03763 0.0033257  0.0720103 -1.01816 0.00225282  0.100014 -1.08591 0.00217104  0.0718527 -1.01923 -0.000505686  0.058182 -1.06718 -0.00143218  0.113025 -1.03867 0.000222683  0.0583054 -1.06611 0.0011797  0.0862002 -1.13436 0.00103545  0.043913 -1.11426 9.15527e-05  0.0715489 -1.18306 -0.000128984  0.0438329 -1.11528 -0.00238562  0.0287609 -1.16368 -0.0033319  0.0860994 -1.13535 -0.0017488  0.0288091 -1.16267 -0.000998974  0.0563538 -1.23185 -0.0012641  0.0131125 -1.21121 -0.00208998  0.040406 -1.28085 -0.00242329  0.0131016 -1.21218 -0.00429821  -0.00320148 -1.26091 -0.00525403  0.0563245 -1.2328 -0.00374246  -0.00322127 -1.25995 -0.0031755  0.0239928 -1.32989 -0.00355697  -0.0200825 -1.30877 -0.00427079  0.00690818 -1.37907 -0.00471377  -0.0200217 -1.30969 -0.0062294  -0.0374153 -1.35866 -0.00719357  0.0240369 -1.33079 -0.00575399  -0.0375042 -1.35774 -0.00536346  -0.0105722 -1.42826 -0.00584102  -0.0553677 -1.40675 -0.00645351  -0.0286477 -1.47756 -0.00698805  -0.0552421 -1.40763 -0.0081749  -0.073571 -1.45673 -0.0091424  -0.0104618 -1.42913 -0.00776911  -0.073724 -1.45586 -0.00753498  -0.0470531 -1.52683 -0.00810766  -0.0924702 -1.50498 -0.00862145  -0.0659814 -1.57615 -0.00924349  -0.092279 -1.50582 -0.0101235  -0.111426 -1.555 -0.0110905  -0.0468774 -1.52765 -0.00978899  -0.111642 -1.55416 -0.00970125  -0.0851843 -1.62543 -0.0103447  -0.13113 -1.60332 -0.0107715  -0.104848 -1.67474 -0.0114603  -0.130884 -1.60413 -0.0120673  -0.150717 -1.65332 -0.0130305  -0.0849504 -1.62622 -0.0117931  -0.150986 -1.65252 -0.0118337  -0.124726 -1.72398 -0.0125511  -0.171117 -1.70167 -0.0128949  -0.145002 -1.77321 -0.0136518  -0.170815 -1.70244 -0.0140004  -0.191236 -1.75159 -0.0149586  -0.124435 -1.72473 -0.0137849  -0.191556 -1.75083 -0.0139487  -0.165449 -1.82236 -0.0147188  -0.212208 -1.79991 -0.0149918  -0.186242 -1.87149 -0.0157962  -0.211862 -1.80065 -0.0159214  -0.232757 -1.84973 -0.0168679  -0.165113 -1.82309 -0.0157547  -0.233121 -1.84899 -0.0160224  -0.207156 -1.92051 -0.0168438  -0.254214 -1.89799 -0.0170493  -0.22836 -1.9695 -0.0178981  -0.253821 -1.8987 -0.0178194  -0.275109 -1.94766 -0.0187552  -0.206771 -1.92122 -0.0176997  -0.275516 -1.94695 -0.0180671  -0.249649 -2.01837 -0.0189204  -0.296942 -1.99581 -0.0190713  -0.271185 -2.06721 -0.0199473  -0.296514 -1.9965 -0.0196931  -0.318099 -2.04532 -0.0206132  -0.249227 -2.01906 -0.0196109  -0.318542 -2.04463 -0.0200584  -0.292771 -2.11592 -0.0209422  -0.340245 -2.09335 -0.0210414  -0.314556 -2.16457 -0.0219421  -0.33978 -2.09402 -0.021534  -0.3616 -2.14269 -0.0224359  -0.29231 -2.11658 -0.0214882  -0.362077 -2.14202 -0.0220101  -0.336363 -2.21309 -0.0229058  -0.383966 -2.19057 -0.0229628  -0.358332 -2.26156 -0.0238709  -0.383476 -2.19122 -0.0233386  -0.405456 -2.23971 -0.0242214  -0.335874 -2.21374 -0.0233204  -0.405953 -2.23906 -0.0238988  -0.380297 -2.30991 -0.0248063  -0.427987 -2.28745 -0.0248275  -0.402383 -2.35818 -0.0257421  -0.427471 -2.28808 -0.0251043  -0.449556 -2.3364 -0.0259681  -0.379781 -2.31054 -0.0251122  -0.450078 -2.33576 -0.0257425  -0.424444 -2.40635 -0.0266418  -0.472179 -2.38397 -0.0266404  -0.446594 -2.45444 -0.0275431  -0.471644 -2.38459 -0.0268309  -0.493778 -2.43273 -0.0276735  -0.42391 -2.40697 -0.0268533  -0.494313 -2.43211 -0.0275204  -0.468704 -2.50244 -0.0284142  -0.516453 -2.48015 -0.028394  -0.490865 -2.55037 -0.0292866  -0.515905 -2.48076 -0.0285163  -0.538053 -2.52874 -0.0293412  -0.468153 -2.50306 -0.028553  -0.538599 -2.52812 -0.0292547  -0.51299 -2.59822 -0.0301292  -0.560727 -2.57601 -0.0301006  -0.535137 -2.64602 -0.0309763  -0.560175 -2.57662 -0.0301654  -0.582301 -2.62446 -0.030978  -0.51243 -2.59885 -0.0302041  -0.58285 -2.62384 -0.0309377  -0.557257 -2.69379 -0.0318103  -0.604976 -2.67162 -0.0317802  -0.579391 -2.74151 -0.032656  -0.604419 -2.67223 -0.0317965  -0.626545 -2.71999 -0.0326076  -0.556693 -2.69442 -0.0318403  -0.627095 -2.71936 -0.0326192  -0.00374297 -0.00753596 -0.00194287  -0.00467958 -0.012388 -0.00230813  -0.0129234 -0.020205 -0.0032835  -0.00504133 -0.0125323 -0.000267267  -0.0209669 -0.0303865 -7.15256e-06  -0.0210097 -0.0264784 -0.000266075  0 0 0  -0.0208272 -0.0259013 -0.00272703  0 0 0  0 0 0  -0.00362919 -0.00727119 6.10352e-05  0 0 0  -0.0388125 -0.0409685 -0.00489497  -0.0209048 -0.0301065 -0.00408864  -0.025283 -0.0330269 -0.0044229  -0.0362971 -0.0421955 -0.00540757  -0.0384429 -0.0459871 -0.00529099  -0.0364182 -0.0425024 3.57628e-06  -0.0522763 -0.0553267 2.38419e-05  -0.0543462 -0.0513637 -0.000184059  -0.0537365 -0.0507182 -0.00616026  -0.0254333 -0.0332684 0.000135899  -0.0712128 -0.0637646 -0.00764585  -0.0520329 -0.0547586 -0.00642347  -0.0528086 -0.0607514 -0.00589728  -0.0681736 -0.0675807 -0.00699782  -0.0667212 -0.0760463 -0.00623107  -0.0683462 -0.0682147 0.000200987  -0.0846126 -0.0826085 0.000132084  -0.088423 -0.0753637 5.93662e-05  -0.0879809 -0.0746549 -0.00814009  -0.0529158 -0.0612307 0.000267744  -0.106342 -0.0886629 -0.008775  -0.0844172 -0.0819417 -0.00743842  -0.0813155 -0.0937272 -0.00635362  -0.101119 -0.0979985 -0.00752568  -0.095774 -0.112666 -0.00634098  -0.101234 -0.0987017 0.000291109  -0.11797 -0.116398 0.000203371  -0.124748 -0.103775 0.000211  -0.124538 -0.103071 -0.00880766  -0.0814213 -0.0943105 0.000316858  -0.143308 -0.119684 -0.00883317  -0.11785 -0.115725 -0.00754094  -0.110738 -0.133626 -0.0062294  -0.134929 -0.135346 -0.00738239  -0.125817 -0.15602 -0.00604177  -0.134987 -0.136029 0.000277758  -0.152072 -0.157105 0.00018692  -0.162174 -0.138533 0.000241518  -0.16212 -0.13786 -0.00862789  -0.110813 -0.13423 0.000295162  -0.180935 -0.157586 -0.00833488  -0.152005 -0.15646 -0.00716591  -0.141274 -0.1801 -0.00584412  -0.169348 -0.179352 -0.00691605  -0.156936 -0.205534 -0.00560808  -0.169369 -0.179986 0.000169754  -0.186713 -0.204153 6.1512e-05  -0.19989 -0.179817 0.00016427  -0.199919 -0.179184 -0.00805664  -0.141323 -0.180678 0.00017786  -0.218673 -0.202007 -0.00766301  -0.186678 -0.203561 -0.00662947  -0.172923 -0.232443 -0.00543332  -0.204253 -0.22938 -0.00640082  -0.189118 -0.260567 -0.00523806  -0.204251 -0.229964 -4.86374e-05  -0.221853 -0.25693 -0.000200033  -0.237626 -0.227259 -3.6478e-05  -0.237684 -0.226662 -0.00741076  -0.172942 -0.23299 -3.71933e-05  -0.256463 -0.252399 -0.00703835  -0.221839 -0.256375 -0.00614214  -0.20563 -0.290028 -0.00513291  -0.239689 -0.284826 -0.00599003  -0.222366 -0.320578 -0.00502372  -0.239667 -0.285364 -0.000393867  -0.257572 -0.314857 -0.000600815  -0.275455 -0.280342 -0.000365734  -0.275538 -0.279789 -0.00686955  -0.205625 -0.290541 -0.000392199  -0.294433 -0.308175 -0.00659966  -0.257588 -0.314345 -0.00581861  -0.239437 -0.352344 -0.00501013  -0.27578 -0.345175 -0.00576162  -0.256736 -0.385095 -0.00499415  -0.275728 -0.345685 -0.00086832  -0.294014 -0.377474 -0.00113654  -0.313562 -0.33857 -0.000835419  -0.313666 -0.338042 -0.00652981  -0.239399 -0.352838 -0.000869274  -0.332814 -0.368834 -0.00636649  -0.294062 -0.376981 -0.00569057  -0.27438 -0.418953 -0.00507426  -0.312666 -0.40997 -0.00573134  -0.292273 -0.453699 -0.00516582  -0.31258 -0.410453 -0.00146508  -0.331303 -0.444318 -0.00179601  -0.352165 -0.401432 -0.00142264  -0.352301 -0.400933 -0.0063951  -0.274305 -0.419426 -0.00147843  -0.371759 -0.433889 -0.00635695  -0.331394 -0.44385 -0.00577116  -0.310519 -0.489438 -0.00533867  -0.350453 -0.478787 -0.00590754  -0.329012 -0.525984 -0.00551772  -0.350325 -0.479261 -0.00218725  -0.369528 -0.515004 -0.0025804  -0.391407 -0.468507 -0.00214076  -0.391572 -0.468016 -0.00648308  -0.310399 -0.489909 -0.00220752  -0.41142 -0.502929 -0.00654554  -0.369658 -0.514534 -0.00604367  -0.34785 -0.563428 -0.00576854  -0.389201 -0.551237 -0.00626254  -0.366944 -0.601597 -0.00603724  -0.389035 -0.551702 -0.00302029  -0.408726 -0.589135 -0.00347018  -0.431399 -0.539362 -0.0029645  -0.431604 -0.538881 -0.00675654  -0.34769 -0.563892 -0.00305414  -0.451839 -0.575555 -0.00692582  -0.408902 -0.588676 -0.00649118  -0.386373 -0.640564 -0.00636196  -0.428928 -0.626966 -0.00678563  -0.406043 -0.680186 -0.00669646  -0.428719 -0.627436 -0.00396132  -0.448898 -0.666392 -0.00446177  -0.472176 -0.613655 -0.00390339  -0.472413 -0.613168 -0.00721192  -0.386169 -0.641037 -0.00400043  -0.493066 -0.651435 -0.00745392  -0.449112 -0.66592 -0.0070858  -0.426022 -0.720527 -0.00708175  -0.469608 -0.705642 -0.00744534  -0.446234 -0.761449 -0.00748634  -0.469359 -0.706112 -0.00499249  -0.489995 -0.746431 -0.00553989  -0.513744 -0.691019 -0.00492668  -0.514021 -0.690535 -0.00780511  -0.425778 -0.721001 -0.00504279  -0.535051 -0.730229 -0.00813365  -0.490255 -0.745961 -0.00781989  -0.466733 -0.803005 -0.00793076  -0.511186 -0.786961 -0.00823975  -0.487436 -0.845082 -0.00838614  -0.510899 -0.787442 -0.00611615  -0.531964 -0.828979 -0.00670218  -0.556064 -0.771172 -0.00604916  -0.55637 -0.770675 -0.00854683  -0.466449 -0.803493 -0.0061686  -0.577775 -0.811652 -0.00892687  -0.532254 -0.828494 -0.00866842  -0.508396 -0.887728 -0.00887871  -0.553587 -0.870637 -0.00913858  -0.529543 -0.930831 -0.00938964  -0.553267 -0.871122 -0.00731111  -0.57471 -0.913741 -0.00793386  -0.599086 -0.853794 -0.00723624  -0.599428 -0.853295 -0.00939155  -0.508079 -0.888219 -0.00737357  -0.621146 -0.895417 -0.00983739  -0.575038 -0.913256 -0.00962281  -0.550919 -0.97443 -0.00992799  -0.596721 -0.956411 -0.0101411  -0.57245 -1.01843 -0.0104747  -0.59637 -0.956908 -0.00857902  -0.618152 -1.00049 -0.00923395  -0.642731 -0.938646 -0.00850391  -0.643095 -0.938136 -0.0103512  -0.550568 -0.974936 -0.00864291  -0.665112 -0.981277 -0.0108354  -0.618503 -0.999987 -0.0106664  -0.594176 -1.06288 -0.011049  -0.640492 -1.04404 -0.0112231  -0.616038 -1.10768 -0.0116396  -0.640114 -1.04454 -0.00990295  -0.662175 -1.08896 -0.0105846  -0.686918 -1.02545 -0.00982213  -0.687314 -1.02494 -0.01139  -0.593799 -1.06339 -0.009974  -0.709558 -1.06898 -0.0119286  -0.662559 -1.08846 -0.0117924  -0.638068 -1.15285 -0.0122507  -0.6848 -1.1333 -0.0123863  -0.660204 -1.19833 -0.0128675  -0.684396 -1.13381 -0.0112813  -0.706697 -1.17897 -0.0119848  -0.731556 -1.11401 -0.0112042  -0.73197 -1.11349 -0.0125191  -0.637665 -1.15338 -0.0113528  -0.754426 -1.15832 -0.0130847  -0.707099 -1.17845 -0.0129864  -0.682471 -1.24415 -0.0135052  -0.729544 -1.22397 -0.0136104  -0.704826 -1.29021 -0.0141566  -0.729118 -1.22449 -0.0126996  -0.751598 -1.27028 -0.0134237  -0.776561 -1.20408 -0.0126181  -0.777002 -1.20355 -0.0137095  -0.682046 -1.24467 -0.0127761  -0.799591 -1.24906 -0.0143201  -0.752027 -1.26976 -0.0142457  -0.727288 -1.33656 -0.014823  -0.774623 -1.31586 -0.0148964  -0.749805 -1.38312 -0.015492  -0.774177 -1.31639 -0.014158  -0.796795 -1.36273 -0.0148976  -0.821835 -1.29547 -0.0140798  -0.822287 -1.29493 -0.0149682  -0.726841 -1.3371 -0.0142336  -0.844996 -1.34103 -0.0155945  -0.797237 -1.36219 -0.0155542  -0.772395 -1.42992 -0.0161796  -0.819937 -1.40878 -0.0162308  -0.795026 -1.47689 -0.0168796  -0.819474 -1.40931 -0.0156469  -0.842173 -1.4561 -0.016402  -0.867291 -1.38796 -0.015564  -0.867765 -1.38742 -0.0162725  -0.771932 -1.43046 -0.0157249  -0.890524 -1.43402 -0.0169387  -0.842639 -1.45557 -0.0169165  -0.817711 -1.52406 -0.0175853  -0.865402 -1.50257 -0.0176115  -0.840413 -1.57137 -0.0182941  -0.864924 -1.50311 -0.0171623  -0.88768 -1.55028 -0.0179229  -0.912848 -1.48142 -0.017086  -0.91333 -1.48087 -0.0176363  -0.817232 -1.52461 -0.0172369  -0.936132 -1.52788 -0.0183091  -0.888151 -1.54973 -0.0183105  -0.863142 -1.61883 -0.0190125  -0.91094 -1.59706 -0.0190217  -0.885873 -1.66641 -0.019742  -0.910451 -1.5976 -0.0186894  -0.933212 -1.64506 -0.0194559  -0.958443 -1.57564 -0.018609  -0.958939 -1.57509 -0.0190237  -0.862651 -1.61938 -0.0187662  -0.981716 -1.62244 -0.0197263  -0.9337 -1.64452 -0.0197403  -0.908613 -1.71409 -0.0204749  -0.956475 -1.69211 -0.0204639  -0.931337 -1.76186 -0.0212073  -0.955976 -1.69266 -0.0202289  -0.978719 -1.74035 -0.0209994  -1.004 -1.6705 -0.0201547  -1.0045 -1.66994 -0.0204523  -0.90811 -1.71465 -0.0203035  -1.02726 -1.71754 -0.0211561  -0.979212 -1.73979 -0.0211906  -0.954049 -1.80972 -0.0219479  -1.00195 -1.78757 -0.0219243  -0.976738 -1.85762 -0.0226965  -1.00144 -1.78812 -0.0217714  -1.02414 -1.83597 -0.0225439  -1.04947 -1.76582 -0.0216956  -1.04998 -1.76526 -0.0218968  -0.953537 -1.81027 -0.0218482  -1.07266 -1.81306 -0.0226262  -1.02464 -1.83542 -0.022666  -0.999405 -1.90557 -0.0234492  -1.04731 -1.88333 -0.023412  -1.02203 -1.95356 -0.0242014  -1.0468 -1.88388 -0.0233238  -1.06943 -1.93184 -0.0241008  -1.0948 -1.8615 -0.0232546  -1.09531 -1.86094 -0.0233784  -0.998887 -1.90614 -0.023397  -1.11793 -1.90886 -0.0241106  -1.06993 -1.93128 -0.024163  -1.04462 -2.00157 -0.0249588  -1.09253 -1.97926 -0.0249174  -1.06718 -2.04958 -0.0257244  -1.09201 -1.97981 -0.0248771  -1.11455 -2.02781 -0.0256507  -1.13997 -1.95738 -0.0248079  -1.14049 -1.95683 -0.0248706  -1.0441 -2.00213 -0.0249498  -1.16301 -2.00482 -0.0256224  -1.11507 -2.02726 -0.0256767  -1.08969 -2.09759 -0.0264847  -1.13757 -2.07526 -0.0264351  -1.11215 -2.14558 -0.0272467  -1.13704 -2.07581 -0.026427  -1.1595 -2.12382 -0.0271971  -1.18496 -2.05339 -0.0263631  -1.18548 -2.05283 -0.026387  -1.08916 -2.09815 -0.0264957  -1.20792 -2.10084 -0.0271342  -1.16001 -2.12326 -0.0271962  -1.13457 -2.19356 -0.0280097  -1.18243 -2.17124 -0.0279589  -1.15694 -2.24151 -0.0287809  -1.1819 -2.17179 -0.0279689  -1.20427 -2.21976 -0.0287373  -1.22977 -2.14939 -0.0279055  -1.23029 -2.14884 -0.0279047  -1.13404 -2.19413 -0.028038  -1.25265 -2.19683 -0.0286682  -1.20479 -2.21921 -0.0287287  -1.17928 -2.28942 -0.0295441  -1.22712 -2.26713 -0.029489  -1.20157 -2.33729 -0.0303049  -1.22659 -2.26768 -0.0295064  -1.24889 -2.31559 -0.0302689  -1.27442 -2.24534 -0.029448  -1.27495 -2.24479 -0.0294371  -1.17875 -2.28999 -0.0295715  -1.29725 -2.29271 -0.0301888  -1.24941 -2.31503 -0.0302515  -1.22384 -2.38513 -0.0310662  -1.27168 -2.36288 -0.0310109  -1.2461 -2.43293 -0.0318258  -1.27116 -2.36343 -0.0310311  -1.29343 -2.41126 -0.0317879  -1.31899 -2.34114 -0.0309803  -1.31952 -2.34059 -0.0309589  -1.22331 -2.3857 -0.031096  -1.3418 -2.38845 -0.0317125  -1.29395 -2.4107 -0.0317683  -0.00178669 -0.00302052 -0.00108886  -0.0021795 -0.00470081 -0.00147843  -0.00586576 -0.0103422 -0.00189471  -0.00218275 -0.00466827 -1.19209e-06  -0.00803334 -0.0142248 5.36442e-05  0 0 0  0 0 0  -0.00180368 -0.00299835 0.00010848  0 0 0  -0.00769308 -0.0138381 -0.00249267  -0.0116611 -0.0219105 -0.00273824  -0.0168753 -0.0263144 -0.0035336  -0.0192661 -0.0361934 -0.00324941  -0.0170707 -0.0265546 0.000225782  -0.0276895 -0.0405785 0.000226021  -0.0116667 -0.0221788 0.000326872  -0.0274041 -0.0401887 -0.00424027  -0.0277627 -0.0520509 -0.00362396  -0.0387525 -0.0555067 -0.00471663  -0.0370476 -0.0699338 -0.0038867  -0.0388873 -0.055912 0.000373602  -0.0509193 -0.0729514 0.000313282  -0.0277894 -0.0524913 0.000416756  -0.0507383 -0.0724381 -0.00502372  -0.0469031 -0.0894318 -0.00395679  -0.062876 -0.0909653 -0.00510693  -0.0571357 -0.110577 -0.00396204  -0.0629676 -0.0915048 0.000408173  -0.0755776 -0.111746 0.000354767  -0.0469194 -0.0899595 0.000447989  -0.0754711 -0.111186 -0.00512338  -0.0679023 -0.13346 -0.00389266  -0.0883042 -0.133077 -0.00502229  -0.0790446 -0.157835 -0.00379181  -0.0883655 -0.133661 0.000373125  -0.101604 -0.157126 0.000306606  -0.0679344 -0.134011 0.000413418  -0.10154 -0.156554 -0.00489712  -0.0907238 -0.183822 -0.00369334  -0.115132 -0.1816 -0.00475144  -0.102851 -0.211197 -0.00356746  -0.115176 -0.182169 0.000236034  -0.129135 -0.20861 0.000150204  -0.0907649 -0.184372 0.000280619  -0.129093 -0.208062 -0.00457573  -0.115488 -0.23996 -0.00349855  -0.143443 -0.235928 -0.00445247  -0.128622 -0.269981 -0.00342488  -0.143479 -0.23647 -5.00679e-06  -0.158174 -0.265579 -0.000149012  -0.115528 -0.240488 3.40939e-05  -0.158153 -0.26505 -0.00432968  -0.142241 -0.301227 -0.00343132  -0.173262 -0.295435 -0.00428009  -0.156354 -0.333605 -0.00343156  -0.173273 -0.295944 -0.000371695  -0.188717 -0.327438 -0.000576735  -0.142255 -0.301738 -0.00033927  -0.188718 -0.326936 -0.00422788  -0.170938 -0.36708 -0.00351  -0.204579 -0.359581 -0.00425744  -0.186006 -0.401564 -0.00360012  -0.204571 -0.360074 -0.000863552  -0.220764 -0.393721 -0.00113225  -0.170927 -0.367573 -0.000839472  -0.220797 -0.393231 -0.0043025  -0.201531 -0.437032 -0.00377393  -0.237414 -0.427914 -0.004426  -0.217513 -0.473405 -0.00395179  -0.237362 -0.428386 -0.00148392  -0.254304 -0.463973 -0.00182247  -0.201478 -0.437514 -0.001472  -0.254378 -0.463498 -0.00456381  -0.233939 -0.510664 -0.00419259  -0.271737 -0.500011 -0.00476599  -0.250805 -0.548722 -0.00445318  -0.27165 -0.50048 -0.00222278  -0.28933 -0.53781 -0.00261927  -0.233847 -0.511139 -0.00222015  -0.289444 -0.537333 -0.00499368  -0.268093 -0.587574 -0.00477958  -0.307535 -0.575493 -0.00527811  -0.285786 -0.627145 -0.0051167  -0.307395 -0.575955 -0.00307488  -0.325791 -0.614846 -0.00353456  -0.267952 -0.588052 -0.00308204  -0.325949 -0.614377 -0.00558257  -0.303882 -0.667423 -0.00549603  -0.34473 -0.654006 -0.00593019  -0.322355 -0.70833 -0.00589752  -0.344554 -0.654475 -0.00402999  -0.363626 -0.694763 -0.00453401  -0.3037 -0.6679 -0.00404596  -0.363825 -0.694284 -0.00630498  -0.341201 -0.749865 -0.00634503  -0.383262 -0.735227 -0.00671816  -0.360385 -0.791962 -0.00680375  -0.383034 -0.735697 -0.00507736  -0.402734 -0.777225 -0.00563264  -0.340973 -0.750351 -0.00510335  -0.402975 -0.776745 -0.00715089  -0.379911 -0.834614 -0.00729227  -0.423004 -0.818852 -0.00761366  -0.399745 -0.877753 -0.00780129  -0.422744 -0.819334 -0.00621009  -0.443014 -0.861962 -0.00680017  -0.379647 -0.835103 -0.00624228  -0.443292 -0.861468 -0.0081017  -0.419883 -0.92138 -0.00834823  -0.463861 -0.904608 -0.0086174  -0.440288 -0.965438 -0.00890279  -0.463557 -0.905092 -0.00741935  -0.484335 -0.948689 -0.00805044  -0.419579 -0.921879 -0.00746083  -0.48465 -0.948194 -0.00915122  -0.460963 -1.00992 -0.00947452  -0.505688 -0.992236 -0.0097034  -0.481876 -1.05477 -0.0100656  -0.505359 -0.992733 -0.00869489  -0.526583 -1.03718 -0.00935006  -0.46063 -1.01043 -0.00873947  -0.526926 -1.03667 -0.0102782  -0.50302 -1.09999 -0.0106871  -0.548379 -1.0815 -0.0108716  -0.524362 -1.14553 -0.0113142  -0.548012 -1.082 -0.0100269  -0.569619 -1.12719 -0.010715  -0.502653 -1.10051 -0.0100794  -0.569992 -1.12667 -0.0114813  -0.545901 -1.19139 -0.0119517  -0.591786 -1.17219 -0.0121017  -0.567609 -1.23752 -0.0126052  -0.591401 -1.1727 -0.01141  -0.613328 -1.21852 -0.0121148  -0.545509 -1.19192 -0.0114653  -0.613723 -1.218 -0.0127432  -0.58948 -1.28392 -0.0132821  -0.635808 -1.2641 -0.0133986  -0.611481 -1.33054 -0.0139632  -0.635389 -1.26462 -0.012836  -0.657573 -1.31097 -0.0135646  -0.589061 -1.28445 -0.0128946  -0.657995 -1.31045 -0.014065  -0.633614 -1.37739 -0.0146501  -0.680298 -1.35704 -0.0147378  -0.655852 -1.42442 -0.0153515  -0.679869 -1.35757 -0.0142961  -0.702253 -1.40438 -0.0150347  -0.633177 -1.37793 -0.014358  -0.702689 -1.40384 -0.0154278  -0.678188 -1.47164 -0.0160697  -0.725165 -1.45085 -0.0161264  -0.700595 -1.51901 -0.0167894  -0.724708 -1.45137 -0.0157852  -0.747234 -1.49855 -0.0165436  -0.677728 -1.47218 -0.0158517  -0.747692 -1.49802 -0.0168369  -0.723076 -1.56652 -0.0175073  -0.77028 -1.54535 -0.0175467  -0.74561 -1.61415 -0.0182407  -0.769816 -1.54589 -0.0172985  -0.792442 -1.59337 -0.0180571  -0.722604 -1.56707 -0.0173624  -0.792911 -1.59282 -0.0182734  -0.768189 -1.66188 -0.0189884  -0.815574 -1.64042 -0.0190029  -0.790792 -1.70971 -0.0197341  -0.815088 -1.64096 -0.0188272  -0.837764 -1.68867 -0.0195985  -0.7677 -1.66244 -0.018894  -0.838249 -1.68812 -0.0197401  -0.81342 -1.75762 -0.0204754  -0.860936 -1.73591 -0.0204735  -0.836057 -1.80558 -0.0212262  -0.860446 -1.73646 -0.0203652  -0.883136 -1.78433 -0.0211329  -0.812922 -1.75817 -0.0204322  -0.883628 -1.78377 -0.0212212  -0.858697 -1.85359 -0.0219886  -0.906313 -1.8317 -0.0219705  -0.881325 -1.90163 -0.0227511  -0.905805 -1.83225 -0.0219092  -0.928474 -1.88023 -0.0226858  -0.858186 -1.85415 -0.0219762  -0.928978 -1.87968 -0.0227263  -0.903941 -1.9497 -0.0235057  -0.95162 -1.92768 -0.0234768  -0.926536 -1.99777 -0.0242698  -0.951112 -1.92823 -0.0234578  -0.973735 -1.97627 -0.0242276  -0.903425 -1.95026 -0.0235236  -0.974242 -1.97571 -0.0242383  -0.949104 -2.04585 -0.0250428  -0.996828 -2.02375 -0.0250006  -0.971635 -2.09392 -0.0258148  -0.996306 -2.0243 -0.0250051  -1.01886 -2.07234 -0.0257843  -0.948579 -2.04641 -0.0250723  -1.01938 -2.07179 -0.0257702  -0.994131 -2.14198 -0.0265744  -1.04188 -2.11981 -0.0265284  -1.01659 -2.19 -0.0273438  -1.04136 -2.12037 -0.0265539  -1.06383 -2.16839 -0.0273194  -0.993606 -2.14253 -0.0266185  -1.06435 -2.16782 -0.0272982  -1.03901 -2.23799 -0.0281172  -1.08677 -2.2158 -0.0280635  -1.06137 -2.28594 -0.0288875  -1.08624 -2.21636 -0.0280919  -1.10862 -2.26431 -0.0288615  -1.03847 -2.23855 -0.0281577  -1.10914 -2.26375 -0.0288329  -1.0837 -2.33386 -0.0296457  -1.13147 -2.31166 -0.0295904  -1.10599 -2.38172 -0.030411  -1.13095 -2.31222 -0.029623  -1.15325 -2.3601 -0.0303812  -1.08317 -2.33442 -0.0296862  -1.15377 -2.35953 -0.0303588  -1.12823 -2.42952 -0.0311801  -1.17602 -2.40735 -0.0311191  -1.15044 -2.47728 -0.0319376  -1.17549 -2.4079 -0.0311453  -1.19775 -2.45568 -0.0319049  -1.1277 -2.43009 -0.0312092  -1.19827 -2.45512 -0.0318794  -0.000547465 -0.00188592 -0.000387192  -0.000897769 -0.00217402 -0.000735998  -0.00174622 -0.00817648 -0.000691891  -0.00090652 -0.00222078 0.000129461  -0.00326184 -0.00886527 0.00021553  0 0 0  0 0 0  -0.00056424 -0.00193396 0.000195742  0 0 0  -0.00302617 -0.00864404 -0.00127482  -0.00350551 -0.0193035 -0.00107646  -0.0069562 -0.0200938 -0.00186491  -0.00624329 -0.0333458 -0.00128078  -0.00700365 -0.0203256 0.000417948  -0.0119669 -0.0343158 0.0003829  -0.00355417 -0.0195503 0.000439167  -0.0116993 -0.0339738 -0.00221348  -0.00964481 -0.0501827 -0.00147533  -0.0179382 -0.0505028 -0.00250387  -0.0138913 -0.0692165 -0.0015924  -0.0180089 -0.0508516 0.00056076  -0.0248173 -0.0693729 0.000502825  -0.00969523 -0.050557 0.000578403  -0.0246736 -0.0689355 -0.00270319  -0.0188435 -0.0901463 -0.00163364  -0.0321742 -0.0892085 -0.00275445  -0.0244945 -0.11286 -0.00165129  -0.0322395 -0.0896559 0.000576735  -0.0402771 -0.111689 0.000536203  -0.0188937 -0.0905952 0.000611305  -0.0401986 -0.111202 -0.00277901  -0.0308422 -0.137238 -0.00162888  -0.0487635 -0.134854 -0.00273323  -0.0378716 -0.163197 -0.00159645  -0.0488188 -0.135351 0.000519753  -0.0579746 -0.160612 0.000467777  -0.0308883 -0.137729 0.000573874  -0.0579157 -0.160084 -0.00267386  -0.0456032 -0.190673 -0.00158858  -0.0676199 -0.186839 -0.00263047  -0.0540622 -0.219591 -0.00156713  -0.0676751 -0.187358 0.000362635  -0.0779946 -0.215558 0.000279903  -0.0456527 -0.191192 0.0004282  -0.0779482 -0.215036 -0.0025568  -0.06321 -0.249848 -0.00160623  -0.0888503 -0.244574 -0.00254512  -0.0730975 -0.281408 -0.00163746  -0.0888975 -0.245084 0.000101805  -0.100403 -0.275924 -4.29153e-05  -0.0632457 -0.250366 0.00015974  -0.100372 -0.275402 -0.00252533  -0.0836519 -0.314155 -0.00174427  -0.112479 -0.307429 -0.00258684  -0.0949321 -0.34806 -0.00185227  -0.112506 -0.30793 -0.000290155  -0.125191 -0.341104 -0.000504255  -0.0836684 -0.314668 -0.00023818  -0.125187 -0.340602 -0.00264335  -0.106856 -0.383021 -0.00202537  -0.138464 -0.374846 -0.00276804  -0.11947 -0.419009 -0.00220513  -0.138462 -0.375331 -0.000804901  -0.152288 -0.410607 -0.00108528  -0.106843 -0.383524 -0.000765324  -0.15231 -0.410106 -0.00290728  -0.132684 -0.455924 -0.0024581  -0.166705 -0.446321 -0.00311995  -0.146551 -0.493744 -0.00272417  -0.166668 -0.446801 -0.00144887  -0.181578 -0.483924 -0.0017972  -0.132636 -0.456423 -0.0014174  -0.181643 -0.483438 -0.00334334  -0.160993 -0.532392 -0.00304437  -0.197097 -0.521408 -0.00362039  -0.176029 -0.571835 -0.00337481  -0.197013 -0.521881 -0.0022068  -0.212953 -0.560669 -0.00261259  -0.160898 -0.532886 -0.00218773  -0.213057 -0.560177 -0.00392056  -0.191596 -0.612004 -0.00376296  -0.229505 -0.599702 -0.00427747  -0.207713 -0.652868 -0.00416923  -0.22938 -0.600178 -0.00307775  -0.246276 -0.640416 -0.00354457  -0.19146 -0.6125 -0.00306535  -0.246427 -0.639933 -0.00464988  -0.224332 -0.694379 -0.00461364  -0.2638 -0.680837 -0.00505662  -0.241445 -0.736496 -0.00507092  -0.263627 -0.681311 -0.00404835  -0.281417 -0.722856 -0.00456214  -0.22415 -0.694873 -0.00404882  -0.281604 -0.72236 -0.00549078  -0.259009 -0.779173 -0.00557089  -0.299826 -0.764476 -0.00596213  -0.277024 -0.822377 -0.0060873  -0.299613 -0.764959 -0.00511289  -0.318208 -0.807628 -0.0056746  -0.258788 -0.779674 -0.00511909  -0.318442 -0.807135 -0.00645161  -0.295456 -0.866076 -0.00663042  -0.337434 -0.850317 -0.00696445  -0.314283 -0.910231 -0.00718641  -0.337177 -0.850802 -0.00625992  -0.356509 -0.894479 -0.00685763  -0.295192 -0.866581 -0.00627565  -0.356775 -0.893973 -0.00750065  -0.333474 -0.954809 -0.00777555  -0.376453 -0.938081 -0.00806665  -0.353019 -0.999778 -0.00837874  -0.376162 -0.938576 -0.00748277  -0.396137 -0.983104 -0.00811982  -0.333176 -0.955323 -0.00750422  -0.396445 -0.9826 -0.00864625  -0.372894 -1.04512 -0.00900078  -0.416729 -1.02751 -0.00923991  -0.393072 -1.09079 -0.00963306  -0.416402 -1.02801 -0.00876975  -0.436951 -1.0733 -0.00943136  -0.37256 -1.04563 -0.00880051  -0.437284 -1.07278 -0.00985527  -0.413528 -1.13677 -0.010289  -0.458095 -1.11839 -0.0104921  -0.434248 -1.18303 -0.0109558  -0.457739 -1.1189 -0.0101149  -0.478772 -1.16481 -0.0108058  -0.413165 -1.1373 -0.0101497  -0.479142 -1.16429 -0.0111394  -0.455217 -1.22956 -0.0116351  -0.500402 -1.21049 -0.0117943  -0.4764 -1.27632 -0.0123219  -0.500014 -1.211 -0.0115049  -0.521468 -1.25747 -0.012213  -0.454822 -1.23009 -0.0115483  -0.521857 -1.25694 -0.0124688  -0.497782 -1.3233 -0.0130274  -0.543491 -1.30362 -0.0131583  -0.519347 -1.37047 -0.013742  -0.543082 -1.30415 -0.0129395  -0.56487 -1.35106 -0.0136702  -0.497366 -1.32384 -0.0129848  -0.56529 -1.35052 -0.0138569  -0.541085 -1.41782 -0.0144625  -0.587229 -1.39762 -0.0145576  -0.562962 -1.46532 -0.0151865  -0.586795 -1.39815 -0.014405  -0.608863 -1.44544 -0.015146  -0.540643 -1.41836 -0.0144567  -0.609294 -1.44489 -0.0152736  -0.584963 -1.51296 -0.0159283  -0.631469 -1.49232 -0.0160024  -0.607079 -1.56072 -0.0166781  -0.63102 -1.49286 -0.0159001  -0.653288 -1.54043 -0.0166576  -0.584507 -1.51351 -0.0159528  -0.653745 -1.53989 -0.0167365  -0.629299 -1.60858 -0.0174274  -0.676098 -1.58758 -0.0174677  -0.651596 -1.65653 -0.0181787  -0.675628 -1.58811 -0.0174143  -0.698056 -1.63592 -0.0181746  -0.628821 -1.60913 -0.0174747  -0.698521 -1.63536 -0.0182128  -0.673958 -1.70456 -0.0189393  -0.720995 -1.68325 -0.0189648  -0.696376 -1.75264 -0.0197067  -0.720515 -1.68379 -0.0189447  -0.743034 -1.73175 -0.0197175  -0.67347 -1.70511 -0.0190039  -0.743519 -1.7312 -0.0197225  -0.718845 -1.80077 -0.0204713  -0.766068 -1.77922 -0.0204725  -0.741338 -1.84893 -0.0212374  -0.765571 -1.77976 -0.0204849  -0.788152 -1.82784 -0.0212538  -0.71834 -1.80133 -0.0205476  -0.788641 -1.82728 -0.0212348  -0.763848 -1.89712 -0.0220115  -0.811218 -1.87538 -0.0220022  -0.786369 -1.94531 -0.02279  -0.810715 -1.87592 -0.0220323  -0.8333 -1.92405 -0.0228074  -0.763337 -1.89768 -0.0220926  -0.833806 -1.9235 -0.0227706  -0.808897 -1.99351 -0.0235622  -0.856377 -1.97163 -0.0235324  -0.831412 -2.0417 -0.0243359  -0.855861 -1.97217 -0.0235789  -0.878432 -2.02032 -0.0243499  -0.808373 -1.99407 -0.023644  -0.878937 -2.01976 -0.0243051  -0.853908 -2.08987 -0.0251157  -0.90147 -2.06788 -0.0250788  -0.876384 -2.13801 -0.0258956  -0.900952 -2.06843 -0.0251276  -0.923468 -2.11654 -0.0259042  -0.853382 -2.09043 -0.0251927  -0.923985 -2.11598 -0.0258553  -0.898839 -2.18612 -0.026669  -0.946458 -2.16407 -0.0266187  -0.921258 -2.23419 -0.0274422  -0.945934 -2.16461 -0.0266721  -0.968388 -2.21268 -0.0274384  -0.898306 -2.18668 -0.0267377  -0.968901 -2.21211 -0.0273929  -0.943635 -2.28222 -0.0282168  -0.991297 -2.26012 -0.0281675  -0.965977 -2.3302 -0.0289965  -0.990773 -2.26067 -0.0282125  -1.01314 -2.30864 -0.0289805  -0.943103 -2.28278 -0.028275  -1.01366 -2.30809 -0.0289426  -0.988278 -2.37812 -0.029767  -1.03597 -2.356 -0.0297041  -1.01054 -2.42598 -0.0305355  -1.03544 -2.35655 -0.0297427  -1.05773 -2.40443 -0.0305023  -0.987741 -2.37868 -0.0298107  -1.05824 -2.40387 -0.0304747  -1.03274 -2.47378 -0.0313048  -1.08047 -2.45167 -0.0312402  -1.05491 -2.5215 -0.0320752  -1.07994 -2.45222 -0.0312641  -1.10215 -2.49997 -0.0320246  -1.03221 -2.47435 -0.0313315  -1.10267 -2.4994 -0.0320067  0.000448607 -0.00271854 0.000271559  9.02191e-05 -0.0021348 -4.79221e-05  0.00150816 -0.00975078 0.000438452  8.51825e-05 -0.0022077 0.000241995  0.000156417 -0.00870711 0.000334978  0 0 0  0 0 0  0.000437193 -0.0028007 0.000271797  0 0 0  0.000352442 -0.00855586 -0.000107765  0.00308377 -0.0216441 0.000494957  0.000105336 -0.0200812 -0.000233889  0.00456563 -0.0361883 0.000594378  6.22869e-05 -0.0202865 0.000538588  -0.000498667 -0.0344529 0.000550032  0.00301914 -0.0218515 0.000543833  -0.000266239 -0.0341897 -0.000298262  0.00570056 -0.0539932 0.000593424  -0.00162661 -0.0515816 -0.000385523  0.00623864 -0.0737952 0.000617743  -0.00169429 -0.0518892 0.000705004  -0.00355941 -0.0713135 0.000686407  0.0056206 -0.054297 0.000719547  -0.00341949 -0.0709434 -0.000452042  0.00597206 -0.0958015 0.000608444  -0.00611326 -0.0924453 -0.000474453  0.00490147 -0.11956 0.000598192  -0.00618282 -0.0928349 0.00074482  -0.00957477 -0.116148 0.000725269  0.00589395 -0.0961898 0.000792742  -0.00949699 -0.115704 -0.000500202  0.00292414 -0.145054 0.000567198  -0.0136687 -0.140663 -0.00050807  3.29614e-05 -0.17218 0.000532866  -0.0137323 -0.141119 0.000689268  -0.018707 -0.167747 0.000643015  0.00285697 -0.145516 0.000754118  -0.0186528 -0.167247 -0.000519037  -0.0037697 -0.200819 0.000458002  -0.0244117 -0.195325 -0.000554085  -0.00852257 -0.230956 0.000392437  -0.0244712 -0.195821 0.000523806  -0.0310674 -0.225404 0.000431299  -0.00382072 -0.201319 0.000601768  -0.031023 -0.224887 -0.000578642  -0.0141634 -0.262433 0.000264645  -0.0384164 -0.25578 -0.000672102  -0.020762 -0.295259 0.000129223  -0.0384648 -0.256284 0.000239849  -0.046682 -0.288526 8.29697e-05  -0.0142036 -0.26295 0.000319958  -0.0466536 -0.287999 -0.000752211  -0.0282166 -0.329267 -6.36578e-05  -0.0556687 -0.321406 -0.000905752  -0.0366004 -0.364478 -0.000259399  -0.0556949 -0.321914 -0.000170231  -0.0654904 -0.356506 -0.000395775  -0.0282298 -0.329796 -9.89437e-05  -0.0654886 -0.355985 -0.00105834  -0.045786 -0.400725 -0.000523329  -0.0760559 -0.391613 -0.00128126  -0.0558532 -0.438021 -0.000792027  -0.0760522 -0.392116 -0.000709057  -0.087364 -0.428795 -0.00099802  -0.0457697 -0.40125 -0.000645399  -0.0873935 -0.428276 -0.00150537  -0.066681 -0.476228 -0.00112104  -0.0994288 -0.465855 -0.00179362  -0.078317 -0.515344 -0.00145936  -0.0993856 -0.466353 -0.00136709  -0.112107 -0.504848 -0.00172853  -0.0666295 -0.476748 -0.0013144  -0.112176 -0.50434 -0.00209832  -0.0906614 -0.555257 -0.0018537  -0.125583 -0.543638 -0.00246072  -0.103756 -0.595948 -0.00226331  -0.125499 -0.544129 -0.00215149  -0.139549 -0.584231 -0.00256324  -0.0905681 -0.55577 -0.00210762  -0.139655 -0.58372 -0.00282717  -0.117508 -0.637329 -0.00271463  -0.154329 -0.624508 -0.00324154  -0.131936 -0.679391 -0.00317764  -0.1542 -0.625003 -0.00303459  -0.169452 -0.666488 -0.0035131  -0.117373 -0.637847 -0.00300336  -0.169604 -0.665983 -0.00368023  -0.146964 -0.722051 -0.00368357  -0.185438 -0.708081 -0.0041604  -0.162609 -0.765284 -0.00420761  -0.185265 -0.708573 -0.00402975  -0.201639 -0.751281 -0.00454569  -0.146786 -0.722565 -0.00400567  -0.201828 -0.750767 -0.00464725  -0.178804 -0.809033 -0.00476193  -0.218719 -0.793989 -0.00516891  -0.195545 -0.853281 -0.00532627  -0.218505 -0.794488 -0.0051055  -0.235869 -0.838235 -0.00567675  -0.178585 -0.809555 -0.00509334  -0.236102 -0.837724 -0.0057137  -0.212778 -0.89797 -0.00592518  -0.253942 -0.881928 -0.00628948  -0.230504 -0.943075 -0.00654006  -0.253688 -0.882429 -0.0062747  -0.271966 -0.927088 -0.00687528  -0.21252 -0.898494 -0.00626993  -0.272233 -0.926565 -0.00687003  -0.248672 -0.988554 -0.00717258  -0.29092 -0.9716 -0.00747514  -0.267267 -1.03439 -0.00781488  -0.290629 -0.97211 -0.00750732  -0.309691 -1.01753 -0.00815153  -0.248376 -0.989085 -0.00751281  -0.309997 -1.01701 -0.00810194  -0.286249 -1.08055 -0.00848317  -0.329431 -1.06276 -0.00875258  -0.305611 -1.12699 -0.009166  -0.329106 -1.06328 -0.00881362  -0.348883 -1.10936 -0.00947618  -0.285922 -1.08108 -0.00882339  -0.349216 -1.10883 -0.00940418  -0.325314 -1.17369 -0.00985765  -0.369301 -1.15517 -0.0100739  -0.345338 -1.22065 -0.0105591  -0.368945 -1.1557 -0.0101643  -0.389312 -1.20232 -0.0108624  -0.324955 -1.17424 -0.0101831  -0.389681 -1.20179 -0.0107617  -0.365651 -1.26782 -0.0112777  -0.410323 -1.24864 -0.0114655  -0.386243 -1.31518 -0.0120087  -0.409938 -1.24917 -0.0115738  -0.430836 -1.29626 -0.0122809  -0.365264 -1.26836 -0.0115981  -0.431225 -1.29571 -0.0121691  -0.407081 -1.36272 -0.0127439  -0.452338 -1.34297 -0.0128856  -0.428146 -1.41041 -0.0134854  -0.451929 -1.3435 -0.0130117  -0.473242 -1.39095 -0.0137479  -0.406668 -1.36327 -0.0130427  -0.473661 -1.39041 -0.0136168  -0.449414 -1.45824 -0.0142395  -0.495165 -1.438 -0.0143602  -0.470873 -1.50619 -0.0150042  -0.494731 -1.43854 -0.0144928  -0.516413 -1.48628 -0.0152307  -0.448978 -1.4588 -0.014529  -0.516848 -1.48573 -0.0150986  -0.492498 -1.55423 -0.0157678  -0.538662 -1.53357 -0.015846  -0.514268 -1.60237 -0.0165355  -0.538211 -1.53411 -0.0159883  -0.560155 -1.58207 -0.0167501  -0.492042 -1.55479 -0.0160315  -0.560612 -1.58152 -0.0166085  -0.536164 -1.65058 -0.017312  -0.582669 -1.62956 -0.0173783  -0.558177 -1.69883 -0.0180976  -0.582198 -1.6301 -0.0175166  -0.604369 -1.67823 -0.0182743  -0.535691 -1.65114 -0.0175595  -0.604838 -1.67767 -0.018141  -0.580287 -1.74713 -0.018877  -0.627074 -1.72583 -0.0189066  -0.602476 -1.79547 -0.0196576  -0.62659 -1.72638 -0.0190465  -0.648897 -1.7746 -0.019819  -0.579798 -1.7477 -0.0190973  -0.649384 -1.77404 -0.0196838  -0.62473 -1.84383 -0.0204446  -0.671743 -1.82229 -0.0204666  -0.647041 -1.89218 -0.0212386  -0.671246 -1.82284 -0.020597  -0.693666 -1.87112 -0.0213609  -0.624229 -1.84439 -0.0206478  -0.694159 -1.87055 -0.0212393  -0.669394 -1.94054 -0.0220215  -0.716589 -1.91882 -0.0220134  -0.691772 -1.98889 -0.0228064  -0.716082 -1.91937 -0.0221393  -0.738537 -1.96766 -0.0229161  -0.668881 -1.94111 -0.0221939  -0.739045 -1.9671 -0.0227993  -0.714165 -2.03722 -0.0235958  -0.761503 -2.01536 -0.0235872  -0.736572 -2.08551 -0.0243924  -0.760986 -2.01591 -0.0236962  -0.783466 -2.06417 -0.0244622  -0.713647 -2.03778 -0.0237496  -0.783975 -2.0636 -0.0243649  -0.758977 -2.13377 -0.0251787  -0.806423 -2.11181 -0.0251431  -0.781371 -2.18199 -0.0259638  -0.805903 -2.11237 -0.0252414  -0.828343 -2.16056 -0.0260167  -0.758451 -2.13434 -0.0252995  -0.828863 -2.16 -0.0259295  -0.803748 -2.23017 -0.0267494  -0.851276 -2.20814 -0.0267162  -0.826108 -2.27828 -0.0275376  -0.850748 -2.20869 -0.0267928  -0.873157 -2.25681 -0.0275528  -0.803218 -2.23073 -0.0268505  -0.873677 -2.25624 -0.0274911  -0.848439 -2.32635 -0.0283165  -0.896028 -2.30428 -0.0282638  -0.870739 -2.37435 -0.029094  -0.895499 -2.30483 -0.0283258  -0.917825 -2.35284 -0.0290945  -0.847904 -2.32691 -0.0283871  -0.918352 -2.35227 -0.0290444  -0.892993 -2.42229 -0.0298729  -0.940624 -2.40021 -0.0298257  -0.915214 -2.47016 -0.0306568  -0.940092 -2.40076 -0.0298657  -0.962351 -2.44865 -0.0306196  -0.892457 -2.42286 -0.0299234  -0.962874 -2.44807 -0.0305958  -0.937383 -2.51795 -0.0314279  -0.985056 -2.49586 -0.031363  -0.95951 -2.56567 -0.0322039  -0.984524 -2.49642 -0.0313849  -1.00668 -2.54416 -0.032141  -0.936849 -2.51852 -0.0314496  -1.00721 -2.54358 -0.0321357  0.00145835 -0.00528234 0.000876427  0.00106429 -0.0038116 0.000607729  0.0048362 -0.0142798 0.00147605  0.00107168 -0.00391376 0.00033474  0.00336096 -0.0117503 0.0004282  0 0 0  0 0 0  0.00146337 -0.00538111 0.000341415  0 0 0  0.00353344 -0.0116231 0.00099802  0.00972383 -0.0280198 0.00195146  0.00656384 -0.0244119 0.00130916  0.0153391 -0.0436906 0.00237131  0.00651246 -0.0245949 0.000636339  0.00994888 -0.0396649 0.000710249  0.00965275 -0.0281863 0.000627756  0.0101286 -0.0394402 0.00152993  0.02078 -0.0625799 0.00254321  0.0132983 -0.0577744 0.00163364  0.0258905 -0.083133 0.00270867  0.0132108 -0.0580546 0.000821114  0.0159572 -0.0782899 0.00086689  0.020671 -0.0628401 0.000853777  0.0160894 -0.0779534 0.00169611  0.0300766 -0.10593 0.00273061  0.018047 -0.100356 0.00170875  0.0333815 -0.13045 0.00273943  0.0179489 -0.100718 0.00090003  0.0190427 -0.124956 0.000910759  0.0299689 -0.106289 0.000965357  0.0191349 -0.124526 0.00169182  0.0355923 -0.156742 0.00267339  0.0192809 -0.150432 0.00163841  0.0366988 -0.184739 0.00258875  0.0191947 -0.150874 0.000860691  0.0183206 -0.178516 0.000818968  0.0355008 -0.157188 0.000944614  0.0183871 -0.178024 0.00157261  0.0367071 -0.214281 0.00246096  0.0165158 -0.207138 0.00146508  0.0355502 -0.245392 0.00231385  0.0164478 -0.207618 0.00069952  0.0135322 -0.238301 0.000597477  0.0366421 -0.214772 0.00079298  0.0135776 -0.237788 0.00134754  0.0333315 -0.277871 0.00209761  0.00965679 -0.269785 0.00117803  0.0299624 -0.311766 0.00188756  0.00961393 -0.270294 0.000406027  0.00467104 -0.303697 0.000239134  0.0332975 -0.278397 0.000496149  0.00469285 -0.303161 0.00100899  0.0255724 -0.346871 0.001616  -0.00122732 -0.337736 0.000767946  0.0200766 -0.383209 0.00132918  -0.00124633 -0.338261 -1.88351e-05  -0.00814128 -0.374065 -0.000255585  0.0255594 -0.347407 6.77109e-05  -0.00814694 -0.37353 0.000528574  0.0136074 -0.420601 0.000990629  -0.0159829 -0.410369 0.000228882  0.00610065 -0.459056 0.000641584  -0.0159661 -0.410887 -0.00056982  -0.0247161 -0.448796 -0.000878572  0.0136344 -0.421139 -0.000497818  -0.0247507 -0.448258 -8.46386e-05  -0.00231516 -0.498429 0.000236511  -0.0343808 -0.487064 -0.000448227  -0.0116897 -0.538708 -0.000178576  -0.0343308 -0.487581 -0.00125194  -0.044806 -0.527305 -0.00162292  -0.00225127 -0.498969 -0.00118876  -0.0448782 -0.526774 -0.000828028  -0.0219132 -0.579766 -0.000639915  -0.0561742 -0.56727 -0.00125384  -0.0330179 -0.621601 -0.00111437  -0.0560781 -0.567788 -0.00204992  -0.0681536 -0.609082 -0.00248265  -0.0218101 -0.580307 -0.00199175  -0.0682657 -0.608544 -0.00169587  -0.0448979 -0.664102 -0.00163078  -0.0810887 -0.6505 -0.00217986  -0.0575796 -0.707257 -0.00216317  -0.0809553 -0.651018 -0.00295782  -0.0944909 -0.69365 -0.00344276  -0.0447594 -0.66464 -0.00291371  -0.0946426 -0.693119 -0.00267887  -0.0709735 -0.750976 -0.00272727  -0.108864 -0.736317 -0.00321126  -0.0850919 -0.795249 -0.00330639  -0.108687 -0.736838 -0.00396562  -0.123553 -0.780621 -0.00450039  -0.0707933 -0.751519 -0.00392914  -0.123744 -0.78008 -0.00376248  -0.0998513 -0.839999 -0.00391793  -0.139225 -0.824342 -0.00434542  -0.115259 -0.88521 -0.00454259  -0.13901 -0.824865 -0.00506783  -0.155075 -0.869618 -0.00564384  -0.099632 -0.840542 -0.00504446  -0.155306 -0.869081 -0.00494289  -0.131247 -0.930816 -0.0051899  -0.171924 -0.914234 -0.00556302  -0.147816 -0.97681 -0.00585008  -0.171668 -0.914764 -0.00624847  -0.188805 -0.96034 -0.00686574  -0.130989 -0.931366 -0.0062294  -0.189073 -0.959793 -0.00620008  -0.164895 -1.02313 -0.00653434  -0.206698 -1.00571 -0.00685787  -0.182485 -1.06978 -0.00722861  -0.206408 -1.00624 -0.00750327  -0.224497 -1.0525 -0.00815082  -0.164603 -1.02368 -0.00749683  -0.224799 -1.05195 -0.00752878  -0.200531 -1.11668 -0.00793886  -0.243318 -1.09849 -0.00821519  -0.219025 -1.16385 -0.00866103  -0.242993 -1.09903 -0.00881863  -0.261919 -1.14586 -0.0094974  -0.200204 -1.11724 -0.008816  -0.262252 -1.1453 -0.00891733  -0.237914 -1.21124 -0.00939727  -0.281546 -1.19236 -0.0096314  -0.25719 -1.25883 -0.0101433  -0.281194 -1.1929 -0.0101902  -0.300843 -1.24019 -0.0108926  -0.237558 -1.2118 -0.0102007  -0.301206 -1.23964 -0.0103576  -0.27681 -1.3066 -0.0109  -0.321176 -1.28711 -0.0110939  -0.296764 -1.35452 -0.0116634  -0.32079 -1.28766 -0.0116098  -0.341066 -1.33533 -0.012331  -0.276424 -1.30716 -0.0116229  -0.341454 -1.33476 -0.0118384  -0.317005 -1.40258 -0.0124373  -0.361992 -1.38256 -0.0125942  -0.337527 -1.45076 -0.0132194  -0.361585 -1.38311 -0.0130644  -0.382382 -1.43107 -0.013804  -0.316595 -1.40315 -0.0130901  -0.382796 -1.43051 -0.0133576  -0.358294 -1.49903 -0.0140033  -0.403816 -1.47856 -0.0141251  -0.379297 -1.54739 -0.0147939  -0.403383 -1.47912 -0.0145521  -0.424617 -1.52729 -0.0153055  -0.35786 -1.49961 -0.01458  -0.425051 -1.52672 -0.0149014  -0.400496 -1.59582 -0.0155885  -0.446459 -1.57496 -0.0156817  -0.421883 -1.6443 -0.0163901  -0.44601 -1.57552 -0.0160649  -0.467597 -1.62384 -0.016825  -0.400044 -1.59639 -0.0161021  -0.46805 -1.62328 -0.0164673  -0.443431 -1.69281 -0.0171905  -0.489773 -1.67164 -0.0172534  -0.465128 -1.74136 -0.0179944  -0.489303 -1.6722 -0.0175939  -0.511165 -1.72062 -0.0183649  -0.44296 -1.69339 -0.0176332  -0.511632 -1.72004 -0.0180461  -0.486945 -1.78991 -0.0188007  -0.533592 -1.76848 -0.0188401  -0.508877 -1.83848 -0.0196092  -0.533109 -1.76904 -0.0191388  -0.555179 -1.8175 -0.0199106  -0.48646 -1.79049 -0.0191875  -0.555662 -1.81693 -0.0196369  -0.530898 -1.88703 -0.0204129  -0.577799 -1.86538 -0.0204313  -0.553001 -1.93557 -0.02122  -0.5773 -1.86595 -0.0206885  -0.599516 -1.91442 -0.0214655  -0.530397 -1.88761 -0.0207357  -0.600011 -1.91384 -0.0212297  -0.575162 -1.98408 -0.0220244  -0.622262 -1.96228 -0.0220244  -0.597375 -2.03256 -0.0228331  -0.621755 -1.96284 -0.0222433  -0.644063 -2.01127 -0.0230174  -0.574651 -1.98466 -0.0222993  -0.644569 -2.0107 -0.0228229  -0.619626 -2.081 -0.0236342  -0.66689 -2.05908 -0.0236177  -0.641905 -2.12939 -0.0244372  -0.666371 -2.05964 -0.0237973  -0.688724 -2.108 -0.0245748  -0.619104 -2.08158 -0.0238509  -0.689236 -2.10743 -0.0244155  -0.664191 -2.17773 -0.0252364  -0.711576 -2.15573 -0.025208  -0.686488 -2.22602 -0.0260375  -0.711056 -2.15629 -0.0253513  -0.733412 -2.20456 -0.026124  -0.663665 -2.17831 -0.0254109  -0.73393 -2.20399 -0.0260034  -0.70878 -2.27423 -0.0268304  -0.756264 -2.25218 -0.0267913  -0.731068 -2.32239 -0.027622  -0.755735 -2.25275 -0.0269005  -0.778068 -2.3009 -0.0276701  -0.708247 -2.27481 -0.0269563  -0.778591 -2.30032 -0.0275805  -0.753331 -2.37048 -0.0284107  -0.800884 -2.3484 -0.0283659  -0.775578 -2.4185 -0.029201  -0.800351 -2.34896 -0.0284417  -0.822636 -2.39699 -0.0292065  -0.752795 -2.37106 -0.0285037  -0.823164 -2.39642 -0.0291502  -0.797792 -2.46645 -0.0299823  -0.845397 -2.44436 -0.0299289  -0.819978 -2.51432 -0.0307653  -0.844861 -2.44492 -0.0299754  -0.867077 -2.49281 -0.03074  -0.797251 -2.46703 -0.0300338  -0.867604 -2.49223 -0.0307117  -0.842116 -2.56212 -0.0315461  -0.889749 -2.54003 -0.0314898  -0.864213 -2.60985 -0.0323319  -0.889215 -2.5406 -0.0315061  -0.911327 -2.58834 -0.0322609  -0.841577 -2.56271 -0.0315673  -0.911853 -2.58775 -0.0322683  0.00272305 -0.0101927 0.00141072  0.00226633 -0.00736612 0.00121903  0.00917104 -0.0223538 0.00239444  0.00228284 -0.00752372 0.00040555  0.0070821 -0.0179698 0.000498772  0 0 0  0 0 0  0.00275581 -0.0102925 0.000405312  0 0 0  0.00721212 -0.0178284 0.00200391  0.0177751 -0.0387345 0.00324059  0.0137544 -0.0327991 0.00270724  0.0278505 -0.0558931 0.00394964  0.0137007 -0.0329918 0.000701904  0.0212034 -0.0495009 0.000854731  0.0176935 -0.0388868 0.000694036  0.0213144 -0.0492692 0.00321245  0.0375851 -0.0756577 0.00430989  0.028951 -0.0685543 0.00350356  0.0470454 -0.0968959 0.00463486  0.0288467 -0.0688277 0.000928879  0.0360031 -0.0898678 0.00104809  0.0374516 -0.0759248 0.00096488  0.0361174 -0.0895197 0.00370622  0.055463 -0.120117 0.00472045  0.0425166 -0.112532 0.00375772  0.0628108 -0.14519 0.0047636  0.0424002 -0.112896 0.00105381  0.0477337 -0.13781 0.00109506  0.0553328 -0.1205 0.00113654  0.0478337 -0.13737 0.00376582  0.068965 -0.172005 0.00469017  0.0520771 -0.163945 0.00368738  0.0738027 -0.200661 0.00457263  0.0519807 -0.164383 0.00104403  0.0550073 -0.192787 0.00100851  0.0688677 -0.17247 0.00114393  0.055081 -0.192296 0.00358391  0.0774148 -0.230915 0.00438833  0.0569252 -0.222213 0.00342631  0.0796872 -0.262846 0.00418234  0.0568547 -0.222693 0.000895262  0.0574692 -0.254268 0.000787973  0.077359 -0.231426 0.000991106  0.0575166 -0.25374 0.0032475  0.0807464 -0.296207 0.00391364  0.0569455 -0.286677 0.00299954  0.0804861 -0.331036 0.00362277  0.0569059 -0.287191 0.000596285  0.0551455 -0.321588 0.000413418  0.0807143 -0.29674 0.000693083  0.0551644 -0.321052 0.00274348  0.0790488 -0.367122 0.00327396  0.0522537 -0.356657 0.00243855  0.0763602 -0.404479 0.00291467  0.0522447 -0.357182 0.000159979  0.0481977 -0.394053 -9.65595e-05  0.0790528 -0.367666 0.000252962  0.0481889 -0.393509 0.00211811  0.0725513 -0.442918 0.00250912  0.0430498 -0.431437 0.00174284  0.067561 -0.482434 0.00208449  0.0430721 -0.431964 -0.000407934  0.0368603 -0.47098 -0.000724316  0.0725843 -0.443458 -0.000321388  0.0368226 -0.470434 0.00135875  0.0615182 -0.522875 0.00161433  0.0295877 -0.51035 0.000925064  0.0543805 -0.564231 0.00112796  0.0296445 -0.510878 -0.0011003  0.0214217 -0.551719 -0.00148249  0.0615848 -0.523418 -0.00102544  0.0213445 -0.551174 0.000473022  0.0462723 -0.606349 0.00060153  0.0121788 -0.592775 -2.45571e-05  0.0371534 -0.649233 5.50747e-05  0.0122764 -0.5933 -0.00192213  0.00219071 -0.635687 -0.00236368  0.0463738 -0.606887 -0.00185204  0.00207651 -0.635146 -0.000537634  0.0271394 -0.692761 -0.000520945  -0.00887442 -0.678169 -0.00108075  0.0162084 -0.736933 -0.00111699  -0.00874054 -0.678697 -0.00284791  -0.020524 -0.722386 -0.00334311  0.0272797 -0.693305 -0.00278592  -0.0206747 -0.721839 -0.00164175  0.00446534 -0.781636 -0.00173807  -0.0332428 -0.76606 -0.00224042  -0.00811088 -0.826866 -0.00238514  -0.03307 -0.766592 -0.00387883  -0.0463983 -0.811367 -0.00442147  0.00463986 -0.782181 -0.00382638  -0.046589 -0.810823 -0.00285172  -0.0214225 -0.872532 -0.00304461  -0.0606273 -0.856039 -0.00348544  -0.0354829 -0.918637 -0.00372481  -0.0604149 -0.856571 -0.00499535  -0.0751339 -0.902255 -0.00557947  -0.0212075 -0.873079 -0.00495362  -0.075361 -0.901703 -0.00413394  -0.0501965 -0.965093 -0.00442171  -0.0907089 -0.947745 -0.00481272  -0.0655835 -1.0119 -0.00514317  -0.0904607 -0.948282 -0.00619841  -0.106426 -0.994707 -0.00681996  -0.049949 -0.965643 -0.00616527  -0.106689 -0.994158 -0.00550127  -0.0815547 -1.059 -0.00586987  -0.123217 -1.04087 -0.00620461  -0.0981206 -1.10638 -0.0066123  -0.122932 -1.04141 -0.00746799  -0.14 -1.08845 -0.00812268  -0.0812689 -1.05955 -0.007447  -0.140298 -1.08789 -0.00692058  -0.115197 -1.15399 -0.00736713  -0.157855 -1.13516 -0.007658  -0.132798 -1.20182 -0.00814223  -0.157537 -1.13571 -0.0088048  -0.175579 -1.18323 -0.00948882  -0.114881 -1.15455 -0.00879169  -0.175908 -1.18267 -0.00840545  -0.150851 -1.24982 -0.00891781  -0.194378 -1.23037 -0.0091598  -0.16936 -1.298 -0.00970721  -0.19403 -1.23092 -0.0101926  -0.212918 -1.27883 -0.0109  -0.1505 -1.25038 -0.0101905  -0.213275 -1.27826 -0.00992417  -0.188253 -1.3463 -0.0105004  -0.232527 -1.32631 -0.0107048  -0.207546 -1.39474 -0.0113113  -0.232151 -1.32686 -0.0116293  -0.251772 -1.37506 -0.0123568  -0.187878 -1.34687 -0.0116355  -0.252157 -1.3745 -0.0114896  -0.22717 -1.44326 -0.0121126  -0.27209 -1.42279 -0.0122774  -0.247133 -1.49188 -0.0129287  -0.271689 -1.42335 -0.0130982  -0.291929 -1.47177 -0.0138409  -0.226766 -1.44383 -0.0131123  -0.292338 -1.4712 -0.013073  -0.267371 -1.54054 -0.013746  -0.312833 -1.51967 -0.0138793  -0.287894 -1.58927 -0.014576  -0.312409 -1.52023 -0.0146015  -0.333173 -1.5688 -0.0153568  -0.266946 -1.54112 -0.0146215  -0.333604 -1.56823 -0.0146875  -0.30865 -1.63802 -0.0153956  -0.35458 -1.61682 -0.0154932  -0.329641 -1.68681 -0.0162251  -0.354136 -1.61738 -0.0161228  -0.375328 -1.66604 -0.0168869  -0.308203 -1.6386 -0.0161512  -0.375775 -1.66546 -0.016305  -0.350815 -1.73559 -0.01705  -0.397129 -1.71411 -0.0171242  -0.37218 -1.78438 -0.017889  -0.396667 -1.71468 -0.0176666  -0.418202 -1.76336 -0.0184379  -0.350352 -1.73617 -0.017698  -0.418669 -1.76278 -0.0179436  -0.393693 -1.83314 -0.018713  -0.440331 -1.81145 -0.0187571  -0.415356 -1.8819 -0.0195439  -0.439853 -1.81202 -0.0192177  -0.461655 -1.86069 -0.0199914  -0.393212 -1.83372 -0.0192564  -0.462134 -1.86011 -0.0195727  -0.437125 -1.93061 -0.0203683  -0.484021 -1.90875 -0.0203931  -0.459011 -1.97929 -0.021204  -0.483531 -1.90932 -0.0207787  -0.50553 -1.95794 -0.0215559  -0.436633 -1.93119 -0.0208211  -0.506023 -1.95737 -0.0212116  -0.480973 -2.02792 -0.0220218  -0.528081 -2.00595 -0.0220242  -0.503018 -2.07651 -0.0228462  -0.527578 -2.00651 -0.0223389  -0.549713 -2.05506 -0.0231142  -0.480465 -2.0285 -0.0223866  -0.550215 -2.05448 -0.0228357  -0.525108 -2.12503 -0.0236604  -0.572377 -2.10297 -0.0236499  -0.547253 -2.17348 -0.0244856  -0.571864 -2.10353 -0.0239015  -0.594083 -2.15197 -0.0246768  -0.524593 -2.1256 -0.0239515  -0.594596 -2.1514 -0.024462  -0.569422 -2.22187 -0.0252903  -0.616821 -2.19977 -0.025265  -0.591621 -2.2702 -0.0261011  -0.616302 -2.20033 -0.0254579  -0.638556 -2.24865 -0.0262284  -0.568897 -2.22245 -0.0255101  -0.639072 -2.24807 -0.0260661  -0.613817 -2.31844 -0.0269012  -0.66131 -2.29631 -0.0268698  -0.636028 -2.36661 -0.0277109  -0.660785 -2.29687 -0.0270107  -0.683041 -2.34505 -0.0277779  -0.61329 -2.31902 -0.0270638  -0.683564 -2.34448 -0.0276682  -0.658225 -2.41471 -0.0285003  -0.705792 -2.39257 -0.0284562  -0.680421 -2.46273 -0.0292962  -0.705265 -2.39313 -0.0285511  -0.727492 -2.44117 -0.0293145  -0.657691 -2.41528 -0.0286074  -0.728017 -2.44059 -0.0292447  -0.702587 -2.51068 -0.0300806  -0.750201 -2.48854 -0.0300341  -0.72474 -2.55854 -0.030875  -0.74967 -2.48911 -0.0300887  -0.771848 -2.53699 -0.0308497  -0.702053 -2.51125 -0.030144  -0.772375 -2.53642 -0.0308216  -0.746857 -2.60635 -0.0316536  -0.7945 -2.58422 -0.0316014  -0.768959 -2.65409 -0.0324466  -0.79397 -2.58478 -0.0316155  -0.816067 -2.63254 -0.0323703  -0.746321 -2.60692 -0.031672  -0.81659 -2.63196 -0.0323827  0.00461193 -0.0192323 0.00182581  0.00413994 -0.0138767 0.00175357  0.0163684 -0.0361248 0.00316572  0.00413014 -0.0141111 0.000434399  0.0123473 -0.0287511 0.000549555  0 0 0  0 0 0  0.00470797 -0.0193289 0.000441313  0 0 0  0.0123926 -0.0285441 0.00285578  0.0294365 -0.054721 0.00439763  0.0232305 -0.0459529 0.00391889  0.0440264 -0.0733309 0.00537634  0.0231683 -0.0461952 0.000741482  0.0350265 -0.064347 0.000979185  0.0293124 -0.0549772 0.00072217  0.0350605 -0.0640447 0.00469947  0.0580293 -0.093042 0.00594926  0.0472256 -0.0837858 0.0051825  0.0712734 -0.114644 0.00642204  0.0471005 -0.0841131 0.00103498  0.058431 -0.105721 0.00122571  0.0578752 -0.0934511 0.00108457  0.0585308 -0.105318 0.00554252  0.0835742 -0.137848 0.00657892  0.0690491 -0.128559 0.00567245  0.094524 -0.163248 0.00667548  0.0689163 -0.128967 0.00122833  0.0781651 -0.154287 0.00129604  0.0834429 -0.138328 0.00131559  0.0782663 -0.153826 0.00572133  0.1043 -0.19043 0.00659204  0.0862826 -0.180843 0.00564575  0.112595 -0.219627 0.00646043  0.0861766 -0.181305 0.00124645  0.0928402 -0.210278 0.00121379  0.104201 -0.190932 0.00134325  0.092916 -0.209773 0.00552058  0.11958 -0.25054 0.0062449  0.0982357 -0.240367 0.0053196  0.125088 -0.28321 0.00598001  0.098163 -0.240861 0.0011034  0.102122 -0.273194 0.000988007  0.119524 -0.251056 0.00120783  0.102166 -0.27267 0.00507879  0.129248 -0.317403 0.00566316  0.104779 -0.306453 0.00478745  0.131968 -0.353116 0.00531626  0.10475 -0.306962 0.000807762  0.106032 -0.342262 0.000616074  0.129229 -0.317931 0.000908375  0.106046 -0.341719 0.00446939  0.133368 -0.390148 0.00491714  0.10603 -0.378285 0.00409317  0.133379 -0.428467 0.00449228  0.106025 -0.378807 0.000363111  0.104735 -0.416667 9.94205e-05  0.133372 -0.390677 0.000466108  0.104717 -0.416129 0.00369191  0.132131 -0.467899 0.00401425  0.102191 -0.455066 0.00325465  0.129578 -0.508429 0.00352383  0.102225 -0.45559 -0.000221014  0.0984875 -0.495634 -0.000546694  0.132169 -0.468432 -0.000118494  0.0984408 -0.49509 0.00280404  0.125845 -0.549881 0.0029974  0.0935514 -0.536045 0.00229716  0.120883 -0.592234 0.00244117  0.0936161 -0.536566 -0.000925303  0.0876004 -0.578447 -0.00131607  0.125911 -0.550407 -0.00083065  0.0875185 -0.577907 0.00177741  0.114835 -0.635344 0.00184822  0.0804398 -0.620526 0.00121832  0.107653 -0.679212 0.00123978  0.0805441 -0.621049 -0.0017612  0.0724211 -0.664456 -0.00220966  0.114939 -0.635878 -0.00167727  0.0723044 -0.663908 0.000646353  0.0994743 -0.723706 0.000603437  0.0632094 -0.707926 3.40939e-05  0.0902593 -0.768821 -5.45979e-05  0.06335 -0.708456 -0.00270796  0.0532998 -0.753128 -0.00320983  0.0996109 -0.724247 -0.00263429  0.0531449 -0.752579 -0.000590801  0.0801394 -0.814425 -0.00074029  0.0422136 -0.797739 -0.00124407  0.0690773 -0.860541 -0.00143862  0.0423923 -0.798276 -0.00375605  0.0305983 -0.843974 -0.00431132  0.0803183 -0.814973 -0.00369263  0.0304052 -0.84342 -0.00191283  0.0572038 -0.907053 -0.00216079  0.0178148 -0.889519 -0.00260973  0.0444785 -0.953975 -0.00290036  0.0180305 -0.890056 -0.0048995  0.00465202 -0.936599 -0.00549364  0.0574176 -0.907603 -0.0048492  0.00442421 -0.936043 -0.00331783  0.0310247 -1.0012 -0.00365281  -0.00965869 -0.98289 -0.00404334  0.0168051 -1.04876 -0.00441623  -0.00940859 -0.983435 -0.00612211  -0.0241908 -1.03064 -0.00675559  0.0312742 -1.00176 -0.00608253  -0.0244548 -1.03008 -0.00478148  0.0019443 -1.09656 -0.005198  -0.0398687 -1.07754 -0.00554204  -0.0136005 -1.14461 -0.00599456  -0.0395832 -1.07809 -0.00741696  -0.0556283 -1.12583 -0.00808048  0.00222659 -1.09712 -0.00738883  -0.0559251 -1.12527 -0.00630975  -0.0297117 -1.19284 -0.00679827  -0.0725175 -1.17319 -0.00708771  -0.0464268 -1.24126 -0.00760913  -0.0721992 -1.17374 -0.00877142  -0.0893428 -1.2219 -0.00946617  -0.0293944 -1.1934 -0.00875545  -0.0896709 -1.22133 -0.00787663  -0.0636353 -1.28981 -0.00843167  -0.1073 -1.26961 -0.0086813  -0.0813763 -1.33851 -0.00926542  -0.10695 -1.27017 -0.0101814  -0.12507 -1.31864 -0.010896  -0.0632882 -1.29038 -0.0101748  -0.125428 -1.31807 -0.00949049  -0.0995426 -1.38728 -0.0101027  -0.143955 -1.36661 -0.0103052  -0.118175 -1.43616 -0.0109434  -0.143579 -1.36717 -0.0116336  -0.16253 -1.41585 -0.0123723  -0.0991678 -1.38786 -0.0116374  -0.162915 -1.41527 -0.0111277  -0.137171 -1.48509 -0.0117896  -0.182222 -1.46401 -0.0119565  -0.156569 -1.53408 -0.012645  -0.181819 -1.46457 -0.0131233  -0.201499 -1.5134 -0.0138721  -0.13677 -1.48566 -0.0131369  -0.201908 -1.51282 -0.0127907  -0.176275 -1.58308 -0.0134957  -0.221877 -1.56166 -0.0136244  -0.196324 -1.63211 -0.0143485  -0.221453 -1.56223 -0.0146375  -0.241731 -1.61113 -0.0154014  -0.17585 -1.58366 -0.0146589  -0.242162 -1.61055 -0.0144615  -0.216627 -1.68114 -0.0152032  -0.262687 -1.65945 -0.015305  -0.237219 -1.73017 -0.0160658  -0.262241 -1.66001 -0.0161765  -0.283036 -1.70894 -0.0169461  -0.216182 -1.68172 -0.0162039  -0.283484 -1.70836 -0.0161498  -0.258018 -1.77916 -0.0169218  -0.304467 -1.75725 -0.0169899  -0.279055 -1.82814 -0.0177765  -0.304003 -1.75782 -0.0177298  -0.325199 -1.80673 -0.0185075  -0.257552 -1.77974 -0.0177646  -0.325667 -1.80614 -0.0178318  -0.300257 -1.87706 -0.0186303  -0.34702 -1.855 -0.018677  -0.321652 -1.92596 -0.0194881  -0.346539 -1.85557 -0.0192945  -0.368073 -1.90441 -0.0200727  -0.299775 -1.87764 -0.0193353  -0.368556 -1.90383 -0.0195205  -0.343171 -1.97478 -0.0203381  -0.390196 -1.9526 -0.0203571  -0.364844 -2.02355 -0.0211847  -0.389701 -1.95318 -0.0208638  -0.411476 -2.00192 -0.0216475  -0.342673 -1.97536 -0.02091  -0.411973 -2.00134 -0.0211935  -0.386607 -2.07225 -0.0220268  -0.433832 -2.05001 -0.0220287  -0.408486 -2.12089 -0.0228713  -0.433322 -2.05058 -0.0224354  -0.455291 -2.09921 -0.0232139  -0.386096 -2.07283 -0.0224864  -0.455799 -2.09863 -0.0228615  -0.430427 -2.16943 -0.0237029  -0.477809 -2.14717 -0.0236852  -0.452451 -2.21792 -0.024529  -0.477293 -2.14774 -0.0240016  -0.499376 -2.19622 -0.02478  -0.429905 -2.17002 -0.024055  -0.499892 -2.19564 -0.0245059  -0.474506 -2.26632 -0.0253525  -0.522 -2.24404 -0.0253258  -0.496614 -2.31464 -0.0261774  -0.521474 -2.24461 -0.0255628  -0.543635 -2.29295 -0.0263362  -0.473979 -2.2669 -0.0256195  -0.544157 -2.29238 -0.0261416  -0.518733 -2.36287 -0.0269887  -0.56631 -2.34061 -0.026948  -0.540881 -2.41102 -0.0277922  -0.565782 -2.34118 -0.027117  -0.587958 -2.38936 -0.0278876  -0.518198 -2.36345 -0.027174  -0.588486 -2.38878 -0.0277505  -0.563022 -2.4591 -0.0285952  -0.610651 -2.43687 -0.0285509  -0.585171 -2.50709 -0.0293984  -0.610116 -2.43744 -0.0286622  -0.632296 -2.48546 -0.0294263  -0.562483 -2.45968 -0.0287218  -0.632825 -2.48489 -0.0293498  -0.607302 -2.55501 -0.0301886  -0.654972 -2.53282 -0.0301375  -0.629436 -2.60285 -0.0309749  -0.654436 -2.53339 -0.0301983  -0.676578 -2.58126 -0.0309598  -0.60676 -2.55559 -0.0302563  -0.677111 -2.58068 -0.0309248  -0.651549 -2.65065 -0.0317612  -0.699226 -2.62848 -0.0317137  -0.673662 -2.6984 -0.0325527  -0.698686 -2.62905 -0.0317271  -0.720792 -2.67681 -0.0324888  -0.651005 -2.65123 -0.0317848  -0.72132 -2.67623 -0.0325055  0.00811785 -0.0359156 0.00224447  0.00744838 -0.025883 0.00218463  0.0304496 -0.060663 0.00367498  0.00732073 -0.0262755 0.000395536  0.0210259 -0.0475615 0.000570536  0 0 0  0 0 0  0.00793986 -0.0359685 0.000458002  0 0 0  0.0209478 -0.0472006 0.00351214  0.0494524 -0.07617 0.00566077  0.037679 -0.0648096 0.00495195  0.0654359 -0.0953467 0.00671482  0.0375713 -0.0651631 0.000799179  0.0535833 -0.0843412 0.00111341  0.0488137 -0.0770688 0.000696182  0.0535575 -0.0839356 0.00600052  0.0831168 -0.113774 0.00756049  0.0697888 -0.103083 0.00674725  0.0990895 -0.135189 0.00811505  0.0696216 -0.103547 0.00119829  0.0846245 -0.125089 0.00142598  0.0829765 -0.11451 0.00120759  0.084707 -0.124618 0.0072391  0.1148 -0.158378 0.0083406  0.0987402 -0.147815 0.00746918  0.129086 -0.18396 0.00844646  0.0985963 -0.148306 0.00143933  0.111382 -0.17377 0.00151801  0.114712 -0.158965 0.00152659  0.11147 -0.173281 0.00756311  0.142211 -0.211621 0.00838017  0.122885 -0.200704 0.00749946  0.153822 -0.241372 0.00822926  0.122781 -0.201191 0.00147128  0.132829 -0.230655 0.00143909  0.142136 -0.21214 0.00158405  0.132896 -0.230154 0.00735545  0.164018 -0.273006 0.00800133  0.141462 -0.261424 0.00714087  0.172619 -0.306454 0.00770235  0.14139 -0.261915 0.00133681  0.148521 -0.294988 0.00122285  0.163967 -0.27349 0.00145984  0.148558 -0.294466 0.00686169  0.179774 -0.341515 0.00734878  0.154203 -0.329089 0.0065167  0.185331 -0.37812 0.00692415  0.154172 -0.329587 0.00104189  0.158369 -0.365766 0.000847578  0.179752 -0.341984 0.00117826  0.158377 -0.365243 0.00613666  0.189472 -0.41608 0.00649214  0.161135 -0.402743 0.00571609  0.192048 -0.455369 0.00600576  0.161134 -0.40324 0.000591993  0.162487 -0.442073 0.000329494  0.189474 -0.416557 0.000720024  0.16247 -0.441539 0.00526071  0.1933 -0.495771 0.00548935  0.162458 -0.481463 0.00476098  0.193044 -0.537289 0.0049212  0.162487 -0.481965 1.66893e-06  0.161143 -0.523012 -0.00033164  0.193329 -0.496249 0.000124216  0.161088 -0.52249 0.00422859  0.191567 -0.579691 0.00435042  0.158468 -0.564422 0.00367928  0.188658 -0.623014 0.00371408  0.158531 -0.564921 -0.000717878  0.154656 -0.607796 -0.00111866  0.191626 -0.580168 -0.000608683  0.154573 -0.607259 0.00308919  0.184628 -0.667058 0.0030942  0.149517 -0.650846 0.00247169  0.179273 -0.711861 0.00240946  0.149614 -0.651353 -0.00156736  0.143399 -0.695726 -0.00203013  0.184718 -0.667544 -0.00146294  0.143287 -0.695189 0.00182819  0.172895 -0.75724 0.00172353  0.135991 -0.740132 0.00116491  0.165295 -0.803242 0.000991106  0.136117 -0.740647 -0.00253487  0.127758 -0.78624 -0.00304985  0.173017 -0.757742 -0.00244498  0.127614 -0.785695 0.000474453  0.156786 -0.849674 0.000279665  0.118286 -0.831724 -0.000236034  0.147146 -0.89661 -0.000493526  0.118452 -0.832242 -0.00361061  0.108151 -0.878803 -0.00417376  0.156938 -0.850177 -0.00352263  0.107968 -0.878261 -0.000968695  0.136692 -0.943882 -0.0012629  0.0967876 -0.92516 -0.00171638  0.125223 -0.991558 -0.00207543  0.0969878 -0.925684 -0.00477672  0.0849324 -0.973018 -0.00538516  0.136887 -0.944395 -0.00470281  0.0847173 -0.972465 -0.00248265  0.113036 -1.03947 -0.00285673  0.0718833 -1.02005 -0.00326109  0.0999131 -1.08771 -0.0036912  0.0721219 -1.02058 -0.00602698  0.058491 -1.06851 -0.00667024  0.113259 -1.03999 -0.00596714  0.0582397 -1.06796 -0.00405693  0.0861607 -1.13612 -0.00451303  0.0439162 -1.11607 -0.00486064  0.0715742 -1.18478 -0.005373  0.0441841 -1.1166 -0.00734282  0.0291553 -1.16499 -0.00802016  0.0864222 -1.13665 -0.00729775  0.0288744 -1.16443 -0.00567985  0.0564461 -1.23354 -0.00620151  0.0132411 -1.21294 -0.00650597  0.04056 -1.28249 -0.00707579  0.0135455 -1.21347 -0.00872374  -0.00272131 -1.26219 -0.00942588  0.0567341 -1.23407 -0.00869203  -0.00303602 -1.26164 -0.00734544  0.0242026 -1.33151 -0.00793576  -0.0198359 -1.31043 -0.00818872  0.00717926 -1.38066 -0.00882316  -0.0195038 -1.31097 -0.0101545  -0.0368569 -1.35993 -0.0108817  0.0245273 -1.33204 -0.0101368  -0.0371981 -1.35936 -0.00904083  -0.0102384 -1.42982 -0.00967908  -0.0550022 -1.40834 -0.00989842  -0.0282564 -1.47908 -0.0105767  -0.0546386 -1.40889 -0.0116301  -0.0729353 -1.45799 -0.0123746  -0.00988984 -1.43036 -0.011621  -0.0733073 -1.45742 -0.0107636  -0.0466132 -1.52833 -0.0114555  -0.0919991 -1.50652 -0.0116274  -0.0654888 -1.57763 -0.0123572  -0.0916111 -1.50706 -0.0131373  -0.110724 -1.55624 -0.0138969  -0.0462313 -1.52887 -0.0131416  -0.111118 -1.55567 -0.0124967  -0.0846372 -1.62688 -0.0132241  -0.130556 -1.60481 -0.013366  -0.104252 -1.67616 -0.0141249  -0.130143 -1.60536 -0.0146713  -0.149952 -1.65454 -0.01544  -0.0842376 -1.62743 -0.0146837  -0.150371 -1.65398 -0.0142405  -0.124091 -1.72538 -0.015007  -0.170456 -1.7031 -0.0151095  -0.144323 -1.77459 -0.0159078  -0.170025 -1.70366 -0.0162232  -0.190416 -1.75281 -0.0170035  -0.123663 -1.72593 -0.0162463  -0.190851 -1.75223 -0.0159838  -0.164724 -1.82372 -0.0167763  -0.211461 -1.8013 -0.016855  -0.185473 -1.87282 -0.0176697  -0.211005 -1.80186 -0.0177948  -0.231879 -1.85092 -0.0185764  -0.16428 -1.82427 -0.0178244  -0.232339 -1.85036 -0.0177271  -0.206355 -1.92183 -0.0185447  -0.253394 -1.89933 -0.0185926  -0.227523 -1.9708 -0.0194337  -0.252924 -1.89989 -0.0193686  -0.274189 -1.94885 -0.0201547  -0.205887 -1.92239 -0.0194066  -0.27466 -1.94827 -0.0194581  -0.248777 -2.01966 -0.0202897  -0.296055 -1.99712 -0.020319  -0.270278 -2.06847 -0.0211687  -0.295567 -1.99768 -0.0209501  -0.317138 -2.04649 -0.0217354  -0.248299 -2.02022 -0.0209928  -0.317627 -2.04592 -0.0211792  -0.29184 -2.11717 -0.0220253  -0.339301 -2.09462 -0.0220292  -0.313596 -2.1658 -0.0228894  -0.338804 -2.09518 -0.022527  -0.360606 -2.14384 -0.0233119  -0.291343 -2.11773 -0.0225749  -0.361103 -2.14327 -0.022877  -0.335375 -2.21432 -0.0237229  -0.38297 -2.19181 -0.0237191  -0.357321 -2.26277 -0.0245767  -0.382458 -2.19237 -0.0241022  -0.404429 -2.24086 -0.0248811  -0.334873 -2.21488 -0.0241504  -0.404941 -2.24029 -0.0245562  -0.379272 -2.31111 -0.0254109  -0.426953 -2.28866 -0.0253844  -0.401336 -2.35938 -0.0262485  -0.426436 -2.28922 -0.0256667  -0.448512 -2.33754 -0.0264435  -0.378751 -2.31168 -0.0257194  -0.449025 -2.33696 -0.0262084  -0.423379 -2.40754 -0.0270541  -0.471111 -2.38517 -0.0270269  -0.445514 -2.45562 -0.0278783  -0.470582 -2.38573 -0.0272248  -0.492712 -2.43386 -0.0279951  -0.422858 -2.4081 -0.0272756  -0.493236 -2.4333 -0.0278392  -0.467619 -2.50362 -0.0286856  -0.515365 -2.48134 -0.0286434  -0.489771 -2.55155 -0.0294926  -0.514838 -2.4819 -0.0287702  -0.536981 -2.52988 -0.0295365  -0.467087 -2.50419 -0.0288241  -0.537502 -2.52931 -0.0294418  -0.511885 -2.59941 -0.030272  -0.559623 -2.5772 -0.0302358  -0.534025 -2.64721 -0.0310712  -0.559089 -2.57776 -0.0303068  -0.581216 -2.6256 -0.0310674  -0.511356 -2.59998 -0.0303576  -0.581747 -2.62503 -0.0310278  -0.556149 -2.69498 -0.0318623  -0.603868 -2.67281 -0.0318158  -0.578276 -2.7427 -0.0326631  -0.603336 -2.67337 -0.0318332  -0.62546 -2.72112 -0.0325873  -0.555608 -2.69555 -0.0318863  -0.62599 -2.72054 -0.0326021  -0.00372155 -0.0075231 0.00166154  -0.004636 -0.0123393 0.0021081  -0.0129068 -0.0202927 0.0033443  -0.00499397 -0.0121244 0.0041163  -0.0206058 -0.0294384 0.00803781  -0.02042 -0.0258037 0.00490975  0 0 0  -0.02082 -0.0259591 0.00241518  0 0 0  0 0 0  -0.00359374 -0.00692672 0.00365281  0 0 0  -0.0388261 -0.0410228 0.00440669  -0.0209367 -0.0301463 0.00388503  -0.0252232 -0.0331213 0.00467229  -0.036298 -0.0422689 0.00539303  -0.0383437 -0.0461416 0.00560331  -0.035951 -0.0411084 0.0108829  -0.0517862 -0.0536489 0.0129511  -0.053466 -0.0498992 0.0124269  -0.0537312 -0.0507756 0.00634074  -0.0252439 -0.0320868 0.00929356  -0.0711758 -0.0639119 0.00732613  -0.051984 -0.0549001 0.00645828  -0.0526727 -0.0609434 0.0062573  -0.0680533 -0.0677591 0.00732374  -0.0665337 -0.0762368 0.00667715  -0.0678053 -0.0662951 0.0145769  -0.0840684 -0.0805753 0.0153184  -0.0876586 -0.0733409 0.0167029  -0.0878847 -0.0747782 0.00843024  -0.0525713 -0.0595348 0.0124466  -0.106171 -0.088873 0.00884604  -0.084225 -0.0821675 0.00774503  -0.0811023 -0.0939501 0.00686264  -0.100871 -0.0982285 0.00802922  -0.0954962 -0.112871 0.00689054  -0.10059 -0.0966208 0.0158353  -0.117255 -0.114327 0.015722  -0.123998 -0.101538 0.0182037  -0.124312 -0.103265 0.00919366  -0.0808798 -0.0924413 0.0135093  -0.143013 -0.119897 0.00917149  -0.117537 -0.115959 0.0080092  -0.110433 -0.133868 0.00674343  -0.134585 -0.135598 0.00787568  -0.125462 -0.156251 0.00652194  -0.134157 -0.134029 0.0154786  -0.151142 -0.155199 0.0148973  -0.161315 -0.136364 0.0178182  -0.161793 -0.13808 0.00899506  -0.110024 -0.132413 0.0132036  -0.180544 -0.157807 0.00871563  -0.151615 -0.156709 0.00759411  -0.140906 -0.180359 0.00616503  -0.168942 -0.179619 0.00721216  -0.156527 -0.205785 0.00580192  -0.16833 -0.178214 0.0142262  -0.185577 -0.202513 0.0134254  -0.198853 -0.177887 0.0163932  -0.199507 -0.179438 0.00825477  -0.140296 -0.179055 0.0121257  -0.218216 -0.202241 0.00783205  -0.186237 -0.203811 0.0067935  -0.172494 -0.232727 0.00532818  -0.203798 -0.229657 0.00627089  -0.188658 -0.260859 0.0048697  -0.203037 -0.228473 0.0125413  -0.220555 -0.255579 0.0116467  -0.236427 -0.225641 0.0145061  -0.23722 -0.226935 0.00721765  -0.171727 -0.231609 0.0106497  -0.255959 -0.252655 0.00672102  -0.221354 -0.256655 0.00576591  -0.205155 -0.290351 0.00432992  -0.239188 -0.285136 0.00517988  -0.221858 -0.320914 0.00382137  -0.238327 -0.284179 0.0106993  -0.256175 -0.313811 0.00978589  -0.274135 -0.279054 0.0124595  -0.275021 -0.28009 0.00603962  -0.204276 -0.289437 0.00901151  -0.293882 -0.308466 0.00547838  -0.257059 -0.314657 0.00462842  -0.238906 -0.352718 0.00325131  -0.275229 -0.345525 0.00400162  -0.256176 -0.385486 0.00270271  -0.274304 -0.344773 0.00882936  -0.292552 -0.376683 0.00792837  -0.312166 -0.337574 0.0103981  -0.313098 -0.338375 0.00477695  -0.237969 -0.351993 0.00733137  -0.332211 -0.36917 0.0042007  -0.293481 -0.377347 0.00342369  -0.273797 -0.419372 0.00210071  -0.312061 -0.410368 0.00278616  -0.291658 -0.454139 0.00152206  -0.311115 -0.409795 0.00699472  -0.329821 -0.443774 0.00610161  -0.350725 -0.400705 0.00839424  -0.351678 -0.401314 0.00348806  -0.272829 -0.418819 0.00565386  -0.371105 -0.434279 0.00286746  -0.330761 -0.44426 0.00217628  -0.309875 -0.489914 0.00090456  -0.349792 -0.479235 0.00151324  -0.328342 -0.526484 0.000291586  -0.348843 -0.478816 0.00518489  -0.368032 -0.514651 0.0043025  -0.389947 -0.468005 0.00643301  -0.390894 -0.468443 0.00214767  -0.30891 -0.489507 0.00398779  -0.41071 -0.503376 0.00151467  -0.368969 -0.515009 0.000879526  -0.347156 -0.563955 -0.000353575  -0.388486 -0.551744 0.000208139  -0.366221 -0.602148 -0.000993967  -0.387551 -0.551455 0.00340509  -0.407244 -0.588979 0.00252557  -0.429936 -0.539067 0.00452304  -0.430871 -0.539371 0.000785351  -0.3462 -0.563679 0.00232959  -0.451081 -0.576064 0.000110865  -0.408162 -0.589201 -0.000455618  -0.385624 -0.64115 -0.00165629  -0.428162 -0.627528 -0.00115538  -0.40527 -0.680797 -0.00232434  -0.427245 -0.627353 0.00163221  -0.447422 -0.66638 0.000752211  -0.470721 -0.613529 0.0026319  -0.47163 -0.613709 -0.000632524  -0.384693 -0.640984 0.000668287  -0.492257 -0.652001 -0.0013206  -0.448321 -0.666511 -0.00184202  -0.425227 -0.721162 -0.00301576  -0.468791 -0.706261 -0.00255251  -0.445413 -0.76211 -0.00370932  -0.467903 -0.706184 -0.000134468  -0.488549 -0.746574 -0.00101948  -0.512304 -0.691052 0.000759363  -0.513191 -0.691137 -0.00207782  -0.424317 -0.721096 -0.000999928  -0.5342 -0.730854 -0.00280404  -0.489418 -0.746601 -0.003268  -0.46589 -0.803699 -0.00441861  -0.510327 -0.787634 -0.00400853  -0.486574 -0.845801 -0.00513864  -0.509465 -0.787644 -0.00191379  -0.530535 -0.829241 -0.00279999  -0.554645 -0.77134 -0.00111485  -0.5555 -0.77133 -0.00357819  -0.465013 -0.803717 -0.00268579  -0.576885 -0.812332 -0.00431061  -0.531377 -0.829196 -0.00474215  -0.507517 -0.888468 -0.00587606  -0.552689 -0.871364 -0.0054934  -0.528643 -0.931592 -0.00661731  -0.551861 -0.871452 -0.0036931  -0.573316 -0.914129 -0.00458932  -0.597694 -0.854095 -0.00298095  -0.598521 -0.854008 -0.00510192  -0.506667 -0.888567 -0.00438666  -0.620226 -0.89615 -0.00587249  -0.574127 -0.914 -0.00625253  -0.550001 -0.975221 -0.00736785  -0.595791 -0.957183 -0.00703073  -0.571519 -1.01925 -0.0081296  -0.594989 -0.95734 -0.00549173  -0.616777 -1.00097 -0.00638914  -0.641363 -0.939052 -0.00485826  -0.642158 -0.938891 -0.00667834  -0.549185 -0.975383 -0.00610685  -0.664159 -0.982054 -0.0074501  -0.617561 -1.00078 -0.00780535  -0.593234 -1.06371 -0.00890446  -0.639535 -1.04486 -0.00859094  -0.61508 -1.10853 -0.00968075  -0.638764 -1.04507 -0.00729156  -0.660841 -1.08955 -0.00819421  -0.68558 -1.02596 -0.00673103  -0.686349 -1.02575 -0.00827074  -0.592443 -1.06394 -0.00783896  -0.708585 -1.0698 -0.00907397  -0.661593 -1.08929 -0.00938296  -0.637097 -1.15373 -0.010462  -0.683819 -1.13415 -0.0101876  -0.659223 -1.19922 -0.0112514  -0.683075 -1.13442 -0.0091002  -0.705382 -1.17962 -0.0100007  -0.730249 -1.11461 -0.00860929  -0.730986 -1.11433 -0.00990462  -0.63634 -1.154 -0.00958467  -0.753429 -1.15918 -0.0107  -0.70611 -1.17933 -0.0109892  -0.681483 -1.24505 -0.0120494  -0.728542 -1.22487 -0.0117953  -0.703825 -1.29113 -0.0128467  -0.727827 -1.22518 -0.0109031  -0.750322 -1.27102 -0.011802  -0.775282 -1.20476 -0.0104713  -0.775996 -1.20444 -0.0115376  -0.680748 -1.24538 -0.0113282  -0.79858 -1.24996 -0.0123615  -0.75102 -1.27067 -0.0126083  -0.726278 -1.3375 -0.0136483  -0.773606 -1.31679 -0.0134299  -0.748788 -1.38407 -0.0144567  -0.772915 -1.31715 -0.0127056  -0.795538 -1.36352 -0.0136011  -0.820584 -1.29622 -0.0123293  -0.821268 -1.29584 -0.0132015  -0.725573 -1.33786 -0.0130758  -0.843969 -1.34196 -0.0140123  -0.796214 -1.36314 -0.0142465  -0.771373 -1.43088 -0.0152688  -0.818905 -1.40974 -0.0150669  -0.793995 -1.47787 -0.0160818  -0.818243 -1.41014 -0.0144966  -0.840958 -1.45696 -0.0153887  -0.86607 -1.38878 -0.0141733  -0.866732 -1.38837 -0.0148623  -0.770691 -1.43129 -0.0148175  -0.889487 -1.43498 -0.0156982  -0.841604 -1.45653 -0.015893  -0.816676 -1.52505 -0.0168903  -0.864362 -1.50355 -0.0167203  -0.839375 -1.57237 -0.0177021  -0.863721 -1.50398 -0.0162804  -0.88648 -1.55116 -0.0171583  -0.911655 -1.48228 -0.0160043  -0.912291 -1.48184 -0.0165422  -0.816023 -1.52548 -0.0165539  -0.935086 -1.52886 -0.017354  -0.887108 -1.55073 -0.01754  -0.8621 -1.61984 -0.0185165  -0.90989 -1.59807 -0.018358  -0.884824 -1.66742 -0.0193284  -0.909273 -1.59852 -0.0180352  -0.932048 -1.646 -0.0189044  -0.957275 -1.57655 -0.0178006  -0.957893 -1.57609 -0.0181971  -0.861464 -1.6203 -0.0182705  -0.980671 -1.62344 -0.0190268  -0.932652 -1.64553 -0.0191782  -0.907563 -1.71512 -0.0201321  -0.955423 -1.69313 -0.0199993  -0.930285 -1.7629 -0.0209389  -0.954823 -1.69361 -0.0197725  -0.97757 -1.74131 -0.0206268  -1.00285 -1.67144 -0.0195763  -1.00345 -1.67095 -0.0198619  -0.906951 -1.71561 -0.0199716  -1.0262 -1.71856 -0.020669  -0.978159 -1.74082 -0.020813  -0.952996 -1.81076 -0.021745  -1.00089 -1.78861 -0.0216188  -0.975682 -1.85867 -0.0225458  -1.00031 -1.78911 -0.0214767  -1.02302 -1.83697 -0.0223155  -1.04835 -1.7668 -0.021313  -1.04893 -1.76629 -0.0214965  -0.952399 -1.81126 -0.0216448  -1.07161 -1.81409 -0.0223114  -1.02359 -1.83646 -0.022429  -0.998347 -1.90663 -0.0233412  -1.04625 -1.88438 -0.0232389  -1.02098 -1.95462 -0.0241396  -1.04569 -1.88489 -0.0231559  -1.06832 -1.93285 -0.0239797  -1.0937 -1.8625 -0.0230191  -1.09426 -1.86197 -0.0231326  -0.997769 -1.90715 -0.0232973  -1.11688 -1.9099 -0.0239263  -1.06888 -1.93233 -0.0240409  -1.04357 -2.00263 -0.0249341  -1.09146 -1.98032 -0.0248349  -1.06612 -2.05064 -0.0257225  -1.09091 -1.98084 -0.0248027  -1.11346 -2.02886 -0.0256109  -1.13889 -1.95842 -0.0246902  -1.13944 -1.95788 -0.0247419  -1.043 -2.00316 -0.0249219  -1.16196 -2.00587 -0.0255411  -1.11401 -2.02831 -0.0256312  -1.08863 -2.09866 -0.0265007  -1.13651 -2.07632 -0.0264206  -1.11109 -2.14666 -0.0272808  -1.13596 -2.07686 -0.026418  -1.15842 -2.12487 -0.0272062  -1.18388 -2.05444 -0.0263224  -1.18442 -2.05389 -0.0263379  -1.08808 -2.0992 -0.0265174  -1.20687 -2.1019 -0.0271115  -1.15896 -2.12433 -0.0272028  -1.13351 -2.19464 -0.0280571  -1.18136 -2.17231 -0.0279765  -1.15588 -2.24258 -0.0288293  -1.18083 -2.17286 -0.0279946  -1.2032 -2.22084 -0.0287704  -1.2287 -2.15047 -0.0279138  -1.22924 -2.14991 -0.0279  -1.13296 -2.19518 -0.0280821  -1.25159 -2.19789 -0.0286796  -1.20373 -2.22027 -0.0287535  -1.17822 -2.2905 -0.0295923  -1.22606 -2.26821 -0.0295243  -1.20052 -2.33838 -0.0303564  -1.22552 -2.26876 -0.0295463  -1.24781 -2.31666 -0.0303106  -1.27335 -2.24642 -0.0294735  -1.27389 -2.24585 -0.0294533  -1.17768 -2.29105 -0.0296247  -1.2962 -2.29378 -0.0302148  -1.24835 -2.31611 -0.0302916  -1.22279 -2.38622 -0.0311189  -1.27062 -2.36396 -0.0310488  -1.24504 -2.43402 -0.0318775  -1.27008 -2.36451 -0.031074  -1.29236 -2.41234 -0.0318382  -1.31791 -2.34224 -0.0310078  -1.31846 -2.34167 -0.0309892  -1.22224 -2.38677 -0.0311458  -1.34074 -2.38952 -0.0317497  -1.29289 -2.41179 -0.0318139  -0.00177839 -0.00304665 0.0011704  -0.0021681 -0.00472042 0.00143766  -0.00584556 -0.0104096 0.00235748  -0.00215746 -0.00437461 0.0029192  -0.00793792 -0.0135914 0.00551224  0 0 0  0 0 0  -0.0017794 -0.00274509 0.00236154  0 0 0  -0.00766476 -0.0139071 0.00293279  -0.0115983 -0.0220144 0.0031774  -0.0168089 -0.0264177 0.00394869  -0.019182 -0.0363322 0.003901  -0.0169633 -0.0255936 0.00774908  -0.0275044 -0.0393257 0.00924778  -0.0115687 -0.0213773 0.00625348  -0.0273007 -0.0403446 0.00475645  -0.0276289 -0.0522047 0.00437498  -0.0385986 -0.0556718 0.00533295  -0.0368679 -0.0701254 0.00467563  -0.0386117 -0.0544437 0.0104361  -0.0505536 -0.0713386 0.0109963  -0.0275432 -0.0512344 0.00842571  -0.0505457 -0.0726356 0.00568223  -0.0466862 -0.0896344 0.00480652  -0.0626454 -0.0911745 0.00585198  -0.0568845 -0.110795 0.0048182  -0.0624595 -0.0898292 0.0113392  -0.0749524 -0.110056 0.0112915  -0.0464388 -0.0884688 0.00918746  -0.0752046 -0.111412 0.00584888  -0.067634 -0.133693 0.00469828  -0.0880034 -0.133314 0.00572968  -0.0787401 -0.158085 0.00452685  -0.0875927 -0.132003 0.0110693  -0.100711 -0.155533 0.0106685  -0.0671945 -0.132503 0.00896716  -0.101212 -0.156804 0.00551414  -0.0903993 -0.184088 0.00425005  -0.114779 -0.181862 0.00520372  -0.102493 -0.21147 0.00395989  -0.114162 -0.180669 0.0101228  -0.12801 -0.207209 0.00953197  -0.089784 -0.182971 0.00816917  -0.128711 -0.208333 0.00486231  -0.115115 -0.240263 0.00357461  -0.143036 -0.236222 0.00443912  -0.128211 -0.270304 0.00319672  -0.142269 -0.235187 0.00882792  -0.156886 -0.264413 0.00814509  -0.114353 -0.239281 0.0070591  -0.15772 -0.265356 0.00401783  -0.141803 -0.301581 0.0027585  -0.172806 -0.295768 0.0035367  -0.155892 -0.333979 0.00232077  -0.171935 -0.294915 0.00738239  -0.187325 -0.326535 0.00665402  -0.140948 -0.300762 0.005795  -0.188238 -0.32729 0.00305295  -0.170452 -0.36748 0.00183368  -0.204074 -0.359966 0.00253344  -0.185489 -0.401989 0.0013535  -0.203146 -0.359287 0.00587606  -0.219309 -0.393047 0.00513601  -0.169532 -0.366826 0.0044632  -0.220261 -0.393635 0.00201631  -0.20098 -0.437488 0.000831842  -0.236849 -0.428347 0.0014596  -0.216939 -0.473884 0.000300646  -0.235896 -0.427827 0.00435495  -0.252825 -0.463518 0.00360012  -0.20004 -0.436982 0.00308824  -0.253787 -0.463955 0.000896215  -0.233339 -0.511168 -0.000250101  -0.271119 -0.5005 0.000320435  -0.250173 -0.549255 -0.000802517  -0.270165 -0.500117 0.00282669  -0.287843 -0.537535 0.002069  -0.232391 -0.510799 0.00169301  -0.288794 -0.537846 -0.000264883  -0.267427 -0.58814 -0.00138569  -0.306857 -0.576036 -0.000874996  -0.285098 -0.627732 -0.00199008  -0.305916 -0.575776 0.00129056  -0.324313 -0.614752 0.000515461  -0.266497 -0.587887 0.000273228  -0.325246 -0.614945 -0.00150466  -0.303169 -0.668033 -0.00260115  -0.344001 -0.654605 -0.00213385  -0.321614 -0.708969 -0.00322175  -0.343082 -0.654452 -0.000261307  -0.36216 -0.694808 -0.00104117  -0.302253 -0.667891 -0.00117421  -0.363067 -0.694906 -0.00277972  -0.34043 -0.750535 -0.00386429  -0.382478 -0.735877 -0.00344276  -0.359597 -0.792654 -0.00452924  -0.381585 -0.735819 -0.00183201  -0.401292 -0.777415 -0.00263238  -0.339544 -0.750481 -0.00265312  -0.402172 -0.777422 -0.00412941  -0.379101 -0.835328 -0.00519776  -0.422178 -0.819558 -0.00481224  -0.398911 -0.878493 -0.00587702  -0.421311 -0.819582 -0.00343132  -0.441592 -0.862267 -0.00423861  -0.378235 -0.835361 -0.00416636  -0.442442 -0.862197 -0.00551319  -0.419024 -0.922148 -0.00657463  -0.46299 -0.905361 -0.00622702  -0.439416 -0.966224 -0.00729322  -0.462152 -0.905462 -0.00505233  -0.482942 -0.949112 -0.00587773  -0.418191 -0.922252 -0.00571251  -0.483764 -0.948968 -0.00696301  -0.460075 -1.01073 -0.00800729  -0.504785 -0.993035 -0.00769019  -0.480968 -1.0556 -0.0087316  -0.503977 -0.993201 -0.00669694  -0.525214 -1.03769 -0.0075264  -0.459264 -1.0109 -0.00728321  -0.526005 -1.03749 -0.00843406  -0.502091 -1.10085 -0.00947046  -0.547442 -1.08234 -0.00918674  -0.523423 -1.1464 -0.0102298  -0.546663 -1.08257 -0.00836158  -0.568281 -1.12779 -0.00920653  -0.501315 -1.10107 -0.00888324  -0.569044 -1.12753 -0.00996065  -0.544951 -1.19228 -0.0109813  -0.590826 -1.17307 -0.0107226  -0.566644 -1.23843 -0.0117383  -0.590073 -1.17335 -0.0100434  -0.612011 -1.2192 -0.0108857  -0.544194 -1.19256 -0.0105031  -0.612748 -1.21889 -0.0114973  -0.588498 -1.28484 -0.0125055  -0.634821 -1.26501 -0.0122776  -0.610493 -1.33148 -0.0132906  -0.634095 -1.26534 -0.0117309  -0.656291 -1.31173 -0.0125833  -0.587772 -1.28517 -0.0121362  -0.657001 -1.31138 -0.0130751  -0.632619 -1.37834 -0.014066  -0.679298 -1.35799 -0.0138574  -0.654845 -1.42539 -0.0148447  -0.678595 -1.35835 -0.0134251  -0.70099 -1.40519 -0.014272  -0.631913 -1.37871 -0.0137794  -0.701676 -1.4048 -0.0146513  -0.677169 -1.47262 -0.0156291  -0.724144 -1.45182 -0.0154464  -0.699574 -1.51999 -0.0164289  -0.723467 -1.45222 -0.0151174  -0.746006 -1.49942 -0.0159688  -0.676492 -1.47302 -0.0154245  -0.746667 -1.499 -0.0162585  -0.722052 -1.56752 -0.0172148  -0.769252 -1.54635 -0.0170515  -0.744578 -1.61516 -0.0180018  -0.768599 -1.54678 -0.0168085  -0.791235 -1.59428 -0.0176482  -0.721393 -1.56795 -0.0170701  -0.791873 -1.59383 -0.0178516  -0.767146 -1.66291 -0.0187938  -0.81453 -1.64144 -0.0186522  -0.789749 -1.71074 -0.0196006  -0.8139 -1.64189 -0.0184863  -0.836587 -1.68962 -0.0193264  -0.766513 -1.66337 -0.0187125  -0.837205 -1.68914 -0.0194666  -0.812376 -1.75865 -0.0203853  -0.859889 -1.73694 -0.0202565  -0.835007 -1.80662 -0.0211692  -0.859278 -1.73742 -0.0201516  -0.881978 -1.78531 -0.0209727  -0.811756 -1.75914 -0.0203414  -0.882575 -1.78481 -0.0210531  -0.85764 -1.85464 -0.0219576  -0.905256 -1.83275 -0.021848  -0.88027 -1.90268 -0.0227575  -0.904664 -1.83324 -0.0217946  -0.927342 -1.88124 -0.0226138  -0.857045 -1.85514 -0.0219555  -0.927923 -1.88073 -0.0226533  -0.902887 -1.95076 -0.0235369  -0.950565 -1.92874 -0.0234373  -0.925478 -1.99884 -0.0243144  -0.949986 -1.92925 -0.0234203  -0.972616 -1.97729 -0.0242205  -0.902302 -1.95127 -0.0235527  -0.973184 -1.97677 -0.024225  -0.94804 -2.04692 -0.025094  -0.995766 -2.02481 -0.0250089  -0.970576 -2.09499 -0.0258858  -0.995204 -2.02534 -0.0250201  -1.01776 -2.07339 -0.0258176  -0.947475 -2.04745 -0.0251322  -1.01832 -2.07285 -0.0258052  -0.993074 -2.14304 -0.0266557  -1.04082 -2.12089 -0.026576  -1.01553 -2.19107 -0.0274217  -1.04027 -2.12142 -0.0266013  -1.06274 -2.16944 -0.0273764  -0.992514 -2.14359 -0.026695  -1.06329 -2.16889 -0.0273497  -1.03794 -2.23907 -0.0281889  -1.08571 -2.21688 -0.0281186  -1.06031 -2.28702 -0.0289643  -1.08516 -2.21742 -0.0281518  -1.10755 -2.26538 -0.028924  -1.03739 -2.23961 -0.0282359  -1.10809 -2.26483 -0.0288982  -1.08264 -2.33493 -0.0297205  -1.13041 -2.31274 -0.0296524  -1.10493 -2.3828 -0.0304742  -1.12987 -2.31329 -0.0296848  -1.15217 -2.36116 -0.030441  -1.08209 -2.33548 -0.0297573  -1.15271 -2.36061 -0.0304122  -1.12717 -2.43061 -0.0312309  -1.17497 -2.40843 -0.031168  -1.14939 -2.47837 -0.0319955  -1.17442 -2.40898 -0.0311987  -1.19668 -2.45676 -0.0319564  -1.12663 -2.43116 -0.0312665  -1.19722 -2.45621 -0.0319347  -0.000534721 -0.00192875 0.000675201  -0.000888936 -0.00221574 0.000943184  -0.00172346 -0.00824609 0.00135231  -0.000884231 -0.00201452 0.00180364  -0.0031734 -0.00842345 0.0033493  0 0 0  0 0 0  -0.000535827 -0.00175443 0.00123739  0 0 0  -0.00299013 -0.00872377 0.00184536  -0.00345445 -0.0194139 0.00179791  -0.00687015 -0.0202065 0.002496  -0.00616306 -0.0334575 0.00226474  -0.00688012 -0.0196437 0.00478482  -0.0117838 -0.0334121 0.00570583  -0.0034197 -0.0189745 0.00329685  -0.0115818 -0.0341043 0.00311756  -0.00951666 -0.0503249 0.00254464  -0.0177874 -0.0506656 0.00346899  -0.013734 -0.0693878 0.00275779  -0.0177481 -0.0497587 0.00652623  -0.0244634 -0.0681327 0.00690603  -0.00939861 -0.0496011 0.00457501  -0.0244797 -0.0691256 0.0037241  -0.0186599 -0.0903303 0.00284624  -0.0319649 -0.0894082 0.00382996  -0.0242794 -0.113071 0.00285769  -0.0317501 -0.0883199 0.00713921  -0.039679 -0.110309 0.00712323  -0.0183899 -0.0894015 0.00507474  -0.0399545 -0.111415 0.00384355  -0.0306036 -0.13746 0.00278759  -0.0485096 -0.135081 0.00374317  -0.0376143 -0.16346 0.0026679  -0.0480958 -0.133968 0.00695443  -0.0571311 -0.159255 0.00669193  -0.0301625 -0.136459 0.00495625  -0.0576381 -0.160343 0.00358868  -0.045325 -0.190943 0.00246048  -0.0673183 -0.187106 0.00334692  -0.0537512 -0.219891 0.00224233  -0.0667184 -0.186052 0.00628853  -0.0769373 -0.214329 0.00587821  -0.0447198 -0.189965 0.00444102  -0.0776201 -0.215322 0.00308943  -0.062876 -0.250169 0.0019424  -0.0884989 -0.244884 0.0027492  -0.072735 -0.281758 0.00163984  -0.0877576 -0.243949 0.0053494  -0.0991917 -0.274885 0.0048418  -0.0621486 -0.249285 0.00366759  -0.0999972 -0.275739 0.00240469  -0.0832618 -0.314524 0.0012815  -0.11207 -0.307785 0.00200939  -0.0945165 -0.348462 0.000915527  -0.11124 -0.307 0.0042572  -0.12388 -0.340289 0.00370026  -0.082455 -0.31377 0.00274754  -0.124753 -0.340986 0.00160527  -0.106408 -0.383445 0.000505447  -0.138002 -0.375253 0.00116014  -0.118995 -0.419461 8.82149e-05  -0.137115 -0.374618 0.00308251  -0.150908 -0.409989 0.0024879  -0.105554 -0.382825 0.00172687  -0.151822 -0.410541 0.000706196  -0.132182 -0.456402 -0.000370741  -0.166182 -0.446782 0.000222683  -0.146016 -0.494251 -0.000837088  -0.165273 -0.446288 0.00185513  -0.180173 -0.483512 0.00123286  -0.131302 -0.455916 0.000639677  -0.181092 -0.483927 -0.000278234  -0.160424 -0.532924 -0.00132656  -0.196516 -0.521924 -0.00079608  -0.175434 -0.572392 -0.00183344  -0.195604 -0.521556 0.000588894  -0.211535 -0.560421 -5.29289e-05  -0.159543 -0.53256 -0.000503063  -0.212448 -0.560719 -0.00133038  -0.190973 -0.612587 -0.00236702  -0.228864 -0.600272 -0.0018816  -0.207062 -0.653478 -0.00291753  -0.227965 -0.600018 -0.000715017  -0.244865 -0.640341 -0.00138569  -0.190099 -0.612335 -0.00169539  -0.245759 -0.640529 -0.00246167  -0.223649 -0.695013 -0.0034821  -0.263105 -0.681458 -0.00304651  -0.240738 -0.737154 -0.00406718  -0.262222 -0.681307 -0.00206089  -0.280009 -0.722912 -0.00274944  -0.222791 -0.69486 -0.00294328  -0.280884 -0.723008 -0.00365424  -0.258277 -0.779857 -0.0046699  -0.299077 -0.76515 -0.00427055  -0.276267 -0.823087 -0.00529027  -0.298216 -0.765089 -0.00344801  -0.316823 -0.807828 -0.00416207  -0.257438 -0.779795 -0.00423932  -0.31767 -0.807836 -0.00491595  -0.294671 -0.866809 -0.00592017  -0.336638 -0.851039 -0.00556302  -0.313478 -0.910985 -0.00657058  -0.335801 -0.851061 -0.00487638  -0.355134 -0.894786 -0.00560713  -0.293855 -0.866827 -0.00558662  -0.355959 -0.894717 -0.00623107  -0.33265 -0.955586 -0.00723481  -0.375613 -0.938849 -0.00690556  -0.352174 -1.00058 -0.00791502  -0.374802 -0.938945 -0.00634599  -0.39479 -0.983532 -0.00710082  -0.331855 -0.955678 -0.00698113  -0.395586 -0.983392 -0.00760865  -0.372028 -1.04594 -0.00859904  -0.415853 -1.02833 -0.00830603  -0.39219 -1.09163 -0.00930071  -0.415066 -1.02849 -0.00784945  -0.435619 -1.07381 -0.00861502  -0.371256 -1.04609 -0.00841546  -0.436392 -1.07361 -0.00902343  -0.41263 -1.13763 -0.0100114  -0.457183 -1.11924 -0.00974298  -0.433333 -1.18391 -0.0107346  -0.456423 -1.11946 -0.00938392  -0.47747 -1.16542 -0.0101657  -0.411881 -1.13784 -0.00988483  -0.478215 -1.16516 -0.0104856  -0.454282 -1.23045 -0.0114586  -0.499461 -1.21138 -0.0112214  -0.475455 -1.27723 -0.0121956  -0.498724 -1.21165 -0.0109413  -0.52018 -1.25814 -0.0117295  -0.453557 -1.23072 -0.0113847  -0.520903 -1.25784 -0.0119722  -0.496824 -1.32423 -0.0129404  -0.542522 -1.30455 -0.0127244  -0.518378 -1.37141 -0.0136955  -0.541811 -1.30486 -0.0125201  -0.563615 -1.35181 -0.0133193  -0.496122 -1.32454 -0.012907  -0.564311 -1.35146 -0.0134954  -0.540101 -1.41877 -0.0144463  -0.586242 -1.39857 -0.0142572  -0.56197 -1.46629 -0.015208  -0.585551 -1.39893 -0.014111  -0.607621 -1.44624 -0.0149121  -0.539419 -1.41913 -0.0144498  -0.608299 -1.44586 -0.0150311  -0.583964 -1.51394 -0.015974  -0.630463 -1.4933 -0.015801  -0.606073 -1.56171 -0.0167487  -0.629796 -1.49369 -0.0157113  -0.65208 -1.54129 -0.0165174  -0.583303 -1.51433 -0.0160038  -0.652731 -1.54087 -0.0165892  -0.628282 -1.60958 -0.0175149  -0.675079 -1.58857 -0.0173643  -0.650576 -1.65754 -0.0182889  -0.674434 -1.58899 -0.0173144  -0.696864 -1.63681 -0.0181179  -0.627642 -1.61 -0.0175674  -0.697497 -1.63637 -0.0181491  -0.672933 -1.70557 -0.0190647  -0.719963 -1.68426 -0.0189276  -0.695345 -1.75366 -0.0198443  -0.719339 -1.68471 -0.0189185  -0.741871 -1.7327 -0.0197229  -0.672313 -1.70602 -0.0191326  -0.742483 -1.73222 -0.0197222  -0.717805 -1.8018 -0.0206158  -0.765027 -1.78025 -0.0204995  -0.740296 -1.84997 -0.0213931  -0.764418 -1.78072 -0.0205138  -0.787 -1.82881 -0.0213075  -0.717201 -1.80227 -0.0206964  -0.787597 -1.82832 -0.0212831  -0.762804 -1.89816 -0.0221689  -0.810169 -1.87642 -0.0220625  -0.785321 -1.94636 -0.0229485  -0.809579 -1.87691 -0.0221002  -0.832177 -1.92505 -0.0228927  -0.762215 -1.89865 -0.0222523  -0.832754 -1.92455 -0.0228524  -0.807843 -1.99457 -0.0237186  -0.855324 -1.97268 -0.0236263  -0.830359 -2.04276 -0.0244925  -0.854747 -1.97319 -0.0236721  -0.877318 -2.02134 -0.0244529  -0.807268 -1.99507 -0.0238028  -0.877884 -2.02082 -0.024405  -0.852854 -2.09093 -0.0252635  -0.900414 -2.06894 -0.0251758  -0.87533 -2.13908 -0.0260365  -0.899854 -2.06946 -0.0252314  -0.922379 -2.11759 -0.02601  -0.852294 -2.09145 -0.0253415  -0.922929 -2.11705 -0.0259597  -0.89778 -2.18719 -0.0267975  -0.945402 -2.16513 -0.0267243  -0.920201 -2.23526 -0.0275636  -0.94485 -2.16566 -0.0267749  -0.9673 -2.21372 -0.0275397  -0.89723 -2.18772 -0.0268679  -0.967847 -2.21318 -0.0274937  -0.94258 -2.28329 -0.0283267  -0.99024 -2.26119 -0.0282562  -0.964921 -2.33127 -0.0290906  -0.989696 -2.26173 -0.0283055  -1.01207 -2.30971 -0.0290656  -0.942036 -2.28382 -0.0283833  -1.0126 -2.30916 -0.0290265  -0.987218 -2.3792 -0.0298443  -1.03492 -2.35708 -0.0297813  -1.00948 -2.42706 -0.0306003  -1.03437 -2.35761 -0.0298178  -1.05666 -2.40549 -0.0305684  -0.98668 -2.37973 -0.0298886  -1.05719 -2.40494 -0.0305393  -1.03168 -2.47486 -0.0313528  -1.07941 -2.45274 -0.0312855  -1.05385 -2.52259 -0.032104  -1.07887 -2.45328 -0.0313182  -1.10108 -2.50103 -0.0320661  -1.03114 -2.4754 -0.0313795  -1.10162 -2.50048 -0.0320473  0.0004647 -0.00276381 0.000177622  0.00010103 -0.00217792 0.00046587  0.00154521 -0.00981274 0.00038743  0.000111535 -0.00205675 0.000730276  0.000252858 -0.00838062 0.00128055  0 0 0  0 0 0  0.000468023 -0.00265843 0.000147581  0 0 0  0.000398278 -0.00862035 0.000876904  0.00315195 -0.0217432 0.000478268  0.000190184 -0.0201899 0.00116396  0.00465316 -0.0362796 0.000682116  0.000236839 -0.0197799 0.00189018  -0.000229865 -0.0337654 0.00230479  0.00322573 -0.0213892 0.00046277  -0.000158876 -0.0343035 0.00148463  0.00580797 -0.0541222 0.000781059  -0.0014919 -0.0517281 0.00166273  0.00636891 -0.0739432 0.000914574  -0.00133055 -0.0510268 0.00272202  -0.00311837 -0.0703196 0.00294566  0.0060308 -0.0535131 0.000874281  -0.0032514 -0.0711101 0.00183988  0.00611869 -0.0959693 0.000970602  -0.00593898 -0.0926323 0.0019021  0.00507128 -0.119765 0.00100064  -0.00564885 -0.0917388 0.00309587  -0.00895298 -0.114986 0.003124  0.00647184 -0.0951683 0.00113201  -0.00929391 -0.115917 0.00192881  0.00311595 -0.145281 0.00096488  -0.0134549 -0.140888 0.00186753  0.000250459 -0.172454 0.000893593  -0.0130129 -0.13993 0.0030334  -0.0178941 -0.166562 0.00289822  0.00358778 -0.144395 0.00112963  -0.0184155 -0.167511 0.0017736  -0.00352228 -0.201108 0.000764608  -0.024156 -0.195605 0.00159883  -0.00825053 -0.231282 0.000606537  -0.0235701 -0.19466 0.00264359  -0.0300843 -0.224302 0.00238776  -0.00293601 -0.200221 0.000873804  -0.0307406 -0.225201 0.00140977  -0.013867 -0.262775 0.000390768  -0.0381092 -0.256112 0.00115442  -0.0204396 -0.295639 0.00015831  -0.0374125 -0.255251 0.0020318  -0.0455675 -0.287575 0.00168395  -0.0131882 -0.26196 0.00041461  -0.046318 -0.288365 0.000885248  -0.0278589 -0.329669 -0.000121355  -0.055298 -0.32179 0.000567913  -0.0362129 -0.36491 -0.000420094  -0.054526 -0.321046 0.00126839  -0.0642845 -0.355737 0.000863552  -0.0271186 -0.328956 -0.000192165  -0.0650917 -0.356401 0.00023675  -0.0453678 -0.401183 -0.000756502  -0.0756299 -0.392052 -0.000136137  -0.0554069 -0.438508 -0.00111246  -0.0748131 -0.391437 0.000402927  -0.0860926 -0.428203 -5.05447e-05  -0.0445882 -0.400584 -0.000913382  -0.0869341 -0.428742 -0.000520706  -0.0661989 -0.47674 -0.00149965  -0.0989389 -0.46635 -0.000942469  -0.0778078 -0.51588 -0.00191331  -0.0980998 -0.465862 -0.000547647  -0.110808 -0.504452 -0.00104499  -0.0653962 -0.476263 -0.00172877  -0.111658 -0.504861 -0.0013864  -0.0901215 -0.555812 -0.00235343  -0.125036 -0.544179 -0.00184894  -0.103188 -0.596537 -0.00280857  -0.124187 -0.543812 -0.00157118  -0.138224 -0.583989 -0.00209928  -0.0893098 -0.555449 -0.00263143  -0.139074 -0.584289 -0.00232768  -0.116905 -0.637944 -0.00328732  -0.153715 -0.625106 -0.00283289  -0.131308 -0.680024 -0.00379896  -0.152876 -0.624846 -0.00265193  -0.16813 -0.666409 -0.00322199  -0.1161 -0.637683 -0.00360775  -0.168966 -0.666605 -0.00336695  -0.146309 -0.722706 -0.00432205  -0.184774 -0.708723 -0.00390792  -0.161929 -0.765971 -0.0048604  -0.183944 -0.708562 -0.00380373  -0.200313 -0.751331 -0.00439739  -0.145511 -0.722541 -0.00466323  -0.201134 -0.751437 -0.00446844  -0.178092 -0.809744 -0.00542116  -0.217994 -0.794686 -0.00504947  -0.19481 -0.85401 -0.00601268  -0.217186 -0.794613 -0.00500846  -0.234558 -0.838426 -0.00563955  -0.177312 -0.809668 -0.00577927  -0.235357 -0.838444 -0.00565791  -0.212019 -0.898721 -0.00661016  -0.253175 -0.882666 -0.00626922  -0.229724 -0.943854 -0.00722408  -0.252381 -0.882675 -0.00627804  -0.270658 -0.927384 -0.00693154  -0.211251 -0.898724 -0.00697207  -0.271439 -0.927329 -0.00690103  -0.247863 -0.989354 -0.00785041  -0.290101 -0.972389 -0.00754595  -0.26644 -1.03521 -0.00850463  -0.289331 -0.972468 -0.00759578  -0.308404 -1.01794 -0.00827837  -0.247116 -0.989429 -0.00821328  -0.309162 -1.01782 -0.00821519  -0.285404 -1.08138 -0.00916004  -0.32858 -1.06359 -0.00888348  -0.30475 -1.12785 -0.00982809  -0.327826 -1.06373 -0.00896454  -0.347603 -1.10986 -0.0096612  -0.284671 -1.08152 -0.00951385  -0.348342 -1.10967 -0.00956655  -0.324429 -1.17457 -0.0105059  -0.368406 -1.15604 -0.0102603  -0.344437 -1.22154 -0.0112121  -0.367678 -1.15625 -0.0103669  -0.388057 -1.20292 -0.0110891  -0.323718 -1.17477 -0.0108526  -0.388772 -1.20267 -0.0109766  -0.364734 -1.26872 -0.0119133  -0.409401 -1.24954 -0.0116889  -0.385314 -1.31611 -0.0126226  -0.40869 -1.2498 -0.0118122  -0.429589 -1.29692 -0.0125406  -0.364038 -1.26897 -0.0122433  -0.430286 -1.29663 -0.0124102  -0.406132 -1.36366 -0.0133379  -0.451383 -1.3439 -0.0131412  -0.427187 -1.41136 -0.0140789  -0.450697 -1.34421 -0.013278  -0.472023 -1.39169 -0.0140278  -0.405459 -1.36396 -0.0136545  -0.472697 -1.39135 -0.0138905  -0.448444 -1.45921 -0.014811  -0.494192 -1.43896 -0.0146303  -0.469894 -1.50717 -0.0155489  -0.493521 -1.4393 -0.0147748  -0.515203 -1.48707 -0.0155253  -0.447785 -1.45955 -0.0151057  -0.51586 -1.4867 -0.0153778  -0.491503 -1.55523 -0.0162883  -0.537662 -1.53456 -0.0161321  -0.513267 -1.60337 -0.0170488  -0.537014 -1.53494 -0.0162814  -0.558973 -1.58292 -0.0170462  -0.490865 -1.5556 -0.0165639  -0.559608 -1.58252 -0.0169013  -0.535156 -1.65158 -0.0177991  -0.58166 -1.63056 -0.0176587  -0.557165 -1.69985 -0.0185549  -0.581028 -1.63097 -0.0178065  -0.6032 -1.67911 -0.0185673  -0.534531 -1.65199 -0.0180495  -0.603818 -1.67868 -0.0184212  -0.579262 -1.74816 -0.0193102  -0.626046 -1.72685 -0.0191875  -0.601447 -1.7965 -0.020081  -0.625437 -1.72729 -0.0193334  -0.647756 -1.77553 -0.0201037  -0.578659 -1.7486 -0.0195396  -0.648355 -1.77507 -0.0199645  -0.623696 -1.84486 -0.0208416  -0.670709 -1.82332 -0.0207303  -0.646003 -1.89323 -0.0216031  -0.67011 -1.82378 -0.0208688  -0.69253 -1.87207 -0.0216296  -0.623102 -1.84532 -0.0210454  -0.693117 -1.87159 -0.0214968  -0.668345 -1.94159 -0.0223587  -0.71554 -1.91987 -0.0222647  -0.690723 -1.98994 -0.0231323  -0.71496 -1.92035 -0.0223942  -0.737427 -1.96865 -0.0231593  -0.66777 -1.94207 -0.022541  -0.737996 -1.96815 -0.0230415  -0.713115 -2.03827 -0.0238934  -0.760453 -2.01641 -0.0238068  -0.735521 -2.08658 -0.0246539  -0.759882 -2.01691 -0.0239217  -0.782361 -2.06517 -0.0246789  -0.712547 -2.03877 -0.0240459  -0.782921 -2.06466 -0.0245717  -0.757919 -2.13484 -0.0254128  -0.805366 -2.11288 -0.0253377  -0.780314 -2.18306 -0.0261843  -0.804809 -2.11339 -0.025439  -0.827262 -2.16159 -0.0261977  -0.757365 -2.13535 -0.0255425  -0.827808 -2.16107 -0.0261106  -0.80269 -2.23124 -0.0269418  -0.850222 -2.20921 -0.0268703  -0.825051 -2.27936 -0.0276957  -0.849672 -2.20973 -0.0269516  -0.872075 -2.25784 -0.0276978  -0.802141 -2.23176 -0.027041  -0.872617 -2.25731 -0.027627  -0.847375 -2.32742 -0.0284481  -0.894966 -2.30536 -0.0283864  -0.869676 -2.37543 -0.029213  -0.894426 -2.30588 -0.0284498  -0.916761 -2.35389 -0.0292013  -0.846838 -2.32795 -0.0285249  -0.917293 -2.35335 -0.0291526  -0.891932 -2.42337 -0.0299649  -0.939568 -2.40128 -0.029906  -0.914157 -2.47125 -0.030715  -0.939029 -2.40181 -0.0299487  -0.961283 -2.44969 -0.0306876  -0.891394 -2.4239 -0.030014  -0.961816 -2.44915 -0.0306561  -0.936323 -2.51904 -0.0314608  -0.983994 -2.49695 -0.0314057  -0.958447 -2.56675 -0.0322144  -0.983462 -2.49748 -0.0314295  -1.00561 -2.54521 -0.0321646  -0.93579 -2.51957 -0.031486  -1.00614 -2.54467 -0.0321558  0.0014871 -0.00532585 -0.000306606  0.00107922 -0.00385666 1.43051e-06  0.00488363 -0.014336 -0.000531197  0.00110023 -0.0037868 -0.000319719  0.00347729 -0.0114687 -0.000700474  0 0 0  0 0 0  0.00150385 -0.00524223 -0.000896931  0 0 0  0.0035881 -0.0116765 -5.57899e-05  0.00979561 -0.0281023 -0.000788212  0.00664371 -0.0244988 -0.000124216  0.0154268 -0.0437711 -0.000812054  0.00676668 -0.0241485 -0.000884056  0.0103259 -0.0390712 -0.000935555  0.00993636 -0.0277402 -0.00219893  0.010223 -0.0395332 -6.36578e-05  0.0208679 -0.0627076 -0.000874519  0.0134125 -0.0579055 -4.36306e-05  0.0259943 -0.0832798 -0.000823021  0.0136873 -0.0573012 -0.000909805  0.0165132 -0.0774156 -0.000822306  0.021195 -0.0621046 -0.00261378  0.0162162 -0.0781028 3.83854e-05  0.0301967 -0.106106 -0.000799656  0.0181791 -0.100532 7.05719e-05  0.0335181 -0.130675 -0.000770807  0.0185747 -0.0997472 -0.000763655  0.019729 -0.123921 -0.000703812  0.0306382 -0.105353 -0.00259113  0.0192914 -0.124743 0.000104666  0.0357543 -0.156993 -0.000767469  0.0194522 -0.150678 7.86781e-05  0.0368843 -0.185034 -0.000798225  0.0199459 -0.149807 -0.000719309  0.0191308 -0.177451 -0.000746727  0.0362735 -0.156169 -0.00251913  0.0185869 -0.178311 3.24249e-05  0.0369216 -0.21459 -0.000853777  0.016737 -0.20744 -6.60419e-05  0.0357933 -0.245744 -0.000947237  0.017316 -0.206572 -0.000851393  0.014456 -0.237299 -0.000969172  0.0375062 -0.21377 -0.00254369  0.0138294 -0.23812 -0.000183344  0.0336109 -0.278242 -0.00108862  0.00993627 -0.270138 -0.000365734  0.0302618 -0.312172 -0.00125384  0.0105907 -0.269338 -0.00116229  0.00569159 -0.302812 -0.00136042  0.0342476 -0.277479 -0.00272155  0.00500005 -0.303555 -0.000560522  0.0258998 -0.347293 -0.00146699  -0.000890672 -0.338152 -0.000807047  0.0204346 -0.383661 -0.00170445  -0.000185072 -0.337443 -0.00161982  -0.00704569 -0.373329 -0.00188565  0.0265857 -0.346619 -0.00303984  -0.00777835 -0.373969 -0.00106931  0.0139987 -0.421082 -0.00197291  -0.0155849 -0.410836 -0.00137353  0.00652039 -0.459571 -0.00226617  -0.0148433 -0.410234 -0.00219941  -0.0235609 -0.448225 -0.00252533  0.0147095 -0.420505 -0.00349116  -0.0243212 -0.448756 -0.00170159  -0.00186002 -0.49896 -0.00260162  -0.0339206 -0.487581 -0.00206089  -0.0112091 -0.53927 -0.00295901  -0.0331559 -0.487099 -0.00288749  -0.0436167 -0.526908 -0.00326443  -0.00113082 -0.498496 -0.00405073  -0.0443876 -0.527318 -0.00244141  -0.0213991 -0.580352 -0.00333858  -0.0556476 -0.567843 -0.00285196  -0.0324762 -0.62221 -0.00374937  -0.0548753 -0.567462 -0.00367236  -0.066937 -0.608828 -0.00409651  -0.0206589 -0.579983 -0.00472093  -0.067714 -0.609146 -0.00329137  -0.0443289 -0.664729 -0.00418901  -0.080507 -0.651119 -0.00374341  -0.0569825 -0.707909 -0.00464845  -0.0797372 -0.650844 -0.00454473  -0.0932637 -0.693548 -0.00501347  -0.043587 -0.664463 -0.0054915  -0.0940305 -0.693758 -0.00422502  -0.0703479 -0.751658 -0.00512671  -0.108222 -0.736988 -0.00472665  -0.0844394 -0.795955 -0.00563502  -0.107458 -0.736802 -0.00550318  -0.12232 -0.780651 -0.00601053  -0.0696092 -0.75148 -0.00635481  -0.123081 -0.780781 -0.0052588  -0.0991724 -0.840721 -0.0061636  -0.138533 -0.825057 -0.00579643  -0.114554 -0.885955 -0.00670862  -0.137783 -0.824964 -0.0065372  -0.153845 -0.869778 -0.00708413  -0.0984416 -0.840636 -0.007303  -0.154587 -0.869813 -0.00636077  -0.130519 -0.931589 -0.00726581  -0.171179 -0.914997 -0.00694084  -0.147062 -0.977602 -0.00785255  -0.170439 -0.914978 -0.00764489  -0.187577 -0.960609 -0.00822473  -0.129799 -0.931572 -0.00832725  -0.188309 -0.960581 -0.00754786  -0.164117 -1.02394 -0.00845337  -0.205909 -1.00651 -0.00815415  -0.181685 -1.0706 -0.00906825  -0.205187 -1.00656 -0.00881648  -0.223275 -1.05287 -0.00942707  -0.163411 -1.024 -0.00942755  -0.223986 -1.05277 -0.00878596  -0.199711 -1.11754 -0.009691  -0.242484 -1.09933 -0.00942659  -0.218186 -1.16472 -0.0103409  -0.241775 -1.09945 -0.0100448  -0.260703 -1.14633 -0.0106814  -0.199016 -1.11766 -0.0105877  -0.261403 -1.14617 -0.010093  -0.237055 -1.21212 -0.0109987  -0.280678 -1.19324 -0.0107534  -0.256313 -1.25973 -0.011668  -0.279987 -1.19342 -0.011328  -0.299638 -1.24075 -0.0119903  -0.236375 -1.21231 -0.0118113  -0.300317 -1.24053 -0.0114391  -0.275916 -1.30752 -0.0123425  -0.320269 -1.28802 -0.0121291  -0.295854 -1.35546 -0.013036  -0.319592 -1.28825 -0.0126572  -0.339871 -1.33595 -0.0133348  -0.275249 -1.30775 -0.0130806  -0.340538 -1.33569 -0.0128372  -0.31608 -1.40352 -0.0137365  -0.361059 -1.3835 -0.0135369  -0.336588 -1.45172 -0.0144448  -0.360403 -1.38378 -0.0140204  -0.381203 -1.43177 -0.014719  -0.315431 -1.40381 -0.0143945  -0.381847 -1.43146 -0.0142596  -0.357344 -1.50001 -0.0151532  -0.402854 -1.47953 -0.0149817  -0.378334 -1.54838 -0.0158799  -0.402211 -1.47985 -0.015419  -0.42345 -1.52805 -0.0161276  -0.356707 -1.50033 -0.015743  -0.424085 -1.5277 -0.015722  -0.399521 -1.59681 -0.0166066  -0.445479 -1.57595 -0.0164485  -0.420898 -1.6453 -0.0173402  -0.444855 -1.57631 -0.0168405  -0.466443 -1.62466 -0.01756  -0.398901 -1.59717 -0.0171225  -0.467056 -1.62427 -0.0171912  -0.442438 -1.69383 -0.0180712  -0.48877 -1.67265 -0.017935  -0.464128 -1.74238 -0.0188181  -0.488158 -1.67303 -0.0182824  -0.510026 -1.72148 -0.0190091  -0.441828 -1.69422 -0.0185242  -0.510629 -1.72107 -0.018693  -0.485937 -1.79094 -0.0195651  -0.532579 -1.7695 -0.0194368  -0.50786 -1.83951 -0.0203106  -0.531985 -1.76992 -0.0197394  -0.554057 -1.8184 -0.020474  -0.485343 -1.79136 -0.0199502  -0.554639 -1.81796 -0.0201914  -0.529875 -1.88807 -0.0210531  -0.57677 -1.86643 -0.0209463  -0.551972 -1.93661 -0.0218093  -0.576186 -1.86686 -0.0212097  -0.598406 -1.91534 -0.021946  -0.529292 -1.88851 -0.0213845  -0.598981 -1.91489 -0.0217116  -0.574126 -1.98513 -0.0225623  -0.621224 -1.96332 -0.0224597  -0.596334 -2.03361 -0.0233154  -0.620657 -1.96379 -0.0226829  -0.642967 -2.01223 -0.0234208  -0.573557 -1.9856 -0.0228333  -0.643523 -2.01174 -0.0232186  -0.618582 -2.08206 -0.0240614  -0.66584 -2.06014 -0.0239766  -0.640857 -2.13045 -0.0248213  -0.665282 -2.06062 -0.0241606  -0.687637 -2.10899 -0.0249002  -0.618021 -2.08254 -0.0242856  -0.688189 -2.10849 -0.0247436  -0.66314 -2.17879 -0.0255752  -0.710526 -2.15679 -0.0254929  -0.685435 -2.22708 -0.0263283  -0.709979 -2.15729 -0.0256405  -0.732336 -2.20557 -0.0263796  -0.66259 -2.1793 -0.0257478  -0.732874 -2.20505 -0.0262516  -0.707725 -2.27531 -0.0270767  -0.755206 -2.25325 -0.0270085  -0.730012 -2.32347 -0.027832  -0.754664 -2.25376 -0.0271201  -0.777 -2.30192 -0.0278552  -0.70718 -2.27582 -0.0272093  -0.777537 -2.3014 -0.0277698  -0.752272 -2.37156 -0.0285857  -0.799825 -2.34947 -0.0285163  -0.774516 -2.41958 -0.0293355  -0.799292 -2.34999 -0.0285952  -0.821575 -2.39802 -0.0293317  -0.751734 -2.37208 -0.0286753  -0.822101 -2.39749 -0.029269  -0.796731 -2.46753 -0.0300789  -0.844334 -2.44544 -0.03002  -0.818917 -2.51541 -0.0308304  -0.843802 -2.44596 -0.0300684  -0.866017 -2.49384 -0.0308013  -0.796194 -2.46806 -0.0301344  -0.866547 -2.49332 -0.0307772  -0.841052 -2.56321 -0.0315762  -0.88869 -2.54111 -0.031518  -0.86315 -2.61094 -0.0323241  -0.888161 -2.54163 -0.0315351  -0.910269 -2.58937 -0.0322616  -0.840519 -2.56374 -0.0315948  -0.910794 -2.58883 -0.0322635  0.00275765 -0.0102325 -0.000759363  0.00228541 -0.0074048 -0.000431061  0.00922616 -0.0224048 -0.00136685  0.00231836 -0.00737828 -0.00131416  0.00722118 -0.0176582 -0.00252867  0 0 0  0 0 0  0.00280368 -0.0101184 -0.00183105  0 0 0  0.00727238 -0.0178721 -0.000920534  0.0178406 -0.0388178 -0.00193357  0.013823 -0.0328769 -0.00131559  0.0279288 -0.05598 -0.00218177  0.0140137 -0.0325156 -0.00344062  0.0216799 -0.0488833 -0.00392485  0.0180357 -0.03836 -0.00458717  0.021394 -0.0493466 -0.00149584  0.0376533 -0.0757951 -0.00239134  0.0290385 -0.0686814 -0.00163198  0.0471259 -0.0970652 -0.00241756  0.0294225 -0.0680794 -0.00427437  0.0366617 -0.0890266 -0.00432897  0.0380668 -0.0751483 -0.00579357  0.0362049 -0.089679 -0.0016346  0.0555574 -0.120323 -0.00242925  0.0426238 -0.112723 -0.00163984  0.0629262 -0.14544 -0.00240183  0.0431052 -0.111974 -0.00437284  0.0484807 -0.136841 -0.00430131  0.05607 -0.11958 -0.00604296  0.047957 -0.137609 -0.00160694  0.0691012 -0.172282 -0.00237846  0.0522269 -0.164211 -0.00159955  0.0739675 -0.200983 -0.00237083  0.0527574 -0.163393 -0.00426292  0.0558153 -0.1918 -0.00420451  0.0696569 -0.1715 -0.00594234  0.0552565 -0.192602 -0.00160122  0.0776162 -0.231256 -0.00238109  0.0571292 -0.222537 -0.00163841  0.0799094 -0.26322 -0.00242734  0.0577011 -0.22172 -0.00419021  0.0583489 -0.253329 -0.00418663  0.0781972 -0.23048 -0.00579977  0.0577483 -0.254107 -0.00170279  0.080997 -0.296599 -0.00250292  0.0572121 -0.28706 -0.00181103  0.0807685 -0.331463 -0.00261021  0.0578235 -0.286298 -0.00423932  0.0560975 -0.320755 -0.00430632  0.081607 -0.295873 -0.00573897  0.0554578 -0.321463 -0.00194407  0.0793674 -0.367576 -0.0027504  0.0525737 -0.357092 -0.00212359  0.0767046 -0.40496 -0.00293159  0.0532264 -0.356415 -0.00442314  0.0492078 -0.393361 -0.00456619  0.0800012 -0.366927 -0.00579691  0.0485357 -0.393978 -0.00233316  0.072922 -0.44342 -0.00314188  0.0434266 -0.431929 -0.00256824  0.0679622 -0.48297 -0.00338006  0.044106 -0.431348 -0.00474215  0.0379187 -0.470437 -0.00494218  0.07358 -0.442863 -0.00599289  0.0372276 -0.470957 -0.00283194  0.0619508 -0.523431 -0.00365376  0.0300275 -0.510893 -0.00313139  0.0548418 -0.564808 -0.00396037  0.0307215 -0.510415 -0.00517917  0.0225177 -0.551332 -0.00544286  0.0626224 -0.522973 -0.00631571  0.0218124 -0.551745 -0.00346446  0.046759 -0.60695 -0.00429368  0.0126786 -0.593367 -0.00382566  0.0376707 -0.649863 -0.00466132  0.0133843 -0.592986 -0.00574088  0.00331247 -0.635444 -0.00605965  0.0474432 -0.60659 -0.0067637  0.00260544 -0.635761 -0.00421071  0.0276886 -0.693417 -0.00504208  -0.00831628 -0.678808 -0.00462127  0.0167823 -0.737609 -0.00546765  -0.00760698 -0.678527 -0.00640607  -0.0193826 -0.722287 -0.00678062  0.0283735 -0.69315 -0.00732803  -0.0200905 -0.722507 -0.00506616  0.00506639 -0.782333 -0.00590801  -0.0326314 -0.766751 -0.00552464  -0.00748014 -0.827587 -0.00637841  -0.031922 -0.76656 -0.00718069  -0.0452445 -0.811403 -0.00760221  0.00575328 -0.782159 -0.0080111  -0.0459483 -0.811533 -0.00601077  -0.0207648 -0.873277 -0.00685358  -0.0599594 -0.856771 -0.00651193  -0.0348021 -0.919399 -0.00737119  -0.0592563 -0.856668 -0.00803924  -0.0739741 -0.90241 -0.00850487  -0.0200835 -0.87318 -0.00878119  -0.0746692 -0.902461 -0.00704694  -0.0494928 -0.965875 -0.00790143  -0.0899937 -0.948525 -0.00759101  -0.064852 -1.01271 -0.00845766  -0.089299 -0.948494 -0.00899172  -0.105262 -0.994977 -0.0094955  -0.0488191 -0.965857 -0.00965738  -0.105946 -0.994954 -0.00815654  -0.0807983 -1.05982 -0.00901604  -0.122449 -1.04169 -0.0087378  -0.0973419 -1.10723 -0.00960946  -0.121766 -1.04174 -0.0100152  -0.138835 -1.08882 -0.0105579  -0.0801338 -1.05987 -0.0106099  -0.139509 -1.08873 -0.00934482  -0.114398 -1.15485 -0.01021  -0.157045 -1.13602 -0.00995636  -0.131977 -1.2027 -0.0108347  -0.156372 -1.13612 -0.011116  -0.174415 -1.18369 -0.0116887  -0.113741 -1.15496 -0.0116456  -0.175076 -1.18354 -0.0105882  -0.150009 -1.25072 -0.0114555  -0.193526 -1.23126 -0.011229  -0.168502 -1.29891 -0.0121095  -0.192867 -1.23143 -0.0122731  -0.211759 -1.27938 -0.0128765  -0.149364 -1.25089 -0.012742  -0.212408 -1.27917 -0.0118933  -0.187379 -1.34723 -0.0127642  -0.231644 -1.32723 -0.012558  -0.206651 -1.39568 -0.0134387  -0.230995 -1.32745 -0.013494  -0.25062 -1.37569 -0.0141182  -0.186743 -1.34745 -0.013907  -0.251255 -1.37543 -0.0132372  -0.22626 -1.44422 -0.0141032  -0.271171 -1.42374 -0.0139213  -0.246209 -1.49284 -0.0147972  -0.270537 -1.42401 -0.0147505  -0.290785 -1.47246 -0.0153987  -0.225638 -1.44448 -0.0151119  -0.291407 -1.47216 -0.0146253  -0.266434 -1.54152 -0.0154901  -0.311891 -1.52065 -0.015326  -0.286944 -1.59026 -0.0161986  -0.311271 -1.52096 -0.0160568  -0.332039 -1.56955 -0.0167205  -0.265824 -1.54183 -0.0163713  -0.332645 -1.56921 -0.0160384  -0.307687 -1.63903 -0.0168972  -0.35361 -1.61782 -0.0167537  -0.328669 -1.68782 -0.017621  -0.353001 -1.61816 -0.0173891  -0.374201 -1.66684 -0.018069  -0.307088 -1.63937 -0.0176604  -0.374797 -1.66647 -0.0174837  -0.349832 -1.73661 -0.0183394  -0.396142 -1.71513 -0.0182097  -0.371186 -1.7854 -0.0190728  -0.395547 -1.71551 -0.0187576  -0.417088 -1.76421 -0.019448  -0.349244 -1.73699 -0.0189912  -0.41767 -1.76381 -0.0189431  -0.39269 -1.83418 -0.0197904  -0.439323 -1.81248 -0.0196781  -0.414346 -1.88294 -0.0205309  -0.43874 -1.81289 -0.0201418  -0.460549 -1.86159 -0.0208426  -0.392114 -1.83459 -0.0203412  -0.46112 -1.86115 -0.0204237  -0.436108 -1.93166 -0.0212665  -0.483001 -1.9098 -0.021163  -0.457984 -1.98034 -0.0220127  -0.48243 -1.91023 -0.0215511  -0.504433 -1.95887 -0.0222602  -0.435541 -1.9321 -0.0217206  -0.504993 -1.95842 -0.0219092  -0.479939 -2.02898 -0.022742  -0.527046 -2.007 -0.0226529  -0.50198 -2.07757 -0.0234916  -0.526484 -2.00745 -0.0229695  -0.548626 -2.05602 -0.023684  -0.479382 -2.02944 -0.0231111  -0.549176 -2.05554 -0.023406  -0.524064 -2.12609 -0.0242338  -0.571334 -2.10403 -0.0241513  -0.546205 -2.17455 -0.024986  -0.570784 -2.1045 -0.0244043  -0.593007 -2.15296 -0.0251212  -0.523517 -2.12657 -0.0245245  -0.593546 -2.15246 -0.0249002  -0.56837 -2.22295 -0.0257187  -0.615768 -2.20083 -0.0256484  -0.590568 -2.27127 -0.0264709  -0.615224 -2.20132 -0.0258403  -0.637486 -2.24965 -0.0265615  -0.567829 -2.22344 -0.0259397  -0.63802 -2.24915 -0.0264018  -0.612763 -2.31952 -0.0272179  -0.660256 -2.29738 -0.0271502  -0.63497 -2.36769 -0.0279701  -0.659719 -2.29788 -0.0272925  -0.681979 -2.34607 -0.0280147  -0.612229 -2.32002 -0.0273788  -0.682505 -2.34555 -0.0278974  -0.657165 -2.41579 -0.028703  -0.704732 -2.39365 -0.0286441  -0.679359 -2.46381 -0.0294549  -0.7042 -2.39416 -0.0287385  -0.726431 -2.4422 -0.0294633  -0.656634 -2.41631 -0.0288126  -0.726956 -2.44168 -0.0293965  -0.701525 -2.51176 -0.0301993  -0.749141 -2.48963 -0.0301421  -0.723676 -2.55963 -0.0309486  -0.74861 -2.49014 -0.0301962  -0.77079 -2.53803 -0.0309196  -0.700995 -2.51228 -0.030262  -0.771312 -2.5375 -0.0308862  -0.745792 -2.60743 -0.0316803  -0.793436 -2.5853 -0.0316286  -0.767892 -2.65518 -0.0324302  -0.792907 -2.58582 -0.0316432  -0.815003 -2.63357 -0.0323629  -0.745262 -2.60796 -0.0316997  -0.815524 -2.63305 -0.032372  0.00464573 -0.0192586 -0.00120735  0.0041591 -0.01391 -0.000823975  0.0164071 -0.0361919 -0.00214338  0.00416347 -0.013917 -0.00223064  0.0125061 -0.0283406 -0.0041368  0 0 0  0 0 0  0.0047568 -0.0190806 -0.0026648  0 0 0  0.0124553 -0.0285849 -0.00170994  0.0294776 -0.0548107 -0.00293589  0.0232839 -0.0460289 -0.00238299  0.044086 -0.0734585 -0.00338078  0.023531 -0.045598 -0.00569439  0.0355676 -0.0636209 -0.00657892  0.0296773 -0.0542879 -0.00670934  0.0351185 -0.0641434 -0.00278044  0.0580848 -0.0932183 -0.00371528  0.0472898 -0.0839303 -0.00305748  0.07134 -0.114855 -0.00382686  0.0477403 -0.0832835 -0.00728631  0.0591567 -0.104832 -0.00751114  0.0585249 -0.0925454 -0.00864553  0.0585889 -0.105504 -0.00314283  0.0836629 -0.13811 -0.00389791  0.0691428 -0.128786 -0.00319266  0.0946364 -0.163528 -0.00389314  0.0696799 -0.12803 -0.00767589  0.0789573 -0.153338 -0.00763226  0.0842206 -0.137364 -0.00920248  0.0783763 -0.154092 -0.00317359  0.104433 -0.190746 -0.00386858  0.0864246 -0.181144 -0.00315022  0.112756 -0.219966 -0.00383949  0.0869889 -0.180351 -0.00757217  0.0936644 -0.209341 -0.00745678  0.105031 -0.189986 -0.00913978  0.0930797 -0.210111 -0.00312853  0.119768 -0.250907 -0.00380707  0.0984223 -0.240726 -0.00311804  0.125307 -0.283604 -0.00381231  0.0990083 -0.239944 -0.00735283  0.102986 -0.272313 -0.00725412  0.120375 -0.250159 -0.00886559  0.102389 -0.273051 -0.00313497  0.129499 -0.31783 -0.00382137  0.105029 -0.306864 -0.00318074  0.132241 -0.353568 -0.00388002  0.105633 -0.306135 -0.00717831  0.10694 -0.341489 -0.00713158  0.130106 -0.317136 -0.00859904  0.106323 -0.342163 -0.00326228  0.133665 -0.390617 -0.00396585  0.106333 -0.37875 -0.00337625  0.133708 -0.428969 -0.00408578  0.106959 -0.378101 -0.00712228  0.105686 -0.416028 -0.0071404  0.134292 -0.390006 -0.00843143  0.105054 -0.416614 -0.00351906  0.132495 -0.468424 -0.00423312  0.102554 -0.45558 -0.00370598  0.129962 -0.50897 -0.00442624  0.103194 -0.455021 -0.00719881  0.0994775 -0.495137 -0.00728226  0.133129 -0.467897 -0.0083921  0.0988278 -0.495633 -0.00391841  0.126251 -0.550438 -0.0046463  0.0939697 -0.536602 -0.00415754  0.12132 -0.592824 -0.00489616  0.0946256 -0.536142 -0.00740528  0.0886261 -0.578094 -0.00755906  0.126902 -0.550008 -0.00849152  0.0879674 -0.578486 -0.00443721  0.115301 -0.635965 -0.00518417  0.0809196 -0.621137 -0.00474954  0.108145 -0.679858 -0.00550747  0.081582 -0.620771 -0.00774884  0.0734724 -0.664248 -0.00796199  0.115955 -0.635623 -0.00872946  0.0728065 -0.664549 -0.00508976  0.0999926 -0.724367 -0.00585437  0.0637468 -0.708586 -0.00545669  0.0908073 -0.769508 -0.00622964  0.0644094 -0.708318 -0.00821638  0.0543684 -0.753054 -0.00849175  0.100649 -0.724125 -0.00910306  0.0537068 -0.753259 -0.00585175  0.0807174 -0.815139 -0.00663042  0.0428047 -0.798445 -0.00627708  0.0696788 -0.861275 -0.00706553  0.0434691 -0.798262 -0.00880456  0.0316845 -0.844023 -0.00913787  0.0813706 -0.814974 -0.00960183  0.0310209 -0.844151 -0.00672865  0.0578313 -0.907803 -0.0075233  0.0184605 -0.890267 -0.00719547  0.0451334 -0.95475 -0.00800538  0.0191239 -0.890164 -0.00950241  0.00575089 -0.936761 -0.00988674  0.0584869 -0.907718 -0.0102205  0.00509357 -0.936809 -0.00769138  0.031706 -1.002 -0.00849915  -0.00896394 -0.983683 -0.00820899  0.0175084 -1.04957 -0.0090239  -0.00830877 -0.983652 -0.0103006  -0.0230871 -1.03092 -0.0107312  0.0323516 -1.00198 -0.0109456  -0.0237374 -1.0309 -0.00874853  0.00267076 -1.09738 -0.00956607  -0.0391237 -1.07837 -0.00929689  -0.0128477 -1.14546 -0.0101287  -0.0384754 -1.07841 -0.0111878  -0.0545156 -1.1262 -0.0116613  0.00331342 -1.09744 -0.011764  -0.0551574 -1.12611 -0.00987196  -0.0289359 -1.1937 -0.0106988  -0.0717276 -1.17406 -0.0104613  -0.0456331 -1.24215 -0.0112958  -0.0710858 -1.17416 -0.0121562  -0.0882297 -1.22236 -0.0126665  -0.0283039 -1.19382 -0.0126688  -0.0888631 -1.22221 -0.0110717  -0.0628207 -1.29071 -0.0119061  -0.106467 -1.27051 -0.0116861  -0.0805409 -1.33943 -0.0125318  -0.105837 -1.27067 -0.0131993  -0.123956 -1.31918 -0.0137413  -0.0621958 -1.29088 -0.0136535  -0.124578 -1.31898 -0.0123208  -0.0986881 -1.38822 -0.01316  -0.143089 -1.36754 -0.0129673  -0.117305 -1.43711 -0.013813  -0.142468 -1.36775 -0.0143037  -0.161421 -1.41647 -0.0148783  -0.0980761 -1.38844 -0.0147076  -0.162034 -1.41622 -0.0136311  -0.136285 -1.48604 -0.0144713  -0.18132 -1.46496 -0.014291  -0.155665 -1.53505 -0.0151432  -0.180712 -1.46522 -0.0154674  -0.200391 -1.51408 -0.0160635  -0.135679 -1.48631 -0.0158207  -0.200991 -1.51379 -0.0149705  -0.175356 -1.58406 -0.0158103  -0.220947 -1.56264 -0.0156555  -0.195393 -1.63311 -0.0164988  -0.220348 -1.56294 -0.016675  -0.240631 -1.61187 -0.0172932  -0.174764 -1.58437 -0.0169828  -0.241221 -1.61154 -0.0163529  -0.215682 -1.68214 -0.0171924  -0.26173 -1.66045 -0.0170484  -0.236259 -1.73118 -0.0178967  -0.261143 -1.66079 -0.0179274  -0.281937 -1.70974 -0.0185661  -0.215097 -1.68249 -0.0181944  -0.282515 -1.70937 -0.0177586  -0.257045 -1.78018 -0.0185955  -0.303488 -1.75828 -0.0184724  -0.278077 -1.82916 -0.019311  -0.302911 -1.75865 -0.0192151  -0.324112 -1.80757 -0.01987  -0.256473 -1.78056 -0.0194466  -0.324681 -1.80718 -0.0191951  -0.299267 -1.87809 -0.0200288  -0.346021 -1.85603 -0.0199122  -0.32065 -1.927 -0.0207522  -0.345455 -1.85644 -0.0205362  -0.366989 -1.9053 -0.0212033  -0.298701 -1.87851 -0.0207319  -0.367547 -1.90487 -0.0206406  -0.342161 -1.97582 -0.0214701  -0.38918 -1.95365 -0.0213721  -0.36383 -2.0246 -0.0222032  -0.388623 -1.95408 -0.0218813  -0.410402 -2.00284 -0.022562  -0.341607 -1.97626 -0.0220492  -0.410953 -2.00239 -0.0221117  -0.385585 -2.0733 -0.0229344  -0.4328 -2.05107 -0.0228407  -0.407455 -2.12195 -0.0236704  -0.432253 -2.05152 -0.0232503  -0.454223 -2.10016 -0.0239372  -0.385037 -2.07376 -0.0233908  -0.454762 -2.09969 -0.0235791  -0.429389 -2.1705 -0.0243952  -0.476768 -2.14823 -0.0243182  -0.451411 -2.21899 -0.0251338  -0.476229 -2.1487 -0.0246356  -0.498315 -2.1972 -0.0253332  -0.428854 -2.17098 -0.0247517  -0.498847 -2.19672 -0.0250633  -0.473462 -2.26738 -0.0258749  -0.520947 -2.24512 -0.025799  -0.495565 -2.31571 -0.0266163  -0.520417 -2.2456 -0.0260394  -0.542578 -2.29395 -0.0267417  -0.472928 -2.26788 -0.0261364  -0.543103 -2.29345 -0.0265424  -0.517681 -2.36395 -0.0273483  -0.565255 -2.34169 -0.0272865  -0.539829 -2.4121 -0.0280902  -0.564729 -2.34219 -0.027456  -0.58691 -2.39038 -0.0281646  -0.517155 -2.36445 -0.0275373  -0.587431 -2.38987 -0.0280337  -0.561967 -2.46017 -0.028836  -0.609591 -2.43795 -0.0287721  -0.584113 -2.50817 -0.0295811  -0.609068 -2.43846 -0.0288844  -0.631245 -2.48649 -0.0295975  -0.561442 -2.46069 -0.0289557  -0.631763 -2.48596 -0.029515  -0.606241 -2.55609 -0.0303137  -0.653909 -2.5339 -0.0302601  -0.628374 -2.60394 -0.0310557  -0.653386 -2.53441 -0.0303199  -0.675529 -2.58229 -0.0310349  -0.60572 -2.55661 -0.0303853  -0.676048 -2.58177 -0.0310044  -0.650485 -2.65173 -0.0317965  -0.698158 -2.62957 -0.0317402  -0.672591 -2.69949 -0.0325346  -0.697636 -2.63008 -0.0317533  -0.71973 -2.67784 -0.0324705  -0.64996 -2.65226 -0.0318124  -0.72025 -2.67732 -0.0324841  0.00811747 -0.0358617 -0.00168133  0.00744978 -0.0258858 -0.00122285  0.0304846 -0.0607317 -0.00293708  0.00734732 -0.0259765 -0.00310016  0.0211603 -0.0469839 -0.0055275  0 0 0  0 0 0  0.00795489 -0.0355893 -0.0035243  0 0 0  0.0209951 -0.0472616 -0.00244856  0.0495293 -0.0763066 -0.00369596  0.0377205 -0.0649115 -0.00336432  0.065506 -0.0955446 -0.00444961  0.0379055 -0.0643883 -0.00764799  0.0541218 -0.0834447 -0.00891519  0.0490817 -0.0761641 -0.00879359  0.0536036 -0.0840933 -0.00394845  0.0832027 -0.114015 -0.0048511  0.0698571 -0.103288 -0.0043211  0.0991737 -0.135438 -0.00508785  0.0702845 -0.102568 -0.00995564  0.0853834 -0.124087 -0.0103755  0.0835918 -0.113447 -0.0113077  0.0847705 -0.124854 -0.00449729  0.114908 -0.158678 -0.00518179  0.0988376 -0.148104 -0.0045774  0.12921 -0.184251 -0.00521779  0.0993933 -0.147308 -0.010664  0.112211 -0.172798 -0.0106728  0.11552 -0.157915 -0.0120823  0.111587 -0.173576 -0.0045836  0.142357 -0.211975 -0.00516844  0.12303 -0.201038 -0.00454569  0.153993 -0.24172 -0.00514221  0.123622 -0.200244 -0.0106137  0.133684 -0.229745 -0.0104568  0.143002 -0.211176 -0.0120151  0.133061 -0.230498 -0.00450826  0.164205 -0.273403 -0.00506186  0.14165 -0.261804 -0.00445485  0.172837 -0.306863 -0.00503516  0.142259 -0.261038 -0.0102842  0.149396 -0.294159 -0.0100951  0.164846 -0.272628 -0.0116341  0.148777 -0.294869 -0.00443339  0.180017 -0.341952 -0.00498796  0.154448 -0.329524 -0.00442147  0.185593 -0.378584 -0.00501919  0.155056 -0.328825 -0.00992441  0.159272 -0.365068 -0.00977015  0.180654 -0.341251 -0.0111926  0.158644 -0.365699 -0.00445771  0.189762 -0.416575 -0.0050385  0.16143 -0.403222 -0.00452065  0.192366 -0.455888 -0.00512695  0.16205 -0.402609 -0.00966144  0.163427 -0.441504 -0.00956488  0.190402 -0.415966 -0.0108368  0.162788 -0.44205 -0.00461721  0.193643 -0.496307 -0.00522494  0.162806 -0.48199 -0.00474691  0.193416 -0.53784 -0.00539041  0.163446 -0.481465 -0.00952172  0.162113 -0.522579 -0.00949597  0.194298 -0.495791 -0.0106068  0.161467 -0.523028 -0.00490928  0.191966 -0.580267 -0.00554657  0.158871 -0.564986 -0.0051074  0.18908 -0.623618 -0.0057857  0.159516 -0.564553 -0.0095222  0.155652 -0.607501 -0.00957036  0.192622 -0.579847 -0.0105262  0.154998 -0.607862 -0.00534844  0.185074 -0.667686 -0.00600314  0.14997 -0.651473 -0.00560021  0.179738 -0.712522 -0.00629354  0.150622 -0.651132 -0.00966001  0.144421 -0.695577 -0.00978208  0.185741 -0.667367 -0.010581  0.143764 -0.695839 -0.00590658  0.173397 -0.757916 -0.00659418  0.136498 -0.7408 -0.00623107  0.165817 -0.803944 -0.00695682  0.137155 -0.740558 -0.00994802  0.128803 -0.786216 -0.0101388  0.174058 -0.757693 -0.0107815  0.128145 -0.786393 -0.006598  0.157333 -0.850387 -0.00730371  0.118847 -0.832441 -0.00698328  0.147718 -0.897352 -0.00771618  0.119501 -0.832279 -0.0103705  0.109208 -0.878896 -0.0106199  0.157997 -0.850249 -0.0111189  0.108557 -0.878998 -0.00739694  0.137299 -0.944642 -0.00812817  0.0974022 -0.925918 -0.0078361  0.125847 -0.992337 -0.00860405  0.0980549 -0.925828 -0.0109103  0.0860034 -0.973218 -0.0112212  0.137958 -0.944574 -0.0115929  0.0853544 -0.973248 -0.00830889  0.113682 -1.04026 -0.00905752  0.0725456 -1.02084 -0.00879216  0.100584 -1.08853 -0.00956655  0.0731908 -1.02083 -0.0115666  0.0595659 -1.06881 -0.0119278  0.114335 -1.04028 -0.0121763  0.0589287 -1.06877 -0.00929952  0.0868614 -1.13695 -0.0100682  0.0446283 -1.1169 -0.00982547  0.0722954 -1.18563 -0.0106258  0.0452704 -1.11695 -0.0123215  0.0302439 -1.16539 -0.0127292  0.0875084 -1.13702 -0.0128725  0.0296087 -1.16529 -0.010381  0.0571871 -1.2344 -0.0111625  0.0139973 -1.2138 -0.0109422  0.0413225 -1.28338 -0.0117455  0.0146303 -1.21392 -0.0131674  -0.00163579 -1.26268 -0.0136173  0.057827 -1.23454 -0.0136588  -0.00225639 -1.26252 -0.0115235  0.0249918 -1.33241 -0.0123215  -0.0190344 -1.31133 -0.0121212  0.00798535 -1.38157 -0.0129461  -0.0184116 -1.31149 -0.0140965  -0.0357642 -1.36049 -0.0145862  0.0256207 -1.33259 -0.0145376  -0.0363789 -1.36028 -0.0127406  -0.00941658 -1.43075 -0.0135438  -0.0541658 -1.40927 -0.0133631  -0.0274169 -1.48003 -0.014184  -0.0535517 -1.40949 -0.0151005  -0.0718489 -1.45862 -0.0156217  -0.00879741 -1.43099 -0.0154884  -0.0724492 -1.45836 -0.0139992  -0.0457482 -1.52928 -0.0148127  -0.0911245 -1.50747 -0.0146487  -0.064611 -1.5786 -0.0154824  -0.0905197 -1.50773 -0.0161657  -0.109636 -1.55694 -0.0167167  -0.0451396 -1.52956 -0.0165119  -0.11023 -1.55664 -0.0153143  -0.0837467 -1.62785 -0.0161262  -0.129654 -1.60578 -0.0159776  -0.103346 -1.67715 -0.0168045  -0.129063 -1.60609 -0.0172863  -0.148871 -1.65531 -0.0178618  -0.0831499 -1.62818 -0.0175877  -0.14945 -1.65496 -0.0166519  -0.123164 -1.72638 -0.0174718  -0.169521 -1.7041 -0.0173378  -0.143383 -1.7756 -0.018177  -0.168937 -1.70444 -0.0184569  -0.189328 -1.75362 -0.0190592  -0.122576 -1.72674 -0.0187225  -0.189905 -1.75325 -0.0180387  -0.163774 -1.82472 -0.0188568  -0.210502 -1.80232 -0.0187354  -0.184511 -1.87385 -0.0195622  -0.209929 -1.80269 -0.019675  -0.230806 -1.85178 -0.020293  -0.163194 -1.82513 -0.0199037  -0.231367 -1.85138 -0.0194373  -0.205378 -1.92286 -0.0202549  -0.252411 -1.90036 -0.0201457  -0.226537 -1.97184 -0.0209787  -0.251848 -1.90076 -0.0209255  -0.273114 -1.94974 -0.0215619  -0.204808 -1.92328 -0.0211229  -0.273669 -1.94931 -0.0208659  -0.247784 -2.0207 -0.0216794  -0.295055 -1.99816 -0.0215816  -0.269277 -2.06952 -0.022403  -0.294502 -1.99859 -0.022213  -0.316075 -2.04742 -0.0228646  -0.247226 -2.02115 -0.0223794  -0.316616 -2.04697 -0.0223019  -0.290826 -2.11822 -0.0231123  -0.338284 -2.09568 -0.023026  -0.312575 -2.16686 -0.0238469  -0.337737 -2.09613 -0.023526  -0.359545 -2.1448 -0.0241909  -0.290275 -2.11869 -0.0236688  -0.360081 -2.14433 -0.0237596  -0.334352 -2.21537 -0.0245628  -0.381943 -2.19287 -0.0244861  -0.356293 -2.26383 -0.0252948  -0.381407 -2.19334 -0.0248675  -0.403378 -2.24184 -0.0255449  -0.333812 -2.21587 -0.0249856  -0.403903 -2.24135 -0.0252144  -0.37823 -2.31218 -0.0260179  -0.425911 -2.28973 -0.0259507  -0.400294 -2.36045 -0.026763  -0.425378 -2.29021 -0.0262334  -0.447457 -2.33854 -0.0269215  -0.377693 -2.31268 -0.0263321  -0.447982 -2.33804 -0.0266905  -0.422338 -2.4086 -0.0274835  -0.470065 -2.38624 -0.0274239  -0.44447 -2.4567 -0.0282223  -0.469541 -2.38674 -0.0276194  -0.491673 -2.43489 -0.0283151  -0.421806 -2.40912 -0.0276997  -0.492185 -2.43437 -0.028157  -0.466567 -2.5047 -0.0289569  -0.514313 -2.48242 -0.0288997  -0.488718 -2.55263 -0.0297046  -0.51379 -2.48292 -0.0290258  -0.535933 -2.53091 -0.0297351  -0.46604 -2.50522 -0.0291014  -0.53645 -2.53039 -0.0296433  -0.510834 -2.60049 -0.030432  -0.55857 -2.57828 -0.03038  -0.53297 -2.64829 -0.0311723  -0.558053 -2.57879 -0.0304482  -0.580178 -2.62663 -0.031157  -0.510308 -2.60102 -0.0305119  -0.580686 -2.62611 -0.0311131  -0.555088 -2.69607 -0.0319066  -0.602808 -2.6739 -0.031853  -0.577217 -2.74379 -0.0326574  -0.602289 -2.67441 -0.0318708  -0.62441 -2.72216 -0.0325816  -0.554563 -2.69659 -0.0319381  -0.624923 -2.72164 -0.0325918  -0.00371064 -0.00673988 0.00537658  -0.00459397 -0.011364 0.00663424  -0.0129112 -0.0186552 0.0102313  -0.00492427 -0.0106578 0.00889397  -0.0199435 -0.0262236 0.0168447  -0.0188378 -0.0235549 0.0105982  0 0 0  -0.019852 -0.0246239 0.00772214  0 0 0  0 0 0  -0.00358137 -0.00573034 0.00756788  0 0 0  -0.037499 -0.0388003 0.0139823  -0.0205818 -0.0281081 0.0121374  -0.0251026 -0.0305899 0.0140853  -0.0357347 -0.039305 0.016573  -0.0380689 -0.0430081 0.0167975  -0.0350951 -0.0364015 0.0226932  -0.0509388 -0.0479343 0.0266914  -0.051462 -0.0449186 0.0261688  -0.052414 -0.0475852 0.0193133  -0.0251372 -0.0281002 0.0191956  -0.0698319 -0.0600442 0.0227733  -0.0512875 -0.051327 0.0197039  -0.0521961 -0.0573497 0.0185995  -0.0672402 -0.0637442 0.0219088  -0.0658258 -0.0723949 0.0196919  -0.0667705 -0.0599133 0.0295453  -0.0829001 -0.0738534 0.0308537  -0.0859786 -0.0665422 0.034174  -0.0866669 -0.070454 0.0253778  -0.0520285 -0.0538716 0.0250583  -0.104876 -0.0842268 0.0267463  -0.0832683 -0.0779182 0.0230985  -0.0801579 -0.090005 0.0200634  -0.099767 -0.093911 0.0235906  -0.0943119 -0.108925 0.02004  -0.0991148 -0.0898305 0.0314388  -0.115498 -0.107634 0.0311422  -0.122231 -0.0942363 0.0364118  -0.123043 -0.0985949 0.0272608  -0.0796077 -0.0862811 0.0266843  -0.141576 -0.115214 0.0271902  -0.116252 -0.111671 0.0234976  -0.109022 -0.130036 0.0195432  -0.133129 -0.131446 0.022964  -0.123835 -0.152573 0.0188899  -0.132079 -0.12759 0.0303807  -0.148763 -0.14909 0.0292478  -0.159154 -0.129434 0.035161  -0.1603 -0.133614 0.0264916  -0.108001 -0.126489 0.0258036  -0.178865 -0.15348 0.0256062  -0.149972 -0.152731 0.0221634  -0.139087 -0.176905 0.0179563  -0.167138 -0.175901 0.021102  -0.15455 -0.202548 0.0169835  -0.165702 -0.172502 0.0278282  -0.182712 -0.197214 0.0263243  -0.196271 -0.171755 0.0321932  -0.197736 -0.175424 0.0243239  -0.13765 -0.173736 0.0236325  -0.21629 -0.198479 0.0230789  -0.184279 -0.20034 0.0199637  -0.170384 -0.229745 0.0158548  -0.201719 -0.226473 0.0186806  -0.186444 -0.258113 0.0147438  -0.200004 -0.223604 0.0246572  -0.217376 -0.251135 0.0230432  -0.233496 -0.220416 0.0285563  -0.235201 -0.223507 0.0215793  -0.168649 -0.227043 0.0209036  -0.253836 -0.249499 0.0202117  -0.219171 -0.253723 0.0174251  -0.202859 -0.287863 0.013586  -0.236937 -0.282488 0.0161057  -0.219514 -0.31866 0.0124571  -0.235057 -0.280127 0.0213642  -0.252838 -0.310136 0.019773  -0.270995 -0.27472 0.0248251  -0.272832 -0.277248 0.0186915  -0.200958 -0.285612 0.0180225  -0.291643 -0.30589 0.0173125  -0.254748 -0.31226 0.0148439  -0.236524 -0.350693 0.0113275  -0.272886 -0.343381 0.0135646  -0.253779 -0.383673 0.0102267  -0.270953 -0.341454 0.0181756  -0.289195 -0.373706 0.0166664  -0.308938 -0.334024 0.0212379  -0.310823 -0.336076 0.0158663  -0.234558 -0.348847 0.0152125  -0.32992 -0.367102 0.0145502  -0.29112 -0.375418 0.0123515  -0.271394 -0.417763 0.00913739  -0.309703 -0.408659 0.0111306  -0.289277 -0.452718 0.00806737  -0.307778 -0.407113 0.0151706  -0.326514 -0.441368 0.0137386  -0.347511 -0.397837 0.0178881  -0.349375 -0.399477 0.0131788  -0.269445 -0.41627 0.0125313  -0.368819 -0.432649 0.0119114  -0.328408 -0.442749 0.00995874  -0.307511 -0.48866 0.00701666  -0.347456 -0.477909 0.00879622  -0.326006 -0.525393 0.00598168  -0.345591 -0.476663 0.0123339  -0.364842 -0.512746 0.0109782  -0.386804 -0.465693 0.0147505  -0.388616 -0.467012 0.0106244  -0.305612 -0.487461 0.00998402  -0.40846 -0.502115 0.00941944  -0.36666 -0.513844 0.00767231  -0.344849 -0.563018 0.0049684  -0.386213 -0.550739 0.00655532  -0.363961 -0.601353 0.00395203  -0.384427 -0.54976 0.00965405  -0.404188 -0.587478 0.00835419  -0.426914 -0.537235 0.0118065  -0.428641 -0.538274 0.00818801  -0.343041 -0.56207 0.00755453  -0.448896 -0.575124 0.00701737  -0.405922 -0.588347 0.00546169  -0.383399 -0.640478 0.00295877  -0.425957 -0.626807 0.0043788  -0.403087 -0.68025 0.001966  -0.424271 -0.626035 0.0070858  -0.44453 -0.665247 0.0058341  -0.467831 -0.61209 0.00900078  -0.469472 -0.612912 0.00583839  -0.381683 -0.639741 0.00521469  -0.490143 -0.65133 0.00470424  -0.446159 -0.665911 0.00331283  -0.423084 -0.720732 0.000986338  -0.466676 -0.70578 0.0022521  -0.443324 -0.76179 -3.57628e-06  -0.465087 -0.705203 0.00461054  -0.485809 -0.745738 0.00338936  -0.509569 -0.689967 0.00631285  -0.51111 -0.690586 0.00355077  -0.421474 -0.720179 0.00294065  -0.532172 -0.730422 0.00243258  -0.487345 -0.746237 0.00119758  -0.463841 -0.803473 -0.000975609  -0.508296 -0.787372 0.000152111  -0.484572 -0.845674 -0.00195265  -0.506809 -0.786946 0.0021944  -0.527964 -0.828685 0.00101185  -0.552059 -0.770547 0.0037055  -0.553508 -0.771007 0.00131035  -0.462325 -0.803076 0.000714302  -0.574942 -0.81211 0.000222921  -0.529394 -0.829029 -0.000881672  -0.505556 -0.888434 -0.00291753  -0.550756 -0.871289 -0.00191641  -0.526737 -0.931644 -0.00389624  -0.549364 -0.871014 -0.000155449  -0.570894 -0.913804 -0.00132275  -0.595264 -0.853572 0.0011816  -0.596614 -0.853877 -0.00089097  -0.504147 -0.888178 -0.001472  -0.61837 -0.896115 -0.00197816  -0.572234 -0.914018 -0.00294876  -0.548135 -0.975344 -0.00486088  -0.593941 -0.957281 -0.00397372  -0.569696 -1.01945 -0.00582862  -0.592644 -0.957121 -0.00247002  -0.614514 -1.00086 -0.00360966  -0.639077 -0.938755 -0.00129509  -0.64034 -0.938943 -0.00306511  -0.546814 -0.975211 -0.00362778  -0.662388 -0.982183 -0.0041275  -0.615756 -1.00095 -0.00499058  -0.591448 -1.06398 -0.00678778  -0.637776 -1.0451 -0.00600982  -0.613347 -1.10887 -0.00775981  -0.636566 -1.04506 -0.00473642  -0.658711 -1.08961 -0.00585985  -0.683441 -1.02588 -0.00370789  -0.684612 -1.02595 -0.00521326  -0.590225 -1.06396 -0.00575495  -0.706897 -1.07008 -0.00627184  -0.659874 -1.08961 -0.00702381  -0.635402 -1.15412 -0.00871515  -0.682139 -1.13453 -0.00802922  -0.657567 -1.19968 -0.00967002  -0.681016 -1.13457 -0.00696611  -0.703396 -1.17986 -0.00806379  -0.728237 -1.1147 -0.00607491  -0.729332 -1.11467 -0.00733232  -0.634256 -1.15419 -0.00785351  -0.751817 -1.15958 -0.00836682  -0.704469 -1.17976 -0.00902677  -0.67986 -1.24556 -0.0106146  -0.726945 -1.22535 -0.0100226  -0.702251 -1.2917 -0.0115685  -0.725899 -1.22549 -0.00914621  -0.748456 -1.27139 -0.0102248  -0.773406 -1.20501 -0.00837708  -0.774418 -1.20489 -0.00941992  -0.678803 -1.24571 -0.00991631  -0.797049 -1.25048 -0.010448  -0.74946 -1.27122 -0.0110135  -0.724736 -1.3381 -0.0125079  -0.772079 -1.31738 -0.0119946  -0.747282 -1.38473 -0.0134478  -0.771113 -1.31758 -0.0112858  -0.793805 -1.36402 -0.0123353  -0.818826 -1.2966 -0.0106287  -0.819768 -1.29641 -0.0114708  -0.723747 -1.33833 -0.0119452  -0.842508 -1.34257 -0.0124695  -0.794726 -1.36377 -0.0129662  -0.769901 -1.43158 -0.0143714  -0.81746 -1.41042 -0.0139356  -0.792569 -1.47861 -0.0153027  -0.81656 -1.41069 -0.0133753  -0.839329 -1.45756 -0.0144067  -0.864432 -1.38929 -0.0128174  -0.865301 -1.38902 -0.0134919  -0.768992 -1.43187 -0.013938  -0.888098 -1.43568 -0.0144858  -0.840191 -1.45726 -0.0148995  -0.815278 -1.52582 -0.0162184  -0.862979 -1.50431 -0.0158486  -0.838006 -1.57317 -0.0171299  -0.862147 -1.50463 -0.0154195  -0.884963 -1.55187 -0.016418  -0.910116 -1.48289 -0.0149584  -0.910931 -1.48258 -0.0154741  -0.814425 -1.52616 -0.0158873  -0.933757 -1.52963 -0.0164332  -0.885756 -1.55151 -0.0167873  -0.860759 -1.62068 -0.0180264  -0.908575 -1.59888 -0.0177197  -0.883522 -1.66829 -0.0189283  -0.907798 -1.59926 -0.0174031  -0.930618 -1.64678 -0.0183768  -0.955838 -1.57726 -0.0170207  -0.956588 -1.57689 -0.0174067  -0.859974 -1.62106 -0.0177937  -0.979402 -1.62427 -0.0183566  -0.931363 -1.64638 -0.0186446  -0.906284 -1.71601 -0.0198085  -0.954159 -1.69401 -0.0195539  -0.929032 -1.76381 -0.0206823  -0.953439 -1.69441 -0.0193348  -0.976233 -1.74216 -0.0202713  -1.0015 -1.67222 -0.0190244  -1.0022 -1.67182 -0.0192943  -0.905546 -1.71643 -0.01965  -1.02498 -1.71945 -0.0202079  -0.97692 -1.74172 -0.0204494  -0.951763 -1.81169 -0.021544  -0.999683 -1.78953 -0.0213382  -0.97448 -1.85962 -0.022408  -0.999004 -1.78998 -0.0211983  -1.02174 -1.83787 -0.0221095  -1.04707 -1.76765 -0.0209503  -1.04772 -1.7672 -0.0211279  -0.95108 -1.81215 -0.0214553  -1.07044 -1.81503 -0.0220239  -1.02239 -1.83741 -0.0222161  -0.99716 -1.9076 -0.0232508  -1.04508 -1.88534 -0.0230801  -1.01981 -1.9556 -0.024086  -1.04444 -1.88581 -0.0230055  -1.06711 -1.9338 -0.02388  -1.09247 -1.8634 -0.0228128  -1.0931 -1.86294 -0.0229082  -0.996509 -1.90808 -0.0232086  -1.11574 -1.91088 -0.0237691  -1.06772 -1.93331 -0.0239303  -1.04241 -2.00363 -0.0249081  -1.09033 -1.98131 -0.0247738  -1.06499 -2.05166 -0.0257297  -1.08973 -1.98181 -0.0247455  -1.1123 -2.02984 -0.0255904  -1.13772 -1.95938 -0.0245938  -1.13831 -1.95887 -0.0246365  -1.0418 -2.00413 -0.0249057  -1.16085 -2.00688 -0.025481  -1.11289 -2.02933 -0.025604  -1.08751 -2.09968 -0.02653  -1.13539 -2.07735 -0.0264206  -1.10998 -2.14769 -0.0273247  -1.13482 -2.07785 -0.0264239  -1.15729 -2.12589 -0.0272322  -1.18275 -2.05543 -0.026309  -1.18332 -2.05491 -0.0263083  -1.08692 -2.1002 -0.0265479  -1.20577 -2.10294 -0.0271122  -1.15785 -2.12536 -0.0272202  -1.13241 -2.19568 -0.0281043  -1.18027 -2.17335 -0.0280149  -1.15479 -2.24364 -0.0288856  -1.17971 -2.17388 -0.0280352  -1.20209 -2.22186 -0.0288205  -1.22759 -2.15149 -0.0279427  -1.22814 -2.15095 -0.0279233  -1.13184 -2.19621 -0.0281386  -1.25051 -2.19895 -0.0287125  -1.20264 -2.22133 -0.0288002  -1.17713 -2.29156 -0.0296526  -1.22497 -2.26926 -0.0295722  -1.19943 -2.33943 -0.030416  -1.22442 -2.26979 -0.0295973  -1.24672 -2.3177 -0.0303597  -1.27225 -2.24745 -0.02952  -1.27281 -2.24692 -0.0294909  -1.17657 -2.29209 -0.0296845  -1.29511 -2.29485 -0.0302534  -1.24727 -2.31716 -0.0303383  -1.2217 -2.38727 -0.0311713  -1.26954 -2.36502 -0.0310991  -1.24395 -2.43507 -0.0319326  -1.26899 -2.36556 -0.0311246  -1.29124 -2.41338 -0.0318823  -1.31681 -2.34328 -0.0310559  -1.31737 -2.34273 -0.0310266  -1.22115 -2.38781 -0.0312047  -1.33964 -2.39059 -0.0317867  -1.2918 -2.41284 -0.0318618  -0.00178369 -0.002505 0.00349474  -0.00218076 -0.00409709 0.00443316  -0.00588492 -0.00925219 0.00675297  -0.0021603 -0.00334205 0.00609779  -0.00794034 -0.0113485 0.0114822  0 0 0  0 0 0  -0.00177777 -0.00185373 0.00480556  0 0 0  -0.00767049 -0.0125335 0.00852942  -0.0115839 -0.0202165 0.00925303  -0.0167513 -0.0243107 0.0116673  -0.0190456 -0.03401 0.0112123  -0.0169909 -0.0222236 0.0158706  -0.0274407 -0.035021 0.0187693  -0.0115998 -0.0185213 0.0126147  -0.0271077 -0.0376562 0.0139809  -0.0273117 -0.0494492 0.0124807  -0.0382373 -0.0525302 0.015512  -0.0363302 -0.0670815 0.0132661  -0.038262 -0.0494887 0.0208235  -0.0498695 -0.0659609 0.0218382  -0.0272233 -0.0469015 0.0166664  -0.0499537 -0.0692196 0.0164452  -0.0458944 -0.0864036 0.0135136  -0.0618121 -0.0875946 0.0167575  -0.0558363 -0.107511 0.0135069  -0.06135 -0.0842544 0.0221925  -0.073424 -0.104455 0.0220523  -0.0453954 -0.083434 0.0178313  -0.0741126 -0.107805 0.0167308  -0.0663312 -0.130425 0.0131488  -0.0866673 -0.129771 0.0163116  -0.0772134 -0.154904 0.0126753  -0.0856767 -0.126517 0.0214458  -0.0984289 -0.15026 0.0206718  -0.0653402 -0.127417 0.0172272  -0.0996497 -0.153386 0.0157328  -0.0886723 -0.181043 0.0120003  -0.113008 -0.178619 0.0149388  -0.100598 -0.208591 0.0112839  -0.111584 -0.175668 0.0195937  -0.125164 -0.202527 0.0185108  -0.0872697 -0.178258 0.0156884  -0.126771 -0.205279 0.0140848  -0.113073 -0.237572 0.0104644  -0.140963 -0.233392 0.0131269  -0.126067 -0.267812 0.00963235  -0.139243 -0.230839 0.0172625  -0.153703 -0.260413 0.0160513  -0.111386 -0.23512 0.0137253  -0.155537 -0.262747 0.0121515  -0.139581 -0.299296 0.0087719  -0.170537 -0.293393 0.011153  -0.153611 -0.331899 0.00790501  -0.168656 -0.29124 0.0147843  -0.183971 -0.323183 0.0135603  -0.137736 -0.297206 0.0116205  -0.185911 -0.325131 0.0101504  -0.168127 -0.3656 0.00704074  -0.201709 -0.358022 0.00916409  -0.183152 -0.400298 0.00616598  -0.199768 -0.356238 0.0123315  -0.215931 -0.390298 0.0111413  -0.166224 -0.363849 0.00950861  -0.217884 -0.391895 0.00817204  -0.198644 -0.435972 0.00530791  -0.234467 -0.426797 0.00720668  -0.21461 -0.472538 0.00444245  -0.232539 -0.425337 0.00996971  -0.249503 -0.461276 0.00881863  -0.196748 -0.434528 0.00744915  -0.251414 -0.462578 0.00623703  -0.231022 -0.509984 0.00360751  -0.268766 -0.49929 0.00530243  -0.247889 -0.548223 0.0027535  -0.266902 -0.498109 0.00770426  -0.284643 -0.535755 0.00659609  -0.229188 -0.508806 0.00545025  -0.286474 -0.536796 0.00435185  -0.265181 -0.587244 0.00191379  -0.304567 -0.57513 0.00343037  -0.282884 -0.62697 0.00105882  -0.30278 -0.574189 0.00551987  -0.32125 -0.613346 0.00444031  -0.263421 -0.586303 0.00350952  -0.322993 -0.614173 0.00249434  -0.300988 -0.667401 0.000236988  -0.341788 -0.65396 0.00159359  -0.319482 -0.708452 -0.000612736  -0.340103 -0.653223 0.00340223  -0.359264 -0.693753 0.00235224  -0.299325 -0.666657 0.0016017  -0.360901 -0.694385 0.000666857  -0.338343 -0.750122 -0.00145364  -0.380353 -0.735467 -0.000238657  -0.357546 -0.792346 -0.00231123  -0.37876 -0.734909 0.00132465  -0.398545 -0.776643 0.000284672  -0.33677 -0.749561 -0.000279903  -0.400087 -0.777114 -0.00116324  -0.377087 -0.835124 -0.0031445  -0.420137 -0.819348 -0.00206208  -0.396946 -0.878381 -0.00400448  -0.418647 -0.818944 -0.000722885  -0.439012 -0.861765 -0.00174475  -0.375614 -0.834711 -0.00215626  -0.440452 -0.862086 -0.00298572  -0.417106 -0.922118 -0.00485516  -0.461043 -0.905336 -0.00388956  -0.437537 -0.966278 -0.00572228  -0.459646 -0.905071 -0.00274467  -0.480513 -0.948829 -0.00375938  -0.415723 -0.921848 -0.00401449  -0.481859 -0.949025 -0.00481176  -0.458233 -1.01086 -0.00656319  -0.502924 -0.993169 -0.00570965  -0.479174 -1.05581 -0.00743198  -0.501626 -0.993024 -0.00474691  -0.52294 -1.03762 -0.00574875  -0.456945 -1.01071 -0.00587034  -0.524192 -1.0377 -0.006634  -0.500342 -1.10112 -0.0082984  -0.545668 -1.08262 -0.0075438  -0.521708 -1.14674 -0.00917649  -0.544452 -1.08258 -0.00673723  -0.566138 -1.12789 -0.00773621  -0.499134 -1.10107 -0.0077219  -0.567309 -1.12788 -0.00846767  -0.543269 -1.19268 -0.0100253  -0.589132 -1.17347 -0.00936747  -0.565006 -1.23888 -0.0108981  -0.588004 -1.17353 -0.00870848  -0.610014 -1.21947 -0.00968885  -0.542148 -1.19273 -0.00957155  -0.611097 -1.21936 -0.0102866  -0.586903 -1.28535 -0.0117645  -0.633206 -1.26553 -0.0111892  -0.60893 -1.33204 -0.0126407  -0.632153 -1.26567 -0.0106549  -0.65441 -1.31212 -0.0116272  -0.585853 -1.28548 -0.0113983  -0.655423 -1.31194 -0.0121045  -0.631085 -1.37895 -0.013489  -0.677755 -1.3586 -0.0129941  -0.653353 -1.42604 -0.0143554  -0.676781 -1.35881 -0.0125756  -0.699242 -1.40571 -0.0135279  -0.630113 -1.37915 -0.0132179  -0.700174 -1.40546 -0.0139008  -0.675716 -1.47331 -0.0152156  -0.722676 -1.45251 -0.014792  -0.69815 -1.52072 -0.016082  -0.721767 -1.45279 -0.0144706  -0.744361 -1.50004 -0.0154119  -0.674808 -1.47358 -0.0150108  -0.745233 -1.49973 -0.0156901  -0.720654 -1.56829 -0.0169208  -0.76785 -1.54712 -0.0165637  -0.743215 -1.61595 -0.0177758  -0.76701 -1.54744 -0.0163312  -0.789701 -1.59499 -0.0172515  -0.719812 -1.5686 -0.0167885  -0.790507 -1.59463 -0.0174522  -0.765817 -1.66373 -0.0186243  -0.813193 -1.64227 -0.0183218  -0.788444 -1.71159 -0.0194743  -0.812406 -1.64264 -0.0181594  -0.835139 -1.6904 -0.0190639  -0.765029 -1.6641 -0.018538  -0.835893 -1.69 -0.0191956  -0.811092 -1.75953 -0.0202911  -0.858605 -1.73783 -0.0200441  -0.833755 -1.80752 -0.0211215  -0.857877 -1.73824 -0.0199471  -0.880622 -1.78616 -0.0208225  -0.810359 -1.75994 -0.0202589  -0.881322 -1.78572 -0.0209005  -0.856416 -1.85556 -0.021946  -0.904026 -1.83368 -0.0217414  -0.879061 -1.90363 -0.0227706  -0.90334 -1.83412 -0.0216904  -0.926051 -1.88214 -0.0225515  -0.855724 -1.856 -0.0219393  -0.926711 -1.88167 -0.0225842  -0.901695 -1.95172 -0.0235612  -0.949373 -1.9297 -0.0233998  -0.924311 -1.99981 -0.0243638  -0.948734 -1.93017 -0.0233893  -0.971397 -1.97824 -0.0242195  -0.90105 -1.95218 -0.0235868  -0.972016 -1.97775 -0.0242229  -0.946895 -2.04791 -0.0251637  -0.994616 -2.02581 -0.0250309  -0.969441 -2.09599 -0.0259616  -0.994003 -2.0263 -0.025044  -1.01659 -2.07437 -0.0258598  -0.946278 -2.0484 -0.0251966  -1.01718 -2.07386 -0.0258403  -0.991948 -2.14407 -0.026727  -1.0397 -2.12191 -0.0266223  -1.01442 -2.1921 -0.0275023  -1.03912 -2.12241 -0.0266528  -1.06162 -2.17045 -0.0274367  -0.991363 -2.14457 -0.0267758  -1.06218 -2.16992 -0.027411  -1.03685 -2.2401 -0.0282741  -1.0846 -2.21792 -0.0281849  -1.05922 -2.28806 -0.0290422  -1.08404 -2.21843 -0.0282211  -1.10643 -2.2664 -0.0289912  -1.03628 -2.24062 -0.0283141  -1.10699 -2.26587 -0.0289598  -1.08155 -2.33598 -0.0297871  -1.12932 -2.31379 -0.0297136  -1.10384 -2.38384 -0.0305419  -1.12877 -2.31431 -0.0297523  -1.15108 -2.3622 -0.0305052  -1.081 -2.3365 -0.0298324  -1.15162 -2.36166 -0.0304773  -1.12609 -2.43165 -0.0312955  -1.17388 -2.40948 -0.0312307  -1.1483 -2.4794 -0.0320506  -1.17333 -2.41001 -0.0312624  -1.19558 -2.45778 -0.0320163  -1.12554 -2.43218 -0.0313272  -1.19612 -2.45725 -0.0319855  -0.000499863 -0.00153965 0.00171781  -0.000864454 -0.00175935 0.0026381  -0.00162806 -0.00739452 0.00340176  -0.000847086 -0.00123027 0.00355768  -0.00309379 -0.00677493 0.00670195  0 0 0  0 0 0  -0.000487428 -0.00107849 0.00229073  0 0 0  -0.002914 -0.00773209 0.00503588  -0.00324522 -0.0180939 0.00470448  -0.00672159 -0.0186947 0.00694156  -0.00583671 -0.0316977 0.00582933  -0.0067697 -0.0171655 0.00940514  -0.0115754 -0.0301902 0.0112524  -0.00315532 -0.0168206 0.00626516  -0.0113281 -0.0321179 0.00851226  -0.0090436 -0.0481717 0.00655103  -0.0173899 -0.0482564 0.00947189  -0.0130778 -0.0669368 0.00707555  -0.0173021 -0.0459226 0.0126014  -0.0237407 -0.0638418 0.0133195  -0.00876838 -0.0461809 0.00860691  -0.0238886 -0.0664118 0.0101438  -0.0177982 -0.0876572 0.00726151  -0.0311654 -0.0864878 0.0103407  -0.0232174 -0.110293 0.00728297  -0.0306758 -0.0837468 0.0135646  -0.0382206 -0.105594 0.0135107  -0.0172048 -0.0852039 0.00939512  -0.038914 -0.108407 0.0103607  -0.0293354 -0.134622 0.00707579  -0.0472456 -0.132042 0.0100746  -0.0361589 -0.160656 0.00679111  -0.0462806 -0.129237 0.0131049  -0.0549787 -0.154619 0.0126052  -0.0283411 -0.13202 0.00908947  -0.0561615 -0.157356 0.00969911  -0.0436879 -0.188206 0.00636864  -0.0656508 -0.184218 0.00915003  -0.0519756 -0.217271 0.00588989  -0.0642899 -0.181576 0.0118771  -0.074259 -0.210075 0.0111413  -0.0423565 -0.18569 0.00816059  -0.0757955 -0.212575 0.00855494  -0.060971 -0.247681 0.00534368  -0.0865348 -0.242294 0.00787711  -0.0707369 -0.279435 0.00476885  -0.0849004 -0.239934 0.0102787  -0.0961897 -0.271139 0.00942707  -0.0594016 -0.245394 0.00689793  -0.0979295 -0.273329 0.00717497  -0.081187 -0.312365 0.00417352  -0.109922 -0.305568 0.00645351  -0.0923971 -0.346477 0.00354743  -0.108148 -0.303522 0.00853157  -0.120718 -0.337087 0.00764275  -0.0794851 -0.310359 0.00548553  -0.122551 -0.338957 0.00570035  -0.104253 -0.381627 0.00291586  -0.135756 -0.373411 0.00496173  -0.116819 -0.417807 0.00226545  -0.133923 -0.37167 0.00675201  -0.147714 -0.407302 0.00586128  -0.10249 -0.379908 0.00402069  -0.149559 -0.408871 0.00419807  -0.129997 -0.454913 0.00162435  -0.163916 -0.445284 0.00345802  -0.143839 -0.492917 0.000953913  -0.162093 -0.443833 0.00498629  -0.177021 -0.481285 0.00410032  -0.128247 -0.453462 0.00253391  -0.178834 -0.482591 0.00268197  -0.158261 -0.531738 0.000303507  -0.194271 -0.520744 0.00194788  -0.173291 -0.57135 -0.000371218  -0.192499 -0.519546 0.00324965  -0.20849 -0.558629 0.00238276  -0.156552 -0.530538 0.00105381  -0.210229 -0.559684 0.00117922  -0.188855 -0.611682 -0.00103593  -0.226676 -0.599377 0.000435591  -0.204976 -0.652697 -0.00173473  -0.224979 -0.59841 0.00154114  -0.241942 -0.638909 0.00067234  -0.187215 -0.610702 -0.000427723  -0.243603 -0.639761 -0.00034976  -0.221598 -0.69435 -0.00241637  -0.260983 -0.680816 -0.00109243  -0.23872 -0.736607 -0.0031209  -0.259371 -0.680044 -0.000158787  -0.277239 -0.72182 -0.00101519  -0.220034 -0.69357 -0.00192261  -0.278802 -0.72248 -0.00187421  -0.256294 -0.779421 -0.0038147  -0.297036 -0.764731 -0.00263596  -0.274323 -0.822749 -0.00454426  -0.295516 -0.764138 -0.00185156  -0.31419 -0.807014 -0.00271606  -0.254818 -0.778811 -0.00342798  -0.315667 -0.807517 -0.00343537  -0.292765 -0.866566 -0.00526023  -0.334673 -0.850821 -0.00420284  -0.311607 -0.910835 -0.0059979  -0.33324 -0.850379 -0.00355148  -0.352652 -0.894239 -0.00441313  -0.291368 -0.866114 -0.00495577  -0.354034 -0.89459 -0.00500488  -0.330814 -0.955526 -0.00673008  -0.373731 -0.938811 -0.00579166  -0.350379 -1.0006 -0.00749207  -0.372387 -0.93851 -0.00525618  -0.392444 -0.983204 -0.00612688  -0.329505 -0.955211 -0.00650644  -0.393744 -0.983433 -0.00661373  -0.37027 -1.04603 -0.00823641  -0.414049 -1.02845 -0.00740051  -0.390468 -1.0918 -0.00900102  -0.412792 -1.02826 -0.00696802  -0.433421 -1.0737 -0.00783205  -0.369038 -1.04584 -0.00807333  -0.434629 -1.07381 -0.00822091  -0.410944 -1.13787 -0.00975895  -0.455461 -1.1195 -0.00902677  -0.431685 -1.18421 -0.0105429  -0.454287 -1.11943 -0.00868368  -0.475393 -1.16547 -0.00955868  -0.409793 -1.13778 -0.00965452  -0.476528 -1.16549 -0.00986338  -0.452669 -1.23082 -0.0113118  -0.497809 -1.21176 -0.0106664  -0.473874 -1.27765 -0.0120945  -0.49671 -1.21178 -0.0104046  -0.518238 -1.25837 -0.0112681  -0.451588 -1.23083 -0.01125  -0.51929 -1.25828 -0.0114982  -0.495277 -1.3247 -0.0128706  -0.540947 -1.30504 -0.0123146  -0.516866 -1.37194 -0.0136688  -0.539926 -1.30515 -0.0121198  -0.561783 -1.35216 -0.0129881  -0.494271 -1.3248 -0.0128527  -0.56277 -1.35201 -0.0131564  -0.538621 -1.41934 -0.0144515  -0.584731 -1.39917 -0.0139682  -0.56052 -1.4669 -0.015244  -0.583775 -1.39934 -0.013834  -0.605911 -1.44672 -0.0146904  -0.537678 -1.41952 -0.014461  -0.606823 -1.44649 -0.0148025  -0.582544 -1.5146 -0.0160289  -0.629022 -1.49398 -0.0156193  -0.604685 -1.5624 -0.0168328  -0.628135 -1.49422 -0.0155349  -0.650466 -1.54187 -0.0163913  -0.581667 -1.51484 -0.0160704  -0.651322 -1.54159 -0.0164576  -0.626923 -1.61031 -0.0176182  -0.673698 -1.58933 -0.017266  -0.649242 -1.65831 -0.0184107  -0.672867 -1.58962 -0.0172248  -0.695354 -1.6375 -0.0180678  -0.626099 -1.61061 -0.0176759  -0.696145 -1.63716 -0.0180945  -0.671626 -1.70637 -0.0191946  -0.718641 -1.68508 -0.0189059  -0.694065 -1.75449 -0.0199947  -0.717869 -1.68543 -0.0188975  -0.740442 -1.73344 -0.0197358  -0.670857 -1.70672 -0.0192719  -0.741187 -1.73307 -0.0197344  -0.716548 -1.80265 -0.0207744  -0.763755 -1.78112 -0.0205278  -0.73906 -1.85085 -0.0215564  -0.763031 -1.7815 -0.0205483  -0.785658 -1.82963 -0.0213661  -0.715825 -1.80304 -0.0208569  -0.78635 -1.82921 -0.0213382  -0.761589 -1.89907 -0.0223296  -0.808947 -1.87734 -0.0221336  -0.784129 -1.94728 -0.0231156  -0.808269 -1.87776 -0.0221734  -0.830895 -1.92592 -0.022984  -0.760911 -1.89948 -0.0224214  -0.831551 -1.92548 -0.0229428  -0.806671 -1.9955 -0.0238833  -0.85414 -1.97363 -0.0237174  -0.829203 -2.04371 -0.0246525  -0.853498 -1.97408 -0.0237699  -0.876107 -2.02226 -0.0245576  -0.806027 -1.99596 -0.0239682  -0.87672 -2.02178 -0.0245063  -0.851715 -2.0919 -0.0254128  -0.899269 -2.06993 -0.025281  -0.874207 -2.14006 -0.0261831  -0.898662 -2.0704 -0.0253386  -0.921206 -2.11854 -0.026123  -0.851105 -2.09238 -0.0254979  -0.921798 -2.11805 -0.0260711  -0.896672 -2.18818 -0.0269346  -0.944283 -2.16614 -0.0268252  -0.9191 -2.23627 -0.0276868  -0.943701 -2.16663 -0.0268826  -0.96618 -2.21471 -0.0276413  -0.896084 -2.18868 -0.0270052  -0.966739 -2.2142 -0.0275931  -0.941488 -2.28431 -0.0284326  -0.989143 -2.26222 -0.0283492  -0.963838 -2.33229 -0.0291874  -0.988586 -2.26272 -0.0283995  -1.01097 -2.31071 -0.0291538  -0.940925 -2.28481 -0.0284953  -1.01152 -2.31019 -0.0291145  -0.986141 -2.38022 -0.0299284  -1.03383 -2.35811 -0.0298538  -1.0084 -2.42809 -0.0306664  -1.03328 -2.35862 -0.0298948  -1.05557 -2.40651 -0.0306358  -0.985588 -2.38074 -0.0299706  -1.05611 -2.40598 -0.0306041  -1.03061 -2.47589 -0.0314019  -1.07833 -2.45378 -0.0313439  -1.05277 -2.52361 -0.0321457  -1.07779 -2.45429 -0.0313787  -1.09998 -2.50203 -0.0321221  -1.03006 -2.4764 -0.0314379  -1.10053 -2.50152 -0.0320957  0.000555061 -0.0024766 -1.81198e-05  0.000175416 -0.00184664 0.000908852  0.00178786 -0.00913981 0.000188112  0.000195272 -0.0014616 0.0010891  0.000516742 -0.00711736 0.00213337  0 0 0  0 0 0  0.000573039 -0.00212562 -0.000174999  0 0 0  0.00060077 -0.00788 0.0017674  0.00357421 -0.0206778 0.000306845  0.0005375 -0.0190279 0.0024755  0.00524372 -0.0348366 0.000638723  0.000689715 -0.017843 0.00313854  0.000409484 -0.0312131 0.0039959  0.00383817 -0.0196251 0.000152111  0.00031969 -0.0327379 0.00320196  0.00655901 -0.0523175 0.000876188  -0.000867844 -0.0497864 0.00364375  0.00725663 -0.0718517 0.00112033  -0.000489712 -0.0479033 0.00465012  -0.00205657 -0.066748 0.00508833  0.00710508 -0.0506013 0.000864029  -0.0024766 -0.0688756 0.00404859  0.00714865 -0.0936471 0.0012424  -0.00500655 -0.0901603 0.00418735  0.0062353 -0.117317 0.0013032  -0.0043343 -0.0878321 0.00527668  -0.00737613 -0.110881 0.0053196  0.00794446 -0.0914805 0.00129986  -0.00818869 -0.113319 0.00425744  0.00442082 -0.142739 0.00125718  -0.0121853 -0.138215 0.00412416  0.00167865 -0.169912 0.00113845  -0.011185 -0.135729 0.00513935  -0.0158137 -0.16237 0.00489092  0.00546372 -0.140372 0.00129032  -0.016982 -0.164846 0.00392818  -0.00196522 -0.198582 0.00095129  -0.022576 -0.192983 0.00362301  -0.00659639 -0.228842 0.000704527  -0.0212836 -0.190548 0.0045042  -0.0276052 -0.220333 0.00407887  -0.00069797 -0.196236 0.000921726  -0.0290297 -0.222669 0.003268  -0.0121119 -0.260427 0.000412464  -0.0362868 -0.253698 0.00285029  -0.0186163 -0.293419 7.03335e-05  -0.034791 -0.251453 0.0035758  -0.0428277 -0.283982 0.00305033  -0.0106776 -0.258242 0.000304699  -0.0444126 -0.286093 0.00239444  -0.0259743 -0.327582 -0.000284433  -0.0533237 -0.319666 0.00192285  -0.0342858 -0.362971 -0.000685692  -0.0517084 -0.317674 0.00249577  -0.0614092 -0.352596 0.00191975  -0.0244409 -0.325625 -0.000470161  -0.0630724 -0.354435 0.00141406  -0.0434127 -0.399394 -0.00108695  -0.0735766 -0.390248 0.000905752  -0.0534329 -0.436869 -0.00152922  -0.0719122 -0.388522 0.00134039  -0.0831835 -0.425518 0.000730038  -0.0418339 -0.397683 -0.00133848  -0.0848598 -0.427095 0.000355005  -0.0642148 -0.475246 -0.00197148  -0.0968565 -0.464859 -0.000181913  -0.075825 -0.514535 -0.00244951  -0.0951967 -0.463382 0.000134945  -0.10793 -0.502184 -0.000490665  -0.0626377 -0.473779 -0.00227404  -0.109579 -0.503521 -0.000757456  -0.0881422 -0.55461 -0.002918  -0.122961 -0.542985 -0.00131488  -0.101224 -0.595462 -0.00342894  -0.121341 -0.541748 -0.0011034  -0.135425 -0.582132 -0.00173855  -0.086604 -0.553366 -0.00326395  -0.13702 -0.583233 -0.00191212  -0.114962 -0.636998 -0.00393653  -0.151686 -0.624182 -0.00248981  -0.129384 -0.679203 -0.00447989  -0.150122 -0.623161 -0.00235748  -0.165431 -0.6649 -0.00301647  -0.113472 -0.635969 -0.00430346  -0.16696 -0.665804 -0.00311422  -0.144408 -0.722004 -0.00500727  -0.182793 -0.708042 -0.00371337  -0.160059 -0.765375 -0.00557113  -0.181307 -0.707218 -0.00365114  -0.197739 -0.750152 -0.00431633  -0.142988 -0.721161 -0.00539351  -0.199188 -0.750867 -0.00435376  -0.176253 -0.809255 -0.00614214  -0.216084 -0.794225 -0.00498009  -0.192998 -0.853625 -0.0067451  -0.21467 -0.793571 -0.00497246  -0.232105 -0.837524 -0.00566149  -0.174897 -0.808586 -0.00653124  -0.233478 -0.838083 -0.00564837  -0.210234 -0.898432 -0.00733209  -0.251325 -0.882402 -0.00629663  -0.227972 -0.943648 -0.00795293  -0.249992 -0.881905 -0.00633574  -0.268334 -0.926747 -0.00703526  -0.208954 -0.897911 -0.00772619  -0.269625 -0.927153 -0.00698113  -0.246147 -0.989236 -0.00857806  -0.288327 -0.9723 -0.00765395  -0.264753 -1.03517 -0.0092299  -0.287067 -0.971941 -0.00772619  -0.306201 -1.01753 -0.00844955  -0.244933 -0.988859 -0.00896072  -0.307419 -1.01781 -0.00836372  -0.283745 -1.08143 -0.00986409  -0.326864 -1.06366 -0.00905132  -0.303123 -1.12796 -0.01053  -0.325683 -1.06343 -0.00915337  -0.345525 -1.10966 -0.00987864  -0.282605 -1.08117 -0.010242  -0.346664 -1.10982 -0.00977015  -0.322836 -1.17476 -0.0112007  -0.366767 -1.15626 -0.0104787  -0.342872 -1.22179 -0.0118952  -0.365656 -1.15613 -0.0106006  -0.386093 -1.20289 -0.0113478  -0.32176 -1.17461 -0.0115614  -0.387164 -1.20295 -0.0112197  -0.363197 -1.26904 -0.012568  -0.407821 -1.24988 -0.0119386  -0.383807 -1.31648 -0.0132661  -0.406784 -1.24985 -0.0120769  -0.427741 -1.29706 -0.0128217  -0.36219 -1.26899 -0.0129161  -0.42874 -1.29702 -0.0126822  -0.404659 -1.36408 -0.0139687  -0.449874 -1.34436 -0.013418  -0.42574 -1.41184 -0.0146916  -0.448899 -1.34441 -0.0135636  -0.47028 -1.39197 -0.0143285  -0.403712 -1.36413 -0.0142922  -0.471216 -1.39186 -0.0141809  -0.447022 -1.45974 -0.0153921  -0.492735 -1.43951 -0.0149193  -0.468502 -1.50774 -0.0161135  -0.49183 -1.43965 -0.0150728  -0.513567 -1.48748 -0.0158305  -0.446138 -1.45985 -0.0156994  -0.514436 -1.4873 -0.0156798  -0.490141 -1.55584 -0.0168366  -0.536273 -1.5352 -0.016432  -0.511927 -1.60403 -0.0175757  -0.53542 -1.5354 -0.0165863  -0.557425 -1.58344 -0.0173569  -0.48931 -1.55603 -0.0171161  -0.558244 -1.58319 -0.0172045  -0.533839 -1.65228 -0.0182929  -0.580318 -1.63128 -0.0179536  -0.555873 -1.70058 -0.0190284  -0.579524 -1.63154 -0.0181088  -0.601742 -1.67973 -0.0188684  -0.533062 -1.65253 -0.0185547  -0.602504 -1.67943 -0.0187209  -0.577999 -1.74892 -0.0197654  -0.624762 -1.72763 -0.0194788  -0.600203 -1.79729 -0.0205147  -0.624012 -1.72795 -0.0196261  -0.646372 -1.77623 -0.0203958  -0.577264 -1.74923 -0.0199966  -0.647092 -1.77588 -0.0202537  -0.62247 -1.84569 -0.0212405  -0.669465 -1.82416 -0.0210052  -0.644799 -1.89408 -0.0219798  -0.668764 -1.82451 -0.0211473  -0.691222 -1.87284 -0.0219002  -0.621781 -1.84603 -0.021451  -0.691895 -1.87245 -0.0217681  -0.667164 -1.94246 -0.0227184  -0.714343 -1.92076 -0.0225217  -0.689557 -1.99084 -0.0234652  -0.713679 -1.92115 -0.0226521  -0.736177 -1.96947 -0.0234098  -0.666509 -1.94285 -0.0228992  -0.736817 -1.96906 -0.023289  -0.711963 -2.03919 -0.0241885  -0.759287 -2.01734 -0.0240343  -0.734386 -2.08751 -0.0249262  -0.758664 -2.01777 -0.0241523  -0.781173 -2.06606 -0.0248942  -0.711346 -2.03961 -0.0243473  -0.781774 -2.06561 -0.0247903  -0.756802 -2.13579 -0.0256674  -0.804239 -2.11384 -0.0255382  -0.779207 -2.18402 -0.0264094  -0.803639 -2.11429 -0.0256386  -0.826113 -2.16251 -0.0263829  -0.756209 -2.13624 -0.025794  -0.826692 -2.16204 -0.0262945  -0.801593 -2.23222 -0.0271306  -0.849114 -2.2102 -0.0270302  -0.823966 -2.28034 -0.0278611  -0.848543 -2.21067 -0.0271149  -0.87097 -2.2588 -0.027842  -0.801026 -2.23268 -0.027235  -0.871521 -2.25831 -0.0277734  -0.846302 -2.32842 -0.0285959  -0.893884 -2.30636 -0.028511  -0.868606 -2.37643 -0.0293348  -0.89333 -2.30685 -0.0285745  -0.915676 -2.35487 -0.0293078  -0.845751 -2.32891 -0.0286703  -0.916216 -2.35436 -0.0292592  -0.890866 -2.42438 -0.0300519  -0.938493 -2.4023 -0.0299876  -0.913094 -2.47225 -0.030777  -0.937953 -2.40279 -0.0300322  -0.960216 -2.45068 -0.0307508  -0.890328 -2.42487 -0.0301037  -0.960745 -2.45017 -0.0307226  -0.935262 -2.52004 -0.031508  -0.982927 -2.49796 -0.0314519  -0.957377 -2.56776 -0.0322378  -0.982386 -2.49846 -0.0314765  -1.00453 -2.54619 -0.0322018  -0.934722 -2.52054 -0.0315294  -1.00507 -2.54569 -0.0321846  0.00162456 -0.00504941 -0.00169754  0.00120223 -0.00357795 -0.000770569  0.00526232 -0.0136887 -0.00283623  0.00123379 -0.00327599 -0.00133848  0.00393021 -0.0103918 -0.00224924  0 0 0  0 0 0  0.00165766 -0.00472349 -0.00255632  0 0 0  0.00391525 -0.0110366 -0.00134873  0.0104331 -0.027092 -0.00381899  0.00719582 -0.023486 -0.00180221  0.0162719 -0.0424119 -0.0042479  0.00755185 -0.0224607 -0.00284386  0.01142 -0.0368227 -0.00293255  0.0108741 -0.0260631 -0.00557852  0.0109527 -0.0381685 -0.00186968  0.0218736 -0.0610176 -0.00447178  0.0143017 -0.0561898 -0.00188541  0.0271131 -0.0813346 -0.00449705  0.014989 -0.0545142 -0.00292063  0.0179869 -0.0742193 -0.00274944  0.0227068 -0.0593664 -0.00641918  0.0172316 -0.0761122 -0.00174928  0.0314114 -0.103953 -0.00443554  0.0193079 -0.0983196 -0.00167155  0.0348062 -0.128393 -0.00437498  0.0202004 -0.0962155 -0.0026288  0.0215036 -0.120173 -0.00251818  0.0324212 -0.101904 -0.00635672  0.0205227 -0.122395 -0.00158501  0.0371166 -0.154624 -0.00429511  0.0207795 -0.148236 -0.00157833  0.0383114 -0.182654 -0.00426817  0.0218625 -0.145934 -0.00249195  0.0211904 -0.173546 -0.00250864  0.0382445 -0.152393 -0.0061512  0.0200126 -0.175854 -0.00160146  0.0384219 -0.212212 -0.0042522  0.0182589 -0.204991 -0.001688  0.037354 -0.243433 -0.00429893  0.0195016 -0.202697 -0.00259542  0.0167636 -0.233517 -0.00273085  0.039657 -0.209981 -0.00604248  0.0154322 -0.23575 -0.00182939  0.0352281 -0.276004 -0.00436974  0.0116144 -0.267851 -0.00200319  0.0319304 -0.31004 -0.00448251  0.0129847 -0.265688 -0.00290966  0.0081743 -0.299322 -0.00313902  0.0365506 -0.273889 -0.0060935  0.00674301 -0.301377 -0.00222826  0.0276127 -0.345277 -0.00462461  0.00090152 -0.336099 -0.00247049  0.0221738 -0.381777 -0.00481606  0.00235373 -0.334141 -0.00338364  -0.00446302 -0.370227 -0.00367165  0.0289918 -0.343348 -0.00628138  -0.00594813 -0.372055 -0.0027616  0.0157653 -0.419322 -0.00501442  -0.0137246 -0.409059 -0.0030582  0.00830472 -0.457945 -0.00525546  -0.0122371 -0.407335 -0.00396967  -0.0209502 -0.445531 -0.00430965  0.0171721 -0.417613 -0.00660086  -0.0224465 -0.447119 -0.00340366  -6.61612e-05 -0.497476 -0.00550437  -0.0320352 -0.486089 -0.0037446  -0.00941336 -0.537917 -0.00580406  -0.0305499 -0.484597 -0.00464153  -0.0410216 -0.5246 -0.00501823  0.00133276 -0.495986 -0.00701857  -0.0425014 -0.525967 -0.00413275  -0.0196081 -0.579131 -0.00610423  -0.0537665 -0.566629 -0.00451446  -0.03069 -0.621116 -0.00644445  -0.0523103 -0.565348 -0.0053916  -0.0644075 -0.606912 -0.00580359  -0.0182279 -0.577854 -0.00753784  -0.0658371 -0.608055 -0.00494289  -0.0425502 -0.663761 -0.00679445  -0.0786488 -0.650159 -0.00536728  -0.0552226 -0.707057 -0.00718713  -0.0772393 -0.649094 -0.00621176  -0.0908085 -0.691964 -0.00666571  -0.0412124 -0.662693 -0.00814009  -0.0921907 -0.692922 -0.00583768  -0.0686035 -0.750916 -0.00758195  -0.106402 -0.736264 -0.00629377  -0.0827127 -0.795324 -0.00801444  -0.105049 -0.735379 -0.00710917  -0.119966 -0.77939 -0.00758886  -0.0673119 -0.750027 -0.00884295  -0.121279 -0.78016 -0.00679612  -0.0974622 -0.8402 -0.00844049  -0.136762 -0.824548 -0.00729346  -0.112874 -0.885529 -0.00891304  -0.135474 -0.82384 -0.00806713  -0.151586 -0.86879 -0.00858259  -0.0962323 -0.839477 -0.00961447  -0.152843 -0.869409 -0.00783372  -0.128861 -0.931252 -0.00938702  -0.169459 -0.914684 -0.00835919  -0.145426 -0.977357 -0.00989389  -0.168233 -0.914121 -0.00909185  -0.185426 -0.959884 -0.00963354  -0.127684 -0.93068 -0.0104713  -0.18661 -0.960351 -0.00892758  -0.162504 -1.02379 -0.0103991  -0.204244 -1.00637 -0.00949025  -0.180103 -1.07052 -0.0109425  -0.203086 -1.00595 -0.0101743  -0.22123 -1.05237 -0.0107455  -0.161392 -1.02335 -0.0113983  -0.222354 -1.05272 -0.0100887  -0.198154 -1.11753 -0.011482  -0.240878 -1.09935 -0.0106695  -0.216651 -1.1648 -0.0120521  -0.239784 -1.09905 -0.0113091  -0.258767 -1.14604 -0.0119047  -0.197097 -1.11722 -0.0123954  -0.259818 -1.14626 -0.0112927  -0.235541 -1.21227 -0.0126188  -0.279126 -1.1934 -0.0119112  -0.254831 -1.25994 -0.0132201  -0.278096 -1.19322 -0.0125008  -0.297798 -1.24064 -0.0131216  -0.234549 -1.21207 -0.0134497  -0.298795 -1.24076 -0.0125597  -0.274459 -1.30779 -0.0138152  -0.318773 -1.28832 -0.0131893  -0.29442 -1.35579 -0.0144327  -0.317801 -1.28823 -0.0137339  -0.338132 -1.33602 -0.0143666  -0.273518 -1.30769 -0.0145659  -0.339062 -1.33604 -0.0138514  -0.314668 -1.40391 -0.0150483  -0.359616 -1.38391 -0.0145092  -0.335206 -1.45216 -0.0156937  -0.358706 -1.38392 -0.0150018  -0.379555 -1.43198 -0.0156589  -0.313786 -1.40391 -0.0157199  -0.380434 -1.43192 -0.0151939  -0.355986 -1.5005 -0.0163281  -0.401466 -1.48004 -0.0158575  -0.376997 -1.54892 -0.0169842  -0.400609 -1.48012 -0.016304  -0.421897 -1.5284 -0.0169692  -0.355151 -1.50057 -0.0169258  -0.422713 -1.52826 -0.0165496  -0.398202 -1.59739 -0.0176313  -0.444139 -1.57655 -0.0172355  -0.419608 -1.64592 -0.0183063  -0.443339 -1.57671 -0.017633  -0.46497 -1.62511 -0.0183115  -0.397424 -1.59754 -0.0181575  -0.465742 -1.62491 -0.0179408  -0.441169 -1.69449 -0.0189717  -0.487478 -1.67333 -0.0186288  -0.462876 -1.74308 -0.0196538  -0.486722 -1.67354 -0.0189838  -0.508632 -1.72204 -0.0196686  -0.440429 -1.6947 -0.0194292  -0.509351 -1.72178 -0.0193403  -0.484703 -1.79168 -0.0203278  -0.53133 -1.77025 -0.0200438  -0.506652 -1.84027 -0.0210209  -0.530622 -1.77053 -0.0203519  -0.552729 -1.81905 -0.021049  -0.48401 -1.79195 -0.02072  -0.553413 -1.81874 -0.020767  -0.528686 -1.88886 -0.0217083  -0.575562 -1.86723 -0.021471  -0.550798 -1.93744 -0.0224075  -0.57489 -1.86755 -0.0217381  -0.597146 -1.91608 -0.0224347  -0.528025 -1.88918 -0.0220394  -0.597785 -1.91572 -0.022193  -0.572965 -1.98598 -0.023097  -0.620053 -1.96418 -0.022907  -0.595195 -2.03448 -0.0238049  -0.61942 -1.96455 -0.0231309  -0.641757 -2.01302 -0.0238352  -0.572344 -1.98634 -0.0233727  -0.64237 -2.01263 -0.023634  -0.617457 -2.08295 -0.0245018  -0.664701 -2.06104 -0.0243418  -0.639741 -2.13137 -0.025212  -0.664096 -2.06144 -0.0245299  -0.686481 -2.10984 -0.0252314  -0.616858 -2.08335 -0.024725  -0.687057 -2.10941 -0.0250685  -0.662034 -2.17973 -0.0259104  -0.709413 -2.15773 -0.0257878  -0.684346 -2.22803 -0.0266261  -0.708839 -2.15816 -0.0259347  -0.731217 -2.20646 -0.0266409  -0.661466 -2.18016 -0.0260849  -0.731776 -2.20601 -0.0265162  -0.706646 -2.27627 -0.0273333  -0.754117 -2.25422 -0.0272279  -0.728939 -2.32444 -0.0280473  -0.753559 -2.25467 -0.0273428  -0.775917 -2.30285 -0.0280437  -0.706091 -2.27672 -0.0274634  -0.77645 -2.30238 -0.0279524  -0.751202 -2.37254 -0.0287542  -0.798753 -2.35047 -0.0286739  -0.77346 -2.42057 -0.0294714  -0.798217 -2.35093 -0.0287514  -0.820513 -2.39897 -0.0294585  -0.75067 -2.37301 -0.0288444  -0.821039 -2.39849 -0.029402  -0.795679 -2.46852 -0.0301824  -0.843274 -2.44644 -0.0301123  -0.817865 -2.51641 -0.0308967  -0.842744 -2.44691 -0.0301619  -0.864969 -2.49481 -0.0308614  -0.795149 -2.469 -0.0302348  -0.865483 -2.49432 -0.0308352  -0.84 -2.56421 -0.0316017  -0.887633 -2.54211 -0.0315521  -0.862096 -2.61193 -0.0323138  -0.887107 -2.5426 -0.0315671  -0.909206 -2.59033 -0.03227  -0.839477 -2.56469 -0.0316181  -0.909729 -2.58984 -0.0322697  0.00294263 -0.00985509 -0.00321841  0.00245063 -0.00708973 -0.00233483  0.00970232 -0.0216064 -0.00554729  0.0024948 -0.00681084 -0.00361395  0.00785804 -0.0165063 -0.00627136  0 0 0  0 0 0  0.00300796 -0.00946611 -0.00470877  0 0 0  0.00770152 -0.0171719 -0.00422621  0.0186308 -0.0376524 -0.00751567  0.0145425 -0.0318072 -0.00572133  0.0289584 -0.054491 -0.00865841  0.0151017 -0.0307529 -0.00832462  0.0231688 -0.0466116 -0.00930405  0.0192413 -0.0364498 -0.0106878  0.022333 -0.0479469 -0.00652552  0.0388632 -0.0740253 -0.00933075  0.0301559 -0.0669704 -0.00699472  0.0484238 -0.095098 -0.00965929  0.0311187 -0.065316 -0.00991011  0.0384983 -0.0859067 -0.0100431  0.0399233 -0.072281 -0.0130396  0.0374207 -0.0877414 -0.0071497  0.0569136 -0.118191 -0.00970626  0.0439217 -0.110597 -0.00715375  0.0643142 -0.143216 -0.00967598  0.0450161 -0.108566 -0.0100303  0.0504447 -0.133246 -0.00990248  0.0580952 -0.116152 -0.0134726  0.0493055 -0.135371 -0.00708151  0.0705237 -0.170001 -0.00952339  0.053621 -0.161897 -0.00697112  0.0754123 -0.1987 -0.00939512  0.0547752 -0.15969 -0.00973368  0.0578825 -0.188064 -0.00957632  0.0717161 -0.167833 -0.0131884  0.0566929 -0.19028 -0.00687361  0.0790863 -0.228988 -0.00922871  0.0586099 -0.220221 -0.0067811  0.0814083 -0.261011 -0.00910616  0.0598196 -0.218011 -0.00941801  0.0605257 -0.249696 -0.009305  0.0802969 -0.226831 -0.0127292  0.059275 -0.251847 -0.00672841  0.0825253 -0.294465 -0.00898099  0.0587744 -0.284875 -0.00670362  0.0823247 -0.329425 -0.00891089  0.0600501 -0.282776 -0.0092082  0.0583642 -0.31737 -0.0091629  0.0837649 -0.292413 -0.0122881  0.0570634 -0.319377 -0.0067215  0.0809467 -0.365638 -0.00884962  0.0542104 -0.355119 -0.0067575  0.0783056 -0.403144 -0.00883937  0.0555224 -0.353196 -0.00912666  0.0515324 -0.39032 -0.0091486  0.0822097 -0.363763 -0.0119596  0.0501994 -0.392124 -0.00684762  0.0745424 -0.441722 -0.00884938  0.0451077 -0.430197 -0.00694633  0.0695947 -0.481386 -0.0089097  0.0464433 -0.428484 -0.00918007  0.0402664 -0.467753 -0.00926924  0.075814 -0.440041 -0.0117602  0.038928 -0.469347 -0.00709844  0.0635841 -0.521977 -0.00898457  0.0317314 -0.50942 -0.00725365  0.0564809 -0.563479 -0.0091033  0.0330621 -0.507913 -0.0093565  0.0248463 -0.549012 -0.00949478  0.0648569 -0.520493 -0.0116954  0.023526 -0.550398 -0.00746107  0.0484016 -0.605748 -0.00923324  0.0143855 -0.59215 -0.00767851  0.0393087 -0.648781 -0.00941944  0.0156921 -0.590851 -0.00964212  0.00559628 -0.633496 -0.00983572  0.0496503 -0.604467 -0.0117517  0.0043087 -0.634667 -0.00794244  0.0293165 -0.692445 -0.00961423  -0.00662017 -0.677834 -0.00821066  0.0184046 -0.736754 -0.00985861  -0.00535309 -0.67674 -0.010035  -0.0171556 -0.720657 -0.0102854  0.0305362 -0.691365 -0.0119343  -0.0184028 -0.721643 -0.00852942  0.0066781 -0.781593 -0.0101066  -0.0309627 -0.766002 -0.00885105  -0.00588799 -0.826949 -0.0104086  -0.0297345 -0.765085 -0.0105405  -0.0430971 -0.810087 -0.0108366  0.00785649 -0.780682 -0.0122447  -0.0442971 -0.810893 -0.0092206  -0.0191894 -0.87273 -0.0107088  -0.0583215 -0.856234 -0.00958061  -0.033237 -0.918952 -0.0110528  -0.057145 -0.855484 -0.0111356  -0.0718997 -0.901357 -0.0114756  -0.0180545 -0.87199 -0.0126581  -0.0730479 -0.902015 -0.00998759  -0.0479465 -0.965526 -0.0114059  -0.0883971 -0.948175 -0.0104022  -0.0633267 -1.01244 -0.0118041  -0.087274 -0.947571 -0.0118246  -0.103285 -0.994183 -0.0122066  -0.0468619 -0.964928 -0.0131893  -0.104375 -0.994694 -0.0108535  -0.079296 -1.05964 -0.0122018  -0.120896 -1.04151 -0.0113025  -0.0958527 -1.10712 -0.0126362  -0.119829 -1.04105 -0.0126014  -0.136936 -1.08825 -0.0130277  -0.0782614 -1.05918 -0.0138102  -0.137974 -1.08863 -0.0117922  -0.11293 -1.15483 -0.0130718  -0.155538 -1.136 -0.0122824  -0.130533 -1.20274 -0.0135503  -0.154525 -1.13566 -0.0134583  -0.172618 -1.18334 -0.0139136  -0.111947 -1.15449 -0.0145288  -0.173596 -1.1836 -0.0128047  -0.148588 -1.25083 -0.0140254  -0.192065 -1.23138 -0.0133233  -0.167096 -1.29909 -0.0145326  -0.191108 -1.23116 -0.0143828  -0.210037 -1.2792 -0.0148792  -0.147657 -1.25061 -0.0153213  -0.210965 -1.27936 -0.0138788  -0.185996 -1.34748 -0.0150392  -0.230227 -1.32748 -0.0144334  -0.205292 -1.39598 -0.015584  -0.229323 -1.32736 -0.015378  -0.248993 -1.37568 -0.0158949  -0.185115 -1.34735 -0.0161967  -0.249866 -1.37574 -0.0150108  -0.224924 -1.44457 -0.016118  -0.269801 -1.42411 -0.0155835  -0.244887 -1.49325 -0.0166805  -0.26895 -1.42408 -0.0164237  -0.289231 -1.4726 -0.0169754  -0.224092 -1.44454 -0.0171332  -0.290054 -1.47258 -0.0161881  -0.265135 -1.54199 -0.0172417  -0.310566 -1.52112 -0.0167892  -0.285666 -1.59077 -0.0178349  -0.309761 -1.52117 -0.0175261  -0.330574 -1.56984 -0.0180931  -0.264347 -1.54204 -0.0181336  -0.331346 -1.56973 -0.0174124  -0.30643 -1.63958 -0.018419  -0.352326 -1.61838 -0.0180259  -0.327424 -1.68841 -0.0190253  -0.351571 -1.6185 -0.0186682  -0.372799 -1.66724 -0.0192595  -0.305689 -1.63971 -0.0191841  -0.373529 -1.66707 -0.0186658  -0.34861 -1.73725 -0.0196311  -0.3949 -1.71578 -0.019305  -0.369984 -1.78608 -0.0202653  -0.394185 -1.71596 -0.0198545  -0.415765 -1.76473 -0.0204587  -0.347908 -1.73744 -0.0202894  -0.41645 -1.76449 -0.0199599  -0.391508 -1.83489 -0.0208867  -0.438118 -1.8132 -0.0206065  -0.413173 -1.88368 -0.0215244  -0.437445 -1.81345 -0.0210748  -0.459278 -1.86219 -0.021698  -0.390844 -1.83514 -0.0214353  -0.459929 -1.8619 -0.0212722  -0.434954 -1.93244 -0.0221615  -0.481833 -1.91058 -0.0219376  -0.456846 -1.98115 -0.0228238  -0.481194 -1.91087 -0.0223246  -0.503231 -1.95956 -0.0229607  -0.434323 -1.93274 -0.0226202  -0.503844 -1.95923 -0.0226176  -0.478818 -2.0298 -0.0234745  -0.525907 -2.00783 -0.0232861  -0.500866 -2.07842 -0.0241392  -0.525302 -2.00818 -0.0236049  -0.54746 -2.05677 -0.0242538  -0.478219 -2.03016 -0.02384  -0.548048 -2.0564 -0.0239716  -0.522967 -2.12697 -0.0248017  -0.570225 -2.10491 -0.0246544  -0.54512 -2.17545 -0.025485  -0.569644 -2.10529 -0.0249062  -0.591894 -2.15378 -0.0255609  -0.52239 -2.12736 -0.0250945  -0.592453 -2.15337 -0.0253477  -0.567297 -2.22386 -0.0261543  -0.614681 -2.20175 -0.026032  -0.589498 -2.2722 -0.0268369  -0.614126 -2.20217 -0.0262265  -0.636395 -2.25052 -0.0268946  -0.566744 -2.22428 -0.0263715  -0.636938 -2.25008 -0.0267308  -0.611704 -2.32047 -0.0275252  -0.659188 -2.29834 -0.0274327  -0.633919 -2.36865 -0.0282273  -0.658647 -2.29877 -0.0275707  -0.680926 -2.34698 -0.0282421  -0.611165 -2.32092 -0.0276866  -0.68145 -2.34652 -0.0281367  -0.656121 -2.41676 -0.028914  -0.703677 -2.39462 -0.028832  -0.678314 -2.46479 -0.0296113  -0.703155 -2.39508 -0.0289264  -0.725389 -2.44313 -0.0296063  -0.655599 -2.41723 -0.0290174  -0.725903 -2.44265 -0.0295382  -0.700485 -2.51275 -0.030309  -0.748095 -2.49061 -0.0302472  -0.722638 -2.56062 -0.0310183  -0.747577 -2.49108 -0.0302973  -0.769766 -2.53898 -0.030973  -0.699968 -2.51322 -0.0303712  -0.770273 -2.53849 -0.0309539  -0.744758 -2.60842 -0.0317113  -0.792395 -2.58629 -0.0316539  -0.766851 -2.65617 -0.0324142  -0.791879 -2.58677 -0.0316629  -0.813965 -2.63452 -0.0323443  -0.744245 -2.60891 -0.031724  -0.814478 -2.63403 -0.0323586  0.00483679 -0.0186701 -0.00457287  0.00433353 -0.013433 -0.00371289  0.0168865 -0.0350947 -0.00791907  0.00436597 -0.0131298 -0.0056181  0.0132817 -0.0268236 -0.00973892  0 0 0  0 0 0  0.00498811 -0.0181221 -0.00650644  0 0 0  0.0129431 -0.0276374 -0.00673079  0.0303262 -0.0533085 -0.0107307  0.024101 -0.0447077 -0.0091548  0.0451931 -0.0716503 -0.0125365  0.0248178 -0.0434335 -0.0130973  0.0373266 -0.0609937 -0.0149298  0.0310064 -0.0518035 -0.0151176  0.0361946 -0.0625043 -0.0106487  0.0593811 -0.091213 -0.0136838  0.0485624 -0.0820576 -0.0115919  0.0727405 -0.112714 -0.0143304  0.0497103 -0.080259 -0.0161786  0.0612423 -0.101546 -0.0166879  0.0605544 -0.0892939 -0.0189962  0.0599505 -0.10347 -0.0120602  0.0851098 -0.135897 -0.0145509  0.0705658 -0.126631 -0.0122073  0.0961092 -0.161278 -0.0145962  0.0717865 -0.124553 -0.0168614  0.0810551 -0.149743 -0.016789  0.0863946 -0.133795 -0.0200577  0.0798128 -0.151869 -0.0121944  0.105908 -0.188497 -0.0144281  0.0878749 -0.178886 -0.0120351  0.114238 -0.217741 -0.0142288  0.0890773 -0.176704 -0.0165553  0.0957425 -0.205691 -0.0162811  0.107158 -0.186342 -0.019814  0.0945415 -0.207859 -0.011853  0.121253 -0.248724 -0.0139298  0.0998953 -0.238503 -0.0116258  0.126791 -0.281489 -0.0136733  0.101093 -0.236347 -0.0159369  0.105078 -0.268805 -0.0156169  0.122468 -0.246614 -0.0190725  0.103877 -0.270893 -0.0114236  0.13099 -0.315792 -0.0133796  0.106533 -0.304778 -0.0112112  0.133749 -0.351629 -0.0131338  0.107738 -0.302738 -0.0152798  0.109059 -0.338231 -0.0149932  0.132197 -0.313807 -0.0182238  0.107845 -0.340172 -0.0110495  0.135188 -0.388786 -0.0128984  0.107878 -0.376858 -0.0109005  0.135243 -0.427246 -0.012722  0.109093 -0.374997 -0.0147128  0.107832 -0.41309 -0.0144854  0.136389 -0.38697 -0.0174279  0.106607 -0.414843 -0.0108032  0.134033 -0.466813 -0.0125504  0.104123 -0.453919 -0.0107183  0.131516 -0.50748 -0.0124338  0.105347 -0.452246 -0.0142708  0.101637 -0.492524 -0.0141134  0.135237 -0.465179 -0.0167599  0.100414 -0.494085 -0.0106874  0.127815 -0.549069 -0.0123348  0.0955579 -0.535185 -0.0106776  0.122881 -0.591572 -0.0122926  0.0967774 -0.533703 -0.0139723  0.0907688 -0.575827 -0.0138798  0.129006 -0.547628 -0.0162325  0.0895568 -0.577193 -0.0107152  0.116862 -0.634823 -0.0122747  0.0825082 -0.619957 -0.010766  0.1097 -0.678839 -0.0123034  0.0837086 -0.618677 -0.0138116  0.0755801 -0.662322 -0.0137901  0.118036 -0.63358 -0.0158648  0.0743924 -0.663487 -0.0108688  0.101549 -0.723459 -0.0123496  0.0653262 -0.707637 -0.0109911  0.0923529 -0.768706 -0.0124516  0.0664978 -0.706551 -0.0137911  0.0564369 -0.751441 -0.0138421  0.102696 -0.722395 -0.0156417  0.0552818 -0.752425 -0.0111637  0.0822537 -0.814439 -0.0125704  0.0443692 -0.797722 -0.0113461  0.0712047 -0.860676 -0.0127327  0.0455106 -0.796801 -0.0139108  0.0336847 -0.842715 -0.01402  0.083371 -0.813546 -0.0155787  0.032572 -0.843524 -0.0115776  0.0593475 -0.907303 -0.0129139  0.0199984 -0.889739 -0.0118194  0.0466309 -0.954339 -0.0131457  0.0210893 -0.888987 -0.0141506  0.00768793 -0.935713 -0.014328  0.0604179 -0.906577 -0.0156469  0.0066185 -0.936377 -0.0121088  0.0331879 -1.00167 -0.0133858  -0.00745606 -0.983339 -0.0124028  0.0189754 -1.04934 -0.0136645  -0.00640297 -0.982732 -0.0145206  -0.0212247 -1.03012 -0.01475  0.0342233 -1.00109 -0.015852  -0.0222466 -1.03064 -0.0127401  0.0041244 -1.09723 -0.0139546  -0.0376532 -1.07819 -0.0130877  -0.0114144 -1.14538 -0.0142922  -0.036651 -1.07772 -0.0149946  -0.0527278 -1.12562 -0.0152783  0.00510836 -1.09678 -0.0161772  -0.0537022 -1.12602 -0.0134733  -0.0275204 -1.19369 -0.0146327  -0.0702906 -1.17404 -0.0138586  -0.0442362 -1.24221 -0.0150061  -0.0693334 -1.17369 -0.0155725  -0.0865219 -1.22199 -0.0158997  -0.0265789 -1.19336 -0.0166187  -0.0874448 -1.22226 -0.0142832  -0.0614407 -1.29084 -0.0153933  -0.105071 -1.27063 -0.0147166  -0.0791812 -1.33962 -0.0158203  -0.104168 -1.27039 -0.0162392  -0.122325 -1.31899 -0.0166121  -0.0605493 -1.29062 -0.0171599  -0.1232 -1.31916 -0.0151815  -0.0973489 -1.38847 -0.0162458  -0.141731 -1.36778 -0.0156448  -0.115984 -1.43742 -0.0167012  -0.140872 -1.36765 -0.016995  -0.159868 -1.41645 -0.0174088  -0.0965018 -1.38835 -0.0178018  -0.160694 -1.41652 -0.0161448  -0.13498 -1.48641 -0.0171607  -0.180003 -1.46532 -0.0166461  -0.154382 -1.53547 -0.0176563  -0.179196 -1.46528 -0.0178275  -0.19891 -1.51421 -0.0182714  -0.134182 -1.48639 -0.0185246  -0.199692 -1.5142 -0.0171731  -0.17409 -1.58453 -0.018147  -0.219667 -1.56311 -0.0176971  -0.194144 -1.63363 -0.0186634  -0.218898 -1.56314 -0.0187263  -0.239221 -1.61215 -0.0192051  -0.173331 -1.58458 -0.0193257  -0.239958 -1.61205 -0.0182509  -0.214449 -1.6827 -0.019186  -0.260488 -1.661 -0.0188072  -0.235045 -1.73179 -0.0197394  -0.259767 -1.66112 -0.0196881  -0.280593 -1.71013 -0.0201945  -0.213735 -1.68283 -0.0201979  -0.28129 -1.70997 -0.019387  -0.25585 -1.78082 -0.0202873  -0.302281 -1.75891 -0.019959  -0.276896 -1.82984 -0.020853  -0.301596 -1.75909 -0.0207086  -0.322833 -1.80808 -0.0212431  -0.255171 -1.78102 -0.0211387  -0.323489 -1.80785 -0.0205591  -0.298101 -1.87881 -0.021425  -0.344848 -1.85675 -0.0211596  -0.319502 -1.92775 -0.0220249  -0.344202 -1.85699 -0.0217834  -0.365764 -1.9059 -0.0223398  -0.297461 -1.87907 -0.0221367  -0.366389 -1.90562 -0.0217783  -0.341028 -1.9766 -0.0226181  -0.388037 -1.95443 -0.0223904  -0.362709 -2.02541 -0.0232263  -0.387419 -1.95472 -0.022903  -0.40923 -2.00353 -0.0234828  -0.340414 -1.97691 -0.0231948  -0.409822 -2.0032 -0.0230258  -0.384476 -2.07414 -0.0238364  -0.431686 -2.0519 -0.023658  -0.406361 -2.12281 -0.0244706  -0.431101 -2.05224 -0.024066  -0.453092 -2.10092 -0.024663  -0.383895 -2.0745 -0.0242991  -0.453659 -2.10055 -0.0243068  -0.428307 -2.17138 -0.0250978  -0.475677 -2.14912 -0.0249517  -0.450337 -2.21989 -0.0257411  -0.475111 -2.14949 -0.02527  -0.497223 -2.19803 -0.0258875  -0.427746 -2.17178 -0.0254521  -0.497766 -2.19762 -0.0256147  -0.472395 -2.26831 -0.0263891  -0.519879 -2.24604 -0.0262761  -0.49451 -2.31665 -0.0270572  -0.519338 -2.24645 -0.0265102  -0.541515 -2.29482 -0.0271449  -0.471856 -2.26874 -0.0266547  -0.542043 -2.29439 -0.0269508  -0.516634 -2.36489 -0.0277171  -0.564203 -2.34264 -0.0276232  -0.538788 -2.41307 -0.0283875  -0.563673 -2.34308 -0.0277901  -0.585871 -2.39129 -0.0284424  -0.516108 -2.36535 -0.0279012  -0.586383 -2.39083 -0.0283082  -0.560927 -2.46115 -0.0290651  -0.608548 -2.43893 -0.0289941  -0.58308 -2.50916 -0.0297606  -0.608036 -2.43938 -0.0291004  -0.630222 -2.48742 -0.0297632  -0.560417 -2.46162 -0.0291877  -0.630724 -2.48695 -0.0296881  -0.605212 -2.55708 -0.0304456  -0.652874 -2.53489 -0.0303771  -0.627347 -2.60493 -0.0311346  -0.652366 -2.53536 -0.0304337  -0.674518 -2.58324 -0.0311031  -0.604706 -2.55756 -0.030508  -0.675013 -2.58276 -0.031074  -0.649456 -2.65273 -0.0318182  -0.697127 -2.63056 -0.0317652  -0.671566 -2.70047 -0.0325129  -0.696627 -2.63104 -0.0317717  -0.718717 -2.6788 -0.0324373  -0.648958 -2.65321 -0.0318365  -0.719216 -2.67831 -0.0324631  0.00826048 -0.0347881 -0.00597215  0.00758689 -0.0251023 -0.0050056  0.0307364 -0.0590107 -0.0101273  0.00754594 -0.024771 -0.00743818  0.0219163 -0.0448135 -0.0126653  0 0 0  0 0 0  0.00810266 -0.0341083 -0.00839996  0 0 0  0.0214174 -0.0458903 -0.00891757  0.0501462 -0.0742106 -0.013679  0.0384874 -0.0631593 -0.0122304  0.0665082 -0.0931813 -0.0161209  0.0391725 -0.0615401 -0.0172219  0.0559011 -0.0801625 -0.0199246  0.0501222 -0.0728593 -0.0195546  0.0546799 -0.0820447 -0.0143573  0.0844488 -0.111631 -0.017683  0.0711639 -0.101116 -0.0157528  0.100619 -0.132963 -0.0186489  0.072311 -0.0990541 -0.0218492  0.0875641 -0.120451 -0.0227761  0.0855581 -0.109611 -0.0247135  0.0861894 -0.122577 -0.0165489  0.116414 -0.156287 -0.0189822  0.100334 -0.145816 -0.0168424  0.13078 -0.181869 -0.0191209  0.101624 -0.143617 -0.0231805  0.114421 -0.16911 -0.0231957  0.11779 -0.154078 -0.0262136  0.113096 -0.171285 -0.0169146  0.143923 -0.209688 -0.0188918  0.124546 -0.198785 -0.0167301  0.155569 -0.239487 -0.0186553  0.125813 -0.196588 -0.0229406  0.135838 -0.226152 -0.0225658  0.145271 -0.207488 -0.02595  0.134578 -0.228285 -0.0164936  0.165776 -0.271268 -0.018234  0.143169 -0.259652 -0.0161407  0.174408 -0.304816 -0.017869  0.144395 -0.257541 -0.0220718  0.151513 -0.290775 -0.021564  0.167064 -0.269171 -0.0249524  0.150289 -0.292791 -0.0158083  0.181585 -0.340012 -0.0174217  0.155957 -0.327541 -0.0154476  0.187159 -0.376753 -0.0170538  0.157165 -0.325571 -0.0210314  0.161381 -0.361962 -0.0205235  0.182837 -0.338078 -0.023746  0.160167 -0.363822 -0.0151341  0.191333 -0.414859 -0.0166538  0.16296 -0.401453 -0.0148196  0.193944 -0.454281 -0.01633  0.164163 -0.399657 -0.0200343  0.165534 -0.438711 -0.0195765  0.192579 -0.413107 -0.0225496  0.164329 -0.440385 -0.0145547  0.195226 -0.494825 -0.0159974  0.164351 -0.480442 -0.0143104  0.194998 -0.536475 -0.0157523  0.165552 -0.478833 -0.0191488  0.16422 -0.520107 -0.018765  0.196454 -0.493256 -0.0214648  0.16302 -0.521601 -0.0141199  0.193542 -0.57902 -0.0155027  0.160424 -0.563675 -0.0139477  0.190659 -0.622489 -0.0153396  0.161612 -0.562256 -0.018414  0.15774 -0.605369 -0.0181041  0.19476 -0.577653 -0.0205398  0.156557 -0.606658 -0.013828  0.18666 -0.666665 -0.0151527  0.151528 -0.65038 -0.0137296  0.181314 -0.711617 -0.0150521  0.152697 -0.649158 -0.0178394  0.146478 -0.693757 -0.0176206  0.18785 -0.665494 -0.0197854  0.145314 -0.694872 -0.0136976  0.17497 -0.757111 -0.0149617  0.13805 -0.739937 -0.0136731  0.167375 -0.803242 -0.0149488  0.139188 -0.738891 -0.017437  0.130816 -0.784695 -0.0172968  0.176135 -0.756114 -0.0192008  0.12969 -0.785629 -0.0137091  0.158883 -0.849792 -0.014926  0.120379 -0.831782 -0.0137677  0.149259 -0.896849 -0.0149846  0.12149 -0.830904 -0.0171943  0.111164 -0.877668 -0.0171275  0.160015 -0.848963 -0.0187855  0.110075 -0.87844 -0.0138729  0.138821 -0.944233 -0.0150449  0.0989081 -0.925453 -0.0139904  0.127354 -0.992022 -0.0151703  0.0999758 -0.924736 -0.017096  0.0878931 -0.972254 -0.0171046  0.139911 -0.943565 -0.018539  0.0868483 -0.972871 -0.0141618  0.115179 -1.04004 -0.0152805  0.074025 -1.02056 -0.0143476  0.102061 -1.08838 -0.0154712  0.0750519 -1.01998 -0.017149  0.0613911 -1.06808 -0.0172272  0.116219 -1.03951 -0.0184293  0.0603883 -1.06857 -0.0145798  0.0883164 -1.13688 -0.01566  0.0460722 -1.11677 -0.0148206  0.0737348 -1.18563 -0.0159049  0.0470535 -1.11633 -0.017334  0.0319917 -1.16487 -0.0174723  0.0893166 -1.13648 -0.0184755  0.0310404 -1.16523 -0.0150995  0.0586135 -1.23448 -0.0161374  0.0154128 -1.21382 -0.0153956  0.0427279 -1.28352 -0.016439  0.016346 -1.2135 -0.0176396  4.26769e-05 -1.26236 -0.0178342  0.0595586 -1.23419 -0.0186496  -0.000865221 -1.26262 -0.0157294  0.0263727 -1.33261 -0.016736  -0.0176635 -1.31148 -0.0160725  0.00934815 -1.38184 -0.0170846  -0.0167768 -1.31126 -0.0180593  -0.0341671 -1.36035 -0.0183125  0.0272753 -1.33243 -0.0189548  -0.0350211 -1.3605 -0.0164506  -0.00806618 -1.43107 -0.0174143  -0.0528247 -1.40955 -0.0168397  -0.0260878 -1.4804 -0.0178063  -0.0519848 -1.40943 -0.01859  -0.0703194 -1.45864 -0.0188866  -0.00721741 -1.43098 -0.0193701  -0.0711334 -1.4587 -0.0172596  -0.0444446 -1.52971 -0.0181928  -0.0898266 -1.50786 -0.0176826  -0.063324 -1.57908 -0.01862  -0.0890322 -1.50783 -0.019207  -0.108182 -1.55711 -0.0195494  -0.0436354 -1.52971 -0.0198903  -0.108946 -1.55708 -0.0181358  -0.0824728 -1.62839 -0.0190313  -0.128386 -1.60628 -0.0185962  -0.10209 -1.67772 -0.0194969  -0.127634 -1.60633 -0.0199142  -0.147477 -1.65561 -0.0202961  -0.0817127 -1.62847 -0.0204992  -0.148205 -1.65551 -0.0190847  -0.12193 -1.72699 -0.0199559  -0.168293 -1.70468 -0.0195754  -0.142165 -1.77625 -0.0204535  -0.167582 -1.70481 -0.0206985  -0.188006 -1.75404 -0.021122  -0.121205 -1.72714 -0.0212011  -0.188689 -1.75386 -0.0200939  -0.162569 -1.82542 -0.0209305  -0.209303 -1.80298 -0.0206146  -0.183326 -1.87458 -0.021457  -0.208629 -1.80317 -0.0215611  -0.229538 -1.85231 -0.0220118  -0.16189 -1.82564 -0.0219803  -0.230189 -1.85208 -0.0211592  -0.204211 -1.92362 -0.0219746  -0.25125 -1.90109 -0.0217044  -0.225384 -1.97263 -0.0225253  -0.250613 -1.90134 -0.0224843  -0.271907 -1.95037 -0.0229716  -0.203563 -1.9239 -0.0228343  -0.272517 -1.95007 -0.0222702  -0.24664 -2.02152 -0.0230613  -0.293918 -1.99896 -0.0228446  -0.26815 -2.07036 -0.0236404  -0.293311 -1.99926 -0.023478  -0.314911 -2.04813 -0.0239935  -0.246031 -2.02185 -0.0237627  -0.315498 -2.04779 -0.0234368  -0.289718 -2.11909 -0.0242097  -0.33718 -2.09653 -0.0240247  -0.311481 -2.16776 -0.0248041  -0.336602 -2.09687 -0.0245228  -0.358431 -2.14558 -0.0250669  -0.289131 -2.11946 -0.024756  -0.358986 -2.1452 -0.0246334  -0.333264 -2.21629 -0.0253897  -0.380857 -2.19377 -0.0252483  -0.355215 -2.26477 -0.0260119  -0.380303 -2.19415 -0.02563  -0.402295 -2.24268 -0.0262027  -0.33271 -2.2167 -0.0258088  -0.402832 -2.24227 -0.0258806  -0.377168 -2.31312 -0.0266325  -0.424848 -2.29066 -0.0265141  -0.399239 -2.36141 -0.0272734  -0.424315 -2.29108 -0.026792  -0.446411 -2.33943 -0.0273924  -0.376628 -2.31356 -0.0269332  -0.446924 -2.33898 -0.0271609  -0.421286 -2.40958 -0.0279007  -0.469014 -2.3872 -0.0278144  -0.443427 -2.45768 -0.0285642  -0.468497 -2.38764 -0.028007  -0.490644 -2.4358 -0.0286293  -0.42077 -2.41004 -0.0281129  -0.491148 -2.43535 -0.0284805  -0.465534 -2.50569 -0.029232  -0.513278 -2.4834 -0.02915  -0.487689 -2.55363 -0.0299122  -0.512776 -2.48385 -0.0292711  -0.534928 -2.53185 -0.0299191  -0.465026 -2.50616 -0.0293617  -0.535416 -2.53137 -0.0298319  -0.509804 -2.60149 -0.0305777  -0.557539 -2.57927 -0.030515  -0.531945 -2.64929 -0.0312698  -0.557042 -2.57973 -0.0305786  -0.579177 -2.62758 -0.0312376  -0.509311 -2.60196 -0.0306497  -0.579665 -2.62711 -0.0312054  -0.554067 -2.69706 -0.0319569  -0.601784 -2.67488 -0.0318863  -0.576195 -2.74478 -0.0326531  -0.601296 -2.67535 -0.0318999  -0.62342 -2.7231 -0.0325532  -0.553571 -2.69753 -0.031971  -0.6239 -2.72262 -0.0325701  -0.00402095 -0.00488967 0.00970125  -0.00486236 -0.00923762 0.0118041  -0.0134959 -0.0147866 0.0183268  -0.00524338 -0.00758551 0.0153885  -0.0204152 -0.019794 0.02774  -0.0170178 -0.0193014 0.0183454  0 0 0  -0.0183164 -0.0215096 0.013895  0 0 0  0 0 0  -0.00398993 -0.00320718 0.0129194  0 0 0  -0.0354121 -0.0336469 0.0251245  -0.0203417 -0.0234603 0.021771  -0.0255577 -0.0248074 0.0246005  -0.035246 -0.0326006 0.0290942  -0.0381447 -0.0359353 0.0290418  -0.0353626 -0.0272439 0.036263  -0.0510269 -0.0369875 0.0418148  -0.0499973 -0.034942 0.0420699  -0.0504889 -0.0403473 0.0339522  -0.0264771 -0.020311 0.0305243  -0.0676798 -0.0511578 0.0399008  -0.050491 -0.0432571 0.0342731  -0.051683 -0.0493901 0.0314946  -0.0660938 -0.0548417 0.0372252  -0.0646951 -0.0640462 0.0329494  -0.0660015 -0.0480589 0.0450053  -0.0812441 -0.061642 0.0465708  -0.0840993 -0.0536664 0.0525117  -0.0846931 -0.060922 0.0433202  -0.0520105 -0.043348 0.0379577  -0.102518 -0.0740196 0.0453267  -0.0816697 -0.0686323 0.0388608  -0.0783587 -0.0815639 0.0331316  -0.0976916 -0.0846507 0.0391135  -0.0919314 -0.100639 0.0328312  -0.0965405 -0.077825 0.0465732  -0.11203 -0.0960734 0.0459442  -0.119143 -0.0812467 0.0543642  -0.120611 -0.0886448 0.0454583  -0.0774094 -0.0753626 0.0393214  -0.1387 -0.105313 0.0450544  -0.113692 -0.102608 0.038702  -0.106081 -0.122074 0.0318341  -0.13012 -0.122831 0.0375419  -0.120463 -0.145018 0.0306215  -0.127937 -0.116712 0.0443683  -0.143983 -0.138963 0.0426407  -0.154892 -0.117702 0.051662  -0.157215 -0.124335 0.0435395  -0.104001 -0.116422 0.0375056  -0.175407 -0.144642 0.0419054  -0.146567 -0.144582 0.0360894  -0.135326 -0.169843 0.0290751  -0.163395 -0.16834 0.0342937  -0.150507 -0.196003 0.0274639  -0.160518 -0.16318 0.040411  -0.177166 -0.1887 0.0382195  -0.191194 -0.161745 0.0469584  -0.194071 -0.167304 0.0397277  -0.132501 -0.164994 0.0341821  -0.212389 -0.190936 0.03759  -0.180271 -0.193342 0.0324082  -0.166106 -0.223725 0.0257421  -0.197507 -0.220087 0.030405  -0.182034 -0.252604 0.0239987  -0.194277 -0.215859 0.0358419  -0.211499 -0.244127 0.0335474  -0.227988 -0.212124 0.0416155  -0.231139 -0.216649 0.0352273  -0.162893 -0.219693 0.0302854  -0.249654 -0.243241 0.0329776  -0.214822 -0.24789 0.0284085  -0.198351 -0.282829 0.0222907  -0.232488 -0.277193 0.0264373  -0.214972 -0.314086 0.0205812  -0.229148 -0.273784 0.0312619  -0.246925 -0.304418 0.0290375  -0.265331 -0.267946 0.0363331  -0.268559 -0.271587 0.0307055  -0.195009 -0.279535 0.0263395  -0.287351 -0.300756 0.0285292  -0.250265 -0.307455 0.024498  -0.231973 -0.346536 0.0189648  -0.268399 -0.339039 0.0226412  -0.249273 -0.379916 0.0173492  -0.265099 -0.336285 0.0269132  -0.283423 -0.369048 0.0248332  -0.303327 -0.328519 0.0313945  -0.306508 -0.331437 0.0264149  -0.228669 -0.343845 0.0225463  -0.325653 -0.362923 0.0243845  -0.286668 -0.3715 0.0208206  -0.266943 -0.414362 0.0158253  -0.305291 -0.405125 0.0190964  -0.284904 -0.449657 0.014308  -0.302129 -0.402907 0.0228801  -0.321001 -0.437586 0.0209427  -0.342083 -0.393355 0.0268459  -0.345132 -0.395706 0.0224447  -0.263769 -0.412178 0.0189977  -0.364669 -0.429257 0.0205584  -0.32408 -0.43957 0.0173955  -0.303226 -0.485905 0.0128784  -0.343218 -0.47505 0.0157852  -0.321835 -0.522925 0.0114379  -0.340232 -0.473257 0.0191355  -0.359639 -0.509684 0.0173278  -0.381642 -0.462055 0.0226598  -0.384527 -0.463951 0.0187621  -0.300228 -0.484133 0.0156779  -0.404485 -0.499377 0.0170078  -0.36253 -0.511285 0.014194  -0.340788 -0.560802 0.0100856  -0.382178 -0.548446 0.0126834  -0.360016 -0.599384 0.00872326  -0.37939 -0.547006 0.0156369  -0.399322 -0.58502 0.0139356  -0.422054 -0.534284 0.0187702  -0.424747 -0.535813 0.0153351  -0.337986 -0.559374 0.0125513  -0.445128 -0.572924 0.0136857  -0.402009 -0.586305 0.0111771  -0.37957 -0.638733 0.00743008  -0.422165 -0.624994 0.00973988  -0.399386 -0.678713 0.0061183  -0.419573 -0.623845 0.0123372  -0.439995 -0.663301 0.0107207  -0.463289 -0.609728 0.0151253  -0.4658 -0.610947 0.0120964  -0.376966 -0.637592 0.00958967  -0.486596 -0.649596 0.0105305  -0.442489 -0.664315 0.00830173  -0.419503 -0.719382 0.00486279  -0.463115 -0.704379 0.00692415  -0.43986 -0.760623 0.00359488  -0.46072 -0.703484 0.0091939  -0.48161 -0.744238 0.00764942  -0.505343 -0.688096 0.0116692  -0.507664 -0.689056 0.00901985  -0.417093 -0.718492 0.00674725  -0.528852 -0.729082 0.0075202  -0.483909 -0.745021 0.00553846  -0.460493 -0.802476 0.00237989  -0.50498 -0.786325 0.00420237  -0.481347 -0.844834 0.00114584  -0.502771 -0.785643 0.00617981  -0.524079 -0.827565 0.00469875  -0.548148 -0.769107 0.00837374  -0.550292 -0.769839 0.00606108  -0.45827 -0.801799 0.0040102  -0.571846 -0.811115 0.00462389  -0.526197 -0.828145 0.00286913  -0.502447 -0.887736 -4.3869e-05  -0.547662 -0.870554 0.00157499  -0.523738 -0.93109 -0.00124359  -0.545635 -0.870065 0.00328064  -0.56732 -0.913024 0.00184774  -0.591651 -0.852501 0.0052104  -0.59362 -0.853037 0.00321627  -0.500402 -0.88725 0.0013628  -0.615492 -0.895419 0.00181818  -0.56926 -0.913427 0.000275135  -0.545245 -0.974924 -0.0024085  -0.59108 -0.956821 -0.00098896  -0.566918 -1.01915 -0.00358677  -0.589217 -0.956498 0.000471115  -0.611222 -1.00038 -0.000916958  -0.635754 -0.938025 0.00216532  -0.637563 -0.938383 0.000450134  -0.543369 -0.974601 -0.00121403  -0.65972 -0.981761 -0.000901699  -0.613003 -1.00062 -0.00225449  -0.588775 -1.06379 -0.00473022  -0.635115 -1.04488 -0.00348425  -0.61077 -1.10878 -0.00588083  -0.633415 -1.04471 -0.00224876  -0.655697 -1.0894 -0.00359106  -0.680387 -1.02544 -0.000777721  -0.682037 -1.02564 -0.00222778  -0.587059 -1.06362 -0.00371981  -0.704427 -1.06989 -0.00354147  -0.65732 -1.0895 -0.00471783  -0.632922 -1.15414 -0.00699759  -0.679686 -1.13452 -0.00591946  -0.655189 -1.19979 -0.00812435  -0.678132 -1.13448 -0.00488377  -0.700634 -1.17987 -0.00618172  -0.725444 -1.11451 -0.00361013  -0.726952 -1.11458 -0.00483322  -0.631356 -1.15409 -0.00615978  -0.749536 -1.1596 -0.00610256  -0.702116 -1.17985 -0.0071187  -0.677577 -1.24576 -0.00922012  -0.724674 -1.22553 -0.00828457  -0.700052 -1.29198 -0.010314  -0.723264 -1.2256 -0.00743341  -0.745943 -1.2716 -0.00868845  -0.770853 -1.20504 -0.00634384  -0.772221 -1.205 -0.00734997  -0.676152 -1.24582 -0.00853205  -0.794944 -1.25067 -0.00858164  -0.747282 -1.27148 -0.00945234  -0.722625 -1.33846 -0.0113816  -0.769994 -1.31772 -0.0105886  -0.745259 -1.38516 -0.0124574  -0.76871 -1.31788 -0.00989819  -0.791504 -1.3644 -0.0111089  -0.8165 -1.29683 -0.00897264  -0.817746 -1.29668 -0.00979328  -0.721328 -1.33862 -0.0108328  -0.840569 -1.34293 -0.0109801  -0.792725 -1.36419 -0.0117207  -0.767959 -1.43207 -0.0134997  -0.815529 -1.4109 -0.012826  -0.790701 -1.47916 -0.0145397  -0.81437 -1.41115 -0.0122828  -0.837244 -1.45809 -0.0134501  -0.862314 -1.38968 -0.0115075  -0.863437 -1.38945 -0.0121531  -0.766785 -1.43232 -0.0130682  -0.886313 -1.43617 -0.0133066  -0.838343 -1.4578 -0.013927  -0.813483 -1.52643 -0.0155535  -0.861208 -1.50491 -0.0149994  -0.836285 -1.57384 -0.016571  -0.860155 -1.50522 -0.0145822  -0.883057 -1.55252 -0.0157061  -0.908191 -1.48343 -0.0139437  -0.909211 -1.48312 -0.0144453  -0.812417 -1.52675 -0.0152335  -0.932109 -1.53024 -0.015552  -0.884057 -1.55217 -0.0160618  -0.859106 -1.62139 -0.0175538  -0.906931 -1.59959 -0.0170946  -0.881929 -1.66904 -0.0185347  -0.905981 -1.59997 -0.0167899  -0.928887 -1.64754 -0.0178661  -0.954083 -1.57792 -0.016274  -0.955001 -1.57755 -0.0166388  -0.858141 -1.62176 -0.0173206  -0.977881 -1.62498 -0.0177078  -0.929787 -1.64713 -0.0181203  -0.904752 -1.7168 -0.0194874  -0.952649 -1.69479 -0.0191207  -0.92756 -1.76464 -0.0204372  -0.951786 -1.69522 -0.0189085  -0.97465 -1.743 -0.019937  -0.999902 -1.67299 -0.0184975  -1.00074 -1.67257 -0.018755  -0.903876 -1.71723 -0.0193343  -1.02357 -1.72025 -0.0197749  -0.975469 -1.74255 -0.0201054  -0.950348 -1.81255 -0.0213594  -0.998273 -1.79039 -0.0210643  -0.973108 -1.86051 -0.0222726  -0.997495 -1.79086 -0.0209327  -1.0203 -1.83878 -0.0219145  -1.04561 -1.7685 -0.0206161  -1.04636 -1.76804 -0.0207739  -0.949553 -1.81301 -0.0212684  -1.06912 -1.81589 -0.0217543  -1.02104 -1.8383 -0.0220118  -0.995836 -1.90852 -0.0231595  -1.04377 -1.88626 -0.022934  -1.01853 -1.95654 -0.0240407  -1.04306 -1.88675 -0.0228653  -1.06577 -1.93476 -0.0237961  -1.09113 -1.86433 -0.022625  -1.09183 -1.86383 -0.0227137  -0.995111 -1.90901 -0.0231209  -1.1145 -1.9118 -0.0236416  -1.06645 -1.93425 -0.02384  -1.04117 -2.00459 -0.0248961  -1.08909 -1.98227 -0.0247211  -1.06377 -2.05264 -0.0257392  -1.08844 -1.98279 -0.0247006  -1.11106 -2.03084 -0.0255814  -1.13647 -1.96034 -0.0245237  -1.1371 -1.95982 -0.024549  -1.04051 -2.0051 -0.0248904  -1.15968 -2.00785 -0.0254345  -1.11168 -2.03031 -0.0255866  -1.08632 -2.10068 -0.0265589  -1.13422 -2.07835 -0.0264306  -1.10882 -2.1487 -0.0273747  -1.13362 -2.07888 -0.0264406  -1.15612 -2.12692 -0.027276  -1.18158 -2.05644 -0.0263104  -1.18217 -2.05589 -0.0263033  -1.08571 -2.10121 -0.0265808  -1.20464 -2.10394 -0.0271411  -1.15671 -2.12637 -0.0272551  -1.13127 -2.1967 -0.0281658  -1.17914 -2.17438 -0.0280614  -1.15367 -2.24466 -0.0289445  -1.17856 -2.17492 -0.0280919  -1.20096 -2.22292 -0.0288854  -1.22647 -2.15253 -0.0280013  -1.22703 -2.15197 -0.0279632  -1.13069 -2.19724 -0.0281992  -1.2494 -2.19998 -0.0287604  -1.20152 -2.22236 -0.028852  -1.17602 -2.29259 -0.0297103  -1.22386 -2.2703 -0.0296245  -1.19833 -2.34048 -0.0304756  -1.2233 -2.27086 -0.0296621  -1.24561 -2.31877 -0.0304255  -1.27116 -2.24852 -0.0295825  -1.27171 -2.24795 -0.0295477  -1.17545 -2.29314 -0.0297489  -1.29402 -2.29589 -0.0303159  -1.24616 -2.31821 -0.0303922  -1.2206 -2.38831 -0.0312324  -1.26843 -2.36607 -0.0311561  -1.24284 -2.43611 -0.0319924  -1.26788 -2.36663 -0.0311942  -1.29016 -2.41446 -0.0319476  -1.31572 -2.34434 -0.031117  -1.31627 -2.34379 -0.0310822  -1.22004 -2.38887 -0.0312715  -1.33855 -2.39165 -0.0318398  -1.2907 -2.41389 -0.0319157  -0.00197108 -0.0010929 0.00617886  -0.00239169 -0.00253434 0.00785637  -0.00626261 -0.00638743 0.0118713  -0.00236922 -0.00100704 0.0102568  -0.00890877 -0.00663747 0.0188556  0 0 0  0 0 0  -0.00199497 0.000208676 0.0080843  0 0 0  -0.00803179 -0.00921732 0.0150476  -0.0119268 -0.0159701 0.0160003  -0.0171326 -0.0194346 0.0202556  -0.0191492 -0.028658 0.0191307  -0.0181634 -0.0155421 0.0251203  -0.0283836 -0.0267402 0.0291252  -0.0124736 -0.0126732 0.0198169  -0.027217 -0.0315629 0.024003  -0.0269976 -0.0432658 0.0208316  -0.0379313 -0.0455507 0.0260558  -0.0354669 -0.0603734 0.0218925  -0.0383888 -0.0402459 0.031322  -0.0489472 -0.0561598 0.0325379  -0.0271893 -0.0386598 0.0249362  -0.0490432 -0.0617436 0.0273385  -0.0444106 -0.0794197 0.0220008  -0.0602793 -0.0799187 0.0274529  -0.053773 -0.10049 0.0217986  -0.0594432 -0.0743435 0.0324426  -0.0704778 -0.0947172 0.0320792  -0.0435513 -0.0743387 0.0258975  -0.0719584 -0.100176 0.0272112  -0.0636919 -0.123506 0.0211043  -0.0839401 -0.122346 0.026371  -0.0741186 -0.148246 0.0202479  -0.0819655 -0.117133 0.0309353  -0.0939863 -0.141395 0.0297461  -0.0618111 -0.118596 0.0246654  -0.0964407 -0.14629 0.0253372  -0.0851563 -0.174698 0.0191917  -0.109387 -0.171935 0.0240493  -0.096791 -0.202629 0.0180302  -0.106672 -0.167354 0.0281725  -0.119847 -0.194843 0.0266004  -0.0825741 -0.170287 0.0223927  -0.122847 -0.199045 0.0226598  -0.109019 -0.232 0.0168319  -0.136788 -0.227617 0.0212255  -0.121866 -0.262658 0.0155611  -0.133681 -0.223737 0.0249119  -0.147966 -0.253916 0.0232143  -0.106057 -0.228199 0.0196919  -0.151209 -0.257433 0.0197172  -0.135264 -0.294531 0.0143509  -0.166098 -0.288518 0.0182815  -0.149256 -0.327531 0.0130777  -0.162858 -0.285286 0.021565  -0.178167 -0.317764 0.0198822  -0.13216 -0.29132 0.0168862  -0.181435 -0.320681 0.0167861  -0.163755 -0.361591 0.0118952  -0.197219 -0.353965 0.0153971  -0.178809 -0.396646 0.0106592  -0.194006 -0.351294 0.0183091  -0.210244 -0.385807 0.0167027  -0.160667 -0.358906 0.0141315  -0.213424 -0.388213 0.0139718  -0.194345 -0.432646 0.0095253  -0.230058 -0.423461 0.0126548  -0.210389 -0.469523 0.00833988  -0.226964 -0.421263 0.015224  -0.244061 -0.457596 0.013701  -0.19136 -0.430417 0.0114861  -0.247086 -0.459569 0.0112953  -0.226889 -0.50725 0.00725126  -0.264528 -0.496574 0.0100503  -0.243851 -0.54576 0.00612259  -0.261598 -0.494777 0.0123143  -0.279494 -0.532743 0.0108733  -0.224051 -0.505414 0.00897169  -0.282337 -0.534352 0.00876331  -0.261242 -0.585031 0.00507259  -0.300538 -0.572942 0.00756598  -0.279062 -0.624989 0.00397015  -0.297797 -0.571479 0.00955105  -0.316434 -0.610924 0.00818157  -0.258583 -0.583524 0.00656414  -0.319083 -0.612223 0.00633001  -0.297281 -0.665629 0.00294542  -0.337998 -0.652225 0.00518131  -0.315885 -0.706886 0.00188589  -0.335444 -0.651053 0.006917  -0.354766 -0.691815 0.00559855  -0.294797 -0.664414 0.00424433  -0.357226 -0.692853 0.00399208  -0.334855 -0.748749 0.000874996  -0.376795 -0.734127 0.00286245  -0.354179 -0.79115 -0.000181675  -0.374431 -0.733199 0.00436735  -0.39438 -0.77515 0.00309181  -0.332552 -0.747779 0.0019846  -0.396653 -0.775955 0.00169754  -0.373833 -0.834086 -0.00117636  -0.416819 -0.818352 0.000599384  -0.3938 -0.877501 -0.00220156  -0.414633 -0.817642 0.00189638  -0.435148 -0.860638 0.000660896  -0.371699 -0.833338 -0.00022459  -0.437245 -0.861243 -0.00053215  -0.414066 -0.921388 -0.00318336  -0.45795 -0.904642 -0.001616  -0.434609 -0.965686 -0.00420809  -0.455939 -0.90412 -0.000506878  -0.476956 -0.948046 -0.0017128  -0.412101 -0.920829 -0.00238514  -0.478882 -0.948472 -0.0027318  -0.455412 -1.01039 -0.00518131  -0.500055 -0.992743 -0.00379324  -0.476451 -1.05547 -0.00618219  -0.498207 -0.99239 -0.00285435  -0.519655 -1.03712 -0.00403261  -0.453601 -1.01001 -0.00451088  -0.521424 -1.03739 -0.0048852  -0.497713 -1.10089 -0.00715113  -0.543001 -1.08243 -0.00593948  -0.519182 -1.14662 -0.00815916  -0.54131 -1.08222 -0.00515509  -0.56313 -1.12766 -0.00630951  -0.496055 -1.10065 -0.00660515  -0.564747 -1.12779 -0.00702238  -0.540841 -1.19266 -0.00911379  -0.586667 -1.17349 -0.00805235  -0.562666 -1.23896 -0.0100865  -0.585119 -1.17341 -0.00740433  -0.607248 -1.21945 -0.00852585  -0.539319 -1.19255 -0.00866556  -0.608724 -1.21946 -0.00910473  -0.584647 -1.28551 -0.0110316  -0.630924 -1.26572 -0.0101242  -0.606766 -1.33228 -0.0120091  -0.629514 -1.26576 -0.00960016  -0.651891 -1.31231 -0.010695  -0.583261 -1.28552 -0.0106845  -0.653233 -1.31222 -0.0111628  -0.629008 -1.37927 -0.0129399  -0.675652 -1.35895 -0.012156  -0.651352 -1.42643 -0.0138817  -0.674368 -1.35908 -0.0117402  -0.69693 -1.40606 -0.0128045  -0.627741 -1.37938 -0.0126681  -0.698151 -1.40588 -0.013166  -0.673788 -1.47377 -0.0148025  -0.72073 -1.453 -0.0141492  -0.696301 -1.52125 -0.015748  -0.719566 -1.45322 -0.0138321  -0.742261 -1.50055 -0.0148692  -0.672639 -1.47396 -0.0146103  -0.743367 -1.50029 -0.0151439  -0.718878 -1.56886 -0.0166483  -0.766057 -1.54772 -0.0160956  -0.741503 -1.61659 -0.0175576  -0.764999 -1.54801 -0.015862  -0.787774 -1.59561 -0.0168676  -0.71783 -1.56913 -0.0165124  -0.788779 -1.59529 -0.0170593  -0.764168 -1.66442 -0.018446  -0.811532 -1.64297 -0.0179963  -0.786861 -1.71232 -0.0193553  -0.810573 -1.64332 -0.0178356  -0.83339 -1.69114 -0.0188107  -0.763218 -1.66474 -0.0183682  -0.8343 -1.69075 -0.0189409  -0.809569 -1.76029 -0.0202169  -0.857072 -1.73862 -0.019845  -0.832281 -1.80832 -0.021081  -0.8562 -1.73902 -0.0197434  -0.879013 -1.78697 -0.0206819  -0.808701 -1.76068 -0.0201759  -0.879841 -1.78654 -0.0207529  -0.854992 -1.8564 -0.0219259  -0.902598 -1.83454 -0.0216374  -0.877694 -1.90449 -0.0227885  -0.901805 -1.83498 -0.0215859  -0.924587 -1.88303 -0.02249  -0.854204 -1.85682 -0.0219259  -0.925338 -1.88256 -0.0225258  -0.900375 -1.95261 -0.023603  -0.948048 -1.93062 -0.0233731  -0.923026 -2.00073 -0.0244207  -0.947323 -1.93109 -0.0233579  -0.970036 -1.97918 -0.0242248  -0.89965 -1.95307 -0.0236211  -0.970726 -1.97869 -0.0242243  -0.945645 -2.04885 -0.0252233  -0.993363 -2.02677 -0.0250545  -0.968229 -2.09695 -0.026041  -0.9927 -2.02726 -0.0250678  -1.01533 -2.07535 -0.0259027  -0.944982 -2.04934 -0.0252643  -1.01596 -2.07484 -0.0258851  -0.990771 -2.14503 -0.0268159  -1.03851 -2.12289 -0.0266781  -1.01327 -2.19309 -0.0275841  -1.0379 -2.12341 -0.0267057  -1.06042 -2.17146 -0.0275064  -0.990151 -2.14554 -0.0268569  -1.06102 -2.17093 -0.0274734  -1.03571 -2.2411 -0.028348  -1.08346 -2.21893 -0.0282559  -1.0581 -2.28907 -0.0291243  -1.08288 -2.21946 -0.0282931  -1.1053 -2.26744 -0.0290651  -1.03513 -2.24162 -0.0283976  -1.10587 -2.2669 -0.0290318  -1.08045 -2.337 -0.0298681  -1.12821 -2.31482 -0.0297847  -1.10274 -2.38487 -0.0306158  -1.12765 -2.31536 -0.02982  -1.14997 -2.36324 -0.0305748  -1.07988 -2.33753 -0.0299072  -1.15052 -2.3627 -0.0305419  -1.12498 -2.43268 -0.0313563  -1.17277 -2.41052 -0.0312948  -1.14719 -2.48042 -0.0321178  -1.17222 -2.41105 -0.0313354  -1.19447 -2.45883 -0.0320935  -1.12443 -2.43321 -0.0314002  -1.19501 -2.45828 -0.032053  -0.000493195 -0.000445992 0.00282145  -0.000881799 -0.000522971 0.0044775  -0.00154767 -0.00516257 0.0056386  -0.00084671 0.000680178 0.00565815  -0.00339985 -0.0030683 0.0107098  0 0 0  0 0 0  -0.000479702 0.0006015 0.00355434  0 0 0  -0.00292602 -0.00522259 0.00863647  -0.00300412 -0.014796 0.00777435  -0.00669764 -0.0150045 0.0117631  -0.00535551 -0.0274847 0.00956392  -0.00709805 -0.0119509 0.0144691  -0.0117347 -0.0237041 0.0171356  -0.00303158 -0.0121028 0.00944328  -0.0111207 -0.0274201 0.0142832  -0.00824487 -0.0431868 0.0105586  -0.0168709 -0.042748 0.0155673  -0.011896 -0.061396 0.0112658  -0.0169177 -0.0384928 0.0185561  -0.0226081 -0.0557785 0.0194197  -0.00792247 -0.0393485 0.0124435  -0.0229136 -0.0603537 0.0164909  -0.0161713 -0.0817302 0.0113897  -0.0296814 -0.0800802 0.0165854  -0.0211535 -0.104202 0.011322  -0.0287902 -0.0753593 0.0194016  -0.0355111 -0.0971514 0.0191884  -0.0151317 -0.0773383 0.013165  -0.0369049 -0.101875 0.0164785  -0.0268192 -0.128482 0.0109444  -0.0447272 -0.125536 0.0159426  -0.0332755 -0.154629 0.010438  -0.0429255 -0.120904 0.0184937  -0.0509967 -0.146575 0.0177126  -0.0250499 -0.124055 0.0125365  -0.0532048 -0.151025 0.0152721  -0.0404628 -0.18235 0.00981331  -0.062311 -0.178131 0.0144391  -0.0484998 -0.211684 0.00907516  -0.0598701 -0.173885 0.0167308  -0.0694689 -0.202832 0.0156741  -0.0381516 -0.178214 0.0112219  -0.0721657 -0.206804 0.0134974  -0.0572789 -0.242376 0.0083375  -0.0826685 -0.23687 0.0125427  -0.0669114 -0.274453 0.00750208  -0.0798758 -0.233131 0.014585  -0.0909916 -0.264818 0.0134187  -0.0546547 -0.238679 0.00956821  -0.0939131 -0.26827 0.0114899  -0.0772618 -0.307709 0.00671577  -0.105799 -0.300866 0.0105047  -0.088423 -0.342158 0.00585699  -0.102867 -0.297653 0.0123086  -0.115406 -0.331672 0.0111227  -0.0745076 -0.304492 0.00778341  -0.118375 -0.334615 0.00943279  -0.100251 -0.377627 0.00506306  -0.131565 -0.369416 0.00845718  -0.112836 -0.414122 0.00419903  -0.128635 -0.366683 0.0100403  -0.14248 -0.402725 0.00887871  -0.0974932 -0.374867 0.00597239  -0.145386 -0.405211 0.0074048  -0.126055 -0.451522 0.00340652  -0.159781 -0.441936 0.00645447  -0.139954 -0.489816 0.00255251  -0.156948 -0.439644 0.00782967  -0.171985 -0.477466 0.00670815  -0.123368 -0.449189 0.004179  -0.174765 -0.479538 0.00543118  -0.154443 -0.528908 0.00177622  -0.190285 -0.517971 0.00450516  -0.169557 -0.568775 0.000941277  -0.187584 -0.516059 0.00569487  -0.203699 -0.555444 0.00461292  -0.151877 -0.526945 0.00241661  -0.206333 -0.557174 0.00351381  -0.185211 -0.609346 0.000163555  -0.222871 -0.597111 0.00261211  -0.201424 -0.65059 -0.000666142  -0.220331 -0.595527 0.00363064  -0.237442 -0.63631 0.0025835  -0.182783 -0.607709 0.000694752  -0.239903 -0.637723 0.00164223  -0.21814 -0.692462 -0.00144005  -0.257391 -0.678992 0.000750542  -0.235365 -0.734916 -0.00226784  -0.255017 -0.677698 0.00162363  -0.273019 -0.719701 0.000598907  -0.215868 -0.691112 -0.00101233  -0.275319 -0.720859 -0.000201225  -0.25304 -0.777914 -0.00304747  -0.293655 -0.763297 -0.00108528  -0.271167 -0.821422 -0.00387192  -0.291448 -0.762253 -0.000351906  -0.310268 -0.805347 -0.00135994  -0.250917 -0.776817 -0.00270367  -0.312395 -0.806259 -0.00203085  -0.289704 -0.865408 -0.00465584  -0.33151 -0.849729 -0.00291586  -0.308649 -0.909832 -0.00548792  -0.329461 -0.848906 -0.00229979  -0.349002 -0.892941 -0.00329208  -0.287737 -0.864533 -0.00439453  -0.350978 -0.893657 -0.00385189  -0.327956 -0.954669 -0.00628281  -0.370771 -0.938023 -0.00473022  -0.347614 -0.999882 -0.00711393  -0.368883 -0.937393 -0.00422621  -0.389075 -0.982259 -0.00520658  -0.326131 -0.953992 -0.00608397  -0.390889 -0.982781 -0.00566244  -0.367598 -1.04545 -0.00790882  -0.411298 -1.02792 -0.00654221  -0.387892 -1.09133 -0.00874233  -0.409553 -1.02747 -0.00612831  -0.430298 -1.07304 -0.00710011  -0.365916 -1.04495 -0.00777054  -0.431975 -1.07341 -0.00746679  -0.40846 -1.13752 -0.00954723  -0.452896 -1.11922 -0.00834465  -0.429287 -1.18398 -0.0103836  -0.451298 -1.11891 -0.00802135  -0.472529 -1.16509 -0.00898266  -0.406908 -1.13718 -0.0094552  -0.47406 -1.16531 -0.00926971  -0.450355 -1.23069 -0.0111842  -0.495436 -1.21169 -0.0101452  -0.471648 -1.27762 -0.0120196  -0.493966 -1.21152 -0.00989103  -0.515597 -1.25821 -0.0108371  -0.448933 -1.23048 -0.0111403  -0.517004 -1.25831 -0.0110564  -0.493134 -1.32476 -0.0128284  -0.538741 -1.30516 -0.0119247  -0.5148 -1.37208 -0.01366  -0.537404 -1.30511 -0.0117393  -0.559372 -1.35222 -0.0126739  -0.491829 -1.32467 -0.0128131  -0.560649 -1.35221 -0.0128322  -0.536629 -1.41957 -0.0144639  -0.582693 -1.39944 -0.0136981  -0.558605 -1.4672 -0.0152946  -0.581471 -1.3995 -0.0135641  -0.603693 -1.44695 -0.0144835  -0.535442 -1.41959 -0.0144844  -0.604862 -1.44684 -0.0145922  -0.580703 -1.51497 -0.0161028  -0.62713 -1.4944 -0.0154476  -0.602907 -1.56284 -0.0169296  -0.62602 -1.49454 -0.0153675  -0.648447 -1.54227 -0.0162725  -0.579615 -1.51508 -0.0161419  -0.649504 -1.54207 -0.0163345  -0.625208 -1.61081 -0.0177245  -0.67195 -1.58986 -0.0171809  -0.647592 -1.65886 -0.0185437  -0.670936 -1.59008 -0.0171366  -0.693494 -1.63801 -0.0180244  -0.62422 -1.61101 -0.0177879  -0.694463 -1.63775 -0.0180521  -0.670037 -1.70698 -0.0193391  -0.717017 -1.68572 -0.0188851  -0.69253 -1.75514 -0.0201478  -0.716099 -1.68601 -0.0188799  -0.73875 -1.73409 -0.0197501  -0.669132 -1.70724 -0.0194111  -0.739625 -1.73376 -0.0197453  -0.715067 -1.80336 -0.0209284  -0.762252 -1.78185 -0.020565  -0.737633 -1.85159 -0.0217261  -0.761412 -1.78219 -0.0205793  -0.784095 -1.83035 -0.0214276  -0.714245 -1.80368 -0.0210133  -0.7849 -1.82998 -0.0214038  -0.760212 -1.89984 -0.0225029  -0.807541 -1.87814 -0.0222077  -0.782793 -1.94809 -0.0232868  -0.806779 -1.87853 -0.0222464  -0.829469 -1.92674 -0.0230737  -0.759456 -1.90021 -0.0225863  -0.830196 -1.92631 -0.0230322  -0.805375 -1.99635 -0.024044  -0.852832 -1.9745 -0.0238185  -0.827947 -2.04458 -0.0248165  -0.85213 -1.97493 -0.0238652  -0.874775 -2.02312 -0.0246663  -0.804684 -1.99676 -0.0241323  -0.87545 -2.02268 -0.0246177  -0.850496 -2.09279 -0.0255728  -0.898029 -2.07084 -0.0253897  -0.873014 -2.14097 -0.0263324  -0.897386 -2.0713 -0.0254474  -0.919977 -2.11946 -0.0262308  -0.849853 -2.09324 -0.0256491  -0.920594 -2.11898 -0.0261798  -0.895507 -2.18912 -0.0270672  -0.943112 -2.16709 -0.0269356  -0.917965 -2.23722 -0.0278153  -0.94251 -2.16757 -0.0269885  -0.96501 -2.21566 -0.0277467  -0.894911 -2.18959 -0.0271411  -0.965595 -2.21517 -0.0276999  -0.940376 -2.28527 -0.0285497  -0.988017 -2.2632 -0.0284424  -0.962739 -2.33327 -0.0292854  -0.987452 -2.2637 -0.0284934  -1.00986 -2.3117 -0.0292416  -0.939808 -2.28577 -0.0286064  -1.01041 -2.31118 -0.0292006  -0.985054 -2.38121 -0.0300064  -1.03274 -2.35911 -0.029933  -1.00733 -2.42908 -0.0307369  -1.03219 -2.35963 -0.0299726  -1.05448 -2.4075 -0.0307112  -0.984514 -2.38171 -0.0300527  -1.05502 -2.40699 -0.0306787  -1.02953 -2.47687 -0.0314641  -1.07723 -2.45479 -0.0314083  -1.05168 -2.52459 -0.0321932  -1.0767 -2.4553 -0.0314469  -1.09889 -2.50303 -0.0321813  -1.02899 -2.47738 -0.0314956  -1.09943 -2.50251 -0.0321507  0.00073836 -0.00161529 -0.000495434  0.000347286 -0.000867456 0.00118017  0.00229692 -0.00733063 -0.000371933  0.000384942 9.65595e-05 0.00117922  0.00092119 -0.00411296 0.00288677  0 0 0  0 0 0  0.000780232 -0.000740618 -0.000891685  0 0 0  0.000979051 -0.00590307 0.00254726  0.00442126 -0.017943 -0.000171661  0.00114481 -0.0160597 0.00366306  0.00639012 -0.0312726 0.000317097  0.00134178 -0.0135226 0.00422907  0.00132084 -0.0257891 0.00553083  0.00492668 -0.0155959 -0.000540733  0.0011498 -0.0289204 0.00483561  0.00797689 -0.0480135 0.000701904  0.000224948 -0.0451945 0.00547218  0.00893804 -0.0670093 0.00105715  0.000798464 -0.0415529 0.0062685  -0.000295907 -0.0597559 0.00682592  0.0088681 -0.0445751 0.000448227  -0.00106558 -0.0637206 0.0060606  0.00911954 -0.0883726 0.00121832  -0.00324726 -0.0845958 0.00618696  0.00847131 -0.111811 0.00127316  -0.00209954 -0.0804096 0.00694036  -0.00459597 -0.103271 0.00691032  0.010435 -0.0843576 0.000971317  -0.00606632 -0.107546 0.00621176  0.0069415 -0.137102 0.00119925  -0.00970662 -0.132354 0.00599098  0.00443959 -0.164295 0.00101423  -0.00796193 -0.128083 0.00663948  -0.0121534 -0.154858 0.00625372  0.00869083 -0.132964 0.000914574  -0.0141816 -0.159033 0.00565958  0.00102669 -0.193058 0.000788212  -0.0194942 -0.187303 0.00524759  -0.00342858 -0.223501 0.000450134  -0.0173004 -0.183256 0.00579023  -0.0233344 -0.213353 0.00520229  0.00312096 -0.18909 0.000466824  -0.0257224 -0.217207 0.0047102  -0.00878614 -0.255299 0.000113487  -0.0327935 -0.248484 0.00418758  -0.0151853 -0.288553 -0.000325203  -0.0303304 -0.244812 0.0046339  -0.0382262 -0.277729 0.00395155  -0.00647604 -0.251664 -0.000238419  -0.0407904 -0.281167 0.0035553  -0.0224645 -0.322992 -0.000714779  -0.0496122 -0.315046 0.00297785  -0.0307342 -0.358664 -0.00120068  -0.0470345 -0.311803 0.00333023  -0.0566972 -0.347118 0.00260973  -0.0200535 -0.319753 -0.00109768  -0.0593137 -0.350124 0.00230074  -0.0398431 -0.395366 -0.00163364  -0.0697947 -0.386236 0.00170565  -0.0498711 -0.433126 -0.00214386  -0.0672112 -0.383425 0.00196934  -0.0785102 -0.420794 0.00123501  -0.0374231 -0.392538 -0.00203705  -0.0810872 -0.423377 0.0010128  -0.0606736 -0.471781 -0.00260353  -0.0931151 -0.461429 0.000398159  -0.0723307 -0.511336 -0.00313759  -0.0905875 -0.459025 0.000581264  -0.103399 -0.498176 -0.000156879  -0.0583069 -0.469341 -0.00303078  -0.105889 -0.50037 -0.000303745  -0.0847063 -0.551662 -0.00362444  -0.11933 -0.540098 -0.000932217  -0.0978498 -0.592763 -0.00417566  -0.116908 -0.538059 -0.000815392  -0.13109 -0.578737 -0.00154591  -0.0824208 -0.549581 -0.00405788  -0.133461 -0.580594 -0.00162745  -0.111653 -0.634535 -0.00468016  -0.148207 -0.621783 -0.00225735  -0.126158 -0.676959 -0.0052557  -0.145909 -0.620065 -0.00220442  -0.161336 -0.662083 -0.00294209  -0.109483 -0.632768 -0.00512552  -0.163568 -0.663629 -0.00297022  -0.141266 -0.719964 -0.0057869  -0.179491 -0.706081 -0.00361252  -0.156994 -0.763535 -0.00636673  -0.177331 -0.704654 -0.00360966  -0.193879 -0.74782 -0.00434446  -0.139214 -0.718488 -0.00622559  -0.195972 -0.749102 -0.00432205  -0.173265 -0.807605 -0.00692225  -0.212961 -0.792647 -0.0049839  -0.190103 -0.852149 -0.00754118  -0.210941 -0.791474 -0.005023  -0.2285 -0.835645 -0.00576782  -0.171348 -0.80638 -0.00736475  -0.23045 -0.836682 -0.00571203  -0.207429 -0.897119 -0.00812101  -0.24839 -0.881169 -0.00638819  -0.225248 -0.942498 -0.00874186  -0.246511 -0.880223 -0.00646067  -0.264967 -0.925246 -0.0072093  -0.205634 -0.896125 -0.00854588  -0.26678 -0.926078 -0.0071187  -0.2435 -0.988242 -0.00934267  -0.285571 -0.971376 -0.00781012  -0.262197 -1.03432 -0.00999594  -0.283826 -0.970627 -0.00791359  -0.303079 -1.01639 -0.00866938  -0.241836 -0.987444 -0.00976276  -0.304757 -1.01703 -0.00856018  -0.281273 -1.0807 -0.0106158  -0.324291 -1.06301 -0.00926113  -0.300729 -1.12737 -0.011271  -0.32268 -1.06244 -0.00938177  -0.342625 -1.10881 -0.0101414  -0.279727 -1.08009 -0.0110097  -0.344175 -1.10929 -0.0100093  -0.320516 -1.17429 -0.0119162  -0.364362 -1.15585 -0.0107265  -0.340636 -1.22143 -0.0126057  -0.362876 -1.15544 -0.0108657  -0.383423 -1.20233 -0.0116363  -0.319092 -1.17383 -0.0123  -0.384846 -1.20265 -0.0114951  -0.361043 -1.26878 -0.0132575  -0.405586 -1.24969 -0.0122175  -0.381724 -1.31632 -0.0139375  -0.404219 -1.24942 -0.0123663  -0.425274 -1.29674 -0.0131326  -0.359727 -1.26848 -0.0136123  -0.426582 -1.29693 -0.0129781  -0.402643 -1.36403 -0.0146079  -0.447791 -1.34436 -0.013711  -0.423801 -1.41188 -0.0153189  -0.446539 -1.34422 -0.0138688  -0.468019 -1.39188 -0.0146456  -0.401439 -1.36385 -0.0149488  -0.469213 -1.39195 -0.0144906  -0.445156 -1.45985 -0.0159998  -0.490806 -1.43968 -0.0152259  -0.466697 -1.50793 -0.0166979  -0.489662 -1.43965 -0.0153842  -0.511482 -1.48757 -0.0161557  -0.444049 -1.45979 -0.0163074  -0.512574 -1.48754 -0.0159955  -0.488396 -1.55612 -0.0173855  -0.534476 -1.53552 -0.0167384  -0.51025 -1.60436 -0.0181103  -0.533432 -1.53558 -0.0168986  -0.55552 -1.58371 -0.0176744  -0.487389 -1.55615 -0.0176778  -0.556514 -1.58358 -0.0175204  -0.532223 -1.65268 -0.0188074  -0.578651 -1.63173 -0.0182614  -0.554308 -1.70104 -0.0195169  -0.577696 -1.63188 -0.0184164  -0.599983 -1.68013 -0.0191808  -0.531297 -1.6528 -0.0190644  -0.600893 -1.67994 -0.0190277  -0.576481 -1.74945 -0.020216  -0.623207 -1.7282 -0.0197716  -0.598743 -1.79787 -0.020946  -0.622336 -1.72842 -0.0199208  -0.644765 -1.77677 -0.0206861  -0.575638 -1.74965 -0.0204554  -0.645593 -1.7765 -0.0205469  -0.621062 -1.8463 -0.0216517  -0.668018 -1.82482 -0.0212846  -0.643432 -1.89474 -0.0223627  -0.667221 -1.82511 -0.0214248  -0.689732 -1.87348 -0.0221767  -0.620286 -1.84657 -0.0218554  -0.690494 -1.87316 -0.0220423  -0.665835 -1.94318 -0.0230675  -0.712987 -1.9215 -0.0227785  -0.688272 -1.99158 -0.0237951  -0.712256 -1.92184 -0.0229092  -0.734808 -1.97021 -0.0236583  -0.665124 -1.9435 -0.0232539  -0.735504 -1.96983 -0.02354  -0.710721 -2.03997 -0.0244956  -0.758016 -2.01815 -0.0242667  -0.733173 -2.08832 -0.0252032  -0.757343 -2.01854 -0.0243826  -0.779891 -2.06686 -0.025115  -0.710059 -2.04034 -0.0246458  -0.780535 -2.06645 -0.0250072  -0.755615 -2.13664 -0.0259089  -0.803032 -2.11471 -0.0257349  -0.778053 -2.1849 -0.0266304  -0.802408 -2.11513 -0.0258365  -0.824921 -2.16339 -0.0265646  -0.755004 -2.13705 -0.0260425  -0.825517 -2.16293 -0.0264792  -0.800467 -2.2331 -0.0273309  -0.847967 -2.21111 -0.0271959  -0.822858 -2.28126 -0.0280313  -0.847383 -2.21157 -0.0272779  -0.869833 -2.25971 -0.0279918  -0.79989 -2.23355 -0.0274282  -0.870397 -2.25924 -0.0279198  -0.845208 -2.32936 -0.0287328  -0.892778 -2.30732 -0.0286341  -0.867534 -2.37738 -0.0294504  -0.892226 -2.30779 -0.0286984  -0.914595 -2.35582 -0.0294104  -0.844664 -2.32982 -0.0288134  -0.91513 -2.35532 -0.0293655  -0.889809 -2.42533 -0.0301471  -0.937419 -2.40327 -0.0300722  -0.912039 -2.47321 -0.0308409  -0.936889 -2.40376 -0.0301137  -0.959154 -2.45165 -0.0308175  -0.889282 -2.42582 -0.0301914  -0.959677 -2.45115 -0.0307879  -0.9342 -2.52101 -0.0315423  -0.981853 -2.49894 -0.0314965  -0.956311 -2.56871 -0.032259  -0.981327 -2.49943 -0.0315237  -1.00346 -2.54715 -0.032238  -0.933682 -2.5215 -0.0315714  -1.00398 -2.54665 -0.0322232  0.00197279 -0.00429124 -0.00372314  0.00154246 -0.00276572 -0.00207376  0.00615771 -0.0120324 -0.00607109  0.00157955 -0.00196362 -0.00323391  0.00501196 -0.00783205 -0.00464725  0 0 0  0 0 0  0.00203665 -0.00348735 -0.00520992  0 0 0  0.00465052 -0.00936848 -0.0033226  0.011824 -0.0245531 -0.00764084  0.00835529 -0.0208955 -0.00408173  0.0180298 -0.0390972 -0.00836182  0.00911486 -0.0186352 -0.00553179  0.0133443 -0.0319774 -0.00554895  0.0128296 -0.0223359 -0.00993252  0.0124146 -0.0347812 -0.00416374  0.0239001 -0.0569811 -0.00855589  0.0160219 -0.0520633 -0.00410986  0.0292934 -0.0768024 -0.00856972  0.0171803 -0.0487517 -0.00541496  0.0204278 -0.0678227 -0.00516176  0.0253262 -0.0537258 -0.0108337  0.0191585 -0.0714642 -0.00388336  0.0337404 -0.098993 -0.00840759  0.0214412 -0.0932317 -0.00372124  0.0372588 -0.123206 -0.00827932  0.0228889 -0.0893489 -0.00494289  0.024469 -0.113062 -0.00481081  0.0353394 -0.0951855 -0.0105834  0.0228596 -0.117064 -0.00358772  0.0397066 -0.149285 -0.00810289  0.0233176 -0.142764 -0.00352859  0.0410181 -0.177301 -0.00801134  0.0250649 -0.138724 -0.00471306  0.0246484 -0.16638 -0.00474548  0.0414706 -0.145319 -0.0101953  0.0227407 -0.170377 -0.00356054  0.0412502 -0.206917 -0.0079093  0.0211569 -0.199592 -0.00360775  0.0402802 -0.238268 -0.00790834  0.0231554 -0.195677 -0.00476551  0.0205957 -0.226726 -0.00491619  0.0431814 -0.203065 -0.0099144  0.018472 -0.230496 -0.00377035  0.0382459 -0.27102 -0.00787449  0.0147693 -0.262796 -0.00390959  0.0350058 -0.305271 -0.00793457  0.0169396 -0.259174 -0.00502872  0.0122297 -0.293132 -0.00526953  0.0402912 -0.267438 -0.00978661  0.00998759 -0.296557 -0.00416422  0.0307398 -0.340738 -0.00798702  0.00420815 -0.331535 -0.00437355  0.025326 -0.377488 -0.00811863  0.00646043 -0.328279 -0.00545883  -0.000323236 -0.364711 -0.00575447  0.0328485 -0.337505 -0.00980091  -0.00260317 -0.367755 -0.00468159  0.0189315 -0.41529 -0.00822449  -0.0103619 -0.40503 -0.00494385  0.0114661 -0.454171 -0.00840998  -0.00809789 -0.402157 -0.00599241  -0.0168324 -0.440697 -0.00632429  0.0210506 -0.412421 -0.00994158  -0.0190892 -0.443361 -0.0052948  0.00307441 -0.493949 -0.00855875  -0.0286989 -0.482594 -0.0055871  -0.00630677 -0.534641 -0.00878334  -0.0264827 -0.480099 -0.00659657  -0.0370078 -0.520429 -0.00695848  0.00515699 -0.491442 -0.0101771  -0.0392019 -0.522727 -0.00597048  -0.0165377 -0.576098 -0.00898504  -0.0505188 -0.563635 -0.00630808  -0.0276721 -0.618319 -0.00924969  -0.04837 -0.561485 -0.00727129  -0.0605402 -0.603336 -0.00766516  -0.0145204 -0.573921 -0.0105047  -0.0626473 -0.605306 -0.00672436  -0.0395851 -0.661185 -0.00949764  -0.075514 -0.647636 -0.00708914  -0.0523185 -0.704697 -0.00981283  -0.0734683 -0.645802 -0.00800943  -0.0871351 -0.688949 -0.0084362  -0.0376555 -0.659316 -0.0109143  -0.0891283 -0.690616 -0.0075407  -0.0657606 -0.748756 -0.0101085  -0.103413 -0.73416 -0.00794888  -0.0799426 -0.793353 -0.0104647  -0.101477 -0.732611 -0.0088191  -0.116483 -0.776849 -0.00926971  -0.0639336 -0.747164 -0.0114298  -0.118367 -0.778252 -0.00842333  -0.0947649 -0.838411 -0.0107942  -0.133919 -0.822826 -0.00885916  -0.110244 -0.883919 -0.0111818  -0.132103 -0.821532 -0.00968361  -0.14832 -0.866704 -0.0101628  -0.0930433 -0.837072 -0.0120144  -0.15008 -0.867862 -0.00936794  -0.126299 -0.929813 -0.0115552  -0.166777 -0.913303 -0.00983858  -0.142941 -0.976074 -0.0119853  -0.165076 -0.912238 -0.0106063  -0.182364 -0.958186 -0.0111122  -0.124687 -0.928699 -0.0126805  -0.18401 -0.959133 -0.0103717  -0.160091 -1.02265 -0.0123982  -0.201714 -1.0053 -0.0108705  -0.177758 -1.06954 -0.0128598  -0.200133 -1.00444 -0.0115891  -0.218377 -1.05104 -0.0121179  -0.158586 -1.02175 -0.0134268  -0.219903 -1.05179 -0.0114298  -0.195879 -1.11668 -0.0133033  -0.238508 -1.09856 -0.0119572  -0.214453 -1.16407 -0.0137992  -0.237037 -1.09788 -0.0126176  -0.256109 -1.14501 -0.0131736  -0.194481 -1.11596 -0.0142441  -0.257526 -1.1456 -0.0125408  -0.233414 -1.21166 -0.0142789  -0.2769 -1.19286 -0.0130963  -0.252768 -1.25945 -0.0148005  -0.275546 -1.19235 -0.0137086  -0.295343 -1.23991 -0.0142865  -0.232119 -1.21111 -0.0151277  -0.296646 -1.24033 -0.0137053  -0.272461 -1.30741 -0.0153079  -0.316698 -1.28799 -0.0142817  -0.292492 -1.35551 -0.0158525  -0.315445 -1.28763 -0.0148373  -0.335857 -1.33553 -0.0154281  -0.271266 -1.307 -0.0160747  -0.337059 -1.33582 -0.0149002  -0.312807 -1.40374 -0.0163875  -0.357677 -1.38379 -0.0154972  -0.333404 -1.45208 -0.0169597  -0.356528 -1.38356 -0.0160041  -0.377463 -1.43173 -0.0166163  -0.311706 -1.40347 -0.0170693  -0.378564 -1.43189 -0.01614  -0.354242 -1.5005 -0.0175128  -0.399661 -1.4801 -0.0167527  -0.375315 -1.549 -0.0181012  -0.398604 -1.47998 -0.0172057  -0.419962 -1.52834 -0.0178313  -0.353232 -1.50035 -0.0181203  -0.420973 -1.52839 -0.0174031  -0.39658 -1.59756 -0.0186777  -0.442453 -1.57677 -0.0180302  -0.418036 -1.64617 -0.0192828  -0.441489 -1.57676 -0.0184398  -0.463197 -1.62525 -0.0190749  -0.395653 -1.59752 -0.0192089  -0.464118 -1.6252 -0.0186968  -0.439647 -1.6948 -0.0198746  -0.485909 -1.67368 -0.0193386  -0.461408 -1.74345 -0.0204954  -0.485024 -1.67376 -0.0196948  -0.50699 -1.72233 -0.020339  -0.438797 -1.69485 -0.0203395  -0.507838 -1.72219 -0.020009  -0.483284 -1.79211 -0.0211067  -0.52986 -1.77073 -0.020659  -0.505274 -1.84077 -0.0217371  -0.529051 -1.77089 -0.0209727  -0.551223 -1.81948 -0.0216274  -0.482504 -1.79225 -0.0215011  -0.551995 -1.81927 -0.0213418  -0.527348 -1.88941 -0.0223594  -0.57419 -1.86782 -0.0220032  -0.549504 -1.93803 -0.023005  -0.573447 -1.86805 -0.0222692  -0.595744 -1.91662 -0.0229282  -0.526631 -1.88962 -0.0226955  -0.596457 -1.91635 -0.022686  -0.571712 -1.98662 -0.0236421  -0.61876 -1.96486 -0.0233526  -0.593971 -2.03517 -0.0242958  -0.618076 -1.96515 -0.0235825  -0.640462 -2.01368 -0.0242462  -0.571048 -1.98689 -0.0239186  -0.641117 -2.01335 -0.024045  -0.616263 -2.08368 -0.0249381  -0.663484 -2.06179 -0.0247149  -0.638582 -2.13213 -0.0256  -0.662849 -2.06214 -0.0249  -0.685261 -2.11057 -0.0255671  -0.615648 -2.084 -0.0251641  -0.685873 -2.1102 -0.025404  -0.660905 -2.18052 -0.0262523  -0.708253 -2.15856 -0.0260797  -0.683236 -2.22886 -0.0269198  -0.707663 -2.15894 -0.0262308  -0.730076 -2.20727 -0.0268993  -0.66033 -2.1809 -0.0264268  -0.730644 -2.20686 -0.0267735  -0.705555 -2.27712 -0.0275817  -0.753009 -2.25509 -0.0274539  -0.727871 -2.32531 -0.0282559  -0.752453 -2.25552 -0.027564  -0.774825 -2.30372 -0.0282345  -0.705013 -2.27753 -0.0277143  -0.775366 -2.30327 -0.0281439  -0.750156 -2.37343 -0.0289268  -0.797681 -2.35138 -0.0288267  -0.772422 -2.42148 -0.0296016  -0.797152 -2.35183 -0.0289083  -0.819469 -2.39989 -0.0295806  -0.749636 -2.37388 -0.0290136  -0.819984 -2.39941 -0.0295243  -0.794648 -2.46944 -0.0302734  -0.84223 -2.44737 -0.0302072  -0.816844 -2.51733 -0.0309534  -0.841719 -2.44784 -0.0302505  -0.863945 -2.49574 -0.0309196  -0.794147 -2.4699 -0.030324  -0.864449 -2.49526 -0.0308957  -0.838979 -2.56513 -0.0316262  -0.886588 -2.54305 -0.0315776  -0.86106 -2.61285 -0.0323029  -0.886083 -2.54353 -0.0315971  -0.908171 -2.59125 -0.032268  -0.83848 -2.56559 -0.0316377  -0.908682 -2.59077 -0.0322719  0.00342331 -0.00893945 -0.00668335  0.00292417 -0.00626081 -0.00513697  0.0109133 -0.019707 -0.0111761  0.00296457 -0.0055204 -0.00743008  0.00954385 -0.0140236 -0.0116787  0 0 0  0 0 0  0.00352164 -0.00805283 -0.00918007  0 0 0  0.00875014 -0.0154635 -0.00874567  0.0204879 -0.0348517 -0.0142918  0.0161884 -0.029196 -0.0111885  0.0312011 -0.0509756 -0.0161719  0.0174581 -0.0269862 -0.0145197  0.0259605 -0.0418925 -0.0157771  0.021921 -0.0324847 -0.0183454  0.0243468 -0.0445984 -0.0124435  0.0413622 -0.069872 -0.0169735  0.0324351 -0.06292 -0.0129638  0.0510087 -0.09053 -0.0174232  0.0341013 -0.0597225 -0.016232  0.0415328 -0.0797172 -0.0163465  0.0432202 -0.0665916 -0.0211248  0.0398241 -0.083224 -0.0131292  0.0595486 -0.113289 -0.0173535  0.046405 -0.105694 -0.0130072  0.0669525 -0.138139 -0.01724  0.0481024 -0.101948 -0.0161071  0.0535906 -0.126389 -0.0158949  0.0613615 -0.109547 -0.021369  0.0518584 -0.130257 -0.012846  0.0731779 -0.16481 -0.016922  0.0562409 -0.156644 -0.0125852  0.0780866 -0.19351 -0.0166416  0.0579945 -0.152731 -0.0155444  0.061196 -0.181123 -0.0152898  0.0749513 -0.16095 -0.0207677  0.059382 -0.185012 -0.0123854  0.0817903 -0.223858 -0.0162783  0.061364 -0.21501 -0.0121374  0.0841423 -0.256002 -0.0159769  0.0632097 -0.211191 -0.0149541  0.0640063 -0.24306 -0.0147281  0.0835856 -0.220097 -0.0199337  0.0620964 -0.246758 -0.0119762  0.0852938 -0.289612 -0.0156388  0.0616537 -0.279955 -0.0117884  0.0851185 -0.324764 -0.0153813  0.0635854 -0.276383 -0.0144572  0.0619543 -0.31126 -0.0142851  0.0871292 -0.286086 -0.0190902  0.059987 -0.314655 -0.0116882  0.0837654 -0.361187 -0.0151024  0.0571661 -0.350612 -0.0115628  0.0811347 -0.398922 -0.0149012  0.0591398 -0.347371 -0.0140767  0.0551734 -0.384799 -0.0139728  0.0856237 -0.357969 -0.0183392  0.0531818 -0.387856 -0.0115304  0.0773809 -0.437734 -0.0146952  0.0480981 -0.426181 -0.0114689  0.0724235 -0.477634 -0.0145702  0.0500736 -0.423283 -0.0138273  0.0438867 -0.462879 -0.0137882  0.0792403 -0.434851 -0.0177183  0.041913 -0.465575 -0.011508  0.0664062 -0.518455 -0.0144296  0.0347049 -0.505884 -0.0115056  0.0592779 -0.560194 -0.0143657  0.0366544 -0.503341 -0.0137081  0.0283992 -0.544742 -0.0137162  0.0682386 -0.515914 -0.0172353  0.0264678 -0.547107 -0.0115891  0.0511665 -0.602693 -0.0142856  0.0172896 -0.589097 -0.0116425  0.0420325 -0.645948 -0.0142832  0.0191813 -0.586872 -0.0136895  0.00902939 -0.629791 -0.0137544  0.0529534 -0.60046 -0.0168824  0.00716841 -0.631843 -0.0117841  0.0320026 -0.689829 -0.0142694  -0.00380635 -0.675229 -0.0118909  0.0210402 -0.734338 -0.0143371  -0.00198984 -0.673301 -0.0137868  -0.013869 -0.717483 -0.0139036  0.0337205 -0.687888 -0.0166616  -0.0156442 -0.719245 -0.0120845  0.00926185 -0.779365 -0.01439  -0.0282621 -0.763799 -0.0122557  -0.00335824 -0.824912 -0.0145082  -0.0265329 -0.762152 -0.0140009  -0.0399669 -0.807375 -0.0141711  0.0109 -0.777699 -0.0165839  -0.041653 -0.80888 -0.0124969  -0.0167099 -0.870885 -0.0146136  -0.0557423 -0.854406 -0.0127106  -0.0308213 -0.917274 -0.0148001  -0.0541141 -0.853009 -0.0143161  -0.068953 -0.899106 -0.014535  -0.0151596 -0.869466 -0.0166225  -0.070533 -0.900365 -0.013001  -0.0455896 -0.964007 -0.0149727  -0.0859491 -0.946687 -0.0132647  -0.0610342 -1.01109 -0.0151992  -0.084415 -0.945522 -0.0147319  -0.100506 -0.992324 -0.0149956  -0.044125 -0.962819 -0.0167928  -0.10199 -0.993366 -0.0135961  -0.077058 -1.05844 -0.015419  -0.118577 -1.04034 -0.0139127  -0.0936828 -1.10605 -0.0157104  -0.117147 -1.03938 -0.0152445  -0.134341 -1.08675 -0.0155587  -0.0756923 -1.05745 -0.0170689  -0.135722 -1.0876 -0.0142927  -0.11082 -1.15389 -0.0159817  -0.153353 -1.1351 -0.0146437  -0.128488 -1.20194 -0.0163026  -0.152019 -1.13433 -0.0158482  -0.170189 -1.18216 -0.0161953  -0.109545 -1.15309 -0.0174618  -0.171475 -1.18283 -0.0150533  -0.146598 -1.25016 -0.0166135  -0.190009 -1.23074 -0.01545  -0.165172 -1.29853 -0.0169902  -0.188777 -1.23014 -0.016531  -0.20779 -1.27832 -0.0169215  -0.145419 -1.24952 -0.0179405  -0.208974 -1.27883 -0.015902  -0.184129 -1.34702 -0.0173478  -0.228301 -1.32706 -0.0163293  -0.203486 -1.39564 -0.0177488  -0.227158 -1.32661 -0.0172939  -0.246902 -1.37506 -0.0177121  -0.183034 -1.34654 -0.0185218  -0.247998 -1.37543 -0.0168042  -0.223171 -1.44433 -0.0181417  -0.267996 -1.4239 -0.0172682  -0.243196 -1.4931 -0.018589  -0.266948 -1.42358 -0.0181217  -0.287308 -1.47222 -0.0185785  -0.222165 -1.44399 -0.0191784  -0.28831 -1.47246 -0.0177798  -0.263495 -1.54192 -0.0190187  -0.308878 -1.52109 -0.0182667  -0.284081 -1.5908 -0.019484  -0.307913 -1.52089 -0.0190177  -0.328788 -1.56966 -0.0194945  -0.262568 -1.5417 -0.0199213  -0.329712 -1.56978 -0.0187945  -0.304892 -1.63969 -0.0199413  -0.350747 -1.61851 -0.0193129  -0.32594 -1.68859 -0.0204458  -0.349863 -1.61843 -0.0199637  -0.371159 -1.66726 -0.0204716  -0.304043 -1.63958 -0.0207248  -0.372002 -1.66728 -0.0198684  -0.347169 -1.7375 -0.0209389  -0.393422 -1.71605 -0.0204058  -0.368591 -1.78641 -0.0214615  -0.392607 -1.71607 -0.0209665  -0.414239 -1.76491 -0.0214934  -0.346384 -1.73749 -0.0216041  -0.415018 -1.76484 -0.020978  -0.39015 -1.83528 -0.0219746  -0.43673 -1.81362 -0.0215435  -0.411861 -1.88413 -0.0225291  -0.435985 -1.81371 -0.022018  -0.457873 -1.86253 -0.0225663  -0.38943 -1.83537 -0.0225382  -0.458584 -1.86238 -0.0221357  -0.433678 -1.93294 -0.0230703  -0.480529 -1.9111 -0.0227122  -0.455608 -1.98171 -0.0236354  -0.479838 -1.91128 -0.0231085  -0.501914 -1.96003 -0.0236769  -0.433009 -1.93311 -0.0235324  -0.502576 -1.95981 -0.0233207  -0.477608 -2.03042 -0.0241952  -0.524675 -2.00846 -0.0239224  -0.499691 -2.07907 -0.0247931  -0.52404 -2.0087 -0.0242438  -0.546242 -2.05736 -0.0248308  -0.476991 -2.03066 -0.0245724  -0.546849 -2.05707 -0.0245466  -0.521817 -2.12766 -0.0253773  -0.569057 -2.10562 -0.0251575  -0.543999 -2.17619 -0.0259809  -0.568462 -2.10592 -0.0254149  -0.590738 -2.15445 -0.0260129  -0.521239 -2.12796 -0.025672  -0.591311 -2.15411 -0.0257888  -0.566196 -2.22464 -0.0265794  -0.613565 -2.20254 -0.0264187  -0.588422 -2.27301 -0.0272102  -0.613011 -2.20289 -0.0266147  -0.635311 -2.25128 -0.0272326  -0.565655 -2.22499 -0.0268068  -0.635845 -2.2509 -0.0270681  -0.610642 -2.3213 -0.0278368  -0.658113 -2.29918 -0.0277076  -0.632878 -2.36951 -0.0284758  -0.657586 -2.29957 -0.0278525  -0.679878 -2.34781 -0.0284777  -0.610124 -2.32169 -0.027998  -0.680391 -2.34739 -0.0283628  -0.655089 -2.41764 -0.029108  -0.702636 -2.39551 -0.0290189  -0.677299 -2.46568 -0.029768  -0.702132 -2.39593 -0.0291128  -0.724388 -2.44401 -0.0297508  -0.654593 -2.41806 -0.0292187  -0.724876 -2.44356 -0.0296841  -0.699475 -2.51364 -0.0304203  -0.747076 -2.49152 -0.0303435  -0.721637 -2.56153 -0.031074  -0.746586 -2.49197 -0.0303917  -0.768777 -2.53987 -0.0310283  -0.698991 -2.51409 -0.0304766  -0.76926 -2.53941 -0.0310063  -0.743756 -2.60934 -0.0317206  -0.79138 -2.58722 -0.0316691  -0.765841 -2.65708 -0.0323849  -0.790897 -2.58766 -0.0316725  -0.812969 -2.63541 -0.0323172  -0.743281 -2.60979 -0.031733  -0.813451 -2.63496 -0.0323358  0.00541727 -0.0172299 -0.00915956  0.00488748 -0.0122853 -0.00778961  0.0182132 -0.0324394 -0.0154357  0.00492228 -0.0114589 -0.0110765  0.0154698 -0.0237778 -0.0177374  0 0 0  0 0 0  0.00561786 -0.0160675 -0.0124383  0 0 0  0.0142049 -0.025426 -0.0134091  0.0324081 -0.0497758 -0.019989  0.0260986 -0.0415878 -0.0173616  0.0476942 -0.0674657 -0.0230036  0.0278125 -0.0390916 -0.0223498  0.0407753 -0.0558054 -0.0248227  0.0341622 -0.0469166 -0.0255246  0.038599 -0.0587069 -0.0197306  0.0621366 -0.0866097 -0.0245447  0.051235 -0.0777214 -0.0209236  0.0755636 -0.107831 -0.025506  0.0532632 -0.0743828 -0.0259843  0.0647116 -0.0952042 -0.0265789  0.0642743 -0.0830958 -0.0304317  0.0626884 -0.0987793 -0.0215745  0.0879182 -0.130844 -0.0256677  0.0733066 -0.121673 -0.0216155  0.0988709 -0.156152 -0.0256429  0.0751827 -0.117921 -0.0265059  0.084341 -0.142955 -0.0263257  0.0898757 -0.127067 -0.0314565  0.0825241 -0.14678 -0.0215149  0.108618 -0.183359 -0.0252542  0.0905541 -0.173727 -0.0211563  0.116915 -0.212656 -0.024838  0.0923073 -0.169878 -0.0258431  0.0989528 -0.198912 -0.025383  0.1104 -0.179542 -0.0308189  0.0972115 -0.202725 -0.0207953  0.123904 -0.243735 -0.0242562  0.102561 -0.233445 -0.0203214  0.129435 -0.276638 -0.0237126  0.104291 -0.229703 -0.0247736  0.108292 -0.262338 -0.0242224  0.125618 -0.240056 -0.029542  0.106549 -0.265959 -0.0198884  0.133633 -0.311105 -0.0231028  0.109215 -0.299999 -0.0194111  0.136394 -0.347137 -0.0225573  0.11096 -0.296494 -0.0236058  0.112304 -0.332237 -0.0230784  0.135332 -0.307664 -0.0280738  0.110545 -0.335586 -0.0190067  0.137838 -0.384496 -0.0219917  0.110589 -0.372483 -0.0185795  0.137895 -0.423172 -0.0215092  0.112346 -0.369271 -0.0225072  0.111097 -0.407648 -0.0220275  0.139541 -0.381342 -0.0266395  0.109327 -0.410686 -0.0182338  0.136684 -0.462961 -0.0209956  0.106839 -0.449986 -0.017869  0.134153 -0.503845 -0.0205708  0.108599 -0.447104 -0.0215225  0.10488 -0.487685 -0.0211158  0.138378 -0.460125 -0.0253081  0.103125 -0.490379 -0.0175943  0.130437 -0.545655 -0.0201497  0.0982565 -0.531702 -0.0173063  0.125486 -0.588379 -0.019803  0.0999897 -0.529149 -0.020689  0.0939578 -0.571553 -0.0203533  0.132108 -0.543135 -0.0241299  0.0922372 -0.573933 -0.0170979  0.11944 -0.631847 -0.0194659  0.0851549 -0.616925 -0.0168896  0.112249 -0.676065 -0.0192013  0.0868531 -0.614675 -0.0200095  0.0786791 -0.658584 -0.0197539  0.121073 -0.629622 -0.0231285  0.0770121 -0.660668 -0.0167594  0.104057 -0.720886 -0.018949  0.0679035 -0.705032 -0.0166211  0.0948213 -0.766326 -0.0187693  0.0695319 -0.703066 -0.0194831  0.0594127 -0.748203 -0.0193  0.105636 -0.718951 -0.0223064  0.0578176 -0.750012 -0.016562  0.0846812 -0.812248 -0.0185905  0.0468531 -0.795496 -0.0164981  0.073579 -0.858669 -0.0184779  0.0484135 -0.793798 -0.019114  0.0365344 -0.839933 -0.0190001  0.0861881 -0.81057 -0.0216546  0.0350087 -0.841489 -0.0165052  0.0616707 -0.905465 -0.0183802  0.022379 -0.887882 -0.0165024  0.0489041 -0.952671 -0.0183477  0.0238614 -0.886432 -0.0188847  0.0103866 -0.933375 -0.0188489  0.0631056 -0.90403 -0.0211563  0.00894928 -0.934685 -0.0165796  0.0354097 -1.00017 -0.0183196  -0.00518024 -0.981813 -0.016654  0.0211446 -1.04798 -0.0183568  -0.00378084 -0.980587 -0.0188107  -0.0186739 -1.02816 -0.0188351  0.0367681 -0.99895 -0.0208297  -0.0200336 -1.02927 -0.0167918  0.00623369 -1.09602 -0.0183983  -0.0354961 -1.07697 -0.0169144  -0.00936031 -1.14431 -0.0184979  -0.0341878 -1.07595 -0.0188575  -0.0503372 -1.12403 -0.0189481  0.00750923 -1.09501 -0.0206499  -0.0515999 -1.12493 -0.017108  -0.0255201 -1.19276 -0.0186005  -0.068247 -1.17309 -0.0172958  -0.0422916 -1.2414 -0.018755  -0.0670271 -1.17225 -0.0190344  -0.084285 -1.22071 -0.0191789  -0.0243323 -1.19193 -0.0206141  -0.0854659 -1.22144 -0.0175419  -0.0595572 -1.29015 -0.0189219  -0.10315 -1.26993 -0.0177708  -0.0773516 -1.33905 -0.0191345  -0.102017 -1.26927 -0.0193181  -0.120245 -1.318 -0.0195165  -0.0584493 -1.28949 -0.0207057  -0.121333 -1.31857 -0.0180621  -0.0955725 -1.38801 -0.0193496  -0.139919 -1.36731 -0.0183516  -0.114261 -1.43706 -0.0196147  -0.138871 -1.3668 -0.0197172  -0.157932 -1.41572 -0.0199642  -0.0945482 -1.3875 -0.0209241  -0.158944 -1.41616 -0.0186906  -0.133314 -1.48615 -0.0198822  -0.178308 -1.46505 -0.0190134  -0.152764 -1.5353 -0.0201879  -0.177339 -1.46468 -0.0202117  -0.197119 -1.51373 -0.0205059  -0.132364 -1.48578 -0.0212555  -0.198045 -1.51402 -0.0193882  -0.172521 -1.58445 -0.0204945  -0.21807 -1.56302 -0.0197597  -0.192624 -1.63363 -0.0208464  -0.217181 -1.56277 -0.0208011  -0.237562 -1.61188 -0.0211315  -0.171649 -1.58421 -0.021688  -0.238418 -1.61206 -0.0201731  -0.212982 -1.68279 -0.0212026  -0.258997 -1.66109 -0.0205712  -0.233622 -1.73195 -0.0215898  -0.258178 -1.66095 -0.0214639  -0.279058 -1.71006 -0.0218391  -0.212177 -1.68266 -0.0222192  -0.279842 -1.71013 -0.0210171  -0.254468 -1.78106 -0.0219803  -0.300876 -1.75915 -0.0214596  -0.275556 -1.83016 -0.0224056  -0.300121 -1.75912 -0.0222163  -0.321408 -1.80818 -0.0226269  -0.253728 -1.78103 -0.022841  -0.322134 -1.80816 -0.0219402  -0.296803 -1.87919 -0.0228391  -0.343531 -1.85712 -0.0224066  -0.318239 -1.92818 -0.0232997  -0.342836 -1.85718 -0.0230374  -0.364442 -1.90616 -0.0234809  -0.296119 -1.87925 -0.0235524  -0.365106 -1.90605 -0.0229115  -0.339798 -1.9771 -0.0237603  -0.38679 -1.95492 -0.0234165  -0.361513 -2.02596 -0.0242534  -0.386148 -1.95506 -0.0239344  -0.407995 -2.00393 -0.0244074  -0.339167 -1.97725 -0.024344  -0.408617 -2.00375 -0.0239506  -0.383316 -2.07474 -0.0247512  -0.430511 -2.05249 -0.0244727  -0.405228 -2.12345 -0.0252709  -0.429913 -2.05271 -0.0248842  -0.451935 -2.10145 -0.0253906  -0.382726 -2.07496 -0.0252104  -0.452508 -2.10118 -0.0250282  -0.427197 -2.17207 -0.025794  -0.47455 -2.1498 -0.0255871  -0.449251 -2.22062 -0.0263462  -0.473993 -2.15007 -0.0259061  -0.496129 -2.19866 -0.0264382  -0.426647 -2.17236 -0.0261507  -0.496672 -2.19835 -0.0261693  -0.471336 -2.26907 -0.0269084  -0.518806 -2.2468 -0.026742  -0.493467 -2.31745 -0.0274897  -0.51828 -2.24713 -0.0269794  -0.540476 -2.29554 -0.0275459  -0.470814 -2.26941 -0.0271678  -0.540984 -2.29517 -0.0273466  -0.515606 -2.36572 -0.0280724  -0.563159 -2.34347 -0.027956  -0.537776 -2.41391 -0.0286794  -0.562657 -2.34384 -0.0281224  -0.584871 -2.39207 -0.0287099  -0.515108 -2.36611 -0.0282559  -0.585365 -2.39168 -0.0285845  -0.559932 -2.46201 -0.0292993  -0.60754 -2.43979 -0.0292044  -0.582091 -2.51003 -0.0299306  -0.607056 -2.4402 -0.0293102  -0.629251 -2.48826 -0.029923  -0.559449 -2.46243 -0.0294137  -0.629723 -2.48783 -0.0298448  -0.604228 -2.55797 -0.0305586  -0.651878 -2.53578 -0.030488  -0.626369 -2.60583 -0.0312014  -0.651407 -2.53621 -0.0305409  -0.673563 -2.5841 -0.0311575  -0.603758 -2.5584 -0.0306211  -0.674031 -2.58366 -0.0311399  -0.648484 -2.65362 -0.0318422  -0.696146 -2.63146 -0.031775  -0.670591 -2.70137 -0.0324821  -0.695678 -2.63189 -0.0317788  -0.717767 -2.67965 -0.0323958  -0.648016 -2.65407 -0.0318546  -0.718232 -2.67921 -0.032424  0.00878923 -0.0324639 -0.0116019  0.0081009 -0.0232542 -0.0101166  0.0316986 -0.0550752 -0.0191383  0.00818158 -0.0222042 -0.013989  0.0243266 -0.0403676 -0.0224152  0 0 0  0 0 0  0.00864384 -0.031067 -0.0154614  0 0 0  0.0226666 -0.0426301 -0.0171423  0.0518033 -0.0695522 -0.0255046  0.0405115 -0.0591287 -0.0227556  0.0689186 -0.087896 -0.0295072  0.0423712 -0.055955 -0.0290384  0.0596166 -0.0739222 -0.0328555  0.0530227 -0.0664666 -0.0326719  0.0571955 -0.0773785 -0.0262685  0.0871144 -0.10635 -0.0317822  0.073972 -0.0961943 -0.0282307  0.103567 -0.127542 -0.0332131  0.0761265 -0.09247 -0.0349708  0.0912457 -0.11367 -0.0361242  0.0893457 -0.102562 -0.0395632  0.0890815 -0.117467 -0.0294056  0.119357 -0.150963 -0.033493  0.103218 -0.140643 -0.0296698  0.133732 -0.176602 -0.0335751  0.105189 -0.13676 -0.0363235  0.117819 -0.162251 -0.0362172  0.121441 -0.147055 -0.0411434  0.115936 -0.166107 -0.0296702  0.146808 -0.20455 -0.0330534  0.127326 -0.193662 -0.029242  0.158409 -0.234478 -0.0325303  0.129108 -0.189814 -0.0356488  0.139044 -0.219513 -0.0350022  0.148674 -0.200737 -0.0403833  0.137309 -0.22325 -0.0287504  0.168573 -0.266415 -0.0317197  0.145857 -0.254737 -0.0280681  0.177178 -0.300134 -0.0309811  0.147554 -0.251082 -0.0341544  0.154649 -0.28452 -0.0333161  0.170327 -0.262823 -0.03865  0.152962 -0.288032 -0.0274081  0.184334 -0.335532 -0.0301132  0.158616 -0.322958 -0.026669  0.189899 -0.372479 -0.0293269  0.160287 -0.319554 -0.0323911  0.164496 -0.356194 -0.0315289  0.186044 -0.332214 -0.0366201  0.162821 -0.359431 -0.0259957  0.194068 -0.410811 -0.0284739  0.165609 -0.397267 -0.0252905  0.196659 -0.450451 -0.0277305  0.167275 -0.394163 -0.0306277  0.168651 -0.433496 -0.0298023  0.195768 -0.407789 -0.0345244  0.166974 -0.436419 -0.0246634  0.197927 -0.491202 -0.0269585  0.166988 -0.476692 -0.024024  0.197681 -0.533071 -0.0262804  0.168653 -0.473904 -0.0289683  0.167304 -0.515456 -0.0282178  0.199622 -0.488502 -0.032546  0.165646 -0.518066 -0.023468  0.196213 -0.575833 -0.0256019  0.163034 -0.560353 -0.0229115  0.193303 -0.619518 -0.0250249  0.164668 -0.557876 -0.0274739  0.160769 -0.601248 -0.0268097  0.197877 -0.573435 -0.0307527  0.159141 -0.603558 -0.02244  0.18927 -0.663907 -0.0244246  0.154083 -0.647493 -0.0219727  0.183895 -0.709052 -0.0239329  0.155685 -0.6453 -0.0261607  0.149429 -0.690149 -0.0255961  0.190897 -0.661789 -0.0291476  0.147847 -0.692177 -0.0215931  0.177513 -0.754747 -0.0234418  0.140542 -0.737441 -0.0212169  0.169883 -0.801063 -0.0230474  0.142089 -0.735533 -0.0250454  0.13367 -0.781569 -0.0245752  0.179081 -0.75291 -0.0277505  0.132145 -0.783326 -0.0209246  0.161346 -0.847796 -0.0226445  0.122788 -0.829663 -0.0206351  0.151662 -0.895035 -0.0223341  0.124277 -0.828007 -0.0241175  0.113893 -0.874983 -0.0237346  0.162856 -0.846208 -0.0265613  0.11244 -0.876502 -0.0204215  0.141185 -0.94258 -0.0220251  0.101226 -0.923685 -0.0202141  0.129655 -0.990532 -0.0218019  0.102635 -0.922261 -0.0233636  0.0904866 -0.969981 -0.0230689  0.142623 -0.941232 -0.0255642  0.0891098 -0.971272 -0.0200839  0.117427 -1.0387 -0.0215693  0.0762318 -1.01912 -0.0199599  0.104253 -1.08718 -0.0214276  0.0775703 -1.01791 -0.0227962  0.0638433 -1.06619 -0.0225883  0.11879 -1.03757 -0.0247569  0.0625489 -1.06727 -0.0199027  0.0904584 -1.13582 -0.0212831  0.0481763 -1.11562 -0.0198541  0.0758119 -1.18471 -0.0212183  0.0494367 -1.11461 -0.0223951  0.0342972 -1.16333 -0.0222635  0.0917435 -1.13488 -0.0241318  0.033083 -1.16422 -0.0198689  0.0606318 -1.23367 -0.0211501  0.0174003 -1.21294 -0.0198874  0.0446928 -1.28284 -0.0211563  0.0185714 -1.21212 -0.0221505  0.00220275 -1.26113 -0.0220928  0.0618293 -1.23292 -0.0236797  0.00107288 -1.26185 -0.0199609  0.0282855 -1.33205 -0.0211625  -0.0157838 -1.31084 -0.0200505  0.0111973 -1.38139 -0.0212407  -0.0146892 -1.31018 -0.0220556  -0.0321519 -1.35941 -0.0220685  0.0294027 -1.33145 -0.0234003  -0.0332022 -1.35997 -0.0201936  -0.00627327 -1.43072 -0.0213094  -0.0510578 -1.40912 -0.0203404  -0.0243454 -1.48016 -0.0214405  -0.0500448 -1.40862 -0.0221  -0.0684433 -1.45796 -0.0221744  -0.00523782 -1.43028 -0.0232711  -0.0694144 -1.45838 -0.0205297  -0.0427494 -1.52956 -0.0215731  -0.0881624 -1.50763 -0.0207329  -0.0616896 -1.57902 -0.0217633  -0.0872231 -1.50726 -0.0222645  -0.10644 -1.55666 -0.0223994  -0.0417902 -1.52924 -0.0232773  -0.107337 -1.55695 -0.0209794  -0.0808895 -1.62841 -0.0219479  -0.126824 -1.60623 -0.0212288  -0.100554 -1.67783 -0.0221915  -0.125962 -1.60599 -0.0225477  -0.145865 -1.65537 -0.0227394  -0.0800076 -1.62822 -0.0234127  -0.146687 -1.65554 -0.0215187  -0.120437 -1.72717 -0.022429  -0.166825 -1.7048 -0.0218205  -0.14073 -1.77651 -0.0227242  -0.166029 -1.70467 -0.0229464  -0.186515 -1.754 -0.0231857  -0.119623 -1.72709 -0.0236754  -0.187273 -1.75407 -0.022161  -0.161177 -1.82574 -0.0230126  -0.207929 -1.80325 -0.0225039  -0.181973 -1.87497 -0.023344  -0.207198 -1.80322 -0.0234456  -0.228154 -1.85244 -0.023735  -0.16043 -1.82577 -0.0240531  -0.228851 -1.85241 -0.0228753  -0.202895 -1.92408 -0.0236773  -0.249953 -1.90149 -0.023262  -0.224116 -1.97315 -0.0240641  -0.249275 -1.90156 -0.0240402  -0.27062 -1.95066 -0.0243778  -0.202207 -1.92418 -0.0245361  -0.271263 -1.95054 -0.0236831  -0.245409 -2.02209 -0.0244427  -0.292695 -1.99948 -0.024106  -0.266949 -2.07098 -0.0248647  -0.292073 -1.99962 -0.0247335  -0.313709 -2.04856 -0.0251136  -0.244772 -2.02228 -0.0251293  -0.314305 -2.04836 -0.0245562  -0.288542 -2.11975 -0.0252843  -0.336019 -2.09714 -0.0250192  -0.310346 -2.16846 -0.0257463  -0.335435 -2.09736 -0.0255146  -0.357304 -2.14614 -0.0259371  -0.28795 -2.12001 -0.0258231  -0.35786 -2.14587 -0.0255089  -0.332156 -2.21704 -0.0262089  -0.379755 -2.19448 -0.0260067  -0.354134 -2.26555 -0.02671  -0.379215 -2.19476 -0.0263791  -0.401232 -2.24334 -0.0268483  -0.331606 -2.21736 -0.0266137  -0.401753 -2.24302 -0.0265298  -0.376106 -2.31394 -0.0272155  -0.423791 -2.29144 -0.0270653  -0.398205 -2.36225 -0.0277596  -0.423278 -2.29178 -0.0273352  -0.445398 -2.34017 -0.0278425  -0.375585 -2.31431 -0.0275044  -0.445892 -2.3398 -0.0276256  -0.420267 -2.41044 -0.0283046  -0.467994 -2.38804 -0.028194  -0.442424 -2.45856 -0.0288835  -0.467506 -2.38842 -0.0283747  -0.489666 -2.43661 -0.0289235  -0.419774 -2.41085 -0.0284953  -0.490141 -2.4362 -0.02878  -0.46454 -2.50658 -0.0294738  -0.512285 -2.48426 -0.0293889  -0.486716 -2.55453 -0.0300918  -0.511809 -2.48468 -0.0294976  -0.533976 -2.53269 -0.0300841  -0.46406 -2.50701 -0.0295873  -0.53444 -2.53226 -0.0300097  -0.508835 -2.60238 -0.0307064  -0.556564 -2.58016 -0.0306377  -0.530982 -2.65019 -0.031342  -0.556103 -2.58059 -0.0306883  -0.57824 -2.62844 -0.0312986  -0.50837 -2.60284 -0.0307603  -0.578693 -2.628 -0.0312715  -0.553102 -2.69796 -0.0319762  -0.600816 -2.67578 -0.0319104  -0.575235 -2.74568 -0.0326262  -0.600354 -2.67621 -0.0319161  -0.622476 -2.72396 -0.0325212  -0.552634 -2.69841 -0.0319867  -0.622928 -2.72352 -0.032546  -0.00645645 -0.000923239 0.0158577  -0.00716456 -0.00559465 0.0190306  -0.0174317 -0.0070928 0.0296082  -0.00944097 -0.000906188 0.0294614  -0.0306825 -0.00796283 0.0419402  -0.0238109 -0.0170979 0.028657  0 0 0  -0.0183013 -0.0153133 0.0235848  0 0 0  0 0 0  -0.00721114 0.00314185 0.0245419  0 0 0  -0.034919 -0.0234095 0.0412493  -0.0228461 -0.0147855 0.0353608  -0.0289021 -0.0142971 0.036407  -0.037335 -0.0204497 0.0431352  -0.0402006 -0.023473 0.0421233  -0.0429166 -0.0116392 0.0489044  -0.0552616 -0.0192797 0.0564532  -0.0550217 -0.0172082 0.0575142  -0.0503836 -0.0274507 0.0504346  -0.0349637 -0.00696346 0.0407457  -0.0661397 -0.0351335 0.0590434  -0.0514678 -0.0291506 0.0500112  -0.0518423 -0.0360559 0.0439906  -0.0654308 -0.0398467 0.0522971  -0.063141 -0.050486 0.0453033  -0.0666271 -0.0298754 0.0578675  -0.0780143 -0.0435441 0.0602136  -0.0823441 -0.0332899 0.0688357  -0.0826098 -0.0449545 0.0612388  -0.0537338 -0.0270025 0.048243  -0.0989506 -0.0572133 0.0635543  -0.0794736 -0.0534837 0.0538774  -0.0750551 -0.068254 0.0449944  -0.0939585 -0.07005 0.0534735  -0.0873744 -0.0879633 0.044137  -0.0911389 -0.0608726 0.0590353  -0.104226 -0.0802327 0.0583  -0.112317 -0.0626713 0.0699167  -0.11623 -0.0729622 0.0626092  -0.0728731 -0.0596062 0.0494084  -0.133271 -0.09014 0.0615439  -0.108749 -0.0887185 0.0524411  -0.100363 -0.110135 0.0427165  -0.124163 -0.110006 0.0506921  -0.11403 -0.134009 0.0408621  -0.119111 -0.102414 0.0560784  -0.13406 -0.126021 0.0538192  -0.145432 -0.102298 0.0659142  -0.151092 -0.110523 0.0591946  -0.0958516 -0.102782 0.0471191  -0.16874 -0.131887 0.056591  -0.139882 -0.132764 0.0484776  -0.128263 -0.159688 0.0389218  -0.156187 -0.15763 0.046123  -0.143143 -0.186774 0.0366583  -0.150244 -0.151624 0.0512271  -0.166613 -0.178363 0.0483437  -0.180741 -0.149455 0.059865  -0.186944 -0.15578 0.0537362  -0.122779 -0.153735 0.0431385  -0.205092 -0.180551 0.0505991  -0.172739 -0.183628 0.0434742  -0.1585 -0.215294 0.034554  -0.189801 -0.211331 0.0409703  -0.17439 -0.245 0.0322447  -0.183753 -0.20665 0.0457225  -0.201125 -0.235905 0.0427294  -0.217487 -0.202448 0.0532165  -0.223613 -0.20729 0.0476604  -0.152818 -0.210556 0.0385132  -0.242194 -0.234884 0.0444989  -0.207065 -0.240012 0.0382838  -0.190697 -0.275917 0.0301857  -0.224763 -0.270105 0.0358524  -0.207434 -0.307856 0.0279574  -0.218983 -0.266423 0.040215  -0.237095 -0.297823 0.0373435  -0.255271 -0.260294 0.046762  -0.261042 -0.264034 0.0417147  -0.185217 -0.272126 0.0338273  -0.28002 -0.294044 0.0387626  -0.242642 -0.301093 0.0332975  -0.224562 -0.340874 0.0259824  -0.260917 -0.333294 0.0310106  -0.242052 -0.374818 0.0239143  -0.255552 -0.330349 0.034977  -0.274262 -0.363709 0.0323281  -0.293888 -0.322387 0.0407329  -0.299227 -0.325355 0.0361872  -0.219426 -0.337817 0.0292964  -0.318614 -0.357504 0.0334911  -0.279378 -0.366345 0.028657  -0.259907 -0.409731 0.0220637  -0.298201 -0.400459 0.0265379  -0.278093 -0.445485 0.0201392  -0.293271 -0.398079 0.0301104  -0.312524 -0.433236 0.0276618  -0.333318 -0.388398 0.0352201  -0.338224 -0.39077 0.0311146  -0.255166 -0.407235 0.0250421  -0.35802 -0.424853 0.0286531  -0.317214 -0.435381 0.0243554  -0.296633 -0.482125 0.0184007  -0.336575 -0.471263 0.0223861  -0.315478 -0.519534 0.0166011  -0.332071 -0.469339 0.0255833  -0.35184 -0.506171 0.0233288  -0.373557 -0.458044 0.0301166  -0.378048 -0.459956 0.0264535  -0.292282 -0.480098 0.0210624  -0.398269 -0.495809 0.0241923  -0.356128 -0.507896 0.0203691  -0.334652 -0.55774 0.0149627  -0.376006 -0.545388 0.0185194  -0.354115 -0.596643 0.0132704  -0.371887 -0.543841 0.0213618  -0.392146 -0.582196 0.019248  -0.414608 -0.53105 0.0254087  -0.418719 -0.532569 0.0221338  -0.330663 -0.556093 0.0173206  -0.43935 -0.570042 0.0200276  -0.396072 -0.583576 0.0166202  -0.373888 -0.636273 0.0117068  -0.416446 -0.622548 0.0148735  -0.39393 -0.676537 0.0101004  -0.412683 -0.621329 0.017386  -0.433419 -0.661083 0.0154085  -0.456458 -0.607152 0.0209823  -0.460214 -0.608352 0.0180902  -0.370236 -0.634968 0.0137897  -0.481257 -0.647301 0.0161147  -0.437005 -0.662157 0.0130858  -0.414256 -0.71745 0.00860214  -0.457846 -0.702461 0.0114207  -0.434831 -0.75893 0.00706148  -0.454409 -0.701519 0.0136309  -0.475582 -0.742529 0.0117493  -0.499082 -0.686078 0.0168281  -0.502515 -0.686996 0.0142741  -0.410911 -0.716426 0.0104232  -0.523933 -0.727286 0.012404  -0.478858 -0.743345 0.0097146  -0.455667 -0.800993 0.00561762  -0.500132 -0.784861 0.00811815  -0.476725 -0.843566 0.00414228  -0.496997 -0.784166 0.0100465  -0.518575 -0.826318 0.00826359  -0.542424 -0.767583 0.012867  -0.545553 -0.76826 0.0106454  -0.452613 -0.800226 0.00720453  -0.567327 -0.809761 0.00886726  -0.521561 -0.826896 0.00649214  -0.498014 -0.886655 0.00275135  -0.543221 -0.86949 0.00495815  -0.5195 -0.930192 0.00132561  -0.540364 -0.869009 0.00662756  -0.562298 -0.912167 0.00491142  -0.586429 -0.851405 0.00911951  -0.589275 -0.851863 0.00718164  -0.495227 -0.886103 0.00411749  -0.611353 -0.894447 0.00547409  -0.565013 -0.91255 0.00338697  -0.541189 -0.974188 -3.09944e-05  -0.587012 -0.956108 0.00190496  -0.563046 -1.01858 -0.00140953  -0.584422 -0.955818 0.00334215  -0.606666 -0.999878 0.00170469  -0.631006 -0.937306 0.00550699  -0.633587 -0.937582 0.00385427  -0.538657 -0.973837 0.00114107  -0.655939 -0.98113 0.00221777  -0.609125 -1.00008 0.000398636  -0.585072 -1.06337 -0.00271845  -0.631411 -1.04448 -0.00103045  -0.60724 -1.1085 -0.00405359  -0.629061 -1.04435 0.000189304  -0.651564 -1.08919 -0.00138474  -0.676081 -1.02505 0.00207996  -0.678415 -1.02515 0.000662804  -0.582775 -1.06318 -0.0017314  -0.700987 -1.06955 -0.000905037  -0.653788 -1.08924 -0.00248575  -0.629554 -1.15398 -0.00532675  -0.676313 -1.13438 -0.00386477  -0.65198 -1.19976 -0.00661325  -0.674198 -1.1344 -0.00283766  -0.696912 -1.17993 -0.00434017  -0.72156 -1.11441 -0.00122166  -0.723662 -1.11438 -0.00240231  -0.627479 -1.15395 -0.00449896  -0.746417 -1.15952 -0.00390291  -0.69891 -1.17984 -0.00525808  -0.674519 -1.24583 -0.00784588  -0.721621 -1.22563 -0.00658894  -0.697145 -1.29216 -0.00909042  -0.719716 -1.22576 -0.00573826  -0.742579 -1.27187 -0.00718689  -0.767351 -1.20519 -0.00435352  -0.769238 -1.20502 -0.00534058  -0.672648 -1.24592 -0.00716782  -0.792118 -1.25081 -0.0067811  -0.744379 -1.27168 -0.00793886  -0.719855 -1.33874 -0.0102854  -0.767225 -1.31801 -0.00921965  -0.742628 -1.38553 -0.011487  -0.765517 -1.31826 -0.00852919  -0.788495 -1.36488 -0.00990438  -0.813354 -1.29718 -0.00736809  -0.815046 -1.29692 -0.00816011  -0.718175 -1.33894 -0.00973749  -0.838017 -1.34327 -0.00953388  -0.790102 -1.36458 -0.0105071  -0.765455 -1.43252 -0.0126352  -0.813034 -1.41137 -0.0117416  -0.788322 -1.47969 -0.013793  -0.811502 -1.4117 -0.0111914  -0.834539 -1.45872 -0.0125146  -0.859494 -1.39022 -0.0102186  -0.861003 -1.38987 -0.0108576  -0.763949 -1.43281 -0.0122066  -0.884013 -1.43667 -0.0121756  -0.835976 -1.45835 -0.0129857  -0.811224 -1.52702 -0.0149083  -0.858955 -1.50552 -0.0141706  -0.834141 -1.5745 -0.0160227  -0.857596 -1.50592 -0.0137453  -0.880656 -1.55329 -0.0149994  -0.905679 -1.48412 -0.0129638  -0.907019 -1.4837 -0.0134459  -0.809885 -1.52739 -0.0145798  -0.930042 -1.53089 -0.0146995  -0.881927 -1.55285 -0.0153561  -0.857069 -1.6221 -0.0170827  -0.904909 -1.60032 -0.0164847  -0.879997 -1.66981 -0.0181475  -0.9037 -1.60078 -0.0161672  -0.926738 -1.6484 -0.0173626  -0.951846 -1.57872 -0.0155368  -0.953032 -1.57824 -0.0159001  -0.855877 -1.62252 -0.0168467  -0.97602 -1.62574 -0.0170918  -0.927868 -1.64792 -0.0176191  -0.902917 -1.71761 -0.0191751  -0.950824 -1.69563 -0.0187006  -0.92582 -1.7655 -0.0201941  -0.949754 -1.69613 -0.0184751  -0.972756 -1.74396 -0.0196004  -0.997921 -1.67389 -0.0179958  -0.998965 -1.67337 -0.0182376  -0.901862 -1.71809 -0.0190129  -1.0219 -1.7211 -0.0193658  -0.973747 -1.74343 -0.0197725  -0.948696 -1.81344 -0.0211697  -0.996639 -1.7913 -0.0207996  -0.971538 -1.86143 -0.0221391  -0.995694 -1.79183 -0.0206528  -1.0186 -1.83978 -0.0217214  -1.04385 -1.76948 -0.0202851  -1.04477 -1.76892 -0.0204482  -0.947761 -1.81395 -0.0210724  -1.06761 -1.81681 -0.0215158  -1.01948 -1.83924 -0.0218253  -0.994342 -1.90946 -0.0230756  -1.04229 -1.88722 -0.0227995  -1.0171 -1.95752 -0.0239964  -1.04145 -1.88778 -0.022717  -1.06428 -1.93582 -0.0237079  -1.08957 -1.86535 -0.0224609  -1.09038 -1.86478 -0.0225353  -0.993514 -1.91 -0.023026  -1.11314 -1.91279 -0.02353  -1.06505 -1.93525 -0.023756  -1.03981 -2.00558 -0.0248795  -1.08775 -1.98328 -0.0246768  -1.06247 -2.05365 -0.025753  -1.087 -1.98385 -0.024641  -1.1097 -2.03191 -0.0255795  -1.13508 -1.96139 -0.0244584  -1.13579 -1.96081 -0.0244875  -1.03907 -2.00613 -0.0248709  -1.15842 -2.00887 -0.0254254  -1.11039 -2.03134 -0.0255857  -1.08507 -2.1017 -0.0265985  -1.13298 -2.07939 -0.0264549  -1.10761 -2.14974 -0.0274277  -1.13231 -2.07995 -0.0264525  -1.1549 -2.128 -0.0273204  -1.18032 -2.05751 -0.026341  -1.18095 -2.05694 -0.0263176  -1.08441 -2.10226 -0.0266113  -1.20347 -2.105 -0.0271912  -1.15551 -2.12743 -0.0273027  -1.1301 -2.19774 -0.0282269  -1.17797 -2.17544 -0.0281219  -1.15252 -2.24571 -0.0290117  -1.17737 -2.17599 -0.0281415  -1.19981 -2.22398 -0.0289588  -1.22531 -2.15359 -0.0280695  -1.22588 -2.15303 -0.0280313  -1.12949 -2.1983 -0.0282588  -1.24828 -2.20105 -0.0288467  -1.20038 -2.22342 -0.0289254  -1.17489 -2.29365 -0.0297861  -1.22273 -2.27137 -0.0297041  -1.19721 -2.34154 -0.0305462  -1.22217 -2.27192 -0.0297337  -1.2445 -2.31984 -0.0304928  -1.27004 -2.24957 -0.0296774  -1.27059 -2.24902 -0.0296221  -1.17433 -2.2942 -0.0298233  -1.2929 -2.29697 -0.0303893  -1.24505 -2.31928 -0.0304599  -1.21948 -2.38938 -0.0313096  -1.26732 -2.36714 -0.0312304  -1.24173 -2.43717 -0.0320764  -1.26676 -2.36768 -0.0312586  -1.28905 -2.4155 -0.032011  -1.31461 -2.3454 -0.0311775  -1.31516 -2.34485 -0.031146  -1.21893 -2.38993 -0.031354  -1.33744 -2.39272 -0.0318966  -1.28959 -2.41496 -0.0319858  -0.00329606 0.00240311 0.0100713  -0.0036954 0.00106139 0.0125136  -0.00841983 -0.000134408 0.0189476  -0.00463021 0.00517133 0.0185156  -0.0160991 0.0038356 0.0295482  0 0 0  0 0 0  -0.00368457 0.00601777 0.0149722  0 0 0  -0.0103439 -0.00235218 0.0242748  -0.0137922 -0.00775039 0.0233798  -0.0196181 -0.0103352 0.0298357  -0.0202764 -0.0188523 0.0273314  -0.0247797 -0.00360578 0.0331273  -0.03195 -0.0126245 0.0386829  -0.0172253 -0.00129317 0.0260544  -0.0288476 -0.0206666 0.0345483  -0.0268958 -0.0325448 0.0286107  -0.0382358 -0.0336943 0.0360689  -0.0340978 -0.049156 0.0295076  -0.0393833 -0.025592 0.0394778  -0.0466882 -0.0413227 0.0408554  -0.0275137 -0.0249562 0.0310788  -0.0477858 -0.0494405 0.0371981  -0.0416818 -0.0680686 0.0292935  -0.0574984 -0.0676547 0.0369282  -0.0499335 -0.0894009 0.0286956  -0.0552111 -0.059823 0.0404081  -0.0642791 -0.0809092 0.0396605  -0.0395539 -0.0605443 0.0318093  -0.0678889 -0.0882963 0.0362196  -0.0588236 -0.112781 0.0278044  -0.0787748 -0.111048 0.0350904  -0.0685407 -0.138135 0.026515  -0.0746107 -0.104144 0.0385251  -0.0856655 -0.129384 0.0368361  -0.0550635 -0.105974 0.0303288  -0.0904738 -0.135726 0.0335231  -0.0789678 -0.165168 0.0252881  -0.10281 -0.162122 0.03198  -0.0902517 -0.193807 0.0237217  -0.09782 -0.156297 0.035295  -0.110653 -0.184734 0.0332327  -0.0744329 -0.159306 0.0277681  -0.115876 -0.190017 0.0300727  -0.102205 -0.223812 0.0223432  -0.12957 -0.219345 0.0283599  -0.114953 -0.25514 0.020689  -0.124374 -0.214539 0.0314884  -0.138684 -0.245547 0.0293479  -0.0974464 -0.218893 0.0247059  -0.143876 -0.249889 0.0263805  -0.128303 -0.287608 0.019279  -0.158758 -0.281643 0.0246716  -0.142351 -0.321205 0.0176597  -0.153693 -0.277693 0.0275774  -0.169202 -0.310859 0.0254865  -0.12361 -0.283519 0.0214849  -0.17415 -0.314429 0.022758  -0.156936 -0.355797 0.0162754  -0.190059 -0.348279 0.0210905  -0.172128 -0.391361 0.0147238  -0.185267 -0.345032 0.0237455  -0.201785 -0.38011 0.0217614  -0.152464 -0.35239 0.0182834  -0.206414 -0.38305 0.0192809  -0.187818 -0.427817 0.0133886  -0.223235 -0.418767 0.0176973  -0.204047 -0.465132 0.0119262  -0.21877 -0.416084 0.0200963  -0.236172 -0.452886 0.0182319  -0.183631 -0.424983 0.0151906  -0.240458 -0.455314 0.0160017  -0.220729 -0.503251 0.0106492  -0.258112 -0.492716 0.0145082  -0.237897 -0.542129 0.00926352  -0.253993 -0.490509 0.0166454  -0.272187 -0.528879 0.014894  -0.21684 -0.500894 0.0122495  -0.276137 -0.53087 0.0129104  -0.255486 -0.58173 0.00802898  -0.294558 -0.56979 0.0114832  -0.273511 -0.622013 0.00671196  -0.290759 -0.567978 0.013381  -0.309686 -0.607767 0.0117269  -0.251886 -0.579783 0.00943756  -0.31332 -0.609388 0.00997353  -0.291925 -0.662948 0.00552559  -0.332448 -0.649681 0.00861406  -0.310735 -0.704478 0.00425482  -0.328966 -0.64822 0.0102777  -0.348554 -0.68929 0.00869989  -0.288609 -0.66135 0.00675344  -0.351889 -0.690585 0.007164  -0.329897 -0.746589 0.00308371  -0.371665 -0.732105 0.00584078  -0.349412 -0.789237 0.00185061  -0.368459 -0.730939 0.00729704  -0.388665 -0.773151 0.00578308  -0.326842 -0.745305 0.00414848  -0.391726 -0.774171 0.00444746  -0.36925 -0.832399 0.000722885  -0.412088 -0.816789 0.00317192  -0.389407 -0.876023 -0.000473976  -0.409163 -0.815888 0.00443125  -0.429917 -0.85912 0.00298071  -0.366448 -0.83138 0.00163269  -0.432711 -0.859892 0.00182819  -0.40985 -0.920101 -0.00158739  -0.453602 -0.903478 0.00058651  -0.430569 -0.964591 -0.00275517  -0.450921 -0.902803 0.00167274  -0.472167 -0.946931 0.000268459  -0.407283 -0.919324 -0.000811577  -0.47472 -0.947491 -0.000717163  -0.451539 -1.00948 -0.00383663  -0.49607 -0.991933 -0.00192404  -0.47275 -1.05471 -0.00497866  -0.493636 -0.991465 -0.0010066  -0.5153 -1.03638 -0.00236273  -0.449201 -1.0089 -0.00318861  -0.517617 -1.03675 -0.00319576  -0.494175 -1.10028 -0.00605297  -0.539362 -1.08193 -0.00437832  -0.5158 -1.14616 -0.00717258  -0.537143 -1.08163 -0.00360012  -0.559169 -1.12723 -0.00491714  -0.492045 -1.0999 -0.00551176  -0.561272 -1.12743 -0.00561237  -0.537608 -1.19233 -0.00821161  -0.583348 -1.17326 -0.00675964  -0.559585 -1.23876 -0.00929689  -0.581349 -1.17312 -0.0061183  -0.603668 -1.2193 -0.00738478  -0.535681 -1.19211 -0.00777435  -0.605563 -1.21936 -0.00795603  -0.58171 -1.28543 -0.0103278  -0.627909 -1.26573 -0.00907707  -0.603966 -1.33231 -0.0113878  -0.626099 -1.26573 -0.00854826  -0.648654 -1.3124 -0.00977659  -0.579968 -1.28535 -0.00997591  -0.650363 -1.31233 -0.0102377  -0.626337 -1.3794 -0.0123858  -0.672915 -1.35916 -0.011323  -0.648814 -1.42666 -0.0134177  -0.671296 -1.35928 -0.0109057  -0.694023 -1.40637 -0.0120859  -0.624772 -1.37944 -0.0121155  -0.695553 -1.40619 -0.0124478  -0.671373 -1.47408 -0.0144062  -0.718256 -1.45339 -0.0135126  -0.694001 -1.52164 -0.0154152  -0.716794 -1.4536 -0.0131836  -0.739644 -1.50102 -0.0143256  -0.669966 -1.47423 -0.0142031  -0.741015 -1.50075 -0.0146012  -0.716688 -1.56933 -0.0163646  -0.763819 -1.54827 -0.0156236  -0.739424 -1.61712 -0.0173402  -0.762523 -1.54856 -0.0153799  -0.785441 -1.59624 -0.0164771  -0.715433 -1.56957 -0.0162234  -0.786658 -1.5959 -0.0166779  -0.76219 -1.66501 -0.0182791  -0.809511 -1.64364 -0.0176711  -0.784977 -1.71298 -0.0192299  -0.80835 -1.644 -0.0174942  -0.831296 -1.69187 -0.0185466  -0.76107 -1.66532 -0.018188  -0.832382 -1.69147 -0.0186839  -0.807779 -1.76101 -0.020123  -0.855247 -1.73939 -0.0196357  -0.830582 -1.80908 -0.0210333  -0.854225 -1.7398 -0.0195222  -0.877156 -1.78781 -0.0205231  -0.806782 -1.76138 -0.0200744  -0.878114 -1.78736 -0.0206084  -0.853377 -1.85719 -0.0219131  -0.900954 -1.83539 -0.0215287  -0.876152 -1.90533 -0.0227928  -0.900038 -1.83584 -0.0214596  -0.922923 -1.88393 -0.0224156  -0.852489 -1.85761 -0.0218949  -0.923774 -1.88345 -0.0224571  -0.898903 -1.95348 -0.0236244  -0.946554 -1.93153 -0.0233355  -0.921623 -2.00163 -0.0244713  -0.945748 -1.93202 -0.0233097  -0.968556 -1.98015 -0.0242171  -0.898113 -1.95394 -0.0236349  -0.969307 -1.97963 -0.0242252  -0.944306 -2.04977 -0.0252914  -0.992004 -2.02773 -0.0250745  -0.96694 -2.0979 -0.0261116  -0.991277 -2.02824 -0.0250707  -1.01399 -2.07635 -0.0259352  -0.943598 -2.05026 -0.0253172  -1.01466 -2.07582 -0.0259237  -0.98953 -2.14601 -0.026886  -1.03726 -2.12389 -0.0267262  -1.01207 -2.19407 -0.0276666  -1.03661 -2.12442 -0.0267448  -1.0592 -2.17248 -0.027564  -0.988892 -2.14651 -0.0269227  -1.05981 -2.17194 -0.0275393  -1.03455 -2.2421 -0.0284367  -1.08229 -2.21995 -0.0283251  -1.05697 -2.29008 -0.0292029  -1.08169 -2.22048 -0.028348  -1.10416 -2.26846 -0.029129  -1.03396 -2.24261 -0.0284739  -1.10472 -2.26793 -0.0291023  -1.07934 -2.33802 -0.0299387  -1.12709 -2.31586 -0.0298529  -1.10165 -2.38589 -0.0306854  -1.12654 -2.31639 -0.0298905  -1.14887 -2.36429 -0.0306439  -1.07879 -2.33854 -0.029983  -1.14941 -2.36374 -0.030611  -1.12389 -2.4337 -0.0314388  -1.17166 -2.41157 -0.0313754  -1.14608 -2.48144 -0.0322042  -1.17111 -2.4121 -0.0314074  -1.19337 -2.45988 -0.0321751  -1.12336 -2.43425 -0.0314832  -1.19391 -2.45933 -0.0321417  -0.000978496 0.00251076 0.00430298  -0.00134695 0.00266671 0.00677252  -0.00214452 4.75645e-05 0.00854111  -0.00170877 0.00626028 0.0095377  -0.00694907 0.00583756 0.0165329  0 0 0  0 0 0  -0.00110669 0.00565195 0.0062418  0 0 0  -0.00382864 0.000406295 0.0135779  -0.00323018 -0.00784108 0.0108566  -0.00766098 -0.00750983 0.0168543  -0.00505075 -0.0192013 0.0131164  -0.0102645 -0.0014548 0.0185137  -0.0127969 -0.0114854 0.0221725  -0.00463115 -0.00191447 0.0116854  -0.0115408 -0.0184741 0.0200963  -0.00714573 -0.0339664 0.0138836  -0.016408 -0.0328464 0.0210662  -0.00996661 -0.0515964 0.0145326  -0.0164876 -0.0256543 0.0226474  -0.0200209 -0.0425682 0.0235066  -0.00675869 -0.0269606 0.0145454  -0.0213853 -0.0498782 0.0218582  -0.0133322 -0.0716434 0.0145068  -0.0270281 -0.0694143 0.0217562  -0.0175384 -0.0941281 0.0142159  -0.0248764 -0.0622385 0.0233607  -0.0302115 -0.0843686 0.0228601  -0.01121 -0.0646111 0.0152097  -0.0332661 -0.0913095 0.0213099  -0.0224674 -0.118576 0.0137815  -0.0402026 -0.115256 0.0206838  -0.0283698 -0.14508 0.0130396  -0.0367157 -0.108651 0.0223122  -0.0440458 -0.134984 0.0212235  -0.019253 -0.112039 0.0145597  -0.0480039 -0.14119 0.0196695  -0.0350807 -0.173215 0.0123763  -0.0565752 -0.168823 0.0187545  -0.0428123 -0.203064 0.0114179  -0.052436 -0.16301 0.0203757  -0.0617116 -0.192698 0.0190363  -0.0313053 -0.167392 0.0131898  -0.0660565 -0.198082 0.0174847  -0.0513518 -0.234269 0.0106287  -0.0763156 -0.228739 0.016427  -0.0608667 -0.266892 0.00958824  -0.0719602 -0.223751 0.017992  -0.0830226 -0.256156 0.0165672  -0.0473543 -0.229209 0.0114441  -0.0874172 -0.260726 0.0150843  -0.0711461 -0.300674 0.00873852  -0.0992613 -0.293904 0.0139666  -0.0823235 -0.33564 0.00768471  -0.0949405 -0.289678 0.0154362  -0.107578 -0.324337 0.014009  -0.0671517 -0.296338 0.00950623  -0.111851 -0.328198 0.0126252  -0.0941985 -0.371599 0.00680971  -0.125119 -0.363517 0.0115123  -0.106883 -0.40857 0.00577116  -0.120967 -0.359953 0.0128584  -0.134993 -0.39655 0.0114698  -0.0903337 -0.367917 0.00750494  -0.139046 -0.399797 0.0102167  -0.120205 -0.44641 0.00490236  -0.153591 -0.436979 0.00912285  -0.134252 -0.485121 0.00388527  -0.149667 -0.433981 0.0103307  -0.164916 -0.472276 0.00900221  -0.116533 -0.443289 0.00551033  -0.168723 -0.475005 0.0078826  -0.148886 -0.524595 0.0030241  -0.184418 -0.513829 0.00682163  -0.164163 -0.564824 0.00204802  -0.180753 -0.511309 0.00789309  -0.1971 -0.551108 0.00661802  -0.145432 -0.521961 0.00354624  -0.200636 -0.553391 0.00563622  -0.17997 -0.605733 0.00120401  -0.21737 -0.593663 0.00460482  -0.196367 -0.6473 0.000244141  -0.213969 -0.591564 0.0055356  -0.2313 -0.6327 0.00431347  -0.176754 -0.603519 0.00163651  -0.234584 -0.634599 0.00346088  -0.213247 -0.689461 -0.000599861  -0.252259 -0.676162 0.00246048  -0.230644 -0.732196 -0.00153589  -0.249108 -0.674417 0.00326157  -0.267344 -0.716745 0.00207615  -0.210253 -0.687612 -0.000244141  -0.270367 -0.718301 0.00134897  -0.248479 -0.775458 -0.00236845  -0.288894 -0.760997 0.000357151  -0.266786 -0.819215 -0.00329638  -0.285993 -0.759576 0.00104094  -0.305018 -0.802942 -0.000115395  -0.245717 -0.773933 -0.00208902  -0.307812 -0.804207 -0.000732899  -0.285482 -0.863427 -0.00413656  -0.327099 -0.847903 -0.00170422  -0.30459 -0.90807 -0.00505114  -0.324424 -0.846753 -0.00112915  -0.344181 -0.89104 -0.00225401  -0.282928 -0.862183 -0.00391769  -0.346738 -0.89204 -0.00276709  -0.324049 -0.953113 -0.00588369  -0.366711 -0.936607 -0.00373363  -0.343876 -0.998521 -0.00679445  -0.364263 -0.935708 -0.00325155  -0.384646 -0.980788 -0.00435305  -0.32171 -0.952122 -0.005723  -0.386993 -0.981561 -0.00478172  -0.364007 -1.04427 -0.00763035  -0.40756 -1.02688 -0.00572586  -0.384449 -1.09032 -0.00852537  -0.405319 -1.0262 -0.00533342  -0.426263 -1.07196 -0.00641441  -0.361863 -1.0435 -0.00751543  -0.428393 -1.07253 -0.00675678  -0.405158 -1.13668 -0.00935841  -0.449475 -1.1185 -0.00770092  -0.426137 -1.18328 -0.0102568  -0.44744 -1.118 -0.00738335  -0.468845 -1.16435 -0.00844097  -0.403208 -1.13611 -0.00928926  -0.470788 -1.16474 -0.00871706  -0.44734 -1.23013 -0.0110884  -0.492304 -1.21126 -0.00964069  -0.468766 -1.2772 -0.0119672  -0.490456 -1.21093 -0.00939226  -0.512265 -1.25777 -0.0104241  -0.445565 -1.22974 -0.0110517  -0.514013 -1.258 -0.010632  -0.490378 -1.32447 -0.0127897  -0.535895 -1.30497 -0.0115519  -0.51218 -1.37191 -0.0136695  -0.534227 -1.3048 -0.011364  -0.556349 -1.35205 -0.0123725  -0.488779 -1.32423 -0.0127897  -0.557935 -1.35214 -0.0125313  -0.534127 -1.41951 -0.0144958  -0.5801 -1.39948 -0.0134292  -0.556217 -1.46724 -0.0153556  -0.578595 -1.39943 -0.0132952  -0.600976 -1.44701 -0.0142837  -0.532678 -1.4194 -0.0145173  -0.602391 -1.44698 -0.0143867  -0.578423 -1.51511 -0.0161691  -0.624784 -1.49462 -0.0152817  -0.600744 -1.56307 -0.0170326  -0.623436 -1.49469 -0.0151901  -0.645993 -1.54251 -0.0161524  -0.577128 -1.51512 -0.0162153  -0.64727 -1.54238 -0.016221  -0.623147 -1.61112 -0.017839  -0.669819 -1.59026 -0.0170884  -0.645626 -1.65925 -0.0186763  -0.66861 -1.59042 -0.0170364  -0.691303 -1.63843 -0.0179758  -0.621981 -1.61124 -0.0178952  -0.692433 -1.63821 -0.0180044  -0.66816 -1.70744 -0.0194697  -0.715091 -1.68625 -0.0188656  -0.690751 -1.75567 -0.0203018  -0.714016 -1.6865 -0.0188432  -0.736776 -1.73464 -0.0197544  -0.667124 -1.70764 -0.0195413  -0.737792 -1.73435 -0.0197616  -0.71337 -1.80394 -0.0210867  -0.760504 -1.7825 -0.0205894  -0.736012 -1.85222 -0.0218897  -0.75954 -1.78281 -0.0205941  -0.782339 -1.83104 -0.0214758  -0.712437 -1.80421 -0.0211625  -0.783233 -1.83068 -0.0214562  -0.758662 -1.90053 -0.0226564  -0.80596 -1.87889 -0.0222754  -0.781322 -1.94883 -0.0234537  -0.805107 -1.87926 -0.0222969  -0.827883 -1.92751 -0.0231466  -0.757836 -1.90087 -0.0227389  -0.828691 -1.92711 -0.0231204  -0.803968 -1.99712 -0.02421  -0.851388 -1.97532 -0.0239062  -0.826596 -2.04539 -0.0249767  -0.850619 -1.97573 -0.0239429  -0.873355 -2.02397 -0.0247631  -0.803219 -1.99751 -0.0242882  -0.874068 -2.02353 -0.0247192  -0.849196 -2.09364 -0.0257154  -0.896714 -2.07173 -0.0254965  -0.871774 -2.14185 -0.0264769  -0.896029 -2.07217 -0.0255375  -0.918683 -2.12037 -0.02633  -0.848529 -2.09407 -0.0257955  -0.91933 -2.11989 -0.026289  -0.89431 -2.19002 -0.0272045  -0.94189 -2.16803 -0.0270357  -0.916802 -2.23814 -0.0279417  -0.941265 -2.1685 -0.0270782  -0.963828 -2.21662 -0.0278411  -0.893697 -2.19048 -0.0272708  -0.964411 -2.21612 -0.0277996  -0.939243 -2.28622 -0.0286536  -0.986875 -2.26417 -0.0285382  -0.961644 -2.33423 -0.0293813  -0.986305 -2.26466 -0.0285783  -1.00874 -2.31268 -0.0293207  -0.938682 -2.2867 -0.0287123  -1.00929 -2.31217 -0.0292897  -0.983982 -2.38218 -0.0300918  -1.03164 -2.36012 -0.0300097  -1.00626 -2.43007 -0.0308104  -1.0311 -2.36062 -0.0300455  -1.05342 -2.40852 -0.0307779  -0.983449 -2.38269 -0.0301371  -1.05394 -2.408 -0.0307488  -1.02846 -2.47786 -0.0315232  -1.07616 -2.45579 -0.0314798  -1.0506 -2.52557 -0.0322518  -1.07565 -2.45633 -0.0315127  -1.09783 -2.50406 -0.032258  -1.02796 -2.4784 -0.0315638  -1.09834 -2.50351 -0.0322227  0.000926413 0.000862777 -0.00141764  0.00054846 0.00188071 0.00111294  0.00297958 -0.00290143 -0.00148392  0.000564329 0.00498238 0.00109434  0.000420511 0.00348133 0.00384474  0 0 0  0 0 0  0.000957109 0.00365603 -0.00196314  0 0 0  0.00126566 -0.00120595 0.00335169  0.00562254 -0.0118267 -0.00121307  0.00167108 -0.00957936 0.00453615  0.00803301 -0.0239147 -0.000573635  0.00119457 -0.00394621 0.00452232  0.00230932 -0.0146903 0.00618887  0.00597969 -0.00637481 -0.00226021  0.0021044 -0.0211475 0.00611973  0.0101108 -0.0396715 -0.000175476  0.00175148 -0.0364372 0.00668621  0.0115432 -0.058053 0.000214577  0.00260249 -0.0296987 0.00658703  0.00278518 -0.0474271 0.00708485  0.0113173 -0.0330961 -0.0012598  0.00112396 -0.0543554 0.00722313  0.0122588 -0.0790429 0.000381947  -0.000340939 -0.0749103 0.00733852  0.0120729 -0.102374 0.000389099  0.00179064 -0.0680622 0.00722265  0.00019598 -0.0910917 0.00703621  0.0143738 -0.0723203 -0.000625134  -0.00250867 -0.0977852 0.00718212  0.0110121 -0.12772 0.000367165  -0.00554919 -0.122728 0.00699568  0.00886506 -0.155124 0.000113487  -0.00256842 -0.116281 0.00693226  -0.00622064 -0.143534 0.00641108  0.0137902 -0.121346 -0.00053072  -0.00953954 -0.149669 0.00648355  0.00577992 -0.184192 -4.57764e-05  -0.0144609 -0.178316 0.00610542  0.00154233 -0.21502 -0.000449181  -0.0110114 -0.172503 0.00610638  -0.0167699 -0.203201 0.00541353  0.0089516 -0.178393 -0.000836849  -0.0203985 -0.20865 0.00541544  -0.00363266 -0.247245 -0.0007267  -0.0272768 -0.240413 0.00490475  -0.0099377 -0.280949 -0.00122738  -0.023629 -0.235295 0.00493813  -0.0314239 -0.268833 0.00415945  -0.000274241 -0.242094 -0.00144005  -0.0351385 -0.27358 0.00413322  -0.017153 -0.315842 -0.00157452  -0.0439165 -0.307958 0.00354862  -0.0254282 -0.351976 -0.0021143  -0.0402433 -0.30352 0.00359488  -0.0499372 -0.339422 0.00277901  -0.0137494 -0.311333 -0.00222301  -0.0536006 -0.343511 0.00275135  -0.0345532 -0.389127 -0.00250769  -0.0641348 -0.380104 0.00213146  -0.0446502 -0.427322 -0.00307178  -0.0605584 -0.376292 0.00216341  -0.0719618 -0.414195 0.00134039  -0.0312223 -0.38522 -0.00312138  -0.075492 -0.417697 0.00132656  -0.0555282 -0.466392 -0.00350237  -0.0876291 -0.45618 0.000682831  -0.0672914 -0.506346 -0.00407267  -0.0842069 -0.452919 0.000693798  -0.0971609 -0.492531 -0.000127316  -0.0523274 -0.463025 -0.00408983  -0.100508 -0.49552 -0.000111103  -0.0797688 -0.547047 -0.00452662  -0.114093 -0.535634 -0.000760555  -0.0930463 -0.588501 -0.00511122  -0.110864 -0.532854 -0.000780582  -0.125212 -0.57395 -0.00158882  -0.0767359 -0.544159 -0.00509501  -0.128355 -0.576485 -0.00154543  -0.106977 -0.630605 -0.00558949  -0.143254 -0.61801 -0.0021987  -0.121625 -0.673355 -0.00618362  -0.140229 -0.615657 -0.00224924  -0.155826 -0.658033 -0.00305223  -0.104125 -0.628145 -0.00613451  -0.158764 -0.660176 -0.00298071  -0.136858 -0.71666 -0.00668097  -0.174843 -0.702925 -0.00364017  -0.15274 -0.760508 -0.00728655  -0.172026 -0.700938 -0.00372267  -0.188751 -0.744435 -0.00451612  -0.13419 -0.714564 -0.0072093  -0.191479 -0.746227 -0.00441837  -0.169153 -0.80484 -0.00781441  -0.208628 -0.790036 -0.00508928  -0.186136 -0.849639 -0.00843382  -0.20601 -0.78838 -0.00519085  -0.223742 -0.832833 -0.00599003  -0.166672 -0.803083 -0.00831604  -0.226267 -0.834319 -0.00586987  -0.203593 -0.894849 -0.00897503  -0.244362 -0.879042 -0.00655127  -0.221561 -0.940448 -0.00960636  -0.241946 -0.877673 -0.00667524  -0.260574 -0.922958 -0.00747108  -0.201299 -0.89338 -0.00945807  -0.262902 -0.924171 -0.00733662  -0.239952 -0.986397 -0.0101814  -0.281844 -0.969676 -0.00803089  -0.258785 -1.03268 -0.0108242  -0.279618 -0.968569 -0.00816536  -0.299041 -1.01455 -0.0089612  -0.237837 -0.985201 -0.010633  -0.301175 -1.01552 -0.00881243  -0.27799 -1.07925 -0.0114021  -0.320855 -1.06169 -0.00950956  -0.297585 -1.12609 -0.0120592  -0.318823 -1.06081 -0.00965977  -0.338932 -1.1074 -0.0104537  -0.276055 -1.07828 -0.0118346  -0.340878 -1.10815 -0.0102987  -0.317501 -1.17318 -0.0126767  -0.361205 -1.15487 -0.0110111  -0.337749 -1.22049 -0.01335  -0.359348 -1.1542 -0.0111651  -0.380048 -1.20127 -0.0119624  -0.315733 -1.17243 -0.0130758  -0.381822 -1.20183 -0.0118008  -0.35827 -1.26799 -0.0139594  -0.402691 -1.24902 -0.0125165  -0.379078 -1.31567 -0.014636  -0.401005 -1.24852 -0.0126781  -0.42221 -1.296 -0.0134668  -0.356665 -1.26742 -0.0143394  -0.423815 -1.2964 -0.0133033  -0.400116 -1.36351 -0.0152793  -0.44515 -1.34395 -0.0140271  -0.421386 -1.41148 -0.0159669  -0.443623 -1.34362 -0.0141873  -0.46524 -1.39142 -0.0149803  -0.39866 -1.36311 -0.015624  -0.466691 -1.39166 -0.0148163  -0.442845 -1.45958 -0.0166059  -0.488399 -1.43951 -0.0155401  -0.464499 -1.50777 -0.0172982  -0.487024 -1.43932 -0.0157046  -0.508972 -1.48737 -0.0164881  -0.441532 -1.45932 -0.0169306  -0.510278 -1.48748 -0.0163269  -0.4863 -1.55605 -0.0179582  -0.532289 -1.53556 -0.0170565  -0.508248 -1.60441 -0.0186539  -0.531049 -1.53549 -0.0172148  -0.553254 -1.58372 -0.0179987  -0.485116 -1.55593 -0.0182471  -0.554428 -1.58371 -0.0178413  -0.530308 -1.65282 -0.01931  -0.576661 -1.63195 -0.0185657  -0.552487 -1.70126 -0.0200081  -0.575554 -1.63199 -0.0187211  -0.597954 -1.68035 -0.0194888  -0.529248 -1.6528 -0.019578  -0.599 -1.68024 -0.019341  -0.574749 -1.74974 -0.0206804  -0.621402 -1.72858 -0.0200663  -0.597089 -1.79824 -0.021378  -0.62041 -1.72872 -0.0202107  -0.642935 -1.77714 -0.0209751  -0.573801 -1.74984 -0.0209126  -0.643872 -1.77694 -0.0208354  -0.619477 -1.84675 -0.022047  -0.666374 -1.82533 -0.0215583  -0.641922 -1.89525 -0.0227461  -0.665489 -1.82555 -0.0216947  -0.688092 -1.874 -0.0224433  -0.618628 -1.84692 -0.0222559  -0.688926 -1.87373 -0.0223165  -0.664394 -1.94374 -0.0234261  -0.711492 -1.92213 -0.0230346  -0.686892 -1.9922 -0.0241222  -0.710697 -1.92242 -0.0231557  -0.733326 -1.97084 -0.0238967  -0.663632 -1.94399 -0.0236015  -0.734075 -1.97051 -0.0237823  -0.709391 -2.04064 -0.024785  -0.756645 -2.01887 -0.0244904  -0.731899 -2.08904 -0.0254793  -0.755934 -2.01921 -0.0246024  -0.778547 -2.06759 -0.0253239  -0.708705 -2.04095 -0.0249424  -0.779223 -2.06721 -0.0252261  -0.754393 -2.13739 -0.0261636  -0.801772 -2.11551 -0.0259323  -0.776872 -2.18569 -0.0268483  -0.801124 -2.1159 -0.0260262  -0.823691 -2.16419 -0.0267391  -0.753767 -2.13776 -0.0262852  -0.824303 -2.16376 -0.0266562  -0.79932 -2.23394 -0.027514  -0.846792 -2.21198 -0.0273528  -0.821748 -2.28211 -0.0282016  -0.846208 -2.2124 -0.0274339  -0.868703 -2.26059 -0.028131  -0.798751 -2.23434 -0.0276189  -0.869262 -2.26013 -0.0280681  -0.844134 -2.33023 -0.0288801  -0.891675 -2.30822 -0.028758  -0.866484 -2.37828 -0.0295615  -0.891132 -2.30868 -0.0288157  -0.913531 -2.35673 -0.0295057  -0.843604 -2.33068 -0.0289493  -0.914054 -2.35625 -0.0294628  -0.888775 -2.42626 -0.0302224  -0.936366 -2.40422 -0.0301495  -0.911025 -2.47414 -0.0309024  -0.93586 -2.4047 -0.0301938  -0.958146 -2.45262 -0.0308771  -0.888281 -2.42672 -0.0302758  -0.958637 -2.45211 -0.0308518  -0.933192 -2.52194 -0.0315886  -0.980819 -2.4999 -0.0315499  -0.95528 -2.56964 -0.0322771  -0.980331 -2.50041 -0.0315719  -1.00245 -2.54813 -0.0322819  -0.93272 -2.52244 -0.0316076  -1.00293 -2.5476 -0.0322604  0.00267963 -0.00217313 -0.0070281  0.00227111 -0.000400007 -0.00451183  0.00790322 -0.00812304 -0.0110502  0.00252594 0.0023129 -0.0068717  0.00703073 -0.00125659 -0.00841475  0 0 0  0 0 0  0.002783 0.00036341 -0.00967932  0 0 0  0.00594401 -0.00532943 -0.00647163  0.0142947 -0.0189385 -0.0125742  0.0102092 -0.0150924 -0.00720596  0.0208488 -0.0322829 -0.0134082  0.0115364 -0.00982493 -0.00888443  0.0159748 -0.021731 -0.00904226  0.0161281 -0.0139682 -0.0155039  0.0146156 -0.0277545 -0.00718212  0.0269815 -0.0491534 -0.0133958  0.0185655 -0.0440093 -0.00695848  0.0325496 -0.0683611 -0.0133004  0.020156 -0.0376387 -0.00871801  0.0239398 -0.0561528 -0.00853062  0.0288455 -0.0430278 -0.0161967  0.0220479 -0.0627737 -0.00669622  0.0372227 -0.0901329 -0.0129919  0.0246903 -0.0841558 -0.00640345  0.0409169 -0.114185 -0.012785  0.0267935 -0.0775765 -0.00817633  0.0289035 -0.101337 -0.0080657  0.0393349 -0.0837232 -0.0156584  0.0264655 -0.107835 -0.00630474  0.0435916 -0.140251 -0.0124755  0.0272556 -0.133569 -0.0061121  0.0450793 -0.168407 -0.0123134  0.0298365 -0.127268 -0.00781107  0.0298038 -0.155281 -0.00783205  0.0460323 -0.134048 -0.0149961  0.0269755 -0.161343 -0.00618076  0.0455045 -0.198255 -0.012063  0.025631 -0.190836 -0.00610113  0.0446587 -0.229914 -0.0119953  0.0285256 -0.185047 -0.00768852  0.0262004 -0.216596 -0.00779772  0.0481933 -0.192503 -0.0144315  0.0231429 -0.222072 -0.00627279  0.0427417 -0.263019 -0.011806  0.0195719 -0.25477 -0.00629807  0.0395654 -0.297661 -0.0117912  0.0226415 -0.24958 -0.00776958  0.0180399 -0.28408 -0.00797033  0.0455742 -0.257816 -0.0140185  0.0148919 -0.28894 -0.00654936  0.0353535 -0.333541 -0.0116982  0.00914913 -0.32436 -0.0066638  0.0299404 -0.370702 -0.0117612  0.0122672 -0.319774 -0.00802469  0.00549626 -0.356742 -0.00828457  0.0382372 -0.328909 -0.013762  0.00235939 -0.361008 -0.00696993  0.0235423 -0.408914 -0.0117226  -0.00543261 -0.398718 -0.00713634  0.0160224 -0.448199 -0.0118322  -0.00236344 -0.39471 -0.00840044  -0.0111488 -0.433753 -0.00869703  0.0263957 -0.40485 -0.0136418  -0.0141988 -0.437458 -0.00747013  0.00758588 -0.488369 -0.0118413  -0.0238894 -0.477103 -0.0076828  -0.00187981 -0.529434 -0.0119958  -0.0209174 -0.473622 -0.00886488  -0.0315388 -0.514405 -0.00919533  0.0103592 -0.484817 -0.0136242  -0.0344671 -0.517621 -0.00804949  -0.0121846 -0.571244 -0.0120592  -0.045885 -0.558892 -0.00829792  -0.0234269 -0.61381 -0.0122409  -0.0430565 -0.555884 -0.00940228  -0.0553513 -0.598145 -0.00976133  -0.00952661 -0.568155 -0.0137081  -0.0581169 -0.600908 -0.00868654  -0.0354327 -0.657007 -0.0123572  -0.0711138 -0.643578 -0.00897646  -0.0482883 -0.700831 -0.0125995  -0.0684435 -0.640994 -0.0100107  -0.0822353 -0.684506 -0.0104046  -0.0329216 -0.654336 -0.0138893  -0.0848447 -0.686873 -0.00940323  -0.0618396 -0.745184 -0.0127721  -0.0992601 -0.730719 -0.00972891  -0.076142 -0.79006 -0.0130444  -0.0967511 -0.728502 -0.0106854  -0.111905 -0.773075 -0.0111041  -0.0594679 -0.74289 -0.0141807  -0.114332 -0.775086 -0.0101738  -0.0910738 -0.835386 -0.0132475  -0.130027 -0.81993 -0.0105362  -0.106683 -0.881143 -0.0135612  -0.127696 -0.818054 -0.0114264  -0.144053 -0.863515 -0.011869  -0.0888666 -0.833434 -0.0145435  -0.146314 -0.865216 -0.0110106  -0.122854 -0.927276 -0.0138168  -0.163145 -0.910897 -0.0113983  -0.139621 -0.973767 -0.014164  -0.160981 -0.909315 -0.0122204  -0.178421 -0.955533 -0.0126886  -0.120801 -0.925625 -0.0150013  -0.180502 -0.956948 -0.0118933  -0.156885 -1.02057 -0.0144596  -0.198347 -1.00333 -0.012321  -0.174679 -1.06765 -0.0148497  -0.196355 -1.00203 -0.0130787  -0.214736 -1.04886 -0.0135717  -0.154992 -1.01919 -0.0155387  -0.216657 -1.05002 -0.012845  -0.192912 -1.11499 -0.0151877  -0.235386 -1.09699 -0.0132914  -0.211603 -1.16256 -0.0156035  -0.233554 -1.09592 -0.0139866  -0.252774 -1.14327 -0.0145049  -0.191168 -1.11385 -0.0161629  -0.254524 -1.1442 -0.0138359  -0.230674 -1.21034 -0.0159755  -0.274032 -1.19164 -0.0143261  -0.250145 -1.25829 -0.0164294  -0.272362 -1.19079 -0.0149579  -0.292289 -1.23854 -0.0154991  -0.229084 -1.20942 -0.0168571  -0.29389 -1.23928 -0.0148969  -0.269945 -1.3064 -0.0168405  -0.314059 -1.28709 -0.015399  -0.290086 -1.35465 -0.0173097  -0.312536 -1.28643 -0.0159698  -0.333086 -1.33451 -0.0165253  -0.268494 -1.30568 -0.0176272  -0.33453 -1.33506 -0.0159769  -0.310498 -1.40302 -0.017746  -0.355265 -1.38317 -0.0165105  -0.331203 -1.45149 -0.0182543  -0.353891 -1.38269 -0.0170259  -0.374942 -1.43101 -0.0176024  -0.309188 -1.40248 -0.0184488  -0.376255 -1.4314 -0.0171161  -0.352135 -1.50004 -0.0187244  -0.397455 -1.47973 -0.0176616  -0.373306 -1.54866 -0.0192423  -0.39621 -1.47939 -0.0181236  -0.417691 -1.5279 -0.0187111  -0.350948 -1.49965 -0.0193448  -0.418865 -1.52814 -0.0182734  -0.394658 -1.59734 -0.019733  -0.440449 -1.57662 -0.0188456  -0.416205 -1.64604 -0.0202799  -0.439334 -1.57643 -0.0192533  -0.461137 -1.62504 -0.0198531  -0.393595 -1.5971 -0.0202789  -0.4622 -1.62516 -0.0194716  -0.437896 -1.69477 -0.0207987  -0.484079 -1.67373 -0.0200515  -0.459737 -1.74352 -0.0213537  -0.483072 -1.67365 -0.0204105  -0.505146 -1.72233 -0.0210171  -0.436934 -1.69466 -0.0212688  -0.506089 -1.72234 -0.0206819  -0.481686 -1.79228 -0.0218854  -0.528199 -1.77096 -0.0212817  -0.503751 -1.84101 -0.0224657  -0.527303 -1.77099 -0.0215931  -0.549553 -1.81967 -0.0222106  -0.480829 -1.79227 -0.0222931  -0.550405 -1.81958 -0.0219274  -0.525891 -1.88973 -0.023026  -0.57267 -1.8682 -0.0225348  -0.548109 -1.93842 -0.0236135  -0.571862 -1.86832 -0.0228  -0.594248 -1.91698 -0.0234256  -0.525115 -1.88983 -0.0233645  -0.595002 -1.91679 -0.0231805  -0.570372 -1.98708 -0.0241857  -0.617372 -1.96537 -0.0238066  -0.592689 -2.03569 -0.0247951  -0.616652 -1.96558 -0.0240312  -0.639096 -2.01417 -0.0246606  -0.569678 -1.98727 -0.0244703  -0.639784 -2.01391 -0.0244617  -0.615029 -2.08425 -0.025383  -0.662203 -2.06242 -0.0250831  -0.637394 -2.13276 -0.0259962  -0.661549 -2.06268 -0.0252662  -0.684027 -2.11119 -0.0259004  -0.614395 -2.08451 -0.0256119  -0.68464 -2.11087 -0.0257378  -0.659755 -2.18121 -0.0265913  -0.707069 -2.15927 -0.0263767  -0.682125 -2.22958 -0.0272207  -0.706476 -2.1596 -0.0265236  -0.728929 -2.20798 -0.0271587  -0.65918 -2.18153 -0.0267735  -0.729499 -2.20761 -0.0270376  -0.704476 -2.27788 -0.0278401  -0.751897 -2.25589 -0.0276728  -0.72682 -2.32611 -0.0284677  -0.751347 -2.25626 -0.0277834  -0.773765 -2.30451 -0.0284238  -0.703937 -2.27825 -0.0279722  -0.774284 -2.30409 -0.0283332  -0.749128 -2.37426 -0.0290909  -0.796633 -2.35223 -0.0289855  -0.77142 -2.42233 -0.0297332  -0.796124 -2.35264 -0.0290623  -0.818464 -2.40073 -0.0297022  -0.748628 -2.37467 -0.0291853  -0.818957 -2.40029 -0.0296488  -0.793665 -2.47031 -0.0303674  -0.841225 -2.44827 -0.030293  -0.815873 -2.51821 -0.0310068  -0.840744 -2.44871 -0.0303354  -0.863001 -2.49664 -0.0309772  -0.793188 -2.47076 -0.0304174  -0.863453 -2.49617 -0.0309515  -0.838011 -2.56602 -0.0316377  -0.885606 -2.54397 -0.0316095  -0.860089 -2.61372 -0.0322886  -0.885158 -2.54444 -0.0316176  -0.907238 -2.59216 -0.0322657  -0.837562 -2.56649 -0.031651  -0.907677 -2.59167 -0.0322719  0.00454469 -0.00695354 -0.0122671  0.0040604 -0.00415385 -0.00993252  0.0135309 -0.0158659 -0.0197992  0.00445177 -0.00172621 -0.0142498  0.0135566 -0.00818181 -0.0200405  0 0 0  0 0 0  0.00462925 -0.00461483 -0.0167379  0 0 0  0.0108906 -0.0117539 -0.0156941  0.0240517 -0.0292736 -0.0228438  0.0192074 -0.023718 -0.0180821  0.0350004 -0.0442649 -0.0250487  0.0220414 -0.0188432 -0.0214653  0.0299284 -0.032322 -0.0232077  0.0270904 -0.0247909 -0.0276532  0.027649 -0.0379295 -0.0194821  0.0452379 -0.0622095 -0.0255013  0.03588 -0.0552503 -0.0196428  0.0547983 -0.0823042 -0.0258121  0.0380313 -0.0492624 -0.0230594  0.045438 -0.0686324 -0.0232077  0.0476347 -0.0565273 -0.0299969  0.0433511 -0.0749353 -0.0197306  0.0633012 -0.104665 -0.025537  0.0499902 -0.0969828 -0.0193596  0.0706729 -0.129372 -0.0252409  0.0520621 -0.0906833 -0.0227823  0.0577825 -0.115081 -0.02247  0.0654393 -0.0985708 -0.0298448  0.0555476 -0.121367 -0.0191064  0.0769359 -0.156019 -0.0247335  0.0600296 -0.147744 -0.0186553  0.0818667 -0.184838 -0.0242801  0.0622884 -0.141611 -0.021966  0.0657375 -0.170275 -0.0215778  0.0791181 -0.150013 -0.0288758  0.0632994 -0.176227 -0.0183616  0.085645 -0.215377 -0.0236926  0.0653881 -0.206438 -0.0179114  0.0880393 -0.247791 -0.0232029  0.0678488 -0.200715 -0.0210543  0.0688133 -0.233004 -0.0206828  0.0879525 -0.209719 -0.0276232  0.0662291 -0.238464 -0.0176377  0.0892582 -0.281713 -0.0226264  0.065859 -0.272002 -0.0172477  0.0891054 -0.317212 -0.022181  0.0684431 -0.266781 -0.0201993  0.0669203 -0.302133 -0.0198717  0.0916601 -0.276516 -0.0263267  0.0642517 -0.307065 -0.0170226  0.0877818 -0.354005 -0.0216517  0.061456 -0.343419 -0.0166931  0.0851451 -0.392108 -0.0212579  0.0640974 -0.338741 -0.0194488  0.0601671 -0.376671 -0.0191932  0.0902342 -0.349318 -0.0251074  0.0574906 -0.381046 -0.0165362  0.0813959 -0.431297 -0.0208015  0.0523866 -0.419761 -0.0162706  0.0763975 -0.471584 -0.0204787  0.0550125 -0.415629 -0.0188313  0.0488057 -0.455694 -0.0186381  0.0838387 -0.427126 -0.0240054  0.0461749 -0.459547 -0.0161753  0.0703515 -0.512771 -0.0200882  0.0389122 -0.500243 -0.0159783  0.0631645 -0.554852 -0.0198398  0.0414708 -0.496602 -0.0183468  0.0331647 -0.53844 -0.0182118  0.0727431 -0.509077 -0.0230498  0.0306256 -0.541817 -0.015933  0.0550009 -0.59769 -0.0195184  0.0213645 -0.584158 -0.0157943  0.0457807 -0.641278 -0.0193253  0.0238271 -0.580973 -0.0179806  0.0135943 -0.624292 -0.0179009  0.0573068 -0.594447 -0.0222454  0.0111654 -0.627241 -0.0158062  0.035679 -0.685473 -0.0190821  8.91685e-05 -0.670951 -0.0157299  0.0246197 -0.730283 -0.0189676  0.0024271 -0.668181 -0.0177369  -0.0095433 -0.712722 -0.0177193  0.0378774 -0.682642 -0.0215831  -0.0118374 -0.715271 -0.0157928  0.0127587 -0.775605 -0.0187988  -0.0245631 -0.760124 -0.0157871  3.38554e-05 -0.821426 -0.0187454  -0.0223557 -0.75773 -0.0176253  -0.0359062 -0.803291 -0.0176687  0.0148332 -0.77315 -0.0210857  -0.038054 -0.805482 -0.0159087  -0.0134095 -0.867663 -0.0186419  -0.0522585 -0.851273 -0.0159502  -0.0276301 -0.914309 -0.0186582  -0.0501981 -0.849224 -0.0176287  -0.0651487 -0.895611 -0.017724  -0.0114657 -0.865548 -0.0207181  -0.0671546 -0.897482 -0.0161204  -0.0424889 -0.961287 -0.0186224  -0.0826827 -0.94405 -0.0162206  -0.0580473 -1.00859 -0.0186925  -0.0807651 -0.942299 -0.0177498  -0.0969752 -0.989374 -0.0178885  -0.040678 -0.959464 -0.0205045  -0.0988336 -0.990957 -0.0164366  -0.074173 -1.05615 -0.0187235  -0.115541 -1.03815 -0.016593  -0.0909078 -1.10398 -0.0188565  -0.113767 -1.03668 -0.0179729  -0.13108 -1.08429 -0.0181708  -0.0724977 -1.05461 -0.0204153  -0.132792 -1.08561 -0.0168605  -0.10814 -1.15202 -0.0189419  -0.150534 -1.13331 -0.0170641  -0.125916 -1.20025 -0.0191197  -0.148904 -1.13208 -0.0183067  -0.167193 -1.18014 -0.0185418  -0.106601 -1.15072 -0.0204611  -0.16876 -1.18122 -0.0173669  -0.144126 -1.24864 -0.0192637  -0.187411 -1.22931 -0.017621  -0.162799 -1.29718 -0.019496  -0.185919 -1.22831 -0.0187306  -0.205045 -1.27669 -0.0190148  -0.142717 -1.24758 -0.0206127  -0.206475 -1.27757 -0.0179677  -0.181846 -1.34584 -0.0196905  -0.225905 -1.32596 -0.0182638  -0.201305 -1.3946 -0.0199614  -0.224547 -1.32516 -0.0192537  -0.244405 -1.37379 -0.0195699  -0.180565 -1.34497 -0.0208917  -0.245701 -1.37448 -0.0186415  -0.221081 -1.44344 -0.0202088  -0.265805 -1.42309 -0.0189795  -0.241197 -1.49235 -0.0205302  -0.264574 -1.42247 -0.0198517  -0.285035 -1.47127 -0.0202122  -0.219919 -1.44277 -0.0212588  -0.286209 -1.47178 -0.0193968  -0.261578 -1.54131 -0.0208173  -0.306868 -1.52054 -0.0197701  -0.282253 -1.5903 -0.0211692  -0.305759 -1.52009 -0.020534  -0.326736 -1.569 -0.0209203  -0.26053 -1.5408 -0.0217376  -0.32779 -1.56936 -0.0202103  -0.303146 -1.63931 -0.0214992  -0.34892 -1.61821 -0.0206156  -0.324272 -1.68833 -0.0218916  -0.347923 -1.6179 -0.0212789  -0.369303 -1.66686 -0.0217013  -0.302203 -1.63896 -0.0222893  -0.370251 -1.66708 -0.0210891  -0.345569 -1.73735 -0.0222611  -0.391747 -1.71596 -0.0215263  -0.367065 -1.78635 -0.0226855  -0.39085 -1.71578 -0.0220957  -0.412565 -1.76475 -0.0225415  -0.344724 -1.73713 -0.0229383  -0.413415 -1.76484 -0.0220222  -0.388694 -1.83532 -0.0230923  -0.435208 -1.81371 -0.0224919  -0.410467 -1.88426 -0.0235481  -0.434401 -1.81365 -0.0229731  -0.456362 -1.86257 -0.0234456  -0.387932 -1.83523 -0.0236573  -0.457125 -1.86255 -0.0230088  -0.432337 -1.93316 -0.023984  -0.479128 -1.91137 -0.0235019  -0.454325 -1.982 -0.0244675  -0.478409 -1.91141 -0.0239058  -0.50055 -1.96026 -0.0244012  -0.431654 -1.93317 -0.0244555  -0.501233 -1.96014 -0.0240436  -0.476379 -2.03079 -0.0249395  -0.523394 -2.00887 -0.0245638  -0.498507 -2.07951 -0.0254564  -0.522742 -2.00901 -0.0248904  -0.544992 -2.05774 -0.0254135  -0.475761 -2.0309 -0.0253158  -0.545615 -2.05754 -0.0251269  -0.520673 -2.12817 -0.0259557  -0.567865 -2.10616 -0.0256691  -0.542894 -2.17675 -0.0264926  -0.567273 -2.10638 -0.0259323  -0.589594 -2.15498 -0.0264702  -0.520111 -2.12836 -0.0262566  -0.590158 -2.15471 -0.0262451  -0.565127 -2.22525 -0.0270233  -0.612457 -2.20319 -0.0268097  -0.587381 -2.27368 -0.0275888  -0.611913 -2.20348 -0.0270104  -0.634245 -2.25192 -0.0275731  -0.564606 -2.22553 -0.0272498  -0.634768 -2.25159 -0.0274067  -0.609624 -2.32201 -0.0281482  -0.657061 -2.29991 -0.0279937  -0.631881 -2.37026 -0.0287352  -0.656554 -2.30025 -0.0281401  -0.678877 -2.34854 -0.0287147  -0.609138 -2.32234 -0.0283155  -0.679366 -2.34816 -0.0286016  -0.654115 -2.41842 -0.0293183  -0.701637 -2.39631 -0.0292034  -0.676341 -2.4665 -0.0299263  -0.701158 -2.3967 -0.0292993  -0.723431 -2.4448 -0.0298924  -0.653649 -2.41881 -0.0294232  -0.723897 -2.44439 -0.0298262  -0.698529 -2.51448 -0.0305176  -0.746109 -2.49237 -0.0304356  -0.720703 -2.56237 -0.0311246  -0.745656 -2.49279 -0.0304914  -0.767868 -2.54072 -0.0310788  -0.698081 -2.51488 -0.0305743  -0.768306 -2.54027 -0.0310555  -0.742833 -2.61018 -0.0317268  -0.790438 -2.58807 -0.0316715  -0.764913 -2.65791 -0.0323434  -0.790006 -2.58852 -0.0316796  -0.812079 -2.63626 -0.0322814  -0.742399 -2.61061 -0.0317216  -0.8125 -2.6358 -0.0322995  0.00691605 -0.0146955 -0.0167003  0.00632544 -0.0100718 -0.0147729  0.0214989 -0.0275905 -0.0270839  0.00678989 -0.00781465 -0.0207915  0.0210113 -0.0180259 -0.0305309  0 0 0  0 0 0  0.00694349 -0.0125046 -0.0228267  0 0 0  0.0170721 -0.021288 -0.023766  0.036858 -0.0434905 -0.0316086  0.0301122 -0.0358357 -0.0276651  0.0522561 -0.0602029 -0.0352616  0.0341268 -0.0313253 -0.0328269  0.0458844 -0.0465703 -0.0359468  0.0409255 -0.0392358 -0.0382681  0.0428295 -0.0518759 -0.0304265  0.0665743 -0.0786409 -0.0365167  0.0554019 -0.0700034 -0.0311832  0.0797436 -0.0994816 -0.0373893  0.0579772 -0.0643572 -0.0363417  0.0689855 -0.0845577 -0.0368843  0.0695124 -0.0732201 -0.0426974  0.0667177 -0.0905514 -0.0317335  0.0918573 -0.122233 -0.0373411  0.077141 -0.113092 -0.0315151  0.102627 -0.147494 -0.0371003  0.0791966 -0.107064 -0.0366087  0.0883587 -0.132014 -0.0362434  0.0940599 -0.116371 -0.0433345  0.0862713 -0.138094 -0.0312495  0.112261 -0.174721 -0.0364652  0.0942304 -0.165023 -0.0306501  0.120489 -0.20417 -0.035789  0.0962602 -0.159066 -0.0355864  0.103005 -0.188328 -0.0349059  0.114257 -0.168875 -0.042253  0.100882 -0.194143 -0.0300903  0.127471 -0.23545 -0.0349059  0.106238 -0.225055 -0.0293384  0.132988 -0.268624 -0.0340648  0.108342 -0.219425 -0.0340424  0.112456 -0.252423 -0.0332375  0.129456 -0.229889 -0.0404205  0.110255 -0.257833 -0.0286784  0.137209 -0.303383 -0.0331163  0.112947 -0.292178 -0.0278997  0.139965 -0.339736 -0.0322695  0.115132 -0.286986 -0.0323319  0.11657 -0.32316 -0.0315456  0.139241 -0.298225 -0.0383062  0.114308 -0.328091 -0.0272641  0.141435 -0.377436 -0.0313501  0.11436 -0.365342 -0.0265241  0.141482 -0.416461 -0.0305552  0.116596 -0.360637 -0.0306654  0.115388 -0.399473 -0.0299144  0.143507 -0.37274 -0.0361934  0.113111 -0.403897 -0.025929  0.140276 -0.4566 -0.0296755  0.110609 -0.443567 -0.0252542  0.137711 -0.49784 -0.028933  0.112843 -0.439362 -0.0290918  0.109126 -0.480379 -0.0284214  0.14235 -0.45238 -0.0341587  0.106875 -0.484329 -0.0247335  0.13398 -0.539989 -0.0281625  0.101961 -0.526008 -0.024138  0.128974 -0.583042 -0.0275111  0.10416 -0.522261 -0.0276804  0.0981013 -0.565084 -0.0270896  0.136025 -0.53622 -0.0323005  0.095911 -0.568575 -0.0236926  0.122894 -0.626833 -0.0268321  0.0887729 -0.6119 -0.0231843  0.115633 -0.671368 -0.0262728  0.0908972 -0.608592 -0.0264378  0.0826734 -0.65289 -0.0259318  0.124885 -0.623492 -0.0306268  0.0805666 -0.655966 -0.0228205  0.107387 -0.716493 -0.0256939  0.0713773 -0.700634 -0.0223918  0.0980712 -0.762225 -0.0252309  0.0734111 -0.697732 -0.0253716  0.0632262 -0.743223 -0.0249457  0.109297 -0.713548 -0.0291572  0.0612184 -0.74591 -0.0221052  0.0878595 -0.808425 -0.0247364  0.0501701 -0.79168 -0.0217676  0.076671 -0.855113 -0.0243459  0.0520933 -0.789152 -0.0244799  0.0401219 -0.835611 -0.0241446  0.0896671 -0.805846 -0.0278845  0.038241 -0.837942 -0.0215549  0.0646867 -0.90218 -0.0239449  0.0255077 -0.884606 -0.0212979  0.0518174 -0.949629 -0.0236588  0.0273154 -0.882409 -0.0237579  0.0137541 -0.929645 -0.0235057  0.0663847 -0.89993 -0.0268006  0.0119922 -0.931663 -0.0211687  0.0382423 -0.99736 -0.0233498  -0.00223982 -0.979032 -0.0209918  0.0238781 -1.0454 -0.0231361  -0.000555873 -0.977127 -0.0232091  -0.015547 -1.02498 -0.0230246  0.0398359 -0.995418 -0.0259171  -0.0171729 -1.02671 -0.0209236  0.00888515 -1.09365 -0.0229058  -0.032747 -1.07463 -0.0208216  -0.0068121 -1.14214 -0.0227766  -0.0311931 -1.07301 -0.0228152  -0.0474405 -1.12133 -0.0227103  0.0103569 -1.09199 -0.0252051  -0.0489436 -1.1228 -0.0208268  -0.0230594 -1.1908 -0.0226297  -0.0656986 -1.17116 -0.0207882  -0.0399265 -1.23962 -0.0225611  -0.0642676 -1.16978 -0.0225663  -0.0816259 -1.21847 -0.022522  -0.021704 -1.18939 -0.0246825  -0.0829988 -1.21969 -0.0208502  -0.0572715 -1.28855 -0.0224862  -0.100789 -1.26836 -0.0208783  -0.0751648 -1.33761 -0.0224957  -0.099483 -1.26722 -0.0224628  -0.117802 -1.31616 -0.0224876  -0.0560305 -1.28737 -0.0243011  -0.119057 -1.31717 -0.0210018  -0.0934691 -1.38673 -0.0224953  -0.137743 -1.36607 -0.0210938  -0.112248 -1.43594 -0.0225654  -0.136551 -1.36513 -0.0224895  -0.155709 -1.41426 -0.0225687  -0.09234 -1.38576 -0.024097  -0.156845 -1.41507 -0.0212679  -0.131376 -1.48518 -0.0226202  -0.176307 -1.46412 -0.0214186  -0.150917 -1.53447 -0.0227523  -0.175231 -1.46337 -0.0226412  -0.195097 -1.51259 -0.0227828  -0.130353 -1.4844 -0.0240135  -0.196125 -1.51322 -0.0216465  -0.170752 -1.58376 -0.0228739  -0.216242 -1.56236 -0.0218482  -0.190933 -1.63306 -0.023056  -0.215269 -1.56178 -0.0229053  -0.235737 -1.61105 -0.0230923  -0.169832 -1.58315 -0.0240808  -0.236657 -1.61152 -0.0221143  -0.211357 -1.68234 -0.0232263  -0.257323 -1.66067 -0.0223627  -0.232076 -1.73161 -0.0234618  -0.256451 -1.66025 -0.0232749  -0.277406 -1.7095 -0.0235171  -0.210529 -1.6819 -0.0242586  -0.278235 -1.70983 -0.0226827  -0.252988 -1.78084 -0.0236917  -0.299347 -1.75896 -0.0229769  -0.274142 -1.83004 -0.0239749  -0.298568 -1.75868 -0.0237465  -0.319924 -1.80788 -0.0240278  -0.252246 -1.78054 -0.0245619  -0.320661 -1.80806 -0.0233316  -0.295444 -1.87917 -0.0242538  -0.342132 -1.85712 -0.0236726  -0.316944 -1.92826 -0.0245848  -0.341431 -1.85698 -0.0243187  -0.363093 -1.90607 -0.0246477  -0.294779 -1.879 -0.0249753  -0.363761 -1.90614 -0.0240684  -0.338554 -1.97726 -0.0249162  -0.385506 -1.95511 -0.0244532  -0.360318 -2.02621 -0.0252914  -0.384875 -1.95507 -0.0249782  -0.406781 -2.00405 -0.0253444  -0.337956 -1.97722 -0.025506  -0.407373 -2.00401 -0.0248814  -0.38216 -2.07507 -0.0256586  -0.429324 -2.05284 -0.0252995  -0.40412 -2.12385 -0.0260763  -0.428758 -2.05291 -0.0257254  -0.450819 -2.10173 -0.0261354  -0.381616 -2.07513 -0.0261264  -0.451361 -2.1016 -0.0257673  -0.426128 -2.17254 -0.0264964  -0.473452 -2.15028 -0.0262275  -0.448215 -2.22116 -0.0269527  -0.472931 -2.15044 -0.026556  -0.495101 -2.19911 -0.027  -0.42563 -2.1727 -0.0268588  -0.495596 -2.19889 -0.0267234  -0.470323 -2.26967 -0.0274143  -0.517768 -2.2474 -0.0272202  -0.492483 -2.31809 -0.0279202  -0.517287 -2.24764 -0.0274701  -0.539501 -2.29612 -0.0279598  -0.469857 -2.26991 -0.0276814  -0.53997 -2.29583 -0.0277581  -0.514641 -2.36642 -0.0284281  -0.562172 -2.34417 -0.0282907  -0.536825 -2.41465 -0.028965  -0.561713 -2.34447 -0.0284638  -0.583944 -2.39277 -0.0289826  -0.514195 -2.36673 -0.0286155  -0.584384 -2.39242 -0.0288501  -0.558991 -2.46278 -0.0295124  -0.606582 -2.44057 -0.029417  -0.581167 -2.51082 -0.0300927  -0.606144 -2.44092 -0.0295281  -0.628348 -2.48902 -0.0300837  -0.558555 -2.46315 -0.0296254  -0.628782 -2.48863 -0.0300102  -0.603314 -2.55878 -0.0306692  -0.65095 -2.5366 -0.0305929  -0.625458 -2.60665 -0.0312562  -0.650516 -2.53698 -0.0306468  -0.672687 -2.5849 -0.0312037  -0.602882 -2.55918 -0.0307255  -0.673104 -2.58449 -0.0311856  -0.647574 -2.65445 -0.0318437  -0.695228 -2.63229 -0.0317798  -0.669687 -2.7022 -0.0324388  -0.694811 -2.6327 -0.0317822  -0.716902 -2.68046 -0.0323524  -0.647144 -2.65487 -0.0318408  -0.717307 -2.68004 -0.0323782  0.0108692 -0.0286735 -0.0205088  0.010109 -0.020101 -0.018539  0.0356172 -0.0479137 -0.0322194  0.0106356 -0.0179695 -0.0260205  0.0319367 -0.032927 -0.038609  0 0 0  0 0 0  0.0105418 -0.0267028 -0.0282197  0 0 0  0.0264785 -0.0366724 -0.029695  0.0561215 -0.0618027 -0.0400691  0.045228 -0.0521994 -0.0359669  0.0737941 -0.0793334 -0.0452642  0.0502343 -0.0475613 -0.0430179  0.0657682 -0.0643241 -0.0476127  0.0622246 -0.0569533 -0.048049  0.0620424 -0.0696141 -0.0402627  0.0916557 -0.0976924 -0.0473428  0.0785618 -0.0879024 -0.0419507  0.10796 -0.11877 -0.0488291  0.0815437 -0.0823184 -0.0489569  0.0958088 -0.103101 -0.0500736  0.0953113 -0.0920684 -0.0554104  0.093394 -0.108944 -0.0431061  0.123431 -0.142199 -0.0488009  0.107214 -0.131965 -0.0431232  0.137615 -0.167954 -0.0486279  0.109333 -0.126053 -0.0499997  0.121706 -0.151551 -0.0496659  0.125715 -0.136335 -0.0566978  0.119728 -0.157456 -0.0429058  0.150535 -0.196053 -0.0477505  0.130959 -0.185086 -0.042171  0.162049 -0.226229 -0.0468583  0.132833 -0.179253 -0.0488124  0.142756 -0.209192 -0.0478582  0.152415 -0.190302 -0.0553374  0.140862 -0.214869 -0.0413837  0.172166 -0.25841 -0.0456395  0.149369 -0.24658 -0.0403419  0.180741 -0.292428 -0.0444999  0.151223 -0.241062 -0.0466547  0.158367 -0.27485 -0.0454683  0.173975 -0.25299 -0.0528245  0.156453 -0.280153 -0.0393476  0.187888 -0.32814 -0.0431838  0.162101 -0.31537 -0.0381975  0.193447 -0.365421 -0.0419559  0.163991 -0.310256 -0.0441318  0.168265 -0.347301 -0.0429034  0.189718 -0.323112 -0.0499225  0.166315 -0.352173 -0.0371733  0.197616 -0.404076 -0.0406313  0.169102 -0.390344 -0.036037  0.200198 -0.444061 -0.0394292  0.171018 -0.385678 -0.0415621  0.172438 -0.425434 -0.0403571  0.199478 -0.399491 -0.0468879  0.170477 -0.429836 -0.0350428  0.201469 -0.485147 -0.0381889  0.170477 -0.470449 -0.0339766  0.201186 -0.527347 -0.0370736  0.172404 -0.466243 -0.0390854  0.171066 -0.508203 -0.0379605  0.203335 -0.481015 -0.0439653  0.169116 -0.512162 -0.0330553  0.199686 -0.570437 -0.0359516  0.166468 -0.554783 -0.0320892  0.196743 -0.614432 -0.0349483  0.168374 -0.55101 -0.036798  0.164466 -0.594772 -0.0357695  0.201548 -0.566723 -0.0412607  0.162553 -0.598305 -0.031261  0.192662 -0.659143 -0.0339069  0.157444 -0.642559 -0.0303922  0.187239 -0.704593 -0.0330048  0.159295 -0.639201 -0.0347071  0.153006 -0.684424 -0.0337858  0.194482 -0.655836 -0.0387654  0.151157 -0.687556 -0.0296698  0.180798 -0.750581 -0.0320878  0.143778 -0.73312 -0.0289116  0.173092 -0.797175 -0.0312996  0.145566 -0.730148 -0.032845  0.137092 -0.776531 -0.0320311  0.182554 -0.747653 -0.0365114  0.135328 -0.779289 -0.028286  0.164483 -0.84418 -0.0304942  0.125885 -0.8259 -0.0276299  0.154721 -0.891673 -0.0297995  0.127584 -0.823295 -0.0311947  0.117143 -0.870586 -0.030489  0.166153 -0.841616 -0.0344958  0.115471 -0.873003 -0.0271015  0.144165 -0.939464 -0.02912  0.104164 -0.92044 -0.0265393  0.132552 -0.98765 -0.0285325  0.105766 -0.918157 -0.029767  0.0935421 -0.966161 -0.0291634  0.145746 -0.937221 -0.0327311  0.0919741 -0.968262 -0.0261045  0.120237 -1.03605 -0.0279408  0.0790018 -1.01634 -0.0256529  0.106969 -1.08475 -0.0274639  0.0804945 -1.01436 -0.0285597  0.0666822 -1.06291 -0.0280552  0.121711 -1.03409 -0.031189  0.0652331 -1.06472 -0.0253115  0.0930896 -1.1336 -0.0269828  0.0507679 -1.11328 -0.0249519  0.0783453 -1.18268 -0.0265923  0.0521446 -1.11158 -0.0275488  0.0369351 -1.16053 -0.0271354  0.0944512 -1.13193 -0.0298853  0.0355926 -1.16208 -0.0246944  0.063076 -1.23185 -0.0262084  0.0198078 -1.211 -0.0244284  0.0470474 -1.28119 -0.0259209  0.0210829 -1.20955 -0.0267391  0.00462008 -1.25879 -0.0264206  0.064343 -1.23042 -0.028779  0.00339627 -1.26009 -0.0242538  0.0305567 -1.33056 -0.0256381  -0.0135465 -1.30926 -0.0240707  0.0133786 -1.38007 -0.0254345  -0.012382 -1.30803 -0.0261159  -0.0299151 -1.35745 -0.025878  0.031714 -1.32936 -0.0279117  -0.0310419 -1.35855 -0.0239701  -0.00417733 -1.42957 -0.0252261  -0.0489967 -1.40787 -0.0238695  -0.022336 -1.47915 -0.0250974  -0.0479355 -1.40686 -0.0256619  -0.0664232 -1.45639 -0.025506  -0.00311995 -1.42857 -0.0272164  -0.0674343 -1.45728 -0.02384  -0.0408211 -1.52869 -0.0249763  -0.0862641 -1.50668 -0.0238018  -0.0598447 -1.57828 -0.0249219  -0.0853062 -1.50586 -0.0253639  -0.104591 -1.55542 -0.025279  -0.0398679 -1.52789 -0.0267053  -0.10551 -1.55613 -0.023839  -0.0791235 -1.62781 -0.0248661  -0.125088 -1.60555 -0.0238729  -0.0988646 -1.67735 -0.0248847  -0.124229 -1.60491 -0.0252194  -0.144208 -1.65445 -0.0252094  -0.0782628 -1.62718 -0.0263491  -0.145024 -1.65499 -0.0239763  -0.118821 -1.72681 -0.0249119  -0.165235 -1.70437 -0.0240755  -0.139188 -1.77626 -0.0249934  -0.164462 -1.70389 -0.0252194  -0.185004 -1.75335 -0.0252705  -0.118054 -1.72635 -0.0261693  -0.185745 -1.75374 -0.0242281  -0.159702 -1.82561 -0.0250788  -0.206479 -1.80304 -0.0243917  -0.180564 -1.87493 -0.0252266  -0.205787 -1.8027 -0.025353  -0.226812 -1.85207 -0.0254693  -0.159011 -1.82529 -0.0261321  -0.227463 -1.85231 -0.0246058  -0.201545 -1.92413 -0.0253816  -0.248621 -1.90149 -0.0248203  -0.222828 -1.97329 -0.025589  -0.248005 -1.90129 -0.0256157  -0.269387 -1.9505 -0.0257888  -0.200929 -1.92395 -0.0262475  -0.269984 -1.95062 -0.025085  -0.244174 -2.02232 -0.0258007  -0.291478 -1.99965 -0.025362  -0.265763 -2.0713 -0.0260692  -0.290923 -1.99957 -0.0260062  -0.312608 -2.04863 -0.0262437  -0.243614 -2.02226 -0.026494  -0.313132 -2.04862 -0.025682  -0.2874 -2.12014 -0.0263491  -0.334888 -2.09748 -0.0260096  -0.30925 -2.16892 -0.0266724  -0.334383 -2.09752 -0.0265164  -0.356275 -2.14638 -0.0268025  -0.2869 -2.12019 -0.0268927  -0.356765 -2.14628 -0.0263729  -0.331099 -2.21757 -0.0270033  -0.378707 -2.19496 -0.0267539  -0.353109 -2.26614 -0.0273848  -0.378243 -2.19509 -0.0271416  -0.400292 -2.24376 -0.027493  -0.330631 -2.21772 -0.027411  -0.400735 -2.24356 -0.027174  -0.375107 -2.31458 -0.0277815  -0.422801 -2.29205 -0.0276051  -0.397239 -2.36295 -0.0282173  -0.422368 -2.29227 -0.0278869  -0.444491 -2.34073 -0.0282884  -0.374674 -2.31482 -0.0280762  -0.44492 -2.34045 -0.0280671  -0.419319 -2.41118 -0.0286694  -0.467048 -2.38874 -0.0285559  -0.441491 -2.45934 -0.0291691  -0.46663 -2.38904 -0.028749  -0.488799 -2.4373 -0.0292096  -0.418897 -2.4115 -0.0288644  -0.489209 -2.43695 -0.0290709  -0.463618 -2.50738 -0.0296879  -0.511363 -2.48504 -0.0296049  -0.48581 -2.55535 -0.0302367  -0.51095 -2.4854 -0.0297222  -0.533104 -2.53345 -0.030231  -0.463201 -2.50776 -0.0297999  -0.533523 -2.53306 -0.0301609  -0.507933 -2.60322 -0.0307989  -0.555659 -2.58098 -0.0307407  -0.53008 -2.65103 -0.0313873  -0.555239 -2.58137 -0.0307965  -0.57738 -2.62925 -0.0313492  -0.507503 -2.60363 -0.0308466  -0.577793 -2.62883 -0.0313292  -0.552198 -2.69878 -0.0319886  -0.599913 -2.67661 -0.0319219  -0.574337 -2.74651 -0.0325885  -0.59949 -2.67702 -0.0319266  -0.621608 -2.72476 -0.0324855  -0.551764 -2.69922 -0.0319958  -0.622024 -2.72435 -0.0325074  
SCALARS smooth_stress float 1
LOOKUP_TABLE default
2671.47 3164.92 2554.97 2451.9 2373.02 2261.09 2121.35 1967.09 1807.25 1647.93 1492 1343.35 1202.01 1069.37 944.469 829.092 721.34 622.327 530.546 447.4 371.713 303.945 242.897 189.552 143.054 104.343 72.5495 48.0403 30.0605 20.3824 14.5828 9.52398 2.00007 2365.2 3494.23 2703.27 2620.33 2629.97 2606.95 2520.9 2385.53 2220.73 2043.21 1862.41 1686.59 1518.42 1360.07 1211.19 1073.77 945.192 827.701 718.771 619.844 529.594 448.969 376.109 312.267 255.339 207.001 164.28 128.252 95.0662 67.1041 41.3583 21.4173 4.85228 1340.37 1923.81 1602.01 1716.33 1817.29 1865.22 1847.2 1780.14 1680.13 1563.97 1442.28 1322.25 1206.07 1097.48 994.886 900.592 812.114 730.313 654.57 585.54 520.768 461.594 405.839 355.972 308.552 264.543 222.444 183.266 144.158 107.44 70.5884 35.6703 7.55508 593.089 1177.68 1306.59 1554.98 1658.91 1679.52 1644.12 1574.69 1484.77 1386.77 1287.88 1192.42 1101.34 1016.48 937.354 863.975 794.425 730.172 668.858 611.847 557.005 505.016 453.846 405.641 357.864 311.754 265.225 220.707 176.163 133.678 90.8693 47.3767 10.155 788.319 1560.17 1965.29 2163 2169.8 2094.09 1982.39 1854.87 1720.59 1589.86 1465.12 1349.83 1242.25 1144.19 1052.53 968.906 890.349 817.21 747.655 683.867 621.28 562.561 505.34 450.609 396.621 344.559 292.613 242.779 193.15 146.361 100.018 52.791 11.4425 1685.8 2787.4 3054.23 3127.34 3026.08 2856.22 2661.09 2459.93 2259.2 2068.56 1888.63 1722.87 1568.54 1428.37 1298.55 1179.84 1069.83 968.588 873.647 786.765 705.007 628.775 556.086 489.188 423.877 363.592 304.978 249.951 196.056 145.124 96.9348 51.9702 11.872 2845.22 4331.88 4288.65 4208.43 4011.62 3765.33 3497.03 3221.7 2949.79 2689.84 2443.43 2214.57 2001.24 1805.38 1624.28 1458.15 1304.55 1163.88 1033.4 914.667 803.718 702.818 608.96 523.706 443.539 371.302 304.219 243.287 185.63 133.044 83.9787 43.912 10.4739 4527.85 6054.58 5569.39 5337.75 5070.98 4762.08 4423.34 4073.48 3725.93 3391.02 3071.78 2773.01 2495.33 2238.67 2000.72 1782.19 1579.83 1394.71 1223.48 1067.35 922.762 791.03 670.737 561.954 462.553 373.927 294.596 224.856 162.787 109.719 64.6024 31.3715 7.52335 1420 2510.29 2089.71 1990.26 1897.52 1789.16 1666.98 1538.36 1408.79 1282.39 1161.83 1048.63 942.855 845.02 754.463 670.976 593.671 522.943 457.861 397.798 342.809 292.347 246.312 204.82 167.182 133.706 103.55 77.538 54.8132 35.831 20.2927 9.98824 2.7057 2960.63 5252.15 4689.77 4350.86 4016.82 3680.58 3354.28 3046.57 2760.49 2494.48 2246.88 2015.13 1799.42 1597.36 1409.7 1235 1072.95 922.823 785.753 660.005 546.416 443.49 352.867 271.758 203.091 143.761 97.1965 61.0932 37.6559 25.9784 21.1549 15.158 4.08201 2556.59 7985.84 7316.44 6748.24 6316.22 5939.19 5547.34 5135.99 4717.94 4306.21 3906.92 3526.07 3165.89 2827.99 2511.19 2217.12 1945.08 1693.1 1461.49 1249.62 1058.08 885.22 730.753 594.321 475.66 373.558 287.436 216.456 157.054 109.211 70.9474 41.914 14.2757 1414.94 4579.21 4497.17 4346.93 4187.19 4057.23 3893.41 3683.32 3440.45 3181.93 2920.53 2666.11 2422.75 2193.95 1979.84 1779.91 1595.72 1424.4 1267.15 1122.36 989.356 868.487 757.298 656.845 564.914 480.21 402.457 330.256 261.599 194.491 130.13 68.4648 21.4626 706.804 2771.89 3086.99 3314.34 3332.75 3277.98 3170.39 3017.67 2840.67 2649.59 2458.86 2272.7 2096.61 1930.91 1777.53 1633 1499.16 1373.46 1255.77 1144.42 1040.16 940.984 845.782 754.619 666.997 580.423 496.255 413.567 333.395 252.728 175.218 94.6894 27.9013 917.247 2817.23 3783.79 4084.37 4037.52 3871.01 3656.34 3420.22 3178.43 2940.51 2715.64 2505.09 2310.49 2130.38 1963.45 1809.6 1665.44 1530.75 1404.17 1284.46 1170.02 1060.51 955.103 852.985 754.127 656.543 560.812 466.434 375.049 285.425 199.184 111.87 32.9053 1928.57 4829.06 5853.43 5967.76 5719.76 5366.6 4984.1 4602.11 4229.8 3875.04 3543.96 3236.47 2953.79 2693.27 2454.1 2233.31 2030.04 1840.93 1665.07 1501.33 1349.63 1204.75 1070.39 941.974 820.919 705.366 594.947 489.225 387.802 290.116 198.714 113.663 34.7487 3362.28 7674.15 8398.88 8208.99 7744.8 7219.33 6681.28 6148.73 5630.15 5135.41 4671.69 4238.32 3836.7 3465.6 3124.23 2808.47 2518.73 2250.75 2004.6 1776.24 1565.94 1371.68 1192.71 1027.33 875.211 734.254 605.152 485.773 375.676 272.611 179.009 101.075 33.3182 5626.32 11048.9 11078.8 10530.7 9896.78 9235.94 8558.04 7875.92 7205.67 6561.57 5953.2 5380.78 4849.82 4355.95 3901.12 3479.18 3091.93 2733.24 2405.06 2101.26 1823.83 1567.26 1334.72 1121.61 929.77 754.583 599.783 460.88 339.903 233.076 144.97 75.0177 25.2101 2417.31 7068.72 6392.73 6001.65 5669.76 5323.69 4953.12 4569.46 4187.53 3814.45 3459.89 3124.86 2813.76 2523.7 2256.84 2008.29 1780.67 1569.16 1376.43 1197.5 1034.35 883.291 747.106 621.554 510.023 408.358 318.917 239.278 171.286 112.926 66.9857 33.1705 11.9959 2870.23 5104.55 4838.8 4638.4 4303.84 3912.73 3519.26 3152.97 2821.03 2523.61 2254.71 2010.93 1788.07 1582.7 1392.72 1217.68 1055.29 906.135 769.285 645.082 531.729 429.71 339.259 259.946 191.831 134.342 87.9877 53.7361 32.921 23.5429 19.5744 14.1802 3.72863 2109.81 7272.25 8045.24 7655.36 7052.02 6446.41 5858.61 5301.76 4785.2 4309.08 3872.73 3471.67 3102.36 2760.52 2443.88 2150.43 1880.19 1630.8 1402.25 1193.92 1005.41 834.439 683.543 550.611 436.223 337.822 255.731 189.61 136.122 95.2176 61.7285 37.4896 13.1943 1083.22 3914 5188.87 5100.21 4722.9 4356.7 4013.95 3684.28 3369.26 3070.65 2791.17 2530.01 2287.76 2062.59 1855.04 1661.4 1483.69 1320 1169.49 1031.36 905.517 790.625 686.168 592.161 507.934 430.111 359.35 293.901 232.448 172.33 114.153 59.56 19.3587 665.22 2649.83 3757.33 3841.19 3599.54 3337.61 3097.24 2869.97 2653.93 2449.24 2258.51 2080.02 1914.47 1761.07 1619.66 1487.28 1364.3 1250.15 1142.32 1040.86 945.387 854.746 768.277 685.822 606.607 527.429 451.613 375.91 302.627 228.969 157.068 83.7236 23.7856 910.629 2933.6 4265.9 4381.1 4114.68 3798 3500.77 3225.11 2970.67 2736.21 2520.49 2322.64 2141.04 1974.54 1820.66 1678.29 1544.55 1420.1 1302.5 1190.85 1084.4 982.396 884.076 788.992 697.618 606.127 517.38 429.869 345.323 261.566 180.33 100.779 28.6708 1750.96 4629.85 6129.06 6177.08 5772.72 5306.24 4863.69 4453.25 4074.78 3724.84 3402.25 3105.22 2833.59 2583.36 2352.75 2139.64 1943.21 1759.63 1589.61 1430.74 1283.9 1143.86 1013.33 889.578 772.986 662.032 556.26 455.301 359.843 268.388 181.684 103.188 32.2966 3069 7051.1 8569.23 8420.04 7836.32 7211.28 6615.74 6055.38 5529.58 5037.97 4579.38 4154.95 3761.23 3398.14 3062.21 2751.72 2465.45 2201.32 1956.77 1730.95 1522.77 1330.5 1153.04 989.817 838.722 700.859 574.263 457.72 351.242 253.835 165.227 93.389 31.4276 5351.09 10136 11163.3 10735.1 10008.7 9260.97 8527.86 7820.58 7143.62 6499.9 5895.52 5331.22 4806.87 4319.6 3869.25 3451.72 3066.3 2710.49 2383.53 2081.04 1803.49 1547.94 1315 1101.47 908.913 734.951 580.407 442.836 324.075 220.795 135.66 71.4806 25.3885 2342.68 6444.54 6454.37 6113.84 5729.85 5340.75 4942.07 4545.24 4158.68 3786.6 3434.87 3104.45 2796.92 2510.6 2245.81 2000.13 1773.59 1563.8 1370.94 1192.89 1029.61 879.357 742.372 616.887 504.083 402.645 312.854 233.417 165.66 108.834 63.985 31.8125 11.4161 2883.86 5141.45 4775.81 4650.85 4376.31 4003.73 3602.27 3215.14 2862.34 2545.52 2263.6 2010.14 1781.89 1572.68 1381.72 1204.91 1043.79 894.724 759.013 633.925 521.966 420.444 331.221 251.768 185.132 128.278 83.5387 50.3509 31.5152 23.9743 19.3223 12.9469 3.21833 1942.7 7220.39 8037.27 7806.24 7293.07 6688.58 6055.97 5438.47 4866.48 4346.05 3878.17 3456.13 3075.15 2726.83 2407.99 2113.34 1843.5 1595.45 1368.82 1162.03 975.282 806.22 657.327 526.721 414.247 318.497 239.35 175.027 125.639 88.2509 57.1042 33.485 11.3356 947.663 3754 5293.55 5320.78 4962.34 4549.37 4138.34 3745.38 3379.49 3045.35 2742.53 2468.7 2221.16 1994.52 1787.77 1596.43 1421.58 1261.65 1115.13 981.105 858.729 747.741 646.877 557.315 476.897 404.118 336.883 274.631 217.329 160.325 105.551 53.8954 17.2418 665.864 2670.07 3972.68 4079.77 3781.3 3434.87 3118.42 2836.05 2584.61 2359.19 2158.92 1978.2 1815.74 1666.76 1530.93 1404.04 1287.45 1178.45 1077.36 981.918 892.11 806.341 724.844 646.702 572.672 499.506 427.12 354.85 285.131 215.295 145.517 76.6677 21.9426 954.875 3085.32 4493.89 4590.18 4233 3824.45 3460.27 3145.88 2872.18 2631.55 2416.53 2224.31 2048.54 1889.2 1741.51 1605.44 1477.27 1358.08 1245.58 1139.28 1037.22 940.135 845.265 754.115 665.948 579.823 493.644 409.595 327.442 247.59 169.226 92.8698 25.8161 1711.3 4623.44 6230.33 6324.15 5865.32 5325.43 4830.24 4392.14 4001.25 3649.27 3329.9 3038.76 2771.8 2526.67 2300.72 2092.39 1899.07 1718.89 1551.8 1395.42 1249.7 1112.53 983.675 861.864 747.765 639.079 535.819 437.291 344.715 256.178 172.533 97.3046 29.6032 2985.69 6867.92 8534.78 8516.26 7926.56 7248.52 6609.8 6024.84 5488.26 4994.76 4537.92 4117.65 3727.88 3368.73 3035.9 2728.43 2443.14 2180.35 1936.91 1711.99 1503.86 1312.95 1135.34 972.922 822.103 684.684 558.724 443.556 338.901 244.363 158.14 89.2341 30.014 5292.53 9854.55 11009.2 10780.5 10086.7 9305.32 8538.22 7808.36 7122.04 6476.91 5872.69 5312.33 4791.63 4307.54 3859.77 3444.29 3060.39 2704.97 2378.25 2075.59 1797.25 1541.62 1308.39 1095.39 901.914 727.471 572.446 435.716 317.356 216.729 133.09 69.5971 24.6753 2346.23 6297.79 6296.13 6109.06 5762.75 5363 4948.58 4539.81 4148.48 3776.16 3424.26 3095.8 2790.6 2505.97 2243.14 1998.53 1772.64 1563.3 1370.96 1192.58 1029.36 878.392 741.125 615.87 502.584 400.64 310.53 231.142 163.944 108.134 64.1692 32.7793 12.0782 2889.2 5168.67 4745.89 4626.37 4369.52 4010.11 3611.89 3223.15 2864.85 2543.88 2257.23 2002.36 1771.72 1562.42 1370.98 1195.62 1034.27 886.433 750.889 627.948 516.182 415.603 326.359 248.977 181.877 126.465 81.8547 49.7379 31.517 24.0384 19.4437 12.6783 2.96378 1898.55 7227.91 8026.43 7802.63 7319.88 6738.84 6108.02 5479.71 4889.81 4353.74 3872.66 3442.35 3055.02 2704.02 2383.62 2090.72 1821.49 1575.17 1349.48 1145.07 959.547 792.751 644.822 516.585 405.461 311.434 233.515 170.686 122.704 86.8478 56.5696 31.5766 10.1387 913.496 3699.89 5335.33 5367.99 5016.15 4602.47 4181.02 3770.81 3386.97 3037.51 2723.83 2443.42 2191.87 1964.26 1757.24 1568.05 1394.74 1236.57 1091.74 960.457 840.973 730.925 632.896 545.081 466.17 394.989 329.704 269.062 212.565 157.176 102.791 51.5019 15.5104 665.581 2679.48 4054.05 4158.21 3846.5 3480.02 3141.67 2838.6 2572.35 2336.04 2128.47 1944.4 1781.47 1633.25 1498.68 1373.76 1259.92 1153.18 1054.03 961.131 874.13 789.55 710.883 634.204 561.358 489.726 418.931 348.384 278.839 211.052 143.42 73.6006 20.0014 973.005 3152.51 4577.8 4676.96 4298 3859.17 3469.01 3136.79 2852.77 2606.35 2389.25 2196.05 2022.75 1864.17 1718.92 1583.51 1458.07 1340.13 1228.87 1123.57 1023.76 926.738 834.187 743.555 655.613 570.104 485.914 402.364 321.551 242.705 165.702 89.1848 23.316 1706.92 4642.56 6273.21 6387.34 5921.03 5359.08 4842.21 4389.77 3992.08 3637.43 3317.43 3026.66 2761.79 2517.33 2291.64 2083.82 1891.37 1711.3 1544.86 1387.99 1242.52 1104.95 976.582 855.263 741.133 632.456 529.571 431.693 339.148 251.787 169.636 94.7004 28.1729 2969.82 6834.39 8530.72 8551.43 7975.25 7284.94 6629.06 6032.25 5490.03 4994.01 4537.84 4117.11 3729.25 3370.03 3037.27 2730.13 2446.3 2182.13 1938.46 1712.51 1503.63 1311.26 1133.56 970.032 819.009 680.761 555.218 440.645 335.726 241.557 156.729 87.5326 28.6797 5282.43 9799.73 10962.5 10789 10123.7 9340.34 8561.69 7821.9 7129.72 6483.33 5880.36 5319 4799.53 4316.29 3867.32 3452.65 3068.23 2712.55 2385.07 2081.56 1801.84 1545.21 1310.93 1096.78 902.55 727.665 572.063 435.02 316.056 215.793 133.657 69.7603 24.2701 2350.45 6270.14 6234.6 6092.15 5772.75 5377.56 4959.89 4546.27 4150.78 3777.89 3425.99 3097.79 2793.83 2509.76 2246.62 2002.42 1776.45 1567 1374.6 1196.28 1032.54 880.754 743.002 617.314 503.766 401.5 311.193 231.512 164.39 108.644 65.7992 33.9224 11.9117 2875.79 5147.31 4732.74 4590.69 4316.9 3951.32 3557.7 3176.35 2826.79 2513.35 2233.35 1982.25 1755.57 1548.61 1359.26 1185.78 1026.25 879.566 745.418 623.162 513.026 413.466 325.359 248.202 182.125 127.466 83.7244 52.044 33.4195 25.8751 21.2403 13.7576 3.72725 1958.38 7194.47 7966.05 7728.6 7236.68 6657.52 6037.77 5420.86 4842.32 4315.64 3841.88 3416.6 3033.69 2685.41 2368.08 2077.79 1810.98 1566.44 1342.83 1139.75 956.68 792.431 646.074 517.982 407.92 315.062 237.622 175.229 126.126 89.4967 59.448 34.6062 11.4406 964.269 3669.77 5267.87 5297 4951.33 4549.48 4142.56 3743.75 3369.56 3027.04 2718.35 2440.86 2191.12 1964.94 1758.7 1571.2 1399.38 1241.49 1097.3 966.503 846.995 738.955 641.066 553.171 473.295 401.972 336.531 275.496 217.194 161.34 106.306 54.586 16.6721 660.534 2640.35 3995.84 4110.28 3819.4 3472.55 3149.26 2856.84 2595.05 2361.45 2153.76 1969.47 1805.17 1655.9 1519.42 1394.35 1279.38 1171.83 1070.99 977.137 888.673 804.001 723.491 646.48 572.329 499.726 427.64 356.294 284.792 216.089 146.616 76.9794 20.9183 961.413 3131.15 4547.18 4656.5 4299.86 3881.4 3504.71 3179.75 2898.05 2651.69 2431.76 2235.81 2059.8 1898.64 1750.35 1612.17 1483.96 1364.16 1250.97 1143.66 1041.69 942.994 848.516 756.392 666.832 579.796 494.069 409.347 326.742 246.617 168.224 91.8264 23.8349 1721.57 4654.07 6273.17 6383.64 5931.53 5385.36 4879.89 4433.1 4037.01 3683.11 3361.58 3066.9 2799.6 2552.4 2324.14 2113.65 1917.44 1735.52 1566.57 1408.1 1260.02 1121.17 990.252 867.471 750.648 641.017 537.246 438.137 344.01 255.082 172.083 95.4288 27.6389 2996.92 6879.24 8557.64 8559.04 7986.04 7307.15 6661.15 6070.58 5529.14 5033.77 4576.95 4153.67 3762.68 3401.18 3066.17 2756.28 2469.87 2203.9 1957.9 1730.85 1519.41 1325.46 1144.99 980.463 828.22 688.404 561.267 445.263 340.144 244.778 158.432 88.8408 28.5771 5293.66 9877.3 11020.3 10811.4 10140.4 9361.16 8589.83 7855.03 7164.48 6517.91 5914.96 5352.36 4829.08 4343.89 3893.15 3475.72 3089.52 2731.76 2402.22 2097.01 1815.73 1558 1321.16 1105.4 909.789 733.423 576.609 438.964 319.61 218.07 134.073 70.5127 24.3844 2340.97 6290.49 6263.24 6106.03 5783.8 5388.99 4972.18 4559.83 4164.92 3791.29 3440.02 3112.02 2805.87 2521.53 2257.63 2012.3 1786.37 1575.34 1382.19 1203.26 1038.15 886.18 747.583 620.628 506.881 404.09 313.152 233.01 165.52 109.225 65.8247 34.0434 12.6329 2900.99 5080.25 4683.57 4484.63 4178.39 3811.73 3434.94 3078.54 2752.8 2459.57 2195.17 1955.2 1735.81 1534.52 1348.8 1177.9 1020.1 875.77 743.056 622.853 513.553 415.401 327.959 251.991 186.238 131.792 88.433 56.2332 36.9262 27.5395 22.0001 14.551 3.76623 2171.45 7134.39 7804.75 7521.79 7006.7 6435.8 5848.03 5273.98 4735.48 4241.74 3793.54 3386.44 3015.79 2675.76 2363.64 2077.55 1814.09 1572.07 1351.26 1149.98 968.665 805.858 660.807 533.54 422.591 328.668 251.493 187.253 136.837 96.9117 64.6172 37.4122 12.9018 1116.04 3665.57 5064.75 5077.26 4755.55 4397.18 4037.52 3682.77 3343.5 3026.86 2734.63 2468.16 2224.26 2000.93 1796.3 1608.87 1436.76 1278.45 1133.77 1001.92 881.427 771.981 672.004 582.719 499.73 425.485 357.031 292.867 231.491 171.868 114.157 59.9362 18.7595 639.371 2527.95 3779.29 3928.76 3708.06 3430.56 3160.12 2904.92 2665.42 2445.05 2242.57 2058.17 1890.84 1737.23 1596.18 1466.8 1346.65 1233.97 1128.5 1031.25 937.826 848.93 763.622 682.613 602.909 526.255 450.492 375.722 301.452 228.73 155.702 82.4567 23.3086 939.279 3003.73 4384.86 4531.49 4253.68 3909.12 3582.25 3285.99 3016.43 2771.17 2549.31 2346.24 2162.17 1993.74 1837.64 1692.8 1558.38 1431.63 1312.46 1199.71 1092.24 988.779 889.053 792.882 698.512 607.624 517.683 429.643 343.718 260.256 178.897 97.7215 26.866 1811.17 4651.23 6203.28 6307.49 5905.61 5417.6 4954.31 4531 4144.6 3790.04 3464.69 3163.96 2888.59 2635.17 2399.68 2181.94 1980.53 1793.02 1618.89 1455.85 1303.38 1160.98 1026.11 898.712 778.916 665.17 558.923 457.127 359.939 266.834 180.11 100.964 29.9575 3139.39 7000.38 8577.65 8519.5 7961.68 7323.55 6713.11 6143.55 5611.27 5116.23 4657.42 4229.08 3832.9 3465.52 3124.79 2809.19 2517.46 2247.29 1997.84 1766.26 1552.59 1355.12 1172.29 1004.12 850.444 707.931 578.438 459.258 351.856 253.388 164.882 92.8817 30.5086 5401.04 10089.7 11135.1 10820.6 10127.7 9370.97 8627.29 7912.23 7228.64 6584.08 5978.54 5412.46 4884.44 4394.44 3938.63 3515.54 3125.25 2764.19 2430.56 2122.6 1839.08 1578.54 1339.28 1121.64 924.545 746.122 588.115 447.48 325.634 222.406 136.635 71.663 25.3386 2332.59 6366.94 6368.66 6144.67 5790.73 5395.33 4986.26 4582.35 4190.78 3818.81 3466.8 3137.54 2829.57 2542.94 2276.48 2029.07 1801.05 1588.97 1393.69 1213.29 1047.49 894.477 754.808 627.066 512.241 408.177 316.578 235.758 167.328 110.472 65.8344 33.1975 12.0183 3250.74 4827.67 4359.1 4119.4 3854.04 3556.77 3249.2 2950.01 2667.97 2405.29 2160.96 1933.91 1722.99 1527.06 1345.41 1176.93 1021.24 878.701 748.122 628.964 520.762 423.963 337.359 261.752 196.953 141.893 97.533 63.8108 42.4362 29.6513 22.8251 14.9856 4.01955 2832.6 7036.81 7305.06 6932.33 6485.37 6032.88 5560.66 5083.9 4620.98 4180.11 3767.22 3382.39 3025.51 2694.31 2387.89 2104.98 1843.84 1603.98 1384.93 1185.37 1004.49 841.746 696.397 567.816 456.397 359.727 278.743 210.694 155.688 110.746 72.5225 41.9034 14.6593 1539.59 3653.07 4589.21 4581.39 4377.87 4161.98 3920.03 3651.76 3369.6 3088.17 2815.6 2558.21 2317.93 2094.31 1887.59 1697.51 1522.07 1360.83 1212.74 1077.55 952.138 838.4 734.575 638.995 551.345 470.59 395.63 325.141 257.585 192.121 128.584 67.4903 20.9534 693.08 2310.94 3348.92 3601.88 3543.73 3407.19 3235.44 3039.48 2831.72 2624.16 2422.43 2232.37 2055.84 1891.72 1739.76 1600.57 1469.79 1348.93 1234.73 1128.39 1027.47 929.942 836.189 747.118 660.424 575.88 492.702 410.383 329.405 251.256 172.58 92.1196 25.4742 1001.82 2727.95 4059.38 4335.15 4222.09 4003.39 3751.91 3492.59 3234.11 2986.41 2754.48 2539.26 2339.98 2156.92 1987.66 1831.32 1684.75 1547.83 1418.15 1295.96 1180.29 1068.43 959.302 856.022 754.041 655.433 559.187 465.266 372.144 283.624 196.735 107.361 29.476 2146.46 4625.84 6009.9 6167.02 5888.85 5505.66 5105.69 4712.13 4334.06 3973.57 3637.42 3325.34 3036.97 2771.01 2525.41 2297.9 2087 1890.58 1707.8 1538.1 1378.19 1229.53 1088.63 954.954 829.253 710.133 597.278 490.38 387.533 289.067 195.877 109.781 32.7128 3658.86 7210.94 8482.79 8392.97 7917.02 7368.43 6816.2 6276.75 5755.65 5258.8 4790.89 4353.13 3946.42 3570.74 3220.55 2896.74 2597.78 2320.5 2065.14 1827.71 1609.06 1407.15 1220.7 1048.43 889.476 743.789 610.275 488.083 375.613 271.803 176.944 98.0239 32.3524 5945.83 10410.7 11132.9 10719.6 10070.5 9386.42 8695.17 8009.96 7336.96 6691.49 6080.91 5506.46 4969.67 4470.93 4008.42 3578.36 3181.23 2814.66 2476.02 2163.77 1875.91 1611.81 1370.48 1149.45 950.455 769.849 609.583 466.361 341.173 233.66 144.216 75.9677 26.3907 2410.28 6562.66 6485.04 6143.02 5770.71 5394.58 5008.18 4619.03 4234.39 3862.17 3509.06 3175.97 2864.48 2573.95 2304.57 2053.81 1822.12 1608.42 1410.72 1227.94 1060.78 906.113 765.241 636.157 520.433 415.108 322.996 241.642 171.691 112.38 66.9005 33.8864 12.5243 981.249 1667.2 1324.84 1259.81 1213.21 1148.78 1070.53 985.491 899.375 815.621 735.575 659.727 588.8 522.766 460.967 404.072 351.231 302.805 258.459 217.916 180.875 148.051 118.653 92.6861 70.4406 51.4971 35.7751 23.7103 15.3779 9.80899 7.20686 4.89189 1.71556 1341.53 4120.3 3574.06 3362.49 3208.91 3052.84 2868.17 2659.56 2441.7 2224.55 2014.36 1813.59 1625.24 1448.78 1285.26 1132.97 993.363 863.866 746.08 638.047 540.242 451.687 373.229 302.994 242.643 189.805 145.224 108.353 78.9104 55.657 36.6711 21.6026 8.8619 765.707 2279.29 2170.65 2154 2121.63 2097.87 2038.18 1937.9 1811.01 1671.5 1530.05 1392.4 1262.18 1139.3 1026.3 920.971 825.001 735.907 654.572 579.86 511.565 448.995 392.427 340.088 293.182 249.453 209.783 172.366 137.3 103.162 70.8385 38.663 14.4709 334.892 1213.09 1394.65 1614.17 1682.35 1697.07 1666.97 1599.46 1508.38 1406.76 1302.56 1200.35 1105.35 1015.87 932.956 856.734 786.263 720.041 658.619 600.89 546.618 494.396 444.829 397.494 351.943 307.22 262.992 220.392 178.859 137.105 97.2802 56.3564 18.6508 338.867 1022.79 1652.79 1940.78 1997.89 1962.07 1880.4 1773.87 1656.37 1537.17 1421.92 1312.43 1211.64 1117.21 1030.91 950.929 877.341 806.954 741.466 678.443 619.418 562.338 507.045 453.049 401.663 349.907 300.481 250.956 203.636 156.876 112.855 66.2999 21.7522 776.469 2004.46 2630.79 2847.14 2809.46 2680.05 2516.25 2339.98 2162.45 1988.51 1824.47 1671.44 1530.2 1398.72 1277.96 1166.55 1063.23 967.004 877.121 793.278 714.526 640.857 570.576 503.203 440.506 380.014 322.439 266.818 214.062 162.553 114.274 67.8799 23.7194 1344.72 3422.2 3881.27 3955.02 3802 3582.33 3341.47 3093.73 2846.7 2607.23 2378.98 2165.6 1966.28 1782.45 1611.7 1453.56 1308.24 1172.73 1047.85 932.238 825.523 726.128 635.041 549.521 470.683 397.788 330.831 268.231 210.546 155.518 105.221 59.9176 22.8675 2120.72 5137.95 5254.92 5117.41 4857.73 4568.18 4259.97 3941.65 3621.53 3309.02 3011.38 2730.27 2467.57 2222.95 1996.55 1785.84 1590.99 1411.5 1245.36 1093.51 952.049 823.155 704.465 596.474 498.03 409.144 329.011 257.579 193.577 137.389 87.7941 47.351 18.7713 1320.46 4631.14 4264.21 4012.54 3797.62 3582.28 3347.04 3099.37 2848.8 2601.29 2365.7 2142.17 1932.12 1736.53 1555.09 1387.34 1231.29 1087.52 954.401 832.372 719.782 616.352 521.586 435.572 357.591 287.918 225.515 170.783 122.924 82.4645 49.8833 25.6737 9.846 760.343 1377.29 2671.47 974.593 1149.25 2172.82 1527.92 2677.3 1422.78 802.478 1066.79 738.348 630.087 1544.55 797.813 1396.72 1108.64 1830.57 1107.34 1091.41 2056.27 567.313 687.119 1553.02 1597.87 2254.25 1279.22 767.034 1957.91 1078.77 660.856 1304.98 840.129 988.396 1894.11 537.041 641.2 1453.81 1471.77 2075.22 1201.69 712.946 1798.99 1004.43 636.068 1231.76 814.025 951.447 1815.83 542.744 649.623 1428.68 1349 1929.7 1111.28 677.393 1644.32 947.854 633.443 1194.97 810.057 935.607 1739.57 541.61 663.052 1400.48 1240.5 1786.43 1017.6 636.442 1533.91 886.195 615.105 1143.77 790.827 908 1645.99 525.818 657.214 1345.92 1137.67 1643.13 924.994 591.499 1433.3 820.932 584.069 1076.96 754.385 863.762 1537.28 499.166 632.941 1269.82 1039.59 1503.32 838.199 545.227 1329.77 755.161 546.031 1001.88 707.188 807.937 1421.06 465.411 595.675 1179.73 947.331 1369.98 758.549 499.804 1224.82 690.687 504.744 922.587 654.063 746.589 1302.51 429.158 552.425 1085.34 860.18 1242.9 685.393 455.506 1120.17 628.208 462.501 843.458 599.103 682.532 1185.42 391.317 505.596 988.248 778.619 1123.38 618.329 413.151 1019.11 568.077 420.615 765.187 543.889 619.24 1071.39 354.4 459.502 894.45 701.488 1010.14 555.642 372.416 921.493 510.885 380.038 690.3 491.017 558.533 963.307 318.88 414.551 804.511 629.12 904.282 497.396 334.165 829.143 456.865 341.443 618.89 440.276 500.776 860.564 285.254 372.13 720.165 561.028 804.299 442.737 297.863 741.984 406.215 304.866 551.982 392.872 446.616 764.508 253.261 331.861 639.794 497.659 711.597 392.217 264.131 660.908 358.536 270.287 488.355 347.801 396.014 674.182 223.811 294.968 566.166 438.181 625.099 344.83 232.303 584.457 314.533 238.131 429.868 306.375 349.168 590.961 196.152 260.164 497.087 383.556 545.04 300.929 203.072 514.37 273.331 208.184 374.95 267.57 305.609 513.156 170.838 228.346 434.094 332.075 470.425 259.907 175.551 448.847 235.383 180.438 324.772 232.181 265.596 441.889 147.066 198.706 375.062 285.259 402.168 222.531 150.488 389.261 200.382 154.763 277.732 198.997 228.712 375.783 125.599 171.817 321.933 241.829 339.331 188.024 127.215 333.46 168.565 131.166 235.245 169.093 195.305 316.234 105.835 147.151 273.244 202.762 282.982 156.819 106.321 283.747 139.621 109.742 196.378 141.622 165.019 261.971 88.1328 124.849 229.771 167.014 231.328 128.183 87.2019 238.52 113.685 90.4695 161.652 117.314 138.138 213.475 72.0787 105.129 190.655 135.401 186.171 103.019 70.2137 197.969 90.3779 72.9463 130.308 95.2732 113.973 169.951 57.7437 87.3262 156.172 106.894 145.155 80.1783 54.8455 162.032 69.8369 57.2464 102.576 75.898 92.858 132.306 45.3441 71.7569 125.819 82.2418 110.754 60.4846 41.6319 130.697 52.199 43.8173 78.492 59.0597 74.5567 99.2367 34.5718 58.155 99.9669 60.9746 80.651 43.4463 29.9902 103.473 37.1161 31.7953 58.0818 45.1189 59.3702 72.5481 25.6478 46.9369 77.5865 43.4547 56.7335 29.2202 20.6139 80.8549 25.2485 22.1085 40.9886 32.9268 45.9404 50.441 18.3431 36.8355 59.3027 29.5548 37.9589 18.2487 13.2177 61.6852 15.9817 14.3741 28.0017 23.7997 35.269 33.6662 12.6483 28.4208 43.1493 19.1816 23.5362 9.98326 7.39031 46.6582 9.57933 8.2589 17.3807 15.8308 25.1826 21.8016 8.27164 20.487 30.0908 12.551 14.8996 6.24065 4.40814 33.3633 6.05405 4.65028 11.0267 10.6246 17.4335 15.7322 5.72835 14.1027 19.0282 9.14669 11.0343 5.88761 3.62736 22.9029 4.80535 3.70378 7.62375 6.44021 9.73758 10.879 3.52827 7.61244 10.49 6.85875 8.39115 5.45343 3.43081 13.525 3.70746 3.33727 5.49458 3.81646 5.25352 6.18671 2.01608 3.87674 3.35874 4.06616 3.11594 3.05748 2.01332 7.80101 1.02452 2.00007 2.00007 0.975542 477.605 820.884 1604.86 598.462 665.018 1253.58 783.845 1502.54 431.539 389.443 889.797 454.443 1100.19 634.281 585.905 1237.64 328.028 352.177 910.835 1012.75 1456.2 1122.18 819.753 509.044 598.285 1176.02 327.806 389.476 918.877 954.724 1346.36 1126.96 781.509 516.904 621.764 1165.11 350.338 433.208 952.42 876.816 1264.74 1071.86 781.682 538.228 640.265 1170.28 369.931 463.035 973.853 826.54 1206.08 1030.16 782.695 549.257 641.955 1153.07 374.643 472.852 965.442 781.845 1143.66 988.76 765.575 542.039 624.535 1109.3 365.742 464.411 931.064 733.714 1072.02 938.376 731.048 520.039 594.718 1045.4 347.381 444.54 879.733 681.202 993.324 879.794 684.973 488.581 556.586 970.996 323.761 416.7 818.57 627.229 913.045 816.382 633.386 452.275 515.025 891.68 298.132 386.258 754.338 573.089 832.279 751.436 579.689 414.659 472.748 812.924 272.163 354.898 690.342 520.935 754.899 687.716 526.838 377.591 431.723 736.073 246.821 324.507 628.637 470.517 680.644 625.805 476.031 341.782 392.145 663.596 222.735 295.093 570.016 423.351 611.373 567.841 428.156 308.046 355.561 595.071 200.047 267.964 515.138 379.003 545.968 513.339 382.843 276.429 320.728 531.529 179.074 242.132 464.167 337.655 485.457 462.298 341.29 247.443 289.212 472.43 159.504 218.86 416.916 299.143 429.424 414.872 302.041 219.759 259.115 417.457 141.389 196.577 372.926 263.852 377.759 371.308 266.479 194.9 231.943 367.173 124.787 176.421 332.558 231.35 330.334 330.828 233.552 171.891 206.695 321.067 109.44 157.635 295.454 201.373 287.072 293.771 203.295 150.759 183.598 278.933 95.6454 140.691 261.229 174.427 247.55 259.701 175.918 131.501 162.312 240.821 82.8225 124.522 230.032 149.931 212.47 228.787 151.264 114.07 143.092 206.806 71.4343 110.076 201.112 127.99 180.285 200.56 128.891 98.1282 124.682 175.708 61.1671 96.3724 175.082 108.286 152.543 174.28 109.466 84.3386 108.979 149.043 52.1996 84.4399 151.115 91.1759 127.23 151.623 91.7242 71.3654 93.4996 124.523 43.7145 72.7037 128.626 75.9539 105.994 129.401 76.2792 60.0972 79.8632 103.727 36.7798 62.2263 108.356 62.719 86.1852 110.069 62.6882 49.8582 66.4988 84.4165 30.0038 51.7422 89.1008 50.8824 69.4824 91.3923 50.5019 40.5283 54.3635 67.6166 24.1378 42.2917 70.4321 40.6034 53.8156 74.5344 39.0177 31.43 41.4441 50.8146 18.2176 32.3652 52.4895 30.474 39.4388 56.8938 28.5346 22.9106 30.2911 35.9925 12.8643 23.5641 35.2872 21.7226 25.5131 41.4472 18.6107 14.7177 18.2456 20.8154 7.28166 14.2281 18.633 12.4193 13.2242 24.6227 9.41293 7.05064 8.37201 9.98845 3.22263 6.06154 5.38976 6.59265 4.79557 11.2772 2.8362 1.49354 243.814 380.647 862.766 312.687 284.26 687.782 411.539 851.091 205.332 206.8 442.132 222.81 589.876 318.052 334.345 624.513 149.57 222.24 610.964 566.413 871.652 691.283 461.67 301.694 459.735 740.784 214.023 334.379 735.519 602.777 876.262 807.929 510.196 364.241 518.343 809.946 256.561 388.566 797.903 588.024 863.514 823.099 547.546 401.835 540.055 845.853 279.141 410.24 819.381 572.781 847.328 812.772 567.005 418.518 540.131 852.932 286.333 412.155 810.492 555.84 821.628 791.116 565.99 417.345 524.419 832.306 282.029 400.898 781.69 531.202 783.289 756.604 548.983 404.537 500.003 795.69 270.697 382.567 741.182 501.666 737.665 715.125 521.866 383.697 469.682 747.009 254.297 358.963 693.392 468.521 686.989 669.564 488.241 359.141 438.31 694.995 236.942 335.206 645.003 434.173 635.491 623.05 452.715 333.047 406.454 641.366 218.687 310.728 596.711 400.159 584.731 577.379 417.098 307.403 376.201 589.764 201.269 287.939 551.025 367.231 536.495 533.24 382.696 282.341 346.957 539.783 184.409 265.571 507.769 336.42 490.497 492.132 350.081 259.499 320.237 494.34 169.102 245.337 467.715 307.565 448.271 453.672 319.665 237.617 295.234 450.494 154.447 226.203 430.075 280.297 407.817 417.887 291.181 217.565 271.966 411.018 141.126 208.733 395.004 255.031 371.278 384.321 265.122 198.621 249.67 373.495 128.373 191.61 362.039 232.01 336.722 352.973 240.276 180.966 229.406 338.836 116.705 176.403 331.237 210.173 304.926 323.77 217.462 164.378 209.617 306.258 105.626 161.24 301.99 189.956 275.349 295.851 196.651 149.395 191.843 277.146 95.8509 147.87 275.144 171.606 247.511 270.252 176.763 135.017 174.219 248.577 86.048 134.03 248.872 153.877 221.855 245.315 158.414 121.486 157.858 223.003 77.2666 121.648 223.598 137.792 197.833 222.008 141.157 108.355 141.14 197.635 68.5666 108.683 199.549 122.381 175.06 198.9 124.951 96.45 126.06 175.261 60.875 97.3302 176.54 108.438 153.96 177.508 109.795 84.7334 110.467 152.747 53.0587 85.0444 153.65 94.3286 133.157 155.436 95.0975 73.6907 96.02 131.742 45.8681 74.1228 131.391 81.1338 113.306 134.849 80.8783 62.3452 80.5889 110.359 38.2867 62.0583 109.541 68.1615 94.3351 113.338 67.3343 51.8732 66.819 90.9952 31.564 51.4194 88.1932 56.0834 75.9799 93.8332 54.1986 41.3603 52.0532 70.4359 24.3771 39.994 67.0231 43.4483 56.8705 73.3657 40.8409 31.3864 38.7967 52.1642 18.0904 30.0437 46.7493 31.7078 39.1885 53.9526 28.24 21.0731 24.4658 32.3066 11.2385 18.8457 25.7513 19.295 20.5233 33.7988 15.3798 10.9757 10.641 14.3916 4.63687 7.98968 7.29446 8.41852 6.31493 14.2919 4.33245 2.16532 103.497 299.295 349.275 127.154 250.206 676.494 190.047 577.192 259.289 85.2885 400.553 91.4843 357.067 267.661 514.864 575.369 173.583 392.8 860.903 476.372 776.05 861.971 437.634 361.248 651.905 782.657 259.653 501.502 989.443 563.909 846.237 1007.93 529.942 430.894 686.492 856.358 292.671 530.3 1012.14 574.487 849.497 1016.34 562.219 450.763 676.12 868.505 300.071 523.227 988.101 561.926 827.676 980.914 565.318 447.983 647.615 850.761 294.93 500.891 942.365 540.223 792.486 930.465 550.544 432.731 610.831 814.621 282.825 472.299 886.544 511.663 749.146 872.173 525.469 410.435 570.32 769.257 267.191 440.518 825.95 480.176 702.206 812.003 495.108 384.627 528.419 718.507 249.283 407.924 765.259 447.77 653.995 751.826 462.179 358.176 488.883 668.67 231.988 377.005 707.233 416.005 607.407 695.104 429.918 332.15 450.955 619.629 214.567 347.465 652.561 385.774 562.952 641.491 398.571 307.773 416.506 574.292 198.964 320.687 602.095 356.967 521.397 592.266 369.299 284.74 383.966 531.056 183.811 295.453 555.189 330.881 482.951 546.385 341.745 263.374 354.552 491.409 170.088 272.731 511.714 306.138 446.682 504.673 315.971 243.435 326.83 454.4 157.046 251.201 471.79 283.611 413.47 465.393 292.147 225.167 301.567 420.206 145.416 231.882 434.416 262.089 381.895 429.339 269.829 207.811 277.637 387.071 133.8 213.135 399.523 241.858 352.22 395.3 248.807 191.73 255.445 357.596 123.585 195.95 366.536 223.258 324.642 363.804 229.207 176.38 233.786 328.077 113.329 179.32 335.632 205.213 297.71 333.304 210.342 161.987 214.529 301.212 104.036 164.507 305.763 188.007 272.166 305.282 192.394 147.831 194.518 274.117 94.54 149.127 277.336 171.655 247.944 277.133 175 134.496 176.57 249.5 86.1102 135.234 250.194 155.932 223.864 251.263 158.257 121.565 158.451 223.842 77.182 121.235 223.398 140.001 200.953 225.181 141.716 108.762 141.346 200.508 69.2981 108.107 197.799 125.405 178.215 200.701 125.946 96.2798 123.798 175.8 60.5759 94.6581 172.213 110.009 155.415 176.21 109.887 83.9806 107.295 153.019 52.7885 81.9413 147.368 95.3883 133.249 152.643 94.4374 71.7758 90.3802 128.757 44.3309 68.8648 122.622 80.3041 111.118 128.476 78.9068 59.7465 74.3213 106.775 36.6942 56.6636 98.6771 66.5106 89.9047 105.524 63.868 47.9759 58.2106 83.3833 28.6779 44.1965 75.3836 51.6548 68.299 82.5639 48.9694 36.6113 43.3781 62.2978 21.535 32.9975 53.0923 38.1225 47.6901 61.0984 34.5475 25.2743 27.8166 39.7524 13.7656 21.0528 30.3053 23.8794 25.8911 38.9587 19.6098 13.6357 12.1983 17.5552 5.88747 8.58196 8.56811 9.91205 7.31476 17.0224 5.51812 2.86053 278.823 711.42 684.822 270.538 612.334 1261.08 413.964 908.06 540.452 218.486 881.57 297.554 577.665 490.877 906.486 1042.3 340.487 680.275 1400.65 754.618 1182.37 1417.8 731.539 602.881 996.736 1211.24 408.259 757.37 1466.7 832.702 1230.4 1518.43 795.883 643.261 989.948 1230.61 420.976 757.199 1433.01 817.275 1192.45 1470.59 792.052 634.428 944.679 1188.74 408.956 724.351 1358.25 775.582 1126.7 1385.03 759.187 605.101 885.424 1122.88 387.218 679.713 1268.49 725.626 1051.51 1289.26 714.413 567.723 822.047 1048.77 362.213 631.311 1175.21 673.756 974.921 1192.24 666.016 527.805 758.348 972.131 335.706 582.138 1081.36 622.614 899.474 1097.95 615.88 486.711 695.404 895.44 309.095 533.664 991.499 572.872 827.337 1006.28 567.379 447.593 636.879 823.757 284.312 488.467 907.071 526.556 759.786 921.359 521.588 410.425 581.343 755.967 260.591 445.583 828.423 483.136 697.604 841.469 479.522 376.577 531.398 694.587 239.23 407.057 755.926 443.734 640.584 768.935 440.109 344.701 484.015 636.822 219.21 370.569 689.574 407.025 587.701 700.823 404.402 316.266 441.762 585.359 201.421 338.004 628.722 373.771 539.233 639.62 371.43 289.616 401.825 536.364 184.183 307.25 572.173 342.653 494.921 581.915 340.972 265.234 366.318 492.539 169.321 280.055 520.824 314.254 452.934 530.15 312.655 242.798 332.362 450.656 154.642 253.765 472.639 287.427 414.655 480.908 286.484 221.737 301.852 412.345 141.48 230.346 427.896 262.788 378.437 436.414 261.586 201.799 272.261 375.325 128.698 207.684 386.239 239.305 344.547 393.504 238.548 183.727 245.956 342.56 117.462 187.7 347.852 218.085 312.656 355.262 216.819 166.39 220.153 308.941 105.907 167.875 310.853 196.444 281.956 317.606 195.938 149.991 196.965 278.939 95.5129 150.203 276.62 177.148 252.504 283.978 175.702 133.91 173.767 248.541 85.0757 132.375 243.935 157.71 224.808 250.428 156.723 119.105 153.247 220.612 75.3584 116.717 213.103 139.665 197.367 220.306 137.993 104.164 132.199 192.235 65.5322 100.351 183.291 121.815 171.393 190.27 120.078 90.4041 113.477 165.92 56.6093 86.2292 155.033 104.818 145.528 162.672 102.173 76.38 94.1961 138.896 47.2709 71.4652 127.615 87.7797 121.069 135.07 85.1341 63.4934 76.935 114.167 38.9924 58.3823 101.644 71.5514 96.1471 110.041 68.2278 50.2764 58.9388 88.5105 30.0174 44.529 76.0247 55.3142 73.0891 84.3386 52.0022 37.9803 43.196 65.5536 22.3033 32.7122 52.5807 40.5127 50.6642 61.1807 36.6597 25.8728 27.0842 41.7461 14.0066 20.2616 30.2946 25.4433 28.7912 38.2077 21.0169 13.9038 12.4204 18.1024 5.8102 8.99759 8.7719 11.2694 8.03894 17.9378 5.55502 2.87439 533.017 1251.17 1406.98 541.717 1063.53 2053.88 816.1 1564.81 923.4 432.666 1548.42 594.415 1060.89 846.051 1374.82 1684.19 549.492 1020.34 2030.43 1179.88 1779.89 2116.57 1126.88 896.21 1387.48 1771.07 590.122 1042.73 2014.62 1215.28 1766.88 2122.25 1146.24 903.442 1337.37 1726.71 582.9 1012.77 1927.11 1157.07 1674.93 2006.38 1104.99 868.719 1261.96 1634.45 555.436 959.587 1811.08 1081.02 1563.35 1871.58 1041.3 818.265 1177.71 1526.77 520.542 897.105 1683.98 1002.43 1446.68 1735.86 969.006 761.285 1089.99 1413.65 482.819 830.775 1553.29 924.168 1331.79 1600.67 895.027 702.585 1001.5 1300.82 444.346 763.149 1423.51 848.811 1220.43 1469.29 821.464 644.18 915.279 1190.35 406.629 697.39 1299.26 775.757 1114.75 1341.9 751.315 588.594 834.306 1087.3 371.272 635.333 1181.92 708.386 1016.46 1222.58 685.083 535.977 757.385 989.739 337.893 576.342 1072.4 644.717 924.276 1110.46 623.438 487.394 686.567 900.714 307.446 522.48 970.665 586.232 839.786 1006.48 566.697 442.046 620.208 816.783 278.6 471.564 876.969 531.439 761.805 909.485 514.546 400.794 560.199 741.538 252.855 425.608 790.76 482.251 689.964 821.569 466.662 362.573 504.077 670.926 228.638 382.719 710.971 435.983 623.825 739.022 422.437 327.613 452.828 607.357 206.903 343.854 638.11 394.319 563.276 664.048 381.951 295.236 405.25 546.973 186.192 307.309 570.498 354.851 506.946 594.041 344.182 265.603 362.098 493.086 167.912 274.5 508.693 319.471 455.08 530.401 309.749 238.067 321.525 441.503 150.157 243.443 451.244 285.307 406.547 470.852 277.555 212.826 284.989 395.354 134.556 215.652 398.458 254.903 362.173 416.783 247.912 189.28 250.405 350.916 119.48 189.309 349.97 225.805 320.374 365.616 220.011 167.719 219.306 310.909 105.892 165.783 304.849 199.468 282.081 319.66 194.181 147.092 189.62 271.973 92.6254 143.255 263.308 174.235 245.583 276.304 169.966 128.536 163.535 237.709 80.8996 123.391 224.929 151.371 212.178 237.392 147.364 110.424 138.046 202.996 68.9551 103.998 189.207 129.225 180.363 200.284 125.734 94.0714 115.618 172.837 58.8481 87.1314 156.777 109.323 150.848 167.143 105.834 78.4792 94.0129 142.368 48.3383 70.6539 126.35 89.6522 122.754 135.538 86.6304 63.9539 75.0431 114.992 39.1146 56.2866 98.0582 71.9924 96.4531 107.729 68.434 49.8831 56.0655 87.397 29.6905 41.9539 71.4834 54.4213 70.9124 80.4334 50.6591 36.3868 39.3006 62.6143 21.2512 29.3246 47.2364 38.4653 47.5936 55.9988 34.5523 24.0925 23.283 38.3498 12.995 17.027 26.8426 23.0724 26.8252 32.9633 19.8291 12.678 10.9137 17.8049 5.71401 7.37381 8.12587 11.1433 8.55322 16.6391 6.06178 3.10008 858.292 1946.75 2312.21 877.206 1620.93 2957.39 1352.01 2346.38 1486.92 716.851 2480.05 1024.63 1628.35 1257.66 1881.13 2422.3 786.996 1388.43 2692.33 1671.09 2449.15 2871.16 1568.09 1215.49 1788.95 2372.1 783.589 1337.31 2583.59 1626.2 2345.07 2737.98 1523.42 1181.04 1701.99 2262.26 757.527 1282.4 2456.01 1522.73 2201.73 2563.61 1448.26 1124.92 1605.7 2130.13 718.501 1215.08 2307.79 1418.3 2050.97 2394.2 1359.33 1057.14 1500.21 1987.48 672.853 1137.43 2146.75 1315.18 1897.88 2224.48 1263.56 982.27 1387.63 1838.64 622.941 1052.31 1978.52 1212.76 1746 2053.14 1164.91 905.265 1274.85 1688.34 572.476 966.746 1811.49 1112.04 1597.36 1883.48 1067.15 828.897 1163.88 1542.46 523.024 882.481 1650.38 1014.86 1455.5 1718.54 972.944 755.247 1058.24 1403.86 475.962 801.949 1496.96 923.206 1321.87 1562.27 883.889 685.175 957.404 1272.12 430.887 724.967 1352.21 836.965 1196.74 1414.59 800.136 619.692 864.148 1150.83 389.972 654.12 1218.73 756.936 1080.41 1277.09 722.657 559.012 776.825 1036.71 350.93 587.693 1094.33 681.931 972.767 1148.38 650.801 502.808 697.169 933.027 315.786 527.099 979.799 613.405 873.428 1030.53 584.468 450.798 622.133 836.096 282.877 470.22 873.788 549.586 781.751 920.304 523.569 403.323 554.62 747.816 253.112 418.823 776.791 490.98 697.01 819.923 467.558 359.133 490.704 665.463 224.842 370.199 686.382 436.794 619.476 726.263 415.757 318.882 433.664 590.968 199.834 327.131 604.201 387.38 547.87 640.942 368.052 281.261 379.407 520.83 175.908 285.881 528.376 341.351 481.787 561.452 324.497 247.771 331.557 458.399 155.025 249.636 458.943 299.378 420.946 489.38 284.197 215.951 285.517 398.786 134.56 214.749 394.44 260.14 365.327 422.139 247.163 187.065 245.197 345.79 116.869 184.38 336.787 224.915 314.065 361.535 213.517 160.856 207.265 296.085 99.9315 155.453 283.541 192.025 267.345 305.413 182.349 137.007 173.96 251.914 85.1963 130.24 235.523 162.613 224.558 255.491 153.942 114.612 142.077 209.725 70.6519 106.346 191.558 135.021 185.852 208.872 128.041 94.9635 115.397 173.233 58.6879 86.1128 153.243 110.657 150.306 168.443 104.519 76.7882 90.0589 138.608 46.8386 67.0663 118.41 88.1734 118.594 131.277 83.178 60.6506 68.7873 108.679 36.7274 51.0333 87.7796 68.4097 89.9615 99.3337 63.6134 45.6178 48.7555 79.4602 26.8364 36.1869 60.6781 49.6945 63.8585 70.2585 45.634 32.2357 32.5057 54.703 18.4185 23.8325 38.0187 33.6984 40.7342 46.4096 29.5006 19.7153 17.4675 30.5616 9.94391 12.4926 19.174 18.8977 21.9334 25.3024 15.5971 9.69558 7.63152 14.207 4.40623 5.17534 6.09208 9.60338 7.58449 11.5335 4.75988 2.34801 1420 1420 3669.56 1363.19 801.524 1960.34 2196.45 3277.74 618.474 1217.91 1830.64 1798.83 2261.84 1708.77 1147.1 3175.99 1034.41 549.954 1571.21 2145.55 3111.92 1709.6 2008.61 1539.75 1055.3 2965.48 984.842 518.501 1492.62 2019.51 2923.61 1585.42 1907.15 1471.76 1005.42 2819.39 945.009 497.637 1425.23 1896.48 2751.88 1492.66 1811.34 1399.89 952.516 2663.65 896.412 472.296 1346.47 1776.75 2573.15 1404.07 1703.89 1316.87 892.752 2489.86 839.48 442.699 1256.83 1652.52 2386.09 1310.2 1585.58 1224.28 827.496 2303.64 777.281 410.15 1161.53 1525.31 2196.09 1211.84 1461.79 1128.21 761.08 2115.91 713.899 376.83 1065.08 1399.1 2009.18 1113.26 1338.39 1031.96 694.888 1930.28 651.178 343.703 970.407 1275.26 1828.07 1015.97 1218.56 938.685 631.21 1753.29 591.2 311.981 879.878 1158.22 1657.08 922.931 1104.14 849.853 570.634 1584.66 534.278 281.956 794.676 1047.14 1495.79 834.4 996.653 766.676 514.355 1428.35 481.321 253.957 715.075 943.925 1346.4 752.281 896.612 688.898 461.534 1282.19 431.917 227.78 641.263 847.421 1207.03 675.407 804.056 617.24 413.103 1148.17 386.516 203.757 573.066 758.891 1079.08 604.701 718.451 550.706 367.946 1022.83 344.355 181.397 510.14 676.172 959.251 538.903 639.143 489.579 326.62 908.646 305.551 160.835 451.924 600.435 850.411 478.333 566.398 432.835 288.12 801.87 269.611 141.747 398.483 529.953 748.474 422.206 499.092 381.196 253.332 705.627 237.112 124.46 349.4 465.526 656.12 370.907 437.524 333.401 220.75 615.09 206.717 108.462 304.059 405.913 570.154 323.286 380.672 289.337 191.081 533.697 179.212 93.7393 262.672 351.544 491.689 279.985 328.695 249.07 163.597 457.175 153.525 80.1367 224.533 300.918 419.093 239.665 280.85 212.21 138.822 389.216 130.422 67.8146 189.667 255.554 354.036 203.403 237.388 178.497 115.89 325.502 109.216 56.6453 158.321 213.239 293.699 169.533 197.882 148.174 95.6038 269.495 90.1804 46.4983 129.732 175.924 240.619 139.672 162.238 120.683 77.0012 217.702 73.0415 37.4495 104.442 141.726 191.462 112.453 130.258 96.2566 60.6646 172.618 57.6207 29.2636 81.4254 111.528 149.042 88.4496 101.722 74.2864 45.9293 131.695 44.1275 22.1246 61.5452 84.5253 110.992 66.7404 76.7178 55.4134 33.4105 97.1396 32.5127 15.9928 44.1902 61.3479 78.9771 48.1189 55.0772 38.8204 22.3004 66.1357 22.2267 10.623 29.6293 41.341 51.2241 32.0725 36.7091 25.208 13.6042 41.296 13.6675 6.2017 17.3266 25.118 30.3635 19.2956 21.8525 14.091 6.62516 21.0545 6.86389 2.96606 8.71381 12.7547 14.9153 9.54138 11.0903 7.02218 3.12435 9.18326 2.7057 1.27443 2.7057 5.75438 4.87921 4.41095 3.11712 1.43127 873.896 2158.16 1853.93 1459.99 2563.73 1442.21 740.04 936.166 557.597 496.544 1278.82 686.769 1295.62 1726.05 1346.09 2432.65 2004.97 1589.64 2392.4 1244.32 861.436 2021.08 1233.83 1618.85 1290.2 2331.77 1863.44 1555.19 2282.07 1237.62 832.107 1984.88 1164.36 1514.56 1164.64 2144.74 1701.74 1460.11 2116.71 1177.23 774.354 1828.39 1069.52 1392.83 1064.6 1957.69 1560.23 1338 1929.12 1081.53 706.104 1673.65 969.151 1269.77 976.869 1776.78 1427.93 1210.18 1740.2 976.034 636.702 1525.83 872.946 1150.69 893.955 1608.35 1301.87 1088.33 1563.86 874.065 572.496 1384.76 784.706 1039.8 814.938 1453.21 1183.38 976.714 1402.93 781.571 514.211 1251.95 705.118 938.695 740.105 1311.26 1071.55 875.456 1257.6 698.308 461.814 1129.1 633.249 845.703 669.584 1180.88 967.721 784.587 1126.4 624.666 414.648 1015.36 567.862 760.888 603.392 1060.47 870.64 701.231 1006.2 557.044 371.353 911.068 507.592 682.089 541.642 948.601 779.955 625.531 896.76 496.575 331.502 814.917 452.401 609.551 483.98 845.159 695.145 555.807 795.325 440.191 294.676 726.526 400.842 541.339 430.092 748.406 616.259 491.707 701.617 388.981 260.497 644.503 353.271 478.481 379.925 658.945 543.111 431.943 614.892 340.966 228.904 568.301 308.97 419.732 333.779 575.635 475.846 376.717 534.566 297.272 199.407 497.823 267.999 365.702 291.254 498.687 412.924 325.717 460.197 256.059 172.098 433.713 229.867 314.943 251.639 427.533 355.807 278.674 392.346 218.965 147.07 373.664 195.561 269.088 215.688 362.84 303.019 235.96 330.635 184.421 124.348 319.777 163.856 226.806 182.75 303.415 255.779 197.201 274.194 153.752 103.221 270.194 135.251 188.606 153.315 249.976 212.81 161.742 223.203 125.034 84.475 225.709 109.142 153.548 126.751 201.622 174.961 129.882 178.088 99.983 67.3388 185.532 86.5175 123.331 103.467 159.469 141.129 102.215 138.318 77.1768 52.4276 150.868 66.118 95.4875 83.0221 121.742 112.652 77.7736 103.984 58.0109 39.1827 119.905 48.8904 72.4605 65.7788 90.4071 87.4726 57.11 74.5914 41.1043 28.0238 94.5255 33.8894 51.8847 51.0975 63.1983 67.0175 39.5466 50.8447 27.4674 18.431 72.1202 22.2143 35.7386 39.1577 42.7277 49.8745 26.1644 32.7019 16.3639 11.2893 54.7513 13.151 22.8451 29.4889 26.8628 36.2092 16.1912 19.7768 8.77898 5.84871 40.6964 7.87905 13.9018 21.4447 18.0933 25.0675 11.0379 12.8773 5.87422 3.8128 29.3197 5.19116 8.68815 14.5052 13.6837 16.1772 7.81674 9.88222 5.25965 3.73544 20.0366 4.66718 7.29187 8.5335 10.4619 10.0097 6.05959 7.84936 5.20723 3.37692 11.5337 3.70938 5.75804 4.945 5.99712 3.29341 3.54804 2.77643 2.76257 1.903 7.12444 0.966063 2.06869 479.086 1020.43 1001.08 627.547 1272.31 302.336 268.764 666.613 342.577 891.217 795.65 1591.16 1260.92 1054.62 1616.81 1212.56 1077.25 817.241 1551.26 1222.79 1057.82 1556.61 1277.26 1014.85 760.226 1420.21 1128.41 981.684 1430.39 1207.45 929.661 708.502 1313.51 1050.86 903.653 1311.92 1119.44 860.596 662.528 1218.36 980.337 829.006 1201.62 1033.43 797.05 617.221 1125 910.938 757.014 1095.2 950.069 734.613 571.975 1033.08 840.996 687.993 994.755 870.084 672.747 526.63 943.409 772.508 623.131 900.156 793.594 613.308 482.573 857.802 705.643 562.846 812.763 722.09 556.252 440.034 776.182 642.646 506.653 731.48 654.56 502.883 400.003 699.987 582.342 455.313 656.451 592.603 452.016 361.937 627.955 526.522 407.404 586.493 534.485 405.109 326.954 561.541 474.198 363.286 522.099 481.463 360.981 294.197 498.892 425.688 321.989 461.988 431.829 320.134 263.568 441.397 380.709 284.331 407.144 386.036 282.298 235.838 388.582 339.396 249.726 356.562 344.118 247.655 209.875 339.734 301.277 217.667 310.306 305.47 215.842 186.182 294.999 266.243 188.826 267.848 270.106 186.658 164.691 254.897 234.125 162.156 229.96 237.749 160.391 144.787 218.109 205.25 138.549 195.216 208.473 136.793 126.882 185.602 178.379 117.23 164.825 181.736 115.153 110.268 155.959 154.454 98.3042 137.622 157.455 96.6799 95.8372 130.962 132.51 82.0668 114.752 136.094 80.3355 81.7127 108.39 112.462 68.1611 94.1647 116.431 66.1283 69.6994 89.4672 94.0319 55.8064 76.5475 98.5072 53.5824 57.7837 72.2611 76.97 45.3442 61.0665 81.9008 42.867 47.0088 57.5095 61.1092 36.058 47.7347 66.2171 33.3042 36.3528 43.7105 45.3585 27.1994 34.4569 51.31 24.2227 26.3297 30.857 30.3258 19.0444 22.2976 36.2126 15.7907 15.6054 17.9821 15.8489 10.5395 11.2023 21.5342 8.28542 7.05648 9.50791 5.15917 5.81334 4.3618 9.83769 2.95595 247.65 528.96 640.646 324.975 750.893 173.188 134.873 375.338 168.448 512.228 530.182 933.298 878.502 638.546 1024.4 849.885 658.745 595.871 1007.95 904.217 699.932 1034.97 950.69 664.161 574.856 954.731 860.538 663.033 964.708 907.214 625.642 545.28 898.172 813.337 613.031 892.446 842.992 589.364 516.399 847.14 768.37 566.881 825.995 782.295 555.613 486.205 795.55 721.089 523.68 762.761 725.827 520.38 454.911 741.861 673.205 482.189 702.53 671.218 484.402 423.594 687.595 625.539 442.767 645.008 619.867 447.982 392.981 633.931 579.081 405.616 591.5 571.623 412.534 363.535 582.478 535.145 371.348 540.771 527.386 378.35 335.759 533.148 493.32 338.994 493.894 485.594 346.124 310.002 487.665 454.508 309.147 450.171 447.782 315.783 285.87 444.724 418.619 281.754 409.991 412.193 287.937 263.652 405.393 384.715 256.315 372.81 379.586 261.634 242.517 367.983 353.274 232.664 338.283 348.652 237.48 223.309 334.511 323.979 211.198 306.21 320.8 214.91 204.896 302.411 296.44 190.935 276.702 293.882 194.165 187.634 273.427 270.203 172.321 249.25 268.994 174.701 171.35 246.063 245.53 155.136 223.731 245.212 156.749 155.56 220.875 222.456 139.234 200.302 222.663 140.305 141.025 197.197 200.016 124.328 178.23 201.29 124.676 126.646 175.341 178.524 110.577 157.777 180.834 110.136 112.847 154.94 158.084 97.6226 138.585 160.941 96.9935 99.2042 134.946 137.412 84.9493 119.487 141.679 83.6443 86.1407 116.19 117.926 73.1553 101.996 122.501 71.2416 72.6399 97.8466 98.2573 61.5568 84.5446 103.783 59.2807 60.0279 80.2804 79.1293 50.3366 67.7618 85.2673 47.8138 47.1125 62.8174 60.04 39.1816 51.2257 66.8595 36.0006 34.5725 45.6687 41.5653 28.2104 34.5234 48.7232 24.6047 21.8573 27.8821 22.1999 17.0178 17.7593 30.6127 12.912 8.95094 11.9848 6.195 7.05633 5.31587 12.2747 3.66169 240.768 278.663 697.925 225.976 626.13 219.141 62.3067 403.159 121.873 383.27 632.208 790.882 1018.12 568.128 917.364 982.912 564.786 717.672 913.095 1054.98 640.757 939.437 1108.81 592.288 697.234 894.628 1007.8 612.273 882.455 1059.1 571.634 655.365 848.237 945.343 566.249 816.57 977.528 541.52 611.163 798.502 881.893 522.109 756.134 898.458 510.564 566.955 747.157 818.678 482.214 699.842 826.33 477.976 524.68 696.083 757.876 445.326 647.544 760.552 445.766 484.483 646.694 699.566 411.655 599.117 700.288 414.164 446.809 599.649 645.693 380.428 554.334 644.702 384.355 412.163 555.317 595.596 351.626 512.858 594.264 356.266 380.097 513.882 549.225 325.75 474.881 548.226 329.602 350.861 475.854 506.953 301.549 439.563 506.026 305.448 324.019 440.515 467.415 279.212 407.346 467.057 282.799 298.863 407.87 430.938 258.855 377.02 431.371 261.681 275.806 377.22 396.997 239.383 348.466 397.868 241.875 254.199 348.558 365.223 221.555 322.021 366.518 223.354 233.821 321.73 334.836 204.495 296.835 337.288 205.879 214.264 295.835 306.555 188.147 272.289 309.127 188.842 196.068 271.233 279.022 172.467 249.374 282.846 172.731 177.987 247.251 253.177 157.308 226.962 256.938 157.518 161.304 224.943 227.918 143.169 205.42 232.641 142.328 144.452 202.344 203.633 128.855 184.476 208.262 127.895 128.885 181.11 180.041 115.207 163.759 185.776 113.49 112.92 158.989 156.707 101.352 142.739 162.939 99.0005 97.8437 138.18 133.789 87.7203 122.734 140.805 85.2792 82.3015 116.71 111.084 74.296 102.094 118.537 70.9443 67.396 96.3533 89.5632 60.9327 82.6496 97.0509 57.5265 52.9777 75.3885 67.8543 47.826 62.3643 76.2316 43.6901 38.806 55.4682 47.2634 34.645 43.5918 55.2699 30.7373 24.9932 35.328 26.3042 22.0845 23.7051 35.4978 16.6859 10.5389 14.6161 7.31112 8.78985 6.36693 14.9927 4.50939 540.017 566.474 1161.63 404.821 922.669 452.583 177.227 790.899 275.007 583.996 982.061 1162.99 1512.8 799.753 1267.07 1458.87 804.544 1051.71 1284.86 1519.05 882.057 1285.8 1585.11 824.11 1002.44 1240.76 1429.19 839.754 1202.66 1505.1 783.375 931.047 1159.54 1325.25 772.099 1106.08 1383.88 730.861 858.975 1074.32 1222.3 707.043 1015.02 1266.97 677.246 789.975 991.024 1123.61 647.239 930.743 1159.11 624.967 724.699 912.361 1030.96 593.317 853.515 1060.19 575.474 663.636 838.273 943.484 543.296 782.652 969.211 528.782 606.617 769.435 862.266 498.165 717.512 885.452 485.535 553.695 705.896 787.293 456.592 658.29 808.398 445.964 505.446 648.092 718.594 419.069 603.978 737.907 409.829 460.955 594.728 655.023 384.432 554.362 673.136 376 420.284 545.858 596.865 352.961 508.723 613.509 345.273 382.169 500.381 542.968 323.489 466.477 558.294 316.951 347.712 458.945 493.314 296.714 427.103 508.015 290.327 315.247 419.787 446.909 271.201 390.497 460.382 265.842 285.45 383.71 404.144 247.755 356.001 416.932 242.694 257.433 349.192 364.2 224.959 323.51 375.665 220.968 231.914 317.815 327.292 204.84 293.267 338.383 200.662 207.266 286.812 291.459 184.608 264.051 302.541 180.889 184.512 258.1 258.947 166.025 236.401 268.936 162.182 162.946 229.783 227.544 147.607 209.728 237.18 144.267 142.794 203.453 197.86 130.601 184.198 207.812 126.694 123.17 177.412 170.096 113.471 159.172 178.91 110.187 104.884 152.705 143.109 97.3921 135.074 152.379 93.6099 86.9559 127.552 117.535 80.9577 111.803 125.756 77.8954 70.6095 104.218 92.8426 66.2949 89.0174 102.238 62.0577 54.1453 80.944 69.5126 51.2143 67.4114 78.2708 47.2717 39.1347 59.1788 47.3587 37.1469 45.867 56.2928 32.6994 24.1693 37.3032 27.1539 22.8054 26.0159 34.396 18.7562 11.515 16.7152 8.09303 10.2056 7.57392 16.6296 5.27679 949.196 1090.56 1804.22 729.705 1453.66 789.223 353.965 1367.44 530.113 964.066 1437.88 1778.35 2143.29 1184.97 1830.6 2103.24 1193.8 1453.58 1852.61 2086.47 1252.14 1819.36 2174.09 1182.92 1362.72 1752.22 1944.77 1180.47 1693.89 2043.51 1108.42 1261.6 1623.71 1798.05 1084.69 1555.32 1882.39 1025.74 1163.76 1496.62 1655.96 992.601 1424.32 1727.07 944.491 1069.37 1374.83 1519.78 907.944 1302.56 1581.89 866.783 979.809 1259.74 1390.07 829.181 1189.53 1445.66 793.563 894.165 1151.01 1266.98 757.109 1085.48 1318.35 724.378 813.853 1049.92 1152.05 689.713 988.252 1199.41 660.522 739.21 955.74 1045.36 627.682 898.511 1089.5 600.791 669.794 868.975 946.094 570.373 816.43 987.134 546.154 605.383 788.345 854.48 517.826 740.577 892.856 495.292 546.521 715.171 770.241 469.151 670.617 805.61 448.989 491.157 646.529 691.746 424.348 605.947 724.872 405.826 440.947 584.299 620.318 383.071 546.529 650.504 366.713 394.349 526.129 553.896 344.881 490.815 582.107 329.731 351.578 472.724 492.795 309.182 439.967 518.325 296.107 311.483 422.325 436.164 276.489 392.533 459.557 264.403 275.407 377.043 384.019 246.071 348.787 405.625 235.7 241.137 333.861 335.779 217.853 307.888 355.703 208.237 210.33 294.338 291.43 191.42 269.941 309.66 183.397 181.445 257.291 250.621 167.217 234.611 267.149 159.61 155.234 222.803 212.661 144.271 201.567 227.855 137.619 130.576 190.143 178.264 122.984 170.925 191.784 117.066 108.726 160.412 146.471 103.505 142.216 159.124 97.8708 87.8136 131.714 117.082 84.6061 115.086 128.547 79.5135 69.2708 105.471 90.2888 67.3412 89.7514 100.693 62.521 51.5927 79.9705 65.3573 50.8813 66.1342 74.995 46.2611 35.7272 56.6638 42.6975 35.7132 44.0425 51.7913 31.1033 21.0586 34.2879 24.1524 21.4133 24.5038 30.6935 17.4604 10.5178 16.3696 7.92881 10.4758 8.04958 15.4492 5.50383 1568.22 1844.46 2587.76 1222.3 2130.08 1347.43 628.403 2281.07 953.343 1437.03 1933.53 2507.04 2806.57 1648.06 2478.24 2817.44 1637.51 1861.94 2472 2671.41 1655.45 2401.67 2773.84 1574.55 1734.88 2305.24 2488.44 1547.8 2230.48 2598.54 1465.47 1613.3 2136.38 2308.18 1428.2 2055.23 2410.09 1356.12 1493.61 1973.32 2131.33 1313.03 1887.68 2223.76 1250 1375.57 1814.75 1957.71 1203.93 1728.91 2042.87 1147.71 1260.74 1662.99 1789.61 1100.93 1578.5 1870.15 1049.35 1149.78 1516.92 1628.77 1003.17 1437.04 1704.03 956.002 1044.79 1379.5 1477.68 912.161 1304.13 1548.61 867.743 946.1 1250.74 1335.79 826.332 1181.32 1401.62 786.047 854.103 1131.18 1204.21 747.671 1066.48 1266.32 709.89 768.348 1019.77 1081.68 673.754 960.728 1139.25 639.48 689.24 917.339 968.716 606.349 862.708 1022.58 574.373 615.869 821.936 863.915 542.999 771.937 913.738 514.048 548.317 734.653 767.437 485.365 687.899 814.114 458.485 485.436 653.291 678.366 431.18 611.111 720.355 407.506 428.348 579.261 596.524 382.262 539.83 636.183 360.451 375.008 510.428 520.895 336.264 474.215 556.634 317.065 326.495 447.593 451.6 294.708 413.466 485.019 276.854 281.433 388.52 387.849 255.534 358.021 417.606 240.215 240.652 335.722 329.485 220.432 306.753 357.308 206.282 202.82 286.118 276.331 187.235 260.228 300.696 175.663 169.092 242.137 228.365 157.977 217.536 250.641 147.345 137.84 200.712 184.953 130.602 179.185 204.145 121.866 110.654 164.4 146.231 106.823 144.261 163.767 98.3892 85.6391 130.385 111.946 84.1324 113.234 126.357 77.7973 64.3937 101.131 81.988 64.9847 84.9214 95.4491 58.9194 45.1988 73.4358 55.9821 46.7582 60.2192 66.7318 42.0401 29.5488 49.7823 34.6013 31.5681 37.6687 43.5502 26.7349 16.0741 28.1806 18.0072 17.5176 20.8761 23.4599 14.769 7.43318 14.4435 6.12391 9.39483 7.57898 11.6856 5.19943 1199.4 3114.76 1689.56 2073.24 3002.31 586.666 1144.79 1752.67 1756.01 2042.67 1190.43 3265.04 1631.33 2102.66 3116.65 1706.39 2077.01 1091.47 3066.13 1543.52 2034.74 2971.74 1598.58 1960.8 1019.69 2864.1 1446.29 1914.84 2779.7 1503.86 1833.74 956.522 2675.43 1349.83 1786.01 2580.86 1410.05 1706.48 890.53 2482.98 1251.42 1652.47 2380.88 1309.78 1578.2 822.268 2288.93 1152.56 1520.01 2185.38 1207.3 1450.78 754.864 2098.25 1055.64 1391.33 1996.41 1106.63 1326.59 688.96 1913.34 961.236 1267.64 1815.89 1009.47 1206.87 625.746 1737.15 872.199 1150.74 1646.08 916.592 1094.63 566.327 1572.1 787.925 1041.12 1486.66 829.866 988.247 510.433 1417.24 709.998 938.633 1339.19 747.73 890.31 458.863 1273.59 636.801 843.699 1201.04 672.758 798.262 410.684 1140.47 569.77 755.512 1074.09 601.95 714.042 366.399 1017.37 507.135 673.944 955.737 537.256 635.144 325.034 903.341 449.815 598.257 847.136 476.637 563.38 287.213 798.202 396.385 528.433 745.998 421.414 496.115 251.998 701.123 347.514 464.151 653.733 369.691 435.047 220.045 612.051 302.423 404.695 567.648 322.815 377.965 190.163 529.645 260.985 350.307 489.758 278.868 326.344 163.026 454.559 222.713 300.154 417.287 239.357 278.237 137.925 385.358 188.356 254.267 351.708 202.308 235.036 115.342 322.337 156.38 212.275 291.24 169.267 194.952 94.5432 265.308 128.075 174.164 237.45 138.558 159.69 76.2567 214.198 102.206 140.075 188.775 111.664 127.262 59.3732 168.301 79.5591 109.921 146.281 87.0141 99.0447 45.0023 127.79 59.4636 82.9291 108.072 65.8814 73.7283 32.1053 92.5995 42.0741 59.7518 76.5823 47.0038 52.5525 21.4506 62.8278 27.4945 40.3475 49.5782 31.7614 34.3251 12.5754 38.2809 16.1483 24.2638 29.1585 18.6783 20.4366 6.41097 19.8075 7.705 12.6493 14.2602 9.84725 9.86791 2.70024 8.60796 2.8126 5.50051 4.66499 3.9385 3.21534 775.78 2130.19 1820.7 1473.08 2614.2 1491.61 741.255 964.418 488.408 445.821 1193.84 647.818 1296.5 1753.2 1328.4 2366.72 2010.91 1571.97 2356.08 1218.3 825.546 2021.57 1208.78 1593.05 1332.78 2360.65 1938.59 1554.01 2292.64 1225.33 829.128 2021.7 1179.1 1551.05 1236.19 2236.42 1803.24 1483.36 2164.67 1185.89 795.128 1888.45 1105.6 1458.24 1132.39 2057.09 1650.97 1373.54 1987.29 1102.14 733.251 1738.29 1007.57 1334.46 1029.7 1862.04 1495.45 1246.08 1793.32 998.5 661.991 1581.84 904.993 1202.67 929.788 1670.28 1346.25 1117.36 1602.93 893.3 591.55 1426.04 807.536 1076.23 836.316 1494.2 1208.12 997.024 1429.43 795.445 527.525 1278.01 719.789 961.706 750.241 1334.34 1082.31 887.775 1272.22 707.093 469.658 1142.6 641.34 858.35 671.694 1192.05 968.021 790.522 1133.04 628.754 418.858 1019.7 571.263 766.247 600.387 1062.18 864.802 703.045 1006.86 558.615 372.583 908.976 508.16 682.538 535.891 946.296 770.786 624.454 894.147 495.779 331.511 809.108 451.119 607.335 476.547 839.094 684.367 553.121 790.226 438.588 293.425 718.545 398.397 537.423 422.357 741.669 605.073 487.759 696.076 386.325 258.896 635.299 350.142 473.831 371.84 650.472 531.676 427.61 607.878 338.071 226.454 559.199 305.52 414.598 325.682 567.747 463.697 372.373 528.369 294.059 197.464 488.827 264.668 360.377 282.95 490.022 401.888 321.354 453.989 253.423 169.792 424.26 226.974 310.088 244.061 420.209 344.63 275.091 386.797 216.243 145.276 365.396 192.518 264.269 208.227 354.76 293.04 232.176 324.217 181.911 121.986 311.316 160.695 221.801 176.105 296.805 246.329 193.123 268.819 150.933 101.732 262.362 132.502 184.317 146.861 242.726 203.715 157.984 217.785 122.801 82.4494 218.284 106.524 149.374 120.523 195.534 166.227 126.646 173.43 97.7191 65.9776 178.504 83.9943 119.12 97.6633 152.758 133.614 98.9393 133.304 75.4973 50.5846 144.149 63.6168 91.7563 77.7763 116.651 105.203 74.7696 100.065 56.0671 37.9883 114.123 46.743 68.8413 60.9872 84.9299 81.1299 54.4851 71.1789 39.7771 26.6971 88.6336 32.2833 48.9237 46.789 59.3483 61.2338 37.5211 48.2271 26.0215 17.8479 67.4163 20.7791 33.1687 35.3477 38.306 45.1197 24.0461 30.1707 15.3967 10.2236 50.2193 12.2553 20.6104 26.6056 24.2212 32.2052 15.3024 18.66 8.46012 5.64522 37.3504 7.27002 12.4112 19.1293 16.263 22.6308 10.2145 12.7809 5.72878 3.62324 26.6866 5.40588 8.22636 13.0576 12.4775 14.2135 8.41737 9.87634 5.97113 3.68696 18.578 4.48498 6.35599 7.31126 9.6476 8.70097 5.74677 7.39886 5.00429 3.42341 10.2505 3.56825 5.5029 4.28016 5.26357 2.83535 3.13396 2.53341 2.26612 1.75232 5.96682 0.952206 1.82564 386.767 865.444 930.116 576.508 1238.54 248.16 209.938 579.309 289.774 829.283 789.636 1575.76 1296.05 1063.15 1633.75 1230.64 1100.06 864.961 1626.79 1306.53 1090.6 1607.7 1330.46 1077.54 826.185 1524.97 1218.54 1020.76 1491.34 1269.97 998.401 762.15 1405.18 1117.32 941.751 1367.92 1173.39 915.341 696.38 1283.4 1019.52 859.571 1242.84 1071.46 834.079 633.86 1164.66 926.435 777.644 1121.19 971.523 755.354 574.665 1051.26 840.053 699.023 1007.15 876.796 681.478 520.622 946.928 760.148 626.835 903.055 790.23 613.275 470.901 850.826 687.309 560.971 807.537 711.483 550.628 425.344 763.245 620.457 501.354 722.466 640.029 493.758 383.999 683.769 559.393 447.82 644.722 575.872 441.688 345.905 610.731 503.003 399.119 574.258 517.34 393.752 310.762 543.526 451.684 354.691 509.134 464.04 349.769 278.823 481.5 403.66 313.614 449.482 414.97 308.818 248.796 424.129 359.887 275.742 394.505 369.581 271.316 221.694 371.954 319.743 241.503 344.769 328.678 237.159 196.795 323.967 282.947 210.122 298.784 291.095 205.792 174.044 280.428 249.361 181.246 257.418 256.443 177.207 153.176 240.491 218.415 155.465 219.757 225.443 151.447 134.542 205.248 190.477 132.189 186.357 197.046 128.082 117.044 172.716 164.882 111.134 156.081 171.152 107.61 101.671 144.962 142.332 92.9463 130.426 148.024 89.598 87.9007 120.296 121.957 77.3594 107.434 127.82 73.8184 75.5824 99.682 103.727 63.7558 88.211 109.033 60.4529 63.8501 81.2323 85.986 51.999 71.188 92.4316 48.6562 53.0173 65.7485 70.8778 41.9386 56.9155 76.2001 38.7795 43.0178 52.2826 55.8669 33.3774 43.8461 61.979 30.2118 33.1422 39.44 41.1816 24.7687 31.8196 47.5959 21.9448 23.4133 27.9531 27.2381 17.5198 20.2729 33.7862 14.2639 13.9188 15.6325 13.9809 9.33617 10.0825 19.8299 7.045 6.45552 8.09686 4.53488 4.97011 3.70039 9.00648 2.63255 225.647 438.308 644.857 302.039 744.681 168.009 102.716 358.051 145.03 487.967 579.192 973.995 955.982 668.862 1066.78 903.551 696.46 660.088 1098.58 986.585 740.622 1090.17 1020.17 721.078 624.692 1043.55 919.359 701.12 1016.28 962.354 676.147 570.704 956.657 840.572 640.455 927.845 874.589 620.686 520.989 874.479 768.134 582.183 843.458 793.164 567.825 476.554 798.57 703.363 527.899 765.349 719.976 518.574 436.462 728.065 644.655 478.239 694.011 655.219 473.153 400.072 663.421 590.904 433.478 629.343 597.595 431.068 367.206 604.397 542.855 393.2 571.764 546.087 392.808 338.421 550.675 499.085 356.805 518.883 500.645 357.449 310.866 501.327 458.662 324.241 471.983 459.434 325.375 286.791 456.362 421.647 294.728 428.48 422.826 295.626 264.159 415.091 388.004 267.644 389.433 388.437 268.685 243.282 377.285 356.213 243.102 352.992 357.496 243.619 223.762 341.894 327.054 220.163 319.856 328.392 220.597 205.963 309.797 299.735 199.356 288.934 301.646 199.056 189.07 279.927 274.079 180.325 261.193 276.515 179.74 173.27 252.435 249.933 162.519 234.854 253.274 161.381 158.145 227.162 227.287 146.445 210.782 231.047 144.503 144.034 203.683 205.618 131.113 188.382 209.875 129.123 130.018 181.685 184.825 117.108 167.556 189.633 114.655 117.119 161.228 165.064 103.89 148.297 170.376 101.385 104.366 142.63 146.229 92.084 130.661 151.919 89.1626 91.959 124.578 127.243 80.5887 113.213 133.994 77.1031 79.4447 107.054 108.906 69.4185 96.7696 115.856 65.6876 67.3869 90.2632 90.7022 58.345 79.7162 98.1814 54.5514 55.0465 73.9634 72.8375 47.7217 64.1059 80.2444 43.7534 43.2436 57.3872 55.064 37.1281 48.2351 62.9284 32.9319 31.3274 41.205 37.1944 26.5511 31.9866 45.6892 22.0512 19.6028 25.3168 19.8617 16.0499 16.8391 28.0966 11.6178 7.68745 10.9746 5.43382 6.97061 5.28253 11.2262 3.53289 273.202 323.583 749.357 255.507 671.728 232.463 78.7236 437.825 143.063 417.66 681.754 882.956 1099.13 610.575 983.049 1034.68 629.016 771.616 1004.55 1123.1 682.82 996.255 1167.97 644.258 728.141 951.309 1039.87 641.027 916.013 1099.11 599.054 661.594 867.077 945.226 578.671 827.458 992.258 546.836 600.123 788.833 860.917 521.611 748.92 893.707 499.575 546.968 720.574 786.653 472.15 681.185 809.163 457.919 500.152 660.296 720.785 430.127 622.755 736.747 420.697 458.883 606.974 662.161 393.534 571.143 673.851 387.262 421.602 558.826 609.061 361.655 525.746 618.302 357.328 388.457 516.303 560.811 333.568 485.634 569.255 330.167 357.863 476.713 517.155 308.157 448.723 524.132 305.257 330.441 441.665 477.266 285.464 415.686 484.015 282.766 304.797 408.607 440.05 264.174 384.874 446.725 261.962 281.785 378.857 406.079 244.862 356.088 412.674 242.533 259.688 350.168 373.711 226.461 329.28 380.432 224.125 239.192 324.093 343.759 209.582 304.498 350.58 207.165 219.981 299.159 315.641 193.572 280.667 322.317 190.906 201.941 275.295 288.657 178.323 258.152 295.713 175.594 184.403 252.415 262.959 163.789 236.485 270.355 160.811 167.938 230.913 238.452 149.771 215.457 246.134 146.459 151.712 209.325 214.47 135.838 194.58 222.658 132.273 135.806 188.74 191.144 122.55 174.79 199.579 118.889 120.877 168.687 169.371 109.361 155.178 177.455 105.832 106.488 148.996 147.161 96.4199 136.092 155.989 92.4666 91.6519 128.852 125.59 83.7698 116.285 134.499 79.3925 77.3075 109.19 104.305 70.3831 96.95 113.142 66.4537 63.0027 89.3257 83.7209 57.7379 77.8314 92.3048 53.3792 49.6992 70.4686 63.4958 45.1123 58.8471 72.2495 40.7018 35.8488 50.8436 43.497 32.6033 40.0388 52.3067 27.9927 22.8741 32.2557 24.442 20.0496 21.4866 32.8721 15.4592 9.70159 13.1516 6.48076 7.84477 5.82455 13.5108 4.11663 514.76 569.615 1150.85 413.838 949.717 429.952 170.3 773.37 274.454 602.08 987.177 1206.39 1550.36 820.627 1307.74 1469.02 847.106 1085.64 1347.51 1567.77 910.256 1327.32 1621.86 862.489 1026.97 1277.87 1454.19 860.089 1225.77 1535.97 799.85 936.982 1165.33 1324.41 779.585 1108.56 1397.45 727.706 851.933 1058.56 1205.93 703.093 1003.47 1263.76 662.729 775.743 964.287 1099.47 637.18 911.72 1147.12 604.492 707.6 880.255 1003.67 579.554 830.852 1043.48 552.719 645.31 804.698 915.638 528.87 759.921 950.793 506.141 589.304 737.238 836.167 483.937 695.463 867.793 463.846 537.78 675.758 762.908 443.672 638.241 791.77 425.658 490.413 619.925 695.933 406.782 585.155 722.424 390.718 447.062 568.709 634.546 373.269 537.186 658.916 358.923 407.404 521.998 577.984 342.551 492.562 600.637 329.354 370.586 478.84 525.293 314.246 452.004 546.584 302.493 336.872 438.964 477.355 287.916 413.346 497.038 277.095 305.321 401.223 432.098 263.195 377.774 450.443 253.257 276.1 366.339 390.268 240.212 344.327 407.543 231.404 248.653 333.541 350.632 218.522 313.32 367.413 210.352 223.649 302.877 314.759 198.292 283.062 329.886 190.586 199.561 273.154 280.229 178.696 255.138 294.435 171.845 177.293 245.318 248.107 160.496 227.944 261.523 153.862 155.982 218.097 217.372 142.751 201.837 230.533 136.312 136.382 192.622 189.056 125.903 177.153 201.006 120.077 117.352 168.042 161.316 109.594 153.32 173.432 103.809 99.443 143.742 135.583 93.778 129.823 146.84 88.2719 82.2494 120.051 110.425 78.1977 107.259 121.749 73.0296 66.4744 98.1538 87.6029 63.3722 85.2752 97.7027 58.5545 50.7495 76.0595 65.0174 49.2876 64.0244 75.1587 44.0762 36.3799 55.1155 44.0669 35.1119 43.8053 53.2805 30.4622 22.3152 34.2049 24.7517 22.0343 24.4201 33.3487 17.1079 10.5865 15.2715 7.5318 9.41188 6.84916 15.2222 4.83263 887.246 1023.37 1727.21 707.332 1430.43 748.212 329.272 1313.46 512.148 928.871 1400.53 1754.65 2138.55 1178.33 1835.39 2070.51 1204.92 1472.25 1890.32 2122.24 1267.5 1847.76 2191.33 1211.77 1386.96 1787.12 1971.22 1198.55 1716.07 2071.59 1125.48 1272.52 1635.77 1805.26 1093.98 1562.73 1897.96 1027.7 1163.23 1491.02 1649.56 993.364 1419.82 1730.83 936.735 1062.73 1359.4 1505.98 902.774 1291.81 1577.16 854.285 969.39 1239.78 1372.98 821.783 1176.43 1436.92 778.867 883.092 1130.11 1250.51 748.093 1070.99 1307.89 710.112 803.357 1029.5 1135.83 681.203 974.896 1189.9 646.474 729.347 937.022 1030.76 619.853 886.788 1079.96 588.186 660.733 851.241 932.914 563.169 805.434 978.922 534.358 597.627 773.112 843.459 511.217 730.603 885.52 485.419 539.404 700.839 759.459 463.49 661.547 799.659 439.3 485.091 633.655 682.748 419.02 597.503 719.189 397.082 435.1 571.897 611.144 377.867 538.348 645.576 358.256 388.883 514.78 545.755 340.086 483.805 576.602 322.06 346.081 461.845 484.656 305.093 433.102 513.811 288.568 306.733 412.533 428.783 272.286 386.037 455.136 257.66 270.274 367.365 376.561 242.126 342.487 401.396 229.072 236.679 324.959 328.955 214.005 302.117 351.327 202.389 205.854 285.813 284.804 187.858 264.06 305.646 177.409 177.28 249.044 244.442 163.627 229.099 262.763 154.105 151.013 215.126 206.599 140.907 196.303 224.246 132.562 126.817 183.116 172.408 119.779 165.789 187.731 112.255 104.694 153.854 141.043 100.272 137.483 155.233 93.5193 84.3256 125.699 112.079 81.8517 110.962 124.772 75.6765 65.8867 100.207 85.8546 64.7883 86.3402 97.5811 59.2502 48.9764 75.7456 61.8543 48.9527 63.4679 72.3826 43.6641 33.5154 53.1935 40.2015 34.2957 41.7354 49.9222 28.9747 19.941 32.1657 22.7758 20.4899 23.5824 29.1433 16.3951 9.9981 15.6225 7.47902 9.91693 7.59647 14.9385 5.29917 1509 1749.66 2471.74 1185.99 2068.34 1314.01 605.483 2229.42 935.23 1359.54 1858.61 2425.78 2765.81 1617.93 2454.4 2744.49 1624.89 1866.52 2492.09 2692.87 1661.06 2418.53 2776.11 1596.65 1756.42 2340.12 2513.66 1563.71 2252.31 2620.72 1483.99 1625.92 2154.14 2319.97 1438.3 2066.06 2425.66 1362.99 1496.88 1975.53 2130.8 1316.62 1889.15 2229.95 1248.24 1372.6 1808.39 1950.31 1202.97 1724.63 2042.57 1140.96 1254.92 1651.14 1780.19 1097.01 1571.71 1865.14 1040.77 1143.41 1504.32 1618.48 999.066 1429.73 1699.54 946.799 1038.48 1367.15 1468.33 907.529 1297.21 1542.6 859.615 940.297 1239.67 1327.5 822.592 1175.16 1397.14 778.864 849.601 1121.59 1197.24 744.326 1061.6 1262.52 703.524 764.633 1011.57 1076.21 671.335 956.244 1136.48 633.888 686.291 910.228 964.081 603.773 858.859 1020.02 569.458 613.243 815.742 859.935 541.308 769.114 912.284 509.921 546.474 729.154 764.152 483.719 685.203 812.618 454.654 483.446 648.097 675.016 429.839 608.394 719.765 404.016 426.819 574.501 593.904 380.728 536.941 634.941 356.902 373.552 505.679 517.948 335.016 471.427 555.968 313.592 325.012 442.695 448.533 292.942 410.714 483.673 273.382 279.699 384.342 384.826 254.179 355.403 416.419 236.983 238.862 331.128 326.871 218.637 304.211 355.594 203.381 201.289 282.011 273.477 185.934 257.6 299.832 172.553 167.287 237.436 225.182 156.567 214.96 249.168 144.179 136.124 196.639 181.697 129.055 176.353 202.855 118.717 108.6 159.887 143.369 104.864 141.542 161.624 95.7038 83.9346 126.453 108.931 82.7767 110.355 125.259 74.9157 62.9328 97.0047 79.6298 63.0919 82.4058 93.4248 56.3743 43.9643 70.5089 54.2312 45.7532 58.1659 65.8887 40.0167 28.6403 47.3489 33.2595 30.4092 36.5299 42.6161 25.2251 15.2947 26.6962 17.3542 17.0562 20.0137 23.3358 14.0639 7.62351 14.0393 6.27995 9.1076 7.34303 11.0523 4.93017 1197.89 3050.32 1623.39 2047.51 2922.78 590.004 1140.45 1751.62 1756.23 1947.13 1129.23 3137.04 1590.75 2050.67 3064.75 1640.63 2042.97 1084.28 3061.09 1543.84 2027.11 2972.65 1592.57 1971.94 1026.82 2888.22 1455.69 1923.67 2794.57 1512.49 1848.61 961.574 2691.22 1355.54 1793.81 2591.14 1416.32 1714.01 891.741 2487.47 1251.8 1656.25 2384.45 1312.33 1578.61 820.876 2285.1 1149.68 1519.95 2183.25 1206.88 1447.12 752.184 2091.09 1050.96 1389.15 1992.72 1104.8 1321.55 685.899 1905.36 956.664 1265.84 1812.34 1007.15 1201.73 623.119 1730.07 867.858 1148.31 1641.9 914.5 1089.41 563.755 1565.1 784.617 1038.84 1483.83 827.348 984.505 508.753 1412.5 706.924 937.662 1336.77 746.911 886.871 457.543 1269.85 635.055 842.289 1199.86 671.062 796.218 409.775 1137.94 568.083 755.143 1073.39 601.662 712.103 365.575 1015.25 506.121 673.861 955.622 536.791 634.076 324.641 902.132 448.833 598.499 847.021 476.788 562.251 286.917 796.847 395.904 528.446 746.321 421.078 495.397 252.036 700.657 347 464.402 653.765 370.191 434.224 219.743 610.995 301.967 404.905 567.934 322.677 377.388 190.181 529.299 260.609 350.452 489.452 279.304 325.581 162.796 453.405 222.49 299.809 417.029 238.874 277.629 137.94 384.465 187.748 254.015 350.926 202.451 234.066 115.144 321.45 155.992 211.852 291.18 168.698 194.305 94.3182 264.22 127.112 174.166 236.884 138.589 158.301 75.6868 212.371 101.433 139.556 188.304 110.904 126.122 59.0518 166.669 78.6712 109.369 144.943 86.9156 97.677 44.5145 126.148 58.623 82.1641 107.48 65.0387 72.5828 31.7569 91.2995 41.2993 59.3356 75.8921 46.7522 51.4653 21.2506 61.7163 27.328 39.8852 49.6505 31.1556 33.8941 12.711 37.8623 15.8569 24.5339 29.1463 19.166 19.8643 6.70926 19.84 8.06646 12.8546 14.8026 9.91027 9.99581 2.88432 9.13736 2.80813 5.8328 4.70143 4.5686 3.36104 738.517 2142.61 1830.09 1481.16 2644.73 1510.87 744.435 988.402 459.091 422.376 1162.98 638.695 1308.94 1792.26 1336.79 2353.34 2015.1 1567.77 2339.22 1211.67 812.81 2026.25 1194.4 1577.17 1342.16 2348.73 1949.45 1546.51 2279.78 1216.47 819.08 2024.64 1172.32 1544.11 1252.22 2246.42 1827.02 1481.78 2164.85 1182.06 794.247 1895.5 1109.51 1468.38 1154.07 2084.82 1681.72 1378.11 1997.41 1102.59 739.264 1750.51 1017.94 1354.31 1051.39 1894.02 1525.05 1253.65 1805.23 1001.73 670.098 1595.85 915.652 1223.56 947.985 1698.78 1369 1124.16 1613.78 896.287 599.356 1437.55 816.77 1093.65 848.1 1514.31 1222.54 1001.69 1435.55 797.393 532.919 1285.5 725.818 973.639 756.715 1347.1 1088.96 890.167 1275.18 707.75 473.399 1145.71 644.548 865.286 673.773 1197.08 969.6 790.289 1131.86 628.052 420.051 1018.89 571.946 768.809 599.636 1063.58 862.373 701.28 1004.39 556.976 372.887 905.857 507.496 682.543 532.587 943.364 765.583 621.944 889.642 493.955 330.559 804.178 449.15 605.096 472.58 834.987 678.178 549.682 785.345 436.072 292.158 712.705 396.128 534.379 417.285 735.695 597.985 483.987 690.382 383.805 257.116 628.914 347.572 470.215 367.37 645.252 524.556 424.101 603.03 335.733 224.997 553.09 302.97 410.805 320.768 561.317 456.989 369.062 522.942 291.987 195.275 482.836 262 356.431 278.554 485.065 395.259 318.311 449.574 251.252 168.544 419.058 224.492 306.41 239.451 414.327 338.511 271.653 382.131 214.241 143.431 359.838 190.305 260.707 204.215 350.253 287.488 229.508 320.731 180.239 120.853 306.791 158.775 218.866 172.132 291.319 240.437 191.035 265.186 149.764 99.9499 258.124 130.347 180.78 143.082 238.532 198.633 156.019 214.993 121.521 81.47 214.461 104.939 146.7 117.025 191.12 161.563 124.692 170.393 96.7082 64.6485 175.035 82.2936 116.337 94.7571 149.508 129.413 97.3296 131.655 74.4605 49.9672 141.315 62.3963 89.5963 74.9566 112.654 101.528 73.5645 97.643 55.4959 36.8171 111.737 45.2901 66.5741 58.5022 82.3222 77.9398 53.3107 69.8019 39.1638 26.0848 86.9118 31.078 47.2934 44.5708 56.2179 58.5945 36.4335 46.6707 25.5995 16.7667 65.6635 19.9149 31.6167 33.5129 36.738 42.4554 23.8254 29.6254 15.2323 10.028 49.6099 11.7201 19.6042 24.8051 22.6989 30.8847 14.6963 18.1809 8.31056 5.22081 36.1287 7.12643 11.8132 18.0319 15.785 21.5903 10.5582 12.7985 6.22086 3.84233 26.5454 5.22231 8.20124 12.6912 12.8397 14.1033 7.67025 9.80253 5.53475 3.73248 18.0852 4.44168 6.8339 6.64888 8.8662 7.78801 5.51687 6.89694 4.83677 3.05468 9.80609 3.28191 4.97043 3.6564 4.37435 2.37163 2.84954 2.09762 2.27886 1.41909 5.66942 0.684917 1.46601 347.151 806.475 913.235 562.324 1230.34 223.324 181.855 547.48 278.649 818.377 805.3 1591.65 1320.56 1067.54 1639.2 1241.89 1111.09 880.054 1648.71 1333.85 1096.7 1616.51 1341.67 1095.41 845.076 1553.31 1247.7 1027.62 1503.47 1282.62 1019.46 781.214 1436.72 1144.89 949.349 1381.09 1186.81 937.225 712.366 1312.02 1039.96 867.284 1254.61 1083.15 851.898 643.703 1185.35 938.573 782.966 1129.34 978.688 767.966 579.042 1063.26 843.984 701.924 1010.63 879.807 687.884 519.983 950.923 757.599 626.712 902.265 788.65 614.943 466.482 848.937 679.916 558.895 804.718 706.919 548.713 418.821 757.41 610.699 497.998 717.077 633.31 489.751 376.284 675.486 548.072 443.722 638.192 568.359 435.767 337.586 601.106 491.265 394.388 567.181 508.968 387.763 302.563 533.691 439.843 349.795 501.895 455.813 343.059 270.503 471.542 392.355 308.733 442.709 406.933 302.779 240.955 414.584 348.915 271.513 388.228 362.44 265.01 214.399 362.607 309.67 237.305 338.673 321.561 231.482 189.927 315.31 273.53 206.22 293.251 284.676 199.939 167.611 271.998 240.38 177.974 252.543 250.8 172.226 147.554 233.455 210.41 152.506 215.468 220.504 146.467 128.889 197.772 182.96 129.278 182.162 192.22 123.842 112.269 166.436 158.58 108.58 152.534 167.003 103.335 97.2892 139.165 136.236 91.095 127.196 144.775 86.0463 84.039 115.654 116.907 75.3874 105.023 124.389 70.6013 72.0162 94.8559 98.7912 62.2607 85.8661 106.788 57.5311 61 77.5545 82.6805 50.672 69.4891 90.1646 46.4198 50.789 62.4729 67.1874 41.2726 55.0834 75.3471 36.8406 41.0594 49.5176 53.3443 32.324 42.9488 60.2505 28.5188 31.6936 37.423 38.8639 24.9 31.1012 47.2469 20.4697 22.3607 26.1526 25.7814 16.9194 20.0686 32.6475 13.2882 13.1343 14.4364 12.4173 9.44989 9.30223 19.6577 6.29752 5.76059 7.1346 3.86236 4.53568 3.52974 8.11831 2.09583 219.014 409.729 656.483 297.992 745.524 164.749 88.5351 350.638 143.024 487.284 604.874 1006.04 995.464 679.858 1083.31 923.488 720.026 688.33 1133.11 1022.58 752.558 1104.77 1042.99 741.481 647.489 1076.09 947.149 711.293 1030.35 980.937 695.32 585.339 982.489 857.591 648.823 938.806 888.158 635.582 527.519 890.747 775.041 587.406 850.109 800.158 576.707 476.143 804.522 701.079 529.999 767.334 721.426 521.238 431.25 726.23 636.195 477.59 692.449 652.051 470.86 391.937 655.485 578.537 430.562 624.269 591.888 424.939 357.007 591.92 528.132 388.247 563.963 537.934 384.407 326.76 536.205 482.454 351.34 510.604 491.824 347.717 299.522 485.748 442.86 318.123 463.018 450.082 315.342 275.797 441.178 406.276 288.788 419.565 413.952 285.532 253.573 399.915 373.469 261.51 380.521 379.602 258.944 233.586 362.913 342.272 237.568 344.957 349.487 234.055 214.843 328.315 314.625 214.752 312.093 320.647 211.969 197.651 297.604 287.642 194.967 282.318 295.302 191.045 181.41 268.464 263.495 175.777 254.568 270.151 172.293 166.292 242.306 240.283 159.125 229.395 247.755 154.608 152.096 217.883 218.588 142.992 206.344 226.017 138.639 138.286 195.115 197.567 128.342 183.968 205.651 123.551 125.258 173.862 178.203 114.197 163.793 185.941 109.91 112.641 154.762 158.765 102.117 145.224 167.382 96.9767 100.535 136.533 140.87 90.0271 127.383 149.162 85.2137 88.7163 119.687 122.979 79.2681 110.989 131.47 73.9085 76.8469 103.147 105.6 67.8598 94.3422 113.638 63.2432 65.4663 87.2771 87.392 57.597 78.5753 96.5539 52.1146 53.1665 70.6376 70.4075 46.3183 62.4456 78.5068 41.9 41.8684 55.6367 53.371 36.8152 47.1344 61.8013 31.5578 30.5457 39.7281 36.1766 25.6514 31.2484 44.7616 21.1698 18.7 24.2537 18.638 15.6828 15.8159 27.8172 10.8642 7.42135 10.0022 5.1434 5.82729 4.56985 10.2881 3.18357 291.936 352.825 777.34 267.044 690.111 242.596 88.6274 453.813 149.854 438.968 703.722 922.481 1135.21 624.983 1005.7 1053.85 657.013 798.523 1046.37 1159.2 697.513 1017.1 1190.69 669.467 748.802 982.849 1063.66 652.444 930.987 1118.28 615.334 671.513 883.316 955.112 585.436 835.361 1003.39 553.896 601.002 791.865 858.808 523.659 750.932 897.364 499.126 541.237 713.661 776.839 471.426 678.652 807.956 451.649 491.15 647.365 707.185 426.927 617.154 732.042 411.285 448.151 590.724 646.356 389.447 564.185 667.725 375.908 410.861 541.346 592.988 356.374 517.837 611.511 345.379 377.655 498.215 545.639 328.489 476.361 562.362 317.843 347.975 459.584 502.659 302.443 440.714 517.374 293.993 321.358 425.656 463.621 280.639 407.563 478.214 271.871 296.34 393.809 427.67 259.292 377.744 440.527 251.994 273.902 365.056 394.148 240.938 349.12 407.893 232.73 252.367 337.336 363.18 222.322 323.568 375.134 215.69 232.747 312.143 333.899 206.352 298.454 346.738 199.095 213.954 288.137 306.381 190.064 275.553 317.967 183.613 196.47 265.576 280.306 175.487 253.331 292.32 168.863 179.435 243.857 255.61 161.104 232.404 266.684 154.96 163.27 222.993 231.426 147.517 211.257 243.249 140.974 147.555 202.466 208.417 133.757 191.853 219.106 127.872 132.627 182.829 186.082 120.973 171.592 197.309 114.411 117.495 162.965 164.119 107.509 152.567 174.374 101.923 103.205 143.863 143.008 95.0639 133.236 153.699 89.2383 89.2369 125.055 121.828 82.0849 114.312 132.119 76.7196 74.9313 105.588 100.841 69.8239 94.9206 111.781 63.6617 60.9912 86.2497 80.5916 56.6083 76.7416 90.3133 51.6284 47.8207 67.943 60.7901 44.6275 57.7056 71.3937 38.8418 34.4229 49.0671 41.7045 32.0002 39.8102 50.7858 26.8376 21.7179 30.6468 22.6832 20.2447 20.5957 32.5922 14.1311 8.51531 11.8702 5.8153 7.06721 5.30188 12.1989 3.75163 510.929 579.349 1154.38 419.112 962.255 425.784 170.376 772.452 275.497 614.606 993.288 1226.41 1566.69 828.533 1322.34 1476.21 863.763 1100.89 1377.02 1592.91 921.153 1345.11 1635.4 882.592 1042.47 1302.84 1473.92 869.981 1239.69 1550.88 813.677 946.016 1178.01 1333.6 785.84 1116.51 1407.38 733.259 853.452 1059.51 1204.74 705.869 1005.2 1269.06 660.546 772.498 956.727 1092.57 636.788 909.95 1147.51 598.139 701.704 868.88 993.766 578.056 827.476 1042.17 544.187 638.862 791.897 905.794 526.569 755.098 948.636 497.075 582.945 724.397 826 481.316 690.757 865.365 454.62 531.331 663.424 753.787 440.74 633.425 788.822 417.366 484.998 608.614 687.529 404.488 580.981 720.582 382.637 442.192 558.532 626.721 371.253 533.26 657.075 351.635 402.742 512.231 570.591 340.244 488.523 599.063 322.431 366.211 469.864 519.009 312.284 448.161 544.518 295.978 333.125 430.6 471.315 285.774 410.159 495.272 271.058 301.375 393.851 426.317 261.667 375.144 448.72 247.979 272.781 359.248 384.949 238.509 341.521 405.953 226.128 245.442 326.954 345.951 217.298 310.365 365.768 205.692 220.575 296.755 309.899 196.585 280.585 328.335 186.252 196.528 267.422 275.736 177.371 252.703 292.719 167.916 174.668 240.092 243.763 158.946 225.391 260.19 150.063 153.405 213.556 213.661 141.511 200.069 228.619 133.472 133.941 188.602 185.408 124.522 174.964 199.764 117.08 115.236 163.944 158.407 108.353 151.332 171.439 101.433 97.7479 140.58 132.845 92.401 127.585 145.692 85.7011 80.7315 117.27 108.575 77.09 105.485 119.803 71.0868 64.9136 95.1974 85.0624 62.3625 83.2444 96.7357 56.2141 49.6296 73.585 63.3701 48.2073 63.0763 73.5714 42.5418 35.3616 52.9974 42.334 34.7991 42.781 53.1504 29.0284 21.8683 33.383 24.2951 21.6462 23.7674 32.2945 16.5597 10.0712 14.0691 6.73523 8.96377 6.07898 15.3586 4.15312 870.162 1006.9 1705.69 703.121 1428.01 736.996 322.741 1301.11 508.32 921.143 1390.17 1749.51 2134.4 1178.15 1838.75 2064.49 1207.03 1475.7 1903.21 2135.81 1273.16 1859.37 2195.37 1224.74 1398.91 1807.2 1989.17 1206.8 1728.58 2083.18 1138.41 1282.11 1649.39 1815.85 1100.55 1570.96 1909.27 1034.34 1167.32 1495 1652.47 996.958 1423.9 1736.96 937.215 1062.32 1357.09 1503.89 904.485 1293.03 1580.03 851.242 967.152 1233.84 1368.87 821.99 1175.83 1437.89 774.421 880.053 1123.25 1245.02 748.314 1070.23 1308.74 704.802 800.569 1022.92 1131.25 681.142 974.028 1189.84 641.634 726.466 930.481 1026.55 619.713 885.628 1080.23 583.48 658.7 845.838 929.51 563.308 805.2 979.331 530.482 596.016 768.292 839.715 511.631 729.766 886.904 481.183 537.649 696.022 757.016 463.383 661.224 799.619 436.179 483.733 629.537 680.083 419.155 596.915 720.485 394.074 434.035 568.509 609.443 378.312 538.805 646.142 355.726 387.709 511.33 543.365 340.515 483.275 578.096 319.241 345.056 458.572 482.988 304.908 432.9 513.986 286.358 305.816 409.666 426.639 272.383 385.21 456.1 255.186 269.277 364.05 374.454 241.804 341.91 401.218 226.639 235.451 321.992 326.937 213.767 300.615 351.63 199.902 204.727 282.728 282.551 187.444 263.306 304.873 174.992 175.918 246.1 242.033 163.085 227.811 262.954 151.972 149.711 212.122 204.286 140.386 195.615 223.028 130.388 125.361 180.549 169.983 119.366 164.464 187.451 110.304 103.25 151.012 138.555 99.7107 136.843 153.745 91.7426 82.9699 123.572 109.921 81.3969 109.863 124.597 74.1121 64.6585 97.8582 83.9056 64.4342 85.5929 96.5088 57.7315 48.0788 74.1342 60.5293 48.5454 62.2491 72.0053 42.4075 33.0297 51.9775 39.2737 33.855 41.6808 48.8761 28.2213 19.3833 31.3808 22.1162 20.4055 22.6763 29.3044 15.8591 9.70426 14.7842 7.04846 9.63213 7.38712 14.2441 4.7722 1495.98 1725.33 2437.61 1177.11 2054.44 1306.88 600.263 2219.69 930.839 1336.36 1831.82 2396.81 2742.57 1610.48 2447.71 2726.06 1614.23 1860.11 2490.34 2695.08 1662.12 2424.3 2771.69 1602.13 1763.36 2354.93 2526.37 1570.03 2262.88 2628.41 1495.15 1634.01 2167.67 2330.09 1445.19 2075.36 2435.09 1370.39 1501.77 1982.57 2135.66 1321.27 1894.97 2237.42 1251.17 1374.39 1809.59 1951.58 1205.4 1727.36 2046.31 1140.9 1254.64 1649.89 1778.64 1098.83 1573.45 1868 1039.1 1142.57 1501.92 1617.65 999.956 1430.8 1700.53 945.368 1037.75 1365.37 1466.49 908.84 1298.62 1545.21 857.828 939.509 1237.29 1326.31 823.444 1176.37 1398.87 777.242 849.084 1120.14 1196.8 745.81 1062.92 1264.82 702.264 764.701 1010.61 1076.09 672.573 958.113 1138.82 633.046 686.324 909.149 963.859 605.066 860.26 1022.86 568.668 613.659 815.238 860.304 542.467 770.718 914.157 509.481 546.766 728.988 764.452 484.903 686.887 815.374 454.373 484.146 648.077 675.614 431.165 609.978 721.703 403.537 427.132 574.189 594.013 381.974 538.336 637.245 356.336 373.809 505.341 518.299 336.018 472.587 557.655 313.098 325.075 442.038 448.68 293.771 411.342 485.291 272.758 279.798 383.416 384.656 254.35 356.104 417.417 236.508 238.892 330.547 326.506 219.176 304.305 356.91 202.364 201.256 280.829 273.028 186.043 257.953 300.075 171.633 167.089 236.618 224.74 156.419 214.375 249.786 143.205 135.762 194.955 180.904 128.839 176.137 202.768 117.719 108.303 158.757 142.357 104.603 140.672 162.425 94.4926 83.5187 124.966 108.359 82.2709 109.985 124.67 73.9518 62.3879 95.7427 78.5703 63.0177 81.6174 93.8122 55.1437 43.6506 69.125 53.9533 45.0103 57.8771 65.0342 39.3309 28.5481 46.6583 33.2586 30.3583 36.2542 43.2694 24.9152 15.5565 26.2814 17.046 16.9416 19.8468 23.3357 13.5962 7.25002 13.7326 5.93456 8.91025 6.96717 11.3684 4.79981 1205.78 3043.29 1606.84 2043.04 2906.67 594.617 1143.56 1756.63 1755.83 1917.53 1105.26 3085.05 1566.53 2037.06 3047.85 1620.22 2020.56 1073.26 3044.51 1535.49 2023.08 2971.73 1584.93 1969.28 1025.73 2893.03 1458.2 1926.68 2801.49 1513.06 1854.78 963.656 2700.03 1359.45 1798.45 2598.33 1419.78 1720.08 893.614 2493.63 1254.23 1660.6 2390.2 1315.45 1582.15 821.979 2288.33 1149.91 1522.7 2187.17 1209.18 1448.02 751.853 2090.85 1050.24 1391.22 1994.88 1105.66 1320.94 685.598 1905.01 956.299 1266.84 1813.98 1007.61 1201.56 622.69 1729.16 866.845 1149.81 1644.12 915.027 1088.71 563.415 1564.55 783.785 1040.5 1485.9 828.107 983.833 508.697 1412.53 707.043 939.085 1339.31 747.476 887.193 457.318 1270.27 634.458 844.898 1202.61 672.695 796.217 409.923 1138.6 568.407 756.942 1075.79 602.424 712.723 366.118 1016.8 506.497 675.457 957.867 538.058 634.548 325.021 902.951 449.432 600.194 849.437 477.579 562.952 287.252 798.419 396.265 530.172 748.247 422.488 496.138 252.543 701.798 347.622 465.785 656.024 370.957 435.084 220.294 612.461 302.279 406.7 570.017 323.988 377.898 190.542 530.242 261.192 351.787 491.365 279.987 326.302 163.152 454.325 222.536 301.166 418.096 240.122 277.853 138.158 384.972 187.961 254.795 352.158 202.884 234.403 115.104 321.715 155.83 212.902 291.985 169.499 194.356 94.5678 264.478 127.461 174.528 237.463 138.842 158.564 75.7995 212.605 101.354 140.253 188.555 111.591 125.903 59.2761 166.566 78.8225 109.608 145.558 86.8127 97.5958 44.4322 125.911 58.242 82.6174 107.492 65.7779 72.3657 31.8803 91.1713 41.4885 59.7092 76.085 46.817 51.421 21.3858 61.8954 27.2519 40.1045 49.748 31.6439 33.9127 13.1043 38.443 16.3966 25.0671 30.1452 19.2574 20.4039 7.06001 20.684 8.37075 13.4235 14.9248 10.6269 10.0995 3.2196 8.8933 2.9408 5.67813 4.47511 4.49581 3.014 732.007 2144.76 1828.71 1470.58 2627.82 1490.75 739.63 990.359 456.916 417.676 1169.18 653.285 1312.28 1801.48 1334.25 2348.86 2009.26 1563.78 2329.25 1214.25 811.026 2011.91 1190.19 1571.62 1339.25 2339.82 1941.89 1541.25 2265.19 1216.02 814.946 2008.9 1164.53 1535.6 1248.34 2237.58 1819.48 1470.66 2144.97 1173.79 789.916 1876.66 1102.09 1462.06 1150.96 2077.96 1677.07 1363.64 1975.12 1090.46 735.111 1729.95 1010.97 1350.36 1049.47 1889.58 1521.83 1238.34 1784.72 988.031 666.834 1576.45 910.379 1221.39 945.492 1694.51 1366.09 1110.36 1595.66 883.903 596.238 1420.48 811.973 1091.74 845.757 1510.09 1219.16 989.829 1420.44 786.629 530.364 1270.96 721.544 971.014 753.664 1341.64 1085.47 880.289 1262.71 699.199 470.749 1133.5 640.65 862.41 670.402 1191.58 965.002 782.338 1121.65 620.926 417.779 1009.5 568.394 765.512 595.959 1057.23 857.516 694.52 995.272 551.361 370.384 897.918 504.018 679.032 529.081 937.892 760.756 616.089 882.062 488.906 328.501 797.587 446.009 601.495 468.695 828.618 672.933 544.7 778.778 432.233 289.987 706.867 393.269 530.873 413.741 730.22 592.943 479.957 684.711 380.22 255.402 624.295 344.869 466.557 363.888 639.608 519.919 420.363 598.274 332.806 223.211 548.871 300.599 407.498 317.652 556.914 452.887 365.854 518.876 289.299 194.06 479.641 260.077 353.753 275.655 480.283 391.592 315.526 446.012 249.273 166.931 415.819 222.619 303.778 236.973 410.69 335.116 269.688 379.301 212.301 142.458 357.773 188.518 258.346 201.945 346.343 284.148 227.384 318.409 178.864 119.604 304.551 157.453 216.675 169.892 288.934 238.299 189.356 263.519 147.948 99.3844 256.677 129.474 179.635 141.565 236.07 197.023 155.042 213.742 120.834 80.5775 213.615 103.901 145.31 115.728 189.142 159.854 124.063 169.711 95.7658 64.1314 175.165 81.5055 115.221 93.4101 147.357 128.144 96.8414 130.748 74.1882 49.1603 141.268 61.8263 88.69 74.3828 112.121 100.873 73.3375 97.8109 55.187 36.7557 112.03 45.0705 66.0683 57.9511 81.0912 77.5825 53.2522 69.9833 39.0622 25.681 87.2806 31.0639 46.9967 44.2834 56.2236 58.1981 36.9993 47.3672 25.869 16.9504 66.9311 19.9517 31.4169 33.5685 36.3403 42.7364 24.1445 30.3094 15.6388 9.84572 50.3785 11.8019 19.6117 24.7703 22.7855 30.5113 15.5425 19.0346 9.11821 5.40181 37.2547 7.11522 11.8228 18.1324 16.08 21.8764 10.509 13.342 6.20903 3.91518 26.7827 5.70513 8.59011 12.2909 12.5952 13.8553 8.58518 10.7996 6.63233 3.93574 18.591 4.8044 6.83337 6.6694 9.46727 7.73871 6.06351 7.61154 5.05138 3.36098 10.7902 3.50247 5.05121 3.61878 4.55959 2.23457 3.58839 2.84135 2.86108 1.72284 6.36466 0.866165 1.54469 342.38 800.763 906.004 573.446 1224.8 222.992 181.842 559.86 303.734 814.179 805.564 1590.11 1318.7 1058.09 1623.16 1228.04 1108.75 877.447 1645.86 1331.9 1085.28 1598.64 1323.41 1093.89 842.568 1548.76 1245.68 1014.21 1483.9 1264.56 1017.18 779.906 1432.51 1143.8 935.72 1362.57 1170.84 935.602 711.62 1309.2 1040.2 854.661 1238.52 1069.99 850.953 642.905 1181.89 938.319 772.207 1115.98 968.708 766.235 577.639 1059.38 842.612 693.131 1000.22 872.373 686.003 517.82 946.215 755.403 620.216 894.361 783.599 612.272 464.344 843.889 677.624 553.783 798.383 703.307 545.833 416.108 752.313 607.05 494.311 712.349 631.682 486.091 373.428 669.731 544.401 440.443 634.263 566.538 432.306 334.494 595.613 487.779 392.168 563.911 508.32 383.837 299.765 527.786 436.098 347.559 499.118 455.251 339.515 267.726 466.341 389.113 307.276 440.725 406.892 299.274 238.992 410.04 346.503 270.353 386.709 362.919 262.27 212.248 358.724 306.965 236.568 337.852 322.437 228.701 187.955 311.278 271.058 205.534 292.468 285.328 197.753 165.835 269.003 238.56 177.554 252.113 252.2 170.081 146.155 230.058 208.954 152.037 215.011 221.576 144.758 128.034 195.801 182.182 129.486 182.943 193.926 122.643 111.621 164.664 157.891 109.448 153.488 169.132 102.264 96.9385 137.831 136.303 91.617 128.3 146.807 85.1317 83.6066 114.201 116.346 76.1849 105.945 126.389 70.1544 71.7697 94.5536 98.9801 62.9969 87.448 108.388 57.3725 61.0023 76.7807 82.4602 51.8144 70.6394 92.0323 46.0531 50.7926 62.5863 67.763 42.0937 56.8697 76.5238 36.6497 40.9637 48.9958 53.3553 33.266 43.6739 61.8631 28.3574 31.8967 37.5101 39.9715 24.9307 31.825 47.775 20.8462 22.4042 25.9136 25.7326 17.5463 20.6633 33.8773 13.2549 13.3318 14.5786 13.1313 9.86445 10.0148 20.2311 6.28592 5.74152 7.08552 3.80596 5.23017 3.73511 9.13103 2.16671 219.989 411.523 656.148 304.318 737.917 165.089 91.2684 351.077 157.3 486.621 607.674 1008.84 999.317 670.527 1067.14 909.739 721.391 691.187 1133.68 1027.06 740.854 1087.98 1028.01 741.963 650.028 1075.96 951.258 700.686 1016.63 970.441 695.261 587.912 982.358 862.012 640.271 928.797 882.475 635.66 529.478 889.68 778.568 580.951 844.057 798.557 576.567 477.222 803.303 703.375 526.305 764.386 723.669 520.947 431.187 724.208 637.077 475.933 691.616 656.323 469.739 391.434 652.546 578.439 430.064 625.243 596.815 423.285 355.938 589 526.884 389.193 566.073 544.004 382.296 325.524 532.281 481.748 352.693 513.111 497.36 345.302 298.375 482.338 441.052 320.06 465.938 456.099 312.819 274.398 437.25 404.905 290.685 422.872 419.166 283.252 252.235 396.849 371.53 264.141 383.83 385.2 256.531 232.347 359.691 341.077 239.53 348.193 354.228 232.292 213.759 326.056 312.731 217.693 315.986 326.067 210.047 196.802 295.157 286.969 197.157 285.622 299.734 189.649 180.57 266.664 262.259 178.38 257.881 274.986 170.691 165.712 240.28 239.477 161.264 232.402 251.922 153.497 151.314 216.733 218.193 145.274 209.249 229.829 138.07 138.244 194.59 197.238 130.495 187.294 209.426 123.099 124.791 173.584 177.787 116.952 167.113 189.315 109.656 112.589 154.778 158.689 104.354 148.361 170.484 97.0164 100.363 136.873 140.788 92.2952 130.409 151.903 85.1045 88.721 119.852 123.166 80.8009 113.283 134.098 74.3193 76.7377 103.544 104.918 69.778 97.0065 116.394 63.2226 65.0051 87.3697 87.6795 58.9071 80.4719 98.3975 52.8776 53.0255 71.4438 69.6588 48.2422 64.5273 80.6865 41.9513 41.6265 56.0218 52.948 37.5451 48.9052 62.9553 32.0575 30.0492 39.9643 36.0645 27.0565 32.595 45.6235 21.2084 18.9082 24.2939 18.463 16.3538 16.9153 28.5863 11.0514 6.86613 10.1247 4.69736 6.95319 5.17328 11.0477 3.1183 295.43 357.808 783.581 262.443 680.919 243.695 90.0132 448.294 144.126 442.53 708.332 926.831 1142.29 616.716 992.144 1047.26 660.593 803.817 1051.79 1167.2 688.556 1006.74 1182.81 673.371 754.248 987.874 1072.07 646.946 926.994 1114.55 619.047 676.341 888.066 961.975 584.209 837.218 1005.69 557.14 604.53 795.464 863.989 526.11 757.196 904.373 501.393 544.084 716.365 781.133 476.478 687.538 817.567 453.104 493.236 648.76 710.204 433.348 626.918 743.433 411.769 449.997 591.655 649.013 396.097 574.175 679.427 376.294 412.239 541.349 594.79 363.418 526.873 623.111 344.792 378.968 498.436 547.039 334.452 486.015 572.611 317.762 348.874 459.514 503.975 309.133 448.948 528.118 293.442 322.503 425.505 464.726 286.075 415.952 487.254 271.604 297.07 393.455 428.691 265.133 384.66 449.986 251.365 275.093 365.085 395.159 245.448 355.926 415.558 232.467 252.941 337.042 363.834 227.301 329.37 382.905 215.199 233.751 312.551 334.881 210.439 304.798 352.751 198.881 214.231 287.916 306.891 194.404 280.657 324.406 183.351 196.986 265.816 280.943 179.043 258.608 297.635 168.688 179.732 243.698 256.068 164.506 236.528 272.061 154.642 164.118 223.181 231.936 150.301 215.61 247.549 140.823 147.645 202.364 209.02 136.369 194.895 223.745 127.955 132.952 182.945 186.283 123.246 175.083 200.733 114.598 117.567 162.834 163.984 109.878 155.243 178.367 101.797 103.222 143.943 142.791 96.8852 135.963 156.072 89.0109 88.8091 124.288 121.493 83.989 116.214 135.026 76.1516 75.1029 105.351 100.978 70.8222 97.1315 113.095 63.5723 60.6419 85.8628 80.6628 57.9689 77.2895 92.4614 51.2006 47.9354 67.4793 60.8999 45.124 58.9401 72.162 38.761 34.0638 48.7451 41.2613 32.538 40.2152 52.2715 26.9004 21.8449 31.2335 22.5717 20.6647 21.8547 32.8483 14.4202 8.12577 11.3294 5.36683 7.58389 5.23244 13.2356 3.56918 511.457 580.556 1158.99 416.451 959.622 426.144 169.836 773.007 275.41 617.694 997.681 1231.24 1572.64 826.731 1317.88 1478.89 867.115 1105.25 1383.04 1600.06 917.542 1341.42 1633.79 887.231 1047.53 1309.97 1482.22 868.439 1241.22 1550.45 819.241 950.876 1185.07 1341.04 788.001 1122.57 1411.22 737.926 857.703 1065.3 1211.29 711.143 1015.14 1276.57 664.353 775.962 961.908 1097.84 644.19 921.205 1157.89 601.183 705.08 873.339 998.731 586.074 839.668 1053.09 546.842 642.056 796.39 909.938 535.318 767.671 960.451 499.286 585.651 728.081 830.179 490.025 702.626 876.791 456.934 534.063 666.918 757.024 448.849 644.068 800.097 418.703 487.408 611.692 690.901 411.826 591.499 730.336 384.588 444.872 562.008 629.973 378.095 542.372 666.857 352.987 405.064 514.771 573.666 346.62 497.556 607.305 323.913 368.524 472.974 521.772 318.486 456.086 553.243 297.226 334.786 432.35 473.246 291.08 417.563 502.357 272.27 303.264 396.184 428.216 266.347 381.386 455.627 249.201 274.128 361.043 386.944 242.911 347.532 411.693 226.954 247.169 328.967 347.488 221.174 315.539 371.41 206.431 221.133 297.611 311.137 200.213 285.527 332.683 186.771 197.575 269.062 276.726 180.824 256.863 297.553 168.385 175.125 240.807 244.565 161.808 229.768 263.463 150.54 154.179 214.811 214.131 144.256 203.022 232.463 133.455 133.989 188.572 185.476 126.702 178.099 201.932 117.11 115.335 164.553 158.356 110.138 153.514 174.082 101.387 97.5218 140.161 132.345 94.4013 130.601 147.461 85.6794 80.4492 117.656 107.824 78.7253 107.325 122.107 70.9426 64.5838 94.8214 84.7863 63.6595 85.1955 97.8821 56.18 49.3138 73.904 62.8022 49.2275 63.9692 74.818 42.552 35.2747 52.8156 42.6633 35.1823 43.3168 53.1659 28.9497 21.6027 33.401 23.2825 21.8401 23.8966 33.0025 16.0016 9.68374 13.3136 6.71659 8.94063 6.29908 14.6232 3.98189 870.199 1005.63 1708.57 705.078 1433.94 737.878 321.961 1308.08 512.586 922.09 1393.36 1753.48 2138.13 1183.06 1842.93 2075.16 1209.21 1478.15 1907.97 2140.74 1274.27 1860.02 2198.77 1228.38 1402.97 1813.92 1995.89 1207 1731.13 2084.18 1143.47 1286.66 1656.53 1823.23 1102.83 1576.89 1912.33 1039.3 1171.49 1501.58 1659.05 1001.95 1432.71 1743.61 941.894 1066.39 1363.21 1509.91 911.117 1303.28 1588.89 855.272 970.763 1239.74 1374 829.562 1186.53 1447.87 777.763 883.586 1128.67 1250.12 755.853 1081.29 1318.35 708.129 803.575 1027.9 1136.07 688.77 984.982 1200.13 644.768 729.769 935.303 1030.93 627.042 895.498 1090.34 586.504 661.534 850.624 933.594 570.238 813.945 988.739 533.163 599.084 772.697 844.003 517.576 738.393 894.586 483.807 540.084 700.278 760.505 469.277 669.22 807.66 438.543 486.294 633.462 683.733 424.674 604.49 727.191 396.253 436.289 572.135 612.807 383.223 544.757 652.906 357.635 390.4 514.626 546.836 344.339 489.108 583.723 321.24 346.993 461.116 485.451 308.886 438.109 519.871 287.891 307.829 412.437 429.041 276.007 390.515 460.889 256.619 270.493 365.903 376.612 245.155 345.816 406.021 227.767 237.132 323.702 328.295 216.609 304.954 355.429 200.568 205.192 283.795 283.575 189.928 266.206 308.759 175.64 177.022 247.237 242.951 165.191 230.98 265.413 152.5 149.942 212.914 205.061 142.288 197.652 226.081 130.888 126.047 180.996 170.331 120.734 166.706 189.366 110.201 103.031 151.277 138.937 101.242 138.356 156.031 91.8744 83.569 123.449 110.579 82.3132 111.036 125.478 73.7669 64.7352 97.831 84.2452 65.3173 86.5519 98.2653 57.7988 48.4336 74.1056 60.6699 49.1037 63.2584 73.0132 42.2782 32.6088 51.7688 39.1926 34.2599 42.089 49.9379 28.4386 19.7745 31.3708 22.0609 20.7617 22.8206 29.7096 15.3104 9.25859 14.3434 6.92834 9.45356 7.20861 14.4402 4.98476 1497.31 1724.51 2441.67 1181.77 2069.59 1306.91 599.777 2227.02 933.288 1336.13 1834.3 2399.58 2746.2 1621.35 2459.32 2745.49 1615.11 1861.3 2493.08 2698.48 1667.07 2428.99 2780.47 1604.82 1766.99 2360.87 2532.18 1572.25 2266.09 2633.03 1499.29 1638.1 2174.32 2336.93 1447.55 2080.17 2439.28 1375.17 1505.92 1988.85 2142.61 1325.09 1901.95 2242.43 1255.77 1378.31 1815.72 1957.15 1210.83 1736.22 2054.49 1144.6 1258.28 1655.3 1784.42 1104.72 1582.39 1876.21 1042.92 1145.95 1507.44 1622.23 1006.38 1440.01 1709.86 948.43 1041.08 1370.02 1472.01 915.172 1308.06 1553.27 861.283 943.198 1242.73 1331 830.337 1185.05 1408.56 780.11 852.356 1124.7 1201.26 751.224 1070.78 1272.14 705.109 767.527 1015.21 1080.22 677.942 965.717 1146.18 636.047 689.582 913.643 968.228 610.185 867.21 1029.43 571.3 616.366 819.413 864.17 547.122 776.622 920.679 511.977 549.463 732.647 768.103 488.975 692.643 820.618 456.661 486.485 651.909 678.986 435.113 615.338 726.959 405.7 429.481 577.394 597.202 385.319 543.048 641.512 358.291 375.845 508.585 520.908 339.214 477.136 561.965 314.863 326.771 444.563 451.021 296.646 415.413 488.74 274.434 281.404 386.052 386.786 257.436 359.497 421.371 237.777 240.506 332.083 328.147 221.294 307.252 359.512 203.333 202.106 282.832 274.176 188.171 260.276 302.783 172.695 167.987 237.234 225.701 157.792 216.629 251.426 143.639 136.285 196.08 181.73 130.417 177.728 204.769 118.096 108.995 158.864 143.078 105.621 142.145 163.426 94.6748 83.9494 126.075 108.75 83.501 111.355 126.348 74.4136 62.7577 96.2633 79.1943 64.0238 83.0772 94.1825 55.4579 43.6886 69.7188 53.6502 46.188 58.9289 66.3967 39.5586 28.6729 46.7736 33.5176 30.897 36.7556 43.1069 24.9067 15.6941 26.8981 17.1857 17.5458 20.3374 23.9716 13.7158 7.57985 13.4357 6.06239 9.01123 7.00534 11.3167 4.57107 1206.89 3044.72 1606.63 2043.75 2930.51 593.815 1141.83 1753.35 1747.16 1918.92 1103.79 3087.99 1564.62 2055.83 3069.25 1629.36 2021.64 1071.72 3046.2 1534.58 2033.38 2980.27 1591.18 1970.93 1026.53 2897.89 1459.94 1931.36 2806.8 1517.05 1858.61 965.561 2706.04 1362.07 1801.79 2603.96 1422.95 1724.23 895.373 2499.8 1257.08 1664.25 2396.61 1318.49 1586.46 823.528 2293.63 1152.28 1527.84 2195.09 1212.46 1451.72 753.572 2096.65 1052.32 1396.65 2003.21 1109.39 1324.36 686.768 1909.64 957.85 1272.5 1822.21 1011.23 1204.55 623.885 1734.35 868.728 1155.65 1652.49 918.797 1092.25 564.776 1570.04 785.762 1046.59 1494.46 831.788 987.365 510.04 1417.45 708.603 944.169 1346.36 750.913 889.944 458.854 1274.99 637.061 849.207 1209.13 675.337 799.447 411.325 1143.27 569.96 761.281 1081.96 605.707 715.44 367.031 1020.34 508.041 679.409 963.772 540.492 637.385 326.299 907.47 451.009 603.999 854.819 480.538 565.532 288.28 801.519 397.623 533.493 753.056 424.656 498.44 253.438 705.259 348.817 468.95 660.053 373.318 437.083 221.192 615.475 303.836 409.262 573.796 325.63 380.074 191.393 533.016 262.18 354.054 494.171 281.802 327.667 163.913 456.528 223.545 303.135 421.473 241.162 279.251 138.583 387.031 188.53 256.896 354.671 204.382 235.487 115.647 323.205 156.757 214.13 293.547 170.324 195.328 94.9528 265.719 127.697 175.704 239.451 139.733 159.298 76.1062 213.649 102.083 141.311 189.807 112.199 126.742 59.5449 167.856 78.8492 110.571 146.5 87.8028 98.0982 44.7134 126.609 58.7835 83.1156 108.622 65.6042 72.8115 32.0964 92.0057 41.5753 60.099 76.5414 47.4032 51.7138 21.3799 62.0563 27.491 40.4827 50.2599 31.4745 34.0608 13.2408 38.9282 16.7294 24.8353 29.6629 19.4324 20.7176 7.224 20.8745 8.7426 13.3127 14.8726 10.4282 10.4081 3.33947 9.53186 3.01843 5.98335 4.80513 4.80932 3.31006 756.424 2136.16 1813 1453.33 2569.92 1440.1 731.756 971.574 485.468 433.638 1226.61 704.318 1305.25 1777.17 1317.47 2344.28 1985.14 1560.88 2314.29 1225.52 816.007 1977 1187.47 1567.05 1320.41 2328.3 1913.48 1524.92 2229.65 1209.6 813.414 1960.66 1151.7 1524.96 1225.83 2210.14 1785.25 1437.31 2090.91 1148.68 780.126 1818.96 1081.46 1442.03 1125.63 2041.02 1640.54 1323.22 1915.36 1057.52 721.313 1671.17 988.16 1325.95 1024.82 1849.88 1489.19 1198.19 1729.58 955.749 651.918 1521.3 889.074 1197.34 924.849 1659.28 1339.4 1075.88 1550.11 855.863 583.153 1375.6 794.062 1071.05 829.054 1480.47 1198.5 962.403 1385.21 764.458 519.23 1236.99 707.15 954.09 741.16 1318.61 1070.14 859.474 1236.38 682.005 462.045 1109.01 629.715 849.092 661.209 1173.5 953.999 767.261 1102.88 608.849 411.17 992.279 560.348 755.272 589.264 1044.04 849.431 683.955 982.212 542.464 365.784 886.792 498.069 671.212 524.061 926.867 754.669 608.492 872.55 482.423 324.561 790.429 441.271 595.114 465.025 820.65 668.588 539.273 771.893 427.197 287.25 702.43 389.611 525.977 410.977 723.106 589.874 475.712 679.065 376.771 252.688 621.348 341.747 462.282 361.882 634.175 517.818 417.206 594.269 330.069 221.218 547.434 298.211 404.307 316.463 552.378 451.535 363.544 515.849 287.117 192.412 479.051 258.106 350.879 274.618 476.879 390.53 313.803 443.925 247.49 165.79 416.321 221.254 301.774 236.574 407.674 335.118 268.381 377.83 211.257 141.173 358.669 187.252 256.565 201.729 344.598 284.619 226.787 317.808 177.875 119.009 306.433 156.805 215.688 170.462 286.845 239.12 189.217 263.511 148.069 98.5141 258.766 128.674 178.259 142.275 235.604 198.252 155.283 214.408 120.568 80.3409 216.602 103.959 145.049 116.858 188.731 162.175 124.785 170.728 96.3487 63.7763 177.996 81.4596 114.915 95.0793 148.088 130.294 97.7468 132.626 74.498 49.4716 144.861 62.2671 88.9813 75.5637 112.188 102.574 74.4634 99.4298 55.9213 36.7231 115.549 45.252 66.1234 59.3016 81.8676 79.5914 54.2917 71.7195 39.7353 25.9937 90.6277 31.6137 47.4841 45.9583 57.3398 60.3802 38.2591 49.8677 26.9056 17.3016 70.042 20.7184 32.0932 34.8451 37.9037 44.7644 25.6089 32.5921 16.5493 10.5363 53.3984 12.6165 20.625 26.1362 24.6033 32.8836 16.7054 20.9338 9.87855 6.03082 39.8925 8.17586 13.1039 19.3197 17.1861 23.0008 11.5691 14.4717 6.91671 4.40474 29.2586 5.90075 8.9606 13.04 13.9609 15.3993 8.77884 11.5287 6.38461 4.41413 19.9359 5.38936 7.87997 7.66776 9.80356 8.75941 6.18407 7.62128 5.18531 3.36107 11.795 3.28499 5.04956 4.52789 5.20377 3.14588 3.48351 2.8855 2.88033 1.75869 6.87038 0.885894 2.00441 370.833 848.177 903.052 617.864 1228.3 247.109 210.833 624.786 366.693 814.844 787.853 1568.77 1287.21 1037.23 1580.54 1189.06 1090.71 855.094 1615.63 1298.59 1050.37 1542.97 1269.22 1072.47 819.562 1512.62 1215.09 973.977 1425.68 1209.15 994.275 759.923 1395.57 1118.19 896.824 1309.48 1123.7 913.073 695.308 1275.37 1020.6 821.289 1195.98 1034.08 831.516 630.989 1154.78 925.11 746.982 1085.02 944.962 751.078 569.992 1038.63 834.97 675.629 979.595 859.096 674.343 513.832 931.766 752.279 608.876 881.77 778.449 604.286 462.609 833.955 676.711 547.512 792 703.644 540.052 416.438 745.729 608.902 491.153 709.632 635.605 482.581 374.529 665.889 547.136 439.844 634.619 573.234 429.833 336.843 593.286 491.208 392.653 565.771 516.116 382.608 302.143 526.835 440.196 349.325 502.359 463.691 338.671 270.72 466.134 393.744 309.54 444.445 415.702 299.226 241.995 410.727 350.919 272.944 391.079 371.895 262.531 215.473 359.573 311.818 239.42 342.246 331.327 229.37 191.172 313.015 275.942 208.862 297.816 294.34 198.537 169.475 270.637 243.521 181.06 257.318 260.777 171.247 149.428 232.643 213.762 155.917 221.099 230.279 146.036 131.339 198.186 186.727 133.533 188.624 202.508 124.207 114.786 168.051 162.482 113.361 159.77 177.045 104.366 100.212 141.343 140.59 96.0951 134.261 154.601 87.2919 86.7169 117.821 120.296 80.0845 111.512 133.745 71.8328 74.4112 97.2057 102.103 66.7326 92.3335 114.819 59.0889 63.4499 80.2153 86.2195 54.8497 75.4603 97.3937 47.9833 53.1005 65.1253 70.5746 44.999 60.5291 81.625 38.5021 43.1784 51.8048 55.8958 35.4755 46.8995 65.8207 29.7398 33.2669 39.3252 41.0475 27.3592 34.5201 51.1083 21.6789 23.5933 27.4955 27.5665 18.8038 22.3536 36.0637 14.2063 14.3838 16.2022 13.9611 11.2827 11.2872 22.435 7.06398 6.49472 8.46571 4.4133 5.6613 4.46566 9.88054 2.68872 224.042 437.543 638.171 323.496 720.896 165.331 107.276 355.131 184.537 481.382 585.933 979.105 966.844 638.36 1011.43 855.699 699.519 668.609 1097.97 999.428 700.699 1033.38 971.684 720.139 633.285 1043.05 933.968 665.224 973.105 929.503 677.166 578.778 957.18 854.42 614.847 900.335 860.916 621.995 526.435 872.269 778.716 565.771 829.436 793.494 568.034 479.571 793.851 709.672 520.091 761.154 730.679 516.481 436.909 720.746 647.106 476.444 696.173 671.301 468.893 399.259 654.355 590.723 435.504 635.75 616.537 424.935 365.311 593.683 540.525 397.271 579.183 566.273 385.263 334.945 539.04 495.077 362.171 528.137 520.284 349.764 307.875 489.782 454.719 330.145 480.923 478.496 317.42 283.715 445.922 417.493 301.245 437.884 440.943 288.162 261.003 404.934 383.68 273.855 398.557 405.426 261.615 240.583 368.238 352.669 249.77 362.616 373.788 237.233 221.83 334.468 324.218 226.911 329.392 343.892 215.138 204.359 303.252 296.885 206.221 298.567 316.601 194.423 187.587 274.237 271.748 186.718 270.107 290.202 175.32 172.159 248.447 248.42 169.495 244.486 266.247 158.331 157.322 223.629 225.987 152.911 220.016 243.343 142.211 143.58 201.454 204.486 138.027 197.758 221.632 127.053 129.976 179.903 184.529 123.243 175.768 200.325 113.167 116.824 160.554 164.716 110.246 156.796 180.188 100.472 104.218 141.761 146.115 97.5844 137.408 160.452 88.1365 92.3847 124.615 127.517 85.5077 119.73 141.471 76.6048 80.0079 107.155 109.485 73.4723 102.122 122.186 65.6532 67.9969 91.3986 91.1062 62.4499 85.2972 104.013 54.5393 55.4539 74.3396 73.1029 50.8455 68.0401 84.9971 43.7949 43.4464 58.3017 55.5034 39.8018 51.358 66.944 33.0168 31.8252 41.7686 37.8504 28.1869 34.4099 48.5925 22.3632 19.9571 26.0331 19.7832 17.7259 18.309 30.5125 11.6558 8.00207 11.2087 5.56113 7.43917 5.58097 12.1665 3.5337 285.045 338.145 766.461 239.985 638.029 237.708 82.7808 421.615 123.468 426.775 694.463 895.21 1119.66 580.787 937.206 1007.58 639.08 788.139 1019.64 1148.74 653.136 964.349 1141.58 656.048 744.687 967.235 1065.08 624.976 907.478 1090.51 610.433 675.437 881.062 966.392 578.257 838.374 1003.59 556.166 610.624 799.27 876.545 532.394 772.317 918.541 506.217 554.779 728.078 798.751 490.133 710.999 842.202 462.106 506.529 665.406 730.198 451.399 654.467 773.102 422.832 464.187 610.032 669.257 415.936 602.758 710.664 387.938 426.407 560.951 615.173 383.3 556.263 653.453 356.935 392.277 516.798 565.184 354.671 513.664 602.699 328.944 361.767 477.253 521.531 327.44 475.329 554.994 304.127 333.983 442.081 480.778 303.889 439.569 513.189 281.427 308.409 408.953 443.778 280.649 407.023 472.895 260.478 284.524 378.856 408.094 260.583 376.846 437.214 241.052 262.274 350.854 376.607 241.022 348.83 402.477 223.081 241.685 324.595 345.813 223.236 322.023 371.186 206.228 222.183 299.501 317.888 205.575 296.713 340.586 190.147 203.832 275.865 290.24 189.64 272.731 312.729 174.836 186.34 253.335 264.912 173.885 249.623 285.496 160.134 169.348 231.403 239.205 158.921 227.176 259.89 145.819 153.069 210.043 215.652 144.167 205.924 234.271 132.022 137.056 189.276 192.058 130.241 184.456 210.546 118.425 121.83 168.946 169.826 115.681 163.264 186.655 105.297 106.962 149.229 147.312 102.213 142.861 163.963 91.8877 92.1749 129.179 126.085 87.936 122.533 140.652 79.0828 77.5148 109.322 104.21 74.798 102.077 118.916 66.0814 63.4134 89.7451 83.5216 61.0503 82.0573 97.1063 53.0022 49.4248 69.9189 62.8973 48.0735 62.3364 76.0479 40.4966 35.9931 51.2803 43.3142 35.0078 43.0766 55.2871 27.6803 22.7445 32.3332 23.4608 22.0208 22.8944 35.2829 15.0801 9.3867 13.0148 6.20637 8.41747 6.16585 14.4938 3.9807 517.043 573.593 1160.69 410.598 940.13 435.973 169.904 785.495 284.576 609.557 997.464 1218.36 1565.2 810.792 1287.82 1471.03 855.862 1098.07 1365.49 1590.13 896.69 1316.13 1611.35 877.628 1042.23 1299.75 1479.21 856.631 1232.78 1535.76 816.184 951.476 1186.25 1346.82 789.085 1132.16 1411.63 741.943 864.155 1076.52 1223.99 722.445 1036.3 1290.55 673.711 786.245 979.156 1114.82 661.297 949.077 1179.65 613.485 716.975 893.516 1016.69 606.439 869.873 1079.92 560.195 654.668 817.498 928.632 556.208 797.666 987.565 512.873 598.317 749.079 848.422 509.987 731.609 903.626 470.183 546.121 686.985 774.15 468.528 671.099 825.745 431.031 498.665 630.141 707.104 429.235 615.989 753.935 396.271 455.466 578.758 644.696 394.417 565.457 688.731 363.43 414.576 530.71 586.906 361.628 518.624 627.722 333.77 377.217 487.011 533.826 332.006 475.447 571.245 305.808 342.622 445.527 484.707 303.745 434.885 519.036 280.49 310.82 407.854 438.531 277.925 397.42 470.919 255.992 280.646 371.726 396.007 253.218 362.046 425.774 233.98 253.057 339.017 355.93 230.871 329.14 384.001 212.385 226.67 306.47 319.036 208.608 297.247 344.467 192.635 202.894 277.029 283.691 188.809 267.899 308.246 172.875 179.466 247.9 250.776 168.648 239.179 273.166 155.235 158.356 220.856 219.748 150.231 211.864 240.746 137.064 137.643 194.294 190.341 132.279 185.424 209.906 120.489 118.322 169.238 162.298 115.035 160.685 180.494 104.102 100.228 144.97 136.622 98.3317 135.887 153.224 88.8795 83.3639 121.336 111.564 82.4141 112.067 127.536 72.7769 66.8058 98.1422 87.8183 66.6111 89.1086 102.428 58.2783 51.2079 76.3282 64.7532 51.7417 67.2156 78.5968 43.6216 36.2994 54.6153 44.1756 36.9762 45.806 55.8702 30.1376 22.6041 34.4765 24.584 23.519 25.4283 34.8206 16.5693 10.286 14.5518 7.11667 9.78811 6.95167 15.8892 4.55606 887 1020.01 1728.86 724.471 1450.57 755.55 329.608 1349.73 541.481 927.95 1406.43 1762.45 2146.07 1189.23 1839.91 2096.73 1209.31 1479.08 1903.76 2137.91 1265.61 1845.98 2192.78 1224.38 1399.86 1808.36 1993.69 1198.84 1724.36 2073.42 1142.01 1286.63 1657.63 1826.84 1102.89 1582.39 1910.95 1042.46 1175.96 1510.53 1668.73 1009.8 1448.31 1752.03 949.333 1074.01 1376.9 1523.28 923.789 1324.37 1604.62 865.224 980.337 1256.15 1388.66 845.264 1210.4 1467.51 788.491 893.397 1145.52 1264.97 771.551 1104.72 1339 719.358 813.748 1045.05 1150.65 704.7 1007.86 1220.61 655.809 739.531 951.986 1044.58 642.138 917.044 1109.97 596.384 670.556 865.714 946.691 584.042 834.054 1006.64 542.733 606.922 786.863 855.109 531.012 757.381 911.992 492.595 547.566 713.199 771.487 481.331 685.922 822.652 446.651 493.281 645.612 693.289 435.572 619.447 741.742 403.568 442.508 582.547 621.373 392.689 558.825 664.719 364.147 395.701 524.275 554.069 353.728 501.938 595.633 327.171 352.108 470.285 492.847 317.014 450.026 529.647 293.512 312.271 420.399 435.256 283.466 400.543 470.81 261.498 275.02 373.659 382.671 251.912 356.029 414.071 232.396 240.687 330.669 333.508 223.149 313.802 363.654 204.993 209.056 290.027 288.526 195.723 274.717 315.382 179.232 179.762 252.456 246.868 170.45 237.718 272.145 155.65 153.044 217.855 209.311 146.703 204.321 231.226 133.79 128.411 185.14 173.649 125.066 172.041 195.261 112.688 105.744 155.065 142.368 104.435 143.042 160.201 93.9667 85.0525 126.84 112.194 85.632 115.731 129.956 75.897 66.291 100.881 86.223 68.0909 90.2277 100.911 59.2748 49.4192 76.1456 61.8058 51.5316 65.7588 75.9321 43.4289 33.7804 53.4922 40.1979 35.8112 44.2681 51.3903 29.3102 20.1384 32.9366 22.6924 21.8948 24.3764 31.2345 16.2448 10.0001 15.2473 7.22836 10.3102 7.78382 15.4965 5.03266 1512.64 1746.46 2476.8 1211.11 2117.67 1319.49 606.187 2268.2 957.43 1354.1 1860.59 2428.65 2770.95 1647.96 2481.24 2795.91 1625.86 1871.55 2501.42 2705.03 1669.51 2424.64 2793.49 1606.14 1768.28 2359.51 2533.48 1566.67 2259.36 2629.17 1498.4 1639.11 2174.84 2340.45 1445.64 2081.62 2437.41 1377.33 1508.97 1994.7 2149.89 1329.58 1912.19 2248.15 1260.98 1384.58 1825.78 1968.01 1220.02 1751.91 2066.35 1152.73 1266.06 1668.49 1796.11 1116.75 1600.11 1891.88 1051.28 1154.37 1520.75 1635 1018.48 1458.21 1725.57 957.286 1049.27 1384.01 1483.88 927.291 1325.49 1570.05 869.969 951.402 1255.77 1343.02 841.738 1201.67 1423.39 788.57 859.604 1136.89 1211.83 762.128 1086.39 1286.86 712.882 774.564 1026.4 1090.11 688.225 979.536 1159.58 642.964 695.768 924.201 976.862 619.017 879.977 1041.73 577.859 621.943 828.781 871.914 555.441 787.99 931.481 517.575 554.181 740.865 775.091 496.178 702.781 829.931 461.912 491.023 659.403 685.278 441.728 624.438 735.702 410.496 433.419 584.236 602.812 390.911 551.26 649.321 362.645 379.336 514.47 525.886 344.552 484.511 568.59 318.729 330.121 450.405 455.626 301.277 421.992 495.422 277.877 284.401 390.966 390.968 261.672 365.487 426.534 240.805 242.738 336.787 331.626 224.995 312.419 364.742 206.293 204.391 286.446 277.6 191.49 265.128 306.783 174.914 169.832 241.119 228.334 161.195 221.354 255.947 146.274 138.14 199.426 184.109 133.683 182.022 207.975 120.059 110.311 162.001 144.898 108.337 145.894 166.793 96.5663 85.145 127.943 110.084 85.9339 113.862 128.787 75.2995 63.5232 98.1704 80.4083 65.2556 85.0359 96.2503 56.6858 44.5259 71.0819 54.9844 47.5746 60.6313 67.356 40.2852 29.1589 47.8365 33.6649 31.633 37.6819 44.7218 25.4404 15.8024 27.2124 17.4253 18.0921 20.658 24.0906 13.9829 7.54387 14.2497 6.1436 9.47094 7.48322 11.7118 4.8802 1199.15 3053.46 1616.4 2062.86 3002.64 587.622 1137.5 1747.9 1744.97 1945.67 1120.92 3139.02 1584.07 2105.76 3117.49 1667.11 2044.57 1081.98 3069.25 1542.78 2051.82 2991.96 1609.93 1978.58 1030 2903.46 1462.95 1932.97 2805.92 1521.85 1860.99 967.304 2709.12 1364.46 1801.76 2606.35 1424.52 1727.12 897.404 2504.78 1259.92 1668.04 2404.76 1321.58 1590.63 826.095 2302.85 1156.8 1535.38 2208.16 1217.39 1458.58 756.733 2107.17 1057.03 1406.17 2018.02 1115.72 1331.68 690.335 1921.46 962.854 1282.77 1837.81 1018.14 1212.23 627.473 1745.82 873.882 1165.99 1667.33 925.583 1099.44 568.239 1581.63 791.067 1055.9 1508.15 838.326 994.939 513.288 1427.75 713.081 953.315 1359.32 757.165 896.618 461.719 1284.89 640.835 857.768 1220.83 681.272 805.328 414.024 1151.78 573.871 768.623 1092.16 610.451 720.729 369.586 1028.28 511.429 685.923 972.577 545.061 642.073 328.48 914.246 454.239 609.461 862.562 484.25 569.9 290.535 808.151 400.498 538.745 760.118 428.355 502.087 255.122 710.472 351.299 473.269 666.295 376.097 440.535 222.717 620.463 305.986 413.186 578.746 328.561 382.909 192.735 536.997 263.975 357.536 499.53 283.983 330.343 165.038 460.557 225.27 306.436 425.606 243.601 281.753 139.881 390.351 190.228 259.528 358.553 206.027 237.509 116.617 326.252 157.69 216.865 297.067 172.309 196.896 95.5235 268.169 128.963 178.028 242.316 140.962 160.92 76.9257 216.033 102.638 142.98 191.903 113.635 127.743 59.9308 169.196 79.691 111.777 148.671 88.2161 99.0581 44.9373 127.961 58.9974 84.6717 109.961 66.7999 73.4779 32.3695 92.511 42.0397 60.7326 77.7779 47.5102 52.3616 21.6107 63.1557 27.7365 41.2097 50.3562 32.3791 34.6408 13.3018 39.0942 16.4683 25.2718 29.9266 19.4394 20.4812 7.031 20.6926 8.35956 13.1224 14.535 10.3029 10.0297 3.09866 9.018 3.10102 5.69742 4.60141 4.31591 3.22226 842.826 2169.24 1792.93 1504.15 2498.92 1402.91 756.577 952.67 578.155 494.996 1415.97 866.574 1284.81 1726.04 1282.99 2334.91 1919.26 1532.78 2229.24 1209.47 821.758 1892.54 1159.69 1547.93 1263.23 2270.58 1831.56 1436.81 2092.48 1141.44 794.713 1807.53 1106.3 1485.42 1162.57 2123.33 1699.71 1336.68 1949.4 1068.39 748.483 1667.57 1029.95 1387.74 1066.93 1948.25 1564 1231.59 1794.2 984.115 687.305 1545.25 940.622 1270.32 974.281 1766.05 1426.57 1124.81 1635.52 896.754 621.905 1427.32 849.497 1148.5 886.047 1590.11 1292.69 1020.36 1482.12 811.604 558.643 1309.16 763.967 1031.86 801.417 1428.61 1166.4 923.613 1338.75 732.872 501.124 1194.31 685.587 925.279 722.723 1281.19 1049.08 833.495 1205.72 660.666 448.818 1083.67 614.338 828.252 649.367 1147.85 941.244 750.357 1083.37 594.512 402.008 978.695 549.828 740.862 582.253 1025.97 842.342 673.025 969.647 532.772 359.18 880.65 490.562 660.91 520.413 914.664 751.872 601.557 864.86 476.024 320.011 789.151 436.059 588.334 463.666 812.112 667.99 534.767 766.957 422.717 283.638 704.256 385.861 520.861 410.773 717.717 590.744 473.409 677.167 373.892 250.702 625.394 339.663 459.313 362.448 630.279 519.882 415.899 593.13 327.95 219.589 552.135 296.517 402.006 317.865 549.623 454.311 362.923 515.947 285.754 191.136 484.938 256.763 349.1 276.536 474.88 394.278 313.739 444.938 246.513 164.787 422.341 220.588 300.748 238.872 407.027 339.334 269.417 380.021 210.957 140.852 365.991 187.351 256.303 204.649 344.547 289.293 228.354 320.762 178.232 118.793 314.008 156.976 215.77 173.502 288.173 244.119 191.232 267.001 148.487 98.8571 266.962 129.473 179.221 145.487 236.81 203.634 157.352 218.383 121.47 80.5341 224.497 104.644 145.951 120.292 190.875 167.446 127.405 175.25 97.4917 64.324 186.679 82.733 116.606 98.2375 150.151 135.643 100.614 137.151 75.8345 49.8297 152.957 63.4435 90.4849 79.2982 115.226 108.263 77.6336 104.658 57.4707 37.5707 123.836 47.0732 68.3374 62.7637 85.065 84.425 57.6423 76.7401 41.4712 26.8861 98.5995 33.1674 49.3711 49.0136 60.4435 65.2947 41.3707 54.3367 28.3858 18.1685 77.1166 22.0159 34.399 38.0203 40.809 48.928 28.3205 36.3229 17.8548 11.1235 59.777 13.7626 22.3493 28.7507 27.0674 36.076 19.0233 24.2457 10.8944 6.64216 45.1675 9.07566 14.593 21.0265 18.8717 25.2697 13.4344 16.6799 7.45424 4.73321 33.4229 6.68324 9.99433 14.2907 14.7221 16.5077 9.97464 12.4908 6.3857 4.36161 22.7443 5.2861 8.00776 8.05174 10.2261 9.45104 6.95905 8.52196 5.18728 3.3941 13.6062 4.04943 5.61197 4.89714 6.08075 3.23234 4.44086 3.14704 3.13882 2.0945 8.2799 0.880731 2.00754 443.954 981.668 907.429 746.072 1265.62 306.717 277.127 784.042 508.417 827.258 750.783 1524.86 1215.33 988.3 1465.93 1100.53 1045.75 800.541 1528.32 1219.1 947.834 1392.08 1134.62 1014.95 765.339 1417.99 1146.12 874.639 1296.03 1088.3 937.78 716.032 1311.58 1067.2 819.995 1216.54 1038.23 865.432 664.906 1208.72 987.752 769.235 1135.84 984.136 794.649 613.35 1107.97 907.746 715.614 1051.29 922.91 725.161 562.263 1008.86 830.246 659.447 964.321 855.887 658.336 513.283 914.778 755.702 603.184 878.883 787.86 595.133 466.927 826.206 685.89 548.299 796.249 720.961 536.388 423.796 744.384 621.056 496.018 718.739 656.371 481.749 383.596 668.003 561.328 446.663 645.977 595.543 431.802 346.502 598.141 506.068 400.91 578.376 539.195 385.385 312.312 532.848 455.204 358.007 515.567 486.611 342.685 280.781 473.357 408.222 318.585 458.164 438.2 303.349 251.744 418.031 365.315 282.316 404.957 393.496 267.249 225.28 367.655 325.967 248.834 356.404 352.394 234.144 200.809 321.297 289.872 218.229 311.581 314.767 204.029 178.725 279.641 256.521 190.516 271.464 280.485 176.353 158.167 241.115 226.259 165.244 234.475 248.849 151.707 139.736 207.267 198.992 142.534 201.812 219.733 129.597 122.897 176.597 173.584 122.244 172.31 193.756 109.917 107.633 149.909 150.835 104.162 145.956 169.823 92.3501 93.3891 125.759 129.681 88.1253 122.566 147.614 76.944 80.4792 105.039 111.156 73.7322 102.245 127.008 63.7273 68.8318 86.7295 93.0687 61.4068 83.9306 108.566 52.1633 57.48 71.2034 76.6241 50.1413 67.763 90.4254 41.9481 46.6362 56.4984 60.5378 40.1947 52.8361 73.7673 32.5062 36.1131 43.1276 45.1215 30.497 39.0439 56.8366 23.9678 25.6629 30.1807 29.8167 21.4786 24.9787 41.0204 15.5839 15.729 17.7534 15.5444 12.2215 12.8933 24.8508 7.9524 6.74567 9.23654 4.71282 6.92671 5.00567 11.2349 2.88596 227.615 502.239 596.684 382.884 696.513 160.771 137.756 374.936 251.261 472.882 532.117 909.432 891.296 564.467 890.15 734.044 647.719 614.904 1007.93 936.937 609.214 918.822 858.224 668.762 596.577 966.476 896.612 595.502 896.486 860.073 636.856 560.979 905.637 841.514 575.597 863.672 835.471 596.682 525.065 845.805 784.852 552.347 823.413 801.277 555.963 489.392 786.864 728.772 524.034 775.458 758.666 515.019 453.846 727.683 673.666 490.985 722.299 711.087 474.751 419.529 669.84 621.661 456.297 668.036 661.942 435.669 387.794 614.362 572.336 421.014 614.433 613.314 398.493 357.267 562.278 526.97 386.711 563.44 566.219 364.242 329.724 514.017 484.788 354.607 515.762 523.109 332.302 304.159 469.267 446.313 324.35 471.125 481.821 302.659 280.233 427.834 410.435 296.476 429.992 444.098 275.608 258.631 390.052 377.819 270.532 392.215 409.087 250.725 238.288 354.976 346.753 246.889 357.284 377.092 227.789 219.459 322.866 318.494 224.735 324.966 346.63 206.657 201.575 293.055 291.299 204.701 294.871 318.973 186.981 185.132 265.673 266.724 185.679 267.42 292.01 169.062 169.566 240.307 242.942 168.476 241.623 267.464 152.283 154.422 216.286 219.974 151.62 216.895 243.159 136.761 139.682 194.121 197.607 136.568 194.06 219.933 121.611 125.435 172.707 177.152 121.571 172.441 197.059 108.146 112.126 153.268 156.413 107.798 151.817 176.271 95.1086 98.4211 134.177 136.592 94.3771 132.003 154.562 82.9482 85.3416 116.229 116.791 81.7216 112.741 134.239 70.8187 72.4162 97.958 97.2491 68.7004 93.719 113.44 58.7839 59.1556 80.1386 78.1116 56.3819 75.3787 92.7053 47.1825 46.6712 62.875 59.4993 44.0248 56.8616 73.0401 35.7136 33.8731 45.1924 40.3441 31.8251 38.7873 53.5341 24.0989 21.2935 28.1733 21.3628 19.7399 20.6562 33.7709 13.0208 8.39295 12.2529 5.934 8.3468 6.06688 13.4733 3.91476 261.761 289.503 717.875 199.479 546.962 233.088 64.4961 377.565 116.363 386.129 654.245 813.756 1060.25 499.077 827.258 915.064 587.438 748.878 945.318 1105.2 587.546 896.147 1064.81 617.763 723.815 924.276 1050.07 595.002 888.011 1059.88 593.145 675.342 871.479 977.359 578.969 854.917 1013.79 557.483 625.62 814.892 904.469 553.423 811.315 955.199 520.352 578.628 758.471 835.737 522.059 761.326 892.585 483.536 534.08 703.419 770.483 488.25 709.359 829.237 447.705 492.375 650.835 710.018 453.955 658.379 766.542 414.258 453.876 602.038 654.054 421.319 609.535 708.677 382.784 418.707 556.584 603.348 389.369 563.796 653.223 354.126 386.028 514.672 555.734 360.876 521.423 603.212 327.353 356.8 476.704 513.304 333.336 482.559 555.925 303.226 328.9 440.91 472.845 309.033 446.243 513.503 280.494 303.83 408.518 436.023 285.637 413.227 473.256 259.899 279.743 377.723 401.455 264.576 381.327 436.583 240.077 258.077 349.15 369.031 243.874 352.333 401.655 221.817 236.664 321.919 338.185 225.578 324.051 369.392 204.1 217.1 296.439 309.211 207.117 297.955 338.214 187.809 198.345 272.093 281.767 190.359 272.619 308.929 172.039 180.124 248.48 255.206 173.539 248.167 280.747 156.42 162.531 225.053 229.285 157.151 223.79 253.492 141.56 145.936 203.001 205.087 141.175 200.551 226.778 127.265 129.559 180.913 180.179 126.331 177.397 201.968 112.337 113.111 158.934 157.057 110.559 155.206 176.143 98.4798 97.791 137.537 133.701 96.1223 132.707 152.735 84.1442 82.4695 116.699 111.148 81.0576 111.014 128.558 70.5296 67.1622 95.3053 88.8161 66.1769 88.4998 105.661 56.6134 52.584 75.3123 67.8343 51.8958 68.2003 82.1667 43.5841 38.4205 54.9245 46.5276 38.308 46.9315 60.8326 30.0123 24.4669 34.8491 25.4663 23.7278 25.4533 38.4404 16.3074 10.0093 13.8519 6.89953 9.48365 6.45168 16.1248 4.33364 548.649 578.102 1156.03 422.258 900.236 484.198 184.14 856.347 336.071 586.892 985.451 1177.63 1533.66 767.565 1221.96 1431.83 824.965 1073.43 1320.41 1560.27 856.515 1274.98 1559.86 853.717 1027.83 1276.82 1469.88 842.348 1230.17 1513.13 809.155 952.397 1190.61 1358.41 799.444 1159.21 1421.52 751.198 877.418 1100.76 1249.83 748.181 1079.72 1322.63 693.086 806.612 1014.84 1147.56 694.783 1000.67 1222.95 638.457 740.705 934.042 1053.12 642.42 923.093 1126.96 587.084 679.162 858.659 964.195 591.61 848.631 1035.43 539.245 621.512 788.489 882.009 543.983 780.391 947.803 495.436 568.312 724.424 805.999 499.868 716.768 867.757 455.084 518.928 664.692 735.662 459.172 657.925 793.024 417.615 473.532 610.311 671.308 421.294 604.094 723.937 383.911 431.938 560.201 611.801 386.917 554.391 660.538 352.263 393.101 513.938 556.448 354.638 508.156 601.516 323.156 357.201 470.649 505.255 324.833 464.915 546.979 296.001 323.778 430.466 457.449 297.302 425.054 496.473 270.601 292.78 392.609 413.141 271.175 387.155 449.073 246.584 263.94 357.274 371.827 246.705 351.99 405.267 224.451 236.99 324.013 332.637 223.658 318.536 364.494 202.949 211.543 292.209 296.986 201.879 287.059 325.633 183.511 188.112 262.508 262.747 181.35 256.187 290.041 163.629 165.623 233.207 230.233 160.962 227.349 255.524 145.322 144.292 205.823 199.807 142.124 199.173 223.126 127.559 124.266 178.768 170.667 123.375 172.353 192.676 110.438 105.454 153.487 143.375 106.047 146.279 163.787 93.6061 87.8248 128.414 117.632 88.7643 121.142 136.218 77.4755 70.5163 104.44 92.972 72.4262 96.6989 110.054 61.9258 54.2895 81.0324 68.8771 56.0826 72.9661 84.991 46.8643 38.7151 58.9743 46.4055 41.0048 50.7826 60.6752 32.2297 23.84 37.2189 26.222 25.853 28.1363 37.8956 18.0789 10.873 16.0834 7.62196 10.912 7.77579 17.3151 5.08116 953.541 1090.62 1765.97 806.599 1490.62 832.233 368.15 1503.28 649.124 939.357 1419.12 1764.92 2141.18 1180.19 1808.64 2099.96 1200.13 1467.13 1879.22 2117.68 1236.24 1810.63 2155.98 1208.44 1386.92 1789.88 1983 1183.55 1715.46 2047.97 1135.28 1284.52 1657.86 1832.27 1106.73 1598.41 1910.4 1047.88 1183.61 1527 1685.77 1027.29 1479.95 1770.99 963.603 1088.17 1403.47 1547.23 948.674 1363.41 1634.86 884.008 997.707 1287.46 1416.01 872.497 1252.16 1502.32 810.277 911.974 1178.11 1291.9 800.247 1145.86 1375.97 740.078 831.633 1076.18 1176.91 730.846 1045.71 1254.94 675.757 756.333 981.037 1068.79 666.713 952.406 1142.13 615.312 686.236 892.969 968.801 606.684 866.714 1036.32 559.873 621.435 811.56 876.466 551.542 787.101 938.79 508.587 560.903 736.285 789.872 500.624 713.338 848.469 461.032 505.261 666.426 710.864 452.77 645.09 763.777 417.021 453.112 601.424 636.497 409.251 582.003 686.591 376.164 405.756 541.898 568.931 368.537 523.429 614.335 338.486 361.176 486.147 505.488 330.847 469.032 548.045 303.644 320.857 435.067 447.283 295.894 418.86 486.386 270.639 282.405 386.782 393.282 263.431 372.081 429.17 240.777 247.841 342.632 343.587 233.217 328.808 376.856 212.571 215.107 301.147 297.704 205.281 288.226 328.285 186.688 185.746 262.988 255.306 179.169 250.84 283.267 162.067 157.731 226.355 215.974 154.788 215.104 242.256 139.173 133.075 193.244 180.569 131.891 182.46 203.918 117.822 109.573 161.693 147.523 110.886 151.548 169.268 98.0275 88.8317 133.191 117.645 91.0088 123.758 137.156 79.9655 69.2484 105.961 90.0071 72.7471 96.2821 108.229 62.4223 52.0319 80.5839 65.2211 55.1507 71.273 80.7214 45.7368 35.1861 56.2688 42.4731 38.6648 47.0542 55.8486 30.9615 21.3589 34.2578 23.7906 23.0303 25.9469 33.0689 17.0884 10.4889 16.1311 7.77816 11.0658 8.15161 16.4226 5.3274 1577.67 1842.36 2544.71 1328.74 2224.25 1387.86 645.133 2429.8 1077.21 1393.88 1901.4 2471.22 2795.52 1665.92 2475.01 2841.05 1636.04 1874.43 2494.93 2698.08 1647.93 2390.82 2772.82 1596.83 1759.73 2342.83 2524.88 1548.1 2242.14 2604.1 1490.81 1635.41 2170.21 2341.63 1442.9 2087.62 2430.4 1378.39 1513.15 2003.38 2161.48 1339.31 1931.88 2258.44 1269.83 1394.71 1844.04 1986.41 1236.62 1779.82 2086.7 1166.07 1279.11 1691.28 1816.56 1136.78 1630.79 1918.13 1066.72 1167.8 1544.69 1655.47 1039.51 1488.96 1752.34 973.001 1063.12 1407.55 1503.8 947.099 1354.46 1595.92 885.096 964.262 1278.3 1361.68 860.355 1228.41 1447.93 802.664 871.567 1157.49 1228.64 779.157 1110.95 1308.98 725.909 785.223 1045.52 1105.48 703.538 1002.07 1179.47 655.068 705.362 941.035 990.784 633.731 900.74 1059.43 588.54 630.918 844.729 884.252 568.302 806.462 947.986 527.474 561.838 754.707 786.12 508.061 720.077 843.919 470.63 498.24 672.541 695.344 452.37 639.537 749.242 418.603 439.613 595.651 611.442 400.969 565.775 660.437 369.799 385.052 525.323 533.962 353.409 497.08 579.492 325.347 335.193 459.655 462.611 309.43 434.007 504.169 283.745 288.733 399.817 397.227 269.119 376.316 435.163 246.193 246.905 344.161 337.157 232.098 323.149 372.04 211.048 207.727 293.67 282.18 198.075 274.063 314.569 179.327 173.066 247.385 233.135 167.163 229.81 261.755 150.15 140.941 205.586 188 138.688 189.426 214.334 123.858 112.89 166.98 148.655 113.083 152.948 171.57 99.5271 87.2178 132.827 113.326 89.9949 119.82 133.84 78.1726 65.2678 101.377 82.3297 69.1127 90.4073 100.216 58.5928 45.752 74.494 56.2463 50.5223 64.4083 70.8345 42.1895 30.1151 49.8916 34.7809 34.0317 40.6922 46.3262 26.5289 16.3933 29.0254 18.2038 19.411 22.117 25.8009 14.6439 7.85204 14.5784 6.48748 9.92481 7.97915 11.9241 5.16574 1195.09 3124.12 1646.37 2162.34 3139.22 584.693 1154.32 1777.06 1825.59 2004.71 1159.27 3227.05 1619.71 2160.73 3140.72 1724.61 2074.5 1097.41 3087.05 1553.57 2044.78 2969.97 1619.47 1980.74 1032.3 2897.48 1462.75 1918.52 2791.07 1516.89 1857.2 966.777 2705.72 1364.63 1798.06 2607.9 1422.05 1727.7 899.141 2511.49 1264.1 1674.21 2419.26 1324.83 1597.66 830.181 2317.06 1163.78 1548.14 2229.77 1225.48 1469.62 762.291 2125.96 1065.46 1422.6 2042.4 1126.52 1343.98 696.189 1940.54 971.762 1298.86 1861.46 1028.94 1224.85 633.476 1765.31 882.654 1181.69 1689.87 936.536 1111.84 573.902 1599.11 798.742 1070.61 1528.88 848.345 1005.86 518.458 1444.37 720.548 966.416 1377.74 766.19 906.833 466.346 1299.36 647.594 869.103 1237.21 689.142 814.707 418.121 1165.22 579.647 779.016 1107.11 617.809 729.14 373.107 1040.05 516.538 695.421 985.884 551.385 649.284 331.486 924.156 458.449 617.51 873.988 489.681 575.993 293.21 817.446 404.724 546.124 770.675 433.017 508.057 257.605 718.769 354.658 479.846 675.457 380.6 445.35 224.765 627.171 308.848 418.758 587.039 332.051 387.254 194.481 543.613 266.89 362.53 506.524 287.369 334.637 166.874 466.041 227.893 310.756 431.73 246.49 285.23 141.25 395.553 192.149 263.463 364.385 208.708 240.662 117.891 330.493 159.852 220.161 302.06 174.245 199.751 96.6875 272.129 130.436 181.081 246.901 143.095 163.323 77.7697 218.909 103.928 145.81 196.039 115.141 129.573 60.5285 172.015 80.5816 114.368 152.547 89.8672 101.011 45.8121 130.531 60.2871 86.9354 113.255 68.0995 75.101 32.6709 94.7463 42.4377 63.0251 80.2906 48.9628 53.2076 21.864 63.9395 27.8768 42.3406 51.7968 32.7063 34.6337 13.0107 39.4344 16.4372 25.8036 30.9149 19.5484 20.8867 6.77948 20.5662 8.18892 13.6498 15.422 10.2755 10.2362 3.01434 9.48907 3.00034 6.06638 4.92876 4.59523 3.44361 1139.97 2494.16 1709.42 981.249 1330.77 547.932 981.249 1011.17 908.216 735.42 1080.11 433.317 1119.27 1604.63 1137.59 2139.94 1696.69 656.034 1023.57 336.429 737.579 853.808 988.412 1415.18 1078.08 1989.94 1602.09 587.261 967.124 301.274 685.346 793.271 958.535 1332.31 1006.57 1871.67 1520.77 574.463 930.246 292.685 655.697 757.888 920.525 1254.84 955.095 1755.7 1440.77 557.512 880.323 282.964 619.137 731.748 865.819 1168.72 902.841 1632.04 1349.61 529.646 820.06 268.46 575.943 698.493 802.069 1077.39 843.303 1502.95 1248.19 494.586 754.672 250.469 529.549 656.697 735.022 984.533 779.017 1374.44 1144.38 455.942 688.807 230.819 483.225 608.518 668.556 894.883 713.277 1249.51 1041.34 416.15 624.864 210.568 438.468 558.349 605.053 810.033 648.04 1130.28 942.47 377.153 564.086 190.757 396.079 507.802 544.818 730.202 585.244 1016.62 848.533 339.497 506.337 171.49 355.721 458.716 488.237 655.137 526.13 910.573 760.614 304.005 452.245 153.389 318.033 412.376 435.411 585.231 469.982 810.905 678.427 270.767 402.096 136.555 282.979 368.256 386.21 519.879 418.579 718.481 602.466 239.786 354.944 120.67 250.133 327.848 340.297 459.141 369.99 631.859 531.601 210.834 311.618 106.023 219.673 289.75 298.049 402.982 326.089 552.466 466.918 184.4 271.232 92.4546 191.439 255.213 258.777 350.901 284.892 478.719 406.703 159.792 234.216 79.9989 165.461 222.947 222.806 302.818 247.814 411.6 352.315 137.345 200.259 68.589 141.68 193.506 189.87 258.945 213.243 349.814 302.397 116.778 169.332 58.2002 119.971 166.318 159.716 218.978 182.452 293.756 257.348 97.945 140.912 48.5834 99.9618 141.982 132.291 182.451 154.205 242.802 216.445 80.9128 115.673 39.9621 82.1028 119.569 108.089 149.784 129.376 197.849 180.256 65.9484 93.0963 32.3785 66.2408 99.8762 86.2743 120.582 106.987 157.134 147.873 52.4119 73.0694 25.5565 51.8393 82.0514 67.1296 94.8493 87.7882 122.474 120.006 40.8468 55.711 19.6167 39.4391 66.9263 50.824 72.6745 70.7525 92.4093 95.3005 31.0015 41.0634 14.7296 29.0657 53.4406 36.7675 53.6136 56.3258 67.2548 74.5914 22.4314 28.6583 10.4337 20.023 41.9741 25.3415 38.0235 44.2829 47.1312 56.9542 15.7521 19.0686 7.11681 13.0204 32.3302 16.5935 25.6348 33.988 32.1934 42.3619 10.6898 12.1547 4.6417 8.0292 24.3939 10.7362 16.9956 25.3258 22.4661 30.0861 7.34872 7.7491 3.22327 5.36407 17.8218 6.58572 10.9309 17.1848 15.5139 19.2156 4.44492 5.63976 2.05989 4.01259 11.8157 5.14696 8.12558 10.0238 11.1533 10.5041 3.19427 4.04884 1.5671 3.37883 7.04966 3.32479 5.43506 5.42379 5.74887 3.57287 1.51307 1.71556 0.843055 1.71556 3.57347 0.87251 1.92505 650.319 1387.87 874.357 606.113 772.338 504.289 451.568 632.596 261.418 837.899 626.73 1328.99 1039.57 394.456 640.846 490.234 915.441 661.256 1264.02 1045.95 365.252 614.662 493.391 865.653 654.944 1200.76 1025.16 364.831 605.494 490.971 823.29 649.576 1168.68 1002.59 373.036 598.642 496.638 791.961 635.466 1129.43 964.989 371.513 579.433 493.759 754.153 608.684 1071.25 912.445 358.293 548.09 477.36 707.167 572.821 999.934 850.574 337.134 508.912 451.519 654.21 531.85 921.523 784.395 311.862 467.242 419.867 599.304 489.419 841.651 718.591 285.094 425.359 386.099 545.367 447.291 763.909 654.839 258.963 384.593 352.964 493.411 407.359 689.754 594.966 233.709 346.406 320.809 444.315 369.673 619.628 538.433 209.87 310.025 290.841 398.429 334.545 555.107 486.556 188.15 277.028 262.712 355.814 302.09 494.58 438.441 167.752 245.897 236.633 316.226 272.383 439.836 394.363 149.163 217.95 212.688 280.226 245.059 388.643 353.445 131.973 191.641 190.821 246.912 219.551 342.42 316.087 116.365 168.162 170.323 216.581 196.502 299.586 281.641 101.976 146.251 151.968 188.902 175.294 261.306 249.667 89.0476 126.917 134.981 163.799 155.497 226.411 220.481 77.395 109.009 119.505 141.336 137.509 195.233 194.095 66.7861 93.3287 105.003 120.945 121.173 167.022 169.031 57.3218 78.933 92.1238 102.566 105.686 142.065 146.762 48.7451 66.7288 79.6918 86.6429 91.4732 119.639 124.981 41.3336 55.4211 69.051 72.217 78.0759 99.9622 105.734 34.4368 45.6388 58.4098 59.535 65.3485 81.9945 86.451 28.4431 36.8279 49.0869 47.8208 53.1843 65.6657 68.8715 22.6831 28.8952 39.5335 37.4985 41.1219 50.1991 51.1114 17.237 21.3751 30.676 27.6275 29.6602 35.3736 34.7657 12.0515 14.1076 21.9653 18.0042 18.3867 20.7798 17.8458 6.91578 6.87588 13.9413 8.93013 8.20763 10.3242 5.65 2.9495 3.11303 5.70784 3.31374 271.227 724.459 527.692 314.139 401.184 201.781 229.263 284.213 133.111 444.59 414.461 695.986 754.003 184.961 348.275 292.376 533.904 520.496 807.41 837.73 234.026 399.015 377.424 567.62 545.972 835.588 853.775 261.84 424.233 404.347 574.94 551.166 847.427 845.357 278.564 435.43 416.285 572.711 542.776 840.009 819.658 283.299 431.392 415.921 558.526 522.717 812.303 780.199 277.05 415.129 404.136 533.824 494.984 769.812 732.734 263.752 391.205 384.438 501.403 463.395 719.142 682.628 246.84 363.881 360.254 466.138 430.676 665.727 632.308 228.487 335.435 334.815 429.987 398.502 612.5 583.189 210.17 307.677 309.482 394.676 368.266 562.04 538.573 192.731 281.586 285.195 361.841 339.931 515.078 495.8 176.798 256.959 263.113 330.491 313.535 470.67 456.591 161.327 234.555 241.809 301.97 288.974 430.213 420.194 147.786 213.704 222.837 275.523 266.892 392.923 386.857 134.903 194.344 205.063 250.969 245.501 358.304 354.759 123.229 176.94 188.342 228.323 225.974 326.068 325.616 111.963 160.185 172.818 207.491 207.139 296.518 297.293 102.075 145.293 158.304 188.187 189.744 269.081 271.384 92.4802 130.753 144.481 169.903 172.811 242.555 245.555 83.424 117.581 131.259 152.455 156.233 217.863 221.219 74.7667 105.07 118.54 136.773 140.29 194.925 197.589 67.1872 93.3735 106.532 121.366 125.387 172.381 175.196 59.0273 82.0667 94.6798 107.037 110.177 151.484 152.258 52.1088 71.4041 83.5581 92.8534 95.3366 130.181 130.327 44.4296 60.7335 71.9315 79.1787 80.443 110.064 108.706 37.7349 50.8379 60.8478 66.0049 66.4843 90.3283 87.7263 30.7533 40.9585 50.1747 53.1014 52.019 70.4439 66.6466 23.9342 30.9981 39.4606 40.0577 38.4114 51.1189 46.6849 17.176 21.5236 29.0717 27.7324 24.9716 32.7686 25.0197 11.1227 12.1754 19.1613 15.033 9.82537 14.2018 6.76958 4.43033 4.14667 7.73454 4.39508 261.98 281.047 623.144 105.629 196.254 288.188 84.6181 203.393 50.6791 314.017 566.481 642.805 958.855 183.133 321.244 372.693 496.571 691.324 833.426 1054.96 261.327 402.413 483.405 568.024 711.477 887.896 1053.85 292.026 430.481 513.565 584.663 695.361 890.562 1017.5 299.603 433.725 510.847 577.732 664.019 866.53 964.72 294.633 422.825 492.851 557.292 625.271 825.901 904.203 282.369 402.723 466.945 527.796 583.453 776.58 841.057 265.873 378.312 437 494.786 540.871 724.666 778.271 248.238 352.806 406.097 460.671 500.236 672.521 718.832 230.389 327.348 375.74 427.253 461.181 622.342 662.701 213.409 302.654 347.077 395.01 425.707 575.743 611.463 197.001 280.201 319.979 365.935 392.33 532.176 562.624 182.516 258.985 295.597 337.987 361.791 492.465 519.099 168.652 239.449 272.359 312.828 333.587 455.231 478.068 156.123 221.458 251.402 289.209 307.735 421.444 440.453 144.451 204.998 231.89 267.45 283.003 388.661 404.237 133.498 188.919 213.797 246.53 260.162 358.842 370.86 122.989 174.247 196.359 227.219 238.065 329.589 338.598 113.192 159.891 179.954 208.409 217.356 302.232 308.909 103.489 146.278 164.23 190.795 197.624 275.441 279.397 94.491 133.3 149.641 173.753 178.595 249.912 251.284 85.7064 120.434 135.326 156.864 159.703 224.589 223.704 77.0562 107.89 121.455 140.249 142.038 200.466 197.811 68.6513 96.0038 107.847 124.655 124.12 175.922 171.411 60.4924 83.8043 94.6922 108.675 107.417 152.723 146.813 52.0812 71.9625 81.7055 93.3199 90.3673 128.931 121.764 44.047 60.1534 69.0383 77.8217 74.3705 105.975 97.973 36.2092 49.0706 56.5929 62.77 58.1003 83.2091 74.5132 28.5203 37.5897 44.7734 48.1271 43.0721 61.855 52.5872 21.0943 27.0001 33.2682 34.0833 27.8754 39.9142 28.2506 13.9604 15.8532 22.1961 18.7563 11.7034 16.3298 7.84824 5.22912 4.44897 9.455 4.81965 657.294 652.372 1125.29 254.249 369.051 640.994 253.09 510.116 135.475 546.532 927.936 1085.55 1463.77 341.165 526.581 640.434 770.778 1030.08 1256.8 1522.85 406.608 593.791 730.504 827.139 1018.07 1268.99 1475.05 420.106 599.151 735.262 815.325 969.558 1224.13 1394.01 409.729 578.66 707.377 779.397 909.643 1157.32 1302.03 389.377 546.921 667.301 732.465 845.397 1080.93 1206.91 364.452 510.969 622.096 682.49 781.687 1002.94 1112.43 338.435 473.693 576.33 631.596 718.898 925.032 1021.25 312.258 436.768 530.497 581.609 658.594 851.476 935.457 287.395 402.323 486.688 535.456 602.977 782.217 855.488 264.043 370.11 445.843 492.183 551.158 718.898 781.622 242.832 340.303 408.275 452.103 503.091 659.615 713.065 223 312.67 372.982 414.854 458.766 605.136 650.359 204.373 287.041 340.562 381.005 418.062 555.065 591.894 187.637 263.808 310.853 349.39 380.209 508.818 537.877 172.009 242.099 283.257 320.045 344.983 465.382 487.609 157.705 221.934 257.461 292.727 312.098 424.813 440.894 143.922 202.669 233.557 267.035 281.743 386.519 397.467 131.096 184.624 211.187 242.915 253.596 350.574 356.459 118.777 167.546 190.521 220.04 226.768 316.971 318.468 107.777 151.571 170.818 198.4 202.023 284.308 282.373 96.4695 135.677 152.526 177.394 178.093 252.736 247.781 85.8796 120.613 134.809 157.485 155.747 223.606 215.65 76.041 106.505 118.351 138.318 134.595 194.497 185.118 66.3186 92.2801 102.616 119.82 114.712 167.027 156.026 56.6194 78.7195 87.693 101.998 95.4158 140.044 128.153 47.6623 65.4314 73.2327 84.4129 77.2809 114.546 101.819 38.7198 52.8877 59.355 68.0086 59.5834 89.1669 76.0864 30.2868 40.3989 46.0675 51.4834 42.8259 65.4229 51.953 22.1285 28.8044 33.5169 36.2655 27.2077 42.4431 29.2997 14.6058 16.9307 21.6496 20.2431 12.3622 18.0008 8.47777 5.70781 5.42243 9.81925 5.64939 1152.95 1326.2 1796.11 523.379 711.651 1078.37 498.431 914.44 266.353 959.915 1381.83 1713.22 2086.87 546.381 814.737 979.658 1165.6 1425.7 1822.46 2074.96 590.908 855.079 1024.98 1181.75 1369.38 1771.91 1974.6 583.312 833.097 994.303 1133.23 1289.6 1675.66 1851.96 555.967 788.619 941.756 1065.69 1203.91 1566.52 1722.45 521.362 736.835 882.178 992.938 1116.41 1453.52 1591.14 484.768 682.715 819.878 918.096 1028.5 1340.95 1461.43 447.637 629.02 756.245 844.703 942.964 1230.88 1336.79 410.737 576.79 693.652 774.115 860.68 1125.32 1218.12 375.746 527.149 633.713 706.795 783.464 1027.21 1107.37 343.023 480.949 577.277 644.237 710.975 934.819 1003.72 312.238 438.321 524.24 586.618 643.935 850.354 908.637 284.108 398.541 475.272 532.888 582.114 771.676 819.75 257.772 361.972 429.981 483.464 524.172 698.684 737.266 233.818 328.233 388.066 437.548 471.115 631.782 661.946 211.466 296.954 349.34 395.447 421.962 569.852 591.017 190.97 268.065 313.646 355.951 375.975 511.601 526.837 171.589 241.121 279.893 319.627 334.13 458.434 466.396 154.066 216.238 249.605 285.972 295.1 409.013 411.412 137.524 193.133 220.978 254.604 259.399 362.518 359.916 122.112 171.361 194.852 225.289 226.226 319.848 313.137 107.912 151.46 170.444 198.277 195.629 279.656 269.124 94.69 132.116 148.281 172.512 167.318 241.847 229.394 81.7448 114.284 127.006 148.792 141.391 207.147 191.85 70.3999 97.8245 108.113 126.455 117.725 174.437 158.479 59.281 82.1787 90.1737 105.747 95.6661 143.837 126.843 49.1093 67.4189 73.9686 86.287 75.4489 115.388 98.5232 39.3266 53.448 58.5748 67.9302 56.7784 87.8074 70.9623 30.0527 39.8691 44.6867 50.34 39.4626 62.2329 46.9139 21.1992 27.2019 31.1052 33.6895 23.3677 38.0138 25.2265 13.0544 15.6176 19.0735 18.5806 11.1975 17.5267 8.2421 5.82334 5.71869 8.90668 5.84666 1817.9 2177.51 2588.12 846.292 1116.35 1690.44 809.028 1433.49 430.283 1463.7 1886.24 2451.07 2748.17 785.962 1143.06 1363.68 1609.72 1831.14 2433.01 2650.62 787.463 1138.26 1328.54 1563.67 1732.92 2308.67 2506.23 756.66 1088.33 1263.17 1478.76 1631.43 2170.58 2349.87 716.083 1024.49 1193.81 1386.08 1525.31 2027.35 2185.83 671.076 955.07 1119.07 1288.66 1414.34 1879.49 2018.03 623.262 883.973 1039.65 1190.62 1302.68 1731.24 1850.93 574.458 812.093 958.506 1092.69 1191.21 1585.16 1689.41 525.854 742.641 876.964 998.723 1085.42 1445.07 1535.56 479.417 676.386 799.43 908.831 984.788 1313.32 1390.3 435.762 614.145 725.83 824.641 890.353 1189.81 1254.96 394.874 556.187 656.426 746.156 802.485 1074.59 1128.77 356.447 502.115 592.063 673.326 720.528 968.378 1012.29 321.518 451.961 532.298 605.52 644.762 868.874 903.825 288.352 405.54 476.478 542.515 574.089 777.014 803.297 258.027 362.812 424.879 484.923 509.502 692.691 711.01 230.211 322.983 377.505 430.775 449.162 613.802 625.423 203.845 286.646 333.287 381.938 394.515 542.58 547.235 180.661 252.827 293.448 335.793 343.379 475.182 474.573 158.07 221.659 255.818 293.927 296.711 414.525 408.221 138.296 193.166 221.767 255.196 253.754 357.898 347.363 119.328 166.911 190.191 219.92 214.886 306.483 291.964 102.625 142.86 161.65 186.969 178.996 259.019 241.835 86.6907 120.723 135.472 157.705 147.024 216.142 196.655 72.828 100.466 112.023 130.192 118.055 176.843 156.216 59.5422 82.4257 90.3697 106.128 92.6868 141.937 120.062 48.078 65.819 71.6979 83.7155 69.5418 109.523 88.6716 37.1683 50.4717 54.4333 63.8947 49.8276 81.0954 61.0429 27.8403 36.6056 39.7403 45.3894 32.6873 54.5876 37.6087 18.347 23.9146 26.2708 29.3526 17.8806 31.5678 19.5962 10.8697 12.9972 14.7577 15.424 8.38607 15.2175 6.88356 4.91492 5.34075 6.54696 5.47027 1255.96 3480.76 1713.92 1311.69 1596.76 633.224 1320.46 1320.46 687.233 2063.49 1200.52 3211.99 1638.52 1010.06 1475.31 1150.39 2053.64 1090.54 3021.34 1539.07 972.998 1421.24 1052.23 1949 1020.08 2857.91 1451.18 935.137 1355.25 991.194 1842.4 962.695 2699.42 1364.04 889.395 1278.53 939.715 1730.19 902.042 2526.77 1271.21 834.59 1192.97 882.857 1610.41 837.171 2343.37 1175.44 774.919 1103.65 820.268 1487.28 771.091 2157.02 1079.48 713.424 1013.32 755.995 1364.29 705.513 1971.47 985.091 651.701 924.426 691.777 1244.08 642.275 1794.72 895.408 593.232 840.474 629.822 1130.2 582.059 1626.73 810.667 537.709 760.523 570.983 1022.41 525.59 1468.43 730.969 485.079 685.699 515.448 921.447 472.775 1321.1 656.783 436.191 616.06 463.685 827.562 423.793 1183.91 587.967 390.691 551.691 415.43 740.605 378.292 1057.46 524.074 348.981 492.09 371.174 660.065 335.996 939.657 464.945 310.212 436.469 329.874 585.079 297.13 831.118 410.369 273.949 385.52 291.631 516.441 261.025 730.54 359.895 241.009 338.105 256.401 452.368 227.913 638.369 313.398 210.409 295.112 223.862 394.049 197.162 553.232 270.679 182.541 255.1 194.003 340.079 169.135 475.126 231.365 156.673 218.438 166.549 290.545 143.253 403.102 195.443 132.952 184.917 141.226 245.38 119.867 338.131 162.568 111.463 154.519 118.485 204.242 98.3549 278.636 133.162 91.9949 126.988 97.4403 167.241 79.3407 225.755 106.332 74.6381 102.632 78.9543 133.939 61.9557 178.09 82.8812 59.0991 80.4704 62.1635 104.46 47.0886 136.41 62.1486 45.2862 61.2093 47.4253 78.4084 33.7935 99.3745 44.2385 33.099 44.3129 34.3729 56.0317 22.7875 68.2206 28.892 22.9717 30.0227 23.5498 36.7053 13.5416 42.1709 17.1906 14.3316 18.4488 14.2439 22.0101 7.19956 22.4168 8.72503 7.40719 9.23631 7.7124 11.067 3.22101 9.846 3.03526 3.17684 3.5538 3.25694 3.44815 
CELL_DATA 12288
SCALARS stress float 1
LOOKUP_TABLE default
463.039 469.696 297.304 332.782 597.09 511.554 264.519 408.972 331.269 390.658 358.062 302.793 241.724 372.194 295.611 348.515 340.752 295.316 243.016 343.678 275.692 320 333.715 299.728 246.12 316.826 264.21 297.313 319.615 295.49 242.438 290.81 252.899 275.769 300.689 283.38 232.497 265.865 238.509 254.378 279.362 266.669 218.197 242.274 222.321 233.525 257.53 247.214 202.118 220.045 204.732 213.111 235.461 227.04 184.661 199.191 187.402 193.555 213.959 206.656 167.499 179.28 169.734 174.838 193.136 186.902 150.878 160.725 153.238 157.024 173.44 168.003 135.116 143.135 137.157 140.29 154.728 150.138 120.207 126.898 122.527 124.589 137.234 133.054 106.482 111.501 108.266 109.802 120.802 117.329 93.5902 97.4505 95.4559 96.2804 105.622 102.562 81.7593 84.1921 83.2491 83.5176 91.3591 89.0789 70.677 72.1153 72.4255 71.9088 78.3731 76.3894 60.7235 60.9239 61.8843 61.085 66.2913 64.8751 51.5047 50.9088 52.7134 51.3649 55.4123 54.3299 43.1831 41.6821 44.109 42.527 45.5198 44.9496 35.7423 33.6038 36.6219 34.5611 36.6099 36.3364 29.112 26.2309 29.8248 27.5371 28.6146 28.6317 23.2457 19.9128 24.0205 21.3094 21.719 22.0983 18.2963 14.4704 18.6651 16.0096 15.5198 16.2755 14.1604 9.99282 14.683 11.6035 10.621 11.4874 10.6255 6.56122 10.8139 8.06625 6.65651 7.71762 7.87112 3.9086 8.21097 5.41658 3.48171 4.7772 5.3575 2.67199 5.69615 3.42563 1.73614 2.91414 3.59801 2.05391 4.11246 2.26399 1.57345 2.13034 1.89417 1.72764 2.4157 1.50427 1.70317 1.6341 1.04054 0.988796 1.14182 1.01549 1.02452 0.975542 280.634 248.572 196.971 192.472 368.379 317.828 140.123 260.926 176.33 237.656 234.695 187.904 145.887 233.504 175.253 221.901 217.557 181.919 159.026 217.443 175.959 206.073 215.295 191.312 169.33 208.947 177.586 197.489 216.331 200.601 172.545 199.986 176.111 189.652 212.677 202.098 169.173 188.881 170.768 180.032 203.876 196.569 161.438 175.883 162.032 168.571 191.535 185.943 151.068 162.125 151.571 155.925 177.614 172.693 139.577 148.089 140.004 143.074 162.38 158.555 127.765 134.402 128.34 130.414 147.605 144.398 116.339 121.225 116.853 117.982 133.192 130.481 105.378 108.847 105.923 106.435 119.657 117.357 95.0549 97.2196 95.634 95.5081 106.662 104.992 85.4347 86.4193 86.0021 85.1864 94.8473 93.6388 76.6078 76.4441 77.1963 75.6076 83.6776 82.896 68.2488 67.1541 68.6143 66.8535 73.4464 73.1403 60.62 58.6315 61.1401 58.7521 63.8624 64.1671 53.6424 50.8079 54.0814 51.4414 55.2961 55.7978 47.3664 43.7188 47.5946 44.6066 47.3678 48.2789 41.448 37.4351 41.7738 38.4977 40.2918 41.3746 36.0878 31.7344 36.6077 32.9897 34.0398 35.3465 31.2901 26.6986 31.4917 28.0129 28.3371 29.877 27.0716 22.2087 27.39 23.8619 23.3831 25.1281 22.956 18.495 23.2814 19.9317 19.1003 20.7585 19.5261 15.004 19.8127 16.6079 15.5228 17.2537 16.1022 12.1926 16.5023 13.4094 12.3084 13.9016 13.1071 9.66785 13.5196 10.7723 9.51902 11.0306 10.0275 7.18954 10.3718 8.09626 6.93942 8.19006 7.10764 4.97505 7.6129 5.79221 4.74803 5.75667 4.1884 2.8027 4.77262 3.3334 2.62501 3.09326 1.72909 1.7285 2.22829 1.46637 1.34266 1.49354 135.371 136.21 108.442 98.358 207.069 177.315 62.2786 144.689 78.4588 127.033 124.763 87.2911 102.699 144.879 111.704 137.912 132.266 111.323 124.697 144.46 128.221 138.385 142.319 131.864 134.867 143.918 135.104 138.259 149.431 144.274 137.639 141.686 136.606 136.694 151.614 148.694 135.125 136.262 133.526 132.156 148.333 146.905 129.582 129.261 128.051 125.695 141.986 141.115 121.829 120.784 120.753 118.012 133.164 132.468 113.78 111.925 112.893 109.716 123.519 123.162 105.227 102.972 104.658 101.376 113.672 113.461 97.2469 94.3843 96.6954 93.2699 104.146 104.022 89.336 86.203 88.9834 85.5452 94.6417 95.0733 82.3637 78.702 82.0625 78.3033 86.1701 86.7387 75.6524 71.3881 75.2254 71.5309 77.9028 78.7942 69.4786 64.803 69.2924 65.1917 70.6047 71.6473 63.5034 58.7935 63.4703 59.3994 63.4586 64.87 58.0619 53.0247 58.0338 53.9137 57.1581 58.6433 52.8224 47.7826 52.9124 48.7484 51.1884 52.8038 48.2671 42.896 48.3244 44.3343 45.7406 47.5838 43.643 38.4215 43.7905 39.6479 40.6689 42.405 39.417 34.2573 39.6638 35.6759 36.139 37.8497 35.0943 30.2899 35.4111 31.757 31.61 33.4722 31.3149 26.7094 31.6628 28.2055 27.8083 29.56 27.3804 23.1927 27.793 24.6333 24.0694 25.6783 23.7879 19.9044 24.2245 21.1253 20.62 22.0801 19.8368 16.7042 20.4283 17.7498 17.19 18.4499 16.3949 13.7215 17.0284 14.666 14.0153 15.1692 12.6716 10.4126 13.5195 11.4946 10.6322 11.7055 9.54979 7.65468 10.1311 8.37215 7.91586 8.54063 5.8895 4.59385 6.64297 5.14053 4.69076 5.34895 2.47155 2.2475 3.15522 2.18483 2.16713 2.16532 55.9675 59.1303 47.5295 37.7589 77.7026 71.1865 97.0918 110.138 99.3824 108.796 83.4699 76.4912 142.488 130.817 142.269 135.404 114.515 117.165 157.604 136.623 156.125 142.137 128.802 135.067 158.92 135.862 156.775 141.574 134.222 141.151 154.365 131.935 152.467 137.478 133.952 140.565 146.967 125.853 145.199 130.829 129.915 135.858 138.017 118.56 136.56 123.135 123.811 129.174 128.368 110.883 127.085 115.038 116.218 120.915 119.136 103.064 118.125 106.92 108.573 112.853 109.92 95.7145 109.378 99.115 100.854 104.647 101.858 88.6731 101.269 91.8006 93.5856 97.1066 94.0818 82.1316 93.5518 85.055 86.506 89.7294 86.9815 75.9449 86.6632 78.8467 79.8663 83.1068 80.3549 70.4973 79.9734 73.0241 73.8593 76.6913 74.3882 64.968 74.087 67.509 68.2267 71.0275 68.4397 59.9501 68.3435 62.231 62.7465 65.3605 63.1358 55.4195 63.2336 57.4661 57.8912 60.4495 57.9265 50.866 58.0038 52.8626 53.0158 55.4021 53.1471 46.5378 53.438 48.4857 48.7137 50.8893 48.3611 42.5775 48.5805 44.211 44.2084 46.1789 44.006 38.6496 44.3113 40.3018 40.1272 42.1042 39.581 34.6474 39.8799 36.1456 35.9877 37.601 35.4584 30.9071 35.7028 32.4245 32.1756 33.8397 31.0508 27.155 31.3893 28.5413 28.1389 29.5251 26.9657 23.4956 27.4898 24.7328 24.512 25.8228 22.6981 19.7351 23.2548 20.8477 20.5887 21.6328 18.7112 16.3542 19.4024 17.2829 17.0416 17.983 14.6216 12.5959 15.3713 13.4721 13.2662 14.0562 10.9306 9.22618 11.6244 10.0225 9.88962 10.6043 6.97821 5.76447 7.6917 6.36184 6.16885 6.78736 3.02694 2.35659 3.82146 2.83214 2.65759 2.86053 165.957 106.14 112.866 105.619 89.6574 104.581 187.927 175.243 198.369 185.058 143.147 152.561 222.759 193.634 227.56 208.27 173.514 185.5 228.268 192.776 229.493 207.376 179.988 192.708 220.636 184.437 221.084 198.272 175.987 188.32 208.295 173.182 208.486 186.394 167.602 178.924 194.323 161.223 194.476 173.411 157.442 167.89 179.783 149.165 180.132 160.551 146.577 155.923 165.131 137.374 165.657 147.722 135.592 143.964 151.619 126.446 152.011 135.812 125.177 132.693 138.512 116.192 139.22 124.498 115.466 122.08 126.848 106.932 127.649 114.328 106.448 112.382 115.82 98.3512 116.5 104.78 97.9816 103.39 106.066 90.5118 106.81 96.2213 90.3954 95.3543 96.7502 83.088 97.5111 88.1689 83.4137 87.4323 88.5779 76.3405 89.2234 80.9027 76.7511 80.7429 80.7011 70.0993 81.3539 73.8066 70.7542 73.941 73.5675 64.1739 74.2283 67.5609 64.9017 67.9126 66.6412 58.5187 67.2452 61.5263 59.3368 62.0565 60.5853 53.4597 61.0851 56.0692 54.4838 56.8765 54.4601 48.2575 55.0538 50.4044 49.3184 51.4472 48.9923 43.5453 49.5518 45.621 44.7075 46.5205 43.4215 38.9904 43.9682 40.5063 39.9999 41.6541 38.4226 34.4725 39.0282 36.0407 35.7123 36.9359 33.1881 30.095 34.0398 31.3046 31.2632 32.344 28.6337 25.8398 29.4264 27.0445 26.9999 27.9756 23.7538 21.7776 24.6505 22.5469 22.6497 23.5171 19.5935 17.6542 20.3829 18.5845 18.5535 19.3989 14.9942 13.666 15.8833 14.3921 14.5517 15.0232 11.0942 9.96518 11.8629 10.5644 10.8578 11.2091 6.82614 6.25251 7.83757 6.75529 6.89414 7.18049 2.93581 2.66931 3.78746 3.15483 2.68064 2.87439 313.549 214.387 219.467 213.198 218.21 228.167 297.991 279.343 319.892 294.619 240.847 251.501 316.429 285.498 328.28 306.256 260.918 273.693 311.763 274.393 317.987 293.639 257.794 271.137 297 257.68 300.581 275.474 245.279 258.436 278.542 239.225 281.288 256.299 229.418 242 258.431 220.647 260.854 236.733 212.601 224.388 237.839 202.584 240.358 217.681 195.849 206.506 217.565 185.148 220.109 199 179.468 189.064 198.516 169.156 201.014 181.769 164.093 172.755 180.456 153.977 182.766 165.469 149.634 157.437 163.894 140.243 166.063 150.305 136.657 143.552 148.183 127.363 150.312 136.176 124.332 130.417 134.181 115.622 136.196 123.601 113.264 118.674 120.984 104.718 122.915 111.809 102.846 107.654 109.123 94.8198 110.836 101.101 93.6972 97.7801 97.8727 85.5616 99.5836 90.8906 84.7455 88.3189 88.0036 77.186 89.2803 81.8375 76.8703 79.908 78.3632 69.1257 79.7954 73.1752 69.2492 71.794 69.8597 61.8673 71.1719 65.3402 62.4183 64.6968 61.7009 55.0036 62.8821 57.9147 55.6354 57.7793 54.4562 48.6457 55.4839 51.1127 49.775 51.4353 47.389 42.6599 48.2673 44.7036 43.717 45.2364 41.188 37.2139 42.112 38.9003 38.5827 39.7116 34.9576 31.8064 35.7544 33.3154 33.1649 33.9975 29.6449 27.0248 30.429 28.1427 28.3924 29.2032 24.1762 22.2424 25.0998 23.1385 23.5493 24.1621 19.4689 17.8156 20.323 18.596 19.143 19.6458 14.7673 13.4497 15.47 14.1751 14.6117 14.9232 10.332 9.54015 11.1316 9.99261 10.6988 10.9192 6.27235 5.70769 6.90092 6.03335 6.71281 6.72263 2.61393 2.73547 3.34142 3.05228 2.9617 3.10008 497.814 347.56 360.477 356.373 370.591 379.392 421.778 399.806 456.492 421.876 357.131 365.217 414.925 385.128 435.346 410.398 357.641 368.664 400.634 363.505 411.743 385.37 344.113 356.893 380.606 339.685 387.424 359.828 324.692 337.895 357.086 315.081 362.16 334.588 302.796 315.767 330.749 290.55 335.754 309.243 280.151 292.192 304.206 266.26 308.866 283.701 257.039 268.27 277.996 242.808 282.631 259.205 234.798 245.028 252.994 220.928 257.226 235.893 213.848 222.969 228.91 200.255 233.297 213.776 193.909 201.978 206.948 181.048 210.766 193.483 175.562 183.024 186.061 163.201 189.927 174.144 158.512 164.869 167.264 146.916 170.675 156.745 142.906 148.522 149.529 131.791 152.747 140.293 128.387 133.348 133.567 117.684 136.408 125.426 115.185 119.545 118.329 104.87 121.259 111.568 102.923 106.514 105.042 93.1096 107.326 98.9938 91.7045 94.7916 92.0264 82.1681 94.4432 87.113 81.1979 83.8814 80.9547 72.2346 82.9353 76.4821 71.7228 74.0698 69.906 62.868 71.9749 66.429 62.9538 64.6543 60.4476 54.4601 61.963 57.5919 54.9058 56.4212 51.3799 46.6488 53.0546 49.1357 47.3145 48.5516 43.6235 39.6048 44.8319 41.6508 40.6305 41.5728 35.8827 33.0624 37.1564 34.5825 34.2714 34.7692 29.6363 27.1096 30.5579 28.4422 28.4349 29.0516 23.3533 21.7445 24.3834 22.6494 22.9924 23.4853 18.1527 17.0082 19.0125 17.6878 18.2431 18.5747 13.1231 12.3548 13.92 12.8756 13.4734 13.7132 8.86973 8.39325 9.65272 8.79467 9.4438 9.54881 4.6437 4.65521 5.52279 4.98522 5.45447 5.30021 2.05822 2.54651 2.33716 2.50525 2.41186 2.34801 801.524 527.013 618.474 599.432 561.451 561.669 549.954 520.665 597.147 541.575 482.197 484.452 518.501 482.632 536.8 505.16 456.043 466.341 497.637 455.226 507.782 476.985 434.392 447.372 472.296 427.309 480.219 449.356 410.358 424.116 442.699 397.402 450.054 419.364 383.563 396.781 410.15 366.697 417.346 387.885 354.425 367.132 376.83 336.31 384.25 355.98 325.472 337.068 343.703 306.248 351.185 324.661 297.01 307.475 311.981 278.281 319.229 294.843 269.736 279.219 281.956 251.462 288.678 266.502 243.736 252.321 253.957 226.625 260.398 240.198 219.808 227.364 227.78 203.342 233.755 215.685 197.496 204.137 203.757 182.154 209.346 193.078 177.076 182.759 181.397 162.124 186.55 172.065 157.733 162.959 160.835 144.104 165.785 152.667 140.541 144.715 141.747 127.11 146.373 134.769 124.006 127.865 124.46 111.858 128.871 118.35 109.437 112.651 108.462 97.3388 112.288 103.148 95.5989 98.2554 93.7393 84.458 97.3422 89.4759 83.2088 85.4725 80.1367 72.1814 83.4607 76.553 71.4547 73.3883 67.8146 61.4623 71.0075 64.9995 61.3245 62.6078 56.6453 51.3281 59.2444 54.2109 51.5023 52.5706 46.4983 42.5708 49.1055 44.704 42.934 43.682 37.4495 34.1666 39.5518 36.0703 34.8718 35.592 29.2636 27.0836 31.401 28.3929 28.1193 28.3571 22.1246 20.6122 23.8047 21.4407 21.7101 22.0029 15.9928 15.2614 17.4177 15.5871 16.3607 16.5199 10.623 10.2524 11.6775 10.5191 11.46 11.6038 6.2017 6.48622 7.40252 6.24278 7.497 7.46581 2.96606 3.34986 3.6591 3.23056 3.95111 3.89783 1.27443 1.5503 1.84992 1.39149 1.68585 1.43127 254.358 454.169 210.673 285.872 481.997 471.087 375.364 414.061 373.407 399.563 447.375 422.877 351.65 402.026 364.169 384.433 430.081 399.415 315.938 376.143 326.925 358.137 398.211 369.388 288.103 343.582 297.505 327.725 362.521 338.253 263.787 309.819 272.18 296.81 326.883 307.301 241.099 278.412 248.854 267.651 294.084 278.25 219.861 249.607 226.454 241.016 264.604 251.67 199.719 223.771 205.678 216.742 238.042 227.305 180.849 200.532 185.682 194.674 214.115 205.023 163.035 179.327 167.331 174.42 192.026 184.336 146.367 159.837 149.997 155.729 171.665 165.005 130.694 141.982 134.128 138.753 152.693 146.909 116.003 125.347 118.935 122.801 135.15 130.169 102.36 110.094 105.135 108.027 118.811 114.519 89.8822 95.8716 92.1147 94.2879 103.535 99.9432 78.0018 82.7464 80.5058 81.7176 89.3515 86.3638 67.3097 70.5791 69.2915 69.9366 76.4905 73.9253 57.3375 59.7297 59.3316 59.3405 64.618 62.4825 48.2988 49.5014 49.9693 49.7362 53.7199 52.1899 40.2347 40.5443 41.7094 40.9869 43.9307 42.5697 32.9078 32.2513 34.0873 32.9604 35.0874 34.3281 26.4239 25.1821 27.6679 26.248 27.2455 26.7019 20.7644 18.8661 21.5337 20.0064 20.3166 20.2552 15.926 13.6166 16.9315 14.9572 14.4072 14.5686 11.9614 9.10063 12.5273 10.3816 9.33038 9.89704 8.70916 5.81996 9.44717 7.06398 5.46933 6.21811 6.3796 3.25089 6.72687 4.43082 2.59782 3.47684 4.32502 2.37246 4.91838 2.90877 1.44034 2.12832 2.79591 1.93462 3.30329 1.8162 1.80082 2.03287 1.75676 1.52121 2.11304 1.34514 1.85571 1.87008 0.95925 0.936934 1.11551 0.916739 0.966063 1.10262 141.225 198.906 120.745 148.019 209.959 201.576 226.153 285.639 220.2 259.482 311.678 288.012 227.124 276.862 223.542 254.019 297.519 272.196 207.486 252.34 209.543 235.594 269.435 245.813 192.581 231.172 196.114 218.298 247.82 227.522 179.941 212.311 183.689 201.564 228.591 212.267 167.79 194.109 170.906 185.286 209.892 197.012 155.298 176.847 158.381 169.328 191.775 181.45 142.967 160.436 145.564 153.959 174.273 166.211 130.766 144.997 133.254 139.57 158.056 151.159 119.16 130.5 121.075 125.962 142.526 136.958 108.071 117.227 109.881 113.519 128.051 123.238 97.5308 104.701 99.0228 101.703 114.458 110.539 87.6458 93.2141 89.177 90.9349 101.94 98.6295 78.5415 82.3288 79.7287 80.6831 90.102 87.5083 70.0108 72.5548 71.0633 71.4604 79.2275 77.0801 62.1958 63.4702 63.1732 62.8177 69.2761 67.6487 54.9324 55.0866 55.8253 54.9044 59.9515 59.0337 48.26 47.537 49.1055 47.7517 51.4817 50.8632 42.3307 40.6024 43.1675 41.1459 43.8795 43.7713 36.7509 34.404 37.4435 35.2972 36.9667 37.2472 31.9027 28.9764 32.6038 29.9755 30.7798 31.3636 27.3273 24.0748 27.807 25.2026 25.2998 26.2472 23.4376 19.9975 23.9607 21.1721 20.7265 21.6678 19.7368 16.3347 20.3018 17.6395 16.5867 17.7904 16.7538 13.3591 17.2463 14.5049 13.2498 14.3533 13.6934 10.6852 14.2023 11.777 10.3162 11.5871 11.0804 8.48205 11.5416 9.42213 7.90042 9.08282 8.37871 6.28387 9.07094 7.25006 5.91744 6.80948 6.17092 4.43491 6.53724 4.95851 3.97104 4.78441 3.50273 2.39861 4.16949 2.86571 2.2651 2.78043 1.67337 1.6387 1.87631 1.36358 1.23153 1.72441 66.4997 104.669 57.9518 76.9217 112.447 110.471 134.988 171.646 135.32 153.99 177.651 159.704 150.881 177.876 153.703 167.687 188.699 169.105 144.064 166.432 147.563 158.794 176.765 161.114 137.318 154.509 140.043 147.719 165.297 153.286 131.201 143.787 132.798 137.984 155.111 146.26 124.335 133.448 125.578 128.665 145.076 138.449 116.931 123.444 117.619 119.236 134.852 129.779 109.052 113.635 109.574 110.197 124.463 120.673 101.192 104.226 101.46 101.386 114.327 111.339 93.5472 95.233 93.7857 93.0819 104.566 102.264 86.2218 86.8926 86.3311 85.1887 95.1584 93.3554 79.3733 78.9325 79.6915 77.9184 86.4512 85.298 73.014 71.8277 73.0369 70.9967 78.3037 77.5454 67.0274 65.0969 67.2949 64.7932 70.8297 70.3508 61.4191 58.8559 61.5645 58.889 63.6375 63.617 56.2358 53.1997 56.6177 53.6075 57.2696 57.581 51.4123 47.9605 51.5628 48.4965 51.1565 51.8226 46.9079 43.1279 47.2647 43.9214 45.6884 46.5171 42.6184 38.6759 42.9078 39.5877 40.5165 41.757 38.551 34.5061 38.9185 35.5565 36.0865 37.2567 34.7634 30.6688 35.0689 31.8933 31.7071 33.0958 31.0866 27.2226 31.4974 28.3761 27.911 29.2474 27.7663 23.9719 27.9414 25.036 24.4671 25.7571 24.2328 20.6859 24.8196 21.9497 20.9883 22.2697 21.0057 17.8073 21.4938 18.8925 17.892 19.0984 17.5797 14.9328 18.3534 15.8977 14.9552 16.1278 14.4834 12.1588 15.1637 13.0339 12.228 13.2126 11.3529 9.45681 12.183 10.1902 9.44629 10.1881 8.28299 6.80307 8.98243 7.38375 6.81847 7.39799 5.16592 3.90779 5.91356 4.47468 4.02538 4.39473 2.0859 1.74541 2.57321 1.91863 1.76139 1.9003 38.4132 68.2421 15.3122 46.9945 54.9564 54.745 138.917 137.731 137.901 135.667 122.144 118.522 160.993 151.367 167.524 156.597 139.919 136.695 158.087 145.063 163.987 151.686 138.166 137.64 150.569 135.612 154.289 141.539 132.307 133.921 142.184 126.346 144.009 131.282 126.054 128.626 133.067 117.473 134.078 121.806 118.82 121.914 123.978 108.975 124.35 112.892 111.385 114.503 114.929 101.024 115.366 104.511 103.944 106.92 106.505 93.6598 106.548 96.751 96.6693 99.5151 98.5182 86.5456 98.6217 89.5486 89.6561 92.4268 91.0771 80.2417 91.0782 83.1049 82.9641 85.416 84.3446 74.1886 84.3232 76.8991 76.7487 79.3502 78.0029 68.8153 78.1132 71.2361 71.0039 73.3438 72.1278 63.685 72.3754 66.0762 65.6446 67.9614 66.7401 58.9551 66.9031 61.1721 60.5786 62.8715 61.692 54.5227 61.9062 56.519 55.9329 57.9848 56.8621 50.4409 57.2109 52.2256 51.4804 53.51 52.3022 46.2273 52.6561 48.2325 47.2342 49.1823 47.8925 42.4775 48.2675 44.1583 43.3463 45.0907 43.628 38.5815 43.9852 40.3084 39.5093 41.2383 39.6304 35.2876 39.9877 36.7826 35.9047 37.3501 35.5318 31.7409 36.0594 33.0143 32.3213 33.6763 31.927 28.3201 32.2899 29.6071 28.8192 30.1467 27.9795 24.8635 28.4652 26.0587 25.2883 26.3335 24.234 21.5693 24.8202 22.5584 22.0718 22.9259 20.3768 18.2059 21.0909 19.1905 18.5008 19.3445 16.8068 15.1462 17.3599 15.739 15.2346 16.0667 13.1099 11.6507 13.8602 12.365 11.9259 12.4769 9.63582 8.60496 10.3017 8.98564 8.70216 9.23801 6.12627 5.3196 6.84813 5.94903 5.45816 5.62677 2.42273 2.08302 3.07612 2.52483 2.20881 2.30058 110.239 108.297 81.6951 95.5319 78.7455 91.9651 220.329 189.745 214.911 198.375 165.644 173.989 238.75 205.57 242.971 221.939 183.586 192.048 228.713 196.359 235.115 213.361 178.803 188.41 213.932 181.889 219.072 197.09 168.617 178.941 198.507 167.359 202.435 180.867 157.611 167.544 183.463 153.614 186.311 165.78 146.196 155.659 168.938 141.147 171.107 152.004 135.205 143.96 155.044 129.52 157.006 139.303 124.668 132.732 142.104 118.841 143.722 127.66 114.914 122.194 130.073 109.108 131.399 117.029 105.915 112.373 118.99 100.238 120.256 107.42 97.7034 103.484 108.829 92.175 110.111 98.5305 90.0179 95.0648 99.4967 84.7964 100.586 90.331 83.1069 87.5411 90.7454 77.8316 91.8706 82.7545 76.5284 80.6508 82.9656 71.5457 83.8997 75.8721 70.6173 74.0447 75.5805 65.6073 76.4103 69.2549 64.9932 67.9408 68.6542 60.0792 69.6451 63.2629 59.6689 62.3994 62.2347 54.7145 63.2014 57.4246 54.5912 57.0257 56.4261 50.0311 57.1706 52.1803 49.8765 52.1299 50.6292 45.071 51.5489 47.1066 45.3032 47.1531 45.4656 40.7284 46.1407 42.2917 40.9578 42.5159 40.1986 36.242 41.0308 37.6779 36.6188 38.0145 35.5395 32.1059 36.2233 33.4103 32.5617 33.6121 30.8134 27.8726 31.4521 29.0681 28.6031 29.6022 26.303 24.0735 27.085 24.8968 24.716 25.6305 21.9914 20.0782 22.5191 20.7443 20.7555 21.4638 17.8976 16.2671 18.696 16.9801 16.9622 17.4152 13.6267 12.6925 14.5056 13.1748 13.3151 13.6294 9.92707 9.0741 10.7505 9.57665 9.79443 10.056 6.15589 5.77205 6.87396 5.97494 6.24675 6.2796 2.75625 2.45226 3.45384 2.77606 2.5878 2.68899 208.654 189.485 172.562 181.403 158.597 179.861 332.55 285.493 325.182 300.425 261.329 273.373 338.935 296.226 341.137 317.956 273.764 284.589 317.875 279.163 324.358 300.21 259.453 271.166 294.697 257.146 301.406 276.399 240.896 253.168 272.506 235.783 278.416 253.263 222.25 234.399 250.908 215.841 255.997 231.846 204.36 215.879 230.287 197.167 234.693 211.851 187.486 198.259 210.405 180.081 214.331 193.486 171.506 181.205 191.87 164.106 195.293 176.375 156.684 165.591 174.446 149.347 177.708 160.538 142.876 150.825 158.249 135.91 161.286 145.804 130.29 137.435 143.162 123.402 146.112 132.318 118.614 124.738 129.666 112.094 132.105 119.836 108.108 113.362 116.725 101.512 119.182 108.337 98.0412 102.731 105.201 91.8052 107.228 97.8255 89.0419 93.1969 94.3056 82.7436 96.3663 88.1076 80.5128 84.093 84.4607 74.3526 86.2477 78.8774 72.7986 75.9866 75.0858 66.5448 76.7766 70.5453 65.4522 67.9201 66.6981 59.5002 68.2139 62.8166 58.8172 60.9974 58.6955 52.7646 60.2803 55.6054 52.3234 54.1917 51.5643 46.357 52.8663 48.8557 46.5485 48.1457 44.7909 40.7031 46.02 42.6829 41.0139 42.0807 38.5267 35.2769 39.6985 36.8168 35.7539 36.7298 32.5866 30.1158 33.7495 31.3862 30.7884 31.517 27.376 25.4022 28.3561 26.4047 26.0934 26.78 22.1946 20.8828 23.3177 21.6798 21.5626 22.0767 17.6822 16.5545 18.6077 17.2665 17.4615 17.8985 13.2315 12.5911 14.1893 12.9717 13.4219 13.565 9.26151 8.84193 10.032 9.24217 9.61523 9.671 5.40842 5.31124 6.24189 5.57518 5.82824 5.92298 2.49945 2.65714 2.92996 2.77922 2.64779 2.85605 354.015 302.505 314.247 314.157 265.475 294.064 458.169 401.682 454.124 423.365 378.462 391.237 443.57 396.96 447.005 420.807 376.549 387.104 411.166 369.803 418.657 392.236 350.684 362.692 381.839 341.299 389.754 362.341 324.202 336.942 353.775 313.883 361.292 333.679 298.951 311.738 326.054 287.758 332.967 306.348 274.704 286.916 299.083 263.116 305.603 280.483 251.713 262.993 272.879 239.823 278.985 255.658 229.607 239.973 248.211 217.87 253.821 232.601 208.821 218.175 225.019 197.445 230.128 210.619 189.611 197.916 203.251 178.599 207.931 190.589 171.66 179.154 182.995 161.066 187.503 171.573 155.043 161.591 164.331 144.974 168.387 154.458 139.776 145.413 147.073 129.897 150.827 138.357 125.353 130.429 131.086 116.075 134.633 123.633 112.442 116.784 116.306 103.335 119.482 109.776 100.341 104.05 102.804 91.6291 105.835 97.2796 89.2407 92.4728 90.369 80.6933 93.1009 85.6371 78.9272 81.7008 78.8816 70.9366 81.3564 75.0803 69.558 71.78 68.3051 61.4435 70.4742 65.0416 60.7176 62.538 58.6482 53.075 60.7268 56.2328 52.8247 54.2145 49.738 45.2437 51.6111 47.632 45.3909 46.5023 41.7564 38.3616 43.472 40.2983 38.6474 39.601 34.3151 31.7354 35.8242 33.2721 32.5041 33.0609 27.9333 26.0804 29.0819 27.2194 26.9134 27.1721 21.9391 20.7808 23.0007 21.3031 21.5206 21.8405 16.5845 15.9906 17.7444 16.6918 16.9903 17.1292 11.89 11.544 12.8154 11.9844 12.6279 12.5741 7.91759 7.8067 8.74398 8.09416 8.62698 8.59284 4.29021 4.40984 5.02886 4.48623 4.99841 4.96702 1.92551 2.51505 2.42593 2.3776 2.57331 2.62612 612.734 475.062 586.666 558.121 424.901 457.276 570.884 519.711 619.545 540.949 501.524 512.43 543.456 493.597 548.015 515.035 477.77 488.261 507.889 461.335 511.802 482.972 443.724 456.379 474.499 429.493 482.022 451.614 412.217 425.587 440.783 396.966 449.747 418.926 381.578 394.975 406.611 365.284 415.657 385.987 351.269 364.12 373.031 334.31 381.833 353.556 321.742 333.778 340.124 304.568 348.836 322.238 293.35 304.225 308.859 276.333 316.887 292.412 266.424 276.233 279.22 249.878 287.107 264.864 241.076 249.958 251.685 225.378 258.748 238.466 217.543 225.418 225.968 202.309 232.895 214.454 195.541 202.427 202.277 181.281 208.407 191.887 175.241 181.382 180.288 161.596 186.111 171.309 156.373 161.694 159.881 143.483 165.153 151.924 139.115 143.784 141.064 126.638 146.15 134.331 123.009 127.01 123.687 111.381 128.311 117.785 108.328 111.632 107.85 96.9274 112.196 102.891 94.6103 97.5772 93.167 84.0771 96.9964 88.7814 82.1797 84.443 79.6512 71.9373 83.3749 76.3467 70.7167 72.5323 67.3958 61.1039 70.5296 64.4586 60.1732 61.6966 56.0778 50.9366 59.2639 53.9019 50.5348 51.6218 45.8625 41.9698 48.6807 44.1143 41.8936 42.7871 36.8309 33.7066 39.4257 35.5834 33.9937 34.6579 28.6557 26.6084 30.7175 27.8929 27.0306 27.396 21.495 19.9837 23.5073 21.1108 20.7156 20.9775 15.1141 14.6626 16.9912 15.044 15.4021 15.3854 9.87595 9.86644 11.5746 10.1903 10.627 10.6935 5.65029 6.0675 6.92506 6.07955 6.81972 6.73873 2.65173 3.12334 3.75924 3.1189 3.63171 3.52257 1.16954 1.50945 1.5307 1.18293 1.57228 1.64306 228.793 467.537 172.104 273.717 496.88 491.162 367.397 403.906 369.441 395.716 421.64 408.621 361.464 400.798 376.449 386.341 428.33 407.266 336.642 383.23 347.914 367.543 411.898 389.188 308.058 353.932 317.385 339.766 379.32 358.632 279.387 319.935 288.189 308.316 342.056 324.159 251.938 286.23 259.747 276.708 305.32 290.332 226.488 255.163 233.527 247.053 272.362 259.603 203.095 226.969 209.283 220.459 242.69 231.847 181.914 202.191 187.355 196.458 216.667 207.467 162.672 179.679 167.195 174.918 192.904 184.813 145.098 159.64 149.204 155.617 171.871 164.867 129.018 141.271 132.621 137.976 152.154 146.054 114.337 124.484 117.456 121.759 134.412 129.221 100.545 108.858 103.326 106.871 117.596 113.276 87.7962 94.8246 90.6266 93.0994 102.639 98.7611 76.1594 81.5732 78.5209 80.4555 88.219 85.094 65.3593 69.6895 67.7093 69.0654 75.5866 72.7988 55.6439 58.5407 57.4933 58.3905 63.4454 61.2464 46.7684 48.6765 48.5358 48.5733 53.0558 51.1947 38.6125 39.5581 40.1782 39.888 42.8913 41.5979 31.3552 31.5615 32.8145 32.0708 34.4161 33.3156 25.0356 24.3397 26.1499 25.2384 26.2449 25.7498 19.4987 18.2458 20.6355 19.1261 19.7424 19.4024 14.85 12.8957 15.5916 14.1049 13.8014 13.6863 10.8666 8.67894 11.6331 9.80293 9.16896 9.19779 7.76512 5.19504 8.3868 6.41512 5.02855 5.51537 5.50225 3.12438 5.96414 4.10237 2.52085 3.00724 3.79403 2.08408 4.21804 2.6651 1.53916 1.9626 2.45314 1.97471 2.83258 1.89201 1.71225 1.61279 1.38172 1.54891 1.80713 1.22383 1.8745 1.81151 0.820936 0.80011 0.923247 0.893642 0.952206 0.87343 112.513 188.411 82.0462 127.892 186.472 168.11 220.156 285.828 215.695 259.006 305.737 289.339 236.354 287.501 239.776 265.208 307.363 290.588 225.353 265.687 230.695 248.892 285.95 268.397 208.273 243.665 213.644 230.41 263.281 245.91 190.386 221.724 195.068 211.083 240.396 224.744 173.274 200.236 177.41 191.529 217.866 204.345 156.965 180.004 160.565 172.578 196.297 184.852 142.039 161.407 145.282 155.047 176.456 166.698 128.226 144.385 130.953 139.168 158.04 150.054 115.575 128.991 118.121 124.414 141.529 134.616 104.039 115.25 106.279 111.335 126.338 120.528 93.4889 102.492 95.4531 99.3697 112.416 107.511 83.6488 90.837 85.2393 88.5856 99.7268 95.4884 74.5688 80.112 76.2045 78.3495 87.8567 84.4081 66.138 70.3678 67.5507 69.0027 76.8918 74.1775 58.577 61.2705 59.79 60.4563 66.999 64.8613 51.4833 53.1941 52.5671 52.7317 57.798 56.1924 45.139 45.5641 46.1849 45.6162 49.526 48.398 39.1708 38.9199 40.115 39.1678 41.8806 41.2371 34.0481 32.8744 34.8962 33.4327 35.1963 34.8002 29.1512 27.3273 29.9187 28.1663 29.0257 29.1269 25.0049 22.6579 25.7345 23.7229 23.82 24.0219 21.1361 18.5344 21.9176 19.8385 19.1078 19.7611 18.0778 15.2025 18.5497 16.3997 15.3431 16.1091 15.059 12.1871 15.5703 13.4304 12.1022 12.8834 12.5129 9.77514 12.7654 10.9053 9.42065 10.3692 9.86699 7.87157 10.4068 8.58282 7.26762 8.28682 7.62171 5.74635 8.19361 6.46373 5.37091 6.04372 5.31626 4.07764 5.9371 4.59307 3.69425 4.33476 2.98223 2.12021 3.70897 2.52594 2.0022 2.29298 1.3195 1.39499 1.56252 1.1873 1.14099 1.49156 55.934 98.991 35.5927 67.1231 93.2174 87.4499 147.456 178.163 144.882 162.418 175.622 165.454 167.999 189.731 173.962 181.422 199.1 186.37 158.897 178.523 164.336 171.272 191.615 178.911 145.549 163.243 149.333 156.289 176.99 165.253 133.335 148.701 136.068 142.375 162.225 151.774 122.364 135.225 124.294 129.532 147.952 139.203 112.205 122.473 113.593 117.827 134.662 127.305 102.714 111.123 104.018 107.168 122.177 116.22 94.082 100.83 95.2212 97.45 110.892 105.922 86.5474 91.4184 87.3952 88.5984 100.23 96.4853 79.3293 82.992 79.9689 80.7647 90.6887 87.5831 72.8413 75.0799 73.4997 73.6036 81.8834 79.4543 66.9117 68.0174 67.4242 66.8637 73.8569 72.0175 61.1657 61.5571 61.8828 60.9279 66.4925 65.2591 56.0431 55.465 56.6925 55.1751 59.6424 58.8758 51.3509 50.0159 51.9557 50.1236 53.3107 53.0401 46.8099 45.1157 47.3944 45.3109 47.6286 47.6677 42.6475 40.3619 43.3482 41.0958 42.358 42.6237 38.8534 36.3205 39.3689 37.0303 37.5699 38.0191 35.2541 32.3366 35.7094 33.2044 33.2616 33.9169 31.633 28.7703 32.2665 29.6781 29.2041 30.1326 28.3431 25.3498 29.0026 26.3153 25.5819 26.6356 25.204 22.4047 25.7673 23.4006 22.4423 23.4107 22.0551 19.4879 22.7303 20.5793 19.4669 20.2587 18.997 16.7896 19.6643 17.7132 16.4312 17.4585 16.0565 13.933 16.8838 14.914 13.806 14.6698 13.1264 11.5339 13.8265 12.2491 11.2101 12.0175 10.1558 8.79516 11.0116 9.51418 8.53171 9.37874 7.38124 6.2048 8.17885 6.8426 5.95511 6.64237 4.56671 3.68733 5.21807 4.23569 3.54031 4.06864 1.58323 1.84968 2.25567 1.75317 1.72383 1.80907 51.9318 76.6391 22.9468 55.7768 57.481 58.8075 156.286 149.909 152.171 149.201 136.945 138.444 178.121 162.866 184.328 169.3 155.262 154.672 167.423 152.663 174.369 159.955 148.797 148.101 152.194 138.658 157.393 144.764 137.165 136.904 138.395 125.839 142.069 130.698 125.746 126.086 126.663 114.42 129.179 118.564 115.476 116.272 116.307 104.634 118.078 108.093 106.03 107.153 107.171 95.9323 108.349 99.1648 97.4082 98.9487 98.7402 88.1449 99.7095 91.1959 89.7583 91.2769 91.1356 81.4491 92.0441 84.2487 83.0294 84.3958 84.2675 75.2011 84.8883 77.8534 76.3668 78.1363 77.9928 69.7756 78.6465 72.1076 70.674 72.4683 72.1173 64.4333 72.8038 66.82 65.3894 67.0434 66.8909 59.7895 67.5165 62.0131 60.4441 62.2029 61.8199 55.2612 62.4957 57.3906 55.7647 57.4358 57.2643 51.2034 57.7127 53.2115 51.4528 53.2489 52.7805 47.3428 53.3101 49.1536 47.5233 49.0484 48.4891 43.539 49.1433 45.1915 43.7349 45.1978 44.3985 39.9695 45.073 41.5884 39.9533 41.4325 40.5615 36.5749 41.2476 38.1774 36.4959 37.8562 36.6891 33.1216 37.5438 34.5634 32.9973 34.4096 33.0346 29.9624 33.7691 31.0974 29.8112 31.0656 29.5605 26.6744 30.1802 27.8322 26.7204 27.7194 26.0323 23.5805 26.8091 24.5834 23.5931 24.398 22.4264 20.4011 23.2045 21.271 20.3823 21.1663 18.8929 17.1842 19.8434 18.0005 17.2624 18.0066 15.349 13.995 16.2927 14.892 14.0986 14.6985 12.2174 10.9893 12.988 11.5941 11.0869 11.593 8.60945 7.84145 9.59968 8.42223 7.92591 8.44492 5.47402 4.82165 6.41673 5.20518 4.99633 5.34182 2.10689 1.80703 2.95377 2.16733 2.04153 2.0751 105.895 112.796 73.5795 96.7202 85.5272 95.0966 225.113 196.505 217.042 204.414 176.792 186.52 249.588 213.127 253.637 230.157 196.04 204.959 235.726 201.014 242.602 218.888 185.335 194.308 214.751 182.758 221.35 198.857 169.248 178.368 195.589 165.473 200.752 179.337 154.185 163.227 178.396 150.405 182.65 162.666 140.721 149.448 163.107 136.969 166.373 147.95 128.798 137.058 148.921 125.196 151.881 134.982 118.166 125.553 136.368 114.627 138.883 123.539 108.525 115.296 124.589 105.293 126.844 113.182 99.9841 105.867 114.008 96.5735 115.973 103.834 92.1336 97.4033 104.061 88.8311 106.042 95.1396 84.9707 89.6649 95.2716 81.6441 96.9015 87.3862 78.2323 82.5621 86.9619 75.1221 88.5409 80.0182 72.2561 75.9413 79.399 68.8428 80.9043 73.3911 66.53 69.8969 72.1958 63.1368 73.5924 67.0761 61.0784 64.1432 65.6252 57.6864 66.8647 61.1708 56.2043 58.7875 59.2912 52.8027 60.7499 55.6622 51.5059 53.5287 53.7282 47.8401 54.7668 50.5508 47.091 48.9 48.1667 43.3806 49.1862 45.4087 42.7481 44.2634 43.0691 38.9619 44.053 40.7809 38.5175 39.9361 38.0673 34.7109 39.0338 36.3741 34.2918 35.6196 33.4224 30.5869 34.4151 31.9851 30.5498 31.6623 28.85 26.8171 29.9502 27.9149 26.8296 27.6805 24.6173 22.8987 25.5012 23.7982 23.1223 23.8045 20.3058 19.1159 21.4296 19.9154 19.4553 19.8294 16.6191 15.4538 17.5411 16.2038 15.9073 16.4286 12.6317 12.1127 13.5531 12.6655 12.3812 12.7154 9.19581 8.64099 9.916 9.06362 8.99871 9.30034 5.32396 5.26321 6.39921 5.76398 5.72011 5.73447 2.44342 2.34216 3.04316 2.61013 2.29877 2.53386 192.134 183.676 156.576 172.696 151.609 166.683 325.109 283.989 313.365 297.215 261.034 273.94 344.802 301.184 347.081 322.869 281.236 293.152 324.288 283.72 331.717 305.661 264.926 276.806 297.231 258.967 304.839 278.912 241.914 253.908 271.582 235.272 278.52 253.355 220.319 231.974 248.275 213.893 254.191 230.251 200.803 211.982 226.654 194.821 231.876 209.624 183.299 193.509 206.75 177.401 211.134 190.925 167.108 176.793 188.138 161.55 192.589 173.623 152.502 161.095 171.01 147.1 174.819 158.058 139.248 146.787 155.065 133.714 158.633 143.518 126.719 133.594 140.591 121.443 143.727 130.318 115.516 121.516 126.951 110.274 130.259 118.128 104.957 110.27 114.558 99.8296 117.251 106.822 95.2533 99.9419 102.951 90.0204 105.676 96.2117 86.5487 90.4901 92.4629 81.3223 94.6212 86.596 78.2104 81.5668 82.5033 73.0129 84.6116 77.6711 70.5972 73.4488 73.4476 65.36 75.3739 69.1478 63.2523 65.9509 64.9012 58.2041 66.8673 61.5892 56.95 58.8534 57.1394 51.597 58.8718 54.3972 50.6106 52.3434 49.9696 45.3307 51.6308 47.8045 44.8404 46.2373 43.3769 39.6343 44.7383 41.5934 39.2464 40.4544 37.0755 34.1672 38.5477 35.8564 34.3774 35.102 31.3695 29.2405 32.6789 30.4033 29.3116 30.1123 26.1404 24.5042 27.3636 25.468 24.8203 25.5577 21.1673 20.0863 22.316 20.8253 20.4277 20.8762 16.6963 15.7503 17.8018 16.5707 16.5639 16.8239 12.5175 11.9981 13.4223 12.44 12.5666 12.8011 8.58755 8.38168 9.49034 8.80601 8.88638 9.04159 5.08169 5.12537 5.88691 5.15979 5.4667 5.4452 2.2948 2.54539 2.84516 2.638 2.55451 2.74466 335.986 289.353 303.201 302.283 249.183 269.655 440.68 393.549 428.402 412.302 368.511 382.333 444.823 399.995 450.133 423.91 380.368 392.866 417.009 374.846 426.054 397.36 356.106 368.749 385.09 343.861 393.817 365.321 326.588 339.466 354.224 314.438 362.363 334.575 298.689 311.24 324.807 287.263 332.448 305.86 272.997 285.014 297.088 261.751 303.86 279.094 249.109 260.242 270.68 238.252 277.094 254.325 226.956 237.009 246.188 216.402 251.809 231.026 206.228 215.502 222.806 196.182 228.512 209.372 187.336 195.462 201.623 177.516 206.588 189.478 169.52 176.861 181.533 160.121 186.256 170.888 153.188 159.582 163.138 144.229 167.441 153.677 137.965 143.779 145.861 129.268 149.961 137.754 124.014 128.884 130.266 115.44 133.905 123.118 111.034 115.391 115.341 102.692 118.873 109.357 99.1079 102.727 102.221 91.0306 105.206 96.9749 87.9355 91.1322 89.534 80.217 92.6569 85.1773 77.6942 80.3997 78.2149 70.2248 80.9001 74.5985 68.2811 70.4759 67.5486 60.9336 69.9053 64.7199 59.7339 61.5005 57.9833 52.5018 60.1432 55.6056 51.7522 53.1415 48.9113 44.7875 51.1683 47.3187 44.377 45.4482 40.9691 37.8364 42.8781 39.8499 37.5539 38.3483 33.5567 31.263 35.3503 32.926 31.5057 32.0373 27.1759 25.3952 28.5125 26.6613 25.7951 26.3469 21.1429 20.1461 22.4745 21.0873 20.6962 20.9057 16.1441 15.4149 17.1909 16.123 15.9737 16.1581 11.299 11.1948 12.4989 11.7436 11.8418 11.9308 7.59994 7.3819 8.42245 7.82167 8.05564 8.06726 3.94499 4.26415 4.73651 4.36567 4.70827 4.67659 2.01156 2.41858 2.40208 2.27691 2.43956 2.49061 607.887 460.361 590.004 550.446 409.448 432.17 545.898 506.07 583.33 522.181 483.462 496.098 535.528 494.542 548.753 514.659 477.025 490.582 509.083 465.504 517.734 486.603 447.85 461.45 476.418 432.089 485.156 454.149 414.925 428.484 441.104 398.164 450.637 419.96 382.127 395.473 405.653 364.97 415.224 385.787 350.38 363.082 371.243 333.526 380.941 352.719 320.449 332.216 338.397 303.937 347.502 321.381 291.701 302.441 307.294 275.52 315.825 291.76 264.964 274.705 277.895 249.278 285.86 263.884 239.701 248.485 250.516 224.866 258.237 238.082 216.524 224.273 225.408 202.038 232.135 213.938 194.806 201.528 201.657 181.085 208.118 191.766 174.628 180.688 179.836 161.527 185.739 171.049 155.893 161.204 159.56 143.494 165.081 151.898 138.809 143.29 140.933 126.645 145.984 134.169 122.587 126.53 123.595 111.315 128.44 117.84 108.077 111.39 107.729 97.0735 112.014 102.744 94.2873 97.1477 93.0904 83.9647 97.0904 88.8626 81.9321 84.3587 79.6356 71.8758 83.1602 76.1295 70.3697 72.2342 67.3195 60.8591 70.6203 64.4051 59.8767 61.3848 56.1008 50.9401 59.0434 53.7611 50.2692 51.3357 45.7632 41.8243 48.5551 44.1455 41.6153 42.3164 36.6545 33.5618 39.0322 35.3372 33.6549 34.13 28.4037 26.2467 30.6481 27.6888 26.6649 27.0163 21.2633 19.9623 23.2513 20.7445 20.355 20.5714 14.9686 14.4682 16.7884 14.8682 15.1295 15.0766 9.99653 9.69411 11.2541 10.005 10.4723 10.2942 5.67372 6.01639 7.03726 6.0903 6.60155 6.44307 2.9691 3.17468 3.74016 3.07956 3.43855 3.43791 1.22488 1.43209 1.65944 1.45991 1.77778 1.58326 220.506 475.654 153.595 268.781 512.747 511.324 370.341 400.414 372.401 395.783 412.396 402.003 363.848 397.574 378.345 384.43 421.506 403.023 341.231 382.943 351.716 367.866 411.304 391.36 315.033 355.865 323.378 342.341 383.398 364.807 286.546 322.812 294.369 311.732 347.286 331.279 257.955 288.756 265.39 279.609 310.6 296.471 230.581 256.864 237.273 249.306 276.054 264.227 205.557 228.066 211.66 221.698 245.333 234.791 183.066 202.295 188.241 196.92 217.757 208.806 162.963 179.436 167.493 174.753 193.451 185.485 144.631 158.987 148.549 155.058 171.572 164.567 128.26 140.455 131.833 137.123 151.703 145.614 113.177 123.615 116.252 120.811 133.501 128.339 99.5647 108.1 102.404 105.97 116.896 112.316 86.7134 93.7761 89.2957 92.2972 101.499 97.7355 75.1377 80.8813 77.5765 79.6196 87.663 84.1872 64.4362 68.7774 66.5079 68.0519 74.6536 71.8996 54.6796 58.0489 56.5512 57.603 62.8044 60.5656 45.6274 47.9395 47.4651 48.031 52.0104 50.2459 37.6898 39.076 39.2629 39.2606 42.394 40.8485 30.4772 31.0271 31.9396 31.5183 33.6213 32.5362 24.1628 24.0078 25.5149 24.6645 25.9594 25.1983 18.6378 17.7558 19.7575 18.6812 19.0614 18.7599 14.0599 12.6279 15.152 13.6008 13.4568 13.4246 10.2188 8.24461 11.0354 9.37653 8.5221 8.82049 7.13275 5.12949 8.01081 6.2633 4.89854 5.30314 5.04119 2.91949 5.50041 3.90206 2.30132 3.03442 3.43714 2.22577 3.87807 2.59934 1.61656 2.02814 2.43911 1.84761 2.79839 1.75815 1.88488 2.11154 1.28952 1.28382 1.5645 1.27298 1.77086 1.68451 0.659112 0.734177 0.738182 0.776872 0.684917 0.781092 100.428 185.094 61.4535 120.402 179.321 159.776 225.886 286.239 218.985 260.295 307.812 292.434 240.966 289.329 243.575 267.273 310.637 296.928 230.619 268.769 236.392 251.455 290.506 275.566 213.955 246.94 219.776 233.609 268.721 253.722 195.451 224.726 200.72 214.062 245.753 231.313 176.676 202.45 181.2 193.632 222.19 209.203 158.686 181.159 162.618 173.954 199.088 187.754 142.349 161.641 145.701 155.341 177.859 168.033 127.485 143.968 130.507 138.545 158.498 149.933 114.133 128.087 116.633 123.649 141.092 133.817 102.199 114.038 104.596 110.247 125.37 119.036 91.3696 101.179 93.3579 98.0028 111.308 105.888 81.478 89.5759 83.3981 87.1689 98.2803 93.79 72.3603 78.8672 74.0707 76.9178 86.5337 82.792 63.9689 69.1415 65.7494 67.704 75.6173 72.4025 56.5564 60.185 57.8297 59.1609 65.6547 63.2201 49.5896 52.1221 50.9583 51.6489 56.3848 54.6063 43.1916 44.6694 44.3775 44.57 48.3144 46.8745 37.5584 38.1534 38.7275 38.31 40.8864 39.8192 32.3815 31.9759 33.3229 32.4382 34.153 33.5006 27.8084 26.6245 28.8106 27.3778 27.9832 27.8315 23.6619 22.0428 24.5117 23.0087 23.0365 22.9037 20.2194 18.1391 20.9868 19.1192 18.4222 18.7671 17.0062 14.7629 17.6186 15.7935 14.5273 15.1474 14.2158 11.9079 14.8718 12.9846 11.4087 12.1657 11.5531 9.56491 12.2745 10.5709 8.80445 9.70506 9.39393 7.4215 10.0379 8.29317 6.84202 7.52908 6.99834 5.65708 7.71578 6.4319 5.05964 5.56029 4.98009 3.98604 5.5689 4.28091 3.46768 3.86896 2.68013 1.99491 3.42596 2.52558 1.79995 2.00989 1.2234 1.32768 1.53951 0.948165 0.931424 1.16441 53.2414 98.0012 24.666 63.8691 87.2681 82.6835 156.121 180.695 151.25 166.082 179.734 172.16 176.964 193.243 182.447 185.686 202.27 192.505 165.976 182.175 171.585 175.122 195.889 185.348 150.04 166.229 154.46 159.622 181.254 170.883 135.424 150.724 138.93 144.514 165.471 155.684 122.341 135.945 124.974 130.578 149.883 140.801 110.676 122.506 112.868 117.686 135.231 127.262 100.339 110.351 102.106 106.26 121.581 114.847 91.1252 99.2381 92.6198 95.8909 109.252 103.795 83.179 89.7226 84.4694 86.8908 98.3335 93.6096 75.8752 81.0311 76.9846 78.7898 88.4584 84.6088 69.5353 73.3007 70.5547 71.7199 79.558 76.5092 63.5936 66.1365 64.5501 64.9151 71.5508 69.1692 58.2362 59.9543 59.2253 58.9989 64.1177 62.3809 53.2937 53.8712 54.0923 53.464 57.3651 56.229 48.7147 48.6556 49.6815 48.693 51.3576 50.5015 44.5232 43.6632 45.2719 43.9141 45.7157 45.3755 40.574 39.4415 41.403 39.7989 40.6007 40.4876 36.8654 35.2165 37.7507 35.7693 36.052 36.2292 33.3565 31.4014 34.1018 32.2563 31.7835 32.2153 30.0345 27.787 30.8554 28.6965 27.8631 28.6251 26.9834 24.8023 27.658 25.7634 24.3134 25.2416 24.0667 21.6051 24.6564 22.7652 21.2278 22.212 21.2008 19.1223 21.8222 19.9517 18.2691 19.3206 18.158 16.2446 19.0666 17.252 15.6678 16.7577 15.5522 13.8637 16.3247 14.493 13.0976 13.9458 12.4723 11.0325 13.3101 11.7611 10.595 11.4665 9.84166 8.81157 10.5395 9.29892 8.16791 8.97712 7.19529 6.04896 7.8932 6.51954 5.76277 6.30839 4.26825 3.65937 5.01436 4.08423 3.36887 3.85861 1.65874 1.52313 2.34098 1.29574 1.47455 1.70903 58.3205 80.4218 28.9657 59.6617 60.6843 64.7705 164.5 154.248 159.137 154.376 143.256 146.965 187.411 167.208 192.52 174.273 161.711 163.244 174.203 156.027 180.726 163.787 153.901 154.206 155.238 140.581 160.346 146.882 140.258 140.012 138.505 126.274 142.421 131.206 126.891 126.568 124.566 114.038 127.636 118.03 114.79 114.6 113.146 103.47 115.45 106.809 104.236 104.254 103.333 94.4587 105.339 97.4561 95.0332 95.1044 94.9445 86.4856 96.5583 89.2125 86.776 87.3692 87.4056 79.5527 88.8192 82.4141 79.5588 80.4646 80.7813 73.3589 82.0563 75.7632 73.3031 74.3213 74.7858 68.0907 75.9407 70.4274 67.6164 68.7954 69.3168 62.9107 70.3045 65.1546 62.5184 63.6041 64.116 58.4091 65.3182 60.5538 57.7157 58.9437 59.3294 53.9665 60.1907 55.8803 53.4902 54.4794 54.721 50.0527 55.8419 51.8784 49.2026 50.4462 50.5704 46.1758 51.6713 47.7755 45.439 46.5048 46.608 42.5821 47.4967 44.1726 41.7325 42.9842 42.7469 39.1516 43.5589 40.5871 38.3282 39.4847 38.943 35.8738 39.957 37.1898 34.9538 36.0757 35.4595 32.5295 36.2876 33.6569 31.8386 32.6939 31.8922 29.4857 32.7778 30.5616 28.5143 29.5976 28.4279 26.2287 29.1582 27.1405 25.5833 26.4264 24.9192 23.1268 25.8546 24.0588 22.5665 23.3369 21.8106 19.9896 22.5001 20.8349 19.6327 20.2871 18.1128 17.0279 19.1012 17.6987 16.5615 17.0856 14.805 13.7284 15.7207 14.294 13.6557 14.0459 11.5761 10.8683 12.5217 11.4052 10.6189 10.9528 8.31546 7.85042 9.08049 8.18969 7.60681 8.0242 5.04523 4.84203 5.99687 5.20973 4.57539 4.97754 1.89442 1.646 2.62936 1.94881 1.77564 1.976 105.534 115.453 72.1997 98.1767 89.197 98.7878 228.516 198.969 219.676 206.946 181.117 191.191 255.282 216.475 257.817 233.638 202.117 211.691 240.735 203.757 246.837 221.948 190.117 199.452 217.528 184.266 223.585 200.523 171.664 180.442 195.559 165.838 201.214 179.94 154.237 162.724 176.89 149.805 181.529 162.056 139.229 147.22 160.748 135.981 164.677 147.014 126.573 133.888 146.39 123.973 149.827 133.899 115.506 122.302 133.772 113.533 136.946 122.322 105.825 111.999 122.261 104.103 124.869 111.927 97.3278 102.936 111.851 95.6252 114.343 102.759 89.5117 94.5234 102.32 87.966 104.464 94.1376 82.6651 86.9784 93.4472 80.6522 95.5727 86.4185 76.0666 80.0741 85.4026 74.2652 87.1909 79.0993 70.2026 73.7034 77.9485 68.2064 79.5833 72.4887 64.6401 67.7332 70.7384 62.6299 72.4254 66.2596 59.5542 62.2437 64.3702 57.1006 65.7745 60.4061 54.6118 56.9847 58.1553 52.3001 59.634 54.8975 50.0651 51.9021 52.5528 47.3709 54.0059 49.7189 45.7581 47.3484 46.9972 42.8946 48.3769 44.7684 41.4754 42.9097 42.0705 38.3606 43.2477 40.2835 37.4468 38.6826 37.1361 34.3771 38.2721 35.6615 33.5794 34.53 32.6195 30.1923 33.6997 31.6627 29.7169 30.7111 28.1139 26.3179 29.2767 27.3751 26.1129 26.7477 24.075 22.6178 25.0519 23.5208 22.3083 23.0061 19.946 18.8682 20.9346 19.4521 18.8491 19.2204 16.1148 15.204 17.1488 15.8685 15.2615 15.5998 12.412 11.8416 13.2368 12.1159 11.8813 12.0974 8.68774 8.41813 9.68183 8.88136 8.60883 8.71954 5.47742 5.2638 6.20469 5.49537 5.41201 5.52968 2.25136 2.04665 3.0456 2.57241 1.94488 2.20824 187.294 183 152.157 170.584 150.195 163.665 323.516 283.651 310.745 296.538 261.445 273.613 346.611 303.029 347.277 324.691 284.76 296.839 327.986 286.053 334.855 308.284 268.841 281.185 299.661 260.593 307.667 280.718 244.309 256.443 272.535 236.045 279.521 254.064 220.635 232.202 247.701 213.99 254.078 230.3 200.089 210.929 225.546 194.486 231.02 209.204 181.793 191.793 205.208 177.064 210.389 190.447 165.581 174.559 186.923 161.286 191.374 173.289 150.941 159.107 169.814 146.698 173.864 157.721 137.502 144.881 154.158 133.53 157.883 143.214 125.273 131.78 139.618 121.274 143.286 130.143 114.134 119.837 126.189 109.993 129.489 117.723 103.73 108.899 113.752 99.4416 116.843 106.707 94.1759 98.6165 102.449 90.0051 105.143 96.1385 85.5881 89.1858 91.663 81.0019 94.3337 86.618 77.2097 80.5041 81.9826 72.9381 84.1141 77.4126 69.6985 72.4262 72.8198 65.1266 75.0985 69.1353 62.5266 64.9589 64.4825 58.0557 66.3945 61.3058 55.9611 57.8503 56.5498 51.3686 58.5361 54.2914 49.7851 51.4607 49.4922 45.2919 51.1517 47.5043 44.0574 45.2309 42.7126 39.3293 44.3524 41.3512 38.6679 39.6864 36.6233 34.0621 38.0525 35.5649 33.5598 34.2597 30.8308 28.9371 32.2644 30.3038 28.9086 29.3042 25.6336 24.3251 26.8314 25.2598 24.2958 24.6658 20.6468 19.7729 22.0204 20.7605 20.078 20.2932 16.2493 15.7753 17.3344 16.4064 15.8747 16.2181 12.1656 11.7998 13.2023 12.4365 12.181 12.349 8.45777 8.41078 9.29038 8.58715 8.58124 8.65021 4.91613 4.89211 5.74118 5.24863 5.29407 5.28865 2.23697 2.49862 2.82669 2.44968 2.27563 2.49657 331.672 285.851 301.276 298.988 244.86 262.683 434.442 390.685 420.377 408.445 365.226 377.638 443.481 400.718 447.313 424.054 381.092 393.68 419.26 376.929 427.87 399.488 359.137 372.245 387.301 345.922 396.49 367.274 328.861 341.822 355.295 315.585 363.922 335.782 299.675 312.309 325.079 287.565 332.772 306.418 272.982 284.772 296.643 261.977 303.86 279.283 248.609 259.519 270.269 238.303 276.737 254.235 226.153 236.22 245.443 216.566 251.835 231.16 205.706 214.659 222.471 196.261 228.079 209.383 186.526 194.566 201.176 177.717 206.419 189.731 168.942 176.155 181.318 160.385 186.208 170.959 152.727 159.009 162.773 144.211 167.478 153.833 137.76 143.094 145.834 129.494 149.983 137.83 123.643 128.453 130.215 115.589 134.046 123.339 110.854 114.945 115.504 102.969 118.922 109.651 98.743 102.287 101.965 91.2015 105.368 97.1395 87.7573 90.7579 89.5545 80.3878 92.4851 85.3358 77.5104 80.067 77.9887 70.2971 80.8615 74.6586 68.1025 70.1299 67.3916 60.9239 69.9669 64.559 59.4415 61.1334 57.8397 52.5574 60.157 55.7761 51.5261 52.6901 48.942 44.8079 51.0064 47.1411 44.0453 44.8859 40.8362 37.6976 42.8633 39.8381 37.3379 38.0445 33.3957 31.1816 35.2038 32.6192 31.0843 31.4705 26.9345 25.2855 28.5176 26.6464 25.4997 25.873 21.0456 19.9624 22.3463 20.7736 20.3403 20.4977 15.814 15.2704 17.0777 16.0362 15.8044 15.7399 11.2339 11.1318 12.2996 11.2997 11.579 11.5808 7.33593 7.36509 8.39085 7.78021 7.91649 7.86971 4.03481 4.20125 4.8222 4.30683 4.52476 4.39155 1.92722 2.32568 2.44562 2.23431 2.31492 2.48489 611.167 456.658 594.617 548.942 406.37 425.535 535.119 501.026 570.14 515.484 475.973 487.304 529.156 494.024 544.104 513.184 475.292 488.749 508.153 467.097 517.58 487.656 449.137 463.407 477.018 433.638 486.638 455.598 416.583 430.553 441.731 399.4 451.883 421.06 383.158 396.394 405.87 365.646 416.109 386.484 350.891 363.327 371.138 333.894 380.715 353.087 320.246 331.769 338.266 303.902 347.332 321.591 291.659 302.256 306.915 275.791 315.776 291.873 264.682 274.119 277.605 249.528 285.811 264.1 239.43 248.075 250.592 225.203 258.105 238.223 216.286 224.122 224.989 202.517 232.329 214.457 194.658 201.324 201.778 181.541 208.145 192.09 174.533 180.515 180.003 161.915 186.115 171.561 155.927 161.282 159.809 143.917 165.212 152.128 138.588 143.297 140.926 127.04 146.326 134.741 122.68 126.707 123.911 111.656 128.632 118.119 108.144 111.336 107.919 97.4325 112.375 103.229 94.3366 97.1691 93.3506 84.2779 97.1909 89.2017 81.9474 84.2735 79.584 72.1335 83.5679 76.5132 70.3063 72.2201 67.4259 61.0729 70.7321 64.5949 59.8219 61.3248 55.8939 51.102 59.21 54.0461 50.2057 51.257 45.8884 41.9174 48.6793 44.2136 41.4718 42.3073 36.5345 33.6639 39.265 35.5201 33.4989 34.1221 28.5786 26.4367 30.6974 27.5847 26.4142 26.8546 21.0429 19.8515 23.3892 20.9377 20.2754 20.4144 15.0957 14.571 16.7846 14.8913 14.9252 14.9035 9.89653 9.68841 11.4893 10.1031 10.4287 10.2895 6.03842 6.19034 7.06584 6.12867 6.63094 6.38877 3.09055 3.18514 3.96945 3.4147 3.51434 3.50985 1.44925 1.35473 1.77035 1.30496 1.52245 1.49155 219.075 472.793 150.839 266.836 517.565 517.652 371.126 400.215 371.767 394.496 410.811 400.442 363.857 396.693 377.685 382.686 418.253 400.644 340.886 380.885 351.306 365.391 409.032 390.083 315.057 353.234 323.12 339.821 381.877 364.848 287.091 319.933 294.481 309.157 346.901 332.013 258.437 286.069 265.069 277.409 310.169 297.362 230.874 254.481 236.886 247.323 275.883 264.646 205.526 225.941 210.766 219.72 244.808 234.877 182.58 200.516 187.399 195.327 217.263 208.494 162.175 177.76 166.384 173.37 192.624 184.916 143.876 157.556 147.654 153.838 170.944 164.023 127.324 139.15 130.613 135.914 150.837 144.78 112.218 122.555 115.379 119.878 132.847 127.343 98.5626 107.046 101.39 104.976 116.165 111.468 85.8462 92.9909 88.4223 91.4434 101.069 97.1423 74.3175 80.0528 76.5874 78.9545 86.878 83.4923 63.5958 68.223 65.8893 67.5181 74.2351 71.2283 53.9914 57.2785 55.8776 57.0047 62.3256 59.8648 45.1178 47.5058 46.8638 47.6213 51.8786 49.9463 37.1775 38.6372 38.8516 38.9586 41.9403 40.5049 29.9375 30.659 31.5624 31.3021 33.4724 32.2087 23.7703 23.5946 25.1012 24.4385 25.5656 24.887 18.4946 17.6486 19.6252 18.6121 19.1071 18.633 13.8115 12.4156 14.7805 13.5477 13.2654 13.2705 10.1059 8.30193 10.9643 9.49662 8.64845 8.70642 7.18673 4.98878 7.74757 6.31445 4.85694 5.24584 4.93038 2.95512 5.51906 3.98988 2.44668 2.94439 3.57389 2.07928 3.84248 2.58926 1.83589 2.1592 2.30786 2.00523 2.731 1.86401 1.93052 1.75663 1.28033 1.48776 1.7601 1.38612 1.87322 1.67974 0.659971 0.856675 0.725679 0.772576 0.866165 0.678522 98.2378 184.244 60.0095 121.833 177.848 158.59 227.801 283.867 219.237 258.503 307.491 293.206 241.729 287.402 242.944 265.11 310.305 298.371 230.749 266.536 235.97 249.242 289.611 276.651 214.234 244.556 219.701 231.22 268.231 254.567 196.051 222.404 200.749 212.055 245.493 232.445 176.954 200.25 181.101 191.913 221.736 209.93 158.655 179.263 162.162 172.406 198.735 188.156 141.888 160.027 145.002 154.11 177.346 167.842 126.86 142.762 129.519 137.565 157.661 149.523 113.221 127.093 115.86 122.791 140.308 133.041 101.216 113.115 103.393 109.349 124.437 118.221 90.268 100.451 92.2918 97.3572 110.308 104.938 80.317 88.8207 82.2693 86.322 97.3244 92.7329 71.2693 78.3284 73.119 76.3389 85.6073 81.6785 63.122 68.6738 64.8034 67.1852 74.7097 71.5455 55.5871 59.7627 57.1756 58.8386 64.9875 62.3723 48.7163 51.6602 50.0958 51.245 55.8273 53.7331 42.5175 44.3178 43.9233 44.2689 47.7585 46.2174 36.8966 37.7001 38.1355 37.9698 40.2106 39.1457 31.8409 31.7749 33.004 32.3975 33.7614 33.0228 27.218 26.5726 28.4147 27.4438 27.6552 27.3598 23.3238 21.9358 24.2336 23.0153 22.6028 22.7198 19.659 18.0689 20.6189 19.1903 18.1941 18.4701 16.6345 14.8443 17.5636 15.9266 14.5147 15.0698 13.8361 11.9189 14.6854 13.1025 11.2943 11.9434 11.4939 9.69299 12.1644 10.6509 8.94117 9.64296 9.03112 7.5247 9.74675 8.31886 6.79611 7.57825 7.04086 5.64922 7.63431 6.3487 5.06684 5.77021 4.76952 3.90026 5.56387 4.44525 3.35182 3.88291 2.83695 2.02805 3.36939 2.6508 1.60092 2.09244 0.989199 1.33705 1.47757 1.11499 0.896082 1.27063 53.358 97.5106 25.7965 65.4719 86.6226 82.7632 158.784 178.707 152.625 164.609 179.819 174.297 179.435 191.118 183.462 183.814 201.657 194.193 167.508 180.492 172.432 173.682 195.357 186.488 151.194 164.783 154.976 158.439 181.189 171.777 136 149.396 139.032 143.662 165.422 156.168 122.298 135.071 124.87 130.106 149.779 141.179 110.217 121.929 112.425 117.565 134.893 127.181 99.6838 109.828 101.586 106.079 121.102 114.267 90.1999 99.115 91.9796 95.9363 108.851 102.918 82.0821 89.587 83.5822 86.9446 97.4405 92.6442 74.7921 81.059 76.3219 78.8952 87.7595 83.5099 68.4366 73.2257 69.8622 71.687 78.7082 75.3306 62.524 66.3197 63.9366 65.2763 70.8588 67.9339 57.2812 59.9512 58.6195 59.1188 63.3866 61.3338 52.3646 54.1258 53.7224 53.8496 56.9408 55.0524 47.972 48.804 49.1391 48.915 50.6809 49.6463 43.749 43.9037 44.9959 44.3256 45.2389 44.4507 39.968 39.4171 40.9716 40.0295 39.9773 39.9161 36.3311 35.4449 37.3359 36.2679 35.6784 35.6753 32.9807 31.6761 34.1637 32.553 31.5125 31.7039 29.7105 28.181 30.6719 29.2102 27.8069 28.0033 26.6624 25.1412 27.714 26.1313 24.2399 24.8892 23.8427 22.1243 24.6108 23.2764 21.2045 21.8141 20.9637 19.1832 21.8207 20.2652 18.3883 19.2305 17.9573 16.6591 19.1576 17.5429 15.8216 16.4059 15.3147 13.9157 16.2162 14.7789 13.2186 13.9256 12.3862 11.4684 13.541 12.1924 10.7174 11.1384 9.78974 8.88972 10.5911 9.50449 8.33183 8.91498 6.91598 6.25844 7.80444 7.00627 5.81233 6.16689 4.11128 3.74359 5.07432 4.15484 3.38189 3.82792 1.43625 1.72863 2.22773 1.61384 1.54613 1.57217 59.8469 79.6246 30.3453 59.668 61.2095 67.1136 166.86 152.64 160.655 153.552 143.625 149.499 190.258 165.848 194.168 173.301 162.441 165.774 176.645 155.377 181.974 163.181 154.711 155.985 156.803 140.612 161.389 146.962 141.13 141.17 139.187 126.998 142.958 131.881 127.448 126.991 124.882 114.992 127.863 119.09 115.061 114.476 112.916 104.468 115.622 107.944 104.078 103.732 102.902 95.415 105.359 98.5997 94.7492 94.6302 94.3404 87.3553 96.5101 90.4047 86.4032 86.3351 86.9943 80.5585 88.8324 83.2217 79.3016 79.5276 80.0118 74.4131 81.9468 76.9855 72.8476 73.3092 74.2862 68.7841 76.0287 71.2562 67.3148 67.8349 68.6022 63.6966 70.2639 66.1902 62.0776 62.6245 63.8257 59.0237 65.3114 61.3517 57.4227 58.1495 58.6509 54.7371 60.3148 56.5802 52.9347 53.8247 54.5538 50.6549 55.8545 52.5847 49.036 49.8668 50.148 46.7496 51.4089 48.5693 45.0753 45.9648 46.2788 43.2237 47.5221 44.7887 41.5487 42.454 42.4432 39.5556 43.5323 41.1531 38.0914 38.9225 38.8617 36.2531 39.9502 37.6779 34.8466 35.5916 35.0309 32.7995 36.1497 34.2354 31.6091 32.5396 31.6094 29.7175 32.7742 31.0322 28.4955 29.3166 27.9184 26.4611 29.2161 27.5697 25.448 26.2211 24.7411 23.4681 25.7339 24.3942 22.4686 23.1372 21.304 20.2067 22.2666 21.1385 19.4162 19.9564 18.1039 17.0741 18.9306 17.8485 16.4001 16.9935 14.5602 13.8029 15.4836 14.6952 13.2953 14.0256 11.4905 10.8044 12.4362 11.4434 10.4413 10.8635 8.00361 7.70291 9.16154 8.29466 7.62589 7.95652 5.20852 4.94164 5.97818 5.33981 4.78094 4.98437 1.59215 1.51321 2.65297 2.00194 1.68894 1.88024 105.411 115.423 71.9098 97.926 89.8148 100.071 229.966 198.965 220.622 207.186 181.851 192.652 257.138 216.128 258.827 233.784 203.263 213.902 242.699 203.84 247.972 222.094 191.789 201.579 219.04 185.063 224.675 201.198 173.086 182.012 196.645 167.118 201.988 180.84 155.267 163.446 177.43 151.234 182.195 163.446 140.104 147.498 161.186 137.687 165.219 148.362 127.01 133.875 146.603 125.775 150.546 135.411 115.961 122.094 133.824 115.159 137.38 123.851 106.23 111.638 122.188 105.632 125.646 113.421 97.5089 102.522 112.023 97.0791 114.689 103.982 89.8368 94.0807 102.496 89.2475 105.13 95.5407 82.9409 86.653 93.6205 81.9434 95.937 87.4562 76.2607 79.5532 85.4501 75.495 87.7015 80.3973 70.4609 73.469 77.777 69.0711 79.9591 73.3372 64.9038 67.3019 70.7901 63.4959 72.9606 67.1038 59.8463 61.9873 64.4128 57.9915 66.1535 61.2135 54.6827 56.5892 58.2265 52.9871 60.0952 55.5865 50.1982 51.8737 52.4558 48.0716 53.9515 50.4079 45.6845 47.0395 47.0519 43.617 48.5966 45.4507 41.6889 42.6565 42.0123 38.985 43.3811 40.6589 37.4799 38.2898 37.129 34.9285 38.5032 36.2673 33.6397 34.3434 32.4065 30.7291 33.7003 31.7719 29.7039 30.2607 27.9991 26.6812 29.4203 27.7256 26.0659 26.6607 23.7178 22.9211 25.0018 23.6586 22.3174 22.5446 19.6951 19.1339 20.9669 19.8506 18.9345 19.0747 15.9404 15.4131 16.8836 16.0497 15.1849 15.3495 12.142 11.9818 13.1715 12.474 12.0269 12.1078 8.85202 8.45238 9.51224 8.90508 8.4463 8.6476 5.37445 5.25743 6.23657 5.61922 5.40077 5.51253 2.25726 1.9862 2.7494 2.33888 1.89444 2.08745 186.224 183.785 151.512 170.449 150.351 163.313 324.023 285.058 310.945 297.48 262.035 273.935 347.36 303.587 347.668 325.575 285.698 298.081 329.45 286.523 335.77 308.831 270.34 283.008 301.32 261.448 308.642 281.483 245.713 257.921 273.533 237.168 280.544 255.122 221.901 233.316 248.603 215.423 254.997 231.68 200.914 211.591 226.113 196.055 232.038 210.729 182.62 192.188 205.852 178.616 211.067 191.888 166.292 174.951 187.254 162.774 192.09 174.795 151.674 159.313 170.196 148.185 174.569 159.212 138.043 145.097 154.426 134.907 158.691 144.673 125.788 132.138 140.199 122.558 143.916 131.321 114.688 120.015 126.573 111.143 130.047 119.056 104.364 109.095 114.313 100.729 117.386 107.698 94.6436 98.6924 102.675 91.1252 105.792 97.1254 85.9244 89.4938 92.1704 81.9951 94.9299 87.2874 77.5184 80.7244 82.0895 73.6071 84.8374 78.1599 69.9545 72.4675 73.1135 65.9711 75.5471 69.9216 62.8759 65.0078 64.499 58.5695 66.7445 61.9909 56.1558 57.9431 56.8333 52.0465 58.8249 54.8432 49.8802 51.2735 49.3998 45.6253 51.2836 48.1311 44.1068 45.2482 42.8836 39.8415 44.4741 41.8114 38.7056 39.5214 36.4856 34.222 38.2422 36.0309 33.6604 34.273 30.9839 29.2057 32.4319 30.5228 28.7099 29.1415 25.3565 24.4951 26.8602 25.4891 24.3071 24.7692 20.7219 19.9808 21.9701 20.8281 19.8065 20.1416 16.0817 15.9278 17.3827 16.4361 15.8319 16.1707 12.0407 11.9918 13.295 12.5012 12.0084 12.2684 8.17327 8.26983 9.2395 8.76186 8.64058 8.68379 4.9698 4.95882 5.78654 5.32773 5.0329 5.29497 2.07096 2.30519 2.67446 2.30803 2.37188 2.61287 330.986 287.454 300.866 298.912 245.009 261.282 434.232 393.01 419.767 410.068 365.385 377.115 443.33 401.812 447.302 425.307 381.309 394.019 420.042 377.67 428.941 400.555 360.084 373.574 388.498 346.539 397.469 368.167 330.154 343.494 356.43 316.634 364.872 336.654 300.784 313.476 325.886 288.84 333.935 307.58 273.951 285.532 297.438 263.172 304.56 280.559 249.44 260.131 270.695 239.637 277.799 255.552 227.03 236.723 246.102 217.882 252.362 232.314 206.349 215.012 222.882 197.736 229.074 210.848 187.267 194.918 201.785 178.903 207.148 190.777 169.514 176.578 181.814 161.493 186.909 172.108 153.476 159.415 163.516 145.347 168.238 154.919 138.117 143.506 146.238 130.373 150.715 138.961 124.222 128.905 130.669 116.531 134.668 124.182 111.291 115.307 115.871 103.968 119.615 110.45 99.3318 102.673 102.537 91.9926 105.916 97.7793 88.0732 91.0954 89.8773 81.2206 93.069 86.0533 77.9479 80.417 78.4324 70.9104 81.1813 75.317 68.3395 70.3824 67.6035 61.6915 70.3979 65.3139 59.7818 61.2636 58.0909 53 60.6085 56.1231 51.5088 52.7513 48.9175 45.2825 51.4112 47.6618 44.3819 45.1766 40.9591 37.9113 43.126 40.0107 37.3028 37.9246 33.4507 31.5013 35.3447 33.0667 31.1295 31.5874 26.9983 25.4754 28.6389 26.74 25.3391 25.6725 20.9548 20.3249 22.4859 21.1773 20.5521 20.5801 15.9198 15.6462 17.1465 16.1349 15.6245 15.7913 11.0921 11.3906 12.3595 11.6826 11.7073 11.4867 7.464 7.48476 8.43534 7.92924 7.71124 7.74897 3.96298 4.34511 4.95379 4.49264 4.67308 4.4705 2.02369 2.26867 2.3923 2.17995 2.2445 2.32657 613.075 458.037 593.815 548.011 407.422 424.36 534.6 504.266 569.194 517.95 476.038 485.946 527.645 495.932 544.077 515.577 474.737 488.23 507.82 468.195 518.705 489.261 449.81 464.102 477.54 434.608 488.021 456.676 417.521 431.672 442.511 400.367 452.862 422.179 384.249 397.634 406.589 366.877 416.939 387.641 351.607 363.978 371.861 335.133 381.71 354.428 321.144 332.376 338.685 305.15 348.083 322.755 292.307 302.658 307.378 277.064 316.507 293.074 265.554 274.77 278.196 250.924 286.58 265.343 240.318 248.675 251.149 226.249 258.891 239.481 217.173 224.51 225.909 203.501 232.944 215.317 195.303 202.015 202.189 182.453 209.136 192.993 175.375 181.122 180.382 162.822 186.648 172.294 156.592 161.599 160.239 144.634 166.059 153.134 139.493 143.91 141.421 127.75 146.859 135.27 123.248 126.97 124.206 112.287 129.232 118.99 108.741 111.803 108.384 98.0277 112.807 103.731 94.8706 97.6534 93.5943 84.8102 97.7986 89.7518 82.3471 84.7135 80.0407 72.7267 83.8722 76.7345 70.6757 72.4782 67.5565 61.5643 71.0265 65.0708 60.2424 61.5706 56.2432 51.3801 59.4034 54.2706 50.3974 51.5106 45.9493 42.1412 49.0035 44.4168 41.7605 42.4477 36.806 33.9224 39.3002 35.7899 33.5672 34.2628 28.5305 26.5885 31.0144 27.8974 26.7694 27.0563 21.451 20.1418 23.2624 21.0102 20.3668 20.3772 15.1411 14.5897 16.9553 15.1121 15.1016 15.1058 10.0516 9.84417 11.3284 10.1779 10.3928 10.2615 6.06291 6.01468 7.17793 6.2286 6.75883 6.6852 3.24273 3.29975 3.98126 3.29227 3.47762 3.5809 1.4205 1.45173 1.91897 1.4306 1.71213 1.59793 222.817 461.75 163.632 270.006 509.824 508.135 367.901 403.141 366.925 392.282 412.866 401.168 360.526 395.434 373.843 379.17 417.98 401.349 336.661 374.942 346.846 358.781 405.184 387.725 309.938 344.73 317.573 331.545 376.583 360.646 282.061 311.008 288.149 300.569 340.91 327.188 254.005 278.2 259.283 269.964 304.953 292.881 227.191 247.916 232.024 241.193 271.314 260.834 202.63 220.785 206.891 215.051 241.26 231.997 180.513 196.742 184.122 191.713 214.428 205.983 160.432 175.14 164.081 170.781 190.644 182.957 142.401 155.506 145.692 151.919 169.056 162.294 126.149 137.654 129.204 134.561 149.596 143.486 111.348 121.198 114.078 118.816 131.49 126.176 97.7173 106.081 100.44 104.176 115.137 110.623 85.2957 92.2273 87.7005 90.8463 100.184 96.1238 73.637 79.4519 76.1008 78.4697 86.3378 82.8821 63.3211 67.721 65.3596 67.1947 73.4521 70.6259 53.5833 56.9415 55.6288 56.8586 62.068 59.518 44.9627 47.3383 46.7031 47.399 51.1759 49.266 37.1497 38.4409 38.7598 39.0571 41.9 40.2965 30.0982 30.6732 31.4675 31.3854 33.1031 32.0037 23.9475 23.7389 25.1903 24.6176 25.7327 24.8608 18.5063 17.7552 19.6086 18.7792 18.9678 18.5706 14.0751 12.561 14.8618 13.7232 13.4327 13.2139 10.4587 8.47661 11.1332 9.70436 8.82497 8.7421 7.38783 5.33972 7.97242 6.55373 5.19659 5.4534 5.29156 3.17366 5.72881 4.24621 2.85716 3.30593 3.67443 2.44104 4.06318 2.87766 1.9637 2.16605 2.44697 2.056 2.94981 1.88105 2.35813 2.26898 1.41226 1.57483 1.79646 1.4564 1.78625 1.77737 0.840633 0.872792 0.859989 0.62595 0.885894 1.11851 104.675 188.228 77.2258 133.608 181.746 162.693 225.113 279.371 216.396 254.008 303.276 290.603 237.625 280.577 238.461 258.369 305.462 295.14 225.987 258 230.564 241.301 284.319 272.449 209.82 235.726 214.265 223.242 262.394 250.124 192.01 214.459 195.598 204.956 240.151 228.192 173.785 194.075 176.737 186.435 217.487 206.259 156.336 174.669 158.994 168.339 195.17 185.126 140.393 156.965 142.595 151.452 174.674 165.687 125.708 140.822 128.029 135.897 155.752 147.748 112.681 125.858 114.74 121.811 138.892 131.747 100.848 112.519 103.005 108.938 123.448 117.131 90.1609 100.132 92.0628 97.1906 109.541 104.199 80.322 88.7755 82.31 86.5583 96.7748 92.0945 71.4155 78.4573 73.1236 76.6777 85.2668 81.1929 63.2488 68.9056 65.1621 67.6046 74.5608 71.2448 55.8373 60.1326 57.4044 59.3211 64.7478 62.1292 49.0301 52.1078 50.6976 51.7955 55.7857 53.5988 42.887 44.8295 44.2254 44.9272 47.6879 46.0799 37.2845 38.3499 38.7024 38.7773 40.4467 39.0823 32.245 32.5535 33.3756 33.1312 33.8119 33.0688 27.8377 27.2565 29.0568 28.2699 28.0362 27.594 23.8156 22.9467 24.8358 23.9 22.9948 22.8502 20.2481 18.9086 21.473 19.9739 18.5402 18.6775 17.0528 15.5048 18.0251 16.5899 14.8599 15.1731 14.4773 12.5894 15.3359 13.72 11.777 12.3156 11.8207 10.1783 12.6389 11.2517 9.30658 9.92907 9.59424 8.01459 10.3933 8.87318 7.10123 7.82823 7.22769 6.25977 7.94847 6.86188 5.3223 5.70505 5.1037 4.0916 5.85491 4.79661 3.55163 4.09709 2.95453 2.48645 3.70882 2.84878 1.97259 2.23107 1.27614 1.64053 1.76364 1.09668 1.18674 1.50198 55.7429 98.6922 36.085 71.1906 90.2394 85.5928 155.446 171.633 148.135 157.415 174.711 171.765 175.333 182.985 177.704 175.339 196.024 190.589 163.842 172.808 167.093 166.433 190.203 182.67 148.58 158.988 151.096 153.197 176.85 168.469 134.315 145.501 136.38 140.296 162.199 153.578 121.788 132.969 123.766 128.491 147.498 139.34 110.401 121.163 112.231 117.412 133.5 126.039 100.353 110.382 102.323 107.031 120.463 113.804 91.4032 100.21 93.1705 97.498 108.662 102.738 83.2912 91.1227 85.1325 88.7296 97.8945 92.8698 76.2588 82.635 78.0594 80.9405 88.0414 83.8473 69.8897 75.2175 71.6956 73.8357 79.4016 75.8824 63.9679 68.0705 65.812 67.0662 71.4402 68.5774 58.6557 61.9178 60.2997 61.2974 64.2634 61.804 53.8283 55.9175 55.3736 55.7923 57.6666 55.8894 49.2775 50.6109 50.8379 50.7441 51.6205 50.1609 45.1356 45.4063 46.5152 46.1267 46.0382 45.0155 41.2733 41.2029 42.4197 41.8469 41.1601 40.5439 37.3457 36.9146 38.8503 37.7769 36.5262 36.2154 34.0355 33.3461 35.3216 34.1475 32.3726 32.2307 30.7666 29.4319 31.8984 30.5517 28.4601 28.7946 27.5638 26.4779 28.6356 27.2762 25.0828 25.5181 24.5104 23.1727 25.6753 24.1957 21.8231 22.3842 21.6925 20.3309 22.7386 21.1907 19.0023 19.6599 18.8024 17.3023 19.7058 18.2367 16.3343 16.7736 15.9714 14.9099 17.0019 15.5435 13.7309 14.241 12.9919 12.0454 13.9122 12.6552 11.1454 11.5894 10.0895 9.47754 11.1581 9.90195 8.61323 9.06139 7.32324 6.5972 8.29273 7.04942 6.03744 6.4686 4.49139 4.17171 5.40942 4.44775 3.54876 3.96402 1.71221 1.81976 2.49974 1.64332 1.63518 1.89852 57.2131 73.7098 27.2446 55.5363 58.504 65.9371 164.112 144.346 156.484 145.85 138.006 146.412 187.025 158.403 189.141 165.521 157.168 162.382 174.659 150.971 178.224 158.273 151.379 153.729 156.427 139.443 159.787 145.538 139.66 140.208 140.113 128.308 143.274 133.025 127.433 127.119 126.736 117.764 129.805 121.86 116.253 115.66 115.487 108.26 118.394 111.799 106.017 105.449 105.686 99.598 108.638 102.729 96.9842 96.3971 97.2118 91.8534 99.9977 94.5585 88.8834 88.446 89.37 84.8395 92.0771 87.5284 81.6815 81.3018 82.7071 78.3746 85.1607 80.8004 75.1821 75.0277 76.5105 72.7111 78.8926 75.0242 69.4184 69.5243 70.9837 67.162 73.1551 69.3288 64.0607 64.2623 65.5916 62.2988 67.6797 64.4755 59.3293 59.481 60.8896 57.7931 62.5284 59.7135 54.8353 55.0941 56.1315 53.5639 57.8877 55.2635 50.6801 51.0679 51.9445 49.2967 53.5253 50.9547 46.6391 47.1407 47.5753 45.4981 49.3273 47.0402 42.9683 43.4557 43.8392 41.7597 45.3878 43.0247 39.3665 39.9575 39.8976 38.2757 41.3479 39.4616 35.9474 36.4727 36.2018 34.576 37.6 35.7984 32.7349 33.1322 32.5659 31.1984 33.756 32.3985 29.4264 29.9309 29.1411 27.6936 30.2284 28.839 26.3383 26.7061 25.4797 24.6449 26.7534 25.4991 23.3087 23.5431 22.1789 21.2804 23.1661 21.8698 20.2192 20.4649 18.57 17.9963 19.7075 18.6912 17.0273 17.3296 15.2477 14.6147 16.3848 15.3396 13.9351 14.2231 11.7123 11.3967 12.8124 12.0315 10.8021 11.1639 8.61488 8.34815 9.62106 8.90959 7.86111 7.92554 5.31716 5.19821 6.30384 5.58982 4.85805 5.06608 2.03845 1.83972 3.02564 2.1303 1.9504 2.03029 104.568 113.476 72.9159 96.9878 87.1113 98.5331 229.232 195.237 219.433 204.479 178.631 191.348 255.549 211.864 256.383 229.499 200.109 212.082 241.767 201.645 246.084 219.353 190.159 200.737 219.346 185.769 224.307 200.981 173.454 182.394 198.14 169.98 203.046 183.05 157.257 165.046 179.767 155.337 184.494 166.914 142.9 149.743 163.593 142.388 168.169 152.674 130.26 136.433 149.396 130.592 153.731 139.772 119.271 124.736 136.707 119.68 140.64 128.226 109.518 114.308 124.848 110.224 128.661 117.697 100.606 104.948 114.238 101.027 117.758 107.718 92.8719 96.5274 104.602 93.073 107.913 98.9589 85.5064 88.7043 95.5107 85.375 98.5127 90.7066 78.895 81.7101 87.3189 78.7185 89.9257 83.2392 72.5342 75.2743 79.5339 71.9444 81.985 76.0142 66.9117 69.138 72.4971 66.2323 74.8491 69.5913 61.4338 63.2505 65.6518 60.2752 67.9282 63.3794 56.438 58.0539 59.5233 55.2444 61.6943 57.7935 51.6848 53.0766 53.4577 49.9241 55.4114 52.2119 47.1888 48.2757 48.0336 45.4185 50.011 47.1597 42.684 43.7222 42.7278 40.5301 44.4482 42.0202 38.7373 39.4361 38.0303 36.332 39.569 37.4924 34.4025 35.0295 33.0332 31.9175 34.6193 33.0126 30.5429 31.1681 28.6796 27.9972 30.093 28.6853 26.7316 27.0515 24.3722 23.7579 25.6849 24.634 23.072 23.4493 20.3286 20.0373 21.734 20.6242 19.1999 19.4122 16.2239 16.1317 17.5708 16.5939 15.6491 15.9727 12.4418 12.6417 13.709 12.9474 12.2584 12.3299 8.90141 8.93258 9.82411 9.20918 8.82461 8.92342 5.38154 5.74967 6.49395 5.89562 5.37378 5.58192 2.19711 2.18498 3.12044 2.49317 2.13763 2.41844 187.2 188.386 154.937 174.671 151.173 163.644 325.67 286.86 313.011 300.122 261.939 274.849 347.327 301.866 348.088 324.436 284.268 297.777 328.945 284.984 335.179 307.161 269.39 282.705 301.465 261.703 308.61 281.305 246.12 258.431 274.848 239.345 281.332 256.573 223.624 234.807 250.446 218.488 256.706 234.196 203.495 213.568 228.355 199.771 234.289 213.871 185.443 194.423 208.041 182.366 213.5 195.126 169.174 177.308 189.584 166.508 194.699 178.177 154.461 161.617 172.464 151.796 177.241 162.489 140.816 147.18 156.582 138.225 160.833 147.554 128.444 134.075 141.768 125.854 146.086 134.128 117.097 121.929 128.238 114.133 131.923 121.646 106.419 110.84 115.833 103.291 119.343 110.05 96.6818 100.415 104.253 93.4202 107.326 99.1461 87.6823 90.7198 93.2137 84.2456 96.487 89.2579 79.2279 81.843 83.4966 75.6218 86.0948 80.0055 71.4445 73.6223 74.0753 67.6447 76.9277 71.5177 64.1945 66.039 65.7987 60.2996 67.8394 63.425 57.5009 58.7956 57.5345 53.6085 59.9171 56.1827 51.2408 52.1852 50.3428 47.0476 52.3679 49.1987 45.2421 45.8284 43.3977 41.0764 45.4365 42.7247 39.6805 40.1402 37.2636 35.5573 38.9982 36.8308 34.4328 34.7719 31.3079 30.1964 33.1672 31.4178 29.3535 29.6971 26.1342 25.361 27.47 26.167 24.8095 25.1234 21.0284 20.7966 22.574 21.4599 20.5047 20.476 16.576 16.5915 17.7607 17.1557 16.4196 16.3774 12.3151 12.6138 13.5985 12.8793 12.4433 12.2956 8.52911 8.69564 9.67163 9.0184 8.87826 8.69911 5.05516 5.34237 6.09664 5.63617 5.38627 5.42003 2.3088 2.46729 2.79198 2.64655 2.50113 2.53153 332.258 296.545 302.118 304.068 248.318 263.147 438.258 399.705 425.651 416.98 368.048 380.011 444.89 402.338 450.717 427.08 381.332 395.06 420.486 376.315 429.769 399.977 359.425 373.535 388.912 346.29 397.725 367.717 330.267 343.933 357.332 317.777 365.561 337.564 301.999 314.467 327.301 291.031 335.18 309.339 275.824 287.106 299.146 265.967 306.618 283.187 251.726 261.847 272.733 242.6 279.646 258.059 229.256 238.46 247.943 220.721 254.629 234.94 208.744 217.033 224.925 200.291 231.019 213.173 189.535 196.827 203.356 181.44 209.086 193.122 171.7 178.188 183.367 163.954 188.7 174.294 155.114 160.975 164.895 147.459 169.959 156.915 139.946 145.025 147.603 132.388 152.156 140.732 125.717 130.184 131.704 118.282 135.957 125.716 112.648 116.557 116.954 105.419 120.861 111.846 100.581 103.742 103.424 93.2561 107.093 99.0795 89.2605 92.1235 90.779 82.3057 94.0266 87.2343 78.9627 81.1613 79.2289 71.9955 82.2605 76.3442 69.3866 71.1898 68.4348 62.6966 71.2245 66.076 60.5383 61.9963 58.6129 53.9022 61.2912 56.9795 52.4435 53.5577 49.6166 46.0904 51.9073 48.3842 44.8377 45.6096 41.3267 38.6928 43.6648 40.8018 38.0892 38.5437 33.9085 32.2738 35.8961 33.7454 31.662 31.9402 27.3172 26.1555 29.0994 27.3569 25.984 26.0882 21.2642 20.8586 22.8005 21.6936 20.5915 20.7346 16.1089 15.8639 17.4995 16.4738 16.0905 16.1338 11.4328 11.6763 12.5572 11.9044 11.8294 11.6819 7.53356 7.60645 8.68621 8.08765 7.97317 7.94948 4.14182 4.35783 4.9757 4.54202 4.6288 4.56623 2.07044 2.51125 2.5026 2.28523 2.38803 2.49217 611.524 467.49 587.622 549.879 410.77 426.178 542.222 514.951 578.701 530.021 481.735 491.395 531.525 499.244 550.452 520.985 476.696 490.346 509.088 467.985 520.909 490.629 450.037 464.815 478.253 434.607 489.05 457.086 417.871 432.252 443.452 401.124 453.952 423.046 384.952 398.254 407.877 368.747 418.219 389.209 353.35 365.447 373.252 337.331 383.481 356.3 322.968 333.84 340.395 307.568 349.941 324.936 294.419 304.203 309.216 279.413 318.256 295.35 267.289 276.294 279.866 253.12 288.373 267.481 242.338 250.454 252.541 228.446 260.747 241.401 218.716 225.897 227.076 205.51 234.643 217.362 196.987 203.314 203.579 184.244 210.445 194.582 176.67 182.256 181.549 164.349 188.036 173.767 157.835 162.743 161.344 145.977 167.136 154.358 140.543 144.887 142.527 128.964 148.008 136.462 124.245 127.945 125.097 113.373 130.026 119.871 109.529 112.577 109.091 98.905 113.626 104.804 95.6249 98.4115 94.2512 85.6704 98.4835 90.3896 82.9614 85.2411 80.5553 73.3634 84.483 77.6575 71.3783 73.119 68.2848 62.2073 71.5958 65.6599 60.6268 61.9762 56.6501 51.9828 59.9672 54.9388 50.8848 51.8288 46.3124 42.8527 49.2112 44.9715 41.9875 42.8337 37.109 34.2985 39.8168 36.2816 34.0371 34.4896 28.891 26.9478 31.0398 28.1763 26.9471 27.1943 21.3316 20.4334 23.6057 21.311 20.6468 20.632 15.3358 14.7737 17.0338 15.1653 15.1411 15.0614 9.96815 9.95072 11.6425 10.5166 10.5852 10.4924 6.0259 6.31107 7.27594 6.2872 6.62803 6.56607 3.15463 3.16733 3.87637 3.41076 3.51754 3.56602 1.45975 1.38983 1.63891 1.30724 1.58099 1.64127 235.159 460.734 199.153 295.843 491.935 486.412 359.713 405.123 359.942 387.752 416.635 405.745 350.248 380.62 363.122 362.43 414.093 400.072 324.348 353.99 333.04 338.213 394.493 379.242 297.652 323.799 302.346 311.658 363.506 349.287 270.509 293.269 273.683 283.847 328.636 316.105 244.492 264.2 247.099 256.661 294.443 283.219 219.96 237.915 222.588 231.609 263.209 253.334 197.433 213.804 200.162 208.574 235.014 226.206 176.723 191.985 179.693 187.339 210.024 202.084 158.069 171.822 160.772 167.983 187.358 179.966 140.879 153.282 143.664 149.922 166.729 160.188 125.215 135.937 128.023 133.393 147.701 141.843 110.599 120.228 113.385 117.932 130.474 125.098 97.2478 105.302 99.8542 103.887 114.287 109.701 84.991 91.7261 87.513 90.5042 99.4098 95.4794 73.5912 79.0391 75.897 78.3142 85.7477 82.2902 63.1436 67.6375 65.5068 67.2028 73.2145 70.3214 53.7598 57.0863 55.7174 57.0501 61.7062 59.2273 45.0985 47.5071 47.0736 47.7629 51.3499 49.3809 37.4937 38.6986 39.0656 39.425 41.8356 40.2912 30.4156 30.9588 31.9747 31.85 33.3652 32.3103 24.3889 24.0721 25.635 25.2958 25.7576 25.0014 19.1082 18.2256 20.2656 19.4603 19.3452 18.8209 14.5795 13.1399 15.5832 14.5882 13.7463 13.428 10.8249 8.99279 11.7685 10.4283 9.17568 9.25327 7.95868 5.67068 8.80048 7.16958 5.45283 5.7568 5.72457 3.49827 6.32823 4.81146 3.1439 3.56099 3.86443 2.64353 4.59987 3.28824 2.08968 2.38599 2.63007 2.24472 3.16982 2.34884 2.11689 2.21173 1.34685 1.5896 2.09954 1.5796 1.80449 1.80599 0.857952 1.21377 0.97032 1.03117 0.880731 1.12681 121.122 213.838 111.963 165.164 194.676 174.905 218.362 270.108 211.047 246.631 293.226 285.486 226.498 257.965 227.543 239.493 291.898 284.927 214.021 234.854 216.678 221.448 270.33 260.655 199.085 217.028 200.376 206.419 249.902 238.771 183.448 200.904 184.186 192.573 229.185 218.426 167.82 185.319 168.688 178.35 209.137 198.652 152.675 169.671 153.793 163.58 189.198 179.946 138.368 154.547 139.99 149.201 170.581 162.091 125.062 139.783 127.081 135.38 153.169 145.731 112.802 126.091 115.083 122.405 137.321 130.682 101.596 113.242 103.666 110.08 122.628 116.792 91.198 101.241 93.4704 98.9124 109.186 104.132 81.6305 90.0716 83.7773 88.2894 96.7178 92.3611 72.7509 79.8876 75.0194 78.5867 85.4582 81.6542 64.7899 70.3977 66.6722 69.5641 74.9634 71.6439 57.3262 61.661 59.3219 61.3194 65.387 62.64 50.5683 53.7486 52.3621 53.7545 56.4728 54.3902 44.3708 46.7476 46.2349 46.9309 48.4244 46.9324 38.7719 40.1314 40.3191 40.677 41.1984 40.0175 33.7872 34.2511 35.3663 35.125 34.676 34.0614 29.2165 29.0495 30.7114 30.1486 28.8523 28.6184 25.3079 24.4367 26.6508 25.7957 23.777 23.9406 21.5527 20.4299 22.8521 21.7804 19.4946 19.6494 18.3152 16.9652 19.5091 18.2909 15.6357 16.3227 15.375 13.7954 16.5511 15.2178 12.6249 13.1653 12.8296 11.2652 13.8472 12.526 9.99596 10.7394 10.1912 8.91604 11.2405 9.97229 7.78184 8.39649 7.80842 6.79775 8.7169 7.61094 5.7644 6.42914 5.41232 4.61075 6.29995 5.47429 3.88008 4.50328 3.30791 2.53612 4.05044 3.15012 2.06923 2.63958 1.2857 1.82129 1.80624 1.43735 1.24757 1.63839 60.2762 110.069 53.0704 84.6852 100.801 93.3375 144.757 157.265 136.455 142.289 164.109 164.556 162.577 163.388 162.614 156.44 183.112 179.798 153.727 156.445 154.409 151.443 178.195 172.256 142.253 148.857 142.388 144.017 167.714 160.408 131.617 141.056 132.175 136.385 156.215 148.357 121.948 132.524 122.94 128.451 144.317 136.683 112.439 123.298 114.153 119.865 132.497 125.43 103.427 113.937 105.622 111.202 120.988 114.664 95.1489 104.75 97.5941 102.423 110.033 104.413 87.249 95.8527 89.9189 94.1284 100.059 95.07 80.2349 87.6083 82.8745 86.2384 90.7266 86.3347 73.7749 79.8038 76.301 78.9402 82.0301 78.4173 67.6992 72.8011 70.0822 72.1291 74.1031 71.0191 62.2133 66.1207 64.5164 65.9694 66.89 64.3417 56.9779 60.0843 59.3226 60.1705 60.1975 58.2237 52.3932 54.4402 54.4466 54.9212 54.1919 52.473 47.8453 49.3457 49.8902 50.1016 48.5329 47.3397 43.8215 44.6921 45.6545 45.4538 43.4268 42.624 39.9241 40.2583 41.7975 41.2137 38.8179 38.2952 36.1599 36.0887 37.9727 37.1968 34.4942 34.3739 32.7558 32.4031 34.358 33.5347 30.5664 30.5033 29.3324 28.755 30.7638 29.777 26.9197 27.1594 26.2398 25.3882 27.6408 26.4265 23.5961 23.9763 22.9753 22.1074 24.2702 23.266 20.5475 21.0108 19.9298 19.2488 21.219 20.1709 17.6569 18.0035 16.7877 16.0172 18.1511 17.0071 14.786 15.2088 13.8226 13.2092 14.9698 13.8193 11.9953 12.3223 10.7175 10.2805 11.9075 10.9573 9.30723 9.70479 7.71899 7.36924 8.79406 7.90748 6.58141 6.82126 4.69163 4.38772 5.81466 4.88158 3.98292 4.41483 1.85006 1.865 2.68033 1.94276 1.78874 2.12603 49.5301 61.6072 18.4022 46.0939 52.6613 61.2085 154.27 126.18 144.486 127.774 124.725 136.321 176.907 144.358 176.106 150.286 145.355 152.305 168.537 144.356 169.662 150.441 144.085 147.195 155.24 139.447 157.155 144.71 136.892 138.036 142.662 132.78 145.549 137.007 128.494 128.4 131.52 124.782 134.796 128.662 119.721 118.99 121.285 116.349 124.908 119.917 110.904 110.054 111.899 108.032 115.508 111.238 102.448 101.71 103.096 100.241 106.811 103.288 94.81 93.7919 95.4554 92.613 98.7503 95.432 87.4863 86.8474 88.0621 85.9303 91.4328 88.36 80.6842 80.2026 81.8809 79.4306 84.6642 81.8025 74.6527 74.2728 75.4585 73.465 78.3792 75.9214 68.9864 68.6999 69.9954 68.0361 72.6299 70.1776 63.8657 63.8131 64.5854 62.9621 67.1064 65.1137 59.0252 58.9298 59.8119 58.1545 62.1964 59.9255 54.4651 54.5965 54.9896 53.7556 57.2384 55.5166 50.0843 50.3341 50.6403 49.4566 52.7626 50.9187 46.1989 46.4615 46.5026 45.4099 48.276 46.8724 42.4343 42.5979 42.2657 41.4803 44.1715 42.8351 38.8092 38.9181 38.2397 37.5774 39.9969 38.6959 34.9903 35.5526 34.5455 33.6933 36.1163 34.9008 31.6458 32.0991 30.6247 30.1215 32.2679 31.252 28.1237 28.5236 26.8877 26.4355 28.3217 27.368 24.7401 25.1812 23.066 22.8796 24.7909 23.7676 21.3133 21.7198 19.5813 19.323 21.0409 20.0702 18.1543 18.5292 15.9179 15.5489 17.2665 16.5796 14.8143 15.1782 12.5791 12.3426 13.7187 12.9023 11.7035 12.0662 8.95524 8.97165 10.2066 9.60782 8.38835 8.79481 5.70705 5.54743 6.7757 6.0534 5.23981 5.52567 2.07172 1.90464 3.11042 2.43153 1.95792 2.37572 105.394 112.74 82.1942 101.946 81.0882 94.7397 225.406 185.416 214.918 196.146 170.073 185.671 249.595 203.452 249.19 220.032 192.413 205.731 238.271 199.149 240.807 214.766 186.467 197.363 219.339 188.683 223.292 202.033 174.263 182.996 201.003 176.221 205.889 188.05 161.188 168.411 184.202 163.475 189.54 173.947 148.836 154.843 169.097 150.931 174.226 160.552 136.955 142.281 155.125 138.88 160.047 147.801 126.087 130.718 142.113 127.816 146.746 135.693 116.152 119.968 130.164 117.53 134.581 124.734 106.972 110.443 118.945 108.134 123.163 114.507 98.399 101.545 108.932 99.3895 112.655 105.017 90.8652 93.4532 99.6404 91.3904 103.077 96.5156 83.6719 85.9055 90.9522 83.9565 94.2569 88.4286 77.2486 79.0958 83.1083 77.024 85.9763 80.8352 71.0271 72.6786 75.4421 70.7377 78.3168 73.9784 65.3315 66.6594 68.5826 64.5756 71.1322 67.4777 59.8605 60.981 62.1062 58.9478 64.4524 61.2906 54.7495 55.7273 55.9115 53.4697 58.3599 55.6142 50.0966 50.5607 50.1963 48.3248 52.2176 50.074 45.3619 46.0344 44.8023 43.4876 46.9396 45.1756 40.807 41.2955 39.535 38.6315 41.5887 39.9376 36.6424 36.8719 34.7422 34.2278 36.5029 35.3048 32.439 32.6063 29.843 29.5853 31.8289 30.6846 28.3162 28.5097 25.5597 25.5218 27.2532 26.3594 24.4124 24.3801 21.2286 21.4726 22.8238 21.9898 20.3747 20.524 17.1618 17.3693 18.55 18.0268 16.6085 16.7237 13.0935 13.3622 14.563 14.0306 12.9241 13.059 9.40152 9.82296 10.6457 10.2355 9.43574 9.43291 5.81175 6.11354 6.90853 6.45254 5.87063 6.06193 2.48089 2.37507 3.26884 2.87748 2.45209 2.62907 194.209 206.454 172.601 195.549 154.606 167.205 327.05 285.465 316.635 300.911 259.662 275.194 344.739 295.206 346.747 318.522 279.436 294.571 326.358 282.017 331.757 302.681 266.73 280.337 301.235 263.114 307.105 281.111 246.652 258.643 276.551 243.749 282.798 259.787 226.777 237.333 253.695 224.724 260.121 239.372 208.146 217.409 232.371 206.419 238.734 219.718 190.963 199.251 212.248 189.23 218.561 201.502 174.759 181.811 193.761 172.768 199.43 184.078 159.885 166.254 176.335 157.657 181.814 167.804 145.909 151.517 160.125 143.67 165.235 152.651 133.151 138.137 145.258 130.644 149.862 138.723 121.302 125.772 131.335 118.707 135.676 125.837 110.513 114.216 118.67 107.617 122.435 113.868 100.275 103.562 106.457 97.2736 110.309 102.875 90.8425 93.666 95.6825 87.7698 99.1165 92.5387 82.249 84.542 85.3087 78.8805 88.6088 83.0861 74.1848 76.0777 76.2156 70.7065 79.1483 74.2336 66.6746 68.0879 67.2346 63.0387 69.9567 65.9199 59.6799 60.9526 59.3123 55.904 61.7808 58.3634 53.225 54.046 51.7697 49.2295 53.9388 51.3608 47.1406 47.7073 44.946 43.1294 47.0493 44.7904 41.3697 41.7031 38.1661 37.2203 40.2607 38.733 35.8261 36.1485 32.5014 31.868 34.263 32.9353 30.7266 30.9503 26.8381 26.7251 28.5353 27.6097 25.9157 26.069 21.8873 22.1084 23.4556 22.5873 21.6641 21.4881 17.1101 17.5281 18.6758 18.1375 17.2764 17.2336 12.9435 13.4949 14.1601 13.7522 13.1381 13.095 8.67922 9.34606 9.90911 9.59463 9.32177 9.41798 5.25092 5.50816 6.38916 5.83262 5.61161 5.66529 2.38095 2.61124 2.95493 2.85662 2.512 2.8154 338.93 328.931 314.432 330.701 257.8 271.569 445.484 404.381 438.77 425.744 371.053 385.787 445.814 396.737 454.803 424.396 378.911 394.273 418.762 372.011 427.956 395.691 356.798 371.612 388.279 346.016 396.011 366.389 330.16 343.352 358.322 320.387 365.825 339.047 303.878 315.916 329.798 295.215 337.361 312.67 279.137 289.854 302.234 270.952 309.778 287.303 255.651 265.36 275.777 247.681 283.221 262.492 233.484 242.04 251.205 225.613 258.163 239.313 212.828 220.424 228.007 204.837 234.424 217.42 193.346 200.267 206.224 185.53 212.229 196.822 175.345 181.341 185.991 167.735 191.627 177.596 158.58 163.986 167.196 151.049 172.371 160.131 142.842 147.446 149.781 135.404 154.612 143.64 128.753 132.54 133.68 121.338 137.948 128.233 115.008 118.499 118.673 107.96 122.833 114.29 102.997 105.789 104.929 95.9228 108.639 101.178 91.3353 93.6465 92.1453 84.5174 95.7173 89.1003 80.9759 82.867 80.4624 74.1121 83.5688 77.9351 71.1016 72.4747 69.5717 64.5311 72.4874 67.6816 62.2172 63.328 59.6901 55.6786 62.2544 58.3938 53.7202 54.4235 50.2701 47.5484 52.9953 49.9089 46.2018 46.7453 42.2708 40.196 44.3819 41.9983 39.1083 39.4297 34.6586 33.415 36.7387 34.8729 32.896 33.0049 28.1044 27.3488 29.6199 28.3371 26.8506 26.7197 21.825 21.8688 23.516 22.4409 21.62 21.5567 16.4923 16.8672 17.889 17.107 16.5954 16.4257 11.7002 12.3875 13.0513 12.5205 12.5408 12.2937 7.85813 8.26392 8.88623 8.46875 8.3338 8.08076 4.29416 4.72392 5.18532 4.92905 4.99486 4.89809 2.09052 2.5712 2.39756 2.3534 2.58181 2.58394 610.397 503.8 584.693 569.632 420.505 435.091 558.386 526.71 600.886 548.225 490.436 502.407 538.494 496.273 558.916 522.739 477.538 493.093 510.313 464.375 521.985 488.125 448.638 464.04 478.383 433.72 488.394 456.131 417.399 431.687 444.582 402.714 454.559 424.057 386.288 399.291 409.958 371.738 420.223 391.855 355.816 367.47 375.943 341.184 386.348 359.983 325.912 336.595 343.268 311.282 352.92 328.553 297.521 306.994 311.976 283.138 321.5 298.831 270.61 279.249 282.473 256.585 291.429 270.549 245.247 252.829 255.018 231.588 263.441 244.348 221.527 228.45 229.267 208.15 237.08 219.776 199.455 205.629 205.424 186.75 212.698 196.925 179.046 184.374 183.257 166.613 189.849 175.871 159.913 164.55 162.755 147.98 168.731 156.09 142.23 146.371 143.886 130.809 149.324 138.069 125.925 129.433 126.201 115.024 131.405 121.294 111.022 113.824 110.131 100.256 114.633 105.871 96.9333 99.3457 95.1095 86.844 99.3711 91.6036 84.3179 86.3669 81.4603 74.33 85.4135 78.5387 72.3436 73.9548 68.7715 63.2754 72.4781 66.4538 61.6851 62.8892 57.4028 52.7637 60.4879 55.5997 51.698 52.5408 46.7795 43.4806 49.908 45.6038 42.9331 43.4241 37.5369 35.0297 40.2329 36.7333 34.5139 34.8627 29 27.5346 31.5285 28.6678 27.6314 27.6528 21.8833 20.8859 23.9288 21.7977 20.9908 21.044 15.3112 15.3581 17.3598 15.7064 15.5285 15.4825 10.22 10.2794 11.6441 10.5526 10.7211 10.5224 5.87627 6.38927 7.13438 6.25581 6.98143 6.79728 3.01579 3.33096 3.76369 3.34431 3.58287 3.52854 1.36976 1.55094 1.64458 1.48018 1.81302 1.63059 268.629 547.932 302.103 433.317 463.237 478.941 336.709 336.429 342.851 319.604 401.15 403.201 317.013 301.274 324.843 285.987 384.072 376.75 293.089 292.685 289.713 281.778 363.013 351.389 271.987 282.964 265.887 274.549 336.173 324.143 251.69 268.46 247.214 261.186 307.483 296.002 231.173 250.469 229.784 244.117 279.08 268.324 211.538 230.819 212.006 225.123 252.406 242.551 192.155 210.568 194.343 205.583 227.9 218.962 173.827 190.757 176.775 186.396 205.322 197.206 156.502 171.49 159.668 168.007 184.232 176.719 140.256 153.389 143.571 150.616 164.644 158.098 125.081 136.555 128.277 134.212 146.424 140.356 111.048 120.67 113.983 119.116 129.463 124.201 97.7122 106.023 100.665 104.811 113.65 108.998 85.6496 92.4546 88.3889 91.9452 98.9849 95.0431 74.3728 79.9989 77.0805 79.7928 85.4619 82.0124 64.3482 68.589 66.5876 68.7556 73.0915 70.2282 54.8433 58.2002 57.047 58.5783 61.7706 59.3747 46.3608 48.5834 48.471 49.3616 51.3784 49.6012 38.5971 39.9621 40.5204 40.9507 42.1407 40.6311 31.9255 32.3785 33.442 33.5699 33.8624 32.6705 25.7663 25.5565 27.1938 26.8555 26.2829 25.4796 20.525 19.6167 21.8568 21.2301 19.8224 19.4228 15.919 14.7296 17.1574 16.272 14.3361 13.9952 12.1459 10.4337 13.2846 11.9977 9.58932 9.80367 9.1998 7.11681 9.99521 8.63533 5.90364 6.28046 6.70492 4.6417 7.40258 6.04811 3.38751 4.00861 4.8327 3.22327 5.474 4.12545 2.14079 2.66991 3.1928 2.05989 3.73517 2.38503 1.9527 2.18828 2.00389 1.5671 2.35744 1.62717 1.81173 1.78595 1.14338 0.843055 1.16737 0.670011 0.87251 1.05254 153.103 344.695 190.15 261.418 224.54 213.967 200.215 191.353 196.288 203.104 266.682 271.347 197.158 182.441 194.602 182.811 253.786 253.217 187.335 186.397 180.215 178.435 237.374 231.003 180.23 191.313 173.19 181.723 225.909 216.318 172.407 190.093 168.314 181.42 213.844 203.352 162.591 182.797 161.461 175.496 199.549 189.353 151.379 171.389 152.52 165.744 184.084 174.817 139.564 158.423 141.87 153.439 168.356 159.872 127.888 144.631 130.614 140.463 152.807 145.248 116.254 131.041 119.391 127.922 138.033 131.268 105.387 118.19 108.591 115.519 124.114 117.953 95.0959 105.767 98.1454 104.103 110.857 105.66 85.4882 94.7494 88.5111 93.4009 98.7991 94.1581 76.6551 84.273 79.3775 83.4794 87.3391 83.4557 68.6524 74.8785 71.1461 74.2849 77.1716 73.7023 61.1224 66.0734 63.4518 65.8998 67.3652 64.7309 54.2569 58.1628 56.6137 58.202 58.7154 56.469 47.8474 50.6925 50.1126 51.2839 50.6605 48.9895 42.2724 44.1495 44.3535 44.8981 43.4703 42.1628 36.989 38.098 38.8688 39.297 36.9891 36.1695 32.3114 32.8643 34.256 33.9219 31.1447 30.7344 28.1319 28.0021 29.7459 29.3197 26.0252 25.7976 24.3264 23.8394 25.8375 24.9057 21.567 21.5885 20.597 20.0112 22.165 21.3224 17.6649 17.879 17.6186 16.6918 18.9281 17.745 14.2036 14.775 14.3964 13.6997 15.813 14.7434 11.3882 11.9537 11.8369 10.9432 12.7389 11.7399 8.93732 9.46951 8.98081 8.22233 10.077 9.0147 6.79677 7.10752 6.53276 5.69553 7.36722 6.35599 4.56131 4.86077 3.7456 3.06505 4.73135 3.85072 2.59742 2.78962 1.73127 1.73609 2.32969 1.21341 1.37694 1.9368 70.4236 181.029 96.1525 133.111 126.037 117.707 118.92 90.8422 106.728 94.1187 139.384 145.993 135.864 115.978 130.478 118.049 153.519 153.522 136.296 132.321 131.061 129.518 155.073 151.318 134.801 141.725 131.71 136.838 154.431 147.921 131.711 144.025 131.084 139.274 150.72 143.195 126.532 140.403 127.965 136.647 144.229 136.527 119.653 133.255 122.571 130.497 135.667 128.169 111.849 124.558 115.284 122.283 125.859 119.309 103.873 115.022 107.506 113.465 115.894 109.968 95.9476 105.651 99.606 104.519 105.995 100.782 88.6405 96.6995 91.8675 96.0318 96.6817 92.1196 81.5328 88.5928 84.8347 88.2052 87.8386 84.0735 75.0368 80.7996 78.0514 80.5277 79.7456 76.5091 68.9041 73.7764 71.7049 74.0101 72.2805 69.5374 63.4382 67.2565 66.0582 67.6467 65.3277 63.1956 58.1991 61.4696 60.6861 61.7593 59.0154 57.1744 53.3797 55.5077 55.678 56.4548 53.173 51.8745 48.7247 50.5711 50.9391 51.5044 47.9706 46.8087 44.622 45.7291 46.6567 46.7511 42.9395 42.3824 40.4711 41.3393 42.4961 42.0847 38.3002 37.8637 36.565 36.825 38.3489 37.9417 34.1164 34.0655 32.7854 33.0583 34.4622 34.1289 30.2365 30.2533 29.2895 28.9486 30.7973 30.0787 26.5729 26.6941 25.6481 25.5636 27.2245 26.5452 23.1476 23.3555 22.1645 21.7366 23.6573 22.693 19.7925 20.1375 18.6461 18.5305 20.0443 19.2044 16.6086 17.03 15.3989 15.0546 16.6676 15.6987 13.554 13.9545 12.0192 11.5843 13.243 12.3499 10.4798 10.7677 8.72239 8.24205 9.8763 8.93399 7.51814 7.82599 5.5042 5.35923 6.62483 5.76343 4.55055 4.96637 2.12589 2.16474 3.2505 2.26559 1.98193 2.41315 36.3302 54.9495 33.9391 50.6791 49.7011 55.4481 132.207 91.5294 117.265 91.6032 97.2844 112.916 159.211 128.897 153.94 132.43 125.257 133.691 161.484 143.767 160.818 148.259 134.848 138.72 156.911 147.737 159.229 151.866 136.918 137.901 149.828 145.562 153.842 149.07 134.419 133.808 141.35 139.525 146.221 142.844 128.696 127.265 132.307 131.371 137.333 134.502 121.39 119.677 123.023 122.687 128.168 125.551 113.575 111.662 114.06 113.844 118.889 116.545 105.453 103.73 105.304 105.357 110.018 108.052 97.5913 96.0202 97.6233 97.2958 101.693 99.7052 90.4624 88.9626 89.9765 90.0733 94.067 92.443 83.4901 82.1266 83.4794 83.2303 86.9484 85.4221 77.2169 76.1676 77.0055 77.1215 80.4412 79.002 71.2431 70.4179 71.3394 71.3577 74.4546 73.0937 66.0383 65.1607 65.6043 65.8969 68.6492 67.6016 60.7189 60.1899 60.6892 60.6856 63.3177 62.3032 56.2302 55.6162 55.6354 55.8607 58.0411 57.3317 51.6143 51.106 51.0486 51.0733 53.273 52.4158 47.3926 47.0284 46.3496 46.6785 48.5619 47.8125 43.165 42.8736 42.0497 42.2498 44.2583 43.4567 39.0696 38.8284 37.6421 37.9411 39.8506 39.1151 35.1013 34.9382 33.6601 33.8038 35.3616 34.8475 31.4961 31.2971 29.329 29.7884 31.1582 30.704 27.5159 27.4262 25.6034 25.5812 27.233 26.5 23.9336 23.8718 21.5053 21.5992 23.0667 22.4478 20.1535 20.1591 17.6895 17.8084 19.1084 18.4008 16.6095 16.3589 13.7266 13.8677 15.1488 14.6527 12.8891 12.9243 10.1413 10.2614 11.4808 10.8329 9.55133 9.58722 6.17349 6.77301 7.75734 7.18737 6.06953 5.95346 2.55836 2.21844 3.72266 3.01067 2.23053 2.58912 116.51 118.774 117.615 135.475 72.9363 91.0617 214.006 163.824 205.194 177.341 153.185 171.996 238.414 197.035 236.025 209.572 181.138 194.618 233.971 204.488 235.765 215.618 184.687 194.461 221.862 199.752 226.201 209.976 179.469 186.865 207.726 189.938 213.624 199.439 170.41 176.185 192.879 177.88 199.298 186.573 159.82 164.482 178.412 165.165 184.918 173.27 148.648 152.525 164.337 152.378 170.544 159.88 137.302 140.592 150.753 140.306 156.627 147.088 126.981 129.721 138.248 129.007 143.719 135.036 116.852 119.356 126.679 118.581 131.725 124.251 107.81 109.852 115.995 109.087 120.528 113.913 99.1993 100.893 106.053 99.9888 110.378 104.384 91.3743 92.9586 96.9467 91.959 100.995 95.6776 84.1811 85.3059 88.5739 84.3418 92.2357 87.6675 77.5992 78.3999 80.5984 77.5463 83.8871 80.1583 71.2035 71.9879 73.1671 70.7376 76.3516 73.1844 65.4175 65.9543 66.3243 64.5817 69.1494 66.5141 59.8071 60.1427 59.8052 58.5417 62.7302 60.235 54.4932 54.7691 53.8602 53.2661 56.2668 54.5111 49.446 49.6204 48.1016 47.6109 50.4747 48.8587 44.6761 44.5857 42.6277 42.4891 44.7417 43.3905 39.7214 39.7653 37.4091 37.6385 39.5957 38.4025 35.3775 35.1825 32.3694 32.83 34.2698 33.4885 30.8031 30.7359 27.7229 27.9725 29.6337 28.647 26.6086 26.4428 23.1041 23.5239 24.8081 24.1384 22.2714 22.1978 18.7628 19.0837 20.3075 19.6361 18.489 18.2674 14.4858 14.9719 15.9373 15.315 14.253 14.2039 10.388 10.9545 11.8525 11.174 10.4955 10.5584 6.65575 7.25137 7.85724 7.35444 6.69316 6.63112 2.71084 2.72167 3.93271 2.98614 2.70076 2.94863 221.496 257.026 232.078 266.353 166.143 183.099 323.354 257.899 322.191 288.482 250.837 270.459 336.232 284.907 338.302 306.001 270.738 286.278 321.73 283.879 325.302 299.433 264.452 277.118 301.588 271.2 306.892 284.767 250.295 260.921 280.587 254.239 287.353 267.124 234.054 243.165 259.712 236.226 267.177 248.542 216.994 224.865 239.218 218.142 246.741 229.495 200.214 207.141 219.447 200.074 226.684 210.663 183.944 190.067 200.398 182.973 207.331 192.773 168.241 173.602 182.638 167.089 189.017 175.934 153.921 158.614 165.812 152.299 171.762 159.939 140.455 144.551 150.575 138.541 156.045 145.567 128.027 131.6 136.429 125.799 141.288 131.973 116.535 119.65 122.958 114.181 127.641 119.637 105.94 108.327 110.827 103.354 115.169 108.111 96.0455 98.275 99.5005 93.4158 103.572 97.5544 87.0812 88.7281 89.0227 84.0215 92.5732 87.568 78.5576 79.8581 79.2065 75.5238 82.6687 78.5422 70.7459 71.7471 70.3015 67.5557 73.5109 69.9685 63.5053 64.1709 61.9726 60.0403 64.8552 62.0721 56.6008 56.9768 54.3492 53.1929 56.9918 54.7194 50.2538 50.3413 47.0558 46.6764 49.6688 48.0135 44.0472 44.1938 40.5352 40.3527 42.8788 41.3921 38.389 38.2996 34.2611 34.8576 36.5616 35.5422 33.0982 32.8266 28.7679 29.4124 30.6612 29.8686 27.9432 27.7836 23.3391 24.2862 25.197 24.8231 23.2175 22.974 18.6941 19.4113 20.1802 19.9153 18.7993 18.3874 13.8319 14.8153 15.5061 15.2374 14.345 14.0717 9.75919 10.4904 11.2145 10.7088 10.095 9.96491 5.57572 6.43793 7.01312 6.61643 6.25674 6.11384 2.5696 2.9004 3.28711 2.92294 2.81829 3.02837 367.765 416.009 378.745 430.283 283.362 301.343 448.414 368.985 462.015 416.977 367.296 387.385 439.54 380.68 448.259 406.783 370.486 387.26 413.387 369.568 418.829 387.092 352.779 367.015 386.944 350.097 392.981 365.986 331.022 343.555 360.713 327.702 368.128 343.374 308.264 319.167 333.654 304.159 342.127 319.104 285.365 295.078 307.358 280.009 315.73 294.449 262.535 271.162 281.091 256.305 289.444 269.549 240.528 248.246 256.094 233.609 264.142 245.808 219.341 226.077 232.548 212.326 239.977 223.436 199.483 205.551 210.579 192.538 217.271 202.336 180.863 186.226 189.967 173.66 196.281 182.787 163.656 168.239 170.752 156.719 176.632 164.799 147.677 151.799 152.931 140.788 158.479 147.564 132.785 136.327 136.309 126.06 141.437 131.967 119.06 122.182 121.271 112.52 125.989 117.692 106.369 108.85 107.09 99.7518 111.462 104.094 94.627 96.7777 94.372 88.3937 98.2666 92.2669 83.8612 85.4194 82.2917 77.4983 85.9406 80.5716 73.7892 75.0907 71.3446 67.9244 74.6763 70.3712 64.6469 65.5616 61.2205 58.7327 64.3922 60.5951 56.1526 56.8052 52.0997 50.599 54.9362 52.0257 48.3049 48.5178 43.6074 42.7346 46.1897 43.9561 41.1696 41.3616 35.9166 36.0088 38.3546 36.8192 34.5594 34.4838 29.043 29.6439 31.251 29.8983 28.6523 28.3542 22.9617 23.9484 24.9919 24.1295 23.1815 22.7235 17.3795 18.4793 19.1214 18.689 18.0952 17.7589 12.5219 13.9432 14.1435 13.8971 13.4972 13.0925 8.28424 9.18188 9.63457 9.16513 9.30701 9.01477 4.54552 5.44396 5.60511 5.42572 5.33491 5.21255 2.17407 2.69662 2.65821 2.2183 2.64413 2.82614 622.733 624.461 633.224 687.233 446.93 466.176 575.502 484.69 625.015 525.372 491.115 510.292 537.815 473.495 552.726 499.503 469.851 487.955 506.784 457.244 513.301 477.893 443.455 459.233 477.528 434.846 485.166 454.548 416.656 430.677 446.211 407.564 455.831 427.027 388.908 401.23 413.405 378.416 423.765 396.503 360.141 371.14 380.192 348.328 390.899 365.096 331.266 341.242 347.467 317.971 358.046 333.731 302.703 311.554 316.205 289.481 326.07 303.752 275.702 283.511 286.367 262.418 295.692 275.291 249.846 257.111 258.401 236.82 267.189 248.26 225.683 232.079 232.287 212.995 240.488 223.196 203.242 208.89 208.186 190.867 215.607 199.823 182.277 187.154 185.665 170.434 192.627 178.547 162.918 167.273 164.86 151.475 171.136 158.738 144.869 148.58 145.624 133.824 151.506 140.125 128.418 131.622 127.902 117.731 133.123 123.278 112.879 115.627 111.546 102.914 116.367 107.495 98.9617 101.084 96.394 89.3055 100.768 93.2354 85.8413 87.6885 82.5381 76.7197 86.5965 79.9529 73.97 75.349 69.776 65.2037 73.4774 67.7487 62.938 63.9577 58.1573 54.6879 61.7096 56.775 53.1617 53.6398 47.5836 45.326 50.7713 46.6689 43.8733 44.4133 38.1752 36.8493 41.1655 37.7888 35.9041 35.8719 29.6709 29.2204 32.2848 29.8787 28.5404 28.4946 22.373 22.5766 24.7157 22.7096 22.1567 21.8788 15.8967 16.623 17.8969 16.4761 16.4179 16.064 10.5096 11.6997 12.2778 11.2719 11.4625 10.999 6.15823 7.47107 7.38337 6.86049 7.29739 7.00031 3.16749 3.72686 4.03207 3.68033 4.00306 3.807 1.47047 1.67044 1.75055 1.50639 1.88335 1.5648 
SCALARS volume float 1
LOOKUP_TABLE default
0.00803177 0.00805517 0.00801504 0.00800059 0.00804077 0.00807182 0.00810404 0.00807593 0.00807928 0.00807304 0.00808019 0.0081043 0.00810815 0.0080886 0.00809742 0.00809439 0.00809098 0.00810811 0.00810628 0.00809532 0.00810025 0.00809951 0.00809574 0.00810704 0.00810629 0.00809945 0.00810247 0.00810229 0.00809945 0.00810643 0.0081077 0.00810288 0.00810542 0.00810491 0.00810299 0.00810729 0.00810989 0.00810598 0.00810865 0.00810766 0.00810636 0.00810899 0.00811222 0.00810905 0.00811176 0.00811041 0.00810956 0.00811135 0.00811471 0.00811193 0.0081146 0.00811317 0.00811249 0.00811372 0.00811702 0.00811464 0.00811717 0.00811575 0.00811523 0.00811627 0.00811932 0.00811715 0.00811951 0.00811825 0.00811776 0.00811855 0.00812141 0.00811951 0.00812167 0.00812048 0.00812013 0.00812082 0.00812341 0.00812163 0.00812361 0.00812259 0.00812224 0.00812279 0.00812515 0.00812371 0.00812543 0.00812447 0.00812424 0.00812475 0.00812685 0.00812551 0.00812703 0.00812625 0.00812599 0.00812638 0.00812833 0.00812717 0.00812856 0.0081278 0.0081277 0.00812806 0.00812975 0.00812871 0.00812993 0.00812931 0.0081292 0.00812938 0.0081309 0.00813011 0.00813122 0.00813057 0.00813055 0.00813071 0.00813209 0.00813136 0.00813227 0.00813179 0.00813178 0.00813186 0.00813305 0.00813252 0.00813334 0.00813286 0.00813289 0.00813296 0.008134 0.00813353 0.00813419 0.00813386 0.00813392 0.00813385 0.00813475 0.00813446 0.00813502 0.00813465 0.00813481 0.00813476 0.0081355 0.00813524 0.00813567 0.00813546 0.00813553 0.00813539 0.00813603 0.00813595 0.0081363 0.00813605 0.00813623 0.00813614 0.0081366 0.00813655 0.00813679 0.00813665 0.00813677 0.00813655 0.00813702 0.00813707 0.00813726 0.00813711 0.0081373 0.00813712 0.0081374 0.00813743 0.00813758 0.0081375 0.00813767 0.00813736 0.00813769 0.00813778 0.00813792 0.00813777 0.00813803 0.00813784 0.00813791 0.008138 0.00813807 0.00813806 0.00813815 0.00813784 0.00813795 0.00813819 0.00813823 0.00813816 0.00813825 0.00813808 0.00813803 0.0081382 0.00813824 0.00813821 0.00813823 0.00813807 0.00813799 0.00813815 0.00813818 0.00813813 0.00813813 0.00813815 0.008075 0.00808365 0.00805766 0.00806443 0.0080507 0.00810007 0.00811958 0.00809914 0.00809237 0.00809035 0.00809531 0.00812164 0.00812108 0.00810984 0.0081091 0.00810844 0.00810476 0.00812098 0.00811884 0.00811137 0.00811344 0.00811234 0.00810749 0.00811788 0.00811768 0.00811183 0.00811499 0.00811374 0.0081097 0.00811651 0.00811783 0.00811298 0.00811623 0.0081152 0.00811225 0.00811672 0.00811883 0.00811451 0.00811795 0.00811696 0.00811477 0.00811772 0.00812029 0.00811647 0.00811979 0.00811884 0.00811726 0.00811923 0.00812188 0.00811839 0.00812179 0.00812071 0.00811948 0.00812089 0.00812351 0.00812046 0.0081236 0.00812258 0.00812159 0.00812262 0.00812511 0.00812228 0.00812541 0.00812431 0.0081235 0.00812429 0.00812665 0.00812416 0.00812693 0.00812595 0.00812525 0.00812588 0.00812802 0.00812573 0.00812841 0.00812744 0.00812683 0.00812734 0.00812933 0.00812736 0.00812966 0.00812881 0.00812831 0.00812871 0.00813047 0.00812868 0.00813091 0.00813004 0.00812962 0.00812994 0.00813157 0.00813003 0.00813192 0.00813118 0.00813085 0.00813106 0.00813252 0.00813115 0.00813294 0.0081322 0.00813192 0.00813207 0.00813338 0.0081323 0.00813375 0.00813314 0.00813295 0.00813304 0.00813415 0.00813316 0.00813457 0.00813397 0.00813379 0.00813384 0.00813489 0.00813408 0.00813521 0.00813472 0.00813458 0.00813456 0.00813548 0.00813476 0.00813588 0.00813537 0.0081353 0.0081353 0.00813602 0.00813551 0.00813632 0.00813593 0.00813595 0.00813583 0.00813646 0.00813599 0.00813681 0.00813644 0.00813644 0.00813632 0.00813693 0.00813658 0.00813717 0.00813688 0.00813696 0.00813678 0.00813724 0.00813693 0.00813756 0.00813726 0.00813731 0.00813709 0.00813756 0.00813737 0.0081378 0.00813758 0.00813759 0.00813747 0.00813772 0.00813755 0.00813801 0.00813778 0.00813788 0.00813762 0.00813795 0.00813791 0.00813815 0.00813796 0.00813813 0.00813787 0.00813801 0.00813795 0.0081383 0.00813811 0.00813809 0.00813785 0.00813809 0.00813813 0.00813827 0.00813819 0.00813816 0.00813801 0.00813811 0.00813812 0.00813836 0.00813823 0.00813815 0.00813808 0.00813811 0.00813821 0.0081383 0.00813813 0.0081382 0.00813814 0.00810833 0.00810644 0.00810263 0.00810043 0.00808994 0.00811621 0.00812944 0.00811741 0.00811637 0.00811227 0.00810942 0.00812989 0.00812987 0.00812194 0.00812263 0.00812144 0.00811612 0.00812939 0.00812823 0.00812243 0.00812483 0.00812346 0.00811876 0.00812704 0.00812727 0.00812221 0.00812561 0.00812382 0.0081203 0.00812596 0.00812711 0.00812248 0.00812613 0.00812466 0.00812185 0.00812583 0.00812756 0.00812321 0.00812695 0.00812568 0.00812341 0.00812631 0.00812829 0.00812424 0.00812795 0.00812694 0.00812501 0.00812717 0.00812921 0.00812549 0.00812911 0.0081281 0.0081265 0.00812814 0.0081301 0.00812678 0.00813023 0.00812937 0.0081279 0.0081292 0.00813107 0.00812804 0.00813133 0.00813045 0.00812923 0.00813019 0.00813195 0.00812922 0.00813228 0.00813148 0.00813038 0.00813117 0.00813277 0.00813035 0.00813319 0.00813235 0.00813143 0.00813206 0.00813353 0.00813136 0.00813396 0.00813324 0.00813236 0.0081329 0.00813421 0.0081323 0.00813464 0.00813394 0.00813324 0.00813364 0.00813482 0.00813316 0.00813528 0.00813466 0.00813402 0.00813433 0.00813537 0.00813392 0.00813584 0.00813525 0.00813473 0.00813492 0.00813581 0.00813462 0.00813631 0.0081358 0.00813532 0.00813545 0.00813626 0.00813519 0.00813672 0.00813625 0.00813589 0.00813592 0.00813662 0.00813575 0.00813712 0.0081367 0.00813633 0.00813637 0.00813698 0.00813623 0.0081374 0.00813702 0.00813683 0.00813674 0.00813719 0.00813663 0.00813768 0.00813734 0.00813709 0.00813708 0.00813748 0.008137 0.00813789 0.00813758 0.00813744 0.00813731 0.00813765 0.0081373 0.00813805 0.00813784 0.00813765 0.00813759 0.00813783 0.00813755 0.00813816 0.00813797 0.00813794 0.00813773 0.00813793 0.00813776 0.00813831 0.00813816 0.00813804 0.00813793 0.008138 0.00813786 0.00813835 0.00813816 0.0081382 0.00813794 0.00813809 0.00813799 0.0081384 0.00813825 0.00813823 0.0081381 0.0081381 0.00813808 0.0081384 0.00813833 0.00813818 0.00813801 0.0081381 0.00813809 0.00813838 0.00813828 0.00813823 0.00813811 0.00813807 0.00813815 0.00813833 0.00813826 0.00813824 0.00813808 0.00813806 0.00813815 0.00813825 0.00813819 0.00813819 0.00813809 0.00813487 0.00812765 0.00814399 0.00813289 0.00812174 0.00813105 0.00813831 0.0081319 0.00813769 0.00813068 0.00812599 0.0081368 0.00813777 0.00813264 0.00813632 0.00813263 0.00812825 0.00813668 0.00813677 0.00813198 0.00813592 0.0081333 0.00812947 0.00813556 0.00813617 0.00813144 0.00813544 0.00813354 0.00813033 0.00813486 0.00813604 0.0081314 0.00813537 0.00813375 0.0081311 0.00813464 0.00813605 0.0081316 0.0081356 0.00813423 0.00813193 0.00813466 0.00813629 0.00813213 0.00813596 0.00813473 0.00813279 0.00813497 0.00813649 0.00813268 0.00813645 0.00813535 0.00813357 0.00813529 0.00813686 0.0081334 0.00813686 0.0081359 0.00813432 0.00813573 0.0081371 0.00813392 0.0081373 0.0081364 0.00813499 0.0081361 0.00813744 0.00813461 0.00813769 0.00813683 0.0081356 0.00813651 0.00813762 0.00813509 0.00813799 0.00813726 0.00813611 0.00813683 0.00813794 0.00813569 0.00813826 0.00813752 0.00813657 0.00813718 0.00813802 0.00813602 0.00813845 0.00813779 0.00813694 0.00813739 0.00813828 0.00813651 0.00813865 0.00813802 0.0081373 0.00813767 0.00813832 0.0081368 0.00813876 0.00813827 0.00813758 0.00813783 0.00813849 0.00813719 0.00813888 0.00813837 0.00813785 0.00813804 0.00813848 0.00813736 0.00813892 0.00813854 0.00813805 0.00813812 0.00813861 0.00813766 0.00813897 0.0081386 0.00813822 0.00813824 0.00813854 0.00813774 0.00813897 0.00813865 0.00813835 0.00813834 0.00813866 0.00813802 0.00813898 0.00813869 0.00813846 0.00813841 0.00813852 0.00813804 0.00813891 0.00813869 0.00813848 0.00813843 0.0081386 0.0081382 0.00813885 0.00813873 0.00813855 0.00813849 0.00813846 0.00813816 0.00813879 0.0081387 0.00813855 0.00813845 0.00813854 0.00813835 0.00813878 0.00813866 0.00813859 0.00813845 0.0081384 0.00813821 0.00813864 0.00813856 0.00813854 0.00813838 0.00813844 0.00813835 0.00813861 0.00813856 0.00813855 0.00813842 0.00813827 0.00813818 0.00813846 0.00813847 0.00813838 0.00813818 0.00813826 0.00813824 0.00813836 0.00813834 0.00813835 0.00813823 0.00813809 0.00813812 0.00813826 0.00813829 0.00813826 0.00813814 0.00813814 0.00813811 0.0081381 0.00813804 0.00813824 0.00813813 0.00815556 0.00814756 0.0081835 0.00816431 0.00814669 0.00814427 0.00814674 0.00814415 0.00815656 0.00814746 0.00814159 0.00814395 0.00814537 0.00814226 0.00814882 0.00814348 0.0081399 0.00814411 0.00814496 0.00814094 0.00814599 0.00814299 0.00813979 0.00814371 0.00814468 0.00814027 0.00814485 0.00814263 0.00813962 0.00814344 0.00814448 0.00813998 0.00814421 0.00814259 0.00813988 0.00814296 0.00814418 0.00813986 0.00814389 0.00814242 0.00814008 0.00814264 0.00814386 0.00813981 0.00814378 0.00814248 0.0081403 0.00814249 0.00814363 0.00813989 0.00814357 0.00814239 0.00814046 0.00814221 0.0081433 0.00813989 0.00814348 0.00814243 0.00814059 0.00814213 0.00814306 0.00813999 0.00814325 0.00814231 0.00814068 0.00814187 0.00814272 0.00813995 0.00814309 0.00814226 0.00814072 0.00814177 0.0081425 0.00814002 0.0081428 0.00814205 0.00814073 0.0081415 0.0081421 0.00813996 0.00814264 0.00814196 0.00814071 0.0081414 0.00814189 0.00813998 0.00814228 0.00814167 0.00814062 0.00814114 0.00814158 0.00813986 0.00814206 0.00814156 0.00814053 0.00814101 0.00814132 0.00813986 0.00814173 0.00814127 0.00814041 0.00814073 0.00814097 0.00813972 0.00814153 0.0081411 0.00814028 0.0081406 0.00814073 0.00813968 0.00814114 0.0081408 0.00814018 0.00814029 0.0081404 0.00813951 0.00814099 0.00814067 0.00814001 0.00814015 0.00814018 0.0081395 0.00814057 0.00814035 0.00813992 0.00813992 0.00813988 0.00813931 0.00814035 0.00814018 0.00813971 0.00813981 0.00813968 0.00813925 0.00813999 0.00813988 0.00813956 0.0081395 0.0081394 0.00813904 0.00813981 0.00813977 0.00813938 0.0081394 0.00813919 0.00813898 0.00813946 0.00813943 0.00813921 0.00813907 0.00813899 0.00813879 0.00813931 0.00813929 0.00813906 0.00813904 0.00813877 0.00813873 0.008139 0.00813902 0.00813891 0.00813874 0.00813858 0.00813854 0.00813889 0.00813894 0.00813871 0.00813871 0.00813844 0.00813847 0.00813857 0.00813863 0.00813857 0.0081384 0.00813823 0.00813832 0.00813847 0.00813858 0.00813834 0.00813837 0.00813815 0.00813826 0.0081382 0.00813826 0.00813826 0.00813809 0.00813803 0.00813802 0.00813804 0.00813807 0.00813805 0.00813803 0.00817112 0.00816653 0.00822464 0.00819709 0.00816641 0.00815601 0.00815506 0.008155 0.00817331 0.00816316 0.00815561 0.00815172 0.00815326 0.00815116 0.00815956 0.00815409 0.00815104 0.00815188 0.0081534 0.00814967 0.0081553 0.00815224 0.00814952 0.0081519 0.00815322 0.00814875 0.00815366 0.00815163 0.00814882 0.00815157 0.00815279 0.00814829 0.00815296 0.0081509 0.00814832 0.00815099 0.00815212 0.00814775 0.00815211 0.0081504 0.00814797 0.00815037 0.00815142 0.00814726 0.00815139 0.0081498 0.00814765 0.00814973 0.00815052 0.00814674 0.0081507 0.0081493 0.00814719 0.00814899 0.00814977 0.00814631 0.00814993 0.00814866 0.00814678 0.00814831 0.00814883 0.00814574 0.00814919 0.00814812 0.00814627 0.00814756 0.00814809 0.00814527 0.00814839 0.00814746 0.00814582 0.00814688 0.00814723 0.00814469 0.0081476 0.00814685 0.00814525 0.00814616 0.00814652 0.00814428 0.00814685 0.00814618 0.00814481 0.00814553 0.00814569 0.00814369 0.00814611 0.00814552 0.00814419 0.00814489 0.00814508 0.00814326 0.00814539 0.00814488 0.00814371 0.00814427 0.00814428 0.00814277 0.00814471 0.0081443 0.0081432 0.00814365 0.0081437 0.00814236 0.00814404 0.0081437 0.00814278 0.00814308 0.008143 0.00814185 0.00814338 0.00814314 0.00814226 0.00814254 0.00814247 0.00814151 0.0081428 0.00814261 0.00814181 0.008142 0.00814186 0.00814101 0.00814222 0.00814211 0.00814135 0.00814157 0.0081414 0.00814071 0.00814165 0.00814156 0.00814101 0.0081411 0.00814083 0.00814029 0.0081411 0.00814112 0.00814054 0.00814065 0.00814047 0.00813995 0.00814064 0.00814067 0.00814021 0.0081403 0.00813995 0.00813965 0.00814015 0.00814027 0.00813982 0.00813985 0.00813963 0.00813937 0.00813976 0.00813987 0.00813951 0.00813955 0.00813919 0.008139 0.00813934 0.00813951 0.00813916 0.0081392 0.00813899 0.0081389 0.00813908 0.0081392 0.00813898 0.00813898 0.00813863 0.00813857 0.00813872 0.00813891 0.0081386 0.00813862 0.00813845 0.00813848 0.00813848 0.00813861 0.00813845 0.00813841 0.00813822 0.00813819 0.0081382 0.00813837 0.00813817 0.00813817 0.00813808 0.00813802 0.0081379 0.00813798 0.00813798 0.00813799 0.00818482 0.00818498 0.00827165 0.00823525 0.00818114 0.00816622 0.00816347 0.00816423 0.00818317 0.00817695 0.00816791 0.00816028 0.00816208 0.00815981 0.0081668 0.00816405 0.00816128 0.00816026 0.00816223 0.0081583 0.0081636 0.00816132 0.00815904 0.00816012 0.00816185 0.00815735 0.00816238 0.00816018 0.00815761 0.00815969 0.00816093 0.00815645 0.00816145 0.00815921 0.00815677 0.00815881 0.00815977 0.00815559 0.00816035 0.00815805 0.00815565 0.00815792 0.00815858 0.00815462 0.00815895 0.00815714 0.0081548 0.0081566 0.00815719 0.00815359 0.00815757 0.00815593 0.00815387 0.00815537 0.00815576 0.00815252 0.00815626 0.00815489 0.00815285 0.00815422 0.00815451 0.00815151 0.0081549 0.00815369 0.0081518 0.00815295 0.00815312 0.00815044 0.00815358 0.00815262 0.00815077 0.00815185 0.00815185 0.00814946 0.00815225 0.00815142 0.00814976 0.0081506 0.00815055 0.00814847 0.00815105 0.00815039 0.00814878 0.00814953 0.0081494 0.00814755 0.00814977 0.00814923 0.00814779 0.00814841 0.00814825 0.00814657 0.00814871 0.00814826 0.00814686 0.00814745 0.00814722 0.00814575 0.00814757 0.00814719 0.00814602 0.0081464 0.00814616 0.00814489 0.00814661 0.00814632 0.00814512 0.00814558 0.00814524 0.00814416 0.00814551 0.00814533 0.00814438 0.00814462 0.00814426 0.00814337 0.00814467 0.00814455 0.00814358 0.00814386 0.00814344 0.0081427 0.00814374 0.0081437 0.00814289 0.00814304 0.00814263 0.00814201 0.00814295 0.00814297 0.00814219 0.00814243 0.00814195 0.00814146 0.00814213 0.00814219 0.00814158 0.00814164 0.0081412 0.00814085 0.00814147 0.00814161 0.00814101 0.00814116 0.0081406 0.00814036 0.00814076 0.00814093 0.00814043 0.00814049 0.00814005 0.00813986 0.00814025 0.00814046 0.00813995 0.00814009 0.00813955 0.0081395 0.00813963 0.0081399 0.00813952 0.00813952 0.00813911 0.00813911 0.00813927 0.00813956 0.00813913 0.00813926 0.00813875 0.00813881 0.0081388 0.00813905 0.00813876 0.00813872 0.00813842 0.0081385 0.0081385 0.00813877 0.00813847 0.00813855 0.00813823 0.00813835 0.00813817 0.00813841 0.0081382 0.00813814 0.00813793 0.00813799 0.00813795 0.00813804 0.00813789 0.00813794 0.00817236 0.00820485 0.00831984 0.00829079 0.00818531 0.00817475 0.00817333 0.00817201 0.0081704 0.00818474 0.00817658 0.00817024 0.00817281 0.00816852 0.00817228 0.00817209 0.00817046 0.00816941 0.00817193 0.00816719 0.00817255 0.00816999 0.00816794 0.00816885 0.00817063 0.00816595 0.00817154 0.00816889 0.00816627 0.0081679 0.00816916 0.00816477 0.00816999 0.0081674 0.00816503 0.00816657 0.00816739 0.00816322 0.00816836 0.00816596 0.00816346 0.00816509 0.00816574 0.00816179 0.00816645 0.00816424 0.0081619 0.00816331 0.00816379 0.00816018 0.00816454 0.00816263 0.00816031 0.00816164 0.00816195 0.00815865 0.00816251 0.00816086 0.00815876 0.00815993 0.00816005 0.00815705 0.0081607 0.00815926 0.00815712 0.00815819 0.0081583 0.00815556 0.00815874 0.00815748 0.00815559 0.00815655 0.00815649 0.008154 0.00815699 0.00815594 0.00815408 0.0081549 0.0081548 0.00815264 0.00815515 0.00815432 0.00815266 0.00815338 0.0081532 0.00815113 0.00815357 0.00815285 0.00815121 0.00815187 0.00815164 0.00814992 0.00815194 0.00815131 0.00814996 0.00815045 0.00815021 0.00814857 0.00815053 0.00815006 0.00814861 0.00814912 0.00814881 0.00814747 0.00814906 0.00814863 0.00814749 0.00814784 0.00814751 0.00814627 0.00814779 0.00814752 0.00814633 0.00814671 0.00814632 0.00814529 0.00814652 0.00814626 0.0081453 0.00814553 0.00814518 0.00814424 0.00814538 0.00814524 0.00814425 0.00814452 0.00814409 0.0081434 0.00814423 0.00814413 0.00814336 0.00814355 0.00814313 0.00814244 0.00814327 0.00814329 0.00814243 0.0081427 0.00814223 0.00814177 0.00814229 0.00814231 0.00814175 0.00814184 0.00814137 0.00814096 0.0081415 0.00814158 0.00814094 0.00814107 0.00814069 0.00814042 0.00814071 0.0081408 0.00814033 0.00814044 0.00813995 0.0081397 0.00814003 0.00814018 0.00813967 0.00813982 0.00813941 0.00813938 0.00813944 0.00813956 0.00813929 0.00813933 0.00813892 0.00813881 0.00813899 0.00813918 0.00813874 0.00813881 0.00813853 0.0081386 0.0081385 0.00813868 0.00813841 0.0081385 0.00813825 0.00813829 0.00813831 0.00813839 0.00813809 0.00813819 0.0081381 0.00813809 0.00813809 0.00813804 0.0081379 0.00813798 0.00809335 0.00804398 0.00803488 0.00799454 0.00806451 0.00803567 0.00809235 0.00808142 0.00807731 0.00806441 0.00807627 0.00807533 0.00809613 0.008084 0.0080952 0.00808212 0.00808301 0.00808959 0.00809784 0.00808926 0.00809677 0.00809128 0.00808997 0.008098 0.00810087 0.00809521 0.00809868 0.00809774 0.0080961 0.00810313 0.00810462 0.00810047 0.0081024 0.00810284 0.0081014 0.00810654 0.00810819 0.00810489 0.00810672 0.00810692 0.00810571 0.00810955 0.00811155 0.00810868 0.00811067 0.00811046 0.0081095 0.00811215 0.00811439 0.00811192 0.00811423 0.00811346 0.00811265 0.00811482 0.00811703 0.00811481 0.00811712 0.00811621 0.00811556 0.00811712 0.00811933 0.00811741 0.00811972 0.00811862 0.0081181 0.00811955 0.00812156 0.00811976 0.00812192 0.00812091 0.00812047 0.00812153 0.0081234 0.00812191 0.00812398 0.0081229 0.00812258 0.00812359 0.00812533 0.00812394 0.00812571 0.0081248 0.00812457 0.00812531 0.00812689 0.00812571 0.00812746 0.00812646 0.00812628 0.00812709 0.00812851 0.0081274 0.0081289 0.00812808 0.00812799 0.00812846 0.00812978 0.00812893 0.00813031 0.00812944 0.00812944 0.00812999 0.00813112 0.00813029 0.00813152 0.00813079 0.00813079 0.00813113 0.00813214 0.00813153 0.00813262 0.00813193 0.00813202 0.0081324 0.00813326 0.0081327 0.0081336 0.00813303 0.00813308 0.00813325 0.00813407 0.0081337 0.00813451 0.00813395 0.00813409 0.00813433 0.00813495 0.00813461 0.00813522 0.0081348 0.00813495 0.00813499 0.00813557 0.00813538 0.00813598 0.0081355 0.00813569 0.00813581 0.00813627 0.00813608 0.00813652 0.00813618 0.00813636 0.00813632 0.00813666 0.00813666 0.0081371 0.0081367 0.00813692 0.00813696 0.00813728 0.0081372 0.00813748 0.00813721 0.0081374 0.0081373 0.00813751 0.00813757 0.00813786 0.00813751 0.00813776 0.00813772 0.00813793 0.00813793 0.00813808 0.00813788 0.0081381 0.00813793 0.00813799 0.00813813 0.00813832 0.00813803 0.0081382 0.00813812 0.00813822 0.00813827 0.00813832 0.00813818 0.00813836 0.00813816 0.00813815 0.00813831 0.00813841 0.00813823 0.00813821 0.00813826 0.00813819 0.00813817 0.0081383 0.00813811 0.0081381 0.0081381 0.00810585 0.00809202 0.0080703 0.00806632 0.00805635 0.00807508 0.00810521 0.00809843 0.00808438 0.00808395 0.00808815 0.00810076 0.00810726 0.00810121 0.00810082 0.00809702 0.0080997 0.00810896 0.00811054 0.00810404 0.00810774 0.00810459 0.00810398 0.00811215 0.00811285 0.00810712 0.00811086 0.00810983 0.00810742 0.0081142 0.00811498 0.00811021 0.00811339 0.00811336 0.00811063 0.00811626 0.00811696 0.00811299 0.00811598 0.00811647 0.00811393 0.00811802 0.00811904 0.00811568 0.00811867 0.0081187 0.00811672 0.00811995 0.00812097 0.00811803 0.00812116 0.00812101 0.00811939 0.00812164 0.00812291 0.00812031 0.00812337 0.00812276 0.00812159 0.00812344 0.0081246 0.00812219 0.00812531 0.00812471 0.00812373 0.00812501 0.00812625 0.00812414 0.00812709 0.00812612 0.00812546 0.00812658 0.00812763 0.00812574 0.00812854 0.00812779 0.00812718 0.00812793 0.00812906 0.00812736 0.00812992 0.0081289 0.00812859 0.0081293 0.00813017 0.00812866 0.0081311 0.00813033 0.00812998 0.0081304 0.00813135 0.00813011 0.00813224 0.00813128 0.00813109 0.00813157 0.00813228 0.00813117 0.00813319 0.00813247 0.00813228 0.00813247 0.00813324 0.00813232 0.00813403 0.0081332 0.00813315 0.00813344 0.00813401 0.00813319 0.00813479 0.00813421 0.00813415 0.00813416 0.0081348 0.00813413 0.00813549 0.00813473 0.00813478 0.00813495 0.00813538 0.00813479 0.00813608 0.00813558 0.00813561 0.00813553 0.00813595 0.00813556 0.00813662 0.00813593 0.00813611 0.00813613 0.0081364 0.00813604 0.00813703 0.00813662 0.00813672 0.00813652 0.00813689 0.00813669 0.00813745 0.00813687 0.00813708 0.00813704 0.00813718 0.00813697 0.00813776 0.00813739 0.00813754 0.00813727 0.00813754 0.00813747 0.00813804 0.00813751 0.00813773 0.00813766 0.00813771 0.00813762 0.00813823 0.00813789 0.00813807 0.00813779 0.00813795 0.00813802 0.00813838 0.0081379 0.00813818 0.00813808 0.00813801 0.00813806 0.0081384 0.00813824 0.00813828 0.00813801 0.00813815 0.00813827 0.00813845 0.00813806 0.00813821 0.00813816 0.00813815 0.00813821 0.00813846 0.00813827 0.00813833 0.00813807 0.00813822 0.00813827 0.00813843 0.00813802 0.00813822 0.00813826 0.00812409 0.00811206 0.00810629 0.00810328 0.00808603 0.00810361 0.00812373 0.00811424 0.00811229 0.00810883 0.00810306 0.00811549 0.00812221 0.00811463 0.00811748 0.00811458 0.00811169 0.00812128 0.00812295 0.00811678 0.00812061 0.00811829 0.00811545 0.00812321 0.00812378 0.00811858 0.00812224 0.00812106 0.00811799 0.00812421 0.00812479 0.00812007 0.00812371 0.00812322 0.0081201 0.00812514 0.00812582 0.00812172 0.00812511 0.00812508 0.00812235 0.00812624 0.00812698 0.00812318 0.00812675 0.00812662 0.00812431 0.00812738 0.00812804 0.00812482 0.00812828 0.00812805 0.00812622 0.00812852 0.00812924 0.00812617 0.00812975 0.00812932 0.00812778 0.00812962 0.00813023 0.00812768 0.00813104 0.00813047 0.00812927 0.00813067 0.00813135 0.00812882 0.0081322 0.00813147 0.00813048 0.00813159 0.00813215 0.00813013 0.00813316 0.00813239 0.00813169 0.00813248 0.00813306 0.00813108 0.00813406 0.00813324 0.00813257 0.00813331 0.00813372 0.00813214 0.00813474 0.00813396 0.00813356 0.00813406 0.00813447 0.00813288 0.00813543 0.00813463 0.00813426 0.00813468 0.00813497 0.00813384 0.00813597 0.00813526 0.00813503 0.00813529 0.00813559 0.00813441 0.00813651 0.00813579 0.00813557 0.00813576 0.008136 0.00813517 0.00813692 0.00813626 0.00813621 0.00813628 0.00813649 0.00813558 0.00813733 0.00813667 0.00813656 0.00813665 0.00813674 0.00813619 0.00813761 0.00813701 0.00813709 0.00813705 0.00813712 0.00813649 0.00813784 0.0081373 0.00813735 0.0081373 0.00813727 0.00813704 0.00813803 0.00813758 0.00813768 0.0081376 0.00813761 0.00813717 0.00813822 0.00813778 0.0081379 0.00813777 0.00813764 0.00813758 0.00813832 0.0081379 0.00813814 0.00813797 0.00813793 0.00813762 0.00813847 0.00813807 0.00813817 0.00813802 0.00813788 0.00813796 0.00813844 0.00813813 0.00813838 0.00813817 0.00813814 0.00813797 0.00813854 0.00813822 0.00813831 0.00813818 0.00813805 0.00813816 0.00813848 0.00813823 0.00813836 0.00813818 0.00813815 0.00813807 0.00813845 0.00813819 0.00813827 0.00813811 0.00813805 0.00813818 0.00813834 0.00813813 0.00813829 0.00813815 0.00813816 0.00813812 0.00813833 0.00813807 0.00813825 0.0081382 0.00814415 0.00813323 0.00814105 0.00813559 0.00811706 0.00813051 0.00813884 0.00813056 0.00813828 0.00813154 0.00812303 0.00813112 0.00813528 0.00812869 0.00813509 0.00813037 0.00812588 0.00813261 0.00813387 0.00812843 0.00813362 0.00813091 0.00812715 0.00813336 0.00813373 0.00812887 0.00813308 0.00813194 0.00812831 0.00813366 0.00813406 0.0081295 0.00813348 0.00813281 0.00812965 0.00813385 0.00813438 0.00813027 0.00813388 0.00813365 0.00813077 0.00813429 0.00813488 0.00813105 0.00813476 0.00813439 0.00813207 0.00813479 0.0081353 0.00813178 0.00813556 0.00813515 0.00813315 0.00813528 0.00813583 0.00813265 0.00813626 0.00813576 0.00813412 0.00813585 0.00813624 0.00813332 0.00813692 0.00813634 0.00813493 0.00813628 0.00813664 0.00813407 0.00813745 0.00813677 0.00813566 0.00813676 0.00813699 0.00813465 0.0081379 0.0081372 0.00813622 0.00813709 0.00813728 0.0081353 0.0081382 0.00813751 0.00813672 0.00813746 0.00813753 0.0081357 0.00813845 0.00813787 0.00813713 0.00813769 0.00813782 0.00813621 0.00813871 0.008138 0.00813754 0.00813796 0.00813792 0.00813653 0.00813886 0.00813826 0.00813782 0.00813811 0.00813807 0.00813697 0.00813896 0.00813841 0.00813808 0.00813829 0.00813819 0.00813718 0.00813905 0.00813861 0.00813825 0.00813841 0.00813832 0.00813748 0.00813913 0.00813861 0.00813844 0.00813851 0.00813831 0.00813764 0.00813907 0.00813876 0.00813854 0.00813855 0.00813839 0.00813785 0.00813908 0.00813869 0.00813868 0.00813865 0.00813838 0.0081379 0.00813909 0.00813876 0.00813869 0.00813864 0.00813842 0.00813811 0.00813901 0.00813871 0.00813877 0.00813869 0.00813834 0.00813812 0.008139 0.00813873 0.00813871 0.00813853 0.0081384 0.00813822 0.00813889 0.00813866 0.00813874 0.00813861 0.00813827 0.0081382 0.00813875 0.0081386 0.00813866 0.00813846 0.00813832 0.0081383 0.00813872 0.00813851 0.00813867 0.00813853 0.00813821 0.00813817 0.00813861 0.00813849 0.00813848 0.00813827 0.00813817 0.00813823 0.00813844 0.00813834 0.00813842 0.00813829 0.0081381 0.00813812 0.00813834 0.00813825 0.0081383 0.0081381 0.00813808 0.00813822 0.00813817 0.00813801 0.00813828 0.0081381 0.00816439 0.00815383 0.00817587 0.00816619 0.00814636 0.00815674 0.00815186 0.00814575 0.00816188 0.00815289 0.00814187 0.00814605 0.00814628 0.0081414 0.00815096 0.00814545 0.00813961 0.00814394 0.00814404 0.00813936 0.00814583 0.00814292 0.00813864 0.00814318 0.00814317 0.0081386 0.00814364 0.00814224 0.00813833 0.00814281 0.00814306 0.00813848 0.008143 0.00814193 0.00813872 0.00814242 0.00814275 0.00813856 0.00814265 0.00814211 0.00813921 0.00814222 0.00814277 0.00813878 0.00814283 0.00814199 0.0081396 0.00814212 0.00814253 0.00813884 0.00814275 0.00814214 0.00814003 0.00814206 0.00814246 0.00813914 0.00814293 0.00814209 0.00814031 0.00814199 0.00814222 0.00813917 0.00814279 0.00814217 0.00814058 0.00814198 0.00814208 0.00813944 0.00814286 0.008142 0.00814069 0.00814184 0.00814179 0.00813939 0.00814259 0.00814203 0.00814077 0.00814176 0.00814169 0.00813956 0.00814253 0.00814176 0.00814075 0.00814159 0.00814137 0.00813949 0.0081422 0.0081417 0.00814078 0.00814141 0.00814122 0.00813962 0.0081421 0.00814146 0.00814067 0.0081412 0.0081409 0.00813949 0.00814174 0.00814136 0.00814063 0.00814104 0.00814076 0.00813956 0.00814158 0.008141 0.00814046 0.00814081 0.00814044 0.00813935 0.0081412 0.00814093 0.00814037 0.00814063 0.00814029 0.00813942 0.00814105 0.0081406 0.00814017 0.00814038 0.00813996 0.00813923 0.00814062 0.00814048 0.00814006 0.00814028 0.0081398 0.00813924 0.00814048 0.00814012 0.00813986 0.00814001 0.00813946 0.00813899 0.00814005 0.00814001 0.0081397 0.00813981 0.0081394 0.00813907 0.00813993 0.00813967 0.00813953 0.00813957 0.00813907 0.0081388 0.00813953 0.00813954 0.00813936 0.00813939 0.008139 0.00813881 0.00813942 0.00813924 0.00813915 0.00813916 0.00813866 0.00813855 0.00813903 0.00813908 0.00813902 0.00813892 0.00813866 0.00813862 0.00813895 0.00813882 0.00813884 0.0081388 0.00813837 0.00813834 0.00813861 0.00813872 0.00813862 0.00813857 0.0081384 0.00813839 0.00813857 0.00813842 0.00813844 0.0081384 0.00813812 0.00813816 0.00813816 0.00813832 0.00813833 0.00813819 0.0081381 0.00813816 0.00813807 0.0081379 0.00813812 0.00813795 0.00818483 0.00817352 0.00821306 0.00819759 0.00817481 0.00818306 0.00816331 0.00815942 0.0081825 0.00817302 0.00815884 0.00816046 0.008156 0.00815244 0.0081637 0.00815969 0.00815216 0.00815476 0.00815344 0.00814938 0.00815602 0.00815438 0.00814936 0.00815264 0.0081524 0.00814795 0.00815319 0.00815202 0.00814812 0.00815139 0.00815162 0.00814722 0.00815205 0.00815084 0.00814773 0.0081505 0.00815103 0.0081467 0.00815113 0.00815013 0.00814734 0.00814984 0.0081504 0.00814632 0.00815065 0.00814949 0.00814721 0.00814919 0.00814961 0.00814599 0.00814991 0.00814887 0.00814678 0.00814859 0.00814891 0.00814547 0.00814936 0.00814847 0.00814655 0.00814804 0.00814813 0.00814515 0.00814877 0.00814776 0.00814611 0.00814741 0.0081474 0.00814463 0.00814806 0.00814734 0.00814577 0.00814689 0.00814666 0.00814431 0.00814739 0.00814657 0.0081452 0.0081462 0.00814594 0.00814376 0.00814663 0.00814617 0.00814484 0.00814566 0.00814526 0.00814341 0.00814598 0.00814538 0.00814426 0.00814499 0.00814461 0.00814288 0.00814528 0.00814495 0.00814386 0.00814445 0.00814398 0.00814257 0.00814471 0.0081442 0.00814329 0.00814381 0.00814332 0.00814204 0.00814401 0.00814377 0.00814287 0.00814334 0.00814273 0.00814174 0.0081434 0.00814307 0.00814237 0.00814271 0.00814217 0.00814124 0.00814277 0.00814271 0.00814198 0.00814225 0.00814161 0.00814097 0.0081422 0.00814203 0.00814144 0.00814174 0.00814113 0.0081405 0.00814163 0.00814168 0.00814109 0.00814134 0.00814064 0.00814025 0.00814112 0.00814103 0.00814063 0.00814083 0.00814023 0.00813983 0.00814061 0.00814077 0.00814032 0.00814048 0.00813978 0.0081396 0.00814017 0.00814016 0.00813983 0.00814001 0.00813939 0.00813928 0.00813972 0.00813999 0.0081396 0.00813969 0.00813906 0.00813908 0.00813936 0.00813938 0.00813918 0.00813929 0.00813885 0.0081388 0.00813902 0.00813924 0.00813904 0.00813913 0.00813857 0.00813866 0.00813876 0.00813881 0.0081386 0.00813865 0.00813835 0.00813837 0.00813841 0.00813869 0.00813848 0.00813852 0.00813817 0.0081383 0.00813822 0.00813824 0.0081381 0.00813811 0.00813799 0.008138 0.0081379 0.00813805 0.00813793 0.00813787 0.00820679 0.00819206 0.0082541 0.0082336 0.00820117 0.00821042 0.00817132 0.00817064 0.00819336 0.00818952 0.00817199 0.00817384 0.00816478 0.00816241 0.00817078 0.00817158 0.00816281 0.00816493 0.00816295 0.00815899 0.00816481 0.00816458 0.00815929 0.00816163 0.00816162 0.00815703 0.00816257 0.00816129 0.00815755 0.00815992 0.00816052 0.00815583 0.00816118 0.00815934 0.00815653 0.00815847 0.00815922 0.00815461 0.00815985 0.00815807 0.00815538 0.00815743 0.00815811 0.00815379 0.00815863 0.00815667 0.00815453 0.00815621 0.00815664 0.00815281 0.00815714 0.00815572 0.00815362 0.00815512 0.00815542 0.00815195 0.00815596 0.00815449 0.00815263 0.00815397 0.00815399 0.00815083 0.00815455 0.00815349 0.0081517 0.0081529 0.00815284 0.00814998 0.00815339 0.0081523 0.00815071 0.00815173 0.00815144 0.00814894 0.00815202 0.00815129 0.00814977 0.00815073 0.00815037 0.00814813 0.00815088 0.00815016 0.00814875 0.00814962 0.00814911 0.00814711 0.00814958 0.00814922 0.00814787 0.00814864 0.00814814 0.00814641 0.00814863 0.00814812 0.0081469 0.00814757 0.00814694 0.00814541 0.00814747 0.00814721 0.00814607 0.0081467 0.00814604 0.00814476 0.0081465 0.00814619 0.00814524 0.00814573 0.00814499 0.00814387 0.00814539 0.0081454 0.00814443 0.00814492 0.00814422 0.00814327 0.00814462 0.00814446 0.00814359 0.00814405 0.00814326 0.00814252 0.00814363 0.00814372 0.00814294 0.00814337 0.00814258 0.00814199 0.00814294 0.00814286 0.00814224 0.00814259 0.00814174 0.00814124 0.00814205 0.00814224 0.00814162 0.00814195 0.00814121 0.00814082 0.00814143 0.00814151 0.00814097 0.00814128 0.00814041 0.00814021 0.00814067 0.00814096 0.00814048 0.00814073 0.00814008 0.00813988 0.0081402 0.00814031 0.00813995 0.00814021 0.00813942 0.00813932 0.00813949 0.00813989 0.00813948 0.00813977 0.00813914 0.00813914 0.00813921 0.00813938 0.00813908 0.00813932 0.00813864 0.00813868 0.00813867 0.00813906 0.00813872 0.00813889 0.00813853 0.00813859 0.00813847 0.00813861 0.0081384 0.00813856 0.00813815 0.00813824 0.00813809 0.00813839 0.00813821 0.00813826 0.0081381 0.00813812 0.00813796 0.00813791 0.00813792 0.0081379 0.0082475 0.00821035 0.00831281 0.00828907 0.00822162 0.00824069 0.00817585 0.00817867 0.00817051 0.00819553 0.00817953 0.00818236 0.00817489 0.00817145 0.00817456 0.00817917 0.00817181 0.00817278 0.0081734 0.00816846 0.00817471 0.00817336 0.00816873 0.00816998 0.00817127 0.00816641 0.0081725 0.00817009 0.00816678 0.00816806 0.00816943 0.00816462 0.00817035 0.0081679 0.0081652 0.00816651 0.00816764 0.00816294 0.00816839 0.00816587 0.00816349 0.00816471 0.00816562 0.00816131 0.00816627 0.00816422 0.00816182 0.00816307 0.00816378 0.00815979 0.00816428 0.00816243 0.00816029 0.00816132 0.0081618 0.00815822 0.00816237 0.00816081 0.0081587 0.00815967 0.00815994 0.00815669 0.0081603 0.00815914 0.0081571 0.00815798 0.00815812 0.00815517 0.00815861 0.00815755 0.00815558 0.00815638 0.00815634 0.00815372 0.00815667 0.00815588 0.00815404 0.00815477 0.00815463 0.0081523 0.00815505 0.00815436 0.00815266 0.0081533 0.00815299 0.00815095 0.0081533 0.00815284 0.00815122 0.00815183 0.00815153 0.00814965 0.00815187 0.00815143 0.00814992 0.00815043 0.00815005 0.00814843 0.0081503 0.00815003 0.00814863 0.00814912 0.00814869 0.00814723 0.00814899 0.00814875 0.00814746 0.00814786 0.00814736 0.00814618 0.00814756 0.00814751 0.00814631 0.00814666 0.00814617 0.00814511 0.00814645 0.00814636 0.00814527 0.0081456 0.00814503 0.00814412 0.00814517 0.00814525 0.00814425 0.00814451 0.00814391 0.00814319 0.00814417 0.00814423 0.0081433 0.00814358 0.00814302 0.00814239 0.00814303 0.00814328 0.00814242 0.00814267 0.0081421 0.00814158 0.00814219 0.00814239 0.00814166 0.00814185 0.00814124 0.00814091 0.00814128 0.00814158 0.00814087 0.00814107 0.0081405 0.00814025 0.00814066 0.00814087 0.00814028 0.00814044 0.00813986 0.00813969 0.00813983 0.0081402 0.00813965 0.00813978 0.00813927 0.00813923 0.00813936 0.00813966 0.00813916 0.00813933 0.00813877 0.00813883 0.00813877 0.00813917 0.00813863 0.00813878 0.00813841 0.00813854 0.00813846 0.00813872 0.00813833 0.00813848 0.00813818 0.0081383 0.00813817 0.00813842 0.0081381 0.0081381 0.00813813 0.00813806 0.00813817 0.00813816 0.00813791 0.00813795 0.00808638 0.0080331 0.00803228 0.00798691 0.00805836 0.00802732 0.00808912 0.00807798 0.00807082 0.00805747 0.00807399 0.00806479 0.0080939 0.00808142 0.00809268 0.00807692 0.00808026 0.00808025 0.00809529 0.0080866 0.00809636 0.00808725 0.00808728 0.00809132 0.00809841 0.00809291 0.00809861 0.00809502 0.0080943 0.00809919 0.00810269 0.00809886 0.00810219 0.00810123 0.00810019 0.00810449 0.00810691 0.00810398 0.00810648 0.00810626 0.00810522 0.00810877 0.00811074 0.00810819 0.00811055 0.00811028 0.00810928 0.00811198 0.00811396 0.00811179 0.00811419 0.00811367 0.00811282 0.008115 0.00811683 0.00811482 0.0081172 0.00811653 0.00811576 0.00811742 0.00811926 0.0081175 0.00811985 0.00811907 0.00811846 0.00811988 0.00812154 0.00811989 0.00812213 0.00812128 0.00812072 0.00812183 0.00812348 0.00812208 0.00812422 0.00812333 0.00812293 0.00812393 0.00812534 0.00812407 0.00812602 0.00812514 0.00812479 0.00812558 0.00812702 0.00812588 0.00812769 0.00812685 0.00812664 0.00812731 0.00812857 0.00812754 0.00812918 0.00812836 0.0081282 0.00812867 0.00812986 0.00812905 0.00813056 0.00812981 0.0081297 0.00813017 0.00813115 0.0081304 0.00813179 0.00813105 0.00813095 0.00813124 0.00813217 0.00813165 0.00813287 0.00813222 0.00813226 0.00813255 0.0081333 0.00813277 0.00813385 0.00813326 0.00813323 0.00813338 0.00813414 0.00813378 0.00813474 0.0081342 0.00813433 0.00813444 0.00813495 0.00813464 0.00813549 0.00813496 0.00813508 0.00813509 0.00813559 0.00813546 0.00813616 0.00813578 0.00813592 0.00813593 0.00813631 0.00813614 0.00813674 0.00813634 0.00813646 0.00813637 0.00813672 0.0081367 0.00813724 0.00813692 0.00813709 0.00813701 0.00813726 0.0081372 0.00813767 0.00813734 0.00813749 0.00813736 0.0081375 0.00813759 0.00813799 0.00813774 0.0081379 0.0081378 0.00813786 0.00813795 0.00813825 0.00813801 0.00813817 0.00813793 0.00813799 0.00813816 0.00813844 0.00813828 0.0081383 0.00813817 0.00813821 0.00813828 0.00813854 0.00813834 0.0081383 0.00813812 0.00813816 0.00813828 0.00813854 0.00813838 0.00813831 0.00813819 0.0081382 0.00813806 0.00813844 0.00813817 0.00813807 0.00813805 0.00810432 0.00808837 0.0080683 0.00806251 0.00805312 0.00806739 0.00810338 0.00809743 0.00808001 0.00807882 0.0080829 0.00808924 0.00810378 0.00809965 0.00809743 0.00809321 0.00809668 0.00810095 0.00810688 0.00810182 0.00810634 0.00810163 0.00810259 0.00810674 0.00810994 0.0081048 0.00811017 0.00810763 0.00810657 0.00811125 0.00811261 0.00810836 0.00811291 0.00811213 0.00811025 0.00811487 0.00811547 0.00811177 0.00811545 0.00811581 0.00811367 0.00811766 0.00811785 0.00811486 0.00811824 0.00811857 0.00811671 0.00812003 0.00812036 0.00811753 0.00812078 0.00812104 0.00811946 0.00812196 0.00812231 0.00812001 0.0081232 0.00812297 0.00812177 0.00812385 0.00812438 0.00812205 0.00812518 0.00812486 0.00812392 0.00812545 0.00812593 0.00812405 0.00812705 0.00812637 0.00812573 0.00812702 0.00812762 0.00812572 0.00812856 0.00812792 0.00812739 0.00812833 0.0081288 0.00812739 0.00812999 0.00812916 0.00812884 0.00812969 0.0081302 0.0081287 0.00813115 0.00813044 0.00813021 0.00813077 0.00813121 0.00813009 0.00813236 0.00813143 0.00813136 0.00813189 0.00813237 0.00813118 0.00813321 0.00813254 0.00813249 0.00813279 0.00813311 0.00813231 0.00813416 0.00813335 0.00813343 0.00813375 0.00813409 0.00813319 0.00813483 0.00813427 0.00813432 0.00813449 0.00813466 0.00813412 0.0081356 0.00813491 0.00813505 0.00813518 0.00813543 0.00813479 0.0081361 0.00813562 0.00813578 0.00813577 0.00813583 0.00813555 0.00813666 0.0081361 0.00813631 0.00813635 0.0081365 0.00813606 0.00813704 0.00813664 0.0081369 0.0081368 0.00813674 0.00813664 0.00813746 0.00813701 0.00813727 0.00813723 0.00813725 0.00813699 0.00813773 0.00813739 0.00813766 0.00813752 0.00813746 0.00813746 0.00813809 0.00813761 0.00813792 0.00813788 0.00813777 0.00813767 0.00813818 0.00813789 0.00813815 0.00813798 0.00813789 0.00813802 0.00813836 0.00813797 0.00813829 0.00813825 0.00813815 0.00813802 0.00813833 0.00813821 0.00813834 0.00813818 0.00813801 0.00813824 0.00813845 0.00813816 0.00813833 0.00813831 0.0081382 0.00813821 0.00813836 0.00813825 0.00813832 0.0081382 0.00813812 0.00813827 0.00813837 0.0081381 0.00813832 0.00813836 0.00812445 0.00811156 0.00810484 0.00810098 0.00808435 0.00810017 0.00812258 0.00811429 0.00810884 0.0081062 0.00809864 0.00810856 0.00811956 0.008113 0.00811517 0.00811279 0.00810897 0.00811569 0.00811941 0.0081142 0.0081191 0.00811714 0.00811425 0.00811978 0.00812089 0.00811616 0.00812126 0.00811998 0.00811734 0.0081223 0.00812255 0.0081183 0.00812278 0.00812256 0.0081199 0.00812424 0.0081242 0.00812023 0.00812441 0.00812478 0.00812204 0.00812598 0.00812576 0.00812238 0.00812619 0.00812657 0.00812424 0.00812738 0.00812721 0.00812409 0.00812786 0.00812814 0.00812607 0.00812867 0.00812858 0.00812589 0.00812948 0.00812942 0.00812786 0.00812981 0.0081298 0.00812727 0.00813088 0.00813066 0.00812929 0.00813091 0.00813091 0.00812879 0.00813208 0.00813165 0.00813067 0.00813181 0.00813186 0.00812987 0.0081331 0.00813262 0.00813172 0.00813273 0.00813276 0.00813112 0.00813401 0.00813335 0.00813281 0.00813348 0.00813352 0.00813196 0.00813479 0.00813419 0.00813363 0.00813426 0.00813425 0.00813297 0.00813543 0.00813482 0.00813447 0.00813484 0.00813484 0.00813368 0.00813601 0.00813546 0.00813511 0.0081355 0.00813542 0.00813445 0.00813654 0.00813593 0.00813574 0.00813597 0.00813587 0.008135 0.00813691 0.00813645 0.00813628 0.00813646 0.00813635 0.00813567 0.00813734 0.00813682 0.00813678 0.00813679 0.00813666 0.00813607 0.00813758 0.00813722 0.0081371 0.00813721 0.008137 0.00813659 0.00813788 0.00813743 0.00813751 0.00813739 0.00813721 0.00813683 0.00813803 0.00813773 0.00813772 0.00813774 0.00813753 0.00813731 0.00813819 0.00813788 0.00813801 0.00813786 0.0081376 0.00813746 0.00813834 0.00813811 0.0081381 0.00813808 0.00813784 0.00813779 0.00813845 0.00813815 0.00813834 0.00813814 0.00813785 0.00813781 0.00813845 0.00813831 0.00813832 0.00813824 0.00813803 0.00813807 0.00813848 0.00813828 0.00813842 0.0081383 0.00813801 0.008138 0.00813841 0.00813837 0.0081383 0.00813824 0.00813802 0.00813817 0.00813837 0.00813826 0.00813833 0.00813819 0.00813802 0.0081381 0.00813836 0.00813829 0.00813821 0.00813819 0.00813808 0.00813824 0.00813828 0.00813815 0.00813831 0.00813819 0.00814629 0.00813456 0.00813993 0.00813435 0.00811618 0.00812986 0.00813986 0.0081315 0.00813708 0.00813114 0.0081204 0.00812883 0.00813437 0.0081278 0.00813448 0.00813049 0.00812424 0.00813033 0.00813213 0.00812656 0.00813319 0.00813079 0.00812653 0.00813158 0.00813176 0.00812686 0.00813255 0.00813164 0.00812793 0.00813263 0.00813221 0.00812792 0.00813283 0.00813247 0.00812926 0.00813332 0.00813301 0.00812904 0.00813344 0.00813337 0.00813053 0.00813401 0.0081337 0.00813018 0.0081343 0.00813423 0.00813186 0.00813471 0.00813446 0.00813117 0.00813523 0.00813504 0.008133 0.00813524 0.00813507 0.00813218 0.00813607 0.00813573 0.00813406 0.00813594 0.00813565 0.008133 0.00813679 0.00813633 0.00813494 0.00813632 0.00813612 0.00813384 0.00813739 0.00813683 0.00813568 0.0081369 0.00813658 0.00813446 0.00813786 0.00813723 0.0081363 0.00813719 0.00813692 0.00813514 0.00813825 0.00813758 0.00813681 0.00813761 0.00813725 0.00813559 0.00813858 0.00813788 0.00813727 0.0081378 0.00813748 0.00813615 0.00813874 0.00813814 0.00813762 0.00813811 0.00813773 0.00813645 0.00813896 0.00813829 0.00813794 0.00813825 0.00813789 0.00813688 0.00813908 0.0081385 0.00813816 0.00813847 0.00813802 0.00813709 0.00813912 0.00813861 0.00813835 0.00813851 0.00813811 0.00813744 0.00813921 0.00813872 0.00813853 0.00813868 0.0081382 0.00813762 0.00813918 0.00813881 0.00813867 0.00813865 0.0081382 0.00813781 0.00813916 0.00813877 0.00813873 0.0081388 0.0081383 0.00813792 0.00813912 0.00813882 0.00813877 0.0081387 0.00813829 0.0081381 0.00813909 0.00813882 0.00813884 0.00813883 0.00813826 0.0081381 0.00813901 0.00813875 0.0081388 0.00813863 0.00813826 0.00813822 0.00813895 0.00813873 0.00813877 0.00813872 0.00813823 0.00813817 0.00813878 0.00813859 0.0081387 0.00813853 0.00813819 0.00813828 0.00813874 0.00813855 0.00813868 0.00813865 0.00813818 0.00813816 0.00813859 0.00813847 0.00813851 0.00813834 0.00813803 0.00813824 0.00813849 0.00813838 0.00813845 0.00813833 0.00813807 0.00813812 0.00813832 0.00813826 0.0081383 0.00813815 0.00813799 0.00813818 0.00813819 0.00813806 0.00813828 0.00813822 0.0081682 0.008157 0.0081756 0.00816601 0.0081465 0.00815818 0.00815505 0.00814764 0.00816309 0.0081549 0.00814155 0.00814852 0.00814714 0.00814145 0.00815188 0.00814732 0.0081393 0.00814447 0.00814345 0.00813837 0.00814593 0.00814383 0.00813842 0.00814298 0.00814211 0.00813745 0.00814335 0.00814241 0.00813824 0.00814237 0.00814175 0.00813728 0.00814242 0.00814187 0.00813852 0.008142 0.00814175 0.0081376 0.00814226 0.00814185 0.00813896 0.00814182 0.0081417 0.00813786 0.00814236 0.00814187 0.00813943 0.00814191 0.00814175 0.0081383 0.00814245 0.00814198 0.00813985 0.00814181 0.00814163 0.00813852 0.00814267 0.00814211 0.00814027 0.00814198 0.00814164 0.00813886 0.00814269 0.00814205 0.00814054 0.00814185 0.00814146 0.00813898 0.00814271 0.00814211 0.00814072 0.00814189 0.00814141 0.00813923 0.00814254 0.00814198 0.00814079 0.00814169 0.00814117 0.00813929 0.00814248 0.00814195 0.00814082 0.00814166 0.00814109 0.00813937 0.0081422 0.00814172 0.00814085 0.00814138 0.00814085 0.00813937 0.00814207 0.00814163 0.00814073 0.00814136 0.00814073 0.0081394 0.00814181 0.00814133 0.00814068 0.00814105 0.0081404 0.00813935 0.0081416 0.0081412 0.00814053 0.00814097 0.00814025 0.00813935 0.00814122 0.00814093 0.00814042 0.00814066 0.00813998 0.00813924 0.00814106 0.00814076 0.00814025 0.00814055 0.00813981 0.00813923 0.00814069 0.00814047 0.00814013 0.00814022 0.00813951 0.00813907 0.00814047 0.0081403 0.00813992 0.00814015 0.00813938 0.00813903 0.00814007 0.00813997 0.00813979 0.00813979 0.00813911 0.00813892 0.00813991 0.00813988 0.00813956 0.00813972 0.00813893 0.00813882 0.00813955 0.00813952 0.0081394 0.00813933 0.00813875 0.00813866 0.00813936 0.00813941 0.00813916 0.00813932 0.00813859 0.00813858 0.00813904 0.00813905 0.00813902 0.00813895 0.00813839 0.00813848 0.0081389 0.00813898 0.00813882 0.00813892 0.0081383 0.00813837 0.00813864 0.00813869 0.0081386 0.0081385 0.00813809 0.00813827 0.00813852 0.00813857 0.00813842 0.00813849 0.0081381 0.00813816 0.00813824 0.00813825 0.00813832 0.00813814 0.00813789 0.00813801 0.00813805 0.00813805 0.00813813 0.00813807 0.00818985 0.00817832 0.00821383 0.00819831 0.00817578 0.00818576 0.00816792 0.00816238 0.00818592 0.00817711 0.00816079 0.00816708 0.008158 0.00815355 0.00816544 0.00816284 0.00815292 0.00815791 0.00815381 0.00814928 0.00815657 0.00815594 0.00814966 0.00815377 0.00815203 0.00814741 0.00815307 0.00815272 0.00814813 0.00815156 0.00815123 0.00814655 0.00815189 0.00815082 0.00814756 0.00815026 0.00815037 0.00814608 0.00815095 0.00815004 0.00814715 0.00814951 0.0081498 0.00814575 0.00815043 0.00814919 0.008147 0.0081489 0.00814905 0.00814532 0.00814992 0.00814876 0.00814665 0.00814848 0.00814841 0.00814504 0.00814926 0.00814829 0.0081465 0.00814781 0.00814762 0.00814459 0.00814874 0.00814778 0.00814604 0.0081474 0.00814709 0.00814433 0.00814804 0.00814722 0.00814574 0.00814671 0.00814626 0.00814387 0.00814741 0.00814666 0.00814525 0.00814626 0.00814571 0.00814356 0.00814667 0.00814607 0.00814485 0.00814558 0.00814494 0.00814305 0.00814605 0.00814549 0.00814429 0.00814513 0.00814447 0.00814275 0.00814536 0.00814489 0.00814392 0.00814442 0.00814367 0.00814227 0.0081448 0.00814434 0.00814336 0.00814397 0.00814321 0.00814197 0.00814404 0.00814374 0.00814294 0.00814331 0.00814248 0.00814145 0.00814349 0.00814322 0.00814241 0.00814291 0.0081421 0.00814121 0.00814281 0.00814266 0.00814201 0.00814224 0.00814141 0.00814074 0.00814232 0.00814216 0.0081415 0.00814191 0.00814104 0.00814049 0.00814164 0.00814164 0.00814116 0.0081413 0.00814048 0.00814002 0.00814119 0.00814122 0.00814066 0.00814099 0.00814014 0.00813978 0.00814065 0.00814075 0.0081403 0.00814044 0.00813957 0.00813945 0.00814025 0.0081403 0.00813986 0.00814016 0.0081394 0.00813924 0.00813978 0.00813995 0.00813962 0.00813969 0.00813893 0.00813887 0.00813941 0.00813955 0.00813919 0.0081394 0.0081388 0.00813879 0.00813909 0.00813925 0.00813907 0.00813905 0.00813844 0.00813847 0.00813877 0.00813893 0.00813862 0.00813881 0.00813834 0.0081384 0.00813845 0.00813866 0.00813845 0.0081384 0.00813803 0.00813815 0.00813826 0.00813837 0.00813814 0.00813824 0.00813796 0.00813801 0.00813794 0.00813805 0.008138 0.00813784 0.00821229 0.00819792 0.00825489 0.00823512 0.00820301 0.00821331 0.00817618 0.00817405 0.0081987 0.00819523 0.00817601 0.00818315 0.0081671 0.00816387 0.00817264 0.00817523 0.00816415 0.00816959 0.00816384 0.00815939 0.00816526 0.00816656 0.00815967 0.00816344 0.00816194 0.00815708 0.0081627 0.00816222 0.00815763 0.00816028 0.00816038 0.0081556 0.00816125 0.00815962 0.0081564 0.00815847 0.00815906 0.00815449 0.00815987 0.00815785 0.00815526 0.00815712 0.00815759 0.00815333 0.00815839 0.00815669 0.00815443 0.00815599 0.00815633 0.00815231 0.00815719 0.00815568 0.00815345 0.0081548 0.00815496 0.00815149 0.00815578 0.00815449 0.00815264 0.00815387 0.00815371 0.00815054 0.00815448 0.00815339 0.00815164 0.00815265 0.0081524 0.00814964 0.00815327 0.00815237 0.00815072 0.00815175 0.00815121 0.00814871 0.00815196 0.00815123 0.00814976 0.00815058 0.00814998 0.00814781 0.00815084 0.00815025 0.00814879 0.00814966 0.0081489 0.00814693 0.00814959 0.00814915 0.00814789 0.00814851 0.00814781 0.0081461 0.00814857 0.00814822 0.00814694 0.00814766 0.00814679 0.0081453 0.00814747 0.00814721 0.00814613 0.00814658 0.00814574 0.00814453 0.00814648 0.00814634 0.00814524 0.00814582 0.00814482 0.00814378 0.00814542 0.00814535 0.00814447 0.00814482 0.00814395 0.0081431 0.00814461 0.0081446 0.00814368 0.00814416 0.00814315 0.0081424 0.00814366 0.00814371 0.00814301 0.00814327 0.00814231 0.0081418 0.00814287 0.00814299 0.00814222 0.00814269 0.00814162 0.00814118 0.00814202 0.00814221 0.00814163 0.00814185 0.00814095 0.00814063 0.0081414 0.00814167 0.008141 0.0081414 0.00814032 0.00814014 0.00814067 0.00814095 0.00814046 0.00814064 0.0081398 0.0081397 0.00814014 0.00814048 0.00813996 0.00814027 0.00813933 0.0081393 0.00813953 0.00813985 0.00813951 0.00813963 0.00813891 0.008139 0.00813914 0.0081395 0.00813908 0.0081394 0.00813855 0.00813867 0.00813864 0.00813902 0.00813873 0.00813876 0.00813831 0.00813842 0.00813838 0.00813873 0.00813837 0.00813861 0.00813813 0.00813818 0.00813809 0.00813839 0.00813818 0.00813817 0.00813792 0.00813797 0.00813792 0.00813806 0.00813799 0.00813793 0.00825266 0.00821713 0.00831975 0.00829247 0.00822382 0.00824267 0.0081798 0.00818198 0.00817562 0.00820131 0.00818413 0.00819069 0.00817672 0.00817321 0.00817572 0.00818168 0.00817343 0.00817688 0.00817438 0.00816951 0.00817564 0.00817498 0.0081695 0.00817187 0.008172 0.0081668 0.00817328 0.00817124 0.00816711 0.00816888 0.00816989 0.00816482 0.00817079 0.00816834 0.00816541 0.00816657 0.00816769 0.00816292 0.00816849 0.00816628 0.00816357 0.00816482 0.00816576 0.00816123 0.00816643 0.0081642 0.0081619 0.0081629 0.00816382 0.00815955 0.00816429 0.00816247 0.00816033 0.00816115 0.00816185 0.00815805 0.00816227 0.00816063 0.00815861 0.00815956 0.00815989 0.00815641 0.00816031 0.00815907 0.00815706 0.00815797 0.00815802 0.00815497 0.00815841 0.00815742 0.0081556 0.0081563 0.00815631 0.00815347 0.00815662 0.00815584 0.00815407 0.00815479 0.0081546 0.00815216 0.00815483 0.00815429 0.00815266 0.00815324 0.00815298 0.00815075 0.00815322 0.00815278 0.00815124 0.00815185 0.00815145 0.00814954 0.00815161 0.00815135 0.00814996 0.00815041 0.00815001 0.00814825 0.00815026 0.00814998 0.00814862 0.00814917 0.00814862 0.0081472 0.00814878 0.00814867 0.00814748 0.00814784 0.00814736 0.00814597 0.00814747 0.00814747 0.00814627 0.00814674 0.00814609 0.00814506 0.00814622 0.00814629 0.00814528 0.00814553 0.00814494 0.00814397 0.00814509 0.00814521 0.0081442 0.00814459 0.00814384 0.00814318 0.00814397 0.00814416 0.00814331 0.00814357 0.00814294 0.00814223 0.00814302 0.0081432 0.00814239 0.00814269 0.00814198 0.00814157 0.008142 0.00814234 0.00814161 0.00814183 0.00814114 0.00814075 0.00814124 0.00814149 0.00814085 0.00814109 0.0081404 0.0081402 0.00814045 0.00814077 0.00814025 0.00814037 0.00813975 0.00813955 0.00813974 0.00814009 0.00813955 0.00813979 0.00813922 0.0081392 0.00813913 0.00813958 0.00813912 0.00813929 0.00813872 0.00813869 0.00813873 0.00813906 0.00813859 0.00813875 0.00813835 0.0081385 0.00813827 0.00813869 0.00813833 0.0081384 0.00813824 0.00813818 0.00813815 0.00813838 0.00813804 0.00813819 0.0081381 0.00813807 0.00813793 0.00813815 0.00813797 0.00813795 0.00808243 0.00802663 0.00803095 0.00798344 0.00805395 0.00802249 0.00808706 0.00807654 0.0080676 0.00805371 0.00807203 0.00806102 0.00809324 0.00808108 0.00809079 0.00807469 0.00807834 0.00807677 0.00809468 0.00808606 0.00809556 0.00808574 0.00808562 0.00808839 0.00809738 0.0080923 0.00809821 0.00809417 0.00809301 0.00809717 0.00810179 0.00809835 0.00810202 0.00810068 0.00809956 0.00810335 0.00810617 0.00810361 0.00810644 0.00810594 0.00810489 0.00810819 0.00811034 0.00810803 0.00811058 0.0081102 0.00810929 0.00811181 0.00811369 0.00811169 0.00811422 0.00811365 0.00811285 0.00811498 0.00811679 0.00811486 0.0081173 0.00811662 0.00811597 0.00811756 0.00811925 0.00811762 0.00811998 0.0081191 0.0081186 0.00812002 0.00812166 0.00812007 0.0081223 0.00812134 0.00812097 0.00812205 0.00812359 0.00812226 0.00812433 0.00812334 0.00812305 0.00812409 0.00812555 0.00812424 0.00812613 0.0081252 0.00812502 0.00812573 0.00812711 0.00812601 0.00812774 0.00812683 0.00812674 0.00812748 0.00812876 0.0081277 0.00812923 0.00812842 0.00812836 0.00812886 0.00812994 0.00812922 0.00813063 0.00812975 0.00812976 0.00813028 0.00813132 0.00813057 0.00813179 0.00813104 0.00813109 0.00813138 0.0081323 0.00813176 0.0081329 0.00813216 0.00813225 0.00813262 0.00813343 0.0081329 0.00813386 0.00813322 0.00813333 0.0081335 0.00813419 0.00813389 0.0081347 0.00813413 0.00813435 0.00813452 0.0081351 0.00813476 0.00813548 0.00813498 0.00813513 0.00813518 0.00813569 0.00813553 0.00813615 0.00813563 0.00813587 0.00813597 0.00813642 0.00813623 0.00813668 0.00813635 0.00813652 0.00813649 0.00813676 0.00813682 0.00813724 0.00813681 0.00813704 0.00813709 0.00813738 0.00813733 0.00813767 0.0081373 0.00813755 0.00813734 0.0081375 0.00813768 0.00813797 0.00813758 0.00813784 0.00813779 0.00813801 0.00813802 0.00813819 0.00813797 0.00813819 0.00813801 0.00813801 0.00813819 0.00813836 0.00813808 0.00813823 0.0081382 0.00813826 0.00813831 0.00813848 0.00813824 0.00813835 0.00813814 0.00813814 0.00813833 0.00813842 0.00813825 0.00813825 0.00813821 0.00813817 0.00813813 0.00813831 0.00813805 0.00813806 0.00813797 0.00810308 0.00808616 0.00806784 0.00806061 0.00805152 0.00806431 0.0081028 0.00809671 0.00807772 0.00807692 0.00808094 0.0080857 0.00810283 0.00809971 0.00809485 0.00809181 0.00809462 0.00809789 0.00810563 0.00810153 0.00810482 0.00810064 0.00810111 0.00810456 0.00810858 0.00810421 0.0081097 0.00810714 0.00810586 0.00810969 0.00811157 0.00810765 0.00811284 0.00811181 0.00810992 0.00811378 0.00811447 0.00811119 0.00811553 0.00811567 0.00811361 0.00811712 0.00811731 0.00811443 0.00811832 0.00811855 0.0081168 0.00811977 0.00811984 0.00811726 0.00812087 0.00812111 0.0081196 0.00812192 0.00812217 0.00811987 0.00812331 0.00812307 0.00812196 0.00812386 0.00812415 0.00812206 0.00812531 0.00812498 0.00812411 0.00812545 0.008126 0.00812408 0.0081272 0.00812648 0.00812588 0.00812703 0.00812749 0.00812578 0.00812866 0.00812799 0.00812751 0.00812835 0.00812898 0.00812746 0.00813011 0.00812923 0.00812897 0.00812968 0.00813016 0.0081288 0.00813125 0.00813053 0.00813031 0.00813079 0.00813136 0.00813016 0.00813241 0.00813152 0.00813144 0.0081319 0.0081323 0.00813124 0.00813331 0.00813259 0.00813256 0.00813276 0.00813328 0.00813241 0.0081342 0.00813336 0.00813347 0.00813368 0.00813404 0.00813325 0.0081349 0.0081343 0.00813433 0.00813442 0.0081348 0.0081342 0.00813564 0.0081349 0.00813508 0.00813514 0.00813537 0.00813491 0.00813614 0.00813561 0.00813578 0.00813573 0.00813603 0.00813564 0.00813674 0.00813607 0.00813636 0.00813631 0.00813642 0.00813613 0.00813707 0.00813662 0.00813687 0.00813673 0.00813695 0.00813675 0.00813752 0.00813695 0.00813727 0.00813715 0.00813718 0.00813707 0.00813777 0.00813738 0.00813764 0.0081374 0.00813756 0.00813753 0.00813808 0.00813764 0.00813792 0.00813772 0.00813769 0.00813771 0.00813814 0.00813788 0.00813811 0.00813785 0.008138 0.00813807 0.0081384 0.00813795 0.00813825 0.00813811 0.00813801 0.00813805 0.00813838 0.00813814 0.00813832 0.00813806 0.00813815 0.00813829 0.00813844 0.00813805 0.00813827 0.00813813 0.00813817 0.00813818 0.00813831 0.00813819 0.00813824 0.00813806 0.00813818 0.00813825 0.00813837 0.00813801 0.0081382 0.00813819 0.0081248 0.00811119 0.00810443 0.00809964 0.00808377 0.00809867 0.00812277 0.00811455 0.00810745 0.00810509 0.00809648 0.00810631 0.00811898 0.00811335 0.00811312 0.00811222 0.00810703 0.00811392 0.0081184 0.00811381 0.008118 0.00811691 0.00811309 0.00811838 0.00811948 0.00811528 0.00812067 0.00812012 0.00811685 0.00812143 0.0081214 0.00811739 0.00812269 0.00812254 0.00811982 0.00812368 0.00812321 0.00811956 0.00812447 0.00812473 0.00812209 0.00812559 0.00812508 0.00812167 0.00812623 0.0081266 0.00812435 0.00812722 0.00812668 0.00812389 0.008128 0.0081281 0.00812624 0.00812864 0.00812832 0.00812552 0.00812958 0.00812953 0.00812798 0.00812986 0.00812958 0.00812733 0.008131 0.00813062 0.00812941 0.00813096 0.00813088 0.00812856 0.00813223 0.00813171 0.00813073 0.00813193 0.00813179 0.00813004 0.00813325 0.00813256 0.00813183 0.00813281 0.00813282 0.00813097 0.00813415 0.00813346 0.00813287 0.00813356 0.00813353 0.00813215 0.00813494 0.0081341 0.00813369 0.00813432 0.00813437 0.00813287 0.00813557 0.00813488 0.00813449 0.00813494 0.00813488 0.00813387 0.00813617 0.00813532 0.00813516 0.00813553 0.00813551 0.0081344 0.00813662 0.00813597 0.0081358 0.00813598 0.0081359 0.00813524 0.00813707 0.00813635 0.0081363 0.00813648 0.00813644 0.00813555 0.00813744 0.00813685 0.00813677 0.00813684 0.0081367 0.0081363 0.00813773 0.00813712 0.00813716 0.00813723 0.00813706 0.00813647 0.00813795 0.00813745 0.00813751 0.00813746 0.00813731 0.00813706 0.00813815 0.00813763 0.00813775 0.00813773 0.0081376 0.00813719 0.00813829 0.00813789 0.00813802 0.00813791 0.00813763 0.00813766 0.00813845 0.00813796 0.00813813 0.00813805 0.00813798 0.00813764 0.00813851 0.00813816 0.00813826 0.00813815 0.00813789 0.00813797 0.00813854 0.00813807 0.00813828 0.00813821 0.0081381 0.00813794 0.00813858 0.00813824 0.00813838 0.00813824 0.00813799 0.00813821 0.00813847 0.00813814 0.00813827 0.00813819 0.00813815 0.00813804 0.00813841 0.00813824 0.00813829 0.00813815 0.00813804 0.00813824 0.00813839 0.00813811 0.00813822 0.00813813 0.00813819 0.00813805 0.00813831 0.00813812 0.0081382 0.00813811 0.00814775 0.00813519 0.00813959 0.0081336 0.0081159 0.00812927 0.00814055 0.00813226 0.00813604 0.00813089 0.00811871 0.00812819 0.00813442 0.00812839 0.00813346 0.00813056 0.00812295 0.00812959 0.00813134 0.0081262 0.00813237 0.00813112 0.00812582 0.00813101 0.00813074 0.00812621 0.00813222 0.0081317 0.00812777 0.00813198 0.00813129 0.00812706 0.00813256 0.00813265 0.00812926 0.00813288 0.00813222 0.00812843 0.00813334 0.00813336 0.00813066 0.00813363 0.00813321 0.0081296 0.00813421 0.00813431 0.0081319 0.00813438 0.00813394 0.00813083 0.00813521 0.00813513 0.00813304 0.0081351 0.00813482 0.0081319 0.00813616 0.00813578 0.00813401 0.00813577 0.00813537 0.00813285 0.00813683 0.00813648 0.00813491 0.00813628 0.00813603 0.00813369 0.00813751 0.00813688 0.00813562 0.00813677 0.00813643 0.00813446 0.00813793 0.00813739 0.00813625 0.00813714 0.00813695 0.00813509 0.00813842 0.00813766 0.00813674 0.00813749 0.00813715 0.00813565 0.00813863 0.00813801 0.00813721 0.00813776 0.00813754 0.00813611 0.00813893 0.00813818 0.00813752 0.00813803 0.0081377 0.00813653 0.00813901 0.00813847 0.00813786 0.0081382 0.00813794 0.00813691 0.00813922 0.00813851 0.00813807 0.00813837 0.00813799 0.00813718 0.0081392 0.00813873 0.00813831 0.00813848 0.00813821 0.00813746 0.00813934 0.00813877 0.00813841 0.00813856 0.00813818 0.00813764 0.00813925 0.00813887 0.00813859 0.00813862 0.00813832 0.00813783 0.0081393 0.00813882 0.0081386 0.00813866 0.00813825 0.00813796 0.00813914 0.0081389 0.00813871 0.00813863 0.00813836 0.00813811 0.00813917 0.00813882 0.00813869 0.00813865 0.00813828 0.00813813 0.00813903 0.00813884 0.00813871 0.00813853 0.00813834 0.00813823 0.00813906 0.00813869 0.00813862 0.00813858 0.0081382 0.00813823 0.00813882 0.00813868 0.00813861 0.00813844 0.00813826 0.0081383 0.0081388 0.00813856 0.00813848 0.00813845 0.00813807 0.00813823 0.00813856 0.00813855 0.00813836 0.00813821 0.00813813 0.00813823 0.00813853 0.00813837 0.00813824 0.00813815 0.00813801 0.00813818 0.00813835 0.0081383 0.00813818 0.00813798 0.0081381 0.00813815 0.00813827 0.00813812 0.00813809 0.00813798 0.00817066 0.00815854 0.00817545 0.0081659 0.00814619 0.00815832 0.00815653 0.00814891 0.00816292 0.00815561 0.00814088 0.00814958 0.00814758 0.00814191 0.00815186 0.00814842 0.00813881 0.00814518 0.00814343 0.00813836 0.00814582 0.00814437 0.00813826 0.008143 0.00814159 0.00813691 0.00814315 0.00814274 0.00813826 0.00814221 0.00814123 0.00813673 0.0081424 0.00814199 0.00813854 0.00814163 0.00814106 0.00813703 0.00814207 0.0081418 0.00813901 0.00814174 0.00814118 0.00813735 0.00814231 0.00814195 0.00813957 0.00814166 0.00814127 0.00813777 0.00814244 0.00814202 0.00813979 0.00814181 0.00814146 0.00813819 0.00814261 0.00814205 0.00814018 0.00814181 0.00814137 0.00813862 0.00814268 0.00814203 0.00814051 0.00814189 0.00814148 0.00813876 0.00814272 0.00814207 0.00814065 0.00814176 0.00814123 0.00813906 0.00814257 0.00814194 0.00814079 0.00814178 0.0081412 0.0081391 0.00814248 0.00814186 0.00814079 0.00814157 0.00814097 0.00813929 0.00814227 0.00814166 0.0081408 0.0081415 0.00814093 0.00813923 0.00814208 0.00814154 0.00814071 0.00814123 0.00814057 0.00813938 0.00814186 0.0081413 0.00814063 0.00814119 0.00814052 0.00813923 0.00814158 0.00814117 0.0081405 0.00814084 0.00814017 0.00813934 0.00814126 0.00814091 0.00814041 0.00814076 0.00814011 0.00813915 0.00814107 0.00814072 0.00814021 0.00814038 0.00813977 0.00813917 0.00814071 0.00814044 0.00814011 0.00814036 0.00813968 0.00813896 0.00814045 0.00814022 0.00813985 0.00814002 0.00813931 0.00813898 0.00814014 0.00813992 0.00813971 0.00813989 0.0081393 0.00813876 0.00813988 0.00813976 0.00813945 0.00813958 0.00813889 0.00813875 0.00813956 0.00813946 0.00813927 0.00813943 0.00813888 0.00813853 0.00813936 0.00813929 0.00813907 0.00813912 0.00813854 0.00813852 0.00813906 0.00813901 0.00813892 0.00813904 0.00813859 0.00813836 0.00813891 0.00813883 0.0081387 0.00813874 0.00813821 0.00813834 0.00813865 0.00813858 0.00813852 0.00813859 0.00813824 0.00813812 0.00813845 0.00813847 0.0081383 0.00813827 0.00813798 0.00813817 0.0081382 0.00813818 0.00813818 0.00813818 0.008138 0.00813799 0.00813803 0.00813798 0.008138 0.00813792 0.00819294 0.00818077 0.00821383 0.00819882 0.00817574 0.0081865 0.00816985 0.00816376 0.0081867 0.00817886 0.00816112 0.00816971 0.00815888 0.00815409 0.00816634 0.00816446 0.00815327 0.00815961 0.00815422 0.00814935 0.00815694 0.00815673 0.00814983 0.0081543 0.00815203 0.00814725 0.0081532 0.00815291 0.00814829 0.00815164 0.00815082 0.00814608 0.00815188 0.00815105 0.00814763 0.00815024 0.00815003 0.00814564 0.00815088 0.00815 0.0081473 0.00814935 0.00814923 0.0081453 0.00815039 0.00814932 0.00814708 0.00814882 0.00814873 0.00814507 0.00814986 0.00814879 0.00814673 0.00814816 0.00814824 0.00814479 0.00814928 0.0081483 0.00814636 0.00814768 0.00814748 0.00814453 0.00814863 0.00814775 0.00814609 0.00814716 0.00814691 0.0081442 0.00814807 0.00814724 0.00814563 0.00814664 0.00814611 0.00814385 0.00814745 0.00814664 0.00814527 0.00814603 0.00814557 0.00814351 0.00814674 0.0081461 0.00814475 0.00814553 0.00814488 0.00814312 0.00814612 0.00814547 0.00814432 0.00814494 0.00814434 0.00814271 0.00814541 0.00814494 0.00814379 0.00814439 0.00814365 0.0081423 0.00814484 0.00814431 0.00814339 0.00814375 0.00814314 0.00814195 0.0081441 0.0081438 0.00814281 0.00814328 0.00814249 0.00814154 0.00814354 0.00814321 0.00814241 0.00814272 0.00814199 0.00814116 0.00814287 0.00814271 0.00814183 0.0081422 0.00814142 0.00814082 0.00814232 0.00814215 0.0081415 0.00814167 0.008141 0.00814042 0.00814174 0.00814167 0.00814098 0.00814124 0.00814045 0.00814011 0.00814125 0.00814114 0.00814066 0.00814077 0.00814012 0.00813977 0.00814063 0.00814076 0.00814015 0.00814038 0.00813961 0.00813947 0.00814032 0.0081403 0.00813986 0.00813989 0.00813937 0.00813919 0.00813982 0.00813994 0.00813945 0.0081396 0.00813891 0.00813893 0.00813943 0.00813952 0.00813917 0.00813917 0.00813876 0.00813875 0.00813902 0.00813922 0.00813882 0.00813894 0.00813837 0.0081385 0.00813883 0.00813887 0.00813858 0.00813853 0.00813826 0.00813836 0.0081384 0.00813862 0.0081383 0.00813835 0.00813799 0.0081382 0.00813834 0.00813838 0.0081381 0.00813797 0.008138 0.00813793 0.00813799 0.00813801 0.00813785 0.00813781 0.00821569 0.008201 0.00825512 0.00823615 0.00820312 0.00821412 0.00817819 0.00817546 0.00820031 0.00819759 0.00817726 0.00818688 0.00816806 0.00816436 0.00817411 0.00817697 0.00816508 0.00817176 0.00816457 0.00815956 0.00816594 0.00816729 0.00816011 0.00816439 0.00816214 0.00815718 0.00816289 0.00816244 0.00815782 0.00816081 0.00816047 0.00815544 0.00816126 0.00815975 0.00815663 0.00815847 0.00815892 0.00815418 0.00815991 0.00815805 0.00815531 0.00815709 0.00815753 0.00815318 0.00815847 0.0081567 0.00815455 0.00815578 0.00815613 0.00815227 0.0081571 0.00815558 0.00815351 0.00815475 0.0081549 0.00815137 0.00815579 0.00815432 0.00815268 0.00815365 0.00815353 0.00815036 0.0081545 0.00815343 0.0081517 0.00815265 0.0081524 0.00814956 0.0081533 0.00815218 0.00815069 0.00815159 0.00815106 0.00814857 0.00815199 0.00815125 0.00814978 0.00815053 0.00815003 0.00814785 0.00815086 0.00815006 0.00814879 0.00814948 0.00814876 0.00814679 0.00814963 0.00814914 0.0081479 0.00814853 0.00814785 0.00814613 0.00814861 0.00814804 0.00814696 0.00814748 0.00814667 0.00814519 0.00814746 0.00814716 0.00814612 0.00814657 0.00814581 0.00814458 0.00814653 0.00814612 0.00814524 0.00814564 0.00814474 0.00814369 0.00814548 0.00814535 0.0081445 0.00814485 0.00814399 0.00814311 0.00814462 0.00814438 0.00814363 0.00814394 0.008143 0.00814234 0.00814364 0.00814369 0.00814297 0.00814323 0.00814236 0.00814181 0.00814291 0.0081428 0.00814222 0.00814248 0.00814154 0.00814111 0.00814199 0.00814222 0.00814162 0.00814185 0.00814098 0.00814069 0.00814135 0.00814141 0.00814096 0.00814118 0.00814023 0.00814003 0.00814066 0.00814091 0.00814045 0.00814058 0.00813986 0.00813975 0.00814016 0.00814024 0.00813989 0.00814006 0.0081392 0.00813919 0.00813947 0.00813978 0.00813948 0.00813955 0.00813899 0.00813906 0.00813909 0.00813927 0.00813905 0.00813913 0.00813847 0.00813856 0.00813864 0.00813898 0.00813868 0.00813872 0.00813834 0.00813851 0.00813844 0.00813851 0.00813837 0.00813836 0.00813802 0.00813817 0.00813809 0.00813831 0.00813813 0.00813811 0.00813794 0.00813799 0.00813793 0.00813785 0.00813786 0.00813778 0.00825588 0.0082207 0.00832257 0.00829424 0.00822494 0.00824345 0.00818258 0.00818346 0.00817814 0.00820395 0.00818628 0.00819437 0.0081784 0.00817373 0.00817702 0.00818342 0.00817469 0.00817876 0.00817545 0.00816966 0.00817652 0.0081758 0.00817015 0.00817275 0.0081727 0.00816695 0.00817398 0.0081717 0.00816746 0.00816931 0.0081701 0.00816484 0.00817123 0.00816867 0.00816536 0.00816693 0.00816804 0.00816288 0.00816874 0.00816635 0.00816368 0.00816478 0.00816587 0.00816114 0.00816653 0.00816435 0.00816195 0.00816277 0.00816378 0.00815961 0.0081643 0.00816249 0.00816031 0.00816109 0.00816165 0.00815784 0.00816216 0.00816087 0.0081587 0.00815957 0.00815981 0.00815634 0.00816027 0.00815916 0.00815706 0.00815781 0.00815792 0.00815489 0.00815845 0.00815746 0.00815558 0.00815621 0.00815619 0.00815341 0.00815654 0.00815587 0.00815404 0.00815465 0.00815451 0.00815204 0.00815491 0.00815431 0.00815263 0.00815314 0.00815291 0.00815072 0.00815321 0.00815277 0.00815123 0.00815168 0.00815136 0.00814942 0.00815169 0.00815138 0.00814992 0.00815029 0.00814988 0.00814825 0.0081502 0.00814997 0.00814862 0.00814896 0.00814853 0.00814711 0.00814886 0.00814872 0.00814745 0.00814774 0.00814725 0.00814603 0.00814747 0.00814746 0.00814626 0.00814658 0.00814601 0.00814495 0.00814632 0.00814634 0.00814521 0.00814542 0.00814487 0.008144 0.00814507 0.00814519 0.00814418 0.00814438 0.00814377 0.00814307 0.00814398 0.00814416 0.00814325 0.00814345 0.00814279 0.00814224 0.00814296 0.0081432 0.00814237 0.00814248 0.00814189 0.00814146 0.00814206 0.00814233 0.00814157 0.00814167 0.008141 0.00814073 0.00814113 0.0081415 0.00814078 0.00814088 0.00814029 0.00814013 0.00814046 0.00814076 0.00814015 0.00814024 0.00813964 0.00813954 0.0081397 0.00814008 0.00813949 0.00813957 0.00813908 0.00813911 0.00813919 0.0081395 0.00813904 0.00813912 0.0081386 0.0081387 0.00813865 0.00813902 0.00813856 0.00813856 0.00813828 0.00813841 0.00813832 0.00813866 0.00813824 0.0081383 0.00813804 0.00813818 0.0081381 0.00813835 0.008138 0.008138 0.00813802 0.008138 0.00813809 0.0081381 0.00813782 0.00813789 0.00808134 0.00802479 0.00803166 0.00798479 0.00805236 0.00802174 0.00808691 0.00807759 0.00806701 0.00805332 0.00807151 0.0080605 0.00809397 0.00808291 0.00809062 0.00807492 0.00807808 0.00807658 0.00809495 0.00808746 0.00809545 0.00808666 0.00808551 0.00808843 0.0080976 0.00809309 0.00809844 0.00809514 0.00809308 0.00809716 0.00810172 0.0080988 0.00810229 0.00810153 0.00809969 0.00810336 0.00810603 0.00810386 0.00810682 0.00810667 0.00810529 0.00810829 0.00811017 0.00810816 0.00811095 0.00811073 0.00810957 0.00811192 0.00811362 0.00811181 0.00811464 0.00811404 0.00811325 0.00811516 0.00811678 0.00811494 0.00811765 0.00811686 0.00811618 0.0081177 0.00811934 0.0081177 0.00812032 0.00811933 0.00811894 0.00812021 0.00812173 0.00812017 0.00812254 0.00812156 0.00812112 0.00812219 0.00812373 0.00812238 0.00812459 0.00812354 0.00812332 0.00812423 0.00812561 0.00812435 0.00812632 0.00812533 0.00812513 0.00812589 0.00812722 0.00812613 0.00812797 0.008127 0.00812696 0.0081276 0.00812883 0.00812776 0.00812942 0.00812855 0.00812843 0.00812895 0.00813009 0.00812926 0.00813081 0.0081299 0.00812998 0.00813039 0.00813135 0.00813062 0.00813198 0.00813118 0.00813114 0.00813152 0.0081324 0.00813187 0.00813304 0.00813229 0.00813247 0.00813274 0.00813345 0.00813296 0.00813401 0.0081333 0.00813337 0.00813355 0.00813425 0.00813392 0.00813489 0.00813427 0.00813446 0.00813461 0.00813513 0.00813477 0.00813559 0.00813502 0.00813517 0.00813524 0.00813573 0.00813558 0.00813627 0.00813573 0.00813598 0.00813606 0.00813639 0.00813623 0.00813679 0.00813639 0.00813654 0.00813654 0.00813685 0.00813681 0.00813735 0.00813689 0.00813716 0.00813714 0.00813735 0.0081373 0.00813773 0.00813739 0.0081375 0.00813744 0.00813759 0.00813771 0.00813804 0.0081377 0.00813795 0.00813787 0.00813799 0.00813801 0.00813828 0.00813801 0.00813814 0.00813807 0.00813805 0.0081382 0.00813842 0.0081382 0.00813835 0.00813821 0.00813828 0.0081383 0.00813851 0.00813831 0.00813829 0.00813817 0.00813818 0.00813831 0.00813849 0.00813829 0.00813833 0.00813821 0.00813814 0.0081381 0.00813838 0.00813816 0.00813804 0.00813803 0.00810313 0.00808602 0.00806844 0.00806058 0.00805174 0.00806352 0.00810326 0.00809796 0.00807753 0.00807695 0.0080808 0.00808559 0.00810316 0.00810113 0.00809416 0.00809232 0.00809417 0.00809788 0.00810568 0.00810257 0.00810435 0.00810162 0.00810078 0.00810487 0.00810846 0.00810476 0.00810965 0.00810807 0.00810579 0.00810989 0.0081112 0.00810784 0.00811297 0.00811273 0.00811012 0.00811409 0.00811416 0.00811106 0.00811592 0.00811642 0.00811401 0.00811738 0.00811703 0.00811429 0.00811877 0.0081191 0.00811721 0.00812009 0.00811974 0.00811714 0.00812128 0.00812146 0.00812001 0.00812212 0.00812202 0.00811975 0.00812366 0.00812337 0.00812232 0.00812418 0.00812418 0.00812195 0.00812556 0.00812517 0.00812441 0.00812571 0.00812596 0.00812404 0.00812743 0.0081267 0.00812613 0.00812733 0.00812763 0.00812577 0.00812885 0.00812815 0.0081278 0.0081286 0.00812899 0.00812746 0.0081303 0.00812937 0.00812918 0.00813001 0.00813031 0.00812883 0.0081314 0.00813063 0.00813049 0.00813098 0.00813139 0.00813015 0.00813258 0.00813168 0.00813161 0.00813215 0.00813244 0.00813127 0.00813342 0.0081327 0.00813273 0.00813299 0.00813326 0.00813238 0.00813437 0.00813348 0.00813359 0.00813396 0.00813414 0.00813326 0.00813496 0.00813435 0.0081345 0.00813459 0.00813478 0.00813415 0.00813575 0.008135 0.00813518 0.00813541 0.00813551 0.00813484 0.00813621 0.00813569 0.00813595 0.00813588 0.00813598 0.00813556 0.0081368 0.00813616 0.00813642 0.00813656 0.00813651 0.00813612 0.00813715 0.00813668 0.00813696 0.00813687 0.00813686 0.00813663 0.00813761 0.00813704 0.00813736 0.00813742 0.0081373 0.00813699 0.00813776 0.00813742 0.00813776 0.00813759 0.00813752 0.0081374 0.00813818 0.00813765 0.00813796 0.00813799 0.00813781 0.00813762 0.0081382 0.00813787 0.00813821 0.00813801 0.00813791 0.00813796 0.00813846 0.00813802 0.00813828 0.00813833 0.00813807 0.008138 0.00813837 0.00813813 0.00813837 0.00813817 0.00813808 0.00813816 0.00813844 0.00813815 0.00813834 0.00813833 0.00813815 0.00813809 0.00813837 0.00813822 0.00813833 0.00813822 0.00813811 0.00813817 0.00813841 0.00813809 0.00813831 0.00813844 0.0081255 0.00811138 0.00810459 0.00809958 0.00808386 0.00809857 0.00812327 0.0081157 0.00810696 0.00810513 0.00809602 0.00810622 0.00811937 0.00811451 0.00811253 0.00811271 0.00810653 0.00811378 0.00811829 0.00811445 0.00811737 0.00811785 0.00811285 0.00811861 0.00811924 0.00811568 0.00812043 0.00812097 0.00811707 0.00812161 0.00812091 0.00811727 0.00812274 0.00812347 0.00812002 0.00812393 0.00812284 0.00811948 0.00812475 0.00812542 0.00812265 0.00812595 0.00812483 0.00812172 0.00812652 0.00812702 0.00812484 0.0081274 0.00812655 0.00812381 0.00812829 0.00812853 0.00812668 0.00812896 0.00812818 0.00812562 0.00812981 0.00812981 0.00812833 0.00813002 0.00812959 0.00812735 0.00813118 0.00813086 0.00812978 0.00813131 0.00813089 0.00812873 0.0081324 0.00813194 0.008131 0.00813211 0.00813188 0.00813007 0.0081334 0.00813276 0.00813211 0.00813314 0.00813284 0.00813118 0.00813429 0.00813365 0.00813308 0.00813377 0.00813363 0.00813223 0.00813501 0.00813424 0.00813391 0.00813468 0.00813441 0.00813307 0.00813567 0.008135 0.00813468 0.0081351 0.00813498 0.00813391 0.00813625 0.0081355 0.00813533 0.00813582 0.00813557 0.00813457 0.00813672 0.0081361 0.00813596 0.00813615 0.00813602 0.00813525 0.00813709 0.00813646 0.00813644 0.00813677 0.00813648 0.00813574 0.00813745 0.00813694 0.00813693 0.00813695 0.00813681 0.00813629 0.00813775 0.0081372 0.0081373 0.00813749 0.00813712 0.00813664 0.00813797 0.00813753 0.00813761 0.0081376 0.00813739 0.00813702 0.00813813 0.0081377 0.00813786 0.00813798 0.00813763 0.00813731 0.00813827 0.00813798 0.00813807 0.00813798 0.00813772 0.00813761 0.0081384 0.00813802 0.00813821 0.00813832 0.00813797 0.00813779 0.00813852 0.00813825 0.00813836 0.00813822 0.00813796 0.00813795 0.00813854 0.00813816 0.0081384 0.00813847 0.0081381 0.00813804 0.00813852 0.00813836 0.00813844 0.00813832 0.00813808 0.00813816 0.00813845 0.00813827 0.00813837 0.00813843 0.00813809 0.00813811 0.00813847 0.00813829 0.0081384 0.00813825 0.00813806 0.0081382 0.00813836 0.0081382 0.00813827 0.00813838 0.0081381 0.00813816 0.00813829 0.00813816 0.00813834 0.00813824 0.00814895 0.00813576 0.00813938 0.00813377 0.0081156 0.00812955 0.00814106 0.00813304 0.00813557 0.0081311 0.00811816 0.00812863 0.00813458 0.00812911 0.00813287 0.00813107 0.00812242 0.00812995 0.0081314 0.00812676 0.00813215 0.00813168 0.00812577 0.00813125 0.00813047 0.00812632 0.00813215 0.00813253 0.00812794 0.00813228 0.0081311 0.00812711 0.00813276 0.00813311 0.00812968 0.00813303 0.00813186 0.00812817 0.00813355 0.00813392 0.00813101 0.00813398 0.00813287 0.00812961 0.00813446 0.00813456 0.00813229 0.00813467 0.00813385 0.00813079 0.0081354 0.00813536 0.00813342 0.00813551 0.00813461 0.00813192 0.00813625 0.00813602 0.00813434 0.00813604 0.00813549 0.0081329 0.00813696 0.00813657 0.0081352 0.00813664 0.00813593 0.0081338 0.00813756 0.00813704 0.00813589 0.00813708 0.00813661 0.0081345 0.00813798 0.00813744 0.00813651 0.00813749 0.00813688 0.00813522 0.00813839 0.00813775 0.00813694 0.0081378 0.00813736 0.00813571 0.00813864 0.00813805 0.00813738 0.00813814 0.0081375 0.00813623 0.0081389 0.00813828 0.00813771 0.00813831 0.0081379 0.00813658 0.00813903 0.00813849 0.00813803 0.0081385 0.00813791 0.00813698 0.00813916 0.00813862 0.00813822 0.00813865 0.00813821 0.0081372 0.00813918 0.00813871 0.00813848 0.00813878 0.00813815 0.00813752 0.00813926 0.0081388 0.00813852 0.0081388 0.0081384 0.00813768 0.00813924 0.00813886 0.00813875 0.00813892 0.00813824 0.00813787 0.0081392 0.00813886 0.00813873 0.0081389 0.00813849 0.00813798 0.00813909 0.00813889 0.00813885 0.00813895 0.00813831 0.00813813 0.0081391 0.00813881 0.00813877 0.00813893 0.00813842 0.00813814 0.00813898 0.00813878 0.0081388 0.00813886 0.00813827 0.00813827 0.00813893 0.00813873 0.0081387 0.00813874 0.00813837 0.00813819 0.00813872 0.00813864 0.00813869 0.00813869 0.00813818 0.00813827 0.0081387 0.00813858 0.00813859 0.00813863 0.00813829 0.00813817 0.00813852 0.0081385 0.00813847 0.00813846 0.00813804 0.00813821 0.00813841 0.00813837 0.00813832 0.00813837 0.00813816 0.00813812 0.00813822 0.00813826 0.00813829 0.00813829 0.00813803 0.00813818 0.00813812 0.00813806 0.00813822 0.00813818 0.00817203 0.00815906 0.008175 0.00816646 0.00814565 0.00815879 0.00815709 0.00814926 0.0081623 0.00815607 0.00814032 0.00815029 0.00814793 0.00814234 0.00815155 0.0081486 0.00813869 0.00814556 0.00814331 0.00813842 0.00814566 0.00814476 0.00813824 0.00814341 0.00814156 0.00813703 0.00814319 0.00814295 0.00813862 0.00814226 0.00814101 0.00813662 0.00814235 0.00814245 0.00813882 0.00814188 0.008141 0.00813703 0.00814226 0.00814201 0.00813945 0.00814176 0.00814113 0.00813747 0.00814247 0.00814212 0.00813981 0.00814185 0.00814127 0.00813788 0.00814268 0.00814216 0.00814021 0.00814187 0.0081414 0.00813834 0.00814266 0.00814223 0.00814052 0.00814191 0.00814135 0.00813861 0.00814275 0.00814228 0.00814067 0.00814206 0.00814144 0.00813902 0.00814281 0.00814222 0.00814087 0.0081419 0.00814125 0.00813911 0.0081428 0.00814219 0.00814088 0.00814198 0.00814122 0.00813934 0.00814256 0.00814199 0.00814094 0.00814171 0.00814097 0.00813932 0.00814243 0.00814188 0.00814089 0.0081417 0.00814095 0.00813946 0.00814216 0.00814166 0.00814085 0.00814139 0.00814067 0.0081394 0.00814201 0.00814154 0.00814076 0.0081413 0.00814053 0.00813943 0.00814162 0.00814123 0.0081406 0.00814098 0.00814023 0.00813931 0.00814144 0.00814106 0.00814047 0.00814093 0.00814014 0.00813932 0.00814111 0.00814078 0.00814029 0.00814055 0.00813975 0.00813915 0.00814085 0.00814064 0.00814016 0.00814045 0.00813964 0.00813913 0.00814044 0.00814028 0.00813996 0.00814015 0.00813933 0.00813895 0.00814025 0.00814012 0.00813975 0.00814001 0.00813921 0.00813895 0.00813986 0.00813981 0.00813955 0.00813963 0.00813891 0.00813875 0.00813966 0.0081396 0.00813937 0.00813953 0.00813888 0.00813871 0.00813936 0.00813932 0.00813917 0.00813921 0.00813851 0.00813851 0.00813914 0.00813918 0.00813897 0.00813907 0.00813855 0.00813847 0.00813888 0.00813888 0.0081388 0.00813882 0.00813822 0.00813824 0.00813875 0.00813875 0.00813858 0.00813865 0.00813815 0.00813824 0.00813843 0.00813853 0.00813838 0.00813838 0.00813801 0.00813805 0.00813833 0.00813837 0.00813822 0.00813829 0.00813801 0.00813807 0.00813802 0.00813799 0.00813809 0.00813801 0.00819428 0.00818151 0.00821322 0.00819976 0.0081749 0.00818712 0.00817019 0.00816381 0.00818617 0.00817941 0.00816073 0.00817075 0.00815887 0.008154 0.0081663 0.00816461 0.00815327 0.00816044 0.0081542 0.00814942 0.00815689 0.00815667 0.00815007 0.00815468 0.00815198 0.00814714 0.0081533 0.00815309 0.00814855 0.008152 0.00815091 0.00814625 0.00815202 0.00815114 0.00814794 0.00815027 0.00814987 0.00814571 0.00815106 0.0081502 0.00814752 0.00814959 0.00814938 0.00814543 0.00815054 0.00814939 0.00814728 0.00814887 0.0081487 0.00814516 0.00814986 0.00814899 0.00814697 0.00814837 0.00814821 0.00814491 0.00814941 0.00814832 0.00814658 0.00814791 0.00814756 0.00814455 0.00814877 0.00814786 0.00814625 0.00814744 0.00814691 0.00814421 0.0081481 0.00814731 0.00814586 0.00814682 0.0081462 0.00814387 0.00814752 0.00814671 0.0081454 0.00814632 0.00814569 0.00814353 0.00814676 0.00814615 0.008145 0.00814572 0.00814499 0.00814312 0.00814617 0.00814552 0.00814443 0.00814517 0.00814443 0.00814275 0.00814544 0.00814496 0.008144 0.00814452 0.00814378 0.00814229 0.00814484 0.00814435 0.00814348 0.00814403 0.0081432 0.00814198 0.00814411 0.00814378 0.00814301 0.00814339 0.00814259 0.00814153 0.00814355 0.0081432 0.00814251 0.00814295 0.00814213 0.00814118 0.00814286 0.00814268 0.00814202 0.00814232 0.00814151 0.00814078 0.00814238 0.00814211 0.00814157 0.00814193 0.00814105 0.00814041 0.00814173 0.00814161 0.00814116 0.00814138 0.00814055 0.00814005 0.00814121 0.00814112 0.00814071 0.00814103 0.00814016 0.00813976 0.00814066 0.0081407 0.0081403 0.00814052 0.00813969 0.00813941 0.00814022 0.00814023 0.00813992 0.00814011 0.00813943 0.00813922 0.00813978 0.00813988 0.00813954 0.0081397 0.00813901 0.00813885 0.00813941 0.00813943 0.00813924 0.00813939 0.00813882 0.00813872 0.008139 0.00813914 0.00813897 0.00813907 0.00813844 0.00813845 0.00813875 0.00813883 0.00813862 0.00813874 0.00813836 0.00813829 0.00813843 0.00813859 0.00813841 0.00813843 0.00813812 0.00813808 0.00813825 0.0081383 0.00813814 0.00813819 0.008138 0.00813797 0.00813794 0.00813794 0.00813797 0.00813787 0.00821694 0.00820182 0.00825479 0.00823753 0.00820243 0.00821461 0.00817847 0.00817524 0.0082001 0.00819836 0.00817727 0.0081882 0.00816802 0.00816393 0.00817428 0.00817694 0.00816553 0.00817269 0.00816455 0.00815955 0.008166 0.00816722 0.00816052 0.00816479 0.00816234 0.00815702 0.00816315 0.00816238 0.00815799 0.00816096 0.00816052 0.00815544 0.0081614 0.00815975 0.00815677 0.00815861 0.00815911 0.00815421 0.0081599 0.00815816 0.00815562 0.00815733 0.00815765 0.0081533 0.00815851 0.00815686 0.0081548 0.00815591 0.00815622 0.00815234 0.00815714 0.00815569 0.00815376 0.00815484 0.00815481 0.0081513 0.0081559 0.00815464 0.00815273 0.00815391 0.00815362 0.00815038 0.00815464 0.00815366 0.00815172 0.00815274 0.00815234 0.00814958 0.00815344 0.00815249 0.00815075 0.00815181 0.00815111 0.00814862 0.00815216 0.00815146 0.00814977 0.00815066 0.00814996 0.0081478 0.00815094 0.00815036 0.00814881 0.00814969 0.00814886 0.00814689 0.00814979 0.00814931 0.00814788 0.0081486 0.00814777 0.00814613 0.00814868 0.00814831 0.00814697 0.00814773 0.00814676 0.00814526 0.00814763 0.00814735 0.00814614 0.00814668 0.00814575 0.00814454 0.0081466 0.00814638 0.00814524 0.00814583 0.00814487 0.00814376 0.00814556 0.00814548 0.00814444 0.00814493 0.00814392 0.00814311 0.00814468 0.00814459 0.00814363 0.00814416 0.00814314 0.00814239 0.0081438 0.00814381 0.00814296 0.00814331 0.00814233 0.00814178 0.00814293 0.00814303 0.00814222 0.00814265 0.00814167 0.00814116 0.0081421 0.00814233 0.00814159 0.00814193 0.00814093 0.00814066 0.00814144 0.00814164 0.00814095 0.00814134 0.00814034 0.00814006 0.00814078 0.00814103 0.00814042 0.00814068 0.00813977 0.00813969 0.00814021 0.00814046 0.00813983 0.00814019 0.00813925 0.00813922 0.00813961 0.00813992 0.00813944 0.00813963 0.00813889 0.00813892 0.00813915 0.00813946 0.00813899 0.00813931 0.00813855 0.00813855 0.00813876 0.00813906 0.00813863 0.00813876 0.00813827 0.00813836 0.00813842 0.0081387 0.00813834 0.00813853 0.00813809 0.00813809 0.0081382 0.00813843 0.0081381 0.00813816 0.00813789 0.0081379 0.00813797 0.00813804 0.00813786 0.00813791 0.00825643 0.00822146 0.0083223 0.00829468 0.00822486 0.00824382 0.00818352 0.00818275 0.00817861 0.00820463 0.00818657 0.0081956 0.00817893 0.00817315 0.0081772 0.00818351 0.00817507 0.00817975 0.00817587 0.00816943 0.00817672 0.00817559 0.00817036 0.0081731 0.00817303 0.00816694 0.00817396 0.00817145 0.0081676 0.00816962 0.00817044 0.00816484 0.00817122 0.00816856 0.00816565 0.00816702 0.00816807 0.00816286 0.00816866 0.00816641 0.00816377 0.00816501 0.00816599 0.00816123 0.00816647 0.00816442 0.00816213 0.00816304 0.00816374 0.00815947 0.00816426 0.00816273 0.00816036 0.0081614 0.00816186 0.00815795 0.00816232 0.00816079 0.00815878 0.00815967 0.00816001 0.00815636 0.00816036 0.00815917 0.00815722 0.00815799 0.00815815 0.00815498 0.00815847 0.00815738 0.00815566 0.00815638 0.00815637 0.00815342 0.00815664 0.00815592 0.00815419 0.00815487 0.00815464 0.00815213 0.00815489 0.00815434 0.00815274 0.00815335 0.00815308 0.00815068 0.00815335 0.00815285 0.00815137 0.00815193 0.00815149 0.0081495 0.00815167 0.00815138 0.00815007 0.00815049 0.00815007 0.00814825 0.00815036 0.00815004 0.00814877 0.00814921 0.00814867 0.00814716 0.00814883 0.0081487 0.00814755 0.0081479 0.0081474 0.00814598 0.00814756 0.0081475 0.0081464 0.00814676 0.00814613 0.00814504 0.00814628 0.00814627 0.00814532 0.00814557 0.00814501 0.00814397 0.00814513 0.00814523 0.00814434 0.00814458 0.00814388 0.00814316 0.00814399 0.00814412 0.00814336 0.00814357 0.00814296 0.0081422 0.00814301 0.0081432 0.00814249 0.00814271 0.00814199 0.00814153 0.008142 0.00814232 0.00814167 0.00814178 0.0081412 0.00814071 0.00814121 0.00814147 0.00814088 0.00814108 0.00814039 0.00814016 0.0081404 0.00814071 0.00814022 0.00814034 0.00813975 0.00813949 0.00813981 0.00814009 0.00813958 0.00813973 0.00813918 0.00813919 0.00813911 0.00813948 0.00813915 0.00813922 0.00813874 0.00813864 0.00813868 0.00813902 0.00813868 0.00813875 0.00813836 0.00813845 0.00813824 0.00813862 0.00813833 0.00813838 0.00813825 0.00813811 0.00813813 0.0081383 0.00813814 0.00813821 0.00813812 0.00813804 0.00813797 0.00813806 0.00813795 0.00813796 0.00808302 0.00802741 0.0080346 0.00799067 0.00805288 0.00802453 0.00808918 0.00808169 0.00806896 0.00805597 0.00807249 0.00806271 0.00809598 0.00808654 0.00809186 0.00807808 0.00807949 0.00807888 0.00809663 0.0080904 0.0080968 0.00809 0.00808717 0.00809036 0.00809867 0.00809538 0.00809951 0.00809771 0.00809469 0.00809854 0.00810244 0.00810017 0.00810333 0.00810341 0.00810104 0.0081043 0.00810648 0.00810468 0.00810755 0.00810793 0.00810612 0.00810883 0.00811045 0.00810863 0.00811153 0.00811139 0.00811032 0.00811222 0.00811388 0.00811219 0.00811499 0.00811428 0.00811368 0.00811531 0.008117 0.00811514 0.00811794 0.00811702 0.0081166 0.00811783 0.00811953 0.00811795 0.00812046 0.00811931 0.00811912 0.00812027 0.00812194 0.00812028 0.00812269 0.00812157 0.00812142 0.00812228 0.00812388 0.00812253 0.00812463 0.00812338 0.00812344 0.00812428 0.0081258 0.00812441 0.0081264 0.0081253 0.00812535 0.00812593 0.00812735 0.00812629 0.00812796 0.00812683 0.00812706 0.00812767 0.00812899 0.00812784 0.00812944 0.00812847 0.00812865 0.008129 0.00813022 0.00812941 0.00813076 0.00812973 0.00813001 0.00813044 0.0081315 0.00813065 0.00813194 0.00813107 0.00813133 0.00813153 0.00813249 0.00813197 0.00813299 0.00813212 0.00813247 0.00813275 0.00813357 0.00813297 0.00813398 0.00813322 0.00813349 0.00813363 0.00813436 0.00813404 0.00813479 0.00813403 0.00813447 0.00813461 0.00813518 0.00813482 0.00813555 0.00813493 0.00813527 0.00813527 0.00813575 0.00813566 0.00813616 0.00813557 0.00813596 0.00813606 0.00813647 0.00813624 0.00813674 0.00813631 0.00813669 0.00813655 0.0081369 0.00813691 0.00813722 0.00813669 0.00813715 0.00813712 0.00813741 0.00813721 0.00813766 0.00813731 0.0081376 0.00813746 0.00813765 0.00813773 0.00813793 0.00813747 0.00813796 0.00813785 0.00813805 0.00813796 0.00813823 0.00813786 0.0081382 0.00813805 0.00813809 0.00813824 0.00813836 0.00813799 0.00813832 0.00813821 0.00813829 0.00813833 0.00813843 0.00813818 0.00813841 0.00813822 0.0081382 0.00813834 0.00813843 0.00813811 0.00813832 0.00813829 0.00813824 0.00813808 0.00813827 0.00813809 0.0081382 0.00813813 0.00810453 0.00808807 0.00806986 0.00806219 0.00805354 0.00806484 0.00810495 0.00810163 0.00807899 0.00807893 0.00808224 0.00808736 0.00810461 0.00810415 0.00809537 0.00809517 0.00809533 0.00809978 0.0081068 0.00810466 0.00810522 0.00810463 0.00810193 0.00810647 0.00810915 0.0081061 0.00811042 0.00811071 0.00810681 0.00811122 0.00811185 0.00810851 0.00811376 0.00811467 0.00811113 0.00811487 0.00811454 0.00811169 0.00811652 0.00811761 0.00811479 0.00811793 0.00811738 0.00811474 0.00811926 0.0081198 0.00811792 0.00812027 0.00811995 0.00811747 0.0081217 0.00812184 0.00812048 0.0081223 0.00812234 0.00812007 0.00812392 0.00812359 0.00812273 0.00812415 0.00812441 0.00812227 0.00812588 0.00812532 0.00812465 0.00812576 0.00812624 0.00812428 0.0081276 0.00812672 0.00812641 0.00812729 0.0081278 0.00812601 0.00812904 0.0081282 0.0081279 0.0081286 0.00812923 0.00812763 0.00813038 0.00812943 0.00812934 0.00812988 0.00813046 0.008129 0.00813152 0.00813067 0.00813058 0.00813101 0.00813163 0.00813032 0.0081326 0.00813167 0.00813175 0.00813205 0.00813256 0.00813141 0.00813353 0.0081327 0.00813277 0.00813296 0.00813345 0.00813248 0.00813436 0.00813352 0.00813375 0.00813382 0.00813426 0.00813337 0.00813509 0.00813437 0.0081345 0.0081346 0.00813498 0.00813422 0.00813574 0.00813499 0.00813527 0.00813526 0.00813559 0.00813494 0.00813629 0.0081357 0.0081359 0.00813586 0.00813617 0.00813557 0.0081368 0.00813613 0.00813652 0.00813639 0.0081366 0.00813612 0.00813717 0.00813665 0.00813694 0.00813683 0.00813706 0.00813669 0.00813755 0.00813702 0.00813742 0.00813726 0.0081373 0.00813703 0.00813783 0.00813739 0.00813769 0.00813751 0.00813769 0.00813742 0.00813813 0.00813762 0.00813802 0.00813777 0.00813782 0.00813769 0.00813822 0.00813785 0.00813819 0.00813795 0.00813801 0.00813793 0.0081384 0.00813799 0.00813838 0.00813814 0.00813808 0.00813802 0.00813839 0.00813815 0.00813836 0.00813806 0.00813815 0.00813814 0.00813842 0.00813814 0.00813841 0.00813816 0.00813815 0.00813815 0.00813839 0.00813821 0.00813827 0.00813815 0.00813826 0.00813811 0.00813831 0.00813807 0.00813823 0.00813826 0.00812639 0.0081128 0.00810505 0.00810047 0.00808439 0.00809955 0.00812415 0.00811827 0.00810749 0.00810622 0.008097 0.00810739 0.00812013 0.00811671 0.00811303 0.00811454 0.00810762 0.00811517 0.00811894 0.00811606 0.0081181 0.00811986 0.00811386 0.0081199 0.0081196 0.00811659 0.00812112 0.00812293 0.00811796 0.00812274 0.00812139 0.00811804 0.00812349 0.00812474 0.00812086 0.00812461 0.00812319 0.00811996 0.00812527 0.00812625 0.00812334 0.00812634 0.00812519 0.00812214 0.00812707 0.00812755 0.00812537 0.00812768 0.00812686 0.0081242 0.00812873 0.00812883 0.00812702 0.00812912 0.00812857 0.00812597 0.00813017 0.00813 0.00812869 0.00813025 0.00812989 0.00812771 0.0081315 0.00813091 0.00812996 0.00813131 0.00813119 0.00812907 0.00813263 0.00813197 0.00813123 0.00813222 0.00813217 0.00813039 0.00813356 0.00813271 0.00813217 0.00813316 0.00813321 0.00813142 0.0081344 0.00813362 0.00813323 0.00813389 0.00813388 0.00813247 0.00813513 0.00813423 0.00813394 0.00813462 0.00813472 0.00813327 0.00813576 0.00813495 0.00813479 0.00813518 0.00813521 0.00813409 0.00813633 0.00813543 0.00813534 0.00813578 0.00813581 0.0081347 0.0081368 0.00813604 0.00813605 0.00813621 0.00813619 0.00813537 0.00813716 0.00813638 0.00813648 0.0081367 0.00813671 0.00813587 0.00813749 0.00813687 0.00813694 0.00813697 0.00813691 0.0081364 0.00813783 0.00813705 0.00813726 0.0081374 0.00813734 0.00813672 0.00813799 0.00813745 0.00813761 0.00813759 0.00813752 0.00813715 0.00813817 0.00813756 0.0081378 0.00813784 0.00813781 0.00813734 0.00813829 0.00813788 0.00813812 0.00813796 0.00813784 0.00813768 0.0081384 0.00813788 0.0081382 0.00813817 0.00813814 0.00813776 0.00813849 0.0081381 0.00813839 0.0081382 0.00813808 0.00813801 0.0081385 0.008138 0.00813836 0.00813834 0.00813829 0.00813804 0.00813853 0.00813816 0.00813849 0.00813827 0.00813813 0.0081382 0.00813849 0.00813809 0.00813834 0.00813825 0.00813827 0.00813815 0.00813844 0.00813822 0.00813837 0.00813815 0.00813809 0.00813822 0.0081384 0.00813802 0.00813828 0.00813821 0.00813822 0.00813819 0.00813828 0.00813807 0.0081383 0.00813821 0.00814938 0.00813624 0.00813921 0.00813464 0.00811535 0.00813017 0.00814127 0.00813413 0.00813524 0.00813135 0.00811847 0.00812899 0.00813485 0.00813019 0.00813293 0.00813163 0.00812317 0.00813045 0.00813164 0.0081278 0.00813251 0.00813258 0.00812661 0.00813183 0.00813083 0.00812711 0.0081326 0.00813359 0.00812875 0.0081329 0.00813117 0.00812761 0.00813317 0.00813417 0.00813033 0.00813364 0.00813228 0.00812885 0.00813406 0.00813466 0.00813169 0.00813425 0.00813311 0.00812993 0.00813489 0.00813527 0.00813278 0.00813508 0.00813419 0.0081312 0.00813579 0.00813587 0.00813382 0.00813563 0.00813494 0.00813238 0.00813657 0.00813615 0.00813468 0.00813623 0.00813571 0.00813336 0.00813719 0.00813671 0.00813542 0.00813671 0.00813632 0.00813421 0.00813772 0.00813711 0.00813606 0.00813719 0.00813681 0.0081349 0.00813815 0.00813758 0.00813663 0.00813752 0.00813718 0.00813555 0.00813853 0.00813779 0.0081371 0.00813787 0.00813756 0.00813601 0.00813881 0.00813814 0.00813749 0.0081381 0.00813778 0.00813653 0.008139 0.00813827 0.00813777 0.00813837 0.00813806 0.00813681 0.00813911 0.00813848 0.00813808 0.00813847 0.00813816 0.00813721 0.00813925 0.00813855 0.00813828 0.00813864 0.00813832 0.00813743 0.00813925 0.00813871 0.00813846 0.0081387 0.00813838 0.00813774 0.00813935 0.00813874 0.0081386 0.00813885 0.00813845 0.00813784 0.00813928 0.00813884 0.00813871 0.00813885 0.00813846 0.00813802 0.00813928 0.00813872 0.00813876 0.0081389 0.0081385 0.0081381 0.00813914 0.00813882 0.0081388 0.00813881 0.00813849 0.00813824 0.0081391 0.0081387 0.00813879 0.00813884 0.00813848 0.0081382 0.00813901 0.00813871 0.00813875 0.00813877 0.00813841 0.00813834 0.00813892 0.00813861 0.00813869 0.00813873 0.0081384 0.00813827 0.00813875 0.00813857 0.00813863 0.00813853 0.00813831 0.00813836 0.00813874 0.0081384 0.00813859 0.00813861 0.00813826 0.00813824 0.00813852 0.00813842 0.00813843 0.00813833 0.00813818 0.00813829 0.00813844 0.00813825 0.00813836 0.0081383 0.00813814 0.00813817 0.00813825 0.00813821 0.00813824 0.00813815 0.00813806 0.00813822 0.00813814 0.00813795 0.0081382 0.00813814 0.00817201 0.00815897 0.00817422 0.00816747 0.0081447 0.0081592 0.0081565 0.0081488 0.00816136 0.00815551 0.00813995 0.00815008 0.00814752 0.00814236 0.00815107 0.0081479 0.00813883 0.00814553 0.00814332 0.00813881 0.00814574 0.00814468 0.00813883 0.00814352 0.00814164 0.00813734 0.00814349 0.00814354 0.0081391 0.00814277 0.00814127 0.00813721 0.00814278 0.00814288 0.00813963 0.0081422 0.00814115 0.00813744 0.00814265 0.00814269 0.00813988 0.00814216 0.00814144 0.00813796 0.0081429 0.00814251 0.00814024 0.00814208 0.00814155 0.00813835 0.00814305 0.00814258 0.00814046 0.00814217 0.00814171 0.00813883 0.0081431 0.00814239 0.00814075 0.00814219 0.00814168 0.00813914 0.00814314 0.00814241 0.00814086 0.00814222 0.0081417 0.00813935 0.00814303 0.00814238 0.00814099 0.0081421 0.00814157 0.00813959 0.00814292 0.00814214 0.008141 0.00814204 0.00814151 0.00813963 0.00814275 0.00814208 0.00814105 0.00814184 0.00814126 0.00813974 0.0081425 0.00814179 0.00814094 0.00814173 0.00814114 0.00813966 0.0081423 0.00814171 0.00814089 0.00814146 0.00814089 0.00813971 0.00814197 0.0081414 0.00814076 0.00814134 0.00814074 0.00813957 0.00814175 0.00814126 0.00814067 0.00814106 0.00814047 0.0081396 0.0081414 0.00814094 0.00814046 0.0081409 0.00814029 0.00813944 0.00814115 0.00814079 0.00814032 0.00814058 0.00813997 0.00813947 0.00814082 0.00814043 0.00814006 0.00814047 0.00813978 0.00813925 0.00814051 0.00814024 0.00813996 0.00814013 0.00813952 0.00813922 0.00814018 0.0081399 0.00813969 0.00814 0.00813936 0.00813898 0.00813992 0.00813977 0.00813955 0.00813967 0.00813905 0.00813896 0.00813963 0.00813941 0.00813925 0.00813951 0.00813897 0.00813873 0.0081394 0.00813928 0.00813914 0.00813921 0.00813869 0.0081387 0.00813909 0.00813891 0.00813887 0.00813903 0.00813861 0.0081385 0.00813889 0.00813884 0.0081388 0.00813883 0.00813836 0.00813845 0.00813862 0.00813853 0.00813848 0.00813859 0.00813828 0.00813825 0.00813848 0.00813846 0.00813837 0.00813836 0.00813811 0.00813823 0.0081382 0.00813816 0.00813812 0.00813821 0.00813807 0.00813798 0.00813799 0.00813799 0.00813805 0.00813793 0.00819395 0.00818037 0.0082123 0.00820117 0.00817345 0.00818732 0.00816908 0.00816216 0.00818458 0.00817824 0.00816003 0.00816994 0.00815817 0.00815327 0.00816537 0.00816273 0.00815324 0.00815976 0.00815404 0.00814924 0.00815658 0.00815577 0.00815022 0.00815456 0.00815211 0.00814748 0.0081534 0.00815272 0.00814899 0.00815182 0.00815091 0.00814645 0.00815207 0.00815138 0.00814831 0.00815063 0.00815032 0.00814601 0.00815135 0.00815049 0.00814791 0.00814969 0.00814957 0.0081457 0.00815071 0.00814986 0.00814759 0.00814924 0.00814891 0.00814546 0.00815014 0.00814935 0.00814735 0.00814861 0.00814824 0.00814517 0.0081496 0.00814876 0.00814684 0.00814821 0.00814776 0.00814506 0.00814891 0.00814804 0.00814649 0.00814756 0.00814717 0.00814465 0.00814817 0.0081475 0.00814609 0.00814699 0.0081465 0.00814429 0.00814752 0.00814693 0.00814559 0.00814645 0.00814585 0.00814382 0.00814692 0.00814633 0.00814504 0.00814582 0.00814508 0.00814342 0.00814629 0.00814579 0.0081445 0.0081453 0.00814459 0.00814298 0.00814569 0.00814514 0.00814403 0.00814465 0.00814392 0.00814258 0.00814495 0.00814458 0.00814352 0.00814409 0.00814333 0.00814213 0.00814437 0.00814391 0.00814302 0.00814349 0.00814272 0.00814177 0.00814359 0.00814342 0.00814248 0.00814299 0.00814221 0.00814131 0.0081431 0.00814276 0.00814202 0.00814238 0.00814162 0.00814094 0.00814241 0.00814229 0.00814156 0.00814189 0.00814114 0.00814056 0.00814189 0.0081417 0.00814112 0.00814145 0.00814064 0.00814024 0.0081413 0.00814129 0.00814067 0.008141 0.00814027 0.00813987 0.00814084 0.00814081 0.00814032 0.00814052 0.00813975 0.00813958 0.00814029 0.00814039 0.00813988 0.0081401 0.00813947 0.00813928 0.00813995 0.00813994 0.00813956 0.0081397 0.00813905 0.00813901 0.00813944 0.00813961 0.00813919 0.00813935 0.00813888 0.00813876 0.00813921 0.00813923 0.00813892 0.00813903 0.00813852 0.00813853 0.00813881 0.00813898 0.00813856 0.00813868 0.00813842 0.00813833 0.00813859 0.00813866 0.00813839 0.00813845 0.00813813 0.00813816 0.00813829 0.00813845 0.00813814 0.00813815 0.00813802 0.00813792 0.00813801 0.00813799 0.00813788 0.00813785 0.00821607 0.00820016 0.00825416 0.00823938 0.00820063 0.00821448 0.00817714 0.0081729 0.00819849 0.00819667 0.00817633 0.00818698 0.00816717 0.00816267 0.00817314 0.00817468 0.00816514 0.00817177 0.00816425 0.00815908 0.0081656 0.00816557 0.00816026 0.00816432 0.00816221 0.00815719 0.00816288 0.00816169 0.00815818 0.00816078 0.00816057 0.00815576 0.00816132 0.00815952 0.00815703 0.00815871 0.00815902 0.00815454 0.00815996 0.00815823 0.00815585 0.00815737 0.00815775 0.00815362 0.00815859 0.008157 0.00815492 0.00815622 0.00815633 0.00815256 0.0081573 0.00815607 0.00815389 0.00815519 0.00815515 0.00815167 0.00815601 0.00815484 0.00815292 0.008154 0.00815373 0.00815075 0.00815467 0.00815377 0.00815196 0.00815307 0.00815262 0.00814975 0.00815343 0.0081527 0.00815098 0.00815187 0.00815123 0.00814882 0.00815221 0.0081516 0.0081499 0.00815094 0.00815022 0.0081479 0.00815099 0.00815048 0.00814893 0.00814976 0.00814898 0.00814715 0.00814984 0.00814931 0.00814804 0.00814885 0.00814806 0.00814619 0.00814878 0.00814837 0.00814707 0.00814773 0.00814685 0.00814549 0.00814763 0.00814726 0.00814624 0.00814693 0.008146 0.00814461 0.00814661 0.00814645 0.0081453 0.00814586 0.00814495 0.00814396 0.00814559 0.00814542 0.00814454 0.00814512 0.00814418 0.00814312 0.00814471 0.00814465 0.00814367 0.0081441 0.0081432 0.00814255 0.00814375 0.00814369 0.008143 0.00814349 0.00814253 0.00814178 0.00814298 0.008143 0.00814228 0.0081426 0.00814171 0.0081413 0.00814211 0.00814222 0.00814166 0.00814203 0.00814114 0.00814063 0.00814147 0.00814161 0.00814099 0.00814129 0.00814037 0.00814025 0.00814074 0.00814087 0.00814048 0.00814081 0.00813999 0.00813962 0.0081402 0.0081404 0.00813987 0.00814012 0.00813932 0.00813931 0.00813954 0.00813974 0.00813953 0.00813977 0.00813907 0.00813891 0.00813918 0.00813946 0.00813904 0.00813922 0.00813854 0.00813871 0.00813869 0.00813892 0.0081387 0.00813888 0.00813845 0.00813833 0.00813844 0.0081387 0.00813837 0.00813846 0.00813814 0.00813819 0.00813816 0.00813824 0.00813812 0.00813832 0.00813806 0.00813786 0.00813792 0.008138 0.00813783 0.00813785 0.00825408 0.00821948 0.00831942 0.00829412 0.00822388 0.00824317 0.00818279 0.00818003 0.00817744 0.00820279 0.00818535 0.00819462 0.00817805 0.00817149 0.00817627 0.00818118 0.00817438 0.00817902 0.00817523 0.00816857 0.00817583 0.00817412 0.00816994 0.00817283 0.00817255 0.00816661 0.00817343 0.00817058 0.00816755 0.00816944 0.00817005 0.00816474 0.00817097 0.00816827 0.00816567 0.00816717 0.00816796 0.00816292 0.00816855 0.00816626 0.00816395 0.00816503 0.00816581 0.00816118 0.0081664 0.00816461 0.00816211 0.00816339 0.00816386 0.00815969 0.00816443 0.00816273 0.00816058 0.00816149 0.00816181 0.00815804 0.00816233 0.00816111 0.00815897 0.00815991 0.00816004 0.0081566 0.00816045 0.00815929 0.00815733 0.0081581 0.00815807 0.00815507 0.00815848 0.00815774 0.00815581 0.00815661 0.00815637 0.00815362 0.00815679 0.00815615 0.00815425 0.00815491 0.00815468 0.00815229 0.00815511 0.0081545 0.00815283 0.00815341 0.00815309 0.00815089 0.00815336 0.00815297 0.00815144 0.0081519 0.00815155 0.00814962 0.00815186 0.00815154 0.00815014 0.0081505 0.00815007 0.00814841 0.00815039 0.00815012 0.00814886 0.00814921 0.00814874 0.00814725 0.00814905 0.00814886 0.00814764 0.00814794 0.00814743 0.00814616 0.00814761 0.00814759 0.0081465 0.0081468 0.00814619 0.00814509 0.00814646 0.00814642 0.00814538 0.00814564 0.00814502 0.00814415 0.00814524 0.00814528 0.00814437 0.00814459 0.00814393 0.00814319 0.00814412 0.00814423 0.00814343 0.0081436 0.00814297 0.00814239 0.00814309 0.00814327 0.0081425 0.00814264 0.00814204 0.00814153 0.00814215 0.00814239 0.0081417 0.00814181 0.00814116 0.00814085 0.00814133 0.00814156 0.00814095 0.00814099 0.00814042 0.0081402 0.00814058 0.00814081 0.00814027 0.00814031 0.00813968 0.00813963 0.00813979 0.0081401 0.00813964 0.00813967 0.00813917 0.00813914 0.00813931 0.00813956 0.00813914 0.00813922 0.00813871 0.00813873 0.00813874 0.00813911 0.00813868 0.00813864 0.00813833 0.00813843 0.00813836 0.00813869 0.00813837 0.00813836 0.00813809 0.00813823 0.00813812 0.00813838 0.00813812 0.00813804 0.00813808 0.00813802 0.00813808 0.0081381 0.00813791 0.00813797 0.00808843 0.00803584 0.00804066 0.00799912 0.00805555 0.00803204 0.00809418 0.00808839 0.00807417 0.00806545 0.00807631 0.00806918 0.00809956 0.00809192 0.0080964 0.00808792 0.0080844 0.00808469 0.0080991 0.00809489 0.00810025 0.00809755 0.00809153 0.00809478 0.00810043 0.00809855 0.0081021 0.00810263 0.00809796 0.00810158 0.00810368 0.0081023 0.0081051 0.00810629 0.00810321 0.00810618 0.00810738 0.00810595 0.00810882 0.00810947 0.00810746 0.00810979 0.00811115 0.00810943 0.0081122 0.00811213 0.0081111 0.00811275 0.00811436 0.00811264 0.00811546 0.00811467 0.00811415 0.00811561 0.00811729 0.00811544 0.00811822 0.00811717 0.00811683 0.00811792 0.00811977 0.00811807 0.00812063 0.00811936 0.00811924 0.00812038 0.00812209 0.00812035 0.00812276 0.00812154 0.00812147 0.00812227 0.00812404 0.00812253 0.0081247 0.00812345 0.00812347 0.00812438 0.00812589 0.00812445 0.00812638 0.00812532 0.00812534 0.00812597 0.00812743 0.00812624 0.00812801 0.00812687 0.00812705 0.00812772 0.00812897 0.0081278 0.0081294 0.00812847 0.00812857 0.00812902 0.00813025 0.00812931 0.00813077 0.00812976 0.00813001 0.00813052 0.00813151 0.00813059 0.00813188 0.00813109 0.00813125 0.0081315 0.00813252 0.00813183 0.00813295 0.00813213 0.00813243 0.00813279 0.00813352 0.00813289 0.00813392 0.00813324 0.00813342 0.00813359 0.00813432 0.00813386 0.00813476 0.00813405 0.00813443 0.00813466 0.00813511 0.00813471 0.00813549 0.00813492 0.00813521 0.00813525 0.00813576 0.0081355 0.00813608 0.00813559 0.00813594 0.00813608 0.00813644 0.0081361 0.00813665 0.00813621 0.0081365 0.00813654 0.00813677 0.00813671 0.00813717 0.00813664 0.00813708 0.00813717 0.00813734 0.00813717 0.00813754 0.00813721 0.00813752 0.00813738 0.00813762 0.00813757 0.00813792 0.00813749 0.0081379 0.00813789 0.00813796 0.00813784 0.00813815 0.00813785 0.00813819 0.00813801 0.00813802 0.00813808 0.00813836 0.00813798 0.00813826 0.00813822 0.0081382 0.00813819 0.0081384 0.00813818 0.00813833 0.00813816 0.00813817 0.00813823 0.00813842 0.00813814 0.00813826 0.00813832 0.00813811 0.00813809 0.00813834 0.0081381 0.0081381 0.00813814 0.0081074 0.00809279 0.00807204 0.00806379 0.00805583 0.00806893 0.0081083 0.00810816 0.00808294 0.008085 0.00808636 0.00809201 0.00810759 0.00810897 0.00809977 0.00810306 0.0080993 0.00810432 0.00810883 0.00810789 0.0081086 0.00811114 0.00810528 0.00811022 0.0081106 0.00810833 0.00811272 0.00811489 0.00810936 0.00811378 0.0081129 0.00811039 0.00811531 0.00811709 0.00811287 0.00811648 0.0081155 0.00811302 0.00811773 0.00811893 0.00811592 0.00811874 0.00811813 0.0081158 0.00811999 0.00812035 0.00811857 0.00812086 0.00812052 0.00811834 0.00812225 0.00812218 0.00812093 0.00812265 0.00812291 0.00812071 0.00812428 0.00812366 0.00812294 0.00812435 0.0081249 0.00812277 0.00812616 0.00812527 0.00812481 0.00812588 0.00812666 0.00812471 0.00812773 0.00812675 0.00812647 0.0081274 0.00812817 0.00812634 0.00812919 0.00812817 0.00812795 0.00812872 0.00812955 0.00812792 0.00813045 0.00812942 0.00812932 0.00812996 0.0081307 0.00812918 0.00813158 0.00813055 0.00813054 0.00813111 0.00813185 0.00813051 0.00813259 0.00813163 0.00813167 0.00813213 0.00813274 0.00813155 0.00813355 0.00813259 0.00813271 0.00813303 0.0081336 0.00813263 0.00813432 0.00813341 0.00813363 0.00813388 0.00813437 0.00813342 0.00813502 0.00813423 0.00813445 0.00813461 0.0081351 0.0081343 0.00813568 0.00813488 0.00813516 0.0081353 0.00813566 0.00813498 0.00813625 0.00813557 0.00813582 0.00813589 0.00813617 0.00813565 0.00813666 0.00813602 0.00813636 0.00813642 0.00813664 0.00813609 0.00813709 0.0081365 0.00813687 0.00813682 0.00813707 0.00813669 0.00813745 0.00813686 0.00813726 0.00813721 0.00813737 0.00813698 0.00813781 0.00813727 0.0081376 0.00813755 0.00813771 0.00813737 0.00813801 0.0081375 0.00813793 0.00813781 0.00813786 0.00813755 0.00813813 0.00813767 0.00813812 0.00813791 0.00813811 0.0081379 0.00813827 0.00813786 0.00813825 0.00813812 0.00813809 0.0081379 0.00813834 0.00813799 0.00813828 0.00813812 0.00813816 0.00813808 0.00813834 0.00813804 0.00813825 0.00813817 0.00813816 0.00813804 0.00813837 0.00813808 0.00813826 0.00813818 0.00813826 0.00813809 0.00813826 0.00813802 0.00813824 0.00813828 0.00812733 0.00811449 0.0081059 0.0081014 0.00808486 0.00810175 0.00812539 0.00812213 0.00810938 0.00810961 0.00810007 0.00811003 0.00812167 0.00812009 0.00811598 0.00811925 0.00811114 0.00811793 0.00812029 0.00811861 0.0081206 0.00812396 0.0081169 0.00812225 0.00812095 0.00811865 0.00812298 0.00812574 0.00812019 0.00812439 0.00812241 0.00811981 0.00812483 0.00812662 0.00812237 0.00812583 0.00812425 0.00812151 0.0081263 0.00812744 0.00812439 0.00812708 0.00812586 0.00812332 0.00812782 0.00812825 0.00812616 0.00812835 0.0081275 0.00812516 0.0081292 0.00812931 0.00812763 0.00812957 0.00812916 0.00812682 0.00813056 0.00813028 0.00812903 0.0081305 0.00813034 0.00812839 0.00813178 0.00813124 0.00813024 0.00813161 0.00813159 0.00812963 0.00813286 0.00813217 0.0081314 0.00813239 0.00813249 0.00813084 0.00813374 0.00813294 0.00813237 0.0081334 0.0081334 0.00813181 0.00813455 0.00813377 0.00813335 0.00813397 0.00813411 0.00813278 0.00813524 0.00813441 0.00813406 0.00813478 0.00813485 0.00813354 0.0081358 0.00813511 0.00813487 0.00813519 0.00813533 0.00813433 0.00813636 0.00813558 0.00813542 0.00813594 0.0081359 0.00813488 0.0081368 0.00813609 0.00813603 0.0081362 0.00813622 0.00813554 0.00813714 0.00813647 0.00813644 0.00813683 0.00813674 0.00813599 0.00813748 0.00813687 0.00813693 0.00813702 0.00813696 0.00813647 0.00813775 0.00813715 0.00813723 0.0081375 0.00813732 0.00813677 0.00813797 0.00813745 0.00813763 0.00813758 0.00813747 0.00813714 0.00813813 0.00813765 0.00813783 0.00813797 0.00813775 0.00813737 0.00813829 0.00813787 0.00813812 0.00813797 0.00813775 0.00813765 0.00813836 0.00813796 0.00813812 0.00813824 0.00813804 0.00813777 0.00813847 0.00813814 0.00813837 0.0081382 0.00813798 0.00813793 0.00813846 0.00813811 0.00813838 0.00813841 0.00813819 0.008138 0.00813852 0.00813822 0.00813849 0.00813832 0.00813804 0.00813809 0.00813847 0.00813818 0.00813832 0.00813838 0.00813818 0.00813809 0.00813837 0.00813822 0.00813841 0.00813819 0.00813805 0.00813812 0.00813833 0.00813811 0.00813831 0.00813832 0.00813814 0.00813808 0.00813827 0.00813813 0.00813835 0.00813821 0.00814855 0.00813583 0.00813927 0.00813513 0.00811493 0.0081307 0.00814039 0.00813506 0.00813541 0.00813171 0.00812004 0.00812966 0.00813504 0.00813172 0.00813401 0.00813322 0.00812563 0.00813142 0.00813225 0.00812943 0.0081337 0.00813461 0.00812894 0.00813318 0.00813181 0.00812867 0.0081339 0.00813526 0.00813047 0.00813402 0.00813223 0.00812926 0.00813434 0.0081353 0.00813171 0.00813453 0.00813309 0.00813005 0.00813499 0.00813567 0.0081325 0.00813506 0.00813397 0.0081312 0.00813566 0.00813584 0.00813342 0.00813562 0.00813488 0.0081322 0.00813636 0.0081363 0.00813424 0.00813609 0.00813555 0.00813335 0.00813709 0.00813657 0.00813492 0.00813672 0.00813618 0.00813409 0.00813756 0.00813711 0.00813568 0.00813716 0.00813675 0.00813486 0.0081381 0.00813739 0.00813625 0.00813759 0.00813727 0.00813536 0.00813834 0.00813775 0.00813681 0.00813778 0.00813754 0.00813599 0.00813876 0.00813795 0.00813717 0.0081382 0.00813789 0.00813632 0.00813889 0.00813821 0.00813756 0.00813826 0.00813801 0.00813677 0.00813914 0.00813835 0.0081378 0.0081386 0.00813829 0.00813703 0.00813917 0.00813853 0.00813813 0.00813862 0.0081383 0.00813736 0.00813935 0.00813862 0.00813826 0.00813889 0.00813849 0.00813752 0.00813924 0.00813875 0.00813853 0.0081388 0.00813849 0.00813781 0.00813941 0.00813873 0.00813855 0.008139 0.00813858 0.00813788 0.00813926 0.00813885 0.00813868 0.0081389 0.00813855 0.00813807 0.00813932 0.00813877 0.00813869 0.00813906 0.0081386 0.00813808 0.00813915 0.00813883 0.00813881 0.00813885 0.00813852 0.00813821 0.00813911 0.00813873 0.00813873 0.00813901 0.0081385 0.00813819 0.00813897 0.0081387 0.00813874 0.00813877 0.00813847 0.00813827 0.00813898 0.0081386 0.00813865 0.0081389 0.00813847 0.00813818 0.00813876 0.00813852 0.00813866 0.00813859 0.00813837 0.00813826 0.00813879 0.00813843 0.00813853 0.00813876 0.0081383 0.0081381 0.00813852 0.00813838 0.00813846 0.00813844 0.00813814 0.00813814 0.00813846 0.00813823 0.0081383 0.00813844 0.00813819 0.00813801 0.00813826 0.00813819 0.00813831 0.0081382 0.00813808 0.00813805 0.00813816 0.00813796 0.00813815 0.00813823 0.00816993 0.00815637 0.0081736 0.00816767 0.00814333 0.00815836 0.00815403 0.00814692 0.00815953 0.00815266 0.00814023 0.00814865 0.0081465 0.00814207 0.00815047 0.0081464 0.00814003 0.00814508 0.00814328 0.00813946 0.00814591 0.00814488 0.00814028 0.00814372 0.00814222 0.00813843 0.00814424 0.00814415 0.00814026 0.00814312 0.00814186 0.00813827 0.00814352 0.00814375 0.00814034 0.00814284 0.00814197 0.00813872 0.00814354 0.00814333 0.00814059 0.0081427 0.00814207 0.00813904 0.00814339 0.00814324 0.00814073 0.00814272 0.00814225 0.00813947 0.00814358 0.00814295 0.00814097 0.00814253 0.00814215 0.00813959 0.00814351 0.00814302 0.00814105 0.00814264 0.00814209 0.00813992 0.00814351 0.00814283 0.00814123 0.0081427 0.00814212 0.00814004 0.0081433 0.00814267 0.00814126 0.00814241 0.00814194 0.00814023 0.00814309 0.00814249 0.00814123 0.0081424 0.00814183 0.00814015 0.00814291 0.00814231 0.00814123 0.00814208 0.00814154 0.00814018 0.00814263 0.00814199 0.00814109 0.00814206 0.00814139 0.00814008 0.00814241 0.00814183 0.00814099 0.0081417 0.00814112 0.00814005 0.00814212 0.00814151 0.00814084 0.00814161 0.00814088 0.00813987 0.0081418 0.00814134 0.00814068 0.00814123 0.00814062 0.00813983 0.00814148 0.00814099 0.00814053 0.00814111 0.0081404 0.00813965 0.00814115 0.00814083 0.00814032 0.00814067 0.00814007 0.00813959 0.00814084 0.0081405 0.00814017 0.00814062 0.00813987 0.00813939 0.00814054 0.00814026 0.00813999 0.00814021 0.00813957 0.0081393 0.0081402 0.00813997 0.00813976 0.00814015 0.00813939 0.00813911 0.00813993 0.00813981 0.00813956 0.0081397 0.00813911 0.00813902 0.00813963 0.00813943 0.0081393 0.00813964 0.00813898 0.00813881 0.00813939 0.00813933 0.00813916 0.00813927 0.00813867 0.00813868 0.0081391 0.00813896 0.00813897 0.00813918 0.00813858 0.00813858 0.00813888 0.00813889 0.00813878 0.00813884 0.00813836 0.00813846 0.00813868 0.00813859 0.00813853 0.00813873 0.00813819 0.00813822 0.00813851 0.0081385 0.00813835 0.00813836 0.00813808 0.00813816 0.00813821 0.00813819 0.00813821 0.00813835 0.00813803 0.00813794 0.00813797 0.00813796 0.0081381 0.00813802 0.00819103 0.00817634 0.00821144 0.00820169 0.00817111 0.00818562 0.00816563 0.0081581 0.00818134 0.00817259 0.008159 0.0081668 0.0081565 0.00815174 0.00816353 0.00815884 0.00815321 0.00815788 0.00815357 0.00814925 0.00815612 0.00815421 0.00815069 0.00815384 0.00815226 0.00814794 0.00815351 0.00815271 0.00814944 0.00815198 0.00815146 0.00814748 0.0081524 0.00815158 0.00814889 0.00815085 0.00815075 0.00814701 0.00815172 0.00815098 0.00814841 0.00815014 0.00815016 0.00814678 0.0081511 0.00815032 0.00814807 0.00814968 0.00814956 0.00814638 0.00815058 0.00814983 0.00814759 0.00814905 0.00814886 0.00814612 0.00814994 0.00814904 0.00814722 0.00814841 0.00814812 0.00814563 0.0081493 0.00814852 0.00814674 0.00814806 0.00814744 0.0081454 0.00814854 0.00814776 0.0081462 0.00814738 0.0081468 0.00814479 0.00814787 0.00814718 0.00814576 0.00814688 0.00814603 0.00814446 0.0081471 0.0081465 0.00814512 0.00814606 0.00814553 0.00814387 0.00814636 0.00814578 0.00814462 0.00814553 0.00814475 0.00814341 0.00814563 0.00814514 0.0081441 0.00814481 0.00814424 0.00814289 0.00814502 0.00814455 0.0081436 0.00814431 0.00814344 0.00814251 0.00814425 0.0081439 0.00814306 0.00814362 0.00814298 0.00814195 0.00814361 0.00814334 0.00814257 0.00814316 0.00814229 0.0081416 0.008143 0.00814272 0.00814204 0.00814248 0.00814184 0.00814111 0.00814241 0.00814215 0.00814163 0.00814207 0.00814119 0.00814079 0.00814176 0.00814162 0.00814112 0.00814151 0.00814086 0.00814034 0.00814128 0.00814115 0.00814072 0.00814111 0.00814024 0.00814001 0.00814071 0.00814066 0.00814026 0.00814055 0.00813989 0.00813963 0.00814026 0.00814021 0.00813991 0.00814026 0.00813944 0.0081394 0.00813983 0.00813984 0.00813951 0.00813974 0.00813921 0.00813901 0.00813939 0.00813939 0.00813919 0.00813948 0.0081388 0.0081389 0.00813902 0.00813913 0.0081389 0.00813909 0.00813866 0.00813847 0.00813877 0.00813879 0.00813865 0.0081388 0.00813831 0.00813841 0.00813846 0.00813861 0.00813833 0.00813844 0.00813826 0.00813808 0.00813826 0.0081383 0.00813817 0.00813828 0.008138 0.00813788 0.00813789 0.00813793 0.00813791 0.00813792 0.00821275 0.00819516 0.00825471 0.00824136 0.00819804 0.00821244 0.00817362 0.0081677 0.00819464 0.00818934 0.00817441 0.00818269 0.00816527 0.00816059 0.00817084 0.00816914 0.00816407 0.00816905 0.00816334 0.00815846 0.0081646 0.00816325 0.00816013 0.0081632 0.00816195 0.00815718 0.00816256 0.00816096 0.00815836 0.00816058 0.00816052 0.00815613 0.00816133 0.00815987 0.00815714 0.00815896 0.00815932 0.00815529 0.00816011 0.00815859 0.00815619 0.00815769 0.00815794 0.00815415 0.00815879 0.00815757 0.00815511 0.00815669 0.00815679 0.00815331 0.00815762 0.00815627 0.00815406 0.00815542 0.00815528 0.00815235 0.00815623 0.0081553 0.00815314 0.00815437 0.0081542 0.00815148 0.00815495 0.008154 0.00815214 0.0081533 0.00815288 0.00815048 0.00815366 0.00815298 0.00815111 0.00815218 0.00815173 0.00814939 0.00815248 0.00815176 0.0081501 0.00815112 0.00815049 0.00814852 0.00815108 0.00815066 0.00814913 0.00815001 0.00814915 0.00814748 0.00815006 0.00814959 0.00814813 0.00814904 0.0081482 0.0081467 0.00814883 0.00814849 0.00814719 0.00814794 0.00814706 0.00814575 0.00814786 0.00814749 0.00814632 0.00814705 0.00814613 0.00814505 0.00814671 0.0081465 0.00814541 0.00814601 0.00814506 0.00814412 0.00814578 0.00814562 0.00814459 0.00814524 0.00814429 0.00814351 0.00814481 0.00814465 0.00814377 0.00814428 0.00814333 0.00814267 0.00814393 0.00814386 0.00814304 0.00814359 0.00814259 0.0081421 0.00814302 0.00814301 0.00814231 0.00814275 0.00814177 0.0081414 0.00814229 0.00814231 0.00814168 0.00814213 0.00814117 0.0081409 0.00814148 0.00814162 0.00814104 0.00814142 0.00814044 0.00814022 0.00814087 0.00814103 0.00814047 0.00814086 0.00813999 0.00813988 0.00814023 0.00814042 0.00813997 0.00814024 0.00813936 0.00813932 0.00813971 0.00813992 0.00813948 0.00813984 0.00813909 0.0081391 0.00813916 0.00813941 0.00813909 0.00813935 0.00813862 0.00813861 0.00813889 0.00813911 0.00813872 0.00813897 0.00813842 0.00813846 0.00813844 0.00813868 0.00813841 0.00813853 0.00813815 0.00813813 0.00813829 0.0081384 0.00813811 0.00813829 0.00813799 0.00813792 0.00813793 0.00813795 0.00813788 0.00813791 0.00824939 0.00821555 0.00831607 0.00829421 0.00822231 0.00824051 0.00817973 0.00817484 0.00817435 0.00819592 0.00818268 0.0081909 0.00817573 0.0081692 0.00817415 0.00817615 0.00817257 0.00817675 0.00817384 0.00816777 0.00817439 0.00817148 0.00816909 0.00817169 0.00817164 0.00816622 0.00817252 0.00816969 0.00816694 0.00816908 0.00816969 0.0081647 0.00817054 0.00816794 0.00816554 0.0081671 0.00816782 0.00816306 0.0081685 0.00816639 0.00816377 0.00816526 0.00816578 0.00816155 0.00816639 0.00816463 0.00816221 0.0081634 0.00816388 0.00815994 0.00816436 0.00816294 0.0081606 0.00816174 0.008162 0.00815847 0.00816246 0.00816122 0.00815908 0.00816006 0.00816014 0.00815685 0.00816057 0.00815962 0.00815749 0.00815848 0.00815843 0.00815552 0.00815866 0.00815776 0.00815584 0.00815677 0.00815649 0.00815392 0.00815693 0.00815618 0.0081544 0.00815525 0.00815493 0.00815265 0.00815519 0.00815455 0.0081529 0.00815361 0.00815329 0.00815111 0.00815352 0.00815309 0.00815152 0.00815223 0.00815174 0.00814989 0.0081519 0.00815158 0.00815018 0.00815074 0.00815027 0.00814863 0.00815052 0.00815022 0.00814898 0.00814946 0.00814887 0.00814746 0.00814906 0.0081489 0.00814768 0.00814816 0.0081476 0.0081463 0.00814771 0.00814764 0.00814661 0.008147 0.00814634 0.00814531 0.00814649 0.00814646 0.00814543 0.00814577 0.0081452 0.00814429 0.00814524 0.00814533 0.0081445 0.00814481 0.00814406 0.00814336 0.00814416 0.00814426 0.00814346 0.00814369 0.0081431 0.00814246 0.00814312 0.00814327 0.00814261 0.00814284 0.00814218 0.00814168 0.00814212 0.0081424 0.00814177 0.00814198 0.00814132 0.0081409 0.00814131 0.00814151 0.00814103 0.00814121 0.00814057 0.00814032 0.00814058 0.00814084 0.00814029 0.00814043 0.00813985 0.00813965 0.00813982 0.00814011 0.00813977 0.0081399 0.00813931 0.00813921 0.00813926 0.00813956 0.00813921 0.00813932 0.00813886 0.00813874 0.00813874 0.00813909 0.00813873 0.00813887 0.00813846 0.00813843 0.00813833 0.00813867 0.00813835 0.00813843 0.00813826 0.00813819 0.00813812 0.0081383 0.00813815 0.00813828 0.0081382 0.00813798 0.00813801 0.00813801 0.00813798 0.00813797 0.00810048 0.00808192 0.00807069 0.00801488 0.00805811 0.00804904 0.0081026 0.00809505 0.0080949 0.00810354 0.0080898 0.00808404 0.00810521 0.00810185 0.0081117 0.00811514 0.00809552 0.00809513 0.00810294 0.0081027 0.00810776 0.00811054 0.00809945 0.00810152 0.0081034 0.0081036 0.00810611 0.00810844 0.00810295 0.00810536 0.00810605 0.00810539 0.0081075 0.00810883 0.00810596 0.00810812 0.00810924 0.00810803 0.00811015 0.0081105 0.00810889 0.00811065 0.0081126 0.00811081 0.00811304 0.00811236 0.0081117 0.00811313 0.00811537 0.00811356 0.0081159 0.00811469 0.00811432 0.0081157 0.00811807 0.00811605 0.00811842 0.00811699 0.00811683 0.00811796 0.00812038 0.00811861 0.0081207 0.00811928 0.0081192 0.00812028 0.00812258 0.00812076 0.00812279 0.00812136 0.00812135 0.00812227 0.00812443 0.00812293 0.00812463 0.00812336 0.00812338 0.00812429 0.00812624 0.00812473 0.00812635 0.00812515 0.00812522 0.00812592 0.00812769 0.00812655 0.0081279 0.00812678 0.00812693 0.00812757 0.00812925 0.00812802 0.00812931 0.00812832 0.00812847 0.00812896 0.00813045 0.00812958 0.00813066 0.00812969 0.00812988 0.00813036 0.00813169 0.00813077 0.00813178 0.0081309 0.00813114 0.00813152 0.00813265 0.00813207 0.00813279 0.00813205 0.00813233 0.00813268 0.00813369 0.00813302 0.00813379 0.00813303 0.00813329 0.00813351 0.00813438 0.00813406 0.00813459 0.00813397 0.0081343 0.00813449 0.00813527 0.00813478 0.0081353 0.00813471 0.00813506 0.00813517 0.00813583 0.00813562 0.00813597 0.00813539 0.00813579 0.00813593 0.00813645 0.00813615 0.00813654 0.00813606 0.00813637 0.00813642 0.00813686 0.0081368 0.00813705 0.00813657 0.00813698 0.00813699 0.00813736 0.00813714 0.00813747 0.00813702 0.00813739 0.0081373 0.00813759 0.00813762 0.00813774 0.00813736 0.00813777 0.00813768 0.00813797 0.00813779 0.00813804 0.00813761 0.00813805 0.00813789 0.00813804 0.00813814 0.00813817 0.00813782 0.00813818 0.00813808 0.0081382 0.00813811 0.00813834 0.00813803 0.00813827 0.00813812 0.00813814 0.00813831 0.00813836 0.00813808 0.00813826 0.00813819 0.00813818 0.00813811 0.00813838 0.00813799 0.00813812 0.00813811 0.00811176 0.00810923 0.00808028 0.00805223 0.00805831 0.00807868 0.00811309 0.0081209 0.0080971 0.00811261 0.00809825 0.00810229 0.00811236 0.00811946 0.00811234 0.00812314 0.00810981 0.00811196 0.00811279 0.00811424 0.00811584 0.00812064 0.0081125 0.00811508 0.00811378 0.00811309 0.00811704 0.00811904 0.00811371 0.00811662 0.0081154 0.00811413 0.00811781 0.00811878 0.00811533 0.00811805 0.00811757 0.00811596 0.00811926 0.00811942 0.00811719 0.00811959 0.00811988 0.00811804 0.00812102 0.00812057 0.00811906 0.00812122 0.00812205 0.00812018 0.00812287 0.00812211 0.00812105 0.00812278 0.00812394 0.00812219 0.00812465 0.00812358 0.00812296 0.00812435 0.00812569 0.00812403 0.00812641 0.00812529 0.00812474 0.0081259 0.00812734 0.00812575 0.00812791 0.00812664 0.00812634 0.00812737 0.00812874 0.0081273 0.00812924 0.00812821 0.00812783 0.00812871 0.00812997 0.00812876 0.00813051 0.00812934 0.0081292 0.00812991 0.00813111 0.00812996 0.00813152 0.00813067 0.00813044 0.00813106 0.00813216 0.00813114 0.0081326 0.00813153 0.00813155 0.00813204 0.00813305 0.00813219 0.00813348 0.00813266 0.00813256 0.00813298 0.00813386 0.00813311 0.0081343 0.00813334 0.0081335 0.00813374 0.00813457 0.00813395 0.0081349 0.00813433 0.00813429 0.00813449 0.00813523 0.00813472 0.0081356 0.0081348 0.00813499 0.00813514 0.00813582 0.00813536 0.00813607 0.00813559 0.00813564 0.00813575 0.00813627 0.00813591 0.00813662 0.00813591 0.00813619 0.00813626 0.0081367 0.00813642 0.00813696 0.00813662 0.0081367 0.00813668 0.0081371 0.00813691 0.00813736 0.00813679 0.00813715 0.00813704 0.00813736 0.00813726 0.00813763 0.00813732 0.00813747 0.00813733 0.00813765 0.00813758 0.00813791 0.00813742 0.00813776 0.00813761 0.00813784 0.00813782 0.008138 0.00813777 0.00813798 0.00813782 0.00813805 0.008138 0.00813823 0.00813784 0.00813812 0.00813794 0.00813815 0.0081381 0.00813822 0.00813814 0.00813815 0.00813796 0.00813818 0.00813824 0.00813836 0.00813797 0.00813821 0.00813802 0.00813815 0.00813825 0.00813828 0.00813822 0.00813824 0.00813809 0.00813815 0.00813824 0.00813834 0.00813804 0.00813821 0.00813823 0.00812688 0.008116 0.00810746 0.00809035 0.00808607 0.00810589 0.00812667 0.00812766 0.00811629 0.00812481 0.00811013 0.0081158 0.00812431 0.00812708 0.00812405 0.00813138 0.00812046 0.00812292 0.00812344 0.00812416 0.0081263 0.00812996 0.00812299 0.0081255 0.00812379 0.00812316 0.00812675 0.00812833 0.00812378 0.00812646 0.00812498 0.00812365 0.00812731 0.00812783 0.00812452 0.00812706 0.00812628 0.00812471 0.00812804 0.00812813 0.00812542 0.00812793 0.00812773 0.00812606 0.0081291 0.00812861 0.00812656 0.00812872 0.00812905 0.0081274 0.0081301 0.00812944 0.00812791 0.00812976 0.00813042 0.00812876 0.00813127 0.00813027 0.00812906 0.00813076 0.00813139 0.00812996 0.00813225 0.00813123 0.00813018 0.00813168 0.00813249 0.00813103 0.00813317 0.00813208 0.00813136 0.00813256 0.00813323 0.00813209 0.00813397 0.00813284 0.00813233 0.00813336 0.00813405 0.00813292 0.00813468 0.00813365 0.00813322 0.00813407 0.00813465 0.00813375 0.00813532 0.00813425 0.008134 0.00813474 0.00813534 0.00813439 0.00813586 0.00813492 0.0081347 0.00813524 0.00813572 0.0081351 0.00813637 0.0081354 0.00813532 0.00813582 0.00813628 0.00813557 0.00813681 0.00813592 0.00813585 0.00813622 0.00813659 0.00813615 0.00813711 0.00813631 0.00813632 0.00813671 0.00813704 0.00813653 0.00813741 0.00813669 0.00813674 0.00813699 0.00813722 0.00813696 0.00813768 0.00813699 0.00813713 0.00813732 0.00813752 0.00813722 0.00813788 0.00813723 0.00813747 0.0081375 0.00813766 0.00813756 0.00813802 0.00813743 0.00813765 0.00813775 0.0081379 0.00813771 0.00813821 0.00813768 0.00813792 0.00813789 0.0081379 0.00813802 0.00813829 0.00813781 0.00813804 0.008138 0.00813811 0.00813806 0.00813842 0.00813798 0.00813816 0.00813815 0.00813814 0.0081382 0.00813841 0.00813791 0.00813825 0.00813818 0.00813829 0.00813826 0.0081384 0.00813807 0.00813833 0.00813822 0.00813815 0.00813835 0.00813837 0.00813802 0.00813826 0.00813812 0.00813819 0.00813828 0.00813839 0.00813806 0.00813827 0.00813815 0.00813813 0.00813832 0.00813825 0.00813804 0.00813829 0.00813815 0.00813815 0.0081383 0.00813823 0.00813803 0.00813827 0.00813812 0.00814457 0.00813012 0.00813867 0.00812872 0.00811501 0.00812991 0.00813864 0.0081355 0.00813635 0.00813559 0.00812616 0.00813089 0.00813551 0.00813481 0.00813703 0.00813841 0.0081318 0.00813365 0.00813393 0.00813333 0.00813691 0.00813772 0.00813315 0.00813501 0.00813378 0.00813269 0.00813643 0.00813695 0.00813312 0.00813531 0.0081342 0.00813259 0.00813628 0.00813647 0.00813322 0.00813566 0.00813494 0.00813327 0.00813648 0.00813629 0.00813353 0.00813581 0.00813562 0.0081339 0.00813683 0.00813639 0.00813409 0.00813609 0.00813627 0.00813465 0.00813715 0.00813666 0.00813473 0.00813654 0.00813673 0.00813517 0.0081377 0.00813699 0.00813535 0.00813708 0.00813734 0.00813581 0.00813806 0.00813735 0.00813588 0.00813739 0.00813775 0.00813629 0.0081385 0.00813764 0.00813645 0.00813765 0.00813796 0.00813675 0.00813873 0.00813796 0.00813688 0.00813796 0.00813821 0.0081371 0.00813895 0.00813814 0.00813729 0.00813817 0.00813839 0.00813743 0.0081391 0.00813841 0.00813759 0.00813837 0.00813859 0.00813767 0.00813926 0.00813849 0.00813792 0.00813849 0.00813864 0.00813795 0.00813925 0.00813868 0.00813806 0.00813867 0.00813873 0.0081381 0.00813935 0.00813869 0.00813828 0.0081387 0.00813873 0.00813829 0.00813928 0.00813887 0.0081384 0.0081388 0.00813883 0.0081384 0.00813935 0.00813882 0.00813855 0.00813879 0.00813878 0.0081385 0.00813924 0.00813888 0.00813859 0.00813885 0.00813879 0.0081385 0.00813921 0.00813881 0.00813869 0.0081388 0.00813875 0.00813858 0.00813911 0.00813884 0.00813869 0.0081388 0.00813872 0.00813855 0.00813904 0.00813876 0.00813867 0.00813875 0.0081386 0.00813858 0.00813897 0.00813875 0.00813869 0.00813871 0.00813858 0.00813853 0.00813891 0.00813866 0.00813864 0.00813865 0.00813845 0.00813854 0.00813869 0.00813862 0.00813854 0.00813858 0.00813845 0.00813847 0.0081387 0.00813849 0.00813858 0.00813847 0.00813832 0.00813844 0.00813849 0.0081385 0.00813844 0.00813829 0.00813824 0.00813833 0.00813843 0.0081383 0.00813836 0.00813822 0.00813815 0.00813826 0.00813822 0.00813837 0.00813825 0.0081381 0.00813803 0.00813814 0.00813812 0.00813813 0.0081383 0.00813811 0.00816306 0.00814749 0.00817257 0.00816614 0.00814197 0.00815275 0.00814943 0.00814367 0.00815523 0.00814581 0.00814185 0.00814548 0.00814505 0.00814276 0.00814916 0.0081453 0.00814264 0.00814467 0.00814385 0.00814189 0.00814652 0.0081453 0.00814241 0.00814425 0.00814338 0.00814147 0.00814525 0.00814504 0.00814199 0.00814402 0.00814337 0.00814141 0.00814482 0.0081446 0.00814162 0.00814367 0.00814339 0.00814146 0.00814459 0.00814425 0.00814151 0.00814355 0.00814351 0.00814146 0.00814453 0.00814388 0.00814147 0.0081432 0.00814338 0.00814159 0.00814432 0.00814364 0.00814154 0.00814325 0.00814344 0.00814156 0.00814424 0.00814336 0.0081415 0.00814304 0.00814314 0.00814166 0.00814405 0.00814305 0.00814148 0.00814295 0.00814309 0.00814167 0.00814382 0.00814292 0.00814149 0.00814272 0.0081427 0.00814155 0.00814359 0.00814267 0.00814133 0.00814256 0.00814252 0.00814138 0.00814323 0.00814238 0.00814138 0.00814225 0.00814214 0.00814127 0.00814293 0.00814202 0.0081412 0.00814205 0.00814195 0.00814104 0.00814263 0.0081418 0.00814105 0.00814178 0.00814154 0.00814099 0.0081423 0.0081415 0.00814086 0.00814154 0.0081413 0.0081407 0.00814194 0.00814124 0.00814073 0.00814121 0.00814089 0.00814058 0.00814156 0.00814095 0.00814053 0.00814104 0.00814074 0.00814035 0.00814127 0.0081407 0.00814033 0.00814069 0.00814035 0.00814023 0.00814093 0.00814041 0.00814015 0.00814052 0.00814016 0.00813992 0.0081406 0.00814014 0.00813997 0.00814014 0.0081398 0.00813979 0.00814027 0.00813982 0.00813971 0.00813998 0.00813964 0.00813957 0.00813996 0.00813963 0.00813957 0.00813967 0.00813926 0.00813947 0.00813969 0.00813935 0.0081393 0.00813947 0.00813917 0.00813919 0.00813944 0.00813914 0.00813914 0.00813917 0.0081388 0.00813908 0.00813915 0.00813883 0.00813891 0.00813902 0.00813876 0.00813884 0.00813895 0.00813875 0.00813883 0.00813876 0.00813842 0.00813877 0.00813872 0.00813853 0.00813854 0.00813851 0.00813833 0.00813854 0.00813852 0.00813837 0.00813838 0.00813837 0.00813816 0.00813842 0.00813826 0.00813817 0.00813825 0.00813821 0.00813809 0.00813814 0.00813804 0.00813801 0.00813809 0.00813795 0.00818298 0.00816674 0.00821072 0.0082038 0.00816825 0.00817603 0.0081594 0.00815255 0.00817271 0.00815588 0.00815665 0.00815996 0.00815418 0.00815094 0.00815958 0.00815277 0.00815266 0.00815526 0.008153 0.00815041 0.00815502 0.00815308 0.00815114 0.0081534 0.00815273 0.00814993 0.00815372 0.00815297 0.00815034 0.00815226 0.00815222 0.00814956 0.00815314 0.00815259 0.00814974 0.00815153 0.00815173 0.00814928 0.00815266 0.00815183 0.00814921 0.00815092 0.00815113 0.00814868 0.00815203 0.0081512 0.00814865 0.00815029 0.00815044 0.00814837 0.00815135 0.00815032 0.00814815 0.00814964 0.00814965 0.00814774 0.00815055 0.00814968 0.00814767 0.00814909 0.00814911 0.00814732 0.00814982 0.00814884 0.00814706 0.00814829 0.00814819 0.00814661 0.00814899 0.00814827 0.00814653 0.00814775 0.00814751 0.00814609 0.00814831 0.00814751 0.00814592 0.00814696 0.00814672 0.00814551 0.00814746 0.00814673 0.00814535 0.00814625 0.00814596 0.00814492 0.00814664 0.00814601 0.00814476 0.0081456 0.00814526 0.0081443 0.0081459 0.00814529 0.00814426 0.00814492 0.00814453 0.00814379 0.00814523 0.00814466 0.00814367 0.00814428 0.00814384 0.00814323 0.00814445 0.00814397 0.0081431 0.00814367 0.00814321 0.00814274 0.00814372 0.00814341 0.00814256 0.00814311 0.00814261 0.0081422 0.00814315 0.00814277 0.0081421 0.0081425 0.00814202 0.00814175 0.00814251 0.00814225 0.00814163 0.00814198 0.00814146 0.00814128 0.00814188 0.00814167 0.00814119 0.00814148 0.00814093 0.00814087 0.00814138 0.0081412 0.00814074 0.00814097 0.00814046 0.00814043 0.00814082 0.00814075 0.00814036 0.00814055 0.00814 0.00814006 0.00814035 0.00814027 0.00813995 0.00814009 0.00813965 0.00813969 0.00813992 0.00813991 0.00813964 0.0081397 0.00813922 0.0081394 0.00813947 0.00813952 0.00813925 0.00813936 0.00813895 0.00813909 0.00813917 0.00813919 0.00813901 0.00813904 0.00813865 0.00813883 0.00813881 0.00813895 0.00813862 0.00813868 0.00813837 0.00813859 0.00813857 0.00813862 0.00813844 0.00813842 0.00813827 0.00813837 0.00813824 0.00813842 0.00813814 0.00813815 0.00813798 0.00813799 0.00813796 0.00813809 0.00813797 0.00813792 0.00820652 0.00818867 0.0082572 0.00824565 0.00819457 0.00820148 0.00816733 0.00816185 0.00818554 0.00816571 0.00816897 0.00817356 0.00816273 0.00815933 0.00816634 0.00816061 0.00816148 0.0081652 0.00816245 0.00815884 0.00816288 0.00816104 0.0081596 0.00816199 0.00816184 0.00815821 0.00816212 0.00816115 0.00815857 0.00816051 0.00816095 0.00815768 0.00816157 0.00816024 0.00815764 0.00815935 0.00815977 0.00815671 0.00816051 0.00815941 0.00815662 0.00815828 0.00815858 0.00815578 0.00815937 0.00815818 0.00815568 0.00815704 0.00815718 0.00815477 0.00815816 0.00815704 0.00815464 0.00815606 0.00815612 0.00815379 0.00815688 0.00815575 0.00815349 0.00815484 0.00815469 0.00815268 0.00815544 0.00815445 0.00815249 0.00815378 0.00815341 0.00815172 0.00815415 0.0081532 0.00815143 0.00815251 0.0081521 0.00815059 0.00815292 0.0081521 0.00815037 0.00815141 0.00815098 0.00814966 0.00815156 0.00815078 0.00814933 0.00815024 0.00814968 0.00814854 0.00815034 0.00814962 0.00814824 0.00814916 0.00814861 0.00814757 0.00814918 0.00814856 0.00814732 0.00814804 0.00814742 0.00814669 0.00814809 0.00814744 0.00814634 0.00814712 0.00814647 0.00814572 0.00814693 0.00814651 0.00814547 0.00814609 0.00814537 0.00814493 0.00814597 0.00814553 0.00814463 0.00814527 0.00814456 0.00814407 0.008145 0.00814464 0.00814385 0.00814433 0.00814356 0.00814337 0.00814413 0.00814379 0.00814306 0.00814357 0.00814284 0.00814262 0.00814317 0.00814297 0.00814242 0.00814273 0.00814199 0.00814198 0.00814239 0.00814219 0.0081417 0.00814209 0.00814139 0.00814133 0.00814166 0.00814158 0.0081411 0.00814145 0.00814066 0.00814079 0.00814102 0.00814087 0.00814054 0.00814081 0.00814019 0.00814025 0.00814037 0.00814036 0.00814003 0.00814022 0.00813955 0.00813983 0.00813982 0.00813976 0.0081395 0.00813974 0.00813924 0.00813938 0.00813934 0.00813941 0.00813916 0.0081393 0.00813876 0.00813903 0.00813898 0.00813895 0.00813876 0.00813884 0.0081385 0.00813871 0.00813857 0.00813863 0.00813842 0.00813853 0.00813817 0.00813842 0.00813835 0.00813829 0.00813812 0.00813829 0.00813801 0.00813806 0.008138 0.00813803 0.00813786 0.00813786 0.00824831 0.00822087 0.00832286 0.00830492 0.00822158 0.00823164 0.00817423 0.0081698 0.00817179 0.00817495 0.00817626 0.00818245 0.008173 0.00816783 0.00817173 0.00816876 0.00816943 0.00817298 0.00817239 0.00816745 0.00817275 0.00816959 0.00816788 0.0081703 0.00817113 0.00816669 0.00817192 0.00816916 0.00816671 0.00816857 0.00816947 0.00816547 0.00817018 0.008168 0.00816543 0.00816707 0.00816768 0.00816413 0.00816845 0.00816663 0.00816404 0.00816552 0.00816593 0.00816266 0.00816651 0.00816502 0.00816254 0.00816377 0.00816401 0.00816113 0.00816465 0.00816324 0.00816096 0.00816206 0.0081621 0.00815953 0.00816282 0.00816171 0.0081592 0.00816036 0.00816034 0.00815809 0.00816085 0.00815975 0.00815772 0.00815869 0.00815841 0.00815633 0.00815901 0.00815821 0.00815613 0.00815715 0.0081567 0.00815487 0.00815727 0.00815648 0.00815474 0.00815536 0.00815505 0.00815344 0.00815559 0.00815494 0.00815309 0.00815398 0.00815339 0.00815209 0.00815389 0.00815322 0.00815174 0.00815243 0.00815184 0.00815064 0.00815229 0.00815183 0.00815038 0.00815104 0.00815043 0.00814936 0.00815073 0.00815034 0.00814912 0.00814959 0.00814895 0.00814814 0.00814941 0.00814903 0.00814783 0.00814832 0.00814769 0.00814697 0.00814798 0.00814773 0.00814675 0.0081471 0.00814641 0.00814587 0.00814679 0.00814654 0.00814559 0.00814599 0.00814528 0.00814483 0.00814555 0.00814539 0.00814462 0.00814488 0.00814413 0.00814385 0.00814448 0.00814436 0.0081436 0.00814392 0.00814319 0.00814298 0.00814331 0.00814335 0.00814276 0.00814291 0.00814223 0.00814217 0.00814249 0.0081425 0.00814187 0.00814215 0.00814139 0.00814137 0.00814153 0.00814165 0.00814118 0.00814126 0.00814063 0.00814073 0.00814084 0.00814093 0.00814044 0.00814061 0.00813994 0.00814011 0.00814003 0.00814019 0.00813991 0.00813993 0.00813934 0.00813961 0.00813948 0.00813966 0.00813935 0.00813946 0.00813891 0.00813908 0.00813894 0.00813909 0.00813885 0.0081389 0.00813848 0.00813874 0.00813857 0.00813871 0.0081385 0.00813857 0.00813826 0.00813841 0.00813825 0.00813836 0.00813826 0.00813823 0.00813807 0.00813815 0.00813813 0.00813811 0.00813795 0.00813802 
SCALARS volume_diff float 1
LOOKUP_TABLE default
0.00770625 0.00772965 0.00768952 0.00767507 0.00771525 0.0077463 0.00777852 0.00775041 0.00775376 0.00774752 0.00775467 0.00777878 0.00778263 0.00776308 0.0077719 0.00776887 0.00776546 0.00778259 0.00778076 0.00776979 0.00777473 0.00777399 0.00777022 0.00778152 0.00778077 0.00777393 0.00777695 0.00777677 0.00777393 0.00778091 0.00778218 0.00777736 0.0077799 0.00777939 0.00777747 0.00778177 0.00778437 0.00778045 0.00778313 0.00778214 0.00778084 0.00778347 0.0077867 0.00778353 0.00778624 0.00778489 0.00778404 0.00778583 0.00778919 0.00778641 0.00778908 0.00778765 0.00778697 0.0077882 0.00779149 0.00778912 0.00779165 0.00779023 0.00778971 0.00779075 0.0077938 0.00779163 0.00779399 0.00779273 0.00779224 0.00779303 0.00779589 0.00779399 0.00779615 0.00779496 0.00779461 0.0077953 0.00779789 0.00779611 0.00779809 0.00779707 0.00779672 0.00779727 0.00779963 0.00779819 0.00779991 0.00779895 0.00779872 0.00779923 0.00780133 0.00779998 0.00780151 0.00780073 0.00780047 0.00780086 0.00780281 0.00780165 0.00780304 0.00780228 0.00780218 0.00780254 0.00780423 0.00780319 0.00780441 0.00780379 0.00780368 0.00780386 0.00780538 0.00780459 0.0078057 0.00780504 0.00780503 0.00780519 0.00780657 0.00780584 0.00780675 0.00780627 0.00780626 0.00780634 0.00780753 0.007807 0.00780782 0.00780734 0.00780738 0.00780744 0.00780848 0.00780801 0.00780867 0.00780833 0.0078084 0.00780833 0.00780923 0.00780893 0.00780949 0.00780913 0.00780929 0.00780924 0.00780998 0.00780971 0.00781015 0.00780994 0.00781001 0.00780987 0.00781051 0.00781043 0.00781078 0.00781052 0.00781071 0.00781062 0.00781108 0.00781103 0.00781127 0.00781113 0.00781125 0.00781103 0.0078115 0.00781155 0.00781174 0.00781159 0.00781178 0.0078116 0.00781188 0.00781191 0.00781206 0.00781198 0.00781215 0.00781184 0.00781217 0.00781226 0.0078124 0.00781225 0.00781251 0.00781232 0.00781239 0.00781248 0.00781255 0.00781254 0.00781264 0.00781232 0.00781243 0.00781266 0.00781271 0.00781264 0.00781273 0.00781256 0.00781251 0.00781268 0.00781271 0.00781269 0.00781271 0.00781255 0.00781247 0.00781262 0.00781266 0.00781261 0.00781261 0.00781263 0.00774948 0.00775813 0.00773214 0.00773891 0.00772518 0.00777455 0.00779406 0.00777362 0.00776685 0.00776483 0.00776979 0.00779612 0.00779556 0.00778432 0.00778358 0.00778292 0.00777924 0.00779546 0.00779332 0.00778585 0.00778792 0.00778682 0.00778196 0.00779236 0.00779216 0.00778631 0.00778947 0.00778822 0.00778418 0.00779099 0.00779231 0.00778745 0.00779071 0.00778968 0.00778673 0.0077912 0.00779331 0.00778899 0.00779243 0.00779144 0.00778925 0.0077922 0.00779477 0.00779095 0.00779427 0.00779332 0.00779174 0.00779371 0.00779636 0.00779287 0.00779627 0.00779519 0.00779396 0.00779537 0.00779799 0.00779494 0.00779808 0.00779706 0.00779608 0.0077971 0.00779959 0.00779676 0.00779989 0.00779879 0.00779798 0.00779877 0.00780113 0.00779864 0.00780141 0.00780043 0.00779973 0.00780036 0.0078025 0.00780021 0.00780289 0.00780192 0.00780131 0.00780182 0.00780381 0.00780184 0.00780414 0.00780329 0.00780279 0.00780319 0.00780495 0.00780316 0.00780539 0.00780452 0.0078041 0.00780442 0.00780605 0.00780451 0.0078064 0.00780566 0.00780533 0.00780554 0.007807 0.00780563 0.00780742 0.00780668 0.0078064 0.00780655 0.00780786 0.00780678 0.00780822 0.00780762 0.00780743 0.00780752 0.00780863 0.00780764 0.00780905 0.00780845 0.00780827 0.00780832 0.00780937 0.00780856 0.00780969 0.0078092 0.00780907 0.00780905 0.00780996 0.00780924 0.00781036 0.00780985 0.00780978 0.00780978 0.0078105 0.00780999 0.0078108 0.00781041 0.00781043 0.00781031 0.00781094 0.00781047 0.00781129 0.00781092 0.00781091 0.0078108 0.00781141 0.00781106 0.00781165 0.00781136 0.00781144 0.00781126 0.00781172 0.00781141 0.00781204 0.00781174 0.00781179 0.00781157 0.00781203 0.00781185 0.00781228 0.00781206 0.00781207 0.00781194 0.0078122 0.00781203 0.00781249 0.00781226 0.00781236 0.0078121 0.00781243 0.00781239 0.00781263 0.00781243 0.00781261 0.00781235 0.00781249 0.00781243 0.00781278 0.00781259 0.00781257 0.00781234 0.00781257 0.00781261 0.00781275 0.00781267 0.00781264 0.0078125 0.00781259 0.0078126 0.00781284 0.0078127 0.00781263 0.00781257 0.00781259 0.00781269 0.00781278 0.00781261 0.00781268 0.00781261 0.00778281 0.00778092 0.00777711 0.00777491 0.00776442 0.00779069 0.00780392 0.00779189 0.00779085 0.00778675 0.0077839 0.00780437 0.00780435 0.00779642 0.00779711 0.00779592 0.0077906 0.00780386 0.00780271 0.00779691 0.00779931 0.00779794 0.00779324 0.00780153 0.00780175 0.00779669 0.00780009 0.0077983 0.00779478 0.00780044 0.00780159 0.00779696 0.00780061 0.00779914 0.00779633 0.00780031 0.00780204 0.00779769 0.00780143 0.00780016 0.00779789 0.00780079 0.00780277 0.00779872 0.00780243 0.00780142 0.00779949 0.00780165 0.00780369 0.00779996 0.00780359 0.00780258 0.00780098 0.00780262 0.00780458 0.00780126 0.00780471 0.00780385 0.00780238 0.00780368 0.00780555 0.00780251 0.00780581 0.00780493 0.00780371 0.00780467 0.00780643 0.0078037 0.00780676 0.00780596 0.00780486 0.00780565 0.00780725 0.00780483 0.00780767 0.00780683 0.00780591 0.00780654 0.00780801 0.00780583 0.00780844 0.00780772 0.00780684 0.00780738 0.00780869 0.00780678 0.00780912 0.00780842 0.00780772 0.00780812 0.0078093 0.00780764 0.00780976 0.00780914 0.0078085 0.00780881 0.00780985 0.0078084 0.00781032 0.00780973 0.00780921 0.0078094 0.00781029 0.0078091 0.00781079 0.00781028 0.0078098 0.00780993 0.00781074 0.00780967 0.0078112 0.00781073 0.00781037 0.0078104 0.0078111 0.00781023 0.0078116 0.00781118 0.00781081 0.00781085 0.00781146 0.00781071 0.00781188 0.0078115 0.00781131 0.00781122 0.00781167 0.00781111 0.00781216 0.00781182 0.00781157 0.00781156 0.00781196 0.00781148 0.00781237 0.00781206 0.00781192 0.00781179 0.00781213 0.00781177 0.00781253 0.00781232 0.00781213 0.00781207 0.00781231 0.00781203 0.00781264 0.00781245 0.00781242 0.00781221 0.00781241 0.00781224 0.00781279 0.00781264 0.00781252 0.00781241 0.00781248 0.00781234 0.00781283 0.00781264 0.00781268 0.00781242 0.00781257 0.00781247 0.00781288 0.00781273 0.00781271 0.00781258 0.00781258 0.00781256 0.00781288 0.00781281 0.00781266 0.00781249 0.00781258 0.00781257 0.00781286 0.00781276 0.00781272 0.00781259 0.00781255 0.00781263 0.00781281 0.00781274 0.00781272 0.00781256 0.00781254 0.00781262 0.00781273 0.00781267 0.00781267 0.00781257 0.00780935 0.00780213 0.00781847 0.00780737 0.00779622 0.00780553 0.00781279 0.00780638 0.00781217 0.00780516 0.00780047 0.00781128 0.00781225 0.00780712 0.0078108 0.00780711 0.00780274 0.00781116 0.00781125 0.00780645 0.0078104 0.00780778 0.00780395 0.00781004 0.00781065 0.00780592 0.00780992 0.00780802 0.00780481 0.00780934 0.00781052 0.00780588 0.00780985 0.00780823 0.00780558 0.00780912 0.00781053 0.00780608 0.00781008 0.00780871 0.00780641 0.00780914 0.00781077 0.00780661 0.00781044 0.00780921 0.00780728 0.00780945 0.00781097 0.00780716 0.00781093 0.00780983 0.00780805 0.00780977 0.00781134 0.00780787 0.00781134 0.00781038 0.0078088 0.00781021 0.00781158 0.0078084 0.00781178 0.00781088 0.00780947 0.00781058 0.00781192 0.00780908 0.00781217 0.00781131 0.00781008 0.00781099 0.0078121 0.00780957 0.00781247 0.00781174 0.00781059 0.00781131 0.00781242 0.00781017 0.00781274 0.007812 0.00781105 0.00781166 0.0078125 0.0078105 0.00781293 0.00781227 0.00781143 0.00781187 0.00781276 0.00781099 0.00781314 0.0078125 0.00781178 0.00781215 0.0078128 0.00781128 0.00781324 0.00781275 0.00781206 0.00781231 0.00781297 0.00781166 0.00781336 0.00781285 0.00781233 0.00781252 0.00781296 0.00781184 0.00781341 0.00781302 0.00781253 0.0078126 0.00781309 0.00781214 0.00781345 0.00781308 0.0078127 0.00781272 0.00781302 0.00781222 0.00781345 0.00781313 0.00781283 0.00781282 0.00781314 0.0078125 0.00781346 0.00781318 0.00781294 0.00781289 0.007813 0.00781252 0.00781339 0.00781316 0.00781296 0.00781291 0.00781308 0.00781268 0.00781333 0.00781321 0.00781303 0.00781297 0.00781294 0.00781264 0.00781327 0.00781318 0.00781303 0.00781293 0.00781302 0.00781283 0.00781326 0.00781314 0.00781307 0.00781293 0.00781288 0.00781269 0.00781312 0.00781304 0.00781302 0.00781286 0.00781291 0.00781283 0.00781309 0.00781304 0.00781303 0.0078129 0.00781275 0.00781266 0.00781294 0.00781295 0.00781286 0.00781266 0.00781274 0.00781272 0.00781284 0.00781281 0.00781283 0.00781271 0.00781257 0.0078126 0.00781273 0.00781277 0.00781274 0.00781262 0.00781262 0.00781259 0.00781258 0.00781252 0.00781272 0.00781261 0.00783004 0.00782203 0.00785798 0.00783879 0.00782117 0.00781875 0.00782122 0.00781863 0.00783104 0.00782194 0.00781607 0.00781843 0.00781985 0.00781674 0.0078233 0.00781795 0.00781438 0.00781859 0.00781944 0.00781542 0.00782047 0.00781747 0.00781427 0.00781819 0.00781916 0.00781475 0.00781933 0.00781711 0.0078141 0.00781792 0.00781896 0.00781446 0.00781869 0.00781707 0.00781436 0.00781744 0.00781866 0.00781434 0.00781837 0.0078169 0.00781455 0.00781712 0.00781834 0.00781429 0.00781826 0.00781696 0.00781478 0.00781697 0.00781811 0.00781437 0.00781805 0.00781687 0.00781494 0.00781669 0.00781778 0.00781437 0.00781796 0.00781691 0.00781507 0.00781661 0.00781754 0.00781447 0.00781773 0.00781679 0.00781516 0.00781635 0.0078172 0.00781443 0.00781757 0.00781674 0.0078152 0.00781625 0.00781698 0.0078145 0.00781728 0.00781653 0.00781521 0.00781598 0.00781658 0.00781444 0.00781712 0.00781644 0.00781519 0.00781588 0.00781637 0.00781446 0.00781676 0.00781615 0.0078151 0.00781562 0.00781606 0.00781434 0.00781654 0.00781604 0.00781501 0.00781549 0.0078158 0.00781434 0.0078162 0.00781575 0.00781489 0.00781521 0.00781545 0.0078142 0.00781601 0.00781558 0.00781476 0.00781508 0.00781521 0.00781416 0.00781562 0.00781528 0.00781466 0.00781477 0.00781488 0.00781399 0.00781546 0.00781515 0.00781449 0.00781463 0.00781466 0.00781398 0.00781505 0.00781483 0.0078144 0.0078144 0.00781436 0.00781379 0.00781483 0.00781466 0.00781419 0.00781429 0.00781416 0.00781373 0.00781447 0.00781436 0.00781404 0.00781398 0.00781388 0.00781351 0.00781429 0.00781425 0.00781386 0.00781388 0.00781367 0.00781346 0.00781394 0.00781391 0.00781369 0.00781355 0.00781347 0.00781326 0.00781379 0.00781377 0.00781354 0.00781352 0.00781325 0.00781321 0.00781348 0.0078135 0.00781339 0.00781322 0.00781306 0.00781302 0.00781336 0.00781342 0.00781319 0.00781319 0.00781292 0.00781295 0.00781305 0.00781311 0.00781305 0.00781289 0.0078127 0.0078128 0.00781295 0.00781306 0.00781282 0.00781285 0.00781263 0.00781274 0.00781268 0.00781274 0.00781274 0.00781257 0.0078125 0.0078125 0.00781252 0.00781255 0.00781253 0.00781251 0.0078456 0.00784101 0.00789912 0.00787157 0.00784089 0.00783049 0.00782954 0.00782948 0.00784779 0.00783764 0.00783009 0.0078262 0.00782773 0.00782564 0.00783403 0.00782857 0.00782552 0.00782636 0.00782788 0.00782415 0.00782978 0.00782672 0.007824 0.00782638 0.0078277 0.00782323 0.00782814 0.00782611 0.00782329 0.00782605 0.00782727 0.00782277 0.00782744 0.00782538 0.0078228 0.00782547 0.0078266 0.00782223 0.00782659 0.00782488 0.00782245 0.00782485 0.0078259 0.00782174 0.00782587 0.00782428 0.00782213 0.00782421 0.007825 0.00782122 0.00782518 0.00782378 0.00782167 0.00782347 0.00782425 0.00782079 0.00782441 0.00782313 0.00782126 0.00782279 0.00782331 0.00782022 0.00782367 0.0078226 0.00782075 0.00782204 0.00782257 0.00781975 0.00782287 0.00782194 0.0078203 0.00782136 0.00782171 0.00781917 0.00782208 0.00782133 0.00781973 0.00782064 0.007821 0.00781876 0.00782133 0.00782065 0.00781929 0.00782001 0.00782017 0.00781816 0.00782059 0.00782 0.00781867 0.00781937 0.00781956 0.00781774 0.00781986 0.00781936 0.00781819 0.00781875 0.00781875 0.00781725 0.00781919 0.00781878 0.00781768 0.00781813 0.00781818 0.00781684 0.00781852 0.00781818 0.00781726 0.00781756 0.00781748 0.00781633 0.00781786 0.00781762 0.00781674 0.00781702 0.00781695 0.00781599 0.00781728 0.00781709 0.00781629 0.00781649 0.00781634 0.00781549 0.0078167 0.00781658 0.00781582 0.00781605 0.00781588 0.00781519 0.00781613 0.00781604 0.00781549 0.00781558 0.00781531 0.00781476 0.00781558 0.00781559 0.00781502 0.00781513 0.00781495 0.00781443 0.00781512 0.00781515 0.00781469 0.00781478 0.00781443 0.00781413 0.00781463 0.00781475 0.0078143 0.00781433 0.00781411 0.00781385 0.00781424 0.00781435 0.00781399 0.00781403 0.00781367 0.00781348 0.00781382 0.00781399 0.00781364 0.00781368 0.00781347 0.00781338 0.00781356 0.00781368 0.00781346 0.00781346 0.00781311 0.00781305 0.0078132 0.00781338 0.00781308 0.00781311 0.00781292 0.00781295 0.00781296 0.00781309 0.00781293 0.00781289 0.0078127 0.00781267 0.00781268 0.00781285 0.00781265 0.00781265 0.00781256 0.00781249 0.00781238 0.00781246 0.00781246 0.00781247 0.0078593 0.00785946 0.00794613 0.00790973 0.00785562 0.0078407 0.00783794 0.00783871 0.00785765 0.00785142 0.00784239 0.00783477 0.00783656 0.00783429 0.00784128 0.00783853 0.00783576 0.00783474 0.00783671 0.00783278 0.00783808 0.0078358 0.00783352 0.0078346 0.00783633 0.00783183 0.00783686 0.00783466 0.00783209 0.00783417 0.00783541 0.00783093 0.00783593 0.00783369 0.00783125 0.00783329 0.00783425 0.00783007 0.00783483 0.00783253 0.00783013 0.0078324 0.00783306 0.0078291 0.00783343 0.00783162 0.00782928 0.00783108 0.00783166 0.00782807 0.00783205 0.00783041 0.00782835 0.00782985 0.00783024 0.00782699 0.00783074 0.00782937 0.00782733 0.0078287 0.00782899 0.00782599 0.00782938 0.00782817 0.00782628 0.00782743 0.0078276 0.00782492 0.00782806 0.0078271 0.00782525 0.00782633 0.00782633 0.00782394 0.00782673 0.0078259 0.00782424 0.00782508 0.00782503 0.00782295 0.00782553 0.00782487 0.00782326 0.00782401 0.00782388 0.00782203 0.00782425 0.00782371 0.00782227 0.00782289 0.00782273 0.00782105 0.00782319 0.00782274 0.00782134 0.00782193 0.0078217 0.00782023 0.00782205 0.00782167 0.0078205 0.00782088 0.00782064 0.00781937 0.00782108 0.0078208 0.0078196 0.00782006 0.00781972 0.00781864 0.00781999 0.00781981 0.00781886 0.0078191 0.00781874 0.00781785 0.00781914 0.00781903 0.00781806 0.00781834 0.00781792 0.00781718 0.00781822 0.00781818 0.00781737 0.00781752 0.00781711 0.00781649 0.00781743 0.00781745 0.00781667 0.00781691 0.00781643 0.00781594 0.00781661 0.00781667 0.00781606 0.00781612 0.00781568 0.00781533 0.00781595 0.00781609 0.00781549 0.00781564 0.00781508 0.00781484 0.00781524 0.00781541 0.00781491 0.00781497 0.00781453 0.00781434 0.00781473 0.00781494 0.00781443 0.00781457 0.00781403 0.00781398 0.00781411 0.00781438 0.007814 0.00781401 0.00781359 0.00781358 0.00781375 0.00781404 0.00781361 0.00781374 0.00781323 0.00781329 0.00781328 0.00781353 0.00781324 0.0078132 0.0078129 0.00781298 0.00781298 0.00781325 0.00781295 0.00781303 0.00781271 0.00781283 0.00781265 0.00781289 0.00781268 0.00781262 0.00781241 0.00781247 0.00781243 0.00781252 0.00781237 0.00781242 0.00784684 0.00787933 0.00799432 0.00796527 0.00785979 0.00784923 0.00784781 0.00784649 0.00784488 0.00785922 0.00785106 0.00784472 0.00784729 0.007843 0.00784677 0.00784657 0.00784494 0.00784389 0.00784641 0.00784167 0.00784703 0.00784447 0.00784242 0.00784333 0.00784511 0.00784042 0.00784602 0.00784337 0.00784075 0.00784238 0.00784364 0.00783924 0.00784447 0.00784188 0.00783951 0.00784106 0.00784187 0.0078377 0.00784284 0.00784044 0.00783794 0.00783957 0.00784022 0.00783627 0.00784093 0.00783872 0.00783638 0.00783779 0.00783827 0.00783466 0.00783902 0.00783711 0.00783479 0.00783612 0.00783643 0.00783313 0.00783699 0.00783535 0.00783324 0.00783441 0.00783453 0.00783153 0.00783518 0.00783374 0.0078316 0.00783267 0.00783278 0.00783004 0.00783322 0.00783196 0.00783007 0.00783103 0.00783097 0.00782848 0.00783147 0.00783042 0.00782856 0.00782938 0.00782928 0.00782712 0.00782963 0.0078288 0.00782714 0.00782786 0.00782768 0.00782561 0.00782805 0.00782733 0.00782569 0.00782635 0.00782612 0.0078244 0.00782642 0.00782579 0.00782444 0.00782493 0.00782469 0.00782305 0.00782501 0.00782454 0.00782309 0.0078236 0.00782329 0.00782194 0.00782354 0.00782311 0.00782197 0.00782233 0.00782199 0.00782075 0.00782228 0.007822 0.0078208 0.00782118 0.0078208 0.00781977 0.007821 0.00782074 0.00781978 0.00782001 0.00781966 0.00781871 0.00781986 0.00781972 0.00781873 0.007819 0.00781857 0.00781788 0.00781871 0.00781861 0.00781784 0.00781803 0.0078176 0.00781692 0.00781775 0.00781777 0.00781691 0.00781718 0.00781671 0.00781625 0.00781677 0.00781679 0.00781623 0.00781632 0.00781585 0.00781543 0.00781598 0.00781606 0.00781542 0.00781555 0.00781517 0.0078149 0.00781519 0.00781528 0.00781481 0.00781492 0.00781444 0.00781418 0.00781451 0.00781467 0.00781415 0.0078143 0.00781389 0.00781386 0.00781392 0.00781404 0.00781377 0.00781381 0.00781339 0.00781329 0.00781347 0.00781366 0.00781322 0.00781329 0.00781301 0.00781308 0.00781298 0.00781316 0.00781289 0.00781298 0.00781273 0.00781277 0.00781279 0.00781287 0.00781257 0.00781267 0.00781258 0.00781257 0.00781257 0.00781252 0.00781238 0.00781246 0.00776783 0.00771846 0.00770936 0.00766902 0.00773899 0.00771015 0.00776683 0.0077559 0.00775179 0.00773889 0.00775075 0.00774981 0.00777061 0.00775848 0.00776968 0.0077566 0.00775749 0.00776407 0.00777232 0.00776374 0.00777125 0.00776576 0.00776445 0.00777248 0.00777535 0.00776969 0.00777316 0.00777222 0.00777058 0.0077776 0.0077791 0.00777495 0.00777688 0.00777732 0.00777588 0.00778102 0.00778267 0.00777937 0.0077812 0.0077814 0.00778019 0.00778402 0.00778603 0.00778316 0.00778514 0.00778494 0.00778398 0.00778663 0.00778886 0.0077864 0.00778871 0.00778794 0.00778713 0.0077893 0.00779151 0.00778929 0.00779159 0.00779069 0.00779004 0.00779159 0.00779381 0.00779189 0.0077942 0.0077931 0.00779258 0.00779403 0.00779604 0.00779424 0.0077964 0.00779538 0.00779495 0.00779601 0.00779788 0.00779639 0.00779846 0.00779738 0.00779705 0.00779807 0.00779981 0.00779841 0.00780019 0.00779928 0.00779905 0.00779979 0.00780137 0.00780019 0.00780194 0.00780094 0.00780076 0.00780157 0.00780299 0.00780188 0.00780338 0.00780255 0.00780247 0.00780294 0.00780426 0.0078034 0.00780479 0.00780392 0.00780391 0.00780447 0.0078056 0.00780477 0.007806 0.00780526 0.00780527 0.00780561 0.00780662 0.00780601 0.0078071 0.00780641 0.0078065 0.00780688 0.00780774 0.00780718 0.00780808 0.00780751 0.00780756 0.00780773 0.00780854 0.00780817 0.00780898 0.00780843 0.00780857 0.00780881 0.00780942 0.00780908 0.00780969 0.00780928 0.00780943 0.00780947 0.00781004 0.00780985 0.00781046 0.00780998 0.00781017 0.00781029 0.00781074 0.00781056 0.007811 0.00781066 0.00781084 0.00781079 0.00781114 0.00781114 0.00781157 0.00781118 0.0078114 0.00781144 0.00781175 0.00781168 0.00781196 0.00781168 0.00781188 0.00781178 0.00781199 0.00781204 0.00781234 0.00781199 0.00781224 0.0078122 0.00781241 0.00781241 0.00781256 0.00781236 0.00781258 0.00781241 0.00781247 0.00781261 0.0078128 0.00781251 0.00781268 0.0078126 0.0078127 0.00781275 0.0078128 0.00781266 0.00781284 0.00781264 0.00781263 0.00781278 0.00781289 0.0078127 0.00781269 0.00781274 0.00781266 0.00781265 0.00781278 0.00781259 0.00781258 0.00781258 0.00778033 0.0077665 0.00774478 0.0077408 0.00773083 0.00774956 0.00777969 0.00777291 0.00775886 0.00775843 0.00776263 0.00777524 0.00778173 0.00777569 0.0077753 0.0077715 0.00777418 0.00778343 0.00778502 0.00777852 0.00778221 0.00777907 0.00777846 0.00778662 0.00778733 0.00778159 0.00778534 0.00778431 0.0077819 0.00778868 0.00778946 0.00778469 0.00778787 0.00778784 0.00778511 0.00779074 0.00779144 0.00778747 0.00779045 0.00779095 0.00778841 0.0077925 0.00779352 0.00779016 0.00779315 0.00779318 0.0077912 0.00779443 0.00779545 0.00779251 0.00779563 0.00779549 0.00779387 0.00779612 0.00779738 0.00779479 0.00779785 0.00779724 0.00779607 0.00779792 0.00779907 0.00779666 0.00779979 0.00779919 0.00779821 0.00779948 0.00780073 0.00779861 0.00780157 0.00780059 0.00779994 0.00780106 0.00780211 0.00780022 0.00780302 0.00780227 0.00780166 0.00780241 0.00780354 0.00780184 0.0078044 0.00780338 0.00780307 0.00780378 0.00780465 0.00780314 0.00780558 0.0078048 0.00780446 0.00780488 0.00780583 0.00780459 0.00780671 0.00780575 0.00780557 0.00780604 0.00780675 0.00780565 0.00780766 0.00780694 0.00780675 0.00780695 0.00780772 0.0078068 0.00780851 0.00780768 0.00780762 0.00780792 0.00780849 0.00780767 0.00780926 0.00780869 0.00780863 0.00780864 0.00780928 0.00780861 0.00780996 0.00780921 0.00780926 0.00780943 0.00780986 0.00780927 0.00781056 0.00781006 0.00781009 0.00781001 0.00781043 0.00781004 0.0078111 0.00781041 0.00781059 0.00781061 0.00781088 0.00781052 0.0078115 0.0078111 0.00781119 0.007811 0.00781136 0.00781117 0.00781193 0.00781135 0.00781156 0.00781151 0.00781166 0.00781145 0.00781224 0.00781187 0.00781202 0.00781175 0.00781202 0.00781195 0.00781252 0.00781199 0.00781221 0.00781214 0.00781218 0.0078121 0.00781271 0.00781237 0.00781255 0.00781227 0.00781243 0.00781249 0.00781286 0.00781238 0.00781266 0.00781256 0.00781249 0.00781254 0.00781287 0.00781272 0.00781276 0.00781249 0.00781263 0.00781275 0.00781293 0.00781253 0.00781269 0.00781264 0.00781263 0.00781269 0.00781294 0.00781275 0.00781281 0.00781255 0.00781269 0.00781275 0.00781291 0.0078125 0.0078127 0.00781274 0.00779857 0.00778654 0.00778077 0.00777776 0.00776051 0.00777809 0.00779821 0.00778871 0.00778677 0.00778331 0.00777754 0.00778997 0.00779669 0.00778911 0.00779196 0.00778905 0.00778617 0.00779576 0.00779743 0.00779125 0.00779509 0.00779277 0.00778993 0.00779769 0.00779826 0.00779306 0.00779672 0.00779554 0.00779247 0.00779869 0.00779927 0.00779455 0.00779819 0.0077977 0.00779458 0.00779962 0.0078003 0.0077962 0.00779959 0.00779956 0.00779682 0.00780072 0.00780145 0.00779766 0.00780122 0.00780109 0.00779878 0.00780186 0.00780252 0.0077993 0.00780276 0.00780253 0.0078007 0.007803 0.00780372 0.00780065 0.00780423 0.0078038 0.00780226 0.00780409 0.0078047 0.00780216 0.00780552 0.00780495 0.00780374 0.00780515 0.00780583 0.0078033 0.00780667 0.00780595 0.00780496 0.00780607 0.00780663 0.00780461 0.00780763 0.00780686 0.00780617 0.00780696 0.00780754 0.00780556 0.00780854 0.00780772 0.00780705 0.00780778 0.0078082 0.00780662 0.00780922 0.00780844 0.00780804 0.00780854 0.00780895 0.00780736 0.00780991 0.00780911 0.00780874 0.00780916 0.00780945 0.00780832 0.00781045 0.00780974 0.00780951 0.00780976 0.00781006 0.00780889 0.00781099 0.00781027 0.00781004 0.00781024 0.00781048 0.00780965 0.0078114 0.00781074 0.00781069 0.00781076 0.00781097 0.00781005 0.00781181 0.00781114 0.00781104 0.00781113 0.00781122 0.00781067 0.00781209 0.00781149 0.00781157 0.00781153 0.0078116 0.00781097 0.00781232 0.00781177 0.00781183 0.00781178 0.00781174 0.00781152 0.00781251 0.00781206 0.00781216 0.00781208 0.00781209 0.00781165 0.0078127 0.00781226 0.00781238 0.00781225 0.00781212 0.00781206 0.0078128 0.00781238 0.00781261 0.00781245 0.00781241 0.0078121 0.00781295 0.00781255 0.00781265 0.0078125 0.00781235 0.00781244 0.00781292 0.00781261 0.00781286 0.00781265 0.00781262 0.00781245 0.00781302 0.0078127 0.00781278 0.00781266 0.00781253 0.00781264 0.00781296 0.00781271 0.00781284 0.00781266 0.00781263 0.00781255 0.00781293 0.00781267 0.00781275 0.00781259 0.00781253 0.00781265 0.00781282 0.00781261 0.00781277 0.00781263 0.00781264 0.0078126 0.00781281 0.00781255 0.00781272 0.00781268 0.00781863 0.00780771 0.00781553 0.00781007 0.00779154 0.00780498 0.00781331 0.00780504 0.00781276 0.00780602 0.00779751 0.0078056 0.00780976 0.00780317 0.00780957 0.00780485 0.00780036 0.00780709 0.00780835 0.00780291 0.0078081 0.00780539 0.00780163 0.00780784 0.00780821 0.00780335 0.00780755 0.00780641 0.00780279 0.00780814 0.00780854 0.00780397 0.00780796 0.00780729 0.00780413 0.00780833 0.00780886 0.00780475 0.00780836 0.00780813 0.00780525 0.00780877 0.00780936 0.00780552 0.00780923 0.00780887 0.00780655 0.00780927 0.00780978 0.00780626 0.00781003 0.00780963 0.00780762 0.00780976 0.0078103 0.00780713 0.00781074 0.00781023 0.0078086 0.00781033 0.00781072 0.0078078 0.0078114 0.00781082 0.00780941 0.00781076 0.00781112 0.00780855 0.00781192 0.00781125 0.00781014 0.00781124 0.00781147 0.00780913 0.00781238 0.00781168 0.0078107 0.00781156 0.00781176 0.00780977 0.00781267 0.00781199 0.0078112 0.00781194 0.007812 0.00781018 0.00781293 0.00781235 0.00781161 0.00781217 0.0078123 0.00781069 0.00781319 0.00781248 0.00781202 0.00781244 0.0078124 0.00781101 0.00781334 0.00781274 0.0078123 0.00781259 0.00781255 0.00781145 0.00781344 0.00781288 0.00781256 0.00781277 0.00781267 0.00781166 0.00781353 0.00781308 0.00781272 0.00781288 0.0078128 0.00781196 0.00781361 0.00781309 0.00781292 0.00781299 0.00781278 0.00781212 0.00781355 0.00781324 0.00781301 0.00781303 0.00781287 0.00781233 0.00781356 0.00781317 0.00781316 0.00781313 0.00781286 0.00781238 0.00781356 0.00781323 0.00781317 0.00781311 0.0078129 0.00781259 0.00781348 0.00781319 0.00781324 0.00781317 0.00781282 0.0078126 0.00781348 0.00781321 0.00781319 0.00781301 0.00781287 0.0078127 0.00781337 0.00781314 0.00781322 0.00781309 0.00781275 0.00781268 0.00781323 0.00781308 0.00781314 0.00781294 0.0078128 0.00781277 0.0078132 0.00781299 0.00781315 0.007813 0.00781269 0.00781265 0.00781309 0.00781296 0.00781296 0.00781275 0.00781265 0.00781271 0.00781292 0.00781282 0.00781289 0.00781277 0.00781258 0.0078126 0.00781282 0.00781273 0.00781278 0.00781258 0.00781256 0.0078127 0.00781264 0.00781249 0.00781276 0.00781257 0.00783887 0.00782831 0.00785035 0.00784067 0.00782084 0.00783121 0.00782633 0.00782023 0.00783636 0.00782736 0.00781635 0.00782053 0.00782075 0.00781588 0.00782544 0.00781992 0.00781409 0.00781841 0.00781852 0.00781384 0.0078203 0.0078174 0.00781312 0.00781766 0.00781765 0.00781308 0.00781812 0.00781671 0.00781281 0.00781729 0.00781754 0.00781296 0.00781748 0.00781641 0.0078132 0.0078169 0.00781723 0.00781304 0.00781713 0.00781658 0.00781369 0.0078167 0.00781724 0.00781326 0.0078173 0.00781647 0.00781408 0.0078166 0.00781701 0.00781332 0.00781723 0.00781662 0.00781451 0.00781654 0.00781694 0.00781362 0.00781741 0.00781657 0.00781479 0.00781646 0.0078167 0.00781365 0.00781727 0.00781665 0.00781505 0.00781645 0.00781656 0.00781392 0.00781734 0.00781648 0.00781517 0.00781632 0.00781627 0.00781387 0.00781706 0.00781651 0.00781525 0.00781624 0.00781617 0.00781404 0.007817 0.00781623 0.00781523 0.00781607 0.00781585 0.00781397 0.00781668 0.00781618 0.00781526 0.00781589 0.0078157 0.00781409 0.00781658 0.00781594 0.00781515 0.00781568 0.00781537 0.00781397 0.00781622 0.00781583 0.00781511 0.00781552 0.00781524 0.00781404 0.00781606 0.00781548 0.00781494 0.00781528 0.00781492 0.00781383 0.00781567 0.0078154 0.00781485 0.00781511 0.00781477 0.0078139 0.00781552 0.00781508 0.00781465 0.00781486 0.00781444 0.00781371 0.0078151 0.00781495 0.00781454 0.00781476 0.00781428 0.00781372 0.00781495 0.0078146 0.00781434 0.00781449 0.00781394 0.00781347 0.00781453 0.00781448 0.00781418 0.00781429 0.00781388 0.00781355 0.00781441 0.00781415 0.00781401 0.00781405 0.00781355 0.00781328 0.00781401 0.00781402 0.00781383 0.00781387 0.00781348 0.00781329 0.0078139 0.00781372 0.00781363 0.00781364 0.00781314 0.00781303 0.00781351 0.00781356 0.0078135 0.0078134 0.00781314 0.0078131 0.00781343 0.0078133 0.00781332 0.00781328 0.00781285 0.00781282 0.00781309 0.0078132 0.0078131 0.00781305 0.00781288 0.00781287 0.00781305 0.0078129 0.00781292 0.00781288 0.0078126 0.00781264 0.00781263 0.0078128 0.0078128 0.00781267 0.00781258 0.00781264 0.00781254 0.00781238 0.0078126 0.00781243 0.00785931 0.00784799 0.00788754 0.00787207 0.00784929 0.00785754 0.00783779 0.0078339 0.00785698 0.0078475 0.00783332 0.00783494 0.00783047 0.00782692 0.00783817 0.00783417 0.00782664 0.00782923 0.00782792 0.00782386 0.0078305 0.00782886 0.00782384 0.00782712 0.00782688 0.00782243 0.00782767 0.0078265 0.00782259 0.00782587 0.00782609 0.0078217 0.00782653 0.00782532 0.00782221 0.00782498 0.00782551 0.00782117 0.00782561 0.00782461 0.00782182 0.00782432 0.00782488 0.0078208 0.00782512 0.00782397 0.00782169 0.00782367 0.00782409 0.00782047 0.00782439 0.00782335 0.00782126 0.00782306 0.00782339 0.00781995 0.00782384 0.00782295 0.00782103 0.00782252 0.0078226 0.00781963 0.00782324 0.00782224 0.00782059 0.00782189 0.00782188 0.0078191 0.00782254 0.00782182 0.00782025 0.00782136 0.00782114 0.00781879 0.00782187 0.00782105 0.00781968 0.00782067 0.00782041 0.00781824 0.00782111 0.00782065 0.00781932 0.00782013 0.00781974 0.00781789 0.00782046 0.00781986 0.00781874 0.00781947 0.00781908 0.00781736 0.00781976 0.00781943 0.00781834 0.00781893 0.00781845 0.00781705 0.00781919 0.00781868 0.00781776 0.00781829 0.0078178 0.00781651 0.00781848 0.00781825 0.00781735 0.00781782 0.00781721 0.00781622 0.00781788 0.00781755 0.00781685 0.00781719 0.00781664 0.00781571 0.00781724 0.00781719 0.00781646 0.00781673 0.00781609 0.00781544 0.00781668 0.0078165 0.00781592 0.00781622 0.0078156 0.00781498 0.0078161 0.00781615 0.00781557 0.00781582 0.00781512 0.00781473 0.0078156 0.00781551 0.0078151 0.00781531 0.00781471 0.00781431 0.00781509 0.00781525 0.0078148 0.00781496 0.00781426 0.00781408 0.00781465 0.00781463 0.0078143 0.00781449 0.00781386 0.00781376 0.0078142 0.00781446 0.00781408 0.00781417 0.00781354 0.00781356 0.00781383 0.00781386 0.00781366 0.00781377 0.00781332 0.00781327 0.0078135 0.00781372 0.00781352 0.00781361 0.00781304 0.00781314 0.00781324 0.00781329 0.00781308 0.00781313 0.00781283 0.00781285 0.00781289 0.00781317 0.00781296 0.00781299 0.00781265 0.00781278 0.0078127 0.00781271 0.00781257 0.00781259 0.00781247 0.00781248 0.00781237 0.00781253 0.00781241 0.00781235 0.00788127 0.00786654 0.00792857 0.00790807 0.00787565 0.0078849 0.0078458 0.00784512 0.00786784 0.007864 0.00784647 0.00784832 0.00783926 0.00783689 0.00784526 0.00784606 0.00783729 0.00783941 0.00783743 0.00783347 0.00783928 0.00783906 0.00783376 0.0078361 0.0078361 0.00783151 0.00783704 0.00783577 0.00783203 0.0078344 0.007835 0.00783031 0.00783566 0.00783382 0.00783101 0.00783295 0.0078337 0.00782909 0.00783433 0.00783254 0.00782986 0.00783191 0.00783259 0.00782827 0.0078331 0.00783115 0.007829 0.00783069 0.00783112 0.00782729 0.00783162 0.0078302 0.00782809 0.0078296 0.0078299 0.00782643 0.00783044 0.00782897 0.0078271 0.00782845 0.00782847 0.00782531 0.00782903 0.00782797 0.00782617 0.00782738 0.00782732 0.00782446 0.00782786 0.00782678 0.00782518 0.0078262 0.00782592 0.00782342 0.0078265 0.00782577 0.00782425 0.00782521 0.00782485 0.0078226 0.00782536 0.00782463 0.00782323 0.00782409 0.00782359 0.00782159 0.00782406 0.0078237 0.00782235 0.00782312 0.00782262 0.00782089 0.00782311 0.0078226 0.00782137 0.00782205 0.00782142 0.00781989 0.00782195 0.00782169 0.00782055 0.00782118 0.00782052 0.00781923 0.00782098 0.00782067 0.00781971 0.00782021 0.00781947 0.00781835 0.00781986 0.00781988 0.00781891 0.00781939 0.0078187 0.00781775 0.0078191 0.00781893 0.00781807 0.00781853 0.00781774 0.007817 0.00781811 0.00781819 0.00781742 0.00781784 0.00781706 0.00781647 0.00781742 0.00781734 0.00781671 0.00781707 0.00781622 0.00781572 0.00781653 0.00781672 0.0078161 0.00781643 0.00781569 0.0078153 0.0078159 0.00781599 0.00781545 0.00781576 0.00781489 0.00781469 0.00781515 0.00781544 0.00781496 0.00781521 0.00781456 0.00781436 0.00781467 0.00781479 0.00781443 0.00781468 0.0078139 0.0078138 0.00781397 0.00781437 0.00781396 0.00781425 0.00781361 0.00781362 0.00781368 0.00781386 0.00781356 0.0078138 0.00781312 0.00781316 0.00781315 0.00781354 0.0078132 0.00781337 0.00781301 0.00781306 0.00781295 0.00781309 0.00781288 0.00781304 0.00781263 0.00781272 0.00781257 0.00781287 0.00781268 0.00781274 0.00781257 0.0078126 0.00781244 0.00781239 0.0078124 0.00781237 0.00792198 0.00788483 0.00798729 0.00796355 0.0078961 0.00791517 0.00785033 0.00785315 0.00784499 0.00787001 0.00785401 0.00785684 0.00784937 0.00784593 0.00784904 0.00785365 0.00784628 0.00784726 0.00784788 0.00784294 0.00784918 0.00784784 0.0078432 0.00784446 0.00784575 0.00784088 0.00784698 0.00784457 0.00784126 0.00784254 0.00784391 0.00783909 0.00784483 0.00784237 0.00783968 0.00784099 0.00784212 0.00783742 0.00784287 0.00784034 0.00783796 0.00783919 0.0078401 0.00783579 0.00784075 0.0078387 0.0078363 0.00783755 0.00783826 0.00783427 0.00783876 0.00783691 0.00783477 0.0078358 0.00783628 0.0078327 0.00783685 0.00783529 0.00783318 0.00783415 0.00783441 0.00783117 0.00783478 0.00783362 0.00783158 0.00783245 0.0078326 0.00782965 0.00783309 0.00783202 0.00783006 0.00783085 0.00783082 0.0078282 0.00783115 0.00783036 0.00782852 0.00782925 0.00782911 0.00782678 0.00782953 0.00782883 0.00782713 0.00782778 0.00782747 0.00782543 0.00782778 0.00782732 0.0078257 0.00782631 0.00782601 0.00782413 0.00782634 0.0078259 0.0078244 0.00782491 0.00782453 0.0078229 0.00782478 0.00782451 0.00782311 0.00782359 0.00782317 0.00782171 0.00782347 0.00782323 0.00782193 0.00782234 0.00782184 0.00782066 0.00782204 0.00782199 0.00782078 0.00782114 0.00782065 0.00781959 0.00782092 0.00782083 0.00781975 0.00782008 0.00781951 0.0078186 0.00781965 0.00781973 0.00781873 0.00781899 0.00781839 0.00781767 0.00781865 0.00781871 0.00781778 0.00781806 0.00781749 0.00781687 0.00781751 0.00781776 0.0078169 0.00781714 0.00781658 0.00781606 0.00781666 0.00781686 0.00781614 0.00781633 0.00781572 0.00781539 0.00781576 0.00781606 0.00781535 0.00781554 0.00781497 0.00781473 0.00781514 0.00781535 0.00781476 0.00781492 0.00781434 0.00781417 0.0078143 0.00781468 0.00781413 0.00781426 0.00781374 0.00781371 0.00781384 0.00781414 0.00781364 0.00781381 0.00781325 0.00781331 0.00781325 0.00781365 0.00781311 0.00781326 0.00781289 0.00781302 0.00781294 0.0078132 0.00781281 0.00781296 0.00781266 0.00781278 0.00781264 0.0078129 0.00781257 0.00781258 0.00781261 0.00781254 0.00781265 0.00781264 0.00781239 0.00781243 0.00776085 0.00770758 0.00770676 0.00766139 0.00773284 0.0077018 0.0077636 0.00775245 0.0077453 0.00773195 0.00774847 0.00773927 0.00776838 0.00775589 0.00776716 0.00775139 0.00775474 0.00775473 0.00776977 0.00776107 0.00777084 0.00776173 0.00776176 0.0077658 0.00777289 0.00776739 0.00777309 0.00776949 0.00776878 0.00777367 0.00777717 0.00777334 0.00777667 0.00777571 0.00777467 0.00777896 0.00778139 0.00777845 0.00778095 0.00778073 0.0077797 0.00778325 0.00778522 0.00778266 0.00778503 0.00778476 0.00778376 0.00778646 0.00778843 0.00778627 0.00778866 0.00778815 0.0077873 0.00778949 0.00779131 0.0077893 0.00779168 0.00779101 0.00779024 0.0077919 0.00779374 0.00779198 0.00779433 0.00779355 0.00779294 0.00779436 0.00779602 0.00779437 0.00779661 0.00779576 0.0077952 0.00779631 0.00779796 0.00779655 0.00779869 0.0077978 0.00779741 0.00779841 0.00779982 0.00779855 0.0078005 0.00779962 0.00779927 0.00780006 0.0078015 0.00780036 0.00780216 0.00780133 0.00780112 0.00780179 0.00780305 0.00780202 0.00780366 0.00780284 0.00780268 0.00780315 0.00780434 0.00780352 0.00780504 0.00780429 0.00780418 0.00780465 0.00780563 0.00780488 0.00780627 0.00780553 0.00780543 0.00780572 0.00780665 0.00780613 0.00780735 0.0078067 0.00780674 0.00780703 0.00780778 0.00780724 0.00780833 0.00780774 0.00780771 0.00780786 0.00780862 0.00780826 0.00780922 0.00780868 0.00780881 0.00780892 0.00780942 0.00780912 0.00780997 0.00780944 0.00780956 0.00780957 0.00781007 0.00780994 0.00781064 0.00781026 0.0078104 0.00781041 0.00781079 0.00781061 0.00781122 0.00781082 0.00781094 0.00781085 0.0078112 0.00781117 0.00781172 0.0078114 0.00781157 0.00781149 0.00781174 0.00781167 0.00781215 0.00781182 0.00781197 0.00781184 0.00781198 0.00781207 0.00781247 0.00781222 0.00781238 0.00781228 0.00781234 0.00781243 0.00781273 0.00781248 0.00781265 0.00781241 0.00781246 0.00781264 0.00781291 0.00781276 0.00781278 0.00781265 0.00781269 0.00781276 0.00781302 0.00781282 0.00781278 0.0078126 0.00781263 0.00781276 0.00781302 0.00781286 0.00781279 0.00781267 0.00781268 0.00781254 0.00781292 0.00781265 0.00781255 0.00781253 0.0077788 0.00776285 0.00774278 0.00773699 0.0077276 0.00774187 0.00777786 0.00777191 0.00775448 0.0077533 0.00775738 0.00776372 0.00777826 0.00777412 0.00777191 0.00776769 0.00777115 0.00777543 0.00778136 0.0077763 0.00778082 0.00777611 0.00777707 0.00778122 0.00778442 0.00777928 0.00778465 0.00778211 0.00778105 0.00778573 0.00778709 0.00778284 0.00778739 0.00778661 0.00778473 0.00778935 0.00778995 0.00778624 0.00778993 0.00779029 0.00778815 0.00779214 0.00779233 0.00778933 0.00779271 0.00779305 0.00779119 0.00779451 0.00779484 0.00779201 0.00779526 0.00779552 0.00779394 0.00779644 0.00779679 0.00779449 0.00779768 0.00779745 0.00779625 0.00779833 0.00779886 0.00779653 0.00779966 0.00779934 0.0077984 0.00779993 0.00780041 0.00779852 0.00780153 0.00780085 0.00780021 0.0078015 0.00780209 0.0078002 0.00780303 0.0078024 0.00780187 0.00780281 0.00780328 0.00780187 0.00780447 0.00780364 0.00780332 0.00780417 0.00780468 0.00780318 0.00780563 0.00780492 0.00780469 0.00780525 0.00780569 0.00780457 0.00780683 0.00780591 0.00780584 0.00780637 0.00780685 0.00780565 0.00780769 0.00780702 0.00780697 0.00780727 0.00780759 0.00780679 0.00780864 0.00780783 0.00780791 0.00780823 0.00780857 0.00780767 0.00780931 0.00780875 0.0078088 0.00780897 0.00780914 0.0078086 0.00781008 0.00780939 0.00780953 0.00780966 0.00780991 0.00780927 0.00781058 0.0078101 0.00781026 0.00781025 0.00781031 0.00781003 0.00781114 0.00781058 0.00781079 0.00781083 0.00781097 0.00781053 0.00781152 0.00781112 0.00781138 0.00781128 0.00781122 0.00781112 0.00781194 0.00781149 0.00781175 0.00781171 0.00781173 0.00781147 0.00781221 0.00781187 0.00781214 0.007812 0.00781194 0.00781193 0.00781256 0.00781209 0.0078124 0.00781236 0.00781225 0.00781215 0.00781266 0.00781237 0.00781263 0.00781246 0.00781237 0.00781249 0.00781283 0.00781245 0.00781276 0.00781273 0.00781263 0.0078125 0.00781281 0.00781268 0.00781282 0.00781267 0.00781248 0.00781272 0.00781292 0.00781264 0.00781281 0.00781279 0.00781268 0.00781269 0.00781283 0.00781273 0.0078128 0.00781268 0.00781259 0.00781275 0.00781285 0.00781257 0.0078128 0.00781284 0.00779893 0.00778604 0.00777932 0.00777545 0.00775883 0.00777465 0.00779705 0.00778877 0.00778332 0.00778068 0.00777312 0.00778304 0.00779403 0.00778748 0.00778965 0.00778727 0.00778345 0.00779017 0.00779389 0.00778867 0.00779358 0.00779162 0.00778873 0.00779426 0.00779537 0.00779064 0.00779574 0.00779446 0.00779182 0.00779678 0.00779703 0.00779278 0.00779726 0.00779704 0.00779438 0.00779872 0.00779867 0.00779471 0.00779889 0.00779925 0.00779652 0.00780046 0.00780024 0.00779686 0.00780067 0.00780104 0.00779872 0.00780186 0.00780169 0.00779857 0.00780234 0.00780262 0.00780054 0.00780315 0.00780306 0.00780036 0.00780396 0.0078039 0.00780234 0.00780429 0.00780428 0.00780175 0.00780535 0.00780514 0.00780377 0.00780539 0.00780539 0.00780326 0.00780656 0.00780612 0.00780515 0.00780629 0.00780634 0.00780435 0.00780758 0.0078071 0.0078062 0.00780721 0.00780724 0.00780559 0.00780849 0.00780782 0.00780729 0.00780796 0.007808 0.00780644 0.00780927 0.00780867 0.00780811 0.00780873 0.00780873 0.00780745 0.00780991 0.0078093 0.00780895 0.00780932 0.00780932 0.00780815 0.00781049 0.00780994 0.00780959 0.00780998 0.0078099 0.00780893 0.00781102 0.0078104 0.00781022 0.00781045 0.00781035 0.00780948 0.00781139 0.00781093 0.00781076 0.00781094 0.00781083 0.00781015 0.00781181 0.0078113 0.00781126 0.00781127 0.00781114 0.00781055 0.00781206 0.0078117 0.00781158 0.00781169 0.00781148 0.00781107 0.00781236 0.00781191 0.00781199 0.00781187 0.00781169 0.00781131 0.00781251 0.00781221 0.0078122 0.00781222 0.00781201 0.00781179 0.00781267 0.00781236 0.00781249 0.00781234 0.00781208 0.00781194 0.00781282 0.00781259 0.00781258 0.00781256 0.00781231 0.00781227 0.00781292 0.00781262 0.00781282 0.00781262 0.00781233 0.00781229 0.00781292 0.00781279 0.0078128 0.00781272 0.00781251 0.00781255 0.00781295 0.00781275 0.0078129 0.00781278 0.00781249 0.00781248 0.00781288 0.00781285 0.00781278 0.00781272 0.00781249 0.00781265 0.00781285 0.00781273 0.00781281 0.00781267 0.0078125 0.00781257 0.00781284 0.00781276 0.00781269 0.00781267 0.00781255 0.00781272 0.00781276 0.00781263 0.00781279 0.00781267 0.00782077 0.00780904 0.00781441 0.00780883 0.00779066 0.00780434 0.00781433 0.00780598 0.00781156 0.00780561 0.00779488 0.00780331 0.00780885 0.00780228 0.00780896 0.00780497 0.00779872 0.00780481 0.00780661 0.00780104 0.00780767 0.00780527 0.00780101 0.00780606 0.00780624 0.00780134 0.00780703 0.00780612 0.0078024 0.00780711 0.00780669 0.0078024 0.00780731 0.00780694 0.00780373 0.0078078 0.00780749 0.00780352 0.00780792 0.00780785 0.00780501 0.00780849 0.00780818 0.00780466 0.00780878 0.00780871 0.00780634 0.00780919 0.00780894 0.00780565 0.00780971 0.00780952 0.00780747 0.00780972 0.00780955 0.00780665 0.00781055 0.00781021 0.00780854 0.00781042 0.00781013 0.00780748 0.00781127 0.00781081 0.00780942 0.0078108 0.0078106 0.00780831 0.00781187 0.00781131 0.00781016 0.00781138 0.00781106 0.00780894 0.00781234 0.00781171 0.00781078 0.00781167 0.0078114 0.00780961 0.00781273 0.00781206 0.00781129 0.00781209 0.00781173 0.00781007 0.00781306 0.00781236 0.00781175 0.00781228 0.00781196 0.00781063 0.00781322 0.00781261 0.0078121 0.00781259 0.0078122 0.00781093 0.00781344 0.00781277 0.00781242 0.00781273 0.00781237 0.00781136 0.00781356 0.00781298 0.00781264 0.00781295 0.0078125 0.00781156 0.0078136 0.00781309 0.00781283 0.00781299 0.00781259 0.00781191 0.00781368 0.00781319 0.00781301 0.00781316 0.00781268 0.0078121 0.00781366 0.00781328 0.00781314 0.00781313 0.00781268 0.00781229 0.00781364 0.00781324 0.00781321 0.00781328 0.00781278 0.0078124 0.0078136 0.00781329 0.00781325 0.00781318 0.00781277 0.00781257 0.00781357 0.0078133 0.00781332 0.00781331 0.00781273 0.00781258 0.00781349 0.00781323 0.00781328 0.00781311 0.00781274 0.00781269 0.00781342 0.00781321 0.00781325 0.0078132 0.00781271 0.00781265 0.00781326 0.00781307 0.00781318 0.00781302 0.00781267 0.00781276 0.00781322 0.00781302 0.00781316 0.00781313 0.00781266 0.00781264 0.00781307 0.00781295 0.00781299 0.00781283 0.00781251 0.00781272 0.00781297 0.00781285 0.00781293 0.00781281 0.00781255 0.0078126 0.0078128 0.00781273 0.00781278 0.00781263 0.00781247 0.00781266 0.00781267 0.00781254 0.00781276 0.0078127 0.00784268 0.00783147 0.00785008 0.00784049 0.00782098 0.00783266 0.00782953 0.00782212 0.00783756 0.00782938 0.00781603 0.007823 0.00782162 0.00781593 0.00782636 0.0078218 0.00781377 0.00781895 0.00781793 0.00781285 0.00782041 0.00781831 0.0078129 0.00781746 0.00781659 0.00781192 0.00781783 0.00781689 0.00781272 0.00781685 0.00781623 0.00781176 0.0078169 0.00781635 0.007813 0.00781648 0.00781623 0.00781208 0.00781674 0.00781633 0.00781344 0.0078163 0.00781617 0.00781233 0.00781684 0.00781635 0.00781391 0.00781639 0.00781623 0.00781277 0.00781693 0.00781646 0.00781433 0.00781629 0.00781611 0.00781299 0.00781715 0.00781659 0.00781475 0.00781646 0.00781612 0.00781334 0.00781716 0.00781653 0.00781502 0.00781633 0.00781594 0.00781345 0.00781719 0.00781659 0.0078152 0.00781637 0.00781589 0.00781371 0.00781702 0.00781646 0.00781527 0.00781617 0.00781565 0.00781376 0.00781695 0.00781643 0.0078153 0.00781614 0.00781556 0.00781385 0.00781668 0.0078162 0.00781533 0.00781586 0.00781532 0.00781385 0.00781654 0.00781611 0.00781521 0.00781584 0.0078152 0.00781388 0.00781629 0.00781581 0.00781516 0.00781553 0.00781488 0.00781382 0.00781607 0.00781568 0.00781501 0.00781545 0.00781473 0.00781383 0.0078157 0.0078154 0.0078149 0.00781514 0.00781445 0.00781372 0.00781553 0.00781524 0.00781473 0.00781503 0.00781429 0.00781371 0.00781517 0.00781494 0.00781461 0.0078147 0.00781399 0.00781355 0.00781495 0.00781478 0.0078144 0.00781463 0.00781386 0.00781351 0.00781455 0.00781445 0.00781427 0.00781427 0.00781359 0.0078134 0.00781439 0.00781436 0.00781404 0.00781421 0.00781341 0.0078133 0.00781403 0.007814 0.00781388 0.00781381 0.00781323 0.00781314 0.00781384 0.00781389 0.00781364 0.0078138 0.00781307 0.00781306 0.00781352 0.00781353 0.0078135 0.00781343 0.00781287 0.00781296 0.00781338 0.00781345 0.0078133 0.0078134 0.00781278 0.00781285 0.00781312 0.00781317 0.00781308 0.00781298 0.00781257 0.00781274 0.007813 0.00781305 0.0078129 0.00781297 0.00781258 0.00781264 0.00781271 0.00781272 0.0078128 0.00781262 0.00781237 0.00781249 0.00781253 0.00781253 0.00781261 0.00781255 0.00786432 0.0078528 0.00788831 0.00787279 0.00785026 0.00786024 0.0078424 0.00783686 0.0078604 0.00785158 0.00783527 0.00784156 0.00783248 0.00782802 0.00783992 0.00783732 0.0078274 0.00783239 0.00782829 0.00782376 0.00783104 0.00783041 0.00782414 0.00782826 0.00782651 0.00782189 0.00782754 0.0078272 0.00782261 0.00782604 0.0078257 0.00782103 0.00782637 0.0078253 0.00782204 0.00782474 0.00782485 0.00782056 0.00782542 0.00782452 0.00782163 0.00782399 0.00782428 0.00782023 0.00782491 0.00782367 0.00782148 0.00782338 0.00782353 0.0078198 0.0078244 0.00782324 0.00782113 0.00782296 0.00782289 0.00781952 0.00782374 0.00782277 0.00782098 0.00782229 0.0078221 0.00781907 0.00782321 0.00782226 0.00782052 0.00782188 0.00782157 0.00781881 0.00782252 0.0078217 0.00782022 0.00782119 0.00782073 0.00781834 0.00782189 0.00782114 0.00781973 0.00782074 0.00782019 0.00781804 0.00782115 0.00782055 0.00781933 0.00782006 0.00781942 0.00781753 0.00782052 0.00781997 0.00781877 0.00781961 0.00781894 0.00781723 0.00781984 0.00781937 0.0078184 0.0078189 0.00781815 0.00781675 0.00781928 0.00781881 0.00781784 0.00781845 0.00781769 0.00781645 0.00781852 0.00781822 0.00781742 0.00781779 0.00781695 0.00781592 0.00781797 0.0078177 0.00781688 0.00781739 0.00781658 0.00781569 0.00781729 0.00781714 0.00781649 0.00781672 0.00781589 0.00781522 0.00781679 0.00781664 0.00781598 0.00781639 0.00781552 0.00781496 0.00781612 0.00781612 0.00781564 0.00781578 0.00781495 0.0078145 0.00781567 0.0078157 0.00781514 0.00781547 0.00781462 0.00781426 0.00781513 0.00781523 0.00781478 0.00781492 0.00781405 0.00781392 0.00781473 0.00781477 0.00781434 0.00781464 0.00781388 0.00781371 0.00781426 0.00781442 0.0078141 0.00781417 0.00781341 0.00781335 0.00781389 0.00781403 0.00781367 0.00781388 0.00781328 0.00781327 0.00781357 0.00781372 0.00781355 0.00781353 0.00781292 0.00781295 0.00781325 0.00781341 0.0078131 0.00781329 0.00781282 0.00781287 0.00781293 0.00781313 0.00781293 0.00781288 0.00781251 0.00781262 0.00781273 0.00781284 0.00781262 0.00781272 0.00781243 0.00781249 0.00781241 0.00781253 0.00781248 0.00781232 0.00788677 0.0078724 0.00792936 0.00790959 0.00787749 0.00788779 0.00785066 0.00784853 0.00787317 0.00786971 0.00785049 0.00785763 0.00784158 0.00783835 0.00784712 0.00784971 0.00783863 0.00784407 0.00783832 0.00783386 0.00783974 0.00784103 0.00783415 0.00783793 0.00783641 0.00783155 0.00783718 0.0078367 0.00783211 0.00783476 0.00783486 0.00783008 0.00783573 0.0078341 0.00783088 0.00783295 0.00783354 0.00782897 0.00783435 0.00783233 0.00782974 0.0078316 0.00783207 0.00782781 0.00783287 0.00783116 0.00782891 0.00783047 0.00783081 0.00782678 0.00783167 0.00783016 0.00782793 0.00782928 0.00782944 0.00782597 0.00783026 0.00782897 0.00782712 0.00782835 0.00782819 0.00782502 0.00782896 0.00782787 0.00782612 0.00782713 0.00782688 0.00782411 0.00782775 0.00782684 0.0078252 0.00782623 0.00782569 0.00782319 0.00782644 0.00782571 0.00782423 0.00782506 0.00782446 0.00782229 0.00782531 0.00782473 0.00782327 0.00782414 0.00782338 0.00782141 0.00782407 0.00782362 0.00782237 0.00782299 0.00782229 0.00782058 0.00782305 0.0078227 0.00782142 0.00782214 0.00782127 0.00781977 0.00782195 0.00782168 0.00782061 0.00782106 0.00782022 0.00781901 0.00782096 0.00782081 0.00781972 0.0078203 0.0078193 0.00781826 0.00781989 0.00781983 0.00781895 0.00781929 0.00781843 0.00781758 0.00781908 0.00781908 0.00781816 0.00781864 0.00781763 0.00781688 0.00781813 0.00781819 0.00781749 0.00781775 0.00781679 0.00781628 0.00781735 0.00781747 0.0078167 0.00781717 0.0078161 0.00781566 0.0078165 0.00781669 0.00781611 0.00781633 0.00781543 0.0078151 0.00781588 0.00781615 0.00781548 0.00781588 0.0078148 0.00781462 0.00781514 0.00781543 0.00781494 0.00781512 0.00781428 0.00781418 0.00781462 0.00781495 0.00781444 0.00781475 0.00781381 0.00781378 0.00781401 0.00781433 0.00781399 0.00781411 0.00781338 0.00781348 0.00781362 0.00781398 0.00781356 0.00781388 0.00781303 0.00781314 0.00781311 0.0078135 0.00781321 0.00781324 0.00781279 0.00781289 0.00781286 0.00781321 0.00781285 0.00781309 0.00781261 0.00781266 0.00781257 0.00781287 0.00781266 0.00781265 0.0078124 0.00781245 0.0078124 0.00781254 0.00781247 0.00781241 0.00792714 0.00789161 0.00799423 0.00796695 0.0078983 0.00791715 0.00785428 0.00785646 0.0078501 0.00787579 0.00785861 0.00786517 0.0078512 0.00784769 0.0078502 0.00785616 0.00784791 0.00785136 0.00784886 0.00784398 0.00785012 0.00784946 0.00784398 0.00784635 0.00784648 0.00784128 0.00784776 0.00784572 0.00784159 0.00784336 0.00784437 0.0078393 0.00784527 0.00784282 0.00783989 0.00784106 0.00784217 0.0078374 0.00784296 0.00784076 0.00783805 0.00783931 0.00784024 0.0078357 0.00784091 0.00783868 0.00783638 0.00783738 0.0078383 0.00783403 0.00783876 0.00783695 0.00783481 0.00783563 0.00783633 0.00783253 0.00783675 0.00783511 0.00783309 0.00783404 0.00783437 0.00783089 0.00783479 0.00783354 0.00783154 0.00783245 0.0078325 0.00782945 0.00783289 0.0078319 0.00783008 0.00783078 0.00783078 0.00782795 0.0078311 0.00783032 0.00782855 0.00782927 0.00782908 0.00782664 0.00782931 0.00782877 0.00782713 0.00782772 0.00782746 0.00782523 0.0078277 0.00782726 0.00782572 0.00782633 0.00782593 0.00782402 0.00782609 0.00782582 0.00782444 0.00782489 0.00782448 0.00782273 0.00782473 0.00782446 0.0078231 0.00782365 0.0078231 0.00782168 0.00782326 0.00782315 0.00782196 0.00782232 0.00782183 0.00782045 0.00782194 0.00782195 0.00782074 0.00782122 0.00782057 0.00781954 0.00782069 0.00782077 0.00781976 0.00782001 0.00781942 0.00781845 0.00781957 0.00781969 0.00781868 0.00781907 0.00781832 0.00781766 0.00781844 0.00781864 0.00781779 0.00781805 0.00781742 0.00781671 0.0078175 0.00781767 0.00781687 0.00781717 0.00781645 0.00781604 0.00781648 0.00781682 0.00781609 0.00781631 0.00781562 0.00781523 0.00781572 0.00781597 0.00781533 0.00781557 0.00781488 0.00781468 0.00781493 0.00781525 0.00781473 0.00781485 0.00781423 0.00781403 0.00781421 0.00781457 0.00781403 0.00781427 0.0078137 0.00781368 0.00781361 0.00781406 0.0078136 0.00781376 0.0078132 0.00781317 0.00781321 0.00781354 0.00781307 0.00781323 0.00781283 0.00781298 0.00781274 0.00781316 0.00781281 0.00781288 0.00781272 0.00781266 0.00781262 0.00781286 0.00781252 0.00781267 0.00781257 0.00781254 0.00781241 0.00781263 0.00781244 0.00781243 0.00775691 0.00770111 0.00770543 0.00765792 0.00772843 0.00769698 0.00776154 0.00775102 0.00774208 0.00772819 0.00774651 0.0077355 0.00776772 0.00775556 0.00776527 0.00774917 0.00775282 0.00775126 0.00776917 0.00776054 0.00777004 0.00776022 0.0077601 0.00776287 0.00777186 0.00776678 0.00777269 0.00776865 0.00776749 0.00777165 0.00777627 0.00777283 0.0077765 0.00777516 0.00777404 0.00777783 0.00778065 0.00777809 0.00778092 0.00778041 0.00777937 0.00778268 0.00778482 0.00778251 0.00778505 0.00778468 0.00778377 0.00778629 0.00778817 0.00778617 0.0077887 0.00778813 0.00778733 0.00778946 0.00779127 0.00778934 0.00779178 0.0077911 0.00779045 0.00779204 0.00779373 0.0077921 0.00779446 0.00779358 0.00779308 0.00779451 0.00779614 0.00779455 0.00779678 0.00779582 0.00779546 0.00779653 0.00779807 0.00779674 0.0077988 0.00779782 0.00779753 0.00779857 0.00780003 0.00779872 0.00780061 0.00779968 0.0077995 0.00780021 0.00780159 0.00780049 0.00780222 0.00780131 0.00780122 0.00780196 0.00780324 0.00780218 0.00780371 0.0078029 0.00780284 0.00780334 0.00780442 0.0078037 0.00780511 0.00780423 0.00780424 0.00780476 0.0078058 0.00780505 0.00780627 0.00780552 0.00780557 0.00780587 0.00780678 0.00780624 0.00780738 0.00780664 0.00780673 0.0078071 0.00780791 0.00780737 0.00780834 0.00780769 0.00780782 0.00780798 0.00780867 0.00780837 0.00780918 0.0078086 0.00780883 0.007809 0.00780958 0.00780924 0.00780996 0.00780945 0.00780961 0.00780966 0.00781017 0.00781001 0.00781063 0.00781011 0.00781036 0.00781045 0.0078109 0.00781071 0.00781116 0.00781083 0.00781101 0.00781097 0.00781124 0.0078113 0.00781172 0.00781129 0.00781152 0.00781157 0.00781186 0.00781181 0.00781215 0.00781178 0.00781203 0.00781182 0.00781198 0.00781216 0.00781245 0.00781206 0.00781232 0.00781227 0.00781249 0.0078125 0.00781267 0.00781245 0.00781267 0.00781249 0.00781249 0.00781267 0.00781284 0.00781256 0.00781272 0.00781268 0.00781274 0.00781279 0.00781296 0.00781271 0.00781284 0.00781262 0.00781262 0.00781281 0.0078129 0.00781272 0.00781274 0.00781269 0.00781265 0.00781261 0.00781278 0.00781253 0.00781254 0.00781245 0.00777756 0.00776064 0.00774232 0.00773509 0.007726 0.00773879 0.00777728 0.00777119 0.0077522 0.0077514 0.00775542 0.00776018 0.00777731 0.00777419 0.00776933 0.00776629 0.0077691 0.00777238 0.00778011 0.00777601 0.0077793 0.00777512 0.00777559 0.00777904 0.00778306 0.00777869 0.00778418 0.00778162 0.00778034 0.00778417 0.00778605 0.00778213 0.00778732 0.00778629 0.0077844 0.00778826 0.00778895 0.00778567 0.00779001 0.00779015 0.00778809 0.0077916 0.00779178 0.00778892 0.0077928 0.00779303 0.00779128 0.00779425 0.00779432 0.00779174 0.00779535 0.00779559 0.00779408 0.0077964 0.00779665 0.00779435 0.00779779 0.00779755 0.00779644 0.00779834 0.00779863 0.00779654 0.00779979 0.00779946 0.00779859 0.00779993 0.00780048 0.00779856 0.00780168 0.00780096 0.00780036 0.00780151 0.00780197 0.00780026 0.00780314 0.00780247 0.00780199 0.00780283 0.00780346 0.00780194 0.00780459 0.00780371 0.00780345 0.00780416 0.00780464 0.00780328 0.00780573 0.00780501 0.00780479 0.00780528 0.00780584 0.00780464 0.00780689 0.00780599 0.00780592 0.00780638 0.00780678 0.00780572 0.00780779 0.00780707 0.00780705 0.00780724 0.00780776 0.00780689 0.00780868 0.00780784 0.00780796 0.00780816 0.00780852 0.00780773 0.00780938 0.00780878 0.00780882 0.0078089 0.00780928 0.00780868 0.00781012 0.00780937 0.00780957 0.00780963 0.00780985 0.00780939 0.00781062 0.00781009 0.00781026 0.00781021 0.00781051 0.00781011 0.00781122 0.00781055 0.00781084 0.00781079 0.0078109 0.00781061 0.00781155 0.0078111 0.00781135 0.00781122 0.00781143 0.00781123 0.007812 0.00781143 0.00781176 0.00781163 0.00781166 0.00781155 0.00781225 0.00781186 0.00781212 0.00781188 0.00781204 0.00781201 0.00781255 0.00781212 0.0078124 0.0078122 0.00781217 0.00781219 0.00781262 0.00781236 0.0078126 0.00781233 0.00781248 0.00781254 0.00781288 0.00781243 0.00781273 0.00781259 0.00781249 0.00781253 0.00781286 0.00781261 0.00781281 0.00781254 0.00781263 0.00781276 0.00781292 0.00781253 0.00781276 0.00781261 0.00781265 0.00781266 0.00781278 0.00781267 0.00781273 0.00781254 0.00781266 0.00781273 0.00781285 0.00781249 0.00781269 0.00781267 0.00779928 0.00778567 0.00777891 0.00777412 0.00775825 0.00777315 0.00779725 0.00778903 0.00778193 0.00777957 0.00777096 0.00778079 0.00779346 0.00778783 0.0077876 0.0077867 0.00778151 0.0077884 0.00779288 0.00778829 0.00779248 0.00779139 0.00778757 0.00779286 0.00779396 0.00778976 0.00779515 0.0077946 0.00779133 0.00779591 0.00779588 0.00779187 0.00779717 0.00779702 0.0077943 0.00779817 0.00779769 0.00779404 0.00779895 0.0077992 0.00779657 0.00780007 0.00779956 0.00779616 0.00780071 0.00780108 0.00779883 0.00780171 0.00780116 0.00779837 0.00780248 0.00780258 0.00780072 0.00780312 0.0078028 0.0078 0.00780406 0.00780401 0.00780246 0.00780434 0.00780406 0.00780181 0.00780548 0.0078051 0.00780389 0.00780544 0.00780536 0.00780304 0.00780671 0.00780619 0.00780521 0.00780641 0.00780627 0.00780452 0.00780773 0.00780704 0.00780631 0.00780729 0.0078073 0.00780545 0.00780863 0.00780794 0.00780735 0.00780805 0.00780801 0.00780663 0.00780942 0.00780858 0.00780817 0.0078088 0.00780885 0.00780735 0.00781005 0.00780936 0.00780897 0.00780942 0.00780936 0.00780835 0.00781065 0.0078098 0.00780964 0.00781001 0.00780999 0.00780888 0.0078111 0.00781045 0.00781028 0.00781046 0.00781038 0.00780972 0.00781155 0.00781083 0.00781078 0.00781096 0.00781092 0.00781003 0.00781192 0.00781133 0.00781125 0.00781132 0.00781118 0.00781078 0.00781221 0.00781159 0.00781165 0.00781171 0.00781154 0.00781095 0.00781242 0.00781193 0.00781199 0.00781194 0.00781179 0.00781154 0.00781263 0.00781211 0.00781223 0.00781221 0.00781208 0.00781167 0.00781277 0.00781237 0.0078125 0.00781239 0.00781211 0.00781214 0.00781293 0.00781244 0.00781261 0.00781253 0.00781246 0.00781212 0.00781299 0.00781264 0.00781275 0.00781263 0.00781237 0.00781245 0.00781302 0.00781255 0.00781276 0.00781269 0.00781258 0.00781242 0.00781306 0.00781272 0.00781287 0.00781272 0.00781247 0.00781269 0.00781295 0.00781262 0.00781276 0.00781268 0.00781263 0.00781252 0.00781289 0.00781272 0.00781277 0.00781263 0.00781252 0.00781272 0.00781287 0.00781259 0.0078127 0.00781262 0.00781267 0.00781254 0.00781278 0.0078126 0.00781268 0.00781259 0.00782224 0.00780967 0.00781407 0.00780808 0.00779038 0.00780375 0.00781504 0.00780674 0.00781052 0.00780537 0.00779319 0.00780267 0.0078089 0.00780287 0.00780794 0.00780504 0.00779743 0.00780407 0.00780582 0.00780068 0.00780685 0.0078056 0.0078003 0.00780549 0.00780522 0.00780069 0.0078067 0.00780618 0.00780225 0.00780646 0.00780577 0.00780154 0.00780704 0.00780713 0.00780374 0.00780736 0.0078067 0.00780291 0.00780782 0.00780784 0.00780514 0.00780811 0.00780769 0.00780408 0.00780869 0.00780879 0.00780639 0.00780886 0.00780842 0.00780531 0.00780969 0.00780961 0.00780752 0.00780958 0.0078093 0.00780638 0.00781064 0.00781026 0.00780849 0.00781026 0.00780985 0.00780733 0.00781131 0.00781096 0.00780939 0.00781076 0.00781051 0.00780817 0.00781199 0.00781136 0.0078101 0.00781125 0.00781091 0.00780894 0.00781241 0.00781187 0.00781074 0.00781162 0.00781143 0.00780957 0.0078129 0.00781214 0.00781123 0.00781198 0.00781163 0.00781013 0.00781311 0.00781249 0.00781169 0.00781225 0.00781202 0.00781059 0.00781341 0.00781266 0.007812 0.00781251 0.00781218 0.00781101 0.00781349 0.00781295 0.00781234 0.00781268 0.00781242 0.00781139 0.0078137 0.00781299 0.00781255 0.00781286 0.00781247 0.00781166 0.00781368 0.00781321 0.00781279 0.00781296 0.00781269 0.00781194 0.00781382 0.00781325 0.00781289 0.00781305 0.00781266 0.00781212 0.00781373 0.00781335 0.00781307 0.0078131 0.0078128 0.00781231 0.00781378 0.0078133 0.00781308 0.00781314 0.00781273 0.00781244 0.00781362 0.00781338 0.00781319 0.00781311 0.00781284 0.00781259 0.00781365 0.0078133 0.00781317 0.00781314 0.00781276 0.00781261 0.00781351 0.00781332 0.00781319 0.00781301 0.00781282 0.00781271 0.00781354 0.00781317 0.0078131 0.00781306 0.00781268 0.00781271 0.0078133 0.00781316 0.00781309 0.00781292 0.00781273 0.00781278 0.00781328 0.00781304 0.00781296 0.00781293 0.00781255 0.00781271 0.00781304 0.00781303 0.00781285 0.0078127 0.00781261 0.00781271 0.007813 0.00781285 0.00781272 0.00781263 0.00781249 0.00781266 0.00781283 0.00781278 0.00781266 0.00781246 0.00781258 0.00781263 0.00781274 0.0078126 0.00781257 0.00781246 0.00784514 0.00783302 0.00784993 0.00784038 0.00782067 0.0078328 0.00783101 0.00782339 0.0078374 0.00783009 0.00781536 0.00782406 0.00782206 0.00781639 0.00782634 0.0078229 0.00781329 0.00781966 0.00781791 0.00781284 0.0078203 0.00781885 0.00781274 0.00781748 0.00781607 0.00781139 0.00781763 0.00781722 0.00781274 0.00781669 0.00781571 0.00781121 0.00781688 0.00781647 0.00781303 0.00781611 0.00781554 0.00781151 0.00781655 0.00781628 0.00781349 0.00781622 0.00781566 0.00781183 0.00781679 0.00781643 0.00781405 0.00781614 0.00781575 0.00781225 0.00781692 0.0078165 0.00781427 0.00781629 0.00781594 0.00781267 0.00781709 0.00781653 0.00781466 0.00781629 0.00781585 0.0078131 0.00781715 0.00781651 0.00781499 0.00781637 0.00781596 0.00781324 0.0078172 0.00781655 0.00781513 0.00781624 0.00781571 0.00781354 0.00781705 0.00781642 0.00781528 0.00781626 0.00781568 0.00781358 0.00781696 0.00781634 0.00781528 0.00781605 0.00781545 0.00781377 0.00781675 0.00781614 0.00781528 0.00781598 0.00781541 0.00781371 0.00781655 0.00781602 0.00781519 0.00781572 0.00781505 0.00781386 0.00781634 0.00781578 0.00781511 0.00781567 0.007815 0.00781371 0.00781606 0.00781565 0.00781498 0.00781532 0.00781465 0.00781382 0.00781574 0.00781539 0.00781489 0.00781524 0.00781459 0.00781363 0.00781555 0.0078152 0.00781469 0.00781486 0.00781425 0.00781365 0.00781519 0.00781492 0.00781459 0.00781484 0.00781417 0.00781344 0.00781493 0.0078147 0.00781433 0.0078145 0.00781379 0.00781346 0.00781462 0.0078144 0.00781419 0.00781437 0.00781378 0.00781323 0.00781436 0.00781424 0.00781393 0.00781406 0.00781337 0.00781323 0.00781404 0.00781394 0.00781375 0.00781391 0.00781336 0.00781301 0.00781384 0.00781377 0.00781355 0.00781361 0.00781302 0.007813 0.00781354 0.00781349 0.0078134 0.00781352 0.00781307 0.00781284 0.00781338 0.00781331 0.00781318 0.00781322 0.00781269 0.00781282 0.00781312 0.00781306 0.007813 0.00781308 0.00781272 0.0078126 0.00781293 0.00781295 0.00781278 0.00781275 0.00781246 0.00781265 0.00781268 0.00781266 0.00781266 0.00781267 0.00781248 0.00781247 0.00781251 0.00781246 0.00781248 0.0078124 0.00786742 0.00785525 0.00788831 0.0078733 0.00785022 0.00786098 0.00784433 0.00783824 0.00786118 0.00785334 0.0078356 0.0078442 0.00783336 0.00782857 0.00784082 0.00783894 0.00782776 0.00783409 0.0078287 0.00782383 0.00783142 0.00783121 0.00782432 0.00782878 0.00782651 0.00782173 0.00782768 0.00782739 0.00782277 0.00782613 0.0078253 0.00782056 0.00782636 0.00782552 0.00782211 0.00782472 0.00782451 0.00782012 0.00782536 0.00782447 0.00782178 0.00782383 0.00782371 0.00781978 0.00782487 0.0078238 0.00782156 0.0078233 0.00782321 0.00781955 0.00782434 0.00782327 0.00782122 0.00782264 0.00782272 0.00781927 0.00782376 0.00782278 0.00782084 0.00782217 0.00782196 0.00781901 0.00782311 0.00782223 0.00782057 0.00782164 0.00782139 0.00781868 0.00782255 0.00782172 0.00782011 0.00782112 0.00782059 0.00781833 0.00782193 0.00782111 0.00781975 0.00782051 0.00782005 0.00781799 0.00782122 0.00782058 0.00781923 0.00782001 0.00781935 0.0078176 0.0078206 0.00781995 0.0078188 0.00781942 0.00781882 0.00781719 0.00781989 0.00781942 0.00781827 0.00781887 0.00781813 0.00781679 0.00781932 0.00781879 0.00781787 0.00781823 0.00781762 0.00781643 0.00781858 0.00781828 0.00781729 0.00781776 0.00781697 0.00781602 0.00781802 0.00781769 0.00781689 0.0078172 0.00781647 0.00781564 0.00781735 0.00781718 0.00781631 0.00781668 0.0078159 0.0078153 0.0078168 0.00781662 0.00781598 0.00781615 0.00781548 0.0078149 0.00781622 0.00781615 0.00781546 0.00781573 0.00781493 0.00781459 0.00781573 0.00781562 0.00781514 0.00781525 0.0078146 0.00781425 0.00781511 0.00781524 0.00781463 0.00781486 0.00781409 0.00781395 0.00781479 0.00781478 0.00781435 0.00781438 0.00781385 0.00781367 0.00781429 0.00781442 0.00781393 0.00781408 0.0078134 0.00781341 0.00781391 0.007814 0.00781365 0.00781365 0.00781324 0.00781323 0.0078135 0.00781369 0.0078133 0.00781342 0.00781285 0.00781298 0.00781331 0.00781335 0.00781306 0.00781301 0.00781274 0.00781284 0.00781288 0.0078131 0.00781278 0.00781283 0.00781247 0.00781268 0.00781282 0.00781286 0.00781258 0.00781245 0.00781248 0.00781241 0.00781247 0.00781249 0.00781233 0.00781229 0.00789017 0.00787548 0.0079296 0.00791063 0.0078776 0.0078886 0.00785267 0.00784994 0.00787478 0.00787207 0.00785174 0.00786136 0.00784254 0.00783884 0.00784859 0.00785145 0.00783956 0.00784624 0.00783905 0.00783404 0.00784042 0.00784177 0.0078346 0.00783887 0.00783662 0.00783166 0.00783737 0.00783692 0.0078323 0.00783529 0.00783495 0.00782992 0.00783574 0.00783423 0.00783111 0.00783296 0.0078334 0.00782866 0.00783439 0.00783253 0.00782979 0.00783157 0.00783201 0.00782766 0.00783295 0.00783118 0.00782903 0.00783026 0.00783061 0.00782675 0.00783158 0.00783006 0.00782799 0.00782923 0.00782938 0.00782585 0.00783027 0.0078288 0.00782716 0.00782813 0.00782801 0.00782484 0.00782898 0.00782791 0.00782618 0.00782713 0.00782687 0.00782404 0.00782778 0.00782666 0.00782517 0.00782607 0.00782554 0.00782305 0.00782647 0.00782573 0.00782426 0.00782501 0.00782451 0.00782233 0.00782534 0.00782454 0.00782327 0.00782396 0.00782324 0.00782127 0.00782411 0.00782362 0.00782238 0.00782301 0.00782232 0.00782061 0.00782309 0.00782252 0.00782144 0.00782196 0.00782115 0.00781967 0.00782194 0.00782164 0.0078206 0.00782106 0.00782029 0.00781906 0.007821 0.0078206 0.00781972 0.00782012 0.00781922 0.00781817 0.00781996 0.00781983 0.00781898 0.00781933 0.00781847 0.00781759 0.00781909 0.00781886 0.00781811 0.00781842 0.00781748 0.00781681 0.00781811 0.00781817 0.00781745 0.00781771 0.00781684 0.00781629 0.00781739 0.00781727 0.0078167 0.00781696 0.00781602 0.00781559 0.00781647 0.0078167 0.00781611 0.00781633 0.00781546 0.00781517 0.00781583 0.00781589 0.00781544 0.00781566 0.00781471 0.00781451 0.00781514 0.00781539 0.00781493 0.00781506 0.00781434 0.00781423 0.00781464 0.00781472 0.00781437 0.00781454 0.00781368 0.00781367 0.00781395 0.00781426 0.00781396 0.00781403 0.00781347 0.00781354 0.00781357 0.00781375 0.00781353 0.00781361 0.00781295 0.00781304 0.00781312 0.00781346 0.00781317 0.00781321 0.00781282 0.00781299 0.00781292 0.00781299 0.00781286 0.00781284 0.0078125 0.00781265 0.00781257 0.00781279 0.00781261 0.00781259 0.00781242 0.00781247 0.0078124 0.00781233 0.00781234 0.00781227 0.00793036 0.00789518 0.00799705 0.00796872 0.00789942 0.00791794 0.00785706 0.00785794 0.00785262 0.00787843 0.00786076 0.00786886 0.00785288 0.00784821 0.0078515 0.00785789 0.00784917 0.00785324 0.00784993 0.00784414 0.007851 0.00785028 0.00784463 0.00784724 0.00784718 0.00784143 0.00784846 0.00784618 0.00784194 0.00784379 0.00784458 0.00783932 0.00784571 0.00784315 0.00783984 0.00784141 0.00784252 0.00783736 0.00784322 0.00784083 0.00783817 0.00783926 0.00784035 0.00783562 0.00784101 0.00783883 0.00783643 0.00783725 0.00783826 0.00783409 0.00783878 0.00783697 0.00783479 0.00783558 0.00783613 0.00783232 0.00783664 0.00783535 0.00783318 0.00783405 0.00783429 0.00783082 0.00783475 0.00783364 0.00783155 0.0078323 0.0078324 0.00782937 0.00783293 0.00783193 0.00783006 0.00783069 0.00783067 0.00782789 0.00783102 0.00783035 0.00782852 0.00782914 0.00782899 0.00782652 0.00782939 0.00782879 0.00782711 0.00782762 0.00782739 0.0078252 0.00782769 0.00782724 0.00782572 0.00782616 0.00782584 0.0078239 0.00782617 0.00782586 0.0078244 0.00782477 0.00782436 0.00782273 0.00782468 0.00782445 0.00782311 0.00782344 0.00782301 0.00782159 0.00782334 0.00782319 0.00782194 0.00782222 0.00782173 0.00782051 0.00782195 0.00782194 0.00782074 0.00782106 0.00782049 0.00781943 0.0078208 0.00782082 0.00781969 0.0078199 0.00781935 0.00781848 0.00781955 0.00781967 0.00781866 0.00781887 0.00781825 0.00781755 0.00781846 0.00781864 0.00781773 0.00781793 0.00781727 0.00781672 0.00781744 0.00781768 0.00781685 0.00781696 0.00781637 0.00781594 0.00781654 0.00781681 0.00781605 0.00781615 0.00781548 0.00781521 0.00781561 0.00781598 0.00781527 0.00781536 0.00781477 0.00781461 0.00781494 0.00781524 0.00781464 0.00781472 0.00781412 0.00781402 0.00781418 0.00781456 0.00781397 0.00781405 0.00781356 0.00781359 0.00781366 0.00781398 0.00781353 0.0078136 0.00781308 0.00781318 0.00781313 0.0078135 0.00781304 0.00781304 0.00781276 0.00781289 0.0078128 0.00781313 0.00781272 0.00781279 0.00781252 0.00781266 0.00781258 0.00781283 0.00781249 0.00781248 0.0078125 0.00781248 0.00781257 0.00781258 0.0078123 0.00781237 0.00775582 0.00769927 0.00770614 0.00765927 0.00772684 0.00769622 0.00776139 0.00775207 0.00774148 0.0077278 0.00774599 0.00773498 0.00776845 0.00775739 0.0077651 0.0077494 0.00775256 0.00775106 0.00776943 0.00776194 0.00776993 0.00776114 0.00775999 0.00776291 0.00777208 0.00776757 0.00777292 0.00776962 0.00776756 0.00777164 0.0077762 0.00777328 0.00777677 0.00777601 0.00777417 0.00777783 0.00778051 0.00777834 0.0077813 0.00778115 0.00777977 0.00778277 0.00778465 0.00778264 0.00778543 0.00778521 0.00778405 0.0077864 0.0077881 0.00778629 0.00778912 0.00778852 0.00778773 0.00778964 0.00779126 0.00778942 0.00779213 0.00779134 0.00779066 0.00779218 0.00779382 0.00779218 0.0077948 0.00779381 0.00779342 0.00779469 0.00779621 0.00779464 0.00779702 0.00779604 0.0077956 0.00779667 0.00779821 0.00779686 0.00779907 0.00779802 0.0077978 0.00779871 0.00780009 0.00779883 0.0078008 0.00779981 0.0077996 0.00780037 0.0078017 0.00780061 0.00780245 0.00780148 0.00780144 0.00780208 0.0078033 0.00780224 0.00780389 0.00780303 0.00780291 0.00780342 0.00780456 0.00780374 0.00780529 0.00780438 0.00780446 0.00780486 0.00780582 0.0078051 0.00780645 0.00780566 0.00780562 0.007806 0.00780688 0.00780635 0.00780751 0.00780676 0.00780695 0.00780721 0.00780793 0.00780744 0.00780849 0.00780778 0.00780785 0.00780803 0.00780873 0.0078084 0.00780937 0.00780875 0.00780894 0.00780909 0.00780961 0.00780925 0.00781007 0.0078095 0.00780965 0.00780972 0.00781021 0.00781006 0.00781075 0.00781021 0.00781046 0.00781054 0.00781087 0.00781071 0.00781127 0.00781087 0.00781102 0.00781101 0.00781133 0.00781129 0.00781183 0.00781137 0.00781164 0.00781162 0.00781183 0.00781178 0.00781221 0.00781187 0.00781198 0.00781192 0.00781207 0.00781219 0.00781252 0.00781219 0.00781243 0.00781235 0.00781246 0.00781249 0.00781276 0.00781249 0.00781262 0.00781254 0.00781253 0.00781268 0.0078129 0.00781268 0.00781283 0.00781269 0.00781276 0.00781278 0.00781299 0.00781279 0.00781277 0.00781265 0.00781266 0.00781279 0.00781297 0.00781277 0.00781281 0.00781269 0.00781262 0.00781257 0.00781286 0.00781264 0.00781252 0.00781251 0.00777761 0.0077605 0.00774292 0.00773506 0.00772622 0.007738 0.00777773 0.00777244 0.00775201 0.00775142 0.00775528 0.00776006 0.00777764 0.00777561 0.00776864 0.0077668 0.00776865 0.00777236 0.00778016 0.00777705 0.00777882 0.0077761 0.00777526 0.00777934 0.00778294 0.00777924 0.00778413 0.00778255 0.00778027 0.00778437 0.00778568 0.00778232 0.00778745 0.00778721 0.0077846 0.00778857 0.00778863 0.00778554 0.0077904 0.0077909 0.00778849 0.00779186 0.0077915 0.00778877 0.00779325 0.00779358 0.00779169 0.00779457 0.00779421 0.00779162 0.00779575 0.00779594 0.00779449 0.00779659 0.0077965 0.00779423 0.00779814 0.00779785 0.0077968 0.00779866 0.00779866 0.00779643 0.00780004 0.00779965 0.00779889 0.00780019 0.00780044 0.00779852 0.00780191 0.00780118 0.00780061 0.0078018 0.00780211 0.00780025 0.00780333 0.00780263 0.00780228 0.00780308 0.00780347 0.00780194 0.00780478 0.00780385 0.00780366 0.00780449 0.00780479 0.00780331 0.00780588 0.00780511 0.00780497 0.00780546 0.00780587 0.00780463 0.00780706 0.00780616 0.00780609 0.00780663 0.00780691 0.00780575 0.0078079 0.00780718 0.00780721 0.00780747 0.00780774 0.00780686 0.00780885 0.00780796 0.00780807 0.00780843 0.00780861 0.00780774 0.00780944 0.00780883 0.00780898 0.00780907 0.00780926 0.00780863 0.00781023 0.00780948 0.00780966 0.00780988 0.00780998 0.00780932 0.00781069 0.00781017 0.00781043 0.00781036 0.00781045 0.00781004 0.00781128 0.00781064 0.0078109 0.00781104 0.00781099 0.00781059 0.00781163 0.00781116 0.00781144 0.00781135 0.00781133 0.00781111 0.00781209 0.00781152 0.00781184 0.0078119 0.00781178 0.00781147 0.00781224 0.0078119 0.00781224 0.00781207 0.007812 0.00781188 0.00781266 0.00781213 0.00781244 0.00781246 0.00781229 0.0078121 0.00781268 0.00781235 0.00781269 0.00781249 0.00781239 0.00781244 0.00781294 0.0078125 0.00781276 0.00781281 0.00781254 0.00781248 0.00781285 0.00781261 0.00781285 0.00781265 0.00781256 0.00781264 0.00781292 0.00781263 0.00781282 0.00781281 0.00781263 0.00781257 0.00781284 0.00781269 0.00781281 0.0078127 0.00781259 0.00781265 0.00781288 0.00781257 0.00781278 0.00781292 0.00779998 0.00778586 0.00777907 0.00777406 0.00775834 0.00777305 0.00779775 0.00779018 0.00778143 0.00777961 0.0077705 0.0077807 0.00779384 0.00778899 0.00778701 0.00778719 0.00778101 0.00778826 0.00779277 0.00778893 0.00779184 0.00779233 0.00778733 0.00779309 0.00779372 0.00779016 0.0077949 0.00779545 0.00779155 0.00779609 0.00779539 0.00779175 0.00779722 0.00779795 0.0077945 0.00779841 0.00779732 0.00779396 0.00779923 0.0077999 0.00779713 0.00780043 0.00779931 0.0077962 0.007801 0.0078015 0.00779932 0.00780188 0.00780103 0.00779829 0.00780276 0.00780301 0.00780116 0.00780344 0.00780266 0.0078001 0.00780429 0.00780429 0.00780281 0.0078045 0.00780407 0.00780183 0.00780566 0.00780534 0.00780425 0.00780579 0.00780537 0.00780321 0.00780687 0.00780642 0.00780548 0.00780659 0.00780636 0.00780455 0.00780788 0.00780724 0.00780659 0.00780761 0.00780732 0.00780566 0.00780876 0.00780813 0.00780756 0.00780824 0.00780811 0.00780671 0.00780949 0.00780872 0.00780839 0.00780915 0.00780889 0.00780755 0.00781014 0.00780948 0.00780916 0.00780957 0.00780946 0.00780839 0.00781072 0.00780998 0.00780981 0.00781029 0.00781005 0.00780905 0.0078112 0.00781058 0.00781044 0.00781063 0.0078105 0.00780973 0.00781157 0.00781093 0.00781091 0.00781124 0.00781096 0.00781021 0.00781193 0.00781142 0.00781141 0.00781143 0.00781128 0.00781077 0.00781223 0.00781168 0.00781177 0.00781197 0.0078116 0.00781112 0.00781245 0.00781201 0.00781209 0.00781208 0.00781187 0.0078115 0.00781261 0.00781218 0.00781234 0.00781246 0.00781211 0.00781179 0.00781275 0.00781246 0.00781255 0.00781246 0.0078122 0.00781209 0.00781288 0.0078125 0.00781269 0.0078128 0.00781245 0.00781227 0.007813 0.00781273 0.00781284 0.0078127 0.00781244 0.00781243 0.00781302 0.00781264 0.00781288 0.00781295 0.00781258 0.00781252 0.007813 0.00781284 0.00781292 0.00781279 0.00781256 0.00781264 0.00781293 0.00781275 0.00781285 0.00781291 0.00781257 0.00781259 0.00781294 0.00781277 0.00781288 0.00781273 0.00781254 0.00781268 0.00781283 0.00781267 0.00781275 0.00781286 0.00781258 0.00781264 0.00781277 0.00781264 0.00781282 0.00781271 0.00782343 0.00781024 0.00781386 0.00780825 0.00779008 0.00780403 0.00781554 0.00780752 0.00781005 0.00780558 0.00779264 0.00780311 0.00780905 0.00780359 0.00780735 0.00780555 0.0077969 0.00780443 0.00780588 0.00780124 0.00780663 0.00780615 0.00780025 0.00780573 0.00780495 0.0078008 0.00780663 0.00780701 0.00780242 0.00780676 0.00780558 0.00780159 0.00780724 0.00780759 0.00780416 0.00780751 0.00780634 0.00780265 0.00780803 0.0078084 0.00780549 0.00780846 0.00780735 0.00780409 0.00780894 0.00780904 0.00780677 0.00780915 0.00780833 0.00780527 0.00780988 0.00780984 0.0078079 0.00780999 0.00780909 0.0078064 0.00781073 0.0078105 0.00780882 0.00781052 0.00780997 0.00780738 0.00781144 0.00781105 0.00780968 0.00781112 0.00781041 0.00780828 0.00781204 0.00781152 0.00781036 0.00781156 0.00781109 0.00780898 0.00781246 0.00781192 0.00781099 0.00781197 0.00781135 0.0078097 0.00781287 0.00781223 0.00781142 0.00781228 0.00781183 0.00781019 0.00781312 0.00781253 0.00781186 0.00781262 0.00781198 0.00781071 0.00781338 0.00781276 0.00781219 0.00781279 0.00781238 0.00781106 0.0078135 0.00781297 0.00781251 0.00781298 0.00781239 0.00781146 0.00781364 0.0078131 0.0078127 0.00781313 0.00781268 0.00781168 0.00781366 0.00781319 0.00781296 0.00781326 0.00781263 0.007812 0.00781374 0.00781328 0.007813 0.00781328 0.00781288 0.00781216 0.00781372 0.00781334 0.00781322 0.0078134 0.00781272 0.00781235 0.00781368 0.00781334 0.00781321 0.00781338 0.00781296 0.00781246 0.00781357 0.00781337 0.00781333 0.00781343 0.00781279 0.00781261 0.00781358 0.00781329 0.00781325 0.00781341 0.0078129 0.00781262 0.00781346 0.00781326 0.00781329 0.00781334 0.00781275 0.00781275 0.0078134 0.00781321 0.00781318 0.00781322 0.00781284 0.00781267 0.0078132 0.00781312 0.00781317 0.00781317 0.00781265 0.00781275 0.00781318 0.00781306 0.00781307 0.00781311 0.00781276 0.00781265 0.007813 0.00781298 0.00781295 0.00781294 0.00781251 0.00781269 0.00781289 0.00781285 0.00781281 0.00781285 0.00781264 0.0078126 0.00781269 0.00781274 0.00781277 0.00781277 0.00781251 0.00781266 0.0078126 0.00781254 0.0078127 0.00781266 0.00784651 0.00783354 0.00784948 0.00784094 0.00782013 0.00783327 0.00783156 0.00782374 0.00783678 0.00783055 0.0078148 0.00782477 0.0078224 0.00781682 0.00782603 0.00782308 0.00781317 0.00782004 0.00781778 0.0078129 0.00782014 0.00781924 0.00781272 0.00781789 0.00781604 0.00781151 0.00781767 0.00781743 0.0078131 0.00781674 0.00781549 0.0078111 0.00781683 0.00781693 0.0078133 0.00781636 0.00781548 0.00781151 0.00781674 0.00781649 0.00781393 0.00781623 0.00781561 0.00781195 0.00781695 0.0078166 0.00781429 0.00781633 0.00781575 0.00781236 0.00781716 0.00781664 0.00781468 0.00781634 0.00781588 0.00781282 0.00781714 0.0078167 0.007815 0.00781639 0.00781582 0.00781309 0.00781723 0.00781676 0.00781515 0.00781654 0.00781592 0.0078135 0.00781729 0.0078167 0.00781535 0.00781638 0.00781573 0.00781359 0.00781728 0.00781667 0.00781536 0.00781646 0.0078157 0.00781382 0.00781704 0.00781647 0.00781542 0.00781619 0.00781545 0.0078138 0.00781691 0.00781636 0.00781537 0.00781618 0.00781543 0.00781394 0.00781664 0.00781614 0.00781533 0.00781587 0.00781515 0.00781388 0.00781649 0.00781602 0.00781524 0.00781578 0.00781501 0.00781391 0.0078161 0.00781571 0.00781508 0.00781546 0.00781471 0.00781379 0.00781592 0.00781554 0.00781495 0.00781541 0.00781461 0.0078138 0.00781559 0.00781525 0.00781477 0.00781503 0.00781423 0.00781363 0.00781532 0.00781512 0.00781464 0.00781493 0.00781412 0.00781361 0.00781492 0.00781476 0.00781444 0.00781463 0.00781381 0.00781343 0.00781473 0.0078146 0.00781422 0.00781449 0.00781369 0.00781343 0.00781434 0.00781429 0.00781403 0.00781411 0.00781339 0.00781323 0.00781414 0.00781408 0.00781385 0.00781401 0.00781336 0.00781319 0.00781384 0.0078138 0.00781365 0.00781369 0.00781299 0.00781299 0.00781362 0.00781366 0.00781345 0.00781355 0.00781303 0.00781295 0.00781336 0.00781336 0.00781327 0.0078133 0.0078127 0.00781272 0.00781322 0.00781323 0.00781306 0.00781313 0.00781263 0.00781272 0.00781291 0.00781301 0.00781286 0.00781286 0.00781249 0.00781253 0.00781281 0.00781285 0.0078127 0.00781277 0.00781249 0.00781255 0.00781249 0.00781247 0.00781257 0.00781249 0.00786876 0.00785599 0.00788769 0.00787424 0.00784938 0.0078616 0.00784467 0.00783829 0.00786065 0.00785389 0.00783521 0.00784523 0.00783335 0.00782848 0.00784078 0.00783909 0.00782775 0.00783492 0.00782868 0.0078239 0.00783137 0.00783115 0.00782454 0.00782915 0.00782646 0.00782162 0.00782778 0.00782757 0.00782303 0.00782648 0.00782539 0.00782073 0.00782649 0.00782561 0.00782242 0.00782475 0.00782434 0.00782019 0.00782554 0.00782468 0.00782199 0.00782407 0.00782385 0.00781991 0.00782502 0.00782387 0.00782175 0.00782335 0.00782318 0.00781964 0.00782434 0.00782347 0.00782145 0.00782285 0.00782269 0.00781939 0.00782389 0.0078228 0.00782106 0.00782239 0.00782204 0.00781903 0.00782325 0.00782234 0.00782073 0.00782192 0.00782139 0.00781869 0.00782258 0.00782179 0.00782034 0.0078213 0.00782068 0.00781835 0.00782199 0.00782119 0.00781988 0.0078208 0.00782017 0.00781801 0.00782123 0.00782064 0.00781948 0.00782019 0.00781947 0.0078176 0.00782065 0.00782 0.0078189 0.00781965 0.00781891 0.00781723 0.00781992 0.00781944 0.00781848 0.007819 0.00781825 0.00781677 0.00781932 0.00781883 0.00781796 0.00781851 0.00781768 0.00781646 0.00781859 0.00781826 0.00781749 0.00781787 0.00781707 0.00781601 0.00781803 0.00781767 0.00781699 0.00781743 0.00781661 0.00781566 0.00781734 0.00781716 0.0078165 0.0078168 0.00781599 0.00781526 0.00781685 0.00781659 0.00781604 0.00781641 0.00781553 0.00781489 0.00781621 0.00781609 0.00781564 0.00781586 0.00781503 0.00781453 0.00781569 0.0078156 0.00781519 0.0078155 0.00781463 0.00781424 0.00781514 0.00781518 0.00781478 0.00781499 0.00781417 0.00781389 0.0078147 0.00781471 0.0078144 0.00781459 0.0078139 0.0078137 0.00781426 0.00781436 0.00781402 0.00781418 0.00781349 0.00781333 0.00781389 0.00781391 0.00781372 0.00781387 0.0078133 0.00781319 0.00781348 0.00781362 0.00781345 0.00781355 0.00781292 0.00781293 0.00781323 0.0078133 0.0078131 0.00781322 0.00781284 0.00781277 0.0078129 0.00781307 0.00781289 0.00781291 0.00781259 0.00781256 0.00781273 0.00781278 0.00781262 0.00781267 0.00781248 0.00781245 0.00781242 0.00781242 0.00781245 0.00781235 0.00789142 0.0078763 0.00792927 0.00791201 0.0078769 0.00788909 0.00785295 0.00784972 0.00787458 0.00787284 0.00785175 0.00786268 0.0078425 0.00783841 0.00784876 0.00785142 0.00784001 0.00784717 0.00783903 0.00783403 0.00784048 0.0078417 0.007835 0.00783927 0.00783682 0.0078315 0.00783763 0.00783686 0.00783247 0.00783544 0.007835 0.00782992 0.00783588 0.00783423 0.00783125 0.00783309 0.00783359 0.00782869 0.00783438 0.00783264 0.0078301 0.00783181 0.00783212 0.00782778 0.00783299 0.00783134 0.00782928 0.00783039 0.0078307 0.00782682 0.00783161 0.00783017 0.00782824 0.00782932 0.00782929 0.00782578 0.00783038 0.00782912 0.00782721 0.00782839 0.0078281 0.00782486 0.00782912 0.00782814 0.0078262 0.00782722 0.00782682 0.00782406 0.00782792 0.00782697 0.00782523 0.00782629 0.00782559 0.0078231 0.00782664 0.00782594 0.00782425 0.00782514 0.00782443 0.00782228 0.00782542 0.00782484 0.00782329 0.00782417 0.00782334 0.00782137 0.00782427 0.00782379 0.00782236 0.00782308 0.00782225 0.00782061 0.00782316 0.00782279 0.00782145 0.00782221 0.00782124 0.00781974 0.00782211 0.00782183 0.00782062 0.00782116 0.00782022 0.00781902 0.00782108 0.00782086 0.00781972 0.0078203 0.00781935 0.00781824 0.00782004 0.00781996 0.00781892 0.0078194 0.0078184 0.00781759 0.00781915 0.00781907 0.00781811 0.00781864 0.00781762 0.00781687 0.00781828 0.00781829 0.00781744 0.00781779 0.00781681 0.00781626 0.0078174 0.00781752 0.0078167 0.00781712 0.00781615 0.00781564 0.00781658 0.00781681 0.00781607 0.00781641 0.00781541 0.00781513 0.00781592 0.00781612 0.00781543 0.00781582 0.00781482 0.00781455 0.00781526 0.00781551 0.0078149 0.00781516 0.00781425 0.00781417 0.00781469 0.00781494 0.00781431 0.00781467 0.00781373 0.0078137 0.00781409 0.0078144 0.00781392 0.00781411 0.00781336 0.0078134 0.00781363 0.00781394 0.00781347 0.00781379 0.00781302 0.00781303 0.00781324 0.00781354 0.00781311 0.00781324 0.00781274 0.00781284 0.0078129 0.00781318 0.00781282 0.00781301 0.00781256 0.00781257 0.00781268 0.00781291 0.00781257 0.00781264 0.00781237 0.00781238 0.00781245 0.00781252 0.00781234 0.00781239 0.00793091 0.00789594 0.00799677 0.00796916 0.00789934 0.0079183 0.007858 0.00785723 0.00785309 0.00787911 0.00786105 0.00787008 0.0078534 0.00784763 0.00785168 0.007858 0.00784955 0.00785423 0.00785035 0.00784392 0.0078512 0.00785008 0.00784484 0.00784758 0.00784751 0.00784142 0.00784844 0.00784593 0.00784208 0.0078441 0.00784492 0.00783932 0.0078457 0.00784304 0.00784013 0.0078415 0.00784255 0.00783734 0.00784314 0.00784089 0.00783825 0.00783949 0.00784047 0.00783571 0.00784095 0.0078389 0.00783661 0.00783752 0.00783821 0.00783395 0.00783874 0.00783721 0.00783484 0.00783588 0.00783633 0.00783243 0.0078368 0.00783527 0.00783326 0.00783415 0.00783449 0.00783084 0.00783484 0.00783365 0.00783169 0.00783246 0.00783263 0.00782946 0.00783295 0.00783186 0.00783014 0.00783086 0.00783085 0.0078279 0.00783112 0.0078304 0.00782867 0.00782935 0.00782912 0.00782661 0.00782936 0.00782882 0.00782722 0.00782783 0.00782756 0.00782516 0.00782783 0.00782733 0.00782585 0.0078264 0.00782597 0.00782398 0.00782615 0.00782586 0.00782455 0.00782497 0.00782455 0.00782273 0.00782484 0.00782452 0.00782325 0.00782369 0.00782315 0.00782164 0.00782331 0.00782318 0.00782203 0.00782238 0.00782187 0.00782046 0.00782204 0.00782198 0.00782088 0.00782123 0.00782061 0.00781952 0.00782075 0.00782075 0.0078198 0.00782005 0.00781949 0.00781845 0.00781961 0.0078197 0.00781882 0.00781906 0.00781835 0.00781764 0.00781847 0.0078186 0.00781784 0.00781805 0.00781744 0.00781668 0.00781749 0.00781768 0.00781697 0.00781718 0.00781647 0.00781601 0.00781648 0.0078168 0.00781615 0.00781626 0.00781568 0.00781519 0.00781569 0.00781595 0.00781536 0.00781556 0.00781487 0.00781463 0.00781488 0.00781519 0.0078147 0.00781482 0.00781422 0.00781397 0.00781429 0.00781457 0.00781406 0.00781421 0.00781366 0.00781367 0.00781359 0.00781396 0.00781363 0.0078137 0.00781322 0.00781312 0.00781316 0.0078135 0.00781316 0.00781323 0.00781284 0.00781293 0.00781272 0.0078131 0.00781281 0.00781286 0.00781273 0.00781259 0.00781261 0.00781278 0.00781262 0.00781269 0.00781259 0.00781252 0.00781245 0.00781254 0.00781242 0.00781243 0.0077575 0.00770189 0.00770907 0.00766515 0.00772736 0.00769901 0.00776365 0.00775617 0.00774344 0.00773045 0.00774696 0.00773718 0.00777046 0.00776102 0.00776634 0.00775256 0.00775397 0.00775336 0.00777111 0.00776488 0.00777127 0.00776448 0.00776165 0.00776484 0.00777314 0.00776986 0.00777398 0.00777219 0.00776917 0.00777302 0.00777691 0.00777465 0.00777781 0.00777789 0.00777552 0.00777878 0.00778096 0.00777916 0.00778203 0.00778241 0.0077806 0.0077833 0.00778492 0.00778311 0.00778601 0.00778587 0.0077848 0.0077867 0.00778836 0.00778668 0.00778947 0.00778876 0.00778816 0.00778979 0.00779148 0.00778962 0.00779242 0.0077915 0.00779108 0.00779231 0.007794 0.00779243 0.00779494 0.00779379 0.0077936 0.00779475 0.00779642 0.00779476 0.00779717 0.00779605 0.0077959 0.00779676 0.00779835 0.00779701 0.00779911 0.00779786 0.00779792 0.00779876 0.00780027 0.00779889 0.00780088 0.00779978 0.00779983 0.00780041 0.00780183 0.00780077 0.00780244 0.00780131 0.00780154 0.00780215 0.00780347 0.00780232 0.00780392 0.00780295 0.00780312 0.00780348 0.00780469 0.00780389 0.00780524 0.00780421 0.00780449 0.00780492 0.00780597 0.00780513 0.00780642 0.00780555 0.00780581 0.00780601 0.00780697 0.00780645 0.00780747 0.0078066 0.00780694 0.00780723 0.00780804 0.00780745 0.00780846 0.0078077 0.00780797 0.00780811 0.00780884 0.00780852 0.00780927 0.0078085 0.00780894 0.00780909 0.00780966 0.0078093 0.00781003 0.00780941 0.00780975 0.00780975 0.00781022 0.00781015 0.00781064 0.00781005 0.00781044 0.00781054 0.00781095 0.00781072 0.00781122 0.00781078 0.00781117 0.00781103 0.00781138 0.00781139 0.0078117 0.00781117 0.00781163 0.00781159 0.00781188 0.00781169 0.00781214 0.00781179 0.00781208 0.00781193 0.00781213 0.00781221 0.00781241 0.00781195 0.00781244 0.00781232 0.00781252 0.00781244 0.0078127 0.00781234 0.00781268 0.00781252 0.00781257 0.00781272 0.00781284 0.00781247 0.0078128 0.00781269 0.00781277 0.00781281 0.00781291 0.00781266 0.00781289 0.0078127 0.00781268 0.00781282 0.00781291 0.00781259 0.0078128 0.00781276 0.00781272 0.00781256 0.00781275 0.00781257 0.00781267 0.00781261 0.007779 0.00776255 0.00774434 0.00773667 0.00772802 0.00773932 0.00777943 0.00777611 0.00775347 0.00775341 0.00775672 0.00776184 0.00777909 0.00777863 0.00776985 0.00776965 0.00776981 0.00777426 0.00778128 0.00777914 0.0077797 0.00777911 0.00777641 0.00778095 0.00778362 0.00778058 0.0077849 0.00778519 0.00778129 0.00778569 0.00778633 0.00778299 0.00778824 0.00778915 0.00778561 0.00778935 0.00778902 0.00778617 0.007791 0.00779209 0.00778927 0.00779241 0.00779186 0.00778922 0.00779373 0.00779428 0.0077924 0.00779474 0.00779442 0.00779195 0.00779618 0.00779632 0.00779496 0.00779678 0.00779682 0.00779455 0.0077984 0.00779807 0.00779721 0.00779863 0.00779889 0.00779675 0.00780036 0.0077998 0.00779913 0.00780023 0.00780072 0.00779876 0.00780207 0.0078012 0.00780089 0.00780176 0.00780228 0.00780049 0.00780352 0.00780268 0.00780238 0.00780308 0.00780371 0.00780211 0.00780486 0.00780391 0.00780382 0.00780436 0.00780494 0.00780348 0.00780599 0.00780515 0.00780506 0.00780549 0.0078061 0.0078048 0.00780707 0.00780615 0.00780622 0.00780653 0.00780704 0.00780589 0.00780801 0.00780718 0.00780725 0.00780744 0.00780793 0.00780696 0.00780884 0.007808 0.00780823 0.0078083 0.00780874 0.00780785 0.00780957 0.00780884 0.00780898 0.00780907 0.00780945 0.0078087 0.00781022 0.00780947 0.00780975 0.00780974 0.00781006 0.00780942 0.00781076 0.00781017 0.00781038 0.00781034 0.00781065 0.00781005 0.00781128 0.00781061 0.007811 0.00781086 0.00781108 0.0078106 0.00781165 0.00781113 0.00781142 0.00781131 0.00781154 0.00781117 0.00781203 0.0078115 0.0078119 0.00781174 0.00781178 0.00781151 0.00781231 0.00781187 0.00781217 0.00781199 0.00781217 0.0078119 0.0078126 0.0078121 0.0078125 0.00781225 0.0078123 0.00781217 0.0078127 0.00781233 0.00781267 0.00781243 0.00781248 0.00781241 0.00781288 0.00781247 0.00781286 0.00781262 0.00781256 0.0078125 0.00781286 0.00781263 0.00781284 0.00781254 0.00781262 0.00781262 0.0078129 0.00781262 0.00781289 0.00781264 0.00781263 0.00781263 0.00781287 0.00781269 0.00781275 0.00781263 0.00781274 0.00781259 0.00781279 0.00781255 0.0078127 0.00781273 0.00780087 0.00778728 0.00777952 0.00777495 0.00775887 0.00777403 0.00779863 0.00779275 0.00778197 0.0077807 0.00777148 0.00778187 0.0077946 0.00779119 0.00778751 0.00778902 0.0077821 0.00778965 0.00779342 0.00779054 0.00779258 0.00779434 0.00778834 0.00779438 0.00779408 0.00779107 0.0077956 0.00779741 0.00779244 0.00779722 0.00779587 0.00779252 0.00779797 0.00779922 0.00779534 0.00779909 0.00779767 0.00779444 0.00779975 0.00780073 0.00779782 0.00780081 0.00779967 0.00779662 0.00780155 0.00780203 0.00779985 0.00780216 0.00780134 0.00779868 0.00780321 0.00780331 0.0078015 0.00780359 0.00780304 0.00780045 0.00780465 0.00780447 0.00780317 0.00780473 0.00780436 0.00780219 0.00780597 0.00780539 0.00780444 0.00780579 0.00780567 0.00780355 0.00780711 0.00780645 0.00780571 0.0078067 0.00780664 0.00780487 0.00780804 0.0078072 0.00780665 0.00780764 0.00780768 0.0078059 0.00780888 0.0078081 0.00780771 0.00780836 0.00780836 0.00780695 0.00780961 0.00780871 0.00780842 0.0078091 0.0078092 0.00780776 0.00781024 0.00780943 0.00780927 0.00780966 0.00780968 0.00780857 0.00781081 0.00780991 0.00780982 0.00781026 0.00781029 0.00780918 0.00781127 0.00781052 0.00781053 0.00781069 0.00781067 0.00780985 0.00781164 0.00781086 0.00781096 0.00781118 0.00781119 0.00781035 0.00781197 0.00781135 0.00781142 0.00781145 0.00781139 0.00781088 0.00781231 0.00781153 0.00781174 0.00781188 0.00781182 0.0078112 0.00781247 0.00781193 0.00781209 0.00781207 0.007812 0.00781163 0.00781265 0.00781204 0.00781228 0.00781232 0.00781229 0.00781182 0.00781277 0.00781236 0.0078126 0.00781244 0.00781231 0.00781216 0.00781288 0.00781236 0.00781268 0.00781265 0.00781262 0.00781224 0.00781297 0.00781258 0.00781287 0.00781268 0.00781255 0.00781249 0.00781298 0.00781248 0.00781284 0.00781282 0.00781276 0.00781252 0.00781301 0.00781264 0.00781297 0.00781275 0.0078126 0.00781268 0.00781297 0.00781257 0.00781283 0.00781273 0.00781275 0.00781263 0.00781292 0.0078127 0.00781285 0.00781263 0.00781257 0.0078127 0.00781288 0.0078125 0.00781276 0.00781269 0.0078127 0.00781267 0.00781276 0.00781255 0.00781277 0.00781269 0.00782385 0.00781072 0.00781369 0.00780912 0.00778983 0.00780465 0.00781574 0.00780861 0.00780972 0.00780583 0.00779295 0.00780346 0.00780933 0.00780467 0.00780741 0.00780611 0.00779765 0.00780493 0.00780612 0.00780228 0.00780699 0.00780706 0.00780109 0.00780631 0.00780531 0.00780159 0.00780708 0.00780807 0.00780323 0.00780738 0.00780565 0.00780209 0.00780765 0.00780865 0.00780481 0.00780812 0.00780675 0.00780333 0.00780854 0.00780914 0.00780617 0.00780873 0.00780758 0.00780441 0.00780937 0.00780975 0.00780726 0.00780956 0.00780866 0.00780568 0.00781026 0.00781035 0.0078083 0.00781011 0.00780941 0.00780686 0.00781105 0.00781063 0.00780916 0.00781071 0.00781019 0.00780784 0.00781167 0.00781119 0.0078099 0.00781119 0.0078108 0.00780869 0.0078122 0.00781159 0.00781054 0.00781167 0.00781128 0.00780938 0.00781262 0.00781206 0.00781111 0.007812 0.00781165 0.00781003 0.00781301 0.00781227 0.00781158 0.00781235 0.00781204 0.00781049 0.00781329 0.00781262 0.00781197 0.00781258 0.00781226 0.00781101 0.00781348 0.00781275 0.00781225 0.00781284 0.00781254 0.00781129 0.00781359 0.00781296 0.00781256 0.00781295 0.00781263 0.0078117 0.00781373 0.00781303 0.00781276 0.00781312 0.0078128 0.00781191 0.00781373 0.00781318 0.00781294 0.00781318 0.00781285 0.00781222 0.00781382 0.00781322 0.00781308 0.00781333 0.00781293 0.00781232 0.00781376 0.00781332 0.00781319 0.00781333 0.00781294 0.0078125 0.00781376 0.0078132 0.00781323 0.00781338 0.00781298 0.00781258 0.00781362 0.0078133 0.00781328 0.00781329 0.00781296 0.00781273 0.00781357 0.00781318 0.00781327 0.00781331 0.00781296 0.00781268 0.00781349 0.00781319 0.00781323 0.00781325 0.00781289 0.00781282 0.00781339 0.00781309 0.00781317 0.00781321 0.00781288 0.00781275 0.00781323 0.00781305 0.00781311 0.00781301 0.00781278 0.00781284 0.00781322 0.00781288 0.00781307 0.00781308 0.00781274 0.00781272 0.007813 0.0078129 0.00781291 0.00781281 0.00781265 0.00781277 0.00781292 0.00781273 0.00781284 0.00781278 0.00781262 0.00781265 0.00781273 0.00781269 0.00781272 0.00781263 0.00781254 0.0078127 0.00781262 0.00781243 0.00781267 0.00781262 0.00784649 0.00783345 0.0078487 0.00784195 0.00781918 0.00783368 0.00783097 0.00782328 0.00783584 0.00782999 0.00781443 0.00782456 0.007822 0.00781684 0.00782555 0.00782238 0.0078133 0.00782001 0.0078178 0.00781329 0.00782022 0.00781916 0.00781331 0.007818 0.00781612 0.00781183 0.00781797 0.00781802 0.00781358 0.00781725 0.00781575 0.00781169 0.00781726 0.00781736 0.00781411 0.00781668 0.00781563 0.00781192 0.00781713 0.00781717 0.00781436 0.00781664 0.00781591 0.00781244 0.00781738 0.00781699 0.00781471 0.00781656 0.00781603 0.00781283 0.00781753 0.00781706 0.00781494 0.00781665 0.00781618 0.00781331 0.00781757 0.00781687 0.00781523 0.00781666 0.00781616 0.00781363 0.00781762 0.00781689 0.00781534 0.0078167 0.00781617 0.00781383 0.00781751 0.00781686 0.00781547 0.00781657 0.00781605 0.00781408 0.0078174 0.00781662 0.00781547 0.00781652 0.00781598 0.00781411 0.00781723 0.00781656 0.00781553 0.00781632 0.00781574 0.00781422 0.00781698 0.00781627 0.00781542 0.00781621 0.00781561 0.00781414 0.00781678 0.00781619 0.00781537 0.00781594 0.00781537 0.00781419 0.00781645 0.00781588 0.00781524 0.00781582 0.00781522 0.00781405 0.00781623 0.00781574 0.00781515 0.00781554 0.00781494 0.00781408 0.00781588 0.00781542 0.00781494 0.00781538 0.00781476 0.00781392 0.00781563 0.00781527 0.00781481 0.00781505 0.00781444 0.00781395 0.0078153 0.00781491 0.00781454 0.00781494 0.00781426 0.00781373 0.00781499 0.00781472 0.00781444 0.00781461 0.00781399 0.0078137 0.00781466 0.00781438 0.00781417 0.00781448 0.00781383 0.00781346 0.0078144 0.00781425 0.00781403 0.00781415 0.00781353 0.00781344 0.0078141 0.00781389 0.00781372 0.00781399 0.00781345 0.00781321 0.00781388 0.00781376 0.00781362 0.00781369 0.00781317 0.00781318 0.00781357 0.00781339 0.00781335 0.00781351 0.00781308 0.00781298 0.00781337 0.00781332 0.00781328 0.00781331 0.00781284 0.00781293 0.0078131 0.00781301 0.00781296 0.00781307 0.00781276 0.00781273 0.00781296 0.00781294 0.00781285 0.00781284 0.00781259 0.00781271 0.00781268 0.00781264 0.00781259 0.00781269 0.00781255 0.00781246 0.00781247 0.00781247 0.00781253 0.0078124 0.00786843 0.00785485 0.00788678 0.00787565 0.00784792 0.0078618 0.00784355 0.00783664 0.00785906 0.00785272 0.00783451 0.00784441 0.00783265 0.00782775 0.00783985 0.00783721 0.00782772 0.00783424 0.00782852 0.00782372 0.00783106 0.00783025 0.0078247 0.00782904 0.00782659 0.00782196 0.00782788 0.0078272 0.00782347 0.0078263 0.00782539 0.00782093 0.00782655 0.00782586 0.00782279 0.00782511 0.00782479 0.00782049 0.00782583 0.00782497 0.00782239 0.00782417 0.00782404 0.00782018 0.00782519 0.00782434 0.00782207 0.00782372 0.00782338 0.00781994 0.00782462 0.00782383 0.00782183 0.00782309 0.00782271 0.00781965 0.00782407 0.00782324 0.00782132 0.00782269 0.00782223 0.00781954 0.00782339 0.00782252 0.00782097 0.00782204 0.00782164 0.00781913 0.00782265 0.00782198 0.00782057 0.00782147 0.00782098 0.00781877 0.007822 0.00782141 0.00782007 0.00782093 0.00782033 0.0078183 0.00782139 0.00782081 0.00781952 0.00782029 0.00781956 0.0078179 0.00782077 0.00782027 0.00781898 0.00781977 0.00781906 0.00781746 0.00782017 0.00781962 0.00781851 0.00781912 0.0078184 0.00781706 0.00781943 0.00781906 0.007818 0.00781857 0.00781781 0.00781661 0.00781885 0.00781839 0.0078175 0.00781797 0.00781719 0.00781625 0.00781807 0.0078179 0.00781696 0.00781747 0.00781669 0.00781579 0.00781758 0.00781724 0.0078165 0.00781686 0.00781609 0.00781542 0.00781689 0.00781677 0.00781604 0.00781637 0.00781562 0.00781504 0.00781637 0.00781618 0.0078156 0.00781592 0.00781512 0.00781472 0.00781578 0.00781577 0.00781514 0.00781548 0.00781474 0.00781435 0.00781532 0.00781529 0.0078148 0.007815 0.00781423 0.00781406 0.00781477 0.00781487 0.00781436 0.00781457 0.00781395 0.00781376 0.00781443 0.00781442 0.00781404 0.00781418 0.00781353 0.00781349 0.00781392 0.00781409 0.00781367 0.00781383 0.00781335 0.00781324 0.00781368 0.00781371 0.0078134 0.00781351 0.007813 0.00781301 0.00781329 0.00781346 0.00781305 0.00781316 0.00781289 0.00781281 0.00781307 0.00781314 0.00781287 0.00781293 0.00781261 0.00781265 0.00781277 0.00781293 0.00781262 0.00781263 0.0078125 0.00781241 0.00781249 0.00781247 0.00781235 0.00781232 0.00789055 0.00787464 0.00792864 0.00791386 0.00787511 0.00788896 0.00785162 0.00784738 0.00787297 0.00787115 0.00785081 0.00786146 0.00784164 0.00783715 0.00784761 0.00784917 0.00783962 0.00784625 0.00783873 0.00783356 0.00784007 0.00784004 0.00783474 0.0078388 0.00783669 0.00783167 0.00783736 0.00783617 0.00783266 0.00783526 0.00783504 0.00783025 0.0078358 0.007834 0.00783151 0.00783319 0.0078335 0.00782902 0.00783444 0.00783271 0.00783033 0.00783185 0.00783223 0.0078281 0.00783307 0.00783148 0.0078294 0.00783069 0.00783081 0.00782704 0.00783178 0.00783055 0.00782837 0.00782967 0.00782963 0.00782615 0.00783049 0.00782932 0.00782739 0.00782848 0.00782821 0.00782523 0.00782915 0.00782825 0.00782644 0.00782755 0.0078271 0.00782423 0.00782791 0.00782718 0.00782546 0.00782635 0.00782571 0.0078233 0.00782668 0.00782608 0.00782438 0.00782542 0.00782469 0.00782238 0.00782547 0.00782496 0.00782341 0.00782423 0.00782345 0.00782163 0.00782432 0.00782379 0.00782252 0.00782333 0.00782253 0.00782067 0.00782326 0.00782285 0.00782155 0.00782221 0.00782133 0.00781997 0.00782211 0.00782174 0.00782072 0.00782141 0.00782048 0.00781909 0.00782109 0.00782093 0.00781978 0.00782034 0.00781942 0.00781844 0.00782007 0.00781989 0.00781902 0.0078196 0.00781865 0.0078176 0.00781919 0.00781913 0.00781815 0.00781858 0.00781768 0.00781703 0.00781823 0.00781817 0.00781748 0.00781797 0.007817 0.00781626 0.00781745 0.00781748 0.00781676 0.00781708 0.00781619 0.00781578 0.00781659 0.0078167 0.00781614 0.0078165 0.00781561 0.00781511 0.00781594 0.00781609 0.00781547 0.00781576 0.00781485 0.00781473 0.00781522 0.00781535 0.00781496 0.00781529 0.00781447 0.0078141 0.00781468 0.00781488 0.00781435 0.0078146 0.0078138 0.00781379 0.00781402 0.00781422 0.00781401 0.00781425 0.00781354 0.00781339 0.00781366 0.00781394 0.00781352 0.0078137 0.00781302 0.00781319 0.00781317 0.0078134 0.00781318 0.00781336 0.00781293 0.00781281 0.00781292 0.00781318 0.00781285 0.00781294 0.00781262 0.00781267 0.00781264 0.00781272 0.0078126 0.0078128 0.00781254 0.00781235 0.0078124 0.00781249 0.00781231 0.00781233 0.00792856 0.00789396 0.00799389 0.0079686 0.00789836 0.00791764 0.00785727 0.00785451 0.00785191 0.00787727 0.00785983 0.00786909 0.00785252 0.00784597 0.00785075 0.00785566 0.00784886 0.00785349 0.00784971 0.00784305 0.00785031 0.0078486 0.00784442 0.00784731 0.00784703 0.00784109 0.00784791 0.00784506 0.00784203 0.00784392 0.00784453 0.00783922 0.00784545 0.00784275 0.00784015 0.00784164 0.00784244 0.00783741 0.00784303 0.00784074 0.00783843 0.00783951 0.00784028 0.00783566 0.00784088 0.00783909 0.00783659 0.00783786 0.00783834 0.00783417 0.00783891 0.00783721 0.00783506 0.00783597 0.00783629 0.00783252 0.00783681 0.00783559 0.00783345 0.00783439 0.00783452 0.00783108 0.00783493 0.00783377 0.00783181 0.00783258 0.00783254 0.00782955 0.00783296 0.00783222 0.00783029 0.00783109 0.00783085 0.0078281 0.00783127 0.00783063 0.00782873 0.00782939 0.00782916 0.00782677 0.00782959 0.00782898 0.00782731 0.00782789 0.00782757 0.00782538 0.00782784 0.00782745 0.00782592 0.00782638 0.00782602 0.00782411 0.00782633 0.00782602 0.00782461 0.00782498 0.00782455 0.00782289 0.00782487 0.0078246 0.00782334 0.00782369 0.00782321 0.00782173 0.00782353 0.00782334 0.00782212 0.00782242 0.0078219 0.00782064 0.00782209 0.00782207 0.00782098 0.00782127 0.00782067 0.00781957 0.00782094 0.0078209 0.00781986 0.00782012 0.0078195 0.00781863 0.00781972 0.00781976 0.00781884 0.00781906 0.00781841 0.00781767 0.0078186 0.00781871 0.00781791 0.00781807 0.00781745 0.00781687 0.00781756 0.00781775 0.00781698 0.00781712 0.00781651 0.00781601 0.00781663 0.00781687 0.00781618 0.00781629 0.00781564 0.00781533 0.00781581 0.00781604 0.00781543 0.00781547 0.0078149 0.00781468 0.00781506 0.00781529 0.00781475 0.00781479 0.00781416 0.00781411 0.00781427 0.00781458 0.00781412 0.00781415 0.00781364 0.00781362 0.00781378 0.00781404 0.00781362 0.0078137 0.00781318 0.00781321 0.00781321 0.00781359 0.00781316 0.00781313 0.00781281 0.00781291 0.00781284 0.00781317 0.00781285 0.00781284 0.00781257 0.00781272 0.0078126 0.00781285 0.0078126 0.00781252 0.00781255 0.00781251 0.00781256 0.00781258 0.00781239 0.00781245 0.0077629 0.00771032 0.00771514 0.0076736 0.00773003 0.00770652 0.00776866 0.00776287 0.00774865 0.00773993 0.00775079 0.00774365 0.00777404 0.00776641 0.00777088 0.00776241 0.00775887 0.00775917 0.00777358 0.00776937 0.00777473 0.00777203 0.00776601 0.00776926 0.00777491 0.00777303 0.00777658 0.00777711 0.00777244 0.00777606 0.00777815 0.00777678 0.00777957 0.00778077 0.00777769 0.00778066 0.00778186 0.00778043 0.00778329 0.00778395 0.00778194 0.00778427 0.00778562 0.00778392 0.00778668 0.00778661 0.00778557 0.00778723 0.00778884 0.00778712 0.00778994 0.00778916 0.00778863 0.00779009 0.00779176 0.00778992 0.0077927 0.00779166 0.00779131 0.0077924 0.00779425 0.00779255 0.00779511 0.00779384 0.00779372 0.00779485 0.00779657 0.00779483 0.00779724 0.00779603 0.00779595 0.00779675 0.00779852 0.00779702 0.00779918 0.00779793 0.00779795 0.00779886 0.00780037 0.00779893 0.00780086 0.0077998 0.00779982 0.00780045 0.00780191 0.00780073 0.00780249 0.00780135 0.00780153 0.0078022 0.00780345 0.00780228 0.00780388 0.00780295 0.00780305 0.0078035 0.00780473 0.00780379 0.00780525 0.00780424 0.00780449 0.00780499 0.00780598 0.00780507 0.00780636 0.00780557 0.00780573 0.00780598 0.00780699 0.00780631 0.00780743 0.00780661 0.00780691 0.00780727 0.007808 0.00780738 0.0078084 0.00780772 0.0078079 0.00780807 0.00780879 0.00780834 0.00780924 0.00780853 0.00780891 0.00780914 0.00780959 0.00780919 0.00780996 0.0078094 0.00780968 0.00780973 0.00781024 0.00780998 0.00781056 0.00781007 0.00781042 0.00781056 0.00781092 0.00781058 0.00781113 0.00781069 0.00781098 0.00781102 0.00781125 0.00781119 0.00781165 0.00781113 0.00781156 0.00781165 0.00781181 0.00781165 0.00781201 0.00781169 0.007812 0.00781186 0.00781209 0.00781205 0.0078124 0.00781197 0.00781238 0.00781237 0.00781243 0.00781232 0.00781263 0.00781233 0.00781266 0.00781249 0.0078125 0.00781256 0.00781284 0.00781246 0.00781274 0.0078127 0.00781268 0.00781267 0.00781287 0.00781266 0.00781281 0.00781264 0.00781265 0.00781271 0.0078129 0.00781262 0.00781274 0.0078128 0.00781259 0.00781257 0.00781281 0.00781259 0.00781258 0.00781261 0.00778188 0.00776727 0.00774652 0.00773827 0.00773031 0.0077434 0.00778277 0.00778265 0.00775742 0.00775948 0.00776084 0.00776648 0.00778207 0.00778345 0.00777425 0.00777754 0.00777378 0.00777879 0.0077833 0.00778237 0.00778308 0.00778562 0.00777976 0.0077847 0.00778508 0.00778281 0.0077872 0.00778937 0.00778384 0.00778826 0.00778738 0.00778487 0.00778979 0.00779157 0.00778735 0.00779096 0.00778998 0.0077875 0.0077922 0.00779341 0.0077904 0.00779322 0.00779261 0.00779028 0.00779447 0.00779483 0.00779304 0.00779534 0.007795 0.00779282 0.00779673 0.00779666 0.00779541 0.00779713 0.00779738 0.00779519 0.00779876 0.00779814 0.00779742 0.00779883 0.00779937 0.00779726 0.00780064 0.00779975 0.00779929 0.00780036 0.00780113 0.00779919 0.00780221 0.00780123 0.00780095 0.00780187 0.00780265 0.00780082 0.00780367 0.00780265 0.00780243 0.0078032 0.00780403 0.0078024 0.00780493 0.0078039 0.0078038 0.00780443 0.00780518 0.00780366 0.00780606 0.00780504 0.00780502 0.00780558 0.00780633 0.00780499 0.00780707 0.00780611 0.00780615 0.00780661 0.00780721 0.00780603 0.00780802 0.00780707 0.00780719 0.0078075 0.00780808 0.00780712 0.0078088 0.00780789 0.00780811 0.00780836 0.00780884 0.00780791 0.0078095 0.00780871 0.00780893 0.00780909 0.00780958 0.00780878 0.00781016 0.00780936 0.00780964 0.00780978 0.00781013 0.00780947 0.00781073 0.00781005 0.00781029 0.00781037 0.00781065 0.00781014 0.00781114 0.0078105 0.00781084 0.0078109 0.00781112 0.00781057 0.00781157 0.00781098 0.00781135 0.0078113 0.00781155 0.00781117 0.00781193 0.00781134 0.00781174 0.00781169 0.00781185 0.00781146 0.00781229 0.00781175 0.00781208 0.00781203 0.00781218 0.00781185 0.00781249 0.00781198 0.00781241 0.00781229 0.00781233 0.00781203 0.00781261 0.00781215 0.0078126 0.00781239 0.00781259 0.00781238 0.00781274 0.00781234 0.00781273 0.0078126 0.00781257 0.00781239 0.00781282 0.00781247 0.00781276 0.0078126 0.00781264 0.00781256 0.00781282 0.00781252 0.00781273 0.00781265 0.00781264 0.00781252 0.00781285 0.00781256 0.00781274 0.00781265 0.00781273 0.00781257 0.00781274 0.0078125 0.00781271 0.00781276 0.00780181 0.00778897 0.00778038 0.00777588 0.00775934 0.00777623 0.00779987 0.00779662 0.00778386 0.00778409 0.00777454 0.00778451 0.00779614 0.00779457 0.00779045 0.00779373 0.00778562 0.00779241 0.00779477 0.00779309 0.00779508 0.00779844 0.00779138 0.00779673 0.00779542 0.00779314 0.00779746 0.00780022 0.00779467 0.00779887 0.00779689 0.00779429 0.0077993 0.0078011 0.00779685 0.00780031 0.00779873 0.00779599 0.00780078 0.00780192 0.00779887 0.00780156 0.00780034 0.0077978 0.0078023 0.00780273 0.00780064 0.00780282 0.00780198 0.00779964 0.00780367 0.00780379 0.00780211 0.00780404 0.00780364 0.0078013 0.00780504 0.00780476 0.00780351 0.00780498 0.00780481 0.00780287 0.00780626 0.00780572 0.00780472 0.00780609 0.00780606 0.00780412 0.00780733 0.00780665 0.00780588 0.00780687 0.00780697 0.00780532 0.00780822 0.00780742 0.00780685 0.00780788 0.00780788 0.00780629 0.00780903 0.00780825 0.00780783 0.00780845 0.00780859 0.00780726 0.00780972 0.00780889 0.00780854 0.00780926 0.00780932 0.00780802 0.00781028 0.00780959 0.00780935 0.00780967 0.00780981 0.00780881 0.00781084 0.00781006 0.0078099 0.00781042 0.00781038 0.00780936 0.00781128 0.00781057 0.00781051 0.00781068 0.0078107 0.00781002 0.00781162 0.00781095 0.00781091 0.0078113 0.00781122 0.00781047 0.00781196 0.00781135 0.00781141 0.0078115 0.00781144 0.00781095 0.00781223 0.00781163 0.00781171 0.00781198 0.00781179 0.00781125 0.00781245 0.00781194 0.00781211 0.00781205 0.00781195 0.00781162 0.00781261 0.00781213 0.00781231 0.00781245 0.00781223 0.00781185 0.00781277 0.00781235 0.0078126 0.00781245 0.00781223 0.00781213 0.00781284 0.00781244 0.00781259 0.00781272 0.00781251 0.00781225 0.00781294 0.00781262 0.00781285 0.00781268 0.00781246 0.00781241 0.00781294 0.0078126 0.00781286 0.00781289 0.00781267 0.00781249 0.007813 0.0078127 0.00781297 0.0078128 0.00781251 0.00781257 0.00781295 0.00781266 0.0078128 0.00781286 0.00781266 0.00781257 0.00781285 0.0078127 0.00781289 0.00781267 0.00781253 0.0078126 0.00781281 0.00781259 0.00781279 0.0078128 0.00781262 0.00781257 0.00781275 0.00781261 0.00781283 0.00781269 0.00782303 0.00781031 0.00781375 0.00780961 0.00778941 0.00780518 0.00781486 0.00780954 0.00780989 0.00780619 0.00779451 0.00780414 0.00780952 0.0078062 0.00780849 0.0078077 0.00780011 0.0078059 0.00780673 0.00780391 0.00780818 0.00780909 0.00780342 0.00780765 0.00780629 0.00780315 0.00780837 0.00780975 0.00780495 0.0078085 0.00780671 0.00780374 0.00780882 0.00780978 0.00780619 0.007809 0.00780757 0.00780454 0.00780947 0.00781015 0.00780698 0.00780954 0.00780845 0.00780568 0.00781014 0.00781032 0.0078079 0.0078101 0.00780935 0.00780668 0.00781084 0.00781078 0.00780872 0.00781057 0.00781003 0.00780783 0.00781157 0.00781105 0.0078094 0.0078112 0.00781065 0.00780857 0.00781204 0.00781159 0.00781016 0.00781164 0.00781122 0.00780935 0.00781258 0.00781188 0.00781073 0.00781207 0.00781175 0.00780984 0.00781282 0.00781223 0.00781129 0.00781225 0.00781202 0.00781047 0.00781324 0.00781243 0.00781165 0.00781268 0.00781237 0.0078108 0.00781337 0.00781269 0.00781204 0.00781274 0.00781249 0.00781125 0.00781362 0.00781283 0.00781228 0.00781308 0.00781277 0.00781152 0.00781365 0.00781301 0.00781261 0.0078131 0.00781278 0.00781184 0.00781383 0.0078131 0.00781274 0.00781337 0.00781296 0.007812 0.00781372 0.00781323 0.007813 0.00781328 0.00781297 0.0078123 0.00781389 0.00781321 0.00781303 0.00781348 0.00781306 0.00781236 0.00781374 0.00781333 0.00781316 0.00781338 0.00781303 0.00781255 0.0078138 0.00781325 0.00781317 0.00781354 0.00781307 0.00781256 0.00781363 0.00781331 0.00781329 0.00781333 0.007813 0.00781269 0.00781359 0.00781322 0.00781321 0.00781349 0.00781298 0.00781267 0.00781345 0.00781318 0.00781322 0.00781325 0.00781295 0.00781275 0.00781345 0.00781308 0.00781313 0.00781338 0.00781295 0.00781266 0.00781324 0.007813 0.00781314 0.00781307 0.00781285 0.00781274 0.00781326 0.00781291 0.00781301 0.00781324 0.00781278 0.00781258 0.007813 0.00781286 0.00781294 0.00781292 0.00781261 0.00781262 0.00781294 0.00781271 0.00781278 0.00781292 0.00781267 0.00781249 0.00781274 0.00781267 0.00781278 0.00781268 0.00781256 0.00781253 0.00781264 0.00781244 0.00781262 0.00781271 0.00784441 0.00783085 0.00784807 0.00784216 0.00781781 0.00783284 0.0078285 0.00782141 0.007834 0.00782715 0.0078147 0.00782313 0.00782098 0.00781656 0.00782495 0.00782088 0.00781451 0.00781956 0.00781776 0.00781394 0.00782039 0.00781936 0.00781476 0.0078182 0.0078167 0.00781292 0.00781872 0.00781863 0.00781474 0.0078176 0.00781634 0.00781276 0.007818 0.00781823 0.00781482 0.00781732 0.00781645 0.0078132 0.00781802 0.00781781 0.00781507 0.00781718 0.00781655 0.00781353 0.00781787 0.00781772 0.00781521 0.0078172 0.00781673 0.00781395 0.00781806 0.00781743 0.00781545 0.00781701 0.00781663 0.00781407 0.00781799 0.0078175 0.00781553 0.00781712 0.00781657 0.0078144 0.00781799 0.00781731 0.00781571 0.00781718 0.0078166 0.00781453 0.00781778 0.00781715 0.00781574 0.00781689 0.00781641 0.00781471 0.00781757 0.00781697 0.00781571 0.00781687 0.00781631 0.00781463 0.00781739 0.0078168 0.00781571 0.00781656 0.00781602 0.00781466 0.00781711 0.00781647 0.00781557 0.00781654 0.00781587 0.00781456 0.00781688 0.00781631 0.00781547 0.00781618 0.0078156 0.00781453 0.0078166 0.00781599 0.00781532 0.00781609 0.00781535 0.00781435 0.00781628 0.00781582 0.00781516 0.00781571 0.00781509 0.00781432 0.00781596 0.00781547 0.00781501 0.00781559 0.00781488 0.00781413 0.00781563 0.00781531 0.0078148 0.00781515 0.00781455 0.00781407 0.00781532 0.00781498 0.00781465 0.0078151 0.00781434 0.00781387 0.00781502 0.00781474 0.00781447 0.00781469 0.00781405 0.00781378 0.00781468 0.00781445 0.00781424 0.00781463 0.00781387 0.00781359 0.00781441 0.00781429 0.00781404 0.00781418 0.00781359 0.0078135 0.00781411 0.00781392 0.00781378 0.00781412 0.00781345 0.0078133 0.00781387 0.00781381 0.00781364 0.00781374 0.00781315 0.00781316 0.00781358 0.00781344 0.00781345 0.00781366 0.00781305 0.00781307 0.00781335 0.00781337 0.00781326 0.00781332 0.00781284 0.00781294 0.00781316 0.00781307 0.00781301 0.00781321 0.00781267 0.0078127 0.00781299 0.00781298 0.00781283 0.00781284 0.00781256 0.00781264 0.00781269 0.00781267 0.00781269 0.00781283 0.00781251 0.00781243 0.00781245 0.00781245 0.00781258 0.00781249 0.0078655 0.00785082 0.00788592 0.00787617 0.00784559 0.0078601 0.00784011 0.00783258 0.00785582 0.00784707 0.00783348 0.00784127 0.00783097 0.00782622 0.00783801 0.00783332 0.00782769 0.00783236 0.00782805 0.00782374 0.0078306 0.0078287 0.00782517 0.00782831 0.00782674 0.00782242 0.00782799 0.00782719 0.00782392 0.00782645 0.00782594 0.00782196 0.00782688 0.00782606 0.00782337 0.00782533 0.00782523 0.00782149 0.0078262 0.00782546 0.00782289 0.00782462 0.00782464 0.00782126 0.00782558 0.0078248 0.00782255 0.00782416 0.00782404 0.00782086 0.00782506 0.00782431 0.00782207 0.00782353 0.00782334 0.0078206 0.00782442 0.00782352 0.0078217 0.00782288 0.0078226 0.00782012 0.00782377 0.007823 0.00782122 0.00782254 0.00782192 0.00781988 0.00782302 0.00782224 0.00782068 0.00782186 0.00782127 0.00781928 0.00782234 0.00782166 0.00782024 0.00782135 0.00782051 0.00781895 0.00782157 0.00782098 0.0078196 0.00782054 0.00782001 0.00781835 0.00782084 0.00782026 0.0078191 0.00782001 0.00781923 0.00781789 0.00782011 0.00781962 0.00781858 0.00781929 0.00781871 0.00781737 0.0078195 0.00781903 0.00781808 0.00781878 0.00781792 0.00781699 0.00781872 0.00781838 0.00781754 0.0078181 0.00781745 0.00781643 0.00781809 0.00781782 0.00781705 0.00781764 0.00781677 0.00781608 0.00781747 0.0078172 0.00781652 0.00781696 0.00781632 0.00781559 0.00781689 0.00781663 0.0078161 0.00781655 0.00781566 0.00781527 0.00781624 0.0078161 0.0078156 0.00781599 0.00781533 0.00781482 0.00781576 0.00781563 0.00781519 0.00781559 0.00781472 0.00781449 0.00781519 0.00781514 0.00781474 0.00781502 0.00781437 0.00781411 0.00781474 0.0078147 0.00781439 0.00781474 0.00781392 0.00781388 0.00781431 0.00781432 0.00781399 0.00781422 0.00781368 0.00781349 0.00781387 0.00781387 0.00781367 0.00781396 0.00781328 0.00781338 0.0078135 0.00781361 0.00781338 0.00781357 0.00781314 0.00781295 0.00781325 0.00781327 0.00781313 0.00781328 0.00781278 0.00781289 0.00781294 0.00781309 0.00781281 0.00781292 0.00781274 0.00781257 0.00781274 0.00781278 0.00781265 0.00781276 0.00781248 0.00781237 0.00781237 0.00781241 0.00781239 0.0078124 0.00788723 0.00786965 0.00792919 0.00791584 0.00787252 0.00788691 0.0078481 0.00784218 0.00786912 0.00786382 0.00784889 0.00785717 0.00783975 0.00783507 0.00784532 0.00784362 0.00783855 0.00784353 0.00783782 0.00783294 0.00783908 0.00783773 0.00783461 0.00783767 0.00783643 0.00783166 0.00783704 0.00783544 0.00783284 0.00783506 0.007835 0.00783061 0.00783581 0.00783435 0.00783162 0.00783344 0.00783379 0.00782978 0.00783459 0.00783307 0.00783067 0.00783217 0.00783241 0.00782863 0.00783326 0.00783205 0.00782959 0.00783117 0.00783126 0.00782779 0.0078321 0.00783075 0.00782854 0.0078299 0.00782976 0.00782683 0.00783071 0.00782978 0.00782762 0.00782885 0.00782868 0.00782596 0.00782942 0.00782848 0.00782662 0.00782778 0.00782735 0.00782496 0.00782814 0.00782746 0.00782559 0.00782666 0.00782621 0.00782387 0.00782696 0.00782624 0.00782458 0.0078256 0.00782497 0.007823 0.00782556 0.00782514 0.00782361 0.00782448 0.00782362 0.00782196 0.00782454 0.00782407 0.00782261 0.00782352 0.00782268 0.00782118 0.00782331 0.00782297 0.00782167 0.00782242 0.00782154 0.00782023 0.00782234 0.00782197 0.0078208 0.00782153 0.00782061 0.00781953 0.00782118 0.00782098 0.00781989 0.00782049 0.00781954 0.00781861 0.00782026 0.0078201 0.00781907 0.00781972 0.00781876 0.00781799 0.00781929 0.00781913 0.00781825 0.00781876 0.00781781 0.00781715 0.00781841 0.00781834 0.00781751 0.00781807 0.00781707 0.00781658 0.0078175 0.0078175 0.00781679 0.00781723 0.00781624 0.00781589 0.00781677 0.00781679 0.00781616 0.00781661 0.00781565 0.00781538 0.00781596 0.0078161 0.00781552 0.0078159 0.00781492 0.00781471 0.00781534 0.00781551 0.00781495 0.00781534 0.00781446 0.00781436 0.00781471 0.0078149 0.00781445 0.00781472 0.00781384 0.00781381 0.00781419 0.0078144 0.00781396 0.00781432 0.00781356 0.00781359 0.00781364 0.00781389 0.00781357 0.00781383 0.0078131 0.00781309 0.00781337 0.00781359 0.0078132 0.00781345 0.0078129 0.00781294 0.00781292 0.00781315 0.00781289 0.00781301 0.00781262 0.00781261 0.00781276 0.00781288 0.00781259 0.00781277 0.00781246 0.0078124 0.00781241 0.00781244 0.00781235 0.00781238 0.00792387 0.00789003 0.00799055 0.00796869 0.00789679 0.00791498 0.00785421 0.00784932 0.00784882 0.0078704 0.00785716 0.00786537 0.00785021 0.00784369 0.00784863 0.00785063 0.00784705 0.00785123 0.00784832 0.00784225 0.00784887 0.00784596 0.00784357 0.00784617 0.00784612 0.0078407 0.007847 0.00784417 0.00784142 0.00784356 0.00784416 0.00783918 0.00784502 0.00784242 0.00784002 0.00784157 0.0078423 0.00783754 0.00784298 0.00784087 0.00783825 0.00783974 0.00784026 0.00783603 0.00784087 0.00783911 0.00783669 0.00783787 0.00783836 0.00783442 0.00783884 0.00783742 0.00783508 0.00783622 0.00783648 0.00783295 0.00783694 0.0078357 0.00783356 0.00783454 0.00783462 0.00783133 0.00783505 0.0078341 0.00783196 0.00783296 0.0078329 0.00783 0.00783314 0.00783224 0.00783032 0.00783124 0.00783096 0.0078284 0.00783141 0.00783066 0.00782888 0.00782972 0.00782941 0.00782713 0.00782967 0.00782903 0.00782738 0.00782809 0.00782777 0.0078256 0.007828 0.00782757 0.007826 0.00782671 0.00782622 0.00782437 0.00782638 0.00782606 0.00782466 0.00782522 0.00782475 0.00782311 0.007825 0.0078247 0.00782346 0.00782394 0.00782335 0.00782195 0.00782354 0.00782338 0.00782216 0.00782264 0.00782208 0.00782079 0.00782219 0.00782212 0.00782109 0.00782148 0.00782082 0.00781979 0.00782097 0.00782094 0.00781991 0.00782024 0.00781968 0.00781877 0.00781972 0.00781981 0.00781898 0.00781928 0.00781854 0.00781784 0.00781864 0.00781875 0.00781794 0.00781817 0.00781757 0.00781694 0.0078176 0.00781775 0.00781709 0.00781731 0.00781666 0.00781616 0.0078166 0.00781688 0.00781625 0.00781646 0.0078158 0.00781539 0.00781579 0.00781599 0.00781551 0.00781569 0.00781505 0.0078148 0.00781506 0.00781532 0.00781477 0.00781491 0.00781433 0.00781413 0.0078143 0.00781459 0.00781425 0.00781437 0.00781378 0.00781369 0.00781373 0.00781404 0.00781368 0.00781379 0.00781333 0.00781322 0.00781322 0.00781358 0.00781322 0.00781335 0.00781294 0.00781291 0.00781281 0.00781315 0.00781284 0.00781291 0.00781273 0.00781267 0.0078126 0.00781278 0.00781263 0.00781276 0.00781268 0.00781246 0.00781248 0.0078125 0.00781245 0.00781244 0.00777495 0.0077564 0.00774517 0.00768935 0.00773259 0.00772351 0.00777707 0.00776953 0.00776938 0.00777802 0.00776428 0.00775852 0.00777968 0.00777633 0.00778618 0.00778962 0.00777 0.00776961 0.00777742 0.00777718 0.00778224 0.00778501 0.00777393 0.007776 0.00777788 0.00777807 0.00778059 0.00778291 0.00777743 0.00777984 0.00778052 0.00777987 0.00778198 0.00778331 0.00778044 0.0077826 0.00778372 0.00778251 0.00778463 0.00778498 0.00778337 0.00778513 0.00778707 0.00778529 0.00778752 0.00778684 0.00778618 0.00778761 0.00778985 0.00778804 0.00779038 0.00778917 0.0077888 0.00779018 0.00779255 0.00779053 0.0077929 0.00779146 0.00779131 0.00779244 0.00779486 0.00779309 0.00779517 0.00779376 0.00779368 0.00779476 0.00779706 0.00779524 0.00779727 0.00779584 0.00779583 0.00779675 0.00779891 0.00779741 0.00779911 0.00779784 0.00779786 0.00779876 0.00780072 0.00779921 0.00780083 0.00779963 0.00779969 0.0078004 0.00780217 0.00780102 0.00780238 0.00780126 0.00780141 0.00780205 0.00780372 0.0078025 0.00780379 0.0078028 0.00780295 0.00780344 0.00780493 0.00780405 0.00780514 0.00780417 0.00780436 0.00780484 0.00780617 0.00780525 0.00780625 0.00780538 0.00780562 0.007806 0.00780713 0.00780654 0.00780727 0.00780653 0.00780681 0.00780716 0.00780817 0.0078075 0.00780827 0.00780751 0.00780777 0.00780799 0.00780886 0.00780853 0.00780907 0.00780845 0.00780878 0.00780897 0.00780975 0.00780926 0.00780978 0.00780918 0.00780954 0.00780965 0.00781031 0.0078101 0.00781045 0.00780987 0.00781027 0.0078104 0.00781093 0.00781063 0.00781102 0.00781053 0.00781085 0.0078109 0.00781134 0.00781128 0.00781152 0.00781105 0.00781146 0.00781147 0.00781184 0.00781162 0.00781194 0.0078115 0.00781187 0.00781178 0.00781207 0.0078121 0.00781221 0.00781184 0.00781225 0.00781215 0.00781245 0.00781227 0.00781251 0.00781209 0.00781253 0.00781237 0.00781251 0.00781262 0.00781265 0.0078123 0.00781266 0.00781256 0.00781268 0.00781259 0.00781281 0.0078125 0.00781275 0.0078126 0.00781262 0.00781279 0.00781284 0.00781256 0.00781274 0.00781267 0.00781266 0.00781259 0.00781286 0.00781247 0.0078126 0.00781259 0.00778624 0.00778371 0.00775476 0.00772671 0.00773279 0.00775316 0.00778757 0.00779537 0.00777158 0.00778709 0.00777273 0.00777677 0.00778684 0.00779394 0.00778682 0.00779762 0.00778429 0.00778643 0.00778727 0.00778872 0.00779031 0.00779512 0.00778698 0.00778956 0.00778826 0.00778756 0.00779151 0.00779352 0.00778819 0.0077911 0.00778987 0.00778861 0.00779229 0.00779326 0.00778981 0.00779253 0.00779205 0.00779044 0.00779374 0.0077939 0.00779167 0.00779407 0.00779436 0.00779252 0.0077955 0.00779505 0.00779354 0.0077957 0.00779652 0.00779466 0.00779734 0.00779659 0.00779553 0.00779726 0.00779842 0.00779667 0.00779913 0.00779806 0.00779744 0.00779883 0.00780017 0.00779851 0.00780089 0.00779977 0.00779922 0.00780037 0.00780182 0.00780023 0.00780239 0.00780112 0.00780082 0.00780185 0.00780321 0.00780178 0.00780372 0.00780269 0.00780231 0.00780319 0.00780444 0.00780323 0.00780499 0.00780382 0.00780368 0.00780439 0.00780559 0.00780444 0.007806 0.00780515 0.00780491 0.00780554 0.00780664 0.00780562 0.00780707 0.00780601 0.00780603 0.00780652 0.00780753 0.00780666 0.00780795 0.00780714 0.00780704 0.00780746 0.00780834 0.00780759 0.00780878 0.00780782 0.00780798 0.00780822 0.00780905 0.00780843 0.00780938 0.0078088 0.00780877 0.00780897 0.00780971 0.00780919 0.00781008 0.00780927 0.00780947 0.00780962 0.0078103 0.00780984 0.00781055 0.00781007 0.00781011 0.00781023 0.00781074 0.00781038 0.0078111 0.00781039 0.00781067 0.00781074 0.00781118 0.0078109 0.00781144 0.00781109 0.00781118 0.00781116 0.00781157 0.00781139 0.00781184 0.00781127 0.00781163 0.00781152 0.00781184 0.00781174 0.00781211 0.00781179 0.00781195 0.00781181 0.00781213 0.00781205 0.00781238 0.0078119 0.00781224 0.00781209 0.00781232 0.0078123 0.00781248 0.00781225 0.00781246 0.0078123 0.00781253 0.00781248 0.0078127 0.00781232 0.0078126 0.00781242 0.00781263 0.00781258 0.0078127 0.00781262 0.00781263 0.00781245 0.00781266 0.00781271 0.00781284 0.00781245 0.00781269 0.0078125 0.00781263 0.00781272 0.00781276 0.00781269 0.00781272 0.00781257 0.00781263 0.00781272 0.00781282 0.00781252 0.00781269 0.00781271 0.00780136 0.00779048 0.00778194 0.00776483 0.00776055 0.00778037 0.00780115 0.00780214 0.00779077 0.00779929 0.0077846 0.00779028 0.00779879 0.00780156 0.00779853 0.00780586 0.00779493 0.00779739 0.00779792 0.00779864 0.00780078 0.00780444 0.00779746 0.00779998 0.00779827 0.00779764 0.00780123 0.0078028 0.00779826 0.00780094 0.00779946 0.00779813 0.00780179 0.00780231 0.007799 0.00780154 0.00780076 0.00779918 0.00780252 0.00780261 0.0077999 0.00780241 0.00780221 0.00780054 0.00780358 0.00780309 0.00780104 0.0078032 0.00780352 0.00780188 0.00780458 0.00780392 0.00780239 0.00780424 0.0078049 0.00780324 0.00780575 0.00780475 0.00780354 0.00780524 0.00780586 0.00780443 0.00780672 0.00780571 0.00780466 0.00780616 0.00780696 0.00780551 0.00780765 0.00780656 0.00780584 0.00780703 0.00780771 0.00780657 0.00780845 0.00780732 0.0078068 0.00780784 0.00780853 0.0078074 0.00780916 0.00780813 0.0078077 0.00780855 0.00780913 0.00780822 0.0078098 0.00780873 0.00780848 0.00780922 0.00780981 0.00780887 0.00781034 0.0078094 0.00780917 0.00780972 0.0078102 0.00780958 0.00781085 0.00780988 0.0078098 0.0078103 0.00781076 0.00781005 0.00781128 0.0078104 0.00781033 0.0078107 0.00781107 0.00781063 0.00781158 0.00781079 0.0078108 0.00781119 0.00781151 0.00781101 0.00781189 0.00781117 0.00781121 0.00781147 0.0078117 0.00781144 0.00781216 0.00781147 0.0078116 0.0078118 0.007812 0.0078117 0.00781235 0.00781171 0.00781195 0.00781198 0.00781214 0.00781204 0.0078125 0.00781191 0.00781213 0.00781223 0.00781238 0.00781219 0.00781268 0.00781216 0.0078124 0.00781237 0.00781238 0.0078125 0.00781277 0.00781229 0.00781252 0.00781248 0.00781259 0.00781254 0.00781289 0.00781246 0.00781264 0.00781263 0.00781261 0.00781268 0.00781289 0.00781239 0.00781273 0.00781265 0.00781276 0.00781274 0.00781288 0.00781255 0.00781281 0.0078127 0.00781263 0.00781283 0.00781285 0.0078125 0.00781274 0.0078126 0.00781266 0.00781276 0.00781286 0.00781254 0.00781275 0.00781264 0.00781261 0.0078128 0.00781273 0.00781252 0.00781277 0.00781263 0.00781262 0.00781278 0.0078127 0.00781251 0.00781274 0.00781259 0.00781905 0.0078046 0.00781315 0.00780319 0.00778949 0.00780439 0.00781312 0.00780997 0.00781083 0.00781007 0.00780064 0.00780537 0.00780998 0.00780929 0.00781151 0.00781289 0.00780628 0.00780813 0.00780841 0.00780781 0.00781138 0.0078122 0.00780763 0.00780949 0.00780826 0.00780717 0.00781091 0.00781143 0.0078076 0.00780979 0.00780868 0.00780706 0.00781076 0.00781095 0.0078077 0.00781014 0.00780942 0.00780775 0.00781096 0.00781077 0.007808 0.00781029 0.0078101 0.00780838 0.00781131 0.00781087 0.00780857 0.00781057 0.00781075 0.00780913 0.00781163 0.00781114 0.00780921 0.00781102 0.00781121 0.00780964 0.00781218 0.00781147 0.00780983 0.00781156 0.00781182 0.00781029 0.00781254 0.00781183 0.00781036 0.00781187 0.00781223 0.00781077 0.00781298 0.00781212 0.00781093 0.00781213 0.00781244 0.00781123 0.00781321 0.00781244 0.00781136 0.00781244 0.00781269 0.00781158 0.00781343 0.00781262 0.00781177 0.00781265 0.00781287 0.00781191 0.00781357 0.00781289 0.00781207 0.00781285 0.00781306 0.00781215 0.00781374 0.00781297 0.0078124 0.00781297 0.00781312 0.00781242 0.00781373 0.00781316 0.00781254 0.00781315 0.00781321 0.00781258 0.00781383 0.00781317 0.00781276 0.00781318 0.00781321 0.00781277 0.00781376 0.00781335 0.00781288 0.00781327 0.00781331 0.00781288 0.00781383 0.0078133 0.00781303 0.00781327 0.00781326 0.00781298 0.00781372 0.00781335 0.00781307 0.00781333 0.00781327 0.00781298 0.00781369 0.00781329 0.00781317 0.00781328 0.00781323 0.00781306 0.00781359 0.00781332 0.00781316 0.00781328 0.0078132 0.00781303 0.00781351 0.00781324 0.00781315 0.00781323 0.00781308 0.00781306 0.00781345 0.00781323 0.00781317 0.00781319 0.00781306 0.00781301 0.00781339 0.00781314 0.00781312 0.00781313 0.00781293 0.00781302 0.00781317 0.0078131 0.00781302 0.00781306 0.00781292 0.00781294 0.00781318 0.00781297 0.00781306 0.00781295 0.0078128 0.00781291 0.00781297 0.00781298 0.00781292 0.00781277 0.00781272 0.00781281 0.00781291 0.00781277 0.00781284 0.0078127 0.00781263 0.00781273 0.0078127 0.00781284 0.00781273 0.00781258 0.0078125 0.00781261 0.0078126 0.00781261 0.00781278 0.00781258 0.00783753 0.00782197 0.00784705 0.00784062 0.00781645 0.00782723 0.00782391 0.00781815 0.00782971 0.00782028 0.00781633 0.00781996 0.00781953 0.00781724 0.00782363 0.00781978 0.00781711 0.00781915 0.00781833 0.00781637 0.007821 0.00781978 0.00781689 0.00781873 0.00781786 0.00781594 0.00781973 0.00781952 0.00781647 0.0078185 0.00781785 0.00781588 0.00781929 0.00781907 0.0078161 0.00781815 0.00781787 0.00781594 0.00781907 0.00781873 0.00781599 0.00781803 0.00781798 0.00781594 0.00781901 0.00781836 0.00781595 0.00781768 0.00781785 0.00781607 0.0078188 0.00781812 0.00781602 0.00781773 0.00781792 0.00781604 0.00781872 0.00781784 0.00781598 0.00781752 0.00781762 0.00781614 0.00781853 0.00781753 0.00781596 0.00781742 0.00781757 0.00781615 0.0078183 0.0078174 0.00781597 0.00781719 0.00781718 0.00781603 0.00781806 0.00781714 0.0078158 0.00781703 0.00781699 0.00781585 0.00781771 0.00781686 0.00781586 0.00781673 0.00781662 0.00781575 0.00781741 0.0078165 0.00781568 0.00781653 0.00781643 0.00781552 0.00781711 0.00781628 0.00781552 0.00781626 0.00781601 0.00781547 0.00781678 0.00781598 0.00781534 0.00781602 0.00781577 0.00781517 0.00781642 0.00781572 0.00781521 0.00781569 0.00781537 0.00781505 0.00781604 0.00781543 0.00781501 0.00781552 0.00781522 0.00781483 0.00781575 0.00781518 0.00781481 0.00781517 0.00781483 0.0078147 0.00781541 0.00781489 0.00781463 0.007815 0.00781464 0.0078144 0.00781508 0.00781462 0.00781444 0.00781462 0.00781428 0.00781427 0.00781475 0.0078143 0.00781418 0.00781446 0.00781411 0.00781404 0.00781444 0.00781411 0.00781404 0.00781415 0.00781374 0.00781395 0.00781416 0.00781383 0.00781377 0.00781395 0.00781365 0.00781367 0.00781392 0.00781362 0.00781362 0.00781365 0.00781327 0.00781356 0.00781363 0.00781331 0.00781339 0.0078135 0.00781324 0.00781331 0.00781343 0.00781323 0.0078133 0.00781324 0.0078129 0.00781325 0.0078132 0.007813 0.00781302 0.00781299 0.0078128 0.00781302 0.007813 0.00781285 0.00781286 0.00781285 0.00781264 0.0078129 0.00781274 0.00781264 0.00781273 0.00781269 0.00781256 0.00781262 0.00781252 0.00781249 0.00781256 0.00781242 0.00785746 0.00784121 0.0078852 0.00787828 0.00784273 0.00785051 0.00783388 0.00782703 0.00784719 0.00783036 0.00783113 0.00783444 0.00782866 0.00782542 0.00783406 0.00782725 0.00782714 0.00782974 0.00782748 0.00782489 0.00782949 0.00782756 0.00782562 0.00782788 0.00782721 0.00782441 0.0078282 0.00782745 0.00782482 0.00782674 0.0078267 0.00782403 0.00782761 0.00782707 0.00782422 0.00782601 0.00782621 0.00782376 0.00782713 0.00782631 0.00782369 0.00782539 0.00782561 0.00782316 0.00782651 0.00782568 0.00782313 0.00782477 0.00782492 0.00782285 0.00782583 0.0078248 0.00782263 0.00782412 0.00782413 0.00782222 0.00782503 0.00782415 0.00782215 0.00782357 0.00782359 0.0078218 0.0078243 0.00782332 0.00782154 0.00782277 0.00782266 0.00782109 0.00782347 0.00782275 0.00782101 0.00782223 0.00782199 0.00782057 0.00782278 0.00782199 0.0078204 0.00782144 0.0078212 0.00781998 0.00782193 0.0078212 0.00781983 0.00782073 0.00782044 0.0078194 0.00782112 0.00782049 0.00781924 0.00782008 0.00781974 0.00781878 0.00782038 0.00781977 0.00781873 0.0078194 0.00781901 0.00781826 0.00781971 0.00781914 0.00781814 0.00781876 0.00781832 0.00781771 0.00781893 0.00781845 0.00781758 0.00781815 0.00781769 0.00781722 0.0078182 0.00781789 0.00781704 0.00781759 0.00781709 0.00781667 0.00781763 0.00781725 0.00781658 0.00781698 0.0078165 0.00781622 0.00781699 0.00781672 0.00781611 0.00781646 0.00781594 0.00781576 0.00781636 0.00781615 0.00781567 0.00781596 0.0078154 0.00781535 0.00781586 0.00781568 0.00781522 0.00781545 0.00781493 0.0078149 0.0078153 0.00781523 0.00781484 0.00781503 0.00781448 0.00781454 0.00781483 0.00781475 0.00781443 0.00781456 0.00781413 0.00781416 0.0078144 0.00781439 0.00781411 0.00781418 0.0078137 0.00781388 0.00781395 0.007814 0.00781373 0.00781384 0.00781342 0.00781357 0.00781365 0.00781367 0.00781349 0.00781352 0.00781313 0.0078133 0.00781329 0.00781343 0.0078131 0.00781316 0.00781285 0.00781307 0.00781305 0.00781309 0.00781292 0.0078129 0.00781275 0.00781285 0.00781272 0.00781289 0.00781262 0.00781263 0.00781245 0.00781247 0.00781243 0.00781257 0.00781244 0.00781239 0.007881 0.00786315 0.00793168 0.00792013 0.00786904 0.00787596 0.00784181 0.00783633 0.00786002 0.00784019 0.00784345 0.00784804 0.00783721 0.00783381 0.00784082 0.00783509 0.00783596 0.00783968 0.00783692 0.00783332 0.00783736 0.00783552 0.00783408 0.00783647 0.00783632 0.00783269 0.0078366 0.00783563 0.00783305 0.00783498 0.00783543 0.00783216 0.00783605 0.00783472 0.00783212 0.00783383 0.00783425 0.00783119 0.00783498 0.00783389 0.0078311 0.00783276 0.00783306 0.00783026 0.00783385 0.00783266 0.00783016 0.00783152 0.00783166 0.00782924 0.00783264 0.00783151 0.00782912 0.00783054 0.0078306 0.00782826 0.00783136 0.00783023 0.00782797 0.00782932 0.00782917 0.00782716 0.00782992 0.00782893 0.00782696 0.00782825 0.00782789 0.0078262 0.00782862 0.00782768 0.00782591 0.00782699 0.00782658 0.00782507 0.0078274 0.00782658 0.00782485 0.00782588 0.00782546 0.00782414 0.00782604 0.00782526 0.00782381 0.00782472 0.00782416 0.00782302 0.00782482 0.0078241 0.00782272 0.00782364 0.00782309 0.00782205 0.00782365 0.00782304 0.0078218 0.00782252 0.0078219 0.00782117 0.00782257 0.00782192 0.00782082 0.0078216 0.00782095 0.0078202 0.00782141 0.00782099 0.00781995 0.00782057 0.00781985 0.0078194 0.00782045 0.00782001 0.00781911 0.00781975 0.00781904 0.00781855 0.00781948 0.00781912 0.00781833 0.00781881 0.00781804 0.00781785 0.0078186 0.00781827 0.00781754 0.00781805 0.00781731 0.0078171 0.00781765 0.00781745 0.0078169 0.00781721 0.00781647 0.00781646 0.00781687 0.00781667 0.00781617 0.00781657 0.00781587 0.00781581 0.00781614 0.00781606 0.00781558 0.00781593 0.00781514 0.00781527 0.0078155 0.00781535 0.00781502 0.00781529 0.00781467 0.00781473 0.00781484 0.00781484 0.00781451 0.00781469 0.00781403 0.00781431 0.0078143 0.00781424 0.00781398 0.00781422 0.00781371 0.00781386 0.00781382 0.00781389 0.00781364 0.00781378 0.00781323 0.0078135 0.00781346 0.00781343 0.00781324 0.00781332 0.00781298 0.00781319 0.00781305 0.00781311 0.0078129 0.00781301 0.00781265 0.0078129 0.00781282 0.00781277 0.0078126 0.00781276 0.00781249 0.00781254 0.00781248 0.00781251 0.00781234 0.00781234 0.00792278 0.00789534 0.00799734 0.00797939 0.00789606 0.00790612 0.0078487 0.00784428 0.00784627 0.00784943 0.00785074 0.00785693 0.00784748 0.00784231 0.00784621 0.00784324 0.0078439 0.00784745 0.00784687 0.00784193 0.00784722 0.00784407 0.00784236 0.00784478 0.0078456 0.00784117 0.00784639 0.00784364 0.00784119 0.00784305 0.00784395 0.00783995 0.00784465 0.00784248 0.00783991 0.00784155 0.00784216 0.00783861 0.00784293 0.00784111 0.00783852 0.00784 0.0078404 0.00783714 0.00784098 0.0078395 0.00783701 0.00783825 0.00783849 0.00783561 0.00783913 0.00783772 0.00783544 0.00783654 0.00783658 0.00783401 0.00783729 0.00783619 0.00783368 0.00783484 0.00783482 0.00783257 0.00783533 0.00783423 0.0078322 0.00783317 0.00783289 0.00783081 0.00783349 0.00783269 0.00783061 0.00783163 0.00783118 0.00782934 0.00783175 0.00783096 0.00782922 0.00782984 0.00782952 0.00782792 0.00783007 0.00782942 0.00782757 0.00782846 0.00782787 0.00782657 0.00782837 0.0078277 0.00782622 0.00782691 0.00782632 0.00782512 0.00782677 0.00782631 0.00782486 0.00782552 0.00782491 0.00782384 0.00782521 0.00782482 0.0078236 0.00782407 0.00782343 0.00782262 0.00782388 0.00782351 0.00782231 0.0078228 0.00782217 0.00782145 0.00782246 0.00782221 0.00782123 0.00782158 0.00782088 0.00782034 0.00782127 0.00782102 0.00782007 0.00782047 0.00781976 0.0078193 0.00782003 0.00781987 0.0078191 0.00781935 0.00781861 0.00781833 0.00781896 0.00781884 0.00781808 0.0078184 0.00781767 0.00781745 0.00781779 0.00781783 0.00781723 0.00781739 0.0078167 0.00781665 0.00781697 0.00781698 0.00781635 0.00781663 0.00781587 0.00781585 0.00781601 0.00781612 0.00781566 0.00781574 0.0078151 0.00781521 0.00781532 0.00781541 0.00781492 0.00781509 0.00781441 0.00781459 0.00781451 0.00781467 0.00781439 0.00781441 0.00781382 0.00781409 0.00781396 0.00781414 0.00781382 0.00781394 0.00781339 0.00781356 0.00781341 0.00781357 0.00781334 0.00781338 0.00781296 0.00781322 0.00781305 0.00781319 0.00781298 0.00781306 0.00781273 0.00781288 0.00781273 0.00781284 0.00781274 0.00781271 0.00781255 0.00781263 0.00781261 0.00781259 0.00781243 0.0078125 
