# vtk DataFile Version 5.1
vtk output
ASCII

DATASET UNSTRUCTURED_GRID
POINTS 18785 float
0 0 -1.1
0.125 0 -1.1
0.25 0 -1.1
0.375 0 -1.1
0.5 0 -1.1
0.625 0 -1.1
0.75 0 -1.1
0.875 0 -1.1
1 0 -1.1
1.125 0 -1.1
1.25 0 -1.1
1.375 0 -1.1
1.5 0 -1.1
1.625 0 -1.1
1.75 0 -1.1
1.875 0 -1.1
2 0 -1.1
2.125 0 -1.1
2.25 0 -1.1
2.375 0 -1.1
2.5 0 -1.1
2.625 0 -1.1
2.75 0 -1.1
2.875 0 -1.1
3 0 -1.1
3.125 0 -1.1
3.25 0 -1.1
3.375 0 -1.1
3.5 0 -1.1
3.625 0 -1.1
3.75 0 -1.1
3.875 0 -1.1
4 0 -1.1
0 0.125 -1.1
0.125 0.125 -1.1
0.25 0.125 -1.1
0.375 0.125 -1.1
0.5 0.125 -1.1
0.625 0.125 -1.1
0.75 0.125 -1.1
0.875 0.125 -1.1
1 0.125 -1.1
1.125 0.125 -1.1
1.25 0.125 -1.1
1.375 0.125 -1.1
1.5 0.125 -1.1
1.625 0.125 -1.1
1.75 0.125 -1.1
1.875 0.125 -1.1
2 0.125 -1.1
2.125 0.125 -1.1
2.25 0.125 -1.1
2.375 0.125 -1.1
2.5 0.125 -1.1
2.625 0.125 -1.1
2.75 0.125 -1.1
2.875 0.125 -1.1
3 0.125 -1.1
3.125 0.125 -1.1
3.25 0.125 -1.1
3.375 0.125 -1.1
3.5 0.125 -1.1
3.625 0.125 -1.1
3.75 0.125 -1.1
3.875 0.125 -1.1
4 0.125 -1.1
0 0.25 -1.1
0.125 0.25 -1.1
0.25 0.25 -1.1
0.375 0.25 -1.1
0.5 0.25 -1.1
0.625 0.25 -1.1
0.75 0.25 -1.1
0.875 0.25 -1.1
1 0.25 -1.1
1.125 0.25 -1.1
1.25 0.25 -1.1
1.375 0.25 -1.1
1.5 0.25 -1.1
1.625 0.25 -1.1
1.75 0.25 -1.1
1.875 0.25 -1.1
2 0.25 -1.1
2.125 0.25 -1.1
2.25 0.25 -1.1
2.375 0.25 -1.1
2.5 0.25 -1.1
2.625 0.25 -1.1
2.75 0.25 -1.1
2.875 0.25 -1.1
3 0.25 -1.1
3.125 0.25 -1.1
3.25 0.25 -1.1
3.375 0.25 -1.1
3.5 0.25 -1.1
3.625 0.25 -1.1
3.75 0.25 -1.1
3.875 0.25 -1.1
4 0.25 -1.1
0 0.375 -1.1
0.125 0.375 -1.1
0.25 0.375 -1.1
0.375 0.375 -1.1
0.5 0.375 -1.1
0.625 0.375 -1.1
0.75 0.375 -1.1
0.875 0.375 -1.1
1 0.375 -1.1
1.125 0.375 -1.1
1.25 0.375 -1.1
1.375 0.375 -1.1
1.5 0.375 -1.1
1.625 0.375 -1.1
1.75 0.375 -1.1
1.875 0.375 -1.1
2 0.375 -1.1
2.125 0.375 -1.1
2.25 0.375 -1.1
2.375 0.375 -1.1
2.5 0.375 -1.1
2.625 0.375 -1.1
2.75 0.375 -1.1
2.875 0.375 -1.1
3 0.375 -1.1
3.125 0.375 -1.1
3.25 0.375 -1.1
3.375 0.375 -1.1
3.5 0.375 -1.1
3.625 0.375 -1.1
3.75 0.375 -1.1
3.875 0.375 -1.1
4 0.375 -1.1
0 0.5 -1.1
0.125 0.5 -1.1
0.25 0.5 -1.1
0.375 0.5 -1.1
0.5 0.5 -1.1
0.625 0.5 -1.1
0.75 0.5 -1.1
0.875 0.5 -1.1
1 0.5 -1.1
1.125 0.5 -1.1
1.25 0.5 -1.1
1.375 0.5 -1.1
1.5 0.5 -1.1
1.625 0.5 -1.1
1.75 0.5 -1.1
1.875 0.5 -1.1
2 0.5 -1.1
2.125 0.5 -1.1
2.25 0.5 -1.1
2.375 0.5 -1.1
2.5 0.5 -1.1
2.625 0.5 -1.1
2.75 0.5 -1.1
2.875 0.5 -1.1
3 0.5 -1.1
3.125 0.5 -1.1
3.25 0.5 -1.1
3.375 0.5 -1.1
3.5 0.5 -1.1
3.625 0.5 -1.1
3.75 0.5 -1.1
3.875 0.5 -1.1
4 0.5 -1.1
0 0.625 -1.1
0.125 0.625 -1.1
0.25 0.625 -1.1
0.375 0.625 -1.1
0.5 0.625 -1.1
0.625 0.625 -1.1
0.75 0.625 -1.1
0.875 0.625 -1.1
1 0.625 -1.1
1.125 0.625 -1.1
1.25 0.625 -1.1
1.375 0.625 -1.1
1.5 0.625 -1.1
1.625 0.625 -1.1
1.75 0.625 -1.1
1.875 0.625 -1.1
2 0.625 -1.1
2.125 0.625 -1.1
2.25 0.625 -1.1
2.375 0.625 -1.1
2.5 0.625 -1.1
2.625 0.625 -1.1
2.75 0.625 -1.1
2.875 0.625 -1.1
3 0.625 -1.1
3.125 0.625 -1.1
3.25 0.625 -1.1
3.375 0.625 -1.1
3.5 0.625 -1.1
3.625 0.625 -1.1
3.75 0.625 -1.1
3.875 0.625 -1.1
4 0.625 -1.1
0 0.75 -1.1
0.125 0.75 -1.1
0.25 0.75 -1.1
0.375 0.75 -1.1
0.5 0.75 -1.1
0.625 0.75 -1.1
0.75 0.75 -1.1
0.875 0.75 -1.1
1 0.75 -1.1
1.125 0.75 -1.1
1.25 0.75 -1.1
1.375 0.75 -1.1
1.5 0.75 -1.1
1.625 0.75 -1.1
1.75 0.75 -1.1
1.875 0.75 -1.1
2 0.75 -1.1
2.125 0.75 -1.1
2.25 0.75 -1.1
2.375 0.75 -1.1
2.5 0.75 -1.1
2.625 0.75 -1.1
2.75 0.75 -1.1
2.875 0.75 -1.1
3 0.75 -1.1
3.125 0.75 -1.1
3.25 0.75 -1.1
3.375 0.75 -1.1
3.5 0.75 -1.1
3.625 0.75 -1.1
3.75 0.75 -1.1
3.875 0.75 -1.1
4 0.75 -1.1
0 0.875 -1.1
0.125 0.875 -1.1
0.25 0.875 -1.1
0.375 0.875 -1.1
0.5 0.875 -1.1
0.625 0.875 -1.1
0.75 0.875 -1.1
0.875 0.875 -1.1
1 0.875 -1.1
1.125 0.875 -1.1
1.25 0.875 -1.1
1.375 0.875 -1.1
1.5 0.875 -1.1
1.625 0.875 -1.1
1.75 0.875 -1.1
1.875 0.875 -1.1
2 0.875 -1.1
2.125 0.875 -1.1
2.25 0.875 -1.1
2.375 0.875 -1.1
2.5 0.875 -1.1
2.625 0.875 -1.1
2.75 0.875 -1.1
2.875 0.875 -1.1
3 0.875 -1.1
3.125 0.875 -1.1
3.25 0.875 -1.1
3.375 0.875 -1.1
3.5 0.875 -1.1
3.625 0.875 -1.1
3.75 0.875 -1.1
3.875 0.875 -1.1
4 0.875 -1.1
0 1 -1.1
0.125 1 -1.1
0.25 1 -1.1
0.375 1 -1.1
0.5 1 -1.1
0.625 1 -1.1
0.75 1 -1.1
0.875 1 -1.1
1 1 -1.1
1.125 1 -1.1
1.25 1 -1.1
1.375 1 -1.1
1.5 1 -1.1
1.625 1 -1.1
1.75 1 -1.1
1.875 1 -1.1
2 1 -1.1
2.125 1 -1.1
2.25 1 -1.1
2.375 1 -1.1
2.5 1 -1.1
2.625 1 -1.1
2.75 1 -1.1
2.875 1 -1.1
3 1 -1.1
3.125 1 -1.1
3.25 1 -1.1
3.375 1 -1.1
3.5 1 -1.1
3.625 1 -1.1
3.75 1 -1.1
3.875 1 -1.1
4 1 -1.1
0 0 -0.975
0.125 0 -0.975
0.25 0 -0.975
0.375 0 -0.975
0.5 0 -0.975
0.625 0 -0.975
0.75 0 -0.975
0.875 0 -0.975
1 0 -0.975
1.125 0 -0.975
1.25 0 -0.975
1.375 0 -0.975
1.5 0 -0.975
1.625 0 -0.975
1.75 0 -0.975
1.875 0 -0.975
2 0 -0.975
2.125 0 -0.975
2.25 0 -0.975
2.375 0 -0.975
2.5 0 -0.975
2.625 0 -0.975
2.75 0 -0.975
2.875 0 -0.975
3 0 -0.975
3.125 0 -0.975
3.25 0 -0.975
3.375 0 -0.975
3.5 0 -0.975
3.625 0 -0.975
3.75 0 -0.975
3.875 0 -0.975
4 0 -0.975
0 0.125 -0.975
0.125 0.125 -0.975
0.25 0.125 -0.975
0.375 0.125 -0.975
0.5 0.125 -0.975
0.625 0.125 -0.975
0.75 0.125 -0.975
0.875 0.125 -0.975
1 0.125 -0.975
1.125 0.125 -0.975
1.25 0.125 -0.975
1.375 0.125 -0.975
1.5 0.125 -0.975
1.625 0.125 -0.975
1.75 0.125 -0.975
1.875 0.125 -0.975
2 0.125 -0.975
2.125 0.125 -0.975
2.25 0.125 -0.975
2.375 0.125 -0.975
2.5 0.125 -0.975
2.625 0.125 -0.975
2.75 0.125 -0.975
2.875 0.125 -0.975
3 0.125 -0.975
3.125 0.125 -0.975
3.25 0.125 -0.975
3.375 0.125 -0.975
3.5 0.125 -0.975
3.625 0.125 -0.975
3.75 0.125 -0.975
3.875 0.125 -0.975
4 0.125 -0.975
0 0.25 -0.975
0.125 0.25 -0.975
0.25 0.25 -0.975
0.375 0.25 -0.975
0.5 0.25 -0.975
0.625 0.25 -0.975
0.75 0.25 -0.975
0.875 0.25 -0.975
1 0.25 -0.975
1.125 0.25 -0.975
1.25 0.25 -0.975
1.375 0.25 -0.975
1.5 0.25 -0.975
1.625 0.25 -0.975
1.75 0.25 -0.975
1.875 0.25 -0.975
2 0.25 -0.975
2.125 0.25 -0.975
2.25 0.25 -0.975
2.375 0.25 -0.975
2.5 0.25 -0.975
2.625 0.25 -0.975
2.75 0.25 -0.975
2.875 0.25 -0.975
3 0.25 -0.975
3.125 0.25 -0.975
3.25 0.25 -0.975
3.375 0.25 -0.975
3.5 0.25 -0.975
3.625 0.25 -0.975
3.75 0.25 -0.975
3.875 0.25 -0.975
4 0.25 -0.975
0 0.375 -0.975
0.125 0.375 -0.975
0.25 0.375 -0.975
0.375 0.375 -0.975
0.5 0.375 -0.975
0.625 0.375 -0.975
0.75 0.375 -0.975
0.875 0.375 -0.975
1 0.375 -0.975
1.125 0.375 -0.975
1.25 0.375 -0.975
1.375 0.375 -0.975
1.5 0.375 -0.975
1.625 0.375 -0.975
1.75 0.375 -0.975
1.875 0.375 -0.975
2 0.375 -0.975
2.125 0.375 -0.975
2.25 0.375 -0.975
2.375 0.375 -0.975
2.5 0.375 -0.975
2.625 0.375 -0.975
2.75 0.375 -0.975
2.875 0.375 -0.975
3 0.375 -0.975
3.125 0.375 -0.975
3.25 0.375 -0.975
3.375 0.375 -0.975
3.5 0.375 -0.975
3.625 0.375 -0.975
3.75 0.375 -0.975
3.875 0.375 -0.975
4 0.375 -0.975
0 0.5 -0.975
0.125 0.5 -0.975
0.25 0.5 -0.975
0.375 0.5 -0.975
0.5 0.5 -0.975
0.625 0.5 -0.975
0.75 0.5 -0.975
0.875 0.5 -0.975
1 0.5 -0.975
1.125 0.5 -0.975
1.25 0.5 -0.975
1.375 0.5 -0.975
1.5 0.5 -0.975
1.625 0.5 -0.975
1.75 0.5 -0.975
1.875 0.5 -0.975
2 0.5 -0.975
2.125 0.5 -0.975
2.25 0.5 -0.975
2.375 0.5 -0.975
2.5 0.5 -0.975
2.625 0.5 -0.975
2.75 0.5 -0.975
2.875 0.5 -0.975
3 0.5 -0.975
3.125 0.5 -0.975
3.25 0.5 -0.975
3.375 0.5 -0.975
3.5 0.5 -0.975
3.625 0.5 -0.975
3.75 0.5 -0.975
3.875 0.5 -0.975
4 0.5 -0.975
0 0.625 -0.975
0.125 0.625 -0.975
0.25 0.625 -0.975
0.375 0.625 -0.975
0.5 0.625 -0.975
0.625 0.625 -0.975
0.75 0.625 -0.975
0.875 0.625 -0.975
1 0.625 -0.975
1.125 0.625 -0.975
1.25 0.625 -0.975
1.375 0.625 -0.975
1.5 0.625 -0.975
1.625 0.625 -0.975
1.75 0.625 -0.975
1.875 0.625 -0.975
2 0.625 -0.975
2.125 0.625 -0.975
2.25 0.625 -0.975
2.375 0.625 -0.975
2.5 0.625 -0.975
2.625 0.625 -0.975
2.75 0.625 -0.975
2.875 0.625 -0.975
3 0.625 -0.975
3.125 0.625 -0.975
3.25 0.625 -0.975
3.375 0.625 -0.975
3.5 0.625 -0.975
3.625 0.625 -0.975
3.75 0.625 -0.975
3.875 0.625 -0.975
4 0.625 -0.975
0 0.75 -0.975
0.125 0.75 -0.975
0.25 0.75 -0.975
0.375 0.75 -0.975
0.5 0.75 -0.975
0.625 0.75 -0.975
0.75 0.75 -0.975
0.875 0.75 -0.975
1 0.75 -0.975
1.125 0.75 -0.975
1.25 0.75 -0.975
1.375 0.75 -0.975
1.5 0.75 -0.975
1.625 0.75 -0.975
1.75 0.75 -0.975
1.875 0.75 -0.975
2 0.75 -0.975
2.125 0.75 -0.975
2.25 0.75 -0.975
2.375 0.75 -0.975
2.5 0.75 -0.975
2.625 0.75 -0.975
2.75 0.75 -0.975
2.875 0.75 -0.975
3 0.75 -0.975
3.125 0.75 -0.975
3.25 0.75 -0.975
3.375 0.75 -0.975
3.5 0.75 -0.975
3.625 0.75 -0.975
3.75 0.75 -0.975
3.875 0.75 -0.975
4 0.75 -0.975
0 0.875 -0.975
0.125 0.875 -0.975
0.25 0.875 -0.975
0.375 0.875 -0.975
0.5 0.875 -0.975
0.625 0.875 -0.975
0.75 0.875 -0.975
0.875 0.875 -0.975
1 0.875 -0.975
1.125 0.875 -0.975
1.25 0.875 -0.975
1.375 0.875 -0.975
1.5 0.875 -0.975
1.625 0.875 -0.975
1.75 0.875 -0.975
1.875 0.875 -0.975
2 0.875 -0.975
2.125 0.875 -0.975
2.25 0.875 -0.975
2.375 0.875 -0.975
2.5 0.875 -0.975
2.625 0.875 -0.975
2.75 0.875 -0.975
2.875 0.875 -0.975
3 0.875 -0.975
3.125 0.875 -0.975
3.25 0.875 -0.975
3.375 0.875 -0.975
3.5 0.875 -0.975
3.625 0.875 -0.975
3.75 0.875 -0.975
3.875 0.875 -0.975
4 0.875 -0.975
0 1 -0.975
0.125 1 -0.975
0.25 1 -0.975
0.375 1 -0.975
0.5 1 -0.975
0.625 1 -0.975
0.75 1 -0.975
0.875 1 -0.975
1 1 -0.975
1.125 1 -0.975
1.25 1 -0.975
1.375 1 -0.975
1.5 1 -0.975
1.625 1 -0.975
1.75 1 -0.975
1.875 1 -0.975
2 1 -0.975
2.125 1 -0.975
2.25 1 -0.975
2.375 1 -0.975
2.5 1 -0.975
2.625 1 -0.975
2.75 1 -0.975
2.875 1 -0.975
3 1 -0.975
3.125 1 -0.975
3.25 1 -0.975
3.375 1 -0.975
3.5 1 -0.975
3.625 1 -0.975
3.75 1 -0.975
3.875 1 -0.975
4 1 -0.975
0 0 -0.85
0.125 0 -0.85
0.25 0 -0.85
0.375 0 -0.85
0.5 0 -0.85
0.625 0 -0.85
0.75 0 -0.85
0.875 0 -0.85
1 0 -0.85
1.125 0 -0.85
1.25 0 -0.85
1.375 0 -0.85
1.5 0 -0.85
1.625 0 -0.85
1.75 0 -0.85
1.875 0 -0.85
2 0 -0.85
2.125 0 -0.85
2.25 0 -0.85
2.375 0 -0.85
2.5 0 -0.85
2.625 0 -0.85
2.75 0 -0.85
2.875 0 -0.85
3 0 -0.85
3.125 0 -0.85
3.25 0 -0.85
3.375 0 -0.85
3.5 0 -0.85
3.625 0 -0.85
3.75 0 -0.85
3.875 0 -0.85
4 0 -0.85
0 0.125 -0.85
0.125 0.125 -0.85
0.25 0.125 -0.85
0.375 0.125 -0.85
0.5 0.125 -0.85
0.625 0.125 -0.85
0.75 0.125 -0.85
0.875 0.125 -0.85
1 0.125 -0.85
1.125 0.125 -0.85
1.25 0.125 -0.85
1.375 0.125 -0.85
1.5 0.125 -0.85
1.625 0.125 -0.85
1.75 0.125 -0.85
1.875 0.125 -0.85
2 0.125 -0.85
2.125 0.125 -0.85
2.25 0.125 -0.85
2.375 0.125 -0.85
2.5 0.125 -0.85
2.625 0.125 -0.85
2.75 0.125 -0.85
2.875 0.125 -0.85
3 0.125 -0.85
3.125 0.125 -0.85
3.25 0.125 -0.85
3.375 0.125 -0.85
3.5 0.125 -0.85
3.625 0.125 -0.85
3.75 0.125 -0.85
3.875 0.125 -0.85
4 0.125 -0.85
0 0.25 -0.85
0.125 0.25 -0.85
0.25 0.25 -0.85
0.375 0.25 -0.85
0.5 0.25 -0.85
0.625 0.25 -0.85
0.75 0.25 -0.85
0.875 0.25 -0.85
1 0.25 -0.85
1.125 0.25 -0.85
1.25 0.25 -0.85
1.375 0.25 -0.85
1.5 0.25 -0.85
1.625 0.25 -0.85
1.75 0.25 -0.85
1.875 0.25 -0.85
2 0.25 -0.85
2.125 0.25 -0.85
2.25 0.25 -0.85
2.375 0.25 -0.85
2.5 0.25 -0.85
2.625 0.25 -0.85
2.75 0.25 -0.85
2.875 0.25 -0.85
3 0.25 -0.85
3.125 0.25 -0.85
3.25 0.25 -0.85
3.375 0.25 -0.85
3.5 0.25 -0.85
3.625 0.25 -0.85
3.75 0.25 -0.85
3.875 0.25 -0.85
4 0.25 -0.85
0 0.375 -0.85
0.125 0.375 -0.85
0.25 0.375 -0.85
0.375 0.375 -0.85
0.5 0.375 -0.85
0.625 0.375 -0.85
0.75 0.375 -0.85
0.875 0.375 -0.85
1 0.375 -0.85
1.125 0.375 -0.85
1.25 0.375 -0.85
1.375 0.375 -0.85
1.5 0.375 -0.85
1.625 0.375 -0.85
1.75 0.375 -0.85
1.875 0.375 -0.85
2 0.375 -0.85
2.125 0.375 -0.85
2.25 0.375 -0.85
2.375 0.375 -0.85
2.5 0.375 -0.85
2.625 0.375 -0.85
2.75 0.375 -0.85
2.875 0.375 -0.85
3 0.375 -0.85
3.125 0.375 -0.85
3.25 0.375 -0.85
3.375 0.375 -0.85
3.5 0.375 -0.85
3.625 0.375 -0.85
3.75 0.375 -0.85
3.875 0.375 -0.85
4 0.375 -0.85
0 0.5 -0.85
0.125 0.5 -0.85
0.25 0.5 -0.85
0.375 0.5 -0.85
0.5 0.5 -0.85
0.625 0.5 -0.85
0.75 0.5 -0.85
0.875 0.5 -0.85
1 0.5 -0.85
1.125 0.5 -0.85
1.25 0.5 -0.85
1.375 0.5 -0.85
1.5 0.5 -0.85
1.625 0.5 -0.85
1.75 0.5 -0.85
1.875 0.5 -0.85
2 0.5 -0.85
2.125 0.5 -0.85
2.25 0.5 -0.85
2.375 0.5 -0.85
2.5 0.5 -0.85
2.625 0.5 -0.85
2.75 0.5 -0.85
2.875 0.5 -0.85
3 0.5 -0.85
3.125 0.5 -0.85
3.25 0.5 -0.85
3.375 0.5 -0.85
3.5 0.5 -0.85
3.625 0.5 -0.85
3.75 0.5 -0.85
3.875 0.5 -0.85
4 0.5 -0.85
0 0.625 -0.85
0.125 0.625 -0.85
0.25 0.625 -0.85
0.375 0.625 -0.85
0.5 0.625 -0.85
0.625 0.625 -0.85
0.75 0.625 -0.85
0.875 0.625 -0.85
1 0.625 -0.85
1.125 0.625 -0.85
1.25 0.625 -0.85
1.375 0.625 -0.85
1.5 0.625 -0.85
1.625 0.625 -0.85
1.75 0.625 -0.85
1.875 0.625 -0.85
2 0.625 -0.85
2.125 0.625 -0.85
2.25 0.625 -0.85
2.375 0.625 -0.85
2.5 0.625 -0.85
2.625 0.625 -0.85
2.75 0.625 -0.85
2.875 0.625 -0.85
3 0.625 -0.85
3.125 0.625 -0.85
3.25 0.625 -0.85
3.375 0.625 -0.85
3.5 0.625 -0.85
3.625 0.625 -0.85
3.75 0.625 -0.85
3.875 0.625 -0.85
4 0.625 -0.85
0 0.75 -0.85
0.125 0.75 -0.85
0.25 0.75 -0.85
0.375 0.75 -0.85
0.5 0.75 -0.85
0.625 0.75 -0.85
0.75 0.75 -0.85
0.875 0.75 -0.85
1 0.75 -0.85
1.125 0.75 -0.85
1.25 0.75 -0.85
1.375 0.75 -0.85
1.5 0.75 -0.85
1.625 0.75 -0.85
1.75 0.75 -0.85
1.875 0.75 -0.85
2 0.75 -0.85
2.125 0.75 -0.85
2.25 0.75 -0.85
2.375 0.75 -0.85
2.5 0.75 -0.85
2.625 0.75 -0.85
2.75 0.75 -0.85
2.875 0.75 -0.85
3 0.75 -0.85
3.125 0.75 -0.85
3.25 0.75 -0.85
3.375 0.75 -0.85
3.5 0.75 -0.85
3.625 0.75 -0.85
3.75 0.75 -0.85
3.875 0.75 -0.85
4 0.75 -0.85
0 0.875 -0.85
0.125 0.875 -0.85
0.25 0.875 -0.85
0.375 0.875 -0.85
0.5 0.875 -0.85
0.625 0.875 -0.85
0.75 0.875 -0.85
0.875 0.875 -0.85
1 0.875 -0.85
1.125 0.875 -0.85
1.25 0.875 -0.85
1.375 0.875 -0.85
1.5 0.875 -0.85
1.625 0.875 -0.85
1.75 0.875 -0.85
1.875 0.875 -0.85
2 0.875 -0.85
2.125 0.875 -0.85
2.25 0.875 -0.85
2.375 0.875 -0.85
2.5 0.875 -0.85
2.625 0.875 -0.85
2.75 0.875 -0.85
2.875 0.875 -0.85
3 0.875 -0.85
3.125 0.875 -0.85
3.25 0.875 -0.85
3.375 0.875 -0.85
3.5 0.875 -0.85
3.625 0.875 -0.85
3.75 0.875 -0.85
3.875 0.875 -0.85
4 0.875 -0.85
0 1 -0.85
0.125 1 -0.85
0.25 1 -0.85
0.375 1 -0.85
0.5 1 -0.85
0.625 1 -0.85
0.75 1 -0.85
0.875 1 -0.85
1 1 -0.85
1.125 1 -0.85
1.25 1 -0.85
1.375 1 -0.85
1.5 1 -0.85
1.625 1 -0.85
1.75 1 -0.85
1.875 1 -0.85
2 1 -0.85
2.125 1 -0.85
2.25 1 -0.85
2.375 1 -0.85
2.5 1 -0.85
2.625 1 -0.85
2.75 1 -0.85
2.875 1 -0.85
3 1 -0.85
3.125 1 -0.85
3.25 1 -0.85
3.375 1 -0.85
3.5 1 -0.85
3.625 1 -0.85
3.75 1 -0.85
3.875 1 -0.85
4 1 -0.85
0 0 -0.725
0.125 0 -0.725
0.25 0 -0.725
0.375 0 -0.725
0.5 0 -0.725
0.625 0 -0.725
0.75 0 -0.725
0.875 0 -0.725
1 0 -0.725
1.125 0 -0.725
1.25 0 -0.725
1.375 0 -0.725
1.5 0 -0.725
1.625 0 -0.725
1.75 0 -0.725
1.875 0 -0.725
2 0 -0.725
2.125 0 -0.725
2.25 0 -0.725
2.375 0 -0.725
2.5 0 -0.725
2.625 0 -0.725
2.75 0 -0.725
2.875 0 -0.725
3 0 -0.725
3.125 0 -0.725
3.25 0 -0.725
3.375 0 -0.725
3.5 0 -0.725
3.625 0 -0.725
3.75 0 -0.725
3.875 0 -0.725
4 0 -0.725
0 0.125 -0.725
0.125 0.125 -0.725
0.25 0.125 -0.725
0.375 0.125 -0.725
0.5 0.125 -0.725
0.625 0.125 -0.725
0.75 0.125 -0.725
0.875 0.125 -0.725
1 0.125 -0.725
1.125 0.125 -0.725
1.25 0.125 -0.725
1.375 0.125 -0.725
1.5 0.125 -0.725
1.625 0.125 -0.725
1.75 0.125 -0.725
1.875 0.125 -0.725
2 0.125 -0.725
2.125 0.125 -0.725
2.25 0.125 -0.725
2.375 0.125 -0.725
2.5 0.125 -0.725
2.625 0.125 -0.725
2.75 0.125 -0.725
2.875 0.125 -0.725
3 0.125 -0.725
3.125 0.125 -0.725
3.25 0.125 -0.725
3.375 0.125 -0.725
3.5 0.125 -0.725
3.625 0.125 -0.725
3.75 0.125 -0.725
3.875 0.125 -0.725
4 0.125 -0.725
0 0.25 -0.725
0.125 0.25 -0.725
0.25 0.25 -0.725
0.375 0.25 -0.725
0.5 0.25 -0.725
0.625 0.25 -0.725
0.75 0.25 -0.725
0.875 0.25 -0.725
1 0.25 -0.725
1.125 0.25 -0.725
1.25 0.25 -0.725
1.375 0.25 -0.725
1.5 0.25 -0.725
1.625 0.25 -0.725
1.75 0.25 -0.725
1.875 0.25 -0.725
2 0.25 -0.725
2.125 0.25 -0.725
2.25 0.25 -0.725
2.375 0.25 -0.725
2.5 0.25 -0.725
2.625 0.25 -0.725
2.75 0.25 -0.725
2.875 0.25 -0.725
3 0.25 -0.725
3.125 0.25 -0.725
3.25 0.25 -0.725
3.375 0.25 -0.725
3.5 0.25 -0.725
3.625 0.25 -0.725
3.75 0.25 -0.725
3.875 0.25 -0.725
4 0.25 -0.725
0 0.375 -0.725
0.125 0.375 -0.725
0.25 0.375 -0.725
0.375 0.375 -0.725
0.5 0.375 -0.725
0.625 0.375 -0.725
0.75 0.375 -0.725
0.875 0.375 -0.725
1 0.375 -0.725
1.125 0.375 -0.725
1.25 0.375 -0.725
1.375 0.375 -0.725
1.5 0.375 -0.725
1.625 0.375 -0.725
1.75 0.375 -0.725
1.875 0.375 -0.725
2 0.375 -0.725
2.125 0.375 -0.725
2.25 0.375 -0.725
2.375 0.375 -0.725
2.5 0.375 -0.725
2.625 0.375 -0.725
2.75 0.375 -0.725
2.875 0.375 -0.725
3 0.375 -0.725
3.125 0.375 -0.725
3.25 0.375 -0.725
3.375 0.375 -0.725
3.5 0.375 -0.725
3.625 0.375 -0.725
3.75 0.375 -0.725
3.875 0.375 -0.725
4 0.375 -0.725
0 0.5 -0.725
0.125 0.5 -0.725
0.25 0.5 -0.725
0.375 0.5 -0.725
0.5 0.5 -0.725
0.625 0.5 -0.725
0.75 0.5 -0.725
0.875 0.5 -0.725
1 0.5 -0.725
1.125 0.5 -0.725
1.25 0.5 -0.725
1.375 0.5 -0.725
1.5 0.5 -0.725
1.625 0.5 -0.725
1.75 0.5 -0.725
1.875 0.5 -0.725
2 0.5 -0.725
2.125 0.5 -0.725
2.25 0.5 -0.725
2.375 0.5 -0.725
2.5 0.5 -0.725
2.625 0.5 -0.725
2.75 0.5 -0.725
2.875 0.5 -0.725
3 0.5 -0.725
3.125 0.5 -0.725
3.25 0.5 -0.725
3.375 0.5 -0.725
3.5 0.5 -0.725
3.625 0.5 -0.725
3.75 0.5 -0.725
3.875 0.5 -0.725
4 0.5 -0.725
0 0.625 -0.725
0.125 0.625 -0.725
0.25 0.625 -0.725
0.375 0.625 -0.725
0.5 0.625 -0.725
0.625 0.625 -0.725
0.75 0.625 -0.725
0.875 0.625 -0.725
1 0.625 -0.725
1.125 0.625 -0.725
1.25 0.625 -0.725
1.375 0.625 -0.725
1.5 0.625 -0.725
1.625 0.625 -0.725
1.75 0.625 -0.725
1.875 0.625 -0.725
2 0.625 -0.725
2.125 0.625 -0.725
2.25 0.625 -0.725
2.375 0.625 -0.725
2.5 0.625 -0.725
2.625 0.625 -0.725
2.75 0.625 -0.725
2.875 0.625 -0.725
3 0.625 -0.725
3.125 0.625 -0.725
3.25 0.625 -0.725
3.375 0.625 -0.725
3.5 0.625 -0.725
3.625 0.625 -0.725
3.75 0.625 -0.725
3.875 0.625 -0.725
4 0.625 -0.725
0 0.75 -0.725
0.125 0.75 -0.725
0.25 0.75 -0.725
0.375 0.75 -0.725
0.5 0.75 -0.725
0.625 0.75 -0.725
0.75 0.75 -0.725
0.875 0.75 -0.725
1 0.75 -0.725
1.125 0.75 -0.725
1.25 0.75 -0.725
1.375 0.75 -0.725
1.5 0.75 -0.725
1.625 0.75 -0.725
1.75 0.75 -0.725
1.875 0.75 -0.725
2 0.75 -0.725
2.125 0.75 -0.725
2.25 0.75 -0.725
2.375 0.75 -0.725
2.5 0.75 -0.725
2.625 0.75 -0.725
2.75 0.75 -0.725
2.875 0.75 -0.725
3 0.75 -0.725
3.125 0.75 -0.725
3.25 0.75 -0.725
3.375 0.75 -0.725
3.5 0.75 -0.725
3.625 0.75 -0.725
3.75 0.75 -0.725
3.875 0.75 -0.725
4 0.75 -0.725
0 0.875 -0.725
0.125 0.875 -0.725
0.25 0.875 -0.725
0.375 0.875 -0.725
0.5 0.875 -0.725
0.625 0.875 -0.725
0.75 0.875 -0.725
0.875 0.875 -0.725
1 0.875 -0.725
1.125 0.875 -0.725
1.25 0.875 -0.725
1.375 0.875 -0.725
1.5 0.875 -0.725
1.625 0.875 -0.725
1.75 0.875 -0.725
1.875 0.875 -0.725
2 0.875 -0.725
2.125 0.875 -0.725
2.25 0.875 -0.725
2.375 0.875 -0.725
2.5 0.875 -0.725
2.625 0.875 -0.725
2.75 0.875 -0.725
2.875 0.875 -0.725
3 0.875 -0.725
3.125 0.875 -0.725
3.25 0.875 -0.725
3.375 0.875 -0.725
3.5 0.875 -0.725
3.625 0.875 -0.725
3.75 0.875 -0.725
3.875 0.875 -0.725
4 0.875 -0.725
0 1 -0.725
0.125 1 -0.725
0.25 1 -0.725
0.375 1 -0.725
0.5 1 -0.725
0.625 1 -0.725
0.75 1 -0.725
0.875 1 -0.725
1 1 -0.725
1.125 1 -0.725
1.25 1 -0.725
1.375 1 -0.725
1.5 1 -0.725
1.625 1 -0.725
1.75 1 -0.725
1.875 1 -0.725
2 1 -0.725
2.125 1 -0.725
2.25 1 -0.725
2.375 1 -0.725
2.5 1 -0.725
2.625 1 -0.725
2.75 1 -0.725
2.875 1 -0.725
3 1 -0.725
3.125 1 -0.725
3.25 1 -0.725
3.375 1 -0.725
3.5 1 -0.725
3.625 1 -0.725
3.75 1 -0.725
3.875 1 -0.725
4 1 -0.725
0 0 -0.6
0.125 0 -0.6
0.25 0 -0.6
0.375 0 -0.6
0.5 0 -0.6
0.625 0 -0.6
0.75 0 -0.6
0.875 0 -0.6
1 0 -0.6
1.125 0 -0.6
1.25 0 -0.6
1.375 0 -0.6
1.5 0 -0.6
1.625 0 -0.6
1.75 0 -0.6
1.875 0 -0.6
2 0 -0.6
2.125 0 -0.6
2.25 0 -0.6
2.375 0 -0.6
2.5 0 -0.6
2.625 0 -0.6
2.75 0 -0.6
2.875 0 -0.6
3 0 -0.6
3.125 0 -0.6
3.25 0 -0.6
3.375 0 -0.6
3.5 0 -0.6
3.625 0 -0.6
3.75 0 -0.6
3.875 0 -0.6
4 0 -0.6
0 0.125 -0.6
0.125 0.125 -0.6
0.25 0.125 -0.6
0.375 0.125 -0.6
0.5 0.125 -0.6
0.625 0.125 -0.6
0.75 0.125 -0.6
0.875 0.125 -0.6
1 0.125 -0.6
1.125 0.125 -0.6
1.25 0.125 -0.6
1.375 0.125 -0.6
1.5 0.125 -0.6
1.625 0.125 -0.6
1.75 0.125 -0.6
1.875 0.125 -0.6
2 0.125 -0.6
2.125 0.125 -0.6
2.25 0.125 -0.6
2.375 0.125 -0.6
2.5 0.125 -0.6
2.625 0.125 -0.6
2.75 0.125 -0.6
2.875 0.125 -0.6
3 0.125 -0.6
3.125 0.125 -0.6
3.25 0.125 -0.6
3.375 0.125 -0.6
3.5 0.125 -0.6
3.625 0.125 -0.6
3.75 0.125 -0.6
3.875 0.125 -0.6
4 0.125 -0.6
0 0.25 -0.6
0.125 0.25 -0.6
0.25 0.25 -0.6
0.375 0.25 -0.6
0.5 0.25 -0.6
0.625 0.25 -0.6
0.75 0.25 -0.6
0.875 0.25 -0.6
1 0.25 -0.6
1.125 0.25 -0.6
1.25 0.25 -0.6
1.375 0.25 -0.6
1.5 0.25 -0.6
1.625 0.25 -0.6
1.75 0.25 -0.6
1.875 0.25 -0.6
2 0.25 -0.6
2.125 0.25 -0.6
2.25 0.25 -0.6
2.375 0.25 -0.6
2.5 0.25 -0.6
2.625 0.25 -0.6
2.75 0.25 -0.6
2.875 0.25 -0.6
3 0.25 -0.6
3.125 0.25 -0.6
3.25 0.25 -0.6
3.375 0.25 -0.6
3.5 0.25 -0.6
3.625 0.25 -0.6
3.75 0.25 -0.6
3.875 0.25 -0.6
4 0.25 -0.6
0 0.375 -0.6
0.125 0.375 -0.6
0.25 0.375 -0.6
0.375 0.375 -0.6
0.5 0.375 -0.6
0.625 0.375 -0.6
0.75 0.375 -0.6
0.875 0.375 -0.6
1 0.375 -0.6
1.125 0.375 -0.6
1.25 0.375 -0.6
1.375 0.375 -0.6
1.5 0.375 -0.6
1.625 0.375 -0.6
1.75 0.375 -0.6
1.875 0.375 -0.6
2 0.375 -0.6
2.125 0.375 -0.6
2.25 0.375 -0.6
2.375 0.375 -0.6
2.5 0.375 -0.6
2.625 0.375 -0.6
2.75 0.375 -0.6
2.875 0.375 -0.6
3 0.375 -0.6
3.125 0.375 -0.6
3.25 0.375 -0.6
3.375 0.375 -0.6
3.5 0.375 -0.6
3.625 0.375 -0.6
3.75 0.375 -0.6
3.875 0.375 -0.6
4 0.375 -0.6
0 0.5 -0.6
0.125 0.5 -0.6
0.25 0.5 -0.6
0.375 0.5 -0.6
0.5 0.5 -0.6
0.625 0.5 -0.6
0.75 0.5 -0.6
0.875 0.5 -0.6
1 0.5 -0.6
1.125 0.5 -0.6
1.25 0.5 -0.6
1.375 0.5 -0.6
1.5 0.5 -0.6
1.625 0.5 -0.6
1.75 0.5 -0.6
1.875 0.5 -0.6
2 0.5 -0.6
2.125 0.5 -0.6
2.25 0.5 -0.6
2.375 0.5 -0.6
2.5 0.5 -0.6
2.625 0.5 -0.6
2.75 0.5 -0.6
2.875 0.5 -0.6
3 0.5 -0.6
3.125 0.5 -0.6
3.25 0.5 -0.6
3.375 0.5 -0.6
3.5 0.5 -0.6
3.625 0.5 -0.6
3.75 0.5 -0.6
3.875 0.5 -0.6
4 0.5 -0.6
0 0.625 -0.6
0.125 0.625 -0.6
0.25 0.625 -0.6
0.375 0.625 -0.6
0.5 0.625 -0.6
0.625 0.625 -0.6
0.75 0.625 -0.6
0.875 0.625 -0.6
1 0.625 -0.6
1.125 0.625 -0.6
1.25 0.625 -0.6
1.375 0.625 -0.6
1.5 0.625 -0.6
1.625 0.625 -0.6
1.75 0.625 -0.6
1.875 0.625 -0.6
2 0.625 -0.6
2.125 0.625 -0.6
2.25 0.625 -0.6
2.375 0.625 -0.6
2.5 0.625 -0.6
2.625 0.625 -0.6
2.75 0.625 -0.6
2.875 0.625 -0.6
3 0.625 -0.6
3.125 0.625 -0.6
3.25 0.625 -0.6
3.375 0.625 -0.6
3.5 0.625 -0.6
3.625 0.625 -0.6
3.75 0.625 -0.6
3.875 0.625 -0.6
4 0.625 -0.6
0 0.75 -0.6
0.125 0.75 -0.6
0.25 0.75 -0.6
0.375 0.75 -0.6
0.5 0.75 -0.6
0.625 0.75 -0.6
0.75 0.75 -0.6
0.875 0.75 -0.6
1 0.75 -0.6
1.125 0.75 -0.6
1.25 0.75 -0.6
1.375 0.75 -0.6
1.5 0.75 -0.6
1.625 0.75 -0.6
1.75 0.75 -0.6
1.875 0.75 -0.6
2 0.75 -0.6
2.125 0.75 -0.6
2.25 0.75 -0.6
2.375 0.75 -0.6
2.5 0.75 -0.6
2.625 0.75 -0.6
2.75 0.75 -0.6
2.875 0.75 -0.6
3 0.75 -0.6
3.125 0.75 -0.6
3.25 0.75 -0.6
3.375 0.75 -0.6
3.5 0.75 -0.6
3.625 0.75 -0.6
3.75 0.75 -0.6
3.875 0.75 -0.6
4 0.75 -0.6
0 0.875 -0.6
0.125 0.875 -0.6
0.25 0.875 -0.6
0.375 0.875 -0.6
0.5 0.875 -0.6
0.625 0.875 -0.6
0.75 0.875 -0.6
0.875 0.875 -0.6
1 0.875 -0.6
1.125 0.875 -0.6
1.25 0.875 -0.6
1.375 0.875 -0.6
1.5 0.875 -0.6
1.625 0.875 -0.6
1.75 0.875 -0.6
1.875 0.875 -0.6
2 0.875 -0.6
2.125 0.875 -0.6
2.25 0.875 -0.6
2.375 0.875 -0.6
2.5 0.875 -0.6
2.625 0.875 -0.6
2.75 0.875 -0.6
2.875 0.875 -0.6
3 0.875 -0.6
3.125 0.875 -0.6
3.25 0.875 -0.6
3.375 0.875 -0.6
3.5 0.875 -0.6
3.625 0.875 -0.6
3.75 0.875 -0.6
3.875 0.875 -0.6
4 0.875 -0.6
0 1 -0.6
0.125 1 -0.6
0.25 1 -0.6
0.375 1 -0.6
0.5 1 -0.6
0.625 1 -0.6
0.75 1 -0.6
0.875 1 -0.6
1 1 -0.6
1.125 1 -0.6
1.25 1 -0.6
1.375 1 -0.6
1.5 1 -0.6
1.625 1 -0.6
1.75 1 -0.6
1.875 1 -0.6
2 1 -0.6
2.125 1 -0.6
2.25 1 -0.6
2.375 1 -0.6
2.5 1 -0.6
2.625 1 -0.6
2.75 1 -0.6
2.875 1 -0.6
3 1 -0.6
3.125 1 -0.6
3.25 1 -0.6
3.375 1 -0.6
3.5 1 -0.6
3.625 1 -0.6
3.75 1 -0.6
3.875 1 -0.6
4 1 -0.6
0 0 -0.475
0.125 0 -0.475
0.25 0 -0.475
0.375 0 -0.475
0.5 0 -0.475
0.625 0 -0.475
0.75 0 -0.475
0.875 0 -0.475
1 0 -0.475
1.125 0 -0.475
1.25 0 -0.475
1.375 0 -0.475
1.5 0 -0.475
1.625 0 -0.475
1.75 0 -0.475
1.875 0 -0.475
2 0 -0.475
2.125 0 -0.475
2.25 0 -0.475
2.375 0 -0.475
2.5 0 -0.475
2.625 0 -0.475
2.75 0 -0.475
2.875 0 -0.475
3 0 -0.475
3.125 0 -0.475
3.25 0 -0.475
3.375 0 -0.475
3.5 0 -0.475
3.625 0 -0.475
3.75 0 -0.475
3.875 0 -0.475
4 0 -0.475
0 0.125 -0.475
0.125 0.125 -0.475
0.25 0.125 -0.475
0.375 0.125 -0.475
0.5 0.125 -0.475
0.625 0.125 -0.475
0.75 0.125 -0.475
0.875 0.125 -0.475
1 0.125 -0.475
1.125 0.125 -0.475
1.25 0.125 -0.475
1.375 0.125 -0.475
1.5 0.125 -0.475
1.625 0.125 -0.475
1.75 0.125 -0.475
1.875 0.125 -0.475
2 0.125 -0.475
2.125 0.125 -0.475
2.25 0.125 -0.475
2.375 0.125 -0.475
2.5 0.125 -0.475
2.625 0.125 -0.475
2.75 0.125 -0.475
2.875 0.125 -0.475
3 0.125 -0.475
3.125 0.125 -0.475
3.25 0.125 -0.475
3.375 0.125 -0.475
3.5 0.125 -0.475
3.625 0.125 -0.475
3.75 0.125 -0.475
3.875 0.125 -0.475
4 0.125 -0.475
0 0.25 -0.475
0.125 0.25 -0.475
0.25 0.25 -0.475
0.375 0.25 -0.475
0.5 0.25 -0.475
0.625 0.25 -0.475
0.75 0.25 -0.475
0.875 0.25 -0.475
1 0.25 -0.475
1.125 0.25 -0.475
1.25 0.25 -0.475
1.375 0.25 -0.475
1.5 0.25 -0.475
1.625 0.25 -0.475
1.75 0.25 -0.475
1.875 0.25 -0.475
2 0.25 -0.475
2.125 0.25 -0.475
2.25 0.25 -0.475
2.375 0.25 -0.475
2.5 0.25 -0.475
2.625 0.25 -0.475
2.75 0.25 -0.475
2.875 0.25 -0.475
3 0.25 -0.475
3.125 0.25 -0.475
3.25 0.25 -0.475
3.375 0.25 -0.475
3.5 0.25 -0.475
3.625 0.25 -0.475
3.75 0.25 -0.475
3.875 0.25 -0.475
4 0.25 -0.475
0 0.375 -0.475
0.125 0.375 -0.475
0.25 0.375 -0.475
0.375 0.375 -0.475
0.5 0.375 -0.475
0.625 0.375 -0.475
0.75 0.375 -0.475
0.875 0.375 -0.475
1 0.375 -0.475
1.125 0.375 -0.475
1.25 0.375 -0.475
1.375 0.375 -0.475
1.5 0.375 -0.475
1.625 0.375 -0.475
1.75 0.375 -0.475
1.875 0.375 -0.475
2 0.375 -0.475
2.125 0.375 -0.475
2.25 0.375 -0.475
2.375 0.375 -0.475
2.5 0.375 -0.475
2.625 0.375 -0.475
2.75 0.375 -0.475
2.875 0.375 -0.475
3 0.375 -0.475
3.125 0.375 -0.475
3.25 0.375 -0.475
3.375 0.375 -0.475
3.5 0.375 -0.475
3.625 0.375 -0.475
3.75 0.375 -0.475
3.875 0.375 -0.475
4 0.375 -0.475
0 0.5 -0.475
0.125 0.5 -0.475
0.25 0.5 -0.475
0.375 0.5 -0.475
0.5 0.5 -0.475
0.625 0.5 -0.475
0.75 0.5 -0.475
0.875 0.5 -0.475
1 0.5 -0.475
1.125 0.5 -0.475
1.25 0.5 -0.475
1.375 0.5 -0.475
1.5 0.5 -0.475
1.625 0.5 -0.475
1.75 0.5 -0.475
1.875 0.5 -0.475
2 0.5 -0.475
2.125 0.5 -0.475
2.25 0.5 -0.475
2.375 0.5 -0.475
2.5 0.5 -0.475
2.625 0.5 -0.475
2.75 0.5 -0.475
2.875 0.5 -0.475
3 0.5 -0.475
3.125 0.5 -0.475
3.25 0.5 -0.475
3.375 0.5 -0.475
3.5 0.5 -0.475
3.625 0.5 -0.475
3.75 0.5 -0.475
3.875 0.5 -0.475
4 0.5 -0.475
0 0.625 -0.475
0.125 0.625 -0.475
0.25 0.625 -0.475
0.375 0.625 -0.475
0.5 0.625 -0.475
0.625 0.625 -0.475
0.75 0.625 -0.475
0.875 0.625 -0.475
1 0.625 -0.475
1.125 0.625 -0.475
1.25 0.625 -0.475
1.375 0.625 -0.475
1.5 0.625 -0.475
1.625 0.625 -0.475
1.75 0.625 -0.475
1.875 0.625 -0.475
2 0.625 -0.475
2.125 0.625 -0.475
2.25 0.625 -0.475
2.375 0.625 -0.475
2.5 0.625 -0.475
2.625 0.625 -0.475
2.75 0.625 -0.475
2.875 0.625 -0.475
3 0.625 -0.475
3.125 0.625 -0.475
3.25 0.625 -0.475
3.375 0.625 -0.475
3.5 0.625 -0.475
3.625 0.625 -0.475
3.75 0.625 -0.475
3.875 0.625 -0.475
4 0.625 -0.475
0 0.75 -0.475
0.125 0.75 -0.475
0.25 0.75 -0.475
0.375 0.75 -0.475
0.5 0.75 -0.475
0.625 0.75 -0.475
0.75 0.75 -0.475
0.875 0.75 -0.475
1 0.75 -0.475
1.125 0.75 -0.475
1.25 0.75 -0.475
1.375 0.75 -0.475
1.5 0.75 -0.475
1.625 0.75 -0.475
1.75 0.75 -0.475
1.875 0.75 -0.475
2 0.75 -0.475
2.125 0.75 -0.475
2.25 0.75 -0.475
2.375 0.75 -0.475
2.5 0.75 -0.475
2.625 0.75 -0.475
2.75 0.75 -0.475
2.875 0.75 -0.475
3 0.75 -0.475
3.125 0.75 -0.475
3.25 0.75 -0.475
3.375 0.75 -0.475
3.5 0.75 -0.475
3.625 0.75 -0.475
3.75 0.75 -0.475
3.875 0.75 -0.475
4 0.75 -0.475
0 0.875 -0.475
0.125 0.875 -0.475
0.25 0.875 -0.475
0.375 0.875 -0.475
0.5 0.875 -0.475
0.625 0.875 -0.475
0.75 0.875 -0.475
0.875 0.875 -0.475
1 0.875 -0.475
1.125 0.875 -0.475
1.25 0.875 -0.475
1.375 0.875 -0.475
1.5 0.875 -0.475
1.625 0.875 -0.475
1.75 0.875 -0.475
1.875 0.875 -0.475
2 0.875 -0.475
2.125 0.875 -0.475
2.25 0.875 -0.475
2.375 0.875 -0.475
2.5 0.875 -0.475
2.625 0.875 -0.475
2.75 0.875 -0.475
2.875 0.875 -0.475
3 0.875 -0.475
3.125 0.875 -0.475
3.25 0.875 -0.475
3.375 0.875 -0.475
3.5 0.875 -0.475
3.625 0.875 -0.475
3.75 0.875 -0.475
3.875 0.875 -0.475
4 0.875 -0.475
0 1 -0.475
0.125 1 -0.475
0.25 1 -0.475
0.375 1 -0.475
0.5 1 -0.475
0.625 1 -0.475
0.75 1 -0.475
0.875 1 -0.475
1 1 -0.475
1.125 1 -0.475
1.25 1 -0.475
1.375 1 -0.475
1.5 1 -0.475
1.625 1 -0.475
1.75 1 -0.475
1.875 1 -0.475
2 1 -0.475
2.125 1 -0.475
2.25 1 -0.475
2.375 1 -0.475
2.5 1 -0.475
2.625 1 -0.475
2.75 1 -0.475
2.875 1 -0.475
3 1 -0.475
3.125 1 -0.475
3.25 1 -0.475
3.375 1 -0.475
3.5 1 -0.475
3.625 1 -0.475
3.75 1 -0.475
3.875 1 -0.475
4 1 -0.475
0 0 -0.35
0.125 0 -0.35
0.25 0 -0.35
0.375 0 -0.35
0.5 0 -0.35
0.625 0 -0.35
0.75 0 -0.35
0.875 0 -0.35
1 0 -0.35
1.125 0 -0.35
1.25 0 -0.35
1.375 0 -0.35
1.5 0 -0.35
1.625 0 -0.35
1.75 0 -0.35
1.875 0 -0.35
2 0 -0.35
2.125 0 -0.35
2.25 0 -0.35
2.375 0 -0.35
2.5 0 -0.35
2.625 0 -0.35
2.75 0 -0.35
2.875 0 -0.35
3 0 -0.35
3.125 0 -0.35
3.25 0 -0.35
3.375 0 -0.35
3.5 0 -0.35
3.625 0 -0.35
3.75 0 -0.35
3.875 0 -0.35
4 0 -0.35
0 0.125 -0.35
0.125 0.125 -0.35
0.25 0.125 -0.35
0.375 0.125 -0.35
0.5 0.125 -0.35
0.625 0.125 -0.35
0.75 0.125 -0.35
0.875 0.125 -0.35
1 0.125 -0.35
1.125 0.125 -0.35
1.25 0.125 -0.35
1.375 0.125 -0.35
1.5 0.125 -0.35
1.625 0.125 -0.35
1.75 0.125 -0.35
1.875 0.125 -0.35
2 0.125 -0.35
2.125 0.125 -0.35
2.25 0.125 -0.35
2.375 0.125 -0.35
2.5 0.125 -0.35
2.625 0.125 -0.35
2.75 0.125 -0.35
2.875 0.125 -0.35
3 0.125 -0.35
3.125 0.125 -0.35
3.25 0.125 -0.35
3.375 0.125 -0.35
3.5 0.125 -0.35
3.625 0.125 -0.35
3.75 0.125 -0.35
3.875 0.125 -0.35
4 0.125 -0.35
0 0.25 -0.35
0.125 0.25 -0.35
0.25 0.25 -0.35
0.375 0.25 -0.35
0.5 0.25 -0.35
0.625 0.25 -0.35
0.75 0.25 -0.35
0.875 0.25 -0.35
1 0.25 -0.35
1.125 0.25 -0.35
1.25 0.25 -0.35
1.375 0.25 -0.35
1.5 0.25 -0.35
1.625 0.25 -0.35
1.75 0.25 -0.35
1.875 0.25 -0.35
2 0.25 -0.35
2.125 0.25 -0.35
2.25 0.25 -0.35
2.375 0.25 -0.35
2.5 0.25 -0.35
2.625 0.25 -0.35
2.75 0.25 -0.35
2.875 0.25 -0.35
3 0.25 -0.35
3.125 0.25 -0.35
3.25 0.25 -0.35
3.375 0.25 -0.35
3.5 0.25 -0.35
3.625 0.25 -0.35
3.75 0.25 -0.35
3.875 0.25 -0.35
4 0.25 -0.35
0 0.375 -0.35
0.125 0.375 -0.35
0.25 0.375 -0.35
0.375 0.375 -0.35
0.5 0.375 -0.35
0.625 0.375 -0.35
0.75 0.375 -0.35
0.875 0.375 -0.35
1 0.375 -0.35
1.125 0.375 -0.35
1.25 0.375 -0.35
1.375 0.375 -0.35
1.5 0.375 -0.35
1.625 0.375 -0.35
1.75 0.375 -0.35
1.875 0.375 -0.35
2 0.375 -0.35
2.125 0.375 -0.35
2.25 0.375 -0.35
2.375 0.375 -0.35
2.5 0.375 -0.35
2.625 0.375 -0.35
2.75 0.375 -0.35
2.875 0.375 -0.35
3 0.375 -0.35
3.125 0.375 -0.35
3.25 0.375 -0.35
3.375 0.375 -0.35
3.5 0.375 -0.35
3.625 0.375 -0.35
3.75 0.375 -0.35
3.875 0.375 -0.35
4 0.375 -0.35
0 0.5 -0.35
0.125 0.5 -0.35
0.25 0.5 -0.35
0.375 0.5 -0.35
0.5 0.5 -0.35
0.625 0.5 -0.35
0.75 0.5 -0.35
0.875 0.5 -0.35
1 0.5 -0.35
1.125 0.5 -0.35
1.25 0.5 -0.35
1.375 0.5 -0.35
1.5 0.5 -0.35
1.625 0.5 -0.35
1.75 0.5 -0.35
1.875 0.5 -0.35
2 0.5 -0.35
2.125 0.5 -0.35
2.25 0.5 -0.35
2.375 0.5 -0.35
2.5 0.5 -0.35
2.625 0.5 -0.35
2.75 0.5 -0.35
2.875 0.5 -0.35
3 0.5 -0.35
3.125 0.5 -0.35
3.25 0.5 -0.35
3.375 0.5 -0.35
3.5 0.5 -0.35
3.625 0.5 -0.35
3.75 0.5 -0.35
3.875 0.5 -0.35
4 0.5 -0.35
0 0.625 -0.35
0.125 0.625 -0.35
0.25 0.625 -0.35
0.375 0.625 -0.35
0.5 0.625 -0.35
0.625 0.625 -0.35
0.75 0.625 -0.35
0.875 0.625 -0.35
1 0.625 -0.35
1.125 0.625 -0.35
1.25 0.625 -0.35
1.375 0.625 -0.35
1.5 0.625 -0.35
1.625 0.625 -0.35
1.75 0.625 -0.35
1.875 0.625 -0.35
2 0.625 -0.35
2.125 0.625 -0.35
2.25 0.625 -0.35
2.375 0.625 -0.35
2.5 0.625 -0.35
2.625 0.625 -0.35
2.75 0.625 -0.35
2.875 0.625 -0.35
3 0.625 -0.35
3.125 0.625 -0.35
3.25 0.625 -0.35
3.375 0.625 -0.35
3.5 0.625 -0.35
3.625 0.625 -0.35
3.75 0.625 -0.35
3.875 0.625 -0.35
4 0.625 -0.35
0 0.75 -0.35
0.125 0.75 -0.35
0.25 0.75 -0.35
0.375 0.75 -0.35
0.5 0.75 -0.35
0.625 0.75 -0.35
0.75 0.75 -0.35
0.875 0.75 -0.35
1 0.75 -0.35
1.125 0.75 -0.35
1.25 0.75 -0.35
1.375 0.75 -0.35
1.5 0.75 -0.35
1.625 0.75 -0.35
1.75 0.75 -0.35
1.875 0.75 -0.35
2 0.75 -0.35
2.125 0.75 -0.35
2.25 0.75 -0.35
2.375 0.75 -0.35
2.5 0.75 -0.35
2.625 0.75 -0.35
2.75 0.75 -0.35
2.875 0.75 -0.35
3 0.75 -0.35
3.125 0.75 -0.35
3.25 0.75 -0.35
3.375 0.75 -0.35
3.5 0.75 -0.35
3.625 0.75 -0.35
3.75 0.75 -0.35
3.875 0.75 -0.35
4 0.75 -0.35
0 0.875 -0.35
0.125 0.875 -0.35
0.25 0.875 -0.35
0.375 0.875 -0.35
0.5 0.875 -0.35
0.625 0.875 -0.35
0.75 0.875 -0.35
0.875 0.875 -0.35
1 0.875 -0.35
1.125 0.875 -0.35
1.25 0.875 -0.35
1.375 0.875 -0.35
1.5 0.875 -0.35
1.625 0.875 -0.35
1.75 0.875 -0.35
1.875 0.875 -0.35
2 0.875 -0.35
2.125 0.875 -0.35
2.25 0.875 -0.35
2.375 0.875 -0.35
2.5 0.875 -0.35
2.625 0.875 -0.35
2.75 0.875 -0.35
2.875 0.875 -0.35
3 0.875 -0.35
3.125 0.875 -0.35
3.25 0.875 -0.35
3.375 0.875 -0.35
3.5 0.875 -0.35
3.625 0.875 -0.35
3.75 0.875 -0.35
3.875 0.875 -0.35
4 0.875 -0.35
0 1 -0.35
0.125 1 -0.35
0.25 1 -0.35
0.375 1 -0.35
0.5 1 -0.35
0.625 1 -0.35
0.75 1 -0.35
0.875 1 -0.35
1 1 -0.35
1.125 1 -0.35
1.25 1 -0.35
1.375 1 -0.35
1.5 1 -0.35
1.625 1 -0.35
1.75 1 -0.35
1.875 1 -0.35
2 1 -0.35
2.125 1 -0.35
2.25 1 -0.35
2.375 1 -0.35
2.5 1 -0.35
2.625 1 -0.35
2.75 1 -0.35
2.875 1 -0.35
3 1 -0.35
3.125 1 -0.35
3.25 1 -0.35
3.375 1 -0.35
3.5 1 -0.35
3.625 1 -0.35
3.75 1 -0.35
3.875 1 -0.35
4 1 -0.35
0 0 -0.225
0.125 0 -0.225
0.25 0 -0.225
0.375 0 -0.225
0.5 0 -0.225
0.625 0 -0.225
0.75 0 -0.225
0.875 0 -0.225
1 0 -0.225
1.125 0 -0.225
1.25 0 -0.225
1.375 0 -0.225
1.5 0 -0.225
1.625 0 -0.225
1.75 0 -0.225
1.875 0 -0.225
2 0 -0.225
2.125 0 -0.225
2.25 0 -0.225
2.375 0 -0.225
2.5 0 -0.225
2.625 0 -0.225
2.75 0 -0.225
2.875 0 -0.225
3 0 -0.225
3.125 0 -0.225
3.25 0 -0.225
3.375 0 -0.225
3.5 0 -0.225
3.625 0 -0.225
3.75 0 -0.225
3.875 0 -0.225
4 0 -0.225
0 0.125 -0.225
0.125 0.125 -0.225
0.25 0.125 -0.225
0.375 0.125 -0.225
0.5 0.125 -0.225
0.625 0.125 -0.225
0.75 0.125 -0.225
0.875 0.125 -0.225
1 0.125 -0.225
1.125 0.125 -0.225
1.25 0.125 -0.225
1.375 0.125 -0.225
1.5 0.125 -0.225
1.625 0.125 -0.225
1.75 0.125 -0.225
1.875 0.125 -0.225
2 0.125 -0.225
2.125 0.125 -0.225
2.25 0.125 -0.225
2.375 0.125 -0.225
2.5 0.125 -0.225
2.625 0.125 -0.225
2.75 0.125 -0.225
2.875 0.125 -0.225
3 0.125 -0.225
3.125 0.125 -0.225
3.25 0.125 -0.225
3.375 0.125 -0.225
3.5 0.125 -0.225
3.625 0.125 -0.225
3.75 0.125 -0.225
3.875 0.125 -0.225
4 0.125 -0.225
0 0.25 -0.225
0.125 0.25 -0.225
0.25 0.25 -0.225
0.375 0.25 -0.225
0.5 0.25 -0.225
0.625 0.25 -0.225
0.75 0.25 -0.225
0.875 0.25 -0.225
1 0.25 -0.225
1.125 0.25 -0.225
1.25 0.25 -0.225
1.375 0.25 -0.225
1.5 0.25 -0.225
1.625 0.25 -0.225
1.75 0.25 -0.225
1.875 0.25 -0.225
2 0.25 -0.225
2.125 0.25 -0.225
2.25 0.25 -0.225
2.375 0.25 -0.225
2.5 0.25 -0.225
2.625 0.25 -0.225
2.75 0.25 -0.225
2.875 0.25 -0.225
3 0.25 -0.225
3.125 0.25 -0.225
3.25 0.25 -0.225
3.375 0.25 -0.225
3.5 0.25 -0.225
3.625 0.25 -0.225
3.75 0.25 -0.225
3.875 0.25 -0.225
4 0.25 -0.225
0 0.375 -0.225
0.125 0.375 -0.225
0.25 0.375 -0.225
0.375 0.375 -0.225
0.5 0.375 -0.225
0.625 0.375 -0.225
0.75 0.375 -0.225
0.875 0.375 -0.225
1 0.375 -0.225
1.125 0.375 -0.225
1.25 0.375 -0.225
1.375 0.375 -0.225
1.5 0.375 -0.225
1.625 0.375 -0.225
1.75 0.375 -0.225
1.875 0.375 -0.225
2 0.375 -0.225
2.125 0.375 -0.225
2.25 0.375 -0.225
2.375 0.375 -0.225
2.5 0.375 -0.225
2.625 0.375 -0.225
2.75 0.375 -0.225
2.875 0.375 -0.225
3 0.375 -0.225
3.125 0.375 -0.225
3.25 0.375 -0.225
3.375 0.375 -0.225
3.5 0.375 -0.225
3.625 0.375 -0.225
3.75 0.375 -0.225
3.875 0.375 -0.225
4 0.375 -0.225
0 0.5 -0.225
0.125 0.5 -0.225
0.25 0.5 -0.225
0.375 0.5 -0.225
0.5 0.5 -0.225
0.625 0.5 -0.225
0.75 0.5 -0.225
0.875 0.5 -0.225
1 0.5 -0.225
1.125 0.5 -0.225
1.25 0.5 -0.225
1.375 0.5 -0.225
1.5 0.5 -0.225
1.625 0.5 -0.225
1.75 0.5 -0.225
1.875 0.5 -0.225
2 0.5 -0.225
2.125 0.5 -0.225
2.25 0.5 -0.225
2.375 0.5 -0.225
2.5 0.5 -0.225
2.625 0.5 -0.225
2.75 0.5 -0.225
2.875 0.5 -0.225
3 0.5 -0.225
3.125 0.5 -0.225
3.25 0.5 -0.225
3.375 0.5 -0.225
3.5 0.5 -0.225
3.625 0.5 -0.225
3.75 0.5 -0.225
3.875 0.5 -0.225
4 0.5 -0.225
0 0.625 -0.225
0.125 0.625 -0.225
0.25 0.625 -0.225
0.375 0.625 -0.225
0.5 0.625 -0.225
0.625 0.625 -0.225
0.75 0.625 -0.225
0.875 0.625 -0.225
1 0.625 -0.225
1.125 0.625 -0.225
1.25 0.625 -0.225
1.375 0.625 -0.225
1.5 0.625 -0.225
1.625 0.625 -0.225
1.75 0.625 -0.225
1.875 0.625 -0.225
2 0.625 -0.225
2.125 0.625 -0.225
2.25 0.625 -0.225
2.375 0.625 -0.225
2.5 0.625 -0.225
2.625 0.625 -0.225
2.75 0.625 -0.225
2.875 0.625 -0.225
3 0.625 -0.225
3.125 0.625 -0.225
3.25 0.625 -0.225
3.375 0.625 -0.225
3.5 0.625 -0.225
3.625 0.625 -0.225
3.75 0.625 -0.225
3.875 0.625 -0.225
4 0.625 -0.225
0 0.75 -0.225
0.125 0.75 -0.225
0.25 0.75 -0.225
0.375 0.75 -0.225
0.5 0.75 -0.225
0.625 0.75 -0.225
0.75 0.75 -0.225
0.875 0.75 -0.225
1 0.75 -0.225
1.125 0.75 -0.225
1.25 0.75 -0.225
1.375 0.75 -0.225
1.5 0.75 -0.225
1.625 0.75 -0.225
1.75 0.75 -0.225
1.875 0.75 -0.225
2 0.75 -0.225
2.125 0.75 -0.225
2.25 0.75 -0.225
2.375 0.75 -0.225
2.5 0.75 -0.225
2.625 0.75 -0.225
2.75 0.75 -0.225
2.875 0.75 -0.225
3 0.75 -0.225
3.125 0.75 -0.225
3.25 0.75 -0.225
3.375 0.75 -0.225
3.5 0.75 -0.225
3.625 0.75 -0.225
3.75 0.75 -0.225
3.875 0.75 -0.225
4 0.75 -0.225
0 0.875 -0.225
0.125 0.875 -0.225
0.25 0.875 -0.225
0.375 0.875 -0.225
0.5 0.875 -0.225
0.625 0.875 -0.225
0.75 0.875 -0.225
0.875 0.875 -0.225
1 0.875 -0.225
1.125 0.875 -0.225
1.25 0.875 -0.225
1.375 0.875 -0.225
1.5 0.875 -0.225
1.625 0.875 -0.225
1.75 0.875 -0.225
1.875 0.875 -0.225
2 0.875 -0.225
2.125 0.875 -0.225
2.25 0.875 -0.225
2.375 0.875 -0.225
2.5 0.875 -0.225
2.625 0.875 -0.225
2.75 0.875 -0.225
2.875 0.875 -0.225
3 0.875 -0.225
3.125 0.875 -0.225
3.25 0.875 -0.225
3.375 0.875 -0.225
3.5 0.875 -0.225
3.625 0.875 -0.225
3.75 0.875 -0.225
3.875 0.875 -0.225
4 0.875 -0.225
0 1 -0.225
0.125 1 -0.225
0.25 1 -0.225
0.375 1 -0.225
0.5 1 -0.225
0.625 1 -0.225
0.75 1 -0.225
0.875 1 -0.225
1 1 -0.225
1.125 1 -0.225
1.25 1 -0.225
1.375 1 -0.225
1.5 1 -0.225
1.625 1 -0.225
1.75 1 -0.225
1.875 1 -0.225
2 1 -0.225
2.125 1 -0.225
2.25 1 -0.225
2.375 1 -0.225
2.5 1 -0.225
2.625 1 -0.225
2.75 1 -0.225
2.875 1 -0.225
3 1 -0.225
3.125 1 -0.225
3.25 1 -0.225
3.375 1 -0.225
3.5 1 -0.225
3.625 1 -0.225
3.75 1 -0.225
3.875 1 -0.225
4 1 -0.225
0 0 -0.1
0.125 0 -0.1
0.25 0 -0.1
0.375 0 -0.1
0.5 0 -0.1
0.625 0 -0.1
0.75 0 -0.1
0.875 0 -0.1
1 0 -0.1
1.125 0 -0.1
1.25 0 -0.1
1.375 0 -0.1
1.5 0 -0.1
1.625 0 -0.1
1.75 0 -0.1
1.875 0 -0.1
2 0 -0.1
2.125 0 -0.1
2.25 0 -0.1
2.375 0 -0.1
2.5 0 -0.1
2.625 0 -0.1
2.75 0 -0.1
2.875 0 -0.1
3 0 -0.1
3.125 0 -0.1
3.25 0 -0.1
3.375 0 -0.1
3.5 0 -0.1
3.625 0 -0.1
3.75 0 -0.1
3.875 0 -0.1
4 0 -0.1
0 0.125 -0.1
0.125 0.125 -0.1
0.25 0.125 -0.1
0.375 0.125 -0.1
0.5 0.125 -0.1
0.625 0.125 -0.1
0.75 0.125 -0.1
0.875 0.125 -0.1
1 0.125 -0.1
1.125 0.125 -0.1
1.25 0.125 -0.1
1.375 0.125 -0.1
1.5 0.125 -0.1
1.625 0.125 -0.1
1.75 0.125 -0.1
1.875 0.125 -0.1
2 0.125 -0.1
2.125 0.125 -0.1
2.25 0.125 -0.1
2.375 0.125 -0.1
2.5 0.125 -0.1
2.625 0.125 -0.1
2.75 0.125 -0.1
2.875 0.125 -0.1
3 0.125 -0.1
3.125 0.125 -0.1
3.25 0.125 -0.1
3.375 0.125 -0.1
3.5 0.125 -0.1
3.625 0.125 -0.1
3.75 0.125 -0.1
3.875 0.125 -0.1
4 0.125 -0.1
0 0.25 -0.1
0.125 0.25 -0.1
0.25 0.25 -0.1
0.375 0.25 -0.1
0.5 0.25 -0.1
0.625 0.25 -0.1
0.75 0.25 -0.1
0.875 0.25 -0.1
1 0.25 -0.1
1.125 0.25 -0.1
1.25 0.25 -0.1
1.375 0.25 -0.1
1.5 0.25 -0.1
1.625 0.25 -0.1
1.75 0.25 -0.1
1.875 0.25 -0.1
2 0.25 -0.1
2.125 0.25 -0.1
2.25 0.25 -0.1
2.375 0.25 -0.1
2.5 0.25 -0.1
2.625 0.25 -0.1
2.75 0.25 -0.1
2.875 0.25 -0.1
3 0.25 -0.1
3.125 0.25 -0.1
3.25 0.25 -0.1
3.375 0.25 -0.1
3.5 0.25 -0.1
3.625 0.25 -0.1
3.75 0.25 -0.1
3.875 0.25 -0.1
4 0.25 -0.1
0 0.375 -0.1
0.125 0.375 -0.1
0.25 0.375 -0.1
0.375 0.375 -0.1
0.5 0.375 -0.1
0.625 0.375 -0.1
0.75 0.375 -0.1
0.875 0.375 -0.1
1 0.375 -0.1
1.125 0.375 -0.1
1.25 0.375 -0.1
1.375 0.375 -0.1
1.5 0.375 -0.1
1.625 0.375 -0.1
1.75 0.375 -0.1
1.875 0.375 -0.1
2 0.375 -0.1
2.125 0.375 -0.1
2.25 0.375 -0.1
2.375 0.375 -0.1
2.5 0.375 -0.1
2.625 0.375 -0.1
2.75 0.375 -0.1
2.875 0.375 -0.1
3 0.375 -0.1
3.125 0.375 -0.1
3.25 0.375 -0.1
3.375 0.375 -0.1
3.5 0.375 -0.1
3.625 0.375 -0.1
3.75 0.375 -0.1
3.875 0.375 -0.1
4 0.375 -0.1
0 0.5 -0.1
0.125 0.5 -0.1
0.25 0.5 -0.1
0.375 0.5 -0.1
0.5 0.5 -0.1
0.625 0.5 -0.1
0.75 0.5 -0.1
0.875 0.5 -0.1
1 0.5 -0.1
1.125 0.5 -0.1
1.25 0.5 -0.1
1.375 0.5 -0.1
1.5 0.5 -0.1
1.625 0.5 -0.1
1.75 0.5 -0.1
1.875 0.5 -0.1
2 0.5 -0.1
2.125 0.5 -0.1
2.25 0.5 -0.1
2.375 0.5 -0.1
2.5 0.5 -0.1
2.625 0.5 -0.1
2.75 0.5 -0.1
2.875 0.5 -0.1
3 0.5 -0.1
3.125 0.5 -0.1
3.25 0.5 -0.1
3.375 0.5 -0.1
3.5 0.5 -0.1
3.625 0.5 -0.1
3.75 0.5 -0.1
3.875 0.5 -0.1
4 0.5 -0.1
0 0.625 -0.1
0.125 0.625 -0.1
0.25 0.625 -0.1
0.375 0.625 -0.1
0.5 0.625 -0.1
0.625 0.625 -0.1
0.75 0.625 -0.1
0.875 0.625 -0.1
1 0.625 -0.1
1.125 0.625 -0.1
1.25 0.625 -0.1
1.375 0.625 -0.1
1.5 0.625 -0.1
1.625 0.625 -0.1
1.75 0.625 -0.1
1.875 0.625 -0.1
2 0.625 -0.1
2.125 0.625 -0.1
2.25 0.625 -0.1
2.375 0.625 -0.1
2.5 0.625 -0.1
2.625 0.625 -0.1
2.75 0.625 -0.1
2.875 0.625 -0.1
3 0.625 -0.1
3.125 0.625 -0.1
3.25 0.625 -0.1
3.375 0.625 -0.1
3.5 0.625 -0.1
3.625 0.625 -0.1
3.75 0.625 -0.1
3.875 0.625 -0.1
4 0.625 -0.1
0 0.75 -0.1
0.125 0.75 -0.1
0.25 0.75 -0.1
0.375 0.75 -0.1
0.5 0.75 -0.1
0.625 0.75 -0.1
0.75 0.75 -0.1
0.875 0.75 -0.1
1 0.75 -0.1
1.125 0.75 -0.1
1.25 0.75 -0.1
1.375 0.75 -0.1
1.5 0.75 -0.1
1.625 0.75 -0.1
1.75 0.75 -0.1
1.875 0.75 -0.1
2 0.75 -0.1
2.125 0.75 -0.1
2.25 0.75 -0.1
2.375 0.75 -0.1
2.5 0.75 -0.1
2.625 0.75 -0.1
2.75 0.75 -0.1
2.875 0.75 -0.1
3 0.75 -0.1
3.125 0.75 -0.1
3.25 0.75 -0.1
3.375 0.75 -0.1
3.5 0.75 -0.1
3.625 0.75 -0.1
3.75 0.75 -0.1
3.875 0.75 -0.1
4 0.75 -0.1
0 0.875 -0.1
0.125 0.875 -0.1
0.25 0.875 -0.1
0.375 0.875 -0.1
0.5 0.875 -0.1
0.625 0.875 -0.1
0.75 0.875 -0.1
0.875 0.875 -0.1
1 0.875 -0.1
1.125 0.875 -0.1
1.25 0.875 -0.1
1.375 0.875 -0.1
1.5 0.875 -0.1
1.625 0.875 -0.1
1.75 0.875 -0.1
1.875 0.875 -0.1
2 0.875 -0.1
2.125 0.875 -0.1
2.25 0.875 -0.1
2.375 0.875 -0.1
2.5 0.875 -0.1
2.625 0.875 -0.1
2.75 0.875 -0.1
2.875 0.875 -0.1
3 0.875 -0.1
3.125 0.875 -0.1
3.25 0.875 -0.1
3.375 0.875 -0.1
3.5 0.875 -0.1
3.625 0.875 -0.1
3.75 0.875 -0.1
3.875 0.875 -0.1
4 0.875 -0.1
0 1 -0.1
0.125 1 -0.1
0.25 1 -0.1
0.375 1 -0.1
0.5 1 -0.1
0.625 1 -0.1
0.75 1 -0.1
0.875 1 -0.1
1 1 -0.1
1.125 1 -0.1
1.25 1 -0.1
1.375 1 -0.1
1.5 1 -0.1
1.625 1 -0.1
1.75 1 -0.1
1.875 1 -0.1
2 1 -0.1
2.125 1 -0.1
2.25 1 -0.1
2.375 1 -0.1
2.5 1 -0.1
2.625 1 -0.1
2.75 1 -0.1
2.875 1 -0.1
3 1 -0.1
3.125 1 -0.1
3.25 1 -0.1
3.375 1 -0.1
3.5 1 -0.1
3.625 1 -0.1
3.75 1 -0.1
3.875 1 -0.1
4 1 -0.1
0.0625 0 -1.1
0.125 0 -1.0375
0.0625 0 -0.975
0 0 -1.0375
0 0.0625 -1.1
0.125 0.0625 -1.1
0.125 0.0625 -0.975
0 0.0625 -0.975
0.0625 0.125 -1.1
0.125 0.125 -1.0375
0.0625 0.125 -0.975
0 0.125 -1.0375
0.0625 0 -1.0375
0.0625 0.0625 -1.1
0.125 0.0625 -1.0375
0.0625 0.0625 -0.975
0 0.0625 -1.0375
0.0625 0.125 -1.0375
0.0625 0.0625 -1.0375
0.1875 0 -1.1
0.25 0 -1.0375
0.1875 0 -0.975
0.25 0.0625 -1.1
0.25 0.0625 -0.975
0.1875 0.125 -1.1
0.25 0.125 -1.0375
0.1875 0.125 -0.975
0.1875 0 -1.0375
0.1875 0.0625 -1.1
0.25 0.0625 -1.0375
0.1875 0.0625 -0.975
0.1875 0.125 -1.0375
0.1875 0.0625 -1.0375
0.3125 0 -1.1
0.375 0 -1.0375
0.3125 0 -0.975
0.375 0.0625 -1.1
0.375 0.0625 -0.975
0.3125 0.125 -1.1
0.375 0.125 -1.0375
0.3125 0.125 -0.975
0.3125 0 -1.0375
0.3125 0.0625 -1.1
0.375 0.0625 -1.0375
0.3125 0.0625 -0.975
0.3125 0.125 -1.0375
0.3125 0.0625 -1.0375
0.4375 0 -1.1
0.5 0 -1.0375
0.4375 0 -0.975
0.5 0.0625 -1.1
0.5 0.0625 -0.975
0.4375 0.125 -1.1
0.5 0.125 -1.0375
0.4375 0.125 -0.975
0.4375 0 -1.0375
0.4375 0.0625 -1.1
0.5 0.0625 -1.0375
0.4375 0.0625 -0.975
0.4375 0.125 -1.0375
0.4375 0.0625 -1.0375
0.5625 0 -1.1
0.625 0 -1.0375
0.5625 0 -0.975
0.625 0.0625 -1.1
0.625 0.0625 -0.975
0.5625 0.125 -1.1
0.625 0.125 -1.0375
0.5625 0.125 -0.975
0.5625 0 -1.0375
0.5625 0.0625 -1.1
0.625 0.0625 -1.0375
0.5625 0.0625 -0.975
0.5625 0.125 -1.0375
0.5625 0.0625 -1.0375
0.6875 0 -1.1
0.75 0 -1.0375
0.6875 0 -0.975
0.75 0.0625 -1.1
0.75 0.0625 -0.975
0.6875 0.125 -1.1
0.75 0.125 -1.0375
0.6875 0.125 -0.975
0.6875 0 -1.0375
0.6875 0.0625 -1.1
0.75 0.0625 -1.0375
0.6875 0.0625 -0.975
0.6875 0.125 -1.0375
0.6875 0.0625 -1.0375
0.8125 0 -1.1
0.875 0 -1.0375
0.8125 0 -0.975
0.875 0.0625 -1.1
0.875 0.0625 -0.975
0.8125 0.125 -1.1
0.875 0.125 -1.0375
0.8125 0.125 -0.975
0.8125 0 -1.0375
0.8125 0.0625 -1.1
0.875 0.0625 -1.0375
0.8125 0.0625 -0.975
0.8125 0.125 -1.0375
0.8125 0.0625 -1.0375
0.9375 0 -1.1
1 0 -1.0375
0.9375 0 -0.975
1 0.0625 -1.1
1 0.0625 -0.975
0.9375 0.125 -1.1
1 0.125 -1.0375
0.9375 0.125 -0.975
0.9375 0 -1.0375
0.9375 0.0625 -1.1
1 0.0625 -1.0375
0.9375 0.0625 -0.975
0.9375 0.125 -1.0375
0.9375 0.0625 -1.0375
1.0625 0 -1.1
1.125 0 -1.0375
1.0625 0 -0.975
1.125 0.0625 -1.1
1.125 0.0625 -0.975
1.0625 0.125 -1.1
1.125 0.125 -1.0375
1.0625 0.125 -0.975
1.0625 0 -1.0375
1.0625 0.0625 -1.1
1.125 0.0625 -1.0375
1.0625 0.0625 -0.975
1.0625 0.125 -1.0375
1.0625 0.0625 -1.0375
1.1875 0 -1.1
1.25 0 -1.0375
1.1875 0 -0.975
1.25 0.0625 -1.1
1.25 0.0625 -0.975
1.1875 0.125 -1.1
1.25 0.125 -1.0375
1.1875 0.125 -0.975
1.1875 0 -1.0375
1.1875 0.0625 -1.1
1.25 0.0625 -1.0375
1.1875 0.0625 -0.975
1.1875 0.125 -1.0375
1.1875 0.0625 -1.0375
1.3125 0 -1.1
1.375 0 -1.0375
1.3125 0 -0.975
1.375 0.0625 -1.1
1.375 0.0625 -0.975
1.3125 0.125 -1.1
1.375 0.125 -1.0375
1.3125 0.125 -0.975
1.3125 0 -1.0375
1.3125 0.0625 -1.1
1.375 0.0625 -1.0375
1.3125 0.0625 -0.975
1.3125 0.125 -1.0375
1.3125 0.0625 -1.0375
1.4375 0 -1.1
1.5 0 -1.0375
1.4375 0 -0.975
1.5 0.0625 -1.1
1.5 0.0625 -0.975
1.4375 0.125 -1.1
1.5 0.125 -1.0375
1.4375 0.125 -0.975
1.4375 0 -1.0375
1.4375 0.0625 -1.1
1.5 0.0625 -1.0375
1.4375 0.0625 -0.975
1.4375 0.125 -1.0375
1.4375 0.0625 -1.0375
1.5625 0 -1.1
1.625 0 -1.0375
1.5625 0 -0.975
1.625 0.0625 -1.1
1.625 0.0625 -0.975
1.5625 0.125 -1.1
1.625 0.125 -1.0375
1.5625 0.125 -0.975
1.5625 0 -1.0375
1.5625 0.0625 -1.1
1.625 0.0625 -1.0375
1.5625 0.0625 -0.975
1.5625 0.125 -1.0375
1.5625 0.0625 -1.0375
1.6875 0 -1.1
1.75 0 -1.0375
1.6875 0 -0.975
1.75 0.0625 -1.1
1.75 0.0625 -0.975
1.6875 0.125 -1.1
1.75 0.125 -1.0375
1.6875 0.125 -0.975
1.6875 0 -1.0375
1.6875 0.0625 -1.1
1.75 0.0625 -1.0375
1.6875 0.0625 -0.975
1.6875 0.125 -1.0375
1.6875 0.0625 -1.0375
1.8125 0 -1.1
1.875 0 -1.0375
1.8125 0 -0.975
1.875 0.0625 -1.1
1.875 0.0625 -0.975
1.8125 0.125 -1.1
1.875 0.125 -1.0375
1.8125 0.125 -0.975
1.8125 0 -1.0375
1.8125 0.0625 -1.1
1.875 0.0625 -1.0375
1.8125 0.0625 -0.975
1.8125 0.125 -1.0375
1.8125 0.0625 -1.0375
1.9375 0 -1.1
2 0 -1.0375
1.9375 0 -0.975
2 0.0625 -1.1
2 0.0625 -0.975
1.9375 0.125 -1.1
2 0.125 -1.0375
1.9375 0.125 -0.975
1.9375 0 -1.0375
1.9375 0.0625 -1.1
2 0.0625 -1.0375
1.9375 0.0625 -0.975
1.9375 0.125 -1.0375
1.9375 0.0625 -1.0375
2.0625 0 -1.1
2.125 0 -1.0375
2.0625 0 -0.975
2.125 0.0625 -1.1
2.125 0.0625 -0.975
2.0625 0.125 -1.1
2.125 0.125 -1.0375
2.0625 0.125 -0.975
2.0625 0 -1.0375
2.0625 0.0625 -1.1
2.125 0.0625 -1.0375
2.0625 0.0625 -0.975
2.0625 0.125 -1.0375
2.0625 0.0625 -1.0375
2.1875 0 -1.1
2.25 0 -1.0375
2.1875 0 -0.975
2.25 0.0625 -1.1
2.25 0.0625 -0.975
2.1875 0.125 -1.1
2.25 0.125 -1.0375
2.1875 0.125 -0.975
2.1875 0 -1.0375
2.1875 0.0625 -1.1
2.25 0.0625 -1.0375
2.1875 0.0625 -0.975
2.1875 0.125 -1.0375
2.1875 0.0625 -1.0375
2.3125 0 -1.1
2.375 0 -1.0375
2.3125 0 -0.975
2.375 0.0625 -1.1
2.375 0.0625 -0.975
2.3125 0.125 -1.1
2.375 0.125 -1.0375
2.3125 0.125 -0.975
2.3125 0 -1.0375
2.3125 0.0625 -1.1
2.375 0.0625 -1.0375
2.3125 0.0625 -0.975
2.3125 0.125 -1.0375
2.3125 0.0625 -1.0375
2.4375 0 -1.1
2.5 0 -1.0375
2.4375 0 -0.975
2.5 0.0625 -1.1
2.5 0.0625 -0.975
2.4375 0.125 -1.1
2.5 0.125 -1.0375
2.4375 0.125 -0.975
2.4375 0 -1.0375
2.4375 0.0625 -1.1
2.5 0.0625 -1.0375
2.4375 0.0625 -0.975
2.4375 0.125 -1.0375
2.4375 0.0625 -1.0375
2.5625 0 -1.1
2.625 0 -1.0375
2.5625 0 -0.975
2.625 0.0625 -1.1
2.625 0.0625 -0.975
2.5625 0.125 -1.1
2.625 0.125 -1.0375
2.5625 0.125 -0.975
2.5625 0 -1.0375
2.5625 0.0625 -1.1
2.625 0.0625 -1.0375
2.5625 0.0625 -0.975
2.5625 0.125 -1.0375
2.5625 0.0625 -1.0375
2.6875 0 -1.1
2.75 0 -1.0375
2.6875 0 -0.975
2.75 0.0625 -1.1
2.75 0.0625 -0.975
2.6875 0.125 -1.1
2.75 0.125 -1.0375
2.6875 0.125 -0.975
2.6875 0 -1.0375
2.6875 0.0625 -1.1
2.75 0.0625 -1.0375
2.6875 0.0625 -0.975
2.6875 0.125 -1.0375
2.6875 0.0625 -1.0375
2.8125 0 -1.1
2.875 0 -1.0375
2.8125 0 -0.975
2.875 0.0625 -1.1
2.875 0.0625 -0.975
2.8125 0.125 -1.1
2.875 0.125 -1.0375
2.8125 0.125 -0.975
2.8125 0 -1.0375
2.8125 0.0625 -1.1
2.875 0.0625 -1.0375
2.8125 0.0625 -0.975
2.8125 0.125 -1.0375
2.8125 0.0625 -1.0375
2.9375 0 -1.1
3 0 -1.0375
2.9375 0 -0.975
3 0.0625 -1.1
3 0.0625 -0.975
2.9375 0.125 -1.1
3 0.125 -1.0375
2.9375 0.125 -0.975
2.9375 0 -1.0375
2.9375 0.0625 -1.1
3 0.0625 -1.0375
2.9375 0.0625 -0.975
2.9375 0.125 -1.0375
2.9375 0.0625 -1.0375
3.0625 0 -1.1
3.125 0 -1.0375
3.0625 0 -0.975
3.125 0.0625 -1.1
3.125 0.0625 -0.975
3.0625 0.125 -1.1
3.125 0.125 -1.0375
3.0625 0.125 -0.975
3.0625 0 -1.0375
3.0625 0.0625 -1.1
3.125 0.0625 -1.0375
3.0625 0.0625 -0.975
3.0625 0.125 -1.0375
3.0625 0.0625 -1.0375
3.1875 0 -1.1
3.25 0 -1.0375
3.1875 0 -0.975
3.25 0.0625 -1.1
3.25 0.0625 -0.975
3.1875 0.125 -1.1
3.25 0.125 -1.0375
3.1875 0.125 -0.975
3.1875 0 -1.0375
3.1875 0.0625 -1.1
3.25 0.0625 -1.0375
3.1875 0.0625 -0.975
3.1875 0.125 -1.0375
3.1875 0.0625 -1.0375
3.3125 0 -1.1
3.375 0 -1.0375
3.3125 0 -0.975
3.375 0.0625 -1.1
3.375 0.0625 -0.975
3.3125 0.125 -1.1
3.375 0.125 -1.0375
3.3125 0.125 -0.975
3.3125 0 -1.0375
3.3125 0.0625 -1.1
3.375 0.0625 -1.0375
3.3125 0.0625 -0.975
3.3125 0.125 -1.0375
3.3125 0.0625 -1.0375
3.4375 0 -1.1
3.5 0 -1.0375
3.4375 0 -0.975
3.5 0.0625 -1.1
3.5 0.0625 -0.975
3.4375 0.125 -1.1
3.5 0.125 -1.0375
3.4375 0.125 -0.975
3.4375 0 -1.0375
3.4375 0.0625 -1.1
3.5 0.0625 -1.0375
3.4375 0.0625 -0.975
3.4375 0.125 -1.0375
3.4375 0.0625 -1.0375
3.5625 0 -1.1
3.625 0 -1.0375
3.5625 0 -0.975
3.625 0.0625 -1.1
3.625 0.0625 -0.975
3.5625 0.125 -1.1
3.625 0.125 -1.0375
3.5625 0.125 -0.975
3.5625 0 -1.0375
3.5625 0.0625 -1.1
3.625 0.0625 -1.0375
3.5625 0.0625 -0.975
3.5625 0.125 -1.0375
3.5625 0.0625 -1.0375
3.6875 0 -1.1
3.75 0 -1.0375
3.6875 0 -0.975
3.75 0.0625 -1.1
3.75 0.0625 -0.975
3.6875 0.125 -1.1
3.75 0.125 -1.0375
3.6875 0.125 -0.975
3.6875 0 -1.0375
3.6875 0.0625 -1.1
3.75 0.0625 -1.0375
3.6875 0.0625 -0.975
3.6875 0.125 -1.0375
3.6875 0.0625 -1.0375
3.8125 0 -1.1
3.875 0 -1.0375
3.8125 0 -0.975
3.875 0.0625 -1.1
3.875 0.0625 -0.975
3.8125 0.125 -1.1
3.875 0.125 -1.0375
3.8125 0.125 -0.975
3.8125 0 -1.0375
3.8125 0.0625 -1.1
3.875 0.0625 -1.0375
3.8125 0.0625 -0.975
3.8125 0.125 -1.0375
3.8125 0.0625 -1.0375
3.9375 0 -1.1
4 0 -1.0375
3.9375 0 -0.975
4 0.0625 -1.1
4 0.0625 -0.975
3.9375 0.125 -1.1
4 0.125 -1.0375
3.9375 0.125 -0.975
3.9375 0 -1.0375
3.9375 0.0625 -1.1
4 0.0625 -1.0375
3.9375 0.0625 -0.975
3.9375 0.125 -1.0375
3.9375 0.0625 -1.0375
0 0.1875 -1.1
0.125 0.1875 -1.1
0.125 0.1875 -0.975
0 0.1875 -0.975
0.0625 0.25 -1.1
0.125 0.25 -1.0375
0.0625 0.25 -0.975
0 0.25 -1.0375
0.0625 0.1875 -1.1
0.125 0.1875 -1.0375
0.0625 0.1875 -0.975
0 0.1875 -1.0375
0.0625 0.25 -1.0375
0.0625 0.1875 -1.0375
0.25 0.1875 -1.1
0.25 0.1875 -0.975
0.1875 0.25 -1.1
0.25 0.25 -1.0375
0.1875 0.25 -0.975
0.1875 0.1875 -1.1
0.25 0.1875 -1.0375
0.1875 0.1875 -0.975
0.1875 0.25 -1.0375
0.1875 0.1875 -1.0375
0.375 0.1875 -1.1
0.375 0.1875 -0.975
0.3125 0.25 -1.1
0.375 0.25 -1.0375
0.3125 0.25 -0.975
0.3125 0.1875 -1.1
0.375 0.1875 -1.0375
0.3125 0.1875 -0.975
0.3125 0.25 -1.0375
0.3125 0.1875 -1.0375
0.5 0.1875 -1.1
0.5 0.1875 -0.975
0.4375 0.25 -1.1
0.5 0.25 -1.0375
0.4375 0.25 -0.975
0.4375 0.1875 -1.1
0.5 0.1875 -1.0375
0.4375 0.1875 -0.975
0.4375 0.25 -1.0375
0.4375 0.1875 -1.0375
0.625 0.1875 -1.1
0.625 0.1875 -0.975
0.5625 0.25 -1.1
0.625 0.25 -1.0375
0.5625 0.25 -0.975
0.5625 0.1875 -1.1
0.625 0.1875 -1.0375
0.5625 0.1875 -0.975
0.5625 0.25 -1.0375
0.5625 0.1875 -1.0375
0.75 0.1875 -1.1
0.75 0.1875 -0.975
0.6875 0.25 -1.1
0.75 0.25 -1.0375
0.6875 0.25 -0.975
0.6875 0.1875 -1.1
0.75 0.1875 -1.0375
0.6875 0.1875 -0.975
0.6875 0.25 -1.0375
0.6875 0.1875 -1.0375
0.875 0.1875 -1.1
0.875 0.1875 -0.975
0.8125 0.25 -1.1
0.875 0.25 -1.0375
0.8125 0.25 -0.975
0.8125 0.1875 -1.1
0.875 0.1875 -1.0375
0.8125 0.1875 -0.975
0.8125 0.25 -1.0375
0.8125 0.1875 -1.0375
1 0.1875 -1.1
1 0.1875 -0.975
0.9375 0.25 -1.1
1 0.25 -1.0375
0.9375 0.25 -0.975
0.9375 0.1875 -1.1
1 0.1875 -1.0375
0.9375 0.1875 -0.975
0.9375 0.25 -1.0375
0.9375 0.1875 -1.0375
1.125 0.1875 -1.1
1.125 0.1875 -0.975
1.0625 0.25 -1.1
1.125 0.25 -1.0375
1.0625 0.25 -0.975
1.0625 0.1875 -1.1
1.125 0.1875 -1.0375
1.0625 0.1875 -0.975
1.0625 0.25 -1.0375
1.0625 0.1875 -1.0375
1.25 0.1875 -1.1
1.25 0.1875 -0.975
1.1875 0.25 -1.1
1.25 0.25 -1.0375
1.1875 0.25 -0.975
1.1875 0.1875 -1.1
1.25 0.1875 -1.0375
1.1875 0.1875 -0.975
1.1875 0.25 -1.0375
1.1875 0.1875 -1.0375
1.375 0.1875 -1.1
1.375 0.1875 -0.975
1.3125 0.25 -1.1
1.375 0.25 -1.0375
1.3125 0.25 -0.975
1.3125 0.1875 -1.1
1.375 0.1875 -1.0375
1.3125 0.1875 -0.975
1.3125 0.25 -1.0375
1.3125 0.1875 -1.0375
1.5 0.1875 -1.1
1.5 0.1875 -0.975
1.4375 0.25 -1.1
1.5 0.25 -1.0375
1.4375 0.25 -0.975
1.4375 0.1875 -1.1
1.5 0.1875 -1.0375
1.4375 0.1875 -0.975
1.4375 0.25 -1.0375
1.4375 0.1875 -1.0375
1.625 0.1875 -1.1
1.625 0.1875 -0.975
1.5625 0.25 -1.1
1.625 0.25 -1.0375
1.5625 0.25 -0.975
1.5625 0.1875 -1.1
1.625 0.1875 -1.0375
1.5625 0.1875 -0.975
1.5625 0.25 -1.0375
1.5625 0.1875 -1.0375
1.75 0.1875 -1.1
1.75 0.1875 -0.975
1.6875 0.25 -1.1
1.75 0.25 -1.0375
1.6875 0.25 -0.975
1.6875 0.1875 -1.1
1.75 0.1875 -1.0375
1.6875 0.1875 -0.975
1.6875 0.25 -1.0375
1.6875 0.1875 -1.0375
1.875 0.1875 -1.1
1.875 0.1875 -0.975
1.8125 0.25 -1.1
1.875 0.25 -1.0375
1.8125 0.25 -0.975
1.8125 0.1875 -1.1
1.875 0.1875 -1.0375
1.8125 0.1875 -0.975
1.8125 0.25 -1.0375
1.8125 0.1875 -1.0375
2 0.1875 -1.1
2 0.1875 -0.975
1.9375 0.25 -1.1
2 0.25 -1.0375
1.9375 0.25 -0.975
1.9375 0.1875 -1.1
2 0.1875 -1.0375
1.9375 0.1875 -0.975
1.9375 0.25 -1.0375
1.9375 0.1875 -1.0375
2.125 0.1875 -1.1
2.125 0.1875 -0.975
2.0625 0.25 -1.1
2.125 0.25 -1.0375
2.0625 0.25 -0.975
2.0625 0.1875 -1.1
2.125 0.1875 -1.0375
2.0625 0.1875 -0.975
2.0625 0.25 -1.0375
2.0625 0.1875 -1.0375
2.25 0.1875 -1.1
2.25 0.1875 -0.975
2.1875 0.25 -1.1
2.25 0.25 -1.0375
2.1875 0.25 -0.975
2.1875 0.1875 -1.1
2.25 0.1875 -1.0375
2.1875 0.1875 -0.975
2.1875 0.25 -1.0375
2.1875 0.1875 -1.0375
2.375 0.1875 -1.1
2.375 0.1875 -0.975
2.3125 0.25 -1.1
2.375 0.25 -1.0375
2.3125 0.25 -0.975
2.3125 0.1875 -1.1
2.375 0.1875 -1.0375
2.3125 0.1875 -0.975
2.3125 0.25 -1.0375
2.3125 0.1875 -1.0375
2.5 0.1875 -1.1
2.5 0.1875 -0.975
2.4375 0.25 -1.1
2.5 0.25 -1.0375
2.4375 0.25 -0.975
2.4375 0.1875 -1.1
2.5 0.1875 -1.0375
2.4375 0.1875 -0.975
2.4375 0.25 -1.0375
2.4375 0.1875 -1.0375
2.625 0.1875 -1.1
2.625 0.1875 -0.975
2.5625 0.25 -1.1
2.625 0.25 -1.0375
2.5625 0.25 -0.975
2.5625 0.1875 -1.1
2.625 0.1875 -1.0375
2.5625 0.1875 -0.975
2.5625 0.25 -1.0375
2.5625 0.1875 -1.0375
2.75 0.1875 -1.1
2.75 0.1875 -0.975
2.6875 0.25 -1.1
2.75 0.25 -1.0375
2.6875 0.25 -0.975
2.6875 0.1875 -1.1
2.75 0.1875 -1.0375
2.6875 0.1875 -0.975
2.6875 0.25 -1.0375
2.6875 0.1875 -1.0375
2.875 0.1875 -1.1
2.875 0.1875 -0.975
2.8125 0.25 -1.1
2.875 0.25 -1.0375
2.8125 0.25 -0.975
2.8125 0.1875 -1.1
2.875 0.1875 -1.0375
2.8125 0.1875 -0.975
2.8125 0.25 -1.0375
2.8125 0.1875 -1.0375
3 0.1875 -1.1
3 0.1875 -0.975
2.9375 0.25 -1.1
3 0.25 -1.0375
2.9375 0.25 -0.975
2.9375 0.1875 -1.1
3 0.1875 -1.0375
2.9375 0.1875 -0.975
2.9375 0.25 -1.0375
2.9375 0.1875 -1.0375
3.125 0.1875 -1.1
3.125 0.1875 -0.975
3.0625 0.25 -1.1
3.125 0.25 -1.0375
3.0625 0.25 -0.975
3.0625 0.1875 -1.1
3.125 0.1875 -1.0375
3.0625 0.1875 -0.975
3.0625 0.25 -1.0375
3.0625 0.1875 -1.0375
3.25 0.1875 -1.1
3.25 0.1875 -0.975
3.1875 0.25 -1.1
3.25 0.25 -1.0375
3.1875 0.25 -0.975
3.1875 0.1875 -1.1
3.25 0.1875 -1.0375
3.1875 0.1875 -0.975
3.1875 0.25 -1.0375
3.1875 0.1875 -1.0375
3.375 0.1875 -1.1
3.375 0.1875 -0.975
3.3125 0.25 -1.1
3.375 0.25 -1.0375
3.3125 0.25 -0.975
3.3125 0.1875 -1.1
3.375 0.1875 -1.0375
3.3125 0.1875 -0.975
3.3125 0.25 -1.0375
3.3125 0.1875 -1.0375
3.5 0.1875 -1.1
3.5 0.1875 -0.975
3.4375 0.25 -1.1
3.5 0.25 -1.0375
3.4375 0.25 -0.975
3.4375 0.1875 -1.1
3.5 0.1875 -1.0375
3.4375 0.1875 -0.975
3.4375 0.25 -1.0375
3.4375 0.1875 -1.0375
3.625 0.1875 -1.1
3.625 0.1875 -0.975
3.5625 0.25 -1.1
3.625 0.25 -1.0375
3.5625 0.25 -0.975
3.5625 0.1875 -1.1
3.625 0.1875 -1.0375
3.5625 0.1875 -0.975
3.5625 0.25 -1.0375
3.5625 0.1875 -1.0375
3.75 0.1875 -1.1
3.75 0.1875 -0.975
3.6875 0.25 -1.1
3.75 0.25 -1.0375
3.6875 0.25 -0.975
3.6875 0.1875 -1.1
3.75 0.1875 -1.0375
3.6875 0.1875 -0.975
3.6875 0.25 -1.0375
3.6875 0.1875 -1.0375
3.875 0.1875 -1.1
3.875 0.1875 -0.975
3.8125 0.25 -1.1
3.875 0.25 -1.0375
3.8125 0.25 -0.975
3.8125 0.1875 -1.1
3.875 0.1875 -1.0375
3.8125 0.1875 -0.975
3.8125 0.25 -1.0375
3.8125 0.1875 -1.0375
4 0.1875 -1.1
4 0.1875 -0.975
3.9375 0.25 -1.1
4 0.25 -1.0375
3.9375 0.25 -0.975
3.9375 0.1875 -1.1
4 0.1875 -1.0375
3.9375 0.1875 -0.975
3.9375 0.25 -1.0375
3.9375 0.1875 -1.0375
0 0.3125 -1.1
0.125 0.3125 -1.1
0.125 0.3125 -0.975
0 0.3125 -0.975
0.0625 0.375 -1.1
0.125 0.375 -1.0375
0.0625 0.375 -0.975
0 0.375 -1.0375
0.0625 0.3125 -1.1
0.125 0.3125 -1.0375
0.0625 0.3125 -0.975
0 0.3125 -1.0375
0.0625 0.375 -1.0375
0.0625 0.3125 -1.0375
0.25 0.3125 -1.1
0.25 0.3125 -0.975
0.1875 0.375 -1.1
0.25 0.375 -1.0375
0.1875 0.375 -0.975
0.1875 0.3125 -1.1
0.25 0.3125 -1.0375
0.1875 0.3125 -0.975
0.1875 0.375 -1.0375
0.1875 0.3125 -1.0375
0.375 0.3125 -1.1
0.375 0.3125 -0.975
0.3125 0.375 -1.1
0.375 0.375 -1.0375
0.3125 0.375 -0.975
0.3125 0.3125 -1.1
0.375 0.3125 -1.0375
0.3125 0.3125 -0.975
0.3125 0.375 -1.0375
0.3125 0.3125 -1.0375
0.5 0.3125 -1.1
0.5 0.3125 -0.975
0.4375 0.375 -1.1
0.5 0.375 -1.0375
0.4375 0.375 -0.975
0.4375 0.3125 -1.1
0.5 0.3125 -1.0375
0.4375 0.3125 -0.975
0.4375 0.375 -1.0375
0.4375 0.3125 -1.0375
0.625 0.3125 -1.1
0.625 0.3125 -0.975
0.5625 0.375 -1.1
0.625 0.375 -1.0375
0.5625 0.375 -0.975
0.5625 0.3125 -1.1
0.625 0.3125 -1.0375
0.5625 0.3125 -0.975
0.5625 0.375 -1.0375
0.5625 0.3125 -1.0375
0.75 0.3125 -1.1
0.75 0.3125 -0.975
0.6875 0.375 -1.1
0.75 0.375 -1.0375
0.6875 0.375 -0.975
0.6875 0.3125 -1.1
0.75 0.3125 -1.0375
0.6875 0.3125 -0.975
0.6875 0.375 -1.0375
0.6875 0.3125 -1.0375
0.875 0.3125 -1.1
0.875 0.3125 -0.975
0.8125 0.375 -1.1
0.875 0.375 -1.0375
0.8125 0.375 -0.975
0.8125 0.3125 -1.1
0.875 0.3125 -1.0375
0.8125 0.3125 -0.975
0.8125 0.375 -1.0375
0.8125 0.3125 -1.0375
1 0.3125 -1.1
1 0.3125 -0.975
0.9375 0.375 -1.1
1 0.375 -1.0375
0.9375 0.375 -0.975
0.9375 0.3125 -1.1
1 0.3125 -1.0375
0.9375 0.3125 -0.975
0.9375 0.375 -1.0375
0.9375 0.3125 -1.0375
1.125 0.3125 -1.1
1.125 0.3125 -0.975
1.0625 0.375 -1.1
1.125 0.375 -1.0375
1.0625 0.375 -0.975
1.0625 0.3125 -1.1
1.125 0.3125 -1.0375
1.0625 0.3125 -0.975
1.0625 0.375 -1.0375
1.0625 0.3125 -1.0375
1.25 0.3125 -1.1
1.25 0.3125 -0.975
1.1875 0.375 -1.1
1.25 0.375 -1.0375
1.1875 0.375 -0.975
1.1875 0.3125 -1.1
1.25 0.3125 -1.0375
1.1875 0.3125 -0.975
1.1875 0.375 -1.0375
1.1875 0.3125 -1.0375
1.375 0.3125 -1.1
1.375 0.3125 -0.975
1.3125 0.375 -1.1
1.375 0.375 -1.0375
1.3125 0.375 -0.975
1.3125 0.3125 -1.1
1.375 0.3125 -1.0375
1.3125 0.3125 -0.975
1.3125 0.375 -1.0375
1.3125 0.3125 -1.0375
1.5 0.3125 -1.1
1.5 0.3125 -0.975
1.4375 0.375 -1.1
1.5 0.375 -1.0375
1.4375 0.375 -0.975
1.4375 0.3125 -1.1
1.5 0.3125 -1.0375
1.4375 0.3125 -0.975
1.4375 0.375 -1.0375
1.4375 0.3125 -1.0375
1.625 0.3125 -1.1
1.625 0.3125 -0.975
1.5625 0.375 -1.1
1.625 0.375 -1.0375
1.5625 0.375 -0.975
1.5625 0.3125 -1.1
1.625 0.3125 -1.0375
1.5625 0.3125 -0.975
1.5625 0.375 -1.0375
1.5625 0.3125 -1.0375
1.75 0.3125 -1.1
1.75 0.3125 -0.975
1.6875 0.375 -1.1
1.75 0.375 -1.0375
1.6875 0.375 -0.975
1.6875 0.3125 -1.1
1.75 0.3125 -1.0375
1.6875 0.3125 -0.975
1.6875 0.375 -1.0375
1.6875 0.3125 -1.0375
1.875 0.3125 -1.1
1.875 0.3125 -0.975
1.8125 0.375 -1.1
1.875 0.375 -1.0375
1.8125 0.375 -0.975
1.8125 0.3125 -1.1
1.875 0.3125 -1.0375
1.8125 0.3125 -0.975
1.8125 0.375 -1.0375
1.8125 0.3125 -1.0375
2 0.3125 -1.1
2 0.3125 -0.975
1.9375 0.375 -1.1
2 0.375 -1.0375
1.9375 0.375 -0.975
1.9375 0.3125 -1.1
2 0.3125 -1.0375
1.9375 0.3125 -0.975
1.9375 0.375 -1.0375
1.9375 0.3125 -1.0375
2.125 0.3125 -1.1
2.125 0.3125 -0.975
2.0625 0.375 -1.1
2.125 0.375 -1.0375
2.0625 0.375 -0.975
2.0625 0.3125 -1.1
2.125 0.3125 -1.0375
2.0625 0.3125 -0.975
2.0625 0.375 -1.0375
2.0625 0.3125 -1.0375
2.25 0.3125 -1.1
2.25 0.3125 -0.975
2.1875 0.375 -1.1
2.25 0.375 -1.0375
2.1875 0.375 -0.975
2.1875 0.3125 -1.1
2.25 0.3125 -1.0375
2.1875 0.3125 -0.975
2.1875 0.375 -1.0375
2.1875 0.3125 -1.0375
2.375 0.3125 -1.1
2.375 0.3125 -0.975
2.3125 0.375 -1.1
2.375 0.375 -1.0375
2.3125 0.375 -0.975
2.3125 0.3125 -1.1
2.375 0.3125 -1.0375
2.3125 0.3125 -0.975
2.3125 0.375 -1.0375
2.3125 0.3125 -1.0375
2.5 0.3125 -1.1
2.5 0.3125 -0.975
2.4375 0.375 -1.1
2.5 0.375 -1.0375
2.4375 0.375 -0.975
2.4375 0.3125 -1.1
2.5 0.3125 -1.0375
2.4375 0.3125 -0.975
2.4375 0.375 -1.0375
2.4375 0.3125 -1.0375
2.625 0.3125 -1.1
2.625 0.3125 -0.975
2.5625 0.375 -1.1
2.625 0.375 -1.0375
2.5625 0.375 -0.975
2.5625 0.3125 -1.1
2.625 0.3125 -1.0375
2.5625 0.3125 -0.975
2.5625 0.375 -1.0375
2.5625 0.3125 -1.0375
2.75 0.3125 -1.1
2.75 0.3125 -0.975
2.6875 0.375 -1.1
2.75 0.375 -1.0375
2.6875 0.375 -0.975
2.6875 0.3125 -1.1
2.75 0.3125 -1.0375
2.6875 0.3125 -0.975
2.6875 0.375 -1.0375
2.6875 0.3125 -1.0375
2.875 0.3125 -1.1
2.875 0.3125 -0.975
2.8125 0.375 -1.1
2.875 0.375 -1.0375
2.8125 0.375 -0.975
2.8125 0.3125 -1.1
2.875 0.3125 -1.0375
2.8125 0.3125 -0.975
2.8125 0.375 -1.0375
2.8125 0.3125 -1.0375
3 0.3125 -1.1
3 0.3125 -0.975
2.9375 0.375 -1.1
3 0.375 -1.0375
2.9375 0.375 -0.975
2.9375 0.3125 -1.1
3 0.3125 -1.0375
2.9375 0.3125 -0.975
2.9375 0.375 -1.0375
2.9375 0.3125 -1.0375
3.125 0.3125 -1.1
3.125 0.3125 -0.975
3.0625 0.375 -1.1
3.125 0.375 -1.0375
3.0625 0.375 -0.975
3.0625 0.3125 -1.1
3.125 0.3125 -1.0375
3.0625 0.3125 -0.975
3.0625 0.375 -1.0375
3.0625 0.3125 -1.0375
3.25 0.3125 -1.1
3.25 0.3125 -0.975
3.1875 0.375 -1.1
3.25 0.375 -1.0375
3.1875 0.375 -0.975
3.1875 0.3125 -1.1
3.25 0.3125 -1.0375
3.1875 0.3125 -0.975
3.1875 0.375 -1.0375
3.1875 0.3125 -1.0375
3.375 0.3125 -1.1
3.375 0.3125 -0.975
3.3125 0.375 -1.1
3.375 0.375 -1.0375
3.3125 0.375 -0.975
3.3125 0.3125 -1.1
3.375 0.3125 -1.0375
3.3125 0.3125 -0.975
3.3125 0.375 -1.0375
3.3125 0.3125 -1.0375
3.5 0.3125 -1.1
3.5 0.3125 -0.975
3.4375 0.375 -1.1
3.5 0.375 -1.0375
3.4375 0.375 -0.975
3.4375 0.3125 -1.1
3.5 0.3125 -1.0375
3.4375 0.3125 -0.975
3.4375 0.375 -1.0375
3.4375 0.3125 -1.0375
3.625 0.3125 -1.1
3.625 0.3125 -0.975
3.5625 0.375 -1.1
3.625 0.375 -1.0375
3.5625 0.375 -0.975
3.5625 0.3125 -1.1
3.625 0.3125 -1.0375
3.5625 0.3125 -0.975
3.5625 0.375 -1.0375
3.5625 0.3125 -1.0375
3.75 0.3125 -1.1
3.75 0.3125 -0.975
3.6875 0.375 -1.1
3.75 0.375 -1.0375
3.6875 0.375 -0.975
3.6875 0.3125 -1.1
3.75 0.3125 -1.0375
3.6875 0.3125 -0.975
3.6875 0.375 -1.0375
3.6875 0.3125 -1.0375
3.875 0.3125 -1.1
3.875 0.3125 -0.975
3.8125 0.375 -1.1
3.875 0.375 -1.0375
3.8125 0.375 -0.975
3.8125 0.3125 -1.1
3.875 0.3125 -1.0375
3.8125 0.3125 -0.975
3.8125 0.375 -1.0375
3.8125 0.3125 -1.0375
4 0.3125 -1.1
4 0.3125 -0.975
3.9375 0.375 -1.1
4 0.375 -1.0375
3.9375 0.375 -0.975
3.9375 0.3125 -1.1
4 0.3125 -1.0375
3.9375 0.3125 -0.975
3.9375 0.375 -1.0375
3.9375 0.3125 -1.0375
0 0.4375 -1.1
0.125 0.4375 -1.1
0.125 0.4375 -0.975
0 0.4375 -0.975
0.0625 0.5 -1.1
0.125 0.5 -1.0375
0.0625 0.5 -0.975
0 0.5 -1.0375
0.0625 0.4375 -1.1
0.125 0.4375 -1.0375
0.0625 0.4375 -0.975
0 0.4375 -1.0375
0.0625 0.5 -1.0375
0.0625 0.4375 -1.0375
0.25 0.4375 -1.1
0.25 0.4375 -0.975
0.1875 0.5 -1.1
0.25 0.5 -1.0375
0.1875 0.5 -0.975
0.1875 0.4375 -1.1
0.25 0.4375 -1.0375
0.1875 0.4375 -0.975
0.1875 0.5 -1.0375
0.1875 0.4375 -1.0375
0.375 0.4375 -1.1
0.375 0.4375 -0.975
0.3125 0.5 -1.1
0.375 0.5 -1.0375
0.3125 0.5 -0.975
0.3125 0.4375 -1.1
0.375 0.4375 -1.0375
0.3125 0.4375 -0.975
0.3125 0.5 -1.0375
0.3125 0.4375 -1.0375
0.5 0.4375 -1.1
0.5 0.4375 -0.975
0.4375 0.5 -1.1
0.5 0.5 -1.0375
0.4375 0.5 -0.975
0.4375 0.4375 -1.1
0.5 0.4375 -1.0375
0.4375 0.4375 -0.975
0.4375 0.5 -1.0375
0.4375 0.4375 -1.0375
0.625 0.4375 -1.1
0.625 0.4375 -0.975
0.5625 0.5 -1.1
0.625 0.5 -1.0375
0.5625 0.5 -0.975
0.5625 0.4375 -1.1
0.625 0.4375 -1.0375
0.5625 0.4375 -0.975
0.5625 0.5 -1.0375
0.5625 0.4375 -1.0375
0.75 0.4375 -1.1
0.75 0.4375 -0.975
0.6875 0.5 -1.1
0.75 0.5 -1.0375
0.6875 0.5 -0.975
0.6875 0.4375 -1.1
0.75 0.4375 -1.0375
0.6875 0.4375 -0.975
0.6875 0.5 -1.0375
0.6875 0.4375 -1.0375
0.875 0.4375 -1.1
0.875 0.4375 -0.975
0.8125 0.5 -1.1
0.875 0.5 -1.0375
0.8125 0.5 -0.975
0.8125 0.4375 -1.1
0.875 0.4375 -1.0375
0.8125 0.4375 -0.975
0.8125 0.5 -1.0375
0.8125 0.4375 -1.0375
1 0.4375 -1.1
1 0.4375 -0.975
0.9375 0.5 -1.1
1 0.5 -1.0375
0.9375 0.5 -0.975
0.9375 0.4375 -1.1
1 0.4375 -1.0375
0.9375 0.4375 -0.975
0.9375 0.5 -1.0375
0.9375 0.4375 -1.0375
1.125 0.4375 -1.1
1.125 0.4375 -0.975
1.0625 0.5 -1.1
1.125 0.5 -1.0375
1.0625 0.5 -0.975
1.0625 0.4375 -1.1
1.125 0.4375 -1.0375
1.0625 0.4375 -0.975
1.0625 0.5 -1.0375
1.0625 0.4375 -1.0375
1.25 0.4375 -1.1
1.25 0.4375 -0.975
1.1875 0.5 -1.1
1.25 0.5 -1.0375
1.1875 0.5 -0.975
1.1875 0.4375 -1.1
1.25 0.4375 -1.0375
1.1875 0.4375 -0.975
1.1875 0.5 -1.0375
1.1875 0.4375 -1.0375
1.375 0.4375 -1.1
1.375 0.4375 -0.975
1.3125 0.5 -1.1
1.375 0.5 -1.0375
1.3125 0.5 -0.975
1.3125 0.4375 -1.1
1.375 0.4375 -1.0375
1.3125 0.4375 -0.975
1.3125 0.5 -1.0375
1.3125 0.4375 -1.0375
1.5 0.4375 -1.1
1.5 0.4375 -0.975
1.4375 0.5 -1.1
1.5 0.5 -1.0375
1.4375 0.5 -0.975
1.4375 0.4375 -1.1
1.5 0.4375 -1.0375
1.4375 0.4375 -0.975
1.4375 0.5 -1.0375
1.4375 0.4375 -1.0375
1.625 0.4375 -1.1
1.625 0.4375 -0.975
1.5625 0.5 -1.1
1.625 0.5 -1.0375
1.5625 0.5 -0.975
1.5625 0.4375 -1.1
1.625 0.4375 -1.0375
1.5625 0.4375 -0.975
1.5625 0.5 -1.0375
1.5625 0.4375 -1.0375
1.75 0.4375 -1.1
1.75 0.4375 -0.975
1.6875 0.5 -1.1
1.75 0.5 -1.0375
1.6875 0.5 -0.975
1.6875 0.4375 -1.1
1.75 0.4375 -1.0375
1.6875 0.4375 -0.975
1.6875 0.5 -1.0375
1.6875 0.4375 -1.0375
1.875 0.4375 -1.1
1.875 0.4375 -0.975
1.8125 0.5 -1.1
1.875 0.5 -1.0375
1.8125 0.5 -0.975
1.8125 0.4375 -1.1
1.875 0.4375 -1.0375
1.8125 0.4375 -0.975
1.8125 0.5 -1.0375
1.8125 0.4375 -1.0375
2 0.4375 -1.1
2 0.4375 -0.975
1.9375 0.5 -1.1
2 0.5 -1.0375
1.9375 0.5 -0.975
1.9375 0.4375 -1.1
2 0.4375 -1.0375
1.9375 0.4375 -0.975
1.9375 0.5 -1.0375
1.9375 0.4375 -1.0375
2.125 0.4375 -1.1
2.125 0.4375 -0.975
2.0625 0.5 -1.1
2.125 0.5 -1.0375
2.0625 0.5 -0.975
2.0625 0.4375 -1.1
2.125 0.4375 -1.0375
2.0625 0.4375 -0.975
2.0625 0.5 -1.0375
2.0625 0.4375 -1.0375
2.25 0.4375 -1.1
2.25 0.4375 -0.975
2.1875 0.5 -1.1
2.25 0.5 -1.0375
2.1875 0.5 -0.975
2.1875 0.4375 -1.1
2.25 0.4375 -1.0375
2.1875 0.4375 -0.975
2.1875 0.5 -1.0375
2.1875 0.4375 -1.0375
2.375 0.4375 -1.1
2.375 0.4375 -0.975
2.3125 0.5 -1.1
2.375 0.5 -1.0375
2.3125 0.5 -0.975
2.3125 0.4375 -1.1
2.375 0.4375 -1.0375
2.3125 0.4375 -0.975
2.3125 0.5 -1.0375
2.3125 0.4375 -1.0375
2.5 0.4375 -1.1
2.5 0.4375 -0.975
2.4375 0.5 -1.1
2.5 0.5 -1.0375
2.4375 0.5 -0.975
2.4375 0.4375 -1.1
2.5 0.4375 -1.0375
2.4375 0.4375 -0.975
2.4375 0.5 -1.0375
2.4375 0.4375 -1.0375
2.625 0.4375 -1.1
2.625 0.4375 -0.975
2.5625 0.5 -1.1
2.625 0.5 -1.0375
2.5625 0.5 -0.975
2.5625 0.4375 -1.1
2.625 0.4375 -1.0375
2.5625 0.4375 -0.975
2.5625 0.5 -1.0375
2.5625 0.4375 -1.0375
2.75 0.4375 -1.1
2.75 0.4375 -0.975
2.6875 0.5 -1.1
2.75 0.5 -1.0375
2.6875 0.5 -0.975
2.6875 0.4375 -1.1
2.75 0.4375 -1.0375
2.6875 0.4375 -0.975
2.6875 0.5 -1.0375
2.6875 0.4375 -1.0375
2.875 0.4375 -1.1
2.875 0.4375 -0.975
2.8125 0.5 -1.1
2.875 0.5 -1.0375
2.8125 0.5 -0.975
2.8125 0.4375 -1.1
2.875 0.4375 -1.0375
2.8125 0.4375 -0.975
2.8125 0.5 -1.0375
2.8125 0.4375 -1.0375
3 0.4375 -1.1
3 0.4375 -0.975
2.9375 0.5 -1.1
3 0.5 -1.0375
2.9375 0.5 -0.975
2.9375 0.4375 -1.1
3 0.4375 -1.0375
2.9375 0.4375 -0.975
2.9375 0.5 -1.0375
2.9375 0.4375 -1.0375
3.125 0.4375 -1.1
3.125 0.4375 -0.975
3.0625 0.5 -1.1
3.125 0.5 -1.0375
3.0625 0.5 -0.975
3.0625 0.4375 -1.1
3.125 0.4375 -1.0375
3.0625 0.4375 -0.975
3.0625 0.5 -1.0375
3.0625 0.4375 -1.0375
3.25 0.4375 -1.1
3.25 0.4375 -0.975
3.1875 0.5 -1.1
3.25 0.5 -1.0375
3.1875 0.5 -0.975
3.1875 0.4375 -1.1
3.25 0.4375 -1.0375
3.1875 0.4375 -0.975
3.1875 0.5 -1.0375
3.1875 0.4375 -1.0375
3.375 0.4375 -1.1
3.375 0.4375 -0.975
3.3125 0.5 -1.1
3.375 0.5 -1.0375
3.3125 0.5 -0.975
3.3125 0.4375 -1.1
3.375 0.4375 -1.0375
3.3125 0.4375 -0.975
3.3125 0.5 -1.0375
3.3125 0.4375 -1.0375
3.5 0.4375 -1.1
3.5 0.4375 -0.975
3.4375 0.5 -1.1
3.5 0.5 -1.0375
3.4375 0.5 -0.975
3.4375 0.4375 -1.1
3.5 0.4375 -1.0375
3.4375 0.4375 -0.975
3.4375 0.5 -1.0375
3.4375 0.4375 -1.0375
3.625 0.4375 -1.1
3.625 0.4375 -0.975
3.5625 0.5 -1.1
3.625 0.5 -1.0375
3.5625 0.5 -0.975
3.5625 0.4375 -1.1
3.625 0.4375 -1.0375
3.5625 0.4375 -0.975
3.5625 0.5 -1.0375
3.5625 0.4375 -1.0375
3.75 0.4375 -1.1
3.75 0.4375 -0.975
3.6875 0.5 -1.1
3.75 0.5 -1.0375
3.6875 0.5 -0.975
3.6875 0.4375 -1.1
3.75 0.4375 -1.0375
3.6875 0.4375 -0.975
3.6875 0.5 -1.0375
3.6875 0.4375 -1.0375
3.875 0.4375 -1.1
3.875 0.4375 -0.975
3.8125 0.5 -1.1
3.875 0.5 -1.0375
3.8125 0.5 -0.975
3.8125 0.4375 -1.1
3.875 0.4375 -1.0375
3.8125 0.4375 -0.975
3.8125 0.5 -1.0375
3.8125 0.4375 -1.0375
4 0.4375 -1.1
4 0.4375 -0.975
3.9375 0.5 -1.1
4 0.5 -1.0375
3.9375 0.5 -0.975
3.9375 0.4375 -1.1
4 0.4375 -1.0375
3.9375 0.4375 -0.975
3.9375 0.5 -1.0375
3.9375 0.4375 -1.0375
0 0.5625 -1.1
0.125 0.5625 -1.1
0.125 0.5625 -0.975
0 0.5625 -0.975
0.0625 0.625 -1.1
0.125 0.625 -1.0375
0.0625 0.625 -0.975
0 0.625 -1.0375
0.0625 0.5625 -1.1
0.125 0.5625 -1.0375
0.0625 0.5625 -0.975
0 0.5625 -1.0375
0.0625 0.625 -1.0375
0.0625 0.5625 -1.0375
0.25 0.5625 -1.1
0.25 0.5625 -0.975
0.1875 0.625 -1.1
0.25 0.625 -1.0375
0.1875 0.625 -0.975
0.1875 0.5625 -1.1
0.25 0.5625 -1.0375
0.1875 0.5625 -0.975
0.1875 0.625 -1.0375
0.1875 0.5625 -1.0375
0.375 0.5625 -1.1
0.375 0.5625 -0.975
0.3125 0.625 -1.1
0.375 0.625 -1.0375
0.3125 0.625 -0.975
0.3125 0.5625 -1.1
0.375 0.5625 -1.0375
0.3125 0.5625 -0.975
0.3125 0.625 -1.0375
0.3125 0.5625 -1.0375
0.5 0.5625 -1.1
0.5 0.5625 -0.975
0.4375 0.625 -1.1
0.5 0.625 -1.0375
0.4375 0.625 -0.975
0.4375 0.5625 -1.1
0.5 0.5625 -1.0375
0.4375 0.5625 -0.975
0.4375 0.625 -1.0375
0.4375 0.5625 -1.0375
0.625 0.5625 -1.1
0.625 0.5625 -0.975
0.5625 0.625 -1.1
0.625 0.625 -1.0375
0.5625 0.625 -0.975
0.5625 0.5625 -1.1
0.625 0.5625 -1.0375
0.5625 0.5625 -0.975
0.5625 0.625 -1.0375
0.5625 0.5625 -1.0375
0.75 0.5625 -1.1
0.75 0.5625 -0.975
0.6875 0.625 -1.1
0.75 0.625 -1.0375
0.6875 0.625 -0.975
0.6875 0.5625 -1.1
0.75 0.5625 -1.0375
0.6875 0.5625 -0.975
0.6875 0.625 -1.0375
0.6875 0.5625 -1.0375
0.875 0.5625 -1.1
0.875 0.5625 -0.975
0.8125 0.625 -1.1
0.875 0.625 -1.0375
0.8125 0.625 -0.975
0.8125 0.5625 -1.1
0.875 0.5625 -1.0375
0.8125 0.5625 -0.975
0.8125 0.625 -1.0375
0.8125 0.5625 -1.0375
1 0.5625 -1.1
1 0.5625 -0.975
0.9375 0.625 -1.1
1 0.625 -1.0375
0.9375 0.625 -0.975
0.9375 0.5625 -1.1
1 0.5625 -1.0375
0.9375 0.5625 -0.975
0.9375 0.625 -1.0375
0.9375 0.5625 -1.0375
1.125 0.5625 -1.1
1.125 0.5625 -0.975
1.0625 0.625 -1.1
1.125 0.625 -1.0375
1.0625 0.625 -0.975
1.0625 0.5625 -1.1
1.125 0.5625 -1.0375
1.0625 0.5625 -0.975
1.0625 0.625 -1.0375
1.0625 0.5625 -1.0375
1.25 0.5625 -1.1
1.25 0.5625 -0.975
1.1875 0.625 -1.1
1.25 0.625 -1.0375
1.1875 0.625 -0.975
1.1875 0.5625 -1.1
1.25 0.5625 -1.0375
1.1875 0.5625 -0.975
1.1875 0.625 -1.0375
1.1875 0.5625 -1.0375
1.375 0.5625 -1.1
1.375 0.5625 -0.975
1.3125 0.625 -1.1
1.375 0.625 -1.0375
1.3125 0.625 -0.975
1.3125 0.5625 -1.1
1.375 0.5625 -1.0375
1.3125 0.5625 -0.975
1.3125 0.625 -1.0375
1.3125 0.5625 -1.0375
1.5 0.5625 -1.1
1.5 0.5625 -0.975
1.4375 0.625 -1.1
1.5 0.625 -1.0375
1.4375 0.625 -0.975
1.4375 0.5625 -1.1
1.5 0.5625 -1.0375
1.4375 0.5625 -0.975
1.4375 0.625 -1.0375
1.4375 0.5625 -1.0375
1.625 0.5625 -1.1
1.625 0.5625 -0.975
1.5625 0.625 -1.1
1.625 0.625 -1.0375
1.5625 0.625 -0.975
1.5625 0.5625 -1.1
1.625 0.5625 -1.0375
1.5625 0.5625 -0.975
1.5625 0.625 -1.0375
1.5625 0.5625 -1.0375
1.75 0.5625 -1.1
1.75 0.5625 -0.975
1.6875 0.625 -1.1
1.75 0.625 -1.0375
1.6875 0.625 -0.975
1.6875 0.5625 -1.1
1.75 0.5625 -1.0375
1.6875 0.5625 -0.975
1.6875 0.625 -1.0375
1.6875 0.5625 -1.0375
1.875 0.5625 -1.1
1.875 0.5625 -0.975
1.8125 0.625 -1.1
1.875 0.625 -1.0375
1.8125 0.625 -0.975
1.8125 0.5625 -1.1
1.875 0.5625 -1.0375
1.8125 0.5625 -0.975
1.8125 0.625 -1.0375
1.8125 0.5625 -1.0375
2 0.5625 -1.1
2 0.5625 -0.975
1.9375 0.625 -1.1
2 0.625 -1.0375
1.9375 0.625 -0.975
1.9375 0.5625 -1.1
2 0.5625 -1.0375
1.9375 0.5625 -0.975
1.9375 0.625 -1.0375
1.9375 0.5625 -1.0375
2.125 0.5625 -1.1
2.125 0.5625 -0.975
2.0625 0.625 -1.1
2.125 0.625 -1.0375
2.0625 0.625 -0.975
2.0625 0.5625 -1.1
2.125 0.5625 -1.0375
2.0625 0.5625 -0.975
2.0625 0.625 -1.0375
2.0625 0.5625 -1.0375
2.25 0.5625 -1.1
2.25 0.5625 -0.975
2.1875 0.625 -1.1
2.25 0.625 -1.0375
2.1875 0.625 -0.975
2.1875 0.5625 -1.1
2.25 0.5625 -1.0375
2.1875 0.5625 -0.975
2.1875 0.625 -1.0375
2.1875 0.5625 -1.0375
2.375 0.5625 -1.1
2.375 0.5625 -0.975
2.3125 0.625 -1.1
2.375 0.625 -1.0375
2.3125 0.625 -0.975
2.3125 0.5625 -1.1
2.375 0.5625 -1.0375
2.3125 0.5625 -0.975
2.3125 0.625 -1.0375
2.3125 0.5625 -1.0375
2.5 0.5625 -1.1
2.5 0.5625 -0.975
2.4375 0.625 -1.1
2.5 0.625 -1.0375
2.4375 0.625 -0.975
2.4375 0.5625 -1.1
2.5 0.5625 -1.0375
2.4375 0.5625 -0.975
2.4375 0.625 -1.0375
2.4375 0.5625 -1.0375
2.625 0.5625 -1.1
2.625 0.5625 -0.975
2.5625 0.625 -1.1
2.625 0.625 -1.0375
2.5625 0.625 -0.975
2.5625 0.5625 -1.1
2.625 0.5625 -1.0375
2.5625 0.5625 -0.975
2.5625 0.625 -1.0375
2.5625 0.5625 -1.0375
2.75 0.5625 -1.1
2.75 0.5625 -0.975
2.6875 0.625 -1.1
2.75 0.625 -1.0375
2.6875 0.625 -0.975
2.6875 0.5625 -1.1
2.75 0.5625 -1.0375
2.6875 0.5625 -0.975
2.6875 0.625 -1.0375
2.6875 0.5625 -1.0375
2.875 0.5625 -1.1
2.875 0.5625 -0.975
2.8125 0.625 -1.1
2.875 0.625 -1.0375
2.8125 0.625 -0.975
2.8125 0.5625 -1.1
2.875 0.5625 -1.0375
2.8125 0.5625 -0.975
2.8125 0.625 -1.0375
2.8125 0.5625 -1.0375
3 0.5625 -1.1
3 0.5625 -0.975
2.9375 0.625 -1.1
3 0.625 -1.0375
2.9375 0.625 -0.975
2.9375 0.5625 -1.1
3 0.5625 -1.0375
2.9375 0.5625 -0.975
2.9375 0.625 -1.0375
2.9375 0.5625 -1.0375
3.125 0.5625 -1.1
3.125 0.5625 -0.975
3.0625 0.625 -1.1
3.125 0.625 -1.0375
3.0625 0.625 -0.975
3.0625 0.5625 -1.1
3.125 0.5625 -1.0375
3.0625 0.5625 -0.975
3.0625 0.625 -1.0375
3.0625 0.5625 -1.0375
3.25 0.5625 -1.1
3.25 0.5625 -0.975
3.1875 0.625 -1.1
3.25 0.625 -1.0375
3.1875 0.625 -0.975
3.1875 0.5625 -1.1
3.25 0.5625 -1.0375
3.1875 0.5625 -0.975
3.1875 0.625 -1.0375
3.1875 0.5625 -1.0375
3.375 0.5625 -1.1
3.375 0.5625 -0.975
3.3125 0.625 -1.1
3.375 0.625 -1.0375
3.3125 0.625 -0.975
3.3125 0.5625 -1.1
3.375 0.5625 -1.0375
3.3125 0.5625 -0.975
3.3125 0.625 -1.0375
3.3125 0.5625 -1.0375
3.5 0.5625 -1.1
3.5 0.5625 -0.975
3.4375 0.625 -1.1
3.5 0.625 -1.0375
3.4375 0.625 -0.975
3.4375 0.5625 -1.1
3.5 0.5625 -1.0375
3.4375 0.5625 -0.975
3.4375 0.625 -1.0375
3.4375 0.5625 -1.0375
3.625 0.5625 -1.1
3.625 0.5625 -0.975
3.5625 0.625 -1.1
3.625 0.625 -1.0375
3.5625 0.625 -0.975
3.5625 0.5625 -1.1
3.625 0.5625 -1.0375
3.5625 0.5625 -0.975
3.5625 0.625 -1.0375
3.5625 0.5625 -1.0375
3.75 0.5625 -1.1
3.75 0.5625 -0.975
3.6875 0.625 -1.1
3.75 0.625 -1.0375
3.6875 0.625 -0.975
3.6875 0.5625 -1.1
3.75 0.5625 -1.0375
3.6875 0.5625 -0.975
3.6875 0.625 -1.0375
3.6875 0.5625 -1.0375
3.875 0.5625 -1.1
3.875 0.5625 -0.975
3.8125 0.625 -1.1
3.875 0.625 -1.0375
3.8125 0.625 -0.975
3.8125 0.5625 -1.1
3.875 0.5625 -1.0375
3.8125 0.5625 -0.975
3.8125 0.625 -1.0375
3.8125 0.5625 -1.0375
4 0.5625 -1.1
4 0.5625 -0.975
3.9375 0.625 -1.1
4 0.625 -1.0375
3.9375 0.625 -0.975
3.9375 0.5625 -1.1
4 0.5625 -1.0375
3.9375 0.5625 -0.975
3.9375 0.625 -1.0375
3.9375 0.5625 -1.0375
0 0.6875 -1.1
0.125 0.6875 -1.1
0.125 0.6875 -0.975
0 0.6875 -0.975
0.0625 0.75 -1.1
0.125 0.75 -1.0375
0.0625 0.75 -0.975
0 0.75 -1.0375
0.0625 0.6875 -1.1
0.125 0.6875 -1.0375
0.0625 0.6875 -0.975
0 0.6875 -1.0375
0.0625 0.75 -1.0375
0.0625 0.6875 -1.0375
0.25 0.6875 -1.1
0.25 0.6875 -0.975
0.1875 0.75 -1.1
0.25 0.75 -1.0375
0.1875 0.75 -0.975
0.1875 0.6875 -1.1
0.25 0.6875 -1.0375
0.1875 0.6875 -0.975
0.1875 0.75 -1.0375
0.1875 0.6875 -1.0375
0.375 0.6875 -1.1
0.375 0.6875 -0.975
0.3125 0.75 -1.1
0.375 0.75 -1.0375
0.3125 0.75 -0.975
0.3125 0.6875 -1.1
0.375 0.6875 -1.0375
0.3125 0.6875 -0.975
0.3125 0.75 -1.0375
0.3125 0.6875 -1.0375
0.5 0.6875 -1.1
0.5 0.6875 -0.975
0.4375 0.75 -1.1
0.5 0.75 -1.0375
0.4375 0.75 -0.975
0.4375 0.6875 -1.1
0.5 0.6875 -1.0375
0.4375 0.6875 -0.975
0.4375 0.75 -1.0375
0.4375 0.6875 -1.0375
0.625 0.6875 -1.1
0.625 0.6875 -0.975
0.5625 0.75 -1.1
0.625 0.75 -1.0375
0.5625 0.75 -0.975
0.5625 0.6875 -1.1
0.625 0.6875 -1.0375
0.5625 0.6875 -0.975
0.5625 0.75 -1.0375
0.5625 0.6875 -1.0375
0.75 0.6875 -1.1
0.75 0.6875 -0.975
0.6875 0.75 -1.1
0.75 0.75 -1.0375
0.6875 0.75 -0.975
0.6875 0.6875 -1.1
0.75 0.6875 -1.0375
0.6875 0.6875 -0.975
0.6875 0.75 -1.0375
0.6875 0.6875 -1.0375
0.875 0.6875 -1.1
0.875 0.6875 -0.975
0.8125 0.75 -1.1
0.875 0.75 -1.0375
0.8125 0.75 -0.975
0.8125 0.6875 -1.1
0.875 0.6875 -1.0375
0.8125 0.6875 -0.975
0.8125 0.75 -1.0375
0.8125 0.6875 -1.0375
1 0.6875 -1.1
1 0.6875 -0.975
0.9375 0.75 -1.1
1 0.75 -1.0375
0.9375 0.75 -0.975
0.9375 0.6875 -1.1
1 0.6875 -1.0375
0.9375 0.6875 -0.975
0.9375 0.75 -1.0375
0.9375 0.6875 -1.0375
1.125 0.6875 -1.1
1.125 0.6875 -0.975
1.0625 0.75 -1.1
1.125 0.75 -1.0375
1.0625 0.75 -0.975
1.0625 0.6875 -1.1
1.125 0.6875 -1.0375
1.0625 0.6875 -0.975
1.0625 0.75 -1.0375
1.0625 0.6875 -1.0375
1.25 0.6875 -1.1
1.25 0.6875 -0.975
1.1875 0.75 -1.1
1.25 0.75 -1.0375
1.1875 0.75 -0.975
1.1875 0.6875 -1.1
1.25 0.6875 -1.0375
1.1875 0.6875 -0.975
1.1875 0.75 -1.0375
1.1875 0.6875 -1.0375
1.375 0.6875 -1.1
1.375 0.6875 -0.975
1.3125 0.75 -1.1
1.375 0.75 -1.0375
1.3125 0.75 -0.975
1.3125 0.6875 -1.1
1.375 0.6875 -1.0375
1.3125 0.6875 -0.975
1.3125 0.75 -1.0375
1.3125 0.6875 -1.0375
1.5 0.6875 -1.1
1.5 0.6875 -0.975
1.4375 0.75 -1.1
1.5 0.75 -1.0375
1.4375 0.75 -0.975
1.4375 0.6875 -1.1
1.5 0.6875 -1.0375
1.4375 0.6875 -0.975
1.4375 0.75 -1.0375
1.4375 0.6875 -1.0375
1.625 0.6875 -1.1
1.625 0.6875 -0.975
1.5625 0.75 -1.1
1.625 0.75 -1.0375
1.5625 0.75 -0.975
1.5625 0.6875 -1.1
1.625 0.6875 -1.0375
1.5625 0.6875 -0.975
1.5625 0.75 -1.0375
1.5625 0.6875 -1.0375
1.75 0.6875 -1.1
1.75 0.6875 -0.975
1.6875 0.75 -1.1
1.75 0.75 -1.0375
1.6875 0.75 -0.975
1.6875 0.6875 -1.1
1.75 0.6875 -1.0375
1.6875 0.6875 -0.975
1.6875 0.75 -1.0375
1.6875 0.6875 -1.0375
1.875 0.6875 -1.1
1.875 0.6875 -0.975
1.8125 0.75 -1.1
1.875 0.75 -1.0375
1.8125 0.75 -0.975
1.8125 0.6875 -1.1
1.875 0.6875 -1.0375
1.8125 0.6875 -0.975
1.8125 0.75 -1.0375
1.8125 0.6875 -1.0375
2 0.6875 -1.1
2 0.6875 -0.975
1.9375 0.75 -1.1
2 0.75 -1.0375
1.9375 0.75 -0.975
1.9375 0.6875 -1.1
2 0.6875 -1.0375
1.9375 0.6875 -0.975
1.9375 0.75 -1.0375
1.9375 0.6875 -1.0375
2.125 0.6875 -1.1
2.125 0.6875 -0.975
2.0625 0.75 -1.1
2.125 0.75 -1.0375
2.0625 0.75 -0.975
2.0625 0.6875 -1.1
2.125 0.6875 -1.0375
2.0625 0.6875 -0.975
2.0625 0.75 -1.0375
2.0625 0.6875 -1.0375
2.25 0.6875 -1.1
2.25 0.6875 -0.975
2.1875 0.75 -1.1
2.25 0.75 -1.0375
2.1875 0.75 -0.975
2.1875 0.6875 -1.1
2.25 0.6875 -1.0375
2.1875 0.6875 -0.975
2.1875 0.75 -1.0375
2.1875 0.6875 -1.0375
2.375 0.6875 -1.1
2.375 0.6875 -0.975
2.3125 0.75 -1.1
2.375 0.75 -1.0375
2.3125 0.75 -0.975
2.3125 0.6875 -1.1
2.375 0.6875 -1.0375
2.3125 0.6875 -0.975
2.3125 0.75 -1.0375
2.3125 0.6875 -1.0375
2.5 0.6875 -1.1
2.5 0.6875 -0.975
2.4375 0.75 -1.1
2.5 0.75 -1.0375
2.4375 0.75 -0.975
2.4375 0.6875 -1.1
2.5 0.6875 -1.0375
2.4375 0.6875 -0.975
2.4375 0.75 -1.0375
2.4375 0.6875 -1.0375
2.625 0.6875 -1.1
2.625 0.6875 -0.975
2.5625 0.75 -1.1
2.625 0.75 -1.0375
2.5625 0.75 -0.975
2.5625 0.6875 -1.1
2.625 0.6875 -1.0375
2.5625 0.6875 -0.975
2.5625 0.75 -1.0375
2.5625 0.6875 -1.0375
2.75 0.6875 -1.1
2.75 0.6875 -0.975
2.6875 0.75 -1.1
2.75 0.75 -1.0375
2.6875 0.75 -0.975
2.6875 0.6875 -1.1
2.75 0.6875 -1.0375
2.6875 0.6875 -0.975
2.6875 0.75 -1.0375
2.6875 0.6875 -1.0375
2.875 0.6875 -1.1
2.875 0.6875 -0.975
2.8125 0.75 -1.1
2.875 0.75 -1.0375
2.8125 0.75 -0.975
2.8125 0.6875 -1.1
2.875 0.6875 -1.0375
2.8125 0.6875 -0.975
2.8125 0.75 -1.0375
2.8125 0.6875 -1.0375
3 0.6875 -1.1
3 0.6875 -0.975
2.9375 0.75 -1.1
3 0.75 -1.0375
2.9375 0.75 -0.975
2.9375 0.6875 -1.1
3 0.6875 -1.0375
2.9375 0.6875 -0.975
2.9375 0.75 -1.0375
2.9375 0.6875 -1.0375
3.125 0.6875 -1.1
3.125 0.6875 -0.975
3.0625 0.75 -1.1
3.125 0.75 -1.0375
3.0625 0.75 -0.975
3.0625 0.6875 -1.1
3.125 0.6875 -1.0375
3.0625 0.6875 -0.975
3.0625 0.75 -1.0375
3.0625 0.6875 -1.0375
3.25 0.6875 -1.1
3.25 0.6875 -0.975
3.1875 0.75 -1.1
3.25 0.75 -1.0375
3.1875 0.75 -0.975
3.1875 0.6875 -1.1
3.25 0.6875 -1.0375
3.1875 0.6875 -0.975
3.1875 0.75 -1.0375
3.1875 0.6875 -1.0375
3.375 0.6875 -1.1
3.375 0.6875 -0.975
3.3125 0.75 -1.1
3.375 0.75 -1.0375
3.3125 0.75 -0.975
3.3125 0.6875 -1.1
3.375 0.6875 -1.0375
3.3125 0.6875 -0.975
3.3125 0.75 -1.0375
3.3125 0.6875 -1.0375
3.5 0.6875 -1.1
3.5 0.6875 -0.975
3.4375 0.75 -1.1
3.5 0.75 -1.0375
3.4375 0.75 -0.975
3.4375 0.6875 -1.1
3.5 0.6875 -1.0375
3.4375 0.6875 -0.975
3.4375 0.75 -1.0375
3.4375 0.6875 -1.0375
3.625 0.6875 -1.1
3.625 0.6875 -0.975
3.5625 0.75 -1.1
3.625 0.75 -1.0375
3.5625 0.75 -0.975
3.5625 0.6875 -1.1
3.625 0.6875 -1.0375
3.5625 0.6875 -0.975
3.5625 0.75 -1.0375
3.5625 0.6875 -1.0375
3.75 0.6875 -1.1
3.75 0.6875 -0.975
3.6875 0.75 -1.1
3.75 0.75 -1.0375
3.6875 0.75 -0.975
3.6875 0.6875 -1.1
3.75 0.6875 -1.0375
3.6875 0.6875 -0.975
3.6875 0.75 -1.0375
3.6875 0.6875 -1.0375
3.875 0.6875 -1.1
3.875 0.6875 -0.975
3.8125 0.75 -1.1
3.875 0.75 -1.0375
3.8125 0.75 -0.975
3.8125 0.6875 -1.1
3.875 0.6875 -1.0375
3.8125 0.6875 -0.975
3.8125 0.75 -1.0375
3.8125 0.6875 -1.0375
4 0.6875 -1.1
4 0.6875 -0.975
3.9375 0.75 -1.1
4 0.75 -1.0375
3.9375 0.75 -0.975
3.9375 0.6875 -1.1
4 0.6875 -1.0375
3.9375 0.6875 -0.975
3.9375 0.75 -1.0375
3.9375 0.6875 -1.0375
0 0.8125 -1.1
0.125 0.8125 -1.1
0.125 0.8125 -0.975
0 0.8125 -0.975
0.0625 0.875 -1.1
0.125 0.875 -1.0375
0.0625 0.875 -0.975
0 0.875 -1.0375
0.0625 0.8125 -1.1
0.125 0.8125 -1.0375
0.0625 0.8125 -0.975
0 0.8125 -1.0375
0.0625 0.875 -1.0375
0.0625 0.8125 -1.0375
0.25 0.8125 -1.1
0.25 0.8125 -0.975
0.1875 0.875 -1.1
0.25 0.875 -1.0375
0.1875 0.875 -0.975
0.1875 0.8125 -1.1
0.25 0.8125 -1.0375
0.1875 0.8125 -0.975
0.1875 0.875 -1.0375
0.1875 0.8125 -1.0375
0.375 0.8125 -1.1
0.375 0.8125 -0.975
0.3125 0.875 -1.1
0.375 0.875 -1.0375
0.3125 0.875 -0.975
0.3125 0.8125 -1.1
0.375 0.8125 -1.0375
0.3125 0.8125 -0.975
0.3125 0.875 -1.0375
0.3125 0.8125 -1.0375
0.5 0.8125 -1.1
0.5 0.8125 -0.975
0.4375 0.875 -1.1
0.5 0.875 -1.0375
0.4375 0.875 -0.975
0.4375 0.8125 -1.1
0.5 0.8125 -1.0375
0.4375 0.8125 -0.975
0.4375 0.875 -1.0375
0.4375 0.8125 -1.0375
0.625 0.8125 -1.1
0.625 0.8125 -0.975
0.5625 0.875 -1.1
0.625 0.875 -1.0375
0.5625 0.875 -0.975
0.5625 0.8125 -1.1
0.625 0.8125 -1.0375
0.5625 0.8125 -0.975
0.5625 0.875 -1.0375
0.5625 0.8125 -1.0375
0.75 0.8125 -1.1
0.75 0.8125 -0.975
0.6875 0.875 -1.1
0.75 0.875 -1.0375
0.6875 0.875 -0.975
0.6875 0.8125 -1.1
0.75 0.8125 -1.0375
0.6875 0.8125 -0.975
0.6875 0.875 -1.0375
0.6875 0.8125 -1.0375
0.875 0.8125 -1.1
0.875 0.8125 -0.975
0.8125 0.875 -1.1
0.875 0.875 -1.0375
0.8125 0.875 -0.975
0.8125 0.8125 -1.1
0.875 0.8125 -1.0375
0.8125 0.8125 -0.975
0.8125 0.875 -1.0375
0.8125 0.8125 -1.0375
1 0.8125 -1.1
1 0.8125 -0.975
0.9375 0.875 -1.1
1 0.875 -1.0375
0.9375 0.875 -0.975
0.9375 0.8125 -1.1
1 0.8125 -1.0375
0.9375 0.8125 -0.975
0.9375 0.875 -1.0375
0.9375 0.8125 -1.0375
1.125 0.8125 -1.1
1.125 0.8125 -0.975
1.0625 0.875 -1.1
1.125 0.875 -1.0375
1.0625 0.875 -0.975
1.0625 0.8125 -1.1
1.125 0.8125 -1.0375
1.0625 0.8125 -0.975
1.0625 0.875 -1.0375
1.0625 0.8125 -1.0375
1.25 0.8125 -1.1
1.25 0.8125 -0.975
1.1875 0.875 -1.1
1.25 0.875 -1.0375
1.1875 0.875 -0.975
1.1875 0.8125 -1.1
1.25 0.8125 -1.0375
1.1875 0.8125 -0.975
1.1875 0.875 -1.0375
1.1875 0.8125 -1.0375
1.375 0.8125 -1.1
1.375 0.8125 -0.975
1.3125 0.875 -1.1
1.375 0.875 -1.0375
1.3125 0.875 -0.975
1.3125 0.8125 -1.1
1.375 0.8125 -1.0375
1.3125 0.8125 -0.975
1.3125 0.875 -1.0375
1.3125 0.8125 -1.0375
1.5 0.8125 -1.1
1.5 0.8125 -0.975
1.4375 0.875 -1.1
1.5 0.875 -1.0375
1.4375 0.875 -0.975
1.4375 0.8125 -1.1
1.5 0.8125 -1.0375
1.4375 0.8125 -0.975
1.4375 0.875 -1.0375
1.4375 0.8125 -1.0375
1.625 0.8125 -1.1
1.625 0.8125 -0.975
1.5625 0.875 -1.1
1.625 0.875 -1.0375
1.5625 0.875 -0.975
1.5625 0.8125 -1.1
1.625 0.8125 -1.0375
1.5625 0.8125 -0.975
1.5625 0.875 -1.0375
1.5625 0.8125 -1.0375
1.75 0.8125 -1.1
1.75 0.8125 -0.975
1.6875 0.875 -1.1
1.75 0.875 -1.0375
1.6875 0.875 -0.975
1.6875 0.8125 -1.1
1.75 0.8125 -1.0375
1.6875 0.8125 -0.975
1.6875 0.875 -1.0375
1.6875 0.8125 -1.0375
1.875 0.8125 -1.1
1.875 0.8125 -0.975
1.8125 0.875 -1.1
1.875 0.875 -1.0375
1.8125 0.875 -0.975
1.8125 0.8125 -1.1
1.875 0.8125 -1.0375
1.8125 0.8125 -0.975
1.8125 0.875 -1.0375
1.8125 0.8125 -1.0375
2 0.8125 -1.1
2 0.8125 -0.975
1.9375 0.875 -1.1
2 0.875 -1.0375
1.9375 0.875 -0.975
1.9375 0.8125 -1.1
2 0.8125 -1.0375
1.9375 0.8125 -0.975
1.9375 0.875 -1.0375
1.9375 0.8125 -1.0375
2.125 0.8125 -1.1
2.125 0.8125 -0.975
2.0625 0.875 -1.1
2.125 0.875 -1.0375
2.0625 0.875 -0.975
2.0625 0.8125 -1.1
2.125 0.8125 -1.0375
2.0625 0.8125 -0.975
2.0625 0.875 -1.0375
2.0625 0.8125 -1.0375
2.25 0.8125 -1.1
2.25 0.8125 -0.975
2.1875 0.875 -1.1
2.25 0.875 -1.0375
2.1875 0.875 -0.975
2.1875 0.8125 -1.1
2.25 0.8125 -1.0375
2.1875 0.8125 -0.975
2.1875 0.875 -1.0375
2.1875 0.8125 -1.0375
2.375 0.8125 -1.1
2.375 0.8125 -0.975
2.3125 0.875 -1.1
2.375 0.875 -1.0375
2.3125 0.875 -0.975
2.3125 0.8125 -1.1
2.375 0.8125 -1.0375
2.3125 0.8125 -0.975
2.3125 0.875 -1.0375
2.3125 0.8125 -1.0375
2.5 0.8125 -1.1
2.5 0.8125 -0.975
2.4375 0.875 -1.1
2.5 0.875 -1.0375
2.4375 0.875 -0.975
2.4375 0.8125 -1.1
2.5 0.8125 -1.0375
2.4375 0.8125 -0.975
2.4375 0.875 -1.0375
2.4375 0.8125 -1.0375
2.625 0.8125 -1.1
2.625 0.8125 -0.975
2.5625 0.875 -1.1
2.625 0.875 -1.0375
2.5625 0.875 -0.975
2.5625 0.8125 -1.1
2.625 0.8125 -1.0375
2.5625 0.8125 -0.975
2.5625 0.875 -1.0375
2.5625 0.8125 -1.0375
2.75 0.8125 -1.1
2.75 0.8125 -0.975
2.6875 0.875 -1.1
2.75 0.875 -1.0375
2.6875 0.875 -0.975
2.6875 0.8125 -1.1
2.75 0.8125 -1.0375
2.6875 0.8125 -0.975
2.6875 0.875 -1.0375
2.6875 0.8125 -1.0375
2.875 0.8125 -1.1
2.875 0.8125 -0.975
2.8125 0.875 -1.1
2.875 0.875 -1.0375
2.8125 0.875 -0.975
2.8125 0.8125 -1.1
2.875 0.8125 -1.0375
2.8125 0.8125 -0.975
2.8125 0.875 -1.0375
2.8125 0.8125 -1.0375
3 0.8125 -1.1
3 0.8125 -0.975
2.9375 0.875 -1.1
3 0.875 -1.0375
2.9375 0.875 -0.975
2.9375 0.8125 -1.1
3 0.8125 -1.0375
2.9375 0.8125 -0.975
2.9375 0.875 -1.0375
2.9375 0.8125 -1.0375
3.125 0.8125 -1.1
3.125 0.8125 -0.975
3.0625 0.875 -1.1
3.125 0.875 -1.0375
3.0625 0.875 -0.975
3.0625 0.8125 -1.1
3.125 0.8125 -1.0375
3.0625 0.8125 -0.975
3.0625 0.875 -1.0375
3.0625 0.8125 -1.0375
3.25 0.8125 -1.1
3.25 0.8125 -0.975
3.1875 0.875 -1.1
3.25 0.875 -1.0375
3.1875 0.875 -0.975
3.1875 0.8125 -1.1
3.25 0.8125 -1.0375
3.1875 0.8125 -0.975
3.1875 0.875 -1.0375
3.1875 0.8125 -1.0375
3.375 0.8125 -1.1
3.375 0.8125 -0.975
3.3125 0.875 -1.1
3.375 0.875 -1.0375
3.3125 0.875 -0.975
3.3125 0.8125 -1.1
3.375 0.8125 -1.0375
3.3125 0.8125 -0.975
3.3125 0.875 -1.0375
3.3125 0.8125 -1.0375
3.5 0.8125 -1.1
3.5 0.8125 -0.975
3.4375 0.875 -1.1
3.5 0.875 -1.0375
3.4375 0.875 -0.975
3.4375 0.8125 -1.1
3.5 0.8125 -1.0375
3.4375 0.8125 -0.975
3.4375 0.875 -1.0375
3.4375 0.8125 -1.0375
3.625 0.8125 -1.1
3.625 0.8125 -0.975
3.5625 0.875 -1.1
3.625 0.875 -1.0375
3.5625 0.875 -0.975
3.5625 0.8125 -1.1
3.625 0.8125 -1.0375
3.5625 0.8125 -0.975
3.5625 0.875 -1.0375
3.5625 0.8125 -1.0375
3.75 0.8125 -1.1
3.75 0.8125 -0.975
3.6875 0.875 -1.1
3.75 0.875 -1.0375
3.6875 0.875 -0.975
3.6875 0.8125 -1.1
3.75 0.8125 -1.0375
3.6875 0.8125 -0.975
3.6875 0.875 -1.0375
3.6875 0.8125 -1.0375
3.875 0.8125 -1.1
3.875 0.8125 -0.975
3.8125 0.875 -1.1
3.875 0.875 -1.0375
3.8125 0.875 -0.975
3.8125 0.8125 -1.1
3.875 0.8125 -1.0375
3.8125 0.8125 -0.975
3.8125 0.875 -1.0375
3.8125 0.8125 -1.0375
4 0.8125 -1.1
4 0.8125 -0.975
3.9375 0.875 -1.1
4 0.875 -1.0375
3.9375 0.875 -0.975
3.9375 0.8125 -1.1
4 0.8125 -1.0375
3.9375 0.8125 -0.975
3.9375 0.875 -1.0375
3.9375 0.8125 -1.0375
0 0.9375 -1.1
0.125 0.9375 -1.1
0.125 0.9375 -0.975
0 0.9375 -0.975
0.0625 1 -1.1
0.125 1 -1.0375
0.0625 1 -0.975
0 1 -1.0375
0.0625 0.9375 -1.1
0.125 0.9375 -1.0375
0.0625 0.9375 -0.975
0 0.9375 -1.0375
0.0625 1 -1.0375
0.0625 0.9375 -1.0375
0.25 0.9375 -1.1
0.25 0.9375 -0.975
0.1875 1 -1.1
0.25 1 -1.0375
0.1875 1 -0.975
0.1875 0.9375 -1.1
0.25 0.9375 -1.0375
0.1875 0.9375 -0.975
0.1875 1 -1.0375
0.1875 0.9375 -1.0375
0.375 0.9375 -1.1
0.375 0.9375 -0.975
0.3125 1 -1.1
0.375 1 -1.0375
0.3125 1 -0.975
0.3125 0.9375 -1.1
0.375 0.9375 -1.0375
0.3125 0.9375 -0.975
0.3125 1 -1.0375
0.3125 0.9375 -1.0375
0.5 0.9375 -1.1
0.5 0.9375 -0.975
0.4375 1 -1.1
0.5 1 -1.0375
0.4375 1 -0.975
0.4375 0.9375 -1.1
0.5 0.9375 -1.0375
0.4375 0.9375 -0.975
0.4375 1 -1.0375
0.4375 0.9375 -1.0375
0.625 0.9375 -1.1
0.625 0.9375 -0.975
0.5625 1 -1.1
0.625 1 -1.0375
0.5625 1 -0.975
0.5625 0.9375 -1.1
0.625 0.9375 -1.0375
0.5625 0.9375 -0.975
0.5625 1 -1.0375
0.5625 0.9375 -1.0375
0.75 0.9375 -1.1
0.75 0.9375 -0.975
0.6875 1 -1.1
0.75 1 -1.0375
0.6875 1 -0.975
0.6875 0.9375 -1.1
0.75 0.9375 -1.0375
0.6875 0.9375 -0.975
0.6875 1 -1.0375
0.6875 0.9375 -1.0375
0.875 0.9375 -1.1
0.875 0.9375 -0.975
0.8125 1 -1.1
0.875 1 -1.0375
0.8125 1 -0.975
0.8125 0.9375 -1.1
0.875 0.9375 -1.0375
0.8125 0.9375 -0.975
0.8125 1 -1.0375
0.8125 0.9375 -1.0375
1 0.9375 -1.1
1 0.9375 -0.975
0.9375 1 -1.1
1 1 -1.0375
0.9375 1 -0.975
0.9375 0.9375 -1.1
1 0.9375 -1.0375
0.9375 0.9375 -0.975
0.9375 1 -1.0375
0.9375 0.9375 -1.0375
1.125 0.9375 -1.1
1.125 0.9375 -0.975
1.0625 1 -1.1
1.125 1 -1.0375
1.0625 1 -0.975
1.0625 0.9375 -1.1
1.125 0.9375 -1.0375
1.0625 0.9375 -0.975
1.0625 1 -1.0375
1.0625 0.9375 -1.0375
1.25 0.9375 -1.1
1.25 0.9375 -0.975
1.1875 1 -1.1
1.25 1 -1.0375
1.1875 1 -0.975
1.1875 0.9375 -1.1
1.25 0.9375 -1.0375
1.1875 0.9375 -0.975
1.1875 1 -1.0375
1.1875 0.9375 -1.0375
1.375 0.9375 -1.1
1.375 0.9375 -0.975
1.3125 1 -1.1
1.375 1 -1.0375
1.3125 1 -0.975
1.3125 0.9375 -1.1
1.375 0.9375 -1.0375
1.3125 0.9375 -0.975
1.3125 1 -1.0375
1.3125 0.9375 -1.0375
1.5 0.9375 -1.1
1.5 0.9375 -0.975
1.4375 1 -1.1
1.5 1 -1.0375
1.4375 1 -0.975
1.4375 0.9375 -1.1
1.5 0.9375 -1.0375
1.4375 0.9375 -0.975
1.4375 1 -1.0375
1.4375 0.9375 -1.0375
1.625 0.9375 -1.1
1.625 0.9375 -0.975
1.5625 1 -1.1
1.625 1 -1.0375
1.5625 1 -0.975
1.5625 0.9375 -1.1
1.625 0.9375 -1.0375
1.5625 0.9375 -0.975
1.5625 1 -1.0375
1.5625 0.9375 -1.0375
1.75 0.9375 -1.1
1.75 0.9375 -0.975
1.6875 1 -1.1
1.75 1 -1.0375
1.6875 1 -0.975
1.6875 0.9375 -1.1
1.75 0.9375 -1.0375
1.6875 0.9375 -0.975
1.6875 1 -1.0375
1.6875 0.9375 -1.0375
1.875 0.9375 -1.1
1.875 0.9375 -0.975
1.8125 1 -1.1
1.875 1 -1.0375
1.8125 1 -0.975
1.8125 0.9375 -1.1
1.875 0.9375 -1.0375
1.8125 0.9375 -0.975
1.8125 1 -1.0375
1.8125 0.9375 -1.0375
2 0.9375 -1.1
2 0.9375 -0.975
1.9375 1 -1.1
2 1 -1.0375
1.9375 1 -0.975
1.9375 0.9375 -1.1
2 0.9375 -1.0375
1.9375 0.9375 -0.975
1.9375 1 -1.0375
1.9375 0.9375 -1.0375
2.125 0.9375 -1.1
2.125 0.9375 -0.975
2.0625 1 -1.1
2.125 1 -1.0375
2.0625 1 -0.975
2.0625 0.9375 -1.1
2.125 0.9375 -1.0375
2.0625 0.9375 -0.975
2.0625 1 -1.0375
2.0625 0.9375 -1.0375
2.25 0.9375 -1.1
2.25 0.9375 -0.975
2.1875 1 -1.1
2.25 1 -1.0375
2.1875 1 -0.975
2.1875 0.9375 -1.1
2.25 0.9375 -1.0375
2.1875 0.9375 -0.975
2.1875 1 -1.0375
2.1875 0.9375 -1.0375
2.375 0.9375 -1.1
2.375 0.9375 -0.975
2.3125 1 -1.1
2.375 1 -1.0375
2.3125 1 -0.975
2.3125 0.9375 -1.1
2.375 0.9375 -1.0375
2.3125 0.9375 -0.975
2.3125 1 -1.0375
2.3125 0.9375 -1.0375
2.5 0.9375 -1.1
2.5 0.9375 -0.975
2.4375 1 -1.1
2.5 1 -1.0375
2.4375 1 -0.975
2.4375 0.9375 -1.1
2.5 0.9375 -1.0375
2.4375 0.9375 -0.975
2.4375 1 -1.0375
2.4375 0.9375 -1.0375
2.625 0.9375 -1.1
2.625 0.9375 -0.975
2.5625 1 -1.1
2.625 1 -1.0375
2.5625 1 -0.975
2.5625 0.9375 -1.1
2.625 0.9375 -1.0375
2.5625 0.9375 -0.975
2.5625 1 -1.0375
2.5625 0.9375 -1.0375
2.75 0.9375 -1.1
2.75 0.9375 -0.975
2.6875 1 -1.1
2.75 1 -1.0375
2.6875 1 -0.975
2.6875 0.9375 -1.1
2.75 0.9375 -1.0375
2.6875 0.9375 -0.975
2.6875 1 -1.0375
2.6875 0.9375 -1.0375
2.875 0.9375 -1.1
2.875 0.9375 -0.975
2.8125 1 -1.1
2.875 1 -1.0375
2.8125 1 -0.975
2.8125 0.9375 -1.1
2.875 0.9375 -1.0375
2.8125 0.9375 -0.975
2.8125 1 -1.0375
2.8125 0.9375 -1.0375
3 0.9375 -1.1
3 0.9375 -0.975
2.9375 1 -1.1
3 1 -1.0375
2.9375 1 -0.975
2.9375 0.9375 -1.1
3 0.9375 -1.0375
2.9375 0.9375 -0.975
2.9375 1 -1.0375
2.9375 0.9375 -1.0375
3.125 0.9375 -1.1
3.125 0.9375 -0.975
3.0625 1 -1.1
3.125 1 -1.0375
3.0625 1 -0.975
3.0625 0.9375 -1.1
3.125 0.9375 -1.0375
3.0625 0.9375 -0.975
3.0625 1 -1.0375
3.0625 0.9375 -1.0375
3.25 0.9375 -1.1
3.25 0.9375 -0.975
3.1875 1 -1.1
3.25 1 -1.0375
3.1875 1 -0.975
3.1875 0.9375 -1.1
3.25 0.9375 -1.0375
3.1875 0.9375 -0.975
3.1875 1 -1.0375
3.1875 0.9375 -1.0375
3.375 0.9375 -1.1
3.375 0.9375 -0.975
3.3125 1 -1.1
3.375 1 -1.0375
3.3125 1 -0.975
3.3125 0.9375 -1.1
3.375 0.9375 -1.0375
3.3125 0.9375 -0.975
3.3125 1 -1.0375
3.3125 0.9375 -1.0375
3.5 0.9375 -1.1
3.5 0.9375 -0.975
3.4375 1 -1.1
3.5 1 -1.0375
3.4375 1 -0.975
3.4375 0.9375 -1.1
3.5 0.9375 -1.0375
3.4375 0.9375 -0.975
3.4375 1 -1.0375
3.4375 0.9375 -1.0375
3.625 0.9375 -1.1
3.625 0.9375 -0.975
3.5625 1 -1.1
3.625 1 -1.0375
3.5625 1 -0.975
3.5625 0.9375 -1.1
3.625 0.9375 -1.0375
3.5625 0.9375 -0.975
3.5625 1 -1.0375
3.5625 0.9375 -1.0375
3.75 0.9375 -1.1
3.75 0.9375 -0.975
3.6875 1 -1.1
3.75 1 -1.0375
3.6875 1 -0.975
3.6875 0.9375 -1.1
3.75 0.9375 -1.0375
3.6875 0.9375 -0.975
3.6875 1 -1.0375
3.6875 0.9375 -1.0375
3.875 0.9375 -1.1
3.875 0.9375 -0.975
3.8125 1 -1.1
3.875 1 -1.0375
3.8125 1 -0.975
3.8125 0.9375 -1.1
3.875 0.9375 -1.0375
3.8125 0.9375 -0.975
3.8125 1 -1.0375
3.8125 0.9375 -1.0375
4 0.9375 -1.1
4 0.9375 -0.975
3.9375 1 -1.1
4 1 -1.0375
3.9375 1 -0.975
3.9375 0.9375 -1.1
4 0.9375 -1.0375
3.9375 0.9375 -0.975
3.9375 1 -1.0375
3.9375 0.9375 -1.0375
0.125 0 -0.9125
0.0625 0 -0.85
0 0 -0.9125
0.125 0.0625 -0.85
0 0.0625 -0.85
0.125 0.125 -0.9125
0.0625 0.125 -0.85
0 0.125 -0.9125
0.0625 0 -0.9125
0.125 0.0625 -0.9125
0.0625 0.0625 -0.85
0 0.0625 -0.9125
0.0625 0.125 -0.9125
0.0625 0.0625 -0.9125
0.25 0 -0.9125
0.1875 0 -0.85
0.25 0.0625 -0.85
0.25 0.125 -0.9125
0.1875 0.125 -0.85
0.1875 0 -0.9125
0.25 0.0625 -0.9125
0.1875 0.0625 -0.85
0.1875 0.125 -0.9125
0.1875 0.0625 -0.9125
0.375 0 -0.9125
0.3125 0 -0.85
0.375 0.0625 -0.85
0.375 0.125 -0.9125
0.3125 0.125 -0.85
0.3125 0 -0.9125
0.375 0.0625 -0.9125
0.3125 0.0625 -0.85
0.3125 0.125 -0.9125
0.3125 0.0625 -0.9125
0.5 0 -0.9125
0.4375 0 -0.85
0.5 0.0625 -0.85
0.5 0.125 -0.9125
0.4375 0.125 -0.85
0.4375 0 -0.9125
0.5 0.0625 -0.9125
0.4375 0.0625 -0.85
0.4375 0.125 -0.9125
0.4375 0.0625 -0.9125
0.625 0 -0.9125
0.5625 0 -0.85
0.625 0.0625 -0.85
0.625 0.125 -0.9125
0.5625 0.125 -0.85
0.5625 0 -0.9125
0.625 0.0625 -0.9125
0.5625 0.0625 -0.85
0.5625 0.125 -0.9125
0.5625 0.0625 -0.9125
0.75 0 -0.9125
0.6875 0 -0.85
0.75 0.0625 -0.85
0.75 0.125 -0.9125
0.6875 0.125 -0.85
0.6875 0 -0.9125
0.75 0.0625 -0.9125
0.6875 0.0625 -0.85
0.6875 0.125 -0.9125
0.6875 0.0625 -0.9125
0.875 0 -0.9125
0.8125 0 -0.85
0.875 0.0625 -0.85
0.875 0.125 -0.9125
0.8125 0.125 -0.85
0.8125 0 -0.9125
0.875 0.0625 -0.9125
0.8125 0.0625 -0.85
0.8125 0.125 -0.9125
0.8125 0.0625 -0.9125
1 0 -0.9125
0.9375 0 -0.85
1 0.0625 -0.85
1 0.125 -0.9125
0.9375 0.125 -0.85
0.9375 0 -0.9125
1 0.0625 -0.9125
0.9375 0.0625 -0.85
0.9375 0.125 -0.9125
0.9375 0.0625 -0.9125
1.125 0 -0.9125
1.0625 0 -0.85
1.125 0.0625 -0.85
1.125 0.125 -0.9125
1.0625 0.125 -0.85
1.0625 0 -0.9125
1.125 0.0625 -0.9125
1.0625 0.0625 -0.85
1.0625 0.125 -0.9125
1.0625 0.0625 -0.9125
1.25 0 -0.9125
1.1875 0 -0.85
1.25 0.0625 -0.85
1.25 0.125 -0.9125
1.1875 0.125 -0.85
1.1875 0 -0.9125
1.25 0.0625 -0.9125
1.1875 0.0625 -0.85
1.1875 0.125 -0.9125
1.1875 0.0625 -0.9125
1.375 0 -0.9125
1.3125 0 -0.85
1.375 0.0625 -0.85
1.375 0.125 -0.9125
1.3125 0.125 -0.85
1.3125 0 -0.9125
1.375 0.0625 -0.9125
1.3125 0.0625 -0.85
1.3125 0.125 -0.9125
1.3125 0.0625 -0.9125
1.5 0 -0.9125
1.4375 0 -0.85
1.5 0.0625 -0.85
1.5 0.125 -0.9125
1.4375 0.125 -0.85
1.4375 0 -0.9125
1.5 0.0625 -0.9125
1.4375 0.0625 -0.85
1.4375 0.125 -0.9125
1.4375 0.0625 -0.9125
1.625 0 -0.9125
1.5625 0 -0.85
1.625 0.0625 -0.85
1.625 0.125 -0.9125
1.5625 0.125 -0.85
1.5625 0 -0.9125
1.625 0.0625 -0.9125
1.5625 0.0625 -0.85
1.5625 0.125 -0.9125
1.5625 0.0625 -0.9125
1.75 0 -0.9125
1.6875 0 -0.85
1.75 0.0625 -0.85
1.75 0.125 -0.9125
1.6875 0.125 -0.85
1.6875 0 -0.9125
1.75 0.0625 -0.9125
1.6875 0.0625 -0.85
1.6875 0.125 -0.9125
1.6875 0.0625 -0.9125
1.875 0 -0.9125
1.8125 0 -0.85
1.875 0.0625 -0.85
1.875 0.125 -0.9125
1.8125 0.125 -0.85
1.8125 0 -0.9125
1.875 0.0625 -0.9125
1.8125 0.0625 -0.85
1.8125 0.125 -0.9125
1.8125 0.0625 -0.9125
2 0 -0.9125
1.9375 0 -0.85
2 0.0625 -0.85
2 0.125 -0.9125
1.9375 0.125 -0.85
1.9375 0 -0.9125
2 0.0625 -0.9125
1.9375 0.0625 -0.85
1.9375 0.125 -0.9125
1.9375 0.0625 -0.9125
2.125 0 -0.9125
2.0625 0 -0.85
2.125 0.0625 -0.85
2.125 0.125 -0.9125
2.0625 0.125 -0.85
2.0625 0 -0.9125
2.125 0.0625 -0.9125
2.0625 0.0625 -0.85
2.0625 0.125 -0.9125
2.0625 0.0625 -0.9125
2.25 0 -0.9125
2.1875 0 -0.85
2.25 0.0625 -0.85
2.25 0.125 -0.9125
2.1875 0.125 -0.85
2.1875 0 -0.9125
2.25 0.0625 -0.9125
2.1875 0.0625 -0.85
2.1875 0.125 -0.9125
2.1875 0.0625 -0.9125
2.375 0 -0.9125
2.3125 0 -0.85
2.375 0.0625 -0.85
2.375 0.125 -0.9125
2.3125 0.125 -0.85
2.3125 0 -0.9125
2.375 0.0625 -0.9125
2.3125 0.0625 -0.85
2.3125 0.125 -0.9125
2.3125 0.0625 -0.9125
2.5 0 -0.9125
2.4375 0 -0.85
2.5 0.0625 -0.85
2.5 0.125 -0.9125
2.4375 0.125 -0.85
2.4375 0 -0.9125
2.5 0.0625 -0.9125
2.4375 0.0625 -0.85
2.4375 0.125 -0.9125
2.4375 0.0625 -0.9125
2.625 0 -0.9125
2.5625 0 -0.85
2.625 0.0625 -0.85
2.625 0.125 -0.9125
2.5625 0.125 -0.85
2.5625 0 -0.9125
2.625 0.0625 -0.9125
2.5625 0.0625 -0.85
2.5625 0.125 -0.9125
2.5625 0.0625 -0.9125
2.75 0 -0.9125
2.6875 0 -0.85
2.75 0.0625 -0.85
2.75 0.125 -0.9125
2.6875 0.125 -0.85
2.6875 0 -0.9125
2.75 0.0625 -0.9125
2.6875 0.0625 -0.85
2.6875 0.125 -0.9125
2.6875 0.0625 -0.9125
2.875 0 -0.9125
2.8125 0 -0.85
2.875 0.0625 -0.85
2.875 0.125 -0.9125
2.8125 0.125 -0.85
2.8125 0 -0.9125
2.875 0.0625 -0.9125
2.8125 0.0625 -0.85
2.8125 0.125 -0.9125
2.8125 0.0625 -0.9125
3 0 -0.9125
2.9375 0 -0.85
3 0.0625 -0.85
3 0.125 -0.9125
2.9375 0.125 -0.85
2.9375 0 -0.9125
3 0.0625 -0.9125
2.9375 0.0625 -0.85
2.9375 0.125 -0.9125
2.9375 0.0625 -0.9125
3.125 0 -0.9125
3.0625 0 -0.85
3.125 0.0625 -0.85
3.125 0.125 -0.9125
3.0625 0.125 -0.85
3.0625 0 -0.9125
3.125 0.0625 -0.9125
3.0625 0.0625 -0.85
3.0625 0.125 -0.9125
3.0625 0.0625 -0.9125
3.25 0 -0.9125
3.1875 0 -0.85
3.25 0.0625 -0.85
3.25 0.125 -0.9125
3.1875 0.125 -0.85
3.1875 0 -0.9125
3.25 0.0625 -0.9125
3.1875 0.0625 -0.85
3.1875 0.125 -0.9125
3.1875 0.0625 -0.9125
3.375 0 -0.9125
3.3125 0 -0.85
3.375 0.0625 -0.85
3.375 0.125 -0.9125
3.3125 0.125 -0.85
3.3125 0 -0.9125
3.375 0.0625 -0.9125
3.3125 0.0625 -0.85
3.3125 0.125 -0.9125
3.3125 0.0625 -0.9125
3.5 0 -0.9125
3.4375 0 -0.85
3.5 0.0625 -0.85
3.5 0.125 -0.9125
3.4375 0.125 -0.85
3.4375 0 -0.9125
3.5 0.0625 -0.9125
3.4375 0.0625 -0.85
3.4375 0.125 -0.9125
3.4375 0.0625 -0.9125
3.625 0 -0.9125
3.5625 0 -0.85
3.625 0.0625 -0.85
3.625 0.125 -0.9125
3.5625 0.125 -0.85
3.5625 0 -0.9125
3.625 0.0625 -0.9125
3.5625 0.0625 -0.85
3.5625 0.125 -0.9125
3.5625 0.0625 -0.9125
3.75 0 -0.9125
3.6875 0 -0.85
3.75 0.0625 -0.85
3.75 0.125 -0.9125
3.6875 0.125 -0.85
3.6875 0 -0.9125
3.75 0.0625 -0.9125
3.6875 0.0625 -0.85
3.6875 0.125 -0.9125
3.6875 0.0625 -0.9125
3.875 0 -0.9125
3.8125 0 -0.85
3.875 0.0625 -0.85
3.875 0.125 -0.9125
3.8125 0.125 -0.85
3.8125 0 -0.9125
3.875 0.0625 -0.9125
3.8125 0.0625 -0.85
3.8125 0.125 -0.9125
3.8125 0.0625 -0.9125
4 0 -0.9125
3.9375 0 -0.85
4 0.0625 -0.85
4 0.125 -0.9125
3.9375 0.125 -0.85
3.9375 0 -0.9125
4 0.0625 -0.9125
3.9375 0.0625 -0.85
3.9375 0.125 -0.9125
3.9375 0.0625 -0.9125
0.125 0.1875 -0.85
0 0.1875 -0.85
0.125 0.25 -0.9125
0.0625 0.25 -0.85
0 0.25 -0.9125
0.125 0.1875 -0.9125
0.0625 0.1875 -0.85
0 0.1875 -0.9125
0.0625 0.25 -0.9125
0.0625 0.1875 -0.9125
0.25 0.1875 -0.85
0.25 0.25 -0.9125
0.1875 0.25 -0.85
0.25 0.1875 -0.9125
0.1875 0.1875 -0.85
0.1875 0.25 -0.9125
0.1875 0.1875 -0.9125
0.375 0.1875 -0.85
0.375 0.25 -0.9125
0.3125 0.25 -0.85
0.375 0.1875 -0.9125
0.3125 0.1875 -0.85
0.3125 0.25 -0.9125
0.3125 0.1875 -0.9125
0.5 0.1875 -0.85
0.5 0.25 -0.9125
0.4375 0.25 -0.85
0.5 0.1875 -0.9125
0.4375 0.1875 -0.85
0.4375 0.25 -0.9125
0.4375 0.1875 -0.9125
0.625 0.1875 -0.85
0.625 0.25 -0.9125
0.5625 0.25 -0.85
0.625 0.1875 -0.9125
0.5625 0.1875 -0.85
0.5625 0.25 -0.9125
0.5625 0.1875 -0.9125
0.75 0.1875 -0.85
0.75 0.25 -0.9125
0.6875 0.25 -0.85
0.75 0.1875 -0.9125
0.6875 0.1875 -0.85
0.6875 0.25 -0.9125
0.6875 0.1875 -0.9125
0.875 0.1875 -0.85
0.875 0.25 -0.9125
0.8125 0.25 -0.85
0.875 0.1875 -0.9125
0.8125 0.1875 -0.85
0.8125 0.25 -0.9125
0.8125 0.1875 -0.9125
1 0.1875 -0.85
1 0.25 -0.9125
0.9375 0.25 -0.85
1 0.1875 -0.9125
0.9375 0.1875 -0.85
0.9375 0.25 -0.9125
0.9375 0.1875 -0.9125
1.125 0.1875 -0.85
1.125 0.25 -0.9125
1.0625 0.25 -0.85
1.125 0.1875 -0.9125
1.0625 0.1875 -0.85
1.0625 0.25 -0.9125
1.0625 0.1875 -0.9125
1.25 0.1875 -0.85
1.25 0.25 -0.9125
1.1875 0.25 -0.85
1.25 0.1875 -0.9125
1.1875 0.1875 -0.85
1.1875 0.25 -0.9125
1.1875 0.1875 -0.9125
1.375 0.1875 -0.85
1.375 0.25 -0.9125
1.3125 0.25 -0.85
1.375 0.1875 -0.9125
1.3125 0.1875 -0.85
1.3125 0.25 -0.9125
1.3125 0.1875 -0.9125
1.5 0.1875 -0.85
1.5 0.25 -0.9125
1.4375 0.25 -0.85
1.5 0.1875 -0.9125
1.4375 0.1875 -0.85
1.4375 0.25 -0.9125
1.4375 0.1875 -0.9125
1.625 0.1875 -0.85
1.625 0.25 -0.9125
1.5625 0.25 -0.85
1.625 0.1875 -0.9125
1.5625 0.1875 -0.85
1.5625 0.25 -0.9125
1.5625 0.1875 -0.9125
1.75 0.1875 -0.85
1.75 0.25 -0.9125
1.6875 0.25 -0.85
1.75 0.1875 -0.9125
1.6875 0.1875 -0.85
1.6875 0.25 -0.9125
1.6875 0.1875 -0.9125
1.875 0.1875 -0.85
1.875 0.25 -0.9125
1.8125 0.25 -0.85
1.875 0.1875 -0.9125
1.8125 0.1875 -0.85
1.8125 0.25 -0.9125
1.8125 0.1875 -0.9125
2 0.1875 -0.85
2 0.25 -0.9125
1.9375 0.25 -0.85
2 0.1875 -0.9125
1.9375 0.1875 -0.85
1.9375 0.25 -0.9125
1.9375 0.1875 -0.9125
2.125 0.1875 -0.85
2.125 0.25 -0.9125
2.0625 0.25 -0.85
2.125 0.1875 -0.9125
2.0625 0.1875 -0.85
2.0625 0.25 -0.9125
2.0625 0.1875 -0.9125
2.25 0.1875 -0.85
2.25 0.25 -0.9125
2.1875 0.25 -0.85
2.25 0.1875 -0.9125
2.1875 0.1875 -0.85
2.1875 0.25 -0.9125
2.1875 0.1875 -0.9125
2.375 0.1875 -0.85
2.375 0.25 -0.9125
2.3125 0.25 -0.85
2.375 0.1875 -0.9125
2.3125 0.1875 -0.85
2.3125 0.25 -0.9125
2.3125 0.1875 -0.9125
2.5 0.1875 -0.85
2.5 0.25 -0.9125
2.4375 0.25 -0.85
2.5 0.1875 -0.9125
2.4375 0.1875 -0.85
2.4375 0.25 -0.9125
2.4375 0.1875 -0.9125
2.625 0.1875 -0.85
2.625 0.25 -0.9125
2.5625 0.25 -0.85
2.625 0.1875 -0.9125
2.5625 0.1875 -0.85
2.5625 0.25 -0.9125
2.5625 0.1875 -0.9125
2.75 0.1875 -0.85
2.75 0.25 -0.9125
2.6875 0.25 -0.85
2.75 0.1875 -0.9125
2.6875 0.1875 -0.85
2.6875 0.25 -0.9125
2.6875 0.1875 -0.9125
2.875 0.1875 -0.85
2.875 0.25 -0.9125
2.8125 0.25 -0.85
2.875 0.1875 -0.9125
2.8125 0.1875 -0.85
2.8125 0.25 -0.9125
2.8125 0.1875 -0.9125
3 0.1875 -0.85
3 0.25 -0.9125
2.9375 0.25 -0.85
3 0.1875 -0.9125
2.9375 0.1875 -0.85
2.9375 0.25 -0.9125
2.9375 0.1875 -0.9125
3.125 0.1875 -0.85
3.125 0.25 -0.9125
3.0625 0.25 -0.85
3.125 0.1875 -0.9125
3.0625 0.1875 -0.85
3.0625 0.25 -0.9125
3.0625 0.1875 -0.9125
3.25 0.1875 -0.85
3.25 0.25 -0.9125
3.1875 0.25 -0.85
3.25 0.1875 -0.9125
3.1875 0.1875 -0.85
3.1875 0.25 -0.9125
3.1875 0.1875 -0.9125
3.375 0.1875 -0.85
3.375 0.25 -0.9125
3.3125 0.25 -0.85
3.375 0.1875 -0.9125
3.3125 0.1875 -0.85
3.3125 0.25 -0.9125
3.3125 0.1875 -0.9125
3.5 0.1875 -0.85
3.5 0.25 -0.9125
3.4375 0.25 -0.85
3.5 0.1875 -0.9125
3.4375 0.1875 -0.85
3.4375 0.25 -0.9125
3.4375 0.1875 -0.9125
3.625 0.1875 -0.85
3.625 0.25 -0.9125
3.5625 0.25 -0.85
3.625 0.1875 -0.9125
3.5625 0.1875 -0.85
3.5625 0.25 -0.9125
3.5625 0.1875 -0.9125
3.75 0.1875 -0.85
3.75 0.25 -0.9125
3.6875 0.25 -0.85
3.75 0.1875 -0.9125
3.6875 0.1875 -0.85
3.6875 0.25 -0.9125
3.6875 0.1875 -0.9125
3.875 0.1875 -0.85
3.875 0.25 -0.9125
3.8125 0.25 -0.85
3.875 0.1875 -0.9125
3.8125 0.1875 -0.85
3.8125 0.25 -0.9125
3.8125 0.1875 -0.9125
4 0.1875 -0.85
4 0.25 -0.9125
3.9375 0.25 -0.85
4 0.1875 -0.9125
3.9375 0.1875 -0.85
3.9375 0.25 -0.9125
3.9375 0.1875 -0.9125
0.125 0.3125 -0.85
0 0.3125 -0.85
0.125 0.375 -0.9125
0.0625 0.375 -0.85
0 0.375 -0.9125
0.125 0.3125 -0.9125
0.0625 0.3125 -0.85
0 0.3125 -0.9125
0.0625 0.375 -0.9125
0.0625 0.3125 -0.9125
0.25 0.3125 -0.85
0.25 0.375 -0.9125
0.1875 0.375 -0.85
0.25 0.3125 -0.9125
0.1875 0.3125 -0.85
0.1875 0.375 -0.9125
0.1875 0.3125 -0.9125
0.375 0.3125 -0.85
0.375 0.375 -0.9125
0.3125 0.375 -0.85
0.375 0.3125 -0.9125
0.3125 0.3125 -0.85
0.3125 0.375 -0.9125
0.3125 0.3125 -0.9125
0.5 0.3125 -0.85
0.5 0.375 -0.9125
0.4375 0.375 -0.85
0.5 0.3125 -0.9125
0.4375 0.3125 -0.85
0.4375 0.375 -0.9125
0.4375 0.3125 -0.9125
0.625 0.3125 -0.85
0.625 0.375 -0.9125
0.5625 0.375 -0.85
0.625 0.3125 -0.9125
0.5625 0.3125 -0.85
0.5625 0.375 -0.9125
0.5625 0.3125 -0.9125
0.75 0.3125 -0.85
0.75 0.375 -0.9125
0.6875 0.375 -0.85
0.75 0.3125 -0.9125
0.6875 0.3125 -0.85
0.6875 0.375 -0.9125
0.6875 0.3125 -0.9125
0.875 0.3125 -0.85
0.875 0.375 -0.9125
0.8125 0.375 -0.85
0.875 0.3125 -0.9125
0.8125 0.3125 -0.85
0.8125 0.375 -0.9125
0.8125 0.3125 -0.9125
1 0.3125 -0.85
1 0.375 -0.9125
0.9375 0.375 -0.85
1 0.3125 -0.9125
0.9375 0.3125 -0.85
0.9375 0.375 -0.9125
0.9375 0.3125 -0.9125
1.125 0.3125 -0.85
1.125 0.375 -0.9125
1.0625 0.375 -0.85
1.125 0.3125 -0.9125
1.0625 0.3125 -0.85
1.0625 0.375 -0.9125
1.0625 0.3125 -0.9125
1.25 0.3125 -0.85
1.25 0.375 -0.9125
1.1875 0.375 -0.85
1.25 0.3125 -0.9125
1.1875 0.3125 -0.85
1.1875 0.375 -0.9125
1.1875 0.3125 -0.9125
1.375 0.3125 -0.85
1.375 0.375 -0.9125
1.3125 0.375 -0.85
1.375 0.3125 -0.9125
1.3125 0.3125 -0.85
1.3125 0.375 -0.9125
1.3125 0.3125 -0.9125
1.5 0.3125 -0.85
1.5 0.375 -0.9125
1.4375 0.375 -0.85
1.5 0.3125 -0.9125
1.4375 0.3125 -0.85
1.4375 0.375 -0.9125
1.4375 0.3125 -0.9125
1.625 0.3125 -0.85
1.625 0.375 -0.9125
1.5625 0.375 -0.85
1.625 0.3125 -0.9125
1.5625 0.3125 -0.85
1.5625 0.375 -0.9125
1.5625 0.3125 -0.9125
1.75 0.3125 -0.85
1.75 0.375 -0.9125
1.6875 0.375 -0.85
1.75 0.3125 -0.9125
1.6875 0.3125 -0.85
1.6875 0.375 -0.9125
1.6875 0.3125 -0.9125
1.875 0.3125 -0.85
1.875 0.375 -0.9125
1.8125 0.375 -0.85
1.875 0.3125 -0.9125
1.8125 0.3125 -0.85
1.8125 0.375 -0.9125
1.8125 0.3125 -0.9125
2 0.3125 -0.85
2 0.375 -0.9125
1.9375 0.375 -0.85
2 0.3125 -0.9125
1.9375 0.3125 -0.85
1.9375 0.375 -0.9125
1.9375 0.3125 -0.9125
2.125 0.3125 -0.85
2.125 0.375 -0.9125
2.0625 0.375 -0.85
2.125 0.3125 -0.9125
2.0625 0.3125 -0.85
2.0625 0.375 -0.9125
2.0625 0.3125 -0.9125
2.25 0.3125 -0.85
2.25 0.375 -0.9125
2.1875 0.375 -0.85
2.25 0.3125 -0.9125
2.1875 0.3125 -0.85
2.1875 0.375 -0.9125
2.1875 0.3125 -0.9125
2.375 0.3125 -0.85
2.375 0.375 -0.9125
2.3125 0.375 -0.85
2.375 0.3125 -0.9125
2.3125 0.3125 -0.85
2.3125 0.375 -0.9125
2.3125 0.3125 -0.9125
2.5 0.3125 -0.85
2.5 0.375 -0.9125
2.4375 0.375 -0.85
2.5 0.3125 -0.9125
2.4375 0.3125 -0.85
2.4375 0.375 -0.9125
2.4375 0.3125 -0.9125
2.625 0.3125 -0.85
2.625 0.375 -0.9125
2.5625 0.375 -0.85
2.625 0.3125 -0.9125
2.5625 0.3125 -0.85
2.5625 0.375 -0.9125
2.5625 0.3125 -0.9125
2.75 0.3125 -0.85
2.75 0.375 -0.9125
2.6875 0.375 -0.85
2.75 0.3125 -0.9125
2.6875 0.3125 -0.85
2.6875 0.375 -0.9125
2.6875 0.3125 -0.9125
2.875 0.3125 -0.85
2.875 0.375 -0.9125
2.8125 0.375 -0.85
2.875 0.3125 -0.9125
2.8125 0.3125 -0.85
2.8125 0.375 -0.9125
2.8125 0.3125 -0.9125
3 0.3125 -0.85
3 0.375 -0.9125
2.9375 0.375 -0.85
3 0.3125 -0.9125
2.9375 0.3125 -0.85
2.9375 0.375 -0.9125
2.9375 0.3125 -0.9125
3.125 0.3125 -0.85
3.125 0.375 -0.9125
3.0625 0.375 -0.85
3.125 0.3125 -0.9125
3.0625 0.3125 -0.85
3.0625 0.375 -0.9125
3.0625 0.3125 -0.9125
3.25 0.3125 -0.85
3.25 0.375 -0.9125
3.1875 0.375 -0.85
3.25 0.3125 -0.9125
3.1875 0.3125 -0.85
3.1875 0.375 -0.9125
3.1875 0.3125 -0.9125
3.375 0.3125 -0.85
3.375 0.375 -0.9125
3.3125 0.375 -0.85
3.375 0.3125 -0.9125
3.3125 0.3125 -0.85
3.3125 0.375 -0.9125
3.3125 0.3125 -0.9125
3.5 0.3125 -0.85
3.5 0.375 -0.9125
3.4375 0.375 -0.85
3.5 0.3125 -0.9125
3.4375 0.3125 -0.85
3.4375 0.375 -0.9125
3.4375 0.3125 -0.9125
3.625 0.3125 -0.85
3.625 0.375 -0.9125
3.5625 0.375 -0.85
3.625 0.3125 -0.9125
3.5625 0.3125 -0.85
3.5625 0.375 -0.9125
3.5625 0.3125 -0.9125
3.75 0.3125 -0.85
3.75 0.375 -0.9125
3.6875 0.375 -0.85
3.75 0.3125 -0.9125
3.6875 0.3125 -0.85
3.6875 0.375 -0.9125
3.6875 0.3125 -0.9125
3.875 0.3125 -0.85
3.875 0.375 -0.9125
3.8125 0.375 -0.85
3.875 0.3125 -0.9125
3.8125 0.3125 -0.85
3.8125 0.375 -0.9125
3.8125 0.3125 -0.9125
4 0.3125 -0.85
4 0.375 -0.9125
3.9375 0.375 -0.85
4 0.3125 -0.9125
3.9375 0.3125 -0.85
3.9375 0.375 -0.9125
3.9375 0.3125 -0.9125
0.125 0.4375 -0.85
0 0.4375 -0.85
0.125 0.5 -0.9125
0.0625 0.5 -0.85
0 0.5 -0.9125
0.125 0.4375 -0.9125
0.0625 0.4375 -0.85
0 0.4375 -0.9125
0.0625 0.5 -0.9125
0.0625 0.4375 -0.9125
0.25 0.4375 -0.85
0.25 0.5 -0.9125
0.1875 0.5 -0.85
0.25 0.4375 -0.9125
0.1875 0.4375 -0.85
0.1875 0.5 -0.9125
0.1875 0.4375 -0.9125
0.375 0.4375 -0.85
0.375 0.5 -0.9125
0.3125 0.5 -0.85
0.375 0.4375 -0.9125
0.3125 0.4375 -0.85
0.3125 0.5 -0.9125
0.3125 0.4375 -0.9125
0.5 0.4375 -0.85
0.5 0.5 -0.9125
0.4375 0.5 -0.85
0.5 0.4375 -0.9125
0.4375 0.4375 -0.85
0.4375 0.5 -0.9125
0.4375 0.4375 -0.9125
0.625 0.4375 -0.85
0.625 0.5 -0.9125
0.5625 0.5 -0.85
0.625 0.4375 -0.9125
0.5625 0.4375 -0.85
0.5625 0.5 -0.9125
0.5625 0.4375 -0.9125
0.75 0.4375 -0.85
0.75 0.5 -0.9125
0.6875 0.5 -0.85
0.75 0.4375 -0.9125
0.6875 0.4375 -0.85
0.6875 0.5 -0.9125
0.6875 0.4375 -0.9125
0.875 0.4375 -0.85
0.875 0.5 -0.9125
0.8125 0.5 -0.85
0.875 0.4375 -0.9125
0.8125 0.4375 -0.85
0.8125 0.5 -0.9125
0.8125 0.4375 -0.9125
1 0.4375 -0.85
1 0.5 -0.9125
0.9375 0.5 -0.85
1 0.4375 -0.9125
0.9375 0.4375 -0.85
0.9375 0.5 -0.9125
0.9375 0.4375 -0.9125
1.125 0.4375 -0.85
1.125 0.5 -0.9125
1.0625 0.5 -0.85
1.125 0.4375 -0.9125
1.0625 0.4375 -0.85
1.0625 0.5 -0.9125
1.0625 0.4375 -0.9125
1.25 0.4375 -0.85
1.25 0.5 -0.9125
1.1875 0.5 -0.85
1.25 0.4375 -0.9125
1.1875 0.4375 -0.85
1.1875 0.5 -0.9125
1.1875 0.4375 -0.9125
1.375 0.4375 -0.85
1.375 0.5 -0.9125
1.3125 0.5 -0.85
1.375 0.4375 -0.9125
1.3125 0.4375 -0.85
1.3125 0.5 -0.9125
1.3125 0.4375 -0.9125
1.5 0.4375 -0.85
1.5 0.5 -0.9125
1.4375 0.5 -0.85
1.5 0.4375 -0.9125
1.4375 0.4375 -0.85
1.4375 0.5 -0.9125
1.4375 0.4375 -0.9125
1.625 0.4375 -0.85
1.625 0.5 -0.9125
1.5625 0.5 -0.85
1.625 0.4375 -0.9125
1.5625 0.4375 -0.85
1.5625 0.5 -0.9125
1.5625 0.4375 -0.9125
1.75 0.4375 -0.85
1.75 0.5 -0.9125
1.6875 0.5 -0.85
1.75 0.4375 -0.9125
1.6875 0.4375 -0.85
1.6875 0.5 -0.9125
1.6875 0.4375 -0.9125
1.875 0.4375 -0.85
1.875 0.5 -0.9125
1.8125 0.5 -0.85
1.875 0.4375 -0.9125
1.8125 0.4375 -0.85
1.8125 0.5 -0.9125
1.8125 0.4375 -0.9125
2 0.4375 -0.85
2 0.5 -0.9125
1.9375 0.5 -0.85
2 0.4375 -0.9125
1.9375 0.4375 -0.85
1.9375 0.5 -0.9125
1.9375 0.4375 -0.9125
2.125 0.4375 -0.85
2.125 0.5 -0.9125
2.0625 0.5 -0.85
2.125 0.4375 -0.9125
2.0625 0.4375 -0.85
2.0625 0.5 -0.9125
2.0625 0.4375 -0.9125
2.25 0.4375 -0.85
2.25 0.5 -0.9125
2.1875 0.5 -0.85
2.25 0.4375 -0.9125
2.1875 0.4375 -0.85
2.1875 0.5 -0.9125
2.1875 0.4375 -0.9125
2.375 0.4375 -0.85
2.375 0.5 -0.9125
2.3125 0.5 -0.85
2.375 0.4375 -0.9125
2.3125 0.4375 -0.85
2.3125 0.5 -0.9125
2.3125 0.4375 -0.9125
2.5 0.4375 -0.85
2.5 0.5 -0.9125
2.4375 0.5 -0.85
2.5 0.4375 -0.9125
2.4375 0.4375 -0.85
2.4375 0.5 -0.9125
2.4375 0.4375 -0.9125
2.625 0.4375 -0.85
2.625 0.5 -0.9125
2.5625 0.5 -0.85
2.625 0.4375 -0.9125
2.5625 0.4375 -0.85
2.5625 0.5 -0.9125
2.5625 0.4375 -0.9125
2.75 0.4375 -0.85
2.75 0.5 -0.9125
2.6875 0.5 -0.85
2.75 0.4375 -0.9125
2.6875 0.4375 -0.85
2.6875 0.5 -0.9125
2.6875 0.4375 -0.9125
2.875 0.4375 -0.85
2.875 0.5 -0.9125
2.8125 0.5 -0.85
2.875 0.4375 -0.9125
2.8125 0.4375 -0.85
2.8125 0.5 -0.9125
2.8125 0.4375 -0.9125
3 0.4375 -0.85
3 0.5 -0.9125
2.9375 0.5 -0.85
3 0.4375 -0.9125
2.9375 0.4375 -0.85
2.9375 0.5 -0.9125
2.9375 0.4375 -0.9125
3.125 0.4375 -0.85
3.125 0.5 -0.9125
3.0625 0.5 -0.85
3.125 0.4375 -0.9125
3.0625 0.4375 -0.85
3.0625 0.5 -0.9125
3.0625 0.4375 -0.9125
3.25 0.4375 -0.85
3.25 0.5 -0.9125
3.1875 0.5 -0.85
3.25 0.4375 -0.9125
3.1875 0.4375 -0.85
3.1875 0.5 -0.9125
3.1875 0.4375 -0.9125
3.375 0.4375 -0.85
3.375 0.5 -0.9125
3.3125 0.5 -0.85
3.375 0.4375 -0.9125
3.3125 0.4375 -0.85
3.3125 0.5 -0.9125
3.3125 0.4375 -0.9125
3.5 0.4375 -0.85
3.5 0.5 -0.9125
3.4375 0.5 -0.85
3.5 0.4375 -0.9125
3.4375 0.4375 -0.85
3.4375 0.5 -0.9125
3.4375 0.4375 -0.9125
3.625 0.4375 -0.85
3.625 0.5 -0.9125
3.5625 0.5 -0.85
3.625 0.4375 -0.9125
3.5625 0.4375 -0.85
3.5625 0.5 -0.9125
3.5625 0.4375 -0.9125
3.75 0.4375 -0.85
3.75 0.5 -0.9125
3.6875 0.5 -0.85
3.75 0.4375 -0.9125
3.6875 0.4375 -0.85
3.6875 0.5 -0.9125
3.6875 0.4375 -0.9125
3.875 0.4375 -0.85
3.875 0.5 -0.9125
3.8125 0.5 -0.85
3.875 0.4375 -0.9125
3.8125 0.4375 -0.85
3.8125 0.5 -0.9125
3.8125 0.4375 -0.9125
4 0.4375 -0.85
4 0.5 -0.9125
3.9375 0.5 -0.85
4 0.4375 -0.9125
3.9375 0.4375 -0.85
3.9375 0.5 -0.9125
3.9375 0.4375 -0.9125
0.125 0.5625 -0.85
0 0.5625 -0.85
0.125 0.625 -0.9125
0.0625 0.625 -0.85
0 0.625 -0.9125
0.125 0.5625 -0.9125
0.0625 0.5625 -0.85
0 0.5625 -0.9125
0.0625 0.625 -0.9125
0.0625 0.5625 -0.9125
0.25 0.5625 -0.85
0.25 0.625 -0.9125
0.1875 0.625 -0.85
0.25 0.5625 -0.9125
0.1875 0.5625 -0.85
0.1875 0.625 -0.9125
0.1875 0.5625 -0.9125
0.375 0.5625 -0.85
0.375 0.625 -0.9125
0.3125 0.625 -0.85
0.375 0.5625 -0.9125
0.3125 0.5625 -0.85
0.3125 0.625 -0.9125
0.3125 0.5625 -0.9125
0.5 0.5625 -0.85
0.5 0.625 -0.9125
0.4375 0.625 -0.85
0.5 0.5625 -0.9125
0.4375 0.5625 -0.85
0.4375 0.625 -0.9125
0.4375 0.5625 -0.9125
0.625 0.5625 -0.85
0.625 0.625 -0.9125
0.5625 0.625 -0.85
0.625 0.5625 -0.9125
0.5625 0.5625 -0.85
0.5625 0.625 -0.9125
0.5625 0.5625 -0.9125
0.75 0.5625 -0.85
0.75 0.625 -0.9125
0.6875 0.625 -0.85
0.75 0.5625 -0.9125
0.6875 0.5625 -0.85
0.6875 0.625 -0.9125
0.6875 0.5625 -0.9125
0.875 0.5625 -0.85
0.875 0.625 -0.9125
0.8125 0.625 -0.85
0.875 0.5625 -0.9125
0.8125 0.5625 -0.85
0.8125 0.625 -0.9125
0.8125 0.5625 -0.9125
1 0.5625 -0.85
1 0.625 -0.9125
0.9375 0.625 -0.85
1 0.5625 -0.9125
0.9375 0.5625 -0.85
0.9375 0.625 -0.9125
0.9375 0.5625 -0.9125
1.125 0.5625 -0.85
1.125 0.625 -0.9125
1.0625 0.625 -0.85
1.125 0.5625 -0.9125
1.0625 0.5625 -0.85
1.0625 0.625 -0.9125
1.0625 0.5625 -0.9125
1.25 0.5625 -0.85
1.25 0.625 -0.9125
1.1875 0.625 -0.85
1.25 0.5625 -0.9125
1.1875 0.5625 -0.85
1.1875 0.625 -0.9125
1.1875 0.5625 -0.9125
1.375 0.5625 -0.85
1.375 0.625 -0.9125
1.3125 0.625 -0.85
1.375 0.5625 -0.9125
1.3125 0.5625 -0.85
1.3125 0.625 -0.9125
1.3125 0.5625 -0.9125
1.5 0.5625 -0.85
1.5 0.625 -0.9125
1.4375 0.625 -0.85
1.5 0.5625 -0.9125
1.4375 0.5625 -0.85
1.4375 0.625 -0.9125
1.4375 0.5625 -0.9125
1.625 0.5625 -0.85
1.625 0.625 -0.9125
1.5625 0.625 -0.85
1.625 0.5625 -0.9125
1.5625 0.5625 -0.85
1.5625 0.625 -0.9125
1.5625 0.5625 -0.9125
1.75 0.5625 -0.85
1.75 0.625 -0.9125
1.6875 0.625 -0.85
1.75 0.5625 -0.9125
1.6875 0.5625 -0.85
1.6875 0.625 -0.9125
1.6875 0.5625 -0.9125
1.875 0.5625 -0.85
1.875 0.625 -0.9125
1.8125 0.625 -0.85
1.875 0.5625 -0.9125
1.8125 0.5625 -0.85
1.8125 0.625 -0.9125
1.8125 0.5625 -0.9125
2 0.5625 -0.85
2 0.625 -0.9125
1.9375 0.625 -0.85
2 0.5625 -0.9125
1.9375 0.5625 -0.85
1.9375 0.625 -0.9125
1.9375 0.5625 -0.9125
2.125 0.5625 -0.85
2.125 0.625 -0.9125
2.0625 0.625 -0.85
2.125 0.5625 -0.9125
2.0625 0.5625 -0.85
2.0625 0.625 -0.9125
2.0625 0.5625 -0.9125
2.25 0.5625 -0.85
2.25 0.625 -0.9125
2.1875 0.625 -0.85
2.25 0.5625 -0.9125
2.1875 0.5625 -0.85
2.1875 0.625 -0.9125
2.1875 0.5625 -0.9125
2.375 0.5625 -0.85
2.375 0.625 -0.9125
2.3125 0.625 -0.85
2.375 0.5625 -0.9125
2.3125 0.5625 -0.85
2.3125 0.625 -0.9125
2.3125 0.5625 -0.9125
2.5 0.5625 -0.85
2.5 0.625 -0.9125
2.4375 0.625 -0.85
2.5 0.5625 -0.9125
2.4375 0.5625 -0.85
2.4375 0.625 -0.9125
2.4375 0.5625 -0.9125
2.625 0.5625 -0.85
2.625 0.625 -0.9125
2.5625 0.625 -0.85
2.625 0.5625 -0.9125
2.5625 0.5625 -0.85
2.5625 0.625 -0.9125
2.5625 0.5625 -0.9125
2.75 0.5625 -0.85
2.75 0.625 -0.9125
2.6875 0.625 -0.85
2.75 0.5625 -0.9125
2.6875 0.5625 -0.85
2.6875 0.625 -0.9125
2.6875 0.5625 -0.9125
2.875 0.5625 -0.85
2.875 0.625 -0.9125
2.8125 0.625 -0.85
2.875 0.5625 -0.9125
2.8125 0.5625 -0.85
2.8125 0.625 -0.9125
2.8125 0.5625 -0.9125
3 0.5625 -0.85
3 0.625 -0.9125
2.9375 0.625 -0.85
3 0.5625 -0.9125
2.9375 0.5625 -0.85
2.9375 0.625 -0.9125
2.9375 0.5625 -0.9125
3.125 0.5625 -0.85
3.125 0.625 -0.9125
3.0625 0.625 -0.85
3.125 0.5625 -0.9125
3.0625 0.5625 -0.85
3.0625 0.625 -0.9125
3.0625 0.5625 -0.9125
3.25 0.5625 -0.85
3.25 0.625 -0.9125
3.1875 0.625 -0.85
3.25 0.5625 -0.9125
3.1875 0.5625 -0.85
3.1875 0.625 -0.9125
3.1875 0.5625 -0.9125
3.375 0.5625 -0.85
3.375 0.625 -0.9125
3.3125 0.625 -0.85
3.375 0.5625 -0.9125
3.3125 0.5625 -0.85
3.3125 0.625 -0.9125
3.3125 0.5625 -0.9125
3.5 0.5625 -0.85
3.5 0.625 -0.9125
3.4375 0.625 -0.85
3.5 0.5625 -0.9125
3.4375 0.5625 -0.85
3.4375 0.625 -0.9125
3.4375 0.5625 -0.9125
3.625 0.5625 -0.85
3.625 0.625 -0.9125
3.5625 0.625 -0.85
3.625 0.5625 -0.9125
3.5625 0.5625 -0.85
3.5625 0.625 -0.9125
3.5625 0.5625 -0.9125
3.75 0.5625 -0.85
3.75 0.625 -0.9125
3.6875 0.625 -0.85
3.75 0.5625 -0.9125
3.6875 0.5625 -0.85
3.6875 0.625 -0.9125
3.6875 0.5625 -0.9125
3.875 0.5625 -0.85
3.875 0.625 -0.9125
3.8125 0.625 -0.85
3.875 0.5625 -0.9125
3.8125 0.5625 -0.85
3.8125 0.625 -0.9125
3.8125 0.5625 -0.9125
4 0.5625 -0.85
4 0.625 -0.9125
3.9375 0.625 -0.85
4 0.5625 -0.9125
3.9375 0.5625 -0.85
3.9375 0.625 -0.9125
3.9375 0.5625 -0.9125
0.125 0.6875 -0.85
0 0.6875 -0.85
0.125 0.75 -0.9125
0.0625 0.75 -0.85
0 0.75 -0.9125
0.125 0.6875 -0.9125
0.0625 0.6875 -0.85
0 0.6875 -0.9125
0.0625 0.75 -0.9125
0.0625 0.6875 -0.9125
0.25 0.6875 -0.85
0.25 0.75 -0.9125
0.1875 0.75 -0.85
0.25 0.6875 -0.9125
0.1875 0.6875 -0.85
0.1875 0.75 -0.9125
0.1875 0.6875 -0.9125
0.375 0.6875 -0.85
0.375 0.75 -0.9125
0.3125 0.75 -0.85
0.375 0.6875 -0.9125
0.3125 0.6875 -0.85
0.3125 0.75 -0.9125
0.3125 0.6875 -0.9125
0.5 0.6875 -0.85
0.5 0.75 -0.9125
0.4375 0.75 -0.85
0.5 0.6875 -0.9125
0.4375 0.6875 -0.85
0.4375 0.75 -0.9125
0.4375 0.6875 -0.9125
0.625 0.6875 -0.85
0.625 0.75 -0.9125
0.5625 0.75 -0.85
0.625 0.6875 -0.9125
0.5625 0.6875 -0.85
0.5625 0.75 -0.9125
0.5625 0.6875 -0.9125
0.75 0.6875 -0.85
0.75 0.75 -0.9125
0.6875 0.75 -0.85
0.75 0.6875 -0.9125
0.6875 0.6875 -0.85
0.6875 0.75 -0.9125
0.6875 0.6875 -0.9125
0.875 0.6875 -0.85
0.875 0.75 -0.9125
0.8125 0.75 -0.85
0.875 0.6875 -0.9125
0.8125 0.6875 -0.85
0.8125 0.75 -0.9125
0.8125 0.6875 -0.9125
1 0.6875 -0.85
1 0.75 -0.9125
0.9375 0.75 -0.85
1 0.6875 -0.9125
0.9375 0.6875 -0.85
0.9375 0.75 -0.9125
0.9375 0.6875 -0.9125
1.125 0.6875 -0.85
1.125 0.75 -0.9125
1.0625 0.75 -0.85
1.125 0.6875 -0.9125
1.0625 0.6875 -0.85
1.0625 0.75 -0.9125
1.0625 0.6875 -0.9125
1.25 0.6875 -0.85
1.25 0.75 -0.9125
1.1875 0.75 -0.85
1.25 0.6875 -0.9125
1.1875 0.6875 -0.85
1.1875 0.75 -0.9125
1.1875 0.6875 -0.9125
1.375 0.6875 -0.85
1.375 0.75 -0.9125
1.3125 0.75 -0.85
1.375 0.6875 -0.9125
1.3125 0.6875 -0.85
1.3125 0.75 -0.9125
1.3125 0.6875 -0.9125
1.5 0.6875 -0.85
1.5 0.75 -0.9125
1.4375 0.75 -0.85
1.5 0.6875 -0.9125
1.4375 0.6875 -0.85
1.4375 0.75 -0.9125
1.4375 0.6875 -0.9125
1.625 0.6875 -0.85
1.625 0.75 -0.9125
1.5625 0.75 -0.85
1.625 0.6875 -0.9125
1.5625 0.6875 -0.85
1.5625 0.75 -0.9125
1.5625 0.6875 -0.9125
1.75 0.6875 -0.85
1.75 0.75 -0.9125
1.6875 0.75 -0.85
1.75 0.6875 -0.9125
1.6875 0.6875 -0.85
1.6875 0.75 -0.9125
1.6875 0.6875 -0.9125
1.875 0.6875 -0.85
1.875 0.75 -0.9125
1.8125 0.75 -0.85
1.875 0.6875 -0.9125
1.8125 0.6875 -0.85
1.8125 0.75 -0.9125
1.8125 0.6875 -0.9125
2 0.6875 -0.85
2 0.75 -0.9125
1.9375 0.75 -0.85
2 0.6875 -0.9125
1.9375 0.6875 -0.85
1.9375 0.75 -0.9125
1.9375 0.6875 -0.9125
2.125 0.6875 -0.85
2.125 0.75 -0.9125
2.0625 0.75 -0.85
2.125 0.6875 -0.9125
2.0625 0.6875 -0.85
2.0625 0.75 -0.9125
2.0625 0.6875 -0.9125
2.25 0.6875 -0.85
2.25 0.75 -0.9125
2.1875 0.75 -0.85
2.25 0.6875 -0.9125
2.1875 0.6875 -0.85
2.1875 0.75 -0.9125
2.1875 0.6875 -0.9125
2.375 0.6875 -0.85
2.375 0.75 -0.9125
2.3125 0.75 -0.85
2.375 0.6875 -0.9125
2.3125 0.6875 -0.85
2.3125 0.75 -0.9125
2.3125 0.6875 -0.9125
2.5 0.6875 -0.85
2.5 0.75 -0.9125
2.4375 0.75 -0.85
2.5 0.6875 -0.9125
2.4375 0.6875 -0.85
2.4375 0.75 -0.9125
2.4375 0.6875 -0.9125
2.625 0.6875 -0.85
2.625 0.75 -0.9125
2.5625 0.75 -0.85
2.625 0.6875 -0.9125
2.5625 0.6875 -0.85
2.5625 0.75 -0.9125
2.5625 0.6875 -0.9125
2.75 0.6875 -0.85
2.75 0.75 -0.9125
2.6875 0.75 -0.85
2.75 0.6875 -0.9125
2.6875 0.6875 -0.85
2.6875 0.75 -0.9125
2.6875 0.6875 -0.9125
2.875 0.6875 -0.85
2.875 0.75 -0.9125
2.8125 0.75 -0.85
2.875 0.6875 -0.9125
2.8125 0.6875 -0.85
2.8125 0.75 -0.9125
2.8125 0.6875 -0.9125
3 0.6875 -0.85
3 0.75 -0.9125
2.9375 0.75 -0.85
3 0.6875 -0.9125
2.9375 0.6875 -0.85
2.9375 0.75 -0.9125
2.9375 0.6875 -0.9125
3.125 0.6875 -0.85
3.125 0.75 -0.9125
3.0625 0.75 -0.85
3.125 0.6875 -0.9125
3.0625 0.6875 -0.85
3.0625 0.75 -0.9125
3.0625 0.6875 -0.9125
3.25 0.6875 -0.85
3.25 0.75 -0.9125
3.1875 0.75 -0.85
3.25 0.6875 -0.9125
3.1875 0.6875 -0.85
3.1875 0.75 -0.9125
3.1875 0.6875 -0.9125
3.375 0.6875 -0.85
3.375 0.75 -0.9125
3.3125 0.75 -0.85
3.375 0.6875 -0.9125
3.3125 0.6875 -0.85
3.3125 0.75 -0.9125
3.3125 0.6875 -0.9125
3.5 0.6875 -0.85
3.5 0.75 -0.9125
3.4375 0.75 -0.85
3.5 0.6875 -0.9125
3.4375 0.6875 -0.85
3.4375 0.75 -0.9125
3.4375 0.6875 -0.9125
3.625 0.6875 -0.85
3.625 0.75 -0.9125
3.5625 0.75 -0.85
3.625 0.6875 -0.9125
3.5625 0.6875 -0.85
3.5625 0.75 -0.9125
3.5625 0.6875 -0.9125
3.75 0.6875 -0.85
3.75 0.75 -0.9125
3.6875 0.75 -0.85
3.75 0.6875 -0.9125
3.6875 0.6875 -0.85
3.6875 0.75 -0.9125
3.6875 0.6875 -0.9125
3.875 0.6875 -0.85
3.875 0.75 -0.9125
3.8125 0.75 -0.85
3.875 0.6875 -0.9125
3.8125 0.6875 -0.85
3.8125 0.75 -0.9125
3.8125 0.6875 -0.9125
4 0.6875 -0.85
4 0.75 -0.9125
3.9375 0.75 -0.85
4 0.6875 -0.9125
3.9375 0.6875 -0.85
3.9375 0.75 -0.9125
3.9375 0.6875 -0.9125
0.125 0.8125 -0.85
0 0.8125 -0.85
0.125 0.875 -0.9125
0.0625 0.875 -0.85
0 0.875 -0.9125
0.125 0.8125 -0.9125
0.0625 0.8125 -0.85
0 0.8125 -0.9125
0.0625 0.875 -0.9125
0.0625 0.8125 -0.9125
0.25 0.8125 -0.85
0.25 0.875 -0.9125
0.1875 0.875 -0.85
0.25 0.8125 -0.9125
0.1875 0.8125 -0.85
0.1875 0.875 -0.9125
0.1875 0.8125 -0.9125
0.375 0.8125 -0.85
0.375 0.875 -0.9125
0.3125 0.875 -0.85
0.375 0.8125 -0.9125
0.3125 0.8125 -0.85
0.3125 0.875 -0.9125
0.3125 0.8125 -0.9125
0.5 0.8125 -0.85
0.5 0.875 -0.9125
0.4375 0.875 -0.85
0.5 0.8125 -0.9125
0.4375 0.8125 -0.85
0.4375 0.875 -0.9125
0.4375 0.8125 -0.9125
0.625 0.8125 -0.85
0.625 0.875 -0.9125
0.5625 0.875 -0.85
0.625 0.8125 -0.9125
0.5625 0.8125 -0.85
0.5625 0.875 -0.9125
0.5625 0.8125 -0.9125
0.75 0.8125 -0.85
0.75 0.875 -0.9125
0.6875 0.875 -0.85
0.75 0.8125 -0.9125
0.6875 0.8125 -0.85
0.6875 0.875 -0.9125
0.6875 0.8125 -0.9125
0.875 0.8125 -0.85
0.875 0.875 -0.9125
0.8125 0.875 -0.85
0.875 0.8125 -0.9125
0.8125 0.8125 -0.85
0.8125 0.875 -0.9125
0.8125 0.8125 -0.9125
1 0.8125 -0.85
1 0.875 -0.9125
0.9375 0.875 -0.85
1 0.8125 -0.9125
0.9375 0.8125 -0.85
0.9375 0.875 -0.9125
0.9375 0.8125 -0.9125
1.125 0.8125 -0.85
1.125 0.875 -0.9125
1.0625 0.875 -0.85
1.125 0.8125 -0.9125
1.0625 0.8125 -0.85
1.0625 0.875 -0.9125
1.0625 0.8125 -0.9125
1.25 0.8125 -0.85
1.25 0.875 -0.9125
1.1875 0.875 -0.85
1.25 0.8125 -0.9125
1.1875 0.8125 -0.85
1.1875 0.875 -0.9125
1.1875 0.8125 -0.9125
1.375 0.8125 -0.85
1.375 0.875 -0.9125
1.3125 0.875 -0.85
1.375 0.8125 -0.9125
1.3125 0.8125 -0.85
1.3125 0.875 -0.9125
1.3125 0.8125 -0.9125
1.5 0.8125 -0.85
1.5 0.875 -0.9125
1.4375 0.875 -0.85
1.5 0.8125 -0.9125
1.4375 0.8125 -0.85
1.4375 0.875 -0.9125
1.4375 0.8125 -0.9125
1.625 0.8125 -0.85
1.625 0.875 -0.9125
1.5625 0.875 -0.85
1.625 0.8125 -0.9125
1.5625 0.8125 -0.85
1.5625 0.875 -0.9125
1.5625 0.8125 -0.9125
1.75 0.8125 -0.85
1.75 0.875 -0.9125
1.6875 0.875 -0.85
1.75 0.8125 -0.9125
1.6875 0.8125 -0.85
1.6875 0.875 -0.9125
1.6875 0.8125 -0.9125
1.875 0.8125 -0.85
1.875 0.875 -0.9125
1.8125 0.875 -0.85
1.875 0.8125 -0.9125
1.8125 0.8125 -0.85
1.8125 0.875 -0.9125
1.8125 0.8125 -0.9125
2 0.8125 -0.85
2 0.875 -0.9125
1.9375 0.875 -0.85
2 0.8125 -0.9125
1.9375 0.8125 -0.85
1.9375 0.875 -0.9125
1.9375 0.8125 -0.9125
2.125 0.8125 -0.85
2.125 0.875 -0.9125
2.0625 0.875 -0.85
2.125 0.8125 -0.9125
2.0625 0.8125 -0.85
2.0625 0.875 -0.9125
2.0625 0.8125 -0.9125
2.25 0.8125 -0.85
2.25 0.875 -0.9125
2.1875 0.875 -0.85
2.25 0.8125 -0.9125
2.1875 0.8125 -0.85
2.1875 0.875 -0.9125
2.1875 0.8125 -0.9125
2.375 0.8125 -0.85
2.375 0.875 -0.9125
2.3125 0.875 -0.85
2.375 0.8125 -0.9125
2.3125 0.8125 -0.85
2.3125 0.875 -0.9125
2.3125 0.8125 -0.9125
2.5 0.8125 -0.85
2.5 0.875 -0.9125
2.4375 0.875 -0.85
2.5 0.8125 -0.9125
2.4375 0.8125 -0.85
2.4375 0.875 -0.9125
2.4375 0.8125 -0.9125
2.625 0.8125 -0.85
2.625 0.875 -0.9125
2.5625 0.875 -0.85
2.625 0.8125 -0.9125
2.5625 0.8125 -0.85
2.5625 0.875 -0.9125
2.5625 0.8125 -0.9125
2.75 0.8125 -0.85
2.75 0.875 -0.9125
2.6875 0.875 -0.85
2.75 0.8125 -0.9125
2.6875 0.8125 -0.85
2.6875 0.875 -0.9125
2.6875 0.8125 -0.9125
2.875 0.8125 -0.85
2.875 0.875 -0.9125
2.8125 0.875 -0.85
2.875 0.8125 -0.9125
2.8125 0.8125 -0.85
2.8125 0.875 -0.9125
2.8125 0.8125 -0.9125
3 0.8125 -0.85
3 0.875 -0.9125
2.9375 0.875 -0.85
3 0.8125 -0.9125
2.9375 0.8125 -0.85
2.9375 0.875 -0.9125
2.9375 0.8125 -0.9125
3.125 0.8125 -0.85
3.125 0.875 -0.9125
3.0625 0.875 -0.85
3.125 0.8125 -0.9125
3.0625 0.8125 -0.85
3.0625 0.875 -0.9125
3.0625 0.8125 -0.9125
3.25 0.8125 -0.85
3.25 0.875 -0.9125
3.1875 0.875 -0.85
3.25 0.8125 -0.9125
3.1875 0.8125 -0.85
3.1875 0.875 -0.9125
3.1875 0.8125 -0.9125
3.375 0.8125 -0.85
3.375 0.875 -0.9125
3.3125 0.875 -0.85
3.375 0.8125 -0.9125
3.3125 0.8125 -0.85
3.3125 0.875 -0.9125
3.3125 0.8125 -0.9125
3.5 0.8125 -0.85
3.5 0.875 -0.9125
3.4375 0.875 -0.85
3.5 0.8125 -0.9125
3.4375 0.8125 -0.85
3.4375 0.875 -0.9125
3.4375 0.8125 -0.9125
3.625 0.8125 -0.85
3.625 0.875 -0.9125
3.5625 0.875 -0.85
3.625 0.8125 -0.9125
3.5625 0.8125 -0.85
3.5625 0.875 -0.9125
3.5625 0.8125 -0.9125
3.75 0.8125 -0.85
3.75 0.875 -0.9125
3.6875 0.875 -0.85
3.75 0.8125 -0.9125
3.6875 0.8125 -0.85
3.6875 0.875 -0.9125
3.6875 0.8125 -0.9125
3.875 0.8125 -0.85
3.875 0.875 -0.9125
3.8125 0.875 -0.85
3.875 0.8125 -0.9125
3.8125 0.8125 -0.85
3.8125 0.875 -0.9125
3.8125 0.8125 -0.9125
4 0.8125 -0.85
4 0.875 -0.9125
3.9375 0.875 -0.85
4 0.8125 -0.9125
3.9375 0.8125 -0.85
3.9375 0.875 -0.9125
3.9375 0.8125 -0.9125
0.125 0.9375 -0.85
0 0.9375 -0.85
0.125 1 -0.9125
0.0625 1 -0.85
0 1 -0.9125
0.125 0.9375 -0.9125
0.0625 0.9375 -0.85
0 0.9375 -0.9125
0.0625 1 -0.9125
0.0625 0.9375 -0.9125
0.25 0.9375 -0.85
0.25 1 -0.9125
0.1875 1 -0.85
0.25 0.9375 -0.9125
0.1875 0.9375 -0.85
0.1875 1 -0.9125
0.1875 0.9375 -0.9125
0.375 0.9375 -0.85
0.375 1 -0.9125
0.3125 1 -0.85
0.375 0.9375 -0.9125
0.3125 0.9375 -0.85
0.3125 1 -0.9125
0.3125 0.9375 -0.9125
0.5 0.9375 -0.85
0.5 1 -0.9125
0.4375 1 -0.85
0.5 0.9375 -0.9125
0.4375 0.9375 -0.85
0.4375 1 -0.9125
0.4375 0.9375 -0.9125
0.625 0.9375 -0.85
0.625 1 -0.9125
0.5625 1 -0.85
0.625 0.9375 -0.9125
0.5625 0.9375 -0.85
0.5625 1 -0.9125
0.5625 0.9375 -0.9125
0.75 0.9375 -0.85
0.75 1 -0.9125
0.6875 1 -0.85
0.75 0.9375 -0.9125
0.6875 0.9375 -0.85
0.6875 1 -0.9125
0.6875 0.9375 -0.9125
0.875 0.9375 -0.85
0.875 1 -0.9125
0.8125 1 -0.85
0.875 0.9375 -0.9125
0.8125 0.9375 -0.85
0.8125 1 -0.9125
0.8125 0.9375 -0.9125
1 0.9375 -0.85
1 1 -0.9125
0.9375 1 -0.85
1 0.9375 -0.9125
0.9375 0.9375 -0.85
0.9375 1 -0.9125
0.9375 0.9375 -0.9125
1.125 0.9375 -0.85
1.125 1 -0.9125
1.0625 1 -0.85
1.125 0.9375 -0.9125
1.0625 0.9375 -0.85
1.0625 1 -0.9125
1.0625 0.9375 -0.9125
1.25 0.9375 -0.85
1.25 1 -0.9125
1.1875 1 -0.85
1.25 0.9375 -0.9125
1.1875 0.9375 -0.85
1.1875 1 -0.9125
1.1875 0.9375 -0.9125
1.375 0.9375 -0.85
1.375 1 -0.9125
1.3125 1 -0.85
1.375 0.9375 -0.9125
1.3125 0.9375 -0.85
1.3125 1 -0.9125
1.3125 0.9375 -0.9125
1.5 0.9375 -0.85
1.5 1 -0.9125
1.4375 1 -0.85
1.5 0.9375 -0.9125
1.4375 0.9375 -0.85
1.4375 1 -0.9125
1.4375 0.9375 -0.9125
1.625 0.9375 -0.85
1.625 1 -0.9125
1.5625 1 -0.85
1.625 0.9375 -0.9125
1.5625 0.9375 -0.85
1.5625 1 -0.9125
1.5625 0.9375 -0.9125
1.75 0.9375 -0.85
1.75 1 -0.9125
1.6875 1 -0.85
1.75 0.9375 -0.9125
1.6875 0.9375 -0.85
1.6875 1 -0.9125
1.6875 0.9375 -0.9125
1.875 0.9375 -0.85
1.875 1 -0.9125
1.8125 1 -0.85
1.875 0.9375 -0.9125
1.8125 0.9375 -0.85
1.8125 1 -0.9125
1.8125 0.9375 -0.9125
2 0.9375 -0.85
2 1 -0.9125
1.9375 1 -0.85
2 0.9375 -0.9125
1.9375 0.9375 -0.85
1.9375 1 -0.9125
1.9375 0.9375 -0.9125
2.125 0.9375 -0.85
2.125 1 -0.9125
2.0625 1 -0.85
2.125 0.9375 -0.9125
2.0625 0.9375 -0.85
2.0625 1 -0.9125
2.0625 0.9375 -0.9125
2.25 0.9375 -0.85
2.25 1 -0.9125
2.1875 1 -0.85
2.25 0.9375 -0.9125
2.1875 0.9375 -0.85
2.1875 1 -0.9125
2.1875 0.9375 -0.9125
2.375 0.9375 -0.85
2.375 1 -0.9125
2.3125 1 -0.85
2.375 0.9375 -0.9125
2.3125 0.9375 -0.85
2.3125 1 -0.9125
2.3125 0.9375 -0.9125
2.5 0.9375 -0.85
2.5 1 -0.9125
2.4375 1 -0.85
2.5 0.9375 -0.9125
2.4375 0.9375 -0.85
2.4375 1 -0.9125
2.4375 0.9375 -0.9125
2.625 0.9375 -0.85
2.625 1 -0.9125
2.5625 1 -0.85
2.625 0.9375 -0.9125
2.5625 0.9375 -0.85
2.5625 1 -0.9125
2.5625 0.9375 -0.9125
2.75 0.9375 -0.85
2.75 1 -0.9125
2.6875 1 -0.85
2.75 0.9375 -0.9125
2.6875 0.9375 -0.85
2.6875 1 -0.9125
2.6875 0.9375 -0.9125
2.875 0.9375 -0.85
2.875 1 -0.9125
2.8125 1 -0.85
2.875 0.9375 -0.9125
2.8125 0.9375 -0.85
2.8125 1 -0.9125
2.8125 0.9375 -0.9125
3 0.9375 -0.85
3 1 -0.9125
2.9375 1 -0.85
3 0.9375 -0.9125
2.9375 0.9375 -0.85
2.9375 1 -0.9125
2.9375 0.9375 -0.9125
3.125 0.9375 -0.85
3.125 1 -0.9125
3.0625 1 -0.85
3.125 0.9375 -0.9125
3.0625 0.9375 -0.85
3.0625 1 -0.9125
3.0625 0.9375 -0.9125
3.25 0.9375 -0.85
3.25 1 -0.9125
3.1875 1 -0.85
3.25 0.9375 -0.9125
3.1875 0.9375 -0.85
3.1875 1 -0.9125
3.1875 0.9375 -0.9125
3.375 0.9375 -0.85
3.375 1 -0.9125
3.3125 1 -0.85
3.375 0.9375 -0.9125
3.3125 0.9375 -0.85
3.3125 1 -0.9125
3.3125 0.9375 -0.9125
3.5 0.9375 -0.85
3.5 1 -0.9125
3.4375 1 -0.85
3.5 0.9375 -0.9125
3.4375 0.9375 -0.85
3.4375 1 -0.9125
3.4375 0.9375 -0.9125
3.625 0.9375 -0.85
3.625 1 -0.9125
3.5625 1 -0.85
3.625 0.9375 -0.9125
3.5625 0.9375 -0.85
3.5625 1 -0.9125
3.5625 0.9375 -0.9125
3.75 0.9375 -0.85
3.75 1 -0.9125
3.6875 1 -0.85
3.75 0.9375 -0.9125
3.6875 0.9375 -0.85
3.6875 1 -0.9125
3.6875 0.9375 -0.9125
3.875 0.9375 -0.85
3.875 1 -0.9125
3.8125 1 -0.85
3.875 0.9375 -0.9125
3.8125 0.9375 -0.85
3.8125 1 -0.9125
3.8125 0.9375 -0.9125
4 0.9375 -0.85
4 1 -0.9125
3.9375 1 -0.85
4 0.9375 -0.9125
3.9375 0.9375 -0.85
3.9375 1 -0.9125
3.9375 0.9375 -0.9125
0.125 0 -0.7875
0.0625 0 -0.725
0 0 -0.7875
0.125 0.0625 -0.725
0 0.0625 -0.725
0.125 0.125 -0.7875
0.0625 0.125 -0.725
0 0.125 -0.7875
0.0625 0 -0.7875
0.125 0.0625 -0.7875
0.0625 0.0625 -0.725
0 0.0625 -0.7875
0.0625 0.125 -0.7875
0.0625 0.0625 -0.7875
0.25 0 -0.7875
0.1875 0 -0.725
0.25 0.0625 -0.725
0.25 0.125 -0.7875
0.1875 0.125 -0.725
0.1875 0 -0.7875
0.25 0.0625 -0.7875
0.1875 0.0625 -0.725
0.1875 0.125 -0.7875
0.1875 0.0625 -0.7875
0.375 0 -0.7875
0.3125 0 -0.725
0.375 0.0625 -0.725
0.375 0.125 -0.7875
0.3125 0.125 -0.725
0.3125 0 -0.7875
0.375 0.0625 -0.7875
0.3125 0.0625 -0.725
0.3125 0.125 -0.7875
0.3125 0.0625 -0.7875
0.5 0 -0.7875
0.4375 0 -0.725
0.5 0.0625 -0.725
0.5 0.125 -0.7875
0.4375 0.125 -0.725
0.4375 0 -0.7875
0.5 0.0625 -0.7875
0.4375 0.0625 -0.725
0.4375 0.125 -0.7875
0.4375 0.0625 -0.7875
0.625 0 -0.7875
0.5625 0 -0.725
0.625 0.0625 -0.725
0.625 0.125 -0.7875
0.5625 0.125 -0.725
0.5625 0 -0.7875
0.625 0.0625 -0.7875
0.5625 0.0625 -0.725
0.5625 0.125 -0.7875
0.5625 0.0625 -0.7875
0.75 0 -0.7875
0.6875 0 -0.725
0.75 0.0625 -0.725
0.75 0.125 -0.7875
0.6875 0.125 -0.725
0.6875 0 -0.7875
0.75 0.0625 -0.7875
0.6875 0.0625 -0.725
0.6875 0.125 -0.7875
0.6875 0.0625 -0.7875
0.875 0 -0.7875
0.8125 0 -0.725
0.875 0.0625 -0.725
0.875 0.125 -0.7875
0.8125 0.125 -0.725
0.8125 0 -0.7875
0.875 0.0625 -0.7875
0.8125 0.0625 -0.725
0.8125 0.125 -0.7875
0.8125 0.0625 -0.7875
1 0 -0.7875
0.9375 0 -0.725
1 0.0625 -0.725
1 0.125 -0.7875
0.9375 0.125 -0.725
0.9375 0 -0.7875
1 0.0625 -0.7875
0.9375 0.0625 -0.725
0.9375 0.125 -0.7875
0.9375 0.0625 -0.7875
1.125 0 -0.7875
1.0625 0 -0.725
1.125 0.0625 -0.725
1.125 0.125 -0.7875
1.0625 0.125 -0.725
1.0625 0 -0.7875
1.125 0.0625 -0.7875
1.0625 0.0625 -0.725
1.0625 0.125 -0.7875
1.0625 0.0625 -0.7875
1.25 0 -0.7875
1.1875 0 -0.725
1.25 0.0625 -0.725
1.25 0.125 -0.7875
1.1875 0.125 -0.725
1.1875 0 -0.7875
1.25 0.0625 -0.7875
1.1875 0.0625 -0.725
1.1875 0.125 -0.7875
1.1875 0.0625 -0.7875
1.375 0 -0.7875
1.3125 0 -0.725
1.375 0.0625 -0.725
1.375 0.125 -0.7875
1.3125 0.125 -0.725
1.3125 0 -0.7875
1.375 0.0625 -0.7875
1.3125 0.0625 -0.725
1.3125 0.125 -0.7875
1.3125 0.0625 -0.7875
1.5 0 -0.7875
1.4375 0 -0.725
1.5 0.0625 -0.725
1.5 0.125 -0.7875
1.4375 0.125 -0.725
1.4375 0 -0.7875
1.5 0.0625 -0.7875
1.4375 0.0625 -0.725
1.4375 0.125 -0.7875
1.4375 0.0625 -0.7875
1.625 0 -0.7875
1.5625 0 -0.725
1.625 0.0625 -0.725
1.625 0.125 -0.7875
1.5625 0.125 -0.725
1.5625 0 -0.7875
1.625 0.0625 -0.7875
1.5625 0.0625 -0.725
1.5625 0.125 -0.7875
1.5625 0.0625 -0.7875
1.75 0 -0.7875
1.6875 0 -0.725
1.75 0.0625 -0.725
1.75 0.125 -0.7875
1.6875 0.125 -0.725
1.6875 0 -0.7875
1.75 0.0625 -0.7875
1.6875 0.0625 -0.725
1.6875 0.125 -0.7875
1.6875 0.0625 -0.7875
1.875 0 -0.7875
1.8125 0 -0.725
1.875 0.0625 -0.725
1.875 0.125 -0.7875
1.8125 0.125 -0.725
1.8125 0 -0.7875
1.875 0.0625 -0.7875
1.8125 0.0625 -0.725
1.8125 0.125 -0.7875
1.8125 0.0625 -0.7875
2 0 -0.7875
1.9375 0 -0.725
2 0.0625 -0.725
2 0.125 -0.7875
1.9375 0.125 -0.725
1.9375 0 -0.7875
2 0.0625 -0.7875
1.9375 0.0625 -0.725
1.9375 0.125 -0.7875
1.9375 0.0625 -0.7875
2.125 0 -0.7875
2.0625 0 -0.725
2.125 0.0625 -0.725
2.125 0.125 -0.7875
2.0625 0.125 -0.725
2.0625 0 -0.7875
2.125 0.0625 -0.7875
2.0625 0.0625 -0.725
2.0625 0.125 -0.7875
2.0625 0.0625 -0.7875
2.25 0 -0.7875
2.1875 0 -0.725
2.25 0.0625 -0.725
2.25 0.125 -0.7875
2.1875 0.125 -0.725
2.1875 0 -0.7875
2.25 0.0625 -0.7875
2.1875 0.0625 -0.725
2.1875 0.125 -0.7875
2.1875 0.0625 -0.7875
2.375 0 -0.7875
2.3125 0 -0.725
2.375 0.0625 -0.725
2.375 0.125 -0.7875
2.3125 0.125 -0.725
2.3125 0 -0.7875
2.375 0.0625 -0.7875
2.3125 0.0625 -0.725
2.3125 0.125 -0.7875
2.3125 0.0625 -0.7875
2.5 0 -0.7875
2.4375 0 -0.725
2.5 0.0625 -0.725
2.5 0.125 -0.7875
2.4375 0.125 -0.725
2.4375 0 -0.7875
2.5 0.0625 -0.7875
2.4375 0.0625 -0.725
2.4375 0.125 -0.7875
2.4375 0.0625 -0.7875
2.625 0 -0.7875
2.5625 0 -0.725
2.625 0.0625 -0.725
2.625 0.125 -0.7875
2.5625 0.125 -0.725
2.5625 0 -0.7875
2.625 0.0625 -0.7875
2.5625 0.0625 -0.725
2.5625 0.125 -0.7875
2.5625 0.0625 -0.7875
2.75 0 -0.7875
2.6875 0 -0.725
2.75 0.0625 -0.725
2.75 0.125 -0.7875
2.6875 0.125 -0.725
2.6875 0 -0.7875
2.75 0.0625 -0.7875
2.6875 0.0625 -0.725
2.6875 0.125 -0.7875
2.6875 0.0625 -0.7875
2.875 0 -0.7875
2.8125 0 -0.725
2.875 0.0625 -0.725
2.875 0.125 -0.7875
2.8125 0.125 -0.725
2.8125 0 -0.7875
2.875 0.0625 -0.7875
2.8125 0.0625 -0.725
2.8125 0.125 -0.7875
2.8125 0.0625 -0.7875
3 0 -0.7875
2.9375 0 -0.725
3 0.0625 -0.725
3 0.125 -0.7875
2.9375 0.125 -0.725
2.9375 0 -0.7875
3 0.0625 -0.7875
2.9375 0.0625 -0.725
2.9375 0.125 -0.7875
2.9375 0.0625 -0.7875
3.125 0 -0.7875
3.0625 0 -0.725
3.125 0.0625 -0.725
3.125 0.125 -0.7875
3.0625 0.125 -0.725
3.0625 0 -0.7875
3.125 0.0625 -0.7875
3.0625 0.0625 -0.725
3.0625 0.125 -0.7875
3.0625 0.0625 -0.7875
3.25 0 -0.7875
3.1875 0 -0.725
3.25 0.0625 -0.725
3.25 0.125 -0.7875
3.1875 0.125 -0.725
3.1875 0 -0.7875
3.25 0.0625 -0.7875
3.1875 0.0625 -0.725
3.1875 0.125 -0.7875
3.1875 0.0625 -0.7875
3.375 0 -0.7875
3.3125 0 -0.725
3.375 0.0625 -0.725
3.375 0.125 -0.7875
3.3125 0.125 -0.725
3.3125 0 -0.7875
3.375 0.0625 -0.7875
3.3125 0.0625 -0.725
3.3125 0.125 -0.7875
3.3125 0.0625 -0.7875
3.5 0 -0.7875
3.4375 0 -0.725
3.5 0.0625 -0.725
3.5 0.125 -0.7875
3.4375 0.125 -0.725
3.4375 0 -0.7875
3.5 0.0625 -0.7875
3.4375 0.0625 -0.725
3.4375 0.125 -0.7875
3.4375 0.0625 -0.7875
3.625 0 -0.7875
3.5625 0 -0.725
3.625 0.0625 -0.725
3.625 0.125 -0.7875
3.5625 0.125 -0.725
3.5625 0 -0.7875
3.625 0.0625 -0.7875
3.5625 0.0625 -0.725
3.5625 0.125 -0.7875
3.5625 0.0625 -0.7875
3.75 0 -0.7875
3.6875 0 -0.725
3.75 0.0625 -0.725
3.75 0.125 -0.7875
3.6875 0.125 -0.725
3.6875 0 -0.7875
3.75 0.0625 -0.7875
3.6875 0.0625 -0.725
3.6875 0.125 -0.7875
3.6875 0.0625 -0.7875
3.875 0 -0.7875
3.8125 0 -0.725
3.875 0.0625 -0.725
3.875 0.125 -0.7875
3.8125 0.125 -0.725
3.8125 0 -0.7875
3.875 0.0625 -0.7875
3.8125 0.0625 -0.725
3.8125 0.125 -0.7875
3.8125 0.0625 -0.7875
4 0 -0.7875
3.9375 0 -0.725
4 0.0625 -0.725
4 0.125 -0.7875
3.9375 0.125 -0.725
3.9375 0 -0.7875
4 0.0625 -0.7875
3.9375 0.0625 -0.725
3.9375 0.125 -0.7875
3.9375 0.0625 -0.7875
0.125 0.1875 -0.725
0 0.1875 -0.725
0.125 0.25 -0.7875
0.0625 0.25 -0.725
0 0.25 -0.7875
0.125 0.1875 -0.7875
0.0625 0.1875 -0.725
0 0.1875 -0.7875
0.0625 0.25 -0.7875
0.0625 0.1875 -0.7875
0.25 0.1875 -0.725
0.25 0.25 -0.7875
0.1875 0.25 -0.725
0.25 0.1875 -0.7875
0.1875 0.1875 -0.725
0.1875 0.25 -0.7875
0.1875 0.1875 -0.7875
0.375 0.1875 -0.725
0.375 0.25 -0.7875
0.3125 0.25 -0.725
0.375 0.1875 -0.7875
0.3125 0.1875 -0.725
0.3125 0.25 -0.7875
0.3125 0.1875 -0.7875
0.5 0.1875 -0.725
0.5 0.25 -0.7875
0.4375 0.25 -0.725
0.5 0.1875 -0.7875
0.4375 0.1875 -0.725
0.4375 0.25 -0.7875
0.4375 0.1875 -0.7875
0.625 0.1875 -0.725
0.625 0.25 -0.7875
0.5625 0.25 -0.725
0.625 0.1875 -0.7875
0.5625 0.1875 -0.725
0.5625 0.25 -0.7875
0.5625 0.1875 -0.7875
0.75 0.1875 -0.725
0.75 0.25 -0.7875
0.6875 0.25 -0.725
0.75 0.1875 -0.7875
0.6875 0.1875 -0.725
0.6875 0.25 -0.7875
0.6875 0.1875 -0.7875
0.875 0.1875 -0.725
0.875 0.25 -0.7875
0.8125 0.25 -0.725
0.875 0.1875 -0.7875
0.8125 0.1875 -0.725
0.8125 0.25 -0.7875
0.8125 0.1875 -0.7875
1 0.1875 -0.725
1 0.25 -0.7875
0.9375 0.25 -0.725
1 0.1875 -0.7875
0.9375 0.1875 -0.725
0.9375 0.25 -0.7875
0.9375 0.1875 -0.7875
1.125 0.1875 -0.725
1.125 0.25 -0.7875
1.0625 0.25 -0.725
1.125 0.1875 -0.7875
1.0625 0.1875 -0.725
1.0625 0.25 -0.7875
1.0625 0.1875 -0.7875
1.25 0.1875 -0.725
1.25 0.25 -0.7875
1.1875 0.25 -0.725
1.25 0.1875 -0.7875
1.1875 0.1875 -0.725
1.1875 0.25 -0.7875
1.1875 0.1875 -0.7875
1.375 0.1875 -0.725
1.375 0.25 -0.7875
1.3125 0.25 -0.725
1.375 0.1875 -0.7875
1.3125 0.1875 -0.725
1.3125 0.25 -0.7875
1.3125 0.1875 -0.7875
1.5 0.1875 -0.725
1.5 0.25 -0.7875
1.4375 0.25 -0.725
1.5 0.1875 -0.7875
1.4375 0.1875 -0.725
1.4375 0.25 -0.7875
1.4375 0.1875 -0.7875
1.625 0.1875 -0.725
1.625 0.25 -0.7875
1.5625 0.25 -0.725
1.625 0.1875 -0.7875
1.5625 0.1875 -0.725
1.5625 0.25 -0.7875
1.5625 0.1875 -0.7875
1.75 0.1875 -0.725
1.75 0.25 -0.7875
1.6875 0.25 -0.725
1.75 0.1875 -0.7875
1.6875 0.1875 -0.725
1.6875 0.25 -0.7875
1.6875 0.1875 -0.7875
1.875 0.1875 -0.725
1.875 0.25 -0.7875
1.8125 0.25 -0.725
1.875 0.1875 -0.7875
1.8125 0.1875 -0.725
1.8125 0.25 -0.7875
1.8125 0.1875 -0.7875
2 0.1875 -0.725
2 0.25 -0.7875
1.9375 0.25 -0.725
2 0.1875 -0.7875
1.9375 0.1875 -0.725
1.9375 0.25 -0.7875
1.9375 0.1875 -0.7875
2.125 0.1875 -0.725
2.125 0.25 -0.7875
2.0625 0.25 -0.725
2.125 0.1875 -0.7875
2.0625 0.1875 -0.725
2.0625 0.25 -0.7875
2.0625 0.1875 -0.7875
2.25 0.1875 -0.725
2.25 0.25 -0.7875
2.1875 0.25 -0.725
2.25 0.1875 -0.7875
2.1875 0.1875 -0.725
2.1875 0.25 -0.7875
2.1875 0.1875 -0.7875
2.375 0.1875 -0.725
2.375 0.25 -0.7875
2.3125 0.25 -0.725
2.375 0.1875 -0.7875
2.3125 0.1875 -0.725
2.3125 0.25 -0.7875
2.3125 0.1875 -0.7875
2.5 0.1875 -0.725
2.5 0.25 -0.7875
2.4375 0.25 -0.725
2.5 0.1875 -0.7875
2.4375 0.1875 -0.725
2.4375 0.25 -0.7875
2.4375 0.1875 -0.7875
2.625 0.1875 -0.725
2.625 0.25 -0.7875
2.5625 0.25 -0.725
2.625 0.1875 -0.7875
2.5625 0.1875 -0.725
2.5625 0.25 -0.7875
2.5625 0.1875 -0.7875
2.75 0.1875 -0.725
2.75 0.25 -0.7875
2.6875 0.25 -0.725
2.75 0.1875 -0.7875
2.6875 0.1875 -0.725
2.6875 0.25 -0.7875
2.6875 0.1875 -0.7875
2.875 0.1875 -0.725
2.875 0.25 -0.7875
2.8125 0.25 -0.725
2.875 0.1875 -0.7875
2.8125 0.1875 -0.725
2.8125 0.25 -0.7875
2.8125 0.1875 -0.7875
3 0.1875 -0.725
3 0.25 -0.7875
2.9375 0.25 -0.725
3 0.1875 -0.7875
2.9375 0.1875 -0.725
2.9375 0.25 -0.7875
2.9375 0.1875 -0.7875
3.125 0.1875 -0.725
3.125 0.25 -0.7875
3.0625 0.25 -0.725
3.125 0.1875 -0.7875
3.0625 0.1875 -0.725
3.0625 0.25 -0.7875
3.0625 0.1875 -0.7875
3.25 0.1875 -0.725
3.25 0.25 -0.7875
3.1875 0.25 -0.725
3.25 0.1875 -0.7875
3.1875 0.1875 -0.725
3.1875 0.25 -0.7875
3.1875 0.1875 -0.7875
3.375 0.1875 -0.725
3.375 0.25 -0.7875
3.3125 0.25 -0.725
3.375 0.1875 -0.7875
3.3125 0.1875 -0.725
3.3125 0.25 -0.7875
3.3125 0.1875 -0.7875
3.5 0.1875 -0.725
3.5 0.25 -0.7875
3.4375 0.25 -0.725
3.5 0.1875 -0.7875
3.4375 0.1875 -0.725
3.4375 0.25 -0.7875
3.4375 0.1875 -0.7875
3.625 0.1875 -0.725
3.625 0.25 -0.7875
3.5625 0.25 -0.725
3.625 0.1875 -0.7875
3.5625 0.1875 -0.725
3.5625 0.25 -0.7875
3.5625 0.1875 -0.7875
3.75 0.1875 -0.725
3.75 0.25 -0.7875
3.6875 0.25 -0.725
3.75 0.1875 -0.7875
3.6875 0.1875 -0.725
3.6875 0.25 -0.7875
3.6875 0.1875 -0.7875
3.875 0.1875 -0.725
3.875 0.25 -0.7875
3.8125 0.25 -0.725
3.875 0.1875 -0.7875
3.8125 0.1875 -0.725
3.8125 0.25 -0.7875
3.8125 0.1875 -0.7875
4 0.1875 -0.725
4 0.25 -0.7875
3.9375 0.25 -0.725
4 0.1875 -0.7875
3.9375 0.1875 -0.725
3.9375 0.25 -0.7875
3.9375 0.1875 -0.7875
0.125 0.3125 -0.725
0 0.3125 -0.725
0.125 0.375 -0.7875
0.0625 0.375 -0.725
0 0.375 -0.7875
0.125 0.3125 -0.7875
0.0625 0.3125 -0.725
0 0.3125 -0.7875
0.0625 0.375 -0.7875
0.0625 0.3125 -0.7875
0.25 0.3125 -0.725
0.25 0.375 -0.7875
0.1875 0.375 -0.725
0.25 0.3125 -0.7875
0.1875 0.3125 -0.725
0.1875 0.375 -0.7875
0.1875 0.3125 -0.7875
0.375 0.3125 -0.725
0.375 0.375 -0.7875
0.3125 0.375 -0.725
0.375 0.3125 -0.7875
0.3125 0.3125 -0.725
0.3125 0.375 -0.7875
0.3125 0.3125 -0.7875
0.5 0.3125 -0.725
0.5 0.375 -0.7875
0.4375 0.375 -0.725
0.5 0.3125 -0.7875
0.4375 0.3125 -0.725
0.4375 0.375 -0.7875
0.4375 0.3125 -0.7875
0.625 0.3125 -0.725
0.625 0.375 -0.7875
0.5625 0.375 -0.725
0.625 0.3125 -0.7875
0.5625 0.3125 -0.725
0.5625 0.375 -0.7875
0.5625 0.3125 -0.7875
0.75 0.3125 -0.725
0.75 0.375 -0.7875
0.6875 0.375 -0.725
0.75 0.3125 -0.7875
0.6875 0.3125 -0.725
0.6875 0.375 -0.7875
0.6875 0.3125 -0.7875
0.875 0.3125 -0.725
0.875 0.375 -0.7875
0.8125 0.375 -0.725
0.875 0.3125 -0.7875
0.8125 0.3125 -0.725
0.8125 0.375 -0.7875
0.8125 0.3125 -0.7875
1 0.3125 -0.725
1 0.375 -0.7875
0.9375 0.375 -0.725
1 0.3125 -0.7875
0.9375 0.3125 -0.725
0.9375 0.375 -0.7875
0.9375 0.3125 -0.7875
1.125 0.3125 -0.725
1.125 0.375 -0.7875
1.0625 0.375 -0.725
1.125 0.3125 -0.7875
1.0625 0.3125 -0.725
1.0625 0.375 -0.7875
1.0625 0.3125 -0.7875
1.25 0.3125 -0.725
1.25 0.375 -0.7875
1.1875 0.375 -0.725
1.25 0.3125 -0.7875
1.1875 0.3125 -0.725
1.1875 0.375 -0.7875
1.1875 0.3125 -0.7875
1.375 0.3125 -0.725
1.375 0.375 -0.7875
1.3125 0.375 -0.725
1.375 0.3125 -0.7875
1.3125 0.3125 -0.725
1.3125 0.375 -0.7875
1.3125 0.3125 -0.7875
1.5 0.3125 -0.725
1.5 0.375 -0.7875
1.4375 0.375 -0.725
1.5 0.3125 -0.7875
1.4375 0.3125 -0.725
1.4375 0.375 -0.7875
1.4375 0.3125 -0.7875
1.625 0.3125 -0.725
1.625 0.375 -0.7875
1.5625 0.375 -0.725
1.625 0.3125 -0.7875
1.5625 0.3125 -0.725
1.5625 0.375 -0.7875
1.5625 0.3125 -0.7875
1.75 0.3125 -0.725
1.75 0.375 -0.7875
1.6875 0.375 -0.725
1.75 0.3125 -0.7875
1.6875 0.3125 -0.725
1.6875 0.375 -0.7875
1.6875 0.3125 -0.7875
1.875 0.3125 -0.725
1.875 0.375 -0.7875
1.8125 0.375 -0.725
1.875 0.3125 -0.7875
1.8125 0.3125 -0.725
1.8125 0.375 -0.7875
1.8125 0.3125 -0.7875
2 0.3125 -0.725
2 0.375 -0.7875
1.9375 0.375 -0.725
2 0.3125 -0.7875
1.9375 0.3125 -0.725
1.9375 0.375 -0.7875
1.9375 0.3125 -0.7875
2.125 0.3125 -0.725
2.125 0.375 -0.7875
2.0625 0.375 -0.725
2.125 0.3125 -0.7875
2.0625 0.3125 -0.725
2.0625 0.375 -0.7875
2.0625 0.3125 -0.7875
2.25 0.3125 -0.725
2.25 0.375 -0.7875
2.1875 0.375 -0.725
2.25 0.3125 -0.7875
2.1875 0.3125 -0.725
2.1875 0.375 -0.7875
2.1875 0.3125 -0.7875
2.375 0.3125 -0.725
2.375 0.375 -0.7875
2.3125 0.375 -0.725
2.375 0.3125 -0.7875
2.3125 0.3125 -0.725
2.3125 0.375 -0.7875
2.3125 0.3125 -0.7875
2.5 0.3125 -0.725
2.5 0.375 -0.7875
2.4375 0.375 -0.725
2.5 0.3125 -0.7875
2.4375 0.3125 -0.725
2.4375 0.375 -0.7875
2.4375 0.3125 -0.7875
2.625 0.3125 -0.725
2.625 0.375 -0.7875
2.5625 0.375 -0.725
2.625 0.3125 -0.7875
2.5625 0.3125 -0.725
2.5625 0.375 -0.7875
2.5625 0.3125 -0.7875
2.75 0.3125 -0.725
2.75 0.375 -0.7875
2.6875 0.375 -0.725
2.75 0.3125 -0.7875
2.6875 0.3125 -0.725
2.6875 0.375 -0.7875
2.6875 0.3125 -0.7875
2.875 0.3125 -0.725
2.875 0.375 -0.7875
2.8125 0.375 -0.725
2.875 0.3125 -0.7875
2.8125 0.3125 -0.725
2.8125 0.375 -0.7875
2.8125 0.3125 -0.7875
3 0.3125 -0.725
3 0.375 -0.7875
2.9375 0.375 -0.725
3 0.3125 -0.7875
2.9375 0.3125 -0.725
2.9375 0.375 -0.7875
2.9375 0.3125 -0.7875
3.125 0.3125 -0.725
3.125 0.375 -0.7875
3.0625 0.375 -0.725
3.125 0.3125 -0.7875
3.0625 0.3125 -0.725
3.0625 0.375 -0.7875
3.0625 0.3125 -0.7875
3.25 0.3125 -0.725
3.25 0.375 -0.7875
3.1875 0.375 -0.725
3.25 0.3125 -0.7875
3.1875 0.3125 -0.725
3.1875 0.375 -0.7875
3.1875 0.3125 -0.7875
3.375 0.3125 -0.725
3.375 0.375 -0.7875
3.3125 0.375 -0.725
3.375 0.3125 -0.7875
3.3125 0.3125 -0.725
3.3125 0.375 -0.7875
3.3125 0.3125 -0.7875
3.5 0.3125 -0.725
3.5 0.375 -0.7875
3.4375 0.375 -0.725
3.5 0.3125 -0.7875
3.4375 0.3125 -0.725
3.4375 0.375 -0.7875
3.4375 0.3125 -0.7875
3.625 0.3125 -0.725
3.625 0.375 -0.7875
3.5625 0.375 -0.725
3.625 0.3125 -0.7875
3.5625 0.3125 -0.725
3.5625 0.375 -0.7875
3.5625 0.3125 -0.7875
3.75 0.3125 -0.725
3.75 0.375 -0.7875
3.6875 0.375 -0.725
3.75 0.3125 -0.7875
3.6875 0.3125 -0.725
3.6875 0.375 -0.7875
3.6875 0.3125 -0.7875
3.875 0.3125 -0.725
3.875 0.375 -0.7875
3.8125 0.375 -0.725
3.875 0.3125 -0.7875
3.8125 0.3125 -0.725
3.8125 0.375 -0.7875
3.8125 0.3125 -0.7875
4 0.3125 -0.725
4 0.375 -0.7875
3.9375 0.375 -0.725
4 0.3125 -0.7875
3.9375 0.3125 -0.725
3.9375 0.375 -0.7875
3.9375 0.3125 -0.7875
0.125 0.4375 -0.725
0 0.4375 -0.725
0.125 0.5 -0.7875
0.0625 0.5 -0.725
0 0.5 -0.7875
0.125 0.4375 -0.7875
0.0625 0.4375 -0.725
0 0.4375 -0.7875
0.0625 0.5 -0.7875
0.0625 0.4375 -0.7875
0.25 0.4375 -0.725
0.25 0.5 -0.7875
0.1875 0.5 -0.725
0.25 0.4375 -0.7875
0.1875 0.4375 -0.725
0.1875 0.5 -0.7875
0.1875 0.4375 -0.7875
0.375 0.4375 -0.725
0.375 0.5 -0.7875
0.3125 0.5 -0.725
0.375 0.4375 -0.7875
0.3125 0.4375 -0.725
0.3125 0.5 -0.7875
0.3125 0.4375 -0.7875
0.5 0.4375 -0.725
0.5 0.5 -0.7875
0.4375 0.5 -0.725
0.5 0.4375 -0.7875
0.4375 0.4375 -0.725
0.4375 0.5 -0.7875
0.4375 0.4375 -0.7875
0.625 0.4375 -0.725
0.625 0.5 -0.7875
0.5625 0.5 -0.725
0.625 0.4375 -0.7875
0.5625 0.4375 -0.725
0.5625 0.5 -0.7875
0.5625 0.4375 -0.7875
0.75 0.4375 -0.725
0.75 0.5 -0.7875
0.6875 0.5 -0.725
0.75 0.4375 -0.7875
0.6875 0.4375 -0.725
0.6875 0.5 -0.7875
0.6875 0.4375 -0.7875
0.875 0.4375 -0.725
0.875 0.5 -0.7875
0.8125 0.5 -0.725
0.875 0.4375 -0.7875
0.8125 0.4375 -0.725
0.8125 0.5 -0.7875
0.8125 0.4375 -0.7875
1 0.4375 -0.725
1 0.5 -0.7875
0.9375 0.5 -0.725
1 0.4375 -0.7875
0.9375 0.4375 -0.725
0.9375 0.5 -0.7875
0.9375 0.4375 -0.7875
1.125 0.4375 -0.725
1.125 0.5 -0.7875
1.0625 0.5 -0.725
1.125 0.4375 -0.7875
1.0625 0.4375 -0.725
1.0625 0.5 -0.7875
1.0625 0.4375 -0.7875
1.25 0.4375 -0.725
1.25 0.5 -0.7875
1.1875 0.5 -0.725
1.25 0.4375 -0.7875
1.1875 0.4375 -0.725
1.1875 0.5 -0.7875
1.1875 0.4375 -0.7875
1.375 0.4375 -0.725
1.375 0.5 -0.7875
1.3125 0.5 -0.725
1.375 0.4375 -0.7875
1.3125 0.4375 -0.725
1.3125 0.5 -0.7875
1.3125 0.4375 -0.7875
1.5 0.4375 -0.725
1.5 0.5 -0.7875
1.4375 0.5 -0.725
1.5 0.4375 -0.7875
1.4375 0.4375 -0.725
1.4375 0.5 -0.7875
1.4375 0.4375 -0.7875
1.625 0.4375 -0.725
1.625 0.5 -0.7875
1.5625 0.5 -0.725
1.625 0.4375 -0.7875
1.5625 0.4375 -0.725
1.5625 0.5 -0.7875
1.5625 0.4375 -0.7875
1.75 0.4375 -0.725
1.75 0.5 -0.7875
1.6875 0.5 -0.725
1.75 0.4375 -0.7875
1.6875 0.4375 -0.725
1.6875 0.5 -0.7875
1.6875 0.4375 -0.7875
1.875 0.4375 -0.725
1.875 0.5 -0.7875
1.8125 0.5 -0.725
1.875 0.4375 -0.7875
1.8125 0.4375 -0.725
1.8125 0.5 -0.7875
1.8125 0.4375 -0.7875
2 0.4375 -0.725
2 0.5 -0.7875
1.9375 0.5 -0.725
2 0.4375 -0.7875
1.9375 0.4375 -0.725
1.9375 0.5 -0.7875
1.9375 0.4375 -0.7875
2.125 0.4375 -0.725
2.125 0.5 -0.7875
2.0625 0.5 -0.725
2.125 0.4375 -0.7875
2.0625 0.4375 -0.725
2.0625 0.5 -0.7875
2.0625 0.4375 -0.7875
2.25 0.4375 -0.725
2.25 0.5 -0.7875
2.1875 0.5 -0.725
2.25 0.4375 -0.7875
2.1875 0.4375 -0.725
2.1875 0.5 -0.7875
2.1875 0.4375 -0.7875
2.375 0.4375 -0.725
2.375 0.5 -0.7875
2.3125 0.5 -0.725
2.375 0.4375 -0.7875
2.3125 0.4375 -0.725
2.3125 0.5 -0.7875
2.3125 0.4375 -0.7875
2.5 0.4375 -0.725
2.5 0.5 -0.7875
2.4375 0.5 -0.725
2.5 0.4375 -0.7875
2.4375 0.4375 -0.725
2.4375 0.5 -0.7875
2.4375 0.4375 -0.7875
2.625 0.4375 -0.725
2.625 0.5 -0.7875
2.5625 0.5 -0.725
2.625 0.4375 -0.7875
2.5625 0.4375 -0.725
2.5625 0.5 -0.7875
2.5625 0.4375 -0.7875
2.75 0.4375 -0.725
2.75 0.5 -0.7875
2.6875 0.5 -0.725
2.75 0.4375 -0.7875
2.6875 0.4375 -0.725
2.6875 0.5 -0.7875
2.6875 0.4375 -0.7875
2.875 0.4375 -0.725
2.875 0.5 -0.7875
2.8125 0.5 -0.725
2.875 0.4375 -0.7875
2.8125 0.4375 -0.725
2.8125 0.5 -0.7875
2.8125 0.4375 -0.7875
3 0.4375 -0.725
3 0.5 -0.7875
2.9375 0.5 -0.725
3 0.4375 -0.7875
2.9375 0.4375 -0.725
2.9375 0.5 -0.7875
2.9375 0.4375 -0.7875
3.125 0.4375 -0.725
3.125 0.5 -0.7875
3.0625 0.5 -0.725
3.125 0.4375 -0.7875
3.0625 0.4375 -0.725
3.0625 0.5 -0.7875
3.0625 0.4375 -0.7875
3.25 0.4375 -0.725
3.25 0.5 -0.7875
3.1875 0.5 -0.725
3.25 0.4375 -0.7875
3.1875 0.4375 -0.725
3.1875 0.5 -0.7875
3.1875 0.4375 -0.7875
3.375 0.4375 -0.725
3.375 0.5 -0.7875
3.3125 0.5 -0.725
3.375 0.4375 -0.7875
3.3125 0.4375 -0.725
3.3125 0.5 -0.7875
3.3125 0.4375 -0.7875
3.5 0.4375 -0.725
3.5 0.5 -0.7875
3.4375 0.5 -0.725
3.5 0.4375 -0.7875
3.4375 0.4375 -0.725
3.4375 0.5 -0.7875
3.4375 0.4375 -0.7875
3.625 0.4375 -0.725
3.625 0.5 -0.7875
3.5625 0.5 -0.725
3.625 0.4375 -0.7875
3.5625 0.4375 -0.725
3.5625 0.5 -0.7875
3.5625 0.4375 -0.7875
3.75 0.4375 -0.725
3.75 0.5 -0.7875
3.6875 0.5 -0.725
3.75 0.4375 -0.7875
3.6875 0.4375 -0.725
3.6875 0.5 -0.7875
3.6875 0.4375 -0.7875
3.875 0.4375 -0.725
3.875 0.5 -0.7875
3.8125 0.5 -0.725
3.875 0.4375 -0.7875
3.8125 0.4375 -0.725
3.8125 0.5 -0.7875
3.8125 0.4375 -0.7875
4 0.4375 -0.725
4 0.5 -0.7875
3.9375 0.5 -0.725
4 0.4375 -0.7875
3.9375 0.4375 -0.725
3.9375 0.5 -0.7875
3.9375 0.4375 -0.7875
0.125 0.5625 -0.725
0 0.5625 -0.725
0.125 0.625 -0.7875
0.0625 0.625 -0.725
0 0.625 -0.7875
0.125 0.5625 -0.7875
0.0625 0.5625 -0.725
0 0.5625 -0.7875
0.0625 0.625 -0.7875
0.0625 0.5625 -0.7875
0.25 0.5625 -0.725
0.25 0.625 -0.7875
0.1875 0.625 -0.725
0.25 0.5625 -0.7875
0.1875 0.5625 -0.725
0.1875 0.625 -0.7875
0.1875 0.5625 -0.7875
0.375 0.5625 -0.725
0.375 0.625 -0.7875
0.3125 0.625 -0.725
0.375 0.5625 -0.7875
0.3125 0.5625 -0.725
0.3125 0.625 -0.7875
0.3125 0.5625 -0.7875
0.5 0.5625 -0.725
0.5 0.625 -0.7875
0.4375 0.625 -0.725
0.5 0.5625 -0.7875
0.4375 0.5625 -0.725
0.4375 0.625 -0.7875
0.4375 0.5625 -0.7875
0.625 0.5625 -0.725
0.625 0.625 -0.7875
0.5625 0.625 -0.725
0.625 0.5625 -0.7875
0.5625 0.5625 -0.725
0.5625 0.625 -0.7875
0.5625 0.5625 -0.7875
0.75 0.5625 -0.725
0.75 0.625 -0.7875
0.6875 0.625 -0.725
0.75 0.5625 -0.7875
0.6875 0.5625 -0.725
0.6875 0.625 -0.7875
0.6875 0.5625 -0.7875
0.875 0.5625 -0.725
0.875 0.625 -0.7875
0.8125 0.625 -0.725
0.875 0.5625 -0.7875
0.8125 0.5625 -0.725
0.8125 0.625 -0.7875
0.8125 0.5625 -0.7875
1 0.5625 -0.725
1 0.625 -0.7875
0.9375 0.625 -0.725
1 0.5625 -0.7875
0.9375 0.5625 -0.725
0.9375 0.625 -0.7875
0.9375 0.5625 -0.7875
1.125 0.5625 -0.725
1.125 0.625 -0.7875
1.0625 0.625 -0.725
1.125 0.5625 -0.7875
1.0625 0.5625 -0.725
1.0625 0.625 -0.7875
1.0625 0.5625 -0.7875
1.25 0.5625 -0.725
1.25 0.625 -0.7875
1.1875 0.625 -0.725
1.25 0.5625 -0.7875
1.1875 0.5625 -0.725
1.1875 0.625 -0.7875
1.1875 0.5625 -0.7875
1.375 0.5625 -0.725
1.375 0.625 -0.7875
1.3125 0.625 -0.725
1.375 0.5625 -0.7875
1.3125 0.5625 -0.725
1.3125 0.625 -0.7875
1.3125 0.5625 -0.7875
1.5 0.5625 -0.725
1.5 0.625 -0.7875
1.4375 0.625 -0.725
1.5 0.5625 -0.7875
1.4375 0.5625 -0.725
1.4375 0.625 -0.7875
1.4375 0.5625 -0.7875
1.625 0.5625 -0.725
1.625 0.625 -0.7875
1.5625 0.625 -0.725
1.625 0.5625 -0.7875
1.5625 0.5625 -0.725
1.5625 0.625 -0.7875
1.5625 0.5625 -0.7875
1.75 0.5625 -0.725
1.75 0.625 -0.7875
1.6875 0.625 -0.725
1.75 0.5625 -0.7875
1.6875 0.5625 -0.725
1.6875 0.625 -0.7875
1.6875 0.5625 -0.7875
1.875 0.5625 -0.725
1.875 0.625 -0.7875
1.8125 0.625 -0.725
1.875 0.5625 -0.7875
1.8125 0.5625 -0.725
1.8125 0.625 -0.7875
1.8125 0.5625 -0.7875
2 0.5625 -0.725
2 0.625 -0.7875
1.9375 0.625 -0.725
2 0.5625 -0.7875
1.9375 0.5625 -0.725
1.9375 0.625 -0.7875
1.9375 0.5625 -0.7875
2.125 0.5625 -0.725
2.125 0.625 -0.7875
2.0625 0.625 -0.725
2.125 0.5625 -0.7875
2.0625 0.5625 -0.725
2.0625 0.625 -0.7875
2.0625 0.5625 -0.7875
2.25 0.5625 -0.725
2.25 0.625 -0.7875
2.1875 0.625 -0.725
2.25 0.5625 -0.7875
2.1875 0.5625 -0.725
2.1875 0.625 -0.7875
2.1875 0.5625 -0.7875
2.375 0.5625 -0.725
2.375 0.625 -0.7875
2.3125 0.625 -0.725
2.375 0.5625 -0.7875
2.3125 0.5625 -0.725
2.3125 0.625 -0.7875
2.3125 0.5625 -0.7875
2.5 0.5625 -0.725
2.5 0.625 -0.7875
2.4375 0.625 -0.725
2.5 0.5625 -0.7875
2.4375 0.5625 -0.725
2.4375 0.625 -0.7875
2.4375 0.5625 -0.7875
2.625 0.5625 -0.725
2.625 0.625 -0.7875
2.5625 0.625 -0.725
2.625 0.5625 -0.7875
2.5625 0.5625 -0.725
2.5625 0.625 -0.7875
2.5625 0.5625 -0.7875
2.75 0.5625 -0.725
2.75 0.625 -0.7875
2.6875 0.625 -0.725
2.75 0.5625 -0.7875
2.6875 0.5625 -0.725
2.6875 0.625 -0.7875
2.6875 0.5625 -0.7875
2.875 0.5625 -0.725
2.875 0.625 -0.7875
2.8125 0.625 -0.725
2.875 0.5625 -0.7875
2.8125 0.5625 -0.725
2.8125 0.625 -0.7875
2.8125 0.5625 -0.7875
3 0.5625 -0.725
3 0.625 -0.7875
2.9375 0.625 -0.725
3 0.5625 -0.7875
2.9375 0.5625 -0.725
2.9375 0.625 -0.7875
2.9375 0.5625 -0.7875
3.125 0.5625 -0.725
3.125 0.625 -0.7875
3.0625 0.625 -0.725
3.125 0.5625 -0.7875
3.0625 0.5625 -0.725
3.0625 0.625 -0.7875
3.0625 0.5625 -0.7875
3.25 0.5625 -0.725
3.25 0.625 -0.7875
3.1875 0.625 -0.725
3.25 0.5625 -0.7875
3.1875 0.5625 -0.725
3.1875 0.625 -0.7875
3.1875 0.5625 -0.7875
3.375 0.5625 -0.725
3.375 0.625 -0.7875
3.3125 0.625 -0.725
3.375 0.5625 -0.7875
3.3125 0.5625 -0.725
3.3125 0.625 -0.7875
3.3125 0.5625 -0.7875
3.5 0.5625 -0.725
3.5 0.625 -0.7875
3.4375 0.625 -0.725
3.5 0.5625 -0.7875
3.4375 0.5625 -0.725
3.4375 0.625 -0.7875
3.4375 0.5625 -0.7875
3.625 0.5625 -0.725
3.625 0.625 -0.7875
3.5625 0.625 -0.725
3.625 0.5625 -0.7875
3.5625 0.5625 -0.725
3.5625 0.625 -0.7875
3.5625 0.5625 -0.7875
3.75 0.5625 -0.725
3.75 0.625 -0.7875
3.6875 0.625 -0.725
3.75 0.5625 -0.7875
3.6875 0.5625 -0.725
3.6875 0.625 -0.7875
3.6875 0.5625 -0.7875
3.875 0.5625 -0.725
3.875 0.625 -0.7875
3.8125 0.625 -0.725
3.875 0.5625 -0.7875
3.8125 0.5625 -0.725
3.8125 0.625 -0.7875
3.8125 0.5625 -0.7875
4 0.5625 -0.725
4 0.625 -0.7875
3.9375 0.625 -0.725
4 0.5625 -0.7875
3.9375 0.5625 -0.725
3.9375 0.625 -0.7875
3.9375 0.5625 -0.7875
0.125 0.6875 -0.725
0 0.6875 -0.725
0.125 0.75 -0.7875
0.0625 0.75 -0.725
0 0.75 -0.7875
0.125 0.6875 -0.7875
0.0625 0.6875 -0.725
0 0.6875 -0.7875
0.0625 0.75 -0.7875
0.0625 0.6875 -0.7875
0.25 0.6875 -0.725
0.25 0.75 -0.7875
0.1875 0.75 -0.725
0.25 0.6875 -0.7875
0.1875 0.6875 -0.725
0.1875 0.75 -0.7875
0.1875 0.6875 -0.7875
0.375 0.6875 -0.725
0.375 0.75 -0.7875
0.3125 0.75 -0.725
0.375 0.6875 -0.7875
0.3125 0.6875 -0.725
0.3125 0.75 -0.7875
0.3125 0.6875 -0.7875
0.5 0.6875 -0.725
0.5 0.75 -0.7875
0.4375 0.75 -0.725
0.5 0.6875 -0.7875
0.4375 0.6875 -0.725
0.4375 0.75 -0.7875
0.4375 0.6875 -0.7875
0.625 0.6875 -0.725
0.625 0.75 -0.7875
0.5625 0.75 -0.725
0.625 0.6875 -0.7875
0.5625 0.6875 -0.725
0.5625 0.75 -0.7875
0.5625 0.6875 -0.7875
0.75 0.6875 -0.725
0.75 0.75 -0.7875
0.6875 0.75 -0.725
0.75 0.6875 -0.7875
0.6875 0.6875 -0.725
0.6875 0.75 -0.7875
0.6875 0.6875 -0.7875
0.875 0.6875 -0.725
0.875 0.75 -0.7875
0.8125 0.75 -0.725
0.875 0.6875 -0.7875
0.8125 0.6875 -0.725
0.8125 0.75 -0.7875
0.8125 0.6875 -0.7875
1 0.6875 -0.725
1 0.75 -0.7875
0.9375 0.75 -0.725
1 0.6875 -0.7875
0.9375 0.6875 -0.725
0.9375 0.75 -0.7875
0.9375 0.6875 -0.7875
1.125 0.6875 -0.725
1.125 0.75 -0.7875
1.0625 0.75 -0.725
1.125 0.6875 -0.7875
1.0625 0.6875 -0.725
1.0625 0.75 -0.7875
1.0625 0.6875 -0.7875
1.25 0.6875 -0.725
1.25 0.75 -0.7875
1.1875 0.75 -0.725
1.25 0.6875 -0.7875
1.1875 0.6875 -0.725
1.1875 0.75 -0.7875
1.1875 0.6875 -0.7875
1.375 0.6875 -0.725
1.375 0.75 -0.7875
1.3125 0.75 -0.725
1.375 0.6875 -0.7875
1.3125 0.6875 -0.725
1.3125 0.75 -0.7875
1.3125 0.6875 -0.7875
1.5 0.6875 -0.725
1.5 0.75 -0.7875
1.4375 0.75 -0.725
1.5 0.6875 -0.7875
1.4375 0.6875 -0.725
1.4375 0.75 -0.7875
1.4375 0.6875 -0.7875
1.625 0.6875 -0.725
1.625 0.75 -0.7875
1.5625 0.75 -0.725
1.625 0.6875 -0.7875
1.5625 0.6875 -0.725
1.5625 0.75 -0.7875
1.5625 0.6875 -0.7875
1.75 0.6875 -0.725
1.75 0.75 -0.7875
1.6875 0.75 -0.725
1.75 0.6875 -0.7875
1.6875 0.6875 -0.725
1.6875 0.75 -0.7875
1.6875 0.6875 -0.7875
1.875 0.6875 -0.725
1.875 0.75 -0.7875
1.8125 0.75 -0.725
1.875 0.6875 -0.7875
1.8125 0.6875 -0.725
1.8125 0.75 -0.7875
1.8125 0.6875 -0.7875
2 0.6875 -0.725
2 0.75 -0.7875
1.9375 0.75 -0.725
2 0.6875 -0.7875
1.9375 0.6875 -0.725
1.9375 0.75 -0.7875
1.9375 0.6875 -0.7875
2.125 0.6875 -0.725
2.125 0.75 -0.7875
2.0625 0.75 -0.725
2.125 0.6875 -0.7875
2.0625 0.6875 -0.725
2.0625 0.75 -0.7875
2.0625 0.6875 -0.7875
2.25 0.6875 -0.725
2.25 0.75 -0.7875
2.1875 0.75 -0.725
2.25 0.6875 -0.7875
2.1875 0.6875 -0.725
2.1875 0.75 -0.7875
2.1875 0.6875 -0.7875
2.375 0.6875 -0.725
2.375 0.75 -0.7875
2.3125 0.75 -0.725
2.375 0.6875 -0.7875
2.3125 0.6875 -0.725
2.3125 0.75 -0.7875
2.3125 0.6875 -0.7875
2.5 0.6875 -0.725
2.5 0.75 -0.7875
2.4375 0.75 -0.725
2.5 0.6875 -0.7875
2.4375 0.6875 -0.725
2.4375 0.75 -0.7875
2.4375 0.6875 -0.7875
2.625 0.6875 -0.725
2.625 0.75 -0.7875
2.5625 0.75 -0.725
2.625 0.6875 -0.7875
2.5625 0.6875 -0.725
2.5625 0.75 -0.7875
2.5625 0.6875 -0.7875
2.75 0.6875 -0.725
2.75 0.75 -0.7875
2.6875 0.75 -0.725
2.75 0.6875 -0.7875
2.6875 0.6875 -0.725
2.6875 0.75 -0.7875
2.6875 0.6875 -0.7875
2.875 0.6875 -0.725
2.875 0.75 -0.7875
2.8125 0.75 -0.725
2.875 0.6875 -0.7875
2.8125 0.6875 -0.725
2.8125 0.75 -0.7875
2.8125 0.6875 -0.7875
3 0.6875 -0.725
3 0.75 -0.7875
2.9375 0.75 -0.725
3 0.6875 -0.7875
2.9375 0.6875 -0.725
2.9375 0.75 -0.7875
2.9375 0.6875 -0.7875
3.125 0.6875 -0.725
3.125 0.75 -0.7875
3.0625 0.75 -0.725
3.125 0.6875 -0.7875
3.0625 0.6875 -0.725
3.0625 0.75 -0.7875
3.0625 0.6875 -0.7875
3.25 0.6875 -0.725
3.25 0.75 -0.7875
3.1875 0.75 -0.725
3.25 0.6875 -0.7875
3.1875 0.6875 -0.725
3.1875 0.75 -0.7875
3.1875 0.6875 -0.7875
3.375 0.6875 -0.725
3.375 0.75 -0.7875
3.3125 0.75 -0.725
3.375 0.6875 -0.7875
3.3125 0.6875 -0.725
3.3125 0.75 -0.7875
3.3125 0.6875 -0.7875
3.5 0.6875 -0.725
3.5 0.75 -0.7875
3.4375 0.75 -0.725
3.5 0.6875 -0.7875
3.4375 0.6875 -0.725
3.4375 0.75 -0.7875
3.4375 0.6875 -0.7875
3.625 0.6875 -0.725
3.625 0.75 -0.7875
3.5625 0.75 -0.725
3.625 0.6875 -0.7875
3.5625 0.6875 -0.725
3.5625 0.75 -0.7875
3.5625 0.6875 -0.7875
3.75 0.6875 -0.725
3.75 0.75 -0.7875
3.6875 0.75 -0.725
3.75 0.6875 -0.7875
3.6875 0.6875 -0.725
3.6875 0.75 -0.7875
3.6875 0.6875 -0.7875
3.875 0.6875 -0.725
3.875 0.75 -0.7875
3.8125 0.75 -0.725
3.875 0.6875 -0.7875
3.8125 0.6875 -0.725
3.8125 0.75 -0.7875
3.8125 0.6875 -0.7875
4 0.6875 -0.725
4 0.75 -0.7875
3.9375 0.75 -0.725
4 0.6875 -0.7875
3.9375 0.6875 -0.725
3.9375 0.75 -0.7875
3.9375 0.6875 -0.7875
0.125 0.8125 -0.725
0 0.8125 -0.725
0.125 0.875 -0.7875
0.0625 0.875 -0.725
0 0.875 -0.7875
0.125 0.8125 -0.7875
0.0625 0.8125 -0.725
0 0.8125 -0.7875
0.0625 0.875 -0.7875
0.0625 0.8125 -0.7875
0.25 0.8125 -0.725
0.25 0.875 -0.7875
0.1875 0.875 -0.725
0.25 0.8125 -0.7875
0.1875 0.8125 -0.725
0.1875 0.875 -0.7875
0.1875 0.8125 -0.7875
0.375 0.8125 -0.725
0.375 0.875 -0.7875
0.3125 0.875 -0.725
0.375 0.8125 -0.7875
0.3125 0.8125 -0.725
0.3125 0.875 -0.7875
0.3125 0.8125 -0.7875
0.5 0.8125 -0.725
0.5 0.875 -0.7875
0.4375 0.875 -0.725
0.5 0.8125 -0.7875
0.4375 0.8125 -0.725
0.4375 0.875 -0.7875
0.4375 0.8125 -0.7875
0.625 0.8125 -0.725
0.625 0.875 -0.7875
0.5625 0.875 -0.725
0.625 0.8125 -0.7875
0.5625 0.8125 -0.725
0.5625 0.875 -0.7875
0.5625 0.8125 -0.7875
0.75 0.8125 -0.725
0.75 0.875 -0.7875
0.6875 0.875 -0.725
0.75 0.8125 -0.7875
0.6875 0.8125 -0.725
0.6875 0.875 -0.7875
0.6875 0.8125 -0.7875
0.875 0.8125 -0.725
0.875 0.875 -0.7875
0.8125 0.875 -0.725
0.875 0.8125 -0.7875
0.8125 0.8125 -0.725
0.8125 0.875 -0.7875
0.8125 0.8125 -0.7875
1 0.8125 -0.725
1 0.875 -0.7875
0.9375 0.875 -0.725
1 0.8125 -0.7875
0.9375 0.8125 -0.725
0.9375 0.875 -0.7875
0.9375 0.8125 -0.7875
1.125 0.8125 -0.725
1.125 0.875 -0.7875
1.0625 0.875 -0.725
1.125 0.8125 -0.7875
1.0625 0.8125 -0.725
1.0625 0.875 -0.7875
1.0625 0.8125 -0.7875
1.25 0.8125 -0.725
1.25 0.875 -0.7875
1.1875 0.875 -0.725
1.25 0.8125 -0.7875
1.1875 0.8125 -0.725
1.1875 0.875 -0.7875
1.1875 0.8125 -0.7875
1.375 0.8125 -0.725
1.375 0.875 -0.7875
1.3125 0.875 -0.725
1.375 0.8125 -0.7875
1.3125 0.8125 -0.725
1.3125 0.875 -0.7875
1.3125 0.8125 -0.7875
1.5 0.8125 -0.725
1.5 0.875 -0.7875
1.4375 0.875 -0.725
1.5 0.8125 -0.7875
1.4375 0.8125 -0.725
1.4375 0.875 -0.7875
1.4375 0.8125 -0.7875
1.625 0.8125 -0.725
1.625 0.875 -0.7875
1.5625 0.875 -0.725
1.625 0.8125 -0.7875
1.5625 0.8125 -0.725
1.5625 0.875 -0.7875
1.5625 0.8125 -0.7875
1.75 0.8125 -0.725
1.75 0.875 -0.7875
1.6875 0.875 -0.725
1.75 0.8125 -0.7875
1.6875 0.8125 -0.725
1.6875 0.875 -0.7875
1.6875 0.8125 -0.7875
1.875 0.8125 -0.725
1.875 0.875 -0.7875
1.8125 0.875 -0.725
1.875 0.8125 -0.7875
1.8125 0.8125 -0.725
1.8125 0.875 -0.7875
1.8125 0.8125 -0.7875
2 0.8125 -0.725
2 0.875 -0.7875
1.9375 0.875 -0.725
2 0.8125 -0.7875
1.9375 0.8125 -0.725
1.9375 0.875 -0.7875
1.9375 0.8125 -0.7875
2.125 0.8125 -0.725
2.125 0.875 -0.7875
2.0625 0.875 -0.725
2.125 0.8125 -0.7875
2.0625 0.8125 -0.725
2.0625 0.875 -0.7875
2.0625 0.8125 -0.7875
2.25 0.8125 -0.725
2.25 0.875 -0.7875
2.1875 0.875 -0.725
2.25 0.8125 -0.7875
2.1875 0.8125 -0.725
2.1875 0.875 -0.7875
2.1875 0.8125 -0.7875
2.375 0.8125 -0.725
2.375 0.875 -0.7875
2.3125 0.875 -0.725
2.375 0.8125 -0.7875
2.3125 0.8125 -0.725
2.3125 0.875 -0.7875
2.3125 0.8125 -0.7875
2.5 0.8125 -0.725
2.5 0.875 -0.7875
2.4375 0.875 -0.725
2.5 0.8125 -0.7875
2.4375 0.8125 -0.725
2.4375 0.875 -0.7875
2.4375 0.8125 -0.7875
2.625 0.8125 -0.725
2.625 0.875 -0.7875
2.5625 0.875 -0.725
2.625 0.8125 -0.7875
2.5625 0.8125 -0.725
2.5625 0.875 -0.7875
2.5625 0.8125 -0.7875
2.75 0.8125 -0.725
2.75 0.875 -0.7875
2.6875 0.875 -0.725
2.75 0.8125 -0.7875
2.6875 0.8125 -0.725
2.6875 0.875 -0.7875
2.6875 0.8125 -0.7875
2.875 0.8125 -0.725
2.875 0.875 -0.7875
2.8125 0.875 -0.725
2.875 0.8125 -0.7875
2.8125 0.8125 -0.725
2.8125 0.875 -0.7875
2.8125 0.8125 -0.7875
3 0.8125 -0.725
3 0.875 -0.7875
2.9375 0.875 -0.725
3 0.8125 -0.7875
2.9375 0.8125 -0.725
2.9375 0.875 -0.7875
2.9375 0.8125 -0.7875
3.125 0.8125 -0.725
3.125 0.875 -0.7875
3.0625 0.875 -0.725
3.125 0.8125 -0.7875
3.0625 0.8125 -0.725
3.0625 0.875 -0.7875
3.0625 0.8125 -0.7875
3.25 0.8125 -0.725
3.25 0.875 -0.7875
3.1875 0.875 -0.725
3.25 0.8125 -0.7875
3.1875 0.8125 -0.725
3.1875 0.875 -0.7875
3.1875 0.8125 -0.7875
3.375 0.8125 -0.725
3.375 0.875 -0.7875
3.3125 0.875 -0.725
3.375 0.8125 -0.7875
3.3125 0.8125 -0.725
3.3125 0.875 -0.7875
3.3125 0.8125 -0.7875
3.5 0.8125 -0.725
3.5 0.875 -0.7875
3.4375 0.875 -0.725
3.5 0.8125 -0.7875
3.4375 0.8125 -0.725
3.4375 0.875 -0.7875
3.4375 0.8125 -0.7875
3.625 0.8125 -0.725
3.625 0.875 -0.7875
3.5625 0.875 -0.725
3.625 0.8125 -0.7875
3.5625 0.8125 -0.725
3.5625 0.875 -0.7875
3.5625 0.8125 -0.7875
3.75 0.8125 -0.725
3.75 0.875 -0.7875
3.6875 0.875 -0.725
3.75 0.8125 -0.7875
3.6875 0.8125 -0.725
3.6875 0.875 -0.7875
3.6875 0.8125 -0.7875
3.875 0.8125 -0.725
3.875 0.875 -0.7875
3.8125 0.875 -0.725
3.875 0.8125 -0.7875
3.8125 0.8125 -0.725
3.8125 0.875 -0.7875
3.8125 0.8125 -0.7875
4 0.8125 -0.725
4 0.875 -0.7875
3.9375 0.875 -0.725
4 0.8125 -0.7875
3.9375 0.8125 -0.725
3.9375 0.875 -0.7875
3.9375 0.8125 -0.7875
0.125 0.9375 -0.725
0 0.9375 -0.725
0.125 1 -0.7875
0.0625 1 -0.725
0 1 -0.7875
0.125 0.9375 -0.7875
0.0625 0.9375 -0.725
0 0.9375 -0.7875
0.0625 1 -0.7875
0.0625 0.9375 -0.7875
0.25 0.9375 -0.725
0.25 1 -0.7875
0.1875 1 -0.725
0.25 0.9375 -0.7875
0.1875 0.9375 -0.725
0.1875 1 -0.7875
0.1875 0.9375 -0.7875
0.375 0.9375 -0.725
0.375 1 -0.7875
0.3125 1 -0.725
0.375 0.9375 -0.7875
0.3125 0.9375 -0.725
0.3125 1 -0.7875
0.3125 0.9375 -0.7875
0.5 0.9375 -0.725
0.5 1 -0.7875
0.4375 1 -0.725
0.5 0.9375 -0.7875
0.4375 0.9375 -0.725
0.4375 1 -0.7875
0.4375 0.9375 -0.7875
0.625 0.9375 -0.725
0.625 1 -0.7875
0.5625 1 -0.725
0.625 0.9375 -0.7875
0.5625 0.9375 -0.725
0.5625 1 -0.7875
0.5625 0.9375 -0.7875
0.75 0.9375 -0.725
0.75 1 -0.7875
0.6875 1 -0.725
0.75 0.9375 -0.7875
0.6875 0.9375 -0.725
0.6875 1 -0.7875
0.6875 0.9375 -0.7875
0.875 0.9375 -0.725
0.875 1 -0.7875
0.8125 1 -0.725
0.875 0.9375 -0.7875
0.8125 0.9375 -0.725
0.8125 1 -0.7875
0.8125 0.9375 -0.7875
1 0.9375 -0.725
1 1 -0.7875
0.9375 1 -0.725
1 0.9375 -0.7875
0.9375 0.9375 -0.725
0.9375 1 -0.7875
0.9375 0.9375 -0.7875
1.125 0.9375 -0.725
1.125 1 -0.7875
1.0625 1 -0.725
1.125 0.9375 -0.7875
1.0625 0.9375 -0.725
1.0625 1 -0.7875
1.0625 0.9375 -0.7875
1.25 0.9375 -0.725
1.25 1 -0.7875
1.1875 1 -0.725
1.25 0.9375 -0.7875
1.1875 0.9375 -0.725
1.1875 1 -0.7875
1.1875 0.9375 -0.7875
1.375 0.9375 -0.725
1.375 1 -0.7875
1.3125 1 -0.725
1.375 0.9375 -0.7875
1.3125 0.9375 -0.725
1.3125 1 -0.7875
1.3125 0.9375 -0.7875
1.5 0.9375 -0.725
1.5 1 -0.7875
1.4375 1 -0.725
1.5 0.9375 -0.7875
1.4375 0.9375 -0.725
1.4375 1 -0.7875
1.4375 0.9375 -0.7875
1.625 0.9375 -0.725
1.625 1 -0.7875
1.5625 1 -0.725
1.625 0.9375 -0.7875
1.5625 0.9375 -0.725
1.5625 1 -0.7875
1.5625 0.9375 -0.7875
1.75 0.9375 -0.725
1.75 1 -0.7875
1.6875 1 -0.725
1.75 0.9375 -0.7875
1.6875 0.9375 -0.725
1.6875 1 -0.7875
1.6875 0.9375 -0.7875
1.875 0.9375 -0.725
1.875 1 -0.7875
1.8125 1 -0.725
1.875 0.9375 -0.7875
1.8125 0.9375 -0.725
1.8125 1 -0.7875
1.8125 0.9375 -0.7875
2 0.9375 -0.725
2 1 -0.7875
1.9375 1 -0.725
2 0.9375 -0.7875
1.9375 0.9375 -0.725
1.9375 1 -0.7875
1.9375 0.9375 -0.7875
2.125 0.9375 -0.725
2.125 1 -0.7875
2.0625 1 -0.725
2.125 0.9375 -0.7875
2.0625 0.9375 -0.725
2.0625 1 -0.7875
2.0625 0.9375 -0.7875
2.25 0.9375 -0.725
2.25 1 -0.7875
2.1875 1 -0.725
2.25 0.9375 -0.7875
2.1875 0.9375 -0.725
2.1875 1 -0.7875
2.1875 0.9375 -0.7875
2.375 0.9375 -0.725
2.375 1 -0.7875
2.3125 1 -0.725
2.375 0.9375 -0.7875
2.3125 0.9375 -0.725
2.3125 1 -0.7875
2.3125 0.9375 -0.7875
2.5 0.9375 -0.725
2.5 1 -0.7875
2.4375 1 -0.725
2.5 0.9375 -0.7875
2.4375 0.9375 -0.725
2.4375 1 -0.7875
2.4375 0.9375 -0.7875
2.625 0.9375 -0.725
2.625 1 -0.7875
2.5625 1 -0.725
2.625 0.9375 -0.7875
2.5625 0.9375 -0.725
2.5625 1 -0.7875
2.5625 0.9375 -0.7875
2.75 0.9375 -0.725
2.75 1 -0.7875
2.6875 1 -0.725
2.75 0.9375 -0.7875
2.6875 0.9375 -0.725
2.6875 1 -0.7875
2.6875 0.9375 -0.7875
2.875 0.9375 -0.725
2.875 1 -0.7875
2.8125 1 -0.725
2.875 0.9375 -0.7875
2.8125 0.9375 -0.725
2.8125 1 -0.7875
2.8125 0.9375 -0.7875
3 0.9375 -0.725
3 1 -0.7875
2.9375 1 -0.725
3 0.9375 -0.7875
2.9375 0.9375 -0.725
2.9375 1 -0.7875
2.9375 0.9375 -0.7875
3.125 0.9375 -0.725
3.125 1 -0.7875
3.0625 1 -0.725
3.125 0.9375 -0.7875
3.0625 0.9375 -0.725
3.0625 1 -0.7875
3.0625 0.9375 -0.7875
3.25 0.9375 -0.725
3.25 1 -0.7875
3.1875 1 -0.725
3.25 0.9375 -0.7875
3.1875 0.9375 -0.725
3.1875 1 -0.7875
3.1875 0.9375 -0.7875
3.375 0.9375 -0.725
3.375 1 -0.7875
3.3125 1 -0.725
3.375 0.9375 -0.7875
3.3125 0.9375 -0.725
3.3125 1 -0.7875
3.3125 0.9375 -0.7875
3.5 0.9375 -0.725
3.5 1 -0.7875
3.4375 1 -0.725
3.5 0.9375 -0.7875
3.4375 0.9375 -0.725
3.4375 1 -0.7875
3.4375 0.9375 -0.7875
3.625 0.9375 -0.725
3.625 1 -0.7875
3.5625 1 -0.725
3.625 0.9375 -0.7875
3.5625 0.9375 -0.725
3.5625 1 -0.7875
3.5625 0.9375 -0.7875
3.75 0.9375 -0.725
3.75 1 -0.7875
3.6875 1 -0.725
3.75 0.9375 -0.7875
3.6875 0.9375 -0.725
3.6875 1 -0.7875
3.6875 0.9375 -0.7875
3.875 0.9375 -0.725
3.875 1 -0.7875
3.8125 1 -0.725
3.875 0.9375 -0.7875
3.8125 0.9375 -0.725
3.8125 1 -0.7875
3.8125 0.9375 -0.7875
4 0.9375 -0.725
4 1 -0.7875
3.9375 1 -0.725
4 0.9375 -0.7875
3.9375 0.9375 -0.725
3.9375 1 -0.7875
3.9375 0.9375 -0.7875
0.125 0 -0.6625
0.0625 0 -0.6
0 0 -0.6625
0.125 0.0625 -0.6
0 0.0625 -0.6
0.125 0.125 -0.6625
0.0625 0.125 -0.6
0 0.125 -0.6625
0.0625 0 -0.6625
0.125 0.0625 -0.6625
0.0625 0.0625 -0.6
0 0.0625 -0.6625
0.0625 0.125 -0.6625
0.0625 0.0625 -0.6625
0.25 0 -0.6625
0.1875 0 -0.6
0.25 0.0625 -0.6
0.25 0.125 -0.6625
0.1875 0.125 -0.6
0.1875 0 -0.6625
0.25 0.0625 -0.6625
0.1875 0.0625 -0.6
0.1875 0.125 -0.6625
0.1875 0.0625 -0.6625
0.375 0 -0.6625
0.3125 0 -0.6
0.375 0.0625 -0.6
0.375 0.125 -0.6625
0.3125 0.125 -0.6
0.3125 0 -0.6625
0.375 0.0625 -0.6625
0.3125 0.0625 -0.6
0.3125 0.125 -0.6625
0.3125 0.0625 -0.6625
0.5 0 -0.6625
0.4375 0 -0.6
0.5 0.0625 -0.6
0.5 0.125 -0.6625
0.4375 0.125 -0.6
0.4375 0 -0.6625
0.5 0.0625 -0.6625
0.4375 0.0625 -0.6
0.4375 0.125 -0.6625
0.4375 0.0625 -0.6625
0.625 0 -0.6625
0.5625 0 -0.6
0.625 0.0625 -0.6
0.625 0.125 -0.6625
0.5625 0.125 -0.6
0.5625 0 -0.6625
0.625 0.0625 -0.6625
0.5625 0.0625 -0.6
0.5625 0.125 -0.6625
0.5625 0.0625 -0.6625
0.75 0 -0.6625
0.6875 0 -0.6
0.75 0.0625 -0.6
0.75 0.125 -0.6625
0.6875 0.125 -0.6
0.6875 0 -0.6625
0.75 0.0625 -0.6625
0.6875 0.0625 -0.6
0.6875 0.125 -0.6625
0.6875 0.0625 -0.6625
0.875 0 -0.6625
0.8125 0 -0.6
0.875 0.0625 -0.6
0.875 0.125 -0.6625
0.8125 0.125 -0.6
0.8125 0 -0.6625
0.875 0.0625 -0.6625
0.8125 0.0625 -0.6
0.8125 0.125 -0.6625
0.8125 0.0625 -0.6625
1 0 -0.6625
0.9375 0 -0.6
1 0.0625 -0.6
1 0.125 -0.6625
0.9375 0.125 -0.6
0.9375 0 -0.6625
1 0.0625 -0.6625
0.9375 0.0625 -0.6
0.9375 0.125 -0.6625
0.9375 0.0625 -0.6625
1.125 0 -0.6625
1.0625 0 -0.6
1.125 0.0625 -0.6
1.125 0.125 -0.6625
1.0625 0.125 -0.6
1.0625 0 -0.6625
1.125 0.0625 -0.6625
1.0625 0.0625 -0.6
1.0625 0.125 -0.6625
1.0625 0.0625 -0.6625
1.25 0 -0.6625
1.1875 0 -0.6
1.25 0.0625 -0.6
1.25 0.125 -0.6625
1.1875 0.125 -0.6
1.1875 0 -0.6625
1.25 0.0625 -0.6625
1.1875 0.0625 -0.6
1.1875 0.125 -0.6625
1.1875 0.0625 -0.6625
1.375 0 -0.6625
1.3125 0 -0.6
1.375 0.0625 -0.6
1.375 0.125 -0.6625
1.3125 0.125 -0.6
1.3125 0 -0.6625
1.375 0.0625 -0.6625
1.3125 0.0625 -0.6
1.3125 0.125 -0.6625
1.3125 0.0625 -0.6625
1.5 0 -0.6625
1.4375 0 -0.6
1.5 0.0625 -0.6
1.5 0.125 -0.6625
1.4375 0.125 -0.6
1.4375 0 -0.6625
1.5 0.0625 -0.6625
1.4375 0.0625 -0.6
1.4375 0.125 -0.6625
1.4375 0.0625 -0.6625
1.625 0 -0.6625
1.5625 0 -0.6
1.625 0.0625 -0.6
1.625 0.125 -0.6625
1.5625 0.125 -0.6
1.5625 0 -0.6625
1.625 0.0625 -0.6625
1.5625 0.0625 -0.6
1.5625 0.125 -0.6625
1.5625 0.0625 -0.6625
1.75 0 -0.6625
1.6875 0 -0.6
1.75 0.0625 -0.6
1.75 0.125 -0.6625
1.6875 0.125 -0.6
1.6875 0 -0.6625
1.75 0.0625 -0.6625
1.6875 0.0625 -0.6
1.6875 0.125 -0.6625
1.6875 0.0625 -0.6625
1.875 0 -0.6625
1.8125 0 -0.6
1.875 0.0625 -0.6
1.875 0.125 -0.6625
1.8125 0.125 -0.6
1.8125 0 -0.6625
1.875 0.0625 -0.6625
1.8125 0.0625 -0.6
1.8125 0.125 -0.6625
1.8125 0.0625 -0.6625
2 0 -0.6625
1.9375 0 -0.6
2 0.0625 -0.6
2 0.125 -0.6625
1.9375 0.125 -0.6
1.9375 0 -0.6625
2 0.0625 -0.6625
1.9375 0.0625 -0.6
1.9375 0.125 -0.6625
1.9375 0.0625 -0.6625
2.125 0 -0.6625
2.0625 0 -0.6
2.125 0.0625 -0.6
2.125 0.125 -0.6625
2.0625 0.125 -0.6
2.0625 0 -0.6625
2.125 0.0625 -0.6625
2.0625 0.0625 -0.6
2.0625 0.125 -0.6625
2.0625 0.0625 -0.6625
2.25 0 -0.6625
2.1875 0 -0.6
2.25 0.0625 -0.6
2.25 0.125 -0.6625
2.1875 0.125 -0.6
2.1875 0 -0.6625
2.25 0.0625 -0.6625
2.1875 0.0625 -0.6
2.1875 0.125 -0.6625
2.1875 0.0625 -0.6625
2.375 0 -0.6625
2.3125 0 -0.6
2.375 0.0625 -0.6
2.375 0.125 -0.6625
2.3125 0.125 -0.6
2.3125 0 -0.6625
2.375 0.0625 -0.6625
2.3125 0.0625 -0.6
2.3125 0.125 -0.6625
2.3125 0.0625 -0.6625
2.5 0 -0.6625
2.4375 0 -0.6
2.5 0.0625 -0.6
2.5 0.125 -0.6625
2.4375 0.125 -0.6
2.4375 0 -0.6625
2.5 0.0625 -0.6625
2.4375 0.0625 -0.6
2.4375 0.125 -0.6625
2.4375 0.0625 -0.6625
2.625 0 -0.6625
2.5625 0 -0.6
2.625 0.0625 -0.6
2.625 0.125 -0.6625
2.5625 0.125 -0.6
2.5625 0 -0.6625
2.625 0.0625 -0.6625
2.5625 0.0625 -0.6
2.5625 0.125 -0.6625
2.5625 0.0625 -0.6625
2.75 0 -0.6625
2.6875 0 -0.6
2.75 0.0625 -0.6
2.75 0.125 -0.6625
2.6875 0.125 -0.6
2.6875 0 -0.6625
2.75 0.0625 -0.6625
2.6875 0.0625 -0.6
2.6875 0.125 -0.6625
2.6875 0.0625 -0.6625
2.875 0 -0.6625
2.8125 0 -0.6
2.875 0.0625 -0.6
2.875 0.125 -0.6625
2.8125 0.125 -0.6
2.8125 0 -0.6625
2.875 0.0625 -0.6625
2.8125 0.0625 -0.6
2.8125 0.125 -0.6625
2.8125 0.0625 -0.6625
3 0 -0.6625
2.9375 0 -0.6
3 0.0625 -0.6
3 0.125 -0.6625
2.9375 0.125 -0.6
2.9375 0 -0.6625
3 0.0625 -0.6625
2.9375 0.0625 -0.6
2.9375 0.125 -0.6625
2.9375 0.0625 -0.6625
3.125 0 -0.6625
3.0625 0 -0.6
3.125 0.0625 -0.6
3.125 0.125 -0.6625
3.0625 0.125 -0.6
3.0625 0 -0.6625
3.125 0.0625 -0.6625
3.0625 0.0625 -0.6
3.0625 0.125 -0.6625
3.0625 0.0625 -0.6625
3.25 0 -0.6625
3.1875 0 -0.6
3.25 0.0625 -0.6
3.25 0.125 -0.6625
3.1875 0.125 -0.6
3.1875 0 -0.6625
3.25 0.0625 -0.6625
3.1875 0.0625 -0.6
3.1875 0.125 -0.6625
3.1875 0.0625 -0.6625
3.375 0 -0.6625
3.3125 0 -0.6
3.375 0.0625 -0.6
3.375 0.125 -0.6625
3.3125 0.125 -0.6
3.3125 0 -0.6625
3.375 0.0625 -0.6625
3.3125 0.0625 -0.6
3.3125 0.125 -0.6625
3.3125 0.0625 -0.6625
3.5 0 -0.6625
3.4375 0 -0.6
3.5 0.0625 -0.6
3.5 0.125 -0.6625
3.4375 0.125 -0.6
3.4375 0 -0.6625
3.5 0.0625 -0.6625
3.4375 0.0625 -0.6
3.4375 0.125 -0.6625
3.4375 0.0625 -0.6625
3.625 0 -0.6625
3.5625 0 -0.6
3.625 0.0625 -0.6
3.625 0.125 -0.6625
3.5625 0.125 -0.6
3.5625 0 -0.6625
3.625 0.0625 -0.6625
3.5625 0.0625 -0.6
3.5625 0.125 -0.6625
3.5625 0.0625 -0.6625
3.75 0 -0.6625
3.6875 0 -0.6
3.75 0.0625 -0.6
3.75 0.125 -0.6625
3.6875 0.125 -0.6
3.6875 0 -0.6625
3.75 0.0625 -0.6625
3.6875 0.0625 -0.6
3.6875 0.125 -0.6625
3.6875 0.0625 -0.6625
3.875 0 -0.6625
3.8125 0 -0.6
3.875 0.0625 -0.6
3.875 0.125 -0.6625
3.8125 0.125 -0.6
3.8125 0 -0.6625
3.875 0.0625 -0.6625
3.8125 0.0625 -0.6
3.8125 0.125 -0.6625
3.8125 0.0625 -0.6625
4 0 -0.6625
3.9375 0 -0.6
4 0.0625 -0.6
4 0.125 -0.6625
3.9375 0.125 -0.6
3.9375 0 -0.6625
4 0.0625 -0.6625
3.9375 0.0625 -0.6
3.9375 0.125 -0.6625
3.9375 0.0625 -0.6625
0.125 0.1875 -0.6
0 0.1875 -0.6
0.125 0.25 -0.6625
0.0625 0.25 -0.6
0 0.25 -0.6625
0.125 0.1875 -0.6625
0.0625 0.1875 -0.6
0 0.1875 -0.6625
0.0625 0.25 -0.6625
0.0625 0.1875 -0.6625
0.25 0.1875 -0.6
0.25 0.25 -0.6625
0.1875 0.25 -0.6
0.25 0.1875 -0.6625
0.1875 0.1875 -0.6
0.1875 0.25 -0.6625
0.1875 0.1875 -0.6625
0.375 0.1875 -0.6
0.375 0.25 -0.6625
0.3125 0.25 -0.6
0.375 0.1875 -0.6625
0.3125 0.1875 -0.6
0.3125 0.25 -0.6625
0.3125 0.1875 -0.6625
0.5 0.1875 -0.6
0.5 0.25 -0.6625
0.4375 0.25 -0.6
0.5 0.1875 -0.6625
0.4375 0.1875 -0.6
0.4375 0.25 -0.6625
0.4375 0.1875 -0.6625
0.625 0.1875 -0.6
0.625 0.25 -0.6625
0.5625 0.25 -0.6
0.625 0.1875 -0.6625
0.5625 0.1875 -0.6
0.5625 0.25 -0.6625
0.5625 0.1875 -0.6625
0.75 0.1875 -0.6
0.75 0.25 -0.6625
0.6875 0.25 -0.6
0.75 0.1875 -0.6625
0.6875 0.1875 -0.6
0.6875 0.25 -0.6625
0.6875 0.1875 -0.6625
0.875 0.1875 -0.6
0.875 0.25 -0.6625
0.8125 0.25 -0.6
0.875 0.1875 -0.6625
0.8125 0.1875 -0.6
0.8125 0.25 -0.6625
0.8125 0.1875 -0.6625
1 0.1875 -0.6
1 0.25 -0.6625
0.9375 0.25 -0.6
1 0.1875 -0.6625
0.9375 0.1875 -0.6
0.9375 0.25 -0.6625
0.9375 0.1875 -0.6625
1.125 0.1875 -0.6
1.125 0.25 -0.6625
1.0625 0.25 -0.6
1.125 0.1875 -0.6625
1.0625 0.1875 -0.6
1.0625 0.25 -0.6625
1.0625 0.1875 -0.6625
1.25 0.1875 -0.6
1.25 0.25 -0.6625
1.1875 0.25 -0.6
1.25 0.1875 -0.6625
1.1875 0.1875 -0.6
1.1875 0.25 -0.6625
1.1875 0.1875 -0.6625
1.375 0.1875 -0.6
1.375 0.25 -0.6625
1.3125 0.25 -0.6
1.375 0.1875 -0.6625
1.3125 0.1875 -0.6
1.3125 0.25 -0.6625
1.3125 0.1875 -0.6625
1.5 0.1875 -0.6
1.5 0.25 -0.6625
1.4375 0.25 -0.6
1.5 0.1875 -0.6625
1.4375 0.1875 -0.6
1.4375 0.25 -0.6625
1.4375 0.1875 -0.6625
1.625 0.1875 -0.6
1.625 0.25 -0.6625
1.5625 0.25 -0.6
1.625 0.1875 -0.6625
1.5625 0.1875 -0.6
1.5625 0.25 -0.6625
1.5625 0.1875 -0.6625
1.75 0.1875 -0.6
1.75 0.25 -0.6625
1.6875 0.25 -0.6
1.75 0.1875 -0.6625
1.6875 0.1875 -0.6
1.6875 0.25 -0.6625
1.6875 0.1875 -0.6625
1.875 0.1875 -0.6
1.875 0.25 -0.6625
1.8125 0.25 -0.6
1.875 0.1875 -0.6625
1.8125 0.1875 -0.6
1.8125 0.25 -0.6625
1.8125 0.1875 -0.6625
2 0.1875 -0.6
2 0.25 -0.6625
1.9375 0.25 -0.6
2 0.1875 -0.6625
1.9375 0.1875 -0.6
1.9375 0.25 -0.6625
1.9375 0.1875 -0.6625
2.125 0.1875 -0.6
2.125 0.25 -0.6625
2.0625 0.25 -0.6
2.125 0.1875 -0.6625
2.0625 0.1875 -0.6
2.0625 0.25 -0.6625
2.0625 0.1875 -0.6625
2.25 0.1875 -0.6
2.25 0.25 -0.6625
2.1875 0.25 -0.6
2.25 0.1875 -0.6625
2.1875 0.1875 -0.6
2.1875 0.25 -0.6625
2.1875 0.1875 -0.6625
2.375 0.1875 -0.6
2.375 0.25 -0.6625
2.3125 0.25 -0.6
2.375 0.1875 -0.6625
2.3125 0.1875 -0.6
2.3125 0.25 -0.6625
2.3125 0.1875 -0.6625
2.5 0.1875 -0.6
2.5 0.25 -0.6625
2.4375 0.25 -0.6
2.5 0.1875 -0.6625
2.4375 0.1875 -0.6
2.4375 0.25 -0.6625
2.4375 0.1875 -0.6625
2.625 0.1875 -0.6
2.625 0.25 -0.6625
2.5625 0.25 -0.6
2.625 0.1875 -0.6625
2.5625 0.1875 -0.6
2.5625 0.25 -0.6625
2.5625 0.1875 -0.6625
2.75 0.1875 -0.6
2.75 0.25 -0.6625
2.6875 0.25 -0.6
2.75 0.1875 -0.6625
2.6875 0.1875 -0.6
2.6875 0.25 -0.6625
2.6875 0.1875 -0.6625
2.875 0.1875 -0.6
2.875 0.25 -0.6625
2.8125 0.25 -0.6
2.875 0.1875 -0.6625
2.8125 0.1875 -0.6
2.8125 0.25 -0.6625
2.8125 0.1875 -0.6625
3 0.1875 -0.6
3 0.25 -0.6625
2.9375 0.25 -0.6
3 0.1875 -0.6625
2.9375 0.1875 -0.6
2.9375 0.25 -0.6625
2.9375 0.1875 -0.6625
3.125 0.1875 -0.6
3.125 0.25 -0.6625
3.0625 0.25 -0.6
3.125 0.1875 -0.6625
3.0625 0.1875 -0.6
3.0625 0.25 -0.6625
3.0625 0.1875 -0.6625
3.25 0.1875 -0.6
3.25 0.25 -0.6625
3.1875 0.25 -0.6
3.25 0.1875 -0.6625
3.1875 0.1875 -0.6
3.1875 0.25 -0.6625
3.1875 0.1875 -0.6625
3.375 0.1875 -0.6
3.375 0.25 -0.6625
3.3125 0.25 -0.6
3.375 0.1875 -0.6625
3.3125 0.1875 -0.6
3.3125 0.25 -0.6625
3.3125 0.1875 -0.6625
3.5 0.1875 -0.6
3.5 0.25 -0.6625
3.4375 0.25 -0.6
3.5 0.1875 -0.6625
3.4375 0.1875 -0.6
3.4375 0.25 -0.6625
3.4375 0.1875 -0.6625
3.625 0.1875 -0.6
3.625 0.25 -0.6625
3.5625 0.25 -0.6
3.625 0.1875 -0.6625
3.5625 0.1875 -0.6
3.5625 0.25 -0.6625
3.5625 0.1875 -0.6625
3.75 0.1875 -0.6
3.75 0.25 -0.6625
3.6875 0.25 -0.6
3.75 0.1875 -0.6625
3.6875 0.1875 -0.6
3.6875 0.25 -0.6625
3.6875 0.1875 -0.6625
3.875 0.1875 -0.6
3.875 0.25 -0.6625
3.8125 0.25 -0.6
3.875 0.1875 -0.6625
3.8125 0.1875 -0.6
3.8125 0.25 -0.6625
3.8125 0.1875 -0.6625
4 0.1875 -0.6
4 0.25 -0.6625
3.9375 0.25 -0.6
4 0.1875 -0.6625
3.9375 0.1875 -0.6
3.9375 0.25 -0.6625
3.9375 0.1875 -0.6625
0.125 0.3125 -0.6
0 0.3125 -0.6
0.125 0.375 -0.6625
0.0625 0.375 -0.6
0 0.375 -0.6625
0.125 0.3125 -0.6625
0.0625 0.3125 -0.6
0 0.3125 -0.6625
0.0625 0.375 -0.6625
0.0625 0.3125 -0.6625
0.25 0.3125 -0.6
0.25 0.375 -0.6625
0.1875 0.375 -0.6
0.25 0.3125 -0.6625
0.1875 0.3125 -0.6
0.1875 0.375 -0.6625
0.1875 0.3125 -0.6625
0.375 0.3125 -0.6
0.375 0.375 -0.6625
0.3125 0.375 -0.6
0.375 0.3125 -0.6625
0.3125 0.3125 -0.6
0.3125 0.375 -0.6625
0.3125 0.3125 -0.6625
0.5 0.3125 -0.6
0.5 0.375 -0.6625
0.4375 0.375 -0.6
0.5 0.3125 -0.6625
0.4375 0.3125 -0.6
0.4375 0.375 -0.6625
0.4375 0.3125 -0.6625
0.625 0.3125 -0.6
0.625 0.375 -0.6625
0.5625 0.375 -0.6
0.625 0.3125 -0.6625
0.5625 0.3125 -0.6
0.5625 0.375 -0.6625
0.5625 0.3125 -0.6625
0.75 0.3125 -0.6
0.75 0.375 -0.6625
0.6875 0.375 -0.6
0.75 0.3125 -0.6625
0.6875 0.3125 -0.6
0.6875 0.375 -0.6625
0.6875 0.3125 -0.6625
0.875 0.3125 -0.6
0.875 0.375 -0.6625
0.8125 0.375 -0.6
0.875 0.3125 -0.6625
0.8125 0.3125 -0.6
0.8125 0.375 -0.6625
0.8125 0.3125 -0.6625
1 0.3125 -0.6
1 0.375 -0.6625
0.9375 0.375 -0.6
1 0.3125 -0.6625
0.9375 0.3125 -0.6
0.9375 0.375 -0.6625
0.9375 0.3125 -0.6625
1.125 0.3125 -0.6
1.125 0.375 -0.6625
1.0625 0.375 -0.6
1.125 0.3125 -0.6625
1.0625 0.3125 -0.6
1.0625 0.375 -0.6625
1.0625 0.3125 -0.6625
1.25 0.3125 -0.6
1.25 0.375 -0.6625
1.1875 0.375 -0.6
1.25 0.3125 -0.6625
1.1875 0.3125 -0.6
1.1875 0.375 -0.6625
1.1875 0.3125 -0.6625
1.375 0.3125 -0.6
1.375 0.375 -0.6625
1.3125 0.375 -0.6
1.375 0.3125 -0.6625
1.3125 0.3125 -0.6
1.3125 0.375 -0.6625
1.3125 0.3125 -0.6625
1.5 0.3125 -0.6
1.5 0.375 -0.6625
1.4375 0.375 -0.6
1.5 0.3125 -0.6625
1.4375 0.3125 -0.6
1.4375 0.375 -0.6625
1.4375 0.3125 -0.6625
1.625 0.3125 -0.6
1.625 0.375 -0.6625
1.5625 0.375 -0.6
1.625 0.3125 -0.6625
1.5625 0.3125 -0.6
1.5625 0.375 -0.6625
1.5625 0.3125 -0.6625
1.75 0.3125 -0.6
1.75 0.375 -0.6625
1.6875 0.375 -0.6
1.75 0.3125 -0.6625
1.6875 0.3125 -0.6
1.6875 0.375 -0.6625
1.6875 0.3125 -0.6625
1.875 0.3125 -0.6
1.875 0.375 -0.6625
1.8125 0.375 -0.6
1.875 0.3125 -0.6625
1.8125 0.3125 -0.6
1.8125 0.375 -0.6625
1.8125 0.3125 -0.6625
2 0.3125 -0.6
2 0.375 -0.6625
1.9375 0.375 -0.6
2 0.3125 -0.6625
1.9375 0.3125 -0.6
1.9375 0.375 -0.6625
1.9375 0.3125 -0.6625
2.125 0.3125 -0.6
2.125 0.375 -0.6625
2.0625 0.375 -0.6
2.125 0.3125 -0.6625
2.0625 0.3125 -0.6
2.0625 0.375 -0.6625
2.0625 0.3125 -0.6625
2.25 0.3125 -0.6
2.25 0.375 -0.6625
2.1875 0.375 -0.6
2.25 0.3125 -0.6625
2.1875 0.3125 -0.6
2.1875 0.375 -0.6625
2.1875 0.3125 -0.6625
2.375 0.3125 -0.6
2.375 0.375 -0.6625
2.3125 0.375 -0.6
2.375 0.3125 -0.6625
2.3125 0.3125 -0.6
2.3125 0.375 -0.6625
2.3125 0.3125 -0.6625
2.5 0.3125 -0.6
2.5 0.375 -0.6625
2.4375 0.375 -0.6
2.5 0.3125 -0.6625
2.4375 0.3125 -0.6
2.4375 0.375 -0.6625
2.4375 0.3125 -0.6625
2.625 0.3125 -0.6
2.625 0.375 -0.6625
2.5625 0.375 -0.6
2.625 0.3125 -0.6625
2.5625 0.3125 -0.6
2.5625 0.375 -0.6625
2.5625 0.3125 -0.6625
2.75 0.3125 -0.6
2.75 0.375 -0.6625
2.6875 0.375 -0.6
2.75 0.3125 -0.6625
2.6875 0.3125 -0.6
2.6875 0.375 -0.6625
2.6875 0.3125 -0.6625
2.875 0.3125 -0.6
2.875 0.375 -0.6625
2.8125 0.375 -0.6
2.875 0.3125 -0.6625
2.8125 0.3125 -0.6
2.8125 0.375 -0.6625
2.8125 0.3125 -0.6625
3 0.3125 -0.6
3 0.375 -0.6625
2.9375 0.375 -0.6
3 0.3125 -0.6625
2.9375 0.3125 -0.6
2.9375 0.375 -0.6625
2.9375 0.3125 -0.6625
3.125 0.3125 -0.6
3.125 0.375 -0.6625
3.0625 0.375 -0.6
3.125 0.3125 -0.6625
3.0625 0.3125 -0.6
3.0625 0.375 -0.6625
3.0625 0.3125 -0.6625
3.25 0.3125 -0.6
3.25 0.375 -0.6625
3.1875 0.375 -0.6
3.25 0.3125 -0.6625
3.1875 0.3125 -0.6
3.1875 0.375 -0.6625
3.1875 0.3125 -0.6625
3.375 0.3125 -0.6
3.375 0.375 -0.6625
3.3125 0.375 -0.6
3.375 0.3125 -0.6625
3.3125 0.3125 -0.6
3.3125 0.375 -0.6625
3.3125 0.3125 -0.6625
3.5 0.3125 -0.6
3.5 0.375 -0.6625
3.4375 0.375 -0.6
3.5 0.3125 -0.6625
3.4375 0.3125 -0.6
3.4375 0.375 -0.6625
3.4375 0.3125 -0.6625
3.625 0.3125 -0.6
3.625 0.375 -0.6625
3.5625 0.375 -0.6
3.625 0.3125 -0.6625
3.5625 0.3125 -0.6
3.5625 0.375 -0.6625
3.5625 0.3125 -0.6625
3.75 0.3125 -0.6
3.75 0.375 -0.6625
3.6875 0.375 -0.6
3.75 0.3125 -0.6625
3.6875 0.3125 -0.6
3.6875 0.375 -0.6625
3.6875 0.3125 -0.6625
3.875 0.3125 -0.6
3.875 0.375 -0.6625
3.8125 0.375 -0.6
3.875 0.3125 -0.6625
3.8125 0.3125 -0.6
3.8125 0.375 -0.6625
3.8125 0.3125 -0.6625
4 0.3125 -0.6
4 0.375 -0.6625
3.9375 0.375 -0.6
4 0.3125 -0.6625
3.9375 0.3125 -0.6
3.9375 0.375 -0.6625
3.9375 0.3125 -0.6625
0.125 0.4375 -0.6
0 0.4375 -0.6
0.125 0.5 -0.6625
0.0625 0.5 -0.6
0 0.5 -0.6625
0.125 0.4375 -0.6625
0.0625 0.4375 -0.6
0 0.4375 -0.6625
0.0625 0.5 -0.6625
0.0625 0.4375 -0.6625
0.25 0.4375 -0.6
0.25 0.5 -0.6625
0.1875 0.5 -0.6
0.25 0.4375 -0.6625
0.1875 0.4375 -0.6
0.1875 0.5 -0.6625
0.1875 0.4375 -0.6625
0.375 0.4375 -0.6
0.375 0.5 -0.6625
0.3125 0.5 -0.6
0.375 0.4375 -0.6625
0.3125 0.4375 -0.6
0.3125 0.5 -0.6625
0.3125 0.4375 -0.6625
0.5 0.4375 -0.6
0.5 0.5 -0.6625
0.4375 0.5 -0.6
0.5 0.4375 -0.6625
0.4375 0.4375 -0.6
0.4375 0.5 -0.6625
0.4375 0.4375 -0.6625
0.625 0.4375 -0.6
0.625 0.5 -0.6625
0.5625 0.5 -0.6
0.625 0.4375 -0.6625
0.5625 0.4375 -0.6
0.5625 0.5 -0.6625
0.5625 0.4375 -0.6625
0.75 0.4375 -0.6
0.75 0.5 -0.6625
0.6875 0.5 -0.6
0.75 0.4375 -0.6625
0.6875 0.4375 -0.6
0.6875 0.5 -0.6625
0.6875 0.4375 -0.6625
0.875 0.4375 -0.6
0.875 0.5 -0.6625
0.8125 0.5 -0.6
0.875 0.4375 -0.6625
0.8125 0.4375 -0.6
0.8125 0.5 -0.6625
0.8125 0.4375 -0.6625
1 0.4375 -0.6
1 0.5 -0.6625
0.9375 0.5 -0.6
1 0.4375 -0.6625
0.9375 0.4375 -0.6
0.9375 0.5 -0.6625
0.9375 0.4375 -0.6625
1.125 0.4375 -0.6
1.125 0.5 -0.6625
1.0625 0.5 -0.6
1.125 0.4375 -0.6625
1.0625 0.4375 -0.6
1.0625 0.5 -0.6625
1.0625 0.4375 -0.6625
1.25 0.4375 -0.6
1.25 0.5 -0.6625
1.1875 0.5 -0.6
1.25 0.4375 -0.6625
1.1875 0.4375 -0.6
1.1875 0.5 -0.6625
1.1875 0.4375 -0.6625
1.375 0.4375 -0.6
1.375 0.5 -0.6625
1.3125 0.5 -0.6
1.375 0.4375 -0.6625
1.3125 0.4375 -0.6
1.3125 0.5 -0.6625
1.3125 0.4375 -0.6625
1.5 0.4375 -0.6
1.5 0.5 -0.6625
1.4375 0.5 -0.6
1.5 0.4375 -0.6625
1.4375 0.4375 -0.6
1.4375 0.5 -0.6625
1.4375 0.4375 -0.6625
1.625 0.4375 -0.6
1.625 0.5 -0.6625
1.5625 0.5 -0.6
1.625 0.4375 -0.6625
1.5625 0.4375 -0.6
1.5625 0.5 -0.6625
1.5625 0.4375 -0.6625
1.75 0.4375 -0.6
1.75 0.5 -0.6625
1.6875 0.5 -0.6
1.75 0.4375 -0.6625
1.6875 0.4375 -0.6
1.6875 0.5 -0.6625
1.6875 0.4375 -0.6625
1.875 0.4375 -0.6
1.875 0.5 -0.6625
1.8125 0.5 -0.6
1.875 0.4375 -0.6625
1.8125 0.4375 -0.6
1.8125 0.5 -0.6625
1.8125 0.4375 -0.6625
2 0.4375 -0.6
2 0.5 -0.6625
1.9375 0.5 -0.6
2 0.4375 -0.6625
1.9375 0.4375 -0.6
1.9375 0.5 -0.6625
1.9375 0.4375 -0.6625
2.125 0.4375 -0.6
2.125 0.5 -0.6625
2.0625 0.5 -0.6
2.125 0.4375 -0.6625
2.0625 0.4375 -0.6
2.0625 0.5 -0.6625
2.0625 0.4375 -0.6625
2.25 0.4375 -0.6
2.25 0.5 -0.6625
2.1875 0.5 -0.6
2.25 0.4375 -0.6625
2.1875 0.4375 -0.6
2.1875 0.5 -0.6625
2.1875 0.4375 -0.6625
2.375 0.4375 -0.6
2.375 0.5 -0.6625
2.3125 0.5 -0.6
2.375 0.4375 -0.6625
2.3125 0.4375 -0.6
2.3125 0.5 -0.6625
2.3125 0.4375 -0.6625
2.5 0.4375 -0.6
2.5 0.5 -0.6625
2.4375 0.5 -0.6
2.5 0.4375 -0.6625
2.4375 0.4375 -0.6
2.4375 0.5 -0.6625
2.4375 0.4375 -0.6625
2.625 0.4375 -0.6
2.625 0.5 -0.6625
2.5625 0.5 -0.6
2.625 0.4375 -0.6625
2.5625 0.4375 -0.6
2.5625 0.5 -0.6625
2.5625 0.4375 -0.6625
2.75 0.4375 -0.6
2.75 0.5 -0.6625
2.6875 0.5 -0.6
2.75 0.4375 -0.6625
2.6875 0.4375 -0.6
2.6875 0.5 -0.6625
2.6875 0.4375 -0.6625
2.875 0.4375 -0.6
2.875 0.5 -0.6625
2.8125 0.5 -0.6
2.875 0.4375 -0.6625
2.8125 0.4375 -0.6
2.8125 0.5 -0.6625
2.8125 0.4375 -0.6625
3 0.4375 -0.6
3 0.5 -0.6625
2.9375 0.5 -0.6
3 0.4375 -0.6625
2.9375 0.4375 -0.6
2.9375 0.5 -0.6625
2.9375 0.4375 -0.6625
3.125 0.4375 -0.6
3.125 0.5 -0.6625
3.0625 0.5 -0.6
3.125 0.4375 -0.6625
3.0625 0.4375 -0.6
3.0625 0.5 -0.6625
3.0625 0.4375 -0.6625
3.25 0.4375 -0.6
3.25 0.5 -0.6625
3.1875 0.5 -0.6
3.25 0.4375 -0.6625
3.1875 0.4375 -0.6
3.1875 0.5 -0.6625
3.1875 0.4375 -0.6625
3.375 0.4375 -0.6
3.375 0.5 -0.6625
3.3125 0.5 -0.6
3.375 0.4375 -0.6625
3.3125 0.4375 -0.6
3.3125 0.5 -0.6625
3.3125 0.4375 -0.6625
3.5 0.4375 -0.6
3.5 0.5 -0.6625
3.4375 0.5 -0.6
3.5 0.4375 -0.6625
3.4375 0.4375 -0.6
3.4375 0.5 -0.6625
3.4375 0.4375 -0.6625
3.625 0.4375 -0.6
3.625 0.5 -0.6625
3.5625 0.5 -0.6
3.625 0.4375 -0.6625
3.5625 0.4375 -0.6
3.5625 0.5 -0.6625
3.5625 0.4375 -0.6625
3.75 0.4375 -0.6
3.75 0.5 -0.6625
3.6875 0.5 -0.6
3.75 0.4375 -0.6625
3.6875 0.4375 -0.6
3.6875 0.5 -0.6625
3.6875 0.4375 -0.6625
3.875 0.4375 -0.6
3.875 0.5 -0.6625
3.8125 0.5 -0.6
3.875 0.4375 -0.6625
3.8125 0.4375 -0.6
3.8125 0.5 -0.6625
3.8125 0.4375 -0.6625
4 0.4375 -0.6
4 0.5 -0.6625
3.9375 0.5 -0.6
4 0.4375 -0.6625
3.9375 0.4375 -0.6
3.9375 0.5 -0.6625
3.9375 0.4375 -0.6625
0.125 0.5625 -0.6
0 0.5625 -0.6
0.125 0.625 -0.6625
0.0625 0.625 -0.6
0 0.625 -0.6625
0.125 0.5625 -0.6625
0.0625 0.5625 -0.6
0 0.5625 -0.6625
0.0625 0.625 -0.6625
0.0625 0.5625 -0.6625
0.25 0.5625 -0.6
0.25 0.625 -0.6625
0.1875 0.625 -0.6
0.25 0.5625 -0.6625
0.1875 0.5625 -0.6
0.1875 0.625 -0.6625
0.1875 0.5625 -0.6625
0.375 0.5625 -0.6
0.375 0.625 -0.6625
0.3125 0.625 -0.6
0.375 0.5625 -0.6625
0.3125 0.5625 -0.6
0.3125 0.625 -0.6625
0.3125 0.5625 -0.6625
0.5 0.5625 -0.6
0.5 0.625 -0.6625
0.4375 0.625 -0.6
0.5 0.5625 -0.6625
0.4375 0.5625 -0.6
0.4375 0.625 -0.6625
0.4375 0.5625 -0.6625
0.625 0.5625 -0.6
0.625 0.625 -0.6625
0.5625 0.625 -0.6
0.625 0.5625 -0.6625
0.5625 0.5625 -0.6
0.5625 0.625 -0.6625
0.5625 0.5625 -0.6625
0.75 0.5625 -0.6
0.75 0.625 -0.6625
0.6875 0.625 -0.6
0.75 0.5625 -0.6625
0.6875 0.5625 -0.6
0.6875 0.625 -0.6625
0.6875 0.5625 -0.6625
0.875 0.5625 -0.6
0.875 0.625 -0.6625
0.8125 0.625 -0.6
0.875 0.5625 -0.6625
0.8125 0.5625 -0.6
0.8125 0.625 -0.6625
0.8125 0.5625 -0.6625
1 0.5625 -0.6
1 0.625 -0.6625
0.9375 0.625 -0.6
1 0.5625 -0.6625
0.9375 0.5625 -0.6
0.9375 0.625 -0.6625
0.9375 0.5625 -0.6625
1.125 0.5625 -0.6
1.125 0.625 -0.6625
1.0625 0.625 -0.6
1.125 0.5625 -0.6625
1.0625 0.5625 -0.6
1.0625 0.625 -0.6625
1.0625 0.5625 -0.6625
1.25 0.5625 -0.6
1.25 0.625 -0.6625
1.1875 0.625 -0.6
1.25 0.5625 -0.6625
1.1875 0.5625 -0.6
1.1875 0.625 -0.6625
1.1875 0.5625 -0.6625
1.375 0.5625 -0.6
1.375 0.625 -0.6625
1.3125 0.625 -0.6
1.375 0.5625 -0.6625
1.3125 0.5625 -0.6
1.3125 0.625 -0.6625
1.3125 0.5625 -0.6625
1.5 0.5625 -0.6
1.5 0.625 -0.6625
1.4375 0.625 -0.6
1.5 0.5625 -0.6625
1.4375 0.5625 -0.6
1.4375 0.625 -0.6625
1.4375 0.5625 -0.6625
1.625 0.5625 -0.6
1.625 0.625 -0.6625
1.5625 0.625 -0.6
1.625 0.5625 -0.6625
1.5625 0.5625 -0.6
1.5625 0.625 -0.6625
1.5625 0.5625 -0.6625
1.75 0.5625 -0.6
1.75 0.625 -0.6625
1.6875 0.625 -0.6
1.75 0.5625 -0.6625
1.6875 0.5625 -0.6
1.6875 0.625 -0.6625
1.6875 0.5625 -0.6625
1.875 0.5625 -0.6
1.875 0.625 -0.6625
1.8125 0.625 -0.6
1.875 0.5625 -0.6625
1.8125 0.5625 -0.6
1.8125 0.625 -0.6625
1.8125 0.5625 -0.6625
2 0.5625 -0.6
2 0.625 -0.6625
1.9375 0.625 -0.6
2 0.5625 -0.6625
1.9375 0.5625 -0.6
1.9375 0.625 -0.6625
1.9375 0.5625 -0.6625
2.125 0.5625 -0.6
2.125 0.625 -0.6625
2.0625 0.625 -0.6
2.125 0.5625 -0.6625
2.0625 0.5625 -0.6
2.0625 0.625 -0.6625
2.0625 0.5625 -0.6625
2.25 0.5625 -0.6
2.25 0.625 -0.6625
2.1875 0.625 -0.6
2.25 0.5625 -0.6625
2.1875 0.5625 -0.6
2.1875 0.625 -0.6625
2.1875 0.5625 -0.6625
2.375 0.5625 -0.6
2.375 0.625 -0.6625
2.3125 0.625 -0.6
2.375 0.5625 -0.6625
2.3125 0.5625 -0.6
2.3125 0.625 -0.6625
2.3125 0.5625 -0.6625
2.5 0.5625 -0.6
2.5 0.625 -0.6625
2.4375 0.625 -0.6
2.5 0.5625 -0.6625
2.4375 0.5625 -0.6
2.4375 0.625 -0.6625
2.4375 0.5625 -0.6625
2.625 0.5625 -0.6
2.625 0.625 -0.6625
2.5625 0.625 -0.6
2.625 0.5625 -0.6625
2.5625 0.5625 -0.6
2.5625 0.625 -0.6625
2.5625 0.5625 -0.6625
2.75 0.5625 -0.6
2.75 0.625 -0.6625
2.6875 0.625 -0.6
2.75 0.5625 -0.6625
2.6875 0.5625 -0.6
2.6875 0.625 -0.6625
2.6875 0.5625 -0.6625
2.875 0.5625 -0.6
2.875 0.625 -0.6625
2.8125 0.625 -0.6
2.875 0.5625 -0.6625
2.8125 0.5625 -0.6
2.8125 0.625 -0.6625
2.8125 0.5625 -0.6625
3 0.5625 -0.6
3 0.625 -0.6625
2.9375 0.625 -0.6
3 0.5625 -0.6625
2.9375 0.5625 -0.6
2.9375 0.625 -0.6625
2.9375 0.5625 -0.6625
3.125 0.5625 -0.6
3.125 0.625 -0.6625
3.0625 0.625 -0.6
3.125 0.5625 -0.6625
3.0625 0.5625 -0.6
3.0625 0.625 -0.6625
3.0625 0.5625 -0.6625
3.25 0.5625 -0.6
3.25 0.625 -0.6625
3.1875 0.625 -0.6
3.25 0.5625 -0.6625
3.1875 0.5625 -0.6
3.1875 0.625 -0.6625
3.1875 0.5625 -0.6625
3.375 0.5625 -0.6
3.375 0.625 -0.6625
3.3125 0.625 -0.6
3.375 0.5625 -0.6625
3.3125 0.5625 -0.6
3.3125 0.625 -0.6625
3.3125 0.5625 -0.6625
3.5 0.5625 -0.6
3.5 0.625 -0.6625
3.4375 0.625 -0.6
3.5 0.5625 -0.6625
3.4375 0.5625 -0.6
3.4375 0.625 -0.6625
3.4375 0.5625 -0.6625
3.625 0.5625 -0.6
3.625 0.625 -0.6625
3.5625 0.625 -0.6
3.625 0.5625 -0.6625
3.5625 0.5625 -0.6
3.5625 0.625 -0.6625
3.5625 0.5625 -0.6625
3.75 0.5625 -0.6
3.75 0.625 -0.6625
3.6875 0.625 -0.6
3.75 0.5625 -0.6625
3.6875 0.5625 -0.6
3.6875 0.625 -0.6625
3.6875 0.5625 -0.6625
3.875 0.5625 -0.6
3.875 0.625 -0.6625
3.8125 0.625 -0.6
3.875 0.5625 -0.6625
3.8125 0.5625 -0.6
3.8125 0.625 -0.6625
3.8125 0.5625 -0.6625
4 0.5625 -0.6
4 0.625 -0.6625
3.9375 0.625 -0.6
4 0.5625 -0.6625
3.9375 0.5625 -0.6
3.9375 0.625 -0.6625
3.9375 0.5625 -0.6625
0.125 0.6875 -0.6
0 0.6875 -0.6
0.125 0.75 -0.6625
0.0625 0.75 -0.6
0 0.75 -0.6625
0.125 0.6875 -0.6625
0.0625 0.6875 -0.6
0 0.6875 -0.6625
0.0625 0.75 -0.6625
0.0625 0.6875 -0.6625
0.25 0.6875 -0.6
0.25 0.75 -0.6625
0.1875 0.75 -0.6
0.25 0.6875 -0.6625
0.1875 0.6875 -0.6
0.1875 0.75 -0.6625
0.1875 0.6875 -0.6625
0.375 0.6875 -0.6
0.375 0.75 -0.6625
0.3125 0.75 -0.6
0.375 0.6875 -0.6625
0.3125 0.6875 -0.6
0.3125 0.75 -0.6625
0.3125 0.6875 -0.6625
0.5 0.6875 -0.6
0.5 0.75 -0.6625
0.4375 0.75 -0.6
0.5 0.6875 -0.6625
0.4375 0.6875 -0.6
0.4375 0.75 -0.6625
0.4375 0.6875 -0.6625
0.625 0.6875 -0.6
0.625 0.75 -0.6625
0.5625 0.75 -0.6
0.625 0.6875 -0.6625
0.5625 0.6875 -0.6
0.5625 0.75 -0.6625
0.5625 0.6875 -0.6625
0.75 0.6875 -0.6
0.75 0.75 -0.6625
0.6875 0.75 -0.6
0.75 0.6875 -0.6625
0.6875 0.6875 -0.6
0.6875 0.75 -0.6625
0.6875 0.6875 -0.6625
0.875 0.6875 -0.6
0.875 0.75 -0.6625
0.8125 0.75 -0.6
0.875 0.6875 -0.6625
0.8125 0.6875 -0.6
0.8125 0.75 -0.6625
0.8125 0.6875 -0.6625
1 0.6875 -0.6
1 0.75 -0.6625
0.9375 0.75 -0.6
1 0.6875 -0.6625
0.9375 0.6875 -0.6
0.9375 0.75 -0.6625
0.9375 0.6875 -0.6625
1.125 0.6875 -0.6
1.125 0.75 -0.6625
1.0625 0.75 -0.6
1.125 0.6875 -0.6625
1.0625 0.6875 -0.6
1.0625 0.75 -0.6625
1.0625 0.6875 -0.6625
1.25 0.6875 -0.6
1.25 0.75 -0.6625
1.1875 0.75 -0.6
1.25 0.6875 -0.6625
1.1875 0.6875 -0.6
1.1875 0.75 -0.6625
1.1875 0.6875 -0.6625
1.375 0.6875 -0.6
1.375 0.75 -0.6625
1.3125 0.75 -0.6
1.375 0.6875 -0.6625
1.3125 0.6875 -0.6
1.3125 0.75 -0.6625
1.3125 0.6875 -0.6625
1.5 0.6875 -0.6
1.5 0.75 -0.6625
1.4375 0.75 -0.6
1.5 0.6875 -0.6625
1.4375 0.6875 -0.6
1.4375 0.75 -0.6625
1.4375 0.6875 -0.6625
1.625 0.6875 -0.6
1.625 0.75 -0.6625
1.5625 0.75 -0.6
1.625 0.6875 -0.6625
1.5625 0.6875 -0.6
1.5625 0.75 -0.6625
1.5625 0.6875 -0.6625
1.75 0.6875 -0.6
1.75 0.75 -0.6625
1.6875 0.75 -0.6
1.75 0.6875 -0.6625
1.6875 0.6875 -0.6
1.6875 0.75 -0.6625
1.6875 0.6875 -0.6625
1.875 0.6875 -0.6
1.875 0.75 -0.6625
1.8125 0.75 -0.6
1.875 0.6875 -0.6625
1.8125 0.6875 -0.6
1.8125 0.75 -0.6625
1.8125 0.6875 -0.6625
2 0.6875 -0.6
2 0.75 -0.6625
1.9375 0.75 -0.6
2 0.6875 -0.6625
1.9375 0.6875 -0.6
1.9375 0.75 -0.6625
1.9375 0.6875 -0.6625
2.125 0.6875 -0.6
2.125 0.75 -0.6625
2.0625 0.75 -0.6
2.125 0.6875 -0.6625
2.0625 0.6875 -0.6
2.0625 0.75 -0.6625
2.0625 0.6875 -0.6625
2.25 0.6875 -0.6
2.25 0.75 -0.6625
2.1875 0.75 -0.6
2.25 0.6875 -0.6625
2.1875 0.6875 -0.6
2.1875 0.75 -0.6625
2.1875 0.6875 -0.6625
2.375 0.6875 -0.6
2.375 0.75 -0.6625
2.3125 0.75 -0.6
2.375 0.6875 -0.6625
2.3125 0.6875 -0.6
2.3125 0.75 -0.6625
2.3125 0.6875 -0.6625
2.5 0.6875 -0.6
2.5 0.75 -0.6625
2.4375 0.75 -0.6
2.5 0.6875 -0.6625
2.4375 0.6875 -0.6
2.4375 0.75 -0.6625
2.4375 0.6875 -0.6625
2.625 0.6875 -0.6
2.625 0.75 -0.6625
2.5625 0.75 -0.6
2.625 0.6875 -0.6625
2.5625 0.6875 -0.6
2.5625 0.75 -0.6625
2.5625 0.6875 -0.6625
2.75 0.6875 -0.6
2.75 0.75 -0.6625
2.6875 0.75 -0.6
2.75 0.6875 -0.6625
2.6875 0.6875 -0.6
2.6875 0.75 -0.6625
2.6875 0.6875 -0.6625
2.875 0.6875 -0.6
2.875 0.75 -0.6625
2.8125 0.75 -0.6
2.875 0.6875 -0.6625
2.8125 0.6875 -0.6
2.8125 0.75 -0.6625
2.8125 0.6875 -0.6625
3 0.6875 -0.6
3 0.75 -0.6625
2.9375 0.75 -0.6
3 0.6875 -0.6625
2.9375 0.6875 -0.6
2.9375 0.75 -0.6625
2.9375 0.6875 -0.6625
3.125 0.6875 -0.6
3.125 0.75 -0.6625
3.0625 0.75 -0.6
3.125 0.6875 -0.6625
3.0625 0.6875 -0.6
3.0625 0.75 -0.6625
3.0625 0.6875 -0.6625
3.25 0.6875 -0.6
3.25 0.75 -0.6625
3.1875 0.75 -0.6
3.25 0.6875 -0.6625
3.1875 0.6875 -0.6
3.1875 0.75 -0.6625
3.1875 0.6875 -0.6625
3.375 0.6875 -0.6
3.375 0.75 -0.6625
3.3125 0.75 -0.6
3.375 0.6875 -0.6625
3.3125 0.6875 -0.6
3.3125 0.75 -0.6625
3.3125 0.6875 -0.6625
3.5 0.6875 -0.6
3.5 0.75 -0.6625
3.4375 0.75 -0.6
3.5 0.6875 -0.6625
3.4375 0.6875 -0.6
3.4375 0.75 -0.6625
3.4375 0.6875 -0.6625
3.625 0.6875 -0.6
3.625 0.75 -0.6625
3.5625 0.75 -0.6
3.625 0.6875 -0.6625
3.5625 0.6875 -0.6
3.5625 0.75 -0.6625
3.5625 0.6875 -0.6625
3.75 0.6875 -0.6
3.75 0.75 -0.6625
3.6875 0.75 -0.6
3.75 0.6875 -0.6625
3.6875 0.6875 -0.6
3.6875 0.75 -0.6625
3.6875 0.6875 -0.6625
3.875 0.6875 -0.6
3.875 0.75 -0.6625
3.8125 0.75 -0.6
3.875 0.6875 -0.6625
3.8125 0.6875 -0.6
3.8125 0.75 -0.6625
3.8125 0.6875 -0.6625
4 0.6875 -0.6
4 0.75 -0.6625
3.9375 0.75 -0.6
4 0.6875 -0.6625
3.9375 0.6875 -0.6
3.9375 0.75 -0.6625
3.9375 0.6875 -0.6625
0.125 0.8125 -0.6
0 0.8125 -0.6
0.125 0.875 -0.6625
0.0625 0.875 -0.6
0 0.875 -0.6625
0.125 0.8125 -0.6625
0.0625 0.8125 -0.6
0 0.8125 -0.6625
0.0625 0.875 -0.6625
0.0625 0.8125 -0.6625
0.25 0.8125 -0.6
0.25 0.875 -0.6625
0.1875 0.875 -0.6
0.25 0.8125 -0.6625
0.1875 0.8125 -0.6
0.1875 0.875 -0.6625
0.1875 0.8125 -0.6625
0.375 0.8125 -0.6
0.375 0.875 -0.6625
0.3125 0.875 -0.6
0.375 0.8125 -0.6625
0.3125 0.8125 -0.6
0.3125 0.875 -0.6625
0.3125 0.8125 -0.6625
0.5 0.8125 -0.6
0.5 0.875 -0.6625
0.4375 0.875 -0.6
0.5 0.8125 -0.6625
0.4375 0.8125 -0.6
0.4375 0.875 -0.6625
0.4375 0.8125 -0.6625
0.625 0.8125 -0.6
0.625 0.875 -0.6625
0.5625 0.875 -0.6
0.625 0.8125 -0.6625
0.5625 0.8125 -0.6
0.5625 0.875 -0.6625
0.5625 0.8125 -0.6625
0.75 0.8125 -0.6
0.75 0.875 -0.6625
0.6875 0.875 -0.6
0.75 0.8125 -0.6625
0.6875 0.8125 -0.6
0.6875 0.875 -0.6625
0.6875 0.8125 -0.6625
0.875 0.8125 -0.6
0.875 0.875 -0.6625
0.8125 0.875 -0.6
0.875 0.8125 -0.6625
0.8125 0.8125 -0.6
0.8125 0.875 -0.6625
0.8125 0.8125 -0.6625
1 0.8125 -0.6
1 0.875 -0.6625
0.9375 0.875 -0.6
1 0.8125 -0.6625
0.9375 0.8125 -0.6
0.9375 0.875 -0.6625
0.9375 0.8125 -0.6625
1.125 0.8125 -0.6
1.125 0.875 -0.6625
1.0625 0.875 -0.6
1.125 0.8125 -0.6625
1.0625 0.8125 -0.6
1.0625 0.875 -0.6625
1.0625 0.8125 -0.6625
1.25 0.8125 -0.6
1.25 0.875 -0.6625
1.1875 0.875 -0.6
1.25 0.8125 -0.6625
1.1875 0.8125 -0.6
1.1875 0.875 -0.6625
1.1875 0.8125 -0.6625
1.375 0.8125 -0.6
1.375 0.875 -0.6625
1.3125 0.875 -0.6
1.375 0.8125 -0.6625
1.3125 0.8125 -0.6
1.3125 0.875 -0.6625
1.3125 0.8125 -0.6625
1.5 0.8125 -0.6
1.5 0.875 -0.6625
1.4375 0.875 -0.6
1.5 0.8125 -0.6625
1.4375 0.8125 -0.6
1.4375 0.875 -0.6625
1.4375 0.8125 -0.6625
1.625 0.8125 -0.6
1.625 0.875 -0.6625
1.5625 0.875 -0.6
1.625 0.8125 -0.6625
1.5625 0.8125 -0.6
1.5625 0.875 -0.6625
1.5625 0.8125 -0.6625
1.75 0.8125 -0.6
1.75 0.875 -0.6625
1.6875 0.875 -0.6
1.75 0.8125 -0.6625
1.6875 0.8125 -0.6
1.6875 0.875 -0.6625
1.6875 0.8125 -0.6625
1.875 0.8125 -0.6
1.875 0.875 -0.6625
1.8125 0.875 -0.6
1.875 0.8125 -0.6625
1.8125 0.8125 -0.6
1.8125 0.875 -0.6625
1.8125 0.8125 -0.6625
2 0.8125 -0.6
2 0.875 -0.6625
1.9375 0.875 -0.6
2 0.8125 -0.6625
1.9375 0.8125 -0.6
1.9375 0.875 -0.6625
1.9375 0.8125 -0.6625
2.125 0.8125 -0.6
2.125 0.875 -0.6625
2.0625 0.875 -0.6
2.125 0.8125 -0.6625
2.0625 0.8125 -0.6
2.0625 0.875 -0.6625
2.0625 0.8125 -0.6625
2.25 0.8125 -0.6
2.25 0.875 -0.6625
2.1875 0.875 -0.6
2.25 0.8125 -0.6625
2.1875 0.8125 -0.6
2.1875 0.875 -0.6625
2.1875 0.8125 -0.6625
2.375 0.8125 -0.6
2.375 0.875 -0.6625
2.3125 0.875 -0.6
2.375 0.8125 -0.6625
2.3125 0.8125 -0.6
2.3125 0.875 -0.6625
2.3125 0.8125 -0.6625
2.5 0.8125 -0.6
2.5 0.875 -0.6625
2.4375 0.875 -0.6
2.5 0.8125 -0.6625
2.4375 0.8125 -0.6
2.4375 0.875 -0.6625
2.4375 0.8125 -0.6625
2.625 0.8125 -0.6
2.625 0.875 -0.6625
2.5625 0.875 -0.6
2.625 0.8125 -0.6625
2.5625 0.8125 -0.6
2.5625 0.875 -0.6625
2.5625 0.8125 -0.6625
2.75 0.8125 -0.6
2.75 0.875 -0.6625
2.6875 0.875 -0.6
2.75 0.8125 -0.6625
2.6875 0.8125 -0.6
2.6875 0.875 -0.6625
2.6875 0.8125 -0.6625
2.875 0.8125 -0.6
2.875 0.875 -0.6625
2.8125 0.875 -0.6
2.875 0.8125 -0.6625
2.8125 0.8125 -0.6
2.8125 0.875 -0.6625
2.8125 0.8125 -0.6625
3 0.8125 -0.6
3 0.875 -0.6625
2.9375 0.875 -0.6
3 0.8125 -0.6625
2.9375 0.8125 -0.6
2.9375 0.875 -0.6625
2.9375 0.8125 -0.6625
3.125 0.8125 -0.6
3.125 0.875 -0.6625
3.0625 0.875 -0.6
3.125 0.8125 -0.6625
3.0625 0.8125 -0.6
3.0625 0.875 -0.6625
3.0625 0.8125 -0.6625
3.25 0.8125 -0.6
3.25 0.875 -0.6625
3.1875 0.875 -0.6
3.25 0.8125 -0.6625
3.1875 0.8125 -0.6
3.1875 0.875 -0.6625
3.1875 0.8125 -0.6625
3.375 0.8125 -0.6
3.375 0.875 -0.6625
3.3125 0.875 -0.6
3.375 0.8125 -0.6625
3.3125 0.8125 -0.6
3.3125 0.875 -0.6625
3.3125 0.8125 -0.6625
3.5 0.8125 -0.6
3.5 0.875 -0.6625
3.4375 0.875 -0.6
3.5 0.8125 -0.6625
3.4375 0.8125 -0.6
3.4375 0.875 -0.6625
3.4375 0.8125 -0.6625
3.625 0.8125 -0.6
3.625 0.875 -0.6625
3.5625 0.875 -0.6
3.625 0.8125 -0.6625
3.5625 0.8125 -0.6
3.5625 0.875 -0.6625
3.5625 0.8125 -0.6625
3.75 0.8125 -0.6
3.75 0.875 -0.6625
3.6875 0.875 -0.6
3.75 0.8125 -0.6625
3.6875 0.8125 -0.6
3.6875 0.875 -0.6625
3.6875 0.8125 -0.6625
3.875 0.8125 -0.6
3.875 0.875 -0.6625
3.8125 0.875 -0.6
3.875 0.8125 -0.6625
3.8125 0.8125 -0.6
3.8125 0.875 -0.6625
3.8125 0.8125 -0.6625
4 0.8125 -0.6
4 0.875 -0.6625
3.9375 0.875 -0.6
4 0.8125 -0.6625
3.9375 0.8125 -0.6
3.9375 0.875 -0.6625
3.9375 0.8125 -0.6625
0.125 0.9375 -0.6
0 0.9375 -0.6
0.125 1 -0.6625
0.0625 1 -0.6
0 1 -0.6625
0.125 0.9375 -0.6625
0.0625 0.9375 -0.6
0 0.9375 -0.6625
0.0625 1 -0.6625
0.0625 0.9375 -0.6625
0.25 0.9375 -0.6
0.25 1 -0.6625
0.1875 1 -0.6
0.25 0.9375 -0.6625
0.1875 0.9375 -0.6
0.1875 1 -0.6625
0.1875 0.9375 -0.6625
0.375 0.9375 -0.6
0.375 1 -0.6625
0.3125 1 -0.6
0.375 0.9375 -0.6625
0.3125 0.9375 -0.6
0.3125 1 -0.6625
0.3125 0.9375 -0.6625
0.5 0.9375 -0.6
0.5 1 -0.6625
0.4375 1 -0.6
0.5 0.9375 -0.6625
0.4375 0.9375 -0.6
0.4375 1 -0.6625
0.4375 0.9375 -0.6625
0.625 0.9375 -0.6
0.625 1 -0.6625
0.5625 1 -0.6
0.625 0.9375 -0.6625
0.5625 0.9375 -0.6
0.5625 1 -0.6625
0.5625 0.9375 -0.6625
0.75 0.9375 -0.6
0.75 1 -0.6625
0.6875 1 -0.6
0.75 0.9375 -0.6625
0.6875 0.9375 -0.6
0.6875 1 -0.6625
0.6875 0.9375 -0.6625
0.875 0.9375 -0.6
0.875 1 -0.6625
0.8125 1 -0.6
0.875 0.9375 -0.6625
0.8125 0.9375 -0.6
0.8125 1 -0.6625
0.8125 0.9375 -0.6625
1 0.9375 -0.6
1 1 -0.6625
0.9375 1 -0.6
1 0.9375 -0.6625
0.9375 0.9375 -0.6
0.9375 1 -0.6625
0.9375 0.9375 -0.6625
1.125 0.9375 -0.6
1.125 1 -0.6625
1.0625 1 -0.6
1.125 0.9375 -0.6625
1.0625 0.9375 -0.6
1.0625 1 -0.6625
1.0625 0.9375 -0.6625
1.25 0.9375 -0.6
1.25 1 -0.6625
1.1875 1 -0.6
1.25 0.9375 -0.6625
1.1875 0.9375 -0.6
1.1875 1 -0.6625
1.1875 0.9375 -0.6625
1.375 0.9375 -0.6
1.375 1 -0.6625
1.3125 1 -0.6
1.375 0.9375 -0.6625
1.3125 0.9375 -0.6
1.3125 1 -0.6625
1.3125 0.9375 -0.6625
1.5 0.9375 -0.6
1.5 1 -0.6625
1.4375 1 -0.6
1.5 0.9375 -0.6625
1.4375 0.9375 -0.6
1.4375 1 -0.6625
1.4375 0.9375 -0.6625
1.625 0.9375 -0.6
1.625 1 -0.6625
1.5625 1 -0.6
1.625 0.9375 -0.6625
1.5625 0.9375 -0.6
1.5625 1 -0.6625
1.5625 0.9375 -0.6625
1.75 0.9375 -0.6
1.75 1 -0.6625
1.6875 1 -0.6
1.75 0.9375 -0.6625
1.6875 0.9375 -0.6
1.6875 1 -0.6625
1.6875 0.9375 -0.6625
1.875 0.9375 -0.6
1.875 1 -0.6625
1.8125 1 -0.6
1.875 0.9375 -0.6625
1.8125 0.9375 -0.6
1.8125 1 -0.6625
1.8125 0.9375 -0.6625
2 0.9375 -0.6
2 1 -0.6625
1.9375 1 -0.6
2 0.9375 -0.6625
1.9375 0.9375 -0.6
1.9375 1 -0.6625
1.9375 0.9375 -0.6625
2.125 0.9375 -0.6
2.125 1 -0.6625
2.0625 1 -0.6
2.125 0.9375 -0.6625
2.0625 0.9375 -0.6
2.0625 1 -0.6625
2.0625 0.9375 -0.6625
2.25 0.9375 -0.6
2.25 1 -0.6625
2.1875 1 -0.6
2.25 0.9375 -0.6625
2.1875 0.9375 -0.6
2.1875 1 -0.6625
2.1875 0.9375 -0.6625
2.375 0.9375 -0.6
2.375 1 -0.6625
2.3125 1 -0.6
2.375 0.9375 -0.6625
2.3125 0.9375 -0.6
2.3125 1 -0.6625
2.3125 0.9375 -0.6625
2.5 0.9375 -0.6
2.5 1 -0.6625
2.4375 1 -0.6
2.5 0.9375 -0.6625
2.4375 0.9375 -0.6
2.4375 1 -0.6625
2.4375 0.9375 -0.6625
2.625 0.9375 -0.6
2.625 1 -0.6625
2.5625 1 -0.6
2.625 0.9375 -0.6625
2.5625 0.9375 -0.6
2.5625 1 -0.6625
2.5625 0.9375 -0.6625
2.75 0.9375 -0.6
2.75 1 -0.6625
2.6875 1 -0.6
2.75 0.9375 -0.6625
2.6875 0.9375 -0.6
2.6875 1 -0.6625
2.6875 0.9375 -0.6625
2.875 0.9375 -0.6
2.875 1 -0.6625
2.8125 1 -0.6
2.875 0.9375 -0.6625
2.8125 0.9375 -0.6
2.8125 1 -0.6625
2.8125 0.9375 -0.6625
3 0.9375 -0.6
3 1 -0.6625
2.9375 1 -0.6
3 0.9375 -0.6625
2.9375 0.9375 -0.6
2.9375 1 -0.6625
2.9375 0.9375 -0.6625
3.125 0.9375 -0.6
3.125 1 -0.6625
3.0625 1 -0.6
3.125 0.9375 -0.6625
3.0625 0.9375 -0.6
3.0625 1 -0.6625
3.0625 0.9375 -0.6625
3.25 0.9375 -0.6
3.25 1 -0.6625
3.1875 1 -0.6
3.25 0.9375 -0.6625
3.1875 0.9375 -0.6
3.1875 1 -0.6625
3.1875 0.9375 -0.6625
3.375 0.9375 -0.6
3.375 1 -0.6625
3.3125 1 -0.6
3.375 0.9375 -0.6625
3.3125 0.9375 -0.6
3.3125 1 -0.6625
3.3125 0.9375 -0.6625
3.5 0.9375 -0.6
3.5 1 -0.6625
3.4375 1 -0.6
3.5 0.9375 -0.6625
3.4375 0.9375 -0.6
3.4375 1 -0.6625
3.4375 0.9375 -0.6625
3.625 0.9375 -0.6
3.625 1 -0.6625
3.5625 1 -0.6
3.625 0.9375 -0.6625
3.5625 0.9375 -0.6
3.5625 1 -0.6625
3.5625 0.9375 -0.6625
3.75 0.9375 -0.6
3.75 1 -0.6625
3.6875 1 -0.6
3.75 0.9375 -0.6625
3.6875 0.9375 -0.6
3.6875 1 -0.6625
3.6875 0.9375 -0.6625
3.875 0.9375 -0.6
3.875 1 -0.6625
3.8125 1 -0.6
3.875 0.9375 -0.6625
3.8125 0.9375 -0.6
3.8125 1 -0.6625
3.8125 0.9375 -0.6625
4 0.9375 -0.6
4 1 -0.6625
3.9375 1 -0.6
4 0.9375 -0.6625
3.9375 0.9375 -0.6
3.9375 1 -0.6625
3.9375 0.9375 -0.6625
0.125 0 -0.5375
0.0625 0 -0.475
0 0 -0.5375
0.125 0.0625 -0.475
0 0.0625 -0.475
0.125 0.125 -0.5375
0.0625 0.125 -0.475
0 0.125 -0.5375
0.0625 0 -0.5375
0.125 0.0625 -0.5375
0.0625 0.0625 -0.475
0 0.0625 -0.5375
0.0625 0.125 -0.5375
0.0625 0.0625 -0.5375
0.25 0 -0.5375
0.1875 0 -0.475
0.25 0.0625 -0.475
0.25 0.125 -0.5375
0.1875 0.125 -0.475
0.1875 0 -0.5375
0.25 0.0625 -0.5375
0.1875 0.0625 -0.475
0.1875 0.125 -0.5375
0.1875 0.0625 -0.5375
0.375 0 -0.5375
0.3125 0 -0.475
0.375 0.0625 -0.475
0.375 0.125 -0.5375
0.3125 0.125 -0.475
0.3125 0 -0.5375
0.375 0.0625 -0.5375
0.3125 0.0625 -0.475
0.3125 0.125 -0.5375
0.3125 0.0625 -0.5375
0.5 0 -0.5375
0.4375 0 -0.475
0.5 0.0625 -0.475
0.5 0.125 -0.5375
0.4375 0.125 -0.475
0.4375 0 -0.5375
0.5 0.0625 -0.5375
0.4375 0.0625 -0.475
0.4375 0.125 -0.5375
0.4375 0.0625 -0.5375
0.625 0 -0.5375
0.5625 0 -0.475
0.625 0.0625 -0.475
0.625 0.125 -0.5375
0.5625 0.125 -0.475
0.5625 0 -0.5375
0.625 0.0625 -0.5375
0.5625 0.0625 -0.475
0.5625 0.125 -0.5375
0.5625 0.0625 -0.5375
0.75 0 -0.5375
0.6875 0 -0.475
0.75 0.0625 -0.475
0.75 0.125 -0.5375
0.6875 0.125 -0.475
0.6875 0 -0.5375
0.75 0.0625 -0.5375
0.6875 0.0625 -0.475
0.6875 0.125 -0.5375
0.6875 0.0625 -0.5375
0.875 0 -0.5375
0.8125 0 -0.475
0.875 0.0625 -0.475
0.875 0.125 -0.5375
0.8125 0.125 -0.475
0.8125 0 -0.5375
0.875 0.0625 -0.5375
0.8125 0.0625 -0.475
0.8125 0.125 -0.5375
0.8125 0.0625 -0.5375
1 0 -0.5375
0.9375 0 -0.475
1 0.0625 -0.475
1 0.125 -0.5375
0.9375 0.125 -0.475
0.9375 0 -0.5375
1 0.0625 -0.5375
0.9375 0.0625 -0.475
0.9375 0.125 -0.5375
0.9375 0.0625 -0.5375
1.125 0 -0.5375
1.0625 0 -0.475
1.125 0.0625 -0.475
1.125 0.125 -0.5375
1.0625 0.125 -0.475
1.0625 0 -0.5375
1.125 0.0625 -0.5375
1.0625 0.0625 -0.475
1.0625 0.125 -0.5375
1.0625 0.0625 -0.5375
1.25 0 -0.5375
1.1875 0 -0.475
1.25 0.0625 -0.475
1.25 0.125 -0.5375
1.1875 0.125 -0.475
1.1875 0 -0.5375
1.25 0.0625 -0.5375
1.1875 0.0625 -0.475
1.1875 0.125 -0.5375
1.1875 0.0625 -0.5375
1.375 0 -0.5375
1.3125 0 -0.475
1.375 0.0625 -0.475
1.375 0.125 -0.5375
1.3125 0.125 -0.475
1.3125 0 -0.5375
1.375 0.0625 -0.5375
1.3125 0.0625 -0.475
1.3125 0.125 -0.5375
1.3125 0.0625 -0.5375
1.5 0 -0.5375
1.4375 0 -0.475
1.5 0.0625 -0.475
1.5 0.125 -0.5375
1.4375 0.125 -0.475
1.4375 0 -0.5375
1.5 0.0625 -0.5375
1.4375 0.0625 -0.475
1.4375 0.125 -0.5375
1.4375 0.0625 -0.5375
1.625 0 -0.5375
1.5625 0 -0.475
1.625 0.0625 -0.475
1.625 0.125 -0.5375
1.5625 0.125 -0.475
1.5625 0 -0.5375
1.625 0.0625 -0.5375
1.5625 0.0625 -0.475
1.5625 0.125 -0.5375
1.5625 0.0625 -0.5375
1.75 0 -0.5375
1.6875 0 -0.475
1.75 0.0625 -0.475
1.75 0.125 -0.5375
1.6875 0.125 -0.475
1.6875 0 -0.5375
1.75 0.0625 -0.5375
1.6875 0.0625 -0.475
1.6875 0.125 -0.5375
1.6875 0.0625 -0.5375
1.875 0 -0.5375
1.8125 0 -0.475
1.875 0.0625 -0.475
1.875 0.125 -0.5375
1.8125 0.125 -0.475
1.8125 0 -0.5375
1.875 0.0625 -0.5375
1.8125 0.0625 -0.475
1.8125 0.125 -0.5375
1.8125 0.0625 -0.5375
2 0 -0.5375
1.9375 0 -0.475
2 0.0625 -0.475
2 0.125 -0.5375
1.9375 0.125 -0.475
1.9375 0 -0.5375
2 0.0625 -0.5375
1.9375 0.0625 -0.475
1.9375 0.125 -0.5375
1.9375 0.0625 -0.5375
2.125 0 -0.5375
2.0625 0 -0.475
2.125 0.0625 -0.475
2.125 0.125 -0.5375
2.0625 0.125 -0.475
2.0625 0 -0.5375
2.125 0.0625 -0.5375
2.0625 0.0625 -0.475
2.0625 0.125 -0.5375
2.0625 0.0625 -0.5375
2.25 0 -0.5375
2.1875 0 -0.475
2.25 0.0625 -0.475
2.25 0.125 -0.5375
2.1875 0.125 -0.475
2.1875 0 -0.5375
2.25 0.0625 -0.5375
2.1875 0.0625 -0.475
2.1875 0.125 -0.5375
2.1875 0.0625 -0.5375
2.375 0 -0.5375
2.3125 0 -0.475
2.375 0.0625 -0.475
2.375 0.125 -0.5375
2.3125 0.125 -0.475
2.3125 0 -0.5375
2.375 0.0625 -0.5375
2.3125 0.0625 -0.475
2.3125 0.125 -0.5375
2.3125 0.0625 -0.5375
2.5 0 -0.5375
2.4375 0 -0.475
2.5 0.0625 -0.475
2.5 0.125 -0.5375
2.4375 0.125 -0.475
2.4375 0 -0.5375
2.5 0.0625 -0.5375
2.4375 0.0625 -0.475
2.4375 0.125 -0.5375
2.4375 0.0625 -0.5375
2.625 0 -0.5375
2.5625 0 -0.475
2.625 0.0625 -0.475
2.625 0.125 -0.5375
2.5625 0.125 -0.475
2.5625 0 -0.5375
2.625 0.0625 -0.5375
2.5625 0.0625 -0.475
2.5625 0.125 -0.5375
2.5625 0.0625 -0.5375
2.75 0 -0.5375
2.6875 0 -0.475
2.75 0.0625 -0.475
2.75 0.125 -0.5375
2.6875 0.125 -0.475
2.6875 0 -0.5375
2.75 0.0625 -0.5375
2.6875 0.0625 -0.475
2.6875 0.125 -0.5375
2.6875 0.0625 -0.5375
2.875 0 -0.5375
2.8125 0 -0.475
2.875 0.0625 -0.475
2.875 0.125 -0.5375
2.8125 0.125 -0.475
2.8125 0 -0.5375
2.875 0.0625 -0.5375
2.8125 0.0625 -0.475
2.8125 0.125 -0.5375
2.8125 0.0625 -0.5375
3 0 -0.5375
2.9375 0 -0.475
3 0.0625 -0.475
3 0.125 -0.5375
2.9375 0.125 -0.475
2.9375 0 -0.5375
3 0.0625 -0.5375
2.9375 0.0625 -0.475
2.9375 0.125 -0.5375
2.9375 0.0625 -0.5375
3.125 0 -0.5375
3.0625 0 -0.475
3.125 0.0625 -0.475
3.125 0.125 -0.5375
3.0625 0.125 -0.475
3.0625 0 -0.5375
3.125 0.0625 -0.5375
3.0625 0.0625 -0.475
3.0625 0.125 -0.5375
3.0625 0.0625 -0.5375
3.25 0 -0.5375
3.1875 0 -0.475
3.25 0.0625 -0.475
3.25 0.125 -0.5375
3.1875 0.125 -0.475
3.1875 0 -0.5375
3.25 0.0625 -0.5375
3.1875 0.0625 -0.475
3.1875 0.125 -0.5375
3.1875 0.0625 -0.5375
3.375 0 -0.5375
3.3125 0 -0.475
3.375 0.0625 -0.475
3.375 0.125 -0.5375
3.3125 0.125 -0.475
3.3125 0 -0.5375
3.375 0.0625 -0.5375
3.3125 0.0625 -0.475
3.3125 0.125 -0.5375
3.3125 0.0625 -0.5375
3.5 0 -0.5375
3.4375 0 -0.475
3.5 0.0625 -0.475
3.5 0.125 -0.5375
3.4375 0.125 -0.475
3.4375 0 -0.5375
3.5 0.0625 -0.5375
3.4375 0.0625 -0.475
3.4375 0.125 -0.5375
3.4375 0.0625 -0.5375
3.625 0 -0.5375
3.5625 0 -0.475
3.625 0.0625 -0.475
3.625 0.125 -0.5375
3.5625 0.125 -0.475
3.5625 0 -0.5375
3.625 0.0625 -0.5375
3.5625 0.0625 -0.475
3.5625 0.125 -0.5375
3.5625 0.0625 -0.5375
3.75 0 -0.5375
3.6875 0 -0.475
3.75 0.0625 -0.475
3.75 0.125 -0.5375
3.6875 0.125 -0.475
3.6875 0 -0.5375
3.75 0.0625 -0.5375
3.6875 0.0625 -0.475
3.6875 0.125 -0.5375
3.6875 0.0625 -0.5375
3.875 0 -0.5375
3.8125 0 -0.475
3.875 0.0625 -0.475
3.875 0.125 -0.5375
3.8125 0.125 -0.475
3.8125 0 -0.5375
3.875 0.0625 -0.5375
3.8125 0.0625 -0.475
3.8125 0.125 -0.5375
3.8125 0.0625 -0.5375
4 0 -0.5375
3.9375 0 -0.475
4 0.0625 -0.475
4 0.125 -0.5375
3.9375 0.125 -0.475
3.9375 0 -0.5375
4 0.0625 -0.5375
3.9375 0.0625 -0.475
3.9375 0.125 -0.5375
3.9375 0.0625 -0.5375
0.125 0.1875 -0.475
0 0.1875 -0.475
0.125 0.25 -0.5375
0.0625 0.25 -0.475
0 0.25 -0.5375
0.125 0.1875 -0.5375
0.0625 0.1875 -0.475
0 0.1875 -0.5375
0.0625 0.25 -0.5375
0.0625 0.1875 -0.5375
0.25 0.1875 -0.475
0.25 0.25 -0.5375
0.1875 0.25 -0.475
0.25 0.1875 -0.5375
0.1875 0.1875 -0.475
0.1875 0.25 -0.5375
0.1875 0.1875 -0.5375
0.375 0.1875 -0.475
0.375 0.25 -0.5375
0.3125 0.25 -0.475
0.375 0.1875 -0.5375
0.3125 0.1875 -0.475
0.3125 0.25 -0.5375
0.3125 0.1875 -0.5375
0.5 0.1875 -0.475
0.5 0.25 -0.5375
0.4375 0.25 -0.475
0.5 0.1875 -0.5375
0.4375 0.1875 -0.475
0.4375 0.25 -0.5375
0.4375 0.1875 -0.5375
0.625 0.1875 -0.475
0.625 0.25 -0.5375
0.5625 0.25 -0.475
0.625 0.1875 -0.5375
0.5625 0.1875 -0.475
0.5625 0.25 -0.5375
0.5625 0.1875 -0.5375
0.75 0.1875 -0.475
0.75 0.25 -0.5375
0.6875 0.25 -0.475
0.75 0.1875 -0.5375
0.6875 0.1875 -0.475
0.6875 0.25 -0.5375
0.6875 0.1875 -0.5375
0.875 0.1875 -0.475
0.875 0.25 -0.5375
0.8125 0.25 -0.475
0.875 0.1875 -0.5375
0.8125 0.1875 -0.475
0.8125 0.25 -0.5375
0.8125 0.1875 -0.5375
1 0.1875 -0.475
1 0.25 -0.5375
0.9375 0.25 -0.475
1 0.1875 -0.5375
0.9375 0.1875 -0.475
0.9375 0.25 -0.5375
0.9375 0.1875 -0.5375
1.125 0.1875 -0.475
1.125 0.25 -0.5375
1.0625 0.25 -0.475
1.125 0.1875 -0.5375
1.0625 0.1875 -0.475
1.0625 0.25 -0.5375
1.0625 0.1875 -0.5375
1.25 0.1875 -0.475
1.25 0.25 -0.5375
1.1875 0.25 -0.475
1.25 0.1875 -0.5375
1.1875 0.1875 -0.475
1.1875 0.25 -0.5375
1.1875 0.1875 -0.5375
1.375 0.1875 -0.475
1.375 0.25 -0.5375
1.3125 0.25 -0.475
1.375 0.1875 -0.5375
1.3125 0.1875 -0.475
1.3125 0.25 -0.5375
1.3125 0.1875 -0.5375
1.5 0.1875 -0.475
1.5 0.25 -0.5375
1.4375 0.25 -0.475
1.5 0.1875 -0.5375
1.4375 0.1875 -0.475
1.4375 0.25 -0.5375
1.4375 0.1875 -0.5375
1.625 0.1875 -0.475
1.625 0.25 -0.5375
1.5625 0.25 -0.475
1.625 0.1875 -0.5375
1.5625 0.1875 -0.475
1.5625 0.25 -0.5375
1.5625 0.1875 -0.5375
1.75 0.1875 -0.475
1.75 0.25 -0.5375
1.6875 0.25 -0.475
1.75 0.1875 -0.5375
1.6875 0.1875 -0.475
1.6875 0.25 -0.5375
1.6875 0.1875 -0.5375
1.875 0.1875 -0.475
1.875 0.25 -0.5375
1.8125 0.25 -0.475
1.875 0.1875 -0.5375
1.8125 0.1875 -0.475
1.8125 0.25 -0.5375
1.8125 0.1875 -0.5375
2 0.1875 -0.475
2 0.25 -0.5375
1.9375 0.25 -0.475
2 0.1875 -0.5375
1.9375 0.1875 -0.475
1.9375 0.25 -0.5375
1.9375 0.1875 -0.5375
2.125 0.1875 -0.475
2.125 0.25 -0.5375
2.0625 0.25 -0.475
2.125 0.1875 -0.5375
2.0625 0.1875 -0.475
2.0625 0.25 -0.5375
2.0625 0.1875 -0.5375
2.25 0.1875 -0.475
2.25 0.25 -0.5375
2.1875 0.25 -0.475
2.25 0.1875 -0.5375
2.1875 0.1875 -0.475
2.1875 0.25 -0.5375
2.1875 0.1875 -0.5375
2.375 0.1875 -0.475
2.375 0.25 -0.5375
2.3125 0.25 -0.475
2.375 0.1875 -0.5375
2.3125 0.1875 -0.475
2.3125 0.25 -0.5375
2.3125 0.1875 -0.5375
2.5 0.1875 -0.475
2.5 0.25 -0.5375
2.4375 0.25 -0.475
2.5 0.1875 -0.5375
2.4375 0.1875 -0.475
2.4375 0.25 -0.5375
2.4375 0.1875 -0.5375
2.625 0.1875 -0.475
2.625 0.25 -0.5375
2.5625 0.25 -0.475
2.625 0.1875 -0.5375
2.5625 0.1875 -0.475
2.5625 0.25 -0.5375
2.5625 0.1875 -0.5375
2.75 0.1875 -0.475
2.75 0.25 -0.5375
2.6875 0.25 -0.475
2.75 0.1875 -0.5375
2.6875 0.1875 -0.475
2.6875 0.25 -0.5375
2.6875 0.1875 -0.5375
2.875 0.1875 -0.475
2.875 0.25 -0.5375
2.8125 0.25 -0.475
2.875 0.1875 -0.5375
2.8125 0.1875 -0.475
2.8125 0.25 -0.5375
2.8125 0.1875 -0.5375
3 0.1875 -0.475
3 0.25 -0.5375
2.9375 0.25 -0.475
3 0.1875 -0.5375
2.9375 0.1875 -0.475
2.9375 0.25 -0.5375
2.9375 0.1875 -0.5375
3.125 0.1875 -0.475
3.125 0.25 -0.5375
3.0625 0.25 -0.475
3.125 0.1875 -0.5375
3.0625 0.1875 -0.475
3.0625 0.25 -0.5375
3.0625 0.1875 -0.5375
3.25 0.1875 -0.475
3.25 0.25 -0.5375
3.1875 0.25 -0.475
3.25 0.1875 -0.5375
3.1875 0.1875 -0.475
3.1875 0.25 -0.5375
3.1875 0.1875 -0.5375
3.375 0.1875 -0.475
3.375 0.25 -0.5375
3.3125 0.25 -0.475
3.375 0.1875 -0.5375
3.3125 0.1875 -0.475
3.3125 0.25 -0.5375
3.3125 0.1875 -0.5375
3.5 0.1875 -0.475
3.5 0.25 -0.5375
3.4375 0.25 -0.475
3.5 0.1875 -0.5375
3.4375 0.1875 -0.475
3.4375 0.25 -0.5375
3.4375 0.1875 -0.5375
3.625 0.1875 -0.475
3.625 0.25 -0.5375
3.5625 0.25 -0.475
3.625 0.1875 -0.5375
3.5625 0.1875 -0.475
3.5625 0.25 -0.5375
3.5625 0.1875 -0.5375
3.75 0.1875 -0.475
3.75 0.25 -0.5375
3.6875 0.25 -0.475
3.75 0.1875 -0.5375
3.6875 0.1875 -0.475
3.6875 0.25 -0.5375
3.6875 0.1875 -0.5375
3.875 0.1875 -0.475
3.875 0.25 -0.5375
3.8125 0.25 -0.475
3.875 0.1875 -0.5375
3.8125 0.1875 -0.475
3.8125 0.25 -0.5375
3.8125 0.1875 -0.5375
4 0.1875 -0.475
4 0.25 -0.5375
3.9375 0.25 -0.475
4 0.1875 -0.5375
3.9375 0.1875 -0.475
3.9375 0.25 -0.5375
3.9375 0.1875 -0.5375
0.125 0.3125 -0.475
0 0.3125 -0.475
0.125 0.375 -0.5375
0.0625 0.375 -0.475
0 0.375 -0.5375
0.125 0.3125 -0.5375
0.0625 0.3125 -0.475
0 0.3125 -0.5375
0.0625 0.375 -0.5375
0.0625 0.3125 -0.5375
0.25 0.3125 -0.475
0.25 0.375 -0.5375
0.1875 0.375 -0.475
0.25 0.3125 -0.5375
0.1875 0.3125 -0.475
0.1875 0.375 -0.5375
0.1875 0.3125 -0.5375
0.375 0.3125 -0.475
0.375 0.375 -0.5375
0.3125 0.375 -0.475
0.375 0.3125 -0.5375
0.3125 0.3125 -0.475
0.3125 0.375 -0.5375
0.3125 0.3125 -0.5375
0.5 0.3125 -0.475
0.5 0.375 -0.5375
0.4375 0.375 -0.475
0.5 0.3125 -0.5375
0.4375 0.3125 -0.475
0.4375 0.375 -0.5375
0.4375 0.3125 -0.5375
0.625 0.3125 -0.475
0.625 0.375 -0.5375
0.5625 0.375 -0.475
0.625 0.3125 -0.5375
0.5625 0.3125 -0.475
0.5625 0.375 -0.5375
0.5625 0.3125 -0.5375
0.75 0.3125 -0.475
0.75 0.375 -0.5375
0.6875 0.375 -0.475
0.75 0.3125 -0.5375
0.6875 0.3125 -0.475
0.6875 0.375 -0.5375
0.6875 0.3125 -0.5375
0.875 0.3125 -0.475
0.875 0.375 -0.5375
0.8125 0.375 -0.475
0.875 0.3125 -0.5375
0.8125 0.3125 -0.475
0.8125 0.375 -0.5375
0.8125 0.3125 -0.5375
1 0.3125 -0.475
1 0.375 -0.5375
0.9375 0.375 -0.475
1 0.3125 -0.5375
0.9375 0.3125 -0.475
0.9375 0.375 -0.5375
0.9375 0.3125 -0.5375
1.125 0.3125 -0.475
1.125 0.375 -0.5375
1.0625 0.375 -0.475
1.125 0.3125 -0.5375
1.0625 0.3125 -0.475
1.0625 0.375 -0.5375
1.0625 0.3125 -0.5375
1.25 0.3125 -0.475
1.25 0.375 -0.5375
1.1875 0.375 -0.475
1.25 0.3125 -0.5375
1.1875 0.3125 -0.475
1.1875 0.375 -0.5375
1.1875 0.3125 -0.5375
1.375 0.3125 -0.475
1.375 0.375 -0.5375
1.3125 0.375 -0.475
1.375 0.3125 -0.5375
1.3125 0.3125 -0.475
1.3125 0.375 -0.5375
1.3125 0.3125 -0.5375
1.5 0.3125 -0.475
1.5 0.375 -0.5375
1.4375 0.375 -0.475
1.5 0.3125 -0.5375
1.4375 0.3125 -0.475
1.4375 0.375 -0.5375
1.4375 0.3125 -0.5375
1.625 0.3125 -0.475
1.625 0.375 -0.5375
1.5625 0.375 -0.475
1.625 0.3125 -0.5375
1.5625 0.3125 -0.475
1.5625 0.375 -0.5375
1.5625 0.3125 -0.5375
1.75 0.3125 -0.475
1.75 0.375 -0.5375
1.6875 0.375 -0.475
1.75 0.3125 -0.5375
1.6875 0.3125 -0.475
1.6875 0.375 -0.5375
1.6875 0.3125 -0.5375
1.875 0.3125 -0.475
1.875 0.375 -0.5375
1.8125 0.375 -0.475
1.875 0.3125 -0.5375
1.8125 0.3125 -0.475
1.8125 0.375 -0.5375
1.8125 0.3125 -0.5375
2 0.3125 -0.475
2 0.375 -0.5375
1.9375 0.375 -0.475
2 0.3125 -0.5375
1.9375 0.3125 -0.475
1.9375 0.375 -0.5375
1.9375 0.3125 -0.5375
2.125 0.3125 -0.475
2.125 0.375 -0.5375
2.0625 0.375 -0.475
2.125 0.3125 -0.5375
2.0625 0.3125 -0.475
2.0625 0.375 -0.5375
2.0625 0.3125 -0.5375
2.25 0.3125 -0.475
2.25 0.375 -0.5375
2.1875 0.375 -0.475
2.25 0.3125 -0.5375
2.1875 0.3125 -0.475
2.1875 0.375 -0.5375
2.1875 0.3125 -0.5375
2.375 0.3125 -0.475
2.375 0.375 -0.5375
2.3125 0.375 -0.475
2.375 0.3125 -0.5375
2.3125 0.3125 -0.475
2.3125 0.375 -0.5375
2.3125 0.3125 -0.5375
2.5 0.3125 -0.475
2.5 0.375 -0.5375
2.4375 0.375 -0.475
2.5 0.3125 -0.5375
2.4375 0.3125 -0.475
2.4375 0.375 -0.5375
2.4375 0.3125 -0.5375
2.625 0.3125 -0.475
2.625 0.375 -0.5375
2.5625 0.375 -0.475
2.625 0.3125 -0.5375
2.5625 0.3125 -0.475
2.5625 0.375 -0.5375
2.5625 0.3125 -0.5375
2.75 0.3125 -0.475
2.75 0.375 -0.5375
2.6875 0.375 -0.475
2.75 0.3125 -0.5375
2.6875 0.3125 -0.475
2.6875 0.375 -0.5375
2.6875 0.3125 -0.5375
2.875 0.3125 -0.475
2.875 0.375 -0.5375
2.8125 0.375 -0.475
2.875 0.3125 -0.5375
2.8125 0.3125 -0.475
2.8125 0.375 -0.5375
2.8125 0.3125 -0.5375
3 0.3125 -0.475
3 0.375 -0.5375
2.9375 0.375 -0.475
3 0.3125 -0.5375
2.9375 0.3125 -0.475
2.9375 0.375 -0.5375
2.9375 0.3125 -0.5375
3.125 0.3125 -0.475
3.125 0.375 -0.5375
3.0625 0.375 -0.475
3.125 0.3125 -0.5375
3.0625 0.3125 -0.475
3.0625 0.375 -0.5375
3.0625 0.3125 -0.5375
3.25 0.3125 -0.475
3.25 0.375 -0.5375
3.1875 0.375 -0.475
3.25 0.3125 -0.5375
3.1875 0.3125 -0.475
3.1875 0.375 -0.5375
3.1875 0.3125 -0.5375
3.375 0.3125 -0.475
3.375 0.375 -0.5375
3.3125 0.375 -0.475
3.375 0.3125 -0.5375
3.3125 0.3125 -0.475
3.3125 0.375 -0.5375
3.3125 0.3125 -0.5375
3.5 0.3125 -0.475
3.5 0.375 -0.5375
3.4375 0.375 -0.475
3.5 0.3125 -0.5375
3.4375 0.3125 -0.475
3.4375 0.375 -0.5375
3.4375 0.3125 -0.5375
3.625 0.3125 -0.475
3.625 0.375 -0.5375
3.5625 0.375 -0.475
3.625 0.3125 -0.5375
3.5625 0.3125 -0.475
3.5625 0.375 -0.5375
3.5625 0.3125 -0.5375
3.75 0.3125 -0.475
3.75 0.375 -0.5375
3.6875 0.375 -0.475
3.75 0.3125 -0.5375
3.6875 0.3125 -0.475
3.6875 0.375 -0.5375
3.6875 0.3125 -0.5375
3.875 0.3125 -0.475
3.875 0.375 -0.5375
3.8125 0.375 -0.475
3.875 0.3125 -0.5375
3.8125 0.3125 -0.475
3.8125 0.375 -0.5375
3.8125 0.3125 -0.5375
4 0.3125 -0.475
4 0.375 -0.5375
3.9375 0.375 -0.475
4 0.3125 -0.5375
3.9375 0.3125 -0.475
3.9375 0.375 -0.5375
3.9375 0.3125 -0.5375
0.125 0.4375 -0.475
0 0.4375 -0.475
0.125 0.5 -0.5375
0.0625 0.5 -0.475
0 0.5 -0.5375
0.125 0.4375 -0.5375
0.0625 0.4375 -0.475
0 0.4375 -0.5375
0.0625 0.5 -0.5375
0.0625 0.4375 -0.5375
0.25 0.4375 -0.475
0.25 0.5 -0.5375
0.1875 0.5 -0.475
0.25 0.4375 -0.5375
0.1875 0.4375 -0.475
0.1875 0.5 -0.5375
0.1875 0.4375 -0.5375
0.375 0.4375 -0.475
0.375 0.5 -0.5375
0.3125 0.5 -0.475
0.375 0.4375 -0.5375
0.3125 0.4375 -0.475
0.3125 0.5 -0.5375
0.3125 0.4375 -0.5375
0.5 0.4375 -0.475
0.5 0.5 -0.5375
0.4375 0.5 -0.475
0.5 0.4375 -0.5375
0.4375 0.4375 -0.475
0.4375 0.5 -0.5375
0.4375 0.4375 -0.5375
0.625 0.4375 -0.475
0.625 0.5 -0.5375
0.5625 0.5 -0.475
0.625 0.4375 -0.5375
0.5625 0.4375 -0.475
0.5625 0.5 -0.5375
0.5625 0.4375 -0.5375
0.75 0.4375 -0.475
0.75 0.5 -0.5375
0.6875 0.5 -0.475
0.75 0.4375 -0.5375
0.6875 0.4375 -0.475
0.6875 0.5 -0.5375
0.6875 0.4375 -0.5375
0.875 0.4375 -0.475
0.875 0.5 -0.5375
0.8125 0.5 -0.475
0.875 0.4375 -0.5375
0.8125 0.4375 -0.475
0.8125 0.5 -0.5375
0.8125 0.4375 -0.5375
1 0.4375 -0.475
1 0.5 -0.5375
0.9375 0.5 -0.475
1 0.4375 -0.5375
0.9375 0.4375 -0.475
0.9375 0.5 -0.5375
0.9375 0.4375 -0.5375
1.125 0.4375 -0.475
1.125 0.5 -0.5375
1.0625 0.5 -0.475
1.125 0.4375 -0.5375
1.0625 0.4375 -0.475
1.0625 0.5 -0.5375
1.0625 0.4375 -0.5375
1.25 0.4375 -0.475
1.25 0.5 -0.5375
1.1875 0.5 -0.475
1.25 0.4375 -0.5375
1.1875 0.4375 -0.475
1.1875 0.5 -0.5375
1.1875 0.4375 -0.5375
1.375 0.4375 -0.475
1.375 0.5 -0.5375
1.3125 0.5 -0.475
1.375 0.4375 -0.5375
1.3125 0.4375 -0.475
1.3125 0.5 -0.5375
1.3125 0.4375 -0.5375
1.5 0.4375 -0.475
1.5 0.5 -0.5375
1.4375 0.5 -0.475
1.5 0.4375 -0.5375
1.4375 0.4375 -0.475
1.4375 0.5 -0.5375
1.4375 0.4375 -0.5375
1.625 0.4375 -0.475
1.625 0.5 -0.5375
1.5625 0.5 -0.475
1.625 0.4375 -0.5375
1.5625 0.4375 -0.475
1.5625 0.5 -0.5375
1.5625 0.4375 -0.5375
1.75 0.4375 -0.475
1.75 0.5 -0.5375
1.6875 0.5 -0.475
1.75 0.4375 -0.5375
1.6875 0.4375 -0.475
1.6875 0.5 -0.5375
1.6875 0.4375 -0.5375
1.875 0.4375 -0.475
1.875 0.5 -0.5375
1.8125 0.5 -0.475
1.875 0.4375 -0.5375
1.8125 0.4375 -0.475
1.8125 0.5 -0.5375
1.8125 0.4375 -0.5375
2 0.4375 -0.475
2 0.5 -0.5375
1.9375 0.5 -0.475
2 0.4375 -0.5375
1.9375 0.4375 -0.475
1.9375 0.5 -0.5375
1.9375 0.4375 -0.5375
2.125 0.4375 -0.475
2.125 0.5 -0.5375
2.0625 0.5 -0.475
2.125 0.4375 -0.5375
2.0625 0.4375 -0.475
2.0625 0.5 -0.5375
2.0625 0.4375 -0.5375
2.25 0.4375 -0.475
2.25 0.5 -0.5375
2.1875 0.5 -0.475
2.25 0.4375 -0.5375
2.1875 0.4375 -0.475
2.1875 0.5 -0.5375
2.1875 0.4375 -0.5375
2.375 0.4375 -0.475
2.375 0.5 -0.5375
2.3125 0.5 -0.475
2.375 0.4375 -0.5375
2.3125 0.4375 -0.475
2.3125 0.5 -0.5375
2.3125 0.4375 -0.5375
2.5 0.4375 -0.475
2.5 0.5 -0.5375
2.4375 0.5 -0.475
2.5 0.4375 -0.5375
2.4375 0.4375 -0.475
2.4375 0.5 -0.5375
2.4375 0.4375 -0.5375
2.625 0.4375 -0.475
2.625 0.5 -0.5375
2.5625 0.5 -0.475
2.625 0.4375 -0.5375
2.5625 0.4375 -0.475
2.5625 0.5 -0.5375
2.5625 0.4375 -0.5375
2.75 0.4375 -0.475
2.75 0.5 -0.5375
2.6875 0.5 -0.475
2.75 0.4375 -0.5375
2.6875 0.4375 -0.475
2.6875 0.5 -0.5375
2.6875 0.4375 -0.5375
2.875 0.4375 -0.475
2.875 0.5 -0.5375
2.8125 0.5 -0.475
2.875 0.4375 -0.5375
2.8125 0.4375 -0.475
2.8125 0.5 -0.5375
2.8125 0.4375 -0.5375
3 0.4375 -0.475
3 0.5 -0.5375
2.9375 0.5 -0.475
3 0.4375 -0.5375
2.9375 0.4375 -0.475
2.9375 0.5 -0.5375
2.9375 0.4375 -0.5375
3.125 0.4375 -0.475
3.125 0.5 -0.5375
3.0625 0.5 -0.475
3.125 0.4375 -0.5375
3.0625 0.4375 -0.475
3.0625 0.5 -0.5375
3.0625 0.4375 -0.5375
3.25 0.4375 -0.475
3.25 0.5 -0.5375
3.1875 0.5 -0.475
3.25 0.4375 -0.5375
3.1875 0.4375 -0.475
3.1875 0.5 -0.5375
3.1875 0.4375 -0.5375
3.375 0.4375 -0.475
3.375 0.5 -0.5375
3.3125 0.5 -0.475
3.375 0.4375 -0.5375
3.3125 0.4375 -0.475
3.3125 0.5 -0.5375
3.3125 0.4375 -0.5375
3.5 0.4375 -0.475
3.5 0.5 -0.5375
3.4375 0.5 -0.475
3.5 0.4375 -0.5375
3.4375 0.4375 -0.475
3.4375 0.5 -0.5375
3.4375 0.4375 -0.5375
3.625 0.4375 -0.475
3.625 0.5 -0.5375
3.5625 0.5 -0.475
3.625 0.4375 -0.5375
3.5625 0.4375 -0.475
3.5625 0.5 -0.5375
3.5625 0.4375 -0.5375
3.75 0.4375 -0.475
3.75 0.5 -0.5375
3.6875 0.5 -0.475
3.75 0.4375 -0.5375
3.6875 0.4375 -0.475
3.6875 0.5 -0.5375
3.6875 0.4375 -0.5375
3.875 0.4375 -0.475
3.875 0.5 -0.5375
3.8125 0.5 -0.475
3.875 0.4375 -0.5375
3.8125 0.4375 -0.475
3.8125 0.5 -0.5375
3.8125 0.4375 -0.5375
4 0.4375 -0.475
4 0.5 -0.5375
3.9375 0.5 -0.475
4 0.4375 -0.5375
3.9375 0.4375 -0.475
3.9375 0.5 -0.5375
3.9375 0.4375 -0.5375
0.125 0.5625 -0.475
0 0.5625 -0.475
0.125 0.625 -0.5375
0.0625 0.625 -0.475
0 0.625 -0.5375
0.125 0.5625 -0.5375
0.0625 0.5625 -0.475
0 0.5625 -0.5375
0.0625 0.625 -0.5375
0.0625 0.5625 -0.5375
0.25 0.5625 -0.475
0.25 0.625 -0.5375
0.1875 0.625 -0.475
0.25 0.5625 -0.5375
0.1875 0.5625 -0.475
0.1875 0.625 -0.5375
0.1875 0.5625 -0.5375
0.375 0.5625 -0.475
0.375 0.625 -0.5375
0.3125 0.625 -0.475
0.375 0.5625 -0.5375
0.3125 0.5625 -0.475
0.3125 0.625 -0.5375
0.3125 0.5625 -0.5375
0.5 0.5625 -0.475
0.5 0.625 -0.5375
0.4375 0.625 -0.475
0.5 0.5625 -0.5375
0.4375 0.5625 -0.475
0.4375 0.625 -0.5375
0.4375 0.5625 -0.5375
0.625 0.5625 -0.475
0.625 0.625 -0.5375
0.5625 0.625 -0.475
0.625 0.5625 -0.5375
0.5625 0.5625 -0.475
0.5625 0.625 -0.5375
0.5625 0.5625 -0.5375
0.75 0.5625 -0.475
0.75 0.625 -0.5375
0.6875 0.625 -0.475
0.75 0.5625 -0.5375
0.6875 0.5625 -0.475
0.6875 0.625 -0.5375
0.6875 0.5625 -0.5375
0.875 0.5625 -0.475
0.875 0.625 -0.5375
0.8125 0.625 -0.475
0.875 0.5625 -0.5375
0.8125 0.5625 -0.475
0.8125 0.625 -0.5375
0.8125 0.5625 -0.5375
1 0.5625 -0.475
1 0.625 -0.5375
0.9375 0.625 -0.475
1 0.5625 -0.5375
0.9375 0.5625 -0.475
0.9375 0.625 -0.5375
0.9375 0.5625 -0.5375
1.125 0.5625 -0.475
1.125 0.625 -0.5375
1.0625 0.625 -0.475
1.125 0.5625 -0.5375
1.0625 0.5625 -0.475
1.0625 0.625 -0.5375
1.0625 0.5625 -0.5375
1.25 0.5625 -0.475
1.25 0.625 -0.5375
1.1875 0.625 -0.475
1.25 0.5625 -0.5375
1.1875 0.5625 -0.475
1.1875 0.625 -0.5375
1.1875 0.5625 -0.5375
1.375 0.5625 -0.475
1.375 0.625 -0.5375
1.3125 0.625 -0.475
1.375 0.5625 -0.5375
1.3125 0.5625 -0.475
1.3125 0.625 -0.5375
1.3125 0.5625 -0.5375
1.5 0.5625 -0.475
1.5 0.625 -0.5375
1.4375 0.625 -0.475
1.5 0.5625 -0.5375
1.4375 0.5625 -0.475
1.4375 0.625 -0.5375
1.4375 0.5625 -0.5375
1.625 0.5625 -0.475
1.625 0.625 -0.5375
1.5625 0.625 -0.475
1.625 0.5625 -0.5375
1.5625 0.5625 -0.475
1.5625 0.625 -0.5375
1.5625 0.5625 -0.5375
1.75 0.5625 -0.475
1.75 0.625 -0.5375
1.6875 0.625 -0.475
1.75 0.5625 -0.5375
1.6875 0.5625 -0.475
1.6875 0.625 -0.5375
1.6875 0.5625 -0.5375
1.875 0.5625 -0.475
1.875 0.625 -0.5375
1.8125 0.625 -0.475
1.875 0.5625 -0.5375
1.8125 0.5625 -0.475
1.8125 0.625 -0.5375
1.8125 0.5625 -0.5375
2 0.5625 -0.475
2 0.625 -0.5375
1.9375 0.625 -0.475
2 0.5625 -0.5375
1.9375 0.5625 -0.475
1.9375 0.625 -0.5375
1.9375 0.5625 -0.5375
2.125 0.5625 -0.475
2.125 0.625 -0.5375
2.0625 0.625 -0.475
2.125 0.5625 -0.5375
2.0625 0.5625 -0.475
2.0625 0.625 -0.5375
2.0625 0.5625 -0.5375
2.25 0.5625 -0.475
2.25 0.625 -0.5375
2.1875 0.625 -0.475
2.25 0.5625 -0.5375
2.1875 0.5625 -0.475
2.1875 0.625 -0.5375
2.1875 0.5625 -0.5375
2.375 0.5625 -0.475
2.375 0.625 -0.5375
2.3125 0.625 -0.475
2.375 0.5625 -0.5375
2.3125 0.5625 -0.475
2.3125 0.625 -0.5375
2.3125 0.5625 -0.5375
2.5 0.5625 -0.475
2.5 0.625 -0.5375
2.4375 0.625 -0.475
2.5 0.5625 -0.5375
2.4375 0.5625 -0.475
2.4375 0.625 -0.5375
2.4375 0.5625 -0.5375
2.625 0.5625 -0.475
2.625 0.625 -0.5375
2.5625 0.625 -0.475
2.625 0.5625 -0.5375
2.5625 0.5625 -0.475
2.5625 0.625 -0.5375
2.5625 0.5625 -0.5375
2.75 0.5625 -0.475
2.75 0.625 -0.5375
2.6875 0.625 -0.475
2.75 0.5625 -0.5375
2.6875 0.5625 -0.475
2.6875 0.625 -0.5375
2.6875 0.5625 -0.5375
2.875 0.5625 -0.475
2.875 0.625 -0.5375
2.8125 0.625 -0.475
2.875 0.5625 -0.5375
2.8125 0.5625 -0.475
2.8125 0.625 -0.5375
2.8125 0.5625 -0.5375
3 0.5625 -0.475
3 0.625 -0.5375
2.9375 0.625 -0.475
3 0.5625 -0.5375
2.9375 0.5625 -0.475
2.9375 0.625 -0.5375
2.9375 0.5625 -0.5375
3.125 0.5625 -0.475
3.125 0.625 -0.5375
3.0625 0.625 -0.475
3.125 0.5625 -0.5375
3.0625 0.5625 -0.475
3.0625 0.625 -0.5375
3.0625 0.5625 -0.5375
3.25 0.5625 -0.475
3.25 0.625 -0.5375
3.1875 0.625 -0.475
3.25 0.5625 -0.5375
3.1875 0.5625 -0.475
3.1875 0.625 -0.5375
3.1875 0.5625 -0.5375
3.375 0.5625 -0.475
3.375 0.625 -0.5375
3.3125 0.625 -0.475
3.375 0.5625 -0.5375
3.3125 0.5625 -0.475
3.3125 0.625 -0.5375
3.3125 0.5625 -0.5375
3.5 0.5625 -0.475
3.5 0.625 -0.5375
3.4375 0.625 -0.475
3.5 0.5625 -0.5375
3.4375 0.5625 -0.475
3.4375 0.625 -0.5375
3.4375 0.5625 -0.5375
3.625 0.5625 -0.475
3.625 0.625 -0.5375
3.5625 0.625 -0.475
3.625 0.5625 -0.5375
3.5625 0.5625 -0.475
3.5625 0.625 -0.5375
3.5625 0.5625 -0.5375
3.75 0.5625 -0.475
3.75 0.625 -0.5375
3.6875 0.625 -0.475
3.75 0.5625 -0.5375
3.6875 0.5625 -0.475
3.6875 0.625 -0.5375
3.6875 0.5625 -0.5375
3.875 0.5625 -0.475
3.875 0.625 -0.5375
3.8125 0.625 -0.475
3.875 0.5625 -0.5375
3.8125 0.5625 -0.475
3.8125 0.625 -0.5375
3.8125 0.5625 -0.5375
4 0.5625 -0.475
4 0.625 -0.5375
3.9375 0.625 -0.475
4 0.5625 -0.5375
3.9375 0.5625 -0.475
3.9375 0.625 -0.5375
3.9375 0.5625 -0.5375
0.125 0.6875 -0.475
0 0.6875 -0.475
0.125 0.75 -0.5375
0.0625 0.75 -0.475
0 0.75 -0.5375
0.125 0.6875 -0.5375
0.0625 0.6875 -0.475
0 0.6875 -0.5375
0.0625 0.75 -0.5375
0.0625 0.6875 -0.5375
0.25 0.6875 -0.475
0.25 0.75 -0.5375
0.1875 0.75 -0.475
0.25 0.6875 -0.5375
0.1875 0.6875 -0.475
0.1875 0.75 -0.5375
0.1875 0.6875 -0.5375
0.375 0.6875 -0.475
0.375 0.75 -0.5375
0.3125 0.75 -0.475
0.375 0.6875 -0.5375
0.3125 0.6875 -0.475
0.3125 0.75 -0.5375
0.3125 0.6875 -0.5375
0.5 0.6875 -0.475
0.5 0.75 -0.5375
0.4375 0.75 -0.475
0.5 0.6875 -0.5375
0.4375 0.6875 -0.475
0.4375 0.75 -0.5375
0.4375 0.6875 -0.5375
0.625 0.6875 -0.475
0.625 0.75 -0.5375
0.5625 0.75 -0.475
0.625 0.6875 -0.5375
0.5625 0.6875 -0.475
0.5625 0.75 -0.5375
0.5625 0.6875 -0.5375
0.75 0.6875 -0.475
0.75 0.75 -0.5375
0.6875 0.75 -0.475
0.75 0.6875 -0.5375
0.6875 0.6875 -0.475
0.6875 0.75 -0.5375
0.6875 0.6875 -0.5375
0.875 0.6875 -0.475
0.875 0.75 -0.5375
0.8125 0.75 -0.475
0.875 0.6875 -0.5375
0.8125 0.6875 -0.475
0.8125 0.75 -0.5375
0.8125 0.6875 -0.5375
1 0.6875 -0.475
1 0.75 -0.5375
0.9375 0.75 -0.475
1 0.6875 -0.5375
0.9375 0.6875 -0.475
0.9375 0.75 -0.5375
0.9375 0.6875 -0.5375
1.125 0.6875 -0.475
1.125 0.75 -0.5375
1.0625 0.75 -0.475
1.125 0.6875 -0.5375
1.0625 0.6875 -0.475
1.0625 0.75 -0.5375
1.0625 0.6875 -0.5375
1.25 0.6875 -0.475
1.25 0.75 -0.5375
1.1875 0.75 -0.475
1.25 0.6875 -0.5375
1.1875 0.6875 -0.475
1.1875 0.75 -0.5375
1.1875 0.6875 -0.5375
1.375 0.6875 -0.475
1.375 0.75 -0.5375
1.3125 0.75 -0.475
1.375 0.6875 -0.5375
1.3125 0.6875 -0.475
1.3125 0.75 -0.5375
1.3125 0.6875 -0.5375
1.5 0.6875 -0.475
1.5 0.75 -0.5375
1.4375 0.75 -0.475
1.5 0.6875 -0.5375
1.4375 0.6875 -0.475
1.4375 0.75 -0.5375
1.4375 0.6875 -0.5375
1.625 0.6875 -0.475
1.625 0.75 -0.5375
1.5625 0.75 -0.475
1.625 0.6875 -0.5375
1.5625 0.6875 -0.475
1.5625 0.75 -0.5375
1.5625 0.6875 -0.5375
1.75 0.6875 -0.475
1.75 0.75 -0.5375
1.6875 0.75 -0.475
1.75 0.6875 -0.5375
1.6875 0.6875 -0.475
1.6875 0.75 -0.5375
1.6875 0.6875 -0.5375
1.875 0.6875 -0.475
1.875 0.75 -0.5375
1.8125 0.75 -0.475
1.875 0.6875 -0.5375
1.8125 0.6875 -0.475
1.8125 0.75 -0.5375
1.8125 0.6875 -0.5375
2 0.6875 -0.475
2 0.75 -0.5375
1.9375 0.75 -0.475
2 0.6875 -0.5375
1.9375 0.6875 -0.475
1.9375 0.75 -0.5375
1.9375 0.6875 -0.5375
2.125 0.6875 -0.475
2.125 0.75 -0.5375
2.0625 0.75 -0.475
2.125 0.6875 -0.5375
2.0625 0.6875 -0.475
2.0625 0.75 -0.5375
2.0625 0.6875 -0.5375
2.25 0.6875 -0.475
2.25 0.75 -0.5375
2.1875 0.75 -0.475
2.25 0.6875 -0.5375
2.1875 0.6875 -0.475
2.1875 0.75 -0.5375
2.1875 0.6875 -0.5375
2.375 0.6875 -0.475
2.375 0.75 -0.5375
2.3125 0.75 -0.475
2.375 0.6875 -0.5375
2.3125 0.6875 -0.475
2.3125 0.75 -0.5375
2.3125 0.6875 -0.5375
2.5 0.6875 -0.475
2.5 0.75 -0.5375
2.4375 0.75 -0.475
2.5 0.6875 -0.5375
2.4375 0.6875 -0.475
2.4375 0.75 -0.5375
2.4375 0.6875 -0.5375
2.625 0.6875 -0.475
2.625 0.75 -0.5375
2.5625 0.75 -0.475
2.625 0.6875 -0.5375
2.5625 0.6875 -0.475
2.5625 0.75 -0.5375
2.5625 0.6875 -0.5375
2.75 0.6875 -0.475
2.75 0.75 -0.5375
2.6875 0.75 -0.475
2.75 0.6875 -0.5375
2.6875 0.6875 -0.475
2.6875 0.75 -0.5375
2.6875 0.6875 -0.5375
2.875 0.6875 -0.475
2.875 0.75 -0.5375
2.8125 0.75 -0.475
2.875 0.6875 -0.5375
2.8125 0.6875 -0.475
2.8125 0.75 -0.5375
2.8125 0.6875 -0.5375
3 0.6875 -0.475
3 0.75 -0.5375
2.9375 0.75 -0.475
3 0.6875 -0.5375
2.9375 0.6875 -0.475
2.9375 0.75 -0.5375
2.9375 0.6875 -0.5375
3.125 0.6875 -0.475
3.125 0.75 -0.5375
3.0625 0.75 -0.475
3.125 0.6875 -0.5375
3.0625 0.6875 -0.475
3.0625 0.75 -0.5375
3.0625 0.6875 -0.5375
3.25 0.6875 -0.475
3.25 0.75 -0.5375
3.1875 0.75 -0.475
3.25 0.6875 -0.5375
3.1875 0.6875 -0.475
3.1875 0.75 -0.5375
3.1875 0.6875 -0.5375
3.375 0.6875 -0.475
3.375 0.75 -0.5375
3.3125 0.75 -0.475
3.375 0.6875 -0.5375
3.3125 0.6875 -0.475
3.3125 0.75 -0.5375
3.3125 0.6875 -0.5375
3.5 0.6875 -0.475
3.5 0.75 -0.5375
3.4375 0.75 -0.475
3.5 0.6875 -0.5375
3.4375 0.6875 -0.475
3.4375 0.75 -0.5375
3.4375 0.6875 -0.5375
3.625 0.6875 -0.475
3.625 0.75 -0.5375
3.5625 0.75 -0.475
3.625 0.6875 -0.5375
3.5625 0.6875 -0.475
3.5625 0.75 -0.5375
3.5625 0.6875 -0.5375
3.75 0.6875 -0.475
3.75 0.75 -0.5375
3.6875 0.75 -0.475
3.75 0.6875 -0.5375
3.6875 0.6875 -0.475
3.6875 0.75 -0.5375
3.6875 0.6875 -0.5375
3.875 0.6875 -0.475
3.875 0.75 -0.5375
3.8125 0.75 -0.475
3.875 0.6875 -0.5375
3.8125 0.6875 -0.475
3.8125 0.75 -0.5375
3.8125 0.6875 -0.5375
4 0.6875 -0.475
4 0.75 -0.5375
3.9375 0.75 -0.475
4 0.6875 -0.5375
3.9375 0.6875 -0.475
3.9375 0.75 -0.5375
3.9375 0.6875 -0.5375
0.125 0.8125 -0.475
0 0.8125 -0.475
0.125 0.875 -0.5375
0.0625 0.875 -0.475
0 0.875 -0.5375
0.125 0.8125 -0.5375
0.0625 0.8125 -0.475
0 0.8125 -0.5375
0.0625 0.875 -0.5375
0.0625 0.8125 -0.5375
0.25 0.8125 -0.475
0.25 0.875 -0.5375
0.1875 0.875 -0.475
0.25 0.8125 -0.5375
0.1875 0.8125 -0.475
0.1875 0.875 -0.5375
0.1875 0.8125 -0.5375
0.375 0.8125 -0.475
0.375 0.875 -0.5375
0.3125 0.875 -0.475
0.375 0.8125 -0.5375
0.3125 0.8125 -0.475
0.3125 0.875 -0.5375
0.3125 0.8125 -0.5375
0.5 0.8125 -0.475
0.5 0.875 -0.5375
0.4375 0.875 -0.475
0.5 0.8125 -0.5375
0.4375 0.8125 -0.475
0.4375 0.875 -0.5375
0.4375 0.8125 -0.5375
0.625 0.8125 -0.475
0.625 0.875 -0.5375
0.5625 0.875 -0.475
0.625 0.8125 -0.5375
0.5625 0.8125 -0.475
0.5625 0.875 -0.5375
0.5625 0.8125 -0.5375
0.75 0.8125 -0.475
0.75 0.875 -0.5375
0.6875 0.875 -0.475
0.75 0.8125 -0.5375
0.6875 0.8125 -0.475
0.6875 0.875 -0.5375
0.6875 0.8125 -0.5375
0.875 0.8125 -0.475
0.875 0.875 -0.5375
0.8125 0.875 -0.475
0.875 0.8125 -0.5375
0.8125 0.8125 -0.475
0.8125 0.875 -0.5375
0.8125 0.8125 -0.5375
1 0.8125 -0.475
1 0.875 -0.5375
0.9375 0.875 -0.475
1 0.8125 -0.5375
0.9375 0.8125 -0.475
0.9375 0.875 -0.5375
0.9375 0.8125 -0.5375
1.125 0.8125 -0.475
1.125 0.875 -0.5375
1.0625 0.875 -0.475
1.125 0.8125 -0.5375
1.0625 0.8125 -0.475
1.0625 0.875 -0.5375
1.0625 0.8125 -0.5375
1.25 0.8125 -0.475
1.25 0.875 -0.5375
1.1875 0.875 -0.475
1.25 0.8125 -0.5375
1.1875 0.8125 -0.475
1.1875 0.875 -0.5375
1.1875 0.8125 -0.5375
1.375 0.8125 -0.475
1.375 0.875 -0.5375
1.3125 0.875 -0.475
1.375 0.8125 -0.5375
1.3125 0.8125 -0.475
1.3125 0.875 -0.5375
1.3125 0.8125 -0.5375
1.5 0.8125 -0.475
1.5 0.875 -0.5375
1.4375 0.875 -0.475
1.5 0.8125 -0.5375
1.4375 0.8125 -0.475
1.4375 0.875 -0.5375
1.4375 0.8125 -0.5375
1.625 0.8125 -0.475
1.625 0.875 -0.5375
1.5625 0.875 -0.475
1.625 0.8125 -0.5375
1.5625 0.8125 -0.475
1.5625 0.875 -0.5375
1.5625 0.8125 -0.5375
1.75 0.8125 -0.475
1.75 0.875 -0.5375
1.6875 0.875 -0.475
1.75 0.8125 -0.5375
1.6875 0.8125 -0.475
1.6875 0.875 -0.5375
1.6875 0.8125 -0.5375
1.875 0.8125 -0.475
1.875 0.875 -0.5375
1.8125 0.875 -0.475
1.875 0.8125 -0.5375
1.8125 0.8125 -0.475
1.8125 0.875 -0.5375
1.8125 0.8125 -0.5375
2 0.8125 -0.475
2 0.875 -0.5375
1.9375 0.875 -0.475
2 0.8125 -0.5375
1.9375 0.8125 -0.475
1.9375 0.875 -0.5375
1.9375 0.8125 -0.5375
2.125 0.8125 -0.475
2.125 0.875 -0.5375
2.0625 0.875 -0.475
2.125 0.8125 -0.5375
2.0625 0.8125 -0.475
2.0625 0.875 -0.5375
2.0625 0.8125 -0.5375
2.25 0.8125 -0.475
2.25 0.875 -0.5375
2.1875 0.875 -0.475
2.25 0.8125 -0.5375
2.1875 0.8125 -0.475
2.1875 0.875 -0.5375
2.1875 0.8125 -0.5375
2.375 0.8125 -0.475
2.375 0.875 -0.5375
2.3125 0.875 -0.475
2.375 0.8125 -0.5375
2.3125 0.8125 -0.475
2.3125 0.875 -0.5375
2.3125 0.8125 -0.5375
2.5 0.8125 -0.475
2.5 0.875 -0.5375
2.4375 0.875 -0.475
2.5 0.8125 -0.5375
2.4375 0.8125 -0.475
2.4375 0.875 -0.5375
2.4375 0.8125 -0.5375
2.625 0.8125 -0.475
2.625 0.875 -0.5375
2.5625 0.875 -0.475
2.625 0.8125 -0.5375
2.5625 0.8125 -0.475
2.5625 0.875 -0.5375
2.5625 0.8125 -0.5375
2.75 0.8125 -0.475
2.75 0.875 -0.5375
2.6875 0.875 -0.475
2.75 0.8125 -0.5375
2.6875 0.8125 -0.475
2.6875 0.875 -0.5375
2.6875 0.8125 -0.5375
2.875 0.8125 -0.475
2.875 0.875 -0.5375
2.8125 0.875 -0.475
2.875 0.8125 -0.5375
2.8125 0.8125 -0.475
2.8125 0.875 -0.5375
2.8125 0.8125 -0.5375
3 0.8125 -0.475
3 0.875 -0.5375
2.9375 0.875 -0.475
3 0.8125 -0.5375
2.9375 0.8125 -0.475
2.9375 0.875 -0.5375
2.9375 0.8125 -0.5375
3.125 0.8125 -0.475
3.125 0.875 -0.5375
3.0625 0.875 -0.475
3.125 0.8125 -0.5375
3.0625 0.8125 -0.475
3.0625 0.875 -0.5375
3.0625 0.8125 -0.5375
3.25 0.8125 -0.475
3.25 0.875 -0.5375
3.1875 0.875 -0.475
3.25 0.8125 -0.5375
3.1875 0.8125 -0.475
3.1875 0.875 -0.5375
3.1875 0.8125 -0.5375
3.375 0.8125 -0.475
3.375 0.875 -0.5375
3.3125 0.875 -0.475
3.375 0.8125 -0.5375
3.3125 0.8125 -0.475
3.3125 0.875 -0.5375
3.3125 0.8125 -0.5375
3.5 0.8125 -0.475
3.5 0.875 -0.5375
3.4375 0.875 -0.475
3.5 0.8125 -0.5375
3.4375 0.8125 -0.475
3.4375 0.875 -0.5375
3.4375 0.8125 -0.5375
3.625 0.8125 -0.475
3.625 0.875 -0.5375
3.5625 0.875 -0.475
3.625 0.8125 -0.5375
3.5625 0.8125 -0.475
3.5625 0.875 -0.5375
3.5625 0.8125 -0.5375
3.75 0.8125 -0.475
3.75 0.875 -0.5375
3.6875 0.875 -0.475
3.75 0.8125 -0.5375
3.6875 0.8125 -0.475
3.6875 0.875 -0.5375
3.6875 0.8125 -0.5375
3.875 0.8125 -0.475
3.875 0.875 -0.5375
3.8125 0.875 -0.475
3.875 0.8125 -0.5375
3.8125 0.8125 -0.475
3.8125 0.875 -0.5375
3.8125 0.8125 -0.5375
4 0.8125 -0.475
4 0.875 -0.5375
3.9375 0.875 -0.475
4 0.8125 -0.5375
3.9375 0.8125 -0.475
3.9375 0.875 -0.5375
3.9375 0.8125 -0.5375
0.125 0.9375 -0.475
0 0.9375 -0.475
0.125 1 -0.5375
0.0625 1 -0.475
0 1 -0.5375
0.125 0.9375 -0.5375
0.0625 0.9375 -0.475
0 0.9375 -0.5375
0.0625 1 -0.5375
0.0625 0.9375 -0.5375
0.25 0.9375 -0.475
0.25 1 -0.5375
0.1875 1 -0.475
0.25 0.9375 -0.5375
0.1875 0.9375 -0.475
0.1875 1 -0.5375
0.1875 0.9375 -0.5375
0.375 0.9375 -0.475
0.375 1 -0.5375
0.3125 1 -0.475
0.375 0.9375 -0.5375
0.3125 0.9375 -0.475
0.3125 1 -0.5375
0.3125 0.9375 -0.5375
0.5 0.9375 -0.475
0.5 1 -0.5375
0.4375 1 -0.475
0.5 0.9375 -0.5375
0.4375 0.9375 -0.475
0.4375 1 -0.5375
0.4375 0.9375 -0.5375
0.625 0.9375 -0.475
0.625 1 -0.5375
0.5625 1 -0.475
0.625 0.9375 -0.5375
0.5625 0.9375 -0.475
0.5625 1 -0.5375
0.5625 0.9375 -0.5375
0.75 0.9375 -0.475
0.75 1 -0.5375
0.6875 1 -0.475
0.75 0.9375 -0.5375
0.6875 0.9375 -0.475
0.6875 1 -0.5375
0.6875 0.9375 -0.5375
0.875 0.9375 -0.475
0.875 1 -0.5375
0.8125 1 -0.475
0.875 0.9375 -0.5375
0.8125 0.9375 -0.475
0.8125 1 -0.5375
0.8125 0.9375 -0.5375
1 0.9375 -0.475
1 1 -0.5375
0.9375 1 -0.475
1 0.9375 -0.5375
0.9375 0.9375 -0.475
0.9375 1 -0.5375
0.9375 0.9375 -0.5375
1.125 0.9375 -0.475
1.125 1 -0.5375
1.0625 1 -0.475
1.125 0.9375 -0.5375
1.0625 0.9375 -0.475
1.0625 1 -0.5375
1.0625 0.9375 -0.5375
1.25 0.9375 -0.475
1.25 1 -0.5375
1.1875 1 -0.475
1.25 0.9375 -0.5375
1.1875 0.9375 -0.475
1.1875 1 -0.5375
1.1875 0.9375 -0.5375
1.375 0.9375 -0.475
1.375 1 -0.5375
1.3125 1 -0.475
1.375 0.9375 -0.5375
1.3125 0.9375 -0.475
1.3125 1 -0.5375
1.3125 0.9375 -0.5375
1.5 0.9375 -0.475
1.5 1 -0.5375
1.4375 1 -0.475
1.5 0.9375 -0.5375
1.4375 0.9375 -0.475
1.4375 1 -0.5375
1.4375 0.9375 -0.5375
1.625 0.9375 -0.475
1.625 1 -0.5375
1.5625 1 -0.475
1.625 0.9375 -0.5375
1.5625 0.9375 -0.475
1.5625 1 -0.5375
1.5625 0.9375 -0.5375
1.75 0.9375 -0.475
1.75 1 -0.5375
1.6875 1 -0.475
1.75 0.9375 -0.5375
1.6875 0.9375 -0.475
1.6875 1 -0.5375
1.6875 0.9375 -0.5375
1.875 0.9375 -0.475
1.875 1 -0.5375
1.8125 1 -0.475
1.875 0.9375 -0.5375
1.8125 0.9375 -0.475
1.8125 1 -0.5375
1.8125 0.9375 -0.5375
2 0.9375 -0.475
2 1 -0.5375
1.9375 1 -0.475
2 0.9375 -0.5375
1.9375 0.9375 -0.475
1.9375 1 -0.5375
1.9375 0.9375 -0.5375
2.125 0.9375 -0.475
2.125 1 -0.5375
2.0625 1 -0.475
2.125 0.9375 -0.5375
2.0625 0.9375 -0.475
2.0625 1 -0.5375
2.0625 0.9375 -0.5375
2.25 0.9375 -0.475
2.25 1 -0.5375
2.1875 1 -0.475
2.25 0.9375 -0.5375
2.1875 0.9375 -0.475
2.1875 1 -0.5375
2.1875 0.9375 -0.5375
2.375 0.9375 -0.475
2.375 1 -0.5375
2.3125 1 -0.475
2.375 0.9375 -0.5375
2.3125 0.9375 -0.475
2.3125 1 -0.5375
2.3125 0.9375 -0.5375
2.5 0.9375 -0.475
2.5 1 -0.5375
2.4375 1 -0.475
2.5 0.9375 -0.5375
2.4375 0.9375 -0.475
2.4375 1 -0.5375
2.4375 0.9375 -0.5375
2.625 0.9375 -0.475
2.625 1 -0.5375
2.5625 1 -0.475
2.625 0.9375 -0.5375
2.5625 0.9375 -0.475
2.5625 1 -0.5375
2.5625 0.9375 -0.5375
2.75 0.9375 -0.475
2.75 1 -0.5375
2.6875 1 -0.475
2.75 0.9375 -0.5375
2.6875 0.9375 -0.475
2.6875 1 -0.5375
2.6875 0.9375 -0.5375
2.875 0.9375 -0.475
2.875 1 -0.5375
2.8125 1 -0.475
2.875 0.9375 -0.5375
2.8125 0.9375 -0.475
2.8125 1 -0.5375
2.8125 0.9375 -0.5375
3 0.9375 -0.475
3 1 -0.5375
2.9375 1 -0.475
3 0.9375 -0.5375
2.9375 0.9375 -0.475
2.9375 1 -0.5375
2.9375 0.9375 -0.5375
3.125 0.9375 -0.475
3.125 1 -0.5375
3.0625 1 -0.475
3.125 0.9375 -0.5375
3.0625 0.9375 -0.475
3.0625 1 -0.5375
3.0625 0.9375 -0.5375
3.25 0.9375 -0.475
3.25 1 -0.5375
3.1875 1 -0.475
3.25 0.9375 -0.5375
3.1875 0.9375 -0.475
3.1875 1 -0.5375
3.1875 0.9375 -0.5375
3.375 0.9375 -0.475
3.375 1 -0.5375
3.3125 1 -0.475
3.375 0.9375 -0.5375
3.3125 0.9375 -0.475
3.3125 1 -0.5375
3.3125 0.9375 -0.5375
3.5 0.9375 -0.475
3.5 1 -0.5375
3.4375 1 -0.475
3.5 0.9375 -0.5375
3.4375 0.9375 -0.475
3.4375 1 -0.5375
3.4375 0.9375 -0.5375
3.625 0.9375 -0.475
3.625 1 -0.5375
3.5625 1 -0.475
3.625 0.9375 -0.5375
3.5625 0.9375 -0.475
3.5625 1 -0.5375
3.5625 0.9375 -0.5375
3.75 0.9375 -0.475
3.75 1 -0.5375
3.6875 1 -0.475
3.75 0.9375 -0.5375
3.6875 0.9375 -0.475
3.6875 1 -0.5375
3.6875 0.9375 -0.5375
3.875 0.9375 -0.475
3.875 1 -0.5375
3.8125 1 -0.475
3.875 0.9375 -0.5375
3.8125 0.9375 -0.475
3.8125 1 -0.5375
3.8125 0.9375 -0.5375
4 0.9375 -0.475
4 1 -0.5375
3.9375 1 -0.475
4 0.9375 -0.5375
3.9375 0.9375 -0.475
3.9375 1 -0.5375
3.9375 0.9375 -0.5375
0.125 0 -0.4125
0.0625 0 -0.35
0 0 -0.4125
0.125 0.0625 -0.35
0 0.0625 -0.35
0.125 0.125 -0.4125
0.0625 0.125 -0.35
0 0.125 -0.4125
0.0625 0 -0.4125
0.125 0.0625 -0.4125
0.0625 0.0625 -0.35
0 0.0625 -0.4125
0.0625 0.125 -0.4125
0.0625 0.0625 -0.4125
0.25 0 -0.4125
0.1875 0 -0.35
0.25 0.0625 -0.35
0.25 0.125 -0.4125
0.1875 0.125 -0.35
0.1875 0 -0.4125
0.25 0.0625 -0.4125
0.1875 0.0625 -0.35
0.1875 0.125 -0.4125
0.1875 0.0625 -0.4125
0.375 0 -0.4125
0.3125 0 -0.35
0.375 0.0625 -0.35
0.375 0.125 -0.4125
0.3125 0.125 -0.35
0.3125 0 -0.4125
0.375 0.0625 -0.4125
0.3125 0.0625 -0.35
0.3125 0.125 -0.4125
0.3125 0.0625 -0.4125
0.5 0 -0.4125
0.4375 0 -0.35
0.5 0.0625 -0.35
0.5 0.125 -0.4125
0.4375 0.125 -0.35
0.4375 0 -0.4125
0.5 0.0625 -0.4125
0.4375 0.0625 -0.35
0.4375 0.125 -0.4125
0.4375 0.0625 -0.4125
0.625 0 -0.4125
0.5625 0 -0.35
0.625 0.0625 -0.35
0.625 0.125 -0.4125
0.5625 0.125 -0.35
0.5625 0 -0.4125
0.625 0.0625 -0.4125
0.5625 0.0625 -0.35
0.5625 0.125 -0.4125
0.5625 0.0625 -0.4125
0.75 0 -0.4125
0.6875 0 -0.35
0.75 0.0625 -0.35
0.75 0.125 -0.4125
0.6875 0.125 -0.35
0.6875 0 -0.4125
0.75 0.0625 -0.4125
0.6875 0.0625 -0.35
0.6875 0.125 -0.4125
0.6875 0.0625 -0.4125
0.875 0 -0.4125
0.8125 0 -0.35
0.875 0.0625 -0.35
0.875 0.125 -0.4125
0.8125 0.125 -0.35
0.8125 0 -0.4125
0.875 0.0625 -0.4125
0.8125 0.0625 -0.35
0.8125 0.125 -0.4125
0.8125 0.0625 -0.4125
1 0 -0.4125
0.9375 0 -0.35
1 0.0625 -0.35
1 0.125 -0.4125
0.9375 0.125 -0.35
0.9375 0 -0.4125
1 0.0625 -0.4125
0.9375 0.0625 -0.35
0.9375 0.125 -0.4125
0.9375 0.0625 -0.4125
1.125 0 -0.4125
1.0625 0 -0.35
1.125 0.0625 -0.35
1.125 0.125 -0.4125
1.0625 0.125 -0.35
1.0625 0 -0.4125
1.125 0.0625 -0.4125
1.0625 0.0625 -0.35
1.0625 0.125 -0.4125
1.0625 0.0625 -0.4125
1.25 0 -0.4125
1.1875 0 -0.35
1.25 0.0625 -0.35
1.25 0.125 -0.4125
1.1875 0.125 -0.35
1.1875 0 -0.4125
1.25 0.0625 -0.4125
1.1875 0.0625 -0.35
1.1875 0.125 -0.4125
1.1875 0.0625 -0.4125
1.375 0 -0.4125
1.3125 0 -0.35
1.375 0.0625 -0.35
1.375 0.125 -0.4125
1.3125 0.125 -0.35
1.3125 0 -0.4125
1.375 0.0625 -0.4125
1.3125 0.0625 -0.35
1.3125 0.125 -0.4125
1.3125 0.0625 -0.4125
1.5 0 -0.4125
1.4375 0 -0.35
1.5 0.0625 -0.35
1.5 0.125 -0.4125
1.4375 0.125 -0.35
1.4375 0 -0.4125
1.5 0.0625 -0.4125
1.4375 0.0625 -0.35
1.4375 0.125 -0.4125
1.4375 0.0625 -0.4125
1.625 0 -0.4125
1.5625 0 -0.35
1.625 0.0625 -0.35
1.625 0.125 -0.4125
1.5625 0.125 -0.35
1.5625 0 -0.4125
1.625 0.0625 -0.4125
1.5625 0.0625 -0.35
1.5625 0.125 -0.4125
1.5625 0.0625 -0.4125
1.75 0 -0.4125
1.6875 0 -0.35
1.75 0.0625 -0.35
1.75 0.125 -0.4125
1.6875 0.125 -0.35
1.6875 0 -0.4125
1.75 0.0625 -0.4125
1.6875 0.0625 -0.35
1.6875 0.125 -0.4125
1.6875 0.0625 -0.4125
1.875 0 -0.4125
1.8125 0 -0.35
1.875 0.0625 -0.35
1.875 0.125 -0.4125
1.8125 0.125 -0.35
1.8125 0 -0.4125
1.875 0.0625 -0.4125
1.8125 0.0625 -0.35
1.8125 0.125 -0.4125
1.8125 0.0625 -0.4125
2 0 -0.4125
1.9375 0 -0.35
2 0.0625 -0.35
2 0.125 -0.4125
1.9375 0.125 -0.35
1.9375 0 -0.4125
2 0.0625 -0.4125
1.9375 0.0625 -0.35
1.9375 0.125 -0.4125
1.9375 0.0625 -0.4125
2.125 0 -0.4125
2.0625 0 -0.35
2.125 0.0625 -0.35
2.125 0.125 -0.4125
2.0625 0.125 -0.35
2.0625 0 -0.4125
2.125 0.0625 -0.4125
2.0625 0.0625 -0.35
2.0625 0.125 -0.4125
2.0625 0.0625 -0.4125
2.25 0 -0.4125
2.1875 0 -0.35
2.25 0.0625 -0.35
2.25 0.125 -0.4125
2.1875 0.125 -0.35
2.1875 0 -0.4125
2.25 0.0625 -0.4125
2.1875 0.0625 -0.35
2.1875 0.125 -0.4125
2.1875 0.0625 -0.4125
2.375 0 -0.4125
2.3125 0 -0.35
2.375 0.0625 -0.35
2.375 0.125 -0.4125
2.3125 0.125 -0.35
2.3125 0 -0.4125
2.375 0.0625 -0.4125
2.3125 0.0625 -0.35
2.3125 0.125 -0.4125
2.3125 0.0625 -0.4125
2.5 0 -0.4125
2.4375 0 -0.35
2.5 0.0625 -0.35
2.5 0.125 -0.4125
2.4375 0.125 -0.35
2.4375 0 -0.4125
2.5 0.0625 -0.4125
2.4375 0.0625 -0.35
2.4375 0.125 -0.4125
2.4375 0.0625 -0.4125
2.625 0 -0.4125
2.5625 0 -0.35
2.625 0.0625 -0.35
2.625 0.125 -0.4125
2.5625 0.125 -0.35
2.5625 0 -0.4125
2.625 0.0625 -0.4125
2.5625 0.0625 -0.35
2.5625 0.125 -0.4125
2.5625 0.0625 -0.4125
2.75 0 -0.4125
2.6875 0 -0.35
2.75 0.0625 -0.35
2.75 0.125 -0.4125
2.6875 0.125 -0.35
2.6875 0 -0.4125
2.75 0.0625 -0.4125
2.6875 0.0625 -0.35
2.6875 0.125 -0.4125
2.6875 0.0625 -0.4125
2.875 0 -0.4125
2.8125 0 -0.35
2.875 0.0625 -0.35
2.875 0.125 -0.4125
2.8125 0.125 -0.35
2.8125 0 -0.4125
2.875 0.0625 -0.4125
2.8125 0.0625 -0.35
2.8125 0.125 -0.4125
2.8125 0.0625 -0.4125
3 0 -0.4125
2.9375 0 -0.35
3 0.0625 -0.35
3 0.125 -0.4125
2.9375 0.125 -0.35
2.9375 0 -0.4125
3 0.0625 -0.4125
2.9375 0.0625 -0.35
2.9375 0.125 -0.4125
2.9375 0.0625 -0.4125
3.125 0 -0.4125
3.0625 0 -0.35
3.125 0.0625 -0.35
3.125 0.125 -0.4125
3.0625 0.125 -0.35
3.0625 0 -0.4125
3.125 0.0625 -0.4125
3.0625 0.0625 -0.35
3.0625 0.125 -0.4125
3.0625 0.0625 -0.4125
3.25 0 -0.4125
3.1875 0 -0.35
3.25 0.0625 -0.35
3.25 0.125 -0.4125
3.1875 0.125 -0.35
3.1875 0 -0.4125
3.25 0.0625 -0.4125
3.1875 0.0625 -0.35
3.1875 0.125 -0.4125
3.1875 0.0625 -0.4125
3.375 0 -0.4125
3.3125 0 -0.35
3.375 0.0625 -0.35
3.375 0.125 -0.4125
3.3125 0.125 -0.35
3.3125 0 -0.4125
3.375 0.0625 -0.4125
3.3125 0.0625 -0.35
3.3125 0.125 -0.4125
3.3125 0.0625 -0.4125
3.5 0 -0.4125
3.4375 0 -0.35
3.5 0.0625 -0.35
3.5 0.125 -0.4125
3.4375 0.125 -0.35
3.4375 0 -0.4125
3.5 0.0625 -0.4125
3.4375 0.0625 -0.35
3.4375 0.125 -0.4125
3.4375 0.0625 -0.4125
3.625 0 -0.4125
3.5625 0 -0.35
3.625 0.0625 -0.35
3.625 0.125 -0.4125
3.5625 0.125 -0.35
3.5625 0 -0.4125
3.625 0.0625 -0.4125
3.5625 0.0625 -0.35
3.5625 0.125 -0.4125
3.5625 0.0625 -0.4125
3.75 0 -0.4125
3.6875 0 -0.35
3.75 0.0625 -0.35
3.75 0.125 -0.4125
3.6875 0.125 -0.35
3.6875 0 -0.4125
3.75 0.0625 -0.4125
3.6875 0.0625 -0.35
3.6875 0.125 -0.4125
3.6875 0.0625 -0.4125
3.875 0 -0.4125
3.8125 0 -0.35
3.875 0.0625 -0.35
3.875 0.125 -0.4125
3.8125 0.125 -0.35
3.8125 0 -0.4125
3.875 0.0625 -0.4125
3.8125 0.0625 -0.35
3.8125 0.125 -0.4125
3.8125 0.0625 -0.4125
4 0 -0.4125
3.9375 0 -0.35
4 0.0625 -0.35
4 0.125 -0.4125
3.9375 0.125 -0.35
3.9375 0 -0.4125
4 0.0625 -0.4125
3.9375 0.0625 -0.35
3.9375 0.125 -0.4125
3.9375 0.0625 -0.4125
0.125 0.1875 -0.35
0 0.1875 -0.35
0.125 0.25 -0.4125
0.0625 0.25 -0.35
0 0.25 -0.4125
0.125 0.1875 -0.4125
0.0625 0.1875 -0.35
0 0.1875 -0.4125
0.0625 0.25 -0.4125
0.0625 0.1875 -0.4125
0.25 0.1875 -0.35
0.25 0.25 -0.4125
0.1875 0.25 -0.35
0.25 0.1875 -0.4125
0.1875 0.1875 -0.35
0.1875 0.25 -0.4125
0.1875 0.1875 -0.4125
0.375 0.1875 -0.35
0.375 0.25 -0.4125
0.3125 0.25 -0.35
0.375 0.1875 -0.4125
0.3125 0.1875 -0.35
0.3125 0.25 -0.4125
0.3125 0.1875 -0.4125
0.5 0.1875 -0.35
0.5 0.25 -0.4125
0.4375 0.25 -0.35
0.5 0.1875 -0.4125
0.4375 0.1875 -0.35
0.4375 0.25 -0.4125
0.4375 0.1875 -0.4125
0.625 0.1875 -0.35
0.625 0.25 -0.4125
0.5625 0.25 -0.35
0.625 0.1875 -0.4125
0.5625 0.1875 -0.35
0.5625 0.25 -0.4125
0.5625 0.1875 -0.4125
0.75 0.1875 -0.35
0.75 0.25 -0.4125
0.6875 0.25 -0.35
0.75 0.1875 -0.4125
0.6875 0.1875 -0.35
0.6875 0.25 -0.4125
0.6875 0.1875 -0.4125
0.875 0.1875 -0.35
0.875 0.25 -0.4125
0.8125 0.25 -0.35
0.875 0.1875 -0.4125
0.8125 0.1875 -0.35
0.8125 0.25 -0.4125
0.8125 0.1875 -0.4125
1 0.1875 -0.35
1 0.25 -0.4125
0.9375 0.25 -0.35
1 0.1875 -0.4125
0.9375 0.1875 -0.35
0.9375 0.25 -0.4125
0.9375 0.1875 -0.4125
1.125 0.1875 -0.35
1.125 0.25 -0.4125
1.0625 0.25 -0.35
1.125 0.1875 -0.4125
1.0625 0.1875 -0.35
1.0625 0.25 -0.4125
1.0625 0.1875 -0.4125
1.25 0.1875 -0.35
1.25 0.25 -0.4125
1.1875 0.25 -0.35
1.25 0.1875 -0.4125
1.1875 0.1875 -0.35
1.1875 0.25 -0.4125
1.1875 0.1875 -0.4125
1.375 0.1875 -0.35
1.375 0.25 -0.4125
1.3125 0.25 -0.35
1.375 0.1875 -0.4125
1.3125 0.1875 -0.35
1.3125 0.25 -0.4125
1.3125 0.1875 -0.4125
1.5 0.1875 -0.35
1.5 0.25 -0.4125
1.4375 0.25 -0.35
1.5 0.1875 -0.4125
1.4375 0.1875 -0.35
1.4375 0.25 -0.4125
1.4375 0.1875 -0.4125
1.625 0.1875 -0.35
1.625 0.25 -0.4125
1.5625 0.25 -0.35
1.625 0.1875 -0.4125
1.5625 0.1875 -0.35
1.5625 0.25 -0.4125
1.5625 0.1875 -0.4125
1.75 0.1875 -0.35
1.75 0.25 -0.4125
1.6875 0.25 -0.35
1.75 0.1875 -0.4125
1.6875 0.1875 -0.35
1.6875 0.25 -0.4125
1.6875 0.1875 -0.4125
1.875 0.1875 -0.35
1.875 0.25 -0.4125
1.8125 0.25 -0.35
1.875 0.1875 -0.4125
1.8125 0.1875 -0.35
1.8125 0.25 -0.4125
1.8125 0.1875 -0.4125
2 0.1875 -0.35
2 0.25 -0.4125
1.9375 0.25 -0.35
2 0.1875 -0.4125
1.9375 0.1875 -0.35
1.9375 0.25 -0.4125
1.9375 0.1875 -0.4125
2.125 0.1875 -0.35
2.125 0.25 -0.4125
2.0625 0.25 -0.35
2.125 0.1875 -0.4125
2.0625 0.1875 -0.35
2.0625 0.25 -0.4125
2.0625 0.1875 -0.4125
2.25 0.1875 -0.35
2.25 0.25 -0.4125
2.1875 0.25 -0.35
2.25 0.1875 -0.4125
2.1875 0.1875 -0.35
2.1875 0.25 -0.4125
2.1875 0.1875 -0.4125
2.375 0.1875 -0.35
2.375 0.25 -0.4125
2.3125 0.25 -0.35
2.375 0.1875 -0.4125
2.3125 0.1875 -0.35
2.3125 0.25 -0.4125
2.3125 0.1875 -0.4125
2.5 0.1875 -0.35
2.5 0.25 -0.4125
2.4375 0.25 -0.35
2.5 0.1875 -0.4125
2.4375 0.1875 -0.35
2.4375 0.25 -0.4125
2.4375 0.1875 -0.4125
2.625 0.1875 -0.35
2.625 0.25 -0.4125
2.5625 0.25 -0.35
2.625 0.1875 -0.4125
2.5625 0.1875 -0.35
2.5625 0.25 -0.4125
2.5625 0.1875 -0.4125
2.75 0.1875 -0.35
2.75 0.25 -0.4125
2.6875 0.25 -0.35
2.75 0.1875 -0.4125
2.6875 0.1875 -0.35
2.6875 0.25 -0.4125
2.6875 0.1875 -0.4125
2.875 0.1875 -0.35
2.875 0.25 -0.4125
2.8125 0.25 -0.35
2.875 0.1875 -0.4125
2.8125 0.1875 -0.35
2.8125 0.25 -0.4125
2.8125 0.1875 -0.4125
3 0.1875 -0.35
3 0.25 -0.4125
2.9375 0.25 -0.35
3 0.1875 -0.4125
2.9375 0.1875 -0.35
2.9375 0.25 -0.4125
2.9375 0.1875 -0.4125
3.125 0.1875 -0.35
3.125 0.25 -0.4125
3.0625 0.25 -0.35
3.125 0.1875 -0.4125
3.0625 0.1875 -0.35
3.0625 0.25 -0.4125
3.0625 0.1875 -0.4125
3.25 0.1875 -0.35
3.25 0.25 -0.4125
3.1875 0.25 -0.35
3.25 0.1875 -0.4125
3.1875 0.1875 -0.35
3.1875 0.25 -0.4125
3.1875 0.1875 -0.4125
3.375 0.1875 -0.35
3.375 0.25 -0.4125
3.3125 0.25 -0.35
3.375 0.1875 -0.4125
3.3125 0.1875 -0.35
3.3125 0.25 -0.4125
3.3125 0.1875 -0.4125
3.5 0.1875 -0.35
3.5 0.25 -0.4125
3.4375 0.25 -0.35
3.5 0.1875 -0.4125
3.4375 0.1875 -0.35
3.4375 0.25 -0.4125
3.4375 0.1875 -0.4125
3.625 0.1875 -0.35
3.625 0.25 -0.4125
3.5625 0.25 -0.35
3.625 0.1875 -0.4125
3.5625 0.1875 -0.35
3.5625 0.25 -0.4125
3.5625 0.1875 -0.4125
3.75 0.1875 -0.35
3.75 0.25 -0.4125
3.6875 0.25 -0.35
3.75 0.1875 -0.4125
3.6875 0.1875 -0.35
3.6875 0.25 -0.4125
3.6875 0.1875 -0.4125
3.875 0.1875 -0.35
3.875 0.25 -0.4125
3.8125 0.25 -0.35
3.875 0.1875 -0.4125
3.8125 0.1875 -0.35
3.8125 0.25 -0.4125
3.8125 0.1875 -0.4125
4 0.1875 -0.35
4 0.25 -0.4125
3.9375 0.25 -0.35
4 0.1875 -0.4125
3.9375 0.1875 -0.35
3.9375 0.25 -0.4125
3.9375 0.1875 -0.4125
0.125 0.3125 -0.35
0 0.3125 -0.35
0.125 0.375 -0.4125
0.0625 0.375 -0.35
0 0.375 -0.4125
0.125 0.3125 -0.4125
0.0625 0.3125 -0.35
0 0.3125 -0.4125
0.0625 0.375 -0.4125
0.0625 0.3125 -0.4125
0.25 0.3125 -0.35
0.25 0.375 -0.4125
0.1875 0.375 -0.35
0.25 0.3125 -0.4125
0.1875 0.3125 -0.35
0.1875 0.375 -0.4125
0.1875 0.3125 -0.4125
0.375 0.3125 -0.35
0.375 0.375 -0.4125
0.3125 0.375 -0.35
0.375 0.3125 -0.4125
0.3125 0.3125 -0.35
0.3125 0.375 -0.4125
0.3125 0.3125 -0.4125
0.5 0.3125 -0.35
0.5 0.375 -0.4125
0.4375 0.375 -0.35
0.5 0.3125 -0.4125
0.4375 0.3125 -0.35
0.4375 0.375 -0.4125
0.4375 0.3125 -0.4125
0.625 0.3125 -0.35
0.625 0.375 -0.4125
0.5625 0.375 -0.35
0.625 0.3125 -0.4125
0.5625 0.3125 -0.35
0.5625 0.375 -0.4125
0.5625 0.3125 -0.4125
0.75 0.3125 -0.35
0.75 0.375 -0.4125
0.6875 0.375 -0.35
0.75 0.3125 -0.4125
0.6875 0.3125 -0.35
0.6875 0.375 -0.4125
0.6875 0.3125 -0.4125
0.875 0.3125 -0.35
0.875 0.375 -0.4125
0.8125 0.375 -0.35
0.875 0.3125 -0.4125
0.8125 0.3125 -0.35
0.8125 0.375 -0.4125
0.8125 0.3125 -0.4125
1 0.3125 -0.35
1 0.375 -0.4125
0.9375 0.375 -0.35
1 0.3125 -0.4125
0.9375 0.3125 -0.35
0.9375 0.375 -0.4125
0.9375 0.3125 -0.4125
1.125 0.3125 -0.35
1.125 0.375 -0.4125
1.0625 0.375 -0.35
1.125 0.3125 -0.4125
1.0625 0.3125 -0.35
1.0625 0.375 -0.4125
1.0625 0.3125 -0.4125
1.25 0.3125 -0.35
1.25 0.375 -0.4125
1.1875 0.375 -0.35
1.25 0.3125 -0.4125
1.1875 0.3125 -0.35
1.1875 0.375 -0.4125
1.1875 0.3125 -0.4125
1.375 0.3125 -0.35
1.375 0.375 -0.4125
1.3125 0.375 -0.35
1.375 0.3125 -0.4125
1.3125 0.3125 -0.35
1.3125 0.375 -0.4125
1.3125 0.3125 -0.4125
1.5 0.3125 -0.35
1.5 0.375 -0.4125
1.4375 0.375 -0.35
1.5 0.3125 -0.4125
1.4375 0.3125 -0.35
1.4375 0.375 -0.4125
1.4375 0.3125 -0.4125
1.625 0.3125 -0.35
1.625 0.375 -0.4125
1.5625 0.375 -0.35
1.625 0.3125 -0.4125
1.5625 0.3125 -0.35
1.5625 0.375 -0.4125
1.5625 0.3125 -0.4125
1.75 0.3125 -0.35
1.75 0.375 -0.4125
1.6875 0.375 -0.35
1.75 0.3125 -0.4125
1.6875 0.3125 -0.35
1.6875 0.375 -0.4125
1.6875 0.3125 -0.4125
1.875 0.3125 -0.35
1.875 0.375 -0.4125
1.8125 0.375 -0.35
1.875 0.3125 -0.4125
1.8125 0.3125 -0.35
1.8125 0.375 -0.4125
1.8125 0.3125 -0.4125
2 0.3125 -0.35
2 0.375 -0.4125
1.9375 0.375 -0.35
2 0.3125 -0.4125
1.9375 0.3125 -0.35
1.9375 0.375 -0.4125
1.9375 0.3125 -0.4125
2.125 0.3125 -0.35
2.125 0.375 -0.4125
2.0625 0.375 -0.35
2.125 0.3125 -0.4125
2.0625 0.3125 -0.35
2.0625 0.375 -0.4125
2.0625 0.3125 -0.4125
2.25 0.3125 -0.35
2.25 0.375 -0.4125
2.1875 0.375 -0.35
2.25 0.3125 -0.4125
2.1875 0.3125 -0.35
2.1875 0.375 -0.4125
2.1875 0.3125 -0.4125
2.375 0.3125 -0.35
2.375 0.375 -0.4125
2.3125 0.375 -0.35
2.375 0.3125 -0.4125
2.3125 0.3125 -0.35
2.3125 0.375 -0.4125
2.3125 0.3125 -0.4125
2.5 0.3125 -0.35
2.5 0.375 -0.4125
2.4375 0.375 -0.35
2.5 0.3125 -0.4125
2.4375 0.3125 -0.35
2.4375 0.375 -0.4125
2.4375 0.3125 -0.4125
2.625 0.3125 -0.35
2.625 0.375 -0.4125
2.5625 0.375 -0.35
2.625 0.3125 -0.4125
2.5625 0.3125 -0.35
2.5625 0.375 -0.4125
2.5625 0.3125 -0.4125
2.75 0.3125 -0.35
2.75 0.375 -0.4125
2.6875 0.375 -0.35
2.75 0.3125 -0.4125
2.6875 0.3125 -0.35
2.6875 0.375 -0.4125
2.6875 0.3125 -0.4125
2.875 0.3125 -0.35
2.875 0.375 -0.4125
2.8125 0.375 -0.35
2.875 0.3125 -0.4125
2.8125 0.3125 -0.35
2.8125 0.375 -0.4125
2.8125 0.3125 -0.4125
3 0.3125 -0.35
3 0.375 -0.4125
2.9375 0.375 -0.35
3 0.3125 -0.4125
2.9375 0.3125 -0.35
2.9375 0.375 -0.4125
2.9375 0.3125 -0.4125
3.125 0.3125 -0.35
3.125 0.375 -0.4125
3.0625 0.375 -0.35
3.125 0.3125 -0.4125
3.0625 0.3125 -0.35
3.0625 0.375 -0.4125
3.0625 0.3125 -0.4125
3.25 0.3125 -0.35
3.25 0.375 -0.4125
3.1875 0.375 -0.35
3.25 0.3125 -0.4125
3.1875 0.3125 -0.35
3.1875 0.375 -0.4125
3.1875 0.3125 -0.4125
3.375 0.3125 -0.35
3.375 0.375 -0.4125
3.3125 0.375 -0.35
3.375 0.3125 -0.4125
3.3125 0.3125 -0.35
3.3125 0.375 -0.4125
3.3125 0.3125 -0.4125
3.5 0.3125 -0.35
3.5 0.375 -0.4125
3.4375 0.375 -0.35
3.5 0.3125 -0.4125
3.4375 0.3125 -0.35
3.4375 0.375 -0.4125
3.4375 0.3125 -0.4125
3.625 0.3125 -0.35
3.625 0.375 -0.4125
3.5625 0.375 -0.35
3.625 0.3125 -0.4125
3.5625 0.3125 -0.35
3.5625 0.375 -0.4125
3.5625 0.3125 -0.4125
3.75 0.3125 -0.35
3.75 0.375 -0.4125
3.6875 0.375 -0.35
3.75 0.3125 -0.4125
3.6875 0.3125 -0.35
3.6875 0.375 -0.4125
3.6875 0.3125 -0.4125
3.875 0.3125 -0.35
3.875 0.375 -0.4125
3.8125 0.375 -0.35
3.875 0.3125 -0.4125
3.8125 0.3125 -0.35
3.8125 0.375 -0.4125
3.8125 0.3125 -0.4125
4 0.3125 -0.35
4 0.375 -0.4125
3.9375 0.375 -0.35
4 0.3125 -0.4125
3.9375 0.3125 -0.35
3.9375 0.375 -0.4125
3.9375 0.3125 -0.4125
0.125 0.4375 -0.35
0 0.4375 -0.35
0.125 0.5 -0.4125
0.0625 0.5 -0.35
0 0.5 -0.4125
0.125 0.4375 -0.4125
0.0625 0.4375 -0.35
0 0.4375 -0.4125
0.0625 0.5 -0.4125
0.0625 0.4375 -0.4125
0.25 0.4375 -0.35
0.25 0.5 -0.4125
0.1875 0.5 -0.35
0.25 0.4375 -0.4125
0.1875 0.4375 -0.35
0.1875 0.5 -0.4125
0.1875 0.4375 -0.4125
0.375 0.4375 -0.35
0.375 0.5 -0.4125
0.3125 0.5 -0.35
0.375 0.4375 -0.4125
0.3125 0.4375 -0.35
0.3125 0.5 -0.4125
0.3125 0.4375 -0.4125
0.5 0.4375 -0.35
0.5 0.5 -0.4125
0.4375 0.5 -0.35
0.5 0.4375 -0.4125
0.4375 0.4375 -0.35
0.4375 0.5 -0.4125
0.4375 0.4375 -0.4125
0.625 0.4375 -0.35
0.625 0.5 -0.4125
0.5625 0.5 -0.35
0.625 0.4375 -0.4125
0.5625 0.4375 -0.35
0.5625 0.5 -0.4125
0.5625 0.4375 -0.4125
0.75 0.4375 -0.35
0.75 0.5 -0.4125
0.6875 0.5 -0.35
0.75 0.4375 -0.4125
0.6875 0.4375 -0.35
0.6875 0.5 -0.4125
0.6875 0.4375 -0.4125
0.875 0.4375 -0.35
0.875 0.5 -0.4125
0.8125 0.5 -0.35
0.875 0.4375 -0.4125
0.8125 0.4375 -0.35
0.8125 0.5 -0.4125
0.8125 0.4375 -0.4125
1 0.4375 -0.35
1 0.5 -0.4125
0.9375 0.5 -0.35
1 0.4375 -0.4125
0.9375 0.4375 -0.35
0.9375 0.5 -0.4125
0.9375 0.4375 -0.4125
1.125 0.4375 -0.35
1.125 0.5 -0.4125
1.0625 0.5 -0.35
1.125 0.4375 -0.4125
1.0625 0.4375 -0.35
1.0625 0.5 -0.4125
1.0625 0.4375 -0.4125
1.25 0.4375 -0.35
1.25 0.5 -0.4125
1.1875 0.5 -0.35
1.25 0.4375 -0.4125
1.1875 0.4375 -0.35
1.1875 0.5 -0.4125
1.1875 0.4375 -0.4125
1.375 0.4375 -0.35
1.375 0.5 -0.4125
1.3125 0.5 -0.35
1.375 0.4375 -0.4125
1.3125 0.4375 -0.35
1.3125 0.5 -0.4125
1.3125 0.4375 -0.4125
1.5 0.4375 -0.35
1.5 0.5 -0.4125
1.4375 0.5 -0.35
1.5 0.4375 -0.4125
1.4375 0.4375 -0.35
1.4375 0.5 -0.4125
1.4375 0.4375 -0.4125
1.625 0.4375 -0.35
1.625 0.5 -0.4125
1.5625 0.5 -0.35
1.625 0.4375 -0.4125
1.5625 0.4375 -0.35
1.5625 0.5 -0.4125
1.5625 0.4375 -0.4125
1.75 0.4375 -0.35
1.75 0.5 -0.4125
1.6875 0.5 -0.35
1.75 0.4375 -0.4125
1.6875 0.4375 -0.35
1.6875 0.5 -0.4125
1.6875 0.4375 -0.4125
1.875 0.4375 -0.35
1.875 0.5 -0.4125
1.8125 0.5 -0.35
1.875 0.4375 -0.4125
1.8125 0.4375 -0.35
1.8125 0.5 -0.4125
1.8125 0.4375 -0.4125
2 0.4375 -0.35
2 0.5 -0.4125
1.9375 0.5 -0.35
2 0.4375 -0.4125
1.9375 0.4375 -0.35
1.9375 0.5 -0.4125
1.9375 0.4375 -0.4125
2.125 0.4375 -0.35
2.125 0.5 -0.4125
2.0625 0.5 -0.35
2.125 0.4375 -0.4125
2.0625 0.4375 -0.35
2.0625 0.5 -0.4125
2.0625 0.4375 -0.4125
2.25 0.4375 -0.35
2.25 0.5 -0.4125
2.1875 0.5 -0.35
2.25 0.4375 -0.4125
2.1875 0.4375 -0.35
2.1875 0.5 -0.4125
2.1875 0.4375 -0.4125
2.375 0.4375 -0.35
2.375 0.5 -0.4125
2.3125 0.5 -0.35
2.375 0.4375 -0.4125
2.3125 0.4375 -0.35
2.3125 0.5 -0.4125
2.3125 0.4375 -0.4125
2.5 0.4375 -0.35
2.5 0.5 -0.4125
2.4375 0.5 -0.35
2.5 0.4375 -0.4125
2.4375 0.4375 -0.35
2.4375 0.5 -0.4125
2.4375 0.4375 -0.4125
2.625 0.4375 -0.35
2.625 0.5 -0.4125
2.5625 0.5 -0.35
2.625 0.4375 -0.4125
2.5625 0.4375 -0.35
2.5625 0.5 -0.4125
2.5625 0.4375 -0.4125
2.75 0.4375 -0.35
2.75 0.5 -0.4125
2.6875 0.5 -0.35
2.75 0.4375 -0.4125
2.6875 0.4375 -0.35
2.6875 0.5 -0.4125
2.6875 0.4375 -0.4125
2.875 0.4375 -0.35
2.875 0.5 -0.4125
2.8125 0.5 -0.35
2.875 0.4375 -0.4125
2.8125 0.4375 -0.35
2.8125 0.5 -0.4125
2.8125 0.4375 -0.4125
3 0.4375 -0.35
3 0.5 -0.4125
2.9375 0.5 -0.35
3 0.4375 -0.4125
2.9375 0.4375 -0.35
2.9375 0.5 -0.4125
2.9375 0.4375 -0.4125
3.125 0.4375 -0.35
3.125 0.5 -0.4125
3.0625 0.5 -0.35
3.125 0.4375 -0.4125
3.0625 0.4375 -0.35
3.0625 0.5 -0.4125
3.0625 0.4375 -0.4125
3.25 0.4375 -0.35
3.25 0.5 -0.4125
3.1875 0.5 -0.35
3.25 0.4375 -0.4125
3.1875 0.4375 -0.35
3.1875 0.5 -0.4125
3.1875 0.4375 -0.4125
3.375 0.4375 -0.35
3.375 0.5 -0.4125
3.3125 0.5 -0.35
3.375 0.4375 -0.4125
3.3125 0.4375 -0.35
3.3125 0.5 -0.4125
3.3125 0.4375 -0.4125
3.5 0.4375 -0.35
3.5 0.5 -0.4125
3.4375 0.5 -0.35
3.5 0.4375 -0.4125
3.4375 0.4375 -0.35
3.4375 0.5 -0.4125
3.4375 0.4375 -0.4125
3.625 0.4375 -0.35
3.625 0.5 -0.4125
3.5625 0.5 -0.35
3.625 0.4375 -0.4125
3.5625 0.4375 -0.35
3.5625 0.5 -0.4125
3.5625 0.4375 -0.4125
3.75 0.4375 -0.35
3.75 0.5 -0.4125
3.6875 0.5 -0.35
3.75 0.4375 -0.4125
3.6875 0.4375 -0.35
3.6875 0.5 -0.4125
3.6875 0.4375 -0.4125
3.875 0.4375 -0.35
3.875 0.5 -0.4125
3.8125 0.5 -0.35
3.875 0.4375 -0.4125
3.8125 0.4375 -0.35
3.8125 0.5 -0.4125
3.8125 0.4375 -0.4125
4 0.4375 -0.35
4 0.5 -0.4125
3.9375 0.5 -0.35
4 0.4375 -0.4125
3.9375 0.4375 -0.35
3.9375 0.5 -0.4125
3.9375 0.4375 -0.4125
0.125 0.5625 -0.35
0 0.5625 -0.35
0.125 0.625 -0.4125
0.0625 0.625 -0.35
0 0.625 -0.4125
0.125 0.5625 -0.4125
0.0625 0.5625 -0.35
0 0.5625 -0.4125
0.0625 0.625 -0.4125
0.0625 0.5625 -0.4125
0.25 0.5625 -0.35
0.25 0.625 -0.4125
0.1875 0.625 -0.35
0.25 0.5625 -0.4125
0.1875 0.5625 -0.35
0.1875 0.625 -0.4125
0.1875 0.5625 -0.4125
0.375 0.5625 -0.35
0.375 0.625 -0.4125
0.3125 0.625 -0.35
0.375 0.5625 -0.4125
0.3125 0.5625 -0.35
0.3125 0.625 -0.4125
0.3125 0.5625 -0.4125
0.5 0.5625 -0.35
0.5 0.625 -0.4125
0.4375 0.625 -0.35
0.5 0.5625 -0.4125
0.4375 0.5625 -0.35
0.4375 0.625 -0.4125
0.4375 0.5625 -0.4125
0.625 0.5625 -0.35
0.625 0.625 -0.4125
0.5625 0.625 -0.35
0.625 0.5625 -0.4125
0.5625 0.5625 -0.35
0.5625 0.625 -0.4125
0.5625 0.5625 -0.4125
0.75 0.5625 -0.35
0.75 0.625 -0.4125
0.6875 0.625 -0.35
0.75 0.5625 -0.4125
0.6875 0.5625 -0.35
0.6875 0.625 -0.4125
0.6875 0.5625 -0.4125
0.875 0.5625 -0.35
0.875 0.625 -0.4125
0.8125 0.625 -0.35
0.875 0.5625 -0.4125
0.8125 0.5625 -0.35
0.8125 0.625 -0.4125
0.8125 0.5625 -0.4125
1 0.5625 -0.35
1 0.625 -0.4125
0.9375 0.625 -0.35
1 0.5625 -0.4125
0.9375 0.5625 -0.35
0.9375 0.625 -0.4125
0.9375 0.5625 -0.4125
1.125 0.5625 -0.35
1.125 0.625 -0.4125
1.0625 0.625 -0.35
1.125 0.5625 -0.4125
1.0625 0.5625 -0.35
1.0625 0.625 -0.4125
1.0625 0.5625 -0.4125
1.25 0.5625 -0.35
1.25 0.625 -0.4125
1.1875 0.625 -0.35
1.25 0.5625 -0.4125
1.1875 0.5625 -0.35
1.1875 0.625 -0.4125
1.1875 0.5625 -0.4125
1.375 0.5625 -0.35
1.375 0.625 -0.4125
1.3125 0.625 -0.35
1.375 0.5625 -0.4125
1.3125 0.5625 -0.35
1.3125 0.625 -0.4125
1.3125 0.5625 -0.4125
1.5 0.5625 -0.35
1.5 0.625 -0.4125
1.4375 0.625 -0.35
1.5 0.5625 -0.4125
1.4375 0.5625 -0.35
1.4375 0.625 -0.4125
1.4375 0.5625 -0.4125
1.625 0.5625 -0.35
1.625 0.625 -0.4125
1.5625 0.625 -0.35
1.625 0.5625 -0.4125
1.5625 0.5625 -0.35
1.5625 0.625 -0.4125
1.5625 0.5625 -0.4125
1.75 0.5625 -0.35
1.75 0.625 -0.4125
1.6875 0.625 -0.35
1.75 0.5625 -0.4125
1.6875 0.5625 -0.35
1.6875 0.625 -0.4125
1.6875 0.5625 -0.4125
1.875 0.5625 -0.35
1.875 0.625 -0.4125
1.8125 0.625 -0.35
1.875 0.5625 -0.4125
1.8125 0.5625 -0.35
1.8125 0.625 -0.4125
1.8125 0.5625 -0.4125
2 0.5625 -0.35
2 0.625 -0.4125
1.9375 0.625 -0.35
2 0.5625 -0.4125
1.9375 0.5625 -0.35
1.9375 0.625 -0.4125
1.9375 0.5625 -0.4125
2.125 0.5625 -0.35
2.125 0.625 -0.4125
2.0625 0.625 -0.35
2.125 0.5625 -0.4125
2.0625 0.5625 -0.35
2.0625 0.625 -0.4125
2.0625 0.5625 -0.4125
2.25 0.5625 -0.35
2.25 0.625 -0.4125
2.1875 0.625 -0.35
2.25 0.5625 -0.4125
2.1875 0.5625 -0.35
2.1875 0.625 -0.4125
2.1875 0.5625 -0.4125
2.375 0.5625 -0.35
2.375 0.625 -0.4125
2.3125 0.625 -0.35
2.375 0.5625 -0.4125
2.3125 0.5625 -0.35
2.3125 0.625 -0.4125
2.3125 0.5625 -0.4125
2.5 0.5625 -0.35
2.5 0.625 -0.4125
2.4375 0.625 -0.35
2.5 0.5625 -0.4125
2.4375 0.5625 -0.35
2.4375 0.625 -0.4125
2.4375 0.5625 -0.4125
2.625 0.5625 -0.35
2.625 0.625 -0.4125
2.5625 0.625 -0.35
2.625 0.5625 -0.4125
2.5625 0.5625 -0.35
2.5625 0.625 -0.4125
2.5625 0.5625 -0.4125
2.75 0.5625 -0.35
2.75 0.625 -0.4125
2.6875 0.625 -0.35
2.75 0.5625 -0.4125
2.6875 0.5625 -0.35
2.6875 0.625 -0.4125
2.6875 0.5625 -0.4125
2.875 0.5625 -0.35
2.875 0.625 -0.4125
2.8125 0.625 -0.35
2.875 0.5625 -0.4125
2.8125 0.5625 -0.35
2.8125 0.625 -0.4125
2.8125 0.5625 -0.4125
3 0.5625 -0.35
3 0.625 -0.4125
2.9375 0.625 -0.35
3 0.5625 -0.4125
2.9375 0.5625 -0.35
2.9375 0.625 -0.4125
2.9375 0.5625 -0.4125
3.125 0.5625 -0.35
3.125 0.625 -0.4125
3.0625 0.625 -0.35
3.125 0.5625 -0.4125
3.0625 0.5625 -0.35
3.0625 0.625 -0.4125
3.0625 0.5625 -0.4125
3.25 0.5625 -0.35
3.25 0.625 -0.4125
3.1875 0.625 -0.35
3.25 0.5625 -0.4125
3.1875 0.5625 -0.35
3.1875 0.625 -0.4125
3.1875 0.5625 -0.4125
3.375 0.5625 -0.35
3.375 0.625 -0.4125
3.3125 0.625 -0.35
3.375 0.5625 -0.4125
3.3125 0.5625 -0.35
3.3125 0.625 -0.4125
3.3125 0.5625 -0.4125
3.5 0.5625 -0.35
3.5 0.625 -0.4125
3.4375 0.625 -0.35
3.5 0.5625 -0.4125
3.4375 0.5625 -0.35
3.4375 0.625 -0.4125
3.4375 0.5625 -0.4125
3.625 0.5625 -0.35
3.625 0.625 -0.4125
3.5625 0.625 -0.35
3.625 0.5625 -0.4125
3.5625 0.5625 -0.35
3.5625 0.625 -0.4125
3.5625 0.5625 -0.4125
3.75 0.5625 -0.35
3.75 0.625 -0.4125
3.6875 0.625 -0.35
3.75 0.5625 -0.4125
3.6875 0.5625 -0.35
3.6875 0.625 -0.4125
3.6875 0.5625 -0.4125
3.875 0.5625 -0.35
3.875 0.625 -0.4125
3.8125 0.625 -0.35
3.875 0.5625 -0.4125
3.8125 0.5625 -0.35
3.8125 0.625 -0.4125
3.8125 0.5625 -0.4125
4 0.5625 -0.35
4 0.625 -0.4125
3.9375 0.625 -0.35
4 0.5625 -0.4125
3.9375 0.5625 -0.35
3.9375 0.625 -0.4125
3.9375 0.5625 -0.4125
0.125 0.6875 -0.35
0 0.6875 -0.35
0.125 0.75 -0.4125
0.0625 0.75 -0.35
0 0.75 -0.4125
0.125 0.6875 -0.4125
0.0625 0.6875 -0.35
0 0.6875 -0.4125
0.0625 0.75 -0.4125
0.0625 0.6875 -0.4125
0.25 0.6875 -0.35
0.25 0.75 -0.4125
0.1875 0.75 -0.35
0.25 0.6875 -0.4125
0.1875 0.6875 -0.35
0.1875 0.75 -0.4125
0.1875 0.6875 -0.4125
0.375 0.6875 -0.35
0.375 0.75 -0.4125
0.3125 0.75 -0.35
0.375 0.6875 -0.4125
0.3125 0.6875 -0.35
0.3125 0.75 -0.4125
0.3125 0.6875 -0.4125
0.5 0.6875 -0.35
0.5 0.75 -0.4125
0.4375 0.75 -0.35
0.5 0.6875 -0.4125
0.4375 0.6875 -0.35
0.4375 0.75 -0.4125
0.4375 0.6875 -0.4125
0.625 0.6875 -0.35
0.625 0.75 -0.4125
0.5625 0.75 -0.35
0.625 0.6875 -0.4125
0.5625 0.6875 -0.35
0.5625 0.75 -0.4125
0.5625 0.6875 -0.4125
0.75 0.6875 -0.35
0.75 0.75 -0.4125
0.6875 0.75 -0.35
0.75 0.6875 -0.4125
0.6875 0.6875 -0.35
0.6875 0.75 -0.4125
0.6875 0.6875 -0.4125
0.875 0.6875 -0.35
0.875 0.75 -0.4125
0.8125 0.75 -0.35
0.875 0.6875 -0.4125
0.8125 0.6875 -0.35
0.8125 0.75 -0.4125
0.8125 0.6875 -0.4125
1 0.6875 -0.35
1 0.75 -0.4125
0.9375 0.75 -0.35
1 0.6875 -0.4125
0.9375 0.6875 -0.35
0.9375 0.75 -0.4125
0.9375 0.6875 -0.4125
1.125 0.6875 -0.35
1.125 0.75 -0.4125
1.0625 0.75 -0.35
1.125 0.6875 -0.4125
1.0625 0.6875 -0.35
1.0625 0.75 -0.4125
1.0625 0.6875 -0.4125
1.25 0.6875 -0.35
1.25 0.75 -0.4125
1.1875 0.75 -0.35
1.25 0.6875 -0.4125
1.1875 0.6875 -0.35
1.1875 0.75 -0.4125
1.1875 0.6875 -0.4125
1.375 0.6875 -0.35
1.375 0.75 -0.4125
1.3125 0.75 -0.35
1.375 0.6875 -0.4125
1.3125 0.6875 -0.35
1.3125 0.75 -0.4125
1.3125 0.6875 -0.4125
1.5 0.6875 -0.35
1.5 0.75 -0.4125
1.4375 0.75 -0.35
1.5 0.6875 -0.4125
1.4375 0.6875 -0.35
1.4375 0.75 -0.4125
1.4375 0.6875 -0.4125
1.625 0.6875 -0.35
1.625 0.75 -0.4125
1.5625 0.75 -0.35
1.625 0.6875 -0.4125
1.5625 0.6875 -0.35
1.5625 0.75 -0.4125
1.5625 0.6875 -0.4125
1.75 0.6875 -0.35
1.75 0.75 -0.4125
1.6875 0.75 -0.35
1.75 0.6875 -0.4125
1.6875 0.6875 -0.35
1.6875 0.75 -0.4125
1.6875 0.6875 -0.4125
1.875 0.6875 -0.35
1.875 0.75 -0.4125
1.8125 0.75 -0.35
1.875 0.6875 -0.4125
1.8125 0.6875 -0.35
1.8125 0.75 -0.4125
1.8125 0.6875 -0.4125
2 0.6875 -0.35
2 0.75 -0.4125
1.9375 0.75 -0.35
2 0.6875 -0.4125
1.9375 0.6875 -0.35
1.9375 0.75 -0.4125
1.9375 0.6875 -0.4125
2.125 0.6875 -0.35
2.125 0.75 -0.4125
2.0625 0.75 -0.35
2.125 0.6875 -0.4125
2.0625 0.6875 -0.35
2.0625 0.75 -0.4125
2.0625 0.6875 -0.4125
2.25 0.6875 -0.35
2.25 0.75 -0.4125
2.1875 0.75 -0.35
2.25 0.6875 -0.4125
2.1875 0.6875 -0.35
2.1875 0.75 -0.4125
2.1875 0.6875 -0.4125
2.375 0.6875 -0.35
2.375 0.75 -0.4125
2.3125 0.75 -0.35
2.375 0.6875 -0.4125
2.3125 0.6875 -0.35
2.3125 0.75 -0.4125
2.3125 0.6875 -0.4125
2.5 0.6875 -0.35
2.5 0.75 -0.4125
2.4375 0.75 -0.35
2.5 0.6875 -0.4125
2.4375 0.6875 -0.35
2.4375 0.75 -0.4125
2.4375 0.6875 -0.4125
2.625 0.6875 -0.35
2.625 0.75 -0.4125
2.5625 0.75 -0.35
2.625 0.6875 -0.4125
2.5625 0.6875 -0.35
2.5625 0.75 -0.4125
2.5625 0.6875 -0.4125
2.75 0.6875 -0.35
2.75 0.75 -0.4125
2.6875 0.75 -0.35
2.75 0.6875 -0.4125
2.6875 0.6875 -0.35
2.6875 0.75 -0.4125
2.6875 0.6875 -0.4125
2.875 0.6875 -0.35
2.875 0.75 -0.4125
2.8125 0.75 -0.35
2.875 0.6875 -0.4125
2.8125 0.6875 -0.35
2.8125 0.75 -0.4125
2.8125 0.6875 -0.4125
3 0.6875 -0.35
3 0.75 -0.4125
2.9375 0.75 -0.35
3 0.6875 -0.4125
2.9375 0.6875 -0.35
2.9375 0.75 -0.4125
2.9375 0.6875 -0.4125
3.125 0.6875 -0.35
3.125 0.75 -0.4125
3.0625 0.75 -0.35
3.125 0.6875 -0.4125
3.0625 0.6875 -0.35
3.0625 0.75 -0.4125
3.0625 0.6875 -0.4125
3.25 0.6875 -0.35
3.25 0.75 -0.4125
3.1875 0.75 -0.35
3.25 0.6875 -0.4125
3.1875 0.6875 -0.35
3.1875 0.75 -0.4125
3.1875 0.6875 -0.4125
3.375 0.6875 -0.35
3.375 0.75 -0.4125
3.3125 0.75 -0.35
3.375 0.6875 -0.4125
3.3125 0.6875 -0.35
3.3125 0.75 -0.4125
3.3125 0.6875 -0.4125
3.5 0.6875 -0.35
3.5 0.75 -0.4125
3.4375 0.75 -0.35
3.5 0.6875 -0.4125
3.4375 0.6875 -0.35
3.4375 0.75 -0.4125
3.4375 0.6875 -0.4125
3.625 0.6875 -0.35
3.625 0.75 -0.4125
3.5625 0.75 -0.35
3.625 0.6875 -0.4125
3.5625 0.6875 -0.35
3.5625 0.75 -0.4125
3.5625 0.6875 -0.4125
3.75 0.6875 -0.35
3.75 0.75 -0.4125
3.6875 0.75 -0.35
3.75 0.6875 -0.4125
3.6875 0.6875 -0.35
3.6875 0.75 -0.4125
3.6875 0.6875 -0.4125
3.875 0.6875 -0.35
3.875 0.75 -0.4125
3.8125 0.75 -0.35
3.875 0.6875 -0.4125
3.8125 0.6875 -0.35
3.8125 0.75 -0.4125
3.8125 0.6875 -0.4125
4 0.6875 -0.35
4 0.75 -0.4125
3.9375 0.75 -0.35
4 0.6875 -0.4125
3.9375 0.6875 -0.35
3.9375 0.75 -0.4125
3.9375 0.6875 -0.4125
0.125 0.8125 -0.35
0 0.8125 -0.35
0.125 0.875 -0.4125
0.0625 0.875 -0.35
0 0.875 -0.4125
0.125 0.8125 -0.4125
0.0625 0.8125 -0.35
0 0.8125 -0.4125
0.0625 0.875 -0.4125
0.0625 0.8125 -0.4125
0.25 0.8125 -0.35
0.25 0.875 -0.4125
0.1875 0.875 -0.35
0.25 0.8125 -0.4125
0.1875 0.8125 -0.35
0.1875 0.875 -0.4125
0.1875 0.8125 -0.4125
0.375 0.8125 -0.35
0.375 0.875 -0.4125
0.3125 0.875 -0.35
0.375 0.8125 -0.4125
0.3125 0.8125 -0.35
0.3125 0.875 -0.4125
0.3125 0.8125 -0.4125
0.5 0.8125 -0.35
0.5 0.875 -0.4125
0.4375 0.875 -0.35
0.5 0.8125 -0.4125
0.4375 0.8125 -0.35
0.4375 0.875 -0.4125
0.4375 0.8125 -0.4125
0.625 0.8125 -0.35
0.625 0.875 -0.4125
0.5625 0.875 -0.35
0.625 0.8125 -0.4125
0.5625 0.8125 -0.35
0.5625 0.875 -0.4125
0.5625 0.8125 -0.4125
0.75 0.8125 -0.35
0.75 0.875 -0.4125
0.6875 0.875 -0.35
0.75 0.8125 -0.4125
0.6875 0.8125 -0.35
0.6875 0.875 -0.4125
0.6875 0.8125 -0.4125
0.875 0.8125 -0.35
0.875 0.875 -0.4125
0.8125 0.875 -0.35
0.875 0.8125 -0.4125
0.8125 0.8125 -0.35
0.8125 0.875 -0.4125
0.8125 0.8125 -0.4125
1 0.8125 -0.35
1 0.875 -0.4125
0.9375 0.875 -0.35
1 0.8125 -0.4125
0.9375 0.8125 -0.35
0.9375 0.875 -0.4125
0.9375 0.8125 -0.4125
1.125 0.8125 -0.35
1.125 0.875 -0.4125
1.0625 0.875 -0.35
1.125 0.8125 -0.4125
1.0625 0.8125 -0.35
1.0625 0.875 -0.4125
1.0625 0.8125 -0.4125
1.25 0.8125 -0.35
1.25 0.875 -0.4125
1.1875 0.875 -0.35
1.25 0.8125 -0.4125
1.1875 0.8125 -0.35
1.1875 0.875 -0.4125
1.1875 0.8125 -0.4125
1.375 0.8125 -0.35
1.375 0.875 -0.4125
1.3125 0.875 -0.35
1.375 0.8125 -0.4125
1.3125 0.8125 -0.35
1.3125 0.875 -0.4125
1.3125 0.8125 -0.4125
1.5 0.8125 -0.35
1.5 0.875 -0.4125
1.4375 0.875 -0.35
1.5 0.8125 -0.4125
1.4375 0.8125 -0.35
1.4375 0.875 -0.4125
1.4375 0.8125 -0.4125
1.625 0.8125 -0.35
1.625 0.875 -0.4125
1.5625 0.875 -0.35
1.625 0.8125 -0.4125
1.5625 0.8125 -0.35
1.5625 0.875 -0.4125
1.5625 0.8125 -0.4125
1.75 0.8125 -0.35
1.75 0.875 -0.4125
1.6875 0.875 -0.35
1.75 0.8125 -0.4125
1.6875 0.8125 -0.35
1.6875 0.875 -0.4125
1.6875 0.8125 -0.4125
1.875 0.8125 -0.35
1.875 0.875 -0.4125
1.8125 0.875 -0.35
1.875 0.8125 -0.4125
1.8125 0.8125 -0.35
1.8125 0.875 -0.4125
1.8125 0.8125 -0.4125
2 0.8125 -0.35
2 0.875 -0.4125
1.9375 0.875 -0.35
2 0.8125 -0.4125
1.9375 0.8125 -0.35
1.9375 0.875 -0.4125
1.9375 0.8125 -0.4125
2.125 0.8125 -0.35
2.125 0.875 -0.4125
2.0625 0.875 -0.35
2.125 0.8125 -0.4125
2.0625 0.8125 -0.35
2.0625 0.875 -0.4125
2.0625 0.8125 -0.4125
2.25 0.8125 -0.35
2.25 0.875 -0.4125
2.1875 0.875 -0.35
2.25 0.8125 -0.4125
2.1875 0.8125 -0.35
2.1875 0.875 -0.4125
2.1875 0.8125 -0.4125
2.375 0.8125 -0.35
2.375 0.875 -0.4125
2.3125 0.875 -0.35
2.375 0.8125 -0.4125
2.3125 0.8125 -0.35
2.3125 0.875 -0.4125
2.3125 0.8125 -0.4125
2.5 0.8125 -0.35
2.5 0.875 -0.4125
2.4375 0.875 -0.35
2.5 0.8125 -0.4125
2.4375 0.8125 -0.35
2.4375 0.875 -0.4125
2.4375 0.8125 -0.4125
2.625 0.8125 -0.35
2.625 0.875 -0.4125
2.5625 0.875 -0.35
2.625 0.8125 -0.4125
2.5625 0.8125 -0.35
2.5625 0.875 -0.4125
2.5625 0.8125 -0.4125
2.75 0.8125 -0.35
2.75 0.875 -0.4125
2.6875 0.875 -0.35
2.75 0.8125 -0.4125
2.6875 0.8125 -0.35
2.6875 0.875 -0.4125
2.6875 0.8125 -0.4125
2.875 0.8125 -0.35
2.875 0.875 -0.4125
2.8125 0.875 -0.35
2.875 0.8125 -0.4125
2.8125 0.8125 -0.35
2.8125 0.875 -0.4125
2.8125 0.8125 -0.4125
3 0.8125 -0.35
3 0.875 -0.4125
2.9375 0.875 -0.35
3 0.8125 -0.4125
2.9375 0.8125 -0.35
2.9375 0.875 -0.4125
2.9375 0.8125 -0.4125
3.125 0.8125 -0.35
3.125 0.875 -0.4125
3.0625 0.875 -0.35
3.125 0.8125 -0.4125
3.0625 0.8125 -0.35
3.0625 0.875 -0.4125
3.0625 0.8125 -0.4125
3.25 0.8125 -0.35
3.25 0.875 -0.4125
3.1875 0.875 -0.35
3.25 0.8125 -0.4125
3.1875 0.8125 -0.35
3.1875 0.875 -0.4125
3.1875 0.8125 -0.4125
3.375 0.8125 -0.35
3.375 0.875 -0.4125
3.3125 0.875 -0.35
3.375 0.8125 -0.4125
3.3125 0.8125 -0.35
3.3125 0.875 -0.4125
3.3125 0.8125 -0.4125
3.5 0.8125 -0.35
3.5 0.875 -0.4125
3.4375 0.875 -0.35
3.5 0.8125 -0.4125
3.4375 0.8125 -0.35
3.4375 0.875 -0.4125
3.4375 0.8125 -0.4125
3.625 0.8125 -0.35
3.625 0.875 -0.4125
3.5625 0.875 -0.35
3.625 0.8125 -0.4125
3.5625 0.8125 -0.35
3.5625 0.875 -0.4125
3.5625 0.8125 -0.4125
3.75 0.8125 -0.35
3.75 0.875 -0.4125
3.6875 0.875 -0.35
3.75 0.8125 -0.4125
3.6875 0.8125 -0.35
3.6875 0.875 -0.4125
3.6875 0.8125 -0.4125
3.875 0.8125 -0.35
3.875 0.875 -0.4125
3.8125 0.875 -0.35
3.875 0.8125 -0.4125
3.8125 0.8125 -0.35
3.8125 0.875 -0.4125
3.8125 0.8125 -0.4125
4 0.8125 -0.35
4 0.875 -0.4125
3.9375 0.875 -0.35
4 0.8125 -0.4125
3.9375 0.8125 -0.35
3.9375 0.875 -0.4125
3.9375 0.8125 -0.4125
0.125 0.9375 -0.35
0 0.9375 -0.35
0.125 1 -0.4125
0.0625 1 -0.35
0 1 -0.4125
0.125 0.9375 -0.4125
0.0625 0.9375 -0.35
0 0.9375 -0.4125
0.0625 1 -0.4125
0.0625 0.9375 -0.4125
0.25 0.9375 -0.35
0.25 1 -0.4125
0.1875 1 -0.35
0.25 0.9375 -0.4125
0.1875 0.9375 -0.35
0.1875 1 -0.4125
0.1875 0.9375 -0.4125
0.375 0.9375 -0.35
0.375 1 -0.4125
0.3125 1 -0.35
0.375 0.9375 -0.4125
0.3125 0.9375 -0.35
0.3125 1 -0.4125
0.3125 0.9375 -0.4125
0.5 0.9375 -0.35
0.5 1 -0.4125
0.4375 1 -0.35
0.5 0.9375 -0.4125
0.4375 0.9375 -0.35
0.4375 1 -0.4125
0.4375 0.9375 -0.4125
0.625 0.9375 -0.35
0.625 1 -0.4125
0.5625 1 -0.35
0.625 0.9375 -0.4125
0.5625 0.9375 -0.35
0.5625 1 -0.4125
0.5625 0.9375 -0.4125
0.75 0.9375 -0.35
0.75 1 -0.4125
0.6875 1 -0.35
0.75 0.9375 -0.4125
0.6875 0.9375 -0.35
0.6875 1 -0.4125
0.6875 0.9375 -0.4125
0.875 0.9375 -0.35
0.875 1 -0.4125
0.8125 1 -0.35
0.875 0.9375 -0.4125
0.8125 0.9375 -0.35
0.8125 1 -0.4125
0.8125 0.9375 -0.4125
1 0.9375 -0.35
1 1 -0.4125
0.9375 1 -0.35
1 0.9375 -0.4125
0.9375 0.9375 -0.35
0.9375 1 -0.4125
0.9375 0.9375 -0.4125
1.125 0.9375 -0.35
1.125 1 -0.4125
1.0625 1 -0.35
1.125 0.9375 -0.4125
1.0625 0.9375 -0.35
1.0625 1 -0.4125
1.0625 0.9375 -0.4125
1.25 0.9375 -0.35
1.25 1 -0.4125
1.1875 1 -0.35
1.25 0.9375 -0.4125
1.1875 0.9375 -0.35
1.1875 1 -0.4125
1.1875 0.9375 -0.4125
1.375 0.9375 -0.35
1.375 1 -0.4125
1.3125 1 -0.35
1.375 0.9375 -0.4125
1.3125 0.9375 -0.35
1.3125 1 -0.4125
1.3125 0.9375 -0.4125
1.5 0.9375 -0.35
1.5 1 -0.4125
1.4375 1 -0.35
1.5 0.9375 -0.4125
1.4375 0.9375 -0.35
1.4375 1 -0.4125
1.4375 0.9375 -0.4125
1.625 0.9375 -0.35
1.625 1 -0.4125
1.5625 1 -0.35
1.625 0.9375 -0.4125
1.5625 0.9375 -0.35
1.5625 1 -0.4125
1.5625 0.9375 -0.4125
1.75 0.9375 -0.35
1.75 1 -0.4125
1.6875 1 -0.35
1.75 0.9375 -0.4125
1.6875 0.9375 -0.35
1.6875 1 -0.4125
1.6875 0.9375 -0.4125
1.875 0.9375 -0.35
1.875 1 -0.4125
1.8125 1 -0.35
1.875 0.9375 -0.4125
1.8125 0.9375 -0.35
1.8125 1 -0.4125
1.8125 0.9375 -0.4125
2 0.9375 -0.35
2 1 -0.4125
1.9375 1 -0.35
2 0.9375 -0.4125
1.9375 0.9375 -0.35
1.9375 1 -0.4125
1.9375 0.9375 -0.4125
2.125 0.9375 -0.35
2.125 1 -0.4125
2.0625 1 -0.35
2.125 0.9375 -0.4125
2.0625 0.9375 -0.35
2.0625 1 -0.4125
2.0625 0.9375 -0.4125
2.25 0.9375 -0.35
2.25 1 -0.4125
2.1875 1 -0.35
2.25 0.9375 -0.4125
2.1875 0.9375 -0.35
2.1875 1 -0.4125
2.1875 0.9375 -0.4125
2.375 0.9375 -0.35
2.375 1 -0.4125
2.3125 1 -0.35
2.375 0.9375 -0.4125
2.3125 0.9375 -0.35
2.3125 1 -0.4125
2.3125 0.9375 -0.4125
2.5 0.9375 -0.35
2.5 1 -0.4125
2.4375 1 -0.35
2.5 0.9375 -0.4125
2.4375 0.9375 -0.35
2.4375 1 -0.4125
2.4375 0.9375 -0.4125
2.625 0.9375 -0.35
2.625 1 -0.4125
2.5625 1 -0.35
2.625 0.9375 -0.4125
2.5625 0.9375 -0.35
2.5625 1 -0.4125
2.5625 0.9375 -0.4125
2.75 0.9375 -0.35
2.75 1 -0.4125
2.6875 1 -0.35
2.75 0.9375 -0.4125
2.6875 0.9375 -0.35
2.6875 1 -0.4125
2.6875 0.9375 -0.4125
2.875 0.9375 -0.35
2.875 1 -0.4125
2.8125 1 -0.35
2.875 0.9375 -0.4125
2.8125 0.9375 -0.35
2.8125 1 -0.4125
2.8125 0.9375 -0.4125
3 0.9375 -0.35
3 1 -0.4125
2.9375 1 -0.35
3 0.9375 -0.4125
2.9375 0.9375 -0.35
2.9375 1 -0.4125
2.9375 0.9375 -0.4125
3.125 0.9375 -0.35
3.125 1 -0.4125
3.0625 1 -0.35
3.125 0.9375 -0.4125
3.0625 0.9375 -0.35
3.0625 1 -0.4125
3.0625 0.9375 -0.4125
3.25 0.9375 -0.35
3.25 1 -0.4125
3.1875 1 -0.35
3.25 0.9375 -0.4125
3.1875 0.9375 -0.35
3.1875 1 -0.4125
3.1875 0.9375 -0.4125
3.375 0.9375 -0.35
3.375 1 -0.4125
3.3125 1 -0.35
3.375 0.9375 -0.4125
3.3125 0.9375 -0.35
3.3125 1 -0.4125
3.3125 0.9375 -0.4125
3.5 0.9375 -0.35
3.5 1 -0.4125
3.4375 1 -0.35
3.5 0.9375 -0.4125
3.4375 0.9375 -0.35
3.4375 1 -0.4125
3.4375 0.9375 -0.4125
3.625 0.9375 -0.35
3.625 1 -0.4125
3.5625 1 -0.35
3.625 0.9375 -0.4125
3.5625 0.9375 -0.35
3.5625 1 -0.4125
3.5625 0.9375 -0.4125
3.75 0.9375 -0.35
3.75 1 -0.4125
3.6875 1 -0.35
3.75 0.9375 -0.4125
3.6875 0.9375 -0.35
3.6875 1 -0.4125
3.6875 0.9375 -0.4125
3.875 0.9375 -0.35
3.875 1 -0.4125
3.8125 1 -0.35
3.875 0.9375 -0.4125
3.8125 0.9375 -0.35
3.8125 1 -0.4125
3.8125 0.9375 -0.4125
4 0.9375 -0.35
4 1 -0.4125
3.9375 1 -0.35
4 0.9375 -0.4125
3.9375 0.9375 -0.35
3.9375 1 -0.4125
3.9375 0.9375 -0.4125
0.125 0 -0.2875
0.0625 0 -0.225
0 0 -0.2875
0.125 0.0625 -0.225
0 0.0625 -0.225
0.125 0.125 -0.2875
0.0625 0.125 -0.225
0 0.125 -0.2875
0.0625 0 -0.2875
0.125 0.0625 -0.2875
0.0625 0.0625 -0.225
0 0.0625 -0.2875
0.0625 0.125 -0.2875
0.0625 0.0625 -0.2875
0.25 0 -0.2875
0.1875 0 -0.225
0.25 0.0625 -0.225
0.25 0.125 -0.2875
0.1875 0.125 -0.225
0.1875 0 -0.2875
0.25 0.0625 -0.2875
0.1875 0.0625 -0.225
0.1875 0.125 -0.2875
0.1875 0.0625 -0.2875
0.375 0 -0.2875
0.3125 0 -0.225
0.375 0.0625 -0.225
0.375 0.125 -0.2875
0.3125 0.125 -0.225
0.3125 0 -0.2875
0.375 0.0625 -0.2875
0.3125 0.0625 -0.225
0.3125 0.125 -0.2875
0.3125 0.0625 -0.2875
0.5 0 -0.2875
0.4375 0 -0.225
0.5 0.0625 -0.225
0.5 0.125 -0.2875
0.4375 0.125 -0.225
0.4375 0 -0.2875
0.5 0.0625 -0.2875
0.4375 0.0625 -0.225
0.4375 0.125 -0.2875
0.4375 0.0625 -0.2875
0.625 0 -0.2875
0.5625 0 -0.225
0.625 0.0625 -0.225
0.625 0.125 -0.2875
0.5625 0.125 -0.225
0.5625 0 -0.2875
0.625 0.0625 -0.2875
0.5625 0.0625 -0.225
0.5625 0.125 -0.2875
0.5625 0.0625 -0.2875
0.75 0 -0.2875
0.6875 0 -0.225
0.75 0.0625 -0.225
0.75 0.125 -0.2875
0.6875 0.125 -0.225
0.6875 0 -0.2875
0.75 0.0625 -0.2875
0.6875 0.0625 -0.225
0.6875 0.125 -0.2875
0.6875 0.0625 -0.2875
0.875 0 -0.2875
0.8125 0 -0.225
0.875 0.0625 -0.225
0.875 0.125 -0.2875
0.8125 0.125 -0.225
0.8125 0 -0.2875
0.875 0.0625 -0.2875
0.8125 0.0625 -0.225
0.8125 0.125 -0.2875
0.8125 0.0625 -0.2875
1 0 -0.2875
0.9375 0 -0.225
1 0.0625 -0.225
1 0.125 -0.2875
0.9375 0.125 -0.225
0.9375 0 -0.2875
1 0.0625 -0.2875
0.9375 0.0625 -0.225
0.9375 0.125 -0.2875
0.9375 0.0625 -0.2875
1.125 0 -0.2875
1.0625 0 -0.225
1.125 0.0625 -0.225
1.125 0.125 -0.2875
1.0625 0.125 -0.225
1.0625 0 -0.2875
1.125 0.0625 -0.2875
1.0625 0.0625 -0.225
1.0625 0.125 -0.2875
1.0625 0.0625 -0.2875
1.25 0 -0.2875
1.1875 0 -0.225
1.25 0.0625 -0.225
1.25 0.125 -0.2875
1.1875 0.125 -0.225
1.1875 0 -0.2875
1.25 0.0625 -0.2875
1.1875 0.0625 -0.225
1.1875 0.125 -0.2875
1.1875 0.0625 -0.2875
1.375 0 -0.2875
1.3125 0 -0.225
1.375 0.0625 -0.225
1.375 0.125 -0.2875
1.3125 0.125 -0.225
1.3125 0 -0.2875
1.375 0.0625 -0.2875
1.3125 0.0625 -0.225
1.3125 0.125 -0.2875
1.3125 0.0625 -0.2875
1.5 0 -0.2875
1.4375 0 -0.225
1.5 0.0625 -0.225
1.5 0.125 -0.2875
1.4375 0.125 -0.225
1.4375 0 -0.2875
1.5 0.0625 -0.2875
1.4375 0.0625 -0.225
1.4375 0.125 -0.2875
1.4375 0.0625 -0.2875
1.625 0 -0.2875
1.5625 0 -0.225
1.625 0.0625 -0.225
1.625 0.125 -0.2875
1.5625 0.125 -0.225
1.5625 0 -0.2875
1.625 0.0625 -0.2875
1.5625 0.0625 -0.225
1.5625 0.125 -0.2875
1.5625 0.0625 -0.2875
1.75 0 -0.2875
1.6875 0 -0.225
1.75 0.0625 -0.225
1.75 0.125 -0.2875
1.6875 0.125 -0.225
1.6875 0 -0.2875
1.75 0.0625 -0.2875
1.6875 0.0625 -0.225
1.6875 0.125 -0.2875
1.6875 0.0625 -0.2875
1.875 0 -0.2875
1.8125 0 -0.225
1.875 0.0625 -0.225
1.875 0.125 -0.2875
1.8125 0.125 -0.225
1.8125 0 -0.2875
1.875 0.0625 -0.2875
1.8125 0.0625 -0.225
1.8125 0.125 -0.2875
1.8125 0.0625 -0.2875
2 0 -0.2875
1.9375 0 -0.225
2 0.0625 -0.225
2 0.125 -0.2875
1.9375 0.125 -0.225
1.9375 0 -0.2875
2 0.0625 -0.2875
1.9375 0.0625 -0.225
1.9375 0.125 -0.2875
1.9375 0.0625 -0.2875
2.125 0 -0.2875
2.0625 0 -0.225
2.125 0.0625 -0.225
2.125 0.125 -0.2875
2.0625 0.125 -0.225
2.0625 0 -0.2875
2.125 0.0625 -0.2875
2.0625 0.0625 -0.225
2.0625 0.125 -0.2875
2.0625 0.0625 -0.2875
2.25 0 -0.2875
2.1875 0 -0.225
2.25 0.0625 -0.225
2.25 0.125 -0.2875
2.1875 0.125 -0.225
2.1875 0 -0.2875
2.25 0.0625 -0.2875
2.1875 0.0625 -0.225
2.1875 0.125 -0.2875
2.1875 0.0625 -0.2875
2.375 0 -0.2875
2.3125 0 -0.225
2.375 0.0625 -0.225
2.375 0.125 -0.2875
2.3125 0.125 -0.225
2.3125 0 -0.2875
2.375 0.0625 -0.2875
2.3125 0.0625 -0.225
2.3125 0.125 -0.2875
2.3125 0.0625 -0.2875
2.5 0 -0.2875
2.4375 0 -0.225
2.5 0.0625 -0.225
2.5 0.125 -0.2875
2.4375 0.125 -0.225
2.4375 0 -0.2875
2.5 0.0625 -0.2875
2.4375 0.0625 -0.225
2.4375 0.125 -0.2875
2.4375 0.0625 -0.2875
2.625 0 -0.2875
2.5625 0 -0.225
2.625 0.0625 -0.225
2.625 0.125 -0.2875
2.5625 0.125 -0.225
2.5625 0 -0.2875
2.625 0.0625 -0.2875
2.5625 0.0625 -0.225
2.5625 0.125 -0.2875
2.5625 0.0625 -0.2875
2.75 0 -0.2875
2.6875 0 -0.225
2.75 0.0625 -0.225
2.75 0.125 -0.2875
2.6875 0.125 -0.225
2.6875 0 -0.2875
2.75 0.0625 -0.2875
2.6875 0.0625 -0.225
2.6875 0.125 -0.2875
2.6875 0.0625 -0.2875
2.875 0 -0.2875
2.8125 0 -0.225
2.875 0.0625 -0.225
2.875 0.125 -0.2875
2.8125 0.125 -0.225
2.8125 0 -0.2875
2.875 0.0625 -0.2875
2.8125 0.0625 -0.225
2.8125 0.125 -0.2875
2.8125 0.0625 -0.2875
3 0 -0.2875
2.9375 0 -0.225
3 0.0625 -0.225
3 0.125 -0.2875
2.9375 0.125 -0.225
2.9375 0 -0.2875
3 0.0625 -0.2875
2.9375 0.0625 -0.225
2.9375 0.125 -0.2875
2.9375 0.0625 -0.2875
3.125 0 -0.2875
3.0625 0 -0.225
3.125 0.0625 -0.225
3.125 0.125 -0.2875
3.0625 0.125 -0.225
3.0625 0 -0.2875
3.125 0.0625 -0.2875
3.0625 0.0625 -0.225
3.0625 0.125 -0.2875
3.0625 0.0625 -0.2875
3.25 0 -0.2875
3.1875 0 -0.225
3.25 0.0625 -0.225
3.25 0.125 -0.2875
3.1875 0.125 -0.225
3.1875 0 -0.2875
3.25 0.0625 -0.2875
3.1875 0.0625 -0.225
3.1875 0.125 -0.2875
3.1875 0.0625 -0.2875
3.375 0 -0.2875
3.3125 0 -0.225
3.375 0.0625 -0.225
3.375 0.125 -0.2875
3.3125 0.125 -0.225
3.3125 0 -0.2875
3.375 0.0625 -0.2875
3.3125 0.0625 -0.225
3.3125 0.125 -0.2875
3.3125 0.0625 -0.2875
3.5 0 -0.2875
3.4375 0 -0.225
3.5 0.0625 -0.225
3.5 0.125 -0.2875
3.4375 0.125 -0.225
3.4375 0 -0.2875
3.5 0.0625 -0.2875
3.4375 0.0625 -0.225
3.4375 0.125 -0.2875
3.4375 0.0625 -0.2875
3.625 0 -0.2875
3.5625 0 -0.225
3.625 0.0625 -0.225
3.625 0.125 -0.2875
3.5625 0.125 -0.225
3.5625 0 -0.2875
3.625 0.0625 -0.2875
3.5625 0.0625 -0.225
3.5625 0.125 -0.2875
3.5625 0.0625 -0.2875
3.75 0 -0.2875
3.6875 0 -0.225
3.75 0.0625 -0.225
3.75 0.125 -0.2875
3.6875 0.125 -0.225
3.6875 0 -0.2875
3.75 0.0625 -0.2875
3.6875 0.0625 -0.225
3.6875 0.125 -0.2875
3.6875 0.0625 -0.2875
3.875 0 -0.2875
3.8125 0 -0.225
3.875 0.0625 -0.225
3.875 0.125 -0.2875
3.8125 0.125 -0.225
3.8125 0 -0.2875
3.875 0.0625 -0.2875
3.8125 0.0625 -0.225
3.8125 0.125 -0.2875
3.8125 0.0625 -0.2875
4 0 -0.2875
3.9375 0 -0.225
4 0.0625 -0.225
4 0.125 -0.2875
3.9375 0.125 -0.225
3.9375 0 -0.2875
4 0.0625 -0.2875
3.9375 0.0625 -0.225
3.9375 0.125 -0.2875
3.9375 0.0625 -0.2875
0.125 0.1875 -0.225
0 0.1875 -0.225
0.125 0.25 -0.2875
0.0625 0.25 -0.225
0 0.25 -0.2875
0.125 0.1875 -0.2875
0.0625 0.1875 -0.225
0 0.1875 -0.2875
0.0625 0.25 -0.2875
0.0625 0.1875 -0.2875
0.25 0.1875 -0.225
0.25 0.25 -0.2875
0.1875 0.25 -0.225
0.25 0.1875 -0.2875
0.1875 0.1875 -0.225
0.1875 0.25 -0.2875
0.1875 0.1875 -0.2875
0.375 0.1875 -0.225
0.375 0.25 -0.2875
0.3125 0.25 -0.225
0.375 0.1875 -0.2875
0.3125 0.1875 -0.225
0.3125 0.25 -0.2875
0.3125 0.1875 -0.2875
0.5 0.1875 -0.225
0.5 0.25 -0.2875
0.4375 0.25 -0.225
0.5 0.1875 -0.2875
0.4375 0.1875 -0.225
0.4375 0.25 -0.2875
0.4375 0.1875 -0.2875
0.625 0.1875 -0.225
0.625 0.25 -0.2875
0.5625 0.25 -0.225
0.625 0.1875 -0.2875
0.5625 0.1875 -0.225
0.5625 0.25 -0.2875
0.5625 0.1875 -0.2875
0.75 0.1875 -0.225
0.75 0.25 -0.2875
0.6875 0.25 -0.225
0.75 0.1875 -0.2875
0.6875 0.1875 -0.225
0.6875 0.25 -0.2875
0.6875 0.1875 -0.2875
0.875 0.1875 -0.225
0.875 0.25 -0.2875
0.8125 0.25 -0.225
0.875 0.1875 -0.2875
0.8125 0.1875 -0.225
0.8125 0.25 -0.2875
0.8125 0.1875 -0.2875
1 0.1875 -0.225
1 0.25 -0.2875
0.9375 0.25 -0.225
1 0.1875 -0.2875
0.9375 0.1875 -0.225
0.9375 0.25 -0.2875
0.9375 0.1875 -0.2875
1.125 0.1875 -0.225
1.125 0.25 -0.2875
1.0625 0.25 -0.225
1.125 0.1875 -0.2875
1.0625 0.1875 -0.225
1.0625 0.25 -0.2875
1.0625 0.1875 -0.2875
1.25 0.1875 -0.225
1.25 0.25 -0.2875
1.1875 0.25 -0.225
1.25 0.1875 -0.2875
1.1875 0.1875 -0.225
1.1875 0.25 -0.2875
1.1875 0.1875 -0.2875
1.375 0.1875 -0.225
1.375 0.25 -0.2875
1.3125 0.25 -0.225
1.375 0.1875 -0.2875
1.3125 0.1875 -0.225
1.3125 0.25 -0.2875
1.3125 0.1875 -0.2875
1.5 0.1875 -0.225
1.5 0.25 -0.2875
1.4375 0.25 -0.225
1.5 0.1875 -0.2875
1.4375 0.1875 -0.225
1.4375 0.25 -0.2875
1.4375 0.1875 -0.2875
1.625 0.1875 -0.225
1.625 0.25 -0.2875
1.5625 0.25 -0.225
1.625 0.1875 -0.2875
1.5625 0.1875 -0.225
1.5625 0.25 -0.2875
1.5625 0.1875 -0.2875
1.75 0.1875 -0.225
1.75 0.25 -0.2875
1.6875 0.25 -0.225
1.75 0.1875 -0.2875
1.6875 0.1875 -0.225
1.6875 0.25 -0.2875
1.6875 0.1875 -0.2875
1.875 0.1875 -0.225
1.875 0.25 -0.2875
1.8125 0.25 -0.225
1.875 0.1875 -0.2875
1.8125 0.1875 -0.225
1.8125 0.25 -0.2875
1.8125 0.1875 -0.2875
2 0.1875 -0.225
2 0.25 -0.2875
1.9375 0.25 -0.225
2 0.1875 -0.2875
1.9375 0.1875 -0.225
1.9375 0.25 -0.2875
1.9375 0.1875 -0.2875
2.125 0.1875 -0.225
2.125 0.25 -0.2875
2.0625 0.25 -0.225
2.125 0.1875 -0.2875
2.0625 0.1875 -0.225
2.0625 0.25 -0.2875
2.0625 0.1875 -0.2875
2.25 0.1875 -0.225
2.25 0.25 -0.2875
2.1875 0.25 -0.225
2.25 0.1875 -0.2875
2.1875 0.1875 -0.225
2.1875 0.25 -0.2875
2.1875 0.1875 -0.2875
2.375 0.1875 -0.225
2.375 0.25 -0.2875
2.3125 0.25 -0.225
2.375 0.1875 -0.2875
2.3125 0.1875 -0.225
2.3125 0.25 -0.2875
2.3125 0.1875 -0.2875
2.5 0.1875 -0.225
2.5 0.25 -0.2875
2.4375 0.25 -0.225
2.5 0.1875 -0.2875
2.4375 0.1875 -0.225
2.4375 0.25 -0.2875
2.4375 0.1875 -0.2875
2.625 0.1875 -0.225
2.625 0.25 -0.2875
2.5625 0.25 -0.225
2.625 0.1875 -0.2875
2.5625 0.1875 -0.225
2.5625 0.25 -0.2875
2.5625 0.1875 -0.2875
2.75 0.1875 -0.225
2.75 0.25 -0.2875
2.6875 0.25 -0.225
2.75 0.1875 -0.2875
2.6875 0.1875 -0.225
2.6875 0.25 -0.2875
2.6875 0.1875 -0.2875
2.875 0.1875 -0.225
2.875 0.25 -0.2875
2.8125 0.25 -0.225
2.875 0.1875 -0.2875
2.8125 0.1875 -0.225
2.8125 0.25 -0.2875
2.8125 0.1875 -0.2875
3 0.1875 -0.225
3 0.25 -0.2875
2.9375 0.25 -0.225
3 0.1875 -0.2875
2.9375 0.1875 -0.225
2.9375 0.25 -0.2875
2.9375 0.1875 -0.2875
3.125 0.1875 -0.225
3.125 0.25 -0.2875
3.0625 0.25 -0.225
3.125 0.1875 -0.2875
3.0625 0.1875 -0.225
3.0625 0.25 -0.2875
3.0625 0.1875 -0.2875
3.25 0.1875 -0.225
3.25 0.25 -0.2875
3.1875 0.25 -0.225
3.25 0.1875 -0.2875
3.1875 0.1875 -0.225
3.1875 0.25 -0.2875
3.1875 0.1875 -0.2875
3.375 0.1875 -0.225
3.375 0.25 -0.2875
3.3125 0.25 -0.225
3.375 0.1875 -0.2875
3.3125 0.1875 -0.225
3.3125 0.25 -0.2875
3.3125 0.1875 -0.2875
3.5 0.1875 -0.225
3.5 0.25 -0.2875
3.4375 0.25 -0.225
3.5 0.1875 -0.2875
3.4375 0.1875 -0.225
3.4375 0.25 -0.2875
3.4375 0.1875 -0.2875
3.625 0.1875 -0.225
3.625 0.25 -0.2875
3.5625 0.25 -0.225
3.625 0.1875 -0.2875
3.5625 0.1875 -0.225
3.5625 0.25 -0.2875
3.5625 0.1875 -0.2875
3.75 0.1875 -0.225
3.75 0.25 -0.2875
3.6875 0.25 -0.225
3.75 0.1875 -0.2875
3.6875 0.1875 -0.225
3.6875 0.25 -0.2875
3.6875 0.1875 -0.2875
3.875 0.1875 -0.225
3.875 0.25 -0.2875
3.8125 0.25 -0.225
3.875 0.1875 -0.2875
3.8125 0.1875 -0.225
3.8125 0.25 -0.2875
3.8125 0.1875 -0.2875
4 0.1875 -0.225
4 0.25 -0.2875
3.9375 0.25 -0.225
4 0.1875 -0.2875
3.9375 0.1875 -0.225
3.9375 0.25 -0.2875
3.9375 0.1875 -0.2875
0.125 0.3125 -0.225
0 0.3125 -0.225
0.125 0.375 -0.2875
0.0625 0.375 -0.225
0 0.375 -0.2875
0.125 0.3125 -0.2875
0.0625 0.3125 -0.225
0 0.3125 -0.2875
0.0625 0.375 -0.2875
0.0625 0.3125 -0.2875
0.25 0.3125 -0.225
0.25 0.375 -0.2875
0.1875 0.375 -0.225
0.25 0.3125 -0.2875
0.1875 0.3125 -0.225
0.1875 0.375 -0.2875
0.1875 0.3125 -0.2875
0.375 0.3125 -0.225
0.375 0.375 -0.2875
0.3125 0.375 -0.225
0.375 0.3125 -0.2875
0.3125 0.3125 -0.225
0.3125 0.375 -0.2875
0.3125 0.3125 -0.2875
0.5 0.3125 -0.225
0.5 0.375 -0.2875
0.4375 0.375 -0.225
0.5 0.3125 -0.2875
0.4375 0.3125 -0.225
0.4375 0.375 -0.2875
0.4375 0.3125 -0.2875
0.625 0.3125 -0.225
0.625 0.375 -0.2875
0.5625 0.375 -0.225
0.625 0.3125 -0.2875
0.5625 0.3125 -0.225
0.5625 0.375 -0.2875
0.5625 0.3125 -0.2875
0.75 0.3125 -0.225
0.75 0.375 -0.2875
0.6875 0.375 -0.225
0.75 0.3125 -0.2875
0.6875 0.3125 -0.225
0.6875 0.375 -0.2875
0.6875 0.3125 -0.2875
0.875 0.3125 -0.225
0.875 0.375 -0.2875
0.8125 0.375 -0.225
0.875 0.3125 -0.2875
0.8125 0.3125 -0.225
0.8125 0.375 -0.2875
0.8125 0.3125 -0.2875
1 0.3125 -0.225
1 0.375 -0.2875
0.9375 0.375 -0.225
1 0.3125 -0.2875
0.9375 0.3125 -0.225
0.9375 0.375 -0.2875
0.9375 0.3125 -0.2875
1.125 0.3125 -0.225
1.125 0.375 -0.2875
1.0625 0.375 -0.225
1.125 0.3125 -0.2875
1.0625 0.3125 -0.225
1.0625 0.375 -0.2875
1.0625 0.3125 -0.2875
1.25 0.3125 -0.225
1.25 0.375 -0.2875
1.1875 0.375 -0.225
1.25 0.3125 -0.2875
1.1875 0.3125 -0.225
1.1875 0.375 -0.2875
1.1875 0.3125 -0.2875
1.375 0.3125 -0.225
1.375 0.375 -0.2875
1.3125 0.375 -0.225
1.375 0.3125 -0.2875
1.3125 0.3125 -0.225
1.3125 0.375 -0.2875
1.3125 0.3125 -0.2875
1.5 0.3125 -0.225
1.5 0.375 -0.2875
1.4375 0.375 -0.225
1.5 0.3125 -0.2875
1.4375 0.3125 -0.225
1.4375 0.375 -0.2875
1.4375 0.3125 -0.2875
1.625 0.3125 -0.225
1.625 0.375 -0.2875
1.5625 0.375 -0.225
1.625 0.3125 -0.2875
1.5625 0.3125 -0.225
1.5625 0.375 -0.2875
1.5625 0.3125 -0.2875
1.75 0.3125 -0.225
1.75 0.375 -0.2875
1.6875 0.375 -0.225
1.75 0.3125 -0.2875
1.6875 0.3125 -0.225
1.6875 0.375 -0.2875
1.6875 0.3125 -0.2875
1.875 0.3125 -0.225
1.875 0.375 -0.2875
1.8125 0.375 -0.225
1.875 0.3125 -0.2875
1.8125 0.3125 -0.225
1.8125 0.375 -0.2875
1.8125 0.3125 -0.2875
2 0.3125 -0.225
2 0.375 -0.2875
1.9375 0.375 -0.225
2 0.3125 -0.2875
1.9375 0.3125 -0.225
1.9375 0.375 -0.2875
1.9375 0.3125 -0.2875
2.125 0.3125 -0.225
2.125 0.375 -0.2875
2.0625 0.375 -0.225
2.125 0.3125 -0.2875
2.0625 0.3125 -0.225
2.0625 0.375 -0.2875
2.0625 0.3125 -0.2875
2.25 0.3125 -0.225
2.25 0.375 -0.2875
2.1875 0.375 -0.225
2.25 0.3125 -0.2875
2.1875 0.3125 -0.225
2.1875 0.375 -0.2875
2.1875 0.3125 -0.2875
2.375 0.3125 -0.225
2.375 0.375 -0.2875
2.3125 0.375 -0.225
2.375 0.3125 -0.2875
2.3125 0.3125 -0.225
2.3125 0.375 -0.2875
2.3125 0.3125 -0.2875
2.5 0.3125 -0.225
2.5 0.375 -0.2875
2.4375 0.375 -0.225
2.5 0.3125 -0.2875
2.4375 0.3125 -0.225
2.4375 0.375 -0.2875
2.4375 0.3125 -0.2875
2.625 0.3125 -0.225
2.625 0.375 -0.2875
2.5625 0.375 -0.225
2.625 0.3125 -0.2875
2.5625 0.3125 -0.225
2.5625 0.375 -0.2875
2.5625 0.3125 -0.2875
2.75 0.3125 -0.225
2.75 0.375 -0.2875
2.6875 0.375 -0.225
2.75 0.3125 -0.2875
2.6875 0.3125 -0.225
2.6875 0.375 -0.2875
2.6875 0.3125 -0.2875
2.875 0.3125 -0.225
2.875 0.375 -0.2875
2.8125 0.375 -0.225
2.875 0.3125 -0.2875
2.8125 0.3125 -0.225
2.8125 0.375 -0.2875
2.8125 0.3125 -0.2875
3 0.3125 -0.225
3 0.375 -0.2875
2.9375 0.375 -0.225
3 0.3125 -0.2875
2.9375 0.3125 -0.225
2.9375 0.375 -0.2875
2.9375 0.3125 -0.2875
3.125 0.3125 -0.225
3.125 0.375 -0.2875
3.0625 0.375 -0.225
3.125 0.3125 -0.2875
3.0625 0.3125 -0.225
3.0625 0.375 -0.2875
3.0625 0.3125 -0.2875
3.25 0.3125 -0.225
3.25 0.375 -0.2875
3.1875 0.375 -0.225
3.25 0.3125 -0.2875
3.1875 0.3125 -0.225
3.1875 0.375 -0.2875
3.1875 0.3125 -0.2875
3.375 0.3125 -0.225
3.375 0.375 -0.2875
3.3125 0.375 -0.225
3.375 0.3125 -0.2875
3.3125 0.3125 -0.225
3.3125 0.375 -0.2875
3.3125 0.3125 -0.2875
3.5 0.3125 -0.225
3.5 0.375 -0.2875
3.4375 0.375 -0.225
3.5 0.3125 -0.2875
3.4375 0.3125 -0.225
3.4375 0.375 -0.2875
3.4375 0.3125 -0.2875
3.625 0.3125 -0.225
3.625 0.375 -0.2875
3.5625 0.375 -0.225
3.625 0.3125 -0.2875
3.5625 0.3125 -0.225
3.5625 0.375 -0.2875
3.5625 0.3125 -0.2875
3.75 0.3125 -0.225
3.75 0.375 -0.2875
3.6875 0.375 -0.225
3.75 0.3125 -0.2875
3.6875 0.3125 -0.225
3.6875 0.375 -0.2875
3.6875 0.3125 -0.2875
3.875 0.3125 -0.225
3.875 0.375 -0.2875
3.8125 0.375 -0.225
3.875 0.3125 -0.2875
3.8125 0.3125 -0.225
3.8125 0.375 -0.2875
3.8125 0.3125 -0.2875
4 0.3125 -0.225
4 0.375 -0.2875
3.9375 0.375 -0.225
4 0.3125 -0.2875
3.9375 0.3125 -0.225
3.9375 0.375 -0.2875
3.9375 0.3125 -0.2875
0.125 0.4375 -0.225
0 0.4375 -0.225
0.125 0.5 -0.2875
0.0625 0.5 -0.225
0 0.5 -0.2875
0.125 0.4375 -0.2875
0.0625 0.4375 -0.225
0 0.4375 -0.2875
0.0625 0.5 -0.2875
0.0625 0.4375 -0.2875
0.25 0.4375 -0.225
0.25 0.5 -0.2875
0.1875 0.5 -0.225
0.25 0.4375 -0.2875
0.1875 0.4375 -0.225
0.1875 0.5 -0.2875
0.1875 0.4375 -0.2875
0.375 0.4375 -0.225
0.375 0.5 -0.2875
0.3125 0.5 -0.225
0.375 0.4375 -0.2875
0.3125 0.4375 -0.225
0.3125 0.5 -0.2875
0.3125 0.4375 -0.2875
0.5 0.4375 -0.225
0.5 0.5 -0.2875
0.4375 0.5 -0.225
0.5 0.4375 -0.2875
0.4375 0.4375 -0.225
0.4375 0.5 -0.2875
0.4375 0.4375 -0.2875
0.625 0.4375 -0.225
0.625 0.5 -0.2875
0.5625 0.5 -0.225
0.625 0.4375 -0.2875
0.5625 0.4375 -0.225
0.5625 0.5 -0.2875
0.5625 0.4375 -0.2875
0.75 0.4375 -0.225
0.75 0.5 -0.2875
0.6875 0.5 -0.225
0.75 0.4375 -0.2875
0.6875 0.4375 -0.225
0.6875 0.5 -0.2875
0.6875 0.4375 -0.2875
0.875 0.4375 -0.225
0.875 0.5 -0.2875
0.8125 0.5 -0.225
0.875 0.4375 -0.2875
0.8125 0.4375 -0.225
0.8125 0.5 -0.2875
0.8125 0.4375 -0.2875
1 0.4375 -0.225
1 0.5 -0.2875
0.9375 0.5 -0.225
1 0.4375 -0.2875
0.9375 0.4375 -0.225
0.9375 0.5 -0.2875
0.9375 0.4375 -0.2875
1.125 0.4375 -0.225
1.125 0.5 -0.2875
1.0625 0.5 -0.225
1.125 0.4375 -0.2875
1.0625 0.4375 -0.225
1.0625 0.5 -0.2875
1.0625 0.4375 -0.2875
1.25 0.4375 -0.225
1.25 0.5 -0.2875
1.1875 0.5 -0.225
1.25 0.4375 -0.2875
1.1875 0.4375 -0.225
1.1875 0.5 -0.2875
1.1875 0.4375 -0.2875
1.375 0.4375 -0.225
1.375 0.5 -0.2875
1.3125 0.5 -0.225
1.375 0.4375 -0.2875
1.3125 0.4375 -0.225
1.3125 0.5 -0.2875
1.3125 0.4375 -0.2875
1.5 0.4375 -0.225
1.5 0.5 -0.2875
1.4375 0.5 -0.225
1.5 0.4375 -0.2875
1.4375 0.4375 -0.225
1.4375 0.5 -0.2875
1.4375 0.4375 -0.2875
1.625 0.4375 -0.225
1.625 0.5 -0.2875
1.5625 0.5 -0.225
1.625 0.4375 -0.2875
1.5625 0.4375 -0.225
1.5625 0.5 -0.2875
1.5625 0.4375 -0.2875
1.75 0.4375 -0.225
1.75 0.5 -0.2875
1.6875 0.5 -0.225
1.75 0.4375 -0.2875
1.6875 0.4375 -0.225
1.6875 0.5 -0.2875
1.6875 0.4375 -0.2875
1.875 0.4375 -0.225
1.875 0.5 -0.2875
1.8125 0.5 -0.225
1.875 0.4375 -0.2875
1.8125 0.4375 -0.225
1.8125 0.5 -0.2875
1.8125 0.4375 -0.2875
2 0.4375 -0.225
2 0.5 -0.2875
1.9375 0.5 -0.225
2 0.4375 -0.2875
1.9375 0.4375 -0.225
1.9375 0.5 -0.2875
1.9375 0.4375 -0.2875
2.125 0.4375 -0.225
2.125 0.5 -0.2875
2.0625 0.5 -0.225
2.125 0.4375 -0.2875
2.0625 0.4375 -0.225
2.0625 0.5 -0.2875
2.0625 0.4375 -0.2875
2.25 0.4375 -0.225
2.25 0.5 -0.2875
2.1875 0.5 -0.225
2.25 0.4375 -0.2875
2.1875 0.4375 -0.225
2.1875 0.5 -0.2875
2.1875 0.4375 -0.2875
2.375 0.4375 -0.225
2.375 0.5 -0.2875
2.3125 0.5 -0.225
2.375 0.4375 -0.2875
2.3125 0.4375 -0.225
2.3125 0.5 -0.2875
2.3125 0.4375 -0.2875
2.5 0.4375 -0.225
2.5 0.5 -0.2875
2.4375 0.5 -0.225
2.5 0.4375 -0.2875
2.4375 0.4375 -0.225
2.4375 0.5 -0.2875
2.4375 0.4375 -0.2875
2.625 0.4375 -0.225
2.625 0.5 -0.2875
2.5625 0.5 -0.225
2.625 0.4375 -0.2875
2.5625 0.4375 -0.225
2.5625 0.5 -0.2875
2.5625 0.4375 -0.2875
2.75 0.4375 -0.225
2.75 0.5 -0.2875
2.6875 0.5 -0.225
2.75 0.4375 -0.2875
2.6875 0.4375 -0.225
2.6875 0.5 -0.2875
2.6875 0.4375 -0.2875
2.875 0.4375 -0.225
2.875 0.5 -0.2875
2.8125 0.5 -0.225
2.875 0.4375 -0.2875
2.8125 0.4375 -0.225
2.8125 0.5 -0.2875
2.8125 0.4375 -0.2875
3 0.4375 -0.225
3 0.5 -0.2875
2.9375 0.5 -0.225
3 0.4375 -0.2875
2.9375 0.4375 -0.225
2.9375 0.5 -0.2875
2.9375 0.4375 -0.2875
3.125 0.4375 -0.225
3.125 0.5 -0.2875
3.0625 0.5 -0.225
3.125 0.4375 -0.2875
3.0625 0.4375 -0.225
3.0625 0.5 -0.2875
3.0625 0.4375 -0.2875
3.25 0.4375 -0.225
3.25 0.5 -0.2875
3.1875 0.5 -0.225
3.25 0.4375 -0.2875
3.1875 0.4375 -0.225
3.1875 0.5 -0.2875
3.1875 0.4375 -0.2875
3.375 0.4375 -0.225
3.375 0.5 -0.2875
3.3125 0.5 -0.225
3.375 0.4375 -0.2875
3.3125 0.4375 -0.225
3.3125 0.5 -0.2875
3.3125 0.4375 -0.2875
3.5 0.4375 -0.225
3.5 0.5 -0.2875
3.4375 0.5 -0.225
3.5 0.4375 -0.2875
3.4375 0.4375 -0.225
3.4375 0.5 -0.2875
3.4375 0.4375 -0.2875
3.625 0.4375 -0.225
3.625 0.5 -0.2875
3.5625 0.5 -0.225
3.625 0.4375 -0.2875
3.5625 0.4375 -0.225
3.5625 0.5 -0.2875
3.5625 0.4375 -0.2875
3.75 0.4375 -0.225
3.75 0.5 -0.2875
3.6875 0.5 -0.225
3.75 0.4375 -0.2875
3.6875 0.4375 -0.225
3.6875 0.5 -0.2875
3.6875 0.4375 -0.2875
3.875 0.4375 -0.225
3.875 0.5 -0.2875
3.8125 0.5 -0.225
3.875 0.4375 -0.2875
3.8125 0.4375 -0.225
3.8125 0.5 -0.2875
3.8125 0.4375 -0.2875
4 0.4375 -0.225
4 0.5 -0.2875
3.9375 0.5 -0.225
4 0.4375 -0.2875
3.9375 0.4375 -0.225
3.9375 0.5 -0.2875
3.9375 0.4375 -0.2875
0.125 0.5625 -0.225
0 0.5625 -0.225
0.125 0.625 -0.2875
0.0625 0.625 -0.225
0 0.625 -0.2875
0.125 0.5625 -0.2875
0.0625 0.5625 -0.225
0 0.5625 -0.2875
0.0625 0.625 -0.2875
0.0625 0.5625 -0.2875
0.25 0.5625 -0.225
0.25 0.625 -0.2875
0.1875 0.625 -0.225
0.25 0.5625 -0.2875
0.1875 0.5625 -0.225
0.1875 0.625 -0.2875
0.1875 0.5625 -0.2875
0.375 0.5625 -0.225
0.375 0.625 -0.2875
0.3125 0.625 -0.225
0.375 0.5625 -0.2875
0.3125 0.5625 -0.225
0.3125 0.625 -0.2875
0.3125 0.5625 -0.2875
0.5 0.5625 -0.225
0.5 0.625 -0.2875
0.4375 0.625 -0.225
0.5 0.5625 -0.2875
0.4375 0.5625 -0.225
0.4375 0.625 -0.2875
0.4375 0.5625 -0.2875
0.625 0.5625 -0.225
0.625 0.625 -0.2875
0.5625 0.625 -0.225
0.625 0.5625 -0.2875
0.5625 0.5625 -0.225
0.5625 0.625 -0.2875
0.5625 0.5625 -0.2875
0.75 0.5625 -0.225
0.75 0.625 -0.2875
0.6875 0.625 -0.225
0.75 0.5625 -0.2875
0.6875 0.5625 -0.225
0.6875 0.625 -0.2875
0.6875 0.5625 -0.2875
0.875 0.5625 -0.225
0.875 0.625 -0.2875
0.8125 0.625 -0.225
0.875 0.5625 -0.2875
0.8125 0.5625 -0.225
0.8125 0.625 -0.2875
0.8125 0.5625 -0.2875
1 0.5625 -0.225
1 0.625 -0.2875
0.9375 0.625 -0.225
1 0.5625 -0.2875
0.9375 0.5625 -0.225
0.9375 0.625 -0.2875
0.9375 0.5625 -0.2875
1.125 0.5625 -0.225
1.125 0.625 -0.2875
1.0625 0.625 -0.225
1.125 0.5625 -0.2875
1.0625 0.5625 -0.225
1.0625 0.625 -0.2875
1.0625 0.5625 -0.2875
1.25 0.5625 -0.225
1.25 0.625 -0.2875
1.1875 0.625 -0.225
1.25 0.5625 -0.2875
1.1875 0.5625 -0.225
1.1875 0.625 -0.2875
1.1875 0.5625 -0.2875
1.375 0.5625 -0.225
1.375 0.625 -0.2875
1.3125 0.625 -0.225
1.375 0.5625 -0.2875
1.3125 0.5625 -0.225
1.3125 0.625 -0.2875
1.3125 0.5625 -0.2875
1.5 0.5625 -0.225
1.5 0.625 -0.2875
1.4375 0.625 -0.225
1.5 0.5625 -0.2875
1.4375 0.5625 -0.225
1.4375 0.625 -0.2875
1.4375 0.5625 -0.2875
1.625 0.5625 -0.225
1.625 0.625 -0.2875
1.5625 0.625 -0.225
1.625 0.5625 -0.2875
1.5625 0.5625 -0.225
1.5625 0.625 -0.2875
1.5625 0.5625 -0.2875
1.75 0.5625 -0.225
1.75 0.625 -0.2875
1.6875 0.625 -0.225
1.75 0.5625 -0.2875
1.6875 0.5625 -0.225
1.6875 0.625 -0.2875
1.6875 0.5625 -0.2875
1.875 0.5625 -0.225
1.875 0.625 -0.2875
1.8125 0.625 -0.225
1.875 0.5625 -0.2875
1.8125 0.5625 -0.225
1.8125 0.625 -0.2875
1.8125 0.5625 -0.2875
2 0.5625 -0.225
2 0.625 -0.2875
1.9375 0.625 -0.225
2 0.5625 -0.2875
1.9375 0.5625 -0.225
1.9375 0.625 -0.2875
1.9375 0.5625 -0.2875
2.125 0.5625 -0.225
2.125 0.625 -0.2875
2.0625 0.625 -0.225
2.125 0.5625 -0.2875
2.0625 0.5625 -0.225
2.0625 0.625 -0.2875
2.0625 0.5625 -0.2875
2.25 0.5625 -0.225
2.25 0.625 -0.2875
2.1875 0.625 -0.225
2.25 0.5625 -0.2875
2.1875 0.5625 -0.225
2.1875 0.625 -0.2875
2.1875 0.5625 -0.2875
2.375 0.5625 -0.225
2.375 0.625 -0.2875
2.3125 0.625 -0.225
2.375 0.5625 -0.2875
2.3125 0.5625 -0.225
2.3125 0.625 -0.2875
2.3125 0.5625 -0.2875
2.5 0.5625 -0.225
2.5 0.625 -0.2875
2.4375 0.625 -0.225
2.5 0.5625 -0.2875
2.4375 0.5625 -0.225
2.4375 0.625 -0.2875
2.4375 0.5625 -0.2875
2.625 0.5625 -0.225
2.625 0.625 -0.2875
2.5625 0.625 -0.225
2.625 0.5625 -0.2875
2.5625 0.5625 -0.225
2.5625 0.625 -0.2875
2.5625 0.5625 -0.2875
2.75 0.5625 -0.225
2.75 0.625 -0.2875
2.6875 0.625 -0.225
2.75 0.5625 -0.2875
2.6875 0.5625 -0.225
2.6875 0.625 -0.2875
2.6875 0.5625 -0.2875
2.875 0.5625 -0.225
2.875 0.625 -0.2875
2.8125 0.625 -0.225
2.875 0.5625 -0.2875
2.8125 0.5625 -0.225
2.8125 0.625 -0.2875
2.8125 0.5625 -0.2875
3 0.5625 -0.225
3 0.625 -0.2875
2.9375 0.625 -0.225
3 0.5625 -0.2875
2.9375 0.5625 -0.225
2.9375 0.625 -0.2875
2.9375 0.5625 -0.2875
3.125 0.5625 -0.225
3.125 0.625 -0.2875
3.0625 0.625 -0.225
3.125 0.5625 -0.2875
3.0625 0.5625 -0.225
3.0625 0.625 -0.2875
3.0625 0.5625 -0.2875
3.25 0.5625 -0.225
3.25 0.625 -0.2875
3.1875 0.625 -0.225
3.25 0.5625 -0.2875
3.1875 0.5625 -0.225
3.1875 0.625 -0.2875
3.1875 0.5625 -0.2875
3.375 0.5625 -0.225
3.375 0.625 -0.2875
3.3125 0.625 -0.225
3.375 0.5625 -0.2875
3.3125 0.5625 -0.225
3.3125 0.625 -0.2875
3.3125 0.5625 -0.2875
3.5 0.5625 -0.225
3.5 0.625 -0.2875
3.4375 0.625 -0.225
3.5 0.5625 -0.2875
3.4375 0.5625 -0.225
3.4375 0.625 -0.2875
3.4375 0.5625 -0.2875
3.625 0.5625 -0.225
3.625 0.625 -0.2875
3.5625 0.625 -0.225
3.625 0.5625 -0.2875
3.5625 0.5625 -0.225
3.5625 0.625 -0.2875
3.5625 0.5625 -0.2875
3.75 0.5625 -0.225
3.75 0.625 -0.2875
3.6875 0.625 -0.225
3.75 0.5625 -0.2875
3.6875 0.5625 -0.225
3.6875 0.625 -0.2875
3.6875 0.5625 -0.2875
3.875 0.5625 -0.225
3.875 0.625 -0.2875
3.8125 0.625 -0.225
3.875 0.5625 -0.2875
3.8125 0.5625 -0.225
3.8125 0.625 -0.2875
3.8125 0.5625 -0.2875
4 0.5625 -0.225
4 0.625 -0.2875
3.9375 0.625 -0.225
4 0.5625 -0.2875
3.9375 0.5625 -0.225
3.9375 0.625 -0.2875
3.9375 0.5625 -0.2875
0.125 0.6875 -0.225
0 0.6875 -0.225
0.125 0.75 -0.2875
0.0625 0.75 -0.225
0 0.75 -0.2875
0.125 0.6875 -0.2875
0.0625 0.6875 -0.225
0 0.6875 -0.2875
0.0625 0.75 -0.2875
0.0625 0.6875 -0.2875
0.25 0.6875 -0.225
0.25 0.75 -0.2875
0.1875 0.75 -0.225
0.25 0.6875 -0.2875
0.1875 0.6875 -0.225
0.1875 0.75 -0.2875
0.1875 0.6875 -0.2875
0.375 0.6875 -0.225
0.375 0.75 -0.2875
0.3125 0.75 -0.225
0.375 0.6875 -0.2875
0.3125 0.6875 -0.225
0.3125 0.75 -0.2875
0.3125 0.6875 -0.2875
0.5 0.6875 -0.225
0.5 0.75 -0.2875
0.4375 0.75 -0.225
0.5 0.6875 -0.2875
0.4375 0.6875 -0.225
0.4375 0.75 -0.2875
0.4375 0.6875 -0.2875
0.625 0.6875 -0.225
0.625 0.75 -0.2875
0.5625 0.75 -0.225
0.625 0.6875 -0.2875
0.5625 0.6875 -0.225
0.5625 0.75 -0.2875
0.5625 0.6875 -0.2875
0.75 0.6875 -0.225
0.75 0.75 -0.2875
0.6875 0.75 -0.225
0.75 0.6875 -0.2875
0.6875 0.6875 -0.225
0.6875 0.75 -0.2875
0.6875 0.6875 -0.2875
0.875 0.6875 -0.225
0.875 0.75 -0.2875
0.8125 0.75 -0.225
0.875 0.6875 -0.2875
0.8125 0.6875 -0.225
0.8125 0.75 -0.2875
0.8125 0.6875 -0.2875
1 0.6875 -0.225
1 0.75 -0.2875
0.9375 0.75 -0.225
1 0.6875 -0.2875
0.9375 0.6875 -0.225
0.9375 0.75 -0.2875
0.9375 0.6875 -0.2875
1.125 0.6875 -0.225
1.125 0.75 -0.2875
1.0625 0.75 -0.225
1.125 0.6875 -0.2875
1.0625 0.6875 -0.225
1.0625 0.75 -0.2875
1.0625 0.6875 -0.2875
1.25 0.6875 -0.225
1.25 0.75 -0.2875
1.1875 0.75 -0.225
1.25 0.6875 -0.2875
1.1875 0.6875 -0.225
1.1875 0.75 -0.2875
1.1875 0.6875 -0.2875
1.375 0.6875 -0.225
1.375 0.75 -0.2875
1.3125 0.75 -0.225
1.375 0.6875 -0.2875
1.3125 0.6875 -0.225
1.3125 0.75 -0.2875
1.3125 0.6875 -0.2875
1.5 0.6875 -0.225
1.5 0.75 -0.2875
1.4375 0.75 -0.225
1.5 0.6875 -0.2875
1.4375 0.6875 -0.225
1.4375 0.75 -0.2875
1.4375 0.6875 -0.2875
1.625 0.6875 -0.225
1.625 0.75 -0.2875
1.5625 0.75 -0.225
1.625 0.6875 -0.2875
1.5625 0.6875 -0.225
1.5625 0.75 -0.2875
1.5625 0.6875 -0.2875
1.75 0.6875 -0.225
1.75 0.75 -0.2875
1.6875 0.75 -0.225
1.75 0.6875 -0.2875
1.6875 0.6875 -0.225
1.6875 0.75 -0.2875
1.6875 0.6875 -0.2875
1.875 0.6875 -0.225
1.875 0.75 -0.2875
1.8125 0.75 -0.225
1.875 0.6875 -0.2875
1.8125 0.6875 -0.225
1.8125 0.75 -0.2875
1.8125 0.6875 -0.2875
2 0.6875 -0.225
2 0.75 -0.2875
1.9375 0.75 -0.225
2 0.6875 -0.2875
1.9375 0.6875 -0.225
1.9375 0.75 -0.2875
1.9375 0.6875 -0.2875
2.125 0.6875 -0.225
2.125 0.75 -0.2875
2.0625 0.75 -0.225
2.125 0.6875 -0.2875
2.0625 0.6875 -0.225
2.0625 0.75 -0.2875
2.0625 0.6875 -0.2875
2.25 0.6875 -0.225
2.25 0.75 -0.2875
2.1875 0.75 -0.225
2.25 0.6875 -0.2875
2.1875 0.6875 -0.225
2.1875 0.75 -0.2875
2.1875 0.6875 -0.2875
2.375 0.6875 -0.225
2.375 0.75 -0.2875
2.3125 0.75 -0.225
2.375 0.6875 -0.2875
2.3125 0.6875 -0.225
2.3125 0.75 -0.2875
2.3125 0.6875 -0.2875
2.5 0.6875 -0.225
2.5 0.75 -0.2875
2.4375 0.75 -0.225
2.5 0.6875 -0.2875
2.4375 0.6875 -0.225
2.4375 0.75 -0.2875
2.4375 0.6875 -0.2875
2.625 0.6875 -0.225
2.625 0.75 -0.2875
2.5625 0.75 -0.225
2.625 0.6875 -0.2875
2.5625 0.6875 -0.225
2.5625 0.75 -0.2875
2.5625 0.6875 -0.2875
2.75 0.6875 -0.225
2.75 0.75 -0.2875
2.6875 0.75 -0.225
2.75 0.6875 -0.2875
2.6875 0.6875 -0.225
2.6875 0.75 -0.2875
2.6875 0.6875 -0.2875
2.875 0.6875 -0.225
2.875 0.75 -0.2875
2.8125 0.75 -0.225
2.875 0.6875 -0.2875
2.8125 0.6875 -0.225
2.8125 0.75 -0.2875
2.8125 0.6875 -0.2875
3 0.6875 -0.225
3 0.75 -0.2875
2.9375 0.75 -0.225
3 0.6875 -0.2875
2.9375 0.6875 -0.225
2.9375 0.75 -0.2875
2.9375 0.6875 -0.2875
3.125 0.6875 -0.225
3.125 0.75 -0.2875
3.0625 0.75 -0.225
3.125 0.6875 -0.2875
3.0625 0.6875 -0.225
3.0625 0.75 -0.2875
3.0625 0.6875 -0.2875
3.25 0.6875 -0.225
3.25 0.75 -0.2875
3.1875 0.75 -0.225
3.25 0.6875 -0.2875
3.1875 0.6875 -0.225
3.1875 0.75 -0.2875
3.1875 0.6875 -0.2875
3.375 0.6875 -0.225
3.375 0.75 -0.2875
3.3125 0.75 -0.225
3.375 0.6875 -0.2875
3.3125 0.6875 -0.225
3.3125 0.75 -0.2875
3.3125 0.6875 -0.2875
3.5 0.6875 -0.225
3.5 0.75 -0.2875
3.4375 0.75 -0.225
3.5 0.6875 -0.2875
3.4375 0.6875 -0.225
3.4375 0.75 -0.2875
3.4375 0.6875 -0.2875
3.625 0.6875 -0.225
3.625 0.75 -0.2875
3.5625 0.75 -0.225
3.625 0.6875 -0.2875
3.5625 0.6875 -0.225
3.5625 0.75 -0.2875
3.5625 0.6875 -0.2875
3.75 0.6875 -0.225
3.75 0.75 -0.2875
3.6875 0.75 -0.225
3.75 0.6875 -0.2875
3.6875 0.6875 -0.225
3.6875 0.75 -0.2875
3.6875 0.6875 -0.2875
3.875 0.6875 -0.225
3.875 0.75 -0.2875
3.8125 0.75 -0.225
3.875 0.6875 -0.2875
3.8125 0.6875 -0.225
3.8125 0.75 -0.2875
3.8125 0.6875 -0.2875
4 0.6875 -0.225
4 0.75 -0.2875
3.9375 0.75 -0.225
4 0.6875 -0.2875
3.9375 0.6875 -0.225
3.9375 0.75 -0.2875
3.9375 0.6875 -0.2875
0.125 0.8125 -0.225
0 0.8125 -0.225
0.125 0.875 -0.2875
0.0625 0.875 -0.225
0 0.875 -0.2875
0.125 0.8125 -0.2875
0.0625 0.8125 -0.225
0 0.8125 -0.2875
0.0625 0.875 -0.2875
0.0625 0.8125 -0.2875
0.25 0.8125 -0.225
0.25 0.875 -0.2875
0.1875 0.875 -0.225
0.25 0.8125 -0.2875
0.1875 0.8125 -0.225
0.1875 0.875 -0.2875
0.1875 0.8125 -0.2875
0.375 0.8125 -0.225
0.375 0.875 -0.2875
0.3125 0.875 -0.225
0.375 0.8125 -0.2875
0.3125 0.8125 -0.225
0.3125 0.875 -0.2875
0.3125 0.8125 -0.2875
0.5 0.8125 -0.225
0.5 0.875 -0.2875
0.4375 0.875 -0.225
0.5 0.8125 -0.2875
0.4375 0.8125 -0.225
0.4375 0.875 -0.2875
0.4375 0.8125 -0.2875
0.625 0.8125 -0.225
0.625 0.875 -0.2875
0.5625 0.875 -0.225
0.625 0.8125 -0.2875
0.5625 0.8125 -0.225
0.5625 0.875 -0.2875
0.5625 0.8125 -0.2875
0.75 0.8125 -0.225
0.75 0.875 -0.2875
0.6875 0.875 -0.225
0.75 0.8125 -0.2875
0.6875 0.8125 -0.225
0.6875 0.875 -0.2875
0.6875 0.8125 -0.2875
0.875 0.8125 -0.225
0.875 0.875 -0.2875
0.8125 0.875 -0.225
0.875 0.8125 -0.2875
0.8125 0.8125 -0.225
0.8125 0.875 -0.2875
0.8125 0.8125 -0.2875
1 0.8125 -0.225
1 0.875 -0.2875
0.9375 0.875 -0.225
1 0.8125 -0.2875
0.9375 0.8125 -0.225
0.9375 0.875 -0.2875
0.9375 0.8125 -0.2875
1.125 0.8125 -0.225
1.125 0.875 -0.2875
1.0625 0.875 -0.225
1.125 0.8125 -0.2875
1.0625 0.8125 -0.225
1.0625 0.875 -0.2875
1.0625 0.8125 -0.2875
1.25 0.8125 -0.225
1.25 0.875 -0.2875
1.1875 0.875 -0.225
1.25 0.8125 -0.2875
1.1875 0.8125 -0.225
1.1875 0.875 -0.2875
1.1875 0.8125 -0.2875
1.375 0.8125 -0.225
1.375 0.875 -0.2875
1.3125 0.875 -0.225
1.375 0.8125 -0.2875
1.3125 0.8125 -0.225
1.3125 0.875 -0.2875
1.3125 0.8125 -0.2875
1.5 0.8125 -0.225
1.5 0.875 -0.2875
1.4375 0.875 -0.225
1.5 0.8125 -0.2875
1.4375 0.8125 -0.225
1.4375 0.875 -0.2875
1.4375 0.8125 -0.2875
1.625 0.8125 -0.225
1.625 0.875 -0.2875
1.5625 0.875 -0.225
1.625 0.8125 -0.2875
1.5625 0.8125 -0.225
1.5625 0.875 -0.2875
1.5625 0.8125 -0.2875
1.75 0.8125 -0.225
1.75 0.875 -0.2875
1.6875 0.875 -0.225
1.75 0.8125 -0.2875
1.6875 0.8125 -0.225
1.6875 0.875 -0.2875
1.6875 0.8125 -0.2875
1.875 0.8125 -0.225
1.875 0.875 -0.2875
1.8125 0.875 -0.225
1.875 0.8125 -0.2875
1.8125 0.8125 -0.225
1.8125 0.875 -0.2875
1.8125 0.8125 -0.2875
2 0.8125 -0.225
2 0.875 -0.2875
1.9375 0.875 -0.225
2 0.8125 -0.2875
1.9375 0.8125 -0.225
1.9375 0.875 -0.2875
1.9375 0.8125 -0.2875
2.125 0.8125 -0.225
2.125 0.875 -0.2875
2.0625 0.875 -0.225
2.125 0.8125 -0.2875
2.0625 0.8125 -0.225
2.0625 0.875 -0.2875
2.0625 0.8125 -0.2875
2.25 0.8125 -0.225
2.25 0.875 -0.2875
2.1875 0.875 -0.225
2.25 0.8125 -0.2875
2.1875 0.8125 -0.225
2.1875 0.875 -0.2875
2.1875 0.8125 -0.2875
2.375 0.8125 -0.225
2.375 0.875 -0.2875
2.3125 0.875 -0.225
2.375 0.8125 -0.2875
2.3125 0.8125 -0.225
2.3125 0.875 -0.2875
2.3125 0.8125 -0.2875
2.5 0.8125 -0.225
2.5 0.875 -0.2875
2.4375 0.875 -0.225
2.5 0.8125 -0.2875
2.4375 0.8125 -0.225
2.4375 0.875 -0.2875
2.4375 0.8125 -0.2875
2.625 0.8125 -0.225
2.625 0.875 -0.2875
2.5625 0.875 -0.225
2.625 0.8125 -0.2875
2.5625 0.8125 -0.225
2.5625 0.875 -0.2875
2.5625 0.8125 -0.2875
2.75 0.8125 -0.225
2.75 0.875 -0.2875
2.6875 0.875 -0.225
2.75 0.8125 -0.2875
2.6875 0.8125 -0.225
2.6875 0.875 -0.2875
2.6875 0.8125 -0.2875
2.875 0.8125 -0.225
2.875 0.875 -0.2875
2.8125 0.875 -0.225
2.875 0.8125 -0.2875
2.8125 0.8125 -0.225
2.8125 0.875 -0.2875
2.8125 0.8125 -0.2875
3 0.8125 -0.225
3 0.875 -0.2875
2.9375 0.875 -0.225
3 0.8125 -0.2875
2.9375 0.8125 -0.225
2.9375 0.875 -0.2875
2.9375 0.8125 -0.2875
3.125 0.8125 -0.225
3.125 0.875 -0.2875
3.0625 0.875 -0.225
3.125 0.8125 -0.2875
3.0625 0.8125 -0.225
3.0625 0.875 -0.2875
3.0625 0.8125 -0.2875
3.25 0.8125 -0.225
3.25 0.875 -0.2875
3.1875 0.875 -0.225
3.25 0.8125 -0.2875
3.1875 0.8125 -0.225
3.1875 0.875 -0.2875
3.1875 0.8125 -0.2875
3.375 0.8125 -0.225
3.375 0.875 -0.2875
3.3125 0.875 -0.225
3.375 0.8125 -0.2875
3.3125 0.8125 -0.225
3.3125 0.875 -0.2875
3.3125 0.8125 -0.2875
3.5 0.8125 -0.225
3.5 0.875 -0.2875
3.4375 0.875 -0.225
3.5 0.8125 -0.2875
3.4375 0.8125 -0.225
3.4375 0.875 -0.2875
3.4375 0.8125 -0.2875
3.625 0.8125 -0.225
3.625 0.875 -0.2875
3.5625 0.875 -0.225
3.625 0.8125 -0.2875
3.5625 0.8125 -0.225
3.5625 0.875 -0.2875
3.5625 0.8125 -0.2875
3.75 0.8125 -0.225
3.75 0.875 -0.2875
3.6875 0.875 -0.225
3.75 0.8125 -0.2875
3.6875 0.8125 -0.225
3.6875 0.875 -0.2875
3.6875 0.8125 -0.2875
3.875 0.8125 -0.225
3.875 0.875 -0.2875
3.8125 0.875 -0.225
3.875 0.8125 -0.2875
3.8125 0.8125 -0.225
3.8125 0.875 -0.2875
3.8125 0.8125 -0.2875
4 0.8125 -0.225
4 0.875 -0.2875
3.9375 0.875 -0.225
4 0.8125 -0.2875
3.9375 0.8125 -0.225
3.9375 0.875 -0.2875
3.9375 0.8125 -0.2875
0.125 0.9375 -0.225
0 0.9375 -0.225
0.125 1 -0.2875
0.0625 1 -0.225
0 1 -0.2875
0.125 0.9375 -0.2875
0.0625 0.9375 -0.225
0 0.9375 -0.2875
0.0625 1 -0.2875
0.0625 0.9375 -0.2875
0.25 0.9375 -0.225
0.25 1 -0.2875
0.1875 1 -0.225
0.25 0.9375 -0.2875
0.1875 0.9375 -0.225
0.1875 1 -0.2875
0.1875 0.9375 -0.2875
0.375 0.9375 -0.225
0.375 1 -0.2875
0.3125 1 -0.225
0.375 0.9375 -0.2875
0.3125 0.9375 -0.225
0.3125 1 -0.2875
0.3125 0.9375 -0.2875
0.5 0.9375 -0.225
0.5 1 -0.2875
0.4375 1 -0.225
0.5 0.9375 -0.2875
0.4375 0.9375 -0.225
0.4375 1 -0.2875
0.4375 0.9375 -0.2875
0.625 0.9375 -0.225
0.625 1 -0.2875
0.5625 1 -0.225
0.625 0.9375 -0.2875
0.5625 0.9375 -0.225
0.5625 1 -0.2875
0.5625 0.9375 -0.2875
0.75 0.9375 -0.225
0.75 1 -0.2875
0.6875 1 -0.225
0.75 0.9375 -0.2875
0.6875 0.9375 -0.225
0.6875 1 -0.2875
0.6875 0.9375 -0.2875
0.875 0.9375 -0.225
0.875 1 -0.2875
0.8125 1 -0.225
0.875 0.9375 -0.2875
0.8125 0.9375 -0.225
0.8125 1 -0.2875
0.8125 0.9375 -0.2875
1 0.9375 -0.225
1 1 -0.2875
0.9375 1 -0.225
1 0.9375 -0.2875
0.9375 0.9375 -0.225
0.9375 1 -0.2875
0.9375 0.9375 -0.2875
1.125 0.9375 -0.225
1.125 1 -0.2875
1.0625 1 -0.225
1.125 0.9375 -0.2875
1.0625 0.9375 -0.225
1.0625 1 -0.2875
1.0625 0.9375 -0.2875
1.25 0.9375 -0.225
1.25 1 -0.2875
1.1875 1 -0.225
1.25 0.9375 -0.2875
1.1875 0.9375 -0.225
1.1875 1 -0.2875
1.1875 0.9375 -0.2875
1.375 0.9375 -0.225
1.375 1 -0.2875
1.3125 1 -0.225
1.375 0.9375 -0.2875
1.3125 0.9375 -0.225
1.3125 1 -0.2875
1.3125 0.9375 -0.2875
1.5 0.9375 -0.225
1.5 1 -0.2875
1.4375 1 -0.225
1.5 0.9375 -0.2875
1.4375 0.9375 -0.225
1.4375 1 -0.2875
1.4375 0.9375 -0.2875
1.625 0.9375 -0.225
1.625 1 -0.2875
1.5625 1 -0.225
1.625 0.9375 -0.2875
1.5625 0.9375 -0.225
1.5625 1 -0.2875
1.5625 0.9375 -0.2875
1.75 0.9375 -0.225
1.75 1 -0.2875
1.6875 1 -0.225
1.75 0.9375 -0.2875
1.6875 0.9375 -0.225
1.6875 1 -0.2875
1.6875 0.9375 -0.2875
1.875 0.9375 -0.225
1.875 1 -0.2875
1.8125 1 -0.225
1.875 0.9375 -0.2875
1.8125 0.9375 -0.225
1.8125 1 -0.2875
1.8125 0.9375 -0.2875
2 0.9375 -0.225
2 1 -0.2875
1.9375 1 -0.225
2 0.9375 -0.2875
1.9375 0.9375 -0.225
1.9375 1 -0.2875
1.9375 0.9375 -0.2875
2.125 0.9375 -0.225
2.125 1 -0.2875
2.0625 1 -0.225
2.125 0.9375 -0.2875
2.0625 0.9375 -0.225
2.0625 1 -0.2875
2.0625 0.9375 -0.2875
2.25 0.9375 -0.225
2.25 1 -0.2875
2.1875 1 -0.225
2.25 0.9375 -0.2875
2.1875 0.9375 -0.225
2.1875 1 -0.2875
2.1875 0.9375 -0.2875
2.375 0.9375 -0.225
2.375 1 -0.2875
2.3125 1 -0.225
2.375 0.9375 -0.2875
2.3125 0.9375 -0.225
2.3125 1 -0.2875
2.3125 0.9375 -0.2875
2.5 0.9375 -0.225
2.5 1 -0.2875
2.4375 1 -0.225
2.5 0.9375 -0.2875
2.4375 0.9375 -0.225
2.4375 1 -0.2875
2.4375 0.9375 -0.2875
2.625 0.9375 -0.225
2.625 1 -0.2875
2.5625 1 -0.225
2.625 0.9375 -0.2875
2.5625 0.9375 -0.225
2.5625 1 -0.2875
2.5625 0.9375 -0.2875
2.75 0.9375 -0.225
2.75 1 -0.2875
2.6875 1 -0.225
2.75 0.9375 -0.2875
2.6875 0.9375 -0.225
2.6875 1 -0.2875
2.6875 0.9375 -0.2875
2.875 0.9375 -0.225
2.875 1 -0.2875
2.8125 1 -0.225
2.875 0.9375 -0.2875
2.8125 0.9375 -0.225
2.8125 1 -0.2875
2.8125 0.9375 -0.2875
3 0.9375 -0.225
3 1 -0.2875
2.9375 1 -0.225
3 0.9375 -0.2875
2.9375 0.9375 -0.225
2.9375 1 -0.2875
2.9375 0.9375 -0.2875
3.125 0.9375 -0.225
3.125 1 -0.2875
3.0625 1 -0.225
3.125 0.9375 -0.2875
3.0625 0.9375 -0.225
3.0625 1 -0.2875
3.0625 0.9375 -0.2875
3.25 0.9375 -0.225
3.25 1 -0.2875
3.1875 1 -0.225
3.25 0.9375 -0.2875
3.1875 0.9375 -0.225
3.1875 1 -0.2875
3.1875 0.9375 -0.2875
3.375 0.9375 -0.225
3.375 1 -0.2875
3.3125 1 -0.225
3.375 0.9375 -0.2875
3.3125 0.9375 -0.225
3.3125 1 -0.2875
3.3125 0.9375 -0.2875
3.5 0.9375 -0.225
3.5 1 -0.2875
3.4375 1 -0.225
3.5 0.9375 -0.2875
3.4375 0.9375 -0.225
3.4375 1 -0.2875
3.4375 0.9375 -0.2875
3.625 0.9375 -0.225
3.625 1 -0.2875
3.5625 1 -0.225
3.625 0.9375 -0.2875
3.5625 0.9375 -0.225
3.5625 1 -0.2875
3.5625 0.9375 -0.2875
3.75 0.9375 -0.225
3.75 1 -0.2875
3.6875 1 -0.225
3.75 0.9375 -0.2875
3.6875 0.9375 -0.225
3.6875 1 -0.2875
3.6875 0.9375 -0.2875
3.875 0.9375 -0.225
3.875 1 -0.2875
3.8125 1 -0.225
3.875 0.9375 -0.2875
3.8125 0.9375 -0.225
3.8125 1 -0.2875
3.8125 0.9375 -0.2875
4 0.9375 -0.225
4 1 -0.2875
3.9375 1 -0.225
4 0.9375 -0.2875
3.9375 0.9375 -0.225
3.9375 1 -0.2875
3.9375 0.9375 -0.2875
0.125 0 -0.1625
0.0625 0 -0.1
0 0 -0.1625
0.125 0.0625 -0.1
0 0.0625 -0.1
0.125 0.125 -0.1625
0.0625 0.125 -0.1
0 0.125 -0.1625
0.0625 0 -0.1625
0.125 0.0625 -0.1625
0.0625 0.0625 -0.1
0 0.0625 -0.1625
0.0625 0.125 -0.1625
0.0625 0.0625 -0.1625
0.25 0 -0.1625
0.1875 0 -0.1
0.25 0.0625 -0.1
0.25 0.125 -0.1625
0.1875 0.125 -0.1
0.1875 0 -0.1625
0.25 0.0625 -0.1625
0.1875 0.0625 -0.1
0.1875 0.125 -0.1625
0.1875 0.0625 -0.1625
0.375 0 -0.1625
0.3125 0 -0.1
0.375 0.0625 -0.1
0.375 0.125 -0.1625
0.3125 0.125 -0.1
0.3125 0 -0.1625
0.375 0.0625 -0.1625
0.3125 0.0625 -0.1
0.3125 0.125 -0.1625
0.3125 0.0625 -0.1625
0.5 0 -0.1625
0.4375 0 -0.1
0.5 0.0625 -0.1
0.5 0.125 -0.1625
0.4375 0.125 -0.1
0.4375 0 -0.1625
0.5 0.0625 -0.1625
0.4375 0.0625 -0.1
0.4375 0.125 -0.1625
0.4375 0.0625 -0.1625
0.625 0 -0.1625
0.5625 0 -0.1
0.625 0.0625 -0.1
0.625 0.125 -0.1625
0.5625 0.125 -0.1
0.5625 0 -0.1625
0.625 0.0625 -0.1625
0.5625 0.0625 -0.1
0.5625 0.125 -0.1625
0.5625 0.0625 -0.1625
0.75 0 -0.1625
0.6875 0 -0.1
0.75 0.0625 -0.1
0.75 0.125 -0.1625
0.6875 0.125 -0.1
0.6875 0 -0.1625
0.75 0.0625 -0.1625
0.6875 0.0625 -0.1
0.6875 0.125 -0.1625
0.6875 0.0625 -0.1625
0.875 0 -0.1625
0.8125 0 -0.1
0.875 0.0625 -0.1
0.875 0.125 -0.1625
0.8125 0.125 -0.1
0.8125 0 -0.1625
0.875 0.0625 -0.1625
0.8125 0.0625 -0.1
0.8125 0.125 -0.1625
0.8125 0.0625 -0.1625
1 0 -0.1625
0.9375 0 -0.1
1 0.0625 -0.1
1 0.125 -0.1625
0.9375 0.125 -0.1
0.9375 0 -0.1625
1 0.0625 -0.1625
0.9375 0.0625 -0.1
0.9375 0.125 -0.1625
0.9375 0.0625 -0.1625
1.125 0 -0.1625
1.0625 0 -0.1
1.125 0.0625 -0.1
1.125 0.125 -0.1625
1.0625 0.125 -0.1
1.0625 0 -0.1625
1.125 0.0625 -0.1625
1.0625 0.0625 -0.1
1.0625 0.125 -0.1625
1.0625 0.0625 -0.1625
1.25 0 -0.1625
1.1875 0 -0.1
1.25 0.0625 -0.1
1.25 0.125 -0.1625
1.1875 0.125 -0.1
1.1875 0 -0.1625
1.25 0.0625 -0.1625
1.1875 0.0625 -0.1
1.1875 0.125 -0.1625
1.1875 0.0625 -0.1625
1.375 0 -0.1625
1.3125 0 -0.1
1.375 0.0625 -0.1
1.375 0.125 -0.1625
1.3125 0.125 -0.1
1.3125 0 -0.1625
1.375 0.0625 -0.1625
1.3125 0.0625 -0.1
1.3125 0.125 -0.1625
1.3125 0.0625 -0.1625
1.5 0 -0.1625
1.4375 0 -0.1
1.5 0.0625 -0.1
1.5 0.125 -0.1625
1.4375 0.125 -0.1
1.4375 0 -0.1625
1.5 0.0625 -0.1625
1.4375 0.0625 -0.1
1.4375 0.125 -0.1625
1.4375 0.0625 -0.1625
1.625 0 -0.1625
1.5625 0 -0.1
1.625 0.0625 -0.1
1.625 0.125 -0.1625
1.5625 0.125 -0.1
1.5625 0 -0.1625
1.625 0.0625 -0.1625
1.5625 0.0625 -0.1
1.5625 0.125 -0.1625
1.5625 0.0625 -0.1625
1.75 0 -0.1625
1.6875 0 -0.1
1.75 0.0625 -0.1
1.75 0.125 -0.1625
1.6875 0.125 -0.1
1.6875 0 -0.1625
1.75 0.0625 -0.1625
1.6875 0.0625 -0.1
1.6875 0.125 -0.1625
1.6875 0.0625 -0.1625
1.875 0 -0.1625
1.8125 0 -0.1
1.875 0.0625 -0.1
1.875 0.125 -0.1625
1.8125 0.125 -0.1
1.8125 0 -0.1625
1.875 0.0625 -0.1625
1.8125 0.0625 -0.1
1.8125 0.125 -0.1625
1.8125 0.0625 -0.1625
2 0 -0.1625
1.9375 0 -0.1
2 0.0625 -0.1
2 0.125 -0.1625
1.9375 0.125 -0.1
1.9375 0 -0.1625
2 0.0625 -0.1625
1.9375 0.0625 -0.1
1.9375 0.125 -0.1625
1.9375 0.0625 -0.1625
2.125 0 -0.1625
2.0625 0 -0.1
2.125 0.0625 -0.1
2.125 0.125 -0.1625
2.0625 0.125 -0.1
2.0625 0 -0.1625
2.125 0.0625 -0.1625
2.0625 0.0625 -0.1
2.0625 0.125 -0.1625
2.0625 0.0625 -0.1625
2.25 0 -0.1625
2.1875 0 -0.1
2.25 0.0625 -0.1
2.25 0.125 -0.1625
2.1875 0.125 -0.1
2.1875 0 -0.1625
2.25 0.0625 -0.1625
2.1875 0.0625 -0.1
2.1875 0.125 -0.1625
2.1875 0.0625 -0.1625
2.375 0 -0.1625
2.3125 0 -0.1
2.375 0.0625 -0.1
2.375 0.125 -0.1625
2.3125 0.125 -0.1
2.3125 0 -0.1625
2.375 0.0625 -0.1625
2.3125 0.0625 -0.1
2.3125 0.125 -0.1625
2.3125 0.0625 -0.1625
2.5 0 -0.1625
2.4375 0 -0.1
2.5 0.0625 -0.1
2.5 0.125 -0.1625
2.4375 0.125 -0.1
2.4375 0 -0.1625
2.5 0.0625 -0.1625
2.4375 0.0625 -0.1
2.4375 0.125 -0.1625
2.4375 0.0625 -0.1625
2.625 0 -0.1625
2.5625 0 -0.1
2.625 0.0625 -0.1
2.625 0.125 -0.1625
2.5625 0.125 -0.1
2.5625 0 -0.1625
2.625 0.0625 -0.1625
2.5625 0.0625 -0.1
2.5625 0.125 -0.1625
2.5625 0.0625 -0.1625
2.75 0 -0.1625
2.6875 0 -0.1
2.75 0.0625 -0.1
2.75 0.125 -0.1625
2.6875 0.125 -0.1
2.6875 0 -0.1625
2.75 0.0625 -0.1625
2.6875 0.0625 -0.1
2.6875 0.125 -0.1625
2.6875 0.0625 -0.1625
2.875 0 -0.1625
2.8125 0 -0.1
2.875 0.0625 -0.1
2.875 0.125 -0.1625
2.8125 0.125 -0.1
2.8125 0 -0.1625
2.875 0.0625 -0.1625
2.8125 0.0625 -0.1
2.8125 0.125 -0.1625
2.8125 0.0625 -0.1625
3 0 -0.1625
2.9375 0 -0.1
3 0.0625 -0.1
3 0.125 -0.1625
2.9375 0.125 -0.1
2.9375 0 -0.1625
3 0.0625 -0.1625
2.9375 0.0625 -0.1
2.9375 0.125 -0.1625
2.9375 0.0625 -0.1625
3.125 0 -0.1625
3.0625 0 -0.1
3.125 0.0625 -0.1
3.125 0.125 -0.1625
3.0625 0.125 -0.1
3.0625 0 -0.1625
3.125 0.0625 -0.1625
3.0625 0.0625 -0.1
3.0625 0.125 -0.1625
3.0625 0.0625 -0.1625
3.25 0 -0.1625
3.1875 0 -0.1
3.25 0.0625 -0.1
3.25 0.125 -0.1625
3.1875 0.125 -0.1
3.1875 0 -0.1625
3.25 0.0625 -0.1625
3.1875 0.0625 -0.1
3.1875 0.125 -0.1625
3.1875 0.0625 -0.1625
3.375 0 -0.1625
3.3125 0 -0.1
3.375 0.0625 -0.1
3.375 0.125 -0.1625
3.3125 0.125 -0.1
3.3125 0 -0.1625
3.375 0.0625 -0.1625
3.3125 0.0625 -0.1
3.3125 0.125 -0.1625
3.3125 0.0625 -0.1625
3.5 0 -0.1625
3.4375 0 -0.1
3.5 0.0625 -0.1
3.5 0.125 -0.1625
3.4375 0.125 -0.1
3.4375 0 -0.1625
3.5 0.0625 -0.1625
3.4375 0.0625 -0.1
3.4375 0.125 -0.1625
3.4375 0.0625 -0.1625
3.625 0 -0.1625
3.5625 0 -0.1
3.625 0.0625 -0.1
3.625 0.125 -0.1625
3.5625 0.125 -0.1
3.5625 0 -0.1625
3.625 0.0625 -0.1625
3.5625 0.0625 -0.1
3.5625 0.125 -0.1625
3.5625 0.0625 -0.1625
3.75 0 -0.1625
3.6875 0 -0.1
3.75 0.0625 -0.1
3.75 0.125 -0.1625
3.6875 0.125 -0.1
3.6875 0 -0.1625
3.75 0.0625 -0.1625
3.6875 0.0625 -0.1
3.6875 0.125 -0.1625
3.6875 0.0625 -0.1625
3.875 0 -0.1625
3.8125 0 -0.1
3.875 0.0625 -0.1
3.875 0.125 -0.1625
3.8125 0.125 -0.1
3.8125 0 -0.1625
3.875 0.0625 -0.1625
3.8125 0.0625 -0.1
3.8125 0.125 -0.1625
3.8125 0.0625 -0.1625
4 0 -0.1625
3.9375 0 -0.1
4 0.0625 -0.1
4 0.125 -0.1625
3.9375 0.125 -0.1
3.9375 0 -0.1625
4 0.0625 -0.1625
3.9375 0.0625 -0.1
3.9375 0.125 -0.1625
3.9375 0.0625 -0.1625
0.125 0.1875 -0.1
0 0.1875 -0.1
0.125 0.25 -0.1625
0.0625 0.25 -0.1
0 0.25 -0.1625
0.125 0.1875 -0.1625
0.0625 0.1875 -0.1
0 0.1875 -0.1625
0.0625 0.25 -0.1625
0.0625 0.1875 -0.1625
0.25 0.1875 -0.1
0.25 0.25 -0.1625
0.1875 0.25 -0.1
0.25 0.1875 -0.1625
0.1875 0.1875 -0.1
0.1875 0.25 -0.1625
0.1875 0.1875 -0.1625
0.375 0.1875 -0.1
0.375 0.25 -0.1625
0.3125 0.25 -0.1
0.375 0.1875 -0.1625
0.3125 0.1875 -0.1
0.3125 0.25 -0.1625
0.3125 0.1875 -0.1625
0.5 0.1875 -0.1
0.5 0.25 -0.1625
0.4375 0.25 -0.1
0.5 0.1875 -0.1625
0.4375 0.1875 -0.1
0.4375 0.25 -0.1625
0.4375 0.1875 -0.1625
0.625 0.1875 -0.1
0.625 0.25 -0.1625
0.5625 0.25 -0.1
0.625 0.1875 -0.1625
0.5625 0.1875 -0.1
0.5625 0.25 -0.1625
0.5625 0.1875 -0.1625
0.75 0.1875 -0.1
0.75 0.25 -0.1625
0.6875 0.25 -0.1
0.75 0.1875 -0.1625
0.6875 0.1875 -0.1
0.6875 0.25 -0.1625
0.6875 0.1875 -0.1625
0.875 0.1875 -0.1
0.875 0.25 -0.1625
0.8125 0.25 -0.1
0.875 0.1875 -0.1625
0.8125 0.1875 -0.1
0.8125 0.25 -0.1625
0.8125 0.1875 -0.1625
1 0.1875 -0.1
1 0.25 -0.1625
0.9375 0.25 -0.1
1 0.1875 -0.1625
0.9375 0.1875 -0.1
0.9375 0.25 -0.1625
0.9375 0.1875 -0.1625
1.125 0.1875 -0.1
1.125 0.25 -0.1625
1.0625 0.25 -0.1
1.125 0.1875 -0.1625
1.0625 0.1875 -0.1
1.0625 0.25 -0.1625
1.0625 0.1875 -0.1625
1.25 0.1875 -0.1
1.25 0.25 -0.1625
1.1875 0.25 -0.1
1.25 0.1875 -0.1625
1.1875 0.1875 -0.1
1.1875 0.25 -0.1625
1.1875 0.1875 -0.1625
1.375 0.1875 -0.1
1.375 0.25 -0.1625
1.3125 0.25 -0.1
1.375 0.1875 -0.1625
1.3125 0.1875 -0.1
1.3125 0.25 -0.1625
1.3125 0.1875 -0.1625
1.5 0.1875 -0.1
1.5 0.25 -0.1625
1.4375 0.25 -0.1
1.5 0.1875 -0.1625
1.4375 0.1875 -0.1
1.4375 0.25 -0.1625
1.4375 0.1875 -0.1625
1.625 0.1875 -0.1
1.625 0.25 -0.1625
1.5625 0.25 -0.1
1.625 0.1875 -0.1625
1.5625 0.1875 -0.1
1.5625 0.25 -0.1625
1.5625 0.1875 -0.1625
1.75 0.1875 -0.1
1.75 0.25 -0.1625
1.6875 0.25 -0.1
1.75 0.1875 -0.1625
1.6875 0.1875 -0.1
1.6875 0.25 -0.1625
1.6875 0.1875 -0.1625
1.875 0.1875 -0.1
1.875 0.25 -0.1625
1.8125 0.25 -0.1
1.875 0.1875 -0.1625
1.8125 0.1875 -0.1
1.8125 0.25 -0.1625
1.8125 0.1875 -0.1625
2 0.1875 -0.1
2 0.25 -0.1625
1.9375 0.25 -0.1
2 0.1875 -0.1625
1.9375 0.1875 -0.1
1.9375 0.25 -0.1625
1.9375 0.1875 -0.1625
2.125 0.1875 -0.1
2.125 0.25 -0.1625
2.0625 0.25 -0.1
2.125 0.1875 -0.1625
2.0625 0.1875 -0.1
2.0625 0.25 -0.1625
2.0625 0.1875 -0.1625
2.25 0.1875 -0.1
2.25 0.25 -0.1625
2.1875 0.25 -0.1
2.25 0.1875 -0.1625
2.1875 0.1875 -0.1
2.1875 0.25 -0.1625
2.1875 0.1875 -0.1625
2.375 0.1875 -0.1
2.375 0.25 -0.1625
2.3125 0.25 -0.1
2.375 0.1875 -0.1625
2.3125 0.1875 -0.1
2.3125 0.25 -0.1625
2.3125 0.1875 -0.1625
2.5 0.1875 -0.1
2.5 0.25 -0.1625
2.4375 0.25 -0.1
2.5 0.1875 -0.1625
2.4375 0.1875 -0.1
2.4375 0.25 -0.1625
2.4375 0.1875 -0.1625
2.625 0.1875 -0.1
2.625 0.25 -0.1625
2.5625 0.25 -0.1
2.625 0.1875 -0.1625
2.5625 0.1875 -0.1
2.5625 0.25 -0.1625
2.5625 0.1875 -0.1625
2.75 0.1875 -0.1
2.75 0.25 -0.1625
2.6875 0.25 -0.1
2.75 0.1875 -0.1625
2.6875 0.1875 -0.1
2.6875 0.25 -0.1625
2.6875 0.1875 -0.1625
2.875 0.1875 -0.1
2.875 0.25 -0.1625
2.8125 0.25 -0.1
2.875 0.1875 -0.1625
2.8125 0.1875 -0.1
2.8125 0.25 -0.1625
2.8125 0.1875 -0.1625
3 0.1875 -0.1
3 0.25 -0.1625
2.9375 0.25 -0.1
3 0.1875 -0.1625
2.9375 0.1875 -0.1
2.9375 0.25 -0.1625
2.9375 0.1875 -0.1625
3.125 0.1875 -0.1
3.125 0.25 -0.1625
3.0625 0.25 -0.1
3.125 0.1875 -0.1625
3.0625 0.1875 -0.1
3.0625 0.25 -0.1625
3.0625 0.1875 -0.1625
3.25 0.1875 -0.1
3.25 0.25 -0.1625
3.1875 0.25 -0.1
3.25 0.1875 -0.1625
3.1875 0.1875 -0.1
3.1875 0.25 -0.1625
3.1875 0.1875 -0.1625
3.375 0.1875 -0.1
3.375 0.25 -0.1625
3.3125 0.25 -0.1
3.375 0.1875 -0.1625
3.3125 0.1875 -0.1
3.3125 0.25 -0.1625
3.3125 0.1875 -0.1625
3.5 0.1875 -0.1
3.5 0.25 -0.1625
3.4375 0.25 -0.1
3.5 0.1875 -0.1625
3.4375 0.1875 -0.1
3.4375 0.25 -0.1625
3.4375 0.1875 -0.1625
3.625 0.1875 -0.1
3.625 0.25 -0.1625
3.5625 0.25 -0.1
3.625 0.1875 -0.1625
3.5625 0.1875 -0.1
3.5625 0.25 -0.1625
3.5625 0.1875 -0.1625
3.75 0.1875 -0.1
3.75 0.25 -0.1625
3.6875 0.25 -0.1
3.75 0.1875 -0.1625
3.6875 0.1875 -0.1
3.6875 0.25 -0.1625
3.6875 0.1875 -0.1625
3.875 0.1875 -0.1
3.875 0.25 -0.1625
3.8125 0.25 -0.1
3.875 0.1875 -0.1625
3.8125 0.1875 -0.1
3.8125 0.25 -0.1625
3.8125 0.1875 -0.1625
4 0.1875 -0.1
4 0.25 -0.1625
3.9375 0.25 -0.1
4 0.1875 -0.1625
3.9375 0.1875 -0.1
3.9375 0.25 -0.1625
3.9375 0.1875 -0.1625
0.125 0.3125 -0.1
0 0.3125 -0.1
0.125 0.375 -0.1625
0.0625 0.375 -0.1
0 0.375 -0.1625
0.125 0.3125 -0.1625
0.0625 0.3125 -0.1
0 0.3125 -0.1625
0.0625 0.375 -0.1625
0.0625 0.3125 -0.1625
0.25 0.3125 -0.1
0.25 0.375 -0.1625
0.1875 0.375 -0.1
0.25 0.3125 -0.1625
0.1875 0.3125 -0.1
0.1875 0.375 -0.1625
0.1875 0.3125 -0.1625
0.375 0.3125 -0.1
0.375 0.375 -0.1625
0.3125 0.375 -0.1
0.375 0.3125 -0.1625
0.3125 0.3125 -0.1
0.3125 0.375 -0.1625
0.3125 0.3125 -0.1625
0.5 0.3125 -0.1
0.5 0.375 -0.1625
0.4375 0.375 -0.1
0.5 0.3125 -0.1625
0.4375 0.3125 -0.1
0.4375 0.375 -0.1625
0.4375 0.3125 -0.1625
0.625 0.3125 -0.1
0.625 0.375 -0.1625
0.5625 0.375 -0.1
0.625 0.3125 -0.1625
0.5625 0.3125 -0.1
0.5625 0.375 -0.1625
0.5625 0.3125 -0.1625
0.75 0.3125 -0.1
0.75 0.375 -0.1625
0.6875 0.375 -0.1
0.75 0.3125 -0.1625
0.6875 0.3125 -0.1
0.6875 0.375 -0.1625
0.6875 0.3125 -0.1625
0.875 0.3125 -0.1
0.875 0.375 -0.1625
0.8125 0.375 -0.1
0.875 0.3125 -0.1625
0.8125 0.3125 -0.1
0.8125 0.375 -0.1625
0.8125 0.3125 -0.1625
1 0.3125 -0.1
1 0.375 -0.1625
0.9375 0.375 -0.1
1 0.3125 -0.1625
0.9375 0.3125 -0.1
0.9375 0.375 -0.1625
0.9375 0.3125 -0.1625
1.125 0.3125 -0.1
1.125 0.375 -0.1625
1.0625 0.375 -0.1
1.125 0.3125 -0.1625
1.0625 0.3125 -0.1
1.0625 0.375 -0.1625
1.0625 0.3125 -0.1625
1.25 0.3125 -0.1
1.25 0.375 -0.1625
1.1875 0.375 -0.1
1.25 0.3125 -0.1625
1.1875 0.3125 -0.1
1.1875 0.375 -0.1625
1.1875 0.3125 -0.1625
1.375 0.3125 -0.1
1.375 0.375 -0.1625
1.3125 0.375 -0.1
1.375 0.3125 -0.1625
1.3125 0.3125 -0.1
1.3125 0.375 -0.1625
1.3125 0.3125 -0.1625
1.5 0.3125 -0.1
1.5 0.375 -0.1625
1.4375 0.375 -0.1
1.5 0.3125 -0.1625
1.4375 0.3125 -0.1
1.4375 0.375 -0.1625
1.4375 0.3125 -0.1625
1.625 0.3125 -0.1
1.625 0.375 -0.1625
1.5625 0.375 -0.1
1.625 0.3125 -0.1625
1.5625 0.3125 -0.1
1.5625 0.375 -0.1625
1.5625 0.3125 -0.1625
1.75 0.3125 -0.1
1.75 0.375 -0.1625
1.6875 0.375 -0.1
1.75 0.3125 -0.1625
1.6875 0.3125 -0.1
1.6875 0.375 -0.1625
1.6875 0.3125 -0.1625
1.875 0.3125 -0.1
1.875 0.375 -0.1625
1.8125 0.375 -0.1
1.875 0.3125 -0.1625
1.8125 0.3125 -0.1
1.8125 0.375 -0.1625
1.8125 0.3125 -0.1625
2 0.3125 -0.1
2 0.375 -0.1625
1.9375 0.375 -0.1
2 0.3125 -0.1625
1.9375 0.3125 -0.1
1.9375 0.375 -0.1625
1.9375 0.3125 -0.1625
2.125 0.3125 -0.1
2.125 0.375 -0.1625
2.0625 0.375 -0.1
2.125 0.3125 -0.1625
2.0625 0.3125 -0.1
2.0625 0.375 -0.1625
2.0625 0.3125 -0.1625
2.25 0.3125 -0.1
2.25 0.375 -0.1625
2.1875 0.375 -0.1
2.25 0.3125 -0.1625
2.1875 0.3125 -0.1
2.1875 0.375 -0.1625
2.1875 0.3125 -0.1625
2.375 0.3125 -0.1
2.375 0.375 -0.1625
2.3125 0.375 -0.1
2.375 0.3125 -0.1625
2.3125 0.3125 -0.1
2.3125 0.375 -0.1625
2.3125 0.3125 -0.1625
2.5 0.3125 -0.1
2.5 0.375 -0.1625
2.4375 0.375 -0.1
2.5 0.3125 -0.1625
2.4375 0.3125 -0.1
2.4375 0.375 -0.1625
2.4375 0.3125 -0.1625
2.625 0.3125 -0.1
2.625 0.375 -0.1625
2.5625 0.375 -0.1
2.625 0.3125 -0.1625
2.5625 0.3125 -0.1
2.5625 0.375 -0.1625
2.5625 0.3125 -0.1625
2.75 0.3125 -0.1
2.75 0.375 -0.1625
2.6875 0.375 -0.1
2.75 0.3125 -0.1625
2.6875 0.3125 -0.1
2.6875 0.375 -0.1625
2.6875 0.3125 -0.1625
2.875 0.3125 -0.1
2.875 0.375 -0.1625
2.8125 0.375 -0.1
2.875 0.3125 -0.1625
2.8125 0.3125 -0.1
2.8125 0.375 -0.1625
2.8125 0.3125 -0.1625
3 0.3125 -0.1
3 0.375 -0.1625
2.9375 0.375 -0.1
3 0.3125 -0.1625
2.9375 0.3125 -0.1
2.9375 0.375 -0.1625
2.9375 0.3125 -0.1625
3.125 0.3125 -0.1
3.125 0.375 -0.1625
3.0625 0.375 -0.1
3.125 0.3125 -0.1625
3.0625 0.3125 -0.1
3.0625 0.375 -0.1625
3.0625 0.3125 -0.1625
3.25 0.3125 -0.1
3.25 0.375 -0.1625
3.1875 0.375 -0.1
3.25 0.3125 -0.1625
3.1875 0.3125 -0.1
3.1875 0.375 -0.1625
3.1875 0.3125 -0.1625
3.375 0.3125 -0.1
3.375 0.375 -0.1625
3.3125 0.375 -0.1
3.375 0.3125 -0.1625
3.3125 0.3125 -0.1
3.3125 0.375 -0.1625
3.3125 0.3125 -0.1625
3.5 0.3125 -0.1
3.5 0.375 -0.1625
3.4375 0.375 -0.1
3.5 0.3125 -0.1625
3.4375 0.3125 -0.1
3.4375 0.375 -0.1625
3.4375 0.3125 -0.1625
3.625 0.3125 -0.1
3.625 0.375 -0.1625
3.5625 0.375 -0.1
3.625 0.3125 -0.1625
3.5625 0.3125 -0.1
3.5625 0.375 -0.1625
3.5625 0.3125 -0.1625
3.75 0.3125 -0.1
3.75 0.375 -0.1625
3.6875 0.375 -0.1
3.75 0.3125 -0.1625
3.6875 0.3125 -0.1
3.6875 0.375 -0.1625
3.6875 0.3125 -0.1625
3.875 0.3125 -0.1
3.875 0.375 -0.1625
3.8125 0.375 -0.1
3.875 0.3125 -0.1625
3.8125 0.3125 -0.1
3.8125 0.375 -0.1625
3.8125 0.3125 -0.1625
4 0.3125 -0.1
4 0.375 -0.1625
3.9375 0.375 -0.1
4 0.3125 -0.1625
3.9375 0.3125 -0.1
3.9375 0.375 -0.1625
3.9375 0.3125 -0.1625
0.125 0.4375 -0.1
0 0.4375 -0.1
0.125 0.5 -0.1625
0.0625 0.5 -0.1
0 0.5 -0.1625
0.125 0.4375 -0.1625
0.0625 0.4375 -0.1
0 0.4375 -0.1625
0.0625 0.5 -0.1625
0.0625 0.4375 -0.1625
0.25 0.4375 -0.1
0.25 0.5 -0.1625
0.1875 0.5 -0.1
0.25 0.4375 -0.1625
0.1875 0.4375 -0.1
0.1875 0.5 -0.1625
0.1875 0.4375 -0.1625
0.375 0.4375 -0.1
0.375 0.5 -0.1625
0.3125 0.5 -0.1
0.375 0.4375 -0.1625
0.3125 0.4375 -0.1
0.3125 0.5 -0.1625
0.3125 0.4375 -0.1625
0.5 0.4375 -0.1
0.5 0.5 -0.1625
0.4375 0.5 -0.1
0.5 0.4375 -0.1625
0.4375 0.4375 -0.1
0.4375 0.5 -0.1625
0.4375 0.4375 -0.1625
0.625 0.4375 -0.1
0.625 0.5 -0.1625
0.5625 0.5 -0.1
0.625 0.4375 -0.1625
0.5625 0.4375 -0.1
0.5625 0.5 -0.1625
0.5625 0.4375 -0.1625
0.75 0.4375 -0.1
0.75 0.5 -0.1625
0.6875 0.5 -0.1
0.75 0.4375 -0.1625
0.6875 0.4375 -0.1
0.6875 0.5 -0.1625
0.6875 0.4375 -0.1625
0.875 0.4375 -0.1
0.875 0.5 -0.1625
0.8125 0.5 -0.1
0.875 0.4375 -0.1625
0.8125 0.4375 -0.1
0.8125 0.5 -0.1625
0.8125 0.4375 -0.1625
1 0.4375 -0.1
1 0.5 -0.1625
0.9375 0.5 -0.1
1 0.4375 -0.1625
0.9375 0.4375 -0.1
0.9375 0.5 -0.1625
0.9375 0.4375 -0.1625
1.125 0.4375 -0.1
1.125 0.5 -0.1625
1.0625 0.5 -0.1
1.125 0.4375 -0.1625
1.0625 0.4375 -0.1
1.0625 0.5 -0.1625
1.0625 0.4375 -0.1625
1.25 0.4375 -0.1
1.25 0.5 -0.1625
1.1875 0.5 -0.1
1.25 0.4375 -0.1625
1.1875 0.4375 -0.1
1.1875 0.5 -0.1625
1.1875 0.4375 -0.1625
1.375 0.4375 -0.1
1.375 0.5 -0.1625
1.3125 0.5 -0.1
1.375 0.4375 -0.1625
1.3125 0.4375 -0.1
1.3125 0.5 -0.1625
1.3125 0.4375 -0.1625
1.5 0.4375 -0.1
1.5 0.5 -0.1625
1.4375 0.5 -0.1
1.5 0.4375 -0.1625
1.4375 0.4375 -0.1
1.4375 0.5 -0.1625
1.4375 0.4375 -0.1625
1.625 0.4375 -0.1
1.625 0.5 -0.1625
1.5625 0.5 -0.1
1.625 0.4375 -0.1625
1.5625 0.4375 -0.1
1.5625 0.5 -0.1625
1.5625 0.4375 -0.1625
1.75 0.4375 -0.1
1.75 0.5 -0.1625
1.6875 0.5 -0.1
1.75 0.4375 -0.1625
1.6875 0.4375 -0.1
1.6875 0.5 -0.1625
1.6875 0.4375 -0.1625
1.875 0.4375 -0.1
1.875 0.5 -0.1625
1.8125 0.5 -0.1
1.875 0.4375 -0.1625
1.8125 0.4375 -0.1
1.8125 0.5 -0.1625
1.8125 0.4375 -0.1625
2 0.4375 -0.1
2 0.5 -0.1625
1.9375 0.5 -0.1
2 0.4375 -0.1625
1.9375 0.4375 -0.1
1.9375 0.5 -0.1625
1.9375 0.4375 -0.1625
2.125 0.4375 -0.1
2.125 0.5 -0.1625
2.0625 0.5 -0.1
2.125 0.4375 -0.1625
2.0625 0.4375 -0.1
2.0625 0.5 -0.1625
2.0625 0.4375 -0.1625
2.25 0.4375 -0.1
2.25 0.5 -0.1625
2.1875 0.5 -0.1
2.25 0.4375 -0.1625
2.1875 0.4375 -0.1
2.1875 0.5 -0.1625
2.1875 0.4375 -0.1625
2.375 0.4375 -0.1
2.375 0.5 -0.1625
2.3125 0.5 -0.1
2.375 0.4375 -0.1625
2.3125 0.4375 -0.1
2.3125 0.5 -0.1625
2.3125 0.4375 -0.1625
2.5 0.4375 -0.1
2.5 0.5 -0.1625
2.4375 0.5 -0.1
2.5 0.4375 -0.1625
2.4375 0.4375 -0.1
2.4375 0.5 -0.1625
2.4375 0.4375 -0.1625
2.625 0.4375 -0.1
2.625 0.5 -0.1625
2.5625 0.5 -0.1
2.625 0.4375 -0.1625
2.5625 0.4375 -0.1
2.5625 0.5 -0.1625
2.5625 0.4375 -0.1625
2.75 0.4375 -0.1
2.75 0.5 -0.1625
2.6875 0.5 -0.1
2.75 0.4375 -0.1625
2.6875 0.4375 -0.1
2.6875 0.5 -0.1625
2.6875 0.4375 -0.1625
2.875 0.4375 -0.1
2.875 0.5 -0.1625
2.8125 0.5 -0.1
2.875 0.4375 -0.1625
2.8125 0.4375 -0.1
2.8125 0.5 -0.1625
2.8125 0.4375 -0.1625
3 0.4375 -0.1
3 0.5 -0.1625
2.9375 0.5 -0.1
3 0.4375 -0.1625
2.9375 0.4375 -0.1
2.9375 0.5 -0.1625
2.9375 0.4375 -0.1625
3.125 0.4375 -0.1
3.125 0.5 -0.1625
3.0625 0.5 -0.1
3.125 0.4375 -0.1625
3.0625 0.4375 -0.1
3.0625 0.5 -0.1625
3.0625 0.4375 -0.1625
3.25 0.4375 -0.1
3.25 0.5 -0.1625
3.1875 0.5 -0.1
3.25 0.4375 -0.1625
3.1875 0.4375 -0.1
3.1875 0.5 -0.1625
3.1875 0.4375 -0.1625
3.375 0.4375 -0.1
3.375 0.5 -0.1625
3.3125 0.5 -0.1
3.375 0.4375 -0.1625
3.3125 0.4375 -0.1
3.3125 0.5 -0.1625
3.3125 0.4375 -0.1625
3.5 0.4375 -0.1
3.5 0.5 -0.1625
3.4375 0.5 -0.1
3.5 0.4375 -0.1625
3.4375 0.4375 -0.1
3.4375 0.5 -0.1625
3.4375 0.4375 -0.1625
3.625 0.4375 -0.1
3.625 0.5 -0.1625
3.5625 0.5 -0.1
3.625 0.4375 -0.1625
3.5625 0.4375 -0.1
3.5625 0.5 -0.1625
3.5625 0.4375 -0.1625
3.75 0.4375 -0.1
3.75 0.5 -0.1625
3.6875 0.5 -0.1
3.75 0.4375 -0.1625
3.6875 0.4375 -0.1
3.6875 0.5 -0.1625
3.6875 0.4375 -0.1625
3.875 0.4375 -0.1
3.875 0.5 -0.1625
3.8125 0.5 -0.1
3.875 0.4375 -0.1625
3.8125 0.4375 -0.1
3.8125 0.5 -0.1625
3.8125 0.4375 -0.1625
4 0.4375 -0.1
4 0.5 -0.1625
3.9375 0.5 -0.1
4 0.4375 -0.1625
3.9375 0.4375 -0.1
3.9375 0.5 -0.1625
3.9375 0.4375 -0.1625
0.125 0.5625 -0.1
0 0.5625 -0.1
0.125 0.625 -0.1625
0.0625 0.625 -0.1
0 0.625 -0.1625
0.125 0.5625 -0.1625
0.0625 0.5625 -0.1
0 0.5625 -0.1625
0.0625 0.625 -0.1625
0.0625 0.5625 -0.1625
0.25 0.5625 -0.1
0.25 0.625 -0.1625
0.1875 0.625 -0.1
0.25 0.5625 -0.1625
0.1875 0.5625 -0.1
0.1875 0.625 -0.1625
0.1875 0.5625 -0.1625
0.375 0.5625 -0.1
0.375 0.625 -0.1625
0.3125 0.625 -0.1
0.375 0.5625 -0.1625
0.3125 0.5625 -0.1
0.3125 0.625 -0.1625
0.3125 0.5625 -0.1625
0.5 0.5625 -0.1
0.5 0.625 -0.1625
0.4375 0.625 -0.1
0.5 0.5625 -0.1625
0.4375 0.5625 -0.1
0.4375 0.625 -0.1625
0.4375 0.5625 -0.1625
0.625 0.5625 -0.1
0.625 0.625 -0.1625
0.5625 0.625 -0.1
0.625 0.5625 -0.1625
0.5625 0.5625 -0.1
0.5625 0.625 -0.1625
0.5625 0.5625 -0.1625
0.75 0.5625 -0.1
0.75 0.625 -0.1625
0.6875 0.625 -0.1
0.75 0.5625 -0.1625
0.6875 0.5625 -0.1
0.6875 0.625 -0.1625
0.6875 0.5625 -0.1625
0.875 0.5625 -0.1
0.875 0.625 -0.1625
0.8125 0.625 -0.1
0.875 0.5625 -0.1625
0.8125 0.5625 -0.1
0.8125 0.625 -0.1625
0.8125 0.5625 -0.1625
1 0.5625 -0.1
1 0.625 -0.1625
0.9375 0.625 -0.1
1 0.5625 -0.1625
0.9375 0.5625 -0.1
0.9375 0.625 -0.1625
0.9375 0.5625 -0.1625
1.125 0.5625 -0.1
1.125 0.625 -0.1625
1.0625 0.625 -0.1
1.125 0.5625 -0.1625
1.0625 0.5625 -0.1
1.0625 0.625 -0.1625
1.0625 0.5625 -0.1625
1.25 0.5625 -0.1
1.25 0.625 -0.1625
1.1875 0.625 -0.1
1.25 0.5625 -0.1625
1.1875 0.5625 -0.1
1.1875 0.625 -0.1625
1.1875 0.5625 -0.1625
1.375 0.5625 -0.1
1.375 0.625 -0.1625
1.3125 0.625 -0.1
1.375 0.5625 -0.1625
1.3125 0.5625 -0.1
1.3125 0.625 -0.1625
1.3125 0.5625 -0.1625
1.5 0.5625 -0.1
1.5 0.625 -0.1625
1.4375 0.625 -0.1
1.5 0.5625 -0.1625
1.4375 0.5625 -0.1
1.4375 0.625 -0.1625
1.4375 0.5625 -0.1625
1.625 0.5625 -0.1
1.625 0.625 -0.1625
1.5625 0.625 -0.1
1.625 0.5625 -0.1625
1.5625 0.5625 -0.1
1.5625 0.625 -0.1625
1.5625 0.5625 -0.1625
1.75 0.5625 -0.1
1.75 0.625 -0.1625
1.6875 0.625 -0.1
1.75 0.5625 -0.1625
1.6875 0.5625 -0.1
1.6875 0.625 -0.1625
1.6875 0.5625 -0.1625
1.875 0.5625 -0.1
1.875 0.625 -0.1625
1.8125 0.625 -0.1
1.875 0.5625 -0.1625
1.8125 0.5625 -0.1
1.8125 0.625 -0.1625
1.8125 0.5625 -0.1625
2 0.5625 -0.1
2 0.625 -0.1625
1.9375 0.625 -0.1
2 0.5625 -0.1625
1.9375 0.5625 -0.1
1.9375 0.625 -0.1625
1.9375 0.5625 -0.1625
2.125 0.5625 -0.1
2.125 0.625 -0.1625
2.0625 0.625 -0.1
2.125 0.5625 -0.1625
2.0625 0.5625 -0.1
2.0625 0.625 -0.1625
2.0625 0.5625 -0.1625
2.25 0.5625 -0.1
2.25 0.625 -0.1625
2.1875 0.625 -0.1
2.25 0.5625 -0.1625
2.1875 0.5625 -0.1
2.1875 0.625 -0.1625
2.1875 0.5625 -0.1625
2.375 0.5625 -0.1
2.375 0.625 -0.1625
2.3125 0.625 -0.1
2.375 0.5625 -0.1625
2.3125 0.5625 -0.1
2.3125 0.625 -0.1625
2.3125 0.5625 -0.1625
2.5 0.5625 -0.1
2.5 0.625 -0.1625
2.4375 0.625 -0.1
2.5 0.5625 -0.1625
2.4375 0.5625 -0.1
2.4375 0.625 -0.1625
2.4375 0.5625 -0.1625
2.625 0.5625 -0.1
2.625 0.625 -0.1625
2.5625 0.625 -0.1
2.625 0.5625 -0.1625
2.5625 0.5625 -0.1
2.5625 0.625 -0.1625
2.5625 0.5625 -0.1625
2.75 0.5625 -0.1
2.75 0.625 -0.1625
2.6875 0.625 -0.1
2.75 0.5625 -0.1625
2.6875 0.5625 -0.1
2.6875 0.625 -0.1625
2.6875 0.5625 -0.1625
2.875 0.5625 -0.1
2.875 0.625 -0.1625
2.8125 0.625 -0.1
2.875 0.5625 -0.1625
2.8125 0.5625 -0.1
2.8125 0.625 -0.1625
2.8125 0.5625 -0.1625
3 0.5625 -0.1
3 0.625 -0.1625
2.9375 0.625 -0.1
3 0.5625 -0.1625
2.9375 0.5625 -0.1
2.9375 0.625 -0.1625
2.9375 0.5625 -0.1625
3.125 0.5625 -0.1
3.125 0.625 -0.1625
3.0625 0.625 -0.1
3.125 0.5625 -0.1625
3.0625 0.5625 -0.1
3.0625 0.625 -0.1625
3.0625 0.5625 -0.1625
3.25 0.5625 -0.1
3.25 0.625 -0.1625
3.1875 0.625 -0.1
3.25 0.5625 -0.1625
3.1875 0.5625 -0.1
3.1875 0.625 -0.1625
3.1875 0.5625 -0.1625
3.375 0.5625 -0.1
3.375 0.625 -0.1625
3.3125 0.625 -0.1
3.375 0.5625 -0.1625
3.3125 0.5625 -0.1
3.3125 0.625 -0.1625
3.3125 0.5625 -0.1625
3.5 0.5625 -0.1
3.5 0.625 -0.1625
3.4375 0.625 -0.1
3.5 0.5625 -0.1625
3.4375 0.5625 -0.1
3.4375 0.625 -0.1625
3.4375 0.5625 -0.1625
3.625 0.5625 -0.1
3.625 0.625 -0.1625
3.5625 0.625 -0.1
3.625 0.5625 -0.1625
3.5625 0.5625 -0.1
3.5625 0.625 -0.1625
3.5625 0.5625 -0.1625
3.75 0.5625 -0.1
3.75 0.625 -0.1625
3.6875 0.625 -0.1
3.75 0.5625 -0.1625
3.6875 0.5625 -0.1
3.6875 0.625 -0.1625
3.6875 0.5625 -0.1625
3.875 0.5625 -0.1
3.875 0.625 -0.1625
3.8125 0.625 -0.1
3.875 0.5625 -0.1625
3.8125 0.5625 -0.1
3.8125 0.625 -0.1625
3.8125 0.5625 -0.1625
4 0.5625 -0.1
4 0.625 -0.1625
3.9375 0.625 -0.1
4 0.5625 -0.1625
3.9375 0.5625 -0.1
3.9375 0.625 -0.1625
3.9375 0.5625 -0.1625
0.125 0.6875 -0.1
0 0.6875 -0.1
0.125 0.75 -0.1625
0.0625 0.75 -0.1
0 0.75 -0.1625
0.125 0.6875 -0.1625
0.0625 0.6875 -0.1
0 0.6875 -0.1625
0.0625 0.75 -0.1625
0.0625 0.6875 -0.1625
0.25 0.6875 -0.1
0.25 0.75 -0.1625
0.1875 0.75 -0.1
0.25 0.6875 -0.1625
0.1875 0.6875 -0.1
0.1875 0.75 -0.1625
0.1875 0.6875 -0.1625
0.375 0.6875 -0.1
0.375 0.75 -0.1625
0.3125 0.75 -0.1
0.375 0.6875 -0.1625
0.3125 0.6875 -0.1
0.3125 0.75 -0.1625
0.3125 0.6875 -0.1625
0.5 0.6875 -0.1
0.5 0.75 -0.1625
0.4375 0.75 -0.1
0.5 0.6875 -0.1625
0.4375 0.6875 -0.1
0.4375 0.75 -0.1625
0.4375 0.6875 -0.1625
0.625 0.6875 -0.1
0.625 0.75 -0.1625
0.5625 0.75 -0.1
0.625 0.6875 -0.1625
0.5625 0.6875 -0.1
0.5625 0.75 -0.1625
0.5625 0.6875 -0.1625
0.75 0.6875 -0.1
0.75 0.75 -0.1625
0.6875 0.75 -0.1
0.75 0.6875 -0.1625
0.6875 0.6875 -0.1
0.6875 0.75 -0.1625
0.6875 0.6875 -0.1625
0.875 0.6875 -0.1
0.875 0.75 -0.1625
0.8125 0.75 -0.1
0.875 0.6875 -0.1625
0.8125 0.6875 -0.1
0.8125 0.75 -0.1625
0.8125 0.6875 -0.1625
1 0.6875 -0.1
1 0.75 -0.1625
0.9375 0.75 -0.1
1 0.6875 -0.1625
0.9375 0.6875 -0.1
0.9375 0.75 -0.1625
0.9375 0.6875 -0.1625
1.125 0.6875 -0.1
1.125 0.75 -0.1625
1.0625 0.75 -0.1
1.125 0.6875 -0.1625
1.0625 0.6875 -0.1
1.0625 0.75 -0.1625
1.0625 0.6875 -0.1625
1.25 0.6875 -0.1
1.25 0.75 -0.1625
1.1875 0.75 -0.1
1.25 0.6875 -0.1625
1.1875 0.6875 -0.1
1.1875 0.75 -0.1625
1.1875 0.6875 -0.1625
1.375 0.6875 -0.1
1.375 0.75 -0.1625
1.3125 0.75 -0.1
1.375 0.6875 -0.1625
1.3125 0.6875 -0.1
1.3125 0.75 -0.1625
1.3125 0.6875 -0.1625
1.5 0.6875 -0.1
1.5 0.75 -0.1625
1.4375 0.75 -0.1
1.5 0.6875 -0.1625
1.4375 0.6875 -0.1
1.4375 0.75 -0.1625
1.4375 0.6875 -0.1625
1.625 0.6875 -0.1
1.625 0.75 -0.1625
1.5625 0.75 -0.1
1.625 0.6875 -0.1625
1.5625 0.6875 -0.1
1.5625 0.75 -0.1625
1.5625 0.6875 -0.1625
1.75 0.6875 -0.1
1.75 0.75 -0.1625
1.6875 0.75 -0.1
1.75 0.6875 -0.1625
1.6875 0.6875 -0.1
1.6875 0.75 -0.1625
1.6875 0.6875 -0.1625
1.875 0.6875 -0.1
1.875 0.75 -0.1625
1.8125 0.75 -0.1
1.875 0.6875 -0.1625
1.8125 0.6875 -0.1
1.8125 0.75 -0.1625
1.8125 0.6875 -0.1625
2 0.6875 -0.1
2 0.75 -0.1625
1.9375 0.75 -0.1
2 0.6875 -0.1625
1.9375 0.6875 -0.1
1.9375 0.75 -0.1625
1.9375 0.6875 -0.1625
2.125 0.6875 -0.1
2.125 0.75 -0.1625
2.0625 0.75 -0.1
2.125 0.6875 -0.1625
2.0625 0.6875 -0.1
2.0625 0.75 -0.1625
2.0625 0.6875 -0.1625
2.25 0.6875 -0.1
2.25 0.75 -0.1625
2.1875 0.75 -0.1
2.25 0.6875 -0.1625
2.1875 0.6875 -0.1
2.1875 0.75 -0.1625
2.1875 0.6875 -0.1625
2.375 0.6875 -0.1
2.375 0.75 -0.1625
2.3125 0.75 -0.1
2.375 0.6875 -0.1625
2.3125 0.6875 -0.1
2.3125 0.75 -0.1625
2.3125 0.6875 -0.1625
2.5 0.6875 -0.1
2.5 0.75 -0.1625
2.4375 0.75 -0.1
2.5 0.6875 -0.1625
2.4375 0.6875 -0.1
2.4375 0.75 -0.1625
2.4375 0.6875 -0.1625
2.625 0.6875 -0.1
2.625 0.75 -0.1625
2.5625 0.75 -0.1
2.625 0.6875 -0.1625
2.5625 0.6875 -0.1
2.5625 0.75 -0.1625
2.5625 0.6875 -0.1625
2.75 0.6875 -0.1
2.75 0.75 -0.1625
2.6875 0.75 -0.1
2.75 0.6875 -0.1625
2.6875 0.6875 -0.1
2.6875 0.75 -0.1625
2.6875 0.6875 -0.1625
2.875 0.6875 -0.1
2.875 0.75 -0.1625
2.8125 0.75 -0.1
2.875 0.6875 -0.1625
2.8125 0.6875 -0.1
2.8125 0.75 -0.1625
2.8125 0.6875 -0.1625
3 0.6875 -0.1
3 0.75 -0.1625
2.9375 0.75 -0.1
3 0.6875 -0.1625
2.9375 0.6875 -0.1
2.9375 0.75 -0.1625
2.9375 0.6875 -0.1625
3.125 0.6875 -0.1
3.125 0.75 -0.1625
3.0625 0.75 -0.1
3.125 0.6875 -0.1625
3.0625 0.6875 -0.1
3.0625 0.75 -0.1625
3.0625 0.6875 -0.1625
3.25 0.6875 -0.1
3.25 0.75 -0.1625
3.1875 0.75 -0.1
3.25 0.6875 -0.1625
3.1875 0.6875 -0.1
3.1875 0.75 -0.1625
3.1875 0.6875 -0.1625
3.375 0.6875 -0.1
3.375 0.75 -0.1625
3.3125 0.75 -0.1
3.375 0.6875 -0.1625
3.3125 0.6875 -0.1
3.3125 0.75 -0.1625
3.3125 0.6875 -0.1625
3.5 0.6875 -0.1
3.5 0.75 -0.1625
3.4375 0.75 -0.1
3.5 0.6875 -0.1625
3.4375 0.6875 -0.1
3.4375 0.75 -0.1625
3.4375 0.6875 -0.1625
3.625 0.6875 -0.1
3.625 0.75 -0.1625
3.5625 0.75 -0.1
3.625 0.6875 -0.1625
3.5625 0.6875 -0.1
3.5625 0.75 -0.1625
3.5625 0.6875 -0.1625
3.75 0.6875 -0.1
3.75 0.75 -0.1625
3.6875 0.75 -0.1
3.75 0.6875 -0.1625
3.6875 0.6875 -0.1
3.6875 0.75 -0.1625
3.6875 0.6875 -0.1625
3.875 0.6875 -0.1
3.875 0.75 -0.1625
3.8125 0.75 -0.1
3.875 0.6875 -0.1625
3.8125 0.6875 -0.1
3.8125 0.75 -0.1625
3.8125 0.6875 -0.1625
4 0.6875 -0.1
4 0.75 -0.1625
3.9375 0.75 -0.1
4 0.6875 -0.1625
3.9375 0.6875 -0.1
3.9375 0.75 -0.1625
3.9375 0.6875 -0.1625
0.125 0.8125 -0.1
0 0.8125 -0.1
0.125 0.875 -0.1625
0.0625 0.875 -0.1
0 0.875 -0.1625
0.125 0.8125 -0.1625
0.0625 0.8125 -0.1
0 0.8125 -0.1625
0.0625 0.875 -0.1625
0.0625 0.8125 -0.1625
0.25 0.8125 -0.1
0.25 0.875 -0.1625
0.1875 0.875 -0.1
0.25 0.8125 -0.1625
0.1875 0.8125 -0.1
0.1875 0.875 -0.1625
0.1875 0.8125 -0.1625
0.375 0.8125 -0.1
0.375 0.875 -0.1625
0.3125 0.875 -0.1
0.375 0.8125 -0.1625
0.3125 0.8125 -0.1
0.3125 0.875 -0.1625
0.3125 0.8125 -0.1625
0.5 0.8125 -0.1
0.5 0.875 -0.1625
0.4375 0.875 -0.1
0.5 0.8125 -0.1625
0.4375 0.8125 -0.1
0.4375 0.875 -0.1625
0.4375 0.8125 -0.1625
0.625 0.8125 -0.1
0.625 0.875 -0.1625
0.5625 0.875 -0.1
0.625 0.8125 -0.1625
0.5625 0.8125 -0.1
0.5625 0.875 -0.1625
0.5625 0.8125 -0.1625
0.75 0.8125 -0.1
0.75 0.875 -0.1625
0.6875 0.875 -0.1
0.75 0.8125 -0.1625
0.6875 0.8125 -0.1
0.6875 0.875 -0.1625
0.6875 0.8125 -0.1625
0.875 0.8125 -0.1
0.875 0.875 -0.1625
0.8125 0.875 -0.1
0.875 0.8125 -0.1625
0.8125 0.8125 -0.1
0.8125 0.875 -0.1625
0.8125 0.8125 -0.1625
1 0.8125 -0.1
1 0.875 -0.1625
0.9375 0.875 -0.1
1 0.8125 -0.1625
0.9375 0.8125 -0.1
0.9375 0.875 -0.1625
0.9375 0.8125 -0.1625
1.125 0.8125 -0.1
1.125 0.875 -0.1625
1.0625 0.875 -0.1
1.125 0.8125 -0.1625
1.0625 0.8125 -0.1
1.0625 0.875 -0.1625
1.0625 0.8125 -0.1625
1.25 0.8125 -0.1
1.25 0.875 -0.1625
1.1875 0.875 -0.1
1.25 0.8125 -0.1625
1.1875 0.8125 -0.1
1.1875 0.875 -0.1625
1.1875 0.8125 -0.1625
1.375 0.8125 -0.1
1.375 0.875 -0.1625
1.3125 0.875 -0.1
1.375 0.8125 -0.1625
1.3125 0.8125 -0.1
1.3125 0.875 -0.1625
1.3125 0.8125 -0.1625
1.5 0.8125 -0.1
1.5 0.875 -0.1625
1.4375 0.875 -0.1
1.5 0.8125 -0.1625
1.4375 0.8125 -0.1
1.4375 0.875 -0.1625
1.4375 0.8125 -0.1625
1.625 0.8125 -0.1
1.625 0.875 -0.1625
1.5625 0.875 -0.1
1.625 0.8125 -0.1625
1.5625 0.8125 -0.1
1.5625 0.875 -0.1625
1.5625 0.8125 -0.1625
1.75 0.8125 -0.1
1.75 0.875 -0.1625
1.6875 0.875 -0.1
1.75 0.8125 -0.1625
1.6875 0.8125 -0.1
1.6875 0.875 -0.1625
1.6875 0.8125 -0.1625
1.875 0.8125 -0.1
1.875 0.875 -0.1625
1.8125 0.875 -0.1
1.875 0.8125 -0.1625
1.8125 0.8125 -0.1
1.8125 0.875 -0.1625
1.8125 0.8125 -0.1625
2 0.8125 -0.1
2 0.875 -0.1625
1.9375 0.875 -0.1
2 0.8125 -0.1625
1.9375 0.8125 -0.1
1.9375 0.875 -0.1625
1.9375 0.8125 -0.1625
2.125 0.8125 -0.1
2.125 0.875 -0.1625
2.0625 0.875 -0.1
2.125 0.8125 -0.1625
2.0625 0.8125 -0.1
2.0625 0.875 -0.1625
2.0625 0.8125 -0.1625
2.25 0.8125 -0.1
2.25 0.875 -0.1625
2.1875 0.875 -0.1
2.25 0.8125 -0.1625
2.1875 0.8125 -0.1
2.1875 0.875 -0.1625
2.1875 0.8125 -0.1625
2.375 0.8125 -0.1
2.375 0.875 -0.1625
2.3125 0.875 -0.1
2.375 0.8125 -0.1625
2.3125 0.8125 -0.1
2.3125 0.875 -0.1625
2.3125 0.8125 -0.1625
2.5 0.8125 -0.1
2.5 0.875 -0.1625
2.4375 0.875 -0.1
2.5 0.8125 -0.1625
2.4375 0.8125 -0.1
2.4375 0.875 -0.1625
2.4375 0.8125 -0.1625
2.625 0.8125 -0.1
2.625 0.875 -0.1625
2.5625 0.875 -0.1
2.625 0.8125 -0.1625
2.5625 0.8125 -0.1
2.5625 0.875 -0.1625
2.5625 0.8125 -0.1625
2.75 0.8125 -0.1
2.75 0.875 -0.1625
2.6875 0.875 -0.1
2.75 0.8125 -0.1625
2.6875 0.8125 -0.1
2.6875 0.875 -0.1625
2.6875 0.8125 -0.1625
2.875 0.8125 -0.1
2.875 0.875 -0.1625
2.8125 0.875 -0.1
2.875 0.8125 -0.1625
2.8125 0.8125 -0.1
2.8125 0.875 -0.1625
2.8125 0.8125 -0.1625
3 0.8125 -0.1
3 0.875 -0.1625
2.9375 0.875 -0.1
3 0.8125 -0.1625
2.9375 0.8125 -0.1
2.9375 0.875 -0.1625
2.9375 0.8125 -0.1625
3.125 0.8125 -0.1
3.125 0.875 -0.1625
3.0625 0.875 -0.1
3.125 0.8125 -0.1625
3.0625 0.8125 -0.1
3.0625 0.875 -0.1625
3.0625 0.8125 -0.1625
3.25 0.8125 -0.1
3.25 0.875 -0.1625
3.1875 0.875 -0.1
3.25 0.8125 -0.1625
3.1875 0.8125 -0.1
3.1875 0.875 -0.1625
3.1875 0.8125 -0.1625
3.375 0.8125 -0.1
3.375 0.875 -0.1625
3.3125 0.875 -0.1
3.375 0.8125 -0.1625
3.3125 0.8125 -0.1
3.3125 0.875 -0.1625
3.3125 0.8125 -0.1625
3.5 0.8125 -0.1
3.5 0.875 -0.1625
3.4375 0.875 -0.1
3.5 0.8125 -0.1625
3.4375 0.8125 -0.1
3.4375 0.875 -0.1625
3.4375 0.8125 -0.1625
3.625 0.8125 -0.1
3.625 0.875 -0.1625
3.5625 0.875 -0.1
3.625 0.8125 -0.1625
3.5625 0.8125 -0.1
3.5625 0.875 -0.1625
3.5625 0.8125 -0.1625
3.75 0.8125 -0.1
3.75 0.875 -0.1625
3.6875 0.875 -0.1
3.75 0.8125 -0.1625
3.6875 0.8125 -0.1
3.6875 0.875 -0.1625
3.6875 0.8125 -0.1625
3.875 0.8125 -0.1
3.875 0.875 -0.1625
3.8125 0.875 -0.1
3.875 0.8125 -0.1625
3.8125 0.8125 -0.1
3.8125 0.875 -0.1625
3.8125 0.8125 -0.1625
4 0.8125 -0.1
4 0.875 -0.1625
3.9375 0.875 -0.1
4 0.8125 -0.1625
3.9375 0.8125 -0.1
3.9375 0.875 -0.1625
3.9375 0.8125 -0.1625
0.125 0.9375 -0.1
0 0.9375 -0.1
0.125 1 -0.1625
0.0625 1 -0.1
0 1 -0.1625
0.125 0.9375 -0.1625
0.0625 0.9375 -0.1
0 0.9375 -0.1625
0.0625 1 -0.1625
0.0625 0.9375 -0.1625
0.25 0.9375 -0.1
0.25 1 -0.1625
0.1875 1 -0.1
0.25 0.9375 -0.1625
0.1875 0.9375 -0.1
0.1875 1 -0.1625
0.1875 0.9375 -0.1625
0.375 0.9375 -0.1
0.375 1 -0.1625
0.3125 1 -0.1
0.375 0.9375 -0.1625
0.3125 0.9375 -0.1
0.3125 1 -0.1625
0.3125 0.9375 -0.1625
0.5 0.9375 -0.1
0.5 1 -0.1625
0.4375 1 -0.1
0.5 0.9375 -0.1625
0.4375 0.9375 -0.1
0.4375 1 -0.1625
0.4375 0.9375 -0.1625
0.625 0.9375 -0.1
0.625 1 -0.1625
0.5625 1 -0.1
0.625 0.9375 -0.1625
0.5625 0.9375 -0.1
0.5625 1 -0.1625
0.5625 0.9375 -0.1625
0.75 0.9375 -0.1
0.75 1 -0.1625
0.6875 1 -0.1
0.75 0.9375 -0.1625
0.6875 0.9375 -0.1
0.6875 1 -0.1625
0.6875 0.9375 -0.1625
0.875 0.9375 -0.1
0.875 1 -0.1625
0.8125 1 -0.1
0.875 0.9375 -0.1625
0.8125 0.9375 -0.1
0.8125 1 -0.1625
0.8125 0.9375 -0.1625
1 0.9375 -0.1
1 1 -0.1625
0.9375 1 -0.1
1 0.9375 -0.1625
0.9375 0.9375 -0.1
0.9375 1 -0.1625
0.9375 0.9375 -0.1625
1.125 0.9375 -0.1
1.125 1 -0.1625
1.0625 1 -0.1
1.125 0.9375 -0.1625
1.0625 0.9375 -0.1
1.0625 1 -0.1625
1.0625 0.9375 -0.1625
1.25 0.9375 -0.1
1.25 1 -0.1625
1.1875 1 -0.1
1.25 0.9375 -0.1625
1.1875 0.9375 -0.1
1.1875 1 -0.1625
1.1875 0.9375 -0.1625
1.375 0.9375 -0.1
1.375 1 -0.1625
1.3125 1 -0.1
1.375 0.9375 -0.1625
1.3125 0.9375 -0.1
1.3125 1 -0.1625
1.3125 0.9375 -0.1625
1.5 0.9375 -0.1
1.5 1 -0.1625
1.4375 1 -0.1
1.5 0.9375 -0.1625
1.4375 0.9375 -0.1
1.4375 1 -0.1625
1.4375 0.9375 -0.1625
1.625 0.9375 -0.1
1.625 1 -0.1625
1.5625 1 -0.1
1.625 0.9375 -0.1625
1.5625 0.9375 -0.1
1.5625 1 -0.1625
1.5625 0.9375 -0.1625
1.75 0.9375 -0.1
1.75 1 -0.1625
1.6875 1 -0.1
1.75 0.9375 -0.1625
1.6875 0.9375 -0.1
1.6875 1 -0.1625
1.6875 0.9375 -0.1625
1.875 0.9375 -0.1
1.875 1 -0.1625
1.8125 1 -0.1
1.875 0.9375 -0.1625
1.8125 0.9375 -0.1
1.8125 1 -0.1625
1.8125 0.9375 -0.1625
2 0.9375 -0.1
2 1 -0.1625
1.9375 1 -0.1
2 0.9375 -0.1625
1.9375 0.9375 -0.1
1.9375 1 -0.1625
1.9375 0.9375 -0.1625
2.125 0.9375 -0.1
2.125 1 -0.1625
2.0625 1 -0.1
2.125 0.9375 -0.1625
2.0625 0.9375 -0.1
2.0625 1 -0.1625
2.0625 0.9375 -0.1625
2.25 0.9375 -0.1
2.25 1 -0.1625
2.1875 1 -0.1
2.25 0.9375 -0.1625
2.1875 0.9375 -0.1
2.1875 1 -0.1625
2.1875 0.9375 -0.1625
2.375 0.9375 -0.1
2.375 1 -0.1625
2.3125 1 -0.1
2.375 0.9375 -0.1625
2.3125 0.9375 -0.1
2.3125 1 -0.1625
2.3125 0.9375 -0.1625
2.5 0.9375 -0.1
2.5 1 -0.1625
2.4375 1 -0.1
2.5 0.9375 -0.1625
2.4375 0.9375 -0.1
2.4375 1 -0.1625
2.4375 0.9375 -0.1625
2.625 0.9375 -0.1
2.625 1 -0.1625
2.5625 1 -0.1
2.625 0.9375 -0.1625
2.5625 0.9375 -0.1
2.5625 1 -0.1625
2.5625 0.9375 -0.1625
2.75 0.9375 -0.1
2.75 1 -0.1625
2.6875 1 -0.1
2.75 0.9375 -0.1625
2.6875 0.9375 -0.1
2.6875 1 -0.1625
2.6875 0.9375 -0.1625
2.875 0.9375 -0.1
2.875 1 -0.1625
2.8125 1 -0.1
2.875 0.9375 -0.1625
2.8125 0.9375 -0.1
2.8125 1 -0.1625
2.8125 0.9375 -0.1625
3 0.9375 -0.1
3 1 -0.1625
2.9375 1 -0.1
3 0.9375 -0.1625
2.9375 0.9375 -0.1
2.9375 1 -0.1625
2.9375 0.9375 -0.1625
3.125 0.9375 -0.1
3.125 1 -0.1625
3.0625 1 -0.1
3.125 0.9375 -0.1625
3.0625 0.9375 -0.1
3.0625 1 -0.1625
3.0625 0.9375 -0.1625
3.25 0.9375 -0.1
3.25 1 -0.1625
3.1875 1 -0.1
3.25 0.9375 -0.1625
3.1875 0.9375 -0.1
3.1875 1 -0.1625
3.1875 0.9375 -0.1625
3.375 0.9375 -0.1
3.375 1 -0.1625
3.3125 1 -0.1
3.375 0.9375 -0.1625
3.3125 0.9375 -0.1
3.3125 1 -0.1625
3.3125 0.9375 -0.1625
3.5 0.9375 -0.1
3.5 1 -0.1625
3.4375 1 -0.1
3.5 0.9375 -0.1625
3.4375 0.9375 -0.1
3.4375 1 -0.1625
3.4375 0.9375 -0.1625
3.625 0.9375 -0.1
3.625 1 -0.1625
3.5625 1 -0.1
3.625 0.9375 -0.1625
3.5625 0.9375 -0.1
3.5625 1 -0.1625
3.5625 0.9375 -0.1625
3.75 0.9375 -0.1
3.75 1 -0.1625
3.6875 1 -0.1
3.75 0.9375 -0.1625
3.6875 0.9375 -0.1
3.6875 1 -0.1625
3.6875 0.9375 -0.1625
3.875 0.9375 -0.1
3.875 1 -0.1625
3.8125 1 -0.1
3.875 0.9375 -0.1625
3.8125 0.9375 -0.1
3.8125 1 -0.1625
3.8125 0.9375 -0.1625
4 0.9375 -0.1
4 1 -0.1625
3.9375 1 -0.1
4 0.9375 -0.1625
3.9375 0.9375 -0.1
3.9375 1 -0.1625
3.9375 0.9375 -0.1625

CELLS 2049 55296
OFFSETS vtktypeint64
0 27 54 81 108 135 162 189 216 243 270 297 324 351 378 405 432 459 486 513 540 567 594 621 648 675 702 729 756 783 810 837 864 891 918 945 972 999 1026 1053 1080 1107 1134 1161 1188 1215 1242 1269 1296 1323 1350 1377 1404 1431 1458 1485 1512 1539 1566 1593 1620 1647 1674 1701 1728 1755 1782 1809 1836 1863 1890 1917 1944 1971 1998 2025 2052 2079 2106 2133 2160 2187 2214 2241 2268 2295 2322 2349 2376 2403 2430 2457 2484 2511 2538 2565 2592 2619 2646 2673 2700 2727 2754 2781 2808 2835 2862 2889 2916 2943 2970 2997 3024 3051 3078 3105 3132 3159 3186 3213 3240 3267 3294 3321 3348 3375 3402 3429 3456 3483 3510 3537 3564 3591 3618 3645 3672 3699 3726 3753 3780 3807 3834 3861 3888 3915 3942 3969 3996 4023 4050 4077 4104 4131 4158 4185 4212 4239 4266 4293 4320 4347 4374 4401 4428 4455 4482 4509 4536 4563 4590 4617 4644 4671 4698 4725 4752 4779 4806 4833 4860 4887 4914 4941 4968 4995 5022 5049 5076 5103 5130 5157 5184 5211 5238 5265 5292 5319 5346 5373 5400 5427 5454 5481 5508 5535 5562 5589 5616 5643 5670 5697 5724 5751 5778 5805 5832 5859 5886 5913 5940 5967 5994 6021 6048 6075 6102 6129 6156 6183 6210 6237 6264 6291 6318 6345 6372 6399 6426 6453 6480 6507 6534 6561 6588 6615 6642 6669 6696 6723 6750 6777 6804 6831 6858 6885 6912 6939 6966 6993 7020 7047 7074 7101 7128 7155 7182 7209 7236 7263 7290 7317 7344 7371 7398 7425 7452 7479 7506 7533 7560 7587 7614 7641 7668 7695 7722 7749 7776 7803 7830 7857 7884 7911 7938 7965 7992 8019 8046 8073 8100 8127 8154 8181 8208 8235 8262 8289 8316 8343 8370 8397 8424 8451 8478 8505 8532 8559 8586 8613 8640 8667 8694 8721 8748 8775 8802 8829 8856 8883 8910 8937 8964 8991 9018 9045 9072 9099 9126 9153 9180 9207 9234 9261 9288 9315 9342 9369 9396 9423 9450 9477 9504 9531 9558 9585 9612 9639 9666 9693 9720 9747 9774 9801 9828 9855 9882 9909 9936 9963 9990 10017 10044 10071 10098 10125 10152 10179 10206 10233 10260 10287 10314 10341 10368 10395 10422 10449 10476 10503 10530 10557 10584 10611 10638 10665 10692 10719 10746 10773 10800 10827 10854 10881 10908 10935 10962 10989 11016 11043 11070 11097 11124 11151 11178 11205 11232 11259 11286 11313 11340 11367 11394 11421 11448 11475 11502 11529 11556 11583 11610 11637 11664 11691 11718 11745 11772 11799 11826 11853 11880 11907 11934 11961 11988 12015 12042 12069 12096 12123 12150 12177 12204 12231 12258 12285 12312 12339 12366 12393 12420 12447 12474 12501 12528 12555 12582 12609 12636 12663 12690 12717 12744 12771 12798 12825 12852 12879 12906 12933 12960 12987 13014 13041 13068 13095 13122 13149 13176 13203 13230 13257 13284 13311 13338 13365 13392 13419 13446 13473 13500 13527 13554 13581 13608 13635 13662 13689 13716 13743 13770 13797 13824 13851 13878 13905 13932 13959 13986 14013 14040 14067 14094 14121 14148 14175 14202 14229 14256 14283 14310 14337 14364 14391 14418 14445 14472 14499 14526 14553 14580 14607 14634 14661 14688 14715 14742 14769 14796 14823 14850 14877 14904 14931 14958 14985 15012 15039 15066 15093 15120 15147 15174 15201 15228 15255 15282 15309 15336 15363 15390 15417 15444 15471 15498 15525 15552 15579 15606 15633 15660 15687 15714 15741 15768 15795 15822 15849 15876 15903 15930 15957 15984 16011 16038 16065 16092 16119 16146 16173 16200 16227 16254 16281 16308 16335 16362 16389 16416 16443 16470 16497 16524 16551 16578 16605 16632 16659 16686 16713 16740 16767 16794 16821 16848 16875 16902 16929 16956 16983 17010 17037 17064 17091 17118 17145 17172 17199 17226 17253 17280 17307 17334 17361 17388 17415 17442 17469 17496 17523 17550 17577 17604 17631 17658 17685 17712 17739 17766 17793 17820 17847 17874 17901 17928 17955 17982 18009 18036 18063 18090 18117 18144 18171 18198 18225 18252 18279 18306 18333 18360 18387 18414 18441 18468 18495 18522 18549 18576 18603 18630 18657 18684 18711 18738 18765 18792 18819 18846 18873 18900 18927 18954 18981 19008 19035 19062 19089 19116 19143 19170 19197 19224 19251 19278 19305 19332 19359 19386 19413 19440 19467 19494 19521 19548 19575 19602 19629 19656 19683 19710 19737 19764 19791 19818 19845 19872 19899 19926 19953 19980 20007 20034 20061 20088 20115 20142 20169 20196 20223 20250 20277 20304 20331 20358 20385 20412 20439 20466 20493 20520 20547 20574 20601 20628 20655 20682 20709 20736 20763 20790 20817 20844 20871 20898 20925 20952 20979 21006 21033 21060 21087 21114 21141 21168 21195 21222 21249 21276 21303 21330 21357 21384 21411 21438 21465 21492 21519 21546 21573 21600 21627 21654 21681 21708 21735 21762 21789 21816 21843 21870 21897 21924 21951 21978 22005 22032 22059 22086 22113 22140 22167 22194 22221 22248 22275 22302 22329 22356 22383 22410 22437 22464 22491 22518 22545 22572 22599 22626 22653 22680 22707 22734 22761 22788 22815 22842 22869 22896 22923 22950 22977 23004 23031 23058 23085 23112 23139 23166 23193 23220 23247 23274 23301 23328 23355 23382 23409 23436 23463 23490 23517 23544 23571 23598 23625 23652 23679 23706 23733 23760 23787 23814 23841 23868 23895 23922 23949 23976 24003 24030 24057 24084 24111 24138 24165 24192 24219 24246 24273 24300 24327 24354 24381 24408 24435 24462 24489 24516 24543 24570 24597 24624 24651 24678 24705 24732 24759 24786 24813 24840 24867 24894 24921 24948 24975 25002 25029 25056 25083 25110 25137 25164 25191 25218 25245 25272 25299 25326 25353 25380 25407 25434 25461 25488 25515 25542 25569 25596 25623 25650 25677 25704 25731 25758 25785 25812 25839 25866 25893 25920 25947 25974 26001 26028 26055 26082 26109 26136 26163 26190 26217 26244 26271 26298 26325 26352 26379 26406 26433 26460 26487 26514 26541 26568 26595 26622 26649 26676 26703 26730 26757 26784 26811 26838 26865 26892 26919 26946 26973 27000 27027 27054 27081 27108 27135 27162 27189 27216 27243 27270 27297 27324 27351 27378 27405 27432 27459 27486 27513 27540 27567 27594 27621 27648 27675 27702 27729 27756 27783 27810 27837 27864 27891 27918 27945 27972 27999 28026 28053 28080 28107 28134 28161 28188 28215 28242 28269 28296 28323 28350 28377 28404 28431 28458 28485 28512 28539 28566 28593 28620 28647 28674 28701 28728 28755 28782 28809 28836 28863 28890 28917 28944 28971 28998 29025 29052 29079 29106 29133 29160 29187 29214 29241 29268 29295 29322 29349 29376 29403 29430 29457 29484 29511 29538 29565 29592 29619 29646 29673 29700 29727 29754 29781 29808 29835 29862 29889 29916 29943 29970 29997 30024 30051 30078 30105 30132 30159 30186 30213 30240 30267 30294 30321 30348 30375 30402 30429 30456 30483 30510 30537 30564 30591 30618 30645 30672 30699 30726 30753 30780 30807 30834 30861 30888 30915 30942 30969 30996 31023 31050 31077 31104 31131 31158 31185 31212 31239 31266 31293 31320 31347 31374 31401 31428 31455 31482 31509 31536 31563 31590 31617 31644 31671 31698 31725 31752 31779 31806 31833 31860 31887 31914 31941 31968 31995 32022 32049 32076 32103 32130 32157 32184 32211 32238 32265 32292 32319 32346 32373 32400 32427 32454 32481 32508 32535 32562 32589 32616 32643 32670 32697 32724 32751 32778 32805 32832 32859 32886 32913 32940 32967 32994 33021 33048 33075 33102 33129 33156 33183 33210 33237 33264 33291 33318 33345 33372 33399 33426 33453 33480 33507 33534 33561 33588 33615 33642 33669 33696 33723 33750 33777 33804 33831 33858 33885 33912 33939 33966 33993 34020 34047 34074 34101 34128 34155 34182 34209 34236 34263 34290 34317 34344 34371 34398 34425 34452 34479 34506 34533 34560 34587 34614 34641 34668 34695 34722 34749 34776 34803 34830 34857 34884 34911 34938 34965 34992 35019 35046 35073 35100 35127 35154 35181 35208 35235 35262 35289 35316 35343 35370 35397 35424 35451 35478 35505 35532 35559 35586 35613 35640 35667 35694 35721 35748 35775 35802 35829 35856 35883 35910 35937 35964 35991 36018 36045 36072 36099 36126 36153 36180 36207 36234 36261 36288 36315 36342 36369 36396 36423 36450 36477 36504 36531 36558 36585 36612 36639 36666 36693 36720 36747 36774 36801 36828 36855 36882 36909 36936 36963 36990 37017 37044 37071 37098 37125 37152 37179 37206 37233 37260 37287 37314 37341 37368 37395 37422 37449 37476 37503 37530 37557 37584 37611 37638 37665 37692 37719 37746 37773 37800 37827 37854 37881 37908 37935 37962 37989 38016 38043 38070 38097 38124 38151 38178 38205 38232 38259 38286 38313 38340 38367 38394 38421 38448 38475 38502 38529 38556 38583 38610 38637 38664 38691 38718 38745 38772 38799 38826 38853 38880 38907 38934 38961 38988 39015 39042 39069 39096 39123 39150 39177 39204 39231 39258 39285 39312 39339 39366 39393 39420 39447 39474 39501 39528 39555 39582 39609 39636 39663 39690 39717 39744 39771 39798 39825 39852 39879 39906 39933 39960 39987 40014 40041 40068 40095 40122 40149 40176 40203 40230 40257 40284 40311 40338 40365 40392 40419 40446 40473 40500 40527 40554 40581 40608 40635 40662 40689 40716 40743 40770 40797 40824 40851 40878 40905 40932 40959 40986 41013 41040 41067 41094 41121 41148 41175 41202 41229 41256 41283 41310 41337 41364 41391 41418 41445 41472 41499 41526 41553 41580 41607 41634 41661 41688 41715 41742 41769 41796 41823 41850 41877 41904 41931 41958 41985 42012 42039 42066 42093 42120 42147 42174 42201 42228 42255 42282 42309 42336 42363 42390 42417 42444 42471 42498 42525 42552 42579 42606 42633 42660 42687 42714 42741 42768 42795 42822 42849 42876 42903 42930 42957 42984 43011 43038 43065 43092 43119 43146 43173 43200 43227 43254 43281 43308 43335 43362 43389 43416 43443 43470 43497 43524 43551 43578 43605 43632 43659 43686 43713 43740 43767 43794 43821 43848 43875 43902 43929 43956 43983 44010 44037 44064 44091 44118 44145 44172 44199 44226 44253 44280 44307 44334 44361 44388 44415 44442 44469 44496 44523 44550 44577 44604 44631 44658 44685 44712 44739 44766 44793 44820 44847 44874 44901 44928 44955 44982 45009 45036 45063 45090 45117 45144 45171 45198 45225 45252 45279 45306 45333 45360 45387 45414 45441 45468 45495 45522 45549 45576 45603 45630 45657 45684 45711 45738 45765 45792 45819 45846 45873 45900 45927 45954 45981 46008 46035 46062 46089 46116 46143 46170 46197 46224 46251 46278 46305 46332 46359 46386 46413 46440 46467 46494 46521 46548 46575 46602 46629 46656 46683 46710 46737 46764 46791 46818 46845 46872 46899 46926 46953 46980 47007 47034 47061 47088 47115 47142 47169 47196 47223 47250 47277 47304 47331 47358 47385 47412 47439 47466 47493 47520 47547 47574 47601 47628 47655 47682 47709 47736 47763 47790 47817 47844 47871 47898 47925 47952 47979 48006 48033 48060 48087 48114 48141 48168 48195 48222 48249 48276 48303 48330 48357 48384 48411 48438 48465 48492 48519 48546 48573 48600 48627 48654 48681 48708 48735 48762 48789 48816 48843 48870 48897 48924 48951 48978 49005 49032 49059 49086 49113 49140 49167 49194 49221 49248 49275 49302 49329 49356 49383 49410 49437 49464 49491 49518 49545 49572 49599 49626 49653 49680 49707 49734 49761 49788 49815 49842 49869 49896 49923 49950 49977 50004 50031 50058 50085 50112 50139 50166 50193 50220 50247 50274 50301 50328 50355 50382 50409 50436 50463 50490 50517 50544 50571 50598 50625 50652 50679 50706 50733 50760 50787 50814 50841 50868 50895 50922 50949 50976 51003 51030 51057 51084 51111 51138 51165 51192 51219 51246 51273 51300 51327 51354 51381 51408 51435 51462 51489 51516 51543 51570 51597 51624 51651 51678 51705 51732 51759 51786 51813 51840 51867 51894 51921 51948 51975 52002 52029 52056 52083 52110 52137 52164 52191 52218 52245 52272 52299 52326 52353 52380 52407 52434 52461 52488 52515 52542 52569 52596 52623 52650 52677 52704 52731 52758 52785 52812 52839 52866 52893 52920 52947 52974 53001 53028 53055 53082 53109 53136 53163 53190 53217 53244 53271 53298 53325 53352 53379 53406 53433 53460 53487 53514 53541 53568 53595 53622 53649 53676 53703 53730 53757 53784 53811 53838 53865 53892 53919 53946 53973 54000 54027 54054 54081 54108 54135 54162 54189 54216 54243 54270 54297 54324 54351 54378 54405 54432 54459 54486 54513 54540 54567 54594 54621 54648 54675 54702 54729 54756 54783 54810 54837 54864 54891 54918 54945 54972 54999 55026 55053 55080 55107 55134 55161 55188 55215 55242 55269 55296 
CONNECTIVITY vtktypeint64
0 1 298 297 33 34 331 330 2673 2674 2675 2676 2681 2682 2683 2684 2677 2678 2679 2680 2689 2687 2686 2688 2685 2690 2691 
1 2 299 298 34 35 332 331 2692 2693 2694 2674 2697 2698 2699 2682 2678 2695 2696 2679 2687 2702 2701 2703 2700 2704 2705 
2 3 300 299 35 36 333 332 2706 2707 2708 2693 2711 2712 2713 2698 2695 2709 2710 2696 2702 2716 2715 2717 2714 2718 2719 
3 4 301 300 36 37 334 333 2720 2721 2722 2707 2725 2726 2727 2712 2709 2723 2724 2710 2716 2730 2729 2731 2728 2732 2733 
4 5 302 301 37 38 335 334 2734 2735 2736 2721 2739 2740 2741 2726 2723 2737 2738 2724 2730 2744 2743 2745 2742 2746 2747 
5 6 303 302 38 39 336 335 2748 2749 2750 2735 2753 2754 2755 2740 2737 2751 2752 2738 2744 2758 2757 2759 2756 2760 2761 
6 7 304 303 39 40 337 336 2762 2763 2764 2749 2767 2768 2769 2754 2751 2765 2766 2752 2758 2772 2771 2773 2770 2774 2775 
7 8 305 304 40 41 338 337 2776 2777 2778 2763 2781 2782 2783 2768 2765 2779 2780 2766 2772 2786 2785 2787 2784 2788 2789 
8 9 306 305 41 42 339 338 2790 2791 2792 2777 2795 2796 2797 2782 2779 2793 2794 2780 2786 2800 2799 2801 2798 2802 2803 
9 10 307 306 42 43 340 339 2804 2805 2806 2791 2809 2810 2811 2796 2793 2807 2808 2794 2800 2814 2813 2815 2812 2816 2817 
10 11 308 307 43 44 341 340 2818 2819 2820 2805 2823 2824 2825 2810 2807 2821 2822 2808 2814 2828 2827 2829 2826 2830 2831 
11 12 309 308 44 45 342 341 2832 2833 2834 2819 2837 2838 2839 2824 2821 2835 2836 2822 2828 2842 2841 2843 2840 2844 2845 
12 13 310 309 45 46 343 342 2846 2847 2848 2833 2851 2852 2853 2838 2835 2849 2850 2836 2842 2856 2855 2857 2854 2858 2859 
13 14 311 310 46 47 344 343 2860 2861 2862 2847 2865 2866 2867 2852 2849 2863 2864 2850 2856 2870 2869 2871 2868 2872 2873 
14 15 312 311 47 48 345 344 2874 2875 2876 2861 2879 2880 2881 2866 2863 2877 2878 2864 2870 2884 2883 2885 2882 2886 2887 
15 16 313 312 48 49 346 345 2888 2889 2890 2875 2893 2894 2895 2880 2877 2891 2892 2878 2884 2898 2897 2899 2896 2900 2901 
16 17 314 313 49 50 347 346 2902 2903 2904 2889 2907 2908 2909 2894 2891 2905 2906 2892 2898 2912 2911 2913 2910 2914 2915 
17 18 315 314 50 51 348 347 2916 2917 2918 2903 2921 2922 2923 2908 2905 2919 2920 2906 2912 2926 2925 2927 2924 2928 2929 
18 19 316 315 51 52 349 348 2930 2931 2932 2917 2935 2936 2937 2922 2919 2933 2934 2920 2926 2940 2939 2941 2938 2942 2943 
19 20 317 316 52 53 350 349 2944 2945 2946 2931 2949 2950 2951 2936 2933 2947 2948 2934 2940 2954 2953 2955 2952 2956 2957 
20 21 318 317 53 54 351 350 2958 2959 2960 2945 2963 2964 2965 2950 2947 2961 2962 2948 2954 2968 2967 2969 2966 2970 2971 
21 22 319 318 54 55 352 351 2972 2973 2974 2959 2977 2978 2979 2964 2961 2975 2976 2962 2968 2982 2981 2983 2980 2984 2985 
22 23 320 319 55 56 353 352 2986 2987 2988 2973 2991 2992 2993 2978 2975 2989 2990 2976 2982 2996 2995 2997 2994 2998 2999 
23 24 321 320 56 57 354 353 3000 3001 3002 2987 3005 3006 3007 2992 2989 3003 3004 2990 2996 3010 3009 3011 3008 3012 3013 
24 25 322 321 57 58 355 354 3014 3015 3016 3001 3019 3020 3021 3006 3003 3017 3018 3004 3010 3024 3023 3025 3022 3026 3027 
25 26 323 322 58 59 356 355 3028 3029 3030 3015 3033 3034 3035 3020 3017 3031 3032 3018 3024 3038 3037 3039 3036 3040 3041 
26 27 324 323 59 60 357 356 3042 3043 3044 3029 3047 3048 3049 3034 3031 3045 3046 3032 3038 3052 3051 3053 3050 3054 3055 
27 28 325 324 60 61 358 357 3056 3057 3058 3043 3061 3062 3063 3048 3045 3059 3060 3046 3052 3066 3065 3067 3064 3068 3069 
28 29 326 325 61 62 359 358 3070 3071 3072 3057 3075 3076 3077 3062 3059 3073 3074 3060 3066 3080 3079 3081 3078 3082 3083 
29 30 327 326 62 63 360 359 3084 3085 3086 3071 3089 3090 3091 3076 3073 3087 3088 3074 3080 3094 3093 3095 3092 3096 3097 
30 31 328 327 63 64 361 360 3098 3099 3100 3085 3103 3104 3105 3090 3087 3101 3102 3088 3094 3108 3107 3109 3106 3110 3111 
31 32 329 328 64 65 362 361 3112 3113 3114 3099 3117 3118 3119 3104 3101 3115 3116 3102 3108 3122 3121 3123 3120 3124 3125 
33 34 331 330 66 67 364 363 2681 2682 2683 2684 3130 3131 3132 3133 3126 3127 3128 3129 3137 3135 3134 3136 2690 3138 3139 
34 35 332 331 67 68 365 364 2697 2698 2699 2682 3142 3143 3144 3131 3127 3140 3141 3128 3135 3146 3145 3147 2704 3148 3149 
35 36 333 332 68 69 366 365 2711 2712 2713 2698 3152 3153 3154 3143 3140 3150 3151 3141 3146 3156 3155 3157 2718 3158 3159 
36 37 334 333 69 70 367 366 2725 2726 2727 2712 3162 3163 3164 3153 3150 3160 3161 3151 3156 3166 3165 3167 2732 3168 3169 
37 38 335 334 70 71 368 367 2739 2740 2741 2726 3172 3173 3174 3163 3160 3170 3171 3161 3166 3176 3175 3177 2746 3178 3179 
38 39 336 335 71 72 369 368 2753 2754 2755 2740 3182 3183 3184 3173 3170 3180 3181 3171 3176 3186 3185 3187 2760 3188 3189 
39 40 337 336 72 73 370 369 2767 2768 2769 2754 3192 3193 3194 3183 3180 3190 3191 3181 3186 3196 3195 3197 2774 3198 3199 
40 41 338 337 73 74 371 370 2781 2782 2783 2768 3202 3203 3204 3193 3190 3200 3201 3191 3196 3206 3205 3207 2788 3208 3209 
41 42 339 338 74 75 372 371 2795 2796 2797 2782 3212 3213 3214 3203 3200 3210 3211 3201 3206 3216 3215 3217 2802 3218 3219 
42 43 340 339 75 76 373 372 2809 2810 2811 2796 3222 3223 3224 3213 3210 3220 3221 3211 3216 3226 3225 3227 2816 3228 3229 
43 44 341 340 76 77 374 373 2823 2824 2825 2810 3232 3233 3234 3223 3220 3230 3231 3221 3226 3236 3235 3237 2830 3238 3239 
44 45 342 341 77 78 375 374 2837 2838 2839 2824 3242 3243 3244 3233 3230 3240 3241 3231 3236 3246 3245 3247 2844 3248 3249 
45 46 343 342 78 79 376 375 2851 2852 2853 2838 3252 3253 3254 3243 3240 3250 3251 3241 3246 3256 3255 3257 2858 3258 3259 
46 47 344 343 79 80 377 376 2865 2866 2867 2852 3262 3263 3264 3253 3250 3260 3261 3251 3256 3266 3265 3267 2872 3268 3269 
47 48 345 344 80 81 378 377 2879 2880 2881 2866 3272 3273 3274 3263 3260 3270 3271 3261 3266 3276 3275 3277 2886 3278 3279 
48 49 346 345 81 82 379 378 2893 2894 2895 2880 3282 3283 3284 3273 3270 3280 3281 3271 3276 3286 3285 3287 2900 3288 3289 
49 50 347 346 82 83 380 379 2907 2908 2909 2894 3292 3293 3294 3283 3280 3290 3291 3281 3286 3296 3295 3297 2914 3298 3299 
50 51 348 347 83 84 381 380 2921 2922 2923 2908 3302 3303 3304 3293 3290 3300 3301 3291 3296 3306 3305 3307 2928 3308 3309 
51 52 349 348 84 85 382 381 2935 2936 2937 2922 3312 3313 3314 3303 3300 3310 3311 3301 3306 3316 3315 3317 2942 3318 3319 
52 53 350 349 85 86 383 382 2949 2950 2951 2936 3322 3323 3324 3313 3310 3320 3321 3311 3316 3326 3325 3327 2956 3328 3329 
53 54 351 350 86 87 384 383 2963 2964 2965 2950 3332 3333 3334 3323 3320 3330 3331 3321 3326 3336 3335 3337 2970 3338 3339 
54 55 352 351 87 88 385 384 2977 2978 2979 2964 3342 3343 3344 3333 3330 3340 3341 3331 3336 3346 3345 3347 2984 3348 3349 
55 56 353 352 88 89 386 385 2991 2992 2993 2978 3352 3353 3354 3343 3340 3350 3351 3341 3346 3356 3355 3357 2998 3358 3359 
56 57 354 353 89 90 387 386 3005 3006 3007 2992 3362 3363 3364 3353 3350 3360 3361 3351 3356 3366 3365 3367 3012 3368 3369 
57 58 355 354 90 91 388 387 3019 3020 3021 3006 3372 3373 3374 3363 3360 3370 3371 3361 3366 3376 3375 3377 3026 3378 3379 
58 59 356 355 91 92 389 388 3033 3034 3035 3020 3382 3383 3384 3373 3370 3380 3381 3371 3376 3386 3385 3387 3040 3388 3389 
59 60 357 356 92 93 390 389 3047 3048 3049 3034 3392 3393 3394 3383 3380 3390 3391 3381 3386 3396 3395 3397 3054 3398 3399 
60 61 358 357 93 94 391 390 3061 3062 3063 3048 3402 3403 3404 3393 3390 3400 3401 3391 3396 3406 3405 3407 3068 3408 3409 
61 62 359 358 94 95 392 391 3075 3076 3077 3062 3412 3413 3414 3403 3400 3410 3411 3401 3406 3416 3415 3417 3082 3418 3419 
62 63 360 359 95 96 393 392 3089 3090 3091 3076 3422 3423 3424 3413 3410 3420 3421 3411 3416 3426 3425 3427 3096 3428 3429 
63 64 361 360 96 97 394 393 3103 3104 3105 3090 3432 3433 3434 3423 3420 3430 3431 3421 3426 3436 3435 3437 3110 3438 3439 
64 65 362 361 97 98 395 394 3117 3118 3119 3104 3442 3443 3444 3433 3430 3440 3441 3431 3436 3446 3445 3447 3124 3448 3449 
66 67 364 363 99 100 397 396 3130 3131 3132 3133 3454 3455 3456 3457 3450 3451 3452 3453 3461 3459 3458 3460 3138 3462 3463 
67 68 365 364 100 101 398 397 3142 3143 3144 3131 3466 3467 3468 3455 3451 3464 3465 3452 3459 3470 3469 3471 3148 3472 3473 
68 69 366 365 101 102 399 398 3152 3153 3154 3143 3476 3477 3478 3467 3464 3474 3475 3465 3470 3480 3479 3481 3158 3482 3483 
69 70 367 366 102 103 400 399 3162 3163 3164 3153 3486 3487 3488 3477 3474 3484 3485 3475 3480 3490 3489 3491 3168 3492 3493 
70 71 368 367 103 104 401 400 3172 3173 3174 3163 3496 3497 3498 3487 3484 3494 3495 3485 3490 3500 3499 3501 3178 3502 3503 
71 72 369 368 104 105 402 401 3182 3183 3184 3173 3506 3507 3508 3497 3494 3504 3505 3495 3500 3510 3509 3511 3188 3512 3513 
72 73 370 369 105 106 403 402 3192 3193 3194 3183 3516 3517 3518 3507 3504 3514 3515 3505 3510 3520 3519 3521 3198 3522 3523 
73 74 371 370 106 107 404 403 3202 3203 3204 3193 3526 3527 3528 3517 3514 3524 3525 3515 3520 3530 3529 3531 3208 3532 3533 
74 75 372 371 107 108 405 404 3212 3213 3214 3203 3536 3537 3538 3527 3524 3534 3535 3525 3530 3540 3539 3541 3218 3542 3543 
75 76 373 372 108 109 406 405 3222 3223 3224 3213 3546 3547 3548 3537 3534 3544 3545 3535 3540 3550 3549 3551 3228 3552 3553 
76 77 374 373 109 110 407 406 3232 3233 3234 3223 3556 3557 3558 3547 3544 3554 3555 3545 3550 3560 3559 3561 3238 3562 3563 
77 78 375 374 110 111 408 407 3242 3243 3244 3233 3566 3567 3568 3557 3554 3564 3565 3555 3560 3570 3569 3571 3248 3572 3573 
78 79 376 375 111 112 409 408 3252 3253 3254 3243 3576 3577 3578 3567 3564 3574 3575 3565 3570 3580 3579 3581 3258 3582 3583 
79 80 377 376 112 113 410 409 3262 3263 3264 3253 3586 3587 3588 3577 3574 3584 3585 3575 3580 3590 3589 3591 3268 3592 3593 
80 81 378 377 113 114 411 410 3272 3273 3274 3263 3596 3597 3598 3587 3584 3594 3595 3585 3590 3600 3599 3601 3278 3602 3603 
81 82 379 378 114 115 412 411 3282 3283 3284 3273 3606 3607 3608 3597 3594 3604 3605 3595 3600 3610 3609 3611 3288 3612 3613 
82 83 380 379 115 116 413 412 3292 3293 3294 3283 3616 3617 3618 3607 3604 3614 3615 3605 3610 3620 3619 3621 3298 3622 3623 
83 84 381 380 116 117 414 413 3302 3303 3304 3293 3626 3627 3628 3617 3614 3624 3625 3615 3620 3630 3629 3631 3308 3632 3633 
84 85 382 381 117 118 415 414 3312 3313 3314 3303 3636 3637 3638 3627 3624 3634 3635 3625 3630 3640 3639 3641 3318 3642 3643 
85 86 383 382 118 119 416 415 3322 3323 3324 3313 3646 3647 3648 3637 3634 3644 3645 3635 3640 3650 3649 3651 3328 3652 3653 
86 87 384 383 119 120 417 416 3332 3333 3334 3323 3656 3657 3658 3647 3644 3654 3655 3645 3650 3660 3659 3661 3338 3662 3663 
87 88 385 384 120 121 418 417 3342 3343 3344 3333 3666 3667 3668 3657 3654 3664 3665 3655 3660 3670 3669 3671 3348 3672 3673 
88 89 386 385 121 122 419 418 3352 3353 3354 3343 3676 3677 3678 3667 3664 3674 3675 3665 3670 3680 3679 3681 3358 3682 3683 
89 90 387 386 122 123 420 419 3362 3363 3364 3353 3686 3687 3688 3677 3674 3684 3685 3675 3680 3690 3689 3691 3368 3692 3693 
90 91 388 387 123 124 421 420 3372 3373 3374 3363 3696 3697 3698 3687 3684 3694 3695 3685 3690 3700 3699 3701 3378 3702 3703 
91 92 389 388 124 125 422 421 3382 3383 3384 3373 3706 3707 3708 3697 3694 3704 3705 3695 3700 3710 3709 3711 3388 3712 3713 
92 93 390 389 125 126 423 422 3392 3393 3394 3383 3716 3717 3718 3707 3704 3714 3715 3705 3710 3720 3719 3721 3398 3722 3723 
93 94 391 390 126 127 424 423 3402 3403 3404 3393 3726 3727 3728 3717 3714 3724 3725 3715 3720 3730 3729 3731 3408 3732 3733 
94 95 392 391 127 128 425 424 3412 3413 3414 3403 3736 3737 3738 3727 3724 3734 3735 3725 3730 3740 3739 3741 3418 3742 3743 
95 96 393 392 128 129 426 425 3422 3423 3424 3413 3746 3747 3748 3737 3734 3744 3745 3735 3740 3750 3749 3751 3428 3752 3753 
96 97 394 393 129 130 427 426 3432 3433 3434 3423 3756 3757 3758 3747 3744 3754 3755 3745 3750 3760 3759 3761 3438 3762 3763 
97 98 395 394 130 131 428 427 3442 3443 3444 3433 3766 3767 3768 3757 3754 3764 3765 3755 3760 3770 3769 3771 3448 3772 3773 
99 100 397 396 132 133 430 429 3454 3455 3456 3457 3778 3779 3780 3781 3774 3775 3776 3777 3785 3783 3782 3784 3462 3786 3787 
100 101 398 397 133 134 431 430 3466 3467 3468 3455 3790 3791 3792 3779 3775 3788 3789 3776 3783 3794 3793 3795 3472 3796 3797 
101 102 399 398 134 135 432 431 3476 3477 3478 3467 3800 3801 3802 3791 3788 3798 3799 3789 3794 3804 3803 3805 3482 3806 3807 
102 103 400 399 135 136 433 432 3486 3487 3488 3477 3810 3811 3812 3801 3798 3808 3809 3799 3804 3814 3813 3815 3492 3816 3817 
103 104 401 400 136 137 434 433 3496 3497 3498 3487 3820 3821 3822 3811 3808 3818 3819 3809 3814 3824 3823 3825 3502 3826 3827 
104 105 402 401 137 138 435 434 3506 3507 3508 3497 3830 3831 3832 3821 3818 3828 3829 3819 3824 3834 3833 3835 3512 3836 3837 
105 106 403 402 138 139 436 435 3516 3517 3518 3507 3840 3841 3842 3831 3828 3838 3839 3829 3834 3844 3843 3845 3522 3846 3847 
106 107 404 403 139 140 437 436 3526 3527 3528 3517 3850 3851 3852 3841 3838 3848 3849 3839 3844 3854 3853 3855 3532 3856 3857 
107 108 405 404 140 141 438 437 3536 3537 3538 3527 3860 3861 3862 3851 3848 3858 3859 3849 3854 3864 3863 3865 3542 3866 3867 
108 109 406 405 141 142 439 438 3546 3547 3548 3537 3870 3871 3872 3861 3858 3868 3869 3859 3864 3874 3873 3875 3552 3876 3877 
109 110 407 406 142 143 440 439 3556 3557 3558 3547 3880 3881 3882 3871 3868 3878 3879 3869 3874 3884 3883 3885 3562 3886 3887 
110 111 408 407 143 144 441 440 3566 3567 3568 3557 3890 3891 3892 3881 3878 3888 3889 3879 3884 3894 3893 3895 3572 3896 3897 
111 112 409 408 144 145 442 441 3576 3577 3578 3567 3900 3901 3902 3891 3888 3898 3899 3889 3894 3904 3903 3905 3582 3906 3907 
112 113 410 409 145 146 443 442 3586 3587 3588 3577 3910 3911 3912 3901 3898 3908 3909 3899 3904 3914 3913 3915 3592 3916 3917 
113 114 411 410 146 147 444 443 3596 3597 3598 3587 3920 3921 3922 3911 3908 3918 3919 3909 3914 3924 3923 3925 3602 3926 3927 
114 115 412 411 147 148 445 444 3606 3607 3608 3597 3930 3931 3932 3921 3918 3928 3929 3919 3924 3934 3933 3935 3612 3936 3937 
115 116 413 412 148 149 446 445 3616 3617 3618 3607 3940 3941 3942 3931 3928 3938 3939 3929 3934 3944 3943 3945 3622 3946 3947 
116 117 414 413 149 150 447 446 3626 3627 3628 3617 3950 3951 3952 3941 3938 3948 3949 3939 3944 3954 3953 3955 3632 3956 3957 
117 118 415 414 150 151 448 447 3636 3637 3638 3627 3960 3961 3962 3951 3948 3958 3959 3949 3954 3964 3963 3965 3642 3966 3967 
118 119 416 415 151 152 449 448 3646 3647 3648 3637 3970 3971 3972 3961 3958 3968 3969 3959 3964 3974 3973 3975 3652 3976 3977 
119 120 417 416 152 153 450 449 3656 3657 3658 3647 3980 3981 3982 3971 3968 3978 3979 3969 3974 3984 3983 3985 3662 3986 3987 
120 121 418 417 153 154 451 450 3666 3667 3668 3657 3990 3991 3992 3981 3978 3988 3989 3979 3984 3994 3993 3995 3672 3996 3997 
121 122 419 418 154 155 452 451 3676 3677 3678 3667 4000 4001 4002 3991 3988 3998 3999 3989 3994 4004 4003 4005 3682 4006 4007 
122 123 420 419 155 156 453 452 3686 3687 3688 3677 4010 4011 4012 4001 3998 4008 4009 3999 4004 4014 4013 4015 3692 4016 4017 
123 124 421 420 156 157 454 453 3696 3697 3698 3687 4020 4021 4022 4011 4008 4018 4019 4009 4014 4024 4023 4025 3702 4026 4027 
124 125 422 421 157 158 455 454 3706 3707 3708 3697 4030 4031 4032 4021 4018 4028 4029 4019 4024 4034 4033 4035 3712 4036 4037 
125 126 423 422 158 159 456 455 3716 3717 3718 3707 4040 4041 4042 4031 4028 4038 4039 4029 4034 4044 4043 4045 3722 4046 4047 
126 127 424 423 159 160 457 456 3726 3727 3728 3717 4050 4051 4052 4041 4038 4048 4049 4039 4044 4054 4053 4055 3732 4056 4057 
127 128 425 424 160 161 458 457 3736 3737 3738 3727 4060 4061 4062 4051 4048 4058 4059 4049 4054 4064 4063 4065 3742 4066 4067 
128 129 426 425 161 162 459 458 3746 3747 3748 3737 4070 4071 4072 4061 4058 4068 4069 4059 4064 4074 4073 4075 3752 4076 4077 
129 130 427 426 162 163 460 459 3756 3757 3758 3747 4080 4081 4082 4071 4068 4078 4079 4069 4074 4084 4083 4085 3762 4086 4087 
130 131 428 427 163 164 461 460 3766 3767 3768 3757 4090 4091 4092 4081 4078 4088 4089 4079 4084 4094 4093 4095 3772 4096 4097 
132 133 430 429 165 166 463 462 3778 3779 3780 3781 4102 4103 4104 4105 4098 4099 4100 4101 4109 4107 4106 4108 3786 4110 4111 
133 134 431 430 166 167 464 463 3790 3791 3792 3779 4114 4115 4116 4103 4099 4112 4113 4100 4107 4118 4117 4119 3796 4120 4121 
134 135 432 431 167 168 465 464 3800 3801 3802 3791 4124 4125 4126 4115 4112 4122 4123 4113 4118 4128 4127 4129 3806 4130 4131 
135 136 433 432 168 169 466 465 3810 3811 3812 3801 4134 4135 4136 4125 4122 4132 4133 4123 4128 4138 4137 4139 3816 4140 4141 
136 137 434 433 169 170 467 466 3820 3821 3822 3811 4144 4145 4146 4135 4132 4142 4143 4133 4138 4148 4147 4149 3826 4150 4151 
137 138 435 434 170 171 468 467 3830 3831 3832 3821 4154 4155 4156 4145 4142 4152 4153 4143 4148 4158 4157 4159 3836 4160 4161 
138 139 436 435 171 172 469 468 3840 3841 3842 3831 4164 4165 4166 4155 4152 4162 4163 4153 4158 4168 4167 4169 3846 4170 4171 
139 140 437 436 172 173 470 469 3850 3851 3852 3841 4174 4175 4176 4165 4162 4172 4173 4163 4168 4178 4177 4179 3856 4180 4181 
140 141 438 437 173 174 471 470 3860 3861 3862 3851 4184 4185 4186 4175 4172 4182 4183 4173 4178 4188 4187 4189 3866 4190 4191 
141 142 439 438 174 175 472 471 3870 3871 3872 3861 4194 4195 4196 4185 4182 4192 4193 4183 4188 4198 4197 4199 3876 4200 4201 
142 143 440 439 175 176 473 472 3880 3881 3882 3871 4204 4205 4206 4195 4192 4202 4203 4193 4198 4208 4207 4209 3886 4210 4211 
143 144 441 440 176 177 474 473 3890 3891 3892 3881 4214 4215 4216 4205 4202 4212 4213 4203 4208 4218 4217 4219 3896 4220 4221 
144 145 442 441 177 178 475 474 3900 3901 3902 3891 4224 4225 4226 4215 4212 4222 4223 4213 4218 4228 4227 4229 3906 4230 4231 
145 146 443 442 178 179 476 475 3910 3911 3912 3901 4234 4235 4236 4225 4222 4232 4233 4223 4228 4238 4237 4239 3916 4240 4241 
146 147 444 443 179 180 477 476 3920 3921 3922 3911 4244 4245 4246 4235 4232 4242 4243 4233 4238 4248 4247 4249 3926 4250 4251 
147 148 445 444 180 181 478 477 3930 3931 3932 3921 4254 4255 4256 4245 4242 4252 4253 4243 4248 4258 4257 4259 3936 4260 4261 
148 149 446 445 181 182 479 478 3940 3941 3942 3931 4264 4265 4266 4255 4252 4262 4263 4253 4258 4268 4267 4269 3946 4270 4271 
149 150 447 446 182 183 480 479 3950 3951 3952 3941 4274 4275 4276 4265 4262 4272 4273 4263 4268 4278 4277 4279 3956 4280 4281 
150 151 448 447 183 184 481 480 3960 3961 3962 3951 4284 4285 4286 4275 4272 4282 4283 4273 4278 4288 4287 4289 3966 4290 4291 
151 152 449 448 184 185 482 481 3970 3971 3972 3961 4294 4295 4296 4285 4282 4292 4293 4283 4288 4298 4297 4299 3976 4300 4301 
152 153 450 449 185 186 483 482 3980 3981 3982 3971 4304 4305 4306 4295 4292 4302 4303 4293 4298 4308 4307 4309 3986 4310 4311 
153 154 451 450 186 187 484 483 3990 3991 3992 3981 4314 4315 4316 4305 4302 4312 4313 4303 4308 4318 4317 4319 3996 4320 4321 
154 155 452 451 187 188 485 484 4000 4001 4002 3991 4324 4325 4326 4315 4312 4322 4323 4313 4318 4328 4327 4329 4006 4330 4331 
155 156 453 452 188 189 486 485 4010 4011 4012 4001 4334 4335 4336 4325 4322 4332 4333 4323 4328 4338 4337 4339 4016 4340 4341 
156 157 454 453 189 190 487 486 4020 4021 4022 4011 4344 4345 4346 4335 4332 4342 4343 4333 4338 4348 4347 4349 4026 4350 4351 
157 158 455 454 190 191 488 487 4030 4031 4032 4021 4354 4355 4356 4345 4342 4352 4353 4343 4348 4358 4357 4359 4036 4360 4361 
158 159 456 455 191 192 489 488 4040 4041 4042 4031 4364 4365 4366 4355 4352 4362 4363 4353 4358 4368 4367 4369 4046 4370 4371 
159 160 457 456 192 193 490 489 4050 4051 4052 4041 4374 4375 4376 4365 4362 4372 4373 4363 4368 4378 4377 4379 4056 4380 4381 
160 161 458 457 193 194 491 490 4060 4061 4062 4051 4384 4385 4386 4375 4372 4382 4383 4373 4378 4388 4387 4389 4066 4390 4391 
161 162 459 458 194 195 492 491 4070 4071 4072 4061 4394 4395 4396 4385 4382 4392 4393 4383 4388 4398 4397 4399 4076 4400 4401 
162 163 460 459 195 196 493 492 4080 4081 4082 4071 4404 4405 4406 4395 4392 4402 4403 4393 4398 4408 4407 4409 4086 4410 4411 
163 164 461 460 196 197 494 493 4090 4091 4092 4081 4414 4415 4416 4405 4402 4412 4413 4403 4408 4418 4417 4419 4096 4420 4421 
165 166 463 462 198 199 496 495 4102 4103 4104 4105 4426 4427 4428 4429 4422 4423 4424 4425 4433 4431 4430 4432 4110 4434 4435 
166 167 464 463 199 200 497 496 4114 4115 4116 4103 4438 4439 4440 4427 4423 4436 4437 4424 4431 4442 4441 4443 4120 4444 4445 
167 168 465 464 200 201 498 497 4124 4125 4126 4115 4448 4449 4450 4439 4436 4446 4447 4437 4442 4452 4451 4453 4130 4454 4455 
168 169 466 465 201 202 499 498 4134 4135 4136 4125 4458 4459 4460 4449 4446 4456 4457 4447 4452 4462 4461 4463 4140 4464 4465 
169 170 467 466 202 203 500 499 4144 4145 4146 4135 4468 4469 4470 4459 4456 4466 4467 4457 4462 4472 4471 4473 4150 4474 4475 
170 171 468 467 203 204 501 500 4154 4155 4156 4145 4478 4479 4480 4469 4466 4476 4477 4467 4472 4482 4481 4483 4160 4484 4485 
171 172 469 468 204 205 502 501 4164 4165 4166 4155 4488 4489 4490 4479 4476 4486 4487 4477 4482 4492 4491 4493 4170 4494 4495 
172 173 470 469 205 206 503 502 4174 4175 4176 4165 4498 4499 4500 4489 4486 4496 4497 4487 4492 4502 4501 4503 4180 4504 4505 
173 174 471 470 206 207 504 503 4184 4185 4186 4175 4508 4509 4510 4499 4496 4506 4507 4497 4502 4512 4511 4513 4190 4514 4515 
174 175 472 471 207 208 505 504 4194 4195 4196 4185 4518 4519 4520 4509 4506 4516 4517 4507 4512 4522 4521 4523 4200 4524 4525 
175 176 473 472 208 209 506 505 4204 4205 4206 4195 4528 4529 4530 4519 4516 4526 4527 4517 4522 4532 4531 4533 4210 4534 4535 
176 177 474 473 209 210 507 506 4214 4215 4216 4205 4538 4539 4540 4529 4526 4536 4537 4527 4532 4542 4541 4543 4220 4544 4545 
177 178 475 474 210 211 508 507 4224 4225 4226 4215 4548 4549 4550 4539 4536 4546 4547 4537 4542 4552 4551 4553 4230 4554 4555 
178 179 476 475 211 212 509 508 4234 4235 4236 4225 4558 4559 4560 4549 4546 4556 4557 4547 4552 4562 4561 4563 4240 4564 4565 
179 180 477 476 212 213 510 509 4244 4245 4246 4235 4568 4569 4570 4559 4556 4566 4567 4557 4562 4572 4571 4573 4250 4574 4575 
180 181 478 477 213 214 511 510 4254 4255 4256 4245 4578 4579 4580 4569 4566 4576 4577 4567 4572 4582 4581 4583 4260 4584 4585 
181 182 479 478 214 215 512 511 4264 4265 4266 4255 4588 4589 4590 4579 4576 4586 4587 4577 4582 4592 4591 4593 4270 4594 4595 
182 183 480 479 215 216 513 512 4274 4275 4276 4265 4598 4599 4600 4589 4586 4596 4597 4587 4592 4602 4601 4603 4280 4604 4605 
183 184 481 480 216 217 514 513 4284 4285 4286 4275 4608 4609 4610 4599 4596 4606 4607 4597 4602 4612 4611 4613 4290 4614 4615 
184 185 482 481 217 218 515 514 4294 4295 4296 4285 4618 4619 4620 4609 4606 4616 4617 4607 4612 4622 4621 4623 4300 4624 4625 
185 186 483 482 218 219 516 515 4304 4305 4306 4295 4628 4629 4630 4619 4616 4626 4627 4617 4622 4632 4631 4633 4310 4634 4635 
186 187 484 483 219 220 517 516 4314 4315 4316 4305 4638 4639 4640 4629 4626 4636 4637 4627 4632 4642 4641 4643 4320 4644 4645 
187 188 485 484 220 221 518 517 4324 4325 4326 4315 4648 4649 4650 4639 4636 4646 4647 4637 4642 4652 4651 4653 4330 4654 4655 
188 189 486 485 221 222 519 518 4334 4335 4336 4325 4658 4659 4660 4649 4646 4656 4657 4647 4652 4662 4661 4663 4340 4664 4665 
189 190 487 486 222 223 520 519 4344 4345 4346 4335 4668 4669 4670 4659 4656 4666 4667 4657 4662 4672 4671 4673 4350 4674 4675 
190 191 488 487 223 224 521 520 4354 4355 4356 4345 4678 4679 4680 4669 4666 4676 4677 4667 4672 4682 4681 4683 4360 4684 4685 
191 192 489 488 224 225 522 521 4364 4365 4366 4355 4688 4689 4690 4679 4676 4686 4687 4677 4682 4692 4691 4693 4370 4694 4695 
192 193 490 489 225 226 523 522 4374 4375 4376 4365 4698 4699 4700 4689 4686 4696 4697 4687 4692 4702 4701 4703 4380 4704 4705 
193 194 491 490 226 227 524 523 4384 4385 4386 4375 4708 4709 4710 4699 4696 4706 4707 4697 4702 4712 4711 4713 4390 4714 4715 
194 195 492 491 227 228 525 524 4394 4395 4396 4385 4718 4719 4720 4709 4706 4716 4717 4707 4712 4722 4721 4723 4400 4724 4725 
195 196 493 492 228 229 526 525 4404 4405 4406 4395 4728 4729 4730 4719 4716 4726 4727 4717 4722 4732 4731 4733 4410 4734 4735 
196 197 494 493 229 230 527 526 4414 4415 4416 4405 4738 4739 4740 4729 4726 4736 4737 4727 4732 4742 4741 4743 4420 4744 4745 
198 199 496 495 231 232 529 528 4426 4427 4428 4429 4750 4751 4752 4753 4746 4747 4748 4749 4757 4755 4754 4756 4434 4758 4759 
199 200 497 496 232 233 530 529 4438 4439 4440 4427 4762 4763 4764 4751 4747 4760 4761 4748 4755 4766 4765 4767 4444 4768 4769 
200 201 498 497 233 234 531 530 4448 4449 4450 4439 4772 4773 4774 4763 4760 4770 4771 4761 4766 4776 4775 4777 4454 4778 4779 
201 202 499 498 234 235 532 531 4458 4459 4460 4449 4782 4783 4784 4773 4770 4780 4781 4771 4776 4786 4785 4787 4464 4788 4789 
202 203 500 499 235 236 533 532 4468 4469 4470 4459 4792 4793 4794 4783 4780 4790 4791 4781 4786 4796 4795 4797 4474 4798 4799 
203 204 501 500 236 237 534 533 4478 4479 4480 4469 4802 4803 4804 4793 4790 4800 4801 4791 4796 4806 4805 4807 4484 4808 4809 
204 205 502 501 237 238 535 534 4488 4489 4490 4479 4812 4813 4814 4803 4800 4810 4811 4801 4806 4816 4815 4817 4494 4818 4819 
205 206 503 502 238 239 536 535 4498 4499 4500 4489 4822 4823 4824 4813 4810 4820 4821 4811 4816 4826 4825 4827 4504 4828 4829 
206 207 504 503 239 240 537 536 4508 4509 4510 4499 4832 4833 4834 4823 4820 4830 4831 4821 4826 4836 4835 4837 4514 4838 4839 
207 208 505 504 240 241 538 537 4518 4519 4520 4509 4842 4843 4844 4833 4830 4840 4841 4831 4836 4846 4845 4847 4524 4848 4849 
208 209 506 505 241 242 539 538 4528 4529 4530 4519 4852 4853 4854 4843 4840 4850 4851 4841 4846 4856 4855 4857 4534 4858 4859 
209 210 507 506 242 243 540 539 4538 4539 4540 4529 4862 4863 4864 4853 4850 4860 4861 4851 4856 4866 4865 4867 4544 4868 4869 
210 211 508 507 243 244 541 540 4548 4549 4550 4539 4872 4873 4874 4863 4860 4870 4871 4861 4866 4876 4875 4877 4554 4878 4879 
211 212 509 508 244 245 542 541 4558 4559 4560 4549 4882 4883 4884 4873 4870 4880 4881 4871 4876 4886 4885 4887 4564 4888 4889 
212 213 510 509 245 246 543 542 4568 4569 4570 4559 4892 4893 4894 4883 4880 4890 4891 4881 4886 4896 4895 4897 4574 4898 4899 
213 214 511 510 246 247 544 543 4578 4579 4580 4569 4902 4903 4904 4893 4890 4900 4901 4891 4896 4906 4905 4907 4584 4908 4909 
214 215 512 511 247 248 545 544 4588 4589 4590 4579 4912 4913 4914 4903 4900 4910 4911 4901 4906 4916 4915 4917 4594 4918 4919 
215 216 513 512 248 249 546 545 4598 4599 4600 4589 4922 4923 4924 4913 4910 4920 4921 4911 4916 4926 4925 4927 4604 4928 4929 
216 217 514 513 249 250 547 546 4608 4609 4610 4599 4932 4933 4934 4923 4920 4930 4931 4921 4926 4936 4935 4937 4614 4938 4939 
217 218 515 514 250 251 548 547 4618 4619 4620 4609 4942 4943 4944 4933 4930 4940 4941 4931 4936 4946 4945 4947 4624 4948 4949 
218 219 516 515 251 252 549 548 4628 4629 4630 4619 4952 4953 4954 4943 4940 4950 4951 4941 4946 4956 4955 4957 4634 4958 4959 
219 220 517 516 252 253 550 549 4638 4639 4640 4629 4962 4963 4964 4953 4950 4960 4961 4951 4956 4966 4965 4967 4644 4968 4969 
220 221 518 517 253 254 551 550 4648 4649 4650 4639 4972 4973 4974 4963 4960 4970 4971 4961 4966 4976 4975 4977 4654 4978 4979 
221 222 519 518 254 255 552 551 4658 4659 4660 4649 4982 4983 4984 4973 4970 4980 4981 4971 4976 4986 4985 4987 4664 4988 4989 
222 223 520 519 255 256 553 552 4668 4669 4670 4659 4992 4993 4994 4983 4980 4990 4991 4981 4986 4996 4995 4997 4674 4998 4999 
223 224 521 520 256 257 554 553 4678 4679 4680 4669 5002 5003 5004 4993 4990 5000 5001 4991 4996 5006 5005 5007 4684 5008 5009 
224 225 522 521 257 258 555 554 4688 4689 4690 4679 5012 5013 5014 5003 5000 5010 5011 5001 5006 5016 5015 5017 4694 5018 5019 
225 226 523 522 258 259 556 555 4698 4699 4700 4689 5022 5023 5024 5013 5010 5020 5021 5011 5016 5026 5025 5027 4704 5028 5029 
226 227 524 523 259 260 557 556 4708 4709 4710 4699 5032 5033 5034 5023 5020 5030 5031 5021 5026 5036 5035 5037 4714 5038 5039 
227 228 525 524 260 261 558 557 4718 4719 4720 4709 5042 5043 5044 5033 5030 5040 5041 5031 5036 5046 5045 5047 4724 5048 5049 
228 229 526 525 261 262 559 558 4728 4729 4730 4719 5052 5053 5054 5043 5040 5050 5051 5041 5046 5056 5055 5057 4734 5058 5059 
229 230 527 526 262 263 560 559 4738 4739 4740 4729 5062 5063 5064 5053 5050 5060 5061 5051 5056 5066 5065 5067 4744 5068 5069 
231 232 529 528 264 265 562 561 4750 4751 4752 4753 5074 5075 5076 5077 5070 5071 5072 5073 5081 5079 5078 5080 4758 5082 5083 
232 233 530 529 265 266 563 562 4762 4763 4764 4751 5086 5087 5088 5075 5071 5084 5085 5072 5079 5090 5089 5091 4768 5092 5093 
233 234 531 530 266 267 564 563 4772 4773 4774 4763 5096 5097 5098 5087 5084 5094 5095 5085 5090 5100 5099 5101 4778 5102 5103 
234 235 532 531 267 268 565 564 4782 4783 4784 4773 5106 5107 5108 5097 5094 5104 5105 5095 5100 5110 5109 5111 4788 5112 5113 
235 236 533 532 268 269 566 565 4792 4793 4794 4783 5116 5117 5118 5107 5104 5114 5115 5105 5110 5120 5119 5121 4798 5122 5123 
236 237 534 533 269 270 567 566 4802 4803 4804 4793 5126 5127 5128 5117 5114 5124 5125 5115 5120 5130 5129 5131 4808 5132 5133 
237 238 535 534 270 271 568 567 4812 4813 4814 4803 5136 5137 5138 5127 5124 5134 5135 5125 5130 5140 5139 5141 4818 5142 5143 
238 239 536 535 271 272 569 568 4822 4823 4824 4813 5146 5147 5148 5137 5134 5144 5145 5135 5140 5150 5149 5151 4828 5152 5153 
239 240 537 536 272 273 570 569 4832 4833 4834 4823 5156 5157 5158 5147 5144 5154 5155 5145 5150 5160 5159 5161 4838 5162 5163 
240 241 538 537 273 274 571 570 4842 4843 4844 4833 5166 5167 5168 5157 5154 5164 5165 5155 5160 5170 5169 5171 4848 5172 5173 
241 242 539 538 274 275 572 571 4852 4853 4854 4843 5176 5177 5178 5167 5164 5174 5175 5165 5170 5180 5179 5181 4858 5182 5183 
242 243 540 539 275 276 573 572 4862 4863 4864 4853 5186 5187 5188 5177 5174 5184 5185 5175 5180 5190 5189 5191 4868 5192 5193 
243 244 541 540 276 277 574 573 4872 4873 4874 4863 5196 5197 5198 5187 5184 5194 5195 5185 5190 5200 5199 5201 4878 5202 5203 
244 245 542 541 277 278 575 574 4882 4883 4884 4873 5206 5207 5208 5197 5194 5204 5205 5195 5200 5210 5209 5211 4888 5212 5213 
245 246 543 542 278 279 576 575 4892 4893 4894 4883 5216 5217 5218 5207 5204 5214 5215 5205 5210 5220 5219 5221 4898 5222 5223 
246 247 544 543 279 280 577 576 4902 4903 4904 4893 5226 5227 5228 5217 5214 5224 5225 5215 5220 5230 5229 5231 4908 5232 5233 
247 248 545 544 280 281 578 577 4912 4913 4914 4903 5236 5237 5238 5227 5224 5234 5235 5225 5230 5240 5239 5241 4918 5242 5243 
248 249 546 545 281 282 579 578 4922 4923 4924 4913 5246 5247 5248 5237 5234 5244 5245 5235 5240 5250 5249 5251 4928 5252 5253 
249 250 547 546 282 283 580 579 4932 4933 4934 4923 5256 5257 5258 5247 5244 5254 5255 5245 5250 5260 5259 5261 4938 5262 5263 
250 251 548 547 283 284 581 580 4942 4943 4944 4933 5266 5267 5268 5257 5254 5264 5265 5255 5260 5270 5269 5271 4948 5272 5273 
251 252 549 548 284 285 582 581 4952 4953 4954 4943 5276 5277 5278 5267 5264 5274 5275 5265 5270 5280 5279 5281 4958 5282 5283 
252 253 550 549 285 286 583 582 4962 4963 4964 4953 5286 5287 5288 5277 5274 5284 5285 5275 5280 5290 5289 5291 4968 5292 5293 
253 254 551 550 286 287 584 583 4972 4973 4974 4963 5296 5297 5298 5287 5284 5294 5295 5285 5290 5300 5299 5301 4978 5302 5303 
254 255 552 551 287 288 585 584 4982 4983 4984 4973 5306 5307 5308 5297 5294 5304 5305 5295 5300 5310 5309 5311 4988 5312 5313 
255 256 553 552 288 289 586 585 4992 4993 4994 4983 5316 5317 5318 5307 5304 5314 5315 5305 5310 5320 5319 5321 4998 5322 5323 
256 257 554 553 289 290 587 586 5002 5003 5004 4993 5326 5327 5328 5317 5314 5324 5325 5315 5320 5330 5329 5331 5008 5332 5333 
257 258 555 554 290 291 588 587 5012 5013 5014 5003 5336 5337 5338 5327 5324 5334 5335 5325 5330 5340 5339 5341 5018 5342 5343 
258 259 556 555 291 292 589 588 5022 5023 5024 5013 5346 5347 5348 5337 5334 5344 5345 5335 5340 5350 5349 5351 5028 5352 5353 
259 260 557 556 292 293 590 589 5032 5033 5034 5023 5356 5357 5358 5347 5344 5354 5355 5345 5350 5360 5359 5361 5038 5362 5363 
260 261 558 557 293 294 591 590 5042 5043 5044 5033 5366 5367 5368 5357 5354 5364 5365 5355 5360 5370 5369 5371 5048 5372 5373 
261 262 559 558 294 295 592 591 5052 5053 5054 5043 5376 5377 5378 5367 5364 5374 5375 5365 5370 5380 5379 5381 5058 5382 5383 
262 263 560 559 295 296 593 592 5062 5063 5064 5053 5386 5387 5388 5377 5374 5384 5385 5375 5380 5390 5389 5391 5068 5392 5393 
297 298 595 594 330 331 628 627 2675 5394 5395 5396 2683 5399 5400 5401 2680 2679 5397 5398 5405 5403 2688 5404 5402 5406 5407 
298 299 596 595 331 332 629 628 2694 5408 5409 5394 2699 5411 5412 5399 2679 2696 5410 5397 5403 5414 2703 5415 5413 5416 5417 
299 300 597 596 332 333 630 629 2708 5418 5419 5408 2713 5421 5422 5411 2696 2710 5420 5410 5414 5424 2717 5425 5423 5426 5427 
300 301 598 597 333 334 631 630 2722 5428 5429 5418 2727 5431 5432 5421 2710 2724 5430 5420 5424 5434 2731 5435 5433 5436 5437 
301 302 599 598 334 335 632 631 2736 5438 5439 5428 2741 5441 5442 5431 2724 2738 5440 5430 5434 5444 2745 5445 5443 5446 5447 
302 303 600 599 335 336 633 632 2750 5448 5449 5438 2755 5451 5452 5441 2738 2752 5450 5440 5444 5454 2759 5455 5453 5456 5457 
303 304 601 600 336 337 634 633 2764 5458 5459 5448 2769 5461 5462 5451 2752 2766 5460 5450 5454 5464 2773 5465 5463 5466 5467 
304 305 602 601 337 338 635 634 2778 5468 5469 5458 2783 5471 5472 5461 2766 2780 5470 5460 5464 5474 2787 5475 5473 5476 5477 
305 306 603 602 338 339 636 635 2792 5478 5479 5468 2797 5481 5482 5471 2780 2794 5480 5470 5474 5484 2801 5485 5483 5486 5487 
306 307 604 603 339 340 637 636 2806 5488 5489 5478 2811 5491 5492 5481 2794 2808 5490 5480 5484 5494 2815 5495 5493 5496 5497 
307 308 605 604 340 341 638 637 2820 5498 5499 5488 2825 5501 5502 5491 2808 2822 5500 5490 5494 5504 2829 5505 5503 5506 5507 
308 309 606 605 341 342 639 638 2834 5508 5509 5498 2839 5511 5512 5501 2822 2836 5510 5500 5504 5514 2843 5515 5513 5516 5517 
309 310 607 606 342 343 640 639 2848 5518 5519 5508 2853 5521 5522 5511 2836 2850 5520 5510 5514 5524 2857 5525 5523 5526 5527 
310 311 608 607 343 344 641 640 2862 5528 5529 5518 2867 5531 5532 5521 2850 2864 5530 5520 5524 5534 2871 5535 5533 5536 5537 
311 312 609 608 344 345 642 641 2876 5538 5539 5528 2881 5541 5542 5531 2864 2878 5540 5530 5534 5544 2885 5545 5543 5546 5547 
312 313 610 609 345 346 643 642 2890 5548 5549 5538 2895 5551 5552 5541 2878 2892 5550 5540 5544 5554 2899 5555 5553 5556 5557 
313 314 611 610 346 347 644 643 2904 5558 5559 5548 2909 5561 5562 5551 2892 2906 5560 5550 5554 5564 2913 5565 5563 5566 5567 
314 315 612 611 347 348 645 644 2918 5568 5569 5558 2923 5571 5572 5561 2906 2920 5570 5560 5564 5574 2927 5575 5573 5576 5577 
315 316 613 612 348 349 646 645 2932 5578 5579 5568 2937 5581 5582 5571 2920 2934 5580 5570 5574 5584 2941 5585 5583 5586 5587 
316 317 614 613 349 350 647 646 2946 5588 5589 5578 2951 5591 5592 5581 2934 2948 5590 5580 5584 5594 2955 5595 5593 5596 5597 
317 318 615 614 350 351 648 647 2960 5598 5599 5588 2965 5601 5602 5591 2948 2962 5600 5590 5594 5604 2969 5605 5603 5606 5607 
318 319 616 615 351 352 649 648 2974 5608 5609 5598 2979 5611 5612 5601 2962 2976 5610 5600 5604 5614 2983 5615 5613 5616 5617 
319 320 617 616 352 353 650 649 2988 5618 5619 5608 2993 5621 5622 5611 2976 2990 5620 5610 5614 5624 2997 5625 5623 5626 5627 
320 321 618 617 353 354 651 650 3002 5628 5629 5618 3007 5631 5632 5621 2990 3004 5630 5620 5624 5634 3011 5635 5633 5636 5637 
321 322 619 618 354 355 652 651 3016 5638 5639 5628 3021 5641 5642 5631 3004 3018 5640 5630 5634 5644 3025 5645 5643 5646 5647 
322 323 620 619 355 356 653 652 3030 5648 5649 5638 3035 5651 5652 5641 3018 3032 5650 5640 5644 5654 3039 5655 5653 5656 5657 
323 324 621 620 356 357 654 653 3044 5658 5659 5648 3049 5661 5662 5651 3032 3046 5660 5650 5654 5664 3053 5665 5663 5666 5667 
324 325 622 621 357 358 655 654 3058 5668 5669 5658 3063 5671 5672 5661 3046 3060 5670 5660 5664 5674 3067 5675 5673 5676 5677 
325 326 623 622 358 359 656 655 3072 5678 5679 5668 3077 5681 5682 5671 3060 3074 5680 5670 5674 5684 3081 5685 5683 5686 5687 
326 327 624 623 359 360 657 656 3086 5688 5689 5678 3091 5691 5692 5681 3074 3088 5690 5680 5684 5694 3095 5695 5693 5696 5697 
327 328 625 624 360 361 658 657 3100 5698 5699 5688 3105 5701 5702 5691 3088 3102 5700 5690 5694 5704 3109 5705 5703 5706 5707 
328 329 626 625 361 362 659 658 3114 5708 5709 5698 3119 5711 5712 5701 3102 3116 5710 5700 5704 5714 3123 5715 5713 5716 5717 
330 331 628 627 363 364 661 660 2683 5399 5400 5401 3132 5720 5721 5722 3129 3128 5718 5719 5725 5723 3136 5724 5406 5726 5727 
331 332 629 628 364 365 662 661 2699 5411 5412 5399 3144 5729 5730 5720 3128 3141 5728 5718 5723 5731 3147 5732 5416 5733 5734 
332 333 630 629 365 366 663 662 2713 5421 5422 5411 3154 5736 5737 5729 3141 3151 5735 5728 5731 5738 3157 5739 5426 5740 5741 
333 334 631 630 366 367 664 663 2727 5431 5432 5421 3164 5743 5744 5736 3151 3161 5742 5735 5738 5745 3167 5746 5436 5747 5748 
334 335 632 631 367 368 665 664 2741 5441 5442 5431 3174 5750 5751 5743 3161 3171 5749 5742 5745 5752 3177 5753 5446 5754 5755 
335 336 633 632 368 369 666 665 2755 5451 5452 5441 3184 5757 5758 5750 3171 3181 5756 5749 5752 5759 3187 5760 5456 5761 5762 
336 337 634 633 369 370 667 666 2769 5461 5462 5451 3194 5764 5765 5757 3181 3191 5763 5756 5759 5766 3197 5767 5466 5768 5769 
337 338 635 634 370 371 668 667 2783 5471 5472 5461 3204 5771 5772 5764 3191 3201 5770 5763 5766 5773 3207 5774 5476 5775 5776 
338 339 636 635 371 372 669 668 2797 5481 5482 5471 3214 5778 5779 5771 3201 3211 5777 5770 5773 5780 3217 5781 5486 5782 5783 
339 340 637 636 372 373 670 669 2811 5491 5492 5481 3224 5785 5786 5778 3211 3221 5784 5777 5780 5787 3227 5788 5496 5789 5790 
340 341 638 637 373 374 671 670 2825 5501 5502 5491 3234 5792 5793 5785 3221 3231 5791 5784 5787 5794 3237 5795 5506 5796 5797 
341 342 639 638 374 375 672 671 2839 5511 5512 5501 3244 5799 5800 5792 3231 3241 5798 5791 5794 5801 3247 5802 5516 5803 5804 
342 343 640 639 375 376 673 672 2853 5521 5522 5511 3254 5806 5807 5799 3241 3251 5805 5798 5801 5808 3257 5809 5526 5810 5811 
343 344 641 640 376 377 674 673 2867 5531 5532 5521 3264 5813 5814 5806 3251 3261 5812 5805 5808 5815 3267 5816 5536 5817 5818 
344 345 642 641 377 378 675 674 2881 5541 5542 5531 3274 5820 5821 5813 3261 3271 5819 5812 5815 5822 3277 5823 5546 5824 5825 
345 346 643 642 378 379 676 675 2895 5551 5552 5541 3284 5827 5828 5820 3271 3281 5826 5819 5822 5829 3287 5830 5556 5831 5832 
346 347 644 643 379 380 677 676 2909 5561 5562 5551 3294 5834 5835 5827 3281 3291 5833 5826 5829 5836 3297 5837 5566 5838 5839 
347 348 645 644 380 381 678 677 2923 5571 5572 5561 3304 5841 5842 5834 3291 3301 5840 5833 5836 5843 3307 5844 5576 5845 5846 
348 349 646 645 381 382 679 678 2937 5581 5582 5571 3314 5848 5849 5841 3301 3311 5847 5840 5843 5850 3317 5851 5586 5852 5853 
349 350 647 646 382 383 680 679 2951 5591 5592 5581 3324 5855 5856 5848 3311 3321 5854 5847 5850 5857 3327 5858 5596 5859 5860 
350 351 648 647 383 384 681 680 2965 5601 5602 5591 3334 5862 5863 5855 3321 3331 5861 5854 5857 5864 3337 5865 5606 5866 5867 
351 352 649 648 384 385 682 681 2979 5611 5612 5601 3344 5869 5870 5862 3331 3341 5868 5861 5864 5871 3347 5872 5616 5873 5874 
352 353 650 649 385 386 683 682 2993 5621 5622 5611 3354 5876 5877 5869 3341 3351 5875 5868 5871 5878 3357 5879 5626 5880 5881 
353 354 651 650 386 387 684 683 3007 5631 5632 5621 3364 5883 5884 5876 3351 3361 5882 5875 5878 5885 3367 5886 5636 5887 5888 
354 355 652 651 387 388 685 684 3021 5641 5642 5631 3374 5890 5891 5883 3361 3371 5889 5882 5885 5892 3377 5893 5646 5894 5895 
355 356 653 652 388 389 686 685 3035 5651 5652 5641 3384 5897 5898 5890 3371 3381 5896 5889 5892 5899 3387 5900 5656 5901 5902 
356 357 654 653 389 390 687 686 3049 5661 5662 5651 3394 5904 5905 5897 3381 3391 5903 5896 5899 5906 3397 5907 5666 5908 5909 
357 358 655 654 390 391 688 687 3063 5671 5672 5661 3404 5911 5912 5904 3391 3401 5910 5903 5906 5913 3407 5914 5676 5915 5916 
358 359 656 655 391 392 689 688 3077 5681 5682 5671 3414 5918 5919 5911 3401 3411 5917 5910 5913 5920 3417 5921 5686 5922 5923 
359 360 657 656 392 393 690 689 3091 5691 5692 5681 3424 5925 5926 5918 3411 3421 5924 5917 5920 5927 3427 5928 5696 5929 5930 
360 361 658 657 393 394 691 690 3105 5701 5702 5691 3434 5932 5933 5925 3421 3431 5931 5924 5927 5934 3437 5935 5706 5936 5937 
361 362 659 658 394 395 692 691 3119 5711 5712 5701 3444 5939 5940 5932 3431 3441 5938 5931 5934 5941 3447 5942 5716 5943 5944 
363 364 661 660 396 397 694 693 3132 5720 5721 5722 3456 5947 5948 5949 3453 3452 5945 5946 5952 5950 3460 5951 5726 5953 5954 
364 365 662 661 397 398 695 694 3144 5729 5730 5720 3468 5956 5957 5947 3452 3465 5955 5945 5950 5958 3471 5959 5733 5960 5961 
365 366 663 662 398 399 696 695 3154 5736 5737 5729 3478 5963 5964 5956 3465 3475 5962 5955 5958 5965 3481 5966 5740 5967 5968 
366 367 664 663 399 400 697 696 3164 5743 5744 5736 3488 5970 5971 5963 3475 3485 5969 5962 5965 5972 3491 5973 5747 5974 5975 
367 368 665 664 400 401 698 697 3174 5750 5751 5743 3498 5977 5978 5970 3485 3495 5976 5969 5972 5979 3501 5980 5754 5981 5982 
368 369 666 665 401 402 699 698 3184 5757 5758 5750 3508 5984 5985 5977 3495 3505 5983 5976 5979 5986 3511 5987 5761 5988 5989 
369 370 667 666 402 403 700 699 3194 5764 5765 5757 3518 5991 5992 5984 3505 3515 5990 5983 5986 5993 3521 5994 5768 5995 5996 
370 371 668 667 403 404 701 700 3204 5771 5772 5764 3528 5998 5999 5991 3515 3525 5997 5990 5993 6000 3531 6001 5775 6002 6003 
371 372 669 668 404 405 702 701 3214 5778 5779 5771 3538 6005 6006 5998 3525 3535 6004 5997 6000 6007 3541 6008 5782 6009 6010 
372 373 670 669 405 406 703 702 3224 5785 5786 5778 3548 6012 6013 6005 3535 3545 6011 6004 6007 6014 3551 6015 5789 6016 6017 
373 374 671 670 406 407 704 703 3234 5792 5793 5785 3558 6019 6020 6012 3545 3555 6018 6011 6014 6021 3561 6022 5796 6023 6024 
374 375 672 671 407 408 705 704 3244 5799 5800 5792 3568 6026 6027 6019 3555 3565 6025 6018 6021 6028 3571 6029 5803 6030 6031 
375 376 673 672 408 409 706 705 3254 5806 5807 5799 3578 6033 6034 6026 3565 3575 6032 6025 6028 6035 3581 6036 5810 6037 6038 
376 377 674 673 409 410 707 706 3264 5813 5814 5806 3588 6040 6041 6033 3575 3585 6039 6032 6035 6042 3591 6043 5817 6044 6045 
377 378 675 674 410 411 708 707 3274 5820 5821 5813 3598 6047 6048 6040 3585 3595 6046 6039 6042 6049 3601 6050 5824 6051 6052 
378 379 676 675 411 412 709 708 3284 5827 5828 5820 3608 6054 6055 6047 3595 3605 6053 6046 6049 6056 3611 6057 5831 6058 6059 
379 380 677 676 412 413 710 709 3294 5834 5835 5827 3618 6061 6062 6054 3605 3615 6060 6053 6056 6063 3621 6064 5838 6065 6066 
380 381 678 677 413 414 711 710 3304 5841 5842 5834 3628 6068 6069 6061 3615 3625 6067 6060 6063 6070 3631 6071 5845 6072 6073 
381 382 679 678 414 415 712 711 3314 5848 5849 5841 3638 6075 6076 6068 3625 3635 6074 6067 6070 6077 3641 6078 5852 6079 6080 
382 383 680 679 415 416 713 712 3324 5855 5856 5848 3648 6082 6083 6075 3635 3645 6081 6074 6077 6084 3651 6085 5859 6086 6087 
383 384 681 680 416 417 714 713 3334 5862 5863 5855 3658 6089 6090 6082 3645 3655 6088 6081 6084 6091 3661 6092 5866 6093 6094 
384 385 682 681 417 418 715 714 3344 5869 5870 5862 3668 6096 6097 6089 3655 3665 6095 6088 6091 6098 3671 6099 5873 6100 6101 
385 386 683 682 418 419 716 715 3354 5876 5877 5869 3678 6103 6104 6096 3665 3675 6102 6095 6098 6105 3681 6106 5880 6107 6108 
386 387 684 683 419 420 717 716 3364 5883 5884 5876 3688 6110 6111 6103 3675 3685 6109 6102 6105 6112 3691 6113 5887 6114 6115 
387 388 685 684 420 421 718 717 3374 5890 5891 5883 3698 6117 6118 6110 3685 3695 6116 6109 6112 6119 3701 6120 5894 6121 6122 
388 389 686 685 421 422 719 718 3384 5897 5898 5890 3708 6124 6125 6117 3695 3705 6123 6116 6119 6126 3711 6127 5901 6128 6129 
389 390 687 686 422 423 720 719 3394 5904 5905 5897 3718 6131 6132 6124 3705 3715 6130 6123 6126 6133 3721 6134 5908 6135 6136 
390 391 688 687 423 424 721 720 3404 5911 5912 5904 3728 6138 6139 6131 3715 3725 6137 6130 6133 6140 3731 6141 5915 6142 6143 
391 392 689 688 424 425 722 721 3414 5918 5919 5911 3738 6145 6146 6138 3725 3735 6144 6137 6140 6147 3741 6148 5922 6149 6150 
392 393 690 689 425 426 723 722 3424 5925 5926 5918 3748 6152 6153 6145 3735 3745 6151 6144 6147 6154 3751 6155 5929 6156 6157 
393 394 691 690 426 427 724 723 3434 5932 5933 5925 3758 6159 6160 6152 3745 3755 6158 6151 6154 6161 3761 6162 5936 6163 6164 
394 395 692 691 427 428 725 724 3444 5939 5940 5932 3768 6166 6167 6159 3755 3765 6165 6158 6161 6168 3771 6169 5943 6170 6171 
396 397 694 693 429 430 727 726 3456 5947 5948 5949 3780 6174 6175 6176 3777 3776 6172 6173 6179 6177 3784 6178 5953 6180 6181 
397 398 695 694 430 431 728 727 3468 5956 5957 5947 3792 6183 6184 6174 3776 3789 6182 6172 6177 6185 3795 6186 5960 6187 6188 
398 399 696 695 431 432 729 728 3478 5963 5964 5956 3802 6190 6191 6183 3789 3799 6189 6182 6185 6192 3805 6193 5967 6194 6195 
399 400 697 696 432 433 730 729 3488 5970 5971 5963 3812 6197 6198 6190 3799 3809 6196 6189 6192 6199 3815 6200 5974 6201 6202 
400 401 698 697 433 434 731 730 3498 5977 5978 5970 3822 6204 6205 6197 3809 3819 6203 6196 6199 6206 3825 6207 5981 6208 6209 
401 402 699 698 434 435 732 731 3508 5984 5985 5977 3832 6211 6212 6204 3819 3829 6210 6203 6206 6213 3835 6214 5988 6215 6216 
402 403 700 699 435 436 733 732 3518 5991 5992 5984 3842 6218 6219 6211 3829 3839 6217 6210 6213 6220 3845 6221 5995 6222 6223 
403 404 701 700 436 437 734 733 3528 5998 5999 5991 3852 6225 6226 6218 3839 3849 6224 6217 6220 6227 3855 6228 6002 6229 6230 
404 405 702 701 437 438 735 734 3538 6005 6006 5998 3862 6232 6233 6225 3849 3859 6231 6224 6227 6234 3865 6235 6009 6236 6237 
405 406 703 702 438 439 736 735 3548 6012 6013 6005 3872 6239 6240 6232 3859 3869 6238 6231 6234 6241 3875 6242 6016 6243 6244 
406 407 704 703 439 440 737 736 3558 6019 6020 6012 3882 6246 6247 6239 3869 3879 6245 6238 6241 6248 3885 6249 6023 6250 6251 
407 408 705 704 440 441 738 737 3568 6026 6027 6019 3892 6253 6254 6246 3879 3889 6252 6245 6248 6255 3895 6256 6030 6257 6258 
408 409 706 705 441 442 739 738 3578 6033 6034 6026 3902 6260 6261 6253 3889 3899 6259 6252 6255 6262 3905 6263 6037 6264 6265 
409 410 707 706 442 443 740 739 3588 6040 6041 6033 3912 6267 6268 6260 3899 3909 6266 6259 6262 6269 3915 6270 6044 6271 6272 
410 411 708 707 443 444 741 740 3598 6047 6048 6040 3922 6274 6275 6267 3909 3919 6273 6266 6269 6276 3925 6277 6051 6278 6279 
411 412 709 708 444 445 742 741 3608 6054 6055 6047 3932 6281 6282 6274 3919 3929 6280 6273 6276 6283 3935 6284 6058 6285 6286 
412 413 710 709 445 446 743 742 3618 6061 6062 6054 3942 6288 6289 6281 3929 3939 6287 6280 6283 6290 3945 6291 6065 6292 6293 
413 414 711 710 446 447 744 743 3628 6068 6069 6061 3952 6295 6296 6288 3939 3949 6294 6287 6290 6297 3955 6298 6072 6299 6300 
414 415 712 711 447 448 745 744 3638 6075 6076 6068 3962 6302 6303 6295 3949 3959 6301 6294 6297 6304 3965 6305 6079 6306 6307 
415 416 713 712 448 449 746 745 3648 6082 6083 6075 3972 6309 6310 6302 3959 3969 6308 6301 6304 6311 3975 6312 6086 6313 6314 
416 417 714 713 449 450 747 746 3658 6089 6090 6082 3982 6316 6317 6309 3969 3979 6315 6308 6311 6318 3985 6319 6093 6320 6321 
417 418 715 714 450 451 748 747 3668 6096 6097 6089 3992 6323 6324 6316 3979 3989 6322 6315 6318 6325 3995 6326 6100 6327 6328 
418 419 716 715 451 452 749 748 3678 6103 6104 6096 4002 6330 6331 6323 3989 3999 6329 6322 6325 6332 4005 6333 6107 6334 6335 
419 420 717 716 452 453 750 749 3688 6110 6111 6103 4012 6337 6338 6330 3999 4009 6336 6329 6332 6339 4015 6340 6114 6341 6342 
420 421 718 717 453 454 751 750 3698 6117 6118 6110 4022 6344 6345 6337 4009 4019 6343 6336 6339 6346 4025 6347 6121 6348 6349 
421 422 719 718 454 455 752 751 3708 6124 6125 6117 4032 6351 6352 6344 4019 4029 6350 6343 6346 6353 4035 6354 6128 6355 6356 
422 423 720 719 455 456 753 752 3718 6131 6132 6124 4042 6358 6359 6351 4029 4039 6357 6350 6353 6360 4045 6361 6135 6362 6363 
423 424 721 720 456 457 754 753 3728 6138 6139 6131 4052 6365 6366 6358 4039 4049 6364 6357 6360 6367 4055 6368 6142 6369 6370 
424 425 722 721 457 458 755 754 3738 6145 6146 6138 4062 6372 6373 6365 4049 4059 6371 6364 6367 6374 4065 6375 6149 6376 6377 
425 426 723 722 458 459 756 755 3748 6152 6153 6145 4072 6379 6380 6372 4059 4069 6378 6371 6374 6381 4075 6382 6156 6383 6384 
426 427 724 723 459 460 757 756 3758 6159 6160 6152 4082 6386 6387 6379 4069 4079 6385 6378 6381 6388 4085 6389 6163 6390 6391 
427 428 725 724 460 461 758 757 3768 6166 6167 6159 4092 6393 6394 6386 4079 4089 6392 6385 6388 6395 4095 6396 6170 6397 6398 
429 430 727 726 462 463 760 759 3780 6174 6175 6176 4104 6401 6402 6403 4101 4100 6399 6400 6406 6404 4108 6405 6180 6407 6408 
430 431 728 727 463 464 761 760 3792 6183 6184 6174 4116 6410 6411 6401 4100 4113 6409 6399 6404 6412 4119 6413 6187 6414 6415 
431 432 729 728 464 465 762 761 3802 6190 6191 6183 4126 6417 6418 6410 4113 4123 6416 6409 6412 6419 4129 6420 6194 6421 6422 
432 433 730 729 465 466 763 762 3812 6197 6198 6190 4136 6424 6425 6417 4123 4133 6423 6416 6419 6426 4139 6427 6201 6428 6429 
433 434 731 730 466 467 764 763 3822 6204 6205 6197 4146 6431 6432 6424 4133 4143 6430 6423 6426 6433 4149 6434 6208 6435 6436 
434 435 732 731 467 468 765 764 3832 6211 6212 6204 4156 6438 6439 6431 4143 4153 6437 6430 6433 6440 4159 6441 6215 6442 6443 
435 436 733 732 468 469 766 765 3842 6218 6219 6211 4166 6445 6446 6438 4153 4163 6444 6437 6440 6447 4169 6448 6222 6449 6450 
436 437 734 733 469 470 767 766 3852 6225 6226 6218 4176 6452 6453 6445 4163 4173 6451 6444 6447 6454 4179 6455 6229 6456 6457 
437 438 735 734 470 471 768 767 3862 6232 6233 6225 4186 6459 6460 6452 4173 4183 6458 6451 6454 6461 4189 6462 6236 6463 6464 
438 439 736 735 471 472 769 768 3872 6239 6240 6232 4196 6466 6467 6459 4183 4193 6465 6458 6461 6468 4199 6469 6243 6470 6471 
439 440 737 736 472 473 770 769 3882 6246 6247 6239 4206 6473 6474 6466 4193 4203 6472 6465 6468 6475 4209 6476 6250 6477 6478 
440 441 738 737 473 474 771 770 3892 6253 6254 6246 4216 6480 6481 6473 4203 4213 6479 6472 6475 6482 4219 6483 6257 6484 6485 
441 442 739 738 474 475 772 771 3902 6260 6261 6253 4226 6487 6488 6480 4213 4223 6486 6479 6482 6489 4229 6490 6264 6491 6492 
442 443 740 739 475 476 773 772 3912 6267 6268 6260 4236 6494 6495 6487 4223 4233 6493 6486 6489 6496 4239 6497 6271 6498 6499 
443 444 741 740 476 477 774 773 3922 6274 6275 6267 4246 6501 6502 6494 4233 4243 6500 6493 6496 6503 4249 6504 6278 6505 6506 
444 445 742 741 477 478 775 774 3932 6281 6282 6274 4256 6508 6509 6501 4243 4253 6507 6500 6503 6510 4259 6511 6285 6512 6513 
445 446 743 742 478 479 776 775 3942 6288 6289 6281 4266 6515 6516 6508 4253 4263 6514 6507 6510 6517 4269 6518 6292 6519 6520 
446 447 744 743 479 480 777 776 3952 6295 6296 6288 4276 6522 6523 6515 4263 4273 6521 6514 6517 6524 4279 6525 6299 6526 6527 
447 448 745 744 480 481 778 777 3962 6302 6303 6295 4286 6529 6530 6522 4273 4283 6528 6521 6524 6531 4289 6532 6306 6533 6534 
448 449 746 745 481 482 779 778 3972 6309 6310 6302 4296 6536 6537 6529 4283 4293 6535 6528 6531 6538 4299 6539 6313 6540 6541 
449 450 747 746 482 483 780 779 3982 6316 6317 6309 4306 6543 6544 6536 4293 4303 6542 6535 6538 6545 4309 6546 6320 6547 6548 
450 451 748 747 483 484 781 780 3992 6323 6324 6316 4316 6550 6551 6543 4303 4313 6549 6542 6545 6552 4319 6553 6327 6554 6555 
451 452 749 748 484 485 782 781 4002 6330 6331 6323 4326 6557 6558 6550 4313 4323 6556 6549 6552 6559 4329 6560 6334 6561 6562 
452 453 750 749 485 486 783 782 4012 6337 6338 6330 4336 6564 6565 6557 4323 4333 6563 6556 6559 6566 4339 6567 6341 6568 6569 
453 454 751 750 486 487 784 783 4022 6344 6345 6337 4346 6571 6572 6564 4333 4343 6570 6563 6566 6573 4349 6574 6348 6575 6576 
454 455 752 751 487 488 785 784 4032 6351 6352 6344 4356 6578 6579 6571 4343 4353 6577 6570 6573 6580 4359 6581 6355 6582 6583 
455 456 753 752 488 489 786 785 4042 6358 6359 6351 4366 6585 6586 6578 4353 4363 6584 6577 6580 6587 4369 6588 6362 6589 6590 
456 457 754 753 489 490 787 786 4052 6365 6366 6358 4376 6592 6593 6585 4363 4373 6591 6584 6587 6594 4379 6595 6369 6596 6597 
457 458 755 754 490 491 788 787 4062 6372 6373 6365 4386 6599 6600 6592 4373 4383 6598 6591 6594 6601 4389 6602 6376 6603 6604 
458 459 756 755 491 492 789 788 4072 6379 6380 6372 4396 6606 6607 6599 4383 4393 6605 6598 6601 6608 4399 6609 6383 6610 6611 
459 460 757 756 492 493 790 789 4082 6386 6387 6379 4406 6613 6614 6606 4393 4403 6612 6605 6608 6615 4409 6616 6390 6617 6618 
460 461 758 757 493 494 791 790 4092 6393 6394 6386 4416 6620 6621 6613 4403 4413 6619 6612 6615 6622 4419 6623 6397 6624 6625 
462 463 760 759 495 496 793 792 4104 6401 6402 6403 4428 6628 6629 6630 4425 4424 6626 6627 6633 6631 4432 6632 6407 6634 6635 
463 464 761 760 496 497 794 793 4116 6410 6411 6401 4440 6637 6638 6628 4424 4437 6636 6626 6631 6639 4443 6640 6414 6641 6642 
464 465 762 761 497 498 795 794 4126 6417 6418 6410 4450 6644 6645 6637 4437 4447 6643 6636 6639 6646 4453 6647 6421 6648 6649 
465 466 763 762 498 499 796 795 4136 6424 6425 6417 4460 6651 6652 6644 4447 4457 6650 6643 6646 6653 4463 6654 6428 6655 6656 
466 467 764 763 499 500 797 796 4146 6431 6432 6424 4470 6658 6659 6651 4457 4467 6657 6650 6653 6660 4473 6661 6435 6662 6663 
467 468 765 764 500 501 798 797 4156 6438 6439 6431 4480 6665 6666 6658 4467 4477 6664 6657 6660 6667 4483 6668 6442 6669 6670 
468 469 766 765 501 502 799 798 4166 6445 6446 6438 4490 6672 6673 6665 4477 4487 6671 6664 6667 6674 4493 6675 6449 6676 6677 
469 470 767 766 502 503 800 799 4176 6452 6453 6445 4500 6679 6680 6672 4487 4497 6678 6671 6674 6681 4503 6682 6456 6683 6684 
470 471 768 767 503 504 801 800 4186 6459 6460 6452 4510 6686 6687 6679 4497 4507 6685 6678 6681 6688 4513 6689 6463 6690 6691 
471 472 769 768 504 505 802 801 4196 6466 6467 6459 4520 6693 6694 6686 4507 4517 6692 6685 6688 6695 4523 6696 6470 6697 6698 
472 473 770 769 505 506 803 802 4206 6473 6474 6466 4530 6700 6701 6693 4517 4527 6699 6692 6695 6702 4533 6703 6477 6704 6705 
473 474 771 770 506 507 804 803 4216 6480 6481 6473 4540 6707 6708 6700 4527 4537 6706 6699 6702 6709 4543 6710 6484 6711 6712 
474 475 772 771 507 508 805 804 4226 6487 6488 6480 4550 6714 6715 6707 4537 4547 6713 6706 6709 6716 4553 6717 6491 6718 6719 
475 476 773 772 508 509 806 805 4236 6494 6495 6487 4560 6721 6722 6714 4547 4557 6720 6713 6716 6723 4563 6724 6498 6725 6726 
476 477 774 773 509 510 807 806 4246 6501 6502 6494 4570 6728 6729 6721 4557 4567 6727 6720 6723 6730 4573 6731 6505 6732 6733 
477 478 775 774 510 511 808 807 4256 6508 6509 6501 4580 6735 6736 6728 4567 4577 6734 6727 6730 6737 4583 6738 6512 6739 6740 
478 479 776 775 511 512 809 808 4266 6515 6516 6508 4590 6742 6743 6735 4577 4587 6741 6734 6737 6744 4593 6745 6519 6746 6747 
479 480 777 776 512 513 810 809 4276 6522 6523 6515 4600 6749 6750 6742 4587 4597 6748 6741 6744 6751 4603 6752 6526 6753 6754 
480 481 778 777 513 514 811 810 4286 6529 6530 6522 4610 6756 6757 6749 4597 4607 6755 6748 6751 6758 4613 6759 6533 6760 6761 
481 482 779 778 514 515 812 811 4296 6536 6537 6529 4620 6763 6764 6756 4607 4617 6762 6755 6758 6765 4623 6766 6540 6767 6768 
482 483 780 779 515 516 813 812 4306 6543 6544 6536 4630 6770 6771 6763 4617 4627 6769 6762 6765 6772 4633 6773 6547 6774 6775 
483 484 781 780 516 517 814 813 4316 6550 6551 6543 4640 6777 6778 6770 4627 4637 6776 6769 6772 6779 4643 6780 6554 6781 6782 
484 485 782 781 517 518 815 814 4326 6557 6558 6550 4650 6784 6785 6777 4637 4647 6783 6776 6779 6786 4653 6787 6561 6788 6789 
485 486 783 782 518 519 816 815 4336 6564 6565 6557 4660 6791 6792 6784 4647 4657 6790 6783 6786 6793 4663 6794 6568 6795 6796 
486 487 784 783 519 520 817 816 4346 6571 6572 6564 4670 6798 6799 6791 4657 4667 6797 6790 6793 6800 4673 6801 6575 6802 6803 
487 488 785 784 520 521 818 817 4356 6578 6579 6571 4680 6805 6806 6798 4667 4677 6804 6797 6800 6807 4683 6808 6582 6809 6810 
488 489 786 785 521 522 819 818 4366 6585 6586 6578 4690 6812 6813 6805 4677 4687 6811 6804 6807 6814 4693 6815 6589 6816 6817 
489 490 787 786 522 523 820 819 4376 6592 6593 6585 4700 6819 6820 6812 4687 4697 6818 6811 6814 6821 4703 6822 6596 6823 6824 
490 491 788 787 523 524 821 820 4386 6599 6600 6592 4710 6826 6827 6819 4697 4707 6825 6818 6821 6828 4713 6829 6603 6830 6831 
491 492 789 788 524 525 822 821 4396 6606 6607 6599 4720 6833 6834 6826 4707 4717 6832 6825 6828 6835 4723 6836 6610 6837 6838 
492 493 790 789 525 526 823 822 4406 6613 6614 6606 4730 6840 6841 6833 4717 4727 6839 6832 6835 6842 4733 6843 6617 6844 6845 
493 494 791 790 526 527 824 823 4416 6620 6621 6613 4740 6847 6848 6840 4727 4737 6846 6839 6842 6849 4743 6850 6624 6851 6852 
495 496 793 792 528 529 826 825 4428 6628 6629 6630 4752 6855 6856 6857 4749 4748 6853 6854 6860 6858 4756 6859 6634 6861 6862 
496 497 794 793 529 530 827 826 4440 6637 6638 6628 4764 6864 6865 6855 4748 4761 6863 6853 6858 6866 4767 6867 6641 6868 6869 
497 498 795 794 530 531 828 827 4450 6644 6645 6637 4774 6871 6872 6864 4761 4771 6870 6863 6866 6873 4777 6874 6648 6875 6876 
498 499 796 795 531 532 829 828 4460 6651 6652 6644 4784 6878 6879 6871 4771 4781 6877 6870 6873 6880 4787 6881 6655 6882 6883 
499 500 797 796 532 533 830 829 4470 6658 6659 6651 4794 6885 6886 6878 4781 4791 6884 6877 6880 6887 4797 6888 6662 6889 6890 
500 501 798 797 533 534 831 830 4480 6665 6666 6658 4804 6892 6893 6885 4791 4801 6891 6884 6887 6894 4807 6895 6669 6896 6897 
501 502 799 798 534 535 832 831 4490 6672 6673 6665 4814 6899 6900 6892 4801 4811 6898 6891 6894 6901 4817 6902 6676 6903 6904 
502 503 800 799 535 536 833 832 4500 6679 6680 6672 4824 6906 6907 6899 4811 4821 6905 6898 6901 6908 4827 6909 6683 6910 6911 
503 504 801 800 536 537 834 833 4510 6686 6687 6679 4834 6913 6914 6906 4821 4831 6912 6905 6908 6915 4837 6916 6690 6917 6918 
504 505 802 801 537 538 835 834 4520 6693 6694 6686 4844 6920 6921 6913 4831 4841 6919 6912 6915 6922 4847 6923 6697 6924 6925 
505 506 803 802 538 539 836 835 4530 6700 6701 6693 4854 6927 6928 6920 4841 4851 6926 6919 6922 6929 4857 6930 6704 6931 6932 
506 507 804 803 539 540 837 836 4540 6707 6708 6700 4864 6934 6935 6927 4851 4861 6933 6926 6929 6936 4867 6937 6711 6938 6939 
507 508 805 804 540 541 838 837 4550 6714 6715 6707 4874 6941 6942 6934 4861 4871 6940 6933 6936 6943 4877 6944 6718 6945 6946 
508 509 806 805 541 542 839 838 4560 6721 6722 6714 4884 6948 6949 6941 4871 4881 6947 6940 6943 6950 4887 6951 6725 6952 6953 
509 510 807 806 542 543 840 839 4570 6728 6729 6721 4894 6955 6956 6948 4881 4891 6954 6947 6950 6957 4897 6958 6732 6959 6960 
510 511 808 807 543 544 841 840 4580 6735 6736 6728 4904 6962 6963 6955 4891 4901 6961 6954 6957 6964 4907 6965 6739 6966 6967 
511 512 809 808 544 545 842 841 4590 6742 6743 6735 4914 6969 6970 6962 4901 4911 6968 6961 6964 6971 4917 6972 6746 6973 6974 
512 513 810 809 545 546 843 842 4600 6749 6750 6742 4924 6976 6977 6969 4911 4921 6975 6968 6971 6978 4927 6979 6753 6980 6981 
513 514 811 810 546 547 844 843 4610 6756 6757 6749 4934 6983 6984 6976 4921 4931 6982 6975 6978 6985 4937 6986 6760 6987 6988 
514 515 812 811 547 548 845 844 4620 6763 6764 6756 4944 6990 6991 6983 4931 4941 6989 6982 6985 6992 4947 6993 6767 6994 6995 
515 516 813 812 548 549 846 845 4630 6770 6771 6763 4954 6997 6998 6990 4941 4951 6996 6989 6992 6999 4957 7000 6774 7001 7002 
516 517 814 813 549 550 847 846 4640 6777 6778 6770 4964 7004 7005 6997 4951 4961 7003 6996 6999 7006 4967 7007 6781 7008 7009 
517 518 815 814 550 551 848 847 4650 6784 6785 6777 4974 7011 7012 7004 4961 4971 7010 7003 7006 7013 4977 7014 6788 7015 7016 
518 519 816 815 551 552 849 848 4660 6791 6792 6784 4984 7018 7019 7011 4971 4981 7017 7010 7013 7020 4987 7021 6795 7022 7023 
519 520 817 816 552 553 850 849 4670 6798 6799 6791 4994 7025 7026 7018 4981 4991 7024 7017 7020 7027 4997 7028 6802 7029 7030 
520 521 818 817 553 554 851 850 4680 6805 6806 6798 5004 7032 7033 7025 4991 5001 7031 7024 7027 7034 5007 7035 6809 7036 7037 
521 522 819 818 554 555 852 851 4690 6812 6813 6805 5014 7039 7040 7032 5001 5011 7038 7031 7034 7041 5017 7042 6816 7043 7044 
522 523 820 819 555 556 853 852 4700 6819 6820 6812 5024 7046 7047 7039 5011 5021 7045 7038 7041 7048 5027 7049 6823 7050 7051 
523 524 821 820 556 557 854 853 4710 6826 6827 6819 5034 7053 7054 7046 5021 5031 7052 7045 7048 7055 5037 7056 6830 7057 7058 
524 525 822 821 557 558 855 854 4720 6833 6834 6826 5044 7060 7061 7053 5031 5041 7059 7052 7055 7062 5047 7063 6837 7064 7065 
525 526 823 822 558 559 856 855 4730 6840 6841 6833 5054 7067 7068 7060 5041 5051 7066 7059 7062 7069 5057 7070 6844 7071 7072 
526 527 824 823 559 560 857 856 4740 6847 6848 6840 5064 7074 7075 7067 5051 5061 7073 7066 7069 7076 5067 7077 6851 7078 7079 
528 529 826 825 561 562 859 858 4752 6855 6856 6857 5076 7082 7083 7084 5073 5072 7080 7081 7087 7085 5080 7086 6861 7088 7089 
529 530 827 826 562 563 860 859 4764 6864 6865 6855 5088 7091 7092 7082 5072 5085 7090 7080 7085 7093 5091 7094 6868 7095 7096 
530 531 828 827 563 564 861 860 4774 6871 6872 6864 5098 7098 7099 7091 5085 5095 7097 7090 7093 7100 5101 7101 6875 7102 7103 
531 532 829 828 564 565 862 861 4784 6878 6879 6871 5108 7105 7106 7098 5095 5105 7104 7097 7100 7107 5111 7108 6882 7109 7110 
532 533 830 829 565 566 863 862 4794 6885 6886 6878 5118 7112 7113 7105 5105 5115 7111 7104 7107 7114 5121 7115 6889 7116 7117 
533 534 831 830 566 567 864 863 4804 6892 6893 6885 5128 7119 7120 7112 5115 5125 7118 7111 7114 7121 5131 7122 6896 7123 7124 
534 535 832 831 567 568 865 864 4814 6899 6900 6892 5138 7126 7127 7119 5125 5135 7125 7118 7121 7128 5141 7129 6903 7130 7131 
535 536 833 832 568 569 866 865 4824 6906 6907 6899 5148 7133 7134 7126 5135 5145 7132 7125 7128 7135 5151 7136 6910 7137 7138 
536 537 834 833 569 570 867 866 4834 6913 6914 6906 5158 7140 7141 7133 5145 5155 7139 7132 7135 7142 5161 7143 6917 7144 7145 
537 538 835 834 570 571 868 867 4844 6920 6921 6913 5168 7147 7148 7140 5155 5165 7146 7139 7142 7149 5171 7150 6924 7151 7152 
538 539 836 835 571 572 869 868 4854 6927 6928 6920 5178 7154 7155 7147 5165 5175 7153 7146 7149 7156 5181 7157 6931 7158 7159 
539 540 837 836 572 573 870 869 4864 6934 6935 6927 5188 7161 7162 7154 5175 5185 7160 7153 7156 7163 5191 7164 6938 7165 7166 
540 541 838 837 573 574 871 870 4874 6941 6942 6934 5198 7168 7169 7161 5185 5195 7167 7160 7163 7170 5201 7171 6945 7172 7173 
541 542 839 838 574 575 872 871 4884 6948 6949 6941 5208 7175 7176 7168 5195 5205 7174 7167 7170 7177 5211 7178 6952 7179 7180 
542 543 840 839 575 576 873 872 4894 6955 6956 6948 5218 7182 7183 7175 5205 5215 7181 7174 7177 7184 5221 7185 6959 7186 7187 
543 544 841 840 576 577 874 873 4904 6962 6963 6955 5228 7189 7190 7182 5215 5225 7188 7181 7184 7191 5231 7192 6966 7193 7194 
544 545 842 841 577 578 875 874 4914 6969 6970 6962 5238 7196 7197 7189 5225 5235 7195 7188 7191 7198 5241 7199 6973 7200 7201 
545 546 843 842 578 579 876 875 4924 6976 6977 6969 5248 7203 7204 7196 5235 5245 7202 7195 7198 7205 5251 7206 6980 7207 7208 
546 547 844 843 579 580 877 876 4934 6983 6984 6976 5258 7210 7211 7203 5245 5255 7209 7202 7205 7212 5261 7213 6987 7214 7215 
547 548 845 844 580 581 878 877 4944 6990 6991 6983 5268 7217 7218 7210 5255 5265 7216 7209 7212 7219 5271 7220 6994 7221 7222 
548 549 846 845 581 582 879 878 4954 6997 6998 6990 5278 7224 7225 7217 5265 5275 7223 7216 7219 7226 5281 7227 7001 7228 7229 
549 550 847 846 582 583 880 879 4964 7004 7005 6997 5288 7231 7232 7224 5275 5285 7230 7223 7226 7233 5291 7234 7008 7235 7236 
550 551 848 847 583 584 881 880 4974 7011 7012 7004 5298 7238 7239 7231 5285 5295 7237 7230 7233 7240 5301 7241 7015 7242 7243 
551 552 849 848 584 585 882 881 4984 7018 7019 7011 5308 7245 7246 7238 5295 5305 7244 7237 7240 7247 5311 7248 7022 7249 7250 
552 553 850 849 585 586 883 882 4994 7025 7026 7018 5318 7252 7253 7245 5305 5315 7251 7244 7247 7254 5321 7255 7029 7256 7257 
553 554 851 850 586 587 884 883 5004 7032 7033 7025 5328 7259 7260 7252 5315 5325 7258 7251 7254 7261 5331 7262 7036 7263 7264 
554 555 852 851 587 588 885 884 5014 7039 7040 7032 5338 7266 7267 7259 5325 5335 7265 7258 7261 7268 5341 7269 7043 7270 7271 
555 556 853 852 588 589 886 885 5024 7046 7047 7039 5348 7273 7274 7266 5335 5345 7272 7265 7268 7275 5351 7276 7050 7277 7278 
556 557 854 853 589 590 887 886 5034 7053 7054 7046 5358 7280 7281 7273 5345 5355 7279 7272 7275 7282 5361 7283 7057 7284 7285 
557 558 855 854 590 591 888 887 5044 7060 7061 7053 5368 7287 7288 7280 5355 5365 7286 7279 7282 7289 5371 7290 7064 7291 7292 
558 559 856 855 591 592 889 888 5054 7067 7068 7060 5378 7294 7295 7287 5365 5375 7293 7286 7289 7296 5381 7297 7071 7298 7299 
559 560 857 856 592 593 890 889 5064 7074 7075 7067 5388 7301 7302 7294 5375 5385 7300 7293 7296 7303 5391 7304 7078 7305 7306 
594 595 892 891 627 628 925 924 5395 7307 7308 7309 5400 7312 7313 7314 5398 5397 7310 7311 7318 7316 5404 7317 7315 7319 7320 
595 596 893 892 628 629 926 925 5409 7321 7322 7307 5412 7324 7325 7312 5397 5410 7323 7310 7316 7327 5415 7328 7326 7329 7330 
596 597 894 893 629 630 927 926 5419 7331 7332 7321 5422 7334 7335 7324 5410 5420 7333 7323 7327 7337 5425 7338 7336 7339 7340 
597 598 895 894 630 631 928 927 5429 7341 7342 7331 5432 7344 7345 7334 5420 5430 7343 7333 7337 7347 5435 7348 7346 7349 7350 
598 599 896 895 631 632 929 928 5439 7351 7352 7341 5442 7354 7355 7344 5430 5440 7353 7343 7347 7357 5445 7358 7356 7359 7360 
599 600 897 896 632 633 930 929 5449 7361 7362 7351 5452 7364 7365 7354 5440 5450 7363 7353 7357 7367 5455 7368 7366 7369 7370 
600 601 898 897 633 634 931 930 5459 7371 7372 7361 5462 7374 7375 7364 5450 5460 7373 7363 7367 7377 5465 7378 7376 7379 7380 
601 602 899 898 634 635 932 931 5469 7381 7382 7371 5472 7384 7385 7374 5460 5470 7383 7373 7377 7387 5475 7388 7386 7389 7390 
602 603 900 899 635 636 933 932 5479 7391 7392 7381 5482 7394 7395 7384 5470 5480 7393 7383 7387 7397 5485 7398 7396 7399 7400 
603 604 901 900 636 637 934 933 5489 7401 7402 7391 5492 7404 7405 7394 5480 5490 7403 7393 7397 7407 5495 7408 7406 7409 7410 
604 605 902 901 637 638 935 934 5499 7411 7412 7401 5502 7414 7415 7404 5490 5500 7413 7403 7407 7417 5505 7418 7416 7419 7420 
605 606 903 902 638 639 936 935 5509 7421 7422 7411 5512 7424 7425 7414 5500 5510 7423 7413 7417 7427 5515 7428 7426 7429 7430 
606 607 904 903 639 640 937 936 5519 7431 7432 7421 5522 7434 7435 7424 5510 5520 7433 7423 7427 7437 5525 7438 7436 7439 7440 
607 608 905 904 640 641 938 937 5529 7441 7442 7431 5532 7444 7445 7434 5520 5530 7443 7433 7437 7447 5535 7448 7446 7449 7450 
608 609 906 905 641 642 939 938 5539 7451 7452 7441 5542 7454 7455 7444 5530 5540 7453 7443 7447 7457 5545 7458 7456 7459 7460 
609 610 907 906 642 643 940 939 5549 7461 7462 7451 5552 7464 7465 7454 5540 5550 7463 7453 7457 7467 5555 7468 7466 7469 7470 
610 611 908 907 643 644 941 940 5559 7471 7472 7461 5562 7474 7475 7464 5550 5560 7473 7463 7467 7477 5565 7478 7476 7479 7480 
611 612 909 908 644 645 942 941 5569 7481 7482 7471 5572 7484 7485 7474 5560 5570 7483 7473 7477 7487 5575 7488 7486 7489 7490 
612 613 910 909 645 646 943 942 5579 7491 7492 7481 5582 7494 7495 7484 5570 5580 7493 7483 7487 7497 5585 7498 7496 7499 7500 
613 614 911 910 646 647 944 943 5589 7501 7502 7491 5592 7504 7505 7494 5580 5590 7503 7493 7497 7507 5595 7508 7506 7509 7510 
614 615 912 911 647 648 945 944 5599 7511 7512 7501 5602 7514 7515 7504 5590 5600 7513 7503 7507 7517 5605 7518 7516 7519 7520 
615 616 913 912 648 649 946 945 5609 7521 7522 7511 5612 7524 7525 7514 5600 5610 7523 7513 7517 7527 5615 7528 7526 7529 7530 
616 617 914 913 649 650 947 946 5619 7531 7532 7521 5622 7534 7535 7524 5610 5620 7533 7523 7527 7537 5625 7538 7536 7539 7540 
617 618 915 914 650 651 948 947 5629 7541 7542 7531 5632 7544 7545 7534 5620 5630 7543 7533 7537 7547 5635 7548 7546 7549 7550 
618 619 916 915 651 652 949 948 5639 7551 7552 7541 5642 7554 7555 7544 5630 5640 7553 7543 7547 7557 5645 7558 7556 7559 7560 
619 620 917 916 652 653 950 949 5649 7561 7562 7551 5652 7564 7565 7554 5640 5650 7563 7553 7557 7567 5655 7568 7566 7569 7570 
620 621 918 917 653 654 951 950 5659 7571 7572 7561 5662 7574 7575 7564 5650 5660 7573 7563 7567 7577 5665 7578 7576 7579 7580 
621 622 919 918 654 655 952 951 5669 7581 7582 7571 5672 7584 7585 7574 5660 5670 7583 7573 7577 7587 5675 7588 7586 7589 7590 
622 623 920 919 655 656 953 952 5679 7591 7592 7581 5682 7594 7595 7584 5670 5680 7593 7583 7587 7597 5685 7598 7596 7599 7600 
623 624 921 920 656 657 954 953 5689 7601 7602 7591 5692 7604 7605 7594 5680 5690 7603 7593 7597 7607 5695 7608 7606 7609 7610 
624 625 922 921 657 658 955 954 5699 7611 7612 7601 5702 7614 7615 7604 5690 5700 7613 7603 7607 7617 5705 7618 7616 7619 7620 
625 626 923 922 658 659 956 955 5709 7621 7622 7611 5712 7624 7625 7614 5700 5710 7623 7613 7617 7627 5715 7628 7626 7629 7630 
627 628 925 924 660 661 958 957 5400 7312 7313 7314 5721 7633 7634 7635 5719 5718 7631 7632 7638 7636 5724 7637 7319 7639 7640 
628 629 926 925 661 662 959 958 5412 7324 7325 7312 5730 7642 7643 7633 5718 5728 7641 7631 7636 7644 5732 7645 7329 7646 7647 
629 630 927 926 662 663 960 959 5422 7334 7335 7324 5737 7649 7650 7642 5728 5735 7648 7641 7644 7651 5739 7652 7339 7653 7654 
630 631 928 927 663 664 961 960 5432 7344 7345 7334 5744 7656 7657 7649 5735 5742 7655 7648 7651 7658 5746 7659 7349 7660 7661 
631 632 929 928 664 665 962 961 5442 7354 7355 7344 5751 7663 7664 7656 5742 5749 7662 7655 7658 7665 5753 7666 7359 7667 7668 
632 633 930 929 665 666 963 962 5452 7364 7365 7354 5758 7670 7671 7663 5749 5756 7669 7662 7665 7672 5760 7673 7369 7674 7675 
633 634 931 930 666 667 964 963 5462 7374 7375 7364 5765 7677 7678 7670 5756 5763 7676 7669 7672 7679 5767 7680 7379 7681 7682 
634 635 932 931 667 668 965 964 5472 7384 7385 7374 5772 7684 7685 7677 5763 5770 7683 7676 7679 7686 5774 7687 7389 7688 7689 
635 636 933 932 668 669 966 965 5482 7394 7395 7384 5779 7691 7692 7684 5770 5777 7690 7683 7686 7693 5781 7694 7399 7695 7696 
636 637 934 933 669 670 967 966 5492 7404 7405 7394 5786 7698 7699 7691 5777 5784 7697 7690 7693 7700 5788 7701 7409 7702 7703 
637 638 935 934 670 671 968 967 5502 7414 7415 7404 5793 7705 7706 7698 5784 5791 7704 7697 7700 7707 5795 7708 7419 7709 7710 
638 639 936 935 671 672 969 968 5512 7424 7425 7414 5800 7712 7713 7705 5791 5798 7711 7704 7707 7714 5802 7715 7429 7716 7717 
639 640 937 936 672 673 970 969 5522 7434 7435 7424 5807 7719 7720 7712 5798 5805 7718 7711 7714 7721 5809 7722 7439 7723 7724 
640 641 938 937 673 674 971 970 5532 7444 7445 7434 5814 7726 7727 7719 5805 5812 7725 7718 7721 7728 5816 7729 7449 7730 7731 
641 642 939 938 674 675 972 971 5542 7454 7455 7444 5821 7733 7734 7726 5812 5819 7732 7725 7728 7735 5823 7736 7459 7737 7738 
642 643 940 939 675 676 973 972 5552 7464 7465 7454 5828 7740 7741 7733 5819 5826 7739 7732 7735 7742 5830 7743 7469 7744 7745 
643 644 941 940 676 677 974 973 5562 7474 7475 7464 5835 7747 7748 7740 5826 5833 7746 7739 7742 7749 5837 7750 7479 7751 7752 
644 645 942 941 677 678 975 974 5572 7484 7485 7474 5842 7754 7755 7747 5833 5840 7753 7746 7749 7756 5844 7757 7489 7758 7759 
645 646 943 942 678 679 976 975 5582 7494 7495 7484 5849 7761 7762 7754 5840 5847 7760 7753 7756 7763 5851 7764 7499 7765 7766 
646 647 944 943 679 680 977 976 5592 7504 7505 7494 5856 7768 7769 7761 5847 5854 7767 7760 7763 7770 5858 7771 7509 7772 7773 
647 648 945 944 680 681 978 977 5602 7514 7515 7504 5863 7775 7776 7768 5854 5861 7774 7767 7770 7777 5865 7778 7519 7779 7780 
648 649 946 945 681 682 979 978 5612 7524 7525 7514 5870 7782 7783 7775 5861 5868 7781 7774 7777 7784 5872 7785 7529 7786 7787 
649 650 947 946 682 683 980 979 5622 7534 7535 7524 5877 7789 7790 7782 5868 5875 7788 7781 7784 7791 5879 7792 7539 7793 7794 
650 651 948 947 683 684 981 980 5632 7544 7545 7534 5884 7796 7797 7789 5875 5882 7795 7788 7791 7798 5886 7799 7549 7800 7801 
651 652 949 948 684 685 982 981 5642 7554 7555 7544 5891 7803 7804 7796 5882 5889 7802 7795 7798 7805 5893 7806 7559 7807 7808 
652 653 950 949 685 686 983 982 5652 7564 7565 7554 5898 7810 7811 7803 5889 5896 7809 7802 7805 7812 5900 7813 7569 7814 7815 
653 654 951 950 686 687 984 983 5662 7574 7575 7564 5905 7817 7818 7810 5896 5903 7816 7809 7812 7819 5907 7820 7579 7821 7822 
654 655 952 951 687 688 985 984 5672 7584 7585 7574 5912 7824 7825 7817 5903 5910 7823 7816 7819 7826 5914 7827 7589 7828 7829 
655 656 953 952 688 689 986 985 5682 7594 7595 7584 5919 7831 7832 7824 5910 5917 7830 7823 7826 7833 5921 7834 7599 7835 7836 
656 657 954 953 689 690 987 986 5692 7604 7605 7594 5926 7838 7839 7831 5917 5924 7837 7830 7833 7840 5928 7841 7609 7842 7843 
657 658 955 954 690 691 988 987 5702 7614 7615 7604 5933 7845 7846 7838 5924 5931 7844 7837 7840 7847 5935 7848 7619 7849 7850 
658 659 956 955 691 692 989 988 5712 7624 7625 7614 5940 7852 7853 7845 5931 5938 7851 7844 7847 7854 5942 7855 7629 7856 7857 
660 661 958 957 693 694 991 990 5721 7633 7634 7635 5948 7860 7861 7862 5946 5945 7858 7859 7865 7863 5951 7864 7639 7866 7867 
661 662 959 958 694 695 992 991 5730 7642 7643 7633 5957 7869 7870 7860 5945 5955 7868 7858 7863 7871 5959 7872 7646 7873 7874 
662 663 960 959 695 696 993 992 5737 7649 7650 7642 5964 7876 7877 7869 5955 5962 7875 7868 7871 7878 5966 7879 7653 7880 7881 
663 664 961 960 696 697 994 993 5744 7656 7657 7649 5971 7883 7884 7876 5962 5969 7882 7875 7878 7885 5973 7886 7660 7887 7888 
664 665 962 961 697 698 995 994 5751 7663 7664 7656 5978 7890 7891 7883 5969 5976 7889 7882 7885 7892 5980 7893 7667 7894 7895 
665 666 963 962 698 699 996 995 5758 7670 7671 7663 5985 7897 7898 7890 5976 5983 7896 7889 7892 7899 5987 7900 7674 7901 7902 
666 667 964 963 699 700 997 996 5765 7677 7678 7670 5992 7904 7905 7897 5983 5990 7903 7896 7899 7906 5994 7907 7681 7908 7909 
667 668 965 964 700 701 998 997 5772 7684 7685 7677 5999 7911 7912 7904 5990 5997 7910 7903 7906 7913 6001 7914 7688 7915 7916 
668 669 966 965 701 702 999 998 5779 7691 7692 7684 6006 7918 7919 7911 5997 6004 7917 7910 7913 7920 6008 7921 7695 7922 7923 
669 670 967 966 702 703 1000 999 5786 7698 7699 7691 6013 7925 7926 7918 6004 6011 7924 7917 7920 7927 6015 7928 7702 7929 7930 
670 671 968 967 703 704 1001 1000 5793 7705 7706 7698 6020 7932 7933 7925 6011 6018 7931 7924 7927 7934 6022 7935 7709 7936 7937 
671 672 969 968 704 705 1002 1001 5800 7712 7713 7705 6027 7939 7940 7932 6018 6025 7938 7931 7934 7941 6029 7942 7716 7943 7944 
672 673 970 969 705 706 1003 1002 5807 7719 7720 7712 6034 7946 7947 7939 6025 6032 7945 7938 7941 7948 6036 7949 7723 7950 7951 
673 674 971 970 706 707 1004 1003 5814 7726 7727 7719 6041 7953 7954 7946 6032 6039 7952 7945 7948 7955 6043 7956 7730 7957 7958 
674 675 972 971 707 708 1005 1004 5821 7733 7734 7726 6048 7960 7961 7953 6039 6046 7959 7952 7955 7962 6050 7963 7737 7964 7965 
675 676 973 972 708 709 1006 1005 5828 7740 7741 7733 6055 7967 7968 7960 6046 6053 7966 7959 7962 7969 6057 7970 7744 7971 7972 
676 677 974 973 709 710 1007 1006 5835 7747 7748 7740 6062 7974 7975 7967 6053 6060 7973 7966 7969 7976 6064 7977 7751 7978 7979 
677 678 975 974 710 711 1008 1007 5842 7754 7755 7747 6069 7981 7982 7974 6060 6067 7980 7973 7976 7983 6071 7984 7758 7985 7986 
678 679 976 975 711 712 1009 1008 5849 7761 7762 7754 6076 7988 7989 7981 6067 6074 7987 7980 7983 7990 6078 7991 7765 7992 7993 
679 680 977 976 712 713 1010 1009 5856 7768 7769 7761 6083 7995 7996 7988 6074 6081 7994 7987 7990 7997 6085 7998 7772 7999 8000 
680 681 978 977 713 714 1011 1010 5863 7775 7776 7768 6090 8002 8003 7995 6081 6088 8001 7994 7997 8004 6092 8005 7779 8006 8007 
681 682 979 978 714 715 1012 1011 5870 7782 7783 7775 6097 8009 8010 8002 6088 6095 8008 8001 8004 8011 6099 8012 7786 8013 8014 
682 683 980 979 715 716 1013 1012 5877 7789 7790 7782 6104 8016 8017 8009 6095 6102 8015 8008 8011 8018 6106 8019 7793 8020 8021 
683 684 981 980 716 717 1014 1013 5884 7796 7797 7789 6111 8023 8024 8016 6102 6109 8022 8015 8018 8025 6113 8026 7800 8027 8028 
684 685 982 981 717 718 1015 1014 5891 7803 7804 7796 6118 8030 8031 8023 6109 6116 8029 8022 8025 8032 6120 8033 7807 8034 8035 
685 686 983 982 718 719 1016 1015 5898 7810 7811 7803 6125 8037 8038 8030 6116 6123 8036 8029 8032 8039 6127 8040 7814 8041 8042 
686 687 984 983 719 720 1017 1016 5905 7817 7818 7810 6132 8044 8045 8037 6123 6130 8043 8036 8039 8046 6134 8047 7821 8048 8049 
687 688 985 984 720 721 1018 1017 5912 7824 7825 7817 6139 8051 8052 8044 6130 6137 8050 8043 8046 8053 6141 8054 7828 8055 8056 
688 689 986 985 721 722 1019 1018 5919 7831 7832 7824 6146 8058 8059 8051 6137 6144 8057 8050 8053 8060 6148 8061 7835 8062 8063 
689 690 987 986 722 723 1020 1019 5926 7838 7839 7831 6153 8065 8066 8058 6144 6151 8064 8057 8060 8067 6155 8068 7842 8069 8070 
690 691 988 987 723 724 1021 1020 5933 7845 7846 7838 6160 8072 8073 8065 6151 6158 8071 8064 8067 8074 6162 8075 7849 8076 8077 
691 692 989 988 724 725 1022 1021 5940 7852 7853 7845 6167 8079 8080 8072 6158 6165 8078 8071 8074 8081 6169 8082 7856 8083 8084 
693 694 991 990 726 727 1024 1023 5948 7860 7861 7862 6175 8087 8088 8089 6173 6172 8085 8086 8092 8090 6178 8091 7866 8093 8094 
694 695 992 991 727 728 1025 1024 5957 7869 7870 7860 6184 8096 8097 8087 6172 6182 8095 8085 8090 8098 6186 8099 7873 8100 8101 
695 696 993 992 728 729 1026 1025 5964 7876 7877 7869 6191 8103 8104 8096 6182 6189 8102 8095 8098 8105 6193 8106 7880 8107 8108 
696 697 994 993 729 730 1027 1026 5971 7883 7884 7876 6198 8110 8111 8103 6189 6196 8109 8102 8105 8112 6200 8113 7887 8114 8115 
697 698 995 994 730 731 1028 1027 5978 7890 7891 7883 6205 8117 8118 8110 6196 6203 8116 8109 8112 8119 6207 8120 7894 8121 8122 
698 699 996 995 731 732 1029 1028 5985 7897 7898 7890 6212 8124 8125 8117 6203 6210 8123 8116 8119 8126 6214 8127 7901 8128 8129 
699 700 997 996 732 733 1030 1029 5992 7904 7905 7897 6219 8131 8132 8124 6210 6217 8130 8123 8126 8133 6221 8134 7908 8135 8136 
700 701 998 997 733 734 1031 1030 5999 7911 7912 7904 6226 8138 8139 8131 6217 6224 8137 8130 8133 8140 6228 8141 7915 8142 8143 
701 702 999 998 734 735 1032 1031 6006 7918 7919 7911 6233 8145 8146 8138 6224 6231 8144 8137 8140 8147 6235 8148 7922 8149 8150 
702 703 1000 999 735 736 1033 1032 6013 7925 7926 7918 6240 8152 8153 8145 6231 6238 8151 8144 8147 8154 6242 8155 7929 8156 8157 
703 704 1001 1000 736 737 1034 1033 6020 7932 7933 7925 6247 8159 8160 8152 6238 6245 8158 8151 8154 8161 6249 8162 7936 8163 8164 
704 705 1002 1001 737 738 1035 1034 6027 7939 7940 7932 6254 8166 8167 8159 6245 6252 8165 8158 8161 8168 6256 8169 7943 8170 8171 
705 706 1003 1002 738 739 1036 1035 6034 7946 7947 7939 6261 8173 8174 8166 6252 6259 8172 8165 8168 8175 6263 8176 7950 8177 8178 
706 707 1004 1003 739 740 1037 1036 6041 7953 7954 7946 6268 8180 8181 8173 6259 6266 8179 8172 8175 8182 6270 8183 7957 8184 8185 
707 708 1005 1004 740 741 1038 1037 6048 7960 7961 7953 6275 8187 8188 8180 6266 6273 8186 8179 8182 8189 6277 8190 7964 8191 8192 
708 709 1006 1005 741 742 1039 1038 6055 7967 7968 7960 6282 8194 8195 8187 6273 6280 8193 8186 8189 8196 6284 8197 7971 8198 8199 
709 710 1007 1006 742 743 1040 1039 6062 7974 7975 7967 6289 8201 8202 8194 6280 6287 8200 8193 8196 8203 6291 8204 7978 8205 8206 
710 711 1008 1007 743 744 1041 1040 6069 7981 7982 7974 6296 8208 8209 8201 6287 6294 8207 8200 8203 8210 6298 8211 7985 8212 8213 
711 712 1009 1008 744 745 1042 1041 6076 7988 7989 7981 6303 8215 8216 8208 6294 6301 8214 8207 8210 8217 6305 8218 7992 8219 8220 
712 713 1010 1009 745 746 1043 1042 6083 7995 7996 7988 6310 8222 8223 8215 6301 6308 8221 8214 8217 8224 6312 8225 7999 8226 8227 
713 714 1011 1010 746 747 1044 1043 6090 8002 8003 7995 6317 8229 8230 8222 6308 6315 8228 8221 8224 8231 6319 8232 8006 8233 8234 
714 715 1012 1011 747 748 1045 1044 6097 8009 8010 8002 6324 8236 8237 8229 6315 6322 8235 8228 8231 8238 6326 8239 8013 8240 8241 
715 716 1013 1012 748 749 1046 1045 6104 8016 8017 8009 6331 8243 8244 8236 6322 6329 8242 8235 8238 8245 6333 8246 8020 8247 8248 
716 717 1014 1013 749 750 1047 1046 6111 8023 8024 8016 6338 8250 8251 8243 6329 6336 8249 8242 8245 8252 6340 8253 8027 8254 8255 
717 718 1015 1014 750 751 1048 1047 6118 8030 8031 8023 6345 8257 8258 8250 6336 6343 8256 8249 8252 8259 6347 8260 8034 8261 8262 
718 719 1016 1015 751 752 1049 1048 6125 8037 8038 8030 6352 8264 8265 8257 6343 6350 8263 8256 8259 8266 6354 8267 8041 8268 8269 
719 720 1017 1016 752 753 1050 1049 6132 8044 8045 8037 6359 8271 8272 8264 6350 6357 8270 8263 8266 8273 6361 8274 8048 8275 8276 
720 721 1018 1017 753 754 1051 1050 6139 8051 8052 8044 6366 8278 8279 8271 6357 6364 8277 8270 8273 8280 6368 8281 8055 8282 8283 
721 722 1019 1018 754 755 1052 1051 6146 8058 8059 8051 6373 8285 8286 8278 6364 6371 8284 8277 8280 8287 6375 8288 8062 8289 8290 
722 723 1020 1019 755 756 1053 1052 6153 8065 8066 8058 6380 8292 8293 8285 6371 6378 8291 8284 8287 8294 6382 8295 8069 8296 8297 
723 724 1021 1020 756 757 1054 1053 6160 8072 8073 8065 6387 8299 8300 8292 6378 6385 8298 8291 8294 8301 6389 8302 8076 8303 8304 
724 725 1022 1021 757 758 1055 1054 6167 8079 8080 8072 6394 8306 8307 8299 6385 6392 8305 8298 8301 8308 6396 8309 8083 8310 8311 
726 727 1024 1023 759 760 1057 1056 6175 8087 8088 8089 6402 8314 8315 8316 6400 6399 8312 8313 8319 8317 6405 8318 8093 8320 8321 
727 728 1025 1024 760 761 1058 1057 6184 8096 8097 8087 6411 8323 8324 8314 6399 6409 8322 8312 8317 8325 6413 8326 8100 8327 8328 
728 729 1026 1025 761 762 1059 1058 6191 8103 8104 8096 6418 8330 8331 8323 6409 6416 8329 8322 8325 8332 6420 8333 8107 8334 8335 
729 730 1027 1026 762 763 1060 1059 6198 8110 8111 8103 6425 8337 8338 8330 6416 6423 8336 8329 8332 8339 6427 8340 8114 8341 8342 
730 731 1028 1027 763 764 1061 1060 6205 8117 8118 8110 6432 8344 8345 8337 6423 6430 8343 8336 8339 8346 6434 8347 8121 8348 8349 
731 732 1029 1028 764 765 1062 1061 6212 8124 8125 8117 6439 8351 8352 8344 6430 6437 8350 8343 8346 8353 6441 8354 8128 8355 8356 
732 733 1030 1029 765 766 1063 1062 6219 8131 8132 8124 6446 8358 8359 8351 6437 6444 8357 8350 8353 8360 6448 8361 8135 8362 8363 
733 734 1031 1030 766 767 1064 1063 6226 8138 8139 8131 6453 8365 8366 8358 6444 6451 8364 8357 8360 8367 6455 8368 8142 8369 8370 
734 735 1032 1031 767 768 1065 1064 6233 8145 8146 8138 6460 8372 8373 8365 6451 6458 8371 8364 8367 8374 6462 8375 8149 8376 8377 
735 736 1033 1032 768 769 1066 1065 6240 8152 8153 8145 6467 8379 8380 8372 6458 6465 8378 8371 8374 8381 6469 8382 8156 8383 8384 
736 737 1034 1033 769 770 1067 1066 6247 8159 8160 8152 6474 8386 8387 8379 6465 6472 8385 8378 8381 8388 6476 8389 8163 8390 8391 
737 738 1035 1034 770 771 1068 1067 6254 8166 8167 8159 6481 8393 8394 8386 6472 6479 8392 8385 8388 8395 6483 8396 8170 8397 8398 
738 739 1036 1035 771 772 1069 1068 6261 8173 8174 8166 6488 8400 8401 8393 6479 6486 8399 8392 8395 8402 6490 8403 8177 8404 8405 
739 740 1037 1036 772 773 1070 1069 6268 8180 8181 8173 6495 8407 8408 8400 6486 6493 8406 8399 8402 8409 6497 8410 8184 8411 8412 
740 741 1038 1037 773 774 1071 1070 6275 8187 8188 8180 6502 8414 8415 8407 6493 6500 8413 8406 8409 8416 6504 8417 8191 8418 8419 
741 742 1039 1038 774 775 1072 1071 6282 8194 8195 8187 6509 8421 8422 8414 6500 6507 8420 8413 8416 8423 6511 8424 8198 8425 8426 
742 743 1040 1039 775 776 1073 1072 6289 8201 8202 8194 6516 8428 8429 8421 6507 6514 8427 8420 8423 8430 6518 8431 8205 8432 8433 
743 744 1041 1040 776 777 1074 1073 6296 8208 8209 8201 6523 8435 8436 8428 6514 6521 8434 8427 8430 8437 6525 8438 8212 8439 8440 
744 745 1042 1041 777 778 1075 1074 6303 8215 8216 8208 6530 8442 8443 8435 6521 6528 8441 8434 8437 8444 6532 8445 8219 8446 8447 
745 746 1043 1042 778 779 1076 1075 6310 8222 8223 8215 6537 8449 8450 8442 6528 6535 8448 8441 8444 8451 6539 8452 8226 8453 8454 
746 747 1044 1043 779 780 1077 1076 6317 8229 8230 8222 6544 8456 8457 8449 6535 6542 8455 8448 8451 8458 6546 8459 8233 8460 8461 
747 748 1045 1044 780 781 1078 1077 6324 8236 8237 8229 6551 8463 8464 8456 6542 6549 8462 8455 8458 8465 6553 8466 8240 8467 8468 
748 749 1046 1045 781 782 1079 1078 6331 8243 8244 8236 6558 8470 8471 8463 6549 6556 8469 8462 8465 8472 6560 8473 8247 8474 8475 
749 750 1047 1046 782 783 1080 1079 6338 8250 8251 8243 6565 8477 8478 8470 6556 6563 8476 8469 8472 8479 6567 8480 8254 8481 8482 
750 751 1048 1047 783 784 1081 1080 6345 8257 8258 8250 6572 8484 8485 8477 6563 6570 8483 8476 8479 8486 6574 8487 8261 8488 8489 
751 752 1049 1048 784 785 1082 1081 6352 8264 8265 8257 6579 8491 8492 8484 6570 6577 8490 8483 8486 8493 6581 8494 8268 8495 8496 
752 753 1050 1049 785 786 1083 1082 6359 8271 8272 8264 6586 8498 8499 8491 6577 6584 8497 8490 8493 8500 6588 8501 8275 8502 8503 
753 754 1051 1050 786 787 1084 1083 6366 8278 8279 8271 6593 8505 8506 8498 6584 6591 8504 8497 8500 8507 6595 8508 8282 8509 8510 
754 755 1052 1051 787 788 1085 1084 6373 8285 8286 8278 6600 8512 8513 8505 6591 6598 8511 8504 8507 8514 6602 8515 8289 8516 8517 
755 756 1053 1052 788 789 1086 1085 6380 8292 8293 8285 6607 8519 8520 8512 6598 6605 8518 8511 8514 8521 6609 8522 8296 8523 8524 
756 757 1054 1053 789 790 1087 1086 6387 8299 8300 8292 6614 8526 8527 8519 6605 6612 8525 8518 8521 8528 6616 8529 8303 8530 8531 
757 758 1055 1054 790 791 1088 1087 6394 8306 8307 8299 6621 8533 8534 8526 6612 6619 8532 8525 8528 8535 6623 8536 8310 8537 8538 
759 760 1057 1056 792 793 1090 1089 6402 8314 8315 8316 6629 8541 8542 8543 6627 6626 8539 8540 8546 8544 6632 8545 8320 8547 8548 
760 761 1058 1057 793 794 1091 1090 6411 8323 8324 8314 6638 8550 8551 8541 6626 6636 8549 8539 8544 8552 6640 8553 8327 8554 8555 
761 762 1059 1058 794 795 1092 1091 6418 8330 8331 8323 6645 8557 8558 8550 6636 6643 8556 8549 8552 8559 6647 8560 8334 8561 8562 
762 763 1060 1059 795 796 1093 1092 6425 8337 8338 8330 6652 8564 8565 8557 6643 6650 8563 8556 8559 8566 6654 8567 8341 8568 8569 
763 764 1061 1060 796 797 1094 1093 6432 8344 8345 8337 6659 8571 8572 8564 6650 6657 8570 8563 8566 8573 6661 8574 8348 8575 8576 
764 765 1062 1061 797 798 1095 1094 6439 8351 8352 8344 6666 8578 8579 8571 6657 6664 8577 8570 8573 8580 6668 8581 8355 8582 8583 
765 766 1063 1062 798 799 1096 1095 6446 8358 8359 8351 6673 8585 8586 8578 6664 6671 8584 8577 8580 8587 6675 8588 8362 8589 8590 
766 767 1064 1063 799 800 1097 1096 6453 8365 8366 8358 6680 8592 8593 8585 6671 6678 8591 8584 8587 8594 6682 8595 8369 8596 8597 
767 768 1065 1064 800 801 1098 1097 6460 8372 8373 8365 6687 8599 8600 8592 6678 6685 8598 8591 8594 8601 6689 8602 8376 8603 8604 
768 769 1066 1065 801 802 1099 1098 6467 8379 8380 8372 6694 8606 8607 8599 6685 6692 8605 8598 8601 8608 6696 8609 8383 8610 8611 
769 770 1067 1066 802 803 1100 1099 6474 8386 8387 8379 6701 8613 8614 8606 6692 6699 8612 8605 8608 8615 6703 8616 8390 8617 8618 
770 771 1068 1067 803 804 1101 1100 6481 8393 8394 8386 6708 8620 8621 8613 6699 6706 8619 8612 8615 8622 6710 8623 8397 8624 8625 
771 772 1069 1068 804 805 1102 1101 6488 8400 8401 8393 6715 8627 8628 8620 6706 6713 8626 8619 8622 8629 6717 8630 8404 8631 8632 
772 773 1070 1069 805 806 1103 1102 6495 8407 8408 8400 6722 8634 8635 8627 6713 6720 8633 8626 8629 8636 6724 8637 8411 8638 8639 
773 774 1071 1070 806 807 1104 1103 6502 8414 8415 8407 6729 8641 8642 8634 6720 6727 8640 8633 8636 8643 6731 8644 8418 8645 8646 
774 775 1072 1071 807 808 1105 1104 6509 8421 8422 8414 6736 8648 8649 8641 6727 6734 8647 8640 8643 8650 6738 8651 8425 8652 8653 
775 776 1073 1072 808 809 1106 1105 6516 8428 8429 8421 6743 8655 8656 8648 6734 6741 8654 8647 8650 8657 6745 8658 8432 8659 8660 
776 777 1074 1073 809 810 1107 1106 6523 8435 8436 8428 6750 8662 8663 8655 6741 6748 8661 8654 8657 8664 6752 8665 8439 8666 8667 
777 778 1075 1074 810 811 1108 1107 6530 8442 8443 8435 6757 8669 8670 8662 6748 6755 8668 8661 8664 8671 6759 8672 8446 8673 8674 
778 779 1076 1075 811 812 1109 1108 6537 8449 8450 8442 6764 8676 8677 8669 6755 6762 8675 8668 8671 8678 6766 8679 8453 8680 8681 
779 780 1077 1076 812 813 1110 1109 6544 8456 8457 8449 6771 8683 8684 8676 6762 6769 8682 8675 8678 8685 6773 8686 8460 8687 8688 
780 781 1078 1077 813 814 1111 1110 6551 8463 8464 8456 6778 8690 8691 8683 6769 6776 8689 8682 8685 8692 6780 8693 8467 8694 8695 
781 782 1079 1078 814 815 1112 1111 6558 8470 8471 8463 6785 8697 8698 8690 6776 6783 8696 8689 8692 8699 6787 8700 8474 8701 8702 
782 783 1080 1079 815 816 1113 1112 6565 8477 8478 8470 6792 8704 8705 8697 6783 6790 8703 8696 8699 8706 6794 8707 8481 8708 8709 
783 784 1081 1080 816 817 1114 1113 6572 8484 8485 8477 6799 8711 8712 8704 6790 6797 8710 8703 8706 8713 6801 8714 8488 8715 8716 
784 785 1082 1081 817 818 1115 1114 6579 8491 8492 8484 6806 8718 8719 8711 6797 6804 8717 8710 8713 8720 6808 8721 8495 8722 8723 
785 786 1083 1082 818 819 1116 1115 6586 8498 8499 8491 6813 8725 8726 8718 6804 6811 8724 8717 8720 8727 6815 8728 8502 8729 8730 
786 787 1084 1083 819 820 1117 1116 6593 8505 8506 8498 6820 8732 8733 8725 6811 6818 8731 8724 8727 8734 6822 8735 8509 8736 8737 
787 788 1085 1084 820 821 1118 1117 6600 8512 8513 8505 6827 8739 8740 8732 6818 6825 8738 8731 8734 8741 6829 8742 8516 8743 8744 
788 789 1086 1085 821 822 1119 1118 6607 8519 8520 8512 6834 8746 8747 8739 6825 6832 8745 8738 8741 8748 6836 8749 8523 8750 8751 
789 790 1087 1086 822 823 1120 1119 6614 8526 8527 8519 6841 8753 8754 8746 6832 6839 8752 8745 8748 8755 6843 8756 8530 8757 8758 
790 791 1088 1087 823 824 1121 1120 6621 8533 8534 8526 6848 8760 8761 8753 6839 6846 8759 8752 8755 8762 6850 8763 8537 8764 8765 
792 793 1090 1089 825 826 1123 1122 6629 8541 8542 8543 6856 8768 8769 8770 6854 6853 8766 8767 8773 8771 6859 8772 8547 8774 8775 
793 794 1091 1090 826 827 1124 1123 6638 8550 8551 8541 6865 8777 8778 8768 6853 6863 8776 8766 8771 8779 6867 8780 8554 8781 8782 
794 795 1092 1091 827 828 1125 1124 6645 8557 8558 8550 6872 8784 8785 8777 6863 6870 8783 8776 8779 8786 6874 8787 8561 8788 8789 
795 796 1093 1092 828 829 1126 1125 6652 8564 8565 8557 6879 8791 8792 8784 6870 6877 8790 8783 8786 8793 6881 8794 8568 8795 8796 
796 797 1094 1093 829 830 1127 1126 6659 8571 8572 8564 6886 8798 8799 8791 6877 6884 8797 8790 8793 8800 6888 8801 8575 8802 8803 
797 798 1095 1094 830 831 1128 1127 6666 8578 8579 8571 6893 8805 8806 8798 6884 6891 8804 8797 8800 8807 6895 8808 8582 8809 8810 
798 799 1096 1095 831 832 1129 1128 6673 8585 8586 8578 6900 8812 8813 8805 6891 6898 8811 8804 8807 8814 6902 8815 8589 8816 8817 
799 800 1097 1096 832 833 1130 1129 6680 8592 8593 8585 6907 8819 8820 8812 6898 6905 8818 8811 8814 8821 6909 8822 8596 8823 8824 
800 801 1098 1097 833 834 1131 1130 6687 8599 8600 8592 6914 8826 8827 8819 6905 6912 8825 8818 8821 8828 6916 8829 8603 8830 8831 
801 802 1099 1098 834 835 1132 1131 6694 8606 8607 8599 6921 8833 8834 8826 6912 6919 8832 8825 8828 8835 6923 8836 8610 8837 8838 
802 803 1100 1099 835 836 1133 1132 6701 8613 8614 8606 6928 8840 8841 8833 6919 6926 8839 8832 8835 8842 6930 8843 8617 8844 8845 
803 804 1101 1100 836 837 1134 1133 6708 8620 8621 8613 6935 8847 8848 8840 6926 6933 8846 8839 8842 8849 6937 8850 8624 8851 8852 
804 805 1102 1101 837 838 1135 1134 6715 8627 8628 8620 6942 8854 8855 8847 6933 6940 8853 8846 8849 8856 6944 8857 8631 8858 8859 
805 806 1103 1102 838 839 1136 1135 6722 8634 8635 8627 6949 8861 8862 8854 6940 6947 8860 8853 8856 8863 6951 8864 8638 8865 8866 
806 807 1104 1103 839 840 1137 1136 6729 8641 8642 8634 6956 8868 8869 8861 6947 6954 8867 8860 8863 8870 6958 8871 8645 8872 8873 
807 808 1105 1104 840 841 1138 1137 6736 8648 8649 8641 6963 8875 8876 8868 6954 6961 8874 8867 8870 8877 6965 8878 8652 8879 8880 
808 809 1106 1105 841 842 1139 1138 6743 8655 8656 8648 6970 8882 8883 8875 6961 6968 8881 8874 8877 8884 6972 8885 8659 8886 8887 
809 810 1107 1106 842 843 1140 1139 6750 8662 8663 8655 6977 8889 8890 8882 6968 6975 8888 8881 8884 8891 6979 8892 8666 8893 8894 
810 811 1108 1107 843 844 1141 1140 6757 8669 8670 8662 6984 8896 8897 8889 6975 6982 8895 8888 8891 8898 6986 8899 8673 8900 8901 
811 812 1109 1108 844 845 1142 1141 6764 8676 8677 8669 6991 8903 8904 8896 6982 6989 8902 8895 8898 8905 6993 8906 8680 8907 8908 
812 813 1110 1109 845 846 1143 1142 6771 8683 8684 8676 6998 8910 8911 8903 6989 6996 8909 8902 8905 8912 7000 8913 8687 8914 8915 
813 814 1111 1110 846 847 1144 1143 6778 8690 8691 8683 7005 8917 8918 8910 6996 7003 8916 8909 8912 8919 7007 8920 8694 8921 8922 
814 815 1112 1111 847 848 1145 1144 6785 8697 8698 8690 7012 8924 8925 8917 7003 7010 8923 8916 8919 8926 7014 8927 8701 8928 8929 
815 816 1113 1112 848 849 1146 1145 6792 8704 8705 8697 7019 8931 8932 8924 7010 7017 8930 8923 8926 8933 7021 8934 8708 8935 8936 
816 817 1114 1113 849 850 1147 1146 6799 8711 8712 8704 7026 8938 8939 8931 7017 7024 8937 8930 8933 8940 7028 8941 8715 8942 8943 
817 818 1115 1114 850 851 1148 1147 6806 8718 8719 8711 7033 8945 8946 8938 7024 7031 8944 8937 8940 8947 7035 8948 8722 8949 8950 
818 819 1116 1115 851 852 1149 1148 6813 8725 8726 8718 7040 8952 8953 8945 7031 7038 8951 8944 8947 8954 7042 8955 8729 8956 8957 
819 820 1117 1116 852 853 1150 1149 6820 8732 8733 8725 7047 8959 8960 8952 7038 7045 8958 8951 8954 8961 7049 8962 8736 8963 8964 
820 821 1118 1117 853 854 1151 1150 6827 8739 8740 8732 7054 8966 8967 8959 7045 7052 8965 8958 8961 8968 7056 8969 8743 8970 8971 
821 822 1119 1118 854 855 1152 1151 6834 8746 8747 8739 7061 8973 8974 8966 7052 7059 8972 8965 8968 8975 7063 8976 8750 8977 8978 
822 823 1120 1119 855 856 1153 1152 6841 8753 8754 8746 7068 8980 8981 8973 7059 7066 8979 8972 8975 8982 7070 8983 8757 8984 8985 
823 824 1121 1120 856 857 1154 1153 6848 8760 8761 8753 7075 8987 8988 8980 7066 7073 8986 8979 8982 8989 7077 8990 8764 8991 8992 
825 826 1123 1122 858 859 1156 1155 6856 8768 8769 8770 7083 8995 8996 8997 7081 7080 8993 8994 9000 8998 7086 8999 8774 9001 9002 
826 827 1124 1123 859 860 1157 1156 6865 8777 8778 8768 7092 9004 9005 8995 7080 7090 9003 8993 8998 9006 7094 9007 8781 9008 9009 
827 828 1125 1124 860 861 1158 1157 6872 8784 8785 8777 7099 9011 9012 9004 7090 7097 9010 9003 9006 9013 7101 9014 8788 9015 9016 
828 829 1126 1125 861 862 1159 1158 6879 8791 8792 8784 7106 9018 9019 9011 7097 7104 9017 9010 9013 9020 7108 9021 8795 9022 9023 
829 830 1127 1126 862 863 1160 1159 6886 8798 8799 8791 7113 9025 9026 9018 7104 7111 9024 9017 9020 9027 7115 9028 8802 9029 9030 
830 831 1128 1127 863 864 1161 1160 6893 8805 8806 8798 7120 9032 9033 9025 7111 7118 9031 9024 9027 9034 7122 9035 8809 9036 9037 
831 832 1129 1128 864 865 1162 1161 6900 8812 8813 8805 7127 9039 9040 9032 7118 7125 9038 9031 9034 9041 7129 9042 8816 9043 9044 
832 833 1130 1129 865 866 1163 1162 6907 8819 8820 8812 7134 9046 9047 9039 7125 7132 9045 9038 9041 9048 7136 9049 8823 9050 9051 
833 834 1131 1130 866 867 1164 1163 6914 8826 8827 8819 7141 9053 9054 9046 7132 7139 9052 9045 9048 9055 7143 9056 8830 9057 9058 
834 835 1132 1131 867 868 1165 1164 6921 8833 8834 8826 7148 9060 9061 9053 7139 7146 9059 9052 9055 9062 7150 9063 8837 9064 9065 
835 836 1133 1132 868 869 1166 1165 6928 8840 8841 8833 7155 9067 9068 9060 7146 7153 9066 9059 9062 9069 7157 9070 8844 9071 9072 
836 837 1134 1133 869 870 1167 1166 6935 8847 8848 8840 7162 9074 9075 9067 7153 7160 9073 9066 9069 9076 7164 9077 8851 9078 9079 
837 838 1135 1134 870 871 1168 1167 6942 8854 8855 8847 7169 9081 9082 9074 7160 7167 9080 9073 9076 9083 7171 9084 8858 9085 9086 
838 839 1136 1135 871 872 1169 1168 6949 8861 8862 8854 7176 9088 9089 9081 7167 7174 9087 9080 9083 9090 7178 9091 8865 9092 9093 
839 840 1137 1136 872 873 1170 1169 6956 8868 8869 8861 7183 9095 9096 9088 7174 7181 9094 9087 9090 9097 7185 9098 8872 9099 9100 
840 841 1138 1137 873 874 1171 1170 6963 8875 8876 8868 7190 9102 9103 9095 7181 7188 9101 9094 9097 9104 7192 9105 8879 9106 9107 
841 842 1139 1138 874 875 1172 1171 6970 8882 8883 8875 7197 9109 9110 9102 7188 7195 9108 9101 9104 9111 7199 9112 8886 9113 9114 
842 843 1140 1139 875 876 1173 1172 6977 8889 8890 8882 7204 9116 9117 9109 7195 7202 9115 9108 9111 9118 7206 9119 8893 9120 9121 
843 844 1141 1140 876 877 1174 1173 6984 8896 8897 8889 7211 9123 9124 9116 7202 7209 9122 9115 9118 9125 7213 9126 8900 9127 9128 
844 845 1142 1141 877 878 1175 1174 6991 8903 8904 8896 7218 9130 9131 9123 7209 7216 9129 9122 9125 9132 7220 9133 8907 9134 9135 
845 846 1143 1142 878 879 1176 1175 6998 8910 8911 8903 7225 9137 9138 9130 7216 7223 9136 9129 9132 9139 7227 9140 8914 9141 9142 
846 847 1144 1143 879 880 1177 1176 7005 8917 8918 8910 7232 9144 9145 9137 7223 7230 9143 9136 9139 9146 7234 9147 8921 9148 9149 
847 848 1145 1144 880 881 1178 1177 7012 8924 8925 8917 7239 9151 9152 9144 7230 7237 9150 9143 9146 9153 7241 9154 8928 9155 9156 
848 849 1146 1145 881 882 1179 1178 7019 8931 8932 8924 7246 9158 9159 9151 7237 7244 9157 9150 9153 9160 7248 9161 8935 9162 9163 
849 850 1147 1146 882 883 1180 1179 7026 8938 8939 8931 7253 9165 9166 9158 7244 7251 9164 9157 9160 9167 7255 9168 8942 9169 9170 
850 851 1148 1147 883 884 1181 1180 7033 8945 8946 8938 7260 9172 9173 9165 7251 7258 9171 9164 9167 9174 7262 9175 8949 9176 9177 
851 852 1149 1148 884 885 1182 1181 7040 8952 8953 8945 7267 9179 9180 9172 7258 7265 9178 9171 9174 9181 7269 9182 8956 9183 9184 
852 853 1150 1149 885 886 1183 1182 7047 8959 8960 8952 7274 9186 9187 9179 7265 7272 9185 9178 9181 9188 7276 9189 8963 9190 9191 
853 854 1151 1150 886 887 1184 1183 7054 8966 8967 8959 7281 9193 9194 9186 7272 7279 9192 9185 9188 9195 7283 9196 8970 9197 9198 
854 855 1152 1151 887 888 1185 1184 7061 8973 8974 8966 7288 9200 9201 9193 7279 7286 9199 9192 9195 9202 7290 9203 8977 9204 9205 
855 856 1153 1152 888 889 1186 1185 7068 8980 8981 8973 7295 9207 9208 9200 7286 7293 9206 9199 9202 9209 7297 9210 8984 9211 9212 
856 857 1154 1153 889 890 1187 1186 7075 8987 8988 8980 7302 9214 9215 9207 7293 7300 9213 9206 9209 9216 7304 9217 8991 9218 9219 
891 892 1189 1188 924 925 1222 1221 7308 9220 9221 9222 7313 9225 9226 9227 7311 7310 9223 9224 9231 9229 7317 9230 9228 9232 9233 
892 893 1190 1189 925 926 1223 1222 7322 9234 9235 9220 7325 9237 9238 9225 7310 7323 9236 9223 9229 9240 7328 9241 9239 9242 9243 
893 894 1191 1190 926 927 1224 1223 7332 9244 9245 9234 7335 9247 9248 9237 7323 7333 9246 9236 9240 9250 7338 9251 9249 9252 9253 
894 895 1192 1191 927 928 1225 1224 7342 9254 9255 9244 7345 9257 9258 9247 7333 7343 9256 9246 9250 9260 7348 9261 9259 9262 9263 
895 896 1193 1192 928 929 1226 1225 7352 9264 9265 9254 7355 9267 9268 9257 7343 7353 9266 9256 9260 9270 7358 9271 9269 9272 9273 
896 897 1194 1193 929 930 1227 1226 7362 9274 9275 9264 7365 9277 9278 9267 7353 7363 9276 9266 9270 9280 7368 9281 9279 9282 9283 
897 898 1195 1194 930 931 1228 1227 7372 9284 9285 9274 7375 9287 9288 9277 7363 7373 9286 9276 9280 9290 7378 9291 9289 9292 9293 
898 899 1196 1195 931 932 1229 1228 7382 9294 9295 9284 7385 9297 9298 9287 7373 7383 9296 9286 9290 9300 7388 9301 9299 9302 9303 
899 900 1197 1196 932 933 1230 1229 7392 9304 9305 9294 7395 9307 9308 9297 7383 7393 9306 9296 9300 9310 7398 9311 9309 9312 9313 
900 901 1198 1197 933 934 1231 1230 7402 9314 9315 9304 7405 9317 9318 9307 7393 7403 9316 9306 9310 9320 7408 9321 9319 9322 9323 
901 902 1199 1198 934 935 1232 1231 7412 9324 9325 9314 7415 9327 9328 9317 7403 7413 9326 9316 9320 9330 7418 9331 9329 9332 9333 
902 903 1200 1199 935 936 1233 1232 7422 9334 9335 9324 7425 9337 9338 9327 7413 7423 9336 9326 9330 9340 7428 9341 9339 9342 9343 
903 904 1201 1200 936 937 1234 1233 7432 9344 9345 9334 7435 9347 9348 9337 7423 7433 9346 9336 9340 9350 7438 9351 9349 9352 9353 
904 905 1202 1201 937 938 1235 1234 7442 9354 9355 9344 7445 9357 9358 9347 7433 7443 9356 9346 9350 9360 7448 9361 9359 9362 9363 
905 906 1203 1202 938 939 1236 1235 7452 9364 9365 9354 7455 9367 9368 9357 7443 7453 9366 9356 9360 9370 7458 9371 9369 9372 9373 
906 907 1204 1203 939 940 1237 1236 7462 9374 9375 9364 7465 9377 9378 9367 7453 7463 9376 9366 9370 9380 7468 9381 9379 9382 9383 
907 908 1205 1204 940 941 1238 1237 7472 9384 9385 9374 7475 9387 9388 9377 7463 7473 9386 9376 9380 9390 7478 9391 9389 9392 9393 
908 909 1206 1205 941 942 1239 1238 7482 9394 9395 9384 7485 9397 9398 9387 7473 7483 9396 9386 9390 9400 7488 9401 9399 9402 9403 
909 910 1207 1206 942 943 1240 1239 7492 9404 9405 9394 7495 9407 9408 9397 7483 7493 9406 9396 9400 9410 7498 9411 9409 9412 9413 
910 911 1208 1207 943 944 1241 1240 7502 9414 9415 9404 7505 9417 9418 9407 7493 7503 9416 9406 9410 9420 7508 9421 9419 9422 9423 
911 912 1209 1208 944 945 1242 1241 7512 9424 9425 9414 7515 9427 9428 9417 7503 7513 9426 9416 9420 9430 7518 9431 9429 9432 9433 
912 913 1210 1209 945 946 1243 1242 7522 9434 9435 9424 7525 9437 9438 9427 7513 7523 9436 9426 9430 9440 7528 9441 9439 9442 9443 
913 914 1211 1210 946 947 1244 1243 7532 9444 9445 9434 7535 9447 9448 9437 7523 7533 9446 9436 9440 9450 7538 9451 9449 9452 9453 
914 915 1212 1211 947 948 1245 1244 7542 9454 9455 9444 7545 9457 9458 9447 7533 7543 9456 9446 9450 9460 7548 9461 9459 9462 9463 
915 916 1213 1212 948 949 1246 1245 7552 9464 9465 9454 7555 9467 9468 9457 7543 7553 9466 9456 9460 9470 7558 9471 9469 9472 9473 
916 917 1214 1213 949 950 1247 1246 7562 9474 9475 9464 7565 9477 9478 9467 7553 7563 9476 9466 9470 9480 7568 9481 9479 9482 9483 
917 918 1215 1214 950 951 1248 1247 7572 9484 9485 9474 7575 9487 9488 9477 7563 7573 9486 9476 9480 9490 7578 9491 9489 9492 9493 
918 919 1216 1215 951 952 1249 1248 7582 9494 9495 9484 7585 9497 9498 9487 7573 7583 9496 9486 9490 9500 7588 9501 9499 9502 9503 
919 920 1217 1216 952 953 1250 1249 7592 9504 9505 9494 7595 9507 9508 9497 7583 7593 9506 9496 9500 9510 7598 9511 9509 9512 9513 
920 921 1218 1217 953 954 1251 1250 7602 9514 9515 9504 7605 9517 9518 9507 7593 7603 9516 9506 9510 9520 7608 9521 9519 9522 9523 
921 922 1219 1218 954 955 1252 1251 7612 9524 9525 9514 7615 9527 9528 9517 7603 7613 9526 9516 9520 9530 7618 9531 9529 9532 9533 
922 923 1220 1219 955 956 1253 1252 7622 9534 9535 9524 7625 9537 9538 9527 7613 7623 9536 9526 9530 9540 7628 9541 9539 9542 9543 
924 925 1222 1221 957 958 1255 1254 7313 9225 9226 9227 7634 9546 9547 9548 7632 7631 9544 9545 9551 9549 7637 9550 9232 9552 9553 
925 926 1223 1222 958 959 1256 1255 7325 9237 9238 9225 7643 9555 9556 9546 7631 7641 9554 9544 9549 9557 7645 9558 9242 9559 9560 
926 927 1224 1223 959 960 1257 1256 7335 9247 9248 9237 7650 9562 9563 9555 7641 7648 9561 9554 9557 9564 7652 9565 9252 9566 9567 
927 928 1225 1224 960 961 1258 1257 7345 9257 9258 9247 7657 9569 9570 9562 7648 7655 9568 9561 9564 9571 7659 9572 9262 9573 9574 
928 929 1226 1225 961 962 1259 1258 7355 9267 9268 9257 7664 9576 9577 9569 7655 7662 9575 9568 9571 9578 7666 9579 9272 9580 9581 
929 930 1227 1226 962 963 1260 1259 7365 9277 9278 9267 7671 9583 9584 9576 7662 7669 9582 9575 9578 9585 7673 9586 9282 9587 9588 
930 931 1228 1227 963 964 1261 1260 7375 9287 9288 9277 7678 9590 9591 9583 7669 7676 9589 9582 9585 9592 7680 9593 9292 9594 9595 
931 932 1229 1228 964 965 1262 1261 7385 9297 9298 9287 7685 9597 9598 9590 7676 7683 9596 9589 9592 9599 7687 9600 9302 9601 9602 
932 933 1230 1229 965 966 1263 1262 7395 9307 9308 9297 7692 9604 9605 9597 7683 7690 9603 9596 9599 9606 7694 9607 9312 9608 9609 
933 934 1231 1230 966 967 1264 1263 7405 9317 9318 9307 7699 9611 9612 9604 7690 7697 9610 9603 9606 9613 7701 9614 9322 9615 9616 
934 935 1232 1231 967 968 1265 1264 7415 9327 9328 9317 7706 9618 9619 9611 7697 7704 9617 9610 9613 9620 7708 9621 9332 9622 9623 
935 936 1233 1232 968 969 1266 1265 7425 9337 9338 9327 7713 9625 9626 9618 7704 7711 9624 9617 9620 9627 7715 9628 9342 9629 9630 
936 937 1234 1233 969 970 1267 1266 7435 9347 9348 9337 7720 9632 9633 9625 7711 7718 9631 9624 9627 9634 7722 9635 9352 9636 9637 
937 938 1235 1234 970 971 1268 1267 7445 9357 9358 9347 7727 9639 9640 9632 7718 7725 9638 9631 9634 9641 7729 9642 9362 9643 9644 
938 939 1236 1235 971 972 1269 1268 7455 9367 9368 9357 7734 9646 9647 9639 7725 7732 9645 9638 9641 9648 7736 9649 9372 9650 9651 
939 940 1237 1236 972 973 1270 1269 7465 9377 9378 9367 7741 9653 9654 9646 7732 7739 9652 9645 9648 9655 7743 9656 9382 9657 9658 
940 941 1238 1237 973 974 1271 1270 7475 9387 9388 9377 7748 9660 9661 9653 7739 7746 9659 9652 9655 9662 7750 9663 9392 9664 9665 
941 942 1239 1238 974 975 1272 1271 7485 9397 9398 9387 7755 9667 9668 9660 7746 7753 9666 9659 9662 9669 7757 9670 9402 9671 9672 
942 943 1240 1239 975 976 1273 1272 7495 9407 9408 9397 7762 9674 9675 9667 7753 7760 9673 9666 9669 9676 7764 9677 9412 9678 9679 
943 944 1241 1240 976 977 1274 1273 7505 9417 9418 9407 7769 9681 9682 9674 7760 7767 9680 9673 9676 9683 7771 9684 9422 9685 9686 
944 945 1242 1241 977 978 1275 1274 7515 9427 9428 9417 7776 9688 9689 9681 7767 7774 9687 9680 9683 9690 7778 9691 9432 9692 9693 
945 946 1243 1242 978 979 1276 1275 7525 9437 9438 9427 7783 9695 9696 9688 7774 7781 9694 9687 9690 9697 7785 9698 9442 9699 9700 
946 947 1244 1243 979 980 1277 1276 7535 9447 9448 9437 7790 9702 9703 9695 7781 7788 9701 9694 9697 9704 7792 9705 9452 9706 9707 
947 948 1245 1244 980 981 1278 1277 7545 9457 9458 9447 7797 9709 9710 9702 7788 7795 9708 9701 9704 9711 7799 9712 9462 9713 9714 
948 949 1246 1245 981 982 1279 1278 7555 9467 9468 9457 7804 9716 9717 9709 7795 7802 9715 9708 9711 9718 7806 9719 9472 9720 9721 
949 950 1247 1246 982 983 1280 1279 7565 9477 9478 9467 7811 9723 9724 9716 7802 7809 9722 9715 9718 9725 7813 9726 9482 9727 9728 
950 951 1248 1247 983 984 1281 1280 7575 9487 9488 9477 7818 9730 9731 9723 7809 7816 9729 9722 9725 9732 7820 9733 9492 9734 9735 
951 952 1249 1248 984 985 1282 1281 7585 9497 9498 9487 7825 9737 9738 9730 7816 7823 9736 9729 9732 9739 7827 9740 9502 9741 9742 
952 953 1250 1249 985 986 1283 1282 7595 9507 9508 9497 7832 9744 9745 9737 7823 7830 9743 9736 9739 9746 7834 9747 9512 9748 9749 
953 954 1251 1250 986 987 1284 1283 7605 9517 9518 9507 7839 9751 9752 9744 7830 7837 9750 9743 9746 9753 7841 9754 9522 9755 9756 
954 955 1252 1251 987 988 1285 1284 7615 9527 9528 9517 7846 9758 9759 9751 7837 7844 9757 9750 9753 9760 7848 9761 9532 9762 9763 
955 956 1253 1252 988 989 1286 1285 7625 9537 9538 9527 7853 9765 9766 9758 7844 7851 9764 9757 9760 9767 7855 9768 9542 9769 9770 
957 958 1255 1254 990 991 1288 1287 7634 9546 9547 9548 7861 9773 9774 9775 7859 7858 9771 9772 9778 9776 7864 9777 9552 9779 9780 
958 959 1256 1255 991 992 1289 1288 7643 9555 9556 9546 7870 9782 9783 9773 7858 7868 9781 9771 9776 9784 7872 9785 9559 9786 9787 
959 960 1257 1256 992 993 1290 1289 7650 9562 9563 9555 7877 9789 9790 9782 7868 7875 9788 9781 9784 9791 7879 9792 9566 9793 9794 
960 961 1258 1257 993 994 1291 1290 7657 9569 9570 9562 7884 9796 9797 9789 7875 7882 9795 9788 9791 9798 7886 9799 9573 9800 9801 
961 962 1259 1258 994 995 1292 1291 7664 9576 9577 9569 7891 9803 9804 9796 7882 7889 9802 9795 9798 9805 7893 9806 9580 9807 9808 
962 963 1260 1259 995 996 1293 1292 7671 9583 9584 9576 7898 9810 9811 9803 7889 7896 9809 9802 9805 9812 7900 9813 9587 9814 9815 
963 964 1261 1260 996 997 1294 1293 7678 9590 9591 9583 7905 9817 9818 9810 7896 7903 9816 9809 9812 9819 7907 9820 9594 9821 9822 
964 965 1262 1261 997 998 1295 1294 7685 9597 9598 9590 7912 9824 9825 9817 7903 7910 9823 9816 9819 9826 7914 9827 9601 9828 9829 
965 966 1263 1262 998 999 1296 1295 7692 9604 9605 9597 7919 9831 9832 9824 7910 7917 9830 9823 9826 9833 7921 9834 9608 9835 9836 
966 967 1264 1263 999 1000 1297 1296 7699 9611 9612 9604 7926 9838 9839 9831 7917 7924 9837 9830 9833 9840 7928 9841 9615 9842 9843 
967 968 1265 1264 1000 1001 1298 1297 7706 9618 9619 9611 7933 9845 9846 9838 7924 7931 9844 9837 9840 9847 7935 9848 9622 9849 9850 
968 969 1266 1265 1001 1002 1299 1298 7713 9625 9626 9618 7940 9852 9853 9845 7931 7938 9851 9844 9847 9854 7942 9855 9629 9856 9857 
969 970 1267 1266 1002 1003 1300 1299 7720 9632 9633 9625 7947 9859 9860 9852 7938 7945 9858 9851 9854 9861 7949 9862 9636 9863 9864 
970 971 1268 1267 1003 1004 1301 1300 7727 9639 9640 9632 7954 9866 9867 9859 7945 7952 9865 9858 9861 9868 7956 9869 9643 9870 9871 
971 972 1269 1268 1004 1005 1302 1301 7734 9646 9647 9639 7961 9873 9874 9866 7952 7959 9872 9865 9868 9875 7963 9876 9650 9877 9878 
972 973 1270 1269 1005 1006 1303 1302 7741 9653 9654 9646 7968 9880 9881 9873 7959 7966 9879 9872 9875 9882 7970 9883 9657 9884 9885 
973 974 1271 1270 1006 1007 1304 1303 7748 9660 9661 9653 7975 9887 9888 9880 7966 7973 9886 9879 9882 9889 7977 9890 9664 9891 9892 
974 975 1272 1271 1007 1008 1305 1304 7755 9667 9668 9660 7982 9894 9895 9887 7973 7980 9893 9886 9889 9896 7984 9897 9671 9898 9899 
975 976 1273 1272 1008 1009 1306 1305 7762 9674 9675 9667 7989 9901 9902 9894 7980 7987 9900 9893 9896 9903 7991 9904 9678 9905 9906 
976 977 1274 1273 1009 1010 1307 1306 7769 9681 9682 9674 7996 9908 9909 9901 7987 7994 9907 9900 9903 9910 7998 9911 9685 9912 9913 
977 978 1275 1274 1010 1011 1308 1307 7776 9688 9689 9681 8003 9915 9916 9908 7994 8001 9914 9907 9910 9917 8005 9918 9692 9919 9920 
978 979 1276 1275 1011 1012 1309 1308 7783 9695 9696 9688 8010 9922 9923 9915 8001 8008 9921 9914 9917 9924 8012 9925 9699 9926 9927 
979 980 1277 1276 1012 1013 1310 1309 7790 9702 9703 9695 8017 9929 9930 9922 8008 8015 9928 9921 9924 9931 8019 9932 9706 9933 9934 
980 981 1278 1277 1013 1014 1311 1310 7797 9709 9710 9702 8024 9936 9937 9929 8015 8022 9935 9928 9931 9938 8026 9939 9713 9940 9941 
981 982 1279 1278 1014 1015 1312 1311 7804 9716 9717 9709 8031 9943 9944 9936 8022 8029 9942 9935 9938 9945 8033 9946 9720 9947 9948 
982 983 1280 1279 1015 1016 1313 1312 7811 9723 9724 9716 8038 9950 9951 9943 8029 8036 9949 9942 9945 9952 8040 9953 9727 9954 9955 
983 984 1281 1280 1016 1017 1314 1313 7818 9730 9731 9723 8045 9957 9958 9950 8036 8043 9956 9949 9952 9959 8047 9960 9734 9961 9962 
984 985 1282 1281 1017 1018 1315 1314 7825 9737 9738 9730 8052 9964 9965 9957 8043 8050 9963 9956 9959 9966 8054 9967 9741 9968 9969 
985 986 1283 1282 1018 1019 1316 1315 7832 9744 9745 9737 8059 9971 9972 9964 8050 8057 9970 9963 9966 9973 8061 9974 9748 9975 9976 
986 987 1284 1283 1019 1020 1317 1316 7839 9751 9752 9744 8066 9978 9979 9971 8057 8064 9977 9970 9973 9980 8068 9981 9755 9982 9983 
987 988 1285 1284 1020 1021 1318 1317 7846 9758 9759 9751 8073 9985 9986 9978 8064 8071 9984 9977 9980 9987 8075 9988 9762 9989 9990 
988 989 1286 1285 1021 1022 1319 1318 7853 9765 9766 9758 8080 9992 9993 9985 8071 8078 9991 9984 9987 9994 8082 9995 9769 9996 9997 
990 991 1288 1287 1023 1024 1321 1320 7861 9773 9774 9775 8088 10000 10001 10002 8086 8085 9998 9999 10005 10003 8091 10004 9779 10006 10007 
991 992 1289 1288 1024 1025 1322 1321 7870 9782 9783 9773 8097 10009 10010 10000 8085 8095 10008 9998 10003 10011 8099 10012 9786 10013 10014 
992 993 1290 1289 1025 1026 1323 1322 7877 9789 9790 9782 8104 10016 10017 10009 8095 8102 10015 10008 10011 10018 8106 10019 9793 10020 10021 
993 994 1291 1290 1026 1027 1324 1323 7884 9796 9797 9789 8111 10023 10024 10016 8102 8109 10022 10015 10018 10025 8113 10026 9800 10027 10028 
994 995 1292 1291 1027 1028 1325 1324 7891 9803 9804 9796 8118 10030 10031 10023 8109 8116 10029 10022 10025 10032 8120 10033 9807 10034 10035 
995 996 1293 1292 1028 1029 1326 1325 7898 9810 9811 9803 8125 10037 10038 10030 8116 8123 10036 10029 10032 10039 8127 10040 9814 10041 10042 
996 997 1294 1293 1029 1030 1327 1326 7905 9817 9818 9810 8132 10044 10045 10037 8123 8130 10043 10036 10039 10046 8134 10047 9821 10048 10049 
997 998 1295 1294 1030 1031 1328 1327 7912 9824 9825 9817 8139 10051 10052 10044 8130 8137 10050 10043 10046 10053 8141 10054 9828 10055 10056 
998 999 1296 1295 1031 1032 1329 1328 7919 9831 9832 9824 8146 10058 10059 10051 8137 8144 10057 10050 10053 10060 8148 10061 9835 10062 10063 
999 1000 1297 1296 1032 1033 1330 1329 7926 9838 9839 9831 8153 10065 10066 10058 8144 8151 10064 10057 10060 10067 8155 10068 9842 10069 10070 
1000 1001 1298 1297 1033 1034 1331 1330 7933 9845 9846 9838 8160 10072 10073 10065 8151 8158 10071 10064 10067 10074 8162 10075 9849 10076 10077 
1001 1002 1299 1298 1034 1035 1332 1331 7940 9852 9853 9845 8167 10079 10080 10072 8158 8165 10078 10071 10074 10081 8169 10082 9856 10083 10084 
1002 1003 1300 1299 1035 1036 1333 1332 7947 9859 9860 9852 8174 10086 10087 10079 8165 8172 10085 10078 10081 10088 8176 10089 9863 10090 10091 
1003 1004 1301 1300 1036 1037 1334 1333 7954 9866 9867 9859 8181 10093 10094 10086 8172 8179 10092 10085 10088 10095 8183 10096 9870 10097 10098 
1004 1005 1302 1301 1037 1038 1335 1334 7961 9873 9874 9866 8188 10100 10101 10093 8179 8186 10099 10092 10095 10102 8190 10103 9877 10104 10105 
1005 1006 1303 1302 1038 1039 1336 1335 7968 9880 9881 9873 8195 10107 10108 10100 8186 8193 10106 10099 10102 10109 8197 10110 9884 10111 10112 
1006 1007 1304 1303 1039 1040 1337 1336 7975 9887 9888 9880 8202 10114 10115 10107 8193 8200 10113 10106 10109 10116 8204 10117 9891 10118 10119 
1007 1008 1305 1304 1040 1041 1338 1337 7982 9894 9895 9887 8209 10121 10122 10114 8200 8207 10120 10113 10116 10123 8211 10124 9898 10125 10126 
1008 1009 1306 1305 1041 1042 1339 1338 7989 9901 9902 9894 8216 10128 10129 10121 8207 8214 10127 10120 10123 10130 8218 10131 9905 10132 10133 
1009 1010 1307 1306 1042 1043 1340 1339 7996 9908 9909 9901 8223 10135 10136 10128 8214 8221 10134 10127 10130 10137 8225 10138 9912 10139 10140 
1010 1011 1308 1307 1043 1044 1341 1340 8003 9915 9916 9908 8230 10142 10143 10135 8221 8228 10141 10134 10137 10144 8232 10145 9919 10146 10147 
1011 1012 1309 1308 1044 1045 1342 1341 8010 9922 9923 9915 8237 10149 10150 10142 8228 8235 10148 10141 10144 10151 8239 10152 9926 10153 10154 
1012 1013 1310 1309 1045 1046 1343 1342 8017 9929 9930 9922 8244 10156 10157 10149 8235 8242 10155 10148 10151 10158 8246 10159 9933 10160 10161 
1013 1014 1311 1310 1046 1047 1344 1343 8024 9936 9937 9929 8251 10163 10164 10156 8242 8249 10162 10155 10158 10165 8253 10166 9940 10167 10168 
1014 1015 1312 1311 1047 1048 1345 1344 8031 9943 9944 9936 8258 10170 10171 10163 8249 8256 10169 10162 10165 10172 8260 10173 9947 10174 10175 
1015 1016 1313 1312 1048 1049 1346 1345 8038 9950 9951 9943 8265 10177 10178 10170 8256 8263 10176 10169 10172 10179 8267 10180 9954 10181 10182 
1016 1017 1314 1313 1049 1050 1347 1346 8045 9957 9958 9950 8272 10184 10185 10177 8263 8270 10183 10176 10179 10186 8274 10187 9961 10188 10189 
1017 1018 1315 1314 1050 1051 1348 1347 8052 9964 9965 9957 8279 10191 10192 10184 8270 8277 10190 10183 10186 10193 8281 10194 9968 10195 10196 
1018 1019 1316 1315 1051 1052 1349 1348 8059 9971 9972 9964 8286 10198 10199 10191 8277 8284 10197 10190 10193 10200 8288 10201 9975 10202 10203 
1019 1020 1317 1316 1052 1053 1350 1349 8066 9978 9979 9971 8293 10205 10206 10198 8284 8291 10204 10197 10200 10207 8295 10208 9982 10209 10210 
1020 1021 1318 1317 1053 1054 1351 1350 8073 9985 9986 9978 8300 10212 10213 10205 8291 8298 10211 10204 10207 10214 8302 10215 9989 10216 10217 
1021 1022 1319 1318 1054 1055 1352 1351 8080 9992 9993 9985 8307 10219 10220 10212 8298 8305 10218 10211 10214 10221 8309 10222 9996 10223 10224 
1023 1024 1321 1320 1056 1057 1354 1353 8088 10000 10001 10002 8315 10227 10228 10229 8313 8312 10225 10226 10232 10230 8318 10231 10006 10233 10234 
1024 1025 1322 1321 1057 1058 1355 1354 8097 10009 10010 10000 8324 10236 10237 10227 8312 8322 10235 10225 10230 10238 8326 10239 10013 10240 10241 
1025 1026 1323 1322 1058 1059 1356 1355 8104 10016 10017 10009 8331 10243 10244 10236 8322 8329 10242 10235 10238 10245 8333 10246 10020 10247 10248 
1026 1027 1324 1323 1059 1060 1357 1356 8111 10023 10024 10016 8338 10250 10251 10243 8329 8336 10249 10242 10245 10252 8340 10253 10027 10254 10255 
1027 1028 1325 1324 1060 1061 1358 1357 8118 10030 10031 10023 8345 10257 10258 10250 8336 8343 10256 10249 10252 10259 8347 10260 10034 10261 10262 
1028 1029 1326 1325 1061 1062 1359 1358 8125 10037 10038 10030 8352 10264 10265 10257 8343 8350 10263 10256 10259 10266 8354 10267 10041 10268 10269 
1029 1030 1327 1326 1062 1063 1360 1359 8132 10044 10045 10037 8359 10271 10272 10264 8350 8357 10270 10263 10266 10273 8361 10274 10048 10275 10276 
1030 1031 1328 1327 1063 1064 1361 1360 8139 10051 10052 10044 8366 10278 10279 10271 8357 8364 10277 10270 10273 10280 8368 10281 10055 10282 10283 
1031 1032 1329 1328 1064 1065 1362 1361 8146 10058 10059 10051 8373 10285 10286 10278 8364 8371 10284 10277 10280 10287 8375 10288 10062 10289 10290 
1032 1033 1330 1329 1065 1066 1363 1362 8153 10065 10066 10058 8380 10292 10293 10285 8371 8378 10291 10284 10287 10294 8382 10295 10069 10296 10297 
1033 1034 1331 1330 1066 1067 1364 1363 8160 10072 10073 10065 8387 10299 10300 10292 8378 8385 10298 10291 10294 10301 8389 10302 10076 10303 10304 
1034 1035 1332 1331 1067 1068 1365 1364 8167 10079 10080 10072 8394 10306 10307 10299 8385 8392 10305 10298 10301 10308 8396 10309 10083 10310 10311 
1035 1036 1333 1332 1068 1069 1366 1365 8174 10086 10087 10079 8401 10313 10314 10306 8392 8399 10312 10305 10308 10315 8403 10316 10090 10317 10318 
1036 1037 1334 1333 1069 1070 1367 1366 8181 10093 10094 10086 8408 10320 10321 10313 8399 8406 10319 10312 10315 10322 8410 10323 10097 10324 10325 
1037 1038 1335 1334 1070 1071 1368 1367 8188 10100 10101 10093 8415 10327 10328 10320 8406 8413 10326 10319 10322 10329 8417 10330 10104 10331 10332 
1038 1039 1336 1335 1071 1072 1369 1368 8195 10107 10108 10100 8422 10334 10335 10327 8413 8420 10333 10326 10329 10336 8424 10337 10111 10338 10339 
1039 1040 1337 1336 1072 1073 1370 1369 8202 10114 10115 10107 8429 10341 10342 10334 8420 8427 10340 10333 10336 10343 8431 10344 10118 10345 10346 
1040 1041 1338 1337 1073 1074 1371 1370 8209 10121 10122 10114 8436 10348 10349 10341 8427 8434 10347 10340 10343 10350 8438 10351 10125 10352 10353 
1041 1042 1339 1338 1074 1075 1372 1371 8216 10128 10129 10121 8443 10355 10356 10348 8434 8441 10354 10347 10350 10357 8445 10358 10132 10359 10360 
1042 1043 1340 1339 1075 1076 1373 1372 8223 10135 10136 10128 8450 10362 10363 10355 8441 8448 10361 10354 10357 10364 8452 10365 10139 10366 10367 
1043 1044 1341 1340 1076 1077 1374 1373 8230 10142 10143 10135 8457 10369 10370 10362 8448 8455 10368 10361 10364 10371 8459 10372 10146 10373 10374 
1044 1045 1342 1341 1077 1078 1375 1374 8237 10149 10150 10142 8464 10376 10377 10369 8455 8462 10375 10368 10371 10378 8466 10379 10153 10380 10381 
1045 1046 1343 1342 1078 1079 1376 1375 8244 10156 10157 10149 8471 10383 10384 10376 8462 8469 10382 10375 10378 10385 8473 10386 10160 10387 10388 
1046 1047 1344 1343 1079 1080 1377 1376 8251 10163 10164 10156 8478 10390 10391 10383 8469 8476 10389 10382 10385 10392 8480 10393 10167 10394 10395 
1047 1048 1345 1344 1080 1081 1378 1377 8258 10170 10171 10163 8485 10397 10398 10390 8476 8483 10396 10389 10392 10399 8487 10400 10174 10401 10402 
1048 1049 1346 1345 1081 1082 1379 1378 8265 10177 10178 10170 8492 10404 10405 10397 8483 8490 10403 10396 10399 10406 8494 10407 10181 10408 10409 
1049 1050 1347 1346 1082 1083 1380 1379 8272 10184 10185 10177 8499 10411 10412 10404 8490 8497 10410 10403 10406 10413 8501 10414 10188 10415 10416 
1050 1051 1348 1347 1083 1084 1381 1380 8279 10191 10192 10184 8506 10418 10419 10411 8497 8504 10417 10410 10413 10420 8508 10421 10195 10422 10423 
1051 1052 1349 1348 1084 1085 1382 1381 8286 10198 10199 10191 8513 10425 10426 10418 8504 8511 10424 10417 10420 10427 8515 10428 10202 10429 10430 
1052 1053 1350 1349 1085 1086 1383 1382 8293 10205 10206 10198 8520 10432 10433 10425 8511 8518 10431 10424 10427 10434 8522 10435 10209 10436 10437 
1053 1054 1351 1350 1086 1087 1384 1383 8300 10212 10213 10205 8527 10439 10440 10432 8518 8525 10438 10431 10434 10441 8529 10442 10216 10443 10444 
1054 1055 1352 1351 1087 1088 1385 1384 8307 10219 10220 10212 8534 10446 10447 10439 8525 8532 10445 10438 10441 10448 8536 10449 10223 10450 10451 
1056 1057 1354 1353 1089 1090 1387 1386 8315 10227 10228 10229 8542 10454 10455 10456 8540 8539 10452 10453 10459 10457 8545 10458 10233 10460 10461 
1057 1058 1355 1354 1090 1091 1388 1387 8324 10236 10237 10227 8551 10463 10464 10454 8539 8549 10462 10452 10457 10465 8553 10466 10240 10467 10468 
1058 1059 1356 1355 1091 1092 1389 1388 8331 10243 10244 10236 8558 10470 10471 10463 8549 8556 10469 10462 10465 10472 8560 10473 10247 10474 10475 
1059 1060 1357 1356 1092 1093 1390 1389 8338 10250 10251 10243 8565 10477 10478 10470 8556 8563 10476 10469 10472 10479 8567 10480 10254 10481 10482 
1060 1061 1358 1357 1093 1094 1391 1390 8345 10257 10258 10250 8572 10484 10485 10477 8563 8570 10483 10476 10479 10486 8574 10487 10261 10488 10489 
1061 1062 1359 1358 1094 1095 1392 1391 8352 10264 10265 10257 8579 10491 10492 10484 8570 8577 10490 10483 10486 10493 8581 10494 10268 10495 10496 
1062 1063 1360 1359 1095 1096 1393 1392 8359 10271 10272 10264 8586 10498 10499 10491 8577 8584 10497 10490 10493 10500 8588 10501 10275 10502 10503 
1063 1064 1361 1360 1096 1097 1394 1393 8366 10278 10279 10271 8593 10505 10506 10498 8584 8591 10504 10497 10500 10507 8595 10508 10282 10509 10510 
1064 1065 1362 1361 1097 1098 1395 1394 8373 10285 10286 10278 8600 10512 10513 10505 8591 8598 10511 10504 10507 10514 8602 10515 10289 10516 10517 
1065 1066 1363 1362 1098 1099 1396 1395 8380 10292 10293 10285 8607 10519 10520 10512 8598 8605 10518 10511 10514 10521 8609 10522 10296 10523 10524 
1066 1067 1364 1363 1099 1100 1397 1396 8387 10299 10300 10292 8614 10526 10527 10519 8605 8612 10525 10518 10521 10528 8616 10529 10303 10530 10531 
1067 1068 1365 1364 1100 1101 1398 1397 8394 10306 10307 10299 8621 10533 10534 10526 8612 8619 10532 10525 10528 10535 8623 10536 10310 10537 10538 
1068 1069 1366 1365 1101 1102 1399 1398 8401 10313 10314 10306 8628 10540 10541 10533 8619 8626 10539 10532 10535 10542 8630 10543 10317 10544 10545 
1069 1070 1367 1366 1102 1103 1400 1399 8408 10320 10321 10313 8635 10547 10548 10540 8626 8633 10546 10539 10542 10549 8637 10550 10324 10551 10552 
1070 1071 1368 1367 1103 1104 1401 1400 8415 10327 10328 10320 8642 10554 10555 10547 8633 8640 10553 10546 10549 10556 8644 10557 10331 10558 10559 
1071 1072 1369 1368 1104 1105 1402 1401 8422 10334 10335 10327 8649 10561 10562 10554 8640 8647 10560 10553 10556 10563 8651 10564 10338 10565 10566 
1072 1073 1370 1369 1105 1106 1403 1402 8429 10341 10342 10334 8656 10568 10569 10561 8647 8654 10567 10560 10563 10570 8658 10571 10345 10572 10573 
1073 1074 1371 1370 1106 1107 1404 1403 8436 10348 10349 10341 8663 10575 10576 10568 8654 8661 10574 10567 10570 10577 8665 10578 10352 10579 10580 
1074 1075 1372 1371 1107 1108 1405 1404 8443 10355 10356 10348 8670 10582 10583 10575 8661 8668 10581 10574 10577 10584 8672 10585 10359 10586 10587 
1075 1076 1373 1372 1108 1109 1406 1405 8450 10362 10363 10355 8677 10589 10590 10582 8668 8675 10588 10581 10584 10591 8679 10592 10366 10593 10594 
1076 1077 1374 1373 1109 1110 1407 1406 8457 10369 10370 10362 8684 10596 10597 10589 8675 8682 10595 10588 10591 10598 8686 10599 10373 10600 10601 
1077 1078 1375 1374 1110 1111 1408 1407 8464 10376 10377 10369 8691 10603 10604 10596 8682 8689 10602 10595 10598 10605 8693 10606 10380 10607 10608 
1078 1079 1376 1375 1111 1112 1409 1408 8471 10383 10384 10376 8698 10610 10611 10603 8689 8696 10609 10602 10605 10612 8700 10613 10387 10614 10615 
1079 1080 1377 1376 1112 1113 1410 1409 8478 10390 10391 10383 8705 10617 10618 10610 8696 8703 10616 10609 10612 10619 8707 10620 10394 10621 10622 
1080 1081 1378 1377 1113 1114 1411 1410 8485 10397 10398 10390 8712 10624 10625 10617 8703 8710 10623 10616 10619 10626 8714 10627 10401 10628 10629 
1081 1082 1379 1378 1114 1115 1412 1411 8492 10404 10405 10397 8719 10631 10632 10624 8710 8717 10630 10623 10626 10633 8721 10634 10408 10635 10636 
1082 1083 1380 1379 1115 1116 1413 1412 8499 10411 10412 10404 8726 10638 10639 10631 8717 8724 10637 10630 10633 10640 8728 10641 10415 10642 10643 
1083 1084 1381 1380 1116 1117 1414 1413 8506 10418 10419 10411 8733 10645 10646 10638 8724 8731 10644 10637 10640 10647 8735 10648 10422 10649 10650 
1084 1085 1382 1381 1117 1118 1415 1414 8513 10425 10426 10418 8740 10652 10653 10645 8731 8738 10651 10644 10647 10654 8742 10655 10429 10656 10657 
1085 1086 1383 1382 1118 1119 1416 1415 8520 10432 10433 10425 8747 10659 10660 10652 8738 8745 10658 10651 10654 10661 8749 10662 10436 10663 10664 
1086 1087 1384 1383 1119 1120 1417 1416 8527 10439 10440 10432 8754 10666 10667 10659 8745 8752 10665 10658 10661 10668 8756 10669 10443 10670 10671 
1087 1088 1385 1384 1120 1121 1418 1417 8534 10446 10447 10439 8761 10673 10674 10666 8752 8759 10672 10665 10668 10675 8763 10676 10450 10677 10678 
1089 1090 1387 1386 1122 1123 1420 1419 8542 10454 10455 10456 8769 10681 10682 10683 8767 8766 10679 10680 10686 10684 8772 10685 10460 10687 10688 
1090 1091 1388 1387 1123 1124 1421 1420 8551 10463 10464 10454 8778 10690 10691 10681 8766 8776 10689 10679 10684 10692 8780 10693 10467 10694 10695 
1091 1092 1389 1388 1124 1125 1422 1421 8558 10470 10471 10463 8785 10697 10698 10690 8776 8783 10696 10689 10692 10699 8787 10700 10474 10701 10702 
1092 1093 1390 1389 1125 1126 1423 1422 8565 10477 10478 10470 8792 10704 10705 10697 8783 8790 10703 10696 10699 10706 8794 10707 10481 10708 10709 
1093 1094 1391 1390 1126 1127 1424 1423 8572 10484 10485 10477 8799 10711 10712 10704 8790 8797 10710 10703 10706 10713 8801 10714 10488 10715 10716 
1094 1095 1392 1391 1127 1128 1425 1424 8579 10491 10492 10484 8806 10718 10719 10711 8797 8804 10717 10710 10713 10720 8808 10721 10495 10722 10723 
1095 1096 1393 1392 1128 1129 1426 1425 8586 10498 10499 10491 8813 10725 10726 10718 8804 8811 10724 10717 10720 10727 8815 10728 10502 10729 10730 
1096 1097 1394 1393 1129 1130 1427 1426 8593 10505 10506 10498 8820 10732 10733 10725 8811 8818 10731 10724 10727 10734 8822 10735 10509 10736 10737 
1097 1098 1395 1394 1130 1131 1428 1427 8600 10512 10513 10505 8827 10739 10740 10732 8818 8825 10738 10731 10734 10741 8829 10742 10516 10743 10744 
1098 1099 1396 1395 1131 1132 1429 1428 8607 10519 10520 10512 8834 10746 10747 10739 8825 8832 10745 10738 10741 10748 8836 10749 10523 10750 10751 
1099 1100 1397 1396 1132 1133 1430 1429 8614 10526 10527 10519 8841 10753 10754 10746 8832 8839 10752 10745 10748 10755 8843 10756 10530 10757 10758 
1100 1101 1398 1397 1133 1134 1431 1430 8621 10533 10534 10526 8848 10760 10761 10753 8839 8846 10759 10752 10755 10762 8850 10763 10537 10764 10765 
1101 1102 1399 1398 1134 1135 1432 1431 8628 10540 10541 10533 8855 10767 10768 10760 8846 8853 10766 10759 10762 10769 8857 10770 10544 10771 10772 
1102 1103 1400 1399 1135 1136 1433 1432 8635 10547 10548 10540 8862 10774 10775 10767 8853 8860 10773 10766 10769 10776 8864 10777 10551 10778 10779 
1103 1104 1401 1400 1136 1137 1434 1433 8642 10554 10555 10547 8869 10781 10782 10774 8860 8867 10780 10773 10776 10783 8871 10784 10558 10785 10786 
1104 1105 1402 1401 1137 1138 1435 1434 8649 10561 10562 10554 8876 10788 10789 10781 8867 8874 10787 10780 10783 10790 8878 10791 10565 10792 10793 
1105 1106 1403 1402 1138 1139 1436 1435 8656 10568 10569 10561 8883 10795 10796 10788 8874 8881 10794 10787 10790 10797 8885 10798 10572 10799 10800 
1106 1107 1404 1403 1139 1140 1437 1436 8663 10575 10576 10568 8890 10802 10803 10795 8881 8888 10801 10794 10797 10804 8892 10805 10579 10806 10807 
1107 1108 1405 1404 1140 1141 1438 1437 8670 10582 10583 10575 8897 10809 10810 10802 8888 8895 10808 10801 10804 10811 8899 10812 10586 10813 10814 
1108 1109 1406 1405 1141 1142 1439 1438 8677 10589 10590 10582 8904 10816 10817 10809 8895 8902 10815 10808 10811 10818 8906 10819 10593 10820 10821 
1109 1110 1407 1406 1142 1143 1440 1439 8684 10596 10597 10589 8911 10823 10824 10816 8902 8909 10822 10815 10818 10825 8913 10826 10600 10827 10828 
1110 1111 1408 1407 1143 1144 1441 1440 8691 10603 10604 10596 8918 10830 10831 10823 8909 8916 10829 10822 10825 10832 8920 10833 10607 10834 10835 
1111 1112 1409 1408 1144 1145 1442 1441 8698 10610 10611 10603 8925 10837 10838 10830 8916 8923 10836 10829 10832 10839 8927 10840 10614 10841 10842 
1112 1113 1410 1409 1145 1146 1443 1442 8705 10617 10618 10610 8932 10844 10845 10837 8923 8930 10843 10836 10839 10846 8934 10847 10621 10848 10849 
1113 1114 1411 1410 1146 1147 1444 1443 8712 10624 10625 10617 8939 10851 10852 10844 8930 8937 10850 10843 10846 10853 8941 10854 10628 10855 10856 
1114 1115 1412 1411 1147 1148 1445 1444 8719 10631 10632 10624 8946 10858 10859 10851 8937 8944 10857 10850 10853 10860 8948 10861 10635 10862 10863 
1115 1116 1413 1412 1148 1149 1446 1445 8726 10638 10639 10631 8953 10865 10866 10858 8944 8951 10864 10857 10860 10867 8955 10868 10642 10869 10870 
1116 1117 1414 1413 1149 1150 1447 1446 8733 10645 10646 10638 8960 10872 10873 10865 8951 8958 10871 10864 10867 10874 8962 10875 10649 10876 10877 
1117 1118 1415 1414 1150 1151 1448 1447 8740 10652 10653 10645 8967 10879 10880 10872 8958 8965 10878 10871 10874 10881 8969 10882 10656 10883 10884 
1118 1119 1416 1415 1151 1152 1449 1448 8747 10659 10660 10652 8974 10886 10887 10879 8965 8972 10885 10878 10881 10888 8976 10889 10663 10890 10891 
1119 1120 1417 1416 1152 1153 1450 1449 8754 10666 10667 10659 8981 10893 10894 10886 8972 8979 10892 10885 10888 10895 8983 10896 10670 10897 10898 
1120 1121 1418 1417 1153 1154 1451 1450 8761 10673 10674 10666 8988 10900 10901 10893 8979 8986 10899 10892 10895 10902 8990 10903 10677 10904 10905 
1122 1123 1420 1419 1155 1156 1453 1452 8769 10681 10682 10683 8996 10908 10909 10910 8994 8993 10906 10907 10913 10911 8999 10912 10687 10914 10915 
1123 1124 1421 1420 1156 1157 1454 1453 8778 10690 10691 10681 9005 10917 10918 10908 8993 9003 10916 10906 10911 10919 9007 10920 10694 10921 10922 
1124 1125 1422 1421 1157 1158 1455 1454 8785 10697 10698 10690 9012 10924 10925 10917 9003 9010 10923 10916 10919 10926 9014 10927 10701 10928 10929 
1125 1126 1423 1422 1158 1159 1456 1455 8792 10704 10705 10697 9019 10931 10932 10924 9010 9017 10930 10923 10926 10933 9021 10934 10708 10935 10936 
1126 1127 1424 1423 1159 1160 1457 1456 8799 10711 10712 10704 9026 10938 10939 10931 9017 9024 10937 10930 10933 10940 9028 10941 10715 10942 10943 
1127 1128 1425 1424 1160 1161 1458 1457 8806 10718 10719 10711 9033 10945 10946 10938 9024 9031 10944 10937 10940 10947 9035 10948 10722 10949 10950 
1128 1129 1426 1425 1161 1162 1459 1458 8813 10725 10726 10718 9040 10952 10953 10945 9031 9038 10951 10944 10947 10954 9042 10955 10729 10956 10957 
1129 1130 1427 1426 1162 1163 1460 1459 8820 10732 10733 10725 9047 10959 10960 10952 9038 9045 10958 10951 10954 10961 9049 10962 10736 10963 10964 
1130 1131 1428 1427 1163 1164 1461 1460 8827 10739 10740 10732 9054 10966 10967 10959 9045 9052 10965 10958 10961 10968 9056 10969 10743 10970 10971 
1131 1132 1429 1428 1164 1165 1462 1461 8834 10746 10747 10739 9061 10973 10974 10966 9052 9059 10972 10965 10968 10975 9063 10976 10750 10977 10978 
1132 1133 1430 1429 1165 1166 1463 1462 8841 10753 10754 10746 9068 10980 10981 10973 9059 9066 10979 10972 10975 10982 9070 10983 10757 10984 10985 
1133 1134 1431 1430 1166 1167 1464 1463 8848 10760 10761 10753 9075 10987 10988 10980 9066 9073 10986 10979 10982 10989 9077 10990 10764 10991 10992 
1134 1135 1432 1431 1167 1168 1465 1464 8855 10767 10768 10760 9082 10994 10995 10987 9073 9080 10993 10986 10989 10996 9084 10997 10771 10998 10999 
1135 1136 1433 1432 1168 1169 1466 1465 8862 10774 10775 10767 9089 11001 11002 10994 9080 9087 11000 10993 10996 11003 9091 11004 10778 11005 11006 
1136 1137 1434 1433 1169 1170 1467 1466 8869 10781 10782 10774 9096 11008 11009 11001 9087 9094 11007 11000 11003 11010 9098 11011 10785 11012 11013 
1137 1138 1435 1434 1170 1171 1468 1467 8876 10788 10789 10781 9103 11015 11016 11008 9094 9101 11014 11007 11010 11017 9105 11018 10792 11019 11020 
1138 1139 1436 1435 1171 1172 1469 1468 8883 10795 10796 10788 9110 11022 11023 11015 9101 9108 11021 11014 11017 11024 9112 11025 10799 11026 11027 
1139 1140 1437 1436 1172 1173 1470 1469 8890 10802 10803 10795 9117 11029 11030 11022 9108 9115 11028 11021 11024 11031 9119 11032 10806 11033 11034 
1140 1141 1438 1437 1173 1174 1471 1470 8897 10809 10810 10802 9124 11036 11037 11029 9115 9122 11035 11028 11031 11038 9126 11039 10813 11040 11041 
1141 1142 1439 1438 1174 1175 1472 1471 8904 10816 10817 10809 9131 11043 11044 11036 9122 9129 11042 11035 11038 11045 9133 11046 10820 11047 11048 
1142 1143 1440 1439 1175 1176 1473 1472 8911 10823 10824 10816 9138 11050 11051 11043 9129 9136 11049 11042 11045 11052 9140 11053 10827 11054 11055 
1143 1144 1441 1440 1176 1177 1474 1473 8918 10830 10831 10823 9145 11057 11058 11050 9136 9143 11056 11049 11052 11059 9147 11060 10834 11061 11062 
1144 1145 1442 1441 1177 1178 1475 1474 8925 10837 10838 10830 9152 11064 11065 11057 9143 9150 11063 11056 11059 11066 9154 11067 10841 11068 11069 
1145 1146 1443 1442 1178 1179 1476 1475 8932 10844 10845 10837 9159 11071 11072 11064 9150 9157 11070 11063 11066 11073 9161 11074 10848 11075 11076 
1146 1147 1444 1443 1179 1180 1477 1476 8939 10851 10852 10844 9166 11078 11079 11071 9157 9164 11077 11070 11073 11080 9168 11081 10855 11082 11083 
1147 1148 1445 1444 1180 1181 1478 1477 8946 10858 10859 10851 9173 11085 11086 11078 9164 9171 11084 11077 11080 11087 9175 11088 10862 11089 11090 
1148 1149 1446 1445 1181 1182 1479 1478 8953 10865 10866 10858 9180 11092 11093 11085 9171 9178 11091 11084 11087 11094 9182 11095 10869 11096 11097 
1149 1150 1447 1446 1182 1183 1480 1479 8960 10872 10873 10865 9187 11099 11100 11092 9178 9185 11098 11091 11094 11101 9189 11102 10876 11103 11104 
1150 1151 1448 1447 1183 1184 1481 1480 8967 10879 10880 10872 9194 11106 11107 11099 9185 9192 11105 11098 11101 11108 9196 11109 10883 11110 11111 
1151 1152 1449 1448 1184 1185 1482 1481 8974 10886 10887 10879 9201 11113 11114 11106 9192 9199 11112 11105 11108 11115 9203 11116 10890 11117 11118 
1152 1153 1450 1449 1185 1186 1483 1482 8981 10893 10894 10886 9208 11120 11121 11113 9199 9206 11119 11112 11115 11122 9210 11123 10897 11124 11125 
1153 1154 1451 1450 1186 1187 1484 1483 8988 10900 10901 10893 9215 11127 11128 11120 9206 9213 11126 11119 11122 11129 9217 11130 10904 11131 11132 
1188 1189 1486 1485 1221 1222 1519 1518 9221 11133 11134 11135 9226 11138 11139 11140 9224 9223 11136 11137 11144 11142 9230 11143 11141 11145 11146 
1189 1190 1487 1486 1222 1223 1520 1519 9235 11147 11148 11133 9238 11150 11151 11138 9223 9236 11149 11136 11142 11153 9241 11154 11152 11155 11156 
1190 1191 1488 1487 1223 1224 1521 1520 9245 11157 11158 11147 9248 11160 11161 11150 9236 9246 11159 11149 11153 11163 9251 11164 11162 11165 11166 
1191 1192 1489 1488 1224 1225 1522 1521 9255 11167 11168 11157 9258 11170 11171 11160 9246 9256 11169 11159 11163 11173 9261 11174 11172 11175 11176 
1192 1193 1490 1489 1225 1226 1523 1522 9265 11177 11178 11167 9268 11180 11181 11170 9256 9266 11179 11169 11173 11183 9271 11184 11182 11185 11186 
1193 1194 1491 1490 1226 1227 1524 1523 9275 11187 11188 11177 9278 11190 11191 11180 9266 9276 11189 11179 11183 11193 9281 11194 11192 11195 11196 
1194 1195 1492 1491 1227 1228 1525 1524 9285 11197 11198 11187 9288 11200 11201 11190 9276 9286 11199 11189 11193 11203 9291 11204 11202 11205 11206 
1195 1196 1493 1492 1228 1229 1526 1525 9295 11207 11208 11197 9298 11210 11211 11200 9286 9296 11209 11199 11203 11213 9301 11214 11212 11215 11216 
1196 1197 1494 1493 1229 1230 1527 1526 9305 11217 11218 11207 9308 11220 11221 11210 9296 9306 11219 11209 11213 11223 9311 11224 11222 11225 11226 
1197 1198 1495 1494 1230 1231 1528 1527 9315 11227 11228 11217 9318 11230 11231 11220 9306 9316 11229 11219 11223 11233 9321 11234 11232 11235 11236 
1198 1199 1496 1495 1231 1232 1529 1528 9325 11237 11238 11227 9328 11240 11241 11230 9316 9326 11239 11229 11233 11243 9331 11244 11242 11245 11246 
1199 1200 1497 1496 1232 1233 1530 1529 9335 11247 11248 11237 9338 11250 11251 11240 9326 9336 11249 11239 11243 11253 9341 11254 11252 11255 11256 
1200 1201 1498 1497 1233 1234 1531 1530 9345 11257 11258 11247 9348 11260 11261 11250 9336 9346 11259 11249 11253 11263 9351 11264 11262 11265 11266 
1201 1202 1499 1498 1234 1235 1532 1531 9355 11267 11268 11257 9358 11270 11271 11260 9346 9356 11269 11259 11263 11273 9361 11274 11272 11275 11276 
1202 1203 1500 1499 1235 1236 1533 1532 9365 11277 11278 11267 9368 11280 11281 11270 9356 9366 11279 11269 11273 11283 9371 11284 11282 11285 11286 
1203 1204 1501 1500 1236 1237 1534 1533 9375 11287 11288 11277 9378 11290 11291 11280 9366 9376 11289 11279 11283 11293 9381 11294 11292 11295 11296 
1204 1205 1502 1501 1237 1238 1535 1534 9385 11297 11298 11287 9388 11300 11301 11290 9376 9386 11299 11289 11293 11303 9391 11304 11302 11305 11306 
1205 1206 1503 1502 1238 1239 1536 1535 9395 11307 11308 11297 9398 11310 11311 11300 9386 9396 11309 11299 11303 11313 9401 11314 11312 11315 11316 
1206 1207 1504 1503 1239 1240 1537 1536 9405 11317 11318 11307 9408 11320 11321 11310 9396 9406 11319 11309 11313 11323 9411 11324 11322 11325 11326 
1207 1208 1505 1504 1240 1241 1538 1537 9415 11327 11328 11317 9418 11330 11331 11320 9406 9416 11329 11319 11323 11333 9421 11334 11332 11335 11336 
1208 1209 1506 1505 1241 1242 1539 1538 9425 11337 11338 11327 9428 11340 11341 11330 9416 9426 11339 11329 11333 11343 9431 11344 11342 11345 11346 
1209 1210 1507 1506 1242 1243 1540 1539 9435 11347 11348 11337 9438 11350 11351 11340 9426 9436 11349 11339 11343 11353 9441 11354 11352 11355 11356 
1210 1211 1508 1507 1243 1244 1541 1540 9445 11357 11358 11347 9448 11360 11361 11350 9436 9446 11359 11349 11353 11363 9451 11364 11362 11365 11366 
1211 1212 1509 1508 1244 1245 1542 1541 9455 11367 11368 11357 9458 11370 11371 11360 9446 9456 11369 11359 11363 11373 9461 11374 11372 11375 11376 
1212 1213 1510 1509 1245 1246 1543 1542 9465 11377 11378 11367 9468 11380 11381 11370 9456 9466 11379 11369 11373 11383 9471 11384 11382 11385 11386 
1213 1214 1511 1510 1246 1247 1544 1543 9475 11387 11388 11377 9478 11390 11391 11380 9466 9476 11389 11379 11383 11393 9481 11394 11392 11395 11396 
1214 1215 1512 1511 1247 1248 1545 1544 9485 11397 11398 11387 9488 11400 11401 11390 9476 9486 11399 11389 11393 11403 9491 11404 11402 11405 11406 
1215 1216 1513 1512 1248 1249 1546 1545 9495 11407 11408 11397 9498 11410 11411 11400 9486 9496 11409 11399 11403 11413 9501 11414 11412 11415 11416 
1216 1217 1514 1513 1249 1250 1547 1546 9505 11417 11418 11407 9508 11420 11421 11410 9496 9506 11419 11409 11413 11423 9511 11424 11422 11425 11426 
1217 1218 1515 1514 1250 1251 1548 1547 9515 11427 11428 11417 9518 11430 11431 11420 9506 9516 11429 11419 11423 11433 9521 11434 11432 11435 11436 
1218 1219 1516 1515 1251 1252 1549 1548 9525 11437 11438 11427 9528 11440 11441 11430 9516 9526 11439 11429 11433 11443 9531 11444 11442 11445 11446 
1219 1220 1517 1516 1252 1253 1550 1549 9535 11447 11448 11437 9538 11450 11451 11440 9526 9536 11449 11439 11443 11453 9541 11454 11452 11455 11456 
1221 1222 1519 1518 1254 1255 1552 1551 9226 11138 11139 11140 9547 11459 11460 11461 9545 9544 11457 11458 11464 11462 9550 11463 11145 11465 11466 
1222 1223 1520 1519 1255 1256 1553 1552 9238 11150 11151 11138 9556 11468 11469 11459 9544 9554 11467 11457 11462 11470 9558 11471 11155 11472 11473 
1223 1224 1521 1520 1256 1257 1554 1553 9248 11160 11161 11150 9563 11475 11476 11468 9554 9561 11474 11467 11470 11477 9565 11478 11165 11479 11480 
1224 1225 1522 1521 1257 1258 1555 1554 9258 11170 11171 11160 9570 11482 11483 11475 9561 9568 11481 11474 11477 11484 9572 11485 11175 11486 11487 
1225 1226 1523 1522 1258 1259 1556 1555 9268 11180 11181 11170 9577 11489 11490 11482 9568 9575 11488 11481 11484 11491 9579 11492 11185 11493 11494 
1226 1227 1524 1523 1259 1260 1557 1556 9278 11190 11191 11180 9584 11496 11497 11489 9575 9582 11495 11488 11491 11498 9586 11499 11195 11500 11501 
1227 1228 1525 1524 1260 1261 1558 1557 9288 11200 11201 11190 9591 11503 11504 11496 9582 9589 11502 11495 11498 11505 9593 11506 11205 11507 11508 
1228 1229 1526 1525 1261 1262 1559 1558 9298 11210 11211 11200 9598 11510 11511 11503 9589 9596 11509 11502 11505 11512 9600 11513 11215 11514 11515 
1229 1230 1527 1526 1262 1263 1560 1559 9308 11220 11221 11210 9605 11517 11518 11510 9596 9603 11516 11509 11512 11519 9607 11520 11225 11521 11522 
1230 1231 1528 1527 1263 1264 1561 1560 9318 11230 11231 11220 9612 11524 11525 11517 9603 9610 11523 11516 11519 11526 9614 11527 11235 11528 11529 
1231 1232 1529 1528 1264 1265 1562 1561 9328 11240 11241 11230 9619 11531 11532 11524 9610 9617 11530 11523 11526 11533 9621 11534 11245 11535 11536 
1232 1233 1530 1529 1265 1266 1563 1562 9338 11250 11251 11240 9626 11538 11539 11531 9617 9624 11537 11530 11533 11540 9628 11541 11255 11542 11543 
1233 1234 1531 1530 1266 1267 1564 1563 9348 11260 11261 11250 9633 11545 11546 11538 9624 9631 11544 11537 11540 11547 9635 11548 11265 11549 11550 
1234 1235 1532 1531 1267 1268 1565 1564 9358 11270 11271 11260 9640 11552 11553 11545 9631 9638 11551 11544 11547 11554 9642 11555 11275 11556 11557 
1235 1236 1533 1532 1268 1269 1566 1565 9368 11280 11281 11270 9647 11559 11560 11552 9638 9645 11558 11551 11554 11561 9649 11562 11285 11563 11564 
1236 1237 1534 1533 1269 1270 1567 1566 9378 11290 11291 11280 9654 11566 11567 11559 9645 9652 11565 11558 11561 11568 9656 11569 11295 11570 11571 
1237 1238 1535 1534 1270 1271 1568 1567 9388 11300 11301 11290 9661 11573 11574 11566 9652 9659 11572 11565 11568 11575 9663 11576 11305 11577 11578 
1238 1239 1536 1535 1271 1272 1569 1568 9398 11310 11311 11300 9668 11580 11581 11573 9659 9666 11579 11572 11575 11582 9670 11583 11315 11584 11585 
1239 1240 1537 1536 1272 1273 1570 1569 9408 11320 11321 11310 9675 11587 11588 11580 9666 9673 11586 11579 11582 11589 9677 11590 11325 11591 11592 
1240 1241 1538 1537 1273 1274 1571 1570 9418 11330 11331 11320 9682 11594 11595 11587 9673 9680 11593 11586 11589 11596 9684 11597 11335 11598 11599 
1241 1242 1539 1538 1274 1275 1572 1571 9428 11340 11341 11330 9689 11601 11602 11594 9680 9687 11600 11593 11596 11603 9691 11604 11345 11605 11606 
1242 1243 1540 1539 1275 1276 1573 1572 9438 11350 11351 11340 9696 11608 11609 11601 9687 9694 11607 11600 11603 11610 9698 11611 11355 11612 11613 
1243 1244 1541 1540 1276 1277 1574 1573 9448 11360 11361 11350 9703 11615 11616 11608 9694 9701 11614 11607 11610 11617 9705 11618 11365 11619 11620 
1244 1245 1542 1541 1277 1278 1575 1574 9458 11370 11371 11360 9710 11622 11623 11615 9701 9708 11621 11614 11617 11624 9712 11625 11375 11626 11627 
1245 1246 1543 1542 1278 1279 1576 1575 9468 11380 11381 11370 9717 11629 11630 11622 9708 9715 11628 11621 11624 11631 9719 11632 11385 11633 11634 
1246 1247 1544 1543 1279 1280 1577 1576 9478 11390 11391 11380 9724 11636 11637 11629 9715 9722 11635 11628 11631 11638 9726 11639 11395 11640 11641 
1247 1248 1545 1544 1280 1281 1578 1577 9488 11400 11401 11390 9731 11643 11644 11636 9722 9729 11642 11635 11638 11645 9733 11646 11405 11647 11648 
1248 1249 1546 1545 1281 1282 1579 1578 9498 11410 11411 11400 9738 11650 11651 11643 9729 9736 11649 11642 11645 11652 9740 11653 11415 11654 11655 
1249 1250 1547 1546 1282 1283 1580 1579 9508 11420 11421 11410 9745 11657 11658 11650 9736 9743 11656 11649 11652 11659 9747 11660 11425 11661 11662 
1250 1251 1548 1547 1283 1284 1581 1580 9518 11430 11431 11420 9752 11664 11665 11657 9743 9750 11663 11656 11659 11666 9754 11667 11435 11668 11669 
1251 1252 1549 1548 1284 1285 1582 1581 9528 11440 11441 11430 9759 11671 11672 11664 9750 9757 11670 11663 11666 11673 9761 11674 11445 11675 11676 
1252 1253 1550 1549 1285 1286 1583 1582 9538 11450 11451 11440 9766 11678 11679 11671 9757 9764 11677 11670 11673 11680 9768 11681 11455 11682 11683 
1254 1255 1552 1551 1287 1288 1585 1584 9547 11459 11460 11461 9774 11686 11687 11688 9772 9771 11684 11685 11691 11689 9777 11690 11465 11692 11693 
1255 1256 1553 1552 1288 1289 1586 1585 9556 11468 11469 11459 9783 11695 11696 11686 9771 9781 11694 11684 11689 11697 9785 11698 11472 11699 11700 
1256 1257 1554 1553 1289 1290 1587 1586 9563 11475 11476 11468 9790 11702 11703 11695 9781 9788 11701 11694 11697 11704 9792 11705 11479 11706 11707 
1257 1258 1555 1554 1290 1291 1588 1587 9570 11482 11483 11475 9797 11709 11710 11702 9788 9795 11708 11701 11704 11711 9799 11712 11486 11713 11714 
1258 1259 1556 1555 1291 1292 1589 1588 9577 11489 11490 11482 9804 11716 11717 11709 9795 9802 11715 11708 11711 11718 9806 11719 11493 11720 11721 
1259 1260 1557 1556 1292 1293 1590 1589 9584 11496 11497 11489 9811 11723 11724 11716 9802 9809 11722 11715 11718 11725 9813 11726 11500 11727 11728 
1260 1261 1558 1557 1293 1294 1591 1590 9591 11503 11504 11496 9818 11730 11731 11723 9809 9816 11729 11722 11725 11732 9820 11733 11507 11734 11735 
1261 1262 1559 1558 1294 1295 1592 1591 9598 11510 11511 11503 9825 11737 11738 11730 9816 9823 11736 11729 11732 11739 9827 11740 11514 11741 11742 
1262 1263 1560 1559 1295 1296 1593 1592 9605 11517 11518 11510 9832 11744 11745 11737 9823 9830 11743 11736 11739 11746 9834 11747 11521 11748 11749 
1263 1264 1561 1560 1296 1297 1594 1593 9612 11524 11525 11517 9839 11751 11752 11744 9830 9837 11750 11743 11746 11753 9841 11754 11528 11755 11756 
1264 1265 1562 1561 1297 1298 1595 1594 9619 11531 11532 11524 9846 11758 11759 11751 9837 9844 11757 11750 11753 11760 9848 11761 11535 11762 11763 
1265 1266 1563 1562 1298 1299 1596 1595 9626 11538 11539 11531 9853 11765 11766 11758 9844 9851 11764 11757 11760 11767 9855 11768 11542 11769 11770 
1266 1267 1564 1563 1299 1300 1597 1596 9633 11545 11546 11538 9860 11772 11773 11765 9851 9858 11771 11764 11767 11774 9862 11775 11549 11776 11777 
1267 1268 1565 1564 1300 1301 1598 1597 9640 11552 11553 11545 9867 11779 11780 11772 9858 9865 11778 11771 11774 11781 9869 11782 11556 11783 11784 
1268 1269 1566 1565 1301 1302 1599 1598 9647 11559 11560 11552 9874 11786 11787 11779 9865 9872 11785 11778 11781 11788 9876 11789 11563 11790 11791 
1269 1270 1567 1566 1302 1303 1600 1599 9654 11566 11567 11559 9881 11793 11794 11786 9872 9879 11792 11785 11788 11795 9883 11796 11570 11797 11798 
1270 1271 1568 1567 1303 1304 1601 1600 9661 11573 11574 11566 9888 11800 11801 11793 9879 9886 11799 11792 11795 11802 9890 11803 11577 11804 11805 
1271 1272 1569 1568 1304 1305 1602 1601 9668 11580 11581 11573 9895 11807 11808 11800 9886 9893 11806 11799 11802 11809 9897 11810 11584 11811 11812 
1272 1273 1570 1569 1305 1306 1603 1602 9675 11587 11588 11580 9902 11814 11815 11807 9893 9900 11813 11806 11809 11816 9904 11817 11591 11818 11819 
1273 1274 1571 1570 1306 1307 1604 1603 9682 11594 11595 11587 9909 11821 11822 11814 9900 9907 11820 11813 11816 11823 9911 11824 11598 11825 11826 
1274 1275 1572 1571 1307 1308 1605 1604 9689 11601 11602 11594 9916 11828 11829 11821 9907 9914 11827 11820 11823 11830 9918 11831 11605 11832 11833 
1275 1276 1573 1572 1308 1309 1606 1605 9696 11608 11609 11601 9923 11835 11836 11828 9914 9921 11834 11827 11830 11837 9925 11838 11612 11839 11840 
1276 1277 1574 1573 1309 1310 1607 1606 9703 11615 11616 11608 9930 11842 11843 11835 9921 9928 11841 11834 11837 11844 9932 11845 11619 11846 11847 
1277 1278 1575 1574 1310 1311 1608 1607 9710 11622 11623 11615 9937 11849 11850 11842 9928 9935 11848 11841 11844 11851 9939 11852 11626 11853 11854 
1278 1279 1576 1575 1311 1312 1609 1608 9717 11629 11630 11622 9944 11856 11857 11849 9935 9942 11855 11848 11851 11858 9946 11859 11633 11860 11861 
1279 1280 1577 1576 1312 1313 1610 1609 9724 11636 11637 11629 9951 11863 11864 11856 9942 9949 11862 11855 11858 11865 9953 11866 11640 11867 11868 
1280 1281 1578 1577 1313 1314 1611 1610 9731 11643 11644 11636 9958 11870 11871 11863 9949 9956 11869 11862 11865 11872 9960 11873 11647 11874 11875 
1281 1282 1579 1578 1314 1315 1612 1611 9738 11650 11651 11643 9965 11877 11878 11870 9956 9963 11876 11869 11872 11879 9967 11880 11654 11881 11882 
1282 1283 1580 1579 1315 1316 1613 1612 9745 11657 11658 11650 9972 11884 11885 11877 9963 9970 11883 11876 11879 11886 9974 11887 11661 11888 11889 
1283 1284 1581 1580 1316 1317 1614 1613 9752 11664 11665 11657 9979 11891 11892 11884 9970 9977 11890 11883 11886 11893 9981 11894 11668 11895 11896 
1284 1285 1582 1581 1317 1318 1615 1614 9759 11671 11672 11664 9986 11898 11899 11891 9977 9984 11897 11890 11893 11900 9988 11901 11675 11902 11903 
1285 1286 1583 1582 1318 1319 1616 1615 9766 11678 11679 11671 9993 11905 11906 11898 9984 9991 11904 11897 11900 11907 9995 11908 11682 11909 11910 
1287 1288 1585 1584 1320 1321 1618 1617 9774 11686 11687 11688 10001 11913 11914 11915 9999 9998 11911 11912 11918 11916 10004 11917 11692 11919 11920 
1288 1289 1586 1585 1321 1322 1619 1618 9783 11695 11696 11686 10010 11922 11923 11913 9998 10008 11921 11911 11916 11924 10012 11925 11699 11926 11927 
1289 1290 1587 1586 1322 1323 1620 1619 9790 11702 11703 11695 10017 11929 11930 11922 10008 10015 11928 11921 11924 11931 10019 11932 11706 11933 11934 
1290 1291 1588 1587 1323 1324 1621 1620 9797 11709 11710 11702 10024 11936 11937 11929 10015 10022 11935 11928 11931 11938 10026 11939 11713 11940 11941 
1291 1292 1589 1588 1324 1325 1622 1621 9804 11716 11717 11709 10031 11943 11944 11936 10022 10029 11942 11935 11938 11945 10033 11946 11720 11947 11948 
1292 1293 1590 1589 1325 1326 1623 1622 9811 11723 11724 11716 10038 11950 11951 11943 10029 10036 11949 11942 11945 11952 10040 11953 11727 11954 11955 
1293 1294 1591 1590 1326 1327 1624 1623 9818 11730 11731 11723 10045 11957 11958 11950 10036 10043 11956 11949 11952 11959 10047 11960 11734 11961 11962 
1294 1295 1592 1591 1327 1328 1625 1624 9825 11737 11738 11730 10052 11964 11965 11957 10043 10050 11963 11956 11959 11966 10054 11967 11741 11968 11969 
1295 1296 1593 1592 1328 1329 1626 1625 9832 11744 11745 11737 10059 11971 11972 11964 10050 10057 11970 11963 11966 11973 10061 11974 11748 11975 11976 
1296 1297 1594 1593 1329 1330 1627 1626 9839 11751 11752 11744 10066 11978 11979 11971 10057 10064 11977 11970 11973 11980 10068 11981 11755 11982 11983 
1297 1298 1595 1594 1330 1331 1628 1627 9846 11758 11759 11751 10073 11985 11986 11978 10064 10071 11984 11977 11980 11987 10075 11988 11762 11989 11990 
1298 1299 1596 1595 1331 1332 1629 1628 9853 11765 11766 11758 10080 11992 11993 11985 10071 10078 11991 11984 11987 11994 10082 11995 11769 11996 11997 
1299 1300 1597 1596 1332 1333 1630 1629 9860 11772 11773 11765 10087 11999 12000 11992 10078 10085 11998 11991 11994 12001 10089 12002 11776 12003 12004 
1300 1301 1598 1597 1333 1334 1631 1630 9867 11779 11780 11772 10094 12006 12007 11999 10085 10092 12005 11998 12001 12008 10096 12009 11783 12010 12011 
1301 1302 1599 1598 1334 1335 1632 1631 9874 11786 11787 11779 10101 12013 12014 12006 10092 10099 12012 12005 12008 12015 10103 12016 11790 12017 12018 
1302 1303 1600 1599 1335 1336 1633 1632 9881 11793 11794 11786 10108 12020 12021 12013 10099 10106 12019 12012 12015 12022 10110 12023 11797 12024 12025 
1303 1304 1601 1600 1336 1337 1634 1633 9888 11800 11801 11793 10115 12027 12028 12020 10106 10113 12026 12019 12022 12029 10117 12030 11804 12031 12032 
1304 1305 1602 1601 1337 1338 1635 1634 9895 11807 11808 11800 10122 12034 12035 12027 10113 10120 12033 12026 12029 12036 10124 12037 11811 12038 12039 
1305 1306 1603 1602 1338 1339 1636 1635 9902 11814 11815 11807 10129 12041 12042 12034 10120 10127 12040 12033 12036 12043 10131 12044 11818 12045 12046 
1306 1307 1604 1603 1339 1340 1637 1636 9909 11821 11822 11814 10136 12048 12049 12041 10127 10134 12047 12040 12043 12050 10138 12051 11825 12052 12053 
1307 1308 1605 1604 1340 1341 1638 1637 9916 11828 11829 11821 10143 12055 12056 12048 10134 10141 12054 12047 12050 12057 10145 12058 11832 12059 12060 
1308 1309 1606 1605 1341 1342 1639 1638 9923 11835 11836 11828 10150 12062 12063 12055 10141 10148 12061 12054 12057 12064 10152 12065 11839 12066 12067 
1309 1310 1607 1606 1342 1343 1640 1639 9930 11842 11843 11835 10157 12069 12070 12062 10148 10155 12068 12061 12064 12071 10159 12072 11846 12073 12074 
1310 1311 1608 1607 1343 1344 1641 1640 9937 11849 11850 11842 10164 12076 12077 12069 10155 10162 12075 12068 12071 12078 10166 12079 11853 12080 12081 
1311 1312 1609 1608 1344 1345 1642 1641 9944 11856 11857 11849 10171 12083 12084 12076 10162 10169 12082 12075 12078 12085 10173 12086 11860 12087 12088 
1312 1313 1610 1609 1345 1346 1643 1642 9951 11863 11864 11856 10178 12090 12091 12083 10169 10176 12089 12082 12085 12092 10180 12093 11867 12094 12095 
1313 1314 1611 1610 1346 1347 1644 1643 9958 11870 11871 11863 10185 12097 12098 12090 10176 10183 12096 12089 12092 12099 10187 12100 11874 12101 12102 
1314 1315 1612 1611 1347 1348 1645 1644 9965 11877 11878 11870 10192 12104 12105 12097 10183 10190 12103 12096 12099 12106 10194 12107 11881 12108 12109 
1315 1316 1613 1612 1348 1349 1646 1645 9972 11884 11885 11877 10199 12111 12112 12104 10190 10197 12110 12103 12106 12113 10201 12114 11888 12115 12116 
1316 1317 1614 1613 1349 1350 1647 1646 9979 11891 11892 11884 10206 12118 12119 12111 10197 10204 12117 12110 12113 12120 10208 12121 11895 12122 12123 
1317 1318 1615 1614 1350 1351 1648 1647 9986 11898 11899 11891 10213 12125 12126 12118 10204 10211 12124 12117 12120 12127 10215 12128 11902 12129 12130 
1318 1319 1616 1615 1351 1352 1649 1648 9993 11905 11906 11898 10220 12132 12133 12125 10211 10218 12131 12124 12127 12134 10222 12135 11909 12136 12137 
1320 1321 1618 1617 1353 1354 1651 1650 10001 11913 11914 11915 10228 12140 12141 12142 10226 10225 12138 12139 12145 12143 10231 12144 11919 12146 12147 
1321 1322 1619 1618 1354 1355 1652 1651 10010 11922 11923 11913 10237 12149 12150 12140 10225 10235 12148 12138 12143 12151 10239 12152 11926 12153 12154 
1322 1323 1620 1619 1355 1356 1653 1652 10017 11929 11930 11922 10244 12156 12157 12149 10235 10242 12155 12148 12151 12158 10246 12159 11933 12160 12161 
1323 1324 1621 1620 1356 1357 1654 1653 10024 11936 11937 11929 10251 12163 12164 12156 10242 10249 12162 12155 12158 12165 10253 12166 11940 12167 12168 
1324 1325 1622 1621 1357 1358 1655 1654 10031 11943 11944 11936 10258 12170 12171 12163 10249 10256 12169 12162 12165 12172 10260 12173 11947 12174 12175 
1325 1326 1623 1622 1358 1359 1656 1655 10038 11950 11951 11943 10265 12177 12178 12170 10256 10263 12176 12169 12172 12179 10267 12180 11954 12181 12182 
1326 1327 1624 1623 1359 1360 1657 1656 10045 11957 11958 11950 10272 12184 12185 12177 10263 10270 12183 12176 12179 12186 10274 12187 11961 12188 12189 
1327 1328 1625 1624 1360 1361 1658 1657 10052 11964 11965 11957 10279 12191 12192 12184 10270 10277 12190 12183 12186 12193 10281 12194 11968 12195 12196 
1328 1329 1626 1625 1361 1362 1659 1658 10059 11971 11972 11964 10286 12198 12199 12191 10277 10284 12197 12190 12193 12200 10288 12201 11975 12202 12203 
1329 1330 1627 1626 1362 1363 1660 1659 10066 11978 11979 11971 10293 12205 12206 12198 10284 10291 12204 12197 12200 12207 10295 12208 11982 12209 12210 
1330 1331 1628 1627 1363 1364 1661 1660 10073 11985 11986 11978 10300 12212 12213 12205 10291 10298 12211 12204 12207 12214 10302 12215 11989 12216 12217 
1331 1332 1629 1628 1364 1365 1662 1661 10080 11992 11993 11985 10307 12219 12220 12212 10298 10305 12218 12211 12214 12221 10309 12222 11996 12223 12224 
1332 1333 1630 1629 1365 1366 1663 1662 10087 11999 12000 11992 10314 12226 12227 12219 10305 10312 12225 12218 12221 12228 10316 12229 12003 12230 12231 
1333 1334 1631 1630 1366 1367 1664 1663 10094 12006 12007 11999 10321 12233 12234 12226 10312 10319 12232 12225 12228 12235 10323 12236 12010 12237 12238 
1334 1335 1632 1631 1367 1368 1665 1664 10101 12013 12014 12006 10328 12240 12241 12233 10319 10326 12239 12232 12235 12242 10330 12243 12017 12244 12245 
1335 1336 1633 1632 1368 1369 1666 1665 10108 12020 12021 12013 10335 12247 12248 12240 10326 10333 12246 12239 12242 12249 10337 12250 12024 12251 12252 
1336 1337 1634 1633 1369 1370 1667 1666 10115 12027 12028 12020 10342 12254 12255 12247 10333 10340 12253 12246 12249 12256 10344 12257 12031 12258 12259 
1337 1338 1635 1634 1370 1371 1668 1667 10122 12034 12035 12027 10349 12261 12262 12254 10340 10347 12260 12253 12256 12263 10351 12264 12038 12265 12266 
1338 1339 1636 1635 1371 1372 1669 1668 10129 12041 12042 12034 10356 12268 12269 12261 10347 10354 12267 12260 12263 12270 10358 12271 12045 12272 12273 
1339 1340 1637 1636 1372 1373 1670 1669 10136 12048 12049 12041 10363 12275 12276 12268 10354 10361 12274 12267 12270 12277 10365 12278 12052 12279 12280 
1340 1341 1638 1637 1373 1374 1671 1670 10143 12055 12056 12048 10370 12282 12283 12275 10361 10368 12281 12274 12277 12284 10372 12285 12059 12286 12287 
1341 1342 1639 1638 1374 1375 1672 1671 10150 12062 12063 12055 10377 12289 12290 12282 10368 10375 12288 12281 12284 12291 10379 12292 12066 12293 12294 
1342 1343 1640 1639 1375 1376 1673 1672 10157 12069 12070 12062 10384 12296 12297 12289 10375 10382 12295 12288 12291 12298 10386 12299 12073 12300 12301 
1343 1344 1641 1640 1376 1377 1674 1673 10164 12076 12077 12069 10391 12303 12304 12296 10382 10389 12302 12295 12298 12305 10393 12306 12080 12307 12308 
1344 1345 1642 1641 1377 1378 1675 1674 10171 12083 12084 12076 10398 12310 12311 12303 10389 10396 12309 12302 12305 12312 10400 12313 12087 12314 12315 
1345 1346 1643 1642 1378 1379 1676 1675 10178 12090 12091 12083 10405 12317 12318 12310 10396 10403 12316 12309 12312 12319 10407 12320 12094 12321 12322 
1346 1347 1644 1643 1379 1380 1677 1676 10185 12097 12098 12090 10412 12324 12325 12317 10403 10410 12323 12316 12319 12326 10414 12327 12101 12328 12329 
1347 1348 1645 1644 1380 1381 1678 1677 10192 12104 12105 12097 10419 12331 12332 12324 10410 10417 12330 12323 12326 12333 10421 12334 12108 12335 12336 
1348 1349 1646 1645 1381 1382 1679 1678 10199 12111 12112 12104 10426 12338 12339 12331 10417 10424 12337 12330 12333 12340 10428 12341 12115 12342 12343 
1349 1350 1647 1646 1382 1383 1680 1679 10206 12118 12119 12111 10433 12345 12346 12338 10424 10431 12344 12337 12340 12347 10435 12348 12122 12349 12350 
1350 1351 1648 1647 1383 1384 1681 1680 10213 12125 12126 12118 10440 12352 12353 12345 10431 10438 12351 12344 12347 12354 10442 12355 12129 12356 12357 
1351 1352 1649 1648 1384 1385 1682 1681 10220 12132 12133 12125 10447 12359 12360 12352 10438 10445 12358 12351 12354 12361 10449 12362 12136 12363 12364 
1353 1354 1651 1650 1386 1387 1684 1683 10228 12140 12141 12142 10455 12367 12368 12369 10453 10452 12365 12366 12372 12370 10458 12371 12146 12373 12374 
1354 1355 1652 1651 1387 1388 1685 1684 10237 12149 12150 12140 10464 12376 12377 12367 10452 10462 12375 12365 12370 12378 10466 12379 12153 12380 12381 
1355 1356 1653 1652 1388 1389 1686 1685 10244 12156 12157 12149 10471 12383 12384 12376 10462 10469 12382 12375 12378 12385 10473 12386 12160 12387 12388 
1356 1357 1654 1653 1389 1390 1687 1686 10251 12163 12164 12156 10478 12390 12391 12383 10469 10476 12389 12382 12385 12392 10480 12393 12167 12394 12395 
1357 1358 1655 1654 1390 1391 1688 1687 10258 12170 12171 12163 10485 12397 12398 12390 10476 10483 12396 12389 12392 12399 10487 12400 12174 12401 12402 
1358 1359 1656 1655 1391 1392 1689 1688 10265 12177 12178 12170 10492 12404 12405 12397 10483 10490 12403 12396 12399 12406 10494 12407 12181 12408 12409 
1359 1360 1657 1656 1392 1393 1690 1689 10272 12184 12185 12177 10499 12411 12412 12404 10490 10497 12410 12403 12406 12413 10501 12414 12188 12415 12416 
1360 1361 1658 1657 1393 1394 1691 1690 10279 12191 12192 12184 10506 12418 12419 12411 10497 10504 12417 12410 12413 12420 10508 12421 12195 12422 12423 
1361 1362 1659 1658 1394 1395 1692 1691 10286 12198 12199 12191 10513 12425 12426 12418 10504 10511 12424 12417 12420 12427 10515 12428 12202 12429 12430 
1362 1363 1660 1659 1395 1396 1693 1692 10293 12205 12206 12198 10520 12432 12433 12425 10511 10518 12431 12424 12427 12434 10522 12435 12209 12436 12437 
1363 1364 1661 1660 1396 1397 1694 1693 10300 12212 12213 12205 10527 12439 12440 12432 10518 10525 12438 12431 12434 12441 10529 12442 12216 12443 12444 
1364 1365 1662 1661 1397 1398 1695 1694 10307 12219 12220 12212 10534 12446 12447 12439 10525 10532 12445 12438 12441 12448 10536 12449 12223 12450 12451 
1365 1366 1663 1662 1398 1399 1696 1695 10314 12226 12227 12219 10541 12453 12454 12446 10532 10539 12452 12445 12448 12455 10543 12456 12230 12457 12458 
1366 1367 1664 1663 1399 1400 1697 1696 10321 12233 12234 12226 10548 12460 12461 12453 10539 10546 12459 12452 12455 12462 10550 12463 12237 12464 12465 
1367 1368 1665 1664 1400 1401 1698 1697 10328 12240 12241 12233 10555 12467 12468 12460 10546 10553 12466 12459 12462 12469 10557 12470 12244 12471 12472 
1368 1369 1666 1665 1401 1402 1699 1698 10335 12247 12248 12240 10562 12474 12475 12467 10553 10560 12473 12466 12469 12476 10564 12477 12251 12478 12479 
1369 1370 1667 1666 1402 1403 1700 1699 10342 12254 12255 12247 10569 12481 12482 12474 10560 10567 12480 12473 12476 12483 10571 12484 12258 12485 12486 
1370 1371 1668 1667 1403 1404 1701 1700 10349 12261 12262 12254 10576 12488 12489 12481 10567 10574 12487 12480 12483 12490 10578 12491 12265 12492 12493 
1371 1372 1669 1668 1404 1405 1702 1701 10356 12268 12269 12261 10583 12495 12496 12488 10574 10581 12494 12487 12490 12497 10585 12498 12272 12499 12500 
1372 1373 1670 1669 1405 1406 1703 1702 10363 12275 12276 12268 10590 12502 12503 12495 10581 10588 12501 12494 12497 12504 10592 12505 12279 12506 12507 
1373 1374 1671 1670 1406 1407 1704 1703 10370 12282 12283 12275 10597 12509 12510 12502 10588 10595 12508 12501 12504 12511 10599 12512 12286 12513 12514 
1374 1375 1672 1671 1407 1408 1705 1704 10377 12289 12290 12282 10604 12516 12517 12509 10595 10602 12515 12508 12511 12518 10606 12519 12293 12520 12521 
1375 1376 1673 1672 1408 1409 1706 1705 10384 12296 12297 12289 10611 12523 12524 12516 10602 10609 12522 12515 12518 12525 10613 12526 12300 12527 12528 
1376 1377 1674 1673 1409 1410 1707 1706 10391 12303 12304 12296 10618 12530 12531 12523 10609 10616 12529 12522 12525 12532 10620 12533 12307 12534 12535 
1377 1378 1675 1674 1410 1411 1708 1707 10398 12310 12311 12303 10625 12537 12538 12530 10616 10623 12536 12529 12532 12539 10627 12540 12314 12541 12542 
1378 1379 1676 1675 1411 1412 1709 1708 10405 12317 12318 12310 10632 12544 12545 12537 10623 10630 12543 12536 12539 12546 10634 12547 12321 12548 12549 
1379 1380 1677 1676 1412 1413 1710 1709 10412 12324 12325 12317 10639 12551 12552 12544 10630 10637 12550 12543 12546 12553 10641 12554 12328 12555 12556 
1380 1381 1678 1677 1413 1414 1711 1710 10419 12331 12332 12324 10646 12558 12559 12551 10637 10644 12557 12550 12553 12560 10648 12561 12335 12562 12563 
1381 1382 1679 1678 1414 1415 1712 1711 10426 12338 12339 12331 10653 12565 12566 12558 10644 10651 12564 12557 12560 12567 10655 12568 12342 12569 12570 
1382 1383 1680 1679 1415 1416 1713 1712 10433 12345 12346 12338 10660 12572 12573 12565 10651 10658 12571 12564 12567 12574 10662 12575 12349 12576 12577 
1383 1384 1681 1680 1416 1417 1714 1713 10440 12352 12353 12345 10667 12579 12580 12572 10658 10665 12578 12571 12574 12581 10669 12582 12356 12583 12584 
1384 1385 1682 1681 1417 1418 1715 1714 10447 12359 12360 12352 10674 12586 12587 12579 10665 10672 12585 12578 12581 12588 10676 12589 12363 12590 12591 
1386 1387 1684 1683 1419 1420 1717 1716 10455 12367 12368 12369 10682 12594 12595 12596 10680 10679 12592 12593 12599 12597 10685 12598 12373 12600 12601 
1387 1388 1685 1684 1420 1421 1718 1717 10464 12376 12377 12367 10691 12603 12604 12594 10679 10689 12602 12592 12597 12605 10693 12606 12380 12607 12608 
1388 1389 1686 1685 1421 1422 1719 1718 10471 12383 12384 12376 10698 12610 12611 12603 10689 10696 12609 12602 12605 12612 10700 12613 12387 12614 12615 
1389 1390 1687 1686 1422 1423 1720 1719 10478 12390 12391 12383 10705 12617 12618 12610 10696 10703 12616 12609 12612 12619 10707 12620 12394 12621 12622 
1390 1391 1688 1687 1423 1424 1721 1720 10485 12397 12398 12390 10712 12624 12625 12617 10703 10710 12623 12616 12619 12626 10714 12627 12401 12628 12629 
1391 1392 1689 1688 1424 1425 1722 1721 10492 12404 12405 12397 10719 12631 12632 12624 10710 10717 12630 12623 12626 12633 10721 12634 12408 12635 12636 
1392 1393 1690 1689 1425 1426 1723 1722 10499 12411 12412 12404 10726 12638 12639 12631 10717 10724 12637 12630 12633 12640 10728 12641 12415 12642 12643 
1393 1394 1691 1690 1426 1427 1724 1723 10506 12418 12419 12411 10733 12645 12646 12638 10724 10731 12644 12637 12640 12647 10735 12648 12422 12649 12650 
1394 1395 1692 1691 1427 1428 1725 1724 10513 12425 12426 12418 10740 12652 12653 12645 10731 10738 12651 12644 12647 12654 10742 12655 12429 12656 12657 
1395 1396 1693 1692 1428 1429 1726 1725 10520 12432 12433 12425 10747 12659 12660 12652 10738 10745 12658 12651 12654 12661 10749 12662 12436 12663 12664 
1396 1397 1694 1693 1429 1430 1727 1726 10527 12439 12440 12432 10754 12666 12667 12659 10745 10752 12665 12658 12661 12668 10756 12669 12443 12670 12671 
1397 1398 1695 1694 1430 1431 1728 1727 10534 12446 12447 12439 10761 12673 12674 12666 10752 10759 12672 12665 12668 12675 10763 12676 12450 12677 12678 
1398 1399 1696 1695 1431 1432 1729 1728 10541 12453 12454 12446 10768 12680 12681 12673 10759 10766 12679 12672 12675 12682 10770 12683 12457 12684 12685 
1399 1400 1697 1696 1432 1433 1730 1729 10548 12460 12461 12453 10775 12687 12688 12680 10766 10773 12686 12679 12682 12689 10777 12690 12464 12691 12692 
1400 1401 1698 1697 1433 1434 1731 1730 10555 12467 12468 12460 10782 12694 12695 12687 10773 10780 12693 12686 12689 12696 10784 12697 12471 12698 12699 
1401 1402 1699 1698 1434 1435 1732 1731 10562 12474 12475 12467 10789 12701 12702 12694 10780 10787 12700 12693 12696 12703 10791 12704 12478 12705 12706 
1402 1403 1700 1699 1435 1436 1733 1732 10569 12481 12482 12474 10796 12708 12709 12701 10787 10794 12707 12700 12703 12710 10798 12711 12485 12712 12713 
1403 1404 1701 1700 1436 1437 1734 1733 10576 12488 12489 12481 10803 12715 12716 12708 10794 10801 12714 12707 12710 12717 10805 12718 12492 12719 12720 
1404 1405 1702 1701 1437 1438 1735 1734 10583 12495 12496 12488 10810 12722 12723 12715 10801 10808 12721 12714 12717 12724 10812 12725 12499 12726 12727 
1405 1406 1703 1702 1438 1439 1736 1735 10590 12502 12503 12495 10817 12729 12730 12722 10808 10815 12728 12721 12724 12731 10819 12732 12506 12733 12734 
1406 1407 1704 1703 1439 1440 1737 1736 10597 12509 12510 12502 10824 12736 12737 12729 10815 10822 12735 12728 12731 12738 10826 12739 12513 12740 12741 
1407 1408 1705 1704 1440 1441 1738 1737 10604 12516 12517 12509 10831 12743 12744 12736 10822 10829 12742 12735 12738 12745 10833 12746 12520 12747 12748 
1408 1409 1706 1705 1441 1442 1739 1738 10611 12523 12524 12516 10838 12750 12751 12743 10829 10836 12749 12742 12745 12752 10840 12753 12527 12754 12755 
1409 1410 1707 1706 1442 1443 1740 1739 10618 12530 12531 12523 10845 12757 12758 12750 10836 10843 12756 12749 12752 12759 10847 12760 12534 12761 12762 
1410 1411 1708 1707 1443 1444 1741 1740 10625 12537 12538 12530 10852 12764 12765 12757 10843 10850 12763 12756 12759 12766 10854 12767 12541 12768 12769 
1411 1412 1709 1708 1444 1445 1742 1741 10632 12544 12545 12537 10859 12771 12772 12764 10850 10857 12770 12763 12766 12773 10861 12774 12548 12775 12776 
1412 1413 1710 1709 1445 1446 1743 1742 10639 12551 12552 12544 10866 12778 12779 12771 10857 10864 12777 12770 12773 12780 10868 12781 12555 12782 12783 
1413 1414 1711 1710 1446 1447 1744 1743 10646 12558 12559 12551 10873 12785 12786 12778 10864 10871 12784 12777 12780 12787 10875 12788 12562 12789 12790 
1414 1415 1712 1711 1447 1448 1745 1744 10653 12565 12566 12558 10880 12792 12793 12785 10871 10878 12791 12784 12787 12794 10882 12795 12569 12796 12797 
1415 1416 1713 1712 1448 1449 1746 1745 10660 12572 12573 12565 10887 12799 12800 12792 10878 10885 12798 12791 12794 12801 10889 12802 12576 12803 12804 
1416 1417 1714 1713 1449 1450 1747 1746 10667 12579 12580 12572 10894 12806 12807 12799 10885 10892 12805 12798 12801 12808 10896 12809 12583 12810 12811 
1417 1418 1715 1714 1450 1451 1748 1747 10674 12586 12587 12579 10901 12813 12814 12806 10892 10899 12812 12805 12808 12815 10903 12816 12590 12817 12818 
1419 1420 1717 1716 1452 1453 1750 1749 10682 12594 12595 12596 10909 12821 12822 12823 10907 10906 12819 12820 12826 12824 10912 12825 12600 12827 12828 
1420 1421 1718 1717 1453 1454 1751 1750 10691 12603 12604 12594 10918 12830 12831 12821 10906 10916 12829 12819 12824 12832 10920 12833 12607 12834 12835 
1421 1422 1719 1718 1454 1455 1752 1751 10698 12610 12611 12603 10925 12837 12838 12830 10916 10923 12836 12829 12832 12839 10927 12840 12614 12841 12842 
1422 1423 1720 1719 1455 1456 1753 1752 10705 12617 12618 12610 10932 12844 12845 12837 10923 10930 12843 12836 12839 12846 10934 12847 12621 12848 12849 
1423 1424 1721 1720 1456 1457 1754 1753 10712 12624 12625 12617 10939 12851 12852 12844 10930 10937 12850 12843 12846 12853 10941 12854 12628 12855 12856 
1424 1425 1722 1721 1457 1458 1755 1754 10719 12631 12632 12624 10946 12858 12859 12851 10937 10944 12857 12850 12853 12860 10948 12861 12635 12862 12863 
1425 1426 1723 1722 1458 1459 1756 1755 10726 12638 12639 12631 10953 12865 12866 12858 10944 10951 12864 12857 12860 12867 10955 12868 12642 12869 12870 
1426 1427 1724 1723 1459 1460 1757 1756 10733 12645 12646 12638 10960 12872 12873 12865 10951 10958 12871 12864 12867 12874 10962 12875 12649 12876 12877 
1427 1428 1725 1724 1460 1461 1758 1757 10740 12652 12653 12645 10967 12879 12880 12872 10958 10965 12878 12871 12874 12881 10969 12882 12656 12883 12884 
1428 1429 1726 1725 1461 1462 1759 1758 10747 12659 12660 12652 10974 12886 12887 12879 10965 10972 12885 12878 12881 12888 10976 12889 12663 12890 12891 
1429 1430 1727 1726 1462 1463 1760 1759 10754 12666 12667 12659 10981 12893 12894 12886 10972 10979 12892 12885 12888 12895 10983 12896 12670 12897 12898 
1430 1431 1728 1727 1463 1464 1761 1760 10761 12673 12674 12666 10988 12900 12901 12893 10979 10986 12899 12892 12895 12902 10990 12903 12677 12904 12905 
1431 1432 1729 1728 1464 1465 1762 1761 10768 12680 12681 12673 10995 12907 12908 12900 10986 10993 12906 12899 12902 12909 10997 12910 12684 12911 12912 
1432 1433 1730 1729 1465 1466 1763 1762 10775 12687 12688 12680 11002 12914 12915 12907 10993 11000 12913 12906 12909 12916 11004 12917 12691 12918 12919 
1433 1434 1731 1730 1466 1467 1764 1763 10782 12694 12695 12687 11009 12921 12922 12914 11000 11007 12920 12913 12916 12923 11011 12924 12698 12925 12926 
1434 1435 1732 1731 1467 1468 1765 1764 10789 12701 12702 12694 11016 12928 12929 12921 11007 11014 12927 12920 12923 12930 11018 12931 12705 12932 12933 
1435 1436 1733 1732 1468 1469 1766 1765 10796 12708 12709 12701 11023 12935 12936 12928 11014 11021 12934 12927 12930 12937 11025 12938 12712 12939 12940 
1436 1437 1734 1733 1469 1470 1767 1766 10803 12715 12716 12708 11030 12942 12943 12935 11021 11028 12941 12934 12937 12944 11032 12945 12719 12946 12947 
1437 1438 1735 1734 1470 1471 1768 1767 10810 12722 12723 12715 11037 12949 12950 12942 11028 11035 12948 12941 12944 12951 11039 12952 12726 12953 12954 
1438 1439 1736 1735 1471 1472 1769 1768 10817 12729 12730 12722 11044 12956 12957 12949 11035 11042 12955 12948 12951 12958 11046 12959 12733 12960 12961 
1439 1440 1737 1736 1472 1473 1770 1769 10824 12736 12737 12729 11051 12963 12964 12956 11042 11049 12962 12955 12958 12965 11053 12966 12740 12967 12968 
1440 1441 1738 1737 1473 1474 1771 1770 10831 12743 12744 12736 11058 12970 12971 12963 11049 11056 12969 12962 12965 12972 11060 12973 12747 12974 12975 
1441 1442 1739 1738 1474 1475 1772 1771 10838 12750 12751 12743 11065 12977 12978 12970 11056 11063 12976 12969 12972 12979 11067 12980 12754 12981 12982 
1442 1443 1740 1739 1475 1476 1773 1772 10845 12757 12758 12750 11072 12984 12985 12977 11063 11070 12983 12976 12979 12986 11074 12987 12761 12988 12989 
1443 1444 1741 1740 1476 1477 1774 1773 10852 12764 12765 12757 11079 12991 12992 12984 11070 11077 12990 12983 12986 12993 11081 12994 12768 12995 12996 
1444 1445 1742 1741 1477 1478 1775 1774 10859 12771 12772 12764 11086 12998 12999 12991 11077 11084 12997 12990 12993 13000 11088 13001 12775 13002 13003 
1445 1446 1743 1742 1478 1479 1776 1775 10866 12778 12779 12771 11093 13005 13006 12998 11084 11091 13004 12997 13000 13007 11095 13008 12782 13009 13010 
1446 1447 1744 1743 1479 1480 1777 1776 10873 12785 12786 12778 11100 13012 13013 13005 11091 11098 13011 13004 13007 13014 11102 13015 12789 13016 13017 
1447 1448 1745 1744 1480 1481 1778 1777 10880 12792 12793 12785 11107 13019 13020 13012 11098 11105 13018 13011 13014 13021 11109 13022 12796 13023 13024 
1448 1449 1746 1745 1481 1482 1779 1778 10887 12799 12800 12792 11114 13026 13027 13019 11105 11112 13025 13018 13021 13028 11116 13029 12803 13030 13031 
1449 1450 1747 1746 1482 1483 1780 1779 10894 12806 12807 12799 11121 13033 13034 13026 11112 11119 13032 13025 13028 13035 11123 13036 12810 13037 13038 
1450 1451 1748 1747 1483 1484 1781 1780 10901 12813 12814 12806 11128 13040 13041 13033 11119 11126 13039 13032 13035 13042 11130 13043 12817 13044 13045 
1485 1486 1783 1782 1518 1519 1816 1815 11134 13046 13047 13048 11139 13051 13052 13053 11137 11136 13049 13050 13057 13055 11143 13056 13054 13058 13059 
1486 1487 1784 1783 1519 1520 1817 1816 11148 13060 13061 13046 11151 13063 13064 13051 11136 11149 13062 13049 13055 13066 11154 13067 13065 13068 13069 
1487 1488 1785 1784 1520 1521 1818 1817 11158 13070 13071 13060 11161 13073 13074 13063 11149 11159 13072 13062 13066 13076 11164 13077 13075 13078 13079 
1488 1489 1786 1785 1521 1522 1819 1818 11168 13080 13081 13070 11171 13083 13084 13073 11159 11169 13082 13072 13076 13086 11174 13087 13085 13088 13089 
1489 1490 1787 1786 1522 1523 1820 1819 11178 13090 13091 13080 11181 13093 13094 13083 11169 11179 13092 13082 13086 13096 11184 13097 13095 13098 13099 
1490 1491 1788 1787 1523 1524 1821 1820 11188 13100 13101 13090 11191 13103 13104 13093 11179 11189 13102 13092 13096 13106 11194 13107 13105 13108 13109 
1491 1492 1789 1788 1524 1525 1822 1821 11198 13110 13111 13100 11201 13113 13114 13103 11189 11199 13112 13102 13106 13116 11204 13117 13115 13118 13119 
1492 1493 1790 1789 1525 1526 1823 1822 11208 13120 13121 13110 11211 13123 13124 13113 11199 11209 13122 13112 13116 13126 11214 13127 13125 13128 13129 
1493 1494 1791 1790 1526 1527 1824 1823 11218 13130 13131 13120 11221 13133 13134 13123 11209 11219 13132 13122 13126 13136 11224 13137 13135 13138 13139 
1494 1495 1792 1791 1527 1528 1825 1824 11228 13140 13141 13130 11231 13143 13144 13133 11219 11229 13142 13132 13136 13146 11234 13147 13145 13148 13149 
1495 1496 1793 1792 1528 1529 1826 1825 11238 13150 13151 13140 11241 13153 13154 13143 11229 11239 13152 13142 13146 13156 11244 13157 13155 13158 13159 
1496 1497 1794 1793 1529 1530 1827 1826 11248 13160 13161 13150 11251 13163 13164 13153 11239 11249 13162 13152 13156 13166 11254 13167 13165 13168 13169 
1497 1498 1795 1794 1530 1531 1828 1827 11258 13170 13171 13160 11261 13173 13174 13163 11249 11259 13172 13162 13166 13176 11264 13177 13175 13178 13179 
1498 1499 1796 1795 1531 1532 1829 1828 11268 13180 13181 13170 11271 13183 13184 13173 11259 11269 13182 13172 13176 13186 11274 13187 13185 13188 13189 
1499 1500 1797 1796 1532 1533 1830 1829 11278 13190 13191 13180 11281 13193 13194 13183 11269 11279 13192 13182 13186 13196 11284 13197 13195 13198 13199 
1500 1501 1798 1797 1533 1534 1831 1830 11288 13200 13201 13190 11291 13203 13204 13193 11279 11289 13202 13192 13196 13206 11294 13207 13205 13208 13209 
1501 1502 1799 1798 1534 1535 1832 1831 11298 13210 13211 13200 11301 13213 13214 13203 11289 11299 13212 13202 13206 13216 11304 13217 13215 13218 13219 
1502 1503 1800 1799 1535 1536 1833 1832 11308 13220 13221 13210 11311 13223 13224 13213 11299 11309 13222 13212 13216 13226 11314 13227 13225 13228 13229 
1503 1504 1801 1800 1536 1537 1834 1833 11318 13230 13231 13220 11321 13233 13234 13223 11309 11319 13232 13222 13226 13236 11324 13237 13235 13238 13239 
1504 1505 1802 1801 1537 1538 1835 1834 11328 13240 13241 13230 11331 13243 13244 13233 11319 11329 13242 13232 13236 13246 11334 13247 13245 13248 13249 
1505 1506 1803 1802 1538 1539 1836 1835 11338 13250 13251 13240 11341 13253 13254 13243 11329 11339 13252 13242 13246 13256 11344 13257 13255 13258 13259 
1506 1507 1804 1803 1539 1540 1837 1836 11348 13260 13261 13250 11351 13263 13264 13253 11339 11349 13262 13252 13256 13266 11354 13267 13265 13268 13269 
1507 1508 1805 1804 1540 1541 1838 1837 11358 13270 13271 13260 11361 13273 13274 13263 11349 11359 13272 13262 13266 13276 11364 13277 13275 13278 13279 
1508 1509 1806 1805 1541 1542 1839 1838 11368 13280 13281 13270 11371 13283 13284 13273 11359 11369 13282 13272 13276 13286 11374 13287 13285 13288 13289 
1509 1510 1807 1806 1542 1543 1840 1839 11378 13290 13291 13280 11381 13293 13294 13283 11369 11379 13292 13282 13286 13296 11384 13297 13295 13298 13299 
1510 1511 1808 1807 1543 1544 1841 1840 11388 13300 13301 13290 11391 13303 13304 13293 11379 11389 13302 13292 13296 13306 11394 13307 13305 13308 13309 
1511 1512 1809 1808 1544 1545 1842 1841 11398 13310 13311 13300 11401 13313 13314 13303 11389 11399 13312 13302 13306 13316 11404 13317 13315 13318 13319 
1512 1513 1810 1809 1545 1546 1843 1842 11408 13320 13321 13310 11411 13323 13324 13313 11399 11409 13322 13312 13316 13326 11414 13327 13325 13328 13329 
1513 1514 1811 1810 1546 1547 1844 1843 11418 13330 13331 13320 11421 13333 13334 13323 11409 11419 13332 13322 13326 13336 11424 13337 13335 13338 13339 
1514 1515 1812 1811 1547 1548 1845 1844 11428 13340 13341 13330 11431 13343 13344 13333 11419 11429 13342 13332 13336 13346 11434 13347 13345 13348 13349 
1515 1516 1813 1812 1548 1549 1846 1845 11438 13350 13351 13340 11441 13353 13354 13343 11429 11439 13352 13342 13346 13356 11444 13357 13355 13358 13359 
1516 1517 1814 1813 1549 1550 1847 1846 11448 13360 13361 13350 11451 13363 13364 13353 11439 11449 13362 13352 13356 13366 11454 13367 13365 13368 13369 
1518 1519 1816 1815 1551 1552 1849 1848 11139 13051 13052 13053 11460 13372 13373 13374 11458 11457 13370 13371 13377 13375 11463 13376 13058 13378 13379 
1519 1520 1817 1816 1552 1553 1850 1849 11151 13063 13064 13051 11469 13381 13382 13372 11457 11467 13380 13370 13375 13383 11471 13384 13068 13385 13386 
1520 1521 1818 1817 1553 1554 1851 1850 11161 13073 13074 13063 11476 13388 13389 13381 11467 11474 13387 13380 13383 13390 11478 13391 13078 13392 13393 
1521 1522 1819 1818 1554 1555 1852 1851 11171 13083 13084 13073 11483 13395 13396 13388 11474 11481 13394 13387 13390 13397 11485 13398 13088 13399 13400 
1522 1523 1820 1819 1555 1556 1853 1852 11181 13093 13094 13083 11490 13402 13403 13395 11481 11488 13401 13394 13397 13404 11492 13405 13098 13406 13407 
1523 1524 1821 1820 1556 1557 1854 1853 11191 13103 13104 13093 11497 13409 13410 13402 11488 11495 13408 13401 13404 13411 11499 13412 13108 13413 13414 
1524 1525 1822 1821 1557 1558 1855 1854 11201 13113 13114 13103 11504 13416 13417 13409 11495 11502 13415 13408 13411 13418 11506 13419 13118 13420 13421 
1525 1526 1823 1822 1558 1559 1856 1855 11211 13123 13124 13113 11511 13423 13424 13416 11502 11509 13422 13415 13418 13425 11513 13426 13128 13427 13428 
1526 1527 1824 1823 1559 1560 1857 1856 11221 13133 13134 13123 11518 13430 13431 13423 11509 11516 13429 13422 13425 13432 11520 13433 13138 13434 13435 
1527 1528 1825 1824 1560 1561 1858 1857 11231 13143 13144 13133 11525 13437 13438 13430 11516 11523 13436 13429 13432 13439 11527 13440 13148 13441 13442 
1528 1529 1826 1825 1561 1562 1859 1858 11241 13153 13154 13143 11532 13444 13445 13437 11523 11530 13443 13436 13439 13446 11534 13447 13158 13448 13449 
1529 1530 1827 1826 1562 1563 1860 1859 11251 13163 13164 13153 11539 13451 13452 13444 11530 11537 13450 13443 13446 13453 11541 13454 13168 13455 13456 
1530 1531 1828 1827 1563 1564 1861 1860 11261 13173 13174 13163 11546 13458 13459 13451 11537 11544 13457 13450 13453 13460 11548 13461 13178 13462 13463 
1531 1532 1829 1828 1564 1565 1862 1861 11271 13183 13184 13173 11553 13465 13466 13458 11544 11551 13464 13457 13460 13467 11555 13468 13188 13469 13470 
1532 1533 1830 1829 1565 1566 1863 1862 11281 13193 13194 13183 11560 13472 13473 13465 11551 11558 13471 13464 13467 13474 11562 13475 13198 13476 13477 
1533 1534 1831 1830 1566 1567 1864 1863 11291 13203 13204 13193 11567 13479 13480 13472 11558 11565 13478 13471 13474 13481 11569 13482 13208 13483 13484 
1534 1535 1832 1831 1567 1568 1865 1864 11301 13213 13214 13203 11574 13486 13487 13479 11565 11572 13485 13478 13481 13488 11576 13489 13218 13490 13491 
1535 1536 1833 1832 1568 1569 1866 1865 11311 13223 13224 13213 11581 13493 13494 13486 11572 11579 13492 13485 13488 13495 11583 13496 13228 13497 13498 
1536 1537 1834 1833 1569 1570 1867 1866 11321 13233 13234 13223 11588 13500 13501 13493 11579 11586 13499 13492 13495 13502 11590 13503 13238 13504 13505 
1537 1538 1835 1834 1570 1571 1868 1867 11331 13243 13244 13233 11595 13507 13508 13500 11586 11593 13506 13499 13502 13509 11597 13510 13248 13511 13512 
1538 1539 1836 1835 1571 1572 1869 1868 11341 13253 13254 13243 11602 13514 13515 13507 11593 11600 13513 13506 13509 13516 11604 13517 13258 13518 13519 
1539 1540 1837 1836 1572 1573 1870 1869 11351 13263 13264 13253 11609 13521 13522 13514 11600 11607 13520 13513 13516 13523 11611 13524 13268 13525 13526 
1540 1541 1838 1837 1573 1574 1871 1870 11361 13273 13274 13263 11616 13528 13529 13521 11607 11614 13527 13520 13523 13530 11618 13531 13278 13532 13533 
1541 1542 1839 1838 1574 1575 1872 1871 11371 13283 13284 13273 11623 13535 13536 13528 11614 11621 13534 13527 13530 13537 11625 13538 13288 13539 13540 
1542 1543 1840 1839 1575 1576 1873 1872 11381 13293 13294 13283 11630 13542 13543 13535 11621 11628 13541 13534 13537 13544 11632 13545 13298 13546 13547 
1543 1544 1841 1840 1576 1577 1874 1873 11391 13303 13304 13293 11637 13549 13550 13542 11628 11635 13548 13541 13544 13551 11639 13552 13308 13553 13554 
1544 1545 1842 1841 1577 1578 1875 1874 11401 13313 13314 13303 11644 13556 13557 13549 11635 11642 13555 13548 13551 13558 11646 13559 13318 13560 13561 
1545 1546 1843 1842 1578 1579 1876 1875 11411 13323 13324 13313 11651 13563 13564 13556 11642 11649 13562 13555 13558 13565 11653 13566 13328 13567 13568 
1546 1547 1844 1843 1579 1580 1877 1876 11421 13333 13334 13323 11658 13570 13571 13563 11649 11656 13569 13562 13565 13572 11660 13573 13338 13574 13575 
1547 1548 1845 1844 1580 1581 1878 1877 11431 13343 13344 13333 11665 13577 13578 13570 11656 11663 13576 13569 13572 13579 11667 13580 13348 13581 13582 
1548 1549 1846 1845 1581 1582 1879 1878 11441 13353 13354 13343 11672 13584 13585 13577 11663 11670 13583 13576 13579 13586 11674 13587 13358 13588 13589 
1549 1550 1847 1846 1582 1583 1880 1879 11451 13363 13364 13353 11679 13591 13592 13584 11670 11677 13590 13583 13586 13593 11681 13594 13368 13595 13596 
1551 1552 1849 1848 1584 1585 1882 1881 11460 13372 13373 13374 11687 13599 13600 13601 11685 11684 13597 13598 13604 13602 11690 13603 13378 13605 13606 
1552 1553 1850 1849 1585 1586 1883 1882 11469 13381 13382 13372 11696 13608 13609 13599 11684 11694 13607 13597 13602 13610 11698 13611 13385 13612 13613 
1553 1554 1851 1850 1586 1587 1884 1883 11476 13388 13389 13381 11703 13615 13616 13608 11694 11701 13614 13607 13610 13617 11705 13618 13392 13619 13620 
1554 1555 1852 1851 1587 1588 1885 1884 11483 13395 13396 13388 11710 13622 13623 13615 11701 11708 13621 13614 13617 13624 11712 13625 13399 13626 13627 
1555 1556 1853 1852 1588 1589 1886 1885 11490 13402 13403 13395 11717 13629 13630 13622 11708 11715 13628 13621 13624 13631 11719 13632 13406 13633 13634 
1556 1557 1854 1853 1589 1590 1887 1886 11497 13409 13410 13402 11724 13636 13637 13629 11715 11722 13635 13628 13631 13638 11726 13639 13413 13640 13641 
1557 1558 1855 1854 1590 1591 1888 1887 11504 13416 13417 13409 11731 13643 13644 13636 11722 11729 13642 13635 13638 13645 11733 13646 13420 13647 13648 
1558 1559 1856 1855 1591 1592 1889 1888 11511 13423 13424 13416 11738 13650 13651 13643 11729 11736 13649 13642 13645 13652 11740 13653 13427 13654 13655 
1559 1560 1857 1856 1592 1593 1890 1889 11518 13430 13431 13423 11745 13657 13658 13650 11736 11743 13656 13649 13652 13659 11747 13660 13434 13661 13662 
1560 1561 1858 1857 1593 1594 1891 1890 11525 13437 13438 13430 11752 13664 13665 13657 11743 11750 13663 13656 13659 13666 11754 13667 13441 13668 13669 
1561 1562 1859 1858 1594 1595 1892 1891 11532 13444 13445 13437 11759 13671 13672 13664 11750 11757 13670 13663 13666 13673 11761 13674 13448 13675 13676 
1562 1563 1860 1859 1595 1596 1893 1892 11539 13451 13452 13444 11766 13678 13679 13671 11757 11764 13677 13670 13673 13680 11768 13681 13455 13682 13683 
1563 1564 1861 1860 1596 1597 1894 1893 11546 13458 13459 13451 11773 13685 13686 13678 11764 11771 13684 13677 13680 13687 11775 13688 13462 13689 13690 
1564 1565 1862 1861 1597 1598 1895 1894 11553 13465 13466 13458 11780 13692 13693 13685 11771 11778 13691 13684 13687 13694 11782 13695 13469 13696 13697 
1565 1566 1863 1862 1598 1599 1896 1895 11560 13472 13473 13465 11787 13699 13700 13692 11778 11785 13698 13691 13694 13701 11789 13702 13476 13703 13704 
1566 1567 1864 1863 1599 1600 1897 1896 11567 13479 13480 13472 11794 13706 13707 13699 11785 11792 13705 13698 13701 13708 11796 13709 13483 13710 13711 
1567 1568 1865 1864 1600 1601 1898 1897 11574 13486 13487 13479 11801 13713 13714 13706 11792 11799 13712 13705 13708 13715 11803 13716 13490 13717 13718 
1568 1569 1866 1865 1601 1602 1899 1898 11581 13493 13494 13486 11808 13720 13721 13713 11799 11806 13719 13712 13715 13722 11810 13723 13497 13724 13725 
1569 1570 1867 1866 1602 1603 1900 1899 11588 13500 13501 13493 11815 13727 13728 13720 11806 11813 13726 13719 13722 13729 11817 13730 13504 13731 13732 
1570 1571 1868 1867 1603 1604 1901 1900 11595 13507 13508 13500 11822 13734 13735 13727 11813 11820 13733 13726 13729 13736 11824 13737 13511 13738 13739 
1571 1572 1869 1868 1604 1605 1902 1901 11602 13514 13515 13507 11829 13741 13742 13734 11820 11827 13740 13733 13736 13743 11831 13744 13518 13745 13746 
1572 1573 1870 1869 1605 1606 1903 1902 11609 13521 13522 13514 11836 13748 13749 13741 11827 11834 13747 13740 13743 13750 11838 13751 13525 13752 13753 
1573 1574 1871 1870 1606 1607 1904 1903 11616 13528 13529 13521 11843 13755 13756 13748 11834 11841 13754 13747 13750 13757 11845 13758 13532 13759 13760 
1574 1575 1872 1871 1607 1608 1905 1904 11623 13535 13536 13528 11850 13762 13763 13755 11841 11848 13761 13754 13757 13764 11852 13765 13539 13766 13767 
1575 1576 1873 1872 1608 1609 1906 1905 11630 13542 13543 13535 11857 13769 13770 13762 11848 11855 13768 13761 13764 13771 11859 13772 13546 13773 13774 
1576 1577 1874 1873 1609 1610 1907 1906 11637 13549 13550 13542 11864 13776 13777 13769 11855 11862 13775 13768 13771 13778 11866 13779 13553 13780 13781 
1577 1578 1875 1874 1610 1611 1908 1907 11644 13556 13557 13549 11871 13783 13784 13776 11862 11869 13782 13775 13778 13785 11873 13786 13560 13787 13788 
1578 1579 1876 1875 1611 1612 1909 1908 11651 13563 13564 13556 11878 13790 13791 13783 11869 11876 13789 13782 13785 13792 11880 13793 13567 13794 13795 
1579 1580 1877 1876 1612 1613 1910 1909 11658 13570 13571 13563 11885 13797 13798 13790 11876 11883 13796 13789 13792 13799 11887 13800 13574 13801 13802 
1580 1581 1878 1877 1613 1614 1911 1910 11665 13577 13578 13570 11892 13804 13805 13797 11883 11890 13803 13796 13799 13806 11894 13807 13581 13808 13809 
1581 1582 1879 1878 1614 1615 1912 1911 11672 13584 13585 13577 11899 13811 13812 13804 11890 11897 13810 13803 13806 13813 11901 13814 13588 13815 13816 
1582 1583 1880 1879 1615 1616 1913 1912 11679 13591 13592 13584 11906 13818 13819 13811 11897 11904 13817 13810 13813 13820 11908 13821 13595 13822 13823 
1584 1585 1882 1881 1617 1618 1915 1914 11687 13599 13600 13601 11914 13826 13827 13828 11912 11911 13824 13825 13831 13829 11917 13830 13605 13832 13833 
1585 1586 1883 1882 1618 1619 1916 1915 11696 13608 13609 13599 11923 13835 13836 13826 11911 11921 13834 13824 13829 13837 11925 13838 13612 13839 13840 
1586 1587 1884 1883 1619 1620 1917 1916 11703 13615 13616 13608 11930 13842 13843 13835 11921 11928 13841 13834 13837 13844 11932 13845 13619 13846 13847 
1587 1588 1885 1884 1620 1621 1918 1917 11710 13622 13623 13615 11937 13849 13850 13842 11928 11935 13848 13841 13844 13851 11939 13852 13626 13853 13854 
1588 1589 1886 1885 1621 1622 1919 1918 11717 13629 13630 13622 11944 13856 13857 13849 11935 11942 13855 13848 13851 13858 11946 13859 13633 13860 13861 
1589 1590 1887 1886 1622 1623 1920 1919 11724 13636 13637 13629 11951 13863 13864 13856 11942 11949 13862 13855 13858 13865 11953 13866 13640 13867 13868 
1590 1591 1888 1887 1623 1624 1921 1920 11731 13643 13644 13636 11958 13870 13871 13863 11949 11956 13869 13862 13865 13872 11960 13873 13647 13874 13875 
1591 1592 1889 1888 1624 1625 1922 1921 11738 13650 13651 13643 11965 13877 13878 13870 11956 11963 13876 13869 13872 13879 11967 13880 13654 13881 13882 
1592 1593 1890 1889 1625 1626 1923 1922 11745 13657 13658 13650 11972 13884 13885 13877 11963 11970 13883 13876 13879 13886 11974 13887 13661 13888 13889 
1593 1594 1891 1890 1626 1627 1924 1923 11752 13664 13665 13657 11979 13891 13892 13884 11970 11977 13890 13883 13886 13893 11981 13894 13668 13895 13896 
1594 1595 1892 1891 1627 1628 1925 1924 11759 13671 13672 13664 11986 13898 13899 13891 11977 11984 13897 13890 13893 13900 11988 13901 13675 13902 13903 
1595 1596 1893 1892 1628 1629 1926 1925 11766 13678 13679 13671 11993 13905 13906 13898 11984 11991 13904 13897 13900 13907 11995 13908 13682 13909 13910 
1596 1597 1894 1893 1629 1630 1927 1926 11773 13685 13686 13678 12000 13912 13913 13905 11991 11998 13911 13904 13907 13914 12002 13915 13689 13916 13917 
1597 1598 1895 1894 1630 1631 1928 1927 11780 13692 13693 13685 12007 13919 13920 13912 11998 12005 13918 13911 13914 13921 12009 13922 13696 13923 13924 
1598 1599 1896 1895 1631 1632 1929 1928 11787 13699 13700 13692 12014 13926 13927 13919 12005 12012 13925 13918 13921 13928 12016 13929 13703 13930 13931 
1599 1600 1897 1896 1632 1633 1930 1929 11794 13706 13707 13699 12021 13933 13934 13926 12012 12019 13932 13925 13928 13935 12023 13936 13710 13937 13938 
1600 1601 1898 1897 1633 1634 1931 1930 11801 13713 13714 13706 12028 13940 13941 13933 12019 12026 13939 13932 13935 13942 12030 13943 13717 13944 13945 
1601 1602 1899 1898 1634 1635 1932 1931 11808 13720 13721 13713 12035 13947 13948 13940 12026 12033 13946 13939 13942 13949 12037 13950 13724 13951 13952 
1602 1603 1900 1899 1635 1636 1933 1932 11815 13727 13728 13720 12042 13954 13955 13947 12033 12040 13953 13946 13949 13956 12044 13957 13731 13958 13959 
1603 1604 1901 1900 1636 1637 1934 1933 11822 13734 13735 13727 12049 13961 13962 13954 12040 12047 13960 13953 13956 13963 12051 13964 13738 13965 13966 
1604 1605 1902 1901 1637 1638 1935 1934 11829 13741 13742 13734 12056 13968 13969 13961 12047 12054 13967 13960 13963 13970 12058 13971 13745 13972 13973 
1605 1606 1903 1902 1638 1639 1936 1935 11836 13748 13749 13741 12063 13975 13976 13968 12054 12061 13974 13967 13970 13977 12065 13978 13752 13979 13980 
1606 1607 1904 1903 1639 1640 1937 1936 11843 13755 13756 13748 12070 13982 13983 13975 12061 12068 13981 13974 13977 13984 12072 13985 13759 13986 13987 
1607 1608 1905 1904 1640 1641 1938 1937 11850 13762 13763 13755 12077 13989 13990 13982 12068 12075 13988 13981 13984 13991 12079 13992 13766 13993 13994 
1608 1609 1906 1905 1641 1642 1939 1938 11857 13769 13770 13762 12084 13996 13997 13989 12075 12082 13995 13988 13991 13998 12086 13999 13773 14000 14001 
1609 1610 1907 1906 1642 1643 1940 1939 11864 13776 13777 13769 12091 14003 14004 13996 12082 12089 14002 13995 13998 14005 12093 14006 13780 14007 14008 
1610 1611 1908 1907 1643 1644 1941 1940 11871 13783 13784 13776 12098 14010 14011 14003 12089 12096 14009 14002 14005 14012 12100 14013 13787 14014 14015 
1611 1612 1909 1908 1644 1645 1942 1941 11878 13790 13791 13783 12105 14017 14018 14010 12096 12103 14016 14009 14012 14019 12107 14020 13794 14021 14022 
1612 1613 1910 1909 1645 1646 1943 1942 11885 13797 13798 13790 12112 14024 14025 14017 12103 12110 14023 14016 14019 14026 12114 14027 13801 14028 14029 
1613 1614 1911 1910 1646 1647 1944 1943 11892 13804 13805 13797 12119 14031 14032 14024 12110 12117 14030 14023 14026 14033 12121 14034 13808 14035 14036 
1614 1615 1912 1911 1647 1648 1945 1944 11899 13811 13812 13804 12126 14038 14039 14031 12117 12124 14037 14030 14033 14040 12128 14041 13815 14042 14043 
1615 1616 1913 1912 1648 1649 1946 1945 11906 13818 13819 13811 12133 14045 14046 14038 12124 12131 14044 14037 14040 14047 12135 14048 13822 14049 14050 
1617 1618 1915 1914 1650 1651 1948 1947 11914 13826 13827 13828 12141 14053 14054 14055 12139 12138 14051 14052 14058 14056 12144 14057 13832 14059 14060 
1618 1619 1916 1915 1651 1652 1949 1948 11923 13835 13836 13826 12150 14062 14063 14053 12138 12148 14061 14051 14056 14064 12152 14065 13839 14066 14067 
1619 1620 1917 1916 1652 1653 1950 1949 11930 13842 13843 13835 12157 14069 14070 14062 12148 12155 14068 14061 14064 14071 12159 14072 13846 14073 14074 
1620 1621 1918 1917 1653 1654 1951 1950 11937 13849 13850 13842 12164 14076 14077 14069 12155 12162 14075 14068 14071 14078 12166 14079 13853 14080 14081 
1621 1622 1919 1918 1654 1655 1952 1951 11944 13856 13857 13849 12171 14083 14084 14076 12162 12169 14082 14075 14078 14085 12173 14086 13860 14087 14088 
1622 1623 1920 1919 1655 1656 1953 1952 11951 13863 13864 13856 12178 14090 14091 14083 12169 12176 14089 14082 14085 14092 12180 14093 13867 14094 14095 
1623 1624 1921 1920 1656 1657 1954 1953 11958 13870 13871 13863 12185 14097 14098 14090 12176 12183 14096 14089 14092 14099 12187 14100 13874 14101 14102 
1624 1625 1922 1921 1657 1658 1955 1954 11965 13877 13878 13870 12192 14104 14105 14097 12183 12190 14103 14096 14099 14106 12194 14107 13881 14108 14109 
1625 1626 1923 1922 1658 1659 1956 1955 11972 13884 13885 13877 12199 14111 14112 14104 12190 12197 14110 14103 14106 14113 12201 14114 13888 14115 14116 
1626 1627 1924 1923 1659 1660 1957 1956 11979 13891 13892 13884 12206 14118 14119 14111 12197 12204 14117 14110 14113 14120 12208 14121 13895 14122 14123 
1627 1628 1925 1924 1660 1661 1958 1957 11986 13898 13899 13891 12213 14125 14126 14118 12204 12211 14124 14117 14120 14127 12215 14128 13902 14129 14130 
1628 1629 1926 1925 1661 1662 1959 1958 11993 13905 13906 13898 12220 14132 14133 14125 12211 12218 14131 14124 14127 14134 12222 14135 13909 14136 14137 
1629 1630 1927 1926 1662 1663 1960 1959 12000 13912 13913 13905 12227 14139 14140 14132 12218 12225 14138 14131 14134 14141 12229 14142 13916 14143 14144 
1630 1631 1928 1927 1663 1664 1961 1960 12007 13919 13920 13912 12234 14146 14147 14139 12225 12232 14145 14138 14141 14148 12236 14149 13923 14150 14151 
1631 1632 1929 1928 1664 1665 1962 1961 12014 13926 13927 13919 12241 14153 14154 14146 12232 12239 14152 14145 14148 14155 12243 14156 13930 14157 14158 
1632 1633 1930 1929 1665 1666 1963 1962 12021 13933 13934 13926 12248 14160 14161 14153 12239 12246 14159 14152 14155 14162 12250 14163 13937 14164 14165 
1633 1634 1931 1930 1666 1667 1964 1963 12028 13940 13941 13933 12255 14167 14168 14160 12246 12253 14166 14159 14162 14169 12257 14170 13944 14171 14172 
1634 1635 1932 1931 1667 1668 1965 1964 12035 13947 13948 13940 12262 14174 14175 14167 12253 12260 14173 14166 14169 14176 12264 14177 13951 14178 14179 
1635 1636 1933 1932 1668 1669 1966 1965 12042 13954 13955 13947 12269 14181 14182 14174 12260 12267 14180 14173 14176 14183 12271 14184 13958 14185 14186 
1636 1637 1934 1933 1669 1670 1967 1966 12049 13961 13962 13954 12276 14188 14189 14181 12267 12274 14187 14180 14183 14190 12278 14191 13965 14192 14193 
1637 1638 1935 1934 1670 1671 1968 1967 12056 13968 13969 13961 12283 14195 14196 14188 12274 12281 14194 14187 14190 14197 12285 14198 13972 14199 14200 
1638 1639 1936 1935 1671 1672 1969 1968 12063 13975 13976 13968 12290 14202 14203 14195 12281 12288 14201 14194 14197 14204 12292 14205 13979 14206 14207 
1639 1640 1937 1936 1672 1673 1970 1969 12070 13982 13983 13975 12297 14209 14210 14202 12288 12295 14208 14201 14204 14211 12299 14212 13986 14213 14214 
1640 1641 1938 1937 1673 1674 1971 1970 12077 13989 13990 13982 12304 14216 14217 14209 12295 12302 14215 14208 14211 14218 12306 14219 13993 14220 14221 
1641 1642 1939 1938 1674 1675 1972 1971 12084 13996 13997 13989 12311 14223 14224 14216 12302 12309 14222 14215 14218 14225 12313 14226 14000 14227 14228 
1642 1643 1940 1939 1675 1676 1973 1972 12091 14003 14004 13996 12318 14230 14231 14223 12309 12316 14229 14222 14225 14232 12320 14233 14007 14234 14235 
1643 1644 1941 1940 1676 1677 1974 1973 12098 14010 14011 14003 12325 14237 14238 14230 12316 12323 14236 14229 14232 14239 12327 14240 14014 14241 14242 
1644 1645 1942 1941 1677 1678 1975 1974 12105 14017 14018 14010 12332 14244 14245 14237 12323 12330 14243 14236 14239 14246 12334 14247 14021 14248 14249 
1645 1646 1943 1942 1678 1679 1976 1975 12112 14024 14025 14017 12339 14251 14252 14244 12330 12337 14250 14243 14246 14253 12341 14254 14028 14255 14256 
1646 1647 1944 1943 1679 1680 1977 1976 12119 14031 14032 14024 12346 14258 14259 14251 12337 12344 14257 14250 14253 14260 12348 14261 14035 14262 14263 
1647 1648 1945 1944 1680 1681 1978 1977 12126 14038 14039 14031 12353 14265 14266 14258 12344 12351 14264 14257 14260 14267 12355 14268 14042 14269 14270 
1648 1649 1946 1945 1681 1682 1979 1978 12133 14045 14046 14038 12360 14272 14273 14265 12351 12358 14271 14264 14267 14274 12362 14275 14049 14276 14277 
1650 1651 1948 1947 1683 1684 1981 1980 12141 14053 14054 14055 12368 14280 14281 14282 12366 12365 14278 14279 14285 14283 12371 14284 14059 14286 14287 
1651 1652 1949 1948 1684 1685 1982 1981 12150 14062 14063 14053 12377 14289 14290 14280 12365 12375 14288 14278 14283 14291 12379 14292 14066 14293 14294 
1652 1653 1950 1949 1685 1686 1983 1982 12157 14069 14070 14062 12384 14296 14297 14289 12375 12382 14295 14288 14291 14298 12386 14299 14073 14300 14301 
1653 1654 1951 1950 1686 1687 1984 1983 12164 14076 14077 14069 12391 14303 14304 14296 12382 12389 14302 14295 14298 14305 12393 14306 14080 14307 14308 
1654 1655 1952 1951 1687 1688 1985 1984 12171 14083 14084 14076 12398 14310 14311 14303 12389 12396 14309 14302 14305 14312 12400 14313 14087 14314 14315 
1655 1656 1953 1952 1688 1689 1986 1985 12178 14090 14091 14083 12405 14317 14318 14310 12396 12403 14316 14309 14312 14319 12407 14320 14094 14321 14322 
1656 1657 1954 1953 1689 1690 1987 1986 12185 14097 14098 14090 12412 14324 14325 14317 12403 12410 14323 14316 14319 14326 12414 14327 14101 14328 14329 
1657 1658 1955 1954 1690 1691 1988 1987 12192 14104 14105 14097 12419 14331 14332 14324 12410 12417 14330 14323 14326 14333 12421 14334 14108 14335 14336 
1658 1659 1956 1955 1691 1692 1989 1988 12199 14111 14112 14104 12426 14338 14339 14331 12417 12424 14337 14330 14333 14340 12428 14341 14115 14342 14343 
1659 1660 1957 1956 1692 1693 1990 1989 12206 14118 14119 14111 12433 14345 14346 14338 12424 12431 14344 14337 14340 14347 12435 14348 14122 14349 14350 
1660 1661 1958 1957 1693 1694 1991 1990 12213 14125 14126 14118 12440 14352 14353 14345 12431 12438 14351 14344 14347 14354 12442 14355 14129 14356 14357 
1661 1662 1959 1958 1694 1695 1992 1991 12220 14132 14133 14125 12447 14359 14360 14352 12438 12445 14358 14351 14354 14361 12449 14362 14136 14363 14364 
1662 1663 1960 1959 1695 1696 1993 1992 12227 14139 14140 14132 12454 14366 14367 14359 12445 12452 14365 14358 14361 14368 12456 14369 14143 14370 14371 
1663 1664 1961 1960 1696 1697 1994 1993 12234 14146 14147 14139 12461 14373 14374 14366 12452 12459 14372 14365 14368 14375 12463 14376 14150 14377 14378 
1664 1665 1962 1961 1697 1698 1995 1994 12241 14153 14154 14146 12468 14380 14381 14373 12459 12466 14379 14372 14375 14382 12470 14383 14157 14384 14385 
1665 1666 1963 1962 1698 1699 1996 1995 12248 14160 14161 14153 12475 14387 14388 14380 12466 12473 14386 14379 14382 14389 12477 14390 14164 14391 14392 
1666 1667 1964 1963 1699 1700 1997 1996 12255 14167 14168 14160 12482 14394 14395 14387 12473 12480 14393 14386 14389 14396 12484 14397 14171 14398 14399 
1667 1668 1965 1964 1700 1701 1998 1997 12262 14174 14175 14167 12489 14401 14402 14394 12480 12487 14400 14393 14396 14403 12491 14404 14178 14405 14406 
1668 1669 1966 1965 1701 1702 1999 1998 12269 14181 14182 14174 12496 14408 14409 14401 12487 12494 14407 14400 14403 14410 12498 14411 14185 14412 14413 
1669 1670 1967 1966 1702 1703 2000 1999 12276 14188 14189 14181 12503 14415 14416 14408 12494 12501 14414 14407 14410 14417 12505 14418 14192 14419 14420 
1670 1671 1968 1967 1703 1704 2001 2000 12283 14195 14196 14188 12510 14422 14423 14415 12501 12508 14421 14414 14417 14424 12512 14425 14199 14426 14427 
1671 1672 1969 1968 1704 1705 2002 2001 12290 14202 14203 14195 12517 14429 14430 14422 12508 12515 14428 14421 14424 14431 12519 14432 14206 14433 14434 
1672 1673 1970 1969 1705 1706 2003 2002 12297 14209 14210 14202 12524 14436 14437 14429 12515 12522 14435 14428 14431 14438 12526 14439 14213 14440 14441 
1673 1674 1971 1970 1706 1707 2004 2003 12304 14216 14217 14209 12531 14443 14444 14436 12522 12529 14442 14435 14438 14445 12533 14446 14220 14447 14448 
1674 1675 1972 1971 1707 1708 2005 2004 12311 14223 14224 14216 12538 14450 14451 14443 12529 12536 14449 14442 14445 14452 12540 14453 14227 14454 14455 
1675 1676 1973 1972 1708 1709 2006 2005 12318 14230 14231 14223 12545 14457 14458 14450 12536 12543 14456 14449 14452 14459 12547 14460 14234 14461 14462 
1676 1677 1974 1973 1709 1710 2007 2006 12325 14237 14238 14230 12552 14464 14465 14457 12543 12550 14463 14456 14459 14466 12554 14467 14241 14468 14469 
1677 1678 1975 1974 1710 1711 2008 2007 12332 14244 14245 14237 12559 14471 14472 14464 12550 12557 14470 14463 14466 14473 12561 14474 14248 14475 14476 
1678 1679 1976 1975 1711 1712 2009 2008 12339 14251 14252 14244 12566 14478 14479 14471 12557 12564 14477 14470 14473 14480 12568 14481 14255 14482 14483 
1679 1680 1977 1976 1712 1713 2010 2009 12346 14258 14259 14251 12573 14485 14486 14478 12564 12571 14484 14477 14480 14487 12575 14488 14262 14489 14490 
1680 1681 1978 1977 1713 1714 2011 2010 12353 14265 14266 14258 12580 14492 14493 14485 12571 12578 14491 14484 14487 14494 12582 14495 14269 14496 14497 
1681 1682 1979 1978 1714 1715 2012 2011 12360 14272 14273 14265 12587 14499 14500 14492 12578 12585 14498 14491 14494 14501 12589 14502 14276 14503 14504 
1683 1684 1981 1980 1716 1717 2014 2013 12368 14280 14281 14282 12595 14507 14508 14509 12593 12592 14505 14506 14512 14510 12598 14511 14286 14513 14514 
1684 1685 1982 1981 1717 1718 2015 2014 12377 14289 14290 14280 12604 14516 14517 14507 12592 12602 14515 14505 14510 14518 12606 14519 14293 14520 14521 
1685 1686 1983 1982 1718 1719 2016 2015 12384 14296 14297 14289 12611 14523 14524 14516 12602 12609 14522 14515 14518 14525 12613 14526 14300 14527 14528 
1686 1687 1984 1983 1719 1720 2017 2016 12391 14303 14304 14296 12618 14530 14531 14523 12609 12616 14529 14522 14525 14532 12620 14533 14307 14534 14535 
1687 1688 1985 1984 1720 1721 2018 2017 12398 14310 14311 14303 12625 14537 14538 14530 12616 12623 14536 14529 14532 14539 12627 14540 14314 14541 14542 
1688 1689 1986 1985 1721 1722 2019 2018 12405 14317 14318 14310 12632 14544 14545 14537 12623 12630 14543 14536 14539 14546 12634 14547 14321 14548 14549 
1689 1690 1987 1986 1722 1723 2020 2019 12412 14324 14325 14317 12639 14551 14552 14544 12630 12637 14550 14543 14546 14553 12641 14554 14328 14555 14556 
1690 1691 1988 1987 1723 1724 2021 2020 12419 14331 14332 14324 12646 14558 14559 14551 12637 12644 14557 14550 14553 14560 12648 14561 14335 14562 14563 
1691 1692 1989 1988 1724 1725 2022 2021 12426 14338 14339 14331 12653 14565 14566 14558 12644 12651 14564 14557 14560 14567 12655 14568 14342 14569 14570 
1692 1693 1990 1989 1725 1726 2023 2022 12433 14345 14346 14338 12660 14572 14573 14565 12651 12658 14571 14564 14567 14574 12662 14575 14349 14576 14577 
1693 1694 1991 1990 1726 1727 2024 2023 12440 14352 14353 14345 12667 14579 14580 14572 12658 12665 14578 14571 14574 14581 12669 14582 14356 14583 14584 
1694 1695 1992 1991 1727 1728 2025 2024 12447 14359 14360 14352 12674 14586 14587 14579 12665 12672 14585 14578 14581 14588 12676 14589 14363 14590 14591 
1695 1696 1993 1992 1728 1729 2026 2025 12454 14366 14367 14359 12681 14593 14594 14586 12672 12679 14592 14585 14588 14595 12683 14596 14370 14597 14598 
1696 1697 1994 1993 1729 1730 2027 2026 12461 14373 14374 14366 12688 14600 14601 14593 12679 12686 14599 14592 14595 14602 12690 14603 14377 14604 14605 
1697 1698 1995 1994 1730 1731 2028 2027 12468 14380 14381 14373 12695 14607 14608 14600 12686 12693 14606 14599 14602 14609 12697 14610 14384 14611 14612 
1698 1699 1996 1995 1731 1732 2029 2028 12475 14387 14388 14380 12702 14614 14615 14607 12693 12700 14613 14606 14609 14616 12704 14617 14391 14618 14619 
1699 1700 1997 1996 1732 1733 2030 2029 12482 14394 14395 14387 12709 14621 14622 14614 12700 12707 14620 14613 14616 14623 12711 14624 14398 14625 14626 
1700 1701 1998 1997 1733 1734 2031 2030 12489 14401 14402 14394 12716 14628 14629 14621 12707 12714 14627 14620 14623 14630 12718 14631 14405 14632 14633 
1701 1702 1999 1998 1734 1735 2032 2031 12496 14408 14409 14401 12723 14635 14636 14628 12714 12721 14634 14627 14630 14637 12725 14638 14412 14639 14640 
1702 1703 2000 1999 1735 1736 2033 2032 12503 14415 14416 14408 12730 14642 14643 14635 12721 12728 14641 14634 14637 14644 12732 14645 14419 14646 14647 
1703 1704 2001 2000 1736 1737 2034 2033 12510 14422 14423 14415 12737 14649 14650 14642 12728 12735 14648 14641 14644 14651 12739 14652 14426 14653 14654 
1704 1705 2002 2001 1737 1738 2035 2034 12517 14429 14430 14422 12744 14656 14657 14649 12735 12742 14655 14648 14651 14658 12746 14659 14433 14660 14661 
1705 1706 2003 2002 1738 1739 2036 2035 12524 14436 14437 14429 12751 14663 14664 14656 12742 12749 14662 14655 14658 14665 12753 14666 14440 14667 14668 
1706 1707 2004 2003 1739 1740 2037 2036 12531 14443 14444 14436 12758 14670 14671 14663 12749 12756 14669 14662 14665 14672 12760 14673 14447 14674 14675 
1707 1708 2005 2004 1740 1741 2038 2037 12538 14450 14451 14443 12765 14677 14678 14670 12756 12763 14676 14669 14672 14679 12767 14680 14454 14681 14682 
1708 1709 2006 2005 1741 1742 2039 2038 12545 14457 14458 14450 12772 14684 14685 14677 12763 12770 14683 14676 14679 14686 12774 14687 14461 14688 14689 
1709 1710 2007 2006 1742 1743 2040 2039 12552 14464 14465 14457 12779 14691 14692 14684 12770 12777 14690 14683 14686 14693 12781 14694 14468 14695 14696 
1710 1711 2008 2007 1743 1744 2041 2040 12559 14471 14472 14464 12786 14698 14699 14691 12777 12784 14697 14690 14693 14700 12788 14701 14475 14702 14703 
1711 1712 2009 2008 1744 1745 2042 2041 12566 14478 14479 14471 12793 14705 14706 14698 12784 12791 14704 14697 14700 14707 12795 14708 14482 14709 14710 
1712 1713 2010 2009 1745 1746 2043 2042 12573 14485 14486 14478 12800 14712 14713 14705 12791 12798 14711 14704 14707 14714 12802 14715 14489 14716 14717 
1713 1714 2011 2010 1746 1747 2044 2043 12580 14492 14493 14485 12807 14719 14720 14712 12798 12805 14718 14711 14714 14721 12809 14722 14496 14723 14724 
1714 1715 2012 2011 1747 1748 2045 2044 12587 14499 14500 14492 12814 14726 14727 14719 12805 12812 14725 14718 14721 14728 12816 14729 14503 14730 14731 
1716 1717 2014 2013 1749 1750 2047 2046 12595 14507 14508 14509 12822 14734 14735 14736 12820 12819 14732 14733 14739 14737 12825 14738 14513 14740 14741 
1717 1718 2015 2014 1750 1751 2048 2047 12604 14516 14517 14507 12831 14743 14744 14734 12819 12829 14742 14732 14737 14745 12833 14746 14520 14747 14748 
1718 1719 2016 2015 1751 1752 2049 2048 12611 14523 14524 14516 12838 14750 14751 14743 12829 12836 14749 14742 14745 14752 12840 14753 14527 14754 14755 
1719 1720 2017 2016 1752 1753 2050 2049 12618 14530 14531 14523 12845 14757 14758 14750 12836 12843 14756 14749 14752 14759 12847 14760 14534 14761 14762 
1720 1721 2018 2017 1753 1754 2051 2050 12625 14537 14538 14530 12852 14764 14765 14757 12843 12850 14763 14756 14759 14766 12854 14767 14541 14768 14769 
1721 1722 2019 2018 1754 1755 2052 2051 12632 14544 14545 14537 12859 14771 14772 14764 12850 12857 14770 14763 14766 14773 12861 14774 14548 14775 14776 
1722 1723 2020 2019 1755 1756 2053 2052 12639 14551 14552 14544 12866 14778 14779 14771 12857 12864 14777 14770 14773 14780 12868 14781 14555 14782 14783 
1723 1724 2021 2020 1756 1757 2054 2053 12646 14558 14559 14551 12873 14785 14786 14778 12864 12871 14784 14777 14780 14787 12875 14788 14562 14789 14790 
1724 1725 2022 2021 1757 1758 2055 2054 12653 14565 14566 14558 12880 14792 14793 14785 12871 12878 14791 14784 14787 14794 12882 14795 14569 14796 14797 
1725 1726 2023 2022 1758 1759 2056 2055 12660 14572 14573 14565 12887 14799 14800 14792 12878 12885 14798 14791 14794 14801 12889 14802 14576 14803 14804 
1726 1727 2024 2023 1759 1760 2057 2056 12667 14579 14580 14572 12894 14806 14807 14799 12885 12892 14805 14798 14801 14808 12896 14809 14583 14810 14811 
1727 1728 2025 2024 1760 1761 2058 2057 12674 14586 14587 14579 12901 14813 14814 14806 12892 12899 14812 14805 14808 14815 12903 14816 14590 14817 14818 
1728 1729 2026 2025 1761 1762 2059 2058 12681 14593 14594 14586 12908 14820 14821 14813 12899 12906 14819 14812 14815 14822 12910 14823 14597 14824 14825 
1729 1730 2027 2026 1762 1763 2060 2059 12688 14600 14601 14593 12915 14827 14828 14820 12906 12913 14826 14819 14822 14829 12917 14830 14604 14831 14832 
1730 1731 2028 2027 1763 1764 2061 2060 12695 14607 14608 14600 12922 14834 14835 14827 12913 12920 14833 14826 14829 14836 12924 14837 14611 14838 14839 
1731 1732 2029 2028 1764 1765 2062 2061 12702 14614 14615 14607 12929 14841 14842 14834 12920 12927 14840 14833 14836 14843 12931 14844 14618 14845 14846 
1732 1733 2030 2029 1765 1766 2063 2062 12709 14621 14622 14614 12936 14848 14849 14841 12927 12934 14847 14840 14843 14850 12938 14851 14625 14852 14853 
1733 1734 2031 2030 1766 1767 2064 2063 12716 14628 14629 14621 12943 14855 14856 14848 12934 12941 14854 14847 14850 14857 12945 14858 14632 14859 14860 
1734 1735 2032 2031 1767 1768 2065 2064 12723 14635 14636 14628 12950 14862 14863 14855 12941 12948 14861 14854 14857 14864 12952 14865 14639 14866 14867 
1735 1736 2033 2032 1768 1769 2066 2065 12730 14642 14643 14635 12957 14869 14870 14862 12948 12955 14868 14861 14864 14871 12959 14872 14646 14873 14874 
1736 1737 2034 2033 1769 1770 2067 2066 12737 14649 14650 14642 12964 14876 14877 14869 12955 12962 14875 14868 14871 14878 12966 14879 14653 14880 14881 
1737 1738 2035 2034 1770 1771 2068 2067 12744 14656 14657 14649 12971 14883 14884 14876 12962 12969 14882 14875 14878 14885 12973 14886 14660 14887 14888 
1738 1739 2036 2035 1771 1772 2069 2068 12751 14663 14664 14656 12978 14890 14891 14883 12969 12976 14889 14882 14885 14892 12980 14893 14667 14894 14895 
1739 1740 2037 2036 1772 1773 2070 2069 12758 14670 14671 14663 12985 14897 14898 14890 12976 12983 14896 14889 14892 14899 12987 14900 14674 14901 14902 
1740 1741 2038 2037 1773 1774 2071 2070 12765 14677 14678 14670 12992 14904 14905 14897 12983 12990 14903 14896 14899 14906 12994 14907 14681 14908 14909 
1741 1742 2039 2038 1774 1775 2072 2071 12772 14684 14685 14677 12999 14911 14912 14904 12990 12997 14910 14903 14906 14913 13001 14914 14688 14915 14916 
1742 1743 2040 2039 1775 1776 2073 2072 12779 14691 14692 14684 13006 14918 14919 14911 12997 13004 14917 14910 14913 14920 13008 14921 14695 14922 14923 
1743 1744 2041 2040 1776 1777 2074 2073 12786 14698 14699 14691 13013 14925 14926 14918 13004 13011 14924 14917 14920 14927 13015 14928 14702 14929 14930 
1744 1745 2042 2041 1777 1778 2075 2074 12793 14705 14706 14698 13020 14932 14933 14925 13011 13018 14931 14924 14927 14934 13022 14935 14709 14936 14937 
1745 1746 2043 2042 1778 1779 2076 2075 12800 14712 14713 14705 13027 14939 14940 14932 13018 13025 14938 14931 14934 14941 13029 14942 14716 14943 14944 
1746 1747 2044 2043 1779 1780 2077 2076 12807 14719 14720 14712 13034 14946 14947 14939 13025 13032 14945 14938 14941 14948 13036 14949 14723 14950 14951 
1747 1748 2045 2044 1780 1781 2078 2077 12814 14726 14727 14719 13041 14953 14954 14946 13032 13039 14952 14945 14948 14955 13043 14956 14730 14957 14958 
1782 1783 2080 2079 1815 1816 2113 2112 13047 14959 14960 14961 13052 14964 14965 14966 13050 13049 14962 14963 14970 14968 13056 14969 14967 14971 14972 
1783 1784 2081 2080 1816 1817 2114 2113 13061 14973 14974 14959 13064 14976 14977 14964 13049 13062 14975 14962 14968 14979 13067 14980 14978 14981 14982 
1784 1785 2082 2081 1817 1818 2115 2114 13071 14983 14984 14973 13074 14986 14987 14976 13062 13072 14985 14975 14979 14989 13077 14990 14988 14991 14992 
1785 1786 2083 2082 1818 1819 2116 2115 13081 14993 14994 14983 13084 14996 14997 14986 13072 13082 14995 14985 14989 14999 13087 15000 14998 15001 15002 
1786 1787 2084 2083 1819 1820 2117 2116 13091 15003 15004 14993 13094 15006 15007 14996 13082 13092 15005 14995 14999 15009 13097 15010 15008 15011 15012 
1787 1788 2085 2084 1820 1821 2118 2117 13101 15013 15014 15003 13104 15016 15017 15006 13092 13102 15015 15005 15009 15019 13107 15020 15018 15021 15022 
1788 1789 2086 2085 1821 1822 2119 2118 13111 15023 15024 15013 13114 15026 15027 15016 13102 13112 15025 15015 15019 15029 13117 15030 15028 15031 15032 
1789 1790 2087 2086 1822 1823 2120 2119 13121 15033 15034 15023 13124 15036 15037 15026 13112 13122 15035 15025 15029 15039 13127 15040 15038 15041 15042 
1790 1791 2088 2087 1823 1824 2121 2120 13131 15043 15044 15033 13134 15046 15047 15036 13122 13132 15045 15035 15039 15049 13137 15050 15048 15051 15052 
1791 1792 2089 2088 1824 1825 2122 2121 13141 15053 15054 15043 13144 15056 15057 15046 13132 13142 15055 15045 15049 15059 13147 15060 15058 15061 15062 
1792 1793 2090 2089 1825 1826 2123 2122 13151 15063 15064 15053 13154 15066 15067 15056 13142 13152 15065 15055 15059 15069 13157 15070 15068 15071 15072 
1793 1794 2091 2090 1826 1827 2124 2123 13161 15073 15074 15063 13164 15076 15077 15066 13152 13162 15075 15065 15069 15079 13167 15080 15078 15081 15082 
1794 1795 2092 2091 1827 1828 2125 2124 13171 15083 15084 15073 13174 15086 15087 15076 13162 13172 15085 15075 15079 15089 13177 15090 15088 15091 15092 
1795 1796 2093 2092 1828 1829 2126 2125 13181 15093 15094 15083 13184 15096 15097 15086 13172 13182 15095 15085 15089 15099 13187 15100 15098 15101 15102 
1796 1797 2094 2093 1829 1830 2127 2126 13191 15103 15104 15093 13194 15106 15107 15096 13182 13192 15105 15095 15099 15109 13197 15110 15108 15111 15112 
1797 1798 2095 2094 1830 1831 2128 2127 13201 15113 15114 15103 13204 15116 15117 15106 13192 13202 15115 15105 15109 15119 13207 15120 15118 15121 15122 
1798 1799 2096 2095 1831 1832 2129 2128 13211 15123 15124 15113 13214 15126 15127 15116 13202 13212 15125 15115 15119 15129 13217 15130 15128 15131 15132 
1799 1800 2097 2096 1832 1833 2130 2129 13221 15133 15134 15123 13224 15136 15137 15126 13212 13222 15135 15125 15129 15139 13227 15140 15138 15141 15142 
1800 1801 2098 2097 1833 1834 2131 2130 13231 15143 15144 15133 13234 15146 15147 15136 13222 13232 15145 15135 15139 15149 13237 15150 15148 15151 15152 
1801 1802 2099 2098 1834 1835 2132 2131 13241 15153 15154 15143 13244 15156 15157 15146 13232 13242 15155 15145 15149 15159 13247 15160 15158 15161 15162 
1802 1803 2100 2099 1835 1836 2133 2132 13251 15163 15164 15153 13254 15166 15167 15156 13242 13252 15165 15155 15159 15169 13257 15170 15168 15171 15172 
1803 1804 2101 2100 1836 1837 2134 2133 13261 15173 15174 15163 13264 15176 15177 15166 13252 13262 15175 15165 15169 15179 13267 15180 15178 15181 15182 
1804 1805 2102 2101 1837 1838 2135 2134 13271 15183 15184 15173 13274 15186 15187 15176 13262 13272 15185 15175 15179 15189 13277 15190 15188 15191 15192 
1805 1806 2103 2102 1838 1839 2136 2135 13281 15193 15194 15183 13284 15196 15197 15186 13272 13282 15195 15185 15189 15199 13287 15200 15198 15201 15202 
1806 1807 2104 2103 1839 1840 2137 2136 13291 15203 15204 15193 13294 15206 15207 15196 13282 13292 15205 15195 15199 15209 13297 15210 15208 15211 15212 
1807 1808 2105 2104 1840 1841 2138 2137 13301 15213 15214 15203 13304 15216 15217 15206 13292 13302 15215 15205 15209 15219 13307 15220 15218 15221 15222 
1808 1809 2106 2105 1841 1842 2139 2138 13311 15223 15224 15213 13314 15226 15227 15216 13302 13312 15225 15215 15219 15229 13317 15230 15228 15231 15232 
1809 1810 2107 2106 1842 1843 2140 2139 13321 15233 15234 15223 13324 15236 15237 15226 13312 13322 15235 15225 15229 15239 13327 15240 15238 15241 15242 
1810 1811 2108 2107 1843 1844 2141 2140 13331 15243 15244 15233 13334 15246 15247 15236 13322 13332 15245 15235 15239 15249 13337 15250 15248 15251 15252 
1811 1812 2109 2108 1844 1845 2142 2141 13341 15253 15254 15243 13344 15256 15257 15246 13332 13342 15255 15245 15249 15259 13347 15260 15258 15261 15262 
1812 1813 2110 2109 1845 1846 2143 2142 13351 15263 15264 15253 13354 15266 15267 15256 13342 13352 15265 15255 15259 15269 13357 15270 15268 15271 15272 
1813 1814 2111 2110 1846 1847 2144 2143 13361 15273 15274 15263 13364 15276 15277 15266 13352 13362 15275 15265 15269 15279 13367 15280 15278 15281 15282 
1815 1816 2113 2112 1848 1849 2146 2145 13052 14964 14965 14966 13373 15285 15286 15287 13371 13370 15283 15284 15290 15288 13376 15289 14971 15291 15292 
1816 1817 2114 2113 1849 1850 2147 2146 13064 14976 14977 14964 13382 15294 15295 15285 13370 13380 15293 15283 15288 15296 13384 15297 14981 15298 15299 
1817 1818 2115 2114 1850 1851 2148 2147 13074 14986 14987 14976 13389 15301 15302 15294 13380 13387 15300 15293 15296 15303 13391 15304 14991 15305 15306 
1818 1819 2116 2115 1851 1852 2149 2148 13084 14996 14997 14986 13396 15308 15309 15301 13387 13394 15307 15300 15303 15310 13398 15311 15001 15312 15313 
1819 1820 2117 2116 1852 1853 2150 2149 13094 15006 15007 14996 13403 15315 15316 15308 13394 13401 15314 15307 15310 15317 13405 15318 15011 15319 15320 
1820 1821 2118 2117 1853 1854 2151 2150 13104 15016 15017 15006 13410 15322 15323 15315 13401 13408 15321 15314 15317 15324 13412 15325 15021 15326 15327 
1821 1822 2119 2118 1854 1855 2152 2151 13114 15026 15027 15016 13417 15329 15330 15322 13408 13415 15328 15321 15324 15331 13419 15332 15031 15333 15334 
1822 1823 2120 2119 1855 1856 2153 2152 13124 15036 15037 15026 13424 15336 15337 15329 13415 13422 15335 15328 15331 15338 13426 15339 15041 15340 15341 
1823 1824 2121 2120 1856 1857 2154 2153 13134 15046 15047 15036 13431 15343 15344 15336 13422 13429 15342 15335 15338 15345 13433 15346 15051 15347 15348 
1824 1825 2122 2121 1857 1858 2155 2154 13144 15056 15057 15046 13438 15350 15351 15343 13429 13436 15349 15342 15345 15352 13440 15353 15061 15354 15355 
1825 1826 2123 2122 1858 1859 2156 2155 13154 15066 15067 15056 13445 15357 15358 15350 13436 13443 15356 15349 15352 15359 13447 15360 15071 15361 15362 
1826 1827 2124 2123 1859 1860 2157 2156 13164 15076 15077 15066 13452 15364 15365 15357 13443 13450 15363 15356 15359 15366 13454 15367 15081 15368 15369 
1827 1828 2125 2124 1860 1861 2158 2157 13174 15086 15087 15076 13459 15371 15372 15364 13450 13457 15370 15363 15366 15373 13461 15374 15091 15375 15376 
1828 1829 2126 2125 1861 1862 2159 2158 13184 15096 15097 15086 13466 15378 15379 15371 13457 13464 15377 15370 15373 15380 13468 15381 15101 15382 15383 
1829 1830 2127 2126 1862 1863 2160 2159 13194 15106 15107 15096 13473 15385 15386 15378 13464 13471 15384 15377 15380 15387 13475 15388 15111 15389 15390 
1830 1831 2128 2127 1863 1864 2161 2160 13204 15116 15117 15106 13480 15392 15393 15385 13471 13478 15391 15384 15387 15394 13482 15395 15121 15396 15397 
1831 1832 2129 2128 1864 1865 2162 2161 13214 15126 15127 15116 13487 15399 15400 15392 13478 13485 15398 15391 15394 15401 13489 15402 15131 15403 15404 
1832 1833 2130 2129 1865 1866 2163 2162 13224 15136 15137 15126 13494 15406 15407 15399 13485 13492 15405 15398 15401 15408 13496 15409 15141 15410 15411 
1833 1834 2131 2130 1866 1867 2164 2163 13234 15146 15147 15136 13501 15413 15414 15406 13492 13499 15412 15405 15408 15415 13503 15416 15151 15417 15418 
1834 1835 2132 2131 1867 1868 2165 2164 13244 15156 15157 15146 13508 15420 15421 15413 13499 13506 15419 15412 15415 15422 13510 15423 15161 15424 15425 
1835 1836 2133 2132 1868 1869 2166 2165 13254 15166 15167 15156 13515 15427 15428 15420 13506 13513 15426 15419 15422 15429 13517 15430 15171 15431 15432 
1836 1837 2134 2133 1869 1870 2167 2166 13264 15176 15177 15166 13522 15434 15435 15427 13513 13520 15433 15426 15429 15436 13524 15437 15181 15438 15439 
1837 1838 2135 2134 1870 1871 2168 2167 13274 15186 15187 15176 13529 15441 15442 15434 13520 13527 15440 15433 15436 15443 13531 15444 15191 15445 15446 
1838 1839 2136 2135 1871 1872 2169 2168 13284 15196 15197 15186 13536 15448 15449 15441 13527 13534 15447 15440 15443 15450 13538 15451 15201 15452 15453 
1839 1840 2137 2136 1872 1873 2170 2169 13294 15206 15207 15196 13543 15455 15456 15448 13534 13541 15454 15447 15450 15457 13545 15458 15211 15459 15460 
1840 1841 2138 2137 1873 1874 2171 2170 13304 15216 15217 15206 13550 15462 15463 15455 13541 13548 15461 15454 15457 15464 13552 15465 15221 15466 15467 
1841 1842 2139 2138 1874 1875 2172 2171 13314 15226 15227 15216 13557 15469 15470 15462 13548 13555 15468 15461 15464 15471 13559 15472 15231 15473 15474 
1842 1843 2140 2139 1875 1876 2173 2172 13324 15236 15237 15226 13564 15476 15477 15469 13555 13562 15475 15468 15471 15478 13566 15479 15241 15480 15481 
1843 1844 2141 2140 1876 1877 2174 2173 13334 15246 15247 15236 13571 15483 15484 15476 13562 13569 15482 15475 15478 15485 13573 15486 15251 15487 15488 
1844 1845 2142 2141 1877 1878 2175 2174 13344 15256 15257 15246 13578 15490 15491 15483 13569 13576 15489 15482 15485 15492 13580 15493 15261 15494 15495 
1845 1846 2143 2142 1878 1879 2176 2175 13354 15266 15267 15256 13585 15497 15498 15490 13576 13583 15496 15489 15492 15499 13587 15500 15271 15501 15502 
1846 1847 2144 2143 1879 1880 2177 2176 13364 15276 15277 15266 13592 15504 15505 15497 13583 13590 15503 15496 15499 15506 13594 15507 15281 15508 15509 
1848 1849 2146 2145 1881 1882 2179 2178 13373 15285 15286 15287 13600 15512 15513 15514 13598 13597 15510 15511 15517 15515 13603 15516 15291 15518 15519 
1849 1850 2147 2146 1882 1883 2180 2179 13382 15294 15295 15285 13609 15521 15522 15512 13597 13607 15520 15510 15515 15523 13611 15524 15298 15525 15526 
1850 1851 2148 2147 1883 1884 2181 2180 13389 15301 15302 15294 13616 15528 15529 15521 13607 13614 15527 15520 15523 15530 13618 15531 15305 15532 15533 
1851 1852 2149 2148 1884 1885 2182 2181 13396 15308 15309 15301 13623 15535 15536 15528 13614 13621 15534 15527 15530 15537 13625 15538 15312 15539 15540 
1852 1853 2150 2149 1885 1886 2183 2182 13403 15315 15316 15308 13630 15542 15543 15535 13621 13628 15541 15534 15537 15544 13632 15545 15319 15546 15547 
1853 1854 2151 2150 1886 1887 2184 2183 13410 15322 15323 15315 13637 15549 15550 15542 13628 13635 15548 15541 15544 15551 13639 15552 15326 15553 15554 
1854 1855 2152 2151 1887 1888 2185 2184 13417 15329 15330 15322 13644 15556 15557 15549 13635 13642 15555 15548 15551 15558 13646 15559 15333 15560 15561 
1855 1856 2153 2152 1888 1889 2186 2185 13424 15336 15337 15329 13651 15563 15564 15556 13642 13649 15562 15555 15558 15565 13653 15566 15340 15567 15568 
1856 1857 2154 2153 1889 1890 2187 2186 13431 15343 15344 15336 13658 15570 15571 15563 13649 13656 15569 15562 15565 15572 13660 15573 15347 15574 15575 
1857 1858 2155 2154 1890 1891 2188 2187 13438 15350 15351 15343 13665 15577 15578 15570 13656 13663 15576 15569 15572 15579 13667 15580 15354 15581 15582 
1858 1859 2156 2155 1891 1892 2189 2188 13445 15357 15358 15350 13672 15584 15585 15577 13663 13670 15583 15576 15579 15586 13674 15587 15361 15588 15589 
1859 1860 2157 2156 1892 1893 2190 2189 13452 15364 15365 15357 13679 15591 15592 15584 13670 13677 15590 15583 15586 15593 13681 15594 15368 15595 15596 
1860 1861 2158 2157 1893 1894 2191 2190 13459 15371 15372 15364 13686 15598 15599 15591 13677 13684 15597 15590 15593 15600 13688 15601 15375 15602 15603 
1861 1862 2159 2158 1894 1895 2192 2191 13466 15378 15379 15371 13693 15605 15606 15598 13684 13691 15604 15597 15600 15607 13695 15608 15382 15609 15610 
1862 1863 2160 2159 1895 1896 2193 2192 13473 15385 15386 15378 13700 15612 15613 15605 13691 13698 15611 15604 15607 15614 13702 15615 15389 15616 15617 
1863 1864 2161 2160 1896 1897 2194 2193 13480 15392 15393 15385 13707 15619 15620 15612 13698 13705 15618 15611 15614 15621 13709 15622 15396 15623 15624 
1864 1865 2162 2161 1897 1898 2195 2194 13487 15399 15400 15392 13714 15626 15627 15619 13705 13712 15625 15618 15621 15628 13716 15629 15403 15630 15631 
1865 1866 2163 2162 1898 1899 2196 2195 13494 15406 15407 15399 13721 15633 15634 15626 13712 13719 15632 15625 15628 15635 13723 15636 15410 15637 15638 
1866 1867 2164 2163 1899 1900 2197 2196 13501 15413 15414 15406 13728 15640 15641 15633 13719 13726 15639 15632 15635 15642 13730 15643 15417 15644 15645 
1867 1868 2165 2164 1900 1901 2198 2197 13508 15420 15421 15413 13735 15647 15648 15640 13726 13733 15646 15639 15642 15649 13737 15650 15424 15651 15652 
1868 1869 2166 2165 1901 1902 2199 2198 13515 15427 15428 15420 13742 15654 15655 15647 13733 13740 15653 15646 15649 15656 13744 15657 15431 15658 15659 
1869 1870 2167 2166 1902 1903 2200 2199 13522 15434 15435 15427 13749 15661 15662 15654 13740 13747 15660 15653 15656 15663 13751 15664 15438 15665 15666 
1870 1871 2168 2167 1903 1904 2201 2200 13529 15441 15442 15434 13756 15668 15669 15661 13747 13754 15667 15660 15663 15670 13758 15671 15445 15672 15673 
1871 1872 2169 2168 1904 1905 2202 2201 13536 15448 15449 15441 13763 15675 15676 15668 13754 13761 15674 15667 15670 15677 13765 15678 15452 15679 15680 
1872 1873 2170 2169 1905 1906 2203 2202 13543 15455 15456 15448 13770 15682 15683 15675 13761 13768 15681 15674 15677 15684 13772 15685 15459 15686 15687 
1873 1874 2171 2170 1906 1907 2204 2203 13550 15462 15463 15455 13777 15689 15690 15682 13768 13775 15688 15681 15684 15691 13779 15692 15466 15693 15694 
1874 1875 2172 2171 1907 1908 2205 2204 13557 15469 15470 15462 13784 15696 15697 15689 13775 13782 15695 15688 15691 15698 13786 15699 15473 15700 15701 
1875 1876 2173 2172 1908 1909 2206 2205 13564 15476 15477 15469 13791 15703 15704 15696 13782 13789 15702 15695 15698 15705 13793 15706 15480 15707 15708 
1876 1877 2174 2173 1909 1910 2207 2206 13571 15483 15484 15476 13798 15710 15711 15703 13789 13796 15709 15702 15705 15712 13800 15713 15487 15714 15715 
1877 1878 2175 2174 1910 1911 2208 2207 13578 15490 15491 15483 13805 15717 15718 15710 13796 13803 15716 15709 15712 15719 13807 15720 15494 15721 15722 
1878 1879 2176 2175 1911 1912 2209 2208 13585 15497 15498 15490 13812 15724 15725 15717 13803 13810 15723 15716 15719 15726 13814 15727 15501 15728 15729 
1879 1880 2177 2176 1912 1913 2210 2209 13592 15504 15505 15497 13819 15731 15732 15724 13810 13817 15730 15723 15726 15733 13821 15734 15508 15735 15736 
1881 1882 2179 2178 1914 1915 2212 2211 13600 15512 15513 15514 13827 15739 15740 15741 13825 13824 15737 15738 15744 15742 13830 15743 15518 15745 15746 
1882 1883 2180 2179 1915 1916 2213 2212 13609 15521 15522 15512 13836 15748 15749 15739 13824 13834 15747 15737 15742 15750 13838 15751 15525 15752 15753 
1883 1884 2181 2180 1916 1917 2214 2213 13616 15528 15529 15521 13843 15755 15756 15748 13834 13841 15754 15747 15750 15757 13845 15758 15532 15759 15760 
1884 1885 2182 2181 1917 1918 2215 2214 13623 15535 15536 15528 13850 15762 15763 15755 13841 13848 15761 15754 15757 15764 13852 15765 15539 15766 15767 
1885 1886 2183 2182 1918 1919 2216 2215 13630 15542 15543 15535 13857 15769 15770 15762 13848 13855 15768 15761 15764 15771 13859 15772 15546 15773 15774 
1886 1887 2184 2183 1919 1920 2217 2216 13637 15549 15550 15542 13864 15776 15777 15769 13855 13862 15775 15768 15771 15778 13866 15779 15553 15780 15781 
1887 1888 2185 2184 1920 1921 2218 2217 13644 15556 15557 15549 13871 15783 15784 15776 13862 13869 15782 15775 15778 15785 13873 15786 15560 15787 15788 
1888 1889 2186 2185 1921 1922 2219 2218 13651 15563 15564 15556 13878 15790 15791 15783 13869 13876 15789 15782 15785 15792 13880 15793 15567 15794 15795 
1889 1890 2187 2186 1922 1923 2220 2219 13658 15570 15571 15563 13885 15797 15798 15790 13876 13883 15796 15789 15792 15799 13887 15800 15574 15801 15802 
1890 1891 2188 2187 1923 1924 2221 2220 13665 15577 15578 15570 13892 15804 15805 15797 13883 13890 15803 15796 15799 15806 13894 15807 15581 15808 15809 
1891 1892 2189 2188 1924 1925 2222 2221 13672 15584 15585 15577 13899 15811 15812 15804 13890 13897 15810 15803 15806 15813 13901 15814 15588 15815 15816 
1892 1893 2190 2189 1925 1926 2223 2222 13679 15591 15592 15584 13906 15818 15819 15811 13897 13904 15817 15810 15813 15820 13908 15821 15595 15822 15823 
1893 1894 2191 2190 1926 1927 2224 2223 13686 15598 15599 15591 13913 15825 15826 15818 13904 13911 15824 15817 15820 15827 13915 15828 15602 15829 15830 
1894 1895 2192 2191 1927 1928 2225 2224 13693 15605 15606 15598 13920 15832 15833 15825 13911 13918 15831 15824 15827 15834 13922 15835 15609 15836 15837 
1895 1896 2193 2192 1928 1929 2226 2225 13700 15612 15613 15605 13927 15839 15840 15832 13918 13925 15838 15831 15834 15841 13929 15842 15616 15843 15844 
1896 1897 2194 2193 1929 1930 2227 2226 13707 15619 15620 15612 13934 15846 15847 15839 13925 13932 15845 15838 15841 15848 13936 15849 15623 15850 15851 
1897 1898 2195 2194 1930 1931 2228 2227 13714 15626 15627 15619 13941 15853 15854 15846 13932 13939 15852 15845 15848 15855 13943 15856 15630 15857 15858 
1898 1899 2196 2195 1931 1932 2229 2228 13721 15633 15634 15626 13948 15860 15861 15853 13939 13946 15859 15852 15855 15862 13950 15863 15637 15864 15865 
1899 1900 2197 2196 1932 1933 2230 2229 13728 15640 15641 15633 13955 15867 15868 15860 13946 13953 15866 15859 15862 15869 13957 15870 15644 15871 15872 
1900 1901 2198 2197 1933 1934 2231 2230 13735 15647 15648 15640 13962 15874 15875 15867 13953 13960 15873 15866 15869 15876 13964 15877 15651 15878 15879 
1901 1902 2199 2198 1934 1935 2232 2231 13742 15654 15655 15647 13969 15881 15882 15874 13960 13967 15880 15873 15876 15883 13971 15884 15658 15885 15886 
1902 1903 2200 2199 1935 1936 2233 2232 13749 15661 15662 15654 13976 15888 15889 15881 13967 13974 15887 15880 15883 15890 13978 15891 15665 15892 15893 
1903 1904 2201 2200 1936 1937 2234 2233 13756 15668 15669 15661 13983 15895 15896 15888 13974 13981 15894 15887 15890 15897 13985 15898 15672 15899 15900 
1904 1905 2202 2201 1937 1938 2235 2234 13763 15675 15676 15668 13990 15902 15903 15895 13981 13988 15901 15894 15897 15904 13992 15905 15679 15906 15907 
1905 1906 2203 2202 1938 1939 2236 2235 13770 15682 15683 15675 13997 15909 15910 15902 13988 13995 15908 15901 15904 15911 13999 15912 15686 15913 15914 
1906 1907 2204 2203 1939 1940 2237 2236 13777 15689 15690 15682 14004 15916 15917 15909 13995 14002 15915 15908 15911 15918 14006 15919 15693 15920 15921 
1907 1908 2205 2204 1940 1941 2238 2237 13784 15696 15697 15689 14011 15923 15924 15916 14002 14009 15922 15915 15918 15925 14013 15926 15700 15927 15928 
1908 1909 2206 2205 1941 1942 2239 2238 13791 15703 15704 15696 14018 15930 15931 15923 14009 14016 15929 15922 15925 15932 14020 15933 15707 15934 15935 
1909 1910 2207 2206 1942 1943 2240 2239 13798 15710 15711 15703 14025 15937 15938 15930 14016 14023 15936 15929 15932 15939 14027 15940 15714 15941 15942 
1910 1911 2208 2207 1943 1944 2241 2240 13805 15717 15718 15710 14032 15944 15945 15937 14023 14030 15943 15936 15939 15946 14034 15947 15721 15948 15949 
1911 1912 2209 2208 1944 1945 2242 2241 13812 15724 15725 15717 14039 15951 15952 15944 14030 14037 15950 15943 15946 15953 14041 15954 15728 15955 15956 
1912 1913 2210 2209 1945 1946 2243 2242 13819 15731 15732 15724 14046 15958 15959 15951 14037 14044 15957 15950 15953 15960 14048 15961 15735 15962 15963 
1914 1915 2212 2211 1947 1948 2245 2244 13827 15739 15740 15741 14054 15966 15967 15968 14052 14051 15964 15965 15971 15969 14057 15970 15745 15972 15973 
1915 1916 2213 2212 1948 1949 2246 2245 13836 15748 15749 15739 14063 15975 15976 15966 14051 14061 15974 15964 15969 15977 14065 15978 15752 15979 15980 
1916 1917 2214 2213 1949 1950 2247 2246 13843 15755 15756 15748 14070 15982 15983 15975 14061 14068 15981 15974 15977 15984 14072 15985 15759 15986 15987 
1917 1918 2215 2214 1950 1951 2248 2247 13850 15762 15763 15755 14077 15989 15990 15982 14068 14075 15988 15981 15984 15991 14079 15992 15766 15993 15994 
1918 1919 2216 2215 1951 1952 2249 2248 13857 15769 15770 15762 14084 15996 15997 15989 14075 14082 15995 15988 15991 15998 14086 15999 15773 16000 16001 
1919 1920 2217 2216 1952 1953 2250 2249 13864 15776 15777 15769 14091 16003 16004 15996 14082 14089 16002 15995 15998 16005 14093 16006 15780 16007 16008 
1920 1921 2218 2217 1953 1954 2251 2250 13871 15783 15784 15776 14098 16010 16011 16003 14089 14096 16009 16002 16005 16012 14100 16013 15787 16014 16015 
1921 1922 2219 2218 1954 1955 2252 2251 13878 15790 15791 15783 14105 16017 16018 16010 14096 14103 16016 16009 16012 16019 14107 16020 15794 16021 16022 
1922 1923 2220 2219 1955 1956 2253 2252 13885 15797 15798 15790 14112 16024 16025 16017 14103 14110 16023 16016 16019 16026 14114 16027 15801 16028 16029 
1923 1924 2221 2220 1956 1957 2254 2253 13892 15804 15805 15797 14119 16031 16032 16024 14110 14117 16030 16023 16026 16033 14121 16034 15808 16035 16036 
1924 1925 2222 2221 1957 1958 2255 2254 13899 15811 15812 15804 14126 16038 16039 16031 14117 14124 16037 16030 16033 16040 14128 16041 15815 16042 16043 
1925 1926 2223 2222 1958 1959 2256 2255 13906 15818 15819 15811 14133 16045 16046 16038 14124 14131 16044 16037 16040 16047 14135 16048 15822 16049 16050 
1926 1927 2224 2223 1959 1960 2257 2256 13913 15825 15826 15818 14140 16052 16053 16045 14131 14138 16051 16044 16047 16054 14142 16055 15829 16056 16057 
1927 1928 2225 2224 1960 1961 2258 2257 13920 15832 15833 15825 14147 16059 16060 16052 14138 14145 16058 16051 16054 16061 14149 16062 15836 16063 16064 
1928 1929 2226 2225 1961 1962 2259 2258 13927 15839 15840 15832 14154 16066 16067 16059 14145 14152 16065 16058 16061 16068 14156 16069 15843 16070 16071 
1929 1930 2227 2226 1962 1963 2260 2259 13934 15846 15847 15839 14161 16073 16074 16066 14152 14159 16072 16065 16068 16075 14163 16076 15850 16077 16078 
1930 1931 2228 2227 1963 1964 2261 2260 13941 15853 15854 15846 14168 16080 16081 16073 14159 14166 16079 16072 16075 16082 14170 16083 15857 16084 16085 
1931 1932 2229 2228 1964 1965 2262 2261 13948 15860 15861 15853 14175 16087 16088 16080 14166 14173 16086 16079 16082 16089 14177 16090 15864 16091 16092 
1932 1933 2230 2229 1965 1966 2263 2262 13955 15867 15868 15860 14182 16094 16095 16087 14173 14180 16093 16086 16089 16096 14184 16097 15871 16098 16099 
1933 1934 2231 2230 1966 1967 2264 2263 13962 15874 15875 15867 14189 16101 16102 16094 14180 14187 16100 16093 16096 16103 14191 16104 15878 16105 16106 
1934 1935 2232 2231 1967 1968 2265 2264 13969 15881 15882 15874 14196 16108 16109 16101 14187 14194 16107 16100 16103 16110 14198 16111 15885 16112 16113 
1935 1936 2233 2232 1968 1969 2266 2265 13976 15888 15889 15881 14203 16115 16116 16108 14194 14201 16114 16107 16110 16117 14205 16118 15892 16119 16120 
1936 1937 2234 2233 1969 1970 2267 2266 13983 15895 15896 15888 14210 16122 16123 16115 14201 14208 16121 16114 16117 16124 14212 16125 15899 16126 16127 
1937 1938 2235 2234 1970 1971 2268 2267 13990 15902 15903 15895 14217 16129 16130 16122 14208 14215 16128 16121 16124 16131 14219 16132 15906 16133 16134 
1938 1939 2236 2235 1971 1972 2269 2268 13997 15909 15910 15902 14224 16136 16137 16129 14215 14222 16135 16128 16131 16138 14226 16139 15913 16140 16141 
1939 1940 2237 2236 1972 1973 2270 2269 14004 15916 15917 15909 14231 16143 16144 16136 14222 14229 16142 16135 16138 16145 14233 16146 15920 16147 16148 
1940 1941 2238 2237 1973 1974 2271 2270 14011 15923 15924 15916 14238 16150 16151 16143 14229 14236 16149 16142 16145 16152 14240 16153 15927 16154 16155 
1941 1942 2239 2238 1974 1975 2272 2271 14018 15930 15931 15923 14245 16157 16158 16150 14236 14243 16156 16149 16152 16159 14247 16160 15934 16161 16162 
1942 1943 2240 2239 1975 1976 2273 2272 14025 15937 15938 15930 14252 16164 16165 16157 14243 14250 16163 16156 16159 16166 14254 16167 15941 16168 16169 
1943 1944 2241 2240 1976 1977 2274 2273 14032 15944 15945 15937 14259 16171 16172 16164 14250 14257 16170 16163 16166 16173 14261 16174 15948 16175 16176 
1944 1945 2242 2241 1977 1978 2275 2274 14039 15951 15952 15944 14266 16178 16179 16171 14257 14264 16177 16170 16173 16180 14268 16181 15955 16182 16183 
1945 1946 2243 2242 1978 1979 2276 2275 14046 15958 15959 15951 14273 16185 16186 16178 14264 14271 16184 16177 16180 16187 14275 16188 15962 16189 16190 
1947 1948 2245 2244 1980 1981 2278 2277 14054 15966 15967 15968 14281 16193 16194 16195 14279 14278 16191 16192 16198 16196 14284 16197 15972 16199 16200 
1948 1949 2246 2245 1981 1982 2279 2278 14063 15975 15976 15966 14290 16202 16203 16193 14278 14288 16201 16191 16196 16204 14292 16205 15979 16206 16207 
1949 1950 2247 2246 1982 1983 2280 2279 14070 15982 15983 15975 14297 16209 16210 16202 14288 14295 16208 16201 16204 16211 14299 16212 15986 16213 16214 
1950 1951 2248 2247 1983 1984 2281 2280 14077 15989 15990 15982 14304 16216 16217 16209 14295 14302 16215 16208 16211 16218 14306 16219 15993 16220 16221 
1951 1952 2249 2248 1984 1985 2282 2281 14084 15996 15997 15989 14311 16223 16224 16216 14302 14309 16222 16215 16218 16225 14313 16226 16000 16227 16228 
1952 1953 2250 2249 1985 1986 2283 2282 14091 16003 16004 15996 14318 16230 16231 16223 14309 14316 16229 16222 16225 16232 14320 16233 16007 16234 16235 
1953 1954 2251 2250 1986 1987 2284 2283 14098 16010 16011 16003 14325 16237 16238 16230 14316 14323 16236 16229 16232 16239 14327 16240 16014 16241 16242 
1954 1955 2252 2251 1987 1988 2285 2284 14105 16017 16018 16010 14332 16244 16245 16237 14323 14330 16243 16236 16239 16246 14334 16247 16021 16248 16249 
1955 1956 2253 2252 1988 1989 2286 2285 14112 16024 16025 16017 14339 16251 16252 16244 14330 14337 16250 16243 16246 16253 14341 16254 16028 16255 16256 
1956 1957 2254 2253 1989 1990 2287 2286 14119 16031 16032 16024 14346 16258 16259 16251 14337 14344 16257 16250 16253 16260 14348 16261 16035 16262 16263 
1957 1958 2255 2254 1990 1991 2288 2287 14126 16038 16039 16031 14353 16265 16266 16258 14344 14351 16264 16257 16260 16267 14355 16268 16042 16269 16270 
1958 1959 2256 2255 1991 1992 2289 2288 14133 16045 16046 16038 14360 16272 16273 16265 14351 14358 16271 16264 16267 16274 14362 16275 16049 16276 16277 
1959 1960 2257 2256 1992 1993 2290 2289 14140 16052 16053 16045 14367 16279 16280 16272 14358 14365 16278 16271 16274 16281 14369 16282 16056 16283 16284 
1960 1961 2258 2257 1993 1994 2291 2290 14147 16059 16060 16052 14374 16286 16287 16279 14365 14372 16285 16278 16281 16288 14376 16289 16063 16290 16291 
1961 1962 2259 2258 1994 1995 2292 2291 14154 16066 16067 16059 14381 16293 16294 16286 14372 14379 16292 16285 16288 16295 14383 16296 16070 16297 16298 
1962 1963 2260 2259 1995 1996 2293 2292 14161 16073 16074 16066 14388 16300 16301 16293 14379 14386 16299 16292 16295 16302 14390 16303 16077 16304 16305 
1963 1964 2261 2260 1996 1997 2294 2293 14168 16080 16081 16073 14395 16307 16308 16300 14386 14393 16306 16299 16302 16309 14397 16310 16084 16311 16312 
1964 1965 2262 2261 1997 1998 2295 2294 14175 16087 16088 16080 14402 16314 16315 16307 14393 14400 16313 16306 16309 16316 14404 16317 16091 16318 16319 
1965 1966 2263 2262 1998 1999 2296 2295 14182 16094 16095 16087 14409 16321 16322 16314 14400 14407 16320 16313 16316 16323 14411 16324 16098 16325 16326 
1966 1967 2264 2263 1999 2000 2297 2296 14189 16101 16102 16094 14416 16328 16329 16321 14407 14414 16327 16320 16323 16330 14418 16331 16105 16332 16333 
1967 1968 2265 2264 2000 2001 2298 2297 14196 16108 16109 16101 14423 16335 16336 16328 14414 14421 16334 16327 16330 16337 14425 16338 16112 16339 16340 
1968 1969 2266 2265 2001 2002 2299 2298 14203 16115 16116 16108 14430 16342 16343 16335 14421 14428 16341 16334 16337 16344 14432 16345 16119 16346 16347 
1969 1970 2267 2266 2002 2003 2300 2299 14210 16122 16123 16115 14437 16349 16350 16342 14428 14435 16348 16341 16344 16351 14439 16352 16126 16353 16354 
1970 1971 2268 2267 2003 2004 2301 2300 14217 16129 16130 16122 14444 16356 16357 16349 14435 14442 16355 16348 16351 16358 14446 16359 16133 16360 16361 
1971 1972 2269 2268 2004 2005 2302 2301 14224 16136 16137 16129 14451 16363 16364 16356 14442 14449 16362 16355 16358 16365 14453 16366 16140 16367 16368 
1972 1973 2270 2269 2005 2006 2303 2302 14231 16143 16144 16136 14458 16370 16371 16363 14449 14456 16369 16362 16365 16372 14460 16373 16147 16374 16375 
1973 1974 2271 2270 2006 2007 2304 2303 14238 16150 16151 16143 14465 16377 16378 16370 14456 14463 16376 16369 16372 16379 14467 16380 16154 16381 16382 
1974 1975 2272 2271 2007 2008 2305 2304 14245 16157 16158 16150 14472 16384 16385 16377 14463 14470 16383 16376 16379 16386 14474 16387 16161 16388 16389 
1975 1976 2273 2272 2008 2009 2306 2305 14252 16164 16165 16157 14479 16391 16392 16384 14470 14477 16390 16383 16386 16393 14481 16394 16168 16395 16396 
1976 1977 2274 2273 2009 2010 2307 2306 14259 16171 16172 16164 14486 16398 16399 16391 14477 14484 16397 16390 16393 16400 14488 16401 16175 16402 16403 
1977 1978 2275 2274 2010 2011 2308 2307 14266 16178 16179 16171 14493 16405 16406 16398 14484 14491 16404 16397 16400 16407 14495 16408 16182 16409 16410 
1978 1979 2276 2275 2011 2012 2309 2308 14273 16185 16186 16178 14500 16412 16413 16405 14491 14498 16411 16404 16407 16414 14502 16415 16189 16416 16417 
1980 1981 2278 2277 2013 2014 2311 2310 14281 16193 16194 16195 14508 16420 16421 16422 14506 14505 16418 16419 16425 16423 14511 16424 16199 16426 16427 
1981 1982 2279 2278 2014 2015 2312 2311 14290 16202 16203 16193 14517 16429 16430 16420 14505 14515 16428 16418 16423 16431 14519 16432 16206 16433 16434 
1982 1983 2280 2279 2015 2016 2313 2312 14297 16209 16210 16202 14524 16436 16437 16429 14515 14522 16435 16428 16431 16438 14526 16439 16213 16440 16441 
1983 1984 2281 2280 2016 2017 2314 2313 14304 16216 16217 16209 14531 16443 16444 16436 14522 14529 16442 16435 16438 16445 14533 16446 16220 16447 16448 
1984 1985 2282 2281 2017 2018 2315 2314 14311 16223 16224 16216 14538 16450 16451 16443 14529 14536 16449 16442 16445 16452 14540 16453 16227 16454 16455 
1985 1986 2283 2282 2018 2019 2316 2315 14318 16230 16231 16223 14545 16457 16458 16450 14536 14543 16456 16449 16452 16459 14547 16460 16234 16461 16462 
1986 1987 2284 2283 2019 2020 2317 2316 14325 16237 16238 16230 14552 16464 16465 16457 14543 14550 16463 16456 16459 16466 14554 16467 16241 16468 16469 
1987 1988 2285 2284 2020 2021 2318 2317 14332 16244 16245 16237 14559 16471 16472 16464 14550 14557 16470 16463 16466 16473 14561 16474 16248 16475 16476 
1988 1989 2286 2285 2021 2022 2319 2318 14339 16251 16252 16244 14566 16478 16479 16471 14557 14564 16477 16470 16473 16480 14568 16481 16255 16482 16483 
1989 1990 2287 2286 2022 2023 2320 2319 14346 16258 16259 16251 14573 16485 16486 16478 14564 14571 16484 16477 16480 16487 14575 16488 16262 16489 16490 
1990 1991 2288 2287 2023 2024 2321 2320 14353 16265 16266 16258 14580 16492 16493 16485 14571 14578 16491 16484 16487 16494 14582 16495 16269 16496 16497 
1991 1992 2289 2288 2024 2025 2322 2321 14360 16272 16273 16265 14587 16499 16500 16492 14578 14585 16498 16491 16494 16501 14589 16502 16276 16503 16504 
1992 1993 2290 2289 2025 2026 2323 2322 14367 16279 16280 16272 14594 16506 16507 16499 14585 14592 16505 16498 16501 16508 14596 16509 16283 16510 16511 
1993 1994 2291 2290 2026 2027 2324 2323 14374 16286 16287 16279 14601 16513 16514 16506 14592 14599 16512 16505 16508 16515 14603 16516 16290 16517 16518 
1994 1995 2292 2291 2027 2028 2325 2324 14381 16293 16294 16286 14608 16520 16521 16513 14599 14606 16519 16512 16515 16522 14610 16523 16297 16524 16525 
1995 1996 2293 2292 2028 2029 2326 2325 14388 16300 16301 16293 14615 16527 16528 16520 14606 14613 16526 16519 16522 16529 14617 16530 16304 16531 16532 
1996 1997 2294 2293 2029 2030 2327 2326 14395 16307 16308 16300 14622 16534 16535 16527 14613 14620 16533 16526 16529 16536 14624 16537 16311 16538 16539 
1997 1998 2295 2294 2030 2031 2328 2327 14402 16314 16315 16307 14629 16541 16542 16534 14620 14627 16540 16533 16536 16543 14631 16544 16318 16545 16546 
1998 1999 2296 2295 2031 2032 2329 2328 14409 16321 16322 16314 14636 16548 16549 16541 14627 14634 16547 16540 16543 16550 14638 16551 16325 16552 16553 
1999 2000 2297 2296 2032 2033 2330 2329 14416 16328 16329 16321 14643 16555 16556 16548 14634 14641 16554 16547 16550 16557 14645 16558 16332 16559 16560 
2000 2001 2298 2297 2033 2034 2331 2330 14423 16335 16336 16328 14650 16562 16563 16555 14641 14648 16561 16554 16557 16564 14652 16565 16339 16566 16567 
2001 2002 2299 2298 2034 2035 2332 2331 14430 16342 16343 16335 14657 16569 16570 16562 14648 14655 16568 16561 16564 16571 14659 16572 16346 16573 16574 
2002 2003 2300 2299 2035 2036 2333 2332 14437 16349 16350 16342 14664 16576 16577 16569 14655 14662 16575 16568 16571 16578 14666 16579 16353 16580 16581 
2003 2004 2301 2300 2036 2037 2334 2333 14444 16356 16357 16349 14671 16583 16584 16576 14662 14669 16582 16575 16578 16585 14673 16586 16360 16587 16588 
2004 2005 2302 2301 2037 2038 2335 2334 14451 16363 16364 16356 14678 16590 16591 16583 14669 14676 16589 16582 16585 16592 14680 16593 16367 16594 16595 
2005 2006 2303 2302 2038 2039 2336 2335 14458 16370 16371 16363 14685 16597 16598 16590 14676 14683 16596 16589 16592 16599 14687 16600 16374 16601 16602 
2006 2007 2304 2303 2039 2040 2337 2336 14465 16377 16378 16370 14692 16604 16605 16597 14683 14690 16603 16596 16599 16606 14694 16607 16381 16608 16609 
2007 2008 2305 2304 2040 2041 2338 2337 14472 16384 16385 16377 14699 16611 16612 16604 14690 14697 16610 16603 16606 16613 14701 16614 16388 16615 16616 
2008 2009 2306 2305 2041 2042 2339 2338 14479 16391 16392 16384 14706 16618 16619 16611 14697 14704 16617 16610 16613 16620 14708 16621 16395 16622 16623 
2009 2010 2307 2306 2042 2043 2340 2339 14486 16398 16399 16391 14713 16625 16626 16618 14704 14711 16624 16617 16620 16627 14715 16628 16402 16629 16630 
2010 2011 2308 2307 2043 2044 2341 2340 14493 16405 16406 16398 14720 16632 16633 16625 14711 14718 16631 16624 16627 16634 14722 16635 16409 16636 16637 
2011 2012 2309 2308 2044 2045 2342 2341 14500 16412 16413 16405 14727 16639 16640 16632 14718 14725 16638 16631 16634 16641 14729 16642 16416 16643 16644 
2013 2014 2311 2310 2046 2047 2344 2343 14508 16420 16421 16422 14735 16647 16648 16649 14733 14732 16645 16646 16652 16650 14738 16651 16426 16653 16654 
2014 2015 2312 2311 2047 2048 2345 2344 14517 16429 16430 16420 14744 16656 16657 16647 14732 14742 16655 16645 16650 16658 14746 16659 16433 16660 16661 
2015 2016 2313 2312 2048 2049 2346 2345 14524 16436 16437 16429 14751 16663 16664 16656 14742 14749 16662 16655 16658 16665 14753 16666 16440 16667 16668 
2016 2017 2314 2313 2049 2050 2347 2346 14531 16443 16444 16436 14758 16670 16671 16663 14749 14756 16669 16662 16665 16672 14760 16673 16447 16674 16675 
2017 2018 2315 2314 2050 2051 2348 2347 14538 16450 16451 16443 14765 16677 16678 16670 14756 14763 16676 16669 16672 16679 14767 16680 16454 16681 16682 
2018 2019 2316 2315 2051 2052 2349 2348 14545 16457 16458 16450 14772 16684 16685 16677 14763 14770 16683 16676 16679 16686 14774 16687 16461 16688 16689 
2019 2020 2317 2316 2052 2053 2350 2349 14552 16464 16465 16457 14779 16691 16692 16684 14770 14777 16690 16683 16686 16693 14781 16694 16468 16695 16696 
2020 2021 2318 2317 2053 2054 2351 2350 14559 16471 16472 16464 14786 16698 16699 16691 14777 14784 16697 16690 16693 16700 14788 16701 16475 16702 16703 
2021 2022 2319 2318 2054 2055 2352 2351 14566 16478 16479 16471 14793 16705 16706 16698 14784 14791 16704 16697 16700 16707 14795 16708 16482 16709 16710 
2022 2023 2320 2319 2055 2056 2353 2352 14573 16485 16486 16478 14800 16712 16713 16705 14791 14798 16711 16704 16707 16714 14802 16715 16489 16716 16717 
2023 2024 2321 2320 2056 2057 2354 2353 14580 16492 16493 16485 14807 16719 16720 16712 14798 14805 16718 16711 16714 16721 14809 16722 16496 16723 16724 
2024 2025 2322 2321 2057 2058 2355 2354 14587 16499 16500 16492 14814 16726 16727 16719 14805 14812 16725 16718 16721 16728 14816 16729 16503 16730 16731 
2025 2026 2323 2322 2058 2059 2356 2355 14594 16506 16507 16499 14821 16733 16734 16726 14812 14819 16732 16725 16728 16735 14823 16736 16510 16737 16738 
2026 2027 2324 2323 2059 2060 2357 2356 14601 16513 16514 16506 14828 16740 16741 16733 14819 14826 16739 16732 16735 16742 14830 16743 16517 16744 16745 
2027 2028 2325 2324 2060 2061 2358 2357 14608 16520 16521 16513 14835 16747 16748 16740 14826 14833 16746 16739 16742 16749 14837 16750 16524 16751 16752 
2028 2029 2326 2325 2061 2062 2359 2358 14615 16527 16528 16520 14842 16754 16755 16747 14833 14840 16753 16746 16749 16756 14844 16757 16531 16758 16759 
2029 2030 2327 2326 2062 2063 2360 2359 14622 16534 16535 16527 14849 16761 16762 16754 14840 14847 16760 16753 16756 16763 14851 16764 16538 16765 16766 
2030 2031 2328 2327 2063 2064 2361 2360 14629 16541 16542 16534 14856 16768 16769 16761 14847 14854 16767 16760 16763 16770 14858 16771 16545 16772 16773 
2031 2032 2329 2328 2064 2065 2362 2361 14636 16548 16549 16541 14863 16775 16776 16768 14854 14861 16774 16767 16770 16777 14865 16778 16552 16779 16780 
2032 2033 2330 2329 2065 2066 2363 2362 14643 16555 16556 16548 14870 16782 16783 16775 14861 14868 16781 16774 16777 16784 14872 16785 16559 16786 16787 
2033 2034 2331 2330 2066 2067 2364 2363 14650 16562 16563 16555 14877 16789 16790 16782 14868 14875 16788 16781 16784 16791 14879 16792 16566 16793 16794 
2034 2035 2332 2331 2067 2068 2365 2364 14657 16569 16570 16562 14884 16796 16797 16789 14875 14882 16795 16788 16791 16798 14886 16799 16573 16800 16801 
2035 2036 2333 2332 2068 2069 2366 2365 14664 16576 16577 16569 14891 16803 16804 16796 14882 14889 16802 16795 16798 16805 14893 16806 16580 16807 16808 
2036 2037 2334 2333 2069 2070 2367 2366 14671 16583 16584 16576 14898 16810 16811 16803 14889 14896 16809 16802 16805 16812 14900 16813 16587 16814 16815 
2037 2038 2335 2334 2070 2071 2368 2367 14678 16590 16591 16583 14905 16817 16818 16810 14896 14903 16816 16809 16812 16819 14907 16820 16594 16821 16822 
2038 2039 2336 2335 2071 2072 2369 2368 14685 16597 16598 16590 14912 16824 16825 16817 14903 14910 16823 16816 16819 16826 14914 16827 16601 16828 16829 
2039 2040 2337 2336 2072 2073 2370 2369 14692 16604 16605 16597 14919 16831 16832 16824 14910 14917 16830 16823 16826 16833 14921 16834 16608 16835 16836 
2040 2041 2338 2337 2073 2074 2371 2370 14699 16611 16612 16604 14926 16838 16839 16831 14917 14924 16837 16830 16833 16840 14928 16841 16615 16842 16843 
2041 2042 2339 2338 2074 2075 2372 2371 14706 16618 16619 16611 14933 16845 16846 16838 14924 14931 16844 16837 16840 16847 14935 16848 16622 16849 16850 
2042 2043 2340 2339 2075 2076 2373 2372 14713 16625 16626 16618 14940 16852 16853 16845 14931 14938 16851 16844 16847 16854 14942 16855 16629 16856 16857 
2043 2044 2341 2340 2076 2077 2374 2373 14720 16632 16633 16625 14947 16859 16860 16852 14938 14945 16858 16851 16854 16861 14949 16862 16636 16863 16864 
2044 2045 2342 2341 2077 2078 2375 2374 14727 16639 16640 16632 14954 16866 16867 16859 14945 14952 16865 16858 16861 16868 14956 16869 16643 16870 16871 
2079 2080 2377 2376 2112 2113 2410 2409 14960 16872 16873 16874 14965 16877 16878 16879 14963 14962 16875 16876 16883 16881 14969 16882 16880 16884 16885 
2080 2081 2378 2377 2113 2114 2411 2410 14974 16886 16887 16872 14977 16889 16890 16877 14962 14975 16888 16875 16881 16892 14980 16893 16891 16894 16895 
2081 2082 2379 2378 2114 2115 2412 2411 14984 16896 16897 16886 14987 16899 16900 16889 14975 14985 16898 16888 16892 16902 14990 16903 16901 16904 16905 
2082 2083 2380 2379 2115 2116 2413 2412 14994 16906 16907 16896 14997 16909 16910 16899 14985 14995 16908 16898 16902 16912 15000 16913 16911 16914 16915 
2083 2084 2381 2380 2116 2117 2414 2413 15004 16916 16917 16906 15007 16919 16920 16909 14995 15005 16918 16908 16912 16922 15010 16923 16921 16924 16925 
2084 2085 2382 2381 2117 2118 2415 2414 15014 16926 16927 16916 15017 16929 16930 16919 15005 15015 16928 16918 16922 16932 15020 16933 16931 16934 16935 
2085 2086 2383 2382 2118 2119 2416 2415 15024 16936 16937 16926 15027 16939 16940 16929 15015 15025 16938 16928 16932 16942 15030 16943 16941 16944 16945 
2086 2087 2384 2383 2119 2120 2417 2416 15034 16946 16947 16936 15037 16949 16950 16939 15025 15035 16948 16938 16942 16952 15040 16953 16951 16954 16955 
2087 2088 2385 2384 2120 2121 2418 2417 15044 16956 16957 16946 15047 16959 16960 16949 15035 15045 16958 16948 16952 16962 15050 16963 16961 16964 16965 
2088 2089 2386 2385 2121 2122 2419 2418 15054 16966 16967 16956 15057 16969 16970 16959 15045 15055 16968 16958 16962 16972 15060 16973 16971 16974 16975 
2089 2090 2387 2386 2122 2123 2420 2419 15064 16976 16977 16966 15067 16979 16980 16969 15055 15065 16978 16968 16972 16982 15070 16983 16981 16984 16985 
2090 2091 2388 2387 2123 2124 2421 2420 15074 16986 16987 16976 15077 16989 16990 16979 15065 15075 16988 16978 16982 16992 15080 16993 16991 16994 16995 
2091 2092 2389 2388 2124 2125 2422 2421 15084 16996 16997 16986 15087 16999 17000 16989 15075 15085 16998 16988 16992 17002 15090 17003 17001 17004 17005 
2092 2093 2390 2389 2125 2126 2423 2422 15094 17006 17007 16996 15097 17009 17010 16999 15085 15095 17008 16998 17002 17012 15100 17013 17011 17014 17015 
2093 2094 2391 2390 2126 2127 2424 2423 15104 17016 17017 17006 15107 17019 17020 17009 15095 15105 17018 17008 17012 17022 15110 17023 17021 17024 17025 
2094 2095 2392 2391 2127 2128 2425 2424 15114 17026 17027 17016 15117 17029 17030 17019 15105 15115 17028 17018 17022 17032 15120 17033 17031 17034 17035 
2095 2096 2393 2392 2128 2129 2426 2425 15124 17036 17037 17026 15127 17039 17040 17029 15115 15125 17038 17028 17032 17042 15130 17043 17041 17044 17045 
2096 2097 2394 2393 2129 2130 2427 2426 15134 17046 17047 17036 15137 17049 17050 17039 15125 15135 17048 17038 17042 17052 15140 17053 17051 17054 17055 
2097 2098 2395 2394 2130 2131 2428 2427 15144 17056 17057 17046 15147 17059 17060 17049 15135 15145 17058 17048 17052 17062 15150 17063 17061 17064 17065 
2098 2099 2396 2395 2131 2132 2429 2428 15154 17066 17067 17056 15157 17069 17070 17059 15145 15155 17068 17058 17062 17072 15160 17073 17071 17074 17075 
2099 2100 2397 2396 2132 2133 2430 2429 15164 17076 17077 17066 15167 17079 17080 17069 15155 15165 17078 17068 17072 17082 15170 17083 17081 17084 17085 
2100 2101 2398 2397 2133 2134 2431 2430 15174 17086 17087 17076 15177 17089 17090 17079 15165 15175 17088 17078 17082 17092 15180 17093 17091 17094 17095 
2101 2102 2399 2398 2134 2135 2432 2431 15184 17096 17097 17086 15187 17099 17100 17089 15175 15185 17098 17088 17092 17102 15190 17103 17101 17104 17105 
2102 2103 2400 2399 2135 2136 2433 2432 15194 17106 17107 17096 15197 17109 17110 17099 15185 15195 17108 17098 17102 17112 15200 17113 17111 17114 17115 
2103 2104 2401 2400 2136 2137 2434 2433 15204 17116 17117 17106 15207 17119 17120 17109 15195 15205 17118 17108 17112 17122 15210 17123 17121 17124 17125 
2104 2105 2402 2401 2137 2138 2435 2434 15214 17126 17127 17116 15217 17129 17130 17119 15205 15215 17128 17118 17122 17132 15220 17133 17131 17134 17135 
2105 2106 2403 2402 2138 2139 2436 2435 15224 17136 17137 17126 15227 17139 17140 17129 15215 15225 17138 17128 17132 17142 15230 17143 17141 17144 17145 
2106 2107 2404 2403 2139 2140 2437 2436 15234 17146 17147 17136 15237 17149 17150 17139 15225 15235 17148 17138 17142 17152 15240 17153 17151 17154 17155 
2107 2108 2405 2404 2140 2141 2438 2437 15244 17156 17157 17146 15247 17159 17160 17149 15235 15245 17158 17148 17152 17162 15250 17163 17161 17164 17165 
2108 2109 2406 2405 2141 2142 2439 2438 15254 17166 17167 17156 15257 17169 17170 17159 15245 15255 17168 17158 17162 17172 15260 17173 17171 17174 17175 
2109 2110 2407 2406 2142 2143 2440 2439 15264 17176 17177 17166 15267 17179 17180 17169 15255 15265 17178 17168 17172 17182 15270 17183 17181 17184 17185 
2110 2111 2408 2407 2143 2144 2441 2440 15274 17186 17187 17176 15277 17189 17190 17179 15265 15275 17188 17178 17182 17192 15280 17193 17191 17194 17195 
2112 2113 2410 2409 2145 2146 2443 2442 14965 16877 16878 16879 15286 17198 17199 17200 15284 15283 17196 17197 17203 17201 15289 17202 16884 17204 17205 
2113 2114 2411 2410 2146 2147 2444 2443 14977 16889 16890 16877 15295 17207 17208 17198 15283 15293 17206 17196 17201 17209 15297 17210 16894 17211 17212 
2114 2115 2412 2411 2147 2148 2445 2444 14987 16899 16900 16889 15302 17214 17215 17207 15293 15300 17213 17206 17209 17216 15304 17217 16904 17218 17219 
2115 2116 2413 2412 2148 2149 2446 2445 14997 16909 16910 16899 15309 17221 17222 17214 15300 15307 17220 17213 17216 17223 15311 17224 16914 17225 17226 
2116 2117 2414 2413 2149 2150 2447 2446 15007 16919 16920 16909 15316 17228 17229 17221 15307 15314 17227 17220 17223 17230 15318 17231 16924 17232 17233 
2117 2118 2415 2414 2150 2151 2448 2447 15017 16929 16930 16919 15323 17235 17236 17228 15314 15321 17234 17227 17230 17237 15325 17238 16934 17239 17240 
2118 2119 2416 2415 2151 2152 2449 2448 15027 16939 16940 16929 15330 17242 17243 17235 15321 15328 17241 17234 17237 17244 15332 17245 16944 17246 17247 
2119 2120 2417 2416 2152 2153 2450 2449 15037 16949 16950 16939 15337 17249 17250 17242 15328 15335 17248 17241 17244 17251 15339 17252 16954 17253 17254 
2120 2121 2418 2417 2153 2154 2451 2450 15047 16959 16960 16949 15344 17256 17257 17249 15335 15342 17255 17248 17251 17258 15346 17259 16964 17260 17261 
2121 2122 2419 2418 2154 2155 2452 2451 15057 16969 16970 16959 15351 17263 17264 17256 15342 15349 17262 17255 17258 17265 15353 17266 16974 17267 17268 
2122 2123 2420 2419 2155 2156 2453 2452 15067 16979 16980 16969 15358 17270 17271 17263 15349 15356 17269 17262 17265 17272 15360 17273 16984 17274 17275 
2123 2124 2421 2420 2156 2157 2454 2453 15077 16989 16990 16979 15365 17277 17278 17270 15356 15363 17276 17269 17272 17279 15367 17280 16994 17281 17282 
2124 2125 2422 2421 2157 2158 2455 2454 15087 16999 17000 16989 15372 17284 17285 17277 15363 15370 17283 17276 17279 17286 15374 17287 17004 17288 17289 
2125 2126 2423 2422 2158 2159 2456 2455 15097 17009 17010 16999 15379 17291 17292 17284 15370 15377 17290 17283 17286 17293 15381 17294 17014 17295 17296 
2126 2127 2424 2423 2159 2160 2457 2456 15107 17019 17020 17009 15386 17298 17299 17291 15377 15384 17297 17290 17293 17300 15388 17301 17024 17302 17303 
2127 2128 2425 2424 2160 2161 2458 2457 15117 17029 17030 17019 15393 17305 17306 17298 15384 15391 17304 17297 17300 17307 15395 17308 17034 17309 17310 
2128 2129 2426 2425 2161 2162 2459 2458 15127 17039 17040 17029 15400 17312 17313 17305 15391 15398 17311 17304 17307 17314 15402 17315 17044 17316 17317 
2129 2130 2427 2426 2162 2163 2460 2459 15137 17049 17050 17039 15407 17319 17320 17312 15398 15405 17318 17311 17314 17321 15409 17322 17054 17323 17324 
2130 2131 2428 2427 2163 2164 2461 2460 15147 17059 17060 17049 15414 17326 17327 17319 15405 15412 17325 17318 17321 17328 15416 17329 17064 17330 17331 
2131 2132 2429 2428 2164 2165 2462 2461 15157 17069 17070 17059 15421 17333 17334 17326 15412 15419 17332 17325 17328 17335 15423 17336 17074 17337 17338 
2132 2133 2430 2429 2165 2166 2463 2462 15167 17079 17080 17069 15428 17340 17341 17333 15419 15426 17339 17332 17335 17342 15430 17343 17084 17344 17345 
2133 2134 2431 2430 2166 2167 2464 2463 15177 17089 17090 17079 15435 17347 17348 17340 15426 15433 17346 17339 17342 17349 15437 17350 17094 17351 17352 
2134 2135 2432 2431 2167 2168 2465 2464 15187 17099 17100 17089 15442 17354 17355 17347 15433 15440 17353 17346 17349 17356 15444 17357 17104 17358 17359 
2135 2136 2433 2432 2168 2169 2466 2465 15197 17109 17110 17099 15449 17361 17362 17354 15440 15447 17360 17353 17356 17363 15451 17364 17114 17365 17366 
2136 2137 2434 2433 2169 2170 2467 2466 15207 17119 17120 17109 15456 17368 17369 17361 15447 15454 17367 17360 17363 17370 15458 17371 17124 17372 17373 
2137 2138 2435 2434 2170 2171 2468 2467 15217 17129 17130 17119 15463 17375 17376 17368 15454 15461 17374 17367 17370 17377 15465 17378 17134 17379 17380 
2138 2139 2436 2435 2171 2172 2469 2468 15227 17139 17140 17129 15470 17382 17383 17375 15461 15468 17381 17374 17377 17384 15472 17385 17144 17386 17387 
2139 2140 2437 2436 2172 2173 2470 2469 15237 17149 17150 17139 15477 17389 17390 17382 15468 15475 17388 17381 17384 17391 15479 17392 17154 17393 17394 
2140 2141 2438 2437 2173 2174 2471 2470 15247 17159 17160 17149 15484 17396 17397 17389 15475 15482 17395 17388 17391 17398 15486 17399 17164 17400 17401 
2141 2142 2439 2438 2174 2175 2472 2471 15257 17169 17170 17159 15491 17403 17404 17396 15482 15489 17402 17395 17398 17405 15493 17406 17174 17407 17408 
2142 2143 2440 2439 2175 2176 2473 2472 15267 17179 17180 17169 15498 17410 17411 17403 15489 15496 17409 17402 17405 17412 15500 17413 17184 17414 17415 
2143 2144 2441 2440 2176 2177 2474 2473 15277 17189 17190 17179 15505 17417 17418 17410 15496 15503 17416 17409 17412 17419 15507 17420 17194 17421 17422 
2145 2146 2443 2442 2178 2179 2476 2475 15286 17198 17199 17200 15513 17425 17426 17427 15511 15510 17423 17424 17430 17428 15516 17429 17204 17431 17432 
2146 2147 2444 2443 2179 2180 2477 2476 15295 17207 17208 17198 15522 17434 17435 17425 15510 15520 17433 17423 17428 17436 15524 17437 17211 17438 17439 
2147 2148 2445 2444 2180 2181 2478 2477 15302 17214 17215 17207 15529 17441 17442 17434 15520 15527 17440 17433 17436 17443 15531 17444 17218 17445 17446 
2148 2149 2446 2445 2181 2182 2479 2478 15309 17221 17222 17214 15536 17448 17449 17441 15527 15534 17447 17440 17443 17450 15538 17451 17225 17452 17453 
2149 2150 2447 2446 2182 2183 2480 2479 15316 17228 17229 17221 15543 17455 17456 17448 15534 15541 17454 17447 17450 17457 15545 17458 17232 17459 17460 
2150 2151 2448 2447 2183 2184 2481 2480 15323 17235 17236 17228 15550 17462 17463 17455 15541 15548 17461 17454 17457 17464 15552 17465 17239 17466 17467 
2151 2152 2449 2448 2184 2185 2482 2481 15330 17242 17243 17235 15557 17469 17470 17462 15548 15555 17468 17461 17464 17471 15559 17472 17246 17473 17474 
2152 2153 2450 2449 2185 2186 2483 2482 15337 17249 17250 17242 15564 17476 17477 17469 15555 15562 17475 17468 17471 17478 15566 17479 17253 17480 17481 
2153 2154 2451 2450 2186 2187 2484 2483 15344 17256 17257 17249 15571 17483 17484 17476 15562 15569 17482 17475 17478 17485 15573 17486 17260 17487 17488 
2154 2155 2452 2451 2187 2188 2485 2484 15351 17263 17264 17256 15578 17490 17491 17483 15569 15576 17489 17482 17485 17492 15580 17493 17267 17494 17495 
2155 2156 2453 2452 2188 2189 2486 2485 15358 17270 17271 17263 15585 17497 17498 17490 15576 15583 17496 17489 17492 17499 15587 17500 17274 17501 17502 
2156 2157 2454 2453 2189 2190 2487 2486 15365 17277 17278 17270 15592 17504 17505 17497 15583 15590 17503 17496 17499 17506 15594 17507 17281 17508 17509 
2157 2158 2455 2454 2190 2191 2488 2487 15372 17284 17285 17277 15599 17511 17512 17504 15590 15597 17510 17503 17506 17513 15601 17514 17288 17515 17516 
2158 2159 2456 2455 2191 2192 2489 2488 15379 17291 17292 17284 15606 17518 17519 17511 15597 15604 17517 17510 17513 17520 15608 17521 17295 17522 17523 
2159 2160 2457 2456 2192 2193 2490 2489 15386 17298 17299 17291 15613 17525 17526 17518 15604 15611 17524 17517 17520 17527 15615 17528 17302 17529 17530 
2160 2161 2458 2457 2193 2194 2491 2490 15393 17305 17306 17298 15620 17532 17533 17525 15611 15618 17531 17524 17527 17534 15622 17535 17309 17536 17537 
2161 2162 2459 2458 2194 2195 2492 2491 15400 17312 17313 17305 15627 17539 17540 17532 15618 15625 17538 17531 17534 17541 15629 17542 17316 17543 17544 
2162 2163 2460 2459 2195 2196 2493 2492 15407 17319 17320 17312 15634 17546 17547 17539 15625 15632 17545 17538 17541 17548 15636 17549 17323 17550 17551 
2163 2164 2461 2460 2196 2197 2494 2493 15414 17326 17327 17319 15641 17553 17554 17546 15632 15639 17552 17545 17548 17555 15643 17556 17330 17557 17558 
2164 2165 2462 2461 2197 2198 2495 2494 15421 17333 17334 17326 15648 17560 17561 17553 15639 15646 17559 17552 17555 17562 15650 17563 17337 17564 17565 
2165 2166 2463 2462 2198 2199 2496 2495 15428 17340 17341 17333 15655 17567 17568 17560 15646 15653 17566 17559 17562 17569 15657 17570 17344 17571 17572 
2166 2167 2464 2463 2199 2200 2497 2496 15435 17347 17348 17340 15662 17574 17575 17567 15653 15660 17573 17566 17569 17576 15664 17577 17351 17578 17579 
2167 2168 2465 2464 2200 2201 2498 2497 15442 17354 17355 17347 15669 17581 17582 17574 15660 15667 17580 17573 17576 17583 15671 17584 17358 17585 17586 
2168 2169 2466 2465 2201 2202 2499 2498 15449 17361 17362 17354 15676 17588 17589 17581 15667 15674 17587 17580 17583 17590 15678 17591 17365 17592 17593 
2169 2170 2467 2466 2202 2203 2500 2499 15456 17368 17369 17361 15683 17595 17596 17588 15674 15681 17594 17587 17590 17597 15685 17598 17372 17599 17600 
2170 2171 2468 2467 2203 2204 2501 2500 15463 17375 17376 17368 15690 17602 17603 17595 15681 15688 17601 17594 17597 17604 15692 17605 17379 17606 17607 
2171 2172 2469 2468 2204 2205 2502 2501 15470 17382 17383 17375 15697 17609 17610 17602 15688 15695 17608 17601 17604 17611 15699 17612 17386 17613 17614 
2172 2173 2470 2469 2205 2206 2503 2502 15477 17389 17390 17382 15704 17616 17617 17609 15695 15702 17615 17608 17611 17618 15706 17619 17393 17620 17621 
2173 2174 2471 2470 2206 2207 2504 2503 15484 17396 17397 17389 15711 17623 17624 17616 15702 15709 17622 17615 17618 17625 15713 17626 17400 17627 17628 
2174 2175 2472 2471 2207 2208 2505 2504 15491 17403 17404 17396 15718 17630 17631 17623 15709 15716 17629 17622 17625 17632 15720 17633 17407 17634 17635 
2175 2176 2473 2472 2208 2209 2506 2505 15498 17410 17411 17403 15725 17637 17638 17630 15716 15723 17636 17629 17632 17639 15727 17640 17414 17641 17642 
2176 2177 2474 2473 2209 2210 2507 2506 15505 17417 17418 17410 15732 17644 17645 17637 15723 15730 17643 17636 17639 17646 15734 17647 17421 17648 17649 
2178 2179 2476 2475 2211 2212 2509 2508 15513 17425 17426 17427 15740 17652 17653 17654 15738 15737 17650 17651 17657 17655 15743 17656 17431 17658 17659 
2179 2180 2477 2476 2212 2213 2510 2509 15522 17434 17435 17425 15749 17661 17662 17652 15737 15747 17660 17650 17655 17663 15751 17664 17438 17665 17666 
2180 2181 2478 2477 2213 2214 2511 2510 15529 17441 17442 17434 15756 17668 17669 17661 15747 15754 17667 17660 17663 17670 15758 17671 17445 17672 17673 
2181 2182 2479 2478 2214 2215 2512 2511 15536 17448 17449 17441 15763 17675 17676 17668 15754 15761 17674 17667 17670 17677 15765 17678 17452 17679 17680 
2182 2183 2480 2479 2215 2216 2513 2512 15543 17455 17456 17448 15770 17682 17683 17675 15761 15768 17681 17674 17677 17684 15772 17685 17459 17686 17687 
2183 2184 2481 2480 2216 2217 2514 2513 15550 17462 17463 17455 15777 17689 17690 17682 15768 15775 17688 17681 17684 17691 15779 17692 17466 17693 17694 
2184 2185 2482 2481 2217 2218 2515 2514 15557 17469 17470 17462 15784 17696 17697 17689 15775 15782 17695 17688 17691 17698 15786 17699 17473 17700 17701 
2185 2186 2483 2482 2218 2219 2516 2515 15564 17476 17477 17469 15791 17703 17704 17696 15782 15789 17702 17695 17698 17705 15793 17706 17480 17707 17708 
2186 2187 2484 2483 2219 2220 2517 2516 15571 17483 17484 17476 15798 17710 17711 17703 15789 15796 17709 17702 17705 17712 15800 17713 17487 17714 17715 
2187 2188 2485 2484 2220 2221 2518 2517 15578 17490 17491 17483 15805 17717 17718 17710 15796 15803 17716 17709 17712 17719 15807 17720 17494 17721 17722 
2188 2189 2486 2485 2221 2222 2519 2518 15585 17497 17498 17490 15812 17724 17725 17717 15803 15810 17723 17716 17719 17726 15814 17727 17501 17728 17729 
2189 2190 2487 2486 2222 2223 2520 2519 15592 17504 17505 17497 15819 17731 17732 17724 15810 15817 17730 17723 17726 17733 15821 17734 17508 17735 17736 
2190 2191 2488 2487 2223 2224 2521 2520 15599 17511 17512 17504 15826 17738 17739 17731 15817 15824 17737 17730 17733 17740 15828 17741 17515 17742 17743 
2191 2192 2489 2488 2224 2225 2522 2521 15606 17518 17519 17511 15833 17745 17746 17738 15824 15831 17744 17737 17740 17747 15835 17748 17522 17749 17750 
2192 2193 2490 2489 2225 2226 2523 2522 15613 17525 17526 17518 15840 17752 17753 17745 15831 15838 17751 17744 17747 17754 15842 17755 17529 17756 17757 
2193 2194 2491 2490 2226 2227 2524 2523 15620 17532 17533 17525 15847 17759 17760 17752 15838 15845 17758 17751 17754 17761 15849 17762 17536 17763 17764 
2194 2195 2492 2491 2227 2228 2525 2524 15627 17539 17540 17532 15854 17766 17767 17759 15845 15852 17765 17758 17761 17768 15856 17769 17543 17770 17771 
2195 2196 2493 2492 2228 2229 2526 2525 15634 17546 17547 17539 15861 17773 17774 17766 15852 15859 17772 17765 17768 17775 15863 17776 17550 17777 17778 
2196 2197 2494 2493 2229 2230 2527 2526 15641 17553 17554 17546 15868 17780 17781 17773 15859 15866 17779 17772 17775 17782 15870 17783 17557 17784 17785 
2197 2198 2495 2494 2230 2231 2528 2527 15648 17560 17561 17553 15875 17787 17788 17780 15866 15873 17786 17779 17782 17789 15877 17790 17564 17791 17792 
2198 2199 2496 2495 2231 2232 2529 2528 15655 17567 17568 17560 15882 17794 17795 17787 15873 15880 17793 17786 17789 17796 15884 17797 17571 17798 17799 
2199 2200 2497 2496 2232 2233 2530 2529 15662 17574 17575 17567 15889 17801 17802 17794 15880 15887 17800 17793 17796 17803 15891 17804 17578 17805 17806 
2200 2201 2498 2497 2233 2234 2531 2530 15669 17581 17582 17574 15896 17808 17809 17801 15887 15894 17807 17800 17803 17810 15898 17811 17585 17812 17813 
2201 2202 2499 2498 2234 2235 2532 2531 15676 17588 17589 17581 15903 17815 17816 17808 15894 15901 17814 17807 17810 17817 15905 17818 17592 17819 17820 
2202 2203 2500 2499 2235 2236 2533 2532 15683 17595 17596 17588 15910 17822 17823 17815 15901 15908 17821 17814 17817 17824 15912 17825 17599 17826 17827 
2203 2204 2501 2500 2236 2237 2534 2533 15690 17602 17603 17595 15917 17829 17830 17822 15908 15915 17828 17821 17824 17831 15919 17832 17606 17833 17834 
2204 2205 2502 2501 2237 2238 2535 2534 15697 17609 17610 17602 15924 17836 17837 17829 15915 15922 17835 17828 17831 17838 15926 17839 17613 17840 17841 
2205 2206 2503 2502 2238 2239 2536 2535 15704 17616 17617 17609 15931 17843 17844 17836 15922 15929 17842 17835 17838 17845 15933 17846 17620 17847 17848 
2206 2207 2504 2503 2239 2240 2537 2536 15711 17623 17624 17616 15938 17850 17851 17843 15929 15936 17849 17842 17845 17852 15940 17853 17627 17854 17855 
2207 2208 2505 2504 2240 2241 2538 2537 15718 17630 17631 17623 15945 17857 17858 17850 15936 15943 17856 17849 17852 17859 15947 17860 17634 17861 17862 
2208 2209 2506 2505 2241 2242 2539 2538 15725 17637 17638 17630 15952 17864 17865 17857 15943 15950 17863 17856 17859 17866 15954 17867 17641 17868 17869 
2209 2210 2507 2506 2242 2243 2540 2539 15732 17644 17645 17637 15959 17871 17872 17864 15950 15957 17870 17863 17866 17873 15961 17874 17648 17875 17876 
2211 2212 2509 2508 2244 2245 2542 2541 15740 17652 17653 17654 15967 17879 17880 17881 15965 15964 17877 17878 17884 17882 15970 17883 17658 17885 17886 
2212 2213 2510 2509 2245 2246 2543 2542 15749 17661 17662 17652 15976 17888 17889 17879 15964 15974 17887 17877 17882 17890 15978 17891 17665 17892 17893 
2213 2214 2511 2510 2246 2247 2544 2543 15756 17668 17669 17661 15983 17895 17896 17888 15974 15981 17894 17887 17890 17897 15985 17898 17672 17899 17900 
2214 2215 2512 2511 2247 2248 2545 2544 15763 17675 17676 17668 15990 17902 17903 17895 15981 15988 17901 17894 17897 17904 15992 17905 17679 17906 17907 
2215 2216 2513 2512 2248 2249 2546 2545 15770 17682 17683 17675 15997 17909 17910 17902 15988 15995 17908 17901 17904 17911 15999 17912 17686 17913 17914 
2216 2217 2514 2513 2249 2250 2547 2546 15777 17689 17690 17682 16004 17916 17917 17909 15995 16002 17915 17908 17911 17918 16006 17919 17693 17920 17921 
2217 2218 2515 2514 2250 2251 2548 2547 15784 17696 17697 17689 16011 17923 17924 17916 16002 16009 17922 17915 17918 17925 16013 17926 17700 17927 17928 
2218 2219 2516 2515 2251 2252 2549 2548 15791 17703 17704 17696 16018 17930 17931 17923 16009 16016 17929 17922 17925 17932 16020 17933 17707 17934 17935 
2219 2220 2517 2516 2252 2253 2550 2549 15798 17710 17711 17703 16025 17937 17938 17930 16016 16023 17936 17929 17932 17939 16027 17940 17714 17941 17942 
2220 2221 2518 2517 2253 2254 2551 2550 15805 17717 17718 17710 16032 17944 17945 17937 16023 16030 17943 17936 17939 17946 16034 17947 17721 17948 17949 
2221 2222 2519 2518 2254 2255 2552 2551 15812 17724 17725 17717 16039 17951 17952 17944 16030 16037 17950 17943 17946 17953 16041 17954 17728 17955 17956 
2222 2223 2520 2519 2255 2256 2553 2552 15819 17731 17732 17724 16046 17958 17959 17951 16037 16044 17957 17950 17953 17960 16048 17961 17735 17962 17963 
2223 2224 2521 2520 2256 2257 2554 2553 15826 17738 17739 17731 16053 17965 17966 17958 16044 16051 17964 17957 17960 17967 16055 17968 17742 17969 17970 
2224 2225 2522 2521 2257 2258 2555 2554 15833 17745 17746 17738 16060 17972 17973 17965 16051 16058 17971 17964 17967 17974 16062 17975 17749 17976 17977 
2225 2226 2523 2522 2258 2259 2556 2555 15840 17752 17753 17745 16067 17979 17980 17972 16058 16065 17978 17971 17974 17981 16069 17982 17756 17983 17984 
2226 2227 2524 2523 2259 2260 2557 2556 15847 17759 17760 17752 16074 17986 17987 17979 16065 16072 17985 17978 17981 17988 16076 17989 17763 17990 17991 
2227 2228 2525 2524 2260 2261 2558 2557 15854 17766 17767 17759 16081 17993 17994 17986 16072 16079 17992 17985 17988 17995 16083 17996 17770 17997 17998 
2228 2229 2526 2525 2261 2262 2559 2558 15861 17773 17774 17766 16088 18000 18001 17993 16079 16086 17999 17992 17995 18002 16090 18003 17777 18004 18005 
2229 2230 2527 2526 2262 2263 2560 2559 15868 17780 17781 17773 16095 18007 18008 18000 16086 16093 18006 17999 18002 18009 16097 18010 17784 18011 18012 
2230 2231 2528 2527 2263 2264 2561 2560 15875 17787 17788 17780 16102 18014 18015 18007 16093 16100 18013 18006 18009 18016 16104 18017 17791 18018 18019 
2231 2232 2529 2528 2264 2265 2562 2561 15882 17794 17795 17787 16109 18021 18022 18014 16100 16107 18020 18013 18016 18023 16111 18024 17798 18025 18026 
2232 2233 2530 2529 2265 2266 2563 2562 15889 17801 17802 17794 16116 18028 18029 18021 16107 16114 18027 18020 18023 18030 16118 18031 17805 18032 18033 
2233 2234 2531 2530 2266 2267 2564 2563 15896 17808 17809 17801 16123 18035 18036 18028 16114 16121 18034 18027 18030 18037 16125 18038 17812 18039 18040 
2234 2235 2532 2531 2267 2268 2565 2564 15903 17815 17816 17808 16130 18042 18043 18035 16121 16128 18041 18034 18037 18044 16132 18045 17819 18046 18047 
2235 2236 2533 2532 2268 2269 2566 2565 15910 17822 17823 17815 16137 18049 18050 18042 16128 16135 18048 18041 18044 18051 16139 18052 17826 18053 18054 
2236 2237 2534 2533 2269 2270 2567 2566 15917 17829 17830 17822 16144 18056 18057 18049 16135 16142 18055 18048 18051 18058 16146 18059 17833 18060 18061 
2237 2238 2535 2534 2270 2271 2568 2567 15924 17836 17837 17829 16151 18063 18064 18056 16142 16149 18062 18055 18058 18065 16153 18066 17840 18067 18068 
2238 2239 2536 2535 2271 2272 2569 2568 15931 17843 17844 17836 16158 18070 18071 18063 16149 16156 18069 18062 18065 18072 16160 18073 17847 18074 18075 
2239 2240 2537 2536 2272 2273 2570 2569 15938 17850 17851 17843 16165 18077 18078 18070 16156 16163 18076 18069 18072 18079 16167 18080 17854 18081 18082 
2240 2241 2538 2537 2273 2274 2571 2570 15945 17857 17858 17850 16172 18084 18085 18077 16163 16170 18083 18076 18079 18086 16174 18087 17861 18088 18089 
2241 2242 2539 2538 2274 2275 2572 2571 15952 17864 17865 17857 16179 18091 18092 18084 16170 16177 18090 18083 18086 18093 16181 18094 17868 18095 18096 
2242 2243 2540 2539 2275 2276 2573 2572 15959 17871 17872 17864 16186 18098 18099 18091 16177 16184 18097 18090 18093 18100 16188 18101 17875 18102 18103 
2244 2245 2542 2541 2277 2278 2575 2574 15967 17879 17880 17881 16194 18106 18107 18108 16192 16191 18104 18105 18111 18109 16197 18110 17885 18112 18113 
2245 2246 2543 2542 2278 2279 2576 2575 15976 17888 17889 17879 16203 18115 18116 18106 16191 16201 18114 18104 18109 18117 16205 18118 17892 18119 18120 
2246 2247 2544 2543 2279 2280 2577 2576 15983 17895 17896 17888 16210 18122 18123 18115 16201 16208 18121 18114 18117 18124 16212 18125 17899 18126 18127 
2247 2248 2545 2544 2280 2281 2578 2577 15990 17902 17903 17895 16217 18129 18130 18122 16208 16215 18128 18121 18124 18131 16219 18132 17906 18133 18134 
2248 2249 2546 2545 2281 2282 2579 2578 15997 17909 17910 17902 16224 18136 18137 18129 16215 16222 18135 18128 18131 18138 16226 18139 17913 18140 18141 
2249 2250 2547 2546 2282 2283 2580 2579 16004 17916 17917 17909 16231 18143 18144 18136 16222 16229 18142 18135 18138 18145 16233 18146 17920 18147 18148 
2250 2251 2548 2547 2283 2284 2581 2580 16011 17923 17924 17916 16238 18150 18151 18143 16229 16236 18149 18142 18145 18152 16240 18153 17927 18154 18155 
2251 2252 2549 2548 2284 2285 2582 2581 16018 17930 17931 17923 16245 18157 18158 18150 16236 16243 18156 18149 18152 18159 16247 18160 17934 18161 18162 
2252 2253 2550 2549 2285 2286 2583 2582 16025 17937 17938 17930 16252 18164 18165 18157 16243 16250 18163 18156 18159 18166 16254 18167 17941 18168 18169 
2253 2254 2551 2550 2286 2287 2584 2583 16032 17944 17945 17937 16259 18171 18172 18164 16250 16257 18170 18163 18166 18173 16261 18174 17948 18175 18176 
2254 2255 2552 2551 2287 2288 2585 2584 16039 17951 17952 17944 16266 18178 18179 18171 16257 16264 18177 18170 18173 18180 16268 18181 17955 18182 18183 
2255 2256 2553 2552 2288 2289 2586 2585 16046 17958 17959 17951 16273 18185 18186 18178 16264 16271 18184 18177 18180 18187 16275 18188 17962 18189 18190 
2256 2257 2554 2553 2289 2290 2587 2586 16053 17965 17966 17958 16280 18192 18193 18185 16271 16278 18191 18184 18187 18194 16282 18195 17969 18196 18197 
2257 2258 2555 2554 2290 2291 2588 2587 16060 17972 17973 17965 16287 18199 18200 18192 16278 16285 18198 18191 18194 18201 16289 18202 17976 18203 18204 
2258 2259 2556 2555 2291 2292 2589 2588 16067 17979 17980 17972 16294 18206 18207 18199 16285 16292 18205 18198 18201 18208 16296 18209 17983 18210 18211 
2259 2260 2557 2556 2292 2293 2590 2589 16074 17986 17987 17979 16301 18213 18214 18206 16292 16299 18212 18205 18208 18215 16303 18216 17990 18217 18218 
2260 2261 2558 2557 2293 2294 2591 2590 16081 17993 17994 17986 16308 18220 18221 18213 16299 16306 18219 18212 18215 18222 16310 18223 17997 18224 18225 
2261 2262 2559 2558 2294 2295 2592 2591 16088 18000 18001 17993 16315 18227 18228 18220 16306 16313 18226 18219 18222 18229 16317 18230 18004 18231 18232 
2262 2263 2560 2559 2295 2296 2593 2592 16095 18007 18008 18000 16322 18234 18235 18227 16313 16320 18233 18226 18229 18236 16324 18237 18011 18238 18239 
2263 2264 2561 2560 2296 2297 2594 2593 16102 18014 18015 18007 16329 18241 18242 18234 16320 16327 18240 18233 18236 18243 16331 18244 18018 18245 18246 
2264 2265 2562 2561 2297 2298 2595 2594 16109 18021 18022 18014 16336 18248 18249 18241 16327 16334 18247 18240 18243 18250 16338 18251 18025 18252 18253 
2265 2266 2563 2562 2298 2299 2596 2595 16116 18028 18029 18021 16343 18255 18256 18248 16334 16341 18254 18247 18250 18257 16345 18258 18032 18259 18260 
2266 2267 2564 2563 2299 2300 2597 2596 16123 18035 18036 18028 16350 18262 18263 18255 16341 16348 18261 18254 18257 18264 16352 18265 18039 18266 18267 
2267 2268 2565 2564 2300 2301 2598 2597 16130 18042 18043 18035 16357 18269 18270 18262 16348 16355 18268 18261 18264 18271 16359 18272 18046 18273 18274 
2268 2269 2566 2565 2301 2302 2599 2598 16137 18049 18050 18042 16364 18276 18277 18269 16355 16362 18275 18268 18271 18278 16366 18279 18053 18280 18281 
2269 2270 2567 2566 2302 2303 2600 2599 16144 18056 18057 18049 16371 18283 18284 18276 16362 16369 18282 18275 18278 18285 16373 18286 18060 18287 18288 
2270 2271 2568 2567 2303 2304 2601 2600 16151 18063 18064 18056 16378 18290 18291 18283 16369 16376 18289 18282 18285 18292 16380 18293 18067 18294 18295 
2271 2272 2569 2568 2304 2305 2602 2601 16158 18070 18071 18063 16385 18297 18298 18290 16376 16383 18296 18289 18292 18299 16387 18300 18074 18301 18302 
2272 2273 2570 2569 2305 2306 2603 2602 16165 18077 18078 18070 16392 18304 18305 18297 16383 16390 18303 18296 18299 18306 16394 18307 18081 18308 18309 
2273 2274 2571 2570 2306 2307 2604 2603 16172 18084 18085 18077 16399 18311 18312 18304 16390 16397 18310 18303 18306 18313 16401 18314 18088 18315 18316 
2274 2275 2572 2571 2307 2308 2605 2604 16179 18091 18092 18084 16406 18318 18319 18311 16397 16404 18317 18310 18313 18320 16408 18321 18095 18322 18323 
2275 2276 2573 2572 2308 2309 2606 2605 16186 18098 18099 18091 16413 18325 18326 18318 16404 16411 18324 18317 18320 18327 16415 18328 18102 18329 18330 
2277 2278 2575 2574 2310 2311 2608 2607 16194 18106 18107 18108 16421 18333 18334 18335 16419 16418 18331 18332 18338 18336 16424 18337 18112 18339 18340 
2278 2279 2576 2575 2311 2312 2609 2608 16203 18115 18116 18106 16430 18342 18343 18333 16418 16428 18341 18331 18336 18344 16432 18345 18119 18346 18347 
2279 2280 2577 2576 2312 2313 2610 2609 16210 18122 18123 18115 16437 18349 18350 18342 16428 16435 18348 18341 18344 18351 16439 18352 18126 18353 18354 
2280 2281 2578 2577 2313 2314 2611 2610 16217 18129 18130 18122 16444 18356 18357 18349 16435 16442 18355 18348 18351 18358 16446 18359 18133 18360 18361 
2281 2282 2579 2578 2314 2315 2612 2611 16224 18136 18137 18129 16451 18363 18364 18356 16442 16449 18362 18355 18358 18365 16453 18366 18140 18367 18368 
2282 2283 2580 2579 2315 2316 2613 2612 16231 18143 18144 18136 16458 18370 18371 18363 16449 16456 18369 18362 18365 18372 16460 18373 18147 18374 18375 
2283 2284 2581 2580 2316 2317 2614 2613 16238 18150 18151 18143 16465 18377 18378 18370 16456 16463 18376 18369 18372 18379 16467 18380 18154 18381 18382 
2284 2285 2582 2581 2317 2318 2615 2614 16245 18157 18158 18150 16472 18384 18385 18377 16463 16470 18383 18376 18379 18386 16474 18387 18161 18388 18389 
2285 2286 2583 2582 2318 2319 2616 2615 16252 18164 18165 18157 16479 18391 18392 18384 16470 16477 18390 18383 18386 18393 16481 18394 18168 18395 18396 
2286 2287 2584 2583 2319 2320 2617 2616 16259 18171 18172 18164 16486 18398 18399 18391 16477 16484 18397 18390 18393 18400 16488 18401 18175 18402 18403 
2287 2288 2585 2584 2320 2321 2618 2617 16266 18178 18179 18171 16493 18405 18406 18398 16484 16491 18404 18397 18400 18407 16495 18408 18182 18409 18410 
2288 2289 2586 2585 2321 2322 2619 2618 16273 18185 18186 18178 16500 18412 18413 18405 16491 16498 18411 18404 18407 18414 16502 18415 18189 18416 18417 
2289 2290 2587 2586 2322 2323 2620 2619 16280 18192 18193 18185 16507 18419 18420 18412 16498 16505 18418 18411 18414 18421 16509 18422 18196 18423 18424 
2290 2291 2588 2587 2323 2324 2621 2620 16287 18199 18200 18192 16514 18426 18427 18419 16505 16512 18425 18418 18421 18428 16516 18429 18203 18430 18431 
2291 2292 2589 2588 2324 2325 2622 2621 16294 18206 18207 18199 16521 18433 18434 18426 16512 16519 18432 18425 18428 18435 16523 18436 18210 18437 18438 
2292 2293 2590 2589 2325 2326 2623 2622 16301 18213 18214 18206 16528 18440 18441 18433 16519 16526 18439 18432 18435 18442 16530 18443 18217 18444 18445 
2293 2294 2591 2590 2326 2327 2624 2623 16308 18220 18221 18213 16535 18447 18448 18440 16526 16533 18446 18439 18442 18449 16537 18450 18224 18451 18452 
2294 2295 2592 2591 2327 2328 2625 2624 16315 18227 18228 18220 16542 18454 18455 18447 16533 16540 18453 18446 18449 18456 16544 18457 18231 18458 18459 
2295 2296 2593 2592 2328 2329 2626 2625 16322 18234 18235 18227 16549 18461 18462 18454 16540 16547 18460 18453 18456 18463 16551 18464 18238 18465 18466 
2296 2297 2594 2593 2329 2330 2627 2626 16329 18241 18242 18234 16556 18468 18469 18461 16547 16554 18467 18460 18463 18470 16558 18471 18245 18472 18473 
2297 2298 2595 2594 2330 2331 2628 2627 16336 18248 18249 18241 16563 18475 18476 18468 16554 16561 18474 18467 18470 18477 16565 18478 18252 18479 18480 
2298 2299 2596 2595 2331 2332 2629 2628 16343 18255 18256 18248 16570 18482 18483 18475 16561 16568 18481 18474 18477 18484 16572 18485 18259 18486 18487 
2299 2300 2597 2596 2332 2333 2630 2629 16350 18262 18263 18255 16577 18489 18490 18482 16568 16575 18488 18481 18484 18491 16579 18492 18266 18493 18494 
2300 2301 2598 2597 2333 2334 2631 2630 16357 18269 18270 18262 16584 18496 18497 18489 16575 16582 18495 18488 18491 18498 16586 18499 18273 18500 18501 
2301 2302 2599 2598 2334 2335 2632 2631 16364 18276 18277 18269 16591 18503 18504 18496 16582 16589 18502 18495 18498 18505 16593 18506 18280 18507 18508 
2302 2303 2600 2599 2335 2336 2633 2632 16371 18283 18284 18276 16598 18510 18511 18503 16589 16596 18509 18502 18505 18512 16600 18513 18287 18514 18515 
2303 2304 2601 2600 2336 2337 2634 2633 16378 18290 18291 18283 16605 18517 18518 18510 16596 16603 18516 18509 18512 18519 16607 18520 18294 18521 18522 
2304 2305 2602 2601 2337 2338 2635 2634 16385 18297 18298 18290 16612 18524 18525 18517 16603 16610 18523 18516 18519 18526 16614 18527 18301 18528 18529 
2305 2306 2603 2602 2338 2339 2636 2635 16392 18304 18305 18297 16619 18531 18532 18524 16610 16617 18530 18523 18526 18533 16621 18534 18308 18535 18536 
2306 2307 2604 2603 2339 2340 2637 2636 16399 18311 18312 18304 16626 18538 18539 18531 16617 16624 18537 18530 18533 18540 16628 18541 18315 18542 18543 
2307 2308 2605 2604 2340 2341 2638 2637 16406 18318 18319 18311 16633 18545 18546 18538 16624 16631 18544 18537 18540 18547 16635 18548 18322 18549 18550 
2308 2309 2606 2605 2341 2342 2639 2638 16413 18325 18326 18318 16640 18552 18553 18545 16631 16638 18551 18544 18547 18554 16642 18555 18329 18556 18557 
2310 2311 2608 2607 2343 2344 2641 2640 16421 18333 18334 18335 16648 18560 18561 18562 16646 16645 18558 18559 18565 18563 16651 18564 18339 18566 18567 
2311 2312 2609 2608 2344 2345 2642 2641 16430 18342 18343 18333 16657 18569 18570 18560 16645 16655 18568 18558 18563 18571 16659 18572 18346 18573 18574 
2312 2313 2610 2609 2345 2346 2643 2642 16437 18349 18350 18342 16664 18576 18577 18569 16655 16662 18575 18568 18571 18578 16666 18579 18353 18580 18581 
2313 2314 2611 2610 2346 2347 2644 2643 16444 18356 18357 18349 16671 18583 18584 18576 16662 16669 18582 18575 18578 18585 16673 18586 18360 18587 18588 
2314 2315 2612 2611 2347 2348 2645 2644 16451 18363 18364 18356 16678 18590 18591 18583 16669 16676 18589 18582 18585 18592 16680 18593 18367 18594 18595 
2315 2316 2613 2612 2348 2349 2646 2645 16458 18370 18371 18363 16685 18597 18598 18590 16676 16683 18596 18589 18592 18599 16687 18600 18374 18601 18602 
2316 2317 2614 2613 2349 2350 2647 2646 16465 18377 18378 18370 16692 18604 18605 18597 16683 16690 18603 18596 18599 18606 16694 18607 18381 18608 18609 
2317 2318 2615 2614 2350 2351 2648 2647 16472 18384 18385 18377 16699 18611 18612 18604 16690 16697 18610 18603 18606 18613 16701 18614 18388 18615 18616 
2318 2319 2616 2615 2351 2352 2649 2648 16479 18391 18392 18384 16706 18618 18619 18611 16697 16704 18617 18610 18613 18620 16708 18621 18395 18622 18623 
2319 2320 2617 2616 2352 2353 2650 2649 16486 18398 18399 18391 16713 18625 18626 18618 16704 16711 18624 18617 18620 18627 16715 18628 18402 18629 18630 
2320 2321 2618 2617 2353 2354 2651 2650 16493 18405 18406 18398 16720 18632 18633 18625 16711 16718 18631 18624 18627 18634 16722 18635 18409 18636 18637 
2321 2322 2619 2618 2354 2355 2652 2651 16500 18412 18413 18405 16727 18639 18640 18632 16718 16725 18638 18631 18634 18641 16729 18642 18416 18643 18644 
2322 2323 2620 2619 2355 2356 2653 2652 16507 18419 18420 18412 16734 18646 18647 18639 16725 16732 18645 18638 18641 18648 16736 18649 18423 18650 18651 
2323 2324 2621 2620 2356 2357 2654 2653 16514 18426 18427 18419 16741 18653 18654 18646 16732 16739 18652 18645 18648 18655 16743 18656 18430 18657 18658 
2324 2325 2622 2621 2357 2358 2655 2654 16521 18433 18434 18426 16748 18660 18661 18653 16739 16746 18659 18652 18655 18662 16750 18663 18437 18664 18665 
2325 2326 2623 2622 2358 2359 2656 2655 16528 18440 18441 18433 16755 18667 18668 18660 16746 16753 18666 18659 18662 18669 16757 18670 18444 18671 18672 
2326 2327 2624 2623 2359 2360 2657 2656 16535 18447 18448 18440 16762 18674 18675 18667 16753 16760 18673 18666 18669 18676 16764 18677 18451 18678 18679 
2327 2328 2625 2624 2360 2361 2658 2657 16542 18454 18455 18447 16769 18681 18682 18674 16760 16767 18680 18673 18676 18683 16771 18684 18458 18685 18686 
2328 2329 2626 2625 2361 2362 2659 2658 16549 18461 18462 18454 16776 18688 18689 18681 16767 16774 18687 18680 18683 18690 16778 18691 18465 18692 18693 
2329 2330 2627 2626 2362 2363 2660 2659 16556 18468 18469 18461 16783 18695 18696 18688 16774 16781 18694 18687 18690 18697 16785 18698 18472 18699 18700 
2330 2331 2628 2627 2363 2364 2661 2660 16563 18475 18476 18468 16790 18702 18703 18695 16781 16788 18701 18694 18697 18704 16792 18705 18479 18706 18707 
2331 2332 2629 2628 2364 2365 2662 2661 16570 18482 18483 18475 16797 18709 18710 18702 16788 16795 18708 18701 18704 18711 16799 18712 18486 18713 18714 
2332 2333 2630 2629 2365 2366 2663 2662 16577 18489 18490 18482 16804 18716 18717 18709 16795 16802 18715 18708 18711 18718 16806 18719 18493 18720 18721 
2333 2334 2631 2630 2366 2367 2664 2663 16584 18496 18497 18489 16811 18723 18724 18716 16802 16809 18722 18715 18718 18725 16813 18726 18500 18727 18728 
2334 2335 2632 2631 2367 2368 2665 2664 16591 18503 18504 18496 16818 18730 18731 18723 16809 16816 18729 18722 18725 18732 16820 18733 18507 18734 18735 
2335 2336 2633 2632 2368 2369 2666 2665 16598 18510 18511 18503 16825 18737 18738 18730 16816 16823 18736 18729 18732 18739 16827 18740 18514 18741 18742 
2336 2337 2634 2633 2369 2370 2667 2666 16605 18517 18518 18510 16832 18744 18745 18737 16823 16830 18743 18736 18739 18746 16834 18747 18521 18748 18749 
2337 2338 2635 2634 2370 2371 2668 2667 16612 18524 18525 18517 16839 18751 18752 18744 16830 16837 18750 18743 18746 18753 16841 18754 18528 18755 18756 
2338 2339 2636 2635 2371 2372 2669 2668 16619 18531 18532 18524 16846 18758 18759 18751 16837 16844 18757 18750 18753 18760 16848 18761 18535 18762 18763 
2339 2340 2637 2636 2372 2373 2670 2669 16626 18538 18539 18531 16853 18765 18766 18758 16844 16851 18764 18757 18760 18767 16855 18768 18542 18769 18770 
2340 2341 2638 2637 2373 2374 2671 2670 16633 18545 18546 18538 16860 18772 18773 18765 16851 16858 18771 18764 18767 18774 16862 18775 18549 18776 18777 
2341 2342 2639 2638 2374 2375 2672 2671 16640 18552 18553 18545 16867 18779 18780 18772 16858 16865 18778 18771 18774 18781 16869 18782 18556 18783 18784 
CELL_TYPES 2048
29 29 29 29 29 29 29 29 29 29 29 29 29 29 29 29 29 29 29 29 29 29 29 29 29 29 29 29 29 29 29 29 29 29 29 29 29 29 29 29 29 29 29 29 29 29 29 29 29 29 29 29 29 29 29 29 29 29 29 29 29 29 29 29 29 29 29 29 29 29 29 29 29 29 29 29 29 29 29 29 29 29 29 29 29 29 29 29 29 29 29 29 29 29 29 29 29 29 29 29 29 29 29 29 29 29 29 29 29 29 29 29 29 29 29 29 29 29 29 29 29 29 29 29 29 29 29 29 29 29 29 29 29 29 29 29 29 29 29 29 29 29 29 29 29 29 29 29 29 29 29 29 29 29 29 29 29 29 29 29 29 29 29 29 29 29 29 29 29 29 29 29 29 29 29 29 29 29 29 29 29 29 29 29 29 29 29 29 29 29 29 29 29 29 29 29 29 29 29 29 29 29 29 29 29 29 29 29 29 29 29 29 29 29 29 29 29 29 29 29 29 29 29 29 29 29 29 29 29 29 29 29 29 29 29 29 29 29 29 29 29 29 29 29 29 29 29 29 29 29 29 29 29 29 29 29 29 29 29 29 29 29 29 29 29 29 29 29 29 29 29 29 29 29 29 29 29 29 29 29 29 29 29 29 29 29 29 29 29 29 29 29 29 29 29 29 29 29 29 29 29 29 29 29 29 29 29 29 29 29 29 29 29 29 29 29 29 29 29 29 29 29 29 29 29 29 29 29 29 29 29 29 29 29 29 29 29 29 29 29 29 29 29 29 29 29 29 29 29 29 29 29 29 29 29 29 29 29 29 29 29 29 29 29 29 29 29 29 29 29 29 29 29 29 29 29 29 29 29 29 29 29 29 29 29 29 29 29 29 29 29 29 29 29 29 29 29 29 29 29 29 29 29 29 29 29 29 29 29 29 29 29 29 29 29 29 29 29 29 29 29 29 29 29 29 29 29 29 29 29 29 29 29 29 29 29 29 29 29 29 29 29 29 29 29 29 29 29 29 29 29 29 29 29 29 29 29 29 29 29 29 29 29 29 29 29 29 29 29 29 29 29 29 29 29 29 29 29 29 29 29 29 29 29 29 29 29 29 29 29 29 29 29 29 29 29 29 29 29 29 29 29 29 29 29 29 29 29 29 29 29 29 29 29 29 29 29 29 29 29 29 29 29 29 29 29 29 29 29 29 29 29 29 29 29 29 29 29 29 29 29 29 29 29 29 29 29 29 29 29 29 29 29 29 29 29 29 29 29 29 29 29 29 29 29 29 29 29 29 29 29 29 29 29 29 29 29 29 29 29 29 29 29 29 29 29 29 29 29 29 29 29 29 29 29 29 29 29 29 29 29 29 29 29 29 29 29 29 29 29 29 29 29 29 29 29 29 29 29 29 29 29 29 29 29 29 29 29 29 29 29 29 29 29 29 29 29 29 29 29 29 29 29 29 29 29 29 29 29 29 29 29 29 29 29 29 29 29 29 29 29 29 29 29 29 29 29 29 29 29 29 29 29 29 29 29 29 29 29 29 29 29 29 29 29 29 29 29 29 29 29 29 29 29 29 29 29 29 29 29 29 29 29 29 29 29 29 29 29 29 29 29 29 29 29 29 29 29 29 29 29 29 29 29 29 29 29 29 29 29 29 29 29 29 29 29 29 29 29 29 29 29 29 29 29 29 29 29 29 29 29 29 29 29 29 29 29 29 29 29 29 29 29 29 29 29 29 29 29 29 29 29 29 29 29 29 29 29 29 29 29 29 29 29 29 29 29 29 29 29 29 29 29 29 29 29 29 29 29 29 29 29 29 29 29 29 29 29 29 29 29 29 29 29 29 29 29 29 29 29 29 29 29 29 29 29 29 29 29 29 29 29 29 29 29 29 29 29 29 29 29 29 29 29 29 29 29 29 29 29 29 29 29 29 29 29 29 29 29 29 29 29 29 29 29 29 29 29 29 29 29 29 29 29 29 29 29 29 29 29 29 29 29 29 29 29 29 29 29 29 29 29 29 29 29 29 29 29 29 29 29 29 29 29 29 29 29 29 29 29 29 29 29 29 29 29 29 29 29 29 29 29 29 29 29 29 29 29 29 29 29 29 29 29 29 29 29 29 29 29 29 29 29 29 29 29 29 29 29 29 29 29 29 29 29 29 29 29 29 29 29 29 29 29 29 29 29 29 29 29 29 29 29 29 29 29 29 29 29 29 29 29 29 29 29 29 29 29 29 29 29 29 29 29 29 29 29 29 29 29 29 29 29 29 29 29 29 29 29 29 29 29 29 29 29 29 29 29 29 29 29 29 29 29 29 29 29 29 29 29 29 29 29 29 29 29 29 29 29 29 29 29 29 29 29 29 29 29 29 29 29 29 29 29 29 29 29 29 29 29 29 29 29 29 29 29 29 29 29 29 29 29 29 29 29 29 29 29 29 29 29 29 29 29 29 29 29 29 29 29 29 29 29 29 29 29 29 29 29 29 29 29 29 29 29 29 29 29 29 29 29 29 29 29 29 29 29 29 29 29 29 29 29 29 29 29 29 29 29 29 29 29 29 29 29 29 29 29 29 29 29 29 29 29 29 29 29 29 29 29 29 29 29 29 29 29 29 29 29 29 29 29 29 29 29 29 29 29 29 29 29 29 29 29 29 29 29 29 29 29 29 29 29 29 29 29 29 29 29 29 29 29 29 29 29 29 29 29 29 29 29 29 29 29 29 29 29 29 29 29 29 29 29 29 29 29 29 29 29 29 29 29 29 29 29 29 29 29 29 29 29 29 29 29 29 29 29 29 29 29 29 29 29 29 29 29 29 29 29 29 29 29 29 29 29 29 29 29 29 29 29 29 29 29 29 29 29 29 29 29 29 29 29 29 29 29 29 29 29 29 29 29 29 29 29 29 29 29 29 29 29 29 29 29 29 29 29 29 29 29 29 29 29 29 29 29 29 29 29 29 29 29 29 29 29 29 29 29 29 29 29 29 29 29 29 29 29 29 29 29 29 29 29 29 29 29 29 29 29 29 29 29 29 29 29 29 29 29 29 29 29 29 29 29 29 29 29 29 29 29 29 29 29 29 29 29 29 29 29 29 29 29 29 29 29 29 29 29 29 29 29 29 29 29 29 29 29 29 29 29 29 29 29 29 29 29 29 29 29 29 29 29 29 29 29 29 29 29 29 29 29 29 29 29 29 29 29 29 29 29 29 29 29 29 29 29 29 29 29 29 29 29 29 29 29 29 29 29 29 29 29 29 29 29 29 29 29 29 29 29 29 29 29 29 29 29 29 29 29 29 29 29 29 29 29 29 29 29 29 29 29 29 29 29 29 29 29 29 29 29 29 29 29 29 29 29 29 29 29 29 29 29 29 29 29 29 29 29 29 29 29 29 29 29 29 29 29 29 29 29 29 29 29 29 29 29 29 29 29 29 29 29 29 29 29 29 29 29 29 29 29 29 29 29 29 29 29 29 29 29 29 29 29 29 29 29 29 29 29 29 29 29 29 29 29 29 29 29 29 29 29 29 29 29 29 29 29 29 29 29 29 29 29 29 29 29 29 29 29 29 29 29 29 29 29 29 29 29 29 29 29 29 29 29 29 29 29 29 29 29 29 29 29 29 29 29 29 29 29 29 29 29 29 29 29 29 29 29 29 29 29 29 29 29 29 29 29 29 29 29 29 29 29 29 29 29 29 29 29 29 29 29 29 29 29 29 29 29 29 29 29 29 29 29 29 29 29 29 29 29 29 29 29 29 29 29 29 29 29 29 29 29 29 29 29 29 29 29 29 29 29 29 29 29 29 29 29 29 29 29 29 29 29 29 29 29 29 29 29 29 29 29 29 29 29 29 29 29 29 29 29 29 29 29 29 29 29 29 29 29 29 29 29 29 29 29 29 29 29 29 29 29 29 29 29 29 29 29 29 29 29 29 29 29 29 29 29 29 29 29 29 29 29 29 29 29 29 29 29 29 29 29 29 29 29 29 29 29 29 29 29 29 29 29 29 29 29 29 29 29 29 29 29 29 29 29 29 29 29 29 29 29 29 29 29 29 29 29 29 29 29 29 29 29 29 29 29 29 29 29 29 29 29 29 29 29 29 29 29 29 29 29 29 29 29 29 29 29 29 29 29 29 29 29 29 29 29 29 29 29 29 29 29 29 29 29 29 29 29 29 29 29 29 29 29 29 29 29 29 29 29 29 29 29 29 29 29 29 29 29 29 29 29 29 29 29 29 29 29 29 29 29 29 29 29 29 29 29 29 29 29 29 29 29 29 29 29 29 29 29 29 29 29 29 29 29 29 29 29 29 29 29 29 29 29 29 29 29 29 29 29 29 29 29 29 29 29 29 29 29 29 29 29 29 29 29 29 29 29 29 29 29 29 29 29 29 29 29 29 29 29 29 29 29 29 29 29 29 29 29 29 29 29 29 29 29 29 29 29 29 29 29 29 29 29 29 29 29 29 29 29 29 29 29 29 29 29 29 29 29 29 29 29 29 29 29 29 29 29 29 29 29 29 29 29 29 29 29 29 29 29 29 29 29 29 29 29 29 29 29 29 29 29 29 29 29 29 29 29 29 29 29 29 29 29 29 29 29 29 29 29 29 29 29 29 29 29 29 

POINT_DATA 18785
SCALARS weights float 1
LOOKUP_TABLE default
0.072338 0.144676 0.144676 0.144676 0.144676 0.144676 0.144676 0.144676 0.144676 0.144676 0.144676 0.144676 0.144676 0.144676 0.144676 0.144676 0.144676 0.144676 0.144676 0.144676 0.144676 0.144676 0.144676 0.144676 0.144676 0.144676 0.144676 0.144676 0.144676 0.144676 0.144676 0.144676 0.072338 0.144676 0.289352 0.289352 0.289352 0.289352 0.289352 0.289352 0.289352 0.289352 0.289352 0.289352 0.289352 0.289352 0.289352 0.289352 0.289352 0.289352 0.289352 0.289352 0.289352 0.289352 0.289352 0.289352 0.289352 0.289352 0.289352 0.289352 0.289352 0.289351 0.289352 0.289352 0.289352 0.144676 0.144676 0.289352 0.289352 0.289352 0.289352 0.289352 0.289352 0.289352 0.289352 0.289352 0.289352 0.289352 0.289352 0.289352 0.289352 0.289352 0.289352 0.289352 0.289352 0.289352 0.289352 0.289352 0.289352 0.289352 0.289352 0.289352 0.289352 0.289352 0.289351 0.289352 0.289352 0.289352 0.144676 0.144676 0.289352 0.289352 0.289352 0.289352 0.289352 0.289352 0.289352 0.289352 0.289352 0.289352 0.289352 0.289352 0.289352 0.289352 0.289352 0.289352 0.289352 0.289352 0.289352 0.289352 0.289352 0.289352 0.289352 0.289352 0.289352 0.289352 0.289352 0.289351 0.289352 0.289352 0.289352 0.144676 0.144676 0.289352 0.289352 0.289352 0.289352 0.289352 0.289352 0.289352 0.289352 0.289352 0.289352 0.289352 0.289352 0.289352 0.289352 0.289352 0.289352 0.289352 0.289352 0.289352 0.289352 0.289352 0.289352 0.289352 0.289352 0.289352 0.289352 0.289352 0.289351 0.289352 0.289352 0.289352 0.144676 0.144676 0.289352 0.289352 0.289352 0.289352 0.289352 0.289352 0.289352 0.289352 0.289352 0.289352 0.289352 0.289352 0.289352 0.289352 0.289352 0.289352 0.289352 0.289352 0.289352 0.289352 0.289352 0.289352 0.289352 0.289352 0.289352 0.289352 0.289352 0.289351 0.289352 0.289352 0.289352 0.144676 0.144676 0.289352 0.289352 0.289352 0.289352 0.289352 0.289352 0.289352 0.289352 0.289352 0.289352 0.289352 0.289352 0.289352 0.289352 0.289352 0.289352 0.289352 0.289352 0.289352 0.289352 0.289352 0.289352 0.289352 0.289352 0.289352 0.289352 0.289352 0.289352 0.289352 0.289352 0.289352 0.144676 0.144676 0.289352 0.289352 0.289352 0.289352 0.289352 0.289352 0.289352 0.289352 0.289352 0.289352 0.289352 0.289352 0.289352 0.289352 0.289352 0.289352 0.289352 0.289352 0.289352 0.289352 0.289352 0.289352 0.289352 0.289352 0.289352 0.289352 0.289352 0.289351 0.289352 0.289352 0.289352 0.144676 0.072338 0.144676 0.144676 0.144676 0.144676 0.144676 0.144676 0.144676 0.144676 0.144676 0.144676 0.144676 0.144676 0.144676 0.144676 0.144676 0.144676 0.144676 0.144676 0.144676 0.144676 0.144676 0.144676 0.144676 0.144676 0.144676 0.144676 0.144676 0.144676 0.144676 0.144676 0.144676 0.072338 0.144676 0.289352 0.289352 0.289352 0.289352 0.289352 0.289352 0.289352 0.289352 0.289352 0.289352 0.289352 0.289352 0.289352 0.289352 0.289352 0.289352 0.289352 0.289352 0.289352 0.289352 0.289352 0.289352 0.289352 0.289352 0.289352 0.289352 0.289352 0.289351 0.289352 0.289352 0.289352 0.144676 0.289352 0.578704 0.578704 0.578704 0.578704 0.578704 0.578704 0.578704 0.578704 0.578704 0.578704 0.578704 0.578704 0.578704 0.578704 0.578704 0.578704 0.578704 0.578704 0.578703 0.578704 0.578704 0.578704 0.578704 0.578704 0.578703 0.578704 0.578704 0.578703 0.578703 0.578704 0.578704 0.289352 0.289352 0.578704 0.578704 0.578704 0.578704 0.578704 0.578704 0.578704 0.578704 0.578704 0.578704 0.578704 0.578704 0.578704 0.578704 0.578704 0.578704 0.578704 0.578703 0.578703 0.578704 0.578704 0.578704 0.578704 0.578704 0.578703 0.578704 0.578704 0.578703 0.578703 0.578704 0.578704 0.289352 0.289352 0.578704 0.578704 0.578704 0.578704 0.578704 0.578704 0.578704 0.578704 0.578704 0.578704 0.578704 0.578704 0.578704 0.578704 0.578704 0.578704 0.578704 0.578703 0.578703 0.578704 0.578704 0.578704 0.578704 0.578704 0.578703 0.578704 0.578704 0.578703 0.578703 0.578704 0.578704 0.289352 0.289352 0.578704 0.578704 0.578704 0.578704 0.578704 0.578704 0.578704 0.578704 0.578704 0.578703 0.578704 0.578704 0.578704 0.578704 0.578704 0.578704 0.578704 0.578703 0.578703 0.578704 0.578704 0.578703 0.578704 0.578704 0.578703 0.578704 0.578704 0.578703 0.578703 0.578704 0.578704 0.289352 0.289352 0.578704 0.578704 0.578704 0.578704 0.578704 0.578704 0.578704 0.578704 0.578704 0.578704 0.578704 0.578704 0.578704 0.578704 0.578704 0.578704 0.578704 0.578703 0.578703 0.578704 0.578704 0.578703 0.578704 0.578704 0.578703 0.578704 0.578704 0.578703 0.578703 0.578704 0.578704 0.289352 0.289352 0.578704 0.578704 0.578704 0.578704 0.578704 0.578704 0.578704 0.578704 0.578704 0.578704 0.578704 0.578704 0.578704 0.578704 0.578704 0.578704 0.578704 0.578704 0.578703 0.578704 0.578704 0.578704 0.578704 0.578704 0.578703 0.578704 0.578704 0.578703 0.578703 0.578704 0.578704 0.289352 0.289352 0.578704 0.578704 0.578704 0.578704 0.578704 0.578704 0.578704 0.578704 0.578704 0.578704 0.578704 0.578704 0.578704 0.578704 0.578704 0.578704 0.578704 0.578704 0.578703 0.578704 0.578704 0.578704 0.578704 0.578704 0.578703 0.578704 0.578704 0.578703 0.578703 0.578704 0.578704 0.289352 0.144676 0.289352 0.289352 0.289352 0.289352 0.289352 0.289352 0.289352 0.289352 0.289352 0.289352 0.289352 0.289352 0.289352 0.289352 0.289352 0.289352 0.289352 0.289352 0.289352 0.289352 0.289352 0.289352 0.289352 0.289352 0.289352 0.289352 0.289352 0.289351 0.289352 0.289352 0.289352 0.144676 0.144676 0.289352 0.289352 0.289352 0.289352 0.289352 0.289352 0.289352 0.289352 0.289352 0.289352 0.289352 0.289352 0.289352 0.289352 0.289352 0.289352 0.289352 0.289352 0.289352 0.289352 0.289352 0.289352 0.289352 0.289352 0.289352 0.289352 0.289352 0.289352 0.289352 0.289352 0.289352 0.144676 0.289352 0.578704 0.578704 0.578704 0.578704 0.578704 0.578704 0.578704 0.578704 0.578704 0.578704 0.578704 0.578704 0.578704 0.578704 0.578704 0.578704 0.578704 0.578704 0.578703 0.578704 0.578704 0.578704 0.578704 0.578704 0.578704 0.578704 0.578704 0.578703 0.578703 0.578704 0.578704 0.289352 0.289352 0.578704 0.578704 0.578704 0.578704 0.578704 0.578704 0.578704 0.578704 0.578704 0.578704 0.578704 0.578704 0.578704 0.578704 0.578704 0.578704 0.578704 0.578704 0.578703 0.578704 0.578704 0.578704 0.578704 0.578704 0.578704 0.578704 0.578704 0.578703 0.578703 0.578704 0.578704 0.289352 0.289352 0.578704 0.578704 0.578704 0.578704 0.578704 0.578704 0.578704 0.578704 0.578704 0.578704 0.578704 0.578704 0.578704 0.578704 0.578704 0.578704 0.578704 0.578704 0.578703 0.578704 0.578704 0.578704 0.578704 0.578704 0.578703 0.578704 0.578704 0.578703 0.578703 0.578704 0.578704 0.289352 0.289352 0.578704 0.578704 0.578704 0.578704 0.578704 0.578704 0.578704 0.578704 0.578704 0.578704 0.578704 0.578704 0.578704 0.578704 0.578704 0.578704 0.578704 0.578703 0.578703 0.578704 0.578704 0.578703 0.578704 0.578704 0.578703 0.578704 0.578704 0.578703 0.578703 0.578704 0.578704 0.289352 0.289352 0.578704 0.578704 0.578704 0.578704 0.578704 0.578704 0.578704 0.578704 0.578704 0.578704 0.578704 0.578704 0.578704 0.578704 0.578704 0.578704 0.578704 0.578704 0.578703 0.578704 0.578704 0.578704 0.578704 0.578704 0.578704 0.578704 0.578704 0.578703 0.578703 0.578704 0.578704 0.289352 0.289352 0.578704 0.578704 0.578704 0.578704 0.578704 0.578704 0.578704 0.578704 0.578704 0.578704 0.578704 0.578704 0.578704 0.578704 0.578704 0.578704 0.578704 0.578704 0.578703 0.578704 0.578704 0.578704 0.578704 0.578704 0.578704 0.578704 0.578704 0.578703 0.578703 0.578704 0.578704 0.289352 0.289352 0.578704 0.578704 0.578704 0.578704 0.578704 0.578704 0.578704 0.578704 0.578704 0.578704 0.578704 0.578704 0.578704 0.578704 0.578704 0.578704 0.578704 0.578704 0.578703 0.578704 0.578704 0.578704 0.578704 0.578704 0.578703 0.578704 0.578704 0.578703 0.578703 0.578704 0.578704 0.289352 0.144676 0.289352 0.289352 0.289352 0.289352 0.289352 0.289352 0.289352 0.289352 0.289352 0.289352 0.289352 0.289352 0.289352 0.289352 0.289352 0.289352 0.289352 0.289352 0.289352 0.289352 0.289352 0.289352 0.289352 0.289352 0.289352 0.289352 0.289352 0.289351 0.289352 0.289352 0.289352 0.144676 0.144676 0.289352 0.289352 0.289352 0.289352 0.289352 0.289352 0.289352 0.289352 0.289352 0.289352 0.289352 0.289352 0.289352 0.289352 0.289352 0.289352 0.289352 0.289352 0.289352 0.289352 0.289352 0.289352 0.289352 0.289352 0.289352 0.289352 0.289352 0.289352 0.289352 0.289352 0.289352 0.144676 0.289352 0.578704 0.578704 0.578704 0.578704 0.578704 0.578704 0.578704 0.578704 0.578704 0.578704 0.578704 0.578704 0.578704 0.578704 0.578704 0.578704 0.578704 0.578704 0.578703 0.578704 0.578704 0.578704 0.578704 0.578704 0.578704 0.578704 0.578704 0.578703 0.578703 0.578704 0.578704 0.289352 0.289352 0.578704 0.578704 0.578704 0.578704 0.578704 0.578704 0.578704 0.578704 0.578704 0.578704 0.578704 0.578704 0.578704 0.578704 0.578704 0.578704 0.578704 0.578704 0.578703 0.578704 0.578704 0.578704 0.578704 0.578704 0.578704 0.578704 0.578704 0.578703 0.578703 0.578704 0.578704 0.289352 0.289352 0.578704 0.578704 0.578704 0.578704 0.578704 0.578704 0.578704 0.578704 0.578704 0.578704 0.578704 0.578704 0.578704 0.578704 0.578704 0.578704 0.578704 0.578704 0.578703 0.578704 0.578704 0.578704 0.578704 0.578704 0.578704 0.578704 0.578704 0.578703 0.578703 0.578704 0.578704 0.289352 0.289352 0.578704 0.578704 0.578704 0.578704 0.578704 0.578704 0.578704 0.578704 0.578704 0.578704 0.578704 0.578704 0.578704 0.578704 0.578704 0.578704 0.578704 0.578704 0.578703 0.578704 0.578704 0.578704 0.578704 0.578704 0.578704 0.578704 0.578704 0.578703 0.578703 0.578704 0.578704 0.289352 0.289352 0.578704 0.578704 0.578704 0.578704 0.578704 0.578704 0.578704 0.578704 0.578704 0.578704 0.578704 0.578704 0.578704 0.578704 0.578704 0.578704 0.578704 0.578704 0.578703 0.578704 0.578704 0.578704 0.578704 0.578704 0.578704 0.578704 0.578704 0.578703 0.578703 0.578704 0.578704 0.289352 0.289352 0.578704 0.578704 0.578704 0.578704 0.578704 0.578704 0.578704 0.578704 0.578704 0.578704 0.578704 0.578704 0.578704 0.578704 0.578704 0.578704 0.578704 0.578704 0.578703 0.578704 0.578704 0.578704 0.578704 0.578704 0.578704 0.578704 0.578704 0.578703 0.578703 0.578704 0.578704 0.289352 0.289352 0.578704 0.578704 0.578704 0.578704 0.578704 0.578704 0.578704 0.578704 0.578704 0.578704 0.578704 0.578704 0.578704 0.578704 0.578704 0.578704 0.578704 0.578704 0.578703 0.578704 0.578704 0.578704 0.578704 0.578704 0.578704 0.578704 0.578704 0.578703 0.578703 0.578704 0.578704 0.289352 0.144676 0.289352 0.289352 0.289352 0.289352 0.289352 0.289352 0.289352 0.289352 0.289352 0.289352 0.289352 0.289352 0.289352 0.289352 0.289352 0.289352 0.289352 0.289352 0.289352 0.289352 0.289352 0.289352 0.289352 0.289352 0.289352 0.289352 0.289352 0.289351 0.289352 0.289352 0.289352 0.144676 0.144676 0.289352 0.289352 0.289352 0.289352 0.289352 0.289352 0.289352 0.289352 0.289352 0.289352 0.289352 0.289352 0.289352 0.289352 0.289352 0.289352 0.289352 0.289352 0.289352 0.289352 0.289352 0.289352 0.289352 0.289352 0.289352 0.289352 0.289352 0.289351 0.289352 0.289352 0.289352 0.144676 0.289352 0.578704 0.578704 0.578704 0.578704 0.578704 0.578704 0.578704 0.578704 0.578704 0.578703 0.578704 0.578704 0.578704 0.578704 0.578704 0.578704 0.578704 0.578703 0.578703 0.578704 0.578704 0.578704 0.578704 0.578704 0.578703 0.578704 0.578704 0.578703 0.578703 0.578704 0.578704 0.289352 0.289352 0.578704 0.578704 0.578704 0.578704 0.578704 0.578704 0.578704 0.578704 0.578704 0.578704 0.578704 0.578704 0.578704 0.578704 0.578704 0.578704 0.578704 0.578703 0.578703 0.578704 0.578704 0.578703 0.578704 0.578704 0.578703 0.578704 0.578704 0.578703 0.578703 0.578704 0.578704 0.289352 0.289352 0.578704 0.578704 0.578704 0.578704 0.578704 0.578704 0.578704 0.578704 0.578704 0.578703 0.578704 0.578704 0.578704 0.578704 0.578704 0.578704 0.578704 0.578703 0.578703 0.578704 0.578704 0.578704 0.578704 0.578704 0.578703 0.578704 0.578704 0.578703 0.578703 0.578704 0.578704 0.289352 0.289352 0.578704 0.578704 0.578704 0.578704 0.578704 0.578704 0.578704 0.578704 0.578704 0.578703 0.578704 0.578704 0.578704 0.578704 0.578704 0.578704 0.578704 0.578703 0.578703 0.578704 0.578704 0.578703 0.578704 0.578704 0.578703 0.578704 0.578704 0.578703 0.578703 0.578704 0.578704 0.289352 0.289352 0.578704 0.578704 0.578704 0.578704 0.578704 0.578704 0.578704 0.578704 0.578704 0.578704 0.578704 0.578704 0.578704 0.578704 0.578704 0.578704 0.578704 0.578703 0.578703 0.578704 0.578704 0.578703 0.578704 0.578704 0.578704 0.578704 0.578704 0.578703 0.578703 0.578704 0.578704 0.289352 0.289352 0.578704 0.578704 0.578704 0.578704 0.578704 0.578704 0.578704 0.578704 0.578704 0.578704 0.578704 0.578704 0.578704 0.578704 0.578704 0.578704 0.578704 0.578704 0.578703 0.578704 0.578704 0.578704 0.578704 0.578704 0.578704 0.578704 0.578704 0.578703 0.578703 0.578704 0.578704 0.289352 0.289352 0.578704 0.578704 0.578704 0.578704 0.578704 0.578704 0.578704 0.578704 0.578704 0.578704 0.578704 0.578704 0.578704 0.578704 0.578704 0.578704 0.578704 0.578704 0.578703 0.578704 0.578704 0.578704 0.578704 0.578704 0.578703 0.578704 0.578704 0.578703 0.578703 0.578704 0.578704 0.289352 0.144676 0.289352 0.289352 0.289352 0.289352 0.289352 0.289352 0.289352 0.289352 0.289352 0.289352 0.289352 0.289352 0.289352 0.289352 0.289352 0.289352 0.289352 0.289352 0.289352 0.289352 0.289352 0.289352 0.289352 0.289352 0.289352 0.289352 0.289352 0.289351 0.289352 0.289352 0.289352 0.144676 0.144676 0.289352 0.289352 0.289352 0.289352 0.289352 0.289352 0.289352 0.289352 0.289352 0.289352 0.289352 0.289352 0.289352 0.289352 0.289352 0.289352 0.289352 0.289352 0.289352 0.289352 0.289352 0.289352 0.289352 0.289352 0.289352 0.289352 0.289352 0.289351 0.289352 0.289352 0.289352 0.144676 0.289352 0.578704 0.578704 0.578704 0.578704 0.578704 0.578704 0.578704 0.578704 0.578704 0.578704 0.578704 0.578704 0.578704 0.578704 0.578704 0.578704 0.578704 0.578703 0.578703 0.578704 0.578704 0.578704 0.578704 0.578704 0.578703 0.578704 0.578704 0.578703 0.578703 0.578704 0.578704 0.289352 0.289352 0.578704 0.578704 0.578704 0.578704 0.578704 0.578704 0.578704 0.578704 0.578704 0.578704 0.578704 0.578704 0.578704 0.578704 0.578704 0.578704 0.578704 0.578703 0.578703 0.578704 0.578704 0.578704 0.578704 0.578704 0.578704 0.578704 0.578704 0.578703 0.578703 0.578704 0.578704 0.289352 0.289352 0.578704 0.578704 0.578704 0.578704 0.578704 0.578704 0.578704 0.578704 0.578704 0.578704 0.578704 0.578704 0.578704 0.578704 0.578704 0.578704 0.578704 0.578703 0.578703 0.578704 0.578704 0.578703 0.578704 0.578704 0.578703 0.578704 0.578704 0.578703 0.578703 0.578704 0.578704 0.289352 0.289352 0.578704 0.578704 0.578704 0.578704 0.578704 0.578704 0.578704 0.578704 0.578704 0.578704 0.578704 0.578704 0.578704 0.578704 0.578704 0.578704 0.578704 0.578703 0.578703 0.578704 0.578704 0.578703 0.578704 0.578703 0.578703 0.578704 0.578704 0.578703 0.578703 0.578703 0.578704 0.289352 0.289352 0.578704 0.578704 0.578704 0.578704 0.578704 0.578704 0.578704 0.578704 0.578704 0.578704 0.578704 0.578704 0.578704 0.578704 0.578704 0.578704 0.578704 0.578703 0.578703 0.578704 0.578704 0.578704 0.578704 0.578704 0.578704 0.578704 0.578704 0.578703 0.578703 0.578704 0.578704 0.289352 0.289352 0.578704 0.578704 0.578704 0.578704 0.578704 0.578704 0.578704 0.578704 0.578704 0.578704 0.578704 0.578704 0.578704 0.578704 0.578704 0.578704 0.578704 0.578704 0.578703 0.578704 0.578704 0.578704 0.578704 0.578704 0.578704 0.578704 0.578704 0.578703 0.578703 0.578704 0.578704 0.289352 0.289352 0.578704 0.578704 0.578704 0.578704 0.578704 0.578704 0.578704 0.578704 0.578704 0.578704 0.578704 0.578704 0.578704 0.578704 0.578704 0.578704 0.578704 0.578703 0.578703 0.578704 0.578704 0.578704 0.578704 0.578704 0.578703 0.578704 0.578704 0.578703 0.578703 0.578704 0.578704 0.289352 0.144676 0.289352 0.289352 0.289352 0.289352 0.289352 0.289352 0.289352 0.289352 0.289352 0.289352 0.289352 0.289352 0.289352 0.289352 0.289352 0.289352 0.289352 0.289352 0.289352 0.289352 0.289352 0.289352 0.289352 0.289352 0.289352 0.289352 0.289352 0.289351 0.289352 0.289352 0.289352 0.144676 0.144676 0.289352 0.289352 0.289352 0.289352 0.289352 0.289352 0.289352 0.289352 0.289352 0.289352 0.289352 0.289352 0.289352 0.289352 0.289352 0.289352 0.289352 0.289352 0.289352 0.289352 0.289352 0.289352 0.289352 0.289352 0.289352 0.289352 0.289352 0.289352 0.289352 0.289352 0.289352 0.144676 0.289352 0.578704 0.578704 0.578704 0.578704 0.578704 0.578704 0.578704 0.578704 0.578704 0.578704 0.578704 0.578704 0.578704 0.578704 0.578704 0.578704 0.578704 0.578703 0.578703 0.578704 0.578704 0.578704 0.578704 0.578704 0.578703 0.578704 0.578704 0.578703 0.578703 0.578704 0.578704 0.289352 0.289352 0.578704 0.578704 0.578704 0.578704 0.578704 0.578704 0.578704 0.578704 0.578704 0.578704 0.578704 0.578704 0.578704 0.578704 0.578704 0.578704 0.578704 0.578703 0.578703 0.578704 0.578704 0.578704 0.578704 0.578704 0.578704 0.578704 0.578704 0.578703 0.578703 0.578704 0.578704 0.289352 0.289352 0.578704 0.578704 0.578704 0.578704 0.578704 0.578704 0.578704 0.578704 0.578704 0.578704 0.578704 0.578704 0.578704 0.578704 0.578704 0.578704 0.578704 0.578703 0.578703 0.578704 0.578704 0.578704 0.578704 0.578704 0.578703 0.578704 0.578704 0.578703 0.578703 0.578704 0.578704 0.289352 0.289352 0.578704 0.578704 0.578704 0.578704 0.578704 0.578704 0.578704 0.578704 0.578704 0.578703 0.578704 0.578704 0.578704 0.578704 0.578704 0.578704 0.578704 0.578703 0.578703 0.578704 0.578704 0.578703 0.578704 0.578704 0.578703 0.578704 0.578704 0.578703 0.578703 0.578704 0.578704 0.289352 0.289352 0.578704 0.578704 0.578704 0.578704 0.578704 0.578704 0.578704 0.578704 0.578704 0.578704 0.578704 0.578704 0.578704 0.578704 0.578704 0.578704 0.578704 0.578703 0.578703 0.578704 0.578704 0.578703 0.578704 0.578704 0.578703 0.578704 0.578704 0.578703 0.578703 0.578704 0.578704 0.289352 0.289352 0.578704 0.578704 0.578704 0.578704 0.578704 0.578704 0.578704 0.578704 0.578704 0.578704 0.578704 0.578704 0.578704 0.578704 0.578704 0.578704 0.578704 0.578704 0.578703 0.578704 0.578704 0.578704 0.578704 0.578704 0.578703 0.578704 0.578704 0.578703 0.578703 0.578704 0.578704 0.289352 0.289352 0.578704 0.578704 0.578704 0.578704 0.578704 0.578704 0.578704 0.578704 0.578704 0.578704 0.578704 0.578704 0.578704 0.578704 0.578704 0.578704 0.578704 0.578704 0.578703 0.578704 0.578704 0.578704 0.578704 0.578704 0.578703 0.578704 0.578704 0.578703 0.578703 0.578704 0.578704 0.289352 0.144676 0.289352 0.289352 0.289352 0.289352 0.289352 0.289352 0.289352 0.289352 0.289352 0.289352 0.289352 0.289352 0.289352 0.289352 0.289352 0.289352 0.289352 0.289352 0.289352 0.289352 0.289352 0.289352 0.289352 0.289352 0.289352 0.289352 0.289352 0.289351 0.289352 0.289352 0.289352 0.144676 0.144676 0.289352 0.289352 0.289352 0.289352 0.289352 0.289352 0.289352 0.289352 0.289352 0.289352 0.289352 0.289352 0.289352 0.289352 0.289352 0.289352 0.289352 0.289352 0.289352 0.289352 0.289352 0.289352 0.289352 0.289352 0.289352 0.289352 0.289352 0.289352 0.289352 0.289352 0.289352 0.144676 0.289352 0.578704 0.578704 0.578704 0.578704 0.578704 0.578704 0.578704 0.578704 0.578704 0.578704 0.578704 0.578704 0.578704 0.578704 0.578704 0.578704 0.578704 0.578704 0.578703 0.578704 0.578704 0.578704 0.578704 0.578704 0.578703 0.578704 0.578704 0.578703 0.578703 0.578704 0.578704 0.289352 0.289352 0.578704 0.578704 0.578704 0.578704 0.578704 0.578704 0.578704 0.578704 0.578704 0.578704 0.578704 0.578704 0.578704 0.578704 0.578704 0.578704 0.578704 0.578703 0.578703 0.578704 0.578704 0.578704 0.578704 0.578704 0.578703 0.578704 0.578704 0.578703 0.578703 0.578704 0.578704 0.289352 0.289352 0.578704 0.578704 0.578704 0.578704 0.578704 0.578704 0.578704 0.578704 0.578704 0.578704 0.578704 0.578704 0.578704 0.578704 0.578704 0.578704 0.578704 0.578703 0.578703 0.578704 0.578704 0.578704 0.578704 0.578704 0.578703 0.578704 0.578704 0.578703 0.578703 0.578704 0.578704 0.289352 0.289352 0.578704 0.578704 0.578704 0.578704 0.578704 0.578704 0.578704 0.578704 0.578704 0.578703 0.578704 0.578704 0.578704 0.578704 0.578704 0.578704 0.578704 0.578703 0.578703 0.578704 0.578704 0.578703 0.578704 0.578704 0.578703 0.578704 0.578704 0.578703 0.578703 0.578704 0.578704 0.289352 0.289352 0.578704 0.578704 0.578704 0.578704 0.578704 0.578704 0.578704 0.578704 0.578704 0.578704 0.578704 0.578704 0.578704 0.578704 0.578704 0.578704 0.578704 0.578703 0.578703 0.578704 0.578704 0.578703 0.578704 0.578704 0.578704 0.578704 0.578704 0.578703 0.578703 0.578704 0.578704 0.289352 0.289352 0.578704 0.578704 0.578704 0.578704 0.578704 0.578704 0.578704 0.578704 0.578704 0.578704 0.578704 0.578704 0.578704 0.578704 0.578704 0.578704 0.578704 0.578704 0.578703 0.578704 0.578704 0.578704 0.578704 0.578704 0.578704 0.578704 0.578704 0.578703 0.578703 0.578704 0.578704 0.289352 0.289352 0.578704 0.578704 0.578704 0.578704 0.578704 0.578704 0.578704 0.578704 0.578704 0.578704 0.578704 0.578704 0.578704 0.578704 0.578704 0.578704 0.578704 0.578703 0.578703 0.578704 0.578704 0.578703 0.578704 0.578704 0.578703 0.578704 0.578704 0.578703 0.578703 0.578704 0.578704 0.289352 0.144676 0.289352 0.289352 0.289352 0.289352 0.289352 0.289352 0.289352 0.289352 0.289352 0.289352 0.289352 0.289352 0.289352 0.289352 0.289352 0.289352 0.289352 0.289352 0.289352 0.289352 0.289352 0.289352 0.289352 0.289352 0.289352 0.289352 0.289352 0.289351 0.289352 0.289352 0.289352 0.144676 0.072338 0.144676 0.144676 0.144676 0.144676 0.144676 0.144676 0.144676 0.144676 0.144676 0.144676 0.144676 0.144676 0.144676 0.144676 0.144676 0.144676 0.144676 0.144676 0.144676 0.144676 0.144676 0.144676 0.144676 0.144676 0.144676 0.144676 0.144676 0.144676 0.144676 0.144676 0.144676 0.072338 0.144676 0.289352 0.289352 0.289352 0.289352 0.289352 0.289352 0.289352 0.289352 0.289352 0.289352 0.289352 0.289352 0.289352 0.289352 0.289352 0.289352 0.289352 0.289352 0.289352 0.289352 0.289352 0.289352 0.289352 0.289352 0.289352 0.289352 0.289352 0.289352 0.289352 0.289352 0.289352 0.144676 0.144676 0.289352 0.289352 0.289352 0.289352 0.289352 0.289352 0.289352 0.289352 0.289352 0.289352 0.289352 0.289352 0.289352 0.289352 0.289352 0.289352 0.289352 0.289352 0.289352 0.289352 0.289352 0.289352 0.289352 0.289352 0.289352 0.289352 0.289352 0.289352 0.289352 0.289352 0.289352 0.144676 0.144676 0.289352 0.289352 0.289352 0.289352 0.289352 0.289352 0.289352 0.289352 0.289352 0.289352 0.289352 0.289352 0.289352 0.289352 0.289352 0.289352 0.289352 0.289352 0.289352 0.289352 0.289352 0.289352 0.289352 0.289352 0.289352 0.289352 0.289352 0.289351 0.289352 0.289352 0.289352 0.144676 0.144676 0.289352 0.289352 0.289352 0.289352 0.289352 0.289352 0.289352 0.289352 0.289352 0.289352 0.289352 0.289352 0.289352 0.289352 0.289352 0.289352 0.289352 0.289352 0.289352 0.289352 0.289352 0.289352 0.289352 0.289352 0.289352 0.289352 0.289352 0.289351 0.289352 0.289352 0.289352 0.144676 0.144676 0.289352 0.289352 0.289352 0.289352 0.289352 0.289352 0.289352 0.289352 0.289352 0.289352 0.289352 0.289352 0.289352 0.289352 0.289352 0.289352 0.289352 0.289352 0.289352 0.289352 0.289352 0.289352 0.289352 0.289352 0.289352 0.289352 0.289352 0.289351 0.289352 0.289352 0.289352 0.144676 0.144676 0.289352 0.289352 0.289352 0.289352 0.289352 0.289352 0.289352 0.289352 0.289352 0.289352 0.289352 0.289352 0.289352 0.289352 0.289352 0.289352 0.289352 0.289352 0.289352 0.289352 0.289352 0.289352 0.289352 0.289352 0.289352 0.289352 0.289352 0.289352 0.289352 0.289352 0.289352 0.144676 0.144676 0.289352 0.289352 0.289352 0.289352 0.289352 0.289352 0.289352 0.289352 0.289352 0.289352 0.289352 0.289352 0.289352 0.289352 0.289352 0.289352 0.289352 0.289352 0.289352 0.289352 0.289352 0.289352 0.289352 0.289352 0.289352 0.289352 0.289352 0.289351 0.289352 0.289352 0.289352 0.144676 0.072338 0.144676 0.144676 0.144676 0.144676 0.144676 0.144676 0.144676 0.144676 0.144676 0.144676 0.144676 0.144676 0.144676 0.144676 0.144676 0.144676 0.144676 0.144676 0.144676 0.144676 0.144676 0.144676 0.144676 0.144676 0.144676 0.144676 0.144676 0.144676 0.144676 0.144676 0.144676 0.072338 0.072338 0.144676 0.144676 0.072338 0.072338 0.144676 0.289352 0.144676 0.144676 0.289352 0.289352 0.144676 0.072338 0.072338 0.144676 0.144676 0.072338 0.144676 0.072338 0.072338 0.144676 0.144676 0.144676 0.289352 0.144676 0.289352 0.289352 0.072338 0.072338 0.144676 0.144676 0.144676 0.072338 0.072338 0.144676 0.144676 0.144676 0.289352 0.144676 0.289352 0.289352 0.072338 0.072338 0.144676 0.144676 0.144676 0.072338 0.072338 0.144676 0.144676 0.144676 0.289352 0.144676 0.289352 0.289352 0.072338 0.072338 0.144676 0.144676 0.144676 0.072338 0.072338 0.144676 0.144676 0.144676 0.289352 0.144676 0.289352 0.289352 0.072338 0.072338 0.144676 0.144676 0.144676 0.072338 0.072338 0.144676 0.144676 0.144676 0.289352 0.144676 0.289352 0.289352 0.072338 0.072338 0.144676 0.144676 0.144676 0.072338 0.072338 0.144676 0.144676 0.144676 0.289352 0.144676 0.289352 0.289352 0.072338 0.072338 0.144676 0.144676 0.144676 0.072338 0.072338 0.144676 0.144676 0.144676 0.289352 0.144676 0.289352 0.289352 0.072338 0.072338 0.144676 0.144676 0.144676 0.072338 0.072338 0.144676 0.144676 0.144676 0.289352 0.144676 0.289352 0.289352 0.072338 0.072338 0.144676 0.144676 0.144676 0.072338 0.072338 0.144676 0.144676 0.144676 0.289352 0.144676 0.289352 0.289352 0.072338 0.072338 0.144676 0.144676 0.144676 0.072338 0.072338 0.144676 0.144676 0.144676 0.289352 0.144676 0.289352 0.289352 0.072338 0.072338 0.144676 0.144676 0.144676 0.072338 0.072338 0.144676 0.144676 0.144676 0.289352 0.144676 0.289352 0.289352 0.072338 0.072338 0.144676 0.144676 0.144676 0.072338 0.072338 0.144676 0.144676 0.144676 0.289352 0.144676 0.289352 0.289352 0.072338 0.072338 0.144676 0.144676 0.144676 0.072338 0.072338 0.144676 0.144676 0.144676 0.289352 0.144676 0.289352 0.289352 0.072338 0.072338 0.144676 0.144676 0.144676 0.072338 0.0723379 0.144676 0.144676 0.144676 0.289352 0.144676 0.289352 0.289352 0.0723379 0.0723379 0.144676 0.144676 0.144676 0.0723379 0.072338 0.144676 0.144676 0.144676 0.289352 0.144676 0.289352 0.289352 0.072338 0.072338 0.144676 0.144676 0.144676 0.072338 0.072338 0.144676 0.144676 0.144676 0.289352 0.144676 0.289352 0.289352 0.072338 0.072338 0.144676 0.144676 0.144676 0.072338 0.072338 0.144676 0.144676 0.144676 0.289352 0.144676 0.289352 0.289352 0.072338 0.072338 0.144676 0.144676 0.144676 0.072338 0.0723379 0.144676 0.144676 0.144676 0.289352 0.144676 0.289352 0.289352 0.0723379 0.0723379 0.144676 0.144676 0.144676 0.0723379 0.0723379 0.144676 0.144676 0.144676 0.289352 0.144676 0.289352 0.289352 0.0723379 0.0723379 0.144676 0.144676 0.144676 0.0723379 0.072338 0.144676 0.144676 0.144676 0.289352 0.144676 0.289352 0.289352 0.072338 0.072338 0.144676 0.144676 0.144676 0.072338 0.072338 0.144676 0.144676 0.144676 0.289352 0.144676 0.289352 0.289352 0.072338 0.072338 0.144676 0.144676 0.144676 0.072338 0.0723379 0.144676 0.144676 0.144676 0.289352 0.144676 0.289352 0.289352 0.0723379 0.0723379 0.144676 0.144676 0.144676 0.0723379 0.072338 0.144676 0.144676 0.144676 0.289352 0.144676 0.289352 0.289352 0.072338 0.072338 0.144676 0.144676 0.144676 0.072338 0.0723379 0.144676 0.144676 0.144676 0.289352 0.144676 0.289352 0.289352 0.0723379 0.0723379 0.144676 0.144676 0.144676 0.0723379 0.072338 0.144676 0.144676 0.144676 0.289352 0.144676 0.289352 0.289352 0.072338 0.072338 0.144676 0.144676 0.144676 0.072338 0.0723381 0.144676 0.144676 0.144676 0.289352 0.144676 0.289352 0.289352 0.0723381 0.0723381 0.144676 0.144676 0.144676 0.0723381 0.0723379 0.144676 0.144676 0.144676 0.289351 0.144676 0.289351 0.289352 0.0723379 0.0723379 0.144676 0.144676 0.144676 0.0723379 0.0723378 0.144676 0.144676 0.144676 0.289352 0.144676 0.289352 0.289351 0.0723378 0.0723378 0.144676 0.144676 0.144676 0.0723378 0.072338 0.144676 0.144676 0.144676 0.289352 0.144676 0.289352 0.289352 0.072338 0.072338 0.144676 0.144676 0.144676 0.072338 0.0723379 0.144676 0.144676 0.144676 0.289352 0.144676 0.289352 0.289352 0.0723379 0.0723379 0.144676 0.144676 0.144676 0.0723379 0.072338 0.072338 0.144676 0.072338 0.144676 0.144676 0.144676 0.289352 0.072338 0.072338 0.072338 0.144676 0.144676 0.072338 0.072338 0.144676 0.289352 0.144676 0.144676 0.289352 0.289352 0.144676 0.072338 0.144676 0.144676 0.072338 0.144676 0.072338 0.144676 0.289352 0.144676 0.289352 0.289352 0.072338 0.144676 0.144676 0.144676 0.072338 0.144676 0.289352 0.144676 0.289352 0.289352 0.072338 0.144676 0.144676 0.144676 0.072338 0.144676 0.289352 0.144676 0.289352 0.289352 0.072338 0.144676 0.144676 0.144676 0.072338 0.144676 0.289352 0.144676 0.289352 0.289352 0.072338 0.144676 0.144676 0.144676 0.072338 0.144676 0.289352 0.144676 0.289352 0.289352 0.072338 0.144676 0.144676 0.144676 0.072338 0.144676 0.289352 0.144676 0.289352 0.289352 0.072338 0.144676 0.144676 0.144676 0.072338 0.144676 0.289352 0.144676 0.289352 0.289352 0.072338 0.144676 0.144676 0.144676 0.072338 0.144676 0.289352 0.144676 0.289352 0.289352 0.072338 0.144676 0.144676 0.144676 0.072338 0.144676 0.289352 0.144676 0.289352 0.289352 0.072338 0.144676 0.144676 0.144676 0.072338 0.144676 0.289352 0.144676 0.289352 0.289352 0.072338 0.144676 0.144676 0.144676 0.072338 0.144676 0.289352 0.144676 0.289352 0.289352 0.072338 0.144676 0.144676 0.144676 0.072338 0.144676 0.289352 0.144676 0.289352 0.289352 0.072338 0.144676 0.144676 0.144676 0.072338 0.144676 0.289352 0.144676 0.289352 0.289352 0.072338 0.144676 0.144676 0.144676 0.072338 0.144676 0.289352 0.144676 0.289352 0.289352 0.0723379 0.144676 0.144676 0.144676 0.0723379 0.144676 0.289352 0.144676 0.289352 0.289352 0.072338 0.144676 0.144676 0.144676 0.072338 0.144676 0.289352 0.144676 0.289352 0.289352 0.072338 0.144676 0.144676 0.144676 0.072338 0.144676 0.289352 0.144676 0.289352 0.289352 0.0723379 0.144676 0.144676 0.144676 0.0723379 0.144676 0.289352 0.144676 0.289352 0.289352 0.0723379 0.144676 0.144676 0.144676 0.0723379 0.144676 0.289352 0.144676 0.289352 0.289352 0.0723379 0.144676 0.144676 0.144676 0.0723379 0.144676 0.289352 0.144676 0.289352 0.289352 0.072338 0.144676 0.144676 0.144676 0.072338 0.144676 0.289352 0.144676 0.289352 0.289352 0.0723379 0.144676 0.144676 0.144676 0.0723379 0.144676 0.289352 0.144676 0.289352 0.289352 0.0723379 0.144676 0.144676 0.144676 0.0723379 0.144676 0.289352 0.144676 0.289352 0.289352 0.072338 0.144676 0.144676 0.144676 0.072338 0.144676 0.289352 0.144676 0.289352 0.289352 0.0723379 0.144676 0.144676 0.144676 0.0723379 0.144676 0.289352 0.144676 0.289352 0.289352 0.072338 0.144676 0.144676 0.144676 0.072338 0.144676 0.289352 0.144676 0.289352 0.289352 0.0723381 0.144676 0.144676 0.144676 0.0723381 0.144676 0.289351 0.144676 0.289351 0.289352 0.0723379 0.144676 0.144676 0.144676 0.0723379 0.144676 0.289352 0.144676 0.289352 0.289351 0.0723378 0.144676 0.144676 0.144676 0.0723378 0.144676 0.289352 0.144676 0.289352 0.289352 0.072338 0.144676 0.144676 0.144676 0.072338 0.144676 0.289352 0.144676 0.289352 0.289352 0.0723379 0.144676 0.144676 0.144676 0.0723379 0.072338 0.144676 0.144676 0.144676 0.289352 0.072338 0.072338 0.144676 0.144676 0.072338 0.072338 0.144676 0.289352 0.144676 0.144676 0.289352 0.289352 0.144676 0.072338 0.144676 0.144676 0.072338 0.144676 0.072338 0.144676 0.289352 0.144676 0.289352 0.289352 0.072338 0.144676 0.144676 0.144676 0.072338 0.144676 0.289352 0.144676 0.289352 0.289352 0.072338 0.144676 0.144676 0.144676 0.072338 0.144676 0.289352 0.144676 0.289352 0.289352 0.072338 0.144676 0.144676 0.144676 0.072338 0.144676 0.289352 0.144676 0.289352 0.289352 0.072338 0.144676 0.144676 0.144676 0.072338 0.144676 0.289352 0.144676 0.289352 0.289352 0.072338 0.144676 0.144676 0.144676 0.072338 0.144676 0.289352 0.144676 0.289352 0.289352 0.072338 0.144676 0.144676 0.144676 0.072338 0.144676 0.289352 0.144676 0.289352 0.289352 0.072338 0.144676 0.144676 0.144676 0.072338 0.144676 0.289352 0.144676 0.289352 0.289352 0.072338 0.144676 0.144676 0.144676 0.072338 0.144676 0.289352 0.144676 0.289352 0.289352 0.0723379 0.144676 0.144676 0.144676 0.0723379 0.144676 0.289352 0.144676 0.289352 0.289352 0.072338 0.144676 0.144676 0.144676 0.072338 0.144676 0.289352 0.144676 0.289352 0.289352 0.072338 0.144676 0.144676 0.144676 0.072338 0.144676 0.289352 0.144676 0.289352 0.289352 0.072338 0.144676 0.144676 0.144676 0.072338 0.144676 0.289352 0.144676 0.289352 0.289352 0.072338 0.144676 0.144676 0.144676 0.072338 0.144676 0.289352 0.144676 0.289352 0.289352 0.0723379 0.144676 0.144676 0.144676 0.0723379 0.144676 0.289352 0.144676 0.289352 0.289352 0.072338 0.144676 0.144676 0.144676 0.072338 0.144676 0.289352 0.144676 0.289352 0.289352 0.072338 0.144676 0.144676 0.144676 0.072338 0.144676 0.289352 0.144676 0.289352 0.289352 0.0723379 0.144676 0.144676 0.144676 0.0723379 0.144676 0.289352 0.144676 0.289352 0.289352 0.0723379 0.144676 0.144676 0.144676 0.0723379 0.144676 0.289352 0.144676 0.289352 0.289352 0.0723379 0.144676 0.144676 0.144676 0.0723379 0.144676 0.289352 0.144676 0.289352 0.289352 0.072338 0.144676 0.144676 0.144676 0.072338 0.144676 0.289352 0.144676 0.289352 0.289352 0.072338 0.144676 0.144676 0.144676 0.072338 0.144676 0.289352 0.144676 0.289352 0.289352 0.0723379 0.144676 0.144676 0.144676 0.0723379 0.144676 0.289352 0.144676 0.289352 0.289352 0.072338 0.144676 0.144676 0.144676 0.072338 0.144676 0.289352 0.144676 0.289352 0.289352 0.0723379 0.144676 0.144676 0.144676 0.0723379 0.144676 0.289352 0.144676 0.289352 0.289352 0.072338 0.144676 0.144676 0.144676 0.072338 0.144676 0.289352 0.144676 0.289352 0.289352 0.0723381 0.144676 0.144676 0.144676 0.0723381 0.144676 0.289351 0.144676 0.289351 0.289352 0.0723379 0.144676 0.144676 0.144676 0.0723379 0.144676 0.289352 0.144676 0.289352 0.289351 0.0723378 0.144676 0.144676 0.144676 0.0723378 0.144676 0.289352 0.144676 0.289352 0.289352 0.072338 0.144676 0.144676 0.144676 0.072338 0.144676 0.289352 0.144676 0.289352 0.289352 0.0723379 0.144676 0.144676 0.144676 0.0723379 0.072338 0.144676 0.144676 0.144676 0.289352 0.072338 0.072338 0.144676 0.144676 0.072338 0.072338 0.144676 0.289352 0.144676 0.144676 0.289352 0.289352 0.144676 0.072338 0.144676 0.144676 0.072338 0.144676 0.072338 0.144676 0.289352 0.144676 0.289352 0.289352 0.072338 0.144676 0.144676 0.144676 0.072338 0.144676 0.289352 0.144676 0.289352 0.289352 0.072338 0.144676 0.144676 0.144676 0.072338 0.144676 0.289352 0.144676 0.289352 0.289352 0.0723379 0.144676 0.144676 0.144676 0.0723379 0.144676 0.289352 0.144676 0.289352 0.289352 0.072338 0.144676 0.144676 0.144676 0.072338 0.144676 0.289352 0.144676 0.289352 0.289352 0.072338 0.144676 0.144676 0.144676 0.072338 0.144676 0.289352 0.144676 0.289352 0.289352 0.072338 0.144676 0.144676 0.144676 0.072338 0.144676 0.289352 0.144676 0.289352 0.289352 0.072338 0.144676 0.144676 0.144676 0.072338 0.144676 0.289352 0.144676 0.289352 0.289352 0.072338 0.144676 0.144676 0.144676 0.072338 0.144676 0.289352 0.144676 0.289352 0.289352 0.0723379 0.144676 0.144676 0.144676 0.0723379 0.144676 0.289352 0.144676 0.289352 0.289352 0.0723379 0.144676 0.144676 0.144676 0.0723379 0.144676 0.289352 0.144676 0.289352 0.289352 0.072338 0.144676 0.144676 0.144676 0.072338 0.144676 0.289352 0.144676 0.289352 0.289352 0.072338 0.144676 0.144676 0.144676 0.072338 0.144676 0.289352 0.144676 0.289352 0.289352 0.072338 0.144676 0.144676 0.144676 0.072338 0.144676 0.289352 0.144676 0.289352 0.289352 0.0723379 0.144676 0.144676 0.144676 0.0723379 0.144676 0.289352 0.144676 0.289352 0.289352 0.072338 0.144676 0.144676 0.144676 0.072338 0.144676 0.289352 0.144676 0.289352 0.289352 0.072338 0.144676 0.144676 0.144676 0.072338 0.144676 0.289352 0.144676 0.289352 0.289352 0.0723379 0.144676 0.144676 0.144676 0.0723379 0.144676 0.289352 0.144676 0.289352 0.289352 0.0723379 0.144676 0.144676 0.144676 0.0723379 0.144676 0.289352 0.144676 0.289352 0.289352 0.0723379 0.144676 0.144676 0.144676 0.0723379 0.144676 0.289352 0.144676 0.289352 0.289352 0.072338 0.144676 0.144676 0.144676 0.072338 0.144676 0.289352 0.144676 0.289352 0.289352 0.0723379 0.144676 0.144676 0.144676 0.0723379 0.144676 0.289352 0.144676 0.289352 0.289352 0.0723379 0.144676 0.144676 0.144676 0.0723379 0.144676 0.289352 0.144676 0.289352 0.289352 0.072338 0.144676 0.144676 0.144676 0.072338 0.144676 0.289352 0.144676 0.289352 0.289352 0.0723379 0.144676 0.144676 0.144676 0.0723379 0.144676 0.289352 0.144676 0.289352 0.289352 0.0723379 0.144676 0.144676 0.144676 0.0723379 0.144676 0.289352 0.144676 0.289352 0.289352 0.0723381 0.144676 0.144676 0.144676 0.0723381 0.144676 0.289351 0.144676 0.289351 0.289352 0.0723379 0.144676 0.144676 0.144676 0.0723379 0.144676 0.289352 0.144676 0.289352 0.289351 0.0723378 0.144676 0.144676 0.144676 0.0723378 0.144676 0.289352 0.144676 0.289352 0.289352 0.072338 0.144676 0.144676 0.144676 0.072338 0.144676 0.289352 0.144676 0.289352 0.289352 0.0723379 0.144676 0.144676 0.144676 0.0723379 0.072338 0.144676 0.144676 0.144676 0.289352 0.072338 0.072338 0.144676 0.144676 0.072338 0.072338 0.144676 0.289352 0.144676 0.144676 0.289352 0.289352 0.144676 0.072338 0.144676 0.144676 0.072338 0.144676 0.072338 0.144676 0.289352 0.144676 0.289352 0.289352 0.072338 0.144676 0.144676 0.144676 0.072338 0.144676 0.289352 0.144676 0.289352 0.289352 0.072338 0.144676 0.144676 0.144676 0.072338 0.144676 0.289352 0.144676 0.289352 0.289352 0.0723379 0.144676 0.144676 0.144676 0.0723379 0.144676 0.289352 0.144676 0.289352 0.289352 0.072338 0.144676 0.144676 0.144676 0.072338 0.144676 0.289352 0.144676 0.289352 0.289352 0.072338 0.144676 0.144676 0.144676 0.072338 0.144676 0.289352 0.144676 0.289352 0.289352 0.072338 0.144676 0.144676 0.144676 0.072338 0.144676 0.289352 0.144676 0.289352 0.289352 0.072338 0.144676 0.144676 0.144676 0.072338 0.144676 0.289352 0.144676 0.289352 0.289352 0.072338 0.144676 0.144676 0.144676 0.072338 0.144676 0.289352 0.144676 0.289352 0.289352 0.0723379 0.144676 0.144676 0.144676 0.0723379 0.144676 0.289352 0.144676 0.289352 0.289352 0.0723379 0.144676 0.144676 0.144676 0.0723379 0.144676 0.289352 0.144676 0.289352 0.289352 0.072338 0.144676 0.144676 0.144676 0.072338 0.144676 0.289352 0.144676 0.289352 0.289352 0.072338 0.144676 0.144676 0.144676 0.072338 0.144676 0.289352 0.144676 0.289352 0.289352 0.072338 0.144676 0.144676 0.144676 0.072338 0.144676 0.289352 0.144676 0.289352 0.289352 0.0723379 0.144676 0.144676 0.144676 0.0723379 0.144676 0.289352 0.144676 0.289352 0.289352 0.072338 0.144676 0.144676 0.144676 0.072338 0.144676 0.289352 0.144676 0.289352 0.289352 0.072338 0.144676 0.144676 0.144676 0.072338 0.144676 0.289352 0.144676 0.289352 0.289352 0.0723379 0.144676 0.144676 0.144676 0.0723379 0.144676 0.289352 0.144676 0.289352 0.289352 0.0723379 0.144676 0.144676 0.144676 0.0723379 0.144676 0.289352 0.144676 0.289352 0.289352 0.0723379 0.144676 0.144676 0.144676 0.0723379 0.144676 0.289352 0.144676 0.289352 0.289352 0.072338 0.144676 0.144676 0.144676 0.072338 0.144676 0.289352 0.144676 0.289352 0.289352 0.0723379 0.144676 0.144676 0.144676 0.0723379 0.144676 0.289352 0.144676 0.289352 0.289352 0.0723379 0.144676 0.144676 0.144676 0.0723379 0.144676 0.289352 0.144676 0.289352 0.289352 0.072338 0.144676 0.144676 0.144676 0.072338 0.144676 0.289352 0.144676 0.289352 0.289352 0.0723379 0.144676 0.144676 0.144676 0.0723379 0.144676 0.289352 0.144676 0.289352 0.289352 0.0723379 0.144676 0.144676 0.144676 0.0723379 0.144676 0.289352 0.144676 0.289352 0.289352 0.0723381 0.144676 0.144676 0.144676 0.0723381 0.144676 0.289351 0.144676 0.289351 0.289352 0.0723379 0.144676 0.144676 0.144676 0.0723379 0.144676 0.289352 0.144676 0.289352 0.289351 0.0723378 0.144676 0.144676 0.144676 0.0723378 0.144676 0.289352 0.144676 0.289352 0.289352 0.072338 0.144676 0.144676 0.144676 0.072338 0.144676 0.289352 0.144676 0.289352 0.289352 0.0723379 0.144676 0.144676 0.144676 0.0723379 0.072338 0.144676 0.144676 0.144676 0.289352 0.072338 0.072338 0.144676 0.144676 0.072338 0.072338 0.144676 0.289352 0.144676 0.144676 0.289352 0.289352 0.144676 0.072338 0.144676 0.144676 0.072338 0.144676 0.072338 0.144676 0.289352 0.144676 0.289352 0.289352 0.072338 0.144676 0.144676 0.144676 0.072338 0.144676 0.289352 0.144676 0.289352 0.289352 0.072338 0.144676 0.144676 0.144676 0.072338 0.144676 0.289352 0.144676 0.289352 0.289352 0.072338 0.144676 0.144676 0.144676 0.072338 0.144676 0.289352 0.144676 0.289352 0.289352 0.072338 0.144676 0.144676 0.144676 0.072338 0.144676 0.289352 0.144676 0.289352 0.289352 0.072338 0.144676 0.144676 0.144676 0.072338 0.144676 0.289352 0.144676 0.289352 0.289352 0.072338 0.144676 0.144676 0.144676 0.072338 0.144676 0.289352 0.144676 0.289352 0.289352 0.072338 0.144676 0.144676 0.144676 0.072338 0.144676 0.289352 0.144676 0.289352 0.289352 0.072338 0.144676 0.144676 0.144676 0.072338 0.144676 0.289352 0.144676 0.289352 0.289352 0.072338 0.144676 0.144676 0.144676 0.072338 0.144676 0.289352 0.144676 0.289352 0.289352 0.072338 0.144676 0.144676 0.144676 0.072338 0.144676 0.289352 0.144676 0.289352 0.289352 0.072338 0.144676 0.144676 0.144676 0.072338 0.144676 0.289352 0.144676 0.289352 0.289352 0.072338 0.144676 0.144676 0.144676 0.072338 0.144676 0.289352 0.144676 0.289352 0.289352 0.072338 0.144676 0.144676 0.144676 0.072338 0.144676 0.289352 0.144676 0.289352 0.289352 0.0723379 0.144676 0.144676 0.144676 0.0723379 0.144676 0.289352 0.144676 0.289352 0.289352 0.072338 0.144676 0.144676 0.144676 0.072338 0.144676 0.289352 0.144676 0.289352 0.289352 0.072338 0.144676 0.144676 0.144676 0.072338 0.144676 0.289352 0.144676 0.289352 0.289352 0.072338 0.144676 0.144676 0.144676 0.072338 0.144676 0.289352 0.144676 0.289352 0.289352 0.0723379 0.144676 0.144676 0.144676 0.0723379 0.144676 0.289352 0.144676 0.289352 0.289352 0.0723379 0.144676 0.144676 0.144676 0.0723379 0.144676 0.289352 0.144676 0.289352 0.289352 0.072338 0.144676 0.144676 0.144676 0.072338 0.144676 0.289352 0.144676 0.289352 0.289352 0.072338 0.144676 0.144676 0.144676 0.072338 0.144676 0.289352 0.144676 0.289352 0.289352 0.0723379 0.144676 0.144676 0.144676 0.0723379 0.144676 0.289352 0.144676 0.289352 0.289352 0.072338 0.144676 0.144676 0.144676 0.072338 0.144676 0.289352 0.144676 0.289352 0.289352 0.0723379 0.144676 0.144676 0.144676 0.0723379 0.144676 0.289352 0.144676 0.289352 0.289352 0.072338 0.144676 0.144676 0.144676 0.072338 0.144676 0.289352 0.144676 0.289352 0.289352 0.0723381 0.144676 0.144676 0.144676 0.0723381 0.144676 0.289352 0.144676 0.289352 0.289352 0.0723379 0.144676 0.144676 0.144676 0.0723379 0.144676 0.289352 0.144676 0.289352 0.289351 0.0723378 0.144676 0.144676 0.144676 0.0723378 0.144676 0.289352 0.144676 0.289352 0.289352 0.072338 0.144676 0.144676 0.144676 0.072338 0.144676 0.289352 0.144676 0.289352 0.289352 0.0723379 0.144676 0.144676 0.144676 0.0723379 0.072338 0.144676 0.144676 0.144676 0.289352 0.072338 0.072338 0.144676 0.144676 0.072338 0.072338 0.144676 0.289352 0.144676 0.144676 0.289352 0.289352 0.144676 0.072338 0.144676 0.144676 0.072338 0.144676 0.072338 0.144676 0.289352 0.144676 0.289352 0.289352 0.072338 0.144676 0.144676 0.144676 0.072338 0.144676 0.289352 0.144676 0.289352 0.289352 0.072338 0.144676 0.144676 0.144676 0.072338 0.144676 0.289352 0.144676 0.289352 0.289352 0.072338 0.144676 0.144676 0.144676 0.072338 0.144676 0.289352 0.144676 0.289352 0.289352 0.072338 0.144676 0.144676 0.144676 0.072338 0.144676 0.289352 0.144676 0.289352 0.289352 0.072338 0.144676 0.144676 0.144676 0.072338 0.144676 0.289352 0.144676 0.289352 0.289352 0.072338 0.144676 0.144676 0.144676 0.072338 0.144676 0.289352 0.144676 0.289352 0.289352 0.072338 0.144676 0.144676 0.144676 0.072338 0.144676 0.289352 0.144676 0.289352 0.289352 0.072338 0.144676 0.144676 0.144676 0.072338 0.144676 0.289352 0.144676 0.289352 0.289352 0.072338 0.144676 0.144676 0.144676 0.072338 0.144676 0.289352 0.144676 0.289352 0.289352 0.072338 0.144676 0.144676 0.144676 0.072338 0.144676 0.289352 0.144676 0.289352 0.289352 0.072338 0.144676 0.144676 0.144676 0.072338 0.144676 0.289352 0.144676 0.289352 0.289352 0.072338 0.144676 0.144676 0.144676 0.072338 0.144676 0.289352 0.144676 0.289352 0.289352 0.072338 0.144676 0.144676 0.144676 0.072338 0.144676 0.289352 0.144676 0.289352 0.289352 0.0723379 0.144676 0.144676 0.144676 0.0723379 0.144676 0.289352 0.144676 0.289352 0.289352 0.072338 0.144676 0.144676 0.144676 0.072338 0.144676 0.289352 0.144676 0.289352 0.289352 0.072338 0.144676 0.144676 0.144676 0.072338 0.144676 0.289352 0.144676 0.289352 0.289352 0.072338 0.144676 0.144676 0.144676 0.072338 0.144676 0.289352 0.144676 0.289352 0.289352 0.0723379 0.144676 0.144676 0.144676 0.0723379 0.144676 0.289352 0.144676 0.289352 0.289352 0.0723379 0.144676 0.144676 0.144676 0.0723379 0.144676 0.289352 0.144676 0.289352 0.289352 0.072338 0.144676 0.144676 0.144676 0.072338 0.144676 0.289352 0.144676 0.289352 0.289352 0.072338 0.144676 0.144676 0.144676 0.072338 0.144676 0.289352 0.144676 0.289352 0.289352 0.0723379 0.144676 0.144676 0.144676 0.0723379 0.144676 0.289352 0.144676 0.289352 0.289352 0.072338 0.144676 0.144676 0.144676 0.072338 0.144676 0.289352 0.144676 0.289352 0.289352 0.0723379 0.144676 0.144676 0.144676 0.0723379 0.144676 0.289352 0.144676 0.289352 0.289352 0.072338 0.144676 0.144676 0.144676 0.072338 0.144676 0.289352 0.144676 0.289352 0.289352 0.0723381 0.144676 0.144676 0.144676 0.0723381 0.144676 0.289352 0.144676 0.289351 0.289352 0.0723379 0.144676 0.144676 0.144676 0.0723379 0.144676 0.289352 0.144676 0.289352 0.289351 0.0723378 0.144676 0.144676 0.144676 0.0723378 0.144676 0.289352 0.144676 0.289352 0.289352 0.072338 0.144676 0.144676 0.144676 0.072338 0.144676 0.289352 0.144676 0.289352 0.289352 0.0723379 0.144676 0.144676 0.144676 0.0723379 0.072338 0.144676 0.144676 0.144676 0.289352 0.072338 0.072338 0.144676 0.144676 0.072338 0.072338 0.144676 0.289352 0.144676 0.072338 0.144676 0.144676 0.072338 0.072338 0.144676 0.144676 0.072338 0.072338 0.072338 0.144676 0.289352 0.072338 0.144676 0.144676 0.072338 0.144676 0.144676 0.072338 0.072338 0.144676 0.289352 0.072338 0.144676 0.144676 0.072338 0.144676 0.144676 0.072338 0.072338 0.144676 0.289352 0.0723379 0.144676 0.144676 0.0723379 0.144676 0.144676 0.0723379 0.0723379 0.144676 0.289352 0.0723379 0.144676 0.144676 0.0723379 0.144676 0.144676 0.0723379 0.0723379 0.144676 0.289352 0.072338 0.144676 0.144676 0.072338 0.144676 0.144676 0.072338 0.072338 0.144676 0.289352 0.072338 0.144676 0.144676 0.072338 0.144676 0.144676 0.072338 0.072338 0.144676 0.289352 0.072338 0.144676 0.144676 0.072338 0.144676 0.144676 0.072338 0.072338 0.144676 0.289352 0.072338 0.144676 0.144676 0.072338 0.144676 0.144676 0.072338 0.072338 0.144676 0.289352 0.0723379 0.144676 0.144676 0.0723379 0.144676 0.144676 0.0723379 0.0723379 0.144676 0.289352 0.0723379 0.144676 0.144676 0.0723379 0.144676 0.144676 0.0723379 0.0723379 0.144676 0.289352 0.072338 0.144676 0.144676 0.072338 0.144676 0.144676 0.072338 0.072338 0.144676 0.289352 0.0723379 0.144676 0.144676 0.0723379 0.144676 0.144676 0.0723379 0.0723379 0.144676 0.289352 0.072338 0.144676 0.144676 0.072338 0.144676 0.144676 0.072338 0.072338 0.144676 0.289352 0.0723379 0.144676 0.144676 0.0723379 0.144676 0.144676 0.0723379 0.0723379 0.144676 0.289352 0.072338 0.144676 0.144676 0.072338 0.144676 0.144676 0.072338 0.072338 0.144676 0.289352 0.072338 0.144676 0.144676 0.072338 0.144676 0.144676 0.072338 0.072338 0.144676 0.289352 0.0723379 0.144676 0.144676 0.0723379 0.144676 0.144676 0.0723379 0.0723379 0.144676 0.289352 0.0723379 0.144676 0.144676 0.0723379 0.144676 0.144676 0.0723379 0.0723379 0.144676 0.289352 0.0723379 0.144676 0.144676 0.0723379 0.144676 0.144676 0.0723379 0.0723379 0.144676 0.289352 0.072338 0.144676 0.144676 0.072338 0.144676 0.144676 0.072338 0.072338 0.144676 0.289352 0.0723379 0.144676 0.144676 0.0723379 0.144676 0.144676 0.0723379 0.0723379 0.144676 0.289352 0.0723379 0.144676 0.144676 0.0723379 0.144676 0.144676 0.0723379 0.0723379 0.144676 0.289352 0.072338 0.144676 0.144676 0.072338 0.144676 0.144676 0.072338 0.072338 0.144676 0.289352 0.0723379 0.144676 0.144676 0.0723379 0.144676 0.144676 0.0723379 0.0723379 0.144676 0.289352 0.0723379 0.144676 0.144676 0.0723379 0.144676 0.144676 0.0723379 0.0723379 0.144676 0.289352 0.0723381 0.144676 0.144676 0.0723381 0.144676 0.144676 0.0723381 0.0723381 0.144676 0.289351 0.0723379 0.144676 0.144676 0.0723379 0.144676 0.144676 0.0723379 0.0723379 0.144676 0.289352 0.0723378 0.144676 0.144676 0.0723378 0.144676 0.144676 0.0723378 0.0723378 0.144676 0.289352 0.072338 0.144676 0.144676 0.072338 0.144676 0.144676 0.072338 0.072338 0.144676 0.289352 0.0723379 0.144676 0.144676 0.0723379 0.144676 0.144676 0.0723379 0.0723379 0.072338 0.144676 0.072338 0.072338 0.144676 0.072338 0.072338 0.144676 0.072338 0.072338 0.144676 0.144676 0.072338 0.289352 0.144676 0.289352 0.289352 0.144676 0.072338 0.144676 0.144676 0.072338 0.144676 0.072338 0.144676 0.144676 0.289352 0.289352 0.289352 0.072338 0.144676 0.144676 0.144676 0.072338 0.144676 0.144676 0.289352 0.289352 0.289352 0.072338 0.144676 0.144676 0.144676 0.072338 0.144676 0.144676 0.289352 0.289352 0.289352 0.072338 0.144676 0.144676 0.144676 0.072338 0.144676 0.144676 0.289352 0.289352 0.289352 0.072338 0.144676 0.144676 0.144676 0.072338 0.144676 0.144676 0.289352 0.289352 0.289352 0.072338 0.144676 0.144676 0.144676 0.072338 0.144676 0.144676 0.289352 0.289352 0.289352 0.072338 0.144676 0.144676 0.144676 0.072338 0.144676 0.144676 0.289352 0.289352 0.289352 0.072338 0.144676 0.144676 0.144676 0.072338 0.144676 0.144676 0.289352 0.289352 0.289352 0.072338 0.144676 0.144676 0.144676 0.072338 0.144676 0.144676 0.289352 0.289352 0.289352 0.0723379 0.144676 0.144676 0.144676 0.0723379 0.144676 0.144676 0.289352 0.289352 0.289352 0.0723379 0.144676 0.144676 0.144676 0.0723379 0.144676 0.144676 0.289352 0.289352 0.289352 0.072338 0.144676 0.144676 0.144676 0.072338 0.144676 0.144676 0.289352 0.289352 0.289352 0.072338 0.144676 0.144676 0.144676 0.072338 0.144676 0.144676 0.289352 0.289352 0.289352 0.072338 0.144676 0.144676 0.144676 0.072338 0.144676 0.144676 0.289352 0.289352 0.289352 0.0723379 0.144676 0.144676 0.144676 0.0723379 0.144676 0.144676 0.289352 0.289352 0.289352 0.072338 0.144676 0.144676 0.144676 0.072338 0.144676 0.144676 0.289352 0.289352 0.289352 0.072338 0.144676 0.144676 0.144676 0.072338 0.144676 0.144676 0.289352 0.289352 0.289352 0.0723379 0.144676 0.144676 0.144676 0.0723379 0.144676 0.144676 0.289352 0.289352 0.289352 0.0723379 0.144676 0.144676 0.144676 0.0723379 0.144676 0.144676 0.289352 0.289352 0.289352 0.0723379 0.144676 0.144676 0.144676 0.0723379 0.144676 0.144676 0.289352 0.289352 0.289352 0.072338 0.144676 0.144676 0.144676 0.072338 0.144676 0.144676 0.289352 0.289352 0.289352 0.0723379 0.144676 0.144676 0.144676 0.0723379 0.144676 0.144676 0.289352 0.289352 0.289352 0.0723379 0.144676 0.144676 0.144676 0.0723379 0.144676 0.144676 0.289352 0.289352 0.289352 0.072338 0.144676 0.144676 0.144676 0.072338 0.144676 0.144676 0.289352 0.289352 0.289352 0.0723379 0.144676 0.144676 0.144676 0.0723379 0.144676 0.144676 0.289352 0.289352 0.289352 0.0723379 0.144676 0.144676 0.144676 0.0723379 0.144676 0.144676 0.289352 0.289352 0.289352 0.0723381 0.144676 0.144676 0.144676 0.0723381 0.144676 0.144676 0.289352 0.289351 0.289352 0.0723379 0.144676 0.144676 0.144676 0.0723379 0.144676 0.144676 0.289352 0.289352 0.289351 0.0723378 0.144676 0.144676 0.144676 0.0723378 0.144676 0.144676 0.289352 0.289352 0.289352 0.072338 0.144676 0.144676 0.144676 0.072338 0.144676 0.144676 0.289352 0.289352 0.289352 0.0723379 0.144676 0.144676 0.144676 0.0723379 0.072338 0.144676 0.144676 0.144676 0.289352 0.072338 0.072338 0.144676 0.144676 0.072338 0.289352 0.144676 0.289352 0.289352 0.144676 0.144676 0.144676 0.072338 0.144676 0.072338 0.289352 0.289352 0.289352 0.144676 0.144676 0.144676 0.072338 0.289352 0.289352 0.289352 0.144676 0.144676 0.144676 0.072338 0.289352 0.289352 0.289352 0.144676 0.144676 0.144676 0.072338 0.289352 0.289352 0.289352 0.144676 0.144676 0.144676 0.0723379 0.289352 0.289352 0.289352 0.144676 0.144676 0.144676 0.072338 0.289352 0.289352 0.289352 0.144676 0.144676 0.144676 0.072338 0.289352 0.289352 0.289352 0.144676 0.144676 0.144676 0.0723379 0.289352 0.289352 0.289352 0.144676 0.144676 0.144676 0.072338 0.289352 0.289352 0.289352 0.144676 0.144676 0.144676 0.0723379 0.289352 0.289352 0.289352 0.144676 0.144676 0.144676 0.0723379 0.289352 0.289352 0.289352 0.144676 0.144676 0.144676 0.072338 0.289352 0.289352 0.289352 0.144676 0.144676 0.144676 0.072338 0.289352 0.289352 0.289352 0.144676 0.144676 0.144676 0.072338 0.289352 0.289352 0.289352 0.144676 0.144676 0.144676 0.0723379 0.289352 0.289352 0.289352 0.144676 0.144676 0.144676 0.072338 0.289352 0.289352 0.289352 0.144676 0.144676 0.144676 0.072338 0.289352 0.289352 0.289352 0.144676 0.144676 0.144676 0.0723379 0.289352 0.289352 0.289352 0.144676 0.144676 0.144676 0.0723379 0.289352 0.289352 0.289352 0.144676 0.144676 0.144676 0.0723379 0.289352 0.289352 0.289352 0.144676 0.144676 0.144676 0.072338 0.289352 0.289352 0.289352 0.144676 0.144676 0.144676 0.0723379 0.289352 0.289352 0.289352 0.144676 0.144676 0.144676 0.0723379 0.289352 0.289352 0.289352 0.144676 0.144676 0.144676 0.072338 0.289352 0.289352 0.289352 0.144676 0.144676 0.144676 0.0723379 0.289352 0.289352 0.289352 0.144676 0.144676 0.144676 0.0723379 0.289352 0.289352 0.289352 0.144676 0.144676 0.144676 0.0723381 0.289352 0.289351 0.289352 0.144676 0.144676 0.144676 0.0723379 0.289352 0.289352 0.289351 0.144676 0.144676 0.144676 0.0723378 0.289352 0.289352 0.289352 0.144676 0.144676 0.144676 0.072338 0.289352 0.289352 0.289352 0.144676 0.144676 0.144676 0.0723379 0.144676 0.144676 0.289352 0.072338 0.144676 0.144676 0.072338 0.289352 0.144676 0.289352 0.289352 0.144676 0.144676 0.144676 0.072338 0.144676 0.072338 0.289352 0.289352 0.289352 0.144676 0.144676 0.144676 0.072338 0.289352 0.289352 0.289352 0.144676 0.144676 0.144676 0.072338 0.289352 0.289352 0.289352 0.144676 0.144676 0.144676 0.072338 0.289352 0.289352 0.289352 0.144676 0.144676 0.144676 0.072338 0.289352 0.289352 0.289352 0.144676 0.144676 0.144676 0.072338 0.289352 0.289352 0.289352 0.144676 0.144676 0.144676 0.072338 0.289352 0.289352 0.289352 0.144676 0.144676 0.144676 0.072338 0.289352 0.289352 0.289352 0.144676 0.144676 0.144676 0.072338 0.289352 0.289352 0.289352 0.144676 0.144676 0.144676 0.0723379 0.289352 0.289352 0.289352 0.144676 0.144676 0.144676 0.0723379 0.289352 0.289352 0.289352 0.144676 0.144676 0.144676 0.072338 0.289352 0.289352 0.289352 0.144676 0.144676 0.144676 0.072338 0.289352 0.289352 0.289352 0.144676 0.144676 0.144676 0.072338 0.289352 0.289352 0.289352 0.144676 0.144676 0.144676 0.0723379 0.289352 0.289352 0.289352 0.144676 0.144676 0.144676 0.072338 0.289352 0.289352 0.289352 0.144676 0.144676 0.144676 0.072338 0.289352 0.289352 0.289352 0.144676 0.144676 0.144676 0.0723379 0.289352 0.289352 0.289352 0.144676 0.144676 0.144676 0.0723379 0.289352 0.289352 0.289352 0.144676 0.144676 0.144676 0.0723379 0.289352 0.289352 0.289352 0.144676 0.144676 0.144676 0.072338 0.289352 0.289352 0.289352 0.144676 0.144676 0.144676 0.0723379 0.289352 0.289352 0.289352 0.144676 0.144676 0.144676 0.0723379 0.289352 0.289352 0.289352 0.144676 0.144676 0.144676 0.072338 0.289352 0.289352 0.289352 0.144676 0.144676 0.144676 0.0723379 0.289352 0.289352 0.289352 0.144676 0.144676 0.144676 0.0723379 0.289352 0.289352 0.289352 0.144676 0.144676 0.144676 0.0723381 0.289352 0.289351 0.289352 0.144676 0.144676 0.144676 0.0723379 0.289352 0.289352 0.289351 0.144676 0.144676 0.144676 0.0723378 0.289352 0.289352 0.289352 0.144676 0.144676 0.144676 0.072338 0.289352 0.289352 0.289352 0.144676 0.144676 0.144676 0.0723379 0.144676 0.144676 0.289352 0.072338 0.144676 0.144676 0.072338 0.289352 0.144676 0.289352 0.289352 0.144676 0.144676 0.144676 0.072338 0.144676 0.072338 0.289352 0.289352 0.289352 0.144676 0.144676 0.144676 0.072338 0.289352 0.289352 0.289352 0.144676 0.144676 0.144676 0.072338 0.289352 0.289352 0.289352 0.144676 0.144676 0.144676 0.0723379 0.289352 0.289352 0.289352 0.144676 0.144676 0.144676 0.0723379 0.289352 0.289352 0.289352 0.144676 0.144676 0.144676 0.072338 0.289352 0.289352 0.289352 0.144676 0.144676 0.144676 0.072338 0.289352 0.289352 0.289352 0.144676 0.144676 0.144676 0.0723379 0.289352 0.289352 0.289352 0.144676 0.144676 0.144676 0.072338 0.289352 0.289352 0.289352 0.144676 0.144676 0.144676 0.0723379 0.289352 0.289352 0.289352 0.144676 0.144676 0.144676 0.0723379 0.289352 0.289352 0.289352 0.144676 0.144676 0.144676 0.072338 0.289352 0.289352 0.289352 0.144676 0.144676 0.144676 0.072338 0.289352 0.289352 0.289352 0.144676 0.144676 0.144676 0.072338 0.289352 0.289352 0.289352 0.144676 0.144676 0.144676 0.0723379 0.289352 0.289352 0.289352 0.144676 0.144676 0.144676 0.072338 0.289352 0.289352 0.289352 0.144676 0.144676 0.144676 0.072338 0.289352 0.289352 0.289352 0.144676 0.144676 0.144676 0.0723379 0.289352 0.289352 0.289352 0.144676 0.144676 0.144676 0.0723379 0.289352 0.289352 0.289352 0.144676 0.144676 0.144676 0.0723379 0.289352 0.289352 0.289352 0.144676 0.144676 0.144676 0.072338 0.289352 0.289352 0.289352 0.144676 0.144676 0.144676 0.0723379 0.289352 0.289352 0.289352 0.144676 0.144676 0.144676 0.0723379 0.289352 0.289352 0.289352 0.144676 0.144676 0.144676 0.072338 0.289352 0.289352 0.289352 0.144676 0.144676 0.144676 0.0723379 0.289352 0.289352 0.289352 0.144676 0.144676 0.144676 0.0723379 0.289352 0.289352 0.289352 0.144676 0.144676 0.144676 0.0723381 0.289352 0.289351 0.289352 0.144676 0.144676 0.144676 0.0723379 0.289352 0.289352 0.289351 0.144676 0.144676 0.144676 0.0723378 0.289352 0.289352 0.289352 0.144676 0.144676 0.144676 0.072338 0.289352 0.289352 0.289352 0.144676 0.144676 0.144676 0.0723379 0.144676 0.144676 0.289352 0.072338 0.144676 0.144676 0.072338 0.289352 0.144676 0.289352 0.289352 0.144676 0.144676 0.144676 0.072338 0.144676 0.072338 0.289352 0.289352 0.289352 0.144676 0.144676 0.144676 0.072338 0.289352 0.289352 0.289352 0.144676 0.144676 0.144676 0.072338 0.289352 0.289352 0.289352 0.144676 0.144676 0.144676 0.0723379 0.289352 0.289352 0.289352 0.144676 0.144676 0.144676 0.0723379 0.289352 0.289352 0.289352 0.144676 0.144676 0.144676 0.072338 0.289352 0.289352 0.289352 0.144676 0.144676 0.144676 0.072338 0.289352 0.289352 0.289352 0.144676 0.144676 0.144676 0.0723379 0.289352 0.289352 0.289352 0.144676 0.144676 0.144676 0.072338 0.289352 0.289352 0.289352 0.144676 0.144676 0.144676 0.0723379 0.289352 0.289352 0.289352 0.144676 0.144676 0.144676 0.0723379 0.289352 0.289352 0.289352 0.144676 0.144676 0.144676 0.072338 0.289352 0.289352 0.289352 0.144676 0.144676 0.144676 0.072338 0.289352 0.289352 0.289352 0.144676 0.144676 0.144676 0.072338 0.289352 0.289352 0.289352 0.144676 0.144676 0.144676 0.0723379 0.289352 0.289352 0.289352 0.144676 0.144676 0.144676 0.072338 0.289352 0.289352 0.289352 0.144676 0.144676 0.144676 0.072338 0.289352 0.289352 0.289352 0.144676 0.144676 0.144676 0.0723379 0.289352 0.289352 0.289352 0.144676 0.144676 0.144676 0.0723379 0.289352 0.289352 0.289352 0.144676 0.144676 0.144676 0.0723379 0.289352 0.289352 0.289352 0.144676 0.144676 0.144676 0.072338 0.289352 0.289352 0.289352 0.144676 0.144676 0.144676 0.0723379 0.289352 0.289352 0.289352 0.144676 0.144676 0.144676 0.0723379 0.289352 0.289352 0.289352 0.144676 0.144676 0.144676 0.072338 0.289352 0.289352 0.289352 0.144676 0.144676 0.144676 0.0723379 0.289352 0.289352 0.289352 0.144676 0.144676 0.144676 0.0723379 0.289352 0.289352 0.289352 0.144676 0.144676 0.144676 0.0723381 0.289352 0.289351 0.289352 0.144676 0.144676 0.144676 0.0723379 0.289352 0.289352 0.289351 0.144676 0.144676 0.144676 0.0723378 0.289352 0.289352 0.289352 0.144676 0.144676 0.144676 0.072338 0.289352 0.289352 0.289352 0.144676 0.144676 0.144676 0.0723379 0.144676 0.144676 0.289352 0.072338 0.144676 0.144676 0.072338 0.289352 0.144676 0.289352 0.289352 0.144676 0.144676 0.144676 0.072338 0.144676 0.072338 0.289352 0.289352 0.289352 0.144676 0.144676 0.144676 0.072338 0.289352 0.289352 0.289352 0.144676 0.144676 0.144676 0.072338 0.289352 0.289352 0.289352 0.144676 0.144676 0.144676 0.072338 0.289352 0.289352 0.289352 0.144676 0.144676 0.144676 0.072338 0.289352 0.289352 0.289352 0.144676 0.144676 0.144676 0.072338 0.289352 0.289352 0.289352 0.144676 0.144676 0.144676 0.072338 0.289352 0.289352 0.289352 0.144676 0.144676 0.144676 0.072338 0.289352 0.289352 0.289352 0.144676 0.144676 0.144676 0.072338 0.289352 0.289352 0.289352 0.144676 0.144676 0.144676 0.0723379 0.289352 0.289352 0.289352 0.144676 0.144676 0.144676 0.0723379 0.289352 0.289352 0.289352 0.144676 0.144676 0.144676 0.072338 0.289352 0.289352 0.289352 0.144676 0.144676 0.144676 0.072338 0.289352 0.289352 0.289352 0.144676 0.144676 0.144676 0.072338 0.289352 0.289352 0.289352 0.144676 0.144676 0.144676 0.0723379 0.289352 0.289352 0.289352 0.144676 0.144676 0.144676 0.072338 0.289352 0.289352 0.289352 0.144676 0.144676 0.144676 0.072338 0.289352 0.289352 0.289352 0.144676 0.144676 0.144676 0.0723379 0.289352 0.289352 0.289352 0.144676 0.144676 0.144676 0.0723379 0.289352 0.289352 0.289352 0.144676 0.144676 0.144676 0.0723379 0.289352 0.289352 0.289352 0.144676 0.144676 0.144676 0.072338 0.289352 0.289352 0.289352 0.144676 0.144676 0.144676 0.0723379 0.289352 0.289352 0.289352 0.144676 0.144676 0.144676 0.0723379 0.289352 0.289352 0.289352 0.144676 0.144676 0.144676 0.072338 0.289352 0.289352 0.289352 0.144676 0.144676 0.144676 0.0723379 0.289352 0.289352 0.289352 0.144676 0.144676 0.144676 0.0723379 0.289352 0.289352 0.289352 0.144676 0.144676 0.144676 0.0723381 0.289352 0.289352 0.289352 0.144676 0.144676 0.144676 0.0723379 0.289352 0.289352 0.289351 0.144676 0.144676 0.144676 0.0723378 0.289352 0.289352 0.289352 0.144676 0.144676 0.144676 0.072338 0.289352 0.289352 0.289352 0.144676 0.144676 0.144676 0.0723379 0.144676 0.144676 0.289352 0.072338 0.144676 0.144676 0.072338 0.289352 0.144676 0.289352 0.289352 0.144676 0.144676 0.144676 0.072338 0.144676 0.072338 0.289352 0.289352 0.289352 0.144676 0.144676 0.144676 0.072338 0.289352 0.289352 0.289352 0.144676 0.144676 0.144676 0.072338 0.289352 0.289352 0.289352 0.144676 0.144676 0.144676 0.072338 0.289352 0.289352 0.289352 0.144676 0.144676 0.144676 0.072338 0.289352 0.289352 0.289352 0.144676 0.144676 0.144676 0.072338 0.289352 0.289352 0.289352 0.144676 0.144676 0.144676 0.072338 0.289352 0.289352 0.289352 0.144676 0.144676 0.144676 0.072338 0.289352 0.289352 0.289352 0.144676 0.144676 0.144676 0.072338 0.289352 0.289352 0.289352 0.144676 0.144676 0.144676 0.0723379 0.289352 0.289352 0.289352 0.144676 0.144676 0.144676 0.072338 0.289352 0.289352 0.289352 0.144676 0.144676 0.144676 0.072338 0.289352 0.289352 0.289352 0.144676 0.144676 0.144676 0.072338 0.289352 0.289352 0.289352 0.144676 0.144676 0.144676 0.072338 0.289352 0.289352 0.289352 0.144676 0.144676 0.144676 0.0723379 0.289352 0.289352 0.289352 0.144676 0.144676 0.144676 0.072338 0.289352 0.289352 0.289352 0.144676 0.144676 0.144676 0.072338 0.289352 0.289352 0.289352 0.144676 0.144676 0.144676 0.072338 0.289352 0.289352 0.289352 0.144676 0.144676 0.144676 0.0723379 0.289352 0.289352 0.289352 0.144676 0.144676 0.144676 0.0723379 0.289352 0.289352 0.289352 0.144676 0.144676 0.144676 0.072338 0.289352 0.289352 0.289352 0.144676 0.144676 0.144676 0.072338 0.289352 0.289352 0.289352 0.144676 0.144676 0.144676 0.0723379 0.289352 0.289352 0.289352 0.144676 0.144676 0.144676 0.072338 0.289352 0.289352 0.289352 0.144676 0.144676 0.144676 0.0723379 0.289352 0.289352 0.289352 0.144676 0.144676 0.144676 0.0723379 0.289352 0.289352 0.289352 0.144676 0.144676 0.144676 0.0723381 0.289352 0.289351 0.289352 0.144676 0.144676 0.144676 0.0723379 0.289352 0.289352 0.289351 0.144676 0.144676 0.144676 0.0723378 0.289352 0.289352 0.289352 0.144676 0.144676 0.144676 0.072338 0.289352 0.289352 0.289352 0.144676 0.144676 0.144676 0.0723379 0.144676 0.144676 0.289352 0.072338 0.144676 0.144676 0.072338 0.289352 0.144676 0.144676 0.144676 0.0723379 0.144676 0.144676 0.0723379 0.0723379 0.0723379 0.289352 0.144676 0.144676 0.144676 0.144676 0.0723379 0.0723379 0.289352 0.144676 0.144676 0.144676 0.144676 0.072338 0.072338 0.289352 0.144676 0.144676 0.144676 0.144676 0.0723379 0.0723379 0.289352 0.144676 0.144676 0.144676 0.144676 0.0723379 0.0723379 0.289352 0.144676 0.144676 0.144676 0.144676 0.0723379 0.0723379 0.289352 0.144676 0.144676 0.144676 0.144676 0.0723379 0.0723379 0.289352 0.144676 0.144676 0.144676 0.144676 0.0723379 0.0723379 0.289352 0.144676 0.144676 0.144676 0.144676 0.0723379 0.0723379 0.289352 0.144676 0.144676 0.144676 0.144676 0.0723379 0.0723379 0.289352 0.144676 0.144676 0.144676 0.144676 0.0723379 0.0723379 0.289352 0.144676 0.144676 0.144676 0.144676 0.072338 0.072338 0.289352 0.144676 0.144676 0.144676 0.144676 0.0723379 0.0723379 0.289352 0.144676 0.144676 0.144676 0.144676 0.072338 0.072338 0.289352 0.144676 0.144676 0.144676 0.144676 0.0723379 0.0723379 0.289352 0.144676 0.144676 0.144676 0.144676 0.072338 0.072338 0.289352 0.144676 0.144676 0.144676 0.144676 0.0723379 0.0723379 0.289352 0.144676 0.144676 0.144676 0.144676 0.0723379 0.0723379 0.289352 0.144676 0.144676 0.144676 0.144676 0.0723379 0.0723379 0.289352 0.144676 0.144676 0.144676 0.144676 0.0723379 0.0723379 0.289352 0.144676 0.144676 0.144676 0.144676 0.072338 0.072338 0.289352 0.144676 0.144676 0.144676 0.144676 0.0723379 0.0723379 0.289352 0.144676 0.144676 0.144676 0.144676 0.0723379 0.0723379 0.289352 0.144676 0.144676 0.144676 0.144676 0.072338 0.072338 0.289352 0.144676 0.144676 0.144676 0.144676 0.0723379 0.0723379 0.289352 0.144676 0.144676 0.144676 0.144676 0.0723379 0.0723379 0.289352 0.144676 0.144676 0.144676 0.144676 0.072338 0.072338 0.289351 0.144676 0.144676 0.144676 0.144676 0.0723379 0.0723379 0.289352 0.144676 0.144676 0.144676 0.144676 0.0723378 0.0723378 0.289352 0.144676 0.144676 0.144676 0.144676 0.072338 0.072338 0.289352 0.144676 0.144676 0.144676 0.144676 0.0723379 0.0723379 0.144676 0.072338 0.144676 0.072338 0.144676 0.072338 0.072338 0.144676 0.144676 0.072338 0.289352 0.144676 0.289352 0.289352 0.144676 0.072338 0.144676 0.144676 0.072338 0.144676 0.072338 0.144676 0.144676 0.289352 0.289352 0.289352 0.072338 0.144676 0.144676 0.144676 0.072338 0.144676 0.144676 0.289352 0.289352 0.289352 0.072338 0.144676 0.144676 0.144676 0.072338 0.144676 0.144676 0.289352 0.289352 0.289352 0.072338 0.144676 0.144676 0.144676 0.072338 0.144676 0.144676 0.289352 0.289352 0.289352 0.072338 0.144676 0.144676 0.144676 0.072338 0.144676 0.144676 0.289352 0.289352 0.289352 0.072338 0.144676 0.144676 0.144676 0.072338 0.144676 0.144676 0.289352 0.289352 0.289352 0.072338 0.144676 0.144676 0.144676 0.072338 0.144676 0.144676 0.289352 0.289352 0.289352 0.072338 0.144676 0.144676 0.144676 0.072338 0.144676 0.144676 0.289352 0.289352 0.289352 0.072338 0.144676 0.144676 0.144676 0.072338 0.144676 0.144676 0.289352 0.289352 0.289352 0.072338 0.144676 0.144676 0.144676 0.072338 0.144676 0.144676 0.289352 0.289352 0.289352 0.072338 0.144676 0.144676 0.144676 0.072338 0.144676 0.144676 0.289352 0.289352 0.289352 0.072338 0.144676 0.144676 0.144676 0.072338 0.144676 0.144676 0.289352 0.289352 0.289352 0.072338 0.144676 0.144676 0.144676 0.072338 0.144676 0.144676 0.289352 0.289352 0.289352 0.072338 0.144676 0.144676 0.144676 0.072338 0.144676 0.144676 0.289352 0.289352 0.289352 0.0723379 0.144676 0.144676 0.144676 0.0723379 0.144676 0.144676 0.289352 0.289352 0.289352 0.072338 0.144676 0.144676 0.144676 0.072338 0.144676 0.144676 0.289352 0.289352 0.289352 0.072338 0.144676 0.144676 0.144676 0.072338 0.144676 0.144676 0.289352 0.289352 0.289352 0.072338 0.144676 0.144676 0.144676 0.072338 0.144676 0.144676 0.289352 0.289352 0.289352 0.072338 0.144676 0.144676 0.144676 0.072338 0.144676 0.144676 0.289352 0.289352 0.289352 0.0723379 0.144676 0.144676 0.144676 0.0723379 0.144676 0.144676 0.289352 0.289352 0.289352 0.072338 0.144676 0.144676 0.144676 0.072338 0.144676 0.144676 0.289352 0.289352 0.289352 0.072338 0.144676 0.144676 0.144676 0.072338 0.144676 0.144676 0.289352 0.289352 0.289352 0.072338 0.144676 0.144676 0.144676 0.072338 0.144676 0.144676 0.289352 0.289352 0.289352 0.072338 0.144676 0.144676 0.144676 0.072338 0.144676 0.144676 0.289352 0.289352 0.289352 0.0723379 0.144676 0.144676 0.144676 0.0723379 0.144676 0.144676 0.289352 0.289352 0.289352 0.072338 0.144676 0.144676 0.144676 0.072338 0.144676 0.144676 0.289352 0.289352 0.289352 0.0723381 0.144676 0.144676 0.144676 0.0723381 0.144676 0.144676 0.289352 0.289352 0.289352 0.0723379 0.144676 0.144676 0.144676 0.0723379 0.144676 0.144676 0.289352 0.289352 0.289351 0.0723379 0.144676 0.144676 0.144676 0.0723379 0.144676 0.144676 0.289352 0.289352 0.289352 0.072338 0.144676 0.144676 0.144676 0.072338 0.144676 0.144676 0.289352 0.289352 0.289352 0.0723379 0.144676 0.144676 0.144676 0.0723379 0.072338 0.144676 0.144676 0.144676 0.289352 0.072338 0.072338 0.144676 0.144676 0.072338 0.289352 0.144676 0.289352 0.289352 0.144676 0.144676 0.144676 0.072338 0.144676 0.072338 0.289352 0.289352 0.289352 0.144676 0.144676 0.144676 0.072338 0.289352 0.289352 0.289352 0.144676 0.144676 0.144676 0.072338 0.289352 0.289352 0.289352 0.144676 0.144676 0.144676 0.072338 0.289352 0.289352 0.289352 0.144676 0.144676 0.144676 0.072338 0.289352 0.289352 0.289352 0.144676 0.144676 0.144676 0.072338 0.289352 0.289352 0.289352 0.144676 0.144676 0.144676 0.072338 0.289352 0.289352 0.289352 0.144676 0.144676 0.144676 0.072338 0.289352 0.289352 0.289352 0.144676 0.144676 0.144676 0.072338 0.289352 0.289352 0.289352 0.144676 0.144676 0.144676 0.072338 0.289352 0.289352 0.289352 0.144676 0.144676 0.144676 0.072338 0.289352 0.289352 0.289352 0.144676 0.144676 0.144676 0.072338 0.289352 0.289352 0.289352 0.144676 0.144676 0.144676 0.072338 0.289352 0.289352 0.289352 0.144676 0.144676 0.144676 0.072338 0.289352 0.289352 0.289352 0.144676 0.144676 0.144676 0.0723379 0.289352 0.289352 0.289352 0.144676 0.144676 0.144676 0.072338 0.289352 0.289352 0.289352 0.144676 0.144676 0.144676 0.072338 0.289352 0.289352 0.289352 0.144676 0.144676 0.144676 0.072338 0.289352 0.289352 0.289352 0.144676 0.144676 0.144676 0.072338 0.289352 0.289352 0.289352 0.144676 0.144676 0.144676 0.0723379 0.289352 0.289352 0.289352 0.144676 0.144676 0.144676 0.072338 0.289352 0.289352 0.289352 0.144676 0.144676 0.144676 0.072338 0.289352 0.289352 0.289352 0.144676 0.144676 0.144676 0.0723379 0.289352 0.289352 0.289352 0.144676 0.144676 0.144676 0.072338 0.289352 0.289352 0.289352 0.144676 0.144676 0.144676 0.0723379 0.289352 0.289352 0.289352 0.144676 0.144676 0.144676 0.072338 0.289352 0.289352 0.289352 0.144676 0.144676 0.144676 0.0723381 0.289352 0.289352 0.289352 0.144676 0.144676 0.144676 0.0723379 0.289352 0.289352 0.289351 0.144676 0.144676 0.144676 0.0723379 0.289352 0.289352 0.289352 0.144676 0.144676 0.144676 0.072338 0.289352 0.289352 0.289352 0.144676 0.144676 0.144676 0.0723379 0.144676 0.144676 0.289352 0.072338 0.144676 0.144676 0.072338 0.289352 0.144676 0.289352 0.289352 0.144676 0.144676 0.144676 0.072338 0.144676 0.072338 0.289352 0.289352 0.289352 0.144676 0.144676 0.144676 0.072338 0.289352 0.289352 0.289352 0.144676 0.144676 0.144676 0.072338 0.289352 0.289352 0.289352 0.144676 0.144676 0.144676 0.072338 0.289352 0.289352 0.289352 0.144676 0.144676 0.144676 0.072338 0.289352 0.289352 0.289352 0.144676 0.144676 0.144676 0.072338 0.289352 0.289352 0.289352 0.144676 0.144676 0.144676 0.072338 0.289352 0.289352 0.289352 0.144676 0.144676 0.144676 0.072338 0.289352 0.289352 0.289352 0.144676 0.144676 0.144676 0.072338 0.289352 0.289352 0.289352 0.144676 0.144676 0.144676 0.072338 0.289352 0.289352 0.289352 0.144676 0.144676 0.144676 0.072338 0.289352 0.289352 0.289352 0.144676 0.144676 0.144676 0.072338 0.289352 0.289352 0.289352 0.144676 0.144676 0.144676 0.072338 0.289352 0.289352 0.289352 0.144676 0.144676 0.144676 0.072338 0.289352 0.289352 0.289352 0.144676 0.144676 0.144676 0.0723379 0.289352 0.289352 0.289352 0.144676 0.144676 0.144676 0.072338 0.289352 0.289352 0.289352 0.144676 0.144676 0.144676 0.072338 0.289352 0.289352 0.289352 0.144676 0.144676 0.144676 0.072338 0.289352 0.289352 0.289352 0.144676 0.144676 0.144676 0.072338 0.289352 0.289352 0.289352 0.144676 0.144676 0.144676 0.0723379 0.289352 0.289352 0.289352 0.144676 0.144676 0.144676 0.072338 0.289352 0.289352 0.289352 0.144676 0.144676 0.144676 0.072338 0.289352 0.289352 0.289352 0.144676 0.144676 0.144676 0.0723379 0.289352 0.289352 0.289352 0.144676 0.144676 0.144676 0.072338 0.289352 0.289352 0.289352 0.144676 0.144676 0.144676 0.0723379 0.289352 0.289352 0.289352 0.144676 0.144676 0.144676 0.072338 0.289352 0.289352 0.289352 0.144676 0.144676 0.144676 0.0723381 0.289352 0.289352 0.289352 0.144676 0.144676 0.144676 0.0723379 0.289352 0.289352 0.289351 0.144676 0.144676 0.144676 0.0723379 0.289352 0.289352 0.289352 0.144676 0.144676 0.144676 0.072338 0.289352 0.289352 0.289352 0.144676 0.144676 0.144676 0.0723379 0.144676 0.144676 0.289352 0.072338 0.144676 0.144676 0.072338 0.289352 0.144676 0.289352 0.289352 0.144676 0.144676 0.144676 0.072338 0.144676 0.072338 0.289352 0.289352 0.289352 0.144676 0.144676 0.144676 0.072338 0.289352 0.289352 0.289352 0.144676 0.144676 0.144676 0.072338 0.289352 0.289352 0.289352 0.144676 0.144676 0.144676 0.0723379 0.289352 0.289352 0.289352 0.144676 0.144676 0.144676 0.072338 0.289352 0.289352 0.289352 0.144676 0.144676 0.144676 0.072338 0.289352 0.289352 0.289352 0.144676 0.144676 0.144676 0.072338 0.289352 0.289352 0.289352 0.144676 0.144676 0.144676 0.072338 0.289352 0.289352 0.289352 0.144676 0.144676 0.144676 0.072338 0.289352 0.289352 0.289352 0.144676 0.144676 0.144676 0.072338 0.289352 0.289352 0.289352 0.144676 0.144676 0.144676 0.0723379 0.289352 0.289352 0.289352 0.144676 0.144676 0.144676 0.072338 0.289352 0.289352 0.289352 0.144676 0.144676 0.144676 0.072338 0.289352 0.289352 0.289352 0.144676 0.144676 0.144676 0.072338 0.289352 0.289352 0.289352 0.144676 0.144676 0.144676 0.0723379 0.289352 0.289352 0.289352 0.144676 0.144676 0.144676 0.072338 0.289352 0.289352 0.289352 0.144676 0.144676 0.144676 0.072338 0.289352 0.289352 0.289352 0.144676 0.144676 0.144676 0.072338 0.289352 0.289352 0.289352 0.144676 0.144676 0.144676 0.0723379 0.289352 0.289352 0.289352 0.144676 0.144676 0.144676 0.0723379 0.289352 0.289352 0.289352 0.144676 0.144676 0.144676 0.072338 0.289352 0.289352 0.289352 0.144676 0.144676 0.144676 0.072338 0.289352 0.289352 0.289352 0.144676 0.144676 0.144676 0.0723379 0.289352 0.289352 0.289352 0.144676 0.144676 0.144676 0.072338 0.289352 0.289352 0.289352 0.144676 0.144676 0.144676 0.0723379 0.289352 0.289352 0.289352 0.144676 0.144676 0.144676 0.072338 0.289352 0.289352 0.289352 0.144676 0.144676 0.144676 0.0723381 0.289352 0.289352 0.289352 0.144676 0.144676 0.144676 0.0723379 0.289352 0.289352 0.289351 0.144676 0.144676 0.144676 0.0723379 0.289352 0.289352 0.289352 0.144676 0.144676 0.144676 0.072338 0.289352 0.289352 0.289352 0.144676 0.144676 0.144676 0.0723379 0.144676 0.144676 0.289352 0.072338 0.144676 0.144676 0.072338 0.289352 0.144676 0.289352 0.289352 0.144676 0.144676 0.144676 0.072338 0.144676 0.072338 0.289352 0.289352 0.289352 0.144676 0.144676 0.144676 0.072338 0.289352 0.289352 0.289352 0.144676 0.144676 0.144676 0.072338 0.289352 0.289352 0.289352 0.144676 0.144676 0.144676 0.0723379 0.289352 0.289352 0.289352 0.144676 0.144676 0.144676 0.072338 0.289352 0.289352 0.289352 0.144676 0.144676 0.144676 0.072338 0.289352 0.289352 0.289352 0.144676 0.144676 0.144676 0.072338 0.289352 0.289352 0.289352 0.144676 0.144676 0.144676 0.072338 0.289352 0.289352 0.289352 0.144676 0.144676 0.144676 0.072338 0.289352 0.289352 0.289352 0.144676 0.144676 0.144676 0.072338 0.289352 0.289352 0.289352 0.144676 0.144676 0.144676 0.0723379 0.289352 0.289352 0.289352 0.144676 0.144676 0.144676 0.072338 0.289352 0.289352 0.289352 0.144676 0.144676 0.144676 0.072338 0.289352 0.289352 0.289352 0.144676 0.144676 0.144676 0.072338 0.289352 0.289352 0.289352 0.144676 0.144676 0.144676 0.0723379 0.289352 0.289352 0.289352 0.144676 0.144676 0.144676 0.072338 0.289352 0.289352 0.289352 0.144676 0.144676 0.144676 0.072338 0.289352 0.289352 0.289352 0.144676 0.144676 0.144676 0.072338 0.289352 0.289352 0.289352 0.144676 0.144676 0.144676 0.0723379 0.289352 0.289352 0.289352 0.144676 0.144676 0.144676 0.0723379 0.289352 0.289352 0.289352 0.144676 0.144676 0.144676 0.072338 0.289352 0.289352 0.289352 0.144676 0.144676 0.144676 0.072338 0.289352 0.289352 0.289352 0.144676 0.144676 0.144676 0.0723379 0.289352 0.289352 0.289352 0.144676 0.144676 0.144676 0.072338 0.289352 0.289352 0.289352 0.144676 0.144676 0.144676 0.0723379 0.289352 0.289352 0.289352 0.144676 0.144676 0.144676 0.072338 0.289352 0.289352 0.289352 0.144676 0.144676 0.144676 0.0723381 0.289352 0.289352 0.289352 0.144676 0.144676 0.144676 0.0723379 0.289352 0.289352 0.289351 0.144676 0.144676 0.144676 0.0723379 0.289352 0.289352 0.289352 0.144676 0.144676 0.144676 0.072338 0.289352 0.289352 0.289352 0.144676 0.144676 0.144676 0.0723379 0.144676 0.144676 0.289352 0.072338 0.144676 0.144676 0.072338 0.289352 0.144676 0.289352 0.289352 0.144676 0.144676 0.144676 0.072338 0.144676 0.072338 0.289352 0.289352 0.289352 0.144676 0.144676 0.144676 0.072338 0.289352 0.289352 0.289352 0.144676 0.144676 0.144676 0.072338 0.289352 0.289352 0.289352 0.144676 0.144676 0.144676 0.072338 0.289352 0.289352 0.289352 0.144676 0.144676 0.144676 0.072338 0.289352 0.289352 0.289352 0.144676 0.144676 0.144676 0.072338 0.289352 0.289352 0.289352 0.144676 0.144676 0.144676 0.072338 0.289352 0.289352 0.289352 0.144676 0.144676 0.144676 0.072338 0.289352 0.289352 0.289352 0.144676 0.144676 0.144676 0.072338 0.289352 0.289352 0.289352 0.144676 0.144676 0.144676 0.072338 0.289352 0.289352 0.289352 0.144676 0.144676 0.144676 0.072338 0.289352 0.289352 0.289352 0.144676 0.144676 0.144676 0.072338 0.289352 0.289352 0.289352 0.144676 0.144676 0.144676 0.072338 0.289352 0.289352 0.289352 0.144676 0.144676 0.144676 0.072338 0.289352 0.289352 0.289352 0.144676 0.144676 0.144676 0.0723379 0.289352 0.289352 0.289352 0.144676 0.144676 0.144676 0.072338 0.289352 0.289352 0.289352 0.144676 0.144676 0.144676 0.072338 0.289352 0.289352 0.289352 0.144676 0.144676 0.144676 0.072338 0.289352 0.289352 0.289352 0.144676 0.144676 0.144676 0.0723379 0.289352 0.289352 0.289352 0.144676 0.144676 0.144676 0.0723379 0.289352 0.289352 0.289352 0.144676 0.144676 0.144676 0.072338 0.289352 0.289352 0.289352 0.144676 0.144676 0.144676 0.072338 0.289352 0.289352 0.289352 0.144676 0.144676 0.144676 0.072338 0.289352 0.289352 0.289352 0.144676 0.144676 0.144676 0.072338 0.289352 0.289352 0.289352 0.144676 0.144676 0.144676 0.0723379 0.289352 0.289352 0.289352 0.144676 0.144676 0.144676 0.072338 0.289352 0.289352 0.289352 0.144676 0.144676 0.144676 0.0723381 0.289352 0.289352 0.289352 0.144676 0.144676 0.144676 0.0723379 0.289352 0.289352 0.289351 0.144676 0.144676 0.144676 0.0723379 0.289352 0.289352 0.289352 0.144676 0.144676 0.144676 0.072338 0.289352 0.289352 0.289352 0.144676 0.144676 0.144676 0.0723379 0.144676 0.144676 0.289352 0.072338 0.144676 0.144676 0.072338 0.289352 0.144676 0.289352 0.289352 0.144676 0.144676 0.144676 0.072338 0.144676 0.072338 0.289352 0.289352 0.289352 0.144676 0.144676 0.144676 0.072338 0.289352 0.289352 0.289352 0.144676 0.144676 0.144676 0.072338 0.289352 0.289352 0.289352 0.144676 0.144676 0.144676 0.072338 0.289352 0.289352 0.289352 0.144676 0.144676 0.144676 0.072338 0.289352 0.289352 0.289352 0.144676 0.144676 0.144676 0.072338 0.289352 0.289352 0.289352 0.144676 0.144676 0.144676 0.072338 0.289352 0.289352 0.289352 0.144676 0.144676 0.144676 0.072338 0.289352 0.289352 0.289352 0.144676 0.144676 0.144676 0.072338 0.289352 0.289352 0.289352 0.144676 0.144676 0.144676 0.072338 0.289352 0.289352 0.289352 0.144676 0.144676 0.144676 0.072338 0.289352 0.289352 0.289352 0.144676 0.144676 0.144676 0.072338 0.289352 0.289352 0.289352 0.144676 0.144676 0.144676 0.072338 0.289352 0.289352 0.289352 0.144676 0.144676 0.144676 0.072338 0.289352 0.289352 0.289352 0.144676 0.144676 0.144676 0.072338 0.289352 0.289352 0.289352 0.144676 0.144676 0.144676 0.072338 0.289352 0.289352 0.289352 0.144676 0.144676 0.144676 0.072338 0.289352 0.289352 0.289352 0.144676 0.144676 0.144676 0.072338 0.289352 0.289352 0.289352 0.144676 0.144676 0.144676 0.072338 0.289352 0.289352 0.289352 0.144676 0.144676 0.144676 0.0723379 0.289352 0.289352 0.289352 0.144676 0.144676 0.144676 0.072338 0.289352 0.289352 0.289352 0.144676 0.144676 0.144676 0.072338 0.289352 0.289352 0.289352 0.144676 0.144676 0.144676 0.0723379 0.289352 0.289352 0.289352 0.144676 0.144676 0.144676 0.072338 0.289352 0.289352 0.289352 0.144676 0.144676 0.144676 0.0723379 0.289352 0.289352 0.289352 0.144676 0.144676 0.144676 0.072338 0.289352 0.289352 0.289352 0.144676 0.144676 0.144676 0.0723381 0.289352 0.289352 0.289352 0.144676 0.144676 0.144676 0.0723379 0.289352 0.289352 0.289351 0.144676 0.144676 0.144676 0.0723379 0.289352 0.289352 0.289352 0.144676 0.144676 0.144676 0.072338 0.289352 0.289352 0.289352 0.144676 0.144676 0.144676 0.0723379 0.144676 0.144676 0.289352 0.072338 0.144676 0.144676 0.072338 0.289352 0.144676 0.144676 0.144676 0.072338 0.144676 0.144676 0.072338 0.072338 0.072338 0.289352 0.144676 0.144676 0.144676 0.144676 0.072338 0.072338 0.289352 0.144676 0.144676 0.144676 0.144676 0.072338 0.072338 0.289352 0.144676 0.144676 0.144676 0.144676 0.0723379 0.0723379 0.289352 0.144676 0.144676 0.144676 0.144676 0.072338 0.072338 0.289352 0.144676 0.144676 0.144676 0.144676 0.072338 0.072338 0.289352 0.144676 0.144676 0.144676 0.144676 0.072338 0.072338 0.289352 0.144676 0.144676 0.144676 0.144676 0.072338 0.072338 0.289352 0.144676 0.144676 0.144676 0.144676 0.072338 0.072338 0.289352 0.144676 0.144676 0.144676 0.144676 0.0723379 0.0723379 0.289352 0.144676 0.144676 0.144676 0.144676 0.0723379 0.0723379 0.289352 0.144676 0.144676 0.144676 0.144676 0.072338 0.072338 0.289352 0.144676 0.144676 0.144676 0.144676 0.072338 0.072338 0.289352 0.144676 0.144676 0.144676 0.144676 0.072338 0.072338 0.289352 0.144676 0.144676 0.144676 0.144676 0.0723379 0.0723379 0.289352 0.144676 0.144676 0.144676 0.144676 0.072338 0.072338 0.289352 0.144676 0.144676 0.144676 0.144676 0.072338 0.072338 0.289352 0.144676 0.144676 0.144676 0.144676 0.0723379 0.0723379 0.289352 0.144676 0.144676 0.144676 0.144676 0.0723379 0.0723379 0.289352 0.144676 0.144676 0.144676 0.144676 0.0723379 0.0723379 0.289352 0.144676 0.144676 0.144676 0.144676 0.072338 0.072338 0.289352 0.144676 0.144676 0.144676 0.144676 0.0723379 0.0723379 0.289352 0.144676 0.144676 0.144676 0.144676 0.0723379 0.0723379 0.289352 0.144676 0.144676 0.144676 0.144676 0.072338 0.072338 0.289352 0.144676 0.144676 0.144676 0.144676 0.0723379 0.0723379 0.289352 0.144676 0.144676 0.144676 0.144676 0.072338 0.072338 0.289352 0.144676 0.144676 0.144676 0.144676 0.0723381 0.0723381 0.289351 0.144676 0.144676 0.144676 0.144676 0.0723379 0.0723379 0.289352 0.144676 0.144676 0.144676 0.144676 0.0723378 0.0723378 0.289352 0.144676 0.144676 0.144676 0.144676 0.072338 0.072338 0.289352 0.144676 0.144676 0.144676 0.144676 0.0723379 0.0723379 0.144676 0.072338 0.144676 0.072338 0.144676 0.072338 0.072338 0.144676 0.144676 0.072338 0.289352 0.144676 0.289352 0.289352 0.144676 0.072338 0.144676 0.144676 0.072338 0.144676 0.072338 0.144676 0.144676 0.289352 0.289352 0.289352 0.072338 0.144676 0.144676 0.144676 0.072338 0.144676 0.144676 0.289352 0.289352 0.289352 0.072338 0.144676 0.144676 0.144676 0.072338 0.144676 0.144676 0.289352 0.289352 0.289352 0.072338 0.144676 0.144676 0.144676 0.072338 0.144676 0.144676 0.289352 0.289352 0.289352 0.072338 0.144676 0.144676 0.144676 0.072338 0.144676 0.144676 0.289352 0.289352 0.289352 0.072338 0.144676 0.144676 0.144676 0.072338 0.144676 0.144676 0.289352 0.289352 0.289352 0.072338 0.144676 0.144676 0.144676 0.072338 0.144676 0.144676 0.289352 0.289352 0.289352 0.072338 0.144676 0.144676 0.144676 0.072338 0.144676 0.144676 0.289352 0.289352 0.289352 0.072338 0.144676 0.144676 0.144676 0.072338 0.144676 0.144676 0.289352 0.289352 0.289352 0.0723379 0.144676 0.144676 0.144676 0.0723379 0.144676 0.144676 0.289352 0.289352 0.289352 0.0723379 0.144676 0.144676 0.144676 0.0723379 0.144676 0.144676 0.289352 0.289352 0.289352 0.072338 0.144676 0.144676 0.144676 0.072338 0.144676 0.144676 0.289352 0.289352 0.289352 0.072338 0.144676 0.144676 0.144676 0.072338 0.144676 0.144676 0.289352 0.289352 0.289352 0.072338 0.144676 0.144676 0.144676 0.072338 0.144676 0.144676 0.289352 0.289352 0.289352 0.0723379 0.144676 0.144676 0.144676 0.0723379 0.144676 0.144676 0.289352 0.289352 0.289352 0.072338 0.144676 0.144676 0.144676 0.072338 0.144676 0.144676 0.289352 0.289352 0.289352 0.072338 0.144676 0.144676 0.144676 0.072338 0.144676 0.144676 0.289352 0.289352 0.289352 0.072338 0.144676 0.144676 0.144676 0.072338 0.144676 0.144676 0.289352 0.289352 0.289352 0.0723379 0.144676 0.144676 0.144676 0.0723379 0.144676 0.144676 0.289352 0.289352 0.289352 0.0723379 0.144676 0.144676 0.144676 0.0723379 0.144676 0.144676 0.289352 0.289352 0.289352 0.072338 0.144676 0.144676 0.144676 0.072338 0.144676 0.144676 0.289352 0.289352 0.289352 0.072338 0.144676 0.144676 0.144676 0.072338 0.144676 0.144676 0.289352 0.289352 0.289352 0.0723379 0.144676 0.144676 0.144676 0.0723379 0.144676 0.144676 0.289352 0.289352 0.289352 0.072338 0.144676 0.144676 0.144676 0.072338 0.144676 0.144676 0.289352 0.289352 0.289352 0.0723379 0.144676 0.144676 0.144676 0.0723379 0.144676 0.144676 0.289352 0.289352 0.289352 0.072338 0.144676 0.144676 0.144676 0.072338 0.144676 0.144676 0.289352 0.289352 0.289352 0.0723381 0.144676 0.144676 0.144676 0.0723381 0.144676 0.144676 0.289351 0.289352 0.289352 0.0723379 0.144676 0.144676 0.144676 0.0723379 0.144676 0.144676 0.289352 0.289352 0.289351 0.0723379 0.144676 0.144676 0.144676 0.0723379 0.144676 0.144676 0.289352 0.289352 0.289352 0.072338 0.144676 0.144676 0.144676 0.072338 0.144676 0.144676 0.289352 0.289352 0.289352 0.0723379 0.144676 0.144676 0.144676 0.0723379 0.072338 0.144676 0.144676 0.144676 0.289352 0.072338 0.072338 0.144676 0.144676 0.072338 0.289352 0.144676 0.289352 0.289352 0.144676 0.144676 0.144676 0.072338 0.144676 0.072338 0.289352 0.289352 0.289352 0.144676 0.144676 0.144676 0.072338 0.289352 0.289352 0.289352 0.144676 0.144676 0.144676 0.072338 0.289352 0.289352 0.289352 0.144676 0.144676 0.144676 0.072338 0.289352 0.289352 0.289352 0.144676 0.144676 0.144676 0.072338 0.289352 0.289352 0.289352 0.144676 0.144676 0.144676 0.072338 0.289352 0.289352 0.289352 0.144676 0.144676 0.144676 0.072338 0.289352 0.289352 0.289352 0.144676 0.144676 0.144676 0.072338 0.289352 0.289352 0.289352 0.144676 0.144676 0.144676 0.072338 0.289352 0.289352 0.289352 0.144676 0.144676 0.144676 0.0723379 0.289352 0.289352 0.289352 0.144676 0.144676 0.144676 0.0723379 0.289352 0.289352 0.289352 0.144676 0.144676 0.144676 0.072338 0.289352 0.289352 0.289352 0.144676 0.144676 0.144676 0.072338 0.289352 0.289352 0.289352 0.144676 0.144676 0.144676 0.072338 0.289352 0.289352 0.289352 0.144676 0.144676 0.144676 0.0723379 0.289352 0.289352 0.289352 0.144676 0.144676 0.144676 0.072338 0.289352 0.289352 0.289352 0.144676 0.144676 0.144676 0.072338 0.289352 0.289352 0.289352 0.144676 0.144676 0.144676 0.0723379 0.289352 0.289352 0.289352 0.144676 0.144676 0.144676 0.0723379 0.289352 0.289352 0.289352 0.144676 0.144676 0.144676 0.0723379 0.289352 0.289352 0.289352 0.144676 0.144676 0.144676 0.072338 0.289352 0.289352 0.289352 0.144676 0.144676 0.144676 0.072338 0.289352 0.289352 0.289352 0.144676 0.144676 0.144676 0.0723379 0.289352 0.289352 0.289352 0.144676 0.144676 0.144676 0.072338 0.289352 0.289352 0.289352 0.144676 0.144676 0.144676 0.0723379 0.289352 0.289352 0.289352 0.144676 0.144676 0.144676 0.072338 0.289352 0.289352 0.289352 0.144676 0.144676 0.144676 0.0723381 0.289351 0.289352 0.289352 0.144676 0.144676 0.144676 0.0723379 0.289352 0.289352 0.289351 0.144676 0.144676 0.144676 0.0723378 0.289352 0.289352 0.289352 0.144676 0.144676 0.144676 0.072338 0.289352 0.289352 0.289352 0.144676 0.144676 0.144676 0.0723379 0.144676 0.144676 0.289352 0.072338 0.144676 0.144676 0.072338 0.289352 0.144676 0.289352 0.289352 0.144676 0.144676 0.144676 0.072338 0.144676 0.072338 0.289352 0.289352 0.289352 0.144676 0.144676 0.144676 0.072338 0.289352 0.289352 0.289352 0.144676 0.144676 0.144676 0.072338 0.289352 0.289352 0.289352 0.144676 0.144676 0.144676 0.072338 0.289352 0.289352 0.289352 0.144676 0.144676 0.144676 0.072338 0.289352 0.289352 0.289352 0.144676 0.144676 0.144676 0.072338 0.289352 0.289352 0.289352 0.144676 0.144676 0.144676 0.072338 0.289352 0.289352 0.289352 0.144676 0.144676 0.144676 0.072338 0.289352 0.289352 0.289352 0.144676 0.144676 0.144676 0.072338 0.289352 0.289352 0.289352 0.144676 0.144676 0.144676 0.0723379 0.289352 0.289352 0.289352 0.144676 0.144676 0.144676 0.0723379 0.289352 0.289352 0.289352 0.144676 0.144676 0.144676 0.072338 0.289352 0.289352 0.289352 0.144676 0.144676 0.144676 0.072338 0.289352 0.289352 0.289352 0.144676 0.144676 0.144676 0.072338 0.289352 0.289352 0.289352 0.144676 0.144676 0.144676 0.0723379 0.289352 0.289352 0.289352 0.144676 0.144676 0.144676 0.072338 0.289352 0.289352 0.289352 0.144676 0.144676 0.144676 0.072338 0.289352 0.289352 0.289352 0.144676 0.144676 0.144676 0.0723379 0.289352 0.289352 0.289352 0.144676 0.144676 0.144676 0.0723379 0.289352 0.289352 0.289352 0.144676 0.144676 0.144676 0.0723379 0.289352 0.289352 0.289352 0.144676 0.144676 0.144676 0.072338 0.289352 0.289352 0.289352 0.144676 0.144676 0.144676 0.072338 0.289352 0.289352 0.289352 0.144676 0.144676 0.144676 0.0723379 0.289352 0.289352 0.289352 0.144676 0.144676 0.144676 0.072338 0.289352 0.289352 0.289352 0.144676 0.144676 0.144676 0.0723379 0.289352 0.289352 0.289352 0.144676 0.144676 0.144676 0.072338 0.289352 0.289352 0.289352 0.144676 0.144676 0.144676 0.0723381 0.289351 0.289351 0.289352 0.144676 0.144676 0.144676 0.0723379 0.289352 0.289352 0.289351 0.144676 0.144676 0.144676 0.0723378 0.289352 0.289352 0.289352 0.144676 0.144676 0.144676 0.072338 0.289352 0.289352 0.289352 0.144676 0.144676 0.144676 0.0723379 0.144676 0.144676 0.289352 0.072338 0.144676 0.144676 0.072338 0.289352 0.144676 0.289352 0.289352 0.144676 0.144676 0.144676 0.072338 0.144676 0.072338 0.289352 0.289352 0.289352 0.144676 0.144676 0.144676 0.072338 0.289352 0.289352 0.289352 0.144676 0.144676 0.144676 0.072338 0.289352 0.289352 0.289352 0.144676 0.144676 0.144676 0.072338 0.289352 0.289352 0.289352 0.144676 0.144676 0.144676 0.072338 0.289352 0.289352 0.289352 0.144676 0.144676 0.144676 0.072338 0.289352 0.289352 0.289352 0.144676 0.144676 0.144676 0.072338 0.289352 0.289352 0.289352 0.144676 0.144676 0.144676 0.072338 0.289352 0.289352 0.289352 0.144676 0.144676 0.144676 0.072338 0.289352 0.289352 0.289352 0.144676 0.144676 0.144676 0.0723379 0.289352 0.289352 0.289352 0.144676 0.144676 0.144676 0.0723379 0.289352 0.289352 0.289352 0.144676 0.144676 0.144676 0.072338 0.289352 0.289352 0.289352 0.144676 0.144676 0.144676 0.072338 0.289352 0.289352 0.289352 0.144676 0.144676 0.144676 0.072338 0.289352 0.289352 0.289352 0.144676 0.144676 0.144676 0.0723379 0.289352 0.289352 0.289352 0.144676 0.144676 0.144676 0.072338 0.289352 0.289352 0.289352 0.144676 0.144676 0.144676 0.072338 0.289352 0.289352 0.289352 0.144676 0.144676 0.144676 0.0723379 0.289352 0.289352 0.289352 0.144676 0.144676 0.144676 0.0723379 0.289352 0.289352 0.289352 0.144676 0.144676 0.144676 0.0723379 0.289352 0.289352 0.289352 0.144676 0.144676 0.144676 0.072338 0.289352 0.289352 0.289352 0.144676 0.144676 0.144676 0.0723379 0.289352 0.289352 0.289352 0.144676 0.144676 0.144676 0.0723379 0.289352 0.289352 0.289352 0.144676 0.144676 0.144676 0.072338 0.289352 0.289352 0.289352 0.144676 0.144676 0.144676 0.0723379 0.289352 0.289352 0.289352 0.144676 0.144676 0.144676 0.072338 0.289352 0.289352 0.289352 0.144676 0.144676 0.144676 0.0723381 0.289351 0.289351 0.289352 0.144676 0.144676 0.144676 0.0723379 0.289352 0.289352 0.289351 0.144676 0.144676 0.144676 0.0723378 0.289352 0.289352 0.289352 0.144676 0.144676 0.144676 0.072338 0.289352 0.289352 0.289352 0.144676 0.144676 0.144676 0.0723379 0.144676 0.144676 0.289352 0.072338 0.144676 0.144676 0.072338 0.289352 0.144676 0.289352 0.289352 0.144676 0.144676 0.144676 0.072338 0.144676 0.072338 0.289352 0.289352 0.289352 0.144676 0.144676 0.144676 0.072338 0.289352 0.289352 0.289352 0.144676 0.144676 0.144676 0.072338 0.289352 0.289352 0.289352 0.144676 0.144676 0.144676 0.072338 0.289352 0.289352 0.289352 0.144676 0.144676 0.144676 0.072338 0.289352 0.289352 0.289352 0.144676 0.144676 0.144676 0.072338 0.289352 0.289352 0.289352 0.144676 0.144676 0.144676 0.072338 0.289352 0.289352 0.289352 0.144676 0.144676 0.144676 0.072338 0.289352 0.289352 0.289352 0.144676 0.144676 0.144676 0.072338 0.289352 0.289352 0.289352 0.144676 0.144676 0.144676 0.0723379 0.289352 0.289352 0.289352 0.144676 0.144676 0.144676 0.0723379 0.289352 0.289352 0.289352 0.144676 0.144676 0.144676 0.072338 0.289352 0.289352 0.289352 0.144676 0.144676 0.144676 0.072338 0.289352 0.289352 0.289352 0.144676 0.144676 0.144676 0.072338 0.289352 0.289352 0.289352 0.144676 0.144676 0.144676 0.0723379 0.289352 0.289352 0.289352 0.144676 0.144676 0.144676 0.072338 0.289352 0.289352 0.289352 0.144676 0.144676 0.144676 0.072338 0.289352 0.289352 0.289352 0.144676 0.144676 0.144676 0.0723379 0.289352 0.289352 0.289352 0.144676 0.144676 0.144676 0.0723379 0.289352 0.289352 0.289352 0.144676 0.144676 0.144676 0.0723379 0.289352 0.289352 0.289352 0.144676 0.144676 0.144676 0.072338 0.289352 0.289352 0.289352 0.144676 0.144676 0.144676 0.072338 0.289352 0.289352 0.289352 0.144676 0.144676 0.144676 0.0723379 0.289352 0.289352 0.289352 0.144676 0.144676 0.144676 0.072338 0.289352 0.289352 0.289352 0.144676 0.144676 0.144676 0.0723379 0.289352 0.289352 0.289352 0.144676 0.144676 0.144676 0.072338 0.289352 0.289352 0.289352 0.144676 0.144676 0.144676 0.0723381 0.289351 0.289352 0.289352 0.144676 0.144676 0.144676 0.0723379 0.289352 0.289352 0.289351 0.144676 0.144676 0.144676 0.0723378 0.289352 0.289352 0.289352 0.144676 0.144676 0.144676 0.072338 0.289352 0.289352 0.289352 0.144676 0.144676 0.144676 0.0723379 0.144676 0.144676 0.289352 0.072338 0.144676 0.144676 0.072338 0.289352 0.144676 0.289352 0.289352 0.144676 0.144676 0.144676 0.072338 0.144676 0.072338 0.289352 0.289352 0.289352 0.144676 0.144676 0.144676 0.072338 0.289352 0.289352 0.289352 0.144676 0.144676 0.144676 0.072338 0.289352 0.289352 0.289352 0.144676 0.144676 0.144676 0.072338 0.289352 0.289352 0.289352 0.144676 0.144676 0.144676 0.072338 0.289352 0.289352 0.289352 0.144676 0.144676 0.144676 0.072338 0.289352 0.289352 0.289352 0.144676 0.144676 0.144676 0.072338 0.289352 0.289352 0.289352 0.144676 0.144676 0.144676 0.072338 0.289352 0.289352 0.289352 0.144676 0.144676 0.144676 0.072338 0.289352 0.289352 0.289352 0.144676 0.144676 0.144676 0.072338 0.289352 0.289352 0.289352 0.144676 0.144676 0.144676 0.072338 0.289352 0.289352 0.289352 0.144676 0.144676 0.144676 0.072338 0.289352 0.289352 0.289352 0.144676 0.144676 0.144676 0.072338 0.289352 0.289352 0.289352 0.144676 0.144676 0.144676 0.072338 0.289352 0.289352 0.289352 0.144676 0.144676 0.144676 0.0723379 0.289352 0.289352 0.289352 0.144676 0.144676 0.144676 0.072338 0.289352 0.289352 0.289352 0.144676 0.144676 0.144676 0.072338 0.289352 0.289352 0.289352 0.144676 0.144676 0.144676 0.072338 0.289352 0.289352 0.289352 0.144676 0.144676 0.144676 0.0723379 0.289352 0.289352 0.289352 0.144676 0.144676 0.144676 0.0723379 0.289352 0.289352 0.289352 0.144676 0.144676 0.144676 0.072338 0.289352 0.289352 0.289352 0.144676 0.144676 0.144676 0.072338 0.289352 0.289352 0.289352 0.144676 0.144676 0.144676 0.0723379 0.289352 0.289352 0.289352 0.144676 0.144676 0.144676 0.072338 0.289352 0.289352 0.289352 0.144676 0.144676 0.144676 0.0723379 0.289352 0.289352 0.289352 0.144676 0.144676 0.144676 0.072338 0.289352 0.289352 0.289352 0.144676 0.144676 0.144676 0.0723381 0.289352 0.289352 0.289352 0.144676 0.144676 0.144676 0.0723379 0.289352 0.289352 0.289351 0.144676 0.144676 0.144676 0.0723379 0.289352 0.289352 0.289352 0.144676 0.144676 0.144676 0.072338 0.289352 0.289352 0.289352 0.144676 0.144676 0.144676 0.0723379 0.144676 0.144676 0.289352 0.072338 0.144676 0.144676 0.072338 0.289352 0.144676 0.289352 0.289352 0.144676 0.144676 0.144676 0.072338 0.144676 0.072338 0.289352 0.289352 0.289352 0.144676 0.144676 0.144676 0.072338 0.289352 0.289352 0.289352 0.144676 0.144676 0.144676 0.072338 0.289352 0.289352 0.289352 0.144676 0.144676 0.144676 0.072338 0.289352 0.289352 0.289352 0.144676 0.144676 0.144676 0.072338 0.289352 0.289352 0.289352 0.144676 0.144676 0.144676 0.072338 0.289352 0.289352 0.289352 0.144676 0.144676 0.144676 0.072338 0.289352 0.289352 0.289352 0.144676 0.144676 0.144676 0.072338 0.289352 0.289352 0.289352 0.144676 0.144676 0.144676 0.072338 0.289352 0.289352 0.289352 0.144676 0.144676 0.144676 0.0723379 0.289352 0.289352 0.289352 0.144676 0.144676 0.144676 0.072338 0.289352 0.289352 0.289352 0.144676 0.144676 0.144676 0.072338 0.289352 0.289352 0.289352 0.144676 0.144676 0.144676 0.072338 0.289352 0.289352 0.289352 0.144676 0.144676 0.144676 0.072338 0.289352 0.289352 0.289352 0.144676 0.144676 0.144676 0.0723379 0.289352 0.289352 0.289352 0.144676 0.144676 0.144676 0.072338 0.289352 0.289352 0.289352 0.144676 0.144676 0.144676 0.072338 0.289352 0.289352 0.289352 0.144676 0.144676 0.144676 0.072338 0.289352 0.289352 0.289352 0.144676 0.144676 0.144676 0.0723379 0.289352 0.289352 0.289352 0.144676 0.144676 0.144676 0.0723379 0.289352 0.289352 0.289352 0.144676 0.144676 0.144676 0.072338 0.289352 0.289352 0.289352 0.144676 0.144676 0.144676 0.072338 0.289352 0.289352 0.289352 0.144676 0.144676 0.144676 0.0723379 0.289352 0.289352 0.289352 0.144676 0.144676 0.144676 0.072338 0.289352 0.289352 0.289352 0.144676 0.144676 0.144676 0.0723379 0.289352 0.289352 0.289352 0.144676 0.144676 0.144676 0.072338 0.289352 0.289352 0.289352 0.144676 0.144676 0.144676 0.0723381 0.289352 0.289352 0.289352 0.144676 0.144676 0.144676 0.0723379 0.289352 0.289352 0.289351 0.144676 0.144676 0.144676 0.0723379 0.289352 0.289352 0.289352 0.144676 0.144676 0.144676 0.072338 0.289352 0.289352 0.289352 0.144676 0.144676 0.144676 0.0723379 0.144676 0.144676 0.289352 0.072338 0.144676 0.144676 0.072338 0.289352 0.144676 0.144676 0.144676 0.072338 0.144676 0.144676 0.072338 0.072338 0.072338 0.289352 0.144676 0.144676 0.144676 0.144676 0.072338 0.072338 0.289352 0.144676 0.144676 0.144676 0.144676 0.072338 0.072338 0.289352 0.144676 0.144676 0.144676 0.144676 0.0723379 0.0723379 0.289352 0.144676 0.144676 0.144676 0.144676 0.0723379 0.0723379 0.289352 0.144676 0.144676 0.144676 0.144676 0.072338 0.072338 0.289352 0.144676 0.144676 0.144676 0.144676 0.072338 0.072338 0.289352 0.144676 0.144676 0.144676 0.144676 0.0723379 0.0723379 0.289352 0.144676 0.144676 0.144676 0.144676 0.072338 0.072338 0.289352 0.144676 0.144676 0.144676 0.144676 0.0723379 0.0723379 0.289352 0.144676 0.144676 0.144676 0.144676 0.0723379 0.0723379 0.289352 0.144676 0.144676 0.144676 0.144676 0.072338 0.072338 0.289352 0.144676 0.144676 0.144676 0.144676 0.072338 0.072338 0.289352 0.144676 0.144676 0.144676 0.144676 0.072338 0.072338 0.289352 0.144676 0.144676 0.144676 0.144676 0.0723379 0.0723379 0.289352 0.144676 0.144676 0.144676 0.144676 0.072338 0.072338 0.289352 0.144676 0.144676 0.144676 0.144676 0.072338 0.072338 0.289352 0.144676 0.144676 0.144676 0.144676 0.0723379 0.0723379 0.289352 0.144676 0.144676 0.144676 0.144676 0.0723379 0.0723379 0.289352 0.144676 0.144676 0.144676 0.144676 0.0723379 0.0723379 0.289352 0.144676 0.144676 0.144676 0.144676 0.072338 0.072338 0.289352 0.144676 0.144676 0.144676 0.144676 0.0723379 0.0723379 0.289352 0.144676 0.144676 0.144676 0.144676 0.0723379 0.0723379 0.289352 0.144676 0.144676 0.144676 0.144676 0.072338 0.072338 0.289352 0.144676 0.144676 0.144676 0.144676 0.0723379 0.0723379 0.289352 0.144676 0.144676 0.144676 0.144676 0.0723379 0.0723379 0.289352 0.144676 0.144676 0.144676 0.144676 0.0723381 0.0723381 0.289351 0.144676 0.144676 0.144676 0.144676 0.0723379 0.0723379 0.289352 0.144676 0.144676 0.144676 0.144676 0.0723378 0.0723378 0.289352 0.144676 0.144676 0.144676 0.144676 0.072338 0.072338 0.289352 0.144676 0.144676 0.144676 0.144676 0.0723379 0.0723379 0.144676 0.072338 0.144676 0.072338 0.144676 0.072338 0.072338 0.144676 0.144676 0.072338 0.289352 0.144676 0.289352 0.289352 0.144676 0.072338 0.144676 0.144676 0.072338 0.144676 0.072338 0.144676 0.144676 0.289352 0.289352 0.289352 0.072338 0.144676 0.144676 0.144676 0.072338 0.144676 0.144676 0.289352 0.289352 0.289352 0.072338 0.144676 0.144676 0.144676 0.072338 0.144676 0.144676 0.289352 0.289352 0.289352 0.0723379 0.144676 0.144676 0.144676 0.0723379 0.144676 0.144676 0.289352 0.289352 0.289352 0.072338 0.144676 0.144676 0.144676 0.072338 0.144676 0.144676 0.289352 0.289352 0.289352 0.072338 0.144676 0.144676 0.144676 0.072338 0.144676 0.144676 0.289352 0.289352 0.289352 0.072338 0.144676 0.144676 0.144676 0.072338 0.144676 0.144676 0.289352 0.289352 0.289352 0.072338 0.144676 0.144676 0.144676 0.072338 0.144676 0.144676 0.289352 0.289352 0.289352 0.072338 0.144676 0.144676 0.144676 0.072338 0.144676 0.144676 0.289352 0.289352 0.289352 0.0723379 0.144676 0.144676 0.144676 0.0723379 0.144676 0.144676 0.289352 0.289352 0.289352 0.0723379 0.144676 0.144676 0.144676 0.0723379 0.144676 0.144676 0.289352 0.289352 0.289352 0.072338 0.144676 0.144676 0.144676 0.072338 0.144676 0.144676 0.289352 0.289352 0.289352 0.072338 0.144676 0.144676 0.144676 0.072338 0.144676 0.144676 0.289352 0.289352 0.289352 0.072338 0.144676 0.144676 0.144676 0.072338 0.144676 0.144676 0.289352 0.289352 0.289352 0.0723379 0.144676 0.144676 0.144676 0.0723379 0.144676 0.144676 0.289352 0.289352 0.289352 0.072338 0.144676 0.144676 0.144676 0.072338 0.144676 0.144676 0.289352 0.289352 0.289352 0.072338 0.144676 0.144676 0.144676 0.072338 0.144676 0.144676 0.289352 0.289352 0.289352 0.0723379 0.144676 0.144676 0.144676 0.0723379 0.144676 0.144676 0.289352 0.289352 0.289352 0.0723379 0.144676 0.144676 0.144676 0.0723379 0.144676 0.144676 0.289352 0.289352 0.289352 0.0723379 0.144676 0.144676 0.144676 0.0723379 0.144676 0.144676 0.289352 0.289352 0.289352 0.072338 0.144676 0.144676 0.144676 0.072338 0.144676 0.144676 0.289352 0.289352 0.289352 0.0723379 0.144676 0.144676 0.144676 0.0723379 0.144676 0.144676 0.289352 0.289352 0.289352 0.0723379 0.144676 0.144676 0.144676 0.0723379 0.144676 0.144676 0.289352 0.289352 0.289352 0.072338 0.144676 0.144676 0.144676 0.072338 0.144676 0.144676 0.289352 0.289352 0.289352 0.0723379 0.144676 0.144676 0.144676 0.0723379 0.144676 0.144676 0.289352 0.289352 0.289352 0.0723379 0.144676 0.144676 0.144676 0.0723379 0.144676 0.144676 0.289352 0.289352 0.289352 0.0723381 0.144676 0.144676 0.144676 0.0723381 0.144676 0.144676 0.289351 0.289351 0.289352 0.0723379 0.144676 0.144676 0.144676 0.0723379 0.144676 0.144676 0.289352 0.289352 0.289351 0.0723378 0.144676 0.144676 0.144676 0.0723378 0.144676 0.144676 0.289352 0.289352 0.289352 0.072338 0.144676 0.144676 0.144676 0.072338 0.144676 0.144676 0.289352 0.289352 0.289352 0.0723379 0.144676 0.144676 0.144676 0.0723379 0.072338 0.144676 0.144676 0.144676 0.289352 0.072338 0.072338 0.144676 0.144676 0.072338 0.289352 0.144676 0.289352 0.289352 0.144676 0.144676 0.144676 0.072338 0.144676 0.072338 0.289352 0.289352 0.289352 0.144676 0.144676 0.144676 0.072338 0.289352 0.289352 0.289352 0.144676 0.144676 0.144676 0.072338 0.289352 0.289352 0.289352 0.144676 0.144676 0.144676 0.0723379 0.289352 0.289352 0.289352 0.144676 0.144676 0.144676 0.072338 0.289352 0.289352 0.289352 0.144676 0.144676 0.144676 0.072338 0.289352 0.289352 0.289352 0.144676 0.144676 0.144676 0.072338 0.289352 0.289352 0.289352 0.144676 0.144676 0.144676 0.072338 0.289352 0.289352 0.289352 0.144676 0.144676 0.144676 0.072338 0.289352 0.289352 0.289352 0.144676 0.144676 0.144676 0.0723379 0.289352 0.289352 0.289352 0.144676 0.144676 0.144676 0.0723379 0.289352 0.289352 0.289352 0.144676 0.144676 0.144676 0.072338 0.289352 0.289352 0.289352 0.144676 0.144676 0.144676 0.072338 0.289352 0.289352 0.289352 0.144676 0.144676 0.144676 0.072338 0.289352 0.289352 0.289352 0.144676 0.144676 0.144676 0.0723379 0.289352 0.289352 0.289352 0.144676 0.144676 0.144676 0.072338 0.289352 0.289352 0.289352 0.144676 0.144676 0.144676 0.072338 0.289352 0.289352 0.289352 0.144676 0.144676 0.144676 0.0723379 0.289352 0.289352 0.289352 0.144676 0.144676 0.144676 0.0723379 0.289352 0.289352 0.289352 0.144676 0.144676 0.144676 0.0723379 0.289352 0.289352 0.289352 0.144676 0.144676 0.144676 0.072338 0.289352 0.289352 0.289352 0.144676 0.144676 0.144676 0.0723379 0.289352 0.289352 0.289352 0.144676 0.144676 0.144676 0.0723379 0.289352 0.289352 0.289352 0.144676 0.144676 0.144676 0.072338 0.289352 0.289352 0.289352 0.144676 0.144676 0.144676 0.0723379 0.289352 0.289352 0.289352 0.144676 0.144676 0.144676 0.0723379 0.289352 0.289352 0.289352 0.144676 0.144676 0.144676 0.0723381 0.289351 0.289351 0.289352 0.144676 0.144676 0.144676 0.0723379 0.289352 0.289352 0.289351 0.144676 0.144676 0.144676 0.0723378 0.289352 0.289352 0.289352 0.144676 0.144676 0.144676 0.072338 0.289352 0.289352 0.289352 0.144676 0.144676 0.144676 0.0723379 0.144676 0.144676 0.289352 0.072338 0.144676 0.144676 0.072338 0.289352 0.144676 0.289352 0.289352 0.144676 0.144676 0.144676 0.072338 0.144676 0.072338 0.289352 0.289352 0.289352 0.144676 0.144676 0.144676 0.072338 0.289352 0.289352 0.289352 0.144676 0.144676 0.144676 0.072338 0.289352 0.289352 0.289352 0.144676 0.144676 0.144676 0.0723379 0.289352 0.289352 0.289352 0.144676 0.144676 0.144676 0.072338 0.289352 0.289352 0.289352 0.144676 0.144676 0.144676 0.072338 0.289352 0.289352 0.289352 0.144676 0.144676 0.144676 0.072338 0.289352 0.289352 0.289352 0.144676 0.144676 0.144676 0.072338 0.289352 0.289352 0.289352 0.144676 0.144676 0.144676 0.072338 0.289352 0.289352 0.289352 0.144676 0.144676 0.144676 0.0723379 0.289352 0.289352 0.289352 0.144676 0.144676 0.144676 0.0723379 0.289352 0.289352 0.289352 0.144676 0.144676 0.144676 0.072338 0.289352 0.289352 0.289352 0.144676 0.144676 0.144676 0.072338 0.289352 0.289352 0.289352 0.144676 0.144676 0.144676 0.072338 0.289352 0.289352 0.289352 0.144676 0.144676 0.144676 0.0723379 0.289352 0.289352 0.289352 0.144676 0.144676 0.144676 0.072338 0.289352 0.289352 0.289352 0.144676 0.144676 0.144676 0.072338 0.289352 0.289352 0.289352 0.144676 0.144676 0.144676 0.0723379 0.289352 0.289352 0.289352 0.144676 0.144676 0.144676 0.0723379 0.289352 0.289352 0.289352 0.144676 0.144676 0.144676 0.0723379 0.289352 0.289352 0.289352 0.144676 0.144676 0.144676 0.072338 0.289352 0.289352 0.289352 0.144676 0.144676 0.144676 0.072338 0.289352 0.289352 0.289352 0.144676 0.144676 0.144676 0.0723379 0.289352 0.289352 0.289352 0.144676 0.144676 0.144676 0.072338 0.289352 0.289352 0.289352 0.144676 0.144676 0.144676 0.0723379 0.289352 0.289352 0.289352 0.144676 0.144676 0.144676 0.0723379 0.289352 0.289352 0.289352 0.144676 0.144676 0.144676 0.0723381 0.289352 0.289351 0.289352 0.144676 0.144676 0.144676 0.0723379 0.289352 0.289352 0.289351 0.144676 0.144676 0.144676 0.0723378 0.289352 0.289352 0.289352 0.144676 0.144676 0.144676 0.072338 0.289352 0.289352 0.289352 0.144676 0.144676 0.144676 0.0723379 0.144676 0.144676 0.289352 0.072338 0.144676 0.144676 0.072338 0.289352 0.144676 0.289352 0.289352 0.144676 0.144676 0.144676 0.072338 0.144676 0.072338 0.289352 0.289352 0.289352 0.144676 0.144676 0.144676 0.072338 0.289352 0.289352 0.289352 0.144676 0.144676 0.144676 0.072338 0.289352 0.289352 0.289352 0.144676 0.144676 0.144676 0.0723379 0.289352 0.289352 0.289352 0.144676 0.144676 0.144676 0.072338 0.289352 0.289352 0.289352 0.144676 0.144676 0.144676 0.072338 0.289352 0.289352 0.289352 0.144676 0.144676 0.144676 0.072338 0.289352 0.289352 0.289352 0.144676 0.144676 0.144676 0.0723379 0.289352 0.289352 0.289352 0.144676 0.144676 0.144676 0.072338 0.289352 0.289352 0.289352 0.144676 0.144676 0.144676 0.0723379 0.289352 0.289352 0.289352 0.144676 0.144676 0.144676 0.0723379 0.289352 0.289352 0.289352 0.144676 0.144676 0.144676 0.072338 0.289352 0.289352 0.289352 0.144676 0.144676 0.144676 0.0723379 0.289352 0.289352 0.289352 0.144676 0.144676 0.144676 0.072338 0.289352 0.289352 0.289352 0.144676 0.144676 0.144676 0.0723379 0.289352 0.289352 0.289352 0.144676 0.144676 0.144676 0.072338 0.289352 0.289352 0.289352 0.144676 0.144676 0.144676 0.0723379 0.289352 0.289352 0.289352 0.144676 0.144676 0.144676 0.0723379 0.289352 0.289352 0.289352 0.144676 0.144676 0.144676 0.0723379 0.289352 0.289352 0.289352 0.144676 0.144676 0.144676 0.0723379 0.289352 0.289352 0.289352 0.144676 0.144676 0.144676 0.072338 0.289352 0.289352 0.289352 0.144676 0.144676 0.144676 0.0723379 0.289352 0.289352 0.289352 0.144676 0.144676 0.144676 0.0723379 0.289352 0.289352 0.289352 0.144676 0.144676 0.144676 0.072338 0.289352 0.289352 0.289352 0.144676 0.144676 0.144676 0.0723379 0.289352 0.289352 0.289352 0.144676 0.144676 0.144676 0.0723379 0.289352 0.289352 0.289352 0.144676 0.144676 0.144676 0.072338 0.289351 0.289351 0.289352 0.144676 0.144676 0.144676 0.0723379 0.289352 0.289352 0.289351 0.144676 0.144676 0.144676 0.0723378 0.289352 0.289352 0.289352 0.144676 0.144676 0.144676 0.072338 0.289352 0.289352 0.289352 0.144676 0.144676 0.144676 0.0723379 0.144676 0.144676 0.289352 0.072338 0.144676 0.144676 0.072338 0.289352 0.144676 0.289352 0.289352 0.144676 0.144676 0.144676 0.072338 0.144676 0.072338 0.289352 0.289352 0.289352 0.144676 0.144676 0.144676 0.072338 0.289352 0.289352 0.289352 0.144676 0.144676 0.144676 0.072338 0.289352 0.289352 0.289352 0.144676 0.144676 0.144676 0.0723379 0.289352 0.289352 0.289352 0.144676 0.144676 0.144676 0.072338 0.289352 0.289352 0.289352 0.144676 0.144676 0.144676 0.072338 0.289352 0.289352 0.289352 0.144676 0.144676 0.144676 0.0723379 0.289352 0.289352 0.289352 0.144676 0.144676 0.144676 0.0723379 0.289352 0.289352 0.289352 0.144676 0.144676 0.144676 0.072338 0.289352 0.289352 0.289352 0.144676 0.144676 0.144676 0.0723379 0.289352 0.289352 0.289352 0.144676 0.144676 0.144676 0.0723379 0.289352 0.289352 0.289352 0.144676 0.144676 0.144676 0.072338 0.289352 0.289352 0.289352 0.144676 0.144676 0.144676 0.0723379 0.289352 0.289352 0.289352 0.144676 0.144676 0.144676 0.072338 0.289352 0.289352 0.289352 0.144676 0.144676 0.144676 0.0723379 0.289352 0.289352 0.289352 0.144676 0.144676 0.144676 0.072338 0.289352 0.289352 0.289352 0.144676 0.144676 0.144676 0.072338 0.289352 0.289352 0.289352 0.144676 0.144676 0.144676 0.0723379 0.289352 0.289352 0.289352 0.144676 0.144676 0.144676 0.0723379 0.289352 0.289352 0.289352 0.144676 0.144676 0.144676 0.0723379 0.289352 0.289352 0.289352 0.144676 0.144676 0.144676 0.072338 0.289352 0.289352 0.289352 0.144676 0.144676 0.144676 0.0723379 0.289352 0.289352 0.289352 0.144676 0.144676 0.144676 0.0723379 0.289352 0.289352 0.289352 0.144676 0.144676 0.144676 0.072338 0.289352 0.289352 0.289352 0.144676 0.144676 0.144676 0.0723379 0.289352 0.289352 0.289352 0.144676 0.144676 0.144676 0.0723379 0.289352 0.289352 0.289352 0.144676 0.144676 0.144676 0.072338 0.289351 0.289351 0.289352 0.144676 0.144676 0.144676 0.0723379 0.289352 0.289352 0.289351 0.144676 0.144676 0.144676 0.0723378 0.289352 0.289352 0.289352 0.144676 0.144676 0.144676 0.072338 0.289352 0.289352 0.289352 0.144676 0.144676 0.144676 0.0723379 0.144676 0.144676 0.289352 0.072338 0.144676 0.144676 0.072338 0.289352 0.144676 0.289352 0.289352 0.144676 0.144676 0.144676 0.072338 0.144676 0.072338 0.289352 0.289352 0.289352 0.144676 0.144676 0.144676 0.072338 0.289352 0.289352 0.289352 0.144676 0.144676 0.144676 0.072338 0.289352 0.289352 0.289352 0.144676 0.144676 0.144676 0.072338 0.289352 0.289352 0.289352 0.144676 0.144676 0.144676 0.072338 0.289352 0.289352 0.289352 0.144676 0.144676 0.144676 0.072338 0.289352 0.289352 0.289352 0.144676 0.144676 0.144676 0.072338 0.289352 0.289352 0.289352 0.144676 0.144676 0.144676 0.072338 0.289352 0.289352 0.289352 0.144676 0.144676 0.144676 0.072338 0.289352 0.289352 0.289352 0.144676 0.144676 0.144676 0.0723379 0.289352 0.289352 0.289352 0.144676 0.144676 0.144676 0.0723379 0.289352 0.289352 0.289352 0.144676 0.144676 0.144676 0.072338 0.289352 0.289352 0.289352 0.144676 0.144676 0.144676 0.072338 0.289352 0.289352 0.289352 0.144676 0.144676 0.144676 0.072338 0.289352 0.289352 0.289352 0.144676 0.144676 0.144676 0.0723379 0.289352 0.289352 0.289352 0.144676 0.144676 0.144676 0.072338 0.289352 0.289352 0.289352 0.144676 0.144676 0.144676 0.072338 0.289352 0.289352 0.289352 0.144676 0.144676 0.144676 0.0723379 0.289352 0.289352 0.289352 0.144676 0.144676 0.144676 0.0723379 0.289352 0.289352 0.289352 0.144676 0.144676 0.144676 0.0723379 0.289352 0.289352 0.289352 0.144676 0.144676 0.144676 0.072338 0.289352 0.289352 0.289352 0.144676 0.144676 0.144676 0.0723379 0.289352 0.289352 0.289352 0.144676 0.144676 0.144676 0.0723379 0.289352 0.289352 0.289352 0.144676 0.144676 0.144676 0.072338 0.289352 0.289352 0.289352 0.144676 0.144676 0.144676 0.0723379 0.289352 0.289352 0.289352 0.144676 0.144676 0.144676 0.072338 0.289352 0.289352 0.289352 0.144676 0.144676 0.144676 0.0723381 0.289352 0.289351 0.289352 0.144676 0.144676 0.144676 0.0723379 0.289352 0.289352 0.289351 0.144676 0.144676 0.144676 0.0723378 0.289352 0.289352 0.289352 0.144676 0.144676 0.144676 0.072338 0.289352 0.289352 0.289352 0.144676 0.144676 0.144676 0.0723379 0.144676 0.144676 0.289352 0.072338 0.144676 0.144676 0.072338 0.289352 0.144676 0.289352 0.289352 0.144676 0.144676 0.144676 0.072338 0.144676 0.072338 0.289352 0.289352 0.289352 0.144676 0.144676 0.144676 0.072338 0.289352 0.289352 0.289352 0.144676 0.144676 0.144676 0.072338 0.289352 0.289352 0.289352 0.144676 0.144676 0.144676 0.072338 0.289352 0.289352 0.289352 0.144676 0.144676 0.144676 0.072338 0.289352 0.289352 0.289352 0.144676 0.144676 0.144676 0.072338 0.289352 0.289352 0.289352 0.144676 0.144676 0.144676 0.072338 0.289352 0.289352 0.289352 0.144676 0.144676 0.144676 0.072338 0.289352 0.289352 0.289352 0.144676 0.144676 0.144676 0.072338 0.289352 0.289352 0.289352 0.144676 0.144676 0.144676 0.0723379 0.289352 0.289352 0.289352 0.144676 0.144676 0.144676 0.0723379 0.289352 0.289352 0.289352 0.144676 0.144676 0.144676 0.072338 0.289352 0.289352 0.289352 0.144676 0.144676 0.144676 0.072338 0.289352 0.289352 0.289352 0.144676 0.144676 0.144676 0.072338 0.289352 0.289352 0.289352 0.144676 0.144676 0.144676 0.0723379 0.289352 0.289352 0.289352 0.144676 0.144676 0.144676 0.072338 0.289352 0.289352 0.289352 0.144676 0.144676 0.144676 0.072338 0.289352 0.289352 0.289352 0.144676 0.144676 0.144676 0.0723379 0.289352 0.289352 0.289352 0.144676 0.144676 0.144676 0.0723379 0.289352 0.289352 0.289352 0.144676 0.144676 0.144676 0.0723379 0.289352 0.289352 0.289352 0.144676 0.144676 0.144676 0.072338 0.289352 0.289352 0.289352 0.144676 0.144676 0.144676 0.072338 0.289352 0.289352 0.289352 0.144676 0.144676 0.144676 0.0723379 0.289352 0.289352 0.289352 0.144676 0.144676 0.144676 0.072338 0.289352 0.289352 0.289352 0.144676 0.144676 0.144676 0.0723379 0.289352 0.289352 0.289352 0.144676 0.144676 0.144676 0.0723379 0.289352 0.289352 0.289352 0.144676 0.144676 0.144676 0.0723381 0.289352 0.289351 0.289352 0.144676 0.144676 0.144676 0.0723379 0.289352 0.289352 0.289351 0.144676 0.144676 0.144676 0.0723378 0.289352 0.289352 0.289352 0.144676 0.144676 0.144676 0.072338 0.289352 0.289352 0.289352 0.144676 0.144676 0.144676 0.0723379 0.144676 0.144676 0.289352 0.072338 0.144676 0.144676 0.072338 0.289352 0.144676 0.144676 0.144676 0.0723379 0.144676 0.144676 0.0723379 0.0723379 0.0723379 0.289352 0.144676 0.144676 0.144676 0.144676 0.0723379 0.0723379 0.289352 0.144676 0.144676 0.144676 0.144676 0.072338 0.072338 0.289352 0.144676 0.144676 0.144676 0.144676 0.0723379 0.0723379 0.289352 0.144676 0.144676 0.144676 0.144676 0.0723379 0.0723379 0.289352 0.144676 0.144676 0.144676 0.144676 0.0723379 0.0723379 0.289352 0.144676 0.144676 0.144676 0.144676 0.0723379 0.0723379 0.289352 0.144676 0.144676 0.144676 0.144676 0.0723379 0.0723379 0.289352 0.144676 0.144676 0.144676 0.144676 0.072338 0.072338 0.289352 0.144676 0.144676 0.144676 0.144676 0.0723379 0.0723379 0.289352 0.144676 0.144676 0.144676 0.144676 0.0723379 0.0723379 0.289352 0.144676 0.144676 0.144676 0.144676 0.0723379 0.0723379 0.289352 0.144676 0.144676 0.144676 0.144676 0.0723379 0.0723379 0.289352 0.144676 0.144676 0.144676 0.144676 0.072338 0.072338 0.289352 0.144676 0.144676 0.144676 0.144676 0.0723379 0.0723379 0.289352 0.144676 0.144676 0.144676 0.144676 0.072338 0.072338 0.289352 0.144676 0.144676 0.144676 0.144676 0.0723379 0.0723379 0.289352 0.144676 0.144676 0.144676 0.144676 0.0723379 0.0723379 0.289352 0.144676 0.144676 0.144676 0.144676 0.0723379 0.0723379 0.289352 0.144676 0.144676 0.144676 0.144676 0.0723379 0.0723379 0.289352 0.144676 0.144676 0.144676 0.144676 0.072338 0.072338 0.289352 0.144676 0.144676 0.144676 0.144676 0.0723379 0.0723379 0.289352 0.144676 0.144676 0.144676 0.144676 0.0723379 0.0723379 0.289352 0.144676 0.144676 0.144676 0.144676 0.072338 0.072338 0.289352 0.144676 0.144676 0.144676 0.144676 0.0723379 0.0723379 0.289352 0.144676 0.144676 0.144676 0.144676 0.0723379 0.0723379 0.289352 0.144676 0.144676 0.144676 0.144676 0.072338 0.072338 0.289351 0.144676 0.144676 0.144676 0.144676 0.0723379 0.0723379 0.289352 0.144676 0.144676 0.144676 0.144676 0.0723378 0.0723378 0.289352 0.144676 0.144676 0.144676 0.144676 0.0723379 0.0723379 0.289352 0.144676 0.144676 0.144676 0.144676 0.0723379 0.0723379 0.144676 0.072338 0.144676 0.072338 0.144676 0.072338 0.072338 0.144676 0.144676 0.072338 0.289352 0.144676 0.289352 0.289352 0.144676 0.072338 0.144676 0.144676 0.072338 0.144676 0.072338 0.144676 0.144676 0.289352 0.289352 0.289352 0.072338 0.144676 0.144676 0.144676 0.072338 0.144676 0.144676 0.289352 0.289352 0.289352 0.072338 0.144676 0.144676 0.144676 0.072338 0.144676 0.144676 0.289352 0.289352 0.289352 0.072338 0.144676 0.144676 0.144676 0.072338 0.144676 0.144676 0.289352 0.289352 0.289352 0.072338 0.144676 0.144676 0.144676 0.072338 0.144676 0.144676 0.289352 0.289352 0.289352 0.072338 0.144676 0.144676 0.144676 0.072338 0.144676 0.144676 0.289352 0.289352 0.289352 0.072338 0.144676 0.144676 0.144676 0.072338 0.144676 0.144676 0.289352 0.289352 0.289352 0.072338 0.144676 0.144676 0.144676 0.072338 0.144676 0.144676 0.289352 0.289352 0.289352 0.072338 0.144676 0.144676 0.144676 0.072338 0.144676 0.144676 0.289352 0.289352 0.289352 0.0723379 0.144676 0.144676 0.144676 0.0723379 0.144676 0.144676 0.289352 0.289352 0.289352 0.0723379 0.144676 0.144676 0.144676 0.0723379 0.144676 0.144676 0.289352 0.289352 0.289352 0.072338 0.144676 0.144676 0.144676 0.072338 0.144676 0.144676 0.289352 0.289352 0.289352 0.072338 0.144676 0.144676 0.144676 0.072338 0.144676 0.144676 0.289352 0.289352 0.289352 0.072338 0.144676 0.144676 0.144676 0.072338 0.144676 0.144676 0.289352 0.289352 0.289352 0.0723379 0.144676 0.144676 0.144676 0.0723379 0.144676 0.144676 0.289352 0.289352 0.289352 0.072338 0.144676 0.144676 0.144676 0.072338 0.144676 0.144676 0.289352 0.289352 0.289352 0.072338 0.144676 0.144676 0.144676 0.072338 0.144676 0.144676 0.289352 0.289352 0.289352 0.0723379 0.144676 0.144676 0.144676 0.0723379 0.144676 0.144676 0.289352 0.289352 0.289352 0.0723379 0.144676 0.144676 0.144676 0.0723379 0.144676 0.144676 0.289352 0.289352 0.289352 0.0723379 0.144676 0.144676 0.144676 0.0723379 0.144676 0.144676 0.289352 0.289352 0.289352 0.072338 0.144676 0.144676 0.144676 0.072338 0.144676 0.144676 0.289352 0.289352 0.289352 0.072338 0.144676 0.144676 0.144676 0.072338 0.144676 0.144676 0.289352 0.289352 0.289352 0.0723379 0.144676 0.144676 0.144676 0.0723379 0.144676 0.144676 0.289352 0.289352 0.289352 0.072338 0.144676 0.144676 0.144676 0.072338 0.144676 0.144676 0.289352 0.289352 0.289352 0.0723379 0.144676 0.144676 0.144676 0.0723379 0.144676 0.144676 0.289352 0.289352 0.289352 0.072338 0.144676 0.144676 0.144676 0.072338 0.144676 0.144676 0.289352 0.289352 0.289352 0.0723381 0.144676 0.144676 0.144676 0.0723381 0.144676 0.144676 0.289352 0.289352 0.289352 0.0723379 0.144676 0.144676 0.144676 0.0723379 0.144676 0.144676 0.289352 0.289352 0.289351 0.0723378 0.144676 0.144676 0.144676 0.0723378 0.144676 0.144676 0.289352 0.289352 0.289352 0.072338 0.144676 0.144676 0.144676 0.072338 0.144676 0.144676 0.289352 0.289352 0.289352 0.0723379 0.144676 0.144676 0.144676 0.0723379 0.072338 0.144676 0.144676 0.144676 0.289352 0.072338 0.072338 0.144676 0.144676 0.072338 0.289352 0.144676 0.289352 0.289352 0.144676 0.144676 0.144676 0.072338 0.144676 0.072338 0.289352 0.289352 0.289352 0.144676 0.144676 0.144676 0.072338 0.289352 0.289352 0.289352 0.144676 0.144676 0.144676 0.072338 0.289352 0.289352 0.289352 0.144676 0.144676 0.144676 0.072338 0.289352 0.289352 0.289352 0.144676 0.144676 0.144676 0.072338 0.289352 0.289352 0.289352 0.144676 0.144676 0.144676 0.072338 0.289352 0.289352 0.289352 0.144676 0.144676 0.144676 0.072338 0.289352 0.289352 0.289352 0.144676 0.144676 0.144676 0.072338 0.289352 0.289352 0.289352 0.144676 0.144676 0.144676 0.072338 0.289352 0.289352 0.289352 0.144676 0.144676 0.144676 0.0723379 0.289352 0.289352 0.289352 0.144676 0.144676 0.144676 0.0723379 0.289352 0.289352 0.289352 0.144676 0.144676 0.144676 0.072338 0.289352 0.289352 0.289352 0.144676 0.144676 0.144676 0.072338 0.289352 0.289352 0.289352 0.144676 0.144676 0.144676 0.072338 0.289352 0.289352 0.289352 0.144676 0.144676 0.144676 0.0723379 0.289352 0.289352 0.289352 0.144676 0.144676 0.144676 0.072338 0.289352 0.289352 0.289352 0.144676 0.144676 0.144676 0.072338 0.289352 0.289352 0.289352 0.144676 0.144676 0.144676 0.0723379 0.289352 0.289352 0.289352 0.144676 0.144676 0.144676 0.0723379 0.289352 0.289352 0.289352 0.144676 0.144676 0.144676 0.0723379 0.289352 0.289352 0.289352 0.144676 0.144676 0.144676 0.072338 0.289352 0.289352 0.289352 0.144676 0.144676 0.144676 0.0723379 0.289352 0.289352 0.289352 0.144676 0.144676 0.144676 0.0723379 0.289352 0.289352 0.289352 0.144676 0.144676 0.144676 0.072338 0.289352 0.289352 0.289352 0.144676 0.144676 0.144676 0.0723379 0.289352 0.289352 0.289352 0.144676 0.144676 0.144676 0.0723379 0.289352 0.289352 0.289352 0.144676 0.144676 0.144676 0.0723381 0.289352 0.289352 0.289352 0.144676 0.144676 0.144676 0.0723379 0.289352 0.289352 0.289351 0.144676 0.144676 0.144676 0.0723378 0.289352 0.289352 0.289352 0.144676 0.144676 0.144676 0.072338 0.289352 0.289352 0.289352 0.144676 0.144676 0.144676 0.0723379 0.144676 0.144676 0.289352 0.072338 0.144676 0.144676 0.072338 0.289352 0.144676 0.289352 0.289352 0.144676 0.144676 0.144676 0.072338 0.144676 0.072338 0.289352 0.289352 0.289352 0.144676 0.144676 0.144676 0.072338 0.289352 0.289352 0.289352 0.144676 0.144676 0.144676 0.072338 0.289352 0.289352 0.289352 0.144676 0.144676 0.144676 0.072338 0.289352 0.289352 0.289352 0.144676 0.144676 0.144676 0.072338 0.289352 0.289352 0.289352 0.144676 0.144676 0.144676 0.072338 0.289352 0.289352 0.289352 0.144676 0.144676 0.144676 0.072338 0.289352 0.289352 0.289352 0.144676 0.144676 0.144676 0.072338 0.289352 0.289352 0.289352 0.144676 0.144676 0.144676 0.072338 0.289352 0.289352 0.289352 0.144676 0.144676 0.144676 0.072338 0.289352 0.289352 0.289352 0.144676 0.144676 0.144676 0.072338 0.289352 0.289352 0.289352 0.144676 0.144676 0.144676 0.072338 0.289352 0.289352 0.289352 0.144676 0.144676 0.144676 0.072338 0.289352 0.289352 0.289352 0.144676 0.144676 0.144676 0.072338 0.289352 0.289352 0.289352 0.144676 0.144676 0.144676 0.0723379 0.289352 0.289352 0.289352 0.144676 0.144676 0.144676 0.072338 0.289352 0.289352 0.289352 0.144676 0.144676 0.144676 0.072338 0.289352 0.289352 0.289352 0.144676 0.144676 0.144676 0.0723379 0.289352 0.289352 0.289352 0.144676 0.144676 0.144676 0.0723379 0.289352 0.289352 0.289352 0.144676 0.144676 0.144676 0.0723379 0.289352 0.289352 0.289352 0.144676 0.144676 0.144676 0.072338 0.289352 0.289352 0.289352 0.144676 0.144676 0.144676 0.072338 0.289352 0.289352 0.289352 0.144676 0.144676 0.144676 0.0723379 0.289352 0.289352 0.289352 0.144676 0.144676 0.144676 0.072338 0.289352 0.289352 0.289352 0.144676 0.144676 0.144676 0.0723379 0.289352 0.289352 0.289352 0.144676 0.144676 0.144676 0.072338 0.289352 0.289352 0.289352 0.144676 0.144676 0.144676 0.0723381 0.289352 0.289352 0.289352 0.144676 0.144676 0.144676 0.0723379 0.289352 0.289352 0.289351 0.144676 0.144676 0.144676 0.0723379 0.289352 0.289352 0.289352 0.144676 0.144676 0.144676 0.072338 0.289352 0.289352 0.289352 0.144676 0.144676 0.144676 0.0723379 0.144676 0.144676 0.289352 0.072338 0.144676 0.144676 0.072338 0.289352 0.144676 0.289352 0.289352 0.144676 0.144676 0.144676 0.072338 0.144676 0.072338 0.289352 0.289352 0.289352 0.144676 0.144676 0.144676 0.072338 0.289352 0.289352 0.289352 0.144676 0.144676 0.144676 0.072338 0.289352 0.289352 0.289352 0.144676 0.144676 0.144676 0.0723379 0.289352 0.289352 0.289352 0.144676 0.144676 0.144676 0.072338 0.289352 0.289352 0.289352 0.144676 0.144676 0.144676 0.072338 0.289352 0.289352 0.289352 0.144676 0.144676 0.144676 0.072338 0.289352 0.289352 0.289352 0.144676 0.144676 0.144676 0.072338 0.289352 0.289352 0.289352 0.144676 0.144676 0.144676 0.072338 0.289352 0.289352 0.289352 0.144676 0.144676 0.144676 0.0723379 0.289352 0.289352 0.289352 0.144676 0.144676 0.144676 0.0723379 0.289352 0.289352 0.289352 0.144676 0.144676 0.144676 0.072338 0.289352 0.289352 0.289352 0.144676 0.144676 0.144676 0.072338 0.289352 0.289352 0.289352 0.144676 0.144676 0.144676 0.072338 0.289352 0.289352 0.289352 0.144676 0.144676 0.144676 0.0723379 0.289352 0.289352 0.289352 0.144676 0.144676 0.144676 0.072338 0.289352 0.289352 0.289352 0.144676 0.144676 0.144676 0.072338 0.289352 0.289352 0.289352 0.144676 0.144676 0.144676 0.0723379 0.289352 0.289352 0.289352 0.144676 0.144676 0.144676 0.0723379 0.289352 0.289352 0.289352 0.144676 0.144676 0.144676 0.0723379 0.289352 0.289352 0.289352 0.144676 0.144676 0.144676 0.072338 0.289352 0.289352 0.289352 0.144676 0.144676 0.144676 0.0723379 0.289352 0.289352 0.289352 0.144676 0.144676 0.144676 0.0723379 0.289352 0.289352 0.289352 0.144676 0.144676 0.144676 0.072338 0.289352 0.289352 0.289352 0.144676 0.144676 0.144676 0.0723379 0.289352 0.289352 0.289352 0.144676 0.144676 0.144676 0.0723379 0.289352 0.289352 0.289352 0.144676 0.144676 0.144676 0.0723381 0.289351 0.289351 0.289352 0.144676 0.144676 0.144676 0.0723379 0.289352 0.289352 0.289351 0.144676 0.144676 0.144676 0.0723378 0.289352 0.289352 0.289352 0.144676 0.144676 0.144676 0.072338 0.289352 0.289352 0.289352 0.144676 0.144676 0.144676 0.0723379 0.144676 0.144676 0.289352 0.072338 0.144676 0.144676 0.072338 0.289352 0.144676 0.289352 0.289352 0.144676 0.144676 0.144676 0.072338 0.144676 0.072338 0.289352 0.289352 0.289352 0.144676 0.144676 0.144676 0.072338 0.289352 0.289352 0.289352 0.144676 0.144676 0.144676 0.072338 0.289352 0.289352 0.289352 0.144676 0.144676 0.144676 0.072338 0.289352 0.289352 0.289352 0.144676 0.144676 0.144676 0.072338 0.289352 0.289352 0.289352 0.144676 0.144676 0.144676 0.072338 0.289352 0.289352 0.289352 0.144676 0.144676 0.144676 0.072338 0.289352 0.289352 0.289352 0.144676 0.144676 0.144676 0.072338 0.289352 0.289352 0.289352 0.144676 0.144676 0.144676 0.072338 0.289352 0.289352 0.289352 0.144676 0.144676 0.144676 0.0723379 0.289352 0.289352 0.289352 0.144676 0.144676 0.144676 0.0723379 0.289352 0.289352 0.289352 0.144676 0.144676 0.144676 0.072338 0.289352 0.289352 0.289352 0.144676 0.144676 0.144676 0.072338 0.289352 0.289352 0.289352 0.144676 0.144676 0.144676 0.072338 0.289352 0.289352 0.289352 0.144676 0.144676 0.144676 0.0723379 0.289352 0.289352 0.289352 0.144676 0.144676 0.144676 0.072338 0.289352 0.289352 0.289352 0.144676 0.144676 0.144676 0.072338 0.289352 0.289352 0.289352 0.144676 0.144676 0.144676 0.0723379 0.289352 0.289352 0.289352 0.144676 0.144676 0.144676 0.0723379 0.289352 0.289352 0.289352 0.144676 0.144676 0.144676 0.0723379 0.289352 0.289352 0.289352 0.144676 0.144676 0.144676 0.072338 0.289352 0.289352 0.289352 0.144676 0.144676 0.144676 0.0723379 0.289352 0.289352 0.289352 0.144676 0.144676 0.144676 0.0723379 0.289352 0.289352 0.289352 0.144676 0.144676 0.144676 0.072338 0.289352 0.289352 0.289352 0.144676 0.144676 0.144676 0.0723379 0.289352 0.289352 0.289352 0.144676 0.144676 0.144676 0.0723379 0.289352 0.289352 0.289352 0.144676 0.144676 0.144676 0.0723381 0.289351 0.289352 0.289352 0.144676 0.144676 0.144676 0.0723379 0.289352 0.289352 0.289351 0.144676 0.144676 0.144676 0.0723378 0.289352 0.289352 0.289352 0.144676 0.144676 0.144676 0.072338 0.289352 0.289352 0.289352 0.144676 0.144676 0.144676 0.0723379 0.144676 0.144676 0.289352 0.072338 0.144676 0.144676 0.072338 0.289352 0.144676 0.289352 0.289352 0.144676 0.144676 0.144676 0.072338 0.144676 0.072338 0.289352 0.289352 0.289352 0.144676 0.144676 0.144676 0.072338 0.289352 0.289352 0.289352 0.144676 0.144676 0.144676 0.072338 0.289352 0.289352 0.289352 0.144676 0.144676 0.144676 0.072338 0.289352 0.289352 0.289352 0.144676 0.144676 0.144676 0.072338 0.289352 0.289352 0.289352 0.144676 0.144676 0.144676 0.072338 0.289352 0.289352 0.289352 0.144676 0.144676 0.144676 0.072338 0.289352 0.289352 0.289352 0.144676 0.144676 0.144676 0.072338 0.289352 0.289352 0.289352 0.144676 0.144676 0.144676 0.072338 0.289352 0.289352 0.289352 0.144676 0.144676 0.144676 0.072338 0.289352 0.289352 0.289352 0.144676 0.144676 0.144676 0.072338 0.289352 0.289352 0.289352 0.144676 0.144676 0.144676 0.072338 0.289352 0.289352 0.289352 0.144676 0.144676 0.144676 0.072338 0.289352 0.289352 0.289352 0.144676 0.144676 0.144676 0.072338 0.289352 0.289352 0.289352 0.144676 0.144676 0.144676 0.0723379 0.289352 0.289352 0.289352 0.144676 0.144676 0.144676 0.072338 0.289352 0.289352 0.289352 0.144676 0.144676 0.144676 0.072338 0.289352 0.289352 0.289352 0.144676 0.144676 0.144676 0.072338 0.289352 0.289352 0.289352 0.144676 0.144676 0.144676 0.0723379 0.289352 0.289352 0.289352 0.144676 0.144676 0.144676 0.0723379 0.289352 0.289352 0.289352 0.144676 0.144676 0.144676 0.072338 0.289352 0.289352 0.289352 0.144676 0.144676 0.144676 0.072338 0.289352 0.289352 0.289352 0.144676 0.144676 0.144676 0.0723379 0.289352 0.289352 0.289352 0.144676 0.144676 0.144676 0.072338 0.289352 0.289352 0.289352 0.144676 0.144676 0.144676 0.0723379 0.289352 0.289352 0.289352 0.144676 0.144676 0.144676 0.072338 0.289352 0.289352 0.289352 0.144676 0.144676 0.144676 0.0723381 0.289352 0.289352 0.289352 0.144676 0.144676 0.144676 0.0723379 0.289352 0.289352 0.289351 0.144676 0.144676 0.144676 0.0723379 0.289352 0.289352 0.289352 0.144676 0.144676 0.144676 0.072338 0.289352 0.289352 0.289352 0.144676 0.144676 0.144676 0.0723379 0.144676 0.144676 0.289352 0.072338 0.144676 0.144676 0.072338 0.289352 0.144676 0.289352 0.289352 0.144676 0.144676 0.144676 0.072338 0.144676 0.072338 0.289352 0.289352 0.289352 0.144676 0.144676 0.144676 0.072338 0.289352 0.289352 0.289352 0.144676 0.144676 0.144676 0.072338 0.289352 0.289352 0.289352 0.144676 0.144676 0.144676 0.072338 0.289352 0.289352 0.289352 0.144676 0.144676 0.144676 0.072338 0.289352 0.289352 0.289352 0.144676 0.144676 0.144676 0.072338 0.289352 0.289352 0.289352 0.144676 0.144676 0.144676 0.072338 0.289352 0.289352 0.289352 0.144676 0.144676 0.144676 0.072338 0.289352 0.289352 0.289352 0.144676 0.144676 0.144676 0.072338 0.289352 0.289352 0.289352 0.144676 0.144676 0.144676 0.072338 0.289352 0.289352 0.289352 0.144676 0.144676 0.144676 0.072338 0.289352 0.289352 0.289352 0.144676 0.144676 0.144676 0.072338 0.289352 0.289352 0.289352 0.144676 0.144676 0.144676 0.072338 0.289352 0.289352 0.289352 0.144676 0.144676 0.144676 0.072338 0.289352 0.289352 0.289352 0.144676 0.144676 0.144676 0.0723379 0.289352 0.289352 0.289352 0.144676 0.144676 0.144676 0.072338 0.289352 0.289352 0.289352 0.144676 0.144676 0.144676 0.072338 0.289352 0.289352 0.289352 0.144676 0.144676 0.144676 0.072338 0.289352 0.289352 0.289352 0.144676 0.144676 0.144676 0.0723379 0.289352 0.289352 0.289352 0.144676 0.144676 0.144676 0.0723379 0.289352 0.289352 0.289352 0.144676 0.144676 0.144676 0.072338 0.289352 0.289352 0.289352 0.144676 0.144676 0.144676 0.072338 0.289352 0.289352 0.289352 0.144676 0.144676 0.144676 0.0723379 0.289352 0.289352 0.289352 0.144676 0.144676 0.144676 0.072338 0.289352 0.289352 0.289352 0.144676 0.144676 0.144676 0.0723379 0.289352 0.289352 0.289352 0.144676 0.144676 0.144676 0.072338 0.289352 0.289352 0.289352 0.144676 0.144676 0.144676 0.0723381 0.289352 0.289352 0.289352 0.144676 0.144676 0.144676 0.0723379 0.289352 0.289352 0.289351 0.144676 0.144676 0.144676 0.0723379 0.289352 0.289352 0.289352 0.144676 0.144676 0.144676 0.072338 0.289352 0.289352 0.289352 0.144676 0.144676 0.144676 0.0723379 0.144676 0.144676 0.289352 0.072338 0.144676 0.144676 0.072338 0.289352 0.144676 0.144676 0.144676 0.072338 0.144676 0.144676 0.072338 0.072338 0.072338 0.289352 0.144676 0.144676 0.144676 0.144676 0.072338 0.072338 0.289352 0.144676 0.144676 0.144676 0.144676 0.072338 0.072338 0.289352 0.144676 0.144676 0.144676 0.144676 0.0723379 0.0723379 0.289352 0.144676 0.144676 0.144676 0.144676 0.0723379 0.0723379 0.289352 0.144676 0.144676 0.144676 0.144676 0.072338 0.072338 0.289352 0.144676 0.144676 0.144676 0.144676 0.072338 0.072338 0.289352 0.144676 0.144676 0.144676 0.144676 0.0723379 0.0723379 0.289352 0.144676 0.144676 0.144676 0.144676 0.072338 0.072338 0.289352 0.144676 0.144676 0.144676 0.144676 0.0723379 0.0723379 0.289352 0.144676 0.144676 0.144676 0.144676 0.0723379 0.0723379 0.289352 0.144676 0.144676 0.144676 0.144676 0.072338 0.072338 0.289352 0.144676 0.144676 0.144676 0.144676 0.0723379 0.0723379 0.289352 0.144676 0.144676 0.144676 0.144676 0.072338 0.072338 0.289352 0.144676 0.144676 0.144676 0.144676 0.0723379 0.0723379 0.289352 0.144676 0.144676 0.144676 0.144676 0.072338 0.072338 0.289352 0.144676 0.144676 0.144676 0.144676 0.072338 0.072338 0.289352 0.144676 0.144676 0.144676 0.144676 0.0723379 0.0723379 0.289352 0.144676 0.144676 0.144676 0.144676 0.0723379 0.0723379 0.289352 0.144676 0.144676 0.144676 0.144676 0.0723379 0.0723379 0.289352 0.144676 0.144676 0.144676 0.144676 0.072338 0.072338 0.289352 0.144676 0.144676 0.144676 0.144676 0.0723379 0.0723379 0.289352 0.144676 0.144676 0.144676 0.144676 0.0723379 0.0723379 0.289352 0.144676 0.144676 0.144676 0.144676 0.072338 0.072338 0.289352 0.144676 0.144676 0.144676 0.144676 0.0723379 0.0723379 0.289352 0.144676 0.144676 0.144676 0.144676 0.0723379 0.0723379 0.289352 0.144676 0.144676 0.144676 0.144676 0.0723381 0.0723381 0.289351 0.144676 0.144676 0.144676 0.144676 0.0723379 0.0723379 0.289352 0.144676 0.144676 0.144676 0.144676 0.0723378 0.0723378 0.289352 0.144676 0.144676 0.144676 0.144676 0.072338 0.072338 0.289352 0.144676 0.144676 0.144676 0.144676 0.0723379 0.0723379 0.144676 0.072338 0.144676 0.072338 0.144676 0.072338 0.072338 0.144676 0.144676 0.072338 0.289352 0.144676 0.289352 0.289352 0.144676 0.072338 0.144676 0.144676 0.072338 0.144676 0.072338 0.144676 0.144676 0.289352 0.289352 0.289352 0.072338 0.144676 0.144676 0.144676 0.072338 0.144676 0.144676 0.289352 0.289352 0.289352 0.072338 0.144676 0.144676 0.144676 0.072338 0.144676 0.144676 0.289352 0.289352 0.289352 0.072338 0.144676 0.144676 0.144676 0.072338 0.144676 0.144676 0.289352 0.289352 0.289352 0.072338 0.144676 0.144676 0.144676 0.072338 0.144676 0.144676 0.289352 0.289352 0.289352 0.072338 0.144676 0.144676 0.144676 0.072338 0.144676 0.144676 0.289352 0.289352 0.289352 0.072338 0.144676 0.144676 0.144676 0.072338 0.144676 0.144676 0.289352 0.289352 0.289352 0.072338 0.144676 0.144676 0.144676 0.072338 0.144676 0.144676 0.289352 0.289352 0.289352 0.072338 0.144676 0.144676 0.144676 0.072338 0.144676 0.144676 0.289352 0.289352 0.289352 0.0723379 0.144676 0.144676 0.144676 0.0723379 0.144676 0.144676 0.289352 0.289352 0.289352 0.0723379 0.144676 0.144676 0.144676 0.0723379 0.144676 0.144676 0.289352 0.289352 0.289352 0.072338 0.144676 0.144676 0.144676 0.072338 0.144676 0.144676 0.289352 0.289352 0.289352 0.072338 0.144676 0.144676 0.144676 0.072338 0.144676 0.144676 0.289352 0.289352 0.289352 0.072338 0.144676 0.144676 0.144676 0.072338 0.144676 0.144676 0.289352 0.289352 0.289352 0.0723379 0.144676 0.144676 0.144676 0.0723379 0.144676 0.144676 0.289352 0.289352 0.289352 0.072338 0.144676 0.144676 0.144676 0.072338 0.144676 0.144676 0.289352 0.289352 0.289352 0.072338 0.144676 0.144676 0.144676 0.072338 0.144676 0.144676 0.289352 0.289352 0.289352 0.0723379 0.144676 0.144676 0.144676 0.0723379 0.144676 0.144676 0.289352 0.289352 0.289352 0.0723379 0.144676 0.144676 0.144676 0.0723379 0.144676 0.144676 0.289352 0.289352 0.289352 0.0723379 0.144676 0.144676 0.144676 0.0723379 0.144676 0.144676 0.289352 0.289352 0.289352 0.072338 0.144676 0.144676 0.144676 0.072338 0.144676 0.144676 0.289352 0.289352 0.289352 0.072338 0.144676 0.144676 0.144676 0.072338 0.144676 0.144676 0.289352 0.289352 0.289352 0.0723379 0.144676 0.144676 0.144676 0.0723379 0.144676 0.144676 0.289352 0.289352 0.289352 0.072338 0.144676 0.144676 0.144676 0.072338 0.144676 0.144676 0.289352 0.289352 0.289352 0.0723379 0.144676 0.144676 0.144676 0.0723379 0.144676 0.144676 0.289352 0.289352 0.289352 0.0723379 0.144676 0.144676 0.144676 0.0723379 0.144676 0.144676 0.289352 0.289352 0.289352 0.0723381 0.144676 0.144676 0.144676 0.0723381 0.144676 0.144676 0.289352 0.289352 0.289352 0.0723379 0.144676 0.144676 0.144676 0.0723379 0.144676 0.144676 0.289352 0.289352 0.289351 0.0723378 0.144676 0.144676 0.144676 0.0723378 0.144676 0.144676 0.289352 0.289352 0.289352 0.072338 0.144676 0.144676 0.144676 0.072338 0.144676 0.144676 0.289352 0.289352 0.289352 0.0723379 0.144676 0.144676 0.144676 0.0723379 0.072338 0.144676 0.144676 0.144676 0.289352 0.072338 0.072338 0.144676 0.144676 0.072338 0.289352 0.144676 0.289352 0.289352 0.144676 0.144676 0.144676 0.072338 0.144676 0.072338 0.289352 0.289352 0.289352 0.144676 0.144676 0.144676 0.072338 0.289352 0.289352 0.289352 0.144676 0.144676 0.144676 0.072338 0.289352 0.289352 0.289352 0.144676 0.144676 0.144676 0.0723379 0.289352 0.289352 0.289352 0.144676 0.144676 0.144676 0.072338 0.289352 0.289352 0.289352 0.144676 0.144676 0.144676 0.072338 0.289352 0.289352 0.289352 0.144676 0.144676 0.144676 0.072338 0.289352 0.289352 0.289352 0.144676 0.144676 0.144676 0.072338 0.289352 0.289352 0.289352 0.144676 0.144676 0.144676 0.072338 0.289352 0.289352 0.289352 0.144676 0.144676 0.144676 0.0723379 0.289352 0.289352 0.289352 0.144676 0.144676 0.144676 0.0723379 0.289352 0.289352 0.289352 0.144676 0.144676 0.144676 0.072338 0.289352 0.289352 0.289352 0.144676 0.144676 0.144676 0.072338 0.289352 0.289352 0.289352 0.144676 0.144676 0.144676 0.072338 0.289352 0.289352 0.289352 0.144676 0.144676 0.144676 0.0723379 0.289352 0.289352 0.289352 0.144676 0.144676 0.144676 0.072338 0.289352 0.289352 0.289352 0.144676 0.144676 0.144676 0.072338 0.289352 0.289352 0.289352 0.144676 0.144676 0.144676 0.0723379 0.289352 0.289352 0.289352 0.144676 0.144676 0.144676 0.0723379 0.289352 0.289352 0.289352 0.144676 0.144676 0.144676 0.0723379 0.289352 0.289352 0.289352 0.144676 0.144676 0.144676 0.072338 0.289352 0.289352 0.289352 0.144676 0.144676 0.144676 0.0723379 0.289352 0.289352 0.289352 0.144676 0.144676 0.144676 0.0723379 0.289352 0.289352 0.289352 0.144676 0.144676 0.144676 0.072338 0.289352 0.289352 0.289352 0.144676 0.144676 0.144676 0.0723379 0.289352 0.289352 0.289352 0.144676 0.144676 0.144676 0.0723379 0.289352 0.289352 0.289352 0.144676 0.144676 0.144676 0.0723381 0.289352 0.289352 0.289352 0.144676 0.144676 0.144676 0.0723379 0.289352 0.289352 0.289351 0.144676 0.144676 0.144676 0.0723378 0.289352 0.289352 0.289352 0.144676 0.144676 0.144676 0.072338 0.289352 0.289352 0.289352 0.144676 0.144676 0.144676 0.0723379 0.144676 0.144676 0.289352 0.072338 0.144676 0.144676 0.072338 0.289352 0.144676 0.289352 0.289352 0.144676 0.144676 0.144676 0.072338 0.144676 0.072338 0.289352 0.289352 0.289352 0.144676 0.144676 0.144676 0.072338 0.289352 0.289352 0.289352 0.144676 0.144676 0.144676 0.072338 0.289352 0.289352 0.289352 0.144676 0.144676 0.144676 0.072338 0.289352 0.289352 0.289352 0.144676 0.144676 0.144676 0.072338 0.289352 0.289352 0.289352 0.144676 0.144676 0.144676 0.072338 0.289352 0.289352 0.289352 0.144676 0.144676 0.144676 0.072338 0.289352 0.289352 0.289352 0.144676 0.144676 0.144676 0.072338 0.289352 0.289352 0.289352 0.144676 0.144676 0.144676 0.072338 0.289352 0.289352 0.289352 0.144676 0.144676 0.144676 0.0723379 0.289352 0.289352 0.289352 0.144676 0.144676 0.144676 0.0723379 0.289352 0.289352 0.289352 0.144676 0.144676 0.144676 0.072338 0.289352 0.289352 0.289352 0.144676 0.144676 0.144676 0.072338 0.289352 0.289352 0.289352 0.144676 0.144676 0.144676 0.072338 0.289352 0.289352 0.289352 0.144676 0.144676 0.144676 0.0723379 0.289352 0.289352 0.289352 0.144676 0.144676 0.144676 0.072338 0.289352 0.289352 0.289352 0.144676 0.144676 0.144676 0.072338 0.289352 0.289352 0.289352 0.144676 0.144676 0.144676 0.0723379 0.289352 0.289352 0.289352 0.144676 0.144676 0.144676 0.0723379 0.289352 0.289352 0.289352 0.144676 0.144676 0.144676 0.0723379 0.289352 0.289352 0.289352 0.144676 0.144676 0.144676 0.072338 0.289352 0.289352 0.289352 0.144676 0.144676 0.144676 0.0723379 0.289352 0.289352 0.289352 0.144676 0.144676 0.144676 0.0723379 0.289352 0.289352 0.289352 0.144676 0.144676 0.144676 0.072338 0.289352 0.289352 0.289352 0.144676 0.144676 0.144676 0.0723379 0.289352 0.289352 0.289352 0.144676 0.144676 0.144676 0.072338 0.289352 0.289352 0.289352 0.144676 0.144676 0.144676 0.0723381 0.289352 0.289351 0.289352 0.144676 0.144676 0.144676 0.0723379 0.289352 0.289352 0.289351 0.144676 0.144676 0.144676 0.0723378 0.289352 0.289352 0.289352 0.144676 0.144676 0.144676 0.072338 0.289352 0.289352 0.289352 0.144676 0.144676 0.144676 0.0723379 0.144676 0.144676 0.289352 0.072338 0.144676 0.144676 0.072338 0.289352 0.144676 0.289352 0.289352 0.144676 0.144676 0.144676 0.072338 0.144676 0.072338 0.289352 0.289352 0.289352 0.144676 0.144676 0.144676 0.072338 0.289352 0.289352 0.289352 0.144676 0.144676 0.144676 0.072338 0.289352 0.289352 0.289352 0.144676 0.144676 0.144676 0.0723379 0.289352 0.289352 0.289352 0.144676 0.144676 0.144676 0.0723379 0.289352 0.289352 0.289352 0.144676 0.144676 0.144676 0.072338 0.289352 0.289352 0.289352 0.144676 0.144676 0.144676 0.0723379 0.289352 0.289352 0.289352 0.144676 0.144676 0.144676 0.0723379 0.289352 0.289352 0.289352 0.144676 0.144676 0.144676 0.072338 0.289352 0.289352 0.289352 0.144676 0.144676 0.144676 0.0723379 0.289352 0.289352 0.289352 0.144676 0.144676 0.144676 0.0723379 0.289352 0.289352 0.289352 0.144676 0.144676 0.144676 0.072338 0.289352 0.289352 0.289352 0.144676 0.144676 0.144676 0.0723379 0.289352 0.289352 0.289352 0.144676 0.144676 0.144676 0.072338 0.289352 0.289352 0.289352 0.144676 0.144676 0.144676 0.0723379 0.289352 0.289352 0.289352 0.144676 0.144676 0.144676 0.072338 0.289352 0.289352 0.289352 0.144676 0.144676 0.144676 0.072338 0.289352 0.289352 0.289352 0.144676 0.144676 0.144676 0.0723379 0.289352 0.289352 0.289352 0.144676 0.144676 0.144676 0.0723379 0.289352 0.289352 0.289352 0.144676 0.144676 0.144676 0.0723379 0.289352 0.289352 0.289352 0.144676 0.144676 0.144676 0.072338 0.289352 0.289352 0.289352 0.144676 0.144676 0.144676 0.0723379 0.289352 0.289352 0.289352 0.144676 0.144676 0.144676 0.0723379 0.289352 0.289352 0.289352 0.144676 0.144676 0.144676 0.072338 0.289352 0.289352 0.289352 0.144676 0.144676 0.144676 0.0723379 0.289352 0.289352 0.289352 0.144676 0.144676 0.144676 0.0723379 0.289352 0.289352 0.289352 0.144676 0.144676 0.144676 0.0723381 0.289351 0.289351 0.289352 0.144676 0.144676 0.144676 0.0723379 0.289352 0.289352 0.289351 0.144676 0.144676 0.144676 0.0723378 0.289352 0.289352 0.289352 0.144676 0.144676 0.144676 0.072338 0.289352 0.289352 0.289352 0.144676 0.144676 0.144676 0.0723379 0.144676 0.144676 0.289352 0.072338 0.144676 0.144676 0.072338 0.289352 0.144676 0.289352 0.289352 0.144676 0.144676 0.144676 0.072338 0.144676 0.072338 0.289352 0.289352 0.289352 0.144676 0.144676 0.144676 0.072338 0.289352 0.289352 0.289352 0.144676 0.144676 0.144676 0.072338 0.289352 0.289352 0.289352 0.144676 0.144676 0.144676 0.0723379 0.289352 0.289352 0.289352 0.144676 0.144676 0.144676 0.072338 0.289352 0.289352 0.289352 0.144676 0.144676 0.144676 0.072338 0.289352 0.289352 0.289352 0.144676 0.144676 0.144676 0.0723379 0.289352 0.289352 0.289352 0.144676 0.144676 0.144676 0.072338 0.289352 0.289352 0.289352 0.144676 0.144676 0.144676 0.072338 0.289352 0.289352 0.289352 0.144676 0.144676 0.144676 0.0723379 0.289352 0.289352 0.289352 0.144676 0.144676 0.144676 0.0723379 0.289352 0.289352 0.289352 0.144676 0.144676 0.144676 0.072338 0.289352 0.289352 0.289352 0.144676 0.144676 0.144676 0.0723379 0.289352 0.289352 0.289352 0.144676 0.144676 0.144676 0.072338 0.289352 0.289352 0.289352 0.144676 0.144676 0.144676 0.0723379 0.289352 0.289352 0.289352 0.144676 0.144676 0.144676 0.072338 0.289352 0.289352 0.289352 0.144676 0.144676 0.144676 0.072338 0.289352 0.289352 0.289352 0.144676 0.144676 0.144676 0.0723379 0.289352 0.289352 0.289352 0.144676 0.144676 0.144676 0.0723379 0.289352 0.289352 0.289352 0.144676 0.144676 0.144676 0.0723379 0.289352 0.289352 0.289352 0.144676 0.144676 0.144676 0.072338 0.289352 0.289352 0.289352 0.144676 0.144676 0.144676 0.0723379 0.289352 0.289352 0.289352 0.144676 0.144676 0.144676 0.0723379 0.289352 0.289352 0.289352 0.144676 0.144676 0.144676 0.072338 0.289352 0.289352 0.289352 0.144676 0.144676 0.144676 0.0723379 0.289352 0.289352 0.289352 0.144676 0.144676 0.144676 0.0723379 0.289352 0.289352 0.289352 0.144676 0.144676 0.144676 0.0723381 0.289351 0.289351 0.289352 0.144676 0.144676 0.144676 0.0723379 0.289352 0.289352 0.289351 0.144676 0.144676 0.144676 0.0723378 0.289352 0.289352 0.289352 0.144676 0.144676 0.144676 0.072338 0.289352 0.289352 0.289352 0.144676 0.144676 0.144676 0.0723379 0.144676 0.144676 0.289352 0.072338 0.144676 0.144676 0.072338 0.289352 0.144676 0.289352 0.289352 0.144676 0.144676 0.144676 0.072338 0.144676 0.072338 0.289352 0.289352 0.289352 0.144676 0.144676 0.144676 0.072338 0.289352 0.289352 0.289352 0.144676 0.144676 0.144676 0.072338 0.289352 0.289352 0.289352 0.144676 0.144676 0.144676 0.072338 0.289352 0.289352 0.289352 0.144676 0.144676 0.144676 0.072338 0.289352 0.289352 0.289352 0.144676 0.144676 0.144676 0.072338 0.289352 0.289352 0.289352 0.144676 0.144676 0.144676 0.072338 0.289352 0.289352 0.289352 0.144676 0.144676 0.144676 0.072338 0.289352 0.289352 0.289352 0.144676 0.144676 0.144676 0.072338 0.289352 0.289352 0.289352 0.144676 0.144676 0.144676 0.0723379 0.289352 0.289352 0.289352 0.144676 0.144676 0.144676 0.0723379 0.289352 0.289352 0.289352 0.144676 0.144676 0.144676 0.072338 0.289352 0.289352 0.289352 0.144676 0.144676 0.144676 0.072338 0.289352 0.289352 0.289352 0.144676 0.144676 0.144676 0.072338 0.289352 0.289352 0.289352 0.144676 0.144676 0.144676 0.0723379 0.289352 0.289352 0.289352 0.144676 0.144676 0.144676 0.072338 0.289352 0.289352 0.289352 0.144676 0.144676 0.144676 0.072338 0.289352 0.289352 0.289352 0.144676 0.144676 0.144676 0.0723379 0.289352 0.289352 0.289352 0.144676 0.144676 0.144676 0.0723379 0.289352 0.289352 0.289352 0.144676 0.144676 0.144676 0.0723379 0.289352 0.289352 0.289352 0.144676 0.144676 0.144676 0.072338 0.289352 0.289352 0.289352 0.144676 0.144676 0.144676 0.0723379 0.289352 0.289352 0.289352 0.144676 0.144676 0.144676 0.0723379 0.289352 0.289352 0.289352 0.144676 0.144676 0.144676 0.072338 0.289352 0.289352 0.289352 0.144676 0.144676 0.144676 0.0723379 0.289352 0.289352 0.289352 0.144676 0.144676 0.144676 0.072338 0.289352 0.289352 0.289352 0.144676 0.144676 0.144676 0.0723381 0.289352 0.289352 0.289352 0.144676 0.144676 0.144676 0.0723379 0.289352 0.289352 0.289351 0.144676 0.144676 0.144676 0.0723378 0.289352 0.289352 0.289352 0.144676 0.144676 0.144676 0.072338 0.289352 0.289352 0.289352 0.144676 0.144676 0.144676 0.0723379 0.144676 0.144676 0.289352 0.072338 0.144676 0.144676 0.072338 0.289352 0.144676 0.289352 0.289352 0.144676 0.144676 0.144676 0.072338 0.144676 0.072338 0.289352 0.289352 0.289352 0.144676 0.144676 0.144676 0.072338 0.289352 0.289352 0.289352 0.144676 0.144676 0.144676 0.072338 0.289352 0.289352 0.289352 0.144676 0.144676 0.144676 0.072338 0.289352 0.289352 0.289352 0.144676 0.144676 0.144676 0.072338 0.289352 0.289352 0.289352 0.144676 0.144676 0.144676 0.072338 0.289352 0.289352 0.289352 0.144676 0.144676 0.144676 0.072338 0.289352 0.289352 0.289352 0.144676 0.144676 0.144676 0.072338 0.289352 0.289352 0.289352 0.144676 0.144676 0.144676 0.072338 0.289352 0.289352 0.289352 0.144676 0.144676 0.144676 0.0723379 0.289352 0.289352 0.289352 0.144676 0.144676 0.144676 0.0723379 0.289352 0.289352 0.289352 0.144676 0.144676 0.144676 0.072338 0.289352 0.289352 0.289352 0.144676 0.144676 0.144676 0.072338 0.289352 0.289352 0.289352 0.144676 0.144676 0.144676 0.072338 0.289352 0.289352 0.289352 0.144676 0.144676 0.144676 0.0723379 0.289352 0.289352 0.289352 0.144676 0.144676 0.144676 0.072338 0.289352 0.289352 0.289352 0.144676 0.144676 0.144676 0.072338 0.289352 0.289352 0.289352 0.144676 0.144676 0.144676 0.0723379 0.289352 0.289352 0.289352 0.144676 0.144676 0.144676 0.0723379 0.289352 0.289352 0.289352 0.144676 0.144676 0.144676 0.0723379 0.289352 0.289352 0.289352 0.144676 0.144676 0.144676 0.072338 0.289352 0.289352 0.289352 0.144676 0.144676 0.144676 0.0723379 0.289352 0.289352 0.289352 0.144676 0.144676 0.144676 0.0723379 0.289352 0.289352 0.289352 0.144676 0.144676 0.144676 0.072338 0.289352 0.289352 0.289352 0.144676 0.144676 0.144676 0.0723379 0.289352 0.289352 0.289352 0.144676 0.144676 0.144676 0.0723379 0.289352 0.289352 0.289352 0.144676 0.144676 0.144676 0.0723381 0.289352 0.289351 0.289352 0.144676 0.144676 0.144676 0.0723379 0.289352 0.289352 0.289351 0.144676 0.144676 0.144676 0.0723378 0.289352 0.289352 0.289352 0.144676 0.144676 0.144676 0.072338 0.289352 0.289352 0.289352 0.144676 0.144676 0.144676 0.0723379 0.144676 0.144676 0.289352 0.072338 0.144676 0.144676 0.072338 0.289352 0.144676 0.144676 0.144676 0.072338 0.144676 0.144676 0.072338 0.072338 0.072338 0.289352 0.144676 0.144676 0.144676 0.144676 0.0723379 0.0723379 0.289352 0.144676 0.144676 0.144676 0.144676 0.072338 0.072338 0.289352 0.144676 0.144676 0.144676 0.144676 0.0723379 0.0723379 0.289352 0.144676 0.144676 0.144676 0.144676 0.072338 0.072338 0.289352 0.144676 0.144676 0.144676 0.144676 0.072338 0.072338 0.289352 0.144676 0.144676 0.144676 0.144676 0.0723379 0.0723379 0.289352 0.144676 0.144676 0.144676 0.144676 0.0723379 0.0723379 0.289352 0.144676 0.144676 0.144676 0.144676 0.072338 0.072338 0.289352 0.144676 0.144676 0.144676 0.144676 0.0723379 0.0723379 0.289352 0.144676 0.144676 0.144676 0.144676 0.0723379 0.0723379 0.289352 0.144676 0.144676 0.144676 0.144676 0.0723379 0.0723379 0.289352 0.144676 0.144676 0.144676 0.144676 0.0723379 0.0723379 0.289352 0.144676 0.144676 0.144676 0.144676 0.072338 0.072338 0.289352 0.144676 0.144676 0.144676 0.144676 0.0723379 0.0723379 0.289352 0.144676 0.144676 0.144676 0.144676 0.072338 0.072338 0.289352 0.144676 0.144676 0.144676 0.144676 0.0723379 0.0723379 0.289352 0.144676 0.144676 0.144676 0.144676 0.0723379 0.0723379 0.289352 0.144676 0.144676 0.144676 0.144676 0.0723379 0.0723379 0.289352 0.144676 0.144676 0.144676 0.144676 0.0723379 0.0723379 0.289352 0.144676 0.144676 0.144676 0.144676 0.072338 0.072338 0.289352 0.144676 0.144676 0.144676 0.144676 0.0723379 0.0723379 0.289352 0.144676 0.144676 0.144676 0.144676 0.0723379 0.0723379 0.289352 0.144676 0.144676 0.144676 0.144676 0.072338 0.072338 0.289352 0.144676 0.144676 0.144676 0.144676 0.0723379 0.0723379 0.289352 0.144676 0.144676 0.144676 0.144676 0.0723379 0.0723379 0.289352 0.144676 0.144676 0.144676 0.144676 0.072338 0.072338 0.289351 0.144676 0.144676 0.144676 0.144676 0.0723379 0.0723379 0.289352 0.144676 0.144676 0.144676 0.144676 0.0723378 0.0723378 0.289352 0.144676 0.144676 0.144676 0.144676 0.072338 0.072338 0.289352 0.144676 0.144676 0.144676 0.144676 0.0723379 0.0723379 0.144676 0.072338 0.144676 0.072338 0.144676 0.072338 0.072338 0.144676 0.072338 0.072338 0.144676 0.072338 0.289352 0.144676 0.144676 0.072338 0.144676 0.072338 0.072338 0.144676 0.072338 0.144676 0.072338 0.144676 0.289352 0.144676 0.072338 0.144676 0.072338 0.144676 0.072338 0.144676 0.072338 0.144676 0.289352 0.144676 0.072338 0.144676 0.072338 0.144676 0.072338 0.144676 0.072338 0.144676 0.289352 0.144676 0.072338 0.144676 0.072338 0.144676 0.072338 0.144676 0.072338 0.144676 0.289352 0.144676 0.072338 0.144676 0.072338 0.144676 0.072338 0.144676 0.072338 0.144676 0.289352 0.144676 0.072338 0.144676 0.072338 0.144676 0.072338 0.144676 0.072338 0.144676 0.289352 0.144676 0.072338 0.144676 0.072338 0.144676 0.072338 0.144676 0.072338 0.144676 0.289352 0.144676 0.072338 0.144676 0.072338 0.144676 0.072338 0.144676 0.072338 0.144676 0.289352 0.144676 0.072338 0.144676 0.072338 0.144676 0.072338 0.144676 0.0723379 0.144676 0.289352 0.144676 0.0723379 0.144676 0.0723379 0.144676 0.0723379 0.144676 0.0723379 0.144676 0.289352 0.144676 0.0723379 0.144676 0.0723379 0.144676 0.0723379 0.144676 0.072338 0.144676 0.289352 0.144676 0.072338 0.144676 0.072338 0.144676 0.072338 0.144676 0.072338 0.144676 0.289352 0.144676 0.072338 0.144676 0.072338 0.144676 0.072338 0.144676 0.072338 0.144676 0.289352 0.144676 0.072338 0.144676 0.072338 0.144676 0.072338 0.144676 0.0723379 0.144676 0.289352 0.144676 0.0723379 0.144676 0.0723379 0.144676 0.0723379 0.144676 0.072338 0.144676 0.289352 0.144676 0.072338 0.144676 0.072338 0.144676 0.072338 0.144676 0.072338 0.144676 0.289352 0.144676 0.072338 0.144676 0.072338 0.144676 0.072338 0.144676 0.0723379 0.144676 0.289352 0.144676 0.0723379 0.144676 0.0723379 0.144676 0.0723379 0.144676 0.0723379 0.144676 0.289352 0.144676 0.0723379 0.144676 0.0723379 0.144676 0.0723379 0.144676 0.0723379 0.144676 0.289352 0.144676 0.0723379 0.144676 0.0723379 0.144676 0.0723379 0.144676 0.072338 0.144676 0.289352 0.144676 0.072338 0.144676 0.072338 0.144676 0.072338 0.144676 0.072338 0.144676 0.289352 0.144676 0.072338 0.144676 0.072338 0.144676 0.072338 0.144676 0.0723379 0.144676 0.289352 0.144676 0.0723379 0.144676 0.0723379 0.144676 0.0723379 0.144676 0.072338 0.144676 0.289352 0.144676 0.072338 0.144676 0.072338 0.144676 0.072338 0.144676 0.0723379 0.144676 0.289352 0.144676 0.0723379 0.144676 0.0723379 0.144676 0.0723379 0.144676 0.072338 0.144676 0.289352 0.144676 0.072338 0.144676 0.072338 0.144676 0.072338 0.144676 0.0723381 0.144676 0.289352 0.144676 0.0723381 0.144676 0.0723381 0.144676 0.0723381 0.144676 0.0723379 0.144676 0.289352 0.144676 0.0723379 0.144676 0.0723379 0.144676 0.0723379 0.144676 0.0723378 0.144676 0.289352 0.144676 0.0723378 0.144676 0.0723378 0.144676 0.0723378 0.144676 0.072338 0.144676 0.289352 0.144676 0.072338 0.144676 0.072338 0.144676 0.072338 0.144676 0.0723379 0.144676 0.289352 0.144676 0.0723379 0.144676 0.0723379 0.144676 0.0723379 0.072338 0.072338 0.072338 0.144676 0.144676 0.072338 0.072338 0.072338 0.144676 0.072338 0.144676 0.072338 0.289352 0.144676 0.144676 0.144676 0.072338 0.072338 0.144676 0.072338 0.144676 0.289352 0.144676 0.144676 0.072338 0.144676 0.072338 0.144676 0.289352 0.144676 0.144676 0.072338 0.144676 0.072338 0.144676 0.289352 0.144676 0.144676 0.072338 0.144676 0.072338 0.144676 0.289352 0.144676 0.144676 0.072338 0.144676 0.072338 0.144676 0.289352 0.144676 0.144676 0.072338 0.144676 0.072338 0.144676 0.289352 0.144676 0.144676 0.072338 0.144676 0.072338 0.144676 0.289352 0.144676 0.144676 0.072338 0.144676 0.072338 0.144676 0.289352 0.144676 0.144676 0.072338 0.144676 0.072338 0.144676 0.289352 0.144676 0.144676 0.0723379 0.144676 0.0723379 0.144676 0.289352 0.144676 0.144676 0.0723379 0.144676 0.0723379 0.144676 0.289352 0.144676 0.144676 0.072338 0.144676 0.072338 0.144676 0.289352 0.144676 0.144676 0.072338 0.144676 0.072338 0.144676 0.289352 0.144676 0.144676 0.072338 0.144676 0.072338 0.144676 0.289352 0.144676 0.144676 0.0723379 0.144676 0.0723379 0.144676 0.289352 0.144676 0.144676 0.072338 0.144676 0.072338 0.144676 0.289352 0.144676 0.144676 0.072338 0.144676 0.072338 0.144676 0.289352 0.144676 0.144676 0.0723379 0.144676 0.0723379 0.144676 0.289352 0.144676 0.144676 0.0723379 0.144676 0.0723379 0.144676 0.289352 0.144676 0.144676 0.0723379 0.144676 0.0723379 0.144676 0.289352 0.144676 0.144676 0.072338 0.144676 0.072338 0.144676 0.289352 0.144676 0.144676 0.072338 0.144676 0.072338 0.144676 0.289352 0.144676 0.144676 0.0723379 0.144676 0.0723379 0.144676 0.289352 0.144676 0.144676 0.072338 0.144676 0.072338 0.144676 0.289352 0.144676 0.144676 0.0723379 0.144676 0.0723379 0.144676 0.289352 0.144676 0.144676 0.0723379 0.144676 0.0723379 0.144676 0.289352 0.144676 0.144676 0.0723381 0.144676 0.0723381 0.144676 0.289352 0.144676 0.144676 0.0723379 0.144676 0.0723379 0.144676 0.289352 0.144676 0.144676 0.0723378 0.144676 0.0723378 0.144676 0.289352 0.144676 0.144676 0.072338 0.144676 0.072338 0.144676 0.289352 0.144676 0.144676 0.0723379 0.144676 0.0723379 0.072338 0.144676 0.144676 0.072338 0.072338 0.144676 0.072338 0.144676 0.072338 0.289352 0.144676 0.144676 0.144676 0.072338 0.072338 0.144676 0.072338 0.144676 0.289352 0.144676 0.144676 0.072338 0.144676 0.072338 0.144676 0.289352 0.144676 0.144676 0.072338 0.144676 0.072338 0.144676 0.289352 0.144676 0.144676 0.072338 0.144676 0.072338 0.144676 0.289352 0.144676 0.144676 0.072338 0.144676 0.072338 0.144676 0.289352 0.144676 0.144676 0.072338 0.144676 0.072338 0.144676 0.289352 0.144676 0.144676 0.072338 0.144676 0.072338 0.144676 0.289352 0.144676 0.144676 0.072338 0.144676 0.072338 0.144676 0.289352 0.144676 0.144676 0.072338 0.144676 0.072338 0.144676 0.289352 0.144676 0.144676 0.0723379 0.144676 0.0723379 0.144676 0.289352 0.144676 0.144676 0.0723379 0.144676 0.0723379 0.144676 0.289352 0.144676 0.144676 0.072338 0.144676 0.072338 0.144676 0.289352 0.144676 0.144676 0.072338 0.144676 0.072338 0.144676 0.289352 0.144676 0.144676 0.072338 0.144676 0.072338 0.144676 0.289352 0.144676 0.144676 0.0723379 0.144676 0.0723379 0.144676 0.289352 0.144676 0.144676 0.072338 0.144676 0.072338 0.144676 0.289352 0.144676 0.144676 0.072338 0.144676 0.072338 0.144676 0.289352 0.144676 0.144676 0.0723379 0.144676 0.0723379 0.144676 0.289352 0.144676 0.144676 0.0723379 0.144676 0.0723379 0.144676 0.289352 0.144676 0.144676 0.0723379 0.144676 0.0723379 0.144676 0.289352 0.144676 0.144676 0.072338 0.144676 0.072338 0.144676 0.289352 0.144676 0.144676 0.072338 0.144676 0.072338 0.144676 0.289352 0.144676 0.144676 0.0723379 0.144676 0.0723379 0.144676 0.289352 0.144676 0.144676 0.072338 0.144676 0.072338 0.144676 0.289352 0.144676 0.144676 0.0723379 0.144676 0.0723379 0.144676 0.289352 0.144676 0.144676 0.072338 0.144676 0.072338 0.144676 0.289352 0.144676 0.144676 0.0723381 0.144676 0.0723381 0.144676 0.289351 0.144676 0.144676 0.0723379 0.144676 0.0723379 0.144676 0.289352 0.144676 0.144676 0.0723378 0.144676 0.0723378 0.144676 0.289352 0.144676 0.144676 0.072338 0.144676 0.072338 0.144676 0.289352 0.144676 0.144676 0.0723379 0.144676 0.0723379 0.072338 0.144676 0.144676 0.072338 0.072338 0.144676 0.072338 0.144676 0.072338 0.289352 0.144676 0.144676 0.144676 0.072338 0.072338 0.144676 0.072338 0.144676 0.289352 0.144676 0.144676 0.072338 0.144676 0.072338 0.144676 0.289352 0.144676 0.144676 0.072338 0.144676 0.072338 0.144676 0.289352 0.144676 0.144676 0.0723379 0.144676 0.0723379 0.144676 0.289352 0.144676 0.144676 0.072338 0.144676 0.072338 0.144676 0.289352 0.144676 0.144676 0.072338 0.144676 0.072338 0.144676 0.289352 0.144676 0.144676 0.072338 0.144676 0.072338 0.144676 0.289352 0.144676 0.144676 0.0723379 0.144676 0.0723379 0.144676 0.289352 0.144676 0.144676 0.072338 0.144676 0.072338 0.144676 0.289352 0.144676 0.144676 0.0723379 0.144676 0.0723379 0.144676 0.289352 0.144676 0.144676 0.0723379 0.144676 0.0723379 0.144676 0.289352 0.144676 0.144676 0.072338 0.144676 0.072338 0.144676 0.289352 0.144676 0.144676 0.0723379 0.144676 0.0723379 0.144676 0.289352 0.144676 0.144676 0.072338 0.144676 0.072338 0.144676 0.289352 0.144676 0.144676 0.0723379 0.144676 0.0723379 0.144676 0.289352 0.144676 0.144676 0.072338 0.144676 0.072338 0.144676 0.289352 0.144676 0.144676 0.072338 0.144676 0.072338 0.144676 0.289352 0.144676 0.144676 0.0723379 0.144676 0.0723379 0.144676 0.289352 0.144676 0.144676 0.0723379 0.144676 0.0723379 0.144676 0.289352 0.144676 0.144676 0.0723379 0.144676 0.0723379 0.144676 0.289352 0.144676 0.144676 0.072338 0.144676 0.072338 0.144676 0.289352 0.144676 0.144676 0.0723379 0.144676 0.0723379 0.144676 0.289352 0.144676 0.144676 0.0723379 0.144676 0.0723379 0.144676 0.289352 0.144676 0.144676 0.072338 0.144676 0.072338 0.144676 0.289352 0.144676 0.144676 0.0723379 0.144676 0.0723379 0.144676 0.289352 0.144676 0.144676 0.0723379 0.144676 0.0723379 0.144676 0.289352 0.144676 0.144676 0.0723381 0.144676 0.0723381 0.144676 0.289351 0.144676 0.144676 0.0723379 0.144676 0.0723379 0.144676 0.289352 0.144676 0.144676 0.0723378 0.144676 0.0723378 0.144676 0.289352 0.144676 0.144676 0.072338 0.144676 0.072338 0.144676 0.289352 0.144676 0.144676 0.0723379 0.144676 0.0723379 0.072338 0.144676 0.144676 0.072338 0.072338 0.144676 0.072338 0.144676 0.072338 0.289352 0.144676 0.144676 0.144676 0.072338 0.072338 0.144676 0.072338 0.144676 0.289352 0.144676 0.144676 0.072338 0.144676 0.072338 0.144676 0.289352 0.144676 0.144676 0.072338 0.144676 0.072338 0.144676 0.289352 0.144676 0.144676 0.0723379 0.144676 0.0723379 0.144676 0.289352 0.144676 0.144676 0.072338 0.144676 0.072338 0.144676 0.289352 0.144676 0.144676 0.072338 0.144676 0.072338 0.144676 0.289352 0.144676 0.144676 0.072338 0.144676 0.072338 0.144676 0.289352 0.144676 0.144676 0.072338 0.144676 0.072338 0.144676 0.289352 0.144676 0.144676 0.072338 0.144676 0.072338 0.144676 0.289352 0.144676 0.144676 0.0723379 0.144676 0.0723379 0.144676 0.289352 0.144676 0.144676 0.0723379 0.144676 0.0723379 0.144676 0.289352 0.144676 0.144676 0.072338 0.144676 0.072338 0.144676 0.289352 0.144676 0.144676 0.0723379 0.144676 0.0723379 0.144676 0.289352 0.144676 0.144676 0.072338 0.144676 0.072338 0.144676 0.289352 0.144676 0.144676 0.0723379 0.144676 0.0723379 0.144676 0.289352 0.144676 0.144676 0.072338 0.144676 0.072338 0.144676 0.289352 0.144676 0.144676 0.072338 0.144676 0.072338 0.144676 0.289352 0.144676 0.144676 0.0723379 0.144676 0.0723379 0.144676 0.289352 0.144676 0.144676 0.0723379 0.144676 0.0723379 0.144676 0.289352 0.144676 0.144676 0.0723379 0.144676 0.0723379 0.144676 0.289352 0.144676 0.144676 0.072338 0.144676 0.072338 0.144676 0.289352 0.144676 0.144676 0.0723379 0.144676 0.0723379 0.144676 0.289352 0.144676 0.144676 0.0723379 0.144676 0.0723379 0.144676 0.289352 0.144676 0.144676 0.072338 0.144676 0.072338 0.144676 0.289352 0.144676 0.144676 0.0723379 0.144676 0.0723379 0.144676 0.289352 0.144676 0.144676 0.0723379 0.144676 0.0723379 0.144676 0.289352 0.144676 0.144676 0.0723381 0.144676 0.0723381 0.144676 0.289351 0.144676 0.144676 0.0723379 0.144676 0.0723379 0.144676 0.289352 0.144676 0.144676 0.0723378 0.144676 0.0723378 0.144676 0.289352 0.144676 0.144676 0.072338 0.144676 0.072338 0.144676 0.289352 0.144676 0.144676 0.0723379 0.144676 0.0723379 0.072338 0.144676 0.144676 0.072338 0.072338 0.144676 0.072338 0.144676 0.072338 0.289352 0.144676 0.144676 0.144676 0.072338 0.072338 0.144676 0.072338 0.144676 0.289352 0.144676 0.144676 0.072338 0.144676 0.072338 0.144676 0.289352 0.144676 0.144676 0.072338 0.144676 0.072338 0.144676 0.289352 0.144676 0.144676 0.072338 0.144676 0.072338 0.144676 0.289352 0.144676 0.144676 0.072338 0.144676 0.072338 0.144676 0.289352 0.144676 0.144676 0.072338 0.144676 0.072338 0.144676 0.289352 0.144676 0.144676 0.072338 0.144676 0.072338 0.144676 0.289352 0.144676 0.144676 0.072338 0.144676 0.072338 0.144676 0.289352 0.144676 0.144676 0.072338 0.144676 0.072338 0.144676 0.289352 0.144676 0.144676 0.0723379 0.144676 0.0723379 0.144676 0.289352 0.144676 0.144676 0.0723379 0.144676 0.0723379 0.144676 0.289352 0.144676 0.144676 0.072338 0.144676 0.072338 0.144676 0.289352 0.144676 0.144676 0.072338 0.144676 0.072338 0.144676 0.289352 0.144676 0.144676 0.072338 0.144676 0.072338 0.144676 0.289352 0.144676 0.144676 0.0723379 0.144676 0.0723379 0.144676 0.289352 0.144676 0.144676 0.072338 0.144676 0.072338 0.144676 0.289352 0.144676 0.144676 0.072338 0.144676 0.072338 0.144676 0.289352 0.144676 0.144676 0.0723379 0.144676 0.0723379 0.144676 0.289352 0.144676 0.144676 0.0723379 0.144676 0.0723379 0.144676 0.289352 0.144676 0.144676 0.0723379 0.144676 0.0723379 0.144676 0.289352 0.144676 0.144676 0.072338 0.144676 0.072338 0.144676 0.289352 0.144676 0.144676 0.072338 0.144676 0.072338 0.144676 0.289352 0.144676 0.144676 0.0723379 0.144676 0.0723379 0.144676 0.289352 0.144676 0.144676 0.072338 0.144676 0.072338 0.144676 0.289352 0.144676 0.144676 0.0723379 0.144676 0.0723379 0.144676 0.289352 0.144676 0.144676 0.072338 0.144676 0.072338 0.144676 0.289352 0.144676 0.144676 0.0723381 0.144676 0.0723381 0.144676 0.289352 0.144676 0.144676 0.0723379 0.144676 0.0723379 0.144676 0.289352 0.144676 0.144676 0.0723378 0.144676 0.0723378 0.144676 0.289352 0.144676 0.144676 0.072338 0.144676 0.072338 0.144676 0.289352 0.144676 0.144676 0.0723379 0.144676 0.0723379 0.072338 0.144676 0.144676 0.072338 0.072338 0.144676 0.072338 0.144676 0.072338 0.289352 0.144676 0.144676 0.144676 0.072338 0.072338 0.144676 0.072338 0.144676 0.289352 0.144676 0.144676 0.072338 0.144676 0.072338 0.144676 0.289352 0.144676 0.144676 0.072338 0.144676 0.072338 0.144676 0.289352 0.144676 0.144676 0.072338 0.144676 0.072338 0.144676 0.289352 0.144676 0.144676 0.072338 0.144676 0.072338 0.144676 0.289352 0.144676 0.144676 0.072338 0.144676 0.072338 0.144676 0.289352 0.144676 0.144676 0.072338 0.144676 0.072338 0.144676 0.289352 0.144676 0.144676 0.072338 0.144676 0.072338 0.144676 0.289352 0.144676 0.144676 0.072338 0.144676 0.072338 0.144676 0.289352 0.144676 0.144676 0.072338 0.144676 0.072338 0.144676 0.289352 0.144676 0.144676 0.072338 0.144676 0.072338 0.144676 0.289352 0.144676 0.144676 0.072338 0.144676 0.072338 0.144676 0.289352 0.144676 0.144676 0.072338 0.144676 0.072338 0.144676 0.289352 0.144676 0.144676 0.072338 0.144676 0.072338 0.144676 0.289352 0.144676 0.144676 0.0723379 0.144676 0.0723379 0.144676 0.289352 0.144676 0.144676 0.072338 0.144676 0.072338 0.144676 0.289352 0.144676 0.144676 0.072338 0.144676 0.072338 0.144676 0.289352 0.144676 0.144676 0.072338 0.144676 0.072338 0.144676 0.289352 0.144676 0.144676 0.0723379 0.144676 0.0723379 0.144676 0.289352 0.144676 0.144676 0.0723379 0.144676 0.0723379 0.144676 0.289352 0.144676 0.144676 0.072338 0.144676 0.072338 0.144676 0.289352 0.144676 0.144676 0.072338 0.144676 0.072338 0.144676 0.289352 0.144676 0.144676 0.0723379 0.144676 0.0723379 0.144676 0.289352 0.144676 0.144676 0.072338 0.144676 0.072338 0.144676 0.289352 0.144676 0.144676 0.0723379 0.144676 0.0723379 0.144676 0.289352 0.144676 0.144676 0.072338 0.144676 0.072338 0.144676 0.289352 0.144676 0.144676 0.0723381 0.144676 0.0723381 0.144676 0.289351 0.144676 0.144676 0.0723379 0.144676 0.0723379 0.144676 0.289352 0.144676 0.144676 0.0723378 0.144676 0.0723378 0.144676 0.289352 0.144676 0.144676 0.072338 0.144676 0.072338 0.144676 0.289352 0.144676 0.144676 0.0723379 0.144676 0.0723379 0.072338 0.144676 0.144676 0.072338 0.072338 0.144676 0.072338 0.144676 0.072338 0.144676 0.072338 0.072338 0.144676 0.072338 0.072338 0.072338 0.072338 0.144676 0.144676 0.072338 0.144676 0.072338 0.072338 0.072338 0.144676 0.144676 0.072338 0.144676 0.072338 0.072338 0.072338 0.144676 0.144676 0.0723379 0.144676 0.0723379 0.0723379 0.0723379 0.144676 0.144676 0.072338 0.144676 0.072338 0.072338 0.072338 0.144676 0.144676 0.072338 0.144676 0.072338 0.072338 0.072338 0.144676 0.144676 0.0723379 0.144676 0.0723379 0.0723379 0.0723379 0.144676 0.144676 0.072338 0.144676 0.072338 0.072338 0.072338 0.144676 0.144676 0.072338 0.144676 0.072338 0.072338 0.072338 0.144676 0.144676 0.0723379 0.144676 0.0723379 0.0723379 0.0723379 0.144676 0.144676 0.0723379 0.144676 0.0723379 0.0723379 0.0723379 0.144676 0.144676 0.0723379 0.144676 0.0723379 0.0723379 0.0723379 0.144676 0.144676 0.0723379 0.144676 0.0723379 0.0723379 0.0723379 0.144676 0.144676 0.072338 0.144676 0.072338 0.072338 0.072338 0.144676 0.144676 0.0723379 0.144676 0.0723379 0.0723379 0.0723379 0.144676 0.144676 0.072338 0.144676 0.072338 0.072338 0.072338 0.144676 0.144676 0.0723379 0.144676 0.0723379 0.0723379 0.0723379 0.144676 0.144676 0.0723379 0.144676 0.0723379 0.0723379 0.0723379 0.144676 0.144676 0.0723379 0.144676 0.0723379 0.0723379 0.0723379 0.144676 0.144676 0.0723379 0.144676 0.0723379 0.0723379 0.0723379 0.144676 0.144676 0.072338 0.144676 0.072338 0.072338 0.072338 0.144676 0.144676 0.0723379 0.144676 0.0723379 0.0723379 0.0723379 0.144676 0.144676 0.0723379 0.144676 0.0723379 0.0723379 0.0723379 0.144676 0.144676 0.072338 0.144676 0.072338 0.072338 0.072338 0.144676 0.144676 0.0723379 0.144676 0.0723379 0.0723379 0.0723379 0.144676 0.144676 0.0723379 0.144676 0.0723379 0.0723379 0.0723379 0.144676 0.144676 0.0723381 0.144676 0.0723381 0.0723381 0.0723381 0.144676 0.144676 0.0723379 0.144676 0.0723379 0.0723379 0.0723379 0.144676 0.144676 0.0723378 0.144676 0.0723378 0.0723378 0.0723378 0.144676 0.144676 0.072338 0.144676 0.072338 0.072338 0.072338 0.144676 0.144676 0.0723379 0.144676 0.0723379 0.0723379 0.0723379 0.072338 0.072338 0.072338 0.072338 0.072338 0.072338 0.072338 
VECTORS u float
0 0 0  -0.00488468 -0.0033476 -0.00631547  -0.00958131 -0.00511426 -0.00806606  -0.0137014 -0.00876512 -0.0086602  -0.0179211 -0.0136441 -0.00854135  -0.0220458 -0.0197039 -0.00813591  -0.026037 -0.026793 -0.00760436  -0.0298578 -0.034809 -0.00703335  -0.0334951 -0.0436643 -0.00646591  -0.0369395 -0.0532868 -0.00591624  -0.0401957 -0.0636074 -0.00539088  -0.0432638 -0.0745658 -0.00489473  -0.0461485 -0.0861041 -0.00442374  -0.0488607 -0.0981704 -0.00398231  -0.0514086 -0.110707 -0.00356221  -0.0537932 -0.123662 -0.00316572  -0.0560309 -0.136991 -0.00279486  -0.0581217 -0.150646 -0.00244677  -0.0600722 -0.164584 -0.00212538  -0.0618925 -0.178763 -0.00182211  -0.0635924 -0.193144 -0.00154531  -0.06517 -0.207695 -0.00129032  -0.0666444 -0.222373 -0.00105894  -0.0680163 -0.237163 -0.000849962  -0.0692992 -0.252022 -0.000662327  -0.0704958 -0.266935 -0.000498295  -0.0716178 -0.281874 -0.000358343  -0.0726731 -0.296817 -0.000239372  -0.0736687 -0.311759 -0.000146508  -0.0746207 -0.326674 -7.31945e-05  -0.0755327 -0.341552 -2.46763e-05  -0.0764184 -0.356392 3.21865e-06  -0.0772979 -0.371204 2.11e-05  0 0 0  -0.00301655 -0.00100207 -0.00492728  -0.00649478 -0.00343209 -0.00597382  -0.00955778 -0.00705673 -0.00638878  -0.0126345 -0.0120315 -0.00633323  -0.0156894 -0.0181988 -0.00605798  -0.0186876 -0.0254252 -0.00567997  -0.0216002 -0.0335939 -0.00526488  -0.0244078 -0.0426102 -0.00484431  -0.0270982 -0.0523927 -0.00443542  -0.0296663 -0.0628736 -0.0040437  -0.0321128 -0.0739889 -0.00367045  -0.0344392 -0.0856787 -0.00331879  -0.0366521 -0.0978845 -0.00298536  -0.0387479 -0.110554 -0.00267184  -0.0407416 -0.123638 -0.00237632  -0.0426271 -0.137083 -0.00209773  -0.0444148 -0.150844 -0.00183868  -0.0461082 -0.164884 -0.00159681  -0.0477061 -0.179151 -0.00137198  -0.0492227 -0.193614 -0.00116456  -0.0506532 -0.208237 -0.000971913  -0.0520091 -0.222985 -0.000801325  -0.0532906 -0.237826 -0.000644326  -0.0545044 -0.252735 -0.000503898  -0.0556555 -0.267688 -0.000383139  -0.0567527 -0.282662 -0.000278473  -0.0577979 -0.297636 -0.00019002  -0.0588014 -0.312596 -0.000120401  -0.059763 -0.327529 -6.61612e-05  -0.0606959 -0.342418 -2.49147e-05  -0.0616004 -0.357264 4.05312e-06  -0.0624864 -0.372074 3.56436e-05  0 0 0  -0.00179125 0.000175714 -0.00336444  -0.00389421 -0.00206773 -0.00404739  -0.0059098 -0.00581793 -0.0042702  -0.00796759 -0.0108974 -0.00420666  -0.0100158 -0.017169 -0.00402105  -0.0120453 -0.0245026 -0.00377202  -0.0140461 -0.0327878 -0.00349855  -0.016005 -0.0419233 -0.00321865  -0.0179121 -0.0518312 -0.00294638  -0.0197657 -0.0624359 -0.00268519  -0.0215607 -0.0736722 -0.00243616  -0.0232973 -0.085481 -0.0022018  -0.0249754 -0.0977995 -0.0019778  -0.0265976 -0.110578 -0.00176871  -0.0281621 -0.12376 -0.00157261  -0.029673 -0.1373 -0.00138891  -0.0311296 -0.15115 -0.00121558  -0.032532 -0.165267 -0.00105512  -0.0338845 -0.17961 -0.000907063  -0.0351861 -0.194139 -0.000768304  -0.0364377 -0.20882 -0.000642776  -0.0376437 -0.22362 -0.000528812  -0.0388086 -0.23851 -0.000423193  -0.0399218 -0.253459 -0.000331759  -0.0410047 -0.268445 -0.000252962  -0.0420458 -0.283448 -0.000183463  -0.0430567 -0.298446 -0.000126481  -0.0440385 -0.313425 -7.93934e-05  -0.0449898 -0.328371 -4.33922e-05  -0.0459127 -0.343273 -1.58548e-05  -0.0468171 -0.358129 9.05991e-06  -0.047703 -0.372926 3.49283e-05  0 0 0  -0.000814572 0.000692695 -0.00166297  -0.00176033 -0.00132257 -0.00202525  -0.00270736 -0.00509334 -0.00213432  -0.00372192 -0.0102623 -0.00209498  -0.00476378 -0.016622 -0.00199842  -0.00582856 -0.024041 -0.00187147  -0.00691396 -0.0324068 -0.00173426  -0.0080151 -0.0416288 -0.00159323  -0.00913155 -0.0516244 -0.00145543  -0.0102527 -0.0623199 -0.00132275  -0.0113796 -0.0736459 -0.00119758  -0.0125067 -0.085541 -0.00107837  -0.0136349 -0.0979455 -0.000966787  -0.01476 -0.110803 -0.00086236  -0.0158805 -0.124062 -0.000763893  -0.0169934 -0.137674 -0.000672221  -0.0180981 -0.15159 -0.000585556  -0.0191946 -0.165768 -0.000507116  -0.0202804 -0.180166 -0.000434399  -0.021353 -0.194745 -0.000365615  -0.022408 -0.209471 -0.000305057  -0.0234485 -0.22431 -0.000249505  -0.0244722 -0.239234 -0.000199318  -0.02548 -0.254214 -0.00015378  -0.0264702 -0.269227 -0.000113726  -0.0274446 -0.284248 -8.55923e-05  -0.0284026 -0.299268 -5.71012e-05  -0.0293431 -0.31426 -3.3617e-05  -0.0302677 -0.329217 -1.64509e-05  -0.0311761 -0.34413 -2.14577e-06  -0.0320735 -0.358993 9.65595e-06  -0.0329511 -0.373781 2.25306e-05  0 0 0  6.43134e-05 0.000789404 5.6982e-05  0.000166059 -0.00117517 4.54187e-05  0.000250816 -0.00495836 3.11136e-05  0.000290453 -0.0101737 2.15769e-05  0.000267327 -0.0165825 2.06232e-05  0.000172317 -0.0240483 2.19345e-05  4.70877e-06 -0.0324646 2.6226e-05  -0.000240266 -0.0417407 3.09944e-05  -0.000556469 -0.0517925 3.57628e-05  -0.000939608 -0.0625452 4.13656e-05  -0.0013901 -0.073929 4.44651e-05  -0.00190163 -0.085883 4.673e-05  -0.00246835 -0.0983441 4.81606e-05  -0.00308573 -0.111257 4.97103e-05  -0.00375128 -0.124568 4.75645e-05  -0.00445962 -0.138227 4.70877e-05  -0.00520539 -0.152187 4.80413e-05  -0.00598454 -0.166407 4.41074e-05  -0.00679111 -0.180841 4.26769e-05  -0.00762272 -0.195454 4.01735e-05  -0.0084703 -0.210211 3.49283e-05  -0.00933862 -0.225076 3.51667e-05  -0.0102165 -0.240021 3.20673e-05  -0.011102 -0.25502 2.82526e-05  -0.0119951 -0.270049 2.59876e-05  -0.0128925 -0.285085 2.02656e-05  -0.0137899 -0.300111 1.84774e-05  -0.0146828 -0.315112 1.65701e-05  -0.0155749 -0.330077 1.09673e-05  -0.0164633 -0.344997 7.98702e-06  -0.017349 -0.35986 5.126e-06  -0.0182259 -0.374643 0  0 0 0  0.000936687 0.000522673 0.00176394  0.00208274 -0.00158709 0.00209606  0.00319728 -0.00542289 0.00217593  0.00428909 -0.010645 0.00212216  0.00528002 -0.017057 0.0020262  0.00615156 -0.0245332 0.00190842  0.00689471 -0.0329658 0.00178063  0.00750947 -0.0422641 0.00165343  0.00798976 -0.0523416 0.00152564  0.00834227 -0.0631226 0.0014044  0.00857008 -0.074536 0.00128436  0.00867784 -0.0865195 0.00117242  0.00867236 -0.0990102 0.00106347  0.00856197 -0.111952 0.00096035  0.00835145 -0.125289 0.000862122  0.00805068 -0.138973 0.000769854  0.00766706 -0.152959 0.000680804  0.00720859 -0.167198 0.000597954  0.00668049 -0.18165 0.000519991  0.00609016 -0.196279 0.000446558  0.00545073 -0.211049 0.000379205  0.0047605 -0.225925 0.000319242  0.00402927 -0.24088 0.00026083  0.00326562 -0.255886 0.000212908  0.00247025 -0.270919 0.000167012  0.00165439 -0.28596 0.000124574  0.00082159 -0.300988 9.29832e-05  -2.7895e-05 -0.315992 6.48499e-05  -0.000887632 -0.330955 4.01735e-05  -0.00175595 -0.345872 1.94311e-05  -0.0026269 -0.360735 -9.53674e-07  -0.0034976 -0.37552 -2.38419e-05  0 0 0  0.00188433 -0.000156581 0.00342107  0.00418463 -0.00258279 0.00405324  0.00636253 -0.00646091 0.00425076  0.0084877 -0.0116492 0.00418723  0.0104709 -0.0180297 0.0040127  0.0122957 -0.0254866 0.00378013  0.0139453 -0.033908 0.00352538  0.0154077 -0.0431996 0.00326526  0.0166793 -0.053275 0.00300813  0.0177622 -0.0640556 0.0027591  0.0186594 -0.0754711 0.00252056  0.0193782 -0.087457 0.00229192  0.0199299 -0.0999512 0.0020746  0.0203187 -0.112896 0.00186622  0.0205603 -0.126236 0.00167131  0.0206625 -0.139925 0.00148392  0.0206337 -0.153908 0.00130975  0.0204906 -0.168148 0.00114465  0.0202351 -0.182602 0.000992656  0.0198789 -0.197227 0.000849605  0.0194426 -0.211993 0.000718355  0.0189202 -0.226865 0.000599027  0.0183375 -0.241815 0.000488758  0.017684 -0.256815 0.000391722  0.0169852 -0.271842 0.000304222  0.0162404 -0.286877 0.000227809  0.0154662 -0.301899 0.000163317  0.0146577 -0.316895 0.000110388  0.0138245 -0.331852 6.60419e-05  0.0129755 -0.346761 3.14713e-05  0.0121107 -0.361617 3.57628e-07  0.0112419 -0.376415 -3.54052e-05  0 0 0  0.0030604 -0.00145942 0.0048964  0.00671992 -0.00416231 0.00587308  0.00993267 -0.00798547 0.00627232  0.0130548 -0.0131288 0.00623167  0.0160218 -0.0194706 0.00598526  0.0187945 -0.026893 0.00564134  0.0213422 -0.0352848 0.0052582  0.0236465 -0.0445468 0.00486541  0.0256983 -0.0545922 0.00447989  0.027496 -0.0653467 0.00410545  0.0290521 -0.076737 0.00374591  0.0303692 -0.088698 0.00340366  0.0314603 -0.10117 0.00307643  0.0323398 -0.114093 0.00276542  0.0330181 -0.127414 0.00247169  0.0335064 -0.141078 0.00219333  0.0338218 -0.155043 0.00193286  0.0339744 -0.169263 0.0016886  0.0339794 -0.183695 0.00145864  0.033849 -0.198299 0.00124633  0.0335963 -0.213046 0.00105155  0.0332346 -0.227898 0.000873446  0.032774 -0.242827 0.000709176  0.0322266 -0.257807 0.000564218  0.0316064 -0.272818 0.000434279  0.0309205 -0.287835 0.000323176  0.030185 -0.302842 0.000228524  0.0294042 -0.317823 0.000151157  0.0285902 -0.332765 8.79765e-05  0.0277479 -0.34766 4.24385e-05  0.0268879 -0.362508 5.00679e-06  0.0260153 -0.377313 -3.19481e-05  0 0 0  0.00486377 -0.00384837 0.00613999  0.0097318 -0.0060336 0.00780499  0.0139352 -0.00993222 0.00838935  0.0181447 -0.0150524 0.00831401  0.0221394 -0.0213711 0.00796545  0.02588 -0.02875 0.00749087  0.0293283 -0.0370946 0.00697172  0.0324577 -0.0463011 0.00644529  0.0352706 -0.0562962 0.00592864  0.0377654 -0.0669953 0.0054301  0.0399569 -0.0783355 0.00495207  0.0418485 -0.0902494 0.00449455  0.0434602 -0.102669 0.00405979  0.0448015 -0.115547 0.00364912  0.0458905 -0.128821 0.00325608  0.0467448 -0.142442 0.00288749  0.0473783 -0.156365 0.00253975  0.0478084 -0.170543 0.00221336  0.0480483 -0.184931 0.00190997  0.0481179 -0.199499 0.00162923  0.0480251 -0.214205 0.00137091  0.0477993 -0.229018 0.00113177  0.0474393 -0.243913 0.000914216  0.0469732 -0.258862 0.000721216  0.0464017 -0.273839 0.000551701  0.0457549 -0.288823 0.000403285  0.0450358 -0.303809 0.000279307  0.0442502 -0.318767 0.000177622  0.0434279 -0.333688 9.76324e-05  0.0425715 -0.348565 4.04119e-05  0.0416985 -0.363401 1.78814e-06  0.0408196 -0.378206 -2.21729e-05  0 0 0  -0.00380348 -0.00492805 -0.00384724  -0.00880885 -0.00722302 -0.0058251  -0.0135103 -0.0108364 -0.00644338  -0.0180339 -0.0156214 -0.00644583  -0.0223374 -0.0215353 -0.00616068  -0.0264184 -0.028473 -0.0057593  -0.0302798 -0.0363449 -0.00532204  -0.033925 -0.0450635 -0.00488454  -0.0373647 -0.0545578 -0.00446421  -0.0406033 -0.0647627 -0.00406474  -0.0436523 -0.0756103 -0.00368732  -0.0465192 -0.0870457 -0.00333178  -0.0492107 -0.099014 -0.00299668  -0.051733 -0.111457 -0.00267953  -0.0540982 -0.124329 -0.00238264  -0.056313 -0.137577 -0.00210476  -0.0583799 -0.151156 -0.00184286  -0.0603106 -0.165022 -0.00159979  -0.0621119 -0.179137 -0.00137407  -0.0637863 -0.193459 -0.00116569  -0.0653484 -0.207953 -0.000974596  -0.066803 -0.222586 -0.000800908  -0.0681581 -0.237327 -0.000642359  -0.0694199 -0.252148 -0.000502884  -0.0705974 -0.267025 -0.000381827  -0.071702 -0.281934 -0.00027591  -0.0727422 -0.296855 -0.000187218  -0.0737205 -0.311776 -0.000116765  -0.0746596 -0.326679 -6.47306e-05  -0.0755601 -0.34155 -2.82526e-05  -0.0764461 -0.356393 -4.52995e-06  -0.0773208 -0.371211 1.68085e-05  0 0 0  -0.00200762 -0.00213123 -0.0028941  -0.00573292 -0.00510132 -0.00439358  -0.00936905 -0.00890539 -0.00482208  -0.0127441 -0.013877 -0.00481957  -0.0159705 -0.0199641 -0.00460964  -0.0190558 -0.0270762 -0.00431186  -0.022007 -0.0351193 -0.00398546  -0.0248237 -0.0440093 -0.00365895  -0.0275078 -0.0536725 -0.00334328  -0.0300616 -0.064038 -0.00304276  -0.03249 -0.0750446 -0.00275975  -0.0347981 -0.086631 -0.00249267  -0.0369872 -0.0987393 -0.00224215  -0.0390668 -0.111319 -0.00200558  -0.0410336 -0.124316 -0.00178206  -0.0429024 -0.13768 -0.0015738  -0.044668 -0.151369 -0.00137842  -0.04634 -0.165333 -0.00119579  -0.0479209 -0.179538 -0.00102764  -0.049417 -0.193942 -0.000871658  -0.0508265 -0.208509 -0.000729144  -0.0521605 -0.223206 -0.000599563  -0.0534248 -0.238003 -0.000481665  -0.054621 -0.252874 -0.000377834  -0.0557561 -0.267792 -0.000285804  -0.0568364 -0.282736 -0.000207663  -0.0578654 -0.297686 -0.000142753  -0.0588541 -0.312625 -9.05395e-05  -0.0598042 -0.327543 -4.98891e-05  -0.0607274 -0.342425 -2.05636e-05  -0.0616252 -0.357267 2.26498e-06  -0.0625165 -0.372076 2.09808e-05  0 0 0  -0.00113358 -0.000849277 -0.00198984  -0.00338006 -0.00356354 -0.0030005  -0.0057829 -0.00754222 -0.00325853  -0.00805721 -0.0126649 -0.00323063  -0.0102315 -0.0188915 -0.00307995  -0.012329 -0.0261347 -0.00287473  -0.0143608 -0.0343076 -0.00265437  -0.0163289 -0.0433273 -0.00243437  -0.0182334 -0.0531178 -0.00222266  -0.020076 -0.0636101 -0.00202203  -0.021857 -0.0747399 -0.00183272  -0.0235796 -0.086445 -0.00165337  -0.0252409 -0.0986675 -0.00148553  -0.0268452 -0.111353 -0.00132799  -0.0283924 -0.124452 -0.00117952  -0.0298852 -0.137911 -0.00104076  -0.0313261 -0.151685 -0.000910521  -0.0327113 -0.165732 -0.000790298  -0.0340462 -0.180009 -0.000677764  -0.035331 -0.194479 -0.000576019  -0.0365705 -0.209105 -0.000480771  -0.0377598 -0.223854 -0.000393867  -0.0389078 -0.238698 -0.000315964  -0.0400145 -0.253607 -0.0002473  -0.0410812 -0.26856 -0.000187278  -0.0421112 -0.283532 -0.000136256  -0.043107 -0.298505 -9.38773e-05  -0.0440764 -0.313463 -5.79953e-05  -0.0450206 -0.328392 -3.23653e-05  -0.045938 -0.343285 -1.10269e-05  -0.046839 -0.358132 5.126e-06  -0.0477288 -0.37293 2.31862e-05  0 0 0  -0.000497676 -0.00031507 -0.0010038  -0.00152294 -0.00278181 -0.00151724  -0.00267053 -0.00677475 -0.00164592  -0.00380424 -0.0119977 -0.00162476  -0.00491768 -0.0183243 -0.00154257  -0.00602162 -0.0256618 -0.00143665  -0.00712639 -0.0339257 -0.00132358  -0.0082348 -0.0430359 -0.00121051  -0.00934732 -0.0529189 -0.00110143  -0.0104632 -0.0635031 -0.000998437  -0.0115811 -0.0747234 -0.00090307  -0.0126981 -0.0865169 -0.000812411  -0.0138147 -0.0988254 -0.000727057  -0.0149255 -0.111593 -0.000648022  -0.016035 -0.124765 -0.000573039  -0.0171365 -0.138296 -0.000503361  -0.0182288 -0.152137 -0.000439644  -0.0193131 -0.166244 -0.00037998  -0.0203853 -0.180577 -0.000324249  -0.0214446 -0.195097 -0.000273645  -0.0224886 -0.209766 -0.000227332  -0.0235207 -0.224555 -0.00018549  -0.0245361 -0.239432 -0.000147939  -0.025532 -0.254372 -0.000113845  -0.0265152 -0.269349 -8.63075e-05  -0.0274813 -0.284342 -6.08563e-05  -0.0284295 -0.299332 -4.11868e-05  -0.0293646 -0.314303 -2.40207e-05  -0.0302832 -0.329245 -1.3411e-05  -0.031188 -0.344145 -3.51667e-06  -0.0320814 -0.358996 5.30481e-06  -0.0329664 -0.373782 1.40667e-05  0 0 0  4.7937e-05 -0.000207216 2.34246e-05  0.000132054 -0.00261772 1.62721e-05  0.00019592 -0.00662318 2.98023e-06  0.000213683 -0.0118942 -3.15905e-06  0.000174224 -0.0182743 -2.86102e-06  6.89626e-05 -0.0256651 2.20537e-06  -0.000107646 -0.0339834 6.97374e-06  -0.000351906 -0.0431503 1.47223e-05  -0.000667095 -0.0530909 1.97291e-05  -0.00104785 -0.063735 2.5034e-05  -0.00149381 -0.0750152 2.94447e-05  -0.00199747 -0.0868674 3.0756e-05  -0.00255859 -0.0992318 3.33786e-05  -0.00317001 -0.112054 3.43919e-05  -0.00382936 -0.12528 3.52263e-05  -0.00452793 -0.138858 3.58224e-05  -0.00526738 -0.152744 3.28422e-05  -0.00603795 -0.166891 3.30806e-05  -0.00683737 -0.18126 3.08752e-05  -0.00766063 -0.195813 2.80738e-05  -0.00850654 -0.210512 2.91467e-05  -0.00936508 -0.225326 2.54512e-05  -0.0102396 -0.240225 2.39611e-05  -0.0111198 -0.255183 2.13981e-05  -0.0120106 -0.270175 1.92523e-05  -0.0128989 -0.285182 1.65701e-05  -0.0137913 -0.300181 1.3411e-05  -0.0146844 -0.31516 1.0848e-05  -0.0155764 -0.330106 8.04663e-06  -0.0164645 -0.345012 6.67572e-06  -0.0173471 -0.359863 2.5034e-06  -0.0182221 -0.374644 2.98023e-07  0 0 0  0.000594899 -0.000450969 0.00104338  0.00178471 -0.00301307 0.00153536  0.00305307 -0.007074 0.00163698  0.00421607 -0.0123569 0.00160688  0.00524515 -0.0187432 0.00152826  0.0061335 -0.0261469 0.00143301  0.0068844 -0.0344843 0.00133479  0.00749946 -0.0436742 0.00123471  0.00798154 -0.0536426 0.0011397  0.00833511 -0.0643163 0.00104779  0.00856304 -0.0756255 0.00095892  0.00867081 -0.0875085 0.000874877  0.00866854 -0.0999036 0.000794053  0.00856006 -0.112755 0.000716805  0.00835311 -0.126008 0.000643611  0.00805521 -0.13961 0.000572443  0.00767493 -0.153519 0.000507295  0.00721788 -0.167688 0.000445724  0.00669241 -0.182074 0.000388384  0.00610638 -0.196641 0.000333428  0.00546718 -0.211355 0.000284255  0.00477791 -0.22618 0.000236988  0.0040493 -0.241088 0.000196218  0.00328636 -0.256053 0.000158608  0.00249052 -0.271049 0.000123382  0.00167394 -0.286058 9.36985e-05  0.000839472 -0.301059 6.84261e-05  -1.00136e-05 -0.316039 4.76837e-05  -0.00087285 -0.330986 2.92063e-05  -0.00174117 -0.345888 1.42455e-05  -0.00261307 -0.360741 6.55651e-07  -0.00348091 -0.375527 -1.38879e-05  0 0 0  0.00123416 -0.00111234 0.00200611  0.00363302 -0.00400943 0.00296974  0.00613222 -0.00812155 0.00320143  0.00841659 -0.0133668 0.00317353  0.0104898 -0.0197194 0.00303465  0.0123589 -0.0271003 0.00284982  0.0140262 -0.0354254 0.0026502  0.0154959 -0.04461 0.00244969  0.0167692 -0.0545763 0.00225341  0.0178487 -0.0652493 0.00206536  0.0187445 -0.0765622 0.00188655  0.0194612 -0.0884477 0.00171381  0.0200095 -0.100847 0.00155127  0.0203984 -0.113702 0.00139648  0.0206378 -0.126956 0.00124878  0.0207362 -0.140563 0.00111008  0.0207081 -0.154473 0.000979543  0.0205598 -0.16864 0.000857353  0.0203037 -0.183027 0.000741541  0.0199504 -0.197592 0.000635266  0.0195065 -0.2123 0.000537217  0.0189848 -0.227122 0.000447452  0.0183928 -0.242025 0.0003649  0.0177412 -0.256982 0.000291884  0.0170372 -0.271972 0.000227213  0.0162902 -0.286973 0.000169396  0.0155048 -0.301969 0.000121891  0.0146928 -0.316942 8.11219e-05  0.0138574 -0.331881 4.92334e-05  0.0130017 -0.346779 2.21729e-05  0.0121374 -0.361627 5.36442e-07  0.0112739 -0.376425 -2.19345e-05  0 0 0  0.00211109 -0.00249749 0.00285798  0.00595486 -0.00571197 0.00428128  0.00964156 -0.00972247 0.00468946  0.0129906 -0.0148895 0.00469923  0.0160874 -0.0211798 0.00451553  0.0189255 -0.0285143 0.00424892  0.0215024 -0.0368009 0.00395298  0.0238143 -0.045953 0.00365174  0.0258664 -0.0558891 0.00335854  0.0276616 -0.0665357 0.00307614  0.029211 -0.0778237 0.00280547  0.0305234 -0.0896863 0.00254786  0.031608 -0.102063 0.002303  0.0324829 -0.114895 0.00206989  0.0331558 -0.128131 0.00184995  0.0336399 -0.141716 0.00164229  0.0339484 -0.155604 0.00144643  0.0340974 -0.169752 0.00126284  0.0340984 -0.184118 0.00109303  0.033962 -0.198662 0.00093317  0.033705 -0.213349 0.000787377  0.0333364 -0.22815 0.000652313  0.0328681 -0.243033 0.000530839  0.0323129 -0.257971 0.000421405  0.031683 -0.272943 0.000323951  0.0309899 -0.287926 0.000241816  0.0302436 -0.302904 0.000169396  0.0294542 -0.317864 0.000112116  0.0286286 -0.332791 6.74129e-05  0.0277824 -0.347676 3.21865e-05  0.0269175 -0.362518 4.41074e-06  0.0260501 -0.377323 -2.26498e-05  0 0 0  0.0038581 -0.00532079 0.00372237  0.00895014 -0.00791949 0.00561124  0.0136279 -0.0118251 0.00620472  0.0180709 -0.0168956 0.00623107  0.0222091 -0.0231124 0.00598884  0.02602 -0.0303802 0.00563478  0.0294975 -0.0386041 0.00524157  0.0326395 -0.0476964 0.0048418  0.0354553 -0.0575786 0.0044508  0.0379468 -0.0681722 0.00407666  0.0401285 -0.0794078 0.00371623  0.0420164 -0.0912225 0.00337291  0.0436181 -0.10355 0.00304782  0.0449562 -0.116336 0.00273782  0.0460404 -0.129527 0.00244612  0.0468891 -0.143067 0.00216925  0.0475171 -0.156915 0.00190926  0.0479424 -0.171021 0.00166559  0.0481777 -0.185344 0.00143903  0.0482376 -0.199849 0.00122708  0.0481446 -0.214498 0.00103074  0.0479074 -0.22926 0.00085336  0.0475411 -0.244106 0.000691056  0.0470638 -0.259014 0.000548005  0.0464873 -0.273953 0.000419676  0.0458283 -0.288907 0.000308216  0.045099 -0.303859 0.000214875  0.0443056 -0.318795 0.000141442  0.0434732 -0.3337 8.21352e-05  0.0426097 -0.348573 3.91603e-05  0.0417306 -0.363408 1.01924e-05  0.0408473 -0.378214 -1.40667e-05  0 0 0  -0.00380436 -0.00582817 -0.00228947  -0.00862958 -0.00853873 -0.00361878  -0.0133157 -0.0122607 -0.00419635  -0.0179503 -0.0170034 -0.00427943  -0.0223542 -0.0228393 -0.00412357  -0.0265113 -0.0296834 -0.00386423  -0.0304201 -0.0374567 -0.00357163  -0.0340917 -0.0460824 -0.00327599  -0.0375421 -0.055489 -0.0029915  -0.0407844 -0.0656058 -0.0027228  -0.0438293 -0.0763768 -0.00246739  -0.0466884 -0.0877389 -0.00222898  -0.0493708 -0.0996353 -0.00200438  -0.0518843 -0.112014 -0.00179225  -0.05424 -0.124822 -0.00159425  -0.0564412 -0.138013 -0.00140697  -0.0584984 -0.151537 -0.00123322  -0.0604193 -0.165353 -0.00107032  -0.0622082 -0.179421 -0.000920355  -0.0638752 -0.1937 -0.000781178  -0.065428 -0.208155 -0.000654161  -0.0668693 -0.222749 -0.000537455  -0.0682149 -0.237458 -0.000430405  -0.0694685 -0.252251 -0.000338614  -0.0706406 -0.267101 -0.000258446  -0.0717394 -0.281988 -0.000186622  -0.0727715 -0.296893 -0.000129163  -0.07375 -0.311801 -8.2016e-05  -0.0746806 -0.326691 -4.81606e-05  -0.0755825 -0.341558 -2.22325e-05  -0.0764685 -0.356397 -5.96046e-06  -0.0773466 -0.371218 9.71556e-06  0 0 0  -0.00184576 -0.00275217 -0.00169235  -0.00540286 -0.00615812 -0.00272894  -0.00914088 -0.0101377 -0.00316101  -0.0126794 -0.0151444 -0.00321794  -0.016027 -0.021199 -0.0030967  -0.0191925 -0.0282469 -0.00290048  -0.0221907 -0.0362118 -0.00267774  -0.0250308 -0.0450191 -0.00245398  -0.0277237 -0.0545973 -0.00223887  -0.0302774 -0.0648824 -0.00203592  -0.0327001 -0.0758121 -0.00184494  -0.0349985 -0.0873237 -0.00166559  -0.0371783 -0.0993639 -0.00149649  -0.0392447 -0.111877 -0.00133801  -0.0412016 -0.124811 -0.00118959  -0.0430567 -0.138119 -0.00105035  -0.0448098 -0.151752 -0.000919163  -0.0464721 -0.165668 -0.000797629  -0.0480375 -0.179826 -0.000684857  -0.0495203 -0.194187 -0.000581145  -0.0509214 -0.208713 -0.00048697  -0.052247 -0.223375 -0.000399411  -0.0534995 -0.23814 -0.000321805  -0.0546832 -0.252981 -0.000252247  -0.0558097 -0.267874 -0.000190914  -0.0568793 -0.282797 -0.000138283  -0.0579042 -0.297729 -9.55462e-05  -0.058882 -0.312654 -6.10948e-05  -0.0598319 -0.32756 -3.40343e-05  -0.0607486 -0.342435 -1.51992e-05  -0.0616493 -0.357276 2.14577e-06  -0.0625362 -0.372083 1.52588e-05  0 0 0  -0.00101543 -0.00133258 -0.00114721  -0.00311935 -0.00441529 -0.00185764  -0.00559482 -0.00861807 -0.00214112  -0.00801009 -0.0138337 -0.00216597  -0.0102882 -0.0200685 -0.00207561  -0.0124541 -0.0272736 -0.00193787  -0.0145242 -0.0353839 -0.00178629  -0.0165116 -0.0443289 -0.00163496  -0.0184227 -0.0540425 -0.00148875  -0.0202655 -0.0644565 -0.00135279  -0.0220428 -0.0755099 -0.00122499  -0.0237534 -0.0871426 -0.00110322  -0.0254071 -0.0992975 -0.000991881  -0.0270005 -0.111917 -0.000885487  -0.0285385 -0.124954 -0.000786245  -0.0300207 -0.138354 -0.0006935  -0.0314472 -0.152076 -0.000606179  -0.0328255 -0.166073 -0.000525355  -0.0341485 -0.180302 -0.00045085  -0.0354261 -0.194728 -0.000382066  -0.0366516 -0.209315 -0.000320613  -0.0378327 -0.224029 -0.000262499  -0.0389714 -0.238839 -0.000209987  -0.0400679 -0.25372 -0.000163972  -0.0411246 -0.268647 -0.000124931  -0.0421484 -0.283597 -8.98838e-05  -0.0431378 -0.298552 -6.31809e-05  -0.0441008 -0.313495 -3.88026e-05  -0.0450399 -0.328413 -2.09808e-05  -0.0459535 -0.343297 -7.86781e-06  -0.0468538 -0.358142 4.11272e-06  -0.0477455 -0.37294 1.18613e-05  0 0 0  -0.000440948 -0.000725389 -0.000582397  -0.00139767 -0.00352916 -0.000942588  -0.00258374 -0.0077548 -0.00108659  -0.00379589 -0.0131018 -0.00109541  -0.00497383 -0.0194615 -0.00104505  -0.00611889 -0.0267782 -0.000973165  -0.00724775 -0.0349908 -0.000893474  -0.00836909 -0.0440348 -0.00081569  -0.00948453 -0.0538431 -0.00074023  -0.0106007 -0.0643528 -0.000669539  -0.0117126 -0.0754978 -0.000604391  -0.0128243 -0.0872197 -0.000542819  -0.0139333 -0.0994594 -0.000485361  -0.0150378 -0.112162 -0.000432134  -0.0161376 -0.125274 -0.000382602  -0.0172305 -0.138747 -0.000335336  -0.0183167 -0.152534 -0.000292003  -0.0193937 -0.16659 -0.000252962  -0.0204566 -0.180875 -0.000215888  -0.0215094 -0.195351 -0.000181139  -0.0225446 -0.209982 -0.000151634  -0.0235705 -0.224734 -0.000123322  -0.0245762 -0.239581 -9.73344e-05  -0.025568 -0.25449 -7.58767e-05  -0.0265453 -0.269442 -5.6982e-05  -0.0275033 -0.284411 -3.92795e-05  -0.0284479 -0.299383 -2.7597e-05  -0.029376 -0.31434 -1.72257e-05  -0.0302956 -0.329268 -6.91414e-06  -0.0311987 -0.344159 -2.02656e-06  -0.032093 -0.359005 2.98023e-06  -0.0329759 -0.373797 7.98702e-06  0 0 0  3.80874e-05 -0.00059092 8.34465e-06  0.000107944 -0.00332838 5.72205e-06  0.000160336 -0.00756747 -3.93391e-06  0.00016588 -0.0129692 -9.05991e-06  0.000114799 -0.0193932 -9.05991e-06  -2.38419e-07 -0.0267706 -5.54323e-06  -0.0001809 -0.0350429 -6.55651e-07  -0.00042969 -0.0441463 6.3777e-06  -0.000743866 -0.0540172 1.04308e-05  -0.00112414 -0.0645865 1.36495e-05  -0.00156653 -0.0757927 1.75834e-05  -0.00206721 -0.0875748 1.91331e-05  -0.00262249 -0.0998718 2.10404e-05  -0.00322962 -0.112628 2.28882e-05  -0.00388277 -0.125792 2.25306e-05  -0.00457931 -0.139314 2.27094e-05  -0.00531125 -0.153145 2.28286e-05  -0.00607657 -0.167243 2.13981e-05  -0.00687218 -0.181564 2.0802e-05  -0.00769186 -0.196074 2.07424e-05  -0.00853157 -0.210731 1.87755e-05  -0.00938654 -0.225511 1.74046e-05  -0.0102544 -0.240377 1.5676e-05  -0.0111332 -0.255305 1.46031e-05  -0.0120187 -0.270271 1.35899e-05  -0.0129073 -0.285255 1.12057e-05  -0.0137954 -0.300235 8.04663e-06  -0.0146868 -0.315198 8.04663e-06  -0.015578 -0.330132 6.3777e-06  -0.0164628 -0.345028 4.70877e-06  -0.017345 -0.359875 1.72853e-06  -0.0182219 -0.374661 1.19209e-06  0 0 0  0.000518665 -0.000845075 0.000592887  0.00161168 -0.00373757 0.000943065  0.00289711 -0.00803167 0.00106829  0.00411272 -0.0134395 0.00106829  0.00518 -0.019865 0.00102097  0.00609213 -0.0272532 0.000957787  0.00685555 -0.0355428 0.000889897  0.00747836 -0.0446703 0.000822961  0.0079633 -0.0545678 0.000758529  0.00831842 -0.0651683 0.000697076  0.00854933 -0.0764053 0.00063777  0.00865972 -0.088218 0.000580668  0.00865817 -0.100544 0.000527859  0.00855136 -0.11333 0.000477076  0.00834799 -0.126523 0.000427306  0.00805283 -0.14007 0.000381112  0.0076735 -0.153925 0.000337303  0.00722027 -0.168042 0.000296891  0.00669575 -0.182383 0.000258207  0.00611258 -0.196906 0.000222445  0.00547338 -0.211579 0.000188231  0.00478721 -0.226366 0.000157714  0.0040555 -0.241242 0.0001297  0.00329447 -0.256176 0.000103951  0.00250149 -0.271146 8.2314e-05  0.00168395 -0.286132 6.20484e-05  0.000850916 -0.301113 4.50015e-05  7.15256e-07 -0.316079 3.14713e-05  -0.00086236 -0.331011 1.88351e-05  -0.00172782 -0.345907 1.01328e-05  -0.00260329 -0.360752 1.49012e-06  -0.00347114 -0.375543 -8.88109e-06  0 0 0  0.00109427 -0.00156653 0.00114179  0.0033277 -0.00481731 0.00183052  0.0058786 -0.00914872 0.0020929  0.00827199 -0.0144919 0.00211298  0.0104228 -0.0208626 0.00203031  0.0123405 -0.0282163 0.00190687  0.0140373 -0.0364873 0.00177097  0.01552 -0.0456054 0.0016349  0.0168009 -0.0555012 0.00150239  0.0178843 -0.0661011 0.00137651  0.0187799 -0.0773405 0.00125521  0.0194981 -0.089157 0.00114101  0.0200458 -0.101488 0.00103241  0.0204315 -0.114279 0.000930011  0.020674 -0.127473 0.000832319  0.0207717 -0.141022 0.000738621  0.0207441 -0.154877 0.000652254  0.0205958 -0.168995 0.000570178  0.0203416 -0.183334 0.000493288  0.0199838 -0.197855 0.000423491  0.0195413 -0.212524 0.000357389  0.0190175 -0.227309 0.00029552  0.0184259 -0.242177 0.000243008  0.0177736 -0.257105 0.000194788  0.0170648 -0.27207 0.000150502  0.0163133 -0.287047 0.000112414  0.0155282 -0.302022 7.95126e-05  0.0147114 -0.316981 5.42402e-05  0.0138748 -0.331906 3.23057e-05  0.0130212 -0.346795 1.62721e-05  0.012156 -0.36164 1.2517e-06  0.0112886 -0.376438 -1.3113e-05  0 0 0  0.00192913 -0.00308627 0.0016526  0.00558105 -0.00669855 0.00265533  0.00934565 -0.0108743 0.00306523  0.0128252 -0.0160856 0.00312328  0.0160169 -0.0223602 0.00301743  0.018917 -0.0296459 0.00284255  0.0215287 -0.0378677 0.00264239  0.0238616 -0.0469489 0.00243855  0.0259212 -0.056811 0.00224108  0.0277226 -0.0673829 0.00205046  0.0292717 -0.0785985 0.00186986  0.0305835 -0.090392 0.00169754  0.0316681 -0.102701 0.00153363  0.0325418 -0.11547 0.00138021  0.0332111 -0.128644 0.00123191  0.033695 -0.142172 0.00109488  0.034003 -0.156007 0.000964105  0.0341525 -0.170105 0.000842035  0.0341496 -0.184423 0.000726521  0.0340121 -0.198923 0.000622272  0.0337524 -0.21357 0.000523388  0.0333786 -0.228334 0.000434995  0.0329115 -0.243183 0.000353992  0.0323548 -0.258091 0.000280917  0.0317225 -0.273037 0.000217676  0.0310259 -0.287997 0.00016135  0.030273 -0.302956 0.000114799  0.0294816 -0.317901 7.56383e-05  0.0286548 -0.332814 4.52995e-05  0.027806 -0.347691 2.28882e-05  0.0269425 -0.362531 4.70877e-06  0.0260725 -0.377336 -1.26362e-05  0 0 0  0.00380442 -0.00617683 0.00219691  0.0086931 -0.00913876 0.00348586  0.0133484 -0.0131289 0.00403631  0.0178851 -0.0181732 0.00412351  0.0221003 -0.0243322 0.00399071  0.0259731 -0.031527 0.00376385  0.029486 -0.0396744 0.00350118  0.0326517 -0.0486879 0.00323325  0.0354774 -0.0584914 0.00297195  0.0379752 -0.0690073 0.00271922  0.0401603 -0.0801726 0.00248021  0.0420467 -0.0919165 0.00225013  0.043653 -0.10418 0.0020327  0.0449903 -0.116901 0.00182772  0.0460739 -0.130032 0.00163192  0.0469248 -0.143516 0.00144851  0.0475509 -0.157308 0.00127578  0.0479772 -0.171364 0.00111181  0.0482101 -0.18564 0.000961363  0.0482736 -0.200101 0.000820339  0.0481739 -0.214712 0.000690579  0.04794 -0.229436 0.000570893  0.04757 -0.24425 0.000464141  0.0470948 -0.259126 0.000368118  0.0465136 -0.274038 0.000284135  0.0458522 -0.288971 0.000211  0.045119 -0.303903 0.00014776  0.0443282 -0.318824 9.73344e-05  0.043493 -0.33372 6.02007e-05  0.0426321 -0.348585 3.26633e-05  0.0417521 -0.363419 1.10269e-05  0.040875 -0.378231 -9.53674e-06  0 0 0  -0.00386778 -0.006262 -0.001077  -0.00862727 -0.00921509 -0.00172967  -0.0132355 -0.0130571 -0.00204998  -0.0178711 -0.0178115 -0.00212395  -0.0223163 -0.0236125 -0.00206202  -0.026515 -0.0304072 -0.00193816  -0.0304556 -0.0381281 -0.00179219  -0.034148 -0.0466987 -0.00164366  -0.0376104 -0.0560515 -0.00150061  -0.0408578 -0.0661207 -0.00136453  -0.0439037 -0.0768427 -0.00123698  -0.0467622 -0.0881589 -0.00111663  -0.0494412 -0.100014 -0.0010041  -0.0519506 -0.112352 -0.000897825  -0.0543008 -0.125124 -0.000798285  -0.056499 -0.138278 -0.000705302  -0.0585489 -0.151771 -0.0006181  -0.0604651 -0.165556 -0.00053525  -0.0622523 -0.179594 -0.000461161  -0.0639133 -0.193847 -0.000391185  -0.06546 -0.208278 -0.000327826  -0.0668993 -0.222851 -0.000269592  -0.0682406 -0.23754 -0.000216663  -0.0694904 -0.252316 -0.000170648  -0.0706618 -0.26715 -0.00012958  -0.0717523 -0.282026 -9.4831e-05  -0.0727828 -0.29692 -6.55055e-05  -0.0737612 -0.311816 -4.17829e-05  -0.0746915 -0.326702 -2.49743e-05  -0.0755949 -0.341563 -1.3411e-05  -0.0764811 -0.356402 -4.64916e-06  -0.0773637 -0.371226 2.5034e-06  0 0 0  -0.0017973 -0.00305133 -0.000796616  -0.00529648 -0.00671651 -0.0013063  -0.00902626 -0.0108249 -0.00154883  -0.0126077 -0.015875 -0.00160289  -0.016013 -0.0219242 -0.00155294  -0.0192279 -0.0289415 -0.0014568  -0.0222589 -0.036866 -0.00134581  -0.0251196 -0.0456254 -0.00123167  -0.0278231 -0.0551568 -0.00112367  -0.0303804 -0.0653946 -0.00102127  -0.0328022 -0.0762763 -0.000923872  -0.0350971 -0.0877451 -0.000833631  -0.0372719 -0.0997429 -0.000749528  -0.0393324 -0.112217 -0.000669539  -0.0412848 -0.125114 -0.000595272  -0.0431321 -0.138386 -0.000524819  -0.0448802 -0.151986 -0.000460029  -0.0465338 -0.165872 -0.000398993  -0.0480959 -0.180002 -0.000343144  -0.0495751 -0.194336 -0.00029093  -0.0509663 -0.208839 -0.000242412  -0.0522864 -0.223479 -0.00020051  -0.0535345 -0.238227 -0.000160635  -0.054714 -0.25305 -0.000125587  -0.0558364 -0.267927 -9.56059e-05  -0.0569026 -0.282836 -7.06911e-05  -0.0579214 -0.297757 -4.72665e-05  -0.0588989 -0.312675 -3.016e-05  -0.0598443 -0.327573 -1.7941e-05  -0.0607607 -0.342445 -7.56979e-06  -0.0616589 -0.357282 -5.96046e-07  -0.0625491 -0.372092 7.51019e-06  0 0 0  -0.000971586 -0.00156701 -0.0005337  -0.00302152 -0.00485975 -0.000884235  -0.00549421 -0.00920443 -0.00104815  -0.00795481 -0.0144937 -0.00108039  -0.0102893 -0.0207501 -0.00104201  -0.0124977 -0.0279443 -0.000975072  -0.0145965 -0.0360232 -0.000898898  -0.0165999 -0.0449295 -0.000821114  -0.0185195 -0.0545979 -0.000747442  -0.0203637 -0.0649668 -0.000678062  -0.0221382 -0.0759756 -0.000612736  -0.0238481 -0.0875652 -0.000552714  -0.025496 -0.0996777 -0.000496328  -0.0270852 -0.112259 -0.000443161  -0.028616 -0.125259 -0.000392914  -0.0300918 -0.138625 -0.000346541  -0.0315144 -0.152313 -0.00030303  -0.032886 -0.166279 -0.000262201  -0.0342035 -0.180482 -0.000225425  -0.0354729 -0.194883 -0.000191867  -0.0366969 -0.209444 -0.000158131  -0.0378723 -0.224138 -0.000130355  -0.0390048 -0.238926 -0.000105023  -0.0400953 -0.253791 -8.16584e-05  -0.0411501 -0.268702 -6.21676e-05  -0.0421686 -0.283639 -4.54783e-05  -0.0431552 -0.298583 -2.99811e-05  -0.0441139 -0.313517 -1.93715e-05  -0.0450511 -0.328429 -9.95398e-06  -0.0459635 -0.343308 -3.93391e-06  -0.0468631 -0.35815 4.76837e-07  -0.047755 -0.372949 7.7486e-06  0 0 0  -0.000418305 -0.00091517 -0.000269115  -0.00134963 -0.00390163 -0.000448704  -0.00253531 -0.00827274 -0.000530839  -0.00377667 -0.0137095 -0.000547469  -0.00498688 -0.0201109 -0.000527084  -0.00616151 -0.0274295 -0.000490248  -0.00730777 -0.0356205 -0.000449777  -0.00843805 -0.0446291 -0.000409484  -0.00955915 -0.0543965 -0.000372529  -0.0106761 -0.0648624 -0.000335515  -0.0117866 -0.0759652 -0.000302851  -0.0128951 -0.0876444 -0.000271142  -0.0140017 -0.0998415 -0.000242174  -0.0151004 -0.112506 -0.000216305  -0.0161964 -0.125581 -0.00019151  -0.0172856 -0.139019 -0.000167549  -0.0183678 -0.152774 -0.000146091  -0.0194371 -0.1668 -0.000125945  -0.0204985 -0.181057 -0.000107408  -0.0215425 -0.195506 -9.08375e-05  -0.022577 -0.210114 -7.44462e-05  -0.0235958 -0.224845 -6.181e-05  -0.0245993 -0.23967 -4.90546e-05  -0.0255868 -0.254562 -3.79682e-05  -0.0265615 -0.269499 -2.88486e-05  -0.0275187 -0.284456 -1.97291e-05  -0.0284612 -0.299415 -1.29938e-05  -0.029386 -0.314364 -7.7486e-06  -0.0303016 -0.329283 -3.93391e-06  -0.0312037 -0.344172 -4.17233e-07  -0.0320947 -0.359015 3.03984e-06  -0.0329783 -0.373809 4.76837e-06  0 0 0  3.29167e-05 -0.00076288 2.5034e-06  9.47416e-05 -0.0036734 8.34465e-07  0.000139058 -0.00805709 -3.45707e-06  0.000139236 -0.0135565 -5.48363e-06  8.05259e-05 -0.0200273 -6.02007e-06  -3.92199e-05 -0.0274126 -4.17233e-06  -0.000223637 -0.035667 -1.60933e-06  -0.000474572 -0.0447384 5.36442e-07  -0.00079 -0.0545698 3.57628e-06  -0.00116885 -0.065097 6.61612e-06  -0.00161052 -0.07626 7.80821e-06  -0.00210893 -0.0880003 8.28505e-06  -0.0026623 -0.100257 1.12057e-05  -0.00326574 -0.112974 1.13249e-05  -0.00391459 -0.126103 1.13249e-05  -0.00460815 -0.139589 1.15037e-05  -0.00533772 -0.153387 1.12057e-05  -0.00610089 -0.167454 1.13249e-05  -0.00689268 -0.181748 1.07288e-05  -0.00770926 -0.196232 1.15037e-05  -0.00854516 -0.210866 9.47714e-06  -0.00939751 -0.225623 7.92742e-06  -0.0102656 -0.240469 8.52346e-06  -0.0111403 -0.255381 8.46386e-06  -0.0120225 -0.270329 5.84126e-06  -0.0129097 -0.285299 5.60284e-06  -0.0138001 -0.30027 5.00679e-06  -0.0146906 -0.315224 3.09944e-06  -0.0155773 -0.330151 2.92063e-06  -0.0164628 -0.34504 2.92063e-06  -0.0173452 -0.359885 2.20537e-06  -0.0182214 -0.374672 7.15256e-07  0 0 0  0.000486761 -0.0010286 0.000271261  0.0015372 -0.00409877 0.000445306  0.00280607 -0.0085364 0.000519514  0.00403851 -0.014036 0.000531018  0.00512815 -0.0205033 0.000510216  0.00605613 -0.0278957 0.000479221  0.00682968 -0.0361667 0.000445426  0.00745869 -0.0452625 0.000411332  0.00794673 -0.0551206 0.000378907  0.00830448 -0.0656789 0.000347674  0.00853574 -0.076874 0.000318706  0.00864792 -0.0886443 0.000290751  0.00864792 -0.100931 0.000263453  0.00854385 -0.113679 0.00023824  0.00833964 -0.126834 0.000213623  0.00804591 -0.140346 0.000190437  0.00766873 -0.154168 0.000169277  0.00721788 -0.168255 0.000148594  0.00669622 -0.182568 0.000129342  0.00611281 -0.197065 0.00011152  0.00547266 -0.211713 9.43542e-05  0.00479054 -0.22648 7.82609e-05  0.00406265 -0.241336 6.4075e-05  0.00329995 -0.256251 5.32866e-05  0.00250649 -0.271206 4.00543e-05  0.00168943 -0.286178 3.15905e-05  0.000855684 -0.301149 2.42591e-05  4.52995e-06 -0.316104 1.45435e-05  -0.000854969 -0.33103 1.03712e-05  -0.00172615 -0.345917 4.82798e-06  -0.00259686 -0.360764 1.01328e-06  -0.00346375 -0.375557 -2.44379e-06  0 0 0  0.00104152 -0.00178987 0.000526905  0.00320345 -0.00523871 0.000868082  0.0057357 -0.00970608 0.00102252  0.0081616 -0.0151235 0.0010516  0.0103547 -0.0215197 0.00101632  0.0123051 -0.028868 0.000955939  0.0140223 -0.0371155 0.000887334  0.0155176 -0.0461985 0.000818789  0.0168045 -0.056053 0.000751913  0.0178922 -0.0666112 0.00068754  0.0187893 -0.0778088 0.000627577  0.0195074 -0.0895824 0.000570416  0.0200561 -0.101875 0.000516117  0.0204448 -0.114626 0.000464797  0.0206854 -0.127785 0.000415444  0.0207851 -0.141299 0.00036943  0.0207586 -0.155121 0.000326335  0.0206075 -0.16921 0.000284255  0.020354 -0.183521 0.000246227  0.0199983 -0.198015 0.000212431  0.019556 -0.212659 0.000179052  0.0190313 -0.227422 0.000148416  0.0184379 -0.242271 0.000120997  0.0177848 -0.25718 9.64403e-05  0.0170794 -0.272129 7.59959e-05  0.0163262 -0.287093 5.73397e-05  0.0155399 -0.302057 4.06504e-05  0.0147238 -0.317007 2.83718e-05  0.0138829 -0.331924 1.75834e-05  0.0130317 -0.346808 1.00136e-05  0.0121651 -0.361649 1.19209e-06  0.011301 -0.376451 -5.84126e-06  0 0 0  0.0018684 -0.00337148 0.000773013  0.00544304 -0.00722229 0.00126755  0.00918317 -0.0115167 0.00150067  0.0126957 -0.0167705 0.00155276  0.0159353 -0.023046 0.00150937  0.0188735 -0.0303118 0.00142372  0.0215121 -0.0385006 0.00132376  0.0238603 -0.047542 0.00122094  0.0259298 -0.0573612 0.00112098  0.0277346 -0.0678911 0.00102574  0.0292875 -0.0790627 0.00093472  0.0305994 -0.0908147 0.000848055  0.0316838 -0.103084 0.000767052  0.0325568 -0.115816 0.000690103  0.0332279 -0.128953 0.000616193  0.0337131 -0.142447 0.000547171  0.0340211 -0.15625 0.000481904  0.0341692 -0.170317 0.00042069  0.0341678 -0.184606 0.000363827  0.0340283 -0.19908 0.000311017  0.0337684 -0.213704 0.00026238  0.0333974 -0.228445 0.000218153  0.0329266 -0.243275 0.000177026  0.0323689 -0.258166 0.000139952  0.031734 -0.273094 0.000108957  0.0310373 -0.288041 8.15988e-05  0.030288 -0.302988 5.82337e-05  0.0294929 -0.317922 3.83854e-05  0.0286667 -0.33283 2.37226e-05  0.0278194 -0.347703 1.26958e-05  0.0269544 -0.362541 3.8147e-06  0.0260868 -0.377346 -4.94719e-06  0 0 0  0.00383851 -0.00659043 0.00102854  0.00863785 -0.00977683 0.00166529  0.0132103 -0.0138679 0.00197089  0.0177441 -0.0189179 0.00204486  0.0219936 -0.0250514 0.00199157  0.0258998 -0.0322086 0.00188255  0.0294405 -0.0403107 0.00175297  0.0326221 -0.0492799 0.00161886  0.0354583 -0.0590369 0.00148642  0.0379627 -0.0695096 0.00136071  0.0401512 -0.0806293 0.00123978  0.0420412 -0.0923325 0.00112623  0.0436482 -0.104555 0.00101888  0.0449855 -0.11724 0.000914931  0.046072 -0.130334 0.000817955  0.0469196 -0.143783 0.00072515  0.0475504 -0.157545 0.000638425  0.0479753 -0.17157 0.000558019  0.0482175 -0.185819 0.000480413  0.0482759 -0.200254 0.000412107  0.0481822 -0.214839 0.000346899  0.0479462 -0.229543 0.000286877  0.0475779 -0.244337 0.000234067  0.0471001 -0.259193 0.000185728  0.0465233 -0.274092 0.000144482  0.045861 -0.289012 0.000108063  0.0451281 -0.303932 7.58171e-05  0.0443389 -0.318841 5.03659e-05  0.0435059 -0.333732 3.1054e-05  0.0426443 -0.348595 1.81198e-05  0.0417693 -0.363426 7.98702e-06  0.0408907 -0.378238 -3.8743e-06  0 0 0  -0.00389506 -0.00639783 5.96046e-08  -0.00863713 -0.00942375 -2.38419e-07  -0.0132168 -0.0133113 0  -0.0178438 -0.0180756 1.01328e-06  -0.0222971 -0.0238694 -5.96046e-08  -0.0265087 -0.0306487 3.57628e-07  -0.0304605 -0.0383506 1.19209e-07  -0.0341611 -0.0469046 -1.78814e-07  -0.0376278 -0.0562407 7.15256e-07  -0.0408772 -0.0662923 -4.17233e-07  -0.0439239 -0.0769989 8.34465e-07  -0.0467806 -0.0883007 -2.38419e-07  -0.0494608 -0.100142 -4.76837e-07  -0.0519683 -0.112465 -2.38419e-07  -0.0543193 -0.125225 5.36442e-07  -0.0565139 -0.138368 1.96695e-06  -0.0585635 -0.151848 5.96046e-08  -0.0604792 -0.165623 5.96046e-08  -0.0622635 -0.179654 -7.15256e-07  -0.063925 -0.193898 -1.78814e-07  -0.0654666 -0.208319 2.98023e-07  -0.0669076 -0.222886 4.76837e-07  -0.0682492 -0.237568 -1.19209e-06  -0.0694966 -0.25234 8.34465e-07  -0.0706632 -0.26717 1.07288e-06  -0.0717547 -0.282039 -1.60933e-06  -0.0727844 -0.296929 2.38419e-07  -0.0737615 -0.311823 6.55651e-07  -0.0746951 -0.326706 5.96046e-07  -0.075598 -0.341568 -1.78814e-07  -0.076484 -0.356404 -4.17233e-07  -0.0773695 -0.371227 1.84774e-06  0 0 0  -0.00178543 -0.00313912 2.98023e-07  -0.00527079 -0.00688896 2.38419e-07  -0.00899333 -0.0110434 -3.57628e-07  -0.0125811 -0.0161114 1.19209e-07  -0.0160021 -0.0221621 -2.98023e-07  -0.0192327 -0.0291724 -6.55651e-07  -0.0222759 -0.037083 3.57628e-07  -0.0251435 -0.0458284 1.19209e-07  -0.02785 -0.055344 -1.19209e-07  -0.0304092 -0.0655651 -2.38419e-07  -0.0328319 -0.0764319 2.38419e-07  -0.0351268 -0.0878866 -4.76837e-07  -0.0372999 -0.09987 1.78814e-07  -0.0393581 -0.112331 -5.96046e-08  -0.0413088 -0.125217 5.96046e-08  -0.0431542 -0.138476 0  -0.0449014 -0.152066 5.36442e-07  -0.0465524 -0.165941 -3.57628e-07  -0.0481143 -0.180061 0  -0.0495901 -0.194387 5.96046e-07  -0.0509813 -0.208883 3.57628e-07  -0.0522997 -0.223515 -4.76837e-07  -0.0535448 -0.238255 -6.55651e-07  -0.0547242 -0.253073 5.96046e-07  -0.0558405 -0.267944 6.55651e-07  -0.05691 -0.282849 3.57628e-07  -0.0579264 -0.297768 -7.15256e-07  -0.0589046 -0.312682 1.72853e-06  -0.0598483 -0.327577 4.17233e-07  -0.0607643 -0.342447 0  -0.0616622 -0.357285 1.19209e-07  -0.0625546 -0.372095 -1.78814e-07  0 0 0  -0.000960886 -0.00163651 -5.96046e-08  -0.00299543 -0.00499684 0  -0.00546414 -0.00939088 -2.98023e-07  -0.00793475 -0.0147061 6.55651e-07  -0.0102844 -0.0209719 -4.17233e-07  -0.0125069 -0.0281646 -5.96046e-08  -0.0146149 -0.0362358 4.17233e-07  -0.0166256 -0.0451283 -5.96046e-08  -0.0185485 -0.0547831 5.96046e-08  -0.0203943 -0.0651378 -3.57628e-07  -0.0221688 -0.0761321 1.78814e-07  -0.0238774 -0.0877055 0  -0.0255228 -0.0998059 0  -0.0271108 -0.112374 -2.98023e-07  -0.0286398 -0.125359 3.57628e-07  -0.0301147 -0.138715 -2.38419e-07  -0.0315344 -0.152393 3.57628e-07  -0.0329032 -0.166349 2.98023e-07  -0.03422 -0.180541 -5.96046e-08  -0.0354898 -0.194933 1.07288e-06  -0.0367081 -0.209488 1.78814e-07  -0.0378826 -0.224173 3.57628e-07  -0.0390141 -0.238957 5.96046e-08  -0.0401058 -0.253814 -5.96046e-08  -0.0411577 -0.268722 3.57628e-07  -0.0421743 -0.283655 4.17233e-07  -0.0431597 -0.298593 1.13249e-06  -0.0441203 -0.313525 5.96046e-08  -0.0450549 -0.328434 2.98023e-07  -0.0459678 -0.343312 -1.19209e-07  -0.0468671 -0.358154 1.78814e-07  -0.0477569 -0.372954 -7.7486e-07  0 0 0  -0.00041347 -0.000971109 -5.36442e-07  -0.00133614 -0.00401631 1.78814e-07  -0.00252125 -0.0084354 -5.36442e-07  -0.00376847 -0.0139047 0  -0.00499028 -0.0203218 -1.19209e-07  -0.00617272 -0.0276431 2.98023e-07  -0.00732416 -0.0358285 1.78814e-07  -0.00845987 -0.044827 1.78814e-07  -0.00958288 -0.0545816 2.38419e-07  -0.0106994 -0.065033 -4.17233e-07  -0.0118109 -0.0761205 5.36442e-07  -0.0129174 -0.0877865 1.78814e-07  -0.014021 -0.0999696 -2.98023e-07  -0.0151207 -0.112621 -1.78814e-07  -0.0162154 -0.125684 5.96046e-07  -0.0173018 -0.139111 -2.98023e-07  -0.0183806 -0.152855 -6.55651e-07  -0.0194519 -0.166871 -1.78814e-07  -0.020509 -0.181119 5.36442e-07  -0.0215549 -0.195559 5.96046e-08  -0.0225878 -0.210158 -4.76837e-07  -0.0236061 -0.224882 4.17233e-07  -0.0246091 -0.2397 -1.19209e-07  -0.025594 -0.254588 3.57628e-07  -0.0265644 -0.269519 3.57628e-07  -0.0275214 -0.284471 2.98023e-07  -0.0284624 -0.299427 9.53674e-07  -0.0293882 -0.314372 1.19209e-07  -0.0303028 -0.329291 -8.34465e-07  -0.0312071 -0.344176 -2.38419e-07  -0.0320969 -0.359018 7.7486e-07  -0.0329816 -0.373812 1.2517e-06  0 0 0  3.22759e-05 -0.000812799 1.78814e-07  8.9854e-05 -0.0037789 0  0.000131994 -0.00821015 -3.57628e-07  0.000130117 -0.0137432 3.57628e-07  7.02739e-05 -0.0202335 -3.57628e-07  -5.10216e-05 -0.0276228 -3.57628e-07  -0.000236869 -0.0358729 5.96046e-08  -0.000489593 -0.0449357 -1.78814e-07  -0.000803828 -0.0547536 -2.38419e-07  -0.00118315 -0.0652665 -5.36442e-07  -0.00162339 -0.0764164 0  -0.00212252 -0.0881421 8.9407e-07  -0.00267422 -0.100386 8.34465e-07  -0.00327766 -0.11309 0  -0.00392628 -0.126206 -2.38419e-07  -0.00461793 -0.139681 4.17233e-07  -0.00534725 -0.153469 2.38419e-07  -0.00610685 -0.167526 -2.98023e-07  -0.00689745 -0.18181 5.36442e-07  -0.00771356 -0.196285 1.19209e-07  -0.00854993 -0.210911 5.36442e-07  -0.00940275 -0.225661 -1.07288e-06  -0.010267 -0.240502 2.98023e-07  -0.0111437 -0.255404 -5.96046e-08  -0.012027 -0.270351 1.19209e-07  -0.0129135 -0.285315 8.34465e-07  -0.0138021 -0.30028 7.15256e-07  -0.0146906 -0.315231 7.15256e-07  -0.0155766 -0.330156 -4.76837e-07  -0.016463 -0.345045 1.49012e-06  -0.0173459 -0.359888 1.07288e-06  -0.0182252 -0.37468 -2.98023e-07  0 0 0  0.000478938 -0.00108236 -1.78814e-07  0.00151598 -0.00421047 -7.7486e-07  0.00277898 -0.00869381 1.78814e-07  0.00401324 -0.0142261 1.19209e-07  0.00510794 -0.0207101 0  0.00604135 -0.0281054 1.19209e-07  0.00681967 -0.036373 3.57628e-07  0.00744891 -0.0454578 3.57628e-07  0.00794065 -0.0553041 1.78814e-07  0.00829673 -0.0658492 2.38419e-07  0.00853002 -0.0770301 4.17233e-07  0.00864375 -0.0887867 -1.78814e-07  0.0086441 -0.10106 -2.98023e-07  0.00853884 -0.113795 -5.96046e-07  0.00833678 -0.126939 2.38419e-07  0.00804234 -0.140439 4.17233e-07  0.00766611 -0.15425 1.78814e-07  0.00721502 -0.168328 5.96046e-08  0.00669193 -0.18263 -1.07288e-06  0.00610924 -0.197119 1.19209e-06  0.00547647 -0.211759 1.43051e-06  0.00478959 -0.226517 -6.55651e-07  0.00406122 -0.241366 4.76837e-07  0.003299 -0.256278 1.01328e-06  0.00250721 -0.271226 3.57628e-07  0.00169063 -0.286194 1.2517e-06  0.000856638 -0.301161 -5.96046e-08  6.67572e-06 -0.316113 2.98023e-07  -0.000854969 -0.331036 -5.96046e-07  -0.00172424 -0.345922 3.57628e-07  -0.00259495 -0.360768 -1.78814e-07  -0.00346398 -0.375561 -1.19209e-07  0 0 0  0.00102742 -0.0018568 1.78814e-07  0.00316846 -0.00536907 -2.38419e-07  0.0056918 -0.0098834 -4.76837e-07  0.00812441 -0.0153268 4.17233e-07  0.0103284 -0.0217342 0  0.0122893 -0.0290824 4.76837e-07  0.0140128 -0.0373227 2.98023e-07  0.0155143 -0.0463951 -5.96046e-08  0.0168035 -0.0562367 0  0.0178918 -0.0667811 -5.96046e-07  0.0187905 -0.0779644 5.96046e-08  0.0195096 -0.0897247 -1.78814e-07  0.0200583 -0.102003 3.57628e-07  0.0204468 -0.114743 7.15256e-07  0.0206871 -0.127888 -1.13249e-06  0.0207891 -0.141391 1.01328e-06  0.0207598 -0.155205 4.17233e-07  0.0206134 -0.169281 0  0.0203567 -0.183582 -2.98023e-07  0.0200026 -0.198069 4.76837e-07  0.0195591 -0.212705 -5.96046e-08  0.0190375 -0.22746 1.78814e-07  0.0184441 -0.242303 4.76837e-07  0.0177901 -0.257207 4.17233e-07  0.0170801 -0.272149 -6.55651e-07  0.0163317 -0.287107 6.55651e-07  0.015542 -0.302068 5.96046e-07  0.0147269 -0.317014 -4.76837e-07  0.0138874 -0.331931 8.34465e-07  0.0130343 -0.346812 4.76837e-07  0.0121696 -0.361654 5.36442e-07  0.0113039 -0.376454 8.9407e-07  0 0 0  0.00185452 -0.00345683 5.96046e-08  0.00540653 -0.00738412 5.96046e-08  0.00913456 -0.0117205 -4.17233e-07  0.0126507 -0.0169921 2.98023e-07  0.0159024 -0.0232708 -3.57628e-07  0.0188531 -0.030531 -5.36442e-07  0.0215005 -0.0387106 1.19209e-07  0.023855 -0.0477383 0  0.0259283 -0.0575445 0  0.0277359 -0.0680598 2.98023e-07  0.0292889 -0.0792171 2.98023e-07  0.0306019 -0.0909556 1.78814e-07  0.0316871 -0.103212 8.34465e-07  0.0325598 -0.11593 -7.7486e-07  0.033232 -0.129056 -1.07288e-06  0.0337157 -0.142539 -7.7486e-07  0.0340238 -0.156331 3.57628e-07  0.0341716 -0.170387 1.78814e-07  0.0341713 -0.184668 -2.38419e-07  0.0340326 -0.199133 7.15256e-07  0.033772 -0.213749 -7.15256e-07  0.0334017 -0.228483 3.57628e-07  0.0329299 -0.243305 1.49012e-06  0.0323746 -0.25819 5.96046e-07  0.0317397 -0.273114 -5.96046e-08  0.0310426 -0.288056 -1.78814e-07  0.0302908 -0.303 6.55651e-07  0.0294981 -0.317931 4.76837e-07  0.0286713 -0.332836 1.2517e-06  0.0278249 -0.347708 2.38419e-07  0.026958 -0.362545 -5.96046e-08  0.0260892 -0.377352 1.07288e-06  0 0 0  0.0038569 -0.00671905 0  0.00863069 -0.00997537 1.78814e-07  0.0131702 -0.0141037 4.76837e-07  0.0176966 -0.0191613 0  0.0219526 -0.0252891 2.38419e-07  0.0258687 -0.0324325 -2.98023e-07  0.0294203 -0.0405221 5.96046e-08  0.0326058 -0.0494757 -5.96046e-08  0.0354465 -0.0592186 1.07288e-06  0.0379549 -0.0696765 2.38419e-07  0.0401442 -0.0807815 0  0.0420355 -0.0924711 2.98023e-07  0.0436422 -0.104681 5.96046e-07  0.0449812 -0.117351 5.96046e-07  0.0460687 -0.130434 -5.36442e-07  0.0469201 -0.143874 5.36442e-07  0.0475497 -0.157623 -1.3113e-06  0.0479772 -0.171638 -7.15256e-07  0.0482137 -0.185879 4.76837e-07  0.0482781 -0.200306 -1.78814e-07  0.0481801 -0.214881 8.9407e-07  0.0479457 -0.229577 -4.17233e-07  0.0475791 -0.244367 -6.55651e-07  0.0471017 -0.259215 2.38419e-07  0.0465231 -0.27411 7.7486e-07  0.0458629 -0.289024 -1.78814e-07  0.0451307 -0.303942 1.54972e-06  0.0443373 -0.31885 -5.96046e-08  0.0435081 -0.333738 1.2517e-06  0.0426466 -0.348599 -6.55651e-07  0.0417719 -0.363429 5.96046e-07  0.0408969 -0.378246 -1.13249e-06  0 0 0  -0.0038668 -0.00626212 0.00107649  -0.00862731 -0.00921502 0.0017305  -0.0132367 -0.0130579 0.00204983  -0.0178713 -0.017812 0.00212473  -0.0223159 -0.023613 0.00206169  -0.0265151 -0.0304081 0.00193784  -0.0304548 -0.0381279 0.00179273  -0.0341484 -0.0466985 0.00164497  -0.0376098 -0.0560522 0.00150099  -0.0408579 -0.0661203 0.00136471  -0.043903 -0.0768418 0.0012368  -0.04676 -0.0881602 0.00111696  -0.049441 -0.100013 0.00100422  -0.0519487 -0.112353 0.000896662  -0.0542998 -0.125125 0.000798404  -0.0564981 -0.138276 0.000705928  -0.0585494 -0.151771 0.000617921  -0.0604656 -0.165557 0.000536799  -0.0622494 -0.179595 0.000461578  -0.0639129 -0.193847 0.00039199  -0.0654616 -0.208277 0.000328362  -0.0668983 -0.222853 0.000269681  -0.0682411 -0.237542 0.000218034  -0.0694907 -0.252316 0.000170946  -0.0706587 -0.267152 0.000129402  -0.0717525 -0.282026 9.62317e-05  -0.0727844 -0.296921 6.6638e-05  -0.0737603 -0.311817 4.32432e-05  -0.0746942 -0.326703 2.52426e-05  -0.0755956 -0.341567 1.43647e-05  -0.0764816 -0.356402 5.93066e-06  -0.0773644 -0.371223 -2.11596e-06  0 0 0  -0.00179749 -0.00305056 0.000797063  -0.00529692 -0.00671643 0.00130624  -0.00902557 -0.0108253 0.00154871  -0.0126079 -0.0158745 0.00160301  -0.0160133 -0.021924 0.00155321  -0.019228 -0.0289428 0.00145692  -0.0222588 -0.0368654 0.0013454  -0.0251204 -0.0456253 0.00123286  -0.0278229 -0.0551562 0.00112364  -0.0303801 -0.0653947 0.0010207  -0.0328023 -0.076277 0.000924021  -0.0350975 -0.0877448 0.000834018  -0.0372715 -0.0997435 0.000748605  -0.0393332 -0.112217 0.000670105  -0.0412848 -0.125114 0.000595808  -0.0431318 -0.138387 0.000525743  -0.0448809 -0.151987 0.000460386  -0.0465343 -0.165872 0.000399232  -0.0480976 -0.180002 0.000343025  -0.0495737 -0.194336 0.000290722  -0.0509667 -0.208841 0.000242889  -0.0522869 -0.22348 0.000199586  -0.053535 -0.238226 0.000162244  -0.0547147 -0.253049 0.000127465  -0.0558362 -0.267926 9.60529e-05  -0.0569026 -0.282837 6.97374e-05  -0.0579212 -0.297758 4.93824e-05  -0.0588982 -0.312675 2.93553e-05  -0.0598438 -0.327573 1.84774e-05  -0.0607598 -0.342445 8.91089e-06  -0.0616593 -0.357282 4.47035e-07  -0.0625508 -0.372092 -5.84126e-06  0 0 0  -0.000970468 -0.00156744 0.000533849  -0.00302199 -0.00485949 0.000884145  -0.00549442 -0.00920486 0.00104791  -0.00795388 -0.0144934 0.00108021  -0.0102896 -0.0207499 0.00104249  -0.0124965 -0.0279429 0.000975311  -0.0145952 -0.036024 0.000897914  -0.0166 -0.0449282 0.000821352  -0.0185193 -0.0545979 0.000748128  -0.0203637 -0.0649673 0.000678241  -0.0221393 -0.0759757 0.000613242  -0.023847 -0.0875652 0.000552237  -0.0254958 -0.0996767 0.000496238  -0.0270842 -0.112259 0.000443161  -0.028616 -0.125259 0.000393599  -0.0300924 -0.138625 0.00034672  -0.0315156 -0.152313 0.000302941  -0.0328856 -0.166279 0.000262141  -0.034204 -0.180481 0.000226021  -0.0354745 -0.194881 0.000190556  -0.036696 -0.209445 0.000158668  -0.0378704 -0.224136 0.000131071  -0.0390043 -0.238927 0.000105798  -0.0400956 -0.253791 8.27014e-05  -0.0411506 -0.268703 6.25551e-05  -0.0421698 -0.283639 4.57466e-05  -0.0431569 -0.298583 2.98619e-05  -0.0441153 -0.313516 1.96695e-05  -0.0450518 -0.328429 1.22488e-05  -0.0459638 -0.343308 4.79817e-06  -0.0468657 -0.358148 -1.78814e-07  -0.0477579 -0.372951 -6.70552e-06  0 0 0  -0.000419334 -0.000915617 0.000269413  -0.00134943 -0.0039016 0.00044775  -0.00253525 -0.00827226 0.000531912  -0.00377616 -0.0137101 0.000547498  -0.00498801 -0.0201105 0.000526518  -0.0061605 -0.0274296 0.000491053  -0.00730747 -0.0356202 0.000450164  -0.00843823 -0.04463 0.000410348  -0.0095607 -0.0543971 0.000371426  -0.0106754 -0.0648623 0.00033626  -0.0117862 -0.0759655 0.000302762  -0.0128955 -0.087644 0.000272125  -0.0140004 -0.099842 0.000242352  -0.015101 -0.112506 0.000216484  -0.0161966 -0.125581 0.000191808  -0.0172851 -0.139019 0.000167459  -0.0183661 -0.152774 0.000146657  -0.0194364 -0.166801 0.000126004  -0.0204947 -0.181057 0.000108182  -0.021543 -0.195508 9.03606e-05  -0.0225761 -0.210114 7.58171e-05  -0.0235946 -0.224846 6.16014e-05  -0.0246005 -0.239671 4.8846e-05  -0.0255868 -0.254563 3.93093e-05  -0.0265598 -0.269498 2.82526e-05  -0.0275192 -0.284456 2.0057e-05  -0.0284598 -0.299416 1.41561e-05  -0.0293863 -0.314364 9.50694e-06  -0.0303025 -0.329284 4.38094e-06  -0.0312018 -0.344171 8.34465e-07  -0.0320961 -0.359014 -7.7486e-07  -0.0329804 -0.373807 -5.30481e-06  0 0 0  3.32445e-05 -0.000763178 -2.41399e-06  9.47416e-05 -0.00367334 -5.36442e-07  0.000138968 -0.00805706 3.33786e-06  0.000138521 -0.0135565 5.63264e-06  8.14199e-05 -0.0200274 6.34789e-06  -3.91006e-05 -0.027413 4.52995e-06  -0.000223756 -0.0356668 1.93715e-06  -0.000473559 -0.0447386 -1.51992e-06  -0.000789881 -0.0545692 -3.30806e-06  -0.0011704 -0.0650971 -6.85453e-06  -0.00161004 -0.0762606 -8.52346e-06  -0.00210845 -0.0879998 -9.17912e-06  -0.00266182 -0.100257 -9.80496e-06  -0.0032649 -0.112975 -1.06394e-05  -0.00391555 -0.126102 -1.15931e-05  -0.00460792 -0.139589 -1.11461e-05  -0.00533891 -0.153388 -1.04606e-05  -0.00610161 -0.167454 -1.01626e-05  -0.00689363 -0.181749 -1.09375e-05  -0.00770974 -0.196231 -1.03414e-05  -0.00854349 -0.210867 -9.50694e-06  -0.00939775 -0.225622 -8.16584e-06  -0.0102632 -0.240469 -9.29832e-06  -0.0111403 -0.255381 -6.4373e-06  -0.0120251 -0.270331 -5.57303e-06  -0.0129104 -0.2853 -5.42402e-06  -0.0137999 -0.300269 -3.42727e-06  -0.0146906 -0.315223 -3.57628e-06  -0.0155792 -0.330149 -1.69873e-06  -0.0164626 -0.34504 -1.2517e-06  -0.0173461 -0.359885 -1.49012e-07  -0.018223 -0.374673 1.43051e-06  0 0 0  0.000486225 -0.0010277 -0.000271291  0.00153708 -0.00409979 -0.000445127  0.00280628 -0.00853634 -0.000520527  0.00403839 -0.0140356 -0.000530273  0.00512791 -0.0205033 -0.000510156  0.00605571 -0.0278963 -0.000478953  0.00682902 -0.0361672 -0.000445008  0.00745738 -0.0452626 -0.000411123  0.00794685 -0.0551209 -0.000378758  0.00830364 -0.0656786 -0.000347942  0.00853658 -0.0768735 -0.000318885  0.00864899 -0.088645 -0.000290006  0.00864685 -0.100932 -0.000263512  0.00854301 -0.113679 -0.000237852  0.00834143 -0.126834 -0.000213236  0.00804734 -0.140347 -0.000190318  0.00766802 -0.154169 -0.000168115  0.00721645 -0.168257 -0.000148743  0.00669384 -0.182568 -0.000128806  0.00611162 -0.197065 -0.000111043  0.00547671 -0.211713 -9.35793e-05  0.00479007 -0.22648 -7.7337e-05  0.0040617 -0.241334 -6.49095e-05  0.00329804 -0.256252 -5.26905e-05  0.00250745 -0.271206 -3.97563e-05  0.00169063 -0.286178 -3.0458e-05  0.000854731 -0.301149 -2.25008e-05  3.8147e-06 -0.316104 -1.5676e-05  -0.000858307 -0.33103 -9.11951e-06  -0.00172353 -0.345918 -5.24521e-06  -0.00259829 -0.360763 9.53674e-07  -0.00346422 -0.375555 5.33462e-06  0 0 0  0.00104222 -0.00179046 -0.000527143  0.00320321 -0.00523818 -0.000867993  0.00573516 -0.00970715 -0.00102267  0.0081628 -0.0151235 -0.00105086  0.0103551 -0.0215206 -0.00101629  0.0123053 -0.0288684 -0.000955999  0.0140218 -0.0371145 -0.000887126  0.0155182 -0.0461996 -0.000818431  0.0168047 -0.0560524 -0.000750929  0.0178912 -0.0666115 -0.000688434  0.0187889 -0.0778089 -0.000627816  0.019506 -0.0895821 -0.000569612  0.0200567 -0.101875 -0.000516325  0.0204462 -0.114626 -0.000464529  0.0206854 -0.127784 -0.000414044  0.0207868 -0.1413 -0.000369757  0.0207582 -0.155123 -0.000325918  0.0206094 -0.16921 -0.000283957  0.0203531 -0.183521 -0.000246257  0.0199988 -0.198015 -0.000211984  0.0195558 -0.21266 -0.000177413  0.019032 -0.227421 -0.000148416  0.0184395 -0.24227 -0.000121951  0.0177841 -0.25718 -9.59039e-05  0.0170774 -0.272129 -7.46846e-05  0.0163283 -0.287092 -5.67138e-05  0.0155377 -0.302056 -3.99351e-05  0.0147221 -0.317006 -2.61962e-05  0.0138848 -0.331924 -1.62423e-05  0.0130301 -0.346808 -7.39098e-06  0.0121641 -0.361648 5.96046e-08  0.0112967 -0.376448 7.95722e-06  0 0 0  0.00186823 -0.00337213 -0.000773191  0.00544339 -0.00722277 -0.00126764  0.00918332 -0.011516 -0.00150055  0.0126961 -0.0167708 -0.00155324  0.0159343 -0.0230463 -0.00150892  0.0188736 -0.0303119 -0.00142351  0.0215115 -0.0385019 -0.00132379  0.0238596 -0.0475407 -0.00122094  0.0259297 -0.0573615 -0.0011217  0.0277349 -0.0678911 -0.00102586  0.029287 -0.0790634 -0.00093478  0.0305996 -0.0908142 -0.000848144  0.0316857 -0.103084 -0.000767142  0.0325577 -0.115815 -0.000689685  0.0332291 -0.128952 -0.000615269  0.033711 -0.142447 -0.000547022  0.0340199 -0.156249 -0.000481963  0.0341692 -0.170317 -0.000419825  0.034168 -0.184606 -0.000364423  0.0340307 -0.199081 -0.000311345  0.0337689 -0.213706 -0.000261039  0.0333974 -0.228445 -0.000217646  0.0329261 -0.243275 -0.000176549  0.0323682 -0.258166 -0.000139952  0.0317352 -0.273094 -0.000107437  0.031039 -0.288042 -8.03471e-05  0.0302882 -0.302988 -5.80847e-05  0.029495 -0.317923 -3.80874e-05  0.0286653 -0.332831 -2.2769e-05  0.0278194 -0.347703 -1.18911e-05  0.0269535 -0.36254 -2.563e-06  0.0260868 -0.37735 7.42078e-06  0 0 0  0.00383875 -0.00659084 -0.00102782  0.00863773 -0.00977647 -0.00166512  0.01321 -0.0138677 -0.0019713  0.0177441 -0.018918 -0.00204444  0.0219939 -0.0250519 -0.00199142  0.0258995 -0.0322078 -0.00188264  0.0294414 -0.0403116 -0.00175297  0.0326229 -0.0492793 -0.00161788  0.0354582 -0.0590372 -0.00148749  0.037962 -0.06951 -0.00136122  0.0401504 -0.0806289 -0.00123921  0.0420431 -0.0923325 -0.00112626  0.0436474 -0.104554 -0.00101784  0.0449874 -0.11724 -0.000914514  0.0460706 -0.130334 -0.000816882  0.046921 -0.143782 -0.00072518  0.0475507 -0.157545 -0.000637949  0.0479772 -0.17157 -0.000556022  0.0482113 -0.185819 -0.000481725  0.0482776 -0.200254 -0.000411838  0.0481803 -0.214837 -0.000346363  0.0479467 -0.229543 -0.000286669  0.0475793 -0.244338 -0.000233024  0.0470996 -0.259194 -0.000183642  0.0465224 -0.274091 -0.000142038  0.0458617 -0.289009 -0.000104487  0.0451279 -0.303932 -7.54595e-05  0.0443387 -0.318844 -5.06043e-05  0.0435045 -0.333732 -3.0607e-05  0.0426459 -0.348595 -1.80602e-05  0.0417664 -0.363428 -7.06315e-06  0.0408907 -0.37824 3.75509e-06  0 0 0  -0.00380422 -0.00582794 0.00228971  -0.00862975 -0.00853809 0.00361839  -0.0133151 -0.0122604 0.00419644  -0.0179499 -0.0170038 0.00427851  -0.0223536 -0.0228393 0.00412336  -0.0265118 -0.0296827 0.00386435  -0.0304207 -0.0374565 0.00357196  -0.0340918 -0.0460825 0.00327671  -0.0375421 -0.0554887 0.00299203  -0.0407834 -0.0656067 0.0027211  -0.0438281 -0.0763775 0.00246745  -0.0466876 -0.0877393 0.00222799  -0.0493708 -0.0996355 0.00200391  -0.0518837 -0.112013 0.00179258  -0.0542395 -0.124822 0.00159478  -0.0564433 -0.138012 0.0014075  -0.0584991 -0.151537 0.00123292  -0.0604208 -0.165353 0.0010713  -0.0622115 -0.17942 0.000919044  -0.0638742 -0.193699 0.000781029  -0.0654287 -0.208152 0.00065279  -0.0668695 -0.22275 0.000537008  -0.0682182 -0.237458 0.000432074  -0.069469 -0.25225 0.000338286  -0.0706406 -0.2671 0.000257313  -0.0717378 -0.28199 0.000187933  -0.0727727 -0.296895 0.000129431  -0.0737457 -0.311799 8.29399e-05  -0.0746813 -0.326691 4.83096e-05  -0.0755825 -0.341558 2.36928e-05  -0.076468 -0.356399 7.59959e-06  -0.0773468 -0.371217 -1.02818e-05  0 0 0  -0.00184596 -0.002752 0.00169191  -0.00540292 -0.00615841 0.00272906  -0.00914118 -0.0101371 0.00316045  -0.0126798 -0.0151443 0.00321788  -0.0160264 -0.0211998 0.0030978  -0.0191931 -0.0282464 0.00289914  -0.0221903 -0.0362115 0.00267807  -0.0250311 -0.0450184 0.00245428  -0.0277239 -0.0545978 0.00223899  -0.0302776 -0.0648834 0.00203529  -0.032701 -0.0758118 0.00184441  -0.0349988 -0.0873249 0.00166535  -0.0371789 -0.0993638 0.00149599  -0.0392442 -0.111877 0.00133872  -0.0412017 -0.124811 0.00118977  -0.0430551 -0.138118 0.00105017  -0.0448117 -0.151752 0.000919342  -0.0464687 -0.165667 0.000797421  -0.0480387 -0.179826 0.000684679  -0.0495203 -0.194187 0.000581563  -0.0509229 -0.208713 0.000486135  -0.052247 -0.223375 0.000398964  -0.0534983 -0.238139 0.000322104  -0.0546854 -0.252982 0.000252724  -0.0558114 -0.267875 0.00019151  -0.0568802 -0.282797 0.000138968  -0.0579026 -0.29773 9.44138e-05  -0.0588849 -0.312654 6.13034e-05  -0.0598288 -0.327561 3.48091e-05  -0.0607493 -0.342436 1.60336e-05  -0.0616469 -0.357275 5.36442e-07  -0.0625367 -0.372086 -1.32918e-05  0 0 0  -0.00101463 -0.00133288 0.0011481  -0.00311969 -0.00441517 0.00185737  -0.00559497 -0.00861813 0.00214133  -0.00800982 -0.0138339 0.00216502  -0.0102886 -0.0200684 0.00207543  -0.0124542 -0.0272738 0.00193778  -0.0145242 -0.0353835 0.00178665  -0.0165116 -0.0443291 0.00163433  -0.0184232 -0.0540418 0.0014894  -0.0202649 -0.064457 0.00135297  -0.0220414 -0.0755104 0.0012252  -0.0237552 -0.0871425 0.00110382  -0.0254046 -0.0992967 0.000991583  -0.0270011 -0.111917 0.000885785  -0.0285386 -0.124954 0.000786155  -0.0300204 -0.138355 0.000694096  -0.0314488 -0.152075 0.000606626  -0.0328236 -0.166072 0.000526428  -0.0341494 -0.180301 0.000450611  -0.0354233 -0.19473 0.000382215  -0.0366516 -0.209314 0.000319421  -0.037832 -0.224028 0.000261217  -0.0389721 -0.23884 0.000210464  -0.0400677 -0.25372 0.000165492  -0.0411265 -0.268648 0.000125289  -0.0421493 -0.283598 9.00626e-05  -0.0431414 -0.298551 6.24359e-05  -0.0441015 -0.313495 4.04119e-05  -0.0450397 -0.328413 2.17557e-05  -0.0459545 -0.343298 8.67248e-06  -0.0468526 -0.358142 -2.86102e-06  -0.047745 -0.372941 -1.46627e-05  0 0 0  -0.00044053 -0.000725418 0.000581712  -0.00139709 -0.00352952 0.000942141  -0.00258413 -0.00775462 0.00108585  -0.00379643 -0.0131012 0.00109547  -0.00497335 -0.019462 0.00104517  -0.00611889 -0.0267781 0.000972748  -0.0072484 -0.0349901 0.000893563  -0.00836939 -0.044034 0.000814676  -0.00948536 -0.053843 0.000739992  -0.0105996 -0.064353 0.000669837  -0.0117131 -0.0754984 0.000603616  -0.0128233 -0.0872198 0.000542015  -0.0139345 -0.099459 0.000485867  -0.0150372 -0.112161 0.000431567  -0.0161384 -0.125274 0.000382483  -0.0172328 -0.138747 0.000335991  -0.0183175 -0.152533 0.000292569  -0.0193903 -0.166591 0.00025335  -0.0204561 -0.180875 0.000215024  -0.0215089 -0.195351 0.000182241  -0.0225477 -0.209982 0.000150681  -0.0235689 -0.224735 0.000122786  -0.0245779 -0.23958 9.88543e-05  -0.0255678 -0.25449 7.65026e-05  -0.0265439 -0.269441 5.61774e-05  -0.0275054 -0.284412 4.05014e-05  -0.0284486 -0.299382 2.70903e-05  -0.0293782 -0.31434 1.65999e-05  -0.030293 -0.329268 8.85129e-06  -0.0311964 -0.344159 2.20537e-06  -0.0320911 -0.359005 -3.54648e-06  -0.0329759 -0.373794 -8.25524e-06  0 0 0  3.86983e-05 -0.000591785 -7.95722e-06  0.000108451 -0.00332806 -4.52995e-06  0.000160158 -0.00756672 3.72529e-06  0.000166535 -0.012969 9.0301e-06  0.000114083 -0.0193935 8.64267e-06  -6.55651e-07 -0.0267711 5.24521e-06  -0.000181377 -0.0350427 2.98023e-07  -0.000429511 -0.044147 -5.45382e-06  -0.000743747 -0.0540164 -1.04606e-05  -0.00112402 -0.0645856 -1.35601e-05  -0.00156546 -0.075793 -1.77324e-05  -0.00206709 -0.0875741 -1.98185e-05  -0.0026232 -0.0998709 -2.15769e-05  -0.00322974 -0.112629 -2.17557e-05  -0.00388277 -0.125793 -2.21729e-05  -0.00457835 -0.139313 -2.2918e-05  -0.00531149 -0.153145 -2.25306e-05  -0.00607944 -0.167242 -2.11895e-05  -0.00687099 -0.181565 -2.16365e-05  -0.00769019 -0.196074 -1.98483e-05  -0.00852895 -0.210732 -1.809e-05  -0.00938702 -0.225511 -1.66595e-05  -0.0102549 -0.240376 -1.56164e-05  -0.011133 -0.255306 -1.49012e-05  -0.0120192 -0.270273 -1.25468e-05  -0.0129082 -0.285253 -1.01626e-05  -0.0137968 -0.300235 -9.77516e-06  -0.0146887 -0.315198 -7.53999e-06  -0.0155773 -0.330132 -4.70877e-06  -0.0164626 -0.345028 -3.57628e-06  -0.0173438 -0.359875 -5.06639e-07  -0.0182219 -0.37466 4.47035e-07  0 0 0  0.000517339 -0.00084424 -0.000593424  0.00161222 -0.00373852 -0.000943422  0.00289628 -0.0080325 -0.00106838  0.00411272 -0.0134396 -0.00106856  0.00517946 -0.0198653 -0.00102088  0.00609267 -0.0272532 -0.00095734  0.0068562 -0.0355428 -0.000890106  0.007478 -0.0446709 -0.00082314  0.00796282 -0.0545683 -0.000758111  0.00831926 -0.0651679 -0.000696778  0.00854886 -0.0764046 -0.000638187  0.0086602 -0.0882176 -0.00058189  0.00865865 -0.100545 -0.000527143  0.00855303 -0.113331 -0.000477165  0.00834668 -0.126523 -0.000427961  0.00805211 -0.140071 -0.000381976  0.00767398 -0.153925 -0.000337839  0.00722003 -0.168041 -0.000295252  0.00669575 -0.182381 -0.000257671  0.00611115 -0.196905 -0.000221491  0.00547314 -0.211578 -0.000187874  0.00478792 -0.226367 -0.000157535  0.00405669 -0.241241 -0.000130117  0.00329614 -0.256176 -0.000103682  0.00250149 -0.271146 -8.15392e-05  0.0016849 -0.286132 -6.15716e-05  0.00085187 -0.301113 -4.41372e-05  -2.38419e-07 -0.316078 -3.07262e-05  -0.000864029 -0.331011 -1.96695e-05  -0.00172901 -0.345908 -8.9705e-06  -0.00260162 -0.360752 -3.27826e-07  -0.0034709 -0.375543 8.10623e-06  0 0 0  0.00109529 -0.00156617 -0.001142  0.0033282 -0.00481778 -0.00182989  0.0058789 -0.00914836 -0.00209326  0.00827199 -0.0144917 -0.00211313  0.0104222 -0.0208625 -0.00203031  0.0123405 -0.0282163 -0.0019075  0.0140372 -0.0364874 -0.0017713  0.0155202 -0.0456064 -0.00163484  0.0167997 -0.0555001 -0.00150272  0.0178841 -0.0661007 -0.00137553  0.0187794 -0.0773412 -0.00125608  0.0194979 -0.0891569 -0.00114143  0.0200446 -0.101489 -0.00103268  0.0204334 -0.114279 -0.000929117  0.0206736 -0.127473 -0.000831723  0.0207748 -0.141023 -0.000738412  0.0207434 -0.154877 -0.000652134  0.0205965 -0.168996 -0.000569761  0.0203421 -0.183333 -0.000493526  0.0199847 -0.197857 -0.00042221  0.0195417 -0.212525 -0.000357211  0.0190172 -0.227308 -0.000297606  0.018425 -0.242177 -0.000242323  0.0177739 -0.257104 -0.000192642  0.0170639 -0.27207 -0.000149965  0.0163143 -0.287047 -0.000112414  0.0155277 -0.302022 -8.01086e-05  0.0147107 -0.316982 -5.42998e-05  0.0138748 -0.331907 -3.24845e-05  0.0130208 -0.346794 -1.50502e-05  0.0121553 -0.36164 -1.60933e-06  0.011292 -0.376437 1.20997e-05  0 0 0  0.00192806 -0.00308591 -0.00165272  0.0055812 -0.00669831 -0.00265491  0.009345 -0.0108739 -0.00306553  0.0128253 -0.0160854 -0.00312293  0.0160173 -0.0223594 -0.00301799  0.018917 -0.029646 -0.00284156  0.0215295 -0.037868 -0.0026421  0.0238611 -0.0469482 -0.00243846  0.0259236 -0.0568104 -0.0022406  0.0277226 -0.0673839 -0.00205076  0.0292722 -0.0785986 -0.00186881  0.0305833 -0.0903912 -0.00169814  0.0316702 -0.1027 -0.00153404  0.0325407 -0.115471 -0.00137815  0.0332114 -0.128644 -0.0012325  0.0336952 -0.142172 -0.00109351  0.0340052 -0.156008 -0.000963688  0.0341527 -0.170105 -0.000841677  0.0341492 -0.184423 -0.000727355  0.0340114 -0.198923 -0.000622123  0.033751 -0.213572 -0.000524342  0.0333807 -0.228334 -0.000433534  0.0329113 -0.243182 -0.000353545  0.0323517 -0.258092 -0.000280827  0.0317209 -0.273036 -0.00021708  0.0310228 -0.287997 -0.000161231  0.0302746 -0.302957 -0.000113577  0.0294793 -0.317899 -7.53105e-05  0.028656 -0.332814 -4.51505e-05  0.0278046 -0.347693 -2.21729e-05  0.0269415 -0.36253 -4.23193e-06  0.0260692 -0.377339 1.44243e-05  0 0 0  0.00380564 -0.00617546 -0.00219774  0.00869274 -0.00914001 -0.00348654  0.0133504 -0.0131288 -0.00403595  0.0178834 -0.0181725 -0.00412318  0.0221008 -0.0243332 -0.00399011  0.0259729 -0.0315267 -0.00376299  0.0294863 -0.039674 -0.00350121  0.0326512 -0.0486884 -0.00323394  0.0354766 -0.0584905 -0.00297168  0.0379766 -0.0690088 -0.00271907  0.0401611 -0.0801718 -0.00247878  0.0420477 -0.0919159 -0.00225091  0.0436504 -0.104178 -0.00203449  0.0449914 -0.116901 -0.00182641  0.0460732 -0.130029 -0.00163198  0.0469215 -0.143517 -0.00144863  0.0475507 -0.157309 -0.00127405  0.0479743 -0.171364 -0.00111127  0.0482092 -0.185641 -0.000961751  0.0482705 -0.200102 -0.000820756  0.0481758 -0.21471 -0.000691414  0.0479395 -0.229436 -0.000572443  0.0475719 -0.244251 -0.000463694  0.0470934 -0.259126 -0.000369728  0.046515 -0.274039 -0.000283211  0.0458512 -0.288969 -0.000208169  0.0451181 -0.303902 -0.000147849  0.0443306 -0.318825 -9.71556e-05  0.0434949 -0.333719 -5.82635e-05  0.0426321 -0.348584 -2.89977e-05  0.0417531 -0.363418 -1.02222e-05  0.0408773 -0.378232 8.31485e-06  0 0 0  -0.0038025 -0.00492891 0.00384709  -0.00880873 -0.00722403 0.00582549  -0.0135112 -0.0108367 0.00644368  -0.0180329 -0.0156213 0.00644474  -0.0223367 -0.0215346 0.00616066  -0.0264186 -0.0284733 0.00575942  -0.0302783 -0.0363441 0.00532146  -0.033926 -0.0450641 0.00488468  -0.037364 -0.0545582 0.00446445  -0.0406042 -0.0647608 0.00406398  -0.043653 -0.0756104 0.00368844  -0.0465209 -0.0870471 0.00333156  -0.0492098 -0.0990142 0.00299525  -0.051734 -0.111457 0.0026809  -0.0540982 -0.124328 0.00238311  -0.0563115 -0.137577 0.0021037  -0.0583782 -0.151156 0.00184408  -0.0603104 -0.165024 0.0016005  -0.0621097 -0.179138 0.00137515  -0.0637872 -0.19346 0.00116463  -0.0653472 -0.207952 0.00097394  -0.0668044 -0.222587 0.000800297  -0.068156 -0.237326 0.000642627  -0.0694196 -0.252147 0.000503168  -0.0705981 -0.267024 0.000379845  -0.0717041 -0.281934 0.000276238  -0.0727401 -0.296857 0.000188634  -0.0737243 -0.311776 0.000118226  -0.0746617 -0.326678 6.38962e-05  -0.0755596 -0.341551 2.7895e-05  -0.0764461 -0.356392 4.82798e-06  -0.077327 -0.371212 -1.68234e-05  0 0 0  -0.00200837 -0.00213073 0.00289449  -0.00573172 -0.0051017 0.0043934  -0.00936931 -0.00890562 0.00482161  -0.0127447 -0.013877 0.00481971  -0.0159702 -0.0199638 0.00460999  -0.0190562 -0.027076 0.00431199  -0.0220065 -0.0351197 0.0039856  -0.0248231 -0.0440094 0.00365795  -0.0275068 -0.0536729 0.0033429  -0.0300609 -0.0640381 0.0030428  -0.0324916 -0.0750435 0.00275937  -0.0347981 -0.086631 0.00249307  -0.0369878 -0.0987407 0.00224249  -0.0390657 -0.111319 0.00200458  -0.0410347 -0.124316 0.00178213  -0.0429021 -0.13768 0.00157328  -0.0446684 -0.151367 0.00137886  -0.0463398 -0.165334 0.00119643  -0.0479198 -0.179539 0.00102781  -0.049413 -0.193942 0.000872239  -0.0508268 -0.208508 0.000728592  -0.0521624 -0.223207 0.000600174  -0.0534241 -0.238003 0.000481188  -0.05462 -0.252874 0.000377789  -0.0557551 -0.267792 0.000287339  -0.0568349 -0.282736 0.000207126  -0.0578661 -0.297685 0.00014253  -0.0588539 -0.312627 8.97497e-05  -0.0598066 -0.327543 5.1111e-05  -0.0607259 -0.342425 2.02358e-05  -0.0616262 -0.357267 -1.02818e-06  -0.0625162 -0.372076 -2.19792e-05  0 0 0  -0.00113374 -0.000849605 0.0019902  -0.00337997 -0.00356387 0.00300047  -0.00578162 -0.00754279 0.0032586  -0.00805753 -0.0126655 0.00323097  -0.0102322 -0.0188913 0.00307845  -0.0123298 -0.0261351 0.00287524  -0.01436 -0.0343079 0.00265473  -0.0163286 -0.0433272 0.00243478  -0.0182337 -0.0531177 0.00222285  -0.0200769 -0.06361 0.00202158  -0.0218581 -0.0747399 0.00183192  -0.0235783 -0.0864449 0.00165454  -0.0252407 -0.0986679 0.00148493  -0.0268452 -0.111354 0.0013279  -0.0283921 -0.124451 0.00117953  -0.029886 -0.137911 0.0010397  -0.0313232 -0.151686 0.000911474  -0.0327103 -0.165732 0.000789329  -0.0340459 -0.180009 0.000677645  -0.0353317 -0.194479 0.000575423  -0.0365686 -0.209104 0.000479668  -0.0377595 -0.223855 0.000393584  -0.0389073 -0.238698 0.000317454  -0.0400131 -0.253607 0.000247717  -0.0410819 -0.268559 0.000188008  -0.0421104 -0.283531 0.000136912  -0.043108 -0.298505 9.45032e-05  -0.0440767 -0.313462 5.93662e-05  -0.0450194 -0.328393 3.3319e-05  -0.0459375 -0.343286 1.26958e-05  -0.0468392 -0.358132 -3.69549e-06  -0.047729 -0.372929 -2.2456e-05  0 0 0  -0.000498518 -0.000315815 0.00100394  -0.00152242 -0.00278169 0.00151752  -0.0026705 -0.00677443 0.00164567  -0.00380373 -0.0119982 0.00162497  -0.00491691 -0.0183243 0.00154305  -0.00602251 -0.0256616 0.0014367  -0.00712568 -0.0339257 0.00132255  -0.00823557 -0.0430365 0.00121008  -0.00934744 -0.0529189 0.00110197  -0.0104655 -0.0635037 0.000999182  -0.0115807 -0.0747238 0.000902236  -0.0126978 -0.0865169 0.000812694  -0.0138144 -0.0988245 0.000726461  -0.0149268 -0.111592 0.000647366  -0.016034 -0.124765 0.000572756  -0.0171356 -0.138296 0.000503421  -0.0182302 -0.152138 0.000440165  -0.0193145 -0.166245 0.000379473  -0.020385 -0.180576 0.000324398  -0.0214458 -0.195095 0.000273973  -0.0224903 -0.209766 0.000227585  -0.0235219 -0.224555 0.000185266  -0.0245323 -0.239433 0.000148088  -0.0255332 -0.254372 0.000114352  -0.0265157 -0.269348 8.56817e-05  -0.0274816 -0.284342 6.22123e-05  -0.0284276 -0.299333 4.18276e-05  -0.0293648 -0.314303 2.4572e-05  -0.0302849 -0.329245 1.26362e-05  -0.0311892 -0.344145 3.97861e-06  -0.0320809 -0.358995 -4.84288e-06  -0.0329671 -0.373781 -1.44094e-05  0 0 0  4.84884e-05 -0.000206739 -2.32011e-05  0.000132084 -0.00261787 -1.66297e-05  0.000195861 -0.00662342 -3.74019e-06  0.000214517 -0.0118935 2.63751e-06  0.000173986 -0.0182742 2.26498e-06  6.86049e-05 -0.025665 -2.02656e-06  -0.000107229 -0.0339831 -8.32975e-06  -0.000352085 -0.0431505 -1.41561e-05  -0.00066781 -0.0530918 -2.00272e-05  -0.00104928 -0.0637352 -2.60323e-05  -0.00149429 -0.0750144 -2.8491e-05  -0.00199771 -0.0868672 -3.16948e-05  -0.00255883 -0.0992326 -3.40194e-05  -0.00317049 -0.112054 -3.4824e-05  -0.00382853 -0.12528 -3.48687e-05  -0.004529 -0.138858 -3.47197e-05  -0.00527 -0.152744 -3.47346e-05  -0.00603795 -0.166891 -3.31402e-05  -0.00683904 -0.181261 -3.20524e-05  -0.00766182 -0.195813 -2.95341e-05  -0.00850582 -0.210511 -2.8491e-05  -0.00936627 -0.225326 -2.61813e-05  -0.0102396 -0.240227 -2.38121e-05  -0.0111206 -0.255184 -2.04742e-05  -0.0120084 -0.270176 -1.74195e-05  -0.0128999 -0.28518 -1.61529e-05  -0.0137923 -0.30018 -1.35154e-05  -0.0146847 -0.31516 -9.93907e-06  -0.0155745 -0.330107 -8.43406e-06  -0.0164621 -0.345011 -5.64754e-06  -0.0173476 -0.359862 -2.08616e-06  -0.0182252 -0.374646 -7.89762e-07  0 0 0  0.000595585 -0.000451446 -0.00104307  0.00178552 -0.00301248 -0.00153559  0.00305289 -0.00707382 -0.00163712  0.0042156 -0.0123566 -0.0016067  0.00524509 -0.0187433 -0.00152807  0.00613308 -0.0261472 -0.00143436  0.00688386 -0.0344837 -0.00133453  0.00749886 -0.0436749 -0.00123568  0.00798297 -0.0536422 -0.00113963  0.0083338 -0.0643159 -0.00104755  0.00856268 -0.0756259 -0.00095953  0.008672 -0.0875089 -0.000874892  0.00866938 -0.0999038 -0.000794291  0.00855827 -0.112754 -0.000716314  0.00835526 -0.126007 -0.000642538  0.00805473 -0.139612 -0.000573575  0.00767541 -0.153519 -0.00050731  0.00721717 -0.167688 -0.000445932  0.0066936 -0.182074 -0.000387937  0.00610685 -0.196642 -0.000333905  0.00546455 -0.211355 -0.000283256  0.00477791 -0.226181 -0.000237942  0.00404787 -0.241087 -0.000195548  0.00328541 -0.256053 -0.000157446  0.00249147 -0.271049 -0.000123844  0.00167584 -0.286058 -9.3773e-05  0.000837088 -0.301058 -6.84559e-05  -1.12057e-05 -0.31604 -4.6134e-05  -0.000873089 -0.330986 -2.92361e-05  -0.0017395 -0.345889 -1.37985e-05  -0.00261283 -0.360741 -6.55651e-07  -0.0034802 -0.375528 1.41859e-05  0 0 0  0.00123446 -0.00111198 -0.00200586  0.00363272 -0.00400937 -0.00297025  0.00613269 -0.00812149 -0.00320096  0.00841719 -0.0133668 -0.00317395  0.0104886 -0.0197194 -0.00303499  0.0123585 -0.0271004 -0.00284958  0.0140262 -0.0354254 -0.00265066  0.015496 -0.04461 -0.00244956  0.0167683 -0.0545757 -0.00225393  0.0178488 -0.065249 -0.00206557  0.0187443 -0.0765615 -0.00188568  0.0194606 -0.088448 -0.00171453  0.0200096 -0.100848 -0.00155151  0.0203984 -0.1137 -0.00139625  0.020637 -0.126956 -0.00124937  0.0207374 -0.140563 -0.0011106  0.02071 -0.154472 -0.000979289  0.0205617 -0.168641 -0.00085713  0.0203049 -0.183026 -0.000741646  0.0199502 -0.197592 -0.000634849  0.0195072 -0.212301 -0.000537857  0.0189843 -0.227121 -0.000446305  0.0183938 -0.242024 -0.00036405  0.0177417 -0.256983 -0.000291958  0.0170362 -0.271974 -0.000226155  0.0162892 -0.286974 -0.000168785  0.0155048 -0.301968 -0.000121102  0.0146918 -0.316942 -8.09282e-05  0.013855 -0.331882 -4.83692e-05  0.0130033 -0.346777 -2.31266e-05  0.0121374 -0.361626 6.70552e-07  0.0112724 -0.376422 2.21878e-05  0 0 0  0.00211057 -0.00249749 -0.00285761  0.00595501 -0.00571203 -0.00428139  0.00964111 -0.00972307 -0.00469011  0.0129905 -0.0148895 -0.00469941  0.016088 -0.0211797 -0.00451545  0.0189253 -0.0285144 -0.00424936  0.0215021 -0.0368009 -0.00395276  0.0238144 -0.0459527 -0.00365236  0.0258659 -0.0558895 -0.00335848  0.0276622 -0.0665358 -0.00307593  0.0292115 -0.0778235 -0.00280651  0.0305229 -0.089687 -0.00254758  0.0316117 -0.102063 -0.00230233  0.0324842 -0.114896 -0.00207022  0.0331566 -0.128129 -0.0018499  0.0336399 -0.141716 -0.00164282  0.0339494 -0.155605 -0.00144696  0.0340989 -0.169753 -0.00126305  0.0340981 -0.184118 -0.00109223  0.033962 -0.198661 -0.000933245  0.033704 -0.213351 -0.000785545  0.0333343 -0.228151 -0.000652373  0.032867 -0.243032 -0.000531361  0.0323129 -0.257972 -0.000421137  0.0316844 -0.272942 -0.000324413  0.0309904 -0.287927 -0.00024128  0.0302441 -0.302905 -0.000170171  0.029454 -0.317864 -0.000110537  0.0286295 -0.33279 -6.75023e-05  0.0277817 -0.347676 -3.19034e-05  0.0269184 -0.362518 -3.33786e-06  0.0260501 -0.377325 2.11447e-05  0 0 0  0.00385751 -0.00532126 -0.00372316  0.0089502 -0.00791973 -0.00561163  0.0136284 -0.0118253 -0.00620532  0.0180711 -0.0168958 -0.0062304  0.0222078 -0.023113 -0.0059897  0.0260198 -0.0303798 -0.0056341  0.0294976 -0.0386043 -0.0052419  0.0326407 -0.0476975 -0.00484256  0.0354534 -0.0575778 -0.00445148  0.0379454 -0.0681707 -0.00407611  0.0401292 -0.0794077 -0.00371572  0.0420144 -0.0912205 -0.00337374  0.0436182 -0.10355 -0.00304705  0.0449566 -0.116337 -0.00273988  0.0460389 -0.129526 -0.00244492  0.0468881 -0.143069 -0.00216874  0.0475154 -0.156914 -0.00190915  0.0479412 -0.17102 -0.00166403  0.0481772 -0.185345 -0.00143662  0.0482385 -0.199848 -0.00122747  0.0481434 -0.214499 -0.00103238  0.0479052 -0.22926 -0.00085324  0.0475411 -0.244107 -0.000693068  0.0470643 -0.259014 -0.000546575  0.0464876 -0.273953 -0.000418574  0.0458276 -0.288906 -0.000308692  0.0450959 -0.303857 -0.000214383  0.0443048 -0.318795 -0.000138998  0.0434728 -0.333702 -8.12113e-05  0.042609 -0.348571 -3.98904e-05  0.0417321 -0.363409 -9.98378e-06  0.0408516 -0.378218 1.53035e-05  0 0 0  -0.00488471 -0.00334819 0.00631544  -0.00958337 -0.00511454 0.00806586  -0.0137023 -0.00876452 0.00866059  -0.0179205 -0.0136429 0.0085414  -0.0220439 -0.0197044 0.00813519  -0.0260373 -0.026793 0.0076037  -0.0298571 -0.0348098 0.00703382  -0.0334966 -0.0436647 0.00646591  -0.0369405 -0.0532851 0.00591653  -0.0401939 -0.0636069 0.00539174  -0.0432606 -0.0745665 0.00489466  -0.0461496 -0.0861055 0.00442486  -0.0488596 -0.0981705 0.00398088  -0.0514065 -0.110707 0.00356022  -0.0537958 -0.123663 0.00316636  -0.0560281 -0.136992 0.00279405  -0.0581193 -0.150647 0.00244769  -0.0600686 -0.164585 0.00212387  -0.0618899 -0.178765 0.00182253  -0.0635865 -0.193145 0.00154763  -0.0651715 -0.207693 0.00129144  -0.066644 -0.222376 0.00105781  -0.0680175 -0.237161 0.00084886  -0.069299 -0.252022 0.000663228  -0.0704906 -0.266935 0.000499234  -0.0716181 -0.281873 0.000360191  -0.0726702 -0.296823 0.000242427  -0.073668 -0.31176 0.000144087  -0.0746162 -0.326674 7.59512e-05  -0.0755332 -0.341553 2.4803e-05  -0.0764184 -0.356395 -3.07709e-06  -0.077302 -0.371208 -2.06083e-05  0 0 0  -0.00301662 -0.00100221 0.00492739  -0.00649536 -0.0034317 0.00597403  -0.00955707 -0.00705674 0.00638726  -0.0126342 -0.0120308 0.00633273  -0.0156874 -0.0181988 0.00605766  -0.018687 -0.0254255 0.00568083  -0.0216017 -0.0335935 0.00526474  -0.0244076 -0.0426087 0.00484443  -0.0270984 -0.0523927 0.00443511  -0.0296663 -0.0628747 0.00404384  -0.0321138 -0.0739889 0.00367002  -0.0344405 -0.085678 0.00331891  -0.036652 -0.0978852 0.00298633  -0.0387474 -0.110556 0.00267179  -0.0407412 -0.123637 0.00237431  -0.0426284 -0.137083 0.00209853  -0.044415 -0.150846 0.00183791  -0.0461078 -0.164882 0.00159539  -0.0477085 -0.179151 0.00137262  -0.0492206 -0.193615 0.00116394  -0.0506556 -0.208236 0.000975415  -0.0520082 -0.222983 0.000800729  -0.0532889 -0.237825 0.000643559  -0.0545037 -0.252735 0.000505544  -0.0556576 -0.267688 0.000383832  -0.0567532 -0.282662 0.000279456  -0.0577996 -0.297637 0.000191055  -0.0588009 -0.312598 0.000120014  -0.0597639 -0.327526 6.8374e-05  -0.0606956 -0.342418 2.66284e-05  -0.0616021 -0.357265 -3.56883e-06  -0.0624881 -0.372073 -3.3319e-05  0 0 0  -0.00179239 0.000175864 0.00336529  -0.00389507 -0.0020676 0.00404755  -0.00590852 -0.00581737 0.00426958  -0.00796685 -0.0108965 0.00420749  -0.0100148 -0.0171692 0.00402135  -0.0120453 -0.0245037 0.00377215  -0.0140464 -0.0327869 0.00349772  -0.0160061 -0.0419236 0.00321948  -0.0179127 -0.0518299 0.00294624  -0.0197666 -0.0624364 0.00268459  -0.0215619 -0.0736729 0.00243655  -0.0232973 -0.0854791 0.00220098  -0.0249752 -0.0977998 0.00197901  -0.0265977 -0.110577 0.00176925  -0.0281636 -0.12376 0.00157312  -0.0296717 -0.1373 0.00138892  -0.0311284 -0.15115 0.00121512  -0.0325289 -0.165268 0.00105512  -0.0338845 -0.179608 0.000907265  -0.0351837 -0.194139 0.000767328  -0.0364394 -0.20882 0.000642456  -0.0376468 -0.223619 0.000529721  -0.0388041 -0.238508 0.000424348  -0.0399241 -0.253458 0.000333212  -0.0410042 -0.268447 0.000253715  -0.0420482 -0.283447 0.000184752  -0.0430613 -0.298446 0.000127003  -0.0440376 -0.313425 8.01831e-05  -0.0449882 -0.328371 4.59179e-05  -0.0459127 -0.343274 1.63093e-05  -0.0468166 -0.358129 -7.94977e-06  -0.0477023 -0.372929 -3.30657e-05  0 0 0  -0.000814855 0.000692606 0.00166404  -0.00175995 -0.00132316 0.00202537  -0.00270671 -0.0050925 0.00213428  -0.00372273 -0.0102626 0.0020952  -0.0047642 -0.0166225 0.00199752  -0.00582832 -0.0240403 0.00187224  -0.00691342 -0.0324064 0.00173505  -0.00801688 -0.0416285 0.00159319  -0.00912964 -0.0516247 0.00145425  -0.010253 -0.0623189 0.00132334  -0.0113778 -0.073646 0.00119819  -0.0125076 -0.0855415 0.00107814  -0.0136353 -0.0979449 0.000967517  -0.0147589 -0.110803 0.000862569  -0.0158792 -0.124063 0.000763997  -0.0169923 -0.137674 0.000670731  -0.0180993 -0.151591 0.000585563  -0.0191941 -0.165769 0.000507452  -0.0202789 -0.180165 0.000435248  -0.0213492 -0.194745 0.000365078  -0.0224056 -0.209472 0.00030455  -0.0234466 -0.224311 0.000250079  -0.0244706 -0.239233 0.000199109  -0.0254793 -0.254214 0.000154182  -0.0264695 -0.269225 0.000115879  -0.0274425 -0.284251 8.50558e-05  -0.0284007 -0.299266 5.7064e-05  -0.0293403 -0.31426 3.46452e-05  -0.0302668 -0.329218 1.94833e-05  -0.0311761 -0.344131 5.02914e-06  -0.0320711 -0.358991 -8.17329e-06  -0.0329523 -0.373781 -2.24262e-05  0 0 0  6.49095e-05 0.000789165 -5.57229e-05  0.000165761 -0.00117514 -4.48897e-05  0.000250608 -0.00495881 -3.15607e-05  0.000290751 -0.0101727 -2.23741e-05  0.000267088 -0.0165827 -2.00197e-05  0.000172675 -0.0240487 -2.24486e-05  4.17233e-06 -0.0324658 -2.6077e-05  -0.000240266 -0.04174 -3.17395e-05  -0.000555277 -0.0517913 -3.69623e-05  -0.000941634 -0.0625449 -4.15891e-05  -0.00139058 -0.0739297 -4.47929e-05  -0.00189948 -0.0858823 -4.67226e-05  -0.00246525 -0.098344 -4.825e-05  -0.00308537 -0.111256 -4.85182e-05  -0.00375199 -0.124568 -4.83468e-05  -0.00446117 -0.138227 -4.88609e-05  -0.00520539 -0.152188 -4.71547e-05  -0.00598311 -0.166407 -4.4696e-05  -0.00679159 -0.180843 -4.13284e-05  -0.00762105 -0.195456 -4.1157e-05  -0.00847483 -0.210208 -3.70741e-05  -0.00933933 -0.225075 -3.42578e-05  -0.0102158 -0.240021 -3.06442e-05  -0.0111017 -0.25502 -2.72691e-05  -0.011996 -0.270049 -2.58014e-05  -0.0128906 -0.285083 -2.03177e-05  -0.0137892 -0.300111 -1.64956e-05  -0.014683 -0.315112 -1.50651e-05  -0.0155749 -0.330078 -1.07437e-05  -0.0164638 -0.344998 -6.48201e-06  -0.0173497 -0.359858 -2.80142e-06  -0.0182257 -0.374646 -9.76026e-07  0 0 0  0.000936121 0.000522971 -0.00176426  0.00208154 -0.00158733 -0.00209537  0.00319725 -0.00542194 -0.00217608  0.00428933 -0.0106446 -0.00212263  0.00528091 -0.0170568 -0.00202612  0.00615162 -0.0245342 -0.00190729  0.00689602 -0.0329666 -0.00178131  0.00750875 -0.0422632 -0.00165329  0.00798988 -0.0523409 -0.00152665  0.00834334 -0.0631218 -0.00140266  0.00857031 -0.0745375 -0.00128472  0.00867748 -0.0865189 -0.00117186  0.00867319 -0.0990093 -0.00106299  0.00856078 -0.111952 -0.000960328  0.00835311 -0.12529 -0.000862166  0.00805354 -0.138974 -0.000766434  0.00766754 -0.152958 -0.000679091  0.00720763 -0.167198 -0.000597775  0.0066793 -0.181652 -0.000520498  0.00609159 -0.196278 -0.000446677  0.00544882 -0.211049 -0.000380069  0.00475788 -0.225925 -0.000317052  0.00402713 -0.240878 -0.000262685  0.00326586 -0.255885 -0.000212632  0.00247335 -0.270919 -0.000167452  0.00165772 -0.285961 -0.000125282  0.000821829 -0.300986 -9.22382e-05  -2.64645e-05 -0.315992 -6.24061e-05  -0.000887632 -0.330956 -3.9421e-05  -0.00175405 -0.345871 -1.93566e-05  -0.00262952 -0.360735 3.11434e-06  -0.00349784 -0.375519 1.88649e-05  0 0 0  0.00188568 -0.000156462 -0.00342072  0.00418416 -0.00258285 -0.00405299  0.00636208 -0.00646061 -0.00425158  0.00848663 -0.0116481 -0.0041872  0.0104704 -0.01803 -0.00401273  0.0122963 -0.0254859 -0.00378001  0.0139456 -0.0339079 -0.00352573  0.0154072 -0.0431991 -0.00326572  0.0166806 -0.0532748 -0.00300802  0.0177628 -0.0640556 -0.00275932  0.0186591 -0.0754707 -0.00252079  0.0193796 -0.0874563 -0.00229105  0.01993 -0.0999508 -0.00207341  0.0203211 -0.112896 -0.00186782  0.0205598 -0.126237 -0.00166924  0.0206611 -0.139922 -0.00148424  0.0206361 -0.15391 -0.00130926  0.020488 -0.168148 -0.00114512  0.0202341 -0.182601 -0.000992328  0.0198817 -0.197228 -0.000849821  0.0194404 -0.211993 -0.000718579  0.018924 -0.226865 -0.00059811  0.0183353 -0.241816 -0.00048881  0.0176861 -0.256816 -0.000390336  0.0169857 -0.271845 -0.000303619  0.016242 -0.286877 -0.000226349  0.0154648 -0.301899 -0.000164054  0.0146549 -0.316894 -0.000108495  0.0138268 -0.331852 -6.53639e-05  0.0129762 -0.346761 -3.02121e-05  0.0121112 -0.361618 1.78814e-06  0.0112438 -0.376414 3.5204e-05  0 0 0  0.00305907 -0.0014596 -0.004898  0.00671971 -0.00416249 -0.00587313  0.00993264 -0.00798589 -0.00627165  0.0130538 -0.0131283 -0.00623278  0.0160221 -0.0194703 -0.00598544  0.0187949 -0.026893 -0.00564133  0.0213417 -0.0352842 -0.00525779  0.0236455 -0.0445453 -0.00486638  0.0256965 -0.0545915 -0.00447929  0.0274967 -0.0653473 -0.00410574  0.0290513 -0.0767371 -0.00374684  0.0303681 -0.0886982 -0.00340203  0.0314616 -0.10117 -0.00307526  0.0323391 -0.114093 -0.00276623  0.0330187 -0.127413 -0.0024709  0.0335083 -0.141079 -0.00219294  0.0338213 -0.155043 -0.00193238  0.0339742 -0.169262 -0.00168774  0.0339794 -0.183695 -0.00145931  0.0338488 -0.1983 -0.00124601  0.0335975 -0.213045 -0.00105134  0.033231 -0.227898 -0.000872336  0.0327725 -0.242827 -0.000708625  0.0322285 -0.257808 -0.00056304  0.0316062 -0.272817 -0.000435062  0.0309219 -0.287834 -0.000321649  0.0301833 -0.302839 -0.000227034  0.0294023 -0.317823 -0.000150532  0.0285902 -0.332764 -8.85949e-05  0.0277498 -0.347662 -4.14923e-05  0.0268891 -0.362507 -4.64171e-06  0.0260201 -0.377315 3.09572e-05  0 0 0  0.00486396 -0.00384772 -0.00613926  0.00973204 -0.00603402 -0.00780626  0.013935 -0.00993234 -0.00839077  0.0181447 -0.0150523 -0.0083151  0.022141 -0.0213706 -0.00796495  0.025882 -0.0287505 -0.00749113  0.0293291 -0.0370927 -0.00697096  0.0324585 -0.0463023 -0.00644555  0.0352718 -0.0562958 -0.00592883  0.0377675 -0.0669966 -0.00542878  0.0399563 -0.0783368 -0.00495224  0.0418476 -0.0902452 -0.00449444  0.0434588 -0.102671 -0.00406071  0.044803 -0.115546 -0.00364686  0.045891 -0.128821 -0.00325661  0.0467429 -0.142444 -0.00288816  0.0473809 -0.156365 -0.00253774  0.047806 -0.170542 -0.00221271  0.0480473 -0.184931 -0.00191001  0.0481191 -0.199499 -0.00162803  0.0480275 -0.214206 -0.00136952  0.047797 -0.229018 -0.00112946  0.0474401 -0.243914 -0.000915997  0.0469732 -0.25886 -0.000720285  0.0464056 -0.273841 -0.000553131  0.0457492 -0.288825 -0.000402018  0.0450327 -0.303804 -0.000277765  0.0442536 -0.318764 -0.000177041  0.0434263 -0.333688 -9.83551e-05  0.0425706 -0.348567 -3.99575e-05  0.0416973 -0.3634 -7.52509e-07  0.0408158 -0.378201 2.73287e-05  -0.00189051 -0.00222877 -0.00382495  -0.00399836 -0.00436591 -0.00493681  -0.00134958 -0.00296983 -0.00216699  0 0 0  0 0 0  -0.00388008 -0.00200884 -0.00571871  -0.00275174 -0.00331181 -0.00335848  0 0 0  -0.00110944 -0.000352189 -0.00304151  -0.00234795 -0.00165464 -0.00379753  -0.000625733 -0.00100784 -0.00164282  0 0 0  -0.00134114 -0.00241744 -0.00281072  -0.00139489 -0.00106363 -0.00329506  -0.00304371 -0.00278501 -0.00438035  -0.000843555 -0.00175349 -0.0018307  0 0 0  -0.000715673 -0.000734113 -0.00217688  -0.000894178 -0.00138706 -0.00239396  -0.00748342 -0.00402286 -0.00741673  -0.00909764 -0.00633385 -0.00699568  -0.006385 -0.00586881 -0.00504875  -0.00802146 -0.00426562 -0.00695252  -0.00718303 -0.00612476 -0.00509912  -0.00488298 -0.00205614 -0.00551879  -0.00605786 -0.00435093 -0.00525272  -0.00381885 -0.00350668 -0.00378841  -0.00673272 -0.00516711 -0.00621736  -0.00618394 -0.00298673 -0.00647128  -0.00752641 -0.00530482 -0.00609708  -0.00499277 -0.00459965 -0.00440681  -0.0042482 -0.00287345 -0.00466311  -0.00543162 -0.0039227 -0.00543177  -0.0115938 -0.00676893 -0.00849462  -0.0136147 -0.00991869 -0.00756848  -0.0111738 -0.00887543 -0.00624281  -0.0115554 -0.00784747 -0.00749254  -0.0113575 -0.00979851 -0.00562209  -0.0080201 -0.00506576 -0.00626397  -0.00946721 -0.00806196 -0.00563085  -0.00760016 -0.00685143 -0.00467736  -0.0113505 -0.00797038 -0.00739956  -0.00975093 -0.00587853 -0.00733161  -0.0114632 -0.00891789 -0.00657916  -0.00930569 -0.00780684 -0.00544918  -0.00778913 -0.00604866 -0.00551486  -0.0095022 -0.0069505 -0.00643277  -0.015825 -0.0110366 -0.00865614  -0.0180266 -0.0147138 -0.0075103  -0.0157976 -0.0130751 -0.00649595  -0.0151795 -0.0127757 -0.00741589  -0.0153007 -0.0146814 -0.00562567  -0.0110961 -0.00937922 -0.00639975  -0.0127186 -0.0130251 -0.00559342  -0.0110749 -0.0112396 -0.00485688  -0.0158471 -0.012161 -0.00759268  -0.0133744 -0.0101477 -0.00750005  -0.0152805 -0.013804 -0.00653923  -0.0133526 -0.0120889 -0.00566757  -0.0111058 -0.0103919 -0.00565052  -0.0133911 -0.0112074 -0.00660515  -0.0199944 -0.016527 -0.00836539  -0.0222511 -0.0206817 -0.0071578  -0.0202125 -0.0184371 -0.0063253  -0.0187536 -0.0188904 -0.00708675  -0.0190622 -0.0206854 -0.00538081  -0.0141667 -0.0149678 -0.00621426  -0.015866 -0.0191429 -0.00534403  -0.0143757 -0.0167794 -0.0047316  -0.0201609 -0.01756 -0.00735795  -0.0169724 -0.0156874 -0.0072732  -0.0189569 -0.01985 -0.00624454  -0.017204 -0.0175439 -0.00552356  -0.0143052 -0.0159458 -0.00548708  -0.0171353 -0.016689 -0.00641274  -0.0240613 -0.0231175 -0.00788033  -0.026288 -0.0276833 -0.00668812  -0.0244052 -0.0248757 -0.00596839  -0.022247 -0.0260527 -0.00663888  -0.0226446 -0.0277179 -0.00503415  -0.0171973 -0.0216803 -0.00587642  -0.0189092 -0.0263035 -0.00500154  -0.0175297 -0.0233911 -0.0044679  -0.0242934 -0.0240587 -0.00693274  -0.0205129 -0.0223422 -0.00687134  -0.0224939 -0.0269377 -0.00584316  -0.0208748 -0.0240739 -0.00521553  -0.0174013 -0.0225992 -0.00517988  -0.020744 -0.0232704 -0.00605142  -0.027969 -0.0306824 -0.00732231  -0.0301254 -0.0356194 -0.00618303  -0.0283743 -0.0322921 -0.00554234  -0.0256156 -0.0341506 -0.00615036  -0.0260521 -0.0356793 -0.00465286  -0.0201559 -0.0293912 -0.00547385  -0.0218387 -0.0344028 -0.00462759  -0.0205473 -0.0309799 -0.00415069  -0.0282316 -0.0315393 -0.00643814  -0.0239473 -0.0299848 -0.00639737  -0.0258796 -0.0349621 -0.00540447  -0.0243706 -0.0315824 -0.00484532  -0.0203892 -0.0302411 -0.00481701  -0.0242058 -0.0308375 -0.0056262  -0.0316989 -0.0391284 -0.00675142  -0.0337617 -0.0444008 -0.00567877  -0.0321281 -0.0405966 -0.00510186  -0.0288406 -0.0430922 -0.00565815  -0.0292866 -0.0444907 -0.00427157  -0.0230178 -0.037994 -0.00505424  -0.0246475 -0.0433508 -0.00425303  -0.0234323 -0.0394567 -0.00382161  -0.0319684 -0.0399081 -0.00592899  -0.0272463 -0.0385149 -0.00590289  -0.0291055 -0.0438322 -0.00496721  -0.0276908 -0.0399792 -0.00446141  -0.0232585 -0.0387751 -0.00444078  -0.0275124 -0.0392945 -0.00518548  -0.0352408 -0.0483775 -0.00619018  -0.0371997 -0.0539543 -0.00519264  -0.0356699 -0.049713 -0.00467229  -0.0319132 -0.0527989 -0.00517905  -0.0323511 -0.0540758 -0.00390375  -0.0257683 -0.0474029 -0.00463843  -0.0273317 -0.0530691 -0.00388992  -0.0261818 -0.048742 -0.00349897  -0.0355062 -0.0490861 -0.00543404  -0.0303967 -0.0478487 -0.00541675  -0.0321705 -0.0534725 -0.00454378  -0.0308391 -0.0491852 -0.0040856  -0.0260056 -0.0481165 -0.00407052  -0.0306579 -0.0485594 -0.0047524  -0.0385901 -0.0583537 -0.00565422  -0.0404432 -0.0642126 -0.00473058  -0.0390074 -0.0595703 -0.00426239  -0.0348299 -0.0632053 -0.00472176  -0.0352527 -0.0643644 -0.00355387  -0.0283977 -0.0575433 -0.00423765  -0.0298916 -0.0634876 -0.00354338  -0.028801 -0.0587645 -0.00319046  -0.0388463 -0.0589987 -0.00495934  -0.03339 -0.0579122 -0.00494897  -0.035077 -0.0638159 -0.00413883  -0.0338213 -0.05913 -0.0037266  -0.0286272 -0.0581937 -0.00371552  -0.0336432 -0.0585594 -0.00433826  -0.0417495 -0.0690014 -0.0051434  -0.0434983 -0.0751125 -0.00429285  -0.0421519 -0.0701034 -0.00387311  -0.0375919 -0.0742476 -0.00428665  -0.0379947 -0.0752958 -0.00322396  -0.0309051 -0.0683488 -0.00385487  -0.0323265 -0.0745449 -0.00321567  -0.0312909 -0.0694586 -0.00289994  -0.0419943 -0.069585 -0.00450921  -0.0362296 -0.0686434 -0.00450242  -0.0378271 -0.0747983 -0.00375521  -0.0366436 -0.0697477 -0.00338697  -0.0311245 -0.0689395 -0.00337803  -0.0364709 -0.0692301 -0.00394523  -0.0447265 -0.0802614 -0.00465846  -0.0463718 -0.0865979 -0.00387979  -0.0451075 -0.0812534 -0.00350726  -0.0402049 -0.0858642 -0.00387692  -0.0405853 -0.0868108 -0.00291306  -0.0332879 -0.0797594 -0.00349379  -0.034642 -0.0861788 -0.00290632  -0.0336571 -0.0807619 -0.00262439  -0.0449581 -0.0807852 -0.0040834  -0.0389173 -0.0799811 -0.0040791  -0.0404252 -0.0863613 -0.00339437  -0.0393091 -0.0809782 -0.00306648  -0.0334986 -0.0802927 -0.00305927  -0.0391446 -0.0805111 -0.0035733  -0.0475247 -0.0920667 -0.0042026  -0.0490714 -0.09861 -0.00348938  -0.0478852 -0.0929615 -0.00316197  -0.0426717 -0.0980044 -0.00348794  -0.0430306 -0.0988522 -0.00261974  -0.0355593 -0.0917141 -0.00315118  -0.036841 -0.0983333 -0.00261307  -0.0359064 -0.0926166 -0.00236499  -0.0477419 -0.0925401 -0.00368261  -0.0414543 -0.0918666 -0.00367987  -0.0428799 -0.0984494 -0.00305247  -0.0418254 -0.0927641 -0.00276369  -0.035756 -0.0921934 -0.00275743  -0.0416702 -0.0923422 -0.00322199  -0.0501556 -0.104374 -0.00377107  -0.0516043 -0.111097 -0.00312173  -0.0504924 -0.105173 -0.00283617  -0.0449988 -0.110608 -0.00312114  -0.0453362 -0.111368 -0.00234377  -0.0377139 -0.104158 -0.00282669  -0.0389282 -0.110955 -0.00233805  -0.0380388 -0.104967 -0.00212204  -0.0503594 -0.104797 -0.00330317  -0.0438496 -0.104247 -0.00330234  -0.0451941 -0.111007 -0.0027324  -0.0442001 -0.105049 -0.00247985  -0.0378983 -0.104589 -0.00247443  -0.0440539 -0.104672 -0.00289094  -0.0526221 -0.117126 -0.00336289  -0.0539793 -0.124008 -0.00277615  -0.0529342 -0.117837 -0.00252926  -0.0471926 -0.123634 -0.00277674  -0.0475074 -0.124304 -0.00208312  -0.0397573 -0.117041 -0.00252283  -0.0409079 -0.123991 -0.00207961  -0.0400633 -0.117761 -0.00189191  -0.052812 -0.117502 -0.00294602  -0.0461106 -0.117067 -0.00294662  -0.0473745 -0.123983 -0.0024296  -0.0464371 -0.117781 -0.00221133  -0.0399311 -0.117423 -0.00220668  -0.0463002 -0.117445 -0.00257897  -0.0549275 -0.130277 -0.00298047  -0.0562004 -0.137294 -0.00244987  -0.0552239 -0.130904 -0.00224155  -0.0492585 -0.137023 -0.00245166  -0.0495514 -0.137615 -0.00184017  -0.0416952 -0.130311 -0.00223613  -0.0427829 -0.137394 -0.00183499  -0.0419799 -0.130948 -0.00167662  -0.0551096 -0.130606 -0.00261128  -0.0482397 -0.130279 -0.00261116  -0.0494283 -0.137329 -0.00214612  -0.0485448 -0.13091 -0.00195962  -0.0418572 -0.130648 -0.00195646  -0.0484164 -0.130613 -0.00228488  -0.0570929 -0.143773 -0.00262237  -0.0582767 -0.150908 -0.00214553  -0.0573637 -0.144321 -0.00197166  -0.0512023 -0.150735 -0.00214863  -0.051471 -0.151249 -0.00161219  -0.0435328 -0.14392 -0.00196636  -0.0445576 -0.151116 -0.00160897  -0.0437968 -0.14448 -0.0014742  -0.0572555 -0.144061 -0.00229704  -0.0502427 -0.143835 -0.00229824  -0.051358 -0.151 -0.00187969  -0.0505252 -0.144388 -0.00172418  -0.0436821 -0.144217 -0.00171983  -0.0504074 -0.144127 -0.00201154  -0.0591111 -0.157574 -0.00228667  -0.0602167 -0.164808 -0.00186312  -0.0593588 -0.158051 -0.00172007  -0.0530288 -0.164723 -0.00186563  -0.0532756 -0.165168 -0.00139946  -0.0452716 -0.157826 -0.00171685  -0.0462391 -0.165116 -0.00139439  -0.0455139 -0.158312 -0.00128645  -0.0592639 -0.157824 -0.00200343  -0.05213 -0.157691 -0.00200546  -0.0531716 -0.164953 -0.00163209  -0.052387 -0.158171 -0.00150383  -0.045409 -0.158083 -0.00150073  -0.0522785 -0.157944 -0.00175381  -0.0609987 -0.17164 -0.00197315  -0.0620236 -0.178953 -0.00160015  -0.0612252 -0.172046 -0.00148481  -0.0547445 -0.17895 -0.00160241  -0.0549695 -0.17933 -0.00120246  -0.0469186 -0.171984 -0.00148153  -0.0478282 -0.17935 -0.00120127  -0.0471408 -0.172402 -0.00111085  -0.0611353 -0.171851 -0.00172985  -0.0538986 -0.171805 -0.00173163  -0.0548749 -0.179144 -0.00140178  -0.0541351 -0.172216 -0.00129956  -0.0470433 -0.172205 -0.0012964  -0.0540373 -0.172021 -0.00151515  -0.0627534 -0.185923 -0.00168538  -0.063709 -0.193301 -0.00135601  -0.0629642 -0.186269 -0.00126809  -0.0563543 -0.193373 -0.0013597  -0.0565596 -0.193695 -0.00101936  -0.0484757 -0.186354 -0.00126743  -0.0493312 -0.19378 -0.00101745  -0.0486789 -0.186711 -0.000948489  -0.0628819 -0.186103 -0.00147557  -0.055563 -0.186134 -0.00147939  -0.0564737 -0.193536 -0.00118887  -0.0557766 -0.186485 -0.00110859  -0.0485897 -0.186542 -0.00110674  -0.0556867 -0.186317 -0.0012939  -0.0643921 -0.200391 -0.00141835  -0.065279 -0.20782 -0.00113189  -0.0645804 -0.20068 -0.00106788  -0.0578661 -0.20796 -0.00113595  -0.0580497 -0.208227 -0.000852585  -0.0499449 -0.200902 -0.0010668  -0.0507512 -0.208373 -0.000850439  -0.0501328 -0.2012 -0.000798881  -0.0645092 -0.200542 -0.00124347  -0.0571222 -0.200643 -0.00124753  -0.0579729 -0.208094 -0.000995755  -0.0573156 -0.200936 -0.000934601  -0.050051 -0.201058 -0.000932336  -0.0572345 -0.200796 -0.00109017  -0.065918 -0.215012 -0.00117421  -0.0667403 -0.222478 -0.00092876  -0.0660877 -0.215248 -0.000883877  -0.0592842 -0.222677 -0.000933766  -0.0594485 -0.222893 -0.00070101  -0.0513401 -0.215588 -0.000884891  -0.0520954 -0.223093 -0.000699759  -0.0515025 -0.215835 -0.000662684  -0.0660229 -0.215134 -0.00102997  -0.0585847 -0.215298 -0.00103259  -0.0593789 -0.222784 -0.00081706  -0.0587587 -0.215539 -0.000774264  -0.0514326 -0.215718 -0.000773668  -0.058686 -0.215424 -0.00090313  -0.067342 -0.22975 -0.000952959  -0.0681019 -0.237239 -0.000747681  -0.0674908 -0.229939 -0.000720024  -0.0606158 -0.237492 -0.000753045  -0.0607605 -0.237664 -0.000563681  -0.0526576 -0.230388 -0.000721335  -0.0533664 -0.237912 -0.000563383  -0.0528011 -0.230588 -0.000539124  -0.0674319 -0.229846 -0.000836849  -0.0599582 -0.230068 -0.000842333  -0.0606995 -0.237574 -0.000656486  -0.0601134 -0.230262 -0.000629902  -0.0527396 -0.230491 -0.000629783  -0.0600491 -0.230168 -0.00073576  -0.0686641 -0.244578 -0.000754356  -0.0693719 -0.252078 -0.000581503  -0.0688 -0.244723 -0.000570536  -0.0618691 -0.252379 -0.000588536  -0.0619936 -0.25251 -0.00044179  -0.0539048 -0.245266 -0.000573516  -0.0545697 -0.252802 -0.000440955  -0.0540297 -0.245424 -0.000427783  -0.0687487 -0.244651 -0.000662208  -0.0612504 -0.244922 -0.000668049  -0.0619414 -0.25244 -0.000514627  -0.0613854 -0.245073 -0.000500619  -0.0539768 -0.245348 -0.000499964  -0.0613306 -0.244999 -0.000583649  -0.0699072 -0.259465 -0.000581145  -0.0705585 -0.266973 -0.000440717  -0.0700171 -0.259575 -0.000439942  -0.0630467 -0.267313 -0.000445008  -0.063153 -0.26741 -0.00033468  -0.0550871 -0.260201 -0.000442982  -0.0557129 -0.267735 -0.000334382  -0.0551944 -0.260322 -0.000330329  -0.0699735 -0.25952 -0.000510335  -0.0624647 -0.259834 -0.00051558  -0.063108 -0.267355 -0.000390291  -0.0625801 -0.259949 -0.000386894  -0.0551484 -0.260263 -0.000386357  -0.062535 -0.259892 -0.00045085  -0.0710659 -0.274393 -0.000429392  -0.0716703 -0.281897 -0.000318885  -0.071156 -0.274472 -0.000325143  -0.0641603 -0.28227 -0.000324011  -0.064249 -0.282337 -0.00024277  -0.0562115 -0.275167 -0.000329256  -0.0568011 -0.282693 -0.000242949  -0.0563014 -0.275256 -0.00024581  -0.0711229 -0.274431 -0.000377774  -0.0636103 -0.274782 -0.000383496  -0.0642116 -0.282298 -0.000282645  -0.063709 -0.274865 -0.000287116  -0.0562625 -0.275211 -0.000286937  -0.0636683 -0.274823 -0.000334859  -0.072155 -0.28934 -0.000299692  -0.0727141 -0.296829 -0.000212908  -0.0722294 -0.289389 -0.000230372  -0.0652156 -0.297233 -0.000221252  -0.0652869 -0.297274 -0.000166059  -0.0572822 -0.290144 -0.000233293  -0.0578368 -0.297656 -0.000168085  -0.057354 -0.290205 -0.000174284  -0.0721991 -0.289361 -0.000264525  -0.0646942 -0.289744 -0.00026989  -0.0652566 -0.297245 -0.000193477  -0.0647757 -0.289799 -0.000202894  -0.0573244 -0.290174 -0.000202894  -0.0647411 -0.28977 -0.000236511  -0.0731759 -0.304284 -0.000192404  -0.0736997 -0.311758 -0.000131249  -0.0732377 -0.304312 -0.000151694  -0.0662196 -0.312178 -0.000137568  -0.0662749 -0.312205 -0.000104666  -0.0583053 -0.305114 -0.000153899  -0.0588303 -0.312604 -0.000103951  -0.0583632 -0.305151 -0.000114202  -0.0732136 -0.304296 -0.000172019  -0.0657222 -0.304702 -0.000178218  -0.0662513 -0.312184 -0.000121236  -0.0657852 -0.304735 -0.000133991  -0.0583382 -0.305132 -0.000133991  -0.0657604 -0.304716 -0.00015521  -0.074147 -0.319211 -0.000111818  -0.0746422 -0.326666 -6.90222e-05  -0.0741956 -0.319225 -8.89301e-05  -0.0671811 -0.327101 -7.53403e-05  -0.0672233 -0.327111 -5.87106e-05  -0.0592856 -0.320059 -9.2268e-05  -0.0597858 -0.327528 -5.73397e-05  -0.0593331 -0.320081 -6.9499e-05  -0.0741782 -0.319216 -0.000100374  -0.0667038 -0.319639 -0.000106335  -0.0672047 -0.3271 -6.80685e-05  -0.0667529 -0.319656 -7.99298e-05  -0.0593114 -0.320069 -7.99894e-05  -0.0667324 -0.319645 -9.29832e-05  -0.0750785 -0.33411 -5.03063e-05  -0.0755472 -0.341544 -2.63453e-05  -0.0751121 -0.334113 -4.43459e-05  -0.0681062 -0.341986 -3.05176e-05  -0.0681393 -0.341991 -2.51532e-05  -0.0602314 -0.334971 -4.55379e-05  -0.0607119 -0.342414 -2.21729e-05  -0.060267 -0.334981 -3.45111e-05  -0.0750988 -0.334107 -4.63724e-05  -0.0676463 -0.334543 -5.14984e-05  -0.0681236 -0.34198 -2.87294e-05  -0.0676844 -0.334549 -3.99947e-05  -0.0602534 -0.334974 -3.99351e-05  -0.0676677 -0.334543 -4.6134e-05  -0.0759785 -0.348969 -1.37091e-05  -0.0764313 -0.356384 -2.02656e-06  -0.0760036 -0.348971 -1.52588e-05  -0.0690074 -0.356827 3.57628e-07  -0.0690322 -0.356832 -1.37091e-06  -0.0611508 -0.34984 -1.22786e-05  -0.061614 -0.357258 3.21865e-06  -0.0611784 -0.349845 -9.35793e-06  -0.0759892 -0.348967 -1.54972e-05  -0.0685592 -0.349406 -1.58548e-05  -0.0690193 -0.356823 -3.57628e-07  -0.0685883 -0.349409 -1.34706e-05  -0.0611646 -0.34984 -1.0252e-05  -0.0685735 -0.349406 -1.32322e-05  -0.0768592 -0.363791 1.0252e-05  -0.0773096 -0.3712 1.96695e-05  -0.0768828 -0.363796 5.60284e-06  -0.0698938 -0.371643 2.70605e-05  -0.0699191 -0.371645 2.19345e-05  -0.0620446 -0.364666 1.64509e-05  -0.0625026 -0.372068 2.49147e-05  -0.0620718 -0.36467 1.13845e-05  -0.0768702 -0.363793 8.10623e-06  -0.0694504 -0.364231 1.27554e-05  -0.069905 -0.371635 2.37226e-05  -0.0694737 -0.364235 8.82149e-06  -0.0620589 -0.364665 1.39475e-05  -0.0694621 -0.364231 1.04904e-05  0 0 0  -0.00236261 -0.000303999 -0.00414562  -0.00153872 -0.0013604 -0.00244474  0 0 0  -0.000668891 0.000394583 -0.00206757  -0.00136878 -0.000419706 -0.00261211  -0.000353374 -0.000212133 -0.00113463  0 0 0  -0.000864789 8.99285e-05 -0.00251281  -0.00182068 -0.000915289 -0.00320542  -0.000468977 -0.000528559 -0.00137705  0 0 0  -0.000418108 -1.15037e-05 -0.00149989  -0.000544481 -0.000304535 -0.00181973  -0.00512943 -0.00267468 -0.00501144  -0.00449014 -0.00422813 -0.00370049  -0.00289576 -0.000712916 -0.00375342  -0.00361045 -0.00290081 -0.00358212  -0.00219071 -0.00203788 -0.00258833  -0.00383005 -0.00128676 -0.00462019  -0.00476937 -0.00353354 -0.00441992  -0.00294872 -0.00265229 -0.00318348  -0.00248747 -0.00146456 -0.00318635  -0.00331242 -0.00205629 -0.00391591  -0.00767118 -0.00638002 -0.00532854  -0.00750995 -0.00815424 -0.00404263  -0.00488582 -0.00376135 -0.00420213  -0.00585315 -0.00676149 -0.00379074  -0.00459695 -0.00539948 -0.00317478  -0.00638866 -0.00435238 -0.00523424  -0.00759578 -0.0073466 -0.00471115  -0.00603187 -0.00604253 -0.00392902  -0.00473449 -0.00466985 -0.00372982  -0.00619718 -0.00528364 -0.00462425  -0.0102368 -0.011404 -0.0052669  -0.0103353 -0.0132041 -0.00402635  -0.00694117 -0.00819215 -0.00426066  -0.00803325 -0.0118544 -0.0037365  -0.00693461 -0.00995395 -0.00326622  -0.00895715 -0.00872795 -0.00532746  -0.0103106 -0.0123757 -0.00466406  -0.00893852 -0.0105287 -0.00406307  -0.00695318 -0.00915559 -0.00378478  -0.0089649 -0.00970925 -0.00471759  -0.0127847 -0.0176246 -0.00503647  -0.0130352 -0.0193648 -0.00384438  -0.00899214 -0.0138859 -0.00412703  -0.0101476 -0.0180943 -0.00355911  -0.00915557 -0.0156391 -0.00316501  -0.0115137 -0.0143671 -0.00516748  -0.0129404 -0.0185586 -0.0044508  -0.011699 -0.016145 -0.00394928  -0.00909698 -0.0148371 -0.00365913  -0.0116347 -0.0153293 -0.0045718  -0.0152988 -0.024907 -0.00472474  -0.0156275 -0.0265462 -0.00359333  -0.0110331 -0.0207041 -0.00390196  -0.012211 -0.0253754 -0.00332856  -0.0112892 -0.0223853 -0.00298148  -0.0140474 -0.0211352 -0.00488782  -0.0154932 -0.0257829 -0.00416529  -0.0143442 -0.0228277 -0.00372463  -0.0111851 -0.0216106 -0.00344956  -0.0142263 -0.0220458 -0.00431383  -0.0177563 -0.0331374 -0.00438166  -0.0181193 -0.0346595 -0.00332016  -0.0130504 -0.0285261 -0.00363731  -0.0142256 -0.0335962 -0.00307965  -0.0133523 -0.0301033 -0.00276577  -0.016537 -0.0289042 -0.00455546  -0.0179653 -0.0339474 -0.00385332  -0.0168861 -0.0304863 -0.00345856  -0.0132246 -0.029373 -0.0032059  -0.016739 -0.0297521 -0.00401175  -0.0201407 -0.0422175 -0.00403309  -0.0205135 -0.04362 -0.00304687  -0.0150311 -0.0372467 -0.00335908  -0.0161871 -0.0426688 -0.00282943  -0.015352 -0.0387093 -0.00254488  -0.0189584 -0.0375703 -0.00420654  -0.0203524 -0.0429617 -0.00354171  -0.0193287 -0.0390326 -0.00318313  -0.0152132 -0.0380304 -0.00295377  -0.0191703 -0.0383527 -0.00369775  -0.0224415 -0.0520662 -0.00369251  -0.0228108 -0.0533511 -0.0027827  -0.0169662 -0.0467783 -0.00308216  -0.0180918 -0.0525121 -0.00258577  -0.0172875 -0.0481233 -0.00232804  -0.0213016 -0.0470452 -0.00386083  -0.0226495 -0.0527478 -0.00323832  -0.0216734 -0.0483871 -0.00291401  -0.0171455 -0.0474978 -0.00270629  -0.021512 -0.0477616 -0.00338864  -0.024655 -0.0626154 -0.00336587  -0.0250117 -0.0637854 -0.0025329  -0.0188458 -0.0570424 -0.00281489  -0.0199374 -0.0630562 -0.00235403  -0.0191617 -0.0582738 -0.00212091  -0.0235593 -0.0572524 -0.00352764  -0.0248542 -0.0632328 -0.00295067  -0.0239224 -0.0584779 -0.00265688  -0.0190215 -0.0577002 -0.00246871  -0.0237633 -0.0579054 -0.003093  -0.026778 -0.0737942 -0.0030551  -0.0271192 -0.0748562 -0.00229645  -0.0206696 -0.0679723 -0.00256002  -0.0217251 -0.0742358 -0.00213397  -0.0209734 -0.0690925 -0.00192642  -0.0257283 -0.0681231 -0.00320923  -0.0269684 -0.0743559 -0.00267601  -0.0260773 -0.0692388 -0.00241286  -0.0208387 -0.0685694 -0.00224328  -0.0259222 -0.0687185 -0.00281155  -0.0288134 -0.0855479 -0.00276279  -0.0291359 -0.0865052 -0.00207365  -0.0224364 -0.0795016 -0.00231743  -0.0234519 -0.0859888 -0.00192678  -0.0227264 -0.0805168 -0.00174087  -0.0278064 -0.0795981 -0.00290763  -0.0289929 -0.0860536 -0.00241792  -0.0281388 -0.0806071 -0.00218433  -0.0225959 -0.0800427 -0.00203001  -0.0279918 -0.0801353 -0.00254595  -0.0307621 -0.0978161 -0.00248468  -0.0310658 -0.0986752 -0.00186402  -0.0241425 -0.0915727 -0.00209022  -0.025122 -0.0982562 -0.00173271  -0.0244159 -0.0924882 -0.0015682  -0.0297987 -0.0916137 -0.00262189  -0.0309304 -0.0982683 -0.00217462  -0.0301108 -0.0925233 -0.00196707  -0.0242954 -0.0920604 -0.00182927  -0.0299724 -0.0920984 -0.00229466  -0.0326242 -0.110542 -0.00222278  -0.0329096 -0.111312 -0.00166732  -0.0257933 -0.104127 -0.00187278  -0.0267332 -0.110985 -0.00154805  -0.0260507 -0.104949 -0.00140584  -0.0317037 -0.104118 -0.00235224  -0.0327827 -0.110946 -0.00194383  -0.031997 -0.104933 -0.00176477  -0.0259347 -0.104565 -0.00163996  -0.0318663 -0.104551 -0.00205791  -0.0344052 -0.123677 -0.00197721  -0.0346715 -0.124362 -0.00148219  -0.0273882 -0.117115 -0.00167072  -0.0282892 -0.124122 -0.00137615  -0.0276265 -0.117848 -0.00125277  -0.0335245 -0.117055 -0.00209892  -0.0345528 -0.124036 -0.00172913  -0.0338 -0.117782 -0.00157344  -0.027518 -0.117504 -0.00146115  -0.0336784 -0.117442 -0.00183582  -0.036108 -0.137174 -0.00174677  -0.0363536 -0.137776 -0.00130779  -0.0289227 -0.130482 -0.00148058  -0.0297912 -0.137619 -0.00121534  -0.0291439 -0.131132 -0.001109  -0.0352657 -0.130376 -0.00186086  -0.0362432 -0.137488 -0.00152576  -0.0355213 -0.13102 -0.00139344  -0.0290468 -0.130828 -0.00129437  -0.0354078 -0.130719 -0.00162697  -0.0377312 -0.150982 -0.00152993  -0.0379586 -0.151512 -0.00114536  -0.0304077 -0.144182 -0.00130153  -0.0312366 -0.151428 -0.00106251  -0.0306108 -0.144755 -0.000974536  -0.0369284 -0.144035 -0.00163639  -0.037858 -0.151257 -0.00133646  -0.0371654 -0.144601 -0.00122559  -0.0305197 -0.144486 -0.00113821  -0.0370598 -0.144335 -0.00143039  -0.0392826 -0.16506 -0.00132811  -0.0394902 -0.165519 -0.000994265  -0.0318363 -0.15817 -0.00113595  -0.0326304 -0.165508 -0.000921845  -0.0320246 -0.15867 -0.000849426  -0.0385151 -0.157984 -0.00142753  -0.0393972 -0.165299 -0.00116146  -0.0387335 -0.158477 -0.00106937  -0.0319388 -0.158437 -0.000992417  -0.0386364 -0.158245 -0.00124764  -0.0407631 -0.17937 -0.00114226  -0.0409505 -0.179763 -0.0008533  -0.0332129 -0.172406 -0.000979781  -0.033973 -0.179816 -0.000792027  -0.033385 -0.172838 -0.000732839  -0.04003 -0.172183 -0.00123417  -0.0408661 -0.179572 -0.000997782  -0.0402281 -0.172608 -0.000923038  -0.0333083 -0.172634 -0.00085628  -0.0401404 -0.172408 -0.00107741  -0.0421717 -0.193868 -0.000968337  -0.0423453 -0.194201 -0.0007236  -0.0345407 -0.186845 -0.000835776  -0.0352659 -0.194313 -0.00067091  -0.034694 -0.187215 -0.000625432  -0.0414739 -0.18659 -0.00105476  -0.0422668 -0.194037 -0.00084579  -0.0416551 -0.186953 -0.000788033  -0.034626 -0.187042 -0.000730038  -0.0415754 -0.186782 -0.000921488  -0.0435159 -0.208519 -0.000809908  -0.0436707 -0.208799 -0.000605822  -0.0358157 -0.201455 -0.000704527  -0.03651 -0.208963 -0.00056088  -0.0359554 -0.201768 -0.000526607  -0.0428526 -0.201171 -0.000887513  -0.0436025 -0.208662 -0.000708103  -0.0430157 -0.201477 -0.000663698  -0.0358937 -0.201619 -0.000615954  -0.042943 -0.201331 -0.000775099  -0.0447998 -0.223293 -0.000666142  -0.0449367 -0.223524 -0.000497162  -0.0370445 -0.216199 -0.000583649  -0.0377071 -0.223737 -0.000462294  -0.037168 -0.216459 -0.000436187  -0.0441651 -0.215887 -0.000737548  -0.0448759 -0.223411 -0.000581026  -0.0443108 -0.216141 -0.000550151  -0.0371139 -0.216336 -0.000509143  -0.0442455 -0.216021 -0.000643253  -0.046025 -0.238163 -0.000539303  -0.0461442 -0.238346 -0.000400066  -0.0382311 -0.231048 -0.000476241  -0.0388615 -0.238602 -0.000370264  -0.0383365 -0.231259 -0.000354707  -0.0454197 -0.230714 -0.000601172  -0.0460904 -0.238252 -0.000468373  -0.0455468 -0.230919 -0.000447333  -0.038291 -0.231159 -0.000414848  -0.0454898 -0.230821 -0.000523686  -0.0471942 -0.253094 -0.000422001  -0.0472968 -0.253239 -0.000313938  -0.0393677 -0.24597 -0.000378013  -0.039973 -0.253531 -0.000290155  -0.039464 -0.24614 -0.000281453  -0.0466161 -0.245614 -0.000478625  -0.0472522 -0.253163 -0.000366926  -0.046726 -0.245778 -0.000356078  -0.0394239 -0.246059 -0.00033021  -0.0466776 -0.245701 -0.000416636  -0.0483124 -0.268064 -0.000321507  -0.0484009 -0.268173 -0.00023824  -0.0404663 -0.260943 -0.000293374  -0.0410457 -0.268499 -0.000221014  -0.0405512 -0.261073 -0.000216782  -0.0477595 -0.260569 -0.000369549  -0.0483615 -0.268116 -0.000279546  -0.0478547 -0.260696 -0.000275075  -0.0405135 -0.26101 -0.000254989  -0.0478115 -0.260634 -0.000322104  -0.0493851 -0.283053 -0.000233531  -0.0494583 -0.283132 -0.000173151  -0.0415308 -0.275939 -0.000216365  -0.0420814 -0.283484 -0.00015974  -0.0415988 -0.276037 -0.000161409  -0.0488541 -0.275552 -0.000277281  -0.0494268 -0.283088 -0.000204325  -0.0489349 -0.275646 -0.000204444  -0.0415678 -0.275989 -0.000188351  -0.048898 -0.275599 -0.000239849  -0.0504169 -0.298041 -0.000162601  -0.0504749 -0.298094 -0.000119448  -0.0425546 -0.290941 -0.000154853  -0.0430858 -0.298469 -0.000110149  -0.0426114 -0.291011 -0.000114679  -0.0499074 -0.290541 -0.000197053  -0.0504487 -0.298062 -0.000139952  -0.0499711 -0.290608 -0.000144839  -0.042588 -0.290977 -0.000133634  -0.0499415 -0.290576 -0.000169992  -0.0514097 -0.313012 -0.000101924  -0.0514565 -0.313043 -7.56383e-05  -0.0435519 -0.305931 -0.000103831  -0.0440598 -0.313438 -6.83069e-05  -0.0435951 -0.30598 -7.56383e-05  -0.0509181 -0.305522 -0.000130296  -0.0514343 -0.313021 -8.90493e-05  -0.0509689 -0.305566 -9.69172e-05  -0.0435755 -0.305955 -8.95262e-05  -0.0509472 -0.305543 -0.000113487  -0.0523686 -0.327949 -5.71012e-05  -0.0524051 -0.327967 -4.20213e-05  -0.0445166 -0.320896 -6.13928e-05  -0.0450053 -0.328375 -3.75509e-05  -0.0445518 -0.320925 -4.59552e-05  -0.051893 -0.320478 -8.04663e-05  -0.052388 -0.327952 -4.80413e-05  -0.0519331 -0.320505 -5.77569e-05  -0.0445356 -0.320909 -5.36442e-05  -0.0519154 -0.320491 -6.93798e-05  -0.053299 -0.342846 -2.20537e-05  -0.0533268 -0.342856 -1.65105e-05  -0.0454519 -0.335822 -2.88486e-05  -0.0459263 -0.343272 -1.43051e-05  -0.0454781 -0.335838 -2.11596e-05  -0.0528369 -0.335396 -3.82662e-05  -0.0533135 -0.342844 -1.91927e-05  -0.0528688 -0.33541 -2.85506e-05  -0.0454693 -0.335828 -2.45571e-05  -0.0528557 -0.335401 -3.33786e-05  -0.0542023 -0.357694 6.31809e-06  -0.0542285 -0.3577 4.11272e-06  -0.0463684 -0.350702 -4.64916e-06  -0.046828 -0.358122 6.91414e-06  -0.0463889 -0.350708 -4.17233e-06  -0.0537534 -0.350272 -9.65595e-06  -0.0542159 -0.357692 5.84126e-06  -0.0537789 -0.350277 -6.25849e-06  -0.0463796 -0.350703 -4.29153e-06  -0.0537667 -0.350272 -7.03335e-06  -0.0550919 -0.372501 3.69549e-05  -0.0551202 -0.372502 2.37226e-05  -0.0472589 -0.365528 1.9908e-05  -0.0477169 -0.372919 2.68221e-05  -0.0472844 -0.36553 1.36495e-05  -0.054647 -0.365097 1.87159e-05  -0.0551066 -0.372494 2.90871e-05  -0.0546727 -0.365101 1.35899e-05  -0.0472717 -0.365527 1.69277e-05  -0.0546627 -0.365097 1.66893e-05  0 0 0  -0.00128373 0.000493407 -0.00250268  -0.000797451 -0.000519872 -0.00149924  0 0 0  -0.00030753 0.00070399 -0.00103498  -0.000612013 9.87947e-05 -0.00130534  -0.000153579 0.000109226 -0.00057447  0 0 0  -0.000478994 0.000588715 -0.00153887  -0.000971474 -0.000100076 -0.00195599  -0.000244237 -1.07586e-05 -0.000852466  0 0 0  -0.000185981 0.000289708 -0.000755906  -0.00029308 0.000176817 -0.00112283  -0.00279002 -0.00161585 -0.00303555  -0.00241828 -0.00308728 -0.00226325  -0.00130774 -4.4018e-05 -0.00187278  -0.00163028 -0.00214842 -0.00180399  -0.000975162 -0.00134355 -0.00130737  -0.00207067 -0.000306398 -0.00280309  -0.00258455 -0.00244296 -0.00269508  -0.00155689 -0.00161269 -0.00194979  -0.00111666 -0.000793368 -0.00160122  -0.00177364 -0.00105456 -0.00239217  -0.00426486 -0.00538227 -0.0032053  -0.00418523 -0.00707871 -0.00245613  -0.00221848 -0.00301147 -0.00210154  -0.00269499 -0.00602323 -0.00190604  -0.00209719 -0.00461224 -0.00160497  -0.0035103 -0.00330973 -0.00315177  -0.00423259 -0.00631648 -0.00285232  -0.00330812 -0.0049237 -0.00239348  -0.00215745 -0.0039112 -0.00187767  -0.00340611 -0.00421199 -0.00280654  -0.00580311 -0.010513 -0.00315273  -0.00588885 -0.0122621 -0.00243044  -0.00321072 -0.00751168 -0.00212479  -0.00377607 -0.0112086 -0.00187087  -0.00323862 -0.00923526 -0.00164604  -0.00503349 -0.00778386 -0.00319505  -0.00586325 -0.0114642 -0.00280559  -0.00504562 -0.00952134 -0.00245953  -0.00323638 -0.008463 -0.00189948  -0.00505275 -0.00873861 -0.00284481  -0.00734943 -0.016833 -0.00301075  -0.00753468 -0.0185437 -0.00231218  -0.00424045 -0.0132959 -0.00205314  -0.00485462 -0.0175412 -0.00177717  -0.00436193 -0.0150226 -0.001589  -0.00657499 -0.0135272 -0.00309026  -0.00746 -0.0177548 -0.00266898  -0.00671792 -0.0152645 -0.00237906  -0.0043152 -0.0142378 -0.00182962  -0.00666481 -0.0144722 -0.00274539  -0.00889796 -0.0242126 -0.00282168  -0.0091365 -0.0258385 -0.00215602  -0.00529361 -0.0201994 -0.00193858  -0.00593835 -0.0249097 -0.00165784  -0.00546938 -0.0218653 -0.0014922  -0.00812328 -0.0203913 -0.00292039  -0.00903577 -0.0250841 -0.0024935  -0.00833964 -0.0220637 -0.0022375  -0.00539535 -0.0211012 -0.00172067  -0.00825059 -0.021295 -0.00258517  -0.0104413 -0.0325422 -0.00261557  -0.0107046 -0.0340613 -0.00198853  -0.00636882 -0.0281042 -0.00180435  -0.00703299 -0.033217 -0.00153041  -0.00657362 -0.0296762 -0.0013805  -0.00967026 -0.0282591 -0.00272012  -0.01059 -0.0333528 -0.00230551  -0.00992411 -0.0298332 -0.00207365  -0.00648415 -0.0289507 -0.00159585  -0.00981528 -0.0291053 -0.00240028  -0.0119724 -0.0417243 -0.002406  -0.0122443 -0.0431303 -0.00182235  -0.00746369 -0.0369094 -0.00166404  -0.0081374 -0.0423774 -0.00140333  -0.00767928 -0.0383728 -0.00126666  -0.0112085 -0.0370255 -0.00251114  -0.0121236 -0.0424732 -0.00211644  -0.0114782 -0.0384889 -0.00190532  -0.00758344 -0.0376947 -0.00146687  -0.0113599 -0.0378104 -0.00221002  -0.013485 -0.0516801 -0.00220144  -0.0137548 -0.0529715 -0.00166243  -0.00857067 -0.0465279 -0.00152504  -0.00925016 -0.0523114 -0.001279  -0.00879085 -0.0478784 -0.00115597  -0.0127308 -0.0466061 -0.00230324  -0.0136341 -0.052366 -0.00193334  -0.0130024 -0.0479535 -0.00174218  -0.00869262 -0.0472514 -0.00134134  -0.0128821 -0.0473268 -0.00202417  -0.0149741 -0.0623358 -0.00200438  -0.0152354 -0.0635149 -0.0015108  -0.0096916 -0.056882 -0.00138819  -0.0103686 -0.0629464 -0.00116086  -0.00990593 -0.0581206 -0.00104934  -0.014233 -0.0569192 -0.00210249  -0.015117 -0.0629602 -0.0017581  -0.0144981 -0.0581536 -0.00158584  -0.0098083 -0.0575445 -0.00121987  -0.0143788 -0.0575788 -0.00184441  -0.0164354 -0.0736213 -0.00181866  -0.0166862 -0.0746933 -0.00136733  -0.0108154 -0.0679009 -0.00125945  -0.0114894 -0.0742159 -0.00105011  -0.0110219 -0.0690313 -0.000950456  -0.0157075 -0.0678964 -0.00191069  -0.0165722 -0.0741878 -0.00159264  -0.0159647 -0.0690223 -0.00143838  -0.0109286 -0.0685045 -0.00110555  -0.0158477 -0.0684973 -0.00167501  -0.0178704 -0.0854759 -0.00164151  -0.0181072 -0.086446 -0.00123358  -0.0119411 -0.0795193 -0.00113845  -0.0126103 -0.0860564 -0.00094533  -0.0121387 -0.0805452 -0.000856638  -0.0171555 -0.0794743 -0.00172853  -0.0179992 -0.0859878 -0.00143623  -0.0174003 -0.0804951 -0.00129932  -0.0120504 -0.0800667 -0.000997782  -0.0172898 -0.080019 -0.00151432  -0.0192744 -0.097842 -0.0014739  -0.0194974 -0.0987154 -0.00110686  -0.0130705 -0.0916761 -0.00102305  -0.0137322 -0.098408 -0.000848413  -0.0132546 -0.0926032 -0.000768602  -0.0185765 -0.0915917 -0.00155663  -0.0193957 -0.0983018 -0.00129056  -0.0188062 -0.0925141 -0.00116915  -0.0131716 -0.0921705 -0.000896335  -0.0187014 -0.0920836 -0.00136268  -0.0206494 -0.110663 -0.00131738  -0.0208569 -0.111444 -0.000988305  -0.0141975 -0.104314 -0.000913978  -0.0148498 -0.111217 -0.000754595  -0.01437 -0.105148 -0.000686586  -0.0199653 -0.104191 -0.00139558  -0.0207628 -0.111074 -0.00115287  -0.0201811 -0.105019 -0.00104678  -0.0142914 -0.104759 -0.000799894  -0.0200832 -0.104633 -0.00122058  -0.0219936 -0.123886 -0.0011704  -0.0221865 -0.124585 -0.000876427  -0.0153193 -0.117379 -0.00081265  -0.0159634 -0.124431 -0.000669718  -0.0154802 -0.118124 -0.000609815  -0.0213255 -0.11722 -0.00124264  -0.022099 -0.124253 -0.00102353  -0.0215254 -0.117961 -0.000932097  -0.015406 -0.117776 -0.000711083  -0.0214339 -0.117615 -0.00108683  -0.0233074 -0.137464 -0.00103188  -0.0234859 -0.138082 -0.000773191  -0.0164365 -0.130821 -0.000717402  -0.0170715 -0.137999 -0.000588536  -0.0165846 -0.131483 -0.000538051  -0.0226539 -0.130628 -0.00110018  -0.023405 -0.137788 -0.000901699  -0.022841 -0.131285 -0.000824273  -0.0165176 -0.131173 -0.000627398  -0.0227557 -0.130978 -0.0009619  -0.0245903 -0.151352 -0.000902534  -0.0247538 -0.151893 -0.000676334  -0.0175474 -0.14459 -0.000628829  -0.0181699 -0.151876 -0.000513315  -0.0176837 -0.145174 -0.000471294  -0.0239515 -0.144366 -0.000967145  -0.0246797 -0.151633 -0.000789046  -0.0241237 -0.144945 -0.000723302  -0.0176215 -0.144901 -0.000549436  -0.0240457 -0.144674 -0.000844955  -0.0258415 -0.165501 -0.000783324  -0.0259905 -0.165972 -0.000585675  -0.018647 -0.158642 -0.000547647  -0.0192595 -0.166015 -0.000442743  -0.0187721 -0.159153 -0.000408947  -0.0252194 -0.158389 -0.000841618  -0.0259225 -0.165746 -0.000683546  -0.0253749 -0.158894 -0.000630319  -0.0187149 -0.158913 -0.00047791  -0.0253038 -0.158658 -0.000735641  -0.0270612 -0.179873 -0.000671864  -0.0271962 -0.180279 -0.000501871  -0.0197389 -0.172935 -0.000469804  -0.0203378 -0.180378 -0.00037837  -0.0198498 -0.173378 -0.000351667  -0.0264549 -0.172656 -0.000727057  -0.0271347 -0.180083 -0.00058651  -0.0265973 -0.173094 -0.0005427  -0.0197992 -0.173171 -0.000410795  -0.0265319 -0.172887 -0.00063467  -0.0282493 -0.194429 -0.00056982  -0.0283687 -0.194774 -0.0004251  -0.0208192 -0.187428 -0.000399947  -0.0214021 -0.194925 -0.000319839  -0.0209169 -0.187808 -0.000298202  -0.0276597 -0.187125 -0.000619531  -0.0283148 -0.194607 -0.000496626  -0.0277858 -0.1875 -0.000462949  -0.0208721 -0.18763 -0.000349283  -0.0277293 -0.187323 -0.000540257  -0.0294054 -0.209134 -0.00047636  -0.0295129 -0.209425 -0.00035435  -0.0218787 -0.202085 -0.000335574  -0.0224531 -0.209622 -0.000265598  -0.0219686 -0.202407 -0.000249743  -0.0288305 -0.20176 -0.000522494  -0.0294635 -0.209282 -0.000415206  -0.028944 -0.202076 -0.000389338  -0.021929 -0.202256 -0.000292301  -0.0288928 -0.201927 -0.000455379  -0.0305305 -0.223957 -0.000391006  -0.0306253 -0.224196 -0.000290215  -0.0229278 -0.216872 -0.00027597  -0.0234864 -0.224434 -0.000216246  -0.0230043 -0.217141 -0.000206113  -0.0299706 -0.216527 -0.000432014  -0.030582 -0.224077 -0.000339627  -0.030072 -0.216792 -0.000322044  -0.0229709 -0.217013 -0.000241637  -0.0300269 -0.216666 -0.000377059  -0.0316267 -0.238864 -0.000314116  -0.031707 -0.239059 -0.000233054  -0.0239635 -0.231757 -0.000223994  -0.0245061 -0.239333 -0.000174403  -0.0240304 -0.231978 -0.000166118  -0.031081 -0.231395 -0.000350714  -0.0316691 -0.238962 -0.000272989  -0.0311694 -0.231611 -0.000261366  -0.0239985 -0.231874 -0.000194669  -0.0311282 -0.231509 -0.000306368  -0.032691 -0.25383 -0.000245214  -0.0327609 -0.253985 -0.000181615  -0.0249772 -0.246713 -0.000175238  -0.0255079 -0.254292 -0.000133395  -0.0250354 -0.246889 -0.000130534  -0.032161 -0.246336 -0.000279188  -0.0327287 -0.253906 -0.000213265  -0.032238 -0.246508 -0.000207186  -0.0250084 -0.246805 -0.000152588  -0.0322027 -0.246425 -0.000242352  -0.0337267 -0.268831 -0.000186443  -0.0337875 -0.268951 -0.000138283  -0.0259752 -0.26171 -0.000134945  -0.026495 -0.269285 -0.000100732  -0.0260241 -0.26185 -9.98974e-05  -0.0332119 -0.261321 -0.000216246  -0.0337589 -0.268887 -0.000162244  -0.033277 -0.261457 -0.000160277  -0.0260041 -0.261783 -0.000117183  -0.033247 -0.261393 -0.000188231  -0.0347371 -0.283845 -0.000136375  -0.0347874 -0.283932 -9.95398e-05  -0.0269604 -0.276731 -0.000100017  -0.0274632 -0.28429 -7.29561e-05  -0.0270009 -0.276837 -7.30753e-05  -0.0342331 -0.276332 -0.000160336  -0.0347633 -0.283883 -0.000116348  -0.0342906 -0.276433 -0.000118017  -0.0269809 -0.276786 -8.54731e-05  -0.0342646 -0.276384 -0.000138402  -0.0357232 -0.29885 -9.39369e-05  -0.0357616 -0.298915 -6.75917e-05  -0.0279236 -0.291753 -6.98566e-05  -0.0284169 -0.299293 -5.01871e-05  -0.0279567 -0.291831 -5.13792e-05  -0.0352323 -0.291344 -0.000114679  -0.0357444 -0.298879 -8.05855e-05  -0.0352781 -0.291418 -8.27312e-05  -0.0279427 -0.291792 -5.99623e-05  -0.0352564 -0.291382 -9.81092e-05  -0.0366857 -0.31384 -5.87702e-05  -0.0367143 -0.313881 -4.17233e-05  -0.028873 -0.306759 -4.54187e-05  -0.0293541 -0.314275 -2.8491e-05  -0.0288973 -0.306814 -3.25441e-05  -0.0362062 -0.306343 -7.53403e-05  -0.0367005 -0.313855 -5.11408e-05  -0.0362408 -0.306395 -5.46575e-05  -0.0288877 -0.306786 -3.82662e-05  -0.0362236 -0.306369 -6.47306e-05  -0.0376246 -0.328791 -3.15905e-05  -0.037647 -0.328819 -2.27094e-05  -0.0298054 -0.321736 -2.6226e-05  -0.0302768 -0.329224 -1.5378e-05  -0.029825 -0.321772 -1.86563e-05  -0.0371568 -0.321315 -4.42266e-05  -0.0376363 -0.328799 -2.64645e-05  -0.0371821 -0.321347 -3.18885e-05  -0.0298169 -0.321754 -2.20537e-05  -0.0371714 -0.32133 -3.79086e-05  -0.0385411 -0.343701 -1.04904e-05  -0.0385592 -0.343712 -7.51019e-06  -0.0307221 -0.336674 -1.01328e-05  -0.0311818 -0.344131 -2.98023e-06  -0.0307355 -0.336694 -7.33137e-06  -0.0380855 -0.336246 -2.01464e-05  -0.0385509 -0.343702 -7.7486e-06  -0.0381055 -0.336265 -1.49012e-05  -0.0307307 -0.336682 -8.22544e-06  -0.038095 -0.336254 -1.78814e-05  -0.0394399 -0.35856 8.22544e-06  -0.0394566 -0.358563 5.48363e-06  -0.031626 -0.351561 1.54972e-06  -0.0320764 -0.358986 7.39098e-06  -0.0316343 -0.351569 9.53674e-07  -0.0389929 -0.351132 -1.54972e-06  -0.0394492 -0.358554 6.31809e-06  -0.0390103 -0.351139 -1.01328e-06  -0.0316305 -0.351564 9.53674e-07  -0.0390015 -0.351133 -8.34465e-07  -0.0403228 -0.373353 3.17097e-05  -0.0403438 -0.373354 1.99676e-05  -0.0325129 -0.366392 1.46627e-05  -0.0329595 -0.37377 1.87159e-05  -0.0325241 -0.366391 1.03712e-05  -0.0398829 -0.365958 1.8239e-05  -0.0403349 -0.373345 2.47955e-05  -0.0398996 -0.365961 1.20401e-05  -0.0325184 -0.366387 1.22786e-05  -0.0398924 -0.365957 1.50204e-05  0 0 0  -0.000369087 0.000787616 -0.00079906  -0.000219181 -0.000215322 -0.00048995  0 0 0  2.09287e-05 0.000757515 3.19481e-05  5.45979e-05 0.000199139 3.75509e-05  1.49384e-05 0.000172675 1.51992e-05  0 0 0  -0.000140809 0.000756264 -0.000496626  -0.000273012 0.000193536 -0.000632763  -6.78152e-05 0.000167519 -0.000279069  0 0 0  1.58325e-05 0.000344753 2.19345e-05  -8.31671e-05 0.000341892 -0.00036478  -0.00078468 -0.00117809 -0.000987291  -0.000684738 -0.00262859 -0.000750661  0.000115111 8.88705e-05 4.673e-05  0.00014779 -0.00199682 2.81334e-05  9.00924e-05 -0.00119695 2.03848e-05  -0.000587523 8.35657e-05 -0.000908375  -0.000730023 -0.00200275 -0.000886917  -0.00043343 -0.00120914 -0.000643671  0.000102192 -0.000657439 3.14713e-05  -0.000498682 -0.000665337 -0.000783682  -0.00121251 -0.00494954 -0.00105  -0.00122383 -0.00662205 -0.000821292  0.000214428 -0.00286523 3.48091e-05  0.000220954 -0.00588387 1.40667e-05  0.000167966 -0.00444964 8.82149e-06  -0.000988752 -0.00286397 -0.00103104  -0.0012224 -0.00587904 -0.000946045  -0.000951201 -0.00445598 -0.000798106  0.000188231 -0.00376061 1.88351e-05  -0.000970602 -0.0037621 -0.000928521  -0.00170097 -0.010147 -0.00103521  -0.00177968 -0.0118735 -0.000813723  0.000278503 -0.00739878 2.38419e-05  0.000248492 -0.0111144 7.39098e-06  0.000211865 -0.00910693 -1.07288e-06  -0.00145185 -0.00738126 -0.00104892  -0.00174841 -0.0110914 -0.000931501  -0.0014993 -0.00909752 -0.000823617  0.00024122 -0.00834489 7.39098e-06  -0.00148192 -0.00833112 -0.000944018  -0.0022338 -0.0165366 -0.000986814  -0.00235683 -0.018234 -0.000772297  0.00028491 -0.0132312 1.91927e-05  0.000216126 -0.0174974 5.72205e-06  0.00020206 -0.0149452 -3.21865e-06  -0.00195998 -0.013196 -0.00101495  -0.00230455 -0.0174552 -0.00088346  -0.00206542 -0.014916 -0.000795603  0.000240088 -0.0141692 5.48363e-06  -0.00202203 -0.0141362 -0.000910997  -0.0028134 -0.0239833 -0.000922561  -0.00296187 -0.0256033 -0.000716984  0.000229061 -0.0201839 1.9908e-05  0.000115931 -0.0249165 1.03712e-05  0.000130236 -0.0218417 -8.9407e-07  -0.00251627 -0.0201301 -0.000957489  -0.00289655 -0.024854 -0.000823736  -0.00265533 -0.0217909 -0.000745952  0.000174761 -0.0210826 8.10623e-06  -0.0025956 -0.0210297 -0.000854969  -0.00344092 -0.0323796 -0.000852108  -0.00360197 -0.0338981 -0.00065738  9.72152e-05 -0.0281373 2.38419e-05  -5.65648e-05 -0.0332761 1.60933e-05  -9.83477e-06 -0.029706 4.70877e-06  -0.00312126 -0.0280632 -0.000889063  -0.00352979 -0.0331915 -0.000757098  -0.00327724 -0.0296336 -0.000687838  3.9041e-05 -0.0289831 1.22786e-05  -0.00320768 -0.0289093 -0.000790834  -0.00411451 -0.0416327 -0.00077939  -0.00427926 -0.0430419 -0.000597298  -0.000109375 -0.0369937 2.92063e-05  -0.000301182 -0.0424912 2.22921e-05  -0.000220299 -0.0384583 1.15037e-05  -0.00377166 -0.0368984 -0.000815749  -0.00420433 -0.0423825 -0.000689387  -0.0039351 -0.0383626 -0.000626981  -0.000169277 -0.0377804 1.95503e-05  -0.00386226 -0.0376846 -0.000723124  -0.00482869 -0.0516595 -0.000708938  -0.00499356 -0.0529571 -0.000540555  -0.000388503 -0.0466668 3.39746e-05  -0.000615835 -0.052482 2.72989e-05  -0.000499487 -0.0480214 1.72257e-05  -0.00446558 -0.0465482 -0.000744224  -0.00491822 -0.0523496 -0.000625491  -0.00463116 -0.047901 -0.000568628  -0.000449061 -0.0473927 2.49147e-05  -0.00455654 -0.047273 -0.000657797  -0.00558293 -0.0623861 -0.000639796  -0.00574207 -0.0635757 -0.000486672  -0.000738025 -0.0570782 3.96967e-05  -0.000998378 -0.0631755 3.3021e-05  -0.000849247 -0.0583221 2.31266e-05  -0.00520134 -0.0569343 -0.000674486  -0.00566912 -0.0630176 -0.000563979  -0.00536275 -0.0581762 -0.000513136  -0.000798464 -0.0577441 3.02792e-05  -0.00528932 -0.0575989 -0.000594854  -0.00637162 -0.0737485 -0.000576138  -0.00652361 -0.0748299 -0.000436604  -0.00115669 -0.0681553 4.29153e-05  -0.00144529 -0.0745038 3.70741e-05  -0.00126278 -0.0692927 2.70009e-05  -0.00597286 -0.0679871 -0.000607848  -0.00645375 -0.0743202 -0.000507236  -0.00612926 -0.0691205 -0.000461102  -0.00121427 -0.0687636 3.44515e-05  -0.00605738 -0.0685921 -0.00053525  -0.0071913 -0.0856748 -0.000516653  -0.00733614 -0.0866553 -0.000390112  -0.00163555 -0.0798327 4.56572e-05  -0.00195265 -0.0864023 3.88622e-05  -0.00173712 -0.0808668 3.01003e-05  -0.00677788 -0.0796381 -0.000545382  -0.0072695 -0.0861925 -0.000453472  -0.0069257 -0.0806689 -0.000412941  -0.0016917 -0.0803844 3.74317e-05  -0.00685751 -0.0801884 -0.000479817  -0.008039 -0.0981118 -0.00045979  -0.00817406 -0.0989943 -0.000346541  -0.00217545 -0.0920462 4.74453e-05  -0.00251567 -0.0988121 4.1604e-05  -0.00227177 -0.0929819 3.29614e-05  -0.00761163 -0.0918261 -0.000487208  -0.00811183 -0.0985777 -0.00040257  -0.00775111 -0.0927588 -0.000368536  -0.00222778 -0.0925459 3.92199e-05  -0.00768721 -0.0923237 -0.000428319  -0.00891089 -0.110998 -0.000407934  -0.00903726 -0.111793 -0.000306845  -0.00277174 -0.10474 4.81606e-05  -0.00313115 -0.111676 4.14848e-05  -0.00285578 -0.105583 3.38554e-05  -0.00847137 -0.104495 -0.000433087  -0.00897861 -0.111418 -0.000356197  -0.0086025 -0.105334 -0.000326335  -0.00281751 -0.105189 4.05312e-05  -0.00854182 -0.104943 -0.000380278  -0.00980484 -0.124289 -0.00035882  -0.00992048 -0.124995 -0.000269592  -0.00341213 -0.117858 4.88758e-05  -0.00379264 -0.124942 4.18425e-05  -0.00349379 -0.118613 3.51071e-05  -0.00935459 -0.117591 -0.000381947  -0.00986731 -0.12466 -0.000313282  -0.00947607 -0.11834 -0.000287533  -0.00345588 -0.118261 4.11272e-05  -0.00942051 -0.11799 -0.000335217  -0.0107173 -0.137927 -0.000311613  -0.0108225 -0.138554 -0.000234485  -0.00409949 -0.13135 4.82798e-05  -0.00449681 -0.138557 4.13656e-05  -0.00417316 -0.132021 3.50475e-05  -0.0102576 -0.13106 -0.000335336  -0.0107732 -0.138255 -0.000273705  -0.0103699 -0.131727 -0.000252128  -0.0041393 -0.131707 4.20809e-05  -0.0103182 -0.131415 -0.000293255  -0.0116436 -0.151868 -0.000270009  -0.0117395 -0.152419 -0.000202775  -0.00482726 -0.145167 4.64916e-05  -0.00523853 -0.152478 4.1008e-05  -0.00489306 -0.145759 3.48687e-05  -0.0111775 -0.144856 -0.000291109  -0.0116947 -0.152156 -0.000236273  -0.0112786 -0.145445 -0.000218928  -0.0048635 -0.145482 4.06504e-05  -0.0112319 -0.145169 -0.000255108  -0.0125794 -0.166068 -0.000232339  -0.0126674 -0.166549 -0.000173628  -0.00559235 -0.15926 4.50611e-05  -0.00601315 -0.166659 3.86238e-05  -0.00564766 -0.15978 3.42727e-05  -0.01211 -0.158931 -0.000250578  -0.0126269 -0.166318 -0.000203252  -0.0122015 -0.159447 -0.000188053  -0.00562119 -0.159537 3.96967e-05  -0.0121596 -0.159206 -0.000219822  -0.0135267 -0.180485 -0.000195384  -0.0136039 -0.180902 -0.000146806  -0.00638294 -0.173593 4.27961e-05  -0.00681591 -0.181058 3.68357e-05  -0.00643396 -0.174044 3.16501e-05  -0.0130534 -0.173247 -0.000213861  -0.0135689 -0.180703 -0.000170827  -0.0131345 -0.173694 -0.00015974  -0.00641131 -0.173832 3.74317e-05  -0.013097 -0.173485 -0.000186801  -0.0144796 -0.195086 -0.000163317  -0.0145462 -0.195441 -0.000122368  -0.00720406 -0.188122 4.08888e-05  -0.00764394 -0.195639 3.54052e-05  -0.00724626 -0.188509 3.06964e-05  -0.0140028 -0.187761 -0.00017941  -0.0145152 -0.195269 -0.000142455  -0.0140738 -0.188145 -0.000134051  -0.00722671 -0.188327 3.62396e-05  -0.0140407 -0.187964 -0.000156641  -0.0154331 -0.209827 -0.000134587  -0.015492 -0.210127 -0.000100195  -0.00804281 -0.202809 3.8743e-05  -0.00849032 -0.210365 3.17097e-05  -0.0080812 -0.203139 2.8789e-05  -0.0149572 -0.202435 -0.000149012  -0.0154648 -0.209982 -0.00011754  -0.015018 -0.202761 -0.000110686  -0.00806499 -0.202985 3.38554e-05  -0.0149896 -0.202607 -0.000130177  -0.0163875 -0.224682 -0.000109076  -0.0164373 -0.22493 -7.9155e-05  -0.00890231 -0.217624 3.52859e-05  -0.0093534 -0.225202 3.02792e-05  -0.0089314 -0.2179 2.70009e-05  -0.0159111 -0.217237 -0.000121474  -0.0164144 -0.224808 -9.36985e-05  -0.0159647 -0.217509 -8.95262e-05  -0.00892043 -0.21777 3.17097e-05  -0.0159383 -0.217381 -0.000105023  -0.0173395 -0.239618 -8.36849e-05  -0.0173824 -0.23982 -6.2108e-05  -0.00977635 -0.232533 3.17097e-05  -0.0102298 -0.240123 2.76566e-05  -0.00980043 -0.23276 2.48551e-05  -0.0168636 -0.232136 -9.56059e-05  -0.0173621 -0.239721 -7.236e-05  -0.0169091 -0.232361 -7.1764e-05  -0.00978923 -0.232652 2.82526e-05  -0.0168877 -0.232253 -8.38041e-05  -0.0182886 -0.25461 -6.19888e-05  -0.0183225 -0.25477 -4.77433e-05  -0.010658 -0.247508 3.17097e-05  -0.0111125 -0.255099 2.64645e-05  -0.0106759 -0.247692 2.20537e-05  -0.0178134 -0.247103 -7.39098e-05  -0.0183065 -0.254688 -5.48363e-05  -0.0178525 -0.247284 -5.40614e-05  -0.0106709 -0.247605 2.67029e-05  -0.0178347 -0.247198 -6.34193e-05  -0.0192306 -0.269631 -4.55379e-05  -0.0192585 -0.269755 -3.33786e-05  -0.0115488 -0.262525 2.5034e-05  -0.0120029 -0.270108 2.11e-05  -0.0115657 -0.262669 1.95503e-05  -0.0187573 -0.262111 -5.50747e-05  -0.0192442 -0.269691 -4.02927e-05  -0.0187905 -0.262254 -4.071e-05  -0.0115566 -0.2626 2.21729e-05  -0.0187757 -0.262185 -4.78029e-05  -0.0201647 -0.284661 -3.18289e-05  -0.0201864 -0.284755 -2.22921e-05  -0.012444 -0.277558 2.36034e-05  -0.0128949 -0.285129 2.00272e-05  -0.0124545 -0.27767 1.74046e-05  -0.0196977 -0.27714 -3.82662e-05  -0.0201766 -0.284705 -2.64645e-05  -0.0197244 -0.277249 -2.73585e-05  -0.0124476 -0.277618 2.16961e-05  -0.0197105 -0.277198 -3.26633e-05  -0.0210929 -0.299685 -1.95503e-05  -0.0211091 -0.299753 -1.41263e-05  -0.01334 -0.292593 1.9908e-05  -0.0137911 -0.300141 1.63317e-05  -0.0133438 -0.292676 1.57356e-05  -0.0206289 -0.292168 -2.563e-05  -0.0211015 -0.299713 -1.7643e-05  -0.0206492 -0.29225 -1.77622e-05  -0.0133431 -0.292636 1.80006e-05  -0.0206387 -0.29221 -2.13385e-05  -0.0220106 -0.314682 -9.77516e-06  -0.0220225 -0.314728 -7.689e-06  -0.014235 -0.307609 1.63317e-05  -0.0146837 -0.31513 1.33514e-05  -0.0142393 -0.307667 1.23978e-05  -0.021553 -0.307181 -1.41859e-05  -0.0220168 -0.314701 -8.70228e-06  -0.0215664 -0.307237 -1.0252e-05  -0.0142372 -0.307638 1.35899e-05  -0.02156 -0.307209 -1.20401e-05  -0.0229192 -0.329645 -4.29153e-06  -0.0229285 -0.329674 -2.6226e-06  -0.0151305 -0.322593 1.22786e-05  -0.0155764 -0.330086 9.77516e-06  -0.0151298 -0.322632 9.29832e-06  -0.0224664 -0.322162 -7.98702e-06  -0.0229237 -0.329653 -3.09944e-06  -0.0224767 -0.3222 -4.64916e-06  -0.01513 -0.322612 1.0848e-05  -0.0224702 -0.32218 -6.55651e-06  -0.0238185 -0.344562 1.07288e-06  -0.0238249 -0.344576 1.96695e-06  -0.0160205 -0.337536 9.77516e-06  -0.0164635 -0.344997 5.72205e-06  -0.0160208 -0.337558 7.21216e-06  -0.0233719 -0.337104 1.19209e-07  -0.0238225 -0.344562 2.38419e-06  -0.0233784 -0.337124 -1.78814e-07  -0.0160198 -0.337546 8.70228e-06  -0.0233738 -0.337113 3.57628e-07  -0.0247085 -0.359424 7.27177e-06  -0.0247116 -0.359426 5.126e-06  -0.0169041 -0.352428 6.31809e-06  -0.0173473 -0.359852 5.36442e-06  -0.0169048 -0.352437 4.94719e-06  -0.0242643 -0.351992 4.29153e-06  -0.0247107 -0.359418 5.96046e-06  -0.0242698 -0.352003 3.39746e-06  -0.0169055 -0.35243 6.31809e-06  -0.0242677 -0.351996 3.93391e-06  -0.0255861 -0.374209 1.40667e-05  -0.0255923 -0.37421 8.9407e-06  -0.0177875 -0.367257 3.21865e-06  -0.0182219 -0.374635 -1.07288e-06  -0.0177851 -0.367256 2.14577e-06  -0.0251484 -0.366824 9.65595e-06  -0.0255897 -0.3742 1.04904e-05  -0.0251536 -0.366822 5.66244e-06  -0.0177858 -0.367253 2.6226e-06  -0.025152 -0.366819 7.62939e-06  0 0 0  0.000496492 0.000701725 0.000909448  0.000316381 -0.00028348 0.000535667  0 0 0  0.00034336 0.000605345 0.00109196  0.000720009 -5.19156e-05 0.00137186  0.000183009 3.15905e-05 0.000602841  0 0 0  0.000180118 0.000708401 0.000560045  0.000383601 0.000118017 0.000705719  9.62019e-05 0.00012809 0.000309229  0 0 0  0.00021676 0.000204325 0.00079608  0.000114672 0.000299275 0.00040853  0.00111419 -0.00131148 0.00107408  0.000949264 -0.00274491 0.000781178  0.00153191 -0.0002653 0.00194955  0.00192127 -0.00239617 0.00184071  0.0011548 -0.00153071 0.00133568  0.000817657 -2.75373e-05 0.00100017  0.0010246 -0.00212753 0.000939012  0.000615031 -0.00130367 0.000681281  0.00131807 -0.000997305 0.00164938  0.000702262 -0.000768244 0.000844121  0.00171062 -0.00511479 0.00111008  0.00161293 -0.00677353 0.000825286  0.00263104 -0.00331092 0.0021497  0.00312692 -0.00633711 0.00191498  0.00242898 -0.0048787 0.00160605  0.00141066 -0.00301421 0.00109744  0.00166208 -0.0060367 0.00097084  0.00128728 -0.00459009 0.000812769  0.00252712 -0.00419372 0.0018959  0.00134584 -0.0039044 0.000962615  0.00227791 -0.010338 0.00107956  0.0022037 -0.0120552 0.000805974  0.00375399 -0.00786722 0.0021534  0.00425792 -0.0115783 0.0018692  0.0036507 -0.0095641 0.00162959  0.00200421 -0.00756097 0.00109458  0.00224185 -0.0112772 0.000943422  0.00191906 -0.00926232 0.000819087  0.00370702 -0.00880551 0.00189948  0.0019623 -0.00850326 0.000959039  0.00276232 -0.0167552 0.00102746  0.00269955 -0.0184436 0.000766218  0.00480014 -0.0137034 0.0020771  0.00526792 -0.0179681 0.0017786  0.00474805 -0.0154107 0.00157082  0.00253212 -0.0134008 0.00105393  0.0027318 -0.0176694 0.000897169  0.00246418 -0.0151108 0.00078702  0.00477856 -0.0146358 0.00182748  0.00249946 -0.0143358 0.000920773  0.00315261 -0.0242299 0.000968695  0.00309169 -0.0258451 0.000720024  0.00573128 -0.020663 0.00196791  0.00614667 -0.0253994 0.00167024  0.00570601 -0.0223165 0.00148195  0.00297004 -0.0203618 0.000998259  0.00312239 -0.0250985 0.000843525  0.00290793 -0.022017 0.00074327  0.00572407 -0.0215586 0.00172615  0.00293952 -0.0212591 0.000869632  0.0034411 -0.0326579 0.000907063  0.00338024 -0.0341774 0.000672698  0.00653934 -0.0286297 0.00184441  0.00689316 -0.0337773 0.00155735  0.00652659 -0.0301968 0.0013845  0.00330943 -0.0283261 0.000937104  0.00340974 -0.033471 0.000788569  0.0032497 -0.0298942 0.000696599  0.00653684 -0.0294747 0.00161457  0.00327903 -0.0291718 0.00081563  0.00362551 -0.0419502 0.000844717  0.00356591 -0.0433608 0.000626266  0.00721991 -0.0375055 0.00171721  0.00750697 -0.0430149 0.00144398  0.00720972 -0.0389702 0.00128496  0.00354612 -0.0371962 0.000874877  0.00359499 -0.0427011 0.000733972  0.00348574 -0.038661 0.000649333  0.00721592 -0.0382925 0.00150001  0.00351602 -0.0379832 0.000760674  0.00370944 -0.0520173 0.000782967  0.00364971 -0.0533193 0.000581205  0.00776684 -0.0472026 0.00158858  0.00798726 -0.0530325 0.00133288  0.00775707 -0.0485595 0.00118762  0.00368047 -0.0468853 0.000813603  0.00367892 -0.0527094 0.000680923  0.00362039 -0.048241 0.000603676  0.00776398 -0.0479293 0.00138712  0.00364983 -0.0476118 0.000707507  0.00369442 -0.0627873 0.000723958  0.00363612 -0.0639803 0.000537217  0.00818074 -0.0576411 0.00146413  0.00833929 -0.0637544 0.00122428  0.00817513 -0.0588886 0.00109351  0.00371361 -0.0573137 0.00075376  0.0036639 -0.0634216 0.000629783  0.00365603 -0.0585594 0.000558853  0.00818002 -0.0583086 0.00127804  0.00368369 -0.0579805 0.000655174  0.00358331 -0.0741909 0.000666618  0.00352812 -0.0752791 0.000495136  0.00847244 -0.0687466 0.00134408  0.00856733 -0.0751121 0.00112224  0.00846457 -0.069888 0.00100309  0.00365055 -0.0684079 0.000695109  0.00355434 -0.0747678 0.000579715  0.00359452 -0.0695485 0.000516057  0.00846946 -0.0693576 0.00117218  0.00362134 -0.0690184 0.000604868  0.00338125 -0.0861625 0.000610113  0.00333071 -0.0871506 0.00045377  0.00863934 -0.0804537 0.00122797  0.00867569 -0.0870419 0.00102198  0.0086323 -0.0814927 0.000915885  0.00349414 -0.0801038 0.000637293  0.00335538 -0.0866846 0.000531793  0.00344062 -0.0811408 0.000473976  0.00863624 -0.0810087 0.00107098  0.00346613 -0.0806576 0.000555396  0.00309539 -0.0986425 0.000557065  0.0030489 -0.099534 0.000414312  0.00868893 -0.092698 0.00111711  0.00867116 -0.0994814 0.000929117  0.00868392 -0.0936387 0.000834584  0.00324965 -0.0923363 0.000583887  0.0030725 -0.0991126 0.000485301  0.00320017 -0.0932749 0.000434101  0.00868821 -0.0932003 0.000975966  0.0032239 -0.0928376 0.000507951  0.00273204 -0.111572 0.000504255  0.00268972 -0.112373 0.000375986  0.00863004 -0.105421 0.00101197  0.00856161 -0.112374 0.000836253  0.00862849 -0.106268 0.000754476  0.00292373 -0.105048 0.000530839  0.00271034 -0.111994 0.000439644  0.00287902 -0.105894 0.000394642  0.00862956 -0.105873 0.000882387  0.00290024 -0.105499 0.000462294  0.00229406 -0.1249 0.000455618  0.00225687 -0.125615 0.000340223  0.00846779 -0.118566 0.000910163  0.00835299 -0.125666 0.000751734  0.00846982 -0.119327 0.000679553  0.00252283 -0.118183 0.000481009  0.00227511 -0.125276 0.000397563  0.00248158 -0.11894 0.00035727  0.00847042 -0.118972 0.000794768  0.00250196 -0.118587 0.000418663  0.00178981 -0.138574 0.000408649  0.00175858 -0.139209 0.00030458  0.00821412 -0.132084 0.000813842  0.00805473 -0.139308 0.000670671  0.00821602 -0.132761 0.000608325  0.002051 -0.13169 0.000432014  0.00177407 -0.138908 0.000356317  0.00201631 -0.132365 0.000322282  0.00821483 -0.132445 0.000711322  0.00203252 -0.132049 0.000376821  0.00122499 -0.15255 0.000362158  0.00119805 -0.153109 0.00027144  0.00786853 -0.145924 0.000723362  0.00767279 -0.153251 0.000593662  0.00787663 -0.146522 0.000540614  0.0015142 -0.145522 0.000386238  0.00121212 -0.152843 0.000317454  0.00148702 -0.146117 0.000287652  0.00787425 -0.146243 0.000631928  0.00150013 -0.145839 0.000336528  0.000606775 -0.166782 0.000321746  0.000584841 -0.16727 0.000239015  0.00744939 -0.160043 0.000638485  0.00721455 -0.167451 0.000521302  0.00745726 -0.160567 0.000476956  0.000923157 -0.15963 0.000341773  0.000596285 -0.167036 0.000280619  0.000898123 -0.160153 0.000255227  0.00745249 -0.160322 0.000556946  0.000909567 -0.159909 0.0002985  -6.1512e-05 -0.181227 0.000280976  -7.70092e-05 -0.181649 0.000210226  0.00695395 -0.174392 0.000557661  0.00668812 -0.18187 0.000454068  0.00696301 -0.174849 0.000416577  0.000278711 -0.173975 0.000300646  -6.81877e-05 -0.181446 0.000245333  0.000260115 -0.174429 0.000224054  0.00695992 -0.174635 0.000487804  0.000268936 -0.174215 0.000262499  -0.000770569 -0.19585 0.000243664  -0.000781536 -0.196213 0.000182867  0.006392 -0.188939 0.000482321  0.00610018 -0.196467 0.000390053  0.00640702 -0.189332 0.000360847  -0.000409842 -0.188514 0.000263333  -0.000775814 -0.196038 0.000213385  -0.000423193 -0.188904 0.000195324  0.00640225 -0.189147 0.000421643  -0.000416279 -0.188721 0.000229478  -0.0015161 -0.210616 0.000210285  -0.00152469 -0.210921 0.000155032  0.00577617 -0.203642 0.000414133  0.00545955 -0.211206 0.000331521  0.00579476 -0.203976 0.000307441  -0.00113773 -0.20321 0.000227094  -0.00151896 -0.210771 0.000182629  -0.00114894 -0.203543 0.0001688  0.00578594 -0.203818 0.000360489  -0.00114298 -0.203388 0.00019753  -0.00229311 -0.225489 0.000177622  -0.00229716 -0.225742 0.000132501  0.00511289 -0.218468 0.00034821  0.00477099 -0.226055 0.000277877  0.00512981 -0.218749 0.00026083  -0.00189948 -0.218035 0.000193  -0.00229526 -0.225618 0.00015533  -0.00190639 -0.218313 0.000144303  0.00511932 -0.218617 0.000305176  -0.0019033 -0.218181 0.000168324  -0.00309825 -0.24044 0.0001477  -0.00309825 -0.240647 0.000109971  0.00440192 -0.233388 0.000289083  0.00404048 -0.240983 0.000229001  0.00441909 -0.233619 0.000215709  -0.00269246 -0.232949 0.000161767  -0.0030961 -0.240544 0.000127792  -0.00269485 -0.233179 0.000120759  0.00441098 -0.233509 0.000252604  -0.00269294 -0.233071 0.000140429  -0.00392246 -0.255445 0.00012064  -0.00392103 -0.255608 8.98838e-05  0.00365138 -0.248371 0.000237226  0.00327706 -0.255968 0.000183821  0.00367141 -0.248558 0.000175893  -0.00350642 -0.24793 0.000133872  -0.00392151 -0.255525 0.000104785  -0.00350714 -0.248117 9.9957e-05  0.00366282 -0.248469 0.000206351  -0.00350666 -0.248029 0.000116706  -0.0047648 -0.270476 9.48906e-05  -0.0047617 -0.270606 7.21216e-05  0.0028739 -0.263393 0.000187397  0.00248289 -0.270981 0.000144839  0.0028944 -0.263541 0.000140548  -0.00434184 -0.262952 0.000108123  -0.00476217 -0.270538 8.55923e-05  -0.0043385 -0.263099 8.05855e-05  0.00288272 -0.263471 0.000163913  -0.00433898 -0.263029 9.34601e-05  -0.00562072 -0.285515 7.45058e-05  -0.00561595 -0.285613 5.47171e-05  0.00206566 -0.278433 0.000146031  0.00166678 -0.286004 0.000108361  0.00208664 -0.278546 0.000107884  -0.00518942 -0.277989 8.51154e-05  -0.00561643 -0.285561 6.44922e-05  -0.00518584 -0.278103 6.30021e-05  0.00207853 -0.278492 0.000127077  -0.00518775 -0.278049 7.43866e-05  -0.00648642 -0.300543 5.43594e-05  -0.00647998 -0.300617 4.21405e-05  0.0012424 -0.293469 0.000109553  0.000831366 -0.301018 8.02279e-05  0.001261 -0.293553 8.08239e-05  -0.00605154 -0.293027 6.52075e-05  -0.00648165 -0.300576 4.8399e-05  -0.00604606 -0.29311 4.81606e-05  0.00125051 -0.293512 9.46522e-05  -0.00604939 -0.293069 5.71012e-05  -0.00735784 -0.315548 3.93391e-05  -0.00734973 -0.315596 2.98619e-05  0.000399113 -0.308487 7.78437e-05  -1.83582e-05 -0.316008 5.61476e-05  0.000416517 -0.308546 5.76377e-05  -0.00692177 -0.308045 4.88758e-05  -0.00735354 -0.315567 3.43323e-05  -0.00691295 -0.308103 3.50475e-05  0.000407934 -0.308516 6.73532e-05  -0.00691652 -0.308073 4.18425e-05  -0.00823402 -0.330511 2.63453e-05  -0.00822663 -0.330543 1.85966e-05  -0.000456095 -0.323471 5.04255e-05  -0.000880241 -0.330963 3.45707e-05  -0.000439167 -0.32351 3.82066e-05  -0.00779533 -0.323029 3.14713e-05  -0.00822997 -0.330522 2.25306e-05  -0.00778699 -0.323068 2.43187e-05  -0.000448704 -0.323491 4.45843e-05  -0.00779033 -0.323048 2.70605e-05  -0.0091114 -0.345434 1.45435e-05  -0.00910378 -0.345447 1.07884e-05  -0.00132012 -0.338413 2.99215e-05  -0.00174761 -0.345873 1.66893e-05  -0.00130582 -0.338436 2.16365e-05  -0.00867248 -0.337973 2.06232e-05  -0.00910735 -0.345432 1.22786e-05  -0.00866485 -0.337996 1.49012e-05  -0.00131297 -0.338423 2.563e-05  -0.00866699 -0.337983 1.80006e-05  -0.00999045 -0.360293 2.38419e-06  -0.00998139 -0.360299 2.80142e-06  -0.0021894 -0.353303 1.00136e-05  -0.0026195 -0.360728 2.38419e-07  -0.00217319 -0.353315 7.15256e-06  -0.00955081 -0.352864 8.22544e-06  -0.00998473 -0.360289 9.53674e-07  -0.00954223 -0.352874 6.25849e-06  -0.00218272 -0.353307 7.98702e-06  -0.00954556 -0.352867 7.51019e-06  -0.0108619 -0.37508 -9.41753e-06  -0.0108519 -0.375082 -6.13928e-06  -0.00306439 -0.368132 -8.9407e-06  -0.00349069 -0.375513 -1.70469e-05  -0.00304914 -0.368135 -5.42402e-06  -0.0104284 -0.367692 -3.21865e-06  -0.0108562 -0.375072 -7.86781e-06  -0.0104172 -0.367694 -2.26498e-06  -0.00305533 -0.368129 -6.91414e-06  -0.010421 -0.36769 -3.33786e-06  0 0 0  0.00139403 0.000241756 0.00258684  0.000897318 -0.00072062 0.00152951  0 0 0  0.000684828 0.000199676 0.00210321  0.00147021 -0.000712037 0.00264668  0.000382751 -0.000364482 0.00115204  0 0 0  0.000507616 0.000441134 0.00158882  0.00107822 -0.00032264 0.00201058  0.000273108 -0.000126421 0.000877023  0 0 0  0.000444263 -0.000179589 0.00152838  0.000323281 4.96507e-05 0.00115955  0.00309864 -0.00200856 0.00308168  0.00267747 -0.00342953 0.00226271  0.0030878 -0.00114346 0.00377798  0.00388288 -0.00338024 0.00355828  0.00237031 -0.00239861 0.00257879  0.00228287 -0.000633657 0.0028621  0.00286841 -0.00281084 0.00270998  0.00173703 -0.00189024 0.00196391  0.00267813 -0.00185829 0.00318766  0.00197111 -0.00135642 0.00242305  0.0047406 -0.00587207 0.00322497  0.00455523 -0.0075227 0.00242835  0.00526685 -0.00434405 0.00418794  0.00625056 -0.00737107 0.00374281  0.00490859 -0.00591367 0.00312638  0.00391191 -0.00375462 0.003178  0.00465113 -0.00678271 0.00283909  0.00363272 -0.0053187 0.00237572  0.00507984 -0.00521731 0.00368965  0.00376585 -0.00463021 0.00280237  0.00635082 -0.0110824 0.00316417  0.00628024 -0.0127945 0.00239706  0.00744241 -0.00888997 0.00423634  0.0084644 -0.0125805 0.0036906  0.00730166 -0.0105937 0.00320643  0.00556031 -0.00831264 0.0032053  0.00632542 -0.0120151 0.00278795  0.00543901 -0.0100091 0.00242615  0.00738084 -0.00982428 0.00373566  0.00550708 -0.0092476 0.00282669  0.00784111 -0.0174819 0.00302553  0.00783324 -0.0191693 0.0022862  0.00949717 -0.0146911 0.00410891  0.0104945 -0.0189397 0.00352728  0.00948024 -0.0164025 0.00311273  0.00711167 -0.0141366 0.00310075  0.00784701 -0.0183931 0.00265956  0.00707895 -0.0158427 0.00234771  0.00950223 -0.0156211 0.00361836  0.00710595 -0.015066 0.00272894  0.00919122 -0.0249522 0.00284839  0.00921321 -0.0265661 0.00214529  0.0114058 -0.0216244 0.00389922  0.0123405 -0.0263513 0.00331688  0.0114503 -0.02328 0.00294608  0.00853467 -0.0210834 0.00293911  0.00921136 -0.0258173 0.0024972  0.00854498 -0.0227379 0.00221783  0.0114409 -0.0225188 0.0034256  0.00854921 -0.0219793 0.00257981  0.0103892 -0.0333817 0.00265682  0.0104252 -0.0348995 0.00199503  0.0131437 -0.0295764 0.00365412  0.0139977 -0.0347182 0.00308871  0.013219 -0.0311436 0.00275159  0.00980949 -0.0290465 0.00275373  0.0104141 -0.0341929 0.00232553  0.00984091 -0.030614 0.00207043  0.0131927 -0.0304198 0.00320339  0.00983357 -0.0298911 0.00241208  0.0114284 -0.0426797 0.00246215  0.0114686 -0.0440907 0.00184488  0.0147002 -0.0384449 0.00339508  0.0154616 -0.0439506 0.00285709  0.0147874 -0.0399085 0.00254965  0.0109279 -0.0379223 0.00255919  0.0114543 -0.043431 0.00215268  0.0109674 -0.0393863 0.00191957  0.0147539 -0.0392299 0.00297213  0.0109552 -0.0387086 0.00223923  0.012305 -0.0527579 0.00227046  0.012347 -0.0540608 0.00169867  0.016068 -0.0481366 0.00313616  0.0167333 -0.0539652 0.00263047  0.0161581 -0.0494931 0.00235111  0.0118858 -0.0476203 0.00236535  0.0123312 -0.053451 0.00198436  0.0119286 -0.0489767 0.00177103  0.0161222 -0.0488636 0.00274324  0.0119132 -0.0483471 0.00206769  0.0130239 -0.0635422 0.00208437  0.0130646 -0.064738 0.00155777  0.0172453 -0.0585744 0.00288332  0.0178143 -0.0646884 0.00241232  0.0173333 -0.0598215 0.00215912  0.0126842 -0.0580613 0.00217712  0.0130491 -0.0641767 0.00182009  0.0127257 -0.0593097 0.00162768  0.0172968 -0.0592423 0.00251985  0.0127097 -0.0587293 0.00190091  0.0135872 -0.0749624 0.00190496  0.0136274 -0.0760529 0.00142407  0.0182348 -0.0696815 0.00263929  0.0187092 -0.0760484 0.00220299  0.0183208 -0.0708231 0.001975  0.0133241 -0.0691705 0.00199401  0.0136117 -0.0755391 0.00166297  0.0133647 -0.070313 0.00149024  0.018284 -0.0702917 0.00230622  0.0133493 -0.0697823 0.00174165  0.0140015 -0.0869488 0.00173366  0.0140418 -0.08794 0.0012958  0.0190405 -0.0813901 0.00240505  0.0194277 -0.087981 0.00200212  0.0191252 -0.0824299 0.00179917  0.013814 -0.0808816 0.00181806  0.0140263 -0.087474 0.00151384  0.0138526 -0.0819217 0.00135911  0.0190898 -0.0819458 0.00210166  0.0138376 -0.0814375 0.00158846  0.0142753 -0.0994457 0.0015707  0.014315 -0.100339 0.00117373  0.0196755 -0.0936371 0.00218177  0.0199763 -0.100424 0.00181091  0.0197561 -0.0945802 0.00163215  0.0141566 -0.093132 0.00165188  0.0143006 -0.0999174 0.00137138  0.014196 -0.094074 0.00123423  0.0197225 -0.0941412 0.00190628  0.0141811 -0.0936342 0.00144196  0.0144174 -0.11239 0.00141561  0.0144567 -0.113196 0.00105673  0.0201461 -0.106363 0.00196934  0.0203656 -0.11332 0.0016315  0.0202245 -0.107213 0.00147289  0.0143647 -0.105859 0.00149274  0.0144413 -0.112815 0.0012356  0.0144029 -0.106709 0.00111425  0.0201908 -0.106817 0.00172043  0.0143856 -0.106312 0.00130272  0.0144339 -0.125735 0.00126874  0.0144738 -0.126454 0.000947118  0.0204576 -0.119512 0.00176811  0.0206056 -0.126615 0.00145864  0.0205374 -0.120275 0.00132203  0.0144408 -0.119009 0.00134039  0.0144581 -0.126112 0.00110734  0.0144807 -0.119771 0.00100195  0.0205024 -0.119919 0.00154412  0.0144641 -0.119416 0.00117099  0.0143366 -0.139423 0.00112808  0.0143757 -0.140061 0.000843346  0.0206302 -0.133033 0.00157595  0.0207071 -0.140259 0.00129807  0.0207039 -0.133712 0.00117898  0.0143987 -0.132531 0.00119758  0.0143597 -0.139757 0.000985384  0.0144399 -0.13321 0.000894725  0.0206733 -0.133395 0.00137722  0.0144231 -0.132893 0.00104594  0.0141318 -0.153411 0.000995994  0.014173 -0.153973 0.000744164  0.0206645 -0.146875 0.00139666  0.0206771 -0.154203 0.00114489  0.0207398 -0.147476 0.00104481  0.0142477 -0.146376 0.00106192  0.0141561 -0.153705 0.000870228  0.0142887 -0.146975 0.00079298  0.0207069 -0.147195 0.00122046  0.014271 -0.146695 0.000926971  0.0138302 -0.167651 0.000872254  0.0138719 -0.168144 0.000652432  0.0205779 -0.160993 0.00122643  0.02053 -0.168405 0.00100052  0.0206501 -0.16152 0.000917196  0.013993 -0.160495 0.000934124  0.0138555 -0.167908 0.00076282  0.0140357 -0.161022 0.000697732  0.0206175 -0.161273 0.00107169  0.0140178 -0.160776 0.000815153  0.0134401 -0.182106 0.000757098  0.0134826 -0.182532 0.000566006  0.0203776 -0.175344 0.00106835  0.0202751 -0.182821 0.000867009  0.0204463 -0.175801 0.000798166  0.0136471 -0.174849 0.000814795  0.0134649 -0.182328 0.000661254  0.0136876 -0.175306 0.000608504  0.0204148 -0.175588 0.000932693  0.01367 -0.175093 0.000711322  0.0129707 -0.196737 0.000650406  0.0130124 -0.197102 0.000485539  0.0200708 -0.189888 0.000919938  0.0199218 -0.197415 0.000742316  0.0201406 -0.190282 0.000688195  0.0132155 -0.189396 0.000703692  0.0129948 -0.196925 0.000567317  0.0132575 -0.18979 0.000525355  0.0201108 -0.190097 0.00080502  0.0132394 -0.189605 0.000613332  0.0124285 -0.211507 0.000551343  0.0124722 -0.211813 0.000411093  0.0196733 -0.204589 0.000784159  0.0194786 -0.212151 0.000628948  0.0197392 -0.204924 0.000586033  0.0127096 -0.204101 0.000599027  0.0124552 -0.211664 0.000480294  0.0127513 -0.204436 0.000448048  0.0197101 -0.204767 0.000684619  0.0127335 -0.204278 0.000523567  0.0118282 -0.226383 0.000459433  0.0118682 -0.226639 0.000342786  0.0191915 -0.219412 0.000657797  0.0189588 -0.226995 0.000522614  0.0192561 -0.219692 0.000491679  0.0121367 -0.218927 0.000506401  0.0118515 -0.226513 0.000400543  0.012177 -0.219208 0.000376344  0.0192287 -0.21956 0.000575066  0.0121617 -0.219077 0.000441432  0.0111699 -0.241337 0.000376821  0.0112097 -0.241545 0.000280499  0.0186374 -0.234325 0.000543356  0.0183697 -0.241919 0.000427008  0.0186996 -0.234557 0.000404954  0.0115063 -0.233846 0.000417233  0.011193 -0.241441 0.000328422  0.0115459 -0.234078 0.000311136  0.018671 -0.234448 0.000472784  0.0115287 -0.233968 0.000364423  0.0104642 -0.256343 0.000303388  0.0105026 -0.25651 0.000224769  0.0180199 -0.249304 0.000438094  0.0177174 -0.256897 0.000341654  0.0180762 -0.249491 0.000327885  0.0108223 -0.248828 0.000339508  0.0104861 -0.256424 0.000264287  0.0108624 -0.249016 0.000252366  0.0180495 -0.249401 0.000383019  0.0108457 -0.248927 0.000295758  0.00971866 -0.271372 0.000236988  0.00975513 -0.271502 0.000176549  0.0173428 -0.26432 0.000346422  0.017014 -0.271905 0.000265837  0.017396 -0.264467 0.00025779  0.0100961 -0.263849 0.000269771  0.00973892 -0.271436 0.000206351  0.0101333 -0.263997 0.000200212  0.0173709 -0.264397 0.000301719  0.0101171 -0.263927 0.000234246  0.00893998 -0.286412 0.000179052  0.00897312 -0.286509 0.000132442  0.0166171 -0.279354 0.00026536  0.0162687 -0.286922 0.000198841  0.01667 -0.279467 0.000196993  0.00933313 -0.278887 0.000206947  0.00895929 -0.286458 0.000156403  0.00936913 -0.279001 0.000154495  0.0166464 -0.279412 0.000231147  0.00935268 -0.278946 0.000180602  0.00813437 -0.301439 0.000130653  0.00816488 -0.301512 9.60231e-05  0.0158589 -0.294384 0.000196695  0.015487 -0.301928 0.000142932  0.0159025 -0.294466 0.000144243  0.00854111 -0.293922 0.00015378  0.0081532 -0.301469 0.000112653  0.00857258 -0.294005 0.000113666  0.0158806 -0.294425 0.000169754  0.00855803 -0.293964 0.000133514  0.00730681 -0.316438 8.88109e-05  0.00733447 -0.316486 6.51479e-05  0.0150638 -0.309394 0.000135303  0.0146761 -0.316912 9.57251e-05  0.0151017 -0.309451 0.000101447  0.00772524 -0.308937 0.000109196  0.00732303 -0.316458 7.56979e-05  0.00775242 -0.308996 7.99894e-05  0.0150847 -0.309423 0.000118375  0.00773883 -0.308966 9.46522e-05  0.00646091 -0.331402 5.3525e-05  0.00648642 -0.33143 3.95775e-05  0.0142431 -0.324372 8.85725e-05  0.0138414 -0.33186 5.78165e-05  0.0142787 -0.32441 6.54459e-05  0.00688934 -0.32392 6.96182e-05  0.00647593 -0.331409 4.66108e-05  0.00691342 -0.323956 5.23329e-05  0.0142617 -0.32439 7.58171e-05  0.00690222 -0.323937 6.1512e-05  0.0056057 -0.346313 2.52724e-05  0.00562739 -0.346332 1.94311e-05  0.013401 -0.339305 4.72069e-05  0.0129898 -0.346762 2.71797e-05  0.0134318 -0.339328 3.56436e-05  0.00603557 -0.338857 4.06504e-05  0.00561714 -0.346316 2.21729e-05  0.00605893 -0.338881 2.87294e-05  0.0134175 -0.339316 4.14848e-05  0.00604892 -0.338868 3.43323e-05  0.0047369 -0.361171 -5.96046e-07  0.00475812 -0.36118 5.36442e-07  0.0125463 -0.354188 1.65701e-05  0.0121262 -0.361613 3.57628e-07  0.0125728 -0.354201 1.24574e-05  0.00517225 -0.353745 1.23978e-05  0.00474954 -0.36117 2.38419e-07  0.00519347 -0.353757 9.65595e-06  0.0125592 -0.354194 1.38283e-05  0.00518417 -0.35375 1.10865e-05  0.0038681 -0.375965 -2.76566e-05  0.00389147 -0.375972 -1.94311e-05  0.0116792 -0.369017 -1.50204e-05  0.0112619 -0.37641 -2.82526e-05  0.0117054 -0.369025 -1.04904e-05  0.00430036 -0.368572 -1.2517e-05  0.00388241 -0.375962 -2.25306e-05  0.00432348 -0.368578 -7.689e-06  0.0116928 -0.369018 -1.18017e-05  0.00431538 -0.368572 -1.09673e-05  0 0 0  0.00243451 -0.000705302 0.00416684  0.00164267 -0.00168055 0.00243962  0 0 0  0.00109343 -0.000624955 0.00303328  0.00243664 -0.0020563 0.00376344  0.000651143 -0.00122511 0.00163454  0 0 0  0.00087022 -0.000146389 0.00253439  0.00191909 -0.00126803 0.003214  0.000498571 -0.000715494 0.00138515  0 0 0  0.000735693 -0.000973761 0.002177  0.000570178 -0.000510454 0.00183821  0.00539118 -0.00330406 0.00497413  0.00473166 -0.00476766 0.00363618  0.00501777 -0.00265878 0.00544906  0.00628784 -0.00501686 0.00513017  0.00399278 -0.00399899 0.00371027  0.00399972 -0.00180924 0.00460839  0.00502411 -0.00411451 0.00435555  0.00312881 -0.00308734 0.00314552  0.00441535 -0.00341582 0.00458145  0.00349359 -0.00253206 0.00388372  0.00809053 -0.00717151 0.00527096  0.00782657 -0.00885767 0.00395322  0.00832894 -0.00590217 0.00614655  0.00978592 -0.00893122 0.00549626  0.00785515 -0.00756794 0.00455141  0.00674006 -0.00506634 0.00517833  0.00796059 -0.00809157 0.00462687  0.00632024 -0.00666577 0.00384778  0.00807244 -0.0068208 0.00537968  0.00651512 -0.00595045 0.00454473  0.0107146 -0.0123321 0.00521398  0.0106463 -0.0140651 0.00394189  0.0115109 -0.010393 0.00628579  0.0130413 -0.0140789 0.00547576  0.0113461 -0.0121542 0.0047282  0.00942028 -0.00958771 0.00526702  0.0106963 -0.0132703 0.00458813  0.00926501 -0.0113117 0.00397348  0.0114401 -0.0113528 0.00552034  0.00935408 -0.0105295 0.0046339  0.0131889 -0.0186936 0.00500309  0.0132333 -0.0203897 0.00377911  0.0145594 -0.0161504 0.00612497  0.0160787 -0.020387 0.00525439  0.0145721 -0.0178918 0.00462329  0.0119705 -0.0153648 0.00512147  0.0132301 -0.0196053 0.00439548  0.0119688 -0.0170867 0.00387281  0.0145885 -0.0170931 0.00538158  0.011989 -0.0162983 0.00450408  0.015488 -0.0261354 0.00471461  0.0155873 -0.0277502 0.00355309  0.0174344 -0.0230476 0.00581956  0.0188842 -0.0277594 0.00494766  0.017539 -0.0247157 0.00438875  0.0143625 -0.022279 0.00486338  0.0155563 -0.0269981 0.00413561  0.0144392 -0.0239397 0.00367093  0.0175119 -0.023946 0.00510848  0.01442 -0.0231752 0.00427008  0.0175871 -0.0345421 0.0043956  0.0177105 -0.0360584 0.00330383  0.0200999 -0.0309674 0.00545204  0.0214442 -0.0360922 0.00460684  0.0202463 -0.0325374 0.00410336  0.0165641 -0.0302168 0.0045563  0.0176654 -0.0353512 0.00385082  0.0166786 -0.0317849 0.00343013  0.0201958 -0.0318106 0.00477898  0.0166385 -0.0310603 0.00399375  0.0194714 -0.0438202 0.00406969  0.0196031 -0.0452295 0.00305337  0.0225251 -0.0398049 0.00506186  0.0237499 -0.0452937 0.00425911  0.022691 -0.0412666 0.00380313  0.018557 -0.0390719 0.00423229  0.0195522 -0.0445715 0.00356126  0.0186858 -0.0405354 0.00317883  0.0226302 -0.0405891 0.00443196  0.0186374 -0.0398571 0.0037055  0.0211343 -0.0538844 0.00374687  0.0212671 -0.0551845 0.00280893  0.0247029 -0.0494691 0.00467217  0.0257999 -0.0552806 0.00391829  0.024874 -0.0508209 0.00350475  0.020331 -0.0487536 0.00390792  0.0212146 -0.0545762 0.0032779  0.0204637 -0.050108 0.00293046  0.0248076 -0.0501934 0.00408781  0.0204116 -0.04948 0.00341868  0.0225775 -0.0646557 0.00343621  0.0227079 -0.0658485 0.00257236  0.0266279 -0.0598787 0.00429022  0.0275964 -0.065977 0.00358963  0.0267962 -0.0611216 0.00321633  0.0218846 -0.0591804 0.00359058  0.022655 -0.0652894 0.00300395  0.0220153 -0.0604259 0.00268918  0.026731 -0.0605435 0.00375295  0.0219616 -0.0598467 0.00313926  0.023806 -0.0760619 0.00313771  0.0239307 -0.0771521 0.00234789  0.0283048 -0.0709597 0.00392461  0.0291475 -0.0773127 0.00327563  0.0284678 -0.0720971 0.00293922  0.0232182 -0.0702776 0.00328565  0.0238807 -0.0766386 0.00274205  0.0233461 -0.0714176 0.00245893  0.0284038 -0.0715681 0.00343084  0.023294 -0.0708872 0.00287092  0.0248268 -0.0880394 0.00285017  0.0249479 -0.0890284 0.00213325  0.0297409 -0.0826439 0.00357246  0.0304612 -0.0892208 0.00297451  0.029897 -0.0836797 0.00267601  0.024343 -0.0819767 0.00299287  0.0248986 -0.0885627 0.00249135  0.024465 -0.0830164 0.00223923  0.0298336 -0.0831981 0.00312376  0.0244153 -0.0825328 0.00261569  0.0256498 -0.100525 0.00257909  0.0257676 -0.10142 0.00192863  0.0309411 -0.0948672 0.00323844  0.0315495 -0.101642 0.00268948  0.0310932 -0.0958073 0.0024243  0.0252632 -0.0942161 0.00271368  0.0257195 -0.100999 0.00225317  0.0253822 -0.0951585 0.00202996  0.0310333 -0.0953698 0.00283039  0.0253325 -0.0947195 0.00237131  0.0262858 -0.113462 0.0023191  0.0264009 -0.114266 0.00173485  0.0319263 -0.107572 0.00291979  0.0324244 -0.114515 0.00241673  0.0320725 -0.108419 0.00218594  0.0259914 -0.106934 0.0024482  0.0263531 -0.113887 0.00202715  0.026107 -0.107783 0.00183058  0.0320131 -0.108024 0.00255251  0.0260583 -0.107388 0.00213838  0.0267478 -0.126795 0.002074  0.0268584 -0.127514 0.00155151  0.0327052 -0.1207 0.00261748  0.0330997 -0.12779 0.00216138  0.0328444 -0.12146 0.00195938  0.0265387 -0.120076 0.00219607  0.0268135 -0.127175 0.00181115  0.0266509 -0.120838 0.00164127  0.0327868 -0.121105 0.00228786  0.0266044 -0.120482 0.00191808  0.0270472 -0.140476 0.00184202  0.0271533 -0.141115 0.00137794  0.0332855 -0.134199 0.00233078  0.0335848 -0.141413 0.00191808  0.0334221 -0.134876 0.00174576  0.0269186 -0.133589 0.00195682  0.0271094 -0.14081 0.0016098  0.0270256 -0.134267 0.00146359  0.0333652 -0.13456 0.00203776  0.0269804 -0.133951 0.00170982  0.0271921 -0.154452 0.00162387  0.0272942 -0.155016 0.00121421  0.0336859 -0.14802 0.0020622  0.0338967 -0.155337 0.00168908  0.0338156 -0.148618 0.00154322  0.0271375 -0.147422 0.00173151  0.0272524 -0.154747 0.00141919  0.0272422 -0.148024 0.00129515  0.033762 -0.148339 0.00180125  0.0271993 -0.147743 0.00151229  0.0271976 -0.168684 0.00141978  0.0272965 -0.169176 0.00106156  0.0339184 -0.162117 0.00180864  0.0340481 -0.169517 0.00147521  0.0340421 -0.162642 0.00135416  0.0272117 -0.161533 0.00152087  0.0272563 -0.168941 0.00123978  0.0273139 -0.162059 0.00113684  0.0339923 -0.162397 0.00158083  0.0272713 -0.161814 0.00132799  0.0270743 -0.183128 0.00122738  0.0271719 -0.183556 0.000918388  0.0339949 -0.176447 0.00157142  0.0340497 -0.183914 0.00127459  0.034116 -0.176903 0.00117666  0.0271533 -0.175876 0.00132251  0.0271316 -0.18335 0.00107384  0.0272505 -0.176334 0.000988483  0.0340672 -0.17669 0.00137401  0.027209 -0.17612 0.00115514  0.0268362 -0.197747 0.0010519  0.0269291 -0.19811 0.000785649  0.0339305 -0.190969 0.00135112  0.0339162 -0.198486 0.00108886  0.0340478 -0.191363 0.00101131  0.0269692 -0.190412 0.00113857  0.02689 -0.197935 0.000918031  0.0270643 -0.190806 0.000850976  0.0339987 -0.19118 0.00118101  0.0270245 -0.190622 0.000994086  0.0264916 -0.212505 0.000888824  0.0265789 -0.212812 0.000662804  0.0337389 -0.205651 0.00114715  0.0336597 -0.213201 0.000919104  0.0338502 -0.205984 0.00085938  0.0266762 -0.205106 0.00096786  0.0265436 -0.212663 0.000775337  0.0267668 -0.20544 0.000723362  0.033802 -0.205827 0.00100338  0.0267291 -0.205282 0.000845194  0.0260537 -0.227371 0.000738621  0.0261371 -0.227624 0.00055021  0.0334303 -0.220452 0.000960708  0.0332937 -0.228025 0.000762343  0.0335357 -0.220731 0.0007177  0.0262847 -0.219919 0.000813127  0.0261021 -0.227499 0.000644565  0.0263693 -0.220199 0.000605881  0.0334899 -0.2206 0.000839353  0.0263329 -0.220069 0.000708938  0.025533 -0.24231 0.000602484  0.025609 -0.24252 0.000449121  0.0330164 -0.235349 0.000788927  0.0328288 -0.242929 0.000618339  0.0331142 -0.235576 0.000590324  0.0258017 -0.234827 0.000668287  0.0255761 -0.242415 0.000525475  0.0258827 -0.235057 0.000499189  0.0330727 -0.235468 0.000689387  0.0258491 -0.234948 0.000583172  0.0249369 -0.257304 0.000478625  0.0250072 -0.257469 0.000357926  0.0325134 -0.250305 0.000635266  0.0322783 -0.257888 0.00049293  0.0325999 -0.250489 0.00047487  0.025243 -0.249795 0.00053978  0.0249779 -0.257384 0.000418425  0.025316 -0.249982 0.000401735  0.032562 -0.250402 0.000554919  0.0252869 -0.249893 0.000470519  0.024277 -0.272323 0.00037241  0.024343 -0.272452 0.000276864  0.0319271 -0.265304 0.000497937  0.0316513 -0.272877 0.000381351  0.0320072 -0.265449 0.000372052  0.0246143 -0.264806 0.000424504  0.0243149 -0.272386 0.000324488  0.0246832 -0.264951 0.000316441  0.0319729 -0.265379 0.00043416  0.0246532 -0.264882 0.000369668  0.023566 -0.287353 0.000280142  0.0236244 -0.287445 0.00020653  0.0312707 -0.28032 0.000377536  0.0309601 -0.287876 0.000280857  0.0313442 -0.280427 0.00028199  0.0239282 -0.279831 0.000324249  0.0235996 -0.287395 0.000242949  0.0239904 -0.279942 0.000241458  0.0313132 -0.280376 0.000329137  0.0239639 -0.279888 0.000282526  0.0228095 -0.302366 0.000197291  0.0228617 -0.302432 0.000147283  0.030561 -0.295334 0.000275254  0.0302186 -0.302868 0.000200272  0.0306244 -0.295411 0.000204444  0.0231931 -0.294855 0.000237465  0.0228403 -0.302395 0.000172734  0.0232489 -0.294935 0.000175536  0.0305955 -0.295373 0.00023973  0.0232251 -0.294896 0.000206709  0.0220196 -0.317354 0.000132084  0.0220621 -0.3174 9.88245e-05  0.0297973 -0.310329 0.000186682  0.0294306 -0.317836 0.000131011  0.0298541 -0.310381 0.00014019  0.0224195 -0.309859 0.000164509  0.0220435 -0.317373 0.000115037  0.0224686 -0.309913 0.000121474  0.0298302 -0.310355 0.000163913  0.0224447 -0.309886 0.000141978  0.021199 -0.332306 8.03471e-05  0.0212345 -0.332334 5.84126e-05  0.029 -0.325293 0.000119209  0.0286121 -0.332771 7.70092e-05  0.0290439 -0.325324 8.91089e-05  0.0216124 -0.32483 0.000104904  0.0212188 -0.332314 7.06911e-05  0.0216503 -0.324865 7.76649e-05  0.0290253 -0.325307 0.000102401  0.0216348 -0.324846 9.08375e-05  0.0203543 -0.34721 3.82662e-05  0.0203855 -0.347226 2.85506e-05  0.0281711 -0.340211 6.33001e-05  0.0277674 -0.347661 3.62396e-05  0.0282094 -0.340231 4.8399e-05  0.0207796 -0.339757 5.79357e-05  0.0203719 -0.34721 3.19481e-05  0.0208132 -0.339779 4.27365e-05  0.0281928 -0.34022 5.62668e-05  0.0207984 -0.339767 5.01871e-05  0.0194933 -0.362062 3.21865e-06  0.0195229 -0.362071 3.39746e-06  0.027318 -0.355083 2.19345e-05  0.0269039 -0.362506 5.00679e-06  0.0273535 -0.355096 1.78218e-05  0.0199306 -0.354635 2.03848e-05  0.0195098 -0.362059 1.3113e-06  0.0199561 -0.354648 1.57952e-05  0.0273383 -0.355089 1.96695e-05  0.0199423 -0.354641 1.75238e-05  0.0186281 -0.376864 -3.24249e-05  0.0186548 -0.376875 -2.27094e-05  0.026454 -0.369907 -1.07288e-05  0.0260344 -0.377312 -2.80142e-05  0.026484 -0.369918 -7.689e-06  0.0190628 -0.369462 -1.15633e-05  0.0186439 -0.376862 -2.55108e-05  0.0190897 -0.369471 -9.0003e-06  0.0264692 -0.369912 -9.05991e-06  0.0190761 -0.369465 -1.01328e-05  0 0 0  0.00386818 -0.00249761 0.00562286  0.00283916 -0.00370628 0.00328648  0 0 0  0.00181756 -0.00246406 0.00381041  0.00406061 -0.00477308 0.00478566  0.00133716 -0.00318772 0.00212753  0 0 0  0.00135013 -0.00134271 0.00328219  0.00312023 -0.00320834 0.00429904  0.000859909 -0.00198537 0.00181061  0 0 0  0.00134633 -0.00267518 0.00278401  0.000909679 -0.0016458 0.00238228  0.00820056 -0.00509405 0.0067929  0.00737059 -0.00678825 0.00493884  0.00755818 -0.00475645 0.00720787  0.00926021 -0.00710845 0.00674188  0.00650991 -0.00642079 0.00487715  0.00626874 -0.00366277 0.00634646  0.00772223 -0.00603658 0.00591815  0.00514963 -0.00513273 0.00428647  0.00686346 -0.00577128 0.00601518  0.00557829 -0.00451189 0.00529826  0.0118715 -0.0089041 0.00731611  0.0115639 -0.0107113 0.00544178  0.0117959 -0.00781685 0.00821686  0.0137826 -0.0109793 0.00730419  0.0113085 -0.00971889 0.00600898  0.010011 -0.0068264 0.00715208  0.0117191 -0.00989276 0.00638855  0.00950798 -0.00859702 0.0052734  0.0115188 -0.00889039 0.00712919  0.00973445 -0.00780761 0.00623977  0.0155182 -0.0140325 0.00726283  0.0154579 -0.0158332 0.00546402  0.0160684 -0.0123238 0.00840294  0.0181413 -0.0160486 0.00727904  0.0158888 -0.0142028 0.00626528  0.0137181 -0.0113055 0.00732958  0.0155153 -0.0150052 0.00637329  0.0135444 -0.0131186 0.00549358  0.0159986 -0.0133566 0.00734222  0.0136497 -0.0122952 0.00642288  0.0189885 -0.020361 0.0069741  0.0190718 -0.0220871 0.00525337  0.0201716 -0.0180607 0.00816405  0.0222147 -0.0223034 0.00698102  0.0201793 -0.0198584 0.00613087  0.0172766 -0.0170492 0.00713825  0.0190634 -0.0212862 0.00611818  0.017301 -0.0188162 0.00537694  0.0202135 -0.0190342 0.00715339  0.0173195 -0.0180049 0.00626493  0.0222427 -0.0277633 0.00656903  0.0223954 -0.0293902 0.00494415  0.0240466 -0.0249254 0.00773931  0.0259929 -0.0296199 0.00656545  0.0241563 -0.0266132 0.00582099  0.0206462 -0.0239284 0.00677943  0.0223525 -0.0286322 0.0057584  0.0207704 -0.025607 0.00510639  0.0241433 -0.025833 0.00678205  0.0207421 -0.0248325 0.00594628  0.0252388 -0.0361318 0.00612009  0.0254227 -0.0376491 0.00460023  0.0276425 -0.0328006 0.00723529  0.029452 -0.0378972 0.00610721  0.0278016 -0.0343713 0.00544024  0.0237753 -0.0318279 0.00634623  0.0253626 -0.0369403 0.0053606  0.0239471 -0.0334002 0.00477439  0.0277632 -0.0336426 0.00634062  0.0238937 -0.0326712 0.00556147  0.0279584 -0.0453729 0.00566208  0.0281526 -0.046774 0.00425088  0.0309337 -0.041587 0.00671101  0.0325865 -0.047044 0.00564432  0.0311101 -0.0430402 0.00504249  0.0266338 -0.0406437 0.00589144  0.0280848 -0.0461178 0.00495553  0.0268258 -0.0421019 0.00442481  0.0310603 -0.042365 0.00587678  0.0267601 -0.0414251 0.00515866  0.0303926 -0.0553942 0.005211  0.0305882 -0.0566861 0.00390834  0.033904 -0.0511987 0.00618732  0.0353966 -0.0569757 0.00519013  0.0340878 -0.052538 0.00464505  0.0292096 -0.0502846 0.00543463  0.0305173 -0.0560802 0.00455952  0.0294075 -0.0516306 0.00407773  0.0340325 -0.0519141 0.00541651  0.0293373 -0.0510049 0.00475574  0.032544 -0.0661243 0.00477338  0.032735 -0.0673097 0.00357801  0.0365592 -0.0615543 0.00567889  0.0378895 -0.0676193 0.00475228  0.0367405 -0.0627828 0.00426203  0.0315049 -0.0606695 0.00499046  0.0326651 -0.066754 0.00417507  0.0316982 -0.0619075 0.00374138  0.0366817 -0.0622119 0.00497091  0.0316266 -0.0613319 0.00436473  0.0344191 -0.0774916 0.00435567  0.0346031 -0.0785753 0.00326335  0.0389009 -0.0725829 0.00519097  0.0400733 -0.0789037 0.00433373  0.039075 -0.0737071 0.00389385  0.033516 -0.0717281 0.00456154  0.0345358 -0.0780674 0.0038085  0.0337034 -0.0728605 0.00341922  0.0390189 -0.0731838 0.00454164  0.0336345 -0.0723333 0.0039897  0.0360296 -0.0894338 0.00395417  0.0362054 -0.0904171 0.00296253  0.040938 -0.0842168 0.00472283  0.0419613 -0.0907624 0.00393474  0.0411088 -0.0852406 0.00354332  0.0352576 -0.0833896 0.00415361  0.0361403 -0.089953 0.0034579  0.0354373 -0.0844215 0.00311083  0.0410527 -0.0847642 0.00413299  0.0353705 -0.0839419 0.00363052  0.0373833 -0.101883 0.00357354  0.0375538 -0.102772 0.0026775  0.04269 -0.0963911 0.00427759  0.0435679 -0.103135 0.00355351  0.0428514 -0.0973182 0.00320888  0.0367386 -0.0955916 0.00376248  0.0374905 -0.102353 0.00312603  0.0369112 -0.0965275 0.00281835  0.0427992 -0.0968869 0.00374305  0.0368458 -0.0960923 0.0032903  0.0384972 -0.114786 0.00321281  0.038662 -0.115585 0.00240654  0.0441602 -0.109048 0.00385344  0.044904 -0.115963 0.00319397  0.0443195 -0.109885 0.00289136  0.0379705 -0.108277 0.00339091  0.0386002 -0.115208 0.00280869  0.0381373 -0.109119 0.00254059  0.0442692 -0.109495 0.00337172  0.0380741 -0.108727 0.00296474  0.0393846 -0.128087 0.00286913  0.0395441 -0.1288 0.00215036  0.0453787 -0.12213 0.00345278  0.0459912 -0.129192 0.00285137  0.0455306 -0.122879 0.00259054  0.0389682 -0.121384 0.00303936  0.0394838 -0.128463 0.00250983  0.039131 -0.12214 0.00227684  0.0454785 -0.12253 0.00302112  0.0390698 -0.121787 0.00265813  0.0400589 -0.141731 0.00254536  0.0402131 -0.142367 0.00190759  0.0463467 -0.135584 0.00307167  0.0468409 -0.142771 0.00252879  0.0464948 -0.136251 0.00230616  0.0397475 -0.134864 0.00270641  0.0401552 -0.142066 0.00222588  0.0399052 -0.135537 0.00202709  0.046445 -0.13594 0.00268841  0.039844 -0.135223 0.00236607  0.0405378 -0.15568 0.00224042  0.0406847 -0.156237 0.001679  0.0470905 -0.149362 0.00271332  0.0474699 -0.156652 0.00222552  0.0472295 -0.14995 0.00203645  0.0403233 -0.148667 0.00239158  0.0406291 -0.155972 0.00196016  0.040473 -0.149261 0.00179136  0.0471826 -0.149676 0.00237489  0.0404158 -0.148984 0.00209081  0.0408337 -0.169879 0.0019573  0.0409753 -0.170367 0.00146645  0.0476189 -0.163416 0.00237811  0.0478964 -0.17079 0.00194144  0.0477548 -0.163932 0.00178593  0.0407083 -0.162744 0.00209749  0.0409212 -0.170134 0.00171208  0.0408516 -0.163266 0.00157118  0.0477076 -0.163692 0.00208175  0.0407972 -0.163023 0.0018338  0.0409603 -0.184293 0.00168824  0.0410953 -0.184714 0.00126636  0.0479498 -0.177704 0.00206208  0.0481329 -0.185144 0.00167251  0.0480833 -0.178152 0.0015496  0.0409195 -0.177056 0.00182128  0.0410438 -0.184512 0.00147796  0.0410564 -0.17751 0.00136441  0.0480375 -0.177943 0.0018059  0.0410025 -0.177297 0.00159204  0.0409346 -0.198881 0.00144172  0.0410621 -0.19924 0.00108171  0.0481036 -0.192187 0.00176978  0.0481966 -0.199678 0.00142765  0.048229 -0.19257 0.00132966  0.040966 -0.191562 0.0015651  0.0410125 -0.199067 0.00126112  0.0410967 -0.191951 0.0011726  0.0481853 -0.192391 0.00154996  0.0410471 -0.191769 0.00136793  0.0407672 -0.213608 0.00121498  0.0408874 -0.213911 0.000911117  0.0480931 -0.206827 0.00149965  0.0481043 -0.214354 0.00120223  0.0482092 -0.207151 0.00112748  0.0408661 -0.206226 0.00132799  0.0408409 -0.213765 0.00106263  0.0409925 -0.206555 0.000994563  0.0481677 -0.206999 0.0013144  0.0409436 -0.206399 0.00116038  0.0404751 -0.228446 0.00100708  0.0405886 -0.228694 0.000753939  0.0479317 -0.221594 0.00125039  0.047868 -0.229142 0.000993133  0.0480423 -0.221861 0.000940621  0.0406358 -0.221011 0.001109  0.040544 -0.228571 0.000880957  0.0407541 -0.221286 0.000830472  0.048003 -0.221734 0.00109446  0.0407073 -0.221156 0.000969648  0.0400705 -0.24336 0.000817657  0.0401747 -0.243561 0.000613093  0.0476344 -0.236451 0.00102091  0.0475061 -0.244008 0.000803709  0.047739 -0.236669 0.000770271  0.0402853 -0.23589 0.000910163  0.0401349 -0.243461 0.000714898  0.040395 -0.236113 0.000681639  0.0477028 -0.236565 0.000896215  0.0403521 -0.236007 0.000795484  0.0395663 -0.258328 0.000648022  0.0396614 -0.258488 0.000486255  0.0472238 -0.251376 0.000819683  0.0470316 -0.258935 0.000636578  0.0473168 -0.251549 0.00061816  0.0398307 -0.25083 0.000731111  0.0396245 -0.258404 0.00056684  0.0399294 -0.251013 0.000548065  0.0472822 -0.251465 0.000718594  0.0398912 -0.250927 0.000638962  0.0389752 -0.273322 0.000498295  0.0390627 -0.273444 0.000373483  0.046699 -0.266339 0.000635743  0.0464566 -0.273892 0.000485301  0.0467889 -0.266472 0.000481725  0.0392804 -0.265816 0.000571132  0.0390279 -0.273379 0.000435829  0.0393722 -0.265956 0.000427365  0.0467558 -0.266408 0.000560403  0.0393367 -0.265888 0.000499606  0.0383134 -0.288326 0.000370145  0.0383873 -0.288414 0.000276566  0.0460925 -0.281326 0.000477195  0.0458009 -0.288861 0.000357747  0.046169 -0.281423 0.000361443  0.0386539 -0.280818 0.000431299  0.038358 -0.288366 0.000322819  0.0387352 -0.280921 0.000323832  0.0461378 -0.281376 0.000419497  0.0387022 -0.280871 0.000376225  0.0375853 -0.303319 0.000259161  0.0376532 -0.303379 0.000195265  0.0454082 -0.296312 0.000341058  0.0450718 -0.303825 0.000250101  0.0454702 -0.296379 0.000261068  0.0379562 -0.295819 0.000312328  0.0376253 -0.303345 0.000226378  0.0380268 -0.295893 0.000233531  0.0454423 -0.296344 0.000300884  0.0379992 -0.295856 0.000272393  0.0368097 -0.318292 0.000168562  0.0368667 -0.318327 0.000126898  0.0446475 -0.311281 0.000227571  0.0442865 -0.31877 0.000157356  0.044708 -0.311323 0.000175953  0.0372052 -0.310804 0.000210643  0.0368445 -0.318303 0.000148296  0.0372663 -0.310852 0.000159383  0.044687 -0.311303 0.000200987  0.0372398 -0.310826 0.00018549  0.0359962 -0.333225 9.70364e-05  0.0360408 -0.333247 7.62343e-05  0.0438447 -0.326224 0.000135899  0.0434558 -0.333686 9.17912e-05  0.0438945 -0.326247 0.000108182  0.0364072 -0.325756 0.000132084  0.0360222 -0.333229 8.7738e-05  0.0364585 -0.325785 0.000100076  0.0438762 -0.326231 0.000121474  0.036438 -0.325769 0.000115156  0.0351515 -0.348112 4.44651e-05  0.0351899 -0.348125 3.71933e-05  0.0429997 -0.34112 7.00951e-05  0.0425932 -0.348559 4.05312e-05  0.0430446 -0.341135 5.91278e-05  0.0355794 -0.340668 6.99759e-05  0.0351732 -0.348111 4.1604e-05  0.0356171 -0.340684 5.48959e-05  0.0430276 -0.341128 6.48499e-05  0.0356004 -0.340675 6.19888e-05  0.0342901 -0.362954 9.65595e-06  0.0343208 -0.362963 7.92742e-06  0.0421386 -0.35598 2.5034e-05  0.0417137 -0.363394 9.41753e-06  0.0421715 -0.355988 2.3365e-05  0.0347233 -0.355533 2.68221e-05  0.0343072 -0.362951 9.41753e-06  0.0347564 -0.355543 2.12193e-05  0.0421567 -0.355981 2.39611e-05  0.03474 -0.355535 2.40803e-05  0.0334163 -0.37776 -2.61068e-05  0.0334482 -0.37777 -1.7345e-05  0.0412586 -0.370796 -5.48363e-06  0.0408349 -0.378203 -1.8239e-05  0.0412891 -0.370807 -1.37091e-06  0.0338535 -0.370352 -6.79493e-06  0.0334325 -0.377757 -2.07424e-05  0.033884 -0.370364 -3.93391e-06  0.0412748 -0.3708 -4.05312e-06  0.03387 -0.370356 -6.19888e-06  -0.0037692 -0.00544006 -0.00300646  -0.00137155 -0.00340652 -0.00128096  0 0 0  -0.00263056 -0.00404774 -0.00198036  0 0 0  -0.00191039 -0.00248589 -0.00223327  -0.000576369 -0.00134284 -0.000944793  0 0 0  -0.00133343 -0.00317281 -0.00169629  -0.00266109 -0.00373087 -0.00260526  -0.000798687 -0.00212788 -0.00107491  0 0 0  -0.000588387 -0.00119984 -0.00125831  -0.000797752 -0.0019535 -0.00142449  -0.00868648 -0.00796724 -0.00467044  -0.00629908 -0.00701739 -0.00306559  -0.00689746 -0.00731643 -0.00317007  -0.0055366 -0.00569618 -0.00352639  -0.00353706 -0.00436895 -0.00229615  -0.00630637 -0.00651199 -0.00399059  -0.00700496 -0.00679637 -0.00409025  -0.00477092 -0.00559091 -0.00267351  -0.00364625 -0.00399745 -0.0029912  -0.00484565 -0.00515716 -0.00348026  -0.0134014 -0.0116366 -0.00531405  -0.0109498 -0.0102581 -0.00398517  -0.011135 -0.0111259 -0.00367594  -0.00924468 -0.00958978 -0.00399303  -0.0072974 -0.00801745 -0.00300044  -0.0110389 -0.00966197 -0.00508946  -0.0112342 -0.0105392 -0.00464737  -0.0090206 -0.00908486 -0.00348961  -0.00742772 -0.00750898 -0.00382495  -0.00913858 -0.00852988 -0.00445062  -0.0179974 -0.016388 -0.00536358  -0.0156623 -0.0144814 -0.00427842  -0.0152296 -0.0160072 -0.00374693  -0.0127172 -0.0145758 -0.00402421  -0.0109333 -0.0125007 -0.00321847  -0.0157282 -0.0138652 -0.00538605  -0.0152712 -0.0154145 -0.00469077  -0.0132095 -0.0134232 -0.00374687  -0.0110027 -0.0119436 -0.00404155  -0.0132796 -0.012835 -0.00470906  -0.0223613 -0.0222513 -0.00514591  -0.0201806 -0.0197836 -0.00421977  -0.0191064 -0.0219554 -0.00360948  -0.0160129 -0.0206407 -0.00385934  -0.0143769 -0.0180369 -0.00317156  -0.0202094 -0.0191859 -0.00527716  -0.0190999 -0.0213826 -0.00450122  -0.017194 -0.0188453 -0.00369471  -0.0143858 -0.0174768 -0.00395781  -0.0172115 -0.0182659 -0.00461429  -0.0264841 -0.0291338 -0.00481749  -0.0244636 -0.0261339 -0.00400144  -0.02277 -0.0289073 -0.00338161  -0.0191424 -0.027715 -0.00361085  -0.0176312 -0.024597 -0.00300407  -0.0244533 -0.0255708 -0.0049901  -0.0227268 -0.0283682 -0.00421262  -0.0209647 -0.0253056 -0.00350201  -0.0175981 -0.0240571 -0.00374162  -0.020938 -0.0247536 -0.00436479  -0.0303701 -0.036949 -0.0044511  -0.0284966 -0.0334536 -0.00371963  -0.0262259 -0.0367837 -0.0031243  -0.0221177 -0.0357138 -0.00333542  -0.0207118 -0.0321128 -0.00279039  -0.0284559 -0.0329309 -0.00463629  -0.0261598 -0.0362812 -0.00389266  -0.024522 -0.0327295 -0.00325471  -0.0206491 -0.0316029 -0.00347465  -0.0244669 -0.0322128 -0.00405455  -0.034029 -0.0456161 -0.00408244  -0.0322825 -0.0416623 -0.00342327  -0.0294847 -0.0455043 -0.00286478  -0.0249463 -0.0445575 -0.00305825  -0.0236296 -0.0405081 -0.00256532  -0.0322276 -0.0411818 -0.00426716  -0.0294058 -0.0450417 -0.00357157  -0.0278788 -0.0410371 -0.00299394  -0.0235505 -0.0400335 -0.00319618  -0.0278058 -0.0405593 -0.00373125  -0.0374722 -0.0550615 -0.00373101  -0.035843 -0.0506869 -0.00313234  -0.0325599 -0.0550016 -0.00261492  -0.0276339 -0.0541739 -0.0027917  -0.0263948 -0.0497093 -0.0023455  -0.0357763 -0.0502459 -0.00390494  -0.0324751 -0.0545768 -0.00326133  -0.0310446 -0.0501547 -0.0027386  -0.0263073 -0.0492724 -0.00292444  -0.0309621 -0.0497166 -0.00341463  -0.0407119 -0.0652178 -0.00339431  -0.0391899 -0.0604567 -0.00285488  -0.0354609 -0.0652098 -0.00237846  -0.030187 -0.0644949 -0.00254017  -0.0290155 -0.0596491 -0.00213623  -0.039117 -0.0600539 -0.00356126  -0.0353751 -0.0648211 -0.00296789  -0.0340307 -0.0600155 -0.00249529  -0.0289277 -0.0592488 -0.00266516  -0.0339451 -0.0596141 -0.00311267  -0.0437585 -0.0760237 -0.00307786  -0.0423291 -0.0709097 -0.0025928  -0.0381982 -0.0760623 -0.00215602  -0.032613 -0.0754579 -0.00230283  -0.0315048 -0.0702641 -0.0019387  -0.0422578 -0.0705443 -0.00323468  -0.0381148 -0.0757106 -0.00269109  -0.0368494 -0.0705529 -0.00226563  -0.0314155 -0.0698993 -0.00242019  -0.0367641 -0.070188 -0.00282729  -0.0466189 -0.0874185 -0.00278109  -0.0452801 -0.0819819 -0.00234663  -0.0407803 -0.0875035 -0.00194645  -0.0349134 -0.087004 -0.00207913  -0.0338644 -0.0814914 -0.00175381  -0.0452106 -0.0816512 -0.0029279  -0.0406997 -0.087184 -0.0024308  -0.039508 -0.0817077 -0.00204998  -0.0337775 -0.081161 -0.00218952  -0.039426 -0.0813767 -0.00255936  -0.0493064 -0.0993477 -0.00250167  -0.0480496 -0.0936182 -0.00211424  -0.0432155 -0.0994748 -0.00175005  -0.0370982 -0.0990754 -0.0018695  -0.0361027 -0.0932754 -0.00157958  -0.047985 -0.0933196 -0.00263894  -0.0431391 -0.0991872 -0.00218463  -0.0420147 -0.0934214 -0.00184643  -0.0360199 -0.092976 -0.00197297  -0.0419362 -0.0931225 -0.00230569  -0.0518249 -0.111755 -0.00223601  -0.0506469 -0.105762 -0.0018962  -0.0455089 -0.111925 -0.00156486  -0.0391695 -0.111618 -0.00167191  -0.0382248 -0.105558 -0.00141573  -0.050586 -0.105494 -0.00236726  -0.0454367 -0.111668 -0.00195432  -0.0443791 -0.105638 -0.00165582  -0.0381482 -0.10529 -0.00176948  -0.0443041 -0.10537 -0.00206792  -0.0541822 -0.124591 -0.00198817  -0.0530801 -0.118363 -0.00169134  -0.0476683 -0.124799 -0.00139117  -0.0411329 -0.12458 -0.00148553  -0.0402346 -0.118288 -0.00126326  -0.0530227 -0.118122 -0.00211149  -0.0476013 -0.124568 -0.00173724  -0.0466053 -0.118306 -0.00147659  -0.0401642 -0.118048 -0.00157821  -0.0465361 -0.118067 -0.00184435  -0.0563886 -0.137808 -0.00175714  -0.055359 -0.131367 -0.00149888  -0.0496989 -0.138051 -0.00122893  -0.0429906 -0.137913 -0.00131178  -0.0421399 -0.131415 -0.00111842  -0.0553043 -0.131155 -0.00187051  -0.0496372 -0.137846 -0.00153458  -0.0486983 -0.131375 -0.00130862  -0.0420732 -0.131202 -0.00139737  -0.048635 -0.131163 -0.00163466  -0.058449 -0.151357 -0.00153941  -0.0574872 -0.144729 -0.00131863  -0.0516081 -0.151632 -0.00107592  -0.0447507 -0.151571 -0.00114989  -0.0439444 -0.144891 -0.000983417  -0.0574369 -0.144544 -0.0016461  -0.0515511 -0.151452 -0.00134403  -0.050668 -0.144797 -0.00115091  -0.0438838 -0.144704 -0.00122839  -0.0506094 -0.144611 -0.00143784  -0.060375 -0.165195 -0.00133622  -0.0594747 -0.158406 -0.00115013  -0.0534008 -0.1655 -0.00093478  -0.0464141 -0.16551 -0.000997126  -0.0456526 -0.15867 -0.00085783  -0.0594287 -0.158242 -0.00143552  -0.0533488 -0.165343 -0.00116748  -0.0525186 -0.158528 -0.00100398  -0.0455933 -0.158507 -0.00107187  -0.052465 -0.158364 -0.00125486  -0.0621684 -0.179284 -0.00114673  -0.0613296 -0.172352 -0.000993788  -0.0550828 -0.179615 -0.000803351  -0.0479879 -0.179689 -0.000855625  -0.047266 -0.172712 -0.000740588  -0.0612879 -0.172212 -0.00123906  -0.0550365 -0.179479 -0.00100178  -0.0542552 -0.172524 -0.000867248  -0.0472119 -0.17257 -0.000925183  -0.0542059 -0.172383 -0.00108314  -0.0638406 -0.193584 -0.000973403  -0.0630558 -0.18653 -0.000848174  -0.0566614 -0.193937 -0.000681281  -0.0494766 -0.194068 -0.000726402  -0.0487878 -0.186977 -0.00063163  -0.0630195 -0.18641 -0.00105947  -0.0566194 -0.193821 -0.000850081  -0.0558851 -0.186747 -0.000740588  -0.048744 -0.186854 -0.000789702  -0.05584 -0.186626 -0.000925183  -0.0653958 -0.208054 -0.000814438  -0.0646663 -0.200901 -0.000714839  -0.0581427 -0.208429 -0.000569642  -0.0508816 -0.208613 -0.000607133  -0.0502298 -0.201424 -0.000532925  -0.0646319 -0.200798 -0.000891805  -0.0581036 -0.20833 -0.000710428  -0.0574126 -0.201158 -0.000623345  -0.050189 -0.201321 -0.00066638  -0.0573738 -0.201055 -0.000779152  -0.0668433 -0.222667 -0.000668883  -0.0661607 -0.215429 -0.000592649  -0.0595303 -0.22306 -0.000468671  -0.0522108 -0.22329 -0.00049895  -0.0515928 -0.216022 -0.000441074  -0.0661321 -0.215345 -0.000739157  -0.0594957 -0.222977 -0.000585198  -0.0588465 -0.215723 -0.000517547  -0.0515566 -0.215937 -0.000552118  -0.0588109 -0.215638 -0.000646114  -0.0681932 -0.237391 -0.00053817  -0.0675538 -0.230086 -0.000483751  -0.0608313 -0.237798 -0.000376046  -0.0534692 -0.23807 -0.000401914  -0.0528815 -0.23074 -0.000358999  -0.0675297 -0.230018 -0.000602186  -0.0608017 -0.23773 -0.000470161  -0.060189 -0.230411 -0.000421286  -0.0528491 -0.230669 -0.000448763  -0.0601594 -0.230342 -0.000525415  -0.0694487 -0.252197 -0.000421405  -0.0688505 -0.244839 -0.000384927  -0.0620537 -0.252616 -0.000296533  -0.0546579 -0.252926 -0.000314713  -0.0540993 -0.245546 -0.000285864  -0.0688317 -0.244785 -0.000477374  -0.0620284 -0.252562 -0.000369251  -0.06145 -0.245193 -0.000335157  -0.0540712 -0.24549 -0.000356078  -0.0614245 -0.245137 -0.000418007  -0.0706215 -0.26706 -0.000318468  -0.0700622 -0.259665 -0.000297368  -0.0632048 -0.267488 -0.000224471  -0.0557876 -0.267829 -0.000238359  -0.055253 -0.260415 -0.000220001  -0.0700448 -0.259622 -0.000370383  -0.0631833 -0.267446 -0.000279188  -0.0626369 -0.260041 -0.000259101  -0.0552297 -0.260372 -0.000275791  -0.0626142 -0.259998 -0.000323594  -0.0717225 -0.281957 -0.000232935  -0.0711968 -0.274537 -0.000220478  -0.0642934 -0.282394 -0.00016278  -0.0568621 -0.282762 -0.000171959  -0.0563509 -0.275327 -0.000164211  -0.0711813 -0.274504 -0.000274301  -0.0642741 -0.282361 -0.000203788  -0.0637548 -0.274933 -0.000192165  -0.0563314 -0.275293 -0.000205338  -0.0637364 -0.2749 -0.00023967  -0.072758 -0.29687 -0.000158191  -0.0722625 -0.289435 -0.000155091  -0.0653219 -0.297315 -0.000112176  -0.0578876 -0.297702 -0.000118077  -0.0573986 -0.290256 -0.000115395  -0.0722461 -0.289413 -0.000193417  -0.0653071 -0.297288 -0.000139713  -0.0648141 -0.289849 -0.000136673  -0.05738 -0.29023 -0.000145555  -0.0647972 -0.289824 -0.000170112  -0.0737367 -0.311782 -0.000100493  -0.0732648 -0.304342 -0.000105023  -0.0663052 -0.31223 -7.15256e-05  -0.0588698 -0.312634 -7.62343e-05  -0.0583968 -0.305187 -7.75456e-05  -0.0732543 -0.304325 -0.000128925  -0.066292 -0.312212 -8.89301e-05  -0.0658183 -0.304767 -9.05991e-05  -0.0583842 -0.30517 -9.56059e-05  -0.0658052 -0.304751 -0.000112653  -0.0746725 -0.326678 -5.85914e-05  -0.0742204 -0.319242 -6.41346e-05  -0.0672486 -0.327129 -4.14252e-05  -0.0598197 -0.327545 -4.28557e-05  -0.0593605 -0.320105 -4.66704e-05  -0.0742083 -0.319233 -7.63535e-05  -0.0672364 -0.327114 -4.97103e-05  -0.0667815 -0.319677 -5.54323e-05  -0.0593476 -0.320093 -5.79953e-05  -0.0667694 -0.319666 -6.81877e-05  -0.0755739 -0.341548 -2.64645e-05  -0.0751319 -0.334122 -3.49879e-05  -0.0681617 -0.341999 -1.90139e-05  -0.060739 -0.342423 -1.75834e-05  -0.060292 -0.334995 -2.40803e-05  -0.0751266 -0.334117 -3.98159e-05  -0.068151 -0.341989 -2.28286e-05  -0.0677071 -0.334561 -2.97427e-05  -0.0602827 -0.334987 -2.86698e-05  -0.0676973 -0.334555 -3.51071e-05  -0.0764565 -0.356388 -6.3777e-06  -0.0760262 -0.348977 -1.49608e-05  -0.0690558 -0.356838 -2.6226e-06  -0.0616384 -0.357264 3.57628e-07  -0.0611997 -0.349854 -7.86781e-06  -0.0760181 -0.348971 -1.63913e-05  -0.0690441 -0.356828 -2.74181e-06  -0.0686085 -0.349418 -1.03712e-05  -0.0611906 -0.349848 -8.64267e-06  -0.0685995 -0.349412 -1.18613e-05  -0.0773377 -0.371207 1.37091e-05  -0.0769053 -0.363801 1.37091e-06  -0.0699389 -0.371651 1.20401e-05  -0.0625274 -0.372073 1.9908e-05  -0.0620918 -0.364677 7.27177e-06  -0.0768983 -0.363799 3.8147e-06  -0.0699294 -0.371642 1.71065e-05  -0.0694962 -0.364241 5.1856e-06  -0.0620842 -0.364671 9.59635e-06  -0.0694876 -0.364236 7.09295e-06  -0.00139344 -0.00190483 -0.00141877  0 0 0  -0.00106637 -0.00112836 -0.00152713  -0.000318538 -0.000469089 -0.000639975  0 0 0  -0.0014532 -0.0016744 -0.00188023  -0.000425167 -0.000821516 -0.000785172  0 0 0  -0.00033037 -0.000370443 -0.000861287  -0.000436135 -0.000703797 -0.00105101  -0.00418501 -0.00516839 -0.00229627  -0.00323121 -0.00404479 -0.00240529  -0.001975 -0.00272791 -0.00156027  -0.00431281 -0.00475839 -0.00296879  -0.00269103 -0.00341605 -0.00192583  -0.00206552 -0.00244026 -0.00203907  -0.00279595 -0.0030925 -0.00251228  -0.00729463 -0.0093009 -0.00265485  -0.00568146 -0.00814153 -0.0027042  -0.00434923 -0.00638349 -0.00203586  -0.00739285 -0.00879142 -0.0033524  -0.00574625 -0.00710706 -0.00252157  -0.0044592 -0.00595663 -0.00259775  -0.00587165 -0.00664276 -0.00321442  -0.0102765 -0.0144171 -0.00269461  -0.00803706 -0.01331 -0.00270432  -0.00682089 -0.0110894 -0.00217175  -0.0103098 -0.0138742 -0.00336623  -0.00880653 -0.0117226 -0.00269789  -0.00687596 -0.0105893 -0.00272411  -0.00887084 -0.0111952 -0.00338584  -0.0130931 -0.0205689 -0.00258797  -0.0102705 -0.0195375 -0.00258291  -0.00916398 -0.0168195 -0.0021292  -0.0130761 -0.020026 -0.00322181  -0.0117044 -0.0173613 -0.00265217  -0.00916719 -0.0162946 -0.00265336  -0.0117107 -0.0168194 -0.00330728  -0.0157622 -0.027701 -0.00241983  -0.0124052 -0.0267572 -0.00241107  -0.0113844 -0.0235469 -0.00201017  -0.0157102 -0.027178 -0.00301194  -0.0144446 -0.0240105 -0.00250858  -0.0113486 -0.0230273 -0.00250077  -0.0144089 -0.0234811 -0.00312203  -0.0182979 -0.0357432 -0.00223231  -0.0144569 -0.0348937 -0.00222343  -0.0134984 -0.0312129 -0.00186312  -0.0182256 -0.0352507 -0.0027793  -0.0170453 -0.0316064 -0.00232726  -0.0134397 -0.0307148 -0.00231808  -0.0169824 -0.0311031 -0.00289679  -0.0207137 -0.044625 -0.00204456  -0.0164344 -0.0438717 -0.00203639  -0.0155279 -0.039749 -0.0017103  -0.0206305 -0.0441663 -0.00254738  -0.0195192 -0.040078 -0.00213802  -0.0154545 -0.039281 -0.00212944  -0.0194413 -0.0396065 -0.00266349  -0.0230191 -0.0542753 -0.00186479  -0.0183427 -0.0536187 -0.00185764  -0.0174762 -0.0490871 -0.00156164  -0.0229307 -0.0538525 -0.00232565  -0.0218792 -0.0493524 -0.00195324  -0.0173973 -0.0486523 -0.00194603  -0.021793 -0.048917 -0.00243539  -0.0252188 -0.0646302 -0.00169426  -0.0201848 -0.0640681 -0.00168806  -0.0193527 -0.0591585 -0.00142062  -0.0251307 -0.0642428 -0.002114  -0.0241306 -0.0593624 -0.00177801  -0.019272 -0.0587592 -0.00177145  -0.0240424 -0.058963 -0.0022189  -0.0273215 -0.0756247 -0.00153446  -0.0219626 -0.0751553 -0.00152713  -0.0211616 -0.0699 -0.00128764  -0.0272348 -0.0752724 -0.00191665  -0.0262815 -0.0700451 -0.00161368  -0.0210811 -0.0695345 -0.00160813  -0.0261947 -0.0696803 -0.00201416  -0.0293293 -0.0872019 -0.00138462  -0.0236787 -0.0868209 -0.00137955  -0.022905 -0.0812506 -0.00116318  -0.0292468 -0.0868813 -0.00172973  -0.0283365 -0.0813384 -0.00145864  -0.022828 -0.0809186 -0.00145251  -0.0282519 -0.0810067 -0.00182098  -0.0312481 -0.0993019 -0.00124431  -0.0253352 -0.0990054 -0.00123906  -0.0245882 -0.0931505 -0.00104666  -0.0311692 -0.0990137 -0.00155342  -0.0302994 -0.0931834 -0.00131369  -0.0245154 -0.0928503 -0.00130749  -0.0302184 -0.0928842 -0.00164026  -0.0330811 -0.111874 -0.00111181  -0.0269334 -0.111656 -0.00110638  -0.0262092 -0.105545 -0.000937462  -0.0330069 -0.111614 -0.00138986  -0.0321742 -0.105526 -0.00117713  -0.0261416 -0.105275 -0.00117123  -0.0320983 -0.105257 -0.00147074  -0.0348314 -0.124861 -0.00098896  -0.0284749 -0.12472 -0.000982881  -0.0277768 -0.11838 -0.000835359  -0.0347617 -0.124629 -0.00123477  -0.0339673 -0.118312 -0.00104874  -0.0277113 -0.118138 -0.00104433  -0.0338942 -0.118071 -0.00131094  -0.0365016 -0.138219 -0.000872135  -0.0299613 -0.138147 -0.000867426  -0.0292857 -0.131605 -0.000739634  -0.0364373 -0.138012 -0.00108975  -0.0356748 -0.131491 -0.000928819  -0.029225 -0.13139 -0.000923932  -0.03561 -0.131277 -0.00116146  -0.038096 -0.151897 -0.000764132  -0.031395 -0.151893 -0.000758648  -0.0307412 -0.145172 -0.000649571  -0.0380359 -0.151717 -0.000954628  -0.0373075 -0.145015 -0.000816941  -0.0306838 -0.144982 -0.000810564  -0.0372462 -0.144826 -0.00102127  -0.0396149 -0.165857 -0.000661969  -0.0327749 -0.165911 -0.000656843  -0.0321417 -0.159035 -0.000566125  -0.039561 -0.165698 -0.000827909  -0.0388637 -0.158838 -0.000711977  -0.0320907 -0.158869 -0.000708699  -0.0388072 -0.158674 -0.000890255  -0.0410647 -0.180053 -0.000568509  -0.0341043 -0.180163 -0.00056392  -0.033493 -0.173153 -0.000487685  -0.0410151 -0.179915 -0.000710666  -0.0403471 -0.172921 -0.000614524  -0.0334456 -0.173009 -0.000610054  -0.0402966 -0.172779 -0.000768065  -0.0424457 -0.194447 -0.000482321  -0.0353842 -0.194608 -0.00047791  -0.0347922 -0.187486 -0.000415921  -0.0424018 -0.194329 -0.000602245  -0.0417626 -0.187221 -0.000524342  -0.0347502 -0.187363 -0.000520825  -0.0417168 -0.187099 -0.000656068  -0.043762 -0.209006 -0.000402749  -0.0366161 -0.209213 -0.000401199  -0.0360444 -0.201997 -0.000350535  -0.0437238 -0.208907 -0.000503659  -0.0431118 -0.201702 -0.00044173  -0.0360055 -0.201892 -0.000437677  -0.0430696 -0.201598 -0.000552833  -0.045018 -0.223696 -0.000331283  -0.0378015 -0.223943 -0.000327587  -0.0372458 -0.216651 -0.000290096  -0.0449834 -0.223612 -0.000415027  -0.0443974 -0.21633 -0.000365615  -0.0372145 -0.216562 -0.000363052  -0.0443604 -0.216243 -0.000457942  -0.0462148 -0.238485 -0.000266314  -0.0389435 -0.238769 -0.000262916  -0.0384059 -0.231417 -0.00023514  -0.0461836 -0.238415 -0.000331998  -0.0456228 -0.231074 -0.000298262  -0.038377 -0.231344 -0.000294447  -0.0455899 -0.231002 -0.000371993  -0.0473588 -0.253347 -0.000208676  -0.0400438 -0.253662 -0.000205517  -0.0395267 -0.246266 -0.000187099  -0.047333 -0.253291 -0.000261128  -0.0467935 -0.245903 -0.000236154  -0.0394988 -0.246208 -0.000233948  -0.0467644 -0.245846 -0.000296295  -0.0484526 -0.268258 -0.000157356  -0.0411055 -0.268601 -0.000155389  -0.0405977 -0.261173 -0.000143468  -0.0484309 -0.268214 -0.000197113  -0.0479107 -0.260793 -0.000182867  -0.04058 -0.261126 -0.000180066  -0.0478866 -0.260746 -0.000228286  -0.0495019 -0.283197 -0.000114799  -0.0421321 -0.283561 -0.00011307  -0.0416417 -0.276113 -0.00010699  -0.0494831 -0.28316 -0.000144601  -0.0489817 -0.275719 -0.000135899  -0.041621 -0.276078 -0.000134945  -0.0489619 -0.275684 -0.000169694  -0.0505111 -0.29814 -7.77841e-05  -0.0431271 -0.298523 -7.83801e-05  -0.0426478 -0.291068 -7.62939e-05  -0.0504949 -0.298112 -9.94205e-05  -0.0500097 -0.290662 -9.59039e-05  -0.0426319 -0.291041 -9.47118e-05  -0.0499942 -0.290635 -0.000120342  -0.0514848 -0.313074 -5.01871e-05  -0.044091 -0.313473 -4.95315e-05  -0.0436225 -0.306019 -4.94123e-05  -0.0514715 -0.313055 -6.25253e-05  -0.051002 -0.305604 -6.38366e-05  -0.043613 -0.306 -6.22272e-05  -0.0509861 -0.305585 -8.03471e-05  -0.0524287 -0.327987 -2.82526e-05  -0.0450299 -0.328397 -2.67029e-05  -0.0445724 -0.320952 -2.99811e-05  -0.0524185 -0.327973 -3.5584e-05  -0.0519595 -0.320528 -3.80278e-05  -0.0445621 -0.320938 -3.70741e-05  -0.0519483 -0.320515 -4.77433e-05  -0.0533483 -0.342868 -1.15037e-05  -0.0459461 -0.343284 -9.53674e-06  -0.0454972 -0.335854 -1.51992e-05  -0.0533373 -0.342855 -1.45435e-05  -0.0528901 -0.335424 -1.94311e-05  -0.0454917 -0.335844 -1.78218e-05  -0.0528805 -0.335416 -2.37226e-05  -0.0542486 -0.357706 1.60933e-06  -0.0468466 -0.358129 4.58956e-06  -0.0464051 -0.350718 -2.5034e-06  -0.0542388 -0.357698 2.20537e-06  -0.0537989 -0.350286 -4.64916e-06  -0.0463979 -0.350712 -3.15905e-06  -0.0537915 -0.35028 -5.24521e-06  -0.0551379 -0.372514 1.40667e-05  -0.0477381 -0.372928 1.92523e-05  -0.047298 -0.365539 7.7486e-06  -0.0551288 -0.372503 1.87755e-05  -0.0546935 -0.365109 7.56979e-06  -0.0472922 -0.365534 9.95398e-06  -0.0546832 -0.365103 1.09673e-05  -0.000708073 -0.000957638 -0.00086689  0 0 0  -0.000465885 -0.000555605 -0.000773966  -0.000136822 -0.000101 -0.000324845  0 0 0  -0.000746883 -0.000775516 -0.00115269  -0.000217654 -0.000239879 -0.000482559  0 0 0  -0.000142884 -2.54512e-05 -0.000437438  -0.000225388 -0.00015536 -0.000649393  -0.00222231 -0.00387615 -0.00140405  -0.00145213 -0.00320795 -0.00122064  -0.000870988 -0.00194317 -0.000791132  -0.00230691 -0.00353584 -0.00181705  -0.00139408 -0.00224915 -0.00117832  -0.0009152 -0.00169972 -0.00103325  -0.00146256 -0.00198731 -0.00153899  -0.00404558 -0.0080989 -0.00161761  -0.00262454 -0.0073238 -0.00136966  -0.00197917 -0.00549522 -0.00103271  -0.00411063 -0.00765038 -0.00204098  -0.00312209 -0.00584778 -0.00153816  -0.00203237 -0.00511625 -0.00131649  -0.00320622 -0.00544876 -0.00196153  -0.00585961 -0.0133932 -0.00163317  -0.00380307 -0.0126095 -0.00136381  -0.00319287 -0.0102914 -0.00109965  -0.00587785 -0.012888 -0.00203723  -0.00496367 -0.01061 -0.00163859  -0.00321734 -0.00982904 -0.00137717  -0.00500393 -0.0101321 -0.00205368  -0.00759012 -0.0196983 -0.00156218  -0.00495213 -0.0189505 -0.00129795  -0.00438899 -0.0161511 -0.00107408  -0.00757045 -0.0191785 -0.00194192  -0.00673491 -0.0164157 -0.00160372  -0.0043807 -0.0156513 -0.00133616  -0.00673276 -0.0159044 -0.0019967  -0.00924778 -0.0269639 -0.00145596  -0.00607842 -0.0262733 -0.00120705  -0.00554872 -0.022997 -0.00101072  -0.00920284 -0.0264558 -0.00180918  -0.00842679 -0.0232084 -0.00151139  -0.00551695 -0.0224922 -0.00125468  -0.00839305 -0.0226971 -0.00187916  -0.010849 -0.0351308 -0.00134003  -0.00719631 -0.0345063 -0.00111049  -0.00668442 -0.0307696 -0.000933886  -0.0107881 -0.0346454 -0.00166708  -0.0100542 -0.0309334 -0.00139886  -0.00663835 -0.0302794 -0.00115949  -0.0100009 -0.0304399 -0.00173938  -0.0124043 -0.0441312 -0.0012247  -0.00831074 -0.0435792 -0.00101393  -0.00780886 -0.0394054 -0.000853837  -0.012336 -0.0436752 -0.001526  -0.0116315 -0.0395243 -0.00128233  -0.00775379 -0.0389413 -0.00106168  -0.011566 -0.0390584 -0.00159609  -0.0139205 -0.0538959 -0.00111508  -0.00942552 -0.0534205 -0.000922382  -0.00892687 -0.0488401 -0.000777364  -0.0138485 -0.0534745 -0.00139022  -0.0131664 -0.0489156 -0.00116926  -0.00886858 -0.0484067 -0.000967503  -0.0130965 -0.0484815 -0.00145674  -0.0153998 -0.0643622 -0.00101155  -0.0105404 -0.0639633 -0.000834703  -0.0100422 -0.0590078 -0.000704587  -0.0153284 -0.0639741 -0.00126117  -0.0146637 -0.0590397 -0.00106204  -0.00998259 -0.0586074 -0.00087738  -0.0145919 -0.0586397 -0.00132459  -0.0168459 -0.0754655 -0.000914514  -0.0116552 -0.0751421 -0.000753284  -0.0111554 -0.0698425 -0.00063628  -0.0167761 -0.0751113 -0.00114125  -0.016126 -0.0698316 -0.0009619  -0.0110976 -0.0694759 -0.000793636  -0.0160558 -0.0694657 -0.00120091  -0.01826 -0.0871468 -0.0008232  -0.0127687 -0.086896 -0.000677049  -0.0122682 -0.0812837 -0.000572801  -0.0181929 -0.0868249 -0.00102842  -0.0175561 -0.0812323 -0.000868082  -0.012212 -0.0809497 -0.000715256  -0.0174881 -0.0808988 -0.00108409  -0.0196426 -0.0993487 -0.000738502  -0.0138807 -0.0991657 -0.000606358  -0.013379 -0.0932714 -0.000513434  -0.019578 -0.0990555 -0.000922501  -0.0189546 -0.0931788 -0.000780284  -0.0133258 -0.0929691 -0.000641286  -0.018889 -0.0928779 -0.000975311  -0.0209932 -0.112012 -0.000659227  -0.014989 -0.111898 -0.000539839  -0.0144866 -0.105749 -0.000458658  -0.0209328 -0.11175 -0.000823855  -0.0203197 -0.105619 -0.000698626  -0.0144353 -0.105477 -0.00057292  -0.0202595 -0.105348 -0.000872433  -0.0223131 -0.125089 -0.000584722  -0.0160928 -0.125038 -0.00047791  -0.0155884 -0.118662 -0.000406802  -0.0222579 -0.124855 -0.000730336  -0.0216566 -0.118496 -0.000620723  -0.0155411 -0.118418 -0.000508487  -0.0215991 -0.118254 -0.00077635  -0.0236028 -0.13853 -0.000515282  -0.0171885 -0.138537 -0.000419915  -0.0166842 -0.131961 -0.000359178  -0.0235515 -0.138321 -0.000643611  -0.0229614 -0.13176 -0.000548899  -0.0166417 -0.131744 -0.000448465  -0.0229082 -0.131545 -0.000686646  -0.0248611 -0.152286 -0.000450432  -0.0182786 -0.152348 -0.000366509  -0.0177743 -0.145597 -0.000313938  -0.0248129 -0.152102 -0.000562191  -0.024236 -0.145365 -0.000481784  -0.0177333 -0.145405 -0.000392377  -0.0241857 -0.145174 -0.000602663  -0.0260868 -0.166315 -0.000389397  -0.0193572 -0.166427 -0.000317156  -0.0188563 -0.159524 -0.000272989  -0.0260451 -0.166154 -0.000487983  -0.0254786 -0.159262 -0.00041908  -0.0188181 -0.159355 -0.000341117  -0.0254326 -0.159095 -0.00052458  -0.0272853 -0.180574 -0.000333607  -0.0204258 -0.180733 -0.000269592  -0.0199265 -0.1737 -0.000233531  -0.0272458 -0.180435 -0.000417292  -0.0266893 -0.173412 -0.000360787  -0.0198922 -0.173553 -0.00029248  -0.0266485 -0.173267 -0.000451684  -0.0284493 -0.195027 -0.000282407  -0.0214806 -0.195228 -0.000226438  -0.0209839 -0.188085 -0.000197947  -0.028414 -0.194907 -0.000353217  -0.0278714 -0.187772 -0.000307679  -0.0209548 -0.187959 -0.000248432  -0.0278325 -0.187649 -0.000385344  -0.0295842 -0.209639 -0.000236332  -0.0225227 -0.209878 -0.000189543  -0.0220284 -0.202642 -0.000165939  -0.029552 -0.209536 -0.000295281  -0.0290201 -0.202309 -0.000258207  -0.0220025 -0.202535 -0.000207067  -0.0289872 -0.202204 -0.000323832  -0.0306878 -0.224374 -0.000192702  -0.0235481 -0.224647 -0.000153422  -0.0230587 -0.217338 -0.000136197  -0.0306599 -0.224287 -0.00024122  -0.0301394 -0.216986 -0.000213206  -0.023037 -0.217247 -0.000171244  -0.0301087 -0.216896 -0.000267446  -0.0317619 -0.239202 -0.000154734  -0.0245576 -0.239507 -0.000122547  -0.0240741 -0.232141 -0.000110149  -0.0317376 -0.239132 -0.000193298  -0.0312278 -0.231771 -0.000172794  -0.0240545 -0.232066 -0.000137508  -0.0312033 -0.231698 -0.000217259  -0.0328074 -0.254101 -0.000121117  -0.0255523 -0.25443 -9.74536e-05  -0.025074 -0.247021 -8.72612e-05  -0.0327868 -0.254041 -0.000150204  -0.0322859 -0.246638 -0.000137329  -0.0250566 -0.24696 -0.000108659  -0.0322654 -0.246578 -0.000171781  -0.0338264 -0.26904 -9.04799e-05  -0.0265315 -0.269393 -6.99759e-05  -0.026058 -0.261955 -6.56843e-05  -0.0338089 -0.268992 -0.000114918  -0.0333197 -0.26156 -0.000104249  -0.0260446 -0.261906 -8.24332e-05  -0.0333011 -0.261512 -0.000132143  -0.0348189 -0.284002 -6.56843e-05  -0.0274937 -0.284373 -5.01275e-05  -0.0270257 -0.276918 -4.80413e-05  -0.0348041 -0.283963 -8.21352e-05  -0.0343251 -0.276512 -7.83801e-05  -0.027015 -0.276881 -6.04391e-05  -0.0343099 -0.276477 -9.79304e-05  -0.0357888 -0.298963 -4.44651e-05  -0.0284398 -0.299353 -3.3319e-05  -0.0279763 -0.291891 -3.29018e-05  -0.0357757 -0.298935 -5.59688e-05  -0.0353057 -0.291477 -5.48363e-05  -0.0279691 -0.291863 -4.14252e-05  -0.0352943 -0.291449 -6.8903e-05  -0.0367348 -0.313915 -2.8193e-05  -0.0293715 -0.314316 -2.07424e-05  -0.0289135 -0.306857 -2.02656e-05  -0.0367255 -0.313894 -3.50475e-05  -0.0362639 -0.306436 -3.59416e-05  -0.0289078 -0.306836 -2.64645e-05  -0.0362525 -0.306416 -4.46439e-05  -0.0376632 -0.32884 -1.48416e-05  -0.0302899 -0.329251 -9.65595e-06  -0.0298383 -0.3218 -1.15037e-05  -0.0376551 -0.328821 -1.87159e-05  -0.0372005 -0.321375 -2.16961e-05  -0.0298326 -0.321786 -1.60336e-05  -0.0371923 -0.321361 -2.71797e-05  -0.038573 -0.343729 -5.06639e-06  -0.0311925 -0.344145 -3.33786e-06  -0.0307474 -0.336712 -5.60284e-06  -0.0385659 -0.343714 -5.72205e-06  -0.0381193 -0.336282 -9.83477e-06  -0.0307438 -0.336702 -6.25849e-06  -0.0381119 -0.336273 -1.23978e-05  -0.0394702 -0.358572 3.03984e-06  -0.0320857 -0.358993 5.06639e-06  -0.0316453 -0.351581 1.01328e-06  -0.039463 -0.358562 2.98023e-06  -0.0390232 -0.35115 -7.7486e-07  -0.0316415 -0.351574 1.19209e-06  -0.0390158 -0.351143 -9.53674e-07  -0.0403574 -0.373366 1.13845e-05  -0.0329716 -0.373781 1.00136e-05  -0.0325348 -0.366401 6.02007e-06  -0.0403509 -0.373354 1.54376e-05  -0.0399139 -0.36597 7.21216e-06  -0.0325296 -0.366394 9.0003e-06  -0.039907 -0.365964 9.29832e-06  -0.000195272 -0.000608146 -0.000287116  0 0 0  4.27365e-05 -0.000433236 1.41859e-05  1.07884e-05 -2.0504e-05 6.31809e-06  0 0 0  -0.000206262 -0.000447512 -0.000379741  -5.9709e-05 -3.12924e-05 -0.000159323  0 0 0  1.31279e-05 4.69685e-05 1.07884e-05  -6.21751e-05 3.87132e-05 -0.000214219  -0.00063315 -0.00334966 -0.000469863  0.000117928 -0.00302464 9.77516e-06  7.31647e-05 -0.00176433 7.27177e-06  -0.00065574 -0.00304163 -0.000605881  -0.000390127 -0.00178632 -0.000392556  7.98702e-05 -0.00153652 1.28746e-05  -0.000409216 -0.00155407 -0.000511408  -0.00119734 -0.0075773 -0.000545442  0.000175178 -0.00715336 -5.96046e-07  0.000137687 -0.00529575 -2.98023e-07  -0.00120986 -0.00715888 -0.000686169  -0.000906706 -0.00531408 -0.000516951  0.000151753 -0.00493431 3.27826e-06  -0.000927329 -0.0049473 -0.000657499  -0.00179991 -0.0129578 -0.000551879  0.000187397 -0.0124907 -7.92742e-06  0.000170171 -0.0101308 -7.09295e-06  -0.00179279 -0.0124763 -0.000686049  -0.00149715 -0.0101317 -0.000553727  0.000187814 -0.00968364 -5.54323e-06  -0.00149953 -0.00967947 -0.000691295  -0.00241387 -0.0193598 -0.000527501  0.000140905 -0.0188907 -6.79493e-06  0.000147998 -0.0160511 -9.47714e-06  -0.00239003 -0.0188541 -0.000652373  -0.00210559 -0.0160292 -0.000542223  0.000171959 -0.0155625 -8.16584e-06  -0.0020895 -0.015537 -0.000671864  -0.00304472 -0.0267124 -0.000488579  3.02792e-05 -0.0262711 -3.39746e-06  6.55651e-05 -0.0229592 -7.39098e-06  -0.00300914 -0.0262119 -0.00060457  -0.00272673 -0.0229136 -0.000508726  9.40561e-05 -0.0224611 -5.36442e-06  -0.00269628 -0.0224132 -0.000629663  -0.00370038 -0.0349607 -0.000446737  -0.00014776 -0.0345615 1.66893e-06  -8.23736e-05 -0.0307915 -2.44379e-06  -0.00365758 -0.0344788 -0.000553429  -0.00336885 -0.0307217 -0.000468016  -5.01275e-05 -0.0303056 -5.96046e-08  -0.00332856 -0.0302344 -0.000579774  -0.00438482 -0.0440387 -0.000404358  -0.000394523 -0.0436924 9.29832e-06  -0.000296354 -0.0394877 2.08616e-06  -0.00433838 -0.043584 -0.000501871  -0.00403899 -0.0393929 -0.000425637  -0.000262976 -0.0390253 5.84126e-06  -0.00399351 -0.0389299 -0.000527859  -0.00510132 -0.0538825 -0.000365019  -0.000709772 -0.0535933 1.46031e-05  -0.000577807 -0.0489822 7.86781e-06  -0.00505304 -0.0534599 -0.000453353  -0.00473917 -0.0488622 -0.000384688  -0.00054419 -0.0485496 1.20401e-05  -0.0046916 -0.0484291 -0.000477672  -0.00584924 -0.0644256 -0.000327587  -0.00109041 -0.064196 1.90139e-05  -0.000925779 -0.0592101 1.21593e-05  -0.00580156 -0.0640365 -0.000407457  -0.00547063 -0.0590637 -0.000345707  -0.000891924 -0.0588101 1.68681e-05  -0.00542378 -0.0586636 -0.000429809  -0.00662661 -0.075605 -0.000293434  -0.00153363 -0.0754359 2.33054e-05  -0.00133777 -0.0701069 1.55568e-05  -0.00658119 -0.0752496 -0.000365436  -0.00623357 -0.0699338 -0.000310302  -0.00130415 -0.0697397 2.03252e-05  -0.00618696 -0.0695665 -0.000386178  -0.00743353 -0.0873601 -0.000261188  -0.00203657 -0.0872491 2.64049e-05  -0.00180805 -0.0816088 1.84774e-05  -0.00738919 -0.0870369 -0.000326037  -0.00702667 -0.0814086 -0.000277698  -0.00177801 -0.0812728 2.3663e-05  -0.00698113 -0.0810742 -0.000345945  -0.00826633 -0.0996326 -0.00023216  -0.00259423 -0.0995767 2.67625e-05  -0.00233829 -0.0936545 2.09212e-05  -0.00822508 -0.0993394 -0.000289321  -0.00784624 -0.0934291 -0.000246525  -0.00230801 -0.0933508 2.70605e-05  -0.00780463 -0.0931257 -0.000308156  -0.00912344 -0.112365 -0.000204921  -0.00320292 -0.112362 2.71797e-05  -0.00292003 -0.106189 2.15769e-05  -0.0090847 -0.112101 -0.000255823  -0.00869191 -0.105938 -0.000218332  -0.00289154 -0.105914 2.76566e-05  -0.00865221 -0.105665 -0.000272572  -0.0100013 -0.125507 -0.000179946  -0.00385916 -0.125554 2.83718e-05  -0.00355041 -0.119155 2.28286e-05  -0.00996494 -0.12527 -0.000224054  -0.00955951 -0.118881 -0.000191987  -0.0035255 -0.118909 2.90871e-05  -0.0095228 -0.118637 -0.000239968  -0.0108951 -0.139006 -0.000157416  -0.00455618 -0.139102 2.87294e-05  -0.00422549 -0.132504 2.28286e-05  -0.0108629 -0.138796 -0.000196278  -0.0104458 -0.132208 -0.000167906  -0.0042026 -0.132285 2.8491e-05  -0.0104115 -0.13199 -0.000209749  -0.0118053 -0.152818 -0.000135243  -0.00529099 -0.152957 2.83122e-05  -0.00494051 -0.146186 2.26498e-05  -0.0117755 -0.152632 -0.000170171  -0.0113487 -0.14587 -0.000145435  -0.00491953 -0.145992 2.89679e-05  -0.0113165 -0.145677 -0.000182033  -0.0127268 -0.166898 -0.000115752  -0.00605965 -0.167077 2.70009e-05  -0.00568891 -0.160156 2.16365e-05  -0.0127006 -0.166734 -0.000145435  -0.0122645 -0.15982 -0.000125349  -0.00567174 -0.159985 2.83122e-05  -0.0122364 -0.159652 -0.000156641  -0.0136576 -0.181204 -9.73344e-05  -0.00685644 -0.18142 2.63453e-05  -0.00647116 -0.174371 2.15173e-05  -0.0136333 -0.18106 -0.000122011  -0.0131907 -0.174019 -0.000106275  -0.00645471 -0.174222 2.64049e-05  -0.0131655 -0.17387 -0.000133455  -0.0145941 -0.1957 -8.14795e-05  -0.00767779 -0.195949 2.47955e-05  -0.00727844 -0.188791 2.03848e-05  -0.0145721 -0.195577 -0.000101507  -0.0141242 -0.188423 -8.9407e-05  -0.00726485 -0.188663 2.5034e-05  -0.0141022 -0.188296 -0.000111818  -0.0155325 -0.210345 -6.634e-05  -0.00851941 -0.210626 2.42591e-05  -0.00810838 -0.20338 1.96099e-05  -0.0155144 -0.21024 -8.2612e-05  -0.0150628 -0.202999 -7.36713e-05  -0.00809693 -0.20327 2.35438e-05  -0.015043 -0.20289 -9.2268e-05  -0.0164719 -0.225112 -5.27501e-05  -0.00937653 -0.22542 2.22325e-05  -0.00895548 -0.218101 1.83582e-05  -0.0164576 -0.225024 -6.72936e-05  -0.0160024 -0.217709 -5.87106e-05  -0.00894666 -0.218009 2.3067e-05  -0.0159855 -0.217617 -7.39694e-05  -0.0174112 -0.239969 -4.18425e-05  -0.0102482 -0.240302 1.98483e-05  -0.0098176 -0.232928 1.60933e-05  -0.0173984 -0.239896 -5.20945e-05  -0.0169413 -0.232525 -4.63128e-05  -0.00980997 -0.23285 2.11e-05  -0.0169282 -0.23245 -5.87106e-05  -0.0183473 -0.25489 -3.12328e-05  -0.0111279 -0.255243 1.78814e-05  -0.0106919 -0.247828 1.40071e-05  -0.0183356 -0.254829 -3.94583e-05  -0.0178778 -0.247417 -3.59416e-05  -0.0106869 -0.247765 1.80602e-05  -0.0178671 -0.247355 -4.54187e-05  -0.0192783 -0.269851 -2.20537e-05  -0.0120144 -0.27022 1.57356e-05  -0.0115728 -0.262778 1.46031e-05  -0.0192692 -0.269801 -2.81334e-05  -0.0188131 -0.26236 -2.5928e-05  -0.0115695 -0.262727 1.69873e-05  -0.0188029 -0.262311 -3.27826e-05  -0.0202043 -0.284827 -1.43051e-05  -0.0129035 -0.285213 1.39475e-05  -0.0124636 -0.277754 1.16825e-05  -0.0201955 -0.28479 -1.86563e-05  -0.019743 -0.277332 -1.81198e-05  -0.0124578 -0.277715 1.45435e-05  -0.0197325 -0.277293 -2.27094e-05  -0.021121 -0.299805 -8.52346e-06  -0.0137947 -0.300203 1.18017e-05  -0.013351 -0.292739 1.04308e-05  -0.0211148 -0.299775 -1.28746e-05  -0.0206621 -0.292311 -1.10865e-05  -0.0133488 -0.292709 1.30534e-05  -0.0206554 -0.292282 -1.44243e-05  -0.0220313 -0.314765 -4.17233e-06  -0.0146863 -0.315174 8.58307e-06  -0.014241 -0.307713 8.46386e-06  -0.0220273 -0.314741 -4.76837e-06  -0.0215755 -0.307282 -6.73532e-06  -0.0142405 -0.30769 1.04904e-05  -0.0215721 -0.30726 -8.88109e-06  -0.0229347 -0.329698 -1.54972e-06  -0.0155773 -0.330114 7.45058e-06  -0.0151324 -0.322662 6.79493e-06  -0.0229318 -0.32968 -1.19209e-06  -0.0224841 -0.322229 -1.78814e-06  -0.0151324 -0.322648 8.40425e-06  -0.0224798 -0.322215 -4.17233e-06  -0.0238297 -0.344594 1.43051e-06  -0.016464 -0.345013 5.72205e-06  -0.0160201 -0.337579 4.88758e-06  -0.0238276 -0.344579 1.96695e-06  -0.0233831 -0.337144 -6.55651e-07  -0.0160193 -0.337569 6.3777e-06  -0.0233803 -0.337134 -3.57628e-07  -0.0247154 -0.359437 3.15905e-06  -0.0173452 -0.359861 3.09944e-06  -0.0169046 -0.352451 3.39746e-06  -0.0247149 -0.359426 3.33786e-06  -0.0242727 -0.352015 2.80142e-06  -0.0169044 -0.352443 3.93391e-06  -0.0242701 -0.352008 3.09944e-06  -0.0255992 -0.374226 4.88758e-06  -0.0182216 -0.374646 5.96046e-08  -0.0177815 -0.367268 1.66893e-06  -0.0255952 -0.374211 6.3777e-06  -0.0251577 -0.366834 3.27826e-06  -0.0177829 -0.367262 2.14577e-06  -0.0251558 -0.366827 4.29153e-06  0.000273332 -0.000668287 0.000302851  0 0 0  0.00055249 -0.000681221 0.000795841  0.000161536 -0.000168085 0.000335336  0 0 0  0.000292733 -0.000510454 0.000407457  8.39531e-05 -6.48499e-05 0.000171959  0 0 0  0.000168636 -9.64403e-05 0.000455916  8.81031e-05 3.39746e-06 0.00023371  0.00085023 -0.00345647 0.000477374  0.00168771 -0.00342625 0.00122738  0.00101542 -0.00211072 0.000798345  0.000893027 -0.00315195 0.000623345  0.000536427 -0.00187141 0.000405788  0.00107577 -0.00187576 0.0010488  0.000570208 -0.00164294 0.000533938  0.0015161 -0.00771838 0.000535607  0.00296822 -0.00761044 0.00135344  0.00225088 -0.00573945 0.00102299  0.0015606 -0.00730366 0.000680685  0.00118378 -0.00543684 0.000515342  0.00233069 -0.00537014 0.00131011  0.00123018 -0.0050754 0.000661016  0.00212723 -0.0131299 0.000532389  0.00416219 -0.0129574 0.00133896  0.00352165 -0.010599 0.00107592  0.00216269 -0.0126512 0.00066942  0.0018335 -0.0102866 0.000537813  0.00358129 -0.0101468 0.0013538  0.00187296 -0.00983995 0.000678062  0.00263637 -0.0195616 0.000508428  0.00521171 -0.019361 0.0012756  0.00466609 -0.0165217 0.00104803  0.00266647 -0.0190599 0.00063622  0.00239635 -0.0162153 0.0005216  0.00470555 -0.0160299 0.00131023  0.00242788 -0.0157274 0.000654161  0.0030368 -0.0269511 0.000477612  0.00611347 -0.026753 0.00119537  0.00565487 -0.0234352 0.000990391  0.00306243 -0.0264525 0.000598192  0.00285101 -0.023133 0.000493526  0.00568092 -0.0229365 0.00123698  0.00287783 -0.0226358 0.000618339  0.00332898 -0.0352368 0.000445604  0.00687075 -0.0350626 0.00111192  0.0064925 -0.031282 0.000923634  0.00335348 -0.0347564 0.000558734  0.00319666 -0.0309786 0.0004614  0.00650942 -0.0307961 0.00115424  0.00322145 -0.0304931 0.000578523  0.00351751 -0.0443564 0.00041461  0.00748968 -0.0442172 0.00102949  0.00718462 -0.0399995 0.000856459  0.00354016 -0.0439028 0.000519931  0.00343639 -0.0396894 0.000430167  0.00719756 -0.0395371 0.00107032  0.00345987 -0.0392277 0.000539303  0.00360274 -0.0542437 0.000384808  0.00797343 -0.0541449 0.000948429  0.00773859 -0.0495203 0.000790477  0.00362504 -0.0538219 0.000481844  0.0035733 -0.0492018 0.000399649  0.00774741 -0.0490874 0.000988543  0.00359559 -0.048769 0.000500977  0.0035907 -0.0648322 0.000355899  0.00832736 -0.0647782 0.000871718  0.00815725 -0.0597773 0.000726998  0.00361276 -0.0644439 0.000446618  0.00360966 -0.0594481 0.000369966  0.00816607 -0.0593763 0.000909746  0.00363111 -0.0590475 0.000463665  0.00348592 -0.0760582 0.000327349  0.00855637 -0.0760472 0.000797689  0.00845075 -0.0707039 0.000666857  0.00350571 -0.0757011 0.000411451  0.00355029 -0.0703634 0.000341654  0.00845754 -0.070336 0.000834763  0.00357091 -0.0699957 0.000428617  0.00329077 -0.0878588 0.000300765  0.00866628 -0.0878921 0.000728726  0.00861979 -0.0822365 0.000609398  0.00331044 -0.0875338 0.000376761  0.00339901 -0.0818841 0.000314236  0.00862527 -0.0819 0.000762045  0.00341833 -0.081548 0.000393689  0.00301254 -0.100174 0.000274181  0.00866425 -0.100249 0.000659585  0.00867307 -0.0943137 0.00055474  0.00302958 -0.0998801 0.000343919  0.00316167 -0.0939493 0.000287235  0.00867772 -0.0940087 0.000693798  0.00317943 -0.0936448 0.000360072  0.0026561 -0.112948 0.000249267  0.00855696 -0.113065 0.000595927  0.00861883 -0.106878 0.000501752  0.00267208 -0.112683 0.000313044  0.00284362 -0.106501 0.000261843  0.008623 -0.106602 0.000628114  0.00286055 -0.106226 0.000327766  0.00222743 -0.126129 0.000225544  0.0083518 -0.126283 0.000534832  0.00846171 -0.119872 0.000451744  0.00224066 -0.125891 0.000282288  0.00245011 -0.119485 0.000237525  0.00846672 -0.119626 0.000565529  0.00246537 -0.119239 0.000297129  0.0017333 -0.139668 0.000202179  0.00805497 -0.139857 0.000478685  0.00821292 -0.133248 0.000403881  0.00174475 -0.139454 0.000253618  0.00198877 -0.13285 0.000213563  0.00821412 -0.133027 0.000505865  0.00200069 -0.132631 0.000267386  0.00117731 -0.153512 0.000180304  0.00767469 -0.153734 0.000422299  0.00787473 -0.146954 0.000359356  0.00118756 -0.153325 0.000225782  0.00146317 -0.146548 0.00019145  0.00787568 -0.146759 0.000450194  0.00147414 -0.146353 0.000238836  0.000567675 -0.167623 0.000158727  0.00721979 -0.167875 0.000372887  0.00745726 -0.160946 0.000317156  0.000575066 -0.167457 0.00019902  0.000880003 -0.160531 0.000169158  0.00745702 -0.160773 0.00039643  0.000888348 -0.160359 0.000212133  -9.17912e-05 -0.181956 0.000139296  0.00669456 -0.182237 0.000322878  0.00696659 -0.175179 0.000277281  -8.53539e-05 -0.181813 0.000174582  0.000244379 -0.174757 0.000149667  0.00696588 -0.17503 0.000347137  0.000250816 -0.174608 0.000187159  -0.000793695 -0.196474 0.000121176  0.006109 -0.196781 0.000276983  0.00641251 -0.189617 0.000239789  -0.000787497 -0.19635 0.000151455  -0.000437498 -0.189188 0.000130713  0.00640965 -0.189487 0.000300407  -0.000431299 -0.189059 0.000163317  -0.00153375 -0.211144 0.000104249  0.00547028 -0.21147 0.000235319  0.00580096 -0.204218 0.000204802  -0.00152802 -0.211036 0.000129282  -0.00115919 -0.203785 0.000112236  0.00579524 -0.204107 0.00025636  -0.00115299 -0.203674 0.000140309  -0.00230241 -0.225926 8.73208e-05  0.00478292 -0.226276 0.000197172  0.00513673 -0.218953 0.000172913  -0.00230002 -0.225837 0.000109971  -0.0019145 -0.218515 9.56655e-05  0.0051322 -0.21886 0.000216782  -0.00191069 -0.218423 0.000119209  -0.0031023 -0.240799 7.32541e-05  0.00405431 -0.241164 0.00016284  0.00442696 -0.233788 0.000142992  -0.00309968 -0.240725 9.16719e-05  -0.00269938 -0.233348 8.07047e-05  0.00442433 -0.23371 0.000179112  -0.00269723 -0.233269 0.000100374  -0.00392246 -0.255733 5.94854e-05  0.00329065 -0.256113 0.000129759  0.00368142 -0.248696 0.000116706  -0.00392103 -0.255671 7.51615e-05  -0.00350952 -0.248254 6.58035e-05  0.00367737 -0.248632 0.000147045  -0.00350761 -0.248191 8.28505e-05  -0.00476098 -0.270702 4.70877e-05  0.00249815 -0.271097 0.000103056  0.00290132 -0.263652 9.34601e-05  -0.00475955 -0.270652 5.9545e-05  -0.00433993 -0.263208 5.37634e-05  0.00289679 -0.263601 0.000116527  -0.00433826 -0.263157 6.63996e-05  -0.00561261 -0.285687 3.70145e-05  0.00168157 -0.286091 7.75456e-05  0.00209761 -0.278632 7.1466e-05  -0.00561333 -0.285647 4.64916e-05  -0.00518489 -0.278188 4.21405e-05  0.00209236 -0.278592 8.98838e-05  -0.00518417 -0.278148 5.26309e-05  -0.00647593 -0.30067 2.71797e-05  0.000845432 -0.301082 5.69224e-05  0.00127172 -0.293618 5.39422e-05  -0.00647664 -0.300639 3.49879e-05  -0.00604177 -0.293173 3.21269e-05  0.00126553 -0.293587 6.75321e-05  -0.00604367 -0.293143 3.98755e-05  -0.00734663 -0.315633 1.94907e-05  -5.48363e-06 -0.316053 3.8147e-05  0.000426769 -0.308591 3.83854e-05  -0.00734806 -0.315611 2.2769e-05  -0.00690961 -0.308149 2.31266e-05  0.000422239 -0.308569 4.82798e-05  -0.00691104 -0.308126 2.92063e-05  -0.00822091 -0.330572 1.23978e-05  -0.000866175 -0.330993 2.52128e-05  -0.000429392 -0.323542 2.48551e-05  -0.00822306 -0.330551 1.63913e-05  -0.00778317 -0.323099 1.5974e-05  -0.000433922 -0.323526 3.08752e-05  -0.00778341 -0.323084 2.08616e-05  -0.00909829 -0.345465 7.7486e-06  -0.0017345 -0.345891 1.10269e-05  -0.00129414 -0.338458 1.44839e-05  -0.00910068 -0.345451 8.82149e-06  -0.0086596 -0.338016 9.41753e-06  -0.00129867 -0.338446 1.82986e-05  -0.00866246 -0.338006 1.19209e-05  -0.00997615 -0.360312 1.37091e-06  -0.00260735 -0.360738 1.07288e-06  -0.00216413 -0.353328 5.60284e-06  -0.00997686 -0.360299 1.54972e-06  -0.00953674 -0.352888 4.82798e-06  -0.00217128 -0.35332 5.78165e-06  -0.0095396 -0.35288 5.24521e-06  -0.0108464 -0.375099 -4.52995e-06  -0.00347662 -0.375528 -1.15037e-05  -0.0030365 -0.368148 -2.74181e-06  -0.0108495 -0.375084 -4.94719e-06  -0.0104127 -0.367706 -1.78814e-07  -0.00304294 -0.368141 -3.51667e-06  -0.0104151 -0.3677 -1.01328e-06  0.000788286 -0.00113493 0.000872076  0 0 0  0.00115563 -0.00137353 0.00152838  0.000342213 -0.000604093 0.000640273  0 0 0  0.000835747 -0.000961483 0.001167  0.000241391 -0.000340641 0.000489354  0 0 0  0.000355162 -0.000511467 0.000868142  0.00025215 -0.000261545 0.000662982  0.00243655 -0.00418532 0.00139326  0.00345948 -0.00446576 0.0023759  0.00211984 -0.00305146 0.00154424  0.00254095 -0.00385892 0.00181031  0.00154078 -0.00249714 0.00117618  0.00222588 -0.00277972 0.00202519  0.00162397 -0.00224841 0.00154299  0.00434756 -0.00850809 0.00158739  0.00599414 -0.00869381 0.00264746  0.00460759 -0.00685072 0.00199634  0.00444281 -0.0080741 0.00200891  0.00339121 -0.00620776 0.0015164  0.00474095 -0.00644416 0.00255197  0.003499 -0.00582445 0.00193948  0.00615478 -0.0138956 0.00159591  0.00834268 -0.0139886 0.00264603  0.00710645 -0.0116827 0.0021196  0.00621516 -0.0134045 0.00199866  0.00527412 -0.0110655 0.00160378  0.00719774 -0.0112036 0.00266522  0.00535157 -0.0106025 0.00201678  0.0077669 -0.0202988 0.0015294  0.0104591 -0.0203481 0.00253433  0.00937742 -0.0175442 0.00207949  0.00780165 -0.0197911 0.00190908  0.00698572 -0.0169657 0.0015679  0.00942868 -0.0170376 0.0025993  0.0070318 -0.016468 0.00195938  0.00918484 -0.027674 0.0014348  0.0123543 -0.0277114 0.00237972  0.0114104 -0.0244137 0.00197202  0.0092023 -0.0271733 0.00179112  0.00850022 -0.0238629 0.00148463  0.0114337 -0.0239071 0.00246108  0.00852442 -0.0233612 0.00185287  0.0104167 -0.0359603 0.0013324  0.0140375 -0.0360057 0.00221175  0.0132158 -0.0322348 0.00184  0.0104239 -0.0354789 0.00166374  0.0098238 -0.031701 0.00138438  0.0132226 -0.0317453 0.00229686  0.0098353 -0.0312141 0.0017274  0.0114716 -0.0450869 0.00122988  0.0155141 -0.045152 0.00204289  0.0148055 -0.040939 0.00170332  0.0114733 -0.0446334 0.0015375  0.0109666 -0.0404157 0.00128096  0.0148009 -0.0404756 0.00212717  0.0109703 -0.0399534 0.00160033  0.012355 -0.0549856 0.00113153  0.0167898 -0.0550775 0.00187838  0.0161856 -0.0504533 0.00156868  0.012355 -0.0545638 0.00141484  0.0119349 -0.0499373 0.00118047  0.0161773 -0.0500214 0.0019601  0.011935 -0.049505 0.00147516  0.0130756 -0.0655903 0.00103676  0.0178707 -0.0657115 0.00172073  0.0173674 -0.0607099 0.0014385  0.0130733 -0.0652011 0.00129753  0.012737 -0.0601981 0.00108421  0.0173554 -0.0603092 0.00179887  0.0127341 -0.0597971 0.00135523  0.0136402 -0.0768322 0.000947118  0.018767 -0.0769829 0.00157136  0.0183549 -0.0716379 0.00131518  0.0136368 -0.0764757 0.001185  0.0133777 -0.0711285 0.000991583  0.0183415 -0.0712704 0.00164509  0.0133741 -0.0707605 0.00124049  0.0140553 -0.0886493 0.000862002  0.0194833 -0.0888306 0.00142729  0.0191604 -0.0831736 0.00119805  0.0140516 -0.0883237 0.00107855  0.0138658 -0.0826659 0.000904143  0.0191475 -0.0828385 0.00149775  0.013862 -0.0823307 0.00113088  0.0143298 -0.100982 0.000780225  0.0200318 -0.101192 0.00129199  0.0197917 -0.0952549 0.00108665  0.0143249 -0.100687 0.000976562  0.0142099 -0.0947489 0.000820458  0.019779 -0.0949496 0.00135857  0.0142061 -0.0944433 0.00102705  0.014472 -0.113774 0.000703275  0.0204204 -0.114012 0.00116217  0.0202599 -0.107822 0.000980079  0.0144668 -0.113507 0.000880241  0.0144168 -0.107318 0.000741184  0.0202463 -0.107547 0.00122577  0.0144122 -0.107042 0.000927091  0.0144902 -0.126969 0.000629842  0.0206591 -0.127234 0.00104004  0.0205711 -0.120822 0.000879228  0.0144843 -0.12673 0.000788808  0.0144966 -0.120317 0.000666499  0.0205584 -0.120574 0.00110066  0.014491 -0.120071 0.000833273  0.0143945 -0.14052 0.000560403  0.0207596 -0.140808 0.000923872  0.0207403 -0.134199 0.000784993  0.0143881 -0.140307 0.000700414  0.0144566 -0.133698 0.000594854  0.0207272 -0.133979 0.000981808  0.0144498 -0.133476 0.000744879  0.01419 -0.154378 0.000495791  0.020731 -0.154688 0.000816226  0.0207744 -0.147907 0.000694394  0.0141847 -0.15419 0.000619948  0.0143044 -0.147407 0.000527561  0.0207601 -0.147711 0.000869095  0.0142987 -0.147212 0.000659347  0.0138905 -0.168499 0.000433922  0.0205827 -0.168828 0.000713289  0.0206852 -0.161899 0.000611007  0.0138838 -0.168332 0.000542462  0.0140538 -0.161402 0.000464082  0.0206704 -0.161728 0.000764012  0.0140457 -0.16123 0.000581026  0.0135019 -0.18284 0.000375986  0.0203257 -0.183188 0.000616312  0.0204833 -0.176133 0.000531793  0.013494 -0.182696 0.000471652  0.0137081 -0.175637 0.000404835  0.0204675 -0.175983 0.000664473  0.0137005 -0.175488 0.000506103  0.0130341 -0.197365 0.000322878  0.0199711 -0.197731 0.000529587  0.0201724 -0.190568 0.000457585  0.013026 -0.19724 0.00040406  0.0132778 -0.190077 0.000349224  0.0201604 -0.190438 0.000572264  0.0132699 -0.189946 0.00043714  0.0124936 -0.212038 0.000273526  0.0195274 -0.212417 0.000447512  0.019774 -0.205166 0.000389636  0.0124848 -0.211931 0.000342965  0.0127726 -0.204678 0.000297666  0.0197599 -0.205056 0.000487506  0.012764 -0.204568 0.000372469  0.0118892 -0.226826 0.00022763  0.0190053 -0.227216 0.000371337  0.01929 -0.219897 0.000326753  0.0118816 -0.226736 0.000284433  0.0122006 -0.219414 0.000249803  0.0192761 -0.219803 0.000408649  0.0121918 -0.219319 0.000312746  0.01123 -0.241699 0.000186801  0.0184121 -0.2421 0.000304937  0.0187314 -0.234726 0.000269532  0.0112219 -0.241623 0.000233293  0.0115674 -0.234247 0.000206888  0.0187168 -0.234649 0.000336766  0.0115571 -0.234169 0.000258923  0.0105219 -0.256632 0.00014925  0.0177588 -0.257043 0.000243068  0.0181069 -0.249629 0.00021714  0.010515 -0.25657 0.000187337  0.0108817 -0.249154 0.000167131  0.0180938 -0.249565 0.00027287  0.0108743 -0.24909 0.00020951  0.00977421 -0.271602 0.000116467  0.0170538 -0.272018 0.000187516  0.0174258 -0.264577 0.000171423  0.00976634 -0.271551 0.000146508  0.0101533 -0.264108 0.000132561  0.0174127 -0.264527 0.000214517  0.0101452 -0.264057 0.000166416  0.00899172 -0.286586 8.744e-05  0.0163038 -0.287007 0.000141203  0.0166924 -0.27955 0.000130653  0.00898457 -0.286544 0.000109851  0.00938749 -0.279086 0.000102043  0.0166836 -0.279511 0.000163734  0.0093801 -0.279046 0.000128627  0.00818181 -0.301562 6.34789e-05  0.0155175 -0.301991 9.90629e-05  0.0159256 -0.294529 9.59635e-05  0.00817585 -0.301532 7.99894e-05  0.00859022 -0.294069 7.51615e-05  0.0159154 -0.294499 0.000120759  0.00858355 -0.294039 9.45926e-05  0.00735021 -0.316526 4.36902e-05  0.014704 -0.316955 6.91414e-05  0.0151222 -0.309497 6.72936e-05  0.00734282 -0.316502 5.39422e-05  0.00776911 -0.309042 5.31673e-05  0.0151153 -0.309476 8.34465e-05  0.00776243 -0.309019 6.61016e-05  0.00650239 -0.331457 2.67029e-05  0.0138671 -0.331888 4.071e-05  0.0142963 -0.324441 4.23789e-05  0.00649571 -0.331439 3.34978e-05  0.00692773 -0.323989 3.43919e-05  0.0142899 -0.324425 5.34654e-05  0.00692296 -0.323974 4.31538e-05  0.00563955 -0.346348 1.3411e-05  0.0130122 -0.34678 1.91331e-05  0.0134506 -0.33935 2.53916e-05  0.00563478 -0.346334 1.60933e-05  0.00607276 -0.338902 1.80006e-05  0.0134423 -0.339338 3.1054e-05  0.00606871 -0.338891 2.35438e-05  0.00477433 -0.361195 1.37091e-06  0.0121484 -0.361626 1.72853e-06  0.0125906 -0.354216 8.58307e-06  0.00476766 -0.361182 5.96046e-07  0.00520873 -0.353771 7.39098e-06  0.0125818 -0.354208 1.09076e-05  0.00520182 -0.353763 9.11951e-06  0.0039072 -0.37599 -1.00136e-05  0.0112834 -0.376423 -1.87159e-05  0.0117245 -0.369038 -4.11272e-06  0.003901 -0.375975 -1.43647e-05  0.00433993 -0.368592 -4.35114e-06  0.0117149 -0.369029 -7.21216e-06  0.00433254 -0.368583 -6.3777e-06  0.00147837 -0.00219309 0.00139904  0 0 0  0.002003 -0.00283116 0.00219184  0.000598498 -0.00154519 0.00092411  0 0 0  0.00154643 -0.00197357 0.00186312  0.000449806 -0.000990927 0.000778139  0 0 0  0.000612333 -0.0014075 0.00124073  0.000463493 -0.00087899 0.0010491  0.00438365 -0.00565088 0.00224853  0.00573581 -0.00626606 0.00343376  0.00367659 -0.00480831 0.00223875  0.00453109 -0.00526541 0.00291276  0.00283705 -0.00380689 0.00189239  0.00380395 -0.00445926 0.00292373  0.00295776 -0.00350165 0.00247592  0.00754428 -0.00994217 0.00258595  0.00947893 -0.0103621 0.00387692  0.00749886 -0.00865525 0.00291306  0.00767326 -0.009462 0.00326979  0.00598198 -0.00766957 0.00246072  0.00765356 -0.0081811 0.00371718  0.00613147 -0.00723219 0.00314218  0.0104883 -0.0152231 0.00262302  0.0129067 -0.0155494 0.00391209  0.0111195 -0.0133374 0.00312155  0.0105664 -0.0147054 0.00328499  0.00905022 -0.0124445 0.00262606  0.0112262 -0.0128149 0.00392509  0.0091511 -0.0119449 0.00330138  0.0131654 -0.0215501 0.00252765  0.0160584 -0.0218273 0.00376898  0.0144578 -0.0190854 0.00308317  0.0132036 -0.0210276 0.0031566  0.0118607 -0.0182528 0.00258553  0.0145187 -0.0185545 0.00385588  0.0119169 -0.0177341 0.00323141  0.0155768 -0.028873 0.00237721  0.0189296 -0.0291332 0.00354725  0.0175035 -0.0258744 0.00293553  0.0155895 -0.028365 0.00296718  0.0144038 -0.0250848 0.00245684  0.0175292 -0.0253565 0.00366485  0.0144275 -0.0245734 0.00306606  0.0177331 -0.0371234 0.00220865  0.0215255 -0.0373831 0.00329953  0.0202588 -0.0336387 0.00274348  0.0177307 -0.0366392 0.00275785  0.0166866 -0.0328808 0.00229412  0.0202623 -0.0331447 0.00342458  0.0166903 -0.0323895 0.00286323  0.0196434 -0.0462256 0.0020383  0.0238484 -0.0464947 0.00304621  0.0227308 -0.0422992 0.00254059  0.0196313 -0.0457726 0.00254613  0.0187187 -0.0415666 0.00212324  0.0227206 -0.0418347 0.00317287  0.0187104 -0.0411034 0.00265163  0.0213156 -0.0561076 0.00187325  0.0259039 -0.0563902 0.00279987  0.0249254 -0.05178 0.00233901  0.0212991 -0.0556874 0.00234103  0.0205088 -0.0510685 0.00195509  0.0249091 -0.0513474 0.0029217  0.0204946 -0.0506353 0.00244284  0.0227594 -0.0666987 0.00171411  0.0277005 -0.0669956 0.00256252  0.0268542 -0.0620062 0.00214463  0.0227408 -0.0663095 0.00214332  0.0220664 -0.0613126 0.00179273  0.0268339 -0.0616073 0.00268036  0.0220481 -0.060913 0.00224078  0.023984 -0.0779294 0.00156337  0.0292506 -0.0782428 0.00233722  0.0285287 -0.072908 0.00195926  0.0239645 -0.0775723 0.00195456  0.0233983 -0.0722306 0.00163895  0.028506 -0.0725423 0.0024491  0.0233796 -0.0718645 0.00204849  0.0250005 -0.0897372 0.00142038  0.030562 -0.0900673 0.00212139  0.0299578 -0.0844201 0.00178206  0.0249807 -0.0894127 0.00177544  0.0245172 -0.0837586 0.00149089  0.0299344 -0.084086 0.00222862  0.0244985 -0.0834233 0.00186479  0.0258195 -0.10206 0.00128394  0.0316472 -0.102407 0.00191945  0.0311533 -0.0964789 0.00161523  0.0258002 -0.101766 0.00160629  0.025434 -0.0958319 0.0013513  0.0311325 -0.0961757 0.00201958  0.0254146 -0.0955271 0.00169015  0.026451 -0.114843 0.00115466  0.0325207 -0.115205 0.00172538  0.0321314 -0.109025 0.00145555  0.0264322 -0.114577 0.0014441  0.0261587 -0.108392 0.00121903  0.0321097 -0.108751 0.0018205  0.0261393 -0.108117 0.00152385  0.0269074 -0.128031 0.00103247  0.0331911 -0.128406 0.00154048  0.0329021 -0.122003 0.00130481  0.0268888 -0.127793 0.00129139  0.0267005 -0.121384 0.00109291  0.0328796 -0.121757 0.00163126  0.0266823 -0.121136 0.00136685  0.0272014 -0.141572 0.000916898  0.0336747 -0.14196 0.00136805  0.0334765 -0.13536 0.00116271  0.0271833 -0.14136 0.00114715  0.0270741 -0.134753 0.000973225  0.0334558 -0.135141 0.00145382  0.0270557 -0.134533 0.00121802  0.027343 -0.15542 0.00080806  0.0339835 -0.155819 0.0012055  0.0338712 -0.149048 0.00102866  0.0273249 -0.155231 0.00101131  0.0272918 -0.148454 0.000862837  0.0338495 -0.148854 0.00128531  0.0272729 -0.148259 0.00107843  0.0273449 -0.16953 0.000706196  0.0341315 -0.169939 0.00105268  0.0340996 -0.16302 0.000901401  0.0273271 -0.169364 0.000884593  0.0273616 -0.162438 0.000757039  0.0340774 -0.162849 0.0011273  0.0273423 -0.162268 0.000946343  0.0272174 -0.183861 0.000611067  0.0341296 -0.184278 0.000910699  0.0341697 -0.177232 0.000784039  0.0272 -0.183717 0.000764668  0.0272963 -0.176664 0.000657976  0.0341482 -0.177083 0.00097996  0.0272796 -0.176514 0.000822663  0.0269732 -0.198375 0.000522912  0.0339935 -0.198799 0.000777602  0.0340981 -0.191645 0.000673592  0.0269563 -0.19825 0.000653744  0.0271089 -0.19109 0.000566244  0.0340788 -0.191517 0.000841796  0.0270917 -0.190961 0.000708461  0.0266235 -0.213035 0.0004403  0.0337334 -0.213464 0.000654936  0.0338986 -0.206225 0.000571787  0.0266061 -0.212927 0.000551522  0.0268118 -0.205682 0.000480652  0.0338771 -0.206114 0.000716329  0.0267942 -0.205572 0.000602007  0.0261786 -0.227811 0.000366569  0.0333626 -0.228244 0.000542819  0.033582 -0.220933 0.000478864  0.0261607 -0.22772 0.000458419  0.0264132 -0.220404 0.000402808  0.0335617 -0.220841 0.000598192  0.026396 -0.22031 0.000504076  0.0256481 -0.24267 0.000298679  0.0328932 -0.243108 0.000443876  0.0331581 -0.235743 0.000393152  0.0256338 -0.242595 0.000372589  0.0259247 -0.235225 0.000331342  0.0331395 -0.235666 0.000491679  0.0259082 -0.235148 0.000414431  0.0250449 -0.257592 0.000237942  0.0323374 -0.25803 0.000351608  0.0326443 -0.250625 0.000316381  0.0250304 -0.25753 0.00029856  0.0253568 -0.25012 0.000267625  0.032625 -0.250562 0.000395596  0.0253408 -0.250055 0.000334859  0.0243783 -0.272547 0.000183821  0.0317061 -0.272987 0.000270903  0.0320473 -0.265554 0.000247657  0.0243645 -0.272498 0.000230312  0.0247207 -0.265059 0.000210345  0.0320313 -0.265505 0.000309706  0.0247054 -0.26501 0.000263155  0.0236554 -0.287518 0.000136793  0.0310102 -0.287957 0.000200689  0.0313816 -0.28051 0.000188529  0.023644 -0.287479 0.000171959  0.0240242 -0.280025 0.000160098  0.0313663 -0.280471 0.00023526  0.0240111 -0.279986 0.00020057  0.0228884 -0.302487 9.88841e-05  0.0302615 -0.302926 0.000143468  0.0306542 -0.295471 0.000136971  0.0228786 -0.302455 0.000122011  0.0232761 -0.294997 0.000116646  0.0306418 -0.295443 0.000169992  0.0232668 -0.294967 0.000146091  0.0220866 -0.317437 6.50883e-05  0.0294693 -0.317875 9.53674e-05  0.0298817 -0.310424 9.44734e-05  0.0220773 -0.317413 8.20756e-05  0.0224931 -0.309959 8.07643e-05  0.0298696 -0.310403 0.000117004  0.0224802 -0.309937 0.000101447  0.0212574 -0.332359 3.92795e-05  0.0286443 -0.332795 5.60284e-05  0.0290716 -0.325354 5.98431e-05  0.0212481 -0.332341 4.98295e-05  0.0216763 -0.324895 5.26905e-05  0.0290601 -0.325338 7.42674e-05  0.0216663 -0.32488 6.41942e-05  0.0204062 -0.347241 2.01464e-05  0.0277948 -0.347677 2.74181e-05  0.028235 -0.34025 3.42727e-05  0.0203984 -0.347229 2.42591e-05  0.0208349 -0.3398 2.91467e-05  0.0282223 -0.340241 4.14848e-05  0.0208256 -0.339788 3.62992e-05  0.0195432 -0.362083 2.92063e-06  0.0269299 -0.362517 5.96046e-06  0.0273767 -0.35511 1.3411e-05  0.0195358 -0.362072 4.41074e-06  0.0199778 -0.354662 1.07884e-05  0.027365 -0.355102 1.53184e-05  0.0199664 -0.354654 1.3411e-05  0.0186772 -0.376886 -1.42455e-05  0.0260615 -0.377323 -1.75834e-05  0.0265086 -0.369931 -4.52995e-06  0.0186701 -0.376874 -1.63913e-05  0.0191095 -0.369484 -5.42402e-06  0.0264957 -0.369924 -6.19888e-06  0.0191009 -0.369476 -6.79493e-06  0.00269066 -0.00440842 0.0019182  0 0 0  0.00379856 -0.00580144 0.00289613  0.00134084 -0.0036307 0.00123525  0 0 0  0.00273646 -0.00410199 0.0025354  0.000810705 -0.00235385 0.0010438  0 0 0  0.00131759 -0.003398 0.00164807  0.000814356 -0.00218147 0.00139344  0.00702864 -0.00789505 0.00306797  0.00878677 -0.008605 0.00450331  0.00635159 -0.00749952 0.00295305  0.00716373 -0.00740993 0.00396144  0.00487983 -0.00606424 0.00258923  0.00639662 -0.00702071 0.00385135  0.00497909 -0.00565469 0.00337905  0.0112671 -0.0119386 0.00355047  0.0134727 -0.0125547 0.00511211  0.0110058 -0.0109884 0.00383538  0.0114006 -0.011395 0.00449181  0.00916201 -0.00977838 0.00337249  0.0111316 -0.010438 0.00489855  0.00930902 -0.00926334 0.0043034  0.0152828 -0.0170688 0.00362426  0.0179765 -0.0176025 0.00517613  0.015656 -0.0154963 0.00411785  0.01537 -0.0165161 0.00454378  0.0133137 -0.0143573 0.00362039  0.0157646 -0.0149275 0.00518775  0.0134226 -0.0138111 0.0045554  0.0189892 -0.023287 0.00350612  0.0221609 -0.023783 0.00499022  0.0200365 -0.0211096 0.00407463  0.0190378 -0.0227461 0.00438207  0.0171757 -0.0200388 0.00358045  0.0201104 -0.020554 0.00510329  0.0172426 -0.0194948 0.00448066  0.0223755 -0.0305302 0.00330466  0.0260057 -0.0310074 0.00470078  0.0240806 -0.0277982 0.0038839  0.0223961 -0.0300145 0.00412679  0.0207229 -0.0267794 0.00341171  0.0241273 -0.0272683 0.00485468  0.0207559 -0.026255 0.00426108  0.0254405 -0.0387195 0.00307345  0.0295036 -0.0391873 0.00437343  0.0277734 -0.0354809 0.00363427  0.0254433 -0.038232 0.00383747  0.0239481 -0.0345052 0.00319105  0.0277972 -0.0349826 0.00453871  0.0239583 -0.0340097 0.00398403  0.0281914 -0.0477693 0.0028376  0.0326569 -0.0482365 0.00403929  0.0311131 -0.0440712 0.00336742  0.0281839 -0.0473161 0.00354463  0.0268557 -0.0431342 0.00295514  0.0311226 -0.0436068 0.00420642  0.0268518 -0.0426703 0.00369084  0.0306365 -0.0576049 0.00260741  0.0354759 -0.0580732 0.00371212  0.0341073 -0.0534897 0.00310135  0.030623 -0.0571853 0.00325805  0.0294523 -0.0525876 0.00272155  0.0341077 -0.0530598 0.00387353  0.0294406 -0.0521561 0.00340003  0.0327878 -0.0681537 0.00238639  0.0379707 -0.0686251 0.00339836  0.0367664 -0.0636582 0.00284475  0.0327717 -0.0677678 0.00298285  0.0317484 -0.0627884 0.00249618  0.036762 -0.0632641 0.0035544  0.0317333 -0.0623912 0.00311828  0.0346584 -0.079346 0.00217587  0.0401539 -0.079821 0.00309849  0.0391062 -0.0745076 0.00259858  0.0346403 -0.0789939 0.00271833  0.0337583 -0.073667 0.00227946  0.0390999 -0.0741454 0.00324649  0.0337404 -0.0733029 0.0028494  0.0362605 -0.0911173 0.0019747  0.0420403 -0.0915963 0.00281167  0.0411404 -0.0859694 0.00236344  0.0362422 -0.0907957 0.00246876  0.035493 -0.0851579 0.00207388  0.0411328 -0.0856401 0.00295359  0.0354749 -0.0848252 0.00259191  0.0376084 -0.103407 0.00178462  0.0436444 -0.103889 0.00254297  0.0428848 -0.0979801 0.00214064  0.0375907 -0.103115 0.00223023  0.0369654 -0.0971953 0.00187892  0.0428764 -0.0976815 0.00267553  0.036947 -0.0968943 0.0023486  0.0387154 -0.116156 0.00160372  0.0449817 -0.11664 0.00228339  0.0443555 -0.11048 0.00192934  0.0386976 -0.115893 0.00200498  0.0381916 -0.109722 0.00169325  0.0443447 -0.11021 0.00241029  0.0381732 -0.10945 0.00211686  0.0395958 -0.129311 0.00143325  0.0460651 -0.129797 0.00204068  0.0455613 -0.123413 0.00172877  0.0395786 -0.129075 0.00179106  0.0391837 -0.12268 0.00151706  0.0455546 -0.123171 0.00215936  0.0391656 -0.122436 0.00189608  0.0402646 -0.14282 0.00127184  0.0469143 -0.143308 0.0018093  0.0465285 -0.136726 0.00153983  0.040247 -0.14261 0.00158912  0.039956 -0.136018 0.0013513  0.0465189 -0.136511 0.0019232  0.0399382 -0.1358 0.00168991  0.0407364 -0.156637 0.00111973  0.0475416 -0.157124 0.00159001  0.0472662 -0.15037 0.00136048  0.0407181 -0.15645 0.00139982  0.0405254 -0.149687 0.00119436  0.0472543 -0.15018 0.00169909  0.0405061 -0.149494 0.00149256  0.0410225 -0.170715 0.000977457  0.0479643 -0.171202 0.0013895  0.0477891 -0.1643 0.00119358  0.0410073 -0.170553 0.00122076  0.0409024 -0.16364 0.00104707  0.0477781 -0.164133 0.0014897  0.0408847 -0.163471 0.00130892  0.0411432 -0.185015 0.000844598  0.0482016 -0.185501 0.00119966  0.0481167 -0.178471 0.00103611  0.0411265 -0.184874 0.00105679  0.0411048 -0.177834 0.000910044  0.0481055 -0.178326 0.00129253  0.0410876 -0.177686 0.00113708  0.0411081 -0.199499 0.000721574  0.0482619 -0.19998 0.0010249  0.0482635 -0.192844 0.000890195  0.0410907 -0.199376 0.000901461  0.0411448 -0.19223 0.000781298  0.0482514 -0.192719 0.00111091  0.0411282 -0.192104 0.000976861  0.0409324 -0.214128 0.000607848  0.0481658 -0.214608 0.000860393  0.0482435 -0.207384 0.000754356  0.0409167 -0.214024 0.000758767  0.0410373 -0.206792 0.000663698  0.0482335 -0.207277 0.000940382  0.0410204 -0.206684 0.000828624  0.0406308 -0.228876 0.000503898  0.0479271 -0.22935 0.000713408  0.0480752 -0.222056 0.000630498  0.0406144 -0.228789 0.000629365  0.040797 -0.221483 0.000554323  0.0480642 -0.221967 0.000785828  0.0407808 -0.221393 0.000692666  0.0402143 -0.243709 0.000409067  0.0475638 -0.244179 0.000579715  0.0477715 -0.236828 0.000515997  0.0402005 -0.243636 0.000510097  0.0404353 -0.236278 0.000455201  0.04776 -0.236755 0.000644207  0.0404217 -0.236202 0.000568748  0.0397005 -0.258603 0.000324905  0.0470839 -0.259067 0.000457823  0.047348 -0.251676 0.000415444  0.039686 -0.258543 0.000406265  0.0399699 -0.251144 0.000365973  0.0473347 -0.251617 0.000517666  0.0399547 -0.251084 0.000457525  0.0390966 -0.273533 0.000251055  0.0465057 -0.273992 0.000351787  0.0468149 -0.266571 0.000325441  0.0390844 -0.273487 0.000311792  0.0394087 -0.266058 0.000286341  0.0468056 -0.266526 0.000403404  0.0393953 -0.266011 0.000356734  0.038419 -0.28848 0.000185609  0.0458424 -0.288935 0.000258625  0.0461917 -0.281497 0.000244856  0.0384095 -0.288444 0.00023216  0.0387681 -0.281001 0.000216842  0.0461831 -0.281463 0.000303924  0.0387526 -0.280963 0.000270545  0.0376818 -0.303429 0.000131607  0.0451109 -0.303877 0.000184834  0.0454938 -0.296432 0.000178039  0.0376699 -0.303401 0.000163138  0.0380588 -0.29595 0.000158072  0.0454838 -0.296406 0.00022006  0.0380464 -0.295923 0.000195503  0.0368922 -0.318361 8.79169e-05  0.0443201 -0.318803 0.000120342  0.0447302 -0.311359 0.000122488  0.0368814 -0.318339 0.000107586  0.0372932 -0.310892 0.000108361  0.0447228 -0.311343 0.000150561  0.0372815 -0.310873 0.000134349  0.0360658 -0.333267 5.25117e-05  0.0434854 -0.333704 7.1466e-05  0.043916 -0.326269 7.62939e-05  0.0360558 -0.33325 6.48499e-05  0.0364826 -0.325812 6.90818e-05  0.0439079 -0.326257 9.34601e-05  0.0364728 -0.325798 8.54731e-05  0.0352113 -0.348139 2.80738e-05  0.0426207 -0.348572 3.79086e-05  0.043067 -0.341151 4.44651e-05  0.0352025 -0.348125 3.19481e-05  0.0356412 -0.340702 3.92199e-05  0.0430582 -0.341142 5.24521e-05  0.0356324 -0.340692 4.69089e-05  0.0343425 -0.362974 6.61612e-06  0.0417423 -0.363405 1.09673e-05  0.0421939 -0.355998 2.0802e-05  0.034333 -0.362962 7.03335e-06  0.0347791 -0.355555 1.7345e-05  0.0421841 -0.355992 2.2471e-05  0.0347683 -0.355548 1.92523e-05  0.0334702 -0.377784 -1.26362e-05  0.0408635 -0.378216 -1.27554e-05  0.0413122 -0.37082 1.72853e-06  0.0334597 -0.377771 -1.57356e-05  0.0339062 -0.370376 -3.03984e-06  0.0413005 -0.370812 1.19209e-06  0.0338955 -0.370368 -3.63588e-06  -0.00383532 -0.00607103 -0.00165671  -0.00140974 -0.00366773 -0.00059551  0 0 0  -0.00261605 -0.00439855 -0.000933051  0 0 0  -0.00181291 -0.00292492 -0.00122476  -0.000563014 -0.00149561 -0.000438809  0 0 0  -0.00138797 -0.00354832 -0.000919163  -0.00261693 -0.00424895 -0.00143456  -0.00079295 -0.0023135 -0.000500739  0 0 0  -0.000564598 -0.00143182 -0.000678658  -0.000791103 -0.0022323 -0.000772476  -0.0086218 -0.00892328 -0.00264579  -0.00634558 -0.0075882 -0.0014537  -0.00682777 -0.00793796 -0.00151831  -0.00533909 -0.00648371 -0.00199509  -0.00345317 -0.00481053 -0.001091  -0.00632131 -0.00734302 -0.00223047  -0.00685188 -0.00767674 -0.00231856  -0.00473367 -0.00609294 -0.00127047  -0.0034835 -0.00463079 -0.00167084  -0.00474387 -0.00588449 -0.0019471  -0.0132666 -0.012721 -0.00310421  -0.0108974 -0.0110103 -0.00192708  -0.0110298 -0.0118692 -0.00179905  -0.00907508 -0.0105366 -0.00234354  -0.00717863 -0.00865164 -0.00145489  -0.0109152 -0.0106959 -0.00293177  -0.0110724 -0.0115576 -0.00272387  -0.00892439 -0.00978019 -0.0016914  -0.00722805 -0.00839186 -0.00221092  -0.00896132 -0.0094933 -0.00257069  -0.0179066 -0.0174715 -0.00319755  -0.015572 -0.0152875 -0.00210929  -0.0151521 -0.0167757 -0.0018639  -0.0126406 -0.0155667 -0.00240904  -0.0108362 -0.0132172 -0.00159162  -0.0156092 -0.0149536 -0.00318378  -0.015187 -0.0164525 -0.00280327  -0.0131123 -0.0141851 -0.00185084  -0.0108791 -0.012922 -0.00239974  -0.0131536 -0.01387 -0.00279146  -0.0223357 -0.0232869 -0.00309289  -0.0201227 -0.0205753 -0.00210452  -0.0190822 -0.0227042 -0.00180793  -0.0160226 -0.0216175 -0.00232661  -0.0143341 -0.0187687 -0.00158596  -0.0201504 -0.0202474 -0.00316137  -0.0190963 -0.0223877 -0.00270975  -0.0171441 -0.019607 -0.00184524  -0.0143558 -0.0184655 -0.00237983  -0.0171689 -0.0192915 -0.00277048  -0.0265174 -0.0301011 -0.00290281  -0.024449 -0.0268842 -0.00200444  -0.0227923 -0.0296171 -0.00169748  -0.0192171 -0.028647 -0.00218058  -0.0176433 -0.0253094 -0.00150853  -0.0244591 -0.0265735 -0.00300491  -0.0227871 -0.0293169 -0.00254261  -0.0209655 -0.0260366 -0.00175667  -0.0176421 -0.025013 -0.00225931  -0.0209692 -0.0257332 -0.00263184  -0.0304446 -0.0378421 -0.00268531  -0.0285174 -0.0341513 -0.00186634  -0.0262818 -0.0374452 -0.00156909  -0.0222333 -0.0365863 -0.00201488  -0.0207651 -0.0327886 -0.00140232  -0.0285121 -0.0338612 -0.00279528  -0.0262617 -0.0371641 -0.00234926  -0.0245638 -0.0334158 -0.00163478  -0.0207465 -0.0325072 -0.00209916  -0.0245507 -0.0331294 -0.00244731  -0.0341288 -0.0464357 -0.00246274  -0.0323328 -0.0423057 -0.00171852  -0.029563 -0.0461161 -0.00143802  -0.0250856 -0.0453661 -0.00184453  -0.0237091 -0.0411389 -0.00128835  -0.0323162 -0.0420379 -0.00257325  -0.0295336 -0.0458549 -0.00215399  -0.0279472 -0.0416741 -0.00150365  -0.0236794 -0.0408751 -0.00192904  -0.0279223 -0.041408 -0.00225115  -0.0375853 -0.0558105 -0.00224781  -0.0359075 -0.0512771 -0.00157189  -0.0326483 -0.0555631 -0.00131148  -0.0277842 -0.0549166 -0.00168234  -0.0264893 -0.0502924 -0.00117683  -0.0358852 -0.0510302 -0.00235397  -0.0326142 -0.0553231 -0.0019657  -0.031128 -0.0507416 -0.00137407  -0.026454 -0.0500489 -0.00176305  -0.0310966 -0.0504966 -0.00205809  -0.0408289 -0.0658997 -0.00204605  -0.0392597 -0.0609948 -0.00143117  -0.0355538 -0.0657212 -0.00119275  -0.0303395 -0.0651737 -0.00152934  -0.0291189 -0.0601843 -0.00107116  -0.0392327 -0.0607694 -0.00214434  -0.0355172 -0.0655014 -0.00178605  -0.0341219 -0.0605518 -0.0012514  -0.0290786 -0.0599605 -0.0016048  -0.0340871 -0.0603271 -0.00187469  -0.043875 -0.0766422 -0.00185376  -0.0424042 -0.0713986 -0.0013001  -0.0382916 -0.0765269 -0.00108033  -0.0327616 -0.0760755 -0.00138468  -0.0316066 -0.070752 -0.000971556  -0.0423769 -0.0711933 -0.00194746  -0.0382546 -0.0763278 -0.00161821  -0.0369426 -0.0710415 -0.00113565  -0.0315672 -0.0705473 -0.00145638  -0.0369058 -0.0708366 -0.00170213  -0.046733 -0.087977 -0.00167376  -0.0453556 -0.0824243 -0.00117594  -0.0408705 -0.0879246 -0.000975549  -0.0350581 -0.0875621 -0.00124991  -0.0339643 -0.0819346 -0.000878096  -0.0453277 -0.0822397 -0.00176185  -0.0408351 -0.087742 -0.00146121  -0.0395998 -0.0821499 -0.00102657  -0.0339252 -0.0817484 -0.00131685  -0.0395647 -0.0819644 -0.00153947  -0.0494133 -0.0998487 -0.00150365  -0.0481219 -0.0940169 -0.00105929  -0.0433013 -0.0998532 -0.000876009  -0.0372351 -0.099578 -0.00112337  -0.0361984 -0.0936751 -0.000790536  -0.0480959 -0.0938492 -0.00158769  -0.0432671 -0.0996898 -0.00131351  -0.042104 -0.0938202 -0.000924885  -0.0361611 -0.0935065 -0.00118548  -0.0420691 -0.0936522 -0.00138611  -0.0519252 -0.112204 -0.00134557  -0.0507129 -0.10612 -0.000950634  -0.0455902 -0.112264 -0.000783324  -0.0392971 -0.112068 -0.00100297  -0.0383158 -0.105917 -0.000708699  -0.0506899 -0.105969 -0.00142318  -0.0455577 -0.112115 -0.00117397  -0.0444624 -0.105997 -0.000829041  -0.03828 -0.105766 -0.00106239  -0.04443 -0.105845 -0.001243  -0.0542773 -0.12499 -0.00119692  -0.0531453 -0.118682 -0.000847161  -0.0477437 -0.1251 -0.000696957  -0.0412511 -0.12498 -0.000893176  -0.0403212 -0.118609 -0.00063169  -0.0531189 -0.118547 -0.00126976  -0.0477136 -0.124969 -0.00104481  -0.0466827 -0.118627 -0.000739336  -0.0402882 -0.118473 -0.000947535  -0.0466517 -0.118491 -0.00110847  -0.0564752 -0.13816 -0.00105774  -0.0554171 -0.13165 -0.000751674  -0.0497694 -0.138318 -0.000615001  -0.0431017 -0.138267 -0.000786483  -0.0422193 -0.1317 -0.000559807  -0.0553946 -0.13153 -0.00112611  -0.0497416 -0.1382 -0.000922322  -0.0487716 -0.131659 -0.000655472  -0.042189 -0.13158 -0.000839174  -0.0487428 -0.131539 -0.000982523  -0.0585303 -0.151666 -0.000925481  -0.0575399 -0.144979 -0.000661075  -0.0516737 -0.151865 -0.000539362  -0.0448532 -0.151882 -0.000688612  -0.0440171 -0.145142 -0.000492156  -0.0575206 -0.144873 -0.000990152  -0.0516472 -0.151763 -0.000808239  -0.0507367 -0.145048 -0.000576437  -0.0439894 -0.145036 -0.000738204  -0.0507092 -0.144941 -0.000864744  -0.060446 -0.165464 -0.000804842  -0.0595226 -0.158624 -0.000577331  -0.0534599 -0.165704 -0.000467658  -0.0465081 -0.16578 -0.000599563  -0.045717 -0.15889 -0.000429273  -0.059504 -0.158532 -0.000863671  -0.0534358 -0.165612 -0.000700474  -0.0525801 -0.158746 -0.000502825  -0.0456927 -0.158797 -0.000643134  -0.0525551 -0.158653 -0.000753403  -0.0622344 -0.179514 -0.000690937  -0.0613725 -0.17254 -0.00049758  -0.0551367 -0.179791 -0.000401795  -0.0480731 -0.179922 -0.000513971  -0.0473258 -0.172903 -0.000370204  -0.0613563 -0.17246 -0.000746727  -0.0551152 -0.17971 -0.000602603  -0.0543106 -0.172713 -0.00043422  -0.0473011 -0.172822 -0.000555634  -0.0542889 -0.172633 -0.000650644  -0.0638969 -0.193778 -0.000586331  -0.0630972 -0.186691 -0.000426471  -0.0567091 -0.194086 -0.000341117  -0.0495524 -0.194266 -0.000435948  -0.0488462 -0.187139 -0.000316501  -0.0630813 -0.186623 -0.000638127  -0.0566902 -0.194017 -0.000510395  -0.0559342 -0.186909 -0.000370562  -0.0488224 -0.187069 -0.00047493  -0.0559154 -0.18684 -0.000556052  -0.0654473 -0.208217 -0.000491321  -0.0647011 -0.201036 -0.000358999  -0.0581846 -0.208554 -0.000285327  -0.0509503 -0.20878 -0.000364006  -0.0502789 -0.201562 -0.000265718  -0.0646858 -0.200978 -0.000537097  -0.0581665 -0.208495 -0.000426769  -0.0574574 -0.201294 -0.00031215  -0.0502601 -0.201503 -0.000399172  -0.0574415 -0.201236 -0.000468731  -0.0668862 -0.222802 -0.000403285  -0.0661912 -0.215542 -0.000298381  -0.0595658 -0.223163 -0.000234485  -0.0522709 -0.223429 -0.000299394  -0.0516343 -0.216138 -0.000220895  -0.0661814 -0.215495 -0.00044626  -0.0595515 -0.223114 -0.000351191  -0.0588849 -0.215837 -0.000259459  -0.0516191 -0.216088 -0.000330865  -0.0588701 -0.215789 -0.00038898  -0.0682294 -0.2375 -0.000325382  -0.0675812 -0.230179 -0.000242174  -0.0608637 -0.237882 -0.000189126  -0.0535207 -0.238183 -0.000240862  -0.0529199 -0.230834 -0.000180304  -0.0675697 -0.230138 -0.000362694  -0.0608492 -0.23784 -0.00028348  -0.0602241 -0.230505 -0.00021106  -0.0529046 -0.230794 -0.00026983  -0.06021 -0.230465 -0.00031656  -0.0694818 -0.252281 -0.000254035  -0.068877 -0.244913 -0.000192463  -0.0620825 -0.252683 -0.000148416  -0.0547037 -0.253014 -0.000189483  -0.0541327 -0.245623 -0.00014323  -0.068867 -0.244881 -0.000289798  -0.0620694 -0.252648 -0.000222504  -0.0614817 -0.245268 -0.000168085  -0.0541193 -0.245589 -0.000214338  -0.0614693 -0.245235 -0.000252128  -0.0706503 -0.267124 -0.000194252  -0.070085 -0.259722 -0.000148833  -0.06323 -0.26754 -0.000112355  -0.0558269 -0.267898 -0.000143468  -0.0552807 -0.260476 -0.000109792  -0.0700772 -0.259696 -0.000224113  -0.0632193 -0.267513 -0.000168264  -0.0626633 -0.2601 -0.00012958  -0.0552709 -0.26045 -0.000164688  -0.0626531 -0.260074 -0.000194788  -0.0717471 -0.282005 -0.000140429  -0.0712149 -0.27458 -0.000110984  -0.0643137 -0.282433 -8.17776e-05  -0.056895 -0.282813 -0.000101507  -0.0563762 -0.275373 -8.17776e-05  -0.071208 -0.274561 -0.000166655  -0.0643036 -0.282411 -0.000122607  -0.0637779 -0.274978 -9.69768e-05  -0.0563657 -0.275352 -0.000123024  -0.0637696 -0.274958 -0.000144303  -0.072778 -0.296902 -9.81688e-05  -0.0722737 -0.289466 -7.98106e-05  -0.0653386 -0.297341 -5.6684e-05  -0.057914 -0.297738 -7.17044e-05  -0.0574157 -0.29029 -5.75781e-05  -0.0722706 -0.289452 -0.000117302  -0.0653324 -0.297323 -8.44598e-05  -0.064831 -0.28988 -6.83665e-05  -0.0574083 -0.290274 -8.73208e-05  -0.0648251 -0.289865 -0.00010252  -0.0737529 -0.311804 -6.37174e-05  -0.073278 -0.304364 -5.33462e-05  -0.0663183 -0.312248 -3.68953e-05  -0.0588927 -0.31266 -4.61936e-05  -0.0584145 -0.305211 -3.92795e-05  -0.0732708 -0.304353 -7.90954e-05  -0.066313 -0.312235 -5.53131e-05  -0.0658336 -0.30479 -4.60148e-05  -0.0584078 -0.3052 -5.90086e-05  -0.0658288 -0.30478 -6.84261e-05  -0.074688 -0.326692 -3.70145e-05  -0.0742304 -0.319256 -3.36766e-05  -0.067261 -0.32714 -2.18153e-05  -0.0598373 -0.327561 -2.56896e-05  -0.0593758 -0.32012 -2.36034e-05  -0.0742264 -0.31925 -4.94719e-05  -0.0672555 -0.327129 -3.14713e-05  -0.0667932 -0.319692 -2.90275e-05  -0.0593693 -0.320113 -3.49283e-05  -0.0667882 -0.319684 -4.27365e-05  -0.0755897 -0.341555 -1.75238e-05  -0.075146 -0.33413 -1.7643e-05  -0.0681736 -0.342006 -9.95398e-06  -0.0607555 -0.342433 -1.23978e-05  -0.0603037 -0.335006 -1.26958e-05  -0.0751443 -0.334126 -2.73585e-05  -0.0681684 -0.341998 -1.5378e-05  -0.0677195 -0.334571 -1.54376e-05  -0.0603004 -0.335 -1.84178e-05  -0.067713 -0.334566 -2.21729e-05  -0.0764744 -0.356394 -5.30481e-06  -0.0760379 -0.348983 -7.45058e-06  -0.0690663 -0.356844 -1.37091e-06  -0.0616548 -0.357273 -8.9407e-07  -0.0612102 -0.349861 -3.8743e-06  -0.0760324 -0.348978 -1.16825e-05  -0.0690618 -0.356836 -1.72853e-06  -0.0686216 -0.349424 -5.48363e-06  -0.0612075 -0.349856 -5.24521e-06  -0.0686178 -0.34942 -8.04663e-06  -0.0773542 -0.371212 5.126e-06  -0.0769205 -0.363807 -5.96046e-07  -0.069952 -0.371658 6.19888e-06  -0.0625443 -0.372081 1.15037e-05  -0.0621045 -0.364683 3.09944e-06  -0.0769153 -0.363804 2.98023e-07  -0.0699463 -0.37165 7.86781e-06  -0.0695097 -0.364247 1.84774e-06  -0.0620995 -0.36468 5.54323e-06  -0.0695055 -0.364244 4.05312e-06  -0.00134365 -0.00217003 -0.000664055  0 0 0  -0.000987031 -0.00146964 -0.00082469  -0.000305425 -0.000582904 -0.000292718  0 0 0  -0.0013609 -0.00206044 -0.00102335  -0.000407986 -0.000953794 -0.000362635  0 0 0  -0.000308197 -0.000539035 -0.000454545  -0.000411242 -0.000901416 -0.000561774  -0.0040773 -0.0056635 -0.00109661  -0.00306188 -0.00467545 -0.00135356  -0.0019013 -0.0030749 -0.000735939  -0.00412036 -0.00545804 -0.00167614  -0.00260781 -0.00380574 -0.000912249  -0.00193059 -0.00293685 -0.00113142  -0.00263907 -0.00364898 -0.00139934  -0.00718099 -0.00993524 -0.00130028  -0.00553724 -0.00895937 -0.00158668  -0.00424165 -0.00690924 -0.000984848  -0.007229 -0.00967087 -0.00196844  -0.00562769 -0.00768301 -0.00122148  -0.00428677 -0.00669625 -0.0014984  -0.00567669 -0.00744842 -0.00185716  -0.0102104 -0.0151119 -0.00134343  -0.00798008 -0.0142151 -0.00162315  -0.00673753 -0.011721 -0.00107419  -0.0102411 -0.0148207 -0.00201893  -0.00871232 -0.0123941 -0.00133514  -0.00677472 -0.0114615 -0.0016197  -0.00875404 -0.0121177 -0.00201237  -0.0130871 -0.0212708 -0.00129884  -0.0102917 -0.0204615 -0.00155973  -0.00913817 -0.0174954 -0.00106615  -0.0130929 -0.0209741 -0.00194609  -0.0116686 -0.0180641 -0.00132757  -0.00915176 -0.0172158 -0.00159895  -0.0116869 -0.0177731 -0.00199103  -0.0158026 -0.0283822 -0.00121701  -0.012482 -0.0276587 -0.001459  -0.0114077 -0.0242255 -0.00101089  -0.0157883 -0.028093 -0.00182068  -0.0144637 -0.0247054 -0.00126016  -0.0114012 -0.0239435 -0.00151271  -0.0144593 -0.0244161 -0.0018869  -0.018371 -0.0363905 -0.00112242  -0.014568 -0.0357506 -0.00134474  -0.0135591 -0.0318691 -0.000937641  -0.0183428 -0.0361149 -0.00167912  -0.0171037 -0.0322724 -0.00117034  -0.0135369 -0.0315955 -0.0014022  -0.0170823 -0.0319951 -0.0017516  -0.0208051 -0.0452285 -0.00102639  -0.0165647 -0.0446718 -0.00123024  -0.0156081 -0.0403696 -0.000859261  -0.0207694 -0.0449714 -0.00153726  -0.0196036 -0.0407033 -0.00107449  -0.0155768 -0.0401105 -0.00128657  -0.0195716 -0.0404412 -0.00160819  -0.0231193 -0.0548327 -0.000935018  -0.0184816 -0.0543588 -0.00111973  -0.0175693 -0.049665 -0.000783801  -0.023079 -0.0545948 -0.00140053  -0.0219762 -0.049933 -0.000980616  -0.0175322 -0.049423 -0.00117403  -0.0219387 -0.0496895 -0.001468  -0.0253228 -0.0651411 -0.000849426  -0.0203246 -0.0647471 -0.00101638  -0.0194509 -0.0596918 -0.000712097  -0.0252812 -0.0649209 -0.00127214  -0.0242335 -0.0598968 -0.000891447  -0.0194119 -0.0594682 -0.00106639  -0.0241932 -0.0596729 -0.0013358  -0.0274239 -0.0760907 -0.000768483  -0.0221001 -0.0757743 -0.000918746  -0.0212586 -0.0703882 -0.000645578  -0.0273825 -0.0758902 -0.00115246  -0.0263848 -0.0705328 -0.000808477  -0.0212201 -0.0701831 -0.000966668  -0.0263439 -0.0703286 -0.00121188  -0.0294279 -0.0876227 -0.0006935  -0.023811 -0.0873822 -0.000828385  -0.0230012 -0.0816946 -0.000582457  -0.0293881 -0.0874407 -0.00103861  -0.028437 -0.0817819 -0.000730395  -0.0229622 -0.0815081 -0.000873327  -0.0283967 -0.0815958 -0.0010944  -0.0313427 -0.0996827 -0.000621974  -0.02546 -0.0995116 -0.000745118  -0.024678 -0.0935524 -0.000523567  -0.031304 -0.0995173 -0.000933528  -0.0303962 -0.0935847 -0.00065726  -0.0246418 -0.0933833 -0.000785112  -0.0303568 -0.0934158 -0.000986159  -0.0331689 -0.112212 -0.000556052  -0.0270509 -0.11211 -0.000663459  -0.0262985 -0.105906 -0.000469625  -0.0331333 -0.112065 -0.000833571  -0.0322659 -0.105886 -0.000589132  -0.0262625 -0.105754 -0.000703514  -0.0322287 -0.105735 -0.000882804  -0.0349133 -0.125165 -0.000493824  -0.0285847 -0.125124 -0.000590205  -0.0278561 -0.118703 -0.000418186  -0.0348798 -0.125031 -0.00074178  -0.0340512 -0.118633 -0.00052464  -0.0278248 -0.118567 -0.000626564  -0.0340166 -0.118498 -0.000786722  -0.0365787 -0.138487 -0.000436544  -0.0300628 -0.138505 -0.000520468  -0.0293604 -0.131892 -0.000369489  -0.0365465 -0.138368 -0.000654161  -0.0357553 -0.131776 -0.000464857  -0.02933 -0.131771 -0.000554204  -0.0357236 -0.131656 -0.000697732  -0.0381653 -0.152134 -0.000382006  -0.0314877 -0.152207 -0.000454485  -0.0308101 -0.145425 -0.000324726  -0.0381365 -0.152029 -0.000572622  -0.0373805 -0.145266 -0.000408351  -0.0307813 -0.145318 -0.000487447  -0.0373504 -0.145161 -0.000612736  -0.0396795 -0.166063 -0.000331104  -0.0328596 -0.166186 -0.000394404  -0.0322044 -0.159257 -0.000282705  -0.0396535 -0.165971 -0.000496387  -0.0389311 -0.15906 -0.000355542  -0.0321798 -0.159163 -0.000423253  -0.0389044 -0.158965 -0.000534356  -0.0411229 -0.180231 -0.000284016  -0.0341811 -0.1804 -0.000338018  -0.0335503 -0.173346 -0.000243127  -0.0410981 -0.180149 -0.000426471  -0.0404091 -0.173112 -0.000307202  -0.0335269 -0.173265 -0.000365078  -0.0403838 -0.173032 -0.000461042  -0.0424974 -0.194599 -0.000240326  -0.0354531 -0.194811 -0.000286341  -0.0348432 -0.187652 -0.000207663  -0.0424759 -0.19453 -0.000361979  -0.0418181 -0.187385 -0.000262678  -0.0348237 -0.187581 -0.000311852  -0.041795 -0.187316 -0.000392973  -0.0438082 -0.209133 -0.000201166  -0.0366771 -0.209384 -0.000240147  -0.0360887 -0.202138 -0.000175059  -0.0437887 -0.209075 -0.000301778  -0.0431616 -0.201843 -0.000220895  -0.0360701 -0.202078 -0.000262797  -0.0431416 -0.201783 -0.000331581  -0.045058 -0.223803 -0.000165343  -0.0378556 -0.224084 -0.00019604  -0.0372882 -0.216769 -0.00014472  -0.0450413 -0.223751 -0.000248373  -0.0444398 -0.216447 -0.000182331  -0.0372717 -0.216718 -0.000217557  -0.0444233 -0.216397 -0.000274301  -0.0462503 -0.238571 -0.000132799  -0.0389907 -0.238884 -0.000157714  -0.0384429 -0.231514 -0.000118017  -0.0462358 -0.23853 -0.000199437  -0.0456619 -0.23117 -0.000148594  -0.0384283 -0.231473 -0.000176251  -0.0456457 -0.231129 -0.00022316  -0.0473907 -0.253418 -0.000103116  -0.0400848 -0.253755 -0.000123203  -0.0395541 -0.246346 -9.33409e-05  -0.0473769 -0.253382 -0.000156701  -0.0468266 -0.245982 -0.000118196  -0.0395417 -0.246311 -0.000139534  -0.0468135 -0.245947 -0.000177264  -0.0484798 -0.268313 -7.86781e-05  -0.0411408 -0.268672 -9.38773e-05  -0.040627 -0.261236 -7.11083e-05  -0.0484681 -0.268283 -0.000118971  -0.0479412 -0.260853 -9.07183e-05  -0.0406191 -0.261208 -0.000107348  -0.0479279 -0.260827 -0.000136137  -0.049525 -0.283237 -5.76377e-05  -0.0421605 -0.283614 -6.73532e-05  -0.0416625 -0.276163 -5.3525e-05  -0.0495145 -0.283213 -8.61287e-05  -0.0490072 -0.275766 -6.76513e-05  -0.0416546 -0.27614 -7.99894e-05  -0.0489964 -0.275744 -0.000101626  -0.050528 -0.29817 -3.88026e-05  -0.0431492 -0.298562 -4.68493e-05  -0.0426662 -0.291104 -3.73125e-05  -0.0505207 -0.298152 -5.83529e-05  -0.0500317 -0.290697 -4.81009e-05  -0.0426576 -0.291088 -5.65052e-05  -0.0500231 -0.29068 -7.20024e-05  -0.0514996 -0.313096 -2.51532e-05  -0.0441103 -0.313501 -2.87294e-05  -0.0436373 -0.306045 -2.49743e-05  -0.0514929 -0.313081 -3.78489e-05  -0.051018 -0.305629 -3.14713e-05  -0.0436332 -0.306033 -3.65376e-05  -0.0510113 -0.305617 -4.75049e-05  -0.0524406 -0.328001 -1.45435e-05  -0.0450454 -0.328416 -1.66893e-05  -0.0445857 -0.32097 -1.49608e-05  -0.0524359 -0.327989 -2.17557e-05  -0.0519729 -0.320546 -1.91331e-05  -0.0445809 -0.320961 -2.18749e-05  -0.0519671 -0.320537 -2.88486e-05  -0.0533581 -0.342877 -5.72205e-06  -0.0459602 -0.343297 -6.49691e-06  -0.0455079 -0.335866 -7.56979e-06  -0.0533535 -0.342866 -9.0003e-06  -0.052901 -0.335437 -1.00732e-05  -0.045506 -0.335859 -1.13249e-05  -0.0528963 -0.33543 -1.44839e-05  -0.0542581 -0.357716 2.98023e-07  -0.0468602 -0.358138 3.69549e-06  -0.0464129 -0.350726 -1.60933e-06  -0.0542536 -0.357706 1.49012e-06  -0.0538094 -0.350294 -2.98023e-06  -0.0464125 -0.350722 -1.90735e-06  -0.0538042 -0.35029 -4.17233e-06  -0.0551481 -0.37252 6.97374e-06  -0.0477507 -0.372938 6.25849e-06  -0.0473082 -0.365548 3.57628e-06  -0.0551424 -0.372512 1.00136e-05  -0.054702 -0.365116 3.57628e-06  -0.0473042 -0.365543 5.72205e-06  -0.0546985 -0.365112 5.48363e-06  -0.00067389 -0.00116751 -0.000402391  0 0 0  -0.000426933 -0.000837028 -0.000416875  -0.000131305 -0.000186622 -0.000147402  0 0 0  -0.000686169 -0.00108215 -0.000623167  -0.000206098 -0.000337541 -0.000220597  0 0 0  -0.000132021 -0.000155926 -0.000230193  -0.000208549 -0.000300944 -0.000343025  -0.0021472 -0.00427902 -0.000668585  -0.00136885 -0.00374839 -0.000686407  -0.00083454 -0.00222939 -0.000372529  -0.00217834 -0.00411317 -0.0010227  -0.00133753 -0.00256118 -0.000555575  -0.000849888 -0.00211853 -0.000573277  -0.0013594 -0.00243837 -0.000853896  -0.00396824 -0.00864616 -0.000791728  -0.00255686 -0.00805661 -0.000805318  -0.00192451 -0.00594905 -0.000499487  -0.00400156 -0.00841784 -0.00119901  -0.00303993 -0.00633156 -0.000744164  -0.00194776 -0.00576684 -0.000760257  -0.00307453 -0.00613663 -0.00113213  -0.00582087 -0.0140233 -0.00081563  -0.00378612 -0.0134538 -0.000821412  -0.00315636 -0.0108632 -0.000544369  -0.0058392 -0.013759 -0.00122422  -0.00490168 -0.0112083 -0.00081104  -0.00317374 -0.0106298 -0.000820994  -0.00492924 -0.0109631 -0.00122261  -0.00759727 -0.0203615 -0.00078547  -0.00498289 -0.0198361 -0.00078696  -0.00438732 -0.0167865 -0.000539541  -0.00759602 -0.020081 -0.00117552  -0.00671917 -0.0170681 -0.000803947  -0.00438982 -0.016524 -0.000808179  -0.00672805 -0.0167983 -0.00120544  -0.00929081 -0.0276238 -0.000733137  -0.00614482 -0.0271526 -0.000733852  -0.0055778 -0.0236508 -0.000509858  -0.00927466 -0.0273443 -0.00109744  -0.00845313 -0.0238737 -0.000760615  -0.00556701 -0.0233791 -0.000761807  -0.00844473 -0.0235972 -0.00113809  -0.0109158 -0.0357641 -0.000674307  -0.00728393 -0.0353514 -0.000673056  -0.00673705 -0.0314119 -0.000470638  -0.0108895 -0.0354953 -0.00100839  -0.0101113 -0.0315821 -0.000704646  -0.00671691 -0.0311435 -0.000703335  -0.0100889 -0.0313115 -0.00105345  -0.0124844 -0.0447275 -0.000616252  -0.00841033 -0.0443749 -0.000613928  -0.00787467 -0.0400188 -0.000429928  -0.0124519 -0.0444721 -0.000921369  -0.0117052 -0.0401413 -0.00064522  -0.00784791 -0.0397625 -0.000643492  -0.0116769 -0.0398837 -0.000965476  -0.014007 -0.0544507 -0.00055939  -0.00952983 -0.0541596 -0.000556171  -0.00899887 -0.0494148 -0.000390649  -0.0139713 -0.0542133 -0.000837982  -0.0132501 -0.0494921 -0.000587583  -0.00897074 -0.049174 -0.000584722  -0.0132167 -0.0492506 -0.000879467  -0.0154878 -0.0648722 -0.000507057  -0.0106442 -0.0646432 -0.000503182  -0.0101186 -0.0595396 -0.000353336  -0.015452 -0.0646537 -0.000759423  -0.014752 -0.0595716 -0.000532866  -0.0100871 -0.0593164 -0.000529408  -0.0147164 -0.0593487 -0.000797808  -0.0169332 -0.0759326 -0.000458002  -0.0117568 -0.0757634 -0.000453413  -0.0112319 -0.0703307 -0.000318944  -0.016897 -0.0757314 -0.000686586  -0.0162143 -0.07032 -0.00048238  -0.0112014 -0.070126 -0.000478148  -0.016179 -0.0701146 -0.000722587  -0.0183434 -0.0875706 -0.000412285  -0.0128659 -0.0874597 -0.000408232  -0.0123404 -0.0817292 -0.000286639  -0.0183084 -0.0873879 -0.000617325  -0.0176411 -0.0816758 -0.000434637  -0.0123117 -0.081542 -0.000429571  -0.0176077 -0.0814896 -0.000651956  -0.0197215 -0.0997287 -0.00036943  -0.0139723 -0.0996759 -0.000364304  -0.0134493 -0.0936743 -0.000257194  -0.0196882 -0.0995629 -0.000554323  -0.0190353 -0.0935819 -0.00039053  -0.0134202 -0.0935053 -0.000385046  -0.0190026 -0.0934125 -0.000585556  -0.0210675 -0.112355 -0.000329435  -0.0150752 -0.112355 -0.00032407  -0.0145502 -0.106113 -0.000229895  -0.0210369 -0.112206 -0.000494182  -0.0203981 -0.10598 -0.000349283  -0.0145246 -0.105959 -0.000344515  -0.0203668 -0.105828 -0.000523984  -0.0223823 -0.125395 -0.000292838  -0.0161724 -0.125446 -0.000287652  -0.0156487 -0.118987 -0.000203311  -0.0223538 -0.125262 -0.000438988  -0.0217277 -0.11882 -0.000310779  -0.0156244 -0.118851 -0.000304878  -0.0216991 -0.118683 -0.000465989  -0.0236664 -0.138801 -0.000257492  -0.0172639 -0.138899 -0.000251412  -0.0167408 -0.132251 -0.000179768  -0.0236403 -0.138681 -0.000386059  -0.0230274 -0.132049 -0.000274837  -0.0167193 -0.132129 -0.000269473  -0.0230011 -0.131928 -0.000412226  -0.0249193 -0.152526 -0.000223756  -0.0183454 -0.152666 -0.000219226  -0.0178266 -0.145854 -0.000156879  -0.0248945 -0.152419 -0.000337005  -0.0242958 -0.145619 -0.000241101  -0.0178056 -0.145745 -0.000235379  -0.0242715 -0.145512 -0.000361443  -0.0261416 -0.166523 -0.000194132  -0.0194187 -0.166705 -0.000189304  -0.018904 -0.159748 -0.000136018  -0.0261195 -0.16643 -0.000292301  -0.025532 -0.159486 -0.000209093  -0.0188832 -0.159653 -0.000203848  -0.0255108 -0.159391 -0.000314057  -0.0273318 -0.180755 -0.000165999  -0.0204806 -0.180974 -0.000160933  -0.0199685 -0.173895 -0.000116229  -0.027313 -0.180674 -0.000249863  -0.0267406 -0.173606 -0.00018096  -0.0199509 -0.173812 -0.00017494  -0.02672 -0.173524 -0.00026983  -0.0284927 -0.195181 -0.000141203  -0.0215287 -0.195435 -0.000136137  -0.0210207 -0.188254 -9.85861e-05  -0.0284739 -0.195111 -0.000210941  -0.027916 -0.18794 -0.000153899  -0.0210073 -0.188182 -0.00014782  -0.0278966 -0.18787 -0.000231028  -0.0296211 -0.209769 -0.00011766  -0.0225644 -0.210052 -0.000113189  -0.0220599 -0.202786 -8.29101e-05  -0.0296063 -0.209708 -0.000176966  -0.0290611 -0.202452 -0.000128925  -0.0220473 -0.202725 -0.000124395  -0.0290432 -0.202391 -0.000193059  -0.0307214 -0.224483 -9.61423e-05  -0.0235856 -0.224792 -9.11951e-05  -0.0230865 -0.217459 -6.80685e-05  -0.0307071 -0.22443 -0.00014466  -0.0301752 -0.217106 -0.000106573  -0.0230765 -0.217407 -0.000102043  -0.0301604 -0.217054 -0.000159919  -0.0317898 -0.239292 -7.70092e-05  -0.0245907 -0.239625 -7.30157e-05  -0.0240984 -0.232241 -5.45979e-05  -0.0317771 -0.239249 -0.000114977  -0.0312586 -0.23187 -8.6844e-05  -0.0240901 -0.232197 -8.23736e-05  -0.0312459 -0.231827 -0.000129938  -0.0328329 -0.254171 -6.00815e-05  -0.0255811 -0.254525 -5.6088e-05  -0.025095 -0.247103 -4.31538e-05  -0.0328214 -0.254135 -8.99434e-05  -0.0323136 -0.246719 -6.84261e-05  -0.0250871 -0.247069 -6.53267e-05  -0.0323036 -0.246684 -0.00010258  -0.0338476 -0.269096 -4.56572e-05  -0.0265548 -0.269468 -4.28557e-05  -0.0260751 -0.26202 -3.20673e-05  -0.0338376 -0.269066 -6.81281e-05  -0.0333419 -0.261624 -5.22733e-05  -0.0260701 -0.261991 -4.89354e-05  -0.0333326 -0.261596 -7.84993e-05  -0.0348365 -0.284045 -3.22461e-05  -0.0275126 -0.28443 -2.98619e-05  -0.02704 -0.276969 -2.38419e-05  -0.0348291 -0.284019 -4.91738e-05  -0.0343447 -0.276563 -3.8743e-05  -0.0270364 -0.276947 -3.6478e-05  -0.0343361 -0.27654 -5.84126e-05  -0.0358016 -0.298997 -2.28882e-05  -0.0284545 -0.299395 -1.95503e-05  -0.0279911 -0.291929 -1.62721e-05  -0.0357957 -0.298977 -3.40343e-05  -0.0353224 -0.291514 -2.65241e-05  -0.0279863 -0.291912 -2.52128e-05  -0.0353155 -0.291498 -4.04716e-05  -0.036747 -0.313938 -1.30534e-05  -0.0293832 -0.314346 -1.16229e-05  -0.0289245 -0.306886 -1.06096e-05  -0.036741 -0.313922 -1.98483e-05  -0.0362761 -0.306464 -1.77026e-05  -0.0289216 -0.306872 -1.43647e-05  -0.0362699 -0.30645 -2.70605e-05  -0.037673 -0.328855 -8.40425e-06  -0.0302982 -0.329271 -6.55651e-06  -0.0298445 -0.32182 -5.54323e-06  -0.0376682 -0.328843 -9.95398e-06  -0.0372117 -0.321394 -1.03116e-05  -0.0298421 -0.321811 -8.64267e-06  -0.0372062 -0.321386 -1.60336e-05  -0.0385814 -0.343738 -2.74181e-06  -0.0312006 -0.34416 -2.38419e-07  -0.0307543 -0.336726 -2.02656e-06  -0.038578 -0.343727 -4.05312e-06  -0.0381298 -0.336295 -5.06639e-06  -0.030751 -0.336719 -3.45707e-06  -0.0381248 -0.336288 -7.21216e-06  -0.0394762 -0.358581 2.5034e-06  -0.0320923 -0.359003 3.09944e-06  -0.0316479 -0.351592 5.96046e-07  -0.0394735 -0.358571 1.96695e-06  -0.0390289 -0.351158 -1.19209e-07  -0.0316479 -0.351586 5.96046e-07  -0.0390265 -0.351153 0  -0.040365 -0.373376 5.00679e-06  -0.0329783 -0.373795 6.79493e-06  -0.0325372 -0.366411 1.90735e-06  -0.0403614 -0.373365 7.09295e-06  -0.0399201 -0.365978 4.17233e-06  -0.0325353 -0.366405 3.63588e-06  -0.0399175 -0.365973 4.64916e-06  -0.000186779 -0.000785559 -0.000133753  0 0 0  3.50922e-05 -0.000692517 5.24521e-06  1.00806e-05 -9.50694e-05 2.14577e-06  0 0 0  -0.00018999 -0.000713229 -0.000207543  -5.68405e-05 -0.000109375 -7.28965e-05  0 0 0  1.10939e-05 -6.88732e-05 4.17233e-06  -5.80139e-05 -8.15392e-05 -0.000113368  -0.000615329 -0.00370345 -0.000223994  9.97782e-05 -0.00353125 1.72853e-06  6.31213e-05 -0.00202623 1.72853e-06  -0.000622883 -0.00355861 -0.000343084  -0.000376344 -0.00205579 -0.000185668  6.69211e-05 -0.00192547 4.17233e-06  -0.000382096 -0.00195232 -0.000285149  -0.00118309 -0.00807634 -0.000268102  0.00014782 -0.00785318 -4.76837e-06  0.000121385 -0.00572109 -1.72853e-06  -0.00118941 -0.00786942 -0.000405312  -0.000888318 -0.00574812 -0.000251114  0.000127912 -0.00555119 -1.78814e-06  -0.000896364 -0.00557414 -0.000381231  -0.00180256 -0.0135534 -0.000276983  0.000150263 -0.0133099 -7.80821e-06  0.000145108 -0.0106776 -5.00679e-06  -0.00180236 -0.0133032 -0.000414908  -0.00148961 -0.0106864 -0.000275135  0.000155449 -0.0104546 -6.4373e-06  -0.00149375 -0.01046 -0.000414133  -0.00243807 -0.0199984 -0.000266373  9.43542e-05 -0.0197591 -9.0003e-06  0.000118017 -0.0166684 -6.31809e-06  -0.00242871 -0.0197285 -0.000397921  -0.00211841 -0.0166526 -0.00027293  0.000130057 -0.0164138 -8.52346e-06  -0.002114 -0.0163956 -0.000408709  -0.00308555 -0.027358 -0.000247121  -2.31266e-05 -0.0271399 -5.06639e-06  2.89679e-05 -0.0236011 -5.30481e-06  -0.00306886 -0.0270836 -0.000369012  -0.00275958 -0.0235597 -0.000257373  4.40478e-05 -0.0233345 -7.15256e-06  -0.00274652 -0.0232912 -0.000384212  -0.00375152 -0.0355866 -0.000225902  -0.000205874 -0.0354005 -2.5034e-06  -0.000122488 -0.0314267 -3.27826e-06  -0.00373042 -0.0353199 -0.000336707  -0.00341541 -0.0313597 -0.00023663  -0.000105679 -0.0311619 -3.51667e-06  -0.00339669 -0.031094 -0.000353396  -0.00444287 -0.0446317 -0.000204384  -0.000455916 -0.0444853 2.32458e-06  -0.000339627 -0.0400967 -2.38419e-07  -0.00441897 -0.0443794 -0.000304878  -0.00409371 -0.0400036 -0.000215054  -0.000322342 -0.0398425 4.17233e-07  -0.00407076 -0.0397485 -0.000321269  -0.00516152 -0.0544357 -0.000183642  -0.000771284 -0.0543315 6.85453e-06  -0.000623345 -0.0495553 3.45707e-06  -0.00513697 -0.0541982 -0.000275254  -0.00479841 -0.0494358 -0.000193894  -0.000604749 -0.0493158 4.58956e-06  -0.00477338 -0.0491957 -0.000289738  -0.00590909 -0.0649364 -0.000164509  -0.00115061 -0.0648775 9.95398e-06  -0.000970602 -0.0597424 4.88758e-06  -0.00588441 -0.0647175 -0.000246882  -0.00553119 -0.0595959 -0.000174284  -0.000953078 -0.0595201 8.16584e-06  -0.0055064 -0.0593736 -0.000260234  -0.00668633 -0.0760735 -0.000147343  -0.0015918 -0.0760588 1.2517e-05  -0.00138116 -0.070596 7.39098e-06  -0.0066613 -0.075872 -0.000220835  -0.00629354 -0.0704224 -0.000155866  -0.00136375 -0.0703911 1.12057e-05  -0.00626922 -0.0702175 -0.000233293  -0.00749147 -0.0877849 -0.000131428  -0.00209105 -0.087815 1.35899e-05  -0.00185227 -0.0820555 9.05991e-06  -0.00746667 -0.0876024 -0.000196695  -0.0070852 -0.0818548 -0.000139117  -0.00183523 -0.0818674 1.30534e-05  -0.00705993 -0.0816672 -0.000209033  -0.00831974 -0.100017 -0.000116944  -0.0026449 -0.100089 1.50204e-05  -0.00237787 -0.0940599 9.65595e-06  -0.00829804 -0.0998503 -0.000174284  -0.00790215 -0.0938335 -0.00012356  -0.00236213 -0.0938901 1.5378e-05  -0.00787854 -0.0936637 -0.000184953  -0.00917268 -0.11271 -0.000102699  -0.00324988 -0.112824 1.74046e-05  -0.00295639 -0.106554 1.055e-05  -0.00915229 -0.11256 -0.000154078  -0.00874269 -0.106304 -0.000109434  -0.00294054 -0.106401 1.65701e-05  -0.00872231 -0.10615 -0.000163794  -0.0100467 -0.125815 -9.02414e-05  -0.00390315 -0.125966 1.7345e-05  -0.00358403 -0.119484 1.15633e-05  -0.0100275 -0.125679 -0.000135183  -0.00960708 -0.119207 -9.63807e-05  -0.00357127 -0.119345 1.72853e-05  -0.00958693 -0.119072 -0.000144482  -0.0109372 -0.13928 -7.83801e-05  -0.00459588 -0.139467 1.68681e-05  -0.00425541 -0.132796 1.13249e-05  -0.0109208 -0.13916 -0.000117242  -0.0104889 -0.132499 -8.36849e-05  -0.0042448 -0.132673 1.67489e-05  -0.0104712 -0.132377 -0.000125945  -0.0118442 -0.15306 -6.76513e-05  -0.00532627 -0.153279 1.78218e-05  -0.00496888 -0.146445 1.13845e-05  -0.0118272 -0.152953 -0.000101089  -0.0113883 -0.146127 -7.27773e-05  -0.00495744 -0.146336 1.64509e-05  -0.0113719 -0.146019 -0.000109136  -0.0127618 -0.16711 -5.76377e-05  -0.00609183 -0.167359 1.52588e-05  -0.00571346 -0.160383 1.12653e-05  -0.012747 -0.167014 -8.61287e-05  -0.0123007 -0.160047 -6.27637e-05  -0.0057044 -0.160287 1.65105e-05  -0.0122857 -0.159952 -9.44138e-05  -0.0136881 -0.181387 -4.82798e-05  -0.00688314 -0.181665 1.7643e-05  -0.00649452 -0.174569 1.09673e-05  -0.0136745 -0.181304 -7.33137e-05  -0.0132229 -0.174216 -5.32866e-05  -0.00648355 -0.174485 1.60336e-05  -0.0132093 -0.174131 -7.99298e-05  -0.0146191 -0.195856 -4.03523e-05  -0.00770164 -0.196158 1.64509e-05  -0.0072968 -0.188962 1.07884e-05  -0.0146084 -0.195784 -6.19888e-05  -0.0141523 -0.188593 -4.36902e-05  -0.00728965 -0.188889 1.56164e-05  -0.0141416 -0.188521 -6.6638e-05  -0.0155549 -0.210479 -3.29018e-05  -0.0085392 -0.210804 1.33514e-05  -0.0081234 -0.203525 9.53674e-06  -0.0155461 -0.210417 -4.91738e-05  -0.0150859 -0.203143 -3.618e-05  -0.00811934 -0.203463 1.43647e-05  -0.0150766 -0.203082 -5.46575e-05  -0.0164914 -0.225224 -2.58684e-05  -0.00939345 -0.22557 1.28746e-05  -0.0089674 -0.218225 9.17912e-06  -0.0164843 -0.225171 -3.91603e-05  -0.0160234 -0.217831 -3.00407e-05  -0.00896525 -0.218172 1.41263e-05  -0.0160151 -0.217779 -4.42266e-05  -0.0174282 -0.240063 -1.99676e-05  -0.0102601 -0.240424 1.25766e-05  -0.00982881 -0.23303 8.70228e-06  -0.0174205 -0.240018 -3.08156e-05  -0.0169597 -0.232627 -2.40207e-05  -0.00982547 -0.232986 1.13845e-05  -0.0169525 -0.232583 -3.52263e-05  -0.0183618 -0.254964 -1.5378e-05  -0.0111372 -0.255341 1.10269e-05  -0.0107019 -0.247911 7.45058e-06  -0.0183542 -0.254928 -2.31862e-05  -0.0178933 -0.2475 -1.72257e-05  -0.0106974 -0.247875 1.12653e-05  -0.0178878 -0.247465 -2.62856e-05  -0.0192895 -0.269909 -1.10269e-05  -0.0120208 -0.270299 1.14441e-05  -0.01158 -0.262845 7.33137e-06  -0.0192845 -0.269879 -1.5974e-05  -0.0188246 -0.262427 -1.2815e-05  -0.0115795 -0.262815 1.15037e-05  -0.0188196 -0.262398 -1.96695e-05  -0.0202119 -0.284872 -6.3777e-06  -0.0129087 -0.285274 7.80821e-06  -0.012465 -0.277807 6.13928e-06  -0.0202076 -0.284847 -1.10865e-05  -0.0197499 -0.277383 -8.70228e-06  -0.0124643 -0.277784 8.58307e-06  -0.0197463 -0.277361 -1.3113e-05  -0.0211275 -0.299839 -4.76837e-06  -0.0137985 -0.300249 6.91414e-06  -0.0133541 -0.292779 4.70877e-06  -0.0211239 -0.299819 -6.61612e-06  -0.0206695 -0.29235 -5.78165e-06  -0.0133526 -0.29276 7.56979e-06  -0.0206678 -0.292333 -8.04663e-06  -0.0220368 -0.314789 -1.78814e-06  -0.014689 -0.315205 7.09295e-06  -0.0142453 -0.307742 4.35114e-06  -0.0220339 -0.314774 -3.21865e-06  -0.0215831 -0.307312 -2.74181e-06  -0.0142431 -0.307728 6.25849e-06  -0.02158 -0.307298 -5.30481e-06  -0.0229392 -0.329714 -7.15256e-07  -0.0155787 -0.330135 5.60284e-06  -0.0151343 -0.322683 4.29153e-06  -0.0229366 -0.329701 -4.76837e-07  -0.0224891 -0.32225 -1.2517e-06  -0.0151331 -0.322674 5.54323e-06  -0.022486 -0.32224 -2.02656e-06  -0.0238326 -0.344605 4.76837e-07  -0.0164638 -0.345028 2.14577e-06  -0.0160182 -0.337593 2.5034e-06  -0.0238314 -0.344592 1.78814e-06  -0.023386 -0.337158 4.17233e-07  -0.0160222 -0.337585 3.75509e-06  -0.0233836 -0.337151 -4.76837e-07  -0.0247195 -0.359449 1.13249e-06  -0.0173452 -0.359873 2.44379e-06  -0.0169036 -0.352462 2.14577e-06  -0.0247169 -0.359438 2.38419e-06  -0.0242772 -0.352025 1.13249e-06  -0.0169048 -0.352455 3.15905e-06  -0.0242741 -0.35202 1.49012e-06  -0.0255997 -0.374237 -1.19209e-07  -0.0182238 -0.374661 1.43051e-06  -0.0177836 -0.36728 -2.38419e-07  -0.0255983 -0.374226 2.14577e-06  -0.0251589 -0.366845 2.38419e-06  -0.0177846 -0.367274 8.34465e-07  -0.0251586 -0.366838 3.03984e-06  0.000254765 -0.00084126 0.000137448  0 0 0  0.000498638 -0.000952363 0.000422895  0.000150762 -0.000250518 0.000150323  0 0 0  0.000261575 -0.000771224 0.00021565  7.75903e-05 -0.000141025 7.68304e-05  0 0 0  0.000154279 -0.00022012 0.000235796  7.9222e-05 -0.000113487 0.000120759  0.000805527 -0.0038029 0.000224411  0.00156847 -0.00395006 0.000684857  0.000961944 -0.00238752 0.000372529  0.000823677 -0.00366038 0.000345588  0.00050427 -0.00213605 0.000188351  0.000983387 -0.00228018 0.000575483  0.000516802 -0.00203365 0.000291288  0.00145984 -0.00820971 0.000260472  0.00284442 -0.00832599 0.000789642  0.00216439 -0.00617987 0.000492096  0.00148419 -0.00800574 0.000395298  0.00112981 -0.00586468 0.000247002  0.00220013 -0.0060032 0.000750005  0.00115278 -0.00569397 0.000377059  0.00207657 -0.0137172 0.00026381  0.00407124 -0.0137855 0.00079906  0.00343603 -0.0111572 0.000530064  0.00209814 -0.0134706 0.000397682  0.00177842 -0.0108353 0.000263929  0.00347391 -0.0109291 0.000800312  0.00180185 -0.0106111 0.00039947  0.00259399 -0.0201948 0.000253141  0.00515044 -0.0202327 0.000765741  0.00460362 -0.0171449 0.000522196  0.00261265 -0.0199278 0.000380218  0.00234908 -0.0168328 0.00025934  0.00463116 -0.0168872 0.000784874  0.00236893 -0.0165784 0.000389993  0.00299931 -0.0275913 0.000238478  0.00607204 -0.0276228 0.000719309  0.00561112 -0.0240788 0.00049597  0.00301552 -0.0273203 0.000357389  0.00281042 -0.0237746 0.00024569  0.00563067 -0.0238121 0.000743449  0.00282782 -0.0235085 0.000369489  0.00329542 -0.0358592 0.000222027  0.00684148 -0.0359013 0.000667632  0.00646228 -0.0319176 0.000462174  0.00330997 -0.0355946 0.000333548  0.00316119 -0.0316129 0.000230491  0.00647455 -0.0316526 0.000693321  0.00317621 -0.0313485 0.000346184  0.00348485 -0.0449474 0.00020659  0.00746679 -0.045009 0.000616908  0.00716156 -0.0406081 0.000427783  0.00349879 -0.0446954 0.000310779  0.00340271 -0.0402984 0.000214994  0.00717133 -0.0403538 0.000641942  0.00341803 -0.0400444 0.000321984  0.00357234 -0.0547965 0.000191808  0.007954 -0.0548834 0.000568449  0.00771952 -0.0500927 0.000395119  0.00358546 -0.0545605 0.000288367  0.00354171 -0.0497749 0.000198781  0.00772786 -0.0498534 0.00059247  0.00355494 -0.0495349 0.000299037  0.00356185 -0.0653433 0.000177085  0.00831056 -0.0654591 0.000522494  0.00814295 -0.0603095 0.00036329  0.00357473 -0.0651244 0.000266433  0.0035795 -0.0599806 0.000184596  0.00814855 -0.0600865 0.000545502  0.00359213 -0.0597575 0.000277281  0.00345719 -0.0765263 0.000163257  0.00854194 -0.0766713 0.000478446  0.00843668 -0.0711937 0.000332952  0.00346935 -0.0763249 0.00024575  0.00352168 -0.0708532 0.000169992  0.00844145 -0.0709884 0.000499427  0.00353348 -0.0706481 0.000255287  0.00326443 -0.0882854 0.000149488  0.00865328 -0.0884596 0.00043416  0.00860739 -0.0826833 0.000303984  0.00327659 -0.0881007 0.000225186  0.00337267 -0.0823309 0.000156343  0.00861192 -0.0824964 0.00045687  0.00338423 -0.0821434 0.000234962  0.00298858 -0.100561 0.000136554  0.0086534 -0.100764 0.000395  0.00866044 -0.0947195 0.000276208  0.00299847 -0.100393 0.000205278  0.00313783 -0.0943552 0.00014329  0.00866675 -0.0945497 0.000415981  0.00314784 -0.0941852 0.000214815  0.00263405 -0.113296 0.000124693  0.00854743 -0.113527 0.000357568  0.00860965 -0.107245 0.000250399  0.00264347 -0.113146 0.000186265  0.00282097 -0.106867 0.000130534  0.00861287 -0.10709 0.000376225  0.00283074 -0.106713 0.000196218  0.00220764 -0.126441 0.000112593  0.00834382 -0.126698 0.000320494  0.0084542 -0.120202 0.000225961  0.0022161 -0.126304 0.000169039  0.00242949 -0.119815 0.000118434  0.00845742 -0.120063 0.000338435  0.00243914 -0.119676 0.000177801  0.00171447 -0.139943 0.000100553  0.00804877 -0.140224 0.000286222  0.00820398 -0.133542 0.000202179  0.00172257 -0.139822 0.000151217  0.00197005 -0.133143 0.000106812  0.00820732 -0.133419 0.000303328  0.00197804 -0.13302 0.00015974  0.00116062 -0.153757 9.07183e-05  0.00767159 -0.15406 0.000254035  0.00786877 -0.147215 0.000178993  0.00116849 -0.153648 0.000135243  0.00144577 -0.146806 9.58443e-05  0.00787044 -0.147105 0.000268877  0.0014534 -0.146698 0.000143707  0.000554323 -0.167836 8.01682e-05  0.0072186 -0.16816 0.000221848  0.00745487 -0.161175 0.000158429  0.000560045 -0.16774 0.000119984  0.000864029 -0.160758 8.41022e-05  0.00745463 -0.161077 0.000237763  0.000871181 -0.160662 0.000126541  -0.00010252 -0.182142 6.96778e-05  0.00669622 -0.182483 0.000194013  0.0069654 -0.175379 0.000138581  -9.77516e-05 -0.182058 0.000105262  0.000231981 -0.174957 7.48634e-05  0.00696588 -0.175295 0.000208676  0.000237465 -0.174872 0.000112295  -0.000801802 -0.196633 6.03199e-05  0.00611258 -0.196991 0.000164628  0.00641322 -0.189789 0.00011915  -0.000797749 -0.196561 9.05991e-05  -0.000446796 -0.189359 6.53863e-05  0.00641155 -0.189716 0.000179946  -0.000442028 -0.189288 9.81688e-05  -0.00153923 -0.211279 5.1558e-05  0.00547528 -0.211649 0.000140607  0.00580072 -0.204365 0.000102162  -0.00153661 -0.211215 7.7486e-05  -0.00116658 -0.203932 5.57303e-05  0.0058012 -0.204303 0.000153661  -0.00116396 -0.203869 8.38637e-05  -0.00230718 -0.226041 4.3571e-05  0.00478864 -0.226426 0.000118613  0.00513816 -0.219078 8.61883e-05  -0.00230527 -0.225986 6.61016e-05  -0.00191879 -0.218639 4.75645e-05  0.00513625 -0.219025 0.000129521  -0.00191641 -0.218587 7.14064e-05  -0.00310421 -0.240893 3.61204e-05  0.00406122 -0.241289 9.7692e-05  0.00443268 -0.233891 7.15852e-05  -0.00310302 -0.240847 5.42402e-05  -0.002702 -0.233451 4.01139e-05  0.00442982 -0.233846 0.00010699  -0.00270176 -0.233407 6.04987e-05  -0.00392437 -0.25581 2.97427e-05  0.00329876 -0.256214 7.9155e-05  0.00368619 -0.24878 5.76377e-05  -0.00392246 -0.25577 4.51803e-05  -0.00351048 -0.248338 3.31402e-05  0.00368333 -0.248744 8.70228e-05  -0.00350976 -0.248302 4.90546e-05  -0.00476122 -0.270762 2.5034e-05  0.00250435 -0.271174 6.1512e-05  0.00290775 -0.263719 4.73857e-05  -0.00476074 -0.27073 3.5882e-05  -0.00434113 -0.263275 2.74777e-05  0.00290322 -0.263689 7.00951e-05  -0.00433946 -0.263246 4.02927e-05  -0.00561213 -0.285734 1.8537e-05  0.0016892 -0.286152 4.66704e-05  0.00210261 -0.278684 3.56436e-05  -0.00561261 -0.285708 2.73585e-05  -0.00518394 -0.27824 2.0504e-05  0.0020988 -0.278661 5.34058e-05  -0.00518489 -0.278217 3.16501e-05  -0.00647449 -0.300705 1.38283e-05  0.00085187 -0.301127 3.43919e-05  0.00127554 -0.293658 2.66433e-05  -0.00647378 -0.300683 2.10404e-05  -0.00604033 -0.293214 1.58548e-05  0.00127292 -0.29364 4.03523e-05  -0.006042 -0.293197 2.37823e-05  -0.00734448 -0.315661 1.00732e-05  2.14577e-06 -0.316085 2.46167e-05  0.000431299 -0.308621 1.93119e-05  -0.00734472 -0.315642 1.49608e-05  -0.00690866 -0.308179 1.23382e-05  0.0004282 -0.308608 2.86698e-05  -0.00690818 -0.308165 1.75238e-05  -0.00821948 -0.330588 6.55651e-06  -0.000857592 -0.331016 1.43647e-05  -0.000424147 -0.323564 1.24574e-05  -0.00821853 -0.330574 8.70228e-06  -0.0077796 -0.323122 7.51019e-06  -0.000425577 -0.323553 1.91331e-05  -0.00778103 -0.32311 1.21593e-05  -0.00909591 -0.345477 3.75509e-06  -0.0017271 -0.345906 7.45058e-06  -0.0012908 -0.338472 6.73532e-06  -0.00909686 -0.345466 6.02007e-06  -0.00865698 -0.338032 4.82798e-06  -0.00129128 -0.338465 1.00136e-05  -0.00865841 -0.338024 6.97374e-06  -0.00997424 -0.360321 1.43051e-06  -0.00259995 -0.360751 1.60933e-06  -0.00215983 -0.353339 4.17233e-06  -0.00997376 -0.360312 1.78814e-06  -0.0095346 -0.352898 2.14577e-06  -0.00216365 -0.353333 5.30481e-06  -0.00953579 -0.352893 2.563e-06  -0.0108469 -0.375111 -1.01328e-06  -0.00346828 -0.375542 -4.41074e-06  -0.00303388 -0.368158 -1.90735e-06  -0.0108464 -0.375099 -2.38419e-06  -0.0104103 -0.367718 -2.98023e-07  -0.00303435 -0.368152 -2.32458e-06  -0.010411 -0.367711 -2.38419e-07  0.000744119 -0.00133508 0.000400782  0 0 0  0.00106086 -0.00169665 0.00081718  0.000325657 -0.000712931 0.000290334  0 0 0  0.00076066 -0.00125253 0.00062263  0.000227831 -0.000433981 0.000221491  0 0 0  0.000329606 -0.00067085 0.000453353  0.000231661 -0.000399232 0.000345349  0.0023348 -0.00457144 0.000659347  0.00325409 -0.00506359 0.00133121  0.0020273 -0.00338042 0.000724196  0.00237653 -0.00441134 0.00101209  0.00146604 -0.00279546 0.000550687  0.00206418 -0.00324965 0.0011155  0.00149511 -0.00267857 0.000849068  0.00422889 -0.00903416 0.000775158  0.00579652 -0.00947362 0.00155038  0.00446296 -0.00734937 0.000963628  0.00427961 -0.00881517 0.00117469  0.00327343 -0.00667238 0.000731111  0.0045242 -0.00714695 0.00146699  0.00332257 -0.00648493 0.00111389  0.00606078 -0.0145062 0.000793755  0.00821072 -0.0148573 0.00158149  0.0069766 -0.0122855 0.00104654  0.00610149 -0.0142504 0.00119358  0.00516483 -0.011642 0.000791371  0.00703251 -0.0120381 0.0015794  0.0052124 -0.0114062 0.00119424  0.00770658 -0.0209455 0.000765085  0.010386 -0.0212421 0.00152361  0.00928897 -0.018194 0.00103831  0.00773394 -0.0206724 0.00114816  0.00690931 -0.0175999 0.000782669  0.00932831 -0.0179252 0.00155854  0.00694251 -0.0173377 0.0011754  0.00914896 -0.0283211 0.00071907  0.0123225 -0.0285911 0.00143236  0.0113608 -0.0250717 0.000988066  0.00916588 -0.0280464 0.00107777  0.00845331 -0.0245121 0.000743508  0.0113832 -0.024798 0.001481  0.00847453 -0.0242428 0.00111413  0.0103971 -0.0365857 0.000666499  0.0140296 -0.0368475 0.00133044  0.0131937 -0.0328761 0.000921786  0.0104068 -0.0363187 0.000999868  0.00979751 -0.0323386 0.000693381  0.0132042 -0.032609 0.00138187  0.00980973 -0.0320736 0.00103921  0.0114609 -0.045678 0.000615418  0.0155209 -0.0459456 0.00122756  0.0147972 -0.0415494 0.000852764  0.0114671 -0.0454261 0.000922799  0.0109521 -0.0410259 0.000641048  0.0148008 -0.0412945 0.00127822  0.0109593 -0.0407709 0.000961244  0.0123506 -0.0555388 0.000565648  0.0168045 -0.0558162 0.00112683  0.0161875 -0.0510261 0.000784636  0.012354 -0.055302 0.000848711  0.011927 -0.0505099 0.000590384  0.0161871 -0.0507869 0.00117683  0.0119315 -0.0502706 0.000885665  0.0130738 -0.0661011 0.00051868  0.0178896 -0.0663915 0.00103289  0.0173725 -0.0612411 0.000719488  0.0130763 -0.0658809 0.000777423  0.012732 -0.0607296 0.000541687  0.0173714 -0.0610187 0.00107884  0.0127352 -0.0605072 0.000812948  0.0136396 -0.0773005 0.00047344  0.0187862 -0.0776063 0.000941932  0.0183632 -0.0721264 0.000657916  0.0136404 -0.0770986 0.000710011  0.013376 -0.0716182 0.000495553  0.0183609 -0.071922 0.000986099  0.0133779 -0.0714131 0.000743449  0.014055 -0.0890753 0.000430107  0.0195031 -0.089399 0.000855863  0.0191697 -0.0836198 0.000598609  0.0140568 -0.0888925 0.000645697  0.0138657 -0.0831131 0.000451505  0.0191664 -0.083433 0.000898182  0.0138671 -0.0829262 0.000677645  0.0143315 -0.101368 0.000389636  0.0200531 -0.101707 0.000773728  0.0198045 -0.0956612 0.0005427  0.0143319 -0.101202 0.000585556  0.0142111 -0.0951549 0.000409842  0.0197991 -0.0954905 0.000814259  0.0142115 -0.094985 0.000614822  0.0144742 -0.114122 0.000351429  0.0204419 -0.114474 0.000696599  0.0202709 -0.108189 0.000490189  0.0144744 -0.11397 0.000527143  0.0144196 -0.107685 0.000370443  0.0202669 -0.108036 0.000734985  0.0144196 -0.10753 0.000555515  0.0144939 -0.127281 0.000314355  0.0206805 -0.127648 0.000623524  0.0205841 -0.121151 0.000439942  0.0144936 -0.127145 0.000472844  0.0144994 -0.120647 0.000332773  0.0205786 -0.121013 0.000659823  0.0144988 -0.120509 0.000499487  0.0143981 -0.140799 0.000279963  0.020782 -0.141177 0.000554264  0.0207529 -0.134494 0.000392258  0.0143967 -0.140676 0.000421286  0.0144603 -0.133992 0.00029707  0.0207475 -0.134369 0.000588417  0.0144588 -0.133867 0.000445068  0.0141962 -0.154623 0.0002473  0.0207517 -0.155013 0.000487745  0.0207889 -0.148169 0.000347674  0.0141943 -0.154516 0.000371993  0.0143101 -0.147668 0.000263691  0.0207822 -0.148058 0.000521541  0.0143094 -0.147558 0.000395238  0.0138977 -0.168713 0.000216603  0.0206058 -0.169114 0.000427425  0.0206978 -0.162128 0.000304341  0.0138955 -0.168618 0.000324845  0.0140593 -0.161631 0.000231504  0.0206919 -0.162033 0.000457942  0.0140576 -0.161534 0.000347376  0.0135098 -0.183025 0.000188708  0.0203483 -0.183436 0.000370562  0.0204942 -0.176332 0.000265777  0.0135071 -0.182943 0.000281274  0.0137143 -0.175837 0.000202  0.0204895 -0.176248 0.000398576  0.0137131 -0.175753 0.000303388  0.0130405 -0.197526 0.000161171  0.0199928 -0.197941 0.000317395  0.020189 -0.190741 0.000229299  0.0130391 -0.197452 0.000241697  0.0132859 -0.190249 0.000175059  0.0201833 -0.190667 0.000343204  0.0132821 -0.190175 0.000261307  0.0125027 -0.212173 0.000135839  0.0195491 -0.212596 0.000268817  0.0197875 -0.205314 0.000194967  0.0124998 -0.212111 0.000205636  0.0127821 -0.204826 0.000148594  0.0197818 -0.205251 0.000292063  0.012778 -0.204763 0.000222981  0.0118988 -0.226939 0.000113666  0.0190268 -0.227367 0.000222802  0.0193055 -0.220021 0.000162959  0.0118954 -0.226886 0.000171483  0.0122073 -0.219538 0.000124454  0.0192971 -0.219968 0.000244141  0.0122061 -0.219485 0.000187039  0.01124 -0.241794 9.33409e-05  0.0184331 -0.242225 0.000181854  0.0187433 -0.234829 0.00013423  0.0112367 -0.241748 0.000139594  0.0115767 -0.234351 0.000102997  0.018739 -0.234786 0.000201523  0.0115726 -0.234306 0.000154912  0.0105326 -0.256708 7.45654e-05  0.0177798 -0.257143 0.000145137  0.0181189 -0.249713 0.000108242  0.0105286 -0.25667 0.000111639  0.0108931 -0.249239 8.37445e-05  0.0181146 -0.249676 0.000162661  0.0108881 -0.249202 0.000125408  0.00978327 -0.271661 5.78761e-05  0.0170724 -0.272097 0.000112712  0.0174379 -0.264645 8.60691e-05  0.00978041 -0.27163 8.76784e-05  0.0101633 -0.264175 6.63996e-05  0.0174322 -0.264616 0.000129223  0.010159 -0.264145 9.89437e-05  0.00899982 -0.286631 4.37498e-05  0.0163209 -0.287067 8.43406e-05  0.0167079 -0.279602 6.58035e-05  0.00899816 -0.286605 6.63996e-05  0.00939775 -0.279138 5.01275e-05  0.0167019 -0.279581 9.84073e-05  0.00939393 -0.279116 7.56383e-05  0.00818944 -0.301599 3.23653e-05  0.0155344 -0.302036 6.20484e-05  0.015938 -0.29457 4.76837e-05  0.00818753 -0.301578 4.85182e-05  0.00859833 -0.294111 3.74913e-05  0.0159328 -0.294551 7.21812e-05  0.00859523 -0.294091 5.57899e-05  0.00735712 -0.316552 2.19345e-05  0.0147178 -0.316987 3.92795e-05  0.0151355 -0.309527 3.34978e-05  0.00735497 -0.316534 3.27229e-05  0.00777674 -0.30907 2.67029e-05  0.015131 -0.309513 5.01871e-05  0.00777245 -0.309057 4.01735e-05  0.00650787 -0.331476 1.29938e-05  0.0138798 -0.33191 2.64049e-05  0.0143058 -0.324462 2.18749e-05  0.00650668 -0.33146 1.97887e-05  0.00693607 -0.324012 1.77622e-05  0.0143023 -0.324452 3.19481e-05  0.00693321 -0.324 2.51532e-05  0.00564766 -0.346361 6.97374e-06  0.0130243 -0.346795 1.22786e-05  0.0134604 -0.339364 1.23978e-05  0.00564504 -0.346349 8.70228e-06  0.00607991 -0.338916 1.04904e-05  0.0134537 -0.339357 1.93715e-05  0.00607777 -0.33891 1.45435e-05  0.00477958 -0.361205 8.34465e-07  0.0121615 -0.361638 2.26498e-06  0.0125995 -0.354228 4.88758e-06  0.00477743 -0.361192 8.34465e-07  0.00521636 -0.353783 3.99351e-06  0.0125947 -0.354221 5.36442e-06  0.00521231 -0.353776 5.00679e-06  0.00391293 -0.376001 -6.07967e-06  0.0112963 -0.376438 -8.34465e-06  0.0117328 -0.369047 -2.80142e-06  0.00391102 -0.375989 -7.21216e-06  0.00434613 -0.368602 -2.20537e-06  0.0117295 -0.369042 -2.5034e-06  0.00434566 -0.368597 -2.74181e-06  0.00141835 -0.00244546 0.000649869  0 0 0  0.00188918 -0.00325024 0.00119191  0.000579648 -0.00169516 0.000425637  0 0 0  0.00144009 -0.00233877 0.00100493  0.000430591 -0.00111908 0.000355482  0 0 0  0.000583641 -0.00163198 0.000659764  0.00043495 -0.00106746 0.000552952  0.00424698 -0.00611943 0.00107044  0.00549865 -0.00700265 0.00193858  0.00357287 -0.0052247 0.00105959  0.00430226 -0.00592452 0.00163835  0.00273447 -0.00417465 0.000892282  0.00361161 -0.00505501 0.00162625  0.00277427 -0.00402701 0.00137138  0.00738737 -0.0105402 0.00126433  0.00925118 -0.0112461 0.00227159  0.00734007 -0.00924772 0.00141108  0.00745434 -0.0102901 0.0019151  0.00582561 -0.00821155 0.00118977  0.00740588 -0.00900513 0.00214553  0.00589061 -0.00799066 0.00181019  0.0103674 -0.0158802 0.00130528  0.0127531 -0.0164818 0.00233644  0.0109684 -0.0140069 0.00154209  0.0104207 -0.0156043 0.00196224  0.00890651 -0.0130782 0.00129741  0.0110348 -0.0137307 0.00232571  0.00896853 -0.0128174 0.00195676  0.0130905 -0.022222 0.00126505  0.0159723 -0.0227558 0.00226396  0.014354 -0.0197744 0.00153846  0.0131243 -0.0219372 0.00189704  0.0117629 -0.0189208 0.00129056  0.0143999 -0.0194895 0.00231022  0.0118067 -0.0186445 0.00193769  0.0155388 -0.0295327 0.00119174  0.0188941 -0.0300289 0.00213444  0.0174416 -0.0265527 0.00146961  0.0155573 -0.0292524 0.0017857  0.0143483 -0.0257521 0.00123036  0.0174711 -0.0262711 0.0022034  0.0143747 -0.0254759 0.00184494  0.0177197 -0.0377535 0.00110668  0.0215217 -0.0382317 0.00198376  0.0202298 -0.0342886 0.00137478  0.0177278 -0.0374854 0.00165749  0.0166625 -0.0335265 0.00114954  0.0202449 -0.0340183 0.00206023  0.0166752 -0.0332577 0.00172246  0.0196444 -0.0468192 0.00102025  0.0238632 -0.0472884 0.001831  0.0227221 -0.0429128 0.00127238  0.0196462 -0.0465666 0.00153017  0.0187132 -0.0421792 0.00106376  0.0227271 -0.0426571 0.00190729  0.0187184 -0.0419236 0.00159442  0.021324 -0.0566593 0.000937402  0.0259295 -0.0571256 0.0016821  0.0249298 -0.0523517 0.00117099  0.0213228 -0.0564253 0.00140554  0.0205145 -0.0516409 0.00097841  0.02493 -0.0521127 0.00175536  0.0205148 -0.0514011 0.00146747  0.0227724 -0.0672066 0.000857115  0.0277312 -0.0676731 0.00153708  0.0268649 -0.0625345 0.00107348  0.0227687 -0.0669889 0.00128645  0.0220773 -0.0618434 0.000896752  0.0268618 -0.0623136 0.00160939  0.0220739 -0.0616208 0.00134492  0.0239981 -0.0783953 0.000781715  0.0292832 -0.0788628 0.00140208  0.0285412 -0.0733933 0.00098002  0.0239943 -0.078195 0.00117314  0.0234138 -0.0727186 0.000818968  0.0285374 -0.0731903 0.00146973  0.0234083 -0.0725146 0.00122845  0.0250158 -0.0901622 0.000709414  0.0305947 -0.0906316 0.0012747  0.029973 -0.084864 0.000891268  0.0250112 -0.089979 0.00106478  0.0245332 -0.0842041 0.000744939  0.0299685 -0.0846779 0.00133651  0.0245291 -0.0840173 0.00111789  0.0258355 -0.102445 0.000641882  0.0316799 -0.102918 0.00115108  0.0311693 -0.096882 0.000807226  0.0258304 -0.102279 0.000962198  0.0254507 -0.0962366 0.000675023  0.0311661 -0.0967128 0.00121051  0.0254456 -0.0960671 0.00101358  0.0264679 -0.115189 0.000577509  0.0325519 -0.115665 0.00103486  0.032146 -0.109388 0.000728011  0.0264626 -0.115039 0.000866234  0.0261751 -0.108757 0.000609457  0.032143 -0.109236 0.00109166  0.0261687 -0.108604 0.000913858  0.026925 -0.128341 0.000516355  0.0332223 -0.128817 0.000924528  0.0329179 -0.12233 0.000652313  0.026919 -0.128206 0.000774264  0.0267181 -0.121712 0.000546575  0.0329119 -0.122193 0.00097847  0.0267119 -0.121574 0.000819743  0.0272183 -0.141848 0.000458419  0.0337057 -0.142325 0.000819921  0.0334942 -0.135652 0.000581384  0.0272133 -0.141727 0.000687361  0.0270914 -0.135047 0.000486612  0.0334868 -0.135529 0.000872374  0.0270853 -0.134923 0.00072968  0.0273604 -0.155663 0.000404179  0.0340157 -0.156142 0.000723541  0.0338883 -0.149306 0.000513971  0.0273545 -0.155556 0.000606298  0.027307 -0.148714 0.000430465  0.0338819 -0.149197 0.000771403  0.0273015 -0.148604 0.000646472  0.0273626 -0.169743 0.000352621  0.0341623 -0.170221 0.000631332  0.0341165 -0.163246 0.000451088  0.0273564 -0.169648 0.000529528  0.0273795 -0.162667 0.000378668  0.0341086 -0.163151 0.000675917  0.0273731 -0.162571 0.000567496  0.0272353 -0.184048 0.000305355  0.0341606 -0.184523 0.000546634  0.0341873 -0.177429 0.00039202  0.0272298 -0.183963 0.000458419  0.0273139 -0.176863 0.000328779  0.0341802 -0.177346 0.000588059  0.0273082 -0.176779 0.00049299  0.0269918 -0.198532 0.000261784  0.034023 -0.199008 0.000465989  0.0341132 -0.191815 0.000337183  0.0269852 -0.198462 0.000391364  0.0271277 -0.191263 0.000283003  0.0341084 -0.191744 0.000504732  0.0271204 -0.19119 0.000424623  0.0266409 -0.21317 0.000219703  0.0337627 -0.213643 0.000392377  0.0339146 -0.20637 0.000285804  0.0266354 -0.213106 0.000329912  0.0268283 -0.205829 0.000240147  0.0339086 -0.206308 0.000429273  0.026823 -0.205766 0.00036031  0.0261955 -0.227923 0.000182211  0.0333922 -0.228392 0.00032711  0.0335977 -0.221055 0.000240147  0.0261893 -0.22787 0.000275493  0.0264292 -0.220527 0.000201583  0.0335896 -0.221003 0.000359952  0.0264235 -0.220474 0.00030154  0.0256658 -0.242764 0.000148892  0.0329199 -0.243229 0.000267029  0.0331757 -0.235844 0.000197709  0.0256593 -0.242719 0.000223041  0.0259411 -0.235328 0.000166237  0.0331678 -0.235801 0.000294685  0.0259342 -0.235284 0.000249028  0.0250599 -0.257666 0.000118852  0.0323629 -0.258128 0.000210524  0.0326576 -0.250707 0.000159383  0.0250559 -0.257628 0.000178277  0.0253718 -0.250203 0.00013411  0.0326521 -0.250671 0.000237346  0.0253663 -0.250166 0.000200212  0.0243921 -0.272606 9.31025e-05  0.0317297 -0.273063 0.000161767  0.0320613 -0.265619 0.000124454  0.0243876 -0.272575 0.000138521  0.0247345 -0.265126 0.000105143  0.0320547 -0.265591 0.000186145  0.0247283 -0.265097 0.000157893  0.0236709 -0.287564 6.83665e-05  0.031033 -0.288016 0.000122368  0.0313954 -0.280561 9.44138e-05  0.0236645 -0.287538 0.000102758  0.0240383 -0.280077 7.93338e-05  0.0313888 -0.280537 0.000140905  0.0240316 -0.280054 0.000120342  0.0229039 -0.302518 4.99487e-05  0.0302815 -0.302969 8.67844e-05  0.0306666 -0.295509 6.90222e-05  0.0228975 -0.302499 7.41482e-05  0.0232933 -0.295036 5.87702e-05  0.0306635 -0.295492 0.000103772  0.0232852 -0.295019 8.74996e-05  0.0220995 -0.317462 3.28422e-05  0.0294883 -0.317906 5.71012e-05  0.0298955 -0.310451 4.75645e-05  0.022095 -0.317445 4.89354e-05  0.0225065 -0.309987 4.05312e-05  0.0298908 -0.310439 7.11679e-05  0.0224996 -0.309974 6.1214e-05  0.0212674 -0.332376 2.08616e-05  0.028661 -0.332817 3.51667e-05  0.029084 -0.325373 3.06964e-05  0.0212653 -0.332363 3.0458e-05  0.0216877 -0.324916 2.63453e-05  0.0290804 -0.325365 4.59552e-05  0.021682 -0.324907 3.95775e-05  0.0204179 -0.347254 1.15633e-05  0.0278122 -0.347692 1.63317e-05  0.0282457 -0.340264 1.7941e-05  0.0204134 -0.347243 1.46627e-05  0.0208468 -0.339814 1.61529e-05  0.0282393 -0.340259 2.563e-05  0.0208414 -0.339806 2.30074e-05  0.0195541 -0.362094 1.01328e-06  0.0269494 -0.362529 4.11272e-06  0.0273883 -0.355119 7.33137e-06  0.0195506 -0.362084 3.99351e-06  0.0199871 -0.354673 5.84126e-06  0.0273829 -0.355113 1.0252e-05  0.0199831 -0.354667 8.52346e-06  0.0186882 -0.376897 -5.1856e-06  0.0260806 -0.377336 -1.03116e-05  0.0265207 -0.36994 -1.66893e-06  0.0186844 -0.376886 -9.77516e-06  0.0191216 -0.369494 -1.60933e-06  0.0265145 -0.369935 -2.32458e-06  0.0191174 -0.369488 -3.51667e-06  0.00266056 -0.00474399 0.000898182  0 0 0  0.00382011 -0.00640512 0.00158775  0.00136608 -0.00388652 0.000568688  0 0 0  0.0026691 -0.0045982 0.0013845  0.000801317 -0.00253743 0.000481904  0 0 0  0.00135271 -0.00376886 0.000882387  0.000800997 -0.00245684 0.00074631  0.00691852 -0.00847858 0.00146574  0.00865489 -0.00950056 0.00254619  0.00635591 -0.00804383 0.00139594  0.00695989 -0.008232 0.00224102  0.00481413 -0.00653875 0.00122589  0.00634831 -0.00780791 0.00214368  0.00483663 -0.0063408 0.00188166  0.011111 -0.0126272 0.0017367  0.0132665 -0.0135547 0.00298816  0.0108959 -0.0116888 0.00185412  0.0111755 -0.0123376 0.00262958  0.00901785 -0.010425 0.00163287  0.010939 -0.0113947 0.00282067  0.0090754 -0.010157 0.00248283  0.0151474 -0.0177836 0.00179994  0.0178047 -0.0186036 0.00307858  0.0155093 -0.0162393 0.00202894  0.0152065 -0.0174827 0.00270891  0.0131621 -0.0150642 0.00178689  0.0155697 -0.0159311 0.00306326  0.0132266 -0.0147722 0.00269592  0.0188966 -0.0239893 0.00175184  0.0220414 -0.0247476 0.00299072  0.0199099 -0.0218423 0.00202805  0.0189385 -0.0236925 0.00262851  0.0170615 -0.02075 0.0017845  0.0199637 -0.0215389 0.00304878  0.0171119 -0.0204554 0.00268078  0.0223207 -0.0312039 0.00165427  0.0259338 -0.0319198 0.00282431  0.0239941 -0.0284995 0.00194073  0.0223476 -0.0309193 0.00247991  0.0206505 -0.0274689 0.00170666  0.024033 -0.0282078 0.00291258  0.0206839 -0.0271824 0.00255954  0.0254133 -0.0393525 0.00153887  0.0294641 -0.0400397 0.00262898  0.0277162 -0.0361397 0.00181925  0.0254281 -0.039084 0.002307  0.0239083 -0.0351608 0.00159782  0.0277433 -0.0358658 0.00272697  0.0239288 -0.0348873 0.00239551  0.0281805 -0.0483621 0.00142014  0.0326377 -0.0490265 0.00242662  0.0310777 -0.0446861 0.00168514  0.0281882 -0.0481087 0.00212944  0.0268359 -0.0437494 0.00147998  0.0310941 -0.0444292 0.00252712  0.0268478 -0.0434926 0.00221807  0.0306358 -0.0581529 0.00130481  0.0354685 -0.0588023 0.0022313  0.0340837 -0.0540579 0.00155228  0.0306391 -0.0579184 0.00195599  0.0294467 -0.0531578 0.00136232  0.0340958 -0.0538201 0.00232655  0.0294515 -0.05292 0.00204271  0.0327927 -0.0686585 0.00119346  0.0379701 -0.0692939 0.00203991  0.0367522 -0.0641817 0.00142354  0.0327933 -0.0684422 0.0017904  0.0317516 -0.0633149 0.00124848  0.03676 -0.063963 0.0021348  0.0317521 -0.0630949 0.00187212  0.0346656 -0.0798073 0.00108826  0.0401576 -0.0804327 0.00186145  0.0390965 -0.0749872 0.00129962  0.0346652 -0.0796092 0.00163192  0.0337638 -0.0741507 0.00114036  0.0391014 -0.0747859 0.00194943  0.0337641 -0.0739486 0.00170952  0.0362699 -0.0915376 0.000987828  0.0420461 -0.0921514 0.00168896  0.0411335 -0.0864053 0.00118297  0.0362688 -0.0913562 0.00148076  0.0355014 -0.0855981 0.00103736  0.0411389 -0.0862235 0.00177312  0.0354999 -0.0854138 0.00155604  0.0376178 -0.103786 0.00089246  0.0436521 -0.104391 0.00152606  0.0428807 -0.0983763 0.00107086  0.0376164 -0.103621 0.00133801  0.0369751 -0.0975952 0.00093925  0.042883 -0.0982094 0.00160605  0.0369731 -0.0974274 0.00140923  0.0387255 -0.116499 0.0008021  0.0449901 -0.117092 0.00137037  0.044349 -0.110836 0.000965118  0.0387238 -0.11635 0.00120389  0.0382015 -0.110083 0.000846624  0.0443529 -0.110687 0.00144774  0.0381988 -0.109931 0.00126952  0.0396062 -0.129617 0.000716567  0.0460739 -0.1302 0.00122458  0.0455596 -0.123733 0.000864983  0.0396038 -0.129483 0.00107473  0.0391941 -0.123004 0.000759423  0.0455638 -0.123599 0.00129759  0.0391911 -0.122868 0.00113833  0.0402756 -0.143091 0.000636101  0.0469253 -0.143665 0.00108725  0.0465268 -0.13701 0.000770688  0.0402734 -0.142973 0.00095439  0.0399678 -0.136307 0.000675738  0.0465286 -0.136892 0.00115484  0.039964 -0.136185 0.00101376  0.0407472 -0.156876 0.000560701  0.047554 -0.157439 0.000956893  0.0472641 -0.150623 0.000680745  0.0407445 -0.15677 0.000840545  0.0405354 -0.149942 0.000597835  0.0472655 -0.150516 0.00102079  0.0405331 -0.149835 0.000896215  0.0410359 -0.170925 0.000489712  0.0479784 -0.171477 0.000835717  0.0477877 -0.16452 0.000597  0.0410335 -0.170831 0.000733316  0.0409143 -0.163865 0.00052464  0.0477896 -0.164427 0.000896096  0.040911 -0.16377 0.000786304  0.0411565 -0.185197 0.000423491  0.0482137 -0.185737 0.000721812  0.0481203 -0.178664 0.000519454  0.041153 -0.185115 0.000633717  0.0411174 -0.178029 0.000454724  0.0481188 -0.178582 0.000778735  0.0411134 -0.177947 0.000682533  0.0411222 -0.199654 0.000361025  0.0482767 -0.200184 0.000616372  0.0482695 -0.193009 0.000445366  0.0411172 -0.199584 0.000541508  0.0411587 -0.192398 0.000391245  0.0482652 -0.19294 0.000667095  0.0411537 -0.192328 0.000586569  0.040947 -0.21426 0.000305414  0.0481803 -0.214779 0.000521183  0.0482481 -0.207523 0.00037986  0.0409424 -0.2142 0.000456095  0.0410509 -0.206936 0.000331938  0.0482478 -0.207465 0.00056833  0.0410473 -0.206874 0.000498176  0.0406437 -0.228985 0.000252903  0.0479419 -0.229492 0.000431359  0.0480847 -0.222173 0.000316381  0.0406396 -0.228933 0.000379086  0.0408111 -0.221605 0.000278175  0.0480773 -0.222121 0.000472903  0.0408061 -0.221554 0.000415981  0.0402284 -0.243796 0.000205278  0.0475779 -0.244294 0.000349462  0.0477793 -0.236924 0.00025934  0.0402238 -0.243754 0.000307679  0.0404501 -0.236377 0.000228286  0.0477738 -0.236884 0.000387847  0.0404463 -0.236334 0.000342369  0.0397129 -0.258674 0.000163317  0.0470991 -0.259158 0.000279069  0.0473564 -0.251753 0.000208497  0.0397086 -0.258638 0.000244558  0.0399826 -0.251224 0.000183403  0.0473511 -0.25172 0.000311971  0.039979 -0.25119 0.000274837  0.0391097 -0.273591 0.000125885  0.04652 -0.274062 0.000213563  0.0468245 -0.266632 0.000164092  0.0391054 -0.27356 0.000188649  0.0394225 -0.266122 0.000144601  0.0468218 -0.266607 0.000245452  0.0394166 -0.266095 0.000216126  0.0384321 -0.288523 9.39965e-05  0.0458589 -0.288985 0.000157893  0.0462005 -0.281543 0.000124514  0.0384285 -0.288498 0.000139534  0.0387809 -0.28105 0.000109076  0.0461984 -0.281523 0.00018549  0.0387752 -0.281027 0.000163555  0.037694 -0.303459 6.71148e-05  0.0451252 -0.303914 0.00011152  0.0455029 -0.296465 9.06587e-05  0.037689 -0.30344 9.98974e-05  0.0380707 -0.295986 7.9751e-05  0.0455 -0.29645 0.00013572  0.0380652 -0.29597 0.00011903  0.0369055 -0.318382 4.45247e-05  0.0443349 -0.318828 7.40886e-05  0.0447381 -0.311383 6.20484e-05  0.0369008 -0.318367 6.65188e-05  0.0373065 -0.310917 5.48959e-05  0.0447359 -0.311373 9.24468e-05  0.0373011 -0.310906 8.2016e-05  0.0360768 -0.333281 2.76566e-05  0.0435007 -0.333721 4.6134e-05  0.0439277 -0.326286 4.11868e-05  0.0360734 -0.33327 4.03523e-05  0.0364947 -0.32583 3.5584e-05  0.0439227 -0.326277 5.97239e-05  0.0364904 -0.325822 5.14984e-05  0.0352252 -0.34815 1.44243e-05  0.0426393 -0.348582 2.65837e-05  0.0430772 -0.341161 2.3365e-05  0.0352197 -0.348139 2.14577e-05  0.0356538 -0.340716 2.15769e-05  0.043071 -0.341155 3.41535e-05  0.0356495 -0.340708 3.11732e-05  0.034359 -0.362983 4.94719e-06  0.0417626 -0.363416 7.80821e-06  0.0422091 -0.356008 1.18017e-05  0.0343523 -0.362974 6.4373e-06  0.0347946 -0.355565 8.88109e-06  0.042202 -0.356003 1.7941e-05  0.0347862 -0.355559 1.35303e-05  0.0334845 -0.377796 -4.52995e-06  0.0408821 -0.37823 -5.00679e-06  0.0413296 -0.370829 5.96046e-07  0.0334778 -0.377784 -9.0003e-06  0.0339229 -0.370386 -5.36442e-07  0.0413241 -0.370824 1.3113e-06  0.0339165 -0.370381 -1.84774e-06  -0.00388695 -0.00634916 -0.000530839  -0.00142472 -0.00374463 -1.19209e-07  0 0 0  -0.00261834 -0.00450506 2.98023e-07  0 0 0  -0.00178711 -0.00311054 -0.000393629  -0.000560127 -0.00154102 2.38419e-07  0 0 0  -0.00141944 -0.00371652 -0.000293136  -0.00261634 -0.00446897 -0.000459373  -0.000793599 -0.0023687 0  0 0 0  -0.000558089 -0.00152671 -0.000215709  -0.000792842 -0.00235042 -0.000246763  -0.0086339 -0.00935493 -0.000855684  -0.00637102 -0.00776684 -5.96046e-08  -0.00681421 -0.00812954 5.96046e-08  -0.00527771 -0.00683812 -0.000645518  -0.00343418 -0.00494436 5.96046e-08  -0.00636378 -0.0077106 -0.000716746  -0.00681733 -0.00807194 -0.00075078  -0.00473133 -0.00624651 0  -0.00343843 -0.00490933 -0.000538588  -0.00473082 -0.00620316 -0.000627041  -0.013222 -0.0132344 -0.00101721  -0.0108908 -0.0112469 -1.78814e-07  -0.0110006 -0.012105 -5.96046e-08  -0.00900328 -0.0109816 -0.000769079  -0.00714737 -0.0088505 2.98023e-07  -0.0108921 -0.0111776 -0.000955045  -0.0110094 -0.0120377 -0.000893593  -0.0089016 -0.00999823 -1.19209e-07  -0.00715721 -0.00879917 -0.000722229  -0.00890711 -0.00993917 -0.000838935  -0.0178517 -0.0179998 -0.00105834  -0.0155477 -0.0155476 2.98023e-07  -0.0151254 -0.0170255 2.38419e-07  -0.0125902 -0.0160455 -0.000800133  -0.0108038 -0.0134467 -2.38419e-07  -0.0155544 -0.0154771 -0.00104964  -0.0151328 -0.0169558 -0.000929058  -0.0130819 -0.0144303 1.19209e-07  -0.0108146 -0.0133885 -0.000793219  -0.0130906 -0.0143665 -0.000921845  -0.022303 -0.0237976 -0.00103074  -0.0200975 -0.0208365 0  -0.0190679 -0.0229515 -2.38419e-07  -0.0160065 -0.022096 -0.000776649  -0.0143154 -0.0190079 1.19209e-07  -0.0201044 -0.0207687 -0.00105059  -0.0190731 -0.0228835 -0.000903666  -0.0171219 -0.0198565 0  -0.0143222 -0.0189472 -0.000792742  -0.017129 -0.0197928 -0.000921547  -0.0265108 -0.0305824 -0.000970304  -0.0244348 -0.0271333 -2.38419e-07  -0.0227928 -0.0298525 1.78814e-07  -0.0192319 -0.029108 -0.000729442  -0.0176409 -0.0255447 4.17233e-07  -0.02444 -0.0270703 -0.00100291  -0.0227931 -0.0297881 -0.000850022  -0.0209586 -0.0262785 1.78814e-07  -0.0176429 -0.0254849 -0.00075525  -0.0209615 -0.026217 -0.000878572  -0.0304592 -0.0382899 -0.000896931  -0.0285165 -0.0343837 2.38419e-07  -0.0262939 -0.0376656 -5.96046e-08  -0.0222719 -0.0370216 -0.000672996  -0.0207772 -0.0330128 -5.96046e-08  -0.0285172 -0.0343258 -0.000934243  -0.0262906 -0.0376042 -0.000786304  -0.0245703 -0.0336442 4.76837e-07  -0.0207739 -0.0329561 -0.000702202  -0.024569 -0.0335867 -0.000818074  -0.0341584 -0.0468478 -0.00082314  -0.0323403 -0.0425211 -2.98023e-07  -0.0295822 -0.0463206 -5.96046e-08  -0.0251374 -0.0457709 -0.00061655  -0.02373 -0.0413493 -1.78814e-07  -0.0323389 -0.0424675 -0.000860095  -0.0295769 -0.0462636 -0.000719488  -0.0279632 -0.0418865 -5.96046e-08  -0.0237252 -0.0412953 -0.000644982  -0.0279595 -0.0418328 -0.000752866  -0.0376236 -0.0561868 -0.000751376  -0.0359232 -0.0514743 1.78814e-07  -0.0326719 -0.0557512 5.96046e-08  -0.0278442 -0.0552899 -0.000562012  -0.0265144 -0.0504874 4.76837e-07  -0.03592 -0.0514241 -0.000785947  -0.0326664 -0.0556985 -0.000655711  -0.0311508 -0.0509375 -1.78814e-07  -0.0265101 -0.0504379 -0.00058943  -0.0311455 -0.050888 -0.000687838  -0.0408722 -0.0662425 -0.000682771  -0.0392786 -0.0611758 -3.57628e-07  -0.0355802 -0.0658917 -5.96046e-08  -0.0304029 -0.0655155 -0.000510693  -0.0291471 -0.060363 -2.38419e-07  -0.0392731 -0.0611304 -0.000716388  -0.0355736 -0.0658429 -0.000596583  -0.0341479 -0.0607309 1.19209e-07  -0.0291407 -0.0603175 -0.000536263  -0.0341423 -0.0606856 -0.000625968  -0.0439188 -0.076953 -0.000618935  -0.0424228 -0.0715624 4.76837e-07  -0.0383177 -0.0766827 0  -0.0328246 -0.0763868 -0.000461817  -0.0316366 -0.0709154 5.96046e-08  -0.0424203 -0.0715208 -0.000650048  -0.038311 -0.0766392 -0.000540137  -0.03697 -0.0712052 1.19209e-07  -0.0316305 -0.0708729 -0.000486434  -0.0369617 -0.0711633 -0.000567913  -0.0467764 -0.0882592 -0.00055927  -0.0453746 -0.0825736 2.98023e-07  -0.0408971 -0.0880659 -2.38419e-07  -0.0351191 -0.0878442 -0.000416338  -0.0339924 -0.0820827 -5.96046e-08  -0.0453709 -0.0825358 -0.000588596  -0.0408911 -0.0880234 -0.000488043  -0.0396265 -0.0822988 3.57628e-07  -0.0339875 -0.0820447 -0.000439525  -0.0396196 -0.082261 -0.000513196  -0.0494545 -0.100103 -0.000501454  -0.0481416 -0.0941507 1.19209e-07  -0.0433258 -0.0999812 5.96046e-08  -0.0372924 -0.0998311 -0.000374556  -0.0362265 -0.0938091 1.78814e-07  -0.048138 -0.0941167 -0.000529706  -0.0433196 -0.0999437 -0.000437856  -0.0421294 -0.093954 -1.19209e-07  -0.0362217 -0.0937742 -0.000395775  -0.0421236 -0.0939195 -0.000462651  -0.0519638 -0.112431 -0.000450015  -0.0507349 -0.10624 -1.19209e-07  -0.0456133 -0.112377 0  -0.0393521 -0.112295 -0.000336349  -0.0383415 -0.106037 3.57628e-07  -0.0507298 -0.10621 -0.000475526  -0.0456066 -0.112343 -0.000392497  -0.0444863 -0.106117 0  -0.0383359 -0.106006 -0.00035423  -0.0444812 -0.106086 -0.000414848  -0.0543133 -0.125193 -0.000398338  -0.0531602 -0.118789 -3.57628e-07  -0.0477651 -0.125202 7.15256e-07  -0.0413024 -0.125184 -0.000297129  -0.040346 -0.118717 3.57628e-07  -0.0531586 -0.118761 -0.000424683  -0.0477604 -0.125171 -0.000348747  -0.046707 -0.118733 -3.57628e-07  -0.040341 -0.118689 -0.000315845  -0.0466996 -0.118706 -0.000369608  -0.0565094 -0.138339 -0.000354409  -0.0554334 -0.131745 6.55651e-07  -0.0497895 -0.138407 -4.17233e-07  -0.043149 -0.138447 -0.00026238  -0.0422426 -0.131795 -1.78814e-07  -0.0554305 -0.13172 -0.000375986  -0.0497849 -0.138378 -0.000307143  -0.0487932 -0.131754 5.96046e-08  -0.042239 -0.131771 -0.000280142  -0.0487878 -0.131729 -0.000327647  -0.0585613 -0.151822 -0.000310123  -0.0575562 -0.145063 -4.17233e-07  -0.0516911 -0.151944 -6.55651e-07  -0.0448964 -0.152039 -0.000230253  -0.0440397 -0.145226 0  -0.0575533 -0.145042 -0.000330508  -0.0516868 -0.151919 -0.000269294  -0.0507548 -0.145132 -6.55651e-07  -0.0440357 -0.145203 -0.000246048  -0.05075 -0.14511 -0.000288844  -0.0604746 -0.165601 -0.000269413  -0.0595386 -0.158697 -7.15256e-07  -0.0534763 -0.165772 1.19209e-07  -0.0465474 -0.165917 -0.000199497  -0.0457373 -0.158964 -3.57628e-07  -0.0595334 -0.158677 -0.000288963  -0.0534725 -0.165749 -0.000234067  -0.0525985 -0.15882 -5.96046e-08  -0.0457337 -0.158944 -0.000214279  -0.0525935 -0.158799 -0.00025171  -0.0622592 -0.179632 -0.000229716  -0.0613859 -0.172604 6.55651e-07  -0.0551522 -0.179851 4.76837e-07  -0.0481095 -0.180039 -0.000171363  -0.047344 -0.172967 5.36442e-07  -0.0613818 -0.172587 -0.000247896  -0.0551476 -0.179829 -0.000200152  -0.054328 -0.172777 6.55651e-07  -0.0473397 -0.172949 -0.000185132  -0.0543232 -0.17276 -0.000216961  -0.063921 -0.193879 -0.000195086  -0.0631063 -0.186745 -5.96046e-08  -0.0567224 -0.194135 -5.36442e-07  -0.0495853 -0.194367 -0.000145912  -0.0488605 -0.187194 0  -0.0631027 -0.186731 -0.000212848  -0.0567191 -0.194118 -0.000171244  -0.0559502 -0.186963 0  -0.0488572 -0.187179 -0.000158191  -0.0559464 -0.186949 -0.000185668  -0.0654674 -0.208301 -0.00016582  -0.0647092 -0.201082 -1.19209e-06  -0.0581954 -0.208595 -5.96046e-07  -0.0509787 -0.208865 -0.000121355  -0.0502939 -0.201609 -2.98023e-07  -0.0647061 -0.201069 -0.000179529  -0.0581923 -0.208579 -0.000142813  -0.0574715 -0.201341 -4.17233e-07  -0.0502911 -0.201596 -0.000132799  -0.0574689 -0.201328 -0.000156224  -0.0669055 -0.222871 -0.000135064  -0.0662014 -0.215581 8.9407e-07  -0.0595763 -0.223198 5.96046e-07  -0.0522959 -0.223499 -9.87649e-05  -0.0516484 -0.216176 4.76837e-07  -0.0661988 -0.21557 -0.000149488  -0.0595732 -0.223182 -0.000116944  -0.0588958 -0.215877 5.96046e-07  -0.0516465 -0.216166 -0.000110745  -0.0588942 -0.215866 -0.0001297  -0.0682459 -0.237556 -0.000109434  -0.0675902 -0.230211 1.19209e-07  -0.0608728 -0.23791 -2.38419e-07  -0.0535426 -0.23824 -8.10623e-05  -0.0529294 -0.230866 4.76837e-07  -0.0675859 -0.230201 -0.000121951  -0.0608697 -0.237897 -9.47118e-05  -0.0602334 -0.230537 1.19209e-07  -0.052928 -0.230857 -9.03606e-05  -0.0602322 -0.230527 -0.000105321  -0.0694938 -0.252325 -8.34465e-05  -0.0688815 -0.244938 9.53674e-07  -0.0620897 -0.252705 4.76837e-07  -0.0547228 -0.25306 -6.34193e-05  -0.0541408 -0.245649 1.78814e-07  -0.0688808 -0.244932 -9.61423e-05  -0.0620871 -0.252693 -7.38502e-05  -0.0614896 -0.245293 5.96046e-07  -0.0541408 -0.245641 -7.18832e-05  -0.0614874 -0.245287 -8.35061e-05  -0.0706625 -0.267158 -6.55055e-05  -0.0700896 -0.259741 2.98023e-07  -0.0632358 -0.267558 -1.19209e-07  -0.0558424 -0.267933 -4.64916e-05  -0.0552886 -0.260497 6.55651e-07  -0.070087 -0.259735 -7.43866e-05  -0.0632341 -0.267547 -5.57303e-05  -0.0626707 -0.26012 6.55651e-07  -0.0552895 -0.26049 -5.40614e-05  -0.0626678 -0.260113 -6.44326e-05  -0.0717561 -0.28203 -4.80413e-05  -0.0712173 -0.274595 2.98023e-07  -0.0643189 -0.282446 -1.19209e-07  -0.0569088 -0.28284 -3.53456e-05  -0.0563819 -0.275389 2.98023e-07  -0.0712171 -0.27459 -5.54919e-05  -0.0643148 -0.282436 -4.17829e-05  -0.0637832 -0.274994 4.76837e-07  -0.0563815 -0.275384 -4.24981e-05  -0.0637825 -0.274989 -4.8697e-05  -0.0727856 -0.29692 -3.36766e-05  -0.0722768 -0.289478 -5.96046e-08  -0.0653434 -0.297352 4.17233e-07  -0.0579247 -0.297758 -2.42591e-05  -0.0574234 -0.290301 3.57628e-07  -0.0722764 -0.289473 -3.95775e-05  -0.0653417 -0.297343 -2.88486e-05  -0.0648363 -0.289892 -3.57628e-07  -0.0574219 -0.290298 -2.8491e-05  -0.0648355 -0.289887 -3.38554e-05  -0.0737607 -0.311815 -2.25306e-05  -0.0732801 -0.304371 -1.78814e-07  -0.0663226 -0.312253 0  -0.0589027 -0.312673 -1.40667e-05  -0.0584197 -0.305219 5.96046e-07  -0.073278 -0.304369 -2.66433e-05  -0.0663218 -0.312248 -1.93715e-05  -0.0658379 -0.304798 6.55651e-07  -0.0584168 -0.305216 -1.91331e-05  -0.0658355 -0.304795 -2.23517e-05  -0.0746939 -0.326698 -1.20401e-05  -0.0742323 -0.319261 5.96046e-08  -0.0672641 -0.327144 6.55651e-07  -0.0598464 -0.32757 -8.88109e-06  -0.0593796 -0.320125 1.01328e-06  -0.0742307 -0.319259 -1.67489e-05  -0.0672631 -0.327138 -1.14441e-05  -0.0667977 -0.319697 5.36442e-07  -0.0593779 -0.320124 -1.21593e-05  -0.0667961 -0.319695 -1.38879e-05  -0.0755975 -0.34156 -5.30481e-06  -0.0751486 -0.334134 3.57628e-07  -0.0681772 -0.342011 1.37091e-06  -0.0607638 -0.342439 -5.00679e-06  -0.0603082 -0.335009 0  -0.0751491 -0.334131 -9.11951e-06  -0.0681763 -0.342003 -4.52995e-06  -0.0677228 -0.334575 2.98023e-07  -0.0603089 -0.335007 -6.25849e-06  -0.0677223 -0.334572 -7.7486e-06  -0.0764828 -0.356398 -2.02656e-06  -0.0760417 -0.348984 9.53674e-07  -0.0690711 -0.356846 -3.57628e-07  -0.0616617 -0.357276 -4.17233e-07  -0.0612125 -0.349864 8.34465e-07  -0.0760422 -0.348982 -3.45707e-06  -0.0690691 -0.356841 -1.72853e-06  -0.0686255 -0.349426 1.78814e-07  -0.0612152 -0.349862 -1.54972e-06  -0.0686245 -0.349424 -2.74181e-06  -0.0773637 -0.371219 1.07288e-06  -0.0769248 -0.363812 1.60933e-06  -0.0699577 -0.371661 6.55651e-07  -0.062552 -0.372086 2.98023e-06  -0.0621092 -0.364686 -1.19209e-07  -0.0769236 -0.363809 4.17233e-07  -0.0699558 -0.371654 2.92063e-06  -0.0695143 -0.36425 4.76837e-07  -0.0621061 -0.364684 1.49012e-06  -0.0695124 -0.364249 1.37091e-06  -0.00133194 -0.00224896 5.96046e-08  0 0 0  -0.000962183 -0.00161502 -0.000262797  -0.000301883 -0.000615954 3.57628e-07  0 0 0  -0.00133322 -0.00222407 -0.000327051  -0.000404269 -0.00099276 -1.19209e-07  0 0 0  -0.000301018 -0.000607938 -0.00014323  -0.000403628 -0.000981793 -0.000177979  -0.00404893 -0.00581786 -5.96046e-08  -0.00300278 -0.00495769 -0.000436902  -0.00188263 -0.00318012 -2.38419e-07  -0.00405645 -0.00577451 -0.000542104  -0.00258718 -0.00392359 -5.96046e-08  -0.00188664 -0.00315423 -0.000362813  -0.00259128 -0.00389405 -0.000450373  -0.00714779 -0.0101367 -1.78814e-07  -0.00547373 -0.009339 -0.000520349  -0.00421184 -0.00707395 1.19209e-07  -0.00715855 -0.0100818 -0.000646114  -0.005595 -0.00786452 5.96046e-08  -0.00422084 -0.00703393 -0.000488222  -0.00560486 -0.00781882 -0.000605583  -0.0101859 -0.0153359 -5.96046e-08  -0.00794137 -0.0146471 -0.000539124  -0.00671241 -0.0119231 4.17233e-07  -0.0101944 -0.0152738 -0.000670731  -0.00868204 -0.0126099 5.96046e-08  -0.00672057 -0.0118727 -0.000535429  -0.00869194 -0.0125556 -0.000665367  -0.0130792 -0.021501 1.19209e-07  -0.0102865 -0.02091 -0.000522375  -0.00912505 -0.0177147 -5.96046e-08  -0.0130821 -0.0214374 -0.000650167  -0.0116528 -0.0182928 -1.19209e-07  -0.0091303 -0.0176595 -0.000532806  -0.0116586 -0.0182356 -0.000663519  -0.0158105 -0.028608 4.76837e-07  -0.0125051 -0.0281022 -0.000487685  -0.0114089 -0.024448 1.78814e-07  -0.0158086 -0.0285459 -0.000608742  -0.0144647 -0.0249336 0  -0.0114112 -0.0243919 -0.000506282  -0.0144653 -0.024876 -0.000630677  -0.0183898 -0.0366041 -5.96046e-07  -0.0146104 -0.0361757 -0.00044924  -0.0135744 -0.0320864 2.98023e-07  -0.0183846 -0.0365443 -0.000561833  -0.0171176 -0.0324927 0  -0.0135709 -0.0320309 -0.000469446  -0.0171145 -0.0324366 -0.000585914  -0.0208312 -0.0454295 5.36442e-07  -0.0166184 -0.0450719 -0.000410974  -0.0156319 -0.0405759 -3.57628e-07  -0.0208241 -0.0453721 -0.000513732  -0.0196261 -0.040911 5.96046e-08  -0.0156255 -0.0405235 -0.000430584  -0.0196208 -0.0408581 -0.000537753  -0.0231488 -0.0550184 -1.78814e-07  -0.0185409 -0.0547298 -0.00037396  -0.0175962 -0.0498578 -1.19209e-07  -0.0231411 -0.0549667 -0.000467837  -0.0220035 -0.0501267 -1.19209e-07  -0.01759 -0.0498081 -0.000392616  -0.0219977 -0.0500769 -0.000490963  -0.0253537 -0.0653127 1.78814e-07  -0.0203862 -0.0650882 -0.000339925  -0.0194788 -0.0598694 -1.19209e-07  -0.0253453 -0.0652631 -0.000424802  -0.0242636 -0.0600748 -1.19209e-07  -0.0194731 -0.0598239 -0.000356555  -0.0242568 -0.0600294 -0.000446141  -0.0274541 -0.076246 2.38419e-07  -0.0221604 -0.0760858 -0.000307441  -0.0212882 -0.0705513 -2.98023e-07  -0.0274465 -0.0762013 -0.000384867  -0.0264161 -0.0706965 5.96046e-08  -0.0212818 -0.0705095 -0.000323176  -0.0264089 -0.0706543 -0.00040406  -0.0294583 -0.0877642 -2.98023e-07  -0.0238696 -0.0876639 -0.000276744  -0.0230302 -0.0818427 -1.78814e-07  -0.0294502 -0.0877238 -0.000346959  -0.0284667 -0.0819301 3.57628e-07  -0.0230237 -0.0818044 -0.000291526  -0.0284595 -0.0818914 -0.000365376  -0.0313705 -0.0998094 2.38419e-07  -0.025516 -0.0997667 -0.000247836  -0.0247082 -0.0936866 -2.98023e-07  -0.0313629 -0.099772 -0.000311196  -0.0304251 -0.0937188 -2.38419e-07  -0.0247 -0.0936523 -0.00026226  -0.030417 -0.093684 -0.000328541  -0.033196 -0.112328 4.17233e-07  -0.0271043 -0.112339 -0.000221848  -0.0263245 -0.106027 -2.38419e-07  -0.0331891 -0.112292 -0.000278234  -0.0322928 -0.106007 5.96046e-08  -0.0263166 -0.105995 -0.0002352  -0.0322862 -0.105975 -0.000294209  -0.0349389 -0.125267 3.57628e-07  -0.0286343 -0.125327 -0.00019598  -0.0278832 -0.118811 3.57628e-07  -0.0349321 -0.125234 -0.000246823  -0.0340768 -0.118741 2.38419e-07  -0.0278754 -0.118783 -0.000208437  -0.0340706 -0.118713 -0.00026226  -0.0366009 -0.138577 -5.96046e-08  -0.0301087 -0.138687 -0.000172436  -0.0293823 -0.131988 1.19209e-07  -0.0365949 -0.138548 -0.000217855  -0.0357789 -0.131872 -2.98023e-07  -0.0293782 -0.131963 -0.000184834  -0.0357726 -0.131847 -0.000232518  -0.0381861 -0.152214 5.96046e-07  -0.0315292 -0.152367 -0.000151753  -0.0308299 -0.14551 1.19209e-07  -0.0381808 -0.152187 -0.000190973  -0.0374024 -0.145351 5.36442e-07  -0.0308261 -0.145487 -0.000162363  -0.0373969 -0.145328 -0.000204325  -0.0396984 -0.166131 5.36442e-07  -0.0328975 -0.166325 -0.000132024  -0.0322256 -0.159332 -1.78814e-07  -0.0396922 -0.166108 -0.000164986  -0.0389504 -0.159134 -3.57628e-07  -0.0322192 -0.159312 -0.000140667  -0.0389454 -0.159114 -0.000178516  -0.0411386 -0.18029 -5.96046e-08  -0.0342159 -0.180519 -0.00011301  -0.033567 -0.173411 5.36442e-07  -0.0411348 -0.180269 -0.000140846  -0.0404255 -0.173177 0  -0.0335634 -0.173394 -0.000121534  -0.0404217 -0.17316 -0.000153065  -0.0425136 -0.19465 3.57628e-07  -0.0354853 -0.194912 -9.38177e-05  -0.0348597 -0.187708 0  -0.04251 -0.194631 -0.000119805  -0.0418341 -0.187441 8.34465e-07  -0.0348554 -0.187692 -0.000104308  -0.0418298 -0.187426 -0.000131428  -0.0438232 -0.209178 -4.76837e-07  -0.0367057 -0.20947 -7.87377e-05  -0.0361028 -0.202185 2.38419e-07  -0.0438185 -0.20916 -0.000100613  -0.0431767 -0.20189 -1.19209e-07  -0.0361016 -0.202173 -8.74996e-05  -0.0431716 -0.201876 -0.000110805  -0.0450704 -0.223839 6.55651e-07  -0.0378802 -0.224156 -6.65188e-05  -0.037298 -0.216809 5.36442e-07  -0.0450664 -0.223823 -8.2612e-05  -0.0444534 -0.216486 0  -0.0372994 -0.216797 -7.21216e-05  -0.0444496 -0.216476 -9.07183e-05  -0.0462627 -0.238601 2.98023e-07  -0.0390127 -0.238943 -5.14388e-05  -0.0384543 -0.231547 5.96046e-08  -0.0462587 -0.238588 -6.68764e-05  -0.0456724 -0.231202 -3.57628e-07  -0.0384514 -0.231538 -5.83529e-05  -0.0456691 -0.231193 -7.43866e-05  -0.0474 -0.253441 -1.19209e-07  -0.0401037 -0.253803 -4.14848e-05  -0.0395639 -0.246374 5.96046e-08  -0.0473979 -0.253429 -5.05447e-05  -0.0468371 -0.246009 9.53674e-07  -0.0395644 -0.246364 -4.71473e-05  -0.0468338 -0.246 -5.88298e-05  -0.0484865 -0.26833 0  -0.0411565 -0.26871 -3.08156e-05  -0.0406353 -0.261257 1.19209e-07  -0.0484843 -0.268321 -4.01735e-05  -0.0479479 -0.260874 3.57628e-07  -0.0406349 -0.26125 -3.39746e-05  -0.0479457 -0.260868 -4.50611e-05  -0.0495307 -0.28325 0  -0.0421743 -0.283643 -2.17557e-05  -0.0416706 -0.276179 5.36442e-07  -0.0495293 -0.283241 -2.95639e-05  -0.0490119 -0.275783 4.76837e-07  -0.0416687 -0.276173 -2.71201e-05  -0.0490117 -0.275777 -3.31998e-05  -0.0505335 -0.29818 -1.19209e-07  -0.043159 -0.298585 -1.54376e-05  -0.042671 -0.291117 4.17233e-07  -0.0505333 -0.298171 -1.97291e-05  -0.0500367 -0.290709 5.96046e-08  -0.0426702 -0.291113 -1.81794e-05  -0.050036 -0.290705 -2.40207e-05  -0.0515053 -0.313103 9.53674e-07  -0.0441184 -0.313515 -9.05991e-06  -0.0436411 -0.306055 -5.96046e-08  -0.0515022 -0.313093 -1.23978e-05  -0.0510221 -0.305637 2.38419e-07  -0.0436432 -0.306051 -1.24574e-05  -0.0510209 -0.305634 -1.62721e-05  -0.0524452 -0.328005 7.15256e-07  -0.045053 -0.328426 -5.48363e-06  -0.04459 -0.320976 8.34465e-07  -0.0524442 -0.327999 -6.61612e-06  -0.0519767 -0.320552 4.76837e-07  -0.044589 -0.320973 -6.85453e-06  -0.051975 -0.320549 -9.35793e-06  -0.0533631 -0.34288 2.98023e-07  -0.0459678 -0.343304 -1.37091e-06  -0.0455127 -0.335871 -1.19209e-07  -0.0533605 -0.342873 -3.8147e-06  -0.0529051 -0.33544 5.96046e-08  -0.0455132 -0.335868 -3.99351e-06  -0.0529051 -0.335438 -4.94719e-06  -0.054261 -0.357718 8.34465e-07  -0.0468664 -0.358145 3.57628e-07  -0.0464172 -0.35073 7.15256e-07  -0.0542603 -0.357712 2.38419e-07  -0.0538137 -0.350298 2.38419e-07  -0.0464182 -0.350728 -1.78814e-07  -0.0538123 -0.350295 -1.43051e-06  -0.0551527 -0.372524 1.19209e-07  -0.0477564 -0.372946 3.69549e-06  -0.047312 -0.365551 4.17233e-07  -0.0551503 -0.372516 3.15905e-06  -0.0547061 -0.365119 5.96046e-08  -0.0473137 -0.365549 1.19209e-06  -0.0547061 -0.365118 1.2517e-06  -0.000665694 -0.00123054 2.98023e-07  0 0 0  -0.00041426 -0.0009543 -0.00013262  -0.000129238 -0.000212222 5.96046e-08  0 0 0  -0.000666775 -0.0012103 -0.000198066  -0.000203777 -0.000366122 0  0 0 0  -0.000128608 -0.000207096 -7.22408e-05  -0.000202924 -0.000360161 -0.000108123  -0.00212689 -0.00440288 1.19209e-07  -0.00134003 -0.00398463 -0.000221193  -0.000825182 -0.00231504 0  -0.00213248 -0.00436929 -0.000329912  -0.00132191 -0.00265527 -2.98023e-07  -0.00082688 -0.002296 -0.000183642  -0.00132547 -0.00263336 -0.000273764  -0.00394514 -0.00881827 5.96046e-08  -0.00252593 -0.00839004 -0.000263631  -0.00191081 -0.00608987 1.19209e-07  -0.00395286 -0.00877175 -0.000393271  -0.0030162 -0.00648275 5.96046e-08  -0.00191551 -0.00605652 -0.000247955  -0.00302354 -0.00644684 -0.000368595  -0.00580615 -0.0142276 -1.78814e-07  -0.00377202 -0.013851 -0.000273108  -0.00314549 -0.0110447 -5.96046e-08  -0.0058113 -0.0141707 -0.000406921  -0.00488171 -0.0113986 1.19209e-07  -0.00314897 -0.0110002 -0.000271261  -0.00488827 -0.0113515 -0.00040406  -0.00759566 -0.0205765 0  -0.00498992 -0.0202626 -0.00026381  -0.0043841 -0.0169915 -1.19209e-07  -0.00759679 -0.0205172 -0.000393271  -0.00671154 -0.0172797 1.78814e-07  -0.00438547 -0.0169397 -0.000269771  -0.006715 -0.017226 -0.000402033  -0.00930154 -0.0278417 -1.19209e-07  -0.00616938 -0.0275829 -0.00024575  -0.00558507 -0.0238645 -1.19209e-07  -0.0092991 -0.027781 -0.000367165  -0.00845826 -0.0240907 2.98023e-07  -0.00558376 -0.0238099 -0.000255048  -0.00845796 -0.0240355 -0.000381052  -0.0109347 -0.0359755 1.19209e-07  -0.00732088 -0.0357692 -0.000225961  -0.00675094 -0.0316236 -5.96046e-08  -0.0109296 -0.0359165 -0.00033766  -0.0101258 -0.031796 2.38419e-07  -0.00674808 -0.0315693 -0.000235736  -0.010122 -0.0317413 -0.00035274  -0.0125084 -0.044926 1.78814e-07  -0.00845432 -0.0447706 -0.00020647  -0.00789404 -0.0402225 2.98023e-07  -0.0125021 -0.0448703 -0.000308096  -0.011728 -0.0403457 5.96046e-08  -0.00788915 -0.0401699 -0.000215292  -0.0117226 -0.0402934 -0.000323236  -0.0140331 -0.0546357 0  -0.00957716 -0.0545284 -0.000185609  -0.00902319 -0.049606 -2.38419e-07  -0.0140262 -0.0545836 -0.000279844  -0.0132766 -0.0496835 0  -0.00901675 -0.0495572 -0.000195622  -0.0132699 -0.0496343 -0.000294387  -0.0155152 -0.0650424 4.17233e-07  -0.0106934 -0.0649834 -0.000168145  -0.0101422 -0.059717 2.98023e-07  -0.0155081 -0.0649941 -0.00025326  -0.0147793 -0.0597498 -1.78814e-07  -0.0101361 -0.0596714 -0.000176549  -0.0147719 -0.059704 -0.000267088  -0.0169603 -0.0760887 -5.96046e-08  -0.0118048 -0.0760747 -0.000152111  -0.0112549 -0.0704937 -5.96046e-08  -0.0169533 -0.0760432 -0.000228643  -0.0162425 -0.0704829 0  -0.0112494 -0.0704519 -0.000159502  -0.0162348 -0.0704416 -0.000241399  -0.0183692 -0.0877119 -7.15256e-07  -0.012913 -0.0877431 -0.000136316  -0.0123624 -0.0818779 1.78814e-07  -0.0183625 -0.0876699 -0.00020659  -0.0176698 -0.0818244 3.57628e-07  -0.0123593 -0.0818396 -0.00014323  -0.0176622 -0.0817864 -0.000217378  -0.0197465 -0.099857 -2.38419e-07  -0.0140163 -0.0999317 -0.000121355  -0.0134685 -0.09381 -5.96046e-08  -0.0197392 -0.0998183 -0.000185013  -0.0190613 -0.0937167 1.78814e-07  -0.0134656 -0.0937743 -0.000128031  -0.0190548 -0.0936811 -0.000195384  -0.0210905 -0.11247 1.78814e-07  -0.0151159 -0.112586 -0.000108659  -0.0145724 -0.106234 -1.19209e-07  -0.021085 -0.112435 -0.000164747  -0.020422 -0.106102 -1.19209e-07  -0.0145662 -0.106202 -0.000114918  -0.0204154 -0.106071 -0.000174582  -0.0224036 -0.125498 5.96046e-08  -0.0162106 -0.125651 -9.55462e-05  -0.0156678 -0.119096 1.78814e-07  -0.0223985 -0.125466 -0.000146687  -0.0217507 -0.118929 -1.19209e-07  -0.0156637 -0.119069 -0.000101864  -0.0217456 -0.1189 -0.000155807  -0.023687 -0.138892 3.57628e-07  -0.0172976 -0.139082 -8.30889e-05  -0.0167572 -0.132349 5.36442e-07  -0.0236814 -0.138863 -0.000129282  -0.0230492 -0.132146 5.96046e-08  -0.0167553 -0.132323 -8.9705e-05  -0.0230434 -0.13212 -0.000138044  -0.0249386 -0.152604 -2.38419e-07  -0.0183775 -0.152827 -7.18832e-05  -0.0178418 -0.145939 -4.76837e-07  -0.0249324 -0.152578 -0.000112891  -0.0243168 -0.145705 -1.78814e-07  -0.0178382 -0.145916 -7.83205e-05  -0.0243104 -0.145683 -0.00012064  -0.0261576 -0.166594 6.55651e-07  -0.0194483 -0.166846 -6.30021e-05  -0.0189154 -0.159823 5.96046e-07  -0.0261528 -0.16657 -9.70364e-05  -0.0255508 -0.159561 0  -0.0189137 -0.159804 -6.84857e-05  -0.0255468 -0.159541 -0.000103593  -0.0273473 -0.180815 -5.96046e-08  -0.0205059 -0.181096 -5.42402e-05  -0.0199807 -0.173961 0  -0.0273435 -0.180794 -8.33869e-05  -0.026756 -0.173671 5.96046e-08  -0.0199773 -0.173944 -5.79953e-05  -0.0267529 -0.173654 -9.01818e-05  -0.0285068 -0.195233 1.78814e-07  -0.0215516 -0.195539 -4.44651e-05  -0.0210319 -0.18831 1.78814e-07  -0.028502 -0.195215 -7.1764e-05  -0.027931 -0.187996 2.38419e-07  -0.0210297 -0.188295 -4.96507e-05  -0.0279274 -0.187981 -7.65324e-05  -0.029634 -0.209814 3.57628e-07  -0.0225842 -0.21014 -3.8147e-05  -0.0220721 -0.202836 2.98023e-07  -0.0296307 -0.209796 -5.76973e-05  -0.0290747 -0.2025 -4.76837e-07  -0.0220704 -0.202821 -4.17233e-05  -0.0290701 -0.202487 -6.45518e-05  -0.0307314 -0.224518 4.76837e-07  -0.0236022 -0.224866 -2.90275e-05  -0.0230978 -0.217499 8.34465e-07  -0.0307288 -0.224504 -4.86374e-05  -0.0301859 -0.217146 5.36442e-07  -0.0230963 -0.217488 -3.35574e-05  -0.0301828 -0.217134 -5.26905e-05  -0.0318005 -0.239323 -5.36442e-07  -0.0246053 -0.239687 -2.41399e-05  -0.0241082 -0.232274 2.38419e-07  -0.0317976 -0.239309 -3.89218e-05  -0.0312686 -0.231904 3.57628e-07  -0.0241063 -0.232265 -2.72989e-05  -0.0312662 -0.231894 -4.3273e-05  -0.03284 -0.254196 1.78814e-07  -0.0255928 -0.254575 -1.93715e-05  -0.0251019 -0.247131 -4.17233e-07  -0.0328381 -0.254183 -2.96831e-05  -0.0323238 -0.246745 1.78814e-07  -0.0251005 -0.247123 -2.19941e-05  -0.0323195 -0.246739 -3.38554e-05  -0.0338535 -0.269116 4.17233e-07  -0.0265648 -0.269507 -1.3113e-05  -0.0260808 -0.262042 -2.38419e-07  -0.0338509 -0.269104 -2.16365e-05  -0.033349 -0.261645 1.13249e-06  -0.0260804 -0.262036 -1.5378e-05  -0.0333462 -0.261639 -2.6226e-05  -0.034842 -0.284059 0  -0.0275207 -0.284461 -9.35793e-06  -0.0270445 -0.276985 2.98023e-07  -0.0348394 -0.284049 -1.60336e-05  -0.0343499 -0.276579 7.15256e-07  -0.0270438 -0.276981 -1.13249e-05  -0.0343485 -0.276574 -1.93715e-05  -0.0358071 -0.299008 5.96046e-08  -0.0284622 -0.299417 -6.55651e-06  -0.0279932 -0.291942 6.55651e-07  -0.0358052 -0.298999 -1.055e-05  -0.035326 -0.291527 -5.96046e-08  -0.0279927 -0.291938 -7.62939e-06  -0.0353255 -0.291524 -1.37091e-05  -0.0367515 -0.313946 0  -0.0293889 -0.314362 -2.98023e-06  -0.0289276 -0.306895 3.57628e-07  -0.0367486 -0.313938 -7.03335e-06  -0.0362804 -0.306472 3.57628e-07  -0.0289278 -0.306891 -5.84126e-06  -0.0362785 -0.30647 -8.16584e-06  -0.0376761 -0.32886 -1.19209e-07  -0.0303044 -0.329281 -2.74181e-06  -0.0298462 -0.321828 2.38419e-07  -0.0376742 -0.328853 -3.45707e-06  -0.0372155 -0.321401 4.17233e-07  -0.0298483 -0.321825 -2.44379e-06  -0.0372136 -0.321398 -4.76837e-06  -0.038584 -0.343742 -1.78814e-07  -0.0312057 -0.344168 -1.60933e-06  -0.0307555 -0.336731 -3.57628e-07  -0.0385833 -0.343736 -2.08616e-06  -0.0381324 -0.336301 2.38419e-07  -0.0307574 -0.336728 -1.72853e-06  -0.0381298 -0.336297 -1.72853e-06  -0.039479 -0.358585 1.84774e-06  -0.0320952 -0.359011 1.07288e-06  -0.0316505 -0.351596 4.76837e-07  -0.0394783 -0.358578 1.78814e-06  -0.0390317 -0.351162 -2.98023e-07  -0.0316505 -0.351593 1.37091e-06  -0.039032 -0.35116 -5.96046e-08  -0.0403688 -0.37338 0  -0.0329823 -0.373803 6.55651e-07  -0.0325389 -0.366415 5.96046e-07  -0.0403666 -0.373373 3.8147e-06  -0.0399232 -0.365983 2.98023e-07  -0.0325398 -0.366412 1.01328e-06  -0.0399222 -0.36598 1.78814e-06  -0.000184774 -0.000837892 1.19209e-07  0 0 0  3.24398e-05 -0.000797361 7.7486e-07  8.99285e-06 -0.000117213 1.19209e-07  0 0 0  -0.00018502 -0.00082168 -6.61016e-05  -5.57527e-05 -0.000131786 1.19209e-07  0 0 0  1.03265e-05 -0.000113398 9.53674e-07  -5.63562e-05 -0.000127703 -3.53456e-05  -0.000610679 -0.00381207 -1.19209e-07  9.12249e-05 -0.00374928 -7.15256e-07  6.07669e-05 -0.00210449 -1.19209e-07  -0.000611886 -0.00378242 -0.000111461  -0.00037308 -0.00213593 0  6.09159e-05 -0.00208747 7.15256e-07  -0.000373974 -0.00211892 -9.17315e-05  -0.0011785 -0.00823188 1.19209e-07  0.000133991 -0.00816813 -1.3113e-06  0.00011611 -0.00585234 0  -0.00118047 -0.00819039 -0.000133276  -0.00088343 -0.00588202 0  0.000116318 -0.00582168 -1.19209e-06  -0.000885308 -0.00585064 -0.000124574  -0.0018031 -0.0137424 5.96046e-08  0.000132143 -0.0136915 -2.86102e-06  0.000138253 -0.0108503 -5.96046e-08  -0.0018037 -0.01369 -0.000138104  -0.00148737 -0.0108616 1.19209e-07  0.000139385 -0.0108077 -2.68221e-06  -0.00148863 -0.0108185 -0.000137448  -0.00244457 -0.0202062 -2.38419e-07  7.28369e-05 -0.0201754 -2.80142e-06  0.000107169 -0.0168667 1.19209e-07  -0.00244278 -0.0201482 -0.000133395  -0.00212222 -0.0168534 -1.19209e-07  0.000110209 -0.0168171 -3.39746e-06  -0.0021221 -0.0168026 -0.000136733  -0.00309747 -0.0275691 0  -4.81606e-05 -0.0275635 -2.5034e-06  1.72853e-05 -0.0238103 2.98023e-07  -0.00309402 -0.0275098 -0.000123918  -0.00276828 -0.0237706 1.19209e-07  2.03252e-05 -0.0237573 -2.74181e-06  -0.00276667 -0.0237165 -0.000129282  -0.00376707 -0.0357929 1.78814e-07  -0.000233233 -0.0358146 -8.9407e-07  -0.000135243 -0.0316358 0  -0.00376332 -0.0357348 -0.000113189  -0.00342876 -0.0315701 5.96046e-08  -0.000133276 -0.0315823 -1.72853e-06  -0.00342536 -0.0315161 -0.000118732  -0.00446063 -0.0448282 0  -0.00048542 -0.0448786 8.9407e-07  -0.000354052 -0.0402985 1.78814e-07  -0.00445604 -0.0447733 -0.000102758  -0.00411046 -0.0402062 -5.96046e-08  -0.00035131 -0.0402467 -4.76837e-07  -0.00410604 -0.0401544 -0.000107825  -0.00518024 -0.0546189 2.98023e-07  -0.000801206 -0.0547004 2.26498e-06  -0.000638366 -0.0497453 1.78814e-07  -0.00517559 -0.0545671 -9.27448e-05  -0.00481701 -0.0496264 -1.78814e-07  -0.000636101 -0.0496971 1.43051e-06  -0.00481236 -0.049578 -9.7096e-05  -0.00592899 -0.0651072 2.98023e-07  -0.00118053 -0.065218 3.39746e-06  -0.000985503 -0.0599196 1.19209e-07  -0.00592351 -0.0650578 -8.30293e-05  -0.00555074 -0.0597731 1.19209e-07  -0.000982523 -0.0598739 2.26498e-06  -0.00554585 -0.0597275 -8.72016e-05  -0.00670505 -0.0762291 2.98023e-07  -0.00162005 -0.076371 3.51667e-06  -0.00139534 -0.0707592 -1.78814e-07  -0.00670016 -0.0761829 -7.32541e-05  -0.00631237 -0.0705856 -5.96046e-08  -0.00139225 -0.0707171 3.63588e-06  -0.00630784 -0.0705433 -7.80821e-05  -0.00750864 -0.0879286 -1.78814e-07  -0.00211823 -0.0880996 4.41074e-06  -0.00186503 -0.0822043 -5.96046e-08  -0.00750351 -0.0878864 -6.53267e-05  -0.00710285 -0.0820035 -1.19209e-07  -0.00186241 -0.0821659 4.41074e-06  -0.0070982 -0.0819654 -6.95586e-05  -0.00833786 -0.100145 -5.96046e-08  -0.00267148 -0.100346 4.94719e-06  -0.00239098 -0.0941952 0  -0.00833261 -0.100107 -5.81145e-05  -0.00791907 -0.0939684 6.55651e-07  -0.00238848 -0.0941603 4.76837e-06  -0.00791502 -0.0939336 -6.16312e-05  -0.00918972 -0.112826 2.38419e-07  -0.00327468 -0.113055 5.48363e-06  -0.00296879 -0.106677 6.55651e-07  -0.00918448 -0.112791 -5.08428e-05  -0.0087589 -0.106426 -1.78814e-07  -0.00296652 -0.106645 5.48363e-06  -0.00875592 -0.106393 -5.50151e-05  -0.0100614 -0.125917 -1.19209e-07  -0.00392389 -0.126173 5.30481e-06  -0.00359607 -0.119593 -5.36442e-07  -0.0100573 -0.125887 -4.47035e-05  -0.00962281 -0.119318 3.57628e-07  -0.00359428 -0.119564 5.78165e-06  -0.00961864 -0.119289 -4.82798e-05  -0.0109508 -0.139373 5.96046e-08  -0.00461507 -0.139651 6.02007e-06  -0.0042665 -0.132894 1.78814e-07  -0.0109472 -0.139343 -3.97563e-05  -0.0105029 -0.132598 -1.78814e-07  -0.00426435 -0.132869 5.36442e-06  -0.0105001 -0.132571 -4.17233e-05  -0.0118561 -0.153141 -4.76837e-07  -0.00534439 -0.153441 5.66244e-06  -0.00497794 -0.146531 5.96046e-08  -0.0118523 -0.153114 -3.34978e-05  -0.0114005 -0.146214 2.98023e-07  -0.00497532 -0.146508 6.19888e-06  -0.0113976 -0.146191 -3.65376e-05  -0.0127714 -0.167179 4.17233e-07  -0.00610638 -0.1675 6.02007e-06  -0.00572276 -0.160458 5.96046e-08  -0.012769 -0.167156 -2.84314e-05  -0.0123122 -0.160122 -4.17233e-07  -0.00572062 -0.16044 5.72205e-06  -0.0123088 -0.160102 -3.17693e-05  -0.0136979 -0.181448 8.34465e-07  -0.00689697 -0.181788 5.60284e-06  -0.0064981 -0.174636 0  -0.0136938 -0.181428 -2.43187e-05  -0.0132329 -0.174282 1.78814e-07  -0.00649786 -0.174617 5.24521e-06  -0.0132313 -0.174264 -2.62856e-05  -0.0146289 -0.195908 -1.19209e-07  -0.0077126 -0.196264 4.76837e-06  -0.00730205 -0.189019 6.55651e-07  -0.0146253 -0.195889 -2.00868e-05  -0.0141623 -0.18865 3.57628e-07  -0.00730181 -0.189003 5.54323e-06  -0.0141597 -0.188635 -2.18749e-05  -0.0155628 -0.210524 3.57628e-07  -0.00854874 -0.210894 4.58956e-06  -0.00812888 -0.203574 0  -0.0155602 -0.210507 -1.62721e-05  -0.0150936 -0.203192 1.19209e-07  -0.00812864 -0.20356 4.76837e-06  -0.0150938 -0.203178 -1.7941e-05  -0.0164988 -0.225262 7.7486e-07  -0.00940037 -0.225644 4.47035e-06  -0.00897455 -0.218266 0  -0.0164971 -0.225245 -1.4782e-05  -0.0160284 -0.217873 3.57628e-07  -0.00897288 -0.218255 4.94719e-06  -0.0160282 -0.217861 -1.4782e-05  -0.0174344 -0.240092 -1.19209e-07  -0.0102673 -0.240486 4.35114e-06  -0.00983381 -0.233064 1.49012e-06  -0.0174325 -0.240079 -9.65595e-06  -0.0169654 -0.23266 4.76837e-07  -0.00983238 -0.233055 5.42402e-06  -0.0169652 -0.232651 -1.15633e-05  -0.0183668 -0.254989 7.7486e-07  -0.0111432 -0.255392 4.64916e-06  -0.0107017 -0.24794 -3.57628e-07  -0.018363 -0.254978 -6.73532e-06  -0.0178995 -0.247528 0  -0.0107052 -0.247931 2.26498e-06  -0.0178986 -0.24752 -8.46386e-06  -0.0192933 -0.269929 -1.78814e-07  -0.0120251 -0.270339 2.74181e-06  -0.0115829 -0.262867 5.96046e-08  -0.0192916 -0.269917 -5.90086e-06  -0.0188289 -0.262449 -5.96046e-08  -0.0115829 -0.262861 3.8147e-06  -0.0188293 -0.262442 -6.67572e-06  -0.0202157 -0.284887 -2.98023e-07  -0.0129118 -0.285304 3.93391e-06  -0.0124683 -0.277824 5.36442e-07  -0.0202131 -0.284878 -3.75509e-06  -0.0197537 -0.2774 0  -0.0124671 -0.277819 3.21865e-06  -0.0197535 -0.277395 -4.70877e-06  -0.0211308 -0.299851 6.55651e-07  -0.0138016 -0.300271 3.15905e-06  -0.0133557 -0.292793 2.98023e-07  -0.0211291 -0.299841 -1.19209e-06  -0.020673 -0.292364 5.36442e-07  -0.0133567 -0.292787 2.563e-06  -0.0206726 -0.292359 -2.92063e-06  -0.022038 -0.314797 5.96046e-07  -0.0146916 -0.315223 2.26498e-06  -0.0142467 -0.307751 4.17233e-07  -0.0220377 -0.314791 3.57628e-07  -0.0215831 -0.307321 -5.96046e-08  -0.0142455 -0.307748 2.44379e-06  -0.0215838 -0.307316 -1.43051e-06  -0.0229394 -0.329721 1.78814e-07  -0.0155783 -0.330148 3.09944e-06  -0.0151343 -0.32269 1.78814e-07  -0.0229387 -0.329713 2.38419e-07  -0.0224898 -0.322256 1.78814e-07  -0.0151353 -0.322688 1.78814e-06  -0.0224886 -0.322254 -8.34465e-07  -0.0238335 -0.344609 1.19209e-06  -0.0164633 -0.345036 8.9407e-07  -0.0160174 -0.337599 7.15256e-07  -0.0238323 -0.344601 1.78814e-07  -0.0233872 -0.337164 4.17233e-07  -0.0160215 -0.337596 9.53674e-07  -0.0233862 -0.337161 1.78814e-07  -0.0247219 -0.359451 5.96046e-07  -0.0173457 -0.359881 9.53674e-07  -0.0169053 -0.352464 2.38419e-07  -0.02472 -0.359445 1.19209e-06  -0.0242777 -0.352029 3.57628e-07  -0.0169046 -0.352463 1.43051e-06  -0.0242774 -0.352028 1.01328e-06  -0.0256026 -0.374241 5.36442e-07  -0.0182226 -0.374671 -5.96046e-08  -0.0177855 -0.367284 0  -0.0256019 -0.374236 1.19209e-07  -0.0251625 -0.366849 7.7486e-07  -0.0177841 -0.367281 -7.15256e-07  -0.0251606 -0.366845 1.2517e-06  0.000249729 -0.00089246 -5.96046e-08  0 0 0  0.000479192 -0.00106454 0.000132978  0.000148959 -0.000274956 -2.38419e-07  0 0 0  0.000250518 -0.000876904 6.71148e-05  7.6443e-05 -0.000163078 2.38419e-07  0 0 0  0.00014881 -0.00026989 7.31945e-05  7.62716e-05 -0.000159144 3.74913e-05  0.00079304 -0.00390917 5.96046e-08  0.00152135 -0.00417894 0.000220001  0.000945657 -0.00247055 0  0.000796109 -0.0038808 0.000110567  0.000495285 -0.00221467 -1.78814e-07  0.000949383 -0.00245249 0.000182509  0.000497147 -0.00219738 9.23276e-05  0.00144276 -0.00836271 -1.19209e-07  0.00278735 -0.00865036 0.000258505  0.00213742 -0.00631648 -1.78814e-07  0.00144738 -0.00832069 0.000128746  0.0011144 -0.00599694 1.19209e-07  0.00214508 -0.00628412 0.000242889  0.00111899 -0.00596565 0.00012213  0.00205904 -0.0139043 0  0.00402057 -0.014173 0.000263512  0.00341016 -0.011334 -2.38419e-07  0.00206381 -0.0138526 0.000131309  0.00176096 -0.011008 -1.78814e-07  0.00341728 -0.0112904 0.000263214  0.00176579 -0.0109658 0.000131309  0.00257832 -0.0204011 2.38419e-07  0.00511336 -0.0206516 0.000254869  0.00458091 -0.0173452 -5.96046e-08  0.00258285 -0.020344 0.000126719  0.00233245 -0.0170311 -1.19209e-07  0.00458735 -0.0172948 0.00026083  0.0023371 -0.0169814 0.000129223  0.00298607 -0.027801 -5.96046e-08  0.00604528 -0.0280467 0.000239015  0.00559479 -0.0242889 2.38419e-07  0.00299007 -0.0277429 0.000119448  0.00279665 -0.0239838 2.38419e-07  0.00559962 -0.0242359 0.000248134  0.00280017 -0.0239305 0.000122905  0.00328344 -0.036065 2.98023e-07  0.00682253 -0.0363141 0.000222445  0.00645107 -0.0321263 -5.96046e-08  0.00328666 -0.0360086 0.000111878  0.00314873 -0.0318214 -2.38419e-07  0.00645244 -0.032073 0.000231683  0.00315261 -0.0317684 0.000115097  0.00347376 -0.0451434 -2.98023e-07  0.00745094 -0.0454023 0.000205696  0.00715274 -0.0408096 0  0.00347662 -0.0450892 0.000103354  0.00339156 -0.0404993 5.96046e-08  0.00715536 -0.040758 0.000214279  0.00339502 -0.0404481 0.000107169  0.00356114 -0.0549796 -1.78814e-07  0.00794172 -0.0552512 0.000188887  0.00771141 -0.050283 -1.19209e-07  0.00356483 -0.0549274 9.57251e-05  0.00353098 -0.0499647 5.96046e-08  0.00771415 -0.0502342 0.000197887  0.00353348 -0.0499155 9.95398e-05  0.00355172 -0.0655133 1.19209e-07  0.00829947 -0.0657994 0.000174463  0.00813532 -0.0604858 -5.96046e-08  0.00355446 -0.0654655 8.79169e-05  0.00356877 -0.0601573 -2.98023e-07  0.00813627 -0.0604404 0.000181377  0.00357223 -0.0601116 9.23276e-05  0.00344825 -0.0766826 6.55651e-07  0.00853133 -0.0769837 0.000159562  0.00842965 -0.0713566 2.38419e-07  0.00345111 -0.0766366 8.18968e-05  0.00351119 -0.0710156 1.19209e-07  0.00843012 -0.0713149 0.000166595  0.00351417 -0.0709742 8.49962e-05  0.00325501 -0.0884273 -2.98023e-07  0.00864422 -0.0887445 0.00014466  0.00860298 -0.0828333 3.57628e-07  0.00325811 -0.0883853 7.52807e-05  0.00336277 -0.0824797 1.78814e-07  0.00860238 -0.0827942 0.000151753  0.00336516 -0.0824417 7.80225e-05  0.00297952 -0.100688 -3.57628e-07  0.00864458 -0.101022 0.000131965  0.00865793 -0.0948558 -5.96046e-07  0.0029819 -0.100652 6.72936e-05  0.00312781 -0.0944905 -2.98023e-07  0.00865769 -0.0948209 0.000137806  0.00313008 -0.0944561 7.12872e-05  0.00262594 -0.113411 4.17233e-07  0.00854003 -0.11376 0.000118852  0.00860441 -0.107366 -1.19209e-07  0.00262868 -0.113377 6.19292e-05  0.0028125 -0.10699 -5.96046e-08  0.0086056 -0.107335 0.000124633  0.00281477 -0.106958 6.56247e-05  0.00220037 -0.126544 1.19209e-07  0.00833762 -0.126905 0.000106514  0.00845134 -0.120312 8.9407e-07  0.00220287 -0.126512 5.55515e-05  0.00242257 -0.119924 2.98023e-07  0.00845027 -0.120283 0.00011307  0.0024246 -0.119895 5.96046e-05  0.00170827 -0.140036 7.7486e-07  0.00804472 -0.140409 9.52482e-05  0.00820065 -0.13364 5.96046e-08  0.00170994 -0.140005 5.04851e-05  0.00196159 -0.133242 0  0.00820208 -0.133614 0.000100732  0.00196397 -0.133216 5.40614e-05  0.00115633 -0.153837 1.78814e-07  0.00766802 -0.154222 8.49366e-05  0.00786448 -0.147301 2.38419e-07  0.00115824 -0.153811 4.5836e-05  0.00143981 -0.146893 -2.98023e-07  0.00786638 -0.147279 8.96454e-05  0.00144076 -0.146871 4.73857e-05  0.000550032 -0.167908 2.38419e-07  0.00721598 -0.168302 7.4327e-05  0.00745201 -0.161251 0  0.00055027 -0.167883 3.94583e-05  0.000860453 -0.160834 1.01328e-06  0.00745106 -0.161231 7.93338e-05  0.000860929 -0.160814 4.24385e-05  -0.000105858 -0.182203 2.38419e-07  0.00669479 -0.182607 6.39558e-05  0.00696349 -0.175446 -5.36442e-07  -0.000104666 -0.182181 3.41535e-05  0.00022769 -0.175023 -4.17233e-07  0.00696397 -0.175429 6.8903e-05  0.000228643 -0.175005 3.70741e-05  -0.000804901 -0.196686 5.96046e-08  0.00611305 -0.197099 5.68628e-05  0.00640845 -0.189846 3.57628e-07  -0.000803947 -0.196666 3.016e-05  -0.000449419 -0.189417 3.57628e-07  0.00641179 -0.18983 6.01411e-05  -0.000448942 -0.189401 3.24249e-05  -0.00154161 -0.211322 -3.57628e-07  0.00547576 -0.211741 4.73261e-05  0.00579906 -0.204414 0  -0.00154042 -0.211304 2.65837e-05  -0.00116849 -0.20398 1.78814e-07  0.00580096 -0.204401 5.14984e-05  -0.00116706 -0.203967 2.80142e-05  -0.00231051 -0.226079 -4.76837e-07  0.00479102 -0.226502 3.85642e-05  0.00514007 -0.21912 1.19209e-07  -0.00230885 -0.226062 2.19345e-05  -0.00192118 -0.218681 7.7486e-07  0.0051384 -0.219107 4.23789e-05  -0.00192022 -0.21867 2.31266e-05  -0.00310659 -0.240924 -1.78814e-07  0.00406241 -0.241352 3.29018e-05  0.00443172 -0.233926 1.19209e-06  -0.00310469 -0.24091 1.8239e-05  -0.00270438 -0.233486 1.78814e-07  0.00443149 -0.233916 3.68953e-05  -0.00270438 -0.233476 1.99676e-05  -0.00392413 -0.255833 5.96046e-08  0.003299 -0.256264 2.46763e-05  0.00368547 -0.248808 -8.34465e-07  -0.00392413 -0.255821 1.49608e-05  -0.00351286 -0.248366 5.96046e-08  0.00368404 -0.2488 2.85506e-05  -0.00351143 -0.248358 1.63913e-05  -0.0047605 -0.270783 -6.55651e-07  0.00250769 -0.271214 1.99676e-05  0.00290775 -0.263741 2.38419e-07  -0.00476098 -0.27077 1.2517e-05  -0.00434113 -0.263297 2.38419e-07  0.00290608 -0.263735 2.46167e-05  -0.00434065 -0.263292 1.39475e-05  -0.005615 -0.285751 5.36442e-07  0.00169039 -0.286183 1.67489e-05  0.00210357 -0.278703 7.15256e-07  -0.00561261 -0.285739 8.88109e-06  -0.00518703 -0.278258 4.76837e-07  0.00210238 -0.278696 1.80006e-05  -0.0051856 -0.278253 1.03712e-05  -0.00647426 -0.300716 5.96046e-07  0.000855446 -0.30115 1.35303e-05  0.00127602 -0.293671 -5.96046e-08  -0.00647402 -0.300707 7.7486e-06  -0.00604296 -0.293227 5.96046e-08  0.00127578 -0.293667 1.34706e-05  -0.0060432 -0.293223 8.76188e-06  -0.00734448 -0.315668 -5.96046e-08  5.72205e-06 -0.316103 6.79493e-06  0.000434875 -0.308632 5.36442e-07  -0.00734401 -0.31566 6.31809e-06  -0.00690746 -0.30819 9.53674e-07  0.000431776 -0.308628 1.0252e-05  -0.00690866 -0.308185 5.60284e-06  -0.00821757 -0.330593 9.53674e-07  -0.000855923 -0.331028 4.52995e-06  -0.000423908 -0.323572 2.98023e-07  -0.00821829 -0.330586 2.20537e-06  -0.00777888 -0.32313 -1.78814e-07  -0.000423908 -0.323568 6.07967e-06  -0.00778127 -0.323126 4.17233e-06  -0.00909448 -0.345482 3.57628e-07  -0.001724 -0.345915 2.38419e-06  -0.00128865 -0.338478 3.57628e-07  -0.009094 -0.345474 1.37091e-06  -0.00865626 -0.338037 -1.78814e-07  -0.00128889 -0.338475 4.29153e-06  -0.00865507 -0.338034 2.80142e-06  -0.00997138 -0.360326 8.9407e-07  -0.00259638 -0.360758 8.9407e-07  -0.00215936 -0.353343 0  -0.00997162 -0.360319 6.55651e-07  -0.00953221 -0.352902 1.2517e-06  -0.0021596 -0.353341 2.14577e-06  -0.00953364 -0.352901 1.49012e-06  -0.0108442 -0.375116 4.17233e-07  -0.00346565 -0.375551 -2.20537e-06  -0.00303102 -0.368162 7.15256e-07  -0.0108457 -0.375109 1.78814e-07  -0.0104094 -0.367721 5.36442e-07  -0.00302958 -0.368161 -1.13249e-06  -0.0104084 -0.36772 -2.98023e-07  0.000732973 -0.00139606 -1.19209e-07  0 0 0  0.00103 -0.00183535 0.000258625  0.000321835 -0.000745058 3.57628e-07  0 0 0  0.000735238 -0.00137675 0.000196278  0.000225522 -0.000461757 1.19209e-07  0 0 0  0.000321448 -0.000736952 0.000142038  0.000223994 -0.00045526 0.000107646  0.00230575 -0.00469065 1.78814e-07  0.00317767 -0.0053317 0.000428975  0.00200218 -0.00348043 -5.96046e-08  0.0023137 -0.00465631 0.00032568  0.00144553 -0.00288558 -5.96046e-08  0.00200827 -0.00345635 0.000356734  0.00144967 -0.00286502 0.000270545  0.00419265 -0.00920111 1.19209e-07  0.00570476 -0.00983411 0.00050813  0.0044224 -0.00750589 1.19209e-07  0.00420296 -0.00915456 0.000384033  0.00323889 -0.00681746 1.19209e-07  0.00443476 -0.00746703 0.000476956  0.00324887 -0.00678277 0.000362098  0.00602853 -0.014702 -2.38419e-07  0.0081358 -0.0152698 0.000524819  0.00693378 -0.0124778 2.98023e-07  0.00603777 -0.0146478 0.000396371  0.00512886 -0.0118253 1.19209e-07  0.00694624 -0.0124301 0.000520647  0.00513989 -0.01178 0.000393987  0.00768292 -0.0211549 3.57628e-07  0.0103363 -0.0216744 0.000507832  0.00925624 -0.0184047 3.57628e-07  0.00769037 -0.0210972 0.000382721  0.00688094 -0.017805 -1.19209e-07  0.0092659 -0.018351 0.00051856  0.00688916 -0.0177532 0.000391066  0.00913459 -0.0285335 0  0.0122935 -0.0290222 0.000478685  0.0113398 -0.0252864 1.78814e-07  0.00913829 -0.0284737 0.000359535  0.00843382 -0.0247242 -5.96046e-08  0.0113456 -0.0252318 0.000494599  0.0084399 -0.0246707 0.000371754  0.0103885 -0.0367914 1.78814e-07  0.0140154 -0.0372642 0.000444591  0.0131807 -0.0330875 -5.96046e-08  0.0103909 -0.0367334 0.000333667  0.00978482 -0.0325491 -1.19209e-07  0.0131833 -0.0330337 0.00046128  0.00978881 -0.0324956 0.00034672  0.0114557 -0.0458757 3.57628e-07  0.0155152 -0.0463389 0.000409067  0.0147917 -0.0417513 5.96046e-08  0.0114574 -0.0458196 0.000308096  0.0109441 -0.0412267 1.78814e-07  0.0147926 -0.0417 0.000426769  0.010947 -0.0411753 0.000320673  0.0123461 -0.0557222 -1.19209e-07  0.016803 -0.0561833 0.000375867  0.0161844 -0.0512167 2.98023e-07  0.0123482 -0.0556706 0.000282645  0.0119228 -0.0507005 5.96046e-08  0.0161853 -0.0511681 0.000392616  0.011924 -0.0506516 0.000295222  0.0130713 -0.0662707 1.19209e-07  0.0178913 -0.066731 0.000344396  0.017373 -0.0614177 -5.96046e-08  0.0130721 -0.0662219 0.000258744  0.0127295 -0.0609065 -1.78814e-07  0.0173721 -0.0613723 0.000359893  0.0127308 -0.060861 0.000270545  0.013638 -0.077456 5.96046e-08  0.0187895 -0.0779179 0.000314355  0.0183648 -0.0722893 5.96046e-08  0.013638 -0.0774112 0.000237286  0.0133735 -0.0717812 3.57628e-07  0.0183637 -0.0722477 0.000328898  0.0133749 -0.0717394 0.000247777  0.0140543 -0.0892181 2.38419e-07  0.0195086 -0.0896828 0.000284076  0.019173 -0.083769 5.96046e-08  0.0140551 -0.0891765 0.000214696  0.0138645 -0.0832629 1.19209e-07  0.0191703 -0.0837306 0.000299275  0.0138649 -0.0832238 0.0002262  0.0143309 -0.101497 -2.98023e-07  0.0200577 -0.101964 0.000257552  0.019805 -0.0957963 -5.96046e-08  0.0143312 -0.101459 0.00019455  0.0142096 -0.0952909 -2.98023e-07  0.0198045 -0.0957611 0.00027144  0.0142102 -0.0952559 0.000204921  0.0144739 -0.114238 3.57628e-07  0.0204474 -0.114706 0.000232279  0.0202736 -0.108311 5.96046e-07  0.0144747 -0.114202 0.000175893  0.0144184 -0.107807 1.78814e-07  0.020272 -0.10828 0.000245333  0.0144192 -0.107776 0.000185609  0.0144936 -0.127386 4.17233e-07  0.0206871 -0.127856 0.00020653  0.0205859 -0.12126 4.76837e-07  0.0144947 -0.127353 0.000157177  0.0145 -0.120758 1.19209e-07  0.0205854 -0.121232 0.000220478  0.0145001 -0.120729 0.000166178  0.0143979 -0.140891 5.96046e-08  0.0207891 -0.141362 0.000185132  0.0207564 -0.134591 2.98023e-07  0.0143986 -0.14086 0.00014025  0.0144593 -0.134089 4.17233e-07  0.0207549 -0.134566 0.000196218  0.0144609 -0.134064 0.000148535  0.0141966 -0.154704 1.78814e-07  0.0207596 -0.155177 0.000163853  0.0207908 -0.148255 -1.19209e-07  0.0141978 -0.154678 0.000123262  0.0143111 -0.147755 2.38419e-07  0.0207901 -0.148232 0.00017333  0.0143106 -0.147733 0.000131786  0.0138986 -0.168784 2.38419e-07  0.020612 -0.169256 0.000142395  0.0207014 -0.162205 5.96046e-07  0.0139 -0.168761 0.000107765  0.0140607 -0.161708 -2.38419e-07  0.0207007 -0.162185 0.00015229  0.0140598 -0.161687 0.000116348  0.0135109 -0.183088 2.98023e-07  0.0203562 -0.18356 0.000124097  0.0204992 -0.176399 -5.96046e-08  0.0135117 -0.183067 9.43542e-05  0.0137165 -0.175904 1.19209e-07  0.0204988 -0.176381 0.000131965  0.013716 -0.175886 0.000100851  0.0130444 -0.197579 -5.96046e-07  0.0200024 -0.198049 0.000105858  0.0201926 -0.190797 2.38419e-07  0.0130441 -0.197558 8.08835e-05  0.0132873 -0.190306 5.96046e-08  0.0201919 -0.190783 0.000114799  0.0132861 -0.19029 8.77976e-05  0.0125041 -0.212221 0  0.0195591 -0.212687 8.89301e-05  0.0197928 -0.205364 -4.76837e-07  0.0125046 -0.212201 6.80089e-05  0.0127835 -0.204876 0  0.0197916 -0.20535 9.69768e-05  0.012784 -0.204863 7.33733e-05  0.0119026 -0.226978 5.96046e-07  0.0190365 -0.227443 7.48634e-05  0.0193083 -0.220063 -2.98023e-07  0.0119014 -0.226962 5.79357e-05  0.0122101 -0.219579 6.55651e-07  0.0193071 -0.220051 8.19564e-05  0.0122116 -0.219568 6.31809e-05  0.0112429 -0.241824 2.38419e-07  0.0184417 -0.242288 6.1214e-05  0.0187495 -0.234866 1.07288e-06  0.0112426 -0.241811 4.66704e-05  0.011579 -0.234386 5.96046e-08  0.0187478 -0.234855 6.75321e-05  0.0115771 -0.234376 5.10216e-05  0.0105348 -0.256734 -2.98023e-07  0.0177879 -0.257193 4.81009e-05  0.0181251 -0.24974 -5.36442e-07  0.0105352 -0.256721 3.8147e-05  0.0108948 -0.249267 2.38419e-07  0.0181205 -0.249733 5.3823e-05  0.010895 -0.249259 4.22597e-05  0.00978756 -0.271683 3.57628e-07  0.0170808 -0.272137 3.72529e-05  0.0174413 -0.264668 4.17233e-07  0.00978565 -0.271671 2.94447e-05  0.0101645 -0.264199 6.55651e-07  0.0174398 -0.264661 4.26769e-05  0.0101662 -0.264192 3.29018e-05  0.00900269 -0.286646 -2.38419e-07  0.0163293 -0.287098 2.90275e-05  0.0167127 -0.27962 1.01328e-06  0.00900435 -0.286636 2.18749e-05  0.00940084 -0.279156 -2.38419e-07  0.0167108 -0.279616 3.3617e-05  0.00939822 -0.279151 2.43187e-05  0.00819349 -0.30161 2.98023e-07  0.0155416 -0.302059 2.07424e-05  0.01594 -0.294583 2.38419e-07  0.00819254 -0.301601 1.5974e-05  0.00860143 -0.294124 7.7486e-07  0.0159404 -0.294578 2.34246e-05  0.00860023 -0.294119 1.97887e-05  0.0073607 -0.316559 3.57628e-07  0.0147247 -0.317004 1.39475e-05  0.0151372 -0.309537 2.38419e-07  0.00735974 -0.316551 1.07884e-05  0.00778055 -0.309081 -5.96046e-08  0.0151362 -0.309533 1.65105e-05  0.00777841 -0.309078 1.37687e-05  0.00651217 -0.331482 1.07288e-06  0.0138872 -0.331922 9.53674e-06  0.0143113 -0.324469 7.7486e-07  0.00651169 -0.331473 6.07967e-06  0.00693774 -0.324018 5.96046e-08  0.0143085 -0.324466 1.10269e-05  0.00693893 -0.324015 9.29832e-06  0.00565147 -0.346364 3.57628e-07  0.0130317 -0.346804 5.42402e-06  0.0134637 -0.339369 7.7486e-07  0.00565028 -0.346359 3.93391e-06  0.00608349 -0.338922 9.53674e-07  0.0134606 -0.339367 6.19888e-06  0.00608253 -0.33892 5.84126e-06  0.00478363 -0.361209 9.53674e-07  0.0121677 -0.361645 9.53674e-07  0.0126026 -0.354232 9.53674e-07  0.00478339 -0.3612 2.98023e-07  0.00521922 -0.353787 4.17233e-07  0.0126011 -0.354228 3.93391e-06  0.00521755 -0.353783 2.26498e-06  0.00391579 -0.376006 8.34465e-07  0.011301 -0.376446 -3.21865e-06  0.0117354 -0.369052 5.36442e-07  0.00391483 -0.375999 -1.90735e-06  0.00435019 -0.368605 8.9407e-07  0.011735 -0.36905 -1.49012e-06  0.00434947 -0.368604 -8.34465e-07  0.00140359 -0.00251979 -5.96046e-08  0 0 0  0.00185564 -0.00342786 0.000381172  0.000575997 -0.0017395 -2.38419e-07  0 0 0  0.00140652 -0.00249612 0.000318825  0.000426084 -0.00115609 0  0 0 0  0.000575081 -0.00172567 0.000208676  0.000425652 -0.00114578 0.000174046  0.00420964 -0.00626415 2.38419e-07  0.00541624 -0.00733578 0.000627339  0.00354636 -0.00535119 0  0.00421956 -0.00622219 0.000528932  0.00270772 -0.00428718 -2.38419e-07  0.00355244 -0.00531769 0.000522971  0.00271413 -0.00425857 0.000439405  0.00734034 -0.010731 -2.38419e-07  0.00914893 -0.0116616 0.000746012  0.00729692 -0.0094344 4.17233e-07  0.00735435 -0.0106767 0.000628293  0.0057815 -0.00838155 3.57628e-07  0.00730786 -0.00938624 0.000699639  0.00579387 -0.00833887 0.000589907  0.0103244 -0.0160923 0  0.0126639 -0.0169297 0.000774622  0.0109214 -0.0142223 2.98023e-07  0.0103376 -0.0160341 0.000651002  0.00885966 -0.0132816 1.19209e-07  0.0109357 -0.0141669 0.000768363  0.00887337 -0.0132307 0.000646234  0.0130607 -0.0224408 2.98023e-07  0.0159118 -0.023208 0.000755668  0.0143136 -0.0199993 0  0.0130692 -0.0223799 0.000632346  0.011727 -0.0191382 5.96046e-08  0.0143251 -0.0199425 0.000768304  0.0117379 -0.0190829 0.000644863  0.0155208 -0.0297481 5.96046e-08  0.0188587 -0.0304698 0.000711799  0.0174173 -0.0267755 2.38419e-07  0.0155262 -0.0296872 0.000595093  0.0143258 -0.0259717 1.19209e-07  0.0174235 -0.026719 0.000734925  0.0143321 -0.0259159 0.000615597  0.01771 -0.0379619 0  0.0215036 -0.0386513 0.000662804  0.020215 -0.0345034 0  0.0177135 -0.0379041 0.000552714  0.0166489 -0.0337394 2.98023e-07  0.0202187 -0.0344486 0.000687778  0.0166528 -0.033686 0.000575066  0.0196403 -0.0470153 5.36442e-07  0.0238559 -0.0476819 0.000610292  0.0227147 -0.043116 -5.96046e-08  0.019642 -0.0469607 0.000510931  0.0187081 -0.0423815 -2.38419e-07  0.0227156 -0.0430643 0.000636458  0.0187085 -0.0423301 0.000532091  0.0213232 -0.0568435 0  0.0259292 -0.0574914 0.000561237  0.0249246 -0.0525414 4.17233e-07  0.0213249 -0.056791 0.000469029  0.0205132 -0.0518308 -2.38419e-07  0.0249264 -0.052493 0.000585437  0.0205133 -0.0517821 0.000489354  0.0227733 -0.0673757 4.17233e-07  0.027735 -0.0680104 0.000513375  0.0268633 -0.0627105 1.19209e-07  0.0227736 -0.0673279 0.000429273  0.0220784 -0.0620199 5.96046e-07  0.0268643 -0.0626659 0.000537097  0.0220774 -0.0619743 0.000448585  0.0240012 -0.0785508 1.78814e-07  0.0292881 -0.0791723 0.000467718  0.0285437 -0.0735555 -5.96046e-08  0.0240011 -0.0785052 0.000390828  0.0234141 -0.0728813 -3.57628e-07  0.0285422 -0.0735139 0.000489533  0.0234144 -0.0728394 0.000409484  0.0250194 -0.0903034 1.19209e-07  0.0306007 -0.0909134 0.00042367  0.0299762 -0.0850115 1.78814e-07  0.0250185 -0.0902619 0.000354469  0.024536 -0.0843523 -5.96046e-08  0.0299739 -0.0849732 0.000445724  0.0245353 -0.084314 0.000372469  0.0258384 -0.102573 1.78814e-07  0.031687 -0.103172 0.000383735  0.0311719 -0.0970156 1.19209e-07  0.0258378 -0.102535 0.000321329  0.025453 -0.0963721 6.55651e-07  0.0311729 -0.0969813 0.000403702  0.0254519 -0.0963364 0.000337839  0.0264713 -0.115306 4.76837e-07  0.03256 -0.115894 0.000344932  0.0321501 -0.109509 4.17233e-07  0.0264707 -0.11527 0.0002895  0.0261782 -0.108879 -2.38419e-07  0.0321501 -0.109478 0.000364125  0.0261769 -0.108847 0.00030458  0.0269288 -0.128443 -4.76837e-07  0.0332309 -0.129023 0.000308394  0.0329204 -0.122439 5.96046e-07  0.0269281 -0.128413 0.000258327  0.0267221 -0.121821 3.57628e-07  0.0329193 -0.122411 0.000326097  0.0267212 -0.121793 0.000273228  0.0272229 -0.141941 5.96046e-08  0.0337152 -0.142509 0.000274122  0.0334978 -0.135749 -5.96046e-08  0.0272222 -0.141911 0.000228822  0.027096 -0.135145 3.57628e-07  0.0334954 -0.135724 0.000290573  0.0270945 -0.135119 0.000243604  0.0273647 -0.155744 4.76837e-07  0.0340238 -0.156304 0.000240803  0.0338929 -0.149392 5.96046e-08  0.0273647 -0.155719 0.000201344  0.0273137 -0.148801 -1.78814e-07  0.0338907 -0.14937 0.000256956  0.0273113 -0.148778 0.000215471  0.0273669 -0.169814 -1.19209e-07  0.0341725 -0.170363 0.000211298  0.0341175 -0.163322 5.36442e-07  0.0273662 -0.16979 0.000176132  0.0273845 -0.162743 0  0.0341167 -0.163301 0.000225544  0.0273826 -0.162724 0.000189602  0.02724 -0.184108 5.96046e-07  0.0341697 -0.184645 0.000182152  0.0341921 -0.177495 3.57628e-07  0.0272403 -0.184086 0.000152647  0.0273192 -0.176929 5.96046e-08  0.034188 -0.177478 0.000195026  0.0273182 -0.176911 0.000164568  0.0269959 -0.198586 -2.38419e-07  0.0340321 -0.199113 0.000154316  0.0341189 -0.191873 5.36442e-07  0.0269952 -0.198568 0.000130415  0.0271335 -0.19132 5.96046e-08  0.0341182 -0.191858 0.000169098  0.0271308 -0.191304 0.000140846  0.0266452 -0.213215 8.34465e-07  0.0337727 -0.213731 0.000131547  0.0339193 -0.206418 -7.15256e-07  0.0266452 -0.213197 0.000111222  0.0268335 -0.205878 -5.96046e-08  0.0339167 -0.206405 0.000142157  0.0268331 -0.205865 0.000120282  0.0262005 -0.227962 3.57628e-07  0.0334013 -0.228467 0.000108838  0.0336015 -0.221097 3.57628e-07  0.0261986 -0.227945 9.16719e-05  0.0264356 -0.220569 5.96046e-07  0.0335996 -0.221085 0.000120461  0.026433 -0.220557 0.000101149  0.0256698 -0.242795 1.78814e-07  0.0329299 -0.24329 8.82149e-05  0.0331762 -0.235878 5.96046e-07  0.0256691 -0.242781 7.53999e-05  0.0259461 -0.235363 5.96046e-08  0.0331774 -0.235868 9.91225e-05  0.0259442 -0.235353 8.25524e-05  0.0250659 -0.257692 -5.96046e-08  0.0323718 -0.258176 7.06911e-05  0.0326633 -0.250734 1.19209e-07  0.0250642 -0.257679 5.98431e-05  0.0253758 -0.250229 -1.19209e-07  0.032661 -0.250726 7.93934e-05  0.0253758 -0.250222 6.71148e-05  0.0243964 -0.272625 -5.96046e-07  0.0317383 -0.273102 5.47171e-05  0.0320668 -0.265642 2.98023e-07  0.0243959 -0.272615 4.6134e-05  0.0247386 -0.265149 5.36442e-07  0.0320632 -0.265635 6.22869e-05  0.0247386 -0.265142 5.28693e-05  0.0236726 -0.287579 3.57628e-07  0.0310419 -0.288046 4.04716e-05  0.0313993 -0.280578 4.76837e-07  0.023674 -0.287568 3.49283e-05  0.0240409 -0.280095 -2.38419e-07  0.0313978 -0.280572 4.76241e-05  0.0240412 -0.280089 3.92199e-05  0.0229068 -0.30253 -1.19209e-07  0.0302908 -0.302991 2.92659e-05  0.0306718 -0.295522 3.57628e-07  0.0229061 -0.302521 2.45571e-05  0.0232964 -0.29505 8.34465e-07  0.0306721 -0.295518 3.45707e-05  0.0232952 -0.295045 2.98619e-05  0.0221031 -0.31747 1.78814e-07  0.0294971 -0.317921 2.02656e-05  0.0298991 -0.310461 4.76837e-07  0.0221021 -0.317461 1.63317e-05  0.0225089 -0.309998 8.34465e-07  0.0298984 -0.310457 2.44975e-05  0.0225086 -0.309993 2.06828e-05  0.0212731 -0.332382 4.76837e-07  0.0286698 -0.332827 1.29342e-05  0.0290892 -0.32538 4.17233e-07  0.021271 -0.332374 1.09673e-05  0.0216916 -0.324924 -1.19209e-07  0.0290868 -0.325377 1.57356e-05  0.0216904 -0.324921 1.32918e-05  0.0204222 -0.347258 7.15256e-07  0.0278206 -0.347699 5.96046e-06  0.0282507 -0.340269 6.55651e-07  0.020422 -0.347251 6.07967e-06  0.0208504 -0.339819 6.55651e-07  0.0282464 -0.340268 9.17912e-06  0.0208495 -0.339817 8.16584e-06  0.0195606 -0.362098 1.19209e-06  0.0269568 -0.362537 1.78814e-06  0.0273941 -0.355123 4.17233e-07  0.0195582 -0.362091 2.563e-06  0.0199921 -0.354678 9.53674e-07  0.027391 -0.355122 3.69549e-06  0.0199919 -0.354675 3.39746e-06  0.0186939 -0.376901 -3.57628e-07  0.0260887 -0.377344 -3.57628e-06  0.0265241 -0.369945 2.98023e-07  0.0186915 -0.376896 -2.98023e-06  0.0191262 -0.369498 -1.78814e-07  0.0265226 -0.369942 -1.19209e-06  0.0191247 -0.369496 -1.54972e-06  0.00265749 -0.00484473 0  0 0 0  0.00385188 -0.00667173 0.000506639  0.00137731 -0.00396234 2.98023e-07  0 0 0  0.00265709 -0.00481033 0.00044173  0.000800617 -0.00259233 -4.76837e-07  0 0 0  0.00137451 -0.00393361 0.000279367  0.000799417 -0.00257277 0.000237107  0.00689226 -0.00865877 1.19209e-07  0.00863305 -0.0099079 0.000822842  0.00636813 -0.00821447 2.38419e-07  0.00689891 -0.00860256 0.000725806  0.00480126 -0.00668406 2.38419e-07  0.00636333 -0.00815916 0.00068742  0.00480385 -0.00664258 0.00060457  0.0110654 -0.012848 2.98023e-07  0.0131822 -0.0140298 0.000978112  0.0108721 -0.0119103 -5.96046e-08  0.0110783 -0.0127825 0.000863314  0.00897935 -0.0106286 1.78814e-07  0.0108777 -0.0118445 0.000918448  0.00899056 -0.0105724 0.00080955  0.0151004 -0.0180171 2.98023e-07  0.0177095 -0.0190901 0.00101852  0.015463 -0.0164804 3.57628e-07  0.0151137 -0.0179506 0.000897706  0.0131132 -0.0152918 1.19209e-07  0.0154748 -0.0164141 0.00101  0.0131274 -0.0152317 0.000889897  0.0188601 -0.02422 1.19209e-07  0.0219641 -0.0252217 0.000994325  0.0198648 -0.0220828 -4.17233e-07  0.0188703 -0.0241556 0.000875533  0.0170187 -0.020982 5.96046e-08  0.0198763 -0.0220203 0.00101292  0.0170305 -0.0209224 0.000891328  0.0222961 -0.0314261 2.38419e-07  0.0258775 -0.0323703 0.000940859  0.0239561 -0.0287306 5.96046e-07  0.0223033 -0.0313646 0.00082761  0.0206203 -0.0276958 -2.38419e-07  0.0239658 -0.0286712 0.00097084  0.0206288 -0.0276381 0.000853598  0.0253977 -0.0395636 3.57628e-07  0.0294259 -0.0404628 0.000876546  0.0276903 -0.0363583 1.19209e-07  0.0254021 -0.0395054 0.000769496  0.0238889 -0.0353764 5.96046e-08  0.0276965 -0.0363032 0.000909626  0.0238944 -0.0353219 0.000799358  0.0281713 -0.048558 4.17233e-07  0.0326116 -0.0494198 0.000810444  0.0310578 -0.0448886 1.78814e-07  0.0281738 -0.0485029 0.00071013  0.0268257 -0.0439526 -1.19209e-07  0.0310625 -0.044838 0.000842214  0.0268283 -0.043901 0.000740707  0.0306304 -0.0583357 -1.19209e-07  0.0354499 -0.0591665 0.000743508  0.0340713 -0.0542471 -1.19209e-07  0.0306326 -0.0582842 0.000652611  0.029439 -0.0533479 0  0.0340745 -0.0541992 0.000777006  0.029442 -0.0532991 0.000681043  0.0327898 -0.0688262 0  0.037957 -0.0696282 0.000680447  0.0367413 -0.0643567 5.36442e-07  0.0327913 -0.0687776 0.000597298  0.0317476 -0.0634907 3.57628e-07  0.0367436 -0.0643122 0.000712395  0.0317484 -0.0634456 0.000624537  0.034664 -0.0799609 -3.57628e-07  0.0401466 -0.0807377 0.000620008  0.0390881 -0.075147 -3.57628e-07  0.0346652 -0.0799174 0.000544846  0.033762 -0.0743116 2.38419e-07  0.03909 -0.0751054 0.000649691  0.0337629 -0.07427 0.000569999  0.036268 -0.0916771 5.96046e-08  0.0420375 -0.0924286 0.000564218  0.041126 -0.0865505 -5.96046e-08  0.0362699 -0.0916358 0.000493944  0.0355 -0.0857452 5.96046e-08  0.0411286 -0.0865148 0.000592411  0.0355004 -0.0857077 0.000518322  0.0376166 -0.103914 4.17233e-07  0.0436448 -0.104642 0.000509202  0.0428739 -0.098508 -4.76837e-07  0.0376179 -0.103876 0.000446379  0.0369749 -0.0977286 5.36442e-07  0.0428748 -0.0984735 0.000535488  0.0369751 -0.0976942 0.000469625  0.0387263 -0.116612 1.19209e-07  0.0449828 -0.117317 0.000457406  0.0443456 -0.110956 5.36442e-07  0.0387266 -0.116578 0.000400782  0.0382022 -0.110202 -5.96046e-08  0.0443459 -0.110925 0.000483513  0.0382017 -0.110172 0.000423491  0.039608 -0.129719 1.78814e-07  0.0460706 -0.130401 0.000408173  0.0455551 -0.123839 -4.17233e-07  0.0396079 -0.129686 0.000359297  0.0391952 -0.123111 1.19209e-07  0.0455567 -0.123812 0.000432849  0.0391948 -0.123084 0.000380099  0.0402775 -0.143183 5.96046e-08  0.046921 -0.143844 0.000361919  0.0465233 -0.137106 4.17233e-07  0.0402777 -0.143154 0.000317574  0.039969 -0.136404 -1.19209e-07  0.0465239 -0.137082 0.000386119  0.0399688 -0.136378 0.00033778  0.0407498 -0.156957 -4.17233e-07  0.0475492 -0.157597 0.000320196  0.0472615 -0.150706 5.36442e-07  0.0407488 -0.156931 0.000279963  0.0405369 -0.150027 4.76837e-07  0.047261 -0.150684 0.000340223  0.0405378 -0.150006 0.000299096  0.0410388 -0.170994 -1.19209e-07  0.047977 -0.171615 0.000278056  0.0477905 -0.164595 2.38419e-07  0.0410388 -0.170971 0.000244856  0.0409176 -0.163939 2.38419e-07  0.0477867 -0.164575 0.000299156  0.0409162 -0.16392 0.000262678  0.0411587 -0.185258 -2.98023e-07  0.0482135 -0.185857 0.000240386  0.0481186 -0.178727 -8.34465e-07  0.0411587 -0.185237 0.000211895  0.0411193 -0.178095 -1.19209e-07  0.0481169 -0.17871 0.000259161  0.0411198 -0.178078 0.000227571  0.0411236 -0.199705 1.78814e-07  0.048275 -0.200286 0.000206769  0.0482662 -0.193064 1.66893e-06  0.0411241 -0.199687 0.000180066  0.0411603 -0.192455 5.96046e-08  0.0482662 -0.193049 0.000223935  0.0411601 -0.192439 0.000195444  0.0409491 -0.214304 5.96046e-07  0.0481834 -0.214865 0.000174165  0.0482495 -0.20757 -7.7486e-07  0.0409486 -0.214288 0.000152469  0.0410528 -0.206983 -2.98023e-07  0.048249 -0.207558 0.000188887  0.0410531 -0.20697 0.000166297  0.0406466 -0.229021 -4.17233e-07  0.0479455 -0.229563 0.000144839  0.0480812 -0.222211 4.76837e-07  0.040647 -0.229006 0.000127435  0.0408132 -0.221645 3.57628e-07  0.0480809 -0.222201 0.000158668  0.0408132 -0.221634 0.000139594  0.0402312 -0.243828 5.96046e-08  0.0475807 -0.24435 0.000116527  0.0477769 -0.236956 1.13249e-06  0.0402315 -0.243815 0.000102878  0.040453 -0.236409 2.38419e-07  0.0477772 -0.236947 0.000130057  0.0404539 -0.2364 0.000114381  0.0397151 -0.258698 -2.38419e-07  0.0471025 -0.259204 9.40561e-05  0.0473552 -0.25178 7.7486e-07  0.0397153 -0.258686 8.22544e-05  0.0399857 -0.251252 4.17233e-07  0.047353 -0.251771 0.000105321  0.0399849 -0.251243 9.12547e-05  0.0391119 -0.273608 5.96046e-07  0.0465231 -0.274099 7.35521e-05  0.0468252 -0.266653 1.2517e-06  0.0391133 -0.273598 6.34789e-05  0.0394242 -0.266143 2.98023e-07  0.0468242 -0.266648 8.13007e-05  0.0394244 -0.266138 7.24196e-05  0.0384355 -0.288538 2.98023e-07  0.0458624 -0.289014 5.40018e-05  0.0462029 -0.28156 4.17233e-07  0.0384362 -0.288528 4.72665e-05  0.0387828 -0.281066 3.57628e-07  0.0462015 -0.281555 6.29425e-05  0.0387833 -0.281061 5.47767e-05  0.0376966 -0.303469 3.57628e-07  0.0451307 -0.303933 3.85642e-05  0.0455041 -0.296477 8.34465e-07  0.0376973 -0.303462 3.31402e-05  0.0380745 -0.295999 6.55651e-07  0.0455039 -0.296473 4.6432e-05  0.0380726 -0.295995 4.04119e-05  0.0369072 -0.318391 -2.98023e-07  0.0443387 -0.31884 2.68221e-05  0.0447397 -0.311391 1.60933e-06  0.0369065 -0.318382 2.28286e-05  0.037308 -0.310927 1.07288e-06  0.0447414 -0.311388 3.15905e-05  0.0373068 -0.310923 2.76566e-05  0.0360818 -0.333288 4.17233e-07  0.0435066 -0.33373 1.4782e-05  0.0439274 -0.32629 -8.34465e-07  0.0360801 -0.333279 1.4782e-05  0.0364988 -0.325836 1.78814e-07  0.0439277 -0.326288 2.00868e-05  0.0364971 -0.325833 1.8239e-05  0.035229 -0.348154 1.07288e-06  0.0426462 -0.34859 7.689e-06  0.0430815 -0.341166 -2.38419e-07  0.0352294 -0.348147 7.56979e-06  0.0356593 -0.34072 -1.19209e-07  0.0430789 -0.341164 1.20997e-05  0.0356567 -0.340717 1.06692e-05  0.0343621 -0.362986 7.15256e-07  0.0417702 -0.363422 3.33786e-06  0.0422115 -0.356012 2.98023e-07  0.0343611 -0.362981 2.5034e-06  0.0347977 -0.355569 0  0.0422096 -0.356008 6.67572e-06  0.0347967 -0.355567 4.41074e-06  0.0334888 -0.377799 1.37091e-06  0.0408936 -0.378234 -1.72853e-06  0.0413339 -0.370832 5.36442e-07  0.0334883 -0.377791 -3.33786e-06  0.0339253 -0.37039 1.07288e-06  0.0413332 -0.370831 1.13249e-06  0.0339243 -0.370388 1.54972e-06  -0.00388674 -0.00634901 0.000529528  -0.00140923 -0.00366727 0.000595391  0 0 0  -0.00261608 -0.00439925 0.000933379  0 0 0  -0.00178684 -0.00311056 0.000392795  -0.00056266 -0.00149582 0.000439227  0 0 0  -0.00141902 -0.00371685 0.000292778  -0.00261614 -0.00446887 0.000459969  -0.000793494 -0.00231392 0.000501037  0 0 0  -0.000559017 -0.0015271 0.000216365  -0.000792529 -0.0023504 0.00024724  -0.00863391 -0.00935486 0.000855327  -0.00634696 -0.00758875 0.00145373  -0.00682801 -0.00793803 0.00151801  -0.00527768 -0.00683828 0.000645816  -0.00345396 -0.00481077 0.00109071  -0.00636353 -0.0077107 0.000716448  -0.00681725 -0.00807152 0.000751197  -0.00473395 -0.00609263 0.00127015  -0.00343832 -0.00490934 0.000539005  -0.00473027 -0.00620316 0.000626802  -0.013222 -0.0132336 0.00101757  -0.0108972 -0.0110099 0.00192717  -0.0110298 -0.0118684 0.0017992  -0.00900352 -0.0109816 0.000769913  -0.0071784 -0.00865169 0.0014551  -0.0108929 -0.0111778 0.000955105  -0.0110093 -0.0120376 0.000894248  -0.00892371 -0.0097802 0.00169116  -0.00715652 -0.00879945 0.00072211  -0.00890747 -0.00993914 0.000838637  -0.017852 -0.0179999 0.00105923  -0.0155709 -0.0152873 0.00210944  -0.015152 -0.0167746 0.0018636  -0.0125899 -0.0160455 0.000800431  -0.0108351 -0.0132166 0.00159168  -0.015554 -0.015477 0.00105041  -0.0151328 -0.0169559 0.000930429  -0.0131119 -0.0141853 0.00185111  -0.0108146 -0.0133886 0.000792801  -0.0130904 -0.0143662 0.000921965  -0.0223023 -0.0237975 0.00103015  -0.0201221 -0.0205757 0.00210437  -0.0190827 -0.0227047 0.00180775  -0.0160065 -0.0220962 0.000777543  -0.0143346 -0.0187689 0.00158605  -0.0201049 -0.0207689 0.00105107  -0.0190725 -0.0228835 0.000903666  -0.0171441 -0.019607 0.00184533  -0.014322 -0.0189471 0.000792801  -0.0171287 -0.0197932 0.000921845  -0.0265106 -0.0305826 0.000969768  -0.0244471 -0.0268845 0.0020043  -0.0227922 -0.0296177 0.00169784  -0.0192317 -0.0291084 0.000730693  -0.0176441 -0.0253095 0.00150841  -0.0244396 -0.0270702 0.00100207  -0.0227932 -0.0297881 0.000850022  -0.0209653 -0.0260368 0.00175682  -0.0176431 -0.025485 0.000755012  -0.0209611 -0.0262169 0.000879049  -0.0304588 -0.0382894 0.00089705  -0.0285149 -0.0341517 0.00186682  -0.0262818 -0.0374454 0.00156927  -0.0222718 -0.0370219 0.000673652  -0.0207646 -0.0327889 0.00140253  -0.0285177 -0.0343259 0.000934362  -0.0262908 -0.0376043 0.000785589  -0.0245641 -0.0334155 0.00163487  -0.0207744 -0.0329557 0.000701964  -0.0245692 -0.0335865 0.000818253  -0.0341582 -0.0468471 0.000822961  -0.0323328 -0.0423062 0.00171837  -0.0295629 -0.0461167 0.00143814  -0.0251377 -0.0457713 0.000617266  -0.0237102 -0.0411389 0.00128862  -0.0323388 -0.0424673 0.000859499  -0.0295766 -0.0462638 0.000719607  -0.0279474 -0.0416744 0.00150353  -0.0237253 -0.0412957 0.000644922  -0.0279595 -0.041833 0.000752687  -0.0376234 -0.0561871 0.000749826  -0.0359073 -0.051277 0.00157186  -0.0326487 -0.0555628 0.00131184  -0.0278438 -0.0552899 0.000562191  -0.0264895 -0.0502925 0.00117698  -0.0359197 -0.051425 0.000786662  -0.0326666 -0.0556981 0.000656366  -0.0311279 -0.0507419 0.00137424  -0.0265099 -0.0504377 0.00058955  -0.0311456 -0.0508885 0.000687957  -0.0408728 -0.0662427 0.00068152  -0.0392596 -0.0609953 0.00143215  -0.0355543 -0.0657197 0.00119257  -0.0304027 -0.0655154 0.000510812  -0.0291193 -0.0601845 0.00107127  -0.0392746 -0.0611298 0.000717282  -0.0355735 -0.0658432 0.000596821  -0.0341228 -0.0605516 0.00125146  -0.0291406 -0.0603176 0.000536323  -0.0341418 -0.0606857 0.000626326  -0.0439187 -0.0769538 0.000619829  -0.0424049 -0.0713979 0.00129902  -0.0382918 -0.0765275 0.00108036  -0.0328249 -0.0763867 0.000462472  -0.0316066 -0.070752 0.000971854  -0.0424204 -0.0715209 0.000650465  -0.0383111 -0.0766391 0.000540137  -0.0369425 -0.0710421 0.00113532  -0.0316303 -0.0708734 0.000486314  -0.0369624 -0.0711637 0.000568271  -0.0467753 -0.0882581 0.000560641  -0.0453545 -0.082425 0.00117612  -0.0408713 -0.0879244 0.000974894  -0.0351193 -0.0878436 0.000415921  -0.0339651 -0.0819342 0.000878602  -0.04537 -0.0825354 0.000588655  -0.0408906 -0.0880245 0.000488102  -0.0395994 -0.0821498 0.00102726  -0.0339879 -0.0820447 0.000439346  -0.0396196 -0.0822602 0.000513792  -0.049454 -0.100102 0.000503778  -0.0481224 -0.0940164 0.00105944  -0.0433015 -0.0998547 0.000876397  -0.0372933 -0.0998317 0.000374079  -0.0361993 -0.0936748 0.000790834  -0.0481372 -0.0941168 0.000529826  -0.0433196 -0.0999433 0.000437498  -0.042104 -0.0938197 0.000925004  -0.0362207 -0.0937736 0.000395715  -0.0421224 -0.0939193 0.000462592  -0.0519646 -0.112431 0.00044924  -0.0507157 -0.10612 0.000950724  -0.0455899 -0.112263 0.000783443  -0.0393522 -0.112295 0.00033468  -0.0383155 -0.105917 0.000709236  -0.0507302 -0.10621 0.000475466  -0.0456071 -0.112342 0.000391841  -0.0444617 -0.105997 0.000828922  -0.0383363 -0.106007 0.00035429  -0.0444813 -0.106086 0.000414491  -0.0543129 -0.125193 0.000398397  -0.0531429 -0.118682 0.000847578  -0.0477436 -0.1251 0.000696957  -0.041303 -0.125183 0.000298023  -0.0403209 -0.118609 0.000631958  -0.0531592 -0.118761 0.000424266  -0.0477602 -0.12517 0.000349283  -0.046683 -0.118626 0.000739813  -0.0403417 -0.118689 0.00031662  -0.0466995 -0.118706 0.000369966  -0.0565097 -0.138339 0.000353515  -0.0554163 -0.131651 0.000750959  -0.0497692 -0.138317 0.000614733  -0.0431495 -0.138448 0.000262737  -0.0422188 -0.1317 0.000559449  -0.0554317 -0.13172 0.000376225  -0.0497845 -0.138379 0.000306845  -0.0487728 -0.131659 0.000655174  -0.0422391 -0.13177 0.000279486  -0.0487869 -0.131729 0.000328124  -0.0585616 -0.151823 0.000309229  -0.0575409 -0.144979 0.000660747  -0.051672 -0.151866 0.000539064  -0.0448954 -0.15204 0.00023061  -0.0440168 -0.145142 0.000492543  -0.0575528 -0.145041 0.000329792  -0.0516865 -0.151919 0.000269294  -0.0507355 -0.145048 0.000576317  -0.0440345 -0.145204 0.000246167  -0.0507498 -0.145109 0.000288606  -0.0604753 -0.165601 0.000267744  -0.0595236 -0.158625 0.000576377  -0.0534606 -0.165705 0.000468254  -0.0465488 -0.165918 0.000199795  -0.045717 -0.15889 0.000429034  -0.0595336 -0.158677 0.000289321  -0.053472 -0.16575 0.000234544  -0.0525794 -0.158746 0.000502765  -0.045733 -0.158945 0.000214756  -0.0525935 -0.1588 0.000250816  -0.0622587 -0.179631 0.000230789  -0.061372 -0.172541 0.000498503  -0.0551372 -0.17979 0.000402182  -0.0481091 -0.180039 0.000171006  -0.0473254 -0.172902 0.000371009  -0.0613832 -0.172588 0.000249445  -0.0551484 -0.179828 0.000201285  -0.0543115 -0.172714 0.000434339  -0.0473413 -0.172949 0.000185788  -0.0543234 -0.17276 0.000217795  -0.06392 -0.193877 0.000195742  -0.0630953 -0.18669 0.000425637  -0.05671 -0.194086 0.000340492  -0.0495844 -0.194367 0.000146151  -0.0488448 -0.187139 0.000317067  -0.0631034 -0.18673 0.000212669  -0.0567195 -0.194117 0.000170708  -0.0559354 -0.186909 0.000371218  -0.0488575 -0.18718 0.000158906  -0.0559473 -0.186948 0.000185192  -0.0654674 -0.208301 0.000163436  -0.0646992 -0.201037 0.00035888  -0.0581844 -0.208554 0.000285089  -0.0509787 -0.208864 0.000120759  -0.0502791 -0.201563 0.000266165  -0.0647078 -0.20107 0.000177741  -0.058192 -0.208581 0.000142574  -0.0574582 -0.201294 0.000312001  -0.0502925 -0.201596 0.00013268  -0.0574672 -0.201329 0.000155985  -0.0669045 -0.222872 0.000134885  -0.0661907 -0.215542 0.000298113  -0.0595655 -0.223163 0.000235468  -0.0522952 -0.2235 0.000100315  -0.051636 -0.216137 0.00022012  -0.0661986 -0.215571 0.000150979  -0.0595734 -0.223183 0.000118375  -0.0588851 -0.215838 0.000259459  -0.0516455 -0.216166 0.000110924  -0.0588939 -0.215866 0.000130117  -0.0682461 -0.237555 0.000110149  -0.0675824 -0.23018 0.000243306  -0.0608635 -0.237882 0.000190377  -0.0535431 -0.238241 8.11219e-05  -0.052918 -0.230834 0.000180542  -0.0675881 -0.230201 0.000121057  -0.0608704 -0.237898 9.46522e-05  -0.0602243 -0.230505 0.000212044  -0.052927 -0.230857 8.95858e-05  -0.0602317 -0.230528 0.000105858  -0.0694957 -0.252326 8.60095e-05  -0.0688746 -0.244914 0.000193596  -0.0620823 -0.252682 0.000148416  -0.054723 -0.25306 6.46114e-05  -0.0541329 -0.245623 0.000143439  -0.068881 -0.244932 9.7096e-05  -0.0620878 -0.252693 7.45058e-05  -0.0614812 -0.245268 0.000168264  -0.0541399 -0.245641 7.24792e-05  -0.0614879 -0.245286 8.53539e-05  -0.0706618 -0.267157 6.55055e-05  -0.0700836 -0.259721 0.000149667  -0.0632298 -0.267541 0.000112772  -0.0558424 -0.267934 4.76241e-05  -0.0552816 -0.260476 0.000110298  -0.0700874 -0.259735 7.56979e-05  -0.0632331 -0.267547 5.59688e-05  -0.0626643 -0.260099 0.000130296  -0.0552888 -0.26049 5.49555e-05  -0.0626671 -0.260114 6.49691e-05  -0.0717547 -0.282029 4.81009e-05  -0.0712154 -0.274581 0.000112385  -0.064312 -0.282433 8.17478e-05  -0.0569074 -0.28284 3.57628e-05  -0.0563755 -0.275372 8.27909e-05  -0.0712175 -0.27459 5.63264e-05  -0.0643158 -0.282437 4.1306e-05  -0.0637765 -0.274979 9.71556e-05  -0.0563812 -0.275383 4.27365e-05  -0.0637813 -0.274988 4.93526e-05  -0.0727839 -0.296921 3.02196e-05  -0.0722737 -0.289466 7.95424e-05  -0.0653391 -0.297343 5.65946e-05  -0.0579259 -0.297758 2.40207e-05  -0.0574167 -0.29029 5.85318e-05  -0.0722771 -0.289474 4.04119e-05  -0.0653427 -0.297342 2.88486e-05  -0.0648313 -0.28988 6.93798e-05  -0.0574219 -0.290298 2.95043e-05  -0.0648353 -0.289889 3.42131e-05  -0.0737619 -0.311816 2.17557e-05  -0.0732799 -0.304362 5.41806e-05  -0.0663188 -0.312249 3.75211e-05  -0.0589025 -0.312673 1.59144e-05  -0.0584147 -0.305211 3.95775e-05  -0.0732789 -0.304369 2.74181e-05  -0.0663204 -0.312248 1.95503e-05  -0.0658326 -0.30479 4.61042e-05  -0.0584188 -0.305216 2.11e-05  -0.0658367 -0.304796 2.31862e-05  -0.0746942 -0.326698 1.508e-05  -0.074228 -0.319257 3.3915e-05  -0.0672596 -0.32714 2.21729e-05  -0.0598471 -0.32757 1.04308e-05  -0.0593743 -0.320121 2.48551e-05  -0.0742331 -0.319259 1.7345e-05  -0.0672634 -0.327138 1.13249e-05  -0.0667932 -0.319692 2.89083e-05  -0.0593786 -0.320123 1.26958e-05  -0.0667965 -0.319695 1.508e-05  -0.075597 -0.34156 9.29832e-06  -0.0751452 -0.334131 1.91331e-05  -0.0681746 -0.342007 1.06394e-05  -0.0607636 -0.342439 3.15905e-06  -0.060302 -0.335006 1.30832e-05  -0.0751488 -0.334131 1.11461e-05  -0.0681751 -0.342003 5.66244e-06  -0.0677199 -0.334571 1.55866e-05  -0.0603082 -0.335008 6.13928e-06  -0.0677223 -0.334573 7.80821e-06  -0.0764825 -0.356397 3.33786e-06  -0.07604 -0.348981 8.34465e-06  -0.0690682 -0.356843 3.03984e-06  -0.061662 -0.357277 4.17233e-07  -0.0612102 -0.349861 4.88758e-06  -0.0760412 -0.348982 4.70877e-06  -0.0690699 -0.35684 1.84774e-06  -0.0686221 -0.349424 7.06315e-06  -0.0612142 -0.349861 2.6226e-06  -0.0686247 -0.349424 3.8147e-06  -0.077363 -0.371217 -2.20537e-06  -0.0769203 -0.363809 1.63913e-06  -0.0699522 -0.371658 -5.42402e-06  -0.0625522 -0.372088 -4.17233e-06  -0.0621054 -0.364684 -2.08616e-06  -0.0769231 -0.363809 8.34465e-07  -0.0699549 -0.371653 -1.07288e-06  -0.0695102 -0.364248 -8.34465e-07  -0.062108 -0.364684 1.19209e-07  -0.0695124 -0.364248 -5.96046e-07  -0.00134411 -0.0021701 0.000664175  0 0 0  -0.000961915 -0.00161496 0.000262976  -0.000304721 -0.000582874 0.000292867  0 0 0  -0.00133395 -0.00222428 0.000326753  -0.000408173 -0.000953883 0.000362873  0 0 0  -0.000301331 -0.000607535 0.000143707  -0.000403855 -0.000981867 0.000178158  -0.00407739 -0.00566386 0.00109646  -0.00300287 -0.00495829 0.0004372  -0.00190254 -0.00307475 0.000735909  -0.00405648 -0.00577496 0.000541866  -0.00260787 -0.00380602 0.000911981  -0.0018871 -0.00315443 0.000362515  -0.00259142 -0.00389405 0.000450194  -0.00718087 -0.00993522 0.00130031  -0.00547361 -0.00933911 0.000520706  -0.00424081 -0.00690956 0.000985175  -0.0071584 -0.0100821 0.000646293  -0.00562739 -0.00768326 0.00122139  -0.00422043 -0.00703393 0.000488698  -0.00560433 -0.00781861 0.000605583  -0.0102104 -0.0151122 0.00134346  -0.00794137 -0.0146472 0.000539422  -0.00673848 -0.0117208 0.00107443  -0.0101944 -0.0152742 0.000671268  -0.0087117 -0.0123937 0.00133508  -0.00672039 -0.0118724 0.000535667  -0.00869206 -0.0125557 0.000665426  -0.0130866 -0.0212709 0.00129896  -0.0102867 -0.02091 0.000521421  -0.00913918 -0.0174952 0.00106642  -0.0130822 -0.0214373 0.000649929  -0.0116688 -0.0180641 0.00132748  -0.00912958 -0.0176595 0.000532508  -0.0116587 -0.0182351 0.000663519  -0.0158026 -0.0283826 0.00121665  -0.0125051 -0.0281024 0.000489235  -0.0114075 -0.0242251 0.00101051  -0.0158085 -0.0285458 0.000609219  -0.0144644 -0.0247051 0.00126049  -0.0114114 -0.024392 0.000506282  -0.0144648 -0.0248763 0.000630558  -0.0183713 -0.0363899 0.00112224  -0.0146108 -0.036176 0.000450492  -0.0135586 -0.0318695 0.000937045  -0.0183846 -0.0365441 0.000561893  -0.0171041 -0.0322721 0.00117016  -0.0135707 -0.0320309 0.000469565  -0.0171148 -0.0324368 0.000586152  -0.0208054 -0.0452285 0.0010266  -0.0166188 -0.0450718 0.000410795  -0.0156092 -0.04037 0.000859529  -0.0208243 -0.0453724 0.000514328  -0.0196031 -0.040703 0.00107434  -0.0156258 -0.0405238 0.000430167  -0.0196213 -0.0408587 0.000537753  -0.0231197 -0.054833 0.000935733  -0.018541 -0.0547297 0.000374079  -0.0175676 -0.0496654 0.000784159  -0.0231409 -0.0549666 0.000467777  -0.0219761 -0.0499322 0.000980735  -0.0175902 -0.0498083 0.000392795  -0.0219972 -0.0500769 0.000490487  -0.0253226 -0.0651413 0.000849098  -0.0203866 -0.0650878 0.000339806  -0.0194501 -0.0596914 0.000712395  -0.0253454 -0.065263 0.000424802  -0.0242343 -0.0598964 0.000891596  -0.0194726 -0.0598242 0.000356436  -0.0242568 -0.0600291 0.00044632  -0.0274234 -0.0760902 0.00076887  -0.0221612 -0.0760851 0.000306487  -0.0212584 -0.0703885 0.000645429  -0.0274467 -0.0762016 0.000385046  -0.0263858 -0.0705331 0.000808477  -0.0212823 -0.0705095 0.000322819  -0.0264081 -0.0706547 0.000404537  -0.0294285 -0.0876239 0.000693381  -0.0238699 -0.0876641 0.000276923  -0.0230011 -0.0816941 0.000582725  -0.0294509 -0.0877229 0.000346839  -0.0284373 -0.081781 0.000730753  -0.0230231 -0.0818046 0.000291526  -0.0284603 -0.081892 0.000365674  -0.0313429 -0.0996819 0.000622541  -0.0255172 -0.0997661 0.000248253  -0.0246788 -0.0935521 0.000524104  -0.0313629 -0.0997718 0.000311673  -0.0303953 -0.0935844 0.000657558  -0.0247003 -0.093652 0.000262141  -0.030418 -0.0936834 0.000328124  -0.0331689 -0.112212 0.00055635  -0.027104 -0.112338 0.000222802  -0.0262985 -0.105906 0.000469059  -0.0331892 -0.112293 0.000277936  -0.0322661 -0.105886 0.000589103  -0.0263176 -0.105996 0.000234485  -0.0322869 -0.105975 0.000295222  -0.034914 -0.125165 0.000494331  -0.0286349 -0.125328 0.000195801  -0.0278566 -0.118703 0.000418097  -0.0349319 -0.125235 0.000247836  -0.0340502 -0.118634 0.000525057  -0.0278759 -0.118783 0.000208974  -0.0340705 -0.118713 0.000262797  -0.0365784 -0.138487 0.000436068  -0.0301099 -0.138686 0.000174284  -0.0293603 -0.131892 0.000369847  -0.0365949 -0.138548 0.000218391  -0.035755 -0.131776 0.000464886  -0.0293795 -0.131962 0.000184953  -0.0357724 -0.131847 0.000232339  -0.0381653 -0.152133 0.000381678  -0.0315309 -0.152366 0.000152171  -0.0308089 -0.145425 0.000324816  -0.0381813 -0.152187 0.000191033  -0.0373819 -0.145267 0.000408202  -0.0308273 -0.145487 0.000162065  -0.0373974 -0.145329 0.000204265  -0.0396802 -0.166061 0.000331223  -0.0328989 -0.166324 0.000131667  -0.0322065 -0.159257 0.000283211  -0.0396936 -0.166108 0.000165462  -0.0389309 -0.15906 0.00035587  -0.0322223 -0.159312 0.000141084  -0.0389459 -0.159114 0.000178337  -0.0411236 -0.18023 0.000284672  -0.0342159 -0.18052 0.000112772  -0.03355 -0.173346 0.000243813  -0.0411348 -0.180269 0.000142515  -0.0404096 -0.173112 0.000307977  -0.0335629 -0.173394 0.000122249  -0.0404232 -0.17316 0.000153661  -0.0424991 -0.194599 0.000240713  -0.0354841 -0.194914 9.62019e-05  -0.0348454 -0.187652 0.000208914  -0.0425098 -0.194632 0.00012058  -0.0418179 -0.187386 0.000262916  -0.0348558 -0.187692 0.000105262  -0.0418298 -0.187426 0.000131667  -0.0438087 -0.209135 0.000201315  -0.0367045 -0.20947 7.9453e-05  -0.0360887 -0.202138 0.000174731  -0.043819 -0.20916 0.000101268  -0.0431607 -0.201843 0.000220597  -0.0361004 -0.202173 8.69036e-05  -0.0431709 -0.201876 0.000110328  -0.0450597 -0.223803 0.000165701  -0.0378799 -0.224157 6.65188e-05  -0.0372875 -0.216769 0.000144243  -0.0450666 -0.223822 8.30293e-05  -0.0444403 -0.216447 0.000182837  -0.0372972 -0.216797 7.34329e-05  -0.0444503 -0.216476 9.12547e-05  -0.0462513 -0.238572 0.000133663  -0.0390122 -0.238943 5.30481e-05  -0.0384431 -0.231515 0.0001176  -0.0462587 -0.238588 6.74129e-05  -0.045661 -0.23117 0.00014922  -0.03845 -0.231539 5.85318e-05  -0.04567 -0.231193 7.4923e-05  -0.0473912 -0.253418 0.000104249  -0.040103 -0.253803 3.99947e-05  -0.0395541 -0.246346 9.40859e-05  -0.0473955 -0.253429 5.16176e-05  -0.0468268 -0.245981 0.000118464  -0.039562 -0.246364 4.72665e-05  -0.0468338 -0.245999 5.94854e-05  -0.0484803 -0.268311 7.93636e-05  -0.0411563 -0.268709 3.06368e-05  -0.0406287 -0.261235 7.17938e-05  -0.0484841 -0.26832 4.01139e-05  -0.04794 -0.260854 9.13441e-05  -0.0406334 -0.26125 3.618e-05  -0.0479457 -0.260869 4.57764e-05  -0.0495241 -0.283237 5.80549e-05  -0.0421724 -0.283643 2.40803e-05  -0.0416639 -0.276163 5.35846e-05  -0.0495276 -0.283241 2.93851e-05  -0.0490062 -0.275766 6.83367e-05  -0.0416694 -0.276174 2.72393e-05  -0.0490112 -0.275777 3.47495e-05  -0.0505285 -0.298171 3.94881e-05  -0.043159 -0.298584 1.51992e-05  -0.042666 -0.291104 3.78489e-05  -0.0505323 -0.298171 2.00272e-05  -0.0500309 -0.290696 4.78923e-05  -0.0426698 -0.291112 1.88351e-05  -0.050035 -0.290705 2.41399e-05  -0.0514991 -0.313093 2.61962e-05  -0.0441184 -0.313515 1.00732e-05  -0.0436394 -0.306045 2.5481e-05  -0.0515025 -0.313095 1.33514e-05  -0.0510156 -0.305628 3.24845e-05  -0.0436428 -0.306051 1.30534e-05  -0.0510216 -0.305633 1.68085e-05  -0.0524404 -0.328001 1.48714e-05  -0.0450537 -0.328426 6.19888e-06  -0.0445848 -0.320969 1.5676e-05  -0.0524447 -0.327999 8.40425e-06  -0.0519729 -0.320546 1.98781e-05  -0.0445886 -0.320973 8.46386e-06  -0.0519764 -0.320548 1.03712e-05  -0.0533586 -0.342877 6.88434e-06  -0.0459676 -0.343304 1.90735e-06  -0.0455079 -0.335867 8.04663e-06  -0.0533602 -0.342872 3.8147e-06  -0.0529013 -0.335437 1.06096e-05  -0.0455134 -0.335869 4.58956e-06  -0.0529053 -0.335439 5.30481e-06  -0.0542579 -0.357717 1.49012e-07  -0.0468657 -0.358144 1.01328e-06  -0.0464156 -0.350728 2.11596e-06  -0.054261 -0.357712 8.34465e-07  -0.0538099 -0.350294 3.9041e-06  -0.0464187 -0.350728 4.76837e-07  -0.0538125 -0.350295 2.20537e-06  -0.0551491 -0.372523 -6.79493e-06  -0.0477574 -0.372946 -2.86102e-06  -0.0473108 -0.365547 -2.41399e-06  -0.0551512 -0.372517 -2.20537e-06  -0.0547016 -0.365116 -2.98023e-06  -0.0473123 -0.365549 -4.76837e-07  -0.0547059 -0.365117 -1.96695e-06  -0.000674047 -0.00116727 0.000402808  0 0 0  -0.000414528 -0.000954062 0.000133038  -0.000131223 -0.00018698 0.000147641  0 0 0  -0.000666939 -0.00121057 0.000197589  -0.000206672 -0.00033778 0.000220299  0 0 0  -0.000128649 -0.000207186 7.19428e-05  -0.000203218 -0.000360012 0.000107884  -0.00214715 -0.00427875 0.000668198  -0.00133979 -0.00398457 0.00022167  -0.000834674 -0.0022288 0.000371993  -0.00213261 -0.0043689 0.00033021  -0.00133704 -0.00256085 0.000555336  -0.00082764 -0.00229579 0.000183463  -0.00132553 -0.00263336 0.000273466  -0.00396895 -0.00864577 0.000792354  -0.0025261 -0.00838995 0.000264227  -0.00192502 -0.00594878 0.000499696  -0.00395289 -0.00877139 0.000393569  -0.00303897 -0.00633162 0.000744015  -0.00191507 -0.00605661 0.000247359  -0.00302354 -0.00644693 0.000369012  -0.00582093 -0.0140242 0.000815302  -0.00377157 -0.0138512 0.000273108  -0.00315744 -0.0108636 0.000544667  -0.0058113 -0.0141707 0.0004071  -0.00490132 -0.0112081 0.000811368  -0.0031499 -0.0110002 0.000271142  -0.00488853 -0.0113514 0.000404358  -0.00759697 -0.0203609 0.000785351  -0.00499022 -0.0202625 0.000263631  -0.00438815 -0.0167862 0.000539094  -0.00759709 -0.0205173 0.00039345  -0.00671887 -0.0170685 0.000803798  -0.00438648 -0.0169396 0.000269592  -0.00671494 -0.0172262 0.000402093  -0.00929117 -0.0276245 0.000733435  -0.00616926 -0.027583 0.00024569  -0.00557798 -0.023651 0.000509411  -0.00929886 -0.0277802 0.000367343  -0.00845331 -0.0238734 0.000760734  -0.00558388 -0.0238097 0.000255108  -0.00845754 -0.0240357 0.000380754  -0.0109161 -0.0357652 0.000674605  -0.00732094 -0.0357695 0.000225782  -0.00673622 -0.0314115 0.00047037  -0.0109295 -0.0359165 0.000337422  -0.0101109 -0.0315822 0.000704497  -0.00674772 -0.0315695 0.000235796  -0.0101224 -0.0317414 0.000352681  -0.0124847 -0.0447282 0.000615656  -0.00845408 -0.0447708 0.000205994  -0.00787479 -0.0400191 0.000430256  -0.0125022 -0.0448709 0.000308394  -0.0117059 -0.0401412 0.00064525  -0.00788903 -0.0401701 0.000216007  -0.0117226 -0.0402939 0.000322938  -0.0140069 -0.0544511 0.000559956  -0.00957751 -0.0545286 0.000185251  -0.00899959 -0.0494153 0.000390828  -0.0140264 -0.0545834 0.000280678  -0.0132507 -0.0494923 0.000587523  -0.00901687 -0.0495573 0.000195444  -0.0132695 -0.0496347 0.000293911  -0.0154887 -0.0648725 0.000507355  -0.0106932 -0.0649836 0.000168383  -0.010118 -0.0595392 0.000353336  -0.0155082 -0.0649937 0.000253856  -0.0147517 -0.0595714 0.000532985  -0.0101362 -0.0596709 0.000177264  -0.0147724 -0.0597039 0.00026691  -0.0169336 -0.0759325 0.000458032  -0.0118047 -0.0760749 0.00015223  -0.0112313 -0.0703304 0.000319362  -0.0169533 -0.0760432 0.000230312  -0.0162147 -0.0703192 0.000482589  -0.0112505 -0.0704516 0.000160038  -0.0162352 -0.0704412 0.000241578  -0.0183442 -0.0875701 0.000412554  -0.0129123 -0.0877432 0.000136673  -0.0123402 -0.0817293 0.000287384  -0.0183626 -0.0876697 0.000205636  -0.0176425 -0.0816764 0.000434548  -0.0123597 -0.0818392 0.000143766  -0.0176613 -0.0817863 0.000217438  -0.0197212 -0.0997304 0.0003694  -0.0140166 -0.0999318 0.000120282  -0.0134485 -0.093675 0.000257432  -0.0197396 -0.0998186 0.000184417  -0.0190358 -0.093581 0.0003905  -0.0134652 -0.0937745 0.000128746  -0.0190549 -0.0936816 0.000195861  -0.0210674 -0.112354 0.000330091  -0.0151159 -0.112585 0.000109375  -0.0145507 -0.106112 0.000229448  -0.021085 -0.112436 0.00016427  -0.0203977 -0.10598 0.000349134  -0.0145662 -0.106203 0.00011456  -0.0204161 -0.106071 0.000174344  -0.0223823 -0.125395 0.000292271  -0.0162107 -0.125652 9.57251e-05  -0.0156485 -0.118988 0.000203699  -0.0223985 -0.125466 0.000146568  -0.0217277 -0.11882 0.000311345  -0.0156642 -0.119069 0.000101984  -0.0217451 -0.1189 0.000155985  -0.0236654 -0.1388 0.000257701  -0.0172975 -0.139082 8.46982e-05  -0.0167398 -0.132251 0.00017938  -0.0236812 -0.138863 0.00012815  -0.023028 -0.13205 0.000274837  -0.0167547 -0.132323 9.00626e-05  -0.0230433 -0.13212 0.000138044  -0.024919 -0.152524 0.000224769  -0.0183775 -0.152827 7.27177e-05  -0.0178246 -0.145853 0.000157028  -0.0249329 -0.152579 0.000112295  -0.024296 -0.145619 0.00024119  -0.017839 -0.145916 7.82609e-05  -0.0243106 -0.145682 0.000120342  -0.0261421 -0.166525 0.000194639  -0.0194473 -0.166846 6.25849e-05  -0.0189021 -0.159748 0.000136197  -0.0261536 -0.166569 9.7394e-05  -0.0255344 -0.159486 0.000209093  -0.0189135 -0.159804 6.83069e-05  -0.0255477 -0.159541 0.000103891  -0.0273328 -0.180754 0.000166774  -0.0205059 -0.181097 5.40614e-05  -0.0199668 -0.173895 0.000116765  -0.0273433 -0.180794 8.41618e-05  -0.0267401 -0.173606 0.000180483  -0.019978 -0.173944 5.85914e-05  -0.0267515 -0.173655 9.04202e-05  -0.028492 -0.195183 0.000141501  -0.0215518 -0.195539 4.60148e-05  -0.0210204 -0.188253 9.951e-05  -0.028502 -0.195216 6.99759e-05  -0.027916 -0.18794 0.000154138  -0.0210307 -0.188295 4.98295e-05  -0.0279264 -0.187981 7.77245e-05  -0.0296211 -0.209769 0.000117362  -0.0225849 -0.210141 3.82066e-05  -0.0220621 -0.202786 8.25822e-05  -0.0296307 -0.209795 5.82337e-05  -0.0290592 -0.202452 0.000128955  -0.0220711 -0.202821 4.18425e-05  -0.0290701 -0.202487 6.44326e-05  -0.0307205 -0.224483 9.68277e-05  -0.0236027 -0.224865 3.0756e-05  -0.0230863 -0.21746 6.84857e-05  -0.0307276 -0.224504 4.86374e-05  -0.0301738 -0.217106 0.00010705  -0.0230956 -0.217488 3.48687e-05  -0.0301824 -0.217134 5.3525e-05  -0.0317903 -0.239293 7.73072e-05  -0.0246058 -0.239687 2.56896e-05  -0.0240998 -0.23224 5.45084e-05  -0.0317974 -0.239309 3.8743e-05  -0.0312591 -0.231871 8.61883e-05  -0.024106 -0.232265 2.67029e-05  -0.0312662 -0.231894 4.30942e-05  -0.0328329 -0.254172 6.09457e-05  -0.0255933 -0.254575 1.88947e-05  -0.0250952 -0.247103 4.36306e-05  -0.0328379 -0.254184 3.0756e-05  -0.0323138 -0.246719 6.88434e-05  -0.0251021 -0.247123 2.16365e-05  -0.0323212 -0.246739 3.3915e-05  -0.033848 -0.269096 4.51803e-05  -0.0265656 -0.269506 1.52588e-05  -0.0260756 -0.262021 3.30806e-05  -0.0338507 -0.269104 2.3663e-05  -0.0333421 -0.261624 5.31375e-05  -0.026082 -0.262035 1.63913e-05  -0.0333469 -0.261639 2.64645e-05  -0.0348363 -0.284044 3.32296e-05  -0.0275199 -0.28446 1.00136e-05  -0.0270405 -0.276968 2.47061e-05  -0.0348392 -0.284049 1.70469e-05  -0.0343444 -0.276563 3.87132e-05  -0.0270457 -0.27698 1.19805e-05  -0.0343482 -0.276574 2.02656e-05  -0.0358021 -0.298996 2.2918e-05  -0.0284603 -0.299418 7.62939e-06  -0.0279899 -0.291929 1.63615e-05  -0.035805 -0.298999 1.23382e-05  -0.0353217 -0.291514 2.79248e-05  -0.0279937 -0.291938 8.70228e-06  -0.0353251 -0.291522 1.37091e-05  -0.0367477 -0.313938 1.40071e-05  -0.0293887 -0.314362 3.75509e-06  -0.0289257 -0.306885 1.13249e-05  -0.0367489 -0.313937 7.39098e-06  -0.0362761 -0.306463 1.86861e-05  -0.0289259 -0.306891 5.54323e-06  -0.0362792 -0.306469 9.41753e-06  -0.0376718 -0.328854 8.43406e-06  -0.0303035 -0.329283 2.80142e-06  -0.0298445 -0.321821 6.4075e-06  -0.0376744 -0.328854 3.39746e-06  -0.0372117 -0.321394 1.09673e-05  -0.0298474 -0.321824 3.51667e-06  -0.0372131 -0.321398 5.36442e-06  -0.0385821 -0.343739 3.8743e-06  -0.0312054 -0.344167 4.17233e-07  -0.0307529 -0.336726 2.6226e-06  -0.038583 -0.343737 1.84774e-06  -0.0381291 -0.336295 4.70877e-06  -0.030756 -0.336729 2.38419e-06  -0.03813 -0.336298 2.92063e-06  -0.0394769 -0.35858 -1.04308e-06  -0.0320973 -0.35901 3.57628e-07  -0.0316482 -0.351592 2.08616e-07  -0.0394785 -0.358577 -5.36442e-07  -0.0390301 -0.351159 1.2219e-06  -0.0316525 -0.351593 -9.53674e-07  -0.0390317 -0.35116 7.7486e-07  -0.0403671 -0.373378 -3.96371e-06  -0.0329821 -0.373804 5.36442e-07  -0.0325375 -0.366411 -9.53674e-07  -0.0403669 -0.373374 -2.5034e-06  -0.0399203 -0.365979 -2.77162e-06  -0.0325401 -0.366413 -5.36442e-07  -0.039923 -0.365981 -1.43051e-06  -0.00018657 -0.000784129 0.000133961  0 0 0  3.2261e-05 -0.000797421 -7.15256e-07  1.08406e-05 -9.53376e-05 -1.81794e-06  0 0 0  -0.000185512 -0.000821441 6.58631e-05  -5.70528e-05 -0.000109166 7.31051e-05  0 0 0  9.67085e-06 -0.000113428 -1.19209e-06  -5.65797e-05 -0.000127941 3.57628e-05  -0.000615388 -0.0037041 0.000224233  9.10163e-05 -0.00374904 -1.19209e-07  6.29574e-05 -0.00202611 -2.23517e-06  -0.00061208 -0.0037818 0.000111103  -0.000376999 -0.00205603 0.000185609  6.11842e-05 -0.00208756 -3.57628e-07  -0.000373706 -0.00211877 9.10759e-05  -0.00118312 -0.00807559 0.000268161  0.000133902 -0.00816795 1.90735e-06  0.000121474 -0.00572112 1.37091e-06  -0.0011805 -0.00818986 0.00013274  -0.000888169 -0.00574797 0.000250936  0.000116676 -0.00582135 8.9407e-07  -0.000885129 -0.00585046 0.000124514  -0.00180262 -0.013554 0.000276983  0.000132442 -0.0136912 2.32458e-06  0.000145763 -0.0106779 5.21541e-06  -0.00180382 -0.0136901 0.000138462  -0.00148958 -0.0106865 0.000275224  0.000139415 -0.0108079 3.03984e-06  -0.00148904 -0.0108189 0.000137269  -0.00243783 -0.0199987 0.000266314  7.32541e-05 -0.0201752 3.33786e-06  0.000118077 -0.0166683 6.25849e-06  -0.00244278 -0.0201481 0.000132918  -0.00211954 -0.0166523 0.00027287  0.000110626 -0.0168169 3.39746e-06  -0.00212193 -0.0168027 0.000136793  -0.00308543 -0.0273575 0.00024724  -4.8399e-05 -0.0275634 2.74181e-06  2.8789e-05 -0.0236008 5.42402e-06  -0.00309378 -0.0275104 0.000123441  -0.00275952 -0.0235597 0.000257462  2.06232e-05 -0.023757 2.74181e-06  -0.00276703 -0.0237166 0.000129402  -0.00375158 -0.0355865 0.00022614  -0.000234127 -0.0358143 5.96046e-07  -0.000122726 -0.0314268 2.77162e-06  -0.00376278 -0.035735 0.000112712  -0.00341499 -0.0313592 0.000236511  -0.000133634 -0.0315825 1.19209e-06  -0.00342578 -0.0315163 0.000118911  -0.00444257 -0.0446322 0.000204414  -0.000484884 -0.0448787 -7.7486e-07  -0.000339985 -0.0400972 1.78814e-07  -0.00445598 -0.0447737 0.000102878  -0.00409287 -0.0400037 0.000215024  -0.00035125 -0.040247 5.36442e-07  -0.0041061 -0.040154 0.000107765  -0.00516212 -0.054435 0.000184  -0.000801086 -0.0546998 -1.37091e-06  -0.000623584 -0.0495553 -2.563e-06  -0.00517535 -0.054567 9.23872e-05  -0.00479829 -0.0494358 0.000193983  -0.000635266 -0.049697 -1.2517e-06  -0.00481188 -0.0495777 9.69768e-05  -0.00591004 -0.0649357 0.000164717  -0.00118077 -0.0652178 -3.45707e-06  -0.000972033 -0.0597427 -5.0962e-06  -0.00592363 -0.065057 8.25524e-05  -0.00553155 -0.0595963 0.000174195  -0.000983 -0.0598741 -2.86102e-06  -0.00554645 -0.0597276 8.73804e-05  -0.00668633 -0.0760725 0.000147283  -0.00162089 -0.0763708 -2.6226e-06  -0.00138342 -0.0705962 -7.30157e-06  -0.0067004 -0.0761836 7.40886e-05  -0.00629425 -0.0704228 0.000155956  -0.00139284 -0.0707169 -3.27826e-06  -0.00630856 -0.0705433 7.79033e-05  -0.00749063 -0.0877852 0.000131518  -0.0021193 -0.0880996 -4.88758e-06  -0.00185108 -0.0820547 -8.58307e-06  -0.00750363 -0.0878858 6.53267e-05  -0.00708485 -0.0818543 0.000139296  -0.00186217 -0.0821657 -3.8147e-06  -0.00709856 -0.0819651 6.96182e-05  -0.00832009 -0.100017 0.000116289  -0.00267148 -0.100346 -4.58956e-06  -0.00237906 -0.0940601 -9.50694e-06  -0.00833273 -0.100108 5.87106e-05  -0.00790226 -0.0938335 0.000123739  -0.00238907 -0.0941604 -5.24521e-06  -0.00791419 -0.0939336 6.21676e-05  -0.00917292 -0.112711 0.00010249  -0.00327456 -0.113055 -5.00679e-06  -0.00295794 -0.106554 -1.08778e-05  -0.0091846 -0.112791 5.16176e-05  -0.00874209 -0.106303 0.000109613  -0.00296617 -0.106644 -4.94719e-06  -0.00875568 -0.106393 5.48363e-05  -0.0100466 -0.125815 8.98838e-05  -0.00392401 -0.126172 -6.31809e-06  -0.00358474 -0.119483 -1.14143e-05  -0.0100574 -0.125886 4.43459e-05  -0.00960648 -0.119208 9.62615e-05  -0.00359333 -0.119565 -5.54323e-06  -0.00961864 -0.11929 4.83394e-05  -0.0109369 -0.139281 7.81715e-05  -0.00461531 -0.139651 -5.78165e-06  -0.00425553 -0.132797 -1.12653e-05  -0.0109473 -0.139344 3.95775e-05  -0.0104902 -0.132499 8.36849e-05  -0.00426447 -0.132869 -4.88758e-06  -0.0105002 -0.132571 4.17829e-05  -0.0118434 -0.15306 6.77109e-05  -0.00534391 -0.153442 -5.54323e-06  -0.00496864 -0.146445 -1.09076e-05  -0.0118518 -0.153115 3.27826e-05  -0.0113869 -0.146128 7.25985e-05  -0.00497484 -0.146509 -5.30481e-06  -0.0113981 -0.146191 3.62992e-05  -0.0127614 -0.16711 5.85318e-05  -0.00610638 -0.167501 -5.72205e-06  -0.00571442 -0.160383 -1.14143e-05  -0.0127692 -0.167156 2.89679e-05  -0.0122995 -0.160047 6.26147e-05  -0.00572181 -0.16044 -5.36442e-06  -0.0123096 -0.160102 3.12328e-05  -0.0136881 -0.181388 4.88162e-05  -0.00689793 -0.181788 -5.126e-06  -0.00649405 -0.174569 -1.01328e-05  -0.0136943 -0.181427 2.52724e-05  -0.0132225 -0.174216 5.35548e-05  -0.00649977 -0.174617 -5.06639e-06  -0.0132298 -0.174265 2.70605e-05  -0.0146196 -0.195855 4.071e-05  -0.00771213 -0.196264 -5.42402e-06  -0.00729895 -0.188962 -1.01328e-05  -0.0146255 -0.195887 1.97291e-05  -0.0141523 -0.188593 4.41074e-05  -0.00730276 -0.189003 -5.00679e-06  -0.014159 -0.188636 2.23517e-05  -0.0155568 -0.210478 3.28124e-05  -0.00854874 -0.210894 -3.69549e-06  -0.00812435 -0.203524 -9.26852e-06  -0.0155613 -0.210507 1.65701e-05  -0.0150864 -0.203143 3.6478e-05  -0.00812745 -0.20356 -4.41074e-06  -0.0150928 -0.203178 1.81794e-05  -0.0164914 -0.225225 2.67327e-05  -0.00940132 -0.225644 -3.03984e-06  -0.00896764 -0.218225 -8.73208e-06  -0.0164964 -0.225246 1.39475e-05  -0.0160229 -0.217832 2.97427e-05  -0.00897288 -0.218254 -4.35114e-06  -0.0160282 -0.217861 1.49608e-05  -0.0174284 -0.24006 2.0206e-05  -0.0102665 -0.240486 -3.99351e-06  -0.00982881 -0.233029 -8.82149e-06  -0.017432 -0.240079 9.41753e-06  -0.0169587 -0.232625 2.41995e-05  -0.00983119 -0.233054 -4.52995e-06  -0.0169647 -0.232651 1.19805e-05  -0.0183604 -0.254964 1.60635e-05  -0.0111415 -0.255392 -4.47035e-06  -0.0107012 -0.247913 -7.36117e-06  -0.0183632 -0.254978 8.10623e-06  -0.0178933 -0.247502 1.71959e-05  -0.0107024 -0.247932 -3.99351e-06  -0.017899 -0.24752 8.9407e-06  -0.0192902 -0.26991 1.16229e-05  -0.0120251 -0.270338 -2.38419e-06  -0.0115798 -0.262845 -5.96046e-06  -0.0192921 -0.269917 6.13928e-06  -0.0188248 -0.262427 1.35303e-05  -0.0115848 -0.262861 -3.15905e-06  -0.0188282 -0.262442 6.61612e-06  -0.0202124 -0.284873 7.48038e-06  -0.0129128 -0.285305 -2.38419e-06  -0.0124669 -0.277806 -5.60284e-06  -0.0202129 -0.284879 4.47035e-06  -0.019752 -0.277382 9.65595e-06  -0.0124698 -0.277819 -1.78814e-06  -0.0197527 -0.277395 5.126e-06  -0.021127 -0.299837 4.52995e-06  -0.0138004 -0.300271 -2.80142e-06  -0.0133524 -0.292779 -5.00679e-06  -0.0211298 -0.299841 3.03984e-06  -0.0206709 -0.292351 6.28829e-06  -0.0133562 -0.292787 -1.54972e-06  -0.0206723 -0.292359 3.63588e-06  -0.0220375 -0.314792 2.5332e-06  -0.0146906 -0.315223 -1.90735e-06  -0.0142446 -0.307741 -3.8445e-06  -0.0220377 -0.31479 1.49012e-06  -0.0215828 -0.30731 4.35114e-06  -0.0142448 -0.307748 -1.19209e-06  -0.0215847 -0.307317 1.66893e-06  -0.022939 -0.329714 1.2219e-06  -0.0155797 -0.330147 -1.78814e-06  -0.0151343 -0.322683 -2.65241e-06  -0.0229394 -0.329713 8.9407e-07  -0.0224886 -0.32225 1.37091e-06  -0.015135 -0.322688 -7.7486e-07  -0.0224881 -0.322254 1.01328e-06  -0.0238342 -0.344605 -3.57628e-07  -0.0164626 -0.345036 1.78814e-07  -0.0160184 -0.337593 -1.84774e-06  -0.0238328 -0.344601 -5.96046e-07  -0.0233881 -0.337158 5.96046e-07  -0.016022 -0.337596 -3.57628e-07  -0.0233865 -0.337161 9.53674e-07  -0.0247197 -0.359449 -2.98023e-07  -0.0173447 -0.359881 4.17233e-07  -0.0169039 -0.352462 -1.37091e-06  -0.02472 -0.359445 7.15256e-07  -0.0242751 -0.352026 1.19209e-07  -0.0169051 -0.352463 -3.57628e-07  -0.0242767 -0.352028 3.57628e-07  -0.0255995 -0.374237 -1.16229e-06  -0.0182228 -0.37467 1.19209e-06  -0.0177836 -0.36728 1.2517e-06  -0.0256028 -0.374237 -7.7486e-07  -0.0251596 -0.366844 -6.55651e-07  -0.0177836 -0.367281 6.55651e-07  -0.0251601 -0.366846 -3.57628e-07  0.00025472 -0.000841975 -0.000137866  0 0 0  0.000479445 -0.00106514 -0.000132561  0.000152722 -0.000250161 -0.000150472  0 0 0  0.000250623 -0.000877976 -6.74129e-05  7.78958e-05 -0.000140905 -7.689e-05  0 0 0  0.000148796 -0.00026989 -7.37309e-05  7.62269e-05 -0.000158846 -3.74317e-05  0.000805736 -0.00380296 -0.00022465  0.00152171 -0.00417918 -0.00021863  0.000961512 -0.00238758 -0.000372112  0.000795871 -0.00388086 -0.000111103  0.0005043 -0.00213563 -0.000188202  0.000949293 -0.00245214 -0.000182807  0.000497118 -0.00219703 -9.26852e-05  0.00145942 -0.00820988 -0.000260174  0.00278708 -0.00865072 -0.000258327  0.00216392 -0.00617987 -0.000491679  0.00144771 -0.0083214 -0.000129521  0.00113037 -0.00586444 -0.00024718  0.00214404 -0.00628448 -0.000243545  0.00111896 -0.00596595 -0.000122011  0.00207663 -0.0137171 -0.000263751  0.00402051 -0.0141732 -0.000265181  0.00343671 -0.0111572 -0.000529826  0.00206381 -0.0138527 -0.00013113  0.00177836 -0.0108351 -0.000264168  0.00341758 -0.0112906 -0.000263572  0.00176576 -0.0109656 -0.00013113  0.00259387 -0.0201958 -0.000253528  0.00511348 -0.0206518 -0.000254989  0.00460285 -0.0171447 -0.000522763  0.00258255 -0.0203438 -0.000126362  0.00234944 -0.0168326 -0.00025931  0.00458789 -0.0172948 -0.00026089  0.00233704 -0.0169812 -0.0001297  0.00299895 -0.0275916 -0.000238061  0.00604552 -0.0280468 -0.000240028  0.00561166 -0.0240791 -0.000495374  0.00299001 -0.0277427 -0.000118732  0.00281149 -0.0237746 -0.00024575  0.00560033 -0.0242358 -0.000248015  0.00280011 -0.0239304 -0.000122786  0.00329512 -0.0358597 -0.00022167  0.00682187 -0.0363143 -0.000222683  0.00646144 -0.0319174 -0.000461996  0.00328672 -0.0360075 -0.000110805  0.00316036 -0.0316132 -0.000230461  0.00645244 -0.0320733 -0.000231087  0.00315249 -0.0317681 -0.000115454  0.00348449 -0.0449474 -0.000206798  0.0074513 -0.0454022 -0.000206232  0.00716233 -0.0406083 -0.000427872  0.0034771 -0.0450889 -0.000103056  0.00340301 -0.0402987 -0.000214279  0.00715506 -0.0407581 -0.000213325  0.00339478 -0.040448 -0.000106871  0.00357211 -0.0547974 -0.000191212  0.0079416 -0.0552514 -0.0001899  0.00771999 -0.0500927 -0.000395  0.0035646 -0.0549285 -9.60231e-05  0.00354171 -0.0497743 -0.000199348  0.00771427 -0.050234 -0.000197649  0.00353312 -0.0499156 -9.91225e-05  0.00356138 -0.0653437 -0.000177145  0.00829887 -0.0657995 -0.000174522  0.00814331 -0.0603091 -0.00036335  0.00355411 -0.0654653 -8.80957e-05  0.00357902 -0.0599799 -0.000184476  0.00813687 -0.0604407 -0.00018096  0.00357151 -0.0601116 -9.23872e-05  0.00345707 -0.0765267 -0.000162601  0.00853145 -0.0769842 -0.00015986  0.00843644 -0.0711934 -0.000332743  0.00344992 -0.0766372 -8.14199e-05  0.00352097 -0.0708525 -0.00017032  0.00843036 -0.0713147 -0.000166059  0.00351417 -0.070974 -8.49366e-05  0.00326419 -0.0882854 -0.000149637  0.0086447 -0.0887446 -0.000145078  0.00860679 -0.0826835 -0.000303626  0.00325799 -0.0883855 -7.54595e-05  0.00337148 -0.0823308 -0.000156403  0.00860286 -0.0827948 -0.000151813  0.00336492 -0.0824417 -7.76649e-05  0.00298774 -0.10056 -0.000136971  0.00864458 -0.101022 -0.000131071  0.00866187 -0.0947199 -0.000276685  0.0029819 -0.100651 -6.77109e-05  0.00313675 -0.0943556 -0.000143528  0.00865769 -0.0948209 -0.000139058  0.00313091 -0.0944559 -7.15852e-05  0.00263429 -0.113295 -0.000124335  0.00853932 -0.113759 -0.000118732  0.00860858 -0.107244 -0.00025022  0.00262833 -0.113377 -6.26445e-05  0.00282073 -0.106868 -0.000130683  0.00860465 -0.107335 -0.000124812  0.00281489 -0.106958 -6.53863e-05  0.00220776 -0.126441 -0.000112116  0.00833821 -0.126905 -0.000106454  0.00845504 -0.120203 -0.000225842  0.00220239 -0.126512 -5.48959e-05  0.00242937 -0.119814 -0.000118345  0.00845027 -0.120283 -0.000111997  0.00242412 -0.119895 -5.91278e-05  0.00171518 -0.139943 -0.000100732  0.00804424 -0.140409 -9.46522e-05  0.00820613 -0.133542 -0.000201702  0.00171041 -0.140005 -5.04851e-05  0.00197029 -0.133143 -0.000106215  0.00820231 -0.133615 -0.000100255  0.00196481 -0.133217 -5.33462e-05  0.00116181 -0.153756 -9.0003e-05  0.00766802 -0.154223 -8.44002e-05  0.00786829 -0.147213 -0.000179231  0.00115824 -0.153811 -4.44651e-05  0.00144601 -0.146807 -9.53376e-05  0.00786567 -0.147279 -8.97646e-05  0.00144172 -0.146871 -4.79221e-05  0.000552893 -0.167835 -7.93636e-05  0.00721598 -0.168303 -7.34925e-05  0.0074513 -0.161174 -0.00015825  0.000550985 -0.167883 -3.98159e-05  0.000865221 -0.160758 -8.4579e-05  0.00745082 -0.161231 -7.90954e-05  0.000860929 -0.160815 -4.23193e-05  -0.000102997 -0.182141 -6.87242e-05  0.00669503 -0.182607 -6.39558e-05  0.0069654 -0.17538 -0.000137687  -0.000104666 -0.182182 -3.40343e-05  0.000231266 -0.174957 -7.40588e-05  0.00696445 -0.175428 -6.86049e-05  0.000229836 -0.175005 -3.68357e-05  -0.000803232 -0.196634 -6.00219e-05  0.00611138 -0.197099 -5.68628e-05  0.00641298 -0.189788 -0.000119835  -0.000804901 -0.196667 -2.99811e-05  -0.000447989 -0.18936 -6.50287e-05  0.00640941 -0.189831 -5.9545e-05  -0.000449181 -0.189402 -3.23057e-05  -0.00154018 -0.211277 -5.16176e-05  0.00547457 -0.21174 -4.69685e-05  0.00579858 -0.204366 -0.000102311  -0.00154018 -0.211304 -2.44975e-05  -0.00116563 -0.203931 -5.62668e-05  0.00580049 -0.204402 -5.07832e-05  -0.00116706 -0.203968 -2.86698e-05  -0.00230837 -0.22604 -4.35412e-05  0.00478911 -0.226502 -3.95179e-05  0.00513911 -0.219078 -8.65161e-05  -0.0023098 -0.226063 -2.12789e-05  -0.00191808 -0.21864 -4.72963e-05  0.00513768 -0.219107 -4.30346e-05  -0.0019207 -0.21867 -2.32458e-05  -0.00310493 -0.240893 -3.6031e-05  0.00406289 -0.241352 -3.06964e-05  0.00443053 -0.233891 -7.1615e-05  -0.00310469 -0.24091 -1.84774e-05  -0.00270247 -0.233451 -4.00245e-05  0.00443006 -0.233916 -3.52859e-05  -0.00270247 -0.233475 -1.99676e-05  -0.00392342 -0.255808 -2.94447e-05  0.00330091 -0.256263 -2.59876e-05  0.003685 -0.24878 -5.72503e-05  -0.00392318 -0.255821 -1.49012e-05  -0.00351119 -0.248338 -3.32296e-05  0.00368667 -0.2488 -2.96235e-05  -0.00351167 -0.248357 -1.64509e-05  -0.00476098 -0.270761 -2.28882e-05  0.00250793 -0.271214 -1.90735e-05  0.00290656 -0.263718 -4.58062e-05  -0.0047617 -0.270772 -1.18017e-05  -0.00434065 -0.263275 -2.64943e-05  0.00290751 -0.263735 -2.28286e-05  -0.00433969 -0.263292 -1.3411e-05  -0.00561333 -0.285733 -1.78814e-05  0.00169158 -0.286182 -1.53184e-05  0.00210166 -0.278684 -3.5733e-05  -0.00561213 -0.285739 -7.689e-06  -0.00518513 -0.278241 -2.0504e-05  0.00210214 -0.278697 -1.74642e-05  -0.00518584 -0.278253 -9.17912e-06  -0.00647473 -0.300703 -1.33216e-05  0.000855923 -0.301151 -1.2219e-05  0.00127554 -0.293658 -2.63751e-05  -0.00647449 -0.300707 -6.55651e-06  -0.006042 -0.293213 -1.48118e-05  0.00127673 -0.293667 -1.3411e-05  -0.006042 -0.293223 -7.98702e-06  -0.00734568 -0.31566 -8.40425e-06  7.15256e-06 -0.316104 -6.4373e-06  0.000431061 -0.308622 -1.8388e-05  -0.00734448 -0.31566 -4.41074e-06  -0.00690937 -0.308179 -1.19507e-05  0.000433207 -0.308629 -9.41753e-06  -0.00690866 -0.308185 -5.48363e-06  -0.00821877 -0.330587 -5.78165e-06  -0.000854731 -0.331028 -5.72205e-06  -0.000424623 -0.323564 -1.19209e-05  -0.00821805 -0.330586 -2.74181e-06  -0.00778174 -0.323121 -7.42078e-06  -0.000422239 -0.323569 -5.84126e-06  -0.00778055 -0.323126 -3.93391e-06  -0.00909543 -0.345477 -3.09944e-06  -0.001724 -0.345915 -2.44379e-06  -0.00128937 -0.338472 -6.22869e-06  -0.00909472 -0.345475 -1.37091e-06  -0.00865746 -0.33803 -4.32134e-06  -0.00128889 -0.338475 -2.80142e-06  -0.00865602 -0.338034 -1.84774e-06  -0.00997186 -0.360323 -5.66244e-07  -0.00259614 -0.360758 -1.19209e-07  -0.00215864 -0.353339 -2.89083e-06  -0.00997114 -0.360318 -1.13249e-06  -0.00953436 -0.352899 -2.02656e-06  -0.0021596 -0.353341 -1.78814e-06  -0.00953174 -0.352902 -5.96046e-08  -0.0108445 -0.375112 1.37091e-06  -0.00346446 -0.375552 2.86102e-06  -0.00303221 -0.368158 2.23517e-06  -0.0108442 -0.375108 2.98023e-07  -0.0104084 -0.367717 1.54972e-06  -0.00303078 -0.368161 2.68221e-06  -0.0104086 -0.36772 9.53674e-07  0.000744388 -0.00133467 -0.000400662  0 0 0  0.00102983 -0.00183511 -0.000258625  0.000325866 -0.00071305 -0.000290245  0 0 0  0.000734791 -0.00137663 -0.000196278  0.000227921 -0.000434101 -0.000221014  0 0 0  0.000320949 -0.000737131 -0.000141799  0.000224039 -0.000455618 -0.000107825  0.00233465 -0.00457191 -0.000659704  0.00317764 -0.00533134 -0.000428021  0.00202766 -0.00338036 -0.000724226  0.00231341 -0.00465715 -0.000325441  0.00146581 -0.00279552 -0.000550628  0.00200865 -0.00345629 -0.000357151  0.00144961 -0.0028649 -0.000270665  0.00422838 -0.00903463 -0.000774831  0.00570509 -0.00983393 -0.000507593  0.00446332 -0.00734931 -0.00096336  0.00420299 -0.00915408 -0.000384748  0.00327298 -0.00667226 -0.000731051  0.00443423 -0.00746709 -0.000476956  0.00324878 -0.00678271 -0.000361621  0.00606024 -0.0145072 -0.000793606  0.00813502 -0.0152702 -0.000524342  0.00697613 -0.0122855 -0.00104651  0.00603813 -0.0146471 -0.000395894  0.00516504 -0.0116422 -0.00079149  0.00694641 -0.01243 -0.000521123  0.00513947 -0.0117804 -0.000394225  0.00770658 -0.020945 -0.000765055  0.0103362 -0.0216743 -0.000508308  0.00928867 -0.0181939 -0.00103807  0.00769007 -0.0210971 -0.000382721  0.00690961 -0.0176001 -0.000782639  0.00926697 -0.0183511 -0.000518441  0.00688899 -0.0177533 -0.000390589  0.00914913 -0.0283213 -0.000718832  0.0122938 -0.0290222 -0.000477731  0.0113598 -0.0250714 -0.000987619  0.00913882 -0.0284744 -0.000358999  0.00845265 -0.0245125 -0.000743181  0.0113453 -0.0252319 -0.000494242  0.0084402 -0.0246707 -0.000371873  0.0103978 -0.0365842 -0.000667036  0.0140164 -0.0372637 -0.000444055  0.0131918 -0.0328762 -0.000922024  0.0103902 -0.036733 -0.000333071  0.00979716 -0.0323393 -0.000693053  0.0131834 -0.0330338 -0.00046128  0.00978863 -0.0324953 -0.00034672  0.0114611 -0.0456776 -0.000615567  0.015515 -0.0463392 -0.000409245  0.0147978 -0.0415495 -0.000852913  0.0114571 -0.0458194 -0.000307798  0.0109521 -0.0410257 -0.000641465  0.014792 -0.0416999 -0.00042671  0.0109465 -0.0411759 -0.000320673  0.0123503 -0.0555387 -0.000565469  0.0168037 -0.0561832 -0.000376225  0.0161879 -0.0510266 -0.000784636  0.0123484 -0.0556705 -0.000282824  0.0119282 -0.0505107 -0.000590175  0.016185 -0.0511678 -0.000392616  0.0119244 -0.0506516 -0.000294983  0.0130738 -0.0660998 -0.000518113  0.0178914 -0.0667311 -0.00034374  0.0173727 -0.0612409 -0.000719368  0.013072 -0.0662223 -0.000258923  0.0127324 -0.0607294 -0.000541687  0.0173713 -0.0613722 -0.000359654  0.0127308 -0.0608606 -0.00027132  0.01364 -0.0773 -0.000473052  0.01879 -0.0779181 -0.000313342  0.0183636 -0.0721268 -0.00065735  0.0136386 -0.0774114 -0.000237584  0.0133755 -0.0716183 -0.000495374  0.0183635 -0.0722485 -0.00032872  0.013375 -0.0717395 -0.000247657  0.0140558 -0.0890759 -0.000430167  0.019508 -0.0896829 -0.000284135  0.0191708 -0.0836203 -0.000598401  0.0140557 -0.0891767 -0.000215471  0.0138665 -0.0831144 -0.000451475  0.0191718 -0.0837311 -0.000299275  0.0138652 -0.0832244 -0.000225246  0.0143305 -0.101368 -0.000390112  0.0200583 -0.101964 -0.000257373  0.0198011 -0.0956607 -0.000542849  0.0143306 -0.101459 -0.000195086  0.0142115 -0.0951551 -0.000409782  0.019804 -0.0957609 -0.00027144  0.0142108 -0.0952556 -0.00020504  0.0144732 -0.114122 -0.000351042  0.020447 -0.114706 -0.000231445  0.020272 -0.108189 -0.00048995  0.0144746 -0.114203 -0.00017482  0.0144188 -0.107685 -0.000370473  0.0202723 -0.10828 -0.000244439  0.0144192 -0.107775 -0.000185132  0.0144935 -0.127282 -0.000313967  0.0206864 -0.127856 -0.000207782  0.0205832 -0.12115 -0.000439018  0.0144941 -0.127353 -0.000156462  0.0144992 -0.120647 -0.000332147  0.0205863 -0.121232 -0.000219584  0.0144995 -0.120728 -0.000165701  0.0143983 -0.140797 -0.000279784  0.0207887 -0.141361 -0.000184834  0.0207528 -0.134493 -0.000392109  0.0143993 -0.140861 -0.000139415  0.0144619 -0.133991 -0.000296533  0.0207545 -0.134565 -0.00019604  0.0144604 -0.134063 -0.000147998  0.0141976 -0.154622 -0.000247389  0.0207605 -0.155177 -0.000162423  0.0207887 -0.148168 -0.000346512  0.0141985 -0.154678 -0.000124514  0.0143108 -0.147668 -0.000263512  0.0207906 -0.148233 -0.000172973  0.0143113 -0.147732 -0.000131667  0.0138981 -0.168712 -0.000216633  0.0206141 -0.169257 -0.000141561  0.0206993 -0.162129 -0.000305265  0.0138988 -0.16876 -0.000107348  0.0140591 -0.161632 -0.000231385  0.0207009 -0.162185 -0.000152349  0.01406 -0.161688 -0.000115871  0.0135093 -0.183026 -0.000187337  0.0203571 -0.18356 -0.000121891  0.020494 -0.176332 -0.000264734  0.0135109 -0.183067 -9.29236e-05  0.0137153 -0.175837 -0.000201762  0.0204973 -0.176381 -0.000132382  0.0137155 -0.175886 -0.000100791  0.0130408 -0.197525 -0.000161231  0.0200024 -0.198049 -0.000107408  0.0201883 -0.19074 -0.000228614  0.0130432 -0.197558 -8.11219e-05  0.0132864 -0.190248 -0.000174165  0.0201895 -0.190782 -0.000114262  0.0132883 -0.190291 -8.76188e-05  0.0125015 -0.212174 -0.000135899  0.0195577 -0.212688 -8.85129e-05  0.0197873 -0.205314 -0.000194579  0.0125041 -0.212202 -6.82473e-05  0.0127811 -0.204826 -0.000148356  0.0197914 -0.205349 -9.7692e-05  0.0127821 -0.204862 -7.36117e-05  0.0118978 -0.226939 -0.000113606  0.0190356 -0.227443 -7.4029e-05  0.019304 -0.22002 -0.000162691  0.0119004 -0.226963 -5.64456e-05  0.0122085 -0.219537 -0.000124872  0.0193069 -0.220051 -8.11219e-05  0.0122111 -0.219568 -6.22272e-05  0.0112393 -0.241792 -9.29236e-05  0.0184422 -0.242287 -6.03199e-05  0.0187452 -0.234831 -0.000134647  0.0112424 -0.24181 -4.57168e-05  0.0115759 -0.234352 -0.00010252  0.0187469 -0.234855 -6.6638e-05  0.0115786 -0.234376 -5.07236e-05  0.0105321 -0.256708 -7.37906e-05  0.0177889 -0.257193 -4.77433e-05  0.0181201 -0.249712 -0.000108004  0.0105348 -0.256721 -3.66569e-05  0.0108929 -0.249238 -8.33273e-05  0.0181239 -0.249734 -5.42998e-05  0.0108941 -0.249258 -4.11868e-05  0.00978303 -0.271661 -5.82635e-05  0.0170803 -0.272137 -3.70145e-05  0.0174372 -0.264645 -8.49068e-05  0.00978661 -0.271671 -2.84314e-05  0.0101635 -0.264175 -6.57439e-05  0.0174406 -0.264661 -4.19021e-05  0.0101659 -0.264191 -3.30806e-05  0.0090003 -0.286631 -4.33624e-05  0.0163298 -0.287098 -2.63453e-05  0.0167079 -0.279603 -6.48201e-05  0.0090034 -0.286635 -2.16365e-05  0.00939631 -0.279138 -4.98891e-05  0.0167086 -0.279614 -3.23653e-05  0.00939941 -0.27915 -2.49147e-05  0.00819016 -0.301599 -3.07262e-05  0.0155423 -0.302059 -1.93119e-05  0.015938 -0.29457 -4.72665e-05  0.00819278 -0.301601 -1.60336e-05  0.00859809 -0.29411 -3.73423e-05  0.0159397 -0.294578 -2.31862e-05  0.00860167 -0.294119 -1.81794e-05  0.00735879 -0.316551 -2.14279e-05  0.014725 -0.317004 -1.27554e-05  0.0151355 -0.309527 -3.26037e-05  0.00736022 -0.316552 -1.01328e-05  0.00777626 -0.309072 -2.60472e-05  0.0151362 -0.309534 -1.66297e-05  0.0077796 -0.309078 -1.30534e-05  0.00650787 -0.331474 -1.24872e-05  0.0138869 -0.331922 -7.98702e-06  0.0143056 -0.324462 -2.10702e-05  0.00651121 -0.331474 -5.72205e-06  0.00693512 -0.32401 -1.68681e-05  0.0143075 -0.324467 -1.00732e-05  0.00693774 -0.324015 -8.82149e-06  0.00564837 -0.346362 -5.51343e-06  0.0130334 -0.346805 -3.27826e-06  0.0134609 -0.339365 -1.17719e-05  0.00565052 -0.346359 -2.74181e-06  0.00607848 -0.338917 -9.56655e-06  0.0134614 -0.339367 -5.36442e-06  0.00608301 -0.338919 -4.58956e-06  0.00478053 -0.361204 8.9407e-08  0.0121679 -0.361646 7.15256e-07  0.0126002 -0.354226 -4.29153e-06  0.00478292 -0.361202 7.7486e-07  0.00521541 -0.353782 -2.83122e-06  0.0126009 -0.354229 -2.08616e-06  0.00521827 -0.353784 -1.3113e-06  0.00391388 -0.375999 5.30481e-06  0.011302 -0.376446 2.6226e-06  0.0117323 -0.369047 2.6226e-06  0.00391674 -0.375998 2.32458e-06  0.00434661 -0.368602 2.65241e-06  0.0117347 -0.369049 2.26498e-06  0.0043509 -0.368604 1.72853e-06  0.00141852 -0.0024457 -0.000650316  0 0 0  0.0018561 -0.00342798 -0.000380516  0.000579275 -0.00169516 -0.000425309  0 0 0  0.00140634 -0.0024966 -0.000320137  0.000430405 -0.0011189 -0.000355631  0 0 0  0.000575706 -0.00172567 -0.000208855  0.000425607 -0.00114596 -0.000174105  0.00424701 -0.00611871 -0.00106978  0.00541583 -0.00733584 -0.000626326  0.00357132 -0.005225 -0.00105947  0.00421944 -0.00622255 -0.000529885  0.00273491 -0.00417507 -0.000891864  0.0035516 -0.00531793 -0.000522256  0.00271401 -0.00425881 -0.000439584  0.00738761 -0.0105404 -0.00126463  0.00914913 -0.0116616 -0.000745416  0.00733969 -0.00924766 -0.00141099  0.0073542 -0.0106765 -0.000628471  0.00582594 -0.00821126 -0.00119013  0.00730854 -0.00938582 -0.000699818  0.00579417 -0.00833893 -0.00058955  0.0103665 -0.0158802 -0.0013046  0.0126645 -0.0169299 -0.00077492  0.0109697 -0.0140069 -0.0015417  0.0103373 -0.0160335 -0.000650764  0.00890604 -0.0130782 -0.0012975  0.0109352 -0.0141669 -0.000768244  0.00887299 -0.0132303 -0.000645995  0.0130904 -0.0222211 -0.00126472  0.0159121 -0.023208 -0.000755012  0.0143533 -0.0197743 -0.00153846  0.0130693 -0.0223801 -0.000631928  0.0117631 -0.0189208 -0.00129056  0.0143254 -0.0199422 -0.000768721  0.0117375 -0.019083 -0.000644863  0.0155386 -0.0295312 -0.0011915  0.0188586 -0.0304691 -0.000712156  0.0174428 -0.026553 -0.00146964  0.0155264 -0.0296889 -0.000596166  0.0143481 -0.0257525 -0.00123024  0.0174232 -0.026719 -0.000734985  0.0143329 -0.025916 -0.00061518  0.0177193 -0.0377527 -0.00110662  0.0215037 -0.0386509 -0.000662148  0.0202298 -0.0342886 -0.00137451  0.017713 -0.0379033 -0.00055331  0.0166621 -0.0335267 -0.00114959  0.0202184 -0.034449 -0.00068742  0.0166529 -0.0336851 -0.000575125  0.0196438 -0.0468192 -0.0010201  0.0238563 -0.0476822 -0.000609815  0.0227208 -0.0429126 -0.00127196  0.0196419 -0.0469601 -0.000510395  0.0187138 -0.0421795 -0.00106338  0.0227162 -0.0430638 -0.000636637  0.0187088 -0.0423291 -0.000531852  0.0213242 -0.0566596 -0.000937104  0.0259285 -0.0574918 -0.000560939  0.0249294 -0.0523521 -0.00117055  0.0213246 -0.0567909 -0.000468731  0.0205141 -0.0516405 -0.00097844  0.0249264 -0.0524933 -0.000585854  0.0205129 -0.0517827 -0.000489295  0.0227715 -0.067207 -0.000857025  0.0277348 -0.0680105 -0.000511825  0.0268654 -0.0625349 -0.00107279  0.0227736 -0.0673286 -0.000428736  0.0220764 -0.0618429 -0.000896245  0.026865 -0.062666 -0.00053674  0.0220774 -0.0619742 -0.000448048  0.0239986 -0.078396 -0.000781387  0.0292879 -0.0791723 -0.000466704  0.0285416 -0.0733941 -0.000979245  0.024001 -0.0785056 -0.000390589  0.0234126 -0.072719 -0.000818998  0.028542 -0.0735138 -0.00048995  0.0234144 -0.0728395 -0.000409603  0.0250164 -0.0901613 -0.000709683  0.0306009 -0.0909134 -0.000423968  0.0299728 -0.0848639 -0.00089097  0.0250183 -0.0902615 -0.000354409  0.0245326 -0.0842037 -0.000745207  0.0299739 -0.0849733 -0.000445962  0.0245357 -0.084314 -0.00037241  0.0258354 -0.102445 -0.000641495  0.0316864 -0.103173 -0.000383615  0.0311713 -0.0968812 -0.000806808  0.0258381 -0.102535 -0.00032109  0.0254505 -0.096236 -0.000675321  0.0311718 -0.096981 -0.000402749  0.0254519 -0.0963367 -0.000337243  0.0264685 -0.115189 -0.000577033  0.0325599 -0.115894 -0.000344276  0.0321481 -0.109388 -0.000727922  0.0264709 -0.11527 -0.000288069  0.0261744 -0.108757 -0.000608921  0.032151 -0.109479 -0.000363767  0.0261772 -0.108847 -0.000304639  0.0269245 -0.128341 -0.000516027  0.0332319 -0.129023 -0.000307739  0.032919 -0.122329 -0.000652373  0.026929 -0.128413 -0.000257015  0.0267178 -0.121711 -0.000546098  0.0329213 -0.12241 -0.000326931  0.0267214 -0.121792 -0.000272751  0.0272188 -0.141849 -0.000457615  0.033715 -0.142509 -0.00027436  0.0334935 -0.135651 -0.000580698  0.0272224 -0.141911 -0.00022912  0.0270919 -0.135047 -0.000486404  0.0334963 -0.135724 -0.000290871  0.0270954 -0.135119 -0.000243187  0.0273607 -0.155663 -0.000403523  0.0340235 -0.156303 -0.000240326  0.0338857 -0.149306 -0.000513732  0.0273638 -0.155718 -0.000201881  0.0273085 -0.148714 -0.000430435  0.0338893 -0.149369 -0.000256717  0.0273123 -0.148779 -0.000214815  0.0273619 -0.169744 -0.000353068  0.0341713 -0.170363 -0.000210226  0.0341139 -0.163246 -0.000450164  0.0273669 -0.169791 -0.00017643  0.0273786 -0.162667 -0.000378042  0.0341167 -0.163301 -0.000224292  0.0273819 -0.162723 -0.000188947  0.027236 -0.184046 -0.000305235  0.0341704 -0.184645 -0.000181794  0.0341878 -0.17743 -0.000391304  0.0272391 -0.184086 -0.000152946  0.0273147 -0.176863 -0.00032869  0.0341883 -0.177478 -0.00019592  0.0273185 -0.176912 -0.000164211  0.0269918 -0.198534 -0.000261813  0.0340335 -0.199113 -0.000156164  0.0341165 -0.191816 -0.000336647  0.0269942 -0.198567 -0.000130057  0.0271287 -0.191263 -0.000283092  0.0341177 -0.191857 -0.000167966  0.0271316 -0.191304 -0.000141263  0.0266402 -0.21317 -0.000221252  0.0337718 -0.21373 -0.000130355  0.0339153 -0.206369 -0.000286877  0.0266454 -0.213197 -0.000110507  0.0268295 -0.205829 -0.000240356  0.0339189 -0.206405 -0.000143707  0.0268331 -0.205864 -0.000119984  0.0261948 -0.227923 -0.000182897  0.0334015 -0.228467 -0.000108719  0.0335972 -0.221055 -0.000239193  0.0261996 -0.227945 -9.11355e-05  0.0264299 -0.220527 -0.000201583  0.0336008 -0.221086 -0.000119865  0.0264332 -0.220557 -0.000100911  0.0256648 -0.242764 -0.000148594  0.0329301 -0.24329 -8.83341e-05  0.0331738 -0.235844 -0.000196129  0.0256691 -0.242781 -7.51615e-05  0.0259404 -0.235328 -0.000164747  0.0331776 -0.235868 -9.78112e-05  0.0259445 -0.235352 -8.22544e-05  0.0250614 -0.257666 -0.000118136  0.0323727 -0.258177 -7.06911e-05  0.0326588 -0.250706 -0.000158042  0.0250642 -0.257678 -5.90682e-05  0.025373 -0.250201 -0.000133425  0.0326614 -0.250726 -7.96914e-05  0.0253751 -0.250223 -6.66976e-05  0.0243919 -0.272607 -9.17315e-05  0.0317385 -0.273103 -5.28693e-05  0.0320611 -0.26562 -0.000123054  0.0243964 -0.272615 -4.52399e-05  0.0247345 -0.265127 -0.000104845  0.032064 -0.265635 -6.10352e-05  0.0247386 -0.265142 -5.26309e-05  0.0236692 -0.287563 -6.70552e-05  0.0310414 -0.288045 -4.06504e-05  0.031395 -0.28056 -9.37283e-05  0.023674 -0.287569 -3.40939e-05  0.0240369 -0.280078 -7.94232e-05  0.0313969 -0.280572 -4.673e-05  0.0240417 -0.280089 -3.98755e-05  0.0229027 -0.302521 -4.75347e-05  0.0302911 -0.302991 -2.87294e-05  0.0306706 -0.295509 -6.74129e-05  0.0229063 -0.302523 -2.47955e-05  0.0232925 -0.295036 -5.78761e-05  0.0306714 -0.295518 -3.34978e-05  0.0232959 -0.295045 -2.82526e-05  0.0220993 -0.317462 -3.20971e-05  0.0294967 -0.317921 -1.93119e-05  0.029896 -0.310452 -4.69685e-05  0.0221028 -0.317462 -1.60933e-05  0.0225062 -0.309987 -3.98755e-05  0.0298998 -0.310458 -2.30074e-05  0.0225079 -0.309993 -1.91331e-05  0.0212681 -0.332376 -1.95801e-05  0.0286691 -0.332827 -1.07288e-05  0.0290844 -0.325374 -2.99215e-05  0.0212724 -0.332373 -1.01924e-05  0.021687 -0.324917 -2.52426e-05  0.0290864 -0.325377 -1.60933e-05  0.0216911 -0.324921 -1.30534e-05  0.0204175 -0.347255 -1.0252e-05  0.0278208 -0.3477 -5.90086e-06  0.0282454 -0.340264 -1.75834e-05  0.0204225 -0.347252 -4.82798e-06  0.0208466 -0.339814 -1.47521e-05  0.0282471 -0.340267 -7.86781e-06  0.020849 -0.339817 -6.79493e-06  0.019556 -0.362093 -8.9407e-07  0.0269578 -0.362536 -1.60933e-06  0.0273886 -0.355119 -6.91414e-06  0.0195587 -0.362091 1.78814e-07  0.019989 -0.354672 -4.55976e-06  0.0273917 -0.355121 -2.80142e-06  0.0199912 -0.354675 -2.5034e-06  0.0186887 -0.376899 5.54323e-06  0.0260882 -0.377344 2.6226e-06  0.02652 -0.369941 3.06964e-06  0.0186934 -0.376896 3.51667e-06  0.0191228 -0.369493 2.29478e-06  0.0265231 -0.369942 1.78814e-06  0.0191247 -0.369495 2.38419e-07  0.00266029 -0.00474465 -0.000898361  0 0 0  0.00385173 -0.00667202 -0.000506878  0.00136647 -0.00388592 -0.000568718  0 0 0  0.00265707 -0.00481021 -0.00044179  0.00080061 -0.00253755 -0.000482082  0 0 0  0.00137375 -0.00393367 -0.000278771  0.000799157 -0.00257319 -0.000237465  0.00691837 -0.00847864 -0.00146577  0.00863221 -0.00990784 -0.000821412  0.00635572 -0.00804383 -0.00139585  0.006899 -0.00860304 -0.000725508  0.00481416 -0.00653929 -0.00122568  0.00636272 -0.00815898 -0.000687659  0.00480369 -0.00664264 -0.000604331  0.0111113 -0.0126279 -0.00173634  0.0131823 -0.0140292 -0.000978887  0.0108966 -0.0116891 -0.00185376  0.0110782 -0.0127825 -0.000862956  0.00901851 -0.0104247 -0.00163257  0.0108771 -0.0118446 -0.00091809  0.00899035 -0.0105724 -0.000809312  0.015147 -0.0177845 -0.00179991  0.0177094 -0.0190901 -0.00101894  0.0155097 -0.0162393 -0.00202847  0.0151138 -0.0179504 -0.000898242  0.0131619 -0.0150646 -0.00178665  0.015475 -0.0164137 -0.00101  0.0131268 -0.0152316 -0.00088954  0.0188965 -0.0239887 -0.00175163  0.0219638 -0.0252218 -0.000994682  0.0199102 -0.0218425 -0.00202769  0.0188701 -0.0241558 -0.000874579  0.0170612 -0.0207491 -0.00178486  0.0198765 -0.0220204 -0.00101262  0.0170306 -0.0209227 -0.00089103  0.0223204 -0.0312036 -0.00165427  0.0258766 -0.0323706 -0.000941753  0.0239929 -0.0284998 -0.00194108  0.0223032 -0.031365 -0.000827074  0.0206506 -0.0274689 -0.00170639  0.0239663 -0.0286715 -0.000970125  0.0206285 -0.0276384 -0.000853062  0.0254127 -0.0393531 -0.0015392  0.0294248 -0.0404624 -0.000874639  0.0277159 -0.0361398 -0.00181904  0.0254023 -0.0395054 -0.000770032  0.0239086 -0.0351613 -0.00159806  0.0276968 -0.0363026 -0.000910342  0.023894 -0.0353215 -0.000799179  0.0281802 -0.0483623 -0.00142071  0.0326116 -0.0494204 -0.000810385  0.031076 -0.0446846 -0.00168523  0.0281746 -0.0485027 -0.000710547  0.0268371 -0.0437483 -0.00147974  0.0310625 -0.0448379 -0.00084275  0.0268283 -0.0439003 -0.00074017  0.0306358 -0.0581534 -0.00130454  0.0354502 -0.0591669 -0.000744283  0.0340842 -0.0540584 -0.00155246  0.030632 -0.0582848 -0.000652492  0.0294476 -0.0531579 -0.00136212  0.034073 -0.054199 -0.000775397  0.0294416 -0.053299 -0.000681102  0.0327934 -0.0686582 -0.00119343  0.0379564 -0.0696275 -0.000679612  0.0367508 -0.064182 -0.00142336  0.0327911 -0.0687772 -0.000596881  0.0317514 -0.0633149 -0.00124854  0.0367441 -0.0643119 -0.000712216  0.0317484 -0.0634458 -0.000624001  0.0346659 -0.0798069 -0.0010879  0.040146 -0.0807377 -0.000619888  0.0390954 -0.0749864 -0.00129965  0.0346649 -0.0799167 -0.000543654  0.0337632 -0.0741509 -0.00113985  0.0390894 -0.0751059 -0.000649154  0.0337629 -0.0742701 -0.000570118  0.0362692 -0.0915363 -0.00098756  0.0420363 -0.0924287 -0.000562787  0.0411315 -0.0864062 -0.00118315  0.0362689 -0.0916365 -0.000493526  0.0355006 -0.0855982 -0.00103673  0.0411282 -0.0865139 -0.000591636  0.0355002 -0.0857071 -0.000518918  0.0376179 -0.103786 -0.000892282  0.043644 -0.104641 -0.000510275  0.042879 -0.0983751 -0.00107059  0.037618 -0.103876 -0.000445783  0.0369745 -0.0975952 -0.000939041  0.0428725 -0.0984737 -0.000535429  0.0369743 -0.0976943 -0.000469565  0.038726 -0.116499 -0.000801444  0.0449824 -0.117318 -0.000457287  0.044351 -0.110837 -0.000965446  0.0387266 -0.116578 -0.000401735  0.0382012 -0.110082 -0.000846416  0.0443453 -0.110925 -0.000481963  0.0382011 -0.110172 -0.000422955  0.0396068 -0.129617 -0.000716448  0.0460699 -0.130402 -0.000407994  0.0455582 -0.123733 -0.00086534  0.0396075 -0.129688 -0.000358403  0.0391941 -0.123004 -0.000759035  0.0455567 -0.123812 -0.000433087  0.0391943 -0.123083 -0.00037992  0.0402758 -0.143091 -0.000636071  0.046921 -0.143845 -0.000362635  0.0465249 -0.13701 -0.00077036  0.0402772 -0.143153 -0.000317574  0.0399674 -0.136307 -0.00067538  0.0465229 -0.137082 -0.00038594  0.039969 -0.136378 -0.00033778  0.0407474 -0.156877 -0.000560135  0.0475497 -0.157598 -0.000320911  0.0472629 -0.150622 -0.000680029  0.0407495 -0.15693 -0.000279486  0.0405354 -0.149942 -0.000597537  0.0472624 -0.150684 -0.000339806  0.0405381 -0.150006 -0.000299275  0.0410352 -0.170925 -0.000488341  0.0479763 -0.171615 -0.0002774  0.0477886 -0.164521 -0.000597268  0.041038 -0.170972 -0.000244439  0.0409145 -0.163865 -0.000523388  0.0477881 -0.164574 -0.0002985  0.0409162 -0.163919 -0.000261605  0.0411558 -0.185197 -0.00042209  0.0482116 -0.185857 -0.000241041  0.0481155 -0.178663 -0.000518888  0.0411577 -0.185236 -0.000211298  0.0411167 -0.17803 -0.000454962  0.048116 -0.17871 -0.000260293  0.0411181 -0.178078 -0.000227332  0.0411222 -0.199653 -0.000361443  0.0482762 -0.200285 -0.000206113  0.0482638 -0.19301 -0.000445753  0.0411241 -0.199687 -0.000180304  0.0411584 -0.192399 -0.000391483  0.0482635 -0.19305 -0.000222266  0.0411599 -0.19244 -0.000195801  0.040947 -0.214261 -0.000304759  0.0481832 -0.214864 -0.000172198  0.0482485 -0.207523 -0.000378311  0.0409489 -0.214287 -0.000152409  0.0410521 -0.206935 -0.000332028  0.048249 -0.207558 -0.000190079  0.0410531 -0.206969 -0.000166357  0.0406442 -0.228985 -0.000252217  0.0479436 -0.229563 -0.000144839  0.0480793 -0.222172 -0.000316828  0.0406466 -0.229007 -0.000126779  0.0408103 -0.221605 -0.000277668  0.0480819 -0.2222 -0.000158012  0.040813 -0.221633 -0.000138938  0.0402286 -0.243799 -0.000204593  0.0475793 -0.244351 -0.000115156  0.0477769 -0.236924 -0.00025925  0.0402319 -0.243814 -0.000103295  0.0404501 -0.236376 -0.0002276  0.0477784 -0.236948 -0.000129044  0.0404527 -0.236401 -0.000113189  0.0397129 -0.258675 -0.00016275  0.0471017 -0.259205 -9.31025e-05  0.0473511 -0.251752 -0.000207692  0.0397151 -0.258686 -8.05259e-05  0.0399823 -0.251224 -0.000182211  0.0473554 -0.25177 -0.000103951  0.0399857 -0.251242 -9.01818e-05  0.0391092 -0.273589 -0.000125825  0.0465233 -0.274099 -7.07507e-05  0.0468247 -0.266633 -0.000163555  0.039113 -0.273597 -6.29425e-05  0.0394228 -0.266123 -0.0001432  0.0468245 -0.266648 -8.05259e-05  0.039423 -0.266138 -7.15256e-05  0.0384314 -0.288523 -9.28044e-05  0.045862 -0.289012 -5.26905e-05  0.0462039 -0.281544 -0.000123382  0.0384355 -0.288527 -4.62532e-05  0.0387802 -0.28105 -0.000108749  0.0462019 -0.281555 -6.13928e-05  0.0387831 -0.281061 -5.40614e-05  0.037693 -0.30346 -6.57737e-05  0.0451288 -0.303933 -3.77893e-05  0.0455008 -0.296465 -8.93474e-05  0.0376959 -0.303462 -3.27229e-05  0.0380712 -0.295986 -7.84397e-05  0.0455024 -0.296473 -4.37498e-05  0.0380721 -0.295994 -3.94583e-05  0.0369048 -0.318383 -4.3869e-05  0.0443408 -0.318841 -2.6226e-05  0.0447392 -0.311384 -6.181e-05  0.0369079 -0.318382 -2.21729e-05  0.0373061 -0.310918 -5.4419e-05  0.0447419 -0.311389 -3.14713e-05  0.0373068 -0.310923 -2.69413e-05  0.0360768 -0.333282 -2.73883e-05  0.0435069 -0.333728 -1.62721e-05  0.0439279 -0.326285 -3.9041e-05  0.0360801 -0.33328 -1.3113e-05  0.0364952 -0.32583 -3.51071e-05  0.043927 -0.326288 -2.07424e-05  0.0364988 -0.325833 -1.7643e-05  0.0352237 -0.34815 -1.45435e-05  0.0426457 -0.348589 -8.82149e-06  0.0430789 -0.341162 -2.29776e-05  0.0352292 -0.348147 -6.97374e-06  0.0356524 -0.340714 -1.98483e-05  0.0430794 -0.341164 -1.11461e-05  0.035656 -0.340716 -9.95398e-06  0.0343583 -0.362986 -2.563e-06  0.0417724 -0.363421 -2.86102e-06  0.0422099 -0.356008 -1.10567e-05  0.0343614 -0.36298 -1.66893e-06  0.0347927 -0.355565 -8.31485e-06  0.0422103 -0.356009 -6.79493e-06  0.0347972 -0.355568 -3.8147e-06  0.0334849 -0.377794 6.85453e-06  0.0408926 -0.378236 -9.53674e-07  0.0413299 -0.370829 -2.08616e-07  0.0334883 -0.377792 3.09944e-06  0.0339222 -0.370386 5.96046e-07  0.0413325 -0.37083 5.36442e-07  0.0339255 -0.370387 1.07288e-06  -0.00383543 -0.00607033 0.00165704  -0.00137031 -0.00340685 0.00128123  0 0 0  -0.00263086 -0.00404783 0.00198042  0 0 0  -0.001813 -0.00292461 0.00122491  -0.000577368 -0.00134287 0.000944704  0 0 0  -0.0013883 -0.00354895 0.00091967  -0.00261712 -0.00424916 0.00143483  -0.00079843 -0.00212752 0.00107464  0 0 0  -0.00056462 -0.00143187 0.000678539  -0.000791028 -0.00223241 0.000772595  -0.00862181 -0.00892373 0.00264454  -0.0062997 -0.00701705 0.00306576  -0.00689796 -0.00731611 0.0031707  -0.00533913 -0.00648373 0.00199452  -0.00353681 -0.00436907 0.00229645  -0.00632095 -0.00734277 0.00223035  -0.00685221 -0.00767707 0.00231829  -0.00477043 -0.00559102 0.00267339  -0.00348397 -0.00463128 0.0016712  -0.00474411 -0.00588427 0.00194678  -0.0132663 -0.0127212 0.00310659  -0.0109513 -0.0102577 0.00398576  -0.0111348 -0.0111266 0.0036765  -0.00907528 -0.0105363 0.00234261  -0.00729746 -0.00801717 0.00300011  -0.010915 -0.010696 0.00293231  -0.0110722 -0.0115575 0.00272304  -0.0090211 -0.00908491 0.00348982  -0.00722772 -0.00839177 0.00221094  -0.00896165 -0.00949342 0.00257078  -0.0179066 -0.0174718 0.00319749  -0.015662 -0.0144817 0.00427896  -0.0152291 -0.0160064 0.00374693  -0.0126405 -0.0155674 0.00240999  -0.0109338 -0.0125009 0.00321862  -0.0156102 -0.014954 0.00318399  -0.0151867 -0.0164518 0.00280285  -0.0132098 -0.013423 0.00374702  -0.0108787 -0.0129216 0.00239947  -0.0131535 -0.0138701 0.00279194  -0.0223361 -0.0232862 0.00309229  -0.0201833 -0.0197828 0.00421953  -0.0191068 -0.0219545 0.00360954  -0.0160232 -0.0216173 0.00232705  -0.0143766 -0.0180373 0.00317153  -0.0201504 -0.020248 0.00316045  -0.0190965 -0.0223885 0.0027107  -0.0171945 -0.0188453 0.00369501  -0.0143555 -0.0184657 0.00237998  -0.0171688 -0.0192918 0.0027701  -0.026518 -0.0301012 0.00290358  -0.0244657 -0.0261342 0.00400129  -0.0227697 -0.0289083 0.00338218  -0.0192171 -0.0286466 0.00218186  -0.01763 -0.0245975 0.00300419  -0.0244585 -0.0265731 0.00300443  -0.0227873 -0.0293167 0.00254217  -0.020965 -0.0253061 0.00350228  -0.0176426 -0.0250134 0.00225937  -0.0209694 -0.0257331 0.0026316  -0.0304445 -0.0378423 0.00268465  -0.0284958 -0.0334531 0.00371948  -0.0262254 -0.0367827 0.00312448  -0.0222337 -0.0365866 0.00201395  -0.0207119 -0.0321131 0.00279042  -0.0285124 -0.0338617 0.00279573  -0.026262 -0.0371633 0.00234967  -0.0245224 -0.032729 0.00325477  -0.0207467 -0.0325067 0.00209922  -0.0245508 -0.0331301 0.00244778  -0.0341288 -0.0464352 0.00246131  -0.032283 -0.0416624 0.00342357  -0.0294849 -0.0455045 0.00286487  -0.0250856 -0.0453658 0.00184444  -0.023629 -0.0405075 0.00256565  -0.032316 -0.0420382 0.00257322  -0.0295329 -0.0458551 0.00215393  -0.0278789 -0.0410372 0.00299397  -0.0236799 -0.040875 0.00192979  -0.0279222 -0.041408 0.00225133  -0.0375855 -0.0558104 0.00224751  -0.0358427 -0.0506873 0.00313225  -0.0325598 -0.0550029 0.00261539  -0.0277841 -0.0549166 0.00168219  -0.0263952 -0.0497094 0.00234538  -0.0358843 -0.0510304 0.00235412  -0.0326139 -0.0553237 0.00196451  -0.0310436 -0.0501556 0.00273865  -0.0264533 -0.0500484 0.00176269  -0.0310967 -0.0504962 0.00205839  -0.04083 -0.0658996 0.0020453  -0.0391889 -0.0604573 0.00285426  -0.0354613 -0.0652087 0.0023784  -0.0303394 -0.0651739 0.00152928  -0.0290169 -0.0596494 0.00213602  -0.0392336 -0.06077 0.00214466  -0.0355173 -0.0655018 0.00178573  -0.0340314 -0.0600155 0.00249469  -0.029079 -0.0599605 0.00160506  -0.0340872 -0.060327 0.00187483  -0.0438745 -0.0766417 0.0018543  -0.0423295 -0.0709095 0.00259355  -0.0381982 -0.0760621 0.00215605  -0.0327619 -0.076076 0.00138512  -0.0315043 -0.0702641 0.00193867  -0.042376 -0.0711929 0.0019474  -0.038255 -0.0763275 0.00161934  -0.0368495 -0.070554 0.00226566  -0.0315664 -0.0705474 0.00145611  -0.036906 -0.0708372 0.00170144  -0.0467324 -0.0879769 0.00167426  -0.0452803 -0.0819818 0.00234672  -0.0407802 -0.0875037 0.00194681  -0.0350584 -0.0875622 0.00124925  -0.0338637 -0.0814916 0.00175416  -0.0453275 -0.0822391 0.00176224  -0.0408354 -0.0877426 0.00146165  -0.0395083 -0.0817074 0.0020496  -0.0339249 -0.0817481 0.00131723  -0.0395639 -0.0819641 0.0015392  -0.0494128 -0.0998481 0.00150549  -0.0480499 -0.0936183 0.00211462  -0.0432149 -0.0994761 0.0017502  -0.0372348 -0.0995778 0.00112256  -0.0361037 -0.0932745 0.00157961  -0.0480936 -0.093849 0.00158802  -0.0432667 -0.0996895 0.00131398  -0.0420156 -0.0934203 0.00184697  -0.0361611 -0.0935063 0.00118518  -0.0420692 -0.0936518 0.00138661  -0.0519246 -0.112204 0.0013454  -0.050647 -0.105761 0.00189644  -0.0455089 -0.111924 0.00156486  -0.0392976 -0.112068 0.00100401  -0.0382257 -0.105558 0.00141585  -0.0506896 -0.10597 0.00142416  -0.0455576 -0.112116 0.00117394  -0.044379 -0.105637 0.00165626  -0.0382789 -0.105767 0.00106266  -0.0444297 -0.105846 0.00124225  -0.0542765 -0.124991 0.001196  -0.0530798 -0.118361 0.00169101  -0.047668 -0.124798 0.00139099  -0.0412514 -0.124981 0.000892043  -0.040236 -0.118288 0.00126275  -0.0531212 -0.118547 0.00127032  -0.0477132 -0.124968 0.00104487  -0.046604 -0.118306 0.00147685  -0.0402883 -0.118473 0.000947952  -0.0466517 -0.118491 0.0011085  -0.0564754 -0.138161 0.00105679  -0.0553606 -0.131368 0.00149885  -0.0497 -0.13805 0.00122857  -0.0431024 -0.138267 0.000787944  -0.0421404 -0.131415 0.00111854  -0.0553949 -0.13153 0.00112608  -0.049742 -0.1382 0.000922501  -0.0486989 -0.131375 0.00130895  -0.0421891 -0.131579 0.000839323  -0.0487431 -0.131539 0.000982195  -0.0585308 -0.151665 0.000926048  -0.0574882 -0.144729 0.00131845  -0.0516093 -0.151633 0.00107583  -0.0448527 -0.151882 0.000689536  -0.0439456 -0.144891 0.000983745  -0.0575225 -0.144873 0.000990212  -0.0516469 -0.151763 0.000806808  -0.0506694 -0.144798 0.00115114  -0.0439894 -0.145036 0.000738025  -0.0507095 -0.144941 0.000864476  -0.0604477 -0.165465 0.000804424  -0.0594761 -0.158405 0.00115088  -0.0534022 -0.1655 0.000934601  -0.0465081 -0.16578 0.000598371  -0.0456498 -0.158671 0.000857621  -0.0595045 -0.15853 0.000864208  -0.053437 -0.165613 0.000701696  -0.0525191 -0.158527 0.00100398  -0.0456927 -0.158797 0.0006437  -0.0525577 -0.158653 0.000753671  -0.0622346 -0.179514 0.000691086  -0.0613308 -0.172352 0.000994116  -0.0550847 -0.179615 0.000802577  -0.0480728 -0.179921 0.000513852  -0.0472648 -0.172713 0.000740469  -0.0613558 -0.172462 0.000746638  -0.0551164 -0.17971 0.000602186  -0.0542557 -0.172524 0.000867456  -0.0473022 -0.172822 0.000555664  -0.0542908 -0.172633 0.000650972  -0.0638986 -0.193779 0.000587255  -0.063056 -0.186528 0.000849396  -0.056663 -0.193936 0.000681192  -0.0495527 -0.194265 0.000436723  -0.0487876 -0.186976 0.000632644  -0.0630808 -0.186622 0.000638098  -0.05669 -0.194017 0.000511348  -0.055886 -0.186746 0.000740945  -0.0488238 -0.18707 0.000474364  -0.0559163 -0.18684 0.00055635  -0.0654464 -0.208218 0.000490993  -0.0646646 -0.2009 0.000715315  -0.0581424 -0.208429 0.000569582  -0.0509503 -0.208779 0.000365317  -0.0502315 -0.201424 0.000532627  -0.0646861 -0.200978 0.00053674  -0.0581675 -0.208496 0.000427544  -0.0574131 -0.201157 0.000623405  -0.0502601 -0.201503 0.000398606  -0.057441 -0.201236 0.000467867  -0.066889 -0.222802 0.000404447  -0.0661595 -0.21543 0.000593901  -0.0595286 -0.223059 0.000468135  -0.0522714 -0.223428 0.00029996  -0.0515938 -0.216022 0.000442147  -0.0661814 -0.215493 0.000445783  -0.0595515 -0.223113 0.000352263  -0.0588467 -0.215723 0.000517249  -0.0516207 -0.216088 0.000331998  -0.0588698 -0.215787 0.000388563  -0.0682318 -0.2375 0.000325173  -0.0675557 -0.230086 0.000484169  -0.0608299 -0.237797 0.000378013  -0.0535202 -0.238183 0.000242054  -0.0528808 -0.230739 0.000359803  -0.0675738 -0.230139 0.000363261  -0.0608509 -0.237841 0.000284761  -0.060189 -0.230411 0.000421971  -0.0529046 -0.230793 0.000270158  -0.0602117 -0.230465 0.000317037  -0.0694826 -0.252281 0.000254959  -0.0688541 -0.244841 0.00038439  -0.0620546 -0.252615 0.000295788  -0.0547042 -0.253014 0.000189483  -0.0540986 -0.245547 0.000286222  -0.0688682 -0.244881 0.0002895  -0.0620704 -0.252649 0.000221759  -0.0614512 -0.245194 0.000335008  -0.0541191 -0.245589 0.000214458  -0.06147 -0.245235 0.000252038  -0.0706501 -0.267124 0.000193268  -0.0700643 -0.259664 0.000296772  -0.0632043 -0.267488 0.000225157  -0.055825 -0.267898 0.000143975  -0.0552552 -0.260417 0.000220358  -0.0700758 -0.259696 0.000222981  -0.0632195 -0.267512 0.000169218  -0.0626376 -0.260041 0.000258952  -0.0552716 -0.26045 0.000165552  -0.0626528 -0.260074 0.000195295  -0.0717475 -0.282004 0.000143379  -0.0711975 -0.274537 0.000221878  -0.0642927 -0.282394 0.000163347  -0.0568936 -0.282812 0.000103921  -0.0563502 -0.275327 0.000165105  -0.0712085 -0.274561 0.000166804  -0.0643032 -0.282411 0.000123084  -0.0637567 -0.274933 0.000193089  -0.0563655 -0.275352 0.000124067  -0.0637689 -0.274958 0.000145018  -0.0727782 -0.296903 9.93013e-05  -0.0722606 -0.289436 0.000156879  -0.0653229 -0.297314 0.000112385  -0.0579138 -0.297738 7.09295e-05  -0.0573962 -0.290256 0.00011608  -0.0722697 -0.289453 0.000117987  -0.0653317 -0.297324 8.49664e-05  -0.0648124 -0.289849 0.000136763  -0.0574095 -0.290275 8.76486e-05  -0.0648243 -0.289866 0.000103027  -0.0737529 -0.311802 6.35087e-05  -0.0732682 -0.304341 0.000105292  -0.0663052 -0.312231 7.27475e-05  -0.0588942 -0.312659 4.63724e-05  -0.0583987 -0.305186 7.74264e-05  -0.0732722 -0.304353 8.03769e-05  -0.0663128 -0.312233 5.44786e-05  -0.0658171 -0.304768 9.12547e-05  -0.0584073 -0.3052 5.84424e-05  -0.0658286 -0.30478 6.90818e-05  -0.0746877 -0.32669 3.88324e-05  -0.0742176 -0.319244 6.51479e-05  -0.0672481 -0.327128 4.26173e-05  -0.0598381 -0.327561 2.57492e-05  -0.059361 -0.320103 4.75347e-05  -0.0742264 -0.319249 4.9293e-05  -0.0672557 -0.32713 3.19779e-05  -0.0667803 -0.319676 5.67436e-05  -0.0593698 -0.320112 3.67165e-05  -0.0667887 -0.319684 4.36306e-05  -0.0755901 -0.341556 1.809e-05  -0.0751317 -0.334123 3.5733e-05  -0.0681612 -0.342 1.99974e-05  -0.0607553 -0.342433 1.23084e-05  -0.0602903 -0.334996 2.46167e-05  -0.0751429 -0.334126 2.72989e-05  -0.0681682 -0.341998 1.5974e-05  -0.0677092 -0.334562 2.95937e-05  -0.0603001 -0.335 1.92225e-05  -0.0677145 -0.334567 2.3216e-05  -0.0764754 -0.356393 9.71556e-06  -0.0760262 -0.348977 1.45733e-05  -0.0690544 -0.356839 4.11272e-06  -0.0616548 -0.357272 9.23872e-07  -0.0611989 -0.349853 8.40425e-06  -0.0760336 -0.348978 1.2666e-05  -0.0690618 -0.356835 3.75509e-06  -0.0686088 -0.349417 1.14143e-05  -0.0612071 -0.349856 7.92742e-06  -0.0686178 -0.349419 9.80496e-06  -0.0773535 -0.371213 -4.82798e-06  -0.0769067 -0.363803 -1.43051e-06  -0.0699389 -0.371651 -1.16229e-05  -0.0625443 -0.372082 -1.0401e-05  -0.0620928 -0.364676 -5.69224e-06  -0.0769143 -0.363804 1.43051e-06  -0.069947 -0.371649 -7.00355e-06  -0.0694976 -0.364242 -3.36766e-06  -0.062099 -0.364679 -4.61936e-06  -0.069504 -0.364245 -2.23517e-06  -0.0013934 -0.00190479 0.00141865  0 0 0  -0.000987314 -0.00146982 0.000824302  -0.000318602 -0.000468969 0.000639558  0 0 0  -0.00136098 -0.00206076 0.00102404  -0.000425123 -0.000821948 0.000785202  0 0 0  -0.000308108 -0.000538751 0.000454932  -0.000411406 -0.000901252 0.000561893  -0.0041856 -0.00516742 0.00229621  -0.00306174 -0.00467557 0.00135356  -0.00197579 -0.00272797 0.00156042  -0.00412098 -0.00545818 0.00167546  -0.00269066 -0.00341615 0.00192603  -0.00193009 -0.00293696 0.00113115  -0.00263959 -0.00364907 0.00139898  -0.00729448 -0.00930145 0.00265485  -0.0055373 -0.00895908 0.00158811  -0.00434944 -0.00638422 0.00203609  -0.00722942 -0.00967027 0.00196844  -0.00574645 -0.0071068 0.00252122  -0.00428721 -0.00669628 0.00149867  -0.00567722 -0.0074483 0.00185668  -0.0102763 -0.0144179 0.00269461  -0.00798029 -0.0142156 0.00162321  -0.00681996 -0.0110896 0.00217175  -0.0102409 -0.0148199 0.00201806  -0.00880626 -0.011722 0.00269794  -0.00677493 -0.0114617 0.00161967  -0.00875401 -0.0121181 0.00201246  -0.0130932 -0.020569 0.00258774  -0.0102916 -0.0204608 0.0015609  -0.00916415 -0.0168192 0.00212938  -0.013093 -0.0209742 0.00194538  -0.0117041 -0.0173616 0.0026525  -0.00915271 -0.0172155 0.00159922  -0.0116872 -0.0177729 0.00199136  -0.0157615 -0.0277012 0.00241971  -0.012482 -0.0276586 0.00145918  -0.0113843 -0.0235464 0.00201026  -0.0157888 -0.0280938 0.00182074  -0.0144449 -0.0240101 0.00250855  -0.0114015 -0.0239436 0.00151247  -0.014459 -0.0244164 0.0018872  -0.018298 -0.0357431 0.00223234  -0.0145685 -0.0357503 0.00134519  -0.0134999 -0.0312127 0.00186327  -0.0183432 -0.0361151 0.00167918  -0.0170456 -0.0316069 0.00232717  -0.0135374 -0.0315955 0.00140229  -0.0170824 -0.0319945 0.0017516  -0.020714 -0.0446249 0.00204456  -0.0165652 -0.0446724 0.00122932  -0.0155285 -0.0397491 0.00171074  -0.0207696 -0.0449711 0.00153738  -0.01952 -0.0400777 0.0021382  -0.0155772 -0.0401107 0.00128701  -0.0195715 -0.0404418 0.00160816  -0.023019 -0.0542756 0.00186431  -0.0184809 -0.0543592 0.00112054  -0.0174766 -0.0490869 0.00156155  -0.0230789 -0.0545945 0.00140136  -0.0218792 -0.049352 0.00195351  -0.0175323 -0.0494232 0.00117406  -0.0219383 -0.0496897 0.00146869  -0.0252192 -0.0646301 0.00169453  -0.0203247 -0.064747 0.00101599  -0.0193526 -0.0591587 0.00142056  -0.025281 -0.0649216 0.00127256  -0.0241312 -0.0593631 0.00177848  -0.0194111 -0.0594681 0.00106734  -0.0241933 -0.0596731 0.00133574  -0.0273211 -0.0756253 0.00153464  -0.0220989 -0.0757744 0.000919044  -0.0211604 -0.0699003 0.00128806  -0.0273826 -0.0758896 0.00115308  -0.0262822 -0.0700456 0.00161371  -0.0212202 -0.0701833 0.000967324  -0.0263441 -0.0703282 0.0012114  -0.0293292 -0.087201 0.00138465  -0.0238097 -0.0873819 0.0008277  -0.0229057 -0.0812503 0.00116354  -0.0293881 -0.0874409 0.00103912  -0.0283355 -0.0813384 0.00145835  -0.0229621 -0.0815085 0.000873059  -0.0283972 -0.0815955 0.001095  -0.0312481 -0.0993025 0.00124365  -0.0254598 -0.0995116 0.000743449  -0.0245868 -0.0931512 0.0010471  -0.0313035 -0.0995172 0.0009332  -0.0302986 -0.0931839 0.00131389  -0.0246427 -0.0933836 0.000785917  -0.0303566 -0.0934161 0.000985652  -0.0330809 -0.111874 0.00111222  -0.0270511 -0.112109 0.000664026  -0.0262107 -0.105545 0.00093776  -0.0331334 -0.112064 0.000834644  -0.0321741 -0.105527 0.00117731  -0.0262619 -0.105754 0.000703394  -0.0322292 -0.105735 0.000882596  -0.034831 -0.124862 0.000988364  -0.0285854 -0.125125 0.000590742  -0.0277765 -0.11838 0.000835627  -0.0348797 -0.125031 0.000741512  -0.0339657 -0.118311 0.00104925  -0.0278255 -0.118566 0.00062722  -0.0340179 -0.118498 0.00078702  -0.0365005 -0.138218 0.000871748  -0.0300635 -0.138505 0.000520706  -0.0292864 -0.131604 0.000739366  -0.0365465 -0.138368 0.000653952  -0.0356754 -0.13149 0.000929415  -0.0293301 -0.131771 0.000554025  -0.0357225 -0.131655 0.000697434  -0.0380945 -0.151897 0.000763178  -0.0314887 -0.152208 0.000454605  -0.0307395 -0.145171 0.00064972  -0.0381372 -0.15203 0.000573844  -0.0373068 -0.145015 0.000816643  -0.0307832 -0.145318 0.000486642  -0.0373497 -0.14516 0.000612199  -0.0396152 -0.165857 0.000662327  -0.0328603 -0.166185 0.000394583  -0.0321422 -0.159035 0.000565499  -0.0396528 -0.16597 0.000496447  -0.0388644 -0.158839 0.000712156  -0.0321813 -0.159163 0.000424355  -0.0389037 -0.158966 0.000533849  -0.0410631 -0.180052 0.000569075  -0.0341818 -0.1804 0.000338078  -0.0334921 -0.173153 0.000488371  -0.0410981 -0.180149 0.000427157  -0.0403461 -0.172921 0.000614613  -0.0335269 -0.173264 0.000365734  -0.0403841 -0.173031 0.000460923  -0.0424457 -0.194447 0.000482619  -0.0354533 -0.19481 0.000286192  -0.0347917 -0.187487 0.000416547  -0.0424767 -0.194531 0.000361055  -0.0417612 -0.187222 0.000524551  -0.0348227 -0.187582 0.000312686  -0.0417964 -0.187316 0.000393093  -0.043762 -0.209006 0.000403196  -0.0366769 -0.209383 0.000239342  -0.0360413 -0.201998 0.000349939  -0.0437896 -0.209073 0.000302255  -0.0431111 -0.201702 0.00044173  -0.0360715 -0.202077 0.000261247  -0.0431416 -0.201782 0.000331014  -0.0450177 -0.223696 0.000331104  -0.0378556 -0.224084 0.000196904  -0.0372472 -0.21665 0.000290424  -0.0450425 -0.223751 0.000248045  -0.0443964 -0.21633 0.000366002  -0.0372729 -0.216719 0.000217289  -0.0444233 -0.216397 0.000275105  -0.0462136 -0.238485 0.00026679  -0.0389907 -0.238884 0.00015831  -0.0384071 -0.231417 0.000236094  -0.0462358 -0.23853 0.00019905  -0.0456228 -0.231074 0.000298142  -0.0384283 -0.231473 0.000177115  -0.045646 -0.231128 0.000223815  -0.0473592 -0.253348 0.000208467  -0.0400846 -0.253755 0.000123918  -0.0395229 -0.246267 0.000187427  -0.0473776 -0.253381 0.00015673  -0.0467927 -0.245903 0.00023672  -0.039542 -0.246311 0.000140935  -0.0468135 -0.245947 0.000177801  -0.0484529 -0.268258 0.000158191  -0.0411413 -0.268672 9.37879e-05  -0.040601 -0.261172 0.000144452  -0.0484676 -0.268284 0.000119001  -0.0479119 -0.260793 0.000183165  -0.0406177 -0.261208 0.000107527  -0.0479295 -0.260827 0.000137299  -0.0495021 -0.283195 0.000115156  -0.0421622 -0.283615 6.78301e-05  -0.041641 -0.276114 0.00010708  -0.0495143 -0.283214 8.72612e-05  -0.0489824 -0.275719 0.00013563  -0.0416553 -0.27614 8.03471e-05  -0.0489969 -0.275745 0.000101924  -0.0505116 -0.298139 7.97212e-05  -0.0431495 -0.298562 4.80115e-05  -0.0426481 -0.291067 7.60257e-05  -0.0505219 -0.298149 5.94258e-05  -0.0500109 -0.290662 9.70662e-05  -0.0426593 -0.291088 5.62966e-05  -0.0500224 -0.290681 7.15554e-05  -0.0514855 -0.313074 5.01573e-05  -0.0441113 -0.3135 2.92361e-05  -0.0436234 -0.306019 5.07534e-05  -0.0514934 -0.31308 3.72529e-05  -0.0510013 -0.305603 6.39856e-05  -0.043633 -0.306032 3.75211e-05  -0.0510118 -0.305616 4.8548e-05  -0.0524285 -0.327986 2.89083e-05  -0.0450461 -0.328416 1.68681e-05  -0.0445728 -0.320951 3.06964e-05  -0.0524368 -0.327989 2.25902e-05  -0.0519586 -0.320528 3.97861e-05  -0.0445821 -0.32096 2.40207e-05  -0.0519681 -0.320537 2.97427e-05  -0.0533466 -0.342868 1.24574e-05  -0.0459621 -0.343297 7.7486e-06  -0.0454981 -0.335855 1.57058e-05  -0.0533531 -0.342866 9.65595e-06  -0.0528901 -0.335425 1.97589e-05  -0.0455065 -0.33586 1.14739e-05  -0.0528967 -0.335431 1.54674e-05  -0.0542469 -0.357708 -2.98023e-08  -0.0468595 -0.358139 -1.72853e-06  -0.0464036 -0.350719 3.51667e-06  -0.0542533 -0.357706 -1.19209e-07  -0.0537977 -0.350287 5.42402e-06  -0.0464125 -0.350722 3.33786e-06  -0.0538037 -0.35029 4.17233e-06  -0.0551364 -0.372513 -1.36197e-05  -0.0477483 -0.37294 -9.41753e-06  -0.0472987 -0.36554 -7.48038e-06  -0.0551438 -0.372512 -1.02818e-05  -0.0546916 -0.365109 -7.09295e-06  -0.0473051 -0.365543 -5.0962e-06  -0.0546975 -0.365112 -4.26173e-06  -0.000707872 -0.000957668 0.000866771  0 0 0  -0.000426598 -0.000837356 0.000416517  -0.00013724 -0.000100732 0.000325412  0 0 0  -0.000686377 -0.0010815 0.000622571  -0.000217702 -0.000239372 0.000482738  0 0 0  -0.000132199 -0.000155449 0.000230491  -0.000208948 -0.000300974 0.000342965  -0.00222236 -0.00387591 0.00140366  -0.00136912 -0.00374794 0.000686437  -0.000870928 -0.00194272 0.000790983  -0.00217809 -0.00411358 0.00102264  -0.001394 -0.00224894 0.00117815  -0.0008488 -0.00211838 0.00057289  -0.00135964 -0.00243828 0.000853747  -0.0040457 -0.00809917 0.00161764  -0.00255695 -0.00805655 0.000805736  -0.00197899 -0.00549549 0.00103295  -0.00400233 -0.00841871 0.00119883  -0.00312236 -0.00584805 0.00153837  -0.0019483 -0.00576711 0.000760108  -0.00307494 -0.00613648 0.00113231  -0.00586021 -0.0133933 0.00163323  -0.00378618 -0.0134541 0.000820994  -0.00319287 -0.0102916 0.00109968  -0.00583929 -0.0137586 0.00122488  -0.00496334 -0.0106105 0.0016388  -0.00317398 -0.0106295 0.000820965  -0.00492924 -0.0109635 0.00122273  -0.00759006 -0.0196973 0.0015617  -0.00498289 -0.019836 0.000787288  -0.00438899 -0.0161513 0.00107464  -0.00759619 -0.0200813 0.00117514  -0.00673532 -0.0164155 0.0016039  -0.00438964 -0.0165243 0.000808001  -0.00672835 -0.0167983 0.00120524  -0.00924802 -0.0269642 0.0014559  -0.00614446 -0.0271528 0.000733435  -0.00554878 -0.0229969 0.00101051  -0.00927466 -0.0273445 0.00109699  -0.00842714 -0.0232081 0.00151145  -0.00556773 -0.0233789 0.000761658  -0.00844437 -0.0235968 0.0011383  -0.0108489 -0.0351322 0.00134021  -0.0072844 -0.0353517 0.000673413  -0.00668406 -0.0307698 0.000933409  -0.0108895 -0.0354953 0.00100902  -0.0100549 -0.0309337 0.00139883  -0.00671655 -0.0311437 0.000703335  -0.0100892 -0.0313116 0.00105345  -0.0124047 -0.0441305 0.0012252  -0.0084101 -0.0443746 0.000613511  -0.00780845 -0.0394057 0.000854015  -0.0124526 -0.0444734 0.000921369  -0.0116321 -0.0395247 0.00128216  -0.00784802 -0.0397626 0.000643313  -0.0116765 -0.0398836 0.000965148  -0.0139198 -0.053896 0.00111508  -0.00953043 -0.0541595 0.000556916  -0.00892663 -0.0488406 0.000777483  -0.0139714 -0.0542136 0.000838161  -0.0131665 -0.0489153 0.00116941  -0.0089705 -0.0491744 0.000585139  -0.0132167 -0.0492512 0.000879884  -0.0153998 -0.0643628 0.00101095  -0.0106452 -0.0646428 0.000504225  -0.0100424 -0.0590072 0.000703752  -0.0154516 -0.0646532 0.000759929  -0.0146623 -0.0590395 0.00106245  -0.0100878 -0.0593166 0.000529408  -0.0147161 -0.0593486 0.000798494  -0.0168462 -0.0754649 0.000914514  -0.0117574 -0.075763 0.000454158  -0.0111569 -0.069842 0.000636756  -0.0168973 -0.0757315 0.000686377  -0.0161265 -0.0698317 0.000962257  -0.0112007 -0.0701261 0.000478059  -0.0161787 -0.0701154 0.000722855  -0.0182595 -0.0871461 0.000823706  -0.0128664 -0.0874604 0.0004071  -0.0122689 -0.0812838 0.000573099  -0.0183092 -0.0873877 0.000618398  -0.0175568 -0.0812317 0.000868112  -0.0123113 -0.081542 0.000429988  -0.0176078 -0.0814896 0.000652254  -0.019642 -0.0993473 0.000738382  -0.0139731 -0.099676 0.000364721  -0.0133792 -0.0932719 0.000513762  -0.0196886 -0.0995634 0.000553638  -0.0189539 -0.0931804 0.000780553  -0.0134205 -0.0935052 0.000385523  -0.0190017 -0.0934128 0.000585735  -0.0209929 -0.112012 0.000658959  -0.015075 -0.112355 0.000325739  -0.0144858 -0.105749 0.000458449  -0.0210373 -0.112205 0.000494599  -0.0203205 -0.105618 0.000698507  -0.0145255 -0.105959 0.000343889  -0.0203658 -0.105828 0.000523776  -0.0223128 -0.125089 0.00058499  -0.0161723 -0.125446 0.000286788  -0.0155877 -0.118662 0.000406474  -0.0223541 -0.125261 0.000438541  -0.0216563 -0.118496 0.000621289  -0.0156242 -0.118851 0.000304788  -0.021699 -0.118684 0.000466555  -0.0236024 -0.138529 0.000515312  -0.0172632 -0.138899 0.000250965  -0.0166862 -0.131961 0.000358969  -0.0236398 -0.138681 0.000386477  -0.0229604 -0.131761 0.000548929  -0.0167189 -0.132129 0.000269175  -0.0230006 -0.131927 0.000411808  -0.0248613 -0.152285 0.000449955  -0.0183456 -0.152666 0.000218958  -0.0177748 -0.145597 0.000314474  -0.0248947 -0.152419 0.000336885  -0.0242355 -0.145364 0.00048247  -0.0178053 -0.145745 0.000235826  -0.0242701 -0.145512 0.000361562  -0.026088 -0.166315 0.000389308  -0.019419 -0.166705 0.000189424  -0.0188544 -0.159524 0.000272483  -0.0261195 -0.16643 0.000292331  -0.0254776 -0.159262 0.00041905  -0.018883 -0.159653 0.000204325  -0.0255108 -0.159392 0.000314206  -0.0272837 -0.180576 0.000333965  -0.0204799 -0.180974 0.000161618  -0.0199249 -0.173699 0.000233948  -0.0273118 -0.180673 0.00025031  -0.0266891 -0.173412 0.000361115  -0.0199506 -0.173813 0.000175297  -0.0267189 -0.173524 0.000271082  -0.0284498 -0.195029 0.000283003  -0.0215302 -0.195435 0.000136405  -0.0209837 -0.188085 0.000198305  -0.0284746 -0.195112 0.000211716  -0.0278697 -0.187774 0.000308067  -0.0210044 -0.188182 0.000148624  -0.0278966 -0.187869 0.000230819  -0.0295846 -0.209638 0.000235647  -0.0225651 -0.210053 0.000113606  -0.0220308 -0.202642 0.000166506  -0.0296056 -0.209708 0.000175446  -0.0290203 -0.202309 0.000258714  -0.0220492 -0.202725 0.000124246  -0.0290437 -0.20239 0.000193924  -0.0306871 -0.224372 0.00019297  -0.0235841 -0.224792 9.18508e-05  -0.0230579 -0.217339 0.000136465  -0.0307069 -0.22443 0.000144333  -0.0301385 -0.216986 0.000213653  -0.0230765 -0.217408 0.000102788  -0.0301588 -0.217055 0.000160277  -0.0317631 -0.239204 0.000154793  -0.024591 -0.239626 7.27773e-05  -0.024076 -0.23214 0.000110328  -0.0317783 -0.239248 0.000116557  -0.0312278 -0.231771 0.000173956  -0.0240891 -0.232198 8.25226e-05  -0.0312455 -0.231829 0.00012967  -0.0328069 -0.254099 0.00012067  -0.0255804 -0.254526 5.83529e-05  -0.025074 -0.247022 8.63373e-05  -0.0328217 -0.254136 9.07481e-05  -0.0322869 -0.246639 0.000137568  -0.0250881 -0.247068 6.52671e-05  -0.0323043 -0.246684 0.000103533  -0.0338254 -0.26904 9.17614e-05  -0.0265548 -0.269467 4.3571e-05  -0.0260575 -0.261954 6.71148e-05  -0.0338376 -0.269067 6.80983e-05  -0.033318 -0.261559 0.000105262  -0.0260694 -0.261991 4.9144e-05  -0.0333326 -0.261595 7.95126e-05  -0.0348196 -0.284001 6.59525e-05  -0.0275121 -0.28443 3.07262e-05  -0.0270264 -0.276918 4.80115e-05  -0.0348282 -0.28402 4.95017e-05  -0.0343239 -0.276513 7.81715e-05  -0.0270357 -0.276947 3.65078e-05  -0.0343356 -0.27654 5.84424e-05  -0.0357878 -0.298965 4.55976e-05  -0.0284553 -0.299395 2.04146e-05  -0.0279784 -0.291892 3.41535e-05  -0.0357962 -0.298978 3.26931e-05  -0.035306 -0.291477 5.55515e-05  -0.0279863 -0.291912 2.51234e-05  -0.035316 -0.291497 4.15146e-05  -0.0367353 -0.313916 2.864e-05  -0.0293825 -0.314346 1.22786e-05  -0.0289154 -0.306857 2.21431e-05  -0.036741 -0.313922 2.25902e-05  -0.0362618 -0.306437 3.5882e-05  -0.0289202 -0.306872 1.65701e-05  -0.0362709 -0.30645 2.76268e-05  -0.037662 -0.328842 1.65403e-05  -0.0302982 -0.329271 6.70552e-06  -0.0298359 -0.321801 1.25766e-05  -0.0376675 -0.328843 1.19209e-05  -0.0372007 -0.321374 2.28286e-05  -0.0298424 -0.321811 9.68575e-06  -0.0372062 -0.321385 1.64509e-05  -0.0385725 -0.343727 5.06639e-06  -0.0312014 -0.344159 2.83122e-06  -0.0307465 -0.336712 5.99027e-06  -0.0385787 -0.343728 3.9041e-06  -0.0381193 -0.336283 1.04606e-05  -0.0307515 -0.336719 3.39746e-06  -0.0381241 -0.336289 8.40425e-06  -0.0394697 -0.358572 -1.96695e-06  -0.0320938 -0.359004 -1.78814e-06  -0.0316448 -0.351582 3.27826e-07  -0.0394735 -0.358571 -1.63913e-06  -0.039022 -0.351151 1.57952e-06  -0.0316484 -0.351586 4.47035e-07  -0.0390275 -0.351154 1.57952e-06  -0.040359 -0.373366 -1.06096e-05  -0.0329783 -0.373795 -3.72529e-06  -0.0325332 -0.366401 -5.45382e-06  -0.0403621 -0.373366 -8.82149e-06  -0.0399137 -0.365969 -7.27177e-06  -0.0325367 -0.366405 -3.54648e-06  -0.0399172 -0.365974 -4.91738e-06  -0.000195354 -0.000608265 0.000287503  0 0 0  3.53158e-05 -0.000692099 -5.57303e-06  1.18166e-05 -2.06232e-05 -6.25849e-06  0 0 0  -0.000189945 -0.000713259 0.000206769  -6.03758e-05 -3.11434e-05 0.000159651  0 0 0  1.05873e-05 -6.89328e-05 -3.27826e-06  -5.7783e-05 -8.17776e-05 0.000113428  -0.000633597 -0.00334984 0.000469834  9.98974e-05 -0.00353065 -1.63913e-06  7.23302e-05 -0.00176409 -7.59959e-06  -0.000622869 -0.00355929 0.000342995  -0.000390723 -0.00178733 0.000392616  6.6191e-05 -0.0019255 -3.78489e-06  -0.000381947 -0.00195181 0.00028494  -0.00119784 -0.00757816 0.000545442  0.000147372 -0.00785312 4.20213e-06  0.000137597 -0.00529543 1.49012e-07  -0.00118953 -0.00786945 0.000405163  -0.000907212 -0.00531387 0.000517249  0.000127852 -0.00555101 1.87755e-06  -0.000896215 -0.00557414 0.000381619  -0.00179991 -0.0129581 0.000552177  0.000149846 -0.0133097 7.56979e-06  0.000169992 -0.0101305 7.00355e-06  -0.00180224 -0.0133037 0.000415236  -0.00149629 -0.0101314 0.000553489  0.000155538 -0.0104546 6.31809e-06  -0.00149381 -0.0104598 0.000414193  -0.00241381 -0.0193588 0.000527024  9.46522e-05 -0.0197593 8.28505e-06  0.000148416 -0.0160515 9.53674e-06  -0.00242841 -0.0197281 0.00039801  -0.0021047 -0.0160297 0.000541985  0.000130236 -0.0164137 8.22544e-06  -0.00211418 -0.0163954 0.000408471  -0.00304526 -0.0267129 0.000488847  -2.31266e-05 -0.0271402 4.88758e-06  6.57439e-05 -0.0229591 7.24196e-06  -0.00306869 -0.0270843 0.000369012  -0.00272632 -0.0229138 0.000508755  4.47035e-05 -0.0233346 7.21216e-06  -0.00274652 -0.0232911 0.000384092  -0.00370026 -0.0349595 0.000446469  -0.000205994 -0.0354014 1.93715e-06  -8.19564e-05 -0.0307914 2.98023e-06  -0.0037306 -0.0353194 0.000337213  -0.00336879 -0.030722 0.000468105  -0.000106394 -0.0311625 3.72529e-06  -0.00339651 -0.0310939 0.000353485  -0.00438499 -0.044039 0.000404745  -0.000455856 -0.0444853 -3.27826e-06  -0.000295877 -0.0394873 -2.35438e-06  -0.00441825 -0.0443788 0.000304729  -0.00403839 -0.039393 0.000425458  -0.000322282 -0.0398422 -7.45058e-07  -0.00407124 -0.0397489 0.000321299  -0.00510156 -0.0538819 0.000365108  -0.000771046 -0.0543319 -6.67572e-06  -0.000578403 -0.0489821 -7.15256e-06  -0.00513673 -0.0541989 0.000275314  -0.00473881 -0.0488615 0.000384569  -0.000605226 -0.0493161 -4.29153e-06  -0.0047735 -0.0491956 0.000290364  -0.00584853 -0.0644256 0.000327647  -0.00115073 -0.0648773 -9.05991e-06  -0.000925064 -0.0592107 -1.19507e-05  -0.00588453 -0.0647167 0.000246674  -0.00547004 -0.0590641 0.000346035  -0.000953197 -0.0595199 -8.16584e-06  -0.00550652 -0.0593734 0.000260621  -0.00662732 -0.0756051 0.000293702  -0.00159216 -0.0760586 -1.25468e-05  -0.00133705 -0.0701069 -1.53482e-05  -0.00666189 -0.0758717 0.000220746  -0.00623381 -0.0699335 0.000310391  -0.00136447 -0.0703909 -1.12653e-05  -0.0062691 -0.0702175 0.000233531  -0.00743425 -0.0873611 0.000261277  -0.00209105 -0.0878156 -1.38879e-05  -0.00180852 -0.0816083 -1.84774e-05  -0.00746691 -0.087602 0.000196934  -0.00702691 -0.0814082 0.000277162  -0.0018338 -0.0818676 -1.33216e-05  -0.00706172 -0.0816673 0.000208139  -0.00826681 -0.0996327 0.000232518  -0.00264525 -0.100089 -1.5974e-05  -0.00233638 -0.093655 -2.05934e-05  -0.00829804 -0.0998517 0.000173509  -0.00784683 -0.0934288 0.000247031  -0.00236094 -0.0938899 -1.48714e-05  -0.00787902 -0.0936637 0.000185579  -0.00912321 -0.112365 0.000205487  -0.00325119 -0.112823 -1.68383e-05  -0.00292003 -0.106189 -2.19345e-05  -0.00915182 -0.11256 0.000154376  -0.00869215 -0.105939 0.000218272  -0.00294197 -0.106401 -1.56462e-05  -0.00872183 -0.10615 0.000163794  -0.0100006 -0.125506 0.000180066  -0.00390208 -0.125966 -1.7345e-05  -0.00355065 -0.119155 -2.28286e-05  -0.0100265 -0.12568 0.000134915  -0.00955892 -0.118881 0.000192046  -0.00357032 -0.119346 -1.65403e-05  -0.00958633 -0.119071 0.000143915  -0.0108954 -0.139006 0.00015676  -0.00459504 -0.139467 -1.66893e-05  -0.00422537 -0.132504 -2.30968e-05  -0.0109196 -0.13916 0.000117362  -0.0104443 -0.132208 0.000167698  -0.00424457 -0.132673 -1.65403e-05  -0.0104707 -0.132377 0.000125766  -0.0118053 -0.152819 0.000135034  -0.00532627 -0.153279 -1.65999e-05  -0.00493836 -0.146187 -2.2769e-05  -0.0118272 -0.152953 0.000101179  -0.011348 -0.14587 0.000145435  -0.0049572 -0.146336 -1.66297e-05  -0.0113714 -0.146019 0.000109226  -0.012727 -0.166897 0.000115901  -0.00609112 -0.167359 -1.5527e-05  -0.00568938 -0.160155 -2.19047e-05  -0.0127463 -0.167015 8.71718e-05  -0.0122647 -0.159821 0.000125676  -0.0057044 -0.160288 -1.69873e-05  -0.0122855 -0.159951 9.42945e-05  -0.0136571 -0.181205 9.81987e-05  -0.00688434 -0.181665 -1.51098e-05  -0.00647187 -0.174371 -2.08616e-05  -0.0136733 -0.181304 7.22706e-05  -0.0131917 -0.174018 0.000106484  -0.00648332 -0.174485 -1.56164e-05  -0.0132098 -0.174132 8.02875e-05  -0.0145938 -0.195697 8.14795e-05  -0.00770044 -0.196159 -1.37389e-05  -0.00727773 -0.18879 -1.98781e-05  -0.0146084 -0.195784 6.06477e-05  -0.0141239 -0.188423 8.93772e-05  -0.00728869 -0.188889 -1.53184e-05  -0.0141408 -0.188521 6.69658e-05  -0.015532 -0.210345 6.65784e-05  -0.00853872 -0.210804 -1.49608e-05  -0.00810623 -0.203379 -1.94609e-05  -0.0155456 -0.210417 4.8548e-05  -0.0150607 -0.202998 7.35819e-05  -0.00811744 -0.203463 -1.508e-05  -0.0150764 -0.203082 5.57005e-05  -0.0164731 -0.225112 5.26607e-05  -0.00939322 -0.225569 -1.19209e-05  -0.00895572 -0.218102 -1.7792e-05  -0.0164838 -0.225171 4.00245e-05  -0.0160024 -0.21771 5.93066e-05  -0.0089643 -0.218172 -1.30534e-05  -0.0160146 -0.21778 4.42266e-05  -0.0174124 -0.23997 4.16338e-05  -0.0102603 -0.240423 -1.08778e-05  -0.00981903 -0.232927 -1.62423e-05  -0.0174205 -0.240017 3.00705e-05  -0.0169415 -0.232525 4.73857e-05  -0.00982523 -0.232985 -1.18315e-05  -0.0169516 -0.232583 3.48687e-05  -0.0183475 -0.254889 3.15309e-05  -0.011138 -0.255342 -1.06096e-05  -0.0106916 -0.247828 -1.44839e-05  -0.0183539 -0.254928 2.32756e-05  -0.0178795 -0.247418 3.55542e-05  -0.0106983 -0.247875 -1.12057e-05  -0.0178888 -0.247465 2.67029e-05  -0.019279 -0.269851 2.21729e-05  -0.0120213 -0.270298 -8.40425e-06  -0.0115752 -0.262778 -1.29044e-05  -0.0192835 -0.269878 1.74642e-05  -0.0188127 -0.262361 2.73585e-05  -0.0115788 -0.262816 -1.01626e-05  -0.0188203 -0.262398 2.04444e-05  -0.0202036 -0.284828 1.5825e-05  -0.0129075 -0.285273 -8.58307e-06  -0.0124617 -0.277755 -1.12653e-05  -0.0202074 -0.284848 1.18315e-05  -0.0197396 -0.277331 1.85072e-05  -0.0124636 -0.277784 -8.61287e-06  -0.0197458 -0.27736 1.42157e-05  -0.0211213 -0.299804 1.01626e-05  -0.0137992 -0.300248 -5.81145e-06  -0.0133519 -0.292738 -9.44734e-06  -0.0211241 -0.299819 7.48038e-06  -0.0206618 -0.292312 1.17719e-05  -0.0133531 -0.29276 -5.96046e-06  -0.0206664 -0.292333 8.73208e-06  -0.0220308 -0.314765 4.76837e-06  -0.0146885 -0.315206 -5.06639e-06  -0.0142419 -0.307712 -7.80821e-06  -0.0220346 -0.314774 4.05312e-06  -0.021575 -0.307282 7.00355e-06  -0.0142441 -0.307729 -6.13928e-06  -0.0215805 -0.307298 6.16908e-06  -0.0229347 -0.329698 2.05636e-06  -0.0155766 -0.330135 -4.70877e-06  -0.0151336 -0.322663 -6.02007e-06  -0.0229368 -0.329701 8.9407e-07  -0.0224831 -0.32223 3.57628e-06  -0.0151334 -0.322673 -3.99351e-06  -0.0224857 -0.32224 3.09944e-06  -0.0238302 -0.344593 -3.57628e-07  -0.0164635 -0.345028 -2.02656e-06  -0.0160179 -0.337579 -4.41074e-06  -0.0238314 -0.344593 -6.85453e-07  -0.0233824 -0.337144 4.47035e-07  -0.0160217 -0.337585 -2.80142e-06  -0.0233843 -0.337151 5.66244e-07  -0.0247173 -0.359438 -1.81794e-06  -0.017344 -0.359873 -1.3411e-06  -0.0169039 -0.352451 -2.26498e-06  -0.024718 -0.359437 -8.9407e-07  -0.0242734 -0.352015 -1.54972e-06  -0.0169029 -0.352456 -2.23517e-06  -0.0242765 -0.35202 -1.04308e-06  -0.0255976 -0.374225 -3.8445e-06  -0.0182204 -0.374661 -1.19209e-07  -0.0177829 -0.367269 -6.55651e-07  -0.0255988 -0.374227 -2.23517e-06  -0.0251575 -0.366834 -2.86102e-06  -0.0177836 -0.367274 5.96046e-07  -0.0251589 -0.366838 -1.19209e-06  0.000273272 -0.00066787 -0.000302553  0 0 0  0.000498876 -0.000952661 -0.000421941  0.000161573 -0.000167966 -0.000335246  0 0 0  0.000261709 -0.000771403 -0.000214547  8.41245e-05 -6.48499e-05 -0.000171691  0 0 0  0.000153728 -0.000220239 -0.000235736  7.92891e-05 -0.000113606 -0.000120729  0.000850379 -0.00345516 -0.000477374  0.00156829 -0.00395006 -0.000684619  0.00101678 -0.0021109 -0.000798374  0.000824064 -0.00366074 -0.00034526  0.000536069 -0.00187129 -0.000405639  0.000983074 -0.00228006 -0.000575095  0.000516817 -0.00203365 -0.000291348  0.00151563 -0.00771731 -0.000536144  0.00284448 -0.00832582 -0.00078994  0.00225115 -0.00573879 -0.00102311  0.00148383 -0.0080052 -0.000395477  0.00118366 -0.00543725 -0.000515133  0.00219965 -0.00600302 -0.000750184  0.00115234 -0.00569355 -0.000377178  0.00212753 -0.0131291 -0.000532597  0.00407088 -0.0137854 -0.000799119  0.00352237 -0.0105991 -0.00107604  0.00209808 -0.0134706 -0.000397414  0.00183317 -0.010287 -0.000537783  0.00347298 -0.0109293 -0.000800699  0.001802 -0.0106116 -0.000399649  0.00263709 -0.0195619 -0.000508159  0.00515032 -0.0202332 -0.00076589  0.00466704 -0.0165216 -0.00104746  0.00261223 -0.0199281 -0.000380218  0.00239587 -0.0162157 -0.000521749  0.0046317 -0.0168877 -0.000784874  0.00236869 -0.0165784 -0.000389904  0.00303698 -0.0269502 -0.000477523  0.00607157 -0.0276227 -0.000718445  0.00565463 -0.0234347 -0.000990421  0.003016 -0.0273201 -0.000357836  0.00285089 -0.0231328 -0.000493288  0.00563049 -0.0238116 -0.000742912  0.00282782 -0.0235083 -0.000369102  0.00332993 -0.0352364 -0.0004462  0.00684142 -0.035901 -0.000667423  0.00649267 -0.0312818 -0.000923872  0.00331002 -0.0355948 -0.000333995  0.00319678 -0.030978 -0.000461608  0.00647515 -0.031653 -0.000693291  0.00317687 -0.0313492 -0.000345886  0.00351691 -0.0443563 -0.00041458  0.00746655 -0.0450092 -0.00061658  0.00718361 -0.0399994 -0.000855982  0.00349867 -0.0446957 -0.0003106  0.00343657 -0.03969 -0.000430286  0.00717187 -0.0403539 -0.0006423  0.00341767 -0.0400444 -0.000322163  0.0036031 -0.054243 -0.000384361  0.00795472 -0.0548834 -0.000569671  0.00773835 -0.04952 -0.000790119  0.00358534 -0.0545608 -0.000287861  0.00357211 -0.0492018 -0.000399143  0.00772691 -0.0498533 -0.000592589  0.00355482 -0.049535 -0.000298947  0.00359178 -0.0648326 -0.00035578  0.00831175 -0.0654591 -0.000522792  0.00815701 -0.0597769 -0.000727445  0.00357401 -0.0651253 -0.000266254  0.00361037 -0.0594482 -0.000369906  0.00814879 -0.0600864 -0.000544548  0.00359213 -0.0597572 -0.000276685  0.00348568 -0.0760582 -0.000327438  0.00854111 -0.0766717 -0.000476837  0.00845039 -0.0707041 -0.000666559  0.00346959 -0.0763243 -0.000245631  0.00355065 -0.0703635 -0.000341773  0.00844169 -0.0709881 -0.000499845  0.00353396 -0.0706484 -0.000255764  0.00329101 -0.0878591 -0.000300884  0.00865328 -0.0884601 -0.000435412  0.00862038 -0.0822369 -0.000608832  0.00327611 -0.0881002 -0.000224948  0.0033989 -0.0818836 -0.000314206  0.0086118 -0.0824959 -0.000456333  0.00338352 -0.0821437 -0.000234753  0.00301278 -0.100174 -0.000274628  0.00865293 -0.100764 -0.000395358  0.00867224 -0.0943137 -0.000554293  0.00299859 -0.100393 -0.000205964  0.00316262 -0.0939489 -0.000287294  0.00866711 -0.09455 -0.000415355  0.00314808 -0.0941848 -0.00021553  0.00265551 -0.112949 -0.000249088  0.00854719 -0.113527 -0.00035724  0.00861979 -0.106878 -0.000501812  0.00264323 -0.113147 -0.000186294  0.00284421 -0.106501 -0.000261903  0.0086118 -0.10709 -0.000376314  0.00283062 -0.106713 -0.000196248  0.00222766 -0.126131 -0.000225902  0.00834346 -0.126697 -0.000321746  0.00846124 -0.119873 -0.000451475  0.00221646 -0.126304 -0.000169009  0.00244975 -0.119485 -0.000237316  0.00845778 -0.120064 -0.000338614  0.00243795 -0.119676 -0.000177503  0.00173259 -0.139667 -0.000202626  0.00804973 -0.140224 -0.000285149  0.00821137 -0.133248 -0.000404447  0.00172281 -0.139822 -0.000150681  0.0019871 -0.13285 -0.000213653  0.00820804 -0.133418 -0.00030297  0.00197732 -0.13302 -0.000160515  0.00117731 -0.153511 -0.000179529  0.00767136 -0.154059 -0.000251949  0.00787306 -0.146953 -0.000359267  0.00116897 -0.153648 -0.000135362  0.0014627 -0.146547 -0.000190705  0.00787044 -0.147104 -0.000268549  0.00145364 -0.146697 -0.000142962  0.000566483 -0.167623 -0.000158578  0.00721884 -0.16816 -0.000221878  0.00745845 -0.160946 -0.000316918  0.000560045 -0.16774 -0.000118732  0.000878096 -0.16053 -0.000169009  0.00745511 -0.161078 -0.000237614  0.000870705 -0.160662 -0.00012669  -9.13143e-05 -0.181955 -0.000139236  0.00669694 -0.182484 -0.000192851  0.00696611 -0.175179 -0.000276238  -9.84669e-05 -0.182057 -0.000103682  0.000243187 -0.174758 -0.000149101  0.00696564 -0.175294 -0.000206977  0.00023675 -0.174872 -0.000111282  -0.00079298 -0.196475 -0.000121117  0.00611186 -0.196992 -0.000165254  0.00641084 -0.189616 -0.000238955  -0.000797272 -0.19656 -8.98838e-05  -0.000437737 -0.189188 -0.000130475  0.00641179 -0.189715 -0.000179261  -0.000442743 -0.189287 -9.78708e-05  -0.00153255 -0.211143 -0.000103623  0.00547338 -0.211651 -0.000142932  0.00580025 -0.204219 -0.000205547  -0.00153565 -0.211215 -7.7486e-05  -0.00115967 -0.203785 -0.000112087  0.00579977 -0.204303 -0.000154525  -0.00116229 -0.20387 -8.40724e-05  -0.00230336 -0.225927 -8.74698e-05  0.0047884 -0.226425 -0.000117332  0.00513697 -0.218953 -0.000172645  -0.00230527 -0.225988 -6.54161e-05  -0.00191498 -0.218515 -9.60529e-05  0.00513601 -0.219023 -0.000128508  -0.00191689 -0.218586 -7.17044e-05  -0.00310111 -0.240801 -7.24792e-05  0.00406122 -0.241289 -9.74238e-05  0.00442791 -0.233787 -0.000143677  -0.00310278 -0.240847 -5.39124e-05  -0.0026989 -0.233347 -7.93636e-05  0.00442982 -0.233847 -0.000107169  -0.00270128 -0.233406 -5.98729e-05  -0.00392222 -0.255733 -5.90384e-05  0.00329876 -0.256212 -7.89464e-05  0.00368142 -0.248696 -0.000115693  -0.0039227 -0.255771 -4.46737e-05  -0.00350928 -0.248254 -6.58035e-05  0.003685 -0.248744 -8.58605e-05  -0.00350928 -0.248301 -4.95315e-05  -0.00476027 -0.270703 -4.75943e-05  0.00250387 -0.271175 -6.09457e-05  0.00290298 -0.263652 -9.31621e-05  -0.00476074 -0.270731 -3.54648e-05  -0.00434089 -0.263208 -5.27799e-05  0.00290442 -0.263689 -6.97374e-05  -0.00433969 -0.263247 -3.96371e-05  -0.0056138 -0.285686 -3.63588e-05  0.00168848 -0.286152 -4.58658e-05  0.00209618 -0.278631 -7.15256e-05  -0.0056119 -0.285708 -2.80142e-05  -0.0051868 -0.278187 -4.14252e-05  0.00209951 -0.278661 -5.34952e-05  -0.00518298 -0.278217 -3.09646e-05  -0.0064764 -0.30067 -2.63751e-05  0.000852823 -0.301127 -3.34978e-05  0.00127149 -0.293617 -5.30183e-05  -0.00647449 -0.300683 -1.94609e-05  -0.0060432 -0.293174 -3.07858e-05  0.0012722 -0.293639 -3.91006e-05  -0.00604248 -0.293196 -2.30074e-05  -0.00734615 -0.315634 -1.89543e-05  3.57628e-06 -0.316087 -2.39611e-05  0.000427961 -0.308593 -3.69847e-05  -0.00734401 -0.315642 -1.39177e-05  -0.00690961 -0.308149 -2.33948e-05  0.000430107 -0.308608 -2.77758e-05  -0.00690937 -0.308165 -1.67489e-05  -0.00822091 -0.33057 -1.2368e-05  -0.00085783 -0.331016 -1.42753e-05  -0.000428915 -0.323542 -2.40505e-05  -0.00821996 -0.330573 -9.47714e-06  -0.00778222 -0.323101 -1.48714e-05  -0.000426292 -0.323554 -1.84774e-05  -0.00778151 -0.323111 -1.11163e-05  -0.00909925 -0.345464 -6.70552e-06  -0.00172687 -0.345906 -5.54323e-06  -0.00129533 -0.338457 -1.35005e-05  -0.00909638 -0.345466 -5.54323e-06  -0.0086596 -0.338015 -9.0301e-06  -0.00129128 -0.338465 -1.06096e-05  -0.00865722 -0.338023 -6.58631e-06  -0.00997591 -0.36031 -1.16229e-06  -0.00260019 -0.360751 3.57628e-07  -0.00216436 -0.353329 -4.61936e-06  -0.00997305 -0.360312 -7.7486e-07  -0.0095365 -0.35289 -3.96371e-06  -0.00216293 -0.353334 -3.45707e-06  -0.0095346 -0.352894 -3.57628e-06  -0.0108483 -0.375098 3.93391e-06  -0.00346804 -0.375543 5.30481e-06  -0.00303674 -0.368148 4.08292e-06  -0.0108459 -0.3751 3.42727e-06  -0.0104129 -0.367706 2.23517e-06  -0.00303483 -0.368152 2.6226e-06  -0.0104101 -0.367712 1.57952e-06  0.000788212 -0.00113553 -0.000872076  0 0 0  0.00106126 -0.00169659 -0.000817358  0.00034377 -0.000603795 -0.000640571  0 0 0  0.000760898 -0.00125265 -0.00062269  0.00024195 -0.000340343 -0.000489265  0 0 0  0.000329614 -0.000670612 -0.000452787  0.000231676 -0.000398755 -0.000345707  0.0024364 -0.00418413 -0.00139368  0.00325489 -0.00506341 -0.00133124  0.00211975 -0.00305086 -0.00154388  0.00237644 -0.00441152 -0.00101221  0.00154081 -0.00249726 -0.00117612  0.00206399 -0.00324982 -0.00111547  0.00149548 -0.00267845 -0.000849217  0.00434738 -0.00850761 -0.00158745  0.00579625 -0.00947309 -0.00154936  0.00460756 -0.00685072 -0.0019964  0.00427911 -0.00881541 -0.00117561  0.00339085 -0.0062077 -0.00151679  0.00452429 -0.00714695 -0.00146729  0.00332215 -0.0064851 -0.00111389  0.00615412 -0.0138961 -0.00159574  0.00820965 -0.0148575 -0.00158036  0.00710681 -0.011683 -0.00211969  0.00610155 -0.0142493 -0.00119492  0.00527412 -0.0110655 -0.0016039  0.00703242 -0.0120381 -0.0015794  0.00521201 -0.0114062 -0.00119421  0.0077669 -0.0202989 -0.00152957  0.0103856 -0.0212417 -0.00152329  0.00937611 -0.0175439 -0.00207925  0.0077334 -0.0206721 -0.00114784  0.00698513 -0.0169662 -0.00156793  0.00932854 -0.0179253 -0.00155932  0.00694293 -0.0173382 -0.00117531  0.00918496 -0.0276745 -0.00143459  0.0123217 -0.0285912 -0.0014331  0.0114108 -0.0244136 -0.00197211  0.00916594 -0.0280474 -0.00107738  0.00850028 -0.0238627 -0.00148419  0.0113834 -0.0247983 -0.00148091  0.00847447 -0.0242426 -0.00111431  0.0104169 -0.0359598 -0.00133231  0.0140303 -0.0368479 -0.00132981  0.0132166 -0.0322346 -0.00184041  0.010407 -0.0363198 -0.000999957  0.00982374 -0.0317007 -0.00138447  0.0132046 -0.0326088 -0.0013817  0.00980991 -0.0320733 -0.00103933  0.0114714 -0.0450854 -0.00123003  0.0155207 -0.045945 -0.00122693  0.0148048 -0.0409387 -0.00170276  0.0114661 -0.0454262 -0.000922441  0.0109661 -0.0404161 -0.00128093  0.0148017 -0.0412948 -0.00127825  0.010959 -0.0407709 -0.00096187  0.0123549 -0.0549856 -0.00113171  0.0168042 -0.0558158 -0.00112674  0.0161849 -0.0504536 -0.00156847  0.0123538 -0.0553024 -0.000847936  0.0119342 -0.049938 -0.0011802  0.0161866 -0.0507871 -0.00117671  0.0119312 -0.0502708 -0.000885457  0.0130758 -0.0655901 -0.0010367  0.0178897 -0.0663917 -0.00103182  0.0173658 -0.0607097 -0.00143865  0.0130759 -0.0658816 -0.000776827  0.0127358 -0.0601981 -0.00108343  0.0173702 -0.0610181 -0.00107881  0.0127354 -0.0605071 -0.000812531  0.0136402 -0.0768315 -0.000946611  0.0187867 -0.0776068 -0.000940621  0.0183551 -0.0716383 -0.00131488  0.0136411 -0.0770995 -0.000710487  0.0133774 -0.0711287 -0.000991821  0.0183604 -0.0719222 -0.000986516  0.0133774 -0.0714132 -0.000743479  0.0140551 -0.0886512 -0.000861645  0.0195043 -0.0893987 -0.000855833  0.0191624 -0.0831742 -0.0011977  0.0140567 -0.0888928 -0.000646293  0.0138662 -0.0826663 -0.000904113  0.0191669 -0.0834332 -0.000897467  0.0138673 -0.0829259 -0.000677317  0.0143303 -0.100983 -0.000780135  0.0200529 -0.101707 -0.000773877  0.0197927 -0.0952551 -0.00108618  0.0143319 -0.101202 -0.000584364  0.0142101 -0.0947492 -0.00082022  0.0197998 -0.0954906 -0.000814199  0.0142114 -0.0949848 -0.000615001  0.0144715 -0.113774 -0.000703126  0.0204417 -0.114474 -0.000695765  0.0202605 -0.107823 -0.00097999  0.0144751 -0.113971 -0.00052619  0.0144178 -0.107318 -0.000740945  0.0202662 -0.108035 -0.000735581  0.0144191 -0.10753 -0.000555575  0.01449 -0.12697 -0.000630468  0.0206811 -0.127648 -0.000622988  0.0205722 -0.120822 -0.000879794  0.0144941 -0.127145 -0.000472009  0.0144976 -0.120318 -0.000666529  0.020579 -0.121012 -0.000659257  0.0144981 -0.120509 -0.000499338  0.0143938 -0.140521 -0.000560939  0.0207818 -0.141177 -0.000554204  0.0207396 -0.134199 -0.000784516  0.0143976 -0.140676 -0.000419587  0.0144564 -0.133697 -0.000595003  0.0207489 -0.13437 -0.000587255  0.0144593 -0.133868 -0.000445455  0.0141912 -0.154379 -0.000495076  0.0207536 -0.155013 -0.000488609  0.0207736 -0.147907 -0.00069496  0.0141954 -0.154515 -0.00037083  0.0143063 -0.147407 -0.000526696  0.0207825 -0.148058 -0.000520498  0.0143096 -0.147558 -0.000394851  0.0138915 -0.168498 -0.000433177  0.0206056 -0.169114 -0.000427812  0.020685 -0.1619 -0.000609934  0.0138969 -0.168617 -0.000325054  0.0140533 -0.161402 -0.000463814  0.0206935 -0.162032 -0.000456989  0.0140576 -0.161534 -0.000347316  0.0135028 -0.182839 -0.00037539  0.02035 -0.183436 -0.000370234  0.0204821 -0.176133 -0.000531405  0.0135076 -0.182943 -0.000281364  0.0137086 -0.175638 -0.000403732  0.0204904 -0.176248 -0.000397444  0.0137131 -0.175753 -0.000302702  0.0130336 -0.197365 -0.000322044  0.0199943 -0.197942 -0.000315487  0.0201755 -0.190567 -0.00045675  0.0130394 -0.197452 -0.000242025  0.013279 -0.190076 -0.000349224  0.020185 -0.190667 -0.000342757  0.0132828 -0.190175 -0.000261188  0.0124927 -0.212038 -0.000273645  0.0195496 -0.212597 -0.000268519  0.0197747 -0.205167 -0.000389546  0.0124991 -0.212111 -0.000203848  0.0127726 -0.20468 -0.000297457  0.0197814 -0.205251 -0.000291407  0.0127776 -0.204764 -0.000223011  0.0118892 -0.226826 -0.000228196  0.0190284 -0.227368 -0.000220746  0.0192893 -0.219896 -0.000327021  0.0118964 -0.226887 -0.000171006  0.0121992 -0.219414 -0.000249743  0.0192983 -0.219968 -0.000244796  0.0122051 -0.219484 -0.000187367  0.0112298 -0.241699 -0.000186175  0.0184338 -0.242224 -0.000182778  0.0187304 -0.234727 -0.000268877  0.0112374 -0.241748 -0.000138879  0.0115683 -0.234247 -0.000206292  0.0187392 -0.234785 -0.000201881  0.0115733 -0.234306 -0.000154644  0.0105224 -0.256632 -0.00014925  0.0177801 -0.257142 -0.000145257  0.0181065 -0.249629 -0.000216872  0.010529 -0.25667 -0.000111401  0.0108843 -0.249153 -0.00016731  0.0181143 -0.249677 -0.000161529  0.0108876 -0.249202 -0.000125438  0.00977445 -0.271601 -0.000115693  0.0170734 -0.272097 -0.000110626  0.0174253 -0.264577 -0.000171423  0.00978065 -0.27163 -8.65161e-05  0.0101542 -0.264108 -0.000132322  0.0174339 -0.264615 -0.000128031  0.0101602 -0.264145 -9.80496e-05  0.00899196 -0.286585 -8.64267e-05  0.0163214 -0.287067 -8.26418e-05  0.0166945 -0.279551 -0.000129551  0.00899768 -0.286606 -6.44922e-05  0.00938797 -0.279086 -0.000100762  0.0167036 -0.279581 -9.84967e-05  0.00939369 -0.279116 -7.53403e-05  0.00818205 -0.301564 -6.34789e-05  0.0155354 -0.302037 -5.99921e-05  0.0159254 -0.294529 -9.55462e-05  0.00818777 -0.301579 -4.69089e-05  0.0085907 -0.294069 -7.45952e-05  0.0159326 -0.294551 -7.10487e-05  0.00859642 -0.294091 -5.61476e-05  0.00735116 -0.316525 -4.30346e-05  0.01472 -0.316988 -4.07696e-05  0.0151227 -0.309499 -6.63996e-05  0.00735474 -0.316535 -3.15607e-05  0.00776958 -0.309042 -5.22137e-05  0.0151308 -0.309514 -5.03957e-05  0.00777411 -0.309058 -3.97861e-05  0.00650215 -0.331458 -2.56002e-05  0.01388 -0.33191 -2.51532e-05  0.0142972 -0.32444 -4.22299e-05  0.00650573 -0.33146 -1.90437e-05  0.00692868 -0.323989 -3.34382e-05  0.0143015 -0.324452 -3.1203e-05  0.00693321 -0.324001 -2.48253e-05  0.00564027 -0.346348 -1.22488e-05  0.013026 -0.346795 -1.29342e-05  0.0134513 -0.33935 -2.39909e-05  0.00564623 -0.346349 -9.95398e-06  0.00607395 -0.338903 -1.85966e-05  0.0134547 -0.339357 -1.70767e-05  0.00607753 -0.33891 -1.42753e-05  0.00477362 -0.361195 -9.83477e-07  0.0121615 -0.361638 0  0.0125895 -0.354216 -8.04663e-06  0.00477839 -0.361193 -9.23872e-07  0.0052073 -0.353771 -6.61612e-06  0.012594 -0.354221 -5.36442e-06  0.0052135 -0.353776 -4.32134e-06  0.00390625 -0.375987 1.10567e-05  0.0112977 -0.376438 9.14931e-06  0.0117245 -0.369038 4.76837e-06  0.00391245 -0.375989 8.9407e-06  0.0043385 -0.368591 5.72205e-06  0.0117292 -0.369041 3.8445e-06  0.00434422 -0.368597 3.21865e-06  0.00147822 -0.00219232 -0.00139898  0 0 0  0.00188902 -0.00325054 -0.00119221  0.000597782 -0.00154507 -0.00092423  0 0 0  0.00143994 -0.00233907 -0.00100467  0.000449412 -0.000990748 -0.000778258  0 0 0  0.00058347 -0.00163221 -0.0006603  0.000435218 -0.00106776 -0.000553071  0.00438392 -0.00565165 -0.00224835  0.00549847 -0.00700289 -0.00193763  0.0036764 -0.00480843 -0.00223872  0.0043025 -0.00592446 -0.00163847  0.00283663 -0.00380629 -0.0018923  0.00361134 -0.00505477 -0.00162601  0.0027743 -0.00402689 -0.0013712  0.00754458 -0.00994259 -0.0025855  0.00925159 -0.0112458 -0.00227258  0.0074985 -0.00865531 -0.00291321  0.00745443 -0.0102895 -0.00191554  0.00598282 -0.00766909 -0.00246051  0.00740537 -0.00900513 -0.00214517  0.0058907 -0.00799018 -0.00181037  0.0104884 -0.0152238 -0.00262275  0.0127526 -0.0164815 -0.00233606  0.0111196 -0.0133375 -0.00312123  0.0104205 -0.0156034 -0.00196213  0.00905004 -0.012444 -0.00262597  0.0110336 -0.0137309 -0.00232548  0.0089682 -0.0128174 -0.00195667  0.0131646 -0.0215492 -0.00252736  0.0159724 -0.0227555 -0.00226334  0.014458 -0.0190852 -0.00308305  0.0131241 -0.0219377 -0.00189695  0.0118601 -0.0182524 -0.00258517  0.0143992 -0.0194892 -0.0023104  0.0118067 -0.0186442 -0.00193757  0.0155768 -0.0288731 -0.00237709  0.0188945 -0.0300293 -0.00213435  0.0175033 -0.0258747 -0.00293505  0.0155579 -0.0292526 -0.00178471  0.0144041 -0.0250854 -0.00245664  0.0174701 -0.026271 -0.00220296  0.0143745 -0.0254754 -0.00184429  0.0177332 -0.0371238 -0.00220856  0.0215221 -0.0382315 -0.00198469  0.02026 -0.0336388 -0.00274399  0.017728 -0.0374852 -0.00165761  0.0166868 -0.032881 -0.00229412  0.0202447 -0.0340179 -0.00206003  0.0166751 -0.0332578 -0.00172287  0.0196434 -0.0462263 -0.00203824  0.0238636 -0.0472885 -0.00183064  0.0227304 -0.042299 -0.00254053  0.0196457 -0.0465663 -0.00153035  0.0187193 -0.0415668 -0.00212356  0.0227278 -0.0426572 -0.00190696  0.0187173 -0.0419236 -0.00159371  0.0213157 -0.0561083 -0.00187287  0.0259286 -0.0571253 -0.00168055  0.0249257 -0.05178 -0.00233901  0.021323 -0.0564241 -0.00140506  0.0205091 -0.0510678 -0.00195497  0.02493 -0.0521127 -0.00175521  0.0205141 -0.0514016 -0.00146699  0.0227598 -0.0666983 -0.00171402  0.0277318 -0.0676723 -0.00153786  0.0268556 -0.0620061 -0.00214446  0.0227686 -0.0669892 -0.00128591  0.0220667 -0.0613129 -0.00179303  0.0268636 -0.0623137 -0.001609  0.0220742 -0.061621 -0.00134432  0.023985 -0.0779296 -0.00156254  0.0292822 -0.078863 -0.00140062  0.0285285 -0.0729081 -0.00195885  0.0239948 -0.0781952 -0.00117245  0.0233994 -0.0722315 -0.00163758  0.0285381 -0.0731906 -0.00146931  0.0234089 -0.0725152 -0.00122795  0.0250008 -0.0897369 -0.00142032  0.0305948 -0.0906308 -0.0012736  0.0299569 -0.0844204 -0.00178212  0.0250117 -0.0899776 -0.0010649  0.0245186 -0.0837592 -0.0014908  0.0299672 -0.0846778 -0.0013369  0.0245285 -0.0840176 -0.00111786  0.0258185 -0.102061 -0.00128394  0.03168 -0.102917 -0.00115106  0.0311543 -0.0964788 -0.00161484  0.0258303 -0.102279 -0.000962555  0.0254351 -0.0958309 -0.00135133  0.0311652 -0.0967128 -0.0012109  0.0254451 -0.096067 -0.00101346  0.0264503 -0.114844 -0.00115481  0.0325518 -0.115664 -0.00103447  0.0321331 -0.109025 -0.00145537  0.0264624 -0.115039 -0.000865638  0.0261575 -0.108392 -0.00121847  0.0321424 -0.109236 -0.00109121  0.0261691 -0.108603 -0.00091362  0.0269082 -0.12803 -0.00103202  0.0332223 -0.128818 -0.000925124  0.0328999 -0.122004 -0.00130486  0.0269197 -0.128206 -0.000773817  0.0267001 -0.121384 -0.00109291  0.032912 -0.122192 -0.000978291  0.0267117 -0.121574 -0.000818878  0.0272017 -0.141572 -0.00091663  0.0337062 -0.142326 -0.000819594  0.0334768 -0.13536 -0.00116262  0.0272129 -0.141726 -0.000686675  0.0270767 -0.134755 -0.000973791  0.0334879 -0.135529 -0.000871301  0.0270866 -0.134924 -0.000729799  0.027344 -0.155421 -0.000808626  0.0340157 -0.156142 -0.000722289  0.0338707 -0.149048 -0.00102773  0.0273554 -0.155556 -0.00060609  0.027292 -0.148454 -0.000861526  0.0338819 -0.149197 -0.000770837  0.0273018 -0.148605 -0.000646204  0.0273454 -0.16953 -0.000706613  0.0341623 -0.170221 -0.000631183  0.0340989 -0.16302 -0.000901341  0.0273571 -0.169649 -0.000528187  0.0273623 -0.162439 -0.000756294  0.0341086 -0.163151 -0.000675887  0.0273731 -0.162571 -0.000567585  0.0272186 -0.183861 -0.000610769  0.0341609 -0.184523 -0.000546128  0.0341699 -0.177232 -0.000784218  0.0272303 -0.183962 -0.000458002  0.0272982 -0.176665 -0.000657856  0.0341799 -0.177346 -0.000587612  0.0273094 -0.17678 -0.000492841  0.0269735 -0.198374 -0.000522554  0.0340247 -0.199008 -0.000467092  0.0340981 -0.191645 -0.000673234  0.0269849 -0.19846 -0.000393331  0.0271111 -0.191091 -0.000565976  0.0341103 -0.191743 -0.000505269  0.0271211 -0.19119 -0.000424206  0.0266232 -0.213035 -0.000441104  0.0337629 -0.213642 -0.000392556  0.0338962 -0.206223 -0.000572056  0.0266352 -0.213108 -0.000330269  0.0268106 -0.205682 -0.000481278  0.0339086 -0.206308 -0.000429422  0.0268226 -0.205766 -0.000360191  0.0261786 -0.22781 -0.000365376  0.0333903 -0.228392 -0.000325561  0.0335805 -0.220933 -0.000478446  0.0261896 -0.227869 -0.000274181  0.0264127 -0.220403 -0.000402331  0.0335908 -0.221004 -0.000359297  0.0264235 -0.220475 -0.000301987  0.0256484 -0.24267 -0.000297934  0.0329208 -0.24323 -0.000265181  0.0331585 -0.235743 -0.000392288  0.0256598 -0.242719 -0.000223368  0.0259247 -0.235226 -0.000331283  0.0331666 -0.2358 -0.000294  0.025934 -0.235283 -0.000248253  0.0250463 -0.25759 -0.000237167  0.0323625 -0.258127 -0.000209391  0.0326431 -0.250624 -0.000315726  0.0250554 -0.257629 -0.000177562  0.0253563 -0.250119 -0.000267118  0.0326514 -0.250671 -0.000237286  0.0253651 -0.250167 -0.000199825  0.0243773 -0.272548 -0.000182927  0.0317297 -0.273063 -0.000162423  0.0320475 -0.265554 -0.000247657  0.0243871 -0.272575 -0.000138134  0.0247197 -0.265059 -0.000209361  0.0320544 -0.265591 -0.000185281  0.024729 -0.265097 -0.000156879  0.0236552 -0.287518 -0.000136703  0.0310326 -0.288016 -0.000119954  0.0313804 -0.280509 -0.000187337  0.0236657 -0.287537 -0.000103027  0.0240226 -0.280025 -0.000159383  0.0313892 -0.280537 -0.000140578  0.0240326 -0.280054 -0.000118971  0.0228899 -0.302486 -9.66489e-05  0.030282 -0.302967 -8.51154e-05  0.0306554 -0.295471 -0.000135839  0.0228987 -0.302499 -7.2062e-05  0.0232785 -0.294996 -0.000115871  0.0306628 -0.295492 -0.000102043  0.0232866 -0.295018 -8.67546e-05  0.0220873 -0.317437 -6.40452e-05  0.0294883 -0.317906 -5.60582e-05  0.0298812 -0.310424 -9.34899e-05  0.022095 -0.317444 -4.80413e-05  0.0224936 -0.309959 -8.06153e-05  0.0298889 -0.310438 -7.05719e-05  0.0224998 -0.309974 -5.99623e-05  0.0212576 -0.332358 -3.90112e-05  0.0286629 -0.332816 -3.40939e-05  0.0290732 -0.325354 -5.97537e-05  0.0212646 -0.332363 -2.93553e-05  0.0216744 -0.324896 -5.04851e-05  0.0290806 -0.325365 -4.44949e-05  0.0216825 -0.324907 -3.77893e-05  0.0204072 -0.34724 -1.88053e-05  0.027812 -0.347692 -1.72555e-05  0.0282331 -0.340251 -3.33786e-05  0.0204146 -0.347243 -1.37985e-05  0.020834 -0.3398 -2.864e-05  0.0282395 -0.340258 -2.64645e-05  0.0208414 -0.339806 -2.25604e-05  0.0195429 -0.362085 -2.563e-06  0.026948 -0.362529 -3.99351e-06  0.0273762 -0.355108 -1.16527e-05  0.0195506 -0.362083 -2.44379e-06  0.0199778 -0.354662 -1.0848e-05  0.0273821 -0.355114 -9.68575e-06  0.019984 -0.354667 -7.7188e-06  0.0186768 -0.376887 1.36197e-05  0.0260825 -0.377337 9.44734e-06  0.0265057 -0.369931 4.64916e-06  0.0186839 -0.376887 9.80496e-06  0.0191095 -0.369484 6.02007e-06  0.0265143 -0.369935 3.03984e-06  0.0191169 -0.369488 4.47035e-06  0.00269069 -0.00440896 -0.0019179  0 0 0  0.00381951 -0.00640512 -0.0015865  0.00134046 -0.00363058 -0.00123489  0 0 0  0.0026682 -0.00459826 -0.00138456  0.000809915 -0.00235319 -0.00104353  0 0 0  0.00135294 -0.00376898 -0.000881493  0.000801228 -0.00245672 -0.000745982  0.00702822 -0.00789559 -0.00306767  0.0086554 -0.0095014 -0.00254539  0.00635074 -0.00749964 -0.00295326  0.00696 -0.0082323 -0.00224128  0.00488023 -0.00606376 -0.0025897  0.00634871 -0.00780863 -0.00214466  0.00483635 -0.00634098 -0.00188211  0.0112671 -0.0119379 -0.00355008  0.0132666 -0.0135544 -0.00298569  0.0110061 -0.0109884 -0.00383529  0.0111754 -0.0123376 -0.00262973  0.00916293 -0.00977808 -0.00337258  0.0109385 -0.0113946 -0.00282094  0.00907528 -0.0101571 -0.0024828  0.0152823 -0.0170692 -0.00362399  0.017804 -0.0186033 -0.00307888  0.0156564 -0.0154957 -0.00411767  0.0152063 -0.0174828 -0.00270861  0.0133133 -0.0143576 -0.00361979  0.0155705 -0.0159308 -0.00306329  0.0132262 -0.0147717 -0.0026955  0.0189894 -0.0232867 -0.00350598  0.0220419 -0.0247473 -0.00298974  0.0200346 -0.0211096 -0.00407419  0.0189388 -0.0236925 -0.0026283  0.017175 -0.0200389 -0.00358036  0.0199638 -0.0215389 -0.00304788  0.017112 -0.020455 -0.0026809  0.0223753 -0.030531 -0.00330463  0.0259334 -0.0319194 -0.00282371  0.0240805 -0.0277982 -0.00388384  0.0223472 -0.0309189 -0.00248072  0.0207235 -0.0267796 -0.00341162  0.0240327 -0.0282085 -0.00291261  0.0206842 -0.0271824 -0.00255927  0.0254408 -0.0387177 -0.00307414  0.0294636 -0.0400391 -0.00262809  0.0277742 -0.0354806 -0.00363463  0.0254285 -0.0390837 -0.00230727  0.0239481 -0.0345057 -0.00319105  0.0277429 -0.0358656 -0.00272769  0.0239287 -0.0348877 -0.00239563  0.0281917 -0.0477692 -0.00283816  0.032638 -0.049027 -0.00242767  0.0311135 -0.0440709 -0.00336763  0.0281882 -0.0481089 -0.0021295  0.0268554 -0.0431343 -0.00295535  0.0310946 -0.0444289 -0.0025267  0.0268476 -0.0434924 -0.00221872  0.0306371 -0.0576048 -0.00260729  0.0354694 -0.058803 -0.00223076  0.0341054 -0.0534896 -0.00310129  0.0306394 -0.0579191 -0.00195625  0.0294527 -0.0525877 -0.00272161  0.0340964 -0.0538204 -0.00232732  0.0294522 -0.0529191 -0.00204268  0.0327885 -0.068154 -0.00238529  0.0379701 -0.0692946 -0.00204024  0.0367672 -0.0636588 -0.00284415  0.032794 -0.0684417 -0.00179017  0.0317492 -0.0627883 -0.00249574  0.0367601 -0.0639629 -0.00213447  0.0317526 -0.063095 -0.00187209  0.0346582 -0.0793456 -0.00217488  0.0401578 -0.0804325 -0.00186199  0.0391068 -0.0745072 -0.00259763  0.0346655 -0.0796098 -0.00163186  0.0337586 -0.0736672 -0.00227931  0.0391022 -0.0747863 -0.00194898  0.0337642 -0.0739481 -0.00170967  0.0362605 -0.0911182 -0.00197464  0.0420464 -0.0921518 -0.00168866  0.0411413 -0.085969 -0.00236455  0.0362681 -0.0913566 -0.00148171  0.0354934 -0.0851576 -0.00207376  0.0411384 -0.0862227 -0.00177339  0.0354998 -0.0854137 -0.00155547  0.0376078 -0.103406 -0.00178418  0.0436515 -0.104391 -0.00152564  0.0428834 -0.0979803 -0.00214016  0.0376158 -0.103622 -0.00133792  0.0369657 -0.0971957 -0.00187841  0.0428827 -0.0982097 -0.00160614  0.0369731 -0.0974272 -0.00140914  0.0387146 -0.116156 -0.00160378  0.0449891 -0.117091 -0.00137076  0.044353 -0.11048 -0.00192866  0.038723 -0.11635 -0.00120267  0.0381908 -0.109721 -0.00169256  0.0443534 -0.110687 -0.00144666  0.0381993 -0.109931 -0.00126979  0.0395952 -0.12931 -0.00143313  0.046074 -0.1302 -0.00122416  0.0455644 -0.123412 -0.00172865  0.0396036 -0.129483 -0.00107405  0.039183 -0.12268 -0.0015167  0.0455619 -0.123598 -0.00129735  0.0391908 -0.122868 -0.0011377  0.0402629 -0.142819 -0.00127181  0.0469246 -0.143665 -0.00108859  0.0465263 -0.136726 -0.00153911  0.040273 -0.142973 -0.000953585  0.0399547 -0.136018 -0.00135127  0.0465274 -0.136891 -0.00115502  0.0399634 -0.136185 -0.00101352  0.0407355 -0.156637 -0.00111932  0.0475523 -0.157439 -0.000955999  0.0472631 -0.15037 -0.00136  0.0407443 -0.15677 -0.000840157  0.0405233 -0.149687 -0.0011943  0.0472655 -0.150516 -0.00102067  0.0405326 -0.149835 -0.0008955  0.0410233 -0.170715 -0.000976503  0.0479772 -0.171477 -0.000833571  0.0477886 -0.1643 -0.00119224  0.041033 -0.170832 -0.00073266  0.0409017 -0.16364 -0.00104737  0.0477893 -0.164427 -0.000895172  0.0409112 -0.16377 -0.000785053  0.0411422 -0.185015 -0.000844896  0.0482121 -0.185738 -0.000721395  0.0481153 -0.17847 -0.00103506  0.041152 -0.185115 -0.000633925  0.041105 -0.177834 -0.000908911  0.0481186 -0.178581 -0.000777245  0.0411124 -0.177947 -0.000682741  0.0411079 -0.1995 -0.000720948  0.0482755 -0.200184 -0.000616282  0.0482597 -0.192845 -0.000888795  0.0411179 -0.199582 -0.000541776  0.0411448 -0.192231 -0.000781506  0.048265 -0.192939 -0.000668108  0.0411532 -0.192328 -0.000586063  0.0409327 -0.214129 -0.000608295  0.0481808 -0.214778 -0.000519127  0.0482426 -0.207384 -0.000754744  0.040942 -0.214199 -0.000456274  0.0410378 -0.206792 -0.000663429  0.0482452 -0.207465 -0.000566602  0.0410466 -0.206874 -0.000497609  0.0406296 -0.228875 -0.000502735  0.0479431 -0.229492 -0.00042966  0.0480745 -0.222056 -0.000630289  0.0406404 -0.228935 -0.000377119  0.040797 -0.221484 -0.000553995  0.0480802 -0.222122 -0.000473619  0.0408063 -0.221553 -0.000416607  0.0402157 -0.243709 -0.000408858  0.0475767 -0.244293 -0.000346154  0.0477719 -0.236828 -0.00051558  0.0402241 -0.243753 -0.000306427  0.0404375 -0.236278 -0.000455052  0.0477748 -0.236883 -0.000387371  0.0404451 -0.236335 -0.000341564  0.0396998 -0.258603 -0.000325382  0.0470986 -0.259158 -0.00027737  0.0473449 -0.251674 -0.000414401  0.0397086 -0.258639 -0.000243247  0.0399704 -0.251143 -0.00036481  0.0473504 -0.251719 -0.000311017  0.0399776 -0.251189 -0.00027439  0.0390978 -0.273533 -0.00025025  0.0465219 -0.274062 -0.000211895  0.0468173 -0.266572 -0.000324845  0.0391054 -0.27356 -0.000189096  0.0394092 -0.266059 -0.000286162  0.0468225 -0.266607 -0.000245064  0.0394168 -0.266094 -0.000214785  0.0384209 -0.288481 -0.000185698  0.0458589 -0.288986 -0.000158757  0.0461943 -0.281498 -0.000244945  0.0384285 -0.288497 -0.000140458  0.0387692 -0.281 -0.000216037  0.0461993 -0.281523 -0.000184625  0.0387757 -0.281027 -0.000163078  0.0376799 -0.303429 -0.000130236  0.0451257 -0.303913 -0.000111967  0.0454919 -0.296432 -0.000176936  0.037689 -0.303441 -9.81987e-05  0.038059 -0.29595 -0.000156879  0.0455017 -0.296449 -0.000133902  0.0380657 -0.29597 -0.000117928  0.0368924 -0.31836 -8.65161e-05  0.0443349 -0.318828 -7.62641e-05  0.0447288 -0.311359 -0.000121355  0.036901 -0.318367 -6.57141e-05  0.037293 -0.310891 -0.000107378  0.0447369 -0.311374 -9.15825e-05  0.0373001 -0.310906 -8.10325e-05  0.0360651 -0.333266 -5.30183e-05  0.0435002 -0.33372 -4.36306e-05  0.0439177 -0.32627 -7.64132e-05  0.036073 -0.333269 -4.00841e-05  0.0364833 -0.325814 -6.80983e-05  0.0439229 -0.326276 -5.73695e-05  0.0364907 -0.325821 -5.18262e-05  0.0352113 -0.348139 -2.64049e-05  0.0426388 -0.348586 -2.45571e-05  0.0430675 -0.34115 -4.32134e-05  0.0352201 -0.34814 -2.09212e-05  0.0356419 -0.340702 -3.89218e-05  0.0430741 -0.341157 -3.38852e-05  0.0356481 -0.340708 -2.90871e-05  0.0343428 -0.362974 -6.19888e-06  0.0417619 -0.363416 -9.08971e-06  0.0421939 -0.355999 -1.83582e-05  0.0343523 -0.362973 -5.78165e-06  0.0347793 -0.355555 -1.58846e-05  0.0422018 -0.356002 -1.51396e-05  0.0347874 -0.35556 -1.3113e-05  0.0334711 -0.377785 1.10567e-05  0.0408835 -0.378229 5.84126e-06  0.041316 -0.370819 -1.69873e-06  0.0334783 -0.377783 7.92742e-06  0.0339069 -0.370375 1.78814e-06  0.0413215 -0.370823 -1.78814e-06  0.033916 -0.37038 1.99676e-06  -0.00376887 -0.00544003 0.00300512  -0.00134956 -0.00296946 0.00216711  0 0 0  -0.00275199 -0.00331179 0.00335814  0 0 0  -0.00191037 -0.00248571 0.00223398  -0.000625852 -0.00100809 0.0016429  0 0 0  -0.00133425 -0.00317282 0.00169685  -0.00266115 -0.00373083 0.00260618  -0.000843056 -0.00175389 0.00183058  0 0 0  -0.000587951 -0.00119961 0.00125837  -0.000797722 -0.00195355 0.00142404  -0.00868669 -0.00796655 0.00467089  -0.00638403 -0.00586911 0.00504886  -0.00718312 -0.00612418 0.00509939  -0.00553665 -0.00569593 0.00352538  -0.00381857 -0.00350706 0.00378843  -0.00630611 -0.00651237 0.00399083  -0.00700478 -0.0067966 0.0040904  -0.0049929 -0.0045992 0.00440702  -0.00364605 -0.0039975 0.00299117  -0.00484565 -0.00515709 0.00348035  -0.0134017 -0.0116365 0.00531429  -0.0111748 -0.00887546 0.00624309  -0.0113572 -0.00979871 0.00562149  -0.0092448 -0.00958977 0.00399357  -0.00760025 -0.00685143 0.00467801  -0.0110384 -0.00966212 0.00508884  -0.0112341 -0.0105393 0.00464731  -0.00930563 -0.0078071 0.00544928  -0.00742733 -0.00750867 0.00382426  -0.00913861 -0.00852962 0.00445098  -0.017998 -0.0163879 0.00536433  -0.0157981 -0.0130752 0.00649525  -0.0153012 -0.0146813 0.00562567  -0.012717 -0.0145758 0.00402427  -0.0110749 -0.0112399 0.00485708  -0.0157287 -0.0138654 0.00538546  -0.0152717 -0.0154146 0.0046913  -0.0133528 -0.0120891 0.00566736  -0.0110031 -0.0119437 0.00404167  -0.0132793 -0.0128348 0.00470924  -0.0223611 -0.0222514 0.00514701  -0.0202121 -0.0184368 0.00632547  -0.0190622 -0.0206859 0.00538158  -0.016013 -0.0206413 0.00385839  -0.0143758 -0.0167796 0.00473151  -0.0202086 -0.019186 0.00527656  -0.0190996 -0.0213828 0.00450224  -0.0172039 -0.0175433 0.00552352  -0.0143873 -0.0174772 0.00395781  -0.0172114 -0.0182664 0.00461474  -0.0264844 -0.0291334 0.0048162  -0.024406 -0.0248758 0.00596881  -0.0226449 -0.0277176 0.00503384  -0.0191429 -0.0277149 0.00361094  -0.0175296 -0.0233908 0.00446795  -0.0244533 -0.0255706 0.0049907  -0.0227273 -0.0283676 0.00421339  -0.0208755 -0.0240738 0.00521576  -0.0175974 -0.0240569 0.00374195  -0.0209382 -0.0247535 0.00436467  -0.0303704 -0.0369492 0.00445059  -0.028376 -0.0322913 0.00554234  -0.0260525 -0.0356805 0.00465313  -0.0221185 -0.0357133 0.00333473  -0.0205472 -0.0309798 0.00415045  -0.0284566 -0.0329303 0.00463611  -0.0261598 -0.0362812 0.00389314  -0.0243696 -0.0315826 0.00484531  -0.0206497 -0.031603 0.00347498  -0.0244675 -0.0322128 0.0040547  -0.0340286 -0.0456159 0.00408396  -0.0321292 -0.0405971 0.00510244  -0.0292866 -0.0444915 0.00427201  -0.0249469 -0.0445573 0.00305861  -0.023431 -0.0394569 0.00382142  -0.032228 -0.0411813 0.00426647  -0.0294063 -0.0450421 0.00357118  -0.0276898 -0.0399789 0.00446124  -0.0235504 -0.0400336 0.00319636  -0.0278053 -0.0405595 0.00373116  -0.0374726 -0.055062 0.0037306  -0.0356698 -0.0497126 0.00467244  -0.0323517 -0.0540748 0.00390324  -0.0276346 -0.0541734 0.00279179  -0.0261813 -0.0487421 0.00349899  -0.0357776 -0.050246 0.00390553  -0.0324754 -0.0545768 0.00326112  -0.0308403 -0.0491848 0.00408585  -0.0263082 -0.0492726 0.00292426  -0.0309628 -0.0497167 0.00341463  -0.040712 -0.0652175 0.00339484  -0.0390085 -0.0595696 0.00426142  -0.0352523 -0.0643636 0.00355454  -0.0301871 -0.0644953 0.00253993  -0.0288011 -0.058764 0.00319052  -0.0391173 -0.0600549 0.00356004  -0.0353752 -0.0648211 0.0029673  -0.0338212 -0.0591292 0.00372645  -0.0289273 -0.059249 0.0026643  -0.0339459 -0.0596142 0.00311241  -0.0437582 -0.0760234 0.00307983  -0.0421522 -0.0701035 0.00387412  -0.0379956 -0.0752954 0.0032247  -0.0326121 -0.0754585 0.00230339  -0.0312917 -0.0694588 0.00290014  -0.042258 -0.0705441 0.00323495  -0.0381145 -0.0757096 0.0026907  -0.0366431 -0.0697483 0.0033869  -0.0314156 -0.0698991 0.00241998  -0.036764 -0.0701883 0.0028277  -0.0466197 -0.0874188 0.00278154  -0.0451078 -0.0812527 0.00350715  -0.0405861 -0.0868117 0.00291322  -0.0349139 -0.087004 0.00207987  -0.033658 -0.0807618 0.00262447  -0.0452105 -0.0816509 0.0029279  -0.0406995 -0.0871843 0.00243062  -0.0393088 -0.0809781 0.0030662  -0.0337771 -0.0811609 0.00218928  -0.0394254 -0.0813771 0.00255883  -0.0493064 -0.0993474 0.00250071  -0.0478841 -0.0929615 0.00316168  -0.0430313 -0.0988524 0.00261964  -0.0370981 -0.0990746 0.00186908  -0.0359063 -0.0926167 0.00236607  -0.047984 -0.0933197 0.00263959  -0.0431386 -0.0991872 0.00218448  -0.0418259 -0.0927645 0.00276449  -0.0360209 -0.0929765 0.00197312  -0.041937 -0.0931223 0.00230601  -0.0518228 -0.111755 0.00223771  -0.0504915 -0.105174 0.00283551  -0.0453358 -0.111368 0.00234388  -0.0391697 -0.111618 0.00167122  -0.0380405 -0.104967 0.00212161  -0.0505855 -0.105494 0.00236684  -0.045437 -0.111666 0.00195497  -0.0442013 -0.105049 0.00247952  -0.0381483 -0.10529 0.00176859  -0.044305 -0.10537 0.00206849  -0.0541831 -0.124592 0.00198835  -0.0529362 -0.117837 0.00252953  -0.0475067 -0.124304 0.00208372  -0.0411316 -0.12458 0.00148568  -0.0400629 -0.117761 0.00189219  -0.0530232 -0.118122 0.00211126  -0.0476009 -0.124568 0.00173792  -0.0464374 -0.117781 0.00221191  -0.0401652 -0.118049 0.00157779  -0.0465349 -0.118067 0.00184491  -0.0563899 -0.137808 0.00175577  -0.0552229 -0.130902 0.00224239  -0.0495499 -0.137614 0.00184016  -0.0429904 -0.137913 0.00131163  -0.0419809 -0.130948 0.00167723  -0.0553042 -0.131155 0.00187105  -0.0496378 -0.137848 0.00153482  -0.048543 -0.130911 0.00195977  -0.0420724 -0.131202 0.00139785  -0.0486354 -0.131163 0.00163433  -0.0584517 -0.151357 0.00153953  -0.0573633 -0.144322 0.00197239  -0.0514717 -0.15125 0.00161177  -0.0447505 -0.151572 0.00114825  -0.0437953 -0.144479 0.00147443  -0.0574374 -0.144544 0.00164682  -0.0515511 -0.151453 0.00134441  -0.0505254 -0.144387 0.00172439  -0.0438824 -0.144704 0.00122952  -0.0506089 -0.144611 0.00143769  -0.0603743 -0.165197 0.00133413  -0.0593588 -0.15805 0.00172074  -0.0532751 -0.165169 0.00139973  -0.0464144 -0.16551 0.000997752  -0.0455153 -0.158312 0.00128575  -0.0594285 -0.158243 0.00143647  -0.05335 -0.165343 0.00116751  -0.0523865 -0.158171 0.00150438  -0.0455942 -0.158507 0.00107169  -0.0524645 -0.158365 0.00125432  -0.0621707 -0.179284 0.00114593  -0.0612247 -0.172045 0.00148502  -0.0549698 -0.17933 0.0012024  -0.0479877 -0.179688 0.000856936  -0.0471396 -0.172402 0.00111075  -0.0612872 -0.172212 0.001241  -0.0550365 -0.179479 0.00100285  -0.0541363 -0.172215 0.00129899  -0.0472116 -0.172571 0.00092569  -0.0542078 -0.172383 0.00108296  -0.0638399 -0.193582 0.000974774  -0.0629652 -0.186268 0.00126848  -0.0565596 -0.193694 0.00102012  -0.0494771 -0.194068 0.000727385  -0.0486774 -0.18671 0.000947759  -0.0630188 -0.186409 0.00105828  -0.0566194 -0.193821 0.00085023  -0.0557764 -0.186484 0.00110924  -0.048743 -0.186854 0.00079  -0.0558412 -0.186626 0.000925422  -0.0653956 -0.208054 0.000812769  -0.06458 -0.200682 0.00106806  -0.0580511 -0.208227 0.000852123  -0.0508821 -0.208613 0.000608027  -0.0501285 -0.201201 0.000799909  -0.0646324 -0.200798 0.00089246  -0.0581038 -0.20833 0.000710428  -0.0573158 -0.200937 0.000935405  -0.0501897 -0.201321 0.000666171  -0.0573733 -0.201055 0.000779361  -0.0668426 -0.222667 0.000667721  -0.0660868 -0.215247 0.000884876  -0.0594485 -0.222893 0.000700548  -0.0522108 -0.22329 0.000497818  -0.0515034 -0.215836 0.00066179  -0.0661333 -0.215345 0.000738412  -0.0594959 -0.222977 0.000585318  -0.0587592 -0.215539 0.00077489  -0.0515554 -0.215936 0.000551999  -0.0588107 -0.215638 0.000646234  -0.0681915 -0.23739 0.000539809  -0.0674913 -0.229938 0.000719979  -0.0607605 -0.237663 0.000564352  -0.0534682 -0.238071 0.000402242  -0.0528021 -0.230587 0.000539348  -0.0675309 -0.230018 0.000603795  -0.060802 -0.237731 0.000471354  -0.0601137 -0.230262 0.000629976  -0.0528474 -0.23067 0.000449181  -0.060159 -0.230342 0.000525773  -0.0694494 -0.252196 0.000420421  -0.0687985 -0.244723 0.000571877  -0.0619936 -0.25251 0.000442266  -0.0546587 -0.252926 0.000314474  -0.0540287 -0.245425 0.000428811  -0.06883 -0.244785 0.000477821  -0.0620286 -0.252562 0.000369012  -0.0613856 -0.245074 0.000501454  -0.0540705 -0.24549 0.000357091  -0.0614247 -0.245137 0.000418216  -0.0706222 -0.26706 0.000321448  -0.0700173 -0.259574 0.000440121  -0.0631526 -0.267409 0.000335813  -0.0557883 -0.26783 0.000239074  -0.0551929 -0.260322 0.000330687  -0.0700467 -0.259621 0.000368088  -0.0631835 -0.267446 0.000280291  -0.0625818 -0.25995 0.000387073  -0.0552294 -0.260371 0.000275284  -0.0626149 -0.259998 0.000322878  -0.071722 -0.281957 0.000234336  -0.0711596 -0.27447 0.000325575  -0.0642488 -0.282335 0.000243053  -0.0568612 -0.282762 0.000174671  -0.0563021 -0.275255 0.000246361  -0.0711823 -0.274505 0.000273079  -0.0642736 -0.282362 0.000202358  -0.0637088 -0.274864 0.000286892  -0.0563307 -0.275293 0.00020507  -0.063736 -0.2749 0.000240564  -0.0727565 -0.29687 0.000158906  -0.0722265 -0.28939 0.000229731  -0.0652871 -0.297273 0.0001674  -0.0578871 -0.297702 0.000119716  -0.0573552 -0.290205 0.000174582  -0.0722482 -0.289413 0.000194311  -0.0653064 -0.297289 0.000140756  -0.0647743 -0.2898 0.000203475  -0.057379 -0.290231 0.000144988  -0.0647974 -0.289824 0.000169545  -0.0737376 -0.311781 0.000101119  -0.0732398 -0.304312 0.000151426  -0.0662756 -0.312204 0.000106722  -0.0588703 -0.312634 7.51317e-05  -0.0583642 -0.305152 0.000115603  -0.0732536 -0.304327 0.000127971  -0.0662923 -0.312211 8.98838e-05  -0.0657866 -0.304735 0.000134468  -0.0583842 -0.305169 9.69768e-05  -0.0658059 -0.304751 0.00011313  -0.0746703 -0.326679 5.59688e-05  -0.0741963 -0.319225 9.01222e-05  -0.067224 -0.327113 5.96493e-05  -0.0598202 -0.327546 4.28259e-05  -0.0593336 -0.320082 6.92606e-05  -0.0742097 -0.319232 7.88569e-05  -0.0672367 -0.327115 5.1409e-05  -0.0667546 -0.319656 8.11815e-05  -0.0593491 -0.320092 5.80251e-05  -0.0667684 -0.319666 6.88434e-05  -0.0755727 -0.341548 2.93851e-05  -0.0751121 -0.334112 4.47035e-05  -0.0681379 -0.341991 2.639e-05  -0.0607386 -0.342424 1.8388e-05  -0.0602694 -0.334982 3.49432e-05  -0.0751269 -0.334117 4.04119e-05  -0.0681515 -0.341989 2.34842e-05  -0.0676842 -0.334549 4.08888e-05  -0.0602837 -0.334987 3.0309e-05  -0.0676966 -0.334555 3.65078e-05  -0.0764565 -0.356388 4.88758e-06  -0.0760055 -0.348971 1.57356e-05  -0.0690327 -0.356831 2.90573e-06  -0.0616381 -0.357263 6.85453e-07  -0.0611761 -0.349845 9.98378e-06  -0.0760155 -0.348972 1.62423e-05  -0.0690436 -0.356827 2.95043e-06  -0.0685863 -0.34941 1.32918e-05  -0.0611897 -0.349848 9.29832e-06  -0.068599 -0.349413 1.23084e-05  -0.0773351 -0.371206 -1.22488e-05  -0.0768816 -0.363798 -5.73695e-06  -0.0699189 -0.371643 -1.84774e-05  -0.0625272 -0.372074 -1.80304e-05  -0.0620718 -0.364669 -1.1459e-05  -0.076895 -0.363799 -3.72529e-06  -0.0699284 -0.371641 -1.508e-05  -0.0694757 -0.364234 -8.27014e-06  -0.0620828 -0.364671 -8.70228e-06  -0.0694869 -0.364237 -5.66244e-06  -0.00153926 -0.00136192 0.00244479  0 0 0  -0.00106656 -0.00112848 0.00152636  -0.000353955 -0.000211611 0.00113417  0 0 0  -0.00145318 -0.00167358 0.00187972  -0.000469424 -0.000528127 0.00137737  0 0 0  -0.000329554 -0.00037019 0.00086087  -0.000436317 -0.000703737 0.00105146  -0.00449032 -0.00422949 0.00370045  -0.003231 -0.00404519 0.00240523  -0.00219037 -0.00203803 0.0025886  -0.00431301 -0.00475858 0.00296909  -0.00294937 -0.00265242 0.00318313  -0.00206584 -0.00244001 0.00203964  -0.00279582 -0.00309286 0.00251228  -0.00750986 -0.0081526 0.00404261  -0.00568157 -0.00814117 0.0027042  -0.00459841 -0.00539935 0.00317422  -0.00739306 -0.00879218 0.00335133  -0.00603205 -0.00604214 0.00392917  -0.00445947 -0.00595659 0.00259751  -0.00587162 -0.00664258 0.00321487  -0.0103348 -0.0132026 0.0040267  -0.00803772 -0.0133107 0.00270474  -0.00693512 -0.00995389 0.00326627  -0.0103099 -0.0138744 0.00336626  -0.00893924 -0.010529 0.00406314  -0.00687644 -0.0105896 0.00272375  -0.00887153 -0.0111955 0.0033859  -0.0130357 -0.0193646 0.00384384  -0.0102704 -0.0195377 0.00258273  -0.00915557 -0.0156389 0.00316526  -0.0130763 -0.020026 0.00322285  -0.0116994 -0.0161451 0.00394899  -0.00916713 -0.0162941 0.00265324  -0.0117108 -0.0168193 0.00330713  -0.0156276 -0.0265473 0.00359331  -0.0124052 -0.0267572 0.00241041  -0.0112886 -0.022385 0.00298117  -0.0157102 -0.0271781 0.00301141  -0.014344 -0.0228278 0.00372486  -0.0113487 -0.0230269 0.00250101  -0.0144091 -0.0234808 0.00312191  -0.0181198 -0.0346592 0.00332028  -0.0144568 -0.034894 0.00222361  -0.0133522 -0.0301034 0.00276618  -0.0182257 -0.0352505 0.00277954  -0.0168855 -0.0304862 0.00345851  -0.0134405 -0.0307151 0.00231871  -0.0169824 -0.031103 0.00289682  -0.0205134 -0.0436205 0.0030465  -0.016435 -0.0438714 0.00203723  -0.015352 -0.0387094 0.00254457  -0.0206304 -0.0441657 0.00254822  -0.0193287 -0.0390325 0.00318319  -0.0154542 -0.039281 0.00212973  -0.0194413 -0.0396066 0.00266361  -0.0228105 -0.0533507 0.00278299  -0.0183426 -0.0536193 0.00185686  -0.0172877 -0.0481236 0.00232798  -0.0229306 -0.053853 0.00232533  -0.0216734 -0.0483875 0.00291398  -0.0173962 -0.0486518 0.00194636  -0.0217936 -0.0489167 0.00243533  -0.0250118 -0.0637851 0.00253332  -0.0201846 -0.0640685 0.001688  -0.0191624 -0.0582737 0.00212122  -0.0251307 -0.0642429 0.00211403  -0.0239221 -0.0584781 0.00265676  -0.0192709 -0.0587586 0.00177154  -0.0240426 -0.058963 0.00221846  -0.0271196 -0.0748572 0.00229642  -0.0219625 -0.0751555 0.00152865  -0.0209746 -0.0690921 0.0019262  -0.0272349 -0.0752723 0.00191581  -0.0260769 -0.0692382 0.00241318  -0.0210813 -0.0695351 0.00160801  -0.0261942 -0.0696806 0.00201395  -0.0291363 -0.0865051 0.00207388  -0.0236789 -0.086821 0.00137851  -0.0227255 -0.0805167 0.00174117  -0.0292461 -0.0868815 0.00172955  -0.028138 -0.0806071 0.00218393  -0.0228274 -0.0809183 0.0014531  -0.0282526 -0.0810065 0.00182164  -0.0310659 -0.0986757 0.0018643  -0.0253356 -0.0990062 0.00123894  -0.0244151 -0.0924883 0.00156866  -0.0311698 -0.0990136 0.00155354  -0.0301116 -0.0925235 0.00196782  -0.0245144 -0.0928507 0.00130782  -0.030219 -0.0928846 0.00164109  -0.0329089 -0.111312 0.00166726  -0.0269328 -0.111656 0.00110668  -0.0260494 -0.104949 0.00140572  -0.0330075 -0.111613 0.00138974  -0.0319977 -0.104933 0.00176457  -0.026142 -0.105275 0.00117198  -0.0320988 -0.105257 0.00147101  -0.0346709 -0.124362 0.0014814  -0.0284755 -0.12472 0.000983119  -0.027625 -0.117847 0.0012527  -0.0347614 -0.124629 0.00123468  -0.0337996 -0.117782 0.00157358  -0.0277106 -0.118138 0.00104457  -0.0338944 -0.118072 0.00131121  -0.0363531 -0.137778 0.00130838  -0.0299622 -0.138148 0.000865877  -0.0291458 -0.131131 0.00110957  -0.0364373 -0.138012 0.00109082  -0.0355211 -0.131021 0.00139369  -0.0292264 -0.13139 0.00092411  -0.0356085 -0.131277 0.00116134  -0.0379584 -0.151511 0.00114548  -0.031394 -0.151893 0.000758767  -0.0306094 -0.144755 0.000974342  -0.0380363 -0.151716 0.00095433  -0.0371647 -0.1446 0.0012261  -0.0306859 -0.144982 0.00081259  -0.0372465 -0.144827 0.001021  -0.0394895 -0.16552 0.000994042  -0.0327747 -0.165911 0.000658721  -0.0320232 -0.158671 0.000849426  -0.0395606 -0.165698 0.000827968  -0.038733 -0.158478 0.00106849  -0.0320914 -0.158869 0.000706851  -0.0388072 -0.158674 0.000890344  -0.0409515 -0.179762 0.000853911  -0.0341043 -0.180163 0.000564218  -0.0333846 -0.172838 0.000732854  -0.0410154 -0.179915 0.000711769  -0.0402291 -0.172608 0.000923157  -0.0334461 -0.173009 0.00061062  -0.0402963 -0.172778 0.000768512  -0.0423424 -0.194201 0.000725046  -0.0353842 -0.194609 0.000478685  -0.0346956 -0.187216 0.000625476  -0.0424008 -0.19433 0.000603199  -0.0416555 -0.186954 0.000788197  -0.0347509 -0.187363 0.000520676  -0.0417159 -0.187098 0.000656545  -0.0436704 -0.208798 0.000605211  -0.0366154 -0.209212 0.000400186  -0.035954 -0.201767 0.000526756  -0.0437229 -0.208906 0.000503808  -0.043015 -0.201476 0.000664547  -0.0360065 -0.201891 0.000438362  -0.0430694 -0.201599 0.000552833  -0.0449357 -0.223526 0.000497311  -0.0378008 -0.223942 0.00032711  -0.037168 -0.21646 0.000435621  -0.0449824 -0.223611 0.000413686  -0.0443108 -0.216142 0.000550255  -0.0372136 -0.216562 0.000362903  -0.0443602 -0.216243 0.000457764  -0.0461459 -0.238347 0.000401646  -0.0389433 -0.238769 0.000264317  -0.0383377 -0.23126 0.000355229  -0.0461848 -0.238416 0.000332832  -0.0455472 -0.230919 0.000447735  -0.0383785 -0.231344 0.000295848  -0.0455897 -0.231002 0.000372529  -0.0472968 -0.253238 0.000314549  -0.0400436 -0.253662 0.000207424  -0.0394642 -0.24614 0.00028193  -0.047333 -0.25329 0.000261605  -0.046726 -0.24578 0.000356212  -0.039499 -0.246207 0.000233442  -0.0467649 -0.245845 0.000297219  -0.0484018 -0.268173 0.000238985  -0.0411053 -0.2686 0.000156999  -0.0405512 -0.261073 0.000217319  -0.0484302 -0.268215 0.000198781  -0.0478554 -0.260695 0.000275716  -0.0405807 -0.261127 0.000180632  -0.047888 -0.260747 0.000228345  -0.0494592 -0.283133 0.000174001  -0.0421319 -0.28356 0.000113696  -0.0416 -0.276037 0.000161633  -0.0494831 -0.28316 0.000144005  -0.0489347 -0.275645 0.00020501  -0.0416229 -0.276077 0.000134617  -0.0489621 -0.275684 0.000170529  -0.0504761 -0.298095 0.000119835  -0.0431261 -0.298524 7.86483e-05  -0.0426116 -0.291011 0.000115126  -0.0504951 -0.298113 9.97484e-05  -0.0499713 -0.290607 0.000145704  -0.0426333 -0.291041 9.53674e-05  -0.0499933 -0.290635 0.000121385  -0.0514557 -0.313044 7.65771e-05  -0.0440919 -0.313473 4.86076e-05  -0.0435958 -0.30598 7.67261e-05  -0.0514717 -0.313054 6.32107e-05  -0.0509689 -0.305566 9.66638e-05  -0.0436113 -0.305999 6.33001e-05  -0.050987 -0.305585 7.99298e-05  -0.0524061 -0.327968 4.28259e-05  -0.0450306 -0.328397 2.56002e-05  -0.0445492 -0.320925 4.57764e-05  -0.052417 -0.327971 3.59416e-05  -0.0519335 -0.320504 5.86212e-05  -0.0445647 -0.320938 3.84748e-05  -0.0519478 -0.320516 4.88162e-05  -0.0533285 -0.342856 1.74046e-05  -0.0459478 -0.343285 1.00136e-05  -0.0454805 -0.335838 2.19494e-05  -0.0533383 -0.342855 1.4931e-05  -0.0528688 -0.335411 2.90722e-05  -0.0454903 -0.335845 1.91629e-05  -0.0528803 -0.335418 2.45273e-05  -0.0542297 -0.357699 -3.24845e-06  -0.0468464 -0.358129 -3.09944e-06  -0.0463905 -0.350708 4.30644e-06  -0.0542378 -0.357697 -1.75834e-06  -0.0537803 -0.350277 7.31647e-06  -0.0463982 -0.350712 3.57628e-06  -0.0537901 -0.35028 6.34789e-06  -0.0551186 -0.372503 -2.36779e-05  -0.0477383 -0.372928 -1.85072e-05  -0.0472825 -0.365531 -1.41114e-05  -0.0551279 -0.372503 -1.92523e-05  -0.054673 -0.365101 -1.26958e-05  -0.0472929 -0.365534 -9.98378e-06  -0.054683 -0.365103 -9.86457e-06  -0.000797421 -0.000518173 0.00149931  0 0 0  -0.000465639 -0.000555664 0.000773549  -0.000154376 0.000109434 0.000574693  0 0 0  -0.000746645 -0.00077498 0.0011524  -0.000244405 -1.11163e-05 0.000853106  0 0 0  -0.000143252 -2.58088e-05 0.000437945  -0.000225317 -0.000155419 0.000649482  -0.00241826 -0.00308618 0.00226338  -0.00145203 -0.00320795 0.00121993  -0.000974432 -0.00134358 0.00130755  -0.002307 -0.00353581 0.00181758  -0.00155585 -0.00161314 0.00195032  -0.000915304 -0.00169984 0.00103366  -0.0014621 -0.0019879 0.00153896  -0.00418586 -0.00707924 0.0024568  -0.00262511 -0.00732359 0.00136921  -0.00209665 -0.00461224 0.00160477  -0.00411093 -0.00765026 0.00204062  -0.00330848 -0.00492412 0.00239339  -0.00203243 -0.00511625 0.00131661  -0.00320607 -0.00544912 0.00196135  -0.00588921 -0.0122626 0.0024306  -0.0038031 -0.0126094 0.00136533  -0.00323939 -0.0092355 0.00164613  -0.00587764 -0.0128873 0.00203651  -0.00504559 -0.00952139 0.00245933  -0.00321722 -0.00982893 0.0013769  -0.00500423 -0.0101322 0.00205454  -0.00753433 -0.0185441 0.00231187  -0.00495178 -0.0189502 0.00129852  -0.00436175 -0.015023 0.00158899  -0.00757045 -0.019178 0.00194165  -0.00671738 -0.0152638 0.00237881  -0.00438076 -0.0156512 0.00133622  -0.0067327 -0.0159046 0.00199679  -0.0091368 -0.0258381 0.00215612  -0.00607884 -0.0262731 0.00120822  -0.00547016 -0.0218651 0.0014922  -0.00920272 -0.0264563 0.00180978  -0.00833994 -0.0220634 0.00223705  -0.00551766 -0.022492 0.00125477  -0.00839305 -0.0226972 0.00187856  -0.0107051 -0.0340606 0.00198855  -0.00719625 -0.0345064 0.0011113  -0.00657403 -0.029676 0.00138067  -0.0107889 -0.0346451 0.00166717  -0.00992435 -0.0298332 0.00207327  -0.00663835 -0.0302789 0.00115952  -0.0100006 -0.0304393 0.0017392  -0.012244 -0.0431314 0.00182252  -0.00831127 -0.0435792 0.0010134  -0.00767899 -0.0383729 0.0012662  -0.0123354 -0.043676 0.00152546  -0.0114784 -0.038489 0.00190565  -0.00775385 -0.0389411 0.00106186  -0.0115671 -0.0390586 0.00159606  -0.0137548 -0.052972 0.00166227  -0.0094254 -0.0534206 0.000920951  -0.00879049 -0.0478792 0.00115554  -0.0138483 -0.0534743 0.00138977  -0.0130029 -0.0479532 0.00174202  -0.00886798 -0.048407 0.000966996  -0.0130965 -0.0484816 0.00145721  -0.0152354 -0.0635148 0.00151093  -0.0105401 -0.0639632 0.000835329  -0.00990522 -0.0581208 0.00104989  -0.0153283 -0.0639736 0.00126126  -0.0144989 -0.0581541 0.00158601  -0.0099833 -0.0586074 0.000877649  -0.0145921 -0.0586396 0.00132489  -0.0166863 -0.0746936 0.00136793  -0.0116547 -0.075142 0.000753522  -0.0110216 -0.0690307 0.000950545  -0.0167757 -0.0751115 0.00114116  -0.0159642 -0.0690223 0.0014386  -0.0110976 -0.0694754 0.000794411  -0.0160558 -0.069466 0.00120091  -0.0181071 -0.0864466 0.00123312  -0.0127692 -0.0868962 0.000676453  -0.0121385 -0.0805451 0.000856191  -0.0181923 -0.0868248 0.00102869  -0.0173992 -0.0804952 0.00129984  -0.0122118 -0.0809499 0.000714898  -0.017488 -0.0808983 0.00108415  -0.0194981 -0.0987147 0.00110658  -0.0138814 -0.0991662 0.000606328  -0.013256 -0.0926032 0.000769153  -0.0195783 -0.0990558 0.000923008  -0.0188063 -0.0925139 0.00116907  -0.0133253 -0.0929688 0.000641793  -0.0188893 -0.0928778 0.000974923  -0.020858 -0.111447 0.000988841  -0.0149889 -0.111898 0.000539601  -0.014369 -0.105148 0.000686824  -0.0209334 -0.111749 0.00082311  -0.0201802 -0.105019 0.00104678  -0.0144358 -0.105476 0.000572741  -0.0202602 -0.105347 0.00087285  -0.0221874 -0.124583 0.000876978  -0.0160924 -0.125037 0.000477612  -0.0154798 -0.118124 0.000609875  -0.0222574 -0.124855 0.000730515  -0.0215249 -0.11796 0.000931591  -0.0155407 -0.118418 0.000508249  -0.0215987 -0.118253 0.000776261  -0.0234853 -0.138082 0.000772446  -0.017189 -0.138536 0.000419199  -0.0165854 -0.131482 0.000538141  -0.0235516 -0.138321 0.000644743  -0.0228388 -0.131285 0.000824049  -0.0166405 -0.131744 0.000448942  -0.0229082 -0.131545 0.000686616  -0.0247545 -0.151892 0.000676066  -0.0182788 -0.152348 0.000365257  -0.017684 -0.145174 0.000471428  -0.0248132 -0.152102 0.000562996  -0.024123 -0.144946 0.00072366  -0.0177338 -0.145404 0.000393391  -0.0241861 -0.145174 0.000602871  -0.0259905 -0.165971 0.000585243  -0.0193582 -0.166427 0.000316173  -0.0187736 -0.159153 0.000408813  -0.0260448 -0.166154 0.000487238  -0.0253763 -0.158895 0.000629991  -0.0188184 -0.159355 0.000340581  -0.0254326 -0.159095 0.000524312  -0.0271969 -0.180279 0.000502259  -0.0204256 -0.180734 0.000270128  -0.0198519 -0.173378 0.000350907  -0.0272453 -0.180435 0.000417918  -0.0265968 -0.173093 0.000543311  -0.0198925 -0.173553 0.000292838  -0.0266483 -0.173266 0.000451922  -0.0283706 -0.194775 0.000424564  -0.0214808 -0.195228 0.000228494  -0.0209177 -0.187808 0.000298828  -0.0284147 -0.194907 0.000352859  -0.0277874 -0.187499 0.00046356  -0.0209539 -0.187959 0.000249058  -0.027833 -0.187648 0.000385582  -0.0295134 -0.209426 0.000355154  -0.0225217 -0.209878 0.000188887  -0.0219698 -0.202407 0.000250131  -0.0295525 -0.209535 0.000295699  -0.0289454 -0.202076 0.000388458  -0.0220034 -0.202535 0.00020811  -0.0289869 -0.202203 0.000323415  -0.0306246 -0.224195 0.000291079  -0.0235479 -0.224646 0.000153989  -0.0230064 -0.217141 0.000205114  -0.0306594 -0.224286 0.00024128  -0.0300717 -0.216792 0.000321999  -0.0230379 -0.217248 0.000170767  -0.0301096 -0.216897 0.000268281  -0.0317078 -0.239059 0.000233129  -0.0245585 -0.239506 0.000122994  -0.0240269 -0.231978 0.000166714  -0.031738 -0.239131 0.000193805  -0.0311692 -0.231611 0.000261322  -0.0240548 -0.232065 0.000138909  -0.0312002 -0.231698 0.00021714  -0.0327623 -0.253985 0.000182301  -0.0255535 -0.25443 9.46522e-05  -0.0250342 -0.24689 0.000131413  -0.0327868 -0.254041 0.000151664  -0.0322375 -0.246509 0.000207573  -0.025058 -0.246961 0.000108927  -0.0322659 -0.246578 0.00017184  -0.0337887 -0.26895 0.000138551  -0.0265307 -0.269392 7.06017e-05  -0.0260239 -0.26185 9.96441e-05  -0.0338073 -0.268992 0.000113994  -0.0332775 -0.261456 0.000159636  -0.0260434 -0.261906 8.30889e-05  -0.0333004 -0.261512 0.000132322  -0.0347881 -0.283932 0.000100106  -0.0274942 -0.284373 5.1707e-05  -0.0270004 -0.276837 7.40141e-05  -0.0348051 -0.283965 8.40425e-05  -0.034291 -0.276435 0.000118911  -0.0270143 -0.27688 6.1065e-05  -0.0343099 -0.276476 9.82285e-05  -0.0357618 -0.298915 6.94096e-05  -0.0284402 -0.299352 3.5584e-05  -0.027956 -0.291831 5.05745e-05  -0.0357759 -0.298935 5.64456e-05  -0.0352771 -0.291419 8.34614e-05  -0.0279686 -0.291862 4.24087e-05  -0.0352919 -0.291449 6.94692e-05  -0.0367155 -0.313881 4.36902e-05  -0.0293715 -0.314316 2.0504e-05  -0.0288978 -0.306814 3.35425e-05  -0.036726 -0.313893 3.59416e-05  -0.0362401 -0.306395 5.52833e-05  -0.0289073 -0.306836 2.64049e-05  -0.036253 -0.306416 4.54187e-05  -0.037647 -0.328818 2.3365e-05  -0.0302908 -0.32925 1.15633e-05  -0.0298259 -0.321771 1.9297e-05  -0.0376551 -0.328822 2.0802e-05  -0.0371838 -0.321348 3.28571e-05  -0.0298319 -0.321786 1.57952e-05  -0.0371926 -0.321361 2.75671e-05  -0.0385594 -0.343714 8.46386e-06  -0.0311944 -0.344146 3.99351e-06  -0.0307367 -0.336694 8.43406e-06  -0.0385668 -0.343715 7.21216e-06  -0.0381033 -0.336265 1.60336e-05  -0.0307446 -0.336702 7.27177e-06  -0.0381117 -0.336273 1.32918e-05  -0.0394571 -0.358563 -6.12438e-06  -0.0320871 -0.358994 -3.75509e-06  -0.0316358 -0.351571 -5.96046e-07  -0.039464 -0.358562 -4.14252e-06  -0.0390089 -0.351138 1.71363e-06  -0.0316403 -0.351575 3.57628e-07  -0.0390174 -0.351143 1.01328e-06  -0.0403447 -0.373353 -1.93566e-05  -0.0329731 -0.373781 -1.07586e-05  -0.0325239 -0.366391 -9.38773e-06  -0.0403514 -0.373353 -1.7345e-05  -0.0399003 -0.36596 -1.13547e-05  -0.0325301 -0.366394 -7.45058e-06  -0.0399079 -0.365964 -8.9705e-06  -0.00021942 -0.000216693 0.00049004  0 0 0  4.24385e-05 -0.000433058 -1.41263e-05  1.50874e-05 0.000172317 -1.54674e-05  0 0 0  -0.000206247 -0.000447631 0.000380069  -6.72638e-05 0.000167578 0.00027895  0 0 0  1.24872e-05 4.72069e-05 -1.02222e-05  -6.22422e-05 3.85046e-05 0.000213891  -0.000684872 -0.00262791 0.000750929  0.000118554 -0.00302446 -9.0301e-06  9.00328e-05 -0.00119686 -2.0206e-05  -0.000655726 -0.00304237 0.000606358  -0.000434086 -0.0012095 0.000643626  7.93189e-05 -0.0015364 -1.24574e-05  -0.000408798 -0.00155374 0.00051108  -0.00122362 -0.00662282 0.000821516  0.000175476 -0.00715369 1.2815e-06  0.000168115 -0.00444987 -8.68738e-06  -0.00121009 -0.00715849 0.00068593  -0.000951618 -0.00445589 0.000798106  0.000151008 -0.00493455 -3.09944e-06  -0.00092724 -0.0049471 0.000657201  -0.00177985 -0.0118745 0.000813231  0.000187337 -0.0124907 7.12276e-06  0.000211775 -0.0091067 9.98378e-07  -0.00179234 -0.0124765 0.00068599  -0.00149938 -0.00909695 0.00082323  0.00018844 -0.00968435 5.27501e-06  -0.00149974 -0.00967985 0.000691235  -0.00235641 -0.0182338 0.000772089  0.000141382 -0.0188908 7.33137e-06  0.000202417 -0.0149453 3.47197e-06  -0.00239003 -0.0188543 0.000652105  -0.00206554 -0.0149159 0.000795573  0.0001719 -0.0155624 8.13603e-06  -0.00208932 -0.0155365 0.000671893  -0.00296211 -0.0256029 0.000716895  3.02792e-05 -0.0262712 3.30806e-06  0.000130534 -0.0218417 8.34465e-07  -0.00300938 -0.0262114 0.000604302  -0.00265521 -0.0217906 0.000745758  9.39369e-05 -0.0224612 4.85778e-06  -0.00269651 -0.0224132 0.000630021  -0.00360197 -0.0338985 0.000656754  -0.000147939 -0.0345614 -2.68221e-06  -1.00136e-05 -0.029706 -4.85778e-06  -0.0036577 -0.034478 0.000553161  -0.00327706 -0.0296338 0.000687152  -5.04255e-05 -0.0303056 -8.9407e-08  -0.00332934 -0.0302343 0.000579745  -0.00427932 -0.0430421 0.000597477  -0.000395417 -0.0436924 -8.28505e-06  -0.000220418 -0.0384582 -1.131e-05  -0.00433803 -0.0435846 0.000502318  -0.00393564 -0.0383619 0.000627264  -0.000262499 -0.0390254 -5.87106e-06  -0.00399375 -0.03893 0.000527561  -0.00499356 -0.0529582 0.000540763  -0.000709772 -0.0535938 -1.38879e-05  -0.000500202 -0.0480216 -1.72257e-05  -0.00505388 -0.05346 0.000452369  -0.00463092 -0.0479018 0.000569001  -0.000543714 -0.04855 -1.19209e-05  -0.00469208 -0.0484295 0.00047797  -0.00574255 -0.0635749 0.000486821  -0.00109041 -0.0641958 -1.91629e-05  -0.00085032 -0.0583226 -2.30223e-05  -0.00580144 -0.064037 0.000408143  -0.00536323 -0.0581769 0.000512868  -0.000892043 -0.0588101 -1.72257e-05  -0.00542295 -0.0586639 0.000430048  -0.00652409 -0.0748287 0.000436485  -0.00153327 -0.0754353 -2.14875e-05  -0.0012629 -0.0692924 -2.70754e-05  -0.00658131 -0.0752499 0.000365198  -0.00612903 -0.0691208 0.000461385  -0.00130415 -0.069739 -2.07424e-05  -0.00618732 -0.069566 0.000386536  -0.00733578 -0.0866547 0.00039044  -0.00203574 -0.0872488 -2.60174e-05  -0.00173736 -0.0808663 -3.02941e-05  -0.00738955 -0.087037 0.000326157  -0.00692558 -0.0806684 0.000413582  -0.00177789 -0.0812734 -2.37226e-05  -0.00698173 -0.0810739 0.000345588  -0.0081743 -0.0989951 0.000347063  -0.00259447 -0.0995766 -2.69413e-05  -0.00227034 -0.0929827 -3.24249e-05  -0.00822532 -0.0993398 0.000289857  -0.00775135 -0.0927588 0.000367999  -0.00230765 -0.0933506 -2.65241e-05  -0.00780439 -0.0931257 0.00030759  -0.00903666 -0.111793 0.000306398  -0.0032028 -0.112363 -2.83718e-05  -0.00285864 -0.105582 -3.37362e-05  -0.00908494 -0.112102 0.000255883  -0.00860167 -0.105335 0.000326768  -0.00289226 -0.105915 -2.84016e-05  -0.00865209 -0.105665 0.00027287  -0.00992084 -0.124996 0.000269115  -0.00385749 -0.125554 -2.81632e-05  -0.00349331 -0.118612 -3.48091e-05  -0.00996459 -0.125269 0.000225037  -0.00947642 -0.11834 0.000287324  -0.0035255 -0.118909 -2.81632e-05  -0.00952172 -0.118636 0.000239521  -0.0108224 -0.138553 0.000234991  -0.00455582 -0.139101 -2.89381e-05  -0.0041734 -0.13202 -3.44664e-05  -0.0108626 -0.138795 0.000195831  -0.0103691 -0.131727 0.00025177  -0.00420165 -0.132285 -2.83718e-05  -0.0104108 -0.13199 0.000209898  -0.011739 -0.152419 0.000203311  -0.00529099 -0.152957 -2.88785e-05  -0.0048945 -0.145758 -3.41684e-05  -0.011775 -0.152633 0.000169009  -0.0112782 -0.145445 0.0002186  -0.00491929 -0.145992 -2.85804e-05  -0.0113173 -0.145676 0.000181973  -0.0126688 -0.166549 0.00017269  -0.00606012 -0.167077 -2.72989e-05  -0.00564909 -0.15978 -3.39597e-05  -0.0126996 -0.166733 0.000144422  -0.0122018 -0.159448 0.000188738  -0.00567269 -0.159986 -2.73287e-05  -0.0122371 -0.159652 0.000156522  -0.0136049 -0.180901 0.000146434  -0.00685644 -0.181419 -2.5928e-05  -0.00643492 -0.174044 -3.241e-05  -0.0136325 -0.181061 0.000122935  -0.013134 -0.173695 0.000159577  -0.00645399 -0.174222 -2.69413e-05  -0.0131657 -0.173871 0.000132918  -0.0145466 -0.195439 0.000122756  -0.00767803 -0.195949 -2.55704e-05  -0.00724769 -0.188509 -3.07709e-05  -0.0145721 -0.195576 0.000101537  -0.0140734 -0.188144 0.000134692  -0.00726366 -0.188662 -2.55108e-05  -0.0141037 -0.188296 0.000111997  -0.0154924 -0.210127 9.96441e-05  -0.00851989 -0.210626 -2.20835e-05  -0.00808144 -0.203139 -2.85655e-05  -0.0155141 -0.210241 8.33571e-05  -0.0150187 -0.20276 0.000110865  -0.00809813 -0.203269 -2.43783e-05  -0.0150418 -0.20289 9.22382e-05  -0.0164373 -0.224931 8.00937e-05  -0.00937676 -0.225421 -2.21133e-05  -0.00893188 -0.2179 -2.76417e-05  -0.016458 -0.225024 6.66976e-05  -0.0159636 -0.21751 9.03308e-05  -0.00894618 -0.21801 -2.29478e-05  -0.0159857 -0.217618 7.46548e-05  -0.0173841 -0.23982 6.30319e-05  -0.0102472 -0.240301 -1.87159e-05  -0.00980139 -0.23276 -2.42591e-05  -0.0173981 -0.239896 5.27501e-05  -0.0169098 -0.232361 7.11232e-05  -0.00981092 -0.23285 -2.03252e-05  -0.0169275 -0.232449 5.88894e-05  -0.0183237 -0.25477 4.73708e-05  -0.0111275 -0.255243 -1.72257e-05  -0.0106785 -0.247692 -2.13534e-05  -0.0183365 -0.25483 4.00543e-05  -0.0178523 -0.247284 5.52237e-05  -0.0106864 -0.247766 -1.79708e-05  -0.017868 -0.247356 4.51505e-05  -0.0192585 -0.269757 3.40343e-05  -0.0120142 -0.270221 -1.49906e-05  -0.0115633 -0.26267 -1.96695e-05  -0.0192688 -0.2698 2.78652e-05  -0.0187905 -0.262253 4.02927e-05  -0.01157 -0.262727 -1.60635e-05  -0.0188029 -0.262311 3.36766e-05  -0.0201876 -0.284756 2.29627e-05  -0.012903 -0.285213 -1.3113e-05  -0.0124526 -0.277671 -1.66148e-05  -0.0201955 -0.28479 1.98483e-05  -0.0197234 -0.277249 2.85953e-05  -0.0124576 -0.277716 -1.39773e-05  -0.019733 -0.277293 2.32756e-05  -0.0211093 -0.299751 1.43051e-05  -0.0137947 -0.300204 -1.21891e-05  -0.0133452 -0.292676 -1.51396e-05  -0.0211146 -0.299774 1.18911e-05  -0.0206487 -0.29225 1.885e-05  -0.0133491 -0.292709 -1.24872e-05  -0.0206566 -0.292282 1.52588e-05  -0.0220232 -0.314729 7.24196e-06  -0.0146856 -0.315174 -7.98702e-06  -0.0142381 -0.307666 -1.22488e-05  -0.0220268 -0.314741 5.27501e-06  -0.021565 -0.307237 1.08182e-05  -0.0142395 -0.30769 -9.83477e-06  -0.0215719 -0.307261 9.14931e-06  -0.0229282 -0.329672 2.89083e-06  -0.0155764 -0.330114 -6.97374e-06  -0.0151286 -0.322632 -9.28342e-06  -0.0229306 -0.32968 3.66569e-06  -0.0224767 -0.322199 5.57303e-06  -0.015131 -0.322647 -8.01682e-06  -0.0224795 -0.322214 3.96371e-06  -0.0238256 -0.344576 -8.49366e-07  -0.0164638 -0.345013 -3.93391e-06  -0.0160208 -0.337557 -6.06477e-06  -0.0238278 -0.344578 -4.47035e-07  -0.0233774 -0.337124 7.45058e-07  -0.0160201 -0.337567 -4.76837e-06  -0.0233808 -0.337133 6.85453e-07  -0.0247138 -0.359427 -3.50177e-06  -0.017345 -0.359861 -2.80142e-06  -0.0169051 -0.352438 -4.41074e-06  -0.0247152 -0.359427 -2.6226e-06  -0.0242712 -0.352003 -2.22027e-06  -0.0169039 -0.352443 -3.45707e-06  -0.0242717 -0.352008 -2.02656e-06  -0.025593 -0.37421 -7.7635e-06  -0.0182214 -0.374646 -2.41399e-06  -0.0177848 -0.367256 -1.19209e-06  -0.0255969 -0.374212 -4.85778e-06  -0.0251544 -0.366821 -6.03497e-06  -0.0177851 -0.367261 -1.93715e-06  -0.0251553 -0.366826 -3.75509e-06  0.000316665 -0.000282884 -0.000535548  0 0 0  0.000552207 -0.000680983 -0.000796169  0.000182264 3.16501e-05 -0.000602543  0 0 0  0.00029248 -0.000510693 -0.000407547  9.60678e-05 0.000128567 -0.000309289  0 0 0  0.000168756 -9.66787e-05 -0.000455409  8.78274e-05 3.21865e-06 -0.000233531  0.000949442 -0.00274473 -0.000780702  0.00168782 -0.00342643 -0.00122747  0.00115488 -0.00153047 -0.00133586  0.000892997 -0.00315189 -0.00062266  0.000615165 -0.00130355 -0.000681192  0.00107533 -0.00187564 -0.00104877  0.000570074 -0.00164264 -0.000533789  0.00161225 -0.00677365 -0.000825509  0.0029676 -0.00761092 -0.00135273  0.00242886 -0.00487858 -0.00160609  0.00156027 -0.00730407 -0.000680387  0.0012874 -0.00459093 -0.000812784  0.00233054 -0.0053702 -0.00131011  0.00122976 -0.00507522 -0.000661045  0.00220329 -0.0120537 -0.000806615  0.00416195 -0.0129576 -0.0013386  0.00364915 -0.00956434 -0.00162958  0.00216299 -0.0126515 -0.000668406  0.00191975 -0.00926298 -0.000818953  0.00358084 -0.0101466 -0.00135407  0.00187296 -0.00983977 -0.00067839  0.00269943 -0.0184438 -0.000765741  0.00521219 -0.019361 -0.0012753  0.00474852 -0.015411 -0.0015706  0.00266623 -0.0190601 -0.000637233  0.00246555 -0.0151101 -0.000787109  0.00470573 -0.0160305 -0.00130987  0.00242805 -0.0157276 -0.00065434  0.00309116 -0.0258461 -0.00071992  0.00611305 -0.026753 -0.00119498  0.00570631 -0.0223162 -0.00148235  0.00306296 -0.0264513 -0.00059858  0.00290859 -0.0220171 -0.000743628  0.00568104 -0.0229362 -0.00123757  0.00287801 -0.0226359 -0.0006181  0.00338048 -0.0341781 -0.000673011  0.0068711 -0.0350622 -0.00111121  0.00652599 -0.0301969 -0.00138396  0.00335342 -0.034756 -0.000558257  0.00324935 -0.0298938 -0.000696287  0.00651044 -0.030796 -0.00115463  0.00322193 -0.0304927 -0.000578433  0.00356615 -0.0433602 -0.000626162  0.00748968 -0.0442167 -0.00102937  0.00720894 -0.0389705 -0.00128502  0.00354028 -0.0439035 -0.000519246  0.00348657 -0.0386613 -0.000649378  0.00719708 -0.0395373 -0.00107011  0.00345945 -0.0392278 -0.000539422  0.00365019 -0.0533189 -0.000581294  0.00797379 -0.0541453 -0.000948846  0.00775778 -0.0485591 -0.00118715  0.00362527 -0.0538218 -0.000481933  0.00362122 -0.0482411 -0.000603378  0.00774813 -0.0490876 -0.000988513  0.00359547 -0.0487692 -0.000500888  0.00363624 -0.0639803 -0.000536799  0.00832713 -0.0647774 -0.000871301  0.00817466 -0.0588883 -0.00109351  0.00361252 -0.0644433 -0.000446349  0.00365555 -0.05856 -0.000559047  0.00816739 -0.0593768 -0.000910342  0.00363111 -0.0590476 -0.000463724  0.00352836 -0.0752787 -0.000495076  0.0085566 -0.0760471 -0.00079748  0.00846481 -0.0698879 -0.00100291  0.00350547 -0.0757022 -0.000411332  0.00359392 -0.0695479 -0.000515565  0.00845635 -0.0703358 -0.000834227  0.00357103 -0.069995 -0.000428051  0.00333071 -0.0871501 -0.000453129  0.0086664 -0.0878916 -0.000728279  0.00863349 -0.0814925 -0.000916272  0.00330937 -0.0875339 -0.000377178  0.00344038 -0.0811409 -0.000473931  0.00862575 -0.0819002 -0.000762463  0.00341892 -0.0815482 -0.00039354  0.00304902 -0.0995333 -0.000413999  0.00866413 -0.10025 -0.000661373  0.00868464 -0.0936387 -0.000833496  0.00303054 -0.0998799 -0.000344127  0.00320113 -0.093275 -0.000433668  0.00867927 -0.094009 -0.00069347  0.00318003 -0.0936444 -0.000360101  0.00268984 -0.112373 -0.000375658  0.00855649 -0.113065 -0.000595182  0.00862789 -0.106269 -0.000754431  0.00267196 -0.112683 -0.00031209  0.00287867 -0.105894 -0.000394821  0.0086236 -0.106602 -0.000628412  0.00286078 -0.106226 -0.000327677  0.00225735 -0.125615 -0.000339136  0.00835049 -0.126284 -0.000534803  0.0084703 -0.119327 -0.000679702  0.00224149 -0.125891 -0.000282317  0.00248265 -0.11894 -0.000357732  0.00846577 -0.119626 -0.000565171  0.00246584 -0.119239 -0.000297487  0.00175834 -0.139209 -0.000304833  0.00805497 -0.139856 -0.000478297  0.00821626 -0.132761 -0.000607714  0.00174522 -0.139454 -0.000253379  0.00201631 -0.132365 -0.000322029  0.00821471 -0.133027 -0.00050649  0.00200093 -0.13263 -0.000267863  0.00119925 -0.153108 -0.000270724  0.00767469 -0.153734 -0.000422746  0.00787663 -0.146523 -0.000540391  0.00118732 -0.153323 -0.000226021  0.00148702 -0.146117 -0.000287503  0.00787616 -0.146759 -0.00044921  0.00147343 -0.146352 -0.000238657  0.000585318 -0.167268 -0.000239521  0.00722003 -0.167875 -0.000370115  0.00745606 -0.160566 -0.000476226  0.000575542 -0.167457 -0.00019896  0.0008986 -0.160153 -0.00025484  0.00745583 -0.160773 -0.000395983  0.000888348 -0.160359 -0.000211447  -7.62939e-05 -0.181652 -0.000210345  0.0066967 -0.182236 -0.00032264  0.00696492 -0.174849 -0.000416502  -8.36849e-05 -0.181812 -0.000174463  0.000261545 -0.174429 -0.000224486  0.00696635 -0.17503 -0.000345826  0.000252962 -0.174608 -0.000186592  -0.000781536 -0.196212 -0.000182196  0.00611091 -0.19678 -0.000277251  0.00640821 -0.189331 -0.000360817  -0.000786781 -0.19635 -0.000151724  -0.00042367 -0.188904 -0.000195608  0.0064106 -0.189486 -0.000299722  -0.000429869 -0.189058 -0.000162929  -0.00152397 -0.21092 -0.000155956  0.00547147 -0.211471 -0.000235468  0.00579262 -0.203976 -0.000307515  -0.00152826 -0.211036 -0.000129312  -0.00114846 -0.203544 -0.000168189  0.00579691 -0.204107 -0.000256568  -0.00115275 -0.203675 -0.000140429  -0.00229621 -0.225742 -0.000131309  0.00478363 -0.226275 -0.000197619  0.00512743 -0.218748 -0.000260517  -0.00230026 -0.225838 -0.000109732  -0.00190687 -0.218313 -0.000143856  0.00513315 -0.21886 -0.000216722  -0.00190997 -0.218423 -0.000119835  -0.00309849 -0.240647 -0.000109702  0.00405455 -0.241166 -0.000163168  0.0044198 -0.233618 -0.000215709  -0.0030992 -0.240725 -9.02414e-05  -0.00269318 -0.233179 -0.000120759  0.00442457 -0.23371 -0.000178754  -0.0026958 -0.233271 -0.000100404  -0.00392222 -0.255612 -8.88854e-05  0.00329065 -0.256113 -0.000129849  0.00367284 -0.248558 -0.000175685  -0.00392175 -0.255672 -7.40886e-05  -0.00350738 -0.248117 -9.85712e-05  0.00367665 -0.248632 -0.00014624  -0.0035069 -0.248191 -8.21054e-05  -0.0047617 -0.270606 -7.15405e-05  0.00249767 -0.271096 -0.000102311  0.00289273 -0.263541 -0.000139832  -0.00476098 -0.270652 -5.97835e-05  -0.00433993 -0.263099 -8.05855e-05  0.0028975 -0.2636 -0.000116557  -0.00433922 -0.263156 -6.62208e-05  -0.00561571 -0.285613 -5.52833e-05  0.00168085 -0.28609 -7.80821e-05  0.00208712 -0.278546 -0.000108257  -0.00561309 -0.285648 -4.51505e-05  -0.00518775 -0.278102 -6.25253e-05  0.00209093 -0.278591 -8.94666e-05  -0.00518513 -0.278148 -5.24223e-05  -0.00647926 -0.300615 -4.13358e-05  0.000845671 -0.301082 -5.53131e-05  0.00125909 -0.293553 -8.04812e-05  -0.00647831 -0.300639 -3.51369e-05  -0.00604653 -0.29311 -4.7937e-05  0.00126529 -0.293587 -6.74427e-05  -0.00604439 -0.293143 -3.95477e-05  -0.0073514 -0.315596 -2.8193e-05  -4.52995e-06 -0.316054 -3.85344e-05  0.00041604 -0.308546 -5.74887e-05  -0.00734806 -0.315611 -2.49147e-05  -0.00691247 -0.308102 -3.48985e-05  0.000422955 -0.308569 -4.673e-05  -0.00691152 -0.308126 -2.86102e-05  -0.00822616 -0.330542 -1.76281e-05  -0.000865221 -0.330993 -2.28286e-05  -0.000440121 -0.32351 -3.65973e-05  -0.00822282 -0.330551 -1.42157e-05  -0.0077877 -0.323069 -2.29925e-05  -0.000433445 -0.323527 -3.04282e-05  -0.00778437 -0.323084 -1.86861e-05  -0.00910306 -0.345448 -8.79169e-06  -0.00173473 -0.345891 -1.14739e-05  -0.00130272 -0.338436 -2.09957e-05  -0.00909948 -0.345451 -7.7188e-06  -0.00866294 -0.337995 -1.38134e-05  -0.00129962 -0.338446 -1.74642e-05  -0.00866079 -0.338005 -1.12653e-05  -0.00998044 -0.360299 -7.7486e-07  -0.00260639 -0.360739 -5.06639e-07  -0.00217581 -0.353314 -7.36117e-06  -0.00997734 -0.360299 -1.2219e-06  -0.00954223 -0.352875 -4.69387e-06  -0.00216937 -0.35332 -6.52671e-06  -0.0095396 -0.352881 -4.55976e-06  -0.0108523 -0.375084 8.10623e-06  -0.00347328 -0.375528 1.19805e-05  -0.00304627 -0.368135 6.09457e-06  -0.0108488 -0.375085 4.29153e-06  -0.0104175 -0.367694 2.25008e-06  -0.00304055 -0.368141 4.85778e-06  -0.0104144 -0.367699 2.29478e-06  0.00089711 -0.000720382 -0.00152977  0 0 0  0.001155 -0.00137365 -0.00152895  0.000382163 -0.000364661 -0.00115184  0 0 0  0.000835493 -0.00096184 -0.00116745  0.000273272 -0.000126898 -0.000877187  0 0 0  0.000355244 -0.000511229 -0.000867814  0.000251882 -0.000261486 -0.000662863  0.0026775 -0.00342864 -0.00226252  0.00345954 -0.00446576 -0.00237665  0.00237051 -0.00239819 -0.00257875  0.00254104 -0.0038594 -0.00181049  0.00173782 -0.00188988 -0.00196391  0.00222507 -0.00277913 -0.00202504  0.0016242 -0.00224805 -0.00154331  0.00455549 -0.00752378 -0.00242868  0.00599459 -0.00869399 -0.00264874  0.00490883 -0.00591362 -0.00312676  0.00444284 -0.00807428 -0.00200915  0.00363287 -0.00531775 -0.00237587  0.00474122 -0.00644439 -0.00255141  0.00349903 -0.00582415 -0.00193936  0.00627941 -0.012795 -0.00239691  0.00834173 -0.0139891 -0.00264618  0.00730246 -0.0105939 -0.00320606  0.00621504 -0.0134048 -0.00199816  0.00543842 -0.0100096 -0.00242618  0.00719857 -0.0112039 -0.00266483  0.00535148 -0.0106025 -0.00201666  0.00783283 -0.0191693 -0.00228581  0.0104589 -0.0203482 -0.00253516  0.00947946 -0.0164027 -0.00311247  0.00780129 -0.0197913 -0.00191003  0.00707859 -0.0158432 -0.00234739  0.00942886 -0.0170375 -0.0025984  0.0070321 -0.0164685 -0.00195965  0.00921392 -0.0265655 -0.00214502  0.0123545 -0.0277115 -0.00237948  0.0114492 -0.0232801 -0.00294594  0.00920218 -0.0271735 -0.0017913  0.00854504 -0.0227378 -0.00221771  0.0114334 -0.0239073 -0.00246096  0.00852454 -0.0233611 -0.00185221  0.0104246 -0.0348995 -0.00199458  0.0140371 -0.0360053 -0.00221115  0.013218 -0.0311434 -0.00275153  0.0104238 -0.035479 -0.00166389  0.00983959 -0.0306138 -0.00207017  0.0132219 -0.0317455 -0.00229689  0.00983495 -0.0312137 -0.00172785  0.0114684 -0.0440903 -0.00184436  0.0155139 -0.0451524 -0.00204307  0.0147865 -0.0399086 -0.00254978  0.0114732 -0.0446343 -0.00153771  0.0109674 -0.0393868 -0.00191925  0.0148013 -0.0404758 -0.00212654  0.0109702 -0.0399531 -0.00160062  0.0123469 -0.0540606 -0.00169855  0.0167897 -0.0550779 -0.00187859  0.0161573 -0.0494927 -0.00235125  0.0123541 -0.0545645 -0.00141454  0.0119282 -0.048977 -0.00177117  0.0161763 -0.0500212 -0.00195998  0.011935 -0.0495049 -0.00147521  0.0130645 -0.0647385 -0.00155802  0.0178715 -0.0657114 -0.00172094  0.0173329 -0.059822 -0.00215921  0.0130736 -0.0652005 -0.00129747  0.0127263 -0.0593092 -0.00162745  0.0173539 -0.0603093 -0.00179869  0.0127339 -0.0597972 -0.00135535  0.0136273 -0.0760522 -0.00142361  0.018767 -0.0769839 -0.00157058  0.0183197 -0.0708232 -0.0019744  0.0136366 -0.0764743 -0.00118512  0.0133655 -0.0703127 -0.00149012  0.0183423 -0.0712702 -0.00164437  0.0133742 -0.0707608 -0.00124031  0.0140415 -0.0879399 -0.00129552  0.019484 -0.0888308 -0.00142732  0.0191228 -0.0824299 -0.0017989  0.0140514 -0.0883235 -0.00107804  0.0138531 -0.0819222 -0.00135888  0.0191481 -0.0828382 -0.00149813  0.0138628 -0.0823302 -0.00113076  0.0143149 -0.10034 -0.0011736  0.0200317 -0.101192 -0.00129145  0.0197568 -0.09458 -0.0016319  0.0143253 -0.100687 -0.000976592  0.0141962 -0.0940737 -0.00123405  0.0197787 -0.0949502 -0.00135863  0.0142059 -0.0944443 -0.00102714  0.0144566 -0.113195 -0.00105666  0.0204206 -0.114011 -0.00116202  0.0202246 -0.107213 -0.0014725  0.0144669 -0.113507 -0.000880063  0.0144032 -0.106708 -0.00111486  0.0202448 -0.107547 -0.00122631  0.014412 -0.107042 -0.000927091  0.0144742 -0.126454 -0.000947058  0.0206594 -0.127234 -0.00103915  0.0205353 -0.120275 -0.00132188  0.0144848 -0.126731 -0.000787795  0.0144807 -0.119772 -0.00100161  0.0205569 -0.120575 -0.00110069  0.0144911 -0.120071 -0.000833511  0.0143762 -0.140061 -0.000843093  0.0207591 -0.140809 -0.000924498  0.0207045 -0.133712 -0.00117934  0.0143881 -0.140307 -0.000701517  0.0144391 -0.13321 -0.000894204  0.0207256 -0.133979 -0.000981867  0.0144506 -0.133477 -0.00074473  0.0141721 -0.153974 -0.000744566  0.02073 -0.154688 -0.000815779  0.0207391 -0.147476 -0.00104375  0.0141852 -0.154189 -0.000619352  0.0142872 -0.146975 -0.000793248  0.0207605 -0.147712 -0.000868827  0.0142977 -0.147211 -0.000659674  0.013871 -0.168143 -0.000651896  0.0205834 -0.168829 -0.000713885  0.0206506 -0.16152 -0.00091739  0.0138845 -0.168332 -0.000543088  0.0140331 -0.161022 -0.000697151  0.0206709 -0.161727 -0.000763237  0.0140467 -0.161229 -0.000580251  0.0134814 -0.182531 -0.000565529  0.0203269 -0.183188 -0.000616759  0.0204465 -0.175801 -0.000797823  0.013495 -0.182695 -0.000470728  0.0136874 -0.175307 -0.00060831  0.0204682 -0.175983 -0.000664592  0.0137007 -0.175488 -0.000505716  0.0130136 -0.197102 -0.000485271  0.0199721 -0.197729 -0.000528514  0.0201395 -0.190282 -0.000687629  0.0130258 -0.197239 -0.000403225  0.013257 -0.189791 -0.000524312  0.0201607 -0.190437 -0.000572354  0.0132709 -0.189945 -0.000436306  0.0124736 -0.211815 -0.000410557  0.0195284 -0.212417 -0.00044775  0.0197411 -0.204923 -0.000585213  0.0124848 -0.211931 -0.000341445  0.0127523 -0.204435 -0.000447705  0.0197592 -0.205056 -0.000487149  0.0127647 -0.204569 -0.000371784  0.0118682 -0.22664 -0.000342533  0.0190053 -0.227217 -0.000372201  0.0192549 -0.219691 -0.000490904  0.0118821 -0.226736 -0.000284612  0.0121782 -0.219208 -0.000376686  0.0192759 -0.219803 -0.000408381  0.0121911 -0.219319 -0.000313878  0.011209 -0.241545 -0.000280485  0.0184124 -0.242101 -0.000303209  0.018697 -0.234558 -0.000405058  0.0112224 -0.241624 -0.000233531  0.0115471 -0.234078 -0.000311837  0.0187171 -0.234649 -0.000336766  0.0115578 -0.234169 -0.000259042  0.0105019 -0.256509 -0.000224248  0.0177586 -0.257043 -0.000241905  0.0180755 -0.249491 -0.000326738  0.0105145 -0.256571 -0.000186801  0.0108616 -0.249017 -0.00025095  0.0180912 -0.249565 -0.000272095  0.010875 -0.24909 -0.000208408  0.00975275 -0.271503 -0.000175446  0.0170536 -0.272018 -0.00018698  0.0173941 -0.264467 -0.000257701  0.00976634 -0.271551 -0.000145942  0.0101337 -0.263998 -0.000200257  0.0174134 -0.264527 -0.000213832  0.0101452 -0.264057 -0.000166208  0.00897312 -0.28651 -0.000131965  0.0163035 -0.287006 -0.00014019  0.0166676 -0.279466 -0.000196323  0.00898504 -0.286544 -0.000109434  0.0093677 -0.279001 -0.000152752  0.0166831 -0.279511 -0.000162452  0.00937915 -0.279046 -0.000126272  0.00816512 -0.301511 -9.47565e-05  0.0155191 -0.301991 -0.000101179  0.0159023 -0.294466 -0.000144318  0.00817537 -0.301532 -7.98404e-05  0.00857162 -0.294004 -0.000113457  0.0159149 -0.2945 -0.000120848  0.00858355 -0.294039 -9.38177e-05  0.00733447 -0.316487 -6.47455e-05  0.0147035 -0.316956 -6.78897e-05  0.0151014 -0.309452 -0.000100136  0.00734425 -0.316501 -5.28991e-05  0.00775313 -0.308995 -7.92295e-05  0.015115 -0.309475 -8.30889e-05  0.00776148 -0.309019 -6.61016e-05  0.00648689 -0.331431 -3.89367e-05  0.0138681 -0.331889 -4.05312e-05  0.0142763 -0.324409 -6.4075e-05  0.00649548 -0.331439 -3.22759e-05  0.00691366 -0.323957 -5.04106e-05  0.0142887 -0.324426 -5.32568e-05  0.00692248 -0.323974 -4.21703e-05  0.00562716 -0.346331 -1.84178e-05  0.0130126 -0.346781 -1.86861e-05  0.0134325 -0.339329 -3.52114e-05  0.00563717 -0.346335 -1.54972e-05  0.00605893 -0.338881 -2.86102e-05  0.0134408 -0.339339 -2.98917e-05  0.00606823 -0.33889 -2.31564e-05  0.00475955 -0.361181 -1.3411e-07  0.0121484 -0.361625 -2.23517e-06  0.0125735 -0.354202 -1.0848e-05  0.00476718 -0.361181 -1.78814e-07  0.00519514 -0.353757 -8.89599e-06  0.0125823 -0.354207 -9.50694e-06  0.00520277 -0.353763 -7.89762e-06  0.00389004 -0.375971 1.87308e-05  0.0112829 -0.376423 1.81198e-05  0.0117047 -0.369024 1.06096e-05  0.00390005 -0.375975 1.30236e-05  0.00432467 -0.368579 8.62777e-06  0.011713 -0.36903 8.13603e-06  0.00433302 -0.368584 7.39098e-06  0.00164306 -0.00168103 -0.00243931  0 0 0  0.00200225 -0.00283146 -0.00219285  0.000650696 -0.00122511 -0.0016343  0 0 0  0.00154637 -0.00197232 -0.00186411  0.000498071 -0.000715494 -0.00138518  0 0 0  0.000611812 -0.00140727 -0.00124037  0.000463307 -0.000879109 -0.00104886  0.00473133 -0.00476706 -0.00363538  0.00573534 -0.00626612 -0.00343412  0.0039936 -0.00399876 -0.0037102  0.00453088 -0.00526476 -0.00291237  0.00312899 -0.00308692 -0.00314568  0.00380355 -0.00445867 -0.00292367  0.00295733 -0.00350142 -0.00247538  0.00782636 -0.00885761 -0.00395329  0.0094789 -0.0103623 -0.00387517  0.00785536 -0.00756806 -0.00455134  0.00767294 -0.00946236 -0.00326875  0.00632027 -0.00666577 -0.0038476  0.00765347 -0.00818086 -0.00371712  0.00613096 -0.00723195 -0.00314209  0.0106462 -0.0140648 -0.00394194  0.012907 -0.0155495 -0.00391275  0.0113457 -0.012154 -0.00472784  0.0105663 -0.0147056 -0.00328535  0.0092653 -0.0113121 -0.00397326  0.0112251 -0.0128154 -0.00392473  0.00915131 -0.0119447 -0.00330073  0.0132325 -0.0203902 -0.00377873  0.0160587 -0.0218275 -0.0037685  0.0145724 -0.0178919 -0.00462347  0.0132036 -0.0210277 -0.00315657  0.0119692 -0.0170869 -0.0038726  0.0145182 -0.0185543 -0.00385559  0.0119168 -0.0177344 -0.00323138  0.0155868 -0.0277498 -0.00355291  0.0189305 -0.0291333 -0.00354779  0.0175385 -0.0247158 -0.00438903  0.0155896 -0.0283654 -0.00296685  0.0144388 -0.0239399 -0.00367089  0.0175288 -0.0253563 -0.00366446  0.0144278 -0.0245734 -0.00306615  0.0177101 -0.0360584 -0.00330459  0.0215259 -0.0373834 -0.00329894  0.0202471 -0.0325368 -0.00410341  0.0177305 -0.0366404 -0.00275758  0.0166779 -0.0317848 -0.00343025  0.0202622 -0.033145 -0.0034247  0.0166905 -0.0323895 -0.00286353  0.019603 -0.0452293 -0.00305404  0.0238483 -0.0464948 -0.00304705  0.0226915 -0.0412667 -0.00380276  0.0196314 -0.0457731 -0.00254533  0.0186864 -0.0405356 -0.00317885  0.0227205 -0.0418347 -0.0031721  0.0187102 -0.0411029 -0.00265169  0.0212672 -0.0551845 -0.00280824  0.0259032 -0.0563893 -0.00280049  0.0248728 -0.0508211 -0.00350481  0.0212996 -0.0556868 -0.00234088  0.0204637 -0.0501081 -0.00293016  0.0249095 -0.0513478 -0.00292206  0.0204945 -0.0506356 -0.0024429  0.0227072 -0.0658483 -0.00257279  0.0277016 -0.0669957 -0.00256255  0.0267955 -0.0611217 -0.00321603  0.0227414 -0.0663096 -0.00214311  0.0220146 -0.060426 -0.00268969  0.0268352 -0.0616071 -0.00268042  0.022048 -0.0609125 -0.00224108  0.0239315 -0.0771506 -0.00234783  0.0292509 -0.0782435 -0.00233716  0.0284678 -0.0720966 -0.00293915  0.0239655 -0.0775731 -0.00195533  0.0233461 -0.071418 -0.00245881  0.0285068 -0.0725424 -0.00244859  0.0233802 -0.0718646 -0.00204775  0.0249485 -0.0890293 -0.00213291  0.0305624 -0.0900676 -0.00212303  0.0298975 -0.0836803 -0.00267544  0.0249811 -0.0894119 -0.00177625  0.0244659 -0.0830164 -0.00223877  0.0299364 -0.0840867 -0.00222895  0.0244998 -0.0834234 -0.00186419  0.0257674 -0.10142 -0.00192812  0.0316477 -0.102407 -0.00191829  0.031094 -0.0958076 -0.002424  0.0257999 -0.101766 -0.0016062  0.0253824 -0.0951578 -0.0020294  0.0311323 -0.0961753 -0.00201946  0.0254151 -0.0955274 -0.00168967  0.0264008 -0.114267 -0.001735  0.0325193 -0.115205 -0.0017243  0.0320741 -0.108419 -0.00218558  0.0264317 -0.114578 -0.00144407  0.0261065 -0.107783 -0.00183082  0.032109 -0.108751 -0.00181991  0.0261391 -0.108117 -0.00152388  0.0268577 -0.127515 -0.0015517  0.0331906 -0.128407 -0.00154182  0.0328445 -0.12146 -0.0019591  0.0268891 -0.127792 -0.00129175  0.0266514 -0.120838 -0.00164166  0.0328788 -0.121757 -0.00163138  0.0266813 -0.121137 -0.00136739  0.0271521 -0.141114 -0.00137781  0.0336742 -0.14196 -0.00136754  0.0334203 -0.134876 -0.00174558  0.0271835 -0.141359 -0.0011476  0.0270252 -0.134267 -0.00146335  0.033455 -0.135141 -0.00145349  0.0270559 -0.134534 -0.0012179  0.0272951 -0.155016 -0.00121434  0.0339832 -0.15582 -0.00120521  0.0338156 -0.148618 -0.00154267  0.0273254 -0.155232 -0.00101078  0.0272431 -0.148023 -0.00129503  0.0338502 -0.148853 -0.00128537  0.0272727 -0.14826 -0.00107813  0.0272968 -0.169176 -0.00106165  0.0341311 -0.169939 -0.00105226  0.034044 -0.162642 -0.00135392  0.0273273 -0.169365 -0.000883609  0.0273137 -0.162059 -0.00113662  0.034076 -0.162848 -0.00112733  0.0273442 -0.162267 -0.000946045  0.0271704 -0.183554 -0.00091815  0.0341306 -0.184279 -0.000909299  0.0341172 -0.176904 -0.00117543  0.0272 -0.183716 -0.000763834  0.0272493 -0.176334 -0.000988051  0.0341487 -0.177083 -0.000979722  0.0272796 -0.176514 -0.000822961  0.0269282 -0.198111 -0.000784934  0.0339937 -0.198799 -0.000777513  0.0340471 -0.191363 -0.00101158  0.0269566 -0.198249 -0.000653207  0.0270646 -0.190806 -0.000850201  0.0340788 -0.191517 -0.000841886  0.0270922 -0.190962 -0.000707418  0.0265803 -0.212812 -0.000662625  0.0337341 -0.213464 -0.000655502  0.0338478 -0.205983 -0.000857607  0.0266058 -0.212928 -0.000551671  0.0267673 -0.205439 -0.000722364  0.0338788 -0.206115 -0.000714511  0.0267932 -0.205571 -0.000602067  0.0261362 -0.227624 -0.000550717  0.0333631 -0.228244 -0.00054273  0.0335326 -0.220731 -0.000718042  0.0261621 -0.22772 -0.00045827  0.0263708 -0.2202 -0.000606358  0.0335603 -0.220841 -0.000598252  0.0263951 -0.22031 -0.000504315  0.0256093 -0.242519 -0.000447869  0.0328939 -0.243108 -0.000443161  0.0331132 -0.235577 -0.000590339  0.0256329 -0.242597 -0.000372648  0.0258846 -0.235058 -0.000499249  0.0331409 -0.235667 -0.000491232  0.0259085 -0.235149 -0.000414044  0.0250087 -0.257469 -0.000357077  0.0323379 -0.25803 -0.000350565  0.0326016 -0.25049 -0.000473082  0.0250306 -0.257529 -0.000296384  0.0253181 -0.249983 -0.000401571  0.0326264 -0.250562 -0.000393629  0.0253408 -0.250055 -0.000334054  0.0243425 -0.272452 -0.000276119  0.0317059 -0.272987 -0.000269115  0.0320098 -0.265448 -0.000371844  0.024364 -0.272496 -0.000230223  0.0246844 -0.264951 -0.000315413  0.0320311 -0.265505 -0.000309348  0.0247052 -0.26501 -0.00026229  0.0236244 -0.287447 -0.000206426  0.0310097 -0.287959 -0.000200033  0.0313449 -0.280428 -0.000280738  0.0236442 -0.287479 -0.000171602  0.0239909 -0.279943 -0.000239551  0.0313659 -0.280471 -0.000234634  0.0240095 -0.279986 -0.00019896  0.0228617 -0.302433 -0.000146791  0.0302622 -0.302926 -0.000140816  0.030623 -0.295411 -0.000204965  0.0228789 -0.302457 -0.000122368  0.023248 -0.294935 -0.000175893  0.030643 -0.295443 -0.000169933  0.0232661 -0.294968 -0.000145555  0.0220623 -0.317399 -9.74089e-05  0.0294697 -0.317875 -9.42647e-05  0.0298543 -0.310382 -0.000138864  0.0220773 -0.317414 -8.01086e-05  0.0224683 -0.309914 -0.000120699  0.029871 -0.310404 -0.000116348  0.0224814 -0.309936 -0.000100404  0.0212352 -0.332334 -5.88894e-05  0.0286434 -0.332796 -5.44488e-05  0.0290465 -0.325324 -8.77827e-05  0.0212479 -0.33234 -4.86076e-05  0.0216525 -0.324865 -7.72476e-05  0.0290592 -0.325338 -7.45952e-05  0.0216663 -0.324881 -6.37174e-05  0.0203855 -0.347227 -2.74777e-05  0.0277944 -0.347676 -2.51234e-05  0.0282094 -0.340232 -4.78327e-05  0.0203989 -0.347228 -2.39909e-05  0.0208132 -0.339779 -4.27514e-05  0.0282226 -0.340241 -4.04716e-05  0.0208261 -0.339789 -3.54648e-05  0.0195243 -0.36207 -2.05636e-06  0.0269313 -0.362517 -3.8147e-06  0.0273526 -0.355096 -1.72257e-05  0.0195358 -0.362071 -1.51992e-06  0.0199575 -0.354648 -1.4171e-05  0.0273659 -0.355101 -1.50204e-05  0.0199685 -0.354654 -1.25468e-05  0.0186596 -0.376869 2.41548e-05  0.026063 -0.377325 1.59144e-05  0.0264847 -0.369919 8.85129e-06  0.0186691 -0.376874 1.74344e-05  0.0190921 -0.369472 9.61125e-06  0.0264969 -0.369923 6.67572e-06  0.0191011 -0.369477 6.97374e-06  0.00283925 -0.00370651 -0.0032866  0 0 0  0.00379819 -0.0058009 -0.00289524  0.00133874 -0.00318772 -0.0021276  0 0 0  0.00273663 -0.0041011 -0.00253591  0.000859827 -0.00198537 -0.00181036  0 0 0  0.00131763 -0.00339794 -0.0016475  0.000814371 -0.00218153 -0.00139317  0.00737044 -0.00678873 -0.0049389  0.00878707 -0.00860506 -0.00450251  0.00650908 -0.00642079 -0.00487769  0.00716352 -0.00740969 -0.00396231  0.00514948 -0.00513285 -0.00428604  0.00639591 -0.00702113 -0.00385138  0.004979 -0.00565499 -0.00337872  0.011564 -0.0107122 -0.0054418  0.0134738 -0.0125544 -0.00511232  0.0113085 -0.00971901 -0.00600854  0.0114005 -0.0113949 -0.00449079  0.00950837 -0.0085966 -0.00527328  0.0111311 -0.0104381 -0.00489837  0.00930896 -0.00926334 -0.00430375  0.0154578 -0.0158327 -0.00546366  0.0179766 -0.0176015 -0.00517508  0.0158893 -0.0142027 -0.00626498  0.0153697 -0.0165166 -0.00454396  0.0135449 -0.0131189 -0.0054933  0.0157647 -0.0149271 -0.00518745  0.0134227 -0.0138108 -0.00455517  0.0190716 -0.0220873 -0.00525329  0.0221609 -0.0237826 -0.00499114  0.0201789 -0.0198582 -0.0061312  0.0190375 -0.0227457 -0.00438178  0.0173011 -0.0188164 -0.00537643  0.0201098 -0.0205541 -0.00510392  0.0172427 -0.019495 -0.00447989  0.0223951 -0.0293904 -0.00494403  0.0260056 -0.0310071 -0.00470096  0.0241555 -0.0266128 -0.00582075  0.0223965 -0.0300141 -0.00412643  0.020771 -0.0256068 -0.00510645  0.0241277 -0.0272687 -0.0048539  0.0207564 -0.0262554 -0.00426126  0.0254234 -0.0376483 -0.00459993  0.0295024 -0.0391873 -0.00437358  0.0278004 -0.0343714 -0.00544101  0.025443 -0.038233 -0.00383815  0.0239472 -0.0333996 -0.00477438  0.0277979 -0.0349824 -0.00453895  0.023959 -0.0340093 -0.00398412  0.0281527 -0.0467743 -0.00425033  0.0326561 -0.0482363 -0.00403866  0.0311107 -0.0430406 -0.00504147  0.0281835 -0.0473164 -0.00354409  0.0268248 -0.0421021 -0.004425  0.0311236 -0.043608 -0.00420609  0.0268515 -0.0426704 -0.00369141  0.0305873 -0.0566863 -0.00390778  0.0354759 -0.0580736 -0.00371236  0.0340885 -0.0525382 -0.00464609  0.0306234 -0.0571858 -0.00325799  0.0294069 -0.0516312 -0.00407788  0.0341064 -0.0530604 -0.00387394  0.0294412 -0.0521564 -0.00340027  0.0327346 -0.0673105 -0.00357811  0.0379709 -0.0686249 -0.00339824  0.0367376 -0.0627836 -0.0042621  0.0327727 -0.0677674 -0.00298217  0.0316969 -0.0619078 -0.0037412  0.0367616 -0.0632639 -0.00355414  0.0317342 -0.0623914 -0.00311804  0.0346038 -0.0785759 -0.00326326  0.0401537 -0.0798213 -0.00309783  0.0390755 -0.073707 -0.00389396  0.034641 -0.0789928 -0.0027183  0.0337038 -0.0728594 -0.00341883  0.0390993 -0.0741453 -0.00324658  0.0337412 -0.0733036 -0.00284868  0.0362054 -0.0904163 -0.0029625  0.0420399 -0.0915964 -0.00281236  0.0411069 -0.0852397 -0.00354305  0.0362428 -0.0907962 -0.00246865  0.0354382 -0.0844219 -0.00311106  0.041134 -0.0856403 -0.00295329  0.0354743 -0.0848254 -0.00259238  0.0375535 -0.102773 -0.00267737  0.043645 -0.103889 -0.00254086  0.0428536 -0.0973194 -0.00320852  0.0375907 -0.103115 -0.0022305  0.0369111 -0.0965285 -0.00281809  0.042876 -0.0976816 -0.00267422  0.0369474 -0.096894 -0.00234768  0.0386614 -0.115586 -0.00240597  0.0449814 -0.116639 -0.00228289  0.0443202 -0.109884 -0.00289081  0.0386972 -0.115892 -0.00200489  0.0381378 -0.109119 -0.00254014  0.0443449 -0.110211 -0.00241092  0.038173 -0.109449 -0.00211653  0.0395421 -0.128801 -0.0021493  0.0460656 -0.129797 -0.00203842  0.0455295 -0.122878 -0.00259002  0.0395775 -0.129075 -0.00179133  0.0391302 -0.12214 -0.00227605  0.0455537 -0.123171 -0.00215936  0.0391645 -0.122436 -0.00189629  0.0402126 -0.142366 -0.00190687  0.0469134 -0.143308 -0.00180814  0.0464932 -0.136251 -0.00230585  0.0402462 -0.14261 -0.00158882  0.039903 -0.135537 -0.00202748  0.0465178 -0.13651 -0.00192267  0.0399379 -0.135801 -0.0016886  0.0406852 -0.156236 -0.00167923  0.0475421 -0.157124 -0.00159237  0.0472295 -0.14995 -0.00203727  0.0407176 -0.156451 -0.00139886  0.040473 -0.149262 -0.00179119  0.0472531 -0.150181 -0.00169936  0.0405052 -0.149494 -0.00149298  0.0409737 -0.170367 -0.00146577  0.047966 -0.171202 -0.00138903  0.0477548 -0.163931 -0.00178477  0.0410063 -0.170554 -0.00122064  0.0408516 -0.163266 -0.00157075  0.0477786 -0.164133 -0.00148815  0.0408847 -0.163471 -0.00130919  0.0410941 -0.184714 -0.00126636  0.0482008 -0.185501 -0.00119933  0.0480824 -0.178151 -0.00154863  0.0411258 -0.184873 -0.00105539  0.0410545 -0.177509 -0.00136374  0.0481055 -0.178325 -0.00129244  0.0410879 -0.177687 -0.00113621  0.0410626 -0.199239 -0.00108083  0.0482619 -0.19998 -0.00102374  0.048229 -0.19257 -0.00132933  0.0410917 -0.199376 -0.000900954  0.0410976 -0.191951 -0.00117174  0.0482514 -0.19272 -0.00111029  0.0411279 -0.192104 -0.000976175  0.0408881 -0.213913 -0.00091131  0.0481653 -0.214607 -0.000862509  0.0482113 -0.207152 -0.00112641  0.0409162 -0.214024 -0.000758588  0.0409925 -0.206554 -0.000994399  0.0482314 -0.207278 -0.0009422  0.0410213 -0.206684 -0.000828922  0.0405874 -0.228696 -0.000754088  0.0479262 -0.229351 -0.000712305  0.048043 -0.221862 -0.000940189  0.0406141 -0.228787 -0.000628948  0.0407531 -0.221285 -0.000829905  0.0480638 -0.221966 -0.000786006  0.0407803 -0.221394 -0.000691861  0.0401738 -0.243561 -0.000611827  0.0475616 -0.244178 -0.000579536  0.0477393 -0.236669 -0.000770271  0.0402002 -0.243636 -0.000509024  0.0403936 -0.236113 -0.000681147  0.0477576 -0.236755 -0.000643045  0.040422 -0.236202 -0.000568479  0.0396616 -0.258484 -0.00048618  0.0470841 -0.259068 -0.000458211  0.0473175 -0.251548 -0.000617549  0.0396857 -0.258543 -0.000405222  0.0399294 -0.251012 -0.000548184  0.0473363 -0.251616 -0.000516534  0.0399544 -0.251083 -0.000456423  0.0390608 -0.273443 -0.000373006  0.0465062 -0.273993 -0.000352502  0.0467887 -0.266474 -0.000481978  0.0390849 -0.273486 -0.000311762  0.0393729 -0.265955 -0.000427783  0.0468056 -0.266527 -0.000404209  0.0393965 -0.266011 -0.000357598  0.0383887 -0.288413 -0.00027597  0.0458438 -0.288934 -0.000256836  0.0461686 -0.281423 -0.000361681  0.038408 -0.288444 -0.000231206  0.0387342 -0.280922 -0.00032258  0.0461836 -0.281462 -0.000303656  0.0387549 -0.280964 -0.000269264  0.0376537 -0.303382 -0.00019376  0.04511 -0.303876 -0.000182211  0.0454721 -0.296379 -0.000260442  0.0376709 -0.3034 -0.000161737  0.0380294 -0.295893 -0.000233307  0.0454855 -0.296405 -0.000219107  0.0380466 -0.295922 -0.00019452  0.0368652 -0.318328 -0.000126973  0.0443189 -0.318803 -0.000120312  0.0447059 -0.311323 -0.000176176  0.0368819 -0.318339 -0.00010702  0.0372648 -0.310852 -0.000158638  0.0447211 -0.311342 -0.000149071  0.037281 -0.310872 -0.000133604  0.0360408 -0.333245 -7.48634e-05  0.0434849 -0.333703 -7.03335e-05  0.0438941 -0.326246 -0.000108182  0.0360548 -0.333251 -6.40154e-05  0.0364566 -0.325786 -9.93311e-05  0.0439074 -0.326256 -9.2566e-05  0.036473 -0.325798 -8.42512e-05  0.0351882 -0.348125 -3.58075e-05  0.0426223 -0.348571 -3.53456e-05  0.043045 -0.341135 -5.91725e-05  0.0352023 -0.348125 -3.20971e-05  0.0356171 -0.340684 -5.49853e-05  0.0430555 -0.341143 -5.19156e-05  0.0356295 -0.340693 -4.68493e-05  0.0343208 -0.362961 -7.34627e-06  0.0417442 -0.363405 -1.03116e-05  0.0421751 -0.355989 -2.3514e-05  0.0343342 -0.362962 -7.92742e-06  0.0347559 -0.355543 -2.09212e-05  0.0421841 -0.355992 -2.07722e-05  0.0347686 -0.355548 -1.88649e-05  0.0334468 -0.377774 2.04146e-05  0.0408621 -0.378217 1.5378e-05  0.0412903 -0.370808 1.84774e-06  0.0334597 -0.377772 1.42753e-05  0.0338852 -0.370365 5.63264e-06  0.0413046 -0.370812 -2.38419e-07  0.0338979 -0.370369 3.93391e-06  -0.00399891 -0.00436655 0.0049395  -0.00189353 -0.00222871 0.00382493  0 0 0  -0.00388054 -0.00200804 0.00571857  0 0 0  -0.0023481 -0.00165521 0.00379774  -0.00111091 -0.00035236 0.00304178  0 0 0  -0.00134034 -0.0024175 0.00281014  -0.00304367 -0.00278616 0.00438039  -0.00139415 -0.00106388 0.0032952  0 0 0  -0.000715788 -0.000733942 0.00217731  -0.000894502 -0.00138689 0.00239408  -0.00909807 -0.00633383 0.00699532  -0.00748473 -0.00402372 0.00741655  -0.0080217 -0.0042669 0.00695255  -0.0060579 -0.00435126 0.0052533  -0.0048819 -0.0020566 0.00551855  -0.00673358 -0.00516751 0.00621718  -0.00752656 -0.00530421 0.00609764  -0.0061845 -0.00298725 0.00647085  -0.00424863 -0.00287361 0.00466302  -0.00543186 -0.00392302 0.00543156  -0.0136153 -0.00991866 0.00756702  -0.011593 -0.00676857 0.00849465  -0.0115555 -0.007847 0.00749286  -0.00946698 -0.00806183 0.00563073  -0.00802085 -0.00506552 0.00626416  -0.0113506 -0.00796991 0.00740068  -0.0114638 -0.00891701 0.00657918  -0.00975129 -0.00587783 0.00733197  -0.00778928 -0.00604887 0.0055147  -0.00950214 -0.00695075 0.0064328  -0.0180268 -0.0147137 0.00750825  -0.0158239 -0.0110373 0.00865489  -0.0151791 -0.0127761 0.00741524  -0.0127183 -0.0130254 0.00559326  -0.0110967 -0.00937875 0.00639894  -0.0158471 -0.0121607 0.00759192  -0.0152804 -0.013804 0.00653873  -0.0133735 -0.0101482 0.00749906  -0.0111059 -0.0103916 0.00565007  -0.0133916 -0.0112076 0.00660494  -0.0222511 -0.020681 0.00715806  -0.0199968 -0.0165278 0.00836494  -0.0187545 -0.0188905 0.00708733  -0.0158665 -0.0191424 0.00534315  -0.0141659 -0.0149679 0.0062138  -0.02016 -0.0175598 0.00735795  -0.018957 -0.0198499 0.00624493  -0.0169721 -0.0156872 0.00727309  -0.0143054 -0.0159455 0.00548711  -0.0171347 -0.0166889 0.00641228  -0.0262877 -0.0276833 0.00668876  -0.0240613 -0.0231168 0.007881  -0.0222462 -0.0260534 0.00663939  -0.0189087 -0.0263035 0.00500092  -0.0171957 -0.0216803 0.00587661  -0.0242941 -0.0240583 0.00693247  -0.0224939 -0.0269381 0.00584346  -0.0205133 -0.0223415 0.00687179  -0.0174009 -0.0225989 0.00518024  -0.0207439 -0.0232695 0.00605179  -0.0301251 -0.035619 0.00618364  -0.0279704 -0.0306832 0.0073226  -0.0256147 -0.0341503 0.00615028  -0.0218385 -0.0344036 0.00462785  -0.0201561 -0.029391 0.00547402  -0.0282313 -0.0315397 0.00643785  -0.0258791 -0.0349615 0.00540496  -0.023948 -0.0299856 0.00639708  -0.0203884 -0.0302412 0.00481705  -0.0242063 -0.0308378 0.00562617  -0.033762 -0.0444007 0.00567897  -0.0317 -0.0391299 0.00675119  -0.0288411 -0.0430925 0.00565766  -0.0246481 -0.0433503 0.00425357  -0.0230184 -0.0379938 0.00505473  -0.0319686 -0.039908 0.00593013  -0.0291059 -0.0438315 0.00496669  -0.0272473 -0.0385145 0.005904  -0.0232581 -0.0387749 0.00444053  -0.0275127 -0.0392947 0.00518554  -0.0372001 -0.0539545 0.00519255  -0.0352426 -0.0483755 0.00619144  -0.0319134 -0.0528004 0.00517977  -0.0273318 -0.0530687 0.00388989  -0.0257676 -0.0474022 0.00463849  -0.0355062 -0.0490853 0.00543347  -0.0321712 -0.0534724 0.00454348  -0.0303978 -0.0478477 0.00541667  -0.0260055 -0.0481169 0.0040704  -0.0306584 -0.0485592 0.00475276  -0.0404428 -0.064213 0.0047311  -0.0385897 -0.0583549 0.00565393  -0.03483 -0.0632052 0.00472119  -0.0298916 -0.0634884 0.00354336  -0.0283966 -0.0575435 0.00423774  -0.0388454 -0.0589982 0.00495924  -0.0350761 -0.0638158 0.00413862  -0.0333904 -0.0579127 0.00494861  -0.0286266 -0.0581942 0.00371484  -0.0336432 -0.0585598 0.00433828  -0.0434982 -0.0751131 0.00429243  -0.0417508 -0.0690033 0.00514328  -0.0375917 -0.0742463 0.00428789  -0.0323263 -0.0745445 0.0032158  -0.0309048 -0.0683491 0.00385547  -0.0419942 -0.0695855 0.00450926  -0.0378263 -0.0747982 0.00375606  -0.0362289 -0.0686445 0.00450248  -0.0311241 -0.0689394 0.00337821  -0.0364704 -0.0692301 0.00394577  -0.0463706 -0.0865979 0.00388007  -0.0447267 -0.08026 0.00465941  -0.0402045 -0.085866 0.00387646  -0.0346422 -0.086179 0.00290672  -0.0332912 -0.0797586 0.00349271  -0.0449567 -0.0807853 0.00408444  -0.0404253 -0.086362 0.00339432  -0.0389152 -0.0799809 0.00407974  -0.0334992 -0.0802924 0.00305821  -0.0391449 -0.0805108 0.00357321  -0.0490726 -0.0986103 0.00348847  -0.0475258 -0.0920685 0.00420263  -0.0426719 -0.0980039 0.00348753  -0.0368419 -0.0983336 0.00261383  -0.0355593 -0.0917129 0.00315049  -0.0477422 -0.0925414 0.00368239  -0.0428799 -0.0984496 0.0030538  -0.0414548 -0.0918674 0.00367978  -0.0357568 -0.0921938 0.00275816  -0.0416703 -0.0923426 0.00322248  -0.0516053 -0.111096 0.00312248  -0.0501556 -0.104373 0.00377122  -0.0449982 -0.11061 0.00312102  -0.0389276 -0.110955 0.00233689  -0.0377139 -0.104159 0.00282664  -0.0503589 -0.104796 0.00330406  -0.045194 -0.111006 0.00273214  -0.043851 -0.104246 0.00330245  -0.0378987 -0.104588 0.00247474  -0.0440546 -0.104671 0.00289077  -0.0539776 -0.124008 0.0027761  -0.0526203 -0.117127 0.00336379  -0.0471917 -0.123633 0.002775  -0.0409069 -0.123991 0.00207908  -0.0397567 -0.117041 0.00252242  -0.0528119 -0.117501 0.0029463  -0.047375 -0.123984 0.00242898  -0.0461116 -0.117067 0.00294585  -0.0399309 -0.117423 0.00220664  -0.0462998 -0.117445 0.00257862  -0.0561991 -0.137294 0.00245094  -0.0549289 -0.130276 0.00298039  -0.0492576 -0.137023 0.00245131  -0.0427827 -0.137394 0.0018346  -0.0416963 -0.130311 0.00223626  -0.0551077 -0.130606 0.00261112  -0.049427 -0.13733 0.00214593  -0.0482403 -0.13028 0.00261193  -0.0418572 -0.130649 0.00195616  -0.0484163 -0.130612 0.0022855  -0.0582759 -0.150908 0.00214598  -0.0570915 -0.143773 0.00262235  -0.0512021 -0.150735 0.00214874  -0.0445573 -0.151117 0.00160722  -0.0435324 -0.14392 0.00196655  -0.0572553 -0.144062 0.00229628  -0.0513577 -0.151002 0.00188144  -0.0502441 -0.143835 0.00229886  -0.0436821 -0.144217 0.00172062  -0.0504072 -0.144127 0.00201097  -0.060214 -0.164808 0.00186318  -0.0591099 -0.157575 0.00228632  -0.0530262 -0.164724 0.00186636  -0.0462382 -0.165115 0.00139678  -0.0452726 -0.157826 0.00171782  -0.0592625 -0.157824 0.00200419  -0.0531702 -0.164952 0.0016322  -0.0521276 -0.157691 0.00200463  -0.0454102 -0.158083 0.00150074  -0.0522795 -0.157944 0.00175405  -0.0620234 -0.178953 0.00160058  -0.0609961 -0.171638 0.00197546  -0.0547435 -0.178949 0.00160215  -0.047828 -0.179349 0.00119956  -0.0469177 -0.171982 0.00148251  -0.0611343 -0.17185 0.00172989  -0.0548744 -0.179143 0.00140341  -0.0538988 -0.171802 0.00173259  -0.0470436 -0.172205 0.00129591  -0.0540366 -0.17202 0.00151546  -0.0637105 -0.193301 0.00135463  -0.0627525 -0.185923 0.00168429  -0.056354 -0.193374 0.00136013  -0.0493309 -0.193781 0.00101827  -0.0484757 -0.186354 0.00126582  -0.0628815 -0.186103 0.0014765  -0.0564737 -0.193538 0.00118911  -0.0555604 -0.186134 0.00147948  -0.0485899 -0.186542 0.00110701  -0.0556872 -0.186316 0.0012936  -0.0652792 -0.20782 0.00113319  -0.0643928 -0.200393 0.00141887  -0.0578647 -0.207961 0.00113736  -0.0507517 -0.208373 0.000852257  -0.0499477 -0.200902 0.00106827  -0.0645082 -0.200541 0.00124295  -0.0579731 -0.208094 0.00099504  -0.0571208 -0.200643 0.00124682  -0.050051 -0.201058 0.000933126  -0.0572343 -0.200796 0.00109035  -0.0667403 -0.222476 0.000929117  -0.0659189 -0.215011 0.00117515  -0.0592835 -0.222677 0.000934124  -0.0520961 -0.223094 0.000699729  -0.0513401 -0.215589 0.000886194  -0.0660224 -0.215133 0.00103034  -0.0593791 -0.222783 0.000816971  -0.0585847 -0.215299 0.00103521  -0.0514343 -0.215718 0.000773922  -0.0586879 -0.215424 0.000904247  -0.0681031 -0.237239 0.000748262  -0.0673425 -0.229749 0.000952475  -0.0606151 -0.237492 0.000751622  -0.0533655 -0.237914 0.000562787  -0.0526567 -0.230388 0.000720523  -0.0674329 -0.229846 0.000836432  -0.0606992 -0.237575 0.000657454  -0.0599585 -0.230068 0.000841729  -0.0527401 -0.230491 0.000629738  -0.0600498 -0.230168 0.000735655  -0.0693705 -0.252079 0.00058499  -0.0686681 -0.244576 0.000756629  -0.061868 -0.252379 0.000589386  -0.0545697 -0.252801 0.00044173  -0.0539024 -0.245267 0.000574663  -0.0687473 -0.24465 0.000664353  -0.0619404 -0.252441 0.000515535  -0.0612504 -0.244922 0.000669144  -0.0539763 -0.245348 0.000501335  -0.0613306 -0.245 0.000584707  -0.0705578 -0.266972 0.00044024  -0.0699027 -0.259465 0.000582635  -0.0630462 -0.267311 0.000446603  -0.0557129 -0.267735 0.000333771  -0.0550876 -0.260202 0.000443727  -0.0699737 -0.25952 0.000511765  -0.0631084 -0.267355 0.000390887  -0.0624652 -0.259835 0.000516623  -0.0551498 -0.260263 0.000386491  -0.0625339 -0.259893 0.000451356  -0.0716679 -0.281895 0.000317305  -0.071063 -0.274395 0.000428848  -0.0641592 -0.282267 0.000324994  -0.0568001 -0.282693 0.000243381  -0.0562131 -0.275168 0.00032983  -0.0711234 -0.27443 0.000376925  -0.0642121 -0.282297 0.00028421  -0.0636101 -0.274782 0.000383526  -0.0562627 -0.275212 0.000287771  -0.0636666 -0.274823 0.000334263  -0.0727141 -0.29683 0.000214592  -0.0721533 -0.289342 0.000298865  -0.0652153 -0.297232 0.000222355  -0.0578375 -0.297655 0.000167921  -0.0572836 -0.290144 0.000234619  -0.0721996 -0.289362 0.000264704  -0.0652561 -0.297245 0.000195011  -0.0646927 -0.289745 0.000270627  -0.0573251 -0.290173 0.00020352  -0.0647411 -0.28977 0.000237033  -0.0736988 -0.311758 0.000133187  -0.0731752 -0.304284 0.000193201  -0.0662186 -0.312177 0.000138432  -0.0588303 -0.312604 0.000104114  -0.0583067 -0.305113 0.000153467  -0.0732143 -0.304296 0.000172853  -0.0662513 -0.312184 0.000121325  -0.0657225 -0.304702 0.000178792  -0.0583384 -0.305132 0.000134394  -0.0657599 -0.304716 0.000156105  -0.0746424 -0.326666 7.15107e-05  -0.0741506 -0.319213 0.000110693  -0.067179 -0.327102 7.45058e-05  -0.0597866 -0.327527 5.8338e-05  -0.0592852 -0.32006 9.30056e-05  -0.0741761 -0.319215 0.000100926  -0.067204 -0.327098 6.77109e-05  -0.0667031 -0.31964 0.000105627  -0.0593133 -0.320069 8.11815e-05  -0.0667315 -0.319645 9.32664e-05  -0.0755463 -0.341544 2.76119e-05  -0.0750754 -0.334112 5.01573e-05  -0.0681067 -0.341988 3.12477e-05  -0.0607121 -0.342413 2.37375e-05  -0.0602329 -0.334971 4.54709e-05  -0.0750988 -0.334108 4.61191e-05  -0.0681229 -0.34198 2.83718e-05  -0.0676475 -0.334543 5.15729e-05  -0.0602543 -0.334974 3.99053e-05  -0.0676668 -0.334545 4.57615e-05  -0.0764306 -0.356384 1.66893e-06  -0.0759728 -0.348972 1.16602e-05  -0.0690074 -0.356827 5.21541e-08  -0.0616143 -0.357257 -1.92225e-06  -0.0611484 -0.34984 1.2435e-05  -0.0759902 -0.348968 1.49459e-05  -0.0690193 -0.356822 1.2964e-06  -0.0685594 -0.349408 1.62572e-05  -0.0611653 -0.349841 1.07735e-05  -0.0685744 -0.349406 1.432e-05  -0.0773087 -0.371199 -1.93566e-05  -0.0768552 -0.363793 -9.25362e-06  -0.0698941 -0.37164 -2.76342e-05  -0.0625029 -0.372067 -2.74479e-05  -0.0620453 -0.364665 -1.7345e-05  -0.0768712 -0.363793 -7.21216e-06  -0.0699043 -0.371634 -2.34991e-05  -0.0694504 -0.364229 -1.1988e-05  -0.0620601 -0.364665 -1.38432e-05  -0.0694625 -0.364231 -1.07288e-05  -0.00236288 -0.000304535 0.00414526  0 0 0  -0.00136908 -0.000419781 0.00261214  -0.000666566 0.000394583 0.00206767  0 0 0  -0.00182132 -0.000914693 0.00320594  -0.000865377 9.06885e-05 0.00251263  0 0 0  -0.000417732 -1.13696e-05 0.00149991  -0.000544719 -0.000304952 0.00181955  -0.00513026 -0.00267552 0.00501114  -0.00361034 -0.00290118 0.00358191  -0.00289597 -0.000712916 0.00375348  -0.00476968 -0.00353359 0.00441998  -0.00383058 -0.00128655 0.00462058  -0.00248784 -0.00146468 0.00318632  -0.00331257 -0.00205664 0.00391513  -0.00767154 -0.0063803 0.00532844  -0.00585341 -0.00676104 0.00379053  -0.00488612 -0.00376104 0.00420231  -0.0075959 -0.00734657 0.00471152  -0.0063889 -0.00435227 0.00523431  -0.00473511 -0.00467025 0.00373009  -0.00619709 -0.00528383 0.00462444  -0.010237 -0.0114043 0.00526719  -0.00803328 -0.011854 0.0037358  -0.00694129 -0.00819191 0.00426061  -0.0103107 -0.0123759 0.00466403  -0.00895506 -0.00872809 0.00532753  -0.00695264 -0.00915605 0.00378552  -0.00896484 -0.0097091 0.00471756  -0.0127851 -0.017624 0.00503635  -0.0101475 -0.0180947 0.00355981  -0.00899237 -0.0138857 0.00412659  -0.0129402 -0.0185576 0.00445077  -0.0115131 -0.0143677 0.00516782  -0.00909644 -0.0148365 0.00365868  -0.0116354 -0.0153287 0.004572  -0.0152993 -0.0249061 0.00472447  -0.0122113 -0.0253753 0.00332946  -0.0110353 -0.0207046 0.00390263  -0.0154927 -0.0257827 0.00416513  -0.0140477 -0.0211347 0.00488707  -0.0111864 -0.0216104 0.00344914  -0.014226 -0.0220457 0.00431353  -0.0177565 -0.0331358 0.00438135  -0.0142253 -0.0335964 0.00307983  -0.013051 -0.0285262 0.00363685  -0.0179661 -0.0339474 0.00385348  -0.0165362 -0.0289044 0.00455514  -0.0132244 -0.0293736 0.00320575  -0.0167397 -0.0297523 0.00401123  -0.0201402 -0.0422181 0.00403252  -0.016187 -0.0426684 0.00282827  -0.0150296 -0.0372467 0.00335935  -0.0203519 -0.0429618 0.00354165  -0.018958 -0.0375703 0.00420686  -0.0152131 -0.0380301 0.00295387  -0.0191701 -0.0383524 0.00369787  -0.0224419 -0.052068 0.00369272  -0.0180917 -0.0525116 0.0025859  -0.0169652 -0.0467784 0.0030829  -0.0226494 -0.052748 0.00323869  -0.0213016 -0.0470443 0.00386141  -0.0171466 -0.0474976 0.00270693  -0.0215116 -0.047762 0.00338882  -0.0246559 -0.0626154 0.00336584  -0.0199386 -0.0630567 0.00235395  -0.0188468 -0.0570423 0.00281513  -0.0248548 -0.0632337 0.00294974  -0.0235605 -0.0572521 0.00352794  -0.0190226 -0.0577002 0.00246878  -0.0237634 -0.0579059 0.00309335  -0.0267793 -0.0737948 0.00305537  -0.021726 -0.0742353 0.00213474  -0.0206712 -0.0679718 0.00255939  -0.0269688 -0.0743559 0.00267661  -0.0257282 -0.0681238 0.00320935  -0.0208393 -0.0685698 0.00224334  -0.025923 -0.0687183 0.00281158  -0.0288142 -0.0855474 0.00276179  -0.0234528 -0.0859881 0.00192708  -0.0224363 -0.0795018 0.00231794  -0.0289931 -0.0860536 0.00241715  -0.0278065 -0.0795977 0.00290729  -0.0225961 -0.0800425 0.00202981  -0.0279917 -0.0801343 0.00254574  -0.0307608 -0.0978133 0.00248443  -0.0251219 -0.0982564 0.0017329  -0.024145 -0.0915723 0.00208852  -0.0309298 -0.0982679 0.00217418  -0.029798 -0.0916132 0.00262148  -0.0242937 -0.09206 0.0018291  -0.0299726 -0.0920982 0.00229494  -0.0326248 -0.110542 0.0022233  -0.0267335 -0.110985 0.00154819  -0.0257918 -0.104128 0.00187365  -0.0327824 -0.110946 0.00194536  -0.0317016 -0.104119 0.00235233  -0.0259343 -0.104566 0.00163938  -0.0318669 -0.104551 0.00205818  -0.034405 -0.123676 0.00197762  -0.0282894 -0.124122 0.00137611  -0.0273877 -0.117114 0.0016702  -0.0345532 -0.124036 0.00172959  -0.0335234 -0.117056 0.00209764  -0.0275185 -0.117504 0.0014611  -0.0336775 -0.117442 0.00183569  -0.0361066 -0.137173 0.00174601  -0.0297897 -0.137619 0.00121488  -0.0289239 -0.130481 0.00148012  -0.0362431 -0.137489 0.00152759  -0.0352654 -0.130376 0.00186072  -0.0290451 -0.130828 0.00129513  -0.035408 -0.130719 0.00162698  -0.0377305 -0.150983 0.00153042  -0.0312362 -0.151429 0.00106207  -0.0304062 -0.144183 0.00130144  -0.0378571 -0.151257 0.00133802  -0.0369291 -0.144035 0.00163662  -0.0305204 -0.144486 0.001138  -0.0370586 -0.144336 0.001431  -0.039283 -0.165061 0.00132876  -0.0326304 -0.165508 0.000922039  -0.0318348 -0.158171 0.00113536  -0.0393975 -0.1653 0.00116046  -0.0385149 -0.157984 0.00142848  -0.0319395 -0.158437 0.000991628  -0.0386362 -0.158246 0.00124808  -0.0407593 -0.179368 0.00114161  -0.0339723 -0.179815 0.000792727  -0.0332124 -0.172406 0.000979871  -0.0408666 -0.179571 0.00099656  -0.0400305 -0.172183 0.00123302  -0.033308 -0.172634 0.000855565  -0.0401402 -0.172408 0.00107826  -0.0421717 -0.193865 0.000968404  -0.0352657 -0.194312 0.000670284  -0.0345395 -0.186845 0.000835843  -0.0422661 -0.194039 0.000846088  -0.0414724 -0.186591 0.00105529  -0.0346258 -0.187041 0.000730887  -0.0415742 -0.186782 0.000921249  -0.0435176 -0.208522 0.000811622  -0.0365086 -0.208965 0.000562027  -0.035816 -0.201455 0.000705391  -0.0436025 -0.208663 0.000707254  -0.0428512 -0.20117 0.000888363  -0.0358927 -0.20162 0.00061591  -0.0429425 -0.201331 0.000775829  -0.0448003 -0.223296 0.000665992  -0.0377083 -0.223738 0.000462309  -0.0370476 -0.216201 0.000584759  -0.0448756 -0.22341 0.000581846  -0.0441658 -0.215888 0.000737898  -0.0371146 -0.216337 0.000509366  -0.0442452 -0.216021 0.000643432  -0.046025 -0.238162 0.000538334  -0.0388622 -0.238601 0.000371352  -0.0382285 -0.231048 0.000474654  -0.0460908 -0.238254 0.000468984  -0.0454187 -0.230713 0.000601269  -0.0382915 -0.231159 0.000414968  -0.04549 -0.230822 0.000523999  -0.0471945 -0.253093 0.00042253  -0.0399735 -0.253529 0.000290975  -0.0393672 -0.245971 0.000379525  -0.0472517 -0.253163 0.000367209  -0.0466146 -0.245615 0.000478789  -0.0394228 -0.246059 0.000330701  -0.0466778 -0.2457 0.0004168  -0.0483134 -0.268066 0.000321828  -0.0410464 -0.268499 0.000220478  -0.0404675 -0.260942 0.00029289  -0.0483618 -0.268116 0.000279352  -0.0477579 -0.260569 0.000370339  -0.0405152 -0.26101 0.000254557  -0.047812 -0.260634 0.000323057  -0.0493872 -0.283054 0.000235103  -0.0420828 -0.283485 0.000160664  -0.041532 -0.275939 0.000219114  -0.0494261 -0.283087 0.000204563  -0.0488539 -0.275551 0.000277534  -0.0415685 -0.275989 0.000189617  -0.0488992 -0.275599 0.000240833  -0.0504174 -0.29804 0.000161171  -0.0430861 -0.298469 0.000111118  -0.0425589 -0.290942 0.000155762  -0.0504489 -0.298062 0.000140592  -0.049906 -0.290543 0.000197396  -0.0425882 -0.290977 0.00013499  -0.049943 -0.290575 0.000170991  -0.0514092 -0.313011 0.000102684  -0.0440581 -0.313437 7.0259e-05  -0.0435514 -0.305932 0.000102706  -0.051435 -0.31302 8.88854e-05  -0.0509181 -0.305521 0.000131518  -0.043577 -0.305955 8.9407e-05  -0.0509467 -0.305543 0.000113681  -0.0523686 -0.327948 5.78314e-05  -0.0450051 -0.328375 3.83407e-05  -0.0445156 -0.320895 6.1743e-05  -0.052388 -0.327951 4.96209e-05  -0.0518932 -0.320477 7.90879e-05  -0.0445347 -0.320909 5.39869e-05  -0.0519145 -0.32049 6.89328e-05  -0.0532987 -0.342844 2.38717e-05  -0.0459275 -0.343272 1.53482e-05  -0.0454547 -0.33582 3.1285e-05  -0.0533142 -0.342844 2.05934e-05  -0.0528371 -0.335396 4.06802e-05  -0.0454681 -0.335828 2.6077e-05  -0.0528536 -0.335401 3.4824e-05  -0.054204 -0.357697 -6.07222e-06  -0.0468285 -0.358123 -7.04825e-06  -0.046366 -0.350701 5.96792e-06  -0.0542169 -0.357691 -4.03821e-06  -0.0537527 -0.350271 9.91672e-06  -0.0463796 -0.350703 4.70877e-06  -0.0537686 -0.350273 8.31485e-06  -0.0550919 -0.372498 -3.56585e-05  -0.0477178 -0.372921 -2.73436e-05  -0.0472605 -0.365529 -1.94684e-05  -0.0551064 -0.372494 -3.0145e-05  -0.0546472 -0.365099 -1.83731e-05  -0.0472727 -0.365527 -1.61082e-05  -0.0546622 -0.365096 -1.57356e-05  -0.00128432 0.000494599 0.0025031  0 0 0  -0.00061205 9.89437e-05 0.00130476  -0.0003068 0.00070411 0.00103451  0 0 0  -0.00097201 -0.000100017 0.00195672  -0.000479233 0.000588357 0.00153832  0 0 0  -0.000186916 0.000289589 0.000755891  -0.000293083 0.000177056 0.00112322  -0.00278969 -0.00161493 0.0030356  -0.00163041 -0.00214842 0.00180383  -0.00130902 -4.4018e-05 0.00187213  -0.00258461 -0.00244382 0.00269568  -0.00207196 -0.00030598 0.00280348  -0.00111656 -0.000793606 0.00160116  -0.00177364 -0.00105488 0.00239228  -0.00426516 -0.00538296 0.00320572  -0.00269532 -0.0060232 0.00190677  -0.00221804 -0.00301197 0.00210179  -0.00423217 -0.00631604 0.00285144  -0.00350958 -0.00330997 0.00315245  -0.00215688 -0.00391111 0.0018772  -0.00340569 -0.00421199 0.00280635  -0.00580359 -0.0105132 0.00315303  -0.00377616 -0.0112086 0.00187096  -0.00321105 -0.00751147 0.00212467  -0.00586355 -0.0114641 0.00280558  -0.00503337 -0.00778303 0.00319485  -0.00323597 -0.00846288 0.00189932  -0.00505307 -0.00873858 0.00284491  -0.00734901 -0.0168322 0.00300996  -0.0048551 -0.0175412 0.00177711  -0.00424105 -0.0132957 0.00205274  -0.00746077 -0.0177549 0.00266939  -0.00657481 -0.0135269 0.00309046  -0.00431514 -0.0142379 0.00182942  -0.00666571 -0.0144722 0.00274548  -0.00889772 -0.0242122 0.00282261  -0.00593907 -0.0249096 0.00165825  -0.00529319 -0.0201994 0.00193861  -0.00903547 -0.025084 0.00249398  -0.0081234 -0.020392 0.00292049  -0.00539589 -0.0211009 0.00172098  -0.00825047 -0.0212952 0.00258523  -0.0104415 -0.0325421 0.00261562  -0.00703317 -0.033217 0.00153129  -0.00636858 -0.0281042 0.00180471  -0.0105904 -0.033352 0.00230469  -0.00966966 -0.0282585 0.0027203  -0.00648451 -0.0289506 0.0015953  -0.00981569 -0.0291055 0.00240055  -0.0119726 -0.0417246 0.00240592  -0.0081377 -0.0423777 0.00140308  -0.00746328 -0.0369093 0.0016641  -0.0121233 -0.0424727 0.00211635  -0.0112092 -0.0370262 0.00251143  -0.00758469 -0.0376948 0.00146696  -0.0113596 -0.0378104 0.00221066  -0.013485 -0.0516812 0.00220147  -0.0092504 -0.0523116 0.00127922  -0.00857258 -0.0465279 0.00152405  -0.0136334 -0.0523665 0.00193319  -0.0127316 -0.0466057 0.00230344  -0.00869381 -0.047251 0.00134164  -0.0128816 -0.0473267 0.00202386  -0.0149738 -0.0623347 0.00200492  -0.010368 -0.062946 0.00116162  -0.00968969 -0.0568819 0.00138965  -0.0151178 -0.06296 0.00175782  -0.0142318 -0.0569184 0.00210229  -0.00980806 -0.0575444 0.00122088  -0.0143791 -0.0575782 0.00184485  -0.0164362 -0.0736204 0.00181729  -0.0114889 -0.0742154 0.00105086  -0.0108148 -0.0679005 0.00125945  -0.0165728 -0.0741885 0.00159219  -0.015708 -0.0678963 0.0019101  -0.0109283 -0.0685043 0.00110526  -0.0158494 -0.0684972 0.00167514  -0.0178699 -0.0854759 0.0016406  -0.0126115 -0.0860556 0.000945985  -0.0119421 -0.079519 0.0011377  -0.0179991 -0.0859885 0.0014381  -0.0171559 -0.0794747 0.00172835  -0.0120502 -0.0800668 0.000997096  -0.01729 -0.0800191 0.00151429  -0.0192742 -0.0978412 0.00147444  -0.013732 -0.0984083 0.000846341  -0.0130706 -0.0916758 0.00102246  -0.0193958 -0.0983014 0.00129034  -0.0185747 -0.0915913 0.00155694  -0.0131713 -0.0921702 0.000896052  -0.0187014 -0.0920829 0.0013627  -0.0206487 -0.110661 0.0013174  -0.0148497 -0.111217 0.000755161  -0.0141966 -0.104313 0.000914536  -0.0207628 -0.111074 0.00115235  -0.0199655 -0.104192 0.00139471  -0.0142912 -0.104758 0.00080137  -0.0200831 -0.104633 0.00122106  -0.0219934 -0.123886 0.00116941  -0.015964 -0.124431 0.000668198  -0.0153182 -0.117379 0.000812717  -0.0220993 -0.124252 0.00102292  -0.0213248 -0.11722 0.00124227  -0.0154073 -0.117776 0.000710785  -0.0214349 -0.117615 0.00108728  -0.023306 -0.137464 0.00103147  -0.0170703 -0.138 0.000588253  -0.0164376 -0.130821 0.000717454  -0.023405 -0.137788 0.000902429  -0.0226539 -0.130628 0.00110061  -0.0165181 -0.131173 0.000628129  -0.0227555 -0.130978 0.000961915  -0.0245888 -0.15135 0.000904351  -0.0181701 -0.151875 0.000513062  -0.0175462 -0.144591 0.000629663  -0.0246789 -0.151635 0.000790104  -0.0239511 -0.144367 0.000966154  -0.017622 -0.144901 0.000550255  -0.0240448 -0.144674 0.000844941  -0.0258412 -0.165501 0.000783354  -0.0192604 -0.166015 0.000443697  -0.0186458 -0.158643 0.000546858  -0.0259225 -0.165746 0.000683829  -0.0252168 -0.15839 0.00084281  -0.0187166 -0.158914 0.000478476  -0.0253048 -0.158658 0.000735834  -0.0270607 -0.179872 0.000672363  -0.0203373 -0.180378 0.000378788  -0.019738 -0.172935 0.000470825  -0.0271351 -0.180083 0.000586689  -0.0264556 -0.172655 0.000726812  -0.0197997 -0.17317 0.000410289  -0.0265329 -0.172887 0.000635281  -0.0282481 -0.194431 0.000569612  -0.0214019 -0.194925 0.000319183  -0.0208168 -0.187428 0.000399709  -0.0283144 -0.194607 0.000497326  -0.027658 -0.187123 0.000618987  -0.0208714 -0.187629 0.000349477  -0.0277276 -0.187322 0.000540689  -0.0294027 -0.209135 0.000474647  -0.0224519 -0.209622 0.000266165  -0.0218811 -0.202086 0.000334516  -0.0294633 -0.209283 0.000414625  -0.0288289 -0.201759 0.000522353  -0.0219285 -0.202256 0.000292912  -0.0288932 -0.201927 0.000455201  -0.0305302 -0.223958 0.000389323  -0.0234871 -0.224434 0.000218585  -0.0229285 -0.216871 0.000276707  -0.0305808 -0.224078 0.000340149  -0.0299718 -0.216526 0.00043083  -0.0229714 -0.217014 0.000240415  -0.0300252 -0.216667 0.000375777  -0.0316243 -0.238866 0.00031589  -0.024507 -0.239332 0.000173181  -0.0239573 -0.231758 0.000223428  -0.0316701 -0.23896 0.000274271  -0.0310807 -0.231394 0.000352383  -0.0239999 -0.231873 0.000194371  -0.0311286 -0.231508 0.000306502  -0.0326898 -0.25383 0.000245735  -0.0255086 -0.254292 0.000133231  -0.0249784 -0.246712 0.000177428  -0.0327289 -0.253905 0.00021328  -0.0321617 -0.246334 0.000279695  -0.0250092 -0.246805 0.000154614  -0.0322027 -0.246426 0.000243664  -0.0337257 -0.268832 0.000185557  -0.0264945 -0.269285 0.000101969  -0.025974 -0.261711 0.000134602  -0.0337608 -0.268887 0.000162065  -0.0332096 -0.261321 0.000215888  -0.0260034 -0.261782 0.000117719  -0.0332468 -0.261392 0.000187784  -0.034739 -0.283846 0.000136524  -0.0274637 -0.284291 7.2673e-05  -0.026958 -0.276732 0.00010033  -0.0347645 -0.283885 0.000118107  -0.034235 -0.276331 0.000162743  -0.0269814 -0.276786 8.67844e-05  -0.0342658 -0.276384 0.00013952  -0.0357211 -0.298852 9.2335e-05  -0.0284176 -0.299293 4.87864e-05  -0.027926 -0.291754 6.95735e-05  -0.0357444 -0.29888 8.15392e-05  -0.035233 -0.291344 0.000113428  -0.0279436 -0.291792 5.98133e-05  -0.0352571 -0.291382 9.80496e-05  -0.0366836 -0.313839 5.98207e-05  -0.0293539 -0.314276 3.10391e-05  -0.0288727 -0.306759 4.58285e-05  -0.0367 -0.313854 5.12451e-05  -0.0362055 -0.306343 7.67335e-05  -0.0288887 -0.306787 3.97414e-05  -0.0362236 -0.306369 6.62208e-05  -0.0376225 -0.328791 3.22163e-05  -0.0302751 -0.329225 1.57654e-05  -0.0298045 -0.321737 2.63453e-05  -0.0376353 -0.328799 2.81185e-05  -0.0371552 -0.321315 4.54634e-05  -0.0298162 -0.321754 2.22474e-05  -0.0371702 -0.32133 3.85642e-05  -0.0385408 -0.3437 1.1161e-05  -0.0311825 -0.34413 3.66569e-06  -0.0307231 -0.336674 1.169e-05  -0.0385504 -0.343701 9.0152e-06  -0.0380828 -0.336247 2.1629e-05  -0.0307319 -0.336682 1.00434e-05  -0.0380955 -0.336254 1.8239e-05  -0.0394394 -0.358559 -9.10461e-06  -0.0320761 -0.358986 -5.97537e-06  -0.031625 -0.351563 -6.70552e-07  -0.0394492 -0.358553 -7.22706e-06  -0.0389926 -0.35113 3.26335e-06  -0.0316312 -0.351564 -1.10269e-06  -0.0390022 -0.351133 2.14577e-06  -0.0403249 -0.373353 -3.15979e-05  -0.0329607 -0.373769 -1.78814e-05  -0.0325117 -0.36639 -1.48565e-05  -0.0403349 -0.373345 -2.50787e-05  -0.039881 -0.36596 -1.76877e-05  -0.032521 -0.366387 -1.16229e-05  -0.0398927 -0.365957 -1.49459e-05  -0.000368953 0.000787199 0.000798956  0 0 0  5.54621e-05 0.000198901 -3.83258e-05  2.01464e-05 0.000757992 -3.25814e-05  0 0 0  -0.000272632 0.000193238 0.000632733  -0.000141356 0.000757217 0.000496708  0 0 0  1.62497e-05 0.000345111 -2.18302e-05  -8.25636e-05 0.000342697 0.000364795  -0.000785217 -0.00117731 0.000986777  0.000147521 -0.00199649 -2.81483e-05  0.000115514 8.86917e-05 -4.68194e-05  -0.000729844 -0.00200295 0.000886574  -0.000586495 8.35657e-05 0.000908196  0.000101775 -0.000657618 -3.15458e-05  -0.000498369 -0.000665247 0.000783175  -0.00121316 -0.00495017 0.00105017  0.000220597 -0.00588417 -1.34259e-05  0.000211388 -0.00286487 -3.44813e-05  -0.00122237 -0.00587866 0.000945508  -0.00098899 -0.00286415 0.00103065  0.000188947 -0.0037607 -1.85072e-05  -0.00097087 -0.00376236 0.000928372  -0.001701 -0.0101467 0.00103444  0.000248373 -0.0111143 -6.02007e-06  0.000278503 -0.00739884 -2.36109e-05  -0.00174871 -0.0110913 0.000930637  -0.00145179 -0.00738135 0.00104861  0.000241429 -0.00834525 -8.46386e-06  -0.00148225 -0.00833154 0.00094448  -0.00223356 -0.0165376 0.000987485  0.000216365 -0.017498 -7.7635e-06  0.000288069 -0.0132314 -1.97589e-05  -0.0023042 -0.0174552 0.000884473  -0.00196105 -0.0131963 0.00101513  0.000240624 -0.0141691 -5.55813e-06  -0.00202215 -0.0141359 0.000910997  -0.00281316 -0.0239832 0.000923336  0.000115871 -0.0249167 -9.77516e-06  0.000228763 -0.0201837 -2.00868e-05  -0.00289667 -0.0248534 0.000823185  -0.00251764 -0.0201295 0.00095734  0.00017488 -0.0210829 -7.21216e-06  -0.00259531 -0.0210302 0.000855401  -0.00344127 -0.0323807 0.000852138  -5.6088e-05 -0.0332758 -1.55419e-05  9.81092e-05 -0.0281373 -2.32831e-05  -0.00353032 -0.0331919 0.000756443  -0.00312066 -0.0280634 0.000889182  3.89814e-05 -0.0289831 -1.24276e-05  -0.00320816 -0.0289094 0.000790581  -0.00411415 -0.0416339 0.000779822  -0.000300944 -0.0424915 -2.15024e-05  -0.000108242 -0.0369936 -2.88412e-05  -0.00420463 -0.0423831 0.000689611  -0.00377214 -0.036898 0.000816166  -0.000169575 -0.0377806 -1.89096e-05  -0.00386161 -0.0376844 0.000723422  -0.00482929 -0.0516593 0.000709049  -0.000615597 -0.0524817 -2.70605e-05  -0.000389218 -0.0466672 -3.38629e-05  -0.00491858 -0.0523502 0.000625506  -0.0044657 -0.0465484 0.000743821  -0.000450134 -0.0473928 -2.41548e-05  -0.00455594 -0.0472728 0.000657484  -0.00558281 -0.0623886 0.000640735  -0.000998259 -0.0631752 -3.2708e-05  -0.000739455 -0.0570783 -3.80576e-05  -0.00566888 -0.0630175 0.000564292  -0.0052011 -0.056935 0.000674076  -0.000798106 -0.0577444 -3.02941e-05  -0.00528944 -0.0575992 0.000594661  -0.0063715 -0.0737468 0.000576027  -0.00144613 -0.0745036 -3.66122e-05  -0.00115764 -0.0681552 -4.30122e-05  -0.00645375 -0.0743202 0.000506625  -0.0059725 -0.0679866 0.000608206  -0.00121427 -0.0687631 -3.44217e-05  -0.00605702 -0.0685925 0.000535637  -0.0071913 -0.0856745 0.000515819  -0.00195301 -0.0864029 -3.89218e-05  -0.00163841 -0.0798323 -4.61638e-05  -0.00726867 -0.0861934 0.000453949  -0.00677705 -0.079638 0.000545777  -0.00169146 -0.0803846 -3.76701e-05  -0.00685787 -0.0801875 0.00048022  -0.00803828 -0.0981083 0.000459827  -0.00251627 -0.0988123 -4.14103e-05  -0.00217664 -0.0920468 -4.72441e-05  -0.00811088 -0.0985787 0.000403643  -0.00761008 -0.0918273 0.000487596  -0.00222743 -0.0925459 -3.93242e-05  -0.00768709 -0.0923237 0.000428274  -0.00891113 -0.110999 0.000407308  -0.00313044 -0.111677 -4.04865e-05  -0.00276887 -0.104741 -4.72963e-05  -0.00897896 -0.111417 0.000357255  -0.00847006 -0.104497 0.000433035  -0.00281703 -0.105189 -4.09037e-05  -0.00854218 -0.104943 0.000379816  -0.00980425 -0.124289 0.000356875  -0.003793 -0.124941 -4.2215e-05  -0.00341284 -0.117858 -4.96283e-05  -0.00986695 -0.124659 0.000313655  -0.00935471 -0.117591 0.000382036  -0.00345564 -0.11826 -4.18276e-05  -0.00942028 -0.11799 0.000334933  -0.0107162 -0.137928 0.000313833  -0.00449574 -0.138557 -4.1917e-05  -0.00410128 -0.13135 -4.74602e-05  -0.010774 -0.138255 0.000273585  -0.0102572 -0.13106 0.000334822  -0.00413978 -0.131708 -4.08888e-05  -0.0103182 -0.131416 0.000292987  -0.0116434 -0.151868 0.000271484  -0.00523734 -0.152478 -4.06653e-05  -0.00482893 -0.145166 -4.73633e-05  -0.0116944 -0.152155 0.000237882  -0.0111771 -0.144856 0.0002914  -0.00486326 -0.145481 -4.02927e-05  -0.0112324 -0.145169 0.000254869  -0.0125813 -0.166067 0.0002314  -0.00601292 -0.166659 -3.95328e-05  -0.00558877 -0.159261 -4.50388e-05  -0.0126281 -0.166319 0.000201926  -0.0121105 -0.158932 0.000250883  -0.00562096 -0.159537 -3.93838e-05  -0.0121593 -0.159206 0.000219911  -0.0135279 -0.180486 0.000196382  -0.00681567 -0.181059 -3.65973e-05  -0.0063827 -0.173593 -4.36381e-05  -0.0135686 -0.180704 0.000171602  -0.0130541 -0.173247 0.000213794  -0.0064106 -0.173833 -3.7998e-05  -0.0130966 -0.173485 0.000186339  -0.0144794 -0.195086 0.000163369  -0.00764346 -0.195638 -3.53754e-05  -0.00720215 -0.188121 -4.09558e-05  -0.0145149 -0.195269 0.000142634  -0.0140016 -0.18776 0.000180431  -0.00722766 -0.188327 -3.57032e-05  -0.0140419 -0.187963 0.000157461  -0.0154331 -0.209827 0.000135392  -0.00848889 -0.210364 -3.27379e-05  -0.00804424 -0.20281 -3.75807e-05  -0.0154645 -0.209981 0.00011684  -0.0149548 -0.202434 0.000148632  -0.00806403 -0.202984 -3.38256e-05  -0.0149894 -0.202607 0.000130191  -0.0163867 -0.224682 0.000108294  -0.00935292 -0.225202 -2.82526e-05  -0.00890422 -0.217623 -3.65898e-05  -0.0164144 -0.224808 9.34899e-05  -0.015909 -0.217236 0.000120409  -0.00892138 -0.217769 -3.22312e-05  -0.0159388 -0.217381 0.000105515  -0.0173392 -0.239618 8.48249e-05  -0.0102284 -0.240122 -2.78205e-05  -0.00977182 -0.232533 -3.22014e-05  -0.0173619 -0.239719 7.48634e-05  -0.0168631 -0.232135 9.60231e-05  -0.00978899 -0.232653 -2.84612e-05  -0.0168891 -0.232253 8.41171e-05  -0.0182874 -0.25461 6.29574e-05  -0.0111127 -0.2551 -2.54363e-05  -0.0106575 -0.247509 -2.85879e-05  -0.018306 -0.254689 5.57452e-05  -0.0178113 -0.247102 7.53477e-05  -0.0106695 -0.247605 -2.47806e-05  -0.0178354 -0.247197 6.47753e-05  -0.0192285 -0.26963 4.6663e-05  -0.0120025 -0.270108 -2.28733e-05  -0.0115478 -0.262525 -2.66209e-05  -0.019244 -0.26969 4.09931e-05  -0.0187578 -0.26211 5.46426e-05  -0.0115583 -0.2626 -2.27243e-05  -0.0187747 -0.262186 4.72516e-05  -0.020164 -0.284663 3.29763e-05  -0.0128956 -0.285128 -1.81049e-05  -0.0124433 -0.27756 -2.32607e-05  -0.0201762 -0.284706 2.79993e-05  -0.019697 -0.277142 3.97861e-05  -0.0124481 -0.277617 -1.90735e-05  -0.0197113 -0.277197 3.37362e-05  -0.0210917 -0.299686 1.93715e-05  -0.0137904 -0.300141 -1.50353e-05  -0.0133407 -0.292592 -1.87606e-05  -0.0211003 -0.299713 1.63019e-05  -0.0206296 -0.292169 2.49967e-05  -0.0133424 -0.292635 -1.75685e-05  -0.0206394 -0.292209 2.25008e-05  -0.0220094 -0.314681 1.11982e-05  -0.0146825 -0.315131 -1.29044e-05  -0.0142348 -0.307609 -1.63913e-05  -0.0220165 -0.3147 9.67085e-06  -0.0215516 -0.30718 1.49608e-05  -0.0142388 -0.307637 -1.41114e-05  -0.021559 -0.307209 1.24723e-05  -0.0229201 -0.329647 4.28408e-06  -0.0155761 -0.330086 -7.77841e-06  -0.0151291 -0.322595 -1.13994e-05  -0.0229244 -0.329655 2.80142e-06  -0.0224648 -0.322163 7.85291e-06  -0.0151293 -0.322612 -1.09673e-05  -0.0224707 -0.322181 6.55651e-06  -0.0238187 -0.344563 3.05474e-07  -0.0164633 -0.344997 -6.4522e-06  -0.0160193 -0.337537 -9.27597e-06  -0.0238223 -0.344564 -2.08616e-07  -0.0233698 -0.337104 1.72108e-06  -0.0160196 -0.337546 -6.63102e-06  -0.0233736 -0.337112 8.64267e-07  -0.0247095 -0.359425 -5.89341e-06  -0.0173492 -0.359852 -3.33786e-06  -0.0169072 -0.352428 -4.08292e-06  -0.0247109 -0.359418 -5.31971e-06  -0.0242639 -0.351994 -2.06381e-06  -0.0169053 -0.35243 -3.38256e-06  -0.0242674 -0.351997 -2.23517e-06  -0.025588 -0.374209 -1.36122e-05  -0.0182247 -0.374634 -1.13249e-06  -0.0177867 -0.367255 -1.54972e-06  -0.0255911 -0.3742 -9.55164e-06  -0.0251482 -0.366822 -7.98702e-06  -0.0177886 -0.367253 -1.08778e-06  -0.0251527 -0.366818 -7.19726e-06  0.000497505 0.000702798 -0.000909694  0 0 0  0.000720233 -5.16772e-05 -0.00137082  0.000342302 0.000605822 -0.00109249  0 0 0  0.000383303 0.000117123 -0.000705123  0.000180244 0.000707448 -0.000560381  0 0 0  0.00021749 0.000203848 -0.000796363  0.000114746 0.000299394 -0.000408784  0.00111365 -0.00130928 -0.00107376  0.00192091 -0.00239635 -0.00184126  0.00153261 -0.0002653 -0.00194978  0.00102457 -0.00212795 -0.000939548  0.000816911 -2.78354e-05 -0.00100021  0.00131841 -0.000997186 -0.00164932  0.000702113 -0.000767767 -0.000843748  0.0017114 -0.00511634 -0.00110921  0.00312662 -0.00633717 -0.00191513  0.00263181 -0.0033114 -0.00214983  0.00166205 -0.00603718 -0.000970736  0.00141093 -0.0030151 -0.00109737  0.00252676 -0.00419378 -0.00189556  0.00134626 -0.0039044 -0.000962481  0.00227809 -0.0103391 -0.00107886  0.00425845 -0.0115789 -0.0018694  0.00375453 -0.0078674 -0.00215413  0.00224197 -0.0112778 -0.000943571  0.00200406 -0.00756067 -0.00109536  0.00370693 -0.00880516 -0.00189924  0.00196239 -0.00850314 -0.000959188  0.00276333 -0.0167547 -0.00102813  0.00526798 -0.0179684 -0.00177856  0.00479895 -0.0137036 -0.00207738  0.0027324 -0.0176693 -0.000896171  0.0025323 -0.0134009 -0.00105357  0.00477892 -0.0146361 -0.00182737  0.00249946 -0.0143359 -0.00092037  0.00315219 -0.0242311 -0.000968784  0.00614661 -0.0253992 -0.00167085  0.00573218 -0.0206626 -0.00196804  0.00312239 -0.0250986 -0.00084269  0.00297147 -0.0203623 -0.000997528  0.00572383 -0.0215589 -0.00172573  0.00293988 -0.0212592 -0.000870019  0.00344127 -0.0326592 -0.00090652  0.00689346 -0.0337774 -0.00155705  0.00653917 -0.02863 -0.00184406  0.00340974 -0.0334716 -0.000788376  0.00331062 -0.0283263 -0.000937045  0.00653654 -0.0294743 -0.001614  0.00327879 -0.0291715 -0.000815526  0.00362515 -0.0419488 -0.000844203  0.00750673 -0.0430148 -0.0014428  0.00722009 -0.0375053 -0.00171624  0.00359499 -0.0427017 -0.000734404  0.00354564 -0.0371965 -0.000874959  0.00721616 -0.0382928 -0.00150041  0.00351626 -0.0379831 -0.000761136  0.00370932 -0.0520186 -0.000783034  0.0079875 -0.0530323 -0.00133224  0.00776672 -0.0472029 -0.00158886  0.0036788 -0.0527093 -0.000681162  0.00368094 -0.0468854 -0.000813834  0.0077635 -0.0479298 -0.00138745  0.00364983 -0.0476118 -0.000707671  0.00369442 -0.0627874 -0.000723675  0.00834 -0.0637545 -0.00122444  0.00818133 -0.0576411 -0.00146364  0.00366414 -0.063421 -0.000629351  0.00371468 -0.0573137 -0.000753485  0.00818014 -0.0583089 -0.00127748  0.00368345 -0.0579807 -0.000655323  0.0035826 -0.0741903 -0.000665851  0.00856745 -0.0751123 -0.00112075  0.00847149 -0.0687465 -0.00134392  0.00355446 -0.0747685 -0.000579461  0.00364983 -0.0684087 -0.000694424  0.00846946 -0.0693569 -0.00117289  0.00362086 -0.0690175 -0.000604257  0.00338161 -0.0861627 -0.000610545  0.00867558 -0.0870418 -0.00102231  0.00863743 -0.0804536 -0.00122789  0.00335622 -0.0866854 -0.000531048  0.00349271 -0.0801048 -0.00063844  0.0086354 -0.0810091 -0.00107192  0.00346589 -0.0806575 -0.000555411  0.00309622 -0.0986412 -0.000556432  0.00867128 -0.0994815 -0.000928611  0.00868952 -0.0926978 -0.00111756  0.00307238 -0.0991122 -0.000484407  0.00324965 -0.0923369 -0.000583038  0.0086869 -0.0932004 -0.00097467  0.00322402 -0.0928379 -0.000507742  0.00273192 -0.111573 -0.000505112  0.0085628 -0.112374 -0.000838712  0.00863123 -0.10542 -0.00101115  0.00270987 -0.111994 -0.000440121  0.00292385 -0.105048 -0.000530854  0.00862873 -0.105873 -0.000882357  0.00290072 -0.105499 -0.000462189  0.00229585 -0.124899 -0.00045599  0.00835419 -0.125666 -0.000751898  0.00846875 -0.118566 -0.000910938  0.00227642 -0.125276 -0.000397533  0.00252247 -0.118183 -0.0004806  0.00847006 -0.118972 -0.000795335  0.00250208 -0.118587 -0.000418842  0.00179052 -0.138574 -0.000407383  0.00805545 -0.139307 -0.000670463  0.00821555 -0.132084 -0.00081379  0.00177455 -0.138908 -0.000355929  0.00205171 -0.131691 -0.000431806  0.00821614 -0.132445 -0.000709757  0.00203407 -0.13205 -0.000376537  0.00122786 -0.152549 -0.000363477  0.00767303 -0.153251 -0.000593543  0.00787187 -0.145924 -0.000723556  0.00121236 -0.152843 -0.000316843  0.00151706 -0.145522 -0.000385687  0.00787354 -0.146243 -0.000631645  0.00150061 -0.145839 -0.000335932  0.000606537 -0.166782 -0.000322051  0.00721574 -0.167452 -0.000522003  0.0074501 -0.160042 -0.000637315  0.000596285 -0.167036 -0.000280946  0.000923395 -0.159631 -0.000342444  0.00745177 -0.160321 -0.000556245  0.000910759 -0.159908 -0.000298738  -5.8651e-05 -0.181229 -0.000280693  0.00668812 -0.181871 -0.000452086  0.00695395 -0.174394 -0.000558108  -6.81877e-05 -0.181448 -0.000246242  0.000279427 -0.173975 -0.000301622  0.00695944 -0.174636 -0.000487834  0.000270844 -0.174216 -0.000262618  -0.000770092 -0.195851 -0.000244126  0.00610065 -0.196466 -0.000390455  0.00639272 -0.188939 -0.000483692  -0.000775099 -0.196039 -0.000212252  -0.000408888 -0.188514 -0.000261992  0.00640273 -0.189148 -0.000422388  -0.000416994 -0.188722 -0.000228822  -0.00151515 -0.210617 -0.000209264  0.00545907 -0.211205 -0.000332147  0.00577784 -0.203643 -0.000412315  -0.00151896 -0.210772 -0.000182211  -0.00113678 -0.203212 -0.000226744  0.0057869 -0.203819 -0.000359505  -0.00114298 -0.203388 -0.00019744  -0.00229263 -0.225486 -0.000176534  0.00476933 -0.226053 -0.000277653  0.00511122 -0.218468 -0.000347354  -0.00229478 -0.225618 -0.000153899  -0.0019002 -0.218035 -0.000192039  0.00512171 -0.218616 -0.000303909  -0.0019033 -0.21818 -0.000167668  -0.00309825 -0.240438 -0.000146754  0.00404024 -0.240984 -0.000226945  0.00439811 -0.233386 -0.000290021  -0.00309682 -0.240544 -0.000126764  -0.00269294 -0.232949 -0.000161253  0.00441027 -0.233509 -0.000252768  -0.00269341 -0.233071 -0.000141054  -0.00392246 -0.255444 -0.000119656  0.00327516 -0.255967 -0.00018543  0.00365281 -0.248371 -0.000235491  -0.00392079 -0.255525 -0.000104085  -0.00350785 -0.247931 -0.00013268  0.00366282 -0.248469 -0.000205249  -0.00350714 -0.248029 -0.000115782  -0.00476384 -0.270476 -9.64776e-05  0.00248313 -0.270982 -0.000144094  0.00287271 -0.263394 -0.000188224  -0.00476122 -0.270538 -8.37892e-05  -0.00434232 -0.262951 -0.000107631  0.00288463 -0.263471 -0.000164554  -0.00433969 -0.263029 -9.40859e-05  -0.00562024 -0.285515 -7.31945e-05  0.00166631 -0.286004 -0.000109747  0.00206971 -0.278434 -0.000145011  -0.00561666 -0.285561 -6.38366e-05  -0.00519156 -0.27799 -8.49441e-05  0.00207782 -0.278491 -0.000126779  -0.00518751 -0.278048 -7.32839e-05  -0.00648499 -0.300545 -5.46202e-05  0.00083065 -0.301019 -7.84397e-05  0.00124121 -0.293469 -0.000107735  -0.00648117 -0.300576 -4.90993e-05  -0.00605083 -0.293026 -6.53863e-05  0.00125027 -0.293512 -9.422e-05  -0.00604916 -0.293069 -5.6386e-05  -0.00735831 -0.315549 -4.05684e-05  -1.7643e-05 -0.31601 -5.65797e-05  0.000400305 -0.308487 -7.83727e-05  -0.00735259 -0.315566 -3.44664e-05  -0.00691938 -0.308044 -4.72218e-05  0.000407696 -0.308517 -6.75619e-05  -0.00691748 -0.308074 -4.04418e-05  -0.00823379 -0.330514 -2.42442e-05  -0.000878572 -0.330964 -3.50177e-05  -0.000456333 -0.323472 -5.12302e-05  -0.00822902 -0.330522 -2.05934e-05  -0.00779343 -0.323031 -3.05772e-05  -0.000446558 -0.32349 -4.30048e-05  -0.00779009 -0.323049 -2.68966e-05  -0.00911188 -0.345433 -1.24127e-05  -0.00174642 -0.345873 -1.508e-05  -0.00131702 -0.338413 -2.96831e-05  -0.00910759 -0.345434 -1.06841e-05  -0.00867271 -0.337972 -1.90735e-05  -0.00131202 -0.338423 -2.5183e-05  -0.00866771 -0.337983 -1.6287e-05  -0.00999117 -0.360292 -1.06543e-06  -0.0026195 -0.360728 -1.69873e-06  -0.00218868 -0.353304 -7.93487e-06  -0.00998402 -0.360288 2.98023e-07  -0.00955129 -0.352865 -6.31064e-06  -0.0021832 -0.353307 -7.24196e-06  -0.00954628 -0.352867 -6.13928e-06  -0.0108631 -0.375078 1.26064e-05  -0.00348783 -0.375513 1.78665e-05  -0.00306606 -0.368131 9.59635e-06  -0.0108578 -0.375073 9.29832e-06  -0.0104291 -0.367692 3.79235e-06  -0.00305581 -0.36813 8.24034e-06  -0.0104208 -0.36769 2.5779e-06  0.00139396 0.000240505 -0.00258673  0 0 0  0.00147046 -0.000712037 -0.00264654  0.000685446 0.000199854 -0.00210337  0 0 0  0.00107828 -0.000322282 -0.00201119  0.000507317 0.00044173 -0.00158966  0 0 0  0.000444919 -0.00017935 -0.00152844  0.000322886 4.9293e-05 -0.00115995  0.00309861 -0.00200874 -0.00308116  0.00388262 -0.00338036 -0.00355892  0.0030885 -0.00114262 -0.00377782  0.00286838 -0.00281012 -0.00271  0.00228275 -0.000633538 -0.00286237  0.00267738 -0.00185829 -0.00318803  0.00197105 -0.00135612 -0.00242308  0.00474009 -0.00587171 -0.00322521  0.00625038 -0.00737083 -0.00374316  0.00526664 -0.00434417 -0.0041877  0.00465065 -0.00678253 -0.00283918  0.00391141 -0.00375473 -0.0031778  0.0050793 -0.00521743 -0.00368987  0.00376573 -0.00463021 -0.00280201  0.00635064 -0.0110822 -0.00316447  0.00846422 -0.0125806 -0.00368996  0.0074434 -0.00889069 -0.00423607  0.0063253 -0.0120149 -0.00278763  0.00556076 -0.00831336 -0.0032049  0.00738135 -0.00982422 -0.00373515  0.00550693 -0.00924718 -0.00282609  0.00784087 -0.0174831 -0.00302523  0.0104937 -0.0189398 -0.00352749  0.00949711 -0.0146916 -0.00410943  0.00784725 -0.0183935 -0.00265868  0.00711244 -0.014136 -0.00310006  0.00950187 -0.0156215 -0.00361775  0.00710589 -0.0150661 -0.0027287  0.00919157 -0.0249519 -0.00284867  0.0123405 -0.0263511 -0.00331727  0.0114055 -0.0216247 -0.0039003  0.00921136 -0.0258177 -0.00249757  0.00853479 -0.021084 -0.00293934  0.0114407 -0.0225191 -0.00342572  0.00854939 -0.0219794 -0.00258036  0.0103884 -0.0333823 -0.00265704  0.0139975 -0.0347182 -0.00308827  0.013144 -0.0295756 -0.00365348  0.0104141 -0.0341925 -0.00232522  0.00980973 -0.029047 -0.00275335  0.0131927 -0.0304197 -0.00320327  0.00983334 -0.0298907 -0.00241201  0.0114281 -0.0426798 -0.00246234  0.0154618 -0.0439501 -0.0028574  0.0147018 -0.0384451 -0.00339517  0.0114541 -0.0434309 -0.0021528  0.0109283 -0.0379218 -0.00255875  0.0147538 -0.0392299 -0.00297274  0.0109547 -0.0387087 -0.00223824  0.012305 -0.0527595 -0.00227007  0.0167328 -0.0539659 -0.00263086  0.0160677 -0.0481371 -0.00313624  0.012332 -0.0534506 -0.00198305  0.0118866 -0.0476198 -0.00236531  0.0161217 -0.0488641 -0.00274301  0.0119139 -0.0483474 -0.00206767  0.0130239 -0.0635422 -0.00208394  0.017814 -0.0646889 -0.00241132  0.0172453 -0.0585746 -0.00288266  0.0130494 -0.0641774 -0.00181974  0.0126851 -0.0580617 -0.00217684  0.0172969 -0.0592419 -0.00252028  0.0127107 -0.0587291 -0.00190111  0.0135878 -0.0749621 -0.00190559  0.0187094 -0.0760487 -0.00220224  0.0182338 -0.0696817 -0.00263909  0.0136118 -0.0755396 -0.00166319  0.013325 -0.0691719 -0.00199356  0.0182848 -0.0702918 -0.0023063  0.0133493 -0.0697817 -0.00174108  0.0140021 -0.0869493 -0.00173333  0.0194272 -0.0879809 -0.0020023  0.0190414 -0.0813899 -0.00240481  0.014026 -0.0874739 -0.00151449  0.0138137 -0.0808824 -0.00181922  0.0190905 -0.0819464 -0.00210129  0.0138376 -0.0814383 -0.00158808  0.0142759 -0.099445 -0.00157075  0.0199763 -0.100423 -0.00181274  0.0196748 -0.093637 -0.00218268  0.0142996 -0.0999178 -0.00137155  0.0141562 -0.0931309 -0.00165174  0.0197229 -0.094141 -0.00190653  0.0141814 -0.0936343 -0.00144161  0.0144175 -0.11239 -0.00141595  0.0203658 -0.11332 -0.00163037  0.0201437 -0.106363 -0.0019689  0.0144409 -0.112815 -0.00123568  0.0143629 -0.105859 -0.00149289  0.0201892 -0.106817 -0.00172028  0.0143861 -0.106312 -0.00130297  0.0144342 -0.125733 -0.00126792  0.020605 -0.126615 -0.00145964  0.0204591 -0.119512 -0.0017677  0.0144587 -0.126112 -0.00110739  0.0144403 -0.119011 -0.00134034  0.0205033 -0.11992 -0.00154436  0.0144646 -0.119416 -0.00117046  0.0143373 -0.139423 -0.00112782  0.0207062 -0.140258 -0.00129731  0.0206277 -0.133033 -0.00157616  0.01436 -0.139757 -0.000985205  0.0144002 -0.132531 -0.00119762  0.0206717 -0.133394 -0.00137767  0.0144234 -0.132892 -0.00104491  0.0141313 -0.153409 -0.000994928  0.0206771 -0.154203 -0.0011448  0.0206645 -0.146875 -0.00139683  0.0141559 -0.153705 -0.000869244  0.0142472 -0.146375 -0.00106126  0.0207062 -0.147196 -0.00121979  0.0142713 -0.146695 -0.000926927  0.0138307 -0.167653 -0.00087253  0.0205302 -0.168405 -0.00100075  0.0205786 -0.160993 -0.0012265  0.0138547 -0.167908 -0.000762731  0.0139947 -0.160496 -0.000933528  0.0206192 -0.161273 -0.00107177  0.0140164 -0.160775 -0.00081487  0.0134387 -0.182105 -0.000756823  0.0202737 -0.182821 -0.000866637  0.0203757 -0.175343 -0.00106734  0.0134647 -0.182329 -0.000661671  0.0136459 -0.17485 -0.000814825  0.0204146 -0.175587 -0.000932053  0.0136707 -0.175093 -0.000711024  0.0129695 -0.196737 -0.000650518  0.019922 -0.197415 -0.00074254  0.0200698 -0.189888 -0.000921212  0.0129964 -0.196925 -0.000567257  0.0132158 -0.189397 -0.000704229  0.0201108 -0.190097 -0.000803635  0.0132399 -0.189605 -0.000613987  0.0124302 -0.211505 -0.000551812  0.01948 -0.21215 -0.000626698  0.0196724 -0.204587 -0.000783019  0.012455 -0.211665 -0.000480235  0.0127106 -0.204101 -0.000599004  0.0197105 -0.204766 -0.000683725  0.0127337 -0.204278 -0.00052321  0.0118263 -0.226382 -0.000459746  0.018959 -0.226995 -0.000521213  0.0191927 -0.21941 -0.000657938  0.0118518 -0.226513 -0.000399992  0.012135 -0.218927 -0.000504039  0.019228 -0.21956 -0.000573978  0.0121596 -0.219076 -0.000439569  0.0111682 -0.241337 -0.000376217  0.0183697 -0.24192 -0.000426278  0.018636 -0.234326 -0.000543512  0.0111911 -0.241442 -0.000328496  0.0115039 -0.233846 -0.00041689  0.0186722 -0.234448 -0.000474587  0.0115275 -0.233968 -0.000364169  0.0104635 -0.256343 -0.000302941  0.0177183 -0.256897 -0.000341624  0.0180211 -0.249303 -0.000437424  0.0104866 -0.256424 -0.000263691  0.0108223 -0.248828 -0.000339612  0.0180509 -0.249402 -0.000381306  0.0108438 -0.248927 -0.000295117  0.00972056 -0.271375 -0.000236049  0.017014 -0.271904 -0.000264078  0.0173445 -0.264321 -0.000346504  0.00974059 -0.271437 -0.000205934  0.0100973 -0.26385 -0.000267938  0.0173731 -0.264397 -0.000301838  0.0101175 -0.263927 -0.000232667  0.00894022 -0.286414 -0.000177972  0.016269 -0.286921 -0.000197232  0.0166187 -0.279353 -0.000264838  0.00896049 -0.286457 -0.000155702  0.00933409 -0.278887 -0.000207193  0.0166469 -0.279413 -0.000230566  0.00935173 -0.278946 -0.000180513  0.00813532 -0.301438 -0.00012888  0.0154865 -0.301928 -0.000141576  0.0158579 -0.294383 -0.000193916  0.00815153 -0.301469 -0.00011155  0.00854158 -0.293921 -0.00015153  0.0158825 -0.294426 -0.000168324  0.00855851 -0.293964 -0.000132963  0.00730944 -0.316439 -8.86694e-05  0.0146759 -0.316913 -9.51737e-05  0.0150647 -0.309395 -0.000135869  0.00732207 -0.316458 -7.57128e-05  0.007725 -0.308938 -0.000108801  0.0150847 -0.309422 -0.000118047  0.0077405 -0.308966 -9.35644e-05  0.00646257 -0.331401 -5.41136e-05  0.0138421 -0.331861 -5.71758e-05  0.0142441 -0.324371 -8.62703e-05  0.00647664 -0.331409 -4.57168e-05  0.00688744 -0.323918 -7.05495e-05  0.0142605 -0.32439 -7.44015e-05  0.00690174 -0.323937 -6.07371e-05  0.00560331 -0.346313 -2.40058e-05  0.01299 -0.346762 -2.72989e-05  0.0134029 -0.339306 -4.85331e-05  0.00561833 -0.346316 -2.1562e-05  0.0060358 -0.338858 -3.81619e-05  0.013418 -0.339316 -4.1768e-05  0.00605059 -0.338868 -3.37213e-05  0.00473571 -0.361172 1.01328e-06  0.0121248 -0.361614 -7.59959e-07  0.0125456 -0.354189 -1.44243e-05  0.0047493 -0.361171 1.3411e-07  0.0051713 -0.353745 -1.13696e-05  0.0125587 -0.354193 -1.20997e-05  0.00518441 -0.353749 -1.00881e-05  0.00386906 -0.375964 3.05697e-05  0.011261 -0.37641 2.93553e-05  0.0116758 -0.369016 1.64732e-05  0.00388145 -0.375961 2.44528e-05  0.0042994 -0.368573 1.2286e-05  0.011694 -0.369018 1.34706e-05  0.0043149 -0.368572 1.10865e-05  0.00243394 -0.000704825 -0.00416659  0 0 0  0.00243729 -0.00205648 -0.0037633  0.00109461 -0.00062561 -0.00303251  0 0 0  0.00191912 -0.00126857 -0.00321367  0.000869602 -0.000147104 -0.00253407  0 0 0  0.000735514 -0.000973761 -0.0021766  0.000570171 -0.000510335 -0.00183803  0.00539154 -0.00330353 -0.00497405  0.0062879 -0.00501722 -0.00513001  0.00501817 -0.00265878 -0.00544902  0.00502434 -0.00411397 -0.00435559  0.00399885 -0.00180918 -0.00460842  0.00441612 -0.00341612 -0.00458091  0.00349404 -0.00253236 -0.00388332  0.00809082 -0.00717008 -0.00527024  0.00978589 -0.0089311 -0.00549619  0.00832936 -0.00590229 -0.00614663  0.00796017 -0.00809097 -0.00462687  0.00673944 -0.00506663 -0.00517797  0.00807133 -0.0068202 -0.00537986  0.00651562 -0.00595093 -0.00454457  0.0107139 -0.0123329 -0.0052145  0.0130414 -0.0140784 -0.00547609  0.0115106 -0.0103931 -0.006286  0.0106961 -0.0132705 -0.00458843  0.00941953 -0.0095883 -0.00526694  0.0114395 -0.011353 -0.00552011  0.00935361 -0.010529 -0.00463422  0.0131891 -0.0186936 -0.00500334  0.0160792 -0.0203873 -0.0052551  0.0145597 -0.0161502 -0.00612487  0.0132301 -0.0196055 -0.00439554  0.0119719 -0.0153641 -0.00512125  0.0145887 -0.0170932 -0.00538166  0.0119887 -0.0162981 -0.00450429  0.0154885 -0.0261334 -0.00471502  0.0188842 -0.027759 -0.0049476  0.0174344 -0.0230476 -0.00581978  0.0155562 -0.0269982 -0.0041355  0.0143629 -0.0222793 -0.00486409  0.0175114 -0.0239459 -0.00510809  0.01442 -0.0231755 -0.00427057  0.0175866 -0.0345427 -0.0043959  0.0214446 -0.0360922 -0.00460695  0.0200989 -0.0309673 -0.00545179  0.0176653 -0.0353517 -0.00384994  0.0165644 -0.0302157 -0.00455654  0.0201955 -0.0318105 -0.00477909  0.0166387 -0.03106 -0.00399461  0.0194707 -0.043821 -0.00406922  0.0237498 -0.0452939 -0.00425939  0.0225255 -0.0398051 -0.00506124  0.019552 -0.044571 -0.00356178  0.018557 -0.0390725 -0.00423197  0.0226291 -0.040589 -0.00443187  0.0186369 -0.0398572 -0.00370529  0.021135 -0.0538846 -0.00374781  0.0257996 -0.0552812 -0.00391909  0.0247023 -0.0494695 -0.00467163  0.0212145 -0.0545757 -0.00327709  0.0203298 -0.0487535 -0.00390787  0.0248077 -0.0501931 -0.00408764  0.0204115 -0.0494792 -0.00341785  0.0225779 -0.0646546 -0.00343638  0.0275965 -0.065977 -0.00359058  0.0266279 -0.0598787 -0.00429068  0.0226549 -0.0652887 -0.00300312  0.0218837 -0.0591804 -0.00359058  0.0267302 -0.0605437 -0.00375256  0.0219623 -0.0598471 -0.00313923  0.0238056 -0.0760623 -0.00313674  0.0291477 -0.0773127 -0.00327517  0.0283041 -0.0709591 -0.00392383  0.0238805 -0.0766392 -0.00274141  0.0232185 -0.0702773 -0.00328531  0.0284024 -0.0715683 -0.00343072  0.0232939 -0.0708874 -0.00287153  0.0248255 -0.0880396 -0.00285049  0.0304613 -0.0892214 -0.00297491  0.0297396 -0.0826443 -0.00357237  0.0248981 -0.0885637 -0.00249033  0.0243419 -0.0819771 -0.00299232  0.0298336 -0.0831981 -0.00312331  0.0244144 -0.0825326 -0.00261518  0.0256492 -0.100525 -0.00257816  0.03155 -0.101641 -0.00268888  0.0309441 -0.0948679 -0.00323842  0.0257192 -0.100998 -0.00225317  0.0252637 -0.0942163 -0.00271393  0.0310322 -0.0953699 -0.00283055  0.025333 -0.0947191 -0.0023703  0.0262867 -0.113461 -0.00231905  0.032425 -0.114516 -0.00241765  0.0319259 -0.107571 -0.00291874  0.0263538 -0.113887 -0.0020261  0.0259914 -0.106935 -0.002447  0.032014 -0.108025 -0.00255138  0.0260594 -0.107388 -0.00213784  0.0267488 -0.126796 -0.00207406  0.0330989 -0.12779 -0.00216128  0.0327036 -0.1207 -0.00261717  0.0268134 -0.127174 -0.0018118  0.0265394 -0.120076 -0.00219525  0.0327863 -0.121105 -0.00228675  0.0266038 -0.120482 -0.00191781  0.027046 -0.140474 -0.0018426  0.0335858 -0.141413 -0.00191684  0.0332854 -0.134198 -0.00233056  0.0271089 -0.14081 -0.00160944  0.0269172 -0.133588 -0.00195755  0.0333658 -0.13456 -0.00203767  0.026981 -0.13395 -0.00170973  0.0271916 -0.154453 -0.00162419  0.0338979 -0.155337 -0.00168785  0.0336843 -0.14802 -0.00206153  0.027252 -0.154748 -0.00141911  0.0271378 -0.147423 -0.0017313  0.0337634 -0.14834 -0.00180183  0.0271981 -0.147743 -0.00151257  0.0271981 -0.168684 -0.00141837  0.0340474 -0.169517 -0.00147507  0.0339177 -0.162117 -0.00180749  0.0272567 -0.168941 -0.00123964  0.027211 -0.161533 -0.00152131  0.0339909 -0.162396 -0.00158094  0.0272706 -0.161813 -0.0013281  0.027076 -0.183128 -0.00122789  0.03405 -0.183913 -0.00127612  0.0339963 -0.176447 -0.001572  0.0271318 -0.18335 -0.00107156  0.0271525 -0.175876 -0.00132185  0.0340667 -0.17669 -0.00137314  0.0272093 -0.17612 -0.0011548  0.0268369 -0.197746 -0.00105128  0.0339158 -0.198486 -0.00108902  0.0339298 -0.19097 -0.00135036  0.02689 -0.197935 -0.000917628  0.0269711 -0.190413 -0.00113807  0.033999 -0.191179 -0.00118063  0.0270252 -0.190621 -0.000993609  0.0264924 -0.212505 -0.000886753  0.0336597 -0.213201 -0.000917748  0.0337379 -0.20565 -0.00114623  0.0265429 -0.212662 -0.00077337  0.0266764 -0.205104 -0.000968568  0.0338027 -0.205827 -0.0010021  0.0267301 -0.205282 -0.000845388  0.0260556 -0.227371 -0.000738047  0.0332928 -0.228025 -0.000761434  0.0334301 -0.220453 -0.000960007  0.0261018 -0.227499 -0.000643939  0.0262856 -0.21992 -0.000811338  0.0334909 -0.2206 -0.000838637  0.0263343 -0.220068 -0.000708207  0.0255308 -0.242312 -0.000601478  0.0328274 -0.24293 -0.000619799  0.0330136 -0.235347 -0.000789136  0.0255771 -0.242416 -0.000525653  0.0258033 -0.234826 -0.000669159  0.0330713 -0.235468 -0.000689253  0.0258496 -0.234948 -0.000583649  0.0249362 -0.257304 -0.000480011  0.0322764 -0.257888 -0.00049226  0.0325105 -0.250306 -0.000635341  0.0249774 -0.257386 -0.000418231  0.0252433 -0.249795 -0.000538118  0.0325632 -0.250403 -0.000553817  0.025286 -0.249894 -0.000469372  0.0242791 -0.272322 -0.000372343  0.0316517 -0.272877 -0.00037998  0.0319259 -0.265305 -0.000497632  0.024317 -0.272386 -0.000323147  0.024616 -0.264807 -0.000425376  0.0319726 -0.265379 -0.00043419  0.0246542 -0.264881 -0.000369921  0.0235672 -0.28735 -0.000277407  0.0309608 -0.287876 -0.000280365  0.0312734 -0.28032 -0.000377357  0.0235996 -0.287394 -0.000241414  0.0239298 -0.279832 -0.000322618  0.0313129 -0.280376 -0.00032872  0.0239651 -0.279889 -0.000280529  0.02281 -0.302367 -0.000198528  0.0302174 -0.302868 -0.000199527  0.0305612 -0.295333 -0.000273891  0.0228398 -0.302394 -0.000172153  0.0231948 -0.294853 -0.000236824  0.0305941 -0.295373 -0.000239551  0.0232246 -0.294896 -0.000205606  0.0220187 -0.317354 -0.000133835  0.0294311 -0.317836 -0.000130385  0.0297973 -0.310329 -0.000187851  0.0220437 -0.317372 -0.000114769  0.022419 -0.309859 -0.000164121  0.0298297 -0.310354 -0.000162452  0.0224466 -0.309886 -0.000142008  0.0211999 -0.332305 -7.84695e-05  0.0286119 -0.33277 -7.66665e-05  0.029 -0.325292 -0.000116453  0.0212183 -0.332314 -6.8903e-05  0.0216134 -0.32483 -0.000104345  0.0290258 -0.325308 -0.000101671  0.0216351 -0.324847 -9.02861e-05  0.0203547 -0.34721 -3.77446e-05  0.0277658 -0.347661 -3.60012e-05  0.0281725 -0.340213 -6.28829e-05  0.0203724 -0.347211 -3.22759e-05  0.020782 -0.339758 -5.67958e-05  0.0281918 -0.34022 -5.57005e-05  0.0207987 -0.339767 -4.9606e-05  0.0194948 -0.362062 -2.5928e-06  0.0269051 -0.362506 -3.50177e-06  0.0273218 -0.355085 -2.23517e-05  0.0195117 -0.362059 -1.93715e-06  0.0199294 -0.354635 -1.97962e-05  0.0273376 -0.355088 -1.90437e-05  0.0199437 -0.35464 -1.71214e-05  0.0186272 -0.376862 3.49134e-05  0.0260377 -0.377312 2.57939e-05  0.0264552 -0.369909 1.23903e-05  0.0186434 -0.376862 2.9847e-05  0.0190623 -0.369462 1.39996e-05  0.0264716 -0.369911 1.09375e-05  0.019078 -0.369464 1.11908e-05  0.00386855 -0.00249702 -0.00562292  0 0 0  0.00406107 -0.0047732 -0.00478455  0.00181805 -0.00246412 -0.00381058  0 0 0  0.00312012 -0.00320876 -0.00429939  0.0013501 -0.00134248 -0.00328235  0 0 0  0.00134631 -0.00267529 -0.00278385  0.000910111 -0.00164568 -0.00238219  0.00820068 -0.00509316 -0.00679301  0.00926021 -0.00710893 -0.00674143  0.00755689 -0.0047558 -0.00720868  0.0077219 -0.0060364 -0.00591725  0.0062689 -0.00366288 -0.00634649  0.00686367 -0.00577116 -0.00601599  0.00557791 -0.00451171 -0.00529791  0.0118709 -0.00890285 -0.00731525  0.0137832 -0.0109788 -0.00730266  0.0117949 -0.00781751 -0.00821639  0.011719 -0.00989306 -0.00638911  0.0100102 -0.00682628 -0.00715181  0.0115193 -0.00889045 -0.00712961  0.00973484 -0.00780797 -0.0062397  0.0155186 -0.0140333 -0.00726278  0.0181406 -0.0160489 -0.00727941  0.0160665 -0.0123237 -0.00840254  0.0155156 -0.0150046 -0.00637302  0.0137177 -0.0113048 -0.00732964  0.0159987 -0.0133568 -0.00734162  0.0136496 -0.0122952 -0.00642285  0.0189884 -0.0203606 -0.00697397  0.0222156 -0.0223036 -0.00698113  0.0201707 -0.01806 -0.00816502  0.0190638 -0.0212866 -0.00611834  0.0172771 -0.0170485 -0.00713892  0.0202137 -0.0190338 -0.0071533  0.0173205 -0.0180044 -0.00626534  0.0222422 -0.0277644 -0.00656923  0.0259939 -0.0296191 -0.0065652  0.024047 -0.0249247 -0.00773832  0.0223524 -0.0286323 -0.00575911  0.0206463 -0.0239288 -0.00677946  0.0241429 -0.0258333 -0.00678237  0.0207428 -0.0248315 -0.00594625  0.0252381 -0.0361336 -0.00612015  0.0294517 -0.0378971 -0.006108  0.0276434 -0.0328002 -0.00723547  0.0253617 -0.0369405 -0.00536062  0.0237744 -0.0318276 -0.0063469  0.027763 -0.0336422 -0.00633912  0.0238929 -0.0326713 -0.0055618  0.0279572 -0.0453712 -0.00566181  0.0325868 -0.0470437 -0.00564481  0.0309331 -0.0415867 -0.00671017  0.0280843 -0.046118 -0.00495586  0.0266348 -0.0406433 -0.00589027  0.0310601 -0.0423648 -0.00587597  0.0267595 -0.0414249 -0.00515755  0.0303923 -0.0553936 -0.00521035  0.0353969 -0.0569755 -0.00518988  0.0339042 -0.0511977 -0.00618657  0.0305171 -0.0560809 -0.0045578  0.0292119 -0.0502838 -0.00543478  0.0340319 -0.0519148 -0.00541575  0.0293374 -0.0510047 -0.00475556  0.0325445 -0.0661246 -0.00477411  0.0378894 -0.0676188 -0.00475395  0.0365593 -0.0615543 -0.00567917  0.0326645 -0.0667538 -0.00417507  0.0315044 -0.0606697 -0.00499049  0.0366831 -0.0622119 -0.00496972  0.0316259 -0.0613322 -0.00436528  0.0344191 -0.0774944 -0.00435463  0.0400729 -0.0789034 -0.00433424  0.0389018 -0.0725828 -0.00519081  0.0345355 -0.0780664 -0.0038086  0.0335158 -0.0717275 -0.00456235  0.0390183 -0.0731841 -0.00454208  0.033635 -0.0723342 -0.00398961  0.0360281 -0.0894336 -0.00395443  0.0419618 -0.0907625 -0.00393265  0.0409399 -0.0842164 -0.00472235  0.0361396 -0.0899531 -0.00345817  0.0352566 -0.0833898 -0.00415317  0.0410533 -0.0847639 -0.00413252  0.0353699 -0.0839419 -0.00363095  0.0373822 -0.101884 -0.00357354  0.0435667 -0.103136 -0.00355496  0.0426896 -0.0963912 -0.00427824  0.0374905 -0.102354 -0.00312519  0.0367358 -0.0955917 -0.00376273  0.0427976 -0.0968869 -0.00374307  0.0368456 -0.0960928 -0.00328948  0.0384977 -0.114787 -0.00321208  0.0449047 -0.115963 -0.00319313  0.044165 -0.109049 -0.00385382  0.0386002 -0.115208 -0.00280952  0.0379713 -0.108276 -0.00339139  0.0442685 -0.109494 -0.00337212  0.0380751 -0.108727 -0.00296453  0.0393846 -0.128086 -0.00287011  0.0459905 -0.129193 -0.00285274  0.0453771 -0.122128 -0.00345311  0.0394839 -0.128462 -0.00250894  0.0389692 -0.121384 -0.00303993  0.0454776 -0.12253 -0.00302117  0.0390695 -0.121787 -0.00265686  0.040061 -0.141733 -0.00254542  0.0468416 -0.142771 -0.00252874  0.0463481 -0.135584 -0.00307293  0.0401556 -0.142067 -0.00222661  0.0397497 -0.134864 -0.00270513  0.046445 -0.13594 -0.00268869  0.0398453 -0.135224 -0.0023654  0.0405402 -0.155679 -0.00224131  0.0474718 -0.156652 -0.00222518  0.0470893 -0.149363 -0.00271384  0.0406296 -0.155971 -0.00196008  0.0403242 -0.148666 -0.00239175  0.0471814 -0.149676 -0.00237589  0.0404162 -0.148983 -0.0020909  0.0408347 -0.169879 -0.00195619  0.0478954 -0.17079 -0.00193979  0.0476205 -0.163416 -0.00237563  0.040921 -0.170134 -0.0017111  0.0407093 -0.162745 -0.00209662  0.0477064 -0.163692 -0.00208074  0.0407975 -0.163023 -0.00183283  0.0409608 -0.184293 -0.00168905  0.0481334 -0.185146 -0.00167452  0.047951 -0.177705 -0.00206116  0.0410438 -0.184511 -0.00147666  0.0409186 -0.177057 -0.00182122  0.0480382 -0.177942 -0.00180379  0.041003 -0.177297 -0.00159176  0.0409338 -0.198882 -0.00144286  0.0481977 -0.199679 -0.00142731  0.048105 -0.192187 -0.00177035  0.041012 -0.199067 -0.00126064  0.0409663 -0.191562 -0.001564  0.0481849 -0.192391 -0.00154895  0.0410471 -0.191769 -0.00136772  0.0407686 -0.213611 -0.00121495  0.0481057 -0.214354 -0.00119947  0.048095 -0.206828 -0.00149743  0.0408418 -0.213765 -0.00106187  0.0408685 -0.206225 -0.00132634  0.0481679 -0.207 -0.0013129  0.0409446 -0.2064 -0.00115943  0.0404756 -0.228445 -0.00100565  0.0478697 -0.229141 -0.000992164  0.0479302 -0.221593 -0.00124835  0.0405431 -0.228573 -0.000879943  0.0406353 -0.22101 -0.00110806  0.0480042 -0.221735 -0.00109404  0.0407078 -0.221155 -0.000969291  0.0400696 -0.243359 -0.000817232  0.0475059 -0.244009 -0.000804499  0.0476344 -0.23645 -0.00102346  0.040134 -0.243462 -0.000715137  0.0402849 -0.23589 -0.00091058  0.0477023 -0.236566 -0.000897467  0.0403531 -0.236008 -0.000794858  0.0395646 -0.258325 -0.000646956  0.0470316 -0.258934 -0.000635311  0.0472229 -0.251376 -0.000818089  0.039623 -0.258405 -0.00056468  0.0398288 -0.250832 -0.000730693  0.047282 -0.251465 -0.00071758  0.0398903 -0.250926 -0.000639066  0.0389752 -0.273322 -0.000498086  0.0464566 -0.27389 -0.000486284  0.046699 -0.266339 -0.000635006  0.0390286 -0.273378 -0.00043495  0.0392795 -0.265815 -0.000571199  0.0467553 -0.26641 -0.000557736  0.0393362 -0.265889 -0.000498682  0.0383115 -0.288324 -0.000367448  0.0458016 -0.288861 -0.000356019  0.046088 -0.281326 -0.000475109  0.0383582 -0.288365 -0.00032182  0.0386527 -0.280819 -0.000431471  0.0461407 -0.281376 -0.000418991  0.0387025 -0.280871 -0.000376925  0.0375865 -0.30332 -0.000256874  0.0450714 -0.303826 -0.000248164  0.0454013 -0.296312 -0.000340298  0.037626 -0.303344 -0.000224948  0.0379567 -0.295819 -0.000310302  0.0454445 -0.296344 -0.000299677  0.0379992 -0.295857 -0.000271484  0.0368087 -0.318291 -0.000168614  0.0442848 -0.318771 -0.000158578  0.0446506 -0.311281 -0.000224903  0.0368435 -0.318303 -0.000147283  0.037204 -0.310802 -0.000210159  0.0446849 -0.311301 -0.000199839  0.0372405 -0.310826 -0.000183895  0.0359955 -0.333224 -9.60454e-05  0.0434537 -0.333685 -9.22978e-05  0.0438445 -0.326225 -0.000136822  0.0360217 -0.333227 -8.68589e-05  0.0364072 -0.325758 -0.000130631  0.0438738 -0.326232 -0.000122696  0.0364382 -0.32577 -0.000114202  0.0351517 -0.348111 -4.53889e-05  0.042592 -0.348559 -4.01288e-05  0.0430019 -0.341123 -6.77183e-05  0.0351725 -0.348111 -4.18425e-05  0.0355785 -0.340669 -6.95661e-05  0.0430253 -0.341128 -6.2868e-05  0.0355999 -0.340675 -6.23763e-05  0.0342886 -0.362952 -7.69645e-06  0.0417128 -0.363396 -8.62777e-06  0.0421402 -0.355983 -2.29552e-05  0.0343068 -0.362951 -7.6592e-06  0.0347216 -0.355533 -2.56374e-05  0.0421546 -0.355981 -2.37077e-05  0.0347419 -0.355536 -2.28882e-05  0.0334134 -0.37776 2.72617e-05  0.0408325 -0.378203 2.09063e-05  0.0412583 -0.370796 4.69387e-06  0.033433 -0.377757 2.56449e-05  0.0338547 -0.370354 8.48621e-06  0.0412724 -0.370802 3.45707e-06  0.0338697 -0.370357 6.79493e-06  
SCALARS smooth_stress float 1
LOOKUP_TABLE default
285.852 564.131 493.906 465.673 498.899 504.272 524.466 559.849 546.797 474.036 391.068 404.108 466.33 428.903 345.394 387.016 410.135 409.478 452.216 460.188 560.161 528.77 415.879 365.217 400.237 412.524 415.454 406.894 418.807 509.368 479.853 466.219 241.195 467.311 931.103 927.066 933.989 956.518 963.992 1012.45 1029.77 971.213 1002.07 884.266 844.775 958.414 908.208 771.268 781.632 848.621 876.321 885.221 884.454 984.85 872.861 849.227 815.561 778.373 864.704 904.944 873.164 844.351 888.929 870.677 914.924 471.678 400.472 798.862 860.848 859.192 829.074 902.781 976.341 1038.04 965.581 947.876 865.787 891.435 1050.5 937.502 806.5 772.842 820.594 867.367 797.531 783.885 876.311 764.166 796.712 842.261 724.049 764.692 865.458 907.343 881.264 803.82 789.538 785.931 361.436 360.167 797.453 870.445 824.001 817.999 954.538 995.748 987.447 940.2 864.763 838.622 879.681 980.975 874.023 744.223 791.523 835.223 765.27 708.206 711.41 835.362 860.428 754.192 737.421 750.576 783.856 759.373 798.275 870.699 803.078 800.073 825.619 396.7 334.865 751.942 830.886 821.831 892.202 1006.03 1018.76 928.442 855.623 826.905 766.195 787.526 888.079 841.828 799.843 932.156 855.077 732.767 777.443 834.518 846.188 873.298 886.216 748.366 769.683 928.572 848.456 812.606 832.491 798.905 838.245 856.019 441.458 417.248 824.065 853.313 766.797 726.339 862.741 923.587 895.726 869.132 813.479 673.924 775.056 934.803 855.179 914.298 988.75 814.567 751.728 843.18 965.791 908.468 878.472 902.229 765.327 828.5 892.463 807.912 852.453 901.877 846.071 794.939 794.002 413.782 469.302 865.627 862.949 854.673 740.622 736.433 815.009 824.093 864.029 886.866 795.754 801.011 886.474 852.447 895.081 919.223 789.015 766.151 831.988 900.885 846.688 836.458 810.861 777.114 962.581 991.234 850.373 838.963 930.549 830.88 744.415 837.076 423.446 490.841 913.761 838.325 924.802 940.869 852.693 937.301 932.326 864.687 868.335 830.099 816.99 914.448 897.781 809.378 869.469 829.824 808.048 902.853 914.432 863.286 815.131 775.756 770.962 904.21 968.859 850.38 812.513 899.263 850.264 737.598 788.7 415.948 245.077 485.819 440.56 448.22 480.927 484.453 534.518 494.838 413.202 412.964 408.107 432.423 497.257 474.511 392.349 420.136 453.415 425.604 480.281 496.612 462.619 424.199 371.736 356.312 405.109 412.86 342.868 370.598 453.079 445.368 351.237 377.999 230.574 572.58 1114.52 1008.3 1028.29 1065.38 1022.57 1024.22 1025.51 973.017 962.858 1011.28 896.099 899.277 941.575 837.563 825.401 886.966 928.852 906.481 895.089 972.926 931.837 919.901 901.985 803.387 778.028 800.198 769.494 808.593 939.535 900.968 884.788 455.393 904.334 1880.11 1898.26 1991.65 2038.3 1999.64 2012.24 1954 1877.88 1969.03 1951.03 1748.65 1872.62 1881.84 1722.54 1753.84 1796.13 1856.5 1863.26 1876.58 1948.8 1751.66 1741.13 1729.96 1582.94 1632.83 1711.5 1657.72 1747.47 1903.06 1778.1 1739.76 880.288 813.218 1665.34 1791.55 1840.45 1793.35 1797.29 1858.86 1988.63 1936.59 1917.12 1826.06 1842.92 2110.13 1913.06 1727.82 1839.67 1783.39 1765.89 1746.7 1693.3 1821.06 1657.75 1563.84 1635.02 1619.28 1640.23 1697.44 1790.65 1829.48 1729.05 1608.64 1568.53 757.506 824.956 1693.09 1731.52 1651.88 1744.7 1788.99 1741.07 1903.81 1853.12 1812.01 1781.88 1753.45 1950.96 1799.82 1622.93 1740.8 1741.76 1613.7 1475.26 1419.63 1617.86 1714.88 1592.59 1577.77 1675.04 1698.9 1578.23 1645.14 1822.16 1635.32 1514.41 1580.63 761.358 726.42 1572.6 1666.68 1628.94 1849.87 1889.01 1752.13 1786.71 1702.39 1725.79 1661.26 1555.7 1655.13 1648.87 1592.35 1685.6 1715.32 1589.4 1563.98 1648.57 1612.48 1625.49 1669.14 1489.82 1555.47 1749.08 1645.15 1585.91 1761.15 1729.89 1599.69 1612.09 794.851 890.922 1765.26 1824.58 1716.6 1605.68 1704.5 1761.44 1716.7 1631.5 1643.04 1577.35 1679.39 1809.35 1713.98 1726.09 1757 1665.82 1600.25 1732.15 1886.65 1760.36 1634.95 1662.64 1518.91 1613.41 1681.77 1600.83 1638.31 1623.13 1620.67 1627.84 1600.45 765.347 948.278 1859.49 1936.38 1871.9 1579.47 1597.3 1777.72 1673.17 1593.28 1690.99 1666.54 1639.33 1759.17 1718.45 1775.73 1828.64 1635.76 1623.77 1733.43 1743.19 1692 1708.9 1679.93 1634.43 1879.12 1853.42 1662.99 1697.11 1676.98 1528.12 1556.56 1718.16 833.037 957.49 1913.66 1886.12 1918.12 1864.57 1730.88 1818.47 1846.19 1763.17 1740.91 1733.55 1681.6 1735.54 1740.19 1733.48 1849.35 1768.03 1770.51 1817.69 1699.15 1667.86 1669.94 1609.6 1640.48 1840.97 1891.37 1680.25 1655.27 1809.77 1685.42 1492.24 1592.06 846.331 517.207 1040.17 937.564 908.673 965.178 917.839 920.299 946.68 920.39 868.247 878.662 929.033 944.76 913.876 871.574 921.669 950.308 933.051 937.77 901.863 896.422 847.451 773.14 805.88 855.109 884.114 765.032 753.265 926.323 917.88 746.738 729.327 412.538 500.315 988.003 933.852 1043.51 1092.64 1007.85 955.18 904.543 904.513 1018.96 1170.22 1040.1 896.066 981.769 976.343 911.386 1000.77 978.506 833.296 827.554 830.189 784.05 874.816 946.11 832.922 775.28 859.268 791.636 698.568 793.764 853.931 846.476 426.597 915.585 1847.25 1823.32 2030.05 2122.8 2018.8 1990.42 1877.28 1784.53 1807.49 2042.67 1936.15 1793.45 1851.56 1757.68 1826.63 1985.55 1911.06 1787.88 1909.22 1827.82 1655.29 1694.19 1734.16 1692.11 1643.61 1655.49 1580.53 1625.46 1780.11 1689.36 1632.71 853.578 890.984 1811.85 1923.76 1984.7 1884.64 1785.43 1862.27 1894.58 1836.99 1792.54 1947.98 2001.75 2000.43 1845.87 1590.57 1812.42 1906.76 1789.92 1784.56 1868.08 1821.9 1682.97 1579.65 1670.38 1882.09 1773.47 1621.53 1682.88 1817.35 1824.96 1537.81 1520.99 853.507 868.602 1760.6 1874.88 1814.39 1814.05 1730.14 1611.75 1828.72 1967.32 1936.64 1888.8 1935.5 1993.15 1736.16 1608.54 1802.15 1804.36 1711.58 1559.95 1518.78 1605.62 1669.64 1677.57 1694.96 1806.05 1747.35 1629.3 1603.61 1776.24 1712.5 1492.71 1576.65 800.47 791.025 1576.33 1641.07 1680.16 1865.77 1840.9 1553.13 1716.25 1902.44 1842.38 1765.43 1784.85 1751.4 1550.85 1527.79 1614.66 1675.95 1737.41 1733.33 1667.3 1534.84 1538.52 1699.33 1609.97 1555.92 1618.28 1578.36 1518.79 1737.28 1717.04 1498.68 1572.56 774.537 853.6 1695.59 1736.86 1760.08 1750.69 1724.65 1608.83 1615.19 1727.3 1742.27 1764.95 1891.01 1874.85 1688.06 1536.68 1524.92 1636.53 1658.89 1768.28 1738.86 1510.63 1455.82 1619.73 1641.72 1630.61 1661.15 1624.22 1629.39 1611.38 1601.12 1483.54 1429.73 719.778 842.198 1784.53 1946.6 1878.27 1731.6 1779.51 1824.26 1754.71 1681.67 1683.51 1704.54 1740.61 1828.31 1767.99 1646.35 1661.02 1675.01 1712.43 1744.33 1629.01 1524.41 1662.6 1786.59 1751.64 1916.98 1868.77 1677 1661.62 1537.26 1520.91 1552.88 1522.41 759.532 893.512 1956.19 2020.78 1871.64 1835.66 1852.03 1857.51 1916.24 1821.14 1693.64 1812.23 1809.76 1795.7 1850.79 1766.19 1775.53 1755.18 1840.59 1808.84 1584.66 1598.56 1766.55 1774.32 1790.64 2040.32 1933.6 1598.38 1579.22 1733.42 1759.17 1601.77 1542.72 809.478 506.777 1098.91 1010.55 889.527 948.549 911.941 873.664 967.342 974.692 842.642 920.473 1005.11 980.948 980.082 928.035 929.751 923.133 903.851 829.431 759.589 831.305 879.166 825.421 883.369 981.17 949.918 771.227 737.828 956.044 996.223 824.084 719.383 369.132 437.328 863.935 850.732 945.574 988.834 1033.7 1017.82 923.569 958.156 1005.88 1036.45 1069.83 877.718 804.585 952.11 962.132 954.215 896.218 842.714 853.128 803.047 728.577 782.873 946.037 925.653 791.583 842.424 787.288 640.302 756.022 899.128 786.479 345.031 913.129 1790.21 1810.15 1944.47 2010.49 2030.68 2037.97 1961.06 1828.83 1693.76 1868.05 1979.14 1699.84 1670.85 1758.64 1708.15 1824.65 1792.48 1658.73 1774 1638.14 1523.83 1663.33 1768.45 1742.82 1662.35 1641.28 1614.67 1509.31 1559.55 1675.56 1570.63 763.358 906.734 1833.15 1878.02 1899.96 1872.53 1754.16 1869.05 1982.47 1799.44 1591.11 1757.07 1862.2 1761.77 1742.3 1585.37 1603.48 1774.72 1703.36 1561.72 1713.6 1705.86 1616.65 1618.87 1654.83 1683.44 1658.28 1681.79 1689.75 1684.38 1732.69 1579.57 1456.99 774.656 807.899 1665.39 1774.82 1784.61 1746.17 1693.03 1672.93 1750.47 1916.97 1854.37 1786.24 1946.09 1911.09 1690.34 1559.98 1726.99 1789.99 1642.88 1491.33 1520.3 1569.07 1543.31 1578.59 1627.07 1663.7 1570.1 1676.54 1654.09 1577.43 1633.84 1529.4 1525.77 776.522 805.517 1570.53 1623.15 1729.71 1754.41 1788.72 1686.89 1680.29 1903.13 1823.85 1794.16 1971.29 1834.67 1498.93 1451.47 1619.07 1577.79 1593.68 1630.76 1560.78 1419.14 1488.82 1787.5 1761.31 1692.35 1647.67 1619.4 1626.51 1599.01 1465.71 1444.41 1618.89 821.979 840.966 1652.15 1587.61 1660.88 1726.93 1758.45 1750.19 1709.23 1806.51 1708.13 1733.95 1888.6 1784.15 1526.36 1381.09 1538.56 1607.36 1533.65 1620.11 1675.22 1472.42 1465.29 1763.33 1754.44 1647.24 1741.29 1714.16 1690.45 1694.89 1538.28 1387.24 1462.73 785.57 878.564 1704.89 1710.83 1775.43 1772.06 1838.42 1824.27 1711.22 1770.14 1693.07 1637.71 1782.06 1778.04 1710.61 1508.88 1514.72 1678.34 1665.72 1713.35 1802.14 1571.61 1461.29 1674.75 1591.05 1658.27 1828.8 1774.24 1717.24 1653.08 1605.13 1427.14 1353.88 724.381 920.377 1929.9 1951.77 1859.88 1851.07 1909.23 1931.63 1896.17 1771.02 1698.86 1773.18 1873.41 1867.35 1902.99 1763.45 1596.51 1626.69 1737.36 1753.02 1754.76 1670.96 1611 1691.31 1633.41 1876.19 1936.68 1688.88 1615.91 1703.05 1770.16 1602.21 1459.31 743.407 454.227 1065.15 1061.62 899.173 946.816 976.409 994.677 1019.39 892.478 841.219 936.029 1001.86 1010.24 1034.12 965.334 870.815 863.623 847.396 774.651 794.638 850.93 848.1 832.562 830.134 970.247 984.093 803.001 754.336 907.908 942.281 844.153 802.203 402.809 436.085 920.891 989.56 980.212 899.165 1000.4 1024.06 972.955 936.604 864.473 960.299 1086.56 970.023 767.252 944.125 988.374 815.857 894.577 955.292 985.996 891.799 758.01 902.972 1004.45 867.322 721.087 732.59 719.608 666.252 745.853 858.526 776.266 336.427 845.39 1802.38 1993.5 1977.57 1883.88 1995.01 1957.49 1965.8 1868.6 1678.89 1869.42 2022.54 1803.77 1656.3 1895.77 1749.74 1548.25 1746.37 1748.58 1770.93 1694.82 1591.67 1821.49 1887.45 1622.76 1544.22 1568.52 1479.65 1455.97 1556.51 1647.89 1590.17 789.09 819.476 1731.98 1785.03 1862.66 1977.36 1842.45 1827.42 2004.05 1840.02 1596.62 1761.33 1816.62 1673.53 1756.96 1854.89 1708.38 1604.11 1659.25 1557.71 1524.64 1655.24 1646.72 1626.66 1694.7 1552.21 1569.75 1683.98 1558.23 1475.58 1608.56 1645.11 1517.69 759.625 805.726 1679.05 1616.07 1654.82 1834.3 1769.29 1794.5 1814.3 1686.78 1594.89 1693.56 1744.41 1735.21 1833.57 1774.87 1744.31 1727.45 1608.42 1479.75 1487.91 1504.76 1466.61 1493.6 1596.98 1648.87 1499.32 1547.89 1581.51 1472.71 1524.02 1533.91 1388.1 637.568 820.558 1657.13 1602.59 1584.84 1709.46 1749.53 1759.92 1719.35 1684.26 1687.63 1693.01 1735.49 1713.55 1667.82 1595.04 1566.91 1580.41 1545.55 1459.47 1500.73 1406.5 1445.32 1700.8 1698.43 1678.84 1552.68 1492.8 1613.35 1582.92 1464.11 1470.59 1444.58 682.725 874.975 1711.76 1626.81 1670.03 1698.78 1654.23 1781.51 1776.5 1674.9 1671.17 1763.35 1774 1613.21 1465.82 1405.42 1449.66 1511.89 1498.53 1599.92 1755.95 1700.68 1655.38 1830.68 1853.04 1762.54 1776.3 1668.1 1661.21 1620.66 1447.1 1522.12 1650.39 815.533 917.131 1774.78 1764.75 1748.64 1664.64 1741.65 1783.47 1673.35 1718.27 1730.94 1710.65 1728.59 1672.07 1595.97 1486.94 1476.91 1622.18 1546.39 1660.84 1905.85 1748.17 1600.17 1686.58 1685.51 1699.54 1811.92 1761.85 1778.44 1667.8 1425.13 1407.39 1533.56 785.517 850.488 1791 1903.92 1870.67 1850.93 1873.39 1793.06 1761.7 1895.19 1854.27 1669.72 1774.09 1874.57 1833.55 1720.98 1605.61 1645.2 1602.71 1550.36 1716.31 1634.59 1480.28 1547.71 1525.14 1536.97 1670.14 1740.38 1747.6 1696.87 1509.2 1426.55 1437.52 715.696 383.331 899.404 998.369 996.751 1017.27 957.891 931.682 948.602 946.331 919.56 870.771 947.784 997.6 1001.23 916.047 808.745 810.233 810.264 745.308 813.888 833.142 743.713 776.459 779.514 773.214 834.549 853.656 800.343 853.657 793.189 748.858 794.088 393.593 507.625 1046.12 1063.07 984.636 966.524 1016.81 903.505 918.962 988.97 901.962 838.881 876.704 901.32 876.481 940.972 1003.09 966.256 925.443 882.274 968.967 933.797 794.641 959.774 939.562 727.863 689.693 783.797 786.338 670.061 707.433 777.005 773.265 398.409 935.424 1855.37 1947.28 1886.06 1851.86 2015.99 1851.28 1807.78 1868.59 1856.67 1818.73 1796.84 1718.92 1688.09 1841.89 1838.14 1763.35 1735.41 1728.45 1783.92 1738.46 1643.85 1875.62 1940.1 1634.53 1521.75 1630.5 1562.01 1386.55 1454.25 1519.72 1628.21 903.305 776.579 1630.85 1765.99 1812.46 1867.03 1956.31 1900.09 1869.68 1793.85 1737.54 1887.61 1836.36 1621.2 1731.14 1834.7 1683.02 1607.61 1675.08 1698.95 1603.05 1658.57 1673.32 1706.29 1915.32 1774.58 1561.13 1676.63 1621.5 1462.65 1521.5 1486.62 1462.11 771.422 742.002 1671.02 1761.51 1821.1 2010.53 1953.39 1918.61 1910.32 1752.42 1608.8 1662.13 1713.96 1663.46 1815.16 1823.33 1745.12 1761.89 1736.86 1659.53 1600.65 1623.86 1587.19 1572.3 1653.09 1617.04 1457.15 1568.82 1613.28 1552.04 1544.06 1452.25 1272.49 561.884 757.334 1626.37 1675.35 1612.58 1837.65 1909.73 1790.84 1731.41 1719.28 1792.51 1611.33 1618.18 1718.86 1770.35 1771.13 1725.02 1702.53 1583.69 1588.08 1612.63 1556.81 1547.18 1616.25 1529.27 1444.41 1434.1 1474.97 1704.16 1744.13 1601.53 1491.21 1352.44 651 771.362 1625.29 1703.51 1587.19 1651.46 1745.82 1686.8 1716.04 1659.67 1779.56 1842.9 1762.98 1655.47 1558.84 1565.01 1431.79 1499.57 1531.7 1591.31 1682.7 1636.12 1725.44 1829.28 1795.21 1789.97 1760.07 1545.89 1764.82 1831.11 1636.14 1610.02 1583.6 817.719 857.796 1741.9 1810.98 1784.27 1809.94 1813.91 1663.22 1685.77 1710.39 1783.6 1817.04 1783.25 1790.13 1609.98 1644.06 1646.06 1719.36 1697.81 1672.17 1723.4 1686.99 1839.6 1814.04 1822.04 1965.78 1853.22 1568.38 1631.51 1579.73 1451.64 1561.68 1654.61 850.915 839.445 1692.31 1841.18 1931.21 1989.31 1958.4 1698.37 1668.69 1926.02 1910 1669.86 1800.96 2027.95 1947.42 1791.18 1804.66 1764.51 1569.85 1588.71 1673.26 1698.35 1680.82 1567.3 1625.23 1625.56 1562.43 1522.95 1561.44 1462.34 1358.17 1498.81 1598.44 831.432 388.899 798.741 938.1 1031.61 1022.01 976.84 897.418 897.017 994.221 939.412 838.755 960.243 1034.3 1021.55 830.558 762.521 793.565 691.786 726.523 832.485 860.629 782.55 748.156 807.437 754.463 763.25 764.365 758.044 775.481 710.507 764.277 840.319 442.593 558.741 1011.12 896.414 987.524 1068.1 1022.98 931.581 906.598 956.952 998.649 942.416 816.604 794.664 898.336 890.54 947.048 1049.39 896.509 809.137 873.835 851.78 798.968 857.604 908.105 805.403 730.929 852.329 906.628 814.743 828.914 766.78 701.728 387.898 1000.15 1836.65 1776.54 1863.67 1897.52 1924.78 1810.87 1716.21 1813.5 1988 1885.79 1715.67 1670.94 1712.86 1708.93 1804.17 1966.77 1732.91 1662.62 1698.66 1609.7 1622.92 1717.49 1858.39 1756.19 1581.48 1676.99 1716.2 1553.92 1488.49 1493.22 1481.45 741.356 861.723 1710.07 1797.45 1830.18 1780.04 1800.04 1811.24 1812.62 1764.47 1801.79 1858.07 1818.09 1759.08 1716.05 1714.47 1724.37 1812.41 1764.76 1707.65 1631.77 1629.37 1720.14 1664.82 1781.59 1785.23 1620.01 1755.73 1777.81 1581.91 1480.53 1457.57 1363.41 611.998 776.848 1626.04 1795.83 1922.23 1855.35 1735.88 1785.16 1852.87 1742.17 1690.22 1739.4 1744.23 1694.92 1629.28 1741.64 1817.5 1849.93 1920.9 1733.16 1565.43 1720.69 1736.43 1583.39 1615.52 1688.81 1599.15 1799.95 1836.99 1670.06 1659.89 1459.83 1246.91 562.332 729.782 1606.42 1747.82 1641.07 1642.9 1722.31 1667.77 1606.95 1616.09 1734.12 1656.38 1619.48 1623.37 1597.76 1716.41 1812.49 1801.51 1764.24 1681.29 1534.88 1635.66 1686 1658.11 1506.58 1475.51 1571.77 1681.07 1771.69 1742.3 1687.08 1416.97 1333.88 703.778 770.321 1667.15 1721.4 1548.14 1690.34 1910.24 1731.11 1656.7 1609.25 1658.08 1769.69 1671.02 1542.39 1563.02 1658.43 1689.48 1765.07 1692.03 1626.37 1587.32 1599.03 1712.93 1782.53 1619.83 1506.26 1670.47 1660.25 1778.72 1836.27 1698.53 1469.17 1428.98 814.748 845.819 1637.76 1675.32 1808.24 1948.55 1999.48 1806.39 1669.4 1617.84 1687.65 1788.95 1765.18 1714.45 1651.62 1783.13 1849.44 1871.25 1841.4 1761.71 1701.75 1654.73 1713.17 1771.26 1734.96 1771.91 1806.73 1554.92 1555.34 1614.45 1649.39 1661.64 1534.55 763.74 870.63 1702.09 1811.89 1858.99 1847.83 1934.3 1818.49 1716.46 1763.92 1833.33 1775.15 1823.26 1971.65 1961.31 1878.86 1861.75 1823.33 1693.16 1819.7 1824.14 1705.89 1601.99 1551.22 1665.37 1705.51 1614.53 1412.73 1388.06 1396.5 1549.15 1691.07 1630.44 813.957 421.884 866.565 988.67 926.018 851.442 960.399 928.656 946.665 973.491 947.416 924.224 934.823 988.331 1002.7 883.307 839.543 870.545 772.096 882.069 933.297 863.772 755.99 682.823 827.881 818.723 736.183 705.869 708.512 703.341 750.167 810.327 854.202 464.979 545.335 1007.79 961.959 1037.84 960.527 875.598 945.889 931.744 857.133 960.466 1048.97 1019.21 913.624 842.605 860.675 872.781 928.479 846.116 872.079 983.86 917.319 846.831 781.583 800.295 852.762 798.429 843.917 883.171 841.038 805.837 710.038 775.734 446.978 924.985 1852.43 1902.25 1948.69 1872.31 1762.75 1766.2 1793.15 1863.96 1909.45 1968.42 2075.03 1865.52 1655.99 1667.82 1701.39 1834.09 1759.06 1738.74 1860.02 1744.28 1636.77 1600.42 1684.22 1736.65 1635.48 1607.55 1694.54 1710.06 1565.78 1458.88 1484.2 756.8 919.537 1835.78 1864.16 1857.76 1825.4 1772.72 1730.92 1796 1879.79 1779.6 1795.82 2013.98 1942.39 1651.45 1664.17 1798.28 1879.45 1840.14 1731.08 1701.17 1664.37 1628.49 1565.53 1685.47 1798.14 1762.33 1597.66 1590.67 1754.75 1639.69 1567.92 1567.83 740.266 939.742 1793.65 1783.06 1750 1593.83 1639.22 1723.46 1728.52 1641.81 1609.35 1657.76 1735.25 1747.67 1526.14 1719.88 1869.85 1791.45 1834.71 1676.2 1587.11 1706.95 1739.23 1630.3 1657.37 1789.92 1812.34 1724.23 1650.32 1766.63 1701.89 1517.15 1561.18 786.081 860.174 1742.78 1747.94 1553.71 1465.67 1586.81 1611.32 1531.05 1464.96 1536.64 1530.69 1546.67 1550.33 1456.26 1622.49 1750.7 1720.57 1798.98 1624.33 1531.62 1656.67 1664.54 1625.01 1515.73 1572.84 1620.13 1659.51 1656.6 1648.02 1579.6 1363.6 1384.87 732.547 903.832 1809.58 1779.95 1738.11 1919 1869.83 1669.04 1602.58 1566.99 1640.53 1635.1 1625.72 1592.34 1518.72 1538.22 1675.75 1760.65 1782.96 1692.64 1626.58 1623 1546.05 1492.02 1445.25 1417.37 1601.1 1706.47 1643.93 1613.3 1555.89 1487.23 1498.02 783.445 850.744 1675.61 1773.25 1900.61 2010.18 1915.74 1856.36 1808.65 1712.83 1768.97 1716.55 1705.31 1743.5 1671.92 1539.34 1527.89 1654.21 1759.78 1778.4 1736.8 1660.52 1593.2 1654.21 1654.39 1577.21 1732.63 1597.67 1587.76 1713.3 1616.69 1697.86 1631.95 751.754 929.63 1808.76 1829.49 1784.15 1666.67 1760.87 1914.79 1883.24 1809.6 1870.79 1836.57 1752.91 1821.01 1800.79 1698 1595.37 1627.28 1706.61 1775.93 1754.87 1599.54 1550.26 1654.99 1756.11 1713.33 1583.7 1440.2 1507.7 1572.12 1541.47 1617.37 1551.49 702.567 522.399 1002.46 947.429 871.038 790.029 881.804 929.004 940.049 967.642 984.437 1005.81 903.737 876.699 879.416 937.244 892.686 830.768 838.324 877.625 875.129 774.889 739.248 751.395 887.065 856.312 719.095 779.683 778.284 705.002 723.213 741.204 734.499 357.348 281.877 548.227 570.334 519.425 422.463 413.168 456.146 455.84 432.409 475.05 471.581 514.48 464.855 388.986 434.917 429.576 459.756 417.56 453.608 553.472 493.161 432.088 392.86 363.993 403.781 417.913 410.694 401.525 361.626 330.93 328.048 429.578 253.695 449.436 960.728 1037.5 965.604 912.245 906.477 896.454 926.936 1001.42 952.471 924.09 1080.53 930.329 767.841 857.244 839.341 869.024 876.776 904.873 1031.26 952.486 813.376 798.113 827.169 847.51 818.391 784.893 879.41 873.696 768.597 731.102 803.561 448.048 443.414 912.364 932.63 873.904 887.211 949.778 881.65 887.479 1002.61 886.546 833.405 1027.58 951.955 781.568 845.637 906.452 901.292 903.177 890.998 902.74 867.036 762.21 786.685 901.701 931.855 894.044 726.824 766.305 975.143 905.076 812.723 867.435 457.284 503.257 960.004 893.68 792.142 773.531 884.781 868.917 809.776 827.845 798.019 727.608 844.926 868.917 758.431 856.862 927.278 868.123 821.986 821.26 844.163 851.299 851.492 865.043 870.418 851.402 908.813 811.306 742.438 928.55 815.609 726.682 902.778 488.775 473.215 920.455 890.757 797.034 797.263 855.506 841.596 758.469 731.349 787.753 716.418 764.486 782.593 716.155 798.36 854.165 803.274 785.768 755.621 816.162 821.91 782.889 753.447 732.773 785.121 779.677 798.339 856.743 857.322 709.598 674.421 761.251 397.879 490.936 953.728 957.279 957.735 1036.91 926.734 822.437 800.442 784.078 886.262 817.392 845.601 876.063 745.834 695.595 750.287 805.337 847.374 798.449 823.224 773.101 669.118 612.103 633.894 740.075 783.834 806.852 815.732 792.243 758.159 842.556 841.692 388.239 460.932 919.198 981.829 1042.39 1086.24 908.304 892.439 957.251 904.822 947.663 837.95 874.567 969.531 842.928 656.512 610.725 730.213 880.719 898.475 868.031 837.118 790.591 767.646 752.7 729.364 789.415 759.146 799.267 873.035 775.265 876.921 931.007 427.853 541.472 981.594 933.653 967.255 896.333 846.973 956.901 967.572 924.864 970.993 925.946 884.78 895.488 847.964 810.697 733.528 732.988 839.832 853.6 842.487 834.368 848.074 874.193 903.125 869.047 787.053 730.413 812.908 821.231 687.437 753.638 801.915 368.658 325.663 555.812 446.561 449.981 425.848 438.209 472.878 445.686 467.015 510.733 535.683 474.729 401.863 390.433 484.971 449.515 380.938 398.744 379.481 400.727 392.03 414.282 448.814 483.439 457.913 417.041 438.46 426.649 348.594 308.934 361.866 360.676 157.01 285.852 564.131 572.58 285.852 285.852 564.131 1114.52 572.58 467.311 931.103 904.334 467.311 285.852 285.852 564.131 572.58 285.852 467.311 285.852 278.28 493.906 541.945 493.906 1008.3 463.792 927.066 975.774 278.28 278.28 493.906 541.945 463.792 278.28 215.626 465.673 466.358 465.673 1028.29 463.275 933.989 922.483 215.626 215.626 465.673 466.358 463.275 215.626 250.046 498.899 561.934 498.899 1065.38 470.714 956.518 1069.17 250.046 250.046 498.899 561.934 470.714 250.046 248.853 504.272 503.45 504.272 1022.57 485.803 963.992 969.135 248.853 248.853 504.272 503.45 485.803 248.853 255.42 524.466 519.117 524.466 1024.22 478.189 1012.45 1030.5 255.42 255.42 524.466 519.117 478.189 255.42 269.047 559.849 505.102 559.849 1025.51 534.265 1029.77 981.739 269.047 269.047 559.849 505.102 534.265 269.047 290.802 546.797 520.407 546.797 973.017 495.502 971.213 972.257 290.802 290.802 546.797 520.407 495.502 290.802 255.995 474.036 452.609 474.036 962.858 475.711 1002.07 905.62 255.995 255.995 474.036 452.609 475.711 255.995 218.041 391.068 510.249 391.068 1011.28 526.359 884.266 1063.41 218.041 218.041 391.068 510.249 526.359 218.041 173.027 404.108 501.032 404.108 896.099 357.907 844.775 887.616 173.027 173.027 404.108 501.032 357.907 173.027 231.081 466.33 395.066 466.33 899.277 486.868 958.414 861.034 231.081 231.081 466.33 395.066 486.868 231.081 235.249 428.903 504.211 428.903 941.575 471.546 908.208 1011.59 235.249 235.249 428.903 504.211 471.546 235.249 193.655 345.394 437.364 345.394 837.563 436.662 771.268 870.253 193.655 193.655 345.394 437.364 436.662 193.655 151.739 387.016 400.199 387.016 825.401 334.606 781.632 852.287 151.739 151.739 387.016 400.199 334.606 151.739 235.277 410.135 425.203 410.135 886.966 447.025 848.621 901.549 235.277 235.277 410.135 425.203 447.025 235.277 174.858 409.478 461.763 409.478 928.852 401.596 876.321 894.583 174.858 174.858 409.478 461.763 401.596 174.858 234.62 452.216 467.089 452.216 906.481 474.725 885.221 961.918 234.62 234.62 452.216 467.089 474.725 234.62 217.595 460.188 439.391 460.188 895.089 410.496 884.454 901.339 217.595 217.595 460.188 439.391 410.496 217.595 242.593 560.161 455.698 560.161 972.926 473.958 984.85 975.24 242.593 242.593 560.161 455.698 473.958 242.593 317.568 528.77 517.228 528.77 931.837 510.892 872.861 973.56 317.568 317.568 528.77 517.228 510.892 317.568 211.202 415.879 414.609 415.879 919.901 361.969 849.227 778.097 211.202 211.202 415.879 414.609 361.969 211.202 204.678 365.217 505.293 365.217 901.985 487.258 815.561 963.036 204.678 204.678 365.217 505.293 487.258 204.678 160.54 400.237 396.692 400.237 803.387 328.303 778.373 766.923 160.54 160.54 400.237 396.692 328.303 160.54 239.697 412.524 406.695 412.524 778.028 450.07 864.704 816.018 239.697 239.697 412.524 406.695 450.07 239.697 172.827 415.454 371.334 415.454 800.198 414.634 904.944 816.814 172.827 172.827 415.454 371.334 414.634 172.827 242.627 406.894 428.864 406.894 769.494 490.31 873.164 894.69 242.627 242.627 406.894 428.864 490.31 242.627 164.267 418.807 340.63 418.807 808.593 382.854 844.351 763.035 164.267 164.267 418.807 340.63 382.854 164.267 254.539 509.368 467.963 509.368 939.535 461.497 888.929 984.438 254.539 254.539 509.368 467.963 461.497 254.539 254.829 479.853 471.572 479.853 900.968 427.432 870.677 918.621 254.829 254.829 479.853 471.572 427.432 254.829 225.025 466.219 429.395 466.219 884.788 443.246 914.924 859.475 225.025 225.025 466.219 429.395 443.246 225.025 241.195 241.195 455.393 241.195 455.393 471.678 471.678 880.288 241.195 241.195 241.195 455.393 471.678 241.195 181.46 366.971 765.583 331.754 400.472 798.862 813.218 400.472 181.46 366.971 331.754 181.46 400.472 181.46 433.16 889.954 398.39 860.848 852.123 185.512 433.16 433.829 398.39 185.512 468.317 963.357 462.458 859.192 939.426 247.648 468.317 456.125 462.458 247.648 457.619 972.918 396.734 829.074 901.021 220.668 457.619 507.233 396.734 220.668 459.72 977.071 432.34 902.781 892.327 236.951 459.72 465.686 432.34 236.951 487.987 988.023 470.441 976.341 904.967 222.769 487.987 511.385 470.441 222.769 469.918 928.487 505.9 1038.04 953.888 265.218 469.918 476.638 505.9 265.218 424.416 904.859 532.144 965.581 1034.75 204.7 424.416 451.849 532.144 204.7 528.033 1006.18 433.437 947.876 901.843 219.715 528.033 453.01 433.437 219.715 493.198 939.749 514.439 865.787 1015.28 308.318 493.198 553.165 514.439 308.318 440.667 852.551 351.348 891.435 810.784 184.88 440.667 386.583 351.348 184.88 492.084 973.346 540.087 1050.5 1032.14 255.787 492.084 465.968 540.087 255.787 479.305 940.268 510.414 937.502 1078 236.297 479.305 507.378 510.414 236.297 425.874 884.978 427.087 806.5 835.067 243.007 425.874 432.889 427.087 243.007 394.616 928.435 379.412 772.842 892.753 182.867 394.616 452.089 379.412 182.867 438.487 909.166 393.43 820.594 946.921 211.748 438.487 476.346 393.43 211.748 466.842 927.648 427.164 867.367 836.474 226.738 466.842 432.82 427.164 226.738 433.005 956.776 440.203 797.531 929.417 240.104 433.005 494.828 440.203 240.104 424.266 981.489 357.329 783.885 817.28 192.901 424.266 461.947 357.329 192.901 424.689 975.873 426.556 876.311 876.02 231.366 424.689 519.542 426.556 231.366 344.091 819.819 449.755 764.166 945.04 193.323 344.091 456.331 449.755 193.323 433.348 821.232 314.411 796.712 712.707 150.768 433.348 363.488 314.411 150.768 450.344 827.975 482.301 842.261 851.134 282.58 450.344 457.744 482.301 282.58 378.136 779.555 359.96 724.049 783.883 167.764 378.136 370.231 359.96 167.764 452.18 854.804 364.089 764.692 835.399 210.373 452.18 409.324 364.089 210.373 489.49 911.306 400.603 865.458 804.827 241.807 489.49 445.48 400.603 241.807 466.269 888.23 464.855 907.343 892.61 247.683 466.269 465.826 464.855 247.683 425.544 938.879 442.488 881.264 898.043 218.586 425.544 422.405 442.488 218.586 379.561 963.523 438.777 803.82 931.436 206.958 379.561 516.474 438.777 206.958 390.824 877.128 365.043 789.538 797.61 172.603 390.824 447.049 365.043 172.603 448.704 854.974 424.495 785.931 811.026 218.221 448.704 430.079 424.495 218.221 230.483 424.895 361.436 361.436 757.506 230.483 230.483 424.895 361.436 230.483 219.012 431.89 899.757 481.464 360.167 797.453 824.956 360.167 219.012 431.89 481.464 219.012 360.167 219.012 427.688 901.595 437.286 870.445 868.132 212.878 427.688 418.294 437.286 212.878 390.876 877.09 433.159 824.001 863.391 214.809 390.876 483.301 433.159 214.809 371.455 820.43 390.841 817.999 788.488 176.066 371.455 393.789 390.841 176.066 443.061 820.224 427.158 954.538 956.215 195.389 443.061 426.641 427.158 195.389 488.354 870.832 527.38 995.748 832.778 247.672 488.354 393.582 527.38 247.672 568.126 1060.15 468.368 987.447 908.296 240.682 568.126 477.25 468.368 240.682 541.165 1031.73 519.078 940.2 995.516 327.444 541.165 582.897 519.078 327.444 419.843 910.948 421.122 864.763 857.607 213.721 419.843 448.833 421.122 213.721 372.589 886.316 443.641 838.622 954.402 206.121 372.589 462.115 443.641 206.121 450.768 990.371 394.981 879.681 827.475 166.468 450.768 424.201 394.981 166.468 558.417 1136.79 484.7 980.975 925.972 284.3 558.417 566.171 484.7 284.3 458.197 972.795 496.275 874.023 1024.98 274.117 458.197 570.618 496.275 274.117 380.625 842.842 377.747 744.223 774.837 184.08 380.625 402.177 377.747 184.08 378.226 911.239 366.476 791.523 848.093 196.545 378.226 440.665 366.476 196.545 382.108 874.229 425.047 835.223 892.705 181.681 382.108 470.575 425.047 181.681 400.525 838.242 410.176 765.27 849.056 200.426 400.525 403.654 410.176 200.426 364.526 789.921 355.094 708.206 764.648 200.098 364.526 434.588 355.094 200.098 359.619 711.811 353.111 711.41 710.611 164.428 359.619 355.333 353.111 164.428 451.622 845.186 358.299 835.362 709.022 195.19 451.622 356.478 358.299 195.19 420.075 837.927 477.064 860.428 908.837 256.431 420.075 488.708 477.064 256.431 363.364 742.609 383.364 754.192 806.046 163.643 363.364 349.219 383.364 163.643 391.917 807.043 370.827 737.421 786.548 199.721 391.917 393.39 370.827 199.721 345.913 839.727 366.594 750.576 791.226 192.196 345.913 413.652 366.594 192.196 312.512 785.422 383.982 783.856 883.817 153.717 312.512 426.075 383.982 153.717 375.968 786.131 399.873 759.373 815.083 158.796 375.968 359.347 399.873 158.796 441.073 902.422 359.5 798.275 763.147 217.172 441.073 426.784 359.5 217.172 455.72 890.6 438.775 870.699 881.991 223.901 455.72 475.638 438.775 223.901 424.259 765.524 431.924 803.078 940.172 231.819 424.259 414.962 431.924 231.819 398.714 731.508 371.154 800.073 695.143 192.44 398.714 350.561 371.154 192.44 337.226 713.557 428.919 825.619 819.27 206.274 337.226 380.946 428.919 206.274 130.952 332.611 396.7 396.7 761.358 130.952 130.952 332.611 396.7 130.952 141.156 365.563 793.331 343.492 334.865 751.942 726.42 334.865 141.156 365.563 343.492 141.156 334.865 141.156 442.758 829.928 417.077 830.886 846.184 224.408 442.758 449.838 417.077 224.408 433.125 774.789 413.809 821.831 820.494 218.35 433.125 380.09 413.809 218.35 446.544 924.273 408.022 892.202 808.442 214.775 446.544 394.699 408.022 214.775 511.477 968.77 484.18 1006.03 1041.43 231.769 511.477 529.574 484.18 231.769 507.395 870.242 521.845 1018.76 847.583 279.708 507.395 439.196 521.845 279.708 419.321 843.665 496.911 928.442 904.551 227.686 419.321 431.046 496.911 227.686 399.035 821.393 431.531 855.623 882.16 191.634 399.035 412.619 431.531 191.634 444.92 901.061 424.092 826.905 820.234 207.4 444.92 408.774 424.092 207.4 466.033 895.562 402.812 766.195 905.553 237.52 466.033 492.287 402.812 237.52 428.913 763.076 363.382 787.526 755.703 228.513 428.913 403.274 363.382 228.513 422.558 814.168 424.143 888.079 800 200.4 422.558 359.802 424.143 200.4 415.825 827.027 463.935 841.828 855.133 222.158 415.825 454.367 463.935 222.158 363.598 780.089 377.892 799.843 793.741 193.667 363.598 372.66 377.892 193.667 413.296 829.559 421.951 932.156 798.614 169.93 413.296 407.428 421.951 169.93 453.115 867.533 510.205 855.077 886.986 243.366 453.115 422.131 510.205 243.366 364.746 775.461 344.872 732.767 828.335 209.749 364.746 445.402 344.872 209.749 343.679 685.338 387.895 777.443 761.065 154.996 343.679 330.059 387.895 154.996 351.791 707.822 389.548 834.518 802.918 188.683 351.791 355.278 389.548 188.683 383.741 772.672 444.97 846.188 845.651 163.108 383.741 352.544 444.97 163.108 440.353 876.956 401.218 873.298 766.829 220.632 440.353 420.128 401.218 220.632 390.828 849.986 472.08 886.216 858.664 219.721 390.828 456.828 472.08 219.721 345.504 770.732 414.136 748.366 810.479 171.107 345.504 393.158 414.136 171.107 404.663 835.316 334.231 769.683 679.337 174.397 404.663 377.574 334.231 174.397 471.343 913.478 435.453 928.572 876.133 230.266 471.343 457.742 435.453 230.266 383.405 792.099 493.119 848.456 872.949 241.077 383.405 455.736 493.119 241.077 357.201 742.716 355.337 812.606 772.197 142.328 357.201 336.363 355.337 142.328 414.979 931.563 457.269 832.491 813.712 214.874 414.979 406.353 457.269 214.874 378.819 869.792 375.221 798.905 947.44 200.105 378.819 525.21 375.221 200.105 401.359 782.905 423.684 838.245 782.447 178.714 401.359 344.581 423.684 178.714 488.393 867.071 414.561 856.019 817.243 222.645 488.393 438.324 414.561 222.645 265.747 428.747 441.458 441.458 794.851 265.747 265.747 428.747 441.458 265.747 193.71 386.379 779.273 382.927 417.248 824.065 890.922 417.248 193.71 386.379 382.927 193.71 417.248 193.71 388.129 836.75 406.816 853.313 874.342 192.669 388.129 396.345 406.816 192.669 388.706 854.146 446.497 766.797 950.236 195.459 388.706 440.404 446.497 195.459 445.658 925.594 320.3 726.339 766.36 193.247 445.658 413.742 320.3 193.247 494.548 920.238 406.038 862.741 839.32 252.411 494.548 511.851 406.038 252.411 511.362 881.892 456.703 923.587 865.177 242.136 511.362 408.387 456.703 242.136 509.122 943.047 466.885 895.726 896.267 269.225 509.122 473.505 466.885 269.225 456.588 881.001 428.841 869.132 820.436 239.896 456.588 469.541 428.841 239.896 381.985 824.726 440.292 813.479 811.066 216.692 381.985 411.46 440.292 216.692 300.162 765.695 373.188 673.924 831.979 165.293 300.162 413.266 373.188 165.293 358.612 792.627 300.736 775.056 745.373 134.869 358.612 352.429 300.736 134.869 465.52 840.964 474.32 934.803 934.017 223.743 465.52 440.198 474.32 223.743 426.002 821.847 460.483 855.179 875.336 241.777 426.002 400.766 460.483 241.777 436.246 812.266 394.696 914.298 838.649 184.225 436.246 421.081 394.696 184.225 518.859 856.041 519.602 988.75 887.446 252.021 518.859 391.186 519.602 252.021 401.961 847.788 469.148 814.567 869.558 266.839 401.961 464.855 469.148 266.839 368.021 813.938 345.419 751.728 796.26 135.122 368.021 382.933 345.419 135.122 433.764 878.645 406.309 843.18 803.995 232.899 433.764 431.005 406.309 232.899 482.727 940.747 436.872 965.791 928.153 200.865 482.727 447.64 436.872 200.865 462.447 839.807 528.92 908.468 958.498 281.861 462.447 493.107 528.92 281.861 432.945 748.537 379.548 878.472 801.867 180.586 432.945 346.7 379.548 180.586 495.388 819.157 498.924 902.229 833.079 252.359 495.388 401.836 498.924 252.359 402.862 719.084 403.305 765.327 829.556 243.029 402.862 417.321 403.305 243.029 365.02 720.155 362.022 828.5 689.359 159.833 365.02 301.763 362.022 159.833 457.228 835.604 466.479 892.463 924.051 205.187 457.228 418.391 466.479 205.187 465.051 853.048 425.984 807.912 757.718 252.042 465.051 417.213 425.984 252.042 455.405 843.193 381.928 852.453 843.108 213.009 455.405 435.834 381.928 213.009 417.512 829.588 470.525 901.877 795.199 242.396 417.512 407.359 470.525 242.396 420.086 860.095 431.352 846.071 827.93 175.116 420.086 422.229 431.352 175.116 436.886 816.785 414.719 794.939 792.737 244.97 436.886 437.866 414.719 244.97 367.627 745.022 380.22 794.002 835.106 191.916 367.627 378.919 380.22 191.916 175.711 366.103 413.782 413.782 765.347 175.711 175.711 366.103 413.782 175.711 223.539 437.686 985.991 507.994 469.302 865.627 948.278 469.302 223.539 437.686 507.994 223.539 469.302 223.539 465.185 987.829 396.325 862.949 911.21 214.147 465.185 477.997 396.325 214.147 378.091 862.449 466.624 854.673 1025.17 251.038 378.091 509.832 466.624 251.038 280.68 680.086 388.049 740.622 846.726 127.053 280.68 352.617 388.049 127.053 368.193 784.259 352.573 736.433 732.747 153.627 368.193 327.469 352.573 153.627 412.226 879.552 383.86 815.009 864.558 214.566 412.226 456.79 383.86 214.566 386.604 773.656 431.149 824.093 913.165 197.66 386.604 422.761 431.149 197.66 412.544 750.5 392.944 864.029 760.003 188.944 412.544 350.895 392.944 188.944 431.494 818.319 471.085 886.866 833.274 223.6 431.494 399.606 471.085 223.6 373.762 811.658 415.781 795.754 857.712 207.895 373.762 418.713 415.781 207.895 416.444 886.763 379.973 801.011 808.831 165.867 416.444 392.944 379.973 165.867 469.283 968.389 421.038 886.474 830.502 250.577 469.283 493.819 421.038 250.577 429.176 892.138 465.436 852.447 928.666 218.706 429.176 474.57 465.436 218.706 478.052 913.828 387.011 895.081 789.788 210.47 478.052 417.568 387.011 210.47 469.891 900.963 508.07 919.223 985.946 267.582 469.891 496.26 508.07 267.582 412.606 818.03 411.153 789.015 842.696 202.309 412.606 404.703 411.153 202.309 383.707 786.316 377.862 766.151 793.06 210.297 383.707 413.327 377.862 210.297 409.416 853.502 388.289 831.988 830.714 173.41 409.416 372.989 388.289 173.41 483.065 945.904 443.699 900.885 902.712 236.006 483.065 480.513 443.699 236.006 446.021 920.557 457.186 846.688 840.477 247.059 446.021 465.391 457.186 247.059 445.527 886.409 389.502 836.458 851.519 198.962 445.527 455.166 389.502 198.962 406.841 843.478 446.957 810.861 857.378 246.565 406.841 431.243 446.957 246.565 362.464 799.83 363.904 777.114 822.556 160.276 362.464 412.235 363.904 160.276 463.481 893.255 413.21 962.581 811.878 202.189 463.481 387.595 413.21 202.189 435.235 846.165 549.371 991.234 1067.24 261.292 435.235 505.66 549.371 261.292 342.861 747.778 441.863 850.373 786.182 173.943 342.861 340.505 441.863 173.943 397.048 795.113 408.51 838.963 876.812 168.919 397.048 407.273 408.51 168.919 484.365 793.541 430.453 930.549 820.302 228.129 484.365 387.84 430.453 228.129 425.985 760.572 500.096 830.88 856.681 256.236 425.985 405.701 500.096 256.236 358.053 811.059 330.784 744.415 671.435 169.749 358.053 354.871 330.784 169.749 426.375 855.431 413.631 837.076 885.123 188.304 426.375 456.187 413.631 188.304 238.071 399.244 423.446 423.446 833.037 238.071 238.071 399.244 423.446 238.071 245.764 427.941 873.497 440.283 490.841 913.761 957.49 490.841 245.764 427.941 440.283 245.764 490.841 245.764 397.764 948.555 422.92 838.325 956.173 182.178 397.764 433.213 422.92 182.178 476.582 1009.45 415.404 924.802 929.946 215.586 476.582 515.341 415.404 215.586 459.942 899.387 509.397 940.869 988.177 260.996 459.942 494.108 509.397 260.996 368.24 813.046 431.472 852.693 876.388 198.946 368.24 405.279 431.472 198.946 402.783 898.171 421.222 937.301 854.496 169.294 402.783 407.767 421.222 169.294 437.489 899.511 516.079 932.326 963.974 233.489 437.489 490.404 516.079 233.489 451.485 842.776 416.247 864.687 882.217 204 451.485 409.108 416.247 204 455.372 872.668 448.44 868.335 880.949 247.485 455.372 433.668 448.44 247.485 421.992 854.885 419.895 830.099 859.965 207.887 421.992 438.999 419.895 207.887 384.567 752.57 410.204 816.99 873.582 214.106 384.567 415.886 410.204 214.106 417.191 790.78 406.786 914.448 808.02 170.462 417.191 336.684 406.786 170.462 423.27 826.317 507.662 897.781 927.521 246.73 423.27 454.097 507.662 246.73 417.029 861.906 390.119 809.378 812.672 176.54 417.029 372.22 390.119 176.54 449.333 927.678 419.259 869.469 920.807 240.488 449.333 489.686 419.259 240.488 376.41 817.725 450.21 829.824 928.54 208.845 376.41 437.992 450.21 208.845 382.444 837.458 379.614 808.048 839.492 167.565 382.444 379.733 379.614 167.565 422.572 879.924 428.434 902.853 931.017 214.879 422.572 457.725 428.434 214.879 417.82 797.285 474.419 914.432 886.676 207.693 417.82 422.199 474.419 207.693 400.667 771.438 440.013 863.286 812.471 210.127 400.667 375.086 440.013 210.127 390.931 822.488 423.273 815.131 855.389 190.54 390.931 396.353 423.273 190.54 404.02 836.456 391.858 775.756 814.55 200.392 404.02 426.135 391.858 200.392 414.65 834.604 383.898 770.962 795.047 203.628 414.65 410.321 383.898 203.628 499.101 985.862 387.064 904.21 845.438 211.022 499.101 424.283 387.064 211.022 555.999 1007.26 517.146 968.859 995.533 288.079 555.999 561.579 517.146 288.079 507.512 915.215 451.713 850.38 895.836 267.92 507.512 445.677 451.713 267.92 441.915 902.001 398.667 812.513 784.411 239.591 441.915 469.538 398.667 239.591 446.184 883.443 413.846 899.263 870.854 202.324 446.184 432.462 413.846 202.324 404.896 767.544 485.417 850.264 938.912 243.86 404.896 450.981 485.417 243.86 386.362 745.499 364.846 737.598 746.512 161.035 386.362 316.564 364.846 161.035 410.701 862.729 372.752 788.7 745.724 225.326 410.701 428.936 372.752 225.326 185.374 433.793 415.948 415.948 846.331 185.374 185.374 433.793 415.948 185.374 245.077 485.819 1040.17 517.207 245.077 485.819 517.207 245.077 245.077 485.819 517.207 245.077 245.077 245.077 440.56 937.564 240.742 440.56 522.96 240.742 440.56 522.96 240.742 240.742 448.22 908.673 199.818 448.22 414.604 199.818 448.22 414.604 199.818 199.818 480.927 965.178 248.402 480.927 494.069 248.402 480.927 494.069 248.402 248.402 484.453 917.839 232.526 484.453 471.11 232.526 484.453 471.11 232.526 232.526 534.518 920.299 251.928 534.518 446.729 251.928 534.518 446.729 251.928 251.928 494.838 946.68 282.59 494.838 473.57 282.59 494.838 473.57 282.59 282.59 413.202 920.39 212.248 413.202 473.109 212.248 413.202 473.109 212.248 212.248 412.964 868.247 200.955 412.964 447.281 200.955 412.964 447.281 200.955 200.955 408.107 878.662 212.009 408.107 420.966 212.009 408.107 420.966 212.009 212.009 432.423 929.033 196.098 432.423 457.696 196.098 432.423 457.696 196.098 196.098 497.257 944.76 236.325 497.257 471.336 236.325 497.257 471.336 236.325 236.325 474.511 913.876 260.933 474.511 473.424 260.933 474.511 473.424 260.933 260.933 392.349 871.574 213.578 392.349 440.452 213.578 392.349 440.452 213.578 213.578 420.136 921.669 178.771 420.136 431.121 178.771 420.136 431.121 178.771 178.771 453.415 950.308 241.365 453.415 490.548 241.365 453.415 490.548 241.365 241.365 425.604 933.051 212.049 425.604 459.76 212.049 425.604 459.76 212.049 212.049 480.281 937.77 213.555 480.281 473.292 213.555 480.281 473.292 213.555 213.555 496.612 901.863 266.726 496.612 464.478 266.726 496.612 464.478 266.726 266.726 462.619 896.422 229.886 462.619 437.385 229.886 462.619 437.385 229.886 229.886 424.199 847.451 232.733 424.199 459.037 232.733 424.199 459.037 232.733 232.733 371.736 773.14 191.466 371.736 388.414 191.466 371.736 388.414 191.466 191.466 356.312 805.88 180.27 356.312 384.726 180.27 356.312 384.726 180.27 180.27 405.109 855.109 176.042 405.109 421.154 176.042 405.109 421.154 176.042 176.042 412.86 884.114 229.067 412.86 433.954 229.067 412.86 433.954 229.067 229.067 342.868 765.032 183.792 342.868 450.16 183.792 342.868 450.16 183.792 183.792 370.598 753.265 159.076 370.598 314.873 159.076 370.598 314.873 159.076 159.076 453.079 926.323 211.522 453.079 438.392 211.522 453.079 438.392 211.522 211.522 445.368 917.88 241.557 445.368 487.931 241.557 445.368 487.931 241.557 241.557 351.237 746.738 203.811 351.237 429.949 203.811 351.237 429.949 203.811 203.811 377.999 729.327 147.425 377.999 316.789 147.425 377.999 316.789 147.425 147.425 230.574 412.538 230.574 230.574 412.538 230.574 230.574 412.538 230.574 230.574 550.393 500.315 286.729 988.003 500.315 949.005 915.585 437.023 286.729 550.393 500.315 286.729 437.023 286.729 514.396 487.688 933.852 971.19 931.665 263.665 514.396 487.688 511.982 263.665 562.62 446.165 1043.51 1057.66 891.656 250.732 562.62 446.165 459.208 250.732 566.485 597.344 1092.64 1081.78 1138.39 311.888 566.485 597.344 598.452 311.888 518.295 495.295 1007.85 1035.65 984.404 254.597 518.295 495.295 483.332 254.597 499.752 512.554 955.18 999.788 1034.4 263.698 499.752 512.554 552.313 263.698 465.66 442.626 904.543 924.229 956.017 236.055 465.66 442.626 447.475 236.055 426.219 461.917 904.513 906.663 921.264 229.605 426.219 461.917 476.755 229.605 488.822 442.596 1018.96 966.964 863.268 196.614 488.822 442.596 429.909 196.614 620.214 576.367 1170.22 1066.76 944.217 292.208 620.214 576.367 537.055 292.208 491.99 593.858 1040.1 903.875 1098.45 328.005 491.99 593.858 529.709 328.005 432.947 446.237 896.066 914.209 837.699 163.985 432.947 446.237 374.166 163.985 512.672 449.829 981.769 973.635 955.753 268.962 512.672 449.829 540.043 268.962 492.169 531.94 976.343 951.273 895.802 243.71 492.169 531.94 433.592 243.71 438.385 444.402 911.386 972.204 861.881 248.459 438.385 444.402 517.681 248.459 476.831 466.984 1000.77 947.511 964.748 189.926 476.831 466.984 454.523 189.926 519.374 533.79 978.506 980.18 1020.8 286.905 519.374 533.79 492.987 286.905 454.265 444.717 833.296 978.036 890.259 232.469 454.265 444.717 487.193 232.469 434.902 388.579 827.554 992.125 897.617 221.796 434.902 388.579 490.843 221.796 412.765 438.975 830.189 963.95 1011.61 213.106 412.765 438.975 501.282 213.106 403.067 391.214 784.05 878.795 816.214 199.66 403.067 391.214 462.668 199.66 504.022 392.836 874.816 891.906 839.071 203.407 504.022 392.836 416.127 203.407 536.767 481.981 946.11 914.398 855.122 300.615 536.767 481.981 475.778 300.615 403.15 464.129 832.922 804.569 879.035 236.152 403.15 464.129 438.62 236.152 365.504 368.792 775.28 768.129 813.071 166.998 365.504 368.792 365.949 166.998 384.744 406.488 859.268 806.56 830.542 198.507 384.744 406.488 402.18 198.507 362.599 452.78 791.636 784.561 824.945 186.237 362.599 452.78 404.38 186.237 389.786 338.856 698.568 903.121 755.589 176.362 389.786 338.856 380.181 176.362 430.168 359.712 793.764 1014.13 869.875 213.424 430.168 359.712 522.94 213.424 421.114 434.052 853.931 907.418 910.235 216.744 421.114 434.052 491.189 216.744 418.569 419.879 846.476 824.839 779.128 204.371 418.569 419.879 416.229 204.371 214.198 426.597 426.597 408.609 853.578 214.198 214.198 426.597 408.609 214.198 859.248 415.27 866.479 890.984 412.746 398.612 415.27 150.294 412.746 150.294 889.469 930.701 920.868 456.794 443.977 453.733 248.317 986.541 981.255 1002.9 495.041 445.491 476.968 208.476 1030.16 964.274 981.801 515.299 541.05 504.287 286.564 1010.95 894.514 902.835 517.351 489.109 459.987 228.735 1035.24 882.514 882.592 500.036 521.845 434.526 288.616 972.738 950.59 979.677 458.569 513.391 447.988 211.42 880.019 971.009 914.907 480.444 459.346 502.602 247.149 788.523 969.248 922.083 478.142 420.672 468.406 233.295 872.444 960.277 870.458 446.551 367.851 500.841 244.847 896.055 951.488 1077.52 411.884 504.593 459.436 201.703 897.385 1059.63 924.225 481.262 391.462 492.052 210.181 869.786 975.561 1076.2 460.963 505.924 567.582 271.081 781.341 921.32 769.675 459.104 363.862 407.979 189.882 915.243 1066.83 820.896 533.819 417.479 513.341 269.222 984.774 962.801 991.519 470.679 497.764 553.491 264.598 932.552 898.523 915.244 460.806 487.01 409.31 206.082 954.58 949.165 874.673 523.771 445.542 489.214 254.724 1081.67 909.415 909.885 557.223 509.038 459.951 269.047 997.633 944.749 958.2 551.184 572.633 449.464 288.176 871.235 893.581 863.702 475.728 425 495.285 263.008 819.376 767.129 819.266 387.884 446.235 398.296 212.72 788.047 792.757 760.388 377.631 373.141 368.833 175.164 859.184 895.233 909.995 401.419 414.906 423.924 202.468 868.333 875.534 972.098 402.624 444.279 471.31 198.951 796.219 831.98 801.369 421.816 424.054 404.225 203.673 788.899 883.31 820.164 421.961 372.165 427.755 218.143 926.896 948.215 862.719 513.335 416.733 455.555 203.819 986.345 925.226 954.633 583.962 510.163 492.66 309.516 835.432 819.098 870.324 486.304 476.183 432.567 274.446 786.23 782.601 667.483 406.27 359.249 386.531 211.859 426.981 396.07 853.507 194.411 426.981 396.07 194.411 952.605 475.714 895.635 868.602 464.789 467.867 475.714 262.452 464.789 262.452 1034.3 861.078 891.998 473.907 476.891 430.846 205.415 998.156 827.878 982.886 486.214 557.405 430.231 268.491 854.477 926.704 831.504 448.975 440.751 397.647 217.723 774.473 834.456 982.545 377.163 413.726 529.057 231.252 827.033 745.326 747.6 382.479 360.747 305.398 145.911 921.846 916.365 864.153 492.021 466.286 439.928 236.568 956.971 912.923 964.567 490.565 455.56 476.438 255.453 1004.02 947.247 1002.76 491.106 501.41 436.486 235.112 1075.54 943.255 933.881 513.727 502.607 510.761 255.994 1105.69 873.766 954.919 539.604 572.929 432.494 257.733 1103.04 969.981 980.576 578.371 532.764 441.272 281.871 976.089 925.799 1012.58 514.598 570.276 528.709 296.501 809.23 878.707 723.579 462.216 405.813 397.09 218.097 897.173 949.276 884.958 533.013 403.418 481.617 244.119 921.989 906.539 917.196 492.121 493.755 467.658 288.893 857.364 848.433 887.165 437.718 428.234 438.88 203.228 829.979 767.053 824.411 425.395 429.131 409.553 234.49 786.414 708.223 735.539 352.192 400.848 357.5 190.905 824.268 782.496 783.245 393.564 385.566 350.723 161.287 811.732 854.455 822.38 417.852 438.702 431.773 232.277 760.277 838.403 847.264 379.245 373.03 422.682 185.575 882.337 840.354 830.302 415.126 387.247 415.721 193.67 1022.91 924.467 864.656 493.815 495.09 424.633 221.456 905.134 915.045 941.396 472.91 527.819 499.835 272.359 825.314 818.857 805.957 410.164 377.315 415.21 200.551 893.985 846.863 823.345 461.349 447.999 403.647 209.612 890.456 951.465 780.266 434.88 445.985 443.216 251.737 838.612 832.237 995.97 341.265 444.47 508.248 183.144 702.375 714.339 716.527 332.794 394.141 323.989 158.121 734.759 755.009 776.183 376.331 308.234 390.351 174.672 426.526 364.658 800.47 201.658 426.526 364.658 201.658 807.995 392.888 820.661 791.025 391.555 427.768 392.888 202.337 391.555 202.337 840.589 835.792 785.308 387.171 415.108 429.107 225.431 816.234 807.104 855.759 341.664 425.481 406.685 161.74 959.572 957.664 824.401 477.729 390.753 400.42 179.924 955.671 882.983 1041.37 457.293 568.819 557.245 297.805 784.72 733.378 799.537 362.848 386.852 325.738 159.488 906.873 858.269 753.592 424.344 397.867 407.64 203.36 1010.35 846.772 962.659 422.359 509.006 450.629 220.985 932.62 898.883 939.776 456.142 501.346 396.142 201.374 813.264 895.061 902.603 429.529 431.275 502.741 254.768 829.803 768.177 862.831 334.163 381.99 392.321 174.761 890.115 767.054 922.017 391.61 447.813 375.857 159.402 760.068 807.046 829.381 411.201 442.302 391.198 232.209 799.307 792.512 721.465 416.491 317.766 415.848 178.993 904.981 753.444 806.324 416.263 481.54 376.663 237.498 882.372 860.244 808.337 414.417 423.441 376.781 178.765 854.212 856.633 867.608 410.716 458.932 483.463 235.652 729.972 786.54 869.805 341.659 395.28 373.17 175.063 732.37 814.051 863.526 356.031 334.691 413.37 166.596 781.357 766.292 803.778 388.932 397.678 400.681 189.436 857.913 752.195 731.057 436.603 383.679 365.611 199.496 917.289 782.927 807.466 459.158 474.234 386.584 237.107 812.622 741.45 891.862 425.228 443.055 396.343 222.051 783.144 785.787 718.104 430.653 369.567 345.107 203.177 842.22 820.511 837.812 442.135 413.577 440.68 227.476 803.989 796.69 780.465 408.694 428.642 379.83 214.659 709.627 773.303 797.89 385.515 375.346 416.86 194.035 885.781 928.661 720.902 516.584 334.281 356.442 191.48 873.886 930.982 1016.38 490.972 551.5 572.219 325.105 790.335 761.445 700.664 381.546 322.386 358.763 165.867 841.894 756.074 798.02 378.679 467.95 402.681 215.679 373.945 353.392 774.537 163 373.945 353.392 163 768.338 398.137 941.199 853.6 473.673 392.894 398.137 189.218 473.673 189.218 800.479 971.265 841.989 448.621 370.201 467.526 203.676 863.927 949.798 894.871 465.44 430.278 503.739 244.945 906.195 879.341 865.213 479.935 433.649 446.059 220.495 885.232 841.756 885.472 425.69 472.547 433.282 259.44 768.41 837.857 839.178 370.531 412.685 408.475 166.25 809.378 820.977 769.65 433.925 355.725 429.382 204.28 892.084 762.369 845.54 424.413 453.653 391.595 229.645 909.759 829.566 881.764 442.742 438.43 370.774 194.768 952.17 903.428 860.507 465.533 471.328 458.792 247.973 955.046 904.334 904.443 434.015 480.841 444.637 217.56 861.284 874.55 986.568 375.444 474.205 459.697 216.455 790.778 858.806 888.28 395.844 387.079 414.853 158.989 728.482 811.797 799.782 376.021 403.699 443.953 236.855 709.679 768.254 736.894 337.181 324.783 367.844 139.165 793.573 851.251 788.028 445.826 384.896 400.411 198.016 883.201 848.526 848.506 445.917 408.677 450.84 247.81 1003.36 888.967 810.388 444.881 474.524 397.686 198.107 934.934 920.859 957.891 458.02 528.835 491.281 246.774 753.479 851.897 780.973 377.36 406.1 429.578 211.246 680.611 756.474 729.658 315.592 347.379 422.319 166.115 782.039 760.407 726.164 323.769 333.232 334.156 149.477 797.344 753.588 893.567 316.222 448.808 426.251 174.292 772.771 784.909 748.151 355.135 348.537 327.337 141.93 776.058 789.306 882.458 378.376 424.235 457.572 213.204 774.367 792.914 778.69 387.997 351.823 331.734 165.172 809.165 785.854 845.531 387.788 422.543 461.18 222.825 851.498 721.252 783.857 412.077 386.621 324.674 164.963 843.155 774.597 827.527 440.01 464.877 396.578 247.114 708.348 832.904 773.594 379.899 378.278 378.018 192.896 730.662 806.451 709.951 377.395 330.07 454.886 187.003 400.592 351.565 719.778 190.393 400.592 351.565 190.393 927.251 455.463 993.861 842.198 478.975 548.306 455.463 284.456 478.975 284.456 936.381 1073.43 942.331 522.644 471.788 514.885 263.85 896.157 1017.23 1004.27 484.358 464.593 558.549 258.794 844.49 838.851 873.994 399.406 431.565 458.677 225.564 839.418 860.872 857.606 416.066 412.925 380.174 173.842 840.418 962.714 921.902 467.326 426.493 480.698 242.224 805.811 849.075 902.362 387.052 413.925 482.016 225.102 835.22 729.247 852.349 337.956 391.887 367.058 161.95 832.512 804.12 829.318 386.824 443.334 362.189 176.006 812.78 870.789 854.188 437.896 389.178 441.931 210.818 935.965 838.322 850.352 470.32 423.601 428.858 227.077 1013.57 872.695 890.256 499.106 512.364 409.464 243.242 897.284 866.008 938.056 462.962 501.201 463.231 255.864 808.193 880.653 829.934 435.776 396.082 402.777 207.098 815.242 909.418 816.412 431.073 412.111 477.876 228.678 842.96 846.74 844.604 405.424 403.132 431.542 202.395 775.693 857.622 830.401 402.609 439.829 415.198 203.03 764.921 901.438 882.029 444.086 335.864 442.425 199.579 803.93 842.304 862.306 462.839 429.057 459.013 244.507 757.152 845.308 766.7 474.536 374.874 383.291 218.332 775.211 872.439 757.711 440.882 382.279 462.017 256.204 837.692 869.074 904.889 436.638 392.933 410.422 184.678 844.373 857.32 881.698 437.366 444.759 458.652 251.959 857.838 916.535 869.944 429.774 399.614 398.668 185.407 885.091 862.186 1047.04 410.93 458.224 517.867 244.368 849.855 812.621 821.736 404.917 426.867 344.319 166.562 820.224 858.151 855.268 398.066 422.988 468.302 238.355 759.885 746.434 806.352 309.176 397.236 389.849 159.711 757.965 697.235 730.906 334.587 362.65 356.585 149.465 775.197 812.143 790.009 453.005 395.315 340.65 185.122 699.067 881.084 762.876 429.056 379.881 471.492 267.883 319.186 409.592 759.532 161.173 319.186 409.592 161.173 857.278 386.735 999.902 893.512 466.649 445.555 386.735 194.52 466.649 194.52 1010.22 1047.79 1062.68 550.79 470.542 533.253 251.035 982.11 993.321 958.098 532.868 539.681 514.541 299.755 887.11 923.696 913.539 439.445 442.429 478.78 233.113 940.089 878.191 922.121 444.806 444.681 444.916 206.332 983.846 881.169 929.909 495.388 495.408 433.275 238.473 948.899 913.864 927.6 462.023 488.437 447.895 256.914 846.447 898.479 988.641 391.291 460.462 465.97 205.108 850.995 872.579 832.498 417.296 385.985 432.509 186.183 891.76 903.448 861.139 432.893 465.01 440.07 231.113 804.643 864.612 951.094 368.002 426.75 463.378 201.78 814.747 821.092 858.661 373.589 377.893 401.234 166.222 870.706 842.412 937.034 403.046 436.854 419.858 207.367 838.154 924.102 913.755 444.877 433.852 422.553 195.679 845.774 979.879 852.434 478.345 404.302 501.548 249.198 832.045 938.208 923.092 441.315 441.472 478.33 229.148 936.737 962.461 832.085 455.014 390.572 459.878 212.168 979.414 914.841 1008.5 457.352 546.165 502.583 242.846 825.075 784.715 800.342 379.465 433.249 412.258 214.506 767.258 804.574 784.323 370.772 391.826 372.458 164.959 887.388 854.808 814.241 431.557 375.432 432.117 205.813 948.895 833.84 952.313 432.436 511.956 422.692 225.744 907.269 869.522 822.004 419.954 436.939 411.149 206.693 1059.15 936.76 968.635 486.761 470.33 458.374 213.261 983.684 922.51 1071.68 451.256 588.815 478.386 273.5 827.149 829.868 861.922 407.704 394.869 444.124 177.757 841.397 842.753 736.454 460.085 432.28 385.744 229.947 777.372 910.503 842.77 437.259 409.116 457.008 230.138 762.95 835.16 890.646 362.649 368.256 453.495 207.12 777.688 754.639 868.527 359.137 394.694 381.666 155.528 823.34 803.355 733.245 452.028 382.995 372.973 203.609 440.346 430.383 809.478 248.419 440.346 430.383 248.419 1098.91 506.777 554.347 506.777 272.13 554.347 506.777 272.13 272.13 272.13 1010.55 497.003 592.138 497.003 592.138 282.217 282.217 889.527 460.453 418.417 460.453 418.417 214.786 214.786 948.549 484.251 471.11 484.251 471.11 245.667 245.667 911.941 433.385 477.44 433.385 477.44 238.584 238.584 873.664 385.782 434.501 385.782 434.501 194.801 194.801 967.342 451.842 439.163 451.842 439.163 190.98 190.98 974.692 507.188 528.179 507.188 528.179 260.862 260.862 842.642 455.283 446.513 455.283 446.513 246.326 246.326 920.473 470.555 396.129 470.555 396.129 208.957 208.957 1005.11 496.61 524.344 496.61 524.344 261.598 261.598 980.948 447.503 480.769 447.503 480.769 235.012 235.012 980.082 439.365 500.179 439.365 500.179 212.491 212.491 928.035 479.225 479.903 479.225 479.903 226.874 226.874 929.751 501.533 448.132 501.533 448.132 252.351 252.351 923.133 496.893 481.62 496.893 481.62 249.183 249.183 903.851 507.448 441.513 507.448 441.513 247.71 247.71 829.431 457.489 462.338 457.489 462.338 259.737 259.737 759.589 405.25 367.093 405.25 367.093 197.752 197.752 831.305 433.802 392.496 433.802 392.496 207.499 207.499 879.166 423.252 438.809 423.252 438.809 226.304 226.304 825.421 401.404 440.357 401.404 440.357 196.948 196.948 883.369 449.568 385.064 449.568 385.064 204.456 204.456 981.17 449.999 498.304 449.999 498.304 245.112 245.112 949.918 471.254 482.866 471.254 482.866 204.887 204.887 771.227 422.164 467.053 422.164 467.053 266.367 266.367 737.828 382.667 304.174 382.667 304.174 155.797 155.797 956.044 473.244 433.654 473.244 433.654 226.87 226.87 996.223 472.512 522.39 472.512 522.39 246.374 246.374 824.084 395.501 473.833 395.501 473.833 226.138 226.138 719.383 351.327 350.25 351.327 350.25 169.364 169.364 369.132 181.964 369.132 181.964 369.132 181.964 181.964 437.61 437.328 213.587 863.935 437.328 898.246 913.129 478.563 213.587 437.61 437.328 213.587 478.563 213.587 419.456 426.607 850.732 852.131 877.081 224.023 419.456 426.607 419.683 224.023 480.889 424.126 945.574 972.39 933.072 195.433 480.889 424.126 432.448 195.433 526.154 521.448 988.834 1041.01 1011.4 285.456 526.154 521.448 539.942 285.456 489.554 467.385 1033.7 983.157 999.082 240.698 489.554 467.385 501.072 240.698 455.428 566.311 1017.82 990.628 1031.6 248.856 455.428 566.311 482.085 248.856 438.883 451.509 923.569 953.052 1006.37 206.571 438.883 451.509 508.543 206.571 478.293 472.06 958.156 877.868 954.694 232.312 478.293 472.06 444.509 232.312 530.14 486.096 1005.88 840.521 874.137 245.982 530.14 486.096 433.359 245.982 550.011 519.788 1036.45 975.905 819.627 284.159 550.011 519.788 407.162 284.159 548.105 516.665 1069.83 1032.28 1048.42 265.853 548.105 516.665 568.743 265.853 463.119 553.166 877.718 879.242 930.715 282.252 463.119 553.166 463.533 282.252 469.098 324.552 804.585 877.92 769.129 180.867 469.098 324.552 415.71 180.867 484.174 480.032 952.11 806.411 901.72 288.231 484.174 480.032 462.211 288.231 473.001 472.077 962.132 854.425 856.921 195.943 473.001 472.077 344.2 195.943 523.942 490.055 954.215 1038.04 851.224 277.058 523.942 490.055 510.225 277.058 459.132 464.16 896.218 930.879 973.425 246.884 459.132 464.16 527.812 246.884 379.031 432.058 842.714 809.84 819.05 212.248 379.031 432.058 403.066 212.248 392.652 410.656 853.128 917.1 839.683 166.783 392.652 410.656 406.774 166.783 417.423 442.472 803.047 863.872 934.319 225.869 417.423 442.472 510.326 225.869 380.983 360.575 728.577 776.49 703.819 191.554 380.983 360.575 353.546 191.554 370.795 368.002 782.873 802.287 820.016 189.429 370.795 368.002 422.944 189.429 409.343 414.871 946.037 819.758 843.316 181.366 409.343 414.871 379.343 181.366 429.771 531.166 925.653 887.537 925.134 227.977 429.771 531.166 440.415 227.977 409.776 394.487 791.583 875.484 817.69 201.795 409.776 394.487 447.122 201.795 474.524 397.097 842.424 848.927 844.657 207.981 474.524 397.097 428.362 207.981 429.036 445.327 787.288 795.974 796.621 266.543 429.036 445.327 420.566 266.543 308.781 341.961 640.302 722.343 818.053 162.493 308.781 341.961 375.408 162.493 363.596 298.342 756.022 765.98 691.262 146.288 363.596 298.342 346.934 146.288 432.817 457.68 899.128 781.945 868.286 217.309 432.817 457.68 419.046 217.309 427.907 441.448 786.479 807.867 807.275 215.508 427.907 441.448 362.899 215.508 212.399 345.031 345.031 444.968 763.358 212.399 212.399 345.031 444.968 212.399 926.274 475.8 945.374 906.734 478.238 460.636 475.8 264.976 478.238 264.976 959.42 993.064 926.42 432.675 450.474 467.136 195.66 998.901 1003.44 951.599 491.501 508.946 525.928 237.015 1021.65 920.362 948.363 514.859 489.954 477.514 254.486 996.985 890.913 924.171 493.602 531.697 442.848 260.374 1020.15 979.755 829.984 535.2 465.288 448.066 233.229 1037.49 943.994 1039.06 514.169 554.858 531.689 301.971 870.675 865.981 943.408 399.575 482.634 412.305 212.197 687.88 823.293 856.029 310.381 388.041 453.676 187.378 831.598 987.703 735.078 425.894 299.839 369.616 123.004 909.309 1050.26 1021.99 484.171 531.759 618.087 302.89 822.126 940.792 840.21 416.123 377.55 432.174 181.281 866.265 870.314 921.559 408.823 444.577 508.618 234.842 806.532 669.251 820.746 322.237 421.688 361.696 173.98 746.013 745.583 764.621 381.423 384.844 307.555 148.257 870.434 943.962 838.859 514.095 361.169 438.028 233.167 896.257 891.393 935.858 471.746 509.265 505.934 280.928 816.018 835.393 767.504 430.809 386.992 385.459 190.818 920.874 958.67 794.218 524.448 429.026 449.934 239.991 835.091 877.152 919.384 446.449 491.847 508.736 284.457 795.257 789.386 786.479 395.507 343.244 368.417 161.992 880.458 812.525 830.17 431.493 452.014 420.97 233.515 822.412 877.627 788.702 410.416 428.444 391.555 197.978 817.171 986.86 866.131 457.766 393.968 486.072 212.438 870.763 897.932 817.309 465.708 423.203 500.788 245.328 798.854 789.554 840.967 374.403 447.561 397.145 220.381 827.386 799.573 840.822 366.938 351.294 392.409 154.023 869.013 869.137 848.924 413.561 476.092 407.164 212.915 803.527 899.73 835.453 402.384 392.921 461.973 200.646 776.433 718.709 897.24 349.128 410.606 437.757 201.737 784.154 738.389 682.331 379.96 365.827 280.952 147.391 418.327 457.437 774.656 232.569 418.327 457.437 232.569 906.88 430.934 864.965 807.899 403.813 484.738 430.934 213.262 403.813 213.262 918.598 1013.81 857.493 560.389 475.946 461.152 271.475 901.061 986.512 917.327 511.942 442.652 552.655 288.914 850.883 887.345 867.283 405.503 458.409 433.857 223.029 757.171 895.689 878.887 397.311 392.474 453.488 182.474 848.902 866.427 814.148 444.555 364.696 442.201 214.837 944.979 912.354 858.778 429.826 484.206 424.226 229.718 928.762 1054.4 891.69 466.406 460.773 488.129 200.107 903.228 989.39 1025.28 512.912 467.988 566.27 266.299 925.474 945.545 829.09 561.809 435.24 423.12 246.613 952.894 1061.73 957.145 566.089 490.234 522.425 315.196 939.642 1023.17 988.943 524.669 462.66 539.304 250.893 876.04 810.358 922.149 461.491 476.982 483.869 273.776 778.835 729.83 768.187 347.014 399.058 326.489 187.716 857.467 852.878 791.798 364.16 379.777 403.341 159.298 904.283 897.822 935.197 429.868 477.69 449.537 204.862 807.105 863.143 854.793 419.647 426.593 448.285 225.006 745.704 792.897 788.092 404.584 380.512 414.858 194.641 792.729 810.56 703.242 434.222 365.192 378.039 209.943 870.772 823.129 817.059 430.704 427.537 432.522 224.279 821.392 815.189 752.007 393.879 443.235 390.607 206.425 738.414 839.163 791.302 381.032 378.157 424.582 187.455 832.421 854.605 787.285 467.211 360.258 414.581 193.577 866.269 881.586 839.782 529.094 472.163 440.024 273.634 787.512 832.309 823.917 432.224 394.106 441.562 255.46 882.934 810.446 746.186 415.151 393.406 390.747 176.764 862.359 756.748 930.35 432.636 489.528 419.698 238.387 815.364 824.772 723.744 455.576 372.831 337.05 194.249 929.166 880.26 853.683 497.347 442.532 487.722 261.327 803.137 778.371 780.152 369.581 486.634 392.538 236.02 672.833 821.644 749.246 358.429 316.504 385.833 133.562 356.33 435.812 776.522 224.867 356.33 435.812 224.867 758.513 376.965 755.672 805.517 399.47 380.227 376.965 190.551 399.47 190.551 856.223 805.275 765.008 453.418 381.548 356.201 189.677 883.549 873.056 858.146 474.57 474.675 449.074 263.741 895.287 908.102 871.563 481.842 408.874 423.982 210.829 935.864 957.92 882.844 498.378 486.413 484.121 271.014 824.024 819.751 905.88 421.872 449.451 473.799 227.365 805.489 857.982 781.01 482.529 374.572 345.952 194.508 988.209 1055.66 899.277 587.993 430.917 512.03 288.021 951.142 943.496 1003.85 476.479 557.292 543.634 299.972 860.762 870.372 820 383.736 393.85 399.862 176.507 993.194 1016.67 974.16 495.64 466.912 470.51 207.229 971.45 984.345 997.126 498.505 526.283 546.161 288.411 814.296 743.801 837.544 348.867 445.167 438.184 210.094 781.149 735.277 661.386 382.815 369.128 305.617 138.773 869.528 861.216 790.088 488.718 412.021 429.66 244.042 885.707 815.701 828.978 467.955 457.507 431.556 244.676 835.78 880.78 748.813 443.496 428.2 384.145 223.279 745.63 946.791 844.863 388.313 407.58 496.635 220.217 727.572 853.253 785.893 376.339 338.05 450.156 168.096 698.294 768.544 774.884 392.425 389.522 403.097 208.243 721.917 786.329 644.252 421.31 308.771 365.447 184.182 840.172 916.401 844.57 458.131 413.146 420.882 237.127 794.646 868.516 942.933 387.394 427.027 495.519 221.003 797.43 770.128 818.373 352.492 367.619 372.997 166.39 782.592 797.767 873.975 400.085 429.811 397.132 186.101 793.602 781.665 773.691 395.295 352.78 400.635 213.984 791.735 745.489 845.708 324.113 440.822 381.03 181.311 762.064 808.619 780.804 369.197 350.912 364.46 142.801 704.67 786.059 818.208 382.914 411.151 444.159 226.395 726.261 737.239 647.503 408.789 293.519 341.9 156.518 852.935 816.483 796.906 463.216 432.742 395.338 252.271 420.193 421.144 821.979 210.945 420.193 421.144 210.945 812.013 428.552 754.39 840.966 379.927 375.444 428.552 208.92 379.927 208.92 766.931 765.594 811.185 351.858 383.461 374.463 166.525 846.16 810.286 776.429 398.486 383.471 391.132 185.333 859.121 871.344 884.455 426.26 462.689 419.154 213.153 852.86 882.893 842.478 459.541 396.431 452.19 213.107 862.866 770.971 915.975 397.879 456.428 430.704 246.435 874.798 794.212 834.212 375.453 406.437 340.267 151.445 914.918 964.935 875.017 467.671 468.36 453.945 224.009 872.706 912.705 931.495 467.017 446.557 510.99 243.662 933.397 861.521 776.637 486.637 426.149 401.715 223.355 978.092 986.677 957.312 521.031 507.248 459.806 263.282 863.219 1000.3 931.287 485.84 470.843 526.871 257.75 684.634 829.256 852.861 394.934 392.376 473.428 228.09 670.325 724.878 673.503 352.462 292.258 355.828 166.844 749.539 756.667 707.587 372.498 378.067 369.05 185.618 692.084 785.283 830.977 347.747 371.471 387.617 186.88 757.895 810.368 776.38 437.284 320.613 397.666 160.866 885.125 879.313 757.265 558.478 437.283 412.703 276.418 833.204 818.006 862.846 476.915 447.843 466.61 282.061 720.842 658.734 812.374 376.118 385.362 351.396 194.854 766.905 699.348 660.047 365.019 335.481 307.339 181.264 947.331 859.324 805.245 458.27 431.424 392.009 183.754 966.661 888.129 958.084 481.122 515.906 467.315 274.516 894.918 845.7 796.353 417.637 450.754 420.814 206.606 865.074 871.842 850.89 397.682 444.163 424.886 211.03 825.796 831.308 890.396 386.37 420.911 446.956 186.652 834.777 843.535 823.763 421.377 404.886 384.351 199.718 836.948 890.132 866.683 439.422 429.892 459.183 221.658 761.041 826.524 828.204 403.146 407.057 430.948 217.763 718.148 650.641 710.081 328.449 353.984 395.575 185.382 765.951 623.279 677.156 353.267 364.164 255.065 143.067 401.787 368.213 785.57 210.2 401.787 368.213 210.2 840.138 412.414 790.668 878.564 363.223 378.945 412.414 171.007 363.223 171.007 820.683 873.169 826.329 413.737 427.724 427.445 207.938 814.724 861.041 884.506 411.8 392.958 445.724 205.799 867.812 892.749 890.922 445.084 421.766 415.317 206.001 905.594 918.636 881.142 423.352 446.046 477.432 239.083 887.322 861.55 957.275 373.092 459.547 441.204 184.269 834.432 905.636 866.998 418.759 427.775 420.346 188.823 891.594 952.42 844.221 497.264 406.657 485.29 229.936 835.425 879.387 925.917 445.688 484.937 467.13 267.328 800.552 833.751 767.153 374.884 350.488 412.257 178.36 910.507 902.286 870.552 465.646 450.064 421.494 196.524 920.928 955.617 911.505 514.459 460.443 480.792 269.121 841.73 901.982 866.531 434.322 460.484 474.825 245.338 710.765 765.693 844.077 372.417 381.245 427.157 188.984 789.025 751.598 664.801 384.169 329.52 338.536 183.432 915.273 828.265 849.922 437.536 459.505 413.062 200.737 775.75 854.808 828.421 373.084 455.767 415.203 236.799 734.986 842.897 837.296 320.835 319.983 439.604 136.285 842.016 786.702 876.056 341.091 415.003 403.293 184.55 751.578 679.103 926.079 282.616 427.013 383.409 156.542 698.386 790.161 645.526 334.329 324.566 295.694 126.075 815.998 917.513 815.76 401.054 373.82 494.467 208.255 787.776 894.322 858.988 407.007 442.178 423.046 192.8 752.325 1000.45 732.062 428.063 345.599 471.276 214.207 876.212 1006.59 926.208 474.16 406.727 529.171 213.856 888.363 864.384 902.594 444.938 469.485 477.417 260.305 855.669 803.469 871.648 422.158 418.878 386.966 184.633 857.938 790.823 845.595 450.71 436.791 416.503 237.525 777.244 823.679 807.489 423.378 421.147 374.321 213.185 669.088 740.742 797.639 322.191 356.097 449.358 210.193 696.774 641.324 629.503 270.012 312.991 291.384 111.998 383.783 349.94 724.381 158.014 383.783 349.94 158.014 864.755 466.15 956.29 920.377 426.863 411.723 466.15 192.216 426.863 192.216 890.152 972.984 1009.53 459.432 398.604 529.427 219.507 960.703 878.315 942.249 449.242 491.548 443.556 239.925 904.252 911.964 917.627 447.665 469.156 434.759 209.316 932.824 973.839 933.44 495.284 435.096 477.205 238.349 936.952 976.34 975.793 488.458 497.728 496.634 256.935 876.788 1002.38 955.835 486.877 439.224 479.706 231.523 878.544 922.66 940.34 455.156 437.564 522.671 255.354 857.645 821.058 830.682 433.699 440.979 399.989 199.802 837.154 908.785 868.181 458.867 416.665 421.069 233.897 871.551 945.143 905.001 436.641 420.489 487.716 224.97 857.109 974.603 968.408 441.158 451.062 457.428 211.671 868.878 1008.38 898.941 467.66 406.047 517.175 229.487 798.113 842.086 1004.05 393.277 462.831 491.201 238.172 725.697 795.647 759.393 367.429 335.281 350.885 155.104 763.07 816.969 837.119 390.729 390.416 444.762 212.325 889.967 878.126 789.574 481.723 372.654 372.207 178.404 978.367 894.004 947.79 522.062 517.314 505.919 303.319 960.12 799.95 805.228 445.611 461.053 388.085 218.743 820.027 793.99 949.53 396.487 499.067 411.865 226.868 762.901 911.745 721.427 455.831 320.961 382.124 169.619 858.75 940.476 889.574 516.459 441.94 529.621 286.212 803.274 921.116 801.739 487.315 416.81 410.855 230.247 905.945 1103.55 831.669 572.384 386.464 510.261 257.069 952.59 1011.09 1044.52 532.428 519.481 593.294 315.315 885.879 768.508 892.161 419.446 433.109 417.798 217.113 861.574 736.472 796.719 381.311 452.77 350.71 202.333 795.146 822.913 819.191 340.114 408.804 385.762 178.978 827.884 924.012 883.863 400.301 386.342 437.151 161.136 758.055 847.134 886.302 418.551 441.543 486.861 239.165 657.111 739.367 715.906 371.312 316.512 360.272 179.386 340.598 379.095 743.407 191.927 340.598 379.095 191.927 1065.15 454.227 544.567 454.227 234.647 544.567 454.227 234.647 234.647 234.647 1061.62 513.551 610.921 513.551 610.921 309.92 309.92 899.173 429.073 450.701 429.073 450.701 203.631 203.631 946.816 464.298 448.472 464.298 448.472 225.442 225.442 976.409 478.555 498.344 478.555 498.344 238.856 238.856 994.677 487.882 478.065 487.882 478.065 239.699 239.699 1019.39 515.5 516.611 515.5 516.611 248.183 248.183 892.478 467.504 502.776 467.504 502.776 267.318 267.318 841.219 387.359 389.703 387.359 389.703 200.187 200.187 936.029 449.918 451.516 449.918 451.516 187.172 187.172 1001.86 508.503 484.513 508.503 484.513 262.746 262.746 1010.24 533.444 517.346 533.444 517.346 245.757 245.757 1034.12 540.716 492.894 540.716 492.894 287.688 287.688 965.334 448.81 541.222 448.81 541.222 253.029 253.029 870.815 428.218 424.112 428.218 424.112 195.781 195.781 863.623 426.24 446.703 426.24 446.703 232.437 232.437 847.396 396.403 416.92 396.403 416.92 193.803 193.803 774.651 371.942 430.476 371.942 430.476 202.6 202.6 794.638 354.339 344.175 354.339 344.175 169.341 169.341 850.93 397.503 450.463 397.503 450.463 184.998 184.998 848.1 455.914 400.467 455.914 400.467 212.505 212.505 832.562 424.017 447.634 424.017 447.634 243.408 243.408 830.134 433.8 384.928 433.8 384.928 180.609 180.609 970.247 531.171 445.206 531.171 445.206 253.192 253.192 984.093 478.664 525.041 478.664 525.041 277.979 277.979 803.001 349.063 459.052 349.063 459.052 200.686 200.686 754.336 355.161 343.949 355.161 343.949 148.377 148.377 907.908 482.799 410.387 482.799 410.387 206.784 206.784 942.281 523.711 497.522 523.711 497.522 276.016 276.016 844.153 428.583 444.759 428.583 444.759 247.696 247.696 802.203 368.055 399.393 368.055 399.393 180.887 180.887 402.809 187.168 402.809 187.168 402.809 187.168 187.168 426.326 436.085 223.742 920.891 436.085 891.964 845.39 434.566 223.742 426.326 436.085 223.742 434.566 223.742 431.277 484.806 989.56 958.022 956.994 202.584 431.277 484.806 457.398 202.584 464.685 504.754 980.212 972.085 1036.51 228.693 464.685 504.754 500.624 228.693 462.679 475.458 899.165 969.471 941.067 235.992 462.679 475.458 471.461 235.992 544.142 423.707 1000.4 1047.52 942.814 226.687 544.142 423.707 498.011 226.687 562.393 576.692 1024.06 1047.34 1052.19 317.455 562.393 576.692 549.514 317.455 484.686 447.369 972.955 1008.01 905.299 244.938 484.686 447.369 497.825 244.938 479.863 525.586 936.604 950.963 1060.5 239.748 479.863 525.586 510.185 239.748 475.745 411.018 864.473 853.243 808.098 240.115 475.745 411.018 440.778 240.115 486.442 453.455 960.299 892.147 870.79 235.63 486.442 453.455 412.465 235.63 521.726 506.845 1086.56 946.864 998.628 250.812 521.726 506.845 479.682 250.812 414.599 579.711 970.023 820.602 1023.91 270.914 414.599 579.711 467.182 270.914 335.487 390.312 767.252 792.929 779.861 143.685 335.487 390.312 353.419 143.685 467.936 376.939 944.125 952.231 876.438 191.802 467.936 376.939 439.51 191.802 489.131 567.186 988.374 853.72 1019.33 276.134 489.131 567.186 512.721 276.134 430.273 421.188 815.857 786.612 730.404 212.997 430.273 421.188 340.999 212.997 437.086 394.67 894.577 861.597 817.848 217.276 437.086 394.67 445.613 217.276 463.683 499.908 955.292 848.892 928.522 219.81 463.683 499.908 415.984 219.81 460.477 455.384 985.996 856.902 820.06 243.873 460.477 455.384 432.909 243.873 385.624 530.612 891.799 774.266 950.869 216.603 385.624 530.612 423.994 216.603 347.594 361.187 758.01 747.344 743.954 169.021 347.594 361.187 350.273 169.021 412.079 396.823 902.972 861.044 847.721 178.573 412.079 396.823 397.072 178.573 536.694 506.149 1004.45 948.691 973.764 233.506 536.694 506.149 463.973 233.506 495.881 498.304 867.322 855.286 913.683 303.189 495.881 498.304 484.718 303.189 381.808 369.018 721.087 786.863 709.077 192.692 381.808 369.018 370.567 192.692 367.9 352.069 732.59 792.351 835.144 189.115 367.9 352.069 416.295 189.115 358.251 380.521 719.608 818.7 733.374 178.784 358.251 380.521 376.055 178.784 331.521 339.086 666.252 786.972 746.273 179.467 331.521 339.086 442.644 179.467 392.425 327.166 745.853 793.568 709.698 152.054 392.425 327.166 344.328 152.054 466.311 418.687 858.526 893.617 846.81 240.372 466.311 418.687 449.241 240.372 358.572 439.839 776.266 762.766 801.081 225.939 358.572 439.839 444.376 225.939 132.633 336.427 336.427 318.39 789.09 132.633 132.633 336.427 318.39 132.633 881.493 409.305 887.78 819.476 428.496 465.638 409.305 210.824 428.496 210.824 1003.94 884.955 912.509 526.745 472.188 459.284 254.814 997.36 896.519 872.519 507.4 531.751 425.67 271.931 984.717 952.173 990.141 506.792 465.609 470.849 235.469 994.607 863.242 987.215 503.382 519.107 481.324 271.323 933.43 889.293 855.237 484.945 475.499 381.918 232.059 992.847 1038.48 972.18 523.324 457.93 507.374 252.887 931.996 933.456 1031.87 471.101 534.916 531.103 270.437 814.415 767.815 808.149 377.499 397.08 402.353 200.663 909.118 769.369 788.468 405.704 417.335 365.462 176.835 935.985 811.943 972.865 425.138 491.783 403.907 228.869 833.751 820.977 843.758 406.003 444.202 408.036 196.269 889.048 871.991 829.772 457.442 389.549 412.941 209.734 951.646 916.116 927.186 484.295 499.499 459.05 247.708 761.364 857.896 927.701 364.59 452.147 457.065 236.587 732.395 830.755 780.675 356.339 309.216 400.831 128.002 851.792 811.969 823.433 424.511 423.179 429.924 228.337 793.291 726.329 835.82 385.209 428.614 382.045 196.174 784.934 754.933 721.886 396.426 364.677 344.284 189.035 803.024 828.711 802.755 388.642 420.257 410.648 207.39 833.665 827.263 852.488 399.75 382.767 418.062 181.252 918.513 806.348 794.232 448.966 450.898 409.2 218.499 882.994 777.206 832.43 411.996 467.615 397.147 230.467 755.438 696.58 862.27 359.405 415.378 380.059 181.53 823.134 760.343 689.942 405.055 340.059 316.521 177.875 835.928 892.234 879.808 424.451 483.075 443.822 227.18 760.039 890.172 804.171 460.448 352.852 448.412 197.271 789.719 815.239 754.064 455.451 407.187 441.76 263.177 810.656 832.962 721.519 401.143 382.532 373.479 192.274 789.366 860.862 887.04 427.306 428.123 459.483 208.869 813.906 718.598 758.067 404.194 361.242 401.379 218.437 452.663 317.22 759.625 185.757 452.663 317.22 185.757 850.492 410.17 800.427 805.726 404.086 422.142 410.17 217.672 404.086 217.672 781.089 761.014 873.322 358.209 440.321 396.341 204.47 865.299 798.099 742.753 389.119 340.768 364.673 153.739 992.639 858.825 912.068 445.381 524.532 433.426 235.38 847.846 797.346 922.231 359.86 468.107 425.399 210.001 893.987 806.499 847.058 404.347 379.738 371.947 149.86 1011.2 838.114 947.438 515.153 514.249 434.552 254.488 908.022 862.572 866.863 462.356 496.954 403.561 260.666 782.201 864.98 819.921 390.317 411.069 459.01 201.69 852.214 840.691 774.97 363.664 371.133 405.97 188.627 880.638 884.359 918.594 386.805 481.082 434.72 175.037 839.779 887.919 825.817 414.974 399.556 449.639 211.767 867.91 879.978 909.396 414.549 440.222 438.28 203.206 903.241 830.155 924.175 431.821 427.687 441.698 211.343 947.012 874.116 850.692 493.307 475.554 388.457 220.478 871.713 892.167 893.619 474.415 471.459 485.659 272.828 807.46 779.742 833.832 387.458 400.254 406.508 201.587 764.416 698.438 774.589 341.12 407.206 373.234 185.871 739.708 709.741 705.161 358.507 357.21 325.204 155.249 852.219 745.937 782.753 440.069 382.498 384.537 203.258 813.055 728.12 722.01 427.512 469.721 361.4 236.811 708.149 739.424 744.603 357.382 343.334 366.72 190.702 811.706 772.462 748.999 365.21 364.815 372.704 166.681 796.775 782.114 847.982 337.175 446.892 399.758 198.529 746.616 737.794 800.883 355.288 349.883 382.356 138.646 848.051 866.091 698.437 467.783 396.733 355.439 216.642 798.195 897.345 849.452 429.724 451.318 510.652 251.141 685.864 752.655 732.06 359.788 346.877 386.694 178.583 797.903 753.575 740.652 431.819 338.987 365.961 181.205 855.741 751.027 783.372 433.556 458.916 387.614 250.614 703.787 704.124 750.536 314.404 396.825 363.413 182.942 306.962 340.711 637.568 131.462 306.962 340.711 131.462 828.556 395.556 814.854 820.558 406.047 378.285 395.556 186.415 406.047 186.415 834.985 817.878 836.568 402.805 433 408.807 191.871 789.521 856.653 766.027 408.979 401.985 409.072 210.934 841.66 846.305 818.809 413.444 387.536 447.581 198.045 921.443 830.804 890.652 437.486 454.123 398.724 215.399 900.508 867.138 858.878 402.152 467.32 432.081 222.087 803.097 822.305 901.043 322.96 433.188 435.057 180.065 778.761 847.463 818.302 400.216 369.909 387.247 142.896 812.689 880.353 865.955 474.664 408.852 460.216 257.32 841.349 923.787 821.673 477.026 403.837 420.137 217.343 863.773 954.615 871.336 497.554 437.512 503.65 259.683 895.435 850.325 864.155 472.945 426.261 450.965 237.871 965.661 755.129 849.394 465.429 469.174 399.36 235.074 871.626 716.197 818.429 398.334 496.488 355.769 230.355 797.299 757.85 776.611 380.81 375.138 360.428 167.979 855.738 762.09 790.303 417.752 422.16 397.422 212.831 800.961 712.895 790.106 392.284 433.578 364.668 204.921 715.335 683.964 755.447 357.317 367.383 348.228 187.363 748.206 707.524 704.019 351.234 347.952 335.737 169.954 652.543 650.593 796.709 305.868 400.254 371.787 181.279 653.558 702.494 609.791 300.607 252.289 278.806 124.589 785.454 871.102 835.534 382.041 401.269 423.688 176.018 785.275 892.791 865.265 407.252 384.185 447.414 206.023 852.09 922.22 833.169 444.938 401.091 445.377 201.229 752.703 849.899 845.675 382.507 451 476.843 243.71 699.838 837.734 707.004 398.307 301.703 373.056 138.797 783.318 881.023 785.8 467.622 398.134 464.678 259.511 786.849 790.393 827.545 392.867 385.183 416.344 208.111 726.122 679.651 755.378 321.756 401.665 374.049 184.756 678.168 707.17 708.729 317.471 324.456 305.602 137 684.317 802.403 761.859 389.719 353.711 401.568 180.471 330.606 400.835 682.725 209.248 330.606 400.835 209.248 828.569 425.002 897.761 874.975 461.039 436.568 425.002 219.632 461.039 219.632 767.609 822.02 836.781 415.074 403.567 436.722 216.936 795.314 850.599 790.027 447.674 364.042 385.297 198.138 867.801 855.589 880.001 432.861 431.272 465.301 249.536 828.087 875.56 818.783 393.318 436.529 390.288 183.325 859.413 979.217 835.45 464.987 391.558 485.272 209.994 916.248 915.017 946.057 499.345 467.855 493.945 254.993 905.496 841.577 830.446 447.247 448.393 421.072 244.352 874.939 795.427 844.455 405.689 457.103 420.505 202.895 851.659 872.428 826.711 446.76 417.836 374.922 202.794 871.717 901.922 936.639 457.06 433.824 497.506 243.967 818.114 783.848 837.361 377.38 437.894 404.415 213.094 702.161 697.108 775.848 289.7 380.22 379.433 164.286 723.414 656.211 689.97 317.863 321.941 317.675 125.414 769.615 781.896 715.447 377.041 401.472 338.537 192.449 724.671 822.074 734.212 344.338 368.142 443.36 184.591 744.592 723.277 777.676 320.612 356.528 378.715 159.746 744.132 740.798 720.858 326.647 388.064 344.562 160.865 752.523 857.214 879.063 356.29 356.068 396.236 165.782 753.957 813.687 876.888 344.724 396.455 460.979 190.508 791.767 765.943 823.794 401.887 357.502 352.708 154.217 915.346 904.004 831.582 489.061 434.265 413.236 247.67 913.159 866.308 999.097 485.539 481.081 490.769 241.391 826.754 801.543 853.947 477.281 432.078 375.539 244.148 799.976 869.444 908.594 467.392 394.675 426.004 233.133 792.967 882.852 867.709 439.427 405.301 443.44 234.259 830.028 846.912 800.389 413.401 387.666 439.412 205.167 796.075 804.755 860.821 397.527 442.362 407.5 208.233 737.985 711.761 759.842 357.895 353.713 397.256 189.293 792.42 736.596 687.255 389.699 384.273 314.505 168.602 760.266 839.446 834.861 412.684 408.147 422.09 221.097 352.119 417.356 815.533 191.587 352.119 417.356 191.587 883.187 449.973 914.224 917.131 515.341 461.193 449.973 241.406 515.341 241.406 859.198 837.666 857.65 406.946 433.214 398.884 219.786 874.714 914.386 907.099 402.925 425.985 438.782 187.16 830.983 879.315 841.536 422.728 448.729 475.604 215.765 826.146 919.781 823.105 482.241 382.254 403.71 206.963 922.094 962.724 918.543 514.23 443.892 516.071 275.278 860.255 805.584 864.929 415.672 478.202 446.653 238.952 769.405 817.718 808.425 394.33 382.053 358.931 176.72 796.228 813.683 909.841 389.738 387.352 458.787 217.609 911.691 803.955 821.096 425.668 408.875 354.896 172.128 902.283 879.771 889.549 444.861 502.816 449.058 253.54 795.095 822.419 839.039 406.469 399.467 430.713 191.322 763.656 808.626 833.029 407.408 395.627 391.706 215.147 682.004 743.184 762.942 338.348 368.029 416.92 192.261 680.045 763.124 723.996 404.856 313.975 326.264 146.087 787.218 850.077 752.915 477.736 366.07 436.86 258.768 753.942 810.909 869.268 402.665 421.148 413.217 218.968 855.789 870.456 677.12 414.151 332.794 397.692 183.697 1003.43 1015.43 983.72 500.925 522.995 472.764 230.454 946.725 892.503 922.131 468.962 480.433 542.67 270.471 863.609 671.126 826.042 364.057 466.292 349.833 198.491 915.334 757.235 774.131 414.944 397.318 321.293 165.566 939.885 696.728 912.452 380.769 518.016 435.942 249.378 935.787 657.823 773.057 324.262 421.868 260.786 131.391 976.327 822.214 926.482 402.052 513.919 397.037 192.871 875.131 909.859 885.438 443.425 462.408 425.177 209.181 831.182 913.774 876.415 433.511 412.723 484.682 234.245 824.589 862.26 902.021 407.229 418.459 429.092 199.266 709.111 781.449 765.782 353.866 406.129 433.168 207.962 729.696 686.401 659.344 346.897 302.982 348.281 145.904 890.128 712.561 748.042 426.762 426.714 338.12 200.993 463.414 374.441 785.517 225.769 463.414 374.441 225.769 891.593 467.157 973.613 850.488 493.514 453.032 467.157 273.934 493.514 273.934 905.551 978.791 940.51 430.72 424.436 480.099 179.097 873.922 981.561 963.41 511.462 481.115 498.692 251.622 833.658 939.104 907.262 456.586 392.807 482.868 259.839 915.503 935.394 943.665 437.54 440.851 456.235 196.747 861.378 955.288 929.729 448.494 474.651 479.159 240.793 813.099 893.798 863.332 389.911 386.727 476.129 207.701 948.862 848.362 898.37 423.388 426.372 417.669 182.211 934.71 877.805 996.823 423.946 522.489 430.693 241.178 798.954 864.397 857.446 378.287 412.221 447.112 182.768 826.305 928.266 812.278 434.91 386.733 417.285 195.519 876.974 892.746 961.811 415.95 439.572 510.981 239.391 832.315 894.618 912.762 401.218 437.402 381.766 176.559 804.935 921.361 920.787 404.836 394.913 512.853 224.659 796.866 800.865 800.195 358.268 410.021 408.508 180.177 834.965 809.724 805.416 372.341 386.844 392.357 178.091 792.447 859.237 839.781 408.244 448.12 417.367 194.249 805.052 859.014 762.929 456.305 344.326 441.87 213.995 902.423 954.808 787.43 514.509 460.725 417.144 242.31 801.448 876.967 928.881 423.541 441.698 537.664 272.199 736.564 699.256 705.709 307.069 359.75 339.303 151.342 771.25 750.836 774.568 342.291 376.813 359.953 155.727 745.625 712.292 773.141 315.959 394.436 390.883 186.564 763.752 772.637 751.998 333.561 351.189 321.409 129.395 835.593 925.59 784.968 420.162 412.563 451.228 204.166 886.723 920.372 885.174 466.433 423.03 474.363 215.996 947.255 879.438 855.205 480.263 463.692 446.009 250.437 843.215 880.141 892.393 455.032 483.562 433.429 229.826 716.015 846.152 804.479 427.583 359.652 446.712 225.206 677.69 755.074 704.725 339.504 356.362 399.44 202.377 643.431 719.946 721.823 285.798 321.328 355.633 137.127 322.103 364.312 715.696 148.672 322.103 364.312 148.672 899.404 383.331 520.581 383.331 219.58 520.581 383.331 219.58 219.58 219.58 998.369 548.071 516.074 548.071 516.074 301.001 301.001 996.751 470.099 482.295 470.099 482.295 247.07 247.07 1017.27 482.517 514.455 482.517 514.455 223.029 223.029 957.891 497.854 502.813 497.854 502.813 259.488 259.488 931.682 506.795 455.077 506.795 455.077 238.366 238.366 948.602 503.887 476.605 503.887 476.605 268.429 268.429 946.331 424.974 471.997 424.974 471.997 235.458 235.458 919.56 453.86 474.334 453.86 474.334 189.516 189.516 870.771 486.111 445.226 486.111 445.226 264.344 264.344 947.784 493.356 425.545 493.356 425.545 221.767 221.767 997.6 476.796 522.239 476.796 522.239 271.59 271.59 1001.23 493.4 475.361 493.4 475.361 205.206 205.206 916.047 516.525 525.873 516.525 525.873 288.194 288.194 808.745 442.597 390.174 442.597 390.174 228.331 228.331 810.233 437.383 418.572 437.383 418.572 214.266 214.266 810.264 450.993 391.661 450.993 391.661 223.117 223.117 745.308 402.709 418.603 402.709 418.603 227.876 227.876 813.888 440.299 326.705 440.299 326.705 174.834 174.834 833.142 453.427 487.183 453.427 487.183 265.465 265.465 743.713 392.187 345.959 392.187 345.959 187.961 187.961 776.459 408.545 397.754 408.545 397.754 204.225 204.225 779.514 396.333 378.705 396.333 378.705 204.32 204.32 773.214 439.076 400.809 439.076 400.809 192.014 192.014 834.549 505.428 372.405 505.428 372.405 247.062 247.062 853.656 453.938 462.144 453.938 462.144 258.366 258.366 800.343 399.175 391.512 399.175 391.512 195.572 195.572 853.657 425.109 408.83 425.109 408.83 203.603 203.603 793.189 418.569 444.827 418.569 444.827 221.506 221.506 748.858 415.57 348.362 415.57 348.362 197.063 197.063 794.088 434.147 400.495 434.147 400.495 218.507 218.507 393.593 215.641 393.593 215.641 393.593 215.641 215.641 494.565 507.625 212.343 1046.12 507.625 910.42 935.424 410.824 212.343 494.565 507.625 212.343 410.824 212.343 558.283 538.496 1063.07 1035.48 919.946 282.222 558.283 538.496 499.596 282.222 515.527 524.576 984.636 1005.49 1027.33 276.061 515.527 524.576 535.881 276.061 436.485 460.06 966.524 914.41 858.733 239.466 436.485 460.06 469.606 239.466 456.256 506.464 1016.81 947.481 993.129 197.02 456.256 506.464 444.803 197.02 461.667 510.346 903.505 910.152 1022.86 259.237 461.667 510.346 502.677 259.237 488.269 393.159 918.962 957.791 828.424 202.431 488.269 393.159 407.474 202.431 456.742 525.803 988.97 917.637 979.359 285.838 456.742 525.803 550.317 285.838 388.729 463.167 901.962 825.645 889.235 170.904 388.729 463.167 367.32 170.904 473.857 438.795 838.881 977.271 967.434 217.825 473.857 438.795 458.325 217.825 564.83 400.086 876.704 1075.68 851.294 256.032 564.83 400.086 518.946 256.032 555.425 476.618 901.32 983.173 945.549 308.798 555.425 476.618 556.731 308.798 431.765 424.702 876.481 863.371 773.37 246.627 431.765 424.702 426.442 246.627 476.189 451.779 940.972 943.54 914.716 185.137 476.189 451.779 436.929 185.137 499.243 489.193 1003.09 896.017 927.177 291.052 499.243 489.193 506.612 291.052 385.585 513.893 966.256 761.641 910.968 208.191 385.585 513.893 389.405 208.191 457.491 452.363 925.443 884.773 852.381 177.393 457.491 452.363 372.235 177.393 491.608 473.081 882.274 899.69 883.025 280.098 491.608 473.081 512.538 280.098 525.519 409.193 968.967 914.028 845.42 211.51 525.519 409.193 387.152 211.51 506.175 559.773 933.797 920.557 938.504 314.009 506.175 559.773 526.876 314.009 410.416 374.023 794.641 844.33 799.953 192.166 410.416 374.023 393.681 192.166 490.893 420.618 959.774 960.441 843.897 218.25 490.893 420.618 450.649 218.25 467.759 539.156 939.562 938.756 1031.72 272.644 467.759 539.156 509.792 272.644 371.441 400.406 727.863 767.474 908.374 195.116 371.441 400.406 428.964 195.116 339.279 327.457 689.693 757.359 726.156 176.325 339.279 327.457 338.51 176.325 364.691 362.236 783.797 776.168 795.596 162.954 364.691 362.236 418.849 162.954 361.356 421.561 786.338 660.947 834.899 201.737 361.356 421.561 357.318 201.737 334.731 364.776 670.061 668.999 727.112 159.619 334.731 364.776 303.629 159.619 353.427 305.285 707.433 762.94 659.443 175.112 353.427 305.285 365.37 175.112 392.215 402.148 777.005 754.275 794.81 178.315 392.215 402.148 397.57 178.315 417.694 374.857 773.265 827.406 724.909 213.9 417.694 374.857 356.705 213.9 203.794 398.409 398.409 470.701 903.305 203.794 203.794 398.409 470.701 203.794 809.249 427.799 844.205 776.579 390.98 415.855 427.799 198.481 390.98 198.481 884.204 900.074 854.272 477.194 381.45 453.225 217.374 901.428 966.141 911.716 489.96 502.754 446.848 259.82 885.339 1025.18 900.743 477.925 398.674 519.292 230.141 999.177 979.21 966.287 491.225 486.665 505.891 247.784 947.776 938.125 990.023 448.484 512.512 473.319 243.441 888.82 965.572 910.068 469.523 435.264 464.805 205.044 879.625 906.562 959.61 460.895 453.556 500.767 264.479 954.707 828.801 834.241 436.916 426.069 405.795 196.416 979.847 991.964 903.298 503.414 528.638 423.006 240.5 920.139 1004.68 984.316 510.847 451.209 568.958 262.914 817.599 852.553 852.047 427.748 468.931 435.722 247.933 811.605 884.967 769.152 431.606 348.668 416.831 179.815 900.921 938.771 961.989 467.351 462.937 468.135 251.791 835.058 850.479 872.712 396.774 437.984 470.635 215.56 797.093 773.353 810.308 376.056 397.074 379.844 181.214 809.962 847.284 797.302 427.282 400.018 393.509 194.842 846.171 831.377 877.78 408.082 409.944 453.775 232.44 814.958 769.709 821.169 388.508 436.227 377.602 175.642 804.661 826.532 781.881 414.382 378.73 392.107 212.866 849.209 819.457 876.688 433.915 425.93 434.425 201.515 915.848 820.314 796.628 469.548 423.279 385.032 232.4 1000.54 917.493 909.667 470.997 492.569 435.282 237.148 906.667 855.633 1005.65 396.033 507.968 482.211 233.849 832.06 809.408 768.928 418.08 398.699 373.421 162.184 846.698 791.745 792.206 411.477 433.361 435.986 255.895 775.673 668.062 884.43 299.591 413.337 355.758 155.581 716.493 660.344 737.069 334.268 362.335 312.304 144.01 746.819 775.597 725.577 409.513 354.158 348.04 190.258 742.714 784.245 795.927 362.06 392.661 427.557 219.254 854.948 799.094 690.691 409.712 350.052 356.689 142.806 504.896 442.406 771.422 266.906 504.896 442.406 266.906 821.603 348.781 878.621 742.002 401.64 428.35 348.781 192.499 401.64 192.499 881.784 855.06 929.014 422.88 472.822 476.981 235.851 911.031 856.722 832.499 476.18 408.962 378.08 187.029 981.691 975.474 988.598 547.258 502.069 478.642 289.151 957.132 971.942 1021.93 487.985 479.621 496.831 258.107 952.314 987.996 931.464 489.64 477.511 475.111 229.878 980.857 976.187 987.145 496.05 474.803 512.885 259.762 914.226 824.212 923.171 445.667 506.054 463.301 236.288 782.832 729.91 829.252 391.885 408.173 360.911 209.379 907.767 852.873 779.545 488.55 374.66 368.999 182.506 916.224 860.052 882.582 493.833 533.107 483.874 306.044 803.601 847.295 831.378 424.805 383.116 376.178 187.789 919.537 953.593 832.085 453.361 420.484 471.116 237.016 933.78 944.712 983.073 471.42 499.052 482.477 216.344 847.962 870.194 840.261 453.706 434.728 462.235 255.075 810.518 835.284 904.862 397.297 413.234 407.96 198.63 865.119 828.679 857.024 420.002 397.283 427.324 198.667 852.777 781.312 879.832 423.295 467.835 401.355 221.335 788.092 778.172 779.701 381.201 384.942 379.957 201.96 853.908 758.825 820.948 412.15 403.15 398.215 179.24 824.107 738.493 802.915 385.543 450.758 360.61 232.91 790.447 754.179 784.271 350.766 373.349 377.884 152.633 914.782 824.52 788.033 446.496 417.098 376.295 198.134 867.914 866.752 865.059 459.6 497.685 448.224 248.363 729.073 761.525 751.982 391.328 370.229 418.527 211.237 829.937 681.798 705.167 380.268 358.845 342.998 180.091 845.826 684.167 863.657 368.471 471.092 338.801 200.177 746.153 720.058 749.619 326.076 374.734 345.367 168.294 774.685 770.449 802.417 366.084 371.419 374.691 157.781 743.905 782.882 741.641 422.185 403.266 395.758 208.302 607.165 683.981 710.608 389.383 340.639 387.124 213.883 266.526 296.857 561.884 175.5 266.526 296.857 175.5 849.413 393.222 842.272 757.334 414.511 450.271 393.222 209.141 414.511 209.141 879.729 784.716 869.038 432.181 456.191 427.761 241.13 910.066 728.183 806.31 380.542 423.537 356.955 191.051 1028.84 863.155 806.275 428.215 486.529 371.227 189.491 996.26 918.725 1031.38 483.957 542.307 491.928 238.724 966.295 892.783 878.356 498.356 453.953 426.797 245.233 929.459 897.041 912.48 480.137 512.342 465.986 253.124 838.196 836.794 818.93 378.545 417.117 431.055 227.013 825.964 807.275 900.346 338.025 421.079 405.739 151.532 754.36 769.222 892.164 364.323 404.885 401.536 186.494 797.736 780.876 719.162 366.219 349.475 367.686 177.829 859.862 863.224 899.017 422.49 448.261 413.19 188.39 895.621 912.694 819.847 500.233 411.601 450.034 234.1 889.553 878.843 950.502 473.292 484.02 462.66 266.133 897.16 809.063 820.624 416.489 405.533 416.183 207.16 951.368 818.319 904.396 437.986 491.628 392.88 209.329 871.736 832.658 798.138 408.677 459.74 425.439 228.657 806.756 775.502 785.548 358.017 411.996 407.219 180.02 812.558 793.205 802.53 396.972 394.76 368.283 177.997 769.956 755.907 810.1 346.674 417.798 424.922 218.975 763.079 742.831 746.706 352.951 352.158 330.985 127.7 781.857 829.697 800.474 403.412 410.922 411.846 225.251 738.31 805.644 815.771 378.023 370.936 417.852 178.161 749.127 756.625 713.497 407.152 367.374 387.792 199.862 728.075 702.781 730.915 370.197 381.753 368.832 207.29 738.887 655.07 703.181 301.53 346.322 333.948 162.907 767.449 732.323 771.791 315.696 392.565 321.122 138.624 805.882 792.53 932.365 393.982 374.885 411.201 177.072 769.373 784.456 811.764 404.365 430.997 381.329 216.91 708.345 763.418 789.77 360.696 338.375 403.127 187.456 665.327 642.18 701.442 294.598 369.969 360.291 173.241 295.358 281.89 651 121.358 295.358 281.89 121.358 776.959 364.112 813.995 771.362 413.937 392.001 364.112 205.37 413.937 205.37 795.619 804.788 853.925 352.536 412.847 400.059 186.631 702.519 819.43 849.589 347.641 382.773 404.729 165.904 808.818 843.195 737.605 434.94 319.746 414.7 181.736 913.475 778.673 913.851 434.768 489.072 428.495 253.204 824.541 802.29 831.967 394.427 424.403 350.178 181.565 801.951 861.486 854.835 416.904 400.138 452.112 212.862 881.08 833.324 861.209 458.249 401.813 409.374 204.041 966.546 875.74 798.462 469.25 479.267 423.95 254.208 856.966 890.922 981.095 404.899 487.279 451.789 215.042 820.443 872.078 861.81 414.657 369.687 439.133 189.857 859.002 829.36 901.171 440.734 450.756 432.945 224.8 874.728 768.71 754.302 412.461 408.246 396.415 215.934 881.573 749.206 804.535 405.55 466.482 372.295 196.527 827.86 667.764 760.47 392.574 415.091 376.911 209.023 751.166 689.815 671.315 380.333 412.768 290.853 183.551 711.95 775.257 828.26 423.981 338.398 398.962 196.782 781.322 859.123 703.436 417.485 373.552 376.295 227.199 800.073 898.736 887.87 396.233 407.77 482.827 190.286 786.851 886.995 794.829 409.233 392.302 415.909 205.947 784.102 889.433 841.294 389.88 394.549 471.086 203.286 834.388 926.675 884.142 426.285 389.553 418.347 186.595 790.958 986.736 945.141 427.621 444.835 508.328 239.69 695.286 960.998 850.069 349.473 346.124 478.407 187.93 706.021 906.859 939.898 332.584 349.162 482.59 161.542 736.085 785.246 820.168 353.54 356.859 424.269 171.042 936.706 814.298 725.718 416.627 379.226 360.977 182.498 938.247 815.908 1039.11 398.548 557.481 453.321 234.129 832.162 735.336 792.007 380.09 380.767 362.586 164.419 782.867 785.52 844.136 402.721 451.395 372.75 215.671 687.114 810.947 765.88 347.582 331.472 412.771 187.05 355.642 398.176 817.719 160.532 355.642 398.176 160.532 848.328 407.25 860.556 857.796 401.79 421.994 407.25 208.567 401.79 208.567 907.895 927.083 884.104 452.252 441.079 458.766 213.427 884.675 834.249 926.876 471.789 466.816 468.317 238.825 842.638 785.327 857.396 408.255 417.859 365.932 232.964 832.343 821.867 952.54 343.905 424.779 419.395 175.291 862.261 820.748 861.365 407.864 407.564 402.472 168.614 914.093 867.77 801.851 444.582 454.696 418.276 239.25 778.591 900.548 883.918 375.075 459.396 449.494 205.332 813.011 917.254 826.471 406.49 319.195 451.054 169.743 985.939 906.691 957.127 486.023 493.815 466.2 236.747 942.538 848.817 859.914 457.421 492.123 440.491 249.276 796.471 849.649 923.336 388.626 450.415 408.326 208.145 684.109 787.345 866.79 356.249 346.056 441.323 180.481 683.432 743.754 743.189 343.655 338.053 346.022 175.768 603.926 713.787 900.868 275.189 345.379 397.732 167.888 748.409 772.106 745.192 309.482 258.547 316.055 107.302 819.746 735.479 974.165 351.276 489.862 456.051 202.18 809.984 790.385 723.648 441.638 329.884 279.428 149.096 882.627 890.417 948.521 502.503 480.1 510.956 292.542 849.272 855.67 774.88 477.763 402.527 379.461 209.962 941.334 929.047 912.111 499.553 446.745 476.209 267.801 994.896 929.348 927.493 500.39 494.589 452.838 231.752 1004.25 988.781 886.543 559.115 500.307 476.511 268.638 1094.68 1041.72 935.501 611.525 503.946 512.271 290.477 1054.05 989.707 1030.28 574.275 590.736 529.445 321.048 809.801 851.995 822.948 431.706 463.309 460.261 253.227 828.118 864.663 745.437 397.671 346.492 391.734 178.478 892.865 805.543 886.072 417.36 481.626 472.929 219.193 803.981 643.677 693.653 355.246 411.24 332.614 198.167 827.149 720.986 757.989 382.799 392.741 311.064 157.078 896.484 820.998 803.692 463.365 434.408 409.922 225.721 462.077 411.076 850.915 237.644 462.077 411.076 237.644 893.572 450.547 817.385 839.445 356.973 438.562 450.547 193.223 356.973 193.223 903.085 925.129 852.868 474.831 443.025 460.411 245.339 899.596 889.112 988.317 362.46 460.059 464.718 229.492 967.298 911.824 942.892 377.072 439.537 424.394 132.968 981.562 937.999 1046.42 477.963 527.76 487.43 244.104 800.955 837.772 911.983 412.885 453.801 450.57 233.858 771.676 867.903 786.39 423.188 347.154 387.202 179.026 931.798 1046.83 882.304 525.473 424.522 480.701 244.162 970.587 976.464 1043.72 510.764 507.276 566.13 281.312 831.103 805.328 866.284 420.667 463.312 410.335 229.453 840.713 845.823 803.574 391.395 367.791 394.993 191.215 993.655 981.827 997.382 461.023 472.922 450.83 200.181 925.869 938.931 1030.57 431.097 520.734 530.997 260.842 960.625 799.621 916.846 400.099 405.135 407.934 170.254 1042.13 804.746 874.337 438.598 555.489 391.687 229.844 970.948 835.473 930.319 462.624 486.646 413.059 208.753 878.067 743.473 834.194 384.203 484.302 422.414 253.871 862.185 691.345 735.659 348.747 393.764 321.059 130.332 840.774 761.503 853.049 387.914 468.421 370.286 218.415 837.72 757.623 820.21 377.908 372.354 391.217 169.499 898.27 781.021 878.139 429.495 465.366 366.407 208.409 819.14 796.872 802.682 428.958 432.904 414.615 221.086 817.791 812.847 764.614 429.666 386.236 382.258 207.873 871.095 764.329 860.614 430.191 431.555 430.589 221.794 799.179 744.552 764.944 415.431 439.54 333.74 208.397 758.583 820.007 797.484 420.289 359.639 410.812 207.034 803.391 868.16 725.464 466.992 398.945 409.196 213.255 686.86 816.731 835.972 388.183 404.447 458.964 253.737 647.661 663.052 626.369 288.432 282.413 357.767 134.447 734.533 671.474 731.799 338.187 365.248 305.284 153.985 758.123 717.574 767.01 357.633 369.285 366.19 184.201 388.838 351.384 831.432 173.432 388.838 351.384 173.432 798.741 388.899 378.823 388.899 163.751 378.823 388.899 163.751 163.751 163.751 938.1 450.298 409.843 450.298 409.843 215.072 215.072 1031.61 526.652 528.257 526.652 528.257 235.225 235.225 1022.01 534.751 503.355 534.751 503.355 291.426 291.426 976.84 460.037 518.658 460.037 518.658 243.325 243.325 897.418 424.888 458.182 424.888 458.182 216.711 216.711 897.017 444.715 439.236 444.715 439.236 208.176 208.176 994.221 521.357 457.781 521.357 457.781 236.539 236.539 939.412 465.7 536.44 465.7 536.44 284.818 284.818 838.755 384.66 402.973 384.66 402.973 180.882 180.882 960.243 454.428 435.783 454.428 435.783 203.778 203.778 1034.3 520.804 524.46 520.804 524.46 250.649 250.649 1021.55 507.834 509.839 507.834 509.839 270.155 270.155 830.558 399.523 511.71 399.523 511.71 237.68 237.68 762.521 366.149 318.848 366.149 318.848 161.843 161.843 793.565 372.849 443.674 372.849 443.674 204.306 204.306 691.786 359.271 349.891 359.271 349.891 168.544 168.544 726.523 342.598 341.895 342.598 341.895 190.727 190.727 832.485 373.589 384.628 373.589 384.628 151.871 151.871 860.629 379.716 447.856 379.716 447.856 221.718 221.718 782.55 351.527 412.773 351.527 412.773 157.998 157.998 748.156 367.914 369.778 367.914 369.778 193.529 193.529 807.437 383.181 378.378 383.181 378.378 174.385 174.385 754.463 334.138 429.058 334.138 429.058 208.796 208.796 763.25 329.121 325.404 329.121 325.404 125.343 125.343 764.365 399.718 437.846 399.718 437.846 203.778 203.778 758.044 401.168 326.519 401.168 326.519 195.94 195.94 775.481 428.548 431.525 428.548 431.525 205.227 205.227 710.507 374.62 343.956 374.62 343.956 223.321 223.321 764.277 333.288 366.551 333.288 366.551 151.299 151.299 840.319 359.941 397.726 359.941 397.726 181.989 181.989 442.593 177.952 442.593 177.952 442.593 177.952 177.952 551.556 558.741 295.282 1011.12 558.741 944.95 1000.15 524.6 295.282 551.556 558.741 295.282 524.6 295.282 504.789 452.379 896.414 911.799 836.501 256.274 504.789 452.379 420.35 256.274 469.109 444.035 987.524 880.576 940.042 248.515 469.109 444.035 491.449 248.515 530.039 543.489 1068.1 937.453 923.625 220.594 530.039 543.489 389.127 220.594 560.554 524.613 1022.98 1068.51 973.892 309.445 560.554 524.613 548.326 309.445 441.838 498.371 931.581 941.13 950.888 251.109 441.838 498.371 520.181 251.109 430.694 433.21 906.598 849.992 859.985 190.729 430.694 433.21 420.949 190.729 532.228 473.389 956.952 950.957 856.224 239.965 532.228 473.389 429.042 239.965 513.233 483.563 998.649 1031.02 957.273 292.263 513.233 483.563 521.915 292.263 365.024 515.086 942.416 841.457 1030.73 220.97 365.024 515.086 509.109 220.97 311.874 427.33 816.604 721.166 855.057 144.053 311.874 427.33 332.348 144.053 345.896 389.274 794.664 735.746 860.609 167.821 345.896 389.274 388.818 167.821 444.717 405.39 898.336 824.716 810.332 178.075 444.717 405.39 346.928 178.075 464.783 492.946 890.54 898.352 902.53 266.642 464.783 492.946 477.788 266.642 503.843 397.594 947.048 942.127 806.4 198.141 503.843 397.594 420.565 198.141 580.671 549.454 1049.39 1001.71 997.772 305.702 580.671 549.454 521.562 305.702 467.952 499.941 896.509 850.633 969.002 274.969 467.952 499.941 480.146 274.969 390.666 396.567 809.137 828.755 763.913 192.983 390.666 396.567 370.487 192.983 443.447 412.57 873.835 869.897 898.709 197.683 443.447 412.57 458.268 197.683 427.622 461.265 851.78 817.901 799.946 245.764 427.622 461.265 411.628 245.764 384.226 390.515 798.968 799.52 809.752 181.857 384.226 390.515 406.273 181.857 468.88 408.453 857.604 915.181 813.163 202.368 468.88 408.453 393.248 202.368 471.803 449.15 908.105 1001.34 904.326 266.512 471.803 449.15 521.933 266.512 356.422 458.955 805.403 867.056 954.063 205.291 356.422 458.955 479.409 205.291 350.414 346.448 730.929 764.394 802.131 151.132 350.414 346.448 387.647 151.132 419.106 384.481 852.329 854.328 779.35 199.282 419.106 384.481 376.747 199.282 424.981 467.848 906.628 901.063 897.639 219.824 424.981 467.848 477.58 219.824 335.33 438.78 814.743 717.556 818.557 205.157 335.33 438.78 423.483 205.157 354.006 375.963 828.914 691.313 735.365 130.173 354.006 375.963 294.073 130.173 384.79 452.95 766.78 765.444 753.127 223.833 384.79 452.95 397.24 223.833 355.571 313.83 701.728 800.808 740.091 160.957 355.571 313.83 368.204 160.957 194.614 387.898 387.898 432.604 741.356 194.614 194.614 387.898 432.604 194.614 825.53 441.408 786.647 861.723 385.6 393.394 441.408 229.318 385.6 229.318 880.13 865.914 848.344 407.01 384.122 401.047 164.076 876.143 846.318 949.102 411.467 496.008 464.867 242.934 829.414 841.847 881.074 407.414 380.135 381.451 168.533 901.795 977.099 898.966 507.953 449.279 460.396 238.881 879.291 961.966 901.071 499.292 452.516 516.704 269.071 809.611 904.106 910.164 419.298 426.775 445.262 230.221 856.545 887.289 902.458 418.729 382.836 458.843 189.077 989.352 908.738 862.011 517.791 473.709 428.446 229.652 943.371 895.65 939.784 476.433 515.643 480.292 288.138 899.063 831.683 918.283 409.292 427.728 415.357 188.295 876.277 768.647 899.81 389.851 471.335 416.325 220.998 814.526 846.175 859.268 379.999 404.942 352.321 168.853 818.39 895.93 856.784 433.57 409.584 493.854 211.146 857.124 832.541 857.683 438.284 408.806 402.077 222.424 917.379 834.257 866.691 421.037 448.318 430.464 215.86 836.406 827.798 945.724 382.681 469.061 403.793 205.177 853.485 867.571 819.032 438.09 367.346 424.005 177.504 824.82 833.341 888.62 426.449 486.139 443.567 260.585 757.918 832.037 743.153 390.279 338.681 389.774 165.864 823.947 853.859 886.217 415.295 419.237 442.263 224.415 859.886 885.981 833.922 446.301 404.71 411.596 190.88 950.284 997.826 830.902 529.54 455.176 474.385 255.421 950.79 918.948 950.689 510.634 495.108 523.441 274.119 850.551 751.726 834.543 413.981 455.682 395.507 236.515 824.659 884.891 785.469 435.221 394.869 356.219 177.465 809.568 953.437 970.262 476.082 429.79 528.671 257.756 739.18 802.303 807.544 382.225 379.778 424.765 218.326 659.579 745.908 774.369 337.307 359.402 377.538 163.9 726.438 702.373 706.157 380.654 300.177 368.37 173.407 779.719 663.019 751.415 445.237 426.261 334.003 207.246 353.459 329.016 611.998 237.99 353.459 329.016 237.99 884.536 420.315 792.396 776.848 340.362 393.253 420.315 156.282 340.362 156.282 917.316 906.453 849.195 458.905 464.221 452.033 236.971 954.033 964.375 946.634 434.851 453.094 454.42 221.933 950.626 1035.05 975.6 434.432 500.939 509.955 212.918 898.242 981.45 879.754 469.147 449.687 525.098 221.514 931.944 930.612 856.13 462.674 448.555 456.353 247.632 1003.01 934.129 929.025 484.808 483.389 474.26 215.042 907.924 928.211 923.847 468.56 519.623 459.87 269.766 812.443 878.887 818.325 390.948 388.301 468.341 198.794 914.696 809.254 871.891 419.217 424.141 410.546 192.154 919.03 853.908 867.514 422.391 490.555 398.709 227.063 882.801 816.168 876.716 378.796 428.475 455.199 195.328 901.526 861.565 818.202 466.176 454.326 360.969 183.468 896.077 878.621 811.075 462.361 447.2 500.596 282.708 867.25 874.928 930.563 394.257 448.877 378.026 179.653 895.036 926.602 886.934 413.22 418.373 496.902 214.604 928.35 908.176 962.997 445.117 476.663 429.7 198.616 854.168 878.22 957.9 429.482 451.687 478.477 246.501 806.953 822.477 775.262 406.891 402.481 399.744 182.981 871.453 865.039 790.164 441.758 404.472 422.733 223.91 896.193 848.692 930.53 438.564 466.98 442.305 217.847 804.938 818.125 805.902 439.68 429.212 406.387 220.717 831.307 828.573 777.483 468.286 375.726 411.738 218.964 834.442 750.289 838.037 408.314 455.581 416.834 249.322 769.462 695.623 850.772 337.745 378.861 333.454 158.991 931.072 887.025 748.38 449.669 390.601 362.169 178.754 968.237 929.109 1051.57 477.355 540.471 524.856 270.915 842.733 831.978 785.423 420.077 427.766 404.252 206.44 820.947 773.609 884.636 408.601 414.967 427.726 213.638 731.134 669.368 775.257 321.719 405.98 345.883 194.963 583.694 588.511 684.576 217.782 325.154 323.485 126.756 258.54 265.026 562.332 91.0261 258.54 265.026 91.0261 741.508 356.534 784.1 729.782 342.823 399.142 356.534 184.081 342.823 184.081 878.514 890.632 876.643 447.548 384.974 441.277 215.061 968.201 884.402 871.175 529.524 493.54 449.355 232.487 904.728 974.498 769.9 600.62 474.661 435.047 297.037 837.643 991.01 873.004 512.303 430.068 539.451 303.583 853.211 898.053 849.309 467.938 407.575 451.559 208.72 849.861 834.369 818.464 449.322 445.636 446.494 259.218 834.248 882.481 788.489 459.651 404.225 387.875 190.104 877.774 985.236 827.601 487.939 430.024 494.607 269.547 824.709 842.104 906.518 390.037 447.75 490.629 218.392 825.2 837.303 749.859 431.517 376.959 351.475 171.646 812.117 855.64 869.625 437.372 448.241 485.827 259.871 727.751 857.655 753.749 395.389 363.876 369.812 177.501 845.561 892.284 844.007 416.261 363.875 487.842 217.888 950.247 915.957 872.402 480.671 481.685 404.441 198.373 954.896 884.215 940.09 513.382 468.562 511.516 282.298 992.547 751.028 861.418 463.059 486.334 372.699 231.083 878.994 812.576 902.822 448.739 506.213 378.329 231.976 758.472 819.425 778.467 415.586 372.781 434.247 216.763 849.24 800.899 756.415 423.281 385.691 385.178 198.823 840.239 804.349 879.245 410.128 463.549 415.721 224.458 778.447 786.548 806.753 378.445 376.69 388.629 185.67 784.214 723.624 851.361 360.286 401.757 397.919 192.774 854.368 687.788 655.215 341.975 382.457 325.705 167.512 829.69 731.315 820.296 357.878 471.912 362.083 174.463 868.873 819.901 751.473 437.356 357.779 369.232 183.415 868.752 971.833 929.599 451.754 511.095 450.668 253.941 827.326 951.6 842.088 411.9 357.657 521.164 197.812 838.946 817.078 900.211 365.007 469.669 430.435 214.088 728.699 727.794 786.868 347.648 369.278 386.643 150.919 663.214 710.261 630.105 370.729 359.421 341.151 196.729 303.792 369.11 703.778 174 303.792 369.11 174 864.917 373.248 811.292 770.321 357.425 384.958 373.248 158.743 357.425 158.743 869.304 898.727 896.826 443.084 491.669 453.867 226.215 672.874 767.765 824.57 354.878 377.635 444.86 216.868 738.175 808.261 723.573 373.878 295.239 322.905 138.01 884.67 967.145 966.771 478.706 442.936 485.356 235.868 814.562 884.512 943.471 430.115 441.734 481.789 242.838 757.093 854.558 787.643 385.048 372.828 402.723 187.276 781.843 826.347 869.055 422.83 384.265 451.835 197.771 856.346 903.817 740.199 497.296 397.578 374.512 225.059 831.669 951.983 917.882 452.067 458.768 529.306 272.237 794.284 890.902 851.813 405.786 372.901 422.677 179.83 811.257 826.113 819.212 418.268 421.384 468.225 225.956 870.005 790.127 723.178 462.266 389.873 357.887 192.312 870.849 815.799 839.839 476.023 480.132 432.24 269.955 862.245 764.022 818.588 435.285 390.717 383.559 206.068 846.611 809.76 870.894 370.833 471.528 380.462 229.217 771.693 756.438 894.18 287.969 375.084 429.298 141.616 802.295 732.183 797.846 363.837 396.609 327.14 146.353 776.41 783.963 828.528 403.84 405.686 405.043 217.484 786.419 749.127 758.795 377.618 370.724 378.92 186.355 845.759 836.003 840.231 394.221 415.696 370.207 191.263 879.667 902.608 872.699 408.103 430.063 465.795 202.958 722.363 808.475 909.827 363.338 449.604 436.813 205.145 621.144 828.97 710.004 345.813 272.759 371.662 158.193 742.079 853.207 796.26 373.437 348.385 457.308 187.62 812.199 760.64 874.208 382.544 393.694 395.899 185.817 902.935 950.526 786.046 520.079 418.505 364.741 196.727 914.973 1015.2 992.673 539.699 484.43 585.785 323.352 848.132 900.806 843.592 452.071 430.543 429.42 216.348 688.274 824.495 854.941 380.146 417.59 471.386 235.724 670.67 772.652 614.233 339.532 270.684 353.109 144.422 399.986 419.542 814.748 195.11 399.986 419.542 195.11 802.23 397.073 881.345 845.819 456.006 426.334 397.073 198.683 456.006 198.683 852.092 883.897 791.939 455.643 405.157 425.338 227.652 875.269 950.023 883.377 412.886 446.936 458.558 227.991 952.168 1024.61 924.863 434.383 428.334 491.464 184.895 1025.57 992.038 1023.69 488.439 523.835 533.145 249.488 916.552 842.468 975.786 454.397 501.737 458.893 238.951 899.605 817.999 830.605 469.51 414.815 383.574 215.446 827.412 809.841 838.792 403.516 484.791 434.425 254.064 801.735 866.344 779.053 406.521 342.622 375.416 149.453 938.026 910.351 908.595 499.916 459.114 490.927 257.068 876.74 934.434 880.359 485.117 478.913 419.424 242.848 731.133 940.477 884.822 407.845 397.828 515.01 242.269 693.013 822.633 829.628 327.861 333.305 425.467 165.576 787.578 900.303 821.995 339.777 359.707 397.166 162.285 827.237 932.274 961.136 328.736 427.871 503.136 177.491 918.463 947.251 888.307 438.927 399.367 429.137 151.245 920.333 962.333 982.94 468.469 519.096 518.114 287.682 824.079 881.784 858.458 368.346 401.237 444.22 180.787 810.913 832.984 903.25 380.123 422.842 437.565 187.559 812.607 831.321 798.504 371.509 388.071 395.419 192.565 867.171 910.557 856.223 441.782 424.536 435.902 178.945 902.858 884.688 856.947 494.506 442.636 474.656 262.837 897.468 833.262 914.31 445.137 460.223 410.032 231.668 885.12 924.061 820.647 483.157 437.245 423.23 213.469 928.39 863.517 951.264 479.77 447.875 500.831 269.688 848.056 716.39 855.468 378.096 480.515 362.687 210.082 875.784 766.846 699.449 430.447 367.541 353.703 168.014 921.292 774.182 855.887 475.506 508.242 413.143 262.433 850.401 807.965 758.562 448.735 413.05 361.039 213.073 780.9 840.696 890.826 444.35 437.351 446.925 235.663 758.312 833.609 770.814 433.119 343.549 393.771 208.687 414.763 439.839 763.74 224.432 414.763 439.839 224.432 835.528 448.746 874.929 870.63 482.472 455.01 448.746 257.324 482.472 257.324 823.223 916.056 831.463 428.254 386.782 392.457 197.687 932.97 1042.1 980.43 537.136 436.441 523.599 230.567 996.386 1077.49 878.558 590.226 496.529 518.498 306.569 973.905 1020.4 969.27 503.599 499.857 558.989 283.656 889.839 860.601 965.034 388.071 474.048 461.414 219.943 769.792 800.79 853.461 348.489 415.79 399.188 168.128 790.433 879.188 862.995 406.325 354.001 401.603 180.361 885.912 933.535 900.928 459.823 436.431 477.585 225.964 850.928 864.53 932.4 410.435 449.481 455.95 233.859 888.441 955.132 842.751 449.317 401.447 408.58 176.576 983.317 1046.13 980.513 532.632 486.995 546.552 272.741 958.611 1008.49 991.136 494.773 496.323 499.576 259.891 995.554 991.561 970.173 560.526 462.288 508.912 234.881 1022.21 999.91 908.688 603.537 533.266 482.649 325.645 952.784 929.039 953.061 508.324 488.941 517.26 277.892 921.063 826.379 870.268 493.864 463.843 411.779 230.432 937.628 897.363 822.891 513.438 457.22 414.6 263.432 890.841 911.756 996.806 452.86 480.408 482.763 250.006 842.12 940.725 827.333 459.812 410.433 428.993 202.855 845.998 899.799 878.56 468.776 431.687 511.732 256.957 868.398 770.424 723.429 390.182 414.311 388.067 211.818 837.489 812.381 827.792 388.125 454.087 382.357 178.364 886.792 861.228 837.578 440.904 383.402 430.024 209.761 878.342 817.877 867.936 383.748 503.389 431.204 231.143 706.861 702.941 746.589 338.294 374.953 386.673 152.605 679.552 693.276 666.14 336.399 331.907 316.268 185.689 693.156 645.61 721.923 298.677 347.644 377.008 150.71 798.987 695.117 674.574 359.23 345.512 268.602 147.967 880.74 827.335 874.579 396.346 453.475 426.515 211.263 776.242 880.868 816.487 400.49 427.265 400.82 185.083 348.977 480.048 813.957 215.407 348.977 480.048 215.407 866.565 421.884 419.918 421.884 225.148 419.918 421.884 225.148 225.148 225.148 988.67 487.802 444.681 487.802 444.681 194.77 194.77 926.018 504.961 543.989 504.961 543.989 293.032 293.032 851.442 487.262 382.029 487.262 382.029 211.929 211.929 960.399 516.804 469.414 516.804 469.414 275.333 275.333 928.656 472.531 490.985 472.531 490.985 241.471 241.471 946.665 452.302 437.671 452.302 437.671 231.06 231.06 973.491 472.864 508.994 472.864 508.994 221.242 221.242 947.416 473.712 464.497 473.712 464.497 251.621 251.621 924.224 454.095 482.919 454.095 482.919 222.091 222.091 934.823 505.815 441.305 505.815 441.305 232.004 232.004 988.331 513.496 493.518 513.496 493.518 273.811 273.811 1002.7 513.715 494.813 513.715 494.813 239.685 239.685 883.307 431.035 507.885 431.035 507.885 274.03 274.03 839.543 396.372 375.423 396.372 375.423 157.005 157.005 870.545 420.715 464.121 420.715 464.121 239.368 239.368 772.096 332.515 406.424 332.515 406.424 181.347 181.347 882.069 383.925 365.671 383.925 365.671 151.168 151.168 933.297 458.896 516.397 458.896 516.397 232.757 232.757 863.772 480.913 416.9 480.913 416.9 226.138 226.138 755.99 431.024 446.872 431.024 446.872 254.775 254.775 682.823 380.242 309.118 380.242 309.118 176.249 176.249 827.881 424.256 373.705 424.256 373.705 203.993 203.993 818.723 420.324 454.176 420.324 454.176 220.263 220.263 736.183 434.129 364.547 434.129 364.547 200.061 200.061 705.869 364.646 371.636 364.646 371.636 234.068 234.068 708.512 356.877 334.233 356.877 334.233 130.579 130.579 703.341 346.934 374.279 346.934 374.279 226.298 226.298 750.167 335.887 329.062 335.887 329.062 120.635 120.635 810.327 430.989 421.104 430.989 421.104 215.252 215.252 854.202 480.378 389.222 480.378 389.222 215.737 215.737 464.979 264.641 464.979 264.641 464.979 264.641 264.641 459.563 545.335 263.458 1007.79 545.335 891.7 924.985 475.549 263.458 459.563 545.335 263.458 475.549 263.458 391.625 462.455 961.959 864.745 927.443 196.105 391.625 462.455 416.151 196.105 518.415 499.504 1037.84 983.091 974.803 195.52 518.415 499.504 448.593 195.52 538.063 538.335 960.527 960.064 973.892 322.895 538.063 538.335 534.498 322.895 462.43 422.191 875.598 856.273 898.417 215.168 462.43 422.191 425.566 215.168 489.743 453.407 945.889 869.742 864.333 247.262 489.743 453.407 430.707 247.262 475.905 492.482 931.744 866.218 901.863 242.481 475.905 492.482 439.036 242.481 424.724 439.263 857.133 862.54 891.29 233.424 424.724 439.263 427.182 233.424 485.416 417.871 960.466 956.978 972.671 191.3 485.416 417.871 435.357 191.3 577.392 542.596 1048.97 1044.33 936.778 294.116 577.392 542.596 521.62 294.116 504.73 506.377 1019.21 994.5 1031.64 283.276 504.73 506.377 522.71 283.276 448.769 512.833 913.624 935.195 1043.39 221.453 448.769 512.833 471.791 221.453 453.62 400.791 842.605 888.147 822.134 227.315 453.62 400.791 463.404 227.315 425.758 441.814 860.675 810.578 833.854 226.304 425.758 441.814 424.743 226.304 443.205 418.86 872.781 862.045 833.968 199.453 443.205 418.86 385.835 199.453 468.724 453.921 928.479 965.066 867.417 243.752 468.724 453.921 476.21 243.752 428.557 474.559 846.116 882.282 966.673 224.972 428.557 474.559 488.856 224.972 418.471 371.557 872.079 833.867 792.385 203.585 418.471 371.557 393.426 203.585 430.388 500.522 983.86 828.758 946.355 214.887 430.388 500.522 440.441 214.887 424.159 483.338 917.319 791.797 913.661 215.501 424.159 483.338 388.318 215.501 414.742 433.981 846.831 823.395 830.623 208.658 414.742 433.981 403.48 208.658 388.723 412.85 781.583 802.309 806.148 206.085 388.723 412.85 419.915 206.085 436.302 368.733 800.295 857.047 794.273 182.638 436.302 368.733 382.393 182.638 448.981 431.562 852.762 889.137 889.943 253.664 448.981 431.562 474.653 253.664 380.516 421.2 798.429 817.086 846.704 195.317 380.516 421.2 414.484 195.317 433.223 377.229 843.917 822.661 788.773 185.199 433.223 377.229 402.602 185.199 481.646 466.688 883.171 815.133 818.78 248.024 481.646 466.688 420.058 248.024 479.413 416.483 841.038 836.367 875.763 233.622 479.413 416.483 395.074 233.622 474.908 424.555 805.837 797.18 834.3 245.79 474.908 424.555 441.293 245.79 381.99 381.282 710.038 727.774 731.477 229.117 381.99 381.282 355.887 229.117 346.156 328.756 775.734 680.639 727.4 152.873 346.156 328.756 371.887 152.873 193.284 446.978 446.978 308.752 756.8 193.284 193.284 446.978 308.752 193.284 844.638 379.65 923.419 919.537 476.123 432.137 379.65 212.09 476.123 212.09 940.287 931.531 916.246 473.12 464.989 447.297 220.047 910.855 983.858 947.915 464.676 475.298 484.234 253.073 911.782 938.194 909.847 422 435.557 499.624 211.602 887.151 822.938 915.558 393.843 476.225 438.57 210.398 820.307 849.269 857.158 380 410.926 384.367 183.445 861.409 908.517 873.762 390.313 409.382 464.902 196.555 1006.83 877.18 922.235 437.816 452.028 443.615 193.759 948.983 893.057 957.558 471.562 554.8 433.565 244.057 919.447 962.417 822.045 466.938 394.182 459.492 227.505 1055.82 986.41 973.778 489.77 525.265 502.925 239.433 951.899 990.431 1040.21 486.426 530.556 483.484 250.337 813.382 869.877 902.178 434.527 421.343 506.946 236.088 807.147 818.536 749.267 384.82 392.039 362.931 198.439 828.604 891.833 914.906 418.839 415.108 455.606 186.382 905.611 978.157 883.378 496.342 413.497 436.227 232.458 912.941 936.958 996.072 453.726 492.114 541.931 263.884 866.66 840.081 844.064 415.395 420.827 395.028 189.841 876.156 798.432 887.015 398.371 445.833 445.054 225.554 826.964 797.334 814.157 367.639 430.323 353.379 172.817 789.94 866.281 850.212 408.652 396.642 443.955 194.822 818.838 778.843 778.279 413.585 393.299 422.326 213.83 883.921 783.765 787.25 420.744 425.54 356.517 199.755 883.885 866.284 898.216 440.156 458.381 427.248 220.989 837.048 868.286 899.923 436.57 425.504 439.036 219.167 763.637 870.84 862.408 389.438 411.544 429.25 217.403 811.372 824.369 735.257 333.486 352.092 441.59 172.034 869.024 779.61 855.417 356.954 459.279 382.778 161.452 759.939 734.618 899.336 322.272 409.745 396.832 195.502 748.839 755.199 740.358 345.784 350.194 337.786 126.77 708.466 700.395 827.564 334.483 398.644 417.413 219.014 309.822 282.982 740.266 115.468 309.822 282.982 115.468 991.145 539.887 833.648 939.742 436.486 491.283 539.887 264.033 436.486 264.033 923.874 889.377 853.91 458.411 451.258 397.162 227.25 946.907 957.859 929.147 519.182 472.617 492.215 231.161 913.623 820.302 820.854 516.193 474.29 465.645 288.021 885.565 754.434 772.979 429.095 439.333 354.657 228.172 910.612 854.543 866.237 469.27 446.232 399.777 200.922 934.587 918.743 857.223 518.204 464.38 454.766 268.347 872.965 813.961 871.296 439.364 470.207 463.978 249.857 830.62 811.329 770.51 421.495 402.758 349.984 189.508 876.375 930.151 838.839 495.479 427.862 461.346 231.987 958.164 890.322 818.92 496.639 448.513 468.805 263.492 990.486 878.75 916.328 504.005 509.651 421.517 233.147 838.063 767.713 831.339 435.35 480.835 457.233 270.858 857.027 863.016 694.805 433.716 357.228 310.48 164.492 969.681 942.569 1025.07 472.993 499.799 552.537 269.224 973.839 923.33 844.774 481.815 469.882 390.032 203.769 927.194 1012.72 946.679 483.233 503.957 533.297 278.047 864.419 854.942 888.028 424.686 423.237 479.424 205.186 825.016 742.948 788.173 400.062 441.182 375.518 219.5 837.405 855.654 798.938 429.695 383.834 367.43 180.562 838.551 887.739 908.015 457.629 453.571 488.224 249.133 746.69 765.26 831.217 365.258 384.98 399.515 208.496 801.545 786.948 799.086 363.021 361.71 365.745 156.762 914.254 938.521 858.279 426.128 439.835 421.203 206.258 925.283 903.529 931.644 431.716 474.419 517.318 219.869 834.028 912.92 880.698 481.403 450.863 386.211 211.847 779.302 907.881 843.528 490.882 383.164 526.709 269.556 885.728 838.082 806.791 422.656 396.138 381.171 221.326 879.755 886.285 959.841 412.346 489.591 456.91 201.329 819.083 790.465 742.054 409.415 390.164 429.375 211.017 859.364 658.397 775.094 365.912 428.92 361.091 198.398 430.444 297.306 786.081 167.514 430.444 297.306 167.514 802.508 399.856 822.325 860.174 386.959 342.366 399.856 172.453 386.959 172.453 859.183 857.186 882.606 430.966 402.652 435.366 169.912 803.095 756.672 865.338 438.677 456.53 421.82 261.054 680.21 668.405 688.368 304.108 346.564 334.853 177.624 753.651 731.303 777.3 325.339 333.646 333.553 126.485 812.848 769.72 809.508 385.273 420.005 397.75 198.855 793.931 772.585 801.807 400.539 392.843 371.97 186.418 768.841 733.609 729.246 374.597 401.088 400.615 214.121 778.729 748.884 735.712 389.835 367.753 332.995 160.476 781.384 814.273 800.924 434.671 410.976 415.889 229.358 777.084 782.182 729.766 393.683 370.407 398.384 205.313 757.181 767.734 816.901 374.745 406.677 383.798 188.37 688.081 740.101 733.426 332.363 350.504 383.936 186.375 862.851 824.126 722.83 429.3 337.577 356.165 145.988 900.167 896.535 899.656 469.576 525.274 467.961 283.312 817.614 917.292 851.045 441.514 374.892 428.574 186.264 907.513 1013.21 869.522 529.488 442.721 488.719 255.251 811.783 868.713 929.458 430.255 464.792 524.493 274.237 762.095 715.456 694.876 342.886 346.991 344.22 156.018 869.548 834.76 836.743 425.959 415.104 371.236 186.868 900.681 881.649 819.927 430.111 454.444 463.524 239.091 883.613 871.566 844.611 400.002 446.237 418.125 191.019 855.821 782.952 780.403 423.927 437.376 453.442 208.983 875.669 787.724 735.323 512.393 418.444 329.51 214.945 887.059 840.454 837.522 471.813 457.225 458.213 297.449 890.198 861.171 782.609 431.517 429.835 382.24 174.364 871.017 799.855 876.901 416.998 460.363 478.931 257.153 880.904 790.7 779.697 415.426 410.654 320.924 159.845 822.14 870 868.325 473.939 470.25 469.776 255.581 698.064 689.179 711.273 381.051 351.89 400.224 218.358 701.812 623.622 652.326 292.485 346.174 288.954 162.693 355.637 334.668 732.547 129.792 355.637 334.668 129.792 940.272 460.318 855.855 903.832 412.896 479.959 460.318 214.506 412.896 214.506 888.761 822.67 905.751 426.22 479.953 442.959 265.454 750.612 780.379 874.197 317.995 408.808 379.711 160.766 785.458 882.082 863.916 364.297 341.804 400.668 157.229 833.158 943.096 1055.08 405.964 443.654 481.414 207.068 798.468 846.602 814.749 384.447 389.503 461.682 198.895 737.122 802.141 854.289 372.045 408.964 384.92 185.552 696.117 782.908 748.293 359.012 328.158 417.22 186.494 757.907 754.264 818.693 359.049 367.959 365.688 172.518 749.307 817.712 821.833 379.602 389.948 388.576 186.531 769.583 780.122 813.272 388.499 359.359 429.136 193.071 793.146 716.277 812.451 392.989 410.224 350.986 195.428 768.175 772.89 779.889 407.738 382.922 365.291 197.561 759.635 842.627 738.835 394.826 385.253 407.599 210.177 850.534 925.46 799.388 426.959 374.382 435.028 184.649 902.953 955.314 876.359 475.778 476.153 490.432 242.31 891.467 935.588 884.292 483.724 426.8 464.882 233.468 812.551 894.191 898.67 438.458 464.666 470.706 250.256 769.524 803.36 793.97 372.57 347.885 423.485 188.202 787.122 849.898 832.614 408.801 421.639 379.875 184.368 763.857 876.927 790.386 451.538 365.483 470.024 224.433 741.4 879.917 755.659 471.564 398.374 406.904 227.105 659.905 811.355 736.36 359.025 343.026 473.013 244.459 697.175 677.293 708.889 275.33 316.878 338.342 114.566 733.072 817.261 708.48 368.641 380.297 338.952 160.765 769.313 899.614 892.615 429.654 352.775 478.309 207.877 785.581 828.193 813.851 382.856 416.538 421.305 221.778 767.119 821.06 830.075 375.274 369.043 406.888 161.079 757.458 797.727 783.228 396.061 398.075 414.172 214.195 665.535 644.678 772.657 308.128 359.383 383.555 181.866 683.061 656.329 714.577 331.137 306.152 261.124 126.262 376.909 395.206 783.445 204.876 376.909 395.206 204.876 869.311 443.514 756.413 850.744 389.812 375.896 443.514 198.39 389.812 198.39 891.187 791.419 824.866 396.45 425.798 366.601 177.505 987.502 858.217 948.382 462.383 465.39 424.818 218.944 1133.54 923.945 952.227 517.785 522.112 433.399 243.439 1036.67 1007.44 1057.96 537.133 611.426 490.547 274.346 870.571 963.923 857.786 462.155 425.246 516.892 262.787 865.461 851.398 998.576 430.095 445.325 447.031 199.368 870.869 808.004 810.073 423.896 420.135 404.367 230.727 882.618 821.304 902.753 395.215 450.734 403.636 193.169 885.797 878.603 866.215 438.11 431.885 417.667 202.046 856.14 830.747 850.338 391.623 453.912 460.935 236.065 799.195 773.973 854.977 323.288 402.227 369.812 155.558 750.549 828.99 888.527 365.152 396.967 404.161 167.73 778.588 882.829 783.391 447.801 353.582 424.829 197.422 825.213 917.17 755.95 498.501 425.006 458 250.379 857.698 923.995 771.945 479.536 400.207 459.17 248.122 891.495 879.063 882.263 451.864 457.492 464.826 231.414 880.089 879.923 877.519 455.733 434.003 414.238 220.45 857.06 868.771 900.879 430.789 446.085 465.685 235.283 835.877 823.406 835.922 441.097 410.975 403.085 195.506 782.188 802.612 824.601 425.389 424.903 420.321 245.591 750.62 886.568 768.602 408.353 357.286 382.291 179.798 785.344 901.694 885.613 452.33 393.334 504.278 228.554 720.193 847.851 768.781 401.963 392.01 397.417 223.776 868.023 943.215 808.433 448.62 328.183 450.434 178.187 937.154 838.527 924.197 469.96 539.84 492.781 270.433 858.345 788.49 673.476 445.337 397.313 345.746 199.528 846.185 840.266 914.28 445.787 461.031 442.744 245.81 798.427 841.422 799.021 401.665 385.153 397.522 199.977 821.699 820.943 817.667 336.55 413.274 443.9 201.688 814.96 700.944 880.198 325.192 408.425 377.043 134.862 406.535 323.901 751.754 190.33 406.535 323.901 190.33 806.299 407.231 827.165 929.63 388.158 380.518 407.231 191.422 388.158 191.422 882.061 895.838 879.129 394.97 399.069 439.007 189.096 913.107 816.891 950.362 395.834 482.992 456.831 205.874 876.646 770.341 833.784 406.161 430.115 360.06 189.96 879.071 913.902 832.891 470.306 446.531 410.281 216.201 985.791 957.894 927.984 501.768 432.54 503.62 254.105 943.188 915.666 986.81 421.303 553.251 454.274 247.663 841.957 884.735 896.427 384.108 389.938 461.392 173.64 886.349 899.793 913.171 426.089 452.019 423.343 210.467 830.756 910.621 957.614 440.492 434.33 476.45 215.622 849.175 868.132 878.953 439.124 396.426 434.171 224.87 944.309 925.521 873.958 450.685 452.749 433.961 214.254 921.37 952.822 947.05 463.839 491.56 491.56 236.431 760.754 887.301 853.736 435.028 429.81 461.262 227.407 702.682 861.84 844.262 418.669 330.944 426.039 207.621 796.51 894.289 751.106 444.46 371.738 435.801 211.048 868.287 866.78 876.171 427.199 424.772 458.489 233.412 898.309 922.334 830.44 424.19 443.515 408.291 193.788 879.742 912.383 945.494 437.981 454.794 514.043 230.402 824.646 765.168 809.377 382.309 424.948 398.34 207.579 811.015 702.189 790.159 377.223 399.699 366.827 174.73 903.595 780.797 760.104 478.216 411.316 335.362 202.492 869.05 852.99 894.886 449.364 492.279 445.435 275.723 857.022 844.286 861.229 445.887 376.771 407.554 173.641 864.607 796.648 852.104 494.595 480.25 436.732 272.246 660.519 709.789 731.597 368.566 384.356 359.916 222.348 729.412 694.787 708.605 343.152 276.163 349.872 146.218 867.117 750.887 799.09 394.48 453.249 344.915 196.934 818.261 854.037 773.028 439.757 413.868 405.972 197.545 876.165 863.731 768.446 484.393 404.393 448.064 242.212 816.992 749.576 848.924 375.752 471.773 415.667 242.181 345.219 333.909 702.567 133.571 345.219 333.909 133.571 1002.46 522.399 446.647 522.399 196.736 446.647 522.399 196.736 196.736 196.736 947.429 500.868 480.06 500.868 480.06 249.911 249.911 871.038 421.057 467.37 421.057 467.37 250.957 250.957 790.029 364.181 403.669 364.181 403.669 170.1 170.1 881.804 443.596 386.36 443.596 386.36 194.081 194.081 929.004 456.126 495.444 456.126 495.444 249.515 249.515 940.049 494.363 433.56 494.363 433.56 206.611 206.611 967.642 500.627 506.489 500.627 506.489 287.752 287.752 984.437 473.704 461.153 473.704 461.153 212.876 212.876 1005.81 470.129 523.284 470.129 523.284 260.828 260.828 903.737 429.007 482.528 429.007 482.528 209.301 209.301 876.699 474.836 421.209 474.836 421.209 219.707 219.707 879.416 488.983 455.49 488.983 455.49 255.129 255.129 937.244 452.273 423.926 452.273 423.926 233.855 233.855 892.686 443.171 513.318 443.171 513.318 218.418 218.418 830.768 449.83 379.368 449.83 379.368 224.753 224.753 838.324 439.58 451.4 439.58 451.4 225.077 225.077 877.625 498.144 386.925 498.144 386.925 214.503 214.503 875.129 474.402 490.7 474.402 490.7 283.64 283.64 774.889 382.859 384.429 382.859 384.429 190.762 190.762 739.248 324.967 390.461 324.967 390.461 192.097 192.097 751.395 302.581 348.788 302.581 348.788 132.869 132.869 887.065 403.625 402.607 403.625 402.607 169.712 169.712 856.312 398.399 484.458 398.399 484.458 233.913 233.913 719.095 302.054 371.854 302.054 371.854 164.485 164.485 779.683 341.223 347.241 341.223 347.241 137.568 137.568 778.284 351.635 432.442 351.635 432.442 203.654 203.654 705.002 356.408 345.842 356.408 345.842 147.981 147.981 723.213 414.279 359.16 414.279 359.16 208.427 208.427 741.204 379.338 364.053 379.338 364.053 205.852 205.852 734.499 373.823 377.151 373.823 377.151 173.485 173.485 357.348 200.338 357.348 200.338 357.348 200.338 200.338 548.227 281.877 281.877 548.227 281.877 960.728 449.436 449.436 281.877 548.227 281.877 281.877 449.436 281.877 570.334 266.35 570.334 1037.5 511.292 266.35 570.334 266.35 511.292 266.35 519.425 303.984 519.425 965.604 526.209 303.984 519.425 303.984 526.209 303.984 422.463 215.44 422.463 912.245 439.395 215.44 422.463 215.44 439.395 215.44 413.168 207.023 413.168 906.477 472.851 207.023 413.168 207.023 472.851 207.023 456.146 206.145 456.146 896.454 433.626 206.145 456.146 206.145 433.626 206.145 455.84 250.001 455.84 926.936 462.828 250.001 455.84 250.001 462.828 250.001 432.409 205.839 432.409 1001.42 464.108 205.839 432.409 205.839 464.108 205.839 475.05 226.57 475.05 952.471 537.313 226.57 475.05 226.57 537.313 226.57 471.581 248.48 471.581 924.09 415.158 248.48 471.581 248.48 415.158 248.48 514.48 223.101 514.48 1080.53 508.933 223.101 514.48 223.101 508.933 223.101 464.855 291.38 464.855 930.329 571.598 291.38 464.855 291.38 571.598 291.38 388.986 173.475 388.986 767.841 358.73 173.475 388.986 173.475 358.73 173.475 434.917 215.51 434.917 857.244 409.111 215.51 434.917 215.51 409.111 215.51 429.576 219.407 429.576 839.341 448.133 219.407 429.576 219.407 448.133 219.407 459.756 210.169 459.756 869.024 391.208 210.169 459.756 210.169 391.208 210.169 417.56 249.587 417.56 876.776 477.817 249.587 417.56 249.587 477.817 249.587 453.608 167.973 453.608 904.873 398.959 167.973 453.608 167.973 398.959 167.973 553.472 285.635 553.472 1031.26 505.914 285.635 553.472 285.635 505.914 285.635 493.161 267.837 493.161 952.486 525.343 267.837 493.161 267.837 525.343 267.837 432.088 225.324 432.088 813.376 427.143 225.324 432.088 225.324 427.143 225.324 392.86 206.765 392.86 798.113 386.233 206.765 392.86 206.765 386.233 206.765 363.993 186.095 363.993 827.169 411.88 186.095 363.993 186.095 411.88 186.095 403.781 177.898 403.781 847.51 415.29 177.898 403.781 177.898 415.29 177.898 417.913 225.883 417.913 818.391 432.22 225.883 417.913 225.883 432.22 225.883 410.694 192.03 410.694 784.893 386.171 192.03 410.694 192.03 386.171 192.03 401.525 218.664 401.525 879.41 398.722 218.664 401.525 218.664 398.722 218.664 361.626 182.861 361.626 873.696 480.688 182.861 361.626 182.861 480.688 182.861 330.93 178.765 330.93 768.597 393.008 178.765 330.93 178.765 393.008 178.765 328.048 152.165 328.048 731.102 375.589 152.165 328.048 152.165 375.589 152.165 429.578 175.883 429.578 803.561 355.513 175.883 429.578 175.883 355.513 175.883 253.695 253.695 253.695 448.048 448.048 253.695 253.695 253.695 448.048 253.695 412.502 167.56 912.364 443.414 443.414 412.502 167.56 167.56 443.414 167.56 467.167 932.63 468.95 467.167 244.942 468.95 244.942 446.179 873.904 463.68 446.179 222.225 463.68 222.225 489.782 887.211 410.223 489.782 223.954 410.223 223.954 493.308 949.778 476.988 493.308 265.827 476.988 265.827 440.308 881.65 472.79 440.308 227.481 472.79 227.481 471.096 887.479 408.86 471.096 212.827 408.86 212.827 569.012 1002.61 478.62 569.012 258.269 478.62 258.269 477.421 886.546 523.993 477.421 310.743 523.993 310.743 452.509 833.405 362.553 452.509 166.678 362.553 166.678 566.051 1027.58 470.852 566.051 285.832 470.852 285.832 465.474 951.955 556.723 465.474 280.219 556.723 280.219 378.855 781.568 395.231 378.855 185.255 395.231 185.255 422.327 845.637 386.337 422.327 193.601 386.337 193.601 409.765 906.452 459.301 409.765 228.726 459.301 228.726 409.269 901.292 447.152 409.269 181.039 447.152 181.039 459.216 903.177 454.141 459.216 228.23 454.141 228.23 451.265 890.998 449.036 451.265 230.986 449.036 230.986 477.785 902.74 441.961 477.785 220.279 441.961 220.279 459.326 867.036 460.778 459.326 257.506 460.778 257.506 381.288 762.21 406.257 381.288 201.82 406.257 201.82 405.253 786.685 355.952 405.253 179.468 355.952 179.468 463.177 901.701 430.733 463.177 225.785 430.733 225.785 443.729 931.855 470.968 443.729 237.392 470.968 237.392 400.478 894.044 460.887 400.478 206.337 460.887 206.337 374.199 726.824 433.158 374.199 194.141 433.158 194.141 477.885 766.305 293.666 477.885 180.058 293.666 180.058 512.07 975.143 472.639 512.07 297.827 472.639 297.827 437.667 905.076 502.504 437.667 214.243 502.504 214.243 403.054 812.723 402.572 403.054 223.424 402.572 223.424 373.984 867.435 410.151 373.984 179.63 410.151 179.63 194.354 457.284 457.284 194.354 194.354 457.284 194.354 499.862 275.854 960.004 503.257 503.257 499.862 275.854 275.854 503.257 275.854 465.463 893.68 456.748 465.463 224.008 456.748 224.008 427.724 792.142 436.932 427.724 241.455 436.932 241.455 397.429 773.531 355.21 397.429 186.269 355.21 186.269 456.47 884.781 418.322 456.47 211.16 418.322 211.16 441.342 868.917 466.46 441.342 245.309 466.46 245.309 416.383 809.776 402.457 416.383 196.033 402.457 196.033 433.601 827.845 407.318 433.601 220.351 407.318 220.351 409.125 798.019 420.526 409.125 213.25 420.526 213.25 380.895 727.608 377.493 380.895 195.875 377.493 195.875 461.525 844.926 350.115 461.525 185.021 350.115 185.021 486.481 868.917 494.811 486.481 276.504 494.811 276.504 402.713 758.431 374.106 402.713 209.977 374.106 209.977 423.311 856.862 384.325 423.311 192.736 384.325 192.736 496.687 927.278 472.536 496.687 230.574 472.536 230.574 492.024 868.123 454.742 492.024 266.113 454.742 266.113 443.961 821.986 413.382 443.961 225.911 413.382 225.911 439.732 821.26 408.605 439.732 218.051 408.605 218.051 424.954 844.163 412.655 424.954 221.682 412.655 221.682 407.71 851.299 431.508 407.71 203.272 431.508 203.272 380.922 851.492 419.791 380.922 204.438 419.791 204.438 381.432 865.043 431.702 381.432 176.484 431.702 176.484 438.524 870.418 433.342 438.524 204.948 433.342 204.948 488.126 851.402 437.076 488.126 233.576 437.076 233.576 493.566 908.813 414.326 493.566 254.55 414.326 254.55 352.625 811.306 494.487 352.625 239.016 494.487 239.016 288.42 742.438 316.818 288.42 113.609 316.818 113.609 463.073 928.55 425.62 463.073 174.811 425.62 174.811 467.409 815.609 502.93 467.409 288.262 502.93 288.262 409.669 726.682 312.679 409.669 179.147 312.679 179.147 493.451 902.778 414.003 493.451 230.521 414.003 230.521 262.93 488.775 488.775 262.93 262.93 488.775 262.93 460.142 227.402 920.455 473.215 473.215 460.142 227.402 227.402 473.215 227.402 428.217 890.757 447.24 428.217 232.74 447.24 232.74 364.417 797.034 443.518 364.417 195.477 443.518 195.477 376.102 797.263 353.516 376.102 168.941 353.516 168.941 428.312 855.506 443.747 428.312 207.161 443.747 207.161 427.575 841.596 411.758 427.575 221.15 411.758 221.15 393.392 758.469 429.837 393.392 206.425 429.837 206.425 394.244 731.349 328.632 394.244 186.967 328.632 186.967 388.894 787.753 402.717 388.894 207.276 402.717 207.276 346.712 716.418 385.035 346.712 181.618 385.035 181.618 383.401 764.486 331.383 383.401 165.094 331.383 165.094 382.436 782.593 433.103 382.436 218.307 433.103 218.307 355.718 716.155 349.49 355.718 164.129 349.49 164.129 433.551 798.36 366.665 433.551 191.589 366.665 191.589 430.591 854.165 431.695 430.591 241.962 431.695 241.962 376.1 803.274 422.471 376.1 188.629 422.471 188.629 378.025 785.768 380.803 378.025 187.471 380.803 187.471 381.527 755.621 404.965 381.527 190.554 404.965 190.554 419.209 816.162 350.656 419.209 190.973 350.656 190.973 443.589 821.91 465.506 443.589 228.236 465.506 228.236 470.57 782.889 356.403 470.57 215.353 356.403 215.353 483.611 753.447 426.486 483.611 255.217 426.486 255.217 431.893 732.773 326.961 431.893 228.394 326.961 228.394 363.276 785.121 405.813 363.276 203.5 405.813 203.5 415.246 779.677 379.308 415.246 159.776 379.308 159.776 458.681 798.339 400.369 458.681 255.471 400.369 255.471 454.019 856.743 397.97 454.019 203.21 397.97 203.21 465.477 857.322 458.773 465.477 250.809 458.773 250.809 348.2 709.598 398.549 348.2 214.669 398.549 214.669 317.014 674.421 311.048 317.014 133.532 311.048 133.532 409.327 761.251 363.372 409.327 183.482 363.372 183.482 225.845 397.879 397.879 225.845 225.845 397.879 225.845 460.312 245.813 953.728 490.936 490.936 460.312 245.813 245.813 490.936 245.813 462.541 957.279 462.792 462.541 214.5 462.792 214.5 432.616 957.735 494.487 432.616 248.041 494.487 248.041 421.161 1036.91 463.249 421.161 184.575 463.249 184.575 427.194 926.734 573.666 427.194 236.586 573.666 236.586 414.02 822.437 353.067 414.02 190.608 353.067 190.608 365.077 800.442 469.369 365.077 223.413 469.369 223.413 337.105 784.078 331.073 337.105 141.664 331.073 141.664 398.858 886.262 453.005 398.858 195.441 453.005 195.441 369.706 817.392 433.257 369.706 203.417 433.257 203.417 381.084 845.601 384.136 381.084 166.288 384.136 166.288 400.157 876.063 461.465 400.157 214.796 461.465 214.796 360.437 745.834 414.598 360.437 185.361 414.598 185.361 364.809 695.595 331.236 364.809 175.076 331.236 175.076 423.575 750.287 364.36 423.575 189.733 364.36 189.733 427.175 805.337 385.927 427.175 233.842 385.927 233.842 407.743 847.374 419.41 407.743 193.333 419.41 193.333 374.093 798.449 427.964 374.093 214.41 427.964 214.41 396.954 823.224 370.485 396.954 159.683 370.485 159.683 378.321 773.101 452.739 378.321 237.271 452.739 237.271 312.319 669.118 320.362 312.319 141.05 320.362 141.05 269.836 612.103 348.756 269.836 171.268 348.756 171.268 300.88 633.894 263.347 300.88 98.5674 263.347 98.5674 421.845 740.075 370.547 421.845 202.313 370.547 202.313 364.431 783.834 369.528 364.431 219.533 369.528 219.533 339.658 806.852 414.306 339.658 144.898 414.306 144.898 402.724 815.732 392.546 402.724 194.76 392.546 194.76 391.845 792.243 423.186 391.845 207.964 423.186 207.964 361.397 758.159 369.057 361.397 183.88 369.057 183.88 357.407 842.556 389.102 357.407 177.517 389.102 177.517 351.924 841.692 453.453 351.924 179.89 453.453 179.89 172.034 388.239 388.239 172.034 172.034 388.239 172.034 493.416 245.123 919.198 460.932 460.932 493.416 245.123 245.123 460.932 245.123 494.738 981.829 458.266 494.738 248.292 458.266 248.292 525.119 1042.39 523.564 525.119 246.445 523.564 246.445 615.754 1086.24 518.829 615.754 278.673 518.829 278.673 499.54 908.304 567.41 499.54 337.08 567.41 337.08 408.416 892.439 340.894 408.416 162.46 340.894 162.46 435.365 957.251 551.545 435.365 245.957 551.545 245.957 446.973 904.822 405.706 446.973 189.409 405.706 189.409 487.404 947.663 499.116 487.404 257.565 499.116 257.565 447.687 837.95 448.547 447.687 229.839 448.547 229.839 464.517 874.567 389.403 464.517 217.847 389.403 217.847 475.907 969.531 485.165 475.907 246.669 485.165 246.669 385.397 842.928 484.366 385.397 229.238 484.366 229.238 330.786 656.512 358.562 330.786 156.16 358.562 156.16 326.712 610.725 297.95 326.712 174.627 297.95 174.627 378.163 730.213 312.775 378.163 152.085 312.775 152.085 439.631 880.719 417.438 439.631 226.077 417.438 226.077 424.356 898.475 463.281 424.356 213.554 463.281 213.554 426.271 868.031 435.194 426.271 210.802 435.194 210.802 394.78 837.118 432.838 394.78 215.468 432.838 215.468 356.799 790.591 404.28 356.799 179.312 404.28 179.312 342.267 767.646 386.311 342.267 177.487 386.311 177.487 333.014 752.7 381.335 333.014 164.78 381.335 164.78 318.23 729.364 371.365 318.23 168.234 371.365 168.234 419.403 789.415 358 419.403 149.996 358 149.996 467.193 759.146 431.416 467.193 269.408 431.416 269.408 413.008 799.267 327.73 413.008 197.786 327.73 197.786 400.398 873.035 471.536 400.398 215.222 471.536 215.222 396.762 775.265 401.499 396.762 185.176 401.499 185.176 485.149 876.921 373.767 485.149 211.586 373.767 211.586 489.768 931.007 503.154 489.768 273.563 503.154 273.563 216.205 427.853 427.853 216.205 216.205 427.853 216.205 425.782 215.809 981.594 541.472 541.472 425.782 215.809 215.809 541.472 215.809 487.092 933.653 440.122 487.092 209.973 440.122 209.973 517.274 967.255 493.531 517.274 277.118 493.531 277.118 470.485 896.333 473.724 470.485 240.155 473.724 240.155 408.765 846.973 422.609 408.765 230.33 422.609 230.33 484.023 956.901 424.364 484.023 178.435 424.364 178.435 521.885 967.572 532.537 521.885 305.588 532.537 305.588 457.849 924.864 435.035 457.849 216.297 435.035 216.297 460.26 970.993 489.829 460.26 241.551 489.829 241.551 390.263 925.946 481.164 390.263 218.708 481.164 218.708 410.051 884.78 444.782 410.051 171.555 444.782 171.555 493.624 895.488 439.998 493.624 238.496 439.998 238.496 457.531 847.964 455.49 457.531 255.129 455.49 255.129 325.725 810.697 392.474 325.725 202.402 392.474 202.402 284.013 733.528 418.223 284.013 123.323 418.223 123.323 352.05 732.988 315.305 352.05 160.69 315.305 160.69 441.088 839.832 417.683 441.088 191.36 417.683 191.36 474.119 853.6 422.149 474.119 249.727 422.149 249.727 441.761 842.487 431.451 441.761 224.392 431.451 224.392 442.338 834.368 411.036 442.338 217.369 411.036 217.369 433.793 848.074 423.332 433.793 224.969 423.332 224.969 425.379 874.193 424.742 425.379 208.824 424.742 208.824 419.686 903.125 449.45 419.686 216.555 449.45 216.555 411.134 869.047 453.675 411.134 203.13 453.675 203.13 370.012 787.053 415.373 370.012 208.004 415.373 208.004 291.953 730.413 371.681 291.953 162.008 371.681 162.008 386.259 812.908 358.732 386.259 129.945 358.732 129.945 472.637 821.231 454.175 472.637 256.315 454.175 256.315 378.503 687.437 367.056 378.503 216.323 367.056 216.323 391.772 753.638 320.381 391.772 162.181 320.381 162.181 441.24 801.915 433.257 441.24 229.591 433.257 229.591 211.648 368.658 368.658 211.648 211.648 368.658 211.648 555.812 325.663 555.812 325.663 325.663 555.812 325.663 325.663 325.663 325.663 446.561 446.561 230.149 446.561 230.149 230.149 230.149 449.981 449.981 216.412 449.981 216.412 216.412 216.412 425.848 425.848 233.569 425.848 233.569 233.569 233.569 438.209 438.209 192.279 438.209 192.279 192.279 192.279 472.878 472.878 245.929 472.878 245.929 245.929 245.929 445.686 445.686 226.949 445.686 226.949 226.949 226.949 467.015 467.015 218.738 467.015 218.738 218.738 218.738 510.733 510.733 248.277 510.733 248.277 248.277 248.277 535.683 535.683 262.456 535.683 262.456 262.456 262.456 474.729 474.729 273.227 474.729 273.227 273.227 273.227 401.863 401.863 201.502 401.863 201.502 201.502 201.502 390.433 390.433 200.361 390.433 200.361 200.361 200.361 484.971 484.971 190.072 484.971 190.072 190.072 190.072 449.515 449.515 294.9 449.515 294.9 294.9 294.9 380.938 380.938 154.615 380.938 154.615 154.615 154.615 398.744 398.744 226.323 398.744 226.323 226.323 226.323 379.481 379.481 172.421 379.481 172.421 172.421 172.421 400.727 400.727 207.059 400.727 207.059 207.059 207.059 392.03 392.03 193.667 392.03 193.667 193.667 193.667 414.282 414.282 198.363 414.282 198.363 198.363 198.363 448.814 448.814 215.919 448.814 215.919 215.919 215.919 483.439 483.439 232.895 483.439 232.895 232.895 232.895 457.913 457.913 250.544 457.913 250.544 250.544 250.544 417.041 417.041 207.369 417.041 207.369 207.369 207.369 438.46 438.46 209.673 438.46 209.673 209.673 209.673 426.649 426.649 228.788 426.649 228.788 228.788 228.788 348.594 348.594 197.861 348.594 197.861 197.861 197.861 308.934 308.934 150.733 308.934 150.733 150.733 150.733 361.866 361.866 158.201 361.866 158.201 158.201 158.201 360.676 360.676 203.666 360.676 203.666 203.666 203.666 157.01 157.01 157.01 157.01 157.01 157.01 157.01 
CELL_DATA 2048
SCALARS stress float 1
LOOKUP_TABLE default
285.852 278.28 215.626 250.046 248.853 255.42 269.047 290.802 255.995 218.041 173.027 231.081 235.249 193.655 151.739 235.277 174.858 234.62 217.595 242.593 317.568 211.202 204.678 160.54 239.697 172.827 242.627 164.267 254.539 254.829 225.025 241.195 181.46 185.512 247.648 220.668 236.951 222.769 265.218 204.7 219.715 308.318 184.88 255.787 236.297 243.007 182.867 211.748 226.738 240.104 192.901 231.366 193.323 150.768 282.58 167.764 210.373 241.807 247.683 218.586 206.958 172.603 218.221 230.483 219.012 212.878 214.809 176.066 195.389 247.672 240.682 327.444 213.721 206.121 166.468 284.3 274.117 184.08 196.545 181.681 200.426 200.098 164.428 195.19 256.431 163.643 199.721 192.196 153.717 158.796 217.172 223.901 231.819 192.44 206.274 130.952 141.156 224.408 218.35 214.775 231.769 279.708 227.686 191.634 207.4 237.52 228.513 200.4 222.158 193.667 169.93 243.366 209.749 154.996 188.683 163.108 220.632 219.721 171.107 174.397 230.266 241.077 142.328 214.874 200.105 178.714 222.645 265.747 193.71 192.669 195.459 193.247 252.411 242.136 269.225 239.896 216.692 165.293 134.869 223.743 241.777 184.225 252.021 266.839 135.122 232.899 200.865 281.861 180.586 252.359 243.029 159.833 205.187 252.042 213.009 242.396 175.116 244.97 191.916 175.711 223.539 214.147 251.038 127.053 153.627 214.566 197.66 188.944 223.6 207.895 165.867 250.577 218.706 210.47 267.582 202.309 210.297 173.41 236.006 247.059 198.962 246.565 160.276 202.189 261.292 173.943 168.919 228.129 256.236 169.749 188.304 238.071 245.764 182.178 215.586 260.996 198.946 169.294 233.489 204 247.485 207.887 214.106 170.462 246.73 176.54 240.488 208.845 167.565 214.879 207.693 210.127 190.54 200.392 203.628 211.022 288.079 267.92 239.591 202.324 243.86 161.035 225.326 185.374 245.077 240.742 199.818 248.402 232.526 251.928 282.59 212.248 200.955 212.009 196.098 236.325 260.933 213.578 178.771 241.365 212.049 213.555 266.726 229.886 232.733 191.466 180.27 176.042 229.067 183.792 159.076 211.522 241.557 203.811 147.425 230.574 286.729 263.665 250.732 311.888 254.597 263.698 236.055 229.605 196.614 292.208 328.005 163.985 268.962 243.71 248.459 189.926 286.905 232.469 221.796 213.106 199.66 203.407 300.615 236.152 166.998 198.507 186.237 176.362 213.424 216.744 204.371 214.198 150.294 248.317 208.476 286.564 228.735 288.616 211.42 247.149 233.295 244.847 201.703 210.181 271.081 189.882 269.222 264.598 206.082 254.724 269.047 288.176 263.008 212.72 175.164 202.468 198.951 203.673 218.143 203.819 309.516 274.446 211.859 194.411 262.452 205.415 268.491 217.723 231.252 145.911 236.568 255.453 235.112 255.994 257.733 281.871 296.501 218.097 244.119 288.893 203.228 234.49 190.905 161.287 232.277 185.575 193.67 221.456 272.359 200.551 209.612 251.737 183.144 158.121 174.672 201.658 202.337 225.431 161.74 179.924 297.805 159.488 203.36 220.985 201.374 254.768 174.761 159.402 232.209 178.993 237.498 178.765 235.652 175.063 166.596 189.436 199.496 237.107 222.051 203.177 227.476 214.659 194.035 191.48 325.105 165.867 215.679 163 189.218 203.676 244.945 220.495 259.44 166.25 204.28 229.645 194.768 247.973 217.56 216.455 158.989 236.855 139.165 198.016 247.81 198.107 246.774 211.246 166.115 149.477 174.292 141.93 213.204 165.172 222.825 164.963 247.114 192.896 187.003 190.393 284.456 263.85 258.794 225.564 173.842 242.224 225.102 161.95 176.006 210.818 227.077 243.242 255.864 207.098 228.678 202.395 203.03 199.579 244.507 218.332 256.204 184.678 251.959 185.407 244.368 166.562 238.355 159.711 149.465 185.122 267.883 161.173 194.52 251.035 299.755 233.113 206.332 238.473 256.914 205.108 186.183 231.113 201.78 166.222 207.367 195.679 249.198 229.148 212.168 242.846 214.506 164.959 205.813 225.744 206.693 213.261 273.5 177.757 229.947 230.138 207.12 155.528 203.609 248.419 272.13 282.217 214.786 245.667 238.584 194.801 190.98 260.862 246.326 208.957 261.598 235.012 212.491 226.874 252.351 249.183 247.71 259.737 197.752 207.499 226.304 196.948 204.456 245.112 204.887 266.367 155.797 226.87 246.374 226.138 169.364 181.964 213.587 224.023 195.433 285.456 240.698 248.856 206.571 232.312 245.982 284.159 265.853 282.252 180.867 288.231 195.943 277.058 246.884 212.248 166.783 225.869 191.554 189.429 181.366 227.977 201.795 207.981 266.543 162.493 146.288 217.309 215.508 212.399 264.976 195.66 237.015 254.486 260.374 233.229 301.971 212.197 187.378 123.004 302.89 181.281 234.842 173.98 148.257 233.167 280.928 190.818 239.991 284.457 161.992 233.515 197.978 212.438 245.328 220.381 154.023 212.915 200.646 201.737 147.391 232.569 213.262 271.475 288.914 223.029 182.474 214.837 229.718 200.107 266.299 246.613 315.196 250.893 273.776 187.716 159.298 204.862 225.006 194.641 209.943 224.279 206.425 187.455 193.577 273.634 255.46 176.764 238.387 194.249 261.327 236.02 133.562 224.867 190.551 189.677 263.741 210.829 271.014 227.365 194.508 288.021 299.972 176.507 207.229 288.411 210.094 138.773 244.042 244.676 223.279 220.217 168.096 208.243 184.182 237.127 221.003 166.39 186.101 213.984 181.311 142.801 226.395 156.518 252.271 210.945 208.92 166.525 185.333 213.153 213.107 246.435 151.445 224.009 243.662 223.355 263.282 257.75 228.09 166.844 185.618 186.88 160.866 276.418 282.061 194.854 181.264 183.754 274.516 206.606 211.03 186.652 199.718 221.658 217.763 185.382 143.067 210.2 171.007 207.938 205.799 206.001 239.083 184.269 188.823 229.936 267.328 178.36 196.524 269.121 245.338 188.984 183.432 200.737 236.799 136.285 184.55 156.542 126.075 208.255 192.8 214.207 213.856 260.305 184.633 237.525 213.185 210.193 111.998 158.014 192.216 219.507 239.925 209.316 238.349 256.935 231.523 255.354 199.802 233.897 224.97 211.671 229.487 238.172 155.104 212.325 178.404 303.319 218.743 226.868 169.619 286.212 230.247 257.069 315.315 217.113 202.333 178.978 161.136 239.165 179.386 191.927 234.647 309.92 203.631 225.442 238.856 239.699 248.183 267.318 200.187 187.172 262.746 245.757 287.688 253.029 195.781 232.437 193.803 202.6 169.341 184.998 212.505 243.408 180.609 253.192 277.979 200.686 148.377 206.784 276.016 247.696 180.887 187.168 223.742 202.584 228.693 235.992 226.687 317.455 244.938 239.748 240.115 235.63 250.812 270.914 143.685 191.802 276.134 212.997 217.276 219.81 243.873 216.603 169.021 178.573 233.506 303.189 192.692 189.115 178.784 179.467 152.054 240.372 225.939 132.633 210.824 254.814 271.931 235.469 271.323 232.059 252.887 270.437 200.663 176.835 228.869 196.269 209.734 247.708 236.587 128.002 228.337 196.174 189.035 207.39 181.252 218.499 230.467 181.53 177.875 227.18 197.271 263.177 192.274 208.869 218.437 185.757 217.672 204.47 153.739 235.38 210.001 149.86 254.488 260.666 201.69 188.627 175.037 211.767 203.206 211.343 220.478 272.828 201.587 185.871 155.249 203.258 236.811 190.702 166.681 198.529 138.646 216.642 251.141 178.583 181.205 250.614 182.942 131.462 186.415 191.871 210.934 198.045 215.399 222.087 180.065 142.896 257.32 217.343 259.683 237.871 235.074 230.355 167.979 212.831 204.921 187.363 169.954 181.279 124.589 176.018 206.023 201.229 243.71 138.797 259.511 208.111 184.756 137 180.471 209.248 219.632 216.936 198.138 249.536 183.325 209.994 254.993 244.352 202.895 202.794 243.967 213.094 164.286 125.414 192.449 184.591 159.746 160.865 165.782 190.508 154.217 247.67 241.391 244.148 233.133 234.259 205.167 208.233 189.293 168.602 221.097 191.587 241.406 219.786 187.16 215.765 206.963 275.278 238.952 176.72 217.609 172.128 253.54 191.322 215.147 192.261 146.087 258.768 218.968 183.697 230.454 270.471 198.491 165.566 249.378 131.391 192.871 209.181 234.245 199.266 207.962 145.904 200.993 225.769 273.934 179.097 251.622 259.839 196.747 240.793 207.701 182.211 241.178 182.768 195.519 239.391 176.559 224.659 180.177 178.091 194.249 213.995 242.31 272.199 151.342 155.727 186.564 129.395 204.166 215.996 250.437 229.826 225.206 202.377 137.127 148.672 219.58 301.001 247.07 223.029 259.488 238.366 268.429 235.458 189.516 264.344 221.767 271.59 205.206 288.194 228.331 214.266 223.117 227.876 174.834 265.465 187.961 204.225 204.32 192.014 247.062 258.366 195.572 203.603 221.506 197.063 218.507 215.641 212.343 282.222 276.061 239.466 197.02 259.237 202.431 285.838 170.904 217.825 256.032 308.798 246.627 185.137 291.052 208.191 177.393 280.098 211.51 314.009 192.166 218.25 272.644 195.116 176.325 162.954 201.737 159.619 175.112 178.315 213.9 203.794 198.481 217.374 259.82 230.141 247.784 243.441 205.044 264.479 196.416 240.5 262.914 247.933 179.815 251.791 215.56 181.214 194.842 232.44 175.642 212.866 201.515 232.4 237.148 233.849 162.184 255.895 155.581 144.01 190.258 219.254 142.806 266.906 192.499 235.851 187.029 289.151 258.107 229.878 259.762 236.288 209.379 182.506 306.044 187.789 237.016 216.344 255.075 198.63 198.667 221.335 201.96 179.24 232.91 152.633 198.134 248.363 211.237 180.091 200.177 168.294 157.781 208.302 213.883 175.5 209.141 241.13 191.051 189.491 238.724 245.233 253.124 227.013 151.532 186.494 177.829 188.39 234.1 266.133 207.16 209.329 228.657 180.02 177.997 218.975 127.7 225.251 178.161 199.862 207.29 162.907 138.624 177.072 216.91 187.456 173.241 121.358 205.37 186.631 165.904 181.736 253.204 181.565 212.862 204.041 254.208 215.042 189.857 224.8 215.934 196.527 209.023 183.551 196.782 227.199 190.286 205.947 203.286 186.595 239.69 187.93 161.542 171.042 182.498 234.129 164.419 215.671 187.05 160.532 208.567 213.427 238.825 232.964 175.291 168.614 239.25 205.332 169.743 236.747 249.276 208.145 180.481 175.768 167.888 107.302 202.18 149.096 292.542 209.962 267.801 231.752 268.638 290.477 321.048 253.227 178.478 219.193 198.167 157.078 225.721 237.644 193.223 245.339 229.492 132.968 244.104 233.858 179.026 244.162 281.312 229.453 191.215 200.181 260.842 170.254 229.844 208.753 253.871 130.332 218.415 169.499 208.409 221.086 207.873 221.794 208.397 207.034 213.255 253.737 134.447 153.985 184.201 173.432 163.751 215.072 235.225 291.426 243.325 216.711 208.176 236.539 284.818 180.882 203.778 250.649 270.155 237.68 161.843 204.306 168.544 190.727 151.871 221.718 157.998 193.529 174.385 208.796 125.343 203.778 195.94 205.227 223.321 151.299 181.989 177.952 295.282 256.274 248.515 220.594 309.445 251.109 190.729 239.965 292.263 220.97 144.053 167.821 178.075 266.642 198.141 305.702 274.969 192.983 197.683 245.764 181.857 202.368 266.512 205.291 151.132 199.282 219.824 205.157 130.173 223.833 160.957 194.614 229.318 164.076 242.934 168.533 238.881 269.071 230.221 189.077 229.652 288.138 188.295 220.998 168.853 211.146 222.424 215.86 205.177 177.504 260.585 165.864 224.415 190.88 255.421 274.119 236.515 177.465 257.756 218.326 163.9 173.407 207.246 237.99 156.282 236.971 221.933 212.918 221.514 247.632 215.042 269.766 198.794 192.154 227.063 195.328 183.468 282.708 179.653 214.604 198.616 246.501 182.981 223.91 217.847 220.717 218.964 249.322 158.991 178.754 270.915 206.44 213.638 194.963 126.756 91.0261 184.081 215.061 232.487 297.037 303.583 208.72 259.218 190.104 269.547 218.392 171.646 259.871 177.501 217.888 198.373 282.298 231.083 231.976 216.763 198.823 224.458 185.67 192.774 167.512 174.463 183.415 253.941 197.812 214.088 150.919 196.729 174 158.743 226.215 216.868 138.01 235.868 242.838 187.276 197.771 225.059 272.237 179.83 225.956 192.312 269.955 206.068 229.217 141.616 146.353 217.484 186.355 191.263 202.958 205.145 158.193 187.62 185.817 196.727 323.352 216.348 235.724 144.422 195.11 198.683 227.652 227.991 184.895 249.488 238.951 215.446 254.064 149.453 257.068 242.848 242.269 165.576 162.285 177.491 151.245 287.682 180.787 187.559 192.565 178.945 262.837 231.668 213.469 269.688 210.082 168.014 262.433 213.073 235.663 208.687 224.432 257.324 197.687 230.567 306.569 283.656 219.943 168.128 180.361 225.964 233.859 176.576 272.741 259.891 234.881 325.645 277.892 230.432 263.432 250.006 202.855 256.957 211.818 178.364 209.761 231.143 152.605 185.689 150.71 147.967 211.263 185.083 215.407 225.148 194.77 293.032 211.929 275.333 241.471 231.06 221.242 251.621 222.091 232.004 273.811 239.685 274.03 157.005 239.368 181.347 151.168 232.757 226.138 254.775 176.249 203.993 220.263 200.061 234.068 130.579 226.298 120.635 215.252 215.737 264.641 263.458 196.105 195.52 322.895 215.168 247.262 242.481 233.424 191.3 294.116 283.276 221.453 227.315 226.304 199.453 243.752 224.972 203.585 214.887 215.501 208.658 206.085 182.638 253.664 195.317 185.199 248.024 233.622 245.79 229.117 152.873 193.284 212.09 220.047 253.073 211.602 210.398 183.445 196.555 193.759 244.057 227.505 239.433 250.337 236.088 198.439 186.382 232.458 263.884 189.841 225.554 172.817 194.822 213.83 199.755 220.989 219.167 217.403 172.034 161.452 195.502 126.77 219.014 115.468 264.033 227.25 231.161 288.021 228.172 200.922 268.347 249.857 189.508 231.987 263.492 233.147 270.858 164.492 269.224 203.769 278.047 205.186 219.5 180.562 249.133 208.496 156.762 206.258 219.869 211.847 269.556 221.326 201.329 211.017 198.398 167.514 172.453 169.912 261.054 177.624 126.485 198.855 186.418 214.121 160.476 229.358 205.313 188.37 186.375 145.988 283.312 186.264 255.251 274.237 156.018 186.868 239.091 191.019 208.983 214.945 297.449 174.364 257.153 159.845 255.581 218.358 162.693 129.792 214.506 265.454 160.766 157.229 207.068 198.895 185.552 186.494 172.518 186.531 193.071 195.428 197.561 210.177 184.649 242.31 233.468 250.256 188.202 184.368 224.433 227.105 244.459 114.566 160.765 207.877 221.778 161.079 214.195 181.866 126.262 204.876 198.39 177.505 218.944 243.439 274.346 262.787 199.368 230.727 193.169 202.046 236.065 155.558 167.73 197.422 250.379 248.122 231.414 220.45 235.283 195.506 245.591 179.798 228.554 223.776 178.187 270.433 199.528 245.81 199.977 201.688 134.862 190.33 191.422 189.096 205.874 189.96 216.201 254.105 247.663 173.64 210.467 215.622 224.87 214.254 236.431 227.407 207.621 211.048 233.412 193.788 230.402 207.579 174.73 202.492 275.723 173.641 272.246 222.348 146.218 196.934 197.545 242.212 242.181 133.571 196.736 249.911 250.957 170.1 194.081 249.515 206.611 287.752 212.876 260.828 209.301 219.707 255.129 233.855 218.418 224.753 225.077 214.503 283.64 190.762 192.097 132.869 169.712 233.913 164.485 137.568 203.654 147.981 208.427 205.852 173.485 200.338 281.877 266.35 303.984 215.44 207.023 206.145 250.001 205.839 226.57 248.48 223.101 291.38 173.475 215.51 219.407 210.169 249.587 167.973 285.635 267.837 225.324 206.765 186.095 177.898 225.883 192.03 218.664 182.861 178.765 152.165 175.883 253.695 167.56 244.942 222.225 223.954 265.827 227.481 212.827 258.269 310.743 166.678 285.832 280.219 185.255 193.601 228.726 181.039 228.23 230.986 220.279 257.506 201.82 179.468 225.785 237.392 206.337 194.141 180.058 297.827 214.243 223.424 179.63 194.354 275.854 224.008 241.455 186.269 211.16 245.309 196.033 220.351 213.25 195.875 185.021 276.504 209.977 192.736 230.574 266.113 225.911 218.051 221.682 203.272 204.438 176.484 204.948 233.576 254.55 239.016 113.609 174.811 288.262 179.147 230.521 262.93 227.402 232.74 195.477 168.941 207.161 221.15 206.425 186.967 207.276 181.618 165.094 218.307 164.129 191.589 241.962 188.629 187.471 190.554 190.973 228.236 215.353 255.217 228.394 203.5 159.776 255.471 203.21 250.809 214.669 133.532 183.482 225.845 245.813 214.5 248.041 184.575 236.586 190.608 223.413 141.664 195.441 203.417 166.288 214.796 185.361 175.076 189.733 233.842 193.333 214.41 159.683 237.271 141.05 171.268 98.5674 202.313 219.533 144.898 194.76 207.964 183.88 177.517 179.89 172.034 245.123 248.292 246.445 278.673 337.08 162.46 245.957 189.409 257.565 229.839 217.847 246.669 229.238 156.16 174.627 152.085 226.077 213.554 210.802 215.468 179.312 177.487 164.78 168.234 149.996 269.408 197.786 215.222 185.176 211.586 273.563 216.205 215.809 209.973 277.118 240.155 230.33 178.435 305.588 216.297 241.551 218.708 171.555 238.496 255.129 202.402 123.323 160.69 191.36 249.727 224.392 217.369 224.969 208.824 216.555 203.13 208.004 162.008 129.945 256.315 216.323 162.181 229.591 211.648 325.663 230.149 216.412 233.569 192.279 245.929 226.949 218.738 248.277 262.456 273.227 201.502 200.361 190.072 294.9 154.615 226.323 172.421 207.059 193.667 198.363 215.919 232.895 250.544 207.369 209.673 228.788 197.861 150.733 158.201 203.666 157.01 
SCALARS volume float 1
LOOKUP_TABLE default
14.7373 14.7662 14.7636 14.7642 14.7645 14.7649 14.7655 14.766 14.7667 14.7672 14.7677 14.7682 14.7687 14.7692 14.7697 14.7701 14.7705 14.7708 14.7712 14.7715 14.7718 14.772 14.7723 14.7724 14.7727 14.7728 14.7729 14.7731 14.7732 14.7732 14.7733 14.7733 14.7506 14.7658 14.7669 14.7672 14.7672 14.7674 14.7678 14.7681 14.7685 14.7689 14.7693 14.7697 14.77 14.7703 14.7707 14.771 14.7713 14.7715 14.7718 14.772 14.7722 14.7723 14.7726 14.7727 14.7728 14.7729 14.7731 14.773 14.7732 14.7732 14.7733 14.7734 14.7599 14.769 14.7694 14.7697 14.7697 14.7698 14.77 14.7702 14.7704 14.7707 14.7709 14.7711 14.7713 14.7715 14.7717 14.7719 14.7721 14.7722 14.7724 14.7725 14.7727 14.7727 14.7729 14.773 14.773 14.7731 14.7732 14.7732 14.7732 14.7733 14.7732 14.7733 14.7689 14.7718 14.772 14.772 14.772 14.7721 14.7721 14.7722 14.7723 14.7724 14.7725 14.7726 14.7727 14.7728 14.7728 14.7729 14.7729 14.773 14.773 14.773 14.7731 14.7732 14.7732 14.7731 14.7732 14.7733 14.7732 14.7733 14.7733 14.7732 14.7733 14.7733 14.7778 14.7745 14.7745 14.7744 14.7744 14.7744 14.7743 14.7743 14.7742 14.7741 14.7741 14.7741 14.774 14.7739 14.7738 14.7738 14.7737 14.7737 14.7736 14.7736 14.7736 14.7735 14.7734 14.7734 14.7734 14.7734 14.7734 14.7734 14.7732 14.7733 14.7733 14.7734 14.7869 14.7772 14.777 14.7767 14.7767 14.7766 14.7765 14.7763 14.7761 14.7759 14.7757 14.7755 14.7753 14.775 14.7749 14.7748 14.7745 14.7745 14.7742 14.7741 14.7741 14.7739 14.7739 14.7737 14.7736 14.7736 14.7735 14.7734 14.7733 14.7733 14.7733 14.7732 14.7967 14.7804 14.7794 14.7792 14.7791 14.779 14.7787 14.7783 14.7779 14.7776 14.7772 14.7769 14.7766 14.7762 14.776 14.7757 14.7753 14.7751 14.7749 14.7747 14.7745 14.7743 14.7741 14.774 14.7738 14.7737 14.7735 14.7735 14.7733 14.7733 14.7732 14.7732 14.8111 14.7802 14.7825 14.7819 14.7817 14.7813 14.7809 14.7803 14.7798 14.7793 14.7789 14.7783 14.7779 14.7774 14.777 14.7766 14.7762 14.7759 14.7755 14.7753 14.7749 14.7746 14.7745 14.7741 14.774 14.7738 14.7736 14.7735 14.7734 14.7734 14.7733 14.7733 14.7415 14.761 14.7623 14.7634 14.764 14.7648 14.7654 14.7661 14.7666 14.7672 14.7677 14.7683 14.7687 14.7693 14.7697 14.7701 14.7705 14.7708 14.7712 14.7715 14.7718 14.772 14.7723 14.7726 14.7728 14.7728 14.7731 14.7731 14.7732 14.7733 14.7733 14.7734 14.7546 14.76 14.7648 14.7661 14.7667 14.7672 14.7676 14.7681 14.7685 14.7689 14.7693 14.7697 14.77 14.7704 14.7707 14.771 14.7713 14.7716 14.7718 14.772 14.7722 14.7724 14.7726 14.7727 14.7729 14.7729 14.7731 14.7731 14.7732 14.7733 14.7733 14.7734 14.7623 14.7652 14.7678 14.7689 14.7693 14.7697 14.7699 14.7701 14.7704 14.7706 14.7709 14.7711 14.7713 14.7715 14.7717 14.7719 14.7721 14.7722 14.7724 14.7726 14.7727 14.7727 14.7729 14.7729 14.773 14.7731 14.7731 14.7732 14.7731 14.7733 14.7733 14.7733 14.7698 14.7706 14.7714 14.7717 14.7719 14.7721 14.7721 14.7722 14.7723 14.7724 14.7725 14.7725 14.7727 14.7727 14.7728 14.7729 14.7729 14.7729 14.773 14.7731 14.7731 14.7732 14.7732 14.7732 14.7732 14.7733 14.7733 14.7733 14.7732 14.7733 14.7733 14.7733 14.7771 14.7759 14.7751 14.7746 14.7745 14.7744 14.7743 14.7743 14.7741 14.7741 14.7741 14.7741 14.7739 14.7739 14.7738 14.7738 14.7737 14.7737 14.7736 14.7737 14.7736 14.7735 14.7734 14.7734 14.7733 14.7734 14.7734 14.7733 14.7733 14.7734 14.7733 14.7732 14.7848 14.7812 14.7785 14.7774 14.777 14.7767 14.7765 14.7763 14.7761 14.7758 14.7757 14.7754 14.7752 14.7751 14.7749 14.7747 14.7745 14.7744 14.7742 14.7742 14.774 14.7739 14.7738 14.7737 14.7736 14.7735 14.7735 14.7734 14.7733 14.7733 14.7733 14.7733 14.793 14.7862 14.7813 14.7801 14.7795 14.7791 14.7787 14.7783 14.7779 14.7775 14.7773 14.7769 14.7765 14.7763 14.7759 14.7756 14.7753 14.7751 14.7748 14.7747 14.7744 14.7743 14.7741 14.7739 14.7738 14.7736 14.7736 14.7735 14.7733 14.7734 14.7733 14.7733 14.8072 14.7849 14.7836 14.7826 14.782 14.7815 14.7809 14.7803 14.7798 14.7793 14.7788 14.7782 14.7778 14.7774 14.7769 14.7765 14.7761 14.7758 14.7754 14.7751 14.7749 14.7746 14.7744 14.7741 14.774 14.7737 14.7736 14.7735 14.7733 14.7733 14.7733 14.7733 14.7395 14.7607 14.7613 14.7627 14.7637 14.7646 14.7653 14.7659 14.7667 14.7673 14.7678 14.7684 14.7688 14.7693 14.7698 14.7701 14.7705 14.7709 14.7712 14.7715 14.7718 14.7722 14.7723 14.7726 14.7728 14.7729 14.7731 14.7732 14.7732 14.7734 14.7733 14.7733 14.7541 14.7592 14.7637 14.7654 14.7664 14.767 14.7675 14.7681 14.7685 14.7689 14.7693 14.7697 14.7701 14.7704 14.7707 14.771 14.7713 14.7716 14.7718 14.772 14.7723 14.7724 14.7727 14.7728 14.7729 14.773 14.7731 14.7732 14.7732 14.7733 14.7732 14.7735 14.7619 14.7646 14.7669 14.7684 14.7691 14.7695 14.7698 14.7701 14.7704 14.7707 14.7709 14.7712 14.7713 14.7716 14.7717 14.7719 14.7721 14.7723 14.7725 14.7726 14.7727 14.7728 14.773 14.7729 14.773 14.7731 14.7733 14.7732 14.7733 14.7733 14.7733 14.7734 14.7697 14.7704 14.771 14.7715 14.7718 14.772 14.7721 14.7722 14.7723 14.7724 14.7725 14.7726 14.7726 14.7727 14.7727 14.7728 14.773 14.7729 14.773 14.7731 14.7731 14.7731 14.7731 14.7733 14.7732 14.7733 14.7733 14.7732 14.7732 14.7733 14.7733 14.7733 14.7773 14.7762 14.7754 14.7748 14.7745 14.7744 14.7743 14.7742 14.7741 14.7741 14.774 14.774 14.7739 14.7739 14.7738 14.7738 14.7737 14.7737 14.7736 14.7736 14.7735 14.7735 14.7734 14.7734 14.7734 14.7734 14.7734 14.7734 14.7733 14.7732 14.7733 14.7733 14.7852 14.7819 14.7795 14.7779 14.7772 14.7768 14.7765 14.7763 14.776 14.7759 14.7756 14.7754 14.7752 14.775 14.7748 14.7747 14.7745 14.7744 14.7742 14.7741 14.774 14.7739 14.7738 14.7738 14.7736 14.7735 14.7735 14.7734 14.7734 14.7733 14.7733 14.7732 14.7935 14.787 14.7824 14.7807 14.7798 14.7792 14.7788 14.7784 14.7779 14.7776 14.7771 14.7768 14.7765 14.7762 14.7759 14.7757 14.7753 14.7751 14.7748 14.7747 14.7744 14.7742 14.774 14.7739 14.7738 14.7736 14.7736 14.7734 14.7733 14.7733 14.7733 14.7733 14.809 14.7853 14.7845 14.7831 14.7823 14.7816 14.7809 14.7804 14.7798 14.7792 14.7787 14.7783 14.7778 14.7773 14.7769 14.7765 14.7761 14.7758 14.7755 14.7751 14.7748 14.7746 14.7743 14.7741 14.7738 14.7738 14.7736 14.7735 14.7733 14.7733 14.7732 14.7732 14.7385 14.7604 14.7611 14.7625 14.7634 14.7645 14.7653 14.7659 14.7666 14.7672 14.7679 14.7683 14.7688 14.7693 14.7697 14.7702 14.7706 14.7709 14.7712 14.7716 14.7718 14.7722 14.7723 14.7726 14.7727 14.7729 14.773 14.7732 14.7733 14.7733 14.7734 14.7733 14.7538 14.7589 14.7633 14.7651 14.7662 14.7669 14.7675 14.7681 14.7685 14.7689 14.7693 14.7697 14.77 14.7704 14.7708 14.7711 14.7713 14.7715 14.7717 14.772 14.7723 14.7725 14.7726 14.7727 14.7729 14.773 14.7732 14.7731 14.7733 14.7733 14.7734 14.7734 14.7618 14.7645 14.7666 14.7681 14.769 14.7694 14.7698 14.7701 14.7704 14.7706 14.7709 14.7711 14.7714 14.7715 14.7718 14.7719 14.7721 14.7722 14.7724 14.7725 14.7727 14.7728 14.7729 14.773 14.7731 14.7732 14.7732 14.7732 14.7732 14.7733 14.7733 14.7733 14.7696 14.7703 14.771 14.7714 14.7717 14.7719 14.7721 14.7721 14.7723 14.7724 14.7724 14.7725 14.7726 14.7727 14.7728 14.7729 14.7729 14.773 14.7731 14.7731 14.7731 14.7731 14.7731 14.7732 14.7732 14.7733 14.7732 14.7733 14.7733 14.7733 14.7733 14.7734 14.7773 14.7763 14.7755 14.7749 14.7746 14.7744 14.7743 14.7742 14.7742 14.7741 14.774 14.774 14.7739 14.7739 14.7738 14.7737 14.7737 14.7737 14.7736 14.7736 14.7736 14.7736 14.7735 14.7734 14.7734 14.7733 14.7735 14.7733 14.7733 14.7733 14.7733 14.7733 14.7852 14.7821 14.7797 14.7781 14.7773 14.7768 14.7765 14.7763 14.776 14.7758 14.7756 14.7754 14.7752 14.775 14.7749 14.7747 14.7745 14.7744 14.7742 14.774 14.774 14.774 14.7737 14.7737 14.7735 14.7735 14.7735 14.7733 14.7734 14.7733 14.7732 14.7732 14.7936 14.7874 14.7828 14.7809 14.7799 14.7793 14.7788 14.7783 14.7779 14.7776 14.7772 14.7768 14.7765 14.7762 14.7758 14.7756 14.7753 14.7751 14.7749 14.7746 14.7744 14.7743 14.7741 14.7739 14.7737 14.7736 14.7735 14.7734 14.7733 14.7733 14.7732 14.7733 14.8099 14.7857 14.7849 14.7834 14.7826 14.7817 14.781 14.7803 14.7798 14.7793 14.7787 14.7782 14.7777 14.7773 14.7769 14.7765 14.776 14.7758 14.7754 14.7751 14.7748 14.7745 14.7743 14.7741 14.7738 14.7737 14.7736 14.7734 14.7733 14.7733 14.7732 14.7733 14.7385 14.7603 14.7611 14.7625 14.7635 14.7644 14.7652 14.7659 14.7667 14.7672 14.7678 14.7683 14.7688 14.7693 14.7697 14.7701 14.7706 14.7709 14.7713 14.7716 14.7719 14.7721 14.7724 14.7726 14.7728 14.7729 14.7731 14.7732 14.7733 14.7733 14.7733 14.7733 14.7539 14.7588 14.7633 14.7651 14.7662 14.7669 14.7675 14.768 14.7685 14.769 14.7693 14.7697 14.7701 14.7704 14.7707 14.7711 14.7713 14.7715 14.7718 14.772 14.7722 14.7725 14.7726 14.7728 14.7729 14.773 14.7732 14.7732 14.7732 14.7734 14.7733 14.7734 14.7618 14.7645 14.7666 14.7681 14.7689 14.7694 14.7698 14.7701 14.7703 14.7707 14.7709 14.7711 14.7713 14.7716 14.7718 14.7719 14.7721 14.7722 14.7724 14.7726 14.7727 14.7728 14.7729 14.7731 14.773 14.7732 14.7732 14.7732 14.7732 14.7734 14.7733 14.7733 14.7696 14.7703 14.771 14.7715 14.7717 14.7719 14.7721 14.7722 14.7723 14.7723 14.7725 14.7726 14.7726 14.7727 14.7728 14.7729 14.7729 14.773 14.773 14.773 14.7731 14.7732 14.7731 14.7733 14.7732 14.7733 14.7732 14.7733 14.7733 14.7734 14.7732 14.7734 14.7773 14.7763 14.7754 14.7749 14.7745 14.7744 14.7743 14.7742 14.7742 14.7741 14.774 14.774 14.7739 14.7739 14.7738 14.7737 14.7737 14.7736 14.7737 14.7735 14.7736 14.7734 14.7735 14.7735 14.7734 14.7734 14.7735 14.7732 14.7733 14.7734 14.7732 14.7734 14.7852 14.7822 14.7797 14.7781 14.7773 14.7768 14.7765 14.7763 14.7761 14.7758 14.7756 14.7754 14.7752 14.775 14.7749 14.7748 14.7745 14.7743 14.7742 14.7741 14.774 14.7739 14.7737 14.7737 14.7735 14.7735 14.7735 14.7734 14.7733 14.7733 14.7732 14.7732 14.7936 14.7874 14.7827 14.7809 14.78 14.7793 14.7788 14.7784 14.7779 14.7775 14.7772 14.7768 14.7765 14.7762 14.7759 14.7756 14.7753 14.7751 14.7748 14.7746 14.7744 14.7742 14.774 14.7739 14.7737 14.7736 14.7735 14.7734 14.7734 14.7733 14.7732 14.7733 14.8099 14.7857 14.7848 14.7834 14.7825 14.7817 14.781 14.7804 14.7797 14.7792 14.7787 14.7782 14.7777 14.7774 14.7769 14.7765 14.7761 14.7758 14.7754 14.7751 14.7748 14.7746 14.7743 14.7742 14.7739 14.7737 14.7736 14.7734 14.7733 14.7733 14.7732 14.7733 14.7394 14.7607 14.7614 14.7628 14.7637 14.7646 14.7653 14.766 14.7667 14.7672 14.7678 14.7683 14.7688 14.7693 14.7698 14.7702 14.7705 14.7709 14.7713 14.7716 14.7718 14.7721 14.7723 14.7726 14.7727 14.773 14.7731 14.7732 14.7733 14.7734 14.7733 14.7733 14.754 14.7592 14.7637 14.7654 14.7664 14.767 14.7676 14.768 14.7685 14.769 14.7694 14.7697 14.7701 14.7704 14.7707 14.771 14.7713 14.7716 14.7718 14.772 14.7723 14.7724 14.7726 14.7726 14.773 14.773 14.7731 14.7732 14.7732 14.7733 14.7732 14.7734 14.7619 14.7647 14.7668 14.7684 14.7691 14.7695 14.7698 14.7701 14.7704 14.7707 14.7709 14.7711 14.7713 14.7715 14.7717 14.772 14.7721 14.7723 14.7724 14.7725 14.7727 14.7728 14.7729 14.7729 14.7731 14.7731 14.7732 14.7732 14.7733 14.7733 14.7733 14.7733 14.7697 14.7704 14.7711 14.7715 14.7718 14.7719 14.772 14.7722 14.7722 14.7724 14.7725 14.7726 14.7726 14.7727 14.7728 14.7729 14.7729 14.773 14.7731 14.773 14.7731 14.7732 14.7732 14.7733 14.7731 14.7733 14.7733 14.7732 14.7733 14.7733 14.7732 14.7733 14.7773 14.7762 14.7753 14.7748 14.7745 14.7744 14.7743 14.7742 14.7742 14.7741 14.7741 14.774 14.7739 14.7739 14.7738 14.7738 14.7737 14.7737 14.7736 14.7736 14.7735 14.7735 14.7735 14.7735 14.7734 14.7734 14.7734 14.7734 14.7732 14.7733 14.7733 14.7733 14.7852 14.7818 14.7794 14.7779 14.7772 14.7768 14.7765 14.7762 14.7761 14.7759 14.7756 14.7754 14.7752 14.7751 14.7748 14.7746 14.7745 14.7744 14.7742 14.7741 14.774 14.7739 14.7737 14.7737 14.7735 14.7735 14.7735 14.7734 14.7733 14.7734 14.7732 14.7732 14.7934 14.787 14.7824 14.7806 14.7798 14.7792 14.7787 14.7783 14.7779 14.7775 14.7773 14.7769 14.7765 14.7762 14.7759 14.7756 14.7754 14.7751 14.7748 14.7746 14.7744 14.7743 14.7741 14.7739 14.7737 14.7737 14.7736 14.7734 14.7733 14.7733 14.7732 14.7732 14.809 14.7853 14.7845 14.7831 14.7824 14.7816 14.781 14.7804 14.7798 14.7792 14.7787 14.7782 14.7777 14.7773 14.7769 14.7765 14.7761 14.7757 14.7754 14.7751 14.7748 14.7746 14.7743 14.7741 14.7738 14.7737 14.7736 14.7735 14.7733 14.7732 14.7732 14.7733 14.7415 14.761 14.7623 14.7633 14.764 14.7647 14.7654 14.766 14.7666 14.7672 14.7677 14.7683 14.7688 14.7693 14.7697 14.7701 14.7705 14.7709 14.7713 14.7715 14.7718 14.7721 14.7723 14.7725 14.7727 14.7728 14.7731 14.7731 14.7732 14.7733 14.7733 14.7734 14.7546 14.76 14.7648 14.7661 14.7668 14.7672 14.7676 14.7681 14.7685 14.7689 14.7693 14.7697 14.77 14.7704 14.7707 14.771 14.7713 14.7716 14.7718 14.772 14.7722 14.7724 14.7725 14.7727 14.7729 14.773 14.7731 14.7732 14.7732 14.7733 14.7733 14.7733 14.7623 14.7652 14.7677 14.7689 14.7693 14.7696 14.7699 14.7702 14.7704 14.7706 14.7709 14.7711 14.7713 14.7716 14.7718 14.7719 14.7721 14.7723 14.7724 14.7725 14.7726 14.7728 14.7728 14.773 14.7731 14.7731 14.7732 14.7732 14.7732 14.7734 14.7733 14.7733 14.7698 14.7706 14.7714 14.7717 14.7719 14.772 14.7721 14.7722 14.7723 14.7724 14.7725 14.7726 14.7726 14.7727 14.7728 14.7728 14.7729 14.7729 14.773 14.773 14.7731 14.7731 14.7731 14.7732 14.7732 14.7732 14.7733 14.7733 14.7733 14.7733 14.7733 14.7732 14.7771 14.776 14.775 14.7747 14.7745 14.7744 14.7743 14.7742 14.7742 14.7741 14.7741 14.774 14.774 14.7739 14.7738 14.7738 14.7737 14.7737 14.7737 14.7736 14.7735 14.7735 14.7734 14.7734 14.7734 14.7734 14.7733 14.7734 14.7733 14.7733 14.7733 14.7732 14.7848 14.7813 14.7785 14.7774 14.777 14.7767 14.7765 14.7763 14.776 14.7759 14.7756 14.7754 14.7752 14.775 14.7749 14.7748 14.7745 14.7744 14.7742 14.7741 14.774 14.774 14.7737 14.7738 14.7735 14.7736 14.7735 14.7734 14.7733 14.7733 14.7733 14.7732 14.793 14.7862 14.7813 14.7801 14.7795 14.7791 14.7787 14.7783 14.7779 14.7776 14.7772 14.7768 14.7766 14.7762 14.7759 14.7756 14.7754 14.775 14.7748 14.7746 14.7745 14.7742 14.774 14.774 14.7737 14.7737 14.7735 14.7734 14.7734 14.7733 14.7733 14.7733 14.8072 14.7849 14.7837 14.7827 14.7821 14.7815 14.7809 14.7803 14.7798 14.7793 14.7787 14.7783 14.7778 14.7773 14.777 14.7765 14.7762 14.7758 14.7755 14.7751 14.7749 14.7745 14.7744 14.7741 14.7739 14.7738 14.7737 14.7735 14.7733 14.7733 14.7733 14.7734 14.7373 14.7662 14.7636 14.7642 14.7644 14.7649 14.7655 14.766 14.7666 14.7672 14.7677 14.7683 14.7687 14.7693 14.7695 14.77 14.7704 14.7709 14.7711 14.7715 14.7717 14.7721 14.7722 14.7724 14.7726 14.7727 14.7731 14.7731 14.7731 14.7733 14.7733 14.7733 14.7506 14.7659 14.767 14.7671 14.7672 14.7674 14.7677 14.7682 14.7685 14.7689 14.7693 14.7697 14.77 14.7704 14.7706 14.771 14.7713 14.7715 14.7717 14.772 14.7721 14.7724 14.7725 14.7727 14.7728 14.773 14.773 14.7731 14.7731 14.7733 14.7733 14.7734 14.7598 14.7691 14.7695 14.7697 14.7697 14.7698 14.77 14.7702 14.7704 14.7706 14.7709 14.7711 14.7713 14.7716 14.7717 14.772 14.772 14.7722 14.7724 14.7725 14.7727 14.7727 14.7729 14.7729 14.773 14.7731 14.7731 14.7732 14.7732 14.7733 14.7733 14.7733 14.7689 14.7718 14.772 14.772 14.7721 14.772 14.7722 14.7722 14.7723 14.7724 14.7725 14.7726 14.7727 14.7727 14.7728 14.7728 14.7729 14.7729 14.773 14.773 14.7731 14.7732 14.7732 14.7732 14.7732 14.7733 14.7733 14.7733 14.7732 14.7733 14.7733 14.7733 14.7778 14.7745 14.7745 14.7744 14.7744 14.7744 14.7744 14.7743 14.7742 14.7742 14.7741 14.774 14.774 14.7739 14.7738 14.7738 14.7738 14.7737 14.7736 14.7736 14.7735 14.7735 14.7735 14.7735 14.7735 14.7733 14.7734 14.7733 14.7733 14.7733 14.7732 14.7733 14.787 14.7772 14.777 14.7768 14.7767 14.7766 14.7765 14.7763 14.7761 14.7759 14.7756 14.7755 14.7753 14.7751 14.7749 14.7747 14.7746 14.7744 14.7742 14.7742 14.7741 14.7739 14.7737 14.7737 14.7737 14.7735 14.7735 14.7734 14.7733 14.7733 14.7733 14.7733 14.7967 14.7804 14.7794 14.7792 14.7792 14.779 14.7787 14.7783 14.778 14.7776 14.7772 14.7769 14.7766 14.7763 14.776 14.7757 14.7754 14.7752 14.7749 14.7747 14.7744 14.7743 14.7741 14.774 14.7738 14.7737 14.7736 14.7734 14.7735 14.7734 14.7733 14.7732 14.8111 14.7802 14.7825 14.7819 14.7817 14.7813 14.7808 14.7804 14.7798 14.7793 14.7788 14.7784 14.7779 14.7774 14.7769 14.7766 14.7762 14.7758 14.7755 14.7752 14.775 14.7745 14.7744 14.7742 14.774 14.7738 14.7737 14.7735 14.7734 14.7733 14.7733 14.7732 
SCALARS volume_diff float 1
LOOKUP_TABLE default
14.7353 14.7643 14.7617 14.7623 14.7625 14.763 14.7635 14.7641 14.7647 14.7652 14.7657 14.7663 14.7668 14.7673 14.7677 14.7681 14.7685 14.7688 14.7692 14.7695 14.7698 14.77 14.7704 14.7705 14.7707 14.7709 14.771 14.7711 14.7713 14.7712 14.7714 14.7714 14.7487 14.7639 14.765 14.7652 14.7652 14.7655 14.7658 14.7662 14.7665 14.767 14.7673 14.7677 14.7681 14.7684 14.7687 14.769 14.7693 14.7696 14.7699 14.77 14.7703 14.7704 14.7706 14.7708 14.7708 14.7709 14.7711 14.7711 14.7712 14.7713 14.7714 14.7715 14.758 14.7671 14.7675 14.7678 14.7678 14.7678 14.768 14.7683 14.7684 14.7687 14.7689 14.7692 14.7694 14.7695 14.7698 14.7699 14.7701 14.7703 14.7704 14.7706 14.7707 14.7708 14.7709 14.771 14.7711 14.7712 14.7712 14.7713 14.7713 14.7714 14.7712 14.7714 14.7669 14.7699 14.7701 14.7701 14.7701 14.7702 14.7701 14.7702 14.7704 14.7705 14.7705 14.7706 14.7707 14.7708 14.7708 14.7709 14.7709 14.771 14.771 14.7711 14.7711 14.7712 14.7713 14.7712 14.7712 14.7713 14.7712 14.7713 14.7713 14.7713 14.7713 14.7714 14.7758 14.7726 14.7725 14.7725 14.7725 14.7724 14.7723 14.7723 14.7723 14.7722 14.7721 14.7721 14.772 14.772 14.7718 14.7719 14.7718 14.7717 14.7717 14.7716 14.7716 14.7715 14.7715 14.7715 14.7714 14.7715 14.7714 14.7714 14.7713 14.7714 14.7713 14.7715 14.785 14.7753 14.775 14.7748 14.7748 14.7747 14.7745 14.7743 14.7741 14.7739 14.7737 14.7736 14.7734 14.7731 14.7729 14.7728 14.7725 14.7725 14.7723 14.7721 14.7721 14.772 14.7719 14.7717 14.7716 14.7717 14.7716 14.7714 14.7714 14.7714 14.7714 14.7713 14.7947 14.7785 14.7774 14.7773 14.7772 14.777 14.7767 14.7764 14.776 14.7757 14.7753 14.775 14.7747 14.7743 14.774 14.7738 14.7734 14.7732 14.773 14.7727 14.7726 14.7723 14.7722 14.772 14.7718 14.7718 14.7716 14.7716 14.7714 14.7714 14.7713 14.7712 14.8091 14.7782 14.7805 14.78 14.7798 14.7794 14.7789 14.7784 14.7778 14.7773 14.7769 14.7763 14.7759 14.7755 14.775 14.7747 14.7742 14.7739 14.7735 14.7733 14.773 14.7726 14.7725 14.7722 14.772 14.7719 14.7717 14.7715 14.7715 14.7714 14.7714 14.7713 14.7395 14.759 14.7603 14.7614 14.7621 14.7628 14.7634 14.7641 14.7647 14.7652 14.7658 14.7663 14.7668 14.7674 14.7677 14.7682 14.7686 14.7688 14.7693 14.7695 14.7699 14.7701 14.7703 14.7706 14.7708 14.7708 14.7712 14.7712 14.7712 14.7714 14.7714 14.7714 14.7526 14.7581 14.7628 14.7641 14.7648 14.7652 14.7657 14.7662 14.7665 14.767 14.7674 14.7677 14.768 14.7685 14.7688 14.769 14.7693 14.7696 14.7698 14.7701 14.7703 14.7705 14.7706 14.7708 14.7709 14.771 14.7711 14.7712 14.7712 14.7714 14.7713 14.7715 14.7603 14.7632 14.7658 14.7669 14.7674 14.7677 14.7679 14.7682 14.7685 14.7687 14.7689 14.7692 14.7694 14.7696 14.7698 14.77 14.7701 14.7703 14.7704 14.7706 14.7707 14.7708 14.7709 14.771 14.7711 14.7712 14.7712 14.7713 14.7712 14.7713 14.7713 14.7714 14.7678 14.7686 14.7695 14.7698 14.7699 14.7701 14.7702 14.7703 14.7703 14.7705 14.7705 14.7706 14.7707 14.7708 14.7708 14.7709 14.7709 14.771 14.7711 14.7711 14.7711 14.7712 14.7713 14.7713 14.7713 14.7714 14.7714 14.7713 14.7713 14.7713 14.7714 14.7714 14.7752 14.774 14.7731 14.7727 14.7726 14.7724 14.7723 14.7723 14.7722 14.7722 14.7721 14.7721 14.7719 14.772 14.7718 14.7719 14.7718 14.7717 14.7717 14.7717 14.7716 14.7716 14.7714 14.7715 14.7714 14.7714 14.7715 14.7713 14.7713 14.7714 14.7713 14.7713 14.7829 14.7792 14.7766 14.7755 14.775 14.7748 14.7745 14.7743 14.7741 14.7739 14.7737 14.7735 14.7733 14.7731 14.7729 14.7728 14.7726 14.7725 14.7723 14.7722 14.772 14.772 14.7718 14.7717 14.7717 14.7716 14.7716 14.7714 14.7714 14.7713 14.7714 14.7713 14.791 14.7842 14.7794 14.7781 14.7776 14.7771 14.7767 14.7764 14.776 14.7756 14.7753 14.7749 14.7746 14.7743 14.774 14.7737 14.7734 14.7732 14.7729 14.7727 14.7724 14.7723 14.7721 14.772 14.7719 14.7717 14.7716 14.7715 14.7714 14.7714 14.7713 14.7713 14.8052 14.783 14.7817 14.7807 14.7801 14.7795 14.7789 14.7784 14.7778 14.7773 14.7768 14.7763 14.7759 14.7754 14.7749 14.7746 14.7742 14.7739 14.7734 14.7731 14.7729 14.7726 14.7724 14.7721 14.772 14.7718 14.7717 14.7715 14.7713 14.7713 14.7713 14.7713 14.7375 14.7588 14.7594 14.7608 14.7617 14.7626 14.7633 14.764 14.7647 14.7653 14.7658 14.7664 14.7668 14.7673 14.7678 14.7682 14.7685 14.769 14.7693 14.7696 14.7699 14.7702 14.7704 14.7706 14.7708 14.771 14.7711 14.7712 14.7713 14.7714 14.7714 14.7713 14.7521 14.7573 14.7617 14.7635 14.7644 14.7651 14.7656 14.7661 14.7666 14.767 14.7674 14.7678 14.7681 14.7685 14.7688 14.7691 14.7694 14.7696 14.7699 14.7701 14.7704 14.7705 14.7707 14.7708 14.7709 14.7711 14.7712 14.7712 14.7712 14.7714 14.7713 14.7716 14.76 14.7627 14.7649 14.7664 14.7671 14.7675 14.7679 14.7682 14.7684 14.7687 14.7689 14.7692 14.7694 14.7696 14.7698 14.7699 14.7702 14.7703 14.7705 14.7706 14.7707 14.7708 14.771 14.771 14.771 14.7711 14.7713 14.7712 14.7713 14.7713 14.7713 14.7714 14.7677 14.7685 14.7691 14.7696 14.7698 14.77 14.7702 14.7702 14.7703 14.7704 14.7705 14.7706 14.7706 14.7708 14.7708 14.7709 14.771 14.771 14.7711 14.7712 14.7711 14.7712 14.7712 14.7713 14.7712 14.7713 14.7713 14.7713 14.7712 14.7714 14.7714 14.7713 14.7753 14.7743 14.7734 14.7728 14.7726 14.7724 14.7724 14.7723 14.7722 14.7722 14.7721 14.7721 14.772 14.772 14.7719 14.7719 14.7718 14.7718 14.7717 14.7716 14.7716 14.7716 14.7715 14.7715 14.7714 14.7714 14.7715 14.7714 14.7714 14.7713 14.7713 14.7713 14.7832 14.7799 14.7775 14.776 14.7753 14.7749 14.7746 14.7743 14.7741 14.7739 14.7737 14.7735 14.7733 14.773 14.7729 14.7728 14.7726 14.7724 14.7723 14.7722 14.772 14.7719 14.7718 14.7718 14.7716 14.7716 14.7716 14.7714 14.7714 14.7713 14.7713 14.7712 14.7915 14.785 14.7805 14.7787 14.7778 14.7772 14.7768 14.7764 14.7759 14.7756 14.7752 14.7749 14.7745 14.7743 14.7739 14.7737 14.7733 14.7732 14.7729 14.7727 14.7725 14.7723 14.7721 14.772 14.7718 14.7717 14.7716 14.7715 14.7714 14.7713 14.7714 14.7714 14.8071 14.7834 14.7825 14.7812 14.7804 14.7797 14.7789 14.7784 14.7778 14.7773 14.7768 14.7763 14.7758 14.7754 14.7749 14.7746 14.7742 14.7739 14.7735 14.7731 14.7729 14.7726 14.7723 14.7722 14.7719 14.7718 14.7716 14.7715 14.7714 14.7713 14.7713 14.7713 14.7365 14.7584 14.7591 14.7606 14.7615 14.7625 14.7633 14.764 14.7647 14.7653 14.7659 14.7663 14.7669 14.7674 14.7677 14.7682 14.7686 14.769 14.7693 14.7696 14.7699 14.7702 14.7704 14.7706 14.7708 14.771 14.7711 14.7712 14.7714 14.7714 14.7714 14.7713 14.7519 14.7569 14.7613 14.7632 14.7642 14.765 14.7656 14.7661 14.7665 14.767 14.7674 14.7678 14.7681 14.7684 14.7688 14.7691 14.7694 14.7696 14.7698 14.7701 14.7703 14.7705 14.7706 14.7707 14.771 14.771 14.7712 14.7711 14.7713 14.7714 14.7715 14.7714 14.7599 14.7625 14.7647 14.7661 14.767 14.7675 14.7679 14.7681 14.7684 14.7687 14.7689 14.7692 14.7694 14.7696 14.7698 14.77 14.7701 14.7703 14.7704 14.7706 14.7707 14.7709 14.7709 14.771 14.7711 14.7712 14.7713 14.7713 14.7712 14.7713 14.7714 14.7714 14.7677 14.7684 14.769 14.7695 14.7698 14.7699 14.7701 14.7702 14.7703 14.7704 14.7705 14.7706 14.7707 14.7708 14.7708 14.7709 14.7709 14.771 14.7711 14.7711 14.7711 14.7712 14.7712 14.7713 14.7713 14.7713 14.7713 14.7714 14.7713 14.7713 14.7713 14.7714 14.7754 14.7744 14.7735 14.7729 14.7726 14.7725 14.7724 14.7722 14.7722 14.7721 14.7721 14.7721 14.7719 14.772 14.7719 14.7718 14.7717 14.7717 14.7716 14.7716 14.7716 14.7716 14.7715 14.7714 14.7714 14.7714 14.7715 14.7714 14.7713 14.7714 14.7713 14.7713 14.7833 14.7802 14.7777 14.7761 14.7754 14.7748 14.7746 14.7743 14.7741 14.7738 14.7737 14.7735 14.7733 14.7731 14.7729 14.7727 14.7726 14.7725 14.7722 14.7721 14.772 14.772 14.7717 14.7717 14.7716 14.7716 14.7715 14.7713 14.7714 14.7714 14.7713 14.7713 14.7916 14.7854 14.7808 14.779 14.778 14.7773 14.7769 14.7764 14.776 14.7756 14.7752 14.7749 14.7746 14.7743 14.7739 14.7736 14.7733 14.7731 14.7729 14.7727 14.7724 14.7723 14.7721 14.772 14.7718 14.7716 14.7715 14.7715 14.7714 14.7714 14.7713 14.7713 14.8079 14.7838 14.7829 14.7814 14.7806 14.7798 14.779 14.7784 14.7779 14.7773 14.7767 14.7763 14.7758 14.7754 14.7749 14.7746 14.7741 14.7739 14.7734 14.7731 14.7729 14.7725 14.7724 14.7721 14.7719 14.7718 14.7716 14.7714 14.7714 14.7714 14.7712 14.7714 14.7366 14.7584 14.7591 14.7605 14.7615 14.7625 14.7633 14.764 14.7647 14.7653 14.7658 14.7664 14.7669 14.7673 14.7678 14.7682 14.7686 14.769 14.7693 14.7696 14.7699 14.7702 14.7704 14.7706 14.7708 14.771 14.7712 14.7712 14.7713 14.7714 14.7714 14.7714 14.7519 14.7569 14.7613 14.7632 14.7642 14.765 14.7655 14.7661 14.7666 14.767 14.7674 14.7678 14.7682 14.7685 14.7687 14.7691 14.7694 14.7696 14.7699 14.7701 14.7703 14.7705 14.7706 14.7708 14.7709 14.7711 14.7712 14.7712 14.7712 14.7714 14.7713 14.7714 14.7598 14.7625 14.7647 14.7661 14.7669 14.7675 14.7678 14.7681 14.7684 14.7687 14.769 14.7692 14.7694 14.7696 14.7698 14.7699 14.7701 14.7703 14.7705 14.7706 14.7707 14.7708 14.7709 14.7711 14.7711 14.7712 14.7712 14.7712 14.7713 14.7714 14.7713 14.7714 14.7677 14.7684 14.769 14.7695 14.7698 14.77 14.7701 14.7702 14.7704 14.7704 14.7705 14.7706 14.7706 14.7708 14.7708 14.7709 14.7709 14.771 14.7711 14.7711 14.7711 14.7712 14.7711 14.7713 14.7713 14.7713 14.7713 14.7714 14.7713 14.7714 14.7713 14.7714 14.7754 14.7744 14.7735 14.7729 14.7726 14.7724 14.7724 14.7723 14.7722 14.7721 14.7721 14.772 14.7719 14.7719 14.7719 14.7718 14.7718 14.7717 14.7717 14.7715 14.7717 14.7715 14.7715 14.7716 14.7715 14.7714 14.7715 14.7713 14.7714 14.7714 14.7713 14.7714 14.7833 14.7802 14.7778 14.7761 14.7753 14.7749 14.7746 14.7743 14.7741 14.7738 14.7737 14.7735 14.7733 14.773 14.7729 14.7728 14.7725 14.7724 14.7723 14.7721 14.772 14.7719 14.7718 14.7717 14.7715 14.7716 14.7715 14.7715 14.7713 14.7713 14.7713 14.7713 14.7916 14.7854 14.7808 14.7789 14.778 14.7773 14.7768 14.7764 14.7759 14.7755 14.7753 14.7749 14.7745 14.7742 14.7739 14.7737 14.7733 14.7732 14.7729 14.7727 14.7724 14.7723 14.7721 14.772 14.7717 14.7717 14.7716 14.7715 14.7714 14.7713 14.7713 14.7713 14.808 14.7838 14.7829 14.7815 14.7806 14.7797 14.779 14.7784 14.7778 14.7773 14.7767 14.7763 14.7758 14.7754 14.7749 14.7745 14.7741 14.7739 14.7734 14.7731 14.7728 14.7726 14.7723 14.7722 14.7719 14.7718 14.7717 14.7715 14.7713 14.7714 14.7713 14.7713 14.7375 14.7587 14.7594 14.7608 14.7617 14.7626 14.7634 14.764 14.7647 14.7652 14.7658 14.7664 14.7669 14.7673 14.7678 14.7682 14.7685 14.7689 14.7693 14.7696 14.7699 14.7702 14.7704 14.7706 14.7708 14.771 14.7711 14.7712 14.7714 14.7714 14.7714 14.7713 14.7521 14.7573 14.7617 14.7635 14.7645 14.7651 14.7656 14.7661 14.7665 14.767 14.7674 14.7677 14.7681 14.7685 14.7688 14.769 14.7693 14.7696 14.7698 14.77 14.7704 14.7705 14.7707 14.7707 14.771 14.771 14.7711 14.7712 14.7713 14.7714 14.7713 14.7715 14.76 14.7627 14.7649 14.7664 14.7671 14.7675 14.7678 14.7681 14.7685 14.7687 14.7689 14.7692 14.7693 14.7696 14.7698 14.77 14.7701 14.7703 14.7705 14.7705 14.7708 14.7708 14.7709 14.771 14.7711 14.7712 14.7712 14.7712 14.7714 14.7713 14.7714 14.7714 14.7677 14.7685 14.7691 14.7696 14.7698 14.77 14.7701 14.7703 14.7703 14.7704 14.7705 14.7706 14.7707 14.7708 14.7708 14.7709 14.7709 14.771 14.7711 14.771 14.7712 14.7712 14.7712 14.7713 14.7711 14.7713 14.7714 14.7713 14.7713 14.7713 14.7713 14.7714 14.7753 14.7743 14.7734 14.7728 14.7726 14.7724 14.7724 14.7722 14.7723 14.7722 14.7721 14.772 14.7719 14.7719 14.7719 14.7718 14.7717 14.7717 14.7717 14.7717 14.7716 14.7716 14.7715 14.7716 14.7715 14.7714 14.7714 14.7714 14.7713 14.7713 14.7714 14.7714 14.7833 14.7799 14.7774 14.776 14.7753 14.7748 14.7746 14.7743 14.7741 14.7739 14.7736 14.7734 14.7733 14.7732 14.7729 14.7727 14.7725 14.7725 14.7723 14.7722 14.772 14.7719 14.7718 14.7717 14.7716 14.7716 14.7716 14.7714 14.7713 14.7714 14.7713 14.7713 14.7915 14.7851 14.7805 14.7787 14.7779 14.7773 14.7768 14.7763 14.776 14.7756 14.7753 14.7749 14.7746 14.7743 14.7739 14.7737 14.7734 14.7731 14.7729 14.7727 14.7725 14.7723 14.7721 14.772 14.7717 14.7717 14.7716 14.7715 14.7714 14.7714 14.7713 14.7713 14.8071 14.7834 14.7825 14.7812 14.7804 14.7796 14.779 14.7784 14.7778 14.7773 14.7768 14.7763 14.7757 14.7754 14.7749 14.7746 14.7742 14.7738 14.7734 14.7732 14.7728 14.7727 14.7723 14.7721 14.7719 14.7718 14.7716 14.7716 14.7713 14.7713 14.7712 14.7713 14.7396 14.759 14.7603 14.7613 14.7621 14.7628 14.7634 14.7641 14.7647 14.7653 14.7658 14.7663 14.7668 14.7673 14.7677 14.7681 14.7686 14.769 14.7693 14.7696 14.7698 14.7702 14.7703 14.7706 14.7707 14.7709 14.7712 14.7712 14.7713 14.7714 14.7713 14.7714 14.7526 14.758 14.7628 14.7641 14.7648 14.7653 14.7657 14.7661 14.7666 14.767 14.7673 14.7678 14.7681 14.7685 14.7688 14.769 14.7693 14.7696 14.7698 14.77 14.7703 14.7704 14.7706 14.7708 14.7709 14.7711 14.7711 14.7712 14.7712 14.7713 14.7714 14.7714 14.7603 14.7633 14.7658 14.767 14.7674 14.7676 14.768 14.7682 14.7684 14.7687 14.769 14.7692 14.7693 14.7696 14.7698 14.7699 14.7701 14.7703 14.7704 14.7706 14.7707 14.7708 14.7709 14.771 14.7711 14.7711 14.7712 14.7712 14.7712 14.7714 14.7713 14.7714 14.7678 14.7686 14.7694 14.7698 14.7699 14.77 14.7701 14.7702 14.7703 14.7705 14.7705 14.7706 14.7706 14.7708 14.7708 14.7709 14.771 14.771 14.771 14.7711 14.7711 14.7712 14.7712 14.7713 14.7712 14.7713 14.7714 14.7714 14.7713 14.7713 14.7714 14.7712 14.7752 14.774 14.7731 14.7727 14.7725 14.7724 14.7723 14.7723 14.7722 14.7721 14.7721 14.7721 14.772 14.772 14.7719 14.7719 14.7717 14.7717 14.7717 14.7716 14.7716 14.7716 14.7714 14.7715 14.7714 14.7715 14.7713 14.7714 14.7713 14.7714 14.7713 14.7712 14.7829 14.7793 14.7766 14.7755 14.7751 14.7748 14.7745 14.7743 14.7741 14.7739 14.7737 14.7735 14.7733 14.7731 14.773 14.7728 14.7726 14.7725 14.7723 14.7722 14.772 14.772 14.7717 14.7718 14.7716 14.7716 14.7715 14.7714 14.7714 14.7714 14.7713 14.7713 14.791 14.7842 14.7794 14.7781 14.7775 14.7771 14.7767 14.7764 14.776 14.7757 14.7752 14.7749 14.7746 14.7743 14.774 14.7737 14.7734 14.7731 14.7729 14.7726 14.7725 14.7722 14.772 14.772 14.7718 14.7717 14.7715 14.7715 14.7714 14.7713 14.7714 14.7713 14.8052 14.783 14.7817 14.7807 14.7801 14.7795 14.779 14.7783 14.7778 14.7773 14.7768 14.7763 14.7759 14.7754 14.775 14.7746 14.7742 14.7738 14.7735 14.7732 14.7729 14.7726 14.7725 14.7721 14.7719 14.7718 14.7717 14.7715 14.7714 14.7713 14.7713 14.7714 14.7353 14.7642 14.7616 14.7623 14.7625 14.763 14.7635 14.7641 14.7647 14.7653 14.7657 14.7663 14.7668 14.7673 14.7676 14.7681 14.7685 14.7689 14.7691 14.7695 14.7697 14.7701 14.7703 14.7705 14.7707 14.7708 14.7711 14.7711 14.7711 14.7713 14.7713 14.7714 14.7486 14.7639 14.765 14.7651 14.7652 14.7654 14.7657 14.7662 14.7666 14.767 14.7673 14.7678 14.768 14.7684 14.7686 14.7691 14.7693 14.7696 14.7698 14.7701 14.7702 14.7705 14.7706 14.7708 14.7708 14.771 14.7711 14.7712 14.7712 14.7713 14.7713 14.7715 14.7578 14.7671 14.7675 14.7677 14.7677 14.7679 14.7681 14.7683 14.7685 14.7686 14.7689 14.7691 14.7694 14.7696 14.7697 14.77 14.7701 14.7703 14.7704 14.7706 14.7707 14.7707 14.7709 14.771 14.771 14.7712 14.7712 14.7713 14.7712 14.7713 14.7713 14.7714 14.767 14.7698 14.77 14.77 14.7701 14.7701 14.7702 14.7703 14.7704 14.7705 14.7705 14.7706 14.7707 14.7708 14.7708 14.7709 14.771 14.771 14.7711 14.771 14.7712 14.7712 14.7712 14.7713 14.7712 14.7713 14.7713 14.7714 14.7713 14.7714 14.7713 14.7713 14.7758 14.7725 14.7726 14.7725 14.7725 14.7724 14.7724 14.7723 14.7723 14.7722 14.7721 14.7721 14.772 14.772 14.7719 14.7719 14.7718 14.7717 14.7717 14.7716 14.7715 14.7716 14.7715 14.7715 14.7715 14.7714 14.7715 14.7713 14.7713 14.7714 14.7713 14.7714 14.785 14.7753 14.7751 14.7748 14.7748 14.7747 14.7745 14.7744 14.7741 14.7739 14.7737 14.7735 14.7734 14.7731 14.7729 14.7728 14.7726 14.7725 14.7723 14.7722 14.7721 14.772 14.7718 14.7718 14.7717 14.7716 14.7716 14.7715 14.7713 14.7714 14.7714 14.7713 14.7947 14.7784 14.7775 14.7773 14.7772 14.777 14.7767 14.7764 14.776 14.7756 14.7753 14.7749 14.7746 14.7744 14.774 14.7737 14.7734 14.7732 14.7729 14.7728 14.7725 14.7723 14.7721 14.772 14.7718 14.7717 14.7717 14.7714 14.7715 14.7715 14.7713 14.7712 14.8092 14.7782 14.7806 14.78 14.7798 14.7794 14.7789 14.7784 14.7779 14.7774 14.7769 14.7764 14.776 14.7755 14.775 14.7747 14.7742 14.7739 14.7735 14.7732 14.773 14.7726 14.7725 14.7723 14.7721 14.7719 14.7718 14.7716 14.7714 14.7714 14.7714 14.7713 
